TimeStep;Np;Nbound;Nfixed;Nmoving;Nfloat;Nfluid
0.480052;10047;2448;2448;0;0;7599

Pos.x;Pos.y;Pos.z;Idp;Vel.x;Vel.y;Vel.z;Rhop;Mass;Press;Type;Acec.x;Acec.y;Acec.z;CellOffSpring;GradVel;Qfxx;Qfxy;Qfxz;Qfyy;Qfyz;Qfzz;StrainDot.x;StrainDot.y;StrainDot.z;VonMises3D;
 -1.9000000E-01;  9.9999998E-03; -4.4999999E-01;89;  0.0000000E+00;  0.0000000E+00;  0.0000000E+00;  1.0000000E+03;  1.0000000E-01;  0.0000000E+00;0;  0.0000000E+00;  0.0000000E+00;  0.0000000E+00;0;  0.0000000E+00;  4.0000000E+04;  0.0000000E+00;  0.0000000E+00;  4.0000000E+04;  0.0000000E+00;  4.0000000E+04;  0.0000000E+00;  0.0000000E+00;  0.0000000E+00;  0.0000000E+00;
 -1.8000001E-01;  9.9999998E-03; -4.4999999E-01;180;  0.0000000E+00;  0.0000000E+00;  0.0000000E+00;  1.0000000E+03;  1.0000000E-01;  0.0000000E+00;0;  0.0000000E+00;  0.0000000E+00;  0.0000000E+00;0;  0.0000000E+00;  4.0000000E+04;  0.0000000E+00;  0.0000000E+00;  4.0000000E+04;  0.0000000E+00;  4.0000000E+04;  0.0000000E+00;  0.0000000E+00;  0.0000000E+00;  0.0000000E+00;
 -1.7000000E-01;  9.9999998E-03; -4.4999999E-01;271;  0.0000000E+00;  0.0000000E+00;  0.0000000E+00;  1.0000000E+03;  1.0000000E-01;  0.0000000E+00;0;  0.0000000E+00;  0.0000000E+00;  0.0000000E+00;0;  0.0000000E+00;  4.0000000E+04;  0.0000000E+00;  0.0000000E+00;  4.0000000E+04;  0.0000000E+00;  4.0000000E+04;  0.0000000E+00;  0.0000000E+00;  0.0000000E+00;  0.0000000E+00;
 -1.6000000E-01;  9.9999998E-03; -4.4999999E-01;362;  0.0000000E+00;  0.0000000E+00;  0.0000000E+00;  1.0000000E+03;  1.0000000E-01;  0.0000000E+00;0;  0.0000000E+00;  0.0000000E+00;  0.0000000E+00;0;  0.0000000E+00;  4.0000000E+04;  0.0000000E+00;  0.0000000E+00;  4.0000000E+04;  0.0000000E+00;  4.0000000E+04;  0.0000000E+00;  0.0000000E+00;  0.0000000E+00;  0.0000000E+00;
 -1.5000001E-01;  9.9999998E-03; -4.4999999E-01;453;  0.0000000E+00;  0.0000000E+00;  0.0000000E+00;  1.0000000E+03;  1.0000000E-01;  0.0000000E+00;0;  0.0000000E+00;  0.0000000E+00;  0.0000000E+00;0;  0.0000000E+00;  4.0000000E+04;  0.0000000E+00;  0.0000000E+00;  4.0000000E+04;  0.0000000E+00;  4.0000000E+04;  0.0000000E+00;  0.0000000E+00;  0.0000000E+00;  0.0000000E+00;
 -1.4000000E-01;  9.9999998E-03; -4.4999999E-01;544;  0.0000000E+00;  0.0000000E+00;  0.0000000E+00;  1.0000000E+03;  1.0000000E-01;  0.0000000E+00;0;  0.0000000E+00;  0.0000000E+00;  0.0000000E+00;0;  0.0000000E+00;  4.0000000E+04;  0.0000000E+00;  0.0000000E+00;  4.0000000E+04;  0.0000000E+00;  4.0000000E+04;  0.0000000E+00;  0.0000000E+00;  0.0000000E+00;  0.0000000E+00;
 -1.3000000E-01;  9.9999998E-03; -4.4999999E-01;635;  0.0000000E+00;  0.0000000E+00;  0.0000000E+00;  1.0000000E+03;  1.0000000E-01;  0.0000000E+00;0;  0.0000000E+00;  0.0000000E+00;  0.0000000E+00;0;  0.0000000E+00;  4.0000000E+04;  0.0000000E+00;  0.0000000E+00;  4.0000000E+04;  0.0000000E+00;  4.0000000E+04;  0.0000000E+00;  0.0000000E+00;  0.0000000E+00;  0.0000000E+00;
 -1.2000000E-01;  9.9999998E-03; -4.4999999E-01;726;  0.0000000E+00;  0.0000000E+00;  0.0000000E+00;  1.0000000E+03;  1.0000000E-01;  0.0000000E+00;0;  0.0000000E+00;  0.0000000E+00;  0.0000000E+00;0;  0.0000000E+00;  4.0000000E+04;  0.0000000E+00;  0.0000000E+00;  4.0000000E+04;  0.0000000E+00;  4.0000000E+04;  0.0000000E+00;  0.0000000E+00;  0.0000000E+00;  0.0000000E+00;
 -1.1000000E-01;  9.9999998E-03; -4.4999999E-01;817;  0.0000000E+00;  0.0000000E+00;  0.0000000E+00;  1.0000000E+03;  1.0000000E-01;  0.0000000E+00;0;  0.0000000E+00;  0.0000000E+00;  0.0000000E+00;0;  0.0000000E+00;  4.0000000E+04;  0.0000000E+00;  0.0000000E+00;  4.0000000E+04;  0.0000000E+00;  4.0000000E+04;  0.0000000E+00;  0.0000000E+00;  0.0000000E+00;  0.0000000E+00;
 -1.0000000E-01;  9.9999998E-03; -4.4999999E-01;908;  0.0000000E+00;  0.0000000E+00;  0.0000000E+00;  1.0000000E+03;  1.0000000E-01;  0.0000000E+00;0;  0.0000000E+00;  0.0000000E+00;  0.0000000E+00;0;  0.0000000E+00;  4.0000000E+04;  0.0000000E+00;  0.0000000E+00;  4.0000000E+04;  0.0000000E+00;  4.0000000E+04;  0.0000000E+00;  0.0000000E+00;  0.0000000E+00;  0.0000000E+00;
 -9.0000004E-02;  9.9999998E-03; -4.4999999E-01;999;  0.0000000E+00;  0.0000000E+00;  0.0000000E+00;  1.0000000E+03;  1.0000000E-01;  0.0000000E+00;0;  0.0000000E+00;  0.0000000E+00;  0.0000000E+00;0;  0.0000000E+00;  4.0000000E+04;  0.0000000E+00;  0.0000000E+00;  4.0000000E+04;  0.0000000E+00;  4.0000000E+04;  0.0000000E+00;  0.0000000E+00;  0.0000000E+00;  0.0000000E+00;
 -7.9999998E-02;  9.9999998E-03; -4.4999999E-01;1090;  0.0000000E+00;  0.0000000E+00;  0.0000000E+00;  1.0000000E+03;  1.0000000E-01;  0.0000000E+00;0;  0.0000000E+00;  0.0000000E+00;  0.0000000E+00;0;  0.0000000E+00;  4.0000000E+04;  0.0000000E+00;  0.0000000E+00;  4.0000000E+04;  0.0000000E+00;  4.0000000E+04;  0.0000000E+00;  0.0000000E+00;  0.0000000E+00;  0.0000000E+00;
 -7.0000000E-02;  9.9999998E-03; -4.4999999E-01;1181;  0.0000000E+00;  0.0000000E+00;  0.0000000E+00;  1.0000000E+03;  1.0000000E-01;  0.0000000E+00;0;  0.0000000E+00;  0.0000000E+00;  0.0000000E+00;0;  0.0000000E+00;  4.0000000E+04;  0.0000000E+00;  0.0000000E+00;  4.0000000E+04;  0.0000000E+00;  4.0000000E+04;  0.0000000E+00;  0.0000000E+00;  0.0000000E+00;  8.6648275E-12;
 -5.9999999E-02;  9.9999998E-03; -4.4999999E-01;1272;  0.0000000E+00;  0.0000000E+00;  0.0000000E+00;  1.0000000E+03;  1.0000000E-01;  0.0000000E+00;0;  0.0000000E+00;  0.0000000E+00;  0.0000000E+00;0; -4.1947663E-09;  4.0000000E+04;  0.0000000E+00;  0.0000000E+00;  4.0000000E+04;  0.0000000E+00;  4.0000000E+04; -1.9274411E-09;  0.0000000E+00; -2.2673252E-09;  3.8151689E-02;
 -5.0000001E-02;  9.9999998E-03; -4.4999999E-01;1363;  0.0000000E+00;  0.0000000E+00;  0.0000000E+00;  1.0000000E+03;  1.0000000E-01;  0.0000000E+00;0;  0.0000000E+00;  0.0000000E+00;  0.0000000E+00;0; -3.3348819E-08;  4.0000000E+04;  0.0000000E+00;  0.0000000E+00;  4.0000000E+04;  0.0000000E+00;  4.0000000E+04; -1.5593136E-08;  0.0000000E+00; -1.7755685E-08;  3.2760727E-01;
 -3.9999999E-02;  9.9999998E-03; -4.4999999E-01;1454;  0.0000000E+00;  0.0000000E+00;  0.0000000E+00;  1.0000000E+03;  1.0000000E-01;  0.0000000E+00;0;  0.0000000E+00;  0.0000000E+00;  0.0000000E+00;0; -1.0986777E-07;  4.0000000E+04;  0.0000000E+00;  0.0000000E+00;  4.0000000E+04;  0.0000000E+00;  4.0000000E+04; -5.4048453E-08;  0.0000000E+00; -5.5819317E-08;  1.2001703E+00;
 -2.9999999E-02;  9.9999998E-03; -4.4999999E-01;1545;  0.0000000E+00;  0.0000000E+00;  0.0000000E+00;  1.0000000E+03;  1.0000000E-01;  0.0000000E+00;0;  0.0000000E+00;  0.0000000E+00;  0.0000000E+00;0; -2.3589614E-07;  4.0000000E+04;  0.0000000E+00;  0.0000000E+00;  4.0000000E+04;  0.0000000E+00;  4.0000000E+04; -1.3052021E-07;  0.0000000E+00; -1.0537593E-07;  2.9161472E+00;
 -2.0000000E-02;  9.9999998E-03; -4.4999999E-01;1636;  0.0000000E+00;  0.0000000E+00;  0.0000000E+00;  1.0000000E+03;  1.0000000E-01;  0.0000000E+00;0;  0.0000000E+00;  0.0000000E+00;  0.0000000E+00;0; -3.8334630E-07;  4.0000000E+04;  0.0000000E+00;  0.0000000E+00;  4.0000000E+04;  0.0000000E+00;  4.0000000E+04; -2.5292181E-07;  0.0000000E+00; -1.3042450E-07;  5.4631495E+00;
 -9.9999998E-03;  9.9999998E-03; -4.4999999E-01;1727;  0.0000000E+00;  0.0000000E+00;  0.0000000E+00;  1.0000000E+03;  1.0000000E-01;  0.0000000E+00;0;  0.0000000E+00;  0.0000000E+00;  0.0000000E+00;0; -5.0279868E-07;  4.0000000E+04;  0.0000000E+00;  0.0000000E+00;  4.0000000E+04;  0.0000000E+00;  4.0000000E+04; -4.1660292E-07;  0.0000000E+00; -8.6195776E-08;  8.4649448E+00;
  0.0000000E+00;  9.9999998E-03; -4.4999999E-01;1818;  0.0000000E+00;  0.0000000E+00;  0.0000000E+00;  1.0000000E+03;  1.0000000E-01;  0.0000000E+00;0;  0.0000000E+00;  0.0000000E+00;  0.0000000E+00;0; -5.4470240E-07;  4.0000000E+04;  0.0000000E+00;  0.0000000E+00;  4.0000000E+04;  0.0000000E+00;  4.0000000E+04; -6.0045130E-07;  0.0000000E+00;  5.5748874E-08;  1.1245514E+01;
  9.9999998E-03;  9.9999998E-03; -4.4999999E-01;1850;  0.0000000E+00;  0.0000000E+00;  0.0000000E+00;  1.0000000E+03;  1.0000000E-01;  0.0000000E+00;0;  0.0000000E+00;  0.0000000E+00;  0.0000000E+00;0; -4.8447544E-07;  4.0000000E+04;  0.0000000E+00;  0.0000000E+00;  4.0000000E+04;  0.0000000E+00;  4.0000000E+04; -7.6875421E-07;  0.0000000E+00;  2.8427874E-07;  1.3009357E+01;
  2.0000000E-02;  9.9999998E-03; -4.4999999E-01;1880;  0.0000000E+00;  0.0000000E+00;  0.0000000E+00;  1.0000000E+03;  1.0000000E-01;  0.0000000E+00;0;  0.0000000E+00;  0.0000000E+00;  0.0000000E+00;0; -3.4089157E-07;  4.0000000E+04;  0.0000000E+00;  0.0000000E+00;  4.0000000E+04;  0.0000000E+00;  4.0000000E+04; -8.7881898E-07;  0.0000000E+00;  5.3792741E-07;  1.3076518E+01;
  2.9999999E-02;  9.9999998E-03; -4.4999999E-01;1910;  0.0000000E+00;  0.0000000E+00;  0.0000000E+00;  1.0000000E+03;  1.0000000E-01;  0.0000000E+00;0;  0.0000000E+00;  0.0000000E+00;  0.0000000E+00;0; -1.7917722E-07;  4.0000000E+04;  0.0000000E+00;  0.0000000E+00;  4.0000000E+04;  0.0000000E+00;  4.0000000E+04; -8.9176626E-07;  0.0000000E+00;  7.1258904E-07;  1.1100897E+01;
  3.9999999E-02;  9.9999998E-03; -4.4999999E-01;1940;  0.0000000E+00;  0.0000000E+00;  0.0000000E+00;  1.0000000E+03;  1.0000000E-01;  0.0000000E+00;0;  0.0000000E+00;  0.0000000E+00;  0.0000000E+00;0; -9.3500660E-08;  4.0000000E+04;  0.0000000E+00;  0.0000000E+00;  4.0000000E+04;  0.0000000E+00;  4.0000000E+04; -7.8299604E-07;  0.0000000E+00;  6.8949538E-07;  7.2404308E+00;
  5.0000001E-02;  9.9999998E-03; -4.4999999E-01;1970;  0.0000000E+00;  0.0000000E+00;  0.0000000E+00;  1.0000000E+03;  1.0000000E-01;  0.0000000E+00;0;  0.0000000E+00;  0.0000000E+00;  0.0000000E+00;0; -1.7077136E-07;  4.0000000E+04;  0.0000000E+00;  0.0000000E+00;  4.0000000E+04;  0.0000000E+00;  4.0000000E+04; -5.5096535E-07;  0.0000000E+00;  3.8019400E-07;  2.2798228E+00;
  5.9999999E-02;  9.9999998E-03; -4.4999999E-01;2000;  0.0000000E+00;  0.0000000E+00;  0.0000000E+00;  1.0000000E+03;  1.0000000E-01;  0.0000000E+00;0;  0.0000000E+00;  0.0000000E+00;  0.0000000E+00;0; -4.4422174E-07;  4.0000000E+04;  0.0000000E+00;  0.0000000E+00;  4.0000000E+04;  0.0000000E+00;  4.0000000E+04; -2.2061865E-07;  0.0000000E+00; -2.2360310E-07;  2.3903632E+00;
  7.0000000E-02;  9.9999998E-03; -4.4999999E-01;2030;  0.0000000E+00;  0.0000000E+00;  0.0000000E+00;  1.0000000E+03;  1.0000000E-01;  0.0000000E+00;0;  0.0000000E+00;  0.0000000E+00;  0.0000000E+00;0; -8.6028695E-07;  4.0000000E+04;  0.0000000E+00;  0.0000000E+00;  4.0000000E+04;  0.0000000E+00;  4.0000000E+04;  1.6194406E-07;  0.0000000E+00; -1.0222310E-06;  4.9519801E+00;
  7.9999998E-02;  9.9999998E-03; -4.4999999E-01;2060;  0.0000000E+00;  0.0000000E+00;  0.0000000E+00;  1.0000000E+03;  1.0000000E-01;  0.0000000E+00;0;  0.0000000E+00;  0.0000000E+00;  0.0000000E+00;0; -1.2830059E-06;  4.0000000E+04;  0.0000000E+00;  0.0000000E+00;  4.0000000E+04;  0.0000000E+00;  4.0000000E+04;  5.3408905E-07;  0.0000000E+00; -1.8170949E-06;  3.7381270E+00;
  9.0000004E-02;  9.9999998E-03; -4.4999999E-01;2090;  0.0000000E+00;  0.0000000E+00;  0.0000000E+00;  1.0000000E+03;  1.0000000E-01;  0.0000000E+00;0;  0.0000000E+00;  0.0000000E+00;  0.0000000E+00;0; -1.5457028E-06;  4.0000000E+04;  0.0000000E+00;  0.0000000E+00;  4.0000000E+04;  0.0000000E+00;  4.0000000E+04;  8.2444757E-07;  0.0000000E+00; -2.3701505E-06;  2.9485300E+00;
  1.0000000E-01;  9.9999998E-03; -4.4999999E-01;2120;  0.0000000E+00;  0.0000000E+00;  0.0000000E+00;  1.0000000E+03;  1.0000000E-01;  0.0000000E+00;0;  0.0000000E+00;  0.0000000E+00;  0.0000000E+00;0; -1.5401575E-06;  4.0000000E+04;  0.0000000E+00;  0.0000000E+00;  4.0000000E+04;  0.0000000E+00;  4.0000000E+04;  9.6974816E-07;  0.0000000E+00; -2.5099057E-06;  1.4200577E+01;
  1.1000000E-01;  9.9999998E-03; -4.4999999E-01;2150;  0.0000000E+00;  0.0000000E+00;  0.0000000E+00;  1.0000000E+03;  1.0000000E-01;  0.0000000E+00;0;  0.0000000E+00;  0.0000000E+00;  0.0000000E+00;0; -1.2602860E-06;  4.0000000E+04;  0.0000000E+00;  0.0000000E+00;  4.0000000E+04;  0.0000000E+00;  4.0000000E+04;  9.2932362E-07;  0.0000000E+00; -2.1896096E-06;  3.0840631E+01;
  1.2000000E-01;  9.9999998E-03; -4.4999999E-01;2180;  0.0000000E+00;  0.0000000E+00;  0.0000000E+00;  1.0000000E+03;  1.0000000E-01;  0.0000000E+00;0;  0.0000000E+00;  0.0000000E+00;  0.0000000E+00;0; -8.1822520E-07;  4.0000000E+04;  0.0000000E+00;  0.0000000E+00;  4.0000000E+04;  0.0000000E+00;  4.0000000E+04;  6.6442306E-07;  0.0000000E+00; -1.4826483E-06;  5.5173435E+01;
  1.3000000E-01;  9.9999998E-03; -4.4999999E-01;2210;  0.0000000E+00;  0.0000000E+00;  0.0000000E+00;  1.0000000E+03;  1.0000000E-01;  0.0000000E+00;0;  0.0000000E+00;  0.0000000E+00;  0.0000000E+00;0; -4.4115998E-07;  4.0000000E+04;  0.0000000E+00;  0.0000000E+00;  4.0000000E+04;  0.0000000E+00;  4.0000000E+04;  1.3793201E-07;  0.0000000E+00; -5.7909199E-07;  9.5507217E+01;
  1.4000000E-01;  9.9999998E-03; -4.4999999E-01;2240;  0.0000000E+00;  0.0000000E+00;  0.0000000E+00;  1.0000000E+03;  1.0000000E-01;  0.0000000E+00;0;  0.0000000E+00;  0.0000000E+00;  0.0000000E+00;0; -3.5711355E-07;  4.0000000E+04;  0.0000000E+00;  0.0000000E+00;  4.0000000E+04;  0.0000000E+00;  4.0000000E+04; -6.5089267E-07;  0.0000000E+00;  2.9377912E-07;  1.6803107E+02;
  1.5000001E-01;  9.9999998E-03; -4.4999999E-01;2270;  0.0000000E+00;  0.0000000E+00;  0.0000000E+00;  1.0000000E+03;  1.0000000E-01;  0.0000000E+00;0;  0.0000000E+00;  0.0000000E+00;  0.0000000E+00;0; -6.9611974E-07;  4.0000000E+04;  0.0000000E+00;  0.0000000E+00;  4.0000000E+04;  0.0000000E+00;  4.0000000E+04; -1.6549410E-06;  0.0000000E+00;  9.5882126E-07;  2.9665527E+02;
  1.6000000E-01;  9.9999998E-03; -4.4999999E-01;2300;  0.0000000E+00;  0.0000000E+00;  0.0000000E+00;  1.0000000E+03;  1.0000000E-01;  0.0000000E+00;0;  0.0000000E+00;  0.0000000E+00;  0.0000000E+00;0; -1.4709509E-06;  4.0000000E+04;  0.0000000E+00;  0.0000000E+00;  4.0000000E+04;  0.0000000E+00;  4.0000000E+04; -2.7835490E-06;  0.0000000E+00;  1.3125981E-06;  5.1315692E+02;
  1.7000000E-01;  9.9999998E-03; -4.4999999E-01;2330;  0.0000000E+00;  0.0000000E+00;  0.0000000E+00;  1.0000000E+03;  1.0000000E-01;  0.0000000E+00;0;  0.0000000E+00;  0.0000000E+00;  0.0000000E+00;0; -2.6159560E-06;  4.0000000E+04;  0.0000000E+00;  0.0000000E+00;  4.0000000E+04;  0.0000000E+00;  4.0000000E+04; -3.9105630E-06;  0.0000000E+00;  1.2946069E-06;  8.5660577E+02;
  1.8000001E-01;  9.9999998E-03; -4.4999999E-01;2360;  0.0000000E+00;  0.0000000E+00;  0.0000000E+00;  1.0000000E+03;  1.0000000E-01;  0.0000000E+00;0;  0.0000000E+00;  0.0000000E+00;  0.0000000E+00;0; -4.0920727E-06;  4.0000000E+04;  0.0000000E+00;  0.0000000E+00;  4.0000000E+04;  0.0000000E+00;  4.0000000E+04; -4.8991528E-06;  0.0000000E+00;  8.0707997E-07;  1.3667289E+03;
  1.9000000E-01;  9.9999998E-03; -4.4999999E-01;2390;  0.0000000E+00;  0.0000000E+00;  0.0000000E+00;  1.0000000E+03;  1.0000000E-01;  0.0000000E+00;0;  0.0000000E+00;  0.0000000E+00;  0.0000000E+00;0; -6.0722382E-06;  4.0000000E+04;  0.0000000E+00;  0.0000000E+00;  4.0000000E+04;  0.0000000E+00;  4.0000000E+04; -5.6502763E-06;  0.0000000E+00; -4.2196174E-07;  2.0685735E+03;
 -1.9000000E-01;  9.9999998E-03; -4.4000000E-01;90;  0.0000000E+00;  0.0000000E+00;  0.0000000E+00;  1.0000000E+03;  1.0000000E-01;  0.0000000E+00;0;  0.0000000E+00;  0.0000000E+00;  0.0000000E+00;0;  0.0000000E+00;  4.0000000E+04;  0.0000000E+00;  0.0000000E+00;  4.0000000E+04;  0.0000000E+00;  4.0000000E+04;  0.0000000E+00;  0.0000000E+00;  0.0000000E+00;  0.0000000E+00;
 -1.9000000E-01;  9.9999998E-03; -4.3000001E-01;91;  0.0000000E+00;  0.0000000E+00;  0.0000000E+00;  1.0000000E+03;  1.0000000E-01;  0.0000000E+00;0;  0.0000000E+00;  0.0000000E+00;  0.0000000E+00;0;  0.0000000E+00;  4.0000000E+04;  0.0000000E+00;  0.0000000E+00;  4.0000000E+04;  0.0000000E+00;  4.0000000E+04;  0.0000000E+00;  0.0000000E+00;  0.0000000E+00;  0.0000000E+00;
 -1.9000000E-01;  9.9999998E-03; -4.1999999E-01;92;  0.0000000E+00;  0.0000000E+00;  0.0000000E+00;  1.0000000E+03;  1.0000000E-01;  0.0000000E+00;0;  0.0000000E+00;  0.0000000E+00;  0.0000000E+00;0;  0.0000000E+00;  4.0000000E+04;  0.0000000E+00;  0.0000000E+00;  4.0000000E+04;  0.0000000E+00;  4.0000000E+04;  0.0000000E+00;  0.0000000E+00;  0.0000000E+00;  0.0000000E+00;
 -1.9000000E-01;  9.9999998E-03; -4.1000000E-01;93;  0.0000000E+00;  0.0000000E+00;  0.0000000E+00;  1.0000000E+03;  1.0000000E-01;  0.0000000E+00;0;  0.0000000E+00;  0.0000000E+00;  0.0000000E+00;0;  0.0000000E+00;  4.0000000E+04;  0.0000000E+00;  0.0000000E+00;  4.0000000E+04;  0.0000000E+00;  4.0000000E+04;  0.0000000E+00;  0.0000000E+00;  0.0000000E+00;  0.0000000E+00;
 -1.9000000E-01;  9.9999998E-03; -4.0000001E-01;94;  0.0000000E+00;  0.0000000E+00;  0.0000000E+00;  1.0000000E+03;  1.0000000E-01;  0.0000000E+00;0;  0.0000000E+00;  0.0000000E+00;  0.0000000E+00;0;  0.0000000E+00;  4.0000000E+04;  0.0000000E+00;  0.0000000E+00;  4.0000000E+04;  0.0000000E+00;  4.0000000E+04;  0.0000000E+00;  0.0000000E+00;  0.0000000E+00;  0.0000000E+00;
 -1.9000000E-01;  9.9999998E-03; -3.8999999E-01;95;  0.0000000E+00;  0.0000000E+00;  0.0000000E+00;  1.0000000E+03;  1.0000000E-01;  0.0000000E+00;0;  0.0000000E+00;  0.0000000E+00;  0.0000000E+00;0;  0.0000000E+00;  4.0000000E+04;  0.0000000E+00;  0.0000000E+00;  4.0000000E+04;  0.0000000E+00;  4.0000000E+04;  0.0000000E+00;  0.0000000E+00;  0.0000000E+00;  0.0000000E+00;
 -1.9000000E-01;  9.9999998E-03; -3.8000000E-01;96;  0.0000000E+00;  0.0000000E+00;  0.0000000E+00;  1.0000000E+03;  1.0000000E-01;  0.0000000E+00;0;  0.0000000E+00;  0.0000000E+00;  0.0000000E+00;0;  0.0000000E+00;  4.0000000E+04;  0.0000000E+00;  0.0000000E+00;  4.0000000E+04;  0.0000000E+00;  4.0000000E+04;  0.0000000E+00;  0.0000000E+00;  0.0000000E+00;  0.0000000E+00;
 -1.9000000E-01;  9.9999998E-03; -3.7000000E-01;97;  0.0000000E+00;  0.0000000E+00;  0.0000000E+00;  1.0000000E+03;  1.0000000E-01;  0.0000000E+00;0;  0.0000000E+00;  0.0000000E+00;  0.0000000E+00;0;  0.0000000E+00;  4.0000000E+04;  0.0000000E+00;  0.0000000E+00;  4.0000000E+04;  0.0000000E+00;  4.0000000E+04;  0.0000000E+00;  0.0000000E+00;  0.0000000E+00;  0.0000000E+00;
 -1.9000000E-01;  9.9999998E-03; -3.6000001E-01;98;  0.0000000E+00;  0.0000000E+00;  0.0000000E+00;  1.0000000E+03;  1.0000000E-01;  0.0000000E+00;0;  0.0000000E+00;  0.0000000E+00;  0.0000000E+00;0;  0.0000000E+00;  4.0000000E+04;  0.0000000E+00;  0.0000000E+00;  4.0000000E+04;  0.0000000E+00;  4.0000000E+04;  0.0000000E+00;  0.0000000E+00;  0.0000000E+00;  0.0000000E+00;
 -1.9000000E-01;  9.9999998E-03; -3.4999999E-01;99;  0.0000000E+00;  0.0000000E+00;  0.0000000E+00;  1.0000000E+03;  1.0000000E-01;  0.0000000E+00;0;  0.0000000E+00;  0.0000000E+00;  0.0000000E+00;0;  0.0000000E+00;  4.0000000E+04;  0.0000000E+00;  0.0000000E+00;  4.0000000E+04;  0.0000000E+00;  4.0000000E+04;  0.0000000E+00;  0.0000000E+00;  0.0000000E+00;  0.0000000E+00;
 -1.9000000E-01;  9.9999998E-03; -3.4000000E-01;100;  0.0000000E+00;  0.0000000E+00;  0.0000000E+00;  1.0000000E+03;  1.0000000E-01;  0.0000000E+00;0;  0.0000000E+00;  0.0000000E+00;  0.0000000E+00;0;  0.0000000E+00;  4.0000000E+04;  0.0000000E+00;  0.0000000E+00;  4.0000000E+04;  0.0000000E+00;  4.0000000E+04;  0.0000000E+00;  0.0000000E+00;  0.0000000E+00;  0.0000000E+00;
 -1.9000000E-01;  9.9999998E-03; -3.3000001E-01;101;  0.0000000E+00;  0.0000000E+00;  0.0000000E+00;  1.0000000E+03;  1.0000000E-01;  0.0000000E+00;0;  0.0000000E+00;  0.0000000E+00;  0.0000000E+00;0;  0.0000000E+00;  4.0000000E+04;  0.0000000E+00;  0.0000000E+00;  4.0000000E+04;  0.0000000E+00;  4.0000000E+04;  0.0000000E+00;  0.0000000E+00;  0.0000000E+00;  0.0000000E+00;
 -1.9000000E-01;  9.9999998E-03; -3.1999999E-01;102;  0.0000000E+00;  0.0000000E+00;  0.0000000E+00;  1.0000000E+03;  1.0000000E-01;  0.0000000E+00;0;  0.0000000E+00;  0.0000000E+00;  0.0000000E+00;0;  0.0000000E+00;  4.0000000E+04;  0.0000000E+00;  0.0000000E+00;  4.0000000E+04;  0.0000000E+00;  4.0000000E+04;  0.0000000E+00;  0.0000000E+00;  0.0000000E+00;  0.0000000E+00;
 -1.9000000E-01;  9.9999998E-03; -3.1000000E-01;103;  0.0000000E+00;  0.0000000E+00;  0.0000000E+00;  1.0000000E+03;  1.0000000E-01;  0.0000000E+00;0;  0.0000000E+00;  0.0000000E+00;  0.0000000E+00;0;  0.0000000E+00;  4.0000000E+04;  0.0000000E+00;  0.0000000E+00;  4.0000000E+04;  0.0000000E+00;  4.0000000E+04;  0.0000000E+00;  0.0000000E+00;  0.0000000E+00;  0.0000000E+00;
 -1.9000000E-01;  9.9999998E-03; -3.0000001E-01;104;  0.0000000E+00;  0.0000000E+00;  0.0000000E+00;  1.0000000E+03;  1.0000000E-01;  0.0000000E+00;0;  0.0000000E+00;  0.0000000E+00;  0.0000000E+00;0;  0.0000000E+00;  4.0000000E+04;  0.0000000E+00;  0.0000000E+00;  4.0000000E+04;  0.0000000E+00;  4.0000000E+04;  0.0000000E+00;  0.0000000E+00;  0.0000000E+00;  0.0000000E+00;
 -1.9000000E-01;  9.9999998E-03; -2.8999999E-01;105;  0.0000000E+00;  0.0000000E+00;  0.0000000E+00;  1.0000000E+03;  1.0000000E-01;  0.0000000E+00;0;  0.0000000E+00;  0.0000000E+00;  0.0000000E+00;0;  0.0000000E+00;  4.0000000E+04;  0.0000000E+00;  0.0000000E+00;  4.0000000E+04;  0.0000000E+00;  4.0000000E+04;  0.0000000E+00;  0.0000000E+00;  0.0000000E+00;  0.0000000E+00;
 -1.9000000E-01;  9.9999998E-03; -2.8000000E-01;106;  0.0000000E+00;  0.0000000E+00;  0.0000000E+00;  1.0000000E+03;  1.0000000E-01;  0.0000000E+00;0;  0.0000000E+00;  0.0000000E+00;  0.0000000E+00;0;  0.0000000E+00;  4.0000000E+04;  0.0000000E+00;  0.0000000E+00;  4.0000000E+04;  0.0000000E+00;  4.0000000E+04;  0.0000000E+00;  0.0000000E+00;  0.0000000E+00;  0.0000000E+00;
 -1.8000001E-01;  9.9999998E-03; -4.4000000E-01;181;  0.0000000E+00;  0.0000000E+00;  0.0000000E+00;  1.0000000E+03;  1.0000000E-01;  0.0000000E+00;0;  0.0000000E+00;  0.0000000E+00;  0.0000000E+00;0;  0.0000000E+00;  4.0000000E+04;  0.0000000E+00;  0.0000000E+00;  4.0000000E+04;  0.0000000E+00;  4.0000000E+04;  0.0000000E+00;  0.0000000E+00;  0.0000000E+00;  0.0000000E+00;
 -1.8000001E-01;  9.9999998E-03; -4.3000001E-01;182;  0.0000000E+00;  0.0000000E+00;  0.0000000E+00;  1.0000000E+03;  1.0000000E-01;  0.0000000E+00;0;  0.0000000E+00;  0.0000000E+00;  0.0000000E+00;0;  0.0000000E+00;  4.0000000E+04;  0.0000000E+00;  0.0000000E+00;  4.0000000E+04;  0.0000000E+00;  4.0000000E+04;  0.0000000E+00;  0.0000000E+00;  0.0000000E+00;  0.0000000E+00;
 -1.8000001E-01;  9.9999998E-03; -4.1999999E-01;183;  0.0000000E+00;  0.0000000E+00;  0.0000000E+00;  1.0000000E+03;  1.0000000E-01;  0.0000000E+00;0;  0.0000000E+00;  0.0000000E+00;  0.0000000E+00;0;  0.0000000E+00;  4.0000000E+04;  0.0000000E+00;  0.0000000E+00;  4.0000000E+04;  0.0000000E+00;  4.0000000E+04;  0.0000000E+00;  0.0000000E+00;  0.0000000E+00;  0.0000000E+00;
 -1.8000001E-01;  9.9999998E-03; -4.1000000E-01;184;  0.0000000E+00;  0.0000000E+00;  0.0000000E+00;  1.0000000E+03;  1.0000000E-01;  0.0000000E+00;0;  0.0000000E+00;  0.0000000E+00;  0.0000000E+00;0;  0.0000000E+00;  4.0000000E+04;  0.0000000E+00;  0.0000000E+00;  4.0000000E+04;  0.0000000E+00;  4.0000000E+04;  0.0000000E+00;  0.0000000E+00;  0.0000000E+00;  0.0000000E+00;
 -1.8000001E-01;  9.9999998E-03; -4.0000001E-01;185;  0.0000000E+00;  0.0000000E+00;  0.0000000E+00;  1.0000000E+03;  1.0000000E-01;  0.0000000E+00;0;  0.0000000E+00;  0.0000000E+00;  0.0000000E+00;0;  0.0000000E+00;  4.0000000E+04;  0.0000000E+00;  0.0000000E+00;  4.0000000E+04;  0.0000000E+00;  4.0000000E+04;  0.0000000E+00;  0.0000000E+00;  0.0000000E+00;  0.0000000E+00;
 -1.8000001E-01;  9.9999998E-03; -3.8999999E-01;186;  0.0000000E+00;  0.0000000E+00;  0.0000000E+00;  1.0000000E+03;  1.0000000E-01;  0.0000000E+00;0;  0.0000000E+00;  0.0000000E+00;  0.0000000E+00;0;  0.0000000E+00;  4.0000000E+04;  0.0000000E+00;  0.0000000E+00;  4.0000000E+04;  0.0000000E+00;  4.0000000E+04;  0.0000000E+00;  0.0000000E+00;  0.0000000E+00;  0.0000000E+00;
 -1.8000001E-01;  9.9999998E-03; -3.8000000E-01;187;  0.0000000E+00;  0.0000000E+00;  0.0000000E+00;  1.0000000E+03;  1.0000000E-01;  0.0000000E+00;0;  0.0000000E+00;  0.0000000E+00;  0.0000000E+00;0;  0.0000000E+00;  4.0000000E+04;  0.0000000E+00;  0.0000000E+00;  4.0000000E+04;  0.0000000E+00;  4.0000000E+04;  0.0000000E+00;  0.0000000E+00;  0.0000000E+00;  0.0000000E+00;
 -1.8000001E-01;  9.9999998E-03; -3.7000000E-01;188;  0.0000000E+00;  0.0000000E+00;  0.0000000E+00;  1.0000000E+03;  1.0000000E-01;  0.0000000E+00;0;  0.0000000E+00;  0.0000000E+00;  0.0000000E+00;0;  0.0000000E+00;  4.0000000E+04;  0.0000000E+00;  0.0000000E+00;  4.0000000E+04;  0.0000000E+00;  4.0000000E+04;  0.0000000E+00;  0.0000000E+00;  0.0000000E+00;  0.0000000E+00;
 -1.8000001E-01;  9.9999998E-03; -3.6000001E-01;189;  0.0000000E+00;  0.0000000E+00;  0.0000000E+00;  1.0000000E+03;  1.0000000E-01;  0.0000000E+00;0;  0.0000000E+00;  0.0000000E+00;  0.0000000E+00;0;  0.0000000E+00;  4.0000000E+04;  0.0000000E+00;  0.0000000E+00;  4.0000000E+04;  0.0000000E+00;  4.0000000E+04;  0.0000000E+00;  0.0000000E+00;  0.0000000E+00;  0.0000000E+00;
 -1.8000001E-01;  9.9999998E-03; -3.4999999E-01;190;  0.0000000E+00;  0.0000000E+00;  0.0000000E+00;  1.0000000E+03;  1.0000000E-01;  0.0000000E+00;0;  0.0000000E+00;  0.0000000E+00;  0.0000000E+00;0;  0.0000000E+00;  4.0000000E+04;  0.0000000E+00;  0.0000000E+00;  4.0000000E+04;  0.0000000E+00;  4.0000000E+04;  0.0000000E+00;  0.0000000E+00;  0.0000000E+00;  0.0000000E+00;
 -1.8000001E-01;  9.9999998E-03; -3.4000000E-01;191;  0.0000000E+00;  0.0000000E+00;  0.0000000E+00;  1.0000000E+03;  1.0000000E-01;  0.0000000E+00;0;  0.0000000E+00;  0.0000000E+00;  0.0000000E+00;0;  0.0000000E+00;  4.0000000E+04;  0.0000000E+00;  0.0000000E+00;  4.0000000E+04;  0.0000000E+00;  4.0000000E+04;  0.0000000E+00;  0.0000000E+00;  0.0000000E+00;  0.0000000E+00;
 -1.8000001E-01;  9.9999998E-03; -3.3000001E-01;192;  0.0000000E+00;  0.0000000E+00;  0.0000000E+00;  1.0000000E+03;  1.0000000E-01;  0.0000000E+00;0;  0.0000000E+00;  0.0000000E+00;  0.0000000E+00;0;  0.0000000E+00;  4.0000000E+04;  0.0000000E+00;  0.0000000E+00;  4.0000000E+04;  0.0000000E+00;  4.0000000E+04;  0.0000000E+00;  0.0000000E+00;  0.0000000E+00;  0.0000000E+00;
 -1.8000001E-01;  9.9999998E-03; -3.1999999E-01;193;  0.0000000E+00;  0.0000000E+00;  0.0000000E+00;  1.0000000E+03;  1.0000000E-01;  0.0000000E+00;0;  0.0000000E+00;  0.0000000E+00;  0.0000000E+00;0;  0.0000000E+00;  4.0000000E+04;  0.0000000E+00;  0.0000000E+00;  4.0000000E+04;  0.0000000E+00;  4.0000000E+04;  0.0000000E+00;  0.0000000E+00;  0.0000000E+00;  0.0000000E+00;
 -1.8000001E-01;  9.9999998E-03; -3.1000000E-01;194;  0.0000000E+00;  0.0000000E+00;  0.0000000E+00;  1.0000000E+03;  1.0000000E-01;  0.0000000E+00;0;  0.0000000E+00;  0.0000000E+00;  0.0000000E+00;0;  0.0000000E+00;  4.0000000E+04;  0.0000000E+00;  0.0000000E+00;  4.0000000E+04;  0.0000000E+00;  4.0000000E+04;  0.0000000E+00;  0.0000000E+00;  0.0000000E+00;  0.0000000E+00;
 -1.8000001E-01;  9.9999998E-03; -3.0000001E-01;195;  0.0000000E+00;  0.0000000E+00;  0.0000000E+00;  1.0000000E+03;  1.0000000E-01;  0.0000000E+00;0;  0.0000000E+00;  0.0000000E+00;  0.0000000E+00;0;  0.0000000E+00;  4.0000000E+04;  0.0000000E+00;  0.0000000E+00;  4.0000000E+04;  0.0000000E+00;  4.0000000E+04;  0.0000000E+00;  0.0000000E+00;  0.0000000E+00;  0.0000000E+00;
 -1.8000001E-01;  9.9999998E-03; -2.8999999E-01;196;  0.0000000E+00;  0.0000000E+00;  0.0000000E+00;  1.0000000E+03;  1.0000000E-01;  0.0000000E+00;0;  0.0000000E+00;  0.0000000E+00;  0.0000000E+00;0;  0.0000000E+00;  4.0000000E+04;  0.0000000E+00;  0.0000000E+00;  4.0000000E+04;  0.0000000E+00;  4.0000000E+04;  0.0000000E+00;  0.0000000E+00;  0.0000000E+00;  0.0000000E+00;
 -1.8000001E-01;  9.9999998E-03; -2.8000000E-01;197;  0.0000000E+00;  0.0000000E+00;  0.0000000E+00;  1.0000000E+03;  1.0000000E-01;  0.0000000E+00;0;  0.0000000E+00;  0.0000000E+00;  0.0000000E+00;0;  0.0000000E+00;  4.0000000E+04;  0.0000000E+00;  0.0000000E+00;  4.0000000E+04;  0.0000000E+00;  4.0000000E+04;  0.0000000E+00;  0.0000000E+00;  0.0000000E+00;  0.0000000E+00;
 -1.7000000E-01;  9.9999998E-03; -4.4000000E-01;272;  0.0000000E+00;  0.0000000E+00;  0.0000000E+00;  1.0000000E+03;  1.0000000E-01;  0.0000000E+00;0;  0.0000000E+00;  0.0000000E+00;  0.0000000E+00;0;  0.0000000E+00;  4.0000000E+04;  0.0000000E+00;  0.0000000E+00;  4.0000000E+04;  0.0000000E+00;  4.0000000E+04;  0.0000000E+00;  0.0000000E+00;  0.0000000E+00;  0.0000000E+00;
 -1.7000000E-01;  9.9999998E-03; -4.3000001E-01;273;  0.0000000E+00;  0.0000000E+00;  0.0000000E+00;  1.0000000E+03;  1.0000000E-01;  0.0000000E+00;0;  0.0000000E+00;  0.0000000E+00;  0.0000000E+00;0;  0.0000000E+00;  4.0000000E+04;  0.0000000E+00;  0.0000000E+00;  4.0000000E+04;  0.0000000E+00;  4.0000000E+04;  0.0000000E+00;  0.0000000E+00;  0.0000000E+00;  0.0000000E+00;
 -1.7000000E-01;  9.9999998E-03; -4.1999999E-01;274;  0.0000000E+00;  0.0000000E+00;  0.0000000E+00;  1.0000000E+03;  1.0000000E-01;  0.0000000E+00;0;  0.0000000E+00;  0.0000000E+00;  0.0000000E+00;0;  0.0000000E+00;  4.0000000E+04;  0.0000000E+00;  0.0000000E+00;  4.0000000E+04;  0.0000000E+00;  4.0000000E+04;  0.0000000E+00;  0.0000000E+00;  0.0000000E+00;  0.0000000E+00;
 -1.7000000E-01;  9.9999998E-03; -4.1000000E-01;275;  0.0000000E+00;  0.0000000E+00;  0.0000000E+00;  1.0000000E+03;  1.0000000E-01;  0.0000000E+00;0;  0.0000000E+00;  0.0000000E+00;  0.0000000E+00;0;  0.0000000E+00;  4.0000000E+04;  0.0000000E+00;  0.0000000E+00;  4.0000000E+04;  0.0000000E+00;  4.0000000E+04;  0.0000000E+00;  0.0000000E+00;  0.0000000E+00;  0.0000000E+00;
 -1.7000000E-01;  9.9999998E-03; -4.0000001E-01;276;  0.0000000E+00;  0.0000000E+00;  0.0000000E+00;  1.0000000E+03;  1.0000000E-01;  0.0000000E+00;0;  0.0000000E+00;  0.0000000E+00;  0.0000000E+00;0;  0.0000000E+00;  4.0000000E+04;  0.0000000E+00;  0.0000000E+00;  4.0000000E+04;  0.0000000E+00;  4.0000000E+04;  0.0000000E+00;  0.0000000E+00;  0.0000000E+00;  0.0000000E+00;
 -1.7000000E-01;  9.9999998E-03; -3.8999999E-01;277;  0.0000000E+00;  0.0000000E+00;  0.0000000E+00;  1.0000000E+03;  1.0000000E-01;  0.0000000E+00;0;  0.0000000E+00;  0.0000000E+00;  0.0000000E+00;0;  0.0000000E+00;  4.0000000E+04;  0.0000000E+00;  0.0000000E+00;  4.0000000E+04;  0.0000000E+00;  4.0000000E+04;  0.0000000E+00;  0.0000000E+00;  0.0000000E+00;  0.0000000E+00;
 -1.7000000E-01;  9.9999998E-03; -3.8000000E-01;278;  0.0000000E+00;  0.0000000E+00;  0.0000000E+00;  1.0000000E+03;  1.0000000E-01;  0.0000000E+00;0;  0.0000000E+00;  0.0000000E+00;  0.0000000E+00;0;  0.0000000E+00;  4.0000000E+04;  0.0000000E+00;  0.0000000E+00;  4.0000000E+04;  0.0000000E+00;  4.0000000E+04;  0.0000000E+00;  0.0000000E+00;  0.0000000E+00;  0.0000000E+00;
 -1.7000000E-01;  9.9999998E-03; -3.7000000E-01;279;  0.0000000E+00;  0.0000000E+00;  0.0000000E+00;  1.0000000E+03;  1.0000000E-01;  0.0000000E+00;0;  0.0000000E+00;  0.0000000E+00;  0.0000000E+00;0;  0.0000000E+00;  4.0000000E+04;  0.0000000E+00;  0.0000000E+00;  4.0000000E+04;  0.0000000E+00;  4.0000000E+04;  0.0000000E+00;  0.0000000E+00;  0.0000000E+00;  0.0000000E+00;
 -1.7000000E-01;  9.9999998E-03; -3.6000001E-01;280;  0.0000000E+00;  0.0000000E+00;  0.0000000E+00;  1.0000000E+03;  1.0000000E-01;  0.0000000E+00;0;  0.0000000E+00;  0.0000000E+00;  0.0000000E+00;0;  0.0000000E+00;  4.0000000E+04;  0.0000000E+00;  0.0000000E+00;  4.0000000E+04;  0.0000000E+00;  4.0000000E+04;  0.0000000E+00;  0.0000000E+00;  0.0000000E+00;  0.0000000E+00;
 -1.7000000E-01;  9.9999998E-03; -3.4999999E-01;281;  0.0000000E+00;  0.0000000E+00;  0.0000000E+00;  1.0000000E+03;  1.0000000E-01;  0.0000000E+00;0;  0.0000000E+00;  0.0000000E+00;  0.0000000E+00;0;  0.0000000E+00;  4.0000000E+04;  0.0000000E+00;  0.0000000E+00;  4.0000000E+04;  0.0000000E+00;  4.0000000E+04;  0.0000000E+00;  0.0000000E+00;  0.0000000E+00;  0.0000000E+00;
 -1.7000000E-01;  9.9999998E-03; -3.4000000E-01;282;  0.0000000E+00;  0.0000000E+00;  0.0000000E+00;  1.0000000E+03;  1.0000000E-01;  0.0000000E+00;0;  0.0000000E+00;  0.0000000E+00;  0.0000000E+00;0;  0.0000000E+00;  4.0000000E+04;  0.0000000E+00;  0.0000000E+00;  4.0000000E+04;  0.0000000E+00;  4.0000000E+04;  0.0000000E+00;  0.0000000E+00;  0.0000000E+00;  0.0000000E+00;
 -1.7000000E-01;  9.9999998E-03; -3.3000001E-01;283;  0.0000000E+00;  0.0000000E+00;  0.0000000E+00;  1.0000000E+03;  1.0000000E-01;  0.0000000E+00;0;  0.0000000E+00;  0.0000000E+00;  0.0000000E+00;0;  0.0000000E+00;  4.0000000E+04;  0.0000000E+00;  0.0000000E+00;  4.0000000E+04;  0.0000000E+00;  4.0000000E+04;  0.0000000E+00;  0.0000000E+00;  0.0000000E+00;  0.0000000E+00;
 -1.7000000E-01;  9.9999998E-03; -3.1999999E-01;284;  0.0000000E+00;  0.0000000E+00;  0.0000000E+00;  1.0000000E+03;  1.0000000E-01;  0.0000000E+00;0;  0.0000000E+00;  0.0000000E+00;  0.0000000E+00;0;  0.0000000E+00;  4.0000000E+04;  0.0000000E+00;  0.0000000E+00;  4.0000000E+04;  0.0000000E+00;  4.0000000E+04;  0.0000000E+00;  0.0000000E+00;  0.0000000E+00;  0.0000000E+00;
 -1.7000000E-01;  9.9999998E-03; -3.1000000E-01;285;  0.0000000E+00;  0.0000000E+00;  0.0000000E+00;  1.0000000E+03;  1.0000000E-01;  0.0000000E+00;0;  0.0000000E+00;  0.0000000E+00;  0.0000000E+00;0;  0.0000000E+00;  4.0000000E+04;  0.0000000E+00;  0.0000000E+00;  4.0000000E+04;  0.0000000E+00;  4.0000000E+04;  0.0000000E+00;  0.0000000E+00;  0.0000000E+00;  0.0000000E+00;
 -1.7000000E-01;  9.9999998E-03; -3.0000001E-01;286;  0.0000000E+00;  0.0000000E+00;  0.0000000E+00;  1.0000000E+03;  1.0000000E-01;  0.0000000E+00;0;  0.0000000E+00;  0.0000000E+00;  0.0000000E+00;0;  0.0000000E+00;  4.0000000E+04;  0.0000000E+00;  0.0000000E+00;  4.0000000E+04;  0.0000000E+00;  4.0000000E+04;  0.0000000E+00;  0.0000000E+00;  0.0000000E+00;  0.0000000E+00;
 -1.7000000E-01;  9.9999998E-03; -2.8999999E-01;287;  0.0000000E+00;  0.0000000E+00;  0.0000000E+00;  1.0000000E+03;  1.0000000E-01;  0.0000000E+00;0;  0.0000000E+00;  0.0000000E+00;  0.0000000E+00;0;  0.0000000E+00;  4.0000000E+04;  0.0000000E+00;  0.0000000E+00;  4.0000000E+04;  0.0000000E+00;  4.0000000E+04;  0.0000000E+00;  0.0000000E+00;  0.0000000E+00;  6.8926012E-14;
 -1.7000000E-01;  9.9999998E-03; -2.8000000E-01;288;  0.0000000E+00;  0.0000000E+00;  0.0000000E+00;  1.0000000E+03;  1.0000000E-01;  0.0000000E+00;0;  0.0000000E+00;  0.0000000E+00;  0.0000000E+00;0;  0.0000000E+00;  4.0000000E+04;  0.0000000E+00;  0.0000000E+00;  4.0000000E+04;  0.0000000E+00;  4.0000000E+04;  0.0000000E+00;  0.0000000E+00;  0.0000000E+00;  1.4968563E-11;
 -1.6000000E-01;  9.9999998E-03; -4.4000000E-01;363;  0.0000000E+00;  0.0000000E+00;  0.0000000E+00;  1.0000000E+03;  1.0000000E-01;  0.0000000E+00;0;  0.0000000E+00;  0.0000000E+00;  0.0000000E+00;0;  0.0000000E+00;  4.0000000E+04;  0.0000000E+00;  0.0000000E+00;  4.0000000E+04;  0.0000000E+00;  4.0000000E+04;  0.0000000E+00;  0.0000000E+00;  0.0000000E+00;  0.0000000E+00;
 -1.6000000E-01;  9.9999998E-03; -4.3000001E-01;364;  0.0000000E+00;  0.0000000E+00;  0.0000000E+00;  1.0000000E+03;  1.0000000E-01;  0.0000000E+00;0;  0.0000000E+00;  0.0000000E+00;  0.0000000E+00;0;  0.0000000E+00;  4.0000000E+04;  0.0000000E+00;  0.0000000E+00;  4.0000000E+04;  0.0000000E+00;  4.0000000E+04;  0.0000000E+00;  0.0000000E+00;  0.0000000E+00;  0.0000000E+00;
 -1.6000000E-01;  9.9999998E-03; -4.1999999E-01;365;  0.0000000E+00;  0.0000000E+00;  0.0000000E+00;  1.0000000E+03;  1.0000000E-01;  0.0000000E+00;0;  0.0000000E+00;  0.0000000E+00;  0.0000000E+00;0;  0.0000000E+00;  4.0000000E+04;  0.0000000E+00;  0.0000000E+00;  4.0000000E+04;  0.0000000E+00;  4.0000000E+04;  0.0000000E+00;  0.0000000E+00;  0.0000000E+00;  0.0000000E+00;
 -1.6000000E-01;  9.9999998E-03; -4.1000000E-01;366;  0.0000000E+00;  0.0000000E+00;  0.0000000E+00;  1.0000000E+03;  1.0000000E-01;  0.0000000E+00;0;  0.0000000E+00;  0.0000000E+00;  0.0000000E+00;0;  0.0000000E+00;  4.0000000E+04;  0.0000000E+00;  0.0000000E+00;  4.0000000E+04;  0.0000000E+00;  4.0000000E+04;  0.0000000E+00;  0.0000000E+00;  0.0000000E+00;  0.0000000E+00;
 -1.6000000E-01;  9.9999998E-03; -4.0000001E-01;367;  0.0000000E+00;  0.0000000E+00;  0.0000000E+00;  1.0000000E+03;  1.0000000E-01;  0.0000000E+00;0;  0.0000000E+00;  0.0000000E+00;  0.0000000E+00;0;  0.0000000E+00;  4.0000000E+04;  0.0000000E+00;  0.0000000E+00;  4.0000000E+04;  0.0000000E+00;  4.0000000E+04;  0.0000000E+00;  0.0000000E+00;  0.0000000E+00;  0.0000000E+00;
 -1.6000000E-01;  9.9999998E-03; -3.8999999E-01;368;  0.0000000E+00;  0.0000000E+00;  0.0000000E+00;  1.0000000E+03;  1.0000000E-01;  0.0000000E+00;0;  0.0000000E+00;  0.0000000E+00;  0.0000000E+00;0;  0.0000000E+00;  4.0000000E+04;  0.0000000E+00;  0.0000000E+00;  4.0000000E+04;  0.0000000E+00;  4.0000000E+04;  0.0000000E+00;  0.0000000E+00;  0.0000000E+00;  0.0000000E+00;
 -1.6000000E-01;  9.9999998E-03; -3.8000000E-01;369;  0.0000000E+00;  0.0000000E+00;  0.0000000E+00;  1.0000000E+03;  1.0000000E-01;  0.0000000E+00;0;  0.0000000E+00;  0.0000000E+00;  0.0000000E+00;0;  0.0000000E+00;  4.0000000E+04;  0.0000000E+00;  0.0000000E+00;  4.0000000E+04;  0.0000000E+00;  4.0000000E+04;  0.0000000E+00;  0.0000000E+00;  0.0000000E+00;  0.0000000E+00;
 -1.6000000E-01;  9.9999998E-03; -3.7000000E-01;370;  0.0000000E+00;  0.0000000E+00;  0.0000000E+00;  1.0000000E+03;  1.0000000E-01;  0.0000000E+00;0;  0.0000000E+00;  0.0000000E+00;  0.0000000E+00;0;  0.0000000E+00;  4.0000000E+04;  0.0000000E+00;  0.0000000E+00;  4.0000000E+04;  0.0000000E+00;  4.0000000E+04;  0.0000000E+00;  0.0000000E+00;  0.0000000E+00;  0.0000000E+00;
 -1.6000000E-01;  9.9999998E-03; -3.6000001E-01;371;  0.0000000E+00;  0.0000000E+00;  0.0000000E+00;  1.0000000E+03;  1.0000000E-01;  0.0000000E+00;0;  0.0000000E+00;  0.0000000E+00;  0.0000000E+00;0;  0.0000000E+00;  4.0000000E+04;  0.0000000E+00;  0.0000000E+00;  4.0000000E+04;  0.0000000E+00;  4.0000000E+04;  0.0000000E+00;  0.0000000E+00;  0.0000000E+00;  0.0000000E+00;
 -1.6000000E-01;  9.9999998E-03; -3.4999999E-01;372;  0.0000000E+00;  0.0000000E+00;  0.0000000E+00;  1.0000000E+03;  1.0000000E-01;  0.0000000E+00;0;  0.0000000E+00;  0.0000000E+00;  0.0000000E+00;0;  0.0000000E+00;  4.0000000E+04;  0.0000000E+00;  0.0000000E+00;  4.0000000E+04;  0.0000000E+00;  4.0000000E+04;  0.0000000E+00;  0.0000000E+00;  0.0000000E+00;  0.0000000E+00;
 -1.6000000E-01;  9.9999998E-03; -3.4000000E-01;373;  0.0000000E+00;  0.0000000E+00;  0.0000000E+00;  1.0000000E+03;  1.0000000E-01;  0.0000000E+00;0;  0.0000000E+00;  0.0000000E+00;  0.0000000E+00;0;  3.3166264E-10;  4.0000000E+04;  0.0000000E+00;  0.0000000E+00;  4.0000000E+04;  0.0000000E+00;  4.0000000E+04;  4.4492207E-10;  0.0000000E+00; -1.1325942E-10;  1.0968482E-03;
 -1.6000000E-01;  9.9999998E-03; -3.3000001E-01;374;  0.0000000E+00;  0.0000000E+00;  0.0000000E+00;  1.0000000E+03;  1.0000000E-01;  0.0000000E+00;0;  0.0000000E+00;  0.0000000E+00;  0.0000000E+00;0;  6.1975682E-09;  4.0000000E+04;  0.0000000E+00;  0.0000000E+00;  4.0000000E+04;  0.0000000E+00;  4.0000000E+04;  7.6706064E-09;  0.0000000E+00; -1.4730381E-09;  8.9560095E-03;
 -1.6000000E-01;  9.9999998E-03; -3.1999999E-01;375;  0.0000000E+00;  0.0000000E+00;  0.0000000E+00;  1.0000000E+03;  1.0000000E-01;  0.0000000E+00;0;  0.0000000E+00;  0.0000000E+00;  0.0000000E+00;0;  3.4012110E-08;  4.0000000E+04;  0.0000000E+00;  0.0000000E+00;  4.0000000E+04;  0.0000000E+00;  4.0000000E+04;  3.8489251E-08;  0.0000000E+00; -4.4771404E-09;  2.7321020E-02;
 -1.6000000E-01;  9.9999998E-03; -3.1000000E-01;376;  0.0000000E+00;  0.0000000E+00;  0.0000000E+00;  1.0000000E+03;  1.0000000E-01;  0.0000000E+00;0;  0.0000000E+00;  0.0000000E+00;  0.0000000E+00;0;  1.0718228E-07;  4.0000000E+04;  0.0000000E+00;  0.0000000E+00;  4.0000000E+04;  0.0000000E+00;  4.0000000E+04;  1.1508317E-07;  0.0000000E+00; -7.9008915E-09;  5.0761174E-02;
 -1.6000000E-01;  9.9999998E-03; -3.0000001E-01;377;  0.0000000E+00;  0.0000000E+00;  0.0000000E+00;  1.0000000E+03;  1.0000000E-01;  0.0000000E+00;0;  0.0000000E+00;  0.0000000E+00;  0.0000000E+00;0;  2.4213446E-07;  4.0000000E+04;  0.0000000E+00;  0.0000000E+00;  4.0000000E+04;  0.0000000E+00;  4.0000000E+04;  2.5192801E-07;  0.0000000E+00; -9.7935446E-09;  6.4664468E-02;
 -1.6000000E-01;  9.9999998E-03; -2.8999999E-01;378;  0.0000000E+00;  0.0000000E+00;  0.0000000E+00;  1.0000000E+03;  1.0000000E-01;  0.0000000E+00;0;  0.0000000E+00;  0.0000000E+00;  0.0000000E+00;0;  4.3538412E-07;  4.0000000E+04;  0.0000000E+00;  0.0000000E+00;  4.0000000E+04;  0.0000000E+00;  4.0000000E+04;  4.4420858E-07;  0.0000000E+00; -8.8244683E-09;  5.3473748E-02;
 -1.6000000E-01;  9.9999998E-03; -2.8000000E-01;379;  0.0000000E+00;  0.0000000E+00;  0.0000000E+00;  1.0000000E+03;  1.0000000E-01;  0.0000000E+00;0;  0.0000000E+00;  0.0000000E+00;  0.0000000E+00;0;  6.5908762E-07;  4.0000000E+04;  0.0000000E+00;  0.0000000E+00;  4.0000000E+04;  0.0000000E+00;  4.0000000E+04;  6.6428203E-07;  0.0000000E+00; -5.1943885E-09;  1.1214048E-02;
 -1.5000001E-01;  9.9999998E-03; -4.4000000E-01;454;  0.0000000E+00;  0.0000000E+00;  0.0000000E+00;  1.0000000E+03;  1.0000000E-01;  0.0000000E+00;0;  0.0000000E+00;  0.0000000E+00;  0.0000000E+00;0;  0.0000000E+00;  4.0000000E+04;  0.0000000E+00;  0.0000000E+00;  4.0000000E+04;  0.0000000E+00;  4.0000000E+04;  0.0000000E+00;  0.0000000E+00;  0.0000000E+00;  0.0000000E+00;
 -1.5000001E-01;  9.9999998E-03; -4.3000001E-01;455;  0.0000000E+00;  0.0000000E+00;  0.0000000E+00;  1.0000000E+03;  1.0000000E-01;  0.0000000E+00;0;  0.0000000E+00;  0.0000000E+00;  0.0000000E+00;0;  0.0000000E+00;  4.0000000E+04;  0.0000000E+00;  0.0000000E+00;  4.0000000E+04;  0.0000000E+00;  4.0000000E+04;  0.0000000E+00;  0.0000000E+00;  0.0000000E+00;  0.0000000E+00;
 -1.5000001E-01;  9.9999998E-03; -4.1999999E-01;456;  0.0000000E+00;  0.0000000E+00;  0.0000000E+00;  1.0000000E+03;  1.0000000E-01;  0.0000000E+00;0;  0.0000000E+00;  0.0000000E+00;  0.0000000E+00;0;  0.0000000E+00;  4.0000000E+04;  0.0000000E+00;  0.0000000E+00;  4.0000000E+04;  0.0000000E+00;  4.0000000E+04;  0.0000000E+00;  0.0000000E+00;  0.0000000E+00;  0.0000000E+00;
 -1.5000001E-01;  9.9999998E-03; -4.1000000E-01;457;  0.0000000E+00;  0.0000000E+00;  0.0000000E+00;  1.0000000E+03;  1.0000000E-01;  0.0000000E+00;0;  0.0000000E+00;  0.0000000E+00;  0.0000000E+00;0;  0.0000000E+00;  4.0000000E+04;  0.0000000E+00;  0.0000000E+00;  4.0000000E+04;  0.0000000E+00;  4.0000000E+04;  0.0000000E+00;  0.0000000E+00;  0.0000000E+00;  0.0000000E+00;
 -1.5000001E-01;  9.9999998E-03; -4.0000001E-01;458;  0.0000000E+00;  0.0000000E+00;  0.0000000E+00;  1.0000000E+03;  1.0000000E-01;  0.0000000E+00;0;  0.0000000E+00;  0.0000000E+00;  0.0000000E+00;0;  0.0000000E+00;  4.0000000E+04;  0.0000000E+00;  0.0000000E+00;  4.0000000E+04;  0.0000000E+00;  4.0000000E+04;  0.0000000E+00;  0.0000000E+00;  0.0000000E+00;  0.0000000E+00;
 -1.5000001E-01;  9.9999998E-03; -3.8999999E-01;459;  0.0000000E+00;  0.0000000E+00;  0.0000000E+00;  1.0000000E+03;  1.0000000E-01;  0.0000000E+00;0;  0.0000000E+00;  0.0000000E+00;  0.0000000E+00;0;  0.0000000E+00;  4.0000000E+04;  0.0000000E+00;  0.0000000E+00;  4.0000000E+04;  0.0000000E+00;  4.0000000E+04;  0.0000000E+00;  0.0000000E+00;  0.0000000E+00;  0.0000000E+00;
 -1.5000001E-01;  9.9999998E-03; -3.8000000E-01;460;  0.0000000E+00;  0.0000000E+00;  0.0000000E+00;  1.0000000E+03;  1.0000000E-01;  0.0000000E+00;0;  0.0000000E+00;  0.0000000E+00;  0.0000000E+00;0;  0.0000000E+00;  4.0000000E+04;  0.0000000E+00;  0.0000000E+00;  4.0000000E+04;  0.0000000E+00;  4.0000000E+04;  0.0000000E+00;  0.0000000E+00;  0.0000000E+00;  0.0000000E+00;
 -1.5000001E-01;  9.9999998E-03; -3.7000000E-01;461;  0.0000000E+00;  0.0000000E+00;  0.0000000E+00;  1.0000000E+03;  1.0000000E-01;  0.0000000E+00;0;  0.0000000E+00;  0.0000000E+00;  0.0000000E+00;0;  0.0000000E+00;  4.0000000E+04;  0.0000000E+00;  0.0000000E+00;  4.0000000E+04;  0.0000000E+00;  4.0000000E+04;  0.0000000E+00;  0.0000000E+00;  0.0000000E+00;  3.0836722E-09;
 -1.5000001E-01;  9.9999998E-03; -3.6000001E-01;462;  0.0000000E+00;  0.0000000E+00;  0.0000000E+00;  1.0000000E+03;  1.0000000E-01;  0.0000000E+00;0;  0.0000000E+00;  0.0000000E+00;  0.0000000E+00;0;  2.4125275E-09;  4.0000000E+04;  0.0000000E+00;  0.0000000E+00;  4.0000000E+04;  0.0000000E+00;  4.0000000E+04;  4.0745354E-09;  0.0000000E+00; -1.6620079E-09;  1.0137203E-02;
 -1.5000001E-01;  9.9999998E-03; -3.4999999E-01;463;  0.0000000E+00;  0.0000000E+00;  0.0000000E+00;  1.0000000E+03;  1.0000000E-01;  0.0000000E+00;0;  0.0000000E+00;  0.0000000E+00;  0.0000000E+00;0;  2.8766550E-08;  4.0000000E+04;  0.0000000E+00;  0.0000000E+00;  4.0000000E+04;  0.0000000E+00;  4.0000000E+04;  4.1246953E-08;  0.0000000E+00; -1.2480402E-08;  6.6229299E-02;
 -1.5000001E-01;  9.9999998E-03; -3.4000000E-01;464;  0.0000000E+00;  0.0000000E+00;  0.0000000E+00;  1.0000000E+03;  1.0000000E-01;  0.0000000E+00;0;  0.0000000E+00;  0.0000000E+00;  0.0000000E+00;0;  1.4656207E-07;  4.0000000E+04;  0.0000000E+00;  0.0000000E+00;  4.0000000E+04;  0.0000000E+00;  4.0000000E+04;  1.8456950E-07;  0.0000000E+00; -3.8007428E-08;  2.1145870E-01;
 -1.5000001E-01;  9.9999998E-03; -3.3000001E-01;465;  0.0000000E+00;  0.0000000E+00;  0.0000000E+00;  1.0000000E+03;  1.0000000E-01;  0.0000000E+00;0;  0.0000000E+00;  0.0000000E+00;  0.0000000E+00;0;  4.7917689E-07;  4.0000000E+04;  0.0000000E+00;  0.0000000E+00;  4.0000000E+04;  0.0000000E+00;  4.0000000E+04;  5.5652049E-07;  0.0000000E+00; -7.7343600E-08;  4.5482120E-01;
 -1.5000001E-01;  9.9999998E-03; -3.1999999E-01;466;  0.0000000E+00;  0.0000000E+00;  0.0000000E+00;  1.0000000E+03;  1.0000000E-01;  0.0000000E+00;0;  0.0000000E+00;  0.0000000E+00;  0.0000000E+00;0;  1.1833755E-06;  4.0000000E+04;  0.0000000E+00;  0.0000000E+00;  4.0000000E+04;  0.0000000E+00;  4.0000000E+04;  1.3066428E-06;  0.0000000E+00; -1.2326734E-07;  7.4168164E-01;
 -1.5000001E-01;  9.9999998E-03; -3.1000000E-01;467;  0.0000000E+00;  0.0000000E+00;  0.0000000E+00;  1.0000000E+03;  1.0000000E-01;  0.0000000E+00;0;  0.0000000E+00;  0.0000000E+00;  0.0000000E+00;0;  2.3994667E-06;  4.0000000E+04;  0.0000000E+00;  0.0000000E+00;  4.0000000E+04;  0.0000000E+00;  4.0000000E+04;  2.5642591E-06;  0.0000000E+00; -1.6479244E-07;  9.6107644E-01;
 -1.5000001E-01;  9.9999998E-03; -3.0000001E-01;468;  0.0000000E+00;  0.0000000E+00;  0.0000000E+00;  1.0000000E+03;  1.0000000E-01;  0.0000000E+00;0;  0.0000000E+00;  0.0000000E+00;  0.0000000E+00;0;  4.1944031E-06;  4.0000000E+04;  0.0000000E+00;  0.0000000E+00;  4.0000000E+04;  0.0000000E+00;  4.0000000E+04;  4.3851173E-06;  0.0000000E+00; -1.9071415E-07;  9.8583990E-01;
 -1.5000001E-01;  9.9999998E-03; -2.8999999E-01;469;  0.0000000E+00;  0.0000000E+00;  0.0000000E+00;  1.0000000E+03;  1.0000000E-01;  0.0000000E+00;0;  0.0000000E+00;  0.0000000E+00;  0.0000000E+00;0;  6.5196878E-06;  4.0000000E+04;  0.0000000E+00;  0.0000000E+00;  4.0000000E+04;  0.0000000E+00;  4.0000000E+04;  6.7129249E-06;  0.0000000E+00; -1.9323727E-07;  7.2534406E-01;
 -1.5000001E-01;  9.9999998E-03; -2.8000000E-01;470;  0.0000000E+00;  0.0000000E+00;  0.0000000E+00;  1.0000000E+03;  1.0000000E-01;  0.0000000E+00;0;  0.0000000E+00;  0.0000000E+00;  0.0000000E+00;0;  9.2002447E-06;  4.0000000E+04;  0.0000000E+00;  0.0000000E+00;  4.0000000E+04;  0.0000000E+00;  4.0000000E+04;  9.3709059E-06;  0.0000000E+00; -1.7066094E-07;  1.6735616E-01;
 -1.4000000E-01;  9.9999998E-03; -4.4000000E-01;545;  0.0000000E+00;  0.0000000E+00;  0.0000000E+00;  1.0000000E+03;  1.0000000E-01;  0.0000000E+00;0;  0.0000000E+00;  0.0000000E+00;  0.0000000E+00;0;  0.0000000E+00;  4.0000000E+04;  0.0000000E+00;  0.0000000E+00;  4.0000000E+04;  0.0000000E+00;  4.0000000E+04;  0.0000000E+00;  0.0000000E+00;  0.0000000E+00;  0.0000000E+00;
 -1.4000000E-01;  9.9999998E-03; -4.3000001E-01;546;  0.0000000E+00;  0.0000000E+00;  0.0000000E+00;  1.0000000E+03;  1.0000000E-01;  0.0000000E+00;0;  0.0000000E+00;  0.0000000E+00;  0.0000000E+00;0;  0.0000000E+00;  4.0000000E+04;  0.0000000E+00;  0.0000000E+00;  4.0000000E+04;  0.0000000E+00;  4.0000000E+04;  0.0000000E+00;  0.0000000E+00;  0.0000000E+00;  0.0000000E+00;
 -1.4000000E-01;  9.9999998E-03; -4.1999999E-01;547;  0.0000000E+00;  0.0000000E+00;  0.0000000E+00;  1.0000000E+03;  1.0000000E-01;  0.0000000E+00;0;  0.0000000E+00;  0.0000000E+00;  0.0000000E+00;0;  0.0000000E+00;  4.0000000E+04;  0.0000000E+00;  0.0000000E+00;  4.0000000E+04;  0.0000000E+00;  4.0000000E+04;  0.0000000E+00;  0.0000000E+00;  0.0000000E+00;  0.0000000E+00;
 -1.4000000E-01;  9.9999998E-03; -4.1000000E-01;548;  0.0000000E+00;  0.0000000E+00;  0.0000000E+00;  1.0000000E+03;  1.0000000E-01;  0.0000000E+00;0;  0.0000000E+00;  0.0000000E+00;  0.0000000E+00;0;  0.0000000E+00;  4.0000000E+04;  0.0000000E+00;  0.0000000E+00;  4.0000000E+04;  0.0000000E+00;  4.0000000E+04;  0.0000000E+00;  0.0000000E+00;  0.0000000E+00;  0.0000000E+00;
 -1.4000000E-01;  9.9999998E-03; -4.0000001E-01;549;  0.0000000E+00;  0.0000000E+00;  0.0000000E+00;  1.0000000E+03;  1.0000000E-01;  0.0000000E+00;0;  0.0000000E+00;  0.0000000E+00;  0.0000000E+00;0;  0.0000000E+00;  4.0000000E+04;  0.0000000E+00;  0.0000000E+00;  4.0000000E+04;  0.0000000E+00;  4.0000000E+04;  0.0000000E+00;  0.0000000E+00;  0.0000000E+00;  0.0000000E+00;
 -1.4000000E-01;  9.9999998E-03; -3.8999999E-01;550;  0.0000000E+00;  0.0000000E+00;  0.0000000E+00;  1.0000000E+03;  1.0000000E-01;  0.0000000E+00;0;  0.0000000E+00;  0.0000000E+00;  0.0000000E+00;0;  0.0000000E+00;  4.0000000E+04;  0.0000000E+00;  0.0000000E+00;  4.0000000E+04;  0.0000000E+00;  4.0000000E+04;  0.0000000E+00;  0.0000000E+00;  0.0000000E+00;  0.0000000E+00;
 -1.4000000E-01;  9.9999998E-03; -3.8000000E-01;551;  0.0000000E+00;  0.0000000E+00;  0.0000000E+00;  1.0000000E+03;  1.0000000E-01;  0.0000000E+00;0;  0.0000000E+00;  0.0000000E+00;  0.0000000E+00;0;  5.8475125E-10;  4.0000000E+04;  0.0000000E+00;  0.0000000E+00;  4.0000000E+04;  0.0000000E+00;  4.0000000E+04;  1.6373273E-09;  0.0000000E+00; -1.0525760E-09;  7.7326000E-03;
 -1.4000000E-01;  9.9999998E-03; -3.7000000E-01;552;  0.0000000E+00;  0.0000000E+00;  0.0000000E+00;  1.0000000E+03;  1.0000000E-01;  0.0000000E+00;0;  0.0000000E+00;  0.0000000E+00;  0.0000000E+00;0;  1.2762985E-08;  4.0000000E+04;  0.0000000E+00;  0.0000000E+00;  4.0000000E+04;  0.0000000E+00;  4.0000000E+04;  3.2003271E-08;  0.0000000E+00; -1.9240286E-08;  1.0867061E-01;
 -1.4000000E-01;  9.9999998E-03; -3.6000001E-01;553;  0.0000000E+00;  0.0000000E+00;  0.0000000E+00;  1.0000000E+03;  1.0000000E-01;  0.0000000E+00;0;  0.0000000E+00;  0.0000000E+00;  0.0000000E+00;0;  1.0709124E-07;  4.0000000E+04;  0.0000000E+00;  0.0000000E+00;  4.0000000E+04;  0.0000000E+00;  4.0000000E+04;  1.8513983E-07;  0.0000000E+00; -7.8048586E-08;  4.6570411E-01;
 -1.4000000E-01;  9.9999998E-03; -3.4999999E-01;554;  0.0000000E+00;  0.0000000E+00;  0.0000000E+00;  1.0000000E+03;  1.0000000E-01;  0.0000000E+00;0;  0.0000000E+00;  0.0000000E+00;  0.0000000E+00;0;  4.8937682E-07;  4.0000000E+04;  0.0000000E+00;  0.0000000E+00;  4.0000000E+04;  0.0000000E+00;  4.0000000E+04;  6.7993238E-07;  0.0000000E+00; -1.9055554E-07;  1.2091004E+00;
 -1.4000000E-01;  9.9999998E-03; -3.4000000E-01;555;  0.0000000E+00;  0.0000000E+00;  0.0000000E+00;  1.0000000E+03;  1.0000000E-01;  0.0000000E+00;0;  0.0000000E+00;  0.0000000E+00;  0.0000000E+00;0;  1.5081683E-06;  4.0000000E+04;  0.0000000E+00;  0.0000000E+00;  4.0000000E+04;  0.0000000E+00;  4.0000000E+04;  1.8630247E-06;  0.0000000E+00; -3.5485641E-07;  2.3439686E+00;
 -1.4000000E-01;  9.9999998E-03; -3.3000001E-01;556;  0.0000000E+00;  0.0000000E+00;  0.0000000E+00;  1.0000000E+03;  1.0000000E-01;  0.0000000E+00;0;  0.0000000E+00;  0.0000000E+00;  0.0000000E+00;0;  3.6108122E-06;  4.0000000E+04;  0.0000000E+00;  0.0000000E+00;  4.0000000E+04;  0.0000000E+00;  4.0000000E+04;  4.1664216E-06;  0.0000000E+00; -5.5560929E-07;  3.6913288E+00;
 -1.4000000E-01;  9.9999998E-03; -3.1999999E-01;557;  0.0000000E+00;  0.0000000E+00;  0.0000000E+00;  1.0000000E+03;  1.0000000E-01;  0.0000000E+00;0;  0.0000000E+00;  0.0000000E+00;  0.0000000E+00;0;  7.2507696E-06;  4.0000000E+04;  0.0000000E+00;  0.0000000E+00;  4.0000000E+04;  0.0000000E+00;  4.0000000E+04;  8.0176587E-06;  0.0000000E+00; -7.6688895E-07;  4.8950400E+00;
 -1.4000000E-01;  9.9999998E-03; -3.1000000E-01;558;  0.0000000E+00;  0.0000000E+00;  0.0000000E+00;  1.0000000E+03;  1.0000000E-01;  0.0000000E+00;0;  0.0000000E+00;  0.0000000E+00;  0.0000000E+00;0;  1.2765547E-05;  4.0000000E+04;  0.0000000E+00;  0.0000000E+00;  4.0000000E+04;  0.0000000E+00;  4.0000000E+04;  1.3721300E-05;  0.0000000E+00; -9.5575319E-07;  5.5083265E+00;
 -1.4000000E-01;  9.9999998E-03; -3.0000001E-01;559;  0.0000000E+00;  0.0000000E+00;  0.0000000E+00;  1.0000000E+03;  1.0000000E-01;  0.0000000E+00;0;  0.0000000E+00;  0.0000000E+00;  0.0000000E+00;0;  2.0259873E-05;  4.0000000E+04;  0.0000000E+00;  0.0000000E+00;  4.0000000E+04;  0.0000000E+00;  4.0000000E+04;  2.1347560E-05;  0.0000000E+00; -1.0876861E-06;  5.1271248E+00;
 -1.4000000E-01;  9.9999998E-03; -2.8999999E-01;560;  0.0000000E+00;  0.0000000E+00;  0.0000000E+00;  1.0000000E+03;  1.0000000E-01;  0.0000000E+00;0;  0.0000000E+00;  0.0000000E+00;  0.0000000E+00;0;  2.9527790E-05;  4.0000000E+04;  0.0000000E+00;  0.0000000E+00;  4.0000000E+04;  0.0000000E+00;  4.0000000E+04;  3.0661817E-05;  0.0000000E+00; -1.1340273E-06;  3.5273464E+00;
 -1.4000000E-01;  9.9999998E-03; -2.8000000E-01;561;  0.0000000E+00;  0.0000000E+00;  0.0000000E+00;  1.0000000E+03;  1.0000000E-01;  0.0000000E+00;0;  0.0000000E+00;  0.0000000E+00;  0.0000000E+00;0;  4.0039406E-05;  4.0000000E+04;  0.0000000E+00;  0.0000000E+00;  4.0000000E+04;  0.0000000E+00;  4.0000000E+04;  4.1118950E-05;  0.0000000E+00; -1.0795450E-06;  7.5742018E-01;
 -1.3000000E-01;  9.9999998E-03; -4.4000000E-01;636;  0.0000000E+00;  0.0000000E+00;  0.0000000E+00;  1.0000000E+03;  1.0000000E-01;  0.0000000E+00;0;  0.0000000E+00;  0.0000000E+00;  0.0000000E+00;0;  0.0000000E+00;  4.0000000E+04;  0.0000000E+00;  0.0000000E+00;  4.0000000E+04;  0.0000000E+00;  4.0000000E+04;  0.0000000E+00;  0.0000000E+00;  0.0000000E+00;  0.0000000E+00;
 -1.3000000E-01;  9.9999998E-03; -4.3000001E-01;637;  0.0000000E+00;  0.0000000E+00;  0.0000000E+00;  1.0000000E+03;  1.0000000E-01;  0.0000000E+00;0;  0.0000000E+00;  0.0000000E+00;  0.0000000E+00;0;  0.0000000E+00;  4.0000000E+04;  0.0000000E+00;  0.0000000E+00;  4.0000000E+04;  0.0000000E+00;  4.0000000E+04;  0.0000000E+00;  0.0000000E+00;  0.0000000E+00;  0.0000000E+00;
 -1.3000000E-01;  9.9999998E-03; -4.1999999E-01;638;  0.0000000E+00;  0.0000000E+00;  0.0000000E+00;  1.0000000E+03;  1.0000000E-01;  0.0000000E+00;0;  0.0000000E+00;  0.0000000E+00;  0.0000000E+00;0;  0.0000000E+00;  4.0000000E+04;  0.0000000E+00;  0.0000000E+00;  4.0000000E+04;  0.0000000E+00;  4.0000000E+04;  0.0000000E+00;  0.0000000E+00;  0.0000000E+00;  0.0000000E+00;
 -1.3000000E-01;  9.9999998E-03; -4.1000000E-01;639;  0.0000000E+00;  0.0000000E+00;  0.0000000E+00;  1.0000000E+03;  1.0000000E-01;  0.0000000E+00;0;  0.0000000E+00;  0.0000000E+00;  0.0000000E+00;0;  0.0000000E+00;  4.0000000E+04;  0.0000000E+00;  0.0000000E+00;  4.0000000E+04;  0.0000000E+00;  4.0000000E+04;  0.0000000E+00;  0.0000000E+00;  0.0000000E+00;  0.0000000E+00;
 -1.3000000E-01;  9.9999998E-03; -4.0000001E-01;640;  0.0000000E+00;  0.0000000E+00;  0.0000000E+00;  1.0000000E+03;  1.0000000E-01;  0.0000000E+00;0;  0.0000000E+00;  0.0000000E+00;  0.0000000E+00;0;  0.0000000E+00;  4.0000000E+04;  0.0000000E+00;  0.0000000E+00;  4.0000000E+04;  0.0000000E+00;  4.0000000E+04;  0.0000000E+00;  0.0000000E+00;  0.0000000E+00;  0.0000000E+00;
 -1.3000000E-01;  9.9999998E-03; -3.8999999E-01;641;  0.0000000E+00;  0.0000000E+00;  0.0000000E+00;  1.0000000E+03;  1.0000000E-01;  0.0000000E+00;0;  0.0000000E+00;  0.0000000E+00;  0.0000000E+00;0; -9.5687369E-10;  4.0000000E+04;  0.0000000E+00;  0.0000000E+00;  4.0000000E+04;  0.0000000E+00;  4.0000000E+04;  6.8793833E-09;  0.0000000E+00; -7.8362570E-09;  5.0188225E-02;
 -1.3000000E-01;  9.9999998E-03; -3.8000000E-01;642;  0.0000000E+00;  0.0000000E+00;  0.0000000E+00;  1.0000000E+03;  1.0000000E-01;  0.0000000E+00;0;  0.0000000E+00;  0.0000000E+00;  0.0000000E+00;0; -6.2576078E-10;  4.0000000E+04;  0.0000000E+00;  0.0000000E+00;  4.0000000E+04;  0.0000000E+00;  4.0000000E+04;  6.7783830E-08;  0.0000000E+00; -6.8409591E-08;  4.3656370E-01;
 -1.3000000E-01;  9.9999998E-03; -3.7000000E-01;643;  0.0000000E+00;  0.0000000E+00;  0.0000000E+00;  1.0000000E+03;  1.0000000E-01;  0.0000000E+00;0;  0.0000000E+00;  0.0000000E+00;  0.0000000E+00;0;  1.3433981E-07;  4.0000000E+04;  0.0000000E+00;  0.0000000E+00;  4.0000000E+04;  0.0000000E+00;  4.0000000E+04;  3.6454242E-07;  0.0000000E+00; -2.3020260E-07;  1.5741166E+00;
 -1.3000000E-01;  9.9999998E-03; -3.6000001E-01;644;  0.0000000E+00;  0.0000000E+00;  0.0000000E+00;  1.0000000E+03;  1.0000000E-01;  0.0000000E+00;0;  0.0000000E+00;  0.0000000E+00;  0.0000000E+00;0;  7.6799807E-07;  4.0000000E+04;  0.0000000E+00;  0.0000000E+00;  4.0000000E+04;  0.0000000E+00;  4.0000000E+04;  1.2885517E-06;  0.0000000E+00; -5.2055367E-07;  3.7792375E+00;
 -1.3000000E-01;  9.9999998E-03; -3.4999999E-01;645;  0.0000000E+00;  0.0000000E+00;  0.0000000E+00;  1.0000000E+03;  1.0000000E-01;  0.0000000E+00;0;  0.0000000E+00;  0.0000000E+00;  0.0000000E+00;0;  2.5369213E-06;  4.0000000E+04;  0.0000000E+00;  0.0000000E+00;  4.0000000E+04;  0.0000000E+00;  4.0000000E+04;  3.4799689E-06;  0.0000000E+00; -9.4304767E-07;  7.0743961E+00;
 -1.3000000E-01;  9.9999998E-03; -3.4000000E-01;646;  0.0000000E+00;  0.0000000E+00;  0.0000000E+00;  1.0000000E+03;  1.0000000E-01;  0.0000000E+00;0;  0.0000000E+00;  0.0000000E+00;  0.0000000E+00;0;  6.2921290E-06;  4.0000000E+04;  0.0000000E+00;  0.0000000E+00;  4.0000000E+04;  0.0000000E+00;  4.0000000E+04;  7.7716131E-06;  0.0000000E+00; -1.4794840E-06;  1.1094028E+01;
 -1.3000000E-01;  9.9999998E-03; -3.3000001E-01;647;  0.0000000E+00;  0.0000000E+00;  0.0000000E+00;  1.0000000E+03;  1.0000000E-01;  0.0000000E+00;0;  0.0000000E+00;  0.0000000E+00;  0.0000000E+00;0;  1.2977249E-05;  4.0000000E+04;  0.0000000E+00;  0.0000000E+00;  4.0000000E+04;  0.0000000E+00;  4.0000000E+04;  1.5068695E-05;  0.0000000E+00; -2.0914456E-06;  1.5083006E+01;
 -1.3000000E-01;  9.9999998E-03; -3.1999999E-01;648;  0.0000000E+00;  0.0000000E+00;  0.0000000E+00;  1.0000000E+03;  1.0000000E-01;  0.0000000E+00;0;  0.0000000E+00;  0.0000000E+00;  0.0000000E+00;0;  2.3446544E-05;  4.0000000E+04;  0.0000000E+00;  0.0000000E+00;  4.0000000E+04;  0.0000000E+00;  4.0000000E+04;  2.6167094E-05;  0.0000000E+00; -2.7205499E-06;  1.8012306E+01;
 -1.3000000E-01;  9.9999998E-03; -3.1000000E-01;649;  0.0000000E+00;  0.0000000E+00;  0.0000000E+00;  1.0000000E+03;  1.0000000E-01;  0.0000000E+00;0;  0.0000000E+00;  0.0000000E+00;  0.0000000E+00;0;  3.8253820E-05;  4.0000000E+04;  0.0000000E+00;  0.0000000E+00;  4.0000000E+04;  0.0000000E+00;  4.0000000E+04;  4.1544237E-05;  0.0000000E+00; -3.2904181E-06;  1.8799406E+01;
 -1.3000000E-01;  9.9999998E-03; -3.0000001E-01;650;  0.0000000E+00;  0.0000000E+00;  0.0000000E+00;  1.0000000E+03;  1.0000000E-01;  0.0000000E+00;0;  0.0000000E+00;  0.0000000E+00;  0.0000000E+00;0;  5.7466317E-05;  4.0000000E+04;  0.0000000E+00;  0.0000000E+00;  4.0000000E+04;  0.0000000E+00;  4.0000000E+04;  6.1180639E-05;  0.0000000E+00; -3.7143207E-06;  1.6585230E+01;
 -1.3000000E-01;  9.9999998E-03; -2.8999999E-01;651;  0.0000000E+00;  0.0000000E+00;  0.0000000E+00;  1.0000025E+03;  1.0000000E-01;  2.0740154E+00;0;  0.0000000E+00;  0.0000000E+00;  0.0000000E+00;0;  8.0552767E-05;  4.0000000E+04;  0.0000000E+00;  0.0000000E+00;  4.0000000E+04;  0.0000000E+00;  4.0000000E+04;  8.4463070E-05;  0.0000000E+00; -3.9103033E-06;  1.1004829E+01;
 -1.3000000E-01;  9.9999998E-03; -2.8000000E-01;652;  0.0000000E+00;  0.0000000E+00;  0.0000000E+00;  1.0000000E+03;  1.0000000E-01;  0.0000000E+00;0;  0.0000000E+00;  0.0000000E+00;  0.0000000E+00;0;  1.0637876E-04;  4.0000000E+04;  0.0000000E+00;  0.0000000E+00;  4.0000000E+04;  0.0000000E+00;  4.0000000E+04;  1.1019925E-04;  0.0000000E+00; -3.8204912E-06;  2.3567429E+00;
 -1.2000000E-01;  9.9999998E-03; -4.4000000E-01;727;  0.0000000E+00;  0.0000000E+00;  0.0000000E+00;  1.0000000E+03;  1.0000000E-01;  0.0000000E+00;0;  0.0000000E+00;  0.0000000E+00;  0.0000000E+00;0;  0.0000000E+00;  4.0000000E+04;  0.0000000E+00;  0.0000000E+00;  4.0000000E+04;  0.0000000E+00;  4.0000000E+04;  0.0000000E+00;  0.0000000E+00;  0.0000000E+00;  0.0000000E+00;
 -1.2000000E-01;  9.9999998E-03; -4.3000001E-01;728;  0.0000000E+00;  0.0000000E+00;  0.0000000E+00;  1.0000000E+03;  1.0000000E-01;  0.0000000E+00;0;  0.0000000E+00;  0.0000000E+00;  0.0000000E+00;0;  0.0000000E+00;  4.0000000E+04;  0.0000000E+00;  0.0000000E+00;  4.0000000E+04;  0.0000000E+00;  4.0000000E+04;  0.0000000E+00;  0.0000000E+00;  0.0000000E+00;  0.0000000E+00;
 -1.2000000E-01;  9.9999998E-03; -4.1999999E-01;729;  0.0000000E+00;  0.0000000E+00;  0.0000000E+00;  1.0000000E+03;  1.0000000E-01;  0.0000000E+00;0;  0.0000000E+00;  0.0000000E+00;  0.0000000E+00;0;  0.0000000E+00;  4.0000000E+04;  0.0000000E+00;  0.0000000E+00;  4.0000000E+04;  0.0000000E+00;  4.0000000E+04;  0.0000000E+00;  0.0000000E+00;  0.0000000E+00;  0.0000000E+00;
 -1.2000000E-01;  9.9999998E-03; -4.1000000E-01;730;  0.0000000E+00;  0.0000000E+00;  0.0000000E+00;  1.0000000E+03;  1.0000000E-01;  0.0000000E+00;0;  0.0000000E+00;  0.0000000E+00;  0.0000000E+00;0;  0.0000000E+00;  4.0000000E+04;  0.0000000E+00;  0.0000000E+00;  4.0000000E+04;  0.0000000E+00;  4.0000000E+04;  0.0000000E+00;  0.0000000E+00;  0.0000000E+00;  3.0553806E-06;
 -1.2000000E-01;  9.9999998E-03; -4.0000001E-01;731;  0.0000000E+00;  0.0000000E+00;  0.0000000E+00;  1.0000000E+03;  1.0000000E-01;  0.0000000E+00;0;  0.0000000E+00;  0.0000000E+00;  0.0000000E+00;0; -1.2787240E-08;  4.0000000E+04;  0.0000000E+00;  0.0000000E+00;  4.0000000E+04;  0.0000000E+00;  4.0000000E+04;  6.3234857E-09;  0.0000000E+00; -1.9110725E-08;  1.3338500E-01;
 -1.2000000E-01;  9.9999998E-03; -3.8999999E-01;732;  0.0000000E+00;  0.0000000E+00;  0.0000000E+00;  1.0000000E+03;  1.0000000E-01;  0.0000000E+00;0;  0.0000000E+00;  0.0000000E+00;  0.0000000E+00;0; -6.5196367E-08;  4.0000000E+04;  0.0000000E+00;  0.0000000E+00;  4.0000000E+04;  0.0000000E+00;  4.0000000E+04;  7.6391437E-08;  0.0000000E+00; -1.4158780E-07;  1.0041758E+00;
 -1.2000000E-01;  9.9999998E-03; -3.8000000E-01;733;  0.0000000E+00;  0.0000000E+00;  0.0000000E+00;  1.0000000E+03;  1.0000000E-01;  0.0000000E+00;0;  0.0000000E+00;  0.0000000E+00;  0.0000000E+00;0; -1.2193908E-08;  4.0000000E+04;  0.0000000E+00;  0.0000000E+00;  4.0000000E+04;  0.0000000E+00;  4.0000000E+04;  4.4230453E-07;  0.0000000E+00; -4.5449843E-07;  3.4954574E+00;
 -1.2000000E-01;  9.9999998E-03; -3.7000000E-01;734;  0.0000000E+00;  0.0000000E+00;  0.0000000E+00;  1.0000000E+03;  1.0000000E-01;  0.0000000E+00;0;  0.0000000E+00;  0.0000000E+00;  0.0000000E+00;0;  6.2891854E-07;  4.0000000E+04;  0.0000000E+00;  0.0000000E+00;  4.0000000E+04;  0.0000000E+00;  4.0000000E+04;  1.6409638E-06;  0.0000000E+00; -1.0120452E-06;  8.2765465E+00;
 -1.2000000E-01;  9.9999998E-03; -3.6000001E-01;735;  0.0000000E+00;  0.0000000E+00;  0.0000000E+00;  1.0000000E+03;  1.0000000E-01;  0.0000000E+00;0;  0.0000000E+00;  0.0000000E+00;  0.0000000E+00;0;  2.7364135E-06;  4.0000000E+04;  0.0000000E+00;  0.0000000E+00;  4.0000000E+04;  0.0000000E+00;  4.0000000E+04;  4.5697125E-06;  0.0000000E+00; -1.8332991E-06;  1.5479873E+01;
 -1.2000000E-01;  9.9999998E-03; -3.4999999E-01;736;  0.0000000E+00;  0.0000000E+00;  0.0000000E+00;  1.0000000E+03;  1.0000000E-01;  0.0000000E+00;0;  0.0000000E+00;  0.0000000E+00;  0.0000000E+00;0;  7.5701691E-06;  4.0000000E+04;  0.0000000E+00;  0.0000000E+00;  4.0000000E+04;  0.0000000E+00;  4.0000000E+04;  1.0479814E-05;  0.0000000E+00; -2.9096448E-06;  2.4554205E+01;
 -1.2000000E-01;  9.9999998E-03; -3.4000000E-01;737;  0.0000000E+00;  0.0000000E+00;  0.0000000E+00;  1.0000000E+03;  1.0000000E-01;  0.0000000E+00;0;  0.0000000E+00;  0.0000000E+00;  0.0000000E+00;0;  1.6639287E-05;  4.0000000E+04;  0.0000000E+00;  0.0000000E+00;  4.0000000E+04;  0.0000000E+00;  4.0000000E+04;  2.0843621E-05;  0.0000000E+00; -4.2043343E-06;  3.4253662E+01;
 -1.2000000E-01;  9.9999998E-03; -3.3000001E-01;738;  0.0000000E+00;  0.0000000E+00;  0.0000000E+00;  1.0000000E+03;  1.0000000E-01;  0.0000000E+00;0;  0.0000000E+00;  0.0000000E+00;  0.0000000E+00;0;  3.1486245E-05;  4.0000000E+04;  0.0000000E+00;  0.0000000E+00;  4.0000000E+04;  0.0000000E+00;  4.0000000E+04;  3.7132610E-05;  0.0000000E+00; -5.6463637E-06;  4.2758759E+01;
 -1.2000000E-01;  9.9999998E-03; -3.1999999E-01;739;  0.0000000E+00;  0.0000000E+00;  0.0000000E+00;  1.0000133E+03;  1.0000000E-01;  1.1061416E+01;0;  0.0000000E+00;  0.0000000E+00;  0.0000000E+00;0;  5.3403088E-05;  4.0000000E+04;  0.0000000E+00;  0.0000000E+00;  4.0000000E+04;  0.0000000E+00;  4.0000000E+04;  6.0525395E-05;  0.0000000E+00; -7.1223089E-06;  4.7941311E+01;
 -1.2000000E-01;  9.9999998E-03; -3.1000000E-01;740;  0.0000000E+00;  0.0000000E+00;  0.0000000E+00;  1.0000146E+03;  1.0000000E-01;  1.2049042E+01;0;  0.0000000E+00;  0.0000000E+00;  0.0000000E+00;0;  8.3125386E-05;  4.0000000E+04;  0.0000000E+00;  0.0000000E+00;  4.0000000E+04;  0.0000000E+00;  4.0000000E+04;  9.1599373E-05;  0.0000000E+00; -8.4739841E-06;  4.7760143E+01;
 -1.2000000E-01;  9.9999998E-03; -3.0000001E-01;741;  0.0000000E+00;  0.0000000E+00;  0.0000000E+00;  1.0000049E+03;  1.0000000E-01;  4.0492682E+00;0;  0.0000000E+00;  0.0000000E+00;  0.0000000E+00;0;  1.2057610E-04;  4.0000000E+04;  0.0000000E+00;  0.0000000E+00;  4.0000000E+04;  0.0000000E+00;  4.0000000E+04;  1.3008657E-04;  0.0000000E+00; -9.5104697E-06;  4.0744762E+01;
 -1.2000000E-01;  9.9999998E-03; -2.8999999E-01;742;  0.0000000E+00;  0.0000000E+00;  0.0000000E+00;  1.0000000E+03;  1.0000000E-01;  0.0000000E+00;0;  0.0000000E+00;  0.0000000E+00;  0.0000000E+00;0;  1.6472359E-04;  4.0000000E+04;  0.0000000E+00;  0.0000000E+00;  4.0000000E+04;  0.0000000E+00;  4.0000000E+04;  1.7476270E-04;  0.0000000E+00; -1.0039105E-05;  2.6475204E+01;
 -1.2000000E-01;  9.9999998E-03; -2.8000000E-01;743;  0.0000000E+00;  0.0000000E+00;  0.0000000E+00;  1.0000000E+03;  1.0000000E-01;  0.0000000E+00;0;  0.0000000E+00;  0.0000000E+00;  0.0000000E+00;0;  2.1359703E-04;  4.0000000E+04;  0.0000000E+00;  0.0000000E+00;  4.0000000E+04;  0.0000000E+00;  4.0000000E+04;  2.2350582E-04;  0.0000000E+00; -9.9087993E-06;  5.9449501E+00;
 -1.1000000E-01;  9.9999998E-03; -4.4000000E-01;818;  0.0000000E+00;  0.0000000E+00;  0.0000000E+00;  1.0000000E+03;  1.0000000E-01;  0.0000000E+00;0;  0.0000000E+00;  0.0000000E+00;  0.0000000E+00;0;  0.0000000E+00;  4.0000000E+04;  0.0000000E+00;  0.0000000E+00;  4.0000000E+04;  0.0000000E+00;  4.0000000E+04;  0.0000000E+00;  0.0000000E+00;  0.0000000E+00;  0.0000000E+00;
 -1.1000000E-01;  9.9999998E-03; -4.3000001E-01;819;  0.0000000E+00;  0.0000000E+00;  0.0000000E+00;  1.0000000E+03;  1.0000000E-01;  0.0000000E+00;0;  0.0000000E+00;  0.0000000E+00;  0.0000000E+00;0;  0.0000000E+00;  4.0000000E+04;  0.0000000E+00;  0.0000000E+00;  4.0000000E+04;  0.0000000E+00;  4.0000000E+04;  0.0000000E+00;  0.0000000E+00;  0.0000000E+00;  0.0000000E+00;
 -1.1000000E-01;  9.9999998E-03; -4.1999999E-01;820;  0.0000000E+00;  0.0000000E+00;  0.0000000E+00;  1.0000000E+03;  1.0000000E-01;  0.0000000E+00;0;  0.0000000E+00;  0.0000000E+00;  0.0000000E+00;0;  0.0000000E+00;  4.0000000E+04;  0.0000000E+00;  0.0000000E+00;  4.0000000E+04;  0.0000000E+00;  4.0000000E+04;  0.0000000E+00;  0.0000000E+00;  0.0000000E+00;  2.4097387E-06;
 -1.1000000E-01;  9.9999998E-03; -4.1000000E-01;821;  0.0000000E+00;  0.0000000E+00;  0.0000000E+00;  1.0000000E+03;  1.0000000E-01;  0.0000000E+00;0;  0.0000000E+00;  0.0000000E+00;  0.0000000E+00;0; -2.5188033E-08;  4.0000000E+04;  0.0000000E+00;  0.0000000E+00;  4.0000000E+04;  0.0000000E+00;  4.0000000E+04;  3.0604497E-10;  0.0000000E+00; -2.5494078E-08;  2.0060548E-01;
 -1.1000000E-01;  9.9999998E-03; -4.0000001E-01;822;  0.0000000E+00;  0.0000000E+00;  0.0000000E+00;  1.0000000E+03;  1.0000000E-01;  0.0000000E+00;0;  0.0000000E+00;  0.0000000E+00;  0.0000000E+00;0; -1.6207480E-07;  4.0000000E+04;  0.0000000E+00;  0.0000000E+00;  4.0000000E+04;  0.0000000E+00;  4.0000000E+04;  4.2750049E-08;  0.0000000E+00; -2.0482484E-07;  1.6068540E+00;
 -1.1000000E-01;  9.9999998E-03; -3.8999999E-01;823;  0.0000000E+00;  0.0000000E+00;  0.0000000E+00;  1.0000000E+03;  1.0000000E-01;  0.0000000E+00;0;  0.0000000E+00;  0.0000000E+00;  0.0000000E+00;0; -3.2702687E-07;  4.0000000E+04;  0.0000000E+00;  0.0000000E+00;  4.0000000E+04;  0.0000000E+00;  4.0000000E+04;  3.5602520E-07;  0.0000000E+00; -6.8305206E-07;  5.8189259E+00;
 -1.1000000E-01;  9.9999998E-03; -3.8000000E-01;824;  0.0000000E+00;  0.0000000E+00;  0.0000000E+00;  1.0000000E+03;  1.0000000E-01;  0.0000000E+00;0;  0.0000000E+00;  0.0000000E+00;  0.0000000E+00;0; -3.8238795E-08;  4.0000000E+04;  0.0000000E+00;  0.0000000E+00;  4.0000000E+04;  0.0000000E+00;  4.0000000E+04;  1.5190470E-06;  0.0000000E+00; -1.5572858E-06;  1.4170259E+01;
 -1.1000000E-01;  9.9999998E-03; -3.7000000E-01;825;  0.0000000E+00;  0.0000000E+00;  0.0000000E+00;  1.0000000E+03;  1.0000000E-01;  0.0000000E+00;0;  0.0000000E+00;  0.0000000E+00;  0.0000000E+00;0;  1.7071945E-06;  4.0000000E+04;  0.0000000E+00;  0.0000000E+00;  4.0000000E+04;  0.0000000E+00;  4.0000000E+04;  4.5843703E-06;  0.0000000E+00; -2.8771758E-06;  2.7111603E+01;
 -1.1000000E-01;  9.9999998E-03; -3.6000001E-01;826;  0.0000000E+00;  0.0000000E+00;  0.0000000E+00;  1.0000000E+03;  1.0000000E-01;  0.0000000E+00;0;  0.0000000E+00;  0.0000000E+00;  0.0000000E+00;0;  6.4439387E-06;  4.0000000E+04;  0.0000000E+00;  0.0000000E+00;  4.0000000E+04;  0.0000000E+00;  4.0000000E+04;  1.1102604E-05;  0.0000000E+00; -4.6586651E-06;  4.4005169E+01;
 -1.1000000E-01;  9.9999998E-03; -3.4999999E-01;827;  0.0000000E+00;  0.0000000E+00;  0.0000000E+00;  1.0000000E+03;  1.0000000E-01;  0.0000000E+00;0;  0.0000000E+00;  0.0000000E+00;  0.0000000E+00;0;  1.6168220E-05;  4.0000000E+04;  0.0000000E+00;  0.0000000E+00;  4.0000000E+04;  0.0000000E+00;  4.0000000E+04;  2.3057180E-05;  0.0000000E+00; -6.8889608E-06;  6.3126926E+01;
 -1.1000000E-01;  9.9999998E-03; -3.4000000E-01;828;  0.0000000E+00;  0.0000000E+00;  0.0000000E+00;  1.0000266E+03;  1.0000000E-01;  2.2024069E+01;0;  0.0000000E+00;  0.0000000E+00;  0.0000000E+00;0;  3.3126464E-05;  4.0000000E+04;  0.0000000E+00;  0.0000000E+00;  4.0000000E+04;  0.0000000E+00;  4.0000000E+04;  4.2639414E-05;  0.0000000E+00; -9.5129499E-06;  8.1789246E+01;
 -1.1000000E-01;  9.9999998E-03; -3.3000001E-01;829;  0.0000000E+00;  0.0000000E+00;  0.0000000E+00;  1.0000227E+03;  1.0000000E-01;  1.8764902E+01;0;  0.0000000E+00;  0.0000000E+00;  0.0000000E+00;0;  5.9503218E-05;  4.0000000E+04;  0.0000000E+00;  0.0000000E+00;  4.0000000E+04;  0.0000000E+00;  4.0000000E+04;  7.1913972E-05;  0.0000000E+00; -1.2410754E-05;  9.6596855E+01;
 -1.1000000E-01;  9.9999998E-03; -3.1999999E-01;830;  0.0000000E+00;  0.0000000E+00;  0.0000000E+00;  1.0000166E+03;  1.0000000E-01;  1.3728006E+01;0;  0.0000000E+00;  0.0000000E+00;  0.0000000E+00;0;  9.7029864E-05;  4.0000000E+04;  0.0000000E+00;  0.0000000E+00;  4.0000000E+04;  0.0000000E+00;  4.0000000E+04;  1.1240545E-04;  0.0000000E+00; -1.5375583E-05;  1.0387228E+02;
 -1.1000000E-01;  9.9999998E-03; -3.1000000E-01;831;  0.0000000E+00;  0.0000000E+00;  0.0000000E+00;  1.0000000E+03;  1.0000000E-01;  0.0000000E+00;0;  0.0000000E+00;  0.0000000E+00;  0.0000000E+00;0;  1.4657926E-04;  4.0000000E+04;  0.0000000E+00;  0.0000000E+00;  4.0000000E+04;  0.0000000E+00;  4.0000000E+04;  1.6468452E-04;  0.0000000E+00; -1.8105260E-05;  1.0028069E+02;
 -1.1000000E-01;  9.9999998E-03; -3.0000001E-01;832;  0.0000000E+00;  0.0000000E+00;  0.0000000E+00;  1.0000000E+03;  1.0000000E-01;  0.0000000E+00;0;  0.0000000E+00;  0.0000000E+00;  0.0000000E+00;0;  2.0784252E-04;  4.0000000E+04;  0.0000000E+00;  0.0000000E+00;  4.0000000E+04;  0.0000000E+00;  4.0000000E+04;  2.2806642E-04;  0.0000000E+00; -2.0223903E-05;  8.3630600E+01;
 -1.1000000E-01;  9.9999998E-03; -2.8999999E-01;833;  0.0000000E+00;  0.0000000E+00;  0.0000000E+00;  1.0000000E+03;  1.0000000E-01;  0.0000000E+00;0;  0.0000000E+00;  0.0000000E+00;  0.0000000E+00;0;  2.7916112E-04;  4.0000000E+04;  0.0000000E+00;  0.0000000E+00;  4.0000000E+04;  0.0000000E+00;  4.0000000E+04;  3.0050398E-04;  0.0000000E+00; -2.1342847E-05;  5.3671288E+01;
 -1.1000000E-01;  9.9999998E-03; -2.8000000E-01;834;  0.0000000E+00;  0.0000000E+00;  0.0000000E+00;  1.0000000E+03;  1.0000000E-01;  0.0000000E+00;0;  0.0000000E+00;  0.0000000E+00;  0.0000000E+00;0;  3.5756125E-04;  4.0000000E+04;  0.0000000E+00;  0.0000000E+00;  4.0000000E+04;  0.0000000E+00;  4.0000000E+04;  3.7870707E-04;  0.0000000E+00; -2.1145837E-05;  1.3232165E+01;
 -1.0000000E-01;  9.9999998E-03; -4.4000000E-01;909;  0.0000000E+00;  0.0000000E+00;  0.0000000E+00;  1.0000000E+03;  1.0000000E-01;  0.0000000E+00;0;  0.0000000E+00;  0.0000000E+00;  0.0000000E+00;0;  0.0000000E+00;  4.0000000E+04;  0.0000000E+00;  0.0000000E+00;  4.0000000E+04;  0.0000000E+00;  4.0000000E+04;  0.0000000E+00;  0.0000000E+00;  0.0000000E+00;  0.0000000E+00;
 -1.0000000E-01;  9.9999998E-03; -4.3000001E-01;910;  0.0000000E+00;  0.0000000E+00;  0.0000000E+00;  1.0000000E+03;  1.0000000E-01;  0.0000000E+00;0;  0.0000000E+00;  0.0000000E+00;  0.0000000E+00;0;  0.0000000E+00;  4.0000000E+04;  0.0000000E+00;  0.0000000E+00;  4.0000000E+04;  0.0000000E+00;  4.0000000E+04;  0.0000000E+00;  0.0000000E+00;  0.0000000E+00;  0.0000000E+00;
 -1.0000000E-01;  9.9999998E-03; -4.1999999E-01;911;  0.0000000E+00;  0.0000000E+00;  0.0000000E+00;  1.0000000E+03;  1.0000000E-01;  0.0000000E+00;0;  0.0000000E+00;  0.0000000E+00;  0.0000000E+00;0; -2.4723359E-08;  4.0000000E+04;  0.0000000E+00;  0.0000000E+00;  4.0000000E+04;  0.0000000E+00;  4.0000000E+04; -4.9855986E-09;  0.0000000E+00; -1.9737762E-08;  1.8620580E-01;
 -1.0000000E-01;  9.9999998E-03; -4.1000000E-01;912;  0.0000000E+00;  0.0000000E+00;  0.0000000E+00;  1.0000000E+03;  1.0000000E-01;  0.0000000E+00;0;  0.0000000E+00;  0.0000000E+00;  0.0000000E+00;0; -2.2621160E-07;  4.0000000E+04;  0.0000000E+00;  0.0000000E+00;  4.0000000E+04;  0.0000000E+00;  4.0000000E+04; -7.4205966E-09;  0.0000000E+00; -2.1879100E-07;  1.8992279E+00;
 -1.0000000E-01;  9.9999998E-03; -4.0000001E-01;913;  0.0000000E+00;  0.0000000E+00;  0.0000000E+00;  1.0000000E+03;  1.0000000E-01;  0.0000000E+00;0;  0.0000000E+00;  0.0000000E+00;  0.0000000E+00;0; -6.6528270E-07;  4.0000000E+04;  0.0000000E+00;  0.0000000E+00;  4.0000000E+04;  0.0000000E+00;  4.0000000E+04;  1.5402541E-07;  0.0000000E+00; -8.1930813E-07;  7.6796818E+00;
 -1.0000000E-01;  9.9999998E-03; -3.8999999E-01;914;  0.0000000E+00;  0.0000000E+00;  0.0000000E+00;  1.0000000E+03;  1.0000000E-01;  0.0000000E+00;0;  0.0000000E+00;  0.0000000E+00;  0.0000000E+00;0; -9.9484555E-07;  4.0000000E+04;  0.0000000E+00;  0.0000000E+00;  4.0000000E+04;  0.0000000E+00;  4.0000000E+04;  9.9223848E-07;  0.0000000E+00; -1.9870840E-06;  1.9968254E+01;
 -1.0000000E-01;  9.9999998E-03; -3.8000000E-01;915;  0.0000000E+00;  0.0000000E+00;  0.0000000E+00;  1.0000000E+03;  1.0000000E-01;  0.0000000E+00;0;  0.0000000E+00;  0.0000000E+00;  0.0000000E+00;0; -2.8143791E-07;  4.0000000E+04;  0.0000000E+00;  0.0000000E+00;  4.0000000E+04;  0.0000000E+00;  4.0000000E+04;  3.5370520E-06;  0.0000000E+00; -3.8184899E-06;  3.9942570E+01;
 -1.0000000E-01;  9.9999998E-03; -3.7000000E-01;916;  0.0000000E+00;  0.0000000E+00;  0.0000000E+00;  1.0000000E+03;  1.0000000E-01;  0.0000000E+00;0;  0.0000000E+00;  0.0000000E+00;  0.0000000E+00;0;  3.0776869E-06;  4.0000000E+04;  0.0000000E+00;  0.0000000E+00;  4.0000000E+04;  0.0000000E+00;  4.0000000E+04;  9.4489860E-06;  0.0000000E+00; -6.3712992E-06;  6.7129723E+01;
 -1.0000000E-01;  9.9999998E-03; -3.6000001E-01;917;  0.0000000E+00;  0.0000000E+00;  0.0000000E+00;  1.0000137E+03;  1.0000000E-01;  1.1357703E+01;0;  0.0000000E+00;  0.0000000E+00;  0.0000000E+00;0;  1.1326738E-05;  4.0000000E+04;  0.0000000E+00;  0.0000000E+00;  4.0000000E+04;  0.0000000E+00;  4.0000000E+04;  2.1005733E-05;  0.0000000E+00; -9.6789954E-06;  9.9463562E+01;
 -1.0000000E-01;  9.9999998E-03; -3.4999999E-01;918;  0.0000000E+00;  0.0000000E+00;  0.0000000E+00;  1.0000374E+03;  1.0000000E-01;  3.0912706E+01;0;  0.0000000E+00;  0.0000000E+00;  0.0000000E+00;0;  2.7236138E-05;  4.0000000E+04;  0.0000000E+00;  0.0000000E+00;  4.0000000E+04;  0.0000000E+00;  4.0000000E+04;  4.0974443E-05;  0.0000000E+00; -1.3738305E-05;  1.3345952E+02;
 -1.0000000E-01;  9.9999998E-03; -3.4000000E-01;919;  0.0000000E+00;  0.0000000E+00;  0.0000000E+00;  1.0000366E+03;  1.0000000E-01;  3.0320129E+01;0;  0.0000000E+00;  0.0000000E+00;  0.0000000E+00;0;  5.3817228E-05;  4.0000000E+04;  0.0000000E+00;  0.0000000E+00;  4.0000000E+04;  0.0000000E+00;  4.0000000E+04;  7.2289862E-05;  0.0000000E+00; -1.8472634E-05;  1.6444913E+02;
 -1.0000000E-01;  9.9999998E-03; -3.3000001E-01;920;  0.0000000E+00;  0.0000000E+00;  0.0000000E+00;  1.0000089E+03;  1.0000000E-01;  7.4071980E+00;0;  0.0000000E+00;  0.0000000E+00;  0.0000000E+00;0;  9.3913201E-05;  4.0000000E+04;  0.0000000E+00;  0.0000000E+00;  4.0000000E+04;  0.0000000E+00;  4.0000000E+04;  1.1759835E-04;  0.0000000E+00; -2.3685145E-05;  1.8693858E+02;
 -1.0000000E-01;  9.9999998E-03; -3.1999999E-01;921;  0.0000000E+00;  0.0000000E+00;  0.0000000E+00;  1.0000187E+03;  1.0000000E-01;  1.5505734E+01;0;  0.0000000E+00;  0.0000000E+00;  0.0000000E+00;0;  1.4970102E-04;  4.0000000E+04;  0.0000000E+00;  0.0000000E+00;  4.0000000E+04;  0.0000000E+00;  4.0000000E+04;  1.7871747E-04;  0.0000000E+00; -2.9016450E-05;  1.9521548E+02;
 -1.0000000E-01;  9.9999998E-03; -3.1000000E-01;922;  0.0000000E+00;  0.0000000E+00;  0.0000000E+00;  1.0000143E+03;  1.0000000E-01;  1.1851517E+01;0;  0.0000000E+00;  0.0000000E+00;  0.0000000E+00;0;  2.2219009E-04;  4.0000000E+04;  0.0000000E+00;  0.0000000E+00;  4.0000000E+04;  0.0000000E+00;  4.0000000E+04;  2.5611999E-04;  0.0000000E+00; -3.3929900E-05;  1.8431970E+02;
 -1.0000000E-01;  9.9999998E-03; -3.0000001E-01;923;  0.0000000E+00;  0.0000000E+00;  0.0000000E+00;  1.0000256E+03;  1.0000000E-01;  2.1233967E+01;0;  0.0000000E+00;  0.0000000E+00;  0.0000000E+00;0;  3.1082300E-04;  4.0000000E+04;  0.0000000E+00;  0.0000000E+00;  4.0000000E+04;  0.0000000E+00;  4.0000000E+04;  3.4857559E-04;  0.0000000E+00; -3.7752590E-05;  1.5128738E+02;
 -1.0000000E-01;  9.9999998E-03; -2.8999999E-01;924;  0.0000000E+00;  0.0000000E+00;  0.0000000E+00;  1.0000000E+03;  1.0000000E-01;  0.0000000E+00;0;  0.0000000E+00;  0.0000000E+00;  0.0000000E+00;0;  4.1326426E-04;  4.0000000E+04;  0.0000000E+00;  0.0000000E+00;  4.0000000E+04;  0.0000000E+00;  4.0000000E+04;  4.5304917E-04;  0.0000000E+00; -3.9784900E-05;  9.6487961E+01;
 -1.0000000E-01;  9.9999998E-03; -2.8000000E-01;925;  0.0000000E+00;  0.0000000E+00;  0.0000000E+00;  1.0000000E+03;  1.0000000E-01;  0.0000000E+00;0;  0.0000000E+00;  0.0000000E+00;  0.0000000E+00;0;  5.2543997E-04;  4.0000000E+04;  0.0000000E+00;  0.0000000E+00;  4.0000000E+04;  0.0000000E+00;  4.0000000E+04;  5.6489336E-04;  0.0000000E+00; -3.9453407E-05;  2.7201618E+01;
 -9.0000004E-02;  9.9999998E-03; -4.4000000E-01;1000;  0.0000000E+00;  0.0000000E+00;  0.0000000E+00;  1.0000000E+03;  1.0000000E-01;  0.0000000E+00;0;  0.0000000E+00;  0.0000000E+00;  0.0000000E+00;0;  0.0000000E+00;  4.0000000E+04;  0.0000000E+00;  0.0000000E+00;  4.0000000E+04;  0.0000000E+00;  4.0000000E+04;  0.0000000E+00;  0.0000000E+00;  0.0000000E+00;  0.0000000E+00;
 -9.0000004E-02;  9.9999998E-03; -4.3000001E-01;1001;  0.0000000E+00;  0.0000000E+00;  0.0000000E+00;  1.0000000E+03;  1.0000000E-01;  0.0000000E+00;0;  0.0000000E+00;  0.0000000E+00;  0.0000000E+00;0; -1.2234324E-08;  4.0000000E+04;  0.0000000E+00;  0.0000000E+00;  4.0000000E+04;  0.0000000E+00;  4.0000000E+04; -4.9146429E-09;  0.0000000E+00; -7.3196809E-09;  9.5443755E-02;
 -9.0000004E-02;  9.9999998E-03; -4.1999999E-01;1002;  0.0000000E+00;  0.0000000E+00;  0.0000000E+00;  1.0000000E+03;  1.0000000E-01;  0.0000000E+00;0;  0.0000000E+00;  0.0000000E+00;  0.0000000E+00;0; -2.0855286E-07;  4.0000000E+04;  0.0000000E+00;  0.0000000E+00;  4.0000000E+04;  0.0000000E+00;  4.0000000E+04; -3.8427601E-08;  0.0000000E+00; -1.7012526E-07;  1.6489437E+00;
 -9.0000004E-02;  9.9999998E-03; -4.1000000E-01;1003;  0.0000000E+00;  0.0000000E+00;  0.0000000E+00;  1.0000000E+03;  1.0000000E-01;  0.0000000E+00;0;  0.0000000E+00;  0.0000000E+00;  0.0000000E+00;0; -8.3581057E-07;  4.0000000E+04;  0.0000000E+00;  0.0000000E+00;  4.0000000E+04;  0.0000000E+00;  4.0000000E+04; -4.5889546E-08;  0.0000000E+00; -7.8992105E-07;  8.1277685E+00;
 -9.0000004E-02;  9.9999998E-03; -4.0000001E-01;1004;  0.0000000E+00;  0.0000000E+00;  0.0000000E+00;  1.0000000E+03;  1.0000000E-01;  0.0000000E+00;0;  0.0000000E+00;  0.0000000E+00;  0.0000000E+00;0; -1.8144035E-06;  4.0000000E+04;  0.0000000E+00;  0.0000000E+00;  4.0000000E+04;  0.0000000E+00;  4.0000000E+04;  3.1852986E-07;  0.0000000E+00; -2.1329333E-06;  2.3596275E+01;
 -9.0000004E-02;  9.9999998E-03; -3.8999999E-01;1005;  0.0000000E+00;  0.0000000E+00;  0.0000000E+00;  1.0000000E+03;  1.0000000E-01;  0.0000000E+00;0;  0.0000000E+00;  0.0000000E+00;  0.0000000E+00;0; -2.4694887E-06;  4.0000000E+04;  0.0000000E+00;  0.0000000E+00;  4.0000000E+04;  0.0000000E+00;  4.0000000E+04;  1.9002006E-06;  0.0000000E+00; -4.3696891E-06;  5.0635227E+01;
 -9.0000004E-02;  9.9999998E-03; -3.8000000E-01;1006;  0.0000000E+00;  0.0000000E+00;  0.0000000E+00;  1.0000000E+03;  1.0000000E-01;  0.0000000E+00;0;  0.0000000E+00;  0.0000000E+00;  0.0000000E+00;0; -1.4018724E-06;  4.0000000E+04;  0.0000000E+00;  0.0000000E+00;  4.0000000E+04;  0.0000000E+00;  4.0000000E+04;  6.2125400E-06;  0.0000000E+00; -7.6144124E-06;  8.9436722E+01;
 -9.0000004E-02;  9.9999998E-03; -3.7000000E-01;1007;  0.0000000E+00;  0.0000000E+00;  0.0000000E+00;  1.0000407E+03;  1.0000000E-01;  3.3776821E+01;0;  0.0000000E+00;  0.0000000E+00;  0.0000000E+00;0;  3.5729390E-06;  4.0000000E+04;  0.0000000E+00;  0.0000000E+00;  4.0000000E+04;  0.0000000E+00;  4.0000000E+04;  1.5539395E-05;  0.0000000E+00; -1.1966456E-05;  1.3788757E+02;
 -9.0000004E-02;  9.9999998E-03; -3.6000001E-01;1008;  0.0000000E+00;  0.0000000E+00;  0.0000000E+00;  1.0000438E+03;  1.0000000E-01;  3.6245888E+01;0;  0.0000000E+00;  0.0000000E+00;  0.0000000E+00;0;  1.5383655E-05;  4.0000000E+04;  0.0000000E+00;  0.0000000E+00;  4.0000000E+04;  0.0000000E+00;  4.0000000E+04;  3.2890322E-05;  0.0000000E+00; -1.7506667E-05;  1.9190865E+02;
 -9.0000004E-02;  9.9999998E-03; -3.4999999E-01;1009;  0.0000000E+00;  0.0000000E+00;  0.0000000E+00;  1.0000502E+03;  1.0000000E-01;  4.1579071E+01;0;  0.0000000E+00;  0.0000000E+00;  0.0000000E+00;0;  3.7554466E-05;  4.0000000E+04;  0.0000000E+00;  0.0000000E+00;  4.0000000E+04;  0.0000000E+00;  4.0000000E+04;  6.1810235E-05;  0.0000000E+00; -2.4255769E-05;  2.4574391E+02;
 -9.0000004E-02;  9.9999998E-03; -3.4000000E-01;1010;  0.0000000E+00;  0.0000000E+00;  0.0000000E+00;  1.0000413E+03;  1.0000000E-01;  3.4171871E+01;0;  0.0000000E+00;  0.0000000E+00;  0.0000000E+00;0;  7.3857038E-05;  4.0000000E+04;  0.0000000E+00;  0.0000000E+00;  4.0000000E+04;  0.0000000E+00;  4.0000000E+04;  1.0596259E-04;  0.0000000E+00; -3.2105552E-05;  2.9222549E+02;
 -9.0000004E-02;  9.9999998E-03; -3.3000001E-01;1011;  0.0000000E+00;  0.0000000E+00;  0.0000000E+00;  1.0000583E+03;  1.0000000E-01;  4.8294930E+01;0;  0.0000000E+00;  0.0000000E+00;  0.0000000E+00;0;  1.2781614E-04;  4.0000000E+04;  0.0000000E+00;  0.0000000E+00;  4.0000000E+04;  0.0000000E+00;  4.0000000E+04;  1.6855446E-04;  0.0000000E+00; -4.0738320E-05;  3.2321915E+02;
 -9.0000004E-02;  9.9999998E-03; -3.1999999E-01;1012;  0.0000000E+00;  0.0000000E+00;  0.0000000E+00;  1.0000800E+03;  1.0000000E-01;  6.6269730E+01;0;  0.0000000E+00;  0.0000000E+00;  0.0000000E+00;0;  2.0211104E-04;  4.0000000E+04;  0.0000000E+00;  0.0000000E+00;  4.0000000E+04;  0.0000000E+00;  4.0000000E+04;  2.5166961E-04;  0.0000000E+00; -4.9558570E-05;  3.3047568E+02;
 -9.0000004E-02;  9.9999998E-03; -3.1000000E-01;1013;  0.0000000E+00;  0.0000000E+00;  0.0000000E+00;  1.0000674E+03;  1.0000000E-01;  5.5899654E+01;0;  0.0000000E+00;  0.0000000E+00;  0.0000000E+00;0;  2.9796595E-04;  4.0000000E+04;  0.0000000E+00;  0.0000000E+00;  4.0000000E+04;  0.0000000E+00;  4.0000000E+04;  3.5563906E-04;  0.0000000E+00; -5.7673122E-05;  3.0705365E+02;
 -9.0000004E-02;  9.9999998E-03; -3.0000001E-01;1014;  0.0000000E+00;  0.0000000E+00;  0.0000000E+00;  1.0000905E+03;  1.0000000E-01;  7.4960846E+01;0;  0.0000000E+00;  0.0000000E+00;  0.0000000E+00;0;  4.1464993E-04;  4.0000000E+04;  0.0000000E+00;  0.0000000E+00;  4.0000000E+04;  0.0000000E+00;  4.0000000E+04;  4.7861444E-04;  0.0000000E+00; -6.3964522E-05;  2.4925360E+02;
 -9.0000004E-02;  9.9999998E-03; -2.8999999E-01;1015;  0.0000000E+00;  0.0000000E+00;  0.0000000E+00;  1.0000601E+03;  1.0000000E-01;  4.9776371E+01;0;  0.0000000E+00;  0.0000000E+00;  0.0000000E+00;0;  5.4918753E-04;  4.0000000E+04;  0.0000000E+00;  0.0000000E+00;  4.0000000E+04;  0.0000000E+00;  4.0000000E+04;  6.1646663E-04;  0.0000000E+00; -6.7279107E-05;  1.5881842E+02;
 -9.0000004E-02;  9.9999998E-03; -2.8000000E-01;1016;  0.0000000E+00;  0.0000000E+00;  0.0000000E+00;  1.0000552E+03;  1.0000000E-01;  4.5727100E+01;0;  0.0000000E+00;  0.0000000E+00;  0.0000000E+00;0;  6.9636077E-04;  4.0000000E+04;  0.0000000E+00;  0.0000000E+00;  4.0000000E+04;  0.0000000E+00;  4.0000000E+04;  7.6304394E-04;  0.0000000E+00; -6.6683169E-05;  5.2129601E+01;
 -7.9999998E-02;  9.9999998E-03; -4.4000000E-01;1091;  0.0000000E+00;  0.0000000E+00;  0.0000000E+00;  1.0000000E+03;  1.0000000E-01;  0.0000000E+00;0;  0.0000000E+00;  0.0000000E+00;  0.0000000E+00;0; -2.0877393E-09;  4.0000000E+04;  0.0000000E+00;  0.0000000E+00;  4.0000000E+04;  0.0000000E+00;  4.0000000E+04; -1.0706634E-09;  0.0000000E+00; -1.0170760E-09;  1.7547455E-02;
 -7.9999998E-02;  9.9999998E-03; -4.3000001E-01;1092;  0.0000000E+00;  0.0000000E+00;  0.0000000E+00;  1.0000000E+03;  1.0000000E-01;  0.0000000E+00;0;  0.0000000E+00;  0.0000000E+00;  0.0000000E+00;0; -1.2432884E-07;  4.0000000E+04;  0.0000000E+00;  0.0000000E+00;  4.0000000E+04;  0.0000000E+00;  4.0000000E+04; -3.5766377E-08;  0.0000000E+00; -8.8562452E-08;  9.8881245E-01;
 -7.9999998E-02;  9.9999998E-03; -4.1999999E-01;1093;  0.0000000E+00;  0.0000000E+00;  0.0000000E+00;  1.0000000E+03;  1.0000000E-01;  0.0000000E+00;0;  0.0000000E+00;  0.0000000E+00;  0.0000000E+00;0; -7.4543391E-07;  4.0000000E+04;  0.0000000E+00;  0.0000000E+00;  4.0000000E+04;  0.0000000E+00;  4.0000000E+04; -1.4958640E-07;  0.0000000E+00; -5.9584750E-07;  6.7565861E+00;
 -7.9999998E-02;  9.9999998E-03; -4.1000000E-01;1094;  0.0000000E+00;  0.0000000E+00;  0.0000000E+00;  1.0000000E+03;  1.0000000E-01;  0.0000000E+00;0;  0.0000000E+00;  0.0000000E+00;  0.0000000E+00;0; -2.1263963E-06;  4.0000000E+04;  0.0000000E+00;  0.0000000E+00;  4.0000000E+04;  0.0000000E+00;  4.0000000E+04; -2.1670938E-07;  0.0000000E+00; -1.9096869E-06;  2.3268940E+01;
 -7.9999998E-02;  9.9999998E-03; -4.0000001E-01;1095;  0.0000000E+00;  0.0000000E+00;  0.0000000E+00;  1.0000000E+03;  1.0000000E-01;  0.0000000E+00;0;  0.0000000E+00;  0.0000000E+00;  0.0000000E+00;0; -4.0199125E-06;  4.0000000E+04;  0.0000000E+00;  0.0000000E+00;  4.0000000E+04;  0.0000000E+00;  4.0000000E+04;  2.9384975E-07;  0.0000000E+00; -4.3137620E-06;  5.5451530E+01;
 -7.9999998E-02;  9.9999998E-03; -3.8999999E-01;1096;  0.0000000E+00;  0.0000000E+00;  0.0000000E+00;  1.0000000E+03;  1.0000000E-01;  0.0000000E+00;0;  0.0000000E+00;  0.0000000E+00;  0.0000000E+00;0; -5.4675756E-06;  4.0000000E+04;  0.0000000E+00;  0.0000000E+00;  4.0000000E+04;  0.0000000E+00;  4.0000000E+04;  2.5358811E-06;  0.0000000E+00; -8.0034570E-06;  1.0507930E+02;
 -7.9999998E-02;  9.9999998E-03; -3.8000000E-01;1097;  0.0000000E+00;  0.0000000E+00;  0.0000000E+00;  1.0000444E+03;  1.0000000E-01;  3.6739700E+01;0;  0.0000000E+00;  0.0000000E+00;  0.0000000E+00;0; -4.6970663E-06;  4.0000000E+04;  0.0000000E+00;  0.0000000E+00;  4.0000000E+04;  0.0000000E+00;  4.0000000E+04;  8.4598723E-06;  0.0000000E+00; -1.3156939E-05;  1.7055434E+02;
 -7.9999998E-02;  9.9999998E-03; -3.7000000E-01;1098;  0.0000000E+00;  0.0000000E+00;  0.0000000E+00;  1.0000494E+03;  1.0000000E-01;  4.0986496E+01;0;  0.0000000E+00;  0.0000000E+00;  0.0000000E+00;0;  9.5235919E-07;  4.0000000E+04;  0.0000000E+00;  0.0000000E+00;  4.0000000E+04;  0.0000000E+00;  4.0000000E+04;  2.0914076E-05;  0.0000000E+00; -1.9961717E-05;  2.4753473E+02;
 -7.9999998E-02;  9.9999998E-03; -3.6000001E-01;1099;  0.0000000E+00;  0.0000000E+00;  0.0000000E+00;  1.0000682E+03;  1.0000000E-01;  5.6492229E+01;0;  0.0000000E+00;  0.0000000E+00;  0.0000000E+00;0;  1.4994532E-05;  4.0000000E+04;  0.0000000E+00;  0.0000000E+00;  4.0000000E+04;  0.0000000E+00;  4.0000000E+04;  4.3574462E-05;  0.0000000E+00; -2.8579931E-05;  3.2947351E+02;
 -7.9999998E-02;  9.9999998E-03; -3.4999999E-01;1100;  0.0000000E+00;  0.0000000E+00;  0.0000000E+00;  1.0000714E+03;  1.0000000E-01;  5.9158821E+01;0;  0.0000000E+00;  0.0000000E+00;  0.0000000E+00;0;  4.1635114E-05;  4.0000000E+04;  0.0000000E+00;  0.0000000E+00;  4.0000000E+04;  0.0000000E+00;  4.0000000E+04;  8.0702863E-05;  0.0000000E+00; -3.9067749E-05;  4.0792053E+02;
 -7.9999998E-02;  9.9999998E-03; -3.4000000E-01;1101;  0.0000000E+00;  0.0000000E+00;  0.0000000E+00;  1.0001165E+03;  1.0000000E-01;  9.6491096E+01;0;  0.0000000E+00;  0.0000000E+00;  0.0000000E+00;0;  8.5386870E-05;  4.0000000E+04;  0.0000000E+00;  0.0000000E+00;  4.0000000E+04;  0.0000000E+00;  4.0000000E+04;  1.3665140E-04;  0.0000000E+00; -5.1264538E-05;  4.7272729E+02;
 -7.9999998E-02;  9.9999998E-03; -3.3000001E-01;1102;  0.0000000E+00;  0.0000000E+00;  0.0000000E+00;  1.0001454E+03;  1.0000000E-01;  1.2049042E+02;0;  0.0000000E+00;  0.0000000E+00;  0.0000000E+00;0;  1.5050831E-04;  4.0000000E+04;  0.0000000E+00;  0.0000000E+00;  4.0000000E+04;  0.0000000E+00;  4.0000000E+04;  2.1517774E-04;  0.0000000E+00; -6.4669432E-05;  5.1256555E+02;
 -7.9999998E-02;  9.9999998E-03; -3.1999999E-01;1103;  0.0000000E+00;  0.0000000E+00;  0.0000000E+00;  1.0001598E+03;  1.0000000E-01;  1.3234193E+02;0;  0.0000000E+00;  0.0000000E+00;  0.0000000E+00;0;  2.4030841E-04;  4.0000000E+04;  0.0000000E+00;  0.0000000E+00;  4.0000000E+04;  0.0000000E+00;  4.0000000E+04;  3.1864698E-04;  0.0000000E+00; -7.8338584E-05;  5.1608612E+02;
 -7.9999998E-02;  9.9999998E-03; -3.1000000E-01;1104;  0.0000000E+00;  0.0000000E+00;  0.0000000E+00;  1.0001771E+03;  1.0000000E-01;  1.4676128E+02;0;  0.0000000E+00;  0.0000000E+00;  0.0000000E+00;0;  3.5641066E-04;  4.0000000E+04;  0.0000000E+00;  0.0000000E+00;  4.0000000E+04;  0.0000000E+00;  4.0000000E+04;  4.4727561E-04;  0.0000000E+00; -9.0864953E-05;  4.7400476E+02;
 -7.9999998E-02;  9.9999998E-03; -3.0000001E-01;1105;  0.0000000E+00;  0.0000000E+00;  0.0000000E+00;  1.0001974E+03;  1.0000000E-01;  1.6355093E+02;0;  0.0000000E+00;  0.0000000E+00;  0.0000000E+00;0;  4.9810269E-04;  4.0000000E+04;  0.0000000E+00;  0.0000000E+00;  4.0000000E+04;  0.0000000E+00;  4.0000000E+04;  5.9861032E-04;  0.0000000E+00; -1.0050762E-04;  3.8194818E+02;
 -7.9999998E-02;  9.9999998E-03; -2.8999999E-01;1106;  0.0000000E+00;  0.0000000E+00;  0.0000000E+00;  1.0002003E+03;  1.0000000E-01;  1.6592123E+02;0;  0.0000000E+00;  0.0000000E+00;  0.0000000E+00;0;  6.6189375E-04;  4.0000000E+04;  0.0000000E+00;  0.0000000E+00;  4.0000000E+04;  0.0000000E+00;  4.0000000E+04;  7.6738966E-04;  0.0000000E+00; -1.0549591E-04;  2.4415182E+02;
 -7.9999998E-02;  9.9999998E-03; -2.8000000E-01;1107;  0.0000000E+00;  0.0000000E+00;  0.0000000E+00;  1.0002085E+03;  1.0000000E-01;  1.7273586E+02;0;  0.0000000E+00;  0.0000000E+00;  0.0000000E+00;0;  8.4144145E-04;  4.0000000E+04;  0.0000000E+00;  0.0000000E+00;  4.0000000E+04;  0.0000000E+00;  4.0000000E+04;  9.4586948E-04;  0.0000000E+00; -1.0442804E-04;  9.2290062E+01;
 -7.0000000E-02;  9.9999998E-03; -4.4000000E-01;1182;  0.0000000E+00;  0.0000000E+00;  0.0000000E+00;  1.0000000E+03;  1.0000000E-01;  0.0000000E+00;0;  0.0000000E+00;  0.0000000E+00;  0.0000000E+00;0; -4.0161204E-08;  4.0000000E+04;  0.0000000E+00;  0.0000000E+00;  4.0000000E+04;  0.0000000E+00;  4.0000000E+04; -1.6498442E-08;  0.0000000E+00; -2.3662762E-08;  3.4000838E-01;
 -7.0000000E-02;  9.9999998E-03; -4.3000001E-01;1183;  0.0000000E+00;  0.0000000E+00;  0.0000000E+00;  1.0000000E+03;  1.0000000E-01;  0.0000000E+00;0;  0.0000000E+00;  0.0000000E+00;  0.0000000E+00;0; -4.6823527E-07;  4.0000000E+04;  0.0000000E+00;  0.0000000E+00;  4.0000000E+04;  0.0000000E+00;  4.0000000E+04; -1.4122401E-07;  0.0000000E+00; -3.2701126E-07;  4.1603179E+00;
 -7.0000000E-02;  9.9999998E-03; -4.1999999E-01;1184;  0.0000000E+00;  0.0000000E+00;  0.0000000E+00;  1.0000000E+03;  1.0000000E-01;  0.0000000E+00;0;  0.0000000E+00;  0.0000000E+00;  0.0000000E+00;0; -1.8331855E-06;  4.0000000E+04;  0.0000000E+00;  0.0000000E+00;  4.0000000E+04;  0.0000000E+00;  4.0000000E+04; -4.5179499E-07;  0.0000000E+00; -1.3813905E-06;  1.8639856E+01;
 -7.0000000E-02;  9.9999998E-03; -4.1000000E-01;1185;  0.0000000E+00;  0.0000000E+00;  0.0000000E+00;  1.0000000E+03;  1.0000000E-01;  0.0000000E+00;0;  0.0000000E+00;  0.0000000E+00;  0.0000000E+00;0; -4.4011585E-06;  4.0000000E+04;  0.0000000E+00;  0.0000000E+00;  4.0000000E+04;  0.0000000E+00;  4.0000000E+04; -7.8508430E-07;  0.0000000E+00; -3.6160741E-06;  5.1817150E+01;
 -7.0000000E-02;  9.9999998E-03; -4.0000001E-01;1186;  0.0000000E+00;  0.0000000E+00;  0.0000000E+00;  1.0000000E+03;  1.0000000E-01;  0.0000000E+00;0;  0.0000000E+00;  0.0000000E+00;  0.0000000E+00;0; -7.8418134E-06;  4.0000000E+04;  0.0000000E+00;  0.0000000E+00;  4.0000000E+04;  0.0000000E+00;  4.0000000E+04; -4.9448192E-07;  0.0000000E+00; -7.3473316E-06;  1.0850265E+02;
 -7.0000000E-02;  9.9999998E-03; -3.8999999E-01;1187;  0.0000000E+00;  0.0000000E+00;  0.0000000E+00;  1.0000443E+03;  1.0000000E-01;  3.6739700E+01;0;  0.0000000E+00;  0.0000000E+00;  0.0000000E+00;0; -1.1071004E-05;  4.0000000E+04;  0.0000000E+00;  0.0000000E+00;  4.0000000E+04;  0.0000000E+00;  4.0000000E+04;  1.7808220E-06;  0.0000000E+00; -1.2851826E-05;  1.8874738E+02;
 -7.0000000E-02;  9.9999998E-03; -3.8000000E-01;1188;  0.0000000E+00;  0.0000000E+00;  0.0000000E+00;  1.0000561E+03;  1.0000000E-01;  4.6517204E+01;0;  0.0000000E+00;  0.0000000E+00;  0.0000000E+00;0; -1.2131902E-05;  4.0000000E+04;  0.0000000E+00;  0.0000000E+00;  4.0000000E+04;  0.0000000E+00;  4.0000000E+04;  8.3041423E-06;  0.0000000E+00; -2.0436044E-05;  2.8853043E+02;
 -7.0000000E-02;  9.9999998E-03; -3.7000000E-01;1189;  0.0000000E+00;  0.0000000E+00;  0.0000000E+00;  1.0000927E+03;  1.0000000E-01;  7.6837334E+01;0;  0.0000000E+00;  0.0000000E+00;  0.0000000E+00;0; -8.0821119E-06;  4.0000000E+04;  0.0000000E+00;  0.0000000E+00;  4.0000000E+04;  0.0000000E+00;  4.0000000E+04;  2.2346459E-05;  0.0000000E+00; -3.0428571E-05;  4.0087494E+02;
 -7.0000000E-02;  9.9999998E-03; -3.6000001E-01;1190;  0.0000000E+00;  0.0000000E+00;  0.0000000E+00;  1.0000938E+03;  1.0000000E-01;  7.7726196E+01;0;  0.0000000E+00;  0.0000000E+00;  0.0000000E+00;0;  5.0025556E-06;  4.0000000E+04;  0.0000000E+00;  0.0000000E+00;  4.0000000E+04;  0.0000000E+00;  4.0000000E+04;  4.8107795E-05;  0.0000000E+00; -4.3105239E-05;  5.1647375E+02;
 -7.0000000E-02;  9.9999998E-03; -3.4999999E-01;1191;  0.0000000E+00;  0.0000000E+00;  0.0000000E+00;  1.0001500E+03;  1.0000000E-01;  1.2424340E+02;0;  0.0000000E+00;  0.0000000E+00;  0.0000000E+00;0;  3.1885535E-05;  4.0000000E+04;  0.0000000E+00;  0.0000000E+00;  4.0000000E+04;  0.0000000E+00;  4.0000000E+04;  9.0447167E-05;  0.0000000E+00; -5.8561633E-05;  6.2386090E+02;
 -7.0000000E-02;  9.9999998E-03; -3.4000000E-01;1192;  0.0000000E+00;  0.0000000E+00;  0.0000000E+00;  1.0002136E+03;  1.0000000E-01;  1.7688388E+02;0;  0.0000000E+00;  0.0000000E+00;  0.0000000E+00;0;  7.7784789E-05;  4.0000000E+04;  0.0000000E+00;  0.0000000E+00;  4.0000000E+04;  0.0000000E+00;  4.0000000E+04;  1.5433560E-04;  0.0000000E+00; -7.6550816E-05;  7.0947729E+02;
 -7.0000000E-02;  9.9999998E-03; -3.3000001E-01;1193;  0.0000000E+00;  0.0000000E+00;  0.0000000E+00;  1.0002559E+03;  1.0000000E-01;  2.1204338E+02;0;  0.0000000E+00;  0.0000000E+00;  0.0000000E+00;0;  1.4777604E-04;  4.0000000E+04;  0.0000000E+00;  0.0000000E+00;  4.0000000E+04;  0.0000000E+00;  4.0000000E+04;  2.4407984E-04;  0.0000000E+00; -9.6303804E-05;  7.5825085E+02;
 -7.0000000E-02;  9.9999998E-03; -3.1999999E-01;1194;  0.0000000E+00;  0.0000000E+00;  0.0000000E+00;  1.0003236E+03;  1.0000000E-01;  2.6814056E+02;0;  0.0000000E+00;  0.0000000E+00;  0.0000000E+00;0;  2.4601075E-04;  4.0000000E+04;  0.0000000E+00;  0.0000000E+00;  4.0000000E+04;  0.0000000E+00;  4.0000000E+04;  3.6239941E-04;  0.0000000E+00; -1.1638866E-04;  7.5511749E+02;
 -7.0000000E-02;  9.9999998E-03; -3.1000000E-01;1195;  0.0000000E+00;  0.0000000E+00;  0.0000000E+00;  1.0003582E+03;  1.0000000E-01;  2.9678174E+02;0;  0.0000000E+00;  0.0000000E+00;  0.0000000E+00;0;  3.7482486E-04;  4.0000000E+04;  0.0000000E+00;  0.0000000E+00;  4.0000000E+04;  0.0000000E+00;  4.0000000E+04;  5.0952320E-04;  0.0000000E+00; -1.3469833E-04;  6.8796368E+02;
 -7.0000000E-02;  9.9999998E-03; -3.0000001E-01;1196;  0.0000000E+00;  0.0000000E+00;  0.0000000E+00;  1.0003932E+03;  1.0000000E-01;  3.2581793E+02;0;  0.0000000E+00;  0.0000000E+00;  0.0000000E+00;0;  5.3385447E-04;  4.0000000E+04;  0.0000000E+00;  0.0000000E+00;  4.0000000E+04;  0.0000000E+00;  4.0000000E+04;  6.8251783E-04;  0.0000000E+00; -1.4866336E-04;  5.5175342E+02;
 -7.0000000E-02;  9.9999998E-03; -2.8999999E-01;1197;  0.0000000E+00;  0.0000000E+00;  0.0000000E+00;  1.0004291E+03;  1.0000000E-01;  3.5554550E+02;0;  0.0000000E+00;  0.0000000E+00;  0.0000000E+00;0;  7.1934622E-04;  4.0000000E+04;  0.0000000E+00;  0.0000000E+00;  4.0000000E+04;  0.0000000E+00;  4.0000000E+04;  8.7506173E-04;  0.0000000E+00; -1.5571549E-04;  3.5446506E+02;
 -7.0000000E-02;  9.9999998E-03; -2.8000000E-01;1198;  0.0000000E+00;  0.0000000E+00;  0.0000000E+00;  1.0004540E+03;  1.0000000E-01;  3.7618689E+02;0;  0.0000000E+00;  0.0000000E+00;  0.0000000E+00;0;  9.2391152E-04;  4.0000000E+04;  0.0000000E+00;  0.0000000E+00;  4.0000000E+04;  0.0000000E+00;  4.0000000E+04;  1.0777856E-03;  0.0000000E+00; -1.5387409E-04;  1.4943576E+02;
 -5.9999999E-02;  9.9999998E-03; -4.4000000E-01;1273;  0.0000000E+00;  0.0000000E+00;  0.0000000E+00;  1.0000000E+03;  1.0000000E-01;  0.0000000E+00;0;  0.0000000E+00;  0.0000000E+00;  0.0000000E+00;0; -1.8473011E-07;  4.0000000E+04;  0.0000000E+00;  0.0000000E+00;  4.0000000E+04;  0.0000000E+00;  4.0000000E+04; -7.1306452E-08;  0.0000000E+00; -1.1342366E-07;  1.6853502E+00;
 -5.9999999E-02;  9.9999998E-03; -4.3000001E-01;1274;  0.0000000E+00;  0.0000000E+00;  0.0000000E+00;  1.0000000E+03;  1.0000000E-01;  0.0000000E+00;0;  0.0000000E+00;  0.0000000E+00;  0.0000000E+00;0; -1.1587041E-06;  4.0000000E+04;  0.0000000E+00;  0.0000000E+00;  4.0000000E+04;  0.0000000E+00;  4.0000000E+04; -3.9788691E-07;  0.0000000E+00; -7.6081716E-07;  1.1518728E+01;
 -5.9999999E-02;  9.9999998E-03; -4.1999999E-01;1275;  0.0000000E+00;  0.0000000E+00;  0.0000000E+00;  1.0000000E+03;  1.0000000E-01;  0.0000000E+00;0;  0.0000000E+00;  0.0000000E+00;  0.0000000E+00;0; -3.6340243E-06;  4.0000000E+04;  0.0000000E+00;  0.0000000E+00;  4.0000000E+04;  0.0000000E+00;  4.0000000E+04; -1.1436010E-06;  0.0000000E+00; -2.4904234E-06;  4.0166199E+01;
 -5.9999999E-02;  9.9999998E-03; -4.1000000E-01;1276;  0.0000000E+00;  0.0000000E+00;  0.0000000E+00;  1.0000000E+03;  1.0000000E-01;  0.0000000E+00;0;  0.0000000E+00;  0.0000000E+00;  0.0000000E+00;0; -7.9769543E-06;  4.0000000E+04;  0.0000000E+00;  0.0000000E+00;  4.0000000E+04;  0.0000000E+00;  4.0000000E+04; -2.2042066E-06;  0.0000000E+00; -5.7727475E-06;  9.6939117E+01;
 -5.9999999E-02;  9.9999998E-03; -4.0000001E-01;1277;  0.0000000E+00;  0.0000000E+00;  0.0000000E+00;  1.0000315E+03;  1.0000000E-01;  2.6073338E+01;0;  0.0000000E+00;  0.0000000E+00;  0.0000000E+00;0; -1.3971495E-05;  4.0000000E+04;  0.0000000E+00;  0.0000000E+00;  4.0000000E+04;  0.0000000E+00;  4.0000000E+04; -2.9535356E-06;  0.0000000E+00; -1.1017959E-05;  1.8554865E+02;
 -5.9999999E-02;  9.9999998E-03; -3.8999999E-01;1278;  0.0000000E+00;  0.0000000E+00;  0.0000000E+00;  1.0000620E+03;  1.0000000E-01;  5.1356571E+01;0;  0.0000000E+00;  0.0000000E+00;  0.0000000E+00;0; -2.0664575E-05;  4.0000000E+04;  0.0000000E+00;  0.0000000E+00;  4.0000000E+04;  0.0000000E+00;  4.0000000E+04; -1.9967185E-06;  0.0000000E+00; -1.8667855E-05;  3.0359680E+02;
 -5.9999999E-02;  9.9999998E-03; -3.8000000E-01;1279;  0.0000000E+00;  0.0000000E+00;  0.0000000E+00;  1.0000936E+03;  1.0000000E-01;  7.7528671E+01;0;  0.0000000E+00;  0.0000000E+00;  0.0000000E+00;0; -2.6194031E-05;  4.0000000E+04;  0.0000000E+00;  0.0000000E+00;  4.0000000E+04;  0.0000000E+00;  4.0000000E+04;  3.0362851E-06;  0.0000000E+00; -2.9230316E-05;  4.4422571E+02;
 -5.9999999E-02;  9.9999998E-03; -3.7000000E-01;1280;  0.0000000E+00;  0.0000000E+00;  0.0000000E+00;  1.0001255E+03;  1.0000000E-01;  1.0399706E+02;0;  0.0000000E+00;  0.0000000E+00;  0.0000000E+00;0; -2.7616636E-05;  4.0000000E+04;  0.0000000E+00;  0.0000000E+00;  4.0000000E+04;  0.0000000E+00;  4.0000000E+04;  1.5608864E-05;  0.0000000E+00; -4.3225500E-05;  5.9764343E+02;
 -5.9999999E-02;  9.9999998E-03; -3.6000001E-01;1281;  0.0000000E+00;  0.0000000E+00;  0.0000000E+00;  1.0001920E+03;  1.0000000E-01;  1.5910661E+02;0;  0.0000000E+00;  0.0000000E+00;  0.0000000E+00;0; -2.0852316E-05;  4.0000000E+04;  0.0000000E+00;  0.0000000E+00;  4.0000000E+04;  0.0000000E+00;  4.0000000E+04;  4.0214687E-05;  0.0000000E+00; -6.1067003E-05;  7.5166675E+02;
 -5.9999999E-02;  9.9999998E-03; -3.4999999E-01;1282;  0.0000000E+00;  0.0000000E+00;  0.0000000E+00;  1.0002805E+03;  1.0000000E-01;  2.3238849E+02;0;  0.0000000E+00;  0.0000000E+00;  0.0000000E+00;0; -7.7024742E-07;  4.0000000E+04;  0.0000000E+00;  0.0000000E+00;  4.0000000E+04;  0.0000000E+00;  4.0000000E+04;  8.2111786E-05;  0.0000000E+00; -8.2882034E-05;  8.9163770E+02;
 -5.9999999E-02;  9.9999998E-03; -3.4000000E-01;1283;  0.0000000E+00;  0.0000000E+00;  0.0000000E+00;  1.0003553E+03;  1.0000000E-01;  2.9431265E+02;0;  0.0000000E+00;  0.0000000E+00;  0.0000000E+00;0;  3.8479258E-05;  4.0000000E+04;  0.0000000E+00;  0.0000000E+00;  4.0000000E+04;  0.0000000E+00;  4.0000000E+04;  1.4676587E-04;  0.0000000E+00; -1.0828661E-04;  1.0002751E+03;
 -5.9999999E-02;  9.9999998E-03; -3.3000001E-01;1284;  0.0000000E+00;  0.0000000E+00;  0.0000000E+00;  1.0004478E+03;  1.0000000E-01;  3.7105124E+02;0;  0.0000000E+00;  0.0000000E+00;  0.0000000E+00;0;  1.0288236E-04;  4.0000000E+04;  0.0000000E+00;  0.0000000E+00;  4.0000000E+04;  0.0000000E+00;  4.0000000E+04;  2.3902493E-04;  0.0000000E+00; -1.3614257E-04;  1.0581913E+03;
 -5.9999999E-02;  9.9999998E-03; -3.1999999E-01;1285;  0.0000000E+00;  0.0000000E+00;  0.0000000E+00;  1.0005309E+03;  1.0000000E-01;  4.3988879E+02;0;  0.0000000E+00;  0.0000000E+00;  0.0000000E+00;0;  1.9772172E-04;  4.0000000E+04;  0.0000000E+00;  0.0000000E+00;  4.0000000E+04;  0.0000000E+00;  4.0000000E+04;  3.6209312E-04;  0.0000000E+00; -1.6437141E-04;  1.0459213E+03;
 -5.9999999E-02;  9.9999998E-03; -3.1000000E-01;1286;  0.0000000E+00;  0.0000000E+00;  0.0000000E+00;  1.0006187E+03;  1.0000000E-01;  5.1257812E+02;0;  0.0000000E+00;  0.0000000E+00;  0.0000000E+00;0;  3.2649672E-04;  4.0000000E+04;  0.0000000E+00;  0.0000000E+00;  4.0000000E+04;  0.0000000E+00;  4.0000000E+04;  5.1645358E-04;  0.0000000E+00; -1.8995687E-04;  9.4777997E+02;
 -5.9999999E-02;  9.9999998E-03; -3.0000001E-01;1287;  0.0000000E+00;  0.0000000E+00;  0.0000000E+00;  1.0007027E+03;  1.0000000E-01;  5.8220575E+02;0;  0.0000000E+00;  0.0000000E+00;  0.0000000E+00;0;  4.8970740E-04;  4.0000000E+04;  0.0000000E+00;  0.0000000E+00;  4.0000000E+04;  0.0000000E+00;  4.0000000E+04;  6.9897581E-04;  0.0000000E+00; -2.0926842E-04;  7.5778955E+02;
 -5.9999999E-02;  9.9999998E-03; -2.8999999E-01;1288;  0.0000000E+00;  0.0000000E+00;  0.0000000E+00;  1.0007800E+03;  1.0000000E-01;  6.4620392E+02;0;  0.0000000E+00;  0.0000000E+00;  0.0000000E+00;0;  6.8374845E-04;  4.0000000E+04;  0.0000000E+00;  0.0000000E+00;  4.0000000E+04;  0.0000000E+00;  4.0000000E+04;  9.0248819E-04;  0.0000000E+00; -2.1873973E-04;  4.8858337E+02;
 -5.9999999E-02;  9.9999998E-03; -2.8000000E-01;1289;  0.0000000E+00;  0.0000000E+00;  0.0000000E+00;  1.0008541E+03;  1.0000000E-01;  7.0753552E+02;0;  0.0000000E+00;  0.0000000E+00;  0.0000000E+00;0;  9.0037094E-04;  4.0000000E+04;  0.0000000E+00;  0.0000000E+00;  4.0000000E+04;  0.0000000E+00;  4.0000000E+04;  1.1160714E-03;  0.0000000E+00; -2.1570041E-04;  2.2009331E+02;
 -5.0000001E-02;  9.9999998E-03; -4.4000000E-01;1364;  0.0000000E+00;  0.0000000E+00;  0.0000000E+00;  1.0000000E+03;  1.0000000E-01;  0.0000000E+00;0;  0.0000000E+00;  0.0000000E+00;  0.0000000E+00;0; -4.9180238E-07;  4.0000000E+04;  0.0000000E+00;  0.0000000E+00;  4.0000000E+04;  0.0000000E+00;  4.0000000E+04; -2.0775938E-07;  0.0000000E+00; -2.8404301E-07;  4.9800177E+00;
 -5.0000001E-02;  9.9999998E-03; -4.3000001E-01;1365;  0.0000000E+00;  0.0000000E+00;  0.0000000E+00;  1.0000000E+03;  1.0000000E-01;  0.0000000E+00;0;  0.0000000E+00;  0.0000000E+00;  0.0000000E+00;0; -2.2534405E-06;  4.0000000E+04;  0.0000000E+00;  0.0000000E+00;  4.0000000E+04;  0.0000000E+00;  4.0000000E+04; -9.2429775E-07;  0.0000000E+00; -1.3291427E-06;  2.4589880E+01;
 -5.0000001E-02;  9.9999998E-03; -4.1999999E-01;1366;  0.0000000E+00;  0.0000000E+00;  0.0000000E+00;  1.0000000E+03;  1.0000000E-01;  0.0000000E+00;0;  0.0000000E+00;  0.0000000E+00;  0.0000000E+00;0; -6.2517429E-06;  4.0000000E+04;  0.0000000E+00;  0.0000000E+00;  4.0000000E+04;  0.0000000E+00;  4.0000000E+04; -2.5123334E-06;  0.0000000E+00; -3.7394095E-06;  7.2770126E+01;
 -5.0000001E-02;  9.9999998E-03; -4.1000000E-01;1367;  0.0000000E+00;  0.0000000E+00;  0.0000000E+00;  1.0000088E+03;  1.0000000E-01;  7.3084354E+00;0;  0.0000000E+00;  0.0000000E+00;  0.0000000E+00;0; -1.3150717E-05;  4.0000000E+04;  0.0000000E+00;  0.0000000E+00;  4.0000000E+04;  0.0000000E+00;  4.0000000E+04; -5.0719364E-06;  0.0000000E+00; -8.0787804E-06;  1.5917746E+02;
 -5.0000001E-02;  9.9999998E-03; -4.0000001E-01;1368;  0.0000000E+00;  0.0000000E+00;  0.0000000E+00;  1.0000590E+03;  1.0000000E-01;  4.8887505E+01;0;  0.0000000E+00;  0.0000000E+00;  0.0000000E+00;0; -2.3140870E-05;  4.0000000E+04;  0.0000000E+00;  0.0000000E+00;  4.0000000E+04;  0.0000000E+00;  4.0000000E+04; -8.1874405E-06;  0.0000000E+00; -1.4953431E-05;  2.8561615E+02;
 -5.0000001E-02;  9.9999998E-03; -3.8999999E-01;1369;  0.0000000E+00;  0.0000000E+00;  0.0000000E+00;  1.0000916E+03;  1.0000000E-01;  7.5849709E+01;0;  0.0000000E+00;  0.0000000E+00;  0.0000000E+00;0; -3.5732774E-05;  4.0000000E+04;  0.0000000E+00;  0.0000000E+00;  4.0000000E+04;  0.0000000E+00;  4.0000000E+04; -1.0665058E-05;  0.0000000E+00; -2.5067717E-05;  4.4676700E+02;
 -5.0000001E-02;  9.9999998E-03; -3.8000000E-01;1370;  0.0000000E+00;  0.0000000E+00;  0.0000000E+00;  1.0001434E+03;  1.0000000E-01;  1.1881145E+02;0;  0.0000000E+00;  0.0000000E+00;  0.0000000E+00;0; -4.9509843E-05;  4.0000000E+04;  0.0000000E+00;  0.0000000E+00;  4.0000000E+04;  0.0000000E+00;  4.0000000E+04; -1.0309834E-05;  0.0000000E+00; -3.9200011E-05;  6.3279584E+02;
 -5.0000001E-02;  9.9999998E-03; -3.7000000E-01;1371;  0.0000000E+00;  0.0000000E+00;  0.0000000E+00;  1.0002075E+03;  1.0000000E-01;  1.7184698E+02;0;  0.0000000E+00;  0.0000000E+00;  0.0000000E+00;0; -6.1885403E-05;  4.0000000E+04;  0.0000000E+00;  0.0000000E+00;  4.0000000E+04;  0.0000000E+00;  4.0000000E+04; -3.7855543E-06;  0.0000000E+00; -5.8099849E-05;  8.3113220E+02;
 -5.0000001E-02;  9.9999998E-03; -3.6000001E-01;1372;  0.0000000E+00;  0.0000000E+00;  0.0000000E+00;  1.0003188E+03;  1.0000000E-01;  2.6419006E+02;0;  0.0000000E+00;  0.0000000E+00;  0.0000000E+00;0; -6.8963207E-05;  4.0000000E+04;  0.0000000E+00;  0.0000000E+00;  4.0000000E+04;  0.0000000E+00;  4.0000000E+04;  1.3361625E-05;  0.0000000E+00; -8.2324834E-05;  1.0268336E+03;
 -5.0000001E-02;  9.9999998E-03; -3.4999999E-01;1373;  0.0000000E+00;  0.0000000E+00;  0.0000000E+00;  1.0004268E+03;  1.0000000E-01;  3.5357025E+02;0;  0.0000000E+00;  0.0000000E+00;  0.0000000E+00;0; -6.5529108E-05;  4.0000000E+04;  0.0000000E+00;  0.0000000E+00;  4.0000000E+04;  0.0000000E+00;  4.0000000E+04;  4.6478806E-05;  0.0000000E+00; -1.1200792E-04;  1.2020790E+03;
 -5.0000001E-02;  9.9999998E-03; -3.4000000E-01;1374;  0.0000000E+00;  0.0000000E+00;  0.0000000E+00;  1.0005503E+03;  1.0000000E-01;  4.5588834E+02;0;  0.0000000E+00;  0.0000000E+00;  0.0000000E+00;0; -4.5265195E-05;  4.0000000E+04;  0.0000000E+00;  0.0000000E+00;  4.0000000E+04;  0.0000000E+00;  4.0000000E+04;  1.0130087E-04;  0.0000000E+00; -1.4656606E-04;  1.3356906E+03;
 -5.0000001E-02;  9.9999998E-03; -3.3000001E-01;1375;  0.0000000E+00;  0.0000000E+00;  0.0000000E+00;  1.0006881E+03;  1.0000000E-01;  5.7005792E+02;0;  0.0000000E+00;  0.0000000E+00;  0.0000000E+00;0; -1.2347591E-06;  4.0000000E+04;  0.0000000E+00;  0.0000000E+00;  4.0000000E+04;  0.0000000E+00;  4.0000000E+04;  1.8315023E-04;  0.0000000E+00; -1.8438499E-04;  1.4035222E+03;
 -5.0000001E-02;  9.9999998E-03; -3.1999999E-01;1376;  0.0000000E+00;  0.0000000E+00;  0.0000000E+00;  1.0008299E+03;  1.0000000E-01;  6.8758551E+02;0;  0.0000000E+00;  0.0000000E+00;  0.0000000E+00;0;  7.3290052E-05;  4.0000000E+04;  0.0000000E+00;  0.0000000E+00;  4.0000000E+04;  0.0000000E+00;  4.0000000E+04;  2.9586611E-04;  0.0000000E+00; -2.2257605E-04;  1.3807817E+03;
 -5.0000001E-02;  9.9999998E-03; -3.1000000E-01;1377;  0.0000000E+00;  0.0000000E+00;  0.0000000E+00;  1.0009966E+03;  1.0000000E-01;  8.2565564E+02;0;  0.0000000E+00;  0.0000000E+00;  0.0000000E+00;0;  1.8356295E-04;  4.0000000E+04;  0.0000000E+00;  0.0000000E+00;  4.0000000E+04;  0.0000000E+00;  4.0000000E+04;  4.4055094E-04;  0.0000000E+00; -2.5698799E-04;  1.2471770E+03;
 -5.0000001E-02;  9.9999998E-03; -3.0000001E-01;1378;  0.0000000E+00;  0.0000000E+00;  0.0000000E+00;  1.0011478E+03;  1.0000000E-01;  9.5098547E+02;0;  0.0000000E+00;  0.0000000E+00;  0.0000000E+00;0;  3.3168661E-04;  4.0000000E+04;  0.0000000E+00;  0.0000000E+00;  4.0000000E+04;  0.0000000E+00;  4.0000000E+04;  6.1435450E-04;  0.0000000E+00; -2.8266790E-04;  9.9488470E+02;
 -5.0000001E-02;  9.9999998E-03; -2.8999999E-01;1379;  0.0000000E+00;  0.0000000E+00;  0.0000000E+00;  1.0012860E+03;  1.0000000E-01;  1.0654513E+03;0;  0.0000000E+00;  0.0000000E+00;  0.0000000E+00;0;  5.1485887E-04;  4.0000000E+04;  0.0000000E+00;  0.0000000E+00;  4.0000000E+04;  0.0000000E+00;  4.0000000E+04;  8.0968475E-04;  0.0000000E+00; -2.9482585E-04;  6.4103931E+02;
 -5.0000001E-02;  9.9999998E-03; -2.8000000E-01;1380;  0.0000000E+00;  0.0000000E+00;  0.0000000E+00;  1.0014158E+03;  1.0000000E-01;  1.1730039E+03;0;  0.0000000E+00;  0.0000000E+00;  0.0000000E+00;0;  7.2432216E-04;  4.0000000E+04;  0.0000000E+00;  0.0000000E+00;  4.0000000E+04;  0.0000000E+00;  4.0000000E+04;  1.0143147E-03;  0.0000000E+00; -2.8999255E-04;  2.9418277E+02;
 -3.9999999E-02;  9.9999998E-03; -4.4000000E-01;1455;  0.0000000E+00;  0.0000000E+00;  0.0000000E+00;  1.0000000E+03;  1.0000000E-01;  0.0000000E+00;0;  0.0000000E+00;  0.0000000E+00;  0.0000000E+00;0; -9.7039458E-07;  4.0000000E+04;  0.0000000E+00;  0.0000000E+00;  4.0000000E+04;  0.0000000E+00;  4.0000000E+04; -4.7560192E-07;  0.0000000E+00; -4.9479263E-07;  1.0909653E+01;
 -3.9999999E-02;  9.9999998E-03; -4.3000001E-01;1456;  0.0000000E+00;  0.0000000E+00;  0.0000000E+00;  1.0000000E+03;  1.0000000E-01;  0.0000000E+00;0;  0.0000000E+00;  0.0000000E+00;  0.0000000E+00;0; -3.7320856E-06;  4.0000000E+04;  0.0000000E+00;  0.0000000E+00;  4.0000000E+04;  0.0000000E+00;  4.0000000E+04; -1.8568261E-06;  0.0000000E+00; -1.8752596E-06;  4.3775330E+01;
 -3.9999999E-02;  9.9999998E-03; -4.1999999E-01;1457;  0.0000000E+00;  0.0000000E+00;  0.0000000E+00;  1.0000000E+03;  1.0000000E-01;  0.0000000E+00;0;  0.0000000E+00;  0.0000000E+00;  0.0000000E+00;0; -9.7036518E-06;  4.0000000E+04;  0.0000000E+00;  0.0000000E+00;  4.0000000E+04;  0.0000000E+00;  4.0000000E+04; -4.8616830E-06;  0.0000000E+00; -4.8419693E-06;  1.1563425E+02;
 -3.9999999E-02;  9.9999998E-03; -4.1000000E-01;1458;  0.0000000E+00;  0.0000000E+00;  0.0000000E+00;  1.0000480E+03;  1.0000000E-01;  3.9801342E+01;0;  0.0000000E+00;  0.0000000E+00;  0.0000000E+00;0; -2.0125386E-05;  4.0000000E+04;  0.0000000E+00;  0.0000000E+00;  4.0000000E+04;  0.0000000E+00;  4.0000000E+04; -9.9671834E-06;  0.0000000E+00; -1.0158203E-05;  2.3566843E+02;
 -3.9999999E-02;  9.9999998E-03; -4.0000001E-01;1459;  0.0000000E+00;  0.0000000E+00;  0.0000000E+00;  1.0000756E+03;  1.0000000E-01;  6.2615513E+01;0;  0.0000000E+00;  0.0000000E+00;  0.0000000E+00;0; -3.5938814E-05;  4.0000000E+04;  0.0000000E+00;  0.0000000E+00;  4.0000000E+04;  0.0000000E+00;  4.0000000E+04; -1.7185923E-05;  0.0000000E+00; -1.8752893E-05;  4.0323868E+02;
 -3.9999999E-02;  9.9999998E-03; -3.8999999E-01;1460;  0.0000000E+00;  0.0000000E+00;  0.0000000E+00;  1.0001362E+03;  1.0000000E-01;  1.1278693E+02;0;  0.0000000E+00;  0.0000000E+00;  0.0000000E+00;0; -5.7487512E-05;  4.0000000E+04;  0.0000000E+00;  0.0000000E+00;  4.0000000E+04;  0.0000000E+00;  4.0000000E+04; -2.5798614E-05;  0.0000000E+00; -3.1688898E-05;  6.0994092E+02;
 -3.9999999E-02;  9.9999998E-03; -3.8000000E-01;1461;  0.0000000E+00;  0.0000000E+00;  0.0000000E+00;  1.0002114E+03;  1.0000000E-01;  1.7520493E+02;0;  0.0000000E+00;  0.0000000E+00;  0.0000000E+00;0; -8.4185449E-05;  4.0000000E+04;  0.0000000E+00;  0.0000000E+00;  4.0000000E+04;  0.0000000E+00;  4.0000000E+04; -3.4120159E-05;  0.0000000E+00; -5.0065293E-05;  8.4307111E+02;
 -3.9999999E-02;  9.9999998E-03; -3.7000000E-01;1462;  0.0000000E+00;  0.0000000E+00;  0.0000000E+00;  1.0003290E+03;  1.0000000E-01;  2.7258487E+02;0;  0.0000000E+00;  0.0000000E+00;  0.0000000E+00;0; -1.1421165E-04;  4.0000000E+04;  0.0000000E+00;  0.0000000E+00;  4.0000000E+04;  0.0000000E+00;  4.0000000E+04; -3.9342100E-05;  0.0000000E+00; -7.4869553E-05;  1.0875935E+03;
 -3.9999999E-02;  9.9999998E-03; -3.6000001E-01;1463;  0.0000000E+00;  0.0000000E+00;  0.0000000E+00;  1.0004691E+03;  1.0000000E-01;  3.8863098E+02;0;  0.0000000E+00;  0.0000000E+00;  0.0000000E+00;0; -1.4428371E-04;  4.0000000E+04;  0.0000000E+00;  0.0000000E+00;  4.0000000E+04;  0.0000000E+00;  4.0000000E+04; -3.7504589E-05;  0.0000000E+00; -1.0677912E-04;  1.3261490E+03;
 -3.9999999E-02;  9.9999998E-03; -3.4999999E-01;1464;  0.0000000E+00;  0.0000000E+00;  0.0000000E+00;  1.0006126E+03;  1.0000000E-01;  5.0754120E+02;0;  0.0000000E+00;  0.0000000E+00;  0.0000000E+00;0; -1.6952520E-04;  4.0000000E+04;  0.0000000E+00;  0.0000000E+00;  4.0000000E+04;  0.0000000E+00;  4.0000000E+04; -2.3640157E-05;  0.0000000E+00; -1.4588505E-04;  1.5380894E+03;
 -3.9999999E-02;  9.9999998E-03; -3.4000000E-01;1465;  0.0000000E+00;  0.0000000E+00;  0.0000000E+00;  1.0008018E+03;  1.0000000E-01;  6.6427753E+02;0;  0.0000000E+00;  0.0000000E+00;  0.0000000E+00;0; -1.8348527E-04;  4.0000000E+04;  0.0000000E+00;  0.0000000E+00;  4.0000000E+04;  0.0000000E+00;  4.0000000E+04;  7.8552112E-06;  0.0000000E+00; -1.9134048E-04;  1.6983833E+03;
 -3.9999999E-02;  9.9999998E-03; -3.3000001E-01;1466;  0.0000000E+00;  0.0000000E+00;  0.0000000E+00;  1.0010355E+03;  1.0000000E-01;  8.5795105E+02;0;  0.0000000E+00;  0.0000000E+00;  0.0000000E+00;0; -1.7839512E-04;  4.0000000E+04;  0.0000000E+00;  0.0000000E+00;  4.0000000E+04;  0.0000000E+00;  4.0000000E+04;  6.2565334E-05;  0.0000000E+00; -2.4096045E-04;  1.7777863E+03;
 -3.9999999E-02;  9.9999998E-03; -3.1999999E-01;1467;  0.0000000E+00;  0.0000000E+00;  0.0000000E+00;  1.0012499E+03;  1.0000000E-01;  1.0355262E+03;0;  0.0000000E+00;  0.0000000E+00;  0.0000000E+00;0; -1.4584347E-04;  4.0000000E+04;  0.0000000E+00;  0.0000000E+00;  4.0000000E+04;  0.0000000E+00;  4.0000000E+04;  1.4505470E-04;  0.0000000E+00; -2.9089817E-04;  1.7452759E+03;
 -3.9999999E-02;  9.9999998E-03; -3.1000000E-01;1468;  0.0000000E+00;  0.0000000E+00;  0.0000000E+00;  1.0014844E+03;  1.0000000E-01;  1.2297924E+03;0;  0.0000000E+00;  0.0000000E+00;  0.0000000E+00;0; -7.8144600E-05;  4.0000000E+04;  0.0000000E+00;  0.0000000E+00;  4.0000000E+04;  0.0000000E+00;  4.0000000E+04;  2.5749451E-04;  0.0000000E+00; -3.3563911E-04;  1.5743217E+03;
 -3.9999999E-02;  9.9999998E-03; -3.0000001E-01;1469;  0.0000000E+00;  0.0000000E+00;  0.0000000E+00;  1.0017287E+03;  1.0000000E-01;  1.4321570E+03;0;  0.0000000E+00;  0.0000000E+00;  0.0000000E+00;0;  2.9416813E-05;  4.0000000E+04;  0.0000000E+00;  0.0000000E+00;  4.0000000E+04;  0.0000000E+00;  4.0000000E+04;  3.9803298E-04;  0.0000000E+00; -3.6861617E-04;  1.2534438E+03;
 -3.9999999E-02;  9.9999998E-03; -2.8999999E-01;1470;  0.0000000E+00;  0.0000000E+00;  0.0000000E+00;  1.0019531E+03;  1.0000000E-01;  1.6180283E+03;0;  0.0000000E+00;  0.0000000E+00;  0.0000000E+00;0;  1.7583522E-04;  4.0000000E+04;  0.0000000E+00;  0.0000000E+00;  4.0000000E+04;  0.0000000E+00;  4.0000000E+04;  5.5939006E-04;  0.0000000E+00; -3.8355484E-04;  8.0270880E+02;
 -3.9999999E-02;  9.9999998E-03; -2.8000000E-01;1471;  0.0000000E+00;  0.0000000E+00;  0.0000000E+00;  1.0021810E+03;  1.0000000E-01;  1.8069612E+03;0;  0.0000000E+00;  0.0000000E+00;  0.0000000E+00;0;  3.5244806E-04;  4.0000000E+04;  0.0000000E+00;  0.0000000E+00;  4.0000000E+04;  0.0000000E+00;  4.0000000E+04;  7.2853256E-04;  0.0000000E+00; -3.7608450E-04;  3.5704044E+02;
 -2.9999999E-02;  9.9999998E-03; -4.4000000E-01;1546;  0.0000000E+00;  0.0000000E+00;  0.0000000E+00;  1.0000000E+03;  1.0000000E-01;  0.0000000E+00;0;  0.0000000E+00;  0.0000000E+00;  0.0000000E+00;0; -1.5711648E-06;  4.0000000E+04;  0.0000000E+00;  0.0000000E+00;  4.0000000E+04;  0.0000000E+00;  4.0000000E+04; -9.1747773E-07;  0.0000000E+00; -6.5368710E-07;  1.9495207E+01;
 -2.9999999E-02;  9.9999998E-03; -4.3000001E-01;1547;  0.0000000E+00;  0.0000000E+00;  0.0000000E+00;  1.0000000E+03;  1.0000000E-01;  0.0000000E+00;0;  0.0000000E+00;  0.0000000E+00;  0.0000000E+00;0; -5.4934612E-06;  4.0000000E+04;  0.0000000E+00;  0.0000000E+00;  4.0000000E+04;  0.0000000E+00;  4.0000000E+04; -3.2989087E-06;  0.0000000E+00; -2.1945525E-06;  6.7896362E+01;
 -2.9999999E-02;  9.9999998E-03; -4.1999999E-01;1548;  0.0000000E+00;  0.0000000E+00;  0.0000000E+00;  1.0000106E+03;  1.0000000E-01;  8.7898750E+00;0;  0.0000000E+00;  0.0000000E+00;  0.0000000E+00;0; -1.3897514E-05;  4.0000000E+04;  0.0000000E+00;  0.0000000E+00;  4.0000000E+04;  0.0000000E+00;  4.0000000E+04; -8.3876457E-06;  0.0000000E+00; -5.5098685E-06;  1.6535880E+02;
 -2.9999999E-02;  9.9999998E-03; -4.1000000E-01;1549;  0.0000000E+00;  0.0000000E+00;  0.0000000E+00;  1.0000668E+03;  1.0000000E-01;  5.5307079E+01;0;  0.0000000E+00;  0.0000000E+00;  0.0000000E+00;0; -2.8911989E-05;  4.0000000E+04;  0.0000000E+00;  0.0000000E+00;  4.0000000E+04;  0.0000000E+00;  4.0000000E+04; -1.7202519E-05;  0.0000000E+00; -1.1709469E-05;  3.1999432E+02;
 -2.9999999E-02;  9.9999998E-03; -4.0000001E-01;1550;  0.0000000E+00;  0.0000000E+00;  0.0000000E+00;  1.0001212E+03;  1.0000000E-01;  1.0034284E+02;0;  0.0000000E+00;  0.0000000E+00;  0.0000000E+00;0; -5.2570322E-05;  4.0000000E+04;  0.0000000E+00;  0.0000000E+00;  4.0000000E+04;  0.0000000E+00;  4.0000000E+04; -3.0392472E-05;  0.0000000E+00; -2.2177850E-05;  5.2851489E+02;
 -2.9999999E-02;  9.9999998E-03; -3.8999999E-01;1551;  0.0000000E+00;  0.0000000E+00;  0.0000000E+00;  1.0002195E+03;  1.0000000E-01;  1.8192078E+02;0;  0.0000000E+00;  0.0000000E+00;  0.0000000E+00;0; -8.6392422E-05;  4.0000000E+04;  0.0000000E+00;  0.0000000E+00;  4.0000000E+04;  0.0000000E+00;  4.0000000E+04; -4.7981954E-05;  0.0000000E+00; -3.8410471E-05;  7.7956622E+02;
 -2.9999999E-02;  9.9999998E-03; -3.8000000E-01;1552;  0.0000000E+00;  0.0000000E+00;  0.0000000E+00;  1.0003153E+03;  1.0000000E-01;  2.6122717E+02;0;  0.0000000E+00;  0.0000000E+00;  0.0000000E+00;0; -1.3098975E-04;  4.0000000E+04;  0.0000000E+00;  0.0000000E+00;  4.0000000E+04;  0.0000000E+00;  4.0000000E+04; -6.9153990E-05;  0.0000000E+00; -6.1835759E-05;  1.0580037E+03;
 -2.9999999E-02;  9.9999998E-03; -3.7000000E-01;1553;  0.0000000E+00;  0.0000000E+00;  0.0000000E+00;  1.0004673E+03;  1.0000000E-01;  3.8714954E+02;0;  0.0000000E+00;  0.0000000E+00;  0.0000000E+00;0; -1.8573846E-04;  4.0000000E+04;  0.0000000E+00;  0.0000000E+00;  4.0000000E+04;  0.0000000E+00;  4.0000000E+04; -9.2099384E-05;  0.0000000E+00; -9.3639086E-05;  1.3468654E+03;
 -2.9999999E-02;  9.9999998E-03; -3.6000001E-01;1554;  0.0000000E+00;  0.0000000E+00;  0.0000000E+00;  1.0006534E+03;  1.0000000E-01;  5.4131799E+02;0;  0.0000000E+00;  0.0000000E+00;  0.0000000E+00;0; -2.4849095E-04;  4.0000000E+04;  0.0000000E+00;  0.0000000E+00;  4.0000000E+04;  0.0000000E+00;  4.0000000E+04; -1.1393832E-04;  0.0000000E+00; -1.3455264E-04;  1.6270088E+03;
 -2.9999999E-02;  9.9999998E-03; -3.4999999E-01;1555;  0.0000000E+00;  0.0000000E+00;  0.0000000E+00;  1.0008750E+03;  1.0000000E-01;  7.2491779E+02;0;  0.0000000E+00;  0.0000000E+00;  0.0000000E+00;0; -3.1529518E-04;  4.0000000E+04;  0.0000000E+00;  0.0000000E+00;  4.0000000E+04;  0.0000000E+00;  4.0000000E+04; -1.3073611E-04;  0.0000000E+00; -1.8455907E-04;  1.8754679E+03;
 -2.9999999E-02;  9.9999998E-03; -3.4000000E-01;1556;  0.0000000E+00;  0.0000000E+00;  0.0000000E+00;  1.0011323E+03;  1.0000000E-01;  9.3814630E+02;0;  0.0000000E+00;  0.0000000E+00;  0.0000000E+00;0; -3.8014053E-04;  4.0000000E+04;  0.0000000E+00;  0.0000000E+00;  4.0000000E+04;  0.0000000E+00;  4.0000000E+04; -1.3765413E-04;  0.0000000E+00; -2.4248639E-04;  2.0637642E+03;
 -2.9999999E-02;  9.9999998E-03; -3.3000001E-01;1557;  0.0000000E+00;  0.0000000E+00;  0.0000000E+00;  1.0014349E+03;  1.0000000E-01;  1.1888059E+03;0;  0.0000000E+00;  0.0000000E+00;  0.0000000E+00;0; -4.3483375E-04;  4.0000000E+04;  0.0000000E+00;  0.0000000E+00;  4.0000000E+04;  0.0000000E+00;  4.0000000E+04; -1.2931913E-04;  0.0000000E+00; -3.0551464E-04;  2.1574177E+03;
 -2.9999999E-02;  9.9999998E-03; -3.1999999E-01;1558;  0.0000000E+00;  0.0000000E+00;  0.0000000E+00;  1.0017661E+03;  1.0000000E-01;  1.4631685E+03;0;  0.0000000E+00;  0.0000000E+00;  0.0000000E+00;0; -4.6929973E-04;  4.0000000E+04;  0.0000000E+00;  0.0000000E+00;  4.0000000E+04;  0.0000000E+00;  4.0000000E+04; -1.0056297E-04;  0.0000000E+00; -3.6873674E-04;  2.1183047E+03;
 -2.9999999E-02;  9.9999998E-03; -3.1000000E-01;1559;  0.0000000E+00;  0.0000000E+00;  0.0000000E+00;  1.0021116E+03;  1.0000000E-01;  1.7493826E+03;0;  0.0000000E+00;  0.0000000E+00;  0.0000000E+00;0; -4.7282214E-04;  4.0000000E+04;  0.0000000E+00;  0.0000000E+00;  4.0000000E+04;  0.0000000E+00;  4.0000000E+04; -4.7743091E-05;  0.0000000E+00; -4.2507905E-04;  1.9117723E+03;
 -2.9999999E-02;  9.9999998E-03; -3.0000001E-01;1560;  0.0000000E+00;  0.0000000E+00;  0.0000000E+00;  1.0024634E+03;  1.0000000E-01;  2.0408312E+03;0;  0.0000000E+00;  0.0000000E+00;  0.0000000E+00;0; -4.3682411E-04;  4.0000000E+04;  0.0000000E+00;  0.0000000E+00;  4.0000000E+04;  0.0000000E+00;  4.0000000E+04;  2.9220781E-05;  0.0000000E+00; -4.6604488E-04;  1.5200123E+03;
 -2.9999999E-02;  9.9999998E-03; -2.8999999E-01;1561;  0.0000000E+00;  0.0000000E+00;  0.0000000E+00;  1.0027986E+03;  1.0000000E-01;  2.3185518E+03;0;  0.0000000E+00;  0.0000000E+00;  0.0000000E+00;0; -3.5905957E-04;  4.0000000E+04;  0.0000000E+00;  0.0000000E+00;  4.0000000E+04;  0.0000000E+00;  4.0000000E+04;  1.2449766E-04;  0.0000000E+00; -4.8355723E-04;  9.6292578E+02;
 -2.9999999E-02;  9.9999998E-03; -2.8000000E-01;1562;  0.0000000E+00;  0.0000000E+00;  0.0000000E+00;  1.0031301E+03;  1.0000000E-01;  2.5932107E+03;0;  0.0000000E+00;  0.0000000E+00;  0.0000000E+00;0; -2.4712627E-04;  4.0000000E+04;  0.0000000E+00;  0.0000000E+00;  4.0000000E+04;  0.0000000E+00;  4.0000000E+04;  2.2513373E-04;  0.0000000E+00; -4.7226000E-04;  3.9523517E+02;
 -2.0000000E-02;  9.9999998E-03; -4.4000000E-01;1637;  0.0000000E+00;  0.0000000E+00;  0.0000000E+00;  1.0000000E+03;  1.0000000E-01;  0.0000000E+00;0;  0.0000000E+00;  0.0000000E+00;  0.0000000E+00;0; -2.1943813E-06;  4.0000000E+04;  0.0000000E+00;  0.0000000E+00;  4.0000000E+04;  0.0000000E+00;  4.0000000E+04; -1.5484217E-06;  0.0000000E+00; -6.4595969E-07;  2.9873976E+01;
 -2.0000000E-02;  9.9999998E-03; -4.3000001E-01;1638;  0.0000000E+00;  0.0000000E+00;  0.0000000E+00;  1.0000000E+03;  1.0000000E-01;  0.0000000E+00;0;  0.0000000E+00;  0.0000000E+00;  0.0000000E+00;0; -7.3692845E-06;  4.0000000E+04;  0.0000000E+00;  0.0000000E+00;  4.0000000E+04;  0.0000000E+00;  4.0000000E+04; -5.2595888E-06;  0.0000000E+00; -2.1096955E-06;  9.4146355E+01;
 -2.0000000E-02;  9.9999998E-03; -4.1999999E-01;1639;  0.0000000E+00;  0.0000000E+00;  0.0000000E+00;  1.0000462E+03;  1.0000000E-01;  3.8319904E+01;0;  0.0000000E+00;  0.0000000E+00;  0.0000000E+00;0; -1.8621828E-05;  4.0000000E+04;  0.0000000E+00;  0.0000000E+00;  4.0000000E+04;  0.0000000E+00;  4.0000000E+04; -1.3046166E-05;  0.0000000E+00; -5.5756627E-06;  2.1617961E+02;
 -2.0000000E-02;  9.9999998E-03; -4.1000000E-01;1640;  0.0000000E+00;  0.0000000E+00;  0.0000000E+00;  1.0000828E+03;  1.0000000E-01;  6.8541275E+01;0;  0.0000000E+00;  0.0000000E+00;  0.0000000E+00;0; -3.9252569E-05;  4.0000000E+04;  0.0000000E+00;  0.0000000E+00;  4.0000000E+04;  0.0000000E+00;  4.0000000E+04; -2.6584272E-05;  0.0000000E+00; -1.2668299E-05;  4.0272885E+02;
 -2.0000000E-02;  9.9999998E-03; -4.0000001E-01;1641;  0.0000000E+00;  0.0000000E+00;  0.0000000E+00;  1.0001624E+03;  1.0000000E-01;  1.3451471E+02;0;  0.0000000E+00;  0.0000000E+00;  0.0000000E+00;0; -7.2654308E-05;  4.0000000E+04;  0.0000000E+00;  0.0000000E+00;  4.0000000E+04;  0.0000000E+00;  4.0000000E+04; -4.7312402E-05;  0.0000000E+00; -2.5341902E-05;  6.4804730E+02;
 -2.0000000E-02;  9.9999998E-03; -3.8999999E-01;1642;  0.0000000E+00;  0.0000000E+00;  0.0000000E+00;  1.0002778E+03;  1.0000000E-01;  2.3011694E+02;0;  0.0000000E+00;  0.0000000E+00;  0.0000000E+00;0; -1.2177690E-04;  4.0000000E+04;  0.0000000E+00;  0.0000000E+00;  4.0000000E+04;  0.0000000E+00;  4.0000000E+04; -7.6229881E-05;  0.0000000E+00; -4.5547022E-05;  9.3836792E+02;
 -2.0000000E-02;  9.9999998E-03; -3.8000000E-01;1643;  0.0000000E+00;  0.0000000E+00;  0.0000000E+00;  1.0004166E+03;  1.0000000E-01;  3.4507666E+02;0;  0.0000000E+00;  0.0000000E+00;  0.0000000E+00;0; -1.8873271E-04;  4.0000000E+04;  0.0000000E+00;  0.0000000E+00;  4.0000000E+04;  0.0000000E+00;  4.0000000E+04; -1.1374828E-04;  0.0000000E+00; -7.4984426E-05;  1.2567904E+03;
 -2.0000000E-02;  9.9999998E-03; -3.7000000E-01;1644;  0.0000000E+00;  0.0000000E+00;  0.0000000E+00;  1.0006302E+03;  1.0000000E-01;  5.2215808E+02;0;  0.0000000E+00;  0.0000000E+00;  0.0000000E+00;0; -2.7451434E-04;  4.0000000E+04;  0.0000000E+00;  0.0000000E+00;  4.0000000E+04;  0.0000000E+00;  4.0000000E+04; -1.5957355E-04;  0.0000000E+00; -1.1494079E-04;  1.5850789E+03;
 -2.0000000E-02;  9.9999998E-03; -3.6000001E-01;1645;  0.0000000E+00;  0.0000000E+00;  0.0000000E+00;  1.0008653E+03;  1.0000000E-01;  7.1691797E+02;0;  0.0000000E+00;  0.0000000E+00;  0.0000000E+00;0; -3.7867739E-04;  4.0000000E+04;  0.0000000E+00;  0.0000000E+00;  4.0000000E+04;  0.0000000E+00;  4.0000000E+04; -2.1257854E-04;  0.0000000E+00; -1.6609883E-04;  1.9029462E+03;
 -2.0000000E-02;  9.9999998E-03; -3.4999999E-01;1646;  0.0000000E+00;  0.0000000E+00;  0.0000000E+00;  1.0011721E+03;  1.0000000E-01;  9.7103424E+02;0;  0.0000000E+00;  0.0000000E+00;  0.0000000E+00;0; -4.9891294E-04;  4.0000000E+04;  0.0000000E+00;  0.0000000E+00;  4.0000000E+04;  0.0000000E+00;  4.0000000E+04; -2.7066958E-04;  0.0000000E+00; -2.2824337E-04;  2.1857200E+03;
 -2.0000000E-02;  9.9999998E-03; -3.4000000E-01;1647;  0.0000000E+00;  0.0000000E+00;  0.0000000E+00;  1.0015183E+03;  1.0000000E-01;  1.2579397E+03;0;  0.0000000E+00;  0.0000000E+00;  0.0000000E+00;0; -6.3046941E-04;  4.0000000E+04;  0.0000000E+00;  0.0000000E+00;  4.0000000E+04;  0.0000000E+00;  4.0000000E+04; -3.3065357E-04;  0.0000000E+00; -2.9981582E-04;  2.4021560E+03;
 -2.0000000E-02;  9.9999998E-03; -3.3000001E-01;1648;  0.0000000E+00;  0.0000000E+00;  0.0000000E+00;  1.0019307E+03;  1.0000000E-01;  1.5995597E+03;0;  0.0000000E+00;  0.0000000E+00;  0.0000000E+00;0; -7.6553016E-04;  4.0000000E+04;  0.0000000E+00;  0.0000000E+00;  4.0000000E+04;  0.0000000E+00;  4.0000000E+04; -3.8820182E-04;  0.0000000E+00; -3.7732831E-04;  2.5129727E+03;
 -2.0000000E-02;  9.9999998E-03; -3.1999999E-01;1649;  0.0000000E+00;  0.0000000E+00;  0.0000000E+00;  1.0023804E+03;  1.0000000E-01;  1.9721912E+03;0;  0.0000000E+00;  0.0000000E+00;  0.0000000E+00;0; -8.9288532E-04;  4.0000000E+04;  0.0000000E+00;  0.0000000E+00;  4.0000000E+04;  0.0000000E+00;  4.0000000E+04; -4.3809955E-04;  0.0000000E+00; -4.5478577E-04;  2.4725151E+03;
 -2.0000000E-02;  9.9999998E-03; -3.1000000E-01;1650;  0.0000000E+00;  0.0000000E+00;  0.0000000E+00;  1.0028428E+03;  1.0000000E-01;  2.3551926E+03;0;  0.0000000E+00;  0.0000000E+00;  0.0000000E+00;0; -9.9863892E-04;  4.0000000E+04;  0.0000000E+00;  0.0000000E+00;  4.0000000E+04;  0.0000000E+00;  4.0000000E+04; -4.7517565E-04;  0.0000000E+00; -5.2346330E-04;  2.2362683E+03;
 -2.0000000E-02;  9.9999998E-03; -3.0000001E-01;1651;  0.0000000E+00;  0.0000000E+00;  0.0000000E+00;  1.0033252E+03;  1.0000000E-01;  2.7548850E+03;0;  0.0000000E+00;  0.0000000E+00;  0.0000000E+00;0; -1.0691185E-03;  4.0000000E+04;  0.0000000E+00;  0.0000000E+00;  4.0000000E+04;  0.0000000E+00;  4.0000000E+04; -4.9646694E-04;  0.0000000E+00; -5.7265151E-04;  1.7768619E+03;
 -2.0000000E-02;  9.9999998E-03; -2.8999999E-01;1652;  0.0000000E+00;  0.0000000E+00;  0.0000000E+00;  1.0037999E+03;  1.0000000E-01;  3.1481580E+03;0;  0.0000000E+00;  0.0000000E+00;  0.0000000E+00;0; -1.0968487E-03;  4.0000000E+04;  0.0000000E+00;  0.0000000E+00;  4.0000000E+04;  0.0000000E+00;  4.0000000E+04; -5.0479587E-04;  0.0000000E+00; -5.9205288E-04;  1.1103485E+03;
 -2.0000000E-02;  9.9999998E-03; -2.8000000E-01;1653;  0.0000000E+00;  0.0000000E+00;  0.0000000E+00;  1.0042616E+03;  1.0000000E-01;  3.5306655E+03;0;  0.0000000E+00;  0.0000000E+00;  0.0000000E+00;0; -1.0869175E-03;  4.0000000E+04;  0.0000000E+00;  0.0000000E+00;  4.0000000E+04;  0.0000000E+00;  4.0000000E+04; -5.1163643E-04;  0.0000000E+00; -5.7528110E-04;  4.0365280E+02;
 -9.9999998E-03;  9.9999998E-03; -4.4000000E-01;1728;  0.0000000E+00;  0.0000000E+00;  0.0000000E+00;  1.0000000E+03;  1.0000000E-01;  0.0000000E+00;0;  0.0000000E+00;  0.0000000E+00;  0.0000000E+00;0; -2.7202650E-06;  4.0000000E+04;  0.0000000E+00;  0.0000000E+00;  4.0000000E+04;  0.0000000E+00;  4.0000000E+04; -2.3324335E-06;  0.0000000E+00; -3.8783145E-07;  4.0361217E+01;
 -9.9999998E-03;  9.9999998E-03; -4.3000001E-01;1729;  0.0000000E+00;  0.0000000E+00;  0.0000000E+00;  1.0000000E+03;  1.0000000E-01;  0.0000000E+00;0;  0.0000000E+00;  0.0000000E+00;  0.0000000E+00;0; -9.1644570E-06;  4.0000000E+04;  0.0000000E+00;  0.0000000E+00;  4.0000000E+04;  0.0000000E+00;  4.0000000E+04; -7.5999674E-06;  0.0000000E+00; -1.5644893E-06;  1.1846490E+02;
 -9.9999998E-03;  9.9999998E-03; -4.1999999E-01;1730;  0.0000000E+00;  0.0000000E+00;  0.0000000E+00;  1.0000550E+03;  1.0000000E-01;  4.5529575E+01;0;  0.0000000E+00;  0.0000000E+00;  0.0000000E+00;0; -2.3573706E-05;  4.0000000E+04;  0.0000000E+00;  0.0000000E+00;  4.0000000E+04;  0.0000000E+00;  4.0000000E+04; -1.8454883E-05;  0.0000000E+00; -5.1188235E-06;  2.6076340E+02;
 -9.9999998E-03;  9.9999998E-03; -4.1000000E-01;1731;  0.0000000E+00;  0.0000000E+00;  0.0000000E+00;  1.0001279E+03;  1.0000000E-01;  1.0597231E+02;0;  0.0000000E+00;  0.0000000E+00;  0.0000000E+00;0; -5.0610219E-05;  4.0000000E+04;  0.0000000E+00;  0.0000000E+00;  4.0000000E+04;  0.0000000E+00;  4.0000000E+04; -3.7260594E-05;  0.0000000E+00; -1.3349624E-05;  4.7281796E+02;
 -9.9999998E-03;  9.9999998E-03; -4.0000001E-01;1732;  0.0000000E+00;  0.0000000E+00;  0.0000000E+00;  1.0002291E+03;  1.0000000E-01;  1.8982179E+02;0;  0.0000000E+00;  0.0000000E+00;  0.0000000E+00;0; -9.5160300E-05;  4.0000000E+04;  0.0000000E+00;  0.0000000E+00;  4.0000000E+04;  0.0000000E+00;  4.0000000E+04; -6.6321816E-05;  0.0000000E+00; -2.8838485E-05;  7.4714832E+02;
 -9.9999998E-03;  9.9999998E-03; -3.8999999E-01;1733;  0.0000000E+00;  0.0000000E+00;  0.0000000E+00;  1.0003712E+03;  1.0000000E-01;  3.0754684E+02;0;  0.0000000E+00;  0.0000000E+00;  0.0000000E+00;0; -1.6173109E-04;  4.0000000E+04;  0.0000000E+00;  0.0000000E+00;  4.0000000E+04;  0.0000000E+00;  4.0000000E+04; -1.0779618E-04;  0.0000000E+00; -5.3934906E-05;  1.0685172E+03;
 -9.9999998E-03;  9.9999998E-03; -3.8000000E-01;1734;  0.0000000E+00;  0.0000000E+00;  0.0000000E+00;  1.0005475E+03;  1.0000000E-01;  4.5361679E+02;0;  0.0000000E+00;  0.0000000E+00;  0.0000000E+00;0; -2.5414192E-04;  4.0000000E+04;  0.0000000E+00;  0.0000000E+00;  4.0000000E+04;  0.0000000E+00;  4.0000000E+04; -1.6365203E-04;  0.0000000E+00; -9.0489892E-05;  1.4188856E+03;
 -9.9999998E-03;  9.9999998E-03; -3.7000000E-01;1735;  0.0000000E+00;  0.0000000E+00;  0.0000000E+00;  1.0008002E+03;  1.0000000E-01;  6.6289484E+02;0;  0.0000000E+00;  0.0000000E+00;  0.0000000E+00;0; -3.7534809E-04;  4.0000000E+04;  0.0000000E+00;  0.0000000E+00;  4.0000000E+04;  0.0000000E+00;  4.0000000E+04; -2.3560124E-04;  0.0000000E+00; -1.3974686E-04;  1.7791626E+03;
 -9.9999998E-03;  9.9999998E-03; -3.6000001E-01;1736;  0.0000000E+00;  0.0000000E+00;  0.0000000E+00;  1.0011049E+03;  1.0000000E-01;  9.1543091E+02;0;  0.0000000E+00;  0.0000000E+00;  0.0000000E+00;0; -5.2714784E-04;  4.0000000E+04;  0.0000000E+00;  0.0000000E+00;  4.0000000E+04;  0.0000000E+00;  4.0000000E+04; -3.2494901E-04;  0.0000000E+00; -2.0219882E-04;  2.1282219E+03;
 -9.9999998E-03;  9.9999998E-03; -3.4999999E-01;1737;  0.0000000E+00;  0.0000000E+00;  0.0000000E+00;  1.0014932E+03;  1.0000000E-01;  1.2371008E+03;0;  0.0000000E+00;  0.0000000E+00;  0.0000000E+00;0; -7.0962199E-04;  4.0000000E+04;  0.0000000E+00;  0.0000000E+00;  4.0000000E+04;  0.0000000E+00;  4.0000000E+04; -4.3230716E-04;  0.0000000E+00; -2.7731483E-04;  2.4404272E+03;
 -9.9999998E-03;  9.9999998E-03; -3.4000000E-01;1738;  0.0000000E+00;  0.0000000E+00;  0.0000000E+00;  1.0019547E+03;  1.0000000E-01;  1.6194110E+03;0;  0.0000000E+00;  0.0000000E+00;  0.0000000E+00;0; -9.2023320E-04;  4.0000000E+04;  0.0000000E+00;  0.0000000E+00;  4.0000000E+04;  0.0000000E+00;  4.0000000E+04; -5.5716909E-04;  0.0000000E+00; -3.6306414E-04;  2.6826052E+03;
 -9.9999998E-03;  9.9999998E-03; -3.3000001E-01;1739;  0.0000000E+00;  0.0000000E+00;  0.0000000E+00;  1.0024695E+03;  1.0000000E-01;  2.0459668E+03;0;  0.0000000E+00;  0.0000000E+00;  0.0000000E+00;0; -1.1526704E-03;  4.0000000E+04;  0.0000000E+00;  0.0000000E+00;  4.0000000E+04;  0.0000000E+00;  4.0000000E+04; -6.9741259E-04;  0.0000000E+00; -4.5525777E-04;  2.8118022E+03;
 -9.9999998E-03;  9.9999998E-03; -3.1999999E-01;1740;  0.0000000E+00;  0.0000000E+00;  0.0000000E+00;  1.0030482E+03;  1.0000000E-01;  2.5253606E+03;0;  0.0000000E+00;  0.0000000E+00;  0.0000000E+00;0; -1.3957790E-03;  4.0000000E+04;  0.0000000E+00;  0.0000000E+00;  4.0000000E+04;  0.0000000E+00;  4.0000000E+04; -8.4892422E-04;  0.0000000E+00; -5.4685469E-04;  2.7754221E+03;
 -9.9999998E-03;  9.9999998E-03; -3.1000000E-01;1741;  0.0000000E+00;  0.0000000E+00;  0.0000000E+00;  1.0036720E+03;  1.0000000E-01;  3.0421855E+03;0;  0.0000000E+00;  0.0000000E+00;  0.0000000E+00;0; -1.6333278E-03;  4.0000000E+04;  0.0000000E+00;  0.0000000E+00;  4.0000000E+04;  0.0000000E+00;  4.0000000E+04; -1.0057697E-03;  0.0000000E+00; -6.2755810E-04;  2.5179590E+03;
 -9.9999998E-03;  9.9999998E-03; -3.0000001E-01;1742;  0.0000000E+00;  0.0000000E+00;  0.0000000E+00;  1.0042958E+03;  1.0000000E-01;  3.5590105E+03;0;  0.0000000E+00;  0.0000000E+00;  0.0000000E+00;0; -1.8461617E-03;  4.0000000E+04;  0.0000000E+00;  0.0000000E+00;  4.0000000E+04;  0.0000000E+00;  4.0000000E+04; -1.1617742E-03;  0.0000000E+00; -6.8438746E-04;  1.9995490E+03;
 -9.9999998E-03;  9.9999998E-03; -2.8999999E-01;1743;  0.0000000E+00;  0.0000000E+00;  0.0000000E+00;  1.0049165E+03;  1.0000000E-01;  4.0732676E+03;0;  0.0000000E+00;  0.0000000E+00;  0.0000000E+00;0; -2.0193502E-03;  4.0000000E+04;  0.0000000E+00;  0.0000000E+00;  4.0000000E+04;  0.0000000E+00;  4.0000000E+04; -1.3150546E-03;  0.0000000E+00; -7.0429564E-04;  1.2296018E+03;
 -9.9999998E-03;  9.9999998E-03; -2.8000000E-01;1744;  0.0000000E+00;  0.0000000E+00;  0.0000000E+00;  1.0055263E+03;  1.0000000E-01;  4.5784385E+03;0;  0.0000000E+00;  0.0000000E+00;  0.0000000E+00;0; -2.1535046E-03;  4.0000000E+04;  0.0000000E+00;  0.0000000E+00;  4.0000000E+04;  0.0000000E+00;  4.0000000E+04; -1.4736082E-03;  0.0000000E+00; -6.7989633E-04;  3.8834464E+02;
  0.0000000E+00;  9.9999998E-03; -4.4000000E-01;1819;  0.0000000E+00;  0.0000000E+00;  0.0000000E+00;  1.0000000E+03;  1.0000000E-01;  0.0000000E+00;0;  0.0000000E+00;  0.0000000E+00;  0.0000000E+00;0; -3.0501731E-06;  4.0000000E+04;  0.0000000E+00;  0.0000000E+00;  4.0000000E+04;  0.0000000E+00;  4.0000000E+04; -3.1693428E-06;  0.0000000E+00;  1.1916976E-07;  4.8782093E+01;
  0.0000000E+00;  9.9999998E-03; -4.3000001E-01;1820;  0.0000000E+00;  0.0000000E+00;  0.0000000E+00;  1.0000084E+03;  1.0000000E-01;  6.9133849E+00;0;  0.0000000E+00;  0.0000000E+00;  0.0000000E+00;0; -1.0708986E-05;  4.0000000E+04;  0.0000000E+00;  0.0000000E+00;  4.0000000E+04;  0.0000000E+00;  4.0000000E+04; -1.0008531E-05;  0.0000000E+00; -7.0045559E-07;  1.3626694E+02;
  0.0000000E+00;  9.9999998E-03; -4.1999999E-01;1821;  0.0000000E+00;  0.0000000E+00;  0.0000000E+00;  1.0000707E+03;  1.0000000E-01;  5.8566246E+01;0;  0.0000000E+00;  0.0000000E+00;  0.0000000E+00;0; -2.8406355E-05;  4.0000000E+04;  0.0000000E+00;  0.0000000E+00;  4.0000000E+04;  0.0000000E+00;  4.0000000E+04; -2.3862345E-05;  0.0000000E+00; -4.5440102E-06;  2.9156235E+02;
  0.0000000E+00;  9.9999998E-03; -4.1000000E-01;1822;  0.0000000E+00;  0.0000000E+00;  0.0000000E+00;  1.0001492E+03;  1.0000000E-01;  1.2355206E+02;0;  0.0000000E+00;  0.0000000E+00;  0.0000000E+00;0; -6.2211824E-05;  4.0000000E+04;  0.0000000E+00;  0.0000000E+00;  4.0000000E+04;  0.0000000E+00;  4.0000000E+04; -4.7720794E-05;  0.0000000E+00; -1.4491032E-05;  5.1988068E+02;
  0.0000000E+00;  9.9999998E-03; -4.0000001E-01;1823;  0.0000000E+00;  0.0000000E+00;  0.0000000E+00;  1.0002874E+03;  1.0000000E-01;  2.3811673E+02;0;  0.0000000E+00;  0.0000000E+00;  0.0000000E+00;0; -1.1848280E-04;  4.0000000E+04;  0.0000000E+00;  0.0000000E+00;  4.0000000E+04;  0.0000000E+00;  4.0000000E+04; -8.4765219E-05;  0.0000000E+00; -3.3717584E-05;  8.1338269E+02;
  0.0000000E+00;  9.9999998E-03; -3.8999999E-01;1824;  0.0000000E+00;  0.0000000E+00;  0.0000000E+00;  1.0004604E+03;  1.0000000E-01;  3.8142133E+02;0;  0.0000000E+00;  0.0000000E+00;  0.0000000E+00;0; -2.0326965E-04;  4.0000000E+04;  0.0000000E+00;  0.0000000E+00;  4.0000000E+04;  0.0000000E+00;  4.0000000E+04; -1.3842917E-04;  0.0000000E+00; -6.4840489E-05;  1.1561393E+03;
  0.0000000E+00;  9.9999998E-03; -3.8000000E-01;1825;  0.0000000E+00;  0.0000000E+00;  0.0000000E+00;  1.0006848E+03;  1.0000000E-01;  5.6729260E+02;0;  0.0000000E+00;  0.0000000E+00;  0.0000000E+00;0; -3.2217969E-04;  4.0000000E+04;  0.0000000E+00;  0.0000000E+00;  4.0000000E+04;  0.0000000E+00;  4.0000000E+04; -2.1248926E-04;  0.0000000E+00; -1.0969045E-04;  1.5291599E+03;
  0.0000000E+00;  9.9999998E-03; -3.7000000E-01;1826;  0.0000000E+00;  0.0000000E+00;  0.0000000E+00;  1.0009838E+03;  1.0000000E-01;  8.1508807E+02;0;  0.0000000E+00;  0.0000000E+00;  0.0000000E+00;0; -4.8036466E-04;  4.0000000E+04;  0.0000000E+00;  0.0000000E+00;  4.0000000E+04;  0.0000000E+00;  4.0000000E+04; -3.1106747E-04;  0.0000000E+00; -1.6929720E-04;  1.9123962E+03;
  0.0000000E+00;  9.9999998E-03; -3.6000001E-01;1827;  0.0000000E+00;  0.0000000E+00;  0.0000000E+00;  1.0013651E+03;  1.0000000E-01;  1.1309310E+03;0;  0.0000000E+00;  0.0000000E+00;  0.0000000E+00;0; -6.8228628E-04;  4.0000000E+04;  0.0000000E+00;  0.0000000E+00;  4.0000000E+04;  0.0000000E+00;  4.0000000E+04; -4.3846908E-04;  0.0000000E+00; -2.4381718E-04;  2.2839167E+03;
  0.0000000E+00;  9.9999998E-03; -3.4999999E-01;1828;  0.0000000E+00;  0.0000000E+00;  0.0000000E+00;  1.0018270E+03;  1.0000000E-01;  1.5136362E+03;0;  0.0000000E+00;  0.0000000E+00;  0.0000000E+00;0; -9.3101489E-04;  4.0000000E+04;  0.0000000E+00;  0.0000000E+00;  4.0000000E+04;  0.0000000E+00;  4.0000000E+04; -5.9875607E-04;  0.0000000E+00; -3.3225885E-04;  2.6174487E+03;
  0.0000000E+00;  9.9999998E-03; -3.4000000E-01;1829;  0.0000000E+00;  0.0000000E+00;  0.0000000E+00;  1.0023861E+03;  1.0000000E-01;  1.9768330E+03;0;  0.0000000E+00;  0.0000000E+00;  0.0000000E+00;0; -1.2270387E-03;  4.0000000E+04;  0.0000000E+00;  0.0000000E+00;  4.0000000E+04;  0.0000000E+00;  4.0000000E+04; -7.9506094E-04;  0.0000000E+00; -4.3197768E-04;  2.8788535E+03;
  0.0000000E+00;  9.9999998E-03; -3.3000001E-01;1830;  0.0000000E+00;  0.0000000E+00;  0.0000000E+00;  1.0030297E+03;  1.0000000E-01;  2.5100525E+03;0;  0.0000000E+00;  0.0000000E+00;  0.0000000E+00;0; -1.5666476E-03;  4.0000000E+04;  0.0000000E+00;  0.0000000E+00;  4.0000000E+04;  0.0000000E+00;  4.0000000E+04; -1.0286699E-03;  0.0000000E+00; -5.3797767E-04;  3.0230278E+03;
  0.0000000E+00;  9.9999998E-03; -3.1999999E-01;1831;  0.0000000E+00;  0.0000000E+00;  0.0000000E+00;  1.0037507E+03;  1.0000000E-01;  3.1073689E+03;0;  0.0000000E+00;  0.0000000E+00;  0.0000000E+00;0; -1.9402404E-03;  4.0000000E+04;  0.0000000E+00;  0.0000000E+00;  4.0000000E+04;  0.0000000E+00;  4.0000000E+04; -1.2980669E-03;  0.0000000E+00; -6.4217352E-04;  2.9923298E+03;
  0.0000000E+00;  9.9999998E-03; -3.1000000E-01;1832;  0.0000000E+00;  0.0000000E+00;  0.0000000E+00;  1.0045306E+03;  1.0000000E-01;  3.7535728E+03;0;  0.0000000E+00;  0.0000000E+00;  0.0000000E+00;0; -2.3311458E-03;  4.0000000E+04;  0.0000000E+00;  0.0000000E+00;  4.0000000E+04;  0.0000000E+00;  4.0000000E+04; -1.5982699E-03;  0.0000000E+00; -7.3287595E-04;  2.7208770E+03;
  0.0000000E+00;  9.9999998E-03; -3.0000001E-01;1833;  0.0000000E+00;  0.0000000E+00;  0.0000000E+00;  1.0053254E+03;  1.0000000E-01;  4.4120234E+03;0;  0.0000000E+00;  0.0000000E+00;  0.0000000E+00;0; -2.7163937E-03;  4.0000000E+04;  0.0000000E+00;  0.0000000E+00;  4.0000000E+04;  0.0000000E+00;  4.0000000E+04; -1.9212757E-03;  0.0000000E+00; -7.9511805E-04;  2.1533242E+03;
  9.9999998E-03;  9.9999998E-03; -4.4000000E-01;1851;  0.0000000E+00;  0.0000000E+00;  0.0000000E+00;  1.0000000E+03;  1.0000000E-01;  0.0000000E+00;0;  0.0000000E+00;  0.0000000E+00;  0.0000000E+00;0; -3.1477045E-06;  4.0000000E+04;  0.0000000E+00;  0.0000000E+00;  4.0000000E+04;  0.0000000E+00;  4.0000000E+04; -3.9014440E-06;  0.0000000E+00;  7.5373941E-07;  5.2968636E+01;
  9.9999998E-03;  9.9999998E-03; -4.3000001E-01;1852;  0.0000000E+00;  0.0000000E+00;  0.0000000E+00;  1.0000317E+03;  1.0000000E-01;  2.6270863E+01;0;  0.0000000E+00;  0.0000000E+00;  0.0000000E+00;0; -1.1907233E-05;  4.0000000E+04;  0.0000000E+00;  0.0000000E+00;  4.0000000E+04;  0.0000000E+00;  4.0000000E+04; -1.2024921E-05;  0.0000000E+00;  1.1768904E-07;  1.4347192E+02;
  9.9999998E-03;  9.9999998E-03; -4.1999999E-01;1853;  0.0000000E+00;  0.0000000E+00;  0.0000000E+00;  1.0000889E+03;  1.0000000E-01;  7.3676926E+01;0;  0.0000000E+00;  0.0000000E+00;  0.0000000E+00;0; -3.2790027E-05;  4.0000000E+04;  0.0000000E+00;  0.0000000E+00;  4.0000000E+04;  0.0000000E+00;  4.0000000E+04; -2.8233242E-05;  0.0000000E+00; -4.5567845E-06;  3.0278806E+02;
  9.9999998E-03;  9.9999998E-03; -4.1000000E-01;1854;  0.0000000E+00;  0.0000000E+00;  0.0000000E+00;  1.0001854E+03;  1.0000000E-01;  1.5357590E+02;0;  0.0000000E+00;  0.0000000E+00;  0.0000000E+00;0; -7.3158488E-05;  4.0000000E+04;  0.0000000E+00;  0.0000000E+00;  4.0000000E+04;  0.0000000E+00;  4.0000000E+04; -5.6019995E-05;  0.0000000E+00; -1.7138496E-05;  5.3749194E+02;
  9.9999998E-03;  9.9999998E-03; -4.0000001E-01;1855;  0.0000000E+00;  0.0000000E+00;  0.0000000E+00;  1.0003432E+03;  1.0000000E-01;  2.8433765E+02;0;  0.0000000E+00;  0.0000000E+00;  0.0000000E+00;0; -1.4066498E-04;  4.0000000E+04;  0.0000000E+00;  0.0000000E+00;  4.0000000E+04;  0.0000000E+00;  4.0000000E+04; -9.9393888E-05;  0.0000000E+00; -4.1271087E-05;  8.4064911E+02;
  9.9999998E-03;  9.9999998E-03; -3.8999999E-01;1856;  0.0000000E+00;  0.0000000E+00;  0.0000000E+00;  1.0005437E+03;  1.0000000E-01;  4.5045639E+02;0;  0.0000000E+00;  0.0000000E+00;  0.0000000E+00;0; -2.4276634E-04;  4.0000000E+04;  0.0000000E+00;  0.0000000E+00;  4.0000000E+04;  0.0000000E+00;  4.0000000E+04; -1.6311608E-04;  0.0000000E+00; -7.9650257E-05;  1.1959626E+03;
  9.9999998E-03;  9.9999998E-03; -3.8000000E-01;1857;  0.0000000E+00;  0.0000000E+00;  0.0000000E+00;  1.0008073E+03;  1.0000000E-01;  6.6882062E+02;0;  0.0000000E+00;  0.0000000E+00;  0.0000000E+00;0; -3.8684552E-04;  4.0000000E+04;  0.0000000E+00;  0.0000000E+00;  4.0000000E+04;  0.0000000E+00;  4.0000000E+04; -2.5292282E-04;  0.0000000E+00; -1.3392270E-04;  1.5830364E+03;
  9.9999998E-03;  9.9999998E-03; -3.7000000E-01;1858;  0.0000000E+00;  0.0000000E+00;  0.0000000E+00;  1.0011582E+03;  1.0000000E-01;  9.5957782E+02;0;  0.0000000E+00;  0.0000000E+00;  0.0000000E+00;0; -5.8036164E-04;  4.0000000E+04;  0.0000000E+00;  0.0000000E+00;  4.0000000E+04;  0.0000000E+00;  4.0000000E+04; -3.7558319E-04;  0.0000000E+00; -2.0477845E-04;  1.9801942E+03;
  9.9999998E-03;  9.9999998E-03; -3.6000001E-01;1859;  0.0000000E+00;  0.0000000E+00;  0.0000000E+00;  1.0016046E+03;  1.0000000E-01;  1.3293451E+03;0;  0.0000000E+00;  0.0000000E+00;  0.0000000E+00;0; -8.3061057E-04;  4.0000000E+04;  0.0000000E+00;  0.0000000E+00;  4.0000000E+04;  0.0000000E+00;  4.0000000E+04; -5.3870445E-04;  0.0000000E+00; -2.9190612E-04;  2.3642363E+03;
  9.9999998E-03;  9.9999998E-03; -3.4999999E-01;1860;  0.0000000E+00;  0.0000000E+00;  0.0000000E+00;  1.0021458E+03;  1.0000000E-01;  1.7777275E+03;0;  0.0000000E+00;  0.0000000E+00;  0.0000000E+00;0; -1.1438933E-03;  4.0000000E+04;  0.0000000E+00;  0.0000000E+00;  4.0000000E+04;  0.0000000E+00;  4.0000000E+04; -7.5020740E-04;  0.0000000E+00; -3.9368594E-04;  2.7081030E+03;
  9.9999998E-03;  9.9999998E-03; -3.4000000E-01;1861;  0.0000000E+00;  0.0000000E+00;  0.0000000E+00;  1.0028066E+03;  1.0000000E-01;  2.3252676E+03;0;  0.0000000E+00;  0.0000000E+00;  0.0000000E+00;0; -1.5240600E-03;  4.0000000E+04;  0.0000000E+00;  0.0000000E+00;  4.0000000E+04;  0.0000000E+00;  4.0000000E+04; -1.0174278E-03;  0.0000000E+00; -5.0663232E-04;  2.9772249E+03;
  9.9999998E-03;  9.9999998E-03; -3.3000001E-01;1862;  0.0000000E+00;  0.0000000E+00;  0.0000000E+00;  1.0035771E+03;  1.0000000E-01;  2.9635706E+03;0;  0.0000000E+00;  0.0000000E+00;  0.0000000E+00;0; -1.9705479E-03;  4.0000000E+04;  0.0000000E+00;  0.0000000E+00;  4.0000000E+04;  0.0000000E+00;  4.0000000E+04; -1.3458434E-03;  0.0000000E+00; -6.2470447E-04;  3.1257539E+03;
  9.9999998E-03;  9.9999998E-03; -3.1999999E-01;1863;  0.0000000E+00;  0.0000000E+00;  0.0000000E+00;  1.0044335E+03;  1.0000000E-01;  3.6730813E+03;0;  0.0000000E+00;  0.0000000E+00;  0.0000000E+00;0; -2.4762121E-03;  4.0000000E+04;  0.0000000E+00;  0.0000000E+00;  4.0000000E+04;  0.0000000E+00;  4.0000000E+04; -1.7375830E-03;  0.0000000E+00; -7.3862926E-04;  3.0937163E+03;
  9.9999998E-03;  9.9999998E-03; -3.1000000E-01;1864;  0.0000000E+00;  0.0000000E+00;  0.0000000E+00;  1.0053721E+03;  1.0000000E-01;  4.4507383E+03;0;  0.0000000E+00;  0.0000000E+00;  0.0000000E+00;0; -3.0254798E-03;  4.0000000E+04;  0.0000000E+00;  0.0000000E+00;  4.0000000E+04;  0.0000000E+00;  4.0000000E+04; -2.1900041E-03;  0.0000000E+00; -8.3547580E-04;  2.8084219E+03;
  2.0000000E-02;  9.9999998E-03; -4.4000000E-01;1881;  0.0000000E+00;  0.0000000E+00;  0.0000000E+00;  1.0000000E+03;  1.0000000E-01;  0.0000000E+00;0;  0.0000000E+00;  0.0000000E+00;  0.0000000E+00;0; -3.0640422E-06;  4.0000000E+04;  0.0000000E+00;  0.0000000E+00;  4.0000000E+04;  0.0000000E+00;  4.0000000E+04; -4.3403575E-06;  0.0000000E+00;  1.2763154E-06;  5.1331188E+01;
  2.0000000E-02;  9.9999998E-03; -4.3000001E-01;1882;  0.0000000E+00;  0.0000000E+00;  0.0000000E+00;  1.0000461E+03;  1.0000000E-01;  3.8221142E+01;0;  0.0000000E+00;  0.0000000E+00;  0.0000000E+00;0; -1.2767287E-05;  4.0000000E+04;  0.0000000E+00;  0.0000000E+00;  4.0000000E+04;  0.0000000E+00;  4.0000000E+04; -1.3123908E-05;  0.0000000E+00;  3.5662109E-07;  1.3781349E+02;
  2.0000000E-02;  9.9999998E-03; -4.1999999E-01;1883;  0.0000000E+00;  0.0000000E+00;  0.0000000E+00;  1.0001116E+03;  1.0000000E-01;  9.2441833E+01;0;  0.0000000E+00;  0.0000000E+00;  0.0000000E+00;0; -3.6471592E-05;  4.0000000E+04;  0.0000000E+00;  0.0000000E+00;  4.0000000E+04;  0.0000000E+00;  4.0000000E+04; -3.0463301E-05;  0.0000000E+00; -6.0082898E-06;  2.9279504E+02;
  2.0000000E-02;  9.9999998E-03; -4.1000000E-01;1884;  0.0000000E+00;  0.0000000E+00;  0.0000000E+00;  1.0002181E+03;  1.0000000E-01;  1.8063687E+02;0;  0.0000000E+00;  0.0000000E+00;  0.0000000E+00;0; -8.2566112E-05;  4.0000000E+04;  0.0000000E+00;  0.0000000E+00;  4.0000000E+04;  0.0000000E+00;  4.0000000E+04; -6.0198716E-05;  0.0000000E+00; -2.2367400E-05;  5.2611310E+02;
  2.0000000E-02;  9.9999998E-03; -4.0000001E-01;1885;  0.0000000E+00;  0.0000000E+00;  0.0000000E+00;  1.0004037E+03;  1.0000000E-01;  3.3450906E+02;0;  0.0000000E+00;  0.0000000E+00;  0.0000000E+00;0; -1.5972041E-04;  4.0000000E+04;  0.0000000E+00;  0.0000000E+00;  4.0000000E+04;  0.0000000E+00;  4.0000000E+04; -1.0709307E-04;  0.0000000E+00; -5.2627340E-05;  8.3252179E+02;
  2.0000000E-02;  9.9999998E-03; -3.8999999E-01;1886;  0.0000000E+00;  0.0000000E+00;  0.0000000E+00;  1.0006272E+03;  1.0000000E-01;  5.1959027E+02;0;  0.0000000E+00;  0.0000000E+00;  0.0000000E+00;0; -2.7664698E-04;  4.0000000E+04;  0.0000000E+00;  0.0000000E+00;  4.0000000E+04;  0.0000000E+00;  4.0000000E+04; -1.7723229E-04;  0.0000000E+00; -9.9414712E-05;  1.1948687E+03;
  2.0000000E-02;  9.9999998E-03; -3.8000000E-01;1887;  0.0000000E+00;  0.0000000E+00;  0.0000000E+00;  1.0009205E+03;  1.0000000E-01;  7.6264508E+02;0;  0.0000000E+00;  0.0000000E+00;  0.0000000E+00;0; -4.4242985E-04;  4.0000000E+04;  0.0000000E+00;  0.0000000E+00;  4.0000000E+04;  0.0000000E+00;  4.0000000E+04; -2.7831135E-04;  0.0000000E+00; -1.6411851E-04;  1.5902571E+03;
  2.0000000E-02;  9.9999998E-03; -3.7000000E-01;1888;  0.0000000E+00;  0.0000000E+00;  0.0000000E+00;  1.0013188E+03;  1.0000000E-01;  1.0926111E+03;0;  0.0000000E+00;  0.0000000E+00;  0.0000000E+00;0; -6.6674739E-04;  4.0000000E+04;  0.0000000E+00;  0.0000000E+00;  4.0000000E+04;  0.0000000E+00;  4.0000000E+04; -4.1971917E-04;  0.0000000E+00; -2.4702822E-04;  1.9942384E+03;
  2.0000000E-02;  9.9999998E-03; -3.6000001E-01;1889;  0.0000000E+00;  0.0000000E+00;  0.0000000E+00;  1.0018121E+03;  1.0000000E-01;  1.5012909E+03;0;  0.0000000E+00;  0.0000000E+00;  0.0000000E+00;0; -9.5958344E-04;  4.0000000E+04;  0.0000000E+00;  0.0000000E+00;  4.0000000E+04;  0.0000000E+00;  4.0000000E+04; -6.1233551E-04;  0.0000000E+00; -3.4724796E-04;  2.3813384E+03;
  2.0000000E-02;  9.9999998E-03; -3.4999999E-01;1890;  0.0000000E+00;  0.0000000E+00;  0.0000000E+00;  1.0024334E+03;  1.0000000E-01;  2.0160417E+03;0;  0.0000000E+00;  0.0000000E+00;  0.0000000E+00;0; -1.3302511E-03;  4.0000000E+04;  0.0000000E+00;  0.0000000E+00;  4.0000000E+04;  0.0000000E+00;  4.0000000E+04; -8.6791412E-04;  0.0000000E+00; -4.6233705E-04;  2.7231309E+03;
  2.0000000E-02;  9.9999998E-03; -3.4000000E-01;1891;  0.0000000E+00;  0.0000000E+00;  0.0000000E+00;  1.0031830E+03;  1.0000000E-01;  2.6370613E+03;0;  0.0000000E+00;  0.0000000E+00;  0.0000000E+00;0; -1.7856951E-03;  4.0000000E+04;  0.0000000E+00;  0.0000000E+00;  4.0000000E+04;  0.0000000E+00;  4.0000000E+04; -1.1979851E-03;  0.0000000E+00; -5.8770989E-04;  2.9846331E+03;
  2.0000000E-02;  9.9999998E-03; -3.3000001E-01;1892;  0.0000000E+00;  0.0000000E+00;  0.0000000E+00;  1.0040535E+03;  1.0000000E-01;  3.3582261E+03;0;  0.0000000E+00;  0.0000000E+00;  0.0000000E+00;0; -2.3282196E-03;  4.0000000E+04;  0.0000000E+00;  0.0000000E+00;  4.0000000E+04;  0.0000000E+00;  4.0000000E+04; -1.6122549E-03;  0.0000000E+00; -7.1596471E-04;  3.1202166E+03;
  2.0000000E-02;  9.9999998E-03; -3.1999999E-01;1893;  0.0000000E+00;  0.0000000E+00;  0.0000000E+00;  1.0050436E+03;  1.0000000E-01;  4.1785483E+03;0;  0.0000000E+00;  0.0000000E+00;  0.0000000E+00;0; -2.9529650E-03;  4.0000000E+04;  0.0000000E+00;  0.0000000E+00;  4.0000000E+04;  0.0000000E+00;  4.0000000E+04; -2.1165735E-03;  0.0000000E+00; -8.3639141E-04;  3.0701897E+03;
  2.0000000E-02;  9.9999998E-03; -3.1000000E-01;1894;  0.0000000E+00;  0.0000000E+00;  0.0000000E+00;  1.0061047E+03;  1.0000000E-01;  5.0576348E+03;0;  0.0000000E+00;  0.0000000E+00;  0.0000000E+00;0; -3.6456517E-03;  4.0000000E+04;  0.0000000E+00;  0.0000000E+00;  4.0000000E+04;  0.0000000E+00;  4.0000000E+04; -2.7107433E-03;  0.0000000E+00; -9.3490846E-04;  2.7611128E+03;
  2.9999999E-02;  9.9999998E-03; -4.4000000E-01;1911;  0.0000000E+00;  0.0000000E+00;  0.0000000E+00;  1.0000000E+03;  1.0000000E-01;  0.0000000E+00;0;  0.0000000E+00;  0.0000000E+00;  0.0000000E+00;0; -2.9327311E-06;  4.0000000E+04;  0.0000000E+00;  0.0000000E+00;  4.0000000E+04;  0.0000000E+00;  4.0000000E+04; -4.3115797E-06;  0.0000000E+00;  1.3788487E-06;  4.3481239E+01;
  2.9999999E-02;  9.9999998E-03; -4.3000001E-01;1912;  0.0000000E+00;  0.0000000E+00;  0.0000000E+00;  1.0000506E+03;  1.0000000E-01;  4.1875359E+01;0;  0.0000000E+00;  0.0000000E+00;  0.0000000E+00;0; -1.3396596E-05;  4.0000000E+04;  0.0000000E+00;  0.0000000E+00;  4.0000000E+04;  0.0000000E+00;  4.0000000E+04; -1.2853016E-05;  0.0000000E+00; -5.4357992E-07;  1.2024103E+02;
  2.9999999E-02;  9.9999998E-03; -4.1999999E-01;1913;  0.0000000E+00;  0.0000000E+00;  0.0000000E+00;  1.0001301E+03;  1.0000000E-01;  1.0775004E+02;0;  0.0000000E+00;  0.0000000E+00;  0.0000000E+00;0; -3.9298313E-05;  4.0000000E+04;  0.0000000E+00;  0.0000000E+00;  4.0000000E+04;  0.0000000E+00;  4.0000000E+04; -2.9671255E-05;  0.0000000E+00; -9.6270578E-06;  2.6589276E+02;
  2.9999999E-02;  9.9999998E-03; -4.1000000E-01;1914;  0.0000000E+00;  0.0000000E+00;  0.0000000E+00;  1.0002547E+03;  1.0000000E-01;  2.1105576E+02;0;  0.0000000E+00;  0.0000000E+00;  0.0000000E+00;0; -8.9699446E-05;  4.0000000E+04;  0.0000000E+00;  0.0000000E+00;  4.0000000E+04;  0.0000000E+00;  4.0000000E+04; -5.8817666E-05;  0.0000000E+00; -3.0881783E-05;  4.9497522E+02;
  2.9999999E-02;  9.9999998E-03; -4.0000001E-01;1915;  0.0000000E+00;  0.0000000E+00;  0.0000000E+00;  1.0004472E+03;  1.0000000E-01;  3.7045865E+02;0;  0.0000000E+00;  0.0000000E+00;  0.0000000E+00;0; -1.7407004E-04;  4.0000000E+04;  0.0000000E+00;  0.0000000E+00;  4.0000000E+04;  0.0000000E+00;  4.0000000E+04; -1.0574102E-04;  0.0000000E+00; -6.8329020E-05;  8.0377936E+02;
  2.9999999E-02;  9.9999998E-03; -3.8999999E-01;1916;  0.0000000E+00;  0.0000000E+00;  0.0000000E+00;  1.0006916E+03;  1.0000000E-01;  5.7292206E+02;0;  0.0000000E+00;  0.0000000E+00;  0.0000000E+00;0; -3.0225000E-04;  4.0000000E+04;  0.0000000E+00;  0.0000000E+00;  4.0000000E+04;  0.0000000E+00;  4.0000000E+04; -1.7774354E-04;  0.0000000E+00; -1.2450646E-04;  1.1729731E+03;
  2.9999999E-02;  9.9999998E-03; -3.8000000E-01;1917;  0.0000000E+00;  0.0000000E+00;  0.0000000E+00;  1.0010115E+03;  1.0000000E-01;  8.3800098E+02;0;  0.0000000E+00;  0.0000000E+00;  0.0000000E+00;0; -4.8484991E-04;  4.0000000E+04;  0.0000000E+00;  0.0000000E+00;  4.0000000E+04;  0.0000000E+00;  4.0000000E+04; -2.8430572E-04;  0.0000000E+00; -2.0054419E-04;  1.5756147E+03;
  2.9999999E-02;  9.9999998E-03; -3.7000000E-01;1918;  0.0000000E+00;  0.0000000E+00;  0.0000000E+00;  1.0014468E+03;  1.0000000E-01;  1.1985834E+03;0;  0.0000000E+00;  0.0000000E+00;  0.0000000E+00;0; -7.3348155E-04;  4.0000000E+04;  0.0000000E+00;  0.0000000E+00;  4.0000000E+04;  0.0000000E+00;  4.0000000E+04; -4.3719308E-04;  0.0000000E+00; -2.9628846E-04;  1.9830459E+03;
  2.9999999E-02;  9.9999998E-03; -3.6000001E-01;1919;  0.0000000E+00;  0.0000000E+00;  0.0000000E+00;  1.0019768E+03;  1.0000000E-01;  1.6377809E+03;0;  0.0000000E+00;  0.0000000E+00;  0.0000000E+00;0; -1.0604135E-03;  4.0000000E+04;  0.0000000E+00;  0.0000000E+00;  4.0000000E+04;  0.0000000E+00;  4.0000000E+04; -6.5023976E-04;  0.0000000E+00; -4.1017382E-04;  2.3664775E+03;
  2.9999999E-02;  9.9999998E-03; -3.4999999E-01;1920;  0.0000000E+00;  0.0000000E+00;  0.0000000E+00;  1.0026589E+03;  1.0000000E-01;  2.2028020E+03;0;  0.0000000E+00;  0.0000000E+00;  0.0000000E+00;0; -1.4773943E-03;  4.0000000E+04;  0.0000000E+00;  0.0000000E+00;  4.0000000E+04;  0.0000000E+00;  4.0000000E+04; -9.3861361E-04;  0.0000000E+00; -5.3878065E-04;  2.6952771E+03;
  2.9999999E-02;  9.9999998E-03; -3.4000000E-01;1921;  0.0000000E+00;  0.0000000E+00;  0.0000000E+00;  1.0034790E+03;  1.0000000E-01;  2.8822888E+03;0;  0.0000000E+00;  0.0000000E+00;  0.0000000E+00;0; -1.9936764E-03;  4.0000000E+04;  0.0000000E+00;  0.0000000E+00;  4.0000000E+04;  0.0000000E+00;  4.0000000E+04; -1.3174773E-03;  0.0000000E+00; -6.7619904E-04;  2.9337507E+03;
  2.9999999E-02;  9.9999998E-03; -3.3000001E-01;1922;  0.0000000E+00;  0.0000000E+00;  0.0000000E+00;  1.0044393E+03;  1.0000000E-01;  3.6778220E+03;0;  0.0000000E+00;  0.0000000E+00;  0.0000000E+00;0; -2.6134818E-03;  4.0000000E+04;  0.0000000E+00;  0.0000000E+00;  4.0000000E+04;  0.0000000E+00;  4.0000000E+04; -1.8000652E-03;  0.0000000E+00; -8.1341661E-04;  3.0373091E+03;
  2.9999999E-02;  9.9999998E-03; -3.1999999E-01;1923;  0.0000000E+00;  0.0000000E+00;  0.0000000E+00;  1.0055256E+03;  1.0000000E-01;  4.5778457E+03;0;  0.0000000E+00;  0.0000000E+00;  0.0000000E+00;0; -3.3332217E-03;  4.0000000E+04;  0.0000000E+00;  0.0000000E+00;  4.0000000E+04;  0.0000000E+00;  4.0000000E+04; -2.3951733E-03;  0.0000000E+00; -9.3804824E-04;  2.9498223E+03;
  2.9999999E-02;  9.9999998E-03; -3.1000000E-01;1924;  0.0000000E+00;  0.0000000E+00;  0.0000000E+00;  1.0066965E+03;  1.0000000E-01;  5.5478926E+03;0;  0.0000000E+00;  0.0000000E+00;  0.0000000E+00;0; -4.1391598E-03;  4.0000000E+04;  0.0000000E+00;  0.0000000E+00;  4.0000000E+04;  0.0000000E+00;  4.0000000E+04; -3.1043177E-03;  0.0000000E+00; -1.0348420E-03;  2.6060276E+03;
  3.9999999E-02;  9.9999998E-03; -4.4000000E-01;1941;  0.0000000E+00;  0.0000000E+00;  0.0000000E+00;  1.0000000E+03;  1.0000000E-01;  0.0000000E+00;0;  0.0000000E+00;  0.0000000E+00;  0.0000000E+00;0; -2.9308280E-06;  4.0000000E+04;  0.0000000E+00;  0.0000000E+00;  4.0000000E+04;  0.0000000E+00;  4.0000000E+04; -3.7112050E-06;  0.0000000E+00;  7.8037681E-07;  3.0836958E+01;
  3.9999999E-02;  9.9999998E-03; -4.3000001E-01;1942;  0.0000000E+00;  0.0000000E+00;  0.0000000E+00;  1.0000569E+03;  1.0000000E-01;  4.7109779E+01;0;  0.0000000E+00;  0.0000000E+00;  0.0000000E+00;0; -1.3950039E-05;  4.0000000E+04;  0.0000000E+00;  0.0000000E+00;  4.0000000E+04;  0.0000000E+00;  4.0000000E+04; -1.0981817E-05;  0.0000000E+00; -2.9682224E-06;  9.5733009E+01;
  3.9999999E-02;  9.9999998E-03; -4.1999999E-01;1943;  0.0000000E+00;  0.0000000E+00;  0.0000000E+00;  1.0001376E+03;  1.0000000E-01;  1.1407085E+02;0;  0.0000000E+00;  0.0000000E+00;  0.0000000E+00;0; -4.1202627E-05;  4.0000000E+04;  0.0000000E+00;  0.0000000E+00;  4.0000000E+04;  0.0000000E+00;  4.0000000E+04; -2.5504371E-05;  0.0000000E+00; -1.5698255E-05;  2.3284152E+02;
  3.9999999E-02;  9.9999998E-03; -4.1000000E-01;1944;  0.0000000E+00;  0.0000000E+00;  0.0000000E+00;  1.0002783E+03;  1.0000000E-01;  2.3061076E+02;0;  0.0000000E+00;  0.0000000E+00;  0.0000000E+00;0; -9.4169685E-05;  4.0000000E+04;  0.0000000E+00;  0.0000000E+00;  4.0000000E+04;  0.0000000E+00;  4.0000000E+04; -5.1461910E-05;  0.0000000E+00; -4.2707776E-05;  4.6182867E+02;
  3.9999999E-02;  9.9999998E-03; -4.0000001E-01;1945;  0.0000000E+00;  0.0000000E+00;  0.0000000E+00;  1.0004854E+03;  1.0000000E-01;  4.0216147E+02;0;  0.0000000E+00;  0.0000000E+00;  0.0000000E+00;0; -1.8300963E-04;  4.0000000E+04;  0.0000000E+00;  0.0000000E+00;  4.0000000E+04;  0.0000000E+00;  4.0000000E+04; -9.4871568E-05;  0.0000000E+00; -8.8138055E-05;  7.7909430E+02;
  3.9999999E-02;  9.9999998E-03; -3.8999999E-01;1946;  0.0000000E+00;  0.0000000E+00;  0.0000000E+00;  1.0007327E+03;  1.0000000E-01;  6.0709393E+02;0;  0.0000000E+00;  0.0000000E+00;  0.0000000E+00;0; -3.1853651E-04;  4.0000000E+04;  0.0000000E+00;  0.0000000E+00;  4.0000000E+04;  0.0000000E+00;  4.0000000E+04; -1.6406852E-04;  0.0000000E+00; -1.5446798E-04;  1.1612362E+03;
  3.9999999E-02;  9.9999998E-03; -3.8000000E-01;1947;  0.0000000E+00;  0.0000000E+00;  0.0000000E+00;  1.0010738E+03;  1.0000000E-01;  8.8965387E+02;0;  0.0000000E+00;  0.0000000E+00;  0.0000000E+00;0; -5.1266205E-04;  4.0000000E+04;  0.0000000E+00;  0.0000000E+00;  4.0000000E+04;  0.0000000E+00;  4.0000000E+04; -2.7007386E-04;  0.0000000E+00; -2.4258821E-04;  1.5757729E+03;
  3.9999999E-02;  9.9999998E-03; -3.7000000E-01;1948;  0.0000000E+00;  0.0000000E+00;  0.0000000E+00;  1.0015270E+03;  1.0000000E-01;  1.2650507E+03;0;  0.0000000E+00;  0.0000000E+00;  0.0000000E+00;0; -7.7859173E-04;  4.0000000E+04;  0.0000000E+00;  0.0000000E+00;  4.0000000E+04;  0.0000000E+00;  4.0000000E+04; -4.2670386E-04;  0.0000000E+00; -3.5188784E-04;  1.9887493E+03;
  3.9999999E-02;  9.9999998E-03; -3.6000001E-01;1949;  0.0000000E+00;  0.0000000E+00;  0.0000000E+00;  1.0021104E+03;  1.0000000E-01;  1.7483950E+03;0;  0.0000000E+00;  0.0000000E+00;  0.0000000E+00;0; -1.1303141E-03;  4.0000000E+04;  0.0000000E+00;  0.0000000E+00;  4.0000000E+04;  0.0000000E+00;  4.0000000E+04; -6.5023982E-04;  0.0000000E+00; -4.8007429E-04;  2.3669709E+03;
  3.9999999E-02;  9.9999998E-03; -3.4999999E-01;1950;  0.0000000E+00;  0.0000000E+00;  0.0000000E+00;  1.0028259E+03;  1.0000000E-01;  2.3412671E+03;0;  0.0000000E+00;  0.0000000E+00;  0.0000000E+00;0; -1.5811995E-03;  4.0000000E+04;  0.0000000E+00;  0.0000000E+00;  4.0000000E+04;  0.0000000E+00;  4.0000000E+04; -9.5852918E-04;  0.0000000E+00; -6.2267028E-04;  2.6767786E+03;
  3.9999999E-02;  9.9999998E-03; -3.4000000E-01;1951;  0.0000000E+00;  0.0000000E+00;  0.0000000E+00;  1.0037003E+03;  1.0000000E-01;  3.0656912E+03;0;  0.0000000E+00;  0.0000000E+00;  0.0000000E+00;0; -2.1417507E-03;  4.0000000E+04;  0.0000000E+00;  0.0000000E+00;  4.0000000E+04;  0.0000000E+00;  4.0000000E+04; -1.3694075E-03;  0.0000000E+00; -7.7234319E-04;  2.8813733E+03;
  3.9999999E-02;  9.9999998E-03; -3.3000001E-01;1952;  0.0000000E+00;  0.0000000E+00;  0.0000000E+00;  1.0047167E+03;  1.0000000E-01;  3.9076426E+03;0;  0.0000000E+00;  0.0000000E+00;  0.0000000E+00;0; -2.8167767E-03;  4.0000000E+04;  0.0000000E+00;  0.0000000E+00;  4.0000000E+04;  0.0000000E+00;  4.0000000E+04; -1.8984558E-03;  0.0000000E+00; -9.1832108E-04;  2.9382141E+03;
  3.9999999E-02;  9.9999998E-03; -3.1999999E-01;1953;  0.0000000E+00;  0.0000000E+00;  0.0000000E+00;  1.0058672E+03;  1.0000000E-01;  4.8608994E+03;0;  0.0000000E+00;  0.0000000E+00;  0.0000000E+00;0; -3.6024714E-03;  4.0000000E+04;  0.0000000E+00;  0.0000000E+00;  4.0000000E+04;  0.0000000E+00;  4.0000000E+04; -2.5561731E-03;  0.0000000E+00; -1.0462983E-03;  2.7984209E+03;
  3.9999999E-02;  9.9999998E-03; -3.1000000E-01;1954;  0.0000000E+00;  0.0000000E+00;  0.0000000E+00;  1.0071201E+03;  1.0000000E-01;  5.8988950E+03;0;  0.0000000E+00;  0.0000000E+00;  0.0000000E+00;0; -4.4841636E-03;  4.0000000E+04;  0.0000000E+00;  0.0000000E+00;  4.0000000E+04;  0.0000000E+00;  4.0000000E+04; -3.3447621E-03;  0.0000000E+00; -1.1394015E-03;  2.4133394E+03;
  5.0000001E-02;  9.9999998E-03; -4.4000000E-01;1971;  0.0000000E+00;  0.0000000E+00;  0.0000000E+00;  1.0000000E+03;  1.0000000E-01;  0.0000000E+00;0;  0.0000000E+00;  0.0000000E+00;  0.0000000E+00;0; -3.2089890E-06;  4.0000000E+04;  0.0000000E+00;  0.0000000E+00;  4.0000000E+04;  0.0000000E+00;  4.0000000E+04; -2.5534682E-06;  0.0000000E+00; -6.5552081E-07;  1.6861372E+01;
  5.0000001E-02;  9.9999998E-03; -4.3000001E-01;1972;  0.0000000E+00;  0.0000000E+00;  0.0000000E+00;  1.0000646E+03;  1.0000000E-01;  5.3529350E+01;0;  0.0000000E+00;  0.0000000E+00;  0.0000000E+00;0; -1.4538971E-05;  4.0000000E+04;  0.0000000E+00;  0.0000000E+00;  4.0000000E+04;  0.0000000E+00;  4.0000000E+04; -7.6246301E-06;  0.0000000E+00; -6.9143407E-06;  7.3086151E+01;
  5.0000001E-02;  9.9999998E-03; -4.1999999E-01;1973;  0.0000000E+00;  0.0000000E+00;  0.0000000E+00;  1.0001482E+03;  1.0000000E-01;  1.2276196E+02;0;  0.0000000E+00;  0.0000000E+00;  0.0000000E+00;0; -4.2245083E-05;  4.0000000E+04;  0.0000000E+00;  0.0000000E+00;  4.0000000E+04;  0.0000000E+00;  4.0000000E+04; -1.8356404E-05;  0.0000000E+00; -2.3888679E-05;  2.0963510E+02;
  5.0000001E-02;  9.9999998E-03; -4.1000000E-01;1974;  0.0000000E+00;  0.0000000E+00;  0.0000000E+00;  1.0002839E+03;  1.0000000E-01;  2.3525261E+02;0;  0.0000000E+00;  0.0000000E+00;  0.0000000E+00;0; -9.6141237E-05;  4.0000000E+04;  0.0000000E+00;  0.0000000E+00;  4.0000000E+04;  0.0000000E+00;  4.0000000E+04; -3.8983846E-05;  0.0000000E+00; -5.7157391E-05;  4.5005923E+02;
  5.0000001E-02;  9.9999998E-03; -4.0000001E-01;1975;  0.0000000E+00;  0.0000000E+00;  0.0000000E+00;  1.0005006E+03;  1.0000000E-01;  4.1470432E+02;0;  0.0000000E+00;  0.0000000E+00;  0.0000000E+00;0; -1.8699074E-04;  4.0000000E+04;  0.0000000E+00;  0.0000000E+00;  4.0000000E+04;  0.0000000E+00;  4.0000000E+04; -7.5970143E-05;  0.0000000E+00; -1.1102060E-04;  7.8858459E+02;
  5.0000001E-02;  9.9999998E-03; -3.8999999E-01;1976;  0.0000000E+00;  0.0000000E+00;  0.0000000E+00;  1.0007440E+03;  1.0000000E-01;  6.1637762E+02;0;  0.0000000E+00;  0.0000000E+00;  0.0000000E+00;0; -3.2650423E-04;  4.0000000E+04;  0.0000000E+00;  0.0000000E+00;  4.0000000E+04;  0.0000000E+00;  4.0000000E+04; -1.3855836E-04;  0.0000000E+00; -1.8794589E-04;  1.1960415E+03;
  5.0000001E-02;  9.9999998E-03; -3.8000000E-01;1977;  0.0000000E+00;  0.0000000E+00;  0.0000000E+00;  1.0011161E+03;  1.0000000E-01;  9.2461584E+02;0;  0.0000000E+00;  0.0000000E+00;  0.0000000E+00;0; -5.2771263E-04;  4.0000000E+04;  0.0000000E+00;  0.0000000E+00;  4.0000000E+04;  0.0000000E+00;  4.0000000E+04; -2.3911151E-04;  0.0000000E+00; -2.8860112E-04;  1.6332708E+03;
  5.0000001E-02;  9.9999998E-03; -3.7000000E-01;1978;  0.0000000E+00;  0.0000000E+00;  0.0000000E+00;  1.0015748E+03;  1.0000000E-01;  1.3046544E+03;0;  0.0000000E+00;  0.0000000E+00;  0.0000000E+00;0; -8.0503931E-04;  4.0000000E+04;  0.0000000E+00;  0.0000000E+00;  4.0000000E+04;  0.0000000E+00;  4.0000000E+04; -3.9312258E-04;  0.0000000E+00; -4.1191670E-04;  2.0601921E+03;
  5.0000001E-02;  9.9999998E-03; -3.6000001E-01;1979;  0.0000000E+00;  0.0000000E+00;  0.0000000E+00;  1.0021758E+03;  1.0000000E-01;  1.8026157E+03;0;  0.0000000E+00;  0.0000000E+00;  0.0000000E+00;0; -1.1735725E-03;  4.0000000E+04;  0.0000000E+00;  0.0000000E+00;  4.0000000E+04;  0.0000000E+00;  4.0000000E+04; -6.1871979E-04;  0.0000000E+00; -5.5485271E-04;  2.4384182E+03;
  5.0000001E-02;  9.9999998E-03; -3.4999999E-01;1980;  0.0000000E+00;  0.0000000E+00;  0.0000000E+00;  1.0029203E+03;  1.0000000E-01;  2.4194871E+03;0;  0.0000000E+00;  0.0000000E+00;  0.0000000E+00;0; -1.6474328E-03;  4.0000000E+04;  0.0000000E+00;  0.0000000E+00;  4.0000000E+04;  0.0000000E+00;  4.0000000E+04; -9.3555660E-04;  0.0000000E+00; -7.1187620E-04;  2.7305559E+03;
  5.0000001E-02;  9.9999998E-03; -3.4000000E-01;1981;  0.0000000E+00;  0.0000000E+00;  0.0000000E+00;  1.0038214E+03;  1.0000000E-01;  3.1659351E+03;0;  0.0000000E+00;  0.0000000E+00;  0.0000000E+00;0; -2.2372559E-03;  4.0000000E+04;  0.0000000E+00;  0.0000000E+00;  4.0000000E+04;  0.0000000E+00;  4.0000000E+04; -1.3629885E-03;  0.0000000E+00; -8.7426737E-04;  2.8983472E+03;
  5.0000001E-02;  9.9999998E-03; -3.3000001E-01;1982;  0.0000000E+00;  0.0000000E+00;  0.0000000E+00;  1.0048773E+03;  1.0000000E-01;  4.0406758E+03;0;  0.0000000E+00;  0.0000000E+00;  0.0000000E+00;0; -2.9471074E-03;  4.0000000E+04;  0.0000000E+00;  0.0000000E+00;  4.0000000E+04;  0.0000000E+00;  4.0000000E+04; -1.9176311E-03;  0.0000000E+00; -1.0294762E-03;  2.9016782E+03;
  5.0000001E-02;  9.9999998E-03; -3.1999999E-01;1983;  0.0000000E+00;  0.0000000E+00;  0.0000000E+00;  1.0060704E+03;  1.0000000E-01;  5.0291909E+03;0;  0.0000000E+00;  0.0000000E+00;  0.0000000E+00;0; -3.7713747E-03;  4.0000000E+04;  0.0000000E+00;  0.0000000E+00;  4.0000000E+04;  0.0000000E+00;  4.0000000E+04; -2.6103624E-03;  0.0000000E+00; -1.1610123E-03;  2.7010911E+03;
  5.0000001E-02;  9.9999998E-03; -3.1000000E-01;1984;  0.0000000E+00;  0.0000000E+00;  0.0000000E+00;  1.0073556E+03;  1.0000000E-01;  6.0939512E+03;0;  0.0000000E+00;  0.0000000E+00;  0.0000000E+00;0; -4.6927459E-03;  4.0000000E+04;  0.0000000E+00;  0.0000000E+00;  4.0000000E+04;  0.0000000E+00;  4.0000000E+04; -3.4431380E-03;  0.0000000E+00; -1.2496079E-03;  2.2689270E+03;
  5.9999999E-02;  9.9999998E-03; -4.4000000E-01;2001;  0.0000000E+00;  0.0000000E+00;  0.0000000E+00;  1.0000000E+03;  1.0000000E-01;  0.0000000E+00;0;  0.0000000E+00;  0.0000000E+00;  0.0000000E+00;0; -3.7946124E-06;  4.0000000E+04;  0.0000000E+00;  0.0000000E+00;  4.0000000E+04;  0.0000000E+00;  4.0000000E+04; -9.8723615E-07;  0.0000000E+00; -2.8073762E-06;  6.6712551E+00;
  5.9999999E-02;  9.9999998E-03; -4.3000001E-01;2002;  0.0000000E+00;  0.0000000E+00;  0.0000000E+00;  1.0000660E+03;  1.0000000E-01;  5.4615738E+01;0;  0.0000000E+00;  0.0000000E+00;  0.0000000E+00;0; -1.5189777E-05;  4.0000000E+04;  0.0000000E+00;  0.0000000E+00;  4.0000000E+04;  0.0000000E+00;  4.0000000E+04; -3.2767603E-06;  0.0000000E+00; -1.1913016E-05;  6.3425705E+01;
  5.9999999E-02;  9.9999998E-03; -4.1999999E-01;2003;  0.0000000E+00;  0.0000000E+00;  0.0000000E+00;  1.0001510E+03;  1.0000000E-01;  1.2513226E+02;0;  0.0000000E+00;  0.0000000E+00;  0.0000000E+00;0; -4.2667049E-05;  4.0000000E+04;  0.0000000E+00;  0.0000000E+00;  4.0000000E+04;  0.0000000E+00;  4.0000000E+04; -9.3422323E-06;  0.0000000E+00; -3.3324817E-05;  2.1415979E+02;
  5.9999999E-02;  9.9999998E-03; -4.1000000E-01;2004;  0.0000000E+00;  0.0000000E+00;  0.0000000E+00;  1.0002894E+03;  1.0000000E-01;  2.3979568E+02;0;  0.0000000E+00;  0.0000000E+00;  0.0000000E+00;0; -9.6366588E-05;  4.0000000E+04;  0.0000000E+00;  0.0000000E+00;  4.0000000E+04;  0.0000000E+00;  4.0000000E+04; -2.3434113E-05;  0.0000000E+00; -7.2932475E-05;  4.8373105E+02;
  5.9999999E-02;  9.9999998E-03; -4.0000001E-01;2005;  0.0000000E+00;  0.0000000E+00;  0.0000000E+00;  1.0004890E+03;  1.0000000E-01;  4.0512436E+02;0;  0.0000000E+00;  0.0000000E+00;  0.0000000E+00;0; -1.8772751E-04;  4.0000000E+04;  0.0000000E+00;  0.0000000E+00;  4.0000000E+04;  0.0000000E+00;  4.0000000E+04; -5.2479274E-05;  0.0000000E+00; -1.3524824E-04;  8.6186011E+02;
  5.9999999E-02;  9.9999998E-03; -3.8999999E-01;2006;  0.0000000E+00;  0.0000000E+00;  0.0000000E+00;  1.0007584E+03;  1.0000000E-01;  6.2832788E+02;0;  0.0000000E+00;  0.0000000E+00;  0.0000000E+00;0; -3.2935548E-04;  4.0000000E+04;  0.0000000E+00;  0.0000000E+00;  4.0000000E+04;  0.0000000E+00;  4.0000000E+04; -1.0659482E-04;  0.0000000E+00; -2.2276066E-04;  1.3121588E+03;
  5.9999999E-02;  9.9999998E-03; -3.8000000E-01;2007;  0.0000000E+00;  0.0000000E+00;  0.0000000E+00;  1.0011296E+03;  1.0000000E-01;  9.3587476E+02;0;  0.0000000E+00;  0.0000000E+00;  0.0000000E+00;0; -5.3522096E-04;  4.0000000E+04;  0.0000000E+00;  0.0000000E+00;  4.0000000E+04;  0.0000000E+00;  4.0000000E+04; -1.9932387E-04;  0.0000000E+00; -3.3589712E-04;  1.7880662E+03;
  5.9999999E-02;  9.9999998E-03; -3.7000000E-01;2008;  0.0000000E+00;  0.0000000E+00;  0.0000000E+00;  1.0015930E+03;  1.0000000E-01;  1.3197651E+03;0;  0.0000000E+00;  0.0000000E+00;  0.0000000E+00;0; -8.2056416E-04;  4.0000000E+04;  0.0000000E+00;  0.0000000E+00;  4.0000000E+04;  0.0000000E+00;  4.0000000E+04; -3.4748597E-04;  0.0000000E+00; -4.7307819E-04;  2.2430085E+03;
  5.9999999E-02;  9.9999998E-03; -3.6000001E-01;2009;  0.0000000E+00;  0.0000000E+00;  0.0000000E+00;  1.0022022E+03;  1.0000000E-01;  1.8244423E+03;0;  0.0000000E+00;  0.0000000E+00;  0.0000000E+00;0; -1.2010321E-03;  4.0000000E+04;  0.0000000E+00;  0.0000000E+00;  4.0000000E+04;  0.0000000E+00;  4.0000000E+04; -5.7049945E-04;  0.0000000E+00; -6.3053262E-04;  2.6333228E+03;
  5.9999999E-02;  9.9999998E-03; -3.4999999E-01;2010;  0.0000000E+00;  0.0000000E+00;  0.0000000E+00;  1.0029558E+03;  1.0000000E-01;  2.4488196E+03;0;  0.0000000E+00;  0.0000000E+00;  0.0000000E+00;0; -1.6908058E-03;  4.0000000E+04;  0.0000000E+00;  0.0000000E+00;  4.0000000E+04;  0.0000000E+00;  4.0000000E+04; -8.8901422E-04;  0.0000000E+00; -8.0179155E-04;  2.9171650E+03;
  5.9999999E-02;  9.9999998E-03; -3.4000000E-01;2011;  0.0000000E+00;  0.0000000E+00;  0.0000000E+00;  1.0038749E+03;  1.0000000E-01;  3.2102795E+03;0;  0.0000000E+00;  0.0000000E+00;  0.0000000E+00;0; -2.2997763E-03;  4.0000000E+04;  0.0000000E+00;  0.0000000E+00;  4.0000000E+04;  0.0000000E+00;  4.0000000E+04; -1.3228509E-03;  0.0000000E+00; -9.7692525E-04;  3.0532319E+03;
  5.9999999E-02;  9.9999998E-03; -3.3000001E-01;2012;  0.0000000E+00;  0.0000000E+00;  0.0000000E+00;  1.0049468E+03;  1.0000000E-01;  4.0983530E+03;0;  0.0000000E+00;  0.0000000E+00;  0.0000000E+00;0; -3.0301251E-03;  4.0000000E+04;  0.0000000E+00;  0.0000000E+00;  4.0000000E+04;  0.0000000E+00;  4.0000000E+04; -1.8884115E-03;  0.0000000E+00; -1.1417136E-03;  3.0017131E+03;
  5.9999999E-02;  9.9999998E-03; -3.1999999E-01;2013;  0.0000000E+00;  0.0000000E+00;  0.0000000E+00;  1.0061539E+03;  1.0000000E-01;  5.0983247E+03;0;  0.0000000E+00;  0.0000000E+00;  0.0000000E+00;0; -3.8730833E-03;  4.0000000E+04;  0.0000000E+00;  0.0000000E+00;  4.0000000E+04;  0.0000000E+00;  4.0000000E+04; -2.5957709E-03;  0.0000000E+00; -1.2773125E-03;  2.7299802E+03;
  5.9999999E-02;  9.9999998E-03; -3.1000000E-01;2014;  0.0000000E+00;  0.0000000E+00;  0.0000000E+00;  1.0074476E+03;  1.0000000E-01;  6.1701958E+03;0;  0.0000000E+00;  0.0000000E+00;  0.0000000E+00;0; -4.8071304E-03;  4.0000000E+04;  0.0000000E+00;  0.0000000E+00;  4.0000000E+04;  0.0000000E+00;  4.0000000E+04; -3.4458104E-03;  0.0000000E+00; -1.3613201E-03;  2.2287341E+03;
  7.0000000E-02;  9.9999998E-03; -4.4000000E-01;2031;  0.0000000E+00;  0.0000000E+00;  0.0000000E+00;  1.0000000E+03;  1.0000000E-01;  0.0000000E+00;0;  0.0000000E+00;  0.0000000E+00;  0.0000000E+00;0; -4.5472420E-06;  4.0000000E+04;  0.0000000E+00;  0.0000000E+00;  4.0000000E+04;  0.0000000E+00;  4.0000000E+04;  7.2721031E-07;  0.0000000E+00; -5.2744522E-06;  5.9680738E+00;
  7.0000000E-02;  9.9999998E-03; -4.3000001E-01;2032;  0.0000000E+00;  0.0000000E+00;  0.0000000E+00;  1.0000672E+03;  1.0000000E-01;  5.5702129E+01;0;  0.0000000E+00;  0.0000000E+00;  0.0000000E+00;0; -1.5853300E-05;  4.0000000E+04;  0.0000000E+00;  0.0000000E+00;  4.0000000E+04;  0.0000000E+00;  4.0000000E+04;  1.3121338E-06;  0.0000000E+00; -1.7165434E-05;  7.7465828E+01;
  7.0000000E-02;  9.9999998E-03; -4.1999999E-01;2033;  0.0000000E+00;  0.0000000E+00;  0.0000000E+00;  1.0001518E+03;  1.0000000E-01;  1.2572484E+02;0;  0.0000000E+00;  0.0000000E+00;  0.0000000E+00;0; -4.2811764E-05;  4.0000000E+04;  0.0000000E+00;  0.0000000E+00;  4.0000000E+04;  0.0000000E+00;  4.0000000E+04; -4.0003378E-08;  0.0000000E+00; -4.2771760E-05;  2.6178595E+02;
  7.0000000E-02;  9.9999998E-03; -4.1000000E-01;2034;  0.0000000E+00;  0.0000000E+00;  0.0000000E+00;  1.0002913E+03;  1.0000000E-01;  2.4137589E+02;0;  0.0000000E+00;  0.0000000E+00;  0.0000000E+00;0; -9.6075644E-05;  4.0000000E+04;  0.0000000E+00;  0.0000000E+00;  4.0000000E+04;  0.0000000E+00;  4.0000000E+04; -7.7315535E-06;  0.0000000E+00; -8.8344088E-05;  5.8210486E+02;
  7.0000000E-02;  9.9999998E-03; -4.0000001E-01;2035;  0.0000000E+00;  0.0000000E+00;  0.0000000E+00;  1.0004633E+03;  1.0000000E-01;  3.8379163E+02;0;  0.0000000E+00;  0.0000000E+00;  0.0000000E+00;0; -1.8793420E-04;  4.0000000E+04;  0.0000000E+00;  0.0000000E+00;  4.0000000E+04;  0.0000000E+00;  4.0000000E+04; -2.9275281E-05;  0.0000000E+00; -1.5865892E-04;  1.0213428E+03;
  7.0000000E-02;  9.9999998E-03; -3.8999999E-01;2036;  0.0000000E+00;  0.0000000E+00;  0.0000000E+00;  1.0007518E+03;  1.0000000E-01;  6.2289594E+02;0;  0.0000000E+00;  0.0000000E+00;  0.0000000E+00;0; -3.3185157E-04;  4.0000000E+04;  0.0000000E+00;  0.0000000E+00;  4.0000000E+04;  0.0000000E+00;  4.0000000E+04; -7.5693184E-05;  0.0000000E+00; -2.5615838E-04;  1.5346832E+03;
  7.0000000E-02;  9.9999998E-03; -3.8000000E-01;2037;  0.0000000E+00;  0.0000000E+00;  0.0000000E+00;  1.0011118E+03;  1.0000000E-01;  9.2106036E+02;0;  0.0000000E+00;  0.0000000E+00;  0.0000000E+00;0; -5.4253027E-04;  4.0000000E+04;  0.0000000E+00;  0.0000000E+00;  4.0000000E+04;  0.0000000E+00;  4.0000000E+04; -1.6162354E-04;  0.0000000E+00; -3.8090671E-04;  2.0681370E+03;
  7.0000000E-02;  9.9999998E-03; -3.7000000E-01;2038;  0.0000000E+00;  0.0000000E+00;  0.0000000E+00;  1.0015796E+03;  1.0000000E-01;  1.3087037E+03;0;  0.0000000E+00;  0.0000000E+00;  0.0000000E+00;0; -8.3576562E-04;  4.0000000E+04;  0.0000000E+00;  0.0000000E+00;  4.0000000E+04;  0.0000000E+00;  4.0000000E+04; -3.0500113E-04;  0.0000000E+00; -5.3076452E-04;  2.5691777E+03;
  7.0000000E-02;  9.9999998E-03; -3.6000001E-01;2039;  0.0000000E+00;  0.0000000E+00;  0.0000000E+00;  1.0021907E+03;  1.0000000E-01;  1.8149611E+03;0;  0.0000000E+00;  0.0000000E+00;  0.0000000E+00;0; -1.2274608E-03;  4.0000000E+04;  0.0000000E+00;  0.0000000E+00;  4.0000000E+04;  0.0000000E+00;  4.0000000E+04; -5.2614650E-04;  0.0000000E+00; -7.0131430E-04;  2.9888752E+03;
  7.0000000E-02;  9.9999998E-03; -3.4999999E-01;2040;  0.0000000E+00;  0.0000000E+00;  0.0000000E+00;  1.0029611E+03;  1.0000000E-01;  2.4532639E+03;0;  0.0000000E+00;  0.0000000E+00;  0.0000000E+00;0; -1.7314915E-03;  4.0000000E+04;  0.0000000E+00;  0.0000000E+00;  4.0000000E+04;  0.0000000E+00;  4.0000000E+04; -8.4612833E-04;  0.0000000E+00; -8.8536320E-04;  3.2795652E+03;
  7.0000000E-02;  9.9999998E-03; -3.4000000E-01;2041;  0.0000000E+00;  0.0000000E+00;  0.0000000E+00;  1.0038799E+03;  1.0000000E-01;  3.2144275E+03;0;  0.0000000E+00;  0.0000000E+00;  0.0000000E+00;0; -2.3564873E-03;  4.0000000E+04;  0.0000000E+00;  0.0000000E+00;  4.0000000E+04;  0.0000000E+00;  4.0000000E+04; -1.2844383E-03;  0.0000000E+00; -1.0720491E-03;  3.3929846E+03;
  7.0000000E-02;  9.9999998E-03; -3.3000001E-01;2042;  0.0000000E+00;  0.0000000E+00;  0.0000000E+00;  1.0049595E+03;  1.0000000E-01;  4.1088223E+03;0;  0.0000000E+00;  0.0000000E+00;  0.0000000E+00;0; -3.1020036E-03;  4.0000000E+04;  0.0000000E+00;  0.0000000E+00;  4.0000000E+04;  0.0000000E+00;  4.0000000E+04; -1.8562785E-03;  0.0000000E+00; -1.2457251E-03;  3.2826040E+03;
  7.0000000E-02;  9.9999998E-03; -3.1999999E-01;2043;  0.0000000E+00;  0.0000000E+00;  0.0000000E+00;  1.0061631E+03;  1.0000000E-01;  5.1060283E+03;0;  0.0000000E+00;  0.0000000E+00;  0.0000000E+00;0; -3.9551477E-03;  4.0000000E+04;  0.0000000E+00;  0.0000000E+00;  4.0000000E+04;  0.0000000E+00;  4.0000000E+04; -2.5698757E-03;  0.0000000E+00; -1.3852719E-03;  2.9129126E+03;
  7.0000000E-02;  9.9999998E-03; -3.1000000E-01;2044;  0.0000000E+00;  0.0000000E+00;  0.0000000E+00;  1.0074416E+03;  1.0000000E-01;  6.1652578E+03;0;  0.0000000E+00;  0.0000000E+00;  0.0000000E+00;0; -4.8890244E-03;  4.0000000E+04;  0.0000000E+00;  0.0000000E+00;  4.0000000E+04;  0.0000000E+00;  4.0000000E+04; -3.4242386E-03;  0.0000000E+00; -1.4647858E-03;  2.2801978E+03;
  7.9999998E-02;  9.9999998E-03; -4.4000000E-01;2061;  0.0000000E+00;  0.0000000E+00;  0.0000000E+00;  1.0000000E+03;  1.0000000E-01;  0.0000000E+00;0;  0.0000000E+00;  0.0000000E+00;  0.0000000E+00;0; -5.2283290E-06;  4.0000000E+04;  0.0000000E+00;  0.0000000E+00;  4.0000000E+04;  0.0000000E+00;  4.0000000E+04;  2.2816189E-06;  0.0000000E+00; -7.5099479E-06;  1.9047363E+01;
  7.9999998E-02;  9.9999998E-03; -4.3000001E-01;2062;  0.0000000E+00;  0.0000000E+00;  0.0000000E+00;  1.0000687E+03;  1.0000000E-01;  5.6887280E+01;0;  0.0000000E+00;  0.0000000E+00;  0.0000000E+00;0; -1.6421984E-05;  4.0000000E+04;  0.0000000E+00;  0.0000000E+00;  4.0000000E+04;  0.0000000E+00;  4.0000000E+04;  5.3215895E-06;  0.0000000E+00; -2.1743574E-05;  1.2235754E+02;
  7.9999998E-02;  9.9999998E-03; -4.1999999E-01;2063;  0.0000000E+00;  0.0000000E+00;  0.0000000E+00;  1.0001441E+03;  1.0000000E-01;  1.1940403E+02;0;  0.0000000E+00;  0.0000000E+00;  0.0000000E+00;0; -4.3133587E-05;  4.0000000E+04;  0.0000000E+00;  0.0000000E+00;  4.0000000E+04;  0.0000000E+00;  4.0000000E+04;  7.7654386E-06;  0.0000000E+00; -5.0899023E-05;  3.6141165E+02;
  7.9999998E-02;  9.9999998E-03; -4.1000000E-01;2064;  0.0000000E+00;  0.0000000E+00;  0.0000000E+00;  1.0002736E+03;  1.0000000E-01;  2.2666026E+02;0;  0.0000000E+00;  0.0000000E+00;  0.0000000E+00;0; -9.6840267E-05;  4.0000000E+04;  0.0000000E+00;  0.0000000E+00;  4.0000000E+04;  0.0000000E+00;  4.0000000E+04;  4.8255620E-06;  0.0000000E+00; -1.0166583E-04;  7.5470166E+02;
  7.9999998E-02;  9.9999998E-03; -4.0000001E-01;2065;  0.0000000E+00;  0.0000000E+00;  0.0000000E+00;  1.0004531E+03;  1.0000000E-01;  3.7539679E+02;0;  0.0000000E+00;  0.0000000E+00;  0.0000000E+00;0; -1.9075045E-04;  4.0000000E+04;  0.0000000E+00;  0.0000000E+00;  4.0000000E+04;  0.0000000E+00;  4.0000000E+04; -1.1758197E-05;  0.0000000E+00; -1.7899225E-04;  1.2761796E+03;
  7.9999998E-02;  9.9999998E-03; -3.8999999E-01;2066;  0.0000000E+00;  0.0000000E+00;  0.0000000E+00;  1.0007329E+03;  1.0000000E-01;  6.0719269E+02;0;  0.0000000E+00;  0.0000000E+00;  0.0000000E+00;0; -3.3912217E-04;  4.0000000E+04;  0.0000000E+00;  0.0000000E+00;  4.0000000E+04;  0.0000000E+00;  4.0000000E+04; -5.4040116E-05;  0.0000000E+00; -2.8508206E-04;  1.8723447E+03;
  7.9999998E-02;  9.9999998E-03; -3.8000000E-01;2067;  0.0000000E+00;  0.0000000E+00;  0.0000000E+00;  1.0010847E+03;  1.0000000E-01;  8.9864124E+02;0;  0.0000000E+00;  0.0000000E+00;  0.0000000E+00;0; -5.5733859E-04;  4.0000000E+04;  0.0000000E+00;  0.0000000E+00;  4.0000000E+04;  0.0000000E+00;  4.0000000E+04; -1.3783040E-04;  0.0000000E+00; -4.1950820E-04;  2.4825291E+03;
  7.9999998E-02;  9.9999998E-03; -3.7000000E-01;2068;  0.0000000E+00;  0.0000000E+00;  0.0000000E+00;  1.0015662E+03;  1.0000000E-01;  1.2975436E+03;0;  0.0000000E+00;  0.0000000E+00;  0.0000000E+00;0; -8.6174539E-04;  4.0000000E+04;  0.0000000E+00;  0.0000000E+00;  4.0000000E+04;  0.0000000E+00;  4.0000000E+04; -2.8217287E-04;  0.0000000E+00; -5.7957252E-04;  3.0489097E+03;
  7.9999998E-02;  9.9999998E-03; -3.6000001E-01;2069;  0.0000000E+00;  0.0000000E+00;  0.0000000E+00;  1.0021782E+03;  1.0000000E-01;  1.8045909E+03;0;  0.0000000E+00;  0.0000000E+00;  0.0000000E+00;0; -1.2684840E-03;  4.0000000E+04;  0.0000000E+00;  0.0000000E+00;  4.0000000E+04;  0.0000000E+00;  4.0000000E+04; -5.0816376E-04;  0.0000000E+00; -7.6032028E-04;  3.5170325E+03;
  7.9999998E-02;  9.9999998E-03; -3.4999999E-01;2070;  0.0000000E+00;  0.0000000E+00;  0.0000000E+00;  1.0029456E+03;  1.0000000E-01;  2.4403259E+03;0;  0.0000000E+00;  0.0000000E+00;  0.0000000E+00;0; -1.7910469E-03;  4.0000000E+04;  0.0000000E+00;  0.0000000E+00;  4.0000000E+04;  0.0000000E+00;  4.0000000E+04; -8.3699380E-04;  0.0000000E+00; -9.5405313E-04;  3.8314771E+03;
  7.9999998E-02;  9.9999998E-03; -3.4000000E-01;2071;  0.0000000E+00;  0.0000000E+00;  0.0000000E+00;  1.0038734E+03;  1.0000000E-01;  3.2090945E+03;0;  0.0000000E+00;  0.0000000E+00;  0.0000000E+00;0; -2.4366220E-03;  4.0000000E+04;  0.0000000E+00;  0.0000000E+00;  4.0000000E+04;  0.0000000E+00;  4.0000000E+04; -1.2873329E-03;  0.0000000E+00; -1.1492892E-03;  3.9323730E+03;
  7.9999998E-02;  9.9999998E-03; -3.3000001E-01;2072;  0.0000000E+00;  0.0000000E+00;  0.0000000E+00;  1.0049509E+03;  1.0000000E-01;  4.1017109E+03;0;  0.0000000E+00;  0.0000000E+00;  0.0000000E+00;0; -3.2018661E-03;  4.0000000E+04;  0.0000000E+00;  0.0000000E+00;  4.0000000E+04;  0.0000000E+00;  4.0000000E+04; -1.8724913E-03;  0.0000000E+00; -1.3293748E-03;  3.7585754E+03;
  7.9999998E-02;  9.9999998E-03; -3.1999999E-01;2073;  0.0000000E+00;  0.0000000E+00;  0.0000000E+00;  1.0061439E+03;  1.0000000E-01;  5.0900288E+03;0;  0.0000000E+00;  0.0000000E+00;  0.0000000E+00;0; -4.0692403E-03;  4.0000000E+04;  0.0000000E+00;  0.0000000E+00;  4.0000000E+04;  0.0000000E+00;  4.0000000E+04; -2.5979350E-03;  0.0000000E+00; -1.4713051E-03;  3.2618354E+03;
  7.9999998E-02;  9.9999998E-03; -3.1000000E-01;2074;  0.0000000E+00;  0.0000000E+00;  0.0000000E+00;  1.0074014E+03;  1.0000000E-01;  6.1319746E+03;0;  0.0000000E+00;  0.0000000E+00;  0.0000000E+00;0; -5.0057936E-03;  4.0000000E+04;  0.0000000E+00;  0.0000000E+00;  4.0000000E+04;  0.0000000E+00;  4.0000000E+04; -3.4598561E-03;  0.0000000E+00; -1.5459375E-03;  2.4313994E+03;
  9.0000004E-02;  9.9999998E-03; -4.4000000E-01;2091;  0.0000000E+00;  0.0000000E+00;  0.0000000E+00;  1.0000000E+03;  1.0000000E-01;  0.0000000E+00;0;  0.0000000E+00;  0.0000000E+00;  0.0000000E+00;0; -5.5833943E-06;  4.0000000E+04;  0.0000000E+00;  0.0000000E+00;  4.0000000E+04;  0.0000000E+00;  4.0000000E+04;  3.4022448E-06;  0.0000000E+00; -8.9856394E-06;  4.7973202E+01;
  9.0000004E-02;  9.9999998E-03; -4.3000001E-01;2092;  0.0000000E+00;  0.0000000E+00;  0.0000000E+00;  1.0000709E+03;  1.0000000E-01;  5.8763771E+01;0;  0.0000000E+00;  0.0000000E+00;  0.0000000E+00;0; -1.6827255E-05;  4.0000000E+04;  0.0000000E+00;  0.0000000E+00;  4.0000000E+04;  0.0000000E+00;  4.0000000E+04;  7.9712299E-06;  0.0000000E+00; -2.4798484E-05;  1.9961137E+02;
  9.0000004E-02;  9.9999998E-03; -4.1999999E-01;2093;  0.0000000E+00;  0.0000000E+00;  0.0000000E+00;  1.0001380E+03;  1.0000000E-01;  1.1436713E+02;0;  0.0000000E+00;  0.0000000E+00;  0.0000000E+00;0; -4.4234810E-05;  4.0000000E+04;  0.0000000E+00;  0.0000000E+00;  4.0000000E+04;  0.0000000E+00;  4.0000000E+04;  1.2353205E-05;  0.0000000E+00; -5.6588015E-05;  5.1276263E+02;
  9.0000004E-02;  9.9999998E-03; -4.1000000E-01;2094;  0.0000000E+00;  0.0000000E+00;  0.0000000E+00;  1.0002465E+03;  1.0000000E-01;  2.0414238E+02;0;  0.0000000E+00;  0.0000000E+00;  0.0000000E+00;0; -1.0027821E-04;  4.0000000E+04;  0.0000000E+00;  0.0000000E+00;  4.0000000E+04;  0.0000000E+00;  4.0000000E+04;  1.1124070E-05;  0.0000000E+00; -1.1140227E-04;  9.9801947E+02;
  9.0000004E-02;  9.9999998E-03; -4.0000001E-01;2095;  0.0000000E+00;  0.0000000E+00;  0.0000000E+00;  1.0004385E+03;  1.0000000E-01;  3.6324899E+02;0;  0.0000000E+00;  0.0000000E+00;  0.0000000E+00;0; -1.9909874E-04;  4.0000000E+04;  0.0000000E+00;  0.0000000E+00;  4.0000000E+04;  0.0000000E+00;  4.0000000E+04; -4.9705709E-06;  0.0000000E+00; -1.9412817E-04;  1.6191237E+03;
  9.0000004E-02;  9.9999998E-03; -3.8999999E-01;2096;  0.0000000E+00;  0.0000000E+00;  0.0000000E+00;  1.0007067E+03;  1.0000000E-01;  5.8546490E+02;0;  0.0000000E+00;  0.0000000E+00;  0.0000000E+00;0; -3.5580294E-04;  4.0000000E+04;  0.0000000E+00;  0.0000000E+00;  4.0000000E+04;  0.0000000E+00;  4.0000000E+04; -4.9261853E-05;  0.0000000E+00; -3.0654110E-04;  2.3143916E+03;
  9.0000004E-02;  9.9999998E-03; -3.8000000E-01;2097;  0.0000000E+00;  0.0000000E+00;  0.0000000E+00;  1.0010682E+03;  1.0000000E-01;  8.8501202E+02;0;  0.0000000E+00;  0.0000000E+00;  0.0000000E+00;0; -5.8663572E-04;  4.0000000E+04;  0.0000000E+00;  0.0000000E+00;  4.0000000E+04;  0.0000000E+00;  4.0000000E+04; -1.3898405E-04;  0.0000000E+00; -4.4765166E-04;  3.0176680E+03;
  9.0000004E-02;  9.9999998E-03; -3.7000000E-01;2098;  0.0000000E+00;  0.0000000E+00;  0.0000000E+00;  1.0015529E+03;  1.0000000E-01;  1.2865809E+03;0;  0.0000000E+00;  0.0000000E+00;  0.0000000E+00;0; -9.0873602E-04;  4.0000000E+04;  0.0000000E+00;  0.0000000E+00;  4.0000000E+04;  0.0000000E+00;  4.0000000E+04; -2.9451432E-04;  0.0000000E+00; -6.1422167E-04;  3.6667917E+03;
  9.0000004E-02;  9.9999998E-03; -3.6000001E-01;2099;  0.0000000E+00;  0.0000000E+00;  0.0000000E+00;  1.0021754E+03;  1.0000000E-01;  1.8022206E+03;0;  0.0000000E+00;  0.0000000E+00;  0.0000000E+00;0; -1.3387048E-03;  4.0000000E+04;  0.0000000E+00;  0.0000000E+00;  4.0000000E+04;  0.0000000E+00;  4.0000000E+04; -5.3785084E-04;  0.0000000E+00; -8.0085400E-04;  4.2022246E+03;
  9.0000004E-02;  9.9999998E-03; -3.4999999E-01;2100;  0.0000000E+00;  0.0000000E+00;  0.0000000E+00;  1.0029587E+03;  1.0000000E-01;  2.4512888E+03;0;  0.0000000E+00;  0.0000000E+00;  0.0000000E+00;0; -1.8897584E-03;  4.0000000E+04;  0.0000000E+00;  0.0000000E+00;  4.0000000E+04;  0.0000000E+00;  4.0000000E+04; -8.9025625E-04;  0.0000000E+00; -9.9950214E-04;  4.5615879E+03;
  9.0000004E-02;  9.9999998E-03; -3.4000000E-01;2101;  0.0000000E+00;  0.0000000E+00;  0.0000000E+00;  1.0038942E+03;  1.0000000E-01;  3.2262791E+03;0;  0.0000000E+00;  0.0000000E+00;  0.0000000E+00;0; -2.5676570E-03;  4.0000000E+04;  0.0000000E+00;  0.0000000E+00;  4.0000000E+04;  0.0000000E+00;  4.0000000E+04; -1.3692977E-03;  0.0000000E+00; -1.1983593E-03;  4.6772964E+03;
  9.0000004E-02;  9.9999998E-03; -3.3000001E-01;2102;  0.0000000E+00;  0.0000000E+00;  0.0000000E+00;  1.0049781E+03;  1.0000000E-01;  4.1243276E+03;0;  0.0000000E+00;  0.0000000E+00;  0.0000000E+00;0; -3.3661034E-03;  4.0000000E+04;  0.0000000E+00;  0.0000000E+00;  4.0000000E+04;  0.0000000E+00;  4.0000000E+04; -1.9858517E-03;  0.0000000E+00; -1.3802517E-03;  4.4833267E+03;
  9.0000004E-02;  9.9999998E-03; -3.1999999E-01;2103;  0.0000000E+00;  0.0000000E+00;  0.0000000E+00;  1.0061708E+03;  1.0000000E-01;  5.1124482E+03;0;  0.0000000E+00;  0.0000000E+00;  0.0000000E+00;0; -4.2628865E-03;  4.0000000E+04;  0.0000000E+00;  0.0000000E+00;  4.0000000E+04;  0.0000000E+00;  4.0000000E+04; -2.7418132E-03;  0.0000000E+00; -1.5210732E-03;  3.9388777E+03;
  9.0000004E-02;  9.9999998E-03; -3.1000000E-01;2104;  0.0000000E+00;  0.0000000E+00;  0.0000000E+00;  1.0074092E+03;  1.0000000E-01;  6.1383945E+03;0;  0.0000000E+00;  0.0000000E+00;  0.0000000E+00;0; -5.2187308E-03;  4.0000000E+04;  0.0000000E+00;  0.0000000E+00;  4.0000000E+04;  0.0000000E+00;  4.0000000E+04; -3.6293089E-03;  0.0000000E+00; -1.5894219E-03;  3.0772913E+03;
  1.0000000E-01;  9.9999998E-03; -4.4000000E-01;2121;  0.0000000E+00;  0.0000000E+00;  0.0000000E+00;  1.0000000E+03;  1.0000000E-01;  0.0000000E+00;0;  0.0000000E+00;  0.0000000E+00;  0.0000000E+00;0; -5.4938696E-06;  4.0000000E+04;  0.0000000E+00;  0.0000000E+00;  4.0000000E+04;  0.0000000E+00;  4.0000000E+04;  3.8528410E-06;  0.0000000E+00; -9.3467106E-06;  9.1888840E+01;
  1.0000000E-01;  9.9999998E-03; -4.3000001E-01;2122;  0.0000000E+00;  0.0000000E+00;  0.0000000E+00;  1.0000734E+03;  1.0000000E-01;  6.0837784E+01;0;  0.0000000E+00;  0.0000000E+00;  0.0000000E+00;0; -1.7237704E-05;  4.0000000E+04;  0.0000000E+00;  0.0000000E+00;  4.0000000E+04;  0.0000000E+00;  4.0000000E+04;  8.5734782E-06;  0.0000000E+00; -2.5811181E-05;  3.0558685E+02;
  1.0000000E-01;  9.9999998E-03; -4.1999999E-01;2123;  0.0000000E+00;  0.0000000E+00;  0.0000000E+00;  1.0001205E+03;  1.0000000E-01;  9.9849030E+01;0;  0.0000000E+00;  0.0000000E+00;  0.0000000E+00;0; -4.6833375E-05;  4.0000000E+04;  0.0000000E+00;  0.0000000E+00;  4.0000000E+04;  0.0000000E+00;  4.0000000E+04;  1.2295674E-05;  0.0000000E+00; -5.9129048E-05;  7.0733423E+02;
  1.0000000E-01;  9.9999998E-03; -4.1000000E-01;2124;  0.0000000E+00;  0.0000000E+00;  0.0000000E+00;  1.0002173E+03;  1.0000000E-01;  1.8004430E+02;0;  0.0000000E+00;  0.0000000E+00;  0.0000000E+00;0; -1.0785304E-04;  4.0000000E+04;  0.0000000E+00;  0.0000000E+00;  4.0000000E+04;  0.0000000E+00;  4.0000000E+04;  8.6079017E-06;  0.0000000E+00; -1.1646094E-04;  1.2973864E+03;
  1.0000000E-01;  9.9999998E-03; -4.0000001E-01;2125;  0.0000000E+00;  0.0000000E+00;  0.0000000E+00;  1.0004287E+03;  1.0000000E-01;  3.5515045E+02;0;  0.0000000E+00;  0.0000000E+00;  0.0000000E+00;0; -2.1546701E-04;  4.0000000E+04;  0.0000000E+00;  0.0000000E+00;  4.0000000E+04;  0.0000000E+00;  4.0000000E+04; -1.3074399E-05;  0.0000000E+00; -2.0239261E-04;  2.0284541E+03;
  1.0000000E-01;  9.9999998E-03; -3.8999999E-01;2126;  0.0000000E+00;  0.0000000E+00;  0.0000000E+00;  1.0006919E+03;  1.0000000E-01;  5.7321838E+02;0;  0.0000000E+00;  0.0000000E+00;  0.0000000E+00;0; -3.8589499E-04;  4.0000000E+04;  0.0000000E+00;  0.0000000E+00;  4.0000000E+04;  0.0000000E+00;  4.0000000E+04; -6.7739595E-05;  0.0000000E+00; -3.1815539E-04;  2.8316067E+03;
  1.0000000E-01;  9.9999998E-03; -3.8000000E-01;2127;  0.0000000E+00;  0.0000000E+00;  0.0000000E+00;  1.0010688E+03;  1.0000000E-01;  8.8550580E+02;0;  0.0000000E+00;  0.0000000E+00;  0.0000000E+00;0; -6.3663191E-04;  4.0000000E+04;  0.0000000E+00;  0.0000000E+00;  4.0000000E+04;  0.0000000E+00;  4.0000000E+04; -1.7445955E-04;  0.0000000E+00; -4.6217235E-04;  3.6375896E+03;
  1.0000000E-01;  9.9999998E-03; -3.7000000E-01;2128;  0.0000000E+00;  0.0000000E+00;  0.0000000E+00;  1.0015628E+03;  1.0000000E-01;  1.2947782E+03;0;  0.0000000E+00;  0.0000000E+00;  0.0000000E+00;0; -9.8601240E-04;  4.0000000E+04;  0.0000000E+00;  0.0000000E+00;  4.0000000E+04;  0.0000000E+00;  4.0000000E+04; -3.5532872E-04;  0.0000000E+00; -6.3068367E-04;  4.3840552E+03;
  1.0000000E-01;  9.9999998E-03; -3.6000001E-01;2129;  0.0000000E+00;  0.0000000E+00;  0.0000000E+00;  1.0022070E+03;  1.0000000E-01;  1.8284915E+03;0;  0.0000000E+00;  0.0000000E+00;  0.0000000E+00;0; -1.4514062E-03;  4.0000000E+04;  0.0000000E+00;  0.0000000E+00;  4.0000000E+04;  0.0000000E+00;  4.0000000E+04; -6.3351332E-04;  0.0000000E+00; -8.1789278E-04;  5.0139312E+03;
  1.0000000E-01;  9.9999998E-03; -3.4999999E-01;2130;  0.0000000E+00;  0.0000000E+00;  0.0000000E+00;  1.0030167E+03;  1.0000000E-01;  2.4992874E+03;0;  0.0000000E+00;  0.0000000E+00;  0.0000000E+00;0; -2.0459008E-03;  4.0000000E+04;  0.0000000E+00;  0.0000000E+00;  4.0000000E+04;  0.0000000E+00;  4.0000000E+04; -1.0304025E-03;  0.0000000E+00; -1.0154983E-03;  5.4732676E+03;
  1.0000000E-01;  9.9999998E-03; -3.4000000E-01;2131;  0.0000000E+00;  0.0000000E+00;  0.0000000E+00;  1.0039814E+03;  1.0000000E-01;  3.2985735E+03;0;  0.0000000E+00;  0.0000000E+00;  0.0000000E+00;0; -2.7737897E-03;  4.0000000E+04;  0.0000000E+00;  0.0000000E+00;  4.0000000E+04;  0.0000000E+00;  4.0000000E+04; -1.5622153E-03;  0.0000000E+00; -1.2115745E-03;  5.7157183E+03;
  1.0000000E-01;  9.9999998E-03; -3.3000001E-01;2132;  0.0000000E+00;  0.0000000E+00;  0.0000000E+00;  1.0050825E+03;  1.0000000E-01;  4.2107451E+03;0;  0.0000000E+00;  0.0000000E+00;  0.0000000E+00;0; -3.6257356E-03;  4.0000000E+04;  0.0000000E+00;  0.0000000E+00;  4.0000000E+04;  0.0000000E+00;  4.0000000E+04; -2.2368161E-03;  0.0000000E+00; -1.3889195E-03;  5.7177920E+03;
  1.0000000E-01;  9.9999998E-03; -3.1999999E-01;2133;  0.0000000E+00;  0.0000000E+00;  0.0000000E+00;  1.0062874E+03;  1.0000000E-01;  5.2090381E+03;0;  0.0000000E+00;  0.0000000E+00;  0.0000000E+00;0; -4.5748525E-03;  4.0000000E+04;  0.0000000E+00;  0.0000000E+00;  4.0000000E+04;  0.0000000E+00;  4.0000000E+04; -3.0515438E-03;  0.0000000E+00; -1.5233087E-03;  5.5054521E+03;
  1.0000000E-01;  9.9999998E-03; -3.1000000E-01;2134;  0.0000000E+00;  0.0000000E+00;  0.0000000E+00;  1.0075193E+03;  1.0000000E-01;  6.2296509E+03;0;  0.0000000E+00;  0.0000000E+00;  0.0000000E+00;0; -5.5756769E-03;  4.0000000E+04;  0.0000000E+00;  0.0000000E+00;  4.0000000E+04;  0.0000000E+00;  4.0000000E+04; -3.9929184E-03;  0.0000000E+00; -1.5827584E-03;  5.1850942E+03;
  1.1000000E-01;  9.9999998E-03; -4.4000000E-01;2151;  0.0000000E+00;  0.0000000E+00;  0.0000000E+00;  1.0000000E+03;  1.0000000E-01;  0.0000000E+00;0;  0.0000000E+00;  0.0000000E+00;  0.0000000E+00;0; -5.1082707E-06;  4.0000000E+04;  0.0000000E+00;  0.0000000E+00;  4.0000000E+04;  0.0000000E+00;  4.0000000E+04;  3.4152572E-06;  0.0000000E+00; -8.5235279E-06;  1.5023013E+02;
  1.1000000E-01;  9.9999998E-03; -4.3000001E-01;2152;  0.0000000E+00;  0.0000000E+00;  0.0000000E+00;  1.0000651E+03;  1.0000000E-01;  5.3924400E+01;0;  0.0000000E+00;  0.0000000E+00;  0.0000000E+00;0; -1.8081422E-05;  4.0000000E+04;  0.0000000E+00;  0.0000000E+00;  4.0000000E+04;  0.0000000E+00;  4.0000000E+04;  6.6093185E-06;  0.0000000E+00; -2.4690740E-05;  4.3761945E+02;
  1.1000000E-01;  9.9999998E-03; -4.1999999E-01;2153;  0.0000000E+00;  0.0000000E+00;  0.0000000E+00;  1.0001102E+03;  1.0000000E-01;  9.1256676E+01;0;  0.0000000E+00;  0.0000000E+00;  0.0000000E+00;0; -5.1690138E-05;  4.0000000E+04;  0.0000000E+00;  0.0000000E+00;  4.0000000E+04;  0.0000000E+00;  4.0000000E+04;  6.5791069E-06;  0.0000000E+00; -5.8269245E-05;  9.3812714E+02;
  1.1000000E-01;  9.9999998E-03; -4.1000000E-01;2154;  0.0000000E+00;  0.0000000E+00;  0.0000000E+00;  1.0002118E+03;  1.0000000E-01;  1.7550121E+02;0;  0.0000000E+00;  0.0000000E+00;  0.0000000E+00;0; -1.2082880E-04;  4.0000000E+04;  0.0000000E+00;  0.0000000E+00;  4.0000000E+04;  0.0000000E+00;  4.0000000E+04; -4.5313554E-06;  0.0000000E+00; -1.1629744E-04;  1.6380081E+03;
  1.1000000E-01;  9.9999998E-03; -4.0000001E-01;2155;  0.0000000E+00;  0.0000000E+00;  0.0000000E+00;  1.0004332E+03;  1.0000000E-01;  3.5890344E+02;0;  0.0000000E+00;  0.0000000E+00;  0.0000000E+00;0; -2.4200897E-04;  4.0000000E+04;  0.0000000E+00;  0.0000000E+00;  4.0000000E+04;  0.0000000E+00;  4.0000000E+04; -3.9114970E-05;  0.0000000E+00; -2.0289401E-04;  2.4773169E+03;
  1.1000000E-01;  9.9999998E-03; -3.8999999E-01;2156;  0.0000000E+00;  0.0000000E+00;  0.0000000E+00;  1.0007033E+03;  1.0000000E-01;  5.8269958E+02;0;  0.0000000E+00;  0.0000000E+00;  0.0000000E+00;0; -4.3302658E-04;  4.0000000E+04;  0.0000000E+00;  0.0000000E+00;  4.0000000E+04;  0.0000000E+00;  4.0000000E+04; -1.1432911E-04;  0.0000000E+00; -3.1869748E-04;  3.3821067E+03;
  1.1000000E-01;  9.9999998E-03; -3.8000000E-01;2157;  0.0000000E+00;  0.0000000E+00;  0.0000000E+00;  1.0010910E+03;  1.0000000E-01;  9.0387567E+02;0;  0.0000000E+00;  0.0000000E+00;  0.0000000E+00;0; -7.1314210E-04;  4.0000000E+04;  0.0000000E+00;  0.0000000E+00;  4.0000000E+04;  0.0000000E+00;  4.0000000E+04; -2.5159764E-04;  0.0000000E+00; -4.6154449E-04;  4.2881460E+03;
  1.1000000E-01;  9.9999998E-03; -3.7000000E-01;2158;  0.0000000E+00;  0.0000000E+00;  0.0000000E+00;  1.0016199E+03;  1.0000000E-01;  1.3420854E+03;0;  0.0000000E+00;  0.0000000E+00;  0.0000000E+00;0; -1.1023395E-03;  4.0000000E+04;  0.0000000E+00;  0.0000000E+00;  4.0000000E+04;  0.0000000E+00;  4.0000000E+04; -4.7516756E-04;  0.0000000E+00; -6.2717195E-04;  5.1500947E+03;
  1.1000000E-01;  9.9999998E-03; -3.6000001E-01;2159;  0.0000000E+00;  0.0000000E+00;  0.0000000E+00;  1.0022998E+03;  1.0000000E-01;  1.9053289E+03;0;  0.0000000E+00;  0.0000000E+00;  0.0000000E+00;0; -1.6190016E-03;  4.0000000E+04;  0.0000000E+00;  0.0000000E+00;  4.0000000E+04;  0.0000000E+00;  4.0000000E+04; -8.0960960E-04;  0.0000000E+00; -8.0939202E-04;  5.9445562E+03;
  1.1000000E-01;  9.9999998E-03; -3.4999999E-01;2160;  0.0000000E+00;  0.0000000E+00;  0.0000000E+00;  1.0031505E+03;  1.0000000E-01;  2.6100991E+03;0;  0.0000000E+00;  0.0000000E+00;  0.0000000E+00;0; -2.2760299E-03;  4.0000000E+04;  0.0000000E+00;  0.0000000E+00;  4.0000000E+04;  0.0000000E+00;  4.0000000E+04; -1.2763503E-03;  0.0000000E+00; -9.9967956E-04;  6.6744766E+03;
  1.1000000E-01;  9.9999998E-03; -3.4000000E-01;2161;  0.0000000E+00;  0.0000000E+00;  0.0000000E+00;  1.0041595E+03;  1.0000000E-01;  3.4460259E+03;0;  0.0000000E+00;  0.0000000E+00;  0.0000000E+00;0; -3.0758940E-03;  4.0000000E+04;  0.0000000E+00;  0.0000000E+00;  4.0000000E+04;  0.0000000E+00;  4.0000000E+04; -1.8897747E-03;  0.0000000E+00; -1.1861193E-03;  7.3726250E+03;
  1.1000000E-01;  9.9999998E-03; -3.3000001E-01;2162;  0.0000000E+00;  0.0000000E+00;  0.0000000E+00;  1.0053098E+03;  1.0000000E-01;  4.3989868E+03;0;  0.0000000E+00;  0.0000000E+00;  0.0000000E+00;0; -4.0056873E-03;  4.0000000E+04;  0.0000000E+00;  0.0000000E+00;  4.0000000E+04;  0.0000000E+00;  4.0000000E+04; -2.6538239E-03;  0.0000000E+00; -1.3518634E-03;  8.0873970E+03;
  1.1000000E-01;  9.9999998E-03; -3.1999999E-01;2163;  0.0000000E+00;  0.0000000E+00;  0.0000000E+00;  1.0065435E+03;  1.0000000E-01;  5.4210811E+03;0;  0.0000000E+00;  0.0000000E+00;  0.0000000E+00;0; -5.0334493E-03;  4.0000000E+04;  0.0000000E+00;  0.0000000E+00;  4.0000000E+04;  0.0000000E+00;  4.0000000E+04; -3.5599130E-03;  0.0000000E+00; -1.4735361E-03;  8.8363896E+03;
  1.1000000E-01;  9.9999998E-03; -3.1000000E-01;2164;  0.0000000E+00;  0.0000000E+00;  0.0000000E+00;  1.0077970E+03;  1.0000000E-01;  6.4596689E+03;0;  0.0000000E+00;  0.0000000E+00;  0.0000000E+00;0; -6.1075641E-03;  4.0000000E+04;  0.0000000E+00;  0.0000000E+00;  4.0000000E+04;  0.0000000E+00;  4.0000000E+04; -4.5869909E-03;  0.0000000E+00; -1.5205729E-03;  9.5528564E+03;
  1.2000000E-01;  9.9999998E-03; -4.4000000E-01;2181;  0.0000000E+00;  0.0000000E+00;  0.0000000E+00;  1.0000000E+03;  1.0000000E-01;  0.0000000E+00;0;  0.0000000E+00;  0.0000000E+00;  0.0000000E+00;0; -4.8142620E-06;  4.0000000E+04;  0.0000000E+00;  0.0000000E+00;  4.0000000E+04;  0.0000000E+00;  4.0000000E+04;  1.9246254E-06;  0.0000000E+00; -6.7388874E-06;  2.3110680E+02;
  1.2000000E-01;  9.9999998E-03; -4.3000001E-01;2182;  0.0000000E+00;  0.0000000E+00;  0.0000000E+00;  1.0000621E+03;  1.0000000E-01;  5.1455334E+01;0;  0.0000000E+00;  0.0000000E+00;  0.0000000E+00;0; -1.9992720E-05;  4.0000000E+04;  0.0000000E+00;  0.0000000E+00;  4.0000000E+04;  0.0000000E+00;  4.0000000E+04;  1.7487097E-06;  0.0000000E+00; -2.1741429E-05;  6.1188837E+02;
  1.2000000E-01;  9.9999998E-03; -4.1999999E-01;2183;  0.0000000E+00;  0.0000000E+00;  0.0000000E+00;  1.0001042E+03;  1.0000000E-01;  8.6318550E+01;0;  0.0000000E+00;  0.0000000E+00;  0.0000000E+00;0; -5.9632872E-05;  4.0000000E+04;  0.0000000E+00;  0.0000000E+00;  4.0000000E+04;  0.0000000E+00;  4.0000000E+04; -5.3852423E-06;  0.0000000E+00; -5.4247630E-05;  1.2257987E+03;
  1.2000000E-01;  9.9999998E-03; -4.1000000E-01;2184;  0.0000000E+00;  0.0000000E+00;  0.0000000E+00;  1.0002251E+03;  1.0000000E-01;  1.8646387E+02;0;  0.0000000E+00;  0.0000000E+00;  0.0000000E+00;0; -1.4042655E-04;  4.0000000E+04;  0.0000000E+00;  0.0000000E+00;  4.0000000E+04;  0.0000000E+00;  4.0000000E+04; -2.9346435E-05;  0.0000000E+00; -1.1108011E-04;  2.0334249E+03;
  1.2000000E-01;  9.9999998E-03; -4.0000001E-01;2185;  0.0000000E+00;  0.0000000E+00;  0.0000000E+00;  1.0004474E+03;  1.0000000E-01;  3.7065619E+02;0;  0.0000000E+00;  0.0000000E+00;  0.0000000E+00;0; -2.8080351E-04;  4.0000000E+04;  0.0000000E+00;  0.0000000E+00;  4.0000000E+04;  0.0000000E+00;  4.0000000E+04; -8.4981883E-05;  0.0000000E+00; -1.9582163E-04;  2.9564370E+03;
  1.2000000E-01;  9.9999998E-03; -3.8999999E-01;2186;  0.0000000E+00;  0.0000000E+00;  0.0000000E+00;  1.0007318E+03;  1.0000000E-01;  6.0630383E+02;0;  0.0000000E+00;  0.0000000E+00;  0.0000000E+00;0; -5.0075713E-04;  4.0000000E+04;  0.0000000E+00;  0.0000000E+00;  4.0000000E+04;  0.0000000E+00;  4.0000000E+04; -1.9225357E-04;  0.0000000E+00; -3.0850357E-04;  3.9235447E+03;
  1.2000000E-01;  9.9999998E-03; -3.8000000E-01;2187;  0.0000000E+00;  0.0000000E+00;  0.0000000E+00;  1.0011582E+03;  1.0000000E-01;  9.5957782E+02;0;  0.0000000E+00;  0.0000000E+00;  0.0000000E+00;0; -8.2189712E-04;  4.0000000E+04;  0.0000000E+00;  0.0000000E+00;  4.0000000E+04;  0.0000000E+00;  4.0000000E+04; -3.7549625E-04;  0.0000000E+00; -4.4640087E-04;  4.9042671E+03;
  1.2000000E-01;  9.9999998E-03; -3.7000000E-01;2188;  0.0000000E+00;  0.0000000E+00;  0.0000000E+00;  1.0017387E+03;  1.0000000E-01;  1.4404531E+03;0;  0.0000000E+00;  0.0000000E+00;  0.0000000E+00;0; -1.2662425E-03;  4.0000000E+04;  0.0000000E+00;  0.0000000E+00;  4.0000000E+04;  0.0000000E+00;  4.0000000E+04; -6.6147198E-04;  0.0000000E+00; -6.0477044E-04;  5.9264639E+03;
  1.2000000E-01;  9.9999998E-03; -3.6000001E-01;2189;  0.0000000E+00;  0.0000000E+00;  0.0000000E+00;  1.0024725E+03;  1.0000000E-01;  2.0484358E+03;0;  0.0000000E+00;  0.0000000E+00;  0.0000000E+00;0; -1.8532102E-03;  4.0000000E+04;  0.0000000E+00;  0.0000000E+00;  4.0000000E+04;  0.0000000E+00;  4.0000000E+04; -1.0761551E-03;  0.0000000E+00; -7.7705504E-04;  7.0812441E+03;
  1.2000000E-01;  9.9999998E-03; -3.4999999E-01;2190;  0.0000000E+00;  0.0000000E+00;  0.0000000E+00;  1.0033932E+03;  1.0000000E-01;  2.8111797E+03;0;  0.0000000E+00;  0.0000000E+00;  0.0000000E+00;0; -2.5950319E-03;  4.0000000E+04;  0.0000000E+00;  0.0000000E+00;  4.0000000E+04;  0.0000000E+00;  4.0000000E+04; -1.6405080E-03;  0.0000000E+00; -9.5452397E-04;  8.5019229E+03;
  1.2000000E-01;  9.9999998E-03; -3.4000000E-01;2191;  0.0000000E+00;  0.0000000E+00;  0.0000000E+00;  1.0044713E+03;  1.0000000E-01;  3.7043892E+03;0;  0.0000000E+00;  0.0000000E+00;  0.0000000E+00;0; -3.4913598E-03;  4.0000000E+04;  0.0000000E+00;  0.0000000E+00;  4.0000000E+04;  0.0000000E+00;  4.0000000E+04; -2.3660227E-03;  0.0000000E+00; -1.1253370E-03;  1.0295535E+04;
  1.2000000E-01;  9.9999998E-03; -3.3000001E-01;2192;  0.0000000E+00;  0.0000000E+00;  0.0000000E+00;  1.0056843E+03;  1.0000000E-01;  4.7092988E+03;0;  0.0000000E+00;  0.0000000E+00;  0.0000000E+00;0; -4.5243679E-03;  4.0000000E+04;  0.0000000E+00;  0.0000000E+00;  4.0000000E+04;  0.0000000E+00;  4.0000000E+04; -3.2511288E-03;  0.0000000E+00; -1.2732390E-03;  1.2440935E+04;
  1.2000000E-01;  9.9999998E-03; -3.1999999E-01;2193;  0.0000000E+00;  0.0000000E+00;  0.0000000E+00;  1.0069742E+03;  1.0000000E-01;  5.7780093E+03;0;  0.0000000E+00;  0.0000000E+00;  0.0000000E+00;0; -5.6557721E-03;  4.0000000E+04;  0.0000000E+00;  0.0000000E+00;  4.0000000E+04;  0.0000000E+00;  4.0000000E+04; -4.2793429E-03;  0.0000000E+00; -1.3764289E-03;  1.4714688E+04;
  1.2000000E-01;  9.9999998E-03; -3.1000000E-01;2194;  0.0000000E+00;  0.0000000E+00;  0.0000000E+00;  1.0082642E+03;  1.0000000E-01;  6.8467197E+03;0;  0.0000000E+00;  0.0000000E+00;  0.0000000E+00;0; -6.8272394E-03;  4.0000000E+04;  0.0000000E+00;  0.0000000E+00;  4.0000000E+04;  0.0000000E+00;  4.0000000E+04; -5.4197144E-03;  0.0000000E+00; -1.4075252E-03;  1.6703441E+04;
  1.3000000E-01;  9.9999998E-03; -4.4000000E-01;2211;  0.0000000E+00;  0.0000000E+00;  0.0000000E+00;  1.0000000E+03;  1.0000000E-01;  0.0000000E+00;0;  0.0000000E+00;  0.0000000E+00;  0.0000000E+00;0; -5.0949088E-06;  4.0000000E+04;  0.0000000E+00;  0.0000000E+00;  4.0000000E+04;  0.0000000E+00;  4.0000000E+04; -6.8614361E-07;  0.0000000E+00; -4.4087651E-06;  3.6486005E+02;
  1.3000000E-01;  9.9999998E-03; -4.3000001E-01;2212;  0.0000000E+00;  0.0000000E+00;  0.0000000E+00;  1.0000629E+03;  1.0000000E-01;  5.2146675E+01;0;  0.0000000E+00;  0.0000000E+00;  0.0000000E+00;0; -2.3672712E-05;  4.0000000E+04;  0.0000000E+00;  0.0000000E+00;  4.0000000E+04;  0.0000000E+00;  4.0000000E+04; -6.1243450E-06;  0.0000000E+00; -1.7548367E-05;  8.9297015E+02;
  1.3000000E-01;  9.9999998E-03; -4.1999999E-01;2213;  0.0000000E+00;  0.0000000E+00;  0.0000000E+00;  1.0001001E+03;  1.0000000E-01;  8.2960617E+01;0;  0.0000000E+00;  0.0000000E+00;  0.0000000E+00;0; -7.1607443E-05;  4.0000000E+04;  0.0000000E+00;  0.0000000E+00;  4.0000000E+04;  0.0000000E+00;  4.0000000E+04; -2.3778925E-05;  0.0000000E+00; -4.7828515E-05;  1.6650763E+03;
  1.3000000E-01;  9.9999998E-03; -4.1000000E-01;2214;  0.0000000E+00;  0.0000000E+00;  0.0000000E+00;  1.0002534E+03;  1.0000000E-01;  2.0987061E+02;0;  0.0000000E+00;  0.0000000E+00;  0.0000000E+00;0; -1.6799792E-04;  4.0000000E+04;  0.0000000E+00;  0.0000000E+00;  4.0000000E+04;  0.0000000E+00;  4.0000000E+04; -6.6176501E-05;  0.0000000E+00; -1.0182142E-04;  2.5805054E+03;
  1.3000000E-01;  9.9999998E-03; -4.0000001E-01;2215;  0.0000000E+00;  0.0000000E+00;  0.0000000E+00;  1.0004830E+03;  1.0000000E-01;  4.0018622E+02;0;  0.0000000E+00;  0.0000000E+00;  0.0000000E+00;0; -3.3399888E-04;  4.0000000E+04;  0.0000000E+00;  0.0000000E+00;  4.0000000E+04;  0.0000000E+00;  4.0000000E+04; -1.5137199E-04;  0.0000000E+00; -1.8262687E-04;  3.5208801E+03;
  1.3000000E-01;  9.9999998E-03; -3.8999999E-01;2216;  0.0000000E+00;  0.0000000E+00;  0.0000000E+00;  1.0008013E+03;  1.0000000E-01;  6.6388245E+02;0;  0.0000000E+00;  0.0000000E+00;  0.0000000E+00;0; -5.9257261E-04;  4.0000000E+04;  0.0000000E+00;  0.0000000E+00;  4.0000000E+04;  0.0000000E+00;  4.0000000E+04; -3.0289005E-04;  0.0000000E+00; -2.8968253E-04;  4.4368037E+03;
  1.3000000E-01;  9.9999998E-03; -3.8000000E-01;2217;  0.0000000E+00;  0.0000000E+00;  0.0000000E+00;  1.0012818E+03;  1.0000000E-01;  1.0619946E+03;0;  0.0000000E+00;  0.0000000E+00;  0.0000000E+00;0; -9.6826570E-04;  4.0000000E+04;  0.0000000E+00;  0.0000000E+00;  4.0000000E+04;  0.0000000E+00;  4.0000000E+04; -5.4853852E-04;  0.0000000E+00; -4.1972721E-04;  5.4190918E+03;
  1.3000000E-01;  9.9999998E-03; -3.7000000E-01;2218;  0.0000000E+00;  0.0000000E+00;  0.0000000E+00;  1.0019196E+03;  1.0000000E-01;  1.5902760E+03;0;  0.0000000E+00;  0.0000000E+00;  0.0000000E+00;0; -1.4853571E-03;  4.0000000E+04;  0.0000000E+00;  0.0000000E+00;  4.0000000E+04;  0.0000000E+00;  4.0000000E+04; -9.1776857E-04;  0.0000000E+00; -5.6758849E-04;  6.7253579E+03;
  1.3000000E-01;  9.9999998E-03; -3.6000001E-01;2219;  0.0000000E+00;  0.0000000E+00;  0.0000000E+00;  1.0027430E+03;  1.0000000E-01;  2.2725283E+03;0;  0.0000000E+00;  0.0000000E+00;  0.0000000E+00;0; -2.1639583E-03;  4.0000000E+04;  0.0000000E+00;  0.0000000E+00;  4.0000000E+04;  0.0000000E+00;  4.0000000E+04; -1.4375520E-03;  0.0000000E+00; -7.2640623E-04;  8.6958662E+03;
  1.3000000E-01;  9.9999998E-03; -3.4999999E-01;2220;  0.0000000E+00;  0.0000000E+00;  0.0000000E+00;  1.0037443E+03;  1.0000000E-01;  3.1021345E+03;0;  0.0000000E+00;  0.0000000E+00;  0.0000000E+00;0; -3.0145401E-03;  4.0000000E+04;  0.0000000E+00;  0.0000000E+00;  4.0000000E+04;  0.0000000E+00;  4.0000000E+04; -2.1272358E-03;  0.0000000E+00; -8.8730431E-04;  1.1560505E+04;
  1.3000000E-01;  9.9999998E-03; -3.4000000E-01;2221;  0.0000000E+00;  0.0000000E+00;  0.0000000E+00;  1.0049188E+03;  1.0000000E-01;  4.0751440E+03;0;  0.0000000E+00;  0.0000000E+00;  0.0000000E+00;0; -4.0321075E-03;  4.0000000E+04;  0.0000000E+00;  0.0000000E+00;  4.0000000E+04;  0.0000000E+00;  4.0000000E+04; -2.9935269E-03;  0.0000000E+00; -1.0385806E-03;  1.5289764E+04;
  1.3000000E-01;  9.9999998E-03; -3.3000001E-01;2222;  0.0000000E+00;  0.0000000E+00;  0.0000000E+00;  1.0062243E+03;  1.0000000E-01;  5.1566938E+03;0;  0.0000000E+00;  0.0000000E+00;  0.0000000E+00;0; -5.1915990E-03;  4.0000000E+04;  0.0000000E+00;  0.0000000E+00;  4.0000000E+04;  0.0000000E+00;  4.0000000E+04; -4.0268879E-03;  0.0000000E+00; -1.1647111E-03;  1.9557777E+04;
  1.3000000E-01;  9.9999998E-03; -3.1999999E-01;2223;  0.0000000E+00;  0.0000000E+00;  0.0000000E+00;  1.0075898E+03;  1.0000000E-01;  6.2880195E+03;0;  0.0000000E+00;  0.0000000E+00;  0.0000000E+00;0; -6.4460761E-03;  4.0000000E+04;  0.0000000E+00;  0.0000000E+00;  4.0000000E+04;  0.0000000E+00;  4.0000000E+04; -5.2002757E-03;  0.0000000E+00; -1.2458005E-03;  2.3760504E+04;
  1.3000000E-01;  9.9999998E-03; -3.1000000E-01;2224;  0.0000000E+00;  0.0000000E+00;  0.0000000E+00;  1.0089345E+03;  1.0000000E-01;  7.4020625E+03;0;  0.0000000E+00;  0.0000000E+00;  0.0000000E+00;0; -7.7290097E-03;  4.0000000E+04;  0.0000000E+00;  0.0000000E+00;  4.0000000E+04;  0.0000000E+00;  4.0000000E+04; -6.4704749E-03;  0.0000000E+00; -1.2585348E-03;  2.7101297E+04;
  1.4000000E-01;  9.9999998E-03; -4.4000000E-01;2241;  0.0000000E+00;  0.0000000E+00;  0.0000000E+00;  1.0000000E+03;  1.0000000E-01;  0.0000000E+00;0;  0.0000000E+00;  0.0000000E+00;  0.0000000E+00;0; -6.3776902E-06;  4.0000000E+04;  0.0000000E+00;  0.0000000E+00;  4.0000000E+04;  0.0000000E+00;  4.0000000E+04; -4.3672935E-06;  0.0000000E+00; -2.0103967E-06;  6.1027924E+02;
  1.4000000E-01;  9.9999998E-03; -4.3000001E-01;2242;  0.0000000E+00;  0.0000000E+00;  0.0000000E+00;  1.0000658E+03;  1.0000000E-01;  5.4516975E+01;0;  0.0000000E+00;  0.0000000E+00;  0.0000000E+00;0; -2.9770696E-05;  4.0000000E+04;  0.0000000E+00;  0.0000000E+00;  4.0000000E+04;  0.0000000E+00;  4.0000000E+04; -1.6862206E-05;  0.0000000E+00; -1.2908489E-05;  1.4093112E+03;
  1.4000000E-01;  9.9999998E-03; -4.1999999E-01;2243;  0.0000000E+00;  0.0000000E+00;  0.0000000E+00;  1.0001072E+03;  1.0000000E-01;  8.8886375E+01;0;  0.0000000E+00;  0.0000000E+00;  0.0000000E+00;0; -8.8589848E-05;  4.0000000E+04;  0.0000000E+00;  0.0000000E+00;  4.0000000E+04;  0.0000000E+00;  4.0000000E+04; -4.8326780E-05;  0.0000000E+00; -4.0263065E-05;  2.4578418E+03;
  1.4000000E-01;  9.9999998E-03; -4.1000000E-01;2244;  0.0000000E+00;  0.0000000E+00;  0.0000000E+00;  1.0002935E+03;  1.0000000E-01;  2.4315361E+02;0;  0.0000000E+00;  0.0000000E+00;  0.0000000E+00;0; -2.0500729E-04;  4.0000000E+04;  0.0000000E+00;  0.0000000E+00;  4.0000000E+04;  0.0000000E+00;  4.0000000E+04; -1.1455999E-04;  0.0000000E+00; -9.0447298E-05;  3.5166877E+03;
  1.4000000E-01;  9.9999998E-03; -4.0000001E-01;2245;  0.0000000E+00;  0.0000000E+00;  0.0000000E+00;  1.0005340E+03;  1.0000000E-01;  4.4235785E+02;0;  0.0000000E+00;  0.0000000E+00;  0.0000000E+00;0; -4.0368346E-04;  4.0000000E+04;  0.0000000E+00;  0.0000000E+00;  4.0000000E+04;  0.0000000E+00;  4.0000000E+04; -2.3757532E-04;  0.0000000E+00; -1.6610813E-04;  4.3596089E+03;
  1.4000000E-01;  9.9999998E-03; -3.8999999E-01;2246;  0.0000000E+00;  0.0000000E+00;  0.0000000E+00;  1.0009163E+03;  1.0000000E-01;  7.5908966E+02;0;  0.0000000E+00;  0.0000000E+00;  0.0000000E+00;0; -7.1136293E-04;  4.0000000E+04;  0.0000000E+00;  0.0000000E+00;  4.0000000E+04;  0.0000000E+00;  4.0000000E+04; -4.4521815E-04;  0.0000000E+00; -2.6614475E-04;  4.9688745E+03;
  1.4000000E-01;  9.9999998E-03; -3.8000000E-01;2247;  0.0000000E+00;  0.0000000E+00;  0.0000000E+00;  1.0014579E+03;  1.0000000E-01;  1.2078671E+03;0;  0.0000000E+00;  0.0000000E+00;  0.0000000E+00;0; -1.1560820E-03;  4.0000000E+04;  0.0000000E+00;  0.0000000E+00;  4.0000000E+04;  0.0000000E+00;  4.0000000E+04; -7.6929032E-04;  0.0000000E+00; -3.8679171E-04;  5.7732529E+03;
  1.4000000E-01;  9.9999998E-03; -3.7000000E-01;2248;  0.0000000E+00;  0.0000000E+00;  0.0000000E+00;  1.0021746E+03;  1.0000000E-01;  1.8016281E+03;0;  0.0000000E+00;  0.0000000E+00;  0.0000000E+00;0; -1.7644011E-03;  4.0000000E+04;  0.0000000E+00;  0.0000000E+00;  4.0000000E+04;  0.0000000E+00;  4.0000000E+04; -1.2418822E-03;  0.0000000E+00; -5.2251882E-04;  7.6567119E+03;
  1.4000000E-01;  9.9999998E-03; -3.6000001E-01;2249;  0.0000000E+00;  0.0000000E+00;  0.0000000E+00;  1.0030947E+03;  1.0000000E-01;  2.5638782E+03;0;  0.0000000E+00;  0.0000000E+00;  0.0000000E+00;0; -2.5563613E-03;  4.0000000E+04;  0.0000000E+00;  0.0000000E+00;  4.0000000E+04;  0.0000000E+00;  4.0000000E+04; -1.8900889E-03;  0.0000000E+00; -6.6627242E-04;  1.1260020E+04;
  1.4000000E-01;  9.9999998E-03; -3.4999999E-01;2250;  0.0000000E+00;  0.0000000E+00;  0.0000000E+00;  1.0042150E+03;  1.0000000E-01;  3.4920493E+03;0;  0.0000000E+00;  0.0000000E+00;  0.0000000E+00;0; -3.5389750E-03;  4.0000000E+04;  0.0000000E+00;  0.0000000E+00;  4.0000000E+04;  0.0000000E+00;  4.0000000E+04; -2.7298273E-03;  0.0000000E+00; -8.0914784E-04;  1.6548719E+04;
  1.4000000E-01;  9.9999998E-03; -3.4000000E-01;2251;  0.0000000E+00;  0.0000000E+00;  0.0000000E+00;  1.0055062E+03;  1.0000000E-01;  4.5618462E+03;0;  0.0000000E+00;  0.0000000E+00;  0.0000000E+00;0; -4.6999883E-03;  4.0000000E+04;  0.0000000E+00;  0.0000000E+00;  4.0000000E+04;  0.0000000E+00;  4.0000000E+04; -3.7602801E-03;  0.0000000E+00; -9.3970803E-04;  2.3071609E+04;
  1.4000000E-01;  9.9999998E-03; -3.3000001E-01;2252;  0.0000000E+00;  0.0000000E+00;  0.0000000E+00;  1.0069186E+03;  1.0000000E-01;  5.7318872E+03;0;  0.0000000E+00;  0.0000000E+00;  0.0000000E+00;0; -6.0039544E-03;  4.0000000E+04;  0.0000000E+00;  0.0000000E+00;  4.0000000E+04;  0.0000000E+00;  4.0000000E+04; -4.9606767E-03;  0.0000000E+00; -1.0432779E-03;  3.0072314E+04;
  1.4000000E-01;  9.9999998E-03; -3.1999999E-01;2253;  0.0000000E+00;  0.0000000E+00;  0.0000000E+00;  1.0083714E+03;  1.0000000E-01;  6.9355073E+03;0;  0.0000000E+00;  0.0000000E+00;  0.0000000E+00;0; -7.3921173E-03;  4.0000000E+04;  0.0000000E+00;  0.0000000E+00;  4.0000000E+04;  0.0000000E+00;  4.0000000E+04; -6.2902300E-03;  0.0000000E+00; -1.1018872E-03;  3.6492695E+04;
  1.4000000E-01;  9.9999998E-03; -3.1000000E-01;2254;  0.0000000E+00;  0.0000000E+00;  0.0000000E+00;  1.0097750E+03;  1.0000000E-01;  8.0983389E+03;0;  0.0000000E+00;  0.0000000E+00;  0.0000000E+00;0; -8.7872166E-03;  4.0000000E+04;  0.0000000E+00;  0.0000000E+00;  4.0000000E+04;  0.0000000E+00;  4.0000000E+04; -7.6912157E-03;  0.0000000E+00; -1.0960012E-03;  4.1104188E+04;
  1.5000001E-01;  9.9999998E-03; -4.4000000E-01;2271;  0.0000000E+00;  0.0000000E+00;  0.0000000E+00;  1.0000000E+03;  1.0000000E-01;  0.0000000E+00;0;  0.0000000E+00;  0.0000000E+00;  0.0000000E+00;0; -8.9172172E-06;  4.0000000E+04;  0.0000000E+00;  0.0000000E+00;  4.0000000E+04;  0.0000000E+00;  4.0000000E+04; -8.9291088E-06;  0.0000000E+00;  1.1891460E-08;  1.0470680E+03;
  1.5000001E-01;  9.9999998E-03; -4.3000001E-01;2272;  0.0000000E+00;  0.0000000E+00;  0.0000000E+00;  1.0000737E+03;  1.0000000E-01;  6.1035313E+01;0;  0.0000000E+00;  0.0000000E+00;  0.0000000E+00;0; -3.8762930E-05;  4.0000000E+04;  0.0000000E+00;  0.0000000E+00;  4.0000000E+04;  0.0000000E+00;  4.0000000E+04; -3.0002426E-05;  0.0000000E+00; -8.7605031E-06;  2.3291838E+03;
  1.5000001E-01;  9.9999998E-03; -4.1999999E-01;2273;  0.0000000E+00;  0.0000000E+00;  0.0000000E+00;  1.0001195E+03;  1.0000000E-01;  9.8960167E+01;0;  0.0000000E+00;  0.0000000E+00;  0.0000000E+00;0; -1.1139925E-04;  4.0000000E+04;  0.0000000E+00;  0.0000000E+00;  4.0000000E+04;  0.0000000E+00;  4.0000000E+04; -7.8115125E-05;  0.0000000E+00; -3.3284130E-05;  3.8729333E+03;
  1.5000001E-01;  9.9999998E-03; -4.1000000E-01;2274;  0.0000000E+00;  0.0000000E+00;  0.0000000E+00;  1.0003325E+03;  1.0000000E-01;  2.7544901E+02;0;  0.0000000E+00;  0.0000000E+00;  0.0000000E+00;0; -2.5263682E-04;  4.0000000E+04;  0.0000000E+00;  0.0000000E+00;  4.0000000E+04;  0.0000000E+00;  4.0000000E+04; -1.7286569E-04;  0.0000000E+00; -7.9771125E-05;  5.1890845E+03;
  1.5000001E-01;  9.9999998E-03; -4.0000001E-01;2275;  0.0000000E+00;  0.0000000E+00;  0.0000000E+00;  1.0006237E+03;  1.0000000E-01;  5.1672614E+02;0;  0.0000000E+00;  0.0000000E+00;  0.0000000E+00;0; -4.9123017E-04;  4.0000000E+04;  0.0000000E+00;  0.0000000E+00;  4.0000000E+04;  0.0000000E+00;  4.0000000E+04; -3.4080696E-04;  0.0000000E+00; -1.5042319E-04;  5.8191533E+03;
  1.5000001E-01;  9.9999998E-03; -3.8999999E-01;2276;  0.0000000E+00;  0.0000000E+00;  0.0000000E+00;  1.0010576E+03;  1.0000000E-01;  8.7612335E+02;0;  0.0000000E+00;  0.0000000E+00;  0.0000000E+00;0; -8.5823389E-04;  4.0000000E+04;  0.0000000E+00;  0.0000000E+00;  4.0000000E+04;  0.0000000E+00;  4.0000000E+04; -6.1466481E-04;  0.0000000E+00; -2.4356908E-04;  5.6934385E+03;
  1.5000001E-01;  9.9999998E-03; -3.8000000E-01;2277;  0.0000000E+00;  0.0000000E+00;  0.0000000E+00;  1.0016732E+03;  1.0000000E-01;  1.3862324E+03;0;  0.0000000E+00;  0.0000000E+00;  0.0000000E+00;0; -1.3855412E-03;  4.0000000E+04;  0.0000000E+00;  0.0000000E+00;  4.0000000E+04;  0.0000000E+00;  4.0000000E+04; -1.0305680E-03;  0.0000000E+00; -3.5497308E-04;  5.9224478E+03;
  1.5000001E-01;  9.9999998E-03; -3.7000000E-01;2278;  0.0000000E+00;  0.0000000E+00;  0.0000000E+00;  1.0024948E+03;  1.0000000E-01;  2.0668057E+03;0;  0.0000000E+00;  0.0000000E+00;  0.0000000E+00;0; -2.1018398E-03;  4.0000000E+04;  0.0000000E+00;  0.0000000E+00;  4.0000000E+04;  0.0000000E+00;  4.0000000E+04; -1.6230061E-03;  0.0000000E+00; -4.7883368E-04;  8.9436074E+03;
  1.5000001E-01;  9.9999998E-03; -3.6000001E-01;2279;  0.0000000E+00;  0.0000000E+00;  0.0000000E+00;  1.0035356E+03;  1.0000000E-01;  2.9292012E+03;0;  0.0000000E+00;  0.0000000E+00;  0.0000000E+00;0; -3.0260608E-03;  4.0000000E+04;  0.0000000E+00;  0.0000000E+00;  4.0000000E+04;  0.0000000E+00;  4.0000000E+04; -2.4180487E-03;  0.0000000E+00; -6.0801196E-04;  1.5276587E+04;
  1.5000001E-01;  9.9999998E-03; -3.4999999E-01;2280;  0.0000000E+00;  0.0000000E+00;  0.0000000E+00;  1.0047863E+03;  1.0000000E-01;  3.9654187E+03;0;  0.0000000E+00;  0.0000000E+00;  0.0000000E+00;0; -4.1596382E-03;  4.0000000E+04;  0.0000000E+00;  0.0000000E+00;  4.0000000E+04;  0.0000000E+00;  4.0000000E+04; -3.4259306E-03;  0.0000000E+00; -7.3370757E-04;  2.4007334E+04;
  1.5000001E-01;  9.9999998E-03; -3.4000000E-01;2281;  0.0000000E+00;  0.0000000E+00;  0.0000000E+00;  1.0062001E+03;  1.0000000E-01;  5.1366450E+03;0;  0.0000000E+00;  0.0000000E+00;  0.0000000E+00;0; -5.4800729E-03;  4.0000000E+04;  0.0000000E+00;  0.0000000E+00;  4.0000000E+04;  0.0000000E+00;  4.0000000E+04; -4.6351748E-03;  0.0000000E+00; -8.4489823E-04;  3.4154254E+04;
  1.5000001E-01;  9.9999998E-03; -3.3000001E-01;2282;  0.0000000E+00;  0.0000000E+00;  0.0000000E+00;  1.0077254E+03;  1.0000000E-01;  6.4003130E+03;0;  0.0000000E+00;  0.0000000E+00;  0.0000000E+00;0; -6.9381241E-03;  4.0000000E+04;  0.0000000E+00;  0.0000000E+00;  4.0000000E+04;  0.0000000E+00;  4.0000000E+04; -6.0102465E-03;  0.0000000E+00; -9.2787779E-04;  4.4454980E+04;
  1.5000001E-01;  9.9999998E-03; -3.1999999E-01;2283;  0.0000000E+00;  0.0000000E+00;  0.0000000E+00;  1.0092654E+03;  1.0000000E-01;  7.6762275E+03;0;  0.0000000E+00;  0.0000000E+00;  0.0000000E+00;0; -8.4599135E-03;  4.0000000E+04;  0.0000000E+00;  0.0000000E+00;  4.0000000E+04;  0.0000000E+00;  4.0000000E+04; -7.4933902E-03;  0.0000000E+00; -9.6652372E-04;  5.3285336E+04;
  1.5000001E-01;  9.9999998E-03; -3.1000000E-01;2284;  0.0000000E+00;  0.0000000E+00;  0.0000000E+00;  1.0107172E+03;  1.0000000E-01;  8.8789590E+03;0;  0.0000000E+00;  0.0000000E+00;  0.0000000E+00;0; -9.9546053E-03;  4.0000000E+04;  0.0000000E+00;  0.0000000E+00;  4.0000000E+04;  0.0000000E+00;  4.0000000E+04; -9.0104062E-03;  0.0000000E+00; -9.4419875E-04;  5.8907340E+04;
  1.6000000E-01;  9.9999998E-03; -4.4000000E-01;2301;  0.0000000E+00;  0.0000000E+00;  0.0000000E+00;  1.0000000E+03;  1.0000000E-01;  0.0000000E+00;0;  0.0000000E+00;  0.0000000E+00;  0.0000000E+00;0; -1.2778817E-05;  4.0000000E+04;  0.0000000E+00;  0.0000000E+00;  4.0000000E+04;  0.0000000E+00;  4.0000000E+04; -1.4036100E-05;  0.0000000E+00;  1.2572829E-06;  1.7701036E+03;
  1.6000000E-01;  9.9999998E-03; -4.3000001E-01;2302;  0.0000000E+00;  0.0000000E+00;  0.0000000E+00;  1.0000867E+03;  1.0000000E-01;  7.1800438E+01;0;  0.0000000E+00;  0.0000000E+00;  0.0000000E+00;0; -5.0904138E-05;  4.0000000E+04;  0.0000000E+00;  0.0000000E+00;  4.0000000E+04;  0.0000000E+00;  4.0000000E+04; -4.4706721E-05;  0.0000000E+00; -6.1974174E-06;  3.8334329E+03;
  1.6000000E-01;  9.9999998E-03; -4.1999999E-01;2303;  0.0000000E+00;  0.0000000E+00;  0.0000000E+00;  1.0001569E+03;  1.0000000E-01;  1.2997163E+02;0;  0.0000000E+00;  0.0000000E+00;  0.0000000E+00;0; -1.4050138E-04;  4.0000000E+04;  0.0000000E+00;  0.0000000E+00;  4.0000000E+04;  0.0000000E+00;  4.0000000E+04; -1.1136398E-04;  0.0000000E+00; -2.9137391E-05;  6.1734731E+03;
  1.6000000E-01;  9.9999998E-03; -4.1000000E-01;2304;  0.0000000E+00;  0.0000000E+00;  0.0000000E+00;  1.0003960E+03;  1.0000000E-01;  3.2808948E+02;0;  0.0000000E+00;  0.0000000E+00;  0.0000000E+00;0; -3.1125182E-04;  4.0000000E+04;  0.0000000E+00;  0.0000000E+00;  4.0000000E+04;  0.0000000E+00;  4.0000000E+04; -2.3769098E-04;  0.0000000E+00; -7.3560841E-05;  7.9254746E+03;
  1.6000000E-01;  9.9999998E-03; -4.0000001E-01;2305;  0.0000000E+00;  0.0000000E+00;  0.0000000E+00;  1.0007268E+03;  1.0000000E-01;  6.0215582E+02;0;  0.0000000E+00;  0.0000000E+00;  0.0000000E+00;0; -5.9615512E-04;  4.0000000E+04;  0.0000000E+00;  0.0000000E+00;  4.0000000E+04;  0.0000000E+00;  4.0000000E+04; -4.5506060E-04;  0.0000000E+00; -1.4109451E-04;  8.2752363E+03;
  1.6000000E-01;  9.9999998E-03; -3.8999999E-01;2306;  0.0000000E+00;  0.0000000E+00;  0.0000000E+00;  1.0012258E+03;  1.0000000E-01;  1.0154775E+03;0;  0.0000000E+00;  0.0000000E+00;  0.0000000E+00;0; -1.0307208E-03;  4.0000000E+04;  0.0000000E+00;  0.0000000E+00;  4.0000000E+04;  0.0000000E+00;  4.0000000E+04; -8.0133404E-04;  0.0000000E+00; -2.2938671E-04;  6.9244839E+03;
  1.6000000E-01;  9.9999998E-03; -3.8000000E-01;2307;  0.0000000E+00;  0.0000000E+00;  0.0000000E+00;  1.0019196E+03;  1.0000000E-01;  1.5903748E+03;0;  0.0000000E+00;  0.0000000E+00;  0.0000000E+00;0; -1.6506783E-03;  4.0000000E+04;  0.0000000E+00;  0.0000000E+00;  4.0000000E+04;  0.0000000E+00;  4.0000000E+04; -1.3169991E-03;  0.0000000E+00; -3.3367926E-04;  5.8433335E+03;
  1.6000000E-01;  9.9999998E-03; -3.7000000E-01;2308;  0.0000000E+00;  0.0000000E+00;  0.0000000E+00;  1.0028431E+03;  1.0000000E-01;  2.3554890E+03;0;  0.0000000E+00;  0.0000000E+00;  0.0000000E+00;0; -2.4864376E-03;  4.0000000E+04;  0.0000000E+00;  0.0000000E+00;  4.0000000E+04;  0.0000000E+00;  4.0000000E+04; -2.0385073E-03;  0.0000000E+00; -4.4793042E-04;  1.0829330E+04;
  1.6000000E-01;  9.9999998E-03; -3.6000001E-01;2309;  0.0000000E+00;  0.0000000E+00;  0.0000000E+00;  1.0040102E+03;  1.0000000E-01;  3.3223752E+03;0;  0.0000000E+00;  0.0000000E+00;  0.0000000E+00;0; -3.5547004E-03;  4.0000000E+04;  0.0000000E+00;  0.0000000E+00;  4.0000000E+04;  0.0000000E+00;  4.0000000E+04; -2.9897005E-03;  0.0000000E+00; -5.6499976E-04;  2.1013453E+04;
  1.6000000E-01;  9.9999998E-03; -3.4999999E-01;2310;  0.0000000E+00;  0.0000000E+00;  0.0000000E+00;  1.0053894E+03;  1.0000000E-01;  4.4650591E+03;0;  0.0000000E+00;  0.0000000E+00;  0.0000000E+00;0; -4.8493678E-03;  4.0000000E+04;  0.0000000E+00;  0.0000000E+00;  4.0000000E+04;  0.0000000E+00;  4.0000000E+04; -4.1730991E-03;  0.0000000E+00; -6.7626883E-04;  3.4142684E+04;
  1.6000000E-01;  9.9999998E-03; -3.4000000E-01;2311;  0.0000000E+00;  0.0000000E+00;  0.0000000E+00;  1.0069363E+03;  1.0000000E-01;  5.7466030E+03;0;  0.0000000E+00;  0.0000000E+00;  0.0000000E+00;0; -6.3350452E-03;  4.0000000E+04;  0.0000000E+00;  0.0000000E+00;  4.0000000E+04;  0.0000000E+00;  4.0000000E+04; -5.5639087E-03;  0.0000000E+00; -7.7113655E-04;  4.8717859E+04;
  1.6000000E-01;  9.9999998E-03; -3.3000001E-01;2312;  0.0000000E+00;  0.0000000E+00;  0.0000000E+00;  1.0085659E+03;  1.0000000E-01;  7.0966880E+03;0;  0.0000000E+00;  0.0000000E+00;  0.0000000E+00;0; -7.9458030E-03;  4.0000000E+04;  0.0000000E+00;  0.0000000E+00;  4.0000000E+04;  0.0000000E+00;  4.0000000E+04; -7.1090227E-03;  0.0000000E+00; -8.3678006E-04;  6.2855969E+04;
  1.6000000E-01;  9.9999998E-03; -3.1999999E-01;2313;  0.0000000E+00;  0.0000000E+00;  0.0000000E+00;  1.0101852E+03;  1.0000000E-01;  8.4382803E+03;0;  0.0000000E+00;  0.0000000E+00;  0.0000000E+00;0; -9.5902802E-03;  4.0000000E+04;  0.0000000E+00;  0.0000000E+00;  4.0000000E+04;  0.0000000E+00;  4.0000000E+04; -8.7316353E-03;  0.0000000E+00; -8.5864525E-04;  7.4224555E+04;
  1.6000000E-01;  9.9999998E-03; -3.1000000E-01;2314;  0.0000000E+00;  0.0000000E+00;  0.0000000E+00;  1.0116588E+03;  1.0000000E-01;  9.6590850E+03;0;  0.0000000E+00;  0.0000000E+00;  0.0000000E+00;0; -1.1162418E-02;  4.0000000E+04;  0.0000000E+00;  0.0000000E+00;  4.0000000E+04;  0.0000000E+00;  4.0000000E+04; -1.0340278E-02;  0.0000000E+00; -8.2213996E-04;  8.0485031E+04;
  1.7000000E-01;  9.9999998E-03; -4.4000000E-01;2331;  0.0000000E+00;  0.0000000E+00;  0.0000000E+00;  1.0000000E+03;  1.0000000E-01;  0.0000000E+00;0;  0.0000000E+00;  0.0000000E+00;  0.0000000E+00;0; -1.7957520E-05;  4.0000000E+04;  0.0000000E+00;  0.0000000E+00;  4.0000000E+04;  0.0000000E+00;  4.0000000E+04; -1.9227682E-05;  0.0000000E+00;  1.2701616E-06;  2.8838770E+03;
  1.7000000E-01;  9.9999998E-03; -4.3000001E-01;2332;  0.0000000E+00;  0.0000000E+00;  0.0000000E+00;  1.0000942E+03;  1.0000000E-01;  7.8022484E+01;0;  0.0000000E+00;  0.0000000E+00;  0.0000000E+00;0; -6.6390123E-05;  4.0000000E+04;  0.0000000E+00;  0.0000000E+00;  4.0000000E+04;  0.0000000E+00;  4.0000000E+04; -5.9751696E-05;  0.0000000E+00; -6.6384282E-06;  6.0936860E+03;
  1.7000000E-01;  9.9999998E-03; -4.1999999E-01;2333;  0.0000000E+00;  0.0000000E+00;  0.0000000E+00;  1.0002234E+03;  1.0000000E-01;  1.8508119E+02;0;  0.0000000E+00;  0.0000000E+00;  0.0000000E+00;0; -1.7610946E-04;  4.0000000E+04;  0.0000000E+00;  0.0000000E+00;  4.0000000E+04;  0.0000000E+00;  4.0000000E+04; -1.4531176E-04;  0.0000000E+00; -3.0797702E-05;  9.5630918E+03;
  1.7000000E-01;  9.9999998E-03; -4.1000000E-01;2334;  0.0000000E+00;  0.0000000E+00;  0.0000000E+00;  1.0004537E+03;  1.0000000E-01;  3.7589059E+02;0;  0.0000000E+00;  0.0000000E+00;  0.0000000E+00;0; -3.8028267E-04;  4.0000000E+04;  0.0000000E+00;  0.0000000E+00;  4.0000000E+04;  0.0000000E+00;  4.0000000E+04; -3.0351090E-04;  0.0000000E+00; -7.6771779E-05;  1.1924014E+04;
  1.7000000E-01;  9.9999998E-03; -4.0000001E-01;2335;  0.0000000E+00;  0.0000000E+00;  0.0000000E+00;  1.0008248E+03;  1.0000000E-01;  6.8333868E+02;0;  0.0000000E+00;  0.0000000E+00;  0.0000000E+00;0; -7.1568764E-04;  4.0000000E+04;  0.0000000E+00;  0.0000000E+00;  4.0000000E+04;  0.0000000E+00;  4.0000000E+04; -5.7043839E-04;  0.0000000E+00; -1.4524926E-04;  1.1934814E+04;
  1.7000000E-01;  9.9999998E-03; -3.8999999E-01;2336;  0.0000000E+00;  0.0000000E+00;  0.0000000E+00;  1.0013859E+03;  1.0000000E-01;  1.1482145E+03;0;  0.0000000E+00;  0.0000000E+00;  0.0000000E+00;0; -1.2219372E-03;  4.0000000E+04;  0.0000000E+00;  0.0000000E+00;  4.0000000E+04;  0.0000000E+00;  4.0000000E+04; -9.8900730E-04;  0.0000000E+00; -2.3292999E-04;  8.9650596E+03;
  1.7000000E-01;  9.9999998E-03; -3.8000000E-01;2337;  0.0000000E+00;  0.0000000E+00;  0.0000000E+00;  1.0021578E+03;  1.0000000E-01;  1.7877025E+03;0;  0.0000000E+00;  0.0000000E+00;  0.0000000E+00;0; -1.9382595E-03;  4.0000000E+04;  0.0000000E+00;  0.0000000E+00;  4.0000000E+04;  0.0000000E+00;  4.0000000E+04; -1.6038353E-03;  0.0000000E+00; -3.3442423E-04;  5.5424990E+03;
  1.7000000E-01;  9.9999998E-03; -3.7000000E-01;2338;  0.0000000E+00;  0.0000000E+00;  0.0000000E+00;  1.0031874E+03;  1.0000000E-01;  2.6407153E+03;0;  0.0000000E+00;  0.0000000E+00;  0.0000000E+00;0; -2.8962367E-03;  4.0000000E+04;  0.0000000E+00;  0.0000000E+00;  4.0000000E+04;  0.0000000E+00;  4.0000000E+04; -2.4528180E-03;  0.0000000E+00; -4.4341863E-04;  1.3382832E+04;
  1.7000000E-01;  9.9999998E-03; -3.6000001E-01;2339;  0.0000000E+00;  0.0000000E+00;  0.0000000E+00;  1.0044487E+03;  1.0000000E-01;  3.6857229E+03;0;  0.0000000E+00;  0.0000000E+00;  0.0000000E+00;0; -4.1094641E-03;  4.0000000E+04;  0.0000000E+00;  0.0000000E+00;  4.0000000E+04;  0.0000000E+00;  4.0000000E+04; -3.5567135E-03;  0.0000000E+00; -5.5275054E-04;  2.8316113E+04;
  1.7000000E-01;  9.9999998E-03; -3.4999999E-01;2340;  0.0000000E+00;  0.0000000E+00;  0.0000000E+00;  1.0059517E+03;  1.0000000E-01;  4.9308237E+03;0;  0.0000000E+00;  0.0000000E+00;  0.0000000E+00;0; -5.5630640E-03;  4.0000000E+04;  0.0000000E+00;  0.0000000E+00;  4.0000000E+04;  0.0000000E+00;  4.0000000E+04; -4.9091699E-03;  0.0000000E+00; -6.5389409E-04;  4.6642289E+04;
  1.7000000E-01;  9.9999998E-03; -3.4000000E-01;2341;  0.0000000E+00;  0.0000000E+00;  0.0000000E+00;  1.0076085E+03;  1.0000000E-01;  6.3035254E+03;0;  0.0000000E+00;  0.0000000E+00;  0.0000000E+00;0; -7.2071520E-03;  4.0000000E+04;  0.0000000E+00;  0.0000000E+00;  4.0000000E+04;  0.0000000E+00;  4.0000000E+04; -6.4707212E-03;  0.0000000E+00; -7.3643064E-04;  6.6340992E+04;
  1.7000000E-01;  9.9999998E-03; -3.3000001E-01;2342;  0.0000000E+00;  0.0000000E+00;  0.0000000E+00;  1.0093342E+03;  1.0000000E-01;  7.7332134E+03;0;  0.0000000E+00;  0.0000000E+00;  0.0000000E+00;0; -8.9575164E-03;  4.0000000E+04;  0.0000000E+00;  0.0000000E+00;  4.0000000E+04;  0.0000000E+00;  4.0000000E+04; -8.1695672E-03;  0.0000000E+00; -7.8794913E-04;  8.4789828E+04;
  1.7000000E-01;  9.9999998E-03; -3.1999999E-01;2343;  0.0000000E+00;  0.0000000E+00;  0.0000000E+00;  1.0110008E+03;  1.0000000E-01;  9.1139150E+03;0;  0.0000000E+00;  0.0000000E+00;  0.0000000E+00;0; -1.0704221E-02;  4.0000000E+04;  0.0000000E+00;  0.0000000E+00;  4.0000000E+04;  0.0000000E+00;  4.0000000E+04; -9.9095190E-03;  0.0000000E+00; -7.9470256E-04;  9.8815562E+04;
  1.7000000E-01;  9.9999998E-03; -3.1000000E-01;2344;  0.0000000E+00;  0.0000000E+00;  0.0000000E+00;  1.0124795E+03;  1.0000000E-01;  1.0339065E+04;0;  0.0000000E+00;  0.0000000E+00;  0.0000000E+00;0; -1.2326372E-02;  4.0000000E+04;  0.0000000E+00;  0.0000000E+00;  4.0000000E+04;  0.0000000E+00;  4.0000000E+04; -1.1583104E-02;  0.0000000E+00; -7.4326823E-04;  1.0537902E+05;
  1.8000001E-01;  9.9999998E-03; -4.4000000E-01;2361;  0.0000000E+00;  0.0000000E+00;  0.0000000E+00;  1.0000000E+03;  1.0000000E-01;  0.0000000E+00;0;  0.0000000E+00;  0.0000000E+00;  0.0000000E+00;0; -2.4686280E-05;  4.0000000E+04;  0.0000000E+00;  0.0000000E+00;  4.0000000E+04;  0.0000000E+00;  4.0000000E+04; -2.3996536E-05;  0.0000000E+00; -6.8974458E-07;  4.4788706E+03;
  1.8000001E-01;  9.9999998E-03; -4.3000001E-01;2362;  0.0000000E+00;  0.0000000E+00;  0.0000000E+00;  1.0000949E+03;  1.0000000E-01;  7.8615059E+01;0;  0.0000000E+00;  0.0000000E+00;  0.0000000E+00;0; -8.5939333E-05;  4.0000000E+04;  0.0000000E+00;  0.0000000E+00;  4.0000000E+04;  0.0000000E+00;  4.0000000E+04; -7.3705465E-05;  0.0000000E+00; -1.2233866E-05;  9.2198301E+03;
  1.8000001E-01;  9.9999998E-03; -4.1999999E-01;2363;  0.0000000E+00;  0.0000000E+00;  0.0000000E+00;  1.0002701E+03;  1.0000000E-01;  2.2379614E+02;0;  0.0000000E+00;  0.0000000E+00;  0.0000000E+00;0; -2.1908186E-04;  4.0000000E+04;  0.0000000E+00;  0.0000000E+00;  4.0000000E+04;  0.0000000E+00;  4.0000000E+04; -1.7657310E-04;  0.0000000E+00; -4.2508767E-05;  1.4106343E+04;
  1.8000001E-01;  9.9999998E-03; -4.1000000E-01;2364;  0.0000000E+00;  0.0000000E+00;  0.0000000E+00;  1.0005216E+03;  1.0000000E-01;  4.3218530E+02;0;  0.0000000E+00;  0.0000000E+00;  0.0000000E+00;0; -4.5961406E-04;  4.0000000E+04;  0.0000000E+00;  0.0000000E+00;  4.0000000E+04;  0.0000000E+00;  4.0000000E+04; -3.6349957E-04;  0.0000000E+00; -9.6114505E-05;  1.7163996E+04;
  1.8000001E-01;  9.9999998E-03; -4.0000001E-01;2365;  0.0000000E+00;  0.0000000E+00;  0.0000000E+00;  1.0009196E+03;  1.0000000E-01;  7.6185498E+02;0;  0.0000000E+00;  0.0000000E+00;  0.0000000E+00;0; -8.4692164E-04;  4.0000000E+04;  0.0000000E+00;  0.0000000E+00;  4.0000000E+04;  0.0000000E+00;  4.0000000E+04; -6.7477307E-04;  0.0000000E+00; -1.7214859E-04;  1.6726018E+04;
  1.8000001E-01;  9.9999998E-03; -3.8999999E-01;2366;  0.0000000E+00;  0.0000000E+00;  0.0000000E+00;  1.0015261E+03;  1.0000000E-01;  1.2643593E+03;0;  0.0000000E+00;  0.0000000E+00;  0.0000000E+00;0; -1.4238342E-03;  4.0000000E+04;  0.0000000E+00;  0.0000000E+00;  4.0000000E+04;  0.0000000E+00;  4.0000000E+04; -1.1578846E-03;  0.0000000E+00; -2.6594964E-04;  1.1872740E+04;
  1.8000001E-01;  9.9999998E-03; -3.8000000E-01;2367;  0.0000000E+00;  0.0000000E+00;  0.0000000E+00;  1.0023586E+03;  1.0000000E-01;  1.9540188E+03;0;  0.0000000E+00;  0.0000000E+00;  0.0000000E+00;0; -2.2324768E-03;  4.0000000E+04;  0.0000000E+00;  0.0000000E+00;  4.0000000E+04;  0.0000000E+00;  4.0000000E+04; -1.8611391E-03;  0.0000000E+00; -3.7133775E-04;  5.0776299E+03;
  1.8000001E-01;  9.9999998E-03; -3.7000000E-01;2368;  0.0000000E+00;  0.0000000E+00;  0.0000000E+00;  1.0034464E+03;  1.0000000E-01;  2.8553267E+03;0;  0.0000000E+00;  0.0000000E+00;  0.0000000E+00;0; -3.3052121E-03;  4.0000000E+04;  0.0000000E+00;  0.0000000E+00;  4.0000000E+04;  0.0000000E+00;  4.0000000E+04; -2.8235500E-03;  0.0000000E+00; -4.8166211E-04;  1.6370255E+04;
  1.8000001E-01;  9.9999998E-03; -3.6000001E-01;2369;  0.0000000E+00;  0.0000000E+00;  0.0000000E+00;  1.0048002E+03;  1.0000000E-01;  3.9768752E+03;0;  0.0000000E+00;  0.0000000E+00;  0.0000000E+00;0; -4.6523195E-03;  4.0000000E+04;  0.0000000E+00;  0.0000000E+00;  4.0000000E+04;  0.0000000E+00;  4.0000000E+04; -4.0626968E-03;  0.0000000E+00; -5.8962277E-04;  3.6536227E+04;
  1.8000001E-01;  9.9999998E-03; -3.4999999E-01;2370;  0.0000000E+00;  0.0000000E+00;  0.0000000E+00;  1.0063806E+03;  1.0000000E-01;  5.2861714E+03;0;  0.0000000E+00;  0.0000000E+00;  0.0000000E+00;0; -6.2501077E-03;  4.0000000E+04;  0.0000000E+00;  0.0000000E+00;  4.0000000E+04;  0.0000000E+00;  4.0000000E+04; -5.5635897E-03;  0.0000000E+00; -6.8651803E-04;  6.0503773E+04;
  1.8000001E-01;  9.9999998E-03; -3.4000000E-01;2371;  0.0000000E+00;  0.0000000E+00;  0.0000000E+00;  1.0081176E+03;  1.0000000E-01;  6.7252417E+03;0;  0.0000000E+00;  0.0000000E+00;  0.0000000E+00;0; -8.0342470E-03;  4.0000000E+04;  0.0000000E+00;  0.0000000E+00;  4.0000000E+04;  0.0000000E+00;  4.0000000E+04; -7.2726230E-03;  0.0000000E+00; -7.6162384E-04;  8.5725695E+04;
  1.8000001E-01;  9.9999998E-03; -3.3000001E-01;2372;  0.0000000E+00;  0.0000000E+00;  0.0000000E+00;  1.0099017E+03;  1.0000000E-01;  8.2033232E+03;0;  0.0000000E+00;  0.0000000E+00;  0.0000000E+00;0; -9.9021476E-03;  4.0000000E+04;  0.0000000E+00;  0.0000000E+00;  4.0000000E+04;  0.0000000E+00;  4.0000000E+04; -9.0999901E-03;  0.0000000E+00; -8.0215704E-04;  1.0878715E+05;
  1.8000001E-01;  9.9999998E-03; -3.1999999E-01;2373;  0.0000000E+00;  0.0000000E+00;  0.0000000E+00;  1.0115930E+03;  1.0000000E-01;  9.6045674E+03;0;  0.0000000E+00;  0.0000000E+00;  0.0000000E+00;0; -1.1725212E-02;  4.0000000E+04;  0.0000000E+00;  0.0000000E+00;  4.0000000E+04;  0.0000000E+00;  4.0000000E+04; -1.0931054E-02;  0.0000000E+00; -7.9415709E-04;  1.2559748E+05;
  1.8000001E-01;  9.9999998E-03; -3.1000000E-01;2374;  0.0000000E+00;  0.0000000E+00;  0.0000000E+00;  1.0130536E+03;  1.0000000E-01;  1.0814706E+04;0;  0.0000000E+00;  0.0000000E+00;  0.0000000E+00;0; -1.3368534E-02;  4.0000000E+04;  0.0000000E+00;  0.0000000E+00;  4.0000000E+04;  0.0000000E+00;  4.0000000E+04; -1.2643921E-02;  0.0000000E+00; -7.2461274E-04;  1.3231861E+05;
  1.9000000E-01;  9.9999998E-03; -4.4000000E-01;2391;  0.0000000E+00;  0.0000000E+00;  0.0000000E+00;  1.0000082E+03;  1.0000000E-01;  6.8146219E+00;0;  0.0000000E+00;  0.0000000E+00;  0.0000000E+00;0; -3.3997989E-05;  4.0000000E+04;  0.0000000E+00;  0.0000000E+00;  4.0000000E+04;  0.0000000E+00;  4.0000000E+04; -2.7961132E-05;  0.0000000E+00; -6.0368584E-06;  6.5901270E+03;
  1.9000000E-01;  9.9999998E-03; -4.3000001E-01;2392;  0.0000000E+00;  0.0000000E+00;  0.0000000E+00;  1.0001091E+03;  1.0000000E-01;  9.0367813E+01;0;  0.0000000E+00;  0.0000000E+00;  0.0000000E+00;0; -1.1195990E-04;  4.0000000E+04;  0.0000000E+00;  0.0000000E+00;  4.0000000E+04;  0.0000000E+00;  4.0000000E+04; -8.5400592E-05;  0.0000000E+00; -2.6559308E-05;  1.3189754E+04;
  1.9000000E-01;  9.9999998E-03; -4.1999999E-01;2393;  0.0000000E+00;  0.0000000E+00;  0.0000000E+00;  1.0003128E+03;  1.0000000E-01;  2.5915317E+02;0;  0.0000000E+00;  0.0000000E+00;  0.0000000E+00;0; -2.7305118E-04;  4.0000000E+04;  0.0000000E+00;  0.0000000E+00;  4.0000000E+04;  0.0000000E+00;  4.0000000E+04; -2.0236807E-04;  0.0000000E+00; -7.0683112E-05;  1.9650041E+04;
  1.9000000E-01;  9.9999998E-03; -4.1000000E-01;2394;  0.0000000E+00;  0.0000000E+00;  0.0000000E+00;  1.0005739E+03;  1.0000000E-01;  4.7544333E+02;0;  0.0000000E+00;  0.0000000E+00;  0.0000000E+00;0; -5.5321626E-04;  4.0000000E+04;  0.0000000E+00;  0.0000000E+00;  4.0000000E+04;  0.0000000E+00;  4.0000000E+04; -4.1218847E-04;  0.0000000E+00; -1.4102781E-04;  2.3354062E+04;
  1.9000000E-01;  9.9999998E-03; -4.0000001E-01;2395;  0.0000000E+00;  0.0000000E+00;  0.0000000E+00;  1.0009995E+03;  1.0000000E-01;  8.2812476E+02;0;  0.0000000E+00;  0.0000000E+00;  0.0000000E+00;0; -9.9268695E-04;  4.0000000E+04;  0.0000000E+00;  0.0000000E+00;  4.0000000E+04;  0.0000000E+00;  4.0000000E+04; -7.5852394E-04;  0.0000000E+00; -2.3416302E-04;  2.2296369E+04;
  1.9000000E-01;  9.9999998E-03; -3.8999999E-01;2396;  0.0000000E+00;  0.0000000E+00;  0.0000000E+00;  1.0016206E+03;  1.0000000E-01;  1.3426781E+03;0;  0.0000000E+00;  0.0000000E+00;  0.0000000E+00;0; -1.6362125E-03;  4.0000000E+04;  0.0000000E+00;  0.0000000E+00;  4.0000000E+04;  0.0000000E+00;  4.0000000E+04; -1.2926448E-03;  0.0000000E+00; -3.4356763E-04;  1.5408749E+04;
  1.9000000E-01;  9.9999998E-03; -3.8000000E-01;2397;  0.0000000E+00;  0.0000000E+00;  0.0000000E+00;  1.0024880E+03;  1.0000000E-01;  2.0612751E+03;0;  0.0000000E+00;  0.0000000E+00;  0.0000000E+00;0; -2.5280213E-03;  4.0000000E+04;  0.0000000E+00;  0.0000000E+00;  4.0000000E+04;  0.0000000E+00;  4.0000000E+04; -2.0659100E-03;  0.0000000E+00; -4.6211126E-04;  4.5935498E+03;
  1.9000000E-01;  9.9999998E-03; -3.7000000E-01;2398;  0.0000000E+00;  0.0000000E+00;  0.0000000E+00;  1.0036166E+03;  1.0000000E-01;  2.9962610E+03;0;  0.0000000E+00;  0.0000000E+00;  0.0000000E+00;0; -3.7010098E-03;  4.0000000E+04;  0.0000000E+00;  0.0000000E+00;  4.0000000E+04;  0.0000000E+00;  4.0000000E+04; -3.1182582E-03;  0.0000000E+00; -5.8275159E-04;  1.9330799E+04;
  1.9000000E-01;  9.9999998E-03; -3.6000001E-01;2399;  0.0000000E+00;  0.0000000E+00;  0.0000000E+00;  1.0050039E+03;  1.0000000E-01;  4.1456606E+03;0;  0.0000000E+00;  0.0000000E+00;  0.0000000E+00;0; -5.1626125E-03;  4.0000000E+04;  0.0000000E+00;  0.0000000E+00;  4.0000000E+04;  0.0000000E+00;  4.0000000E+04; -4.4647176E-03;  0.0000000E+00; -6.9789472E-04;  4.4641742E+04;
  1.9000000E-01;  9.9999998E-03; -3.4999999E-01;2400;  0.0000000E+00;  0.0000000E+00;  0.0000000E+00;  1.0066257E+03;  1.0000000E-01;  5.4893262E+03;0;  0.0000000E+00;  0.0000000E+00;  0.0000000E+00;0; -6.8815164E-03;  4.0000000E+04;  0.0000000E+00;  0.0000000E+00;  4.0000000E+04;  0.0000000E+00;  4.0000000E+04; -6.0832100E-03;  0.0000000E+00; -7.9830660E-04;  7.4109641E+04;
  1.9000000E-01;  9.9999998E-03; -3.4000000E-01;2401;  0.0000000E+00;  0.0000000E+00;  0.0000000E+00;  1.0083948E+03;  1.0000000E-01;  6.9549639E+03;0;  0.0000000E+00;  0.0000000E+00;  0.0000000E+00;0; -8.7806964E-03;  4.0000000E+04;  0.0000000E+00;  0.0000000E+00;  4.0000000E+04;  0.0000000E+00;  4.0000000E+04; -7.9083657E-03;  0.0000000E+00; -8.7233080E-04;  1.0472026E+05;
  1.9000000E-01;  9.9999998E-03; -3.3000001E-01;2402;  0.0000000E+00;  0.0000000E+00;  0.0000000E+00;  1.0101901E+03;  1.0000000E-01;  8.4422305E+03;0;  0.0000000E+00;  0.0000000E+00;  0.0000000E+00;0; -1.0740891E-02;  4.0000000E+04;  0.0000000E+00;  0.0000000E+00;  4.0000000E+04;  0.0000000E+00;  4.0000000E+04; -9.8350104E-03;  0.0000000E+00; -9.0588094E-04;  1.3234161E+05;
  1.9000000E-01;  9.9999998E-03; -3.1999999E-01;2403;  0.0000000E+00;  0.0000000E+00;  0.0000000E+00;  1.0118749E+03;  1.0000000E-01;  9.8381416E+03;0;  0.0000000E+00;  0.0000000E+00;  0.0000000E+00;0; -1.2615796E-02;  4.0000000E+04;  0.0000000E+00;  0.0000000E+00;  4.0000000E+04;  0.0000000E+00;  4.0000000E+04; -1.1732093E-02;  0.0000000E+00; -8.8370324E-04;  1.5199512E+05;
  1.9000000E-01;  9.9999998E-03; -3.1000000E-01;2404;  0.0000000E+00;  0.0000000E+00;  0.0000000E+00;  1.0132890E+03;  1.0000000E-01;  1.1009664E+04;0;  0.0000000E+00;  0.0000000E+00;  0.0000000E+00;0; -1.4256917E-02;  4.0000000E+04;  0.0000000E+00;  0.0000000E+00;  4.0000000E+04;  0.0000000E+00;  4.0000000E+04; -1.3464429E-02;  0.0000000E+00; -7.9248723E-04;  1.5898547E+05;
  2.0000000E-01;  9.9999998E-03; -4.4000000E-01;2420;  0.0000000E+00;  0.0000000E+00;  0.0000000E+00;  1.0000304E+03;  1.0000000E-01;  2.5184473E+01;0;  0.0000000E+00;  0.0000000E+00;  0.0000000E+00;0; -4.8540202E-05;  4.0000000E+04;  0.0000000E+00;  0.0000000E+00;  4.0000000E+04;  0.0000000E+00;  4.0000000E+04; -3.1098120E-05;  0.0000000E+00; -1.7442082E-05;  9.1719492E+03;
  2.0000000E-01;  9.9999998E-03; -4.3000001E-01;2421;  0.0000000E+00;  0.0000000E+00;  0.0000000E+00;  1.0001221E+03;  1.0000000E-01;  1.0123170E+02;0;  0.0000000E+00;  0.0000000E+00;  0.0000000E+00;0; -1.5021009E-04;  4.0000000E+04;  0.0000000E+00;  0.0000000E+00;  4.0000000E+04;  0.0000000E+00;  4.0000000E+04; -9.4632589E-05;  0.0000000E+00; -5.5577500E-05;  1.7837436E+04;
  2.0000000E-01;  9.9999998E-03; -4.1999999E-01;2422;  0.0000000E+00;  0.0000000E+00;  0.0000000E+00;  1.0003312E+03;  1.0000000E-01;  2.7436261E+02;0;  0.0000000E+00;  0.0000000E+00;  0.0000000E+00;0; -3.4733955E-04;  4.0000000E+04;  0.0000000E+00;  0.0000000E+00;  4.0000000E+04;  0.0000000E+00;  4.0000000E+04; -2.2222289E-04;  0.0000000E+00; -1.2511664E-04;  2.5862008E+04;
  2.0000000E-01;  9.9999998E-03; -4.1000000E-01;2423;  0.0000000E+00;  0.0000000E+00;  0.0000000E+00;  1.0006116E+03;  1.0000000E-01;  5.0665234E+02;0;  0.0000000E+00;  0.0000000E+00;  0.0000000E+00;0; -6.7388284E-04;  4.0000000E+04;  0.0000000E+00;  0.0000000E+00;  4.0000000E+04;  0.0000000E+00;  4.0000000E+04; -4.4884687E-04;  0.0000000E+00; -2.2503598E-04;  3.0031541E+04;
  2.0000000E-01;  9.9999998E-03; -4.0000001E-01;2424;  0.0000000E+00;  0.0000000E+00;  0.0000000E+00;  1.0010534E+03;  1.0000000E-01;  8.7276544E+02;0;  0.0000000E+00;  0.0000000E+00;  0.0000000E+00;0; -1.1688937E-03;  4.0000000E+04;  0.0000000E+00;  0.0000000E+00;  4.0000000E+04;  0.0000000E+00;  4.0000000E+04; -8.2073628E-04;  0.0000000E+00; -3.4815742E-04;  2.8154477E+04;
  2.0000000E-01;  9.9999998E-03; -3.8999999E-01;2425;  0.0000000E+00;  0.0000000E+00;  0.0000000E+00;  1.0016913E+03;  1.0000000E-01;  1.4012443E+03;0;  0.0000000E+00;  0.0000000E+00;  0.0000000E+00;0; -1.8776204E-03;  4.0000000E+04;  0.0000000E+00;  0.0000000E+00;  4.0000000E+04;  0.0000000E+00;  4.0000000E+04; -1.3920579E-03;  0.0000000E+00; -4.8556254E-04;  1.9192611E+04;
  2.0000000E-01;  9.9999998E-03; -3.8000000E-01;2426;  0.0000000E+00;  0.0000000E+00;  0.0000000E+00;  1.0025509E+03;  1.0000000E-01;  2.1134216E+03;0;  0.0000000E+00;  0.0000000E+00;  0.0000000E+00;0; -2.8455202E-03;  4.0000000E+04;  0.0000000E+00;  0.0000000E+00;  4.0000000E+04;  0.0000000E+00;  4.0000000E+04; -2.2164239E-03;  0.0000000E+00; -6.2909618E-04;  4.3334268E+03;
  2.0000000E-01;  9.9999998E-03; -3.7000000E-01;2427;  0.0000000E+00;  0.0000000E+00;  0.0000000E+00;  1.0036813E+03;  1.0000000E-01;  3.0498892E+03;0;  0.0000000E+00;  0.0000000E+00;  0.0000000E+00;0; -4.1057756E-03;  4.0000000E+04;  0.0000000E+00;  0.0000000E+00;  4.0000000E+04;  0.0000000E+00;  4.0000000E+04; -3.3343914E-03;  0.0000000E+00; -7.7138405E-04;  2.1806420E+04;
  2.0000000E-01;  9.9999998E-03; -3.6000001E-01;2428;  0.0000000E+00;  0.0000000E+00;  0.0000000E+00;  1.0050781E+03;  1.0000000E-01;  4.2070908E+03;0;  0.0000000E+00;  0.0000000E+00;  0.0000000E+00;0; -5.6634923E-03;  4.0000000E+04;  0.0000000E+00;  0.0000000E+00;  4.0000000E+04;  0.0000000E+00;  4.0000000E+04; -4.7590183E-03;  0.0000000E+00; -9.0447412E-04;  5.1584352E+04;
  2.0000000E-01;  9.9999998E-03; -3.4999999E-01;2429;  0.0000000E+00;  0.0000000E+00;  0.0000000E+00;  1.0066913E+03;  1.0000000E-01;  5.5436455E+03;0;  0.0000000E+00;  0.0000000E+00;  0.0000000E+00;0; -7.4813329E-03;  4.0000000E+04;  0.0000000E+00;  0.0000000E+00;  4.0000000E+04;  0.0000000E+00;  4.0000000E+04; -6.4630364E-03;  0.0000000E+00; -1.0182967E-03;  8.5733914E+04;
  2.0000000E-01;  9.9999998E-03; -3.4000000E-01;2430;  0.0000000E+00;  0.0000000E+00;  0.0000000E+00;  1.0084386E+03;  1.0000000E-01;  6.9912095E+03;0;  0.0000000E+00;  0.0000000E+00;  0.0000000E+00;0; -9.4720917E-03;  4.0000000E+04;  0.0000000E+00;  0.0000000E+00;  4.0000000E+04;  0.0000000E+00;  4.0000000E+04; -8.3724540E-03;  0.0000000E+00; -1.0996375E-03;  1.2091275E+05;
  2.0000000E-01;  9.9999998E-03; -3.3000001E-01;2431;  0.0000000E+00;  0.0000000E+00;  0.0000000E+00;  1.0102041E+03;  1.0000000E-01;  8.4538848E+03;0;  0.0000000E+00;  0.0000000E+00;  0.0000000E+00;0; -1.1502921E-02;  4.0000000E+04;  0.0000000E+00;  0.0000000E+00;  4.0000000E+04;  0.0000000E+00;  4.0000000E+04; -1.0370865E-02;  0.0000000E+00; -1.1320555E-03;  1.5246467E+05;
  2.0000000E-01;  9.9999998E-03; -3.1999999E-01;2432;  0.0000000E+00;  0.0000000E+00;  0.0000000E+00;  1.0118353E+03;  1.0000000E-01;  9.8052539E+03;0;  0.0000000E+00;  0.0000000E+00;  0.0000000E+00;0; -1.3412468E-02;  4.0000000E+04;  0.0000000E+00;  0.0000000E+00;  4.0000000E+04;  0.0000000E+00;  4.0000000E+04; -1.2314936E-02;  0.0000000E+00; -1.0975315E-03;  1.7472703E+05;
  2.0000000E-01;  9.9999998E-03; -3.1000000E-01;2433;  0.0000000E+00;  0.0000000E+00;  0.0000000E+00;  1.0131843E+03;  1.0000000E-01;  1.0922950E+04;0;  0.0000000E+00;  0.0000000E+00;  0.0000000E+00;0; -1.5040354E-02;  4.0000000E+04;  0.0000000E+00;  0.0000000E+00;  4.0000000E+04;  0.0000000E+00;  4.0000000E+04; -1.4059388E-02;  0.0000000E+00; -9.8096591E-04;  1.8225930E+05;
 -1.9000000E-01;  9.9999998E-03; -2.7000001E-01;107;  0.0000000E+00;  0.0000000E+00;  0.0000000E+00;  1.0000000E+03;  1.0000000E-01;  0.0000000E+00;0;  0.0000000E+00;  0.0000000E+00;  0.0000000E+00;0;  0.0000000E+00;  4.0000000E+04;  0.0000000E+00;  0.0000000E+00;  4.0000000E+04;  0.0000000E+00;  4.0000000E+04;  0.0000000E+00;  0.0000000E+00;  0.0000000E+00;  0.0000000E+00;
 -1.9000000E-01;  9.9999998E-03; -2.5999999E-01;108;  0.0000000E+00;  0.0000000E+00;  0.0000000E+00;  1.0000000E+03;  1.0000000E-01;  0.0000000E+00;0;  0.0000000E+00;  0.0000000E+00;  0.0000000E+00;0;  0.0000000E+00;  4.0000000E+04;  0.0000000E+00;  0.0000000E+00;  4.0000000E+04;  0.0000000E+00;  4.0000000E+04;  0.0000000E+00;  0.0000000E+00;  0.0000000E+00;  0.0000000E+00;
 -1.9000000E-01;  9.9999998E-03; -2.5000000E-01;109;  0.0000000E+00;  0.0000000E+00;  0.0000000E+00;  1.0000000E+03;  1.0000000E-01;  0.0000000E+00;0;  0.0000000E+00;  0.0000000E+00;  0.0000000E+00;0;  0.0000000E+00;  4.0000000E+04;  0.0000000E+00;  0.0000000E+00;  4.0000000E+04;  0.0000000E+00;  4.0000000E+04;  0.0000000E+00;  0.0000000E+00;  0.0000000E+00;  0.0000000E+00;
 -1.9000000E-01;  9.9999998E-03; -2.3999999E-01;110;  0.0000000E+00;  0.0000000E+00;  0.0000000E+00;  1.0000000E+03;  1.0000000E-01;  0.0000000E+00;0;  0.0000000E+00;  0.0000000E+00;  0.0000000E+00;0;  0.0000000E+00;  4.0000000E+04;  0.0000000E+00;  0.0000000E+00;  4.0000000E+04;  0.0000000E+00;  4.0000000E+04;  0.0000000E+00;  0.0000000E+00;  0.0000000E+00;  0.0000000E+00;
 -1.9000000E-01;  9.9999998E-03; -2.3000000E-01;111;  0.0000000E+00;  0.0000000E+00;  0.0000000E+00;  1.0000000E+03;  1.0000000E-01;  0.0000000E+00;0;  0.0000000E+00;  0.0000000E+00;  0.0000000E+00;0;  0.0000000E+00;  4.0000000E+04;  0.0000000E+00;  0.0000000E+00;  4.0000000E+04;  0.0000000E+00;  4.0000000E+04;  0.0000000E+00;  0.0000000E+00;  0.0000000E+00;  0.0000000E+00;
 -1.9000000E-01;  9.9999998E-03; -2.2000000E-01;112;  0.0000000E+00;  0.0000000E+00;  0.0000000E+00;  1.0000000E+03;  1.0000000E-01;  0.0000000E+00;0;  0.0000000E+00;  0.0000000E+00;  0.0000000E+00;0;  0.0000000E+00;  4.0000000E+04;  0.0000000E+00;  0.0000000E+00;  4.0000000E+04;  0.0000000E+00;  4.0000000E+04;  0.0000000E+00;  0.0000000E+00;  0.0000000E+00;  0.0000000E+00;
 -1.9000000E-01;  9.9999998E-03; -2.0999999E-01;113;  0.0000000E+00;  0.0000000E+00;  0.0000000E+00;  1.0000000E+03;  1.0000000E-01;  0.0000000E+00;0;  0.0000000E+00;  0.0000000E+00;  0.0000000E+00;0;  0.0000000E+00;  4.0000000E+04;  0.0000000E+00;  0.0000000E+00;  4.0000000E+04;  0.0000000E+00;  4.0000000E+04;  0.0000000E+00;  0.0000000E+00;  0.0000000E+00;  0.0000000E+00;
 -1.9000000E-01;  9.9999998E-03; -2.0000000E-01;114;  0.0000000E+00;  0.0000000E+00;  0.0000000E+00;  1.0000000E+03;  1.0000000E-01;  0.0000000E+00;0;  0.0000000E+00;  0.0000000E+00;  0.0000000E+00;0;  0.0000000E+00;  4.0000000E+04;  0.0000000E+00;  0.0000000E+00;  4.0000000E+04;  0.0000000E+00;  4.0000000E+04;  0.0000000E+00;  0.0000000E+00;  0.0000000E+00;  0.0000000E+00;
 -1.9000000E-01;  9.9999998E-03; -1.9000000E-01;115;  0.0000000E+00;  0.0000000E+00;  0.0000000E+00;  1.0000000E+03;  1.0000000E-01;  0.0000000E+00;0;  0.0000000E+00;  0.0000000E+00;  0.0000000E+00;0;  0.0000000E+00;  4.0000000E+04;  0.0000000E+00;  0.0000000E+00;  4.0000000E+04;  0.0000000E+00;  4.0000000E+04;  0.0000000E+00;  0.0000000E+00;  0.0000000E+00;  0.0000000E+00;
 -1.9000000E-01;  9.9999998E-03; -1.8000001E-01;116;  0.0000000E+00;  0.0000000E+00;  0.0000000E+00;  1.0000000E+03;  1.0000000E-01;  0.0000000E+00;0;  0.0000000E+00;  0.0000000E+00;  0.0000000E+00;0;  0.0000000E+00;  4.0000000E+04;  0.0000000E+00;  0.0000000E+00;  4.0000000E+04;  0.0000000E+00;  4.0000000E+04;  0.0000000E+00;  0.0000000E+00;  0.0000000E+00;  0.0000000E+00;
 -1.9000000E-01;  9.9999998E-03; -1.7000000E-01;117;  0.0000000E+00;  0.0000000E+00;  0.0000000E+00;  1.0000000E+03;  1.0000000E-01;  0.0000000E+00;0;  0.0000000E+00;  0.0000000E+00;  0.0000000E+00;0;  0.0000000E+00;  4.0000000E+04;  0.0000000E+00;  0.0000000E+00;  4.0000000E+04;  0.0000000E+00;  4.0000000E+04;  0.0000000E+00;  0.0000000E+00;  0.0000000E+00;  0.0000000E+00;
 -1.9000000E-01;  9.9999998E-03; -1.6000000E-01;118;  0.0000000E+00;  0.0000000E+00;  0.0000000E+00;  1.0000000E+03;  1.0000000E-01;  0.0000000E+00;0;  0.0000000E+00;  0.0000000E+00;  0.0000000E+00;0;  0.0000000E+00;  4.0000000E+04;  0.0000000E+00;  0.0000000E+00;  4.0000000E+04;  0.0000000E+00;  4.0000000E+04;  0.0000000E+00;  0.0000000E+00;  0.0000000E+00;  0.0000000E+00;
 -1.9000000E-01;  9.9999998E-03; -1.5000001E-01;119;  0.0000000E+00;  0.0000000E+00;  0.0000000E+00;  1.0000000E+03;  1.0000000E-01;  0.0000000E+00;0;  0.0000000E+00;  0.0000000E+00;  0.0000000E+00;0;  0.0000000E+00;  4.0000000E+04;  0.0000000E+00;  0.0000000E+00;  4.0000000E+04;  0.0000000E+00;  4.0000000E+04;  0.0000000E+00;  0.0000000E+00;  0.0000000E+00;  0.0000000E+00;
 -1.9000000E-01;  9.9999998E-03; -1.4000000E-01;120;  0.0000000E+00;  0.0000000E+00;  0.0000000E+00;  1.0000000E+03;  1.0000000E-01;  0.0000000E+00;0;  0.0000000E+00;  0.0000000E+00;  0.0000000E+00;0;  0.0000000E+00;  4.0000000E+04;  0.0000000E+00;  0.0000000E+00;  4.0000000E+04;  0.0000000E+00;  4.0000000E+04;  0.0000000E+00;  0.0000000E+00;  0.0000000E+00;  0.0000000E+00;
 -1.9000000E-01;  9.9999998E-03; -1.3000000E-01;121;  0.0000000E+00;  0.0000000E+00;  0.0000000E+00;  1.0000000E+03;  1.0000000E-01;  0.0000000E+00;0;  0.0000000E+00;  0.0000000E+00;  0.0000000E+00;0;  0.0000000E+00;  4.0000000E+04;  0.0000000E+00;  0.0000000E+00;  4.0000000E+04;  0.0000000E+00;  4.0000000E+04;  0.0000000E+00;  0.0000000E+00;  0.0000000E+00;  0.0000000E+00;
 -1.9000000E-01;  9.9999998E-03; -1.2000000E-01;122;  0.0000000E+00;  0.0000000E+00;  0.0000000E+00;  1.0000000E+03;  1.0000000E-01;  0.0000000E+00;0;  0.0000000E+00;  0.0000000E+00;  0.0000000E+00;0;  0.0000000E+00;  4.0000000E+04;  0.0000000E+00;  0.0000000E+00;  4.0000000E+04;  0.0000000E+00;  4.0000000E+04;  0.0000000E+00;  0.0000000E+00;  0.0000000E+00;  0.0000000E+00;
 -1.9000000E-01;  9.9999998E-03; -1.1000000E-01;123;  0.0000000E+00;  0.0000000E+00;  0.0000000E+00;  1.0000000E+03;  1.0000000E-01;  0.0000000E+00;0;  0.0000000E+00;  0.0000000E+00;  0.0000000E+00;0;  0.0000000E+00;  4.0000000E+04;  0.0000000E+00;  0.0000000E+00;  4.0000000E+04;  0.0000000E+00;  4.0000000E+04;  0.0000000E+00;  0.0000000E+00;  0.0000000E+00;  0.0000000E+00;
 -1.8000001E-01;  9.9999998E-03; -2.7000001E-01;198;  0.0000000E+00;  0.0000000E+00;  0.0000000E+00;  1.0000000E+03;  1.0000000E-01;  0.0000000E+00;0;  0.0000000E+00;  0.0000000E+00;  0.0000000E+00;0;  0.0000000E+00;  4.0000000E+04;  0.0000000E+00;  0.0000000E+00;  4.0000000E+04;  0.0000000E+00;  4.0000000E+04;  0.0000000E+00;  0.0000000E+00;  0.0000000E+00;  0.0000000E+00;
 -1.8000001E-01;  9.9999998E-03; -2.5999999E-01;199;  0.0000000E+00;  0.0000000E+00;  0.0000000E+00;  1.0000000E+03;  1.0000000E-01;  0.0000000E+00;0;  0.0000000E+00;  0.0000000E+00;  0.0000000E+00;0;  0.0000000E+00;  4.0000000E+04;  0.0000000E+00;  0.0000000E+00;  4.0000000E+04;  0.0000000E+00;  4.0000000E+04;  0.0000000E+00;  0.0000000E+00;  0.0000000E+00;  0.0000000E+00;
 -1.8000001E-01;  9.9999998E-03; -2.5000000E-01;200;  0.0000000E+00;  0.0000000E+00;  0.0000000E+00;  1.0000000E+03;  1.0000000E-01;  0.0000000E+00;0;  0.0000000E+00;  0.0000000E+00;  0.0000000E+00;0;  0.0000000E+00;  4.0000000E+04;  0.0000000E+00;  0.0000000E+00;  4.0000000E+04;  0.0000000E+00;  4.0000000E+04;  0.0000000E+00;  0.0000000E+00;  0.0000000E+00;  0.0000000E+00;
 -1.8000001E-01;  9.9999998E-03; -2.3999999E-01;201;  0.0000000E+00;  0.0000000E+00;  0.0000000E+00;  1.0000000E+03;  1.0000000E-01;  0.0000000E+00;0;  0.0000000E+00;  0.0000000E+00;  0.0000000E+00;0;  0.0000000E+00;  4.0000000E+04;  0.0000000E+00;  0.0000000E+00;  4.0000000E+04;  0.0000000E+00;  4.0000000E+04;  0.0000000E+00;  0.0000000E+00;  0.0000000E+00;  0.0000000E+00;
 -1.8000001E-01;  9.9999998E-03; -2.3000000E-01;202;  0.0000000E+00;  0.0000000E+00;  0.0000000E+00;  1.0000000E+03;  1.0000000E-01;  0.0000000E+00;0;  0.0000000E+00;  0.0000000E+00;  0.0000000E+00;0;  0.0000000E+00;  4.0000000E+04;  0.0000000E+00;  0.0000000E+00;  4.0000000E+04;  0.0000000E+00;  4.0000000E+04;  0.0000000E+00;  0.0000000E+00;  0.0000000E+00;  0.0000000E+00;
 -1.8000001E-01;  9.9999998E-03; -2.2000000E-01;203;  0.0000000E+00;  0.0000000E+00;  0.0000000E+00;  1.0000000E+03;  1.0000000E-01;  0.0000000E+00;0;  0.0000000E+00;  0.0000000E+00;  0.0000000E+00;0;  0.0000000E+00;  4.0000000E+04;  0.0000000E+00;  0.0000000E+00;  4.0000000E+04;  0.0000000E+00;  4.0000000E+04;  0.0000000E+00;  0.0000000E+00;  0.0000000E+00;  0.0000000E+00;
 -1.8000001E-01;  9.9999998E-03; -2.0999999E-01;204;  0.0000000E+00;  0.0000000E+00;  0.0000000E+00;  1.0000000E+03;  1.0000000E-01;  0.0000000E+00;0;  0.0000000E+00;  0.0000000E+00;  0.0000000E+00;0;  0.0000000E+00;  4.0000000E+04;  0.0000000E+00;  0.0000000E+00;  4.0000000E+04;  0.0000000E+00;  4.0000000E+04;  0.0000000E+00;  0.0000000E+00;  0.0000000E+00;  0.0000000E+00;
 -1.8000001E-01;  9.9999998E-03; -2.0000000E-01;205;  0.0000000E+00;  0.0000000E+00;  0.0000000E+00;  1.0000000E+03;  1.0000000E-01;  0.0000000E+00;0;  0.0000000E+00;  0.0000000E+00;  0.0000000E+00;0;  0.0000000E+00;  4.0000000E+04;  0.0000000E+00;  0.0000000E+00;  4.0000000E+04;  0.0000000E+00;  4.0000000E+04;  0.0000000E+00;  0.0000000E+00;  0.0000000E+00;  0.0000000E+00;
 -1.8000001E-01;  9.9999998E-03; -1.9000000E-01;206;  0.0000000E+00;  0.0000000E+00;  0.0000000E+00;  1.0000000E+03;  1.0000000E-01;  0.0000000E+00;0;  0.0000000E+00;  0.0000000E+00;  0.0000000E+00;0;  0.0000000E+00;  4.0000000E+04;  0.0000000E+00;  0.0000000E+00;  4.0000000E+04;  0.0000000E+00;  4.0000000E+04;  0.0000000E+00;  0.0000000E+00;  0.0000000E+00;  0.0000000E+00;
 -1.8000001E-01;  9.9999998E-03; -1.8000001E-01;207;  0.0000000E+00;  0.0000000E+00;  0.0000000E+00;  1.0000000E+03;  1.0000000E-01;  0.0000000E+00;0;  0.0000000E+00;  0.0000000E+00;  0.0000000E+00;0;  0.0000000E+00;  4.0000000E+04;  0.0000000E+00;  0.0000000E+00;  4.0000000E+04;  0.0000000E+00;  4.0000000E+04;  0.0000000E+00;  0.0000000E+00;  0.0000000E+00;  0.0000000E+00;
 -1.8000001E-01;  9.9999998E-03; -1.7000000E-01;208;  0.0000000E+00;  0.0000000E+00;  0.0000000E+00;  1.0000000E+03;  1.0000000E-01;  0.0000000E+00;0;  0.0000000E+00;  0.0000000E+00;  0.0000000E+00;0;  0.0000000E+00;  4.0000000E+04;  0.0000000E+00;  0.0000000E+00;  4.0000000E+04;  0.0000000E+00;  4.0000000E+04;  0.0000000E+00;  0.0000000E+00;  0.0000000E+00;  0.0000000E+00;
 -1.8000001E-01;  9.9999998E-03; -1.6000000E-01;209;  0.0000000E+00;  0.0000000E+00;  0.0000000E+00;  1.0000000E+03;  1.0000000E-01;  0.0000000E+00;0;  0.0000000E+00;  0.0000000E+00;  0.0000000E+00;0;  0.0000000E+00;  4.0000000E+04;  0.0000000E+00;  0.0000000E+00;  4.0000000E+04;  0.0000000E+00;  4.0000000E+04;  0.0000000E+00;  0.0000000E+00;  0.0000000E+00;  0.0000000E+00;
 -1.8000001E-01;  9.9999998E-03; -1.5000001E-01;210;  0.0000000E+00;  0.0000000E+00;  0.0000000E+00;  1.0000000E+03;  1.0000000E-01;  0.0000000E+00;0;  0.0000000E+00;  0.0000000E+00;  0.0000000E+00;0;  0.0000000E+00;  4.0000000E+04;  0.0000000E+00;  0.0000000E+00;  4.0000000E+04;  0.0000000E+00;  4.0000000E+04;  0.0000000E+00;  0.0000000E+00;  0.0000000E+00;  0.0000000E+00;
 -1.8000001E-01;  9.9999998E-03; -1.4000000E-01;211;  0.0000000E+00;  0.0000000E+00;  0.0000000E+00;  1.0000000E+03;  1.0000000E-01;  0.0000000E+00;0;  0.0000000E+00;  0.0000000E+00;  0.0000000E+00;0;  0.0000000E+00;  4.0000000E+04;  0.0000000E+00;  0.0000000E+00;  4.0000000E+04;  0.0000000E+00;  4.0000000E+04;  0.0000000E+00;  0.0000000E+00;  0.0000000E+00;  0.0000000E+00;
 -1.8000001E-01;  9.9999998E-03; -1.3000000E-01;212;  0.0000000E+00;  0.0000000E+00;  0.0000000E+00;  1.0000000E+03;  1.0000000E-01;  0.0000000E+00;0;  0.0000000E+00;  0.0000000E+00;  0.0000000E+00;0;  0.0000000E+00;  4.0000000E+04;  0.0000000E+00;  0.0000000E+00;  4.0000000E+04;  0.0000000E+00;  4.0000000E+04;  0.0000000E+00;  0.0000000E+00;  0.0000000E+00;  0.0000000E+00;
 -1.8000001E-01;  9.9999998E-03; -1.2000000E-01;213;  0.0000000E+00;  0.0000000E+00;  0.0000000E+00;  1.0000000E+03;  1.0000000E-01;  0.0000000E+00;0;  0.0000000E+00;  0.0000000E+00;  0.0000000E+00;0;  0.0000000E+00;  4.0000000E+04;  0.0000000E+00;  0.0000000E+00;  4.0000000E+04;  0.0000000E+00;  4.0000000E+04;  0.0000000E+00;  0.0000000E+00;  0.0000000E+00;  0.0000000E+00;
 -1.8000001E-01;  9.9999998E-03; -1.1000000E-01;214;  0.0000000E+00;  0.0000000E+00;  0.0000000E+00;  1.0000000E+03;  1.0000000E-01;  0.0000000E+00;0;  0.0000000E+00;  0.0000000E+00;  0.0000000E+00;0;  0.0000000E+00;  4.0000000E+04;  0.0000000E+00;  0.0000000E+00;  4.0000000E+04;  0.0000000E+00;  4.0000000E+04;  0.0000000E+00;  0.0000000E+00;  0.0000000E+00;  0.0000000E+00;
 -1.7000000E-01;  9.9999998E-03; -2.7000001E-01;289;  0.0000000E+00;  0.0000000E+00;  0.0000000E+00;  1.0000000E+03;  1.0000000E-01;  0.0000000E+00;0;  0.0000000E+00;  0.0000000E+00;  0.0000000E+00;0;  0.0000000E+00;  4.0000000E+04;  0.0000000E+00;  0.0000000E+00;  4.0000000E+04;  0.0000000E+00;  4.0000000E+04;  0.0000000E+00;  0.0000000E+00;  0.0000000E+00;  9.0627929E-11;
 -1.7000000E-01;  9.9999998E-03; -2.5999999E-01;290;  0.0000000E+00;  0.0000000E+00;  0.0000000E+00;  1.0000000E+03;  1.0000000E-01;  0.0000000E+00;0;  0.0000000E+00;  0.0000000E+00;  0.0000000E+00;0;  0.0000000E+00;  4.0000000E+04;  0.0000000E+00;  0.0000000E+00;  4.0000000E+04;  0.0000000E+00;  4.0000000E+04;  0.0000000E+00;  0.0000000E+00;  0.0000000E+00;  2.4658295E-10;
 -1.7000000E-01;  9.9999998E-03; -2.5000000E-01;291;  0.0000000E+00;  0.0000000E+00;  0.0000000E+00;  1.0000000E+03;  1.0000000E-01;  0.0000000E+00;0;  0.0000000E+00;  0.0000000E+00;  0.0000000E+00;0;  0.0000000E+00;  4.0000000E+04;  0.0000000E+00;  0.0000000E+00;  4.0000000E+04;  0.0000000E+00;  4.0000000E+04;  0.0000000E+00;  0.0000000E+00;  0.0000000E+00;  4.6683907E-10;
 -1.7000000E-01;  9.9999998E-03; -2.3999999E-01;292;  0.0000000E+00;  0.0000000E+00;  0.0000000E+00;  1.0000000E+03;  1.0000000E-01;  0.0000000E+00;0;  0.0000000E+00;  0.0000000E+00;  0.0000000E+00;0;  0.0000000E+00;  4.0000000E+04;  0.0000000E+00;  0.0000000E+00;  4.0000000E+04;  0.0000000E+00;  4.0000000E+04;  0.0000000E+00;  0.0000000E+00;  0.0000000E+00;  7.1558121E-10;
 -1.7000000E-01;  9.9999998E-03; -2.3000000E-01;293;  0.0000000E+00;  0.0000000E+00;  0.0000000E+00;  1.0000000E+03;  1.0000000E-01;  0.0000000E+00;0;  0.0000000E+00;  0.0000000E+00;  0.0000000E+00;0;  0.0000000E+00;  4.0000000E+04;  0.0000000E+00;  0.0000000E+00;  4.0000000E+04;  0.0000000E+00;  4.0000000E+04;  0.0000000E+00;  0.0000000E+00;  0.0000000E+00;  9.6112662E-10;
 -1.7000000E-01;  9.9999998E-03; -2.2000000E-01;294;  0.0000000E+00;  0.0000000E+00;  0.0000000E+00;  1.0000000E+03;  1.0000000E-01;  0.0000000E+00;0;  0.0000000E+00;  0.0000000E+00;  0.0000000E+00;0;  0.0000000E+00;  4.0000000E+04;  0.0000000E+00;  0.0000000E+00;  4.0000000E+04;  0.0000000E+00;  4.0000000E+04;  0.0000000E+00;  0.0000000E+00;  0.0000000E+00;  1.1699183E-09;
 -1.7000000E-01;  9.9999998E-03; -2.0999999E-01;295;  0.0000000E+00;  0.0000000E+00;  0.0000000E+00;  1.0000000E+03;  1.0000000E-01;  0.0000000E+00;0;  0.0000000E+00;  0.0000000E+00;  0.0000000E+00;0;  0.0000000E+00;  4.0000000E+04;  0.0000000E+00;  0.0000000E+00;  4.0000000E+04;  0.0000000E+00;  4.0000000E+04;  0.0000000E+00;  0.0000000E+00;  0.0000000E+00;  1.3086691E-09;
 -1.7000000E-01;  9.9999998E-03; -2.0000000E-01;296;  0.0000000E+00;  0.0000000E+00;  0.0000000E+00;  1.0000000E+03;  1.0000000E-01;  0.0000000E+00;0;  0.0000000E+00;  0.0000000E+00;  0.0000000E+00;0;  0.0000000E+00;  4.0000000E+04;  0.0000000E+00;  0.0000000E+00;  4.0000000E+04;  0.0000000E+00;  4.0000000E+04;  0.0000000E+00;  0.0000000E+00;  0.0000000E+00;  1.3572687E-09;
 -1.7000000E-01;  9.9999998E-03; -1.9000000E-01;297;  0.0000000E+00;  0.0000000E+00;  0.0000000E+00;  1.0000000E+03;  1.0000000E-01;  0.0000000E+00;0;  0.0000000E+00;  0.0000000E+00;  0.0000000E+00;0;  0.0000000E+00;  4.0000000E+04;  0.0000000E+00;  0.0000000E+00;  4.0000000E+04;  0.0000000E+00;  4.0000000E+04;  0.0000000E+00;  0.0000000E+00;  0.0000000E+00;  1.3804570E-09;
 -1.7000000E-01;  9.9999998E-03; -1.8000001E-01;298;  0.0000000E+00;  0.0000000E+00;  0.0000000E+00;  1.0000000E+03;  1.0000000E-01;  0.0000000E+00;0;  0.0000000E+00;  0.0000000E+00;  0.0000000E+00;0;  0.0000000E+00;  4.0000000E+04;  0.0000000E+00;  0.0000000E+00;  4.0000000E+04;  0.0000000E+00;  4.0000000E+04;  0.0000000E+00;  0.0000000E+00;  0.0000000E+00;  1.4541069E-09;
 -1.7000000E-01;  9.9999998E-03; -1.7000000E-01;299;  0.0000000E+00;  0.0000000E+00;  0.0000000E+00;  1.0000000E+03;  1.0000000E-01;  0.0000000E+00;0;  0.0000000E+00;  0.0000000E+00;  0.0000000E+00;0;  0.0000000E+00;  4.0000000E+04;  0.0000000E+00;  0.0000000E+00;  4.0000000E+04;  0.0000000E+00;  4.0000000E+04;  0.0000000E+00;  0.0000000E+00;  0.0000000E+00;  1.5733465E-09;
 -1.7000000E-01;  9.9999998E-03; -1.6000000E-01;300;  0.0000000E+00;  0.0000000E+00;  0.0000000E+00;  1.0000000E+03;  1.0000000E-01;  0.0000000E+00;0;  0.0000000E+00;  0.0000000E+00;  0.0000000E+00;0;  0.0000000E+00;  4.0000000E+04;  0.0000000E+00;  0.0000000E+00;  4.0000000E+04;  0.0000000E+00;  4.0000000E+04;  0.0000000E+00;  0.0000000E+00;  0.0000000E+00;  1.7068523E-09;
 -1.7000000E-01;  9.9999998E-03; -1.5000001E-01;301;  0.0000000E+00;  0.0000000E+00;  0.0000000E+00;  1.0000000E+03;  1.0000000E-01;  0.0000000E+00;0;  0.0000000E+00;  0.0000000E+00;  0.0000000E+00;0;  0.0000000E+00;  4.0000000E+04;  0.0000000E+00;  0.0000000E+00;  4.0000000E+04;  0.0000000E+00;  4.0000000E+04;  0.0000000E+00;  0.0000000E+00;  0.0000000E+00;  1.8278684E-09;
 -1.7000000E-01;  9.9999998E-03; -1.4000000E-01;302;  0.0000000E+00;  0.0000000E+00;  0.0000000E+00;  1.0000000E+03;  1.0000000E-01;  0.0000000E+00;0;  0.0000000E+00;  0.0000000E+00;  0.0000000E+00;0;  0.0000000E+00;  4.0000000E+04;  0.0000000E+00;  0.0000000E+00;  4.0000000E+04;  0.0000000E+00;  4.0000000E+04;  0.0000000E+00;  0.0000000E+00;  0.0000000E+00;  1.9071082E-09;
 -1.7000000E-01;  9.9999998E-03; -1.3000000E-01;303;  0.0000000E+00;  0.0000000E+00;  0.0000000E+00;  1.0000000E+03;  1.0000000E-01;  0.0000000E+00;0;  0.0000000E+00;  0.0000000E+00;  0.0000000E+00;0;  0.0000000E+00;  4.0000000E+04;  0.0000000E+00;  0.0000000E+00;  4.0000000E+04;  0.0000000E+00;  4.0000000E+04;  0.0000000E+00;  0.0000000E+00;  0.0000000E+00;  1.9297872E-09;
 -1.7000000E-01;  9.9999998E-03; -1.2000000E-01;304;  0.0000000E+00;  0.0000000E+00;  0.0000000E+00;  1.0000000E+03;  1.0000000E-01;  0.0000000E+00;0;  0.0000000E+00;  0.0000000E+00;  0.0000000E+00;0;  0.0000000E+00;  4.0000000E+04;  0.0000000E+00;  0.0000000E+00;  4.0000000E+04;  0.0000000E+00;  4.0000000E+04;  0.0000000E+00;  0.0000000E+00;  0.0000000E+00;  1.9547151E-09;
 -1.7000000E-01;  9.9999998E-03; -1.1000000E-01;305;  0.0000000E+00;  0.0000000E+00;  0.0000000E+00;  1.0000000E+03;  1.0000000E-01;  0.0000000E+00;0;  0.0000000E+00;  0.0000000E+00;  0.0000000E+00;0;  0.0000000E+00;  4.0000000E+04;  0.0000000E+00;  0.0000000E+00;  4.0000000E+04;  0.0000000E+00;  4.0000000E+04;  0.0000000E+00;  0.0000000E+00;  0.0000000E+00;  1.9624904E-09;
 -1.6000000E-01;  9.9999998E-03; -2.7000001E-01;380;  0.0000000E+00;  0.0000000E+00;  0.0000000E+00;  1.0000000E+03;  1.0000000E-01;  0.0000000E+00;0;  0.0000000E+00;  0.0000000E+00;  0.0000000E+00;0;  8.6784405E-07;  4.0000000E+04;  0.0000000E+00;  0.0000000E+00;  4.0000000E+04;  0.0000000E+00;  4.0000000E+04;  8.6840100E-07;  0.0000000E+00; -5.5695371E-10;  5.3595781E-02;
 -1.6000000E-01;  9.9999998E-03; -2.5999999E-01;381;  0.0000000E+00;  0.0000000E+00;  0.0000000E+00;  1.0000000E+03;  1.0000000E-01;  0.0000000E+00;0;  0.0000000E+00;  0.0000000E+00;  0.0000000E+00;0;  1.0152883E-06;  4.0000000E+04;  0.0000000E+00;  0.0000000E+00;  4.0000000E+04;  0.0000000E+00;  4.0000000E+04;  1.0122691E-06;  0.0000000E+00;  3.0191643E-09;  1.2148900E-01;
 -1.6000000E-01;  9.9999998E-03; -2.5000000E-01;382;  0.0000000E+00;  0.0000000E+00;  0.0000000E+00;  1.0000000E+03;  1.0000000E-01;  0.0000000E+00;0;  0.0000000E+00;  0.0000000E+00;  0.0000000E+00;0;  1.0738432E-06;  4.0000000E+04;  0.0000000E+00;  0.0000000E+00;  4.0000000E+04;  0.0000000E+00;  4.0000000E+04;  1.0693733E-06;  0.0000000E+00;  4.4699533E-09;  1.7442915E-01;
 -1.6000000E-01;  9.9999998E-03; -2.3999999E-01;383;  0.0000000E+00;  0.0000000E+00;  0.0000000E+00;  1.0000000E+03;  1.0000000E-01;  0.0000000E+00;0;  0.0000000E+00;  0.0000000E+00;  0.0000000E+00;0;  1.0474407E-06;  4.0000000E+04;  0.0000000E+00;  0.0000000E+00;  4.0000000E+04;  0.0000000E+00;  4.0000000E+04;  1.0429350E-06;  0.0000000E+00;  4.5057673E-09;  2.0691311E-01;
 -1.6000000E-01;  9.9999998E-03; -2.3000000E-01;384;  0.0000000E+00;  0.0000000E+00;  0.0000000E+00;  1.0000000E+03;  1.0000000E-01;  0.0000000E+00;0;  0.0000000E+00;  0.0000000E+00;  0.0000000E+00;0;  9.6561200E-07;  4.0000000E+04;  0.0000000E+00;  0.0000000E+00;  4.0000000E+04;  0.0000000E+00;  4.0000000E+04;  9.6127110E-07;  0.0000000E+00;  4.3408890E-09;  2.2674212E-01;
 -1.6000000E-01;  9.9999998E-03; -2.2000000E-01;385;  0.0000000E+00;  0.0000000E+00;  0.0000000E+00;  1.0000000E+03;  1.0000000E-01;  0.0000000E+00;0;  0.0000000E+00;  0.0000000E+00;  0.0000000E+00;0;  8.6149896E-07;  4.0000000E+04;  0.0000000E+00;  0.0000000E+00;  4.0000000E+04;  0.0000000E+00;  4.0000000E+04;  8.5746939E-07;  0.0000000E+00;  4.0295824E-09;  2.4185681E-01;
 -1.6000000E-01;  9.9999998E-03; -2.0999999E-01;386;  0.0000000E+00;  0.0000000E+00;  0.0000000E+00;  1.0000000E+03;  1.0000000E-01;  0.0000000E+00;0;  0.0000000E+00;  0.0000000E+00;  0.0000000E+00;0;  7.5887954E-07;  4.0000000E+04;  0.0000000E+00;  0.0000000E+00;  4.0000000E+04;  0.0000000E+00;  4.0000000E+04;  7.5526850E-07;  0.0000000E+00;  3.6110066E-09;  2.5565812E-01;
 -1.6000000E-01;  9.9999998E-03; -2.0000000E-01;387;  0.0000000E+00;  0.0000000E+00;  0.0000000E+00;  1.0000000E+03;  1.0000000E-01;  0.0000000E+00;0;  0.0000000E+00;  0.0000000E+00;  0.0000000E+00;0;  6.7078179E-07;  4.0000000E+04;  0.0000000E+00;  0.0000000E+00;  4.0000000E+04;  0.0000000E+00;  4.0000000E+04;  6.6761447E-07;  0.0000000E+00;  3.1673106E-09;  2.6852909E-01;
 -1.6000000E-01;  9.9999998E-03; -1.9000000E-01;388;  0.0000000E+00;  0.0000000E+00;  0.0000000E+00;  1.0000000E+03;  1.0000000E-01;  0.0000000E+00;0;  0.0000000E+00;  0.0000000E+00;  0.0000000E+00;0;  6.0217519E-07;  4.0000000E+04;  0.0000000E+00;  0.0000000E+00;  4.0000000E+04;  0.0000000E+00;  4.0000000E+04;  5.9943176E-07;  0.0000000E+00;  2.7434173E-09;  2.7954826E-01;
 -1.6000000E-01;  9.9999998E-03; -1.8000001E-01;389;  0.0000000E+00;  0.0000000E+00;  0.0000000E+00;  1.0000000E+03;  1.0000000E-01;  0.0000000E+00;0;  0.0000000E+00;  0.0000000E+00;  0.0000000E+00;0;  5.5319748E-07;  4.0000000E+04;  0.0000000E+00;  0.0000000E+00;  4.0000000E+04;  0.0000000E+00;  4.0000000E+04;  5.5085150E-07;  0.0000000E+00;  2.3459610E-09;  2.8779408E-01;
 -1.6000000E-01;  9.9999998E-03; -1.7000000E-01;390;  0.0000000E+00;  0.0000000E+00;  0.0000000E+00;  1.0000000E+03;  1.0000000E-01;  0.0000000E+00;0;  0.0000000E+00;  0.0000000E+00;  0.0000000E+00;0;  5.2146549E-07;  4.0000000E+04;  0.0000000E+00;  0.0000000E+00;  4.0000000E+04;  0.0000000E+00;  4.0000000E+04;  5.1950627E-07;  0.0000000E+00;  1.9591999E-09;  2.9285243E-01;
 -1.6000000E-01;  9.9999998E-03; -1.6000000E-01;391;  0.0000000E+00;  0.0000000E+00;  0.0000000E+00;  1.0000000E+03;  1.0000000E-01;  0.0000000E+00;0;  0.0000000E+00;  0.0000000E+00;  0.0000000E+00;0;  5.0367504E-07;  4.0000000E+04;  0.0000000E+00;  0.0000000E+00;  4.0000000E+04;  0.0000000E+00;  4.0000000E+04;  5.0210389E-07;  0.0000000E+00;  1.5711645E-09;  2.9481733E-01;
 -1.6000000E-01;  9.9999998E-03; -1.5000001E-01;392;  0.0000000E+00;  0.0000000E+00;  0.0000000E+00;  1.0000000E+03;  1.0000000E-01;  0.0000000E+00;0;  0.0000000E+00;  0.0000000E+00;  0.0000000E+00;0;  4.9644308E-07;  4.0000000E+04;  0.0000000E+00;  0.0000000E+00;  4.0000000E+04;  0.0000000E+00;  4.0000000E+04;  4.9525528E-07;  0.0000000E+00;  1.1878166E-09;  2.9413581E-01;
 -1.6000000E-01;  9.9999998E-03; -1.4000000E-01;393;  0.0000000E+00;  0.0000000E+00;  0.0000000E+00;  1.0000000E+03;  1.0000000E-01;  0.0000000E+00;0;  0.0000000E+00;  0.0000000E+00;  0.0000000E+00;0;  4.9664914E-07;  4.0000000E+04;  0.0000000E+00;  0.0000000E+00;  4.0000000E+04;  0.0000000E+00;  4.0000000E+04;  4.9581809E-07;  0.0000000E+00;  8.3102319E-10;  2.9141700E-01;
 -1.6000000E-01;  9.9999998E-03; -1.3000000E-01;394;  0.0000000E+00;  0.0000000E+00;  0.0000000E+00;  1.0000000E+03;  1.0000000E-01;  0.0000000E+00;0;  0.0000000E+00;  0.0000000E+00;  0.0000000E+00;0;  5.0159281E-07;  4.0000000E+04;  0.0000000E+00;  0.0000000E+00;  4.0000000E+04;  0.0000000E+00;  4.0000000E+04;  5.0106632E-07;  0.0000000E+00;  5.2647253E-10;  2.8736490E-01;
 -1.6000000E-01;  9.9999998E-03; -1.2000000E-01;395;  0.0000000E+00;  0.0000000E+00;  0.0000000E+00;  1.0000000E+03;  1.0000000E-01;  0.0000000E+00;0;  0.0000000E+00;  0.0000000E+00;  0.0000000E+00;0;  5.0905277E-07;  4.0000000E+04;  0.0000000E+00;  0.0000000E+00;  4.0000000E+04;  0.0000000E+00;  4.0000000E+04;  5.0876463E-07;  0.0000000E+00;  2.8816646E-10;  2.8276446E-01;
 -1.6000000E-01;  9.9999998E-03; -1.1000000E-01;396;  0.0000000E+00;  0.0000000E+00;  0.0000000E+00;  1.0000000E+03;  1.0000000E-01;  0.0000000E+00;0;  0.0000000E+00;  0.0000000E+00;  0.0000000E+00;0;  5.1734440E-07;  4.0000000E+04;  0.0000000E+00;  0.0000000E+00;  4.0000000E+04;  0.0000000E+00;  4.0000000E+04;  5.1723049E-07;  0.0000000E+00;  1.1391778E-10;  2.7842137E-01;
 -1.5000001E-01;  9.9999998E-03; -2.7000001E-01;471;  0.0000000E+00;  0.0000000E+00;  0.0000000E+00;  1.0000000E+03;  1.0000000E-01;  0.0000000E+00;0;  0.0000000E+00;  0.0000000E+00;  0.0000000E+00;0;  1.1960167E-05;  4.0000000E+04;  0.0000000E+00;  0.0000000E+00;  4.0000000E+04;  0.0000000E+00;  4.0000000E+04;  1.2088009E-05;  0.0000000E+00; -1.2784116E-07;  6.1569870E-01;
 -1.5000001E-01;  9.9999998E-03; -2.5999999E-01;472;  0.0000000E+00;  0.0000000E+00;  0.0000000E+00;  1.0000000E+03;  1.0000000E-01;  0.0000000E+00;0;  0.0000000E+00;  0.0000000E+00;  0.0000000E+00;0;  1.4481572E-05;  4.0000000E+04;  0.0000000E+00;  0.0000000E+00;  4.0000000E+04;  0.0000000E+00;  4.0000000E+04;  1.4555688E-05;  0.0000000E+00; -7.4115725E-08;  1.4891932E+00;
 -1.5000001E-01;  9.9999998E-03; -2.5000000E-01;473;  0.0000000E+00;  0.0000000E+00;  0.0000000E+00;  1.0000000E+03;  1.0000000E-01;  0.0000000E+00;0;  0.0000000E+00;  0.0000000E+00;  0.0000000E+00;0;  1.6481574E-05;  4.0000000E+04;  0.0000000E+00;  0.0000000E+00;  4.0000000E+04;  0.0000000E+00;  4.0000000E+04;  1.6501419E-05;  0.0000000E+00; -1.9846031E-08;  2.3128142E+00;
 -1.5000001E-01;  9.9999998E-03; -2.3999999E-01;474;  0.0000000E+00;  0.0000000E+00;  0.0000000E+00;  1.0000000E+03;  1.0000000E-01;  0.0000000E+00;0;  0.0000000E+00;  0.0000000E+00;  0.0000000E+00;0;  1.7785929E-05;  4.0000000E+04;  0.0000000E+00;  0.0000000E+00;  4.0000000E+04;  0.0000000E+00;  4.0000000E+04;  1.7758892E-05;  0.0000000E+00;  2.7037776E-08;  2.9813426E+00;
 -1.5000001E-01;  9.9999998E-03; -2.3000000E-01;475;  0.0000000E+00;  0.0000000E+00;  0.0000000E+00;  1.0000000E+03;  1.0000000E-01;  0.0000000E+00;0;  0.0000000E+00;  0.0000000E+00;  0.0000000E+00;0;  1.8369034E-05;  4.0000000E+04;  0.0000000E+00;  0.0000000E+00;  4.0000000E+04;  0.0000000E+00;  4.0000000E+04;  1.8305680E-05;  0.0000000E+00;  6.3354321E-08;  3.4498041E+00;
 -1.5000001E-01;  9.9999998E-03; -2.2000000E-01;476;  0.0000000E+00;  0.0000000E+00;  0.0000000E+00;  1.0000000E+03;  1.0000000E-01;  0.0000000E+00;0;  0.0000000E+00;  0.0000000E+00;  0.0000000E+00;0;  1.8341794E-05;  4.0000000E+04;  0.0000000E+00;  0.0000000E+00;  4.0000000E+04;  0.0000000E+00;  4.0000000E+04;  1.8250381E-05;  0.0000000E+00;  9.1413916E-08;  3.7427108E+00;
 -1.5000001E-01;  9.9999998E-03; -2.0999999E-01;477;  0.0000000E+00;  0.0000000E+00;  0.0000000E+00;  1.0000000E+03;  1.0000000E-01;  0.0000000E+00;0;  0.0000000E+00;  0.0000000E+00;  0.0000000E+00;0;  1.7904165E-05;  4.0000000E+04;  0.0000000E+00;  0.0000000E+00;  4.0000000E+04;  0.0000000E+00;  4.0000000E+04;  1.7789487E-05;  0.0000000E+00;  1.1467890E-07;  3.9293816E+00;
 -1.5000001E-01;  9.9999998E-03; -2.0000000E-01;478;  0.0000000E+00;  0.0000000E+00;  0.0000000E+00;  1.0000000E+03;  1.0000000E-01;  0.0000000E+00;0;  0.0000000E+00;  0.0000000E+00;  0.0000000E+00;0;  1.7268181E-05;  4.0000000E+04;  0.0000000E+00;  0.0000000E+00;  4.0000000E+04;  0.0000000E+00;  4.0000000E+04;  1.7136821E-05;  0.0000000E+00;  1.3135970E-07;  4.0665812E+00;
 -1.5000001E-01;  9.9999998E-03; -1.9000000E-01;479;  0.0000000E+00;  0.0000000E+00;  0.0000000E+00;  1.0000000E+03;  1.0000000E-01;  0.0000000E+00;0;  0.0000000E+00;  0.0000000E+00;  0.0000000E+00;0;  1.6607964E-05;  4.0000000E+04;  0.0000000E+00;  0.0000000E+00;  4.0000000E+04;  0.0000000E+00;  4.0000000E+04;  1.6468410E-05;  0.0000000E+00;  1.3955463E-07;  4.1780252E+00;
 -1.5000001E-01;  9.9999998E-03; -1.8000001E-01;480;  0.0000000E+00;  0.0000000E+00;  0.0000000E+00;  1.0000000E+03;  1.0000000E-01;  0.0000000E+00;0;  0.0000000E+00;  0.0000000E+00;  0.0000000E+00;0;  1.6044200E-05;  4.0000000E+04;  0.0000000E+00;  0.0000000E+00;  4.0000000E+04;  0.0000000E+00;  4.0000000E+04;  1.5905378E-05;  0.0000000E+00;  1.3882156E-07;  4.2679138E+00;
 -1.5000001E-01;  9.9999998E-03; -1.7000000E-01;481;  0.0000000E+00;  0.0000000E+00;  0.0000000E+00;  1.0000000E+03;  1.0000000E-01;  0.0000000E+00;0;  0.0000000E+00;  0.0000000E+00;  0.0000000E+00;0;  1.5644699E-05;  4.0000000E+04;  0.0000000E+00;  0.0000000E+00;  4.0000000E+04;  0.0000000E+00;  4.0000000E+04;  1.5514892E-05;  0.0000000E+00;  1.2980688E-07;  4.3330889E+00;
 -1.5000001E-01;  9.9999998E-03; -1.6000000E-01;482;  0.0000000E+00;  0.0000000E+00;  0.0000000E+00;  1.0000000E+03;  1.0000000E-01;  0.0000000E+00;0;  0.0000000E+00;  0.0000000E+00;  0.0000000E+00;0;  1.5432051E-05;  4.0000000E+04;  0.0000000E+00;  0.0000000E+00;  4.0000000E+04;  0.0000000E+00;  4.0000000E+04;  1.5317979E-05;  0.0000000E+00;  1.1407226E-07;  4.3704324E+00;
 -1.5000001E-01;  9.9999998E-03; -1.5000001E-01;483;  0.0000000E+00;  0.0000000E+00;  0.0000000E+00;  1.0000000E+03;  1.0000000E-01;  0.0000000E+00;0;  0.0000000E+00;  0.0000000E+00;  0.0000000E+00;0;  1.5394551E-05;  4.0000000E+04;  0.0000000E+00;  0.0000000E+00;  4.0000000E+04;  0.0000000E+00;  4.0000000E+04;  1.5300660E-05;  0.0000000E+00;  9.3891245E-08;  4.3798842E+00;
 -1.5000001E-01;  9.9999998E-03; -1.4000000E-01;484;  0.0000000E+00;  0.0000000E+00;  0.0000000E+00;  1.0000000E+03;  1.0000000E-01;  0.0000000E+00;0;  0.0000000E+00;  0.0000000E+00;  0.0000000E+00;0;  1.5498343E-05;  4.0000000E+04;  0.0000000E+00;  0.0000000E+00;  4.0000000E+04;  0.0000000E+00;  4.0000000E+04;  1.5426473E-05;  0.0000000E+00;  7.1870637E-08;  4.3649545E+00;
 -1.5000001E-01;  9.9999998E-03; -1.3000000E-01;485;  0.0000000E+00;  0.0000000E+00;  0.0000000E+00;  1.0000000E+03;  1.0000000E-01;  0.0000000E+00;0;  0.0000000E+00;  0.0000000E+00;  0.0000000E+00;0;  1.5698288E-05;  4.0000000E+04;  0.0000000E+00;  0.0000000E+00;  4.0000000E+04;  0.0000000E+00;  4.0000000E+04;  1.5647831E-05;  0.0000000E+00;  5.0456570E-08;  4.3326025E+00;
 -1.5000001E-01;  9.9999998E-03; -1.2000000E-01;486;  0.0000000E+00;  0.0000000E+00;  0.0000000E+00;  1.0000000E+03;  1.0000000E-01;  0.0000000E+00;0;  0.0000000E+00;  0.0000000E+00;  0.0000000E+00;0;  1.5947200E-05;  4.0000000E+04;  0.0000000E+00;  0.0000000E+00;  4.0000000E+04;  0.0000000E+00;  4.0000000E+04;  1.5915692E-05;  0.0000000E+00;  3.1508741E-08;  4.2923765E+00;
 -1.5000001E-01;  9.9999998E-03; -1.1000000E-01;487;  0.0000000E+00;  0.0000000E+00;  0.0000000E+00;  1.0000000E+03;  1.0000000E-01;  0.0000000E+00;0;  0.0000000E+00;  0.0000000E+00;  0.0000000E+00;0;  1.6202859E-05;  4.0000000E+04;  0.0000000E+00;  0.0000000E+00;  4.0000000E+04;  0.0000000E+00;  4.0000000E+04;  1.6186765E-05;  0.0000000E+00;  1.6095104E-08;  4.2544136E+00;
 -1.4000000E-01;  9.9999998E-03; -2.7000001E-01;562;  0.0000000E+00;  0.0000000E+00;  0.0000000E+00;  1.0000000E+03;  1.0000000E-01;  0.0000000E+00;0;  0.0000000E+00;  0.0000000E+00;  0.0000000E+00;0;  5.1001603E-05;  4.0000000E+04;  0.0000000E+00;  0.0000000E+00;  4.0000000E+04;  0.0000000E+00;  4.0000000E+04;  5.1927793E-05;  0.0000000E+00; -9.2618984E-07;  2.8657732E+00;
 -1.4000000E-01;  9.9999998E-03; -2.5999999E-01;563;  0.0000000E+00;  0.0000000E+00;  0.0000000E+00;  1.0000000E+03;  1.0000000E-01;  0.0000000E+00;0;  0.0000000E+00;  0.0000000E+00;  0.0000000E+00;0;  6.1485676E-05;  4.0000000E+04;  0.0000000E+00;  0.0000000E+00;  4.0000000E+04;  0.0000000E+00;  4.0000000E+04;  6.2177103E-05;  0.0000000E+00; -6.9142646E-07;  6.8455234E+00;
 -1.4000000E-01;  9.9999998E-03; -2.5000000E-01;564;  0.0000000E+00;  0.0000000E+00;  0.0000000E+00;  1.0000000E+03;  1.0000000E-01;  0.0000000E+00;0;  0.0000000E+00;  0.0000000E+00;  0.0000000E+00;0;  7.0597082E-05;  4.0000000E+04;  0.0000000E+00;  0.0000000E+00;  4.0000000E+04;  0.0000000E+00;  4.0000000E+04;  7.1000795E-05;  0.0000000E+00; -4.0371197E-07;  1.0654190E+01;
 -1.4000000E-01;  9.9999998E-03; -2.3999999E-01;565;  0.0000000E+00;  0.0000000E+00;  0.0000000E+00;  1.0000000E+03;  1.0000000E-01;  0.0000000E+00;0;  0.0000000E+00;  0.0000000E+00;  0.0000000E+00;0;  7.7651996E-05;  4.0000000E+04;  0.0000000E+00;  0.0000000E+00;  4.0000000E+04;  0.0000000E+00;  4.0000000E+04;  7.7747747E-05;  0.0000000E+00; -9.5749620E-08;  1.3865502E+01;
 -1.4000000E-01;  9.9999998E-03; -2.3000000E-01;566;  0.0000000E+00;  0.0000000E+00;  0.0000000E+00;  1.0000000E+03;  1.0000000E-01;  0.0000000E+00;0;  0.0000000E+00;  0.0000000E+00;  0.0000000E+00;0;  8.2310609E-05;  4.0000000E+04;  0.0000000E+00;  0.0000000E+00;  4.0000000E+04;  0.0000000E+00;  4.0000000E+04;  8.2107988E-05;  0.0000000E+00;  2.0262009E-07;  1.6246962E+01;
 -1.4000000E-01;  9.9999998E-03; -2.2000000E-01;567;  0.0000000E+00;  0.0000000E+00;  0.0000000E+00;  1.0000000E+03;  1.0000000E-01;  0.0000000E+00;0;  0.0000000E+00;  0.0000000E+00;  0.0000000E+00;0;  8.4626583E-05;  4.0000000E+04;  0.0000000E+00;  0.0000000E+00;  4.0000000E+04;  0.0000000E+00;  4.0000000E+04;  8.4157560E-05;  0.0000000E+00;  4.6902568E-07;  1.7787663E+01;
 -1.4000000E-01;  9.9999998E-03; -2.0999999E-01;568;  0.0000000E+00;  0.0000000E+00;  0.0000000E+00;  1.0000000E+03;  1.0000000E-01;  0.0000000E+00;0;  0.0000000E+00;  0.0000000E+00;  0.0000000E+00;0;  8.5012958E-05;  4.0000000E+04;  0.0000000E+00;  0.0000000E+00;  4.0000000E+04;  0.0000000E+00;  4.0000000E+04;  8.4323459E-05;  0.0000000E+00;  6.8949907E-07;  1.8639505E+01;
 -1.4000000E-01;  9.9999998E-03; -2.0000000E-01;569;  0.0000000E+00;  0.0000000E+00;  0.0000000E+00;  1.0000000E+03;  1.0000000E-01;  0.0000000E+00;0;  0.0000000E+00;  0.0000000E+00;  0.0000000E+00;0;  8.4104366E-05;  4.0000000E+04;  0.0000000E+00;  0.0000000E+00;  4.0000000E+04;  0.0000000E+00;  4.0000000E+04;  8.3246407E-05;  0.0000000E+00;  8.5795875E-07;  1.9049698E+01;
 -1.4000000E-01;  9.9999998E-03; -1.9000000E-01;570;  0.0000000E+00;  0.0000000E+00;  0.0000000E+00;  1.0000000E+03;  1.0000000E-01;  0.0000000E+00;0;  0.0000000E+00;  0.0000000E+00;  0.0000000E+00;0;  8.2580904E-05;  4.0000000E+04;  0.0000000E+00;  0.0000000E+00;  4.0000000E+04;  0.0000000E+00;  4.0000000E+04;  8.1613776E-05;  0.0000000E+00;  9.6712790E-07;  1.9254202E+01;
 -1.4000000E-01;  9.9999998E-03; -1.8000001E-01;571;  0.0000000E+00;  0.0000000E+00;  0.0000000E+00;  1.0000000E+03;  1.0000000E-01;  0.0000000E+00;0;  0.0000000E+00;  0.0000000E+00;  0.0000000E+00;0;  8.1015613E-05;  4.0000000E+04;  0.0000000E+00;  0.0000000E+00;  4.0000000E+04;  0.0000000E+00;  4.0000000E+04;  8.0008118E-05;  0.0000000E+00;  1.0074967E-06;  1.9382713E+01;
 -1.4000000E-01;  9.9999998E-03; -1.7000000E-01;572;  0.0000000E+00;  0.0000000E+00;  0.0000000E+00;  1.0000000E+03;  1.0000000E-01;  0.0000000E+00;0;  0.0000000E+00;  0.0000000E+00;  0.0000000E+00;0;  7.9809695E-05;  4.0000000E+04;  0.0000000E+00;  0.0000000E+00;  4.0000000E+04;  0.0000000E+00;  4.0000000E+04;  7.8829857E-05;  0.0000000E+00;  9.7984196E-07;  1.9474741E+01;
 -1.4000000E-01;  9.9999998E-03; -1.6000000E-01;573;  0.0000000E+00;  0.0000000E+00;  0.0000000E+00;  1.0000000E+03;  1.0000000E-01;  0.0000000E+00;0;  0.0000000E+00;  0.0000000E+00;  0.0000000E+00;0;  7.9181540E-05;  4.0000000E+04;  0.0000000E+00;  0.0000000E+00;  4.0000000E+04;  0.0000000E+00;  4.0000000E+04;  7.8287623E-05;  0.0000000E+00;  8.9391614E-07;  1.9528885E+01;
 -1.4000000E-01;  9.9999998E-03; -1.5000001E-01;574;  0.0000000E+00;  0.0000000E+00;  0.0000000E+00;  1.0000000E+03;  1.0000000E-01;  0.0000000E+00;0;  0.0000000E+00;  0.0000000E+00;  0.0000000E+00;0;  7.9186793E-05;  4.0000000E+04;  0.0000000E+00;  0.0000000E+00;  4.0000000E+04;  0.0000000E+00;  4.0000000E+04;  7.8421355E-05;  0.0000000E+00;  7.6543478E-07;  1.9536980E+01;
 -1.4000000E-01;  9.9999998E-03; -1.4000000E-01;575;  0.0000000E+00;  0.0000000E+00;  0.0000000E+00;  1.0000000E+03;  1.0000000E-01;  0.0000000E+00;0;  0.0000000E+00;  0.0000000E+00;  0.0000000E+00;0;  7.9756152E-05;  4.0000000E+04;  0.0000000E+00;  0.0000000E+00;  4.0000000E+04;  0.0000000E+00;  4.0000000E+04;  7.9143239E-05;  0.0000000E+00;  6.1291246E-07;  1.9500336E+01;
 -1.4000000E-01;  9.9999998E-03; -1.3000000E-01;576;  0.0000000E+00;  0.0000000E+00;  0.0000000E+00;  1.0000000E+03;  1.0000000E-01;  0.0000000E+00;0;  0.0000000E+00;  0.0000000E+00;  0.0000000E+00;0;  8.0739715E-05;  4.0000000E+04;  0.0000000E+00;  0.0000000E+00;  4.0000000E+04;  0.0000000E+00;  4.0000000E+04;  8.0285121E-05;  0.0000000E+00;  4.5459626E-07;  1.9434162E+01;
 -1.4000000E-01;  9.9999998E-03; -1.2000000E-01;577;  0.0000000E+00;  0.0000000E+00;  0.0000000E+00;  1.0000000E+03;  1.0000000E-01;  0.0000000E+00;0;  0.0000000E+00;  0.0000000E+00;  0.0000000E+00;0;  8.1950937E-05;  4.0000000E+04;  0.0000000E+00;  0.0000000E+00;  4.0000000E+04;  0.0000000E+00;  4.0000000E+04;  8.1645056E-05;  0.0000000E+00;  3.0588208E-07;  1.9363190E+01;
 -1.4000000E-01;  9.9999998E-03; -1.1000000E-01;578;  0.0000000E+00;  0.0000000E+00;  0.0000000E+00;  1.0000000E+03;  1.0000000E-01;  0.0000000E+00;0;  0.0000000E+00;  0.0000000E+00;  0.0000000E+00;0;  8.3204810E-05;  4.0000000E+04;  0.0000000E+00;  0.0000000E+00;  4.0000000E+04;  0.0000000E+00;  4.0000000E+04;  8.3027131E-05;  0.0000000E+00;  1.7768006E-07;  1.9314167E+01;
 -1.3000000E-01;  9.9999998E-03; -2.7000001E-01;653;  0.0000000E+00;  0.0000000E+00;  0.0000000E+00;  1.0000000E+03;  1.0000000E-01;  0.0000000E+00;0;  0.0000000E+00;  0.0000000E+00;  0.0000000E+00;0;  1.3332043E-04;  4.0000000E+04;  0.0000000E+00;  0.0000000E+00;  4.0000000E+04;  0.0000000E+00;  4.0000000E+04;  1.3674474E-04;  0.0000000E+00; -3.4243069E-06;  8.4602489E+00;
 -1.3000000E-01;  9.9999998E-03; -2.5999999E-01;654;  0.0000000E+00;  0.0000000E+00;  0.0000000E+00;  1.0000000E+03;  1.0000000E-01;  0.0000000E+00;0;  0.0000000E+00;  0.0000000E+00;  0.0000000E+00;0;  1.5948775E-04;  4.0000000E+04;  0.0000000E+00;  0.0000000E+00;  4.0000000E+04;  0.0000000E+00;  4.0000000E+04;  1.6222881E-04;  0.0000000E+00; -2.7410504E-06;  2.0124704E+01;
 -1.3000000E-01;  9.9999998E-03; -2.5000000E-01;655;  0.0000000E+00;  0.0000000E+00;  0.0000000E+00;  1.0000000E+03;  1.0000000E-01;  0.0000000E+00;0;  0.0000000E+00;  0.0000000E+00;  0.0000000E+00;0;  1.8301733E-04;  4.0000000E+04;  0.0000000E+00;  0.0000000E+00;  4.0000000E+04;  0.0000000E+00;  4.0000000E+04;  1.8484490E-04;  0.0000000E+00; -1.8275812E-06;  3.1259283E+01;
 -1.3000000E-01;  9.9999998E-03; -2.3999999E-01;656;  0.0000000E+00;  0.0000000E+00;  0.0000000E+00;  1.0000000E+03;  1.0000000E-01;  0.0000000E+00;0;  0.0000000E+00;  0.0000000E+00;  0.0000000E+00;0;  2.0238363E-04;  4.0000000E+04;  0.0000000E+00;  0.0000000E+00;  4.0000000E+04;  0.0000000E+00;  4.0000000E+04;  2.0315283E-04;  0.0000000E+00; -7.6919451E-07;  4.0706024E+01;
 -1.3000000E-01;  9.9999998E-03; -2.3000000E-01;657;  0.0000000E+00;  0.0000000E+00;  0.0000000E+00;  1.0000000E+03;  1.0000000E-01;  0.0000000E+00;0;  0.0000000E+00;  0.0000000E+00;  0.0000000E+00;0;  2.1665523E-04;  4.0000000E+04;  0.0000000E+00;  0.0000000E+00;  4.0000000E+04;  0.0000000E+00;  4.0000000E+04;  2.1632068E-04;  0.0000000E+00;  3.3454293E-07;  4.7768646E+01;
 -1.3000000E-01;  9.9999998E-03; -2.2000000E-01;658;  0.0000000E+00;  0.0000000E+00;  0.0000000E+00;  1.0000000E+03;  1.0000000E-01;  0.0000000E+00;0;  0.0000000E+00;  0.0000000E+00;  0.0000000E+00;0;  2.2563105E-04;  4.0000000E+04;  0.0000000E+00;  0.0000000E+00;  4.0000000E+04;  0.0000000E+00;  4.0000000E+04;  2.2424599E-04;  0.0000000E+00;  1.3850600E-06;  5.2305790E+01;
 -1.3000000E-01;  9.9999998E-03; -2.0999999E-01;659;  0.0000000E+00;  0.0000000E+00;  0.0000000E+00;  1.0000000E+03;  1.0000000E-01;  0.0000000E+00;0;  0.0000000E+00;  0.0000000E+00;  0.0000000E+00;0;  2.2985211E-04;  4.0000000E+04;  0.0000000E+00;  0.0000000E+00;  4.0000000E+04;  0.0000000E+00;  4.0000000E+04;  2.2755325E-04;  0.0000000E+00;  2.2988729E-06;  5.4647739E+01;
 -1.3000000E-01;  9.9999998E-03; -2.0000000E-01;660;  0.0000000E+00;  0.0000000E+00;  0.0000000E+00;  1.0000000E+03;  1.0000000E-01;  0.0000000E+00;0;  0.0000000E+00;  0.0000000E+00;  0.0000000E+00;0;  2.3043762E-04;  4.0000000E+04;  0.0000000E+00;  0.0000000E+00;  4.0000000E+04;  0.0000000E+00;  4.0000000E+04;  2.2742269E-04;  0.0000000E+00;  3.0149440E-06;  5.5413551E+01;
 -1.3000000E-01;  9.9999998E-03; -1.9000000E-01;661;  0.0000000E+00;  0.0000000E+00;  0.0000000E+00;  1.0000000E+03;  1.0000000E-01;  0.0000000E+00;0;  0.0000000E+00;  0.0000000E+00;  0.0000000E+00;0;  2.2881424E-04;  4.0000000E+04;  0.0000000E+00;  0.0000000E+00;  4.0000000E+04;  0.0000000E+00;  4.0000000E+04;  2.2531679E-04;  0.0000000E+00;  3.4974494E-06;  5.5283707E+01;
 -1.3000000E-01;  9.9999998E-03; -1.8000001E-01;662;  0.0000000E+00;  0.0000000E+00;  0.0000000E+00;  1.0000000E+03;  1.0000000E-01;  0.0000000E+00;0;  0.0000000E+00;  0.0000000E+00;  0.0000000E+00;0;  2.2638631E-04;  4.0000000E+04;  0.0000000E+00;  0.0000000E+00;  4.0000000E+04;  0.0000000E+00;  4.0000000E+04;  2.2265447E-04;  0.0000000E+00;  3.7318348E-06;  5.4833408E+01;
 -1.3000000E-01;  9.9999998E-03; -1.7000000E-01;663;  0.0000000E+00;  0.0000000E+00;  0.0000000E+00;  1.0000000E+03;  1.0000000E-01;  0.0000000E+00;0;  0.0000000E+00;  0.0000000E+00;  0.0000000E+00;0;  2.2427065E-04;  4.0000000E+04;  0.0000000E+00;  0.0000000E+00;  4.0000000E+04;  0.0000000E+00;  4.0000000E+04;  2.2055596E-04;  0.0000000E+00;  3.7147004E-06;  5.4386723E+01;
 -1.3000000E-01;  9.9999998E-03; -1.6000000E-01;664;  0.0000000E+00;  0.0000000E+00;  0.0000000E+00;  1.0000000E+03;  1.0000000E-01;  0.0000000E+00;0;  0.0000000E+00;  0.0000000E+00;  0.0000000E+00;0;  2.2318259E-04;  4.0000000E+04;  0.0000000E+00;  0.0000000E+00;  4.0000000E+04;  0.0000000E+00;  4.0000000E+04;  2.1971087E-04;  0.0000000E+00;  3.4717179E-06;  5.4045940E+01;
 -1.3000000E-01;  9.9999998E-03; -1.5000001E-01;665;  0.0000000E+00;  0.0000000E+00;  0.0000000E+00;  1.0000000E+03;  1.0000000E-01;  0.0000000E+00;0;  0.0000000E+00;  0.0000000E+00;  0.0000000E+00;0;  2.2343479E-04;  4.0000000E+04;  0.0000000E+00;  0.0000000E+00;  4.0000000E+04;  0.0000000E+00;  4.0000000E+04;  2.2038151E-04;  0.0000000E+00;  3.0532790E-06;  5.3812565E+01;
 -1.3000000E-01;  9.9999998E-03; -1.4000000E-01;666;  0.0000000E+00;  0.0000000E+00;  0.0000000E+00;  1.0000000E+03;  1.0000000E-01;  0.0000000E+00;0;  0.0000000E+00;  0.0000000E+00;  0.0000000E+00;0;  2.2499810E-04;  4.0000000E+04;  0.0000000E+00;  0.0000000E+00;  4.0000000E+04;  0.0000000E+00;  4.0000000E+04;  2.2247550E-04;  0.0000000E+00;  2.5226013E-06;  5.3667698E+01;
 -1.3000000E-01;  9.9999998E-03; -1.3000000E-01;667;  0.0000000E+00;  0.0000000E+00;  0.0000000E+00;  1.0000000E+03;  1.0000000E-01;  0.0000000E+00;0;  0.0000000E+00;  0.0000000E+00;  0.0000000E+00;0;  2.2759668E-04;  4.0000000E+04;  0.0000000E+00;  0.0000000E+00;  4.0000000E+04;  0.0000000E+00;  4.0000000E+04;  2.2565182E-04;  0.0000000E+00;  1.9448623E-06;  5.3607689E+01;
 -1.3000000E-01;  9.9999998E-03; -1.2000000E-01;668;  0.0000000E+00;  0.0000000E+00;  0.0000000E+00;  1.0000000E+03;  1.0000000E-01;  0.0000000E+00;0;  0.0000000E+00;  0.0000000E+00;  0.0000000E+00;0;  2.3081645E-04;  4.0000000E+04;  0.0000000E+00;  0.0000000E+00;  4.0000000E+04;  0.0000000E+00;  4.0000000E+04;  2.2943788E-04;  0.0000000E+00;  1.3785711E-06;  5.3646275E+01;
 -1.3000000E-01;  9.9999998E-03; -1.1000000E-01;669;  0.0000000E+00;  0.0000000E+00;  0.0000000E+00;  1.0000000E+03;  1.0000000E-01;  0.0000000E+00;0;  0.0000000E+00;  0.0000000E+00;  0.0000000E+00;0;  2.3420779E-04;  4.0000000E+04;  0.0000000E+00;  0.0000000E+00;  4.0000000E+04;  0.0000000E+00;  4.0000000E+04;  2.3333805E-04;  0.0000000E+00;  8.6973165E-07;  5.3800480E+01;
 -1.2000000E-01;  9.9999998E-03; -2.7000001E-01;744;  0.0000000E+00;  0.0000000E+00;  0.0000000E+00;  1.0000000E+03;  1.0000000E-01;  0.0000000E+00;0;  0.0000000E+00;  0.0000000E+00;  0.0000000E+00;0;  2.6447003E-04;  4.0000000E+04;  0.0000000E+00;  0.0000000E+00;  4.0000000E+04;  0.0000000E+00;  4.0000000E+04;  2.7351303E-04;  0.0000000E+00; -9.0429967E-06;  1.9279705E+01;
 -1.2000000E-01;  9.9999998E-03; -2.5999999E-01;745;  0.0000000E+00;  0.0000000E+00;  0.0000000E+00;  1.0000000E+03;  1.0000000E-01;  0.0000000E+00;0;  0.0000000E+00;  0.0000000E+00;  0.0000000E+00;0;  3.1420455E-04;  4.0000000E+04;  0.0000000E+00;  0.0000000E+00;  4.0000000E+04;  0.0000000E+00;  4.0000000E+04;  3.2165623E-04;  0.0000000E+00; -7.4516806E-06;  4.5803116E+01;
 -1.2000000E-01;  9.9999998E-03; -2.5000000E-01;746;  0.0000000E+00;  0.0000000E+00;  0.0000000E+00;  1.0000000E+03;  1.0000000E-01;  0.0000000E+00;0;  0.0000000E+00;  0.0000000E+00;  0.0000000E+00;0;  3.5968871E-04;  4.0000000E+04;  0.0000000E+00;  0.0000000E+00;  4.0000000E+04;  0.0000000E+00;  4.0000000E+04;  3.6492455E-04;  0.0000000E+00; -5.2358332E-06;  7.0991592E+01;
 -1.2000000E-01;  9.9999998E-03; -2.3999999E-01;747;  0.0000000E+00;  0.0000000E+00;  0.0000000E+00;  1.0000000E+03;  1.0000000E-01;  0.0000000E+00;0;  0.0000000E+00;  0.0000000E+00;  0.0000000E+00;0;  3.9829867E-04;  4.0000000E+04;  0.0000000E+00;  0.0000000E+00;  4.0000000E+04;  0.0000000E+00;  4.0000000E+04;  4.0087636E-04;  0.0000000E+00; -2.5776919E-06;  9.2351929E+01;
 -1.2000000E-01;  9.9999998E-03; -2.3000000E-01;748;  0.0000000E+00;  0.0000000E+00;  0.0000000E+00;  1.0000000E+03;  1.0000000E-01;  0.0000000E+00;0;  0.0000000E+00;  0.0000000E+00;  0.0000000E+00;0;  4.2828961E-04;  4.0000000E+04;  0.0000000E+00;  0.0000000E+00;  4.0000000E+04;  0.0000000E+00;  4.0000000E+04;  4.2800527E-04;  0.0000000E+00;  2.8435528E-07;  1.0830636E+02;
 -1.2000000E-01;  9.9999998E-03; -2.2000000E-01;749;  0.0000000E+00;  0.0000000E+00;  0.0000000E+00;  1.0000000E+03;  1.0000000E-01;  0.0000000E+00;0;  0.0000000E+00;  0.0000000E+00;  0.0000000E+00;0;  4.4903200E-04;  4.0000000E+04;  0.0000000E+00;  0.0000000E+00;  4.0000000E+04;  0.0000000E+00;  4.0000000E+04;  4.4594091E-04;  0.0000000E+00;  3.0910858E-06;  1.1839732E+02;
 -1.2000000E-01;  9.9999998E-03; -2.0999999E-01;750;  0.0000000E+00;  0.0000000E+00;  0.0000000E+00;  1.0000000E+03;  1.0000000E-01;  0.0000000E+00;0;  0.0000000E+00;  0.0000000E+00;  0.0000000E+00;0;  4.6107621E-04;  4.0000000E+04;  0.0000000E+00;  0.0000000E+00;  4.0000000E+04;  0.0000000E+00;  4.0000000E+04;  4.5547384E-04;  0.0000000E+00;  5.6023828E-06;  1.2320936E+02;
 -1.2000000E-01;  9.9999998E-03; -2.0000000E-01;751;  0.0000000E+00;  0.0000000E+00;  0.0000000E+00;  1.0000000E+03;  1.0000000E-01;  0.0000000E+00;0;  0.0000000E+00;  0.0000000E+00;  0.0000000E+00;0;  4.6598734E-04;  4.0000000E+04;  0.0000000E+00;  0.0000000E+00;  4.0000000E+04;  0.0000000E+00;  4.0000000E+04;  4.5835902E-04;  0.0000000E+00;  7.6283081E-06;  1.2404473E+02;
 -1.2000000E-01;  9.9999998E-03; -1.9000000E-01;752;  0.0000000E+00;  0.0000000E+00;  0.0000000E+00;  1.0000000E+03;  1.0000000E-01;  0.0000000E+00;0;  0.0000000E+00;  0.0000000E+00;  0.0000000E+00;0;  4.6600879E-04;  4.0000000E+04;  0.0000000E+00;  0.0000000E+00;  4.0000000E+04;  0.0000000E+00;  4.0000000E+04;  4.5696195E-04;  0.0000000E+00;  9.0468384E-06;  1.2246260E+02;
 -1.2000000E-01;  9.9999998E-03; -1.8000001E-01;753;  0.0000000E+00;  0.0000000E+00;  0.0000000E+00;  1.0000000E+03;  1.0000000E-01;  0.0000000E+00;0;  0.0000000E+00;  0.0000000E+00;  0.0000000E+00;0;  4.6358918E-04;  4.0000000E+04;  0.0000000E+00;  0.0000000E+00;  4.0000000E+04;  0.0000000E+00;  4.0000000E+04;  4.5378337E-04;  0.0000000E+00;  9.8058081E-06;  1.1987489E+02;
 -1.2000000E-01;  9.9999998E-03; -1.7000000E-01;754;  0.0000000E+00;  0.0000000E+00;  0.0000000E+00;  1.0000000E+03;  1.0000000E-01;  0.0000000E+00;0;  0.0000000E+00;  0.0000000E+00;  0.0000000E+00;0;  4.6090773E-04;  4.0000000E+04;  0.0000000E+00;  0.0000000E+00;  4.0000000E+04;  0.0000000E+00;  4.0000000E+04;  4.5099083E-04;  0.0000000E+00;  9.9168883E-06;  1.1732664E+02;
 -1.2000000E-01;  9.9999998E-03; -1.6000000E-01;755;  0.0000000E+00;  0.0000000E+00;  0.0000000E+00;  1.0000000E+03;  1.0000000E-01;  0.0000000E+00;0;  0.0000000E+00;  0.0000000E+00;  0.0000000E+00;0;  4.5952146E-04;  4.0000000E+04;  0.0000000E+00;  0.0000000E+00;  4.0000000E+04;  0.0000000E+00;  4.0000000E+04;  4.5008762E-04;  0.0000000E+00;  9.4338229E-06;  1.1535616E+02;
 -1.2000000E-01;  9.9999998E-03; -1.5000001E-01;756;  0.0000000E+00;  0.0000000E+00;  0.0000000E+00;  1.0000000E+03;  1.0000000E-01;  0.0000000E+00;0;  0.0000000E+00;  0.0000000E+00;  0.0000000E+00;0;  4.6026410E-04;  4.0000000E+04;  0.0000000E+00;  0.0000000E+00;  4.0000000E+04;  0.0000000E+00;  4.0000000E+04;  4.5179788E-04;  0.0000000E+00;  8.4662124E-06;  1.1409908E+02;
 -1.2000000E-01;  9.9999998E-03; -1.4000000E-01;757;  0.0000000E+00;  0.0000000E+00;  0.0000000E+00;  1.0000000E+03;  1.0000000E-01;  0.0000000E+00;0;  0.0000000E+00;  0.0000000E+00;  0.0000000E+00;0;  4.6330169E-04;  4.0000000E+04;  0.0000000E+00;  0.0000000E+00;  4.0000000E+04;  0.0000000E+00;  4.0000000E+04;  4.5613816E-04;  0.0000000E+00;  7.1635354E-06;  1.1350708E+02;
 -1.2000000E-01;  9.9999998E-03; -1.3000000E-01;758;  0.0000000E+00;  0.0000000E+00;  0.0000000E+00;  1.0000000E+03;  1.0000000E-01;  0.0000000E+00;0;  0.0000000E+00;  0.0000000E+00;  0.0000000E+00;0;  4.6828363E-04;  4.0000000E+04;  0.0000000E+00;  0.0000000E+00;  4.0000000E+04;  0.0000000E+00;  4.0000000E+04;  4.6259543E-04;  0.0000000E+00;  5.6881881E-06;  1.1348515E+02;
 -1.2000000E-01;  9.9999998E-03; -1.2000000E-01;759;  0.0000000E+00;  0.0000000E+00;  0.0000000E+00;  1.0000000E+03;  1.0000000E-01;  0.0000000E+00;0;  0.0000000E+00;  0.0000000E+00;  0.0000000E+00;0;  4.7453021E-04;  4.0000000E+04;  0.0000000E+00;  0.0000000E+00;  4.0000000E+04;  0.0000000E+00;  4.0000000E+04;  4.7033696E-04;  0.0000000E+00;  4.1932458E-06;  1.1394363E+02;
 -1.2000000E-01;  9.9999998E-03; -1.1000000E-01;760;  0.0000000E+00;  0.0000000E+00;  0.0000000E+00;  1.0000000E+03;  1.0000000E-01;  0.0000000E+00;0;  0.0000000E+00;  0.0000000E+00;  0.0000000E+00;0;  4.8123155E-04;  4.0000000E+04;  0.0000000E+00;  0.0000000E+00;  4.0000000E+04;  0.0000000E+00;  4.0000000E+04;  4.7842468E-04;  0.0000000E+00;  2.8068746E-06;  1.1479575E+02;
 -1.1000000E-01;  9.9999998E-03; -2.7000001E-01;835;  0.0000000E+00;  0.0000000E+00;  0.0000000E+00;  1.0000000E+03;  1.0000000E-01;  0.0000000E+00;0;  0.0000000E+00;  0.0000000E+00;  0.0000000E+00;0;  4.3901650E-04;  4.0000000E+04;  0.0000000E+00;  0.0000000E+00;  4.0000000E+04;  0.0000000E+00;  4.0000000E+04;  4.5847212E-04;  0.0000000E+00; -1.9455618E-05;  3.7552338E+01;
 -1.1000000E-01;  9.9999998E-03; -2.5999999E-01;836;  0.0000000E+00;  0.0000000E+00;  0.0000000E+00;  1.0000000E+03;  1.0000000E-01;  0.0000000E+00;0;  0.0000000E+00;  0.0000000E+00;  0.0000000E+00;0;  5.1892421E-04;  4.0000000E+04;  0.0000000E+00;  0.0000000E+00;  4.0000000E+04;  0.0000000E+00;  4.0000000E+04;  5.3518632E-04;  0.0000000E+00; -1.6262138E-05;  8.8595245E+01;
 -1.1000000E-01;  9.9999998E-03; -2.5000000E-01;837;  0.0000000E+00;  0.0000000E+00;  0.0000000E+00;  1.0000000E+03;  1.0000000E-01;  0.0000000E+00;0;  0.0000000E+00;  0.0000000E+00;  0.0000000E+00;0;  5.9271010E-04;  4.0000000E+04;  0.0000000E+00;  0.0000000E+00;  4.0000000E+04;  0.0000000E+00;  4.0000000E+04;  6.0444872E-04;  0.0000000E+00; -1.1738648E-05;  1.3689337E+02;
 -1.1000000E-01;  9.9999998E-03; -2.3999999E-01;838;  0.0000000E+00;  0.0000000E+00;  0.0000000E+00;  1.0000000E+03;  1.0000000E-01;  0.0000000E+00;0;  0.0000000E+00;  0.0000000E+00;  0.0000000E+00;0;  6.5645331E-04;  4.0000000E+04;  0.0000000E+00;  0.0000000E+00;  4.0000000E+04;  0.0000000E+00;  4.0000000E+04;  6.6268264E-04;  0.0000000E+00; -6.2293525E-06;  1.7776680E+02;
 -1.1000000E-01;  9.9999998E-03; -2.3000000E-01;839;  0.0000000E+00;  0.0000000E+00;  0.0000000E+00;  1.0000000E+03;  1.0000000E-01;  0.0000000E+00;0;  0.0000000E+00;  0.0000000E+00;  0.0000000E+00;0;  7.0742646E-04;  4.0000000E+04;  0.0000000E+00;  0.0000000E+00;  4.0000000E+04;  0.0000000E+00;  4.0000000E+04;  7.0763263E-04;  0.0000000E+00; -2.0617733E-07;  2.0821588E+02;
 -1.1000000E-01;  9.9999998E-03; -2.2000000E-01;840;  0.0000000E+00;  0.0000000E+00;  0.0000000E+00;  1.0000000E+03;  1.0000000E-01;  0.0000000E+00;0;  0.0000000E+00;  0.0000000E+00;  0.0000000E+00;0;  7.4444199E-04;  4.0000000E+04;  0.0000000E+00;  0.0000000E+00;  4.0000000E+04;  0.0000000E+00;  4.0000000E+04;  7.3864456E-04;  0.0000000E+00;  5.7974148E-06;  2.2720219E+02;
 -1.1000000E-01;  9.9999998E-03; -2.0999999E-01;841;  0.0000000E+00;  0.0000000E+00;  0.0000000E+00;  1.0000000E+03;  1.0000000E-01;  0.0000000E+00;0;  0.0000000E+00;  0.0000000E+00;  0.0000000E+00;0;  7.6797919E-04;  4.0000000E+04;  0.0000000E+00;  0.0000000E+00;  4.0000000E+04;  0.0000000E+00;  4.0000000E+04;  7.5671350E-04;  0.0000000E+00;  1.1265702E-05;  2.3559105E+02;
 -1.1000000E-01;  9.9999998E-03; -2.0000000E-01;842;  0.0000000E+00;  0.0000000E+00;  0.0000000E+00;  1.0000000E+03;  1.0000000E-01;  0.0000000E+00;0;  0.0000000E+00;  0.0000000E+00;  0.0000000E+00;0;  7.8001257E-04;  4.0000000E+04;  0.0000000E+00;  0.0000000E+00;  4.0000000E+04;  0.0000000E+00;  4.0000000E+04;  7.6424080E-04;  0.0000000E+00;  1.5771764E-05;  2.3569989E+02;
 -1.1000000E-01;  9.9999998E-03; -1.9000000E-01;843;  0.0000000E+00;  0.0000000E+00;  0.0000000E+00;  1.0000000E+03;  1.0000000E-01;  0.0000000E+00;0;  0.0000000E+00;  0.0000000E+00;  0.0000000E+00;0;  7.8360969E-04;  4.0000000E+04;  0.0000000E+00;  0.0000000E+00;  4.0000000E+04;  0.0000000E+00;  4.0000000E+04;  7.6458242E-04;  0.0000000E+00;  1.9027279E-05;  2.3055333E+02;
 -1.1000000E-01;  9.9999998E-03; -1.8000001E-01;844;  0.0000000E+00;  0.0000000E+00;  0.0000000E+00;  1.0000000E+03;  1.0000000E-01;  0.0000000E+00;0;  0.0000000E+00;  0.0000000E+00;  0.0000000E+00;0;  7.8234298E-04;  4.0000000E+04;  0.0000000E+00;  0.0000000E+00;  4.0000000E+04;  0.0000000E+00;  4.0000000E+04;  7.6144555E-04;  0.0000000E+00;  2.0897416E-05;  2.2309892E+02;
 -1.1000000E-01;  9.9999998E-03; -1.7000000E-01;845;  0.0000000E+00;  0.0000000E+00;  0.0000000E+00;  1.0000000E+03;  1.0000000E-01;  0.0000000E+00;0;  0.0000000E+00;  0.0000000E+00;  0.0000000E+00;0;  7.7962724E-04;  4.0000000E+04;  0.0000000E+00;  0.0000000E+00;  4.0000000E+04;  0.0000000E+00;  4.0000000E+04;  7.5823878E-04;  0.0000000E+00;  2.1388469E-05;  2.1565233E+02;
 -1.1000000E-01;  9.9999998E-03; -1.6000000E-01;846;  0.0000000E+00;  0.0000000E+00;  0.0000000E+00;  1.0000000E+03;  1.0000000E-01;  0.0000000E+00;0;  0.0000000E+00;  0.0000000E+00;  0.0000000E+00;0;  7.7814970E-04;  4.0000000E+04;  0.0000000E+00;  0.0000000E+00;  4.0000000E+04;  0.0000000E+00;  4.0000000E+04;  7.5752562E-04;  0.0000000E+00;  2.0624067E-05;  2.0968648E+02;
 -1.1000000E-01;  9.9999998E-03; -1.5000001E-01;847;  0.0000000E+00;  0.0000000E+00;  0.0000000E+00;  1.0000000E+03;  1.0000000E-01;  0.0000000E+00;0;  0.0000000E+00;  0.0000000E+00;  0.0000000E+00;0;  7.7952677E-04;  4.0000000E+04;  0.0000000E+00;  0.0000000E+00;  4.0000000E+04;  0.0000000E+00;  4.0000000E+04;  7.6072052E-04;  0.0000000E+00;  1.8806255E-05;  2.0579179E+02;
 -1.1000000E-01;  9.9999998E-03; -1.4000000E-01;848;  0.0000000E+00;  0.0000000E+00;  0.0000000E+00;  1.0000000E+03;  1.0000000E-01;  0.0000000E+00;0;  0.0000000E+00;  0.0000000E+00;  0.0000000E+00;0;  7.8431226E-04;  4.0000000E+04;  0.0000000E+00;  0.0000000E+00;  4.0000000E+04;  0.0000000E+00;  4.0000000E+04;  7.6809427E-04;  0.0000000E+00;  1.6217997E-05;  2.0394817E+02;
 -1.1000000E-01;  9.9999998E-03; -1.3000000E-01;849;  0.0000000E+00;  0.0000000E+00;  0.0000000E+00;  1.0000000E+03;  1.0000000E-01;  0.0000000E+00;0;  0.0000000E+00;  0.0000000E+00;  0.0000000E+00;0;  7.9218391E-04;  4.0000000E+04;  0.0000000E+00;  0.0000000E+00;  4.0000000E+04;  0.0000000E+00;  4.0000000E+04;  7.7900034E-04;  0.0000000E+00;  1.3183557E-05;  2.0386409E+02;
 -1.1000000E-01;  9.9999998E-03; -1.2000000E-01;850;  0.0000000E+00;  0.0000000E+00;  0.0000000E+00;  1.0000000E+03;  1.0000000E-01;  0.0000000E+00;0;  0.0000000E+00;  0.0000000E+00;  0.0000000E+00;0;  8.0221571E-04;  4.0000000E+04;  0.0000000E+00;  0.0000000E+00;  4.0000000E+04;  0.0000000E+00;  4.0000000E+04;  7.9219328E-04;  0.0000000E+00;  1.0022418E-05;  2.0517253E+02;
 -1.1000000E-01;  9.9999998E-03; -1.1000000E-01;851;  0.0000000E+00;  0.0000000E+00;  0.0000000E+00;  1.0000000E+03;  1.0000000E-01;  0.0000000E+00;0;  0.0000000E+00;  0.0000000E+00;  0.0000000E+00;0;  8.1318698E-04;  4.0000000E+04;  0.0000000E+00;  0.0000000E+00;  4.0000000E+04;  0.0000000E+00;  4.0000000E+04;  8.0617226E-04;  0.0000000E+00;  7.0147289E-06;  2.0750148E+02;
 -1.0000000E-01;  9.9999998E-03; -2.7000001E-01;926;  0.0000000E+00;  0.0000000E+00;  0.0000000E+00;  1.0000000E+03;  1.0000000E-01;  0.0000000E+00;0;  0.0000000E+00;  0.0000000E+00;  0.0000000E+00;0;  6.4187351E-04;  4.0000000E+04;  0.0000000E+00;  0.0000000E+00;  4.0000000E+04;  0.0000000E+00;  4.0000000E+04;  6.7830452E-04;  0.0000000E+00; -3.6431000E-05;  6.6303535E+01;
 -1.0000000E-01;  9.9999998E-03; -2.5999999E-01;927;  0.0000000E+00;  0.0000000E+00;  0.0000000E+00;  1.0000000E+03;  1.0000000E-01;  0.0000000E+00;0;  0.0000000E+00;  0.0000000E+00;  0.0000000E+00;0;  7.5632229E-04;  4.0000000E+04;  0.0000000E+00;  0.0000000E+00;  4.0000000E+04;  0.0000000E+00;  4.0000000E+04;  7.8700867E-04;  0.0000000E+00; -3.0686369E-05;  1.5342484E+02;
 -1.0000000E-01;  9.9999998E-03; -2.5000000E-01;928;  0.0000000E+00;  0.0000000E+00;  0.0000000E+00;  1.0000000E+03;  1.0000000E-01;  0.0000000E+00;0;  0.0000000E+00;  0.0000000E+00;  0.0000000E+00;0;  8.6256478E-04;  4.0000000E+04;  0.0000000E+00;  0.0000000E+00;  4.0000000E+04;  0.0000000E+00;  4.0000000E+04;  8.8507548E-04;  0.0000000E+00; -2.2510736E-05;  2.3585519E+02;
 -1.0000000E-01;  9.9999998E-03; -2.3999999E-01;929;  0.0000000E+00;  0.0000000E+00;  0.0000000E+00;  1.0000000E+03;  1.0000000E-01;  0.0000000E+00;0;  0.0000000E+00;  0.0000000E+00;  0.0000000E+00;0;  9.5522054E-04;  4.0000000E+04;  0.0000000E+00;  0.0000000E+00;  4.0000000E+04;  0.0000000E+00;  4.0000000E+04;  9.6771744E-04;  0.0000000E+00; -1.2496867E-05;  3.0544479E+02;
 -1.0000000E-01;  9.9999998E-03; -2.3000000E-01;930;  0.0000000E+00;  0.0000000E+00;  0.0000000E+00;  1.0000000E+03;  1.0000000E-01;  0.0000000E+00;0;  0.0000000E+00;  0.0000000E+00;  0.0000000E+00;0;  1.0304657E-03;  4.0000000E+04;  0.0000000E+00;  0.0000000E+00;  4.0000000E+04;  0.0000000E+00;  4.0000000E+04;  1.0319342E-03;  0.0000000E+00; -1.4684367E-06;  3.5711267E+02;
 -1.0000000E-01;  9.9999998E-03; -2.2000000E-01;931;  0.0000000E+00;  0.0000000E+00;  0.0000000E+00;  1.0000000E+03;  1.0000000E-01;  0.0000000E+00;0;  0.0000000E+00;  0.0000000E+00;  0.0000000E+00;0;  1.0864901E-03;  4.0000000E+04;  0.0000000E+00;  0.0000000E+00;  4.0000000E+04;  0.0000000E+00;  4.0000000E+04;  1.0768600E-03;  0.0000000E+00;  9.6300910E-06;  3.8893683E+02;
 -1.0000000E-01;  9.9999998E-03; -2.0999999E-01;932;  0.0000000E+00;  0.0000000E+00;  0.0000000E+00;  1.0000000E+03;  1.0000000E-01;  0.0000000E+00;0;  0.0000000E+00;  0.0000000E+00;  0.0000000E+00;0;  1.1236802E-03;  4.0000000E+04;  0.0000000E+00;  0.0000000E+00;  4.0000000E+04;  0.0000000E+00;  4.0000000E+04;  1.1038152E-03;  0.0000000E+00;  1.9864954E-05;  4.0208167E+02;
 -1.0000000E-01;  9.9999998E-03; -2.0000000E-01;933;  0.0000000E+00;  0.0000000E+00;  0.0000000E+00;  1.0000000E+03;  1.0000000E-01;  0.0000000E+00;0;  0.0000000E+00;  0.0000000E+00;  0.0000000E+00;0;  1.1444272E-03;  4.0000000E+04;  0.0000000E+00;  0.0000000E+00;  4.0000000E+04;  0.0000000E+00;  4.0000000E+04;  1.1159888E-03;  0.0000000E+00;  2.8438426E-05;  4.0020413E+02;
 -1.0000000E-01;  9.9999998E-03; -1.9000000E-01;934;  0.0000000E+00;  0.0000000E+00;  0.0000000E+00;  1.0000000E+03;  1.0000000E-01;  0.0000000E+00;0;  0.0000000E+00;  0.0000000E+00;  0.0000000E+00;0;  1.1526560E-03;  4.0000000E+04;  0.0000000E+00;  0.0000000E+00;  4.0000000E+04;  0.0000000E+00;  4.0000000E+04;  1.1178697E-03;  0.0000000E+00;  3.4786284E-05;  3.8842331E+02;
 -1.0000000E-01;  9.9999998E-03; -1.8000001E-01;935;  0.0000000E+00;  0.0000000E+00;  0.0000000E+00;  1.0000057E+03;  1.0000000E-01;  4.7406068E+00;0;  0.0000000E+00;  0.0000000E+00;  0.0000000E+00;0;  1.1531112E-03;  4.0000000E+04;  0.0000000E+00;  0.0000000E+00;  4.0000000E+04;  0.0000000E+00;  4.0000000E+04;  1.1144874E-03;  0.0000000E+00;  3.8623835E-05;  3.7208176E+02;
 -1.0000000E-01;  9.9999998E-03; -1.7000000E-01;936;  0.0000000E+00;  0.0000000E+00;  0.0000000E+00;  1.0000256E+03;  1.0000000E-01;  2.1233967E+01;0;  0.0000000E+00;  0.0000000E+00;  0.0000000E+00;0;  1.1505301E-03;  4.0000000E+04;  0.0000000E+00;  0.0000000E+00;  4.0000000E+04;  0.0000000E+00;  4.0000000E+04;  1.1105959E-03;  0.0000000E+00;  3.9934166E-05;  3.5563849E+02;
 -1.0000000E-01;  9.9999998E-03; -1.6000000E-01;937;  0.0000000E+00;  0.0000000E+00;  0.0000000E+00;  1.0000398E+03;  1.0000000E-01;  3.2986721E+01;0;  0.0000000E+00;  0.0000000E+00;  0.0000000E+00;0;  1.1488663E-03;  4.0000000E+04;  0.0000000E+00;  0.0000000E+00;  4.0000000E+04;  0.0000000E+00;  4.0000000E+04;  1.1099463E-03;  0.0000000E+00;  3.8919996E-05;  3.4210193E+02;
 -1.0000000E-01;  9.9999998E-03; -1.5000001E-01;938;  0.0000000E+00;  0.0000000E+00;  0.0000000E+00;  1.0000610E+03;  1.0000000E-01;  5.0566471E+01;0;  0.0000000E+00;  0.0000000E+00;  0.0000000E+00;0;  1.1507442E-03;  4.0000000E+04;  0.0000000E+00;  0.0000000E+00;  4.0000000E+04;  0.0000000E+00;  4.0000000E+04;  1.1147982E-03;  0.0000000E+00;  3.5945955E-05;  3.3296246E+02;
 -1.0000000E-01;  9.9999998E-03; -1.4000000E-01;939;  0.0000000E+00;  0.0000000E+00;  0.0000000E+00;  1.0000689E+03;  1.0000000E-01;  5.7084805E+01;0;  0.0000000E+00;  0.0000000E+00;  0.0000000E+00;0;  1.1572699E-03;  4.0000000E+04;  0.0000000E+00;  0.0000000E+00;  4.0000000E+04;  0.0000000E+00;  4.0000000E+04;  1.1257867E-03;  0.0000000E+00;  3.1483280E-05;  3.2841403E+02;
 -1.0000000E-01;  9.9999998E-03; -1.3000000E-01;940;  0.0000000E+00;  0.0000000E+00;  0.0000000E+00;  1.0000718E+03;  1.0000000E-01;  5.9455109E+01;0;  0.0000000E+00;  0.0000000E+00;  0.0000000E+00;0;  1.1682450E-03;  4.0000000E+04;  0.0000000E+00;  0.0000000E+00;  4.0000000E+04;  0.0000000E+00;  4.0000000E+04;  1.1421556E-03;  0.0000000E+00;  2.6089376E-05;  3.2787488E+02;
 -1.0000000E-01;  9.9999998E-03; -1.2000000E-01;941;  0.0000000E+00;  0.0000000E+00;  0.0000000E+00;  1.0000701E+03;  1.0000000E-01;  5.8072433E+01;0;  0.0000000E+00;  0.0000000E+00;  0.0000000E+00;0;  1.1825269E-03;  4.0000000E+04;  0.0000000E+00;  0.0000000E+00;  4.0000000E+04;  0.0000000E+00;  4.0000000E+04;  1.1621921E-03;  0.0000000E+00;  2.0334899E-05;  3.3046039E+02;
 -1.0000000E-01;  9.9999998E-03; -1.1000000E-01;942;  0.0000000E+00;  0.0000000E+00;  0.0000000E+00;  1.0000693E+03;  1.0000000E-01;  5.7479855E+01;0;  0.0000000E+00;  0.0000000E+00;  0.0000000E+00;0;  1.1984596E-03;  4.0000000E+04;  0.0000000E+00;  0.0000000E+00;  4.0000000E+04;  0.0000000E+00;  4.0000000E+04;  1.1837201E-03;  0.0000000E+00;  1.4739551E-05;  3.3524661E+02;
 -9.0000004E-02;  9.9999998E-03; -2.7000001E-01;1017;  0.0000000E+00;  0.0000000E+00;  0.0000000E+00;  1.0000422E+03;  1.0000000E-01;  3.4961975E+01;0;  0.0000000E+00;  0.0000000E+00;  0.0000000E+00;0;  8.4912562E-04;  4.0000000E+04;  0.0000000E+00;  0.0000000E+00;  4.0000000E+04;  0.0000000E+00;  4.0000000E+04;  9.1078121E-04;  0.0000000E+00; -6.1655606E-05;  1.0963577E+02;
 -9.0000004E-02;  9.9999998E-03; -2.5999999E-01;1018;  0.0000000E+00;  0.0000000E+00;  0.0000000E+00;  1.0000309E+03;  1.0000000E-01;  2.5678286E+01;0;  0.0000000E+00;  0.0000000E+00;  0.0000000E+00;0;  9.9942938E-04;  4.0000000E+04;  0.0000000E+00;  0.0000000E+00;  4.0000000E+04;  0.0000000E+00;  4.0000000E+04;  1.0515872E-03;  0.0000000E+00; -5.2157829E-05;  2.4533171E+02;
 -9.0000004E-02;  9.9999998E-03; -2.5000000E-01;1019;  0.0000000E+00;  0.0000000E+00;  0.0000000E+00;  1.0000197E+03;  1.0000000E-01;  1.6295835E+01;0;  0.0000000E+00;  0.0000000E+00;  0.0000000E+00;0;  1.1392316E-03;  4.0000000E+04;  0.0000000E+00;  0.0000000E+00;  4.0000000E+04;  0.0000000E+00;  4.0000000E+04;  1.1778967E-03;  0.0000000E+00; -3.8665166E-05;  3.7425021E+02;
 -9.0000004E-02;  9.9999998E-03; -2.3999999E-01;1020;  0.0000000E+00;  0.0000000E+00;  0.0000000E+00;  1.0000195E+03;  1.0000000E-01;  1.6197073E+01;0;  0.0000000E+00;  0.0000000E+00;  0.0000000E+00;0;  1.2615643E-03;  4.0000000E+04;  0.0000000E+00;  0.0000000E+00;  4.0000000E+04;  0.0000000E+00;  4.0000000E+04;  1.2836929E-03;  0.0000000E+00; -2.2128586E-05;  4.8277518E+02;
 -9.0000004E-02;  9.9999998E-03; -2.3000000E-01;1021;  0.0000000E+00;  0.0000000E+00;  0.0000000E+00;  1.0000269E+03;  1.0000000E-01;  2.2320356E+01;0;  0.0000000E+00;  0.0000000E+00;  0.0000000E+00;0;  1.3614363E-03;  4.0000000E+04;  0.0000000E+00;  0.0000000E+00;  4.0000000E+04;  0.0000000E+00;  4.0000000E+04;  1.3652991E-03;  0.0000000E+00; -3.8627718E-06;  5.6299200E+02;
 -9.0000004E-02;  9.9999998E-03; -2.2000000E-01;1022;  0.0000000E+00;  0.0000000E+00;  0.0000000E+00;  1.0000406E+03;  1.0000000E-01;  3.3678059E+01;0;  0.0000000E+00;  0.0000000E+00;  0.0000000E+00;0;  1.4364237E-03;  4.0000000E+04;  0.0000000E+00;  0.0000000E+00;  4.0000000E+04;  0.0000000E+00;  4.0000000E+04;  1.4218017E-03;  0.0000000E+00;  1.4622041E-05;  6.1179791E+02;
 -9.0000004E-02;  9.9999998E-03; -2.0999999E-01;1023;  0.0000000E+00;  0.0000000E+00;  0.0000000E+00;  1.0000566E+03;  1.0000000E-01;  4.6912254E+01;0;  0.0000000E+00;  0.0000000E+00;  0.0000000E+00;0;  1.4868747E-03;  4.0000000E+04;  0.0000000E+00;  0.0000000E+00;  4.0000000E+04;  0.0000000E+00;  4.0000000E+04;  1.4550580E-03;  0.0000000E+00;  3.1816675E-05;  6.3074310E+02;
 -9.0000004E-02;  9.9999998E-03; -2.0000000E-01;1024;  0.0000000E+00;  0.0000000E+00;  0.0000000E+00;  1.0000913E+03;  1.0000000E-01;  7.5652184E+01;0;  0.0000000E+00;  0.0000000E+00;  0.0000000E+00;0;  1.5156948E-03;  4.0000000E+04;  0.0000000E+00;  0.0000000E+00;  4.0000000E+04;  0.0000000E+00;  4.0000000E+04;  1.4692895E-03;  0.0000000E+00;  4.6405294E-05;  6.2519470E+02;
 -9.0000004E-02;  9.9999998E-03; -1.9000000E-01;1025;  0.0000000E+00;  0.0000000E+00;  0.0000000E+00;  1.0001334E+03;  1.0000000E-01;  1.1051540E+02;0;  0.0000000E+00;  0.0000000E+00;  0.0000000E+00;0;  1.5277565E-03;  4.0000000E+04;  0.0000000E+00;  0.0000000E+00;  4.0000000E+04;  0.0000000E+00;  4.0000000E+04;  1.4703340E-03;  0.0000000E+00;  5.7422385E-05;  6.0298004E+02;
 -9.0000004E-02;  9.9999998E-03; -1.8000001E-01;1026;  0.0000000E+00;  0.0000000E+00;  0.0000000E+00;  1.0001681E+03;  1.0000000E-01;  1.3925533E+02;0;  0.0000000E+00;  0.0000000E+00;  0.0000000E+00;0;  1.5290579E-03;  4.0000000E+04;  0.0000000E+00;  0.0000000E+00;  4.0000000E+04;  0.0000000E+00;  4.0000000E+04;  1.4647136E-03;  0.0000000E+00;  6.4344218E-05;  5.7269501E+02;
 -9.0000004E-02;  9.9999998E-03; -1.7000000E-01;1027;  0.0000000E+00;  0.0000000E+00;  0.0000000E+00;  1.0002028E+03;  1.0000000E-01;  1.6799525E+02;0;  0.0000000E+00;  0.0000000E+00;  0.0000000E+00;0;  1.5257320E-03;  4.0000000E+04;  0.0000000E+00;  0.0000000E+00;  4.0000000E+04;  0.0000000E+00;  4.0000000E+04;  1.4586363E-03;  0.0000000E+00;  6.7095760E-05;  5.4195062E+02;
 -9.0000004E-02;  9.9999998E-03; -1.6000000E-01;1028;  0.0000000E+00;  0.0000000E+00;  0.0000000E+00;  1.0002326E+03;  1.0000000E-01;  1.9268591E+02;0;  0.0000000E+00;  0.0000000E+00;  0.0000000E+00;0;  1.5230760E-03;  4.0000000E+04;  0.0000000E+00;  0.0000000E+00;  4.0000000E+04;  0.0000000E+00;  4.0000000E+04;  1.4570968E-03;  0.0000000E+00;  6.5979148E-05;  5.1614594E+02;
 -9.0000004E-02;  9.9999998E-03; -1.5000001E-01;1029;  0.0000000E+00;  0.0000000E+00;  0.0000000E+00;  1.0002591E+03;  1.0000000E-01;  2.1461122E+02;0;  0.0000000E+00;  0.0000000E+00;  0.0000000E+00;0;  1.5248035E-03;  4.0000000E+04;  0.0000000E+00;  0.0000000E+00;  4.0000000E+04;  0.0000000E+00;  4.0000000E+04;  1.4632315E-03;  0.0000000E+00;  6.1571918E-05;  4.9817633E+02;
 -9.0000004E-02;  9.9999998E-03; -1.4000000E-01;1030;  0.0000000E+00;  0.0000000E+00;  0.0000000E+00;  1.0002766E+03;  1.0000000E-01;  2.2912932E+02;0;  0.0000000E+00;  0.0000000E+00;  0.0000000E+00;0;  1.5326918E-03;  4.0000000E+04;  0.0000000E+00;  0.0000000E+00;  4.0000000E+04;  0.0000000E+00;  4.0000000E+04;  1.4780675E-03;  0.0000000E+00;  5.4624310E-05;  4.8871997E+02;
 -9.0000004E-02;  9.9999998E-03; -1.3000000E-01;1031;  0.0000000E+00;  0.0000000E+00;  0.0000000E+00;  1.0002887E+03;  1.0000000E-01;  2.3920311E+02;0;  0.0000000E+00;  0.0000000E+00;  0.0000000E+00;0;  1.5467113E-03;  4.0000000E+04;  0.0000000E+00;  0.0000000E+00;  4.0000000E+04;  0.0000000E+00;  4.0000000E+04;  1.5007114E-03;  0.0000000E+00;  4.5999837E-05;  4.8688028E+02;
 -9.0000004E-02;  9.9999998E-03; -1.2000000E-01;1032;  0.0000000E+00;  0.0000000E+00;  0.0000000E+00;  1.0002889E+03;  1.0000000E-01;  2.3930188E+02;0;  0.0000000E+00;  0.0000000E+00;  0.0000000E+00;0;  1.5654881E-03;  4.0000000E+04;  0.0000000E+00;  0.0000000E+00;  4.0000000E+04;  0.0000000E+00;  4.0000000E+04;  1.5288790E-03;  0.0000000E+00;  3.6609053E-05;  4.9099811E+02;
 -9.0000004E-02;  9.9999998E-03; -1.1000000E-01;1033;  0.0000000E+00;  0.0000000E+00;  0.0000000E+00;  1.0002818E+03;  1.0000000E-01;  2.3347488E+02;0;  0.0000000E+00;  0.0000000E+00;  0.0000000E+00;0;  1.5868742E-03;  4.0000000E+04;  0.0000000E+00;  0.0000000E+00;  4.0000000E+04;  0.0000000E+00;  4.0000000E+04;  1.5595695E-03;  0.0000000E+00;  2.7304799E-05;  4.9925800E+02;
 -7.9999998E-02;  9.9999998E-03; -2.7000001E-01;1108;  0.0000000E+00;  0.0000000E+00;  0.0000000E+00;  1.0002041E+03;  1.0000000E-01;  1.6908163E+02;0;  0.0000000E+00;  0.0000000E+00;  0.0000000E+00;0;  1.0280256E-03;  4.0000000E+04;  0.0000000E+00;  0.0000000E+00;  4.0000000E+04;  0.0000000E+00;  4.0000000E+04;  1.1245806E-03;  0.0000000E+00; -9.6554970E-05;  1.7200919E+02;
 -7.9999998E-02;  9.9999998E-03; -2.5999999E-01;1109;  0.0000000E+00;  0.0000000E+00;  0.0000000E+00;  1.0001949E+03;  1.0000000E-01;  1.6147691E+02;0;  0.0000000E+00;  0.0000000E+00;  0.0000000E+00;0;  1.2116160E-03;  4.0000000E+04;  0.0000000E+00;  0.0000000E+00;  4.0000000E+04;  0.0000000E+00;  4.0000000E+04;  1.2934798E-03;  0.0000000E+00; -8.1863887E-05;  3.6888522E+02;
 -7.9999998E-02;  9.9999998E-03; -2.5000000E-01;1110;  0.0000000E+00;  0.0000000E+00;  0.0000000E+00;  1.0002078E+03;  1.0000000E-01;  1.7214328E+02;0;  0.0000000E+00;  0.0000000E+00;  0.0000000E+00;0;  1.3821791E-03;  4.0000000E+04;  0.0000000E+00;  0.0000000E+00;  4.0000000E+04;  0.0000000E+00;  4.0000000E+04;  1.4432861E-03;  0.0000000E+00; -6.1106985E-05;  5.5715466E+02;
 -7.9999998E-02;  9.9999998E-03; -2.3999999E-01;1111;  0.0000000E+00;  0.0000000E+00;  0.0000000E+00;  1.0002194E+03;  1.0000000E-01;  1.8172325E+02;0;  0.0000000E+00;  0.0000000E+00;  0.0000000E+00;0;  1.5310446E-03;  4.0000000E+04;  0.0000000E+00;  0.0000000E+00;  4.0000000E+04;  0.0000000E+00;  4.0000000E+04;  1.5667733E-03;  0.0000000E+00; -3.5728684E-05;  7.1505450E+02;
 -7.9999998E-02;  9.9999998E-03; -2.3000000E-01;1112;  0.0000000E+00;  0.0000000E+00;  0.0000000E+00;  1.0002444E+03;  1.0000000E-01;  2.0256218E+02;0;  0.0000000E+00;  0.0000000E+00;  0.0000000E+00;0;  1.6520432E-03;  4.0000000E+04;  0.0000000E+00;  0.0000000E+00;  4.0000000E+04;  0.0000000E+00;  4.0000000E+04;  1.6597382E-03;  0.0000000E+00; -7.6950300E-06;  8.3097626E+02;
 -7.9999998E-02;  9.9999998E-03; -2.2000000E-01;1113;  0.0000000E+00;  0.0000000E+00;  0.0000000E+00;  1.0002773E+03;  1.0000000E-01;  2.2972189E+02;0;  0.0000000E+00;  0.0000000E+00;  0.0000000E+00;0;  1.7422182E-03;  4.0000000E+04;  0.0000000E+00;  0.0000000E+00;  4.0000000E+04;  0.0000000E+00;  4.0000000E+04;  1.7214692E-03;  0.0000000E+00;  2.0748916E-05;  9.0049371E+02;
 -7.9999998E-02;  9.9999998E-03; -2.0999999E-01;1114;  0.0000000E+00;  0.0000000E+00;  0.0000000E+00;  1.0003207E+03;  1.0000000E-01;  2.6577026E+02;0;  0.0000000E+00;  0.0000000E+00;  0.0000000E+00;0;  1.8020512E-03;  4.0000000E+04;  0.0000000E+00;  0.0000000E+00;  4.0000000E+04;  0.0000000E+00;  4.0000000E+04;  1.7546960E-03;  0.0000000E+00;  4.7355166E-05;  9.2574969E+02;
 -7.9999998E-02;  9.9999998E-03; -2.0000000E-01;1115;  0.0000000E+00;  0.0000000E+00;  0.0000000E+00;  1.0003779E+03;  1.0000000E-01;  3.1307758E+02;0;  0.0000000E+00;  0.0000000E+00;  0.0000000E+00;0;  1.8351610E-03;  4.0000000E+04;  0.0000000E+00;  0.0000000E+00;  4.0000000E+04;  0.0000000E+00;  4.0000000E+04;  1.7650183E-03;  0.0000000E+00;  7.0142683E-05;  9.1431219E+02;
 -7.9999998E-02;  9.9999998E-03; -1.9000000E-01;1116;  0.0000000E+00;  0.0000000E+00;  0.0000000E+00;  1.0004408E+03;  1.0000000E-01;  3.6522424E+02;0;  0.0000000E+00;  0.0000000E+00;  0.0000000E+00;0;  1.8475675E-03;  4.0000000E+04;  0.0000000E+00;  0.0000000E+00;  4.0000000E+04;  0.0000000E+00;  4.0000000E+04;  1.7599461E-03;  0.0000000E+00;  8.7621345E-05;  8.7737195E+02;
 -7.9999998E-02;  9.9999998E-03; -1.8000001E-01;1117;  0.0000000E+00;  0.0000000E+00;  0.0000000E+00;  1.0005017E+03;  1.0000000E-01;  4.1569196E+02;0;  0.0000000E+00;  0.0000000E+00;  0.0000000E+00;0;  1.8466692E-03;  4.0000000E+04;  0.0000000E+00;  0.0000000E+00;  4.0000000E+04;  0.0000000E+00;  4.0000000E+04;  1.7477325E-03;  0.0000000E+00;  9.8936725E-05;  8.2749402E+02;
 -7.9999998E-02;  9.9999998E-03; -1.7000000E-01;1118;  0.0000000E+00;  0.0000000E+00;  0.0000000E+00;  1.0005601E+03;  1.0000000E-01;  4.6398688E+02;0;  0.0000000E+00;  0.0000000E+00;  0.0000000E+00;0;  1.8400769E-03;  4.0000000E+04;  0.0000000E+00;  0.0000000E+00;  4.0000000E+04;  0.0000000E+00;  4.0000000E+04;  1.7361693E-03;  0.0000000E+00;  1.0390752E-04;  7.7634198E+02;
 -7.9999998E-02;  9.9999998E-03; -1.6000000E-01;1119;  0.0000000E+00;  0.0000000E+00;  0.0000000E+00;  1.0006107E+03;  1.0000000E-01;  5.0596100E+02;0;  0.0000000E+00;  0.0000000E+00;  0.0000000E+00;0;  1.8344610E-03;  4.0000000E+04;  0.0000000E+00;  0.0000000E+00;  4.0000000E+04;  0.0000000E+00;  4.0000000E+04;  1.7315123E-03;  0.0000000E+00;  1.0294869E-04;  7.3271454E+02;
 -7.9999998E-02;  9.9999998E-03; -1.5000001E-01;1120;  0.0000000E+00;  0.0000000E+00;  0.0000000E+00;  1.0006521E+03;  1.0000000E-01;  5.4023163E+02;0;  0.0000000E+00;  0.0000000E+00;  0.0000000E+00;0;  1.8346343E-03;  4.0000000E+04;  0.0000000E+00;  0.0000000E+00;  4.0000000E+04;  0.0000000E+00;  4.0000000E+04;  1.7377270E-03;  0.0000000E+00;  9.6907388E-05;  7.0154053E+02;
 -7.9999998E-02;  9.9999998E-03; -1.4000000E-01;1121;  0.0000000E+00;  0.0000000E+00;  0.0000000E+00;  1.0006749E+03;  1.0000000E-01;  5.5919403E+02;0;  0.0000000E+00;  0.0000000E+00;  0.0000000E+00;0;  1.8430320E-03;  4.0000000E+04;  0.0000000E+00;  0.0000000E+00;  4.0000000E+04;  0.0000000E+00;  4.0000000E+04;  1.7561282E-03;  0.0000000E+00;  8.6903812E-05;  6.8426910E+02;
 -7.9999998E-02;  9.9999998E-03; -1.3000000E-01;1122;  0.0000000E+00;  0.0000000E+00;  0.0000000E+00;  1.0006931E+03;  1.0000000E-01;  5.7420599E+02;0;  0.0000000E+00;  0.0000000E+00;  0.0000000E+00;0;  1.8597529E-03;  4.0000000E+04;  0.0000000E+00;  0.0000000E+00;  4.0000000E+04;  0.0000000E+00;  4.0000000E+04;  1.7855583E-03;  0.0000000E+00;  7.4194606E-05;  6.7973090E+02;
 -7.9999998E-02;  9.9999998E-03; -1.2000000E-01;1123;  0.0000000E+00;  0.0000000E+00;  0.0000000E+00;  1.0006985E+03;  1.0000000E-01;  5.7865033E+02;0;  0.0000000E+00;  0.0000000E+00;  0.0000000E+00;0;  1.8831022E-03;  4.0000000E+04;  0.0000000E+00;  0.0000000E+00;  4.0000000E+04;  0.0000000E+00;  4.0000000E+04;  1.8229916E-03;  0.0000000E+00;  6.0110535E-05;  6.8526874E+02;
 -7.9999998E-02;  9.9999998E-03; -1.1000000E-01;1124;  0.0000000E+00;  0.0000000E+00;  0.0000000E+00;  1.0006939E+03;  1.0000000E-01;  5.7489734E+02;0;  0.0000000E+00;  0.0000000E+00;  0.0000000E+00;0;  1.9103126E-03;  4.0000000E+04;  0.0000000E+00;  0.0000000E+00;  4.0000000E+04;  0.0000000E+00;  4.0000000E+04;  1.8643851E-03;  0.0000000E+00;  4.5927492E-05;  6.9782391E+02;
 -7.0000000E-02;  9.9999998E-03; -2.7000001E-01;1199;  0.0000000E+00;  0.0000000E+00;  0.0000000E+00;  1.0004818E+03;  1.0000000E-01;  3.9909982E+02;0;  0.0000000E+00;  0.0000000E+00;  0.0000000E+00;0;  1.1370698E-03;  4.0000000E+04;  0.0000000E+00;  0.0000000E+00;  4.0000000E+04;  0.0000000E+00;  4.0000000E+04;  1.2792121E-03;  0.0000000E+00; -1.4214229E-04;  2.5609787E+02;
 -7.0000000E-02;  9.9999998E-03; -2.5999999E-01;1200;  0.0000000E+00;  0.0000000E+00;  0.0000000E+00;  1.0005092E+03;  1.0000000E-01;  4.2191400E+02;0;  0.0000000E+00;  0.0000000E+00;  0.0000000E+00;0;  1.3466249E-03;  4.0000000E+04;  0.0000000E+00;  0.0000000E+00;  4.0000000E+04;  0.0000000E+00;  4.0000000E+04;  1.4672198E-03;  0.0000000E+00; -1.2059492E-04;  5.2676349E+02;
 -7.0000000E-02;  9.9999998E-03; -2.5000000E-01;1201;  0.0000000E+00;  0.0000000E+00;  0.0000000E+00;  1.0005372E+03;  1.0000000E-01;  4.4512320E+02;0;  0.0000000E+00;  0.0000000E+00;  0.0000000E+00;0;  1.5403735E-03;  4.0000000E+04;  0.0000000E+00;  0.0000000E+00;  4.0000000E+04;  0.0000000E+00;  4.0000000E+04;  1.6307589E-03;  0.0000000E+00; -9.0385336E-05;  7.8699017E+02;
 -7.0000000E-02;  9.9999998E-03; -2.3999999E-01;1202;  0.0000000E+00;  0.0000000E+00;  0.0000000E+00;  1.0005823E+03;  1.0000000E-01;  4.8245551E+02;0;  0.0000000E+00;  0.0000000E+00;  0.0000000E+00;0;  1.7078519E-03;  4.0000000E+04;  0.0000000E+00;  0.0000000E+00;  4.0000000E+04;  0.0000000E+00;  4.0000000E+04;  1.7614693E-03;  0.0000000E+00; -5.3617405E-05;  1.0039653E+03;
 -7.0000000E-02;  9.9999998E-03; -2.3000000E-01;1203;  0.0000000E+00;  0.0000000E+00;  0.0000000E+00;  1.0006392E+03;  1.0000000E-01;  5.2956525E+02;0;  0.0000000E+00;  0.0000000E+00;  0.0000000E+00;0;  1.8417605E-03;  4.0000000E+04;  0.0000000E+00;  0.0000000E+00;  4.0000000E+04;  0.0000000E+00;  4.0000000E+04;  1.8548543E-03;  0.0000000E+00; -1.3093792E-05;  1.1616409E+03;
 -7.0000000E-02;  9.9999998E-03; -2.2000000E-01;1204;  0.0000000E+00;  0.0000000E+00;  0.0000000E+00;  1.0006970E+03;  1.0000000E-01;  5.7746515E+02;0;  0.0000000E+00;  0.0000000E+00;  0.0000000E+00;0;  1.9388000E-03;  4.0000000E+04;  0.0000000E+00;  0.0000000E+00;  4.0000000E+04;  0.0000000E+00;  4.0000000E+04;  1.9107762E-03;  0.0000000E+00;  2.8023707E-05;  1.2542979E+03;
 -7.0000000E-02;  9.9999998E-03; -2.0999999E-01;1205;  0.0000000E+00;  0.0000000E+00;  0.0000000E+00;  1.0007809E+03;  1.0000000E-01;  6.4699402E+02;0;  0.0000000E+00;  0.0000000E+00;  0.0000000E+00;0;  1.9998774E-03;  4.0000000E+04;  0.0000000E+00;  0.0000000E+00;  4.0000000E+04;  0.0000000E+00;  4.0000000E+04;  1.9332920E-03;  0.0000000E+00;  6.6585395E-05;  1.2852120E+03;
 -7.0000000E-02;  9.9999998E-03; -2.0000000E-01;1206;  0.0000000E+00;  0.0000000E+00;  0.0000000E+00;  1.0008729E+03;  1.0000000E-01;  7.2323883E+02;0;  0.0000000E+00;  0.0000000E+00;  0.0000000E+00;0;  2.0296574E-03;  4.0000000E+04;  0.0000000E+00;  0.0000000E+00;  4.0000000E+04;  0.0000000E+00;  4.0000000E+04;  1.9298461E-03;  0.0000000E+00;  9.9811157E-05;  1.2648542E+03;
 -7.0000000E-02;  9.9999998E-03; -1.9000000E-01;1207;  0.0000000E+00;  0.0000000E+00;  0.0000000E+00;  1.0009688E+03;  1.0000000E-01;  8.0254523E+02;0;  0.0000000E+00;  0.0000000E+00;  0.0000000E+00;0;  2.0356141E-03;  4.0000000E+04;  0.0000000E+00;  0.0000000E+00;  4.0000000E+04;  0.0000000E+00;  4.0000000E+04;  1.9100280E-03;  0.0000000E+00;  1.2558600E-04;  1.2084340E+03;
 -7.0000000E-02;  9.9999998E-03; -1.8000001E-01;1208;  0.0000000E+00;  0.0000000E+00;  0.0000000E+00;  1.0010637E+03;  1.0000000E-01;  8.8125903E+02;0;  0.0000000E+00;  0.0000000E+00;  0.0000000E+00;0;  2.0267691E-03;  4.0000000E+04;  0.0000000E+00;  0.0000000E+00;  4.0000000E+04;  0.0000000E+00;  4.0000000E+04;  1.8841128E-03;  0.0000000E+00;  1.4265637E-04;  1.1331874E+03;
 -7.0000000E-02;  9.9999998E-03; -1.7000000E-01;1209;  0.0000000E+00;  0.0000000E+00;  0.0000000E+00;  1.0011508E+03;  1.0000000E-01;  9.5335577E+02;0;  0.0000000E+00;  0.0000000E+00;  0.0000000E+00;0;  2.0123115E-03;  4.0000000E+04;  0.0000000E+00;  0.0000000E+00;  4.0000000E+04;  0.0000000E+00;  4.0000000E+04;  1.8616138E-03;  0.0000000E+00;  1.5069776E-04;  1.0554391E+03;
 -7.0000000E-02;  9.9999998E-03; -1.6000000E-01;1210;  0.0000000E+00;  0.0000000E+00;  0.0000000E+00;  1.0012305E+03;  1.0000000E-01;  1.0194280E+03;0;  0.0000000E+00;  0.0000000E+00;  0.0000000E+00;0;  2.0002942E-03;  4.0000000E+04;  0.0000000E+00;  0.0000000E+00;  4.0000000E+04;  0.0000000E+00;  4.0000000E+04;  1.8500530E-03;  0.0000000E+00;  1.5024121E-04;  9.8811157E+02;
 -7.0000000E-02;  9.9999998E-03; -1.5000001E-01;1211;  0.0000000E+00;  0.0000000E+00;  0.0000000E+00;  1.0012861E+03;  1.0000000E-01;  1.0654513E+03;0;  0.0000000E+00;  0.0000000E+00;  0.0000000E+00;0;  1.9965421E-03;  4.0000000E+04;  0.0000000E+00;  0.0000000E+00;  4.0000000E+04;  0.0000000E+00;  4.0000000E+04;  1.8540783E-03;  0.0000000E+00;  1.4246386E-04;  9.3894684E+02;
 -7.0000000E-02;  9.9999998E-03; -1.4000000E-01;1212;  0.0000000E+00;  0.0000000E+00;  0.0000000E+00;  1.0013314E+03;  1.0000000E-01;  1.1029812E+03;0;  0.0000000E+00;  0.0000000E+00;  0.0000000E+00;0;  2.0040136E-03;  4.0000000E+04;  0.0000000E+00;  0.0000000E+00;  4.0000000E+04;  0.0000000E+00;  4.0000000E+04;  1.8750820E-03;  0.0000000E+00;  1.2893161E-04;  9.1046167E+02;
 -7.0000000E-02;  9.9999998E-03; -1.3000000E-01;1213;  0.0000000E+00;  0.0000000E+00;  0.0000000E+00;  1.0013604E+03;  1.0000000E-01;  1.1269805E+03;0;  0.0000000E+00;  0.0000000E+00;  0.0000000E+00;0;  2.0227768E-03;  4.0000000E+04;  0.0000000E+00;  0.0000000E+00;  4.0000000E+04;  0.0000000E+00;  4.0000000E+04;  1.9113829E-03;  0.0000000E+00;  1.1139377E-04;  9.0128046E+02;
 -7.0000000E-02;  9.9999998E-03; -1.2000000E-01;1214;  0.0000000E+00;  0.0000000E+00;  0.0000000E+00;  1.0013676E+03;  1.0000000E-01;  1.1330050E+03;0;  0.0000000E+00;  0.0000000E+00;  0.0000000E+00;0;  2.0506037E-03;  4.0000000E+04;  0.0000000E+00;  0.0000000E+00;  4.0000000E+04;  0.0000000E+00;  4.0000000E+04;  1.9589392E-03;  0.0000000E+00;  9.1664406E-05;  9.0760986E+02;
 -7.0000000E-02;  9.9999998E-03; -1.1000000E-01;1215;  0.0000000E+00;  0.0000000E+00;  0.0000000E+00;  1.0013677E+03;  1.0000000E-01;  1.1331038E+03;0;  0.0000000E+00;  0.0000000E+00;  0.0000000E+00;0;  2.0839064E-03;  4.0000000E+04;  0.0000000E+00;  0.0000000E+00;  4.0000000E+04;  0.0000000E+00;  4.0000000E+04;  2.0123948E-03;  0.0000000E+00;  7.1511648E-05;  9.2484625E+02;
 -5.9999999E-02;  9.9999998E-03; -2.7000001E-01;1290;  0.0000000E+00;  0.0000000E+00;  0.0000000E+00;  1.0009178E+03;  1.0000000E-01;  7.6037354E+02;0;  0.0000000E+00;  0.0000000E+00;  0.0000000E+00;0;  1.1272823E-03;  4.0000000E+04;  0.0000000E+00;  0.0000000E+00;  4.0000000E+04;  0.0000000E+00;  4.0000000E+04;  1.3261903E-03;  0.0000000E+00; -1.9890806E-04;  3.6001685E+02;
 -5.9999999E-02;  9.9999998E-03; -2.5999999E-01;1291;  0.0000000E+00;  0.0000000E+00;  0.0000000E+00;  1.0009897E+03;  1.0000000E-01;  8.1992743E+02;0;  0.0000000E+00;  0.0000000E+00;  0.0000000E+00;0;  1.3499298E-03;  4.0000000E+04;  0.0000000E+00;  0.0000000E+00;  4.0000000E+04;  0.0000000E+00;  4.0000000E+04;  1.5185510E-03;  0.0000000E+00; -1.6862115E-04;  7.1777057E+02;
 -5.9999999E-02;  9.9999998E-03; -2.5000000E-01;1292;  0.0000000E+00;  0.0000000E+00;  0.0000000E+00;  1.0010630E+03;  1.0000000E-01;  8.8066644E+02;0;  0.0000000E+00;  0.0000000E+00;  0.0000000E+00;0;  1.5537719E-03;  4.0000000E+04;  0.0000000E+00;  0.0000000E+00;  4.0000000E+04;  0.0000000E+00;  4.0000000E+04;  1.6803303E-03;  0.0000000E+00; -1.2655836E-04;  1.0617137E+03;
 -5.9999999E-02;  9.9999998E-03; -2.3999999E-01;1293;  0.0000000E+00;  0.0000000E+00;  0.0000000E+00;  1.0011514E+03;  1.0000000E-01;  9.5394830E+02;0;  0.0000000E+00;  0.0000000E+00;  0.0000000E+00;0;  1.7264988E-03;  4.0000000E+04;  0.0000000E+00;  0.0000000E+00;  4.0000000E+04;  0.0000000E+00;  4.0000000E+04;  1.8021861E-03;  0.0000000E+00; -7.5687247E-05;  1.3457577E+03;
 -5.9999999E-02;  9.9999998E-03; -2.3000000E-01;1294;  0.0000000E+00;  0.0000000E+00;  0.0000000E+00;  1.0012523E+03;  1.0000000E-01;  1.0375015E+03;0;  0.0000000E+00;  0.0000000E+00;  0.0000000E+00;0;  1.8598011E-03;  4.0000000E+04;  0.0000000E+00;  0.0000000E+00;  4.0000000E+04;  0.0000000E+00;  4.0000000E+04;  1.8796617E-03;  0.0000000E+00; -1.9860527E-05;  1.5489937E+03;
 -5.9999999E-02;  9.9999998E-03; -2.2000000E-01;1295;  0.0000000E+00;  0.0000000E+00;  0.0000000E+00;  1.0013710E+03;  1.0000000E-01;  1.1358691E+03;0;  0.0000000E+00;  0.0000000E+00;  0.0000000E+00;0;  1.9503372E-03;  4.0000000E+04;  0.0000000E+00;  0.0000000E+00;  4.0000000E+04;  0.0000000E+00;  4.0000000E+04;  1.9136920E-03;  0.0000000E+00;  3.6645179E-05;  1.6649058E+03;
 -5.9999999E-02;  9.9999998E-03; -2.0999999E-01;1296;  0.0000000E+00;  0.0000000E+00;  0.0000000E+00;  1.0014974E+03;  1.0000000E-01;  1.2405575E+03;0;  0.0000000E+00;  0.0000000E+00;  0.0000000E+00;0;  1.9998567E-03;  4.0000000E+04;  0.0000000E+00;  0.0000000E+00;  4.0000000E+04;  0.0000000E+00;  4.0000000E+04;  1.9102379E-03;  0.0000000E+00;  8.9618676E-05;  1.6988248E+03;
 -5.9999999E-02;  9.9999998E-03; -2.0000000E-01;1297;  0.0000000E+00;  0.0000000E+00;  0.0000000E+00;  1.0016390E+03;  1.0000000E-01;  1.3578876E+03;0;  0.0000000E+00;  0.0000000E+00;  0.0000000E+00;0;  2.0145222E-03;  4.0000000E+04;  0.0000000E+00;  0.0000000E+00;  4.0000000E+04;  0.0000000E+00;  4.0000000E+04;  1.8791498E-03;  0.0000000E+00;  1.3537231E-04;  1.6651193E+03;
 -5.9999999E-02;  9.9999998E-03; -1.9000000E-01;1298;  0.0000000E+00;  0.0000000E+00;  0.0000000E+00;  1.0017810E+03;  1.0000000E-01;  1.4755138E+03;0;  0.0000000E+00;  0.0000000E+00;  0.0000000E+00;0;  2.0036628E-03;  4.0000000E+04;  0.0000000E+00;  0.0000000E+00;  4.0000000E+04;  0.0000000E+00;  4.0000000E+04;  1.8325564E-03;  0.0000000E+00;  1.7110641E-04;  1.5839492E+03;
 -5.9999999E-02;  9.9999998E-03; -1.8000001E-01;1299;  0.0000000E+00;  0.0000000E+00;  0.0000000E+00;  1.0019213E+03;  1.0000000E-01;  1.5917574E+03;0;  0.0000000E+00;  0.0000000E+00;  0.0000000E+00;0;  1.9782160E-03;  4.0000000E+04;  0.0000000E+00;  0.0000000E+00;  4.0000000E+04;  0.0000000E+00;  4.0000000E+04;  1.7830689E-03;  0.0000000E+00;  1.9514712E-04;  1.4777163E+03;
 -5.9999999E-02;  9.9999998E-03; -1.7000000E-01;1300;  0.0000000E+00;  0.0000000E+00;  0.0000000E+00;  1.0020488E+03;  1.0000000E-01;  1.6973347E+03;0;  0.0000000E+00;  0.0000000E+00;  0.0000000E+00;0;  1.9490758E-03;  4.0000000E+04;  0.0000000E+00;  0.0000000E+00;  4.0000000E+04;  0.0000000E+00;  4.0000000E+04;  1.7420453E-03;  0.0000000E+00;  2.0703062E-04;  1.3677740E+03;
 -5.9999999E-02;  9.9999998E-03; -1.6000000E-01;1301;  0.0000000E+00;  0.0000000E+00;  0.0000000E+00;  1.0021622E+03;  1.0000000E-01;  1.7913567E+03;0;  0.0000000E+00;  0.0000000E+00;  0.0000000E+00;0;  1.9256179E-03;  4.0000000E+04;  0.0000000E+00;  0.0000000E+00;  4.0000000E+04;  0.0000000E+00;  4.0000000E+04;  1.7181946E-03;  0.0000000E+00;  2.0742338E-04;  1.2714564E+03;
 -5.9999999E-02;  9.9999998E-03; -1.5000001E-01;1302;  0.0000000E+00;  0.0000000E+00;  0.0000000E+00;  1.0022521E+03;  1.0000000E-01;  1.8658237E+03;0;  0.0000000E+00;  0.0000000E+00;  0.0000000E+00;0;  1.9145139E-03;  4.0000000E+04;  0.0000000E+00;  0.0000000E+00;  4.0000000E+04;  0.0000000E+00;  4.0000000E+04;  1.7166344E-03;  0.0000000E+00;  1.9787946E-04;  1.1997380E+03;
 -5.9999999E-02;  9.9999998E-03; -1.4000000E-01;1303;  0.0000000E+00;  0.0000000E+00;  0.0000000E+00;  1.0023184E+03;  1.0000000E-01;  1.9207358E+03;0;  0.0000000E+00;  0.0000000E+00;  0.0000000E+00;0;  1.9189887E-03;  4.0000000E+04;  0.0000000E+00;  0.0000000E+00;  4.0000000E+04;  0.0000000E+00;  4.0000000E+04;  1.7385021E-03;  0.0000000E+00;  1.8048658E-04;  1.1566307E+03;
 -5.9999999E-02;  9.9999998E-03; -1.3000000E-01;1304;  0.0000000E+00;  0.0000000E+00;  0.0000000E+00;  1.0023547E+03;  1.0000000E-01;  1.9507596E+03;0;  0.0000000E+00;  0.0000000E+00;  0.0000000E+00;0;  1.9387716E-03;  4.0000000E+04;  0.0000000E+00;  0.0000000E+00;  4.0000000E+04;  0.0000000E+00;  4.0000000E+04;  1.7812116E-03;  0.0000000E+00;  1.5755996E-04;  1.1405643E+03;
 -5.9999999E-02;  9.9999998E-03; -1.2000000E-01;1305;  0.0000000E+00;  0.0000000E+00;  0.0000000E+00;  1.0023748E+03;  1.0000000E-01;  1.9674506E+03;0;  0.0000000E+00;  0.0000000E+00;  0.0000000E+00;0;  1.9707857E-03;  4.0000000E+04;  0.0000000E+00;  0.0000000E+00;  4.0000000E+04;  0.0000000E+00;  4.0000000E+04;  1.8393371E-03;  0.0000000E+00;  1.3144853E-04;  1.1465283E+03;
 -5.9999999E-02;  9.9999998E-03; -1.1000000E-01;1306;  0.0000000E+00;  0.0000000E+00;  0.0000000E+00;  1.0023782E+03;  1.0000000E-01;  1.9703147E+03;0;  0.0000000E+00;  0.0000000E+00;  0.0000000E+00;0;  2.0102966E-03;  4.0000000E+04;  0.0000000E+00;  0.0000000E+00;  4.0000000E+04;  0.0000000E+00;  4.0000000E+04;  1.9058490E-03;  0.0000000E+00;  1.0444761E-04;  1.1681991E+03;
 -5.0000001E-02;  9.9999998E-03; -2.7000001E-01;1381;  0.0000000E+00;  0.0000000E+00;  0.0000000E+00;  1.0015493E+03;  1.0000000E-01;  1.2836180E+03;0;  0.0000000E+00;  0.0000000E+00;  0.0000000E+00;0;  9.4598305E-04;  4.0000000E+04;  0.0000000E+00;  0.0000000E+00;  4.0000000E+04;  0.0000000E+00;  4.0000000E+04;  1.2126963E-03;  0.0000000E+00; -2.6671326E-04;  4.7597290E+02;
 -5.0000001E-02;  9.9999998E-03; -2.5999999E-01;1382;  0.0000000E+00;  0.0000000E+00;  0.0000000E+00;  1.0016809E+03;  1.0000000E-01;  1.3925532E+03;0;  0.0000000E+00;  0.0000000E+00;  0.0000000E+00;0;  1.1627864E-03;  4.0000000E+04;  0.0000000E+00;  0.0000000E+00;  4.0000000E+04;  0.0000000E+00;  4.0000000E+04;  1.3883588E-03;  0.0000000E+00; -2.2557238E-04;  9.3551624E+02;
 -5.0000001E-02;  9.9999998E-03; -2.5000000E-01;1383;  0.0000000E+00;  0.0000000E+00;  0.0000000E+00;  1.0018248E+03;  1.0000000E-01;  1.5117598E+03;0;  0.0000000E+00;  0.0000000E+00;  0.0000000E+00;0;  1.3577095E-03;  4.0000000E+04;  0.0000000E+00;  0.0000000E+00;  4.0000000E+04;  0.0000000E+00;  4.0000000E+04;  1.5267731E-03;  0.0000000E+00; -1.6906358E-04;  1.3735160E+03;
 -5.0000001E-02;  9.9999998E-03; -2.3999999E-01;1384;  0.0000000E+00;  0.0000000E+00;  0.0000000E+00;  1.0019727E+03;  1.0000000E-01;  1.6343241E+03;0;  0.0000000E+00;  0.0000000E+00;  0.0000000E+00;0;  1.5166308E-03;  4.0000000E+04;  0.0000000E+00;  0.0000000E+00;  4.0000000E+04;  0.0000000E+00;  4.0000000E+04;  1.6178933E-03;  0.0000000E+00; -1.0126259E-04;  1.7298254E+03;
 -5.0000001E-02;  9.9999998E-03; -2.3000000E-01;1385;  0.0000000E+00;  0.0000000E+00;  0.0000000E+00;  1.0021417E+03;  1.0000000E-01;  1.7743696E+03;0;  0.0000000E+00;  0.0000000E+00;  0.0000000E+00;0;  1.6304537E-03;  4.0000000E+04;  0.0000000E+00;  0.0000000E+00;  4.0000000E+04;  0.0000000E+00;  4.0000000E+04;  1.6577734E-03;  0.0000000E+00; -2.7319666E-05;  1.9789309E+03;
 -5.0000001E-02;  9.9999998E-03; -2.2000000E-01;1386;  0.0000000E+00;  0.0000000E+00;  0.0000000E+00;  1.0023251E+03;  1.0000000E-01;  1.9262665E+03;0;  0.0000000E+00;  0.0000000E+00;  0.0000000E+00;0;  1.6961896E-03;  4.0000000E+04;  0.0000000E+00;  0.0000000E+00;  4.0000000E+04;  0.0000000E+00;  4.0000000E+04;  1.6490319E-03;  0.0000000E+00;  4.7157799E-05;  2.1146387E+03;
 -5.0000001E-02;  9.9999998E-03; -2.0999999E-01;1387;  0.0000000E+00;  0.0000000E+00;  0.0000000E+00;  1.0025205E+03;  1.0000000E-01;  2.0882373E+03;0;  0.0000000E+00;  0.0000000E+00;  0.0000000E+00;0;  1.7169323E-03;  4.0000000E+04;  0.0000000E+00;  0.0000000E+00;  4.0000000E+04;  0.0000000E+00;  4.0000000E+04;  1.6001899E-03;  0.0000000E+00;  1.1674238E-04;  2.1459026E+03;
 -5.0000001E-02;  9.9999998E-03; -2.0000000E-01;1388;  0.0000000E+00;  0.0000000E+00;  0.0000000E+00;  1.0027300E+03;  1.0000000E-01;  2.2617632E+03;0;  0.0000000E+00;  0.0000000E+00;  0.0000000E+00;0;  1.7008586E-03;  4.0000000E+04;  0.0000000E+00;  0.0000000E+00;  4.0000000E+04;  0.0000000E+00;  4.0000000E+04;  1.5240979E-03;  0.0000000E+00;  1.7676072E-04;  2.0924585E+03;
 -5.0000001E-02;  9.9999998E-03; -1.9000000E-01;1389;  0.0000000E+00;  0.0000000E+00;  0.0000000E+00;  1.0029379E+03;  1.0000000E-01;  2.4340051E+03;0;  0.0000000E+00;  0.0000000E+00;  0.0000000E+00;0;  1.6596077E-03;  4.0000000E+04;  0.0000000E+00;  0.0000000E+00;  4.0000000E+04;  0.0000000E+00;  4.0000000E+04;  1.4358846E-03;  0.0000000E+00;  2.2372311E-04;  1.9804102E+03;
 -5.0000001E-02;  9.9999998E-03; -1.8000001E-01;1390;  0.0000000E+00;  0.0000000E+00;  0.0000000E+00;  1.0031330E+03;  1.0000000E-01;  2.5955808E+03;0;  0.0000000E+00;  0.0000000E+00;  0.0000000E+00;0;  1.6063293E-03;  4.0000000E+04;  0.0000000E+00;  0.0000000E+00;  4.0000000E+04;  0.0000000E+00;  4.0000000E+04;  1.3507485E-03;  0.0000000E+00;  2.5558085E-04;  1.8378955E+03;
 -5.0000001E-02;  9.9999998E-03; -1.7000000E-01;1391;  0.0000000E+00;  0.0000000E+00;  0.0000000E+00;  1.0033137E+03;  1.0000000E-01;  2.7453052E+03;0;  0.0000000E+00;  0.0000000E+00;  0.0000000E+00;0;  1.5537245E-03;  4.0000000E+04;  0.0000000E+00;  0.0000000E+00;  4.0000000E+04;  0.0000000E+00;  4.0000000E+04;  1.2819273E-03;  0.0000000E+00;  2.7179724E-04;  1.6913307E+03;
 -5.0000001E-02;  9.9999998E-03; -1.6000000E-01;1392;  0.0000000E+00;  0.0000000E+00;  0.0000000E+00;  1.0034682E+03;  1.0000000E-01;  2.8733015E+03;0;  0.0000000E+00;  0.0000000E+00;  0.0000000E+00;0;  1.5123837E-03;  4.0000000E+04;  0.0000000E+00;  0.0000000E+00;  4.0000000E+04;  0.0000000E+00;  4.0000000E+04;  1.2391466E-03;  0.0000000E+00;  2.7323715E-04;  1.5621854E+03;
 -5.0000001E-02;  9.9999998E-03; -1.5000001E-01;1393;  0.0000000E+00;  0.0000000E+00;  0.0000000E+00;  1.0035925E+03;  1.0000000E-01;  2.9763108E+03;0;  0.0000000E+00;  0.0000000E+00;  0.0000000E+00;0;  1.4895331E-03;  4.0000000E+04;  0.0000000E+00;  0.0000000E+00;  4.0000000E+04;  0.0000000E+00;  4.0000000E+04;  1.2276485E-03;  0.0000000E+00;  2.6188465E-04;  1.4645901E+03;
 -5.0000001E-02;  9.9999998E-03; -1.4000000E-01;1394;  0.0000000E+00;  0.0000000E+00;  0.0000000E+00;  1.0036826E+03;  1.0000000E-01;  3.0509753E+03;0;  0.0000000E+00;  0.0000000E+00;  0.0000000E+00;0;  1.4883042E-03;  4.0000000E+04;  0.0000000E+00;  0.0000000E+00;  4.0000000E+04;  0.0000000E+00;  4.0000000E+04;  1.2478882E-03;  0.0000000E+00;  2.4041605E-04;  1.4041573E+03;
 -5.0000001E-02;  9.9999998E-03; -1.3000000E-01;1395;  0.0000000E+00;  0.0000000E+00;  0.0000000E+00;  1.0037437E+03;  1.0000000E-01;  3.1016406E+03;0;  0.0000000E+00;  0.0000000E+00;  0.0000000E+00;0;  1.5076760E-03;  4.0000000E+04;  0.0000000E+00;  0.0000000E+00;  4.0000000E+04;  0.0000000E+00;  4.0000000E+04;  1.2959171E-03;  0.0000000E+00;  2.1175884E-04;  1.3791301E+03;
 -5.0000001E-02;  9.9999998E-03; -1.2000000E-01;1396;  0.0000000E+00;  0.0000000E+00;  0.0000000E+00;  1.0037744E+03;  1.0000000E-01;  3.1270227E+03;0;  0.0000000E+00;  0.0000000E+00;  0.0000000E+00;0;  1.5432922E-03;  4.0000000E+04;  0.0000000E+00;  0.0000000E+00;  4.0000000E+04;  0.0000000E+00;  4.0000000E+04;  1.3644643E-03;  0.0000000E+00;  1.7882795E-04;  1.3832478E+03;
 -5.0000001E-02;  9.9999998E-03; -1.1000000E-01;1397;  0.0000000E+00;  0.0000000E+00;  0.0000000E+00;  1.0037856E+03;  1.0000000E-01;  3.1363064E+03;0;  0.0000000E+00;  0.0000000E+00;  0.0000000E+00;0;  1.5888796E-03;  4.0000000E+04;  0.0000000E+00;  0.0000000E+00;  4.0000000E+04;  0.0000000E+00;  4.0000000E+04;  1.4444457E-03;  0.0000000E+00;  1.4443399E-04;  1.4084133E+03;
 -3.9999999E-02;  9.9999998E-03; -2.7000001E-01;1472;  0.0000000E+00;  0.0000000E+00;  0.0000000E+00;  1.0023897E+03;  1.0000000E-01;  1.9797959E+03;0;  0.0000000E+00;  0.0000000E+00;  0.0000000E+00;0;  5.4351694E-04;  4.0000000E+04;  0.0000000E+00;  0.0000000E+00;  4.0000000E+04;  0.0000000E+00;  4.0000000E+04;  8.8813883E-04;  0.0000000E+00; -3.4462186E-04;  5.9267206E+02;
 -3.9999999E-02;  9.9999998E-03; -2.5999999E-01;1473;  0.0000000E+00;  0.0000000E+00;  0.0000000E+00;  1.0026087E+03;  1.0000000E-01;  2.1612229E+03;0;  0.0000000E+00;  0.0000000E+00;  0.0000000E+00;0;  7.2942313E-04;  4.0000000E+04;  0.0000000E+00;  0.0000000E+00;  4.0000000E+04;  0.0000000E+00;  4.0000000E+04;  1.0196966E-03;  0.0000000E+00; -2.9027343E-04;  1.1696360E+03;
 -3.9999999E-02;  9.9999998E-03; -2.5000000E-01;1474;  0.0000000E+00;  0.0000000E+00;  0.0000000E+00;  1.0028336E+03;  1.0000000E-01;  2.3475879E+03;0;  0.0000000E+00;  0.0000000E+00;  0.0000000E+00;0;  8.9066382E-04;  4.0000000E+04;  0.0000000E+00;  0.0000000E+00;  4.0000000E+04;  0.0000000E+00;  4.0000000E+04;  1.1072257E-03;  0.0000000E+00; -2.1656184E-04;  1.7092152E+03;
 -3.9999999E-02;  9.9999998E-03; -2.3999999E-01;1475;  0.0000000E+00;  0.0000000E+00;  0.0000000E+00;  1.0030717E+03;  1.0000000E-01;  2.5448169E+03;0;  0.0000000E+00;  0.0000000E+00;  0.0000000E+00;0;  1.0114487E-03;  4.0000000E+04;  0.0000000E+00;  0.0000000E+00;  4.0000000E+04;  0.0000000E+00;  4.0000000E+04;  1.1404034E-03;  0.0000000E+00; -1.2895472E-04;  2.1385645E+03;
 -3.9999999E-02;  9.9999998E-03; -2.3000000E-01;1476;  0.0000000E+00;  0.0000000E+00;  0.0000000E+00;  1.0033290E+03;  1.0000000E-01;  2.7580454E+03;0;  0.0000000E+00;  0.0000000E+00;  0.0000000E+00;0;  1.0822458E-03;  4.0000000E+04;  0.0000000E+00;  0.0000000E+00;  4.0000000E+04;  0.0000000E+00;  4.0000000E+04;  1.1164286E-03;  0.0000000E+00; -3.4182758E-05;  2.4287678E+03;
 -3.9999999E-02;  9.9999998E-03; -2.2000000E-01;1477;  0.0000000E+00;  0.0000000E+00;  0.0000000E+00;  1.0035986E+03;  1.0000000E-01;  2.9813479E+03;0;  0.0000000E+00;  0.0000000E+00;  0.0000000E+00;0;  1.1008753E-03;  4.0000000E+04;  0.0000000E+00;  0.0000000E+00;  4.0000000E+04;  0.0000000E+00;  4.0000000E+04;  1.0402962E-03;  0.0000000E+00;  6.0579139E-05;  2.5759783E+03;
 -3.9999999E-02;  9.9999998E-03; -2.0999999E-01;1478;  0.0000000E+00;  0.0000000E+00;  0.0000000E+00;  1.0038836E+03;  1.0000000E-01;  3.2174893E+03;0;  0.0000000E+00;  0.0000000E+00;  0.0000000E+00;0;  1.0722823E-03;  4.0000000E+04;  0.0000000E+00;  0.0000000E+00;  4.0000000E+04;  0.0000000E+00;  4.0000000E+04;  9.2374219E-04;  0.0000000E+00;  1.4854014E-04;  2.5949634E+03;
 -3.9999999E-02;  9.9999998E-03; -2.0000000E-01;1479;  0.0000000E+00;  0.0000000E+00;  0.0000000E+00;  1.0041723E+03;  1.0000000E-01;  3.4566924E+03;0;  0.0000000E+00;  0.0000000E+00;  0.0000000E+00;0;  1.0071667E-03;  4.0000000E+04;  0.0000000E+00;  0.0000000E+00;  4.0000000E+04;  0.0000000E+00;  4.0000000E+04;  7.8316603E-04;  0.0000000E+00;  2.2400070E-04;  2.5127795E+03;
 -3.9999999E-02;  9.9999998E-03; -1.9000000E-01;1480;  0.0000000E+00;  0.0000000E+00;  0.0000000E+00;  1.0044554E+03;  1.0000000E-01;  3.6912537E+03;0;  0.0000000E+00;  0.0000000E+00;  0.0000000E+00;0;  9.1985695E-04;  4.0000000E+04;  0.0000000E+00;  0.0000000E+00;  4.0000000E+04;  0.0000000E+00;  4.0000000E+04;  6.3701480E-04;  0.0000000E+00;  2.8284217E-04;  2.3627307E+03;
 -3.9999999E-02;  9.9999998E-03; -1.8000001E-01;1481;  0.0000000E+00;  0.0000000E+00;  0.0000000E+00;  1.0047286E+03;  1.0000000E-01;  3.9175188E+03;0;  0.0000000E+00;  0.0000000E+00;  0.0000000E+00;0;  8.2592020E-04;  4.0000000E+04;  0.0000000E+00;  0.0000000E+00;  4.0000000E+04;  0.0000000E+00;  4.0000000E+04;  5.0315360E-04;  0.0000000E+00;  3.2276660E-04;  2.1791296E+03;
 -3.9999999E-02;  9.9999998E-03; -1.7000000E-01;1482;  0.0000000E+00;  0.0000000E+00;  0.0000000E+00;  1.0049686E+03;  1.0000000E-01;  4.1164268E+03;0;  0.0000000E+00;  0.0000000E+00;  0.0000000E+00;0;  7.3987187E-04;  4.0000000E+04;  0.0000000E+00;  0.0000000E+00;  4.0000000E+04;  0.0000000E+00;  4.0000000E+04;  3.9655995E-04;  0.0000000E+00;  3.4331190E-04;  1.9931088E+03;
 -3.9999999E-02;  9.9999998E-03; -1.6000000E-01;1483;  0.0000000E+00;  0.0000000E+00;  0.0000000E+00;  1.0051718E+03;  1.0000000E-01;  4.2847183E+03;0;  0.0000000E+00;  0.0000000E+00;  0.0000000E+00;0;  6.7330792E-04;  4.0000000E+04;  0.0000000E+00;  0.0000000E+00;  4.0000000E+04;  0.0000000E+00;  4.0000000E+04;  3.2764298E-04;  0.0000000E+00;  3.4566491E-04;  1.8295812E+03;
 -3.9999999E-02;  9.9999998E-03; -1.5000001E-01;1484;  0.0000000E+00;  0.0000000E+00;  0.0000000E+00;  1.0053395E+03;  1.0000000E-01;  4.4236772E+03;0;  0.0000000E+00;  0.0000000E+00;  0.0000000E+00;0;  6.3365116E-04;  4.0000000E+04;  0.0000000E+00;  0.0000000E+00;  4.0000000E+04;  0.0000000E+00;  4.0000000E+04;  3.0132456E-04;  0.0000000E+00;  3.3232663E-04;  1.7049398E+03;
 -3.9999999E-02;  9.9999998E-03; -1.4000000E-01;1485;  0.0000000E+00;  0.0000000E+00;  0.0000000E+00;  1.0054656E+03;  1.0000000E-01;  4.5281685E+03;0;  0.0000000E+00;  0.0000000E+00;  0.0000000E+00;0;  6.2347431E-04;  4.0000000E+04;  0.0000000E+00;  0.0000000E+00;  4.0000000E+04;  0.0000000E+00;  4.0000000E+04;  3.1685858E-04;  0.0000000E+00;  3.0661572E-04;  1.6260342E+03;
 -3.9999999E-02;  9.9999998E-03; -1.3000000E-01;1486;  0.0000000E+00;  0.0000000E+00;  0.0000000E+00;  1.0055519E+03;  1.0000000E-01;  4.5996724E+03;0;  0.0000000E+00;  0.0000000E+00;  0.0000000E+00;0;  6.4054294E-04;  4.0000000E+04;  0.0000000E+00;  0.0000000E+00;  4.0000000E+04;  0.0000000E+00;  4.0000000E+04;  3.6843427E-04;  0.0000000E+00;  2.7210871E-04;  1.5907899E+03;
 -3.9999999E-02;  9.9999998E-03; -1.2000000E-01;1487;  0.0000000E+00;  0.0000000E+00;  0.0000000E+00;  1.0055966E+03;  1.0000000E-01;  4.6366094E+03;0;  0.0000000E+00;  0.0000000E+00;  0.0000000E+00;0;  6.7874056E-04;  4.0000000E+04;  0.0000000E+00;  0.0000000E+00;  4.0000000E+04;  0.0000000E+00;  4.0000000E+04;  4.4646530E-04;  0.0000000E+00;  2.3227524E-04;  1.5916621E+03;
 -3.9999999E-02;  9.9999998E-03; -1.1000000E-01;1488;  0.0000000E+00;  0.0000000E+00;  0.0000000E+00;  1.0056082E+03;  1.0000000E-01;  4.6462886E+03;0;  0.0000000E+00;  0.0000000E+00;  0.0000000E+00;0;  7.2981871E-04;  4.0000000E+04;  0.0000000E+00;  0.0000000E+00;  4.0000000E+04;  0.0000000E+00;  4.0000000E+04;  5.3943973E-04;  0.0000000E+00;  1.9037897E-04;  1.6188618E+03;
 -2.9999999E-02;  9.9999998E-03; -2.7000001E-01;1563;  0.0000000E+00;  0.0000000E+00;  0.0000000E+00;  1.0034560E+03;  1.0000000E-01;  2.8632278E+03;0;  0.0000000E+00;  0.0000000E+00;  0.0000000E+00;0; -1.1804714E-04;  4.0000000E+04;  0.0000000E+00;  0.0000000E+00;  4.0000000E+04;  0.0000000E+00;  4.0000000E+04;  3.1256393E-04;  0.0000000E+00; -4.3061108E-04;  7.0201605E+02;
 -2.9999999E-02;  9.9999998E-03; -2.5999999E-01;1564;  0.0000000E+00;  0.0000000E+00;  0.0000000E+00;  1.0037782E+03;  1.0000000E-01;  3.1301831E+03;0;  0.0000000E+00;  0.0000000E+00;  0.0000000E+00;0;  6.1902392E-06;  4.0000000E+04;  0.0000000E+00;  0.0000000E+00;  4.0000000E+04;  0.0000000E+00;  4.0000000E+04;  3.6668094E-04;  0.0000000E+00; -3.6049070E-04;  1.4096152E+03;
 -2.9999999E-02;  9.9999998E-03; -2.5000000E-01;1565;  0.0000000E+00;  0.0000000E+00;  0.0000000E+00;  1.0041042E+03;  1.0000000E-01;  3.4002988E+03;0;  0.0000000E+00;  0.0000000E+00;  0.0000000E+00;0;  1.0388670E-04;  4.0000000E+04;  0.0000000E+00;  0.0000000E+00;  4.0000000E+04;  0.0000000E+00;  4.0000000E+04;  3.7061670E-04;  0.0000000E+00; -2.6673000E-04;  2.0524539E+03;
 -2.9999999E-02;  9.9999998E-03; -2.3999999E-01;1566;  0.0000000E+00;  0.0000000E+00;  0.0000000E+00;  1.0044490E+03;  1.0000000E-01;  3.6859204E+03;0;  0.0000000E+00;  0.0000000E+00;  0.0000000E+00;0;  1.5799675E-04;  4.0000000E+04;  0.0000000E+00;  0.0000000E+00;  4.0000000E+04;  0.0000000E+00;  4.0000000E+04;  3.1450158E-04;  0.0000000E+00; -1.5650483E-04;  2.5486082E+03;
 -2.9999999E-02;  9.9999998E-03; -2.3000000E-01;1567;  0.0000000E+00;  0.0000000E+00;  0.0000000E+00;  1.0048142E+03;  1.0000000E-01;  3.9885291E+03;0;  0.0000000E+00;  0.0000000E+00;  0.0000000E+00;0;  1.5897353E-04;  4.0000000E+04;  0.0000000E+00;  0.0000000E+00;  4.0000000E+04;  0.0000000E+00;  4.0000000E+04;  1.9742236E-04;  0.0000000E+00; -3.8448823E-05;  2.8681838E+03;
 -2.9999999E-02;  9.9999998E-03; -2.2000000E-01;1568;  0.0000000E+00;  0.0000000E+00;  0.0000000E+00;  1.0051902E+03;  1.0000000E-01;  4.2999277E+03;0;  0.0000000E+00;  0.0000000E+00;  0.0000000E+00;0;  1.0589258E-04;  4.0000000E+04;  0.0000000E+00;  0.0000000E+00;  4.0000000E+04;  0.0000000E+00;  4.0000000E+04;  2.7452752E-05;  0.0000000E+00;  7.8439829E-05;  3.0125574E+03;
 -2.9999999E-02;  9.9999998E-03; -2.0999999E-01;1569;  0.0000000E+00;  0.0000000E+00;  0.0000000E+00;  1.0055765E+03;  1.0000000E-01;  4.6200176E+03;0;  0.0000000E+00;  0.0000000E+00;  0.0000000E+00;0;  5.9544836E-06;  4.0000000E+04;  0.0000000E+00;  0.0000000E+00;  4.0000000E+04;  0.0000000E+00;  4.0000000E+04; -1.7992131E-04;  0.0000000E+00;  1.8587579E-04;  3.0051499E+03;
 -2.9999999E-02;  9.9999998E-03; -2.0000000E-01;1570;  0.0000000E+00;  0.0000000E+00;  0.0000000E+00;  1.0059641E+03;  1.0000000E-01;  4.9410947E+03;0;  0.0000000E+00;  0.0000000E+00;  0.0000000E+00;0; -1.2732222E-04;  4.0000000E+04;  0.0000000E+00;  0.0000000E+00;  4.0000000E+04;  0.0000000E+00;  4.0000000E+04; -4.0446973E-04;  0.0000000E+00;  2.7714751E-04;  2.8826436E+03;
 -2.9999999E-02;  9.9999998E-03; -1.9000000E-01;1571;  0.0000000E+00;  0.0000000E+00;  0.0000000E+00;  1.0063402E+03;  1.0000000E-01;  5.2527896E+03;0;  0.0000000E+00;  0.0000000E+00;  0.0000000E+00;0; -2.7672533E-04;  4.0000000E+04;  0.0000000E+00;  0.0000000E+00;  4.0000000E+04;  0.0000000E+00;  4.0000000E+04; -6.2437245E-04;  0.0000000E+00;  3.4764712E-04;  2.6868550E+03;
 -2.9999999E-02;  9.9999998E-03; -1.8000001E-01;1572;  0.0000000E+00;  0.0000000E+00;  0.0000000E+00;  1.0066866E+03;  1.0000000E-01;  5.5397939E+03;0;  0.0000000E+00;  0.0000000E+00;  0.0000000E+00;0; -4.2425524E-04;  4.0000000E+04;  0.0000000E+00;  0.0000000E+00;  4.0000000E+04;  0.0000000E+00;  4.0000000E+04; -8.1930793E-04;  0.0000000E+00;  3.9505269E-04;  2.4583413E+03;
 -2.9999999E-02;  9.9999998E-03; -1.7000000E-01;1573;  0.0000000E+00;  0.0000000E+00;  0.0000000E+00;  1.0070049E+03;  1.0000000E-01;  5.8034902E+03;0;  0.0000000E+00;  0.0000000E+00;  0.0000000E+00;0; -5.5375532E-04;  4.0000000E+04;  0.0000000E+00;  0.0000000E+00;  4.0000000E+04;  0.0000000E+00;  4.0000000E+04; -9.7297493E-04;  0.0000000E+00;  4.1921964E-04;  2.2322971E+03;
 -2.9999999E-02;  9.9999998E-03; -1.6000000E-01;1574;  0.0000000E+00;  0.0000000E+00;  0.0000000E+00;  1.0072692E+03;  1.0000000E-01;  6.0224468E+03;0;  0.0000000E+00;  0.0000000E+00;  0.0000000E+00;0; -6.5294805E-04;  4.0000000E+04;  0.0000000E+00;  0.0000000E+00;  4.0000000E+04;  0.0000000E+00;  4.0000000E+04; -1.0748171E-03;  0.0000000E+00;  4.2186913E-04;  2.0356615E+03;
 -2.9999999E-02;  9.9999998E-03; -1.5000001E-01;1575;  0.0000000E+00;  0.0000000E+00;  0.0000000E+00;  1.0074881E+03;  1.0000000E-01;  6.2037754E+03;0;  0.0000000E+00;  0.0000000E+00;  0.0000000E+00;0; -7.1468973E-04;  4.0000000E+04;  0.0000000E+00;  0.0000000E+00;  4.0000000E+04;  0.0000000E+00;  4.0000000E+04; -1.1208300E-03;  0.0000000E+00;  4.0614023E-04;  1.8856996E+03;
 -2.9999999E-02;  9.9999998E-03; -1.4000000E-01;1576;  0.0000000E+00;  0.0000000E+00;  0.0000000E+00;  1.0076521E+03;  1.0000000E-01;  6.3395737E+03;0;  0.0000000E+00;  0.0000000E+00;  0.0000000E+00;0; -7.3746231E-04;  4.0000000E+04;  0.0000000E+00;  0.0000000E+00;  4.0000000E+04;  0.0000000E+00;  4.0000000E+04; -1.1135044E-03;  0.0000000E+00;  3.7604210E-04;  1.7894602E+03;
 -2.9999999E-02;  9.9999998E-03; -1.3000000E-01;1577;  0.0000000E+00;  0.0000000E+00;  0.0000000E+00;  1.0077578E+03;  1.0000000E-01;  6.4271763E+03;0;  0.0000000E+00;  0.0000000E+00;  0.0000000E+00;0; -7.2518818E-04;  4.0000000E+04;  0.0000000E+00;  0.0000000E+00;  4.0000000E+04;  0.0000000E+00;  4.0000000E+04; -1.0609931E-03;  0.0000000E+00;  3.3580489E-04;  1.7441938E+03;
 -2.9999999E-02;  9.9999998E-03; -1.2000000E-01;1578;  0.0000000E+00;  0.0000000E+00;  0.0000000E+00;  1.0078143E+03;  1.0000000E-01;  6.4739897E+03;0;  0.0000000E+00;  0.0000000E+00;  0.0000000E+00;0; -6.8614469E-04;  4.0000000E+04;  0.0000000E+00;  0.0000000E+00;  4.0000000E+04;  0.0000000E+00;  4.0000000E+04; -9.7553973E-04;  0.0000000E+00;  2.8939507E-04;  1.7410181E+03;
 -2.9999999E-02;  9.9999998E-03; -1.1000000E-01;1579;  0.0000000E+00;  0.0000000E+00;  0.0000000E+00;  1.0078242E+03;  1.0000000E-01;  6.4821870E+03;0;  0.0000000E+00;  0.0000000E+00;  0.0000000E+00;0; -6.3093018E-04;  4.0000000E+04;  0.0000000E+00;  0.0000000E+00;  4.0000000E+04;  0.0000000E+00;  4.0000000E+04; -8.7134360E-04;  0.0000000E+00;  2.4041344E-04;  1.7686066E+03;
 -2.0000000E-02;  9.9999998E-03; -2.7000001E-01;1654;  0.0000000E+00;  0.0000000E+00;  0.0000000E+00;  1.0047104E+03;  1.0000000E-01;  3.9025068E+03;0;  0.0000000E+00;  0.0000000E+00;  0.0000000E+00;0; -1.0569016E-03;  4.0000000E+04;  0.0000000E+00;  0.0000000E+00;  4.0000000E+04;  0.0000000E+00;  4.0000000E+04; -5.3574331E-04;  0.0000000E+00; -5.2115828E-04;  8.0659705E+02;
 -2.0000000E-02;  9.9999998E-03; -2.5999999E-01;1655;  0.0000000E+00;  0.0000000E+00;  0.0000000E+00;  1.0051641E+03;  1.0000000E-01;  4.2783975E+03;0;  0.0000000E+00;  0.0000000E+00;  0.0000000E+00;0; -1.0303516E-03;  4.0000000E+04;  0.0000000E+00;  0.0000000E+00;  4.0000000E+04;  0.0000000E+00;  4.0000000E+04; -5.9774838E-04;  0.0000000E+00; -4.3260321E-04;  1.6483418E+03;
 -2.0000000E-02;  9.9999998E-03; -2.5000000E-01;1656;  0.0000000E+00;  0.0000000E+00;  0.0000000E+00;  1.0056163E+03;  1.0000000E-01;  4.6530044E+03;0;  0.0000000E+00;  0.0000000E+00;  0.0000000E+00;0; -1.0302459E-03;  4.0000000E+04;  0.0000000E+00;  0.0000000E+00;  4.0000000E+04;  0.0000000E+00;  4.0000000E+04; -7.1422505E-04;  0.0000000E+00; -3.1602083E-04;  2.3855559E+03;
 -2.0000000E-02;  9.9999998E-03; -2.3999999E-01;1657;  0.0000000E+00;  0.0000000E+00;  0.0000000E+00;  1.0060837E+03;  1.0000000E-01;  5.0402524E+03;0;  0.0000000E+00;  0.0000000E+00;  0.0000000E+00;0; -1.0741394E-03;  4.0000000E+04;  0.0000000E+00;  0.0000000E+00;  4.0000000E+04;  0.0000000E+00;  4.0000000E+04; -8.9349051E-04;  0.0000000E+00; -1.8064884E-04;  2.9322175E+03;
 -2.0000000E-02;  9.9999998E-03; -2.3000000E-01;1658;  0.0000000E+00;  0.0000000E+00;  0.0000000E+00;  1.0065690E+03;  1.0000000E-01;  5.4423154E+03;0;  0.0000000E+00;  0.0000000E+00;  0.0000000E+00;0; -1.1710944E-03;  4.0000000E+04;  0.0000000E+00;  0.0000000E+00;  4.0000000E+04;  0.0000000E+00;  4.0000000E+04; -1.1337075E-03;  0.0000000E+00; -3.7386944E-05;  3.2609050E+03;
 -2.0000000E-02;  9.9999998E-03; -2.2000000E-01;1659;  0.0000000E+00;  0.0000000E+00;  0.0000000E+00;  1.0070623E+03;  1.0000000E-01;  5.8509951E+03;0;  0.0000000E+00;  0.0000000E+00;  0.0000000E+00;0; -1.3205286E-03;  4.0000000E+04;  0.0000000E+00;  0.0000000E+00;  4.0000000E+04;  0.0000000E+00;  4.0000000E+04; -1.4232076E-03;  0.0000000E+00;  1.0267902E-04;  3.3817764E+03;
 -2.0000000E-02;  9.9999998E-03; -2.0999999E-01;1660;  0.0000000E+00;  0.0000000E+00;  0.0000000E+00;  1.0075677E+03;  1.0000000E-01;  6.2697485E+03;0;  0.0000000E+00;  0.0000000E+00;  0.0000000E+00;0; -1.5129144E-03;  4.0000000E+04;  0.0000000E+00;  0.0000000E+00;  4.0000000E+04;  0.0000000E+00;  4.0000000E+04; -1.7425930E-03;  0.0000000E+00;  2.2967861E-04;  3.3301348E+03;
 -2.0000000E-02;  9.9999998E-03; -2.0000000E-01;1661;  0.0000000E+00;  0.0000000E+00;  0.0000000E+00;  1.0080591E+03;  1.0000000E-01;  6.6768481E+03;0;  0.0000000E+00;  0.0000000E+00;  0.0000000E+00;0; -1.7319736E-03;  4.0000000E+04;  0.0000000E+00;  0.0000000E+00;  4.0000000E+04;  0.0000000E+00;  4.0000000E+04; -2.0679573E-03;  0.0000000E+00;  3.3598364E-04;  3.1544050E+03;
 -2.0000000E-02;  9.9999998E-03; -1.9000000E-01;1662;  0.0000000E+00;  0.0000000E+00;  0.0000000E+00;  1.0085364E+03;  1.0000000E-01;  7.0722939E+03;0;  0.0000000E+00;  0.0000000E+00;  0.0000000E+00;0; -1.9578321E-03;  4.0000000E+04;  0.0000000E+00;  0.0000000E+00;  4.0000000E+04;  0.0000000E+00;  4.0000000E+04; -2.3745785E-03;  0.0000000E+00;  4.1674639E-04;  2.9056458E+03;
 -2.0000000E-02;  9.9999998E-03; -1.8000001E-01;1663;  0.0000000E+00;  0.0000000E+00;  0.0000000E+00;  1.0089741E+03;  1.0000000E-01;  7.4348516E+03;0;  0.0000000E+00;  0.0000000E+00;  0.0000000E+00;0; -2.1703462E-03;  4.0000000E+04;  0.0000000E+00;  0.0000000E+00;  4.0000000E+04;  0.0000000E+00;  4.0000000E+04; -2.6403128E-03;  0.0000000E+00;  4.6996653E-04;  2.6304512E+03;
 -2.0000000E-02;  9.9999998E-03; -1.7000000E-01;1664;  0.0000000E+00;  0.0000000E+00;  0.0000000E+00;  1.0093662E+03;  1.0000000E-01;  7.7596816E+03;0;  0.0000000E+00;  0.0000000E+00;  0.0000000E+00;0; -2.3521222E-03;  4.0000000E+04;  0.0000000E+00;  0.0000000E+00;  4.0000000E+04;  0.0000000E+00;  4.0000000E+04; -2.8483055E-03;  0.0000000E+00;  4.9618323E-04;  2.3666892E+03;
 -2.0000000E-02;  9.9999998E-03; -1.6000000E-01;1665;  0.0000000E+00;  0.0000000E+00;  0.0000000E+00;  1.0097032E+03;  1.0000000E-01;  8.0388838E+03;0;  0.0000000E+00;  0.0000000E+00;  0.0000000E+00;0; -2.4906667E-03;  4.0000000E+04;  0.0000000E+00;  0.0000000E+00;  4.0000000E+04;  0.0000000E+00;  4.0000000E+04; -2.9886148E-03;  0.0000000E+00;  4.9794820E-04;  2.1415601E+03;
 -2.0000000E-02;  9.9999998E-03; -1.5000001E-01;1666;  0.0000000E+00;  0.0000000E+00;  0.0000000E+00;  1.0099717E+03;  1.0000000E-01;  8.2613955E+03;0;  0.0000000E+00;  0.0000000E+00;  0.0000000E+00;0; -2.5796024E-03;  4.0000000E+04;  0.0000000E+00;  0.0000000E+00;  4.0000000E+04;  0.0000000E+00;  4.0000000E+04; -3.0588103E-03;  0.0000000E+00;  4.7920772E-04;  1.9713557E+03;
 -2.0000000E-02;  9.9999998E-03; -1.4000000E-01;1667;  0.0000000E+00;  0.0000000E+00;  0.0000000E+00;  1.0101675E+03;  1.0000000E-01;  8.4236631E+03;0;  0.0000000E+00;  0.0000000E+00;  0.0000000E+00;0; -2.6189489E-03;  4.0000000E+04;  0.0000000E+00;  0.0000000E+00;  4.0000000E+04;  0.0000000E+00;  4.0000000E+04; -3.0636305E-03;  0.0000000E+00;  4.4468165E-04;  1.8617566E+03;
 -2.0000000E-02;  9.9999998E-03; -1.3000000E-01;1668;  0.0000000E+00;  0.0000000E+00;  0.0000000E+00;  1.0102902E+03;  1.0000000E-01;  8.5251914E+03;0;  0.0000000E+00;  0.0000000E+00;  0.0000000E+00;0; -2.6146891E-03;  4.0000000E+04;  0.0000000E+00;  0.0000000E+00;  4.0000000E+04;  0.0000000E+00;  4.0000000E+04; -3.0138730E-03;  0.0000000E+00;  3.9918392E-04;  1.8086362E+03;
 -2.0000000E-02;  9.9999998E-03; -1.2000000E-01;1669;  0.0000000E+00;  0.0000000E+00;  0.0000000E+00;  1.0103506E+03;  1.0000000E-01;  8.5752637E+03;0;  0.0000000E+00;  0.0000000E+00;  0.0000000E+00;0; -2.5775430E-03;  4.0000000E+04;  0.0000000E+00;  0.0000000E+00;  4.0000000E+04;  0.0000000E+00;  4.0000000E+04; -2.9245899E-03;  0.0000000E+00;  3.4704679E-04;  1.8014866E+03;
 -2.0000000E-02;  9.9999998E-03; -1.1000000E-01;1670;  0.0000000E+00;  0.0000000E+00;  0.0000000E+00;  1.0103591E+03;  1.0000000E-01;  8.5823750E+03;0;  0.0000000E+00;  0.0000000E+00;  0.0000000E+00;0; -2.5206613E-03;  4.0000000E+04;  0.0000000E+00;  0.0000000E+00;  4.0000000E+04;  0.0000000E+00;  4.0000000E+04; -2.8126824E-03;  0.0000000E+00;  2.9202111E-04;  1.8277750E+03;
 -9.9999998E-03;  9.9999998E-03; -2.7000001E-01;1745;  0.0000000E+00;  0.0000000E+00;  0.0000000E+00;  1.0061254E+03;  1.0000000E-01;  5.0748193E+03;0;  0.0000000E+00;  0.0000000E+00;  0.0000000E+00;0; -2.2651628E-03;  4.0000000E+04;  0.0000000E+00;  0.0000000E+00;  4.0000000E+04;  0.0000000E+00;  4.0000000E+04; -1.6542737E-03;  0.0000000E+00; -6.1088905E-04;  9.1988934E+02;
 -9.9999998E-03;  9.9999998E-03; -2.5999999E-01;1746;  0.0000000E+00;  0.0000000E+00;  0.0000000E+00;  1.0067172E+03;  1.0000000E-01;  5.5650771E+03;0;  0.0000000E+00;  0.0000000E+00;  0.0000000E+00;0; -2.3771508E-03;  4.0000000E+04;  0.0000000E+00;  0.0000000E+00;  4.0000000E+04;  0.0000000E+00;  4.0000000E+04; -1.8758141E-03;  0.0000000E+00; -5.0133682E-04;  1.8803340E+03;
 -9.9999998E-03;  9.9999998E-03; -2.5000000E-01;1747;  0.0000000E+00;  0.0000000E+00;  0.0000000E+00;  1.0073124E+03;  1.0000000E-01;  6.0581992E+03;0;  0.0000000E+00;  0.0000000E+00;  0.0000000E+00;0; -2.5117944E-03;  4.0000000E+04;  0.0000000E+00;  0.0000000E+00;  4.0000000E+04;  0.0000000E+00;  4.0000000E+04; -2.1523177E-03;  0.0000000E+00; -3.5947678E-04;  2.6877832E+03;
 -9.9999998E-03;  9.9999998E-03; -2.3999999E-01;1748;  0.0000000E+00;  0.0000000E+00;  0.0000000E+00;  1.0079161E+03;  1.0000000E-01;  6.5583330E+03;0;  0.0000000E+00;  0.0000000E+00;  0.0000000E+00;0; -2.6860177E-03;  4.0000000E+04;  0.0000000E+00;  0.0000000E+00;  4.0000000E+04;  0.0000000E+00;  4.0000000E+04; -2.4889784E-03;  0.0000000E+00; -1.9703919E-04;  3.2566292E+03;
 -9.9999998E-03;  9.9999998E-03; -2.3000000E-01;1749;  0.0000000E+00;  0.0000000E+00;  0.0000000E+00;  1.0085316E+03;  1.0000000E-01;  7.0682446E+03;0;  0.0000000E+00;  0.0000000E+00;  0.0000000E+00;0; -2.9080235E-03;  4.0000000E+04;  0.0000000E+00;  0.0000000E+00;  4.0000000E+04;  0.0000000E+00;  4.0000000E+04; -2.8804159E-03;  0.0000000E+00; -2.7607593E-05;  3.5660383E+03;
 -9.9999998E-03;  9.9999998E-03; -2.2000000E-01;1750;  0.0000000E+00;  0.0000000E+00;  0.0000000E+00;  1.0091531E+03;  1.0000000E-01;  7.5831929E+03;0;  0.0000000E+00;  0.0000000E+00;  0.0000000E+00;0; -3.1758694E-03;  4.0000000E+04;  0.0000000E+00;  0.0000000E+00;  4.0000000E+04;  0.0000000E+00;  4.0000000E+04; -3.3112741E-03;  0.0000000E+00;  1.3540474E-04;  3.6385754E+03;
 -9.9999998E-03;  9.9999998E-03; -2.0999999E-01;1751;  0.0000000E+00;  0.0000000E+00;  0.0000000E+00;  1.0097780E+03;  1.0000000E-01;  8.1008081E+03;0;  0.0000000E+00;  0.0000000E+00;  0.0000000E+00;0; -3.4782176E-03;  4.0000000E+04;  0.0000000E+00;  0.0000000E+00;  4.0000000E+04;  0.0000000E+00;  4.0000000E+04; -3.7587655E-03;  0.0000000E+00;  2.8054786E-04;  3.5239888E+03;
 -9.9999998E-03;  9.9999998E-03; -2.0000000E-01;1752;  0.0000000E+00;  0.0000000E+00;  0.0000000E+00;  1.0103865E+03;  1.0000000E-01;  8.6050898E+03;0;  0.0000000E+00;  0.0000000E+00;  0.0000000E+00;0; -3.7967234E-03;  4.0000000E+04;  0.0000000E+00;  0.0000000E+00;  4.0000000E+04;  0.0000000E+00;  4.0000000E+04; -4.1962354E-03;  0.0000000E+00;  3.9951195E-04;  3.2834861E+03;
 -9.9999998E-03;  9.9999998E-03; -1.9000000E-01;1753;  0.0000000E+00;  0.0000000E+00;  0.0000000E+00;  1.0109653E+03;  1.0000000E-01;  9.0844834E+03;0;  0.0000000E+00;  0.0000000E+00;  0.0000000E+00;0; -4.1095922E-03;  4.0000000E+04;  0.0000000E+00;  0.0000000E+00;  4.0000000E+04;  0.0000000E+00;  4.0000000E+04; -4.5972136E-03;  0.0000000E+00;  4.8762152E-04;  2.9773997E+03;
 -9.9999998E-03;  9.9999998E-03; -1.8000001E-01;1754;  0.0000000E+00;  0.0000000E+00;  0.0000000E+00;  1.0114988E+03;  1.0000000E-01;  9.5265449E+03;0;  0.0000000E+00;  0.0000000E+00;  0.0000000E+00;0; -4.3952786E-03;  4.0000000E+04;  0.0000000E+00;  0.0000000E+00;  4.0000000E+04;  0.0000000E+00;  4.0000000E+04; -4.9389745E-03;  0.0000000E+00;  5.4369599E-04;  2.6571729E+03;
 -9.9999998E-03;  9.9999998E-03; -1.7000000E-01;1755;  0.0000000E+00;  0.0000000E+00;  0.0000000E+00;  1.0119695E+03;  1.0000000E-01;  9.9165586E+03;0;  0.0000000E+00;  0.0000000E+00;  0.0000000E+00;0; -4.6357820E-03;  4.0000000E+04;  0.0000000E+00;  0.0000000E+00;  4.0000000E+04;  0.0000000E+00;  4.0000000E+04; -5.2052345E-03;  0.0000000E+00;  5.6945259E-04;  2.3615681E+03;
 -9.9999998E-03;  9.9999998E-03; -1.6000000E-01;1756;  0.0000000E+00;  0.0000000E+00;  0.0000000E+00;  1.0123694E+03;  1.0000000E-01;  1.0247809E+04;0;  0.0000000E+00;  0.0000000E+00;  0.0000000E+00;0; -4.8189545E-03;  4.0000000E+04;  0.0000000E+00;  0.0000000E+00;  4.0000000E+04;  0.0000000E+00;  4.0000000E+04; -5.3875991E-03;  0.0000000E+00;  5.6864467E-04;  2.1160947E+03;
 -9.9999998E-03;  9.9999998E-03; -1.5000001E-01;1757;  0.0000000E+00;  0.0000000E+00;  0.0000000E+00;  1.0126791E+03;  1.0000000E-01;  1.0504395E+04;0;  0.0000000E+00;  0.0000000E+00;  0.0000000E+00;0; -4.9396688E-03;  4.0000000E+04;  0.0000000E+00;  0.0000000E+00;  4.0000000E+04;  0.0000000E+00;  4.0000000E+04; -5.4858765E-03;  0.0000000E+00;  5.4620783E-04;  1.9339558E+03;
 -9.9999998E-03;  9.9999998E-03; -1.4000000E-01;1758;  0.0000000E+00;  0.0000000E+00;  0.0000000E+00;  1.0128955E+03;  1.0000000E-01;  1.0683648E+04;0;  0.0000000E+00;  0.0000000E+00;  0.0000000E+00;0; -4.9998257E-03;  4.0000000E+04;  0.0000000E+00;  0.0000000E+00;  4.0000000E+04;  0.0000000E+00;  4.0000000E+04; -5.5073644E-03;  0.0000000E+00;  5.0753873E-04;  1.8176798E+03;
 -9.9999998E-03;  9.9999998E-03; -1.3000000E-01;1759;  0.0000000E+00;  0.0000000E+00;  0.0000000E+00;  1.0130331E+03;  1.0000000E-01;  1.0797620E+04;0;  0.0000000E+00;  0.0000000E+00;  0.0000000E+00;0; -5.0076852E-03;  4.0000000E+04;  0.0000000E+00;  0.0000000E+00;  4.0000000E+04;  0.0000000E+00;  4.0000000E+04; -5.4655252E-03;  0.0000000E+00;  4.5784021E-04;  1.7606290E+03;
 -9.9999998E-03;  9.9999998E-03; -1.2000000E-01;1760;  0.0000000E+00;  0.0000000E+00;  0.0000000E+00;  1.0130917E+03;  1.0000000E-01;  1.0846212E+04;0;  0.0000000E+00;  0.0000000E+00;  0.0000000E+00;0; -4.9764402E-03;  4.0000000E+04;  0.0000000E+00;  0.0000000E+00;  4.0000000E+04;  0.0000000E+00;  4.0000000E+04; -5.3779935E-03;  0.0000000E+00;  4.0155314E-04;  1.7503591E+03;
 -9.9999998E-03;  9.9999998E-03; -1.1000000E-01;1761;  0.0000000E+00;  0.0000000E+00;  0.0000000E+00;  1.0130842E+03;  1.0000000E-01;  1.0839989E+04;0;  0.0000000E+00;  0.0000000E+00;  0.0000000E+00;0; -4.9217683E-03;  4.0000000E+04;  0.0000000E+00;  0.0000000E+00;  4.0000000E+04;  0.0000000E+00;  4.0000000E+04; -5.2640573E-03;  0.0000000E+00;  3.4228887E-04;  1.7733553E+03;
 -1.9000000E-01;  9.9999998E-03; -1.0000000E-01;124;  0.0000000E+00;  0.0000000E+00;  0.0000000E+00;  1.0000000E+03;  1.0000000E-01;  0.0000000E+00;0;  0.0000000E+00;  0.0000000E+00;  0.0000000E+00;0;  0.0000000E+00;  4.0000000E+04;  0.0000000E+00;  0.0000000E+00;  4.0000000E+04;  0.0000000E+00;  4.0000000E+04;  0.0000000E+00;  0.0000000E+00;  0.0000000E+00;  0.0000000E+00;
 -1.9000000E-01;  9.9999998E-03; -9.0000004E-02;125;  0.0000000E+00;  0.0000000E+00;  0.0000000E+00;  1.0000000E+03;  1.0000000E-01;  0.0000000E+00;0;  0.0000000E+00;  0.0000000E+00;  0.0000000E+00;0;  0.0000000E+00;  4.0000000E+04;  0.0000000E+00;  0.0000000E+00;  4.0000000E+04;  0.0000000E+00;  4.0000000E+04;  0.0000000E+00;  0.0000000E+00;  0.0000000E+00;  0.0000000E+00;
 -1.9000000E-01;  9.9999998E-03; -7.9999998E-02;126;  0.0000000E+00;  0.0000000E+00;  0.0000000E+00;  1.0000000E+03;  1.0000000E-01;  0.0000000E+00;0;  0.0000000E+00;  0.0000000E+00;  0.0000000E+00;0;  0.0000000E+00;  4.0000000E+04;  0.0000000E+00;  0.0000000E+00;  4.0000000E+04;  0.0000000E+00;  4.0000000E+04;  0.0000000E+00;  0.0000000E+00;  0.0000000E+00;  0.0000000E+00;
 -1.9000000E-01;  9.9999998E-03; -7.0000000E-02;127;  0.0000000E+00;  0.0000000E+00;  0.0000000E+00;  1.0000000E+03;  1.0000000E-01;  0.0000000E+00;0;  0.0000000E+00;  0.0000000E+00;  0.0000000E+00;0;  0.0000000E+00;  4.0000000E+04;  0.0000000E+00;  0.0000000E+00;  4.0000000E+04;  0.0000000E+00;  4.0000000E+04;  0.0000000E+00;  0.0000000E+00;  0.0000000E+00;  0.0000000E+00;
 -1.9000000E-01;  9.9999998E-03; -5.9999999E-02;128;  0.0000000E+00;  0.0000000E+00;  0.0000000E+00;  1.0000000E+03;  1.0000000E-01;  0.0000000E+00;0;  0.0000000E+00;  0.0000000E+00;  0.0000000E+00;0;  0.0000000E+00;  4.0000000E+04;  0.0000000E+00;  0.0000000E+00;  4.0000000E+04;  0.0000000E+00;  4.0000000E+04;  0.0000000E+00;  0.0000000E+00;  0.0000000E+00;  0.0000000E+00;
 -1.9000000E-01;  9.9999998E-03; -5.0000001E-02;129;  0.0000000E+00;  0.0000000E+00;  0.0000000E+00;  1.0000000E+03;  1.0000000E-01;  0.0000000E+00;0;  0.0000000E+00;  0.0000000E+00;  0.0000000E+00;0;  0.0000000E+00;  4.0000000E+04;  0.0000000E+00;  0.0000000E+00;  4.0000000E+04;  0.0000000E+00;  4.0000000E+04;  0.0000000E+00;  0.0000000E+00;  0.0000000E+00;  0.0000000E+00;
 -1.9000000E-01;  9.9999998E-03; -3.9999999E-02;130;  0.0000000E+00;  0.0000000E+00;  0.0000000E+00;  1.0000000E+03;  1.0000000E-01;  0.0000000E+00;0;  0.0000000E+00;  0.0000000E+00;  0.0000000E+00;0;  0.0000000E+00;  4.0000000E+04;  0.0000000E+00;  0.0000000E+00;  4.0000000E+04;  0.0000000E+00;  4.0000000E+04;  0.0000000E+00;  0.0000000E+00;  0.0000000E+00;  0.0000000E+00;
 -1.9000000E-01;  9.9999998E-03; -2.9999999E-02;131;  0.0000000E+00;  0.0000000E+00;  0.0000000E+00;  1.0000000E+03;  1.0000000E-01;  0.0000000E+00;0;  0.0000000E+00;  0.0000000E+00;  0.0000000E+00;0;  0.0000000E+00;  4.0000000E+04;  0.0000000E+00;  0.0000000E+00;  4.0000000E+04;  0.0000000E+00;  4.0000000E+04;  0.0000000E+00;  0.0000000E+00;  0.0000000E+00;  0.0000000E+00;
 -1.9000000E-01;  9.9999998E-03; -2.0000000E-02;132;  0.0000000E+00;  0.0000000E+00;  0.0000000E+00;  1.0000000E+03;  1.0000000E-01;  0.0000000E+00;0;  0.0000000E+00;  0.0000000E+00;  0.0000000E+00;0;  0.0000000E+00;  4.0000000E+04;  0.0000000E+00;  0.0000000E+00;  4.0000000E+04;  0.0000000E+00;  4.0000000E+04;  0.0000000E+00;  0.0000000E+00;  0.0000000E+00;  0.0000000E+00;
 -1.9000000E-01;  9.9999998E-03; -9.9999998E-03;133;  0.0000000E+00;  0.0000000E+00;  0.0000000E+00;  1.0000000E+03;  1.0000000E-01;  0.0000000E+00;0;  0.0000000E+00;  0.0000000E+00;  0.0000000E+00;0;  0.0000000E+00;  4.0000000E+04;  0.0000000E+00;  0.0000000E+00;  4.0000000E+04;  0.0000000E+00;  4.0000000E+04;  0.0000000E+00;  0.0000000E+00;  0.0000000E+00;  0.0000000E+00;
 -1.9000000E-01;  9.9999998E-03;  0.0000000E+00;134;  0.0000000E+00;  0.0000000E+00;  0.0000000E+00;  1.0000000E+03;  1.0000000E-01;  0.0000000E+00;0;  0.0000000E+00;  0.0000000E+00;  0.0000000E+00;0;  0.0000000E+00;  4.0000000E+04;  0.0000000E+00;  0.0000000E+00;  4.0000000E+04;  0.0000000E+00;  4.0000000E+04;  0.0000000E+00;  0.0000000E+00;  0.0000000E+00;  0.0000000E+00;
 -1.9000000E-01;  9.9999998E-03;  9.9999998E-03;135;  0.0000000E+00;  0.0000000E+00;  0.0000000E+00;  1.0000000E+03;  1.0000000E-01;  0.0000000E+00;0;  0.0000000E+00;  0.0000000E+00;  0.0000000E+00;0;  0.0000000E+00;  4.0000000E+04;  0.0000000E+00;  0.0000000E+00;  4.0000000E+04;  0.0000000E+00;  4.0000000E+04;  0.0000000E+00;  0.0000000E+00;  0.0000000E+00;  0.0000000E+00;
 -1.9000000E-01;  9.9999998E-03;  2.0000000E-02;136;  0.0000000E+00;  0.0000000E+00;  0.0000000E+00;  1.0000000E+03;  1.0000000E-01;  0.0000000E+00;0;  0.0000000E+00;  0.0000000E+00;  0.0000000E+00;0;  0.0000000E+00;  4.0000000E+04;  0.0000000E+00;  0.0000000E+00;  4.0000000E+04;  0.0000000E+00;  4.0000000E+04;  0.0000000E+00;  0.0000000E+00;  0.0000000E+00;  0.0000000E+00;
 -1.9000000E-01;  9.9999998E-03;  2.9999999E-02;137;  0.0000000E+00;  0.0000000E+00;  0.0000000E+00;  1.0000000E+03;  1.0000000E-01;  0.0000000E+00;0;  0.0000000E+00;  0.0000000E+00;  0.0000000E+00;0;  0.0000000E+00;  4.0000000E+04;  0.0000000E+00;  0.0000000E+00;  4.0000000E+04;  0.0000000E+00;  4.0000000E+04;  0.0000000E+00;  0.0000000E+00;  0.0000000E+00;  0.0000000E+00;
 -1.9000000E-01;  9.9999998E-03;  3.9999999E-02;138;  0.0000000E+00;  0.0000000E+00;  0.0000000E+00;  1.0000000E+03;  1.0000000E-01;  0.0000000E+00;0;  0.0000000E+00;  0.0000000E+00;  0.0000000E+00;0;  0.0000000E+00;  4.0000000E+04;  0.0000000E+00;  0.0000000E+00;  4.0000000E+04;  0.0000000E+00;  4.0000000E+04;  0.0000000E+00;  0.0000000E+00;  0.0000000E+00;  0.0000000E+00;
 -1.9000000E-01;  9.9999998E-03;  5.0000001E-02;139;  0.0000000E+00;  0.0000000E+00;  0.0000000E+00;  1.0000000E+03;  1.0000000E-01;  0.0000000E+00;0;  0.0000000E+00;  0.0000000E+00;  0.0000000E+00;0;  0.0000000E+00;  4.0000000E+04;  0.0000000E+00;  0.0000000E+00;  4.0000000E+04;  0.0000000E+00;  4.0000000E+04;  0.0000000E+00;  0.0000000E+00;  0.0000000E+00;  0.0000000E+00;
 -1.9000000E-01;  9.9999998E-03;  5.9999999E-02;140;  0.0000000E+00;  0.0000000E+00;  0.0000000E+00;  1.0000000E+03;  1.0000000E-01;  0.0000000E+00;0;  0.0000000E+00;  0.0000000E+00;  0.0000000E+00;0;  0.0000000E+00;  4.0000000E+04;  0.0000000E+00;  0.0000000E+00;  4.0000000E+04;  0.0000000E+00;  4.0000000E+04;  0.0000000E+00;  0.0000000E+00;  0.0000000E+00;  0.0000000E+00;
 -1.8000001E-01;  9.9999998E-03; -1.0000000E-01;215;  0.0000000E+00;  0.0000000E+00;  0.0000000E+00;  1.0000000E+03;  1.0000000E-01;  0.0000000E+00;0;  0.0000000E+00;  0.0000000E+00;  0.0000000E+00;0;  0.0000000E+00;  4.0000000E+04;  0.0000000E+00;  0.0000000E+00;  4.0000000E+04;  0.0000000E+00;  4.0000000E+04;  0.0000000E+00;  0.0000000E+00;  0.0000000E+00;  0.0000000E+00;
 -1.8000001E-01;  9.9999998E-03; -9.0000004E-02;216;  0.0000000E+00;  0.0000000E+00;  0.0000000E+00;  1.0000000E+03;  1.0000000E-01;  0.0000000E+00;0;  0.0000000E+00;  0.0000000E+00;  0.0000000E+00;0;  0.0000000E+00;  4.0000000E+04;  0.0000000E+00;  0.0000000E+00;  4.0000000E+04;  0.0000000E+00;  4.0000000E+04;  0.0000000E+00;  0.0000000E+00;  0.0000000E+00;  0.0000000E+00;
 -1.8000001E-01;  9.9999998E-03; -7.9999998E-02;217;  0.0000000E+00;  0.0000000E+00;  0.0000000E+00;  1.0000000E+03;  1.0000000E-01;  0.0000000E+00;0;  0.0000000E+00;  0.0000000E+00;  0.0000000E+00;0;  0.0000000E+00;  4.0000000E+04;  0.0000000E+00;  0.0000000E+00;  4.0000000E+04;  0.0000000E+00;  4.0000000E+04;  0.0000000E+00;  0.0000000E+00;  0.0000000E+00;  0.0000000E+00;
 -1.8000001E-01;  9.9999998E-03; -7.0000000E-02;218;  0.0000000E+00;  0.0000000E+00;  0.0000000E+00;  1.0000000E+03;  1.0000000E-01;  0.0000000E+00;0;  0.0000000E+00;  0.0000000E+00;  0.0000000E+00;0;  0.0000000E+00;  4.0000000E+04;  0.0000000E+00;  0.0000000E+00;  4.0000000E+04;  0.0000000E+00;  4.0000000E+04;  0.0000000E+00;  0.0000000E+00;  0.0000000E+00;  0.0000000E+00;
 -1.8000001E-01;  9.9999998E-03; -5.9999999E-02;219;  0.0000000E+00;  0.0000000E+00;  0.0000000E+00;  1.0000000E+03;  1.0000000E-01;  0.0000000E+00;0;  0.0000000E+00;  0.0000000E+00;  0.0000000E+00;0;  0.0000000E+00;  4.0000000E+04;  0.0000000E+00;  0.0000000E+00;  4.0000000E+04;  0.0000000E+00;  4.0000000E+04;  0.0000000E+00;  0.0000000E+00;  0.0000000E+00;  0.0000000E+00;
 -1.8000001E-01;  9.9999998E-03; -5.0000001E-02;220;  0.0000000E+00;  0.0000000E+00;  0.0000000E+00;  1.0000000E+03;  1.0000000E-01;  0.0000000E+00;0;  0.0000000E+00;  0.0000000E+00;  0.0000000E+00;0;  0.0000000E+00;  4.0000000E+04;  0.0000000E+00;  0.0000000E+00;  4.0000000E+04;  0.0000000E+00;  4.0000000E+04;  0.0000000E+00;  0.0000000E+00;  0.0000000E+00;  0.0000000E+00;
 -1.8000001E-01;  9.9999998E-03; -3.9999999E-02;221;  0.0000000E+00;  0.0000000E+00;  0.0000000E+00;  1.0000000E+03;  1.0000000E-01;  0.0000000E+00;0;  0.0000000E+00;  0.0000000E+00;  0.0000000E+00;0;  0.0000000E+00;  4.0000000E+04;  0.0000000E+00;  0.0000000E+00;  4.0000000E+04;  0.0000000E+00;  4.0000000E+04;  0.0000000E+00;  0.0000000E+00;  0.0000000E+00;  0.0000000E+00;
 -1.8000001E-01;  9.9999998E-03; -2.9999999E-02;222;  0.0000000E+00;  0.0000000E+00;  0.0000000E+00;  1.0000000E+03;  1.0000000E-01;  0.0000000E+00;0;  0.0000000E+00;  0.0000000E+00;  0.0000000E+00;0;  0.0000000E+00;  4.0000000E+04;  0.0000000E+00;  0.0000000E+00;  4.0000000E+04;  0.0000000E+00;  4.0000000E+04;  0.0000000E+00;  0.0000000E+00;  0.0000000E+00;  0.0000000E+00;
 -1.8000001E-01;  9.9999998E-03; -2.0000000E-02;223;  0.0000000E+00;  0.0000000E+00;  0.0000000E+00;  1.0000000E+03;  1.0000000E-01;  0.0000000E+00;0;  0.0000000E+00;  0.0000000E+00;  0.0000000E+00;0;  0.0000000E+00;  4.0000000E+04;  0.0000000E+00;  0.0000000E+00;  4.0000000E+04;  0.0000000E+00;  4.0000000E+04;  0.0000000E+00;  0.0000000E+00;  0.0000000E+00;  0.0000000E+00;
 -1.8000001E-01;  9.9999998E-03; -9.9999998E-03;224;  0.0000000E+00;  0.0000000E+00;  0.0000000E+00;  1.0000000E+03;  1.0000000E-01;  0.0000000E+00;0;  0.0000000E+00;  0.0000000E+00;  0.0000000E+00;0;  0.0000000E+00;  4.0000000E+04;  0.0000000E+00;  0.0000000E+00;  4.0000000E+04;  0.0000000E+00;  4.0000000E+04;  0.0000000E+00;  0.0000000E+00;  0.0000000E+00;  0.0000000E+00;
 -1.8000001E-01;  9.9999998E-03;  0.0000000E+00;225;  0.0000000E+00;  0.0000000E+00;  0.0000000E+00;  1.0000000E+03;  1.0000000E-01;  0.0000000E+00;0;  0.0000000E+00;  0.0000000E+00;  0.0000000E+00;0;  0.0000000E+00;  4.0000000E+04;  0.0000000E+00;  0.0000000E+00;  4.0000000E+04;  0.0000000E+00;  4.0000000E+04;  0.0000000E+00;  0.0000000E+00;  0.0000000E+00;  0.0000000E+00;
 -1.8000001E-01;  9.9999998E-03;  9.9999998E-03;226;  0.0000000E+00;  0.0000000E+00;  0.0000000E+00;  1.0000000E+03;  1.0000000E-01;  0.0000000E+00;0;  0.0000000E+00;  0.0000000E+00;  0.0000000E+00;0;  0.0000000E+00;  4.0000000E+04;  0.0000000E+00;  0.0000000E+00;  4.0000000E+04;  0.0000000E+00;  4.0000000E+04;  0.0000000E+00;  0.0000000E+00;  0.0000000E+00;  0.0000000E+00;
 -1.8000001E-01;  9.9999998E-03;  2.0000000E-02;227;  0.0000000E+00;  0.0000000E+00;  0.0000000E+00;  1.0000000E+03;  1.0000000E-01;  0.0000000E+00;0;  0.0000000E+00;  0.0000000E+00;  0.0000000E+00;0;  0.0000000E+00;  4.0000000E+04;  0.0000000E+00;  0.0000000E+00;  4.0000000E+04;  0.0000000E+00;  4.0000000E+04;  0.0000000E+00;  0.0000000E+00;  0.0000000E+00;  0.0000000E+00;
 -1.8000001E-01;  9.9999998E-03;  2.9999999E-02;228;  0.0000000E+00;  0.0000000E+00;  0.0000000E+00;  1.0000000E+03;  1.0000000E-01;  0.0000000E+00;0;  0.0000000E+00;  0.0000000E+00;  0.0000000E+00;0;  0.0000000E+00;  4.0000000E+04;  0.0000000E+00;  0.0000000E+00;  4.0000000E+04;  0.0000000E+00;  4.0000000E+04;  0.0000000E+00;  0.0000000E+00;  0.0000000E+00;  0.0000000E+00;
 -1.8000001E-01;  9.9999998E-03;  3.9999999E-02;229;  0.0000000E+00;  0.0000000E+00;  0.0000000E+00;  1.0000000E+03;  1.0000000E-01;  0.0000000E+00;0;  0.0000000E+00;  0.0000000E+00;  0.0000000E+00;0;  0.0000000E+00;  4.0000000E+04;  0.0000000E+00;  0.0000000E+00;  4.0000000E+04;  0.0000000E+00;  4.0000000E+04;  0.0000000E+00;  0.0000000E+00;  0.0000000E+00;  0.0000000E+00;
 -1.8000001E-01;  9.9999998E-03;  5.0000001E-02;230;  0.0000000E+00;  0.0000000E+00;  0.0000000E+00;  1.0000000E+03;  1.0000000E-01;  0.0000000E+00;0;  0.0000000E+00;  0.0000000E+00;  0.0000000E+00;0;  0.0000000E+00;  4.0000000E+04;  0.0000000E+00;  0.0000000E+00;  4.0000000E+04;  0.0000000E+00;  4.0000000E+04;  0.0000000E+00;  0.0000000E+00;  0.0000000E+00;  0.0000000E+00;
 -1.8000001E-01;  9.9999998E-03;  5.9999999E-02;231;  0.0000000E+00;  0.0000000E+00;  0.0000000E+00;  1.0000000E+03;  1.0000000E-01;  0.0000000E+00;0;  0.0000000E+00;  0.0000000E+00;  0.0000000E+00;0;  0.0000000E+00;  4.0000000E+04;  0.0000000E+00;  0.0000000E+00;  4.0000000E+04;  0.0000000E+00;  4.0000000E+04;  0.0000000E+00;  0.0000000E+00;  0.0000000E+00;  0.0000000E+00;
 -1.7000000E-01;  9.9999998E-03; -1.0000000E-01;306;  0.0000000E+00;  0.0000000E+00;  0.0000000E+00;  1.0000000E+03;  1.0000000E-01;  0.0000000E+00;0;  0.0000000E+00;  0.0000000E+00;  0.0000000E+00;0;  0.0000000E+00;  4.0000000E+04;  0.0000000E+00;  0.0000000E+00;  4.0000000E+04;  0.0000000E+00;  4.0000000E+04;  0.0000000E+00;  0.0000000E+00;  0.0000000E+00;  1.9801023E-09;
 -1.7000000E-01;  9.9999998E-03; -9.0000004E-02;307;  0.0000000E+00;  0.0000000E+00;  0.0000000E+00;  1.0000000E+03;  1.0000000E-01;  0.0000000E+00;0;  0.0000000E+00;  0.0000000E+00;  0.0000000E+00;0;  0.0000000E+00;  4.0000000E+04;  0.0000000E+00;  0.0000000E+00;  4.0000000E+04;  0.0000000E+00;  4.0000000E+04;  0.0000000E+00;  0.0000000E+00;  0.0000000E+00;  1.9974504E-09;
 -1.7000000E-01;  9.9999998E-03; -7.9999998E-02;308;  0.0000000E+00;  0.0000000E+00;  0.0000000E+00;  1.0000000E+03;  1.0000000E-01;  0.0000000E+00;0;  0.0000000E+00;  0.0000000E+00;  0.0000000E+00;0;  0.0000000E+00;  4.0000000E+04;  0.0000000E+00;  0.0000000E+00;  4.0000000E+04;  0.0000000E+00;  4.0000000E+04;  0.0000000E+00;  0.0000000E+00;  0.0000000E+00;  2.0288866E-09;
 -1.7000000E-01;  9.9999998E-03; -7.0000000E-02;309;  0.0000000E+00;  0.0000000E+00;  0.0000000E+00;  1.0000000E+03;  1.0000000E-01;  0.0000000E+00;0;  0.0000000E+00;  0.0000000E+00;  0.0000000E+00;0;  0.0000000E+00;  4.0000000E+04;  0.0000000E+00;  0.0000000E+00;  4.0000000E+04;  0.0000000E+00;  4.0000000E+04;  0.0000000E+00;  0.0000000E+00;  0.0000000E+00;  2.0664868E-09;
 -1.7000000E-01;  9.9999998E-03; -5.9999999E-02;310;  0.0000000E+00;  0.0000000E+00;  0.0000000E+00;  1.0000000E+03;  1.0000000E-01;  0.0000000E+00;0;  0.0000000E+00;  0.0000000E+00;  0.0000000E+00;0;  0.0000000E+00;  4.0000000E+04;  0.0000000E+00;  0.0000000E+00;  4.0000000E+04;  0.0000000E+00;  4.0000000E+04;  0.0000000E+00;  0.0000000E+00;  0.0000000E+00;  2.0963358E-09;
 -1.7000000E-01;  9.9999998E-03; -5.0000001E-02;311;  0.0000000E+00;  0.0000000E+00;  0.0000000E+00;  1.0000000E+03;  1.0000000E-01;  0.0000000E+00;0;  0.0000000E+00;  0.0000000E+00;  0.0000000E+00;0;  0.0000000E+00;  4.0000000E+04;  0.0000000E+00;  0.0000000E+00;  4.0000000E+04;  0.0000000E+00;  4.0000000E+04;  0.0000000E+00;  0.0000000E+00;  0.0000000E+00;  2.0985100E-09;
 -1.7000000E-01;  9.9999998E-03; -3.9999999E-02;312;  0.0000000E+00;  0.0000000E+00;  0.0000000E+00;  1.0000000E+03;  1.0000000E-01;  0.0000000E+00;0;  0.0000000E+00;  0.0000000E+00;  0.0000000E+00;0;  0.0000000E+00;  4.0000000E+04;  0.0000000E+00;  0.0000000E+00;  4.0000000E+04;  0.0000000E+00;  4.0000000E+04;  0.0000000E+00;  0.0000000E+00;  0.0000000E+00;  2.0709305E-09;
 -1.7000000E-01;  9.9999998E-03; -2.9999999E-02;313;  0.0000000E+00;  0.0000000E+00;  0.0000000E+00;  1.0000000E+03;  1.0000000E-01;  0.0000000E+00;0;  0.0000000E+00;  0.0000000E+00;  0.0000000E+00;0;  0.0000000E+00;  4.0000000E+04;  0.0000000E+00;  0.0000000E+00;  4.0000000E+04;  0.0000000E+00;  4.0000000E+04;  0.0000000E+00;  0.0000000E+00;  0.0000000E+00;  2.0022204E-09;
 -1.7000000E-01;  9.9999998E-03; -2.0000000E-02;314;  0.0000000E+00;  0.0000000E+00;  0.0000000E+00;  1.0000000E+03;  1.0000000E-01;  0.0000000E+00;0;  0.0000000E+00;  0.0000000E+00;  0.0000000E+00;0;  0.0000000E+00;  4.0000000E+04;  0.0000000E+00;  0.0000000E+00;  4.0000000E+04;  0.0000000E+00;  4.0000000E+04;  0.0000000E+00;  0.0000000E+00;  0.0000000E+00;  1.8807096E-09;
 -1.7000000E-01;  9.9999998E-03; -9.9999998E-03;315;  0.0000000E+00;  0.0000000E+00;  0.0000000E+00;  1.0000000E+03;  1.0000000E-01;  0.0000000E+00;0;  0.0000000E+00;  0.0000000E+00;  0.0000000E+00;0;  0.0000000E+00;  4.0000000E+04;  0.0000000E+00;  0.0000000E+00;  4.0000000E+04;  0.0000000E+00;  4.0000000E+04;  0.0000000E+00;  0.0000000E+00;  0.0000000E+00;  1.7538491E-09;
 -1.7000000E-01;  9.9999998E-03;  0.0000000E+00;316;  0.0000000E+00;  0.0000000E+00;  0.0000000E+00;  1.0000000E+03;  1.0000000E-01;  0.0000000E+00;0;  0.0000000E+00;  0.0000000E+00;  0.0000000E+00;0;  0.0000000E+00;  4.0000000E+04;  0.0000000E+00;  0.0000000E+00;  4.0000000E+04;  0.0000000E+00;  4.0000000E+04;  0.0000000E+00;  0.0000000E+00;  0.0000000E+00;  1.6940426E-09;
 -1.7000000E-01;  9.9999998E-03;  9.9999998E-03;317;  0.0000000E+00;  0.0000000E+00;  0.0000000E+00;  1.0000000E+03;  1.0000000E-01;  0.0000000E+00;0;  0.0000000E+00;  0.0000000E+00;  0.0000000E+00;0;  0.0000000E+00;  4.0000000E+04;  0.0000000E+00;  0.0000000E+00;  4.0000000E+04;  0.0000000E+00;  4.0000000E+04;  0.0000000E+00;  0.0000000E+00;  0.0000000E+00;  1.7541210E-09;
 -1.7000000E-01;  9.9999998E-03;  2.0000000E-02;318;  0.0000000E+00;  0.0000000E+00;  0.0000000E+00;  1.0000000E+03;  1.0000000E-01;  0.0000000E+00;0;  0.0000000E+00;  0.0000000E+00;  0.0000000E+00;0;  0.0000000E+00;  4.0000000E+04;  0.0000000E+00;  0.0000000E+00;  4.0000000E+04;  0.0000000E+00;  4.0000000E+04;  0.0000000E+00;  0.0000000E+00;  0.0000000E+00;  1.8806892E-09;
 -1.7000000E-01;  9.9999998E-03;  2.9999999E-02;319;  0.0000000E+00;  0.0000000E+00;  0.0000000E+00;  1.0000000E+03;  1.0000000E-01;  0.0000000E+00;0;  0.0000000E+00;  0.0000000E+00;  0.0000000E+00;0;  0.0000000E+00;  4.0000000E+04;  0.0000000E+00;  0.0000000E+00;  4.0000000E+04;  0.0000000E+00;  4.0000000E+04;  0.0000000E+00;  0.0000000E+00;  0.0000000E+00;  2.0024555E-09;
 -1.7000000E-01;  9.9999998E-03;  3.9999999E-02;320;  0.0000000E+00;  0.0000000E+00;  0.0000000E+00;  1.0000000E+03;  1.0000000E-01;  0.0000000E+00;0;  0.0000000E+00;  0.0000000E+00;  0.0000000E+00;0;  0.0000000E+00;  4.0000000E+04;  0.0000000E+00;  0.0000000E+00;  4.0000000E+04;  0.0000000E+00;  4.0000000E+04;  0.0000000E+00;  0.0000000E+00;  0.0000000E+00;  2.0701814E-09;
 -1.7000000E-01;  9.9999998E-03;  5.0000001E-02;321;  0.0000000E+00;  0.0000000E+00;  0.0000000E+00;  1.0000000E+03;  1.0000000E-01;  0.0000000E+00;0;  0.0000000E+00;  0.0000000E+00;  0.0000000E+00;0;  0.0000000E+00;  4.0000000E+04;  0.0000000E+00;  0.0000000E+00;  4.0000000E+04;  0.0000000E+00;  4.0000000E+04;  0.0000000E+00;  0.0000000E+00;  0.0000000E+00;  2.0988598E-09;
 -1.7000000E-01;  9.9999998E-03;  5.9999999E-02;322;  0.0000000E+00;  0.0000000E+00;  0.0000000E+00;  1.0000000E+03;  1.0000000E-01;  0.0000000E+00;0;  0.0000000E+00;  0.0000000E+00;  0.0000000E+00;0;  0.0000000E+00;  4.0000000E+04;  0.0000000E+00;  0.0000000E+00;  4.0000000E+04;  0.0000000E+00;  4.0000000E+04;  0.0000000E+00;  0.0000000E+00;  0.0000000E+00;  2.0959194E-09;
 -1.6000000E-01;  9.9999998E-03; -1.0000000E-01;397;  0.0000000E+00;  0.0000000E+00;  0.0000000E+00;  1.0000000E+03;  1.0000000E-01;  0.0000000E+00;0;  0.0000000E+00;  0.0000000E+00;  0.0000000E+00;0;  5.2530390E-07;  4.0000000E+04;  0.0000000E+00;  0.0000000E+00;  4.0000000E+04;  0.0000000E+00;  4.0000000E+04;  5.2531067E-07;  0.0000000E+00; -6.7776978E-12;  2.7497372E-01;
 -1.6000000E-01;  9.9999998E-03; -9.0000004E-02;398;  0.0000000E+00;  0.0000000E+00;  0.0000000E+00;  1.0000000E+03;  1.0000000E-01;  0.0000000E+00;0;  0.0000000E+00;  0.0000000E+00;  0.0000000E+00;0;  5.3225318E-07;  4.0000000E+04;  0.0000000E+00;  0.0000000E+00;  4.0000000E+04;  0.0000000E+00;  4.0000000E+04;  5.3233902E-07;  0.0000000E+00; -8.5829691E-11;  2.7272522E-01;
 -1.6000000E-01;  9.9999998E-03; -7.9999998E-02;399;  0.0000000E+00;  0.0000000E+00;  0.0000000E+00;  1.0000000E+03;  1.0000000E-01;  0.0000000E+00;0;  0.0000000E+00;  0.0000000E+00;  0.0000000E+00;0;  5.3791001E-07;  4.0000000E+04;  0.0000000E+00;  0.0000000E+00;  4.0000000E+04;  0.0000000E+00;  4.0000000E+04;  5.3804212E-07;  0.0000000E+00; -1.3212595E-10;  2.7160296E-01;
 -1.6000000E-01;  9.9999998E-03; -7.0000000E-02;400;  0.0000000E+00;  0.0000000E+00;  0.0000000E+00;  1.0000000E+03;  1.0000000E-01;  0.0000000E+00;0;  0.0000000E+00;  0.0000000E+00;  0.0000000E+00;0;  5.4226484E-07;  4.0000000E+04;  0.0000000E+00;  0.0000000E+00;  4.0000000E+04;  0.0000000E+00;  4.0000000E+04;  5.4241525E-07;  0.0000000E+00; -1.5038128E-10;  2.7128512E-01;
 -1.6000000E-01;  9.9999998E-03; -5.9999999E-02;401;  0.0000000E+00;  0.0000000E+00;  0.0000000E+00;  1.0000000E+03;  1.0000000E-01;  0.0000000E+00;0;  0.0000000E+00;  0.0000000E+00;  0.0000000E+00;0;  5.4549702E-07;  4.0000000E+04;  0.0000000E+00;  0.0000000E+00;  4.0000000E+04;  0.0000000E+00;  4.0000000E+04;  5.4563992E-07;  0.0000000E+00; -1.4290419E-10;  2.7135521E-01;
 -1.6000000E-01;  9.9999998E-03; -5.0000001E-02;402;  0.0000000E+00;  0.0000000E+00;  0.0000000E+00;  1.0000000E+03;  1.0000000E-01;  0.0000000E+00;0;  0.0000000E+00;  0.0000000E+00;  0.0000000E+00;0;  5.4783987E-07;  4.0000000E+04;  0.0000000E+00;  0.0000000E+00;  4.0000000E+04;  0.0000000E+00;  4.0000000E+04;  5.4795163E-07;  0.0000000E+00; -1.1177836E-10;  2.7144974E-01;
 -1.6000000E-01;  9.9999998E-03; -3.9999999E-02;403;  0.0000000E+00;  0.0000000E+00;  0.0000000E+00;  1.0000000E+03;  1.0000000E-01;  0.0000000E+00;0;  0.0000000E+00;  0.0000000E+00;  0.0000000E+00;0;  5.4952022E-07;  4.0000000E+04;  0.0000000E+00;  0.0000000E+00;  4.0000000E+04;  0.0000000E+00;  4.0000000E+04;  5.4958127E-07;  0.0000000E+00; -6.1064959E-11;  2.7134636E-01;
 -1.6000000E-01;  9.9999998E-03; -2.9999999E-02;404;  0.0000000E+00;  0.0000000E+00;  0.0000000E+00;  1.0000000E+03;  1.0000000E-01;  0.0000000E+00;0;  0.0000000E+00;  0.0000000E+00;  0.0000000E+00;0;  5.5070819E-07;  4.0000000E+04;  0.0000000E+00;  0.0000000E+00;  4.0000000E+04;  0.0000000E+00;  4.0000000E+04;  5.5070689E-07;  0.0000000E+00;  1.3029692E-12;  2.7099696E-01;
 -1.6000000E-01;  9.9999998E-03; -2.0000000E-02;405;  0.0000000E+00;  0.0000000E+00;  0.0000000E+00;  1.0000000E+03;  1.0000000E-01;  0.0000000E+00;0;  0.0000000E+00;  0.0000000E+00;  0.0000000E+00;0;  5.5151230E-07;  4.0000000E+04;  0.0000000E+00;  0.0000000E+00;  4.0000000E+04;  0.0000000E+00;  4.0000000E+04;  5.5144943E-07;  0.0000000E+00;  6.2871229E-11;  2.7051443E-01;
 -1.6000000E-01;  9.9999998E-03; -9.9999998E-03;406;  0.0000000E+00;  0.0000000E+00;  0.0000000E+00;  1.0000000E+03;  1.0000000E-01;  0.0000000E+00;0;  0.0000000E+00;  0.0000000E+00;  0.0000000E+00;0;  5.5198467E-07;  4.0000000E+04;  0.0000000E+00;  0.0000000E+00;  4.0000000E+04;  0.0000000E+00;  4.0000000E+04;  5.5187610E-07;  0.0000000E+00;  1.0854944E-10;  2.7009630E-01;
 -1.6000000E-01;  9.9999998E-03;  0.0000000E+00;407;  0.0000000E+00;  0.0000000E+00;  0.0000000E+00;  1.0000000E+03;  1.0000000E-01;  0.0000000E+00;0;  0.0000000E+00;  0.0000000E+00;  0.0000000E+00;0;  5.5214144E-07;  4.0000000E+04;  0.0000000E+00;  0.0000000E+00;  4.0000000E+04;  0.0000000E+00;  4.0000000E+04;  5.5201599E-07;  0.0000000E+00;  1.2547743E-10;  2.6993313E-01;
 -1.6000000E-01;  9.9999998E-03;  9.9999998E-03;408;  0.0000000E+00;  0.0000000E+00;  0.0000000E+00;  1.0000000E+03;  1.0000000E-01;  0.0000000E+00;0;  0.0000000E+00;  0.0000000E+00;  0.0000000E+00;0;  5.5198393E-07;  4.0000000E+04;  0.0000000E+00;  0.0000000E+00;  4.0000000E+04;  0.0000000E+00;  4.0000000E+04;  5.5187536E-07;  0.0000000E+00;  1.0854820E-10;  2.7009612E-01;
 -1.6000000E-01;  9.9999998E-03;  2.0000000E-02;409;  0.0000000E+00;  0.0000000E+00;  0.0000000E+00;  1.0000000E+03;  1.0000000E-01;  0.0000000E+00;0;  0.0000000E+00;  0.0000000E+00;  0.0000000E+00;0;  5.5151105E-07;  4.0000000E+04;  0.0000000E+00;  0.0000000E+00;  4.0000000E+04;  0.0000000E+00;  4.0000000E+04;  5.5144818E-07;  0.0000000E+00;  6.2861556E-11;  2.7051437E-01;
 -1.6000000E-01;  9.9999998E-03;  2.9999999E-02;410;  0.0000000E+00;  0.0000000E+00;  0.0000000E+00;  1.0000000E+03;  1.0000000E-01;  0.0000000E+00;0;  0.0000000E+00;  0.0000000E+00;  0.0000000E+00;0;  5.5070700E-07;  4.0000000E+04;  0.0000000E+00;  0.0000000E+00;  4.0000000E+04;  0.0000000E+00;  4.0000000E+04;  5.5070569E-07;  0.0000000E+00;  1.2836155E-12;  2.7099684E-01;
 -1.6000000E-01;  9.9999998E-03;  3.9999999E-02;411;  0.0000000E+00;  0.0000000E+00;  0.0000000E+00;  1.0000000E+03;  1.0000000E-01;  0.0000000E+00;0;  0.0000000E+00;  0.0000000E+00;  0.0000000E+00;0;  5.4951875E-07;  4.0000000E+04;  0.0000000E+00;  0.0000000E+00;  4.0000000E+04;  0.0000000E+00;  4.0000000E+04;  5.4957985E-07;  0.0000000E+00; -6.1088454E-11;  2.7134630E-01;
 -1.6000000E-01;  9.9999998E-03;  5.0000001E-02;412;  0.0000000E+00;  0.0000000E+00;  0.0000000E+00;  1.0000000E+03;  1.0000000E-01;  0.0000000E+00;0;  0.0000000E+00;  0.0000000E+00;  0.0000000E+00;0;  5.4783868E-07;  4.0000000E+04;  0.0000000E+00;  0.0000000E+00;  4.0000000E+04;  0.0000000E+00;  4.0000000E+04;  5.4795049E-07;  0.0000000E+00; -1.1179498E-10;  2.7144954E-01;
 -1.6000000E-01;  9.9999998E-03;  5.9999999E-02;413;  0.0000000E+00;  0.0000000E+00;  0.0000000E+00;  1.0000000E+03;  1.0000000E-01;  0.0000000E+00;0;  0.0000000E+00;  0.0000000E+00;  0.0000000E+00;0;  5.4549577E-07;  4.0000000E+04;  0.0000000E+00;  0.0000000E+00;  4.0000000E+04;  0.0000000E+00;  4.0000000E+04;  5.4563867E-07;  0.0000000E+00; -1.4291041E-10;  2.7135509E-01;
 -1.5000001E-01;  9.9999998E-03; -1.0000000E-01;488;  0.0000000E+00;  0.0000000E+00;  0.0000000E+00;  1.0000000E+03;  1.0000000E-01;  0.0000000E+00;0;  0.0000000E+00;  0.0000000E+00;  0.0000000E+00;0;  1.6432570E-05;  4.0000000E+04;  0.0000000E+00;  0.0000000E+00;  4.0000000E+04;  0.0000000E+00;  4.0000000E+04;  1.6428034E-05;  0.0000000E+00;  4.5364033E-09;  4.2270918E+00;
 -1.5000001E-01;  9.9999998E-03; -9.0000004E-02;489;  0.0000000E+00;  0.0000000E+00;  0.0000000E+00;  1.0000000E+03;  1.0000000E-01;  0.0000000E+00;0;  0.0000000E+00;  0.0000000E+00;  0.0000000E+00;0;  1.6615602E-05;  4.0000000E+04;  0.0000000E+00;  0.0000000E+00;  4.0000000E+04;  0.0000000E+00;  4.0000000E+04;  1.6618978E-05;  0.0000000E+00; -3.3759029E-09;  4.2147779E+00;
 -1.5000001E-01;  9.9999998E-03; -7.9999998E-02;490;  0.0000000E+00;  0.0000000E+00;  0.0000000E+00;  1.0000000E+03;  1.0000000E-01;  0.0000000E+00;0;  0.0000000E+00;  0.0000000E+00;  0.0000000E+00;0;  1.6743106E-05;  4.0000000E+04;  0.0000000E+00;  0.0000000E+00;  4.0000000E+04;  0.0000000E+00;  4.0000000E+04;  1.6751186E-05;  0.0000000E+00; -8.0806872E-09;  4.2165804E+00;
 -1.5000001E-01;  9.9999998E-03; -7.0000000E-02;491;  0.0000000E+00;  0.0000000E+00;  0.0000000E+00;  1.0000000E+03;  1.0000000E-01;  0.0000000E+00;0;  0.0000000E+00;  0.0000000E+00;  0.0000000E+00;0;  1.6816359E-05;  4.0000000E+04;  0.0000000E+00;  0.0000000E+00;  4.0000000E+04;  0.0000000E+00;  4.0000000E+04;  1.6826401E-05;  0.0000000E+00; -1.0042657E-08;  4.2269502E+00;
 -1.5000001E-01;  9.9999998E-03; -5.9999999E-02;492;  0.0000000E+00;  0.0000000E+00;  0.0000000E+00;  1.0000000E+03;  1.0000000E-01;  0.0000000E+00;0;  0.0000000E+00;  0.0000000E+00;  0.0000000E+00;0;  1.6843866E-05;  4.0000000E+04;  0.0000000E+00;  0.0000000E+00;  4.0000000E+04;  0.0000000E+00;  4.0000000E+04;  1.6853568E-05;  0.0000000E+00; -9.7022026E-09;  4.2381172E+00;
 -1.5000001E-01;  9.9999998E-03; -5.0000001E-02;493;  0.0000000E+00;  0.0000000E+00;  0.0000000E+00;  1.0000000E+03;  1.0000000E-01;  0.0000000E+00;0;  0.0000000E+00;  0.0000000E+00;  0.0000000E+00;0;  1.6838074E-05;  4.0000000E+04;  0.0000000E+00;  0.0000000E+00;  4.0000000E+04;  0.0000000E+00;  4.0000000E+04;  1.6845597E-05;  0.0000000E+00; -7.5241671E-09;  4.2433643E+00;
 -1.5000001E-01;  9.9999998E-03; -3.9999999E-02;494;  0.0000000E+00;  0.0000000E+00;  0.0000000E+00;  1.0000000E+03;  1.0000000E-01;  0.0000000E+00;0;  0.0000000E+00;  0.0000000E+00;  0.0000000E+00;0;  1.6812493E-05;  4.0000000E+04;  0.0000000E+00;  0.0000000E+00;  4.0000000E+04;  0.0000000E+00;  4.0000000E+04;  1.6816575E-05;  0.0000000E+00; -4.0822536E-09;  4.2395220E+00;
 -1.5000001E-01;  9.9999998E-03; -2.9999999E-02;495;  0.0000000E+00;  0.0000000E+00;  0.0000000E+00;  1.0000000E+03;  1.0000000E-01;  0.0000000E+00;0;  0.0000000E+00;  0.0000000E+00;  0.0000000E+00;0;  1.6779506E-05;  4.0000000E+04;  0.0000000E+00;  0.0000000E+00;  4.0000000E+04;  0.0000000E+00;  4.0000000E+04;  1.6779608E-05;  0.0000000E+00; -1.0227964E-10;  4.2278280E+00;
 -1.5000001E-01;  9.9999998E-03; -2.0000000E-02;496;  0.0000000E+00;  0.0000000E+00;  0.0000000E+00;  1.0000000E+03;  1.0000000E-01;  0.0000000E+00;0;  0.0000000E+00;  0.0000000E+00;  0.0000000E+00;0;  1.6748994E-05;  4.0000000E+04;  0.0000000E+00;  0.0000000E+00;  4.0000000E+04;  0.0000000E+00;  4.0000000E+04;  1.6745407E-05;  0.0000000E+00;  3.5867695E-09;  4.2128801E+00;
 -1.5000001E-01;  9.9999998E-03; -9.9999998E-03;497;  0.0000000E+00;  0.0000000E+00;  0.0000000E+00;  1.0000000E+03;  1.0000000E-01;  0.0000000E+00;0;  0.0000000E+00;  0.0000000E+00;  0.0000000E+00;0;  1.6728012E-05;  4.0000000E+04;  0.0000000E+00;  0.0000000E+00;  4.0000000E+04;  0.0000000E+00;  4.0000000E+04;  1.6721822E-05;  0.0000000E+00;  6.1903092E-09;  4.2006645E+00;
 -1.5000001E-01;  9.9999998E-03;  0.0000000E+00;498;  0.0000000E+00;  0.0000000E+00;  0.0000000E+00;  1.0000000E+03;  1.0000000E-01;  0.0000000E+00;0;  0.0000000E+00;  0.0000000E+00;  0.0000000E+00;0;  1.6720560E-05;  4.0000000E+04;  0.0000000E+00;  0.0000000E+00;  4.0000000E+04;  0.0000000E+00;  4.0000000E+04;  1.6713431E-05;  0.0000000E+00;  7.1288841E-09;  4.1959872E+00;
 -1.5000001E-01;  9.9999998E-03;  9.9999998E-03;499;  0.0000000E+00;  0.0000000E+00;  0.0000000E+00;  1.0000000E+03;  1.0000000E-01;  0.0000000E+00;0;  0.0000000E+00;  0.0000000E+00;  0.0000000E+00;0;  1.6728001E-05;  4.0000000E+04;  0.0000000E+00;  0.0000000E+00;  4.0000000E+04;  0.0000000E+00;  4.0000000E+04;  1.6721811E-05;  0.0000000E+00;  6.1898069E-09;  4.2006679E+00;
 -1.5000001E-01;  9.9999998E-03;  2.0000000E-02;500;  0.0000000E+00;  0.0000000E+00;  0.0000000E+00;  1.0000000E+03;  1.0000000E-01;  0.0000000E+00;0;  0.0000000E+00;  0.0000000E+00;  0.0000000E+00;0;  1.6748994E-05;  4.0000000E+04;  0.0000000E+00;  0.0000000E+00;  4.0000000E+04;  0.0000000E+00;  4.0000000E+04;  1.6745409E-05;  0.0000000E+00;  3.5858680E-09;  4.2128849E+00;
 -1.5000001E-01;  9.9999998E-03;  2.9999999E-02;501;  0.0000000E+00;  0.0000000E+00;  0.0000000E+00;  1.0000000E+03;  1.0000000E-01;  0.0000000E+00;0;  0.0000000E+00;  0.0000000E+00;  0.0000000E+00;0;  1.6779471E-05;  4.0000000E+04;  0.0000000E+00;  0.0000000E+00;  4.0000000E+04;  0.0000000E+00;  4.0000000E+04;  1.6779575E-05;  0.0000000E+00; -1.0343829E-10;  4.2278309E+00;
 -1.5000001E-01;  9.9999998E-03;  3.9999999E-02;502;  0.0000000E+00;  0.0000000E+00;  0.0000000E+00;  1.0000000E+03;  1.0000000E-01;  0.0000000E+00;0;  0.0000000E+00;  0.0000000E+00;  0.0000000E+00;0;  1.6812459E-05;  4.0000000E+04;  0.0000000E+00;  0.0000000E+00;  4.0000000E+04;  0.0000000E+00;  4.0000000E+04;  1.6816542E-05;  0.0000000E+00; -4.0835446E-09;  4.2395220E+00;
 -1.5000001E-01;  9.9999998E-03;  5.0000001E-02;503;  0.0000000E+00;  0.0000000E+00;  0.0000000E+00;  1.0000000E+03;  1.0000000E-01;  0.0000000E+00;0;  0.0000000E+00;  0.0000000E+00;  0.0000000E+00;0;  1.6838028E-05;  4.0000000E+04;  0.0000000E+00;  0.0000000E+00;  4.0000000E+04;  0.0000000E+00;  4.0000000E+04;  1.6845554E-05;  0.0000000E+00; -7.5253679E-09;  4.2433634E+00;
 -1.5000001E-01;  9.9999998E-03;  5.9999999E-02;504;  0.0000000E+00;  0.0000000E+00;  0.0000000E+00;  1.0000000E+03;  1.0000000E-01;  0.0000000E+00;0;  0.0000000E+00;  0.0000000E+00;  0.0000000E+00;0;  1.6843831E-05;  4.0000000E+04;  0.0000000E+00;  0.0000000E+00;  4.0000000E+04;  0.0000000E+00;  4.0000000E+04;  1.6853533E-05;  0.0000000E+00; -9.7030517E-09;  4.2381177E+00;
 -1.4000000E-01;  9.9999998E-03; -1.0000000E-01;579;  0.0000000E+00;  0.0000000E+00;  0.0000000E+00;  1.0000000E+03;  1.0000000E-01;  0.0000000E+00;0;  0.0000000E+00;  0.0000000E+00;  0.0000000E+00;0;  8.4346662E-05;  4.0000000E+04;  0.0000000E+00;  0.0000000E+00;  4.0000000E+04;  0.0000000E+00;  4.0000000E+04;  8.4270629E-05;  0.0000000E+00;  7.6035121E-08;  1.9307447E+01;
 -1.4000000E-01;  9.9999998E-03; -9.0000004E-02;580;  0.0000000E+00;  0.0000000E+00;  0.0000000E+00;  1.0000000E+03;  1.0000000E-01;  0.0000000E+00;0;  0.0000000E+00;  0.0000000E+00;  0.0000000E+00;0;  8.5269246E-05;  4.0000000E+04;  0.0000000E+00;  0.0000000E+00;  4.0000000E+04;  0.0000000E+00;  4.0000000E+04;  8.5266467E-05;  0.0000000E+00;  2.7775813E-09;  1.9349363E+01;
 -1.4000000E-01;  9.9999998E-03; -7.9999998E-02;581;  0.0000000E+00;  0.0000000E+00;  0.0000000E+00;  1.0000000E+03;  1.0000000E-01;  0.0000000E+00;0;  0.0000000E+00;  0.0000000E+00;  0.0000000E+00;0;  8.5919346E-05;  4.0000000E+04;  0.0000000E+00;  0.0000000E+00;  4.0000000E+04;  0.0000000E+00;  4.0000000E+04;  8.5962638E-05;  0.0000000E+00; -4.3288889E-08;  1.9430149E+01;
 -1.4000000E-01;  9.9999998E-03; -7.0000000E-02;582;  0.0000000E+00;  0.0000000E+00;  0.0000000E+00;  1.0000000E+03;  1.0000000E-01;  0.0000000E+00;0;  0.0000000E+00;  0.0000000E+00;  0.0000000E+00;0;  8.6293170E-05;  4.0000000E+04;  0.0000000E+00;  0.0000000E+00;  4.0000000E+04;  0.0000000E+00;  4.0000000E+04;  8.6358385E-05;  0.0000000E+00; -6.5214259E-08;  1.9526409E+01;
 -1.4000000E-01;  9.9999998E-03; -5.9999999E-02;583;  0.0000000E+00;  0.0000000E+00;  0.0000000E+00;  1.0000000E+03;  1.0000000E-01;  0.0000000E+00;0;  0.0000000E+00;  0.0000000E+00;  0.0000000E+00;0;  8.6425636E-05;  4.0000000E+04;  0.0000000E+00;  0.0000000E+00;  4.0000000E+04;  0.0000000E+00;  4.0000000E+04;  8.6492684E-05;  0.0000000E+00; -6.7050138E-08;  1.9608366E+01;
 -1.4000000E-01;  9.9999998E-03; -5.0000001E-02;584;  0.0000000E+00;  0.0000000E+00;  0.0000000E+00;  1.0000000E+03;  1.0000000E-01;  0.0000000E+00;0;  0.0000000E+00;  0.0000000E+00;  0.0000000E+00;0;  8.6376473E-05;  4.0000000E+04;  0.0000000E+00;  0.0000000E+00;  4.0000000E+04;  0.0000000E+00;  4.0000000E+04;  8.6430031E-05;  0.0000000E+00; -5.3560441E-08;  1.9651823E+01;
 -1.4000000E-01;  9.9999998E-03; -3.9999999E-02;585;  0.0000000E+00;  0.0000000E+00;  0.0000000E+00;  1.0000000E+03;  1.0000000E-01;  0.0000000E+00;0;  0.0000000E+00;  0.0000000E+00;  0.0000000E+00;0;  8.6215565E-05;  4.0000000E+04;  0.0000000E+00;  0.0000000E+00;  4.0000000E+04;  0.0000000E+00;  4.0000000E+04;  8.6245767E-05;  0.0000000E+00; -3.0204436E-08;  1.9646023E+01;
 -1.4000000E-01;  9.9999998E-03; -2.9999999E-02;586;  0.0000000E+00;  0.0000000E+00;  0.0000000E+00;  1.0000000E+03;  1.0000000E-01;  0.0000000E+00;0;  0.0000000E+00;  0.0000000E+00;  0.0000000E+00;0;  8.6011059E-05;  4.0000000E+04;  0.0000000E+00;  0.0000000E+00;  4.0000000E+04;  0.0000000E+00;  4.0000000E+04;  8.6014050E-05;  0.0000000E+00; -2.9887552E-09;  1.9599113E+01;
 -1.4000000E-01;  9.9999998E-03; -2.0000000E-02;587;  0.0000000E+00;  0.0000000E+00;  0.0000000E+00;  1.0000000E+03;  1.0000000E-01;  0.0000000E+00;0;  0.0000000E+00;  0.0000000E+00;  0.0000000E+00;0;  8.5821375E-05;  4.0000000E+04;  0.0000000E+00;  0.0000000E+00;  4.0000000E+04;  0.0000000E+00;  4.0000000E+04;  8.5799358E-05;  0.0000000E+00;  2.2015948E-08;  1.9533997E+01;
 -1.4000000E-01;  9.9999998E-03; -9.9999998E-03;588;  0.0000000E+00;  0.0000000E+00;  0.0000000E+00;  1.0000000E+03;  1.0000000E-01;  0.0000000E+00;0;  0.0000000E+00;  0.0000000E+00;  0.0000000E+00;0;  8.5689877E-05;  4.0000000E+04;  0.0000000E+00;  0.0000000E+00;  4.0000000E+04;  0.0000000E+00;  4.0000000E+04;  8.5650390E-05;  0.0000000E+00;  3.9484004E-08;  1.9479404E+01;
 -1.4000000E-01;  9.9999998E-03;  0.0000000E+00;589;  0.0000000E+00;  0.0000000E+00;  0.0000000E+00;  1.0000000E+03;  1.0000000E-01;  0.0000000E+00;0;  0.0000000E+00;  0.0000000E+00;  0.0000000E+00;0;  8.5643063E-05;  4.0000000E+04;  0.0000000E+00;  0.0000000E+00;  4.0000000E+04;  0.0000000E+00;  4.0000000E+04;  8.5597319E-05;  0.0000000E+00;  4.5743146E-08;  1.9458263E+01;
 -1.4000000E-01;  9.9999998E-03;  9.9999998E-03;590;  0.0000000E+00;  0.0000000E+00;  0.0000000E+00;  1.0000000E+03;  1.0000000E-01;  0.0000000E+00;0;  0.0000000E+00;  0.0000000E+00;  0.0000000E+00;0;  8.5689840E-05;  4.0000000E+04;  0.0000000E+00;  0.0000000E+00;  4.0000000E+04;  0.0000000E+00;  4.0000000E+04;  8.5650361E-05;  0.0000000E+00;  3.9480589E-08;  1.9479422E+01;
 -1.4000000E-01;  9.9999998E-03;  2.0000000E-02;591;  0.0000000E+00;  0.0000000E+00;  0.0000000E+00;  1.0000000E+03;  1.0000000E-01;  0.0000000E+00;0;  0.0000000E+00;  0.0000000E+00;  0.0000000E+00;0;  8.5821244E-05;  4.0000000E+04;  0.0000000E+00;  0.0000000E+00;  4.0000000E+04;  0.0000000E+00;  4.0000000E+04;  8.5799235E-05;  0.0000000E+00;  2.2009473E-08;  1.9534014E+01;
 -1.4000000E-01;  9.9999998E-03;  2.9999999E-02;592;  0.0000000E+00;  0.0000000E+00;  0.0000000E+00;  1.0000000E+03;  1.0000000E-01;  0.0000000E+00;0;  0.0000000E+00;  0.0000000E+00;  0.0000000E+00;0;  8.6010914E-05;  4.0000000E+04;  0.0000000E+00;  0.0000000E+00;  4.0000000E+04;  0.0000000E+00;  4.0000000E+04;  8.6013912E-05;  0.0000000E+00; -2.9974550E-09;  1.9599150E+01;
 -1.4000000E-01;  9.9999998E-03;  3.9999999E-02;593;  0.0000000E+00;  0.0000000E+00;  0.0000000E+00;  1.0000000E+03;  1.0000000E-01;  0.0000000E+00;0;  0.0000000E+00;  0.0000000E+00;  0.0000000E+00;0;  8.6215405E-05;  4.0000000E+04;  0.0000000E+00;  0.0000000E+00;  4.0000000E+04;  0.0000000E+00;  4.0000000E+04;  8.6245622E-05;  0.0000000E+00; -3.0213947E-08;  1.9646046E+01;
 -1.4000000E-01;  9.9999998E-03;  5.0000001E-02;594;  0.0000000E+00;  0.0000000E+00;  0.0000000E+00;  1.0000000E+03;  1.0000000E-01;  0.0000000E+00;0;  0.0000000E+00;  0.0000000E+00;  0.0000000E+00;0;  8.6376233E-05;  4.0000000E+04;  0.0000000E+00;  0.0000000E+00;  4.0000000E+04;  0.0000000E+00;  4.0000000E+04;  8.6429805E-05;  0.0000000E+00; -5.3569497E-08;  1.9651850E+01;
 -1.4000000E-01;  9.9999998E-03;  5.9999999E-02;595;  0.0000000E+00;  0.0000000E+00;  0.0000000E+00;  1.0000000E+03;  1.0000000E-01;  0.0000000E+00;0;  0.0000000E+00;  0.0000000E+00;  0.0000000E+00;0;  8.6425367E-05;  4.0000000E+04;  0.0000000E+00;  0.0000000E+00;  4.0000000E+04;  0.0000000E+00;  4.0000000E+04;  8.6492422E-05;  0.0000000E+00; -6.7057691E-08;  1.9608374E+01;
 -1.3000000E-01;  9.9999998E-03; -1.0000000E-01;670;  0.0000000E+00;  0.0000000E+00;  0.0000000E+00;  1.0000000E+03;  1.0000000E-01;  0.0000000E+00;0;  0.0000000E+00;  0.0000000E+00;  0.0000000E+00;0;  2.3736627E-04;  4.0000000E+04;  0.0000000E+00;  0.0000000E+00;  4.0000000E+04;  0.0000000E+00;  4.0000000E+04;  2.3691716E-04;  0.0000000E+00;  4.4910880E-07;  5.4074768E+01;
 -1.3000000E-01;  9.9999998E-03; -9.0000004E-02;671;  0.0000000E+00;  0.0000000E+00;  0.0000000E+00;  1.0000000E+03;  1.0000000E-01;  0.0000000E+00;0;  0.0000000E+00;  0.0000000E+00;  0.0000000E+00;0;  2.3998934E-04;  4.0000000E+04;  0.0000000E+00;  0.0000000E+00;  4.0000000E+04;  0.0000000E+00;  4.0000000E+04;  2.3985708E-04;  0.0000000E+00;  1.3226685E-07;  5.4448032E+01;
 -1.3000000E-01;  9.9999998E-03; -7.9999998E-02;672;  0.0000000E+00;  0.0000000E+00;  0.0000000E+00;  1.0000000E+03;  1.0000000E-01;  0.0000000E+00;0;  0.0000000E+00;  0.0000000E+00;  0.0000000E+00;0;  2.4190346E-04;  4.0000000E+04;  0.0000000E+00;  0.0000000E+00;  4.0000000E+04;  0.0000000E+00;  4.0000000E+04;  2.4198182E-04;  0.0000000E+00; -7.8365275E-08;  5.4872871E+01;
 -1.3000000E-01;  9.9999998E-03; -7.0000000E-02;673;  0.0000000E+00;  0.0000000E+00;  0.0000000E+00;  1.0000000E+03;  1.0000000E-01;  0.0000000E+00;0;  0.0000000E+00;  0.0000000E+00;  0.0000000E+00;0;  2.4306636E-04;  4.0000000E+04;  0.0000000E+00;  0.0000000E+00;  4.0000000E+04;  0.0000000E+00;  4.0000000E+04;  2.4325689E-04;  0.0000000E+00; -1.9052096E-07;  5.5282356E+01;
 -1.3000000E-01;  9.9999998E-03; -5.9999999E-02;674;  0.0000000E+00;  0.0000000E+00;  0.0000000E+00;  1.0000000E+03;  1.0000000E-01;  0.0000000E+00;0;  0.0000000E+00;  0.0000000E+00;  0.0000000E+00;0;  2.4354726E-04;  4.0000000E+04;  0.0000000E+00;  0.0000000E+00;  4.0000000E+04;  0.0000000E+00;  4.0000000E+04;  2.4376650E-04;  0.0000000E+00; -2.1923893E-07;  5.5608948E+01;
 -1.3000000E-01;  9.9999998E-03; -5.0000001E-02;675;  0.0000000E+00;  0.0000000E+00;  0.0000000E+00;  1.0000000E+03;  1.0000000E-01;  0.0000000E+00;0;  0.0000000E+00;  0.0000000E+00;  0.0000000E+00;0;  2.4349398E-04;  4.0000000E+04;  0.0000000E+00;  0.0000000E+00;  4.0000000E+04;  0.0000000E+00;  4.0000000E+04;  2.4367847E-04;  0.0000000E+00; -1.8449354E-07;  5.5803432E+01;
 -1.3000000E-01;  9.9999998E-03; -3.9999999E-02;676;  0.0000000E+00;  0.0000000E+00;  0.0000000E+00;  1.0000000E+03;  1.0000000E-01;  0.0000000E+00;0;  0.0000000E+00;  0.0000000E+00;  0.0000000E+00;0;  2.4309495E-04;  4.0000000E+04;  0.0000000E+00;  0.0000000E+00;  4.0000000E+04;  0.0000000E+00;  4.0000000E+04;  2.4320417E-04;  0.0000000E+00; -1.0921428E-07;  5.5851685E+01;
 -1.3000000E-01;  9.9999998E-03; -2.9999999E-02;677;  0.0000000E+00;  0.0000000E+00;  0.0000000E+00;  1.0000000E+03;  1.0000000E-01;  0.0000000E+00;0;  0.0000000E+00;  0.0000000E+00;  0.0000000E+00;0;  2.4254386E-04;  4.0000000E+04;  0.0000000E+00;  0.0000000E+00;  4.0000000E+04;  0.0000000E+00;  4.0000000E+04;  2.4256129E-04;  0.0000000E+00; -1.7428276E-08;  5.5780056E+01;
 -1.3000000E-01;  9.9999998E-03; -2.0000000E-02;678;  0.0000000E+00;  0.0000000E+00;  0.0000000E+00;  1.0000000E+03;  1.0000000E-01;  0.0000000E+00;0;  0.0000000E+00;  0.0000000E+00;  0.0000000E+00;0;  2.4201466E-04;  4.0000000E+04;  0.0000000E+00;  0.0000000E+00;  4.0000000E+04;  0.0000000E+00;  4.0000000E+04;  2.4194671E-04;  0.0000000E+00;  6.7957203E-08;  5.5648647E+01;
 -1.3000000E-01;  9.9999998E-03; -9.9999998E-03;679;  0.0000000E+00;  0.0000000E+00;  0.0000000E+00;  1.0000000E+03;  1.0000000E-01;  0.0000000E+00;0;  0.0000000E+00;  0.0000000E+00;  0.0000000E+00;0;  2.4164101E-04;  4.0000000E+04;  0.0000000E+00;  0.0000000E+00;  4.0000000E+04;  0.0000000E+00;  4.0000000E+04;  2.4151323E-04;  0.0000000E+00;  1.2777711E-07;  5.5530239E+01;
 -1.3000000E-01;  9.9999998E-03;  0.0000000E+00;680;  0.0000000E+00;  0.0000000E+00;  0.0000000E+00;  1.0000000E+03;  1.0000000E-01;  0.0000000E+00;0;  0.0000000E+00;  0.0000000E+00;  0.0000000E+00;0;  2.4150732E-04;  4.0000000E+04;  0.0000000E+00;  0.0000000E+00;  4.0000000E+04;  0.0000000E+00;  4.0000000E+04;  2.4135811E-04;  0.0000000E+00;  1.4921689E-07;  5.5483250E+01;
 -1.3000000E-01;  9.9999998E-03;  9.9999998E-03;681;  0.0000000E+00;  0.0000000E+00;  0.0000000E+00;  1.0000000E+03;  1.0000000E-01;  0.0000000E+00;0;  0.0000000E+00;  0.0000000E+00;  0.0000000E+00;0;  2.4164098E-04;  4.0000000E+04;  0.0000000E+00;  0.0000000E+00;  4.0000000E+04;  0.0000000E+00;  4.0000000E+04;  2.4151322E-04;  0.0000000E+00;  1.2776387E-07;  5.5530277E+01;
 -1.3000000E-01;  9.9999998E-03;  2.0000000E-02;682;  0.0000000E+00;  0.0000000E+00;  0.0000000E+00;  1.0000000E+03;  1.0000000E-01;  0.0000000E+00;0;  0.0000000E+00;  0.0000000E+00;  0.0000000E+00;0;  2.4201444E-04;  4.0000000E+04;  0.0000000E+00;  0.0000000E+00;  4.0000000E+04;  0.0000000E+00;  4.0000000E+04;  2.4194652E-04;  0.0000000E+00;  6.7932461E-08;  5.5648708E+01;
 -1.3000000E-01;  9.9999998E-03;  2.9999999E-02;683;  0.0000000E+00;  0.0000000E+00;  0.0000000E+00;  1.0000000E+03;  1.0000000E-01;  0.0000000E+00;0;  0.0000000E+00;  0.0000000E+00;  0.0000000E+00;0;  2.4254367E-04;  4.0000000E+04;  0.0000000E+00;  0.0000000E+00;  4.0000000E+04;  0.0000000E+00;  4.0000000E+04;  2.4256113E-04;  0.0000000E+00; -1.7461089E-08;  5.5780159E+01;
 -1.3000000E-01;  9.9999998E-03;  3.9999999E-02;684;  0.0000000E+00;  0.0000000E+00;  0.0000000E+00;  1.0000000E+03;  1.0000000E-01;  0.0000000E+00;0;  0.0000000E+00;  0.0000000E+00;  0.0000000E+00;0;  2.4309458E-04;  4.0000000E+04;  0.0000000E+00;  0.0000000E+00;  4.0000000E+04;  0.0000000E+00;  4.0000000E+04;  2.4320383E-04;  0.0000000E+00; -1.0925087E-07;  5.5851814E+01;
 -1.3000000E-01;  9.9999998E-03;  5.0000001E-02;685;  0.0000000E+00;  0.0000000E+00;  0.0000000E+00;  1.0000000E+03;  1.0000000E-01;  0.0000000E+00;0;  0.0000000E+00;  0.0000000E+00;  0.0000000E+00;0;  2.4349344E-04;  4.0000000E+04;  0.0000000E+00;  0.0000000E+00;  4.0000000E+04;  0.0000000E+00;  4.0000000E+04;  2.4367798E-04;  0.0000000E+00; -1.8452975E-07;  5.5803570E+01;
 -1.3000000E-01;  9.9999998E-03;  5.9999999E-02;686;  0.0000000E+00;  0.0000000E+00;  0.0000000E+00;  1.0000000E+03;  1.0000000E-01;  0.0000000E+00;0;  0.0000000E+00;  0.0000000E+00;  0.0000000E+00;0;  2.4354641E-04;  4.0000000E+04;  0.0000000E+00;  0.0000000E+00;  4.0000000E+04;  0.0000000E+00;  4.0000000E+04;  2.4376568E-04;  0.0000000E+00; -2.1927096E-07;  5.5609016E+01;
 -1.2000000E-01;  9.9999998E-03; -1.0000000E-01;761;  0.0000000E+00;  0.0000000E+00;  0.0000000E+00;  1.0000000E+03;  1.0000000E-01;  0.0000000E+00;0;  0.0000000E+00;  0.0000000E+00;  0.0000000E+00;0;  4.8761402E-04;  4.0000000E+04;  0.0000000E+00;  0.0000000E+00;  4.0000000E+04;  0.0000000E+00;  4.0000000E+04;  4.8599101E-04;  0.0000000E+00;  1.6230018E-06;  1.1594367E+02;
 -1.2000000E-01;  9.9999998E-03; -9.0000004E-02;762;  0.0000000E+00;  0.0000000E+00;  0.0000000E+00;  1.0000000E+03;  1.0000000E-01;  0.0000000E+00;0;  0.0000000E+00;  0.0000000E+00;  0.0000000E+00;0;  4.9306429E-04;  4.0000000E+04;  0.0000000E+00;  0.0000000E+00;  4.0000000E+04;  0.0000000E+00;  4.0000000E+04;  4.9236603E-04;  0.0000000E+00;  6.9823284E-07;  1.1726112E+02;
 -1.2000000E-01;  9.9999998E-03; -7.9999998E-02;763;  0.0000000E+00;  0.0000000E+00;  0.0000000E+00;  1.0000000E+03;  1.0000000E-01;  0.0000000E+00;0;  0.0000000E+00;  0.0000000E+00;  0.0000000E+00;0;  4.9719581E-04;  4.0000000E+04;  0.0000000E+00;  0.0000000E+00;  4.0000000E+04;  0.0000000E+00;  4.0000000E+04;  4.9714244E-04;  0.0000000E+00;  5.3363539E-08;  1.1860053E+02;
 -1.2000000E-01;  9.9999998E-03; -7.0000000E-02;764;  0.0000000E+00;  0.0000000E+00;  0.0000000E+00;  1.0000000E+03;  1.0000000E-01;  0.0000000E+00;0;  0.0000000E+00;  0.0000000E+00;  0.0000000E+00;0;  4.9986679E-04;  4.0000000E+04;  0.0000000E+00;  0.0000000E+00;  4.0000000E+04;  0.0000000E+00;  4.0000000E+04;  5.0018879E-04;  0.0000000E+00; -3.2203175E-07;  1.1980922E+02;
 -1.2000000E-01;  9.9999998E-03; -5.9999999E-02;765;  0.0000000E+00;  0.0000000E+00;  0.0000000E+00;  1.0000000E+03;  1.0000000E-01;  0.0000000E+00;0;  0.0000000E+00;  0.0000000E+00;  0.0000000E+00;0;  5.0115952E-04;  4.0000000E+04;  0.0000000E+00;  0.0000000E+00;  4.0000000E+04;  0.0000000E+00;  4.0000000E+04;  5.0162268E-04;  0.0000000E+00; -4.6315893E-07;  1.2076033E+02;
 -1.2000000E-01;  9.9999998E-03; -5.0000001E-02;766;  0.0000000E+00;  0.0000000E+00;  0.0000000E+00;  1.0000000E+03;  1.0000000E-01;  0.0000000E+00;0;  0.0000000E+00;  0.0000000E+00;  0.0000000E+00;0;  5.0132803E-04;  4.0000000E+04;  0.0000000E+00;  0.0000000E+00;  4.0000000E+04;  0.0000000E+00;  4.0000000E+04;  5.0175085E-04;  0.0000000E+00; -4.2279200E-07;  1.2137843E+02;
 -1.2000000E-01;  9.9999998E-03; -3.9999999E-02;767;  0.0000000E+00;  0.0000000E+00;  0.0000000E+00;  1.0000000E+03;  1.0000000E-01;  0.0000000E+00;0;  0.0000000E+00;  0.0000000E+00;  0.0000000E+00;0;  5.0072814E-04;  4.0000000E+04;  0.0000000E+00;  0.0000000E+00;  4.0000000E+04;  0.0000000E+00;  4.0000000E+04;  5.0099206E-04;  0.0000000E+00; -2.6389674E-07;  1.2166178E+02;
 -1.2000000E-01;  9.9999998E-03; -2.9999999E-02;768;  0.0000000E+00;  0.0000000E+00;  0.0000000E+00;  1.0000000E+03;  1.0000000E-01;  0.0000000E+00;0;  0.0000000E+00;  0.0000000E+00;  0.0000000E+00;0;  4.9975171E-04;  4.0000000E+04;  0.0000000E+00;  0.0000000E+00;  4.0000000E+04;  0.0000000E+00;  4.0000000E+04;  4.9980404E-04;  0.0000000E+00; -5.2314203E-08;  1.2167416E+02;
 -1.2000000E-01;  9.9999998E-03; -2.0000000E-02;769;  0.0000000E+00;  0.0000000E+00;  0.0000000E+00;  1.0000000E+03;  1.0000000E-01;  0.0000000E+00;0;  0.0000000E+00;  0.0000000E+00;  0.0000000E+00;0;  4.9876072E-04;  4.0000000E+04;  0.0000000E+00;  0.0000000E+00;  4.0000000E+04;  0.0000000E+00;  4.0000000E+04;  4.9861026E-04;  0.0000000E+00;  1.5046236E-07;  1.2153602E+02;
 -1.2000000E-01;  9.9999998E-03; -9.9999998E-03;770;  0.0000000E+00;  0.0000000E+00;  0.0000000E+00;  1.0000000E+03;  1.0000000E-01;  0.0000000E+00;0;  0.0000000E+00;  0.0000000E+00;  0.0000000E+00;0;  4.9804238E-04;  4.0000000E+04;  0.0000000E+00;  0.0000000E+00;  4.0000000E+04;  0.0000000E+00;  4.0000000E+04;  4.9774820E-04;  0.0000000E+00;  2.9419860E-07;  1.2138182E+02;
 -1.2000000E-01;  9.9999998E-03;  0.0000000E+00;771;  0.0000000E+00;  0.0000000E+00;  0.0000000E+00;  1.0000000E+03;  1.0000000E-01;  0.0000000E+00;0;  0.0000000E+00;  0.0000000E+00;  0.0000000E+00;0;  4.9778237E-04;  4.0000000E+04;  0.0000000E+00;  0.0000000E+00;  4.0000000E+04;  0.0000000E+00;  4.0000000E+04;  4.9743644E-04;  0.0000000E+00;  3.4593111E-07;  1.2131675E+02;
 -1.2000000E-01;  9.9999998E-03;  9.9999998E-03;772;  0.0000000E+00;  0.0000000E+00;  0.0000000E+00;  1.0000000E+03;  1.0000000E-01;  0.0000000E+00;0;  0.0000000E+00;  0.0000000E+00;  0.0000000E+00;0;  4.9804250E-04;  4.0000000E+04;  0.0000000E+00;  0.0000000E+00;  4.0000000E+04;  0.0000000E+00;  4.0000000E+04;  4.9774832E-04;  0.0000000E+00;  2.9416256E-07;  1.2138190E+02;
 -1.2000000E-01;  9.9999998E-03;  2.0000000E-02;773;  0.0000000E+00;  0.0000000E+00;  0.0000000E+00;  1.0000000E+03;  1.0000000E-01;  0.0000000E+00;0;  0.0000000E+00;  0.0000000E+00;  0.0000000E+00;0;  4.9876020E-04;  4.0000000E+04;  0.0000000E+00;  0.0000000E+00;  4.0000000E+04;  0.0000000E+00;  4.0000000E+04;  4.9860979E-04;  0.0000000E+00;  1.5039549E-07;  1.2153619E+02;
 -1.2000000E-01;  9.9999998E-03;  2.9999999E-02;774;  0.0000000E+00;  0.0000000E+00;  0.0000000E+00;  1.0000000E+03;  1.0000000E-01;  0.0000000E+00;0;  0.0000000E+00;  0.0000000E+00;  0.0000000E+00;0;  4.9975113E-04;  4.0000000E+04;  0.0000000E+00;  0.0000000E+00;  4.0000000E+04;  0.0000000E+00;  4.0000000E+04;  4.9980351E-04;  0.0000000E+00; -5.2403106E-08;  1.2167431E+02;
 -1.2000000E-01;  9.9999998E-03;  3.9999999E-02;775;  0.0000000E+00;  0.0000000E+00;  0.0000000E+00;  1.0000000E+03;  1.0000000E-01;  0.0000000E+00;0;  0.0000000E+00;  0.0000000E+00;  0.0000000E+00;0;  5.0072733E-04;  4.0000000E+04;  0.0000000E+00;  0.0000000E+00;  4.0000000E+04;  0.0000000E+00;  4.0000000E+04;  5.0099130E-04;  0.0000000E+00; -2.6399744E-07;  1.2166202E+02;
 -1.2000000E-01;  9.9999998E-03;  5.0000001E-02;776;  0.0000000E+00;  0.0000000E+00;  0.0000000E+00;  1.0000000E+03;  1.0000000E-01;  0.0000000E+00;0;  0.0000000E+00;  0.0000000E+00;  0.0000000E+00;0;  5.0132698E-04;  4.0000000E+04;  0.0000000E+00;  0.0000000E+00;  4.0000000E+04;  0.0000000E+00;  4.0000000E+04;  5.0174986E-04;  0.0000000E+00; -4.2289244E-07;  1.2137869E+02;
 -1.2000000E-01;  9.9999998E-03;  5.9999999E-02;777;  0.0000000E+00;  0.0000000E+00;  0.0000000E+00;  1.0000000E+03;  1.0000000E-01;  0.0000000E+00;0;  0.0000000E+00;  0.0000000E+00;  0.0000000E+00;0;  5.0115847E-04;  4.0000000E+04;  0.0000000E+00;  0.0000000E+00;  4.0000000E+04;  0.0000000E+00;  4.0000000E+04;  5.0162175E-04;  0.0000000E+00; -4.6325059E-07;  1.2076057E+02;
 -1.1000000E-01;  9.9999998E-03; -1.0000000E-01;852;  0.0000000E+00;  0.0000000E+00;  0.0000000E+00;  1.0000000E+03;  1.0000000E-01;  0.0000000E+00;0;  0.0000000E+00;  0.0000000E+00;  0.0000000E+00;0;  8.2386227E-04;  4.0000000E+04;  0.0000000E+00;  0.0000000E+00;  4.0000000E+04;  0.0000000E+00;  4.0000000E+04;  8.1948395E-04;  0.0000000E+00;  4.3783311E-06;  2.1048500E+02;
 -1.1000000E-01;  9.9999998E-03; -9.0000004E-02;853;  0.0000000E+00;  0.0000000E+00;  0.0000000E+00;  1.0000000E+03;  1.0000000E-01;  0.0000000E+00;0;  0.0000000E+00;  0.0000000E+00;  0.0000000E+00;0;  8.3320990E-04;  4.0000000E+04;  0.0000000E+00;  0.0000000E+00;  4.0000000E+04;  0.0000000E+00;  4.0000000E+04;  8.3095301E-04;  0.0000000E+00;  2.2569141E-06;  2.1375681E+02;
 -1.1000000E-01;  9.9999998E-03; -7.9999998E-02;854;  0.0000000E+00;  0.0000000E+00;  0.0000000E+00;  1.0000000E+03;  1.0000000E-01;  0.0000000E+00;0;  0.0000000E+00;  0.0000000E+00;  0.0000000E+00;0;  8.4053533E-04;  4.0000000E+04;  0.0000000E+00;  0.0000000E+00;  4.0000000E+04;  0.0000000E+00;  4.0000000E+04;  8.3981751E-04;  0.0000000E+00;  7.1783603E-07;  2.1696495E+02;
 -1.1000000E-01;  9.9999998E-03; -7.0000000E-02;855;  0.0000000E+00;  0.0000000E+00;  0.0000000E+00;  1.0000000E+03;  1.0000000E-01;  0.0000000E+00;0;  0.0000000E+00;  0.0000000E+00;  0.0000000E+00;0;  8.4552669E-04;  4.0000000E+04;  0.0000000E+00;  0.0000000E+00;  4.0000000E+04;  0.0000000E+00;  4.0000000E+04;  8.4576878E-04;  0.0000000E+00; -2.4207179E-07;  2.1980490E+02;
 -1.1000000E-01;  9.9999998E-03; -5.9999999E-02;856;  0.0000000E+00;  0.0000000E+00;  0.0000000E+00;  1.0000000E+03;  1.0000000E-01;  0.0000000E+00;0;  0.0000000E+00;  0.0000000E+00;  0.0000000E+00;0;  8.4824394E-04;  4.0000000E+04;  0.0000000E+00;  0.0000000E+00;  4.0000000E+04;  0.0000000E+00;  4.0000000E+04;  8.4892922E-04;  0.0000000E+00; -6.8525151E-07;  2.2205537E+02;
 -1.1000000E-01;  9.9999998E-03; -5.0000001E-02;857;  0.0000000E+00;  0.0000000E+00;  0.0000000E+00;  1.0000000E+03;  1.0000000E-01;  0.0000000E+00;0;  0.0000000E+00;  0.0000000E+00;  0.0000000E+00;0;  8.4903906E-04;  4.0000000E+04;  0.0000000E+00;  0.0000000E+00;  4.0000000E+04;  0.0000000E+00;  4.0000000E+04;  8.4975740E-04;  0.0000000E+00; -7.1834023E-07;  2.2361124E+02;
 -1.1000000E-01;  9.9999998E-03; -3.9999999E-02;858;  0.0000000E+00;  0.0000000E+00;  0.0000000E+00;  1.0000000E+03;  1.0000000E-01;  0.0000000E+00;0;  0.0000000E+00;  0.0000000E+00;  0.0000000E+00;0;  8.4845966E-04;  4.0000000E+04;  0.0000000E+00;  0.0000000E+00;  4.0000000E+04;  0.0000000E+00;  4.0000000E+04;  8.4893435E-04;  0.0000000E+00; -4.7466608E-07;  2.2449977E+02;
 -1.1000000E-01;  9.9999998E-03; -2.9999999E-02;859;  0.0000000E+00;  0.0000000E+00;  0.0000000E+00;  1.0000000E+03;  1.0000000E-01;  0.0000000E+00;0;  0.0000000E+00;  0.0000000E+00;  0.0000000E+00;0;  8.4713852E-04;  4.0000000E+04;  0.0000000E+00;  0.0000000E+00;  4.0000000E+04;  0.0000000E+00;  4.0000000E+04;  8.4723451E-04;  0.0000000E+00; -9.5979772E-08;  2.2485295E+02;
 -1.1000000E-01;  9.9999998E-03; -2.0000000E-02;860;  0.0000000E+00;  0.0000000E+00;  0.0000000E+00;  1.0000000E+03;  1.0000000E-01;  0.0000000E+00;0;  0.0000000E+00;  0.0000000E+00;  0.0000000E+00;0;  8.4568595E-04;  4.0000000E+04;  0.0000000E+00;  0.0000000E+00;  4.0000000E+04;  0.0000000E+00;  4.0000000E+04;  8.4540085E-04;  0.0000000E+00;  2.8509263E-07;  2.2487602E+02;
 -1.1000000E-01;  9.9999998E-03; -9.9999998E-03;861;  0.0000000E+00;  0.0000000E+00;  0.0000000E+00;  1.0000000E+03;  1.0000000E-01;  0.0000000E+00;0;  0.0000000E+00;  0.0000000E+00;  0.0000000E+00;0;  8.4459857E-04;  4.0000000E+04;  0.0000000E+00;  0.0000000E+00;  4.0000000E+04;  0.0000000E+00;  4.0000000E+04;  8.4403786E-04;  0.0000000E+00;  5.6072781E-07;  2.2478235E+02;
 -1.1000000E-01;  9.9999998E-03;  0.0000000E+00;862;  0.0000000E+00;  0.0000000E+00;  0.0000000E+00;  1.0000000E+03;  1.0000000E-01;  0.0000000E+00;0;  0.0000000E+00;  0.0000000E+00;  0.0000000E+00;0;  8.4419810E-04;  4.0000000E+04;  0.0000000E+00;  0.0000000E+00;  4.0000000E+04;  0.0000000E+00;  4.0000000E+04;  8.4353739E-04;  0.0000000E+00;  6.6069907E-07;  2.2472975E+02;
 -1.1000000E-01;  9.9999998E-03;  9.9999998E-03;863;  0.0000000E+00;  0.0000000E+00;  0.0000000E+00;  1.0000000E+03;  1.0000000E-01;  0.0000000E+00;0;  0.0000000E+00;  0.0000000E+00;  0.0000000E+00;0;  8.4459857E-04;  4.0000000E+04;  0.0000000E+00;  0.0000000E+00;  4.0000000E+04;  0.0000000E+00;  4.0000000E+04;  8.4403792E-04;  0.0000000E+00;  5.6065016E-07;  2.2478261E+02;
 -1.1000000E-01;  9.9999998E-03;  2.0000000E-02;864;  0.0000000E+00;  0.0000000E+00;  0.0000000E+00;  1.0000000E+03;  1.0000000E-01;  0.0000000E+00;0;  0.0000000E+00;  0.0000000E+00;  0.0000000E+00;0;  8.4568519E-04;  4.0000000E+04;  0.0000000E+00;  0.0000000E+00;  4.0000000E+04;  0.0000000E+00;  4.0000000E+04;  8.4540027E-04;  0.0000000E+00;  2.8494762E-07;  2.2487646E+02;
 -1.1000000E-01;  9.9999998E-03;  2.9999999E-02;865;  0.0000000E+00;  0.0000000E+00;  0.0000000E+00;  1.0000000E+03;  1.0000000E-01;  0.0000000E+00;0;  0.0000000E+00;  0.0000000E+00;  0.0000000E+00;0;  8.4713829E-04;  4.0000000E+04;  0.0000000E+00;  0.0000000E+00;  4.0000000E+04;  0.0000000E+00;  4.0000000E+04;  8.4723445E-04;  0.0000000E+00; -9.6173608E-08;  2.2485359E+02;
 -1.1000000E-01;  9.9999998E-03;  3.9999999E-02;866;  0.0000000E+00;  0.0000000E+00;  0.0000000E+00;  1.0000000E+03;  1.0000000E-01;  0.0000000E+00;0;  0.0000000E+00;  0.0000000E+00;  0.0000000E+00;0;  8.4845873E-04;  4.0000000E+04;  0.0000000E+00;  0.0000000E+00;  4.0000000E+04;  0.0000000E+00;  4.0000000E+04;  8.4893359E-04;  0.0000000E+00; -4.7488700E-07;  2.2450044E+02;
 -1.1000000E-01;  9.9999998E-03;  5.0000001E-02;867;  0.0000000E+00;  0.0000000E+00;  0.0000000E+00;  1.0000000E+03;  1.0000000E-01;  0.0000000E+00;0;  0.0000000E+00;  0.0000000E+00;  0.0000000E+00;0;  8.4903755E-04;  4.0000000E+04;  0.0000000E+00;  0.0000000E+00;  4.0000000E+04;  0.0000000E+00;  4.0000000E+04;  8.4975612E-04;  0.0000000E+00; -7.1856476E-07;  2.2361201E+02;
 -1.1000000E-01;  9.9999998E-03;  5.9999999E-02;868;  0.0000000E+00;  0.0000000E+00;  0.0000000E+00;  1.0000000E+03;  1.0000000E-01;  0.0000000E+00;0;  0.0000000E+00;  0.0000000E+00;  0.0000000E+00;0;  8.4824173E-04;  4.0000000E+04;  0.0000000E+00;  0.0000000E+00;  4.0000000E+04;  0.0000000E+00;  4.0000000E+04;  8.4892719E-04;  0.0000000E+00; -6.8546143E-07;  2.2205617E+02;
 -1.0000000E-01;  9.9999998E-03; -1.0000000E-01;943;  0.0000000E+00;  0.0000000E+00;  0.0000000E+00;  1.0000644E+03;  1.0000000E-01;  5.3331825E+01;0;  0.0000000E+00;  0.0000000E+00;  0.0000000E+00;0;  1.2142768E-03;  4.0000000E+04;  0.0000000E+00;  0.0000000E+00;  4.0000000E+04;  0.0000000E+00;  4.0000000E+04;  1.2045515E-03;  0.0000000E+00;  9.7252396E-06;  3.4134937E+02;
 -1.0000000E-01;  9.9999998E-03; -9.0000004E-02;944;  0.0000000E+00;  0.0000000E+00;  0.0000000E+00;  1.0000536E+03;  1.0000000E-01;  4.4443188E+01;0;  0.0000000E+00;  0.0000000E+00;  0.0000000E+00;0;  1.2284331E-03;  4.0000000E+04;  0.0000000E+00;  0.0000000E+00;  4.0000000E+04;  0.0000000E+00;  4.0000000E+04;  1.2228452E-03;  0.0000000E+00;  5.5879400E-06;  3.4796710E+02;
 -1.0000000E-01;  9.9999998E-03; -7.9999998E-02;945;  0.0000000E+00;  0.0000000E+00;  0.0000000E+00;  1.0000419E+03;  1.0000000E-01;  3.4764450E+01;0;  0.0000000E+00;  0.0000000E+00;  0.0000000E+00;0;  1.2398332E-03;  4.0000000E+04;  0.0000000E+00;  0.0000000E+00;  4.0000000E+04;  0.0000000E+00;  4.0000000E+04;  1.2373470E-03;  0.0000000E+00;  2.4861281E-06;  3.5439459E+02;
 -1.0000000E-01;  9.9999998E-03; -7.0000000E-02;946;  0.0000000E+00;  0.0000000E+00;  0.0000000E+00;  1.0000331E+03;  1.0000000E-01;  2.7456013E+01;0;  0.0000000E+00;  0.0000000E+00;  0.0000000E+00;0;  1.2479300E-03;  4.0000000E+04;  0.0000000E+00;  0.0000000E+00;  4.0000000E+04;  0.0000000E+00;  4.0000000E+04;  1.2474852E-03;  0.0000000E+00;  4.4486418E-07;  3.6007788E+02;
 -1.0000000E-01;  9.9999998E-03; -5.9999999E-02;947;  0.0000000E+00;  0.0000000E+00;  0.0000000E+00;  1.0000242E+03;  1.0000000E-01;  2.0048815E+01;0;  0.0000000E+00;  0.0000000E+00;  0.0000000E+00;0;  1.2527088E-03;  4.0000000E+04;  0.0000000E+00;  0.0000000E+00;  4.0000000E+04;  0.0000000E+00;  4.0000000E+04;  1.2533359E-03;  0.0000000E+00; -6.2703151E-07;  3.6464661E+02;
 -1.0000000E-01;  9.9999998E-03; -5.0000001E-02;948;  0.0000000E+00;  0.0000000E+00;  0.0000000E+00;  1.0000208E+03;  1.0000000E-01;  1.7184700E+01;0;  0.0000000E+00;  0.0000000E+00;  0.0000000E+00;0;  1.2546068E-03;  4.0000000E+04;  0.0000000E+00;  0.0000000E+00;  4.0000000E+04;  0.0000000E+00;  4.0000000E+04;  1.2555172E-03;  0.0000000E+00; -9.1044859E-07;  3.6795050E+02;
 -1.0000000E-01;  9.9999998E-03; -3.9999999E-02;949;  0.0000000E+00;  0.0000000E+00;  0.0000000E+00;  1.0000168E+03;  1.0000000E-01;  1.3925532E+01;0;  0.0000000E+00;  0.0000000E+00;  0.0000000E+00;0;  1.2543718E-03;  4.0000000E+04;  0.0000000E+00;  0.0000000E+00;  4.0000000E+04;  0.0000000E+00;  4.0000000E+04;  1.2550151E-03;  0.0000000E+00; -6.4334125E-07;  3.7005020E+02;
 -1.0000000E-01;  9.9999998E-03; -2.9999999E-02;950;  0.0000000E+00;  0.0000000E+00;  0.0000000E+00;  1.0000137E+03;  1.0000000E-01;  1.1357703E+01;0;  0.0000000E+00;  0.0000000E+00;  0.0000000E+00;0;  1.2529021E-03;  4.0000000E+04;  0.0000000E+00;  0.0000000E+00;  4.0000000E+04;  0.0000000E+00;  4.0000000E+04;  1.2529870E-03;  0.0000000E+00; -8.4913168E-08;  3.7117236E+02;
 -1.0000000E-01;  9.9999998E-03; -2.0000000E-02;951;  0.0000000E+00;  0.0000000E+00;  0.0000000E+00;  1.0000123E+03;  1.0000000E-01;  1.0172552E+01;0;  0.0000000E+00;  0.0000000E+00;  0.0000000E+00;0;  1.2510875E-03;  4.0000000E+04;  0.0000000E+00;  0.0000000E+00;  4.0000000E+04;  0.0000000E+00;  4.0000000E+04;  1.2505680E-03;  0.0000000E+00;  5.1957551E-07;  3.7164017E+02;
 -1.0000000E-01;  9.9999998E-03; -9.9999998E-03;952;  0.0000000E+00;  0.0000000E+00;  0.0000000E+00;  1.0000114E+03;  1.0000000E-01;  9.3824511E+00;0;  0.0000000E+00;  0.0000000E+00;  0.0000000E+00;0;  1.2496720E-03;  4.0000000E+04;  0.0000000E+00;  0.0000000E+00;  4.0000000E+04;  0.0000000E+00;  4.0000000E+04;  1.2487022E-03;  0.0000000E+00;  9.6983183E-07;  3.7176459E+02;
 -1.0000000E-01;  9.9999998E-03;  0.0000000E+00;953;  0.0000000E+00;  0.0000000E+00;  0.0000000E+00;  1.0000108E+03;  1.0000000E-01;  8.9874001E+00;0;  0.0000000E+00;  0.0000000E+00;  0.0000000E+00;0;  1.2491423E-03;  4.0000000E+04;  0.0000000E+00;  0.0000000E+00;  4.0000000E+04;  0.0000000E+00;  4.0000000E+04;  1.2480073E-03;  0.0000000E+00;  1.1350085E-06;  3.7177982E+02;
 -1.0000000E-01;  9.9999998E-03;  9.9999998E-03;954;  0.0000000E+00;  0.0000000E+00;  0.0000000E+00;  1.0000114E+03;  1.0000000E-01;  9.3824511E+00;0;  0.0000000E+00;  0.0000000E+00;  0.0000000E+00;0;  1.2496714E-03;  4.0000000E+04;  0.0000000E+00;  0.0000000E+00;  4.0000000E+04;  0.0000000E+00;  4.0000000E+04;  1.2487017E-03;  0.0000000E+00;  9.6968949E-07;  3.7176495E+02;
 -1.0000000E-01;  9.9999998E-03;  2.0000000E-02;955;  0.0000000E+00;  0.0000000E+00;  0.0000000E+00;  1.0000123E+03;  1.0000000E-01;  1.0172552E+01;0;  0.0000000E+00;  0.0000000E+00;  0.0000000E+00;0;  1.2510862E-03;  4.0000000E+04;  0.0000000E+00;  0.0000000E+00;  4.0000000E+04;  0.0000000E+00;  4.0000000E+04;  1.2505669E-03;  0.0000000E+00;  5.1930709E-07;  3.7164078E+02;
 -1.0000000E-01;  9.9999998E-03;  2.9999999E-02;956;  0.0000000E+00;  0.0000000E+00;  0.0000000E+00;  1.0000137E+03;  1.0000000E-01;  1.1357703E+01;0;  0.0000000E+00;  0.0000000E+00;  0.0000000E+00;0;  1.2529000E-03;  4.0000000E+04;  0.0000000E+00;  0.0000000E+00;  4.0000000E+04;  0.0000000E+00;  4.0000000E+04;  1.2529853E-03;  0.0000000E+00; -8.5276163E-08;  3.7117337E+02;
 -1.0000000E-01;  9.9999998E-03;  3.9999999E-02;957;  0.0000000E+00;  0.0000000E+00;  0.0000000E+00;  1.0000168E+03;  1.0000000E-01;  1.3925532E+01;0;  0.0000000E+00;  0.0000000E+00;  0.0000000E+00;0;  1.2543702E-03;  4.0000000E+04;  0.0000000E+00;  0.0000000E+00;  4.0000000E+04;  0.0000000E+00;  4.0000000E+04;  1.2550140E-03;  0.0000000E+00; -6.4375888E-07;  3.7005154E+02;
 -1.0000000E-01;  9.9999998E-03;  5.0000001E-02;958;  0.0000000E+00;  0.0000000E+00;  0.0000000E+00;  1.0000208E+03;  1.0000000E-01;  1.7184700E+01;0;  0.0000000E+00;  0.0000000E+00;  0.0000000E+00;0;  1.2546035E-03;  4.0000000E+04;  0.0000000E+00;  0.0000000E+00;  4.0000000E+04;  0.0000000E+00;  4.0000000E+04;  1.2555143E-03;  0.0000000E+00; -9.1088202E-07;  3.6795175E+02;
 -1.0000000E-01;  9.9999998E-03;  5.9999999E-02;959;  0.0000000E+00;  0.0000000E+00;  0.0000000E+00;  1.0000242E+03;  1.0000000E-01;  2.0048815E+01;0;  0.0000000E+00;  0.0000000E+00;  0.0000000E+00;0;  1.2527046E-03;  4.0000000E+04;  0.0000000E+00;  0.0000000E+00;  4.0000000E+04;  0.0000000E+00;  4.0000000E+04;  1.2533321E-03;  0.0000000E+00; -6.2744351E-07;  3.6464783E+02;
 -9.0000004E-02;  9.9999998E-03; -1.0000000E-01;1034;  0.0000000E+00;  0.0000000E+00;  0.0000000E+00;  1.0002743E+03;  1.0000000E-01;  2.2725284E+02;0;  0.0000000E+00;  0.0000000E+00;  0.0000000E+00;0;  1.6084928E-03;  4.0000000E+04;  0.0000000E+00;  0.0000000E+00;  4.0000000E+04;  0.0000000E+00;  4.0000000E+04;  1.5896887E-03;  0.0000000E+00;  1.8804092E-05;  5.0995035E+02;
 -9.0000004E-02;  9.9999998E-03; -9.0000004E-02;1035;  0.0000000E+00;  0.0000000E+00;  0.0000000E+00;  1.0002656E+03;  1.0000000E-01;  2.2004315E+02;0;  0.0000000E+00;  0.0000000E+00;  0.0000000E+00;0;  1.6281991E-03;  4.0000000E+04;  0.0000000E+00;  0.0000000E+00;  4.0000000E+04;  0.0000000E+00;  4.0000000E+04;  1.6165652E-03;  0.0000000E+00;  1.1633956E-05;  5.2157532E+02;
 -9.0000004E-02;  9.9999998E-03; -7.9999998E-02;1036;  0.0000000E+00;  0.0000000E+00;  0.0000000E+00;  1.0002538E+03;  1.0000000E-01;  2.1026566E+02;0;  0.0000000E+00;  0.0000000E+00;  0.0000000E+00;0;  1.6444131E-03;  4.0000000E+04;  0.0000000E+00;  0.0000000E+00;  4.0000000E+04;  0.0000000E+00;  4.0000000E+04;  1.6383092E-03;  0.0000000E+00;  6.1039127E-06;  5.3289594E+02;
 -9.0000004E-02;  9.9999998E-03; -7.0000000E-02;1037;  0.0000000E+00;  0.0000000E+00;  0.0000000E+00;  1.0002427E+03;  1.0000000E-01;  2.0108073E+02;0;  0.0000000E+00;  0.0000000E+00;  0.0000000E+00;0;  1.6562772E-03;  4.0000000E+04;  0.0000000E+00;  0.0000000E+00;  4.0000000E+04;  0.0000000E+00;  4.0000000E+04;  1.6539739E-03;  0.0000000E+00;  2.3033324E-06;  5.4297449E+02;
 -9.0000004E-02;  9.9999998E-03; -5.9999999E-02;1038;  0.0000000E+00;  0.0000000E+00;  0.0000000E+00;  1.0002335E+03;  1.0000000E-01;  1.9347601E+02;0;  0.0000000E+00;  0.0000000E+00;  0.0000000E+00;0;  1.6636658E-03;  4.0000000E+04;  0.0000000E+00;  0.0000000E+00;  4.0000000E+04;  0.0000000E+00;  4.0000000E+04;  1.6635437E-03;  0.0000000E+00;  1.2203525E-07;  5.5120648E+02;
 -9.0000004E-02;  9.9999998E-03; -5.0000001E-02;1039;  0.0000000E+00;  0.0000000E+00;  0.0000000E+00;  1.0002233E+03;  1.0000000E-01;  1.8498242E+02;0;  0.0000000E+00;  0.0000000E+00;  0.0000000E+00;0;  1.6670884E-03;  4.0000000E+04;  0.0000000E+00;  0.0000000E+00;  4.0000000E+04;  0.0000000E+00;  4.0000000E+04;  1.6677980E-03;  0.0000000E+00; -7.0967576E-07;  5.5736163E+02;
 -9.0000004E-02;  9.9999998E-03; -3.9999999E-02;1040;  0.0000000E+00;  0.0000000E+00;  0.0000000E+00;  1.0002156E+03;  1.0000000E-01;  1.7866162E+02;0;  0.0000000E+00;  0.0000000E+00;  0.0000000E+00;0;  1.6674986E-03;  4.0000000E+04;  0.0000000E+00;  0.0000000E+00;  4.0000000E+04;  0.0000000E+00;  4.0000000E+04;  1.6680664E-03;  0.0000000E+00; -5.6781516E-07;  5.6152094E+02;
 -9.0000004E-02;  9.9999998E-03; -2.9999999E-02;1041;  0.0000000E+00;  0.0000000E+00;  0.0000000E+00;  1.0002102E+03;  1.0000000E-01;  1.7411853E+02;0;  0.0000000E+00;  0.0000000E+00;  0.0000000E+00;0;  1.6660771E-03;  4.0000000E+04;  0.0000000E+00;  0.0000000E+00;  4.0000000E+04;  0.0000000E+00;  4.0000000E+04;  1.6659513E-03;  0.0000000E+00;  1.2572981E-07;  5.6402521E+02;
 -9.0000004E-02;  9.9999998E-03; -2.0000000E-02;1042;  0.0000000E+00;  0.0000000E+00;  0.0000000E+00;  1.0002065E+03;  1.0000000E-01;  1.7105688E+02;0;  0.0000000E+00;  0.0000000E+00;  0.0000000E+00;0;  1.6640179E-03;  4.0000000E+04;  0.0000000E+00;  0.0000000E+00;  4.0000000E+04;  0.0000000E+00;  4.0000000E+04;  1.6630529E-03;  0.0000000E+00;  9.6496581E-07;  5.6533563E+02;
 -9.0000004E-02;  9.9999998E-03; -9.9999998E-03;1043;  0.0000000E+00;  0.0000000E+00;  0.0000000E+00;  1.0002040E+03;  1.0000000E-01;  1.6908163E+02;0;  0.0000000E+00;  0.0000000E+00;  0.0000000E+00;0;  1.6623334E-03;  4.0000000E+04;  0.0000000E+00;  0.0000000E+00;  4.0000000E+04;  0.0000000E+00;  4.0000000E+04;  1.6607179E-03;  0.0000000E+00;  1.6154856E-06;  5.6590674E+02;
 -9.0000004E-02;  9.9999998E-03;  0.0000000E+00;1044;  0.0000000E+00;  0.0000000E+00;  0.0000000E+00;  1.0002026E+03;  1.0000000E-01;  1.6779773E+02;0;  0.0000000E+00;  0.0000000E+00;  0.0000000E+00;0;  1.6616918E-03;  4.0000000E+04;  0.0000000E+00;  0.0000000E+00;  4.0000000E+04;  0.0000000E+00;  4.0000000E+04;  1.6598341E-03;  0.0000000E+00;  1.8577717E-06;  5.6605811E+02;
 -9.0000004E-02;  9.9999998E-03;  9.9999998E-03;1045;  0.0000000E+00;  0.0000000E+00;  0.0000000E+00;  1.0002040E+03;  1.0000000E-01;  1.6908163E+02;0;  0.0000000E+00;  0.0000000E+00;  0.0000000E+00;0;  1.6623328E-03;  4.0000000E+04;  0.0000000E+00;  0.0000000E+00;  4.0000000E+04;  0.0000000E+00;  4.0000000E+04;  1.6607175E-03;  0.0000000E+00;  1.6152467E-06;  5.6590759E+02;
 -9.0000004E-02;  9.9999998E-03;  2.0000000E-02;1046;  0.0000000E+00;  0.0000000E+00;  0.0000000E+00;  1.0002065E+03;  1.0000000E-01;  1.7105688E+02;0;  0.0000000E+00;  0.0000000E+00;  0.0000000E+00;0;  1.6640155E-03;  4.0000000E+04;  0.0000000E+00;  0.0000000E+00;  4.0000000E+04;  0.0000000E+00;  4.0000000E+04;  1.6630510E-03;  0.0000000E+00;  9.6451765E-07;  5.6533643E+02;
 -9.0000004E-02;  9.9999998E-03;  2.9999999E-02;1047;  0.0000000E+00;  0.0000000E+00;  0.0000000E+00;  1.0002102E+03;  1.0000000E-01;  1.7411853E+02;0;  0.0000000E+00;  0.0000000E+00;  0.0000000E+00;0;  1.6660750E-03;  4.0000000E+04;  0.0000000E+00;  0.0000000E+00;  4.0000000E+04;  0.0000000E+00;  4.0000000E+04;  1.6659498E-03;  0.0000000E+00;  1.2511703E-07;  5.6402777E+02;
 -9.0000004E-02;  9.9999998E-03;  3.9999999E-02;1048;  0.0000000E+00;  0.0000000E+00;  0.0000000E+00;  1.0002156E+03;  1.0000000E-01;  1.7856285E+02;0;  0.0000000E+00;  0.0000000E+00;  0.0000000E+00;0;  1.6674955E-03;  4.0000000E+04;  0.0000000E+00;  0.0000000E+00;  4.0000000E+04;  0.0000000E+00;  4.0000000E+04;  1.6680640E-03;  0.0000000E+00; -5.6853082E-07;  5.6152258E+02;
 -9.0000004E-02;  9.9999998E-03;  5.0000001E-02;1049;  0.0000000E+00;  0.0000000E+00;  0.0000000E+00;  1.0002233E+03;  1.0000000E-01;  1.8498242E+02;0;  0.0000000E+00;  0.0000000E+00;  0.0000000E+00;0;  1.6670834E-03;  4.0000000E+04;  0.0000000E+00;  0.0000000E+00;  4.0000000E+04;  0.0000000E+00;  4.0000000E+04;  1.6677938E-03;  0.0000000E+00; -7.1042791E-07;  5.5736322E+02;
 -9.0000004E-02;  9.9999998E-03;  5.9999999E-02;1050;  0.0000000E+00;  0.0000000E+00;  0.0000000E+00;  1.0002335E+03;  1.0000000E-01;  1.9347601E+02;0;  0.0000000E+00;  0.0000000E+00;  0.0000000E+00;0;  1.6636589E-03;  4.0000000E+04;  0.0000000E+00;  0.0000000E+00;  4.0000000E+04;  0.0000000E+00;  4.0000000E+04;  1.6635376E-03;  0.0000000E+00;  1.2130596E-07;  5.5120691E+02;
 -7.9999998E-02;  9.9999998E-03; -1.0000000E-01;1125;  0.0000000E+00;  0.0000000E+00;  0.0000000E+00;  1.0006817E+03;  1.0000000E-01;  5.6482355E+02;0;  0.0000000E+00;  0.0000000E+00;  0.0000000E+00;0;  1.9382712E-03;  4.0000000E+04;  0.0000000E+00;  0.0000000E+00;  4.0000000E+04;  0.0000000E+00;  4.0000000E+04;  1.9055260E-03;  0.0000000E+00;  3.2745218E-05;  7.1452008E+02;
 -7.9999998E-02;  9.9999998E-03; -9.0000004E-02;1126;  0.0000000E+00;  0.0000000E+00;  0.0000000E+00;  1.0006669E+03;  1.0000000E-01;  5.5247821E+02;0;  0.0000000E+00;  0.0000000E+00;  0.0000000E+00;0;  1.9641225E-03;  4.0000000E+04;  0.0000000E+00;  0.0000000E+00;  4.0000000E+04;  0.0000000E+00;  4.0000000E+04;  1.9427183E-03;  0.0000000E+00;  2.1404181E-05;  7.3287982E+02;
 -7.9999998E-02;  9.9999998E-03; -7.9999998E-02;1127;  0.0000000E+00;  0.0000000E+00;  0.0000000E+00;  1.0006516E+03;  1.0000000E-01;  5.3983661E+02;0;  0.0000000E+00;  0.0000000E+00;  0.0000000E+00;0;  1.9857117E-03;  4.0000000E+04;  0.0000000E+00;  0.0000000E+00;  4.0000000E+04;  0.0000000E+00;  4.0000000E+04;  1.9732772E-03;  0.0000000E+00;  1.2434604E-05;  7.5091046E+02;
 -7.9999998E-02;  9.9999998E-03; -7.0000000E-02;1128;  0.0000000E+00;  0.0000000E+00;  0.0000000E+00;  1.0006367E+03;  1.0000000E-01;  5.2749127E+02;0;  0.0000000E+00;  0.0000000E+00;  0.0000000E+00;0;  2.0018204E-03;  4.0000000E+04;  0.0000000E+00;  0.0000000E+00;  4.0000000E+04;  0.0000000E+00;  4.0000000E+04;  1.9957798E-03;  0.0000000E+00;  6.0404495E-06;  7.6713867E+02;
 -7.9999998E-02;  9.9999998E-03; -5.9999999E-02;1129;  0.0000000E+00;  0.0000000E+00;  0.0000000E+00;  1.0006213E+03;  1.0000000E-01;  5.1475085E+02;0;  0.0000000E+00;  0.0000000E+00;  0.0000000E+00;0;  2.0121885E-03;  4.0000000E+04;  0.0000000E+00;  0.0000000E+00;  4.0000000E+04;  0.0000000E+00;  4.0000000E+04;  2.0100700E-03;  0.0000000E+00;  2.1184314E-06;  7.8062238E+02;
 -7.9999998E-02;  9.9999998E-03; -5.0000001E-02;1130;  0.0000000E+00;  0.0000000E+00;  0.0000000E+00;  1.0006086E+03;  1.0000000E-01;  5.0428204E+02;0;  0.0000000E+00;  0.0000000E+00;  0.0000000E+00;0;  2.0173925E-03;  4.0000000E+04;  0.0000000E+00;  0.0000000E+00;  4.0000000E+04;  0.0000000E+00;  4.0000000E+04;  2.0170836E-03;  0.0000000E+00;  3.0896021E-07;  7.9096472E+02;
 -7.9999998E-02;  9.9999998E-03; -3.9999999E-02;1131;  0.0000000E+00;  0.0000000E+00;  0.0000000E+00;  1.0005989E+03;  1.0000000E-01;  4.9618350E+02;0;  0.0000000E+00;  0.0000000E+00;  0.0000000E+00;0;  2.0186037E-03;  4.0000000E+04;  0.0000000E+00;  0.0000000E+00;  4.0000000E+04;  0.0000000E+00;  4.0000000E+04;  2.0185311E-03;  0.0000000E+00;  7.2575645E-08;  7.9824475E+02;
 -7.9999998E-02;  9.9999998E-03; -2.9999999E-02;1132;  0.0000000E+00;  0.0000000E+00;  0.0000000E+00;  1.0005918E+03;  1.0000000E-01;  4.9025775E+02;0;  0.0000000E+00;  0.0000000E+00;  0.0000000E+00;0;  2.0173253E-03;  4.0000000E+04;  0.0000000E+00;  0.0000000E+00;  4.0000000E+04;  0.0000000E+00;  4.0000000E+04;  2.0165432E-03;  0.0000000E+00;  7.8203243E-07;  8.0290759E+02;
 -7.9999998E-02;  9.9999998E-03; -2.0000000E-02;1133;  0.0000000E+00;  0.0000000E+00;  0.0000000E+00;  1.0005861E+03;  1.0000000E-01;  4.8561591E+02;0;  0.0000000E+00;  0.0000000E+00;  0.0000000E+00;0;  2.0150691E-03;  4.0000000E+04;  0.0000000E+00;  0.0000000E+00;  4.0000000E+04;  0.0000000E+00;  4.0000000E+04;  2.0132491E-03;  0.0000000E+00;  1.8199390E-06;  8.0558075E+02;
 -7.9999998E-02;  9.9999998E-03; -9.9999998E-03;1134;  0.0000000E+00;  0.0000000E+00;  0.0000000E+00;  1.0005834E+03;  1.0000000E-01;  4.8334436E+02;0;  0.0000000E+00;  0.0000000E+00;  0.0000000E+00;0;  2.0131378E-03;  4.0000000E+04;  0.0000000E+00;  0.0000000E+00;  4.0000000E+04;  0.0000000E+00;  4.0000000E+04;  2.0104672E-03;  0.0000000E+00;  2.6706082E-06;  8.0688214E+02;
 -7.9999998E-02;  9.9999998E-03;  0.0000000E+00;1135;  0.0000000E+00;  0.0000000E+00;  0.0000000E+00;  1.0005826E+03;  1.0000000E-01;  4.8265302E+02;0;  0.0000000E+00;  0.0000000E+00;  0.0000000E+00;0;  2.0123916E-03;  4.0000000E+04;  0.0000000E+00;  0.0000000E+00;  4.0000000E+04;  0.0000000E+00;  4.0000000E+04;  2.0093981E-03;  0.0000000E+00;  2.9936116E-06;  8.0726434E+02;
 -7.9999998E-02;  9.9999998E-03;  9.9999998E-03;1136;  0.0000000E+00;  0.0000000E+00;  0.0000000E+00;  1.0005834E+03;  1.0000000E-01;  4.8334436E+02;0;  0.0000000E+00;  0.0000000E+00;  0.0000000E+00;0;  2.0131369E-03;  4.0000000E+04;  0.0000000E+00;  0.0000000E+00;  4.0000000E+04;  0.0000000E+00;  4.0000000E+04;  2.0104665E-03;  0.0000000E+00;  2.6702453E-06;  8.0688293E+02;
 -7.9999998E-02;  9.9999998E-03;  2.0000000E-02;1137;  0.0000000E+00;  0.0000000E+00;  0.0000000E+00;  1.0005861E+03;  1.0000000E-01;  4.8561591E+02;0;  0.0000000E+00;  0.0000000E+00;  0.0000000E+00;0;  2.0150675E-03;  4.0000000E+04;  0.0000000E+00;  0.0000000E+00;  4.0000000E+04;  0.0000000E+00;  4.0000000E+04;  2.0132482E-03;  0.0000000E+00;  1.8192411E-06;  8.0558289E+02;
 -7.9999998E-02;  9.9999998E-03;  2.9999999E-02;1138;  0.0000000E+00;  0.0000000E+00;  0.0000000E+00;  1.0005918E+03;  1.0000000E-01;  4.9025775E+02;0;  0.0000000E+00;  0.0000000E+00;  0.0000000E+00;0;  2.0173187E-03;  4.0000000E+04;  0.0000000E+00;  0.0000000E+00;  4.0000000E+04;  0.0000000E+00;  4.0000000E+04;  2.0165376E-03;  0.0000000E+00;  7.8107047E-07;  8.0290991E+02;
 -7.9999998E-02;  9.9999998E-03;  3.9999999E-02;1139;  0.0000000E+00;  0.0000000E+00;  0.0000000E+00;  1.0005989E+03;  1.0000000E-01;  4.9618350E+02;0;  0.0000000E+00;  0.0000000E+00;  0.0000000E+00;0;  2.0185993E-03;  4.0000000E+04;  0.0000000E+00;  0.0000000E+00;  4.0000000E+04;  0.0000000E+00;  4.0000000E+04;  2.0185278E-03;  0.0000000E+00;  7.1436858E-08;  7.9824579E+02;
 -7.9999998E-02;  9.9999998E-03;  5.0000001E-02;1140;  0.0000000E+00;  0.0000000E+00;  0.0000000E+00;  1.0006086E+03;  1.0000000E-01;  5.0428204E+02;0;  0.0000000E+00;  0.0000000E+00;  0.0000000E+00;0;  2.0173844E-03;  4.0000000E+04;  0.0000000E+00;  0.0000000E+00;  4.0000000E+04;  0.0000000E+00;  4.0000000E+04;  2.0170766E-03;  0.0000000E+00;  3.0774396E-07;  7.9096692E+02;
 -7.9999998E-02;  9.9999998E-03;  5.9999999E-02;1141;  0.0000000E+00;  0.0000000E+00;  0.0000000E+00;  1.0006213E+03;  1.0000000E-01;  5.1475085E+02;0;  0.0000000E+00;  0.0000000E+00;  0.0000000E+00;0;  2.0121797E-03;  4.0000000E+04;  0.0000000E+00;  0.0000000E+00;  4.0000000E+04;  0.0000000E+00;  4.0000000E+04;  2.0100626E-03;  0.0000000E+00;  2.1172336E-06;  7.8062616E+02;
 -7.0000000E-02;  9.9999998E-03; -1.0000000E-01;1216;  0.0000000E+00;  0.0000000E+00;  0.0000000E+00;  1.0013533E+03;  1.0000000E-01;  1.1211534E+03;0;  0.0000000E+00;  0.0000000E+00;  0.0000000E+00;0;  2.1186366E-03;  4.0000000E+04;  0.0000000E+00;  0.0000000E+00;  4.0000000E+04;  0.0000000E+00;  4.0000000E+04;  2.0661436E-03;  0.0000000E+00;  5.2493011E-05;  9.4861469E+02;
 -7.0000000E-02;  9.9999998E-03; -9.0000004E-02;1217;  0.0000000E+00;  0.0000000E+00;  0.0000000E+00;  1.0013352E+03;  1.0000000E-01;  1.1062404E+03;0;  0.0000000E+00;  0.0000000E+00;  0.0000000E+00;0;  2.1510804E-03;  4.0000000E+04;  0.0000000E+00;  0.0000000E+00;  4.0000000E+04;  0.0000000E+00;  4.0000000E+04;  2.1152443E-03;  0.0000000E+00;  3.5836023E-05;  9.7519196E+02;
 -7.0000000E-02;  9.9999998E-03; -7.9999998E-02;1218;  0.0000000E+00;  0.0000000E+00;  0.0000000E+00;  1.0013115E+03;  1.0000000E-01;  1.0865865E+03;0;  0.0000000E+00;  0.0000000E+00;  0.0000000E+00;0;  2.1784136E-03;  4.0000000E+04;  0.0000000E+00;  0.0000000E+00;  4.0000000E+04;  0.0000000E+00;  4.0000000E+04;  2.1560518E-03;  0.0000000E+00;  2.2361737E-05;  1.0016143E+03;
 -7.0000000E-02;  9.9999998E-03; -7.0000000E-02;1219;  0.0000000E+00;  0.0000000E+00;  0.0000000E+00;  1.0012885E+03;  1.0000000E-01;  1.0674266E+03;0;  0.0000000E+00;  0.0000000E+00;  0.0000000E+00;0;  2.1990088E-03;  4.0000000E+04;  0.0000000E+00;  0.0000000E+00;  4.0000000E+04;  0.0000000E+00;  4.0000000E+04;  2.1865603E-03;  0.0000000E+00;  1.2448445E-05;  1.0257096E+03;
 -7.0000000E-02;  9.9999998E-03; -5.9999999E-02;1220;  0.0000000E+00;  0.0000000E+00;  0.0000000E+00;  1.0012699E+03;  1.0000000E-01;  1.0521184E+03;0;  0.0000000E+00;  0.0000000E+00;  0.0000000E+00;0;  2.2124606E-03;  4.0000000E+04;  0.0000000E+00;  0.0000000E+00;  4.0000000E+04;  0.0000000E+00;  4.0000000E+04;  2.2064198E-03;  0.0000000E+00;  6.0406778E-06;  1.0460676E+03;
 -7.0000000E-02;  9.9999998E-03; -5.0000001E-02;1221;  0.0000000E+00;  0.0000000E+00;  0.0000000E+00;  1.0012520E+03;  1.0000000E-01;  1.0372052E+03;0;  0.0000000E+00;  0.0000000E+00;  0.0000000E+00;0;  2.2194462E-03;  4.0000000E+04;  0.0000000E+00;  0.0000000E+00;  4.0000000E+04;  0.0000000E+00;  4.0000000E+04;  2.2167410E-03;  0.0000000E+00;  2.7052749E-06;  1.0620278E+03;
 -7.0000000E-02;  9.9999998E-03; -3.9999999E-02;1222;  0.0000000E+00;  0.0000000E+00;  0.0000000E+00;  1.0012347E+03;  1.0000000E-01;  1.0228846E+03;0;  0.0000000E+00;  0.0000000E+00;  0.0000000E+00;0;  2.2214011E-03;  4.0000000E+04;  0.0000000E+00;  0.0000000E+00;  4.0000000E+04;  0.0000000E+00;  4.0000000E+04;  2.2196718E-03;  0.0000000E+00;  1.7293197E-06;  1.0736088E+03;
 -7.0000000E-02;  9.9999998E-03; -2.9999999E-02;1223;  0.0000000E+00;  0.0000000E+00;  0.0000000E+00;  1.0012238E+03;  1.0000000E-01;  1.0138973E+03;0;  0.0000000E+00;  0.0000000E+00;  0.0000000E+00;0;  2.2201745E-03;  4.0000000E+04;  0.0000000E+00;  0.0000000E+00;  4.0000000E+04;  0.0000000E+00;  4.0000000E+04;  2.2179263E-03;  0.0000000E+00;  2.2482252E-06;  1.0813235E+03;
 -7.0000000E-02;  9.9999998E-03; -2.0000000E-02;1224;  0.0000000E+00;  0.0000000E+00;  0.0000000E+00;  1.0012157E+03;  1.0000000E-01;  1.0071814E+03;0;  0.0000000E+00;  0.0000000E+00;  0.0000000E+00;0;  2.2176444E-03;  4.0000000E+04;  0.0000000E+00;  0.0000000E+00;  4.0000000E+04;  0.0000000E+00;  4.0000000E+04;  2.2142564E-03;  0.0000000E+00;  3.3879746E-06;  1.0859607E+03;
 -7.0000000E-02;  9.9999998E-03; -9.9999998E-03;1225;  0.0000000E+00;  0.0000000E+00;  0.0000000E+00;  1.0012114E+03;  1.0000000E-01;  1.0036259E+03;0;  0.0000000E+00;  0.0000000E+00;  0.0000000E+00;0;  2.2154108E-03;  4.0000000E+04;  0.0000000E+00;  0.0000000E+00;  4.0000000E+04;  0.0000000E+00;  4.0000000E+04;  2.2110061E-03;  0.0000000E+00;  4.4046405E-06;  1.0883447E+03;
 -7.0000000E-02;  9.9999998E-03;  0.0000000E+00;1226;  0.0000000E+00;  0.0000000E+00;  0.0000000E+00;  1.0012101E+03;  1.0000000E-01;  1.0025396E+03;0;  0.0000000E+00;  0.0000000E+00;  0.0000000E+00;0;  2.2145410E-03;  4.0000000E+04;  0.0000000E+00;  0.0000000E+00;  4.0000000E+04;  0.0000000E+00;  4.0000000E+04;  2.2097395E-03;  0.0000000E+00;  4.8013690E-06;  1.0890637E+03;
 -7.0000000E-02;  9.9999998E-03;  9.9999998E-03;1227;  0.0000000E+00;  0.0000000E+00;  0.0000000E+00;  1.0012114E+03;  1.0000000E-01;  1.0036259E+03;0;  0.0000000E+00;  0.0000000E+00;  0.0000000E+00;0;  2.2154094E-03;  4.0000000E+04;  0.0000000E+00;  0.0000000E+00;  4.0000000E+04;  0.0000000E+00;  4.0000000E+04;  2.2110054E-03;  0.0000000E+00;  4.4040971E-06;  1.0883452E+03;
 -7.0000000E-02;  9.9999998E-03;  2.0000000E-02;1228;  0.0000000E+00;  0.0000000E+00;  0.0000000E+00;  1.0012157E+03;  1.0000000E-01;  1.0071814E+03;0;  0.0000000E+00;  0.0000000E+00;  0.0000000E+00;0;  2.2176402E-03;  4.0000000E+04;  0.0000000E+00;  0.0000000E+00;  4.0000000E+04;  0.0000000E+00;  4.0000000E+04;  2.2142532E-03;  0.0000000E+00;  3.3869435E-06;  1.0859634E+03;
 -7.0000000E-02;  9.9999998E-03;  2.9999999E-02;1229;  0.0000000E+00;  0.0000000E+00;  0.0000000E+00;  1.0012238E+03;  1.0000000E-01;  1.0138973E+03;0;  0.0000000E+00;  0.0000000E+00;  0.0000000E+00;0;  2.2201682E-03;  4.0000000E+04;  0.0000000E+00;  0.0000000E+00;  4.0000000E+04;  0.0000000E+00;  4.0000000E+04;  2.2179214E-03;  0.0000000E+00;  2.2467884E-06;  1.0813251E+03;
 -7.0000000E-02;  9.9999998E-03;  3.9999999E-02;1230;  0.0000000E+00;  0.0000000E+00;  0.0000000E+00;  1.0012347E+03;  1.0000000E-01;  1.0228846E+03;0;  0.0000000E+00;  0.0000000E+00;  0.0000000E+00;0;  2.2213946E-03;  4.0000000E+04;  0.0000000E+00;  0.0000000E+00;  4.0000000E+04;  0.0000000E+00;  4.0000000E+04;  2.2196670E-03;  0.0000000E+00;  1.7276030E-06;  1.0736104E+03;
 -7.0000000E-02;  9.9999998E-03;  5.0000001E-02;1231;  0.0000000E+00;  0.0000000E+00;  0.0000000E+00;  1.0012520E+03;  1.0000000E-01;  1.0372052E+03;0;  0.0000000E+00;  0.0000000E+00;  0.0000000E+00;0;  2.2194369E-03;  4.0000000E+04;  0.0000000E+00;  0.0000000E+00;  4.0000000E+04;  0.0000000E+00;  4.0000000E+04;  2.2167335E-03;  0.0000000E+00;  2.7034159E-06;  1.0620322E+03;
 -7.0000000E-02;  9.9999998E-03;  5.9999999E-02;1232;  0.0000000E+00;  0.0000000E+00;  0.0000000E+00;  1.0012699E+03;  1.0000000E-01;  1.0521184E+03;0;  0.0000000E+00;  0.0000000E+00;  0.0000000E+00;0;  2.2124464E-03;  4.0000000E+04;  0.0000000E+00;  0.0000000E+00;  4.0000000E+04;  0.0000000E+00;  4.0000000E+04;  2.2064075E-03;  0.0000000E+00;  6.0388265E-06;  1.0460693E+03;
 -5.9999999E-02;  9.9999998E-03; -1.0000000E-01;1307;  0.0000000E+00;  0.0000000E+00;  0.0000000E+00;  1.0023648E+03;  1.0000000E-01;  1.9591544E+03;0;  0.0000000E+00;  0.0000000E+00;  0.0000000E+00;0;  2.0520752E-03;  4.0000000E+04;  0.0000000E+00;  0.0000000E+00;  4.0000000E+04;  0.0000000E+00;  4.0000000E+04;  1.9734574E-03;  0.0000000E+00;  7.8617755E-05;  1.1994548E+03;
 -5.9999999E-02;  9.9999998E-03; -9.0000004E-02;1308;  0.0000000E+00;  0.0000000E+00;  0.0000000E+00;  1.0023428E+03;  1.0000000E-01;  1.9409822E+03;0;  0.0000000E+00;  0.0000000E+00;  0.0000000E+00;0;  2.0913528E-03;  4.0000000E+04;  0.0000000E+00;  0.0000000E+00;  4.0000000E+04;  0.0000000E+00;  4.0000000E+04;  2.0357242E-03;  0.0000000E+00;  5.5628498E-05;  1.2351315E+03;
 -5.9999999E-02;  9.9999998E-03; -7.9999998E-02;1309;  0.0000000E+00;  0.0000000E+00;  0.0000000E+00;  1.0023160E+03;  1.0000000E-01;  1.9187605E+03;0;  0.0000000E+00;  0.0000000E+00;  0.0000000E+00;0;  2.1245347E-03;  4.0000000E+04;  0.0000000E+00;  0.0000000E+00;  4.0000000E+04;  0.0000000E+00;  4.0000000E+04;  2.0878832E-03;  0.0000000E+00;  3.6651447E-05;  1.2711371E+03;
 -5.9999999E-02;  9.9999998E-03; -7.0000000E-02;1310;  0.0000000E+00;  0.0000000E+00;  0.0000000E+00;  1.0022842E+03;  1.0000000E-01;  1.8924897E+03;0;  0.0000000E+00;  0.0000000E+00;  0.0000000E+00;0;  2.1495479E-03;  4.0000000E+04;  0.0000000E+00;  0.0000000E+00;  4.0000000E+04;  0.0000000E+00;  4.0000000E+04;  2.1272479E-03;  0.0000000E+00;  2.2300110E-05;  1.3044519E+03;
 -5.9999999E-02;  9.9999998E-03; -5.9999999E-02;1311;  0.0000000E+00;  0.0000000E+00;  0.0000000E+00;  1.0022556E+03;  1.0000000E-01;  1.8686879E+03;0;  0.0000000E+00;  0.0000000E+00;  0.0000000E+00;0;  2.1658791E-03;  4.0000000E+04;  0.0000000E+00;  0.0000000E+00;  4.0000000E+04;  0.0000000E+00;  4.0000000E+04;  2.1532602E-03;  0.0000000E+00;  1.2618894E-05;  1.3330671E+03;
 -5.9999999E-02;  9.9999998E-03; -5.0000001E-02;1312;  0.0000000E+00;  0.0000000E+00;  0.0000000E+00;  1.0022336E+03;  1.0000000E-01;  1.8505156E+03;0;  0.0000000E+00;  0.0000000E+00;  0.0000000E+00;0;  2.1743462E-03;  4.0000000E+04;  0.0000000E+00;  0.0000000E+00;  4.0000000E+04;  0.0000000E+00;  4.0000000E+04;  2.1672114E-03;  0.0000000E+00;  7.1347717E-06;  1.3559576E+03;
 -5.9999999E-02;  9.9999998E-03; -3.9999999E-02;1313;  0.0000000E+00;  0.0000000E+00;  0.0000000E+00;  1.0022118E+03;  1.0000000E-01;  1.8324420E+03;0;  0.0000000E+00;  0.0000000E+00;  0.0000000E+00;0;  2.1767127E-03;  4.0000000E+04;  0.0000000E+00;  0.0000000E+00;  4.0000000E+04;  0.0000000E+00;  4.0000000E+04;  2.1717425E-03;  0.0000000E+00;  4.9702367E-06;  1.3729482E+03;
 -5.9999999E-02;  9.9999998E-03; -2.9999999E-02;1314;  0.0000000E+00;  0.0000000E+00;  0.0000000E+00;  1.0021955E+03;  1.0000000E-01;  1.8189115E+03;0;  0.0000000E+00;  0.0000000E+00;  0.0000000E+00;0;  2.1752336E-03;  4.0000000E+04;  0.0000000E+00;  0.0000000E+00;  4.0000000E+04;  0.0000000E+00;  4.0000000E+04;  2.1702256E-03;  0.0000000E+00;  5.0079225E-06;  1.3845939E+03;
 -5.9999999E-02;  9.9999998E-03; -2.0000000E-02;1315;  0.0000000E+00;  0.0000000E+00;  0.0000000E+00;  1.0021843E+03;  1.0000000E-01;  1.8096278E+03;0;  0.0000000E+00;  0.0000000E+00;  0.0000000E+00;0;  2.1721928E-03;  4.0000000E+04;  0.0000000E+00;  0.0000000E+00;  4.0000000E+04;  0.0000000E+00;  4.0000000E+04;  2.1661080E-03;  0.0000000E+00;  6.0848729E-06;  1.3918093E+03;
 -5.9999999E-02;  9.9999998E-03; -9.9999998E-03;1316;  0.0000000E+00;  0.0000000E+00;  0.0000000E+00;  1.0021777E+03;  1.0000000E-01;  1.8041959E+03;0;  0.0000000E+00;  0.0000000E+00;  0.0000000E+00;0;  2.1695141E-03;  4.0000000E+04;  0.0000000E+00;  0.0000000E+00;  4.0000000E+04;  0.0000000E+00;  4.0000000E+04;  2.1623238E-03;  0.0000000E+00;  7.1903892E-06;  1.3956256E+03;
 -5.9999999E-02;  9.9999998E-03;  0.0000000E+00;1317;  0.0000000E+00;  0.0000000E+00;  0.0000000E+00;  1.0021756E+03;  1.0000000E-01;  1.8024182E+03;0;  0.0000000E+00;  0.0000000E+00;  0.0000000E+00;0;  2.1684724E-03;  4.0000000E+04;  0.0000000E+00;  0.0000000E+00;  4.0000000E+04;  0.0000000E+00;  4.0000000E+04;  2.1608330E-03;  0.0000000E+00;  7.6393408E-06;  1.3968064E+03;
 -5.9999999E-02;  9.9999998E-03;  9.9999998E-03;1318;  0.0000000E+00;  0.0000000E+00;  0.0000000E+00;  1.0021777E+03;  1.0000000E-01;  1.8041959E+03;0;  0.0000000E+00;  0.0000000E+00;  0.0000000E+00;0;  2.1695122E-03;  4.0000000E+04;  0.0000000E+00;  0.0000000E+00;  4.0000000E+04;  0.0000000E+00;  4.0000000E+04;  2.1623226E-03;  0.0000000E+00;  7.1896256E-06;  1.3956282E+03;
 -5.9999999E-02;  9.9999998E-03;  2.0000000E-02;1319;  0.0000000E+00;  0.0000000E+00;  0.0000000E+00;  1.0021843E+03;  1.0000000E-01;  1.8096278E+03;0;  0.0000000E+00;  0.0000000E+00;  0.0000000E+00;0;  2.1721877E-03;  4.0000000E+04;  0.0000000E+00;  0.0000000E+00;  4.0000000E+04;  0.0000000E+00;  4.0000000E+04;  2.1661043E-03;  0.0000000E+00;  6.0834045E-06;  1.3918105E+03;
 -5.9999999E-02;  9.9999998E-03;  2.9999999E-02;1320;  0.0000000E+00;  0.0000000E+00;  0.0000000E+00;  1.0021955E+03;  1.0000000E-01;  1.8189115E+03;0;  0.0000000E+00;  0.0000000E+00;  0.0000000E+00;0;  2.1752252E-03;  4.0000000E+04;  0.0000000E+00;  0.0000000E+00;  4.0000000E+04;  0.0000000E+00;  4.0000000E+04;  2.1702193E-03;  0.0000000E+00;  5.0058675E-06;  1.3845978E+03;
 -5.9999999E-02;  9.9999998E-03;  3.9999999E-02;1321;  0.0000000E+00;  0.0000000E+00;  0.0000000E+00;  1.0022118E+03;  1.0000000E-01;  1.8324420E+03;0;  0.0000000E+00;  0.0000000E+00;  0.0000000E+00;0;  2.1767023E-03;  4.0000000E+04;  0.0000000E+00;  0.0000000E+00;  4.0000000E+04;  0.0000000E+00;  4.0000000E+04;  2.1717346E-03;  0.0000000E+00;  4.9677492E-06;  1.3729532E+03;
 -5.9999999E-02;  9.9999998E-03;  5.0000001E-02;1322;  0.0000000E+00;  0.0000000E+00;  0.0000000E+00;  1.0022336E+03;  1.0000000E-01;  1.8505156E+03;0;  0.0000000E+00;  0.0000000E+00;  0.0000000E+00;0;  2.1743323E-03;  4.0000000E+04;  0.0000000E+00;  0.0000000E+00;  4.0000000E+04;  0.0000000E+00;  4.0000000E+04;  2.1672002E-03;  0.0000000E+00;  7.1320569E-06;  1.3559618E+03;
 -5.9999999E-02;  9.9999998E-03;  5.9999999E-02;1323;  0.0000000E+00;  0.0000000E+00;  0.0000000E+00;  1.0022556E+03;  1.0000000E-01;  1.8686879E+03;0;  0.0000000E+00;  0.0000000E+00;  0.0000000E+00;0;  2.1658631E-03;  4.0000000E+04;  0.0000000E+00;  0.0000000E+00;  4.0000000E+04;  0.0000000E+00;  4.0000000E+04;  2.1532469E-03;  0.0000000E+00;  1.2616162E-05;  1.3330717E+03;
 -5.0000001E-02;  9.9999998E-03; -1.0000000E-01;1398;  0.0000000E+00;  0.0000000E+00;  0.0000000E+00;  1.0037708E+03;  1.0000000E-01;  3.1239609E+03;0;  0.0000000E+00;  0.0000000E+00;  0.0000000E+00;0;  1.6377048E-03;  4.0000000E+04;  0.0000000E+00;  0.0000000E+00;  4.0000000E+04;  0.0000000E+00;  4.0000000E+04;  1.5265655E-03;  0.0000000E+00;  1.1113931E-04;  1.4467177E+03;
 -5.0000001E-02;  9.9999998E-03; -9.0000004E-02;1399;  0.0000000E+00;  0.0000000E+00;  0.0000000E+00;  1.0037430E+03;  1.0000000E-01;  3.1009492E+03;0;  0.0000000E+00;  0.0000000E+00;  0.0000000E+00;0;  1.6837455E-03;  4.0000000E+04;  0.0000000E+00;  0.0000000E+00;  4.0000000E+04;  0.0000000E+00;  4.0000000E+04;  1.6026712E-03;  0.0000000E+00;  8.1074330E-05;  1.4914707E+03;
 -5.0000001E-02;  9.9999998E-03; -7.9999998E-02;1400;  0.0000000E+00;  0.0000000E+00;  0.0000000E+00;  1.0037065E+03;  1.0000000E-01;  3.0708267E+03;0;  0.0000000E+00;  0.0000000E+00;  0.0000000E+00;0;  1.7225349E-03;  4.0000000E+04;  0.0000000E+00;  0.0000000E+00;  4.0000000E+04;  0.0000000E+00;  4.0000000E+04;  1.6667347E-03;  0.0000000E+00;  5.5800174E-05;  1.5374103E+03;
 -5.0000001E-02;  9.9999998E-03; -7.0000000E-02;1401;  0.0000000E+00;  0.0000000E+00;  0.0000000E+00;  1.0036683E+03;  1.0000000E-01;  3.0391240E+03;0;  0.0000000E+00;  0.0000000E+00;  0.0000000E+00;0;  1.7515435E-03;  4.0000000E+04;  0.0000000E+00;  0.0000000E+00;  4.0000000E+04;  0.0000000E+00;  4.0000000E+04;  1.7153261E-03;  0.0000000E+00;  3.6217392E-05;  1.5805940E+03;
 -5.0000001E-02;  9.9999998E-03; -5.9999999E-02;1402;  0.0000000E+00;  0.0000000E+00;  0.0000000E+00;  1.0036338E+03;  1.0000000E-01;  3.0104827E+03;0;  0.0000000E+00;  0.0000000E+00;  0.0000000E+00;0;  1.7701830E-03;  4.0000000E+04;  0.0000000E+00;  0.0000000E+00;  4.0000000E+04;  0.0000000E+00;  4.0000000E+04;  1.7476554E-03;  0.0000000E+00;  2.2527520E-05;  1.6183120E+03;
 -5.0000001E-02;  9.9999998E-03; -5.0000001E-02;1403;  0.0000000E+00;  0.0000000E+00;  0.0000000E+00;  1.0035986E+03;  1.0000000E-01;  2.9813479E+03;0;  0.0000000E+00;  0.0000000E+00;  0.0000000E+00;0;  1.7795042E-03;  4.0000000E+04;  0.0000000E+00;  0.0000000E+00;  4.0000000E+04;  0.0000000E+00;  4.0000000E+04;  1.7652385E-03;  0.0000000E+00;  1.4265722E-05;  1.6490118E+03;
 -5.0000001E-02;  9.9999998E-03; -3.9999999E-02;1404;  0.0000000E+00;  0.0000000E+00;  0.0000000E+00;  1.0035699E+03;  1.0000000E-01;  2.9575459E+03;0;  0.0000000E+00;  0.0000000E+00;  0.0000000E+00;0;  1.7816819E-03;  4.0000000E+04;  0.0000000E+00;  0.0000000E+00;  4.0000000E+04;  0.0000000E+00;  4.0000000E+04;  1.7712631E-03;  0.0000000E+00;  1.0418810E-05;  1.6722565E+03;
 -5.0000001E-02;  9.9999998E-03; -2.9999999E-02;1405;  0.0000000E+00;  0.0000000E+00;  0.0000000E+00;  1.0035478E+03;  1.0000000E-01;  2.9392749E+03;0;  0.0000000E+00;  0.0000000E+00;  0.0000000E+00;0;  1.7794385E-03;  4.0000000E+04;  0.0000000E+00;  0.0000000E+00;  4.0000000E+04;  0.0000000E+00;  4.0000000E+04;  1.7698165E-03;  0.0000000E+00;  9.6220092E-06;  1.6884900E+03;
 -5.0000001E-02;  9.9999998E-03; -2.0000000E-02;1406;  0.0000000E+00;  0.0000000E+00;  0.0000000E+00;  1.0035319E+03;  1.0000000E-01;  2.9260408E+03;0;  0.0000000E+00;  0.0000000E+00;  0.0000000E+00;0;  1.7754973E-03;  4.0000000E+04;  0.0000000E+00;  0.0000000E+00;  4.0000000E+04;  0.0000000E+00;  4.0000000E+04;  1.7650881E-03;  0.0000000E+00;  1.0409297E-05;  1.6987781E+03;
 -5.0000001E-02;  9.9999998E-03; -9.9999998E-03;1407;  0.0000000E+00;  0.0000000E+00;  0.0000000E+00;  1.0035241E+03;  1.0000000E-01;  2.9196211E+03;0;  0.0000000E+00;  0.0000000E+00;  0.0000000E+00;0;  1.7721343E-03;  4.0000000E+04;  0.0000000E+00;  0.0000000E+00;  4.0000000E+04;  0.0000000E+00;  4.0000000E+04;  1.7606536E-03;  0.0000000E+00;  1.1480777E-05;  1.7043092E+03;
 -5.0000001E-02;  9.9999998E-03;  0.0000000E+00;1408;  0.0000000E+00;  0.0000000E+00;  0.0000000E+00;  1.0035214E+03;  1.0000000E-01;  2.9174482E+03;0;  0.0000000E+00;  0.0000000E+00;  0.0000000E+00;0;  1.7708387E-03;  4.0000000E+04;  0.0000000E+00;  0.0000000E+00;  4.0000000E+04;  0.0000000E+00;  4.0000000E+04;  1.7588952E-03;  0.0000000E+00;  1.1943478E-05;  1.7060366E+03;
 -5.0000001E-02;  9.9999998E-03;  9.9999998E-03;1409;  0.0000000E+00;  0.0000000E+00;  0.0000000E+00;  1.0035241E+03;  1.0000000E-01;  2.9196211E+03;0;  0.0000000E+00;  0.0000000E+00;  0.0000000E+00;0;  1.7721314E-03;  4.0000000E+04;  0.0000000E+00;  0.0000000E+00;  4.0000000E+04;  0.0000000E+00;  4.0000000E+04;  1.7606517E-03;  0.0000000E+00;  1.1479719E-05;  1.7043098E+03;
 -5.0000001E-02;  9.9999998E-03;  2.0000000E-02;1410;  0.0000000E+00;  0.0000000E+00;  0.0000000E+00;  1.0035319E+03;  1.0000000E-01;  2.9260408E+03;0;  0.0000000E+00;  0.0000000E+00;  0.0000000E+00;0;  1.7754921E-03;  4.0000000E+04;  0.0000000E+00;  0.0000000E+00;  4.0000000E+04;  0.0000000E+00;  4.0000000E+04;  1.7650848E-03;  0.0000000E+00;  1.0407270E-05;  1.6987793E+03;
 -5.0000001E-02;  9.9999998E-03;  2.9999999E-02;1411;  0.0000000E+00;  0.0000000E+00;  0.0000000E+00;  1.0035478E+03;  1.0000000E-01;  2.9392749E+03;0;  0.0000000E+00;  0.0000000E+00;  0.0000000E+00;0;  1.7794278E-03;  4.0000000E+04;  0.0000000E+00;  0.0000000E+00;  4.0000000E+04;  0.0000000E+00;  4.0000000E+04;  1.7698086E-03;  0.0000000E+00;  9.6191688E-06;  1.6884978E+03;
 -5.0000001E-02;  9.9999998E-03;  3.9999999E-02;1412;  0.0000000E+00;  0.0000000E+00;  0.0000000E+00;  1.0035699E+03;  1.0000000E-01;  2.9575459E+03;0;  0.0000000E+00;  0.0000000E+00;  0.0000000E+00;0;  1.7816658E-03;  4.0000000E+04;  0.0000000E+00;  0.0000000E+00;  4.0000000E+04;  0.0000000E+00;  4.0000000E+04;  1.7712505E-03;  0.0000000E+00;  1.0415341E-05;  1.6722609E+03;
 -5.0000001E-02;  9.9999998E-03;  5.0000001E-02;1413;  0.0000000E+00;  0.0000000E+00;  0.0000000E+00;  1.0035986E+03;  1.0000000E-01;  2.9813479E+03;0;  0.0000000E+00;  0.0000000E+00;  0.0000000E+00;0;  1.7794872E-03;  4.0000000E+04;  0.0000000E+00;  0.0000000E+00;  4.0000000E+04;  0.0000000E+00;  4.0000000E+04;  1.7652253E-03;  0.0000000E+00;  1.4261897E-05;  1.6490166E+03;
 -5.0000001E-02;  9.9999998E-03;  5.9999999E-02;1414;  0.0000000E+00;  0.0000000E+00;  0.0000000E+00;  1.0036337E+03;  1.0000000E-01;  3.0104827E+03;0;  0.0000000E+00;  0.0000000E+00;  0.0000000E+00;0;  1.7701613E-03;  4.0000000E+04;  0.0000000E+00;  0.0000000E+00;  4.0000000E+04;  0.0000000E+00;  4.0000000E+04;  1.7476378E-03;  0.0000000E+00;  2.2523618E-05;  1.6183170E+03;
 -3.9999999E-02;  9.9999998E-03; -1.0000000E-01;1489;  0.0000000E+00;  0.0000000E+00;  0.0000000E+00;  1.0055911E+03;  1.0000000E-01;  4.6320664E+03;0;  0.0000000E+00;  0.0000000E+00;  0.0000000E+00;0;  7.8521133E-04;  4.0000000E+04;  0.0000000E+00;  0.0000000E+00;  4.0000000E+04;  0.0000000E+00;  4.0000000E+04;  6.3579349E-04;  0.0000000E+00;  1.4941781E-04;  1.6628419E+03;
 -3.9999999E-02;  9.9999998E-03; -9.0000004E-02;1490;  0.0000000E+00;  0.0000000E+00;  0.0000000E+00;  1.0055527E+03;  1.0000000E-01;  4.6003638E+03;0;  0.0000000E+00;  0.0000000E+00;  0.0000000E+00;0;  8.3745131E-04;  4.0000000E+04;  0.0000000E+00;  0.0000000E+00;  4.0000000E+04;  0.0000000E+00;  4.0000000E+04;  7.2550570E-04;  0.0000000E+00;  1.1194561E-04;  1.7155941E+03;
 -3.9999999E-02;  9.9999998E-03; -7.9999998E-02;1491;  0.0000000E+00;  0.0000000E+00;  0.0000000E+00;  1.0055071E+03;  1.0000000E-01;  4.5625376E+03;0;  0.0000000E+00;  0.0000000E+00;  0.0000000E+00;0;  8.8111474E-04;  4.0000000E+04;  0.0000000E+00;  0.0000000E+00;  4.0000000E+04;  0.0000000E+00;  4.0000000E+04;  8.0119900E-04;  0.0000000E+00;  7.9915728E-05;  1.7707633E+03;
 -3.9999999E-02;  9.9999998E-03; -7.0000000E-02;1492;  0.0000000E+00;  0.0000000E+00;  0.0000000E+00;  1.0054585E+03;  1.0000000E-01;  4.5222427E+03;0;  0.0000000E+00;  0.0000000E+00;  0.0000000E+00;0;  9.1323740E-04;  4.0000000E+04;  0.0000000E+00;  0.0000000E+00;  4.0000000E+04;  0.0000000E+00;  4.0000000E+04;  8.5868617E-04;  0.0000000E+00;  5.4551245E-05;  1.8235082E+03;
 -3.9999999E-02;  9.9999998E-03; -5.9999999E-02;1493;  0.0000000E+00;  0.0000000E+00;  0.0000000E+00;  1.0054099E+03;  1.0000000E-01;  4.4819473E+03;0;  0.0000000E+00;  0.0000000E+00;  0.0000000E+00;0;  9.3324657E-04;  4.0000000E+04;  0.0000000E+00;  0.0000000E+00;  4.0000000E+04;  0.0000000E+00;  4.0000000E+04;  8.9697965E-04;  0.0000000E+00;  3.6266931E-05;  1.8703406E+03;
 -3.9999999E-02;  9.9999998E-03; -5.0000001E-02;1494;  0.0000000E+00;  0.0000000E+00;  0.0000000E+00;  1.0053671E+03;  1.0000000E-01;  4.4464917E+03;0;  0.0000000E+00;  0.0000000E+00;  0.0000000E+00;0;  9.4249705E-04;  4.0000000E+04;  0.0000000E+00;  0.0000000E+00;  4.0000000E+04;  0.0000000E+00;  4.0000000E+04;  9.1783045E-04;  0.0000000E+00;  2.4666597E-05;  1.9090988E+03;
 -3.9999999E-02;  9.9999998E-03; -3.9999999E-02;1495;  0.0000000E+00;  0.0000000E+00;  0.0000000E+00;  1.0053320E+03;  1.0000000E-01;  4.4174551E+03;0;  0.0000000E+00;  0.0000000E+00;  0.0000000E+00;0;  9.4365649E-04;  4.0000000E+04;  0.0000000E+00;  0.0000000E+00;  4.0000000E+04;  0.0000000E+00;  4.0000000E+04;  9.2500588E-04;  0.0000000E+00;  1.8650580E-05;  1.9389161E+03;
 -3.9999999E-02;  9.9999998E-03; -2.9999999E-02;1496;  0.0000000E+00;  0.0000000E+00;  0.0000000E+00;  1.0053038E+03;  1.0000000E-01;  4.3940483E+03;0;  0.0000000E+00;  0.0000000E+00;  0.0000000E+00;0;  9.3997177E-04;  4.0000000E+04;  0.0000000E+00;  0.0000000E+00;  4.0000000E+04;  0.0000000E+00;  4.0000000E+04;  9.2333625E-04;  0.0000000E+00;  1.6635535E-05;  1.9601027E+03;
 -3.9999999E-02;  9.9999998E-03; -2.0000000E-02;1497;  0.0000000E+00;  0.0000000E+00;  0.0000000E+00;  1.0052856E+03;  1.0000000E-01;  4.3790366E+03;0;  0.0000000E+00;  0.0000000E+00;  0.0000000E+00;0;  9.3464635E-04;  4.0000000E+04;  0.0000000E+00;  0.0000000E+00;  4.0000000E+04;  0.0000000E+00;  4.0000000E+04;  9.1778411E-04;  0.0000000E+00;  1.6862241E-05;  1.9737316E+03;
 -3.9999999E-02;  9.9999998E-03; -9.9999998E-03;1498;  0.0000000E+00;  0.0000000E+00;  0.0000000E+00;  1.0052743E+03;  1.0000000E-01;  4.3696543E+03;0;  0.0000000E+00;  0.0000000E+00;  0.0000000E+00;0;  9.3030615E-04;  4.0000000E+04;  0.0000000E+00;  0.0000000E+00;  4.0000000E+04;  0.0000000E+00;  4.0000000E+04;  9.1256574E-04;  0.0000000E+00;  1.7740440E-05;  1.9811791E+03;
 -3.9999999E-02;  9.9999998E-03;  0.0000000E+00;1499;  0.0000000E+00;  0.0000000E+00;  0.0000000E+00;  1.0052716E+03;  1.0000000E-01;  4.3673828E+03;0;  0.0000000E+00;  0.0000000E+00;  0.0000000E+00;0;  9.2866248E-04;  4.0000000E+04;  0.0000000E+00;  0.0000000E+00;  4.0000000E+04;  0.0000000E+00;  4.0000000E+04;  9.1049785E-04;  0.0000000E+00;  1.8164625E-05;  1.9835054E+03;
 -3.9999999E-02;  9.9999998E-03;  9.9999998E-03;1500;  0.0000000E+00;  0.0000000E+00;  0.0000000E+00;  1.0052743E+03;  1.0000000E-01;  4.3696543E+03;0;  0.0000000E+00;  0.0000000E+00;  0.0000000E+00;0;  9.3030347E-04;  4.0000000E+04;  0.0000000E+00;  0.0000000E+00;  4.0000000E+04;  0.0000000E+00;  4.0000000E+04;  9.1256446E-04;  0.0000000E+00;  1.7739025E-05;  1.9811801E+03;
 -3.9999999E-02;  9.9999998E-03;  2.0000000E-02;1501;  0.0000000E+00;  0.0000000E+00;  0.0000000E+00;  1.0052856E+03;  1.0000000E-01;  4.3790366E+03;0;  0.0000000E+00;  0.0000000E+00;  0.0000000E+00;0;  9.3463867E-04;  4.0000000E+04;  0.0000000E+00;  0.0000000E+00;  4.0000000E+04;  0.0000000E+00;  4.0000000E+04;  9.1777917E-04;  0.0000000E+00;  1.6859512E-05;  1.9737378E+03;
 -3.9999999E-02;  9.9999998E-03;  2.9999999E-02;1502;  0.0000000E+00;  0.0000000E+00;  0.0000000E+00;  1.0053038E+03;  1.0000000E-01;  4.3941475E+03;0;  0.0000000E+00;  0.0000000E+00;  0.0000000E+00;0;  9.3996001E-04;  4.0000000E+04;  0.0000000E+00;  0.0000000E+00;  4.0000000E+04;  0.0000000E+00;  4.0000000E+04;  9.2332833E-04;  0.0000000E+00;  1.6631699E-05;  1.9601096E+03;
 -3.9999999E-02;  9.9999998E-03;  3.9999999E-02;1503;  0.0000000E+00;  0.0000000E+00;  0.0000000E+00;  1.0053320E+03;  1.0000000E-01;  4.4174551E+03;0;  0.0000000E+00;  0.0000000E+00;  0.0000000E+00;0;  9.4363908E-04;  4.0000000E+04;  0.0000000E+00;  0.0000000E+00;  4.0000000E+04;  0.0000000E+00;  4.0000000E+04;  9.2499319E-04;  0.0000000E+00;  1.8645889E-05;  1.9389243E+03;
 -3.9999999E-02;  9.9999998E-03;  5.0000001E-02;1504;  0.0000000E+00;  0.0000000E+00;  0.0000000E+00;  1.0053671E+03;  1.0000000E-01;  4.4464917E+03;0;  0.0000000E+00;  0.0000000E+00;  0.0000000E+00;0;  9.4247772E-04;  4.0000000E+04;  0.0000000E+00;  0.0000000E+00;  4.0000000E+04;  0.0000000E+00;  4.0000000E+04;  9.1781636E-04;  0.0000000E+00;  2.4661387E-05;  1.9091038E+03;
 -3.9999999E-02;  9.9999998E-03;  5.9999999E-02;1505;  0.0000000E+00;  0.0000000E+00;  0.0000000E+00;  1.0054099E+03;  1.0000000E-01;  4.4819473E+03;0;  0.0000000E+00;  0.0000000E+00;  0.0000000E+00;0;  9.3321980E-04;  4.0000000E+04;  0.0000000E+00;  0.0000000E+00;  4.0000000E+04;  0.0000000E+00;  4.0000000E+04;  8.9695823E-04;  0.0000000E+00;  3.6261568E-05;  1.8703469E+03;
 -2.9999999E-02;  9.9999998E-03; -1.0000000E-01;1580;  0.0000000E+00;  0.0000000E+00;  0.0000000E+00;  1.0078000E+03;  1.0000000E-01;  6.4622368E+03;0;  0.0000000E+00;  0.0000000E+00;  0.0000000E+00;0; -5.7022937E-04;  4.0000000E+04;  0.0000000E+00;  0.0000000E+00;  4.0000000E+04;  0.0000000E+00;  4.0000000E+04; -7.6237670E-04;  0.0000000E+00;  1.9214736E-04;  1.8161285E+03;
 -2.9999999E-02;  9.9999998E-03; -9.0000004E-02;1581;  0.0000000E+00;  0.0000000E+00;  0.0000000E+00;  1.0077567E+03;  1.0000000E-01;  6.4262876E+03;0;  0.0000000E+00;  0.0000000E+00;  0.0000000E+00;0; -5.1311776E-04;  4.0000000E+04;  0.0000000E+00;  0.0000000E+00;  4.0000000E+04;  0.0000000E+00;  4.0000000E+04; -6.6058419E-04;  0.0000000E+00;  1.4746646E-04;  1.8746234E+03;
 -2.9999999E-02;  9.9999998E-03; -7.9999998E-02;1582;  0.0000000E+00;  0.0000000E+00;  0.0000000E+00;  1.0076969E+03;  1.0000000E-01;  6.3767085E+03;0;  0.0000000E+00;  0.0000000E+00;  0.0000000E+00;0; -4.6599802E-04;  4.0000000E+04;  0.0000000E+00;  0.0000000E+00;  4.0000000E+04;  0.0000000E+00;  4.0000000E+04; -5.7466538E-04;  0.0000000E+00;  1.0866735E-04;  1.9369957E+03;
 -2.9999999E-02;  9.9999998E-03; -7.0000000E-02;1583;  0.0000000E+00;  0.0000000E+00;  0.0000000E+00;  1.0076326E+03;  1.0000000E-01;  6.3234756E+03;0;  0.0000000E+00;  0.0000000E+00;  0.0000000E+00;0; -4.3220658E-04;  4.0000000E+04;  0.0000000E+00;  0.0000000E+00;  4.0000000E+04;  0.0000000E+00;  4.0000000E+04; -5.0951442E-04;  0.0000000E+00;  7.7307835E-05;  1.9977191E+03;
 -2.9999999E-02;  9.9999998E-03; -5.9999999E-02;1584;  0.0000000E+00;  0.0000000E+00;  0.0000000E+00;  1.0075688E+03;  1.0000000E-01;  6.2706377E+03;0;  0.0000000E+00;  0.0000000E+00;  0.0000000E+00;0; -4.1221603E-04;  4.0000000E+04;  0.0000000E+00;  0.0000000E+00;  4.0000000E+04;  0.0000000E+00;  4.0000000E+04; -4.6628425E-04;  0.0000000E+00;  5.4068223E-05;  2.0526250E+03;
 -2.9999999E-02;  9.9999998E-03; -5.0000001E-02;1585;  0.0000000E+00;  0.0000000E+00;  0.0000000E+00;  1.0075175E+03;  1.0000000E-01;  6.2281694E+03;0;  0.0000000E+00;  0.0000000E+00;  0.0000000E+00;0; -4.0425282E-04;  4.0000000E+04;  0.0000000E+00;  0.0000000E+00;  4.0000000E+04;  0.0000000E+00;  4.0000000E+04; -4.4294685E-04;  0.0000000E+00;  3.8694045E-05;  2.0988877E+03;
 -2.9999999E-02;  9.9999998E-03; -3.9999999E-02;1586;  0.0000000E+00;  0.0000000E+00;  0.0000000E+00;  1.0074728E+03;  1.0000000E-01;  6.1911333E+03;0;  0.0000000E+00;  0.0000000E+00;  0.0000000E+00;0; -4.0509776E-04;  4.0000000E+04;  0.0000000E+00;  0.0000000E+00;  4.0000000E+04;  0.0000000E+00;  4.0000000E+04; -4.3516877E-04;  0.0000000E+00;  3.0071009E-05;  2.1350842E+03;
 -2.9999999E-02;  9.9999998E-03; -2.9999999E-02;1587;  0.0000000E+00;  0.0000000E+00;  0.0000000E+00;  1.0074390E+03;  1.0000000E-01;  6.1630850E+03;0;  0.0000000E+00;  0.0000000E+00;  0.0000000E+00;0; -4.1095278E-04;  4.0000000E+04;  0.0000000E+00;  0.0000000E+00;  4.0000000E+04;  0.0000000E+00;  4.0000000E+04; -4.3740694E-04;  0.0000000E+00;  2.6454163E-05;  2.1612178E+03;
 -2.9999999E-02;  9.9999998E-03; -2.0000000E-02;1588;  0.0000000E+00;  0.0000000E+00;  0.0000000E+00;  1.0074145E+03;  1.0000000E-01;  6.1427397E+03;0;  0.0000000E+00;  0.0000000E+00;  0.0000000E+00;0; -4.1815700E-04;  4.0000000E+04;  0.0000000E+00;  0.0000000E+00;  4.0000000E+04;  0.0000000E+00;  4.0000000E+04; -4.4398554E-04;  0.0000000E+00;  2.5828534E-05;  2.1782646E+03;
 -2.9999999E-02;  9.9999998E-03; -9.9999998E-03;1589;  0.0000000E+00;  0.0000000E+00;  0.0000000E+00;  1.0073998E+03;  1.0000000E-01;  6.1305923E+03;0;  0.0000000E+00;  0.0000000E+00;  0.0000000E+00;0; -4.2375186E-04;  4.0000000E+04;  0.0000000E+00;  0.0000000E+00;  4.0000000E+04;  0.0000000E+00;  4.0000000E+04; -4.5008489E-04;  0.0000000E+00;  2.6333029E-05;  2.1876917E+03;
 -2.9999999E-02;  9.9999998E-03;  0.0000000E+00;1590;  0.0000000E+00;  0.0000000E+00;  0.0000000E+00;  1.0073953E+03;  1.0000000E-01;  6.1268389E+03;0;  0.0000000E+00;  0.0000000E+00;  0.0000000E+00;0; -4.2583534E-04;  4.0000000E+04;  0.0000000E+00;  0.0000000E+00;  4.0000000E+04;  0.0000000E+00;  4.0000000E+04; -4.5249314E-04;  0.0000000E+00;  2.6657797E-05;  2.1906677E+03;
 -2.9999999E-02;  9.9999998E-03;  9.9999998E-03;1591;  0.0000000E+00;  0.0000000E+00;  0.0000000E+00;  1.0073998E+03;  1.0000000E-01;  6.1305923E+03;0;  0.0000000E+00;  0.0000000E+00;  0.0000000E+00;0; -4.2375750E-04;  4.0000000E+04;  0.0000000E+00;  0.0000000E+00;  4.0000000E+04;  0.0000000E+00;  4.0000000E+04; -4.5008870E-04;  0.0000000E+00;  2.6331192E-05;  2.1876934E+03;
 -2.9999999E-02;  9.9999998E-03;  2.0000000E-02;1592;  0.0000000E+00;  0.0000000E+00;  0.0000000E+00;  1.0074145E+03;  1.0000000E-01;  6.1427397E+03;0;  0.0000000E+00;  0.0000000E+00;  0.0000000E+00;0; -4.1816622E-04;  4.0000000E+04;  0.0000000E+00;  0.0000000E+00;  4.0000000E+04;  0.0000000E+00;  4.0000000E+04; -4.4399122E-04;  0.0000000E+00;  2.5824991E-05;  2.1782700E+03;
 -2.9999999E-02;  9.9999998E-03;  2.9999999E-02;1593;  0.0000000E+00;  0.0000000E+00;  0.0000000E+00;  1.0074390E+03;  1.0000000E-01;  6.1630850E+03;0;  0.0000000E+00;  0.0000000E+00;  0.0000000E+00;0; -4.1096730E-04;  4.0000000E+04;  0.0000000E+00;  0.0000000E+00;  4.0000000E+04;  0.0000000E+00;  4.0000000E+04; -4.3741646E-04;  0.0000000E+00;  2.6449145E-05;  2.1612241E+03;
 -2.9999999E-02;  9.9999998E-03;  3.9999999E-02;1594;  0.0000000E+00;  0.0000000E+00;  0.0000000E+00;  1.0074728E+03;  1.0000000E-01;  6.1911333E+03;0;  0.0000000E+00;  0.0000000E+00;  0.0000000E+00;0; -4.0511860E-04;  4.0000000E+04;  0.0000000E+00;  0.0000000E+00;  4.0000000E+04;  0.0000000E+00;  4.0000000E+04; -4.3518347E-04;  0.0000000E+00;  3.0064870E-05;  2.1350920E+03;
 -2.9999999E-02;  9.9999998E-03;  5.0000001E-02;1595;  0.0000000E+00;  0.0000000E+00;  0.0000000E+00;  1.0075175E+03;  1.0000000E-01;  6.2281694E+03;0;  0.0000000E+00;  0.0000000E+00;  0.0000000E+00;0; -4.0427651E-04;  4.0000000E+04;  0.0000000E+00;  0.0000000E+00;  4.0000000E+04;  0.0000000E+00;  4.0000000E+04; -4.4296370E-04;  0.0000000E+00;  3.8687205E-05;  2.0988989E+03;
 -2.9999999E-02;  9.9999998E-03;  5.9999999E-02;1596;  0.0000000E+00;  0.0000000E+00;  0.0000000E+00;  1.0075688E+03;  1.0000000E-01;  6.2706377E+03;0;  0.0000000E+00;  0.0000000E+00;  0.0000000E+00;0; -4.1224621E-04;  4.0000000E+04;  0.0000000E+00;  0.0000000E+00;  4.0000000E+04;  0.0000000E+00;  4.0000000E+04; -4.6630731E-04;  0.0000000E+00;  5.4061104E-05;  2.0526262E+03;
 -2.0000000E-02;  9.9999998E-03; -1.0000000E-01;1671;  0.0000000E+00;  0.0000000E+00;  0.0000000E+00;  1.0103208E+03;  1.0000000E-01;  8.5505732E+03;0;  0.0000000E+00;  0.0000000E+00;  0.0000000E+00;0; -2.4569891E-03;  4.0000000E+04;  0.0000000E+00;  0.0000000E+00;  4.0000000E+04;  0.0000000E+00;  4.0000000E+04; -2.6944580E-03;  0.0000000E+00;  2.3746895E-04;  1.8758879E+03;
 -2.0000000E-02;  9.9999998E-03; -9.0000004E-02;1672;  0.0000000E+00;  0.0000000E+00;  0.0000000E+00;  1.0102604E+03;  1.0000000E-01;  8.5005986E+03;0;  0.0000000E+00;  0.0000000E+00;  0.0000000E+00;0; -2.3972688E-03;  4.0000000E+04;  0.0000000E+00;  0.0000000E+00;  4.0000000E+04;  0.0000000E+00;  4.0000000E+04; -2.5836595E-03;  0.0000000E+00;  1.8639062E-04;  1.9365347E+03;
 -2.0000000E-02;  9.9999998E-03; -7.9999998E-02;1673;  0.0000000E+00;  0.0000000E+00;  0.0000000E+00;  1.0101838E+03;  1.0000000E-01;  8.4370947E+03;0;  0.0000000E+00;  0.0000000E+00;  0.0000000E+00;0; -2.3488600E-03;  4.0000000E+04;  0.0000000E+00;  0.0000000E+00;  4.0000000E+04;  0.0000000E+00;  4.0000000E+04; -2.4901815E-03;  0.0000000E+00;  1.4132149E-04;  2.0025421E+03;
 -2.0000000E-02;  9.9999998E-03; -7.0000000E-02;1674;  0.0000000E+00;  0.0000000E+00;  0.0000000E+00;  1.0101042E+03;  1.0000000E-01;  8.3711211E+03;0;  0.0000000E+00;  0.0000000E+00;  0.0000000E+00;0; -2.3153904E-03;  4.0000000E+04;  0.0000000E+00;  0.0000000E+00;  4.0000000E+04;  0.0000000E+00;  4.0000000E+04; -2.4195292E-03;  0.0000000E+00;  1.0413874E-04;  2.0681855E+03;
 -2.0000000E-02;  9.9999998E-03; -5.9999999E-02;1675;  0.0000000E+00;  0.0000000E+00;  0.0000000E+00;  1.0100280E+03;  1.0000000E-01;  8.3080117E+03;0;  0.0000000E+00;  0.0000000E+00;  0.0000000E+00;0; -2.2971206E-03;  4.0000000E+04;  0.0000000E+00;  0.0000000E+00;  4.0000000E+04;  0.0000000E+00;  4.0000000E+04; -2.3729610E-03;  0.0000000E+00;  7.5840398E-05;  2.1288655E+03;
 -2.0000000E-02;  9.9999998E-03; -5.0000001E-02;1676;  0.0000000E+00;  0.0000000E+00;  0.0000000E+00;  1.0099639E+03;  1.0000000E-01;  8.2548779E+03;0;  0.0000000E+00;  0.0000000E+00;  0.0000000E+00;0; -2.2917930E-03;  4.0000000E+04;  0.0000000E+00;  0.0000000E+00;  4.0000000E+04;  0.0000000E+00;  4.0000000E+04; -2.3481962E-03;  0.0000000E+00;  5.6403118E-05;  2.1811541E+03;
 -2.0000000E-02;  9.9999998E-03; -3.9999999E-02;1677;  0.0000000E+00;  0.0000000E+00;  0.0000000E+00;  1.0099084E+03;  1.0000000E-01;  8.2089531E+03;0;  0.0000000E+00;  0.0000000E+00;  0.0000000E+00;0; -2.2956145E-03;  4.0000000E+04;  0.0000000E+00;  0.0000000E+00;  4.0000000E+04;  0.0000000E+00;  4.0000000E+04; -2.3404118E-03;  0.0000000E+00;  4.4797231E-05;  2.2229714E+03;
 -2.0000000E-02;  9.9999998E-03; -2.9999999E-02;1678;  0.0000000E+00;  0.0000000E+00;  0.0000000E+00;  1.0098682E+03;  1.0000000E-01;  8.1755713E+03;0;  0.0000000E+00;  0.0000000E+00;  0.0000000E+00;0; -2.3042702E-03;  4.0000000E+04;  0.0000000E+00;  0.0000000E+00;  4.0000000E+04;  0.0000000E+00;  4.0000000E+04; -2.3434754E-03;  0.0000000E+00;  3.9205086E-05;  2.2537803E+03;
 -2.0000000E-02;  9.9999998E-03; -2.0000000E-02;1679;  0.0000000E+00;  0.0000000E+00;  0.0000000E+00;  1.0098384E+03;  1.0000000E-01;  8.1508804E+03;0;  0.0000000E+00;  0.0000000E+00;  0.0000000E+00;0; -2.3137101E-03;  4.0000000E+04;  0.0000000E+00;  0.0000000E+00;  4.0000000E+04;  0.0000000E+00;  4.0000000E+04; -2.3511322E-03;  0.0000000E+00;  3.7422094E-05;  2.2742314E+03;
 -2.0000000E-02;  9.9999998E-03; -9.9999998E-03;1680;  0.0000000E+00;  0.0000000E+00;  0.0000000E+00;  1.0098214E+03;  1.0000000E-01;  8.1368564E+03;0;  0.0000000E+00;  0.0000000E+00;  0.0000000E+00;0; -2.3207308E-03;  4.0000000E+04;  0.0000000E+00;  0.0000000E+00;  4.0000000E+04;  0.0000000E+00;  4.0000000E+04; -2.3580873E-03;  0.0000000E+00;  3.7356585E-05;  2.2856917E+03;
 -2.0000000E-02;  9.9999998E-03;  0.0000000E+00;1681;  0.0000000E+00;  0.0000000E+00;  0.0000000E+00;  1.0098151E+03;  1.0000000E-01;  8.1316221E+03;0;  0.0000000E+00;  0.0000000E+00;  0.0000000E+00;0; -2.3232971E-03;  4.0000000E+04;  0.0000000E+00;  0.0000000E+00;  4.0000000E+04;  0.0000000E+00;  4.0000000E+04; -2.3608117E-03;  0.0000000E+00;  3.7514583E-05;  2.2893376E+03;
 -2.0000000E-02;  9.9999998E-03;  9.9999998E-03;1682;  0.0000000E+00;  0.0000000E+00;  0.0000000E+00;  1.0098214E+03;  1.0000000E-01;  8.1368564E+03;0;  0.0000000E+00;  0.0000000E+00;  0.0000000E+00;0; -2.3207376E-03;  4.0000000E+04;  0.0000000E+00;  0.0000000E+00;  4.0000000E+04;  0.0000000E+00;  4.0000000E+04; -2.3580918E-03;  0.0000000E+00;  3.7354250E-05;  2.2856958E+03;
 -2.0000000E-02;  9.9999998E-03;  2.0000000E-02;1683;  0.0000000E+00;  0.0000000E+00;  0.0000000E+00;  1.0098384E+03;  1.0000000E-01;  8.1508804E+03;0;  0.0000000E+00;  0.0000000E+00;  0.0000000E+00;0; -2.3137203E-03;  4.0000000E+04;  0.0000000E+00;  0.0000000E+00;  4.0000000E+04;  0.0000000E+00;  4.0000000E+04; -2.3511380E-03;  0.0000000E+00;  3.7417638E-05;  2.2742366E+03;
 -2.0000000E-02;  9.9999998E-03;  2.9999999E-02;1684;  0.0000000E+00;  0.0000000E+00;  0.0000000E+00;  1.0098680E+03;  1.0000000E-01;  8.1754727E+03;0;  0.0000000E+00;  0.0000000E+00;  0.0000000E+00;0; -2.3042862E-03;  4.0000000E+04;  0.0000000E+00;  0.0000000E+00;  4.0000000E+04;  0.0000000E+00;  4.0000000E+04; -2.3434849E-03;  0.0000000E+00;  3.9198771E-05;  2.2537913E+03;
 -2.0000000E-02;  9.9999998E-03;  3.9999999E-02;1685;  0.0000000E+00;  0.0000000E+00;  0.0000000E+00;  1.0099083E+03;  1.0000000E-01;  8.2088545E+03;0;  0.0000000E+00;  0.0000000E+00;  0.0000000E+00;0; -2.2956347E-03;  4.0000000E+04;  0.0000000E+00;  0.0000000E+00;  4.0000000E+04;  0.0000000E+00;  4.0000000E+04; -2.3404241E-03;  0.0000000E+00;  4.4789464E-05;  2.2229758E+03;
 -2.0000000E-02;  9.9999998E-03;  5.0000001E-02;1686;  0.0000000E+00;  0.0000000E+00;  0.0000000E+00;  1.0099639E+03;  1.0000000E-01;  8.2548779E+03;0;  0.0000000E+00;  0.0000000E+00;  0.0000000E+00;0; -2.2918186E-03;  4.0000000E+04;  0.0000000E+00;  0.0000000E+00;  4.0000000E+04;  0.0000000E+00;  4.0000000E+04; -2.3482130E-03;  0.0000000E+00;  5.6394379E-05;  2.1811633E+03;
 -2.0000000E-02;  9.9999998E-03;  5.9999999E-02;1687;  0.0000000E+00;  0.0000000E+00;  0.0000000E+00;  1.0100280E+03;  1.0000000E-01;  8.3080117E+03;0;  0.0000000E+00;  0.0000000E+00;  0.0000000E+00;0; -2.2971546E-03;  4.0000000E+04;  0.0000000E+00;  0.0000000E+00;  4.0000000E+04;  0.0000000E+00;  4.0000000E+04; -2.3729859E-03;  0.0000000E+00;  7.5831318E-05;  2.1288708E+03;
 -9.9999998E-03;  9.9999998E-03; -1.0000000E-01;1762;  0.0000000E+00;  0.0000000E+00;  0.0000000E+00;  1.0130317E+03;  1.0000000E-01;  1.0796534E+04;0;  0.0000000E+00;  0.0000000E+00;  0.0000000E+00;0; -4.8587755E-03;  4.0000000E+04;  0.0000000E+00;  0.0000000E+00;  4.0000000E+04;  0.0000000E+00;  4.0000000E+04; -5.1419795E-03;  0.0000000E+00;  2.8320402E-04;  1.8180363E+03;
 -9.9999998E-03;  9.9999998E-03; -9.0000004E-02;1763;  0.0000000E+00;  0.0000000E+00;  0.0000000E+00;  1.0129486E+03;  1.0000000E-01;  1.0727696E+04;0;  0.0000000E+00;  0.0000000E+00;  0.0000000E+00;0; -4.7997581E-03;  4.0000000E+04;  0.0000000E+00;  0.0000000E+00;  4.0000000E+04;  0.0000000E+00;  4.0000000E+04; -5.0269486E-03;  0.0000000E+00;  2.2719055E-04;  1.8757083E+03;
 -9.9999998E-03;  9.9999998E-03; -7.9999998E-02;1764;  0.0000000E+00;  0.0000000E+00;  0.0000000E+00;  1.0128524E+03;  1.0000000E-01;  1.0647995E+04;0;  0.0000000E+00;  0.0000000E+00;  0.0000000E+00;0; -4.7529377E-03;  4.0000000E+04;  0.0000000E+00;  0.0000000E+00;  4.0000000E+04;  0.0000000E+00;  4.0000000E+04; -4.9298126E-03;  0.0000000E+00;  1.7687495E-04;  1.9399955E+03;
 -9.9999998E-03;  9.9999998E-03; -7.0000000E-02;1765;  0.0000000E+00;  0.0000000E+00;  0.0000000E+00;  1.0127504E+03;  1.0000000E-01;  1.0563454E+04;0;  0.0000000E+00;  0.0000000E+00;  0.0000000E+00;0; -4.7221240E-03;  4.0000000E+04;  0.0000000E+00;  0.0000000E+00;  4.0000000E+04;  0.0000000E+00;  4.0000000E+04; -4.8565404E-03;  0.0000000E+00;  1.3441652E-04;  2.0058251E+03;
 -9.9999998E-03;  9.9999998E-03; -5.9999999E-02;1766;  0.0000000E+00;  0.0000000E+00;  0.0000000E+00;  1.0126586E+03;  1.0000000E-01;  1.0487407E+04;0;  0.0000000E+00;  0.0000000E+00;  0.0000000E+00;0; -4.7073173E-03;  4.0000000E+04;  0.0000000E+00;  0.0000000E+00;  4.0000000E+04;  0.0000000E+00;  4.0000000E+04; -4.8085069E-03;  0.0000000E+00;  1.0118939E-04;  2.0686641E+03;
 -9.9999998E-03;  9.9999998E-03; -5.0000001E-02;1767;  0.0000000E+00;  0.0000000E+00;  0.0000000E+00;  1.0125786E+03;  1.0000000E-01;  1.0421138E+04;0;  0.0000000E+00;  0.0000000E+00;  0.0000000E+00;0; -4.7057583E-03;  4.0000000E+04;  0.0000000E+00;  0.0000000E+00;  4.0000000E+04;  0.0000000E+00;  4.0000000E+04; -4.7832723E-03;  0.0000000E+00;  7.7514065E-05;  2.1246055E+03;
 -9.9999998E-03;  9.9999998E-03; -3.9999999E-02;1768;  0.0000000E+00;  0.0000000E+00;  0.0000000E+00;  1.0125131E+03;  1.0000000E-01;  1.0366917E+04;0;  0.0000000E+00;  0.0000000E+00;  0.0000000E+00;0; -4.7131628E-03;  4.0000000E+04;  0.0000000E+00;  0.0000000E+00;  4.0000000E+04;  0.0000000E+00;  4.0000000E+04; -4.7757411E-03;  0.0000000E+00;  6.2578561E-05;  2.1708396E+03;
 -9.9999998E-03;  9.9999998E-03; -2.9999999E-02;1769;  0.0000000E+00;  0.0000000E+00;  0.0000000E+00;  1.0124647E+03;  1.0000000E-01;  1.0326721E+04;0;  0.0000000E+00;  0.0000000E+00;  0.0000000E+00;0; -4.7248364E-03;  4.0000000E+04;  0.0000000E+00;  0.0000000E+00;  4.0000000E+04;  0.0000000E+00;  4.0000000E+04; -4.7794529E-03;  0.0000000E+00;  5.4616579E-05;  2.2059729E+03;
 -9.9999998E-03;  9.9999998E-03; -2.0000000E-02;1770;  0.0000000E+00;  0.0000000E+00;  0.0000000E+00;  1.0124291E+03;  1.0000000E-01;  1.0297289E+04;0;  0.0000000E+00;  0.0000000E+00;  0.0000000E+00;0; -4.7365068E-03;  4.0000000E+04;  0.0000000E+00;  0.0000000E+00;  4.0000000E+04;  0.0000000E+00;  4.0000000E+04; -4.7878386E-03;  0.0000000E+00;  5.1331779E-05;  2.2299395E+03;
 -9.9999998E-03;  9.9999998E-03; -9.9999998E-03;1771;  0.0000000E+00;  0.0000000E+00;  0.0000000E+00;  1.0124086E+03;  1.0000000E-01;  1.0280302E+04;0;  0.0000000E+00;  0.0000000E+00;  0.0000000E+00;0; -4.7448697E-03;  4.0000000E+04;  0.0000000E+00;  0.0000000E+00;  4.0000000E+04;  0.0000000E+00;  4.0000000E+04; -4.7953362E-03;  0.0000000E+00;  5.0466679E-05;  2.2436609E+03;
 -9.9999998E-03;  9.9999998E-03;  0.0000000E+00;1772;  0.0000000E+00;  0.0000000E+00;  0.0000000E+00;  1.0124023E+03;  1.0000000E-01;  1.0275067E+04;0;  0.0000000E+00;  0.0000000E+00;  0.0000000E+00;0; -4.7478876E-03;  4.0000000E+04;  0.0000000E+00;  0.0000000E+00;  4.0000000E+04;  0.0000000E+00;  4.0000000E+04; -4.7982656E-03;  0.0000000E+00;  5.0377814E-05;  2.2480928E+03;
 -9.9999998E-03;  9.9999998E-03;  9.9999998E-03;1773;  0.0000000E+00;  0.0000000E+00;  0.0000000E+00;  1.0124086E+03;  1.0000000E-01;  1.0280302E+04;0;  0.0000000E+00;  0.0000000E+00;  0.0000000E+00;0; -4.7448720E-03;  4.0000000E+04;  0.0000000E+00;  0.0000000E+00;  4.0000000E+04;  0.0000000E+00;  4.0000000E+04; -4.7953357E-03;  0.0000000E+00;  5.0463888E-05;  2.2436670E+03;
 -9.9999998E-03;  9.9999998E-03;  2.0000000E-02;1774;  0.0000000E+00;  0.0000000E+00;  0.0000000E+00;  1.0124291E+03;  1.0000000E-01;  1.0297289E+04;0;  0.0000000E+00;  0.0000000E+00;  0.0000000E+00;0; -4.7365138E-03;  4.0000000E+04;  0.0000000E+00;  0.0000000E+00;  4.0000000E+04;  0.0000000E+00;  4.0000000E+04; -4.7878399E-03;  0.0000000E+00;  5.1326289E-05;  2.2299502E+03;
 -9.9999998E-03;  9.9999998E-03;  2.9999999E-02;1775;  0.0000000E+00;  0.0000000E+00;  0.0000000E+00;  1.0124647E+03;  1.0000000E-01;  1.0326721E+04;0;  0.0000000E+00;  0.0000000E+00;  0.0000000E+00;0; -4.7248551E-03;  4.0000000E+04;  0.0000000E+00;  0.0000000E+00;  4.0000000E+04;  0.0000000E+00;  4.0000000E+04; -4.7794636E-03;  0.0000000E+00;  5.4608787E-05;  2.2059841E+03;
 -9.9999998E-03;  9.9999998E-03;  3.9999999E-02;1776;  0.0000000E+00;  0.0000000E+00;  0.0000000E+00;  1.0125131E+03;  1.0000000E-01;  1.0366917E+04;0;  0.0000000E+00;  0.0000000E+00;  0.0000000E+00;0; -4.7131893E-03;  4.0000000E+04;  0.0000000E+00;  0.0000000E+00;  4.0000000E+04;  0.0000000E+00;  4.0000000E+04; -4.7757584E-03;  0.0000000E+00;  6.2568943E-05;  2.1708518E+03;
 -9.9999998E-03;  9.9999998E-03;  5.0000001E-02;1777;  0.0000000E+00;  0.0000000E+00;  0.0000000E+00;  1.0125786E+03;  1.0000000E-01;  1.0421138E+04;0;  0.0000000E+00;  0.0000000E+00;  0.0000000E+00;0; -4.7057848E-03;  4.0000000E+04;  0.0000000E+00;  0.0000000E+00;  4.0000000E+04;  0.0000000E+00;  4.0000000E+04; -4.7832881E-03;  0.0000000E+00;  7.7503319E-05;  2.1246133E+03;
 -9.9999998E-03;  9.9999998E-03;  5.9999999E-02;1778;  0.0000000E+00;  0.0000000E+00;  0.0000000E+00;  1.0126586E+03;  1.0000000E-01;  1.0487407E+04;0;  0.0000000E+00;  0.0000000E+00;  0.0000000E+00;0; -4.7073564E-03;  4.0000000E+04;  0.0000000E+00;  0.0000000E+00;  4.0000000E+04;  0.0000000E+00;  4.0000000E+04; -4.8085344E-03;  0.0000000E+00;  1.0117806E-04;  2.0686694E+03;
 -1.9000000E-01;  9.9999998E-03;  7.0000000E-02;141;  0.0000000E+00;  0.0000000E+00;  0.0000000E+00;  1.0000000E+03;  1.0000000E-01;  0.0000000E+00;0;  0.0000000E+00;  0.0000000E+00;  0.0000000E+00;0;  0.0000000E+00;  4.0000000E+04;  0.0000000E+00;  0.0000000E+00;  4.0000000E+04;  0.0000000E+00;  4.0000000E+04;  0.0000000E+00;  0.0000000E+00;  0.0000000E+00;  0.0000000E+00;
 -1.9000000E-01;  9.9999998E-03;  7.9999998E-02;142;  0.0000000E+00;  0.0000000E+00;  0.0000000E+00;  1.0000000E+03;  1.0000000E-01;  0.0000000E+00;0;  0.0000000E+00;  0.0000000E+00;  0.0000000E+00;0;  0.0000000E+00;  4.0000000E+04;  0.0000000E+00;  0.0000000E+00;  4.0000000E+04;  0.0000000E+00;  4.0000000E+04;  0.0000000E+00;  0.0000000E+00;  0.0000000E+00;  0.0000000E+00;
 -1.9000000E-01;  9.9999998E-03;  9.0000004E-02;143;  0.0000000E+00;  0.0000000E+00;  0.0000000E+00;  1.0000000E+03;  1.0000000E-01;  0.0000000E+00;0;  0.0000000E+00;  0.0000000E+00;  0.0000000E+00;0;  0.0000000E+00;  4.0000000E+04;  0.0000000E+00;  0.0000000E+00;  4.0000000E+04;  0.0000000E+00;  4.0000000E+04;  0.0000000E+00;  0.0000000E+00;  0.0000000E+00;  0.0000000E+00;
 -1.9000000E-01;  9.9999998E-03;  1.0000000E-01;144;  0.0000000E+00;  0.0000000E+00;  0.0000000E+00;  1.0000000E+03;  1.0000000E-01;  0.0000000E+00;0;  0.0000000E+00;  0.0000000E+00;  0.0000000E+00;0;  0.0000000E+00;  4.0000000E+04;  0.0000000E+00;  0.0000000E+00;  4.0000000E+04;  0.0000000E+00;  4.0000000E+04;  0.0000000E+00;  0.0000000E+00;  0.0000000E+00;  0.0000000E+00;
 -1.9000000E-01;  9.9999998E-03;  1.1000000E-01;145;  0.0000000E+00;  0.0000000E+00;  0.0000000E+00;  1.0000000E+03;  1.0000000E-01;  0.0000000E+00;0;  0.0000000E+00;  0.0000000E+00;  0.0000000E+00;0;  0.0000000E+00;  4.0000000E+04;  0.0000000E+00;  0.0000000E+00;  4.0000000E+04;  0.0000000E+00;  4.0000000E+04;  0.0000000E+00;  0.0000000E+00;  0.0000000E+00;  0.0000000E+00;
 -1.9000000E-01;  9.9999998E-03;  1.2000000E-01;146;  0.0000000E+00;  0.0000000E+00;  0.0000000E+00;  1.0000000E+03;  1.0000000E-01;  0.0000000E+00;0;  0.0000000E+00;  0.0000000E+00;  0.0000000E+00;0;  0.0000000E+00;  4.0000000E+04;  0.0000000E+00;  0.0000000E+00;  4.0000000E+04;  0.0000000E+00;  4.0000000E+04;  0.0000000E+00;  0.0000000E+00;  0.0000000E+00;  0.0000000E+00;
 -1.9000000E-01;  9.9999998E-03;  1.3000000E-01;147;  0.0000000E+00;  0.0000000E+00;  0.0000000E+00;  1.0000000E+03;  1.0000000E-01;  0.0000000E+00;0;  0.0000000E+00;  0.0000000E+00;  0.0000000E+00;0;  0.0000000E+00;  4.0000000E+04;  0.0000000E+00;  0.0000000E+00;  4.0000000E+04;  0.0000000E+00;  4.0000000E+04;  0.0000000E+00;  0.0000000E+00;  0.0000000E+00;  0.0000000E+00;
 -1.9000000E-01;  9.9999998E-03;  1.4000000E-01;148;  0.0000000E+00;  0.0000000E+00;  0.0000000E+00;  1.0000000E+03;  1.0000000E-01;  0.0000000E+00;0;  0.0000000E+00;  0.0000000E+00;  0.0000000E+00;0;  0.0000000E+00;  4.0000000E+04;  0.0000000E+00;  0.0000000E+00;  4.0000000E+04;  0.0000000E+00;  4.0000000E+04;  0.0000000E+00;  0.0000000E+00;  0.0000000E+00;  0.0000000E+00;
 -1.9000000E-01;  9.9999998E-03;  1.5000001E-01;149;  0.0000000E+00;  0.0000000E+00;  0.0000000E+00;  1.0000000E+03;  1.0000000E-01;  0.0000000E+00;0;  0.0000000E+00;  0.0000000E+00;  0.0000000E+00;0;  0.0000000E+00;  4.0000000E+04;  0.0000000E+00;  0.0000000E+00;  4.0000000E+04;  0.0000000E+00;  4.0000000E+04;  0.0000000E+00;  0.0000000E+00;  0.0000000E+00;  0.0000000E+00;
 -1.9000000E-01;  9.9999998E-03;  1.6000000E-01;150;  0.0000000E+00;  0.0000000E+00;  0.0000000E+00;  1.0000000E+03;  1.0000000E-01;  0.0000000E+00;0;  0.0000000E+00;  0.0000000E+00;  0.0000000E+00;0;  0.0000000E+00;  4.0000000E+04;  0.0000000E+00;  0.0000000E+00;  4.0000000E+04;  0.0000000E+00;  4.0000000E+04;  0.0000000E+00;  0.0000000E+00;  0.0000000E+00;  0.0000000E+00;
 -1.9000000E-01;  9.9999998E-03;  1.7000000E-01;151;  0.0000000E+00;  0.0000000E+00;  0.0000000E+00;  1.0000000E+03;  1.0000000E-01;  0.0000000E+00;0;  0.0000000E+00;  0.0000000E+00;  0.0000000E+00;0;  0.0000000E+00;  4.0000000E+04;  0.0000000E+00;  0.0000000E+00;  4.0000000E+04;  0.0000000E+00;  4.0000000E+04;  0.0000000E+00;  0.0000000E+00;  0.0000000E+00;  0.0000000E+00;
 -1.9000000E-01;  9.9999998E-03;  1.8000001E-01;152;  0.0000000E+00;  0.0000000E+00;  0.0000000E+00;  1.0000000E+03;  1.0000000E-01;  0.0000000E+00;0;  0.0000000E+00;  0.0000000E+00;  0.0000000E+00;0;  0.0000000E+00;  4.0000000E+04;  0.0000000E+00;  0.0000000E+00;  4.0000000E+04;  0.0000000E+00;  4.0000000E+04;  0.0000000E+00;  0.0000000E+00;  0.0000000E+00;  0.0000000E+00;
 -1.9000000E-01;  9.9999998E-03;  1.9000000E-01;153;  0.0000000E+00;  0.0000000E+00;  0.0000000E+00;  1.0000000E+03;  1.0000000E-01;  0.0000000E+00;0;  0.0000000E+00;  0.0000000E+00;  0.0000000E+00;0;  0.0000000E+00;  4.0000000E+04;  0.0000000E+00;  0.0000000E+00;  4.0000000E+04;  0.0000000E+00;  4.0000000E+04;  0.0000000E+00;  0.0000000E+00;  0.0000000E+00;  0.0000000E+00;
 -1.9000000E-01;  9.9999998E-03;  2.0000000E-01;154;  0.0000000E+00;  0.0000000E+00;  0.0000000E+00;  1.0000000E+03;  1.0000000E-01;  0.0000000E+00;0;  0.0000000E+00;  0.0000000E+00;  0.0000000E+00;0;  0.0000000E+00;  4.0000000E+04;  0.0000000E+00;  0.0000000E+00;  4.0000000E+04;  0.0000000E+00;  4.0000000E+04;  0.0000000E+00;  0.0000000E+00;  0.0000000E+00;  0.0000000E+00;
 -1.9000000E-01;  9.9999998E-03;  2.0999999E-01;155;  0.0000000E+00;  0.0000000E+00;  0.0000000E+00;  1.0000000E+03;  1.0000000E-01;  0.0000000E+00;0;  0.0000000E+00;  0.0000000E+00;  0.0000000E+00;0;  0.0000000E+00;  4.0000000E+04;  0.0000000E+00;  0.0000000E+00;  4.0000000E+04;  0.0000000E+00;  4.0000000E+04;  0.0000000E+00;  0.0000000E+00;  0.0000000E+00;  0.0000000E+00;
 -1.9000000E-01;  9.9999998E-03;  2.2000000E-01;156;  0.0000000E+00;  0.0000000E+00;  0.0000000E+00;  1.0000000E+03;  1.0000000E-01;  0.0000000E+00;0;  0.0000000E+00;  0.0000000E+00;  0.0000000E+00;0;  0.0000000E+00;  4.0000000E+04;  0.0000000E+00;  0.0000000E+00;  4.0000000E+04;  0.0000000E+00;  4.0000000E+04;  0.0000000E+00;  0.0000000E+00;  0.0000000E+00;  0.0000000E+00;
 -1.9000000E-01;  9.9999998E-03;  2.3000000E-01;157;  0.0000000E+00;  0.0000000E+00;  0.0000000E+00;  1.0000000E+03;  1.0000000E-01;  0.0000000E+00;0;  0.0000000E+00;  0.0000000E+00;  0.0000000E+00;0;  0.0000000E+00;  4.0000000E+04;  0.0000000E+00;  0.0000000E+00;  4.0000000E+04;  0.0000000E+00;  4.0000000E+04;  0.0000000E+00;  0.0000000E+00;  0.0000000E+00;  0.0000000E+00;
 -1.8000001E-01;  9.9999998E-03;  7.0000000E-02;232;  0.0000000E+00;  0.0000000E+00;  0.0000000E+00;  1.0000000E+03;  1.0000000E-01;  0.0000000E+00;0;  0.0000000E+00;  0.0000000E+00;  0.0000000E+00;0;  0.0000000E+00;  4.0000000E+04;  0.0000000E+00;  0.0000000E+00;  4.0000000E+04;  0.0000000E+00;  4.0000000E+04;  0.0000000E+00;  0.0000000E+00;  0.0000000E+00;  0.0000000E+00;
 -1.8000001E-01;  9.9999998E-03;  7.9999998E-02;233;  0.0000000E+00;  0.0000000E+00;  0.0000000E+00;  1.0000000E+03;  1.0000000E-01;  0.0000000E+00;0;  0.0000000E+00;  0.0000000E+00;  0.0000000E+00;0;  0.0000000E+00;  4.0000000E+04;  0.0000000E+00;  0.0000000E+00;  4.0000000E+04;  0.0000000E+00;  4.0000000E+04;  0.0000000E+00;  0.0000000E+00;  0.0000000E+00;  0.0000000E+00;
 -1.8000001E-01;  9.9999998E-03;  9.0000004E-02;234;  0.0000000E+00;  0.0000000E+00;  0.0000000E+00;  1.0000000E+03;  1.0000000E-01;  0.0000000E+00;0;  0.0000000E+00;  0.0000000E+00;  0.0000000E+00;0;  0.0000000E+00;  4.0000000E+04;  0.0000000E+00;  0.0000000E+00;  4.0000000E+04;  0.0000000E+00;  4.0000000E+04;  0.0000000E+00;  0.0000000E+00;  0.0000000E+00;  0.0000000E+00;
 -1.8000001E-01;  9.9999998E-03;  1.0000000E-01;235;  0.0000000E+00;  0.0000000E+00;  0.0000000E+00;  1.0000000E+03;  1.0000000E-01;  0.0000000E+00;0;  0.0000000E+00;  0.0000000E+00;  0.0000000E+00;0;  0.0000000E+00;  4.0000000E+04;  0.0000000E+00;  0.0000000E+00;  4.0000000E+04;  0.0000000E+00;  4.0000000E+04;  0.0000000E+00;  0.0000000E+00;  0.0000000E+00;  0.0000000E+00;
 -1.8000001E-01;  9.9999998E-03;  1.1000000E-01;236;  0.0000000E+00;  0.0000000E+00;  0.0000000E+00;  1.0000000E+03;  1.0000000E-01;  0.0000000E+00;0;  0.0000000E+00;  0.0000000E+00;  0.0000000E+00;0;  0.0000000E+00;  4.0000000E+04;  0.0000000E+00;  0.0000000E+00;  4.0000000E+04;  0.0000000E+00;  4.0000000E+04;  0.0000000E+00;  0.0000000E+00;  0.0000000E+00;  0.0000000E+00;
 -1.8000001E-01;  9.9999998E-03;  1.2000000E-01;237;  0.0000000E+00;  0.0000000E+00;  0.0000000E+00;  1.0000000E+03;  1.0000000E-01;  0.0000000E+00;0;  0.0000000E+00;  0.0000000E+00;  0.0000000E+00;0;  0.0000000E+00;  4.0000000E+04;  0.0000000E+00;  0.0000000E+00;  4.0000000E+04;  0.0000000E+00;  4.0000000E+04;  0.0000000E+00;  0.0000000E+00;  0.0000000E+00;  0.0000000E+00;
 -1.8000001E-01;  9.9999998E-03;  1.3000000E-01;238;  0.0000000E+00;  0.0000000E+00;  0.0000000E+00;  1.0000000E+03;  1.0000000E-01;  0.0000000E+00;0;  0.0000000E+00;  0.0000000E+00;  0.0000000E+00;0;  0.0000000E+00;  4.0000000E+04;  0.0000000E+00;  0.0000000E+00;  4.0000000E+04;  0.0000000E+00;  4.0000000E+04;  0.0000000E+00;  0.0000000E+00;  0.0000000E+00;  0.0000000E+00;
 -1.8000001E-01;  9.9999998E-03;  1.4000000E-01;239;  0.0000000E+00;  0.0000000E+00;  0.0000000E+00;  1.0000000E+03;  1.0000000E-01;  0.0000000E+00;0;  0.0000000E+00;  0.0000000E+00;  0.0000000E+00;0;  0.0000000E+00;  4.0000000E+04;  0.0000000E+00;  0.0000000E+00;  4.0000000E+04;  0.0000000E+00;  4.0000000E+04;  0.0000000E+00;  0.0000000E+00;  0.0000000E+00;  0.0000000E+00;
 -1.8000001E-01;  9.9999998E-03;  1.5000001E-01;240;  0.0000000E+00;  0.0000000E+00;  0.0000000E+00;  1.0000000E+03;  1.0000000E-01;  0.0000000E+00;0;  0.0000000E+00;  0.0000000E+00;  0.0000000E+00;0;  0.0000000E+00;  4.0000000E+04;  0.0000000E+00;  0.0000000E+00;  4.0000000E+04;  0.0000000E+00;  4.0000000E+04;  0.0000000E+00;  0.0000000E+00;  0.0000000E+00;  0.0000000E+00;
 -1.8000001E-01;  9.9999998E-03;  1.6000000E-01;241;  0.0000000E+00;  0.0000000E+00;  0.0000000E+00;  1.0000000E+03;  1.0000000E-01;  0.0000000E+00;0;  0.0000000E+00;  0.0000000E+00;  0.0000000E+00;0;  0.0000000E+00;  4.0000000E+04;  0.0000000E+00;  0.0000000E+00;  4.0000000E+04;  0.0000000E+00;  4.0000000E+04;  0.0000000E+00;  0.0000000E+00;  0.0000000E+00;  0.0000000E+00;
 -1.8000001E-01;  9.9999998E-03;  1.7000000E-01;242;  0.0000000E+00;  0.0000000E+00;  0.0000000E+00;  1.0000000E+03;  1.0000000E-01;  0.0000000E+00;0;  0.0000000E+00;  0.0000000E+00;  0.0000000E+00;0;  0.0000000E+00;  4.0000000E+04;  0.0000000E+00;  0.0000000E+00;  4.0000000E+04;  0.0000000E+00;  4.0000000E+04;  0.0000000E+00;  0.0000000E+00;  0.0000000E+00;  0.0000000E+00;
 -1.8000001E-01;  9.9999998E-03;  1.8000001E-01;243;  0.0000000E+00;  0.0000000E+00;  0.0000000E+00;  1.0000000E+03;  1.0000000E-01;  0.0000000E+00;0;  0.0000000E+00;  0.0000000E+00;  0.0000000E+00;0;  0.0000000E+00;  4.0000000E+04;  0.0000000E+00;  0.0000000E+00;  4.0000000E+04;  0.0000000E+00;  4.0000000E+04;  0.0000000E+00;  0.0000000E+00;  0.0000000E+00;  0.0000000E+00;
 -1.8000001E-01;  9.9999998E-03;  1.9000000E-01;244;  0.0000000E+00;  0.0000000E+00;  0.0000000E+00;  1.0000000E+03;  1.0000000E-01;  0.0000000E+00;0;  0.0000000E+00;  0.0000000E+00;  0.0000000E+00;0;  0.0000000E+00;  4.0000000E+04;  0.0000000E+00;  0.0000000E+00;  4.0000000E+04;  0.0000000E+00;  4.0000000E+04;  0.0000000E+00;  0.0000000E+00;  0.0000000E+00;  0.0000000E+00;
 -1.8000001E-01;  9.9999998E-03;  2.0000000E-01;245;  0.0000000E+00;  0.0000000E+00;  0.0000000E+00;  1.0000000E+03;  1.0000000E-01;  0.0000000E+00;0;  0.0000000E+00;  0.0000000E+00;  0.0000000E+00;0;  0.0000000E+00;  4.0000000E+04;  0.0000000E+00;  0.0000000E+00;  4.0000000E+04;  0.0000000E+00;  4.0000000E+04;  0.0000000E+00;  0.0000000E+00;  0.0000000E+00;  0.0000000E+00;
 -1.8000001E-01;  9.9999998E-03;  2.0999999E-01;246;  0.0000000E+00;  0.0000000E+00;  0.0000000E+00;  1.0000000E+03;  1.0000000E-01;  0.0000000E+00;0;  0.0000000E+00;  0.0000000E+00;  0.0000000E+00;0;  0.0000000E+00;  4.0000000E+04;  0.0000000E+00;  0.0000000E+00;  4.0000000E+04;  0.0000000E+00;  4.0000000E+04;  0.0000000E+00;  0.0000000E+00;  0.0000000E+00;  0.0000000E+00;
 -1.8000001E-01;  9.9999998E-03;  2.2000000E-01;247;  0.0000000E+00;  0.0000000E+00;  0.0000000E+00;  1.0000000E+03;  1.0000000E-01;  0.0000000E+00;0;  0.0000000E+00;  0.0000000E+00;  0.0000000E+00;0;  0.0000000E+00;  4.0000000E+04;  0.0000000E+00;  0.0000000E+00;  4.0000000E+04;  0.0000000E+00;  4.0000000E+04;  0.0000000E+00;  0.0000000E+00;  0.0000000E+00;  0.0000000E+00;
 -1.8000001E-01;  9.9999998E-03;  2.3000000E-01;248;  0.0000000E+00;  0.0000000E+00;  0.0000000E+00;  1.0000000E+03;  1.0000000E-01;  0.0000000E+00;0;  0.0000000E+00;  0.0000000E+00;  0.0000000E+00;0;  0.0000000E+00;  4.0000000E+04;  0.0000000E+00;  0.0000000E+00;  4.0000000E+04;  0.0000000E+00;  4.0000000E+04;  0.0000000E+00;  0.0000000E+00;  0.0000000E+00;  0.0000000E+00;
 -1.7000000E-01;  9.9999998E-03;  7.0000000E-02;323;  0.0000000E+00;  0.0000000E+00;  0.0000000E+00;  1.0000000E+03;  1.0000000E-01;  0.0000000E+00;0;  0.0000000E+00;  0.0000000E+00;  0.0000000E+00;0;  0.0000000E+00;  4.0000000E+04;  0.0000000E+00;  0.0000000E+00;  4.0000000E+04;  0.0000000E+00;  4.0000000E+04;  0.0000000E+00;  0.0000000E+00;  0.0000000E+00;  2.0677076E-09;
 -1.7000000E-01;  9.9999998E-03;  7.9999998E-02;324;  0.0000000E+00;  0.0000000E+00;  0.0000000E+00;  1.0000000E+03;  1.0000000E-01;  0.0000000E+00;0;  0.0000000E+00;  0.0000000E+00;  0.0000000E+00;0;  0.0000000E+00;  4.0000000E+04;  0.0000000E+00;  0.0000000E+00;  4.0000000E+04;  0.0000000E+00;  4.0000000E+04;  0.0000000E+00;  0.0000000E+00;  0.0000000E+00;  2.0276110E-09;
 -1.7000000E-01;  9.9999998E-03;  9.0000004E-02;325;  0.0000000E+00;  0.0000000E+00;  0.0000000E+00;  1.0000000E+03;  1.0000000E-01;  0.0000000E+00;0;  0.0000000E+00;  0.0000000E+00;  0.0000000E+00;0;  0.0000000E+00;  4.0000000E+04;  0.0000000E+00;  0.0000000E+00;  4.0000000E+04;  0.0000000E+00;  4.0000000E+04;  0.0000000E+00;  0.0000000E+00;  0.0000000E+00;  1.9964661E-09;
 -1.7000000E-01;  9.9999998E-03;  1.0000000E-01;326;  0.0000000E+00;  0.0000000E+00;  0.0000000E+00;  1.0000000E+03;  1.0000000E-01;  0.0000000E+00;0;  0.0000000E+00;  0.0000000E+00;  0.0000000E+00;0;  0.0000000E+00;  4.0000000E+04;  0.0000000E+00;  0.0000000E+00;  4.0000000E+04;  0.0000000E+00;  4.0000000E+04;  0.0000000E+00;  0.0000000E+00;  0.0000000E+00;  1.9806543E-09;
 -1.7000000E-01;  9.9999998E-03;  1.1000000E-01;327;  0.0000000E+00;  0.0000000E+00;  0.0000000E+00;  1.0000000E+03;  1.0000000E-01;  0.0000000E+00;0;  0.0000000E+00;  0.0000000E+00;  0.0000000E+00;0;  0.0000000E+00;  4.0000000E+04;  0.0000000E+00;  0.0000000E+00;  4.0000000E+04;  0.0000000E+00;  4.0000000E+04;  0.0000000E+00;  0.0000000E+00;  0.0000000E+00;  1.9613826E-09;
 -1.7000000E-01;  9.9999998E-03;  1.2000000E-01;328;  0.0000000E+00;  0.0000000E+00;  0.0000000E+00;  1.0000000E+03;  1.0000000E-01;  0.0000000E+00;0;  0.0000000E+00;  0.0000000E+00;  0.0000000E+00;0;  0.0000000E+00;  4.0000000E+04;  0.0000000E+00;  0.0000000E+00;  4.0000000E+04;  0.0000000E+00;  4.0000000E+04;  0.0000000E+00;  0.0000000E+00;  0.0000000E+00;  1.9547131E-09;
 -1.7000000E-01;  9.9999998E-03;  1.3000000E-01;329;  0.0000000E+00;  0.0000000E+00;  0.0000000E+00;  1.0000000E+03;  1.0000000E-01;  0.0000000E+00;0;  0.0000000E+00;  0.0000000E+00;  0.0000000E+00;0;  0.0000000E+00;  4.0000000E+04;  0.0000000E+00;  0.0000000E+00;  4.0000000E+04;  0.0000000E+00;  4.0000000E+04;  0.0000000E+00;  0.0000000E+00;  0.0000000E+00;  1.9304123E-09;
 -1.7000000E-01;  9.9999998E-03;  1.4000000E-01;330;  0.0000000E+00;  0.0000000E+00;  0.0000000E+00;  1.0000000E+03;  1.0000000E-01;  0.0000000E+00;0;  0.0000000E+00;  0.0000000E+00;  0.0000000E+00;0;  0.0000000E+00;  4.0000000E+04;  0.0000000E+00;  0.0000000E+00;  4.0000000E+04;  0.0000000E+00;  4.0000000E+04;  0.0000000E+00;  0.0000000E+00;  0.0000000E+00;  1.9071280E-09;
 -1.7000000E-01;  9.9999998E-03;  1.5000001E-01;331;  0.0000000E+00;  0.0000000E+00;  0.0000000E+00;  1.0000000E+03;  1.0000000E-01;  0.0000000E+00;0;  0.0000000E+00;  0.0000000E+00;  0.0000000E+00;0;  0.0000000E+00;  4.0000000E+04;  0.0000000E+00;  0.0000000E+00;  4.0000000E+04;  0.0000000E+00;  4.0000000E+04;  0.0000000E+00;  0.0000000E+00;  0.0000000E+00;  1.8279691E-09;
 -1.7000000E-01;  9.9999998E-03;  1.6000000E-01;332;  0.0000000E+00;  0.0000000E+00;  0.0000000E+00;  1.0000000E+03;  1.0000000E-01;  0.0000000E+00;0;  0.0000000E+00;  0.0000000E+00;  0.0000000E+00;0;  0.0000000E+00;  4.0000000E+04;  0.0000000E+00;  0.0000000E+00;  4.0000000E+04;  0.0000000E+00;  4.0000000E+04;  0.0000000E+00;  0.0000000E+00;  0.0000000E+00;  1.7068014E-09;
 -1.7000000E-01;  9.9999998E-03;  1.7000000E-01;333;  0.0000000E+00;  0.0000000E+00;  0.0000000E+00;  1.0000000E+03;  1.0000000E-01;  0.0000000E+00;0;  0.0000000E+00;  0.0000000E+00;  0.0000000E+00;0;  0.0000000E+00;  4.0000000E+04;  0.0000000E+00;  0.0000000E+00;  4.0000000E+04;  0.0000000E+00;  4.0000000E+04;  0.0000000E+00;  0.0000000E+00;  0.0000000E+00;  1.5737418E-09;
 -1.7000000E-01;  9.9999998E-03;  1.8000001E-01;334;  0.0000000E+00;  0.0000000E+00;  0.0000000E+00;  1.0000000E+03;  1.0000000E-01;  0.0000000E+00;0;  0.0000000E+00;  0.0000000E+00;  0.0000000E+00;0;  0.0000000E+00;  4.0000000E+04;  0.0000000E+00;  0.0000000E+00;  4.0000000E+04;  0.0000000E+00;  4.0000000E+04;  0.0000000E+00;  0.0000000E+00;  0.0000000E+00;  1.4536757E-09;
 -1.7000000E-01;  9.9999998E-03;  1.9000000E-01;335;  0.0000000E+00;  0.0000000E+00;  0.0000000E+00;  1.0000000E+03;  1.0000000E-01;  0.0000000E+00;0;  0.0000000E+00;  0.0000000E+00;  0.0000000E+00;0;  0.0000000E+00;  4.0000000E+04;  0.0000000E+00;  0.0000000E+00;  4.0000000E+04;  0.0000000E+00;  4.0000000E+04;  0.0000000E+00;  0.0000000E+00;  0.0000000E+00;  1.3804979E-09;
 -1.7000000E-01;  9.9999998E-03;  2.0000000E-01;336;  0.0000000E+00;  0.0000000E+00;  0.0000000E+00;  1.0000000E+03;  1.0000000E-01;  0.0000000E+00;0;  0.0000000E+00;  0.0000000E+00;  0.0000000E+00;0;  0.0000000E+00;  4.0000000E+04;  0.0000000E+00;  0.0000000E+00;  4.0000000E+04;  0.0000000E+00;  4.0000000E+04;  0.0000000E+00;  0.0000000E+00;  0.0000000E+00;  1.3572699E-09;
 -1.7000000E-01;  9.9999998E-03;  2.0999999E-01;337;  0.0000000E+00;  0.0000000E+00;  0.0000000E+00;  1.0000000E+03;  1.0000000E-01;  0.0000000E+00;0;  0.0000000E+00;  0.0000000E+00;  0.0000000E+00;0;  0.0000000E+00;  4.0000000E+04;  0.0000000E+00;  0.0000000E+00;  4.0000000E+04;  0.0000000E+00;  4.0000000E+04;  0.0000000E+00;  0.0000000E+00;  0.0000000E+00;  1.3090043E-09;
 -1.7000000E-01;  9.9999998E-03;  2.2000000E-01;338;  0.0000000E+00;  0.0000000E+00;  0.0000000E+00;  1.0000000E+03;  1.0000000E-01;  0.0000000E+00;0;  0.0000000E+00;  0.0000000E+00;  0.0000000E+00;0;  0.0000000E+00;  4.0000000E+04;  0.0000000E+00;  0.0000000E+00;  4.0000000E+04;  0.0000000E+00;  4.0000000E+04;  0.0000000E+00;  0.0000000E+00;  0.0000000E+00;  1.1702984E-09;
 -1.7000000E-01;  9.9999998E-03;  2.3000000E-01;339;  0.0000000E+00;  0.0000000E+00;  0.0000000E+00;  1.0000000E+03;  1.0000000E-01;  0.0000000E+00;0;  0.0000000E+00;  0.0000000E+00;  0.0000000E+00;0;  0.0000000E+00;  4.0000000E+04;  0.0000000E+00;  0.0000000E+00;  4.0000000E+04;  0.0000000E+00;  4.0000000E+04;  0.0000000E+00;  0.0000000E+00;  0.0000000E+00;  9.6134622E-10;
 -1.6000000E-01;  9.9999998E-03;  7.0000000E-02;414;  0.0000000E+00;  0.0000000E+00;  0.0000000E+00;  1.0000000E+03;  1.0000000E-01;  0.0000000E+00;0;  0.0000000E+00;  0.0000000E+00;  0.0000000E+00;0;  5.4226359E-07;  4.0000000E+04;  0.0000000E+00;  0.0000000E+00;  4.0000000E+04;  0.0000000E+00;  4.0000000E+04;  5.4241400E-07;  0.0000000E+00; -1.5038479E-10;  2.7128488E-01;
 -1.6000000E-01;  9.9999998E-03;  7.9999998E-02;415;  0.0000000E+00;  0.0000000E+00;  0.0000000E+00;  1.0000000E+03;  1.0000000E-01;  0.0000000E+00;0;  0.0000000E+00;  0.0000000E+00;  0.0000000E+00;0;  5.3790870E-07;  4.0000000E+04;  0.0000000E+00;  0.0000000E+00;  4.0000000E+04;  0.0000000E+00;  4.0000000E+04;  5.3804081E-07;  0.0000000E+00; -1.3212403E-10;  2.7160284E-01;
 -1.6000000E-01;  9.9999998E-03;  9.0000004E-02;416;  0.0000000E+00;  0.0000000E+00;  0.0000000E+00;  1.0000000E+03;  1.0000000E-01;  0.0000000E+00;0;  0.0000000E+00;  0.0000000E+00;  0.0000000E+00;0;  5.3225159E-07;  4.0000000E+04;  0.0000000E+00;  0.0000000E+00;  4.0000000E+04;  0.0000000E+00;  4.0000000E+04;  5.3233742E-07;  0.0000000E+00; -8.5819463E-11;  2.7272514E-01;
 -1.6000000E-01;  9.9999998E-03;  1.0000000E-01;417;  0.0000000E+00;  0.0000000E+00;  0.0000000E+00;  1.0000000E+03;  1.0000000E-01;  0.0000000E+00;0;  0.0000000E+00;  0.0000000E+00;  0.0000000E+00;0;  5.2530243E-07;  4.0000000E+04;  0.0000000E+00;  0.0000000E+00;  4.0000000E+04;  0.0000000E+00;  4.0000000E+04;  5.2530919E-07;  0.0000000E+00; -6.7711540E-12;  2.7497387E-01;
 -1.6000000E-01;  9.9999998E-03;  1.1000000E-01;418;  0.0000000E+00;  0.0000000E+00;  0.0000000E+00;  1.0000000E+03;  1.0000000E-01;  0.0000000E+00;0;  0.0000000E+00;  0.0000000E+00;  0.0000000E+00;0;  5.1734264E-07;  4.0000000E+04;  0.0000000E+00;  0.0000000E+00;  4.0000000E+04;  0.0000000E+00;  4.0000000E+04;  5.1722873E-07;  0.0000000E+00;  1.1391113E-10;  2.7842143E-01;
 -1.6000000E-01;  9.9999998E-03;  1.2000000E-01;419;  0.0000000E+00;  0.0000000E+00;  0.0000000E+00;  1.0000000E+03;  1.0000000E-01;  0.0000000E+00;0;  0.0000000E+00;  0.0000000E+00;  0.0000000E+00;0;  5.0905095E-07;  4.0000000E+04;  0.0000000E+00;  0.0000000E+00;  4.0000000E+04;  0.0000000E+00;  4.0000000E+04;  5.0876281E-07;  0.0000000E+00;  2.8814837E-10;  2.8276452E-01;
 -1.6000000E-01;  9.9999998E-03;  1.3000000E-01;420;  0.0000000E+00;  0.0000000E+00;  0.0000000E+00;  1.0000000E+03;  1.0000000E-01;  0.0000000E+00;0;  0.0000000E+00;  0.0000000E+00;  0.0000000E+00;0;  5.0158883E-07;  4.0000000E+04;  0.0000000E+00;  0.0000000E+00;  4.0000000E+04;  0.0000000E+00;  4.0000000E+04;  5.0106240E-07;  0.0000000E+00;  5.2645255E-10;  2.8736472E-01;
 -1.6000000E-01;  9.9999998E-03;  1.4000000E-01;421;  0.0000000E+00;  0.0000000E+00;  0.0000000E+00;  1.0000000E+03;  1.0000000E-01;  0.0000000E+00;0;  0.0000000E+00;  0.0000000E+00;  0.0000000E+00;0;  4.9664641E-07;  4.0000000E+04;  0.0000000E+00;  0.0000000E+00;  4.0000000E+04;  0.0000000E+00;  4.0000000E+04;  4.9581541E-07;  0.0000000E+00;  8.3101875E-10;  2.9141685E-01;
 -1.6000000E-01;  9.9999998E-03;  1.5000001E-01;422;  0.0000000E+00;  0.0000000E+00;  0.0000000E+00;  1.0000000E+03;  1.0000000E-01;  0.0000000E+00;0;  0.0000000E+00;  0.0000000E+00;  0.0000000E+00;0;  4.9643916E-07;  4.0000000E+04;  0.0000000E+00;  0.0000000E+00;  4.0000000E+04;  0.0000000E+00;  4.0000000E+04;  4.9525136E-07;  0.0000000E+00;  1.1878266E-09;  2.9413578E-01;
 -1.6000000E-01;  9.9999998E-03;  1.6000000E-01;423;  0.0000000E+00;  0.0000000E+00;  0.0000000E+00;  1.0000000E+03;  1.0000000E-01;  0.0000000E+00;0;  0.0000000E+00;  0.0000000E+00;  0.0000000E+00;0;  5.0367214E-07;  4.0000000E+04;  0.0000000E+00;  0.0000000E+00;  4.0000000E+04;  0.0000000E+00;  4.0000000E+04;  5.0210093E-07;  0.0000000E+00;  1.5711938E-09;  2.9481721E-01;
 -1.6000000E-01;  9.9999998E-03;  1.7000000E-01;424;  0.0000000E+00;  0.0000000E+00;  0.0000000E+00;  1.0000000E+03;  1.0000000E-01;  0.0000000E+00;0;  0.0000000E+00;  0.0000000E+00;  0.0000000E+00;0;  5.2146339E-07;  4.0000000E+04;  0.0000000E+00;  0.0000000E+00;  4.0000000E+04;  0.0000000E+00;  4.0000000E+04;  5.1950417E-07;  0.0000000E+00;  1.9592425E-09;  2.9285225E-01;
 -1.6000000E-01;  9.9999998E-03;  1.8000001E-01;425;  0.0000000E+00;  0.0000000E+00;  0.0000000E+00;  1.0000000E+03;  1.0000000E-01;  0.0000000E+00;0;  0.0000000E+00;  0.0000000E+00;  0.0000000E+00;0;  5.5319526E-07;  4.0000000E+04;  0.0000000E+00;  0.0000000E+00;  4.0000000E+04;  0.0000000E+00;  4.0000000E+04;  5.5084928E-07;  0.0000000E+00;  2.3459978E-09;  2.8779417E-01;
 -1.6000000E-01;  9.9999998E-03;  1.9000000E-01;426;  0.0000000E+00;  0.0000000E+00;  0.0000000E+00;  1.0000000E+03;  1.0000000E-01;  0.0000000E+00;0;  0.0000000E+00;  0.0000000E+00;  0.0000000E+00;0;  6.0217093E-07;  4.0000000E+04;  0.0000000E+00;  0.0000000E+00;  4.0000000E+04;  0.0000000E+00;  4.0000000E+04;  5.9942749E-07;  0.0000000E+00;  2.7434177E-09;  2.7954823E-01;
 -1.6000000E-01;  9.9999998E-03;  2.0000000E-01;427;  0.0000000E+00;  0.0000000E+00;  0.0000000E+00;  1.0000000E+03;  1.0000000E-01;  0.0000000E+00;0;  0.0000000E+00;  0.0000000E+00;  0.0000000E+00;0;  6.7077787E-07;  4.0000000E+04;  0.0000000E+00;  0.0000000E+00;  4.0000000E+04;  0.0000000E+00;  4.0000000E+04;  6.6761055E-07;  0.0000000E+00;  3.1673020E-09;  2.6852897E-01;
 -1.6000000E-01;  9.9999998E-03;  2.0999999E-01;428;  0.0000000E+00;  0.0000000E+00;  0.0000000E+00;  1.0000000E+03;  1.0000000E-01;  0.0000000E+00;0;  0.0000000E+00;  0.0000000E+00;  0.0000000E+00;0;  7.5887351E-07;  4.0000000E+04;  0.0000000E+00;  0.0000000E+00;  4.0000000E+04;  0.0000000E+00;  4.0000000E+04;  7.5526253E-07;  0.0000000E+00;  3.6110055E-09;  2.5565815E-01;
 -1.6000000E-01;  9.9999998E-03;  2.2000000E-01;429;  0.0000000E+00;  0.0000000E+00;  0.0000000E+00;  1.0000000E+03;  1.0000000E-01;  0.0000000E+00;0;  0.0000000E+00;  0.0000000E+00;  0.0000000E+00;0;  8.6149231E-07;  4.0000000E+04;  0.0000000E+00;  0.0000000E+00;  4.0000000E+04;  0.0000000E+00;  4.0000000E+04;  8.5746268E-07;  0.0000000E+00;  4.0296064E-09;  2.4185668E-01;
 -1.6000000E-01;  9.9999998E-03;  2.3000000E-01;430;  0.0000000E+00;  0.0000000E+00;  0.0000000E+00;  1.0000000E+03;  1.0000000E-01;  0.0000000E+00;0;  0.0000000E+00;  0.0000000E+00;  0.0000000E+00;0;  9.6560348E-07;  4.0000000E+04;  0.0000000E+00;  0.0000000E+00;  4.0000000E+04;  0.0000000E+00;  4.0000000E+04;  9.6126257E-07;  0.0000000E+00;  4.3409134E-09;  2.2674170E-01;
 -1.5000001E-01;  9.9999998E-03;  7.0000000E-02;505;  0.0000000E+00;  0.0000000E+00;  0.0000000E+00;  1.0000000E+03;  1.0000000E-01;  0.0000000E+00;0;  0.0000000E+00;  0.0000000E+00;  0.0000000E+00;0;  1.6816317E-05;  4.0000000E+04;  0.0000000E+00;  0.0000000E+00;  4.0000000E+04;  0.0000000E+00;  4.0000000E+04;  1.6826360E-05;  0.0000000E+00; -1.0043077E-08;  4.2269492E+00;
 -1.5000001E-01;  9.9999998E-03;  7.9999998E-02;506;  0.0000000E+00;  0.0000000E+00;  0.0000000E+00;  1.0000000E+03;  1.0000000E-01;  0.0000000E+00;0;  0.0000000E+00;  0.0000000E+00;  0.0000000E+00;0;  1.6743055E-05;  4.0000000E+04;  0.0000000E+00;  0.0000000E+00;  4.0000000E+04;  0.0000000E+00;  4.0000000E+04;  1.6751135E-05;  0.0000000E+00; -8.0807805E-09;  4.2165809E+00;
 -1.5000001E-01;  9.9999998E-03;  9.0000004E-02;507;  0.0000000E+00;  0.0000000E+00;  0.0000000E+00;  1.0000000E+03;  1.0000000E-01;  0.0000000E+00;0;  0.0000000E+00;  0.0000000E+00;  0.0000000E+00;0;  1.6615548E-05;  4.0000000E+04;  0.0000000E+00;  0.0000000E+00;  4.0000000E+04;  0.0000000E+00;  4.0000000E+04;  1.6618924E-05;  0.0000000E+00; -3.3759013E-09;  4.2147775E+00;
 -1.5000001E-01;  9.9999998E-03;  1.0000000E-01;508;  0.0000000E+00;  0.0000000E+00;  0.0000000E+00;  1.0000000E+03;  1.0000000E-01;  0.0000000E+00;0;  0.0000000E+00;  0.0000000E+00;  0.0000000E+00;0;  1.6432510E-05;  4.0000000E+04;  0.0000000E+00;  0.0000000E+00;  4.0000000E+04;  0.0000000E+00;  4.0000000E+04;  1.6427974E-05;  0.0000000E+00;  4.5362540E-09;  4.2270870E+00;
 -1.5000001E-01;  9.9999998E-03;  1.1000000E-01;509;  0.0000000E+00;  0.0000000E+00;  0.0000000E+00;  1.0000000E+03;  1.0000000E-01;  0.0000000E+00;0;  0.0000000E+00;  0.0000000E+00;  0.0000000E+00;0;  1.6202781E-05;  4.0000000E+04;  0.0000000E+00;  0.0000000E+00;  4.0000000E+04;  0.0000000E+00;  4.0000000E+04;  1.6186686E-05;  0.0000000E+00;  1.6094704E-08;  4.2544165E+00;
 -1.5000001E-01;  9.9999998E-03;  1.2000000E-01;510;  0.0000000E+00;  0.0000000E+00;  0.0000000E+00;  1.0000000E+03;  1.0000000E-01;  0.0000000E+00;0;  0.0000000E+00;  0.0000000E+00;  0.0000000E+00;0;  1.5947126E-05;  4.0000000E+04;  0.0000000E+00;  0.0000000E+00;  4.0000000E+04;  0.0000000E+00;  4.0000000E+04;  1.5915617E-05;  0.0000000E+00;  3.1508247E-08;  4.2923732E+00;
 -1.5000001E-01;  9.9999998E-03;  1.3000000E-01;511;  0.0000000E+00;  0.0000000E+00;  0.0000000E+00;  1.0000000E+03;  1.0000000E-01;  0.0000000E+00;0;  0.0000000E+00;  0.0000000E+00;  0.0000000E+00;0;  1.5698181E-05;  4.0000000E+04;  0.0000000E+00;  0.0000000E+00;  4.0000000E+04;  0.0000000E+00;  4.0000000E+04;  1.5647724E-05;  0.0000000E+00;  5.0456162E-08;  4.3325968E+00;
 -1.5000001E-01;  9.9999998E-03;  1.4000000E-01;512;  0.0000000E+00;  0.0000000E+00;  0.0000000E+00;  1.0000000E+03;  1.0000000E-01;  0.0000000E+00;0;  0.0000000E+00;  0.0000000E+00;  0.0000000E+00;0;  1.5498226E-05;  4.0000000E+04;  0.0000000E+00;  0.0000000E+00;  4.0000000E+04;  0.0000000E+00;  4.0000000E+04;  1.5426356E-05;  0.0000000E+00;  7.1870730E-08;  4.3649440E+00;
 -1.5000001E-01;  9.9999998E-03;  1.5000001E-01;513;  0.0000000E+00;  0.0000000E+00;  0.0000000E+00;  1.0000000E+03;  1.0000000E-01;  0.0000000E+00;0;  0.0000000E+00;  0.0000000E+00;  0.0000000E+00;0;  1.5394422E-05;  4.0000000E+04;  0.0000000E+00;  0.0000000E+00;  4.0000000E+04;  0.0000000E+00;  4.0000000E+04;  1.5300529E-05;  0.0000000E+00;  9.3891877E-08;  4.3798757E+00;
 -1.5000001E-01;  9.9999998E-03;  1.6000000E-01;514;  0.0000000E+00;  0.0000000E+00;  0.0000000E+00;  1.0000000E+03;  1.0000000E-01;  0.0000000E+00;0;  0.0000000E+00;  0.0000000E+00;  0.0000000E+00;0;  1.5431915E-05;  4.0000000E+04;  0.0000000E+00;  0.0000000E+00;  4.0000000E+04;  0.0000000E+00;  4.0000000E+04;  1.5317841E-05;  0.0000000E+00;  1.1407339E-07;  4.3704228E+00;
 -1.5000001E-01;  9.9999998E-03;  1.7000000E-01;515;  0.0000000E+00;  0.0000000E+00;  0.0000000E+00;  1.0000000E+03;  1.0000000E-01;  0.0000000E+00;0;  0.0000000E+00;  0.0000000E+00;  0.0000000E+00;0;  1.5644564E-05;  4.0000000E+04;  0.0000000E+00;  0.0000000E+00;  4.0000000E+04;  0.0000000E+00;  4.0000000E+04;  1.5514755E-05;  0.0000000E+00;  1.2980824E-07;  4.3330855E+00;
 -1.5000001E-01;  9.9999998E-03;  1.8000001E-01;516;  0.0000000E+00;  0.0000000E+00;  0.0000000E+00;  1.0000000E+03;  1.0000000E-01;  0.0000000E+00;0;  0.0000000E+00;  0.0000000E+00;  0.0000000E+00;0;  1.6044067E-05;  4.0000000E+04;  0.0000000E+00;  0.0000000E+00;  4.0000000E+04;  0.0000000E+00;  4.0000000E+04;  1.5905243E-05;  0.0000000E+00;  1.3882313E-07;  4.2679110E+00;
 -1.5000001E-01;  9.9999998E-03;  1.9000000E-01;517;  0.0000000E+00;  0.0000000E+00;  0.0000000E+00;  1.0000000E+03;  1.0000000E-01;  0.0000000E+00;0;  0.0000000E+00;  0.0000000E+00;  0.0000000E+00;0;  1.6607824E-05;  4.0000000E+04;  0.0000000E+00;  0.0000000E+00;  4.0000000E+04;  0.0000000E+00;  4.0000000E+04;  1.6468268E-05;  0.0000000E+00;  1.3955633E-07;  4.1780272E+00;
 -1.5000001E-01;  9.9999998E-03;  2.0000000E-01;518;  0.0000000E+00;  0.0000000E+00;  0.0000000E+00;  1.0000000E+03;  1.0000000E-01;  0.0000000E+00;0;  0.0000000E+00;  0.0000000E+00;  0.0000000E+00;0;  1.7268027E-05;  4.0000000E+04;  0.0000000E+00;  0.0000000E+00;  4.0000000E+04;  0.0000000E+00;  4.0000000E+04;  1.7136665E-05;  0.0000000E+00;  1.3136143E-07;  4.0665760E+00;
 -1.5000001E-01;  9.9999998E-03;  2.0999999E-01;519;  0.0000000E+00;  0.0000000E+00;  0.0000000E+00;  1.0000000E+03;  1.0000000E-01;  0.0000000E+00;0;  0.0000000E+00;  0.0000000E+00;  0.0000000E+00;0;  1.7904011E-05;  4.0000000E+04;  0.0000000E+00;  0.0000000E+00;  4.0000000E+04;  0.0000000E+00;  4.0000000E+04;  1.7789331E-05;  0.0000000E+00;  1.1468091E-07;  3.9293804E+00;
 -1.5000001E-01;  9.9999998E-03;  2.2000000E-01;520;  0.0000000E+00;  0.0000000E+00;  0.0000000E+00;  1.0000000E+03;  1.0000000E-01;  0.0000000E+00;0;  0.0000000E+00;  0.0000000E+00;  0.0000000E+00;0;  1.8341634E-05;  4.0000000E+04;  0.0000000E+00;  0.0000000E+00;  4.0000000E+04;  0.0000000E+00;  4.0000000E+04;  1.8250219E-05;  0.0000000E+00;  9.1415821E-08;  3.7427063E+00;
 -1.5000001E-01;  9.9999998E-03;  2.3000000E-01;521;  0.0000000E+00;  0.0000000E+00;  0.0000000E+00;  1.0000000E+03;  1.0000000E-01;  0.0000000E+00;0;  0.0000000E+00;  0.0000000E+00;  0.0000000E+00;0;  1.8368872E-05;  4.0000000E+04;  0.0000000E+00;  0.0000000E+00;  4.0000000E+04;  0.0000000E+00;  4.0000000E+04;  1.8305514E-05;  0.0000000E+00;  6.3356460E-08;  3.4497955E+00;
 -1.4000000E-01;  9.9999998E-03;  7.0000000E-02;596;  0.0000000E+00;  0.0000000E+00;  0.0000000E+00;  1.0000000E+03;  1.0000000E-01;  0.0000000E+00;0;  0.0000000E+00;  0.0000000E+00;  0.0000000E+00;0;  8.6292916E-05;  4.0000000E+04;  0.0000000E+00;  0.0000000E+00;  4.0000000E+04;  0.0000000E+00;  4.0000000E+04;  8.6358137E-05;  0.0000000E+00; -6.5219680E-08;  1.9526415E+01;
 -1.4000000E-01;  9.9999998E-03;  7.9999998E-02;597;  0.0000000E+00;  0.0000000E+00;  0.0000000E+00;  1.0000000E+03;  1.0000000E-01;  0.0000000E+00;0;  0.0000000E+00;  0.0000000E+00;  0.0000000E+00;0;  8.5919128E-05;  4.0000000E+04;  0.0000000E+00;  0.0000000E+00;  4.0000000E+04;  0.0000000E+00;  4.0000000E+04;  8.5962420E-05;  0.0000000E+00; -4.3292335E-08;  1.9430149E+01;
 -1.4000000E-01;  9.9999998E-03;  9.0000004E-02;598;  0.0000000E+00;  0.0000000E+00;  0.0000000E+00;  1.0000000E+03;  1.0000000E-01;  0.0000000E+00;0;  0.0000000E+00;  0.0000000E+00;  0.0000000E+00;0;  8.5268868E-05;  4.0000000E+04;  0.0000000E+00;  0.0000000E+00;  4.0000000E+04;  0.0000000E+00;  4.0000000E+04;  8.5266096E-05;  0.0000000E+00;  2.7755991E-09;  1.9349365E+01;
 -1.4000000E-01;  9.9999998E-03;  1.0000000E-01;599;  0.0000000E+00;  0.0000000E+00;  0.0000000E+00;  1.0000000E+03;  1.0000000E-01;  0.0000000E+00;0;  0.0000000E+00;  0.0000000E+00;  0.0000000E+00;0;  8.4346277E-05;  4.0000000E+04;  0.0000000E+00;  0.0000000E+00;  4.0000000E+04;  0.0000000E+00;  4.0000000E+04;  8.4270243E-05;  0.0000000E+00;  7.6033956E-08;  1.9307423E+01;
 -1.4000000E-01;  9.9999998E-03;  1.1000000E-01;600;  0.0000000E+00;  0.0000000E+00;  0.0000000E+00;  1.0000000E+03;  1.0000000E-01;  0.0000000E+00;0;  0.0000000E+00;  0.0000000E+00;  0.0000000E+00;0;  8.3204395E-05;  4.0000000E+04;  0.0000000E+00;  0.0000000E+00;  4.0000000E+04;  0.0000000E+00;  4.0000000E+04;  8.3026716E-05;  0.0000000E+00;  1.7767928E-07;  1.9314148E+01;
 -1.4000000E-01;  9.9999998E-03;  1.2000000E-01;601;  0.0000000E+00;  0.0000000E+00;  0.0000000E+00;  1.0000000E+03;  1.0000000E-01;  0.0000000E+00;0;  0.0000000E+00;  0.0000000E+00;  0.0000000E+00;0;  8.1950391E-05;  4.0000000E+04;  0.0000000E+00;  0.0000000E+00;  4.0000000E+04;  0.0000000E+00;  4.0000000E+04;  8.1644510E-05;  0.0000000E+00;  3.0588140E-07;  1.9363152E+01;
 -1.4000000E-01;  9.9999998E-03;  1.3000000E-01;602;  0.0000000E+00;  0.0000000E+00;  0.0000000E+00;  1.0000000E+03;  1.0000000E-01;  0.0000000E+00;0;  0.0000000E+00;  0.0000000E+00;  0.0000000E+00;0;  8.0739141E-05;  4.0000000E+04;  0.0000000E+00;  0.0000000E+00;  4.0000000E+04;  0.0000000E+00;  4.0000000E+04;  8.0284546E-05;  0.0000000E+00;  4.5459720E-07;  1.9434124E+01;
 -1.4000000E-01;  9.9999998E-03;  1.4000000E-01;603;  0.0000000E+00;  0.0000000E+00;  0.0000000E+00;  1.0000000E+03;  1.0000000E-01;  0.0000000E+00;0;  0.0000000E+00;  0.0000000E+00;  0.0000000E+00;0;  7.9755446E-05;  4.0000000E+04;  0.0000000E+00;  0.0000000E+00;  4.0000000E+04;  0.0000000E+00;  4.0000000E+04;  7.9142534E-05;  0.0000000E+00;  6.1291502E-07;  1.9500290E+01;
 -1.4000000E-01;  9.9999998E-03;  1.5000001E-01;604;  0.0000000E+00;  0.0000000E+00;  0.0000000E+00;  1.0000000E+03;  1.0000000E-01;  0.0000000E+00;0;  0.0000000E+00;  0.0000000E+00;  0.0000000E+00;0;  7.9186080E-05;  4.0000000E+04;  0.0000000E+00;  0.0000000E+00;  4.0000000E+04;  0.0000000E+00;  4.0000000E+04;  7.8420642E-05;  0.0000000E+00;  7.6544052E-07;  1.9536932E+01;
 -1.4000000E-01;  9.9999998E-03;  1.6000000E-01;605;  0.0000000E+00;  0.0000000E+00;  0.0000000E+00;  1.0000000E+03;  1.0000000E-01;  0.0000000E+00;0;  0.0000000E+00;  0.0000000E+00;  0.0000000E+00;0;  7.9180791E-05;  4.0000000E+04;  0.0000000E+00;  0.0000000E+00;  4.0000000E+04;  0.0000000E+00;  4.0000000E+04;  7.8286866E-05;  0.0000000E+00;  8.9392404E-07;  1.9528835E+01;
 -1.4000000E-01;  9.9999998E-03;  1.7000000E-01;606;  0.0000000E+00;  0.0000000E+00;  0.0000000E+00;  1.0000000E+03;  1.0000000E-01;  0.0000000E+00;0;  0.0000000E+00;  0.0000000E+00;  0.0000000E+00;0;  7.9808975E-05;  4.0000000E+04;  0.0000000E+00;  0.0000000E+00;  4.0000000E+04;  0.0000000E+00;  4.0000000E+04;  7.8829122E-05;  0.0000000E+00;  9.7985230E-07;  1.9474709E+01;
 -1.4000000E-01;  9.9999998E-03;  1.8000001E-01;607;  0.0000000E+00;  0.0000000E+00;  0.0000000E+00;  1.0000000E+03;  1.0000000E-01;  0.0000000E+00;0;  0.0000000E+00;  0.0000000E+00;  0.0000000E+00;0;  8.1014907E-05;  4.0000000E+04;  0.0000000E+00;  0.0000000E+00;  4.0000000E+04;  0.0000000E+00;  4.0000000E+04;  8.0007398E-05;  0.0000000E+00;  1.0075098E-06;  1.9382683E+01;
 -1.4000000E-01;  9.9999998E-03;  1.9000000E-01;608;  0.0000000E+00;  0.0000000E+00;  0.0000000E+00;  1.0000000E+03;  1.0000000E-01;  0.0000000E+00;0;  0.0000000E+00;  0.0000000E+00;  0.0000000E+00;0;  8.2580198E-05;  4.0000000E+04;  0.0000000E+00;  0.0000000E+00;  4.0000000E+04;  0.0000000E+00;  4.0000000E+04;  8.1613056E-05;  0.0000000E+00;  9.6714166E-07;  1.9254202E+01;
 -1.4000000E-01;  9.9999998E-03;  2.0000000E-01;609;  0.0000000E+00;  0.0000000E+00;  0.0000000E+00;  1.0000000E+03;  1.0000000E-01;  0.0000000E+00;0;  0.0000000E+00;  0.0000000E+00;  0.0000000E+00;0;  8.4103682E-05;  4.0000000E+04;  0.0000000E+00;  0.0000000E+00;  4.0000000E+04;  0.0000000E+00;  4.0000000E+04;  8.3245708E-05;  0.0000000E+00;  8.5797382E-07;  1.9049694E+01;
 -1.4000000E-01;  9.9999998E-03;  2.0999999E-01;610;  0.0000000E+00;  0.0000000E+00;  0.0000000E+00;  1.0000000E+03;  1.0000000E-01;  0.0000000E+00;0;  0.0000000E+00;  0.0000000E+00;  0.0000000E+00;0;  8.5012180E-05;  4.0000000E+04;  0.0000000E+00;  0.0000000E+00;  4.0000000E+04;  0.0000000E+00;  4.0000000E+04;  8.4322666E-05;  0.0000000E+00;  6.8951294E-07;  1.8639498E+01;
 -1.4000000E-01;  9.9999998E-03;  2.2000000E-01;611;  0.0000000E+00;  0.0000000E+00;  0.0000000E+00;  1.0000000E+03;  1.0000000E-01;  0.0000000E+00;0;  0.0000000E+00;  0.0000000E+00;  0.0000000E+00;0;  8.4625877E-05;  4.0000000E+04;  0.0000000E+00;  0.0000000E+00;  4.0000000E+04;  0.0000000E+00;  4.0000000E+04;  8.4156840E-05;  0.0000000E+00;  4.6903924E-07;  1.7787632E+01;
 -1.4000000E-01;  9.9999998E-03;  2.3000000E-01;612;  0.0000000E+00;  0.0000000E+00;  0.0000000E+00;  1.0000000E+03;  1.0000000E-01;  0.0000000E+00;0;  0.0000000E+00;  0.0000000E+00;  0.0000000E+00;0;  8.2309845E-05;  4.0000000E+04;  0.0000000E+00;  0.0000000E+00;  4.0000000E+04;  0.0000000E+00;  4.0000000E+04;  8.2107210E-05;  0.0000000E+00;  2.0263354E-07;  1.6246935E+01;
 -1.3000000E-01;  9.9999998E-03;  7.0000000E-02;687;  0.0000000E+00;  0.0000000E+00;  0.0000000E+00;  1.0000000E+03;  1.0000000E-01;  0.0000000E+00;0;  0.0000000E+00;  0.0000000E+00;  0.0000000E+00;0;  2.4306554E-04;  4.0000000E+04;  0.0000000E+00;  0.0000000E+00;  4.0000000E+04;  0.0000000E+00;  4.0000000E+04;  2.4325609E-04;  0.0000000E+00; -1.9054657E-07;  5.5282394E+01;
 -1.3000000E-01;  9.9999998E-03;  7.9999998E-02;688;  0.0000000E+00;  0.0000000E+00;  0.0000000E+00;  1.0000000E+03;  1.0000000E-01;  0.0000000E+00;0;  0.0000000E+00;  0.0000000E+00;  0.0000000E+00;0;  2.4190266E-04;  4.0000000E+04;  0.0000000E+00;  0.0000000E+00;  4.0000000E+04;  0.0000000E+00;  4.0000000E+04;  2.4198103E-04;  0.0000000E+00; -7.8383771E-08;  5.4872852E+01;
 -1.3000000E-01;  9.9999998E-03;  9.0000004E-02;689;  0.0000000E+00;  0.0000000E+00;  0.0000000E+00;  1.0000000E+03;  1.0000000E-01;  0.0000000E+00;0;  0.0000000E+00;  0.0000000E+00;  0.0000000E+00;0;  2.3998834E-04;  4.0000000E+04;  0.0000000E+00;  0.0000000E+00;  4.0000000E+04;  0.0000000E+00;  4.0000000E+04;  2.3985608E-04;  0.0000000E+00;  1.3225529E-07;  5.4448029E+01;
 -1.3000000E-01;  9.9999998E-03;  1.0000000E-01;690;  0.0000000E+00;  0.0000000E+00;  0.0000000E+00;  1.0000000E+03;  1.0000000E-01;  0.0000000E+00;0;  0.0000000E+00;  0.0000000E+00;  0.0000000E+00;0;  2.3736495E-04;  4.0000000E+04;  0.0000000E+00;  0.0000000E+00;  4.0000000E+04;  0.0000000E+00;  4.0000000E+04;  2.3691585E-04;  0.0000000E+00;  4.4910357E-07;  5.4074715E+01;
 -1.3000000E-01;  9.9999998E-03;  1.1000000E-01;691;  0.0000000E+00;  0.0000000E+00;  0.0000000E+00;  1.0000000E+03;  1.0000000E-01;  0.0000000E+00;0;  0.0000000E+00;  0.0000000E+00;  0.0000000E+00;0;  2.3420622E-04;  4.0000000E+04;  0.0000000E+00;  0.0000000E+00;  4.0000000E+04;  0.0000000E+00;  4.0000000E+04;  2.3333648E-04;  0.0000000E+00;  8.6973171E-07;  5.3800343E+01;
 -1.3000000E-01;  9.9999998E-03;  1.2000000E-01;692;  0.0000000E+00;  0.0000000E+00;  0.0000000E+00;  1.0000000E+03;  1.0000000E-01;  0.0000000E+00;0;  0.0000000E+00;  0.0000000E+00;  0.0000000E+00;0;  2.3081469E-04;  4.0000000E+04;  0.0000000E+00;  0.0000000E+00;  4.0000000E+04;  0.0000000E+00;  4.0000000E+04;  2.2943612E-04;  0.0000000E+00;  1.3785771E-06;  5.3646099E+01;
 -1.3000000E-01;  9.9999998E-03;  1.3000000E-01;693;  0.0000000E+00;  0.0000000E+00;  0.0000000E+00;  1.0000000E+03;  1.0000000E-01;  0.0000000E+00;0;  0.0000000E+00;  0.0000000E+00;  0.0000000E+00;0;  2.2759473E-04;  4.0000000E+04;  0.0000000E+00;  0.0000000E+00;  4.0000000E+04;  0.0000000E+00;  4.0000000E+04;  2.2564986E-04;  0.0000000E+00;  1.9448732E-06;  5.3607502E+01;
 -1.3000000E-01;  9.9999998E-03;  1.4000000E-01;694;  0.0000000E+00;  0.0000000E+00;  0.0000000E+00;  1.0000000E+03;  1.0000000E-01;  0.0000000E+00;0;  0.0000000E+00;  0.0000000E+00;  0.0000000E+00;0;  2.2499605E-04;  4.0000000E+04;  0.0000000E+00;  0.0000000E+00;  4.0000000E+04;  0.0000000E+00;  4.0000000E+04;  2.2247343E-04;  0.0000000E+00;  2.5226168E-06;  5.3667542E+01;
 -1.3000000E-01;  9.9999998E-03;  1.5000001E-01;695;  0.0000000E+00;  0.0000000E+00;  0.0000000E+00;  1.0000000E+03;  1.0000000E-01;  0.0000000E+00;0;  0.0000000E+00;  0.0000000E+00;  0.0000000E+00;0;  2.2343265E-04;  4.0000000E+04;  0.0000000E+00;  0.0000000E+00;  4.0000000E+04;  0.0000000E+00;  4.0000000E+04;  2.2037934E-04;  0.0000000E+00;  3.0533060E-06;  5.3812458E+01;
 -1.3000000E-01;  9.9999998E-03;  1.6000000E-01;696;  0.0000000E+00;  0.0000000E+00;  0.0000000E+00;  1.0000000E+03;  1.0000000E-01;  0.0000000E+00;0;  0.0000000E+00;  0.0000000E+00;  0.0000000E+00;0;  2.2318029E-04;  4.0000000E+04;  0.0000000E+00;  0.0000000E+00;  4.0000000E+04;  0.0000000E+00;  4.0000000E+04;  2.1970854E-04;  0.0000000E+00;  3.4717527E-06;  5.4045830E+01;
 -1.3000000E-01;  9.9999998E-03;  1.7000000E-01;697;  0.0000000E+00;  0.0000000E+00;  0.0000000E+00;  1.0000000E+03;  1.0000000E-01;  0.0000000E+00;0;  0.0000000E+00;  0.0000000E+00;  0.0000000E+00;0;  2.2426849E-04;  4.0000000E+04;  0.0000000E+00;  0.0000000E+00;  4.0000000E+04;  0.0000000E+00;  4.0000000E+04;  2.2055375E-04;  0.0000000E+00;  3.7147465E-06;  5.4386631E+01;
 -1.3000000E-01;  9.9999998E-03;  1.8000001E-01;698;  0.0000000E+00;  0.0000000E+00;  0.0000000E+00;  1.0000000E+03;  1.0000000E-01;  0.0000000E+00;0;  0.0000000E+00;  0.0000000E+00;  0.0000000E+00;0;  2.2638426E-04;  4.0000000E+04;  0.0000000E+00;  0.0000000E+00;  4.0000000E+04;  0.0000000E+00;  4.0000000E+04;  2.2265238E-04;  0.0000000E+00;  3.7318887E-06;  5.4833389E+01;
 -1.3000000E-01;  9.9999998E-03;  1.9000000E-01;699;  0.0000000E+00;  0.0000000E+00;  0.0000000E+00;  1.0000000E+03;  1.0000000E-01;  0.0000000E+00;0;  0.0000000E+00;  0.0000000E+00;  0.0000000E+00;0;  2.2881207E-04;  4.0000000E+04;  0.0000000E+00;  0.0000000E+00;  4.0000000E+04;  0.0000000E+00;  4.0000000E+04;  2.2531456E-04;  0.0000000E+00;  3.4975078E-06;  5.5283691E+01;
 -1.3000000E-01;  9.9999998E-03;  2.0000000E-01;700;  0.0000000E+00;  0.0000000E+00;  0.0000000E+00;  1.0000000E+03;  1.0000000E-01;  0.0000000E+00;0;  0.0000000E+00;  0.0000000E+00;  0.0000000E+00;0;  2.3043566E-04;  4.0000000E+04;  0.0000000E+00;  0.0000000E+00;  4.0000000E+04;  0.0000000E+00;  4.0000000E+04;  2.2742065E-04;  0.0000000E+00;  3.0150063E-06;  5.5413506E+01;
 -1.3000000E-01;  9.9999998E-03;  2.0999999E-01;701;  0.0000000E+00;  0.0000000E+00;  0.0000000E+00;  1.0000000E+03;  1.0000000E-01;  0.0000000E+00;0;  0.0000000E+00;  0.0000000E+00;  0.0000000E+00;0;  2.2985034E-04;  4.0000000E+04;  0.0000000E+00;  0.0000000E+00;  4.0000000E+04;  0.0000000E+00;  4.0000000E+04;  2.2755140E-04;  0.0000000E+00;  2.2989343E-06;  5.4647743E+01;
 -1.3000000E-01;  9.9999998E-03;  2.2000000E-01;702;  0.0000000E+00;  0.0000000E+00;  0.0000000E+00;  1.0000000E+03;  1.0000000E-01;  0.0000000E+00;0;  0.0000000E+00;  0.0000000E+00;  0.0000000E+00;0;  2.2562908E-04;  4.0000000E+04;  0.0000000E+00;  0.0000000E+00;  4.0000000E+04;  0.0000000E+00;  4.0000000E+04;  2.2424395E-04;  0.0000000E+00;  1.3851219E-06;  5.2305763E+01;
 -1.3000000E-01;  9.9999998E-03;  2.3000000E-01;703;  0.0000000E+00;  0.0000000E+00;  0.0000000E+00;  1.0000000E+03;  1.0000000E-01;  0.0000000E+00;0;  0.0000000E+00;  0.0000000E+00;  0.0000000E+00;0;  2.1665337E-04;  4.0000000E+04;  0.0000000E+00;  0.0000000E+00;  4.0000000E+04;  0.0000000E+00;  4.0000000E+04;  2.1631877E-04;  0.0000000E+00;  3.3459844E-07;  4.7768597E+01;
 -1.2000000E-01;  9.9999998E-03;  7.0000000E-02;778;  0.0000000E+00;  0.0000000E+00;  0.0000000E+00;  1.0000000E+03;  1.0000000E-01;  0.0000000E+00;0;  0.0000000E+00;  0.0000000E+00;  0.0000000E+00;0;  4.9986475E-04;  4.0000000E+04;  0.0000000E+00;  0.0000000E+00;  4.0000000E+04;  0.0000000E+00;  4.0000000E+04;  5.0018687E-04;  0.0000000E+00; -3.2210849E-07;  1.1980935E+02;
 -1.2000000E-01;  9.9999998E-03;  7.9999998E-02;779;  0.0000000E+00;  0.0000000E+00;  0.0000000E+00;  1.0000000E+03;  1.0000000E-01;  0.0000000E+00;0;  0.0000000E+00;  0.0000000E+00;  0.0000000E+00;0;  4.9719360E-04;  4.0000000E+04;  0.0000000E+00;  0.0000000E+00;  4.0000000E+04;  0.0000000E+00;  4.0000000E+04;  4.9714028E-04;  0.0000000E+00;  5.3305513E-08;  1.1860044E+02;
 -1.2000000E-01;  9.9999998E-03;  9.0000004E-02;780;  0.0000000E+00;  0.0000000E+00;  0.0000000E+00;  1.0000000E+03;  1.0000000E-01;  0.0000000E+00;0;  0.0000000E+00;  0.0000000E+00;  0.0000000E+00;0;  4.9306202E-04;  4.0000000E+04;  0.0000000E+00;  0.0000000E+00;  4.0000000E+04;  0.0000000E+00;  4.0000000E+04;  4.9236382E-04;  0.0000000E+00;  6.9819492E-07;  1.1726112E+02;
 -1.2000000E-01;  9.9999998E-03;  1.0000000E-01;781;  0.0000000E+00;  0.0000000E+00;  0.0000000E+00;  1.0000000E+03;  1.0000000E-01;  0.0000000E+00;0;  0.0000000E+00;  0.0000000E+00;  0.0000000E+00;0;  4.8761093E-04;  4.0000000E+04;  0.0000000E+00;  0.0000000E+00;  4.0000000E+04;  0.0000000E+00;  4.0000000E+04;  4.8598796E-04;  0.0000000E+00;  1.6229842E-06;  1.1594339E+02;
 -1.2000000E-01;  9.9999998E-03;  1.1000000E-01;782;  0.0000000E+00;  0.0000000E+00;  0.0000000E+00;  1.0000000E+03;  1.0000000E-01;  0.0000000E+00;0;  0.0000000E+00;  0.0000000E+00;  0.0000000E+00;0;  4.8122808E-04;  4.0000000E+04;  0.0000000E+00;  0.0000000E+00;  4.0000000E+04;  0.0000000E+00;  4.0000000E+04;  4.7842119E-04;  0.0000000E+00;  2.8068798E-06;  1.1479541E+02;
 -1.2000000E-01;  9.9999998E-03;  1.2000000E-01;783;  0.0000000E+00;  0.0000000E+00;  0.0000000E+00;  1.0000000E+03;  1.0000000E-01;  0.0000000E+00;0;  0.0000000E+00;  0.0000000E+00;  0.0000000E+00;0;  4.7452661E-04;  4.0000000E+04;  0.0000000E+00;  0.0000000E+00;  4.0000000E+04;  0.0000000E+00;  4.0000000E+04;  4.7033333E-04;  0.0000000E+00;  4.1932699E-06;  1.1394329E+02;
 -1.2000000E-01;  9.9999998E-03;  1.3000000E-01;784;  0.0000000E+00;  0.0000000E+00;  0.0000000E+00;  1.0000000E+03;  1.0000000E-01;  0.0000000E+00;0;  0.0000000E+00;  0.0000000E+00;  0.0000000E+00;0;  4.6827958E-04;  4.0000000E+04;  0.0000000E+00;  0.0000000E+00;  4.0000000E+04;  0.0000000E+00;  4.0000000E+04;  4.6259136E-04;  0.0000000E+00;  5.6882295E-06;  1.1348466E+02;
 -1.2000000E-01;  9.9999998E-03;  1.4000000E-01;785;  0.0000000E+00;  0.0000000E+00;  0.0000000E+00;  1.0000000E+03;  1.0000000E-01;  0.0000000E+00;0;  0.0000000E+00;  0.0000000E+00;  0.0000000E+00;0;  4.6329733E-04;  4.0000000E+04;  0.0000000E+00;  0.0000000E+00;  4.0000000E+04;  0.0000000E+00;  4.0000000E+04;  4.5613374E-04;  0.0000000E+00;  7.1635973E-06;  1.1350666E+02;
 -1.2000000E-01;  9.9999998E-03;  1.5000001E-01;786;  0.0000000E+00;  0.0000000E+00;  0.0000000E+00;  1.0000000E+03;  1.0000000E-01;  0.0000000E+00;0;  0.0000000E+00;  0.0000000E+00;  0.0000000E+00;0;  4.6025994E-04;  4.0000000E+04;  0.0000000E+00;  0.0000000E+00;  4.0000000E+04;  0.0000000E+00;  4.0000000E+04;  4.5179363E-04;  0.0000000E+00;  8.4662943E-06;  1.1409870E+02;
 -1.2000000E-01;  9.9999998E-03;  1.6000000E-01;787;  0.0000000E+00;  0.0000000E+00;  0.0000000E+00;  1.0000000E+03;  1.0000000E-01;  0.0000000E+00;0;  0.0000000E+00;  0.0000000E+00;  0.0000000E+00;0;  4.5951694E-04;  4.0000000E+04;  0.0000000E+00;  0.0000000E+00;  4.0000000E+04;  0.0000000E+00;  4.0000000E+04;  4.5008300E-04;  0.0000000E+00;  9.4339357E-06;  1.1535581E+02;
 -1.2000000E-01;  9.9999998E-03;  1.7000000E-01;788;  0.0000000E+00;  0.0000000E+00;  0.0000000E+00;  1.0000000E+03;  1.0000000E-01;  0.0000000E+00;0;  0.0000000E+00;  0.0000000E+00;  0.0000000E+00;0;  4.6090304E-04;  4.0000000E+04;  0.0000000E+00;  0.0000000E+00;  4.0000000E+04;  0.0000000E+00;  4.0000000E+04;  4.5098603E-04;  0.0000000E+00;  9.9170211E-06;  1.1732647E+02;
 -1.2000000E-01;  9.9999998E-03;  1.8000001E-01;789;  0.0000000E+00;  0.0000000E+00;  0.0000000E+00;  1.0000000E+03;  1.0000000E-01;  0.0000000E+00;0;  0.0000000E+00;  0.0000000E+00;  0.0000000E+00;0;  4.6358455E-04;  4.0000000E+04;  0.0000000E+00;  0.0000000E+00;  4.0000000E+04;  0.0000000E+00;  4.0000000E+04;  4.5377860E-04;  0.0000000E+00;  9.8059618E-06;  1.1987475E+02;
 -1.2000000E-01;  9.9999998E-03;  1.9000000E-01;790;  0.0000000E+00;  0.0000000E+00;  0.0000000E+00;  1.0000000E+03;  1.0000000E-01;  0.0000000E+00;0;  0.0000000E+00;  0.0000000E+00;  0.0000000E+00;0;  4.6600419E-04;  4.0000000E+04;  0.0000000E+00;  0.0000000E+00;  4.0000000E+04;  0.0000000E+00;  4.0000000E+04;  4.5695718E-04;  0.0000000E+00;  9.0470121E-06;  1.2246234E+02;
 -1.2000000E-01;  9.9999998E-03;  2.0000000E-01;791;  0.0000000E+00;  0.0000000E+00;  0.0000000E+00;  1.0000000E+03;  1.0000000E-01;  0.0000000E+00;0;  0.0000000E+00;  0.0000000E+00;  0.0000000E+00;0;  4.6598303E-04;  4.0000000E+04;  0.0000000E+00;  0.0000000E+00;  4.0000000E+04;  0.0000000E+00;  4.0000000E+04;  4.5835454E-04;  0.0000000E+00;  7.6284882E-06;  1.2404464E+02;
 -1.2000000E-01;  9.9999998E-03;  2.0999999E-01;792;  0.0000000E+00;  0.0000000E+00;  0.0000000E+00;  1.0000000E+03;  1.0000000E-01;  0.0000000E+00;0;  0.0000000E+00;  0.0000000E+00;  0.0000000E+00;0;  4.6107202E-04;  4.0000000E+04;  0.0000000E+00;  0.0000000E+00;  4.0000000E+04;  0.0000000E+00;  4.0000000E+04;  4.5546945E-04;  0.0000000E+00;  5.6025615E-06;  1.2320938E+02;
 -1.2000000E-01;  9.9999998E-03;  2.2000000E-01;793;  0.0000000E+00;  0.0000000E+00;  0.0000000E+00;  1.0000000E+03;  1.0000000E-01;  0.0000000E+00;0;  0.0000000E+00;  0.0000000E+00;  0.0000000E+00;0;  4.4902781E-04;  4.0000000E+04;  0.0000000E+00;  0.0000000E+00;  4.0000000E+04;  0.0000000E+00;  4.0000000E+04;  4.4593654E-04;  0.0000000E+00;  3.0912570E-06;  1.1839721E+02;
 -1.2000000E-01;  9.9999998E-03;  2.3000000E-01;794;  0.0000000E+00;  0.0000000E+00;  0.0000000E+00;  1.0000000E+03;  1.0000000E-01;  0.0000000E+00;0;  0.0000000E+00;  0.0000000E+00;  0.0000000E+00;0;  4.2828577E-04;  4.0000000E+04;  0.0000000E+00;  0.0000000E+00;  4.0000000E+04;  0.0000000E+00;  4.0000000E+04;  4.2800125E-04;  0.0000000E+00;  2.8451470E-07;  1.0830621E+02;
 -1.1000000E-01;  9.9999998E-03;  7.0000000E-02;869;  0.0000000E+00;  0.0000000E+00;  0.0000000E+00;  1.0000000E+03;  1.0000000E-01;  0.0000000E+00;0;  0.0000000E+00;  0.0000000E+00;  0.0000000E+00;0;  8.4552413E-04;  4.0000000E+04;  0.0000000E+00;  0.0000000E+00;  4.0000000E+04;  0.0000000E+00;  4.0000000E+04;  8.4576639E-04;  0.0000000E+00; -2.4225085E-07;  2.1980521E+02;
 -1.1000000E-01;  9.9999998E-03;  7.9999998E-02;870;  0.0000000E+00;  0.0000000E+00;  0.0000000E+00;  1.0000000E+03;  1.0000000E-01;  0.0000000E+00;0;  0.0000000E+00;  0.0000000E+00;  0.0000000E+00;0;  8.4053131E-04;  4.0000000E+04;  0.0000000E+00;  0.0000000E+00;  4.0000000E+04;  0.0000000E+00;  4.0000000E+04;  8.3981361E-04;  0.0000000E+00;  7.1769784E-07;  2.1696518E+02;
 -1.1000000E-01;  9.9999998E-03;  9.0000004E-02;871;  0.0000000E+00;  0.0000000E+00;  0.0000000E+00;  1.0000000E+03;  1.0000000E-01;  0.0000000E+00;0;  0.0000000E+00;  0.0000000E+00;  0.0000000E+00;0;  8.3320570E-04;  4.0000000E+04;  0.0000000E+00;  0.0000000E+00;  4.0000000E+04;  0.0000000E+00;  4.0000000E+04;  8.3094888E-04;  0.0000000E+00;  2.2568195E-06;  2.1375653E+02;
 -1.1000000E-01;  9.9999998E-03;  1.0000000E-01;872;  0.0000000E+00;  0.0000000E+00;  0.0000000E+00;  1.0000000E+03;  1.0000000E-01;  0.0000000E+00;0;  0.0000000E+00;  0.0000000E+00;  0.0000000E+00;0;  8.2385732E-04;  4.0000000E+04;  0.0000000E+00;  0.0000000E+00;  4.0000000E+04;  0.0000000E+00;  4.0000000E+04;  8.1947906E-04;  0.0000000E+00;  4.3782884E-06;  2.1048438E+02;
 -1.1000000E-01;  9.9999998E-03;  1.1000000E-01;873;  0.0000000E+00;  0.0000000E+00;  0.0000000E+00;  1.0000000E+03;  1.0000000E-01;  0.0000000E+00;0;  0.0000000E+00;  0.0000000E+00;  0.0000000E+00;0;  8.1318035E-04;  4.0000000E+04;  0.0000000E+00;  0.0000000E+00;  4.0000000E+04;  0.0000000E+00;  4.0000000E+04;  8.0616563E-04;  0.0000000E+00;  7.0147353E-06;  2.0750066E+02;
 -1.1000000E-01;  9.9999998E-03;  1.2000000E-01;874;  0.0000000E+00;  0.0000000E+00;  0.0000000E+00;  1.0000000E+03;  1.0000000E-01;  0.0000000E+00;0;  0.0000000E+00;  0.0000000E+00;  0.0000000E+00;0;  8.0220884E-04;  4.0000000E+04;  0.0000000E+00;  0.0000000E+00;  4.0000000E+04;  0.0000000E+00;  4.0000000E+04;  7.9218636E-04;  0.0000000E+00;  1.0022472E-05;  2.0517183E+02;
 -1.1000000E-01;  9.9999998E-03;  1.3000000E-01;875;  0.0000000E+00;  0.0000000E+00;  0.0000000E+00;  1.0000000E+03;  1.0000000E-01;  0.0000000E+00;0;  0.0000000E+00;  0.0000000E+00;  0.0000000E+00;0;  7.9217652E-04;  4.0000000E+04;  0.0000000E+00;  0.0000000E+00;  4.0000000E+04;  0.0000000E+00;  4.0000000E+04;  7.7899283E-04;  0.0000000E+00;  1.3183666E-05;  2.0386287E+02;
 -1.1000000E-01;  9.9999998E-03;  1.4000000E-01;876;  0.0000000E+00;  0.0000000E+00;  0.0000000E+00;  1.0000000E+03;  1.0000000E-01;  0.0000000E+00;0;  0.0000000E+00;  0.0000000E+00;  0.0000000E+00;0;  7.8430469E-04;  4.0000000E+04;  0.0000000E+00;  0.0000000E+00;  4.0000000E+04;  0.0000000E+00;  4.0000000E+04;  7.6808652E-04;  0.0000000E+00;  1.6218166E-05;  2.0394720E+02;
 -1.1000000E-01;  9.9999998E-03;  1.5000001E-01;877;  0.0000000E+00;  0.0000000E+00;  0.0000000E+00;  1.0000000E+03;  1.0000000E-01;  0.0000000E+00;0;  0.0000000E+00;  0.0000000E+00;  0.0000000E+00;0;  7.7951892E-04;  4.0000000E+04;  0.0000000E+00;  0.0000000E+00;  4.0000000E+04;  0.0000000E+00;  4.0000000E+04;  7.6071243E-04;  0.0000000E+00;  1.8806461E-05;  2.0579073E+02;
 -1.1000000E-01;  9.9999998E-03;  1.6000000E-01;878;  0.0000000E+00;  0.0000000E+00;  0.0000000E+00;  1.0000000E+03;  1.0000000E-01;  0.0000000E+00;0;  0.0000000E+00;  0.0000000E+00;  0.0000000E+00;0;  7.7814079E-04;  4.0000000E+04;  0.0000000E+00;  0.0000000E+00;  4.0000000E+04;  0.0000000E+00;  4.0000000E+04;  7.5751648E-04;  0.0000000E+00;  2.0624331E-05;  2.0968588E+02;
 -1.1000000E-01;  9.9999998E-03;  1.7000000E-01;879;  0.0000000E+00;  0.0000000E+00;  0.0000000E+00;  1.0000000E+03;  1.0000000E-01;  0.0000000E+00;0;  0.0000000E+00;  0.0000000E+00;  0.0000000E+00;0;  7.7961915E-04;  4.0000000E+04;  0.0000000E+00;  0.0000000E+00;  4.0000000E+04;  0.0000000E+00;  4.0000000E+04;  7.5823034E-04;  0.0000000E+00;  2.1388794E-05;  2.1565192E+02;
 -1.1000000E-01;  9.9999998E-03;  1.8000001E-01;880;  0.0000000E+00;  0.0000000E+00;  0.0000000E+00;  1.0000000E+03;  1.0000000E-01;  0.0000000E+00;0;  0.0000000E+00;  0.0000000E+00;  0.0000000E+00;0;  7.8233448E-04;  4.0000000E+04;  0.0000000E+00;  0.0000000E+00;  4.0000000E+04;  0.0000000E+00;  4.0000000E+04;  7.6143671E-04;  0.0000000E+00;  2.0897774E-05;  2.2309854E+02;
 -1.1000000E-01;  9.9999998E-03;  1.9000000E-01;881;  0.0000000E+00;  0.0000000E+00;  0.0000000E+00;  1.0000000E+03;  1.0000000E-01;  0.0000000E+00;0;  0.0000000E+00;  0.0000000E+00;  0.0000000E+00;0;  7.8360172E-04;  4.0000000E+04;  0.0000000E+00;  0.0000000E+00;  4.0000000E+04;  0.0000000E+00;  4.0000000E+04;  7.6457404E-04;  0.0000000E+00;  1.9027664E-05;  2.3055316E+02;
 -1.1000000E-01;  9.9999998E-03;  2.0000000E-01;882;  0.0000000E+00;  0.0000000E+00;  0.0000000E+00;  1.0000000E+03;  1.0000000E-01;  0.0000000E+00;0;  0.0000000E+00;  0.0000000E+00;  0.0000000E+00;0;  7.8000472E-04;  4.0000000E+04;  0.0000000E+00;  0.0000000E+00;  4.0000000E+04;  0.0000000E+00;  4.0000000E+04;  7.6423254E-04;  0.0000000E+00;  1.5772172E-05;  2.3569984E+02;
 -1.1000000E-01;  9.9999998E-03;  2.0999999E-01;883;  0.0000000E+00;  0.0000000E+00;  0.0000000E+00;  1.0000000E+03;  1.0000000E-01;  0.0000000E+00;0;  0.0000000E+00;  0.0000000E+00;  0.0000000E+00;0;  7.6797226E-04;  4.0000000E+04;  0.0000000E+00;  0.0000000E+00;  4.0000000E+04;  0.0000000E+00;  4.0000000E+04;  7.5670617E-04;  0.0000000E+00;  1.1266116E-05;  2.3559097E+02;
 -1.1000000E-01;  9.9999998E-03;  2.2000000E-01;884;  0.0000000E+00;  0.0000000E+00;  0.0000000E+00;  1.0000000E+03;  1.0000000E-01;  0.0000000E+00;0;  0.0000000E+00;  0.0000000E+00;  0.0000000E+00;0;  7.4443454E-04;  4.0000000E+04;  0.0000000E+00;  0.0000000E+00;  4.0000000E+04;  0.0000000E+00;  4.0000000E+04;  7.3863671E-04;  0.0000000E+00;  5.7978186E-06;  2.2720209E+02;
 -1.1000000E-01;  9.9999998E-03;  2.3000000E-01;885;  0.0000000E+00;  0.0000000E+00;  0.0000000E+00;  1.0000000E+03;  1.0000000E-01;  0.0000000E+00;0;  0.0000000E+00;  0.0000000E+00;  0.0000000E+00;0;  7.0741941E-04;  4.0000000E+04;  0.0000000E+00;  0.0000000E+00;  4.0000000E+04;  0.0000000E+00;  4.0000000E+04;  7.0762524E-04;  0.0000000E+00; -2.0581234E-07;  2.0821562E+02;
 -1.0000000E-01;  9.9999998E-03;  7.0000000E-02;960;  0.0000000E+00;  0.0000000E+00;  0.0000000E+00;  1.0000331E+03;  1.0000000E-01;  2.7456013E+01;0;  0.0000000E+00;  0.0000000E+00;  0.0000000E+00;0;  1.2479253E-03;  4.0000000E+04;  0.0000000E+00;  0.0000000E+00;  4.0000000E+04;  0.0000000E+00;  4.0000000E+04;  1.2474809E-03;  0.0000000E+00;  4.4450371E-07;  3.6007840E+02;
 -1.0000000E-01;  9.9999998E-03;  7.9999998E-02;961;  0.0000000E+00;  0.0000000E+00;  0.0000000E+00;  1.0000419E+03;  1.0000000E-01;  3.4764450E+01;0;  0.0000000E+00;  0.0000000E+00;  0.0000000E+00;0;  1.2398273E-03;  4.0000000E+04;  0.0000000E+00;  0.0000000E+00;  4.0000000E+04;  0.0000000E+00;  4.0000000E+04;  1.2373414E-03;  0.0000000E+00;  2.4858414E-06;  3.5439551E+02;
 -1.0000000E-01;  9.9999998E-03;  9.0000004E-02;962;  0.0000000E+00;  0.0000000E+00;  0.0000000E+00;  1.0000537E+03;  1.0000000E-01;  4.4541950E+01;0;  0.0000000E+00;  0.0000000E+00;  0.0000000E+00;0;  1.2284246E-03;  4.0000000E+04;  0.0000000E+00;  0.0000000E+00;  4.0000000E+04;  0.0000000E+00;  4.0000000E+04;  1.2228369E-03;  0.0000000E+00;  5.5877385E-06;  3.4796698E+02;
 -1.0000000E-01;  9.9999998E-03;  1.0000000E-01;963;  0.0000000E+00;  0.0000000E+00;  0.0000000E+00;  1.0000644E+03;  1.0000000E-01;  5.3331825E+01;0;  0.0000000E+00;  0.0000000E+00;  0.0000000E+00;0;  1.2142676E-03;  4.0000000E+04;  0.0000000E+00;  0.0000000E+00;  4.0000000E+04;  0.0000000E+00;  4.0000000E+04;  1.2045425E-03;  0.0000000E+00;  9.7251313E-06;  3.4134891E+02;
 -1.0000000E-01;  9.9999998E-03;  1.1000000E-01;964;  0.0000000E+00;  0.0000000E+00;  0.0000000E+00;  1.0000693E+03;  1.0000000E-01;  5.7479855E+01;0;  0.0000000E+00;  0.0000000E+00;  0.0000000E+00;0;  1.1984493E-03;  4.0000000E+04;  0.0000000E+00;  0.0000000E+00;  4.0000000E+04;  0.0000000E+00;  4.0000000E+04;  1.1837097E-03;  0.0000000E+00;  1.4739549E-05;  3.3524551E+02;
 -1.0000000E-01;  9.9999998E-03;  1.2000000E-01;965;  0.0000000E+00;  0.0000000E+00;  0.0000000E+00;  1.0000701E+03;  1.0000000E-01;  5.8072433E+01;0;  0.0000000E+00;  0.0000000E+00;  0.0000000E+00;0;  1.1825166E-03;  4.0000000E+04;  0.0000000E+00;  0.0000000E+00;  4.0000000E+04;  0.0000000E+00;  4.0000000E+04;  1.1621816E-03;  0.0000000E+00;  2.0335010E-05;  3.3045923E+02;
 -1.0000000E-01;  9.9999998E-03;  1.3000000E-01;966;  0.0000000E+00;  0.0000000E+00;  0.0000000E+00;  1.0000718E+03;  1.0000000E-01;  5.9455109E+01;0;  0.0000000E+00;  0.0000000E+00;  0.0000000E+00;0;  1.1682325E-03;  4.0000000E+04;  0.0000000E+00;  0.0000000E+00;  4.0000000E+04;  0.0000000E+00;  4.0000000E+04;  1.1421429E-03;  0.0000000E+00;  2.6089598E-05;  3.2787299E+02;
 -1.0000000E-01;  9.9999998E-03;  1.4000000E-01;967;  0.0000000E+00;  0.0000000E+00;  0.0000000E+00;  1.0000689E+03;  1.0000000E-01;  5.7084805E+01;0;  0.0000000E+00;  0.0000000E+00;  0.0000000E+00;0;  1.1572581E-03;  4.0000000E+04;  0.0000000E+00;  0.0000000E+00;  4.0000000E+04;  0.0000000E+00;  4.0000000E+04;  1.1257745E-03;  0.0000000E+00;  3.1483592E-05;  3.2841254E+02;
 -1.0000000E-01;  9.9999998E-03;  1.5000001E-01;968;  0.0000000E+00;  0.0000000E+00;  0.0000000E+00;  1.0000610E+03;  1.0000000E-01;  5.0566471E+01;0;  0.0000000E+00;  0.0000000E+00;  0.0000000E+00;0;  1.1507319E-03;  4.0000000E+04;  0.0000000E+00;  0.0000000E+00;  4.0000000E+04;  0.0000000E+00;  4.0000000E+04;  1.1147856E-03;  0.0000000E+00;  3.5946399E-05;  3.3296100E+02;
 -1.0000000E-01;  9.9999998E-03;  1.6000000E-01;969;  0.0000000E+00;  0.0000000E+00;  0.0000000E+00;  1.0000398E+03;  1.0000000E-01;  3.2986721E+01;0;  0.0000000E+00;  0.0000000E+00;  0.0000000E+00;0;  1.1488539E-03;  4.0000000E+04;  0.0000000E+00;  0.0000000E+00;  4.0000000E+04;  0.0000000E+00;  4.0000000E+04;  1.1099334E-03;  0.0000000E+00;  3.8920556E-05;  3.4210013E+02;
 -1.0000000E-01;  9.9999998E-03;  1.7000000E-01;970;  0.0000000E+00;  0.0000000E+00;  0.0000000E+00;  1.0000256E+03;  1.0000000E-01;  2.1233967E+01;0;  0.0000000E+00;  0.0000000E+00;  0.0000000E+00;0;  1.1505170E-03;  4.0000000E+04;  0.0000000E+00;  0.0000000E+00;  4.0000000E+04;  0.0000000E+00;  4.0000000E+04;  1.1105823E-03;  0.0000000E+00;  3.9934799E-05;  3.5563782E+02;
 -1.0000000E-01;  9.9999998E-03;  1.8000001E-01;971;  0.0000000E+00;  0.0000000E+00;  0.0000000E+00;  1.0000057E+03;  1.0000000E-01;  4.7406068E+00;0;  0.0000000E+00;  0.0000000E+00;  0.0000000E+00;0;  1.1530990E-03;  4.0000000E+04;  0.0000000E+00;  0.0000000E+00;  4.0000000E+04;  0.0000000E+00;  4.0000000E+04;  1.1144744E-03;  0.0000000E+00;  3.8624581E-05;  3.7208121E+02;
 -1.0000000E-01;  9.9999998E-03;  1.9000000E-01;972;  0.0000000E+00;  0.0000000E+00;  0.0000000E+00;  1.0000000E+03;  1.0000000E-01;  0.0000000E+00;0;  0.0000000E+00;  0.0000000E+00;  0.0000000E+00;0;  1.1526438E-03;  4.0000000E+04;  0.0000000E+00;  0.0000000E+00;  4.0000000E+04;  0.0000000E+00;  4.0000000E+04;  1.1178567E-03;  0.0000000E+00;  3.4787077E-05;  3.8842172E+02;
 -1.0000000E-01;  9.9999998E-03;  2.0000000E-01;973;  0.0000000E+00;  0.0000000E+00;  0.0000000E+00;  1.0000000E+03;  1.0000000E-01;  0.0000000E+00;0;  0.0000000E+00;  0.0000000E+00;  0.0000000E+00;0;  1.1444149E-03;  4.0000000E+04;  0.0000000E+00;  0.0000000E+00;  4.0000000E+04;  0.0000000E+00;  4.0000000E+04;  1.1159757E-03;  0.0000000E+00;  2.8439268E-05;  4.0020367E+02;
 -1.0000000E-01;  9.9999998E-03;  2.0999999E-01;974;  0.0000000E+00;  0.0000000E+00;  0.0000000E+00;  1.0000000E+03;  1.0000000E-01;  0.0000000E+00;0;  0.0000000E+00;  0.0000000E+00;  0.0000000E+00;0;  1.1236680E-03;  4.0000000E+04;  0.0000000E+00;  0.0000000E+00;  4.0000000E+04;  0.0000000E+00;  4.0000000E+04;  1.1038022E-03;  0.0000000E+00;  1.9865773E-05;  4.0208139E+02;
 -1.0000000E-01;  9.9999998E-03;  2.2000000E-01;975;  0.0000000E+00;  0.0000000E+00;  0.0000000E+00;  1.0000000E+03;  1.0000000E-01;  0.0000000E+00;0;  0.0000000E+00;  0.0000000E+00;  0.0000000E+00;0;  1.0864789E-03;  4.0000000E+04;  0.0000000E+00;  0.0000000E+00;  4.0000000E+04;  0.0000000E+00;  4.0000000E+04;  1.0768480E-03;  0.0000000E+00;  9.6308886E-06;  3.8893661E+02;
 -1.0000000E-01;  9.9999998E-03;  2.3000000E-01;976;  0.0000000E+00;  0.0000000E+00;  0.0000000E+00;  1.0000000E+03;  1.0000000E-01;  0.0000000E+00;0;  0.0000000E+00;  0.0000000E+00;  0.0000000E+00;0;  1.0304549E-03;  4.0000000E+04;  0.0000000E+00;  0.0000000E+00;  4.0000000E+04;  0.0000000E+00;  4.0000000E+04;  1.0319225E-03;  0.0000000E+00; -1.4676925E-06;  3.5711227E+02;
 -9.0000004E-02;  9.9999998E-03;  7.0000000E-02;1051;  0.0000000E+00;  0.0000000E+00;  0.0000000E+00;  1.0002427E+03;  1.0000000E-01;  2.0108073E+02;0;  0.0000000E+00;  0.0000000E+00;  0.0000000E+00;0;  1.6562706E-03;  4.0000000E+04;  0.0000000E+00;  0.0000000E+00;  4.0000000E+04;  0.0000000E+00;  4.0000000E+04;  1.6539679E-03;  0.0000000E+00;  2.3026826E-06;  5.4297528E+02;
 -9.0000004E-02;  9.9999998E-03;  7.9999998E-02;1052;  0.0000000E+00;  0.0000000E+00;  0.0000000E+00;  1.0002538E+03;  1.0000000E-01;  2.1026566E+02;0;  0.0000000E+00;  0.0000000E+00;  0.0000000E+00;0;  1.6444043E-03;  4.0000000E+04;  0.0000000E+00;  0.0000000E+00;  4.0000000E+04;  0.0000000E+00;  4.0000000E+04;  1.6383008E-03;  0.0000000E+00;  6.1033811E-06;  5.3289673E+02;
 -9.0000004E-02;  9.9999998E-03;  9.0000004E-02;1053;  0.0000000E+00;  0.0000000E+00;  0.0000000E+00;  1.0002656E+03;  1.0000000E-01;  2.2004315E+02;0;  0.0000000E+00;  0.0000000E+00;  0.0000000E+00;0;  1.6281880E-03;  4.0000000E+04;  0.0000000E+00;  0.0000000E+00;  4.0000000E+04;  0.0000000E+00;  4.0000000E+04;  1.6165543E-03;  0.0000000E+00;  1.1633582E-05;  5.2157495E+02;
 -9.0000004E-02;  9.9999998E-03;  1.0000000E-01;1054;  0.0000000E+00;  0.0000000E+00;  0.0000000E+00;  1.0002743E+03;  1.0000000E-01;  2.2725284E+02;0;  0.0000000E+00;  0.0000000E+00;  0.0000000E+00;0;  1.6084797E-03;  4.0000000E+04;  0.0000000E+00;  0.0000000E+00;  4.0000000E+04;  0.0000000E+00;  4.0000000E+04;  1.5896758E-03;  0.0000000E+00;  1.8803885E-05;  5.0994962E+02;
 -9.0000004E-02;  9.9999998E-03;  1.1000000E-01;1055;  0.0000000E+00;  0.0000000E+00;  0.0000000E+00;  1.0002818E+03;  1.0000000E-01;  2.3347488E+02;0;  0.0000000E+00;  0.0000000E+00;  0.0000000E+00;0;  1.5868603E-03;  4.0000000E+04;  0.0000000E+00;  0.0000000E+00;  4.0000000E+04;  0.0000000E+00;  4.0000000E+04;  1.5595555E-03;  0.0000000E+00;  2.7304779E-05;  4.9925626E+02;
 -9.0000004E-02;  9.9999998E-03;  1.2000000E-01;1056;  0.0000000E+00;  0.0000000E+00;  0.0000000E+00;  1.0002889E+03;  1.0000000E-01;  2.3930188E+02;0;  0.0000000E+00;  0.0000000E+00;  0.0000000E+00;0;  1.5654727E-03;  4.0000000E+04;  0.0000000E+00;  0.0000000E+00;  4.0000000E+04;  0.0000000E+00;  4.0000000E+04;  1.5288634E-03;  0.0000000E+00;  3.6609228E-05;  4.9099545E+02;
 -9.0000004E-02;  9.9999998E-03;  1.3000000E-01;1057;  0.0000000E+00;  0.0000000E+00;  0.0000000E+00;  1.0002887E+03;  1.0000000E-01;  2.3920311E+02;0;  0.0000000E+00;  0.0000000E+00;  0.0000000E+00;0;  1.5466938E-03;  4.0000000E+04;  0.0000000E+00;  0.0000000E+00;  4.0000000E+04;  0.0000000E+00;  4.0000000E+04;  1.5006936E-03;  0.0000000E+00;  4.6000259E-05;  4.8687796E+02;
 -9.0000004E-02;  9.9999998E-03;  1.4000000E-01;1058;  0.0000000E+00;  0.0000000E+00;  0.0000000E+00;  1.0002766E+03;  1.0000000E-01;  2.2912932E+02;0;  0.0000000E+00;  0.0000000E+00;  0.0000000E+00;0;  1.5326736E-03;  4.0000000E+04;  0.0000000E+00;  0.0000000E+00;  4.0000000E+04;  0.0000000E+00;  4.0000000E+04;  1.4780486E-03;  0.0000000E+00;  5.4624939E-05;  4.8871738E+02;
 -9.0000004E-02;  9.9999998E-03;  1.5000001E-01;1059;  0.0000000E+00;  0.0000000E+00;  0.0000000E+00;  1.0002591E+03;  1.0000000E-01;  2.1461122E+02;0;  0.0000000E+00;  0.0000000E+00;  0.0000000E+00;0;  1.5247851E-03;  4.0000000E+04;  0.0000000E+00;  0.0000000E+00;  4.0000000E+04;  0.0000000E+00;  4.0000000E+04;  1.4632123E-03;  0.0000000E+00;  6.1572726E-05;  4.9817389E+02;
 -9.0000004E-02;  9.9999998E-03;  1.6000000E-01;1060;  0.0000000E+00;  0.0000000E+00;  0.0000000E+00;  1.0002326E+03;  1.0000000E-01;  1.9268591E+02;0;  0.0000000E+00;  0.0000000E+00;  0.0000000E+00;0;  1.5230576E-03;  4.0000000E+04;  0.0000000E+00;  0.0000000E+00;  4.0000000E+04;  0.0000000E+00;  4.0000000E+04;  1.4570775E-03;  0.0000000E+00;  6.5980130E-05;  5.1614355E+02;
 -9.0000004E-02;  9.9999998E-03;  1.7000000E-01;1061;  0.0000000E+00;  0.0000000E+00;  0.0000000E+00;  1.0002028E+03;  1.0000000E-01;  1.6799525E+02;0;  0.0000000E+00;  0.0000000E+00;  0.0000000E+00;0;  1.5257130E-03;  4.0000000E+04;  0.0000000E+00;  0.0000000E+00;  4.0000000E+04;  0.0000000E+00;  4.0000000E+04;  1.4586161E-03;  0.0000000E+00;  6.7096931E-05;  5.4194830E+02;
 -9.0000004E-02;  9.9999998E-03;  1.8000001E-01;1062;  0.0000000E+00;  0.0000000E+00;  0.0000000E+00;  1.0001681E+03;  1.0000000E-01;  1.3925533E+02;0;  0.0000000E+00;  0.0000000E+00;  0.0000000E+00;0;  1.5290381E-03;  4.0000000E+04;  0.0000000E+00;  0.0000000E+00;  4.0000000E+04;  0.0000000E+00;  4.0000000E+04;  1.4646925E-03;  0.0000000E+00;  6.4345542E-05;  5.7269379E+02;
 -9.0000004E-02;  9.9999998E-03;  1.9000000E-01;1063;  0.0000000E+00;  0.0000000E+00;  0.0000000E+00;  1.0001334E+03;  1.0000000E-01;  1.1051540E+02;0;  0.0000000E+00;  0.0000000E+00;  0.0000000E+00;0;  1.5277370E-03;  4.0000000E+04;  0.0000000E+00;  0.0000000E+00;  4.0000000E+04;  0.0000000E+00;  4.0000000E+04;  1.4703132E-03;  0.0000000E+00;  5.7423877E-05;  6.0297894E+02;
 -9.0000004E-02;  9.9999998E-03;  2.0000000E-01;1064;  0.0000000E+00;  0.0000000E+00;  0.0000000E+00;  1.0000913E+03;  1.0000000E-01;  7.5652184E+01;0;  0.0000000E+00;  0.0000000E+00;  0.0000000E+00;0;  1.5156756E-03;  4.0000000E+04;  0.0000000E+00;  0.0000000E+00;  4.0000000E+04;  0.0000000E+00;  4.0000000E+04;  1.4692687E-03;  0.0000000E+00;  4.6406843E-05;  6.2519385E+02;
 -9.0000004E-02;  9.9999998E-03;  2.0999999E-01;1065;  0.0000000E+00;  0.0000000E+00;  0.0000000E+00;  1.0000566E+03;  1.0000000E-01;  4.6912254E+01;0;  0.0000000E+00;  0.0000000E+00;  0.0000000E+00;0;  1.4868570E-03;  4.0000000E+04;  0.0000000E+00;  0.0000000E+00;  4.0000000E+04;  0.0000000E+00;  4.0000000E+04;  1.4550388E-03;  0.0000000E+00;  3.1818210E-05;  6.3074231E+02;
 -9.0000004E-02;  9.9999998E-03;  2.2000000E-01;1066;  0.0000000E+00;  0.0000000E+00;  0.0000000E+00;  1.0000406E+03;  1.0000000E-01;  3.3678059E+01;0;  0.0000000E+00;  0.0000000E+00;  0.0000000E+00;0;  1.4364070E-03;  4.0000000E+04;  0.0000000E+00;  0.0000000E+00;  4.0000000E+04;  0.0000000E+00;  4.0000000E+04;  1.4217835E-03;  0.0000000E+00;  1.4623484E-05;  6.1179675E+02;
 -9.0000004E-02;  9.9999998E-03;  2.3000000E-01;1067;  0.0000000E+00;  0.0000000E+00;  0.0000000E+00;  1.0000269E+03;  1.0000000E-01;  2.2320356E+01;0;  0.0000000E+00;  0.0000000E+00;  0.0000000E+00;0;  1.3614208E-03;  4.0000000E+04;  0.0000000E+00;  0.0000000E+00;  4.0000000E+04;  0.0000000E+00;  4.0000000E+04;  1.3652822E-03;  0.0000000E+00; -3.8613935E-06;  5.6299066E+02;
 -7.9999998E-02;  9.9999998E-03;  7.0000000E-02;1142;  0.0000000E+00;  0.0000000E+00;  0.0000000E+00;  1.0006368E+03;  1.0000000E-01;  5.2759003E+02;0;  0.0000000E+00;  0.0000000E+00;  0.0000000E+00;0;  2.0018094E-03;  4.0000000E+04;  0.0000000E+00;  0.0000000E+00;  4.0000000E+04;  0.0000000E+00;  4.0000000E+04;  1.9957700E-03;  0.0000000E+00;  6.0393613E-06;  7.6714062E+02;
 -7.9999998E-02;  9.9999998E-03;  7.9999998E-02;1143;  0.0000000E+00;  0.0000000E+00;  0.0000000E+00;  1.0006516E+03;  1.0000000E-01;  5.3983661E+02;0;  0.0000000E+00;  0.0000000E+00;  0.0000000E+00;0;  1.9856992E-03;  4.0000000E+04;  0.0000000E+00;  0.0000000E+00;  4.0000000E+04;  0.0000000E+00;  4.0000000E+04;  1.9732655E-03;  0.0000000E+00;  1.2433700E-05;  7.5091046E+02;
 -7.9999998E-02;  9.9999998E-03;  9.0000004E-02;1144;  0.0000000E+00;  0.0000000E+00;  0.0000000E+00;  1.0006669E+03;  1.0000000E-01;  5.5247821E+02;0;  0.0000000E+00;  0.0000000E+00;  0.0000000E+00;0;  1.9641074E-03;  4.0000000E+04;  0.0000000E+00;  0.0000000E+00;  4.0000000E+04;  0.0000000E+00;  4.0000000E+04;  1.9427040E-03;  0.0000000E+00;  2.1403528E-05;  7.3287848E+02;
 -7.9999998E-02;  9.9999998E-03;  1.0000000E-01;1145;  0.0000000E+00;  0.0000000E+00;  0.0000000E+00;  1.0006817E+03;  1.0000000E-01;  5.6482355E+02;0;  0.0000000E+00;  0.0000000E+00;  0.0000000E+00;0;  1.9382542E-03;  4.0000000E+04;  0.0000000E+00;  0.0000000E+00;  4.0000000E+04;  0.0000000E+00;  4.0000000E+04;  1.9055094E-03;  0.0000000E+00;  3.2744796E-05;  7.1451703E+02;
 -7.9999998E-02;  9.9999998E-03;  1.1000000E-01;1146;  0.0000000E+00;  0.0000000E+00;  0.0000000E+00;  1.0006939E+03;  1.0000000E-01;  5.7489734E+02;0;  0.0000000E+00;  0.0000000E+00;  0.0000000E+00;0;  1.9102944E-03;  4.0000000E+04;  0.0000000E+00;  0.0000000E+00;  4.0000000E+04;  0.0000000E+00;  4.0000000E+04;  1.8643669E-03;  0.0000000E+00;  4.5927416E-05;  6.9782135E+02;
 -7.9999998E-02;  9.9999998E-03;  1.2000000E-01;1147;  0.0000000E+00;  0.0000000E+00;  0.0000000E+00;  1.0006985E+03;  1.0000000E-01;  5.7865033E+02;0;  0.0000000E+00;  0.0000000E+00;  0.0000000E+00;0;  1.8830819E-03;  4.0000000E+04;  0.0000000E+00;  0.0000000E+00;  4.0000000E+04;  0.0000000E+00;  4.0000000E+04;  1.8229710E-03;  0.0000000E+00;  6.0110822E-05;  6.8526459E+02;
 -7.9999998E-02;  9.9999998E-03;  1.3000000E-01;1148;  0.0000000E+00;  0.0000000E+00;  0.0000000E+00;  1.0006931E+03;  1.0000000E-01;  5.7420599E+02;0;  0.0000000E+00;  0.0000000E+00;  0.0000000E+00;0;  1.8597312E-03;  4.0000000E+04;  0.0000000E+00;  0.0000000E+00;  4.0000000E+04;  0.0000000E+00;  4.0000000E+04;  1.7855359E-03;  0.0000000E+00;  7.4195232E-05;  6.7972845E+02;
 -7.9999998E-02;  9.9999998E-03;  1.4000000E-01;1149;  0.0000000E+00;  0.0000000E+00;  0.0000000E+00;  1.0006749E+03;  1.0000000E-01;  5.5919403E+02;0;  0.0000000E+00;  0.0000000E+00;  0.0000000E+00;0;  1.8430090E-03;  4.0000000E+04;  0.0000000E+00;  0.0000000E+00;  4.0000000E+04;  0.0000000E+00;  4.0000000E+04;  1.7561042E-03;  0.0000000E+00;  8.6904845E-05;  6.8426550E+02;
 -7.9999998E-02;  9.9999998E-03;  1.5000001E-01;1150;  0.0000000E+00;  0.0000000E+00;  0.0000000E+00;  1.0006521E+03;  1.0000000E-01;  5.4023163E+02;0;  0.0000000E+00;  0.0000000E+00;  0.0000000E+00;0;  1.8346104E-03;  4.0000000E+04;  0.0000000E+00;  0.0000000E+00;  4.0000000E+04;  0.0000000E+00;  4.0000000E+04;  1.7377016E-03;  0.0000000E+00;  9.6908763E-05;  7.0153650E+02;
 -7.9999998E-02;  9.9999998E-03;  1.6000000E-01;1151;  0.0000000E+00;  0.0000000E+00;  0.0000000E+00;  1.0006107E+03;  1.0000000E-01;  5.0596100E+02;0;  0.0000000E+00;  0.0000000E+00;  0.0000000E+00;0;  1.8344366E-03;  4.0000000E+04;  0.0000000E+00;  0.0000000E+00;  4.0000000E+04;  0.0000000E+00;  4.0000000E+04;  1.7314862E-03;  0.0000000E+00;  1.0295039E-04;  7.3271014E+02;
 -7.9999998E-02;  9.9999998E-03;  1.7000000E-01;1152;  0.0000000E+00;  0.0000000E+00;  0.0000000E+00;  1.0005601E+03;  1.0000000E-01;  4.6398688E+02;0;  0.0000000E+00;  0.0000000E+00;  0.0000000E+00;0;  1.8400503E-03;  4.0000000E+04;  0.0000000E+00;  0.0000000E+00;  4.0000000E+04;  0.0000000E+00;  4.0000000E+04;  1.7361408E-03;  0.0000000E+00;  1.0390949E-04;  7.7633923E+02;
 -7.9999998E-02;  9.9999998E-03;  1.8000001E-01;1153;  0.0000000E+00;  0.0000000E+00;  0.0000000E+00;  1.0005017E+03;  1.0000000E-01;  4.1569196E+02;0;  0.0000000E+00;  0.0000000E+00;  0.0000000E+00;0;  1.8466435E-03;  4.0000000E+04;  0.0000000E+00;  0.0000000E+00;  4.0000000E+04;  0.0000000E+00;  4.0000000E+04;  1.7477046E-03;  0.0000000E+00;  9.8938966E-05;  8.2749023E+02;
 -7.9999998E-02;  9.9999998E-03;  1.9000000E-01;1154;  0.0000000E+00;  0.0000000E+00;  0.0000000E+00;  1.0004408E+03;  1.0000000E-01;  3.6522424E+02;0;  0.0000000E+00;  0.0000000E+00;  0.0000000E+00;0;  1.8475420E-03;  4.0000000E+04;  0.0000000E+00;  0.0000000E+00;  4.0000000E+04;  0.0000000E+00;  4.0000000E+04;  1.7599183E-03;  0.0000000E+00;  8.7623746E-05;  8.7736987E+02;
 -7.9999998E-02;  9.9999998E-03;  2.0000000E-01;1155;  0.0000000E+00;  0.0000000E+00;  0.0000000E+00;  1.0003779E+03;  1.0000000E-01;  3.1307758E+02;0;  0.0000000E+00;  0.0000000E+00;  0.0000000E+00;0;  1.8351360E-03;  4.0000000E+04;  0.0000000E+00;  0.0000000E+00;  4.0000000E+04;  0.0000000E+00;  4.0000000E+04;  1.7649909E-03;  0.0000000E+00;  7.0145157E-05;  9.1431091E+02;
 -7.9999998E-02;  9.9999998E-03;  2.0999999E-01;1156;  0.0000000E+00;  0.0000000E+00;  0.0000000E+00;  1.0003207E+03;  1.0000000E-01;  2.6577026E+02;0;  0.0000000E+00;  0.0000000E+00;  0.0000000E+00;0;  1.8020259E-03;  4.0000000E+04;  0.0000000E+00;  0.0000000E+00;  4.0000000E+04;  0.0000000E+00;  4.0000000E+04;  1.7546683E-03;  0.0000000E+00;  4.7357673E-05;  9.2574823E+02;
 -7.9999998E-02;  9.9999998E-03;  2.2000000E-01;1157;  0.0000000E+00;  0.0000000E+00;  0.0000000E+00;  1.0002773E+03;  1.0000000E-01;  2.2972189E+02;0;  0.0000000E+00;  0.0000000E+00;  0.0000000E+00;0;  1.7421938E-03;  4.0000000E+04;  0.0000000E+00;  0.0000000E+00;  4.0000000E+04;  0.0000000E+00;  4.0000000E+04;  1.7214424E-03;  0.0000000E+00;  2.0751344E-05;  9.0049237E+02;
 -7.9999998E-02;  9.9999998E-03;  2.3000000E-01;1158;  0.0000000E+00;  0.0000000E+00;  0.0000000E+00;  1.0002444E+03;  1.0000000E-01;  2.0256218E+02;0;  0.0000000E+00;  0.0000000E+00;  0.0000000E+00;0;  1.6520187E-03;  4.0000000E+04;  0.0000000E+00;  0.0000000E+00;  4.0000000E+04;  0.0000000E+00;  4.0000000E+04;  1.6597116E-03;  0.0000000E+00; -7.6927899E-06;  8.3097473E+02;
 -7.0000000E-02;  9.9999998E-03;  7.0000000E-02;1233;  0.0000000E+00;  0.0000000E+00;  0.0000000E+00;  1.0012885E+03;  1.0000000E-01;  1.0674266E+03;0;  0.0000000E+00;  0.0000000E+00;  0.0000000E+00;0;  2.1989935E-03;  4.0000000E+04;  0.0000000E+00;  0.0000000E+00;  4.0000000E+04;  0.0000000E+00;  4.0000000E+04;  2.1865468E-03;  0.0000000E+00;  1.2446735E-05;  1.0257117E+03;
 -7.0000000E-02;  9.9999998E-03;  7.9999998E-02;1234;  0.0000000E+00;  0.0000000E+00;  0.0000000E+00;  1.0013115E+03;  1.0000000E-01;  1.0865865E+03;0;  0.0000000E+00;  0.0000000E+00;  0.0000000E+00;0;  2.1783977E-03;  4.0000000E+04;  0.0000000E+00;  0.0000000E+00;  4.0000000E+04;  0.0000000E+00;  4.0000000E+04;  2.1560374E-03;  0.0000000E+00;  2.2360280E-05;  1.0016148E+03;
 -7.0000000E-02;  9.9999998E-03;  9.0000004E-02;1235;  0.0000000E+00;  0.0000000E+00;  0.0000000E+00;  1.0013352E+03;  1.0000000E-01;  1.1062404E+03;0;  0.0000000E+00;  0.0000000E+00;  0.0000000E+00;0;  2.1510613E-03;  4.0000000E+04;  0.0000000E+00;  0.0000000E+00;  4.0000000E+04;  0.0000000E+00;  4.0000000E+04;  2.1152264E-03;  0.0000000E+00;  3.5834928E-05;  9.7519037E+02;
 -7.0000000E-02;  9.9999998E-03;  1.0000000E-01;1236;  0.0000000E+00;  0.0000000E+00;  0.0000000E+00;  1.0013533E+03;  1.0000000E-01;  1.1211534E+03;0;  0.0000000E+00;  0.0000000E+00;  0.0000000E+00;0;  2.1186138E-03;  4.0000000E+04;  0.0000000E+00;  0.0000000E+00;  4.0000000E+04;  0.0000000E+00;  4.0000000E+04;  2.0661214E-03;  0.0000000E+00;  5.2492345E-05;  9.4861237E+02;
 -7.0000000E-02;  9.9999998E-03;  1.1000000E-01;1237;  0.0000000E+00;  0.0000000E+00;  0.0000000E+00;  1.0013677E+03;  1.0000000E-01;  1.1331038E+03;0;  0.0000000E+00;  0.0000000E+00;  0.0000000E+00;0;  2.0838811E-03;  4.0000000E+04;  0.0000000E+00;  0.0000000E+00;  4.0000000E+04;  0.0000000E+00;  4.0000000E+04;  2.0123697E-03;  0.0000000E+00;  7.1511466E-05;  9.2484180E+02;
 -7.0000000E-02;  9.9999998E-03;  1.2000000E-01;1238;  0.0000000E+00;  0.0000000E+00;  0.0000000E+00;  1.0013676E+03;  1.0000000E-01;  1.1330050E+03;0;  0.0000000E+00;  0.0000000E+00;  0.0000000E+00;0;  2.0505758E-03;  4.0000000E+04;  0.0000000E+00;  0.0000000E+00;  4.0000000E+04;  0.0000000E+00;  4.0000000E+04;  1.9589111E-03;  0.0000000E+00;  9.1664704E-05;  9.0760400E+02;
 -7.0000000E-02;  9.9999998E-03;  1.3000000E-01;1239;  0.0000000E+00;  0.0000000E+00;  0.0000000E+00;  1.0013604E+03;  1.0000000E-01;  1.1269805E+03;0;  0.0000000E+00;  0.0000000E+00;  0.0000000E+00;0;  2.0227474E-03;  4.0000000E+04;  0.0000000E+00;  0.0000000E+00;  4.0000000E+04;  0.0000000E+00;  4.0000000E+04;  1.9113527E-03;  0.0000000E+00;  1.1139465E-04;  9.0127527E+02;
 -7.0000000E-02;  9.9999998E-03;  1.4000000E-01;1240;  0.0000000E+00;  0.0000000E+00;  0.0000000E+00;  1.0013314E+03;  1.0000000E-01;  1.1029812E+03;0;  0.0000000E+00;  0.0000000E+00;  0.0000000E+00;0;  2.0039836E-03;  4.0000000E+04;  0.0000000E+00;  0.0000000E+00;  4.0000000E+04;  0.0000000E+00;  4.0000000E+04;  1.8750502E-03;  0.0000000E+00;  1.2893324E-04;  9.1045599E+02;
 -7.0000000E-02;  9.9999998E-03;  1.5000001E-01;1241;  0.0000000E+00;  0.0000000E+00;  0.0000000E+00;  1.0012861E+03;  1.0000000E-01;  1.0654513E+03;0;  0.0000000E+00;  0.0000000E+00;  0.0000000E+00;0;  1.9965097E-03;  4.0000000E+04;  0.0000000E+00;  0.0000000E+00;  4.0000000E+04;  0.0000000E+00;  4.0000000E+04;  1.8540437E-03;  0.0000000E+00;  1.4246601E-04;  9.3894153E+02;
 -7.0000000E-02;  9.9999998E-03;  1.6000000E-01;1242;  0.0000000E+00;  0.0000000E+00;  0.0000000E+00;  1.0012305E+03;  1.0000000E-01;  1.0194280E+03;0;  0.0000000E+00;  0.0000000E+00;  0.0000000E+00;0;  2.0002618E-03;  4.0000000E+04;  0.0000000E+00;  0.0000000E+00;  4.0000000E+04;  0.0000000E+00;  4.0000000E+04;  1.8500179E-03;  0.0000000E+00;  1.5024388E-04;  9.8810492E+02;
 -7.0000000E-02;  9.9999998E-03;  1.7000000E-01;1243;  0.0000000E+00;  0.0000000E+00;  0.0000000E+00;  1.0011508E+03;  1.0000000E-01;  9.5335577E+02;0;  0.0000000E+00;  0.0000000E+00;  0.0000000E+00;0;  2.0122796E-03;  4.0000000E+04;  0.0000000E+00;  0.0000000E+00;  4.0000000E+04;  0.0000000E+00;  4.0000000E+04;  1.8615787E-03;  0.0000000E+00;  1.5070086E-04;  1.0554353E+03;
 -7.0000000E-02;  9.9999998E-03;  1.8000001E-01;1244;  0.0000000E+00;  0.0000000E+00;  0.0000000E+00;  1.0010637E+03;  1.0000000E-01;  8.8125903E+02;0;  0.0000000E+00;  0.0000000E+00;  0.0000000E+00;0;  2.0267330E-03;  4.0000000E+04;  0.0000000E+00;  0.0000000E+00;  4.0000000E+04;  0.0000000E+00;  4.0000000E+04;  1.8840733E-03;  0.0000000E+00;  1.4265985E-04;  1.1331812E+03;
 -7.0000000E-02;  9.9999998E-03;  1.9000000E-01;1245;  0.0000000E+00;  0.0000000E+00;  0.0000000E+00;  1.0009688E+03;  1.0000000E-01;  8.0264398E+02;0;  0.0000000E+00;  0.0000000E+00;  0.0000000E+00;0;  2.0355778E-03;  4.0000000E+04;  0.0000000E+00;  0.0000000E+00;  4.0000000E+04;  0.0000000E+00;  4.0000000E+04;  1.9099881E-03;  0.0000000E+00;  1.2558974E-04;  1.2084299E+03;
 -7.0000000E-02;  9.9999998E-03;  2.0000000E-01;1246;  0.0000000E+00;  0.0000000E+00;  0.0000000E+00;  1.0008729E+03;  1.0000000E-01;  7.2323883E+02;0;  0.0000000E+00;  0.0000000E+00;  0.0000000E+00;0;  2.0296227E-03;  4.0000000E+04;  0.0000000E+00;  0.0000000E+00;  4.0000000E+04;  0.0000000E+00;  4.0000000E+04;  1.9298077E-03;  0.0000000E+00;  9.9815064E-05;  1.2648517E+03;
 -7.0000000E-02;  9.9999998E-03;  2.0999999E-01;1247;  0.0000000E+00;  0.0000000E+00;  0.0000000E+00;  1.0007809E+03;  1.0000000E-01;  6.4699402E+02;0;  0.0000000E+00;  0.0000000E+00;  0.0000000E+00;0;  1.9998434E-03;  4.0000000E+04;  0.0000000E+00;  0.0000000E+00;  4.0000000E+04;  0.0000000E+00;  4.0000000E+04;  1.9332541E-03;  0.0000000E+00;  6.6589302E-05;  1.2852103E+03;
 -7.0000000E-02;  9.9999998E-03;  2.2000000E-01;1248;  0.0000000E+00;  0.0000000E+00;  0.0000000E+00;  1.0006970E+03;  1.0000000E-01;  5.7746515E+02;0;  0.0000000E+00;  0.0000000E+00;  0.0000000E+00;0;  1.9387667E-03;  4.0000000E+04;  0.0000000E+00;  0.0000000E+00;  4.0000000E+04;  0.0000000E+00;  4.0000000E+04;  1.9107391E-03;  0.0000000E+00;  2.8027516E-05;  1.2542958E+03;
 -7.0000000E-02;  9.9999998E-03;  2.3000000E-01;1249;  0.0000000E+00;  0.0000000E+00;  0.0000000E+00;  1.0006392E+03;  1.0000000E-01;  5.2956525E+02;0;  0.0000000E+00;  0.0000000E+00;  0.0000000E+00;0;  1.8417310E-03;  4.0000000E+04;  0.0000000E+00;  0.0000000E+00;  4.0000000E+04;  0.0000000E+00;  4.0000000E+04;  1.8548213E-03;  0.0000000E+00; -1.3090264E-05;  1.1616379E+03;
 -5.9999999E-02;  9.9999998E-03;  7.0000000E-02;1324;  0.0000000E+00;  0.0000000E+00;  0.0000000E+00;  1.0022842E+03;  1.0000000E-01;  1.8924897E+03;0;  0.0000000E+00;  0.0000000E+00;  0.0000000E+00;0;  2.1495288E-03;  4.0000000E+04;  0.0000000E+00;  0.0000000E+00;  4.0000000E+04;  0.0000000E+00;  4.0000000E+04;  2.1272313E-03;  0.0000000E+00;  2.2297527E-05;  1.3044542E+03;
 -5.9999999E-02;  9.9999998E-03;  7.9999998E-02;1325;  0.0000000E+00;  0.0000000E+00;  0.0000000E+00;  1.0023160E+03;  1.0000000E-01;  1.9187605E+03;0;  0.0000000E+00;  0.0000000E+00;  0.0000000E+00;0;  2.1245107E-03;  4.0000000E+04;  0.0000000E+00;  0.0000000E+00;  4.0000000E+04;  0.0000000E+00;  4.0000000E+04;  2.0878615E-03;  0.0000000E+00;  3.6649239E-05;  1.2711360E+03;
 -5.9999999E-02;  9.9999998E-03;  9.0000004E-02;1326;  0.0000000E+00;  0.0000000E+00;  0.0000000E+00;  1.0023428E+03;  1.0000000E-01;  1.9409822E+03;0;  0.0000000E+00;  0.0000000E+00;  0.0000000E+00;0;  2.0913274E-03;  4.0000000E+04;  0.0000000E+00;  0.0000000E+00;  4.0000000E+04;  0.0000000E+00;  4.0000000E+04;  2.0357007E-03;  0.0000000E+00;  5.5626700E-05;  1.2351298E+03;
 -5.9999999E-02;  9.9999998E-03;  1.0000000E-01;1327;  0.0000000E+00;  0.0000000E+00;  0.0000000E+00;  1.0023648E+03;  1.0000000E-01;  1.9591544E+03;0;  0.0000000E+00;  0.0000000E+00;  0.0000000E+00;0;  2.0520450E-03;  4.0000000E+04;  0.0000000E+00;  0.0000000E+00;  4.0000000E+04;  0.0000000E+00;  4.0000000E+04;  1.9734283E-03;  0.0000000E+00;  7.8616635E-05;  1.1994509E+03;
 -5.9999999E-02;  9.9999998E-03;  1.1000000E-01;1328;  0.0000000E+00;  0.0000000E+00;  0.0000000E+00;  1.0023782E+03;  1.0000000E-01;  1.9703147E+03;0;  0.0000000E+00;  0.0000000E+00;  0.0000000E+00;0;  2.0102656E-03;  4.0000000E+04;  0.0000000E+00;  0.0000000E+00;  4.0000000E+04;  0.0000000E+00;  4.0000000E+04;  1.9058186E-03;  0.0000000E+00;  1.0444710E-04;  1.1681923E+03;
 -5.9999999E-02;  9.9999998E-03;  1.2000000E-01;1329;  0.0000000E+00;  0.0000000E+00;  0.0000000E+00;  1.0023748E+03;  1.0000000E-01;  1.9674506E+03;0;  0.0000000E+00;  0.0000000E+00;  0.0000000E+00;0;  1.9707491E-03;  4.0000000E+04;  0.0000000E+00;  0.0000000E+00;  4.0000000E+04;  0.0000000E+00;  4.0000000E+04;  1.8393004E-03;  0.0000000E+00;  1.3144882E-04;  1.1465226E+03;
 -5.9999999E-02;  9.9999998E-03;  1.3000000E-01;1330;  0.0000000E+00;  0.0000000E+00;  0.0000000E+00;  1.0023547E+03;  1.0000000E-01;  1.9507596E+03;0;  0.0000000E+00;  0.0000000E+00;  0.0000000E+00;0;  1.9387333E-03;  4.0000000E+04;  0.0000000E+00;  0.0000000E+00;  4.0000000E+04;  0.0000000E+00;  4.0000000E+04;  1.7811720E-03;  0.0000000E+00;  1.5756121E-04;  1.1405574E+03;
 -5.9999999E-02;  9.9999998E-03;  1.4000000E-01;1331;  0.0000000E+00;  0.0000000E+00;  0.0000000E+00;  1.0023184E+03;  1.0000000E-01;  1.9207358E+03;0;  0.0000000E+00;  0.0000000E+00;  0.0000000E+00;0;  1.9189483E-03;  4.0000000E+04;  0.0000000E+00;  0.0000000E+00;  4.0000000E+04;  0.0000000E+00;  4.0000000E+04;  1.7384596E-03;  0.0000000E+00;  1.8048870E-04;  1.1566245E+03;
 -5.9999999E-02;  9.9999998E-03;  1.5000001E-01;1332;  0.0000000E+00;  0.0000000E+00;  0.0000000E+00;  1.0022521E+03;  1.0000000E-01;  1.8658237E+03;0;  0.0000000E+00;  0.0000000E+00;  0.0000000E+00;0;  1.9144726E-03;  4.0000000E+04;  0.0000000E+00;  0.0000000E+00;  4.0000000E+04;  0.0000000E+00;  4.0000000E+04;  1.7165900E-03;  0.0000000E+00;  1.9788252E-04;  1.1997317E+03;
 -5.9999999E-02;  9.9999998E-03;  1.6000000E-01;1333;  0.0000000E+00;  0.0000000E+00;  0.0000000E+00;  1.0021622E+03;  1.0000000E-01;  1.7913567E+03;0;  0.0000000E+00;  0.0000000E+00;  0.0000000E+00;0;  1.9255750E-03;  4.0000000E+04;  0.0000000E+00;  0.0000000E+00;  4.0000000E+04;  0.0000000E+00;  4.0000000E+04;  1.7181478E-03;  0.0000000E+00;  2.0742723E-04;  1.2714475E+03;
 -5.9999999E-02;  9.9999998E-03;  1.7000000E-01;1334;  0.0000000E+00;  0.0000000E+00;  0.0000000E+00;  1.0020488E+03;  1.0000000E-01;  1.6973347E+03;0;  0.0000000E+00;  0.0000000E+00;  0.0000000E+00;0;  1.9490325E-03;  4.0000000E+04;  0.0000000E+00;  0.0000000E+00;  4.0000000E+04;  0.0000000E+00;  4.0000000E+04;  1.7419973E-03;  0.0000000E+00;  2.0703525E-04;  1.3677665E+03;
 -5.9999999E-02;  9.9999998E-03;  1.8000001E-01;1335;  0.0000000E+00;  0.0000000E+00;  0.0000000E+00;  1.0019213E+03;  1.0000000E-01;  1.5917574E+03;0;  0.0000000E+00;  0.0000000E+00;  0.0000000E+00;0;  1.9781736E-03;  4.0000000E+04;  0.0000000E+00;  0.0000000E+00;  4.0000000E+04;  0.0000000E+00;  4.0000000E+04;  1.7830213E-03;  0.0000000E+00;  1.9515239E-04;  1.4777102E+03;
 -5.9999999E-02;  9.9999998E-03;  1.9000000E-01;1336;  0.0000000E+00;  0.0000000E+00;  0.0000000E+00;  1.0017809E+03;  1.0000000E-01;  1.4755138E+03;0;  0.0000000E+00;  0.0000000E+00;  0.0000000E+00;0;  2.0036213E-03;  4.0000000E+04;  0.0000000E+00;  0.0000000E+00;  4.0000000E+04;  0.0000000E+00;  4.0000000E+04;  1.8325093E-03;  0.0000000E+00;  1.7111194E-04;  1.5839445E+03;
 -5.9999999E-02;  9.9999998E-03;  2.0000000E-01;1337;  0.0000000E+00;  0.0000000E+00;  0.0000000E+00;  1.0016390E+03;  1.0000000E-01;  1.3578876E+03;0;  0.0000000E+00;  0.0000000E+00;  0.0000000E+00;0;  2.0144789E-03;  4.0000000E+04;  0.0000000E+00;  0.0000000E+00;  4.0000000E+04;  0.0000000E+00;  4.0000000E+04;  1.8791009E-03;  0.0000000E+00;  1.3537808E-04;  1.6651167E+03;
 -5.9999999E-02;  9.9999998E-03;  2.0999999E-01;1338;  0.0000000E+00;  0.0000000E+00;  0.0000000E+00;  1.0014974E+03;  1.0000000E-01;  1.2405575E+03;0;  0.0000000E+00;  0.0000000E+00;  0.0000000E+00;0;  1.9998155E-03;  4.0000000E+04;  0.0000000E+00;  0.0000000E+00;  4.0000000E+04;  0.0000000E+00;  4.0000000E+04;  1.9101909E-03;  0.0000000E+00;  8.9624562E-05;  1.6988218E+03;
 -5.9999999E-02;  9.9999998E-03;  2.2000000E-01;1339;  0.0000000E+00;  0.0000000E+00;  0.0000000E+00;  1.0013710E+03;  1.0000000E-01;  1.1358691E+03;0;  0.0000000E+00;  0.0000000E+00;  0.0000000E+00;0;  1.9502972E-03;  4.0000000E+04;  0.0000000E+00;  0.0000000E+00;  4.0000000E+04;  0.0000000E+00;  4.0000000E+04;  1.9136464E-03;  0.0000000E+00;  3.6650839E-05;  1.6649012E+03;
 -5.9999999E-02;  9.9999998E-03;  2.3000000E-01;1340;  0.0000000E+00;  0.0000000E+00;  0.0000000E+00;  1.0012523E+03;  1.0000000E-01;  1.0375015E+03;0;  0.0000000E+00;  0.0000000E+00;  0.0000000E+00;0;  1.8597632E-03;  4.0000000E+04;  0.0000000E+00;  0.0000000E+00;  4.0000000E+04;  0.0000000E+00;  4.0000000E+04;  1.8796184E-03;  0.0000000E+00; -1.9855215E-05;  1.5489922E+03;
 -5.0000001E-02;  9.9999998E-03;  7.0000000E-02;1415;  0.0000000E+00;  0.0000000E+00;  0.0000000E+00;  1.0036683E+03;  1.0000000E-01;  3.0391240E+03;0;  0.0000000E+00;  0.0000000E+00;  0.0000000E+00;0;  1.7515160E-03;  4.0000000E+04;  0.0000000E+00;  0.0000000E+00;  4.0000000E+04;  0.0000000E+00;  4.0000000E+04;  1.7153022E-03;  0.0000000E+00;  3.6213729E-05;  1.5805956E+03;
 -5.0000001E-02;  9.9999998E-03;  7.9999998E-02;1416;  0.0000000E+00;  0.0000000E+00;  0.0000000E+00;  1.0037065E+03;  1.0000000E-01;  3.0708267E+03;0;  0.0000000E+00;  0.0000000E+00;  0.0000000E+00;0;  1.7225066E-03;  4.0000000E+04;  0.0000000E+00;  0.0000000E+00;  4.0000000E+04;  0.0000000E+00;  4.0000000E+04;  1.6667097E-03;  0.0000000E+00;  5.5796929E-05;  1.5374082E+03;
 -5.0000001E-02;  9.9999998E-03;  9.0000004E-02;1417;  0.0000000E+00;  0.0000000E+00;  0.0000000E+00;  1.0037430E+03;  1.0000000E-01;  3.1009492E+03;0;  0.0000000E+00;  0.0000000E+00;  0.0000000E+00;0;  1.6837138E-03;  4.0000000E+04;  0.0000000E+00;  0.0000000E+00;  4.0000000E+04;  0.0000000E+00;  4.0000000E+04;  1.6026420E-03;  0.0000000E+00;  8.1071761E-05;  1.4914707E+03;
 -5.0000001E-02;  9.9999998E-03;  1.0000000E-01;1418;  0.0000000E+00;  0.0000000E+00;  0.0000000E+00;  1.0037708E+03;  1.0000000E-01;  3.1239609E+03;0;  0.0000000E+00;  0.0000000E+00;  0.0000000E+00;0;  1.6376693E-03;  4.0000000E+04;  0.0000000E+00;  0.0000000E+00;  4.0000000E+04;  0.0000000E+00;  4.0000000E+04;  1.5265318E-03;  0.0000000E+00;  1.1113748E-04;  1.4467124E+03;
 -5.0000001E-02;  9.9999998E-03;  1.1000000E-01;1419;  0.0000000E+00;  0.0000000E+00;  0.0000000E+00;  1.0037856E+03;  1.0000000E-01;  3.1363064E+03;0;  0.0000000E+00;  0.0000000E+00;  0.0000000E+00;0;  1.5888425E-03;  4.0000000E+04;  0.0000000E+00;  0.0000000E+00;  4.0000000E+04;  0.0000000E+00;  4.0000000E+04;  1.4444093E-03;  0.0000000E+00;  1.4443322E-04;  1.4084041E+03;
 -5.0000001E-02;  9.9999998E-03;  1.2000000E-01;1420;  0.0000000E+00;  0.0000000E+00;  0.0000000E+00;  1.0037744E+03;  1.0000000E-01;  3.1270227E+03;0;  0.0000000E+00;  0.0000000E+00;  0.0000000E+00;0;  1.5432504E-03;  4.0000000E+04;  0.0000000E+00;  0.0000000E+00;  4.0000000E+04;  0.0000000E+00;  4.0000000E+04;  1.3644220E-03;  0.0000000E+00;  1.7882837E-04;  1.3832396E+03;
 -5.0000001E-02;  9.9999998E-03;  1.3000000E-01;1421;  0.0000000E+00;  0.0000000E+00;  0.0000000E+00;  1.0037437E+03;  1.0000000E-01;  3.1016406E+03;0;  0.0000000E+00;  0.0000000E+00;  0.0000000E+00;0;  1.5076315E-03;  4.0000000E+04;  0.0000000E+00;  0.0000000E+00;  4.0000000E+04;  0.0000000E+00;  4.0000000E+04;  1.2958710E-03;  0.0000000E+00;  2.1176046E-04;  1.3791188E+03;
 -5.0000001E-02;  9.9999998E-03;  1.4000000E-01;1422;  0.0000000E+00;  0.0000000E+00;  0.0000000E+00;  1.0036826E+03;  1.0000000E-01;  3.0509753E+03;0;  0.0000000E+00;  0.0000000E+00;  0.0000000E+00;0;  1.4882566E-03;  4.0000000E+04;  0.0000000E+00;  0.0000000E+00;  4.0000000E+04;  0.0000000E+00;  4.0000000E+04;  1.2478377E-03;  0.0000000E+00;  2.4041890E-04;  1.4041432E+03;
 -5.0000001E-02;  9.9999998E-03;  1.5000001E-01;1423;  0.0000000E+00;  0.0000000E+00;  0.0000000E+00;  1.0035925E+03;  1.0000000E-01;  2.9763108E+03;0;  0.0000000E+00;  0.0000000E+00;  0.0000000E+00;0;  1.4894844E-03;  4.0000000E+04;  0.0000000E+00;  0.0000000E+00;  4.0000000E+04;  0.0000000E+00;  4.0000000E+04;  1.2275955E-03;  0.0000000E+00;  2.6188890E-04;  1.4645819E+03;
 -5.0000001E-02;  9.9999998E-03;  1.6000000E-01;1424;  0.0000000E+00;  0.0000000E+00;  0.0000000E+00;  1.0034683E+03;  1.0000000E-01;  2.8734001E+03;0;  0.0000000E+00;  0.0000000E+00;  0.0000000E+00;0;  1.5123311E-03;  4.0000000E+04;  0.0000000E+00;  0.0000000E+00;  4.0000000E+04;  0.0000000E+00;  4.0000000E+04;  1.2390887E-03;  0.0000000E+00;  2.7324233E-04;  1.5621754E+03;
 -5.0000001E-02;  9.9999998E-03;  1.7000000E-01;1425;  0.0000000E+00;  0.0000000E+00;  0.0000000E+00;  1.0033137E+03;  1.0000000E-01;  2.7454038E+03;0;  0.0000000E+00;  0.0000000E+00;  0.0000000E+00;0;  1.5536741E-03;  4.0000000E+04;  0.0000000E+00;  0.0000000E+00;  4.0000000E+04;  0.0000000E+00;  4.0000000E+04;  1.2818702E-03;  0.0000000E+00;  2.7180393E-04;  1.6913215E+03;
 -5.0000001E-02;  9.9999998E-03;  1.8000001E-01;1426;  0.0000000E+00;  0.0000000E+00;  0.0000000E+00;  1.0031330E+03;  1.0000000E-01;  2.5955808E+03;0;  0.0000000E+00;  0.0000000E+00;  0.0000000E+00;0;  1.6062814E-03;  4.0000000E+04;  0.0000000E+00;  0.0000000E+00;  4.0000000E+04;  0.0000000E+00;  4.0000000E+04;  1.3506928E-03;  0.0000000E+00;  2.5558856E-04;  1.8378900E+03;
 -5.0000001E-02;  9.9999998E-03;  1.9000000E-01;1427;  0.0000000E+00;  0.0000000E+00;  0.0000000E+00;  1.0029380E+03;  1.0000000E-01;  2.4341040E+03;0;  0.0000000E+00;  0.0000000E+00;  0.0000000E+00;0;  1.6595579E-03;  4.0000000E+04;  0.0000000E+00;  0.0000000E+00;  4.0000000E+04;  0.0000000E+00;  4.0000000E+04;  1.4358270E-03;  0.0000000E+00;  2.2373098E-04;  1.9804030E+03;
 -5.0000001E-02;  9.9999998E-03;  2.0000000E-01;1428;  0.0000000E+00;  0.0000000E+00;  0.0000000E+00;  1.0027300E+03;  1.0000000E-01;  2.2617632E+03;0;  0.0000000E+00;  0.0000000E+00;  0.0000000E+00;0;  1.7008090E-03;  4.0000000E+04;  0.0000000E+00;  0.0000000E+00;  4.0000000E+04;  0.0000000E+00;  4.0000000E+04;  1.5240400E-03;  0.0000000E+00;  1.7676894E-04;  2.0924536E+03;
 -5.0000001E-02;  9.9999998E-03;  2.0999999E-01;1429;  0.0000000E+00;  0.0000000E+00;  0.0000000E+00;  1.0025205E+03;  1.0000000E-01;  2.0882373E+03;0;  0.0000000E+00;  0.0000000E+00;  0.0000000E+00;0;  1.7168816E-03;  4.0000000E+04;  0.0000000E+00;  0.0000000E+00;  4.0000000E+04;  0.0000000E+00;  4.0000000E+04;  1.6001309E-03;  0.0000000E+00;  1.1675072E-04;  2.1458953E+03;
 -5.0000001E-02;  9.9999998E-03;  2.2000000E-01;1430;  0.0000000E+00;  0.0000000E+00;  0.0000000E+00;  1.0023251E+03;  1.0000000E-01;  1.9262665E+03;0;  0.0000000E+00;  0.0000000E+00;  0.0000000E+00;0;  1.6961421E-03;  4.0000000E+04;  0.0000000E+00;  0.0000000E+00;  4.0000000E+04;  0.0000000E+00;  4.0000000E+04;  1.6489764E-03;  0.0000000E+00;  4.7165755E-05;  2.1146362E+03;
 -5.0000001E-02;  9.9999998E-03;  2.3000000E-01;1431;  0.0000000E+00;  0.0000000E+00;  0.0000000E+00;  1.0021417E+03;  1.0000000E-01;  1.7743696E+03;0;  0.0000000E+00;  0.0000000E+00;  0.0000000E+00;0;  1.6304074E-03;  4.0000000E+04;  0.0000000E+00;  0.0000000E+00;  4.0000000E+04;  0.0000000E+00;  4.0000000E+04;  1.6577195E-03;  0.0000000E+00; -2.7312097E-05;  1.9789277E+03;
 -3.9999999E-02;  9.9999998E-03;  7.0000000E-02;1506;  0.0000000E+00;  0.0000000E+00;  0.0000000E+00;  1.0054585E+03;  1.0000000E-01;  4.5222427E+03;0;  0.0000000E+00;  0.0000000E+00;  0.0000000E+00;0;  9.1320998E-04;  4.0000000E+04;  0.0000000E+00;  0.0000000E+00;  4.0000000E+04;  0.0000000E+00;  4.0000000E+04;  8.5866381E-04;  0.0000000E+00;  5.4546137E-05;  1.8235110E+03;
 -3.9999999E-02;  9.9999998E-03;  7.9999998E-02;1507;  0.0000000E+00;  0.0000000E+00;  0.0000000E+00;  1.0055071E+03;  1.0000000E-01;  4.5625376E+03;0;  0.0000000E+00;  0.0000000E+00;  0.0000000E+00;0;  8.8108191E-04;  4.0000000E+04;  0.0000000E+00;  0.0000000E+00;  4.0000000E+04;  0.0000000E+00;  4.0000000E+04;  8.0117089E-04;  0.0000000E+00;  7.9911020E-05;  1.7707648E+03;
 -3.9999999E-02;  9.9999998E-03;  9.0000004E-02;1508;  0.0000000E+00;  0.0000000E+00;  0.0000000E+00;  1.0055527E+03;  1.0000000E-01;  4.6003638E+03;0;  0.0000000E+00;  0.0000000E+00;  0.0000000E+00;0;  8.3741458E-04;  4.0000000E+04;  0.0000000E+00;  0.0000000E+00;  4.0000000E+04;  0.0000000E+00;  4.0000000E+04;  7.2547281E-04;  0.0000000E+00;  1.1194176E-04;  1.7155896E+03;
 -3.9999999E-02;  9.9999998E-03;  1.0000000E-01;1509;  0.0000000E+00;  0.0000000E+00;  0.0000000E+00;  1.0055911E+03;  1.0000000E-01;  4.6321655E+03;0;  0.0000000E+00;  0.0000000E+00;  0.0000000E+00;0;  7.8516797E-04;  4.0000000E+04;  0.0000000E+00;  0.0000000E+00;  4.0000000E+04;  0.0000000E+00;  4.0000000E+04;  6.3575298E-04;  0.0000000E+00;  1.4941498E-04;  1.6628356E+03;
 -3.9999999E-02;  9.9999998E-03;  1.1000000E-01;1510;  0.0000000E+00;  0.0000000E+00;  0.0000000E+00;  1.0056082E+03;  1.0000000E-01;  4.6462886E+03;0;  0.0000000E+00;  0.0000000E+00;  0.0000000E+00;0;  7.2977267E-04;  4.0000000E+04;  0.0000000E+00;  0.0000000E+00;  4.0000000E+04;  0.0000000E+00;  4.0000000E+04;  5.3939503E-04;  0.0000000E+00;  1.9037764E-04;  1.6188516E+03;
 -3.9999999E-02;  9.9999998E-03;  1.2000000E-01;1511;  0.0000000E+00;  0.0000000E+00;  0.0000000E+00;  1.0055966E+03;  1.0000000E-01;  4.6366094E+03;0;  0.0000000E+00;  0.0000000E+00;  0.0000000E+00;0;  6.7869178E-04;  4.0000000E+04;  0.0000000E+00;  0.0000000E+00;  4.0000000E+04;  0.0000000E+00;  4.0000000E+04;  4.4641632E-04;  0.0000000E+00;  2.3227543E-04;  1.5916473E+03;
 -3.9999999E-02;  9.9999998E-03;  1.3000000E-01;1512;  0.0000000E+00;  0.0000000E+00;  0.0000000E+00;  1.0055519E+03;  1.0000000E-01;  4.5996724E+03;0;  0.0000000E+00;  0.0000000E+00;  0.0000000E+00;0;  6.4049155E-04;  4.0000000E+04;  0.0000000E+00;  0.0000000E+00;  4.0000000E+04;  0.0000000E+00;  4.0000000E+04;  3.6838118E-04;  0.0000000E+00;  2.7211037E-04;  1.5907765E+03;
 -3.9999999E-02;  9.9999998E-03;  1.4000000E-01;1513;  0.0000000E+00;  0.0000000E+00;  0.0000000E+00;  1.0054656E+03;  1.0000000E-01;  4.5281685E+03;0;  0.0000000E+00;  0.0000000E+00;  0.0000000E+00;0;  6.2341976E-04;  4.0000000E+04;  0.0000000E+00;  0.0000000E+00;  4.0000000E+04;  0.0000000E+00;  4.0000000E+04;  3.1680055E-04;  0.0000000E+00;  3.0661924E-04;  1.6260189E+03;
 -3.9999999E-02;  9.9999998E-03;  1.5000001E-01;1514;  0.0000000E+00;  0.0000000E+00;  0.0000000E+00;  1.0053395E+03;  1.0000000E-01;  4.4236772E+03;0;  0.0000000E+00;  0.0000000E+00;  0.0000000E+00;0;  6.3359423E-04;  4.0000000E+04;  0.0000000E+00;  0.0000000E+00;  4.0000000E+04;  0.0000000E+00;  4.0000000E+04;  3.0126196E-04;  0.0000000E+00;  3.3233230E-04;  1.7049280E+03;
 -3.9999999E-02;  9.9999998E-03;  1.6000000E-01;1515;  0.0000000E+00;  0.0000000E+00;  0.0000000E+00;  1.0051718E+03;  1.0000000E-01;  4.2847183E+03;0;  0.0000000E+00;  0.0000000E+00;  0.0000000E+00;0;  6.7325105E-04;  4.0000000E+04;  0.0000000E+00;  0.0000000E+00;  4.0000000E+04;  0.0000000E+00;  4.0000000E+04;  3.2757866E-04;  0.0000000E+00;  3.4567239E-04;  1.8295695E+03;
 -3.9999999E-02;  9.9999998E-03;  1.7000000E-01;1516;  0.0000000E+00;  0.0000000E+00;  0.0000000E+00;  1.0049687E+03;  1.0000000E-01;  4.1164268E+03;0;  0.0000000E+00;  0.0000000E+00;  0.0000000E+00;0;  7.3981198E-04;  4.0000000E+04;  0.0000000E+00;  0.0000000E+00;  4.0000000E+04;  0.0000000E+00;  4.0000000E+04;  3.9649158E-04;  0.0000000E+00;  3.4332040E-04;  1.9931042E+03;
 -3.9999999E-02;  9.9999998E-03;  1.8000001E-01;1517;  0.0000000E+00;  0.0000000E+00;  0.0000000E+00;  1.0047286E+03;  1.0000000E-01;  3.9175188E+03;0;  0.0000000E+00;  0.0000000E+00;  0.0000000E+00;0;  8.2586356E-04;  4.0000000E+04;  0.0000000E+00;  0.0000000E+00;  4.0000000E+04;  0.0000000E+00;  4.0000000E+04;  5.0308713E-04;  0.0000000E+00;  3.2277644E-04;  2.1791201E+03;
 -3.9999999E-02;  9.9999998E-03;  1.9000000E-01;1518;  0.0000000E+00;  0.0000000E+00;  0.0000000E+00;  1.0044554E+03;  1.0000000E-01;  3.6912537E+03;0;  0.0000000E+00;  0.0000000E+00;  0.0000000E+00;0;  9.1979909E-04;  4.0000000E+04;  0.0000000E+00;  0.0000000E+00;  4.0000000E+04;  0.0000000E+00;  4.0000000E+04;  6.3694653E-04;  0.0000000E+00;  2.8285256E-04;  2.3627231E+03;
 -3.9999999E-02;  9.9999998E-03;  2.0000000E-01;1519;  0.0000000E+00;  0.0000000E+00;  0.0000000E+00;  1.0041723E+03;  1.0000000E-01;  3.4566924E+03;0;  0.0000000E+00;  0.0000000E+00;  0.0000000E+00;0;  1.0071094E-03;  4.0000000E+04;  0.0000000E+00;  0.0000000E+00;  4.0000000E+04;  0.0000000E+00;  4.0000000E+04;  7.8309764E-04;  0.0000000E+00;  2.2401176E-04;  2.5127749E+03;
 -3.9999999E-02;  9.9999998E-03;  2.0999999E-01;1520;  0.0000000E+00;  0.0000000E+00;  0.0000000E+00;  1.0038836E+03;  1.0000000E-01;  3.2174893E+03;0;  0.0000000E+00;  0.0000000E+00;  0.0000000E+00;0;  1.0722260E-03;  4.0000000E+04;  0.0000000E+00;  0.0000000E+00;  4.0000000E+04;  0.0000000E+00;  4.0000000E+04;  9.2367461E-04;  0.0000000E+00;  1.4855133E-04;  2.5949580E+03;
 -3.9999999E-02;  9.9999998E-03;  2.2000000E-01;1521;  0.0000000E+00;  0.0000000E+00;  0.0000000E+00;  1.0035986E+03;  1.0000000E-01;  2.9813479E+03;0;  0.0000000E+00;  0.0000000E+00;  0.0000000E+00;0;  1.1008193E-03;  4.0000000E+04;  0.0000000E+00;  0.0000000E+00;  4.0000000E+04;  0.0000000E+00;  4.0000000E+04;  1.0402293E-03;  0.0000000E+00;  6.0590035E-05;  2.5759746E+03;
 -3.9999999E-02;  9.9999998E-03;  2.3000000E-01;1522;  0.0000000E+00;  0.0000000E+00;  0.0000000E+00;  1.0033290E+03;  1.0000000E-01;  2.7580454E+03;0;  0.0000000E+00;  0.0000000E+00;  0.0000000E+00;0;  1.0821915E-03;  4.0000000E+04;  0.0000000E+00;  0.0000000E+00;  4.0000000E+04;  0.0000000E+00;  4.0000000E+04;  1.1163641E-03;  0.0000000E+00; -3.4172630E-05;  2.4287634E+03;
 -2.9999999E-02;  9.9999998E-03;  7.0000000E-02;1597;  0.0000000E+00;  0.0000000E+00;  0.0000000E+00;  1.0076326E+03;  1.0000000E-01;  6.3234756E+03;0;  0.0000000E+00;  0.0000000E+00;  0.0000000E+00;0; -4.3223947E-04;  4.0000000E+04;  0.0000000E+00;  0.0000000E+00;  4.0000000E+04;  0.0000000E+00;  4.0000000E+04; -5.0954043E-04;  0.0000000E+00;  7.7300974E-05;  1.9977246E+03;
 -2.9999999E-02;  9.9999998E-03;  7.9999998E-02;1598;  0.0000000E+00;  0.0000000E+00;  0.0000000E+00;  1.0076969E+03;  1.0000000E-01;  6.3767085E+03;0;  0.0000000E+00;  0.0000000E+00;  0.0000000E+00;0; -4.6603469E-04;  4.0000000E+04;  0.0000000E+00;  0.0000000E+00;  4.0000000E+04;  0.0000000E+00;  4.0000000E+04; -5.7469588E-04;  0.0000000E+00;  1.0866120E-04;  1.9369946E+03;
 -2.9999999E-02;  9.9999998E-03;  9.0000004E-02;1599;  0.0000000E+00;  0.0000000E+00;  0.0000000E+00;  1.0077567E+03;  1.0000000E-01;  6.4262876E+03;0;  0.0000000E+00;  0.0000000E+00;  0.0000000E+00;0; -5.1316037E-04;  4.0000000E+04;  0.0000000E+00;  0.0000000E+00;  4.0000000E+04;  0.0000000E+00;  4.0000000E+04; -6.6062162E-04;  0.0000000E+00;  1.4746124E-04;  1.8746217E+03;
 -2.9999999E-02;  9.9999998E-03;  1.0000000E-01;1600;  0.0000000E+00;  0.0000000E+00;  0.0000000E+00;  1.0078001E+03;  1.0000000E-01;  6.4622368E+03;0;  0.0000000E+00;  0.0000000E+00;  0.0000000E+00;0; -5.7027652E-04;  4.0000000E+04;  0.0000000E+00;  0.0000000E+00;  4.0000000E+04;  0.0000000E+00;  4.0000000E+04; -7.6242030E-04;  0.0000000E+00;  1.9214378E-04;  1.8161215E+03;
 -2.9999999E-02;  9.9999998E-03;  1.1000000E-01;1601;  0.0000000E+00;  0.0000000E+00;  0.0000000E+00;  1.0078242E+03;  1.0000000E-01;  6.4821870E+03;0;  0.0000000E+00;  0.0000000E+00;  0.0000000E+00;0; -6.3098036E-04;  4.0000000E+04;  0.0000000E+00;  0.0000000E+00;  4.0000000E+04;  0.0000000E+00;  4.0000000E+04; -8.7139173E-04;  0.0000000E+00;  2.4041139E-04;  1.7685953E+03;
 -2.9999999E-02;  9.9999998E-03;  1.2000000E-01;1602;  0.0000000E+00;  0.0000000E+00;  0.0000000E+00;  1.0078143E+03;  1.0000000E-01;  6.4739897E+03;0;  0.0000000E+00;  0.0000000E+00;  0.0000000E+00;0; -6.8619923E-04;  4.0000000E+04;  0.0000000E+00;  0.0000000E+00;  4.0000000E+04;  0.0000000E+00;  4.0000000E+04; -9.7559422E-04;  0.0000000E+00;  2.8939499E-04;  1.7410029E+03;
 -2.9999999E-02;  9.9999998E-03;  1.3000000E-01;1603;  0.0000000E+00;  0.0000000E+00;  0.0000000E+00;  1.0077578E+03;  1.0000000E-01;  6.4271763E+03;0;  0.0000000E+00;  0.0000000E+00;  0.0000000E+00;0; -7.2524673E-04;  4.0000000E+04;  0.0000000E+00;  0.0000000E+00;  4.0000000E+04;  0.0000000E+00;  4.0000000E+04; -1.0610536E-03;  0.0000000E+00;  3.3580684E-04;  1.7441840E+03;
 -2.9999999E-02;  9.9999998E-03;  1.4000000E-01;1604;  0.0000000E+00;  0.0000000E+00;  0.0000000E+00;  1.0076522E+03;  1.0000000E-01;  6.3396724E+03;0;  0.0000000E+00;  0.0000000E+00;  0.0000000E+00;0; -7.3752273E-04;  4.0000000E+04;  0.0000000E+00;  0.0000000E+00;  4.0000000E+04;  0.0000000E+00;  4.0000000E+04; -1.1135694E-03;  0.0000000E+00;  3.7604664E-04;  1.7894464E+03;
 -2.9999999E-02;  9.9999998E-03;  1.5000001E-01;1605;  0.0000000E+00;  0.0000000E+00;  0.0000000E+00;  1.0074881E+03;  1.0000000E-01;  6.2037754E+03;0;  0.0000000E+00;  0.0000000E+00;  0.0000000E+00;0; -7.1475108E-04;  4.0000000E+04;  0.0000000E+00;  0.0000000E+00;  4.0000000E+04;  0.0000000E+00;  4.0000000E+04; -1.1208982E-03;  0.0000000E+00;  4.0614707E-04;  1.8856846E+03;
 -2.9999999E-02;  9.9999998E-03;  1.6000000E-01;1606;  0.0000000E+00;  0.0000000E+00;  0.0000000E+00;  1.0072692E+03;  1.0000000E-01;  6.0224468E+03;0;  0.0000000E+00;  0.0000000E+00;  0.0000000E+00;0; -6.5301056E-04;  4.0000000E+04;  0.0000000E+00;  0.0000000E+00;  4.0000000E+04;  0.0000000E+00;  4.0000000E+04; -1.0748886E-03;  0.0000000E+00;  4.2187807E-04;  2.0356488E+03;
 -2.9999999E-02;  9.9999998E-03;  1.7000000E-01;1607;  0.0000000E+00;  0.0000000E+00;  0.0000000E+00;  1.0070050E+03;  1.0000000E-01;  5.8034902E+03;0;  0.0000000E+00;  0.0000000E+00;  0.0000000E+00;0; -5.5381830E-04;  4.0000000E+04;  0.0000000E+00;  0.0000000E+00;  4.0000000E+04;  0.0000000E+00;  4.0000000E+04; -9.7304891E-04;  0.0000000E+00;  4.1923061E-04;  2.2322849E+03;
 -2.9999999E-02;  9.9999998E-03;  1.8000001E-01;1608;  0.0000000E+00;  0.0000000E+00;  0.0000000E+00;  1.0066867E+03;  1.0000000E-01;  5.5397939E+03;0;  0.0000000E+00;  0.0000000E+00;  0.0000000E+00;0; -4.2431892E-04;  4.0000000E+04;  0.0000000E+00;  0.0000000E+00;  4.0000000E+04;  0.0000000E+00;  4.0000000E+04; -8.1938395E-04;  0.0000000E+00;  3.9506503E-04;  2.4583357E+03;
 -2.9999999E-02;  9.9999998E-03;  1.9000000E-01;1609;  0.0000000E+00;  0.0000000E+00;  0.0000000E+00;  1.0063402E+03;  1.0000000E-01;  5.2527896E+03;0;  0.0000000E+00;  0.0000000E+00;  0.0000000E+00;0; -2.7678744E-04;  4.0000000E+04;  0.0000000E+00;  0.0000000E+00;  4.0000000E+04;  0.0000000E+00;  4.0000000E+04; -6.2444858E-04;  0.0000000E+00;  3.4766115E-04;  2.6868472E+03;
 -2.9999999E-02;  9.9999998E-03;  2.0000000E-01;1610;  0.0000000E+00;  0.0000000E+00;  0.0000000E+00;  1.0059641E+03;  1.0000000E-01;  4.9410947E+03;0;  0.0000000E+00;  0.0000000E+00;  0.0000000E+00;0; -1.2738290E-04;  4.0000000E+04;  0.0000000E+00;  0.0000000E+00;  4.0000000E+04;  0.0000000E+00;  4.0000000E+04; -4.0454499E-04;  0.0000000E+00;  2.7716209E-04;  2.8826384E+03;
 -2.9999999E-02;  9.9999998E-03;  2.0999999E-01;1611;  0.0000000E+00;  0.0000000E+00;  0.0000000E+00;  1.0055765E+03;  1.0000000E-01;  4.6200176E+03;0;  0.0000000E+00;  0.0000000E+00;  0.0000000E+00;0;  5.8916921E-06;  4.0000000E+04;  0.0000000E+00;  0.0000000E+00;  4.0000000E+04;  0.0000000E+00;  4.0000000E+04; -1.7999874E-04;  0.0000000E+00;  1.8589043E-04;  3.0051401E+03;
 -2.9999999E-02;  9.9999998E-03;  2.2000000E-01;1612;  0.0000000E+00;  0.0000000E+00;  0.0000000E+00;  1.0051902E+03;  1.0000000E-01;  4.2999277E+03;0;  0.0000000E+00;  0.0000000E+00;  0.0000000E+00;0;  1.0583212E-04;  4.0000000E+04;  0.0000000E+00;  0.0000000E+00;  4.0000000E+04;  0.0000000E+00;  4.0000000E+04;  2.7378024E-05;  0.0000000E+00;  7.8454097E-05;  3.0125518E+03;
 -2.9999999E-02;  9.9999998E-03;  2.3000000E-01;1613;  0.0000000E+00;  0.0000000E+00;  0.0000000E+00;  1.0048142E+03;  1.0000000E-01;  3.9885291E+03;0;  0.0000000E+00;  0.0000000E+00;  0.0000000E+00;0;  1.5891402E-04;  4.0000000E+04;  0.0000000E+00;  0.0000000E+00;  4.0000000E+04;  0.0000000E+00;  4.0000000E+04;  1.9734958E-04;  0.0000000E+00; -3.8435566E-05;  2.8681824E+03;
 -2.0000000E-02;  9.9999998E-03;  7.0000000E-02;1688;  0.0000000E+00;  0.0000000E+00;  0.0000000E+00;  1.0101041E+03;  1.0000000E-01;  8.3711211E+03;0;  0.0000000E+00;  0.0000000E+00;  0.0000000E+00;0; -2.3154281E-03;  4.0000000E+04;  0.0000000E+00;  0.0000000E+00;  4.0000000E+04;  0.0000000E+00;  4.0000000E+04; -2.4195579E-03;  0.0000000E+00;  1.0412983E-04;  2.0681833E+03;
 -2.0000000E-02;  9.9999998E-03;  7.9999998E-02;1689;  0.0000000E+00;  0.0000000E+00;  0.0000000E+00;  1.0101838E+03;  1.0000000E-01;  8.4370947E+03;0;  0.0000000E+00;  0.0000000E+00;  0.0000000E+00;0; -2.3489029E-03;  4.0000000E+04;  0.0000000E+00;  0.0000000E+00;  4.0000000E+04;  0.0000000E+00;  4.0000000E+04; -2.4902162E-03;  0.0000000E+00;  1.4131331E-04;  2.0025458E+03;
 -2.0000000E-02;  9.9999998E-03;  9.0000004E-02;1690;  0.0000000E+00;  0.0000000E+00;  0.0000000E+00;  1.0102604E+03;  1.0000000E-01;  8.5005986E+03;0;  0.0000000E+00;  0.0000000E+00;  0.0000000E+00;0; -2.3973158E-03;  4.0000000E+04;  0.0000000E+00;  0.0000000E+00;  4.0000000E+04;  0.0000000E+00;  4.0000000E+04; -2.5836995E-03;  0.0000000E+00;  1.8638367E-04;  1.9365320E+03;
 -2.0000000E-02;  9.9999998E-03;  1.0000000E-01;1691;  0.0000000E+00;  0.0000000E+00;  0.0000000E+00;  1.0103208E+03;  1.0000000E-01;  8.5505732E+03;0;  0.0000000E+00;  0.0000000E+00;  0.0000000E+00;0; -2.4570394E-03;  4.0000000E+04;  0.0000000E+00;  0.0000000E+00;  4.0000000E+04;  0.0000000E+00;  4.0000000E+04; -2.6945034E-03;  0.0000000E+00;  2.3746402E-04;  1.8758817E+03;
 -2.0000000E-02;  9.9999998E-03;  1.1000000E-01;1692;  0.0000000E+00;  0.0000000E+00;  0.0000000E+00;  1.0103591E+03;  1.0000000E-01;  8.5823750E+03;0;  0.0000000E+00;  0.0000000E+00;  0.0000000E+00;0; -2.5207147E-03;  4.0000000E+04;  0.0000000E+00;  0.0000000E+00;  4.0000000E+04;  0.0000000E+00;  4.0000000E+04; -2.8127329E-03;  0.0000000E+00;  2.9201829E-04;  1.8277594E+03;
 -2.0000000E-02;  9.9999998E-03;  1.2000000E-01;1693;  0.0000000E+00;  0.0000000E+00;  0.0000000E+00;  1.0103505E+03;  1.0000000E-01;  8.5751650E+03;0;  0.0000000E+00;  0.0000000E+00;  0.0000000E+00;0; -2.5776038E-03;  4.0000000E+04;  0.0000000E+00;  0.0000000E+00;  4.0000000E+04;  0.0000000E+00;  4.0000000E+04; -2.9246502E-03;  0.0000000E+00;  3.4704644E-04;  1.8014657E+03;
 -2.0000000E-02;  9.9999998E-03;  1.3000000E-01;1694;  0.0000000E+00;  0.0000000E+00;  0.0000000E+00;  1.0102902E+03;  1.0000000E-01;  8.5251914E+03;0;  0.0000000E+00;  0.0000000E+00;  0.0000000E+00;0; -2.6147529E-03;  4.0000000E+04;  0.0000000E+00;  0.0000000E+00;  4.0000000E+04;  0.0000000E+00;  4.0000000E+04; -3.0139391E-03;  0.0000000E+00;  3.9918633E-04;  1.8086166E+03;
 -2.0000000E-02;  9.9999998E-03;  1.4000000E-01;1695;  0.0000000E+00;  0.0000000E+00;  0.0000000E+00;  1.0101675E+03;  1.0000000E-01;  8.4236631E+03;0;  0.0000000E+00;  0.0000000E+00;  0.0000000E+00;0; -2.6190141E-03;  4.0000000E+04;  0.0000000E+00;  0.0000000E+00;  4.0000000E+04;  0.0000000E+00;  4.0000000E+04; -3.0637011E-03;  0.0000000E+00;  4.4468691E-04;  1.8617362E+03;
 -2.0000000E-02;  9.9999998E-03;  1.5000001E-01;1696;  0.0000000E+00;  0.0000000E+00;  0.0000000E+00;  1.0099717E+03;  1.0000000E-01;  8.2613955E+03;0;  0.0000000E+00;  0.0000000E+00;  0.0000000E+00;0; -2.5796674E-03;  4.0000000E+04;  0.0000000E+00;  0.0000000E+00;  4.0000000E+04;  0.0000000E+00;  4.0000000E+04; -3.0588829E-03;  0.0000000E+00;  4.7921558E-04;  1.9713322E+03;
 -2.0000000E-02;  9.9999998E-03;  1.6000000E-01;1697;  0.0000000E+00;  0.0000000E+00;  0.0000000E+00;  1.0097032E+03;  1.0000000E-01;  8.0389824E+03;0;  0.0000000E+00;  0.0000000E+00;  0.0000000E+00;0; -2.4907307E-03;  4.0000000E+04;  0.0000000E+00;  0.0000000E+00;  4.0000000E+04;  0.0000000E+00;  4.0000000E+04; -2.9886900E-03;  0.0000000E+00;  4.9795926E-04;  2.1415398E+03;
 -2.0000000E-02;  9.9999998E-03;  1.7000000E-01;1698;  0.0000000E+00;  0.0000000E+00;  0.0000000E+00;  1.0093662E+03;  1.0000000E-01;  7.7596816E+03;0;  0.0000000E+00;  0.0000000E+00;  0.0000000E+00;0; -2.3521893E-03;  4.0000000E+04;  0.0000000E+00;  0.0000000E+00;  4.0000000E+04;  0.0000000E+00;  4.0000000E+04; -2.8483861E-03;  0.0000000E+00;  4.9619691E-04;  2.3666775E+03;
 -2.0000000E-02;  9.9999998E-03;  1.8000001E-01;1699;  0.0000000E+00;  0.0000000E+00;  0.0000000E+00;  1.0089741E+03;  1.0000000E-01;  7.4348516E+03;0;  0.0000000E+00;  0.0000000E+00;  0.0000000E+00;0; -2.1704123E-03;  4.0000000E+04;  0.0000000E+00;  0.0000000E+00;  4.0000000E+04;  0.0000000E+00;  4.0000000E+04; -2.6403952E-03;  0.0000000E+00;  4.6998283E-04;  2.6304458E+03;
 -2.0000000E-02;  9.9999998E-03;  1.9000000E-01;1700;  0.0000000E+00;  0.0000000E+00;  0.0000000E+00;  1.0085364E+03;  1.0000000E-01;  7.0722939E+03;0;  0.0000000E+00;  0.0000000E+00;  0.0000000E+00;0; -1.9578955E-03;  4.0000000E+04;  0.0000000E+00;  0.0000000E+00;  4.0000000E+04;  0.0000000E+00;  4.0000000E+04; -2.3746595E-03;  0.0000000E+00;  4.1676409E-04;  2.9056431E+03;
 -2.0000000E-02;  9.9999998E-03;  2.0000000E-01;1701;  0.0000000E+00;  0.0000000E+00;  0.0000000E+00;  1.0080591E+03;  1.0000000E-01;  6.6768481E+03;0;  0.0000000E+00;  0.0000000E+00;  0.0000000E+00;0; -1.7320409E-03;  4.0000000E+04;  0.0000000E+00;  0.0000000E+00;  4.0000000E+04;  0.0000000E+00;  4.0000000E+04; -2.0680425E-03;  0.0000000E+00;  3.3600163E-04;  3.1544006E+03;
 -2.0000000E-02;  9.9999998E-03;  2.0999999E-01;1702;  0.0000000E+00;  0.0000000E+00;  0.0000000E+00;  1.0075677E+03;  1.0000000E-01;  6.2697485E+03;0;  0.0000000E+00;  0.0000000E+00;  0.0000000E+00;0; -1.5129789E-03;  4.0000000E+04;  0.0000000E+00;  0.0000000E+00;  4.0000000E+04;  0.0000000E+00;  4.0000000E+04; -1.7426761E-03;  0.0000000E+00;  2.2969719E-04;  3.3301257E+03;
 -2.0000000E-02;  9.9999998E-03;  2.2000000E-01;1703;  0.0000000E+00;  0.0000000E+00;  0.0000000E+00;  1.0070623E+03;  1.0000000E-01;  5.8509951E+03;0;  0.0000000E+00;  0.0000000E+00;  0.0000000E+00;0; -1.3205929E-03;  4.0000000E+04;  0.0000000E+00;  0.0000000E+00;  4.0000000E+04;  0.0000000E+00;  4.0000000E+04; -1.4232900E-03;  0.0000000E+00;  1.0269706E-04;  3.3817744E+03;
 -2.0000000E-02;  9.9999998E-03;  2.3000000E-01;1704;  0.0000000E+00;  0.0000000E+00;  0.0000000E+00;  1.0065690E+03;  1.0000000E-01;  5.4423154E+03;0;  0.0000000E+00;  0.0000000E+00;  0.0000000E+00;0; -1.1711586E-03;  4.0000000E+04;  0.0000000E+00;  0.0000000E+00;  4.0000000E+04;  0.0000000E+00;  4.0000000E+04; -1.1337885E-03;  0.0000000E+00; -3.7370100E-05;  3.2609038E+03;
 -9.9999998E-03;  9.9999998E-03;  7.0000000E-02;1779;  0.0000000E+00;  0.0000000E+00;  0.0000000E+00;  1.0127505E+03;  1.0000000E-01;  1.0563553E+04;0;  0.0000000E+00;  0.0000000E+00;  0.0000000E+00;0; -4.7221673E-03;  4.0000000E+04;  0.0000000E+00;  0.0000000E+00;  4.0000000E+04;  0.0000000E+00;  4.0000000E+04; -4.8565725E-03;  0.0000000E+00;  1.3440527E-04;  2.0058225E+03;
 -9.9999998E-03;  9.9999998E-03;  7.9999998E-02;1780;  0.0000000E+00;  0.0000000E+00;  0.0000000E+00;  1.0128524E+03;  1.0000000E-01;  1.0647995E+04;0;  0.0000000E+00;  0.0000000E+00;  0.0000000E+00;0; -4.7529852E-03;  4.0000000E+04;  0.0000000E+00;  0.0000000E+00;  4.0000000E+04;  0.0000000E+00;  4.0000000E+04; -4.9298499E-03;  0.0000000E+00;  1.7686457E-04;  1.9399957E+03;
 -9.9999998E-03;  9.9999998E-03;  9.0000004E-02;1781;  0.0000000E+00;  0.0000000E+00;  0.0000000E+00;  1.0129486E+03;  1.0000000E-01;  1.0727696E+04;0;  0.0000000E+00;  0.0000000E+00;  0.0000000E+00;0; -4.7998098E-03;  4.0000000E+04;  0.0000000E+00;  0.0000000E+00;  4.0000000E+04;  0.0000000E+00;  4.0000000E+04; -5.0269915E-03;  0.0000000E+00;  2.2718150E-04;  1.8757113E+03;
 -9.9999998E-03;  9.9999998E-03;  1.0000000E-01;1782;  0.0000000E+00;  0.0000000E+00;  0.0000000E+00;  1.0130317E+03;  1.0000000E-01;  1.0796534E+04;0;  0.0000000E+00;  0.0000000E+00;  0.0000000E+00;0; -4.8588263E-03;  4.0000000E+04;  0.0000000E+00;  0.0000000E+00;  4.0000000E+04;  0.0000000E+00;  4.0000000E+04; -5.1420238E-03;  0.0000000E+00;  2.8319727E-04;  1.8180198E+03;
 -9.9999998E-03;  9.9999998E-03;  1.1000000E-01;1783;  0.0000000E+00;  0.0000000E+00;  0.0000000E+00;  1.0130842E+03;  1.0000000E-01;  1.0839989E+04;0;  0.0000000E+00;  0.0000000E+00;  0.0000000E+00;0; -4.9218289E-03;  4.0000000E+04;  0.0000000E+00;  0.0000000E+00;  4.0000000E+04;  0.0000000E+00;  4.0000000E+04; -5.2641132E-03;  0.0000000E+00;  3.4228453E-04;  1.7733423E+03;
 -9.9999998E-03;  9.9999998E-03;  1.2000000E-01;1784;  0.0000000E+00;  0.0000000E+00;  0.0000000E+00;  1.0130917E+03;  1.0000000E-01;  1.0846212E+04;0;  0.0000000E+00;  0.0000000E+00;  0.0000000E+00;0; -4.9765045E-03;  4.0000000E+04;  0.0000000E+00;  0.0000000E+00;  4.0000000E+04;  0.0000000E+00;  4.0000000E+04; -5.3780559E-03;  0.0000000E+00;  4.0155114E-04;  1.7503406E+03;
 -9.9999998E-03;  9.9999998E-03;  1.3000000E-01;1785;  0.0000000E+00;  0.0000000E+00;  0.0000000E+00;  1.0130331E+03;  1.0000000E-01;  1.0797620E+04;0;  0.0000000E+00;  0.0000000E+00;  0.0000000E+00;0; -5.0077480E-03;  4.0000000E+04;  0.0000000E+00;  0.0000000E+00;  4.0000000E+04;  0.0000000E+00;  4.0000000E+04; -5.4655899E-03;  0.0000000E+00;  4.5784193E-04;  1.7606066E+03;
 -9.9999998E-03;  9.9999998E-03;  1.4000000E-01;1786;  0.0000000E+00;  0.0000000E+00;  0.0000000E+00;  1.0128955E+03;  1.0000000E-01;  1.0683648E+04;0;  0.0000000E+00;  0.0000000E+00;  0.0000000E+00;0; -4.9998900E-03;  4.0000000E+04;  0.0000000E+00;  0.0000000E+00;  4.0000000E+04;  0.0000000E+00;  4.0000000E+04; -5.5074333E-03;  0.0000000E+00;  5.0754356E-04;  1.8176538E+03;
 -9.9999998E-03;  9.9999998E-03;  1.5000001E-01;1787;  0.0000000E+00;  0.0000000E+00;  0.0000000E+00;  1.0126792E+03;  1.0000000E-01;  1.0504493E+04;0;  0.0000000E+00;  0.0000000E+00;  0.0000000E+00;0; -4.9397307E-03;  4.0000000E+04;  0.0000000E+00;  0.0000000E+00;  4.0000000E+04;  0.0000000E+00;  4.0000000E+04; -5.4859482E-03;  0.0000000E+00;  5.4621749E-04;  1.9339402E+03;
 -9.9999998E-03;  9.9999998E-03;  1.6000000E-01;1788;  0.0000000E+00;  0.0000000E+00;  0.0000000E+00;  1.0123695E+03;  1.0000000E-01;  1.0247907E+04;0;  0.0000000E+00;  0.0000000E+00;  0.0000000E+00;0; -4.8190234E-03;  4.0000000E+04;  0.0000000E+00;  0.0000000E+00;  4.0000000E+04;  0.0000000E+00;  4.0000000E+04; -5.3876815E-03;  0.0000000E+00;  5.6865788E-04;  2.1160713E+03;
 -9.9999998E-03;  9.9999998E-03;  1.7000000E-01;1789;  0.0000000E+00;  0.0000000E+00;  0.0000000E+00;  1.0119695E+03;  1.0000000E-01;  9.9165586E+03;0;  0.0000000E+00;  0.0000000E+00;  0.0000000E+00;0; -4.6358453E-03;  4.0000000E+04;  0.0000000E+00;  0.0000000E+00;  4.0000000E+04;  0.0000000E+00;  4.0000000E+04; -5.2053141E-03;  0.0000000E+00;  5.6946906E-04;  2.3615461E+03;
 -9.9999998E-03;  9.9999998E-03;  1.8000001E-01;1790;  0.0000000E+00;  0.0000000E+00;  0.0000000E+00;  1.0114988E+03;  1.0000000E-01;  9.5265449E+03;0;  0.0000000E+00;  0.0000000E+00;  0.0000000E+00;0; -4.3953415E-03;  4.0000000E+04;  0.0000000E+00;  0.0000000E+00;  4.0000000E+04;  0.0000000E+00;  4.0000000E+04; -4.9390565E-03;  0.0000000E+00;  5.4371479E-04;  2.6571631E+03;
 -9.9999998E-03;  9.9999998E-03;  1.9000000E-01;1791;  0.0000000E+00;  0.0000000E+00;  0.0000000E+00;  1.0109653E+03;  1.0000000E-01;  9.0844834E+03;0;  0.0000000E+00;  0.0000000E+00;  0.0000000E+00;0; -4.1096560E-03;  4.0000000E+04;  0.0000000E+00;  0.0000000E+00;  4.0000000E+04;  0.0000000E+00;  4.0000000E+04; -4.5972988E-03;  0.0000000E+00;  4.8764271E-04;  2.9773958E+03;
 -9.9999998E-03;  9.9999998E-03;  2.0000000E-01;1792;  0.0000000E+00;  0.0000000E+00;  0.0000000E+00;  1.0103866E+03;  1.0000000E-01;  8.6050898E+03;0;  0.0000000E+00;  0.0000000E+00;  0.0000000E+00;0; -3.7967884E-03;  4.0000000E+04;  0.0000000E+00;  0.0000000E+00;  4.0000000E+04;  0.0000000E+00;  4.0000000E+04; -4.1963225E-03;  0.0000000E+00;  3.9953424E-04;  3.2834778E+03;
 -9.9999998E-03;  9.9999998E-03;  2.0999999E-01;1793;  0.0000000E+00;  0.0000000E+00;  0.0000000E+00;  1.0097780E+03;  1.0000000E-01;  8.1008081E+03;0;  0.0000000E+00;  0.0000000E+00;  0.0000000E+00;0; -3.4782828E-03;  4.0000000E+04;  0.0000000E+00;  0.0000000E+00;  4.0000000E+04;  0.0000000E+00;  4.0000000E+04; -3.7588531E-03;  0.0000000E+00;  2.8057021E-04;  3.5239910E+03;
 -9.9999998E-03;  9.9999998E-03;  2.2000000E-01;1794;  0.0000000E+00;  0.0000000E+00;  0.0000000E+00;  1.0091531E+03;  1.0000000E-01;  7.5831929E+03;0;  0.0000000E+00;  0.0000000E+00;  0.0000000E+00;0; -3.1759352E-03;  4.0000000E+04;  0.0000000E+00;  0.0000000E+00;  4.0000000E+04;  0.0000000E+00;  4.0000000E+04; -3.3113619E-03;  0.0000000E+00;  1.3542661E-04;  3.6385718E+03;
 -9.9999998E-03;  9.9999998E-03;  2.3000000E-01;1795;  0.0000000E+00;  0.0000000E+00;  0.0000000E+00;  1.0085316E+03;  1.0000000E-01;  7.0682446E+03;0;  0.0000000E+00;  0.0000000E+00;  0.0000000E+00;0; -2.9080857E-03;  4.0000000E+04;  0.0000000E+00;  0.0000000E+00;  4.0000000E+04;  0.0000000E+00;  4.0000000E+04; -2.8804988E-03;  0.0000000E+00; -2.7587013E-05;  3.5660359E+03;
 -1.9000000E-01;  9.9999998E-03;  2.3999999E-01;158;  0.0000000E+00;  0.0000000E+00;  0.0000000E+00;  1.0000000E+03;  1.0000000E-01;  0.0000000E+00;0;  0.0000000E+00;  0.0000000E+00;  0.0000000E+00;0;  0.0000000E+00;  4.0000000E+04;  0.0000000E+00;  0.0000000E+00;  4.0000000E+04;  0.0000000E+00;  4.0000000E+04;  0.0000000E+00;  0.0000000E+00;  0.0000000E+00;  0.0000000E+00;
 -1.9000000E-01;  9.9999998E-03;  2.5000000E-01;159;  0.0000000E+00;  0.0000000E+00;  0.0000000E+00;  1.0000000E+03;  1.0000000E-01;  0.0000000E+00;0;  0.0000000E+00;  0.0000000E+00;  0.0000000E+00;0;  0.0000000E+00;  4.0000000E+04;  0.0000000E+00;  0.0000000E+00;  4.0000000E+04;  0.0000000E+00;  4.0000000E+04;  0.0000000E+00;  0.0000000E+00;  0.0000000E+00;  0.0000000E+00;
 -1.9000000E-01;  9.9999998E-03;  2.5999999E-01;160;  0.0000000E+00;  0.0000000E+00;  0.0000000E+00;  1.0000000E+03;  1.0000000E-01;  0.0000000E+00;0;  0.0000000E+00;  0.0000000E+00;  0.0000000E+00;0;  0.0000000E+00;  4.0000000E+04;  0.0000000E+00;  0.0000000E+00;  4.0000000E+04;  0.0000000E+00;  4.0000000E+04;  0.0000000E+00;  0.0000000E+00;  0.0000000E+00;  0.0000000E+00;
 -1.9000000E-01;  9.9999998E-03;  2.7000001E-01;161;  0.0000000E+00;  0.0000000E+00;  0.0000000E+00;  1.0000000E+03;  1.0000000E-01;  0.0000000E+00;0;  0.0000000E+00;  0.0000000E+00;  0.0000000E+00;0;  0.0000000E+00;  4.0000000E+04;  0.0000000E+00;  0.0000000E+00;  4.0000000E+04;  0.0000000E+00;  4.0000000E+04;  0.0000000E+00;  0.0000000E+00;  0.0000000E+00;  0.0000000E+00;
 -1.9000000E-01;  9.9999998E-03;  2.8000000E-01;162;  0.0000000E+00;  0.0000000E+00;  0.0000000E+00;  1.0000000E+03;  1.0000000E-01;  0.0000000E+00;0;  0.0000000E+00;  0.0000000E+00;  0.0000000E+00;0;  0.0000000E+00;  4.0000000E+04;  0.0000000E+00;  0.0000000E+00;  4.0000000E+04;  0.0000000E+00;  4.0000000E+04;  0.0000000E+00;  0.0000000E+00;  0.0000000E+00;  0.0000000E+00;
 -1.9000000E-01;  9.9999998E-03;  2.8999999E-01;163;  0.0000000E+00;  0.0000000E+00;  0.0000000E+00;  1.0000000E+03;  1.0000000E-01;  0.0000000E+00;0;  0.0000000E+00;  0.0000000E+00;  0.0000000E+00;0;  0.0000000E+00;  4.0000000E+04;  0.0000000E+00;  0.0000000E+00;  4.0000000E+04;  0.0000000E+00;  4.0000000E+04;  0.0000000E+00;  0.0000000E+00;  0.0000000E+00;  0.0000000E+00;
 -1.9000000E-01;  9.9999998E-03;  3.0000001E-01;164;  0.0000000E+00;  0.0000000E+00;  0.0000000E+00;  1.0000000E+03;  1.0000000E-01;  0.0000000E+00;0;  0.0000000E+00;  0.0000000E+00;  0.0000000E+00;0;  0.0000000E+00;  4.0000000E+04;  0.0000000E+00;  0.0000000E+00;  4.0000000E+04;  0.0000000E+00;  4.0000000E+04;  0.0000000E+00;  0.0000000E+00;  0.0000000E+00;  0.0000000E+00;
 -1.9000000E-01;  9.9999998E-03;  3.1000000E-01;165;  0.0000000E+00;  0.0000000E+00;  0.0000000E+00;  1.0000000E+03;  1.0000000E-01;  0.0000000E+00;0;  0.0000000E+00;  0.0000000E+00;  0.0000000E+00;0;  0.0000000E+00;  4.0000000E+04;  0.0000000E+00;  0.0000000E+00;  4.0000000E+04;  0.0000000E+00;  4.0000000E+04;  0.0000000E+00;  0.0000000E+00;  0.0000000E+00;  0.0000000E+00;
 -1.9000000E-01;  9.9999998E-03;  3.1999999E-01;166;  0.0000000E+00;  0.0000000E+00;  0.0000000E+00;  1.0000000E+03;  1.0000000E-01;  0.0000000E+00;0;  0.0000000E+00;  0.0000000E+00;  0.0000000E+00;0;  0.0000000E+00;  4.0000000E+04;  0.0000000E+00;  0.0000000E+00;  4.0000000E+04;  0.0000000E+00;  4.0000000E+04;  0.0000000E+00;  0.0000000E+00;  0.0000000E+00;  0.0000000E+00;
 -1.9000000E-01;  9.9999998E-03;  3.3000001E-01;167;  0.0000000E+00;  0.0000000E+00;  0.0000000E+00;  1.0000000E+03;  1.0000000E-01;  0.0000000E+00;0;  0.0000000E+00;  0.0000000E+00;  0.0000000E+00;0;  0.0000000E+00;  4.0000000E+04;  0.0000000E+00;  0.0000000E+00;  4.0000000E+04;  0.0000000E+00;  4.0000000E+04;  0.0000000E+00;  0.0000000E+00;  0.0000000E+00;  0.0000000E+00;
 -1.9000000E-01;  9.9999998E-03;  3.4000000E-01;168;  0.0000000E+00;  0.0000000E+00;  0.0000000E+00;  1.0000000E+03;  1.0000000E-01;  0.0000000E+00;0;  0.0000000E+00;  0.0000000E+00;  0.0000000E+00;0;  0.0000000E+00;  4.0000000E+04;  0.0000000E+00;  0.0000000E+00;  4.0000000E+04;  0.0000000E+00;  4.0000000E+04;  0.0000000E+00;  0.0000000E+00;  0.0000000E+00;  0.0000000E+00;
 -1.9000000E-01;  9.9999998E-03;  3.4999999E-01;169;  0.0000000E+00;  0.0000000E+00;  0.0000000E+00;  1.0000000E+03;  1.0000000E-01;  0.0000000E+00;0;  0.0000000E+00;  0.0000000E+00;  0.0000000E+00;0;  0.0000000E+00;  4.0000000E+04;  0.0000000E+00;  0.0000000E+00;  4.0000000E+04;  0.0000000E+00;  4.0000000E+04;  0.0000000E+00;  0.0000000E+00;  0.0000000E+00;  0.0000000E+00;
 -1.9000000E-01;  9.9999998E-03;  3.6000001E-01;170;  0.0000000E+00;  0.0000000E+00;  0.0000000E+00;  1.0000000E+03;  1.0000000E-01;  0.0000000E+00;0;  0.0000000E+00;  0.0000000E+00;  0.0000000E+00;0;  0.0000000E+00;  4.0000000E+04;  0.0000000E+00;  0.0000000E+00;  4.0000000E+04;  0.0000000E+00;  4.0000000E+04;  0.0000000E+00;  0.0000000E+00;  0.0000000E+00;  0.0000000E+00;
 -1.9000000E-01;  9.9999998E-03;  3.7000000E-01;171;  0.0000000E+00;  0.0000000E+00;  0.0000000E+00;  1.0000000E+03;  1.0000000E-01;  0.0000000E+00;0;  0.0000000E+00;  0.0000000E+00;  0.0000000E+00;0;  0.0000000E+00;  4.0000000E+04;  0.0000000E+00;  0.0000000E+00;  4.0000000E+04;  0.0000000E+00;  4.0000000E+04;  0.0000000E+00;  0.0000000E+00;  0.0000000E+00;  0.0000000E+00;
 -1.9000000E-01;  9.9999998E-03;  3.8000000E-01;172;  0.0000000E+00;  0.0000000E+00;  0.0000000E+00;  1.0000000E+03;  1.0000000E-01;  0.0000000E+00;0;  0.0000000E+00;  0.0000000E+00;  0.0000000E+00;0;  0.0000000E+00;  4.0000000E+04;  0.0000000E+00;  0.0000000E+00;  4.0000000E+04;  0.0000000E+00;  4.0000000E+04;  0.0000000E+00;  0.0000000E+00;  0.0000000E+00;  0.0000000E+00;
 -1.9000000E-01;  9.9999998E-03;  3.8999999E-01;173;  0.0000000E+00;  0.0000000E+00;  0.0000000E+00;  1.0000000E+03;  1.0000000E-01;  0.0000000E+00;0;  0.0000000E+00;  0.0000000E+00;  0.0000000E+00;0;  0.0000000E+00;  4.0000000E+04;  0.0000000E+00;  0.0000000E+00;  4.0000000E+04;  0.0000000E+00;  4.0000000E+04;  0.0000000E+00;  0.0000000E+00;  0.0000000E+00;  0.0000000E+00;
 -1.9000000E-01;  9.9999998E-03;  4.0000001E-01;174;  0.0000000E+00;  0.0000000E+00;  0.0000000E+00;  1.0000000E+03;  1.0000000E-01;  0.0000000E+00;0;  0.0000000E+00;  0.0000000E+00;  0.0000000E+00;0;  0.0000000E+00;  4.0000000E+04;  0.0000000E+00;  0.0000000E+00;  4.0000000E+04;  0.0000000E+00;  4.0000000E+04;  0.0000000E+00;  0.0000000E+00;  0.0000000E+00;  0.0000000E+00;
 -1.8000001E-01;  9.9999998E-03;  2.3999999E-01;249;  0.0000000E+00;  0.0000000E+00;  0.0000000E+00;  1.0000000E+03;  1.0000000E-01;  0.0000000E+00;0;  0.0000000E+00;  0.0000000E+00;  0.0000000E+00;0;  0.0000000E+00;  4.0000000E+04;  0.0000000E+00;  0.0000000E+00;  4.0000000E+04;  0.0000000E+00;  4.0000000E+04;  0.0000000E+00;  0.0000000E+00;  0.0000000E+00;  0.0000000E+00;
 -1.8000001E-01;  9.9999998E-03;  2.5000000E-01;250;  0.0000000E+00;  0.0000000E+00;  0.0000000E+00;  1.0000000E+03;  1.0000000E-01;  0.0000000E+00;0;  0.0000000E+00;  0.0000000E+00;  0.0000000E+00;0;  0.0000000E+00;  4.0000000E+04;  0.0000000E+00;  0.0000000E+00;  4.0000000E+04;  0.0000000E+00;  4.0000000E+04;  0.0000000E+00;  0.0000000E+00;  0.0000000E+00;  0.0000000E+00;
 -1.8000001E-01;  9.9999998E-03;  2.5999999E-01;251;  0.0000000E+00;  0.0000000E+00;  0.0000000E+00;  1.0000000E+03;  1.0000000E-01;  0.0000000E+00;0;  0.0000000E+00;  0.0000000E+00;  0.0000000E+00;0;  0.0000000E+00;  4.0000000E+04;  0.0000000E+00;  0.0000000E+00;  4.0000000E+04;  0.0000000E+00;  4.0000000E+04;  0.0000000E+00;  0.0000000E+00;  0.0000000E+00;  0.0000000E+00;
 -1.8000001E-01;  9.9999998E-03;  2.7000001E-01;252;  0.0000000E+00;  0.0000000E+00;  0.0000000E+00;  1.0000000E+03;  1.0000000E-01;  0.0000000E+00;0;  0.0000000E+00;  0.0000000E+00;  0.0000000E+00;0;  0.0000000E+00;  4.0000000E+04;  0.0000000E+00;  0.0000000E+00;  4.0000000E+04;  0.0000000E+00;  4.0000000E+04;  0.0000000E+00;  0.0000000E+00;  0.0000000E+00;  0.0000000E+00;
 -1.8000001E-01;  9.9999998E-03;  2.8000000E-01;253;  0.0000000E+00;  0.0000000E+00;  0.0000000E+00;  1.0000000E+03;  1.0000000E-01;  0.0000000E+00;0;  0.0000000E+00;  0.0000000E+00;  0.0000000E+00;0;  0.0000000E+00;  4.0000000E+04;  0.0000000E+00;  0.0000000E+00;  4.0000000E+04;  0.0000000E+00;  4.0000000E+04;  0.0000000E+00;  0.0000000E+00;  0.0000000E+00;  0.0000000E+00;
 -1.8000001E-01;  9.9999998E-03;  2.8999999E-01;254;  0.0000000E+00;  0.0000000E+00;  0.0000000E+00;  1.0000000E+03;  1.0000000E-01;  0.0000000E+00;0;  0.0000000E+00;  0.0000000E+00;  0.0000000E+00;0;  0.0000000E+00;  4.0000000E+04;  0.0000000E+00;  0.0000000E+00;  4.0000000E+04;  0.0000000E+00;  4.0000000E+04;  0.0000000E+00;  0.0000000E+00;  0.0000000E+00;  0.0000000E+00;
 -1.8000001E-01;  9.9999998E-03;  3.0000001E-01;255;  0.0000000E+00;  0.0000000E+00;  0.0000000E+00;  1.0000000E+03;  1.0000000E-01;  0.0000000E+00;0;  0.0000000E+00;  0.0000000E+00;  0.0000000E+00;0;  0.0000000E+00;  4.0000000E+04;  0.0000000E+00;  0.0000000E+00;  4.0000000E+04;  0.0000000E+00;  4.0000000E+04;  0.0000000E+00;  0.0000000E+00;  0.0000000E+00;  0.0000000E+00;
 -1.8000001E-01;  9.9999998E-03;  3.1000000E-01;256;  0.0000000E+00;  0.0000000E+00;  0.0000000E+00;  1.0000000E+03;  1.0000000E-01;  0.0000000E+00;0;  0.0000000E+00;  0.0000000E+00;  0.0000000E+00;0;  0.0000000E+00;  4.0000000E+04;  0.0000000E+00;  0.0000000E+00;  4.0000000E+04;  0.0000000E+00;  4.0000000E+04;  0.0000000E+00;  0.0000000E+00;  0.0000000E+00;  0.0000000E+00;
 -1.8000001E-01;  9.9999998E-03;  3.1999999E-01;257;  0.0000000E+00;  0.0000000E+00;  0.0000000E+00;  1.0000000E+03;  1.0000000E-01;  0.0000000E+00;0;  0.0000000E+00;  0.0000000E+00;  0.0000000E+00;0;  0.0000000E+00;  4.0000000E+04;  0.0000000E+00;  0.0000000E+00;  4.0000000E+04;  0.0000000E+00;  4.0000000E+04;  0.0000000E+00;  0.0000000E+00;  0.0000000E+00;  0.0000000E+00;
 -1.8000001E-01;  9.9999998E-03;  3.3000001E-01;258;  0.0000000E+00;  0.0000000E+00;  0.0000000E+00;  1.0000000E+03;  1.0000000E-01;  0.0000000E+00;0;  0.0000000E+00;  0.0000000E+00;  0.0000000E+00;0;  0.0000000E+00;  4.0000000E+04;  0.0000000E+00;  0.0000000E+00;  4.0000000E+04;  0.0000000E+00;  4.0000000E+04;  0.0000000E+00;  0.0000000E+00;  0.0000000E+00;  0.0000000E+00;
 -1.8000001E-01;  9.9999998E-03;  3.4000000E-01;259;  0.0000000E+00;  0.0000000E+00;  0.0000000E+00;  1.0000000E+03;  1.0000000E-01;  0.0000000E+00;0;  0.0000000E+00;  0.0000000E+00;  0.0000000E+00;0;  0.0000000E+00;  4.0000000E+04;  0.0000000E+00;  0.0000000E+00;  4.0000000E+04;  0.0000000E+00;  4.0000000E+04;  0.0000000E+00;  0.0000000E+00;  0.0000000E+00;  0.0000000E+00;
 -1.8000001E-01;  9.9999998E-03;  3.4999999E-01;260;  0.0000000E+00;  0.0000000E+00;  0.0000000E+00;  1.0000000E+03;  1.0000000E-01;  0.0000000E+00;0;  0.0000000E+00;  0.0000000E+00;  0.0000000E+00;0;  0.0000000E+00;  4.0000000E+04;  0.0000000E+00;  0.0000000E+00;  4.0000000E+04;  0.0000000E+00;  4.0000000E+04;  0.0000000E+00;  0.0000000E+00;  0.0000000E+00;  0.0000000E+00;
 -1.8000001E-01;  9.9999998E-03;  3.6000001E-01;261;  0.0000000E+00;  0.0000000E+00;  0.0000000E+00;  1.0000000E+03;  1.0000000E-01;  0.0000000E+00;0;  0.0000000E+00;  0.0000000E+00;  0.0000000E+00;0;  0.0000000E+00;  4.0000000E+04;  0.0000000E+00;  0.0000000E+00;  4.0000000E+04;  0.0000000E+00;  4.0000000E+04;  0.0000000E+00;  0.0000000E+00;  0.0000000E+00;  0.0000000E+00;
 -1.8000001E-01;  9.9999998E-03;  3.7000000E-01;262;  0.0000000E+00;  0.0000000E+00;  0.0000000E+00;  1.0000000E+03;  1.0000000E-01;  0.0000000E+00;0;  0.0000000E+00;  0.0000000E+00;  0.0000000E+00;0;  0.0000000E+00;  4.0000000E+04;  0.0000000E+00;  0.0000000E+00;  4.0000000E+04;  0.0000000E+00;  4.0000000E+04;  0.0000000E+00;  0.0000000E+00;  0.0000000E+00;  0.0000000E+00;
 -1.8000001E-01;  9.9999998E-03;  3.8000000E-01;263;  0.0000000E+00;  0.0000000E+00;  0.0000000E+00;  1.0000000E+03;  1.0000000E-01;  0.0000000E+00;0;  0.0000000E+00;  0.0000000E+00;  0.0000000E+00;0;  0.0000000E+00;  4.0000000E+04;  0.0000000E+00;  0.0000000E+00;  4.0000000E+04;  0.0000000E+00;  4.0000000E+04;  0.0000000E+00;  0.0000000E+00;  0.0000000E+00;  0.0000000E+00;
 -1.8000001E-01;  9.9999998E-03;  3.8999999E-01;264;  0.0000000E+00;  0.0000000E+00;  0.0000000E+00;  1.0000000E+03;  1.0000000E-01;  0.0000000E+00;0;  0.0000000E+00;  0.0000000E+00;  0.0000000E+00;0;  0.0000000E+00;  4.0000000E+04;  0.0000000E+00;  0.0000000E+00;  4.0000000E+04;  0.0000000E+00;  4.0000000E+04;  0.0000000E+00;  0.0000000E+00;  0.0000000E+00;  0.0000000E+00;
 -1.8000001E-01;  9.9999998E-03;  4.0000001E-01;265;  0.0000000E+00;  0.0000000E+00;  0.0000000E+00;  1.0000000E+03;  1.0000000E-01;  0.0000000E+00;0;  0.0000000E+00;  0.0000000E+00;  0.0000000E+00;0;  0.0000000E+00;  4.0000000E+04;  0.0000000E+00;  0.0000000E+00;  4.0000000E+04;  0.0000000E+00;  4.0000000E+04;  0.0000000E+00;  0.0000000E+00;  0.0000000E+00;  0.0000000E+00;
 -1.7000000E-01;  9.9999998E-03;  2.3999999E-01;340;  0.0000000E+00;  0.0000000E+00;  0.0000000E+00;  1.0000000E+03;  1.0000000E-01;  0.0000000E+00;0;  0.0000000E+00;  0.0000000E+00;  0.0000000E+00;0;  0.0000000E+00;  4.0000000E+04;  0.0000000E+00;  0.0000000E+00;  4.0000000E+04;  0.0000000E+00;  4.0000000E+04;  0.0000000E+00;  0.0000000E+00;  0.0000000E+00;  7.1569556E-10;
 -1.7000000E-01;  9.9999998E-03;  2.5000000E-01;341;  0.0000000E+00;  0.0000000E+00;  0.0000000E+00;  1.0000000E+03;  1.0000000E-01;  0.0000000E+00;0;  0.0000000E+00;  0.0000000E+00;  0.0000000E+00;0;  0.0000000E+00;  4.0000000E+04;  0.0000000E+00;  0.0000000E+00;  4.0000000E+04;  0.0000000E+00;  4.0000000E+04;  0.0000000E+00;  0.0000000E+00;  0.0000000E+00;  4.6691867E-10;
 -1.7000000E-01;  9.9999998E-03;  2.5999999E-01;342;  0.0000000E+00;  0.0000000E+00;  0.0000000E+00;  1.0000000E+03;  1.0000000E-01;  0.0000000E+00;0;  0.0000000E+00;  0.0000000E+00;  0.0000000E+00;0;  0.0000000E+00;  4.0000000E+04;  0.0000000E+00;  0.0000000E+00;  4.0000000E+04;  0.0000000E+00;  4.0000000E+04;  0.0000000E+00;  0.0000000E+00;  0.0000000E+00;  2.4656574E-10;
 -1.7000000E-01;  9.9999998E-03;  2.7000001E-01;343;  0.0000000E+00;  0.0000000E+00;  0.0000000E+00;  1.0000000E+03;  1.0000000E-01;  0.0000000E+00;0;  0.0000000E+00;  0.0000000E+00;  0.0000000E+00;0;  0.0000000E+00;  4.0000000E+04;  0.0000000E+00;  0.0000000E+00;  4.0000000E+04;  0.0000000E+00;  4.0000000E+04;  0.0000000E+00;  0.0000000E+00;  0.0000000E+00;  9.0626097E-11;
 -1.7000000E-01;  9.9999998E-03;  2.8000000E-01;344;  0.0000000E+00;  0.0000000E+00;  0.0000000E+00;  1.0000000E+03;  1.0000000E-01;  0.0000000E+00;0;  0.0000000E+00;  0.0000000E+00;  0.0000000E+00;0;  0.0000000E+00;  4.0000000E+04;  0.0000000E+00;  0.0000000E+00;  4.0000000E+04;  0.0000000E+00;  4.0000000E+04;  0.0000000E+00;  0.0000000E+00;  0.0000000E+00;  1.4966250E-11;
 -1.7000000E-01;  9.9999998E-03;  2.8999999E-01;345;  0.0000000E+00;  0.0000000E+00;  0.0000000E+00;  1.0000000E+03;  1.0000000E-01;  0.0000000E+00;0;  0.0000000E+00;  0.0000000E+00;  0.0000000E+00;0;  0.0000000E+00;  4.0000000E+04;  0.0000000E+00;  0.0000000E+00;  4.0000000E+04;  0.0000000E+00;  4.0000000E+04;  0.0000000E+00;  0.0000000E+00;  0.0000000E+00;  6.8908875E-14;
 -1.7000000E-01;  9.9999998E-03;  3.0000001E-01;346;  0.0000000E+00;  0.0000000E+00;  0.0000000E+00;  1.0000000E+03;  1.0000000E-01;  0.0000000E+00;0;  0.0000000E+00;  0.0000000E+00;  0.0000000E+00;0;  0.0000000E+00;  4.0000000E+04;  0.0000000E+00;  0.0000000E+00;  4.0000000E+04;  0.0000000E+00;  4.0000000E+04;  0.0000000E+00;  0.0000000E+00;  0.0000000E+00;  0.0000000E+00;
 -1.7000000E-01;  9.9999998E-03;  3.1000000E-01;347;  0.0000000E+00;  0.0000000E+00;  0.0000000E+00;  1.0000000E+03;  1.0000000E-01;  0.0000000E+00;0;  0.0000000E+00;  0.0000000E+00;  0.0000000E+00;0;  0.0000000E+00;  4.0000000E+04;  0.0000000E+00;  0.0000000E+00;  4.0000000E+04;  0.0000000E+00;  4.0000000E+04;  0.0000000E+00;  0.0000000E+00;  0.0000000E+00;  0.0000000E+00;
 -1.7000000E-01;  9.9999998E-03;  3.1999999E-01;348;  0.0000000E+00;  0.0000000E+00;  0.0000000E+00;  1.0000000E+03;  1.0000000E-01;  0.0000000E+00;0;  0.0000000E+00;  0.0000000E+00;  0.0000000E+00;0;  0.0000000E+00;  4.0000000E+04;  0.0000000E+00;  0.0000000E+00;  4.0000000E+04;  0.0000000E+00;  4.0000000E+04;  0.0000000E+00;  0.0000000E+00;  0.0000000E+00;  0.0000000E+00;
 -1.7000000E-01;  9.9999998E-03;  3.3000001E-01;349;  0.0000000E+00;  0.0000000E+00;  0.0000000E+00;  1.0000000E+03;  1.0000000E-01;  0.0000000E+00;0;  0.0000000E+00;  0.0000000E+00;  0.0000000E+00;0;  0.0000000E+00;  4.0000000E+04;  0.0000000E+00;  0.0000000E+00;  4.0000000E+04;  0.0000000E+00;  4.0000000E+04;  0.0000000E+00;  0.0000000E+00;  0.0000000E+00;  0.0000000E+00;
 -1.7000000E-01;  9.9999998E-03;  3.4000000E-01;350;  0.0000000E+00;  0.0000000E+00;  0.0000000E+00;  1.0000000E+03;  1.0000000E-01;  0.0000000E+00;0;  0.0000000E+00;  0.0000000E+00;  0.0000000E+00;0;  0.0000000E+00;  4.0000000E+04;  0.0000000E+00;  0.0000000E+00;  4.0000000E+04;  0.0000000E+00;  4.0000000E+04;  0.0000000E+00;  0.0000000E+00;  0.0000000E+00;  0.0000000E+00;
 -1.7000000E-01;  9.9999998E-03;  3.4999999E-01;351;  0.0000000E+00;  0.0000000E+00;  0.0000000E+00;  1.0000000E+03;  1.0000000E-01;  0.0000000E+00;0;  0.0000000E+00;  0.0000000E+00;  0.0000000E+00;0;  0.0000000E+00;  4.0000000E+04;  0.0000000E+00;  0.0000000E+00;  4.0000000E+04;  0.0000000E+00;  4.0000000E+04;  0.0000000E+00;  0.0000000E+00;  0.0000000E+00;  0.0000000E+00;
 -1.7000000E-01;  9.9999998E-03;  3.6000001E-01;352;  0.0000000E+00;  0.0000000E+00;  0.0000000E+00;  1.0000000E+03;  1.0000000E-01;  0.0000000E+00;0;  0.0000000E+00;  0.0000000E+00;  0.0000000E+00;0;  0.0000000E+00;  4.0000000E+04;  0.0000000E+00;  0.0000000E+00;  4.0000000E+04;  0.0000000E+00;  4.0000000E+04;  0.0000000E+00;  0.0000000E+00;  0.0000000E+00;  0.0000000E+00;
 -1.7000000E-01;  9.9999998E-03;  3.7000000E-01;353;  0.0000000E+00;  0.0000000E+00;  0.0000000E+00;  1.0000000E+03;  1.0000000E-01;  0.0000000E+00;0;  0.0000000E+00;  0.0000000E+00;  0.0000000E+00;0;  0.0000000E+00;  4.0000000E+04;  0.0000000E+00;  0.0000000E+00;  4.0000000E+04;  0.0000000E+00;  4.0000000E+04;  0.0000000E+00;  0.0000000E+00;  0.0000000E+00;  0.0000000E+00;
 -1.7000000E-01;  9.9999998E-03;  3.8000000E-01;354;  0.0000000E+00;  0.0000000E+00;  0.0000000E+00;  1.0000000E+03;  1.0000000E-01;  0.0000000E+00;0;  0.0000000E+00;  0.0000000E+00;  0.0000000E+00;0;  0.0000000E+00;  4.0000000E+04;  0.0000000E+00;  0.0000000E+00;  4.0000000E+04;  0.0000000E+00;  4.0000000E+04;  0.0000000E+00;  0.0000000E+00;  0.0000000E+00;  0.0000000E+00;
 -1.7000000E-01;  9.9999998E-03;  3.8999999E-01;355;  0.0000000E+00;  0.0000000E+00;  0.0000000E+00;  1.0000000E+03;  1.0000000E-01;  0.0000000E+00;0;  0.0000000E+00;  0.0000000E+00;  0.0000000E+00;0;  0.0000000E+00;  4.0000000E+04;  0.0000000E+00;  0.0000000E+00;  4.0000000E+04;  0.0000000E+00;  4.0000000E+04;  0.0000000E+00;  0.0000000E+00;  0.0000000E+00;  0.0000000E+00;
 -1.7000000E-01;  9.9999998E-03;  4.0000001E-01;356;  0.0000000E+00;  0.0000000E+00;  0.0000000E+00;  1.0000000E+03;  1.0000000E-01;  0.0000000E+00;0;  0.0000000E+00;  0.0000000E+00;  0.0000000E+00;0;  0.0000000E+00;  4.0000000E+04;  0.0000000E+00;  0.0000000E+00;  4.0000000E+04;  0.0000000E+00;  4.0000000E+04;  0.0000000E+00;  0.0000000E+00;  0.0000000E+00;  0.0000000E+00;
 -1.6000000E-01;  9.9999998E-03;  2.3999999E-01;431;  0.0000000E+00;  0.0000000E+00;  0.0000000E+00;  1.0000000E+03;  1.0000000E-01;  0.0000000E+00;0;  0.0000000E+00;  0.0000000E+00;  0.0000000E+00;0;  1.0474309E-06;  4.0000000E+04;  0.0000000E+00;  0.0000000E+00;  4.0000000E+04;  0.0000000E+00;  4.0000000E+04;  1.0429252E-06;  0.0000000E+00;  4.5057895E-09;  2.0691277E-01;
 -1.6000000E-01;  9.9999998E-03;  2.5000000E-01;432;  0.0000000E+00;  0.0000000E+00;  0.0000000E+00;  1.0000000E+03;  1.0000000E-01;  0.0000000E+00;0;  0.0000000E+00;  0.0000000E+00;  0.0000000E+00;0;  1.0738329E-06;  4.0000000E+04;  0.0000000E+00;  0.0000000E+00;  4.0000000E+04;  0.0000000E+00;  4.0000000E+04;  1.0693630E-06;  0.0000000E+00;  4.4699888E-09;  1.7442890E-01;
 -1.6000000E-01;  9.9999998E-03;  2.5999999E-01;433;  0.0000000E+00;  0.0000000E+00;  0.0000000E+00;  1.0000000E+03;  1.0000000E-01;  0.0000000E+00;0;  0.0000000E+00;  0.0000000E+00;  0.0000000E+00;0;  1.0152789E-06;  4.0000000E+04;  0.0000000E+00;  0.0000000E+00;  4.0000000E+04;  0.0000000E+00;  4.0000000E+04;  1.0122598E-06;  0.0000000E+00;  3.0192342E-09;  1.2148874E-01;
 -1.6000000E-01;  9.9999998E-03;  2.7000001E-01;434;  0.0000000E+00;  0.0000000E+00;  0.0000000E+00;  1.0000000E+03;  1.0000000E-01;  0.0000000E+00;0;  0.0000000E+00;  0.0000000E+00;  0.0000000E+00;0;  8.6783592E-07;  4.0000000E+04;  0.0000000E+00;  0.0000000E+00;  4.0000000E+04;  0.0000000E+00;  4.0000000E+04;  8.6839282E-07;  0.0000000E+00; -5.5687055E-10;  5.3595580E-02;
 -1.6000000E-01;  9.9999998E-03;  2.8000000E-01;435;  0.0000000E+00;  0.0000000E+00;  0.0000000E+00;  1.0000000E+03;  1.0000000E-01;  0.0000000E+00;0;  0.0000000E+00;  0.0000000E+00;  0.0000000E+00;0;  6.5907994E-07;  4.0000000E+04;  0.0000000E+00;  0.0000000E+00;  4.0000000E+04;  0.0000000E+00;  4.0000000E+04;  6.6427430E-07;  0.0000000E+00; -5.1943352E-09;  1.1214403E-02;
 -1.6000000E-01;  9.9999998E-03;  2.8999999E-01;436;  0.0000000E+00;  0.0000000E+00;  0.0000000E+00;  1.0000000E+03;  1.0000000E-01;  0.0000000E+00;0;  0.0000000E+00;  0.0000000E+00;  0.0000000E+00;0;  4.3537875E-07;  4.0000000E+04;  0.0000000E+00;  0.0000000E+00;  4.0000000E+04;  0.0000000E+00;  4.0000000E+04;  4.4420321E-07;  0.0000000E+00; -8.8244683E-09;  5.3473812E-02;
 -1.6000000E-01;  9.9999998E-03;  3.0000001E-01;437;  0.0000000E+00;  0.0000000E+00;  0.0000000E+00;  1.0000000E+03;  1.0000000E-01;  0.0000000E+00;0;  0.0000000E+00;  0.0000000E+00;  0.0000000E+00;0;  2.4213057E-07;  4.0000000E+04;  0.0000000E+00;  0.0000000E+00;  4.0000000E+04;  0.0000000E+00;  4.0000000E+04;  2.5192418E-07;  0.0000000E+00; -9.7935979E-09;  6.4664513E-02;
 -1.6000000E-01;  9.9999998E-03;  3.1000000E-01;438;  0.0000000E+00;  0.0000000E+00;  0.0000000E+00;  1.0000000E+03;  1.0000000E-01;  0.0000000E+00;0;  0.0000000E+00;  0.0000000E+00;  0.0000000E+00;0;  1.0718006E-07;  4.0000000E+04;  0.0000000E+00;  0.0000000E+00;  4.0000000E+04;  0.0000000E+00;  4.0000000E+04;  1.1508103E-07;  0.0000000E+00; -7.9009670E-09;  5.0761126E-02;
 -1.6000000E-01;  9.9999998E-03;  3.1999999E-01;439;  0.0000000E+00;  0.0000000E+00;  0.0000000E+00;  1.0000000E+03;  1.0000000E-01;  0.0000000E+00;0;  0.0000000E+00;  0.0000000E+00;  0.0000000E+00;0;  3.4011052E-08;  4.0000000E+04;  0.0000000E+00;  0.0000000E+00;  4.0000000E+04;  0.0000000E+00;  4.0000000E+04;  3.8488253E-08;  0.0000000E+00; -4.4772008E-09;  2.7321057E-02;
 -1.6000000E-01;  9.9999998E-03;  3.3000001E-01;440;  0.0000000E+00;  0.0000000E+00;  0.0000000E+00;  1.0000000E+03;  1.0000000E-01;  0.0000000E+00;0;  0.0000000E+00;  0.0000000E+00;  0.0000000E+00;0;  6.1972534E-09;  4.0000000E+04;  0.0000000E+00;  0.0000000E+00;  4.0000000E+04;  0.0000000E+00;  4.0000000E+04;  7.6703150E-09;  0.0000000E+00; -1.4730616E-09;  8.9560002E-03;
 -1.6000000E-01;  9.9999998E-03;  3.4000000E-01;441;  0.0000000E+00;  0.0000000E+00;  0.0000000E+00;  1.0000000E+03;  1.0000000E-01;  0.0000000E+00;0;  0.0000000E+00;  0.0000000E+00;  0.0000000E+00;0;  3.3164277E-10;  4.0000000E+04;  0.0000000E+00;  0.0000000E+00;  4.0000000E+04;  0.0000000E+00;  4.0000000E+04;  4.4490397E-10;  0.0000000E+00; -1.1326121E-10;  1.0968470E-03;
 -1.6000000E-01;  9.9999998E-03;  3.4999999E-01;442;  0.0000000E+00;  0.0000000E+00;  0.0000000E+00;  1.0000000E+03;  1.0000000E-01;  0.0000000E+00;0;  0.0000000E+00;  0.0000000E+00;  0.0000000E+00;0;  0.0000000E+00;  4.0000000E+04;  0.0000000E+00;  0.0000000E+00;  4.0000000E+04;  0.0000000E+00;  4.0000000E+04;  0.0000000E+00;  0.0000000E+00;  0.0000000E+00;  0.0000000E+00;
 -1.6000000E-01;  9.9999998E-03;  3.6000001E-01;443;  0.0000000E+00;  0.0000000E+00;  0.0000000E+00;  1.0000000E+03;  1.0000000E-01;  0.0000000E+00;0;  0.0000000E+00;  0.0000000E+00;  0.0000000E+00;0;  0.0000000E+00;  4.0000000E+04;  0.0000000E+00;  0.0000000E+00;  4.0000000E+04;  0.0000000E+00;  4.0000000E+04;  0.0000000E+00;  0.0000000E+00;  0.0000000E+00;  0.0000000E+00;
 -1.6000000E-01;  9.9999998E-03;  3.7000000E-01;444;  0.0000000E+00;  0.0000000E+00;  0.0000000E+00;  1.0000000E+03;  1.0000000E-01;  0.0000000E+00;0;  0.0000000E+00;  0.0000000E+00;  0.0000000E+00;0;  0.0000000E+00;  4.0000000E+04;  0.0000000E+00;  0.0000000E+00;  4.0000000E+04;  0.0000000E+00;  4.0000000E+04;  0.0000000E+00;  0.0000000E+00;  0.0000000E+00;  0.0000000E+00;
 -1.6000000E-01;  9.9999998E-03;  3.8000000E-01;445;  0.0000000E+00;  0.0000000E+00;  0.0000000E+00;  1.0000000E+03;  1.0000000E-01;  0.0000000E+00;0;  0.0000000E+00;  0.0000000E+00;  0.0000000E+00;0;  0.0000000E+00;  4.0000000E+04;  0.0000000E+00;  0.0000000E+00;  4.0000000E+04;  0.0000000E+00;  4.0000000E+04;  0.0000000E+00;  0.0000000E+00;  0.0000000E+00;  0.0000000E+00;
 -1.6000000E-01;  9.9999998E-03;  3.8999999E-01;446;  0.0000000E+00;  0.0000000E+00;  0.0000000E+00;  1.0000000E+03;  1.0000000E-01;  0.0000000E+00;0;  0.0000000E+00;  0.0000000E+00;  0.0000000E+00;0;  0.0000000E+00;  4.0000000E+04;  0.0000000E+00;  0.0000000E+00;  4.0000000E+04;  0.0000000E+00;  4.0000000E+04;  0.0000000E+00;  0.0000000E+00;  0.0000000E+00;  0.0000000E+00;
 -1.6000000E-01;  9.9999998E-03;  4.0000001E-01;447;  0.0000000E+00;  0.0000000E+00;  0.0000000E+00;  1.0000000E+03;  1.0000000E-01;  0.0000000E+00;0;  0.0000000E+00;  0.0000000E+00;  0.0000000E+00;0;  0.0000000E+00;  4.0000000E+04;  0.0000000E+00;  0.0000000E+00;  4.0000000E+04;  0.0000000E+00;  4.0000000E+04;  0.0000000E+00;  0.0000000E+00;  0.0000000E+00;  0.0000000E+00;
 -1.5000001E-01;  9.9999998E-03;  2.3999999E-01;522;  0.0000000E+00;  0.0000000E+00;  0.0000000E+00;  1.0000000E+03;  1.0000000E-01;  0.0000000E+00;0;  0.0000000E+00;  0.0000000E+00;  0.0000000E+00;0;  1.7785771E-05;  4.0000000E+04;  0.0000000E+00;  0.0000000E+00;  4.0000000E+04;  0.0000000E+00;  4.0000000E+04;  1.7758732E-05;  0.0000000E+00;  2.7040002E-08;  2.9813397E+00;
 -1.5000001E-01;  9.9999998E-03;  2.5000000E-01;523;  0.0000000E+00;  0.0000000E+00;  0.0000000E+00;  1.0000000E+03;  1.0000000E-01;  0.0000000E+00;0;  0.0000000E+00;  0.0000000E+00;  0.0000000E+00;0;  1.6481437E-05;  4.0000000E+04;  0.0000000E+00;  0.0000000E+00;  4.0000000E+04;  0.0000000E+00;  4.0000000E+04;  1.6501281E-05;  0.0000000E+00; -1.9844000E-08;  2.3128099E+00;
 -1.5000001E-01;  9.9999998E-03;  2.5999999E-01;524;  0.0000000E+00;  0.0000000E+00;  0.0000000E+00;  1.0000000E+03;  1.0000000E-01;  0.0000000E+00;0;  0.0000000E+00;  0.0000000E+00;  0.0000000E+00;0;  1.4481462E-05;  4.0000000E+04;  0.0000000E+00;  0.0000000E+00;  4.0000000E+04;  0.0000000E+00;  4.0000000E+04;  1.4555576E-05;  0.0000000E+00; -7.4114048E-08;  1.4891875E+00;
 -1.5000001E-01;  9.9999998E-03;  2.7000001E-01;525;  0.0000000E+00;  0.0000000E+00;  0.0000000E+00;  1.0000000E+03;  1.0000000E-01;  0.0000000E+00;0;  0.0000000E+00;  0.0000000E+00;  0.0000000E+00;0;  1.1960073E-05;  4.0000000E+04;  0.0000000E+00;  0.0000000E+00;  4.0000000E+04;  0.0000000E+00;  4.0000000E+04;  1.2087913E-05;  0.0000000E+00; -1.2784010E-07;  6.1569393E-01;
 -1.5000001E-01;  9.9999998E-03;  2.8000000E-01;526;  0.0000000E+00;  0.0000000E+00;  0.0000000E+00;  1.0000000E+03;  1.0000000E-01;  0.0000000E+00;0;  0.0000000E+00;  0.0000000E+00;  0.0000000E+00;0;  9.2001683E-06;  4.0000000E+04;  0.0000000E+00;  0.0000000E+00;  4.0000000E+04;  0.0000000E+00;  4.0000000E+04;  9.3708286E-06;  0.0000000E+00; -1.7066046E-07;  1.6735919E-01;
 -1.5000001E-01;  9.9999998E-03;  2.8999999E-01;527;  0.0000000E+00;  0.0000000E+00;  0.0000000E+00;  1.0000000E+03;  1.0000000E-01;  0.0000000E+00;0;  0.0000000E+00;  0.0000000E+00;  0.0000000E+00;0;  6.5196296E-06;  4.0000000E+04;  0.0000000E+00;  0.0000000E+00;  4.0000000E+04;  0.0000000E+00;  4.0000000E+04;  6.7128667E-06;  0.0000000E+00; -1.9323731E-07;  7.2534603E-01;
 -1.5000001E-01;  9.9999998E-03;  3.0000001E-01;528;  0.0000000E+00;  0.0000000E+00;  0.0000000E+00;  1.0000000E+03;  1.0000000E-01;  0.0000000E+00;0;  0.0000000E+00;  0.0000000E+00;  0.0000000E+00;0;  4.1943526E-06;  4.0000000E+04;  0.0000000E+00;  0.0000000E+00;  4.0000000E+04;  0.0000000E+00;  4.0000000E+04;  4.3850673E-06;  0.0000000E+00; -1.9071473E-07;  9.8584032E-01;
 -1.5000001E-01;  9.9999998E-03;  3.1000000E-01;529;  0.0000000E+00;  0.0000000E+00;  0.0000000E+00;  1.0000000E+03;  1.0000000E-01;  0.0000000E+00;0;  0.0000000E+00;  0.0000000E+00;  0.0000000E+00;0;  2.3994346E-06;  4.0000000E+04;  0.0000000E+00;  0.0000000E+00;  4.0000000E+04;  0.0000000E+00;  4.0000000E+04;  2.5642282E-06;  0.0000000E+00; -1.6479356E-07;  9.6107680E-01;
 -1.5000001E-01;  9.9999998E-03;  3.1999999E-01;530;  0.0000000E+00;  0.0000000E+00;  0.0000000E+00;  1.0000000E+03;  1.0000000E-01;  0.0000000E+00;0;  0.0000000E+00;  0.0000000E+00;  0.0000000E+00;0;  1.1833549E-06;  4.0000000E+04;  0.0000000E+00;  0.0000000E+00;  4.0000000E+04;  0.0000000E+00;  4.0000000E+04;  1.3066233E-06;  0.0000000E+00; -1.2326841E-07;  7.4168277E-01;
 -1.5000001E-01;  9.9999998E-03;  3.3000001E-01;531;  0.0000000E+00;  0.0000000E+00;  0.0000000E+00;  1.0000000E+03;  1.0000000E-01;  0.0000000E+00;0;  0.0000000E+00;  0.0000000E+00;  0.0000000E+00;0;  4.7916700E-07;  4.0000000E+04;  0.0000000E+00;  0.0000000E+00;  4.0000000E+04;  0.0000000E+00;  4.0000000E+04;  5.5651157E-07;  0.0000000E+00; -7.7344566E-08;  4.5482075E-01;
 -1.5000001E-01;  9.9999998E-03;  3.4000000E-01;532;  0.0000000E+00;  0.0000000E+00;  0.0000000E+00;  1.0000000E+03;  1.0000000E-01;  0.0000000E+00;0;  0.0000000E+00;  0.0000000E+00;  0.0000000E+00;0;  1.4655753E-07;  4.0000000E+04;  0.0000000E+00;  0.0000000E+00;  4.0000000E+04;  0.0000000E+00;  4.0000000E+04;  1.8456551E-07;  0.0000000E+00; -3.8007986E-08;  2.1145843E-01;
 -1.5000001E-01;  9.9999998E-03;  3.4999999E-01;533;  0.0000000E+00;  0.0000000E+00;  0.0000000E+00;  1.0000000E+03;  1.0000000E-01;  0.0000000E+00;0;  0.0000000E+00;  0.0000000E+00;  0.0000000E+00;0;  2.8765069E-08;  4.0000000E+04;  0.0000000E+00;  0.0000000E+00;  4.0000000E+04;  0.0000000E+00;  4.0000000E+04;  4.1245677E-08;  0.0000000E+00; -1.2480608E-08;  6.6229045E-02;
 -1.5000001E-01;  9.9999998E-03;  3.6000001E-01;534;  0.0000000E+00;  0.0000000E+00;  0.0000000E+00;  1.0000000E+03;  1.0000000E-01;  0.0000000E+00;0;  0.0000000E+00;  0.0000000E+00;  0.0000000E+00;0;  2.4123348E-09;  4.0000000E+04;  0.0000000E+00;  0.0000000E+00;  4.0000000E+04;  0.0000000E+00;  4.0000000E+04;  4.0743693E-09;  0.0000000E+00; -1.6620344E-09;  1.0137144E-02;
 -1.5000001E-01;  9.9999998E-03;  3.7000000E-01;535;  0.0000000E+00;  0.0000000E+00;  0.0000000E+00;  1.0000000E+03;  1.0000000E-01;  0.0000000E+00;0;  0.0000000E+00;  0.0000000E+00;  0.0000000E+00;0;  0.0000000E+00;  4.0000000E+04;  0.0000000E+00;  0.0000000E+00;  4.0000000E+04;  0.0000000E+00;  4.0000000E+04;  0.0000000E+00;  0.0000000E+00;  0.0000000E+00;  3.0836869E-09;
 -1.5000001E-01;  9.9999998E-03;  3.8000000E-01;536;  0.0000000E+00;  0.0000000E+00;  0.0000000E+00;  1.0000000E+03;  1.0000000E-01;  0.0000000E+00;0;  0.0000000E+00;  0.0000000E+00;  0.0000000E+00;0;  0.0000000E+00;  4.0000000E+04;  0.0000000E+00;  0.0000000E+00;  4.0000000E+04;  0.0000000E+00;  4.0000000E+04;  0.0000000E+00;  0.0000000E+00;  0.0000000E+00;  0.0000000E+00;
 -1.5000001E-01;  9.9999998E-03;  3.8999999E-01;537;  0.0000000E+00;  0.0000000E+00;  0.0000000E+00;  1.0000000E+03;  1.0000000E-01;  0.0000000E+00;0;  0.0000000E+00;  0.0000000E+00;  0.0000000E+00;0;  0.0000000E+00;  4.0000000E+04;  0.0000000E+00;  0.0000000E+00;  4.0000000E+04;  0.0000000E+00;  4.0000000E+04;  0.0000000E+00;  0.0000000E+00;  0.0000000E+00;  0.0000000E+00;
 -1.5000001E-01;  9.9999998E-03;  4.0000001E-01;538;  0.0000000E+00;  0.0000000E+00;  0.0000000E+00;  1.0000000E+03;  1.0000000E-01;  0.0000000E+00;0;  0.0000000E+00;  0.0000000E+00;  0.0000000E+00;0;  0.0000000E+00;  4.0000000E+04;  0.0000000E+00;  0.0000000E+00;  4.0000000E+04;  0.0000000E+00;  4.0000000E+04;  0.0000000E+00;  0.0000000E+00;  0.0000000E+00;  0.0000000E+00;
 -1.4000000E-01;  9.9999998E-03;  2.3999999E-01;613;  0.0000000E+00;  0.0000000E+00;  0.0000000E+00;  1.0000000E+03;  1.0000000E-01;  0.0000000E+00;0;  0.0000000E+00;  0.0000000E+00;  0.0000000E+00;0;  7.7651232E-05;  4.0000000E+04;  0.0000000E+00;  0.0000000E+00;  4.0000000E+04;  0.0000000E+00;  4.0000000E+04;  7.7746969E-05;  0.0000000E+00; -9.5736894E-08;  1.3865478E+01;
 -1.4000000E-01;  9.9999998E-03;  2.5000000E-01;614;  0.0000000E+00;  0.0000000E+00;  0.0000000E+00;  1.0000000E+03;  1.0000000E-01;  0.0000000E+00;0;  0.0000000E+00;  0.0000000E+00;  0.0000000E+00;0;  7.0596427E-05;  4.0000000E+04;  0.0000000E+00;  0.0000000E+00;  4.0000000E+04;  0.0000000E+00;  4.0000000E+04;  7.1000126E-05;  0.0000000E+00; -4.0370011E-07;  1.0654160E+01;
 -1.4000000E-01;  9.9999998E-03;  2.5999999E-01;615;  0.0000000E+00;  0.0000000E+00;  0.0000000E+00;  1.0000000E+03;  1.0000000E-01;  0.0000000E+00;0;  0.0000000E+00;  0.0000000E+00;  0.0000000E+00;0;  6.1485101E-05;  4.0000000E+04;  0.0000000E+00;  0.0000000E+00;  4.0000000E+04;  0.0000000E+00;  4.0000000E+04;  6.2176521E-05;  0.0000000E+00; -6.9141771E-07;  6.8454943E+00;
 -1.4000000E-01;  9.9999998E-03;  2.7000001E-01;616;  0.0000000E+00;  0.0000000E+00;  0.0000000E+00;  1.0000000E+03;  1.0000000E-01;  0.0000000E+00;0;  0.0000000E+00;  0.0000000E+00;  0.0000000E+00;0;  5.1001090E-05;  4.0000000E+04;  0.0000000E+00;  0.0000000E+00;  4.0000000E+04;  0.0000000E+00;  4.0000000E+04;  5.1927273E-05;  0.0000000E+00; -9.2618257E-07;  2.8657463E+00;
 -1.4000000E-01;  9.9999998E-03;  2.8000000E-01;617;  0.0000000E+00;  0.0000000E+00;  0.0000000E+00;  1.0000000E+03;  1.0000000E-01;  0.0000000E+00;0;  0.0000000E+00;  0.0000000E+00;  0.0000000E+00;0;  4.0038998E-05;  4.0000000E+04;  0.0000000E+00;  0.0000000E+00;  4.0000000E+04;  0.0000000E+00;  4.0000000E+04;  4.1118539E-05;  0.0000000E+00; -1.0795419E-06;  7.5743729E-01;
 -1.4000000E-01;  9.9999998E-03;  2.8999999E-01;618;  0.0000000E+00;  0.0000000E+00;  0.0000000E+00;  1.0000000E+03;  1.0000000E-01;  0.0000000E+00;0;  0.0000000E+00;  0.0000000E+00;  0.0000000E+00;0;  2.9527464E-05;  4.0000000E+04;  0.0000000E+00;  0.0000000E+00;  4.0000000E+04;  0.0000000E+00;  4.0000000E+04;  3.0661489E-05;  0.0000000E+00; -1.1340260E-06;  3.5273566E+00;
 -1.4000000E-01;  9.9999998E-03;  3.0000001E-01;619;  0.0000000E+00;  0.0000000E+00;  0.0000000E+00;  1.0000000E+03;  1.0000000E-01;  0.0000000E+00;0;  0.0000000E+00;  0.0000000E+00;  0.0000000E+00;0;  2.0259618E-05;  4.0000000E+04;  0.0000000E+00;  0.0000000E+00;  4.0000000E+04;  0.0000000E+00;  4.0000000E+04;  2.1347305E-05;  0.0000000E+00; -1.0876865E-06;  5.1271329E+00;
 -1.4000000E-01;  9.9999998E-03;  3.1000000E-01;620;  0.0000000E+00;  0.0000000E+00;  0.0000000E+00;  1.0000000E+03;  1.0000000E-01;  0.0000000E+00;0;  0.0000000E+00;  0.0000000E+00;  0.0000000E+00;0;  1.2765343E-05;  4.0000000E+04;  0.0000000E+00;  0.0000000E+00;  4.0000000E+04;  0.0000000E+00;  4.0000000E+04;  1.3721098E-05;  0.0000000E+00; -9.5575547E-07;  5.5083313E+00;
 -1.4000000E-01;  9.9999998E-03;  3.1999999E-01;621;  0.0000000E+00;  0.0000000E+00;  0.0000000E+00;  1.0000000E+03;  1.0000000E-01;  0.0000000E+00;0;  0.0000000E+00;  0.0000000E+00;  0.0000000E+00;0;  7.2506364E-06;  4.0000000E+04;  0.0000000E+00;  0.0000000E+00;  4.0000000E+04;  0.0000000E+00;  4.0000000E+04;  8.0175287E-06;  0.0000000E+00; -7.6689236E-07;  4.8950405E+00;
 -1.4000000E-01;  9.9999998E-03;  3.3000001E-01;622;  0.0000000E+00;  0.0000000E+00;  0.0000000E+00;  1.0000000E+03;  1.0000000E-01;  0.0000000E+00;0;  0.0000000E+00;  0.0000000E+00;  0.0000000E+00;0;  3.6107328E-06;  4.0000000E+04;  0.0000000E+00;  0.0000000E+00;  4.0000000E+04;  0.0000000E+00;  4.0000000E+04;  4.1663452E-06;  0.0000000E+00; -5.5561230E-07;  3.6913285E+00;
 -1.4000000E-01;  9.9999998E-03;  3.4000000E-01;623;  0.0000000E+00;  0.0000000E+00;  0.0000000E+00;  1.0000000E+03;  1.0000000E-01;  0.0000000E+00;0;  0.0000000E+00;  0.0000000E+00;  0.0000000E+00;0;  1.5081241E-06;  4.0000000E+04;  0.0000000E+00;  0.0000000E+00;  4.0000000E+04;  0.0000000E+00;  4.0000000E+04;  1.8629831E-06;  0.0000000E+00; -3.5485905E-07;  2.3439670E+00;
 -1.4000000E-01;  9.9999998E-03;  3.4999999E-01;624;  0.0000000E+00;  0.0000000E+00;  0.0000000E+00;  1.0000000E+03;  1.0000000E-01;  0.0000000E+00;0;  0.0000000E+00;  0.0000000E+00;  0.0000000E+00;0;  4.8935635E-07;  4.0000000E+04;  0.0000000E+00;  0.0000000E+00;  4.0000000E+04;  0.0000000E+00;  4.0000000E+04;  6.7991380E-07;  0.0000000E+00; -1.9055742E-07;  1.2090991E+00;
 -1.4000000E-01;  9.9999998E-03;  3.6000001E-01;625;  0.0000000E+00;  0.0000000E+00;  0.0000000E+00;  1.0000000E+03;  1.0000000E-01;  0.0000000E+00;0;  0.0000000E+00;  0.0000000E+00;  0.0000000E+00;0;  1.0708363E-07;  4.0000000E+04;  0.0000000E+00;  0.0000000E+00;  4.0000000E+04;  0.0000000E+00;  4.0000000E+04;  1.8513317E-07;  0.0000000E+00; -7.8049545E-08;  4.6570307E-01;
 -1.4000000E-01;  9.9999998E-03;  3.7000000E-01;626;  0.0000000E+00;  0.0000000E+00;  0.0000000E+00;  1.0000000E+03;  1.0000000E-01;  0.0000000E+00;0;  0.0000000E+00;  0.0000000E+00;  0.0000000E+00;0;  1.2761232E-08;  4.0000000E+04;  0.0000000E+00;  0.0000000E+00;  4.0000000E+04;  0.0000000E+00;  4.0000000E+04;  3.2001797E-08;  0.0000000E+00; -1.9240565E-08;  1.0867012E-01;
 -1.4000000E-01;  9.9999998E-03;  3.8000000E-01;627;  0.0000000E+00;  0.0000000E+00;  0.0000000E+00;  1.0000000E+03;  1.0000000E-01;  0.0000000E+00;0;  0.0000000E+00;  0.0000000E+00;  0.0000000E+00;0;  5.8466876E-10;  4.0000000E+04;  0.0000000E+00;  0.0000000E+00;  4.0000000E+04;  0.0000000E+00;  4.0000000E+04;  1.6372618E-09;  0.0000000E+00; -1.0525930E-09;  7.7325730E-03;
 -1.4000000E-01;  9.9999998E-03;  3.8999999E-01;628;  0.0000000E+00;  0.0000000E+00;  0.0000000E+00;  1.0000000E+03;  1.0000000E-01;  0.0000000E+00;0;  0.0000000E+00;  0.0000000E+00;  0.0000000E+00;0;  0.0000000E+00;  4.0000000E+04;  0.0000000E+00;  0.0000000E+00;  4.0000000E+04;  0.0000000E+00;  4.0000000E+04;  0.0000000E+00;  0.0000000E+00;  0.0000000E+00;  0.0000000E+00;
 -1.4000000E-01;  9.9999998E-03;  4.0000001E-01;629;  0.0000000E+00;  0.0000000E+00;  0.0000000E+00;  1.0000000E+03;  1.0000000E-01;  0.0000000E+00;0;  0.0000000E+00;  0.0000000E+00;  0.0000000E+00;0;  0.0000000E+00;  4.0000000E+04;  0.0000000E+00;  0.0000000E+00;  4.0000000E+04;  0.0000000E+00;  4.0000000E+04;  0.0000000E+00;  0.0000000E+00;  0.0000000E+00;  0.0000000E+00;
 -1.3000000E-01;  9.9999998E-03;  2.3999999E-01;704;  0.0000000E+00;  0.0000000E+00;  0.0000000E+00;  1.0000000E+03;  1.0000000E-01;  0.0000000E+00;0;  0.0000000E+00;  0.0000000E+00;  0.0000000E+00;0;  2.0238179E-04;  4.0000000E+04;  0.0000000E+00;  0.0000000E+00;  4.0000000E+04;  0.0000000E+00;  4.0000000E+04;  2.0315094E-04;  0.0000000E+00; -7.6914461E-07;  4.0705978E+01;
 -1.3000000E-01;  9.9999998E-03;  2.5000000E-01;705;  0.0000000E+00;  0.0000000E+00;  0.0000000E+00;  1.0000000E+03;  1.0000000E-01;  0.0000000E+00;0;  0.0000000E+00;  0.0000000E+00;  0.0000000E+00;0;  1.8301565E-04;  4.0000000E+04;  0.0000000E+00;  0.0000000E+00;  4.0000000E+04;  0.0000000E+00;  4.0000000E+04;  1.8484319E-04;  0.0000000E+00; -1.8275365E-06;  3.1259182E+01;
 -1.3000000E-01;  9.9999998E-03;  2.5999999E-01;706;  0.0000000E+00;  0.0000000E+00;  0.0000000E+00;  1.0000000E+03;  1.0000000E-01;  0.0000000E+00;0;  0.0000000E+00;  0.0000000E+00;  0.0000000E+00;0;  1.5948615E-04;  4.0000000E+04;  0.0000000E+00;  0.0000000E+00;  4.0000000E+04;  0.0000000E+00;  4.0000000E+04;  1.6222717E-04;  0.0000000E+00; -2.7410156E-06;  2.0124636E+01;
 -1.3000000E-01;  9.9999998E-03;  2.7000001E-01;707;  0.0000000E+00;  0.0000000E+00;  0.0000000E+00;  1.0000000E+03;  1.0000000E-01;  0.0000000E+00;0;  0.0000000E+00;  0.0000000E+00;  0.0000000E+00;0;  1.3331906E-04;  4.0000000E+04;  0.0000000E+00;  0.0000000E+00;  4.0000000E+04;  0.0000000E+00;  4.0000000E+04;  1.3674334E-04;  0.0000000E+00; -3.4242803E-06;  8.4601755E+00;
 -1.3000000E-01;  9.9999998E-03;  2.8000000E-01;708;  0.0000000E+00;  0.0000000E+00;  0.0000000E+00;  1.0000000E+03;  1.0000000E-01;  0.0000000E+00;0;  0.0000000E+00;  0.0000000E+00;  0.0000000E+00;0;  1.0637753E-04;  4.0000000E+04;  0.0000000E+00;  0.0000000E+00;  4.0000000E+04;  0.0000000E+00;  4.0000000E+04;  1.1019802E-04;  0.0000000E+00; -3.8204785E-06;  2.3568215E+00;
 -1.3000000E-01;  9.9999998E-03;  2.8999999E-01;709;  0.0000000E+00;  0.0000000E+00;  0.0000000E+00;  1.0000025E+03;  1.0000000E-01;  2.0740154E+00;0;  0.0000000E+00;  0.0000000E+00;  0.0000000E+00;0;  8.0551828E-05;  4.0000000E+04;  0.0000000E+00;  0.0000000E+00;  4.0000000E+04;  0.0000000E+00;  4.0000000E+04;  8.4462125E-05;  0.0000000E+00; -3.9102956E-06;  1.1004863E+01;
 -1.3000000E-01;  9.9999998E-03;  3.0000001E-01;710;  0.0000000E+00;  0.0000000E+00;  0.0000000E+00;  1.0000000E+03;  1.0000000E-01;  0.0000000E+00;0;  0.0000000E+00;  0.0000000E+00;  0.0000000E+00;0;  5.7465535E-05;  4.0000000E+04;  0.0000000E+00;  0.0000000E+00;  4.0000000E+04;  0.0000000E+00;  4.0000000E+04;  6.1179853E-05;  0.0000000E+00; -3.7143193E-06;  1.6585258E+01;
 -1.3000000E-01;  9.9999998E-03;  3.1000000E-01;711;  0.0000000E+00;  0.0000000E+00;  0.0000000E+00;  1.0000000E+03;  1.0000000E-01;  0.0000000E+00;0;  0.0000000E+00;  0.0000000E+00;  0.0000000E+00;0;  3.8253245E-05;  4.0000000E+04;  0.0000000E+00;  0.0000000E+00;  4.0000000E+04;  0.0000000E+00;  4.0000000E+04;  4.1543670E-05;  0.0000000E+00; -3.2904240E-06;  1.8799421E+01;
 -1.3000000E-01;  9.9999998E-03;  3.1999999E-01;712;  0.0000000E+00;  0.0000000E+00;  0.0000000E+00;  1.0000000E+03;  1.0000000E-01;  0.0000000E+00;0;  0.0000000E+00;  0.0000000E+00;  0.0000000E+00;0;  2.3446133E-05;  4.0000000E+04;  0.0000000E+00;  0.0000000E+00;  4.0000000E+04;  0.0000000E+00;  4.0000000E+04;  2.6166690E-05;  0.0000000E+00; -2.7205563E-06;  1.8012316E+01;
 -1.3000000E-01;  9.9999998E-03;  3.3000001E-01;713;  0.0000000E+00;  0.0000000E+00;  0.0000000E+00;  1.0000000E+03;  1.0000000E-01;  0.0000000E+00;0;  0.0000000E+00;  0.0000000E+00;  0.0000000E+00;0;  1.2976964E-05;  4.0000000E+04;  0.0000000E+00;  0.0000000E+00;  4.0000000E+04;  0.0000000E+00;  4.0000000E+04;  1.5068418E-05;  0.0000000E+00; -2.0914542E-06;  1.5083009E+01;
 -1.3000000E-01;  9.9999998E-03;  3.4000000E-01;714;  0.0000000E+00;  0.0000000E+00;  0.0000000E+00;  1.0000000E+03;  1.0000000E-01;  0.0000000E+00;0;  0.0000000E+00;  0.0000000E+00;  0.0000000E+00;0;  6.2919576E-06;  4.0000000E+04;  0.0000000E+00;  0.0000000E+00;  4.0000000E+04;  0.0000000E+00;  4.0000000E+04;  7.7714494E-06;  0.0000000E+00; -1.4794917E-06;  1.1094028E+01;
 -1.3000000E-01;  9.9999998E-03;  3.4999999E-01;715;  0.0000000E+00;  0.0000000E+00;  0.0000000E+00;  1.0000000E+03;  1.0000000E-01;  0.0000000E+00;0;  0.0000000E+00;  0.0000000E+00;  0.0000000E+00;0;  2.5368288E-06;  4.0000000E+04;  0.0000000E+00;  0.0000000E+00;  4.0000000E+04;  0.0000000E+00;  4.0000000E+04;  3.4798832E-06;  0.0000000E+00; -9.4305432E-07;  7.0743871E+00;
 -1.3000000E-01;  9.9999998E-03;  3.6000001E-01;716;  0.0000000E+00;  0.0000000E+00;  0.0000000E+00;  1.0000000E+03;  1.0000000E-01;  0.0000000E+00;0;  0.0000000E+00;  0.0000000E+00;  0.0000000E+00;0;  7.6795357E-07;  4.0000000E+04;  0.0000000E+00;  0.0000000E+00;  4.0000000E+04;  0.0000000E+00;  4.0000000E+04;  1.2885115E-06;  0.0000000E+00; -5.2055793E-07;  3.7792351E+00;
 -1.3000000E-01;  9.9999998E-03;  3.7000000E-01;717;  0.0000000E+00;  0.0000000E+00;  0.0000000E+00;  1.0000000E+03;  1.0000000E-01;  0.0000000E+00;0;  0.0000000E+00;  0.0000000E+00;  0.0000000E+00;0;  1.3432212E-07;  4.0000000E+04;  0.0000000E+00;  0.0000000E+00;  4.0000000E+04;  0.0000000E+00;  4.0000000E+04;  3.6452715E-07;  0.0000000E+00; -2.3020503E-07;  1.5741142E+00;
 -1.3000000E-01;  9.9999998E-03;  3.8000000E-01;718;  0.0000000E+00;  0.0000000E+00;  0.0000000E+00;  1.0000000E+03;  1.0000000E-01;  0.0000000E+00;0;  0.0000000E+00;  0.0000000E+00;  0.0000000E+00;0; -6.3063510E-10;  4.0000000E+04;  0.0000000E+00;  0.0000000E+00;  4.0000000E+04;  0.0000000E+00;  4.0000000E+04;  6.7779851E-08;  0.0000000E+00; -6.8410486E-08;  4.3656260E-01;
 -1.3000000E-01;  9.9999998E-03;  3.8999999E-01;719;  0.0000000E+00;  0.0000000E+00;  0.0000000E+00;  1.0000000E+03;  1.0000000E-01;  0.0000000E+00;0;  0.0000000E+00;  0.0000000E+00;  0.0000000E+00;0; -9.5737862E-10;  4.0000000E+04;  0.0000000E+00;  0.0000000E+00;  4.0000000E+04;  0.0000000E+00;  4.0000000E+04;  6.8789894E-09;  0.0000000E+00; -7.8363680E-09;  5.0188042E-02;
 -1.3000000E-01;  9.9999998E-03;  4.0000001E-01;720;  0.0000000E+00;  0.0000000E+00;  0.0000000E+00;  1.0000000E+03;  1.0000000E-01;  0.0000000E+00;0;  0.0000000E+00;  0.0000000E+00;  0.0000000E+00;0;  0.0000000E+00;  4.0000000E+04;  0.0000000E+00;  0.0000000E+00;  4.0000000E+04;  0.0000000E+00;  4.0000000E+04;  0.0000000E+00;  0.0000000E+00;  0.0000000E+00;  0.0000000E+00;
 -1.2000000E-01;  9.9999998E-03;  2.3999999E-01;795;  0.0000000E+00;  0.0000000E+00;  0.0000000E+00;  1.0000000E+03;  1.0000000E-01;  0.0000000E+00;0;  0.0000000E+00;  0.0000000E+00;  0.0000000E+00;0;  3.9829488E-04;  4.0000000E+04;  0.0000000E+00;  0.0000000E+00;  4.0000000E+04;  0.0000000E+00;  4.0000000E+04;  4.0087244E-04;  0.0000000E+00; -2.5775530E-06;  9.2351730E+01;
 -1.2000000E-01;  9.9999998E-03;  2.5000000E-01;796;  0.0000000E+00;  0.0000000E+00;  0.0000000E+00;  1.0000000E+03;  1.0000000E-01;  0.0000000E+00;0;  0.0000000E+00;  0.0000000E+00;  0.0000000E+00;0;  3.5968510E-04;  4.0000000E+04;  0.0000000E+00;  0.0000000E+00;  4.0000000E+04;  0.0000000E+00;  4.0000000E+04;  3.6492082E-04;  0.0000000E+00; -5.2357145E-06;  7.0991447E+01;
 -1.2000000E-01;  9.9999998E-03;  2.5999999E-01;797;  0.0000000E+00;  0.0000000E+00;  0.0000000E+00;  1.0000000E+03;  1.0000000E-01;  0.0000000E+00;0;  0.0000000E+00;  0.0000000E+00;  0.0000000E+00;0;  3.1420137E-04;  4.0000000E+04;  0.0000000E+00;  0.0000000E+00;  4.0000000E+04;  0.0000000E+00;  4.0000000E+04;  3.2165297E-04;  0.0000000E+00; -7.4515901E-06;  4.5802975E+01;
 -1.2000000E-01;  9.9999998E-03;  2.7000001E-01;798;  0.0000000E+00;  0.0000000E+00;  0.0000000E+00;  1.0000000E+03;  1.0000000E-01;  0.0000000E+00;0;  0.0000000E+00;  0.0000000E+00;  0.0000000E+00;0;  2.6446709E-04;  4.0000000E+04;  0.0000000E+00;  0.0000000E+00;  4.0000000E+04;  0.0000000E+00;  4.0000000E+04;  2.7351003E-04;  0.0000000E+00; -9.0429248E-06;  1.9279537E+01;
 -1.2000000E-01;  9.9999998E-03;  2.8000000E-01;799;  0.0000000E+00;  0.0000000E+00;  0.0000000E+00;  1.0000000E+03;  1.0000000E-01;  0.0000000E+00;0;  0.0000000E+00;  0.0000000E+00;  0.0000000E+00;0;  2.1359441E-04;  4.0000000E+04;  0.0000000E+00;  0.0000000E+00;  4.0000000E+04;  0.0000000E+00;  4.0000000E+04;  2.2350317E-04;  0.0000000E+00; -9.9087574E-06;  5.9452190E+00;
 -1.2000000E-01;  9.9999998E-03;  2.8999999E-01;800;  0.0000000E+00;  0.0000000E+00;  0.0000000E+00;  1.0000000E+03;  1.0000000E-01;  0.0000000E+00;0;  0.0000000E+00;  0.0000000E+00;  0.0000000E+00;0;  1.6472155E-04;  4.0000000E+04;  0.0000000E+00;  0.0000000E+00;  4.0000000E+04;  0.0000000E+00;  4.0000000E+04;  1.7476063E-04;  0.0000000E+00; -1.0039081E-05;  2.6475410E+01;
 -1.2000000E-01;  9.9999998E-03;  3.0000001E-01;801;  0.0000000E+00;  0.0000000E+00;  0.0000000E+00;  1.0000049E+03;  1.0000000E-01;  4.0492682E+00;0;  0.0000000E+00;  0.0000000E+00;  0.0000000E+00;0;  1.2057433E-04;  4.0000000E+04;  0.0000000E+00;  0.0000000E+00;  4.0000000E+04;  0.0000000E+00;  4.0000000E+04;  1.3008479E-04;  0.0000000E+00; -9.5104624E-06;  4.0744942E+01;
 -1.2000000E-01;  9.9999998E-03;  3.1000000E-01;802;  0.0000000E+00;  0.0000000E+00;  0.0000000E+00;  1.0000146E+03;  1.0000000E-01;  1.2049042E+01;0;  0.0000000E+00;  0.0000000E+00;  0.0000000E+00;0;  8.3124047E-05;  4.0000000E+04;  0.0000000E+00;  0.0000000E+00;  4.0000000E+04;  0.0000000E+00;  4.0000000E+04;  9.1598034E-05;  0.0000000E+00; -8.4739850E-06;  4.7760197E+01;
 -1.2000000E-01;  9.9999998E-03;  3.1999999E-01;803;  0.0000000E+00;  0.0000000E+00;  0.0000000E+00;  1.0000133E+03;  1.0000000E-01;  1.1061416E+01;0;  0.0000000E+00;  0.0000000E+00;  0.0000000E+00;0;  5.3402047E-05;  4.0000000E+04;  0.0000000E+00;  0.0000000E+00;  4.0000000E+04;  0.0000000E+00;  4.0000000E+04;  6.0524366E-05;  0.0000000E+00; -7.1223180E-06;  4.7941395E+01;
 -1.2000000E-01;  9.9999998E-03;  3.3000001E-01;804;  0.0000000E+00;  0.0000000E+00;  0.0000000E+00;  1.0000000E+03;  1.0000000E-01;  0.0000000E+00;0;  0.0000000E+00;  0.0000000E+00;  0.0000000E+00;0;  3.1485542E-05;  4.0000000E+04;  0.0000000E+00;  0.0000000E+00;  4.0000000E+04;  0.0000000E+00;  4.0000000E+04;  3.7131922E-05;  0.0000000E+00; -5.6463787E-06;  4.2758781E+01;
 -1.2000000E-01;  9.9999998E-03;  3.4000000E-01;805;  0.0000000E+00;  0.0000000E+00;  0.0000000E+00;  1.0000000E+03;  1.0000000E-01;  0.0000000E+00;0;  0.0000000E+00;  0.0000000E+00;  0.0000000E+00;0;  1.6638831E-05;  4.0000000E+04;  0.0000000E+00;  0.0000000E+00;  4.0000000E+04;  0.0000000E+00;  4.0000000E+04;  2.0843181E-05;  0.0000000E+00; -4.2043507E-06;  3.4253643E+01;
 -1.2000000E-01;  9.9999998E-03;  3.4999999E-01;806;  0.0000000E+00;  0.0000000E+00;  0.0000000E+00;  1.0000000E+03;  1.0000000E-01;  0.0000000E+00;0;  0.0000000E+00;  0.0000000E+00;  0.0000000E+00;0;  7.5698940E-06;  4.0000000E+04;  0.0000000E+00;  0.0000000E+00;  4.0000000E+04;  0.0000000E+00;  4.0000000E+04;  1.0479552E-05;  0.0000000E+00; -2.9096577E-06;  2.4554157E+01;
 -1.2000000E-01;  9.9999998E-03;  3.6000001E-01;807;  0.0000000E+00;  0.0000000E+00;  0.0000000E+00;  1.0000000E+03;  1.0000000E-01;  0.0000000E+00;0;  0.0000000E+00;  0.0000000E+00;  0.0000000E+00;0;  2.7362644E-06;  4.0000000E+04;  0.0000000E+00;  0.0000000E+00;  4.0000000E+04;  0.0000000E+00;  4.0000000E+04;  4.5695742E-06;  0.0000000E+00; -1.8333099E-06;  1.5479841E+01;
 -1.2000000E-01;  9.9999998E-03;  3.7000000E-01;808;  0.0000000E+00;  0.0000000E+00;  0.0000000E+00;  1.0000000E+03;  1.0000000E-01;  0.0000000E+00;0;  0.0000000E+00;  0.0000000E+00;  0.0000000E+00;0;  6.2884692E-07;  4.0000000E+04;  0.0000000E+00;  0.0000000E+00;  4.0000000E+04;  0.0000000E+00;  4.0000000E+04;  1.6409001E-06;  0.0000000E+00; -1.0120532E-06;  8.2765341E+00;
 -1.2000000E-01;  9.9999998E-03;  3.8000000E-01;809;  0.0000000E+00;  0.0000000E+00;  0.0000000E+00;  1.0000000E+03;  1.0000000E-01;  0.0000000E+00;0;  0.0000000E+00;  0.0000000E+00;  0.0000000E+00;0; -1.2222387E-08;  4.0000000E+04;  0.0000000E+00;  0.0000000E+00;  4.0000000E+04;  0.0000000E+00;  4.0000000E+04;  4.4228028E-07;  0.0000000E+00; -4.5450267E-07;  3.4954479E+00;
 -1.2000000E-01;  9.9999998E-03;  3.8999999E-01;810;  0.0000000E+00;  0.0000000E+00;  0.0000000E+00;  1.0000000E+03;  1.0000000E-01;  0.0000000E+00;0;  0.0000000E+00;  0.0000000E+00;  0.0000000E+00;0; -6.5204503E-08;  4.0000000E+04;  0.0000000E+00;  0.0000000E+00;  4.0000000E+04;  0.0000000E+00;  4.0000000E+04;  7.6384936E-08;  0.0000000E+00; -1.4158944E-07;  1.0041726E+00;
 -1.2000000E-01;  9.9999998E-03;  4.0000001E-01;811;  0.0000000E+00;  0.0000000E+00;  0.0000000E+00;  1.0000000E+03;  1.0000000E-01;  0.0000000E+00;0;  0.0000000E+00;  0.0000000E+00;  0.0000000E+00;0; -1.2788242E-08;  4.0000000E+04;  0.0000000E+00;  0.0000000E+00;  4.0000000E+04;  0.0000000E+00;  4.0000000E+04;  6.3227121E-09;  0.0000000E+00; -1.9110955E-08;  1.3338472E-01;
 -1.1000000E-01;  9.9999998E-03;  2.3999999E-01;886;  0.0000000E+00;  0.0000000E+00;  0.0000000E+00;  1.0000000E+03;  1.0000000E-01;  0.0000000E+00;0;  0.0000000E+00;  0.0000000E+00;  0.0000000E+00;0;  6.5644667E-04;  4.0000000E+04;  0.0000000E+00;  0.0000000E+00;  4.0000000E+04;  0.0000000E+00;  4.0000000E+04;  6.6267571E-04;  0.0000000E+00; -6.2290205E-06;  1.7776639E+02;
 -1.1000000E-01;  9.9999998E-03;  2.5000000E-01;887;  0.0000000E+00;  0.0000000E+00;  0.0000000E+00;  1.0000000E+03;  1.0000000E-01;  0.0000000E+00;0;  0.0000000E+00;  0.0000000E+00;  0.0000000E+00;0;  5.9270422E-04;  4.0000000E+04;  0.0000000E+00;  0.0000000E+00;  4.0000000E+04;  0.0000000E+00;  4.0000000E+04;  6.0444261E-04;  0.0000000E+00; -1.1738372E-05;  1.3689284E+02;
 -1.1000000E-01;  9.9999998E-03;  2.5999999E-01;888;  0.0000000E+00;  0.0000000E+00;  0.0000000E+00;  1.0000000E+03;  1.0000000E-01;  0.0000000E+00;0;  0.0000000E+00;  0.0000000E+00;  0.0000000E+00;0;  5.1891856E-04;  4.0000000E+04;  0.0000000E+00;  0.0000000E+00;  4.0000000E+04;  0.0000000E+00;  4.0000000E+04;  5.3518044E-04;  0.0000000E+00; -1.6261905E-05;  8.8594894E+01;
 -1.1000000E-01;  9.9999998E-03;  2.7000001E-01;889;  0.0000000E+00;  0.0000000E+00;  0.0000000E+00;  1.0000000E+03;  1.0000000E-01;  0.0000000E+00;0;  0.0000000E+00;  0.0000000E+00;  0.0000000E+00;0;  4.3901100E-04;  4.0000000E+04;  0.0000000E+00;  0.0000000E+00;  4.0000000E+04;  0.0000000E+00;  4.0000000E+04;  4.5846644E-04;  0.0000000E+00; -1.9455434E-05;  3.7551758E+01;
 -1.1000000E-01;  9.9999998E-03;  2.8000000E-01;890;  0.0000000E+00;  0.0000000E+00;  0.0000000E+00;  1.0000000E+03;  1.0000000E-01;  0.0000000E+00;0;  0.0000000E+00;  0.0000000E+00;  0.0000000E+00;0;  3.5755703E-04;  4.0000000E+04;  0.0000000E+00;  0.0000000E+00;  4.0000000E+04;  0.0000000E+00;  4.0000000E+04;  3.7870274E-04;  0.0000000E+00; -2.1145723E-05;  1.3232269E+01;
 -1.1000000E-01;  9.9999998E-03;  2.8999999E-01;891;  0.0000000E+00;  0.0000000E+00;  0.0000000E+00;  1.0000000E+03;  1.0000000E-01;  0.0000000E+00;0;  0.0000000E+00;  0.0000000E+00;  0.0000000E+00;0;  2.7915716E-04;  4.0000000E+04;  0.0000000E+00;  0.0000000E+00;  4.0000000E+04;  0.0000000E+00;  4.0000000E+04;  3.0049993E-04;  0.0000000E+00; -2.1342781E-05;  5.3671741E+01;
 -1.1000000E-01;  9.9999998E-03;  3.0000001E-01;892;  0.0000000E+00;  0.0000000E+00;  0.0000000E+00;  1.0000000E+03;  1.0000000E-01;  0.0000000E+00;0;  0.0000000E+00;  0.0000000E+00;  0.0000000E+00;0;  2.0783932E-04;  4.0000000E+04;  0.0000000E+00;  0.0000000E+00;  4.0000000E+04;  0.0000000E+00;  4.0000000E+04;  2.2806317E-04;  0.0000000E+00; -2.0223861E-05;  8.3630806E+01;
 -1.1000000E-01;  9.9999998E-03;  3.1000000E-01;893;  0.0000000E+00;  0.0000000E+00;  0.0000000E+00;  1.0000000E+03;  1.0000000E-01;  0.0000000E+00;0;  0.0000000E+00;  0.0000000E+00;  0.0000000E+00;0;  1.4657683E-04;  4.0000000E+04;  0.0000000E+00;  0.0000000E+00;  4.0000000E+04;  0.0000000E+00;  4.0000000E+04;  1.6468207E-04;  0.0000000E+00; -1.8105244E-05;  1.0028078E+02;
 -1.1000000E-01;  9.9999998E-03;  3.1999999E-01;894;  0.0000000E+00;  0.0000000E+00;  0.0000000E+00;  1.0000166E+03;  1.0000000E-01;  1.3728006E+01;0;  0.0000000E+00;  0.0000000E+00;  0.0000000E+00;0;  9.7027980E-05;  4.0000000E+04;  0.0000000E+00;  0.0000000E+00;  4.0000000E+04;  0.0000000E+00;  4.0000000E+04;  1.1240357E-04;  0.0000000E+00; -1.5375594E-05;  1.0387234E+02;
 -1.1000000E-01;  9.9999998E-03;  3.3000001E-01;895;  0.0000000E+00;  0.0000000E+00;  0.0000000E+00;  1.0000227E+03;  1.0000000E-01;  1.8764902E+01;0;  0.0000000E+00;  0.0000000E+00;  0.0000000E+00;0;  5.9501810E-05;  4.0000000E+04;  0.0000000E+00;  0.0000000E+00;  4.0000000E+04;  0.0000000E+00;  4.0000000E+04;  7.1912582E-05;  0.0000000E+00; -1.2410771E-05;  9.6596901E+01;
 -1.1000000E-01;  9.9999998E-03;  3.4000000E-01;896;  0.0000000E+00;  0.0000000E+00;  0.0000000E+00;  1.0000266E+03;  1.0000000E-01;  2.2024069E+01;0;  0.0000000E+00;  0.0000000E+00;  0.0000000E+00;0;  3.3125525E-05;  4.0000000E+04;  0.0000000E+00;  0.0000000E+00;  4.0000000E+04;  0.0000000E+00;  4.0000000E+04;  4.2638501E-05;  0.0000000E+00; -9.5129772E-06;  8.1789192E+01;
 -1.1000000E-01;  9.9999998E-03;  3.4999999E-01;897;  0.0000000E+00;  0.0000000E+00;  0.0000000E+00;  1.0000000E+03;  1.0000000E-01;  0.0000000E+00;0;  0.0000000E+00;  0.0000000E+00;  0.0000000E+00;0;  1.6167611E-05;  4.0000000E+04;  0.0000000E+00;  0.0000000E+00;  4.0000000E+04;  0.0000000E+00;  4.0000000E+04;  2.3056600E-05;  0.0000000E+00; -6.8889890E-06;  6.3126934E+01;
 -1.1000000E-01;  9.9999998E-03;  3.6000001E-01;898;  0.0000000E+00;  0.0000000E+00;  0.0000000E+00;  1.0000000E+03;  1.0000000E-01;  0.0000000E+00;0;  0.0000000E+00;  0.0000000E+00;  0.0000000E+00;0;  6.4435826E-06;  4.0000000E+04;  0.0000000E+00;  0.0000000E+00;  4.0000000E+04;  0.0000000E+00;  4.0000000E+04;  1.1102268E-05;  0.0000000E+00; -4.6586856E-06;  4.4005135E+01;
 -1.1000000E-01;  9.9999998E-03;  3.7000000E-01;899;  0.0000000E+00;  0.0000000E+00;  0.0000000E+00;  1.0000000E+03;  1.0000000E-01;  0.0000000E+00;0;  0.0000000E+00;  0.0000000E+00;  0.0000000E+00;0;  1.7070047E-06;  4.0000000E+04;  0.0000000E+00;  0.0000000E+00;  4.0000000E+04;  0.0000000E+00;  4.0000000E+04;  4.5841985E-06;  0.0000000E+00; -2.8771938E-06;  2.7111565E+01;
 -1.1000000E-01;  9.9999998E-03;  3.8000000E-01;900;  0.0000000E+00;  0.0000000E+00;  0.0000000E+00;  1.0000000E+03;  1.0000000E-01;  0.0000000E+00;0;  0.0000000E+00;  0.0000000E+00;  0.0000000E+00;0; -3.8328608E-08;  4.0000000E+04;  0.0000000E+00;  0.0000000E+00;  4.0000000E+04;  0.0000000E+00;  4.0000000E+04;  1.5189692E-06;  0.0000000E+00; -1.5572978E-06;  1.4170250E+01;
 -1.1000000E-01;  9.9999998E-03;  3.8999999E-01;901;  0.0000000E+00;  0.0000000E+00;  0.0000000E+00;  1.0000000E+03;  1.0000000E-01;  0.0000000E+00;0;  0.0000000E+00;  0.0000000E+00;  0.0000000E+00;0; -3.2706305E-07;  4.0000000E+04;  0.0000000E+00;  0.0000000E+00;  4.0000000E+04;  0.0000000E+00;  4.0000000E+04;  3.5599601E-07;  0.0000000E+00; -6.8305906E-07;  5.8189187E+00;
 -1.1000000E-01;  9.9999998E-03;  4.0000001E-01;902;  0.0000000E+00;  0.0000000E+00;  0.0000000E+00;  1.0000000E+03;  1.0000000E-01;  0.0000000E+00;0;  0.0000000E+00;  0.0000000E+00;  0.0000000E+00;0; -1.6208460E-07;  4.0000000E+04;  0.0000000E+00;  0.0000000E+00;  4.0000000E+04;  0.0000000E+00;  4.0000000E+04;  4.2742482E-08;  0.0000000E+00; -2.0482709E-07;  1.6068506E+00;
 -1.0000000E-01;  9.9999998E-03;  2.3999999E-01;977;  0.0000000E+00;  0.0000000E+00;  0.0000000E+00;  1.0000000E+03;  1.0000000E-01;  0.0000000E+00;0;  0.0000000E+00;  0.0000000E+00;  0.0000000E+00;0;  9.5521018E-04;  4.0000000E+04;  0.0000000E+00;  0.0000000E+00;  4.0000000E+04;  0.0000000E+00;  4.0000000E+04;  9.6770638E-04;  0.0000000E+00; -1.2496217E-05;  3.0544397E+02;
 -1.0000000E-01;  9.9999998E-03;  2.5000000E-01;978;  0.0000000E+00;  0.0000000E+00;  0.0000000E+00;  1.0000000E+03;  1.0000000E-01;  0.0000000E+00;0;  0.0000000E+00;  0.0000000E+00;  0.0000000E+00;0;  8.6255430E-04;  4.0000000E+04;  0.0000000E+00;  0.0000000E+00;  4.0000000E+04;  0.0000000E+00;  4.0000000E+04;  8.8506448E-04;  0.0000000E+00; -2.2510161E-05;  2.3585469E+02;
 -1.0000000E-01;  9.9999998E-03;  2.5999999E-01;979;  0.0000000E+00;  0.0000000E+00;  0.0000000E+00;  1.0000000E+03;  1.0000000E-01;  0.0000000E+00;0;  0.0000000E+00;  0.0000000E+00;  0.0000000E+00;0;  7.5631303E-04;  4.0000000E+04;  0.0000000E+00;  0.0000000E+00;  4.0000000E+04;  0.0000000E+00;  4.0000000E+04;  7.8699895E-04;  0.0000000E+00; -3.0685940E-05;  1.5342410E+02;
 -1.0000000E-01;  9.9999998E-03;  2.7000001E-01;980;  0.0000000E+00;  0.0000000E+00;  0.0000000E+00;  1.0000000E+03;  1.0000000E-01;  0.0000000E+00;0;  0.0000000E+00;  0.0000000E+00;  0.0000000E+00;0;  6.4186496E-04;  4.0000000E+04;  0.0000000E+00;  0.0000000E+00;  4.0000000E+04;  0.0000000E+00;  4.0000000E+04;  6.7829556E-04;  0.0000000E+00; -3.6430618E-05;  6.6302414E+01;
 -1.0000000E-01;  9.9999998E-03;  2.8000000E-01;981;  0.0000000E+00;  0.0000000E+00;  0.0000000E+00;  1.0000000E+03;  1.0000000E-01;  0.0000000E+00;0;  0.0000000E+00;  0.0000000E+00;  0.0000000E+00;0;  5.2543241E-04;  4.0000000E+04;  0.0000000E+00;  0.0000000E+00;  4.0000000E+04;  0.0000000E+00;  4.0000000E+04;  5.6488556E-04;  0.0000000E+00; -3.9453134E-05;  2.7201893E+01;
 -1.0000000E-01;  9.9999998E-03;  2.8999999E-01;982;  0.0000000E+00;  0.0000000E+00;  0.0000000E+00;  1.0000000E+03;  1.0000000E-01;  0.0000000E+00;0;  0.0000000E+00;  0.0000000E+00;  0.0000000E+00;0;  4.1325792E-04;  4.0000000E+04;  0.0000000E+00;  0.0000000E+00;  4.0000000E+04;  0.0000000E+00;  4.0000000E+04;  4.5304265E-04;  0.0000000E+00; -3.9784729E-05;  9.6488586E+01;
 -1.0000000E-01;  9.9999998E-03;  3.0000001E-01;983;  0.0000000E+00;  0.0000000E+00;  0.0000000E+00;  1.0000256E+03;  1.0000000E-01;  2.1233967E+01;0;  0.0000000E+00;  0.0000000E+00;  0.0000000E+00;0;  3.1081779E-04;  4.0000000E+04;  0.0000000E+00;  0.0000000E+00;  4.0000000E+04;  0.0000000E+00;  4.0000000E+04;  3.4857029E-04;  0.0000000E+00; -3.7752485E-05;  1.5128798E+02;
 -1.0000000E-01;  9.9999998E-03;  3.1000000E-01;984;  0.0000000E+00;  0.0000000E+00;  0.0000000E+00;  1.0000143E+03;  1.0000000E-01;  1.1851517E+01;0;  0.0000000E+00;  0.0000000E+00;  0.0000000E+00;0;  2.2218592E-04;  4.0000000E+04;  0.0000000E+00;  0.0000000E+00;  4.0000000E+04;  0.0000000E+00;  4.0000000E+04;  2.5611577E-04;  0.0000000E+00; -3.3929853E-05;  1.8431969E+02;
 -1.0000000E-01;  9.9999998E-03;  3.1999999E-01;985;  0.0000000E+00;  0.0000000E+00;  0.0000000E+00;  1.0000187E+03;  1.0000000E-01;  1.5505734E+01;0;  0.0000000E+00;  0.0000000E+00;  0.0000000E+00;0;  1.4969785E-04;  4.0000000E+04;  0.0000000E+00;  0.0000000E+00;  4.0000000E+04;  0.0000000E+00;  4.0000000E+04;  1.7871428E-04;  0.0000000E+00; -2.9016435E-05;  1.9521536E+02;
 -1.0000000E-01;  9.9999998E-03;  3.3000001E-01;986;  0.0000000E+00;  0.0000000E+00;  0.0000000E+00;  1.0000089E+03;  1.0000000E-01;  7.4071980E+00;0;  0.0000000E+00;  0.0000000E+00;  0.0000000E+00;0;  9.3910785E-05;  4.0000000E+04;  0.0000000E+00;  0.0000000E+00;  4.0000000E+04;  0.0000000E+00;  4.0000000E+04;  1.1759594E-04;  0.0000000E+00; -2.3685152E-05;  1.8693848E+02;
 -1.0000000E-01;  9.9999998E-03;  3.4000000E-01;987;  0.0000000E+00;  0.0000000E+00;  0.0000000E+00;  1.0000366E+03;  1.0000000E-01;  3.0320129E+01;0;  0.0000000E+00;  0.0000000E+00;  0.0000000E+00;0;  5.3815533E-05;  4.0000000E+04;  0.0000000E+00;  0.0000000E+00;  4.0000000E+04;  0.0000000E+00;  4.0000000E+04;  7.2288203E-05;  0.0000000E+00; -1.8472670E-05;  1.6444908E+02;
 -1.0000000E-01;  9.9999998E-03;  3.4999999E-01;988;  0.0000000E+00;  0.0000000E+00;  0.0000000E+00;  1.0000374E+03;  1.0000000E-01;  3.0912706E+01;0;  0.0000000E+00;  0.0000000E+00;  0.0000000E+00;0;  2.7234997E-05;  4.0000000E+04;  0.0000000E+00;  0.0000000E+00;  4.0000000E+04;  0.0000000E+00;  4.0000000E+04;  4.0973340E-05;  0.0000000E+00; -1.3738344E-05;  1.3345961E+02;
 -1.0000000E-01;  9.9999998E-03;  3.6000001E-01;989;  0.0000000E+00;  0.0000000E+00;  0.0000000E+00;  1.0000137E+03;  1.0000000E-01;  1.1357703E+01;0;  0.0000000E+00;  0.0000000E+00;  0.0000000E+00;0;  1.1326027E-05;  4.0000000E+04;  0.0000000E+00;  0.0000000E+00;  4.0000000E+04;  0.0000000E+00;  4.0000000E+04;  2.1005057E-05;  0.0000000E+00; -9.6790300E-06;  9.9463554E+01;
 -1.0000000E-01;  9.9999998E-03;  3.7000000E-01;990;  0.0000000E+00;  0.0000000E+00;  0.0000000E+00;  1.0000000E+03;  1.0000000E-01;  0.0000000E+00;0;  0.0000000E+00;  0.0000000E+00;  0.0000000E+00;0;  3.0772744E-06;  4.0000000E+04;  0.0000000E+00;  0.0000000E+00;  4.0000000E+04;  0.0000000E+00;  4.0000000E+04;  9.4486086E-06;  0.0000000E+00; -6.3713342E-06;  6.7129692E+01;
 -1.0000000E-01;  9.9999998E-03;  3.8000000E-01;991;  0.0000000E+00;  0.0000000E+00;  0.0000000E+00;  1.0000000E+03;  1.0000000E-01;  0.0000000E+00;0;  0.0000000E+00;  0.0000000E+00;  0.0000000E+00;0; -2.8165050E-07;  4.0000000E+04;  0.0000000E+00;  0.0000000E+00;  4.0000000E+04;  0.0000000E+00;  4.0000000E+04;  3.5368612E-06;  0.0000000E+00; -3.8185117E-06;  3.9942638E+01;
 -1.0000000E-01;  9.9999998E-03;  3.8999999E-01;992;  0.0000000E+00;  0.0000000E+00;  0.0000000E+00;  1.0000000E+03;  1.0000000E-01;  0.0000000E+00;0;  0.0000000E+00;  0.0000000E+00;  0.0000000E+00;0; -9.9494298E-07;  4.0000000E+04;  0.0000000E+00;  0.0000000E+00;  4.0000000E+04;  0.0000000E+00;  4.0000000E+04;  9.9215606E-07;  0.0000000E+00; -1.9870990E-06;  1.9968216E+01;
 -1.0000000E-01;  9.9999998E-03;  4.0000001E-01;993;  0.0000000E+00;  0.0000000E+00;  0.0000000E+00;  1.0000000E+03;  1.0000000E-01;  0.0000000E+00;0;  0.0000000E+00;  0.0000000E+00;  0.0000000E+00;0; -6.6531891E-07;  4.0000000E+04;  0.0000000E+00;  0.0000000E+00;  4.0000000E+04;  0.0000000E+00;  4.0000000E+04;  1.5399642E-07;  0.0000000E+00; -8.1931535E-07;  7.6796646E+00;
 -9.0000004E-02;  9.9999998E-03;  2.3999999E-01;1068;  0.0000000E+00;  0.0000000E+00;  0.0000000E+00;  1.0000195E+03;  1.0000000E-01;  1.6197073E+01;0;  0.0000000E+00;  0.0000000E+00;  0.0000000E+00;0;  1.2615487E-03;  4.0000000E+04;  0.0000000E+00;  0.0000000E+00;  4.0000000E+04;  0.0000000E+00;  4.0000000E+04;  1.2836761E-03;  0.0000000E+00; -2.2127360E-05;  4.8277420E+02;
 -9.0000004E-02;  9.9999998E-03;  2.5000000E-01;1069;  0.0000000E+00;  0.0000000E+00;  0.0000000E+00;  1.0000197E+03;  1.0000000E-01;  1.6295835E+01;0;  0.0000000E+00;  0.0000000E+00;  0.0000000E+00;0;  1.1392164E-03;  4.0000000E+04;  0.0000000E+00;  0.0000000E+00;  4.0000000E+04;  0.0000000E+00;  4.0000000E+04;  1.1778804E-03;  0.0000000E+00; -3.8664093E-05;  3.7424890E+02;
 -9.0000004E-02;  9.9999998E-03;  2.5999999E-01;1070;  0.0000000E+00;  0.0000000E+00;  0.0000000E+00;  1.0000309E+03;  1.0000000E-01;  2.5678286E+01;0;  0.0000000E+00;  0.0000000E+00;  0.0000000E+00;0;  9.9941471E-04;  4.0000000E+04;  0.0000000E+00;  0.0000000E+00;  4.0000000E+04;  0.0000000E+00;  4.0000000E+04;  1.0515717E-03;  0.0000000E+00; -5.2156996E-05;  2.4533055E+02;
 -9.0000004E-02;  9.9999998E-03;  2.7000001E-01;1071;  0.0000000E+00;  0.0000000E+00;  0.0000000E+00;  1.0000422E+03;  1.0000000E-01;  3.4961975E+01;0;  0.0000000E+00;  0.0000000E+00;  0.0000000E+00;0;  8.4911287E-04;  4.0000000E+04;  0.0000000E+00;  0.0000000E+00;  4.0000000E+04;  0.0000000E+00;  4.0000000E+04;  9.1076782E-04;  0.0000000E+00; -6.1654922E-05;  1.0963485E+02;
 -9.0000004E-02;  9.9999998E-03;  2.8000000E-01;1072;  0.0000000E+00;  0.0000000E+00;  0.0000000E+00;  1.0000552E+03;  1.0000000E-01;  4.5727100E+01;0;  0.0000000E+00;  0.0000000E+00;  0.0000000E+00;0;  6.9634995E-04;  4.0000000E+04;  0.0000000E+00;  0.0000000E+00;  4.0000000E+04;  0.0000000E+00;  4.0000000E+04;  7.6303259E-04;  0.0000000E+00; -6.6682631E-05;  5.2131641E+01;
 -9.0000004E-02;  9.9999998E-03;  2.8999999E-01;1073;  0.0000000E+00;  0.0000000E+00;  0.0000000E+00;  1.0000601E+03;  1.0000000E-01;  4.9776371E+01;0;  0.0000000E+00;  0.0000000E+00;  0.0000000E+00;0;  5.4917793E-04;  4.0000000E+04;  0.0000000E+00;  0.0000000E+00;  4.0000000E+04;  0.0000000E+00;  4.0000000E+04;  6.1645667E-04;  0.0000000E+00; -6.7278765E-05;  1.5881950E+02;
 -9.0000004E-02;  9.9999998E-03;  3.0000001E-01;1074;  0.0000000E+00;  0.0000000E+00;  0.0000000E+00;  1.0000905E+03;  1.0000000E-01;  7.4960846E+01;0;  0.0000000E+00;  0.0000000E+00;  0.0000000E+00;0;  4.1464187E-04;  4.0000000E+04;  0.0000000E+00;  0.0000000E+00;  4.0000000E+04;  0.0000000E+00;  4.0000000E+04;  4.7860615E-04;  0.0000000E+00; -6.3964289E-05;  2.4925439E+02;
 -9.0000004E-02;  9.9999998E-03;  3.1000000E-01;1075;  0.0000000E+00;  0.0000000E+00;  0.0000000E+00;  1.0000674E+03;  1.0000000E-01;  5.5899654E+01;0;  0.0000000E+00;  0.0000000E+00;  0.0000000E+00;0;  2.9795949E-04;  4.0000000E+04;  0.0000000E+00;  0.0000000E+00;  4.0000000E+04;  0.0000000E+00;  4.0000000E+04;  3.5563248E-04;  0.0000000E+00; -5.7672984E-05;  3.0705475E+02;
 -9.0000004E-02;  9.9999998E-03;  3.1999999E-01;1076;  0.0000000E+00;  0.0000000E+00;  0.0000000E+00;  1.0000800E+03;  1.0000000E-01;  6.6269730E+01;0;  0.0000000E+00;  0.0000000E+00;  0.0000000E+00;0;  2.0210596E-04;  4.0000000E+04;  0.0000000E+00;  0.0000000E+00;  4.0000000E+04;  0.0000000E+00;  4.0000000E+04;  2.5166446E-04;  0.0000000E+00; -4.9558505E-05;  3.3047623E+02;
 -9.0000004E-02;  9.9999998E-03;  3.3000001E-01;1077;  0.0000000E+00;  0.0000000E+00;  0.0000000E+00;  1.0000583E+03;  1.0000000E-01;  4.8294930E+01;0;  0.0000000E+00;  0.0000000E+00;  0.0000000E+00;0;  1.2781229E-04;  4.0000000E+04;  0.0000000E+00;  0.0000000E+00;  4.0000000E+04;  0.0000000E+00;  4.0000000E+04;  1.6855058E-04;  0.0000000E+00; -4.0738298E-05;  3.2321960E+02;
 -9.0000004E-02;  9.9999998E-03;  3.4000000E-01;1078;  0.0000000E+00;  0.0000000E+00;  0.0000000E+00;  1.0000413E+03;  1.0000000E-01;  3.4171871E+01;0;  0.0000000E+00;  0.0000000E+00;  0.0000000E+00;0;  7.3854288E-05;  4.0000000E+04;  0.0000000E+00;  0.0000000E+00;  4.0000000E+04;  0.0000000E+00;  4.0000000E+04;  1.0595987E-04;  0.0000000E+00; -3.2105589E-05;  2.9222586E+02;
 -9.0000004E-02;  9.9999998E-03;  3.4999999E-01;1079;  0.0000000E+00;  0.0000000E+00;  0.0000000E+00;  1.0000502E+03;  1.0000000E-01;  4.1579071E+01;0;  0.0000000E+00;  0.0000000E+00;  0.0000000E+00;0;  3.7552552E-05;  4.0000000E+04;  0.0000000E+00;  0.0000000E+00;  4.0000000E+04;  0.0000000E+00;  4.0000000E+04;  6.1808365E-05;  0.0000000E+00; -2.4255813E-05;  2.4574408E+02;
 -9.0000004E-02;  9.9999998E-03;  3.6000001E-01;1080;  0.0000000E+00;  0.0000000E+00;  0.0000000E+00;  1.0000438E+03;  1.0000000E-01;  3.6245888E+01;0;  0.0000000E+00;  0.0000000E+00;  0.0000000E+00;0;  1.5382429E-05;  4.0000000E+04;  0.0000000E+00;  0.0000000E+00;  4.0000000E+04;  0.0000000E+00;  4.0000000E+04;  3.2889144E-05;  0.0000000E+00; -1.7506714E-05;  1.9190854E+02;
 -9.0000004E-02;  9.9999998E-03;  3.7000000E-01;1081;  0.0000000E+00;  0.0000000E+00;  0.0000000E+00;  1.0000407E+03;  1.0000000E-01;  3.3776821E+01;0;  0.0000000E+00;  0.0000000E+00;  0.0000000E+00;0;  3.5721887E-06;  4.0000000E+04;  0.0000000E+00;  0.0000000E+00;  4.0000000E+04;  0.0000000E+00;  4.0000000E+04;  1.5538692E-05;  0.0000000E+00; -1.1966503E-05;  1.3788765E+02;
 -9.0000004E-02;  9.9999998E-03;  3.8000000E-01;1082;  0.0000000E+00;  0.0000000E+00;  0.0000000E+00;  1.0000000E+03;  1.0000000E-01;  0.0000000E+00;0;  0.0000000E+00;  0.0000000E+00;  0.0000000E+00;0; -1.4022962E-06;  4.0000000E+04;  0.0000000E+00;  0.0000000E+00;  4.0000000E+04;  0.0000000E+00;  4.0000000E+04;  6.2121612E-06;  0.0000000E+00; -7.6144574E-06;  8.9436722E+01;
 -9.0000004E-02;  9.9999998E-03;  3.8999999E-01;1083;  0.0000000E+00;  0.0000000E+00;  0.0000000E+00;  1.0000000E+03;  1.0000000E-01;  0.0000000E+00;0;  0.0000000E+00;  0.0000000E+00;  0.0000000E+00;0; -2.4696983E-06;  4.0000000E+04;  0.0000000E+00;  0.0000000E+00;  4.0000000E+04;  0.0000000E+00;  4.0000000E+04;  1.9000187E-06;  0.0000000E+00; -4.3697169E-06;  5.0635204E+01;
 -9.0000004E-02;  9.9999998E-03;  4.0000001E-01;1084;  0.0000000E+00;  0.0000000E+00;  0.0000000E+00;  1.0000000E+03;  1.0000000E-01;  0.0000000E+00;0;  0.0000000E+00;  0.0000000E+00;  0.0000000E+00;0; -1.8144935E-06;  4.0000000E+04;  0.0000000E+00;  0.0000000E+00;  4.0000000E+04;  0.0000000E+00;  4.0000000E+04;  3.1845528E-07;  0.0000000E+00; -2.1329488E-06;  2.3596247E+01;
 -7.9999998E-02;  9.9999998E-03;  2.3999999E-01;1159;  0.0000000E+00;  0.0000000E+00;  0.0000000E+00;  1.0002194E+03;  1.0000000E-01;  1.8172325E+02;0;  0.0000000E+00;  0.0000000E+00;  0.0000000E+00;0;  1.5310225E-03;  4.0000000E+04;  0.0000000E+00;  0.0000000E+00;  4.0000000E+04;  0.0000000E+00;  4.0000000E+04;  1.5667492E-03;  0.0000000E+00; -3.5726647E-05;  7.1505426E+02;
 -7.9999998E-02;  9.9999998E-03;  2.5000000E-01;1160;  0.0000000E+00;  0.0000000E+00;  0.0000000E+00;  1.0002078E+03;  1.0000000E-01;  1.7214328E+02;0;  0.0000000E+00;  0.0000000E+00;  0.0000000E+00;0;  1.3821577E-03;  4.0000000E+04;  0.0000000E+00;  0.0000000E+00;  4.0000000E+04;  0.0000000E+00;  4.0000000E+04;  1.4432629E-03;  0.0000000E+00; -6.1105231E-05;  5.5715283E+02;
 -7.9999998E-02;  9.9999998E-03;  2.5999999E-01;1161;  0.0000000E+00;  0.0000000E+00;  0.0000000E+00;  1.0001949E+03;  1.0000000E-01;  1.6147691E+02;0;  0.0000000E+00;  0.0000000E+00;  0.0000000E+00;0;  1.2115967E-03;  4.0000000E+04;  0.0000000E+00;  0.0000000E+00;  4.0000000E+04;  0.0000000E+00;  4.0000000E+04;  1.2934591E-03;  0.0000000E+00; -8.1862439E-05;  3.6888348E+02;
 -7.9999998E-02;  9.9999998E-03;  2.7000001E-01;1162;  0.0000000E+00;  0.0000000E+00;  0.0000000E+00;  1.0002041E+03;  1.0000000E-01;  1.6908163E+02;0;  0.0000000E+00;  0.0000000E+00;  0.0000000E+00;0;  1.0280091E-03;  4.0000000E+04;  0.0000000E+00;  0.0000000E+00;  4.0000000E+04;  0.0000000E+00;  4.0000000E+04;  1.1245629E-03;  0.0000000E+00; -9.6553784E-05;  1.7200804E+02;
 -7.9999998E-02;  9.9999998E-03;  2.8000000E-01;1163;  0.0000000E+00;  0.0000000E+00;  0.0000000E+00;  1.0002085E+03;  1.0000000E-01;  1.7273586E+02;0;  0.0000000E+00;  0.0000000E+00;  0.0000000E+00;0;  8.4142585E-04;  4.0000000E+04;  0.0000000E+00;  0.0000000E+00;  4.0000000E+04;  0.0000000E+00;  4.0000000E+04;  9.4585295E-04;  0.0000000E+00; -1.0442712E-04;  9.2292427E+01;
 -7.9999998E-02;  9.9999998E-03;  2.8999999E-01;1164;  0.0000000E+00;  0.0000000E+00;  0.0000000E+00;  1.0002003E+03;  1.0000000E-01;  1.6592123E+02;0;  0.0000000E+00;  0.0000000E+00;  0.0000000E+00;0;  6.6188036E-04;  4.0000000E+04;  0.0000000E+00;  0.0000000E+00;  4.0000000E+04;  0.0000000E+00;  4.0000000E+04;  7.6737558E-04;  0.0000000E+00; -1.0549523E-04;  2.4415277E+02;
 -7.9999998E-02;  9.9999998E-03;  3.0000001E-01;1165;  0.0000000E+00;  0.0000000E+00;  0.0000000E+00;  1.0001974E+03;  1.0000000E-01;  1.6355093E+02;0;  0.0000000E+00;  0.0000000E+00;  0.0000000E+00;0;  4.9809116E-04;  4.0000000E+04;  0.0000000E+00;  0.0000000E+00;  4.0000000E+04;  0.0000000E+00;  4.0000000E+04;  5.9859827E-04;  0.0000000E+00; -1.0050713E-04;  3.8194977E+02;
 -7.9999998E-02;  9.9999998E-03;  3.1000000E-01;1166;  0.0000000E+00;  0.0000000E+00;  0.0000000E+00;  1.0001771E+03;  1.0000000E-01;  1.4676128E+02;0;  0.0000000E+00;  0.0000000E+00;  0.0000000E+00;0;  3.5640149E-04;  4.0000000E+04;  0.0000000E+00;  0.0000000E+00;  4.0000000E+04;  0.0000000E+00;  4.0000000E+04;  4.4726609E-04;  0.0000000E+00; -9.0864611E-05;  4.7400516E+02;
 -7.9999998E-02;  9.9999998E-03;  3.1999999E-01;1167;  0.0000000E+00;  0.0000000E+00;  0.0000000E+00;  1.0001598E+03;  1.0000000E-01;  1.3234193E+02;0;  0.0000000E+00;  0.0000000E+00;  0.0000000E+00;0;  2.4030101E-04;  4.0000000E+04;  0.0000000E+00;  0.0000000E+00;  4.0000000E+04;  0.0000000E+00;  4.0000000E+04;  3.1863945E-04;  0.0000000E+00; -7.8338424E-05;  5.1608765E+02;
 -7.9999998E-02;  9.9999998E-03;  3.3000001E-01;1168;  0.0000000E+00;  0.0000000E+00;  0.0000000E+00;  1.0001454E+03;  1.0000000E-01;  1.2049042E+02;0;  0.0000000E+00;  0.0000000E+00;  0.0000000E+00;0;  1.5050275E-04;  4.0000000E+04;  0.0000000E+00;  0.0000000E+00;  4.0000000E+04;  0.0000000E+00;  4.0000000E+04;  2.1517204E-04;  0.0000000E+00; -6.4669301E-05;  5.1256604E+02;
 -7.9999998E-02;  9.9999998E-03;  3.4000000E-01;1169;  0.0000000E+00;  0.0000000E+00;  0.0000000E+00;  1.0001165E+03;  1.0000000E-01;  9.6491096E+01;0;  0.0000000E+00;  0.0000000E+00;  0.0000000E+00;0;  8.5382759E-05;  4.0000000E+04;  0.0000000E+00;  0.0000000E+00;  4.0000000E+04;  0.0000000E+00;  4.0000000E+04;  1.3664729E-04;  0.0000000E+00; -5.1264527E-05;  4.7272751E+02;
 -7.9999998E-02;  9.9999998E-03;  3.4999999E-01;1170;  0.0000000E+00;  0.0000000E+00;  0.0000000E+00;  1.0000714E+03;  1.0000000E-01;  5.9158821E+01;0;  0.0000000E+00;  0.0000000E+00;  0.0000000E+00;0;  4.1632247E-05;  4.0000000E+04;  0.0000000E+00;  0.0000000E+00;  4.0000000E+04;  0.0000000E+00;  4.0000000E+04;  8.0700025E-05;  0.0000000E+00; -3.9067778E-05;  4.0792068E+02;
 -7.9999998E-02;  9.9999998E-03;  3.6000001E-01;1171;  0.0000000E+00;  0.0000000E+00;  0.0000000E+00;  1.0000682E+03;  1.0000000E-01;  5.6492229E+01;0;  0.0000000E+00;  0.0000000E+00;  0.0000000E+00;0;  1.4992589E-05;  4.0000000E+04;  0.0000000E+00;  0.0000000E+00;  4.0000000E+04;  0.0000000E+00;  4.0000000E+04;  4.3572571E-05;  0.0000000E+00; -2.8579982E-05;  3.2947342E+02;
 -7.9999998E-02;  9.9999998E-03;  3.7000000E-01;1172;  0.0000000E+00;  0.0000000E+00;  0.0000000E+00;  1.0000494E+03;  1.0000000E-01;  4.0986496E+01;0;  0.0000000E+00;  0.0000000E+00;  0.0000000E+00;0;  9.5114228E-07;  4.0000000E+04;  0.0000000E+00;  0.0000000E+00;  4.0000000E+04;  0.0000000E+00;  4.0000000E+04;  2.0912916E-05;  0.0000000E+00; -1.9961773E-05;  2.4753520E+02;
 -7.9999998E-02;  9.9999998E-03;  3.8000000E-01;1173;  0.0000000E+00;  0.0000000E+00;  0.0000000E+00;  1.0000444E+03;  1.0000000E-01;  3.6739700E+01;0;  0.0000000E+00;  0.0000000E+00;  0.0000000E+00;0; -4.6977757E-06;  4.0000000E+04;  0.0000000E+00;  0.0000000E+00;  4.0000000E+04;  0.0000000E+00;  4.0000000E+04;  8.4592129E-06;  0.0000000E+00; -1.3156989E-05;  1.7055431E+02;
 -7.9999998E-02;  9.9999998E-03;  3.8999999E-01;1174;  0.0000000E+00;  0.0000000E+00;  0.0000000E+00;  1.0000000E+03;  1.0000000E-01;  0.0000000E+00;0;  0.0000000E+00;  0.0000000E+00;  0.0000000E+00;0; -5.4679567E-06;  4.0000000E+04;  0.0000000E+00;  0.0000000E+00;  4.0000000E+04;  0.0000000E+00;  4.0000000E+04;  2.5355432E-06;  0.0000000E+00; -8.0034997E-06;  1.0507919E+02;
 -7.9999998E-02;  9.9999998E-03;  4.0000001E-01;1175;  0.0000000E+00;  0.0000000E+00;  0.0000000E+00;  1.0000000E+03;  1.0000000E-01;  0.0000000E+00;0;  0.0000000E+00;  0.0000000E+00;  0.0000000E+00;0; -4.0200880E-06;  4.0000000E+04;  0.0000000E+00;  0.0000000E+00;  4.0000000E+04;  0.0000000E+00;  4.0000000E+04;  2.9369741E-07;  0.0000000E+00; -4.3137852E-06;  5.5451458E+01;
 -7.0000000E-02;  9.9999998E-03;  2.3999999E-01;1250;  0.0000000E+00;  0.0000000E+00;  0.0000000E+00;  1.0005823E+03;  1.0000000E-01;  4.8245551E+02;0;  0.0000000E+00;  0.0000000E+00;  0.0000000E+00;0;  1.7078219E-03;  4.0000000E+04;  0.0000000E+00;  0.0000000E+00;  4.0000000E+04;  0.0000000E+00;  4.0000000E+04;  1.7614361E-03;  0.0000000E+00; -5.3614243E-05;  1.0039631E+03;
 -7.0000000E-02;  9.9999998E-03;  2.5000000E-01;1251;  0.0000000E+00;  0.0000000E+00;  0.0000000E+00;  1.0005372E+03;  1.0000000E-01;  4.4512320E+02;0;  0.0000000E+00;  0.0000000E+00;  0.0000000E+00;0;  1.5403457E-03;  4.0000000E+04;  0.0000000E+00;  0.0000000E+00;  4.0000000E+04;  0.0000000E+00;  4.0000000E+04;  1.6307281E-03;  0.0000000E+00; -9.0382448E-05;  7.8698767E+02;
 -7.0000000E-02;  9.9999998E-03;  2.5999999E-01;1252;  0.0000000E+00;  0.0000000E+00;  0.0000000E+00;  1.0005092E+03;  1.0000000E-01;  4.2191400E+02;0;  0.0000000E+00;  0.0000000E+00;  0.0000000E+00;0;  1.3465988E-03;  4.0000000E+04;  0.0000000E+00;  0.0000000E+00;  4.0000000E+04;  0.0000000E+00;  4.0000000E+04;  1.4671914E-03;  0.0000000E+00; -1.2059257E-04;  5.2676233E+02;
 -7.0000000E-02;  9.9999998E-03;  2.7000001E-01;1253;  0.0000000E+00;  0.0000000E+00;  0.0000000E+00;  1.0004818E+03;  1.0000000E-01;  3.9909982E+02;0;  0.0000000E+00;  0.0000000E+00;  0.0000000E+00;0;  1.1370474E-03;  4.0000000E+04;  0.0000000E+00;  0.0000000E+00;  4.0000000E+04;  0.0000000E+00;  4.0000000E+04;  1.2791877E-03;  0.0000000E+00; -1.4214031E-04;  2.5609460E+02;
 -7.0000000E-02;  9.9999998E-03;  2.8000000E-01;1254;  0.0000000E+00;  0.0000000E+00;  0.0000000E+00;  1.0004540E+03;  1.0000000E-01;  3.7618689E+02;0;  0.0000000E+00;  0.0000000E+00;  0.0000000E+00;0;  9.2389033E-04;  4.0000000E+04;  0.0000000E+00;  0.0000000E+00;  4.0000000E+04;  0.0000000E+00;  4.0000000E+04;  1.0777627E-03;  0.0000000E+00; -1.5387237E-04;  1.4943848E+02;
 -7.0000000E-02;  9.9999998E-03;  2.8999999E-01;1255;  0.0000000E+00;  0.0000000E+00;  0.0000000E+00;  1.0004291E+03;  1.0000000E-01;  3.5554550E+02;0;  0.0000000E+00;  0.0000000E+00;  0.0000000E+00;0;  7.1932853E-04;  4.0000000E+04;  0.0000000E+00;  0.0000000E+00;  4.0000000E+04;  0.0000000E+00;  4.0000000E+04;  8.7504275E-04;  0.0000000E+00; -1.5571419E-04;  3.5446808E+02;
 -7.0000000E-02;  9.9999998E-03;  3.0000001E-01;1256;  0.0000000E+00;  0.0000000E+00;  0.0000000E+00;  1.0003932E+03;  1.0000000E-01;  3.2581793E+02;0;  0.0000000E+00;  0.0000000E+00;  0.0000000E+00;0;  5.3383928E-04;  4.0000000E+04;  0.0000000E+00;  0.0000000E+00;  4.0000000E+04;  0.0000000E+00;  4.0000000E+04;  6.8250170E-04;  0.0000000E+00; -1.4866244E-04;  5.5175500E+02;
 -7.0000000E-02;  9.9999998E-03;  3.1000000E-01;1257;  0.0000000E+00;  0.0000000E+00;  0.0000000E+00;  1.0003582E+03;  1.0000000E-01;  2.9678174E+02;0;  0.0000000E+00;  0.0000000E+00;  0.0000000E+00;0;  3.7481211E-04;  4.0000000E+04;  0.0000000E+00;  0.0000000E+00;  4.0000000E+04;  0.0000000E+00;  4.0000000E+04;  5.0950987E-04;  0.0000000E+00; -1.3469778E-04;  6.8796466E+02;
 -7.0000000E-02;  9.9999998E-03;  3.1999999E-01;1258;  0.0000000E+00;  0.0000000E+00;  0.0000000E+00;  1.0003236E+03;  1.0000000E-01;  2.6814056E+02;0;  0.0000000E+00;  0.0000000E+00;  0.0000000E+00;0;  2.4600074E-04;  4.0000000E+04;  0.0000000E+00;  0.0000000E+00;  4.0000000E+04;  0.0000000E+00;  4.0000000E+04;  3.6238899E-04;  0.0000000E+00; -1.1638826E-04;  7.5511945E+02;
 -7.0000000E-02;  9.9999998E-03;  3.3000001E-01;1259;  0.0000000E+00;  0.0000000E+00;  0.0000000E+00;  1.0002559E+03;  1.0000000E-01;  2.1204338E+02;0;  0.0000000E+00;  0.0000000E+00;  0.0000000E+00;0;  1.4776830E-04;  4.0000000E+04;  0.0000000E+00;  0.0000000E+00;  4.0000000E+04;  0.0000000E+00;  4.0000000E+04;  2.4407187E-04;  0.0000000E+00; -9.6303571E-05;  7.5825165E+02;
 -7.0000000E-02;  9.9999998E-03;  3.4000000E-01;1260;  0.0000000E+00;  0.0000000E+00;  0.0000000E+00;  1.0002136E+03;  1.0000000E-01;  1.7688388E+02;0;  0.0000000E+00;  0.0000000E+00;  0.0000000E+00;0;  7.7779136E-05;  4.0000000E+04;  0.0000000E+00;  0.0000000E+00;  4.0000000E+04;  0.0000000E+00;  4.0000000E+04;  1.5432984E-04;  0.0000000E+00; -7.6550707E-05;  7.0947742E+02;
 -7.0000000E-02;  9.9999998E-03;  3.4999999E-01;1261;  0.0000000E+00;  0.0000000E+00;  0.0000000E+00;  1.0001500E+03;  1.0000000E-01;  1.2424340E+02;0;  0.0000000E+00;  0.0000000E+00;  0.0000000E+00;0;  3.1881475E-05;  4.0000000E+04;  0.0000000E+00;  0.0000000E+00;  4.0000000E+04;  0.0000000E+00;  4.0000000E+04;  9.0443078E-05;  0.0000000E+00; -5.8561604E-05;  6.2386194E+02;
 -7.0000000E-02;  9.9999998E-03;  3.6000001E-01;1262;  0.0000000E+00;  0.0000000E+00;  0.0000000E+00;  1.0000938E+03;  1.0000000E-01;  7.7726196E+01;0;  0.0000000E+00;  0.0000000E+00;  0.0000000E+00;0;  4.9997507E-06;  4.0000000E+04;  0.0000000E+00;  0.0000000E+00;  4.0000000E+04;  0.0000000E+00;  4.0000000E+04;  4.8105037E-05;  0.0000000E+00; -4.3105287E-05;  5.1647400E+02;
 -7.0000000E-02;  9.9999998E-03;  3.7000000E-01;1263;  0.0000000E+00;  0.0000000E+00;  0.0000000E+00;  1.0000927E+03;  1.0000000E-01;  7.6837334E+01;0;  0.0000000E+00;  0.0000000E+00;  0.0000000E+00;0; -8.0838981E-06;  4.0000000E+04;  0.0000000E+00;  0.0000000E+00;  4.0000000E+04;  0.0000000E+00;  4.0000000E+04;  2.2344726E-05;  0.0000000E+00; -3.0428624E-05;  4.0087509E+02;
 -7.0000000E-02;  9.9999998E-03;  3.8000000E-01;1264;  0.0000000E+00;  0.0000000E+00;  0.0000000E+00;  1.0000561E+03;  1.0000000E-01;  4.6517204E+01;0;  0.0000000E+00;  0.0000000E+00;  0.0000000E+00;0; -1.2132979E-05;  4.0000000E+04;  0.0000000E+00;  0.0000000E+00;  4.0000000E+04;  0.0000000E+00;  4.0000000E+04;  8.3031191E-06;  0.0000000E+00; -2.0436099E-05;  2.8853064E+02;
 -7.0000000E-02;  9.9999998E-03;  3.8999999E-01;1265;  0.0000000E+00;  0.0000000E+00;  0.0000000E+00;  1.0000443E+03;  1.0000000E-01;  3.6739700E+01;0;  0.0000000E+00;  0.0000000E+00;  0.0000000E+00;0; -1.1071607E-05;  4.0000000E+04;  0.0000000E+00;  0.0000000E+00;  4.0000000E+04;  0.0000000E+00;  4.0000000E+04;  1.7802664E-06;  0.0000000E+00; -1.2851874E-05;  1.8874715E+02;
 -7.0000000E-02;  9.9999998E-03;  4.0000001E-01;1266;  0.0000000E+00;  0.0000000E+00;  0.0000000E+00;  1.0000000E+03;  1.0000000E-01;  0.0000000E+00;0;  0.0000000E+00;  0.0000000E+00;  0.0000000E+00;0; -7.8421208E-06;  4.0000000E+04;  0.0000000E+00;  0.0000000E+00;  4.0000000E+04;  0.0000000E+00;  4.0000000E+04; -4.9475028E-07;  0.0000000E+00; -7.3473707E-06;  1.0850244E+02;
 -5.9999999E-02;  9.9999998E-03;  2.3999999E-01;1341;  0.0000000E+00;  0.0000000E+00;  0.0000000E+00;  1.0011514E+03;  1.0000000E-01;  9.5394830E+02;0;  0.0000000E+00;  0.0000000E+00;  0.0000000E+00;0;  1.7264603E-03;  4.0000000E+04;  0.0000000E+00;  0.0000000E+00;  4.0000000E+04;  0.0000000E+00;  4.0000000E+04;  1.8021429E-03;  0.0000000E+00; -7.5682619E-05;  1.3457563E+03;
 -5.9999999E-02;  9.9999998E-03;  2.5000000E-01;1342;  0.0000000E+00;  0.0000000E+00;  0.0000000E+00;  1.0010630E+03;  1.0000000E-01;  8.8066644E+02;0;  0.0000000E+00;  0.0000000E+00;  0.0000000E+00;0;  1.5537357E-03;  4.0000000E+04;  0.0000000E+00;  0.0000000E+00;  4.0000000E+04;  0.0000000E+00;  4.0000000E+04;  1.6802897E-03;  0.0000000E+00; -1.2655403E-04;  1.0617125E+03;
 -5.9999999E-02;  9.9999998E-03;  2.5999999E-01;1343;  0.0000000E+00;  0.0000000E+00;  0.0000000E+00;  1.0009897E+03;  1.0000000E-01;  8.1992743E+02;0;  0.0000000E+00;  0.0000000E+00;  0.0000000E+00;0;  1.3498985E-03;  4.0000000E+04;  0.0000000E+00;  0.0000000E+00;  4.0000000E+04;  0.0000000E+00;  4.0000000E+04;  1.5185162E-03;  0.0000000E+00; -1.6861768E-04;  7.1776715E+02;
 -5.9999999E-02;  9.9999998E-03;  2.7000001E-01;1344;  0.0000000E+00;  0.0000000E+00;  0.0000000E+00;  1.0009178E+03;  1.0000000E-01;  7.6037354E+02;0;  0.0000000E+00;  0.0000000E+00;  0.0000000E+00;0;  1.1272521E-03;  4.0000000E+04;  0.0000000E+00;  0.0000000E+00;  4.0000000E+04;  0.0000000E+00;  4.0000000E+04;  1.3261572E-03;  0.0000000E+00; -1.9890517E-04;  3.6001404E+02;
 -5.9999999E-02;  9.9999998E-03;  2.8000000E-01;1345;  0.0000000E+00;  0.0000000E+00;  0.0000000E+00;  1.0008541E+03;  1.0000000E-01;  7.0753552E+02;0;  0.0000000E+00;  0.0000000E+00;  0.0000000E+00;0;  9.0034475E-04;  4.0000000E+04;  0.0000000E+00;  0.0000000E+00;  4.0000000E+04;  0.0000000E+00;  4.0000000E+04;  1.1160428E-03;  0.0000000E+00; -2.1569808E-04;  2.2009865E+02;
 -5.9999999E-02;  9.9999998E-03;  2.8999999E-01;1346;  0.0000000E+00;  0.0000000E+00;  0.0000000E+00;  1.0007802E+03;  1.0000000E-01;  6.4630273E+02;0;  0.0000000E+00;  0.0000000E+00;  0.0000000E+00;0;  6.8372505E-04;  4.0000000E+04;  0.0000000E+00;  0.0000000E+00;  4.0000000E+04;  0.0000000E+00;  4.0000000E+04;  9.0246293E-04;  0.0000000E+00; -2.1873789E-04;  4.8859021E+02;
 -5.9999999E-02;  9.9999998E-03;  3.0000001E-01;1347;  0.0000000E+00;  0.0000000E+00;  0.0000000E+00;  1.0007027E+03;  1.0000000E-01;  5.8220575E+02;0;  0.0000000E+00;  0.0000000E+00;  0.0000000E+00;0;  4.8968795E-04;  4.0000000E+04;  0.0000000E+00;  0.0000000E+00;  4.0000000E+04;  0.0000000E+00;  4.0000000E+04;  6.9895491E-04;  0.0000000E+00; -2.0926696E-04;  7.5779297E+02;
 -5.9999999E-02;  9.9999998E-03;  3.1000000E-01;1348;  0.0000000E+00;  0.0000000E+00;  0.0000000E+00;  1.0006187E+03;  1.0000000E-01;  5.1257812E+02;0;  0.0000000E+00;  0.0000000E+00;  0.0000000E+00;0;  3.2648060E-04;  4.0000000E+04;  0.0000000E+00;  0.0000000E+00;  4.0000000E+04;  0.0000000E+00;  4.0000000E+04;  5.1643653E-04;  0.0000000E+00; -1.8995591E-04;  9.4778204E+02;
 -5.9999999E-02;  9.9999998E-03;  3.1999999E-01;1349;  0.0000000E+00;  0.0000000E+00;  0.0000000E+00;  1.0005309E+03;  1.0000000E-01;  4.3988879E+02;0;  0.0000000E+00;  0.0000000E+00;  0.0000000E+00;0;  1.9770855E-04;  4.0000000E+04;  0.0000000E+00;  0.0000000E+00;  4.0000000E+04;  0.0000000E+00;  4.0000000E+04;  3.6207939E-04;  0.0000000E+00; -1.6437084E-04;  1.0459242E+03;
 -5.9999999E-02;  9.9999998E-03;  3.3000001E-01;1350;  0.0000000E+00;  0.0000000E+00;  0.0000000E+00;  1.0004478E+03;  1.0000000E-01;  3.7105124E+02;0;  0.0000000E+00;  0.0000000E+00;  0.0000000E+00;0;  1.0287248E-04;  4.0000000E+04;  0.0000000E+00;  0.0000000E+00;  4.0000000E+04;  0.0000000E+00;  4.0000000E+04;  2.3901460E-04;  0.0000000E+00; -1.3614212E-04;  1.0581925E+03;
 -5.9999999E-02;  9.9999998E-03;  3.4000000E-01;1351;  0.0000000E+00;  0.0000000E+00;  0.0000000E+00;  1.0003553E+03;  1.0000000E-01;  2.9431265E+02;0;  0.0000000E+00;  0.0000000E+00;  0.0000000E+00;0;  3.8471684E-05;  4.0000000E+04;  0.0000000E+00;  0.0000000E+00;  4.0000000E+04;  0.0000000E+00;  4.0000000E+04;  1.4675807E-04;  0.0000000E+00; -1.0828639E-04;  1.0002748E+03;
 -5.9999999E-02;  9.9999998E-03;  3.4999999E-01;1352;  0.0000000E+00;  0.0000000E+00;  0.0000000E+00;  1.0002805E+03;  1.0000000E-01;  2.3238849E+02;0;  0.0000000E+00;  0.0000000E+00;  0.0000000E+00;0; -7.7565346E-07;  4.0000000E+04;  0.0000000E+00;  0.0000000E+00;  4.0000000E+04;  0.0000000E+00;  4.0000000E+04;  8.2106257E-05;  0.0000000E+00; -8.2881910E-05;  8.9163837E+02;
 -5.9999999E-02;  9.9999998E-03;  3.6000001E-01;1353;  0.0000000E+00;  0.0000000E+00;  0.0000000E+00;  1.0001920E+03;  1.0000000E-01;  1.5910661E+02;0;  0.0000000E+00;  0.0000000E+00;  0.0000000E+00;0; -2.0856034E-05;  4.0000000E+04;  0.0000000E+00;  0.0000000E+00;  4.0000000E+04;  0.0000000E+00;  4.0000000E+04;  4.0210918E-05;  0.0000000E+00; -6.1066952E-05;  7.5166687E+02;
 -5.9999999E-02;  9.9999998E-03;  3.7000000E-01;1354;  0.0000000E+00;  0.0000000E+00;  0.0000000E+00;  1.0001255E+03;  1.0000000E-01;  1.0399706E+02;0;  0.0000000E+00;  0.0000000E+00;  0.0000000E+00;0; -2.7619071E-05;  4.0000000E+04;  0.0000000E+00;  0.0000000E+00;  4.0000000E+04;  0.0000000E+00;  4.0000000E+04;  1.5606443E-05;  0.0000000E+00; -4.3225515E-05;  5.9764301E+02;
 -5.9999999E-02;  9.9999998E-03;  3.8000000E-01;1355;  0.0000000E+00;  0.0000000E+00;  0.0000000E+00;  1.0000936E+03;  1.0000000E-01;  7.7528671E+01;0;  0.0000000E+00;  0.0000000E+00;  0.0000000E+00;0; -2.6195543E-05;  4.0000000E+04;  0.0000000E+00;  0.0000000E+00;  4.0000000E+04;  0.0000000E+00;  4.0000000E+04;  3.0348119E-06;  0.0000000E+00; -2.9230356E-05;  4.4422562E+02;
 -5.9999999E-02;  9.9999998E-03;  3.8999999E-01;1356;  0.0000000E+00;  0.0000000E+00;  0.0000000E+00;  1.0000620E+03;  1.0000000E-01;  5.1356571E+01;0;  0.0000000E+00;  0.0000000E+00;  0.0000000E+00;0; -2.0665477E-05;  4.0000000E+04;  0.0000000E+00;  0.0000000E+00;  4.0000000E+04;  0.0000000E+00;  4.0000000E+04; -1.9975475E-06;  0.0000000E+00; -1.8667930E-05;  3.0359677E+02;
 -5.9999999E-02;  9.9999998E-03;  4.0000001E-01;1357;  0.0000000E+00;  0.0000000E+00;  0.0000000E+00;  1.0000315E+03;  1.0000000E-01;  2.6073338E+01;0;  0.0000000E+00;  0.0000000E+00;  0.0000000E+00;0; -1.3971961E-05;  4.0000000E+04;  0.0000000E+00;  0.0000000E+00;  4.0000000E+04;  0.0000000E+00;  4.0000000E+04; -2.9539558E-06;  0.0000000E+00; -1.1018005E-05;  1.8554857E+02;
 -5.0000001E-02;  9.9999998E-03;  2.3999999E-01;1432;  0.0000000E+00;  0.0000000E+00;  0.0000000E+00;  1.0019727E+03;  1.0000000E-01;  1.6343241E+03;0;  0.0000000E+00;  0.0000000E+00;  0.0000000E+00;0;  1.5165840E-03;  4.0000000E+04;  0.0000000E+00;  0.0000000E+00;  4.0000000E+04;  0.0000000E+00;  4.0000000E+04;  1.6178398E-03;  0.0000000E+00; -1.0125583E-04;  1.7298221E+03;
 -5.0000001E-02;  9.9999998E-03;  2.5000000E-01;1433;  0.0000000E+00;  0.0000000E+00;  0.0000000E+00;  1.0018248E+03;  1.0000000E-01;  1.5117598E+03;0;  0.0000000E+00;  0.0000000E+00;  0.0000000E+00;0;  1.3576675E-03;  4.0000000E+04;  0.0000000E+00;  0.0000000E+00;  4.0000000E+04;  0.0000000E+00;  4.0000000E+04;  1.5267250E-03;  0.0000000E+00; -1.6905750E-04;  1.3735110E+03;
 -5.0000001E-02;  9.9999998E-03;  2.5999999E-01;1434;  0.0000000E+00;  0.0000000E+00;  0.0000000E+00;  1.0016809E+03;  1.0000000E-01;  1.3925532E+03;0;  0.0000000E+00;  0.0000000E+00;  0.0000000E+00;0;  1.1627476E-03;  4.0000000E+04;  0.0000000E+00;  0.0000000E+00;  4.0000000E+04;  0.0000000E+00;  4.0000000E+04;  1.3883148E-03;  0.0000000E+00; -2.2556719E-04;  9.3551416E+02;
 -5.0000001E-02;  9.9999998E-03;  2.7000001E-01;1435;  0.0000000E+00;  0.0000000E+00;  0.0000000E+00;  1.0015493E+03;  1.0000000E-01;  1.2836180E+03;0;  0.0000000E+00;  0.0000000E+00;  0.0000000E+00;0;  9.4594614E-04;  4.0000000E+04;  0.0000000E+00;  0.0000000E+00;  4.0000000E+04;  0.0000000E+00;  4.0000000E+04;  1.2126551E-03;  0.0000000E+00; -2.6670896E-04;  4.7597025E+02;
 -5.0000001E-02;  9.9999998E-03;  2.8000000E-01;1436;  0.0000000E+00;  0.0000000E+00;  0.0000000E+00;  1.0014158E+03;  1.0000000E-01;  1.1730039E+03;0;  0.0000000E+00;  0.0000000E+00;  0.0000000E+00;0;  7.2428840E-04;  4.0000000E+04;  0.0000000E+00;  0.0000000E+00;  4.0000000E+04;  0.0000000E+00;  4.0000000E+04;  1.0142775E-03;  0.0000000E+00; -2.8998908E-04;  2.9419711E+02;
 -5.0000001E-02;  9.9999998E-03;  2.8999999E-01;1437;  0.0000000E+00;  0.0000000E+00;  0.0000000E+00;  1.0012860E+03;  1.0000000E-01;  1.0654513E+03;0;  0.0000000E+00;  0.0000000E+00;  0.0000000E+00;0;  5.1482976E-04;  4.0000000E+04;  0.0000000E+00;  0.0000000E+00;  4.0000000E+04;  0.0000000E+00;  4.0000000E+04;  8.0965296E-04;  0.0000000E+00; -2.9482317E-04;  6.4105200E+02;
 -5.0000001E-02;  9.9999998E-03;  3.0000001E-01;1438;  0.0000000E+00;  0.0000000E+00;  0.0000000E+00;  1.0011478E+03;  1.0000000E-01;  9.5098547E+02;0;  0.0000000E+00;  0.0000000E+00;  0.0000000E+00;0;  3.3166251E-04;  4.0000000E+04;  0.0000000E+00;  0.0000000E+00;  4.0000000E+04;  0.0000000E+00;  4.0000000E+04;  6.1432825E-04;  0.0000000E+00; -2.8266574E-04;  9.9488788E+02;
 -5.0000001E-02;  9.9999998E-03;  3.1000000E-01;1439;  0.0000000E+00;  0.0000000E+00;  0.0000000E+00;  1.0009966E+03;  1.0000000E-01;  8.2565564E+02;0;  0.0000000E+00;  0.0000000E+00;  0.0000000E+00;0;  1.8354261E-04;  4.0000000E+04;  0.0000000E+00;  0.0000000E+00;  4.0000000E+04;  0.0000000E+00;  4.0000000E+04;  4.4052908E-04;  0.0000000E+00; -2.5698647E-04;  1.2471798E+03;
 -5.0000001E-02;  9.9999998E-03;  3.1999999E-01;1440;  0.0000000E+00;  0.0000000E+00;  0.0000000E+00;  1.0008299E+03;  1.0000000E-01;  6.8758551E+02;0;  0.0000000E+00;  0.0000000E+00;  0.0000000E+00;0;  7.3273812E-05;  4.0000000E+04;  0.0000000E+00;  0.0000000E+00;  4.0000000E+04;  0.0000000E+00;  4.0000000E+04;  2.9584888E-04;  0.0000000E+00; -2.2257506E-04;  1.3807831E+03;
 -5.0000001E-02;  9.9999998E-03;  3.3000001E-01;1441;  0.0000000E+00;  0.0000000E+00;  0.0000000E+00;  1.0006881E+03;  1.0000000E-01;  5.7005792E+02;0;  0.0000000E+00;  0.0000000E+00;  0.0000000E+00;0; -1.2474484E-06;  4.0000000E+04;  0.0000000E+00;  0.0000000E+00;  4.0000000E+04;  0.0000000E+00;  4.0000000E+04;  1.8313687E-04;  0.0000000E+00; -1.8438432E-04;  1.4035251E+03;
 -5.0000001E-02;  9.9999998E-03;  3.4000000E-01;1442;  0.0000000E+00;  0.0000000E+00;  0.0000000E+00;  1.0005503E+03;  1.0000000E-01;  4.5588834E+02;0;  0.0000000E+00;  0.0000000E+00;  0.0000000E+00;0; -4.5274763E-05;  4.0000000E+04;  0.0000000E+00;  0.0000000E+00;  4.0000000E+04;  0.0000000E+00;  4.0000000E+04;  1.0129083E-04;  0.0000000E+00; -1.4656560E-04;  1.3356917E+03;
 -5.0000001E-02;  9.9999998E-03;  3.4999999E-01;1443;  0.0000000E+00;  0.0000000E+00;  0.0000000E+00;  1.0004268E+03;  1.0000000E-01;  3.5357025E+02;0;  0.0000000E+00;  0.0000000E+00;  0.0000000E+00;0; -6.5536005E-05;  4.0000000E+04;  0.0000000E+00;  0.0000000E+00;  4.0000000E+04;  0.0000000E+00;  4.0000000E+04;  4.6471632E-05;  0.0000000E+00; -1.1200764E-04;  1.2020798E+03;
 -5.0000001E-02;  9.9999998E-03;  3.6000001E-01;1444;  0.0000000E+00;  0.0000000E+00;  0.0000000E+00;  1.0003188E+03;  1.0000000E-01;  2.6419006E+02;0;  0.0000000E+00;  0.0000000E+00;  0.0000000E+00;0; -6.8967995E-05;  4.0000000E+04;  0.0000000E+00;  0.0000000E+00;  4.0000000E+04;  0.0000000E+00;  4.0000000E+04;  1.3356747E-05;  0.0000000E+00; -8.2324739E-05;  1.0268339E+03;
 -5.0000001E-02;  9.9999998E-03;  3.7000000E-01;1445;  0.0000000E+00;  0.0000000E+00;  0.0000000E+00;  1.0002075E+03;  1.0000000E-01;  1.7184698E+02;0;  0.0000000E+00;  0.0000000E+00;  0.0000000E+00;0; -6.1888612E-05;  4.0000000E+04;  0.0000000E+00;  0.0000000E+00;  4.0000000E+04;  0.0000000E+00;  4.0000000E+04; -3.7887798E-06;  0.0000000E+00; -5.8099831E-05;  8.3113220E+02;
 -5.0000001E-02;  9.9999998E-03;  3.8000000E-01;1446;  0.0000000E+00;  0.0000000E+00;  0.0000000E+00;  1.0001434E+03;  1.0000000E-01;  1.1881145E+02;0;  0.0000000E+00;  0.0000000E+00;  0.0000000E+00;0; -4.9511866E-05;  4.0000000E+04;  0.0000000E+00;  0.0000000E+00;  4.0000000E+04;  0.0000000E+00;  4.0000000E+04; -1.0311818E-05;  0.0000000E+00; -3.9200047E-05;  6.3279529E+02;
 -5.0000001E-02;  9.9999998E-03;  3.8999999E-01;1447;  0.0000000E+00;  0.0000000E+00;  0.0000000E+00;  1.0000916E+03;  1.0000000E-01;  7.5849709E+01;0;  0.0000000E+00;  0.0000000E+00;  0.0000000E+00;0; -3.5733960E-05;  4.0000000E+04;  0.0000000E+00;  0.0000000E+00;  4.0000000E+04;  0.0000000E+00;  4.0000000E+04; -1.0666200E-05;  0.0000000E+00; -2.5067760E-05;  4.4676721E+02;
 -5.0000001E-02;  9.9999998E-03;  4.0000001E-01;1448;  0.0000000E+00;  0.0000000E+00;  0.0000000E+00;  1.0000590E+03;  1.0000000E-01;  4.8887505E+01;0;  0.0000000E+00;  0.0000000E+00;  0.0000000E+00;0; -2.3141516E-05;  4.0000000E+04;  0.0000000E+00;  0.0000000E+00;  4.0000000E+04;  0.0000000E+00;  4.0000000E+04; -8.1880426E-06;  0.0000000E+00; -1.4953474E-05;  2.8561621E+02;
 -3.9999999E-02;  9.9999998E-03;  2.3999999E-01;1523;  0.0000000E+00;  0.0000000E+00;  0.0000000E+00;  1.0030717E+03;  1.0000000E-01;  2.5448169E+03;0;  0.0000000E+00;  0.0000000E+00;  0.0000000E+00;0;  1.0113964E-03;  4.0000000E+04;  0.0000000E+00;  0.0000000E+00;  4.0000000E+04;  0.0000000E+00;  4.0000000E+04;  1.1403417E-03;  0.0000000E+00; -1.2894536E-04;  2.1385588E+03;
 -3.9999999E-02;  9.9999998E-03;  2.5000000E-01;1524;  0.0000000E+00;  0.0000000E+00;  0.0000000E+00;  1.0028336E+03;  1.0000000E-01;  2.3475879E+03;0;  0.0000000E+00;  0.0000000E+00;  0.0000000E+00;0;  8.9061237E-04;  4.0000000E+04;  0.0000000E+00;  0.0000000E+00;  4.0000000E+04;  0.0000000E+00;  4.0000000E+04;  1.1071662E-03;  0.0000000E+00; -2.1655379E-04;  1.7092068E+03;
 -3.9999999E-02;  9.9999998E-03;  2.5999999E-01;1525;  0.0000000E+00;  0.0000000E+00;  0.0000000E+00;  1.0026088E+03;  1.0000000E-01;  2.1613215E+03;0;  0.0000000E+00;  0.0000000E+00;  0.0000000E+00;0;  7.2937738E-04;  4.0000000E+04;  0.0000000E+00;  0.0000000E+00;  4.0000000E+04;  0.0000000E+00;  4.0000000E+04;  1.0196440E-03;  0.0000000E+00; -2.9026662E-04;  1.1696344E+03;
 -3.9999999E-02;  9.9999998E-03;  2.7000001E-01;1526;  0.0000000E+00;  0.0000000E+00;  0.0000000E+00;  1.0023897E+03;  1.0000000E-01;  1.9797959E+03;0;  0.0000000E+00;  0.0000000E+00;  0.0000000E+00;0;  5.4347410E-04;  4.0000000E+04;  0.0000000E+00;  0.0000000E+00;  4.0000000E+04;  0.0000000E+00;  4.0000000E+04;  8.8809000E-04;  0.0000000E+00; -3.4461592E-04;  5.9266522E+02;
 -3.9999999E-02;  9.9999998E-03;  2.8000000E-01;1527;  0.0000000E+00;  0.0000000E+00;  0.0000000E+00;  1.0021810E+03;  1.0000000E-01;  1.8069612E+03;0;  0.0000000E+00;  0.0000000E+00;  0.0000000E+00;0;  3.5240952E-04;  4.0000000E+04;  0.0000000E+00;  0.0000000E+00;  4.0000000E+04;  0.0000000E+00;  4.0000000E+04;  7.2848907E-04;  0.0000000E+00; -3.7607955E-04;  3.5705240E+02;
 -3.9999999E-02;  9.9999998E-03;  2.8999999E-01;1528;  0.0000000E+00;  0.0000000E+00;  0.0000000E+00;  1.0019531E+03;  1.0000000E-01;  1.6180283E+03;0;  0.0000000E+00;  0.0000000E+00;  0.0000000E+00;0;  1.7580116E-04;  4.0000000E+04;  0.0000000E+00;  0.0000000E+00;  4.0000000E+04;  0.0000000E+00;  4.0000000E+04;  5.5935216E-04;  0.0000000E+00; -3.8355100E-04;  8.0272498E+02;
 -3.9999999E-02;  9.9999998E-03;  3.0000001E-01;1529;  0.0000000E+00;  0.0000000E+00;  0.0000000E+00;  1.0017287E+03;  1.0000000E-01;  1.4321570E+03;0;  0.0000000E+00;  0.0000000E+00;  0.0000000E+00;0;  2.9387738E-05;  4.0000000E+04;  0.0000000E+00;  0.0000000E+00;  4.0000000E+04;  0.0000000E+00;  4.0000000E+04;  3.9800111E-04;  0.0000000E+00; -3.6861337E-04;  1.2534503E+03;
 -3.9999999E-02;  9.9999998E-03;  3.1000000E-01;1530;  0.0000000E+00;  0.0000000E+00;  0.0000000E+00;  1.0014844E+03;  1.0000000E-01;  1.2297924E+03;0;  0.0000000E+00;  0.0000000E+00;  0.0000000E+00;0; -7.8169018E-05;  4.0000000E+04;  0.0000000E+00;  0.0000000E+00;  4.0000000E+04;  0.0000000E+00;  4.0000000E+04;  2.5746817E-04;  0.0000000E+00; -3.3563719E-04;  1.5743214E+03;
 -3.9999999E-02;  9.9999998E-03;  3.1999999E-01;1531;  0.0000000E+00;  0.0000000E+00;  0.0000000E+00;  1.0012499E+03;  1.0000000E-01;  1.0355262E+03;0;  0.0000000E+00;  0.0000000E+00;  0.0000000E+00;0; -1.4586301E-04;  4.0000000E+04;  0.0000000E+00;  0.0000000E+00;  4.0000000E+04;  0.0000000E+00;  4.0000000E+04;  1.4503370E-04;  0.0000000E+00; -2.9089671E-04;  1.7452800E+03;
 -3.9999999E-02;  9.9999998E-03;  3.3000001E-01;1532;  0.0000000E+00;  0.0000000E+00;  0.0000000E+00;  1.0010355E+03;  1.0000000E-01;  8.5795105E+02;0;  0.0000000E+00;  0.0000000E+00;  0.0000000E+00;0; -1.7841037E-04;  4.0000000E+04;  0.0000000E+00;  0.0000000E+00;  4.0000000E+04;  0.0000000E+00;  4.0000000E+04;  6.2548977E-05;  0.0000000E+00; -2.4095934E-04;  1.7777900E+03;
 -3.9999999E-02;  9.9999998E-03;  3.4000000E-01;1533;  0.0000000E+00;  0.0000000E+00;  0.0000000E+00;  1.0008018E+03;  1.0000000E-01;  6.6427753E+02;0;  0.0000000E+00;  0.0000000E+00;  0.0000000E+00;0; -1.8349668E-04;  4.0000000E+04;  0.0000000E+00;  0.0000000E+00;  4.0000000E+04;  0.0000000E+00;  4.0000000E+04;  7.8428902E-06;  0.0000000E+00; -1.9133957E-04;  1.6983855E+03;
 -3.9999999E-02;  9.9999998E-03;  3.4999999E-01;1534;  0.0000000E+00;  0.0000000E+00;  0.0000000E+00;  1.0006126E+03;  1.0000000E-01;  5.0754120E+02;0;  0.0000000E+00;  0.0000000E+00;  0.0000000E+00;0; -1.6953354E-04;  4.0000000E+04;  0.0000000E+00;  0.0000000E+00;  4.0000000E+04;  0.0000000E+00;  4.0000000E+04; -2.3648958E-05;  0.0000000E+00; -1.4588458E-04;  1.5380903E+03;
 -3.9999999E-02;  9.9999998E-03;  3.6000001E-01;1535;  0.0000000E+00;  0.0000000E+00;  0.0000000E+00;  1.0004691E+03;  1.0000000E-01;  3.8863098E+02;0;  0.0000000E+00;  0.0000000E+00;  0.0000000E+00;0; -1.4428949E-04;  4.0000000E+04;  0.0000000E+00;  0.0000000E+00;  4.0000000E+04;  0.0000000E+00;  4.0000000E+04; -3.7510679E-05;  0.0000000E+00; -1.0677881E-04;  1.3261483E+03;
 -3.9999999E-02;  9.9999998E-03;  3.7000000E-01;1536;  0.0000000E+00;  0.0000000E+00;  0.0000000E+00;  1.0003290E+03;  1.0000000E-01;  2.7258487E+02;0;  0.0000000E+00;  0.0000000E+00;  0.0000000E+00;0; -1.1421551E-04;  4.0000000E+04;  0.0000000E+00;  0.0000000E+00;  4.0000000E+04;  0.0000000E+00;  4.0000000E+04; -3.9346123E-05;  0.0000000E+00; -7.4869386E-05;  1.0875934E+03;
 -3.9999999E-02;  9.9999998E-03;  3.8000000E-01;1537;  0.0000000E+00;  0.0000000E+00;  0.0000000E+00;  1.0002114E+03;  1.0000000E-01;  1.7520493E+02;0;  0.0000000E+00;  0.0000000E+00;  0.0000000E+00;0; -8.4187945E-05;  4.0000000E+04;  0.0000000E+00;  0.0000000E+00;  4.0000000E+04;  0.0000000E+00;  4.0000000E+04; -3.4122724E-05;  0.0000000E+00; -5.0065220E-05;  8.4307025E+02;
 -3.9999999E-02;  9.9999998E-03;  3.8999999E-01;1538;  0.0000000E+00;  0.0000000E+00;  0.0000000E+00;  1.0001362E+03;  1.0000000E-01;  1.1278693E+02;0;  0.0000000E+00;  0.0000000E+00;  0.0000000E+00;0; -5.7488985E-05;  4.0000000E+04;  0.0000000E+00;  0.0000000E+00;  4.0000000E+04;  0.0000000E+00;  4.0000000E+04; -2.5800107E-05;  0.0000000E+00; -3.1688880E-05;  6.0994000E+02;
 -3.9999999E-02;  9.9999998E-03;  4.0000001E-01;1539;  0.0000000E+00;  0.0000000E+00;  0.0000000E+00;  1.0000756E+03;  1.0000000E-01;  6.2615513E+01;0;  0.0000000E+00;  0.0000000E+00;  0.0000000E+00;0; -3.5939654E-05;  4.0000000E+04;  0.0000000E+00;  0.0000000E+00;  4.0000000E+04;  0.0000000E+00;  4.0000000E+04; -1.7186729E-05;  0.0000000E+00; -1.8752926E-05;  4.0323822E+02;
 -2.9999999E-02;  9.9999998E-03;  2.3999999E-01;1614;  0.0000000E+00;  0.0000000E+00;  0.0000000E+00;  1.0044490E+03;  1.0000000E-01;  3.6859204E+03;0;  0.0000000E+00;  0.0000000E+00;  0.0000000E+00;0;  1.5793889E-04;  4.0000000E+04;  0.0000000E+00;  0.0000000E+00;  4.0000000E+04;  0.0000000E+00;  4.0000000E+04;  3.1443144E-04;  0.0000000E+00; -1.5649255E-04;  2.5486016E+03;
 -2.9999999E-02;  9.9999998E-03;  2.5000000E-01;1615;  0.0000000E+00;  0.0000000E+00;  0.0000000E+00;  1.0041042E+03;  1.0000000E-01;  3.4002988E+03;0;  0.0000000E+00;  0.0000000E+00;  0.0000000E+00;0;  1.0382975E-04;  4.0000000E+04;  0.0000000E+00;  0.0000000E+00;  4.0000000E+04;  0.0000000E+00;  4.0000000E+04;  3.7054875E-04;  0.0000000E+00; -2.6671900E-04;  2.0524517E+03;
 -2.9999999E-02;  9.9999998E-03;  2.5999999E-01;1616;  0.0000000E+00;  0.0000000E+00;  0.0000000E+00;  1.0037782E+03;  1.0000000E-01;  3.1301831E+03;0;  0.0000000E+00;  0.0000000E+00;  0.0000000E+00;0;  6.1376195E-06;  4.0000000E+04;  0.0000000E+00;  0.0000000E+00;  4.0000000E+04;  0.0000000E+00;  4.0000000E+04;  3.6661889E-04;  0.0000000E+00; -3.6048127E-04;  1.4096119E+03;
 -2.9999999E-02;  9.9999998E-03;  2.7000001E-01;1617;  0.0000000E+00;  0.0000000E+00;  0.0000000E+00;  1.0034560E+03;  1.0000000E-01;  2.8632278E+03;0;  0.0000000E+00;  0.0000000E+00;  0.0000000E+00;0; -1.1809514E-04;  4.0000000E+04;  0.0000000E+00;  0.0000000E+00;  4.0000000E+04;  0.0000000E+00;  4.0000000E+04;  3.1250785E-04;  0.0000000E+00; -4.3060299E-04;  7.0201636E+02;
 -2.9999999E-02;  9.9999998E-03;  2.8000000E-01;1618;  0.0000000E+00;  0.0000000E+00;  0.0000000E+00;  1.0031301E+03;  1.0000000E-01;  2.5932107E+03;0;  0.0000000E+00;  0.0000000E+00;  0.0000000E+00;0; -2.4717051E-04;  4.0000000E+04;  0.0000000E+00;  0.0000000E+00;  4.0000000E+04;  0.0000000E+00;  4.0000000E+04;  2.2508341E-04;  0.0000000E+00; -4.7225392E-04;  3.9525470E+02;
 -2.9999999E-02;  9.9999998E-03;  2.8999999E-01;1619;  0.0000000E+00;  0.0000000E+00;  0.0000000E+00;  1.0027986E+03;  1.0000000E-01;  2.3185518E+03;0;  0.0000000E+00;  0.0000000E+00;  0.0000000E+00;0; -3.5909857E-04;  4.0000000E+04;  0.0000000E+00;  0.0000000E+00;  4.0000000E+04;  0.0000000E+00;  4.0000000E+04;  1.2445348E-04;  0.0000000E+00; -4.8355205E-04;  9.6293420E+02;
 -2.9999999E-02;  9.9999998E-03;  3.0000001E-01;1620;  0.0000000E+00;  0.0000000E+00;  0.0000000E+00;  1.0024634E+03;  1.0000000E-01;  2.0408312E+03;0;  0.0000000E+00;  0.0000000E+00;  0.0000000E+00;0; -4.3685743E-04;  4.0000000E+04;  0.0000000E+00;  0.0000000E+00;  4.0000000E+04;  0.0000000E+00;  4.0000000E+04;  2.9183479E-05;  0.0000000E+00; -4.6604092E-04;  1.5200205E+03;
 -2.9999999E-02;  9.9999998E-03;  3.1000000E-01;1621;  0.0000000E+00;  0.0000000E+00;  0.0000000E+00;  1.0021116E+03;  1.0000000E-01;  1.7493826E+03;0;  0.0000000E+00;  0.0000000E+00;  0.0000000E+00;0; -4.7284999E-04;  4.0000000E+04;  0.0000000E+00;  0.0000000E+00;  4.0000000E+04;  0.0000000E+00;  4.0000000E+04; -4.7773774E-05;  0.0000000E+00; -4.2507623E-04;  1.9117795E+03;
 -2.9999999E-02;  9.9999998E-03;  3.1999999E-01;1622;  0.0000000E+00;  0.0000000E+00;  0.0000000E+00;  1.0017661E+03;  1.0000000E-01;  1.4631685E+03;0;  0.0000000E+00;  0.0000000E+00;  0.0000000E+00;0; -4.6932203E-04;  4.0000000E+04;  0.0000000E+00;  0.0000000E+00;  4.0000000E+04;  0.0000000E+00;  4.0000000E+04; -1.0058762E-04;  0.0000000E+00; -3.6873441E-04;  2.1183113E+03;
 -2.9999999E-02;  9.9999998E-03;  3.3000001E-01;1623;  0.0000000E+00;  0.0000000E+00;  0.0000000E+00;  1.0014349E+03;  1.0000000E-01;  1.1888059E+03;0;  0.0000000E+00;  0.0000000E+00;  0.0000000E+00;0; -4.3485122E-04;  4.0000000E+04;  0.0000000E+00;  0.0000000E+00;  4.0000000E+04;  0.0000000E+00;  4.0000000E+04; -1.2933821E-04;  0.0000000E+00; -3.0551301E-04;  2.1574219E+03;
 -2.9999999E-02;  9.9999998E-03;  3.4000000E-01;1624;  0.0000000E+00;  0.0000000E+00;  0.0000000E+00;  1.0011323E+03;  1.0000000E-01;  9.3814630E+02;0;  0.0000000E+00;  0.0000000E+00;  0.0000000E+00;0; -3.8015348E-04;  4.0000000E+04;  0.0000000E+00;  0.0000000E+00;  4.0000000E+04;  0.0000000E+00;  4.0000000E+04; -1.3766842E-04;  0.0000000E+00; -2.4248507E-04;  2.0637678E+03;
 -2.9999999E-02;  9.9999998E-03;  3.4999999E-01;1625;  0.0000000E+00;  0.0000000E+00;  0.0000000E+00;  1.0008750E+03;  1.0000000E-01;  7.2491779E+02;0;  0.0000000E+00;  0.0000000E+00;  0.0000000E+00;0; -3.1530482E-04;  4.0000000E+04;  0.0000000E+00;  0.0000000E+00;  4.0000000E+04;  0.0000000E+00;  4.0000000E+04; -1.3074651E-04;  0.0000000E+00; -1.8455830E-04;  1.8754695E+03;
 -2.9999999E-02;  9.9999998E-03;  3.6000001E-01;1626;  0.0000000E+00;  0.0000000E+00;  0.0000000E+00;  1.0006534E+03;  1.0000000E-01;  5.4131799E+02;0;  0.0000000E+00;  0.0000000E+00;  0.0000000E+00;0; -2.4849758E-04;  4.0000000E+04;  0.0000000E+00;  0.0000000E+00;  4.0000000E+04;  0.0000000E+00;  4.0000000E+04; -1.1394544E-04;  0.0000000E+00; -1.3455213E-04;  1.6270076E+03;
 -2.9999999E-02;  9.9999998E-03;  3.7000000E-01;1627;  0.0000000E+00;  0.0000000E+00;  0.0000000E+00;  1.0004673E+03;  1.0000000E-01;  3.8714954E+02;0;  0.0000000E+00;  0.0000000E+00;  0.0000000E+00;0; -1.8574303E-04;  4.0000000E+04;  0.0000000E+00;  0.0000000E+00;  4.0000000E+04;  0.0000000E+00;  4.0000000E+04; -9.2104216E-05;  0.0000000E+00; -9.3638810E-05;  1.3468635E+03;
 -2.9999999E-02;  9.9999998E-03;  3.8000000E-01;1628;  0.0000000E+00;  0.0000000E+00;  0.0000000E+00;  1.0003153E+03;  1.0000000E-01;  2.6122717E+02;0;  0.0000000E+00;  0.0000000E+00;  0.0000000E+00;0; -1.3099264E-04;  4.0000000E+04;  0.0000000E+00;  0.0000000E+00;  4.0000000E+04;  0.0000000E+00;  4.0000000E+04; -6.9157060E-05;  0.0000000E+00; -6.1835584E-05;  1.0580024E+03;
 -2.9999999E-02;  9.9999998E-03;  3.8999999E-01;1629;  0.0000000E+00;  0.0000000E+00;  0.0000000E+00;  1.0002195E+03;  1.0000000E-01;  1.8192078E+02;0;  0.0000000E+00;  0.0000000E+00;  0.0000000E+00;0; -8.6394211E-05;  4.0000000E+04;  0.0000000E+00;  0.0000000E+00;  4.0000000E+04;  0.0000000E+00;  4.0000000E+04; -4.7983809E-05;  0.0000000E+00; -3.8410402E-05;  7.7956720E+02;
 -2.9999999E-02;  9.9999998E-03;  4.0000001E-01;1630;  0.0000000E+00;  0.0000000E+00;  0.0000000E+00;  1.0001212E+03;  1.0000000E-01;  1.0034284E+02;0;  0.0000000E+00;  0.0000000E+00;  0.0000000E+00;0; -5.2571315E-05;  4.0000000E+04;  0.0000000E+00;  0.0000000E+00;  4.0000000E+04;  0.0000000E+00;  4.0000000E+04; -3.0393474E-05;  0.0000000E+00; -2.2177841E-05;  5.2851477E+02;
 -2.0000000E-02;  9.9999998E-03;  2.3999999E-01;1705;  0.0000000E+00;  0.0000000E+00;  0.0000000E+00;  1.0060838E+03;  1.0000000E-01;  5.0403511E+03;0;  0.0000000E+00;  0.0000000E+00;  0.0000000E+00;0; -1.0742015E-03;  4.0000000E+04;  0.0000000E+00;  0.0000000E+00;  4.0000000E+04;  0.0000000E+00;  4.0000000E+04; -8.9356810E-04;  0.0000000E+00; -1.8063348E-04;  2.9322134E+03;
 -2.0000000E-02;  9.9999998E-03;  2.5000000E-01;1706;  0.0000000E+00;  0.0000000E+00;  0.0000000E+00;  1.0056163E+03;  1.0000000E-01;  4.6530044E+03;0;  0.0000000E+00;  0.0000000E+00;  0.0000000E+00;0; -1.0303053E-03;  4.0000000E+04;  0.0000000E+00;  0.0000000E+00;  4.0000000E+04;  0.0000000E+00;  4.0000000E+04; -7.1429822E-04;  0.0000000E+00; -3.1600709E-04;  2.3855547E+03;
 -2.0000000E-02;  9.9999998E-03;  2.5999999E-01;1707;  0.0000000E+00;  0.0000000E+00;  0.0000000E+00;  1.0051641E+03;  1.0000000E-01;  4.2783975E+03;0;  0.0000000E+00;  0.0000000E+00;  0.0000000E+00;0; -1.0304078E-03;  4.0000000E+04;  0.0000000E+00;  0.0000000E+00;  4.0000000E+04;  0.0000000E+00;  4.0000000E+04; -5.9781672E-04;  0.0000000E+00; -4.3259116E-04;  1.6483417E+03;
 -2.0000000E-02;  9.9999998E-03;  2.7000001E-01;1708;  0.0000000E+00;  0.0000000E+00;  0.0000000E+00;  1.0047104E+03;  1.0000000E-01;  3.9025068E+03;0;  0.0000000E+00;  0.0000000E+00;  0.0000000E+00;0; -1.0569540E-03;  4.0000000E+04;  0.0000000E+00;  0.0000000E+00;  4.0000000E+04;  0.0000000E+00;  4.0000000E+04; -5.3580583E-04;  0.0000000E+00; -5.2114826E-04;  8.0659753E+02;
 -2.0000000E-02;  9.9999998E-03;  2.8000000E-01;1709;  0.0000000E+00;  0.0000000E+00;  0.0000000E+00;  1.0042616E+03;  1.0000000E-01;  3.5306655E+03;0;  0.0000000E+00;  0.0000000E+00;  0.0000000E+00;0; -1.0869654E-03;  4.0000000E+04;  0.0000000E+00;  0.0000000E+00;  4.0000000E+04;  0.0000000E+00;  4.0000000E+04; -5.1169272E-04;  0.0000000E+00; -5.7527272E-04;  4.0364294E+02;
 -2.0000000E-02;  9.9999998E-03;  2.8999999E-01;1710;  0.0000000E+00;  0.0000000E+00;  0.0000000E+00;  1.0037999E+03;  1.0000000E-01;  3.1481580E+03;0;  0.0000000E+00;  0.0000000E+00;  0.0000000E+00;0; -1.0968912E-03;  4.0000000E+04;  0.0000000E+00;  0.0000000E+00;  4.0000000E+04;  0.0000000E+00;  4.0000000E+04; -5.0484488E-04;  0.0000000E+00; -5.9204630E-04;  1.1103563E+03;
 -2.0000000E-02;  9.9999998E-03;  3.0000001E-01;1711;  0.0000000E+00;  0.0000000E+00;  0.0000000E+00;  1.0033252E+03;  1.0000000E-01;  2.7548850E+03;0;  0.0000000E+00;  0.0000000E+00;  0.0000000E+00;0; -1.0691547E-03;  4.0000000E+04;  0.0000000E+00;  0.0000000E+00;  4.0000000E+04;  0.0000000E+00;  4.0000000E+04; -4.9650867E-04;  0.0000000E+00; -5.7264604E-04;  1.7768649E+03;
 -2.0000000E-02;  9.9999998E-03;  3.1000000E-01;1712;  0.0000000E+00;  0.0000000E+00;  0.0000000E+00;  1.0028428E+03;  1.0000000E-01;  2.3551926E+03;0;  0.0000000E+00;  0.0000000E+00;  0.0000000E+00;0; -9.9866930E-04;  4.0000000E+04;  0.0000000E+00;  0.0000000E+00;  4.0000000E+04;  0.0000000E+00;  4.0000000E+04; -4.7520996E-04;  0.0000000E+00; -5.2345940E-04;  2.2362681E+03;
 -2.0000000E-02;  9.9999998E-03;  3.1999999E-01;1713;  0.0000000E+00;  0.0000000E+00;  0.0000000E+00;  1.0023804E+03;  1.0000000E-01;  1.9721912E+03;0;  0.0000000E+00;  0.0000000E+00;  0.0000000E+00;0; -8.9290994E-04;  4.0000000E+04;  0.0000000E+00;  0.0000000E+00;  4.0000000E+04;  0.0000000E+00;  4.0000000E+04; -4.3812706E-04;  0.0000000E+00; -4.5478286E-04;  2.4725225E+03;
 -2.0000000E-02;  9.9999998E-03;  3.3000001E-01;1714;  0.0000000E+00;  0.0000000E+00;  0.0000000E+00;  1.0019307E+03;  1.0000000E-01;  1.5995597E+03;0;  0.0000000E+00;  0.0000000E+00;  0.0000000E+00;0; -7.6554925E-04;  4.0000000E+04;  0.0000000E+00;  0.0000000E+00;  4.0000000E+04;  0.0000000E+00;  4.0000000E+04; -3.8822312E-04;  0.0000000E+00; -3.7732610E-04;  2.5129724E+03;
 -2.0000000E-02;  9.9999998E-03;  3.4000000E-01;1715;  0.0000000E+00;  0.0000000E+00;  0.0000000E+00;  1.0015183E+03;  1.0000000E-01;  1.2579397E+03;0;  0.0000000E+00;  0.0000000E+00;  0.0000000E+00;0; -6.3048361E-04;  4.0000000E+04;  0.0000000E+00;  0.0000000E+00;  4.0000000E+04;  0.0000000E+00;  4.0000000E+04; -3.3066949E-04;  0.0000000E+00; -2.9981410E-04;  2.4021592E+03;
 -2.0000000E-02;  9.9999998E-03;  3.4999999E-01;1716;  0.0000000E+00;  0.0000000E+00;  0.0000000E+00;  1.0011721E+03;  1.0000000E-01;  9.7103424E+02;0;  0.0000000E+00;  0.0000000E+00;  0.0000000E+00;0; -4.9892324E-04;  4.0000000E+04;  0.0000000E+00;  0.0000000E+00;  4.0000000E+04;  0.0000000E+00;  4.0000000E+04; -2.7068102E-04;  0.0000000E+00; -2.2824222E-04;  2.1857244E+03;
 -2.0000000E-02;  9.9999998E-03;  3.6000001E-01;1717;  0.0000000E+00;  0.0000000E+00;  0.0000000E+00;  1.0008653E+03;  1.0000000E-01;  7.1691797E+02;0;  0.0000000E+00;  0.0000000E+00;  0.0000000E+00;0; -3.7868478E-04;  4.0000000E+04;  0.0000000E+00;  0.0000000E+00;  4.0000000E+04;  0.0000000E+00;  4.0000000E+04; -2.1258678E-04;  0.0000000E+00; -1.6609801E-04;  1.9029452E+03;
 -2.0000000E-02;  9.9999998E-03;  3.7000000E-01;1718;  0.0000000E+00;  0.0000000E+00;  0.0000000E+00;  1.0006302E+03;  1.0000000E-01;  5.2215808E+02;0;  0.0000000E+00;  0.0000000E+00;  0.0000000E+00;0; -2.7451926E-04;  4.0000000E+04;  0.0000000E+00;  0.0000000E+00;  4.0000000E+04;  0.0000000E+00;  4.0000000E+04; -1.5957902E-04;  0.0000000E+00; -1.1494025E-04;  1.5850775E+03;
 -2.0000000E-02;  9.9999998E-03;  3.8000000E-01;1719;  0.0000000E+00;  0.0000000E+00;  0.0000000E+00;  1.0004166E+03;  1.0000000E-01;  3.4507666E+02;0;  0.0000000E+00;  0.0000000E+00;  0.0000000E+00;0; -1.8873582E-04;  4.0000000E+04;  0.0000000E+00;  0.0000000E+00;  4.0000000E+04;  0.0000000E+00;  4.0000000E+04; -1.1375178E-04;  0.0000000E+00; -7.4984047E-05;  1.2567900E+03;
 -2.0000000E-02;  9.9999998E-03;  3.8999999E-01;1720;  0.0000000E+00;  0.0000000E+00;  0.0000000E+00;  1.0002778E+03;  1.0000000E-01;  2.3011694E+02;0;  0.0000000E+00;  0.0000000E+00;  0.0000000E+00;0; -1.2177872E-04;  4.0000000E+04;  0.0000000E+00;  0.0000000E+00;  4.0000000E+04;  0.0000000E+00;  4.0000000E+04; -7.6231947E-05;  0.0000000E+00; -4.5546778E-05;  9.3836768E+02;
 -2.0000000E-02;  9.9999998E-03;  4.0000001E-01;1721;  0.0000000E+00;  0.0000000E+00;  0.0000000E+00;  1.0001624E+03;  1.0000000E-01;  1.3451471E+02;0;  0.0000000E+00;  0.0000000E+00;  0.0000000E+00;0; -7.2655377E-05;  4.0000000E+04;  0.0000000E+00;  0.0000000E+00;  4.0000000E+04;  0.0000000E+00;  4.0000000E+04; -4.7313581E-05;  0.0000000E+00; -2.5341797E-05;  6.4804596E+02;
 -9.9999998E-03;  9.9999998E-03;  2.3999999E-01;1796;  0.0000000E+00;  0.0000000E+00;  0.0000000E+00;  1.0079161E+03;  1.0000000E-01;  6.5583330E+03;0;  0.0000000E+00;  0.0000000E+00;  0.0000000E+00;0; -2.6860819E-03;  4.0000000E+04;  0.0000000E+00;  0.0000000E+00;  4.0000000E+04;  0.0000000E+00;  4.0000000E+04; -2.4890618E-03;  0.0000000E+00; -1.9702001E-04;  3.2566252E+03;
 -9.9999998E-03;  9.9999998E-03;  2.5000000E-01;1797;  0.0000000E+00;  0.0000000E+00;  0.0000000E+00;  1.0073125E+03;  1.0000000E-01;  6.0582979E+03;0;  0.0000000E+00;  0.0000000E+00;  0.0000000E+00;0; -2.5118547E-03;  4.0000000E+04;  0.0000000E+00;  0.0000000E+00;  4.0000000E+04;  0.0000000E+00;  4.0000000E+04; -2.1523954E-03;  0.0000000E+00; -3.5945943E-04;  2.6877812E+03;
 -9.9999998E-03;  9.9999998E-03;  2.5999999E-01;1798;  0.0000000E+00;  0.0000000E+00;  0.0000000E+00;  1.0067172E+03;  1.0000000E-01;  5.5650771E+03;0;  0.0000000E+00;  0.0000000E+00;  0.0000000E+00;0; -2.3772090E-03;  4.0000000E+04;  0.0000000E+00;  0.0000000E+00;  4.0000000E+04;  0.0000000E+00;  4.0000000E+04; -1.8758873E-03;  0.0000000E+00; -5.0132175E-04;  1.8803407E+03;
 -9.9999998E-03;  9.9999998E-03;  2.7000001E-01;1799;  0.0000000E+00;  0.0000000E+00;  0.0000000E+00;  1.0061254E+03;  1.0000000E-01;  5.0748193E+03;0;  0.0000000E+00;  0.0000000E+00;  0.0000000E+00;0; -2.2652177E-03;  4.0000000E+04;  0.0000000E+00;  0.0000000E+00;  4.0000000E+04;  0.0000000E+00;  4.0000000E+04; -1.6543412E-03;  0.0000000E+00; -6.1087654E-04;  9.1988910E+02;
 -9.9999998E-03;  9.9999998E-03;  2.8000000E-01;1800;  0.0000000E+00;  0.0000000E+00;  0.0000000E+00;  1.0055263E+03;  1.0000000E-01;  4.5784385E+03;0;  0.0000000E+00;  0.0000000E+00;  0.0000000E+00;0; -2.1535535E-03;  4.0000000E+04;  0.0000000E+00;  0.0000000E+00;  4.0000000E+04;  0.0000000E+00;  4.0000000E+04; -1.4736673E-03;  0.0000000E+00; -6.7988620E-04;  3.8832187E+02;
 -9.9999998E-03;  9.9999998E-03;  2.8999999E-01;1801;  0.0000000E+00;  0.0000000E+00;  0.0000000E+00;  1.0049165E+03;  1.0000000E-01;  4.0732676E+03;0;  0.0000000E+00;  0.0000000E+00;  0.0000000E+00;0; -2.0193951E-03;  4.0000000E+04;  0.0000000E+00;  0.0000000E+00;  4.0000000E+04;  0.0000000E+00;  4.0000000E+04; -1.3151072E-03;  0.0000000E+00; -7.0428784E-04;  1.2296097E+03;
 -9.9999998E-03;  9.9999998E-03;  3.0000001E-01;1802;  0.0000000E+00;  0.0000000E+00;  0.0000000E+00;  1.0042958E+03;  1.0000000E-01;  3.5590105E+03;0;  0.0000000E+00;  0.0000000E+00;  0.0000000E+00;0; -1.8461997E-03;  4.0000000E+04;  0.0000000E+00;  0.0000000E+00;  4.0000000E+04;  0.0000000E+00;  4.0000000E+04; -1.1618187E-03;  0.0000000E+00; -6.8438100E-04;  1.9995558E+03;
 -9.9999998E-03;  9.9999998E-03;  3.1000000E-01;1803;  0.0000000E+00;  0.0000000E+00;  0.0000000E+00;  1.0036720E+03;  1.0000000E-01;  3.0421855E+03;0;  0.0000000E+00;  0.0000000E+00;  0.0000000E+00;0; -1.6333602E-03;  4.0000000E+04;  0.0000000E+00;  0.0000000E+00;  4.0000000E+04;  0.0000000E+00;  4.0000000E+04; -1.0058072E-03;  0.0000000E+00; -6.2755297E-04;  2.5179705E+03;
 -9.9999998E-03;  9.9999998E-03;  3.1999999E-01;1804;  0.0000000E+00;  0.0000000E+00;  0.0000000E+00;  1.0030483E+03;  1.0000000E-01;  2.5254595E+03;0;  0.0000000E+00;  0.0000000E+00;  0.0000000E+00;0; -1.3958045E-03;  4.0000000E+04;  0.0000000E+00;  0.0000000E+00;  4.0000000E+04;  0.0000000E+00;  4.0000000E+04; -8.4895390E-04;  0.0000000E+00; -5.4685056E-04;  2.7754312E+03;
 -9.9999998E-03;  9.9999998E-03;  3.3000001E-01;1805;  0.0000000E+00;  0.0000000E+00;  0.0000000E+00;  1.0024695E+03;  1.0000000E-01;  2.0459668E+03;0;  0.0000000E+00;  0.0000000E+00;  0.0000000E+00;0; -1.1526903E-03;  4.0000000E+04;  0.0000000E+00;  0.0000000E+00;  4.0000000E+04;  0.0000000E+00;  4.0000000E+04; -6.9743523E-04;  0.0000000E+00; -4.5525507E-04;  2.8117988E+03;
 -9.9999998E-03;  9.9999998E-03;  3.4000000E-01;1806;  0.0000000E+00;  0.0000000E+00;  0.0000000E+00;  1.0019547E+03;  1.0000000E-01;  1.6194110E+03;0;  0.0000000E+00;  0.0000000E+00;  0.0000000E+00;0; -9.2024799E-04;  4.0000000E+04;  0.0000000E+00;  0.0000000E+00;  4.0000000E+04;  0.0000000E+00;  4.0000000E+04; -5.5718631E-04;  0.0000000E+00; -3.6306167E-04;  2.6826140E+03;
 -9.9999998E-03;  9.9999998E-03;  3.4999999E-01;1807;  0.0000000E+00;  0.0000000E+00;  0.0000000E+00;  1.0014932E+03;  1.0000000E-01;  1.2371008E+03;0;  0.0000000E+00;  0.0000000E+00;  0.0000000E+00;0; -7.0963270E-04;  4.0000000E+04;  0.0000000E+00;  0.0000000E+00;  4.0000000E+04;  0.0000000E+00;  4.0000000E+04; -4.3231965E-04;  0.0000000E+00; -2.7731305E-04;  2.4404326E+03;
 -9.9999998E-03;  9.9999998E-03;  3.6000001E-01;1808;  0.0000000E+00;  0.0000000E+00;  0.0000000E+00;  1.0011049E+03;  1.0000000E-01;  9.1543091E+02;0;  0.0000000E+00;  0.0000000E+00;  0.0000000E+00;0; -5.2715559E-04;  4.0000000E+04;  0.0000000E+00;  0.0000000E+00;  4.0000000E+04;  0.0000000E+00;  4.0000000E+04; -3.2495792E-04;  0.0000000E+00; -2.0219767E-04;  2.1282222E+03;
 -9.9999998E-03;  9.9999998E-03;  3.7000000E-01;1809;  0.0000000E+00;  0.0000000E+00;  0.0000000E+00;  1.0008002E+03;  1.0000000E-01;  6.6289484E+02;0;  0.0000000E+00;  0.0000000E+00;  0.0000000E+00;0; -3.7535303E-04;  4.0000000E+04;  0.0000000E+00;  0.0000000E+00;  4.0000000E+04;  0.0000000E+00;  4.0000000E+04; -2.3560713E-04;  0.0000000E+00; -1.3974590E-04;  1.7791637E+03;
 -9.9999998E-03;  9.9999998E-03;  3.8000000E-01;1810;  0.0000000E+00;  0.0000000E+00;  0.0000000E+00;  1.0005475E+03;  1.0000000E-01;  4.5361679E+02;0;  0.0000000E+00;  0.0000000E+00;  0.0000000E+00;0; -2.5414512E-04;  4.0000000E+04;  0.0000000E+00;  0.0000000E+00;  4.0000000E+04;  0.0000000E+00;  4.0000000E+04; -1.6365583E-04;  0.0000000E+00; -9.0489295E-05;  1.4188856E+03;
 -9.9999998E-03;  9.9999998E-03;  3.8999999E-01;1811;  0.0000000E+00;  0.0000000E+00;  0.0000000E+00;  1.0003712E+03;  1.0000000E-01;  3.0754684E+02;0;  0.0000000E+00;  0.0000000E+00;  0.0000000E+00;0; -1.6173303E-04;  4.0000000E+04;  0.0000000E+00;  0.0000000E+00;  4.0000000E+04;  0.0000000E+00;  4.0000000E+04; -1.0779853E-04;  0.0000000E+00; -5.3934498E-05;  1.0685153E+03;
 -9.9999998E-03;  9.9999998E-03;  4.0000001E-01;1812;  0.0000000E+00;  0.0000000E+00;  0.0000000E+00;  1.0002291E+03;  1.0000000E-01;  1.8982179E+02;0;  0.0000000E+00;  0.0000000E+00;  0.0000000E+00;0; -9.5161384E-05;  4.0000000E+04;  0.0000000E+00;  0.0000000E+00;  4.0000000E+04;  0.0000000E+00;  4.0000000E+04; -6.6323140E-05;  0.0000000E+00; -2.8838242E-05;  7.4714856E+02;
  0.0000000E+00;  9.9999998E-03;  3.0000001E-01;1834;  0.0000000E+00;  0.0000000E+00;  0.0000000E+00;  1.0053254E+03;  1.0000000E-01;  4.4120234E+03;0;  0.0000000E+00;  0.0000000E+00;  0.0000000E+00;0; -2.7164305E-03;  4.0000000E+04;  0.0000000E+00;  0.0000000E+00;  4.0000000E+04;  0.0000000E+00;  4.0000000E+04; -1.9213214E-03;  0.0000000E+00; -7.9510914E-04;  2.1533359E+03;
  0.0000000E+00;  9.9999998E-03;  3.1000000E-01;1835;  0.0000000E+00;  0.0000000E+00;  0.0000000E+00;  1.0045306E+03;  1.0000000E-01;  3.7535728E+03;0;  0.0000000E+00;  0.0000000E+00;  0.0000000E+00;0; -2.3311768E-03;  4.0000000E+04;  0.0000000E+00;  0.0000000E+00;  4.0000000E+04;  0.0000000E+00;  4.0000000E+04; -1.5983073E-03;  0.0000000E+00; -7.3286955E-04;  2.7208955E+03;
  0.0000000E+00;  9.9999998E-03;  3.1999999E-01;1836;  0.0000000E+00;  0.0000000E+00;  0.0000000E+00;  1.0037507E+03;  1.0000000E-01;  3.1073689E+03;0;  0.0000000E+00;  0.0000000E+00;  0.0000000E+00;0; -1.9402653E-03;  4.0000000E+04;  0.0000000E+00;  0.0000000E+00;  4.0000000E+04;  0.0000000E+00;  4.0000000E+04; -1.2980972E-03;  0.0000000E+00; -6.4216816E-04;  2.9923386E+03;
  0.0000000E+00;  9.9999998E-03;  3.3000001E-01;1837;  0.0000000E+00;  0.0000000E+00;  0.0000000E+00;  1.0030297E+03;  1.0000000E-01;  2.5100525E+03;0;  0.0000000E+00;  0.0000000E+00;  0.0000000E+00;0; -1.5666669E-03;  4.0000000E+04;  0.0000000E+00;  0.0000000E+00;  4.0000000E+04;  0.0000000E+00;  4.0000000E+04; -1.0286936E-03;  0.0000000E+00; -5.3797325E-04;  3.0230242E+03;
  0.0000000E+00;  9.9999998E-03;  3.4000000E-01;1838;  0.0000000E+00;  0.0000000E+00;  0.0000000E+00;  1.0023861E+03;  1.0000000E-01;  1.9768330E+03;0;  0.0000000E+00;  0.0000000E+00;  0.0000000E+00;0; -1.2270532E-03;  4.0000000E+04;  0.0000000E+00;  0.0000000E+00;  4.0000000E+04;  0.0000000E+00;  4.0000000E+04; -7.9507858E-04;  0.0000000E+00; -4.3197465E-04;  2.8788411E+03;
  0.0000000E+00;  9.9999998E-03;  3.4999999E-01;1839;  0.0000000E+00;  0.0000000E+00;  0.0000000E+00;  1.0018270E+03;  1.0000000E-01;  1.5136362E+03;0;  0.0000000E+00;  0.0000000E+00;  0.0000000E+00;0; -9.3102577E-04;  4.0000000E+04;  0.0000000E+00;  0.0000000E+00;  4.0000000E+04;  0.0000000E+00;  4.0000000E+04; -5.9876899E-04;  0.0000000E+00; -3.3225678E-04;  2.6174485E+03;
  0.0000000E+00;  9.9999998E-03;  3.6000001E-01;1840;  0.0000000E+00;  0.0000000E+00;  0.0000000E+00;  1.0013651E+03;  1.0000000E-01;  1.1309310E+03;0;  0.0000000E+00;  0.0000000E+00;  0.0000000E+00;0; -6.8229396E-04;  4.0000000E+04;  0.0000000E+00;  0.0000000E+00;  4.0000000E+04;  0.0000000E+00;  4.0000000E+04; -4.3847834E-04;  0.0000000E+00; -2.4381561E-04;  2.2839106E+03;
  0.0000000E+00;  9.9999998E-03;  3.7000000E-01;1841;  0.0000000E+00;  0.0000000E+00;  0.0000000E+00;  1.0009838E+03;  1.0000000E-01;  8.1508807E+02;0;  0.0000000E+00;  0.0000000E+00;  0.0000000E+00;0; -4.8036984E-04;  4.0000000E+04;  0.0000000E+00;  0.0000000E+00;  4.0000000E+04;  0.0000000E+00;  4.0000000E+04; -3.1107370E-04;  0.0000000E+00; -1.6929612E-04;  1.9123947E+03;
  0.0000000E+00;  9.9999998E-03;  3.8000000E-01;1842;  0.0000000E+00;  0.0000000E+00;  0.0000000E+00;  1.0006848E+03;  1.0000000E-01;  5.6729260E+02;0;  0.0000000E+00;  0.0000000E+00;  0.0000000E+00;0; -3.2218272E-04;  4.0000000E+04;  0.0000000E+00;  0.0000000E+00;  4.0000000E+04;  0.0000000E+00;  4.0000000E+04; -2.1249319E-04;  0.0000000E+00; -1.0968951E-04;  1.5291632E+03;
  0.0000000E+00;  9.9999998E-03;  3.8999999E-01;1843;  0.0000000E+00;  0.0000000E+00;  0.0000000E+00;  1.0004604E+03;  1.0000000E-01;  3.8142133E+02;0;  0.0000000E+00;  0.0000000E+00;  0.0000000E+00;0; -2.0327157E-04;  4.0000000E+04;  0.0000000E+00;  0.0000000E+00;  4.0000000E+04;  0.0000000E+00;  4.0000000E+04; -1.3843169E-04;  0.0000000E+00; -6.4839885E-05;  1.1561412E+03;
  0.0000000E+00;  9.9999998E-03;  4.0000001E-01;1844;  0.0000000E+00;  0.0000000E+00;  0.0000000E+00;  1.0002874E+03;  1.0000000E-01;  2.3811673E+02;0;  0.0000000E+00;  0.0000000E+00;  0.0000000E+00;0; -1.1848387E-04;  4.0000000E+04;  0.0000000E+00;  0.0000000E+00;  4.0000000E+04;  0.0000000E+00;  4.0000000E+04; -8.4766638E-05;  0.0000000E+00; -3.3717231E-05;  8.1338239E+02;
  9.9999998E-03;  9.9999998E-03;  3.1000000E-01;1865;  0.0000000E+00;  0.0000000E+00;  0.0000000E+00;  1.0053721E+03;  1.0000000E-01;  4.4507383E+03;0;  0.0000000E+00;  0.0000000E+00;  0.0000000E+00;0; -3.0255122E-03;  4.0000000E+04;  0.0000000E+00;  0.0000000E+00;  4.0000000E+04;  0.0000000E+00;  4.0000000E+04; -2.1900435E-03;  0.0000000E+00; -8.3546888E-04;  2.8084473E+03;
  9.9999998E-03;  9.9999998E-03;  3.1999999E-01;1866;  0.0000000E+00;  0.0000000E+00;  0.0000000E+00;  1.0044335E+03;  1.0000000E-01;  3.6730813E+03;0;  0.0000000E+00;  0.0000000E+00;  0.0000000E+00;0; -2.4762375E-03;  4.0000000E+04;  0.0000000E+00;  0.0000000E+00;  4.0000000E+04;  0.0000000E+00;  4.0000000E+04; -1.7376140E-03;  0.0000000E+00; -7.3862344E-04;  3.0937253E+03;
  9.9999998E-03;  9.9999998E-03;  3.3000001E-01;1867;  0.0000000E+00;  0.0000000E+00;  0.0000000E+00;  1.0035771E+03;  1.0000000E-01;  2.9635706E+03;0;  0.0000000E+00;  0.0000000E+00;  0.0000000E+00;0; -1.9705668E-03;  4.0000000E+04;  0.0000000E+00;  0.0000000E+00;  4.0000000E+04;  0.0000000E+00;  4.0000000E+04; -1.3458671E-03;  0.0000000E+00; -6.2469963E-04;  3.1257664E+03;
  9.9999998E-03;  9.9999998E-03;  3.4000000E-01;1868;  0.0000000E+00;  0.0000000E+00;  0.0000000E+00;  1.0028066E+03;  1.0000000E-01;  2.3252676E+03;0;  0.0000000E+00;  0.0000000E+00;  0.0000000E+00;0; -1.5240748E-03;  4.0000000E+04;  0.0000000E+00;  0.0000000E+00;  4.0000000E+04;  0.0000000E+00;  4.0000000E+04; -1.0174457E-03;  0.0000000E+00; -5.0662912E-04;  2.9772327E+03;
  9.9999998E-03;  9.9999998E-03;  3.4999999E-01;1869;  0.0000000E+00;  0.0000000E+00;  0.0000000E+00;  1.0021458E+03;  1.0000000E-01;  1.7777275E+03;0;  0.0000000E+00;  0.0000000E+00;  0.0000000E+00;0; -1.1439032E-03;  4.0000000E+04;  0.0000000E+00;  0.0000000E+00;  4.0000000E+04;  0.0000000E+00;  4.0000000E+04; -7.5022026E-04;  0.0000000E+00; -3.9368300E-04;  2.7080967E+03;
  9.9999998E-03;  9.9999998E-03;  3.6000001E-01;1870;  0.0000000E+00;  0.0000000E+00;  0.0000000E+00;  1.0016046E+03;  1.0000000E-01;  1.3293451E+03;0;  0.0000000E+00;  0.0000000E+00;  0.0000000E+00;0; -8.3061750E-04;  4.0000000E+04;  0.0000000E+00;  0.0000000E+00;  4.0000000E+04;  0.0000000E+00;  4.0000000E+04; -5.3871330E-04;  0.0000000E+00; -2.9190417E-04;  2.3642310E+03;
  9.9999998E-03;  9.9999998E-03;  3.7000000E-01;1871;  0.0000000E+00;  0.0000000E+00;  0.0000000E+00;  1.0011582E+03;  1.0000000E-01;  9.5957782E+02;0;  0.0000000E+00;  0.0000000E+00;  0.0000000E+00;0; -5.8036600E-04;  4.0000000E+04;  0.0000000E+00;  0.0000000E+00;  4.0000000E+04;  0.0000000E+00;  4.0000000E+04; -3.7558921E-04;  0.0000000E+00; -2.0477679E-04;  1.9801958E+03;
  9.9999998E-03;  9.9999998E-03;  3.8000000E-01;1872;  0.0000000E+00;  0.0000000E+00;  0.0000000E+00;  1.0008073E+03;  1.0000000E-01;  6.6882062E+02;0;  0.0000000E+00;  0.0000000E+00;  0.0000000E+00;0; -3.8684829E-04;  4.0000000E+04;  0.0000000E+00;  0.0000000E+00;  4.0000000E+04;  0.0000000E+00;  4.0000000E+04; -2.5292678E-04;  0.0000000E+00; -1.3392149E-04;  1.5830386E+03;
  9.9999998E-03;  9.9999998E-03;  3.8999999E-01;1873;  0.0000000E+00;  0.0000000E+00;  0.0000000E+00;  1.0005437E+03;  1.0000000E-01;  4.5045639E+02;0;  0.0000000E+00;  0.0000000E+00;  0.0000000E+00;0; -2.4276794E-04;  4.0000000E+04;  0.0000000E+00;  0.0000000E+00;  4.0000000E+04;  0.0000000E+00;  4.0000000E+04; -1.6311850E-04;  0.0000000E+00; -7.9649435E-05;  1.1959655E+03;
  9.9999998E-03;  9.9999998E-03;  4.0000001E-01;1874;  0.0000000E+00;  0.0000000E+00;  0.0000000E+00;  1.0003432E+03;  1.0000000E-01;  2.8433765E+02;0;  0.0000000E+00;  0.0000000E+00;  0.0000000E+00;0; -1.4066587E-04;  4.0000000E+04;  0.0000000E+00;  0.0000000E+00;  4.0000000E+04;  0.0000000E+00;  4.0000000E+04; -9.9395329E-05;  0.0000000E+00; -4.1270538E-05;  8.4064929E+02;
  2.0000000E-02;  9.9999998E-03;  3.1000000E-01;1895;  0.0000000E+00;  0.0000000E+00;  0.0000000E+00;  1.0061047E+03;  1.0000000E-01;  5.0576348E+03;0;  0.0000000E+00;  0.0000000E+00;  0.0000000E+00;0; -3.6456771E-03;  4.0000000E+04;  0.0000000E+00;  0.0000000E+00;  4.0000000E+04;  0.0000000E+00;  4.0000000E+04; -2.7107773E-03;  0.0000000E+00; -9.3489967E-04;  2.7611333E+03;
  2.0000000E-02;  9.9999998E-03;  3.1999999E-01;1896;  0.0000000E+00;  0.0000000E+00;  0.0000000E+00;  1.0050436E+03;  1.0000000E-01;  4.1785483E+03;0;  0.0000000E+00;  0.0000000E+00;  0.0000000E+00;0; -2.9529871E-03;  4.0000000E+04;  0.0000000E+00;  0.0000000E+00;  4.0000000E+04;  0.0000000E+00;  4.0000000E+04; -2.1166035E-03;  0.0000000E+00; -8.3638361E-04;  3.0702039E+03;
  2.0000000E-02;  9.9999998E-03;  3.3000001E-01;1897;  0.0000000E+00;  0.0000000E+00;  0.0000000E+00;  1.0040535E+03;  1.0000000E-01;  3.3582261E+03;0;  0.0000000E+00;  0.0000000E+00;  0.0000000E+00;0; -2.3282368E-03;  4.0000000E+04;  0.0000000E+00;  0.0000000E+00;  4.0000000E+04;  0.0000000E+00;  4.0000000E+04; -1.6122774E-03;  0.0000000E+00; -7.1595953E-04;  3.1202305E+03;
  2.0000000E-02;  9.9999998E-03;  3.4000000E-01;1898;  0.0000000E+00;  0.0000000E+00;  0.0000000E+00;  1.0031830E+03;  1.0000000E-01;  2.6370613E+03;0;  0.0000000E+00;  0.0000000E+00;  0.0000000E+00;0; -1.7857071E-03;  4.0000000E+04;  0.0000000E+00;  0.0000000E+00;  4.0000000E+04;  0.0000000E+00;  4.0000000E+04; -1.1980019E-03;  0.0000000E+00; -5.8770517E-04;  2.9846387E+03;
  2.0000000E-02;  9.9999998E-03;  3.4999999E-01;1899;  0.0000000E+00;  0.0000000E+00;  0.0000000E+00;  1.0024334E+03;  1.0000000E-01;  2.0160417E+03;0;  0.0000000E+00;  0.0000000E+00;  0.0000000E+00;0; -1.3302603E-03;  4.0000000E+04;  0.0000000E+00;  0.0000000E+00;  4.0000000E+04;  0.0000000E+00;  4.0000000E+04; -8.6792652E-04;  0.0000000E+00; -4.6233376E-04;  2.7231199E+03;
  2.0000000E-02;  9.9999998E-03;  3.6000001E-01;1900;  0.0000000E+00;  0.0000000E+00;  0.0000000E+00;  1.0018121E+03;  1.0000000E-01;  1.5012909E+03;0;  0.0000000E+00;  0.0000000E+00;  0.0000000E+00;0; -9.5958996E-04;  4.0000000E+04;  0.0000000E+00;  0.0000000E+00;  4.0000000E+04;  0.0000000E+00;  4.0000000E+04; -6.1234471E-04;  0.0000000E+00; -3.4724522E-04;  2.3813386E+03;
  2.0000000E-02;  9.9999998E-03;  3.7000000E-01;1901;  0.0000000E+00;  0.0000000E+00;  0.0000000E+00;  1.0013188E+03;  1.0000000E-01;  1.0926111E+03;0;  0.0000000E+00;  0.0000000E+00;  0.0000000E+00;0; -6.6675129E-04;  4.0000000E+04;  0.0000000E+00;  0.0000000E+00;  4.0000000E+04;  0.0000000E+00;  4.0000000E+04; -4.1972499E-04;  0.0000000E+00; -2.4702627E-04;  1.9942378E+03;
  2.0000000E-02;  9.9999998E-03;  3.8000000E-01;1902;  0.0000000E+00;  0.0000000E+00;  0.0000000E+00;  1.0009205E+03;  1.0000000E-01;  7.6264508E+02;0;  0.0000000E+00;  0.0000000E+00;  0.0000000E+00;0; -4.4243227E-04;  4.0000000E+04;  0.0000000E+00;  0.0000000E+00;  4.0000000E+04;  0.0000000E+00;  4.0000000E+04; -2.7831516E-04;  0.0000000E+00; -1.6411711E-04;  1.5902623E+03;
  2.0000000E-02;  9.9999998E-03;  3.8999999E-01;1903;  0.0000000E+00;  0.0000000E+00;  0.0000000E+00;  1.0006272E+03;  1.0000000E-01;  5.1959027E+02;0;  0.0000000E+00;  0.0000000E+00;  0.0000000E+00;0; -2.7664824E-04;  4.0000000E+04;  0.0000000E+00;  0.0000000E+00;  4.0000000E+04;  0.0000000E+00;  4.0000000E+04; -1.7723456E-04;  0.0000000E+00; -9.9413686E-05;  1.1948733E+03;
  2.0000000E-02;  9.9999998E-03;  4.0000001E-01;1904;  0.0000000E+00;  0.0000000E+00;  0.0000000E+00;  1.0004037E+03;  1.0000000E-01;  3.3450906E+02;0;  0.0000000E+00;  0.0000000E+00;  0.0000000E+00;0; -1.5972105E-04;  4.0000000E+04;  0.0000000E+00;  0.0000000E+00;  4.0000000E+04;  0.0000000E+00;  4.0000000E+04; -1.0709444E-04;  0.0000000E+00; -5.2626605E-05;  8.3252063E+02;
  2.9999999E-02;  9.9999998E-03;  3.1000000E-01;1925;  0.0000000E+00;  0.0000000E+00;  0.0000000E+00;  1.0066965E+03;  1.0000000E-01;  5.5478926E+03;0;  0.0000000E+00;  0.0000000E+00;  0.0000000E+00;0; -4.1391831E-03;  4.0000000E+04;  0.0000000E+00;  0.0000000E+00;  4.0000000E+04;  0.0000000E+00;  4.0000000E+04; -3.1043517E-03;  0.0000000E+00; -1.0348315E-03;  2.6060300E+03;
  2.9999999E-02;  9.9999998E-03;  3.1999999E-01;1926;  0.0000000E+00;  0.0000000E+00;  0.0000000E+00;  1.0055256E+03;  1.0000000E-01;  4.5778457E+03;0;  0.0000000E+00;  0.0000000E+00;  0.0000000E+00;0; -3.3332403E-03;  4.0000000E+04;  0.0000000E+00;  0.0000000E+00;  4.0000000E+04;  0.0000000E+00;  4.0000000E+04; -2.3952008E-03;  0.0000000E+00; -9.3803956E-04;  2.9498379E+03;
  2.9999999E-02;  9.9999998E-03;  3.3000001E-01;1927;  0.0000000E+00;  0.0000000E+00;  0.0000000E+00;  1.0044393E+03;  1.0000000E-01;  3.6778220E+03;0;  0.0000000E+00;  0.0000000E+00;  0.0000000E+00;0; -2.6134963E-03;  4.0000000E+04;  0.0000000E+00;  0.0000000E+00;  4.0000000E+04;  0.0000000E+00;  4.0000000E+04; -1.8000867E-03;  0.0000000E+00; -8.1340951E-04;  3.0373162E+03;
  2.9999999E-02;  9.9999998E-03;  3.4000000E-01;1928;  0.0000000E+00;  0.0000000E+00;  0.0000000E+00;  1.0034790E+03;  1.0000000E-01;  2.8822888E+03;0;  0.0000000E+00;  0.0000000E+00;  0.0000000E+00;0; -1.9936857E-03;  4.0000000E+04;  0.0000000E+00;  0.0000000E+00;  4.0000000E+04;  0.0000000E+00;  4.0000000E+04; -1.3174926E-03;  0.0000000E+00; -6.7619310E-04;  2.9337485E+03;
  2.9999999E-02;  9.9999998E-03;  3.4999999E-01;1929;  0.0000000E+00;  0.0000000E+00;  0.0000000E+00;  1.0026589E+03;  1.0000000E-01;  2.2029006E+03;0;  0.0000000E+00;  0.0000000E+00;  0.0000000E+00;0; -1.4774012E-03;  4.0000000E+04;  0.0000000E+00;  0.0000000E+00;  4.0000000E+04;  0.0000000E+00;  4.0000000E+04; -9.3862484E-04;  0.0000000E+00; -5.3877634E-04;  2.6952827E+03;
  2.9999999E-02;  9.9999998E-03;  3.6000001E-01;1930;  0.0000000E+00;  0.0000000E+00;  0.0000000E+00;  1.0019768E+03;  1.0000000E-01;  1.6377809E+03;0;  0.0000000E+00;  0.0000000E+00;  0.0000000E+00;0; -1.0604188E-03;  4.0000000E+04;  0.0000000E+00;  0.0000000E+00;  4.0000000E+04;  0.0000000E+00;  4.0000000E+04; -6.5024785E-04;  0.0000000E+00; -4.1017088E-04;  2.3664763E+03;
  2.9999999E-02;  9.9999998E-03;  3.7000000E-01;1931;  0.0000000E+00;  0.0000000E+00;  0.0000000E+00;  1.0014468E+03;  1.0000000E-01;  1.1985834E+03;0;  0.0000000E+00;  0.0000000E+00;  0.0000000E+00;0; -7.3348475E-04;  4.0000000E+04;  0.0000000E+00;  0.0000000E+00;  4.0000000E+04;  0.0000000E+00;  4.0000000E+04; -4.3719864E-04;  0.0000000E+00; -2.9628613E-04;  1.9830444E+03;
  2.9999999E-02;  9.9999998E-03;  3.8000000E-01;1932;  0.0000000E+00;  0.0000000E+00;  0.0000000E+00;  1.0010115E+03;  1.0000000E-01;  8.3800098E+02;0;  0.0000000E+00;  0.0000000E+00;  0.0000000E+00;0; -4.8485183E-04;  4.0000000E+04;  0.0000000E+00;  0.0000000E+00;  4.0000000E+04;  0.0000000E+00;  4.0000000E+04; -2.8430944E-04;  0.0000000E+00; -2.0054240E-04;  1.5756194E+03;
  2.9999999E-02;  9.9999998E-03;  3.8999999E-01;1933;  0.0000000E+00;  0.0000000E+00;  0.0000000E+00;  1.0006916E+03;  1.0000000E-01;  5.7292206E+02;0;  0.0000000E+00;  0.0000000E+00;  0.0000000E+00;0; -3.0225090E-04;  4.0000000E+04;  0.0000000E+00;  0.0000000E+00;  4.0000000E+04;  0.0000000E+00;  4.0000000E+04; -1.7774571E-04;  0.0000000E+00; -1.2450520E-04;  1.1729725E+03;
  2.9999999E-02;  9.9999998E-03;  4.0000001E-01;1934;  0.0000000E+00;  0.0000000E+00;  0.0000000E+00;  1.0004472E+03;  1.0000000E-01;  3.7045865E+02;0;  0.0000000E+00;  0.0000000E+00;  0.0000000E+00;0; -1.7407048E-04;  4.0000000E+04;  0.0000000E+00;  0.0000000E+00;  4.0000000E+04;  0.0000000E+00;  4.0000000E+04; -1.0574232E-04;  0.0000000E+00; -6.8328147E-05;  8.0378210E+02;
  3.9999999E-02;  9.9999998E-03;  3.1000000E-01;1955;  0.0000000E+00;  0.0000000E+00;  0.0000000E+00;  1.0071201E+03;  1.0000000E-01;  5.8988950E+03;0;  0.0000000E+00;  0.0000000E+00;  0.0000000E+00;0; -4.4841846E-03;  4.0000000E+04;  0.0000000E+00;  0.0000000E+00;  4.0000000E+04;  0.0000000E+00;  4.0000000E+04; -3.3447957E-03;  0.0000000E+00; -1.1393890E-03;  2.4133560E+03;
  3.9999999E-02;  9.9999998E-03;  3.1999999E-01;1956;  0.0000000E+00;  0.0000000E+00;  0.0000000E+00;  1.0058672E+03;  1.0000000E-01;  4.8608994E+03;0;  0.0000000E+00;  0.0000000E+00;  0.0000000E+00;0; -3.6024870E-03;  4.0000000E+04;  0.0000000E+00;  0.0000000E+00;  4.0000000E+04;  0.0000000E+00;  4.0000000E+04; -2.5561987E-03;  0.0000000E+00; -1.0462884E-03;  2.7984504E+03;
  3.9999999E-02;  9.9999998E-03;  3.3000001E-01;1957;  0.0000000E+00;  0.0000000E+00;  0.0000000E+00;  1.0047167E+03;  1.0000000E-01;  3.9076426E+03;0;  0.0000000E+00;  0.0000000E+00;  0.0000000E+00;0; -2.8167882E-03;  4.0000000E+04;  0.0000000E+00;  0.0000000E+00;  4.0000000E+04;  0.0000000E+00;  4.0000000E+04; -1.8984750E-03;  0.0000000E+00; -9.1831310E-04;  2.9382217E+03;
  3.9999999E-02;  9.9999998E-03;  3.4000000E-01;1958;  0.0000000E+00;  0.0000000E+00;  0.0000000E+00;  1.0037003E+03;  1.0000000E-01;  3.0656912E+03;0;  0.0000000E+00;  0.0000000E+00;  0.0000000E+00;0; -2.1417593E-03;  4.0000000E+04;  0.0000000E+00;  0.0000000E+00;  4.0000000E+04;  0.0000000E+00;  4.0000000E+04; -1.3694220E-03;  0.0000000E+00; -7.7233725E-04;  2.8813745E+03;
  3.9999999E-02;  9.9999998E-03;  3.4999999E-01;1959;  0.0000000E+00;  0.0000000E+00;  0.0000000E+00;  1.0028259E+03;  1.0000000E-01;  2.3412671E+03;0;  0.0000000E+00;  0.0000000E+00;  0.0000000E+00;0; -1.5812063E-03;  4.0000000E+04;  0.0000000E+00;  0.0000000E+00;  4.0000000E+04;  0.0000000E+00;  4.0000000E+04; -9.5854007E-04;  0.0000000E+00; -6.2266627E-04;  2.6767827E+03;
  3.9999999E-02;  9.9999998E-03;  3.6000001E-01;1960;  0.0000000E+00;  0.0000000E+00;  0.0000000E+00;  1.0021104E+03;  1.0000000E-01;  1.7483950E+03;0;  0.0000000E+00;  0.0000000E+00;  0.0000000E+00;0; -1.1303185E-03;  4.0000000E+04;  0.0000000E+00;  0.0000000E+00;  4.0000000E+04;  0.0000000E+00;  4.0000000E+04; -6.5024733E-04;  0.0000000E+00; -4.8007112E-04;  2.3669729E+03;
  3.9999999E-02;  9.9999998E-03;  3.7000000E-01;1961;  0.0000000E+00;  0.0000000E+00;  0.0000000E+00;  1.0015270E+03;  1.0000000E-01;  1.2650507E+03;0;  0.0000000E+00;  0.0000000E+00;  0.0000000E+00;0; -7.7859411E-04;  4.0000000E+04;  0.0000000E+00;  0.0000000E+00;  4.0000000E+04;  0.0000000E+00;  4.0000000E+04; -4.2670884E-04;  0.0000000E+00; -3.5188528E-04;  1.9887538E+03;
  3.9999999E-02;  9.9999998E-03;  3.8000000E-01;1962;  0.0000000E+00;  0.0000000E+00;  0.0000000E+00;  1.0010738E+03;  1.0000000E-01;  8.8965387E+02;0;  0.0000000E+00;  0.0000000E+00;  0.0000000E+00;0; -5.1266316E-04;  4.0000000E+04;  0.0000000E+00;  0.0000000E+00;  4.0000000E+04;  0.0000000E+00;  4.0000000E+04; -2.7007691E-04;  0.0000000E+00; -2.4258626E-04;  1.5757729E+03;
  3.9999999E-02;  9.9999998E-03;  3.8999999E-01;1963;  0.0000000E+00;  0.0000000E+00;  0.0000000E+00;  1.0007327E+03;  1.0000000E-01;  6.0709393E+02;0;  0.0000000E+00;  0.0000000E+00;  0.0000000E+00;0; -3.1853703E-04;  4.0000000E+04;  0.0000000E+00;  0.0000000E+00;  4.0000000E+04;  0.0000000E+00;  4.0000000E+04; -1.6407041E-04;  0.0000000E+00; -1.5446662E-04;  1.1612386E+03;
  3.9999999E-02;  9.9999998E-03;  4.0000001E-01;1964;  0.0000000E+00;  0.0000000E+00;  0.0000000E+00;  1.0004854E+03;  1.0000000E-01;  4.0216147E+02;0;  0.0000000E+00;  0.0000000E+00;  0.0000000E+00;0; -1.8300978E-04;  4.0000000E+04;  0.0000000E+00;  0.0000000E+00;  4.0000000E+04;  0.0000000E+00;  4.0000000E+04; -9.4872674E-05;  0.0000000E+00; -8.8137102E-05;  7.7909485E+02;
  5.0000001E-02;  9.9999998E-03;  3.1000000E-01;1985;  0.0000000E+00;  0.0000000E+00;  0.0000000E+00;  1.0073556E+03;  1.0000000E-01;  6.0939512E+03;0;  0.0000000E+00;  0.0000000E+00;  0.0000000E+00;0; -4.6927626E-03;  4.0000000E+04;  0.0000000E+00;  0.0000000E+00;  4.0000000E+04;  0.0000000E+00;  4.0000000E+04; -3.4431696E-03;  0.0000000E+00; -1.2495930E-03;  2.2689290E+03;
  5.0000001E-02;  9.9999998E-03;  3.1999999E-01;1986;  0.0000000E+00;  0.0000000E+00;  0.0000000E+00;  1.0060704E+03;  1.0000000E-01;  5.0291909E+03;0;  0.0000000E+00;  0.0000000E+00;  0.0000000E+00;0; -3.7713875E-03;  4.0000000E+04;  0.0000000E+00;  0.0000000E+00;  4.0000000E+04;  0.0000000E+00;  4.0000000E+04; -2.6103873E-03;  0.0000000E+00; -1.1610002E-03;  2.7010847E+03;
  5.0000001E-02;  9.9999998E-03;  3.3000001E-01;1987;  0.0000000E+00;  0.0000000E+00;  0.0000000E+00;  1.0048773E+03;  1.0000000E-01;  4.0406758E+03;0;  0.0000000E+00;  0.0000000E+00;  0.0000000E+00;0; -2.9471177E-03;  4.0000000E+04;  0.0000000E+00;  0.0000000E+00;  4.0000000E+04;  0.0000000E+00;  4.0000000E+04; -1.9176498E-03;  0.0000000E+00; -1.0294679E-03;  2.9016855E+03;
  5.0000001E-02;  9.9999998E-03;  3.4000000E-01;1988;  0.0000000E+00;  0.0000000E+00;  0.0000000E+00;  1.0038214E+03;  1.0000000E-01;  3.1659351E+03;0;  0.0000000E+00;  0.0000000E+00;  0.0000000E+00;0; -2.2372624E-03;  4.0000000E+04;  0.0000000E+00;  0.0000000E+00;  4.0000000E+04;  0.0000000E+00;  4.0000000E+04; -1.3630021E-03;  0.0000000E+00; -8.7426027E-04;  2.8983560E+03;
  5.0000001E-02;  9.9999998E-03;  3.4999999E-01;1989;  0.0000000E+00;  0.0000000E+00;  0.0000000E+00;  1.0029203E+03;  1.0000000E-01;  2.4194871E+03;0;  0.0000000E+00;  0.0000000E+00;  0.0000000E+00;0; -1.6474370E-03;  4.0000000E+04;  0.0000000E+00;  0.0000000E+00;  4.0000000E+04;  0.0000000E+00;  4.0000000E+04; -9.3556638E-04;  0.0000000E+00; -7.1187061E-04;  2.7305601E+03;
  5.0000001E-02;  9.9999998E-03;  3.6000001E-01;1990;  0.0000000E+00;  0.0000000E+00;  0.0000000E+00;  1.0021758E+03;  1.0000000E-01;  1.8026157E+03;0;  0.0000000E+00;  0.0000000E+00;  0.0000000E+00;0; -1.1735758E-03;  4.0000000E+04;  0.0000000E+00;  0.0000000E+00;  4.0000000E+04;  0.0000000E+00;  4.0000000E+04; -6.1872683E-04;  0.0000000E+00; -5.5484893E-04;  2.4384170E+03;
  5.0000001E-02;  9.9999998E-03;  3.7000000E-01;1991;  0.0000000E+00;  0.0000000E+00;  0.0000000E+00;  1.0015748E+03;  1.0000000E-01;  1.3046544E+03;0;  0.0000000E+00;  0.0000000E+00;  0.0000000E+00;0; -8.0504082E-04;  4.0000000E+04;  0.0000000E+00;  0.0000000E+00;  4.0000000E+04;  0.0000000E+00;  4.0000000E+04; -3.9312700E-04;  0.0000000E+00; -4.1191385E-04;  2.0601936E+03;
  5.0000001E-02;  9.9999998E-03;  3.8000000E-01;1992;  0.0000000E+00;  0.0000000E+00;  0.0000000E+00;  1.0011161E+03;  1.0000000E-01;  9.2461584E+02;0;  0.0000000E+00;  0.0000000E+00;  0.0000000E+00;0; -5.2771316E-04;  4.0000000E+04;  0.0000000E+00;  0.0000000E+00;  4.0000000E+04;  0.0000000E+00;  4.0000000E+04; -2.3911418E-04;  0.0000000E+00; -2.8859897E-04;  1.6332755E+03;
  5.0000001E-02;  9.9999998E-03;  3.8999999E-01;1993;  0.0000000E+00;  0.0000000E+00;  0.0000000E+00;  1.0007440E+03;  1.0000000E-01;  6.1637762E+02;0;  0.0000000E+00;  0.0000000E+00;  0.0000000E+00;0; -3.2650417E-04;  4.0000000E+04;  0.0000000E+00;  0.0000000E+00;  4.0000000E+04;  0.0000000E+00;  4.0000000E+04; -1.3855993E-04;  0.0000000E+00; -1.8794426E-04;  1.1960414E+03;
  5.0000001E-02;  9.9999998E-03;  4.0000001E-01;1994;  0.0000000E+00;  0.0000000E+00;  0.0000000E+00;  1.0005006E+03;  1.0000000E-01;  4.1470432E+02;0;  0.0000000E+00;  0.0000000E+00;  0.0000000E+00;0; -1.8699073E-04;  4.0000000E+04;  0.0000000E+00;  0.0000000E+00;  4.0000000E+04;  0.0000000E+00;  4.0000000E+04; -7.5971082E-05;  0.0000000E+00; -1.1101965E-04;  7.8858466E+02;
  5.9999999E-02;  9.9999998E-03;  3.1000000E-01;2015;  0.0000000E+00;  0.0000000E+00;  0.0000000E+00;  1.0074476E+03;  1.0000000E-01;  6.1701958E+03;0;  0.0000000E+00;  0.0000000E+00;  0.0000000E+00;0; -4.8071397E-03;  4.0000000E+04;  0.0000000E+00;  0.0000000E+00;  4.0000000E+04;  0.0000000E+00;  4.0000000E+04; -3.4458358E-03;  0.0000000E+00; -1.3613040E-03;  2.2287295E+03;
  5.9999999E-02;  9.9999998E-03;  3.1999999E-01;2016;  0.0000000E+00;  0.0000000E+00;  0.0000000E+00;  1.0061539E+03;  1.0000000E-01;  5.0983247E+03;0;  0.0000000E+00;  0.0000000E+00;  0.0000000E+00;0; -3.8730931E-03;  4.0000000E+04;  0.0000000E+00;  0.0000000E+00;  4.0000000E+04;  0.0000000E+00;  4.0000000E+04; -2.5957928E-03;  0.0000000E+00; -1.2773004E-03;  2.7299966E+03;
  5.9999999E-02;  9.9999998E-03;  3.3000001E-01;2017;  0.0000000E+00;  0.0000000E+00;  0.0000000E+00;  1.0049468E+03;  1.0000000E-01;  4.0983530E+03;0;  0.0000000E+00;  0.0000000E+00;  0.0000000E+00;0; -3.0301337E-03;  4.0000000E+04;  0.0000000E+00;  0.0000000E+00;  4.0000000E+04;  0.0000000E+00;  4.0000000E+04; -1.8884292E-03;  0.0000000E+00; -1.1417045E-03;  3.0017266E+03;
  5.9999999E-02;  9.9999998E-03;  3.4000000E-01;2018;  0.0000000E+00;  0.0000000E+00;  0.0000000E+00;  1.0038748E+03;  1.0000000E-01;  3.2101809E+03;0;  0.0000000E+00;  0.0000000E+00;  0.0000000E+00;0; -2.2997800E-03;  4.0000000E+04;  0.0000000E+00;  0.0000000E+00;  4.0000000E+04;  0.0000000E+00;  4.0000000E+04; -1.3228622E-03;  0.0000000E+00; -9.7691780E-04;  3.0532322E+03;
  5.9999999E-02;  9.9999998E-03;  3.4999999E-01;2019;  0.0000000E+00;  0.0000000E+00;  0.0000000E+00;  1.0029558E+03;  1.0000000E-01;  2.4488196E+03;0;  0.0000000E+00;  0.0000000E+00;  0.0000000E+00;0; -1.6908087E-03;  4.0000000E+04;  0.0000000E+00;  0.0000000E+00;  4.0000000E+04;  0.0000000E+00;  4.0000000E+04; -8.8902283E-04;  0.0000000E+00; -8.0178579E-04;  2.9171702E+03;
  5.9999999E-02;  9.9999998E-03;  3.6000001E-01;2020;  0.0000000E+00;  0.0000000E+00;  0.0000000E+00;  1.0022022E+03;  1.0000000E-01;  1.8244423E+03;0;  0.0000000E+00;  0.0000000E+00;  0.0000000E+00;0; -1.2010334E-03;  4.0000000E+04;  0.0000000E+00;  0.0000000E+00;  4.0000000E+04;  0.0000000E+00;  4.0000000E+04; -5.7050522E-04;  0.0000000E+00; -6.3052808E-04;  2.6333254E+03;
  5.9999999E-02;  9.9999998E-03;  3.7000000E-01;2021;  0.0000000E+00;  0.0000000E+00;  0.0000000E+00;  1.0015931E+03;  1.0000000E-01;  1.3198639E+03;0;  0.0000000E+00;  0.0000000E+00;  0.0000000E+00;0; -8.2056480E-04;  4.0000000E+04;  0.0000000E+00;  0.0000000E+00;  4.0000000E+04;  0.0000000E+00;  4.0000000E+04; -3.4748972E-04;  0.0000000E+00; -4.7307505E-04;  2.2430129E+03;
  5.9999999E-02;  9.9999998E-03;  3.8000000E-01;2022;  0.0000000E+00;  0.0000000E+00;  0.0000000E+00;  1.0011296E+03;  1.0000000E-01;  9.3587476E+02;0;  0.0000000E+00;  0.0000000E+00;  0.0000000E+00;0; -5.3522154E-04;  4.0000000E+04;  0.0000000E+00;  0.0000000E+00;  4.0000000E+04;  0.0000000E+00;  4.0000000E+04; -1.9932631E-04;  0.0000000E+00; -3.3589519E-04;  1.7880684E+03;
  5.9999999E-02;  9.9999998E-03;  3.8999999E-01;2023;  0.0000000E+00;  0.0000000E+00;  0.0000000E+00;  1.0007584E+03;  1.0000000E-01;  6.2832788E+02;0;  0.0000000E+00;  0.0000000E+00;  0.0000000E+00;0; -3.2935513E-04;  4.0000000E+04;  0.0000000E+00;  0.0000000E+00;  4.0000000E+04;  0.0000000E+00;  4.0000000E+04; -1.0659613E-04;  0.0000000E+00; -2.2275899E-04;  1.3121614E+03;
  5.9999999E-02;  9.9999998E-03;  4.0000001E-01;2024;  0.0000000E+00;  0.0000000E+00;  0.0000000E+00;  1.0004890E+03;  1.0000000E-01;  4.0512436E+02;0;  0.0000000E+00;  0.0000000E+00;  0.0000000E+00;0; -1.8772719E-04;  4.0000000E+04;  0.0000000E+00;  0.0000000E+00;  4.0000000E+04;  0.0000000E+00;  4.0000000E+04; -5.2479980E-05;  0.0000000E+00; -1.3524720E-04;  8.6186389E+02;
  7.0000000E-02;  9.9999998E-03;  3.1000000E-01;2045;  0.0000000E+00;  0.0000000E+00;  0.0000000E+00;  1.0074416E+03;  1.0000000E-01;  6.1652578E+03;0;  0.0000000E+00;  0.0000000E+00;  0.0000000E+00;0; -4.8890300E-03;  4.0000000E+04;  0.0000000E+00;  0.0000000E+00;  4.0000000E+04;  0.0000000E+00;  4.0000000E+04; -3.4242622E-03;  0.0000000E+00; -1.4647680E-03;  2.2801958E+03;
  7.0000000E-02;  9.9999998E-03;  3.1999999E-01;2046;  0.0000000E+00;  0.0000000E+00;  0.0000000E+00;  1.0061631E+03;  1.0000000E-01;  5.1060283E+03;0;  0.0000000E+00;  0.0000000E+00;  0.0000000E+00;0; -3.9551524E-03;  4.0000000E+04;  0.0000000E+00;  0.0000000E+00;  4.0000000E+04;  0.0000000E+00;  4.0000000E+04; -2.5698941E-03;  0.0000000E+00; -1.3852582E-03;  2.9129036E+03;
  7.0000000E-02;  9.9999998E-03;  3.3000001E-01;2047;  0.0000000E+00;  0.0000000E+00;  0.0000000E+00;  1.0049594E+03;  1.0000000E-01;  4.1088223E+03;0;  0.0000000E+00;  0.0000000E+00;  0.0000000E+00;0; -3.1020080E-03;  4.0000000E+04;  0.0000000E+00;  0.0000000E+00;  4.0000000E+04;  0.0000000E+00;  4.0000000E+04; -1.8562934E-03;  0.0000000E+00; -1.2457146E-03;  3.2826082E+03;
  7.0000000E-02;  9.9999998E-03;  3.4000000E-01;2048;  0.0000000E+00;  0.0000000E+00;  0.0000000E+00;  1.0038799E+03;  1.0000000E-01;  3.2144275E+03;0;  0.0000000E+00;  0.0000000E+00;  0.0000000E+00;0; -2.3564897E-03;  4.0000000E+04;  0.0000000E+00;  0.0000000E+00;  4.0000000E+04;  0.0000000E+00;  4.0000000E+04; -1.2844490E-03;  0.0000000E+00; -1.0720406E-03;  3.3930017E+03;
  7.0000000E-02;  9.9999998E-03;  3.4999999E-01;2049;  0.0000000E+00;  0.0000000E+00;  0.0000000E+00;  1.0029611E+03;  1.0000000E-01;  2.4532639E+03;0;  0.0000000E+00;  0.0000000E+00;  0.0000000E+00;0; -1.7314926E-03;  4.0000000E+04;  0.0000000E+00;  0.0000000E+00;  4.0000000E+04;  0.0000000E+00;  4.0000000E+04; -8.4613590E-04;  0.0000000E+00; -8.8535668E-04;  3.2795720E+03;
  7.0000000E-02;  9.9999998E-03;  3.6000001E-01;2050;  0.0000000E+00;  0.0000000E+00;  0.0000000E+00;  1.0021907E+03;  1.0000000E-01;  1.8149611E+03;0;  0.0000000E+00;  0.0000000E+00;  0.0000000E+00;0; -1.2274610E-03;  4.0000000E+04;  0.0000000E+00;  0.0000000E+00;  4.0000000E+04;  0.0000000E+00;  4.0000000E+04; -5.2615179E-04;  0.0000000E+00; -7.0130918E-04;  2.9888728E+03;
  7.0000000E-02;  9.9999998E-03;  3.7000000E-01;2051;  0.0000000E+00;  0.0000000E+00;  0.0000000E+00;  1.0015796E+03;  1.0000000E-01;  1.3087037E+03;0;  0.0000000E+00;  0.0000000E+00;  0.0000000E+00;0; -8.3576509E-04;  4.0000000E+04;  0.0000000E+00;  0.0000000E+00;  4.0000000E+04;  0.0000000E+00;  4.0000000E+04; -3.0500442E-04;  0.0000000E+00; -5.3076068E-04;  2.5691824E+03;
  7.0000000E-02;  9.9999998E-03;  3.8000000E-01;2052;  0.0000000E+00;  0.0000000E+00;  0.0000000E+00;  1.0011118E+03;  1.0000000E-01;  9.2106036E+02;0;  0.0000000E+00;  0.0000000E+00;  0.0000000E+00;0; -5.4252933E-04;  4.0000000E+04;  0.0000000E+00;  0.0000000E+00;  4.0000000E+04;  0.0000000E+00;  4.0000000E+04; -1.6162546E-04;  0.0000000E+00; -3.8090389E-04;  2.0681370E+03;
  7.0000000E-02;  9.9999998E-03;  3.8999999E-01;2053;  0.0000000E+00;  0.0000000E+00;  0.0000000E+00;  1.0007518E+03;  1.0000000E-01;  6.2289594E+02;0;  0.0000000E+00;  0.0000000E+00;  0.0000000E+00;0; -3.3185087E-04;  4.0000000E+04;  0.0000000E+00;  0.0000000E+00;  4.0000000E+04;  0.0000000E+00;  4.0000000E+04; -7.5694232E-05;  0.0000000E+00; -2.5615664E-04;  1.5346887E+03;
  7.0000000E-02;  9.9999998E-03;  4.0000001E-01;2054;  0.0000000E+00;  0.0000000E+00;  0.0000000E+00;  1.0004633E+03;  1.0000000E-01;  3.8379163E+02;0;  0.0000000E+00;  0.0000000E+00;  0.0000000E+00;0; -1.8793350E-04;  4.0000000E+04;  0.0000000E+00;  0.0000000E+00;  4.0000000E+04;  0.0000000E+00;  4.0000000E+04; -2.9275801E-05;  0.0000000E+00; -1.5865770E-04;  1.0213435E+03;
  7.9999998E-02;  9.9999998E-03;  3.1000000E-01;2075;  0.0000000E+00;  0.0000000E+00;  0.0000000E+00;  1.0074014E+03;  1.0000000E-01;  6.1319746E+03;0;  0.0000000E+00;  0.0000000E+00;  0.0000000E+00;0; -5.0058002E-03;  4.0000000E+04;  0.0000000E+00;  0.0000000E+00;  4.0000000E+04;  0.0000000E+00;  4.0000000E+04; -3.4598820E-03;  0.0000000E+00; -1.5459183E-03;  2.4314238E+03;
  7.9999998E-02;  9.9999998E-03;  3.1999999E-01;2076;  0.0000000E+00;  0.0000000E+00;  0.0000000E+00;  1.0061439E+03;  1.0000000E-01;  5.0900288E+03;0;  0.0000000E+00;  0.0000000E+00;  0.0000000E+00;0; -4.0692417E-03;  4.0000000E+04;  0.0000000E+00;  0.0000000E+00;  4.0000000E+04;  0.0000000E+00;  4.0000000E+04; -2.5979530E-03;  0.0000000E+00; -1.4712887E-03;  3.2618462E+03;
  7.9999998E-02;  9.9999998E-03;  3.3000001E-01;2077;  0.0000000E+00;  0.0000000E+00;  0.0000000E+00;  1.0049509E+03;  1.0000000E-01;  4.1017109E+03;0;  0.0000000E+00;  0.0000000E+00;  0.0000000E+00;0; -3.2018665E-03;  4.0000000E+04;  0.0000000E+00;  0.0000000E+00;  4.0000000E+04;  0.0000000E+00;  4.0000000E+04; -1.8725055E-03;  0.0000000E+00; -1.3293609E-03;  3.7585991E+03;
  7.9999998E-02;  9.9999998E-03;  3.4000000E-01;2078;  0.0000000E+00;  0.0000000E+00;  0.0000000E+00;  1.0038734E+03;  1.0000000E-01;  3.2090945E+03;0;  0.0000000E+00;  0.0000000E+00;  0.0000000E+00;0; -2.4366225E-03;  4.0000000E+04;  0.0000000E+00;  0.0000000E+00;  4.0000000E+04;  0.0000000E+00;  4.0000000E+04; -1.2873433E-03;  0.0000000E+00; -1.1492792E-03;  3.9323748E+03;
  7.9999998E-02;  9.9999998E-03;  3.4999999E-01;2079;  0.0000000E+00;  0.0000000E+00;  0.0000000E+00;  1.0029456E+03;  1.0000000E-01;  2.4403259E+03;0;  0.0000000E+00;  0.0000000E+00;  0.0000000E+00;0; -1.7910462E-03;  4.0000000E+04;  0.0000000E+00;  0.0000000E+00;  4.0000000E+04;  0.0000000E+00;  4.0000000E+04; -8.3700125E-04;  0.0000000E+00; -9.5404498E-04;  3.8314866E+03;
  7.9999998E-02;  9.9999998E-03;  3.6000001E-01;2080;  0.0000000E+00;  0.0000000E+00;  0.0000000E+00;  1.0021782E+03;  1.0000000E-01;  1.8045909E+03;0;  0.0000000E+00;  0.0000000E+00;  0.0000000E+00;0; -1.2684827E-03;  4.0000000E+04;  0.0000000E+00;  0.0000000E+00;  4.0000000E+04;  0.0000000E+00;  4.0000000E+04; -5.0816854E-04;  0.0000000E+00; -7.6031411E-04;  3.5170442E+03;
  7.9999998E-02;  9.9999998E-03;  3.7000000E-01;2081;  0.0000000E+00;  0.0000000E+00;  0.0000000E+00;  1.0015662E+03;  1.0000000E-01;  1.2975436E+03;0;  0.0000000E+00;  0.0000000E+00;  0.0000000E+00;0; -8.6174370E-04;  4.0000000E+04;  0.0000000E+00;  0.0000000E+00;  4.0000000E+04;  0.0000000E+00;  4.0000000E+04; -2.8217593E-04;  0.0000000E+00; -5.7956780E-04;  3.0489172E+03;
  7.9999998E-02;  9.9999998E-03;  3.8000000E-01;2082;  0.0000000E+00;  0.0000000E+00;  0.0000000E+00;  1.0010847E+03;  1.0000000E-01;  8.9864124E+02;0;  0.0000000E+00;  0.0000000E+00;  0.0000000E+00;0; -5.5733713E-04;  4.0000000E+04;  0.0000000E+00;  0.0000000E+00;  4.0000000E+04;  0.0000000E+00;  4.0000000E+04; -1.3783215E-04;  0.0000000E+00; -4.1950497E-04;  2.4825327E+03;
  7.9999998E-02;  9.9999998E-03;  3.8999999E-01;2083;  0.0000000E+00;  0.0000000E+00;  0.0000000E+00;  1.0007329E+03;  1.0000000E-01;  6.0719269E+02;0;  0.0000000E+00;  0.0000000E+00;  0.0000000E+00;0; -3.3912103E-04;  4.0000000E+04;  0.0000000E+00;  0.0000000E+00;  4.0000000E+04;  0.0000000E+00;  4.0000000E+04; -5.4041040E-05;  0.0000000E+00; -2.8507999E-04;  1.8723411E+03;
  7.9999998E-02;  9.9999998E-03;  4.0000001E-01;2084;  0.0000000E+00;  0.0000000E+00;  0.0000000E+00;  1.0004531E+03;  1.0000000E-01;  3.7539679E+02;0;  0.0000000E+00;  0.0000000E+00;  0.0000000E+00;0; -1.9074947E-04;  4.0000000E+04;  0.0000000E+00;  0.0000000E+00;  4.0000000E+04;  0.0000000E+00;  4.0000000E+04; -1.1758625E-05;  0.0000000E+00; -1.7899084E-04;  1.2761813E+03;
  9.0000004E-02;  9.9999998E-03;  3.1000000E-01;2105;  0.0000000E+00;  0.0000000E+00;  0.0000000E+00;  1.0074092E+03;  1.0000000E-01;  6.1383945E+03;0;  0.0000000E+00;  0.0000000E+00;  0.0000000E+00;0; -5.2187336E-03;  4.0000000E+04;  0.0000000E+00;  0.0000000E+00;  4.0000000E+04;  0.0000000E+00;  4.0000000E+04; -3.6293340E-03;  0.0000000E+00; -1.5893994E-03;  3.0772742E+03;
  9.0000004E-02;  9.9999998E-03;  3.1999999E-01;2106;  0.0000000E+00;  0.0000000E+00;  0.0000000E+00;  1.0061708E+03;  1.0000000E-01;  5.1124482E+03;0;  0.0000000E+00;  0.0000000E+00;  0.0000000E+00;0; -4.2628869E-03;  4.0000000E+04;  0.0000000E+00;  0.0000000E+00;  4.0000000E+04;  0.0000000E+00;  4.0000000E+04; -2.7418318E-03;  0.0000000E+00; -1.5210551E-03;  3.9388831E+03;
  9.0000004E-02;  9.9999998E-03;  3.3000001E-01;2107;  0.0000000E+00;  0.0000000E+00;  0.0000000E+00;  1.0049781E+03;  1.0000000E-01;  4.1243276E+03;0;  0.0000000E+00;  0.0000000E+00;  0.0000000E+00;0; -3.3661025E-03;  4.0000000E+04;  0.0000000E+00;  0.0000000E+00;  4.0000000E+04;  0.0000000E+00;  4.0000000E+04; -1.9858656E-03;  0.0000000E+00; -1.3802368E-03;  4.4833281E+03;
  9.0000004E-02;  9.9999998E-03;  3.4000000E-01;2108;  0.0000000E+00;  0.0000000E+00;  0.0000000E+00;  1.0038942E+03;  1.0000000E-01;  3.2262791E+03;0;  0.0000000E+00;  0.0000000E+00;  0.0000000E+00;0; -2.5676559E-03;  4.0000000E+04;  0.0000000E+00;  0.0000000E+00;  4.0000000E+04;  0.0000000E+00;  4.0000000E+04; -1.3693087E-03;  0.0000000E+00; -1.1983471E-03;  4.6772935E+03;
  9.0000004E-02;  9.9999998E-03;  3.4999999E-01;2109;  0.0000000E+00;  0.0000000E+00;  0.0000000E+00;  1.0029587E+03;  1.0000000E-01;  2.4512888E+03;0;  0.0000000E+00;  0.0000000E+00;  0.0000000E+00;0; -1.8897564E-03;  4.0000000E+04;  0.0000000E+00;  0.0000000E+00;  4.0000000E+04;  0.0000000E+00;  4.0000000E+04; -8.9026365E-04;  0.0000000E+00; -9.9949271E-04;  4.5616138E+03;
  9.0000004E-02;  9.9999998E-03;  3.6000001E-01;2110;  0.0000000E+00;  0.0000000E+00;  0.0000000E+00;  1.0021754E+03;  1.0000000E-01;  1.8022206E+03;0;  0.0000000E+00;  0.0000000E+00;  0.0000000E+00;0; -1.3387018E-03;  4.0000000E+04;  0.0000000E+00;  0.0000000E+00;  4.0000000E+04;  0.0000000E+00;  4.0000000E+04; -5.3785555E-04;  0.0000000E+00; -8.0084626E-04;  4.2022363E+03;
  9.0000004E-02;  9.9999998E-03;  3.7000000E-01;2111;  0.0000000E+00;  0.0000000E+00;  0.0000000E+00;  1.0015529E+03;  1.0000000E-01;  1.2865809E+03;0;  0.0000000E+00;  0.0000000E+00;  0.0000000E+00;0; -9.0873428E-04;  4.0000000E+04;  0.0000000E+00;  0.0000000E+00;  4.0000000E+04;  0.0000000E+00;  4.0000000E+04; -2.9451741E-04;  0.0000000E+00; -6.1421684E-04;  3.6668018E+03;
  9.0000004E-02;  9.9999998E-03;  3.8000000E-01;2112;  0.0000000E+00;  0.0000000E+00;  0.0000000E+00;  1.0010682E+03;  1.0000000E-01;  8.8501202E+02;0;  0.0000000E+00;  0.0000000E+00;  0.0000000E+00;0; -5.8663392E-04;  4.0000000E+04;  0.0000000E+00;  0.0000000E+00;  4.0000000E+04;  0.0000000E+00;  4.0000000E+04; -1.3898587E-04;  0.0000000E+00; -4.4764808E-04;  3.0176672E+03;
  9.0000004E-02;  9.9999998E-03;  3.8999999E-01;2113;  0.0000000E+00;  0.0000000E+00;  0.0000000E+00;  1.0007067E+03;  1.0000000E-01;  5.8546490E+02;0;  0.0000000E+00;  0.0000000E+00;  0.0000000E+00;0; -3.5580120E-04;  4.0000000E+04;  0.0000000E+00;  0.0000000E+00;  4.0000000E+04;  0.0000000E+00;  4.0000000E+04; -4.9262726E-05;  0.0000000E+00; -3.0653848E-04;  2.3143950E+03;
  9.0000004E-02;  9.9999998E-03;  4.0000001E-01;2114;  0.0000000E+00;  0.0000000E+00;  0.0000000E+00;  1.0004385E+03;  1.0000000E-01;  3.6324899E+02;0;  0.0000000E+00;  0.0000000E+00;  0.0000000E+00;0; -1.9909746E-04;  4.0000000E+04;  0.0000000E+00;  0.0000000E+00;  4.0000000E+04;  0.0000000E+00;  4.0000000E+04; -4.9709411E-06;  0.0000000E+00; -1.9412652E-04;  1.6191244E+03;
  1.0000000E-01;  9.9999998E-03;  3.1000000E-01;2135;  0.0000000E+00;  0.0000000E+00;  0.0000000E+00;  1.0075193E+03;  1.0000000E-01;  6.2296509E+03;0;  0.0000000E+00;  0.0000000E+00;  0.0000000E+00;0; -5.5756792E-03;  4.0000000E+04;  0.0000000E+00;  0.0000000E+00;  4.0000000E+04;  0.0000000E+00;  4.0000000E+04; -3.9929450E-03;  0.0000000E+00; -1.5827344E-03;  5.1850884E+03;
  1.0000000E-01;  9.9999998E-03;  3.1999999E-01;2136;  0.0000000E+00;  0.0000000E+00;  0.0000000E+00;  1.0062874E+03;  1.0000000E-01;  5.2090381E+03;0;  0.0000000E+00;  0.0000000E+00;  0.0000000E+00;0; -4.5748511E-03;  4.0000000E+04;  0.0000000E+00;  0.0000000E+00;  4.0000000E+04;  0.0000000E+00;  4.0000000E+04; -3.0515639E-03;  0.0000000E+00; -1.5232870E-03;  5.5054531E+03;
  1.0000000E-01;  9.9999998E-03;  3.3000001E-01;2137;  0.0000000E+00;  0.0000000E+00;  0.0000000E+00;  1.0050825E+03;  1.0000000E-01;  4.2107451E+03;0;  0.0000000E+00;  0.0000000E+00;  0.0000000E+00;0; -3.6257331E-03;  4.0000000E+04;  0.0000000E+00;  0.0000000E+00;  4.0000000E+04;  0.0000000E+00;  4.0000000E+04; -2.2368315E-03;  0.0000000E+00; -1.3889016E-03;  5.7177993E+03;
  1.0000000E-01;  9.9999998E-03;  3.4000000E-01;2138;  0.0000000E+00;  0.0000000E+00;  0.0000000E+00;  1.0039814E+03;  1.0000000E-01;  3.2985735E+03;0;  0.0000000E+00;  0.0000000E+00;  0.0000000E+00;0; -2.7737862E-03;  4.0000000E+04;  0.0000000E+00;  0.0000000E+00;  4.0000000E+04;  0.0000000E+00;  4.0000000E+04; -1.5622263E-03;  0.0000000E+00; -1.2115599E-03;  5.7157388E+03;
  1.0000000E-01;  9.9999998E-03;  3.4999999E-01;2139;  0.0000000E+00;  0.0000000E+00;  0.0000000E+00;  1.0030168E+03;  1.0000000E-01;  2.4993860E+03;0;  0.0000000E+00;  0.0000000E+00;  0.0000000E+00;0; -2.0458978E-03;  4.0000000E+04;  0.0000000E+00;  0.0000000E+00;  4.0000000E+04;  0.0000000E+00;  4.0000000E+04; -1.0304108E-03;  0.0000000E+00; -1.0154869E-03;  5.4732822E+03;
  1.0000000E-01;  9.9999998E-03;  3.6000001E-01;2140;  0.0000000E+00;  0.0000000E+00;  0.0000000E+00;  1.0022072E+03;  1.0000000E-01;  1.8285902E+03;0;  0.0000000E+00;  0.0000000E+00;  0.0000000E+00;0; -1.4514024E-03;  4.0000000E+04;  0.0000000E+00;  0.0000000E+00;  4.0000000E+04;  0.0000000E+00;  4.0000000E+04; -6.3351850E-04;  0.0000000E+00; -8.1788388E-04;  5.0139478E+03;
  1.0000000E-01;  9.9999998E-03;  3.7000000E-01;2141;  0.0000000E+00;  0.0000000E+00;  0.0000000E+00;  1.0015628E+03;  1.0000000E-01;  1.2947782E+03;0;  0.0000000E+00;  0.0000000E+00;  0.0000000E+00;0; -9.8600995E-04;  4.0000000E+04;  0.0000000E+00;  0.0000000E+00;  4.0000000E+04;  0.0000000E+00;  4.0000000E+04; -3.5533207E-04;  0.0000000E+00; -6.3067785E-04;  4.3840654E+03;
  1.0000000E-01;  9.9999998E-03;  3.8000000E-01;2142;  0.0000000E+00;  0.0000000E+00;  0.0000000E+00;  1.0010688E+03;  1.0000000E-01;  8.8550580E+02;0;  0.0000000E+00;  0.0000000E+00;  0.0000000E+00;0; -6.3662941E-04;  4.0000000E+04;  0.0000000E+00;  0.0000000E+00;  4.0000000E+04;  0.0000000E+00;  4.0000000E+04; -1.7446165E-04;  0.0000000E+00; -4.6216775E-04;  3.6375891E+03;
  1.0000000E-01;  9.9999998E-03;  3.8999999E-01;2143;  0.0000000E+00;  0.0000000E+00;  0.0000000E+00;  1.0006919E+03;  1.0000000E-01;  5.7321838E+02;0;  0.0000000E+00;  0.0000000E+00;  0.0000000E+00;0; -3.8589310E-04;  4.0000000E+04;  0.0000000E+00;  0.0000000E+00;  4.0000000E+04;  0.0000000E+00;  4.0000000E+04; -6.7740693E-05;  0.0000000E+00; -3.1815242E-04;  2.8316121E+03;
  1.0000000E-01;  9.9999998E-03;  4.0000001E-01;2144;  0.0000000E+00;  0.0000000E+00;  0.0000000E+00;  1.0004287E+03;  1.0000000E-01;  3.5515045E+02;0;  0.0000000E+00;  0.0000000E+00;  0.0000000E+00;0; -2.1546555E-04;  4.0000000E+04;  0.0000000E+00;  0.0000000E+00;  4.0000000E+04;  0.0000000E+00;  4.0000000E+04; -1.3074836E-05;  0.0000000E+00; -2.0239071E-04;  2.0284568E+03;
  1.1000000E-01;  9.9999998E-03;  3.1000000E-01;2165;  0.0000000E+00;  0.0000000E+00;  0.0000000E+00;  1.0077970E+03;  1.0000000E-01;  6.4596689E+03;0;  0.0000000E+00;  0.0000000E+00;  0.0000000E+00;0; -6.1075641E-03;  4.0000000E+04;  0.0000000E+00;  0.0000000E+00;  4.0000000E+04;  0.0000000E+00;  4.0000000E+04; -4.5870203E-03;  0.0000000E+00; -1.5205438E-03;  9.5528555E+03;
  1.1000000E-01;  9.9999998E-03;  3.1999999E-01;2166;  0.0000000E+00;  0.0000000E+00;  0.0000000E+00;  1.0065434E+03;  1.0000000E-01;  5.4210811E+03;0;  0.0000000E+00;  0.0000000E+00;  0.0000000E+00;0; -5.0334488E-03;  4.0000000E+04;  0.0000000E+00;  0.0000000E+00;  4.0000000E+04;  0.0000000E+00;  4.0000000E+04; -3.5599382E-03;  0.0000000E+00; -1.4735108E-03;  8.8363975E+03;
  1.1000000E-01;  9.9999998E-03;  3.3000001E-01;2167;  0.0000000E+00;  0.0000000E+00;  0.0000000E+00;  1.0053098E+03;  1.0000000E-01;  4.3989868E+03;0;  0.0000000E+00;  0.0000000E+00;  0.0000000E+00;0; -4.0056845E-03;  4.0000000E+04;  0.0000000E+00;  0.0000000E+00;  4.0000000E+04;  0.0000000E+00;  4.0000000E+04; -2.6538426E-03;  0.0000000E+00; -1.3518421E-03;  8.0873833E+03;
  1.1000000E-01;  9.9999998E-03;  3.4000000E-01;2168;  0.0000000E+00;  0.0000000E+00;  0.0000000E+00;  1.0041595E+03;  1.0000000E-01;  3.4461248E+03;0;  0.0000000E+00;  0.0000000E+00;  0.0000000E+00;0; -3.0758902E-03;  4.0000000E+04;  0.0000000E+00;  0.0000000E+00;  4.0000000E+04;  0.0000000E+00;  4.0000000E+04; -1.8897880E-03;  0.0000000E+00; -1.1861022E-03;  7.3726338E+03;
  1.1000000E-01;  9.9999998E-03;  3.4999999E-01;2169;  0.0000000E+00;  0.0000000E+00;  0.0000000E+00;  1.0031505E+03;  1.0000000E-01;  2.6100991E+03;0;  0.0000000E+00;  0.0000000E+00;  0.0000000E+00;0; -2.2760257E-03;  4.0000000E+04;  0.0000000E+00;  0.0000000E+00;  4.0000000E+04;  0.0000000E+00;  4.0000000E+04; -1.2763599E-03;  0.0000000E+00; -9.9966594E-04;  6.6744868E+03;
  1.1000000E-01;  9.9999998E-03;  3.6000001E-01;2170;  0.0000000E+00;  0.0000000E+00;  0.0000000E+00;  1.0022998E+03;  1.0000000E-01;  1.9053289E+03;0;  0.0000000E+00;  0.0000000E+00;  0.0000000E+00;0; -1.6189978E-03;  4.0000000E+04;  0.0000000E+00;  0.0000000E+00;  4.0000000E+04;  0.0000000E+00;  4.0000000E+04; -8.0961623E-04;  0.0000000E+00; -8.0938154E-04;  5.9445654E+03;
  1.1000000E-01;  9.9999998E-03;  3.7000000E-01;2171;  0.0000000E+00;  0.0000000E+00;  0.0000000E+00;  1.0016199E+03;  1.0000000E-01;  1.3420854E+03;0;  0.0000000E+00;  0.0000000E+00;  0.0000000E+00;0; -1.1023352E-03;  4.0000000E+04;  0.0000000E+00;  0.0000000E+00;  4.0000000E+04;  0.0000000E+00;  4.0000000E+04; -4.7517140E-04;  0.0000000E+00; -6.2716380E-04;  5.1500996E+03;
  1.1000000E-01;  9.9999998E-03;  3.8000000E-01;2172;  0.0000000E+00;  0.0000000E+00;  0.0000000E+00;  1.0010910E+03;  1.0000000E-01;  9.0387567E+02;0;  0.0000000E+00;  0.0000000E+00;  0.0000000E+00;0; -7.1313890E-04;  4.0000000E+04;  0.0000000E+00;  0.0000000E+00;  4.0000000E+04;  0.0000000E+00;  4.0000000E+04; -2.5160023E-04;  0.0000000E+00; -4.6153867E-04;  4.2881533E+03;
  1.1000000E-01;  9.9999998E-03;  3.8999999E-01;2173;  0.0000000E+00;  0.0000000E+00;  0.0000000E+00;  1.0007032E+03;  1.0000000E-01;  5.8260083E+02;0;  0.0000000E+00;  0.0000000E+00;  0.0000000E+00;0; -4.3302387E-04;  4.0000000E+04;  0.0000000E+00;  0.0000000E+00;  4.0000000E+04;  0.0000000E+00;  4.0000000E+04; -1.1433043E-04;  0.0000000E+00; -3.1869343E-04;  3.3821118E+03;
  1.1000000E-01;  9.9999998E-03;  4.0000001E-01;2174;  0.0000000E+00;  0.0000000E+00;  0.0000000E+00;  1.0004332E+03;  1.0000000E-01;  3.5890344E+02;0;  0.0000000E+00;  0.0000000E+00;  0.0000000E+00;0; -2.4200729E-04;  4.0000000E+04;  0.0000000E+00;  0.0000000E+00;  4.0000000E+04;  0.0000000E+00;  4.0000000E+04; -3.9115606E-05;  0.0000000E+00; -2.0289168E-04;  2.4773169E+03;
  1.2000000E-01;  9.9999998E-03;  3.1000000E-01;2195;  0.0000000E+00;  0.0000000E+00;  0.0000000E+00;  1.0082642E+03;  1.0000000E-01;  6.8467197E+03;0;  0.0000000E+00;  0.0000000E+00;  0.0000000E+00;0; -6.8272376E-03;  4.0000000E+04;  0.0000000E+00;  0.0000000E+00;  4.0000000E+04;  0.0000000E+00;  4.0000000E+04; -5.4197460E-03;  0.0000000E+00; -1.4074915E-03;  1.6703383E+04;
  1.2000000E-01;  9.9999998E-03;  3.1999999E-01;2196;  0.0000000E+00;  0.0000000E+00;  0.0000000E+00;  1.0069743E+03;  1.0000000E-01;  5.7781084E+03;0;  0.0000000E+00;  0.0000000E+00;  0.0000000E+00;0; -5.6557688E-03;  4.0000000E+04;  0.0000000E+00;  0.0000000E+00;  4.0000000E+04;  0.0000000E+00;  4.0000000E+04; -4.2793695E-03;  0.0000000E+00; -1.3763992E-03;  1.4714675E+04;
  1.2000000E-01;  9.9999998E-03;  3.3000001E-01;2197;  0.0000000E+00;  0.0000000E+00;  0.0000000E+00;  1.0056843E+03;  1.0000000E-01;  4.7092988E+03;0;  0.0000000E+00;  0.0000000E+00;  0.0000000E+00;0; -4.5243623E-03;  4.0000000E+04;  0.0000000E+00;  0.0000000E+00;  4.0000000E+04;  0.0000000E+00;  4.0000000E+04; -3.2511493E-03;  0.0000000E+00; -1.2732128E-03;  1.2440900E+04;
  1.2000000E-01;  9.9999998E-03;  3.4000000E-01;2198;  0.0000000E+00;  0.0000000E+00;  0.0000000E+00;  1.0044713E+03;  1.0000000E-01;  3.7043892E+03;0;  0.0000000E+00;  0.0000000E+00;  0.0000000E+00;0; -3.4913551E-03;  4.0000000E+04;  0.0000000E+00;  0.0000000E+00;  4.0000000E+04;  0.0000000E+00;  4.0000000E+04; -2.3660399E-03;  0.0000000E+00; -1.1253151E-03;  1.0295542E+04;
  1.2000000E-01;  9.9999998E-03;  3.4999999E-01;2199;  0.0000000E+00;  0.0000000E+00;  0.0000000E+00;  1.0033932E+03;  1.0000000E-01;  2.8111797E+03;0;  0.0000000E+00;  0.0000000E+00;  0.0000000E+00;0; -2.5950267E-03;  4.0000000E+04;  0.0000000E+00;  0.0000000E+00;  4.0000000E+04;  0.0000000E+00;  4.0000000E+04; -1.6405198E-03;  0.0000000E+00; -9.5450692E-04;  8.5019316E+03;
  1.2000000E-01;  9.9999998E-03;  3.6000001E-01;2200;  0.0000000E+00;  0.0000000E+00;  0.0000000E+00;  1.0024725E+03;  1.0000000E-01;  2.0484358E+03;0;  0.0000000E+00;  0.0000000E+00;  0.0000000E+00;0; -1.8532048E-03;  4.0000000E+04;  0.0000000E+00;  0.0000000E+00;  4.0000000E+04;  0.0000000E+00;  4.0000000E+04; -1.0761634E-03;  0.0000000E+00; -7.7704142E-04;  7.0812505E+03;
  1.2000000E-01;  9.9999998E-03;  3.7000000E-01;2201;  0.0000000E+00;  0.0000000E+00;  0.0000000E+00;  1.0017387E+03;  1.0000000E-01;  1.4404531E+03;0;  0.0000000E+00;  0.0000000E+00;  0.0000000E+00;0; -1.2662378E-03;  4.0000000E+04;  0.0000000E+00;  0.0000000E+00;  4.0000000E+04;  0.0000000E+00;  4.0000000E+04; -6.6147721E-04;  0.0000000E+00; -6.0476054E-04;  5.9264702E+03;
  1.2000000E-01;  9.9999998E-03;  3.8000000E-01;2202;  0.0000000E+00;  0.0000000E+00;  0.0000000E+00;  1.0011582E+03;  1.0000000E-01;  9.5957782E+02;0;  0.0000000E+00;  0.0000000E+00;  0.0000000E+00;0; -8.2189334E-04;  4.0000000E+04;  0.0000000E+00;  0.0000000E+00;  4.0000000E+04;  0.0000000E+00;  4.0000000E+04; -3.7549969E-04;  0.0000000E+00; -4.4639368E-04;  4.9042676E+03;
  1.2000000E-01;  9.9999998E-03;  3.8999999E-01;2203;  0.0000000E+00;  0.0000000E+00;  0.0000000E+00;  1.0007318E+03;  1.0000000E-01;  6.0630383E+02;0;  0.0000000E+00;  0.0000000E+00;  0.0000000E+00;0; -5.0075381E-04;  4.0000000E+04;  0.0000000E+00;  0.0000000E+00;  4.0000000E+04;  0.0000000E+00;  4.0000000E+04; -1.9225548E-04;  0.0000000E+00; -3.0849833E-04;  3.9235515E+03;
  1.2000000E-01;  9.9999998E-03;  4.0000001E-01;2204;  0.0000000E+00;  0.0000000E+00;  0.0000000E+00;  1.0004474E+03;  1.0000000E-01;  3.7065619E+02;0;  0.0000000E+00;  0.0000000E+00;  0.0000000E+00;0; -2.8080124E-04;  4.0000000E+04;  0.0000000E+00;  0.0000000E+00;  4.0000000E+04;  0.0000000E+00;  4.0000000E+04; -8.4982872E-05;  0.0000000E+00; -1.9581836E-04;  2.9564385E+03;
  1.3000000E-01;  9.9999998E-03;  3.1000000E-01;2225;  0.0000000E+00;  0.0000000E+00;  0.0000000E+00;  1.0089345E+03;  1.0000000E-01;  7.4020625E+03;0;  0.0000000E+00;  0.0000000E+00;  0.0000000E+00;0; -7.7290088E-03;  4.0000000E+04;  0.0000000E+00;  0.0000000E+00;  4.0000000E+04;  0.0000000E+00;  4.0000000E+04; -6.4705121E-03;  0.0000000E+00; -1.2584968E-03;  2.7101223E+04;
  1.3000000E-01;  9.9999998E-03;  3.1999999E-01;2226;  0.0000000E+00;  0.0000000E+00;  0.0000000E+00;  1.0075898E+03;  1.0000000E-01;  6.2880195E+03;0;  0.0000000E+00;  0.0000000E+00;  0.0000000E+00;0; -6.4460780E-03;  4.0000000E+04;  0.0000000E+00;  0.0000000E+00;  4.0000000E+04;  0.0000000E+00;  4.0000000E+04; -5.2003120E-03;  0.0000000E+00; -1.2457658E-03;  2.3760369E+04;
  1.3000000E-01;  9.9999998E-03;  3.3000001E-01;2227;  0.0000000E+00;  0.0000000E+00;  0.0000000E+00;  1.0062243E+03;  1.0000000E-01;  5.1566938E+03;0;  0.0000000E+00;  0.0000000E+00;  0.0000000E+00;0; -5.1915925E-03;  4.0000000E+04;  0.0000000E+00;  0.0000000E+00;  4.0000000E+04;  0.0000000E+00;  4.0000000E+04; -4.0269112E-03;  0.0000000E+00; -1.1646810E-03;  1.9557701E+04;
  1.3000000E-01;  9.9999998E-03;  3.4000000E-01;2228;  0.0000000E+00;  0.0000000E+00;  0.0000000E+00;  1.0049188E+03;  1.0000000E-01;  4.0751440E+03;0;  0.0000000E+00;  0.0000000E+00;  0.0000000E+00;0; -4.0321019E-03;  4.0000000E+04;  0.0000000E+00;  0.0000000E+00;  4.0000000E+04;  0.0000000E+00;  4.0000000E+04; -2.9935462E-03;  0.0000000E+00; -1.0385559E-03;  1.5289771E+04;
  1.3000000E-01;  9.9999998E-03;  3.4999999E-01;2229;  0.0000000E+00;  0.0000000E+00;  0.0000000E+00;  1.0037443E+03;  1.0000000E-01;  3.1021345E+03;0;  0.0000000E+00;  0.0000000E+00;  0.0000000E+00;0; -3.0145328E-03;  4.0000000E+04;  0.0000000E+00;  0.0000000E+00;  4.0000000E+04;  0.0000000E+00;  4.0000000E+04; -2.1272493E-03;  0.0000000E+00; -8.8728371E-04;  1.1560506E+04;
  1.3000000E-01;  9.9999998E-03;  3.6000001E-01;2230;  0.0000000E+00;  0.0000000E+00;  0.0000000E+00;  1.0027430E+03;  1.0000000E-01;  2.2725283E+03;0;  0.0000000E+00;  0.0000000E+00;  0.0000000E+00;0; -2.1639515E-03;  4.0000000E+04;  0.0000000E+00;  0.0000000E+00;  4.0000000E+04;  0.0000000E+00;  4.0000000E+04; -1.4375611E-03;  0.0000000E+00; -7.2639034E-04;  8.6958740E+03;
  1.3000000E-01;  9.9999998E-03;  3.7000000E-01;2231;  0.0000000E+00;  0.0000000E+00;  0.0000000E+00;  1.0019196E+03;  1.0000000E-01;  1.5902760E+03;0;  0.0000000E+00;  0.0000000E+00;  0.0000000E+00;0; -1.4853519E-03;  4.0000000E+04;  0.0000000E+00;  0.0000000E+00;  4.0000000E+04;  0.0000000E+00;  4.0000000E+04; -9.1777573E-04;  0.0000000E+00; -5.6757627E-04;  6.7253599E+03;
  1.3000000E-01;  9.9999998E-03;  3.8000000E-01;2232;  0.0000000E+00;  0.0000000E+00;  0.0000000E+00;  1.0012818E+03;  1.0000000E-01;  1.0619946E+03;0;  0.0000000E+00;  0.0000000E+00;  0.0000000E+00;0; -9.6826104E-04;  4.0000000E+04;  0.0000000E+00;  0.0000000E+00;  4.0000000E+04;  0.0000000E+00;  4.0000000E+04; -5.4854288E-04;  0.0000000E+00; -4.1971816E-04;  5.4190938E+03;
  1.3000000E-01;  9.9999998E-03;  3.8999999E-01;2233;  0.0000000E+00;  0.0000000E+00;  0.0000000E+00;  1.0008013E+03;  1.0000000E-01;  6.6388245E+02;0;  0.0000000E+00;  0.0000000E+00;  0.0000000E+00;0; -5.9256883E-04;  4.0000000E+04;  0.0000000E+00;  0.0000000E+00;  4.0000000E+04;  0.0000000E+00;  4.0000000E+04; -3.0289270E-04;  0.0000000E+00; -2.8967613E-04;  4.4368081E+03;
  1.3000000E-01;  9.9999998E-03;  4.0000001E-01;2234;  0.0000000E+00;  0.0000000E+00;  0.0000000E+00;  1.0004830E+03;  1.0000000E-01;  4.0018622E+02;0;  0.0000000E+00;  0.0000000E+00;  0.0000000E+00;0; -3.3399611E-04;  4.0000000E+04;  0.0000000E+00;  0.0000000E+00;  4.0000000E+04;  0.0000000E+00;  4.0000000E+04; -1.5137342E-04;  0.0000000E+00; -1.8262269E-04;  3.5208799E+03;
  1.4000000E-01;  9.9999998E-03;  3.1000000E-01;2255;  0.0000000E+00;  0.0000000E+00;  0.0000000E+00;  1.0097750E+03;  1.0000000E-01;  8.0983389E+03;0;  0.0000000E+00;  0.0000000E+00;  0.0000000E+00;0; -8.7872194E-03;  4.0000000E+04;  0.0000000E+00;  0.0000000E+00;  4.0000000E+04;  0.0000000E+00;  4.0000000E+04; -7.6912628E-03;  0.0000000E+00; -1.0959570E-03;  4.1104027E+04;
  1.4000000E-01;  9.9999998E-03;  3.1999999E-01;2256;  0.0000000E+00;  0.0000000E+00;  0.0000000E+00;  1.0083714E+03;  1.0000000E-01;  6.9355073E+03;0;  0.0000000E+00;  0.0000000E+00;  0.0000000E+00;0; -7.3921215E-03;  4.0000000E+04;  0.0000000E+00;  0.0000000E+00;  4.0000000E+04;  0.0000000E+00;  4.0000000E+04; -6.2902747E-03;  0.0000000E+00; -1.1018466E-03;  3.6492590E+04;
  1.4000000E-01;  9.9999998E-03;  3.3000001E-01;2257;  0.0000000E+00;  0.0000000E+00;  0.0000000E+00;  1.0069186E+03;  1.0000000E-01;  5.7318872E+03;0;  0.0000000E+00;  0.0000000E+00;  0.0000000E+00;0; -6.0039489E-03;  4.0000000E+04;  0.0000000E+00;  0.0000000E+00;  4.0000000E+04;  0.0000000E+00;  4.0000000E+04; -4.9607060E-03;  0.0000000E+00; -1.0432429E-03;  3.0072178E+04;
  1.4000000E-01;  9.9999998E-03;  3.4000000E-01;2258;  0.0000000E+00;  0.0000000E+00;  0.0000000E+00;  1.0055062E+03;  1.0000000E-01;  4.5618462E+03;0;  0.0000000E+00;  0.0000000E+00;  0.0000000E+00;0; -4.6999855E-03;  4.0000000E+04;  0.0000000E+00;  0.0000000E+00;  4.0000000E+04;  0.0000000E+00;  4.0000000E+04; -3.7603080E-03;  0.0000000E+00; -9.3967764E-04;  2.3071594E+04;
  1.4000000E-01;  9.9999998E-03;  3.4999999E-01;2259;  0.0000000E+00;  0.0000000E+00;  0.0000000E+00;  1.0042150E+03;  1.0000000E-01;  3.4920493E+03;0;  0.0000000E+00;  0.0000000E+00;  0.0000000E+00;0; -3.5389694E-03;  4.0000000E+04;  0.0000000E+00;  0.0000000E+00;  4.0000000E+04;  0.0000000E+00;  4.0000000E+04; -2.7298459E-03;  0.0000000E+00; -8.0912362E-04;  1.6548713E+04;
  1.4000000E-01;  9.9999998E-03;  3.6000001E-01;2260;  0.0000000E+00;  0.0000000E+00;  0.0000000E+00;  1.0030947E+03;  1.0000000E-01;  2.5638782E+03;0;  0.0000000E+00;  0.0000000E+00;  0.0000000E+00;0; -2.5563545E-03;  4.0000000E+04;  0.0000000E+00;  0.0000000E+00;  4.0000000E+04;  0.0000000E+00;  4.0000000E+04; -1.8901022E-03;  0.0000000E+00; -6.6625240E-04;  1.1260020E+04;
  1.4000000E-01;  9.9999998E-03;  3.7000000E-01;2261;  0.0000000E+00;  0.0000000E+00;  0.0000000E+00;  1.0021746E+03;  1.0000000E-01;  1.8016281E+03;0;  0.0000000E+00;  0.0000000E+00;  0.0000000E+00;0; -1.7643940E-03;  4.0000000E+04;  0.0000000E+00;  0.0000000E+00;  4.0000000E+04;  0.0000000E+00;  4.0000000E+04; -1.2418905E-03;  0.0000000E+00; -5.2250351E-04;  7.6567290E+03;
  1.4000000E-01;  9.9999998E-03;  3.8000000E-01;2262;  0.0000000E+00;  0.0000000E+00;  0.0000000E+00;  1.0014579E+03;  1.0000000E-01;  1.2078671E+03;0;  0.0000000E+00;  0.0000000E+00;  0.0000000E+00;0; -1.1560770E-03;  4.0000000E+04;  0.0000000E+00;  0.0000000E+00;  4.0000000E+04;  0.0000000E+00;  4.0000000E+04; -7.6929695E-04;  0.0000000E+00; -3.8678010E-04;  5.7732471E+03;
  1.4000000E-01;  9.9999998E-03;  3.8999999E-01;2263;  0.0000000E+00;  0.0000000E+00;  0.0000000E+00;  1.0009163E+03;  1.0000000E-01;  7.5908966E+02;0;  0.0000000E+00;  0.0000000E+00;  0.0000000E+00;0; -7.1135856E-04;  4.0000000E+04;  0.0000000E+00;  0.0000000E+00;  4.0000000E+04;  0.0000000E+00;  4.0000000E+04; -4.4522205E-04;  0.0000000E+00; -2.6613651E-04;  4.9688750E+03;
  1.4000000E-01;  9.9999998E-03;  4.0000001E-01;2264;  0.0000000E+00;  0.0000000E+00;  0.0000000E+00;  1.0005340E+03;  1.0000000E-01;  4.4235785E+02;0;  0.0000000E+00;  0.0000000E+00;  0.0000000E+00;0; -4.0368049E-04;  4.0000000E+04;  0.0000000E+00;  0.0000000E+00;  4.0000000E+04;  0.0000000E+00;  4.0000000E+04; -2.3757761E-04;  0.0000000E+00; -1.6610287E-04;  4.3596108E+03;
  1.5000001E-01;  9.9999998E-03;  3.1000000E-01;2285;  0.0000000E+00;  0.0000000E+00;  0.0000000E+00;  1.0107172E+03;  1.0000000E-01;  8.8789590E+03;0;  0.0000000E+00;  0.0000000E+00;  0.0000000E+00;0; -9.9546127E-03;  4.0000000E+04;  0.0000000E+00;  0.0000000E+00;  4.0000000E+04;  0.0000000E+00;  4.0000000E+04; -9.0104649E-03;  0.0000000E+00; -9.4414735E-04;  5.8907125E+04;
  1.5000001E-01;  9.9999998E-03;  3.1999999E-01;2286;  0.0000000E+00;  0.0000000E+00;  0.0000000E+00;  1.0092654E+03;  1.0000000E-01;  7.6762275E+03;0;  0.0000000E+00;  0.0000000E+00;  0.0000000E+00;0; -8.4599135E-03;  4.0000000E+04;  0.0000000E+00;  0.0000000E+00;  4.0000000E+04;  0.0000000E+00;  4.0000000E+04; -7.4934368E-03;  0.0000000E+00; -9.6647703E-04;  5.3285117E+04;
  1.5000001E-01;  9.9999998E-03;  3.3000001E-01;2287;  0.0000000E+00;  0.0000000E+00;  0.0000000E+00;  1.0077254E+03;  1.0000000E-01;  6.4003130E+03;0;  0.0000000E+00;  0.0000000E+00;  0.0000000E+00;0; -6.9381166E-03;  4.0000000E+04;  0.0000000E+00;  0.0000000E+00;  4.0000000E+04;  0.0000000E+00;  4.0000000E+04; -6.0102805E-03;  0.0000000E+00; -9.2783617E-04;  4.4454906E+04;
  1.5000001E-01;  9.9999998E-03;  3.4000000E-01;2288;  0.0000000E+00;  0.0000000E+00;  0.0000000E+00;  1.0062003E+03;  1.0000000E-01;  5.1368423E+03;0;  0.0000000E+00;  0.0000000E+00;  0.0000000E+00;0; -5.4800706E-03;  4.0000000E+04;  0.0000000E+00;  0.0000000E+00;  4.0000000E+04;  0.0000000E+00;  4.0000000E+04; -4.6352069E-03;  0.0000000E+00; -8.4486348E-04;  3.4154152E+04;
  1.5000001E-01;  9.9999998E-03;  3.4999999E-01;2289;  0.0000000E+00;  0.0000000E+00;  0.0000000E+00;  1.0047863E+03;  1.0000000E-01;  3.9654187E+03;0;  0.0000000E+00;  0.0000000E+00;  0.0000000E+00;0; -4.1596321E-03;  4.0000000E+04;  0.0000000E+00;  0.0000000E+00;  4.0000000E+04;  0.0000000E+00;  4.0000000E+04; -3.4259534E-03;  0.0000000E+00; -7.3367852E-04;  2.4007287E+04;
  1.5000001E-01;  9.9999998E-03;  3.6000001E-01;2290;  0.0000000E+00;  0.0000000E+00;  0.0000000E+00;  1.0035356E+03;  1.0000000E-01;  2.9292012E+03;0;  0.0000000E+00;  0.0000000E+00;  0.0000000E+00;0; -3.0260533E-03;  4.0000000E+04;  0.0000000E+00;  0.0000000E+00;  4.0000000E+04;  0.0000000E+00;  4.0000000E+04; -2.4180652E-03;  0.0000000E+00; -6.0798810E-04;  1.5276598E+04;
  1.5000001E-01;  9.9999998E-03;  3.7000000E-01;2291;  0.0000000E+00;  0.0000000E+00;  0.0000000E+00;  1.0024947E+03;  1.0000000E-01;  2.0668057E+03;0;  0.0000000E+00;  0.0000000E+00;  0.0000000E+00;0; -2.1018330E-03;  4.0000000E+04;  0.0000000E+00;  0.0000000E+00;  4.0000000E+04;  0.0000000E+00;  4.0000000E+04; -1.6230179E-03;  0.0000000E+00; -4.7881500E-04;  8.9436094E+03;
  1.5000001E-01;  9.9999998E-03;  3.8000000E-01;2292;  0.0000000E+00;  0.0000000E+00;  0.0000000E+00;  1.0016732E+03;  1.0000000E-01;  1.3862324E+03;0;  0.0000000E+00;  0.0000000E+00;  0.0000000E+00;0; -1.3855356E-03;  4.0000000E+04;  0.0000000E+00;  0.0000000E+00;  4.0000000E+04;  0.0000000E+00;  4.0000000E+04; -1.0305770E-03;  0.0000000E+00; -3.5495861E-04;  5.9224507E+03;
  1.5000001E-01;  9.9999998E-03;  3.8999999E-01;2293;  0.0000000E+00;  0.0000000E+00;  0.0000000E+00;  1.0010576E+03;  1.0000000E-01;  8.7612335E+02;0;  0.0000000E+00;  0.0000000E+00;  0.0000000E+00;0; -8.5822912E-04;  4.0000000E+04;  0.0000000E+00;  0.0000000E+00;  4.0000000E+04;  0.0000000E+00;  4.0000000E+04; -6.1467028E-04;  0.0000000E+00; -2.4355887E-04;  5.6934438E+03;
  1.5000001E-01;  9.9999998E-03;  4.0000001E-01;2294;  0.0000000E+00;  0.0000000E+00;  0.0000000E+00;  1.0006237E+03;  1.0000000E-01;  5.1672614E+02;0;  0.0000000E+00;  0.0000000E+00;  0.0000000E+00;0; -4.9122621E-04;  4.0000000E+04;  0.0000000E+00;  0.0000000E+00;  4.0000000E+04;  0.0000000E+00;  4.0000000E+04; -3.4080990E-04;  0.0000000E+00; -1.5041634E-04;  5.8191450E+03;
  1.6000000E-01;  9.9999998E-03;  3.1000000E-01;2315;  0.0000000E+00;  0.0000000E+00;  0.0000000E+00;  1.0116588E+03;  1.0000000E-01;  9.6590850E+03;0;  0.0000000E+00;  0.0000000E+00;  0.0000000E+00;0; -1.1162431E-02;  4.0000000E+04;  0.0000000E+00;  0.0000000E+00;  4.0000000E+04;  0.0000000E+00;  4.0000000E+04; -1.0340349E-02;  0.0000000E+00; -8.2208216E-04;  8.0484680E+04;
  1.6000000E-01;  9.9999998E-03;  3.1999999E-01;2316;  0.0000000E+00;  0.0000000E+00;  0.0000000E+00;  1.0101852E+03;  1.0000000E-01;  8.4381807E+03;0;  0.0000000E+00;  0.0000000E+00;  0.0000000E+00;0; -9.5902877E-03;  4.0000000E+04;  0.0000000E+00;  0.0000000E+00;  4.0000000E+04;  0.0000000E+00;  4.0000000E+04; -8.7316949E-03;  0.0000000E+00; -8.5859245E-04;  7.4224312E+04;
  1.6000000E-01;  9.9999998E-03;  3.3000001E-01;2317;  0.0000000E+00;  0.0000000E+00;  0.0000000E+00;  1.0085659E+03;  1.0000000E-01;  7.0966880E+03;0;  0.0000000E+00;  0.0000000E+00;  0.0000000E+00;0; -7.9458049E-03;  4.0000000E+04;  0.0000000E+00;  0.0000000E+00;  4.0000000E+04;  0.0000000E+00;  4.0000000E+04; -7.1090725E-03;  0.0000000E+00; -8.3673262E-04;  6.2855930E+04;
  1.6000000E-01;  9.9999998E-03;  3.4000000E-01;2318;  0.0000000E+00;  0.0000000E+00;  0.0000000E+00;  1.0069364E+03;  1.0000000E-01;  5.7467017E+03;0;  0.0000000E+00;  0.0000000E+00;  0.0000000E+00;0; -6.3350401E-03;  4.0000000E+04;  0.0000000E+00;  0.0000000E+00;  4.0000000E+04;  0.0000000E+00;  4.0000000E+04; -5.5639446E-03;  0.0000000E+00; -7.7109557E-04;  4.8717828E+04;
  1.6000000E-01;  9.9999998E-03;  3.4999999E-01;2319;  0.0000000E+00;  0.0000000E+00;  0.0000000E+00;  1.0053894E+03;  1.0000000E-01;  4.4650591E+03;0;  0.0000000E+00;  0.0000000E+00;  0.0000000E+00;0; -4.8493654E-03;  4.0000000E+04;  0.0000000E+00;  0.0000000E+00;  4.0000000E+04;  0.0000000E+00;  4.0000000E+04; -4.1731312E-03;  0.0000000E+00; -6.7623437E-04;  3.4142590E+04;
  1.6000000E-01;  9.9999998E-03;  3.6000001E-01;2320;  0.0000000E+00;  0.0000000E+00;  0.0000000E+00;  1.0040102E+03;  1.0000000E-01;  3.3223752E+03;0;  0.0000000E+00;  0.0000000E+00;  0.0000000E+00;0; -3.5546951E-03;  4.0000000E+04;  0.0000000E+00;  0.0000000E+00;  4.0000000E+04;  0.0000000E+00;  4.0000000E+04; -2.9897229E-03;  0.0000000E+00; -5.6497217E-04;  2.1013416E+04;
  1.6000000E-01;  9.9999998E-03;  3.7000000E-01;2321;  0.0000000E+00;  0.0000000E+00;  0.0000000E+00;  1.0028431E+03;  1.0000000E-01;  2.3554890E+03;0;  0.0000000E+00;  0.0000000E+00;  0.0000000E+00;0; -2.4864324E-03;  4.0000000E+04;  0.0000000E+00;  0.0000000E+00;  4.0000000E+04;  0.0000000E+00;  4.0000000E+04; -2.0385245E-03;  0.0000000E+00; -4.4790789E-04;  1.0829329E+04;
  1.6000000E-01;  9.9999998E-03;  3.8000000E-01;2322;  0.0000000E+00;  0.0000000E+00;  0.0000000E+00;  1.0019196E+03;  1.0000000E-01;  1.5903748E+03;0;  0.0000000E+00;  0.0000000E+00;  0.0000000E+00;0; -1.6506726E-03;  4.0000000E+04;  0.0000000E+00;  0.0000000E+00;  4.0000000E+04;  0.0000000E+00;  4.0000000E+04; -1.3170105E-03;  0.0000000E+00; -3.3366214E-04;  5.8433232E+03;
  1.6000000E-01;  9.9999998E-03;  3.8999999E-01;2323;  0.0000000E+00;  0.0000000E+00;  0.0000000E+00;  1.0012258E+03;  1.0000000E-01;  1.0154775E+03;0;  0.0000000E+00;  0.0000000E+00;  0.0000000E+00;0; -1.0307146E-03;  4.0000000E+04;  0.0000000E+00;  0.0000000E+00;  4.0000000E+04;  0.0000000E+00;  4.0000000E+04; -8.0134056E-04;  0.0000000E+00; -2.2937403E-04;  6.9244780E+03;
  1.6000000E-01;  9.9999998E-03;  4.0000001E-01;2324;  0.0000000E+00;  0.0000000E+00;  0.0000000E+00;  1.0007268E+03;  1.0000000E-01;  6.0215582E+02;0;  0.0000000E+00;  0.0000000E+00;  0.0000000E+00;0; -5.9615064E-04;  4.0000000E+04;  0.0000000E+00;  0.0000000E+00;  4.0000000E+04;  0.0000000E+00;  4.0000000E+04; -4.5506464E-04;  0.0000000E+00; -1.4108597E-04;  8.2752344E+03;
  1.7000000E-01;  9.9999998E-03;  3.1000000E-01;2345;  0.0000000E+00;  0.0000000E+00;  0.0000000E+00;  1.0124796E+03;  1.0000000E-01;  1.0339065E+04;0;  0.0000000E+00;  0.0000000E+00;  0.0000000E+00;0; -1.2326374E-02;  4.0000000E+04;  0.0000000E+00;  0.0000000E+00;  4.0000000E+04;  0.0000000E+00;  4.0000000E+04; -1.1583172E-02;  0.0000000E+00; -7.4320188E-04;  1.0537897E+05;
  1.7000000E-01;  9.9999998E-03;  3.1999999E-01;2346;  0.0000000E+00;  0.0000000E+00;  0.0000000E+00;  1.0110007E+03;  1.0000000E-01;  9.1139150E+03;0;  0.0000000E+00;  0.0000000E+00;  0.0000000E+00;0; -1.0704231E-02;  4.0000000E+04;  0.0000000E+00;  0.0000000E+00;  4.0000000E+04;  0.0000000E+00;  4.0000000E+04; -9.9095888E-03;  0.0000000E+00; -7.9464121E-04;  9.8815414E+04;
  1.7000000E-01;  9.9999998E-03;  3.3000001E-01;2347;  0.0000000E+00;  0.0000000E+00;  0.0000000E+00;  1.0093342E+03;  1.0000000E-01;  7.7332134E+03;0;  0.0000000E+00;  0.0000000E+00;  0.0000000E+00;0; -8.9575071E-03;  4.0000000E+04;  0.0000000E+00;  0.0000000E+00;  4.0000000E+04;  0.0000000E+00;  4.0000000E+04; -8.1696119E-03;  0.0000000E+00; -7.8789546E-04;  8.4789734E+04;
  1.7000000E-01;  9.9999998E-03;  3.4000000E-01;2348;  0.0000000E+00;  0.0000000E+00;  0.0000000E+00;  1.0076086E+03;  1.0000000E-01;  6.3035254E+03;0;  0.0000000E+00;  0.0000000E+00;  0.0000000E+00;0; -7.2071487E-03;  4.0000000E+04;  0.0000000E+00;  0.0000000E+00;  4.0000000E+04;  0.0000000E+00;  4.0000000E+04; -6.4707655E-03;  0.0000000E+00; -7.3638308E-04;  6.6340844E+04;
  1.7000000E-01;  9.9999998E-03;  3.4999999E-01;2349;  0.0000000E+00;  0.0000000E+00;  0.0000000E+00;  1.0059517E+03;  1.0000000E-01;  4.9308237E+03;0;  0.0000000E+00;  0.0000000E+00;  0.0000000E+00;0; -5.5630594E-03;  4.0000000E+04;  0.0000000E+00;  0.0000000E+00;  4.0000000E+04;  0.0000000E+00;  4.0000000E+04; -4.9092057E-03;  0.0000000E+00; -6.5385358E-04;  4.6642184E+04;
  1.7000000E-01;  9.9999998E-03;  3.6000001E-01;2350;  0.0000000E+00;  0.0000000E+00;  0.0000000E+00;  1.0044487E+03;  1.0000000E-01;  3.6857229E+03;0;  0.0000000E+00;  0.0000000E+00;  0.0000000E+00;0; -4.1094595E-03;  4.0000000E+04;  0.0000000E+00;  0.0000000E+00;  4.0000000E+04;  0.0000000E+00;  4.0000000E+04; -3.5567419E-03;  0.0000000E+00; -5.5271771E-04;  2.8316027E+04;
  1.7000000E-01;  9.9999998E-03;  3.7000000E-01;2351;  0.0000000E+00;  0.0000000E+00;  0.0000000E+00;  1.0031874E+03;  1.0000000E-01;  2.6407153E+03;0;  0.0000000E+00;  0.0000000E+00;  0.0000000E+00;0; -2.8962288E-03;  4.0000000E+04;  0.0000000E+00;  0.0000000E+00;  4.0000000E+04;  0.0000000E+00;  4.0000000E+04; -2.4528371E-03;  0.0000000E+00; -4.4339185E-04;  1.3382826E+04;
  1.7000000E-01;  9.9999998E-03;  3.8000000E-01;2352;  0.0000000E+00;  0.0000000E+00;  0.0000000E+00;  1.0021578E+03;  1.0000000E-01;  1.7877025E+03;0;  0.0000000E+00;  0.0000000E+00;  0.0000000E+00;0; -1.9382524E-03;  4.0000000E+04;  0.0000000E+00;  0.0000000E+00;  4.0000000E+04;  0.0000000E+00;  4.0000000E+04; -1.6038487E-03;  0.0000000E+00; -3.3440374E-04;  5.5424937E+03;
  1.7000000E-01;  9.9999998E-03;  3.8999999E-01;2353;  0.0000000E+00;  0.0000000E+00;  0.0000000E+00;  1.0013859E+03;  1.0000000E-01;  1.1482145E+03;0;  0.0000000E+00;  0.0000000E+00;  0.0000000E+00;0; -1.2219303E-03;  4.0000000E+04;  0.0000000E+00;  0.0000000E+00;  4.0000000E+04;  0.0000000E+00;  4.0000000E+04; -9.8901556E-04;  0.0000000E+00; -2.3291465E-04;  8.9650273E+03;
  1.7000000E-01;  9.9999998E-03;  4.0000001E-01;2354;  0.0000000E+00;  0.0000000E+00;  0.0000000E+00;  1.0008248E+03;  1.0000000E-01;  6.8333868E+02;0;  0.0000000E+00;  0.0000000E+00;  0.0000000E+00;0; -7.1568240E-04;  4.0000000E+04;  0.0000000E+00;  0.0000000E+00;  4.0000000E+04;  0.0000000E+00;  4.0000000E+04; -5.7044369E-04;  0.0000000E+00; -1.4523874E-04;  1.1934783E+04;
  1.8000001E-01;  9.9999998E-03;  3.1000000E-01;2375;  0.0000000E+00;  0.0000000E+00;  0.0000000E+00;  1.0130536E+03;  1.0000000E-01;  1.0814706E+04;0;  0.0000000E+00;  0.0000000E+00;  0.0000000E+00;0; -1.3368546E-02;  4.0000000E+04;  0.0000000E+00;  0.0000000E+00;  4.0000000E+04;  0.0000000E+00;  4.0000000E+04; -1.2644008E-02;  0.0000000E+00; -7.2453840E-04;  1.3231823E+05;
  1.8000001E-01;  9.9999998E-03;  3.1999999E-01;2376;  0.0000000E+00;  0.0000000E+00;  0.0000000E+00;  1.0115931E+03;  1.0000000E-01;  9.6046670E+03;0;  0.0000000E+00;  0.0000000E+00;  0.0000000E+00;0; -1.1725224E-02;  4.0000000E+04;  0.0000000E+00;  0.0000000E+00;  4.0000000E+04;  0.0000000E+00;  4.0000000E+04; -1.0931134E-02;  0.0000000E+00; -7.9408917E-04;  1.2559732E+05;
  1.8000001E-01;  9.9999998E-03;  3.3000001E-01;2377;  0.0000000E+00;  0.0000000E+00;  0.0000000E+00;  1.0099017E+03;  1.0000000E-01;  8.2033232E+03;0;  0.0000000E+00;  0.0000000E+00;  0.0000000E+00;0; -9.9021457E-03;  4.0000000E+04;  0.0000000E+00;  0.0000000E+00;  4.0000000E+04;  0.0000000E+00;  4.0000000E+04; -9.1000497E-03;  0.0000000E+00; -8.0209575E-04;  1.0878681E+05;
  1.8000001E-01;  9.9999998E-03;  3.4000000E-01;2378;  0.0000000E+00;  0.0000000E+00;  0.0000000E+00;  1.0081176E+03;  1.0000000E-01;  6.7252417E+03;0;  0.0000000E+00;  0.0000000E+00;  0.0000000E+00;0; -8.0342405E-03;  4.0000000E+04;  0.0000000E+00;  0.0000000E+00;  4.0000000E+04;  0.0000000E+00;  4.0000000E+04; -7.2726700E-03;  0.0000000E+00; -7.6157087E-04;  8.5725414E+04;
  1.8000001E-01;  9.9999998E-03;  3.4999999E-01;2379;  0.0000000E+00;  0.0000000E+00;  0.0000000E+00;  1.0063806E+03;  1.0000000E-01;  5.2861714E+03;0;  0.0000000E+00;  0.0000000E+00;  0.0000000E+00;0; -6.2501025E-03;  4.0000000E+04;  0.0000000E+00;  0.0000000E+00;  4.0000000E+04;  0.0000000E+00;  4.0000000E+04; -5.5636293E-03;  0.0000000E+00; -6.8647327E-04;  6.0503633E+04;
  1.8000001E-01;  9.9999998E-03;  3.6000001E-01;2380;  0.0000000E+00;  0.0000000E+00;  0.0000000E+00;  1.0048002E+03;  1.0000000E-01;  3.9768752E+03;0;  0.0000000E+00;  0.0000000E+00;  0.0000000E+00;0; -4.6523153E-03;  4.0000000E+04;  0.0000000E+00;  0.0000000E+00;  4.0000000E+04;  0.0000000E+00;  4.0000000E+04; -4.0627299E-03;  0.0000000E+00; -5.8958551E-04;  3.6536105E+04;
  1.8000001E-01;  9.9999998E-03;  3.7000000E-01;2381;  0.0000000E+00;  0.0000000E+00;  0.0000000E+00;  1.0034464E+03;  1.0000000E-01;  2.8553267E+03;0;  0.0000000E+00;  0.0000000E+00;  0.0000000E+00;0; -3.3052030E-03;  4.0000000E+04;  0.0000000E+00;  0.0000000E+00;  4.0000000E+04;  0.0000000E+00;  4.0000000E+04; -2.8235712E-03;  0.0000000E+00; -4.8163187E-04;  1.6370187E+04;
  1.8000001E-01;  9.9999998E-03;  3.8000000E-01;2382;  0.0000000E+00;  0.0000000E+00;  0.0000000E+00;  1.0023585E+03;  1.0000000E-01;  1.9540188E+03;0;  0.0000000E+00;  0.0000000E+00;  0.0000000E+00;0; -2.2324687E-03;  4.0000000E+04;  0.0000000E+00;  0.0000000E+00;  4.0000000E+04;  0.0000000E+00;  4.0000000E+04; -1.8611548E-03;  0.0000000E+00; -3.7131377E-04;  5.0776411E+03;
  1.8000001E-01;  9.9999998E-03;  3.8999999E-01;2383;  0.0000000E+00;  0.0000000E+00;  0.0000000E+00;  1.0015261E+03;  1.0000000E-01;  1.2643593E+03;0;  0.0000000E+00;  0.0000000E+00;  0.0000000E+00;0; -1.4238256E-03;  4.0000000E+04;  0.0000000E+00;  0.0000000E+00;  4.0000000E+04;  0.0000000E+00;  4.0000000E+04; -1.1578940E-03;  0.0000000E+00; -2.6593157E-04;  1.1872692E+04;
  1.8000001E-01;  9.9999998E-03;  4.0000001E-01;2384;  0.0000000E+00;  0.0000000E+00;  0.0000000E+00;  1.0009196E+03;  1.0000000E-01;  7.6185498E+02;0;  0.0000000E+00;  0.0000000E+00;  0.0000000E+00;0; -8.4691506E-04;  4.0000000E+04;  0.0000000E+00;  0.0000000E+00;  4.0000000E+04;  0.0000000E+00;  4.0000000E+04; -6.7477929E-04;  0.0000000E+00; -1.7213580E-04;  1.6725977E+04;
  1.9000000E-01;  9.9999998E-03;  3.1000000E-01;2405;  0.0000000E+00;  0.0000000E+00;  0.0000000E+00;  1.0132889E+03;  1.0000000E-01;  1.1009664E+04;0;  0.0000000E+00;  0.0000000E+00;  0.0000000E+00;0; -1.4256923E-02;  4.0000000E+04;  0.0000000E+00;  0.0000000E+00;  4.0000000E+04;  0.0000000E+00;  4.0000000E+04; -1.3464516E-02;  0.0000000E+00; -7.9240667E-04;  1.5898484E+05;
  1.9000000E-01;  9.9999998E-03;  3.1999999E-01;2406;  0.0000000E+00;  0.0000000E+00;  0.0000000E+00;  1.0118749E+03;  1.0000000E-01;  9.8381416E+03;0;  0.0000000E+00;  0.0000000E+00;  0.0000000E+00;0; -1.2615794E-02;  4.0000000E+04;  0.0000000E+00;  0.0000000E+00;  4.0000000E+04;  0.0000000E+00;  4.0000000E+04; -1.1732167E-02;  0.0000000E+00; -8.8362797E-04;  1.5199461E+05;
  1.9000000E-01;  9.9999998E-03;  3.3000001E-01;2407;  0.0000000E+00;  0.0000000E+00;  0.0000000E+00;  1.0101901E+03;  1.0000000E-01;  8.4422305E+03;0;  0.0000000E+00;  0.0000000E+00;  0.0000000E+00;0; -1.0740894E-02;  4.0000000E+04;  0.0000000E+00;  0.0000000E+00;  4.0000000E+04;  0.0000000E+00;  4.0000000E+04; -9.8350802E-03;  0.0000000E+00; -9.0581336E-04;  1.3234114E+05;
  1.9000000E-01;  9.9999998E-03;  3.4000000E-01;2408;  0.0000000E+00;  0.0000000E+00;  0.0000000E+00;  1.0083949E+03;  1.0000000E-01;  6.9550625E+03;0;  0.0000000E+00;  0.0000000E+00;  0.0000000E+00;0; -8.7806964E-03;  4.0000000E+04;  0.0000000E+00;  0.0000000E+00;  4.0000000E+04;  0.0000000E+00;  4.0000000E+04; -7.9084244E-03;  0.0000000E+00; -8.7227242E-04;  1.0471999E+05;
  1.9000000E-01;  9.9999998E-03;  3.4999999E-01;2409;  0.0000000E+00;  0.0000000E+00;  0.0000000E+00;  1.0066257E+03;  1.0000000E-01;  5.4893262E+03;0;  0.0000000E+00;  0.0000000E+00;  0.0000000E+00;0; -6.8815090E-03;  4.0000000E+04;  0.0000000E+00;  0.0000000E+00;  4.0000000E+04;  0.0000000E+00;  4.0000000E+04; -6.0832514E-03;  0.0000000E+00; -7.9825753E-04;  7.4109445E+04;
  1.9000000E-01;  9.9999998E-03;  3.6000001E-01;2410;  0.0000000E+00;  0.0000000E+00;  0.0000000E+00;  1.0050039E+03;  1.0000000E-01;  4.1456606E+03;0;  0.0000000E+00;  0.0000000E+00;  0.0000000E+00;0; -5.1626060E-03;  4.0000000E+04;  0.0000000E+00;  0.0000000E+00;  4.0000000E+04;  0.0000000E+00;  4.0000000E+04; -4.4647530E-03;  0.0000000E+00; -6.9785328E-04;  4.4641520E+04;
  1.9000000E-01;  9.9999998E-03;  3.7000000E-01;2411;  0.0000000E+00;  0.0000000E+00;  0.0000000E+00;  1.0036166E+03;  1.0000000E-01;  2.9962610E+03;0;  0.0000000E+00;  0.0000000E+00;  0.0000000E+00;0; -3.7010000E-03;  4.0000000E+04;  0.0000000E+00;  0.0000000E+00;  4.0000000E+04;  0.0000000E+00;  4.0000000E+04; -3.1182824E-03;  0.0000000E+00; -5.8271771E-04;  1.9330762E+04;
  1.9000000E-01;  9.9999998E-03;  3.8000000E-01;2412;  0.0000000E+00;  0.0000000E+00;  0.0000000E+00;  1.0024880E+03;  1.0000000E-01;  2.0612751E+03;0;  0.0000000E+00;  0.0000000E+00;  0.0000000E+00;0; -2.5280109E-03;  4.0000000E+04;  0.0000000E+00;  0.0000000E+00;  4.0000000E+04;  0.0000000E+00;  4.0000000E+04; -2.0659266E-03;  0.0000000E+00; -4.6208434E-04;  4.5935508E+03;
  1.9000000E-01;  9.9999998E-03;  3.8999999E-01;2413;  0.0000000E+00;  0.0000000E+00;  0.0000000E+00;  1.0016206E+03;  1.0000000E-01;  1.3426781E+03;0;  0.0000000E+00;  0.0000000E+00;  0.0000000E+00;0; -1.6362029E-03;  4.0000000E+04;  0.0000000E+00;  0.0000000E+00;  4.0000000E+04;  0.0000000E+00;  4.0000000E+04; -1.2926559E-03;  0.0000000E+00; -3.4354700E-04;  1.5408654E+04;
  1.9000000E-01;  9.9999998E-03;  4.0000001E-01;2414;  0.0000000E+00;  0.0000000E+00;  0.0000000E+00;  1.0009995E+03;  1.0000000E-01;  8.2812476E+02;0;  0.0000000E+00;  0.0000000E+00;  0.0000000E+00;0; -9.9267834E-04;  4.0000000E+04;  0.0000000E+00;  0.0000000E+00;  4.0000000E+04;  0.0000000E+00;  4.0000000E+04; -7.5853046E-04;  0.0000000E+00; -2.3414784E-04;  2.2296289E+04;
  2.0000000E-01;  9.9999998E-03;  3.1000000E-01;2434;  0.0000000E+00;  0.0000000E+00;  0.0000000E+00;  1.0131843E+03;  1.0000000E-01;  1.0922950E+04;0;  0.0000000E+00;  0.0000000E+00;  0.0000000E+00;0; -1.5040366E-02;  4.0000000E+04;  0.0000000E+00;  0.0000000E+00;  4.0000000E+04;  0.0000000E+00;  4.0000000E+04; -1.4059489E-02;  0.0000000E+00; -9.8087767E-04;  1.8225816E+05;
  2.0000000E-01;  9.9999998E-03;  3.1999999E-01;2435;  0.0000000E+00;  0.0000000E+00;  0.0000000E+00;  1.0118353E+03;  1.0000000E-01;  9.8053525E+03;0;  0.0000000E+00;  0.0000000E+00;  0.0000000E+00;0; -1.3412477E-02;  4.0000000E+04;  0.0000000E+00;  0.0000000E+00;  4.0000000E+04;  0.0000000E+00;  4.0000000E+04; -1.2315026E-02;  0.0000000E+00; -1.0974511E-03;  1.7472673E+05;
  2.0000000E-01;  9.9999998E-03;  3.3000001E-01;2436;  0.0000000E+00;  0.0000000E+00;  0.0000000E+00;  1.0102041E+03;  1.0000000E-01;  8.4538848E+03;0;  0.0000000E+00;  0.0000000E+00;  0.0000000E+00;0; -1.1502919E-02;  4.0000000E+04;  0.0000000E+00;  0.0000000E+00;  4.0000000E+04;  0.0000000E+00;  4.0000000E+04; -1.0370935E-02;  0.0000000E+00; -1.1319835E-03;  1.5246475E+05;
  2.0000000E-01;  9.9999998E-03;  3.4000000E-01;2437;  0.0000000E+00;  0.0000000E+00;  0.0000000E+00;  1.0084387E+03;  1.0000000E-01;  6.9913086E+03;0;  0.0000000E+00;  0.0000000E+00;  0.0000000E+00;0; -9.4720963E-03;  4.0000000E+04;  0.0000000E+00;  0.0000000E+00;  4.0000000E+04;  0.0000000E+00;  4.0000000E+04; -8.3725210E-03;  0.0000000E+00; -1.0995752E-03;  1.2091267E+05;
  2.0000000E-01;  9.9999998E-03;  3.4999999E-01;2438;  0.0000000E+00;  0.0000000E+00;  0.0000000E+00;  1.0066912E+03;  1.0000000E-01;  5.5435469E+03;0;  0.0000000E+00;  0.0000000E+00;  0.0000000E+00;0; -7.4813236E-03;  4.0000000E+04;  0.0000000E+00;  0.0000000E+00;  4.0000000E+04;  0.0000000E+00;  4.0000000E+04; -6.4630792E-03;  0.0000000E+00; -1.0182443E-03;  8.5733406E+04;
  2.0000000E-01;  9.9999998E-03;  3.6000001E-01;2439;  0.0000000E+00;  0.0000000E+00;  0.0000000E+00;  1.0050782E+03;  1.0000000E-01;  4.2071895E+03;0;  0.0000000E+00;  0.0000000E+00;  0.0000000E+00;0; -5.6634857E-03;  4.0000000E+04;  0.0000000E+00;  0.0000000E+00;  4.0000000E+04;  0.0000000E+00;  4.0000000E+04; -4.7590565E-03;  0.0000000E+00; -9.0442930E-04;  5.1584117E+04;
  2.0000000E-01;  9.9999998E-03;  3.7000000E-01;2440;  0.0000000E+00;  0.0000000E+00;  0.0000000E+00;  1.0036812E+03;  1.0000000E-01;  3.0497903E+03;0;  0.0000000E+00;  0.0000000E+00;  0.0000000E+00;0; -4.1057626E-03;  4.0000000E+04;  0.0000000E+00;  0.0000000E+00;  4.0000000E+04;  0.0000000E+00;  4.0000000E+04; -3.3344154E-03;  0.0000000E+00; -7.7134697E-04;  2.1806309E+04;
  2.0000000E-01;  9.9999998E-03;  3.8000000E-01;2441;  0.0000000E+00;  0.0000000E+00;  0.0000000E+00;  1.0025510E+03;  1.0000000E-01;  2.1134216E+03;0;  0.0000000E+00;  0.0000000E+00;  0.0000000E+00;0; -2.8455078E-03;  4.0000000E+04;  0.0000000E+00;  0.0000000E+00;  4.0000000E+04;  0.0000000E+00;  4.0000000E+04; -2.2164416E-03;  0.0000000E+00; -6.2906632E-04;  4.3334175E+03;
  2.0000000E-01;  9.9999998E-03;  3.8999999E-01;2442;  0.0000000E+00;  0.0000000E+00;  0.0000000E+00;  1.0016914E+03;  1.0000000E-01;  1.4013431E+03;0;  0.0000000E+00;  0.0000000E+00;  0.0000000E+00;0; -1.8776089E-03;  4.0000000E+04;  0.0000000E+00;  0.0000000E+00;  4.0000000E+04;  0.0000000E+00;  4.0000000E+04; -1.3920696E-03;  0.0000000E+00; -4.8553929E-04;  1.9192496E+04;
  2.0000000E-01;  9.9999998E-03;  4.0000001E-01;2443;  0.0000000E+00;  0.0000000E+00;  0.0000000E+00;  1.0010534E+03;  1.0000000E-01;  8.7276544E+02;0;  0.0000000E+00;  0.0000000E+00;  0.0000000E+00;0; -1.1688838E-03;  4.0000000E+04;  0.0000000E+00;  0.0000000E+00;  4.0000000E+04;  0.0000000E+00;  4.0000000E+04; -8.2074385E-04;  0.0000000E+00; -3.4813993E-04;  2.8154434E+04;
 -1.9000000E-01;  9.9999998E-03;  4.1000000E-01;175;  0.0000000E+00;  0.0000000E+00;  0.0000000E+00;  1.0000000E+03;  1.0000000E-01;  0.0000000E+00;0;  0.0000000E+00;  0.0000000E+00;  0.0000000E+00;0;  0.0000000E+00;  4.0000000E+04;  0.0000000E+00;  0.0000000E+00;  4.0000000E+04;  0.0000000E+00;  4.0000000E+04;  0.0000000E+00;  0.0000000E+00;  0.0000000E+00;  0.0000000E+00;
 -1.9000000E-01;  9.9999998E-03;  4.1999999E-01;176;  0.0000000E+00;  0.0000000E+00;  0.0000000E+00;  1.0000000E+03;  1.0000000E-01;  0.0000000E+00;0;  0.0000000E+00;  0.0000000E+00;  0.0000000E+00;0;  0.0000000E+00;  4.0000000E+04;  0.0000000E+00;  0.0000000E+00;  4.0000000E+04;  0.0000000E+00;  4.0000000E+04;  0.0000000E+00;  0.0000000E+00;  0.0000000E+00;  0.0000000E+00;
 -1.9000000E-01;  9.9999998E-03;  4.3000001E-01;177;  0.0000000E+00;  0.0000000E+00;  0.0000000E+00;  1.0000000E+03;  1.0000000E-01;  0.0000000E+00;0;  0.0000000E+00;  0.0000000E+00;  0.0000000E+00;0;  0.0000000E+00;  4.0000000E+04;  0.0000000E+00;  0.0000000E+00;  4.0000000E+04;  0.0000000E+00;  4.0000000E+04;  0.0000000E+00;  0.0000000E+00;  0.0000000E+00;  0.0000000E+00;
 -1.9000000E-01;  9.9999998E-03;  4.4000000E-01;178;  0.0000000E+00;  0.0000000E+00;  0.0000000E+00;  1.0000000E+03;  1.0000000E-01;  0.0000000E+00;0;  0.0000000E+00;  0.0000000E+00;  0.0000000E+00;0;  0.0000000E+00;  4.0000000E+04;  0.0000000E+00;  0.0000000E+00;  4.0000000E+04;  0.0000000E+00;  4.0000000E+04;  0.0000000E+00;  0.0000000E+00;  0.0000000E+00;  0.0000000E+00;
 -1.9000000E-01;  9.9999998E-03;  4.4999999E-01;179;  0.0000000E+00;  0.0000000E+00;  0.0000000E+00;  1.0000000E+03;  1.0000000E-01;  0.0000000E+00;0;  0.0000000E+00;  0.0000000E+00;  0.0000000E+00;0;  0.0000000E+00;  4.0000000E+04;  0.0000000E+00;  0.0000000E+00;  4.0000000E+04;  0.0000000E+00;  4.0000000E+04;  0.0000000E+00;  0.0000000E+00;  0.0000000E+00;  0.0000000E+00;
 -1.8000001E-01;  9.9999998E-03;  4.1000000E-01;266;  0.0000000E+00;  0.0000000E+00;  0.0000000E+00;  1.0000000E+03;  1.0000000E-01;  0.0000000E+00;0;  0.0000000E+00;  0.0000000E+00;  0.0000000E+00;0;  0.0000000E+00;  4.0000000E+04;  0.0000000E+00;  0.0000000E+00;  4.0000000E+04;  0.0000000E+00;  4.0000000E+04;  0.0000000E+00;  0.0000000E+00;  0.0000000E+00;  0.0000000E+00;
 -1.8000001E-01;  9.9999998E-03;  4.1999999E-01;267;  0.0000000E+00;  0.0000000E+00;  0.0000000E+00;  1.0000000E+03;  1.0000000E-01;  0.0000000E+00;0;  0.0000000E+00;  0.0000000E+00;  0.0000000E+00;0;  0.0000000E+00;  4.0000000E+04;  0.0000000E+00;  0.0000000E+00;  4.0000000E+04;  0.0000000E+00;  4.0000000E+04;  0.0000000E+00;  0.0000000E+00;  0.0000000E+00;  0.0000000E+00;
 -1.8000001E-01;  9.9999998E-03;  4.3000001E-01;268;  0.0000000E+00;  0.0000000E+00;  0.0000000E+00;  1.0000000E+03;  1.0000000E-01;  0.0000000E+00;0;  0.0000000E+00;  0.0000000E+00;  0.0000000E+00;0;  0.0000000E+00;  4.0000000E+04;  0.0000000E+00;  0.0000000E+00;  4.0000000E+04;  0.0000000E+00;  4.0000000E+04;  0.0000000E+00;  0.0000000E+00;  0.0000000E+00;  0.0000000E+00;
 -1.8000001E-01;  9.9999998E-03;  4.4000000E-01;269;  0.0000000E+00;  0.0000000E+00;  0.0000000E+00;  1.0000000E+03;  1.0000000E-01;  0.0000000E+00;0;  0.0000000E+00;  0.0000000E+00;  0.0000000E+00;0;  0.0000000E+00;  4.0000000E+04;  0.0000000E+00;  0.0000000E+00;  4.0000000E+04;  0.0000000E+00;  4.0000000E+04;  0.0000000E+00;  0.0000000E+00;  0.0000000E+00;  0.0000000E+00;
 -1.8000001E-01;  9.9999998E-03;  4.4999999E-01;270;  0.0000000E+00;  0.0000000E+00;  0.0000000E+00;  1.0000000E+03;  1.0000000E-01;  0.0000000E+00;0;  0.0000000E+00;  0.0000000E+00;  0.0000000E+00;0;  0.0000000E+00;  4.0000000E+04;  0.0000000E+00;  0.0000000E+00;  4.0000000E+04;  0.0000000E+00;  4.0000000E+04;  0.0000000E+00;  0.0000000E+00;  0.0000000E+00;  0.0000000E+00;
 -1.7000000E-01;  9.9999998E-03;  4.1000000E-01;357;  0.0000000E+00;  0.0000000E+00;  0.0000000E+00;  1.0000000E+03;  1.0000000E-01;  0.0000000E+00;0;  0.0000000E+00;  0.0000000E+00;  0.0000000E+00;0;  0.0000000E+00;  4.0000000E+04;  0.0000000E+00;  0.0000000E+00;  4.0000000E+04;  0.0000000E+00;  4.0000000E+04;  0.0000000E+00;  0.0000000E+00;  0.0000000E+00;  0.0000000E+00;
 -1.7000000E-01;  9.9999998E-03;  4.1999999E-01;358;  0.0000000E+00;  0.0000000E+00;  0.0000000E+00;  1.0000000E+03;  1.0000000E-01;  0.0000000E+00;0;  0.0000000E+00;  0.0000000E+00;  0.0000000E+00;0;  0.0000000E+00;  4.0000000E+04;  0.0000000E+00;  0.0000000E+00;  4.0000000E+04;  0.0000000E+00;  4.0000000E+04;  0.0000000E+00;  0.0000000E+00;  0.0000000E+00;  0.0000000E+00;
 -1.7000000E-01;  9.9999998E-03;  4.3000001E-01;359;  0.0000000E+00;  0.0000000E+00;  0.0000000E+00;  1.0000000E+03;  1.0000000E-01;  0.0000000E+00;0;  0.0000000E+00;  0.0000000E+00;  0.0000000E+00;0;  0.0000000E+00;  4.0000000E+04;  0.0000000E+00;  0.0000000E+00;  4.0000000E+04;  0.0000000E+00;  4.0000000E+04;  0.0000000E+00;  0.0000000E+00;  0.0000000E+00;  0.0000000E+00;
 -1.7000000E-01;  9.9999998E-03;  4.4000000E-01;360;  0.0000000E+00;  0.0000000E+00;  0.0000000E+00;  1.0000000E+03;  1.0000000E-01;  0.0000000E+00;0;  0.0000000E+00;  0.0000000E+00;  0.0000000E+00;0;  0.0000000E+00;  4.0000000E+04;  0.0000000E+00;  0.0000000E+00;  4.0000000E+04;  0.0000000E+00;  4.0000000E+04;  0.0000000E+00;  0.0000000E+00;  0.0000000E+00;  0.0000000E+00;
 -1.7000000E-01;  9.9999998E-03;  4.4999999E-01;361;  0.0000000E+00;  0.0000000E+00;  0.0000000E+00;  1.0000000E+03;  1.0000000E-01;  0.0000000E+00;0;  0.0000000E+00;  0.0000000E+00;  0.0000000E+00;0;  0.0000000E+00;  4.0000000E+04;  0.0000000E+00;  0.0000000E+00;  4.0000000E+04;  0.0000000E+00;  4.0000000E+04;  0.0000000E+00;  0.0000000E+00;  0.0000000E+00;  0.0000000E+00;
 -1.6000000E-01;  9.9999998E-03;  4.1000000E-01;448;  0.0000000E+00;  0.0000000E+00;  0.0000000E+00;  1.0000000E+03;  1.0000000E-01;  0.0000000E+00;0;  0.0000000E+00;  0.0000000E+00;  0.0000000E+00;0;  0.0000000E+00;  4.0000000E+04;  0.0000000E+00;  0.0000000E+00;  4.0000000E+04;  0.0000000E+00;  4.0000000E+04;  0.0000000E+00;  0.0000000E+00;  0.0000000E+00;  0.0000000E+00;
 -1.6000000E-01;  9.9999998E-03;  4.1999999E-01;449;  0.0000000E+00;  0.0000000E+00;  0.0000000E+00;  1.0000000E+03;  1.0000000E-01;  0.0000000E+00;0;  0.0000000E+00;  0.0000000E+00;  0.0000000E+00;0;  0.0000000E+00;  4.0000000E+04;  0.0000000E+00;  0.0000000E+00;  4.0000000E+04;  0.0000000E+00;  4.0000000E+04;  0.0000000E+00;  0.0000000E+00;  0.0000000E+00;  0.0000000E+00;
 -1.6000000E-01;  9.9999998E-03;  4.3000001E-01;450;  0.0000000E+00;  0.0000000E+00;  0.0000000E+00;  1.0000000E+03;  1.0000000E-01;  0.0000000E+00;0;  0.0000000E+00;  0.0000000E+00;  0.0000000E+00;0;  0.0000000E+00;  4.0000000E+04;  0.0000000E+00;  0.0000000E+00;  4.0000000E+04;  0.0000000E+00;  4.0000000E+04;  0.0000000E+00;  0.0000000E+00;  0.0000000E+00;  0.0000000E+00;
 -1.6000000E-01;  9.9999998E-03;  4.4000000E-01;451;  0.0000000E+00;  0.0000000E+00;  0.0000000E+00;  1.0000000E+03;  1.0000000E-01;  0.0000000E+00;0;  0.0000000E+00;  0.0000000E+00;  0.0000000E+00;0;  0.0000000E+00;  4.0000000E+04;  0.0000000E+00;  0.0000000E+00;  4.0000000E+04;  0.0000000E+00;  4.0000000E+04;  0.0000000E+00;  0.0000000E+00;  0.0000000E+00;  0.0000000E+00;
 -1.6000000E-01;  9.9999998E-03;  4.4999999E-01;452;  0.0000000E+00;  0.0000000E+00;  0.0000000E+00;  1.0000000E+03;  1.0000000E-01;  0.0000000E+00;0;  0.0000000E+00;  0.0000000E+00;  0.0000000E+00;0;  0.0000000E+00;  4.0000000E+04;  0.0000000E+00;  0.0000000E+00;  4.0000000E+04;  0.0000000E+00;  4.0000000E+04;  0.0000000E+00;  0.0000000E+00;  0.0000000E+00;  0.0000000E+00;
 -1.5000001E-01;  9.9999998E-03;  4.1000000E-01;539;  0.0000000E+00;  0.0000000E+00;  0.0000000E+00;  1.0000000E+03;  1.0000000E-01;  0.0000000E+00;0;  0.0000000E+00;  0.0000000E+00;  0.0000000E+00;0;  0.0000000E+00;  4.0000000E+04;  0.0000000E+00;  0.0000000E+00;  4.0000000E+04;  0.0000000E+00;  4.0000000E+04;  0.0000000E+00;  0.0000000E+00;  0.0000000E+00;  0.0000000E+00;
 -1.5000001E-01;  9.9999998E-03;  4.1999999E-01;540;  0.0000000E+00;  0.0000000E+00;  0.0000000E+00;  1.0000000E+03;  1.0000000E-01;  0.0000000E+00;0;  0.0000000E+00;  0.0000000E+00;  0.0000000E+00;0;  0.0000000E+00;  4.0000000E+04;  0.0000000E+00;  0.0000000E+00;  4.0000000E+04;  0.0000000E+00;  4.0000000E+04;  0.0000000E+00;  0.0000000E+00;  0.0000000E+00;  0.0000000E+00;
 -1.5000001E-01;  9.9999998E-03;  4.3000001E-01;541;  0.0000000E+00;  0.0000000E+00;  0.0000000E+00;  1.0000000E+03;  1.0000000E-01;  0.0000000E+00;0;  0.0000000E+00;  0.0000000E+00;  0.0000000E+00;0;  0.0000000E+00;  4.0000000E+04;  0.0000000E+00;  0.0000000E+00;  4.0000000E+04;  0.0000000E+00;  4.0000000E+04;  0.0000000E+00;  0.0000000E+00;  0.0000000E+00;  0.0000000E+00;
 -1.5000001E-01;  9.9999998E-03;  4.4000000E-01;542;  0.0000000E+00;  0.0000000E+00;  0.0000000E+00;  1.0000000E+03;  1.0000000E-01;  0.0000000E+00;0;  0.0000000E+00;  0.0000000E+00;  0.0000000E+00;0;  0.0000000E+00;  4.0000000E+04;  0.0000000E+00;  0.0000000E+00;  4.0000000E+04;  0.0000000E+00;  4.0000000E+04;  0.0000000E+00;  0.0000000E+00;  0.0000000E+00;  0.0000000E+00;
 -1.5000001E-01;  9.9999998E-03;  4.4999999E-01;543;  0.0000000E+00;  0.0000000E+00;  0.0000000E+00;  1.0000000E+03;  1.0000000E-01;  0.0000000E+00;0;  0.0000000E+00;  0.0000000E+00;  0.0000000E+00;0;  0.0000000E+00;  4.0000000E+04;  0.0000000E+00;  0.0000000E+00;  4.0000000E+04;  0.0000000E+00;  4.0000000E+04;  0.0000000E+00;  0.0000000E+00;  0.0000000E+00;  0.0000000E+00;
 -1.4000000E-01;  9.9999998E-03;  4.1000000E-01;630;  0.0000000E+00;  0.0000000E+00;  0.0000000E+00;  1.0000000E+03;  1.0000000E-01;  0.0000000E+00;0;  0.0000000E+00;  0.0000000E+00;  0.0000000E+00;0;  0.0000000E+00;  4.0000000E+04;  0.0000000E+00;  0.0000000E+00;  4.0000000E+04;  0.0000000E+00;  4.0000000E+04;  0.0000000E+00;  0.0000000E+00;  0.0000000E+00;  0.0000000E+00;
 -1.4000000E-01;  9.9999998E-03;  4.1999999E-01;631;  0.0000000E+00;  0.0000000E+00;  0.0000000E+00;  1.0000000E+03;  1.0000000E-01;  0.0000000E+00;0;  0.0000000E+00;  0.0000000E+00;  0.0000000E+00;0;  0.0000000E+00;  4.0000000E+04;  0.0000000E+00;  0.0000000E+00;  4.0000000E+04;  0.0000000E+00;  4.0000000E+04;  0.0000000E+00;  0.0000000E+00;  0.0000000E+00;  0.0000000E+00;
 -1.4000000E-01;  9.9999998E-03;  4.3000001E-01;632;  0.0000000E+00;  0.0000000E+00;  0.0000000E+00;  1.0000000E+03;  1.0000000E-01;  0.0000000E+00;0;  0.0000000E+00;  0.0000000E+00;  0.0000000E+00;0;  0.0000000E+00;  4.0000000E+04;  0.0000000E+00;  0.0000000E+00;  4.0000000E+04;  0.0000000E+00;  4.0000000E+04;  0.0000000E+00;  0.0000000E+00;  0.0000000E+00;  0.0000000E+00;
 -1.4000000E-01;  9.9999998E-03;  4.4000000E-01;633;  0.0000000E+00;  0.0000000E+00;  0.0000000E+00;  1.0000000E+03;  1.0000000E-01;  0.0000000E+00;0;  0.0000000E+00;  0.0000000E+00;  0.0000000E+00;0;  0.0000000E+00;  4.0000000E+04;  0.0000000E+00;  0.0000000E+00;  4.0000000E+04;  0.0000000E+00;  4.0000000E+04;  0.0000000E+00;  0.0000000E+00;  0.0000000E+00;  0.0000000E+00;
 -1.4000000E-01;  9.9999998E-03;  4.4999999E-01;634;  0.0000000E+00;  0.0000000E+00;  0.0000000E+00;  1.0000000E+03;  1.0000000E-01;  0.0000000E+00;0;  0.0000000E+00;  0.0000000E+00;  0.0000000E+00;0;  0.0000000E+00;  4.0000000E+04;  0.0000000E+00;  0.0000000E+00;  4.0000000E+04;  0.0000000E+00;  4.0000000E+04;  0.0000000E+00;  0.0000000E+00;  0.0000000E+00;  0.0000000E+00;
 -1.3000000E-01;  9.9999998E-03;  4.1000000E-01;721;  0.0000000E+00;  0.0000000E+00;  0.0000000E+00;  1.0000000E+03;  1.0000000E-01;  0.0000000E+00;0;  0.0000000E+00;  0.0000000E+00;  0.0000000E+00;0;  0.0000000E+00;  4.0000000E+04;  0.0000000E+00;  0.0000000E+00;  4.0000000E+04;  0.0000000E+00;  4.0000000E+04;  0.0000000E+00;  0.0000000E+00;  0.0000000E+00;  0.0000000E+00;
 -1.3000000E-01;  9.9999998E-03;  4.1999999E-01;722;  0.0000000E+00;  0.0000000E+00;  0.0000000E+00;  1.0000000E+03;  1.0000000E-01;  0.0000000E+00;0;  0.0000000E+00;  0.0000000E+00;  0.0000000E+00;0;  0.0000000E+00;  4.0000000E+04;  0.0000000E+00;  0.0000000E+00;  4.0000000E+04;  0.0000000E+00;  4.0000000E+04;  0.0000000E+00;  0.0000000E+00;  0.0000000E+00;  0.0000000E+00;
 -1.3000000E-01;  9.9999998E-03;  4.3000001E-01;723;  0.0000000E+00;  0.0000000E+00;  0.0000000E+00;  1.0000000E+03;  1.0000000E-01;  0.0000000E+00;0;  0.0000000E+00;  0.0000000E+00;  0.0000000E+00;0;  0.0000000E+00;  4.0000000E+04;  0.0000000E+00;  0.0000000E+00;  4.0000000E+04;  0.0000000E+00;  4.0000000E+04;  0.0000000E+00;  0.0000000E+00;  0.0000000E+00;  0.0000000E+00;
 -1.3000000E-01;  9.9999998E-03;  4.4000000E-01;724;  0.0000000E+00;  0.0000000E+00;  0.0000000E+00;  1.0000000E+03;  1.0000000E-01;  0.0000000E+00;0;  0.0000000E+00;  0.0000000E+00;  0.0000000E+00;0;  0.0000000E+00;  4.0000000E+04;  0.0000000E+00;  0.0000000E+00;  4.0000000E+04;  0.0000000E+00;  4.0000000E+04;  0.0000000E+00;  0.0000000E+00;  0.0000000E+00;  0.0000000E+00;
 -1.3000000E-01;  9.9999998E-03;  4.4999999E-01;725;  0.0000000E+00;  0.0000000E+00;  0.0000000E+00;  1.0000000E+03;  1.0000000E-01;  0.0000000E+00;0;  0.0000000E+00;  0.0000000E+00;  0.0000000E+00;0;  0.0000000E+00;  4.0000000E+04;  0.0000000E+00;  0.0000000E+00;  4.0000000E+04;  0.0000000E+00;  4.0000000E+04;  0.0000000E+00;  0.0000000E+00;  0.0000000E+00;  0.0000000E+00;
 -1.2000000E-01;  9.9999998E-03;  4.1000000E-01;812;  0.0000000E+00;  0.0000000E+00;  0.0000000E+00;  1.0000000E+03;  1.0000000E-01;  0.0000000E+00;0;  0.0000000E+00;  0.0000000E+00;  0.0000000E+00;0;  0.0000000E+00;  4.0000000E+04;  0.0000000E+00;  0.0000000E+00;  4.0000000E+04;  0.0000000E+00;  4.0000000E+04;  0.0000000E+00;  0.0000000E+00;  0.0000000E+00;  3.0553776E-06;
 -1.2000000E-01;  9.9999998E-03;  4.1999999E-01;813;  0.0000000E+00;  0.0000000E+00;  0.0000000E+00;  1.0000000E+03;  1.0000000E-01;  0.0000000E+00;0;  0.0000000E+00;  0.0000000E+00;  0.0000000E+00;0;  0.0000000E+00;  4.0000000E+04;  0.0000000E+00;  0.0000000E+00;  4.0000000E+04;  0.0000000E+00;  4.0000000E+04;  0.0000000E+00;  0.0000000E+00;  0.0000000E+00;  0.0000000E+00;
 -1.2000000E-01;  9.9999998E-03;  4.3000001E-01;814;  0.0000000E+00;  0.0000000E+00;  0.0000000E+00;  1.0000000E+03;  1.0000000E-01;  0.0000000E+00;0;  0.0000000E+00;  0.0000000E+00;  0.0000000E+00;0;  0.0000000E+00;  4.0000000E+04;  0.0000000E+00;  0.0000000E+00;  4.0000000E+04;  0.0000000E+00;  4.0000000E+04;  0.0000000E+00;  0.0000000E+00;  0.0000000E+00;  0.0000000E+00;
 -1.2000000E-01;  9.9999998E-03;  4.4000000E-01;815;  0.0000000E+00;  0.0000000E+00;  0.0000000E+00;  1.0000000E+03;  1.0000000E-01;  0.0000000E+00;0;  0.0000000E+00;  0.0000000E+00;  0.0000000E+00;0;  0.0000000E+00;  4.0000000E+04;  0.0000000E+00;  0.0000000E+00;  4.0000000E+04;  0.0000000E+00;  4.0000000E+04;  0.0000000E+00;  0.0000000E+00;  0.0000000E+00;  0.0000000E+00;
 -1.2000000E-01;  9.9999998E-03;  4.4999999E-01;816;  0.0000000E+00;  0.0000000E+00;  0.0000000E+00;  1.0000000E+03;  1.0000000E-01;  0.0000000E+00;0;  0.0000000E+00;  0.0000000E+00;  0.0000000E+00;0;  0.0000000E+00;  4.0000000E+04;  0.0000000E+00;  0.0000000E+00;  4.0000000E+04;  0.0000000E+00;  4.0000000E+04;  0.0000000E+00;  0.0000000E+00;  0.0000000E+00;  0.0000000E+00;
 -1.1000000E-01;  9.9999998E-03;  4.1000000E-01;903;  0.0000000E+00;  0.0000000E+00;  0.0000000E+00;  1.0000000E+03;  1.0000000E-01;  0.0000000E+00;0;  0.0000000E+00;  0.0000000E+00;  0.0000000E+00;0; -2.5189170E-08;  4.0000000E+04;  0.0000000E+00;  0.0000000E+00;  4.0000000E+04;  0.0000000E+00;  4.0000000E+04;  3.0519587E-10;  0.0000000E+00; -2.5494366E-08;  2.0060503E-01;
 -1.1000000E-01;  9.9999998E-03;  4.1999999E-01;904;  0.0000000E+00;  0.0000000E+00;  0.0000000E+00;  1.0000000E+03;  1.0000000E-01;  0.0000000E+00;0;  0.0000000E+00;  0.0000000E+00;  0.0000000E+00;0;  0.0000000E+00;  4.0000000E+04;  0.0000000E+00;  0.0000000E+00;  4.0000000E+04;  0.0000000E+00;  4.0000000E+04;  0.0000000E+00;  0.0000000E+00;  0.0000000E+00;  2.4097315E-06;
 -1.1000000E-01;  9.9999998E-03;  4.3000001E-01;905;  0.0000000E+00;  0.0000000E+00;  0.0000000E+00;  1.0000000E+03;  1.0000000E-01;  0.0000000E+00;0;  0.0000000E+00;  0.0000000E+00;  0.0000000E+00;0;  0.0000000E+00;  4.0000000E+04;  0.0000000E+00;  0.0000000E+00;  4.0000000E+04;  0.0000000E+00;  4.0000000E+04;  0.0000000E+00;  0.0000000E+00;  0.0000000E+00;  0.0000000E+00;
 -1.1000000E-01;  9.9999998E-03;  4.4000000E-01;906;  0.0000000E+00;  0.0000000E+00;  0.0000000E+00;  1.0000000E+03;  1.0000000E-01;  0.0000000E+00;0;  0.0000000E+00;  0.0000000E+00;  0.0000000E+00;0;  0.0000000E+00;  4.0000000E+04;  0.0000000E+00;  0.0000000E+00;  4.0000000E+04;  0.0000000E+00;  4.0000000E+04;  0.0000000E+00;  0.0000000E+00;  0.0000000E+00;  0.0000000E+00;
 -1.1000000E-01;  9.9999998E-03;  4.4999999E-01;907;  0.0000000E+00;  0.0000000E+00;  0.0000000E+00;  1.0000000E+03;  1.0000000E-01;  0.0000000E+00;0;  0.0000000E+00;  0.0000000E+00;  0.0000000E+00;0;  0.0000000E+00;  4.0000000E+04;  0.0000000E+00;  0.0000000E+00;  4.0000000E+04;  0.0000000E+00;  4.0000000E+04;  0.0000000E+00;  0.0000000E+00;  0.0000000E+00;  0.0000000E+00;
 -1.0000000E-01;  9.9999998E-03;  4.1000000E-01;994;  0.0000000E+00;  0.0000000E+00;  0.0000000E+00;  1.0000000E+03;  1.0000000E-01;  0.0000000E+00;0;  0.0000000E+00;  0.0000000E+00;  0.0000000E+00;0; -2.2622065E-07;  4.0000000E+04;  0.0000000E+00;  0.0000000E+00;  4.0000000E+04;  0.0000000E+00;  4.0000000E+04; -7.4273920E-09;  0.0000000E+00; -2.1879326E-07;  1.8992263E+00;
 -1.0000000E-01;  9.9999998E-03;  4.1999999E-01;995;  0.0000000E+00;  0.0000000E+00;  0.0000000E+00;  1.0000000E+03;  1.0000000E-01;  0.0000000E+00;0;  0.0000000E+00;  0.0000000E+00;  0.0000000E+00;0; -2.4724081E-08;  4.0000000E+04;  0.0000000E+00;  0.0000000E+00;  4.0000000E+04;  0.0000000E+00;  4.0000000E+04; -4.9861697E-09;  0.0000000E+00; -1.9737911E-08;  1.8620563E-01;
 -1.0000000E-01;  9.9999998E-03;  4.3000001E-01;996;  0.0000000E+00;  0.0000000E+00;  0.0000000E+00;  1.0000000E+03;  1.0000000E-01;  0.0000000E+00;0;  0.0000000E+00;  0.0000000E+00;  0.0000000E+00;0;  0.0000000E+00;  4.0000000E+04;  0.0000000E+00;  0.0000000E+00;  4.0000000E+04;  0.0000000E+00;  4.0000000E+04;  0.0000000E+00;  0.0000000E+00;  0.0000000E+00;  0.0000000E+00;
 -1.0000000E-01;  9.9999998E-03;  4.4000000E-01;997;  0.0000000E+00;  0.0000000E+00;  0.0000000E+00;  1.0000000E+03;  1.0000000E-01;  0.0000000E+00;0;  0.0000000E+00;  0.0000000E+00;  0.0000000E+00;0;  0.0000000E+00;  4.0000000E+04;  0.0000000E+00;  0.0000000E+00;  4.0000000E+04;  0.0000000E+00;  4.0000000E+04;  0.0000000E+00;  0.0000000E+00;  0.0000000E+00;  0.0000000E+00;
 -1.0000000E-01;  9.9999998E-03;  4.4999999E-01;998;  0.0000000E+00;  0.0000000E+00;  0.0000000E+00;  1.0000000E+03;  1.0000000E-01;  0.0000000E+00;0;  0.0000000E+00;  0.0000000E+00;  0.0000000E+00;0;  0.0000000E+00;  4.0000000E+04;  0.0000000E+00;  0.0000000E+00;  4.0000000E+04;  0.0000000E+00;  4.0000000E+04;  0.0000000E+00;  0.0000000E+00;  0.0000000E+00;  0.0000000E+00;
 -9.0000004E-02;  9.9999998E-03;  4.1000000E-01;1085;  0.0000000E+00;  0.0000000E+00;  0.0000000E+00;  1.0000000E+03;  1.0000000E-01;  0.0000000E+00;0;  0.0000000E+00;  0.0000000E+00;  0.0000000E+00;0; -8.3584132E-07;  4.0000000E+04;  0.0000000E+00;  0.0000000E+00;  4.0000000E+04;  0.0000000E+00;  4.0000000E+04; -4.5913254E-08;  0.0000000E+00; -7.8992809E-07;  8.1277599E+00;
 -9.0000004E-02;  9.9999998E-03;  4.1999999E-01;1086;  0.0000000E+00;  0.0000000E+00;  0.0000000E+00;  1.0000000E+03;  1.0000000E-01;  0.0000000E+00;0;  0.0000000E+00;  0.0000000E+00;  0.0000000E+00;0; -2.0855903E-07;  4.0000000E+04;  0.0000000E+00;  0.0000000E+00;  4.0000000E+04;  0.0000000E+00;  4.0000000E+04; -3.8432159E-08;  0.0000000E+00; -1.7012687E-07;  1.6489409E+00;
 -9.0000004E-02;  9.9999998E-03;  4.3000001E-01;1087;  0.0000000E+00;  0.0000000E+00;  0.0000000E+00;  1.0000000E+03;  1.0000000E-01;  0.0000000E+00;0;  0.0000000E+00;  0.0000000E+00;  0.0000000E+00;0; -1.2234613E-08;  4.0000000E+04;  0.0000000E+00;  0.0000000E+00;  4.0000000E+04;  0.0000000E+00;  4.0000000E+04; -4.9148818E-09;  0.0000000E+00; -7.3197315E-09;  9.5443912E-02;
 -9.0000004E-02;  9.9999998E-03;  4.4000000E-01;1088;  0.0000000E+00;  0.0000000E+00;  0.0000000E+00;  1.0000000E+03;  1.0000000E-01;  0.0000000E+00;0;  0.0000000E+00;  0.0000000E+00;  0.0000000E+00;0;  0.0000000E+00;  4.0000000E+04;  0.0000000E+00;  0.0000000E+00;  4.0000000E+04;  0.0000000E+00;  4.0000000E+04;  0.0000000E+00;  0.0000000E+00;  0.0000000E+00;  0.0000000E+00;
 -9.0000004E-02;  9.9999998E-03;  4.4999999E-01;1089;  0.0000000E+00;  0.0000000E+00;  0.0000000E+00;  1.0000000E+03;  1.0000000E-01;  0.0000000E+00;0;  0.0000000E+00;  0.0000000E+00;  0.0000000E+00;0;  0.0000000E+00;  4.0000000E+04;  0.0000000E+00;  0.0000000E+00;  4.0000000E+04;  0.0000000E+00;  4.0000000E+04;  0.0000000E+00;  0.0000000E+00;  0.0000000E+00;  0.0000000E+00;
 -7.9999998E-02;  9.9999998E-03;  4.1000000E-01;1176;  0.0000000E+00;  0.0000000E+00;  0.0000000E+00;  1.0000000E+03;  1.0000000E-01;  0.0000000E+00;0;  0.0000000E+00;  0.0000000E+00;  0.0000000E+00;0; -2.1264673E-06;  4.0000000E+04;  0.0000000E+00;  0.0000000E+00;  4.0000000E+04;  0.0000000E+00;  4.0000000E+04; -2.1676674E-07;  0.0000000E+00; -1.9097006E-06;  2.3268930E+01;
 -7.9999998E-02;  9.9999998E-03;  4.1999999E-01;1177;  0.0000000E+00;  0.0000000E+00;  0.0000000E+00;  1.0000000E+03;  1.0000000E-01;  0.0000000E+00;0;  0.0000000E+00;  0.0000000E+00;  0.0000000E+00;0; -7.4545460E-07;  4.0000000E+04;  0.0000000E+00;  0.0000000E+00;  4.0000000E+04;  0.0000000E+00;  4.0000000E+04; -1.4960207E-07;  0.0000000E+00; -5.9585250E-07;  6.7565732E+00;
 -7.9999998E-02;  9.9999998E-03;  4.3000001E-01;1178;  0.0000000E+00;  0.0000000E+00;  0.0000000E+00;  1.0000000E+03;  1.0000000E-01;  0.0000000E+00;0;  0.0000000E+00;  0.0000000E+00;  0.0000000E+00;0; -1.2433155E-07;  4.0000000E+04;  0.0000000E+00;  0.0000000E+00;  4.0000000E+04;  0.0000000E+00;  4.0000000E+04; -3.5768537E-08;  0.0000000E+00; -8.8563013E-08;  9.8881280E-01;
 -7.9999998E-02;  9.9999998E-03;  4.4000000E-01;1179;  0.0000000E+00;  0.0000000E+00;  0.0000000E+00;  1.0000000E+03;  1.0000000E-01;  0.0000000E+00;0;  0.0000000E+00;  0.0000000E+00;  0.0000000E+00;0; -2.0877651E-09;  4.0000000E+04;  0.0000000E+00;  0.0000000E+00;  4.0000000E+04;  0.0000000E+00;  4.0000000E+04; -1.0706931E-09;  0.0000000E+00; -1.0170721E-09;  1.7547477E-02;
 -7.9999998E-02;  9.9999998E-03;  4.4999999E-01;1180;  0.0000000E+00;  0.0000000E+00;  0.0000000E+00;  1.0000000E+03;  1.0000000E-01;  0.0000000E+00;0;  0.0000000E+00;  0.0000000E+00;  0.0000000E+00;0;  0.0000000E+00;  4.0000000E+04;  0.0000000E+00;  0.0000000E+00;  4.0000000E+04;  0.0000000E+00;  4.0000000E+04;  0.0000000E+00;  0.0000000E+00;  0.0000000E+00;  0.0000000E+00;
 -7.0000000E-02;  9.9999998E-03;  4.1000000E-01;1267;  0.0000000E+00;  0.0000000E+00;  0.0000000E+00;  1.0000000E+03;  1.0000000E-01;  0.0000000E+00;0;  0.0000000E+00;  0.0000000E+00;  0.0000000E+00;0; -4.4012968E-06;  4.0000000E+04;  0.0000000E+00;  0.0000000E+00;  4.0000000E+04;  0.0000000E+00;  4.0000000E+04; -7.8519724E-07;  0.0000000E+00; -3.6160993E-06;  5.1817062E+01;
 -7.0000000E-02;  9.9999998E-03;  4.1999999E-01;1268;  0.0000000E+00;  0.0000000E+00;  0.0000000E+00;  1.0000000E+03;  1.0000000E-01;  0.0000000E+00;0;  0.0000000E+00;  0.0000000E+00;  0.0000000E+00;0; -1.8332316E-06;  4.0000000E+04;  0.0000000E+00;  0.0000000E+00;  4.0000000E+04;  0.0000000E+00;  4.0000000E+04; -4.5183185E-07;  0.0000000E+00; -1.3813998E-06;  1.8639839E+01;
 -7.0000000E-02;  9.9999998E-03;  4.3000001E-01;1269;  0.0000000E+00;  0.0000000E+00;  0.0000000E+00;  1.0000000E+03;  1.0000000E-01;  0.0000000E+00;0;  0.0000000E+00;  0.0000000E+00;  0.0000000E+00;0; -4.6824550E-07;  4.0000000E+04;  0.0000000E+00;  0.0000000E+00;  4.0000000E+04;  0.0000000E+00;  4.0000000E+04; -1.4123191E-07;  0.0000000E+00; -3.2701359E-07;  4.1603241E+00;
 -7.0000000E-02;  9.9999998E-03;  4.4000000E-01;1270;  0.0000000E+00;  0.0000000E+00;  0.0000000E+00;  1.0000000E+03;  1.0000000E-01;  0.0000000E+00;0;  0.0000000E+00;  0.0000000E+00;  0.0000000E+00;0; -4.0161801E-08;  4.0000000E+04;  0.0000000E+00;  0.0000000E+00;  4.0000000E+04;  0.0000000E+00;  4.0000000E+04; -1.6499008E-08;  0.0000000E+00; -2.3662793E-08;  3.4000903E-01;
 -7.0000000E-02;  9.9999998E-03;  4.4999999E-01;1271;  0.0000000E+00;  0.0000000E+00;  0.0000000E+00;  1.0000000E+03;  1.0000000E-01;  0.0000000E+00;0;  0.0000000E+00;  0.0000000E+00;  0.0000000E+00;0;  0.0000000E+00;  4.0000000E+04;  0.0000000E+00;  0.0000000E+00;  4.0000000E+04;  0.0000000E+00;  4.0000000E+04;  0.0000000E+00;  0.0000000E+00;  0.0000000E+00;  8.6631813E-12;
 -5.9999999E-02;  9.9999998E-03;  4.1000000E-01;1358;  0.0000000E+00;  0.0000000E+00;  0.0000000E+00;  1.0000000E+03;  1.0000000E-01;  0.0000000E+00;0;  0.0000000E+00;  0.0000000E+00;  0.0000000E+00;0; -7.9771762E-06;  4.0000000E+04;  0.0000000E+00;  0.0000000E+00;  4.0000000E+04;  0.0000000E+00;  4.0000000E+04; -2.2043953E-06;  0.0000000E+00; -5.7727807E-06;  9.6939095E+01;
 -5.9999999E-02;  9.9999998E-03;  4.1999999E-01;1359;  0.0000000E+00;  0.0000000E+00;  0.0000000E+00;  1.0000000E+03;  1.0000000E-01;  0.0000000E+00;0;  0.0000000E+00;  0.0000000E+00;  0.0000000E+00;0; -3.6341105E-06;  4.0000000E+04;  0.0000000E+00;  0.0000000E+00;  4.0000000E+04;  0.0000000E+00;  4.0000000E+04; -1.1436707E-06;  0.0000000E+00; -2.4904398E-06;  4.0166199E+01;
 -5.9999999E-02;  9.9999998E-03;  4.3000001E-01;1360;  0.0000000E+00;  0.0000000E+00;  0.0000000E+00;  1.0000000E+03;  1.0000000E-01;  0.0000000E+00;0;  0.0000000E+00;  0.0000000E+00;  0.0000000E+00;0; -1.1587281E-06;  4.0000000E+04;  0.0000000E+00;  0.0000000E+00;  4.0000000E+04;  0.0000000E+00;  4.0000000E+04; -3.9790604E-07;  0.0000000E+00; -7.6082199E-07;  1.1518737E+01;
 -5.9999999E-02;  9.9999998E-03;  4.4000000E-01;1361;  0.0000000E+00;  0.0000000E+00;  0.0000000E+00;  1.0000000E+03;  1.0000000E-01;  0.0000000E+00;0;  0.0000000E+00;  0.0000000E+00;  0.0000000E+00;0; -1.8473330E-07;  4.0000000E+04;  0.0000000E+00;  0.0000000E+00;  4.0000000E+04;  0.0000000E+00;  4.0000000E+04; -7.1309117E-08;  0.0000000E+00; -1.1342418E-07;  1.6853535E+00;
 -5.9999999E-02;  9.9999998E-03;  4.4999999E-01;1362;  0.0000000E+00;  0.0000000E+00;  0.0000000E+00;  1.0000000E+03;  1.0000000E-01;  0.0000000E+00;0;  0.0000000E+00;  0.0000000E+00;  0.0000000E+00;0; -4.1948143E-09;  4.0000000E+04;  0.0000000E+00;  0.0000000E+00;  4.0000000E+04;  0.0000000E+00;  4.0000000E+04; -1.9274962E-09;  0.0000000E+00; -2.2673181E-09;  3.8151748E-02;
 -5.0000001E-02;  9.9999998E-03;  4.1000000E-01;1449;  0.0000000E+00;  0.0000000E+00;  0.0000000E+00;  1.0000088E+03;  1.0000000E-01;  7.3084354E+00;0;  0.0000000E+00;  0.0000000E+00;  0.0000000E+00;0; -1.3151048E-05;  4.0000000E+04;  0.0000000E+00;  0.0000000E+00;  4.0000000E+04;  0.0000000E+00;  4.0000000E+04; -5.0722274E-06;  0.0000000E+00; -8.0788204E-06;  1.5917772E+02;
 -5.0000001E-02;  9.9999998E-03;  4.1999999E-01;1450;  0.0000000E+00;  0.0000000E+00;  0.0000000E+00;  1.0000000E+03;  1.0000000E-01;  0.0000000E+00;0;  0.0000000E+00;  0.0000000E+00;  0.0000000E+00;0; -6.2518775E-06;  4.0000000E+04;  0.0000000E+00;  0.0000000E+00;  4.0000000E+04;  0.0000000E+00;  4.0000000E+04; -2.5124475E-06;  0.0000000E+00; -3.7394302E-06;  7.2770149E+01;
 -5.0000001E-02;  9.9999998E-03;  4.3000001E-01;1451;  0.0000000E+00;  0.0000000E+00;  0.0000000E+00;  1.0000000E+03;  1.0000000E-01;  0.0000000E+00;0;  0.0000000E+00;  0.0000000E+00;  0.0000000E+00;0; -2.2534844E-06;  4.0000000E+04;  0.0000000E+00;  0.0000000E+00;  4.0000000E+04;  0.0000000E+00;  4.0000000E+04; -9.2433390E-07;  0.0000000E+00; -1.3291505E-06;  2.4589897E+01;
 -5.0000001E-02;  9.9999998E-03;  4.4000000E-01;1452;  0.0000000E+00;  0.0000000E+00;  0.0000000E+00;  1.0000000E+03;  1.0000000E-01;  0.0000000E+00;0;  0.0000000E+00;  0.0000000E+00;  0.0000000E+00;0; -4.9181051E-07;  4.0000000E+04;  0.0000000E+00;  0.0000000E+00;  4.0000000E+04;  0.0000000E+00;  4.0000000E+04; -2.0776625E-07;  0.0000000E+00; -2.8404426E-07;  4.9800253E+00;
 -5.0000001E-02;  9.9999998E-03;  4.4999999E-01;1453;  0.0000000E+00;  0.0000000E+00;  0.0000000E+00;  1.0000000E+03;  1.0000000E-01;  0.0000000E+00;0;  0.0000000E+00;  0.0000000E+00;  0.0000000E+00;0; -3.3349206E-08;  4.0000000E+04;  0.0000000E+00;  0.0000000E+00;  4.0000000E+04;  0.0000000E+00;  4.0000000E+04; -1.5593553E-08;  0.0000000E+00; -1.7755653E-08;  3.2760775E-01;
 -3.9999999E-02;  9.9999998E-03;  4.1000000E-01;1540;  0.0000000E+00;  0.0000000E+00;  0.0000000E+00;  1.0000480E+03;  1.0000000E-01;  3.9801342E+01;0;  0.0000000E+00;  0.0000000E+00;  0.0000000E+00;0; -2.0125815E-05;  4.0000000E+04;  0.0000000E+00;  0.0000000E+00;  4.0000000E+04;  0.0000000E+00;  4.0000000E+04; -9.9675826E-06;  0.0000000E+00; -1.0158234E-05;  2.3566837E+02;
 -3.9999999E-02;  9.9999998E-03;  4.1999999E-01;1541;  0.0000000E+00;  0.0000000E+00;  0.0000000E+00;  1.0000000E+03;  1.0000000E-01;  0.0000000E+00;0;  0.0000000E+00;  0.0000000E+00;  0.0000000E+00;0; -9.7038392E-06;  4.0000000E+04;  0.0000000E+00;  0.0000000E+00;  4.0000000E+04;  0.0000000E+00;  4.0000000E+04; -4.8618504E-06;  0.0000000E+00; -4.8419888E-06;  1.1563420E+02;
 -3.9999999E-02;  9.9999998E-03;  4.3000001E-01;1542;  0.0000000E+00;  0.0000000E+00;  0.0000000E+00;  1.0000000E+03;  1.0000000E-01;  0.0000000E+00;0;  0.0000000E+00;  0.0000000E+00;  0.0000000E+00;0; -3.7321533E-06;  4.0000000E+04;  0.0000000E+00;  0.0000000E+00;  4.0000000E+04;  0.0000000E+00;  4.0000000E+04; -1.8568842E-06;  0.0000000E+00; -1.8752692E-06;  4.3775295E+01;
 -3.9999999E-02;  9.9999998E-03;  4.4000000E-01;1543;  0.0000000E+00;  0.0000000E+00;  0.0000000E+00;  1.0000000E+03;  1.0000000E-01;  0.0000000E+00;0;  0.0000000E+00;  0.0000000E+00;  0.0000000E+00;0; -9.7041016E-07;  4.0000000E+04;  0.0000000E+00;  0.0000000E+00;  4.0000000E+04;  0.0000000E+00;  4.0000000E+04; -4.7561539E-07;  0.0000000E+00; -4.9479479E-07;  1.0909665E+01;
 -3.9999999E-02;  9.9999998E-03;  4.4999999E-01;1544;  0.0000000E+00;  0.0000000E+00;  0.0000000E+00;  1.0000000E+03;  1.0000000E-01;  0.0000000E+00;0;  0.0000000E+00;  0.0000000E+00;  0.0000000E+00;0; -1.0986915E-07;  4.0000000E+04;  0.0000000E+00;  0.0000000E+00;  4.0000000E+04;  0.0000000E+00;  4.0000000E+04; -5.4049838E-08;  0.0000000E+00; -5.5819314E-08;  1.2001729E+00;
 -2.9999999E-02;  9.9999998E-03;  4.1000000E-01;1631;  0.0000000E+00;  0.0000000E+00;  0.0000000E+00;  1.0000668E+03;  1.0000000E-01;  5.5307079E+01;0;  0.0000000E+00;  0.0000000E+00;  0.0000000E+00;0; -2.8912502E-05;  4.0000000E+04;  0.0000000E+00;  0.0000000E+00;  4.0000000E+04;  0.0000000E+00;  4.0000000E+04; -1.7203029E-05;  0.0000000E+00; -1.1709474E-05;  3.1999380E+02;
 -2.9999999E-02;  9.9999998E-03;  4.1999999E-01;1632;  0.0000000E+00;  0.0000000E+00;  0.0000000E+00;  1.0000106E+03;  1.0000000E-01;  8.7898750E+00;0;  0.0000000E+00;  0.0000000E+00;  0.0000000E+00;0; -1.3897743E-05;  4.0000000E+04;  0.0000000E+00;  0.0000000E+00;  4.0000000E+04;  0.0000000E+00;  4.0000000E+04; -8.3878649E-06;  0.0000000E+00; -5.5098785E-06;  1.6535858E+02;
 -2.9999999E-02;  9.9999998E-03;  4.3000001E-01;1633;  0.0000000E+00;  0.0000000E+00;  0.0000000E+00;  1.0000000E+03;  1.0000000E-01;  0.0000000E+00;0;  0.0000000E+00;  0.0000000E+00;  0.0000000E+00;0; -5.4935508E-06;  4.0000000E+04;  0.0000000E+00;  0.0000000E+00;  4.0000000E+04;  0.0000000E+00;  4.0000000E+04; -3.2989894E-06;  0.0000000E+00; -2.1945616E-06;  6.7896301E+01;
 -2.9999999E-02;  9.9999998E-03;  4.4000000E-01;1634;  0.0000000E+00;  0.0000000E+00;  0.0000000E+00;  1.0000000E+03;  1.0000000E-01;  0.0000000E+00;0;  0.0000000E+00;  0.0000000E+00;  0.0000000E+00;0; -1.5711879E-06;  4.0000000E+04;  0.0000000E+00;  0.0000000E+00;  4.0000000E+04;  0.0000000E+00;  4.0000000E+04; -9.1749871E-07;  0.0000000E+00; -6.5368920E-07;  1.9495232E+01;
 -2.9999999E-02;  9.9999998E-03;  4.4999999E-01;1635;  0.0000000E+00;  0.0000000E+00;  0.0000000E+00;  1.0000000E+03;  1.0000000E-01;  0.0000000E+00;0;  0.0000000E+00;  0.0000000E+00;  0.0000000E+00;0; -2.3589919E-07;  4.0000000E+04;  0.0000000E+00;  0.0000000E+00;  4.0000000E+04;  0.0000000E+00;  4.0000000E+04; -1.3052322E-07;  0.0000000E+00; -1.0537597E-07;  2.9161522E+00;
 -2.0000000E-02;  9.9999998E-03;  4.1000000E-01;1722;  0.0000000E+00;  0.0000000E+00;  0.0000000E+00;  1.0000828E+03;  1.0000000E-01;  6.8541275E+01;0;  0.0000000E+00;  0.0000000E+00;  0.0000000E+00;0; -3.9253100E-05;  4.0000000E+04;  0.0000000E+00;  0.0000000E+00;  4.0000000E+04;  0.0000000E+00;  4.0000000E+04; -2.6584854E-05;  0.0000000E+00; -1.2668247E-05;  4.0272900E+02;
 -2.0000000E-02;  9.9999998E-03;  4.1999999E-01;1723;  0.0000000E+00;  0.0000000E+00;  0.0000000E+00;  1.0000462E+03;  1.0000000E-01;  3.8319904E+01;0;  0.0000000E+00;  0.0000000E+00;  0.0000000E+00;0; -1.8622093E-05;  4.0000000E+04;  0.0000000E+00;  0.0000000E+00;  4.0000000E+04;  0.0000000E+00;  4.0000000E+04; -1.3046436E-05;  0.0000000E+00; -5.5756573E-06;  2.1617969E+02;
 -2.0000000E-02;  9.9999998E-03;  4.3000001E-01;1724;  0.0000000E+00;  0.0000000E+00;  0.0000000E+00;  1.0000000E+03;  1.0000000E-01;  0.0000000E+00;0;  0.0000000E+00;  0.0000000E+00;  0.0000000E+00;0; -7.3693891E-06;  4.0000000E+04;  0.0000000E+00;  0.0000000E+00;  4.0000000E+04;  0.0000000E+00;  4.0000000E+04; -5.2596906E-06;  0.0000000E+00; -2.1096987E-06;  9.4146355E+01;
 -2.0000000E-02;  9.9999998E-03;  4.4000000E-01;1725;  0.0000000E+00;  0.0000000E+00;  0.0000000E+00;  1.0000000E+03;  1.0000000E-01;  0.0000000E+00;0;  0.0000000E+00;  0.0000000E+00;  0.0000000E+00;0; -2.1944113E-06;  4.0000000E+04;  0.0000000E+00;  0.0000000E+00;  4.0000000E+04;  0.0000000E+00;  4.0000000E+04; -1.5484508E-06;  0.0000000E+00; -6.4596048E-07;  2.9873957E+01;
 -2.0000000E-02;  9.9999998E-03;  4.4999999E-01;1726;  0.0000000E+00;  0.0000000E+00;  0.0000000E+00;  1.0000000E+03;  1.0000000E-01;  0.0000000E+00;0;  0.0000000E+00;  0.0000000E+00;  0.0000000E+00;0; -3.8335133E-07;  4.0000000E+04;  0.0000000E+00;  0.0000000E+00;  4.0000000E+04;  0.0000000E+00;  4.0000000E+04; -2.5292675E-07;  0.0000000E+00; -1.3042460E-07;  5.4631553E+00;
 -9.9999998E-03;  9.9999998E-03;  4.1000000E-01;1813;  0.0000000E+00;  0.0000000E+00;  0.0000000E+00;  1.0001279E+03;  1.0000000E-01;  1.0597231E+02;0;  0.0000000E+00;  0.0000000E+00;  0.0000000E+00;0; -5.0610801E-05;  4.0000000E+04;  0.0000000E+00;  0.0000000E+00;  4.0000000E+04;  0.0000000E+00;  4.0000000E+04; -3.7261285E-05;  0.0000000E+00; -1.3349516E-05;  4.7281818E+02;
 -9.9999998E-03;  9.9999998E-03;  4.1999999E-01;1814;  0.0000000E+00;  0.0000000E+00;  0.0000000E+00;  1.0000550E+03;  1.0000000E-01;  4.5529575E+01;0;  0.0000000E+00;  0.0000000E+00;  0.0000000E+00;0; -2.3573994E-05;  4.0000000E+04;  0.0000000E+00;  0.0000000E+00;  4.0000000E+04;  0.0000000E+00;  4.0000000E+04; -1.8455203E-05;  0.0000000E+00; -5.1187903E-06;  2.6076285E+02;
 -9.9999998E-03;  9.9999998E-03;  4.3000001E-01;1815;  0.0000000E+00;  0.0000000E+00;  0.0000000E+00;  1.0000000E+03;  1.0000000E-01;  0.0000000E+00;0;  0.0000000E+00;  0.0000000E+00;  0.0000000E+00;0; -9.1645670E-06;  4.0000000E+04;  0.0000000E+00;  0.0000000E+00;  4.0000000E+04;  0.0000000E+00;  4.0000000E+04; -7.6000870E-06;  0.0000000E+00; -1.5644799E-06;  1.1846500E+02;
 -9.9999998E-03;  9.9999998E-03;  4.4000000E-01;1816;  0.0000000E+00;  0.0000000E+00;  0.0000000E+00;  1.0000000E+03;  1.0000000E-01;  0.0000000E+00;0;  0.0000000E+00;  0.0000000E+00;  0.0000000E+00;0; -2.7203002E-06;  4.0000000E+04;  0.0000000E+00;  0.0000000E+00;  4.0000000E+04;  0.0000000E+00;  4.0000000E+04; -2.3324710E-06;  0.0000000E+00; -3.8782920E-07;  4.0361237E+01;
 -9.9999998E-03;  9.9999998E-03;  4.4999999E-01;1817;  0.0000000E+00;  0.0000000E+00;  0.0000000E+00;  1.0000000E+03;  1.0000000E-01;  0.0000000E+00;0;  0.0000000E+00;  0.0000000E+00;  0.0000000E+00;0; -5.0280494E-07;  4.0000000E+04;  0.0000000E+00;  0.0000000E+00;  4.0000000E+04;  0.0000000E+00;  4.0000000E+04; -4.1660951E-07;  0.0000000E+00; -8.6195456E-08;  8.4649582E+00;
  0.0000000E+00;  9.9999998E-03;  4.1000000E-01;1845;  0.0000000E+00;  0.0000000E+00;  0.0000000E+00;  1.0001492E+03;  1.0000000E-01;  1.2355206E+02;0;  0.0000000E+00;  0.0000000E+00;  0.0000000E+00;0; -6.2212355E-05;  4.0000000E+04;  0.0000000E+00;  0.0000000E+00;  4.0000000E+04;  0.0000000E+00;  4.0000000E+04; -4.7721529E-05;  0.0000000E+00; -1.4490827E-05;  5.1987988E+02;
  0.0000000E+00;  9.9999998E-03;  4.1999999E-01;1846;  0.0000000E+00;  0.0000000E+00;  0.0000000E+00;  1.0000707E+03;  1.0000000E-01;  5.8566246E+01;0;  0.0000000E+00;  0.0000000E+00;  0.0000000E+00;0; -2.8406605E-05;  4.0000000E+04;  0.0000000E+00;  0.0000000E+00;  4.0000000E+04;  0.0000000E+00;  4.0000000E+04; -2.3862684E-05;  0.0000000E+00; -4.5439201E-06;  2.9156207E+02;
  0.0000000E+00;  9.9999998E-03;  4.3000001E-01;1847;  0.0000000E+00;  0.0000000E+00;  0.0000000E+00;  1.0000084E+03;  1.0000000E-01;  6.9133849E+00;0;  0.0000000E+00;  0.0000000E+00;  0.0000000E+00;0; -1.0709085E-05;  4.0000000E+04;  0.0000000E+00;  0.0000000E+00;  4.0000000E+04;  0.0000000E+00;  4.0000000E+04; -1.0008664E-05;  0.0000000E+00; -7.0042222E-07;  1.3626704E+02;
  0.0000000E+00;  9.9999998E-03;  4.4000000E-01;1848;  0.0000000E+00;  0.0000000E+00;  0.0000000E+00;  1.0000000E+03;  1.0000000E-01;  0.0000000E+00;0;  0.0000000E+00;  0.0000000E+00;  0.0000000E+00;0; -3.0502035E-06;  4.0000000E+04;  0.0000000E+00;  0.0000000E+00;  4.0000000E+04;  0.0000000E+00;  4.0000000E+04; -3.1693826E-06;  0.0000000E+00;  1.1917903E-07;  4.8782204E+01;
  0.0000000E+00;  9.9999998E-03;  4.4999999E-01;1849;  0.0000000E+00;  0.0000000E+00;  0.0000000E+00;  1.0000000E+03;  1.0000000E-01;  0.0000000E+00;0;  0.0000000E+00;  0.0000000E+00;  0.0000000E+00;0; -5.4470900E-07;  4.0000000E+04;  0.0000000E+00;  0.0000000E+00;  4.0000000E+04;  0.0000000E+00;  4.0000000E+04; -6.0045932E-07;  0.0000000E+00;  5.5750316E-08;  1.1245547E+01;
  9.9999998E-03;  9.9999998E-03;  4.1000000E-01;1875;  0.0000000E+00;  0.0000000E+00;  0.0000000E+00;  1.0001854E+03;  1.0000000E-01;  1.5357590E+02;0;  0.0000000E+00;  0.0000000E+00;  0.0000000E+00;0; -7.3158924E-05;  4.0000000E+04;  0.0000000E+00;  0.0000000E+00;  4.0000000E+04;  0.0000000E+00;  4.0000000E+04; -5.6020748E-05;  0.0000000E+00; -1.7138176E-05;  5.3749426E+02;
  9.9999998E-03;  9.9999998E-03;  4.1999999E-01;1876;  0.0000000E+00;  0.0000000E+00;  0.0000000E+00;  1.0000889E+03;  1.0000000E-01;  7.3676926E+01;0;  0.0000000E+00;  0.0000000E+00;  0.0000000E+00;0; -3.2790209E-05;  4.0000000E+04;  0.0000000E+00;  0.0000000E+00;  4.0000000E+04;  0.0000000E+00;  4.0000000E+04; -2.8233579E-05;  0.0000000E+00; -4.5566321E-06;  3.0278833E+02;
  9.9999998E-03;  9.9999998E-03;  4.3000001E-01;1877;  0.0000000E+00;  0.0000000E+00;  0.0000000E+00;  1.0000317E+03;  1.0000000E-01;  2.6270863E+01;0;  0.0000000E+00;  0.0000000E+00;  0.0000000E+00;0; -1.1907297E-05;  4.0000000E+04;  0.0000000E+00;  0.0000000E+00;  4.0000000E+04;  0.0000000E+00;  4.0000000E+04; -1.2025048E-05;  0.0000000E+00;  1.1775175E-07;  1.4347232E+02;
  9.9999998E-03;  9.9999998E-03;  4.4000000E-01;1878;  0.0000000E+00;  0.0000000E+00;  0.0000000E+00;  1.0000000E+03;  1.0000000E-01;  0.0000000E+00;0;  0.0000000E+00;  0.0000000E+00;  0.0000000E+00;0; -3.1477268E-06;  4.0000000E+04;  0.0000000E+00;  0.0000000E+00;  4.0000000E+04;  0.0000000E+00;  4.0000000E+04; -3.9014858E-06;  0.0000000E+00;  7.5375891E-07;  5.2968697E+01;
  9.9999998E-03;  9.9999998E-03;  4.4999999E-01;1879;  0.0000000E+00;  0.0000000E+00;  0.0000000E+00;  1.0000000E+03;  1.0000000E-01;  0.0000000E+00;0;  0.0000000E+00;  0.0000000E+00;  0.0000000E+00;0; -4.8447987E-07;  4.0000000E+04;  0.0000000E+00;  0.0000000E+00;  4.0000000E+04;  0.0000000E+00;  4.0000000E+04; -7.6876211E-07;  0.0000000E+00;  2.8428227E-07;  1.3009433E+01;
  2.0000000E-02;  9.9999998E-03;  4.1000000E-01;1905;  0.0000000E+00;  0.0000000E+00;  0.0000000E+00;  1.0002181E+03;  1.0000000E-01;  1.8063687E+02;0;  0.0000000E+00;  0.0000000E+00;  0.0000000E+00;0; -8.2566388E-05;  4.0000000E+04;  0.0000000E+00;  0.0000000E+00;  4.0000000E+04;  0.0000000E+00;  4.0000000E+04; -6.0199411E-05;  0.0000000E+00; -2.2366978E-05;  5.2611401E+02;
  2.0000000E-02;  9.9999998E-03;  4.1999999E-01;1906;  0.0000000E+00;  0.0000000E+00;  0.0000000E+00;  1.0001116E+03;  1.0000000E-01;  9.2441833E+01;0;  0.0000000E+00;  0.0000000E+00;  0.0000000E+00;0; -3.6471698E-05;  4.0000000E+04;  0.0000000E+00;  0.0000000E+00;  4.0000000E+04;  0.0000000E+00;  4.0000000E+04; -3.0463634E-05;  0.0000000E+00; -6.0080629E-06;  2.9279526E+02;
  2.0000000E-02;  9.9999998E-03;  4.3000001E-01;1907;  0.0000000E+00;  0.0000000E+00;  0.0000000E+00;  1.0000461E+03;  1.0000000E-01;  3.8221142E+01;0;  0.0000000E+00;  0.0000000E+00;  0.0000000E+00;0; -1.2767324E-05;  4.0000000E+04;  0.0000000E+00;  0.0000000E+00;  4.0000000E+04;  0.0000000E+00;  4.0000000E+04; -1.3124044E-05;  0.0000000E+00;  3.5671988E-07;  1.3781363E+02;
  2.0000000E-02;  9.9999998E-03;  4.4000000E-01;1908;  0.0000000E+00;  0.0000000E+00;  0.0000000E+00;  1.0000000E+03;  1.0000000E-01;  0.0000000E+00;0;  0.0000000E+00;  0.0000000E+00;  0.0000000E+00;0; -3.0640490E-06;  4.0000000E+04;  0.0000000E+00;  0.0000000E+00;  4.0000000E+04;  0.0000000E+00;  4.0000000E+04; -4.3403975E-06;  0.0000000E+00;  1.2763485E-06;  5.1331398E+01;
  2.0000000E-02;  9.9999998E-03;  4.4999999E-01;1909;  0.0000000E+00;  0.0000000E+00;  0.0000000E+00;  1.0000000E+03;  1.0000000E-01;  0.0000000E+00;0;  0.0000000E+00;  0.0000000E+00;  0.0000000E+00;0; -3.4089300E-07;  4.0000000E+04;  0.0000000E+00;  0.0000000E+00;  4.0000000E+04;  0.0000000E+00;  4.0000000E+04; -8.7882677E-07;  0.0000000E+00;  5.3793377E-07;  1.3076590E+01;
  2.9999999E-02;  9.9999998E-03;  4.1000000E-01;1935;  0.0000000E+00;  0.0000000E+00;  0.0000000E+00;  1.0002547E+03;  1.0000000E-01;  2.1105576E+02;0;  0.0000000E+00;  0.0000000E+00;  0.0000000E+00;0; -8.9699519E-05;  4.0000000E+04;  0.0000000E+00;  0.0000000E+00;  4.0000000E+04;  0.0000000E+00;  4.0000000E+04; -5.8818274E-05;  0.0000000E+00; -3.0881245E-05;  4.9497528E+02;
  2.9999999E-02;  9.9999998E-03;  4.1999999E-01;1936;  0.0000000E+00;  0.0000000E+00;  0.0000000E+00;  1.0001301E+03;  1.0000000E-01;  1.0775004E+02;0;  0.0000000E+00;  0.0000000E+00;  0.0000000E+00;0; -3.9298335E-05;  4.0000000E+04;  0.0000000E+00;  0.0000000E+00;  4.0000000E+04;  0.0000000E+00;  4.0000000E+04; -2.9671573E-05;  0.0000000E+00; -9.6267595E-06;  2.6589291E+02;
  2.9999999E-02;  9.9999998E-03;  4.3000001E-01;1937;  0.0000000E+00;  0.0000000E+00;  0.0000000E+00;  1.0000506E+03;  1.0000000E-01;  4.1875359E+01;0;  0.0000000E+00;  0.0000000E+00;  0.0000000E+00;0; -1.3396586E-05;  4.0000000E+04;  0.0000000E+00;  0.0000000E+00;  4.0000000E+04;  0.0000000E+00;  4.0000000E+04; -1.2853143E-05;  0.0000000E+00; -5.4344315E-07;  1.2024173E+02;
  2.9999999E-02;  9.9999998E-03;  4.4000000E-01;1938;  0.0000000E+00;  0.0000000E+00;  0.0000000E+00;  1.0000000E+03;  1.0000000E-01;  0.0000000E+00;0;  0.0000000E+00;  0.0000000E+00;  0.0000000E+00;0; -2.9327221E-06;  4.0000000E+04;  0.0000000E+00;  0.0000000E+00;  4.0000000E+04;  0.0000000E+00;  4.0000000E+04; -4.3116179E-06;  0.0000000E+00;  1.3788957E-06;  4.3481472E+01;
  2.9999999E-02;  9.9999998E-03;  4.4999999E-01;1939;  0.0000000E+00;  0.0000000E+00;  0.0000000E+00;  1.0000000E+03;  1.0000000E-01;  0.0000000E+00;0;  0.0000000E+00;  0.0000000E+00;  0.0000000E+00;0; -1.7917461E-07;  4.0000000E+04;  0.0000000E+00;  0.0000000E+00;  4.0000000E+04;  0.0000000E+00;  4.0000000E+04; -8.9177337E-07;  0.0000000E+00;  7.1259876E-07;  1.1100949E+01;
  3.9999999E-02;  9.9999998E-03;  4.1000000E-01;1965;  0.0000000E+00;  0.0000000E+00;  0.0000000E+00;  1.0002783E+03;  1.0000000E-01;  2.3061076E+02;0;  0.0000000E+00;  0.0000000E+00;  0.0000000E+00;0; -9.4169634E-05;  4.0000000E+04;  0.0000000E+00;  0.0000000E+00;  4.0000000E+04;  0.0000000E+00;  4.0000000E+04; -5.1462437E-05;  0.0000000E+00; -4.2707197E-05;  4.6182947E+02;
  3.9999999E-02;  9.9999998E-03;  4.1999999E-01;1966;  0.0000000E+00;  0.0000000E+00;  0.0000000E+00;  1.0001376E+03;  1.0000000E-01;  1.1407085E+02;0;  0.0000000E+00;  0.0000000E+00;  0.0000000E+00;0; -4.1202533E-05;  4.0000000E+04;  0.0000000E+00;  0.0000000E+00;  4.0000000E+04;  0.0000000E+00;  4.0000000E+04; -2.5504629E-05;  0.0000000E+00; -1.5697902E-05;  2.3284209E+02;
  3.9999999E-02;  9.9999998E-03;  4.3000001E-01;1967;  0.0000000E+00;  0.0000000E+00;  0.0000000E+00;  1.0000569E+03;  1.0000000E-01;  4.7109779E+01;0;  0.0000000E+00;  0.0000000E+00;  0.0000000E+00;0; -1.3949979E-05;  4.0000000E+04;  0.0000000E+00;  0.0000000E+00;  4.0000000E+04;  0.0000000E+00;  4.0000000E+04; -1.0981927E-05;  0.0000000E+00; -2.9680518E-06;  9.5733238E+01;
  3.9999999E-02;  9.9999998E-03;  4.4000000E-01;1968;  0.0000000E+00;  0.0000000E+00;  0.0000000E+00;  1.0000000E+03;  1.0000000E-01;  0.0000000E+00;0;  0.0000000E+00;  0.0000000E+00;  0.0000000E+00;0; -2.9307987E-06;  4.0000000E+04;  0.0000000E+00;  0.0000000E+00;  4.0000000E+04;  0.0000000E+00;  4.0000000E+04; -3.7112377E-06;  0.0000000E+00;  7.8043894E-07;  3.0837269E+01;
  3.9999999E-02;  9.9999998E-03;  4.4999999E-01;1969;  0.0000000E+00;  0.0000000E+00;  0.0000000E+00;  1.0000000E+03;  1.0000000E-01;  0.0000000E+00;0;  0.0000000E+00;  0.0000000E+00;  0.0000000E+00;0; -9.3493554E-08;  4.0000000E+04;  0.0000000E+00;  0.0000000E+00;  4.0000000E+04;  0.0000000E+00;  4.0000000E+04; -7.8300241E-07;  0.0000000E+00;  6.8950885E-07;  7.2405210E+00;
  5.0000001E-02;  9.9999998E-03;  4.1000000E-01;1995;  0.0000000E+00;  0.0000000E+00;  0.0000000E+00;  1.0002839E+03;  1.0000000E-01;  2.3525261E+02;0;  0.0000000E+00;  0.0000000E+00;  0.0000000E+00;0; -9.6141055E-05;  4.0000000E+04;  0.0000000E+00;  0.0000000E+00;  4.0000000E+04;  0.0000000E+00;  4.0000000E+04; -3.8984319E-05;  0.0000000E+00; -5.7156740E-05;  4.5006158E+02;
  5.0000001E-02;  9.9999998E-03;  4.1999999E-01;1996;  0.0000000E+00;  0.0000000E+00;  0.0000000E+00;  1.0001482E+03;  1.0000000E-01;  1.2276196E+02;0;  0.0000000E+00;  0.0000000E+00;  0.0000000E+00;0; -4.2244916E-05;  4.0000000E+04;  0.0000000E+00;  0.0000000E+00;  4.0000000E+04;  0.0000000E+00;  4.0000000E+04; -1.8356614E-05;  0.0000000E+00; -2.3888300E-05;  2.0963504E+02;
  5.0000001E-02;  9.9999998E-03;  4.3000001E-01;1997;  0.0000000E+00;  0.0000000E+00;  0.0000000E+00;  1.0000646E+03;  1.0000000E-01;  5.3529350E+01;0;  0.0000000E+00;  0.0000000E+00;  0.0000000E+00;0; -1.4538864E-05;  4.0000000E+04;  0.0000000E+00;  0.0000000E+00;  4.0000000E+04;  0.0000000E+00;  4.0000000E+04; -7.6247147E-06;  0.0000000E+00; -6.9141493E-06;  7.3086754E+01;
  5.0000001E-02;  9.9999998E-03;  4.4000000E-01;1998;  0.0000000E+00;  0.0000000E+00;  0.0000000E+00;  1.0000000E+03;  1.0000000E-01;  0.0000000E+00;0;  0.0000000E+00;  0.0000000E+00;  0.0000000E+00;0; -3.2089456E-06;  4.0000000E+04;  0.0000000E+00;  0.0000000E+00;  4.0000000E+04;  0.0000000E+00;  4.0000000E+04; -2.5534980E-06;  0.0000000E+00; -6.5544771E-07;  1.6861650E+01;
  5.0000001E-02;  9.9999998E-03;  4.4999999E-01;1999;  0.0000000E+00;  0.0000000E+00;  0.0000000E+00;  1.0000000E+03;  1.0000000E-01;  0.0000000E+00;0;  0.0000000E+00;  0.0000000E+00;  0.0000000E+00;0; -1.7075988E-07;  4.0000000E+04;  0.0000000E+00;  0.0000000E+00;  4.0000000E+04;  0.0000000E+00;  4.0000000E+04; -5.5097053E-07;  0.0000000E+00;  3.8021065E-07;  2.2799115E+00;
  5.9999999E-02;  9.9999998E-03;  4.1000000E-01;2025;  0.0000000E+00;  0.0000000E+00;  0.0000000E+00;  1.0002894E+03;  1.0000000E-01;  2.3979568E+02;0;  0.0000000E+00;  0.0000000E+00;  0.0000000E+00;0; -9.6366217E-05;  4.0000000E+04;  0.0000000E+00;  0.0000000E+00;  4.0000000E+04;  0.0000000E+00;  4.0000000E+04; -2.3434468E-05;  0.0000000E+00; -7.2931747E-05;  4.8373187E+02;
  5.9999999E-02;  9.9999998E-03;  4.1999999E-01;2026;  0.0000000E+00;  0.0000000E+00;  0.0000000E+00;  1.0001510E+03;  1.0000000E-01;  1.2513226E+02;0;  0.0000000E+00;  0.0000000E+00;  0.0000000E+00;0; -4.2666827E-05;  4.0000000E+04;  0.0000000E+00;  0.0000000E+00;  4.0000000E+04;  0.0000000E+00;  4.0000000E+04; -9.3423932E-06;  0.0000000E+00; -3.3324435E-05;  2.1416034E+02;
  5.9999999E-02;  9.9999998E-03;  4.3000001E-01;2027;  0.0000000E+00;  0.0000000E+00;  0.0000000E+00;  1.0000660E+03;  1.0000000E-01;  5.4615738E+01;0;  0.0000000E+00;  0.0000000E+00;  0.0000000E+00;0; -1.5189636E-05;  4.0000000E+04;  0.0000000E+00;  0.0000000E+00;  4.0000000E+04;  0.0000000E+00;  4.0000000E+04; -3.2768221E-06;  0.0000000E+00; -1.1912814E-05;  6.3425964E+01;
  5.9999999E-02;  9.9999998E-03;  4.4000000E-01;2028;  0.0000000E+00;  0.0000000E+00;  0.0000000E+00;  1.0000000E+03;  1.0000000E-01;  0.0000000E+00;0;  0.0000000E+00;  0.0000000E+00;  0.0000000E+00;0; -3.7945538E-06;  4.0000000E+04;  0.0000000E+00;  0.0000000E+00;  4.0000000E+04;  0.0000000E+00;  4.0000000E+04; -9.8725616E-07;  0.0000000E+00; -2.8072977E-06;  6.6716123E+00;
  5.9999999E-02;  9.9999998E-03;  4.4999999E-01;2029;  0.0000000E+00;  0.0000000E+00;  0.0000000E+00;  1.0000000E+03;  1.0000000E-01;  0.0000000E+00;0;  0.0000000E+00;  0.0000000E+00;  0.0000000E+00;0; -4.4420676E-07;  4.0000000E+04;  0.0000000E+00;  0.0000000E+00;  4.0000000E+04;  0.0000000E+00;  4.0000000E+04; -2.2062304E-07;  0.0000000E+00; -2.2358371E-07;  2.3902504E+00;
  7.0000000E-02;  9.9999998E-03;  4.1000000E-01;2055;  0.0000000E+00;  0.0000000E+00;  0.0000000E+00;  1.0002913E+03;  1.0000000E-01;  2.4137589E+02;0;  0.0000000E+00;  0.0000000E+00;  0.0000000E+00;0; -9.6075157E-05;  4.0000000E+04;  0.0000000E+00;  0.0000000E+00;  4.0000000E+04;  0.0000000E+00;  4.0000000E+04; -7.7318027E-06;  0.0000000E+00; -8.8343353E-05;  5.8210394E+02;
  7.0000000E-02;  9.9999998E-03;  4.1999999E-01;2056;  0.0000000E+00;  0.0000000E+00;  0.0000000E+00;  1.0001518E+03;  1.0000000E-01;  1.2572484E+02;0;  0.0000000E+00;  0.0000000E+00;  0.0000000E+00;0; -4.2811425E-05;  4.0000000E+04;  0.0000000E+00;  0.0000000E+00;  4.0000000E+04;  0.0000000E+00;  4.0000000E+04; -4.0099618E-08;  0.0000000E+00; -4.2771328E-05;  2.6178607E+02;
  7.0000000E-02;  9.9999998E-03;  4.3000001E-01;2057;  0.0000000E+00;  0.0000000E+00;  0.0000000E+00;  1.0000672E+03;  1.0000000E-01;  5.5702129E+01;0;  0.0000000E+00;  0.0000000E+00;  0.0000000E+00;0; -1.5853144E-05;  4.0000000E+04;  0.0000000E+00;  0.0000000E+00;  4.0000000E+04;  0.0000000E+00;  4.0000000E+04;  1.3121011E-06;  0.0000000E+00; -1.7165245E-05;  7.7466560E+01;
  7.0000000E-02;  9.9999998E-03;  4.4000000E-01;2058;  0.0000000E+00;  0.0000000E+00;  0.0000000E+00;  1.0000000E+03;  1.0000000E-01;  0.0000000E+00;0;  0.0000000E+00;  0.0000000E+00;  0.0000000E+00;0; -4.5471756E-06;  4.0000000E+04;  0.0000000E+00;  0.0000000E+00;  4.0000000E+04;  0.0000000E+00;  4.0000000E+04;  7.2719928E-07;  0.0000000E+00; -5.2743749E-06;  5.9683647E+00;
  7.0000000E-02;  9.9999998E-03;  4.4999999E-01;2059;  0.0000000E+00;  0.0000000E+00;  0.0000000E+00;  1.0000000E+03;  1.0000000E-01;  0.0000000E+00;0;  0.0000000E+00;  0.0000000E+00;  0.0000000E+00;0; -8.6026904E-07;  4.0000000E+04;  0.0000000E+00;  0.0000000E+00;  4.0000000E+04;  0.0000000E+00;  4.0000000E+04;  1.6194140E-07;  0.0000000E+00; -1.0222104E-06;  4.9519076E+00;
  7.9999998E-02;  9.9999998E-03;  4.1000000E-01;2085;  0.0000000E+00;  0.0000000E+00;  0.0000000E+00;  1.0002736E+03;  1.0000000E-01;  2.2666026E+02;0;  0.0000000E+00;  0.0000000E+00;  0.0000000E+00;0; -9.6839649E-05;  4.0000000E+04;  0.0000000E+00;  0.0000000E+00;  4.0000000E+04;  0.0000000E+00;  4.0000000E+04;  4.8253937E-06;  0.0000000E+00; -1.0166504E-04;  7.5470441E+02;
  7.9999998E-02;  9.9999998E-03;  4.1999999E-01;2086;  0.0000000E+00;  0.0000000E+00;  0.0000000E+00;  1.0001441E+03;  1.0000000E-01;  1.1940403E+02;0;  0.0000000E+00;  0.0000000E+00;  0.0000000E+00;0; -4.3133245E-05;  4.0000000E+04;  0.0000000E+00;  0.0000000E+00;  4.0000000E+04;  0.0000000E+00;  4.0000000E+04;  7.7653849E-06;  0.0000000E+00; -5.0898630E-05;  3.6141147E+02;
  7.9999998E-02;  9.9999998E-03;  4.3000001E-01;2087;  0.0000000E+00;  0.0000000E+00;  0.0000000E+00;  1.0000687E+03;  1.0000000E-01;  5.6887280E+01;0;  0.0000000E+00;  0.0000000E+00;  0.0000000E+00;0; -1.6421802E-05;  4.0000000E+04;  0.0000000E+00;  0.0000000E+00;  4.0000000E+04;  0.0000000E+00;  4.0000000E+04;  5.3215804E-06;  0.0000000E+00; -2.1743383E-05;  1.2235776E+02;
  7.9999998E-02;  9.9999998E-03;  4.4000000E-01;2088;  0.0000000E+00;  0.0000000E+00;  0.0000000E+00;  1.0000000E+03;  1.0000000E-01;  0.0000000E+00;0;  0.0000000E+00;  0.0000000E+00;  0.0000000E+00;0; -5.2282617E-06;  4.0000000E+04;  0.0000000E+00;  0.0000000E+00;  4.0000000E+04;  0.0000000E+00;  4.0000000E+04;  2.2816184E-06;  0.0000000E+00; -7.5098801E-06;  1.9047646E+01;
  7.9999998E-02;  9.9999998E-03;  4.4999999E-01;2089;  0.0000000E+00;  0.0000000E+00;  0.0000000E+00;  1.0000000E+03;  1.0000000E-01;  0.0000000E+00;0;  0.0000000E+00;  0.0000000E+00;  0.0000000E+00;0; -1.2829864E-06;  4.0000000E+04;  0.0000000E+00;  0.0000000E+00;  4.0000000E+04;  0.0000000E+00;  4.0000000E+04;  5.3408871E-07;  0.0000000E+00; -1.8170751E-06;  3.7380216E+00;
  9.0000004E-02;  9.9999998E-03;  4.1000000E-01;2115;  0.0000000E+00;  0.0000000E+00;  0.0000000E+00;  1.0002465E+03;  1.0000000E-01;  2.0414238E+02;0;  0.0000000E+00;  0.0000000E+00;  0.0000000E+00;0; -1.0027752E-04;  4.0000000E+04;  0.0000000E+00;  0.0000000E+00;  4.0000000E+04;  0.0000000E+00;  4.0000000E+04;  1.1123938E-05;  0.0000000E+00; -1.1140145E-04;  9.9802216E+02;
  9.0000004E-02;  9.9999998E-03;  4.1999999E-01;2116;  0.0000000E+00;  0.0000000E+00;  0.0000000E+00;  1.0001380E+03;  1.0000000E-01;  1.1436713E+02;0;  0.0000000E+00;  0.0000000E+00;  0.0000000E+00;0; -4.4234414E-05;  4.0000000E+04;  0.0000000E+00;  0.0000000E+00;  4.0000000E+04;  0.0000000E+00;  4.0000000E+04;  1.2353182E-05;  0.0000000E+00; -5.6587596E-05;  5.1276257E+02;
  9.0000004E-02;  9.9999998E-03;  4.3000001E-01;2117;  0.0000000E+00;  0.0000000E+00;  0.0000000E+00;  1.0000709E+03;  1.0000000E-01;  5.8763771E+01;0;  0.0000000E+00;  0.0000000E+00;  0.0000000E+00;0; -1.6827064E-05;  4.0000000E+04;  0.0000000E+00;  0.0000000E+00;  4.0000000E+04;  0.0000000E+00;  4.0000000E+04;  7.9712408E-06;  0.0000000E+00; -2.4798304E-05;  1.9961186E+02;
  9.0000004E-02;  9.9999998E-03;  4.4000000E-01;2118;  0.0000000E+00;  0.0000000E+00;  0.0000000E+00;  1.0000000E+03;  1.0000000E-01;  0.0000000E+00;0;  0.0000000E+00;  0.0000000E+00;  0.0000000E+00;0; -5.5833293E-06;  4.0000000E+04;  0.0000000E+00;  0.0000000E+00;  4.0000000E+04;  0.0000000E+00;  4.0000000E+04;  3.4022555E-06;  0.0000000E+00; -8.9855848E-06;  4.7973312E+01;
  9.0000004E-02;  9.9999998E-03;  4.4999999E-01;2119;  0.0000000E+00;  0.0000000E+00;  0.0000000E+00;  1.0000000E+03;  1.0000000E-01;  0.0000000E+00;0;  0.0000000E+00;  0.0000000E+00;  0.0000000E+00;0; -1.5456849E-06;  4.0000000E+04;  0.0000000E+00;  0.0000000E+00;  4.0000000E+04;  0.0000000E+00;  4.0000000E+04;  8.2445018E-07;  0.0000000E+00; -2.3701350E-06;  2.9485631E+00;
  1.0000000E-01;  9.9999998E-03;  4.1000000E-01;2145;  0.0000000E+00;  0.0000000E+00;  0.0000000E+00;  1.0002173E+03;  1.0000000E-01;  1.8004430E+02;0;  0.0000000E+00;  0.0000000E+00;  0.0000000E+00;0; -1.0785217E-04;  4.0000000E+04;  0.0000000E+00;  0.0000000E+00;  4.0000000E+04;  0.0000000E+00;  4.0000000E+04;  8.6077735E-06;  0.0000000E+00; -1.1645995E-04;  1.2973862E+03;
  1.0000000E-01;  9.9999998E-03;  4.1999999E-01;2146;  0.0000000E+00;  0.0000000E+00;  0.0000000E+00;  1.0001205E+03;  1.0000000E-01;  9.9849030E+01;0;  0.0000000E+00;  0.0000000E+00;  0.0000000E+00;0; -4.6832880E-05;  4.0000000E+04;  0.0000000E+00;  0.0000000E+00;  4.0000000E+04;  0.0000000E+00;  4.0000000E+04;  1.2295675E-05;  0.0000000E+00; -5.9128553E-05;  7.0733447E+02;
  1.0000000E-01;  9.9999998E-03;  4.3000001E-01;2147;  0.0000000E+00;  0.0000000E+00;  0.0000000E+00;  1.0000734E+03;  1.0000000E-01;  6.0837784E+01;0;  0.0000000E+00;  0.0000000E+00;  0.0000000E+00;0; -1.7237506E-05;  4.0000000E+04;  0.0000000E+00;  0.0000000E+00;  4.0000000E+04;  0.0000000E+00;  4.0000000E+04;  8.5734973E-06;  0.0000000E+00; -2.5811003E-05;  3.0558798E+02;
  1.0000000E-01;  9.9999998E-03;  4.4000000E-01;2148;  0.0000000E+00;  0.0000000E+00;  0.0000000E+00;  1.0000000E+03;  1.0000000E-01;  0.0000000E+00;0;  0.0000000E+00;  0.0000000E+00;  0.0000000E+00;0; -5.4938023E-06;  4.0000000E+04;  0.0000000E+00;  0.0000000E+00;  4.0000000E+04;  0.0000000E+00;  4.0000000E+04;  3.8528601E-06;  0.0000000E+00; -9.3466624E-06;  9.1888893E+01;
  1.0000000E-01;  9.9999998E-03;  4.4999999E-01;2149;  0.0000000E+00;  0.0000000E+00;  0.0000000E+00;  1.0000000E+03;  1.0000000E-01;  0.0000000E+00;0;  0.0000000E+00;  0.0000000E+00;  0.0000000E+00;0; -1.5401413E-06;  4.0000000E+04;  0.0000000E+00;  0.0000000E+00;  4.0000000E+04;  0.0000000E+00;  4.0000000E+04;  9.6975396E-07;  0.0000000E+00; -2.5098952E-06;  1.4200572E+01;
  1.1000000E-01;  9.9999998E-03;  4.1000000E-01;2175;  0.0000000E+00;  0.0000000E+00;  0.0000000E+00;  1.0002118E+03;  1.0000000E-01;  1.7550121E+02;0;  0.0000000E+00;  0.0000000E+00;  0.0000000E+00;0; -1.2082770E-04;  4.0000000E+04;  0.0000000E+00;  0.0000000E+00;  4.0000000E+04;  0.0000000E+00;  4.0000000E+04; -4.5315865E-06;  0.0000000E+00; -1.1629611E-04;  1.6380071E+03;
  1.1000000E-01;  9.9999998E-03;  4.1999999E-01;2176;  0.0000000E+00;  0.0000000E+00;  0.0000000E+00;  1.0001102E+03;  1.0000000E-01;  9.1256676E+01;0;  0.0000000E+00;  0.0000000E+00;  0.0000000E+00;0; -5.1689585E-05;  4.0000000E+04;  0.0000000E+00;  0.0000000E+00;  4.0000000E+04;  0.0000000E+00;  4.0000000E+04;  6.5790623E-06;  0.0000000E+00; -5.8268648E-05;  9.3812738E+02;
  1.1000000E-01;  9.9999998E-03;  4.3000001E-01;2177;  0.0000000E+00;  0.0000000E+00;  0.0000000E+00;  1.0000651E+03;  1.0000000E-01;  5.3924400E+01;0;  0.0000000E+00;  0.0000000E+00;  0.0000000E+00;0; -1.8081186E-05;  4.0000000E+04;  0.0000000E+00;  0.0000000E+00;  4.0000000E+04;  0.0000000E+00;  4.0000000E+04;  6.6093339E-06;  0.0000000E+00; -2.4690520E-05;  4.3762018E+02;
  1.1000000E-01;  9.9999998E-03;  4.4000000E-01;2178;  0.0000000E+00;  0.0000000E+00;  0.0000000E+00;  1.0000000E+03;  1.0000000E-01;  0.0000000E+00;0;  0.0000000E+00;  0.0000000E+00;  0.0000000E+00;0; -5.1082006E-06;  4.0000000E+04;  0.0000000E+00;  0.0000000E+00;  4.0000000E+04;  0.0000000E+00;  4.0000000E+04;  3.4152736E-06;  0.0000000E+00; -8.5234742E-06;  1.5023001E+02;
  1.1000000E-01;  9.9999998E-03;  4.4999999E-01;2179;  0.0000000E+00;  0.0000000E+00;  0.0000000E+00;  1.0000000E+03;  1.0000000E-01;  0.0000000E+00;0;  0.0000000E+00;  0.0000000E+00;  0.0000000E+00;0; -1.2602734E-06;  4.0000000E+04;  0.0000000E+00;  0.0000000E+00;  4.0000000E+04;  0.0000000E+00;  4.0000000E+04;  9.2933055E-07;  0.0000000E+00; -2.1896039E-06;  3.0840611E+01;
  1.2000000E-01;  9.9999998E-03;  4.1000000E-01;2205;  0.0000000E+00;  0.0000000E+00;  0.0000000E+00;  1.0002251E+03;  1.0000000E-01;  1.8646387E+02;0;  0.0000000E+00;  0.0000000E+00;  0.0000000E+00;0; -1.4042511E-04;  4.0000000E+04;  0.0000000E+00;  0.0000000E+00;  4.0000000E+04;  0.0000000E+00;  4.0000000E+04; -2.9346838E-05;  0.0000000E+00; -1.1107827E-04;  2.0334269E+03;
  1.2000000E-01;  9.9999998E-03;  4.1999999E-01;2206;  0.0000000E+00;  0.0000000E+00;  0.0000000E+00;  1.0001042E+03;  1.0000000E-01;  8.6318550E+01;0;  0.0000000E+00;  0.0000000E+00;  0.0000000E+00;0; -5.9632159E-05;  4.0000000E+04;  0.0000000E+00;  0.0000000E+00;  4.0000000E+04;  0.0000000E+00;  4.0000000E+04; -5.3853837E-06;  0.0000000E+00; -5.4246775E-05;  1.2257993E+03;
  1.2000000E-01;  9.9999998E-03;  4.3000001E-01;2207;  0.0000000E+00;  0.0000000E+00;  0.0000000E+00;  1.0000621E+03;  1.0000000E-01;  5.1455334E+01;0;  0.0000000E+00;  0.0000000E+00;  0.0000000E+00;0; -1.9992427E-05;  4.0000000E+04;  0.0000000E+00;  0.0000000E+00;  4.0000000E+04;  0.0000000E+00;  4.0000000E+04;  1.7486901E-06;  0.0000000E+00; -2.1741118E-05;  6.1188892E+02;
  1.2000000E-01;  9.9999998E-03;  4.4000000E-01;2208;  0.0000000E+00;  0.0000000E+00;  0.0000000E+00;  1.0000000E+03;  1.0000000E-01;  0.0000000E+00;0;  0.0000000E+00;  0.0000000E+00;  0.0000000E+00;0; -4.8141792E-06;  4.0000000E+04;  0.0000000E+00;  0.0000000E+00;  4.0000000E+04;  0.0000000E+00;  4.0000000E+04;  1.9246320E-06;  0.0000000E+00; -6.7388110E-06;  2.3110683E+02;
  1.2000000E-01;  9.9999998E-03;  4.4999999E-01;2209;  0.0000000E+00;  0.0000000E+00;  0.0000000E+00;  1.0000000E+03;  1.0000000E-01;  0.0000000E+00;0;  0.0000000E+00;  0.0000000E+00;  0.0000000E+00;0; -8.1821156E-07;  4.0000000E+04;  0.0000000E+00;  0.0000000E+00;  4.0000000E+04;  0.0000000E+00;  4.0000000E+04;  6.6442828E-07;  0.0000000E+00; -1.4826398E-06;  5.5173374E+01;
  1.3000000E-01;  9.9999998E-03;  4.1000000E-01;2235;  0.0000000E+00;  0.0000000E+00;  0.0000000E+00;  1.0002534E+03;  1.0000000E-01;  2.0987061E+02;0;  0.0000000E+00;  0.0000000E+00;  0.0000000E+00;0; -1.6799619E-04;  4.0000000E+04;  0.0000000E+00;  0.0000000E+00;  4.0000000E+04;  0.0000000E+00;  4.0000000E+04; -6.6177221E-05;  0.0000000E+00; -1.0181897E-04;  2.5805107E+03;
  1.3000000E-01;  9.9999998E-03;  4.1999999E-01;2236;  0.0000000E+00;  0.0000000E+00;  0.0000000E+00;  1.0001001E+03;  1.0000000E-01;  8.2960617E+01;0;  0.0000000E+00;  0.0000000E+00;  0.0000000E+00;0; -7.1606490E-05;  4.0000000E+04;  0.0000000E+00;  0.0000000E+00;  4.0000000E+04;  0.0000000E+00;  4.0000000E+04; -2.3779188E-05;  0.0000000E+00; -4.7827303E-05;  1.6650789E+03;
  1.3000000E-01;  9.9999998E-03;  4.3000001E-01;2237;  0.0000000E+00;  0.0000000E+00;  0.0000000E+00;  1.0000629E+03;  1.0000000E-01;  5.2146675E+01;0;  0.0000000E+00;  0.0000000E+00;  0.0000000E+00;0; -2.3672355E-05;  4.0000000E+04;  0.0000000E+00;  0.0000000E+00;  4.0000000E+04;  0.0000000E+00;  4.0000000E+04; -6.1244336E-06;  0.0000000E+00; -1.7547922E-05;  8.9297144E+02;
  1.3000000E-01;  9.9999998E-03;  4.4000000E-01;2238;  0.0000000E+00;  0.0000000E+00;  0.0000000E+00;  1.0000000E+03;  1.0000000E-01;  0.0000000E+00;0;  0.0000000E+00;  0.0000000E+00;  0.0000000E+00;0; -5.0948029E-06;  4.0000000E+04;  0.0000000E+00;  0.0000000E+00;  4.0000000E+04;  0.0000000E+00;  4.0000000E+04; -6.8615418E-07;  0.0000000E+00; -4.4086487E-06;  3.6486023E+02;
  1.3000000E-01;  9.9999998E-03;  4.4999999E-01;2239;  0.0000000E+00;  0.0000000E+00;  0.0000000E+00;  1.0000000E+03;  1.0000000E-01;  0.0000000E+00;0;  0.0000000E+00;  0.0000000E+00;  0.0000000E+00;0; -4.4114299E-07;  4.0000000E+04;  0.0000000E+00;  0.0000000E+00;  4.0000000E+04;  0.0000000E+00;  4.0000000E+04;  1.3793155E-07;  0.0000000E+00; -5.7907454E-07;  9.5507355E+01;
  1.4000000E-01;  9.9999998E-03;  4.1000000E-01;2265;  0.0000000E+00;  0.0000000E+00;  0.0000000E+00;  1.0002935E+03;  1.0000000E-01;  2.4315361E+02;0;  0.0000000E+00;  0.0000000E+00;  0.0000000E+00;0; -2.0500520E-04;  4.0000000E+04;  0.0000000E+00;  0.0000000E+00;  4.0000000E+04;  0.0000000E+00;  4.0000000E+04; -1.1456107E-04;  0.0000000E+00; -9.0444133E-05;  3.5167004E+03;
  1.4000000E-01;  9.9999998E-03;  4.1999999E-01;2266;  0.0000000E+00;  0.0000000E+00;  0.0000000E+00;  1.0001072E+03;  1.0000000E-01;  8.8886375E+01;0;  0.0000000E+00;  0.0000000E+00;  0.0000000E+00;0; -8.8588655E-05;  4.0000000E+04;  0.0000000E+00;  0.0000000E+00;  4.0000000E+04;  0.0000000E+00;  4.0000000E+04; -4.8327249E-05;  0.0000000E+00; -4.0261406E-05;  2.4578484E+03;
  1.4000000E-01;  9.9999998E-03;  4.3000001E-01;2267;  0.0000000E+00;  0.0000000E+00;  0.0000000E+00;  1.0000658E+03;  1.0000000E-01;  5.4516975E+01;0;  0.0000000E+00;  0.0000000E+00;  0.0000000E+00;0; -2.9770214E-05;  4.0000000E+04;  0.0000000E+00;  0.0000000E+00;  4.0000000E+04;  0.0000000E+00;  4.0000000E+04; -1.6862396E-05;  0.0000000E+00; -1.2907818E-05;  1.4093137E+03;
  1.4000000E-01;  9.9999998E-03;  4.4000000E-01;2268;  0.0000000E+00;  0.0000000E+00;  0.0000000E+00;  1.0000000E+03;  1.0000000E-01;  0.0000000E+00;0;  0.0000000E+00;  0.0000000E+00;  0.0000000E+00;0; -6.3775360E-06;  4.0000000E+04;  0.0000000E+00;  0.0000000E+00;  4.0000000E+04;  0.0000000E+00;  4.0000000E+04; -4.3673394E-06;  0.0000000E+00; -2.0101966E-06;  6.1027991E+02;
  1.4000000E-01;  9.9999998E-03;  4.4999999E-01;2269;  0.0000000E+00;  0.0000000E+00;  0.0000000E+00;  1.0000000E+03;  1.0000000E-01;  0.0000000E+00;0;  0.0000000E+00;  0.0000000E+00;  0.0000000E+00;0; -3.5708791E-07;  4.0000000E+04;  0.0000000E+00;  0.0000000E+00;  4.0000000E+04;  0.0000000E+00;  4.0000000E+04; -6.5090126E-07;  0.0000000E+00;  2.9381334E-07;  1.6803119E+02;
  1.5000001E-01;  9.9999998E-03;  4.1000000E-01;2295;  0.0000000E+00;  0.0000000E+00;  0.0000000E+00;  1.0003325E+03;  1.0000000E-01;  2.7544901E+02;0;  0.0000000E+00;  0.0000000E+00;  0.0000000E+00;0; -2.5263429E-04;  4.0000000E+04;  0.0000000E+00;  0.0000000E+00;  4.0000000E+04;  0.0000000E+00;  4.0000000E+04; -1.7286732E-04;  0.0000000E+00; -7.9766956E-05;  5.1890957E+03;
  1.5000001E-01;  9.9999998E-03;  4.1999999E-01;2296;  0.0000000E+00;  0.0000000E+00;  0.0000000E+00;  1.0001195E+03;  1.0000000E-01;  9.8960167E+01;0;  0.0000000E+00;  0.0000000E+00;  0.0000000E+00;0; -1.1139779E-04;  4.0000000E+04;  0.0000000E+00;  0.0000000E+00;  4.0000000E+04;  0.0000000E+00;  4.0000000E+04; -7.8115881E-05;  0.0000000E+00; -3.3281904E-05;  3.8729399E+03;
  1.5000001E-01;  9.9999998E-03;  4.3000001E-01;2297;  0.0000000E+00;  0.0000000E+00;  0.0000000E+00;  1.0000737E+03;  1.0000000E-01;  6.1035313E+01;0;  0.0000000E+00;  0.0000000E+00;  0.0000000E+00;0; -3.8762242E-05;  4.0000000E+04;  0.0000000E+00;  0.0000000E+00;  4.0000000E+04;  0.0000000E+00;  4.0000000E+04; -3.0002717E-05;  0.0000000E+00; -8.7595263E-06;  2.3291865E+03;
  1.5000001E-01;  9.9999998E-03;  4.4000000E-01;2298;  0.0000000E+00;  0.0000000E+00;  0.0000000E+00;  1.0000000E+03;  1.0000000E-01;  0.0000000E+00;0;  0.0000000E+00;  0.0000000E+00;  0.0000000E+00;0; -8.9170044E-06;  4.0000000E+04;  0.0000000E+00;  0.0000000E+00;  4.0000000E+04;  0.0000000E+00;  4.0000000E+04; -8.9292071E-06;  0.0000000E+00;  1.2202507E-08;  1.0470697E+03;
  1.5000001E-01;  9.9999998E-03;  4.4999999E-01;2299;  0.0000000E+00;  0.0000000E+00;  0.0000000E+00;  1.0000000E+03;  1.0000000E-01;  0.0000000E+00;0;  0.0000000E+00;  0.0000000E+00;  0.0000000E+00;0; -6.9607597E-07;  4.0000000E+04;  0.0000000E+00;  0.0000000E+00;  4.0000000E+04;  0.0000000E+00;  4.0000000E+04; -1.6549566E-06;  0.0000000E+00;  9.5888061E-07;  2.9665552E+02;
  1.6000000E-01;  9.9999998E-03;  4.1000000E-01;2325;  0.0000000E+00;  0.0000000E+00;  0.0000000E+00;  1.0003960E+03;  1.0000000E-01;  3.2808948E+02;0;  0.0000000E+00;  0.0000000E+00;  0.0000000E+00;0; -3.1124859E-04;  4.0000000E+04;  0.0000000E+00;  0.0000000E+00;  4.0000000E+04;  0.0000000E+00;  4.0000000E+04; -2.3769314E-04;  0.0000000E+00; -7.3555435E-05;  7.9254810E+03;
  1.6000000E-01;  9.9999998E-03;  4.1999999E-01;2326;  0.0000000E+00;  0.0000000E+00;  0.0000000E+00;  1.0001569E+03;  1.0000000E-01;  1.2997163E+02;0;  0.0000000E+00;  0.0000000E+00;  0.0000000E+00;0; -1.4049945E-04;  4.0000000E+04;  0.0000000E+00;  0.0000000E+00;  4.0000000E+04;  0.0000000E+00;  4.0000000E+04; -1.1136504E-04;  0.0000000E+00; -2.9134417E-05;  6.1734834E+03;
  1.6000000E-01;  9.9999998E-03;  4.3000001E-01;2327;  0.0000000E+00;  0.0000000E+00;  0.0000000E+00;  1.0000867E+03;  1.0000000E-01;  7.1800438E+01;0;  0.0000000E+00;  0.0000000E+00;  0.0000000E+00;0; -5.0903192E-05;  4.0000000E+04;  0.0000000E+00;  0.0000000E+00;  4.0000000E+04;  0.0000000E+00;  4.0000000E+04; -4.4707136E-05;  0.0000000E+00; -6.1960573E-06;  3.8334399E+03;
  1.6000000E-01;  9.9999998E-03;  4.4000000E-01;2328;  0.0000000E+00;  0.0000000E+00;  0.0000000E+00;  1.0000000E+03;  1.0000000E-01;  0.0000000E+00;0;  0.0000000E+00;  0.0000000E+00;  0.0000000E+00;0; -1.2778492E-05;  4.0000000E+04;  0.0000000E+00;  0.0000000E+00;  4.0000000E+04;  0.0000000E+00;  4.0000000E+04; -1.4036245E-05;  0.0000000E+00;  1.2577540E-06;  1.7701080E+03;
  1.6000000E-01;  9.9999998E-03;  4.4999999E-01;2329;  0.0000000E+00;  0.0000000E+00;  0.0000000E+00;  1.0000000E+03;  1.0000000E-01;  0.0000000E+00;0;  0.0000000E+00;  0.0000000E+00;  0.0000000E+00;0; -1.4708767E-06;  4.0000000E+04;  0.0000000E+00;  0.0000000E+00;  4.0000000E+04;  0.0000000E+00;  4.0000000E+04; -2.7835772E-06;  0.0000000E+00;  1.3127005E-06;  5.1315796E+02;
  1.7000000E-01;  9.9999998E-03;  4.1000000E-01;2355;  0.0000000E+00;  0.0000000E+00;  0.0000000E+00;  1.0004537E+03;  1.0000000E-01;  3.7589059E+02;0;  0.0000000E+00;  0.0000000E+00;  0.0000000E+00;0; -3.8027856E-04;  4.0000000E+04;  0.0000000E+00;  0.0000000E+00;  4.0000000E+04;  0.0000000E+00;  4.0000000E+04; -3.0351360E-04;  0.0000000E+00; -7.6764962E-05;  1.1924019E+04;
  1.7000000E-01;  9.9999998E-03;  4.1999999E-01;2356;  0.0000000E+00;  0.0000000E+00;  0.0000000E+00;  1.0002234E+03;  1.0000000E-01;  1.8508119E+02;0;  0.0000000E+00;  0.0000000E+00;  0.0000000E+00;0; -1.7610696E-04;  4.0000000E+04;  0.0000000E+00;  0.0000000E+00;  4.0000000E+04;  0.0000000E+00;  4.0000000E+04; -1.4531311E-04;  0.0000000E+00; -3.0793846E-05;  9.5630830E+03;
  1.7000000E-01;  9.9999998E-03;  4.3000001E-01;2357;  0.0000000E+00;  0.0000000E+00;  0.0000000E+00;  1.0000942E+03;  1.0000000E-01;  7.8022484E+01;0;  0.0000000E+00;  0.0000000E+00;  0.0000000E+00;0; -6.6388835E-05;  4.0000000E+04;  0.0000000E+00;  0.0000000E+00;  4.0000000E+04;  0.0000000E+00;  4.0000000E+04; -5.9752259E-05;  0.0000000E+00; -6.6365787E-06;  6.0937012E+03;
  1.7000000E-01;  9.9999998E-03;  4.4000000E-01;2358;  0.0000000E+00;  0.0000000E+00;  0.0000000E+00;  1.0000000E+03;  1.0000000E-01;  0.0000000E+00;0;  0.0000000E+00;  0.0000000E+00;  0.0000000E+00;0; -1.7957049E-05;  4.0000000E+04;  0.0000000E+00;  0.0000000E+00;  4.0000000E+04;  0.0000000E+00;  4.0000000E+04; -1.9227897E-05;  0.0000000E+00;  1.2708477E-06;  2.8838809E+03;
  1.7000000E-01;  9.9999998E-03;  4.4999999E-01;2359;  0.0000000E+00;  0.0000000E+00;  0.0000000E+00;  1.0000000E+03;  1.0000000E-01;  0.0000000E+00;0;  0.0000000E+00;  0.0000000E+00;  0.0000000E+00;0; -2.6158332E-06;  4.0000000E+04;  0.0000000E+00;  0.0000000E+00;  4.0000000E+04;  0.0000000E+00;  4.0000000E+04; -3.9106048E-06;  0.0000000E+00;  1.2947717E-06;  8.5660681E+02;
  1.8000001E-01;  9.9999998E-03;  4.1000000E-01;2385;  0.0000000E+00;  0.0000000E+00;  0.0000000E+00;  1.0005216E+03;  1.0000000E-01;  4.3218530E+02;0;  0.0000000E+00;  0.0000000E+00;  0.0000000E+00;0; -4.5960891E-04;  4.0000000E+04;  0.0000000E+00;  0.0000000E+00;  4.0000000E+04;  0.0000000E+00;  4.0000000E+04; -3.6350286E-04;  0.0000000E+00; -9.6106065E-05;  1.7163936E+04;
  1.8000001E-01;  9.9999998E-03;  4.1999999E-01;2386;  0.0000000E+00;  0.0000000E+00;  0.0000000E+00;  1.0002701E+03;  1.0000000E-01;  2.2379614E+02;0;  0.0000000E+00;  0.0000000E+00;  0.0000000E+00;0; -2.1907872E-04;  4.0000000E+04;  0.0000000E+00;  0.0000000E+00;  4.0000000E+04;  0.0000000E+00;  4.0000000E+04; -1.7657487E-04;  0.0000000E+00; -4.2503842E-05;  1.4106309E+04;
  1.8000001E-01;  9.9999998E-03;  4.3000001E-01;2387;  0.0000000E+00;  0.0000000E+00;  0.0000000E+00;  1.0000949E+03;  1.0000000E-01;  7.8615059E+01;0;  0.0000000E+00;  0.0000000E+00;  0.0000000E+00;0; -8.5937594E-05;  4.0000000E+04;  0.0000000E+00;  0.0000000E+00;  4.0000000E+04;  0.0000000E+00;  4.0000000E+04; -7.3706193E-05;  0.0000000E+00; -1.2231400E-05;  9.2198408E+03;
  1.8000001E-01;  9.9999998E-03;  4.4000000E-01;2388;  0.0000000E+00;  0.0000000E+00;  0.0000000E+00;  1.0000000E+03;  1.0000000E-01;  0.0000000E+00;0;  0.0000000E+00;  0.0000000E+00;  0.0000000E+00;0; -2.4685552E-05;  4.0000000E+04;  0.0000000E+00;  0.0000000E+00;  4.0000000E+04;  0.0000000E+00;  4.0000000E+04; -2.3996783E-05;  0.0000000E+00; -6.8876926E-07;  4.4788672E+03;
  1.8000001E-01;  9.9999998E-03;  4.4999999E-01;2389;  0.0000000E+00;  0.0000000E+00;  0.0000000E+00;  1.0000000E+03;  1.0000000E-01;  0.0000000E+00;0;  0.0000000E+00;  0.0000000E+00;  0.0000000E+00;0; -4.0918803E-06;  4.0000000E+04;  0.0000000E+00;  0.0000000E+00;  4.0000000E+04;  0.0000000E+00;  4.0000000E+04; -4.8992106E-06;  0.0000000E+00;  8.0733042E-07;  1.3667280E+03;
  1.9000000E-01;  9.9999998E-03;  4.1000000E-01;2415;  0.0000000E+00;  0.0000000E+00;  0.0000000E+00;  1.0005739E+03;  1.0000000E-01;  4.7544333E+02;0;  0.0000000E+00;  0.0000000E+00;  0.0000000E+00;0; -5.5320945E-04;  4.0000000E+04;  0.0000000E+00;  0.0000000E+00;  4.0000000E+04;  0.0000000E+00;  4.0000000E+04; -4.1219199E-04;  0.0000000E+00; -1.4101747E-04;  2.3353979E+04;
  1.9000000E-01;  9.9999998E-03;  4.1999999E-01;2416;  0.0000000E+00;  0.0000000E+00;  0.0000000E+00;  1.0003128E+03;  1.0000000E-01;  2.5915317E+02;0;  0.0000000E+00;  0.0000000E+00;  0.0000000E+00;0; -2.7304696E-04;  4.0000000E+04;  0.0000000E+00;  0.0000000E+00;  4.0000000E+04;  0.0000000E+00;  4.0000000E+04; -2.0237002E-04;  0.0000000E+00; -7.0676950E-05;  1.9650023E+04;
  1.9000000E-01;  9.9999998E-03;  4.3000001E-01;2417;  0.0000000E+00;  0.0000000E+00;  0.0000000E+00;  1.0001091E+03;  1.0000000E-01;  9.0367813E+01;0;  0.0000000E+00;  0.0000000E+00;  0.0000000E+00;0; -1.1195760E-04;  4.0000000E+04;  0.0000000E+00;  0.0000000E+00;  4.0000000E+04;  0.0000000E+00;  4.0000000E+04; -8.5401480E-05;  0.0000000E+00; -2.6556118E-05;  1.3189747E+04;
  1.9000000E-01;  9.9999998E-03;  4.4000000E-01;2418;  0.0000000E+00;  0.0000000E+00;  0.0000000E+00;  1.0000082E+03;  1.0000000E-01;  6.8146219E+00;0;  0.0000000E+00;  0.0000000E+00;  0.0000000E+00;0; -3.3996912E-05;  4.0000000E+04;  0.0000000E+00;  0.0000000E+00;  4.0000000E+04;  0.0000000E+00;  4.0000000E+04; -2.7961398E-05;  0.0000000E+00; -6.0355142E-06;  6.5901299E+03;
  1.9000000E-01;  9.9999998E-03;  4.4999999E-01;2419;  0.0000000E+00;  0.0000000E+00;  0.0000000E+00;  1.0000000E+03;  1.0000000E-01;  0.0000000E+00;0;  0.0000000E+00;  0.0000000E+00;  0.0000000E+00;0; -6.0719353E-06;  4.0000000E+04;  0.0000000E+00;  0.0000000E+00;  4.0000000E+04;  0.0000000E+00;  4.0000000E+04; -5.6503404E-06;  0.0000000E+00; -4.2159505E-07;  2.0685754E+03;
  2.0000000E-01;  9.9999998E-03;  4.1000000E-01;2444;  0.0000000E+00;  0.0000000E+00;  0.0000000E+00;  1.0006116E+03;  1.0000000E-01;  5.0665234E+02;0;  0.0000000E+00;  0.0000000E+00;  0.0000000E+00;0; -6.7387492E-04;  4.0000000E+04;  0.0000000E+00;  0.0000000E+00;  4.0000000E+04;  0.0000000E+00;  4.0000000E+04; -4.4885103E-04;  0.0000000E+00; -2.2502388E-04;  3.0031525E+04;
  2.0000000E-01;  9.9999998E-03;  4.1999999E-01;2445;  0.0000000E+00;  0.0000000E+00;  0.0000000E+00;  1.0003312E+03;  1.0000000E-01;  2.7436261E+02;0;  0.0000000E+00;  0.0000000E+00;  0.0000000E+00;0; -3.4733411E-04;  4.0000000E+04;  0.0000000E+00;  0.0000000E+00;  4.0000000E+04;  0.0000000E+00;  4.0000000E+04; -2.2222498E-04;  0.0000000E+00; -1.2510913E-04;  2.5862012E+04;
  2.0000000E-01;  9.9999998E-03;  4.3000001E-01;2446;  0.0000000E+00;  0.0000000E+00;  0.0000000E+00;  1.0001221E+03;  1.0000000E-01;  1.0123170E+02;0;  0.0000000E+00;  0.0000000E+00;  0.0000000E+00;0; -1.5020692E-04;  4.0000000E+04;  0.0000000E+00;  0.0000000E+00;  4.0000000E+04;  0.0000000E+00;  4.0000000E+04; -9.4633499E-05;  0.0000000E+00; -5.5573419E-05;  1.7837459E+04;
  2.0000000E-01;  9.9999998E-03;  4.4000000E-01;2447;  0.0000000E+00;  0.0000000E+00;  0.0000000E+00;  1.0000304E+03;  1.0000000E-01;  2.5184473E+01;0;  0.0000000E+00;  0.0000000E+00;  0.0000000E+00;0; -4.8538743E-05;  4.0000000E+04;  0.0000000E+00;  0.0000000E+00;  4.0000000E+04;  0.0000000E+00;  4.0000000E+04; -3.1098436E-05;  0.0000000E+00; -1.7440309E-05;  9.1719346E+03;
 -2.0000000E-01;  9.9999998E-03; -4.4000000E-01;0;  0.0000000E+00;  0.0000000E+00;  0.0000000E+00;  1.0000000E+03;  1.0000000E-01;  0.0000000E+00;0;  0.0000000E+00;  0.0000000E+00;  0.0000000E+00;0;  0.0000000E+00;  4.0000000E+04;  0.0000000E+00;  0.0000000E+00;  4.0000000E+04;  0.0000000E+00;  4.0000000E+04;  0.0000000E+00;  0.0000000E+00;  0.0000000E+00;  0.0000000E+00;
 -2.0000000E-01;  9.9999998E-03; -4.3000001E-01;1;  0.0000000E+00;  0.0000000E+00;  0.0000000E+00;  1.0000000E+03;  1.0000000E-01;  0.0000000E+00;0;  0.0000000E+00;  0.0000000E+00;  0.0000000E+00;0;  0.0000000E+00;  4.0000000E+04;  0.0000000E+00;  0.0000000E+00;  4.0000000E+04;  0.0000000E+00;  4.0000000E+04;  0.0000000E+00;  0.0000000E+00;  0.0000000E+00;  0.0000000E+00;
 -2.0000000E-01;  9.9999998E-03; -4.1999999E-01;2;  0.0000000E+00;  0.0000000E+00;  0.0000000E+00;  1.0000000E+03;  1.0000000E-01;  0.0000000E+00;0;  0.0000000E+00;  0.0000000E+00;  0.0000000E+00;0;  0.0000000E+00;  4.0000000E+04;  0.0000000E+00;  0.0000000E+00;  4.0000000E+04;  0.0000000E+00;  4.0000000E+04;  0.0000000E+00;  0.0000000E+00;  0.0000000E+00;  0.0000000E+00;
 -2.0000000E-01;  9.9999998E-03; -4.1000000E-01;3;  0.0000000E+00;  0.0000000E+00;  0.0000000E+00;  1.0000000E+03;  1.0000000E-01;  0.0000000E+00;0;  0.0000000E+00;  0.0000000E+00;  0.0000000E+00;0;  0.0000000E+00;  4.0000000E+04;  0.0000000E+00;  0.0000000E+00;  4.0000000E+04;  0.0000000E+00;  4.0000000E+04;  0.0000000E+00;  0.0000000E+00;  0.0000000E+00;  0.0000000E+00;
 -2.0000000E-01;  9.9999998E-03; -4.0000001E-01;4;  0.0000000E+00;  0.0000000E+00;  0.0000000E+00;  1.0000000E+03;  1.0000000E-01;  0.0000000E+00;0;  0.0000000E+00;  0.0000000E+00;  0.0000000E+00;0;  0.0000000E+00;  4.0000000E+04;  0.0000000E+00;  0.0000000E+00;  4.0000000E+04;  0.0000000E+00;  4.0000000E+04;  0.0000000E+00;  0.0000000E+00;  0.0000000E+00;  0.0000000E+00;
 -2.0000000E-01;  9.9999998E-03; -3.8999999E-01;5;  0.0000000E+00;  0.0000000E+00;  0.0000000E+00;  1.0000000E+03;  1.0000000E-01;  0.0000000E+00;0;  0.0000000E+00;  0.0000000E+00;  0.0000000E+00;0;  0.0000000E+00;  4.0000000E+04;  0.0000000E+00;  0.0000000E+00;  4.0000000E+04;  0.0000000E+00;  4.0000000E+04;  0.0000000E+00;  0.0000000E+00;  0.0000000E+00;  0.0000000E+00;
 -2.0000000E-01;  9.9999998E-03; -3.8000000E-01;6;  0.0000000E+00;  0.0000000E+00;  0.0000000E+00;  1.0000000E+03;  1.0000000E-01;  0.0000000E+00;0;  0.0000000E+00;  0.0000000E+00;  0.0000000E+00;0;  0.0000000E+00;  4.0000000E+04;  0.0000000E+00;  0.0000000E+00;  4.0000000E+04;  0.0000000E+00;  4.0000000E+04;  0.0000000E+00;  0.0000000E+00;  0.0000000E+00;  0.0000000E+00;
 -2.0000000E-01;  9.9999998E-03; -3.7000000E-01;7;  0.0000000E+00;  0.0000000E+00;  0.0000000E+00;  1.0000000E+03;  1.0000000E-01;  0.0000000E+00;0;  0.0000000E+00;  0.0000000E+00;  0.0000000E+00;0;  0.0000000E+00;  4.0000000E+04;  0.0000000E+00;  0.0000000E+00;  4.0000000E+04;  0.0000000E+00;  4.0000000E+04;  0.0000000E+00;  0.0000000E+00;  0.0000000E+00;  0.0000000E+00;
 -2.0000000E-01;  9.9999998E-03; -3.6000001E-01;8;  0.0000000E+00;  0.0000000E+00;  0.0000000E+00;  1.0000000E+03;  1.0000000E-01;  0.0000000E+00;0;  0.0000000E+00;  0.0000000E+00;  0.0000000E+00;0;  0.0000000E+00;  4.0000000E+04;  0.0000000E+00;  0.0000000E+00;  4.0000000E+04;  0.0000000E+00;  4.0000000E+04;  0.0000000E+00;  0.0000000E+00;  0.0000000E+00;  0.0000000E+00;
 -2.0000000E-01;  9.9999998E-03; -3.4999999E-01;9;  0.0000000E+00;  0.0000000E+00;  0.0000000E+00;  1.0000000E+03;  1.0000000E-01;  0.0000000E+00;0;  0.0000000E+00;  0.0000000E+00;  0.0000000E+00;0;  0.0000000E+00;  4.0000000E+04;  0.0000000E+00;  0.0000000E+00;  4.0000000E+04;  0.0000000E+00;  4.0000000E+04;  0.0000000E+00;  0.0000000E+00;  0.0000000E+00;  0.0000000E+00;
 -2.0000000E-01;  9.9999998E-03; -3.4000000E-01;10;  0.0000000E+00;  0.0000000E+00;  0.0000000E+00;  1.0000000E+03;  1.0000000E-01;  0.0000000E+00;0;  0.0000000E+00;  0.0000000E+00;  0.0000000E+00;0;  0.0000000E+00;  4.0000000E+04;  0.0000000E+00;  0.0000000E+00;  4.0000000E+04;  0.0000000E+00;  4.0000000E+04;  0.0000000E+00;  0.0000000E+00;  0.0000000E+00;  0.0000000E+00;
 -2.0000000E-01;  9.9999998E-03; -3.3000001E-01;11;  0.0000000E+00;  0.0000000E+00;  0.0000000E+00;  1.0000000E+03;  1.0000000E-01;  0.0000000E+00;0;  0.0000000E+00;  0.0000000E+00;  0.0000000E+00;0;  0.0000000E+00;  4.0000000E+04;  0.0000000E+00;  0.0000000E+00;  4.0000000E+04;  0.0000000E+00;  4.0000000E+04;  0.0000000E+00;  0.0000000E+00;  0.0000000E+00;  0.0000000E+00;
 -2.0000000E-01;  9.9999998E-03; -3.1999999E-01;12;  0.0000000E+00;  0.0000000E+00;  0.0000000E+00;  1.0000000E+03;  1.0000000E-01;  0.0000000E+00;0;  0.0000000E+00;  0.0000000E+00;  0.0000000E+00;0;  0.0000000E+00;  4.0000000E+04;  0.0000000E+00;  0.0000000E+00;  4.0000000E+04;  0.0000000E+00;  4.0000000E+04;  0.0000000E+00;  0.0000000E+00;  0.0000000E+00;  0.0000000E+00;
 -2.0000000E-01;  9.9999998E-03; -3.1000000E-01;13;  0.0000000E+00;  0.0000000E+00;  0.0000000E+00;  1.0000000E+03;  1.0000000E-01;  0.0000000E+00;0;  0.0000000E+00;  0.0000000E+00;  0.0000000E+00;0;  0.0000000E+00;  4.0000000E+04;  0.0000000E+00;  0.0000000E+00;  4.0000000E+04;  0.0000000E+00;  4.0000000E+04;  0.0000000E+00;  0.0000000E+00;  0.0000000E+00;  0.0000000E+00;
 -2.0000000E-01;  9.9999998E-03; -3.0000001E-01;14;  0.0000000E+00;  0.0000000E+00;  0.0000000E+00;  1.0000000E+03;  1.0000000E-01;  0.0000000E+00;0;  0.0000000E+00;  0.0000000E+00;  0.0000000E+00;0;  0.0000000E+00;  4.0000000E+04;  0.0000000E+00;  0.0000000E+00;  4.0000000E+04;  0.0000000E+00;  4.0000000E+04;  0.0000000E+00;  0.0000000E+00;  0.0000000E+00;  0.0000000E+00;
 -2.0000000E-01;  9.9999998E-03; -2.8999999E-01;15;  0.0000000E+00;  0.0000000E+00;  0.0000000E+00;  1.0000000E+03;  1.0000000E-01;  0.0000000E+00;0;  0.0000000E+00;  0.0000000E+00;  0.0000000E+00;0;  0.0000000E+00;  4.0000000E+04;  0.0000000E+00;  0.0000000E+00;  4.0000000E+04;  0.0000000E+00;  4.0000000E+04;  0.0000000E+00;  0.0000000E+00;  0.0000000E+00;  0.0000000E+00;
 -2.0000000E-01;  9.9999998E-03; -2.8000000E-01;16;  0.0000000E+00;  0.0000000E+00;  0.0000000E+00;  1.0000000E+03;  1.0000000E-01;  0.0000000E+00;0;  0.0000000E+00;  0.0000000E+00;  0.0000000E+00;0;  0.0000000E+00;  4.0000000E+04;  0.0000000E+00;  0.0000000E+00;  4.0000000E+04;  0.0000000E+00;  4.0000000E+04;  0.0000000E+00;  0.0000000E+00;  0.0000000E+00;  0.0000000E+00;
 -2.0000000E-01;  9.9999998E-03; -2.7000001E-01;17;  0.0000000E+00;  0.0000000E+00;  0.0000000E+00;  1.0000000E+03;  1.0000000E-01;  0.0000000E+00;0;  0.0000000E+00;  0.0000000E+00;  0.0000000E+00;0;  0.0000000E+00;  4.0000000E+04;  0.0000000E+00;  0.0000000E+00;  4.0000000E+04;  0.0000000E+00;  4.0000000E+04;  0.0000000E+00;  0.0000000E+00;  0.0000000E+00;  0.0000000E+00;
 -2.0000000E-01;  9.9999998E-03; -2.5999999E-01;18;  0.0000000E+00;  0.0000000E+00;  0.0000000E+00;  1.0000000E+03;  1.0000000E-01;  0.0000000E+00;0;  0.0000000E+00;  0.0000000E+00;  0.0000000E+00;0;  0.0000000E+00;  4.0000000E+04;  0.0000000E+00;  0.0000000E+00;  4.0000000E+04;  0.0000000E+00;  4.0000000E+04;  0.0000000E+00;  0.0000000E+00;  0.0000000E+00;  0.0000000E+00;
 -2.0000000E-01;  9.9999998E-03; -2.5000000E-01;19;  0.0000000E+00;  0.0000000E+00;  0.0000000E+00;  1.0000000E+03;  1.0000000E-01;  0.0000000E+00;0;  0.0000000E+00;  0.0000000E+00;  0.0000000E+00;0;  0.0000000E+00;  4.0000000E+04;  0.0000000E+00;  0.0000000E+00;  4.0000000E+04;  0.0000000E+00;  4.0000000E+04;  0.0000000E+00;  0.0000000E+00;  0.0000000E+00;  0.0000000E+00;
 -2.0000000E-01;  9.9999998E-03; -2.3999999E-01;20;  0.0000000E+00;  0.0000000E+00;  0.0000000E+00;  1.0000000E+03;  1.0000000E-01;  0.0000000E+00;0;  0.0000000E+00;  0.0000000E+00;  0.0000000E+00;0;  0.0000000E+00;  4.0000000E+04;  0.0000000E+00;  0.0000000E+00;  4.0000000E+04;  0.0000000E+00;  4.0000000E+04;  0.0000000E+00;  0.0000000E+00;  0.0000000E+00;  0.0000000E+00;
 -2.0000000E-01;  9.9999998E-03; -2.3000000E-01;21;  0.0000000E+00;  0.0000000E+00;  0.0000000E+00;  1.0000000E+03;  1.0000000E-01;  0.0000000E+00;0;  0.0000000E+00;  0.0000000E+00;  0.0000000E+00;0;  0.0000000E+00;  4.0000000E+04;  0.0000000E+00;  0.0000000E+00;  4.0000000E+04;  0.0000000E+00;  4.0000000E+04;  0.0000000E+00;  0.0000000E+00;  0.0000000E+00;  0.0000000E+00;
 -2.0000000E-01;  9.9999998E-03; -2.2000000E-01;22;  0.0000000E+00;  0.0000000E+00;  0.0000000E+00;  1.0000000E+03;  1.0000000E-01;  0.0000000E+00;0;  0.0000000E+00;  0.0000000E+00;  0.0000000E+00;0;  0.0000000E+00;  4.0000000E+04;  0.0000000E+00;  0.0000000E+00;  4.0000000E+04;  0.0000000E+00;  4.0000000E+04;  0.0000000E+00;  0.0000000E+00;  0.0000000E+00;  0.0000000E+00;
 -2.0000000E-01;  9.9999998E-03; -2.0999999E-01;23;  0.0000000E+00;  0.0000000E+00;  0.0000000E+00;  1.0000000E+03;  1.0000000E-01;  0.0000000E+00;0;  0.0000000E+00;  0.0000000E+00;  0.0000000E+00;0;  0.0000000E+00;  4.0000000E+04;  0.0000000E+00;  0.0000000E+00;  4.0000000E+04;  0.0000000E+00;  4.0000000E+04;  0.0000000E+00;  0.0000000E+00;  0.0000000E+00;  0.0000000E+00;
 -2.0000000E-01;  9.9999998E-03; -2.0000000E-01;24;  0.0000000E+00;  0.0000000E+00;  0.0000000E+00;  1.0000000E+03;  1.0000000E-01;  0.0000000E+00;0;  0.0000000E+00;  0.0000000E+00;  0.0000000E+00;0;  0.0000000E+00;  4.0000000E+04;  0.0000000E+00;  0.0000000E+00;  4.0000000E+04;  0.0000000E+00;  4.0000000E+04;  0.0000000E+00;  0.0000000E+00;  0.0000000E+00;  0.0000000E+00;
 -2.0000000E-01;  9.9999998E-03; -1.9000000E-01;25;  0.0000000E+00;  0.0000000E+00;  0.0000000E+00;  1.0000000E+03;  1.0000000E-01;  0.0000000E+00;0;  0.0000000E+00;  0.0000000E+00;  0.0000000E+00;0;  0.0000000E+00;  4.0000000E+04;  0.0000000E+00;  0.0000000E+00;  4.0000000E+04;  0.0000000E+00;  4.0000000E+04;  0.0000000E+00;  0.0000000E+00;  0.0000000E+00;  0.0000000E+00;
 -2.0000000E-01;  9.9999998E-03; -1.8000001E-01;26;  0.0000000E+00;  0.0000000E+00;  0.0000000E+00;  1.0000000E+03;  1.0000000E-01;  0.0000000E+00;0;  0.0000000E+00;  0.0000000E+00;  0.0000000E+00;0;  0.0000000E+00;  4.0000000E+04;  0.0000000E+00;  0.0000000E+00;  4.0000000E+04;  0.0000000E+00;  4.0000000E+04;  0.0000000E+00;  0.0000000E+00;  0.0000000E+00;  0.0000000E+00;
 -2.0000000E-01;  9.9999998E-03; -1.7000000E-01;27;  0.0000000E+00;  0.0000000E+00;  0.0000000E+00;  1.0000000E+03;  1.0000000E-01;  0.0000000E+00;0;  0.0000000E+00;  0.0000000E+00;  0.0000000E+00;0;  0.0000000E+00;  4.0000000E+04;  0.0000000E+00;  0.0000000E+00;  4.0000000E+04;  0.0000000E+00;  4.0000000E+04;  0.0000000E+00;  0.0000000E+00;  0.0000000E+00;  0.0000000E+00;
 -2.0000000E-01;  9.9999998E-03; -1.6000000E-01;28;  0.0000000E+00;  0.0000000E+00;  0.0000000E+00;  1.0000000E+03;  1.0000000E-01;  0.0000000E+00;0;  0.0000000E+00;  0.0000000E+00;  0.0000000E+00;0;  0.0000000E+00;  4.0000000E+04;  0.0000000E+00;  0.0000000E+00;  4.0000000E+04;  0.0000000E+00;  4.0000000E+04;  0.0000000E+00;  0.0000000E+00;  0.0000000E+00;  0.0000000E+00;
 -2.0000000E-01;  9.9999998E-03; -1.5000001E-01;29;  0.0000000E+00;  0.0000000E+00;  0.0000000E+00;  1.0000000E+03;  1.0000000E-01;  0.0000000E+00;0;  0.0000000E+00;  0.0000000E+00;  0.0000000E+00;0;  0.0000000E+00;  4.0000000E+04;  0.0000000E+00;  0.0000000E+00;  4.0000000E+04;  0.0000000E+00;  4.0000000E+04;  0.0000000E+00;  0.0000000E+00;  0.0000000E+00;  0.0000000E+00;
 -2.0000000E-01;  9.9999998E-03; -1.4000000E-01;30;  0.0000000E+00;  0.0000000E+00;  0.0000000E+00;  1.0000000E+03;  1.0000000E-01;  0.0000000E+00;0;  0.0000000E+00;  0.0000000E+00;  0.0000000E+00;0;  0.0000000E+00;  4.0000000E+04;  0.0000000E+00;  0.0000000E+00;  4.0000000E+04;  0.0000000E+00;  4.0000000E+04;  0.0000000E+00;  0.0000000E+00;  0.0000000E+00;  0.0000000E+00;
 -2.0000000E-01;  9.9999998E-03; -1.3000000E-01;31;  0.0000000E+00;  0.0000000E+00;  0.0000000E+00;  1.0000000E+03;  1.0000000E-01;  0.0000000E+00;0;  0.0000000E+00;  0.0000000E+00;  0.0000000E+00;0;  0.0000000E+00;  4.0000000E+04;  0.0000000E+00;  0.0000000E+00;  4.0000000E+04;  0.0000000E+00;  4.0000000E+04;  0.0000000E+00;  0.0000000E+00;  0.0000000E+00;  0.0000000E+00;
 -2.0000000E-01;  9.9999998E-03; -1.2000000E-01;32;  0.0000000E+00;  0.0000000E+00;  0.0000000E+00;  1.0000000E+03;  1.0000000E-01;  0.0000000E+00;0;  0.0000000E+00;  0.0000000E+00;  0.0000000E+00;0;  0.0000000E+00;  4.0000000E+04;  0.0000000E+00;  0.0000000E+00;  4.0000000E+04;  0.0000000E+00;  4.0000000E+04;  0.0000000E+00;  0.0000000E+00;  0.0000000E+00;  0.0000000E+00;
 -2.0000000E-01;  9.9999998E-03; -1.1000000E-01;33;  0.0000000E+00;  0.0000000E+00;  0.0000000E+00;  1.0000000E+03;  1.0000000E-01;  0.0000000E+00;0;  0.0000000E+00;  0.0000000E+00;  0.0000000E+00;0;  0.0000000E+00;  4.0000000E+04;  0.0000000E+00;  0.0000000E+00;  4.0000000E+04;  0.0000000E+00;  4.0000000E+04;  0.0000000E+00;  0.0000000E+00;  0.0000000E+00;  0.0000000E+00;
 -2.0000000E-01;  9.9999998E-03; -1.0000000E-01;34;  0.0000000E+00;  0.0000000E+00;  0.0000000E+00;  1.0000000E+03;  1.0000000E-01;  0.0000000E+00;0;  0.0000000E+00;  0.0000000E+00;  0.0000000E+00;0;  0.0000000E+00;  4.0000000E+04;  0.0000000E+00;  0.0000000E+00;  4.0000000E+04;  0.0000000E+00;  4.0000000E+04;  0.0000000E+00;  0.0000000E+00;  0.0000000E+00;  0.0000000E+00;
 -2.0000000E-01;  9.9999998E-03; -9.0000004E-02;35;  0.0000000E+00;  0.0000000E+00;  0.0000000E+00;  1.0000000E+03;  1.0000000E-01;  0.0000000E+00;0;  0.0000000E+00;  0.0000000E+00;  0.0000000E+00;0;  0.0000000E+00;  4.0000000E+04;  0.0000000E+00;  0.0000000E+00;  4.0000000E+04;  0.0000000E+00;  4.0000000E+04;  0.0000000E+00;  0.0000000E+00;  0.0000000E+00;  0.0000000E+00;
 -2.0000000E-01;  9.9999998E-03; -7.9999998E-02;36;  0.0000000E+00;  0.0000000E+00;  0.0000000E+00;  1.0000000E+03;  1.0000000E-01;  0.0000000E+00;0;  0.0000000E+00;  0.0000000E+00;  0.0000000E+00;0;  0.0000000E+00;  4.0000000E+04;  0.0000000E+00;  0.0000000E+00;  4.0000000E+04;  0.0000000E+00;  4.0000000E+04;  0.0000000E+00;  0.0000000E+00;  0.0000000E+00;  0.0000000E+00;
 -2.0000000E-01;  9.9999998E-03; -7.0000000E-02;37;  0.0000000E+00;  0.0000000E+00;  0.0000000E+00;  1.0000000E+03;  1.0000000E-01;  0.0000000E+00;0;  0.0000000E+00;  0.0000000E+00;  0.0000000E+00;0;  0.0000000E+00;  4.0000000E+04;  0.0000000E+00;  0.0000000E+00;  4.0000000E+04;  0.0000000E+00;  4.0000000E+04;  0.0000000E+00;  0.0000000E+00;  0.0000000E+00;  0.0000000E+00;
 -2.0000000E-01;  9.9999998E-03; -5.9999999E-02;38;  0.0000000E+00;  0.0000000E+00;  0.0000000E+00;  1.0000000E+03;  1.0000000E-01;  0.0000000E+00;0;  0.0000000E+00;  0.0000000E+00;  0.0000000E+00;0;  0.0000000E+00;  4.0000000E+04;  0.0000000E+00;  0.0000000E+00;  4.0000000E+04;  0.0000000E+00;  4.0000000E+04;  0.0000000E+00;  0.0000000E+00;  0.0000000E+00;  0.0000000E+00;
 -2.0000000E-01;  9.9999998E-03; -5.0000001E-02;39;  0.0000000E+00;  0.0000000E+00;  0.0000000E+00;  1.0000000E+03;  1.0000000E-01;  0.0000000E+00;0;  0.0000000E+00;  0.0000000E+00;  0.0000000E+00;0;  0.0000000E+00;  4.0000000E+04;  0.0000000E+00;  0.0000000E+00;  4.0000000E+04;  0.0000000E+00;  4.0000000E+04;  0.0000000E+00;  0.0000000E+00;  0.0000000E+00;  0.0000000E+00;
 -2.0000000E-01;  9.9999998E-03; -3.9999999E-02;40;  0.0000000E+00;  0.0000000E+00;  0.0000000E+00;  1.0000000E+03;  1.0000000E-01;  0.0000000E+00;0;  0.0000000E+00;  0.0000000E+00;  0.0000000E+00;0;  0.0000000E+00;  4.0000000E+04;  0.0000000E+00;  0.0000000E+00;  4.0000000E+04;  0.0000000E+00;  4.0000000E+04;  0.0000000E+00;  0.0000000E+00;  0.0000000E+00;  0.0000000E+00;
 -2.0000000E-01;  9.9999998E-03; -2.9999999E-02;41;  0.0000000E+00;  0.0000000E+00;  0.0000000E+00;  1.0000000E+03;  1.0000000E-01;  0.0000000E+00;0;  0.0000000E+00;  0.0000000E+00;  0.0000000E+00;0;  0.0000000E+00;  4.0000000E+04;  0.0000000E+00;  0.0000000E+00;  4.0000000E+04;  0.0000000E+00;  4.0000000E+04;  0.0000000E+00;  0.0000000E+00;  0.0000000E+00;  0.0000000E+00;
 -2.0000000E-01;  9.9999998E-03; -2.0000000E-02;42;  0.0000000E+00;  0.0000000E+00;  0.0000000E+00;  1.0000000E+03;  1.0000000E-01;  0.0000000E+00;0;  0.0000000E+00;  0.0000000E+00;  0.0000000E+00;0;  0.0000000E+00;  4.0000000E+04;  0.0000000E+00;  0.0000000E+00;  4.0000000E+04;  0.0000000E+00;  4.0000000E+04;  0.0000000E+00;  0.0000000E+00;  0.0000000E+00;  0.0000000E+00;
 -2.0000000E-01;  9.9999998E-03; -9.9999998E-03;43;  0.0000000E+00;  0.0000000E+00;  0.0000000E+00;  1.0000000E+03;  1.0000000E-01;  0.0000000E+00;0;  0.0000000E+00;  0.0000000E+00;  0.0000000E+00;0;  0.0000000E+00;  4.0000000E+04;  0.0000000E+00;  0.0000000E+00;  4.0000000E+04;  0.0000000E+00;  4.0000000E+04;  0.0000000E+00;  0.0000000E+00;  0.0000000E+00;  0.0000000E+00;
 -2.0000000E-01;  9.9999998E-03;  0.0000000E+00;44;  0.0000000E+00;  0.0000000E+00;  0.0000000E+00;  1.0000000E+03;  1.0000000E-01;  0.0000000E+00;0;  0.0000000E+00;  0.0000000E+00;  0.0000000E+00;0;  0.0000000E+00;  4.0000000E+04;  0.0000000E+00;  0.0000000E+00;  4.0000000E+04;  0.0000000E+00;  4.0000000E+04;  0.0000000E+00;  0.0000000E+00;  0.0000000E+00;  0.0000000E+00;
 -2.0000000E-01;  9.9999998E-03;  9.9999998E-03;45;  0.0000000E+00;  0.0000000E+00;  0.0000000E+00;  1.0000000E+03;  1.0000000E-01;  0.0000000E+00;0;  0.0000000E+00;  0.0000000E+00;  0.0000000E+00;0;  0.0000000E+00;  4.0000000E+04;  0.0000000E+00;  0.0000000E+00;  4.0000000E+04;  0.0000000E+00;  4.0000000E+04;  0.0000000E+00;  0.0000000E+00;  0.0000000E+00;  0.0000000E+00;
 -2.0000000E-01;  9.9999998E-03;  2.0000000E-02;46;  0.0000000E+00;  0.0000000E+00;  0.0000000E+00;  1.0000000E+03;  1.0000000E-01;  0.0000000E+00;0;  0.0000000E+00;  0.0000000E+00;  0.0000000E+00;0;  0.0000000E+00;  4.0000000E+04;  0.0000000E+00;  0.0000000E+00;  4.0000000E+04;  0.0000000E+00;  4.0000000E+04;  0.0000000E+00;  0.0000000E+00;  0.0000000E+00;  0.0000000E+00;
 -2.0000000E-01;  9.9999998E-03;  2.9999999E-02;47;  0.0000000E+00;  0.0000000E+00;  0.0000000E+00;  1.0000000E+03;  1.0000000E-01;  0.0000000E+00;0;  0.0000000E+00;  0.0000000E+00;  0.0000000E+00;0;  0.0000000E+00;  4.0000000E+04;  0.0000000E+00;  0.0000000E+00;  4.0000000E+04;  0.0000000E+00;  4.0000000E+04;  0.0000000E+00;  0.0000000E+00;  0.0000000E+00;  0.0000000E+00;
 -2.0000000E-01;  9.9999998E-03;  3.9999999E-02;48;  0.0000000E+00;  0.0000000E+00;  0.0000000E+00;  1.0000000E+03;  1.0000000E-01;  0.0000000E+00;0;  0.0000000E+00;  0.0000000E+00;  0.0000000E+00;0;  0.0000000E+00;  4.0000000E+04;  0.0000000E+00;  0.0000000E+00;  4.0000000E+04;  0.0000000E+00;  4.0000000E+04;  0.0000000E+00;  0.0000000E+00;  0.0000000E+00;  0.0000000E+00;
 -2.0000000E-01;  9.9999998E-03;  5.0000001E-02;49;  0.0000000E+00;  0.0000000E+00;  0.0000000E+00;  1.0000000E+03;  1.0000000E-01;  0.0000000E+00;0;  0.0000000E+00;  0.0000000E+00;  0.0000000E+00;0;  0.0000000E+00;  4.0000000E+04;  0.0000000E+00;  0.0000000E+00;  4.0000000E+04;  0.0000000E+00;  4.0000000E+04;  0.0000000E+00;  0.0000000E+00;  0.0000000E+00;  0.0000000E+00;
 -2.0000000E-01;  9.9999998E-03;  5.9999999E-02;50;  0.0000000E+00;  0.0000000E+00;  0.0000000E+00;  1.0000000E+03;  1.0000000E-01;  0.0000000E+00;0;  0.0000000E+00;  0.0000000E+00;  0.0000000E+00;0;  0.0000000E+00;  4.0000000E+04;  0.0000000E+00;  0.0000000E+00;  4.0000000E+04;  0.0000000E+00;  4.0000000E+04;  0.0000000E+00;  0.0000000E+00;  0.0000000E+00;  0.0000000E+00;
 -2.0000000E-01;  9.9999998E-03;  7.0000000E-02;51;  0.0000000E+00;  0.0000000E+00;  0.0000000E+00;  1.0000000E+03;  1.0000000E-01;  0.0000000E+00;0;  0.0000000E+00;  0.0000000E+00;  0.0000000E+00;0;  0.0000000E+00;  4.0000000E+04;  0.0000000E+00;  0.0000000E+00;  4.0000000E+04;  0.0000000E+00;  4.0000000E+04;  0.0000000E+00;  0.0000000E+00;  0.0000000E+00;  0.0000000E+00;
 -2.0000000E-01;  9.9999998E-03;  7.9999998E-02;52;  0.0000000E+00;  0.0000000E+00;  0.0000000E+00;  1.0000000E+03;  1.0000000E-01;  0.0000000E+00;0;  0.0000000E+00;  0.0000000E+00;  0.0000000E+00;0;  0.0000000E+00;  4.0000000E+04;  0.0000000E+00;  0.0000000E+00;  4.0000000E+04;  0.0000000E+00;  4.0000000E+04;  0.0000000E+00;  0.0000000E+00;  0.0000000E+00;  0.0000000E+00;
 -2.0000000E-01;  9.9999998E-03;  9.0000004E-02;53;  0.0000000E+00;  0.0000000E+00;  0.0000000E+00;  1.0000000E+03;  1.0000000E-01;  0.0000000E+00;0;  0.0000000E+00;  0.0000000E+00;  0.0000000E+00;0;  0.0000000E+00;  4.0000000E+04;  0.0000000E+00;  0.0000000E+00;  4.0000000E+04;  0.0000000E+00;  4.0000000E+04;  0.0000000E+00;  0.0000000E+00;  0.0000000E+00;  0.0000000E+00;
 -2.0000000E-01;  9.9999998E-03;  1.0000000E-01;54;  0.0000000E+00;  0.0000000E+00;  0.0000000E+00;  1.0000000E+03;  1.0000000E-01;  0.0000000E+00;0;  0.0000000E+00;  0.0000000E+00;  0.0000000E+00;0;  0.0000000E+00;  4.0000000E+04;  0.0000000E+00;  0.0000000E+00;  4.0000000E+04;  0.0000000E+00;  4.0000000E+04;  0.0000000E+00;  0.0000000E+00;  0.0000000E+00;  0.0000000E+00;
 -2.0000000E-01;  9.9999998E-03;  1.1000000E-01;55;  0.0000000E+00;  0.0000000E+00;  0.0000000E+00;  1.0000000E+03;  1.0000000E-01;  0.0000000E+00;0;  0.0000000E+00;  0.0000000E+00;  0.0000000E+00;0;  0.0000000E+00;  4.0000000E+04;  0.0000000E+00;  0.0000000E+00;  4.0000000E+04;  0.0000000E+00;  4.0000000E+04;  0.0000000E+00;  0.0000000E+00;  0.0000000E+00;  0.0000000E+00;
 -2.0000000E-01;  9.9999998E-03;  1.2000000E-01;56;  0.0000000E+00;  0.0000000E+00;  0.0000000E+00;  1.0000000E+03;  1.0000000E-01;  0.0000000E+00;0;  0.0000000E+00;  0.0000000E+00;  0.0000000E+00;0;  0.0000000E+00;  4.0000000E+04;  0.0000000E+00;  0.0000000E+00;  4.0000000E+04;  0.0000000E+00;  4.0000000E+04;  0.0000000E+00;  0.0000000E+00;  0.0000000E+00;  0.0000000E+00;
 -2.0000000E-01;  9.9999998E-03;  1.3000000E-01;57;  0.0000000E+00;  0.0000000E+00;  0.0000000E+00;  1.0000000E+03;  1.0000000E-01;  0.0000000E+00;0;  0.0000000E+00;  0.0000000E+00;  0.0000000E+00;0;  0.0000000E+00;  4.0000000E+04;  0.0000000E+00;  0.0000000E+00;  4.0000000E+04;  0.0000000E+00;  4.0000000E+04;  0.0000000E+00;  0.0000000E+00;  0.0000000E+00;  0.0000000E+00;
 -2.0000000E-01;  9.9999998E-03;  1.4000000E-01;58;  0.0000000E+00;  0.0000000E+00;  0.0000000E+00;  1.0000000E+03;  1.0000000E-01;  0.0000000E+00;0;  0.0000000E+00;  0.0000000E+00;  0.0000000E+00;0;  0.0000000E+00;  4.0000000E+04;  0.0000000E+00;  0.0000000E+00;  4.0000000E+04;  0.0000000E+00;  4.0000000E+04;  0.0000000E+00;  0.0000000E+00;  0.0000000E+00;  0.0000000E+00;
 -2.0000000E-01;  9.9999998E-03;  1.5000001E-01;59;  0.0000000E+00;  0.0000000E+00;  0.0000000E+00;  1.0000000E+03;  1.0000000E-01;  0.0000000E+00;0;  0.0000000E+00;  0.0000000E+00;  0.0000000E+00;0;  0.0000000E+00;  4.0000000E+04;  0.0000000E+00;  0.0000000E+00;  4.0000000E+04;  0.0000000E+00;  4.0000000E+04;  0.0000000E+00;  0.0000000E+00;  0.0000000E+00;  0.0000000E+00;
 -2.0000000E-01;  9.9999998E-03;  1.6000000E-01;60;  0.0000000E+00;  0.0000000E+00;  0.0000000E+00;  1.0000000E+03;  1.0000000E-01;  0.0000000E+00;0;  0.0000000E+00;  0.0000000E+00;  0.0000000E+00;0;  0.0000000E+00;  4.0000000E+04;  0.0000000E+00;  0.0000000E+00;  4.0000000E+04;  0.0000000E+00;  4.0000000E+04;  0.0000000E+00;  0.0000000E+00;  0.0000000E+00;  0.0000000E+00;
 -2.0000000E-01;  9.9999998E-03;  1.7000000E-01;61;  0.0000000E+00;  0.0000000E+00;  0.0000000E+00;  1.0000000E+03;  1.0000000E-01;  0.0000000E+00;0;  0.0000000E+00;  0.0000000E+00;  0.0000000E+00;0;  0.0000000E+00;  4.0000000E+04;  0.0000000E+00;  0.0000000E+00;  4.0000000E+04;  0.0000000E+00;  4.0000000E+04;  0.0000000E+00;  0.0000000E+00;  0.0000000E+00;  0.0000000E+00;
 -2.0000000E-01;  9.9999998E-03;  1.8000001E-01;62;  0.0000000E+00;  0.0000000E+00;  0.0000000E+00;  1.0000000E+03;  1.0000000E-01;  0.0000000E+00;0;  0.0000000E+00;  0.0000000E+00;  0.0000000E+00;0;  0.0000000E+00;  4.0000000E+04;  0.0000000E+00;  0.0000000E+00;  4.0000000E+04;  0.0000000E+00;  4.0000000E+04;  0.0000000E+00;  0.0000000E+00;  0.0000000E+00;  0.0000000E+00;
 -2.0000000E-01;  9.9999998E-03;  1.9000000E-01;63;  0.0000000E+00;  0.0000000E+00;  0.0000000E+00;  1.0000000E+03;  1.0000000E-01;  0.0000000E+00;0;  0.0000000E+00;  0.0000000E+00;  0.0000000E+00;0;  0.0000000E+00;  4.0000000E+04;  0.0000000E+00;  0.0000000E+00;  4.0000000E+04;  0.0000000E+00;  4.0000000E+04;  0.0000000E+00;  0.0000000E+00;  0.0000000E+00;  0.0000000E+00;
 -2.0000000E-01;  9.9999998E-03;  2.0000000E-01;64;  0.0000000E+00;  0.0000000E+00;  0.0000000E+00;  1.0000000E+03;  1.0000000E-01;  0.0000000E+00;0;  0.0000000E+00;  0.0000000E+00;  0.0000000E+00;0;  0.0000000E+00;  4.0000000E+04;  0.0000000E+00;  0.0000000E+00;  4.0000000E+04;  0.0000000E+00;  4.0000000E+04;  0.0000000E+00;  0.0000000E+00;  0.0000000E+00;  0.0000000E+00;
 -2.0000000E-01;  9.9999998E-03;  2.0999999E-01;65;  0.0000000E+00;  0.0000000E+00;  0.0000000E+00;  1.0000000E+03;  1.0000000E-01;  0.0000000E+00;0;  0.0000000E+00;  0.0000000E+00;  0.0000000E+00;0;  0.0000000E+00;  4.0000000E+04;  0.0000000E+00;  0.0000000E+00;  4.0000000E+04;  0.0000000E+00;  4.0000000E+04;  0.0000000E+00;  0.0000000E+00;  0.0000000E+00;  0.0000000E+00;
 -2.0000000E-01;  9.9999998E-03;  2.2000000E-01;66;  0.0000000E+00;  0.0000000E+00;  0.0000000E+00;  1.0000000E+03;  1.0000000E-01;  0.0000000E+00;0;  0.0000000E+00;  0.0000000E+00;  0.0000000E+00;0;  0.0000000E+00;  4.0000000E+04;  0.0000000E+00;  0.0000000E+00;  4.0000000E+04;  0.0000000E+00;  4.0000000E+04;  0.0000000E+00;  0.0000000E+00;  0.0000000E+00;  0.0000000E+00;
 -2.0000000E-01;  9.9999998E-03;  2.3000000E-01;67;  0.0000000E+00;  0.0000000E+00;  0.0000000E+00;  1.0000000E+03;  1.0000000E-01;  0.0000000E+00;0;  0.0000000E+00;  0.0000000E+00;  0.0000000E+00;0;  0.0000000E+00;  4.0000000E+04;  0.0000000E+00;  0.0000000E+00;  4.0000000E+04;  0.0000000E+00;  4.0000000E+04;  0.0000000E+00;  0.0000000E+00;  0.0000000E+00;  0.0000000E+00;
 -2.0000000E-01;  9.9999998E-03;  2.3999999E-01;68;  0.0000000E+00;  0.0000000E+00;  0.0000000E+00;  1.0000000E+03;  1.0000000E-01;  0.0000000E+00;0;  0.0000000E+00;  0.0000000E+00;  0.0000000E+00;0;  0.0000000E+00;  4.0000000E+04;  0.0000000E+00;  0.0000000E+00;  4.0000000E+04;  0.0000000E+00;  4.0000000E+04;  0.0000000E+00;  0.0000000E+00;  0.0000000E+00;  0.0000000E+00;
 -2.0000000E-01;  9.9999998E-03;  2.5000000E-01;69;  0.0000000E+00;  0.0000000E+00;  0.0000000E+00;  1.0000000E+03;  1.0000000E-01;  0.0000000E+00;0;  0.0000000E+00;  0.0000000E+00;  0.0000000E+00;0;  0.0000000E+00;  4.0000000E+04;  0.0000000E+00;  0.0000000E+00;  4.0000000E+04;  0.0000000E+00;  4.0000000E+04;  0.0000000E+00;  0.0000000E+00;  0.0000000E+00;  0.0000000E+00;
 -2.0000000E-01;  9.9999998E-03;  2.5999999E-01;70;  0.0000000E+00;  0.0000000E+00;  0.0000000E+00;  1.0000000E+03;  1.0000000E-01;  0.0000000E+00;0;  0.0000000E+00;  0.0000000E+00;  0.0000000E+00;0;  0.0000000E+00;  4.0000000E+04;  0.0000000E+00;  0.0000000E+00;  4.0000000E+04;  0.0000000E+00;  4.0000000E+04;  0.0000000E+00;  0.0000000E+00;  0.0000000E+00;  0.0000000E+00;
 -2.0000000E-01;  9.9999998E-03;  2.7000001E-01;71;  0.0000000E+00;  0.0000000E+00;  0.0000000E+00;  1.0000000E+03;  1.0000000E-01;  0.0000000E+00;0;  0.0000000E+00;  0.0000000E+00;  0.0000000E+00;0;  0.0000000E+00;  4.0000000E+04;  0.0000000E+00;  0.0000000E+00;  4.0000000E+04;  0.0000000E+00;  4.0000000E+04;  0.0000000E+00;  0.0000000E+00;  0.0000000E+00;  0.0000000E+00;
 -2.0000000E-01;  9.9999998E-03;  2.8000000E-01;72;  0.0000000E+00;  0.0000000E+00;  0.0000000E+00;  1.0000000E+03;  1.0000000E-01;  0.0000000E+00;0;  0.0000000E+00;  0.0000000E+00;  0.0000000E+00;0;  0.0000000E+00;  4.0000000E+04;  0.0000000E+00;  0.0000000E+00;  4.0000000E+04;  0.0000000E+00;  4.0000000E+04;  0.0000000E+00;  0.0000000E+00;  0.0000000E+00;  0.0000000E+00;
 -2.0000000E-01;  9.9999998E-03;  2.8999999E-01;73;  0.0000000E+00;  0.0000000E+00;  0.0000000E+00;  1.0000000E+03;  1.0000000E-01;  0.0000000E+00;0;  0.0000000E+00;  0.0000000E+00;  0.0000000E+00;0;  0.0000000E+00;  4.0000000E+04;  0.0000000E+00;  0.0000000E+00;  4.0000000E+04;  0.0000000E+00;  4.0000000E+04;  0.0000000E+00;  0.0000000E+00;  0.0000000E+00;  0.0000000E+00;
 -2.0000000E-01;  9.9999998E-03;  3.0000001E-01;74;  0.0000000E+00;  0.0000000E+00;  0.0000000E+00;  1.0000000E+03;  1.0000000E-01;  0.0000000E+00;0;  0.0000000E+00;  0.0000000E+00;  0.0000000E+00;0;  0.0000000E+00;  4.0000000E+04;  0.0000000E+00;  0.0000000E+00;  4.0000000E+04;  0.0000000E+00;  4.0000000E+04;  0.0000000E+00;  0.0000000E+00;  0.0000000E+00;  0.0000000E+00;
 -2.0000000E-01;  9.9999998E-03;  3.1000000E-01;75;  0.0000000E+00;  0.0000000E+00;  0.0000000E+00;  1.0000000E+03;  1.0000000E-01;  0.0000000E+00;0;  0.0000000E+00;  0.0000000E+00;  0.0000000E+00;0;  0.0000000E+00;  4.0000000E+04;  0.0000000E+00;  0.0000000E+00;  4.0000000E+04;  0.0000000E+00;  4.0000000E+04;  0.0000000E+00;  0.0000000E+00;  0.0000000E+00;  0.0000000E+00;
 -2.0000000E-01;  9.9999998E-03;  3.1999999E-01;76;  0.0000000E+00;  0.0000000E+00;  0.0000000E+00;  1.0000000E+03;  1.0000000E-01;  0.0000000E+00;0;  0.0000000E+00;  0.0000000E+00;  0.0000000E+00;0;  0.0000000E+00;  4.0000000E+04;  0.0000000E+00;  0.0000000E+00;  4.0000000E+04;  0.0000000E+00;  4.0000000E+04;  0.0000000E+00;  0.0000000E+00;  0.0000000E+00;  0.0000000E+00;
 -2.0000000E-01;  9.9999998E-03;  3.3000001E-01;77;  0.0000000E+00;  0.0000000E+00;  0.0000000E+00;  1.0000000E+03;  1.0000000E-01;  0.0000000E+00;0;  0.0000000E+00;  0.0000000E+00;  0.0000000E+00;0;  0.0000000E+00;  4.0000000E+04;  0.0000000E+00;  0.0000000E+00;  4.0000000E+04;  0.0000000E+00;  4.0000000E+04;  0.0000000E+00;  0.0000000E+00;  0.0000000E+00;  0.0000000E+00;
 -2.0000000E-01;  9.9999998E-03;  3.4000000E-01;78;  0.0000000E+00;  0.0000000E+00;  0.0000000E+00;  1.0000000E+03;  1.0000000E-01;  0.0000000E+00;0;  0.0000000E+00;  0.0000000E+00;  0.0000000E+00;0;  0.0000000E+00;  4.0000000E+04;  0.0000000E+00;  0.0000000E+00;  4.0000000E+04;  0.0000000E+00;  4.0000000E+04;  0.0000000E+00;  0.0000000E+00;  0.0000000E+00;  0.0000000E+00;
 -2.0000000E-01;  9.9999998E-03;  3.4999999E-01;79;  0.0000000E+00;  0.0000000E+00;  0.0000000E+00;  1.0000000E+03;  1.0000000E-01;  0.0000000E+00;0;  0.0000000E+00;  0.0000000E+00;  0.0000000E+00;0;  0.0000000E+00;  4.0000000E+04;  0.0000000E+00;  0.0000000E+00;  4.0000000E+04;  0.0000000E+00;  4.0000000E+04;  0.0000000E+00;  0.0000000E+00;  0.0000000E+00;  0.0000000E+00;
 -2.0000000E-01;  9.9999998E-03;  3.6000001E-01;80;  0.0000000E+00;  0.0000000E+00;  0.0000000E+00;  1.0000000E+03;  1.0000000E-01;  0.0000000E+00;0;  0.0000000E+00;  0.0000000E+00;  0.0000000E+00;0;  0.0000000E+00;  4.0000000E+04;  0.0000000E+00;  0.0000000E+00;  4.0000000E+04;  0.0000000E+00;  4.0000000E+04;  0.0000000E+00;  0.0000000E+00;  0.0000000E+00;  0.0000000E+00;
 -2.0000000E-01;  9.9999998E-03;  3.7000000E-01;81;  0.0000000E+00;  0.0000000E+00;  0.0000000E+00;  1.0000000E+03;  1.0000000E-01;  0.0000000E+00;0;  0.0000000E+00;  0.0000000E+00;  0.0000000E+00;0;  0.0000000E+00;  4.0000000E+04;  0.0000000E+00;  0.0000000E+00;  4.0000000E+04;  0.0000000E+00;  4.0000000E+04;  0.0000000E+00;  0.0000000E+00;  0.0000000E+00;  0.0000000E+00;
 -2.0000000E-01;  9.9999998E-03;  3.8000000E-01;82;  0.0000000E+00;  0.0000000E+00;  0.0000000E+00;  1.0000000E+03;  1.0000000E-01;  0.0000000E+00;0;  0.0000000E+00;  0.0000000E+00;  0.0000000E+00;0;  0.0000000E+00;  4.0000000E+04;  0.0000000E+00;  0.0000000E+00;  4.0000000E+04;  0.0000000E+00;  4.0000000E+04;  0.0000000E+00;  0.0000000E+00;  0.0000000E+00;  0.0000000E+00;
 -2.0000000E-01;  9.9999998E-03;  3.8999999E-01;83;  0.0000000E+00;  0.0000000E+00;  0.0000000E+00;  1.0000000E+03;  1.0000000E-01;  0.0000000E+00;0;  0.0000000E+00;  0.0000000E+00;  0.0000000E+00;0;  0.0000000E+00;  4.0000000E+04;  0.0000000E+00;  0.0000000E+00;  4.0000000E+04;  0.0000000E+00;  4.0000000E+04;  0.0000000E+00;  0.0000000E+00;  0.0000000E+00;  0.0000000E+00;
 -2.0000000E-01;  9.9999998E-03;  4.0000001E-01;84;  0.0000000E+00;  0.0000000E+00;  0.0000000E+00;  1.0000000E+03;  1.0000000E-01;  0.0000000E+00;0;  0.0000000E+00;  0.0000000E+00;  0.0000000E+00;0;  0.0000000E+00;  4.0000000E+04;  0.0000000E+00;  0.0000000E+00;  4.0000000E+04;  0.0000000E+00;  4.0000000E+04;  0.0000000E+00;  0.0000000E+00;  0.0000000E+00;  0.0000000E+00;
 -2.0000000E-01;  9.9999998E-03;  4.1000000E-01;85;  0.0000000E+00;  0.0000000E+00;  0.0000000E+00;  1.0000000E+03;  1.0000000E-01;  0.0000000E+00;0;  0.0000000E+00;  0.0000000E+00;  0.0000000E+00;0;  0.0000000E+00;  4.0000000E+04;  0.0000000E+00;  0.0000000E+00;  4.0000000E+04;  0.0000000E+00;  4.0000000E+04;  0.0000000E+00;  0.0000000E+00;  0.0000000E+00;  0.0000000E+00;
 -2.0000000E-01;  9.9999998E-03;  4.1999999E-01;86;  0.0000000E+00;  0.0000000E+00;  0.0000000E+00;  1.0000000E+03;  1.0000000E-01;  0.0000000E+00;0;  0.0000000E+00;  0.0000000E+00;  0.0000000E+00;0;  0.0000000E+00;  4.0000000E+04;  0.0000000E+00;  0.0000000E+00;  4.0000000E+04;  0.0000000E+00;  4.0000000E+04;  0.0000000E+00;  0.0000000E+00;  0.0000000E+00;  0.0000000E+00;
 -2.0000000E-01;  9.9999998E-03;  4.3000001E-01;87;  0.0000000E+00;  0.0000000E+00;  0.0000000E+00;  1.0000000E+03;  1.0000000E-01;  0.0000000E+00;0;  0.0000000E+00;  0.0000000E+00;  0.0000000E+00;0;  0.0000000E+00;  4.0000000E+04;  0.0000000E+00;  0.0000000E+00;  4.0000000E+04;  0.0000000E+00;  4.0000000E+04;  0.0000000E+00;  0.0000000E+00;  0.0000000E+00;  0.0000000E+00;
 -2.0000000E-01;  9.9999998E-03;  4.4000000E-01;88;  0.0000000E+00;  0.0000000E+00;  0.0000000E+00;  1.0000000E+03;  1.0000000E-01;  0.0000000E+00;0;  0.0000000E+00;  0.0000000E+00;  0.0000000E+00;0;  0.0000000E+00;  4.0000000E+04;  0.0000000E+00;  0.0000000E+00;  4.0000000E+04;  0.0000000E+00;  4.0000000E+04;  0.0000000E+00;  0.0000000E+00;  0.0000000E+00;  0.0000000E+00;
  2.8341243E-04;  9.9999998E-03; -2.8990534E-01;2448;  2.3929171E-04;  0.0000000E+00; -2.7572105E-04;  9.9538470E+02;  1.0000000E-01; -3.8236943E+03;3;  2.4523201E+01;  0.0000000E+00;  3.1364185E+01;0; -3.1463460E-03;  3.9641102E+04;  0.0000000E+00; -2.0854031E-01;  4.0000000E+04;  0.0000000E+00;  3.9987293E+04; -2.3071300E-03;  0.0000000E+00; -8.3921588E-04;  1.2651584E+03;
  7.4892316E-04;  9.9999998E-03; -2.7983117E-01;2449;  7.2079204E-04;  0.0000000E+00; -2.8864443E-04;  9.9428821E+02;  1.0000000E-01; -4.7321133E+03;3;  3.3251568E+01;  0.0000000E+00;  3.0479605E+01;0; -3.5896774E-03;  3.9547742E+04;  0.0000000E+00; -2.3000343E-01;  4.0000000E+04;  0.0000000E+00;  3.9995121E+04; -2.7780733E-03;  0.0000000E+00; -8.1160408E-04;  3.7164343E+02;
  9.8789129E-03;  9.9999998E-03; -2.9984391E-01;2507; -2.0139801E-04;  0.0000000E+00; -1.0262850E-04;  9.9683600E+02;  1.0000000E-01; -2.6213086E+03;3;  1.1752879E+01;  0.0000000E+00;  3.0914253E+01;0; -3.5862378E-03;  3.9762777E+04;  0.0000000E+00; -2.5458512E-01;  4.0000000E+04;  0.0000000E+00;  3.9980988E+04; -2.6828181E-03;  0.0000000E+00; -9.0341957E-04;  2.1727051E+03;
  1.0247375E-02;  9.9999998E-03; -2.8977266E-01;2508;  6.4357562E-05;  0.0000000E+00; -1.1653169E-04;  9.9602972E+02;  1.0000000E-01; -3.2892898E+03;3;  1.7917046E+01;  0.0000000E+00;  3.0122709E+01;0; -4.2053843E-03;  3.9692508E+04;  0.0000000E+00; -2.5776598E-01;  4.0000000E+04;  0.0000000E+00;  3.9988090E+04; -3.2848807E-03;  0.0000000E+00; -9.2050363E-04;  1.2628726E+03;
  1.0679634E-02;  9.9999998E-03; -2.7975181E-01;2509;  4.3764664E-04;  0.0000000E+00; -1.2871527E-04;  9.9516016E+02;  1.0000000E-01; -4.0097139E+03;3;  2.4874523E+01;  0.0000000E+00;  2.7719759E+01;0; -4.8494907E-03;  3.9615168E+04;  0.0000000E+00; -2.7019504E-01;  4.0000000E+04;  0.0000000E+00;  3.9996637E+04; -3.9727679E-03;  0.0000000E+00; -8.7672309E-04;  3.8217239E+02;
  1.9788915E-02;  9.9999998E-03; -2.9982296E-01;2568; -3.2946919E-04;  0.0000000E+00;  7.8721650E-06;  9.9741443E+02;  1.0000000E-01; -2.1421123E+03;3;  7.3457117E+00;  0.0000000E+00;  2.7939083E+01;0; -4.3596574E-03;  3.9807934E+04;  0.0000000E+00; -3.4478006E-01;  4.0000000E+04;  0.0000000E+00;  3.9982305E+04; -3.3665923E-03;  0.0000000E+00; -9.9306495E-04;  2.0658696E+03;
  2.0134266E-02;  9.9999998E-03; -2.8978872E-01;2569; -1.1008033E-04;  0.0000000E+00; -1.9949959E-05;  9.9682953E+02;  1.0000000E-01; -2.6266912E+03;3;  1.1615941E+01;  0.0000000E+00;  2.5594130E+01;0; -5.1494348E-03;  3.9753359E+04;  0.0000000E+00; -3.4239992E-01;  4.0000000E+04;  0.0000000E+00;  3.9989922E+04; -4.1497387E-03;  0.0000000E+00; -9.9969597E-04;  1.1088082E+03;
  2.0558292E-02;  9.9999998E-03; -2.7978647E-01;2570;  1.1889017E-04;  0.0000000E+00; -4.7688158E-05;  9.9621027E+02;  1.0000000E-01; -3.1397136E+03;3;  1.6818836E+01;  0.0000000E+00;  2.2097675E+01;0; -5.9597786E-03;  3.9695965E+04;  0.0000000E+00; -3.4764105E-01;  4.0000000E+04;  0.0000000E+00;  3.9999371E+04; -5.0216243E-03;  0.0000000E+00; -9.3815412E-04;  5.3104602E+02;
  2.9673735E-02;  9.9999998E-03; -2.9988030E-01;2629; -4.8203781E-04;  0.0000000E+00;  9.3167248E-05;  9.9798920E+02;  1.0000000E-01; -1.6659282E+03;3;  4.4666219E+00;  0.0000000E+00;  2.2937389E+01;0; -4.9739974E-03;  3.9851266E+04;  0.0000000E+00; -4.5505622E-01;  4.0000000E+04;  0.0000000E+00;  3.9984859E+04; -3.8902101E-03;  0.0000000E+00; -1.0837874E-03;  1.8651515E+03;
  3.0002940E-02;  9.9999998E-03; -2.8986081E-01;2630; -2.8722177E-04;  0.0000000E+00;  5.6350462E-05;  9.9762183E+02;  1.0000000E-01; -1.9702653E+03;3;  6.8346348E+00;  0.0000000E+00;  1.9097960E+01;0; -5.8912048E-03;  3.9813801E+04;  0.0000000E+00; -4.4887251E-01;  4.0000000E+04;  0.0000000E+00;  3.9992480E+04; -4.8154211E-03;  0.0000000E+00; -1.0757840E-03;  9.5763495E+02;
  3.0432198E-02;  9.9999998E-03; -2.7985296E-01;2631; -1.2382773E-04;  0.0000000E+00;  4.7485091E-06;  9.9726117E+02;  1.0000000E-01; -2.2690715E+03;3;  9.8937006E+00;  0.0000000E+00;  1.4704085E+01;0; -6.8235216E-03;  3.9776402E+04;  0.0000000E+00; -4.4258830E-01;  4.0000000E+04;  0.0000000E+00;  4.0001855E+04; -5.8326982E-03;  0.0000000E+00; -9.9082338E-04;  7.7826904E+02;
  3.9575931E-02;  9.9999998E-03; -2.9995251E-01;2690; -6.3278055E-04;  0.0000000E+00;  1.3732114E-04;  9.9846210E+02;  1.0000000E-01; -1.2741368E+03;3;  3.2849538E+00;  0.0000000E+00;  1.7414503E+01;0; -5.4052710E-03;  3.9885852E+04;  0.0000000E+00; -5.7042497E-01;  4.0000000E+04;  0.0000000E+00;  3.9987254E+04; -4.2271363E-03;  0.0000000E+00; -1.1781347E-03;  1.6695276E+03;
  3.9893951E-02;  9.9999998E-03; -2.8993702E-01;2691; -4.5477168E-04;  0.0000000E+00;  9.7139346E-05;  9.9829156E+02;  1.0000000E-01; -1.4154167E+03;3;  4.2097220E+00;  0.0000000E+00;  1.2242341E+01;0; -6.3971621E-03;  3.9864613E+04;  0.0000000E+00; -5.5462581E-01;  4.0000000E+04;  0.0000000E+00;  3.9994648E+04; -5.2469289E-03;  0.0000000E+00; -1.1502332E-03;  8.9893994E+02;
  4.0332511E-02;  9.9999998E-03; -2.7991083E-01;2692; -3.1212464E-04;  0.0000000E+00;  3.8284219E-05;  9.9815912E+02;  1.0000000E-01; -1.5251421E+03;3;  5.2045674E+00;  0.0000000E+00;  6.8906937E+00;0; -7.3959040E-03;  3.9845297E+04;  0.0000000E+00; -5.2330625E-01;  4.0000000E+04;  0.0000000E+00;  4.0004199E+04; -6.3611506E-03;  0.0000000E+00; -1.0347534E-03;  1.0117660E+03;
  4.9518295E-02;  9.9999998E-03; -3.0000484E-01;2751; -7.6260581E-04;  0.0000000E+00;  1.3492428E-04;  9.9876788E+02;  1.0000000E-01; -1.0207612E+03;3;  3.5513544E+00;  0.0000000E+00;  1.2670410E+01;0; -5.6664478E-03;  3.9907898E+04;  0.0000000E+00; -6.7754042E-01;  4.0000000E+04;  0.0000000E+00;  3.9989062E+04; -4.3913266E-03;  0.0000000E+00; -1.2751211E-03;  1.5505760E+03;
  4.9827982E-02;  9.9999998E-03; -2.8999242E-01;2752; -5.9474574E-04;  0.0000000E+00;  9.3125585E-05;  9.9874872E+02;  1.0000000E-01; -1.0366620E+03;3;  3.5741551E+00;  0.0000000E+00;  6.3778939E+00;0; -6.6822413E-03;  3.9898742E+04;  0.0000000E+00; -6.3947821E-01;  4.0000000E+04;  0.0000000E+00;  3.9997012E+04; -5.4604737E-03;  0.0000000E+00; -1.2217676E-03;  9.2964288E+02;
  5.0262846E-02;  9.9999998E-03; -2.7996045E-01;2753; -4.6542953E-04;  0.0000000E+00;  3.0890853E-05;  9.9880499E+02;  1.0000000E-01; -9.9004608E+02;3;  3.2175169E+00;  0.0000000E+00;  1.7923652E-01;0; -7.6899575E-03;  3.9895004E+04;  0.0000000E+00; -5.6260997E-01;  4.0000000E+04;  0.0000000E+00;  4.0006766E+04; -6.6203177E-03;  0.0000000E+00; -1.0696397E-03;  1.1738416E+03;
  5.9498869E-02;  9.9999998E-03; -3.0004665E-01;2812; -8.5569994E-04;  0.0000000E+00;  8.6004613E-05;  9.9886420E+02;  1.0000000E-01; -9.4101044E+02;3;  4.7807431E+00;  0.0000000E+00;  9.8096170E+00;0; -5.8037154E-03;  3.9914324E+04;  0.0000000E+00; -7.4138290E-01;  4.0000000E+04;  0.0000000E+00;  3.9990344E+04; -4.4338079E-03;  0.0000000E+00; -1.3699073E-03;  1.5153003E+03;
  5.9809655E-02;  9.9999998E-03; -2.9002437E-01;2813; -6.9246907E-04;  0.0000000E+00;  4.3091375E-05;  9.9896008E+02;  1.0000000E-01; -8.6155591E+02;3;  4.3245611E+00;  0.0000000E+00;  2.4084351E+00;0; -6.8045603E-03;  3.9914367E+04;  0.0000000E+00; -6.6560692E-01;  4.0000000E+04;  0.0000000E+00;  3.9998520E+04; -5.5180332E-03;  0.0000000E+00; -1.2865271E-03;  9.4516028E+02;
  6.0224533E-02;  9.9999998E-03; -2.8000206E-01;2814; -5.7064038E-04;  0.0000000E+00; -2.3338403E-05;  9.9914117E+02;  1.0000000E-01; -7.1153546E+02;3;  3.2559128E+00;  0.0000000E+00; -4.5433841E+00;0; -7.7774459E-03;  3.9921535E+04;  0.0000000E+00; -5.2652436E-01;  4.0000000E+04;  0.0000000E+00;  4.0006574E+04; -6.6842032E-03;  0.0000000E+00; -1.0932426E-03;  1.2229636E+03;
  6.9520302E-02;  9.9999998E-03; -3.0008358E-01;2873; -8.9194026E-04;  0.0000000E+00; -5.1408592E-06;  9.9875562E+02;  1.0000000E-01; -1.0309338E+03;3;  6.4439187E+00;  0.0000000E+00;  9.4889145E+00;0; -5.8935261E-03;  3.9905996E+04;  0.0000000E+00; -6.6201103E-01;  4.0000000E+04;  0.0000000E+00;  3.9990316E+04; -4.4399649E-03;  0.0000000E+00; -1.4535614E-03;  1.4815792E+03;
  6.9834009E-02;  9.9999998E-03; -2.9004470E-01;2874; -7.3223346E-04;  0.0000000E+00; -5.1213807E-05;  9.9891827E+02;  1.0000000E-01; -8.9617218E+02;3;  5.7679181E+00;  0.0000000E+00;  8.7580329E-01;0; -6.8555404E-03;  3.9911031E+04;  0.0000000E+00; -5.3137177E-01;  4.0000000E+04;  0.0000000E+00;  3.9998742E+04; -5.5180090E-03;  0.0000000E+00; -1.3375315E-03;  7.5370667E+02;
  7.0226610E-02;  9.9999998E-03; -2.8003210E-01;2875; -6.1330717E-04;  0.0000000E+00; -1.2561979E-04;  9.9918982E+02;  1.0000000E-01; -6.7124030E+02;3;  4.3660889E+00;  0.0000000E+00; -7.1109486E+00;0; -7.7696145E-03;  3.9925316E+04;  0.0000000E+00; -3.2647157E-01;  4.0000000E+04;  0.0000000E+00;  4.0007594E+04; -6.6683097E-03;  0.0000000E+00; -1.1013048E-03;  1.1096676E+03;
  7.9588436E-02;  9.9999998E-03; -3.0011344E-01;2934; -8.5585425E-04;  0.0000000E+00; -1.1677038E-04;  9.9847382E+02;  1.0000000E-01; -1.2644087E+03;3;  8.1417904E+00;  0.0000000E+00;  1.1805699E+01;0; -6.0247565E-03;  3.9886582E+04;  0.0000000E+00; -2.5122705E-01;  4.0000000E+04;  0.0000000E+00;  3.9987754E+04; -4.5116032E-03;  0.0000000E+00; -1.5131534E-03;  1.4718661E+03;
  7.9904273E-02;  9.9999998E-03; -2.9005873E-01;2935; -6.9862278E-04;  0.0000000E+00; -1.7447416E-04;  9.9866919E+02;  1.0000000E-01; -1.1025367E+03;3;  7.3116202E+00;  0.0000000E+00;  1.7505788E+00;0; -6.9408533E-03;  3.9892816E+04;  0.0000000E+00; -4.8490938E-02;  4.0000000E+04;  0.0000000E+00;  3.9997461E+04; -5.5765221E-03;  0.0000000E+00; -1.3643312E-03;  2.2485794E+02;
  8.0277018E-02;  9.9999998E-03; -2.8005308E-01;2936; -5.8135961E-04;  0.0000000E+00; -2.6658704E-04;  9.9898920E+02;  1.0000000E-01; -8.3740839E+02;3;  5.8076124E+00;  0.0000000E+00; -7.6799827E+00;0; -7.7909753E-03;  3.9910082E+04;  0.0000000E+00;  2.0584427E-01;  4.0000000E+04;  0.0000000E+00;  4.0006973E+04; -6.7041409E-03;  0.0000000E+00; -1.0868342E-03;  1.0241738E+03;
  8.9709945E-02;  9.9999998E-03; -3.0012748E-01;2995; -7.3531904E-04;  0.0000000E+00; -2.2837865E-04;  9.9807532E+02;  1.0000000E-01; -1.5945721E+03;3;  9.6395922E+00;  0.0000000E+00;  1.6509607E+01;0; -6.2727220E-03;  3.9858754E+04;  0.0000000E+00;  7.6597261E-01;  4.0000000E+04;  0.0000000E+00;  3.9983113E+04; -4.7412063E-03;  0.0000000E+00; -1.5315159E-03;  2.2445549E+03;
  9.0023257E-02;  9.9999998E-03; -2.9005843E-01;2996; -5.8247906E-04;  0.0000000E+00; -3.0274026E-04;  9.9827161E+02;  1.0000000E-01; -1.4319595E+03;3;  8.6887846E+00;  0.0000000E+00;  4.5927773E+00;0; -7.1528177E-03;  3.9864051E+04;  0.0000000E+00;  1.0514877E+00;  4.0000000E+04;  0.0000000E+00;  3.9994648E+04; -5.8003501E-03;  0.0000000E+00; -1.3524675E-03;  1.6015596E+03;
  9.0376824E-02;  9.9999998E-03; -2.8005970E-01;2997; -4.8237693E-04;  0.0000000E+00; -4.1074882E-04;  9.9861395E+02;  1.0000000E-01; -1.1483132E+03;3;  7.1457334E+00;  0.0000000E+00; -6.7595930E+00;0; -7.9532973E-03;  3.9881656E+04;  0.0000000E+00;  1.3092158E+00;  4.0000000E+04;  0.0000000E+00;  4.0005820E+04; -6.9129453E-03;  0.0000000E+00; -1.0403520E-03;  2.0805845E+03;
  9.9898368E-02;  9.9999998E-03; -3.0010471E-01;3056; -5.1841507E-04;  0.0000000E+00; -3.1221865E-04;  9.9759216E+02;  1.0000000E-01; -1.9948572E+03;3;  1.1009026E+01;  0.0000000E+00;  2.2916018E+01;0; -6.6732881E-03;  3.9826285E+04;  0.0000000E+00;  2.7235639E+00;  4.0000000E+04;  0.0000000E+00;  3.9977094E+04; -5.1817256E-03;  0.0000000E+00; -1.4915625E-03;  4.7371724E+03;
  1.0020845E-01;  9.9999998E-03; -2.9001489E-01;3057; -4.0502302E-04;  0.0000000E+00; -3.8986170E-04;  9.9778436E+02;  1.0000000E-01; -1.8356024E+03;3;  9.9285135E+00;  0.0000000E+00;  8.5421019E+00;0; -7.5534680E-03;  3.9829035E+04;  0.0000000E+00;  3.0825481E+00;  4.0000000E+04;  0.0000000E+00;  3.9991750E+04; -6.2649725E-03;  0.0000000E+00; -1.2884955E-03;  4.5239302E+03;
  1.0054252E-01;  9.9999998E-03; -2.8001881E-01;3058; -3.6754800E-04;  0.0000000E+00; -4.9523771E-04;  9.9814392E+02;  1.0000000E-01; -1.5377343E+03;3;  8.2144690E+00;  0.0000000E+00; -4.9570460E+00;0; -8.3423667E-03;  3.9845426E+04;  0.0000000E+00;  3.2534862E+00;  4.0000000E+04;  0.0000000E+00;  4.0005164E+04; -7.3887934E-03;  0.0000000E+00; -9.5357280E-04;  4.7479858E+03;
  1.1018728E-01;  9.9999998E-03; -2.9998082E-01;3117; -2.6189702E-04;  0.0000000E+00; -3.1223879E-04;  9.9702289E+02;  1.0000000E-01; -2.4664980E+03;3;  1.2427266E+01;  0.0000000E+00;  2.9467463E+01;0; -7.2427397E-03;  3.9787625E+04;  0.0000000E+00;  5.9771924E+00;  4.0000000E+04;  0.0000000E+00;  3.9971781E+04; -5.8522313E-03;  0.0000000E+00; -1.3905083E-03;  9.2068223E+03;
  1.1048272E-01;  9.9999998E-03; -2.8986499E-01;3118; -2.5575608E-04;  0.0000000E+00; -3.7833591E-04;  9.9723901E+02;  1.0000000E-01; -2.2874414E+03;3;  1.1048402E+01;  0.0000000E+00;  1.2067188E+01;0; -8.1984121E-03;  3.9788262E+04;  0.0000000E+00;  6.3576713E+00;  4.0000000E+04;  0.0000000E+00;  3.9989344E+04; -7.0257941E-03;  0.0000000E+00; -1.1726177E-03;  9.2173320E+03;
  1.1076953E-01;  9.9999998E-03; -2.7988723E-01;3119; -3.0527939E-04;  0.0000000E+00; -4.7657272E-04;  9.9763239E+02;  1.0000000E-01; -1.9615248E+03;3;  8.9758797E+00;  0.0000000E+00; -3.3844109E+00;0; -9.0185646E-03;  3.9805207E+04;  0.0000000E+00;  6.2806449E+00;  4.0000000E+04;  0.0000000E+00;  4.0006129E+04; -8.1908647E-03;  0.0000000E+00; -8.2770013E-04;  9.1025928E+03;
  1.2054108E-01;  9.9999998E-03; -2.9972085E-01;3178; -7.5347089E-05;  0.0000000E+00; -1.9291967E-04;  9.9637384E+02;  1.0000000E-01; -3.0042114E+03;3;  1.4254179E+01;  0.0000000E+00;  3.2886822E+01;0; -8.0344845E-03;  3.9737172E+04;  0.0000000E+00;  1.0926892E+01;  4.0000000E+04;  0.0000000E+00;  3.9972152E+04; -6.7746239E-03;  0.0000000E+00; -1.2598601E-03;  1.6062395E+04;
  1.2070651E-01;  9.9999998E-03; -2.8966308E-01;3179; -1.9106983E-04;  0.0000000E+00; -2.5961507E-04;  9.9670966E+02;  1.0000000E-01; -2.7259971E+03;3;  1.2420132E+01;  0.0000000E+00;  1.3069622E+01;0; -9.1229808E-03;  3.9744602E+04;  0.0000000E+00;  1.1158005E+01;  4.0000000E+04;  0.0000000E+00;  3.9992301E+04; -8.0881389E-03;  0.0000000E+00; -1.0348415E-03;  1.6119413E+04;
  1.2087566E-01;  9.9999998E-03; -2.7973929E-01;3180; -3.2937637E-04;  0.0000000E+00; -3.5570055E-04;  9.9718951E+02;  1.0000000E-01; -2.3284280E+03;3;  9.8850069E+00;  0.0000000E+00; -3.4689388E+00;0; -9.9982917E-03;  3.9766402E+04;  0.0000000E+00;  1.0551548E+01;  4.0000000E+04;  0.0000000E+00;  4.0010617E+04; -9.3084900E-03;  0.0000000E+00; -6.8980199E-04;  1.5322936E+04;
  1.3072988E-01;  9.9999998E-03; -2.9951674E-01;3239;  3.8815695E-05;  0.0000000E+00;  1.6790880E-05;  9.9580103E+02;  1.0000000E-01; -3.4787659E+03;3;  1.7490154E+01;  0.0000000E+00;  3.1296976E+01;0; -9.0431692E-03;  3.9685383E+04;  0.0000000E+00;  1.7920912E+01;  4.0000000E+04;  0.0000000E+00;  3.9980543E+04; -7.8703593E-03;  0.0000000E+00; -1.1728099E-03;  2.5963439E+04;
  1.3076092E-01;  9.9999998E-03; -2.8949472E-01;3240; -2.5125718E-04;  0.0000000E+00; -6.0713759E-05;  9.9633563E+02;  1.0000000E-01; -3.0358647E+03;3;  1.5436491E+01;  0.0000000E+00;  9.4488096E+00;0; -1.0385896E-02;  3.9706895E+04;  0.0000000E+00;  1.7718927E+01;  4.0000000E+04;  0.0000000E+00;  4.0002340E+04; -9.4527686E-03;  0.0000000E+00; -9.3312736E-04;  2.5643695E+04;
  1.3085714E-01;  9.9999998E-03; -2.7959758E-01;3241; -4.7321132E-04;  0.0000000E+00; -1.6144958E-04;  9.9690155E+02;  1.0000000E-01; -2.5669890E+03;3;  1.2131890E+01;  0.0000000E+00; -7.1335874E+00;0; -1.1323431E-02;  3.9735227E+04;  0.0000000E+00;  1.6148457E+01;  4.0000000E+04;  0.0000000E+00;  4.0020055E+04; -1.0740672E-02;  0.0000000E+00; -5.8275834E-04;  2.3558811E+04;
  1.4081602E-01;  9.9999998E-03; -2.9935241E-01;3300; -3.8237766E-05;  0.0000000E+00;  3.4841592E-04;  9.9537384E+02;  1.0000000E-01; -3.8326816E+03;3;  2.5214809E+01;  0.0000000E+00;  2.0914055E+01;0; -1.0594673E-02;  3.9634574E+04;  0.0000000E+00;  2.7349417E+01;  4.0000000E+04;  0.0000000E+00;  4.0000141E+04; -9.3248561E-03;  0.0000000E+00; -1.2698178E-03;  3.9529191E+04;
  1.4073572E-01;  9.9999998E-03; -2.8935289E-01;3301; -4.7262275E-04;  0.0000000E+00;  1.8270615E-04;  9.9618317E+02;  1.0000000E-01; -3.1621821E+03;3;  2.2568125E+01;  0.0000000E+00; -1.8822554E+00;0; -1.2161009E-02;  3.9676871E+04;  0.0000000E+00;  2.6279894E+01;  4.0000000E+04;  0.0000000E+00;  4.0021367E+04; -1.1220914E-02;  0.0000000E+00; -9.4009459E-04;  3.8208125E+04;
  1.4079154E-01;  9.9999998E-03; -2.7946991E-01;3302; -7.3327415E-04;  0.0000000E+00;  4.8912891E-05;  9.9681189E+02;  1.0000000E-01; -2.6413081E+03;3;  1.7239819E+01;  0.0000000E+00; -1.6244844E+01;0; -1.3047899E-02;  3.9712289E+04;  0.0000000E+00;  2.3099073E+01;  4.0000000E+04;  0.0000000E+00;  4.0036953E+04; -1.2502394E-02;  0.0000000E+00; -5.4550567E-04;  3.3909918E+04;
  1.5085928E-01;  9.9999998E-03; -2.9932886E-01;3361; -2.7879371E-04;  0.0000000E+00;  3.4088572E-04;  9.9501227E+02;  1.0000000E-01; -4.1322290E+03;3;  4.0631062E+01;  0.0000000E+00;  9.8595772E+00;0; -1.2538159E-02;  3.9583383E+04;  0.0000000E+00;  3.8690952E+01;  4.0000000E+04;  0.0000000E+00;  4.0024453E+04; -1.1307417E-02;  0.0000000E+00; -1.2307419E-03;  5.6031711E+04;
  1.5068230E-01;  9.9999998E-03; -2.8932321E-01;3362; -7.4444053E-04;  0.0000000E+00;  2.0099481E-04;  9.9620642E+02;  1.0000000E-01; -3.1429233E+03;3;  3.4768066E+01;  0.0000000E+00; -1.5926704E+01;0; -1.4185164E-02;  3.9654781E+04;  0.0000000E+00;  3.6578640E+01;  4.0000000E+04;  0.0000000E+00;  4.0046613E+04; -1.3319660E-02;  0.0000000E+00; -8.6550426E-04;  5.3424168E+04;
  1.5072298E-01;  9.9999998E-03; -2.7942264E-01;3363; -1.0748970E-03;  0.0000000E+00;  1.1874376E-04;  9.9689667E+02;  1.0000000E-01; -2.5710383E+03;3;  2.5633369E+01;  0.0000000E+00; -2.8193340E+01;0; -1.5064271E-02;  3.9697008E+04;  0.0000000E+00;  3.1101421E+01;  4.0000000E+04;  0.0000000E+00;  4.0058105E+04; -1.4576397E-02;  0.0000000E+00; -4.8787380E-04;  4.5928551E+04;
  1.6102555E-01;  9.9999998E-03; -2.9954717E-01;3422; -2.9644932E-04;  0.0000000E+00; -1.9369383E-05;  9.9401788E+02;  1.0000000E-01; -4.9560571E+03;3;  5.8440300E+01;  0.0000000E+00;  1.8141378E+01;0; -1.3560737E-02;  3.9498461E+04;  0.0000000E+00;  4.7544548E+01;  4.0000000E+04;  0.0000000E+00;  4.0029734E+04; -1.2899817E-02;  0.0000000E+00; -6.6091912E-04;  6.8958898E+04;
  1.6072381E-01;  9.9999998E-03; -2.8949505E-01;3423; -9.0903888E-04;  0.0000000E+00; -1.1387047E-04;  9.9595081E+02;  1.0000000E-01; -3.3546707E+03;3;  4.9660599E+01;  0.0000000E+00; -1.7894037E+01;0; -1.5725901E-02;  3.9622746E+04;  0.0000000E+00;  4.6033115E+01;  4.0000000E+04;  0.0000000E+00;  4.0057664E+04; -1.5408014E-02;  0.0000000E+00; -3.1788653E-04;  6.7373188E+04;
  1.6074820E-01;  9.9999998E-03; -2.7951899E-01;3424; -1.4129821E-03;  0.0000000E+00; -8.5328225E-05;  9.9684973E+02;  1.0000000E-01; -2.6099509E+03;3;  3.6059662E+01;  0.0000000E+00; -3.4256203E+01;0; -1.6951993E-02;  3.9678492E+04;  0.0000000E+00;  3.8601818E+01;  4.0000000E+04;  0.0000000E+00;  4.0072879E+04; -1.6841182E-02;  0.0000000E+00; -1.1080989E-04;  5.7219367E+04;
  1.7148858E-01;  9.9999998E-03; -2.9984799E-01;3483; -3.9937496E-04;  0.0000000E+00;  3.9839044E-05;  9.9141199E+02;  1.0000000E-01; -7.1150088E+03;3;  6.9185143E+01;  0.0000000E+00;  5.5023159E+01;0; -1.5450804E-02;  3.9312414E+04;  0.0000000E+00;  4.5607712E+01;  4.0000000E+04;  0.0000000E+00;  4.0008004E+04; -1.4748477E-02;  0.0000000E+00; -7.0232595E-04;  6.6489547E+04;
  1.7103316E-01;  9.9999998E-03; -2.8979954E-01;3484; -8.8679628E-04;  0.0000000E+00; -3.8561269E-04;  9.9460461E+02;  1.0000000E-01; -4.4699971E+03;3;  5.9620968E+01;  0.0000000E+00;  6.5897050E+00;0; -1.6559556E-02;  3.9533711E+04;  0.0000000E+00;  4.8319286E+01;  4.0000000E+04;  0.0000000E+00;  4.0037488E+04; -1.7025823E-02;  0.0000000E+00;  4.6626688E-04;  7.1038234E+04;
  1.7093596E-01;  9.9999998E-03; -2.7976394E-01;3485; -1.6116775E-03;  0.0000000E+00; -3.7613857E-04;  9.9621765E+02;  1.0000000E-01; -3.1335903E+03;3;  4.3481354E+01;  0.0000000E+00; -2.2276712E+01;0; -1.8295420E-02;  3.9637734E+04;  0.0000000E+00;  4.1916451E+01;  4.0000000E+04;  0.0000000E+00;  4.0061805E+04; -1.8922888E-02;  0.0000000E+00;  6.2746671E-04;  6.2326742E+04;
  1.8184726E-01;  9.9999998E-03; -2.9990435E-01;3544; -1.1735328E-03;  0.0000000E+00;  1.5522330E-04;  9.8922534E+02;  1.0000000E-01; -8.9266113E+03;3;  7.5881859E+01;  0.0000000E+00;  6.9891846E+01;0; -2.0638714E-02;  3.9130402E+04;  0.0000000E+00;  3.7630997E+01;  4.0000000E+04;  0.0000000E+00;  4.0013797E+04; -1.9547561E-02;  0.0000000E+00; -1.0911518E-03;  5.5271848E+04;
  1.8151186E-01;  9.9999998E-03; -2.8998119E-01;3545; -1.1563972E-03;  0.0000000E+00; -1.6502802E-04;  9.9248212E+02;  1.0000000E-01; -6.2284165E+03;3;  6.0200367E+01;  0.0000000E+00;  3.8041306E+01;0; -1.9228464E-02;  3.9386680E+04;  0.0000000E+00;  4.0296574E+01;  4.0000000E+04;  0.0000000E+00;  4.0015051E+04; -1.9379530E-02;  0.0000000E+00;  1.5106529E-04;  6.0223406E+04;
  1.8125521E-01;  9.9999998E-03; -2.7999613E-01;3546; -1.7382228E-03;  0.0000000E+00; -3.1705364E-04;  9.9498334E+02;  1.0000000E-01; -4.1562280E+03;3;  4.3212460E+01;  0.0000000E+00;  4.3877535E+00;0; -1.9915130E-02;  3.9569230E+04;  0.0000000E+00;  3.8153164E+01;  4.0000000E+04;  0.0000000E+00;  4.0030648E+04; -2.0699197E-02;  0.0000000E+00;  7.8406744E-04;  5.7345789E+04;
  1.9186136E-01;  9.9999998E-03; -2.9994172E-01;3605; -1.6565640E-03;  0.0000000E+00; -1.4329216E-04;  9.8870721E+02;  1.0000000E-01; -9.3558838E+03;3;  7.2906670E+01;  0.0000000E+00;  7.0975700E+01;0; -2.3309382E-02;  3.9074012E+04;  0.0000000E+00;  3.0425051E+01;  4.0000000E+04;  0.0000000E+00;  4.0022453E+04; -2.3308856E-02;  0.0000000E+00; -5.2596442E-07;  4.4124562E+04;
  1.9176137E-01;  9.9999998E-03; -2.9001072E-01;3606; -1.7208246E-03;  0.0000000E+00; -8.4232379E-05;  9.9136108E+02;  1.0000000E-01; -7.1571802E+03;3;  5.5321381E+01;  0.0000000E+00;  4.6186996E+01;0; -2.2730857E-02;  3.9293688E+04;  0.0000000E+00;  2.9840660E+01;  4.0000000E+04;  0.0000000E+00;  4.0015906E+04; -2.2687674E-02;  0.0000000E+00; -4.3183332E-05;  4.5463957E+04;
  1.9147258E-01;  9.9999998E-03; -2.8010023E-01;3607; -1.9126156E-03;  0.0000000E+00; -7.6624543E-05;  9.9406921E+02;  1.0000000E-01; -4.9135400E+03;3;  3.7174950E+01;  0.0000000E+00;  2.4452732E+01;0; -2.2129580E-02;  3.9519512E+04;  0.0000000E+00;  3.0973459E+01;  4.0000000E+04;  0.0000000E+00;  4.0006785E+04; -2.2287354E-02;  0.0000000E+00;  1.5777294E-04;  4.7421035E+04;
  2.0175396E-01;  9.9999998E-03; -3.0003753E-01;3666; -1.5801762E-03;  0.0000000E+00; -3.5896621E-05;  9.8884070E+02;  1.0000000E-01; -9.2452695E+03;3;  5.9344856E+01;  0.0000000E+00;  8.1575333E+01;0; -2.4465244E-02;  3.9093844E+04;  0.0000000E+00;  2.5486549E+01;  4.0000000E+04;  0.0000000E+00;  4.0010887E+04; -2.3864280E-02;  0.0000000E+00; -6.0096383E-04;  3.5200266E+04;
  2.0173694E-01;  9.9999998E-03; -2.9005930E-01;3667; -1.9422652E-03;  0.0000000E+00;  1.7820848E-05;  9.9133868E+02;  1.0000000E-01; -7.1757476E+03;3;  4.3756058E+01;  0.0000000E+00;  5.1815578E+01;0; -2.5026033E-02;  3.9296426E+04;  0.0000000E+00;  2.2858061E+01;  4.0000000E+04;  0.0000000E+00;  4.0009762E+04; -2.4404306E-02;  0.0000000E+00; -6.2172755E-04;  3.4404129E+04;
  2.0152999E-01;  9.9999998E-03; -2.8012723E-01;3668; -2.0643233E-03;  0.0000000E+00;  8.0207756E-05;  9.9385852E+02;  1.0000000E-01; -5.0881030E+03;3;  2.8646257E+01;  0.0000000E+00;  3.3123192E+01;0; -2.4055932E-02;  3.9513598E+04;  0.0000000E+00;  2.4868160E+01;  4.0000000E+04;  0.0000000E+00;  3.9995461E+04; -2.3445681E-02;  0.0000000E+00; -6.1025028E-04;  3.8524609E+04;
  2.1170089E-01;  9.9999998E-03; -3.0005065E-01;3727; -1.7524192E-03;  0.0000000E+00;  3.7592570E-05;  9.8953046E+02;  1.0000000E-01; -8.6738291E+03;3;  4.3684944E+01;  0.0000000E+00;  7.5847084E+01;0; -2.6566688E-02;  3.9145852E+04;  0.0000000E+00;  2.0476908E+01;  4.0000000E+04;  0.0000000E+00;  4.0013398E+04; -2.5167752E-02;  0.0000000E+00; -1.3989351E-03;  2.6457576E+04;
  2.1167634E-01;  9.9999998E-03; -2.9007134E-01;3728; -2.0287475E-03;  0.0000000E+00;  7.4534371E-05;  9.9188702E+02;  1.0000000E-01; -6.7214395E+03;3;  3.0740330E+01;  0.0000000E+00;  5.0820358E+01;0; -2.6416184E-02;  3.9342160E+04;  0.0000000E+00;  1.8355099E+01;  4.0000000E+04;  0.0000000E+00;  4.0006605E+04; -2.5127944E-02;  0.0000000E+00; -1.2882414E-03;  2.6796879E+04;
  2.1154626E-01;  9.9999998E-03; -2.8011081E-01;3729; -2.2462686E-03;  0.0000000E+00;  1.1448039E-04;  9.9408966E+02;  1.0000000E-01; -4.8966021E+03;3;  1.9575596E+01;  0.0000000E+00;  3.2077797E+01;0; -2.5449552E-02;  3.9532438E+04;  0.0000000E+00;  1.9747721E+01;  4.0000000E+04;  0.0000000E+00;  3.9995484E+04; -2.4341160E-02;  0.0000000E+00; -1.1083904E-03;  3.0634418E+04;
  2.2167316E-01;  9.9999998E-03; -3.0003563E-01;3788; -1.9482502E-03;  0.0000000E+00; -4.4872086E-05;  9.9066718E+02;  1.0000000E-01; -7.7320776E+03;3;  2.7718391E+01;  0.0000000E+00;  6.2594692E+01;0; -2.7370369E-02;  3.9230801E+04;  0.0000000E+00;  1.5651939E+01;  4.0000000E+04;  0.0000000E+00;  4.0020258E+04; -2.6103336E-02;  0.0000000E+00; -1.2670332E-03;  1.9356219E+04;
  2.2164935E-01;  9.9999998E-03; -2.9005599E-01;3789; -2.2154716E-03;  0.0000000E+00;  2.4581186E-05;  9.9272211E+02;  1.0000000E-01; -6.0296074E+03;3;  1.8095449E+01;  0.0000000E+00;  4.2450535E+01;0; -2.7270317E-02;  3.9405703E+04;  0.0000000E+00;  1.3930290E+01;  4.0000000E+04;  0.0000000E+00;  4.0011301E+04; -2.5854062E-02;  0.0000000E+00; -1.4162541E-03;  1.9906049E+04;
  2.2155145E-01;  9.9999998E-03; -2.8008294E-01;3790; -2.4529924E-03;  0.0000000E+00;  6.7108638E-05;  9.9459467E+02;  1.0000000E-01; -4.4781943E+03;3;  1.0667634E+01;  0.0000000E+00;  2.6270657E+01;0; -2.6233954E-02;  3.9568906E+04;  0.0000000E+00;  1.5235276E+01;  4.0000000E+04;  0.0000000E+00;  4.0001195E+04; -2.5002928E-02;  0.0000000E+00; -1.2310266E-03;  2.3580400E+04;
  2.3165549E-01;  9.9999998E-03; -3.0001572E-01;3849; -2.2047353E-03;  0.0000000E+00; -2.1083452E-04;  9.9205115E+02;  1.0000000E-01; -6.5854927E+03;3;  1.2919905E+01;  0.0000000E+00;  4.6856094E+01;0; -2.7178047E-02;  3.9337316E+04;  0.0000000E+00;  1.0740714E+01;  4.0000000E+04;  0.0000000E+00;  4.0026277E+04; -2.6927195E-02;  0.0000000E+00; -2.5085203E-04;  1.3376283E+04;
  2.3162843E-01;  9.9999998E-03; -2.9003441E-01;3850; -2.4552399E-03;  0.0000000E+00; -9.4816103E-05;  9.9376746E+02;  1.0000000E-01; -5.1635576E+03;3;  6.8065224E+00;  0.0000000E+00;  3.1680088E+01;0; -2.7374128E-02;  3.9486371E+04;  0.0000000E+00;  9.7223177E+00;  4.0000000E+04;  0.0000000E+00;  4.0016418E+04; -2.6452264E-02;  0.0000000E+00; -9.2186476E-04;  1.4089532E+04;
  2.3154567E-01;  9.9999998E-03; -2.8005403E-01;3851; -2.6827536E-03;  0.0000000E+00; -2.7505592E-05;  9.9528766E+02;  1.0000000E-01; -3.9040872E+03;3;  2.7819653E+00;  0.0000000E+00;  1.8934662E+01;0; -2.6456222E-02;  3.9620680E+04;  0.0000000E+00;  1.1232704E+01;  4.0000000E+04;  0.0000000E+00;  4.0006781E+04; -2.5485054E-02;  0.0000000E+00; -9.7116764E-04;  1.7568582E+04;
  2.4163087E-01;  9.9999998E-03; -3.0000043E-01;3910; -2.4832953E-03;  0.0000000E+00; -4.1845097E-04;  9.9352527E+02;  1.0000000E-01; -5.3641938E+03;3;  7.7610582E-01;  0.0000000E+00;  3.2512398E+01;0; -2.6005004E-02;  3.9454844E+04;  0.0000000E+00;  6.4199653E+00;  4.0000000E+04;  0.0000000E+00;  4.0029051E+04; -2.7515285E-02;  0.0000000E+00;  1.5102804E-03;  8.8601260E+03;
  2.4159786E-01;  9.9999998E-03; -2.9001558E-01;3911; -2.7154542E-03;  0.0000000E+00; -2.5360595E-04;  9.9491229E+02;  1.0000000E-01; -4.2150908E+03;3; -2.1107709E+00;  0.0000000E+00;  2.1555088E+01;0; -2.6722375E-02;  3.9577578E+04;  0.0000000E+00;  6.2614059E+00;  4.0000000E+04;  0.0000000E+00;  4.0019410E+04; -2.6866909E-02;  0.0000000E+00;  1.4453329E-04;  9.7633799E+03;
  2.4152644E-01;  9.9999998E-03; -2.8002882E-01;3912; -2.9453812E-03;  0.0000000E+00; -1.4867833E-04;  9.9608142E+02;  1.0000000E-01; -3.2464761E+03;3; -3.3679271E+00;  0.0000000E+00;  1.1936258E+01;0; -2.6233908E-02;  3.9681570E+04;  0.0000000E+00;  7.8299866E+00;  4.0000000E+04;  0.0000000E+00;  4.0011215E+04; -2.5870448E-02;  0.0000000E+00; -3.6345894E-04;  1.2676619E+04;
  2.5159532E-01;  9.9999998E-03; -2.9999045E-01;3971; -2.8028027E-03;  0.0000000E+00; -6.4324168E-04;  9.9495996E+02;  1.0000000E-01; -4.1755854E+03;3; -7.8505750E+00;  0.0000000E+00;  2.0827900E+01;0; -2.4186827E-02;  3.9572324E+04;  0.0000000E+00;  3.0444047E+00;  4.0000000E+04;  0.0000000E+00;  4.0027980E+04; -2.7996663E-02;  0.0000000E+00;  3.8098353E-03;  5.7404932E+03;
  2.5155726E-01;  9.9999998E-03; -2.9000118E-01;3972; -3.0243360E-03;  0.0000000E+00; -4.3933385E-04;  9.9602582E+02;  1.0000000E-01; -3.2925488E+03;3; -8.1358232E+00;  0.0000000E+00;  1.3122647E+01;0; -2.5484994E-02;  3.9668082E+04;  0.0000000E+00;  3.5875163E+00;  4.0000000E+04;  0.0000000E+00;  4.0020727E+04; -2.7231991E-02;  0.0000000E+00;  1.7469972E-03;  6.6066289E+03;
  2.5148061E-01;  9.9999998E-03; -2.8000972E-01;3973; -3.2095884E-03;  0.0000000E+00; -2.9369496E-04;  9.9689056E+02;  1.0000000E-01; -2.5761248E+03;3; -7.3442702E+00;  0.0000000E+00;  6.4667439E+00;0; -2.5505433E-02;  3.9746004E+04;  0.0000000E+00;  5.6878095E+00;  4.0000000E+04;  0.0000000E+00;  4.0014480E+04; -2.6134297E-02;  0.0000000E+00;  6.2886509E-04;  9.6297559E+03;
  2.6154628E-01;  9.9999998E-03; -2.9998401E-01;4032; -3.1828145E-03;  0.0000000E+00; -8.5598475E-04;  9.9624396E+02;  1.0000000E-01; -3.1118132E+03;3; -1.2754366E+01;  0.0000000E+00;  1.2090343E+01;0; -2.2226945E-02;  3.9681113E+04;  0.0000000E+00;  6.7884433E-01;  4.0000000E+04;  0.0000000E+00;  4.0025824E+04; -2.8428301E-02;  0.0000000E+00;  6.2013576E-03;  3.8747852E+03;
  2.6149684E-01;  9.9999998E-03; -2.8999105E-01;4033; -3.3565685E-03;  0.0000000E+00; -6.2764942E-04;  9.9703143E+02;  1.0000000E-01; -2.4593872E+03;3; -1.1263917E+01;  0.0000000E+00;  6.9717803E+00;0; -2.3909057E-02;  3.9752375E+04;  0.0000000E+00;  2.0359511E+00;  4.0000000E+04;  0.0000000E+00;  4.0019508E+04; -2.7490873E-02;  0.0000000E+00;  3.5818161E-03;  4.7860103E+03;
  2.6141298E-01;  9.9999998E-03; -2.7999553E-01;4034; -3.5084875E-03;  0.0000000E+00; -4.5114220E-04;  9.9761981E+02;  1.0000000E-01; -1.9719442E+03;3; -9.2533951E+00;  0.0000000E+00;  2.5644200E+00;0; -2.4478871E-02;  3.9805836E+04;  0.0000000E+00;  4.3624539E+00;  4.0000000E+04;  0.0000000E+00;  4.0015594E+04; -2.6374141E-02;  0.0000000E+00;  1.8952694E-03;  7.6788911E+03;
  2.7147537E-01;  9.9999998E-03; -2.9997990E-01;4093; -3.5978290E-03;  0.0000000E+00; -1.0341845E-03;  9.9732819E+02;  1.0000000E-01; -2.2135671E+03;3; -1.4404324E+01;  0.0000000E+00;  6.1493106E+00;0; -2.0509034E-02;  3.9775363E+04;  0.0000000E+00; -5.8356690E-01;  4.0000000E+04;  0.0000000E+00;  4.0021633E+04; -2.8702164E-02;  0.0000000E+00;  8.1931297E-03;  2.9667383E+03;
  2.7140254E-01;  9.9999998E-03; -2.8998420E-01;4094; -3.6941280E-03;  0.0000000E+00; -8.0216187E-04;  9.9787292E+02;  1.0000000E-01; -1.7622218E+03;3; -1.1935489E+01;  0.0000000E+00;  2.9716828E+00;0; -2.2288607E-02;  3.9824863E+04;  0.0000000E+00;  1.8261940E+00;  4.0000000E+04;  0.0000000E+00;  4.0017387E+04; -2.7624276E-02;  0.0000000E+00;  5.3356676E-03;  4.3276206E+03;
  2.7131528E-01;  9.9999998E-03; -2.7998564E-01;4095; -3.8291353E-03;  0.0000000E+00; -6.0838193E-04;  9.9821362E+02;  1.0000000E-01; -1.4799581E+03;3; -9.4223175E+00;  0.0000000E+00;  1.9240841E-01;0; -2.3321817E-02;  3.9855559E+04;  0.0000000E+00;  3.9107344E+00;  4.0000000E+04;  0.0000000E+00;  4.0015164E+04; -2.6564347E-02;  0.0000000E+00;  3.2425299E-03;  6.8290669E+03;
  2.8135103E-01;  9.9999998E-03; -2.9997763E-01;4154; -3.9640525E-03;  0.0000000E+00; -1.1944688E-03;  9.9819403E+02;  1.0000000E-01; -1.4962046E+03;3; -1.3588245E+01;  0.0000000E+00;  2.6117854E+00;0; -1.8793534E-02;  3.9853031E+04;  0.0000000E+00; -1.8947534E-04;  4.0000000E+04;  0.0000000E+00;  4.0016914E+04; -2.8668027E-02;  0.0000000E+00;  9.8744938E-03;  2.4906353E+03;
  2.8127393E-01;  9.9999998E-03; -2.8997949E-01;4155; -4.0643350E-03;  0.0000000E+00; -9.5275918E-04;  9.9849127E+02;  1.0000000E-01; -1.2499399E+03;3; -1.0853560E+01;  0.0000000E+00;  6.1949050E-01;0; -2.0941960E-02;  3.9879266E+04;  0.0000000E+00;  2.3474138E+00;  4.0000000E+04;  0.0000000E+00;  4.0014930E+04; -2.7682573E-02;  0.0000000E+00;  6.7406129E-03;  4.6269097E+03;
  2.8120580E-01;  9.9999998E-03; -2.7997893E-01;4156; -4.1827629E-03;  0.0000000E+00; -7.4951199E-04;  9.9861444E+02;  1.0000000E-01; -1.1479181E+03;3; -8.3731918E+00;  0.0000000E+00; -9.9686682E-01;0; -2.2316771E-02;  3.9889309E+04;  0.0000000E+00;  3.5054090E+00;  4.0000000E+04;  0.0000000E+00;  4.0014812E+04; -2.6703935E-02;  0.0000000E+00;  4.3871645E-03;  6.0043057E+03;
  2.9121876E-01;  9.9999998E-03; -2.9997566E-01;4215; -4.4361381E-03;  0.0000000E+00; -1.2960595E-03;  9.9872736E+02;  1.0000000E-01; -1.0543406E+03;3; -1.1206536E+01;  0.0000000E+00;  5.6929755E-01;0; -1.8143898E-02;  3.9901742E+04;  0.0000000E+00;  1.6361944E-01;  4.0000000E+04;  0.0000000E+00;  4.0014055E+04; -2.8606558E-02;  0.0000000E+00;  1.0462660E-02;  2.0822388E+03;
  2.9116580E-01;  9.9999998E-03; -2.8997594E-01;4216; -4.5021083E-03;  0.0000000E+00; -1.0607356E-03;  9.9881464E+02;  1.0000000E-01; -9.8204633E+02;3; -8.7427826E+00;  0.0000000E+00; -5.5142057E-01;0; -2.0280087E-02;  3.9907801E+04;  0.0000000E+00;  1.7841520E+00;  4.0000000E+04;  0.0000000E+00;  4.0014043E+04; -2.7672157E-02;  0.0000000E+00;  7.3920693E-03;  3.6064504E+03;
  2.9111525E-01;  9.9999998E-03; -2.7997458E-01;4217; -4.5484272E-03;  0.0000000E+00; -8.6390250E-04;  9.9879633E+02;  1.0000000E-01; -9.9720636E+02;3; -6.6798959E+00;  0.0000000E+00; -1.3279806E+00;0; -2.1656346E-02;  3.9904527E+04;  0.0000000E+00;  2.5003026E+00;  4.0000000E+04;  0.0000000E+00;  4.0014469E+04; -2.6757576E-02;  0.0000000E+00;  5.1012295E-03;  4.4444292E+03;
  3.0116519E-01;  9.9999998E-03; -2.9997367E-01;4276; -4.9394360E-03;  0.0000000E+00; -1.3565603E-03;  9.9889935E+02;  1.0000000E-01; -9.1187543E+02;3; -8.1744137E+00;  0.0000000E+00; -3.2361534E-01;0; -1.8215844E-02;  3.9917547E+04;  0.0000000E+00; -1.2249775E+00;  4.0000000E+04;  0.0000000E+00;  4.0012969E+04; -2.8362891E-02;  0.0000000E+00;  1.0147046E-02;  2.1211506E+03;
  3.0112812E-01;  9.9999998E-03; -2.8997344E-01;4277; -4.9151340E-03;  0.0000000E+00; -1.1537379E-03;  9.9887738E+02;  1.0000000E-01; -9.3004779E+02;3; -6.3534703E+00;  0.0000000E+00; -8.5937637E-01;0; -1.9867146E-02;  3.9913141E+04;  0.0000000E+00;  1.9398864E-01;  4.0000000E+04;  0.0000000E+00;  4.0013676E+04; -2.7505156E-02;  0.0000000E+00;  7.6380093E-03;  1.8970216E+03;
  3.0108956E-01;  9.9999998E-03; -2.7997220E-01;4278; -4.8890482E-03;  0.0000000E+00; -9.6790312E-04;  9.9879834E+02;  1.0000000E-01; -9.9557678E+02;3; -4.8981023E+00;  0.0000000E+00; -1.1588793E+00;0; -2.1173995E-02;  3.9904410E+04;  0.0000000E+00;  9.1995811E-01;  4.0000000E+04;  0.0000000E+00;  4.0014566E+04; -2.6715610E-02;  0.0000000E+00;  5.5416161E-03;  2.4977739E+03;
  3.1120408E-01;  9.9999998E-03; -2.9997215E-01;4337; -5.3296755E-03;  0.0000000E+00; -1.4356473E-03;  9.9883887E+02;  1.0000000E-01; -9.6199750E+02;3; -5.4216838E+00;  0.0000000E+00; -4.8167723E-01;0; -1.7991779E-02;  3.9911715E+04;  0.0000000E+00; -2.4774568E+00;  4.0000000E+04;  0.0000000E+00;  4.0013301E+04; -2.7919566E-02;  0.0000000E+00;  9.9277869E-03;  3.6921892E+03;
  3.1115568E-01;  9.9999998E-03; -2.8997207E-01;4338; -5.2493145E-03;  0.0000000E+00; -1.2564188E-03;  9.9877917E+02;  1.0000000E-01; -1.0114282E+03;3; -4.3004036E+00;  0.0000000E+00; -7.1195775E-01;0; -1.9368744E-02;  3.9904262E+04;  0.0000000E+00; -1.0370759E+00;  4.0000000E+04;  0.0000000E+00;  4.0014527E+04; -2.7234090E-02;  0.0000000E+00;  7.8653470E-03;  2.2602788E+03;
  3.1111094E-01;  9.9999998E-03; -2.7997142E-01;4339; -5.1831361E-03;  0.0000000E+00; -1.0770314E-03;  9.9869519E+02;  1.0000000E-01; -1.0810065E+03;3; -3.4268429E+00;  0.0000000E+00; -8.0508566E-01;0; -2.0698885E-02;  3.9894781E+04;  0.0000000E+00; -1.7329538E-01;  4.0000000E+04;  0.0000000E+00;  4.0015293E+04; -2.6612755E-02;  0.0000000E+00;  5.9138699E-03;  2.0037720E+03;
  3.2115921E-01;  9.9999998E-03; -2.7997193E-01;4400; -5.4438598E-03;  0.0000000E+00; -1.2027716E-03;  9.9855487E+02;  1.0000000E-01; -1.1972501E+03;3; -2.4229243E+00;  0.0000000E+00; -4.7541139E-01;0; -2.0103183E-02;  3.9881477E+04;  0.0000000E+00; -5.1814944E-01;  4.0000000E+04;  0.0000000E+00;  4.0016145E+04; -2.6498795E-02;  0.0000000E+00;  6.3956119E-03;  2.2034629E+03;
  3.2118431E-01;  9.9999998E-03; -2.8997183E-01;4399; -5.5188760E-03;  0.0000000E+00; -1.3819239E-03;  9.9862396E+02;  1.0000000E-01; -1.1400171E+03;3; -2.8744826E+00;  0.0000000E+00; -4.4080868E-01;0; -1.8635424E-02;  3.9889453E+04;  0.0000000E+00; -1.1728791E+00;  4.0000000E+04;  0.0000000E+00;  4.0015043E+04; -2.6959302E-02;  0.0000000E+00;  8.3238780E-03;  2.5368921E+03;
  3.2121101E-01;  9.9999998E-03; -2.9997152E-01;4398; -5.6054816E-03;  0.0000000E+00; -1.5496992E-03;  9.9869263E+02;  1.0000000E-01; -1.0831299E+03;3; -3.4650021E+00;  0.0000000E+00; -3.2637984E-01;0; -1.7289381E-02;  3.9897535E+04;  0.0000000E+00; -2.1049151E+00;  4.0000000E+04;  0.0000000E+00;  4.0014098E+04; -2.7457379E-02;  0.0000000E+00;  1.0167996E-02;  3.4157051E+03;
  3.3121923E-01;  9.9999998E-03; -2.9997152E-01;4459; -5.8317194E-03;  0.0000000E+00; -1.6710014E-03;  9.9849768E+02;  1.0000000E-01; -1.2446561E+03;3; -2.2990983E+00;  0.0000000E+00; -1.3266738E-01;0; -1.6672563E-02;  3.9878457E+04;  0.0000000E+00; -1.3740768E+00;  4.0000000E+04;  0.0000000E+00;  4.0015449E+04; -2.7089600E-02;  0.0000000E+00;  1.0417036E-02;  2.7977734E+03;
  3.3120400E-01;  9.9999998E-03; -2.8997242E-01;4460; -5.7562483E-03;  0.0000000E+00; -1.5232402E-03;  9.9845093E+02;  1.0000000E-01; -1.2833711E+03;3; -2.0453429E+00;  0.0000000E+00; -2.0630504E-01;0; -1.7808972E-02;  3.9872559E+04;  0.0000000E+00; -7.8734744E-01;  4.0000000E+04;  0.0000000E+00;  4.0016102E+04; -2.6741162E-02;  0.0000000E+00;  8.9321900E-03;  2.4073347E+03;
  3.3119464E-01;  9.9999998E-03; -2.7997336E-01;4461; -5.6866989E-03;  0.0000000E+00; -1.3543360E-03;  9.9841968E+02;  1.0000000E-01; -1.3092469E+03;3; -1.8574321E+00;  0.0000000E+00; -2.3941371E-01;0; -1.9260876E-02;  3.9868059E+04;  0.0000000E+00; -3.2133174E-01;  4.0000000E+04;  0.0000000E+00;  4.0016508E+04; -2.6408505E-02;  0.0000000E+00;  7.1476283E-03;  2.2539087E+03;
  3.4125292E-01;  9.9999998E-03; -2.9997206E-01;4520; -6.0353824E-03;  0.0000000E+00; -1.7906927E-03;  9.9830634E+02;  1.0000000E-01; -1.4031702E+03;3; -1.7377559E+00;  0.0000000E+00;  2.1603400E-02;0; -1.6287997E-02;  3.9859098E+04;  0.0000000E+00; -7.5375855E-01;  4.0000000E+04;  0.0000000E+00;  4.0017016E+04; -2.6844326E-02;  0.0000000E+00;  1.0556329E-02;  2.4890850E+03;
  3.4125081E-01;  9.9999998E-03; -2.8997356E-01;4521; -5.9803426E-03;  0.0000000E+00; -1.6782212E-03;  9.9829749E+02;  1.0000000E-01; -1.4104786E+03;3; -1.6566172E+00;  0.0000000E+00; -3.7682723E-02;0; -1.6920950E-02;  3.9856391E+04;  0.0000000E+00; -3.8884011E-01;  4.0000000E+04;  0.0000000E+00;  4.0017645E+04; -2.6601240E-02;  0.0000000E+00;  9.6802888E-03;  2.3704978E+03;
  3.4126163E-01;  9.9999998E-03; -2.7997518E-01;4522; -5.9228889E-03;  0.0000000E+00; -1.5355261E-03;  9.9830505E+02;  1.0000000E-01; -1.4042072E+03;3; -1.6023927E+00;  0.0000000E+00; -9.1867760E-02;0; -1.8124735E-02;  3.9856145E+04;  0.0000000E+00; -6.1940398E-02;  4.0000000E+04;  0.0000000E+00;  4.0017633E+04; -2.6360774E-02;  0.0000000E+00;  8.2360394E-03;  2.3328547E+03;
  3.5130045E-01;  9.9999998E-03; -2.9997298E-01;4581; -6.2417989E-03;  0.0000000E+00; -1.8696060E-03;  9.9814453E+02;  1.0000000E-01; -1.5372405E+03;3; -1.5320888E+00;  0.0000000E+00;  6.3441992E-02;0; -1.6812764E-02;  3.9842355E+04;  0.0000000E+00; -3.8072664E-01;  4.0000000E+04;  0.0000000E+00;  4.0018422E+04; -2.6715491E-02;  0.0000000E+00;  9.9027259E-03;  2.4844478E+03;
  3.5130054E-01;  9.9999998E-03; -2.8997505E-01;4582; -6.2073031E-03;  0.0000000E+00; -1.7848598E-03;  9.9817413E+02;  1.0000000E-01; -1.5126980E+03;3; -1.5226954E+00;  0.0000000E+00;  2.7997645E-02;0; -1.6988976E-02;  3.9843562E+04;  0.0000000E+00; -1.3494602E-01;  4.0000000E+04;  0.0000000E+00;  4.0018293E+04; -2.6541715E-02;  0.0000000E+00;  9.5527396E-03;  2.4366575E+03;
  3.5133338E-01;  9.9999998E-03; -2.7997726E-01;4583; -6.1621298E-03;  0.0000000E+00; -1.6798306E-03;  9.9822369E+02;  1.0000000E-01; -1.4716127E+03;3; -1.5230950E+00;  0.0000000E+00; -2.4478041E-02;0; -1.7652614E-02;  3.9846961E+04;  0.0000000E+00;  9.0141773E-02;  4.0000000E+04;  0.0000000E+00;  4.0018141E+04; -2.6364101E-02;  0.0000000E+00;  8.7114871E-03;  2.4102341E+03;
  3.6136299E-01;  9.9999998E-03; -2.9997411E-01;4642; -6.4668832E-03;  0.0000000E+00; -1.9482049E-03;  9.9803381E+02;  1.0000000E-01; -1.6289415E+03;3; -1.4930499E+00;  0.0000000E+00;  7.5112537E-02;0; -1.7467961E-02;  3.9829832E+04;  0.0000000E+00; -2.4603872E-01;  4.0000000E+04;  0.0000000E+00;  4.0018879E+04; -2.6681859E-02;  0.0000000E+00;  9.2138974E-03;  2.5635308E+03;
  3.6137864E-01;  9.9999998E-03; -2.8997663E-01;4643; -6.4470703E-03;  0.0000000E+00; -1.8640705E-03;  9.9808997E+02;  1.0000000E-01; -1.5824244E+03;3; -1.5007361E+00;  0.0000000E+00;  3.5191920E-02;0; -1.7637584E-02;  3.9833977E+04;  0.0000000E+00; -7.0717558E-02;  4.0000000E+04;  0.0000000E+00;  4.0018750E+04; -2.6553763E-02;  0.0000000E+00;  8.9161778E-03;  2.5043008E+03;
  3.6140269E-01;  9.9999998E-03; -2.7997932E-01;4644; -6.4107669E-03;  0.0000000E+00; -1.7662833E-03;  9.9816895E+02;  1.0000000E-01; -1.5169941E+03;3; -1.5144964E+00;  0.0000000E+00; -1.3915999E-02;0; -1.8135205E-02;  3.9840281E+04;  0.0000000E+00;  9.8230533E-02;  4.0000000E+04;  0.0000000E+00;  4.0017887E+04; -2.6419161E-02;  0.0000000E+00;  8.2839560E-03;  2.4363518E+03;
  3.7136215E-01;  9.9999998E-03; -2.9997510E-01;4703; -6.7165964E-03;  0.0000000E+00; -2.0348774E-03;  9.9795746E+02;  1.0000000E-01; -1.6921991E+03;3; -1.4953372E+00;  0.0000000E+00;  9.1216192E-02;0; -1.8045008E-02;  3.9820969E+04;  0.0000000E+00; -2.1462743E-01;  4.0000000E+04;  0.0000000E+00;  4.0019414E+04; -2.6720412E-02;  0.0000000E+00;  8.6754048E-03;  2.6374553E+03;
  3.7140465E-01;  9.9999998E-03; -2.8997791E-01;4704; -6.7026205E-03;  0.0000000E+00; -1.9574133E-03;  9.9803925E+02;  1.0000000E-01; -1.6244479E+03;3; -1.5044752E+00;  0.0000000E+00;  5.1270582E-02;0; -1.8119793E-02;  3.9827508E+04;  0.0000000E+00; -8.4557272E-02;  4.0000000E+04;  0.0000000E+00;  4.0018996E+04; -2.6625015E-02;  0.0000000E+00;  8.5052224E-03;  2.5499993E+03;
  3.7144762E-01;  9.9999998E-03; -2.7998087E-01;4705; -6.6701761E-03;  0.0000000E+00; -1.8605334E-03;  9.9813586E+02;  1.0000000E-01; -1.5444008E+03;3; -1.5183556E+00;  0.0000000E+00; -3.8696747E-04;0; -1.8583920E-02;  3.9835832E+04;  0.0000000E+00;  4.1570678E-02;  4.0000000E+04;  0.0000000E+00;  4.0018172E+04; -2.6522039E-02;  0.0000000E+00;  7.9381196E-03;  2.4480098E+03;
  3.8137105E-01;  9.9999998E-03; -2.9997584E-01;4764; -6.9921389E-03;  0.0000000E+00; -2.1242613E-03;  9.9791150E+02;  1.0000000E-01; -1.7302721E+03;3; -1.4953088E+00;  0.0000000E+00;  1.1296623E-01;0; -1.8627176E-02;  3.9815082E+04;  0.0000000E+00; -2.0441981E-01;  4.0000000E+04;  0.0000000E+00;  4.0019934E+04; -2.6812995E-02;  0.0000000E+00;  8.1858188E-03;  2.6830142E+03;
  3.8141790E-01;  9.9999998E-03; -2.8997874E-01;4765; -6.9750994E-03;  0.0000000E+00; -2.0520322E-03;  9.9800580E+02;  1.0000000E-01; -1.6521508E+03;3; -1.5045065E+00;  0.0000000E+00;  6.6498362E-02;0; -1.8638019E-02;  3.9823074E+04;  0.0000000E+00; -1.1181988E-01;  4.0000000E+04;  0.0000000E+00;  4.0018977E+04; -2.6743572E-02;  0.0000000E+00;  8.1055528E-03;  2.5826123E+03;
  3.8145936E-01;  9.9999998E-03; -2.7998179E-01;4766; -6.9401702E-03;  0.0000000E+00; -1.9621584E-03;  9.9811566E+02;  1.0000000E-01; -1.5611410E+03;3; -1.5187697E+00;  0.0000000E+00;  1.7785367E-02;0; -1.8984992E-02;  3.9832473E+04;  0.0000000E+00; -2.0169400E-02;  4.0000000E+04;  0.0000000E+00;  4.0018512E+04; -2.6666045E-02;  0.0000000E+00;  7.6810522E-03;  2.4591643E+03;
  3.9139721E-01;  9.9999998E-03; -2.9997635E-01;4825; -7.2867703E-03;  0.0000000E+00; -2.2162467E-03;  9.9788550E+02;  1.0000000E-01; -1.7518022E+03;3; -1.4878088E+00;  0.0000000E+00;  1.3146091E-01;0; -1.9201452E-02;  3.9811051E+04;  0.0000000E+00; -1.8608256E-01;  4.0000000E+04;  0.0000000E+00;  4.0019977E+04; -2.6944386E-02;  0.0000000E+00;  7.7429344E-03;  2.7063149E+03;
  3.9144021E-01;  9.9999998E-03; -2.8997925E-01;4826; -7.2609857E-03;  0.0000000E+00; -2.1497328E-03;  9.9798828E+02;  1.0000000E-01; -1.6666689E+03;3; -1.4991188E+00;  0.0000000E+00;  8.2115300E-02;0; -1.9143635E-02;  3.9819742E+04;  0.0000000E+00; -1.2947126E-01;  4.0000000E+04;  0.0000000E+00;  4.0019176E+04; -2.6896754E-02;  0.0000000E+00;  7.7531193E-03;  2.5989929E+03;
  3.9147604E-01;  9.9999998E-03; -2.7998218E-01;4827; -7.2199889E-03;  0.0000000E+00; -2.0668281E-03;  9.9810126E+02;  1.0000000E-01; -1.5730913E+03;3; -1.5151038E+00;  0.0000000E+00;  3.3475678E-02;0; -1.9389385E-02;  3.9829730E+04;  0.0000000E+00; -7.1850330E-02;  4.0000000E+04;  0.0000000E+00;  4.0018676E+04; -2.6841626E-02;  0.0000000E+00;  7.4522402E-03;  2.4720471E+03;
  4.0141705E-01;  9.9999998E-03; -2.9997659E-01;4886; -7.5922362E-03;  0.0000000E+00; -2.3088732E-03;  9.9786719E+02;  1.0000000E-01; -1.7670117E+03;3; -1.4761989E+00;  0.0000000E+00;  1.5254442E-01;0; -1.9771483E-02;  3.9808727E+04;  0.0000000E+00; -1.6737483E-01;  4.0000000E+04;  0.0000000E+00;  4.0020270E+04; -2.7098082E-02;  0.0000000E+00;  7.3266001E-03;  2.7236606E+03;
  4.0145311E-01;  9.9999998E-03; -2.8997946E-01;4887; -7.5542890E-03;  0.0000000E+00; -2.2491789E-03;  9.9797589E+02;  1.0000000E-01; -1.6769402E+03;3; -1.4891114E+00;  0.0000000E+00;  1.0110712E-01;0; -1.9631388E-02;  3.9817660E+04;  0.0000000E+00; -1.3993584E-01;  4.0000000E+04;  0.0000000E+00;  4.0019492E+04; -2.7070023E-02;  0.0000000E+00;  7.4386359E-03;  2.6109338E+03;
  4.0147883E-01;  9.9999998E-03; -2.7998218E-01;4888; -7.5050704E-03;  0.0000000E+00; -2.1743341E-03;  9.9808826E+02;  1.0000000E-01; -1.5838564E+03;3; -1.5069411E+00;  0.0000000E+00;  5.2334871E-02;0; -1.9770233E-02;  3.9827637E+04;  0.0000000E+00; -1.0939219E-01;  4.0000000E+04;  0.0000000E+00;  4.0018551E+04; -2.7036255E-02;  0.0000000E+00;  7.2660227E-03;  2.4865957E+03;
  4.1142410E-01;  9.9999998E-03; -2.9997680E-01;4947; -7.8992350E-03;  0.0000000E+00; -2.4000816E-03;  9.9786536E+02;  1.0000000E-01; -1.7684932E+03;3; -1.4597367E+00;  0.0000000E+00;  1.7536397E-01;0; -2.0353707E-02;  3.9807453E+04;  0.0000000E+00; -1.5388596E-01;  4.0000000E+04;  0.0000000E+00;  4.0020234E+04; -2.7260397E-02;  0.0000000E+00;  6.9066905E-03;  2.7198435E+03;
  4.1146117E-01;  9.9999998E-03; -2.8997949E-01;4948; -7.8495508E-03;  0.0000000E+00; -2.3471308E-03;  9.9796777E+02;  1.0000000E-01; -1.6836561E+03;3; -1.4751563E+00;  0.0000000E+00;  1.2522578E-01;0; -2.0136444E-02;  3.9816293E+04;  0.0000000E+00; -1.5569012E-01;  4.0000000E+04;  0.0000000E+00;  4.0019418E+04; -2.7251443E-02;  0.0000000E+00;  7.1149990E-03;  2.6179980E+03;
  4.1148707E-01;  9.9999998E-03; -2.7998206E-01;4949; -7.7925222E-03;  0.0000000E+00; -2.2804693E-03;  9.9807935E+02;  1.0000000E-01; -1.5912142E+03;3; -1.4950734E+00;  0.0000000E+00;  7.6270275E-02;0; -2.0173065E-02;  3.9826238E+04;  0.0000000E+00; -1.4731799E-01;  4.0000000E+04;  0.0000000E+00;  4.0018594E+04; -2.7239539E-02;  0.0000000E+00;  7.0664724E-03;  2.4964900E+03;
  4.2143178E-01;  9.9999998E-03; -2.9997700E-01;5008; -8.1999199E-03;  0.0000000E+00; -2.4909615E-03;  9.9787500E+02;  1.0000000E-01; -1.7605428E+03;3; -1.4385724E+00;  0.0000000E+00;  2.0107359E-01;0; -2.0919036E-02;  3.9807844E+04;  0.0000000E+00; -1.1056226E-01;  4.0000000E+04;  0.0000000E+00;  4.0020184E+04; -2.7423704E-02;  0.0000000E+00;  6.5046675E-03;  2.6974792E+03;
  4.2147905E-01;  9.9999998E-03; -2.8997958E-01;5009; -8.1412122E-03;  0.0000000E+00; -2.4438172E-03;  9.9797314E+02;  1.0000000E-01; -1.6792118E+03;3; -1.4563305E+00;  0.0000000E+00;  1.5008751E-01;0; -2.0645093E-02;  3.9816508E+04;  0.0000000E+00; -1.5403309E-01;  4.0000000E+04;  0.0000000E+00;  4.0019312E+04; -2.7434062E-02;  0.0000000E+00;  6.7889690E-03;  2.6036519E+03;
  4.2151138E-01;  9.9999998E-03; -2.7998200E-01;5010; -8.0784503E-03;  0.0000000E+00; -2.3848652E-03;  9.9808136E+02;  1.0000000E-01; -1.5895353E+03;3; -1.4793055E+00;  0.0000000E+00;  1.0343037E-01;0; -2.0590108E-02;  3.9826039E+04;  0.0000000E+00; -1.7533821E-01;  4.0000000E+04;  0.0000000E+00;  4.0018543E+04; -2.7445061E-02;  0.0000000E+00;  6.8549528E-03;  2.4905645E+03;
  4.3145823E-01;  9.9999998E-03; -2.9997739E-01;5069; -8.4892390E-03;  0.0000000E+00; -2.5798928E-03;  9.9790485E+02;  1.0000000E-01; -1.7358027E+03;3; -1.4128840E+00;  0.0000000E+00;  2.2873019E-01;0; -2.1497147E-02;  3.9810234E+04;  0.0000000E+00; -1.4068645E-02;  4.0000000E+04;  0.0000000E+00;  4.0019605E+04; -2.7586747E-02;  0.0000000E+00;  6.0896003E-03;  2.6454646E+03;
  4.3151054E-01;  9.9999998E-03; -2.8997988E-01;5070; -8.4254816E-03;  0.0000000E+00; -2.5386245E-03;  9.9800006E+02;  1.0000000E-01; -1.6568914E+03;3; -1.4341127E+00;  0.0000000E+00;  1.8268447E-01;0; -2.1161847E-02;  3.9818637E+04;  0.0000000E+00; -1.1069922E-01;  4.0000000E+04;  0.0000000E+00;  4.0019004E+04; -2.7616531E-02;  0.0000000E+00;  6.4546829E-03;  2.5534670E+03;
  4.3154627E-01;  9.9999998E-03; -2.7998218E-01;5071; -8.3594956E-03;  0.0000000E+00; -2.4875612E-03;  9.9810223E+02;  1.0000000E-01; -1.5722518E+03;3; -1.4595705E+00;  0.0000000E+00;  1.3494030E-01;0; -2.1015096E-02;  3.9828062E+04;  0.0000000E+00; -1.7002933E-01;  4.0000000E+04;  0.0000000E+00;  4.0018289E+04; -2.7650945E-02;  0.0000000E+00;  6.6358494E-03;  2.4529902E+03;
  4.4151473E-01;  9.9999998E-03; -2.9997793E-01;5130; -8.7643648E-03;  0.0000000E+00; -2.6701407E-03;  9.9795544E+02;  1.0000000E-01; -1.6938781E+03;3; -1.3840777E+00;  0.0000000E+00;  2.6069984E-01;0; -2.2034653E-02;  3.9815277E+04;  0.0000000E+00;  1.1637805E-01;  4.0000000E+04;  0.0000000E+00;  4.0019133E+04; -2.7753476E-02;  0.0000000E+00;  5.7188240E-03;  2.5737615E+03;
  4.4156343E-01;  9.9999998E-03; -2.8998038E-01;5131; -8.7002600E-03;  0.0000000E+00; -2.6332759E-03;  9.9804529E+02;  1.0000000E-01; -1.6194603E+03;3; -1.4074557E+00;  0.0000000E+00;  2.1559110E-01;0; -2.1664614E-02;  3.9822977E+04;  0.0000000E+00; -3.1997751E-02;  4.0000000E+04;  0.0000000E+00;  4.0018590E+04; -2.7802451E-02;  0.0000000E+00;  6.1378367E-03;  2.4776335E+03;
  4.4159636E-01;  9.9999998E-03; -2.7998269E-01;5132; -8.6341389E-03;  0.0000000E+00; -2.5880579E-03;  9.9814813E+02;  1.0000000E-01; -1.5342283E+03;3; -1.4356995E+00;  0.0000000E+00;  1.6890869E-01;0; -2.1455731E-02;  3.9832379E+04;  0.0000000E+00; -1.3030820E-01;  4.0000000E+04;  0.0000000E+00;  4.0017656E+04; -2.7860010E-02;  0.0000000E+00;  6.4042779E-03;  2.3756411E+03;
  4.5161164E-01;  9.9999998E-03; -2.9997867E-01;5191; -9.0261875E-03;  0.0000000E+00; -2.7603095E-03;  9.9802789E+02;  1.0000000E-01; -1.6338303E+03;3; -1.3504997E+00;  0.0000000E+00;  2.9665813E-01;0; -2.2565417E-02;  3.9822289E+04;  0.0000000E+00;  2.4755703E-01;  4.0000000E+04;  0.0000000E+00;  4.0018094E+04; -2.7930886E-02;  0.0000000E+00;  5.3654681E-03;  2.4851262E+03;
  4.5164901E-01;  9.9999998E-03; -2.8998110E-01;5192; -8.9660054E-03;  0.0000000E+00; -2.7286345E-03;  9.9811316E+02;  1.0000000E-01; -1.5632151E+03;3; -1.3769368E+00;  0.0000000E+00;  2.5372347E-01;0; -2.2145303E-02;  3.9829707E+04;  0.0000000E+00;  6.1452422E-02;  4.0000000E+04;  0.0000000E+00;  4.0017668E+04; -2.7998082E-02;  0.0000000E+00;  5.8527789E-03;  2.3758196E+03;
  4.5167047E-01;  9.9999998E-03; -2.7998343E-01;5193; -8.9026047E-03;  0.0000000E+00; -2.6882268E-03;  9.9821277E+02;  1.0000000E-01; -1.4806989E+03;3; -1.4075146E+00;  0.0000000E+00;  2.0632125E-01;0; -2.1890994E-02;  3.9838492E+04;  0.0000000E+00; -6.8415083E-02;  4.0000000E+04;  0.0000000E+00;  4.0017008E+04; -2.8077481E-02;  0.0000000E+00;  6.1864862E-03;  2.2722075E+03;
  4.6170092E-01;  9.9999998E-03; -2.9997948E-01;5252; -9.2779892E-03;  0.0000000E+00; -2.8489339E-03;  9.9810358E+02;  1.0000000E-01; -1.5711654E+03;3; -1.3131329E+00;  0.0000000E+00;  3.3663198E-01;0; -2.3111897E-02;  3.9829957E+04;  0.0000000E+00;  3.5129359E-01;  4.0000000E+04;  0.0000000E+00;  4.0017289E+04; -2.8124318E-02;  0.0000000E+00;  5.0124209E-03;  2.3977651E+03;
  4.6172598E-01;  9.9999998E-03; -2.8998193E-01;5253; -9.2246626E-03;  0.0000000E+00; -2.8214094E-03;  9.9818958E+02;  1.0000000E-01; -1.4999082E+03;3; -1.3414575E+00;  0.0000000E+00;  2.9191077E-01;0; -2.2658309E-02;  3.9837207E+04;  0.0000000E+00;  1.5162431E-01;  4.0000000E+04;  0.0000000E+00;  4.0016891E+04; -2.8208319E-02;  0.0000000E+00;  5.5500097E-03;  2.2687983E+03;
  4.6173841E-01;  9.9999998E-03; -2.7998430E-01;5254; -9.1662239E-03;  0.0000000E+00; -2.7862345E-03;  9.9828424E+02;  1.0000000E-01; -1.4214906E+03;3; -1.3757358E+00;  0.0000000E+00;  2.4821977E-01;0; -2.2346692E-02;  3.9845316E+04;  0.0000000E+00;  3.9711110E-03;  4.0000000E+04;  0.0000000E+00;  4.0016000E+04; -2.8307453E-02;  0.0000000E+00;  5.9607611E-03;  2.1621953E+03;
  4.7173229E-01;  9.9999998E-03; -2.9998013E-01;5313; -9.5254788E-03;  0.0000000E+00; -2.9369954E-03;  9.9816595E+02;  1.0000000E-01; -1.5194633E+03;3; -1.2717974E+00;  0.0000000E+00;  3.7905461E-01;0; -2.3653030E-02;  3.9836031E+04;  0.0000000E+00;  3.8605696E-01;  4.0000000E+04;  0.0000000E+00;  4.0016820E+04; -2.8335342E-02;  0.0000000E+00;  4.6823113E-03;  2.3134670E+03;
  4.7174636E-01;  9.9999998E-03; -2.8998256E-01;5314; -9.4801225E-03;  0.0000000E+00; -2.9100443E-03;  9.9824585E+02;  1.0000000E-01; -1.4532922E+03;3; -1.3024094E+00;  0.0000000E+00;  3.3575445E-01;0; -2.3220804E-02;  3.9842949E+04;  0.0000000E+00;  2.0404099E-01;  4.0000000E+04;  0.0000000E+00;  4.0016066E+04; -2.8434254E-02;  0.0000000E+00;  5.2134497E-03;  2.1879043E+03;
  4.7175342E-01;  9.9999998E-03; -2.7998501E-01;5315; -9.4277123E-03;  0.0000000E+00; -2.8754883E-03;  9.9833783E+02;  1.0000000E-01; -1.3770968E+03;3; -1.3399947E+00;  0.0000000E+00;  2.8963220E-01;0; -2.2914000E-02;  3.9850750E+04;  0.0000000E+00;  6.1104804E-02;  4.0000000E+04;  0.0000000E+00;  4.0015609E+04; -2.8550584E-02;  0.0000000E+00;  5.6365835E-03;  2.0762373E+03;
  4.8170912E-01;  9.9999998E-03; -2.9998046E-01;5374; -9.7759208E-03;  0.0000000E+00; -3.0261315E-03;  9.9819244E+02;  1.0000147E-01; -1.4975378E+03;3; -1.2256985E+00;  0.0000000E+00;  4.3069750E-01;0; -2.4155548E-02;  3.9838020E+04;  0.0000000E+00;  3.3678147E-01;  4.0000000E+04;  0.0000000E+00;  4.0016188E+04; -2.8560866E-02;  0.0000000E+00;  4.4053183E-03;  2.2505417E+03;
  4.8171780E-01;  9.9999998E-03; -2.8998291E-01;5375; -9.7379256E-03;  0.0000000E+00; -3.0023514E-03;  9.9827216E+02;  1.0000147E-01; -1.4314657E+03;3; -1.2605333E+00;  0.0000000E+00;  3.8259014E-01;0; -2.3706660E-02;  3.9844953E+04;  0.0000000E+00;  1.9475439E-01;  4.0000000E+04;  0.0000000E+00;  4.0015832E+04; -2.8673014E-02;  0.0000000E+00;  4.9663535E-03;  2.1407036E+03;
  4.8171979E-01;  9.9999998E-03; -2.7998540E-01;5376; -9.6911239E-03;  0.0000000E+00; -2.9672338E-03;  9.9836346E+02;  1.0000148E-01; -1.3558629E+03;3; -1.3010362E+00;  0.0000000E+00;  3.3553022E-01;0; -2.3428876E-02;  3.9852539E+04;  0.0000000E+00;  7.6392107E-02;  4.0000000E+04;  0.0000000E+00;  4.0015109E+04; -2.8804006E-02;  0.0000000E+00;  5.3751296E-03;  2.0310229E+03;
  4.9169108E-01;  9.9999998E-03; -2.7998513E-01;5437; -9.9616572E-03;  0.0000000E+00; -3.0655474E-03;  9.9832269E+02;  1.0000204E-01; -1.3896398E+03;3; -1.2580682E+00;  0.0000000E+00;  3.8946998E-01;0; -2.3833573E-02;  3.9848820E+04;  0.0000000E+00;  3.9247144E-02;  4.0000000E+04;  0.0000000E+00;  4.0015504E+04; -2.9061528E-02;  0.0000000E+00;  5.2279560E-03;  2.0804324E+03;
  4.9168634E-01;  9.9999998E-03; -2.8998271E-01;5436; -1.0003946E-02;  0.0000000E+00; -3.0975314E-03;  9.9823248E+02;  1.0000199E-01; -1.4643536E+03;3; -1.2141536E+00;  0.0000000E+00;  4.3753004E-01;0; -2.4129754E-02;  3.9841086E+04;  0.0000000E+00;  1.1971697E-01;  4.0000000E+04;  0.0000000E+00;  4.0016160E+04; -2.8917620E-02;  0.0000000E+00;  4.7878656E-03;  2.1774763E+03;
  4.9168250E-01;  9.9999998E-03; -2.9998025E-01;5435; -1.0036629E-02;  0.0000000E+00; -3.1184058E-03;  9.9814966E+02;  1.0000207E-01; -1.5329937E+03;3; -1.1749746E+00;  0.0000000E+00;  4.8591968E-01;0; -2.4590638E-02;  3.9834098E+04;  0.0000000E+00;  2.0968908E-01;  4.0000000E+04;  0.0000000E+00;  4.0016660E+04; -2.8793558E-02;  0.0000000E+00;  4.2029205E-03;  2.2696787E+03;
  5.0177556E-01;  9.9999998E-03; -2.9997960E-01;5496; -1.0315885E-02;  0.0000000E+00; -3.2123295E-03;  9.9805023E+02;  1.0000388E-01; -1.6153617E+03;3; -1.1201658E+00;  0.0000000E+00;  5.4412472E-01;0; -2.4998223E-02;  3.9824062E+04;  0.0000000E+00;  6.4271025E-02;  4.0000000E+04;  0.0000000E+00;  4.0017609E+04; -2.9023776E-02;  0.0000000E+00;  4.0255524E-03;  2.3827476E+03;
  5.0176626E-01;  9.9999998E-03; -2.8998202E-01;5497; -1.0284905E-02;  0.0000000E+00; -3.1969165E-03;  9.9813922E+02;  1.0000371E-01; -1.5416354E+03;3; -1.1628487E+00;  0.0000000E+00;  4.9856266E-01;0; -2.4478493E-02;  3.9831293E+04;  0.0000000E+00;  1.3854685E-02;  4.0000000E+04;  0.0000000E+00;  4.0017152E+04; -2.9158859E-02;  0.0000000E+00;  4.6803649E-03;  2.2968806E+03;
  5.0176132E-01;  9.9999998E-03; -2.7998441E-01;5498; -1.0245105E-02;  0.0000000E+00; -3.1690679E-03;  9.9823328E+02;  1.0000388E-01; -1.4637117E+03;3; -1.2108700E+00;  0.0000000E+00;  4.4973794E-01;0; -2.4155675E-02;  3.9839375E+04;  0.0000000E+00; -3.2403927E-02;  4.0000000E+04;  0.0000000E+00;  4.0016570E+04; -2.9314352E-02;  0.0000000E+00;  5.1586772E-03;  2.2031853E+03;
  5.1174843E-01;  9.9999998E-03; -2.9997861E-01;5557; -1.0609292E-02;  0.0000000E+00; -3.3083903E-03;  9.9790894E+02;  1.0000626E-01; -1.7323955E+03;3; -1.0608540E+00;  0.0000000E+00;  6.0991991E-01;0; -2.5301615E-02;  3.9809168E+04;  0.0000000E+00; -4.0297773E-02;  4.0000000E+04;  0.0000000E+00;  4.0019074E+04; -2.9231628E-02;  0.0000000E+00;  3.9300132E-03;  2.5749707E+03;
  5.1172698E-01;  9.9999998E-03; -2.8998101E-01;5558; -1.0576863E-02;  0.0000000E+00; -3.2947983E-03;  9.9800098E+02;  1.0000617E-01; -1.6561506E+03;3; -1.1082517E+00;  0.0000000E+00;  5.6114447E-01;0; -2.4791308E-02;  3.9816910E+04;  0.0000000E+00; -6.6746302E-02;  4.0000000E+04;  0.0000000E+00;  4.0018430E+04; -2.9377367E-02;  0.0000000E+00;  4.5860587E-03;  2.4878572E+03;
  5.1171768E-01;  9.9999998E-03; -2.7998325E-01;5559; -1.0537632E-02;  0.0000000E+00; -3.2714903E-03;  9.9810028E+02;  1.0000617E-01; -1.5738815E+03;3; -1.1601164E+00;  0.0000000E+00;  5.1368958E-01;0; -2.4435028E-02;  3.9825531E+04;  0.0000000E+00; -9.0359725E-02;  4.0000000E+04;  0.0000000E+00;  4.0017734E+04; -2.9544277E-02;  0.0000000E+00;  5.1092496E-03;  2.3905137E+03;
  5.2170664E-01;  9.9999998E-03; -2.9997754E-01;5618; -1.0916847E-02;  0.0000000E+00; -3.4023346E-03;  9.9774475E+02;  1.0001039E-01; -1.8684410E+03;3; -9.9805444E-01;  0.0000000E+00;  6.7982733E-01;0; -2.5583789E-02;  3.9790609E+04;  0.0000000E+00; -1.1676802E-01;  4.0000000E+04;  0.0000000E+00;  4.0020613E+04; -2.9406544E-02;  0.0000000E+00;  3.8227551E-03;  2.8054109E+03;
  5.2168012E-01;  9.9999998E-03; -2.8997982E-01;5619; -1.0880771E-02;  0.0000000E+00; -3.3933632E-03;  9.9784259E+02;  1.0001048E-01; -1.7873568E+03;3; -1.0497609E+00;  0.0000000E+00;  6.3267183E-01;0; -2.5033046E-02;  3.9799102E+04;  0.0000000E+00; -1.2610069E-01;  4.0000000E+04;  0.0000000E+00;  4.0020039E+04; -2.9563436E-02;  0.0000000E+00;  4.5303898E-03;  2.7108335E+03;
  5.2167004E-01;  9.9999998E-03; -2.7998191E-01;5620; -1.0840755E-02;  0.0000000E+00; -3.3736671E-03;  9.9794611E+02;  1.0001054E-01; -1.7016309E+03;3; -1.1062630E+00;  0.0000000E+00;  5.8396173E-01;0; -2.4664300E-02;  3.9808133E+04;  0.0000000E+00; -1.3645597E-01;  4.0000000E+04;  0.0000000E+00;  4.0019227E+04; -2.9742312E-02;  0.0000000E+00;  5.0780126E-03;  2.6080667E+03;
  5.3170156E-01;  9.9999998E-03; -2.9997680E-01;5679; -1.1232517E-02;  0.0000000E+00; -3.4963053E-03;  9.9760205E+02;  1.0001730E-01; -1.9866599E+03;3; -9.3123305E-01;  0.0000000E+00;  7.5799626E-01;0; -2.5804069E-02;  3.9772133E+04;  0.0000000E+00; -1.5790164E-01;  4.0000000E+04;  0.0000000E+00;  4.0022176E+04; -2.9540604E-02;  0.0000000E+00;  3.7365346E-03;  3.0057327E+03;
  5.3166825E-01;  9.9999998E-03; -2.8997886E-01;5680; -1.1192267E-02;  0.0000000E+00; -3.4892627E-03;  9.9770068E+02;  1.0001743E-01; -1.9049338E+03;3; -9.8718649E-01;  0.0000000E+00;  7.0826375E-01;0; -2.5261033E-02;  3.9780488E+04;  0.0000000E+00; -1.5197013E-01;  4.0000000E+04;  0.0000000E+00;  4.0021566E+04; -2.9709240E-02;  0.0000000E+00;  4.4482071E-03;  2.9070811E+03;
  5.3165394E-01;  9.9999998E-03; -2.7998075E-01;5681; -1.1150870E-02;  0.0000000E+00; -3.4738858E-03;  9.9781061E+02;  1.0001760E-01; -1.8138746E+03;3; -1.0480273E+00;  0.0000000E+00;  6.5834469E-01;0; -2.4866292E-02;  3.9790270E+04;  0.0000000E+00; -1.5914352E-01;  4.0000000E+04;  0.0000000E+00;  4.0020656E+04; -2.9901000E-02;  0.0000000E+00;  5.0347070E-03;  2.7949211E+03;
  5.4173553E-01;  9.9999998E-03; -2.9997692E-01;5740; -1.1546327E-02;  0.0000000E+00; -3.5867374E-03;  9.9753955E+02;  1.0002959E-01; -2.0384115E+03;3; -8.5926926E-01;  0.0000000E+00;  8.3897585E-01;0; -2.6022043E-02;  3.9756105E+04;  0.0000000E+00; -1.7758113E-01;  4.0000000E+04;  0.0000000E+00;  4.0022703E+04; -2.9632250E-02;  0.0000000E+00;  3.6102065E-03;  3.0893091E+03;
  5.4169261E-01;  9.9999998E-03; -2.8997862E-01;5741; -1.1503365E-02;  0.0000000E+00; -3.5839328E-03;  9.9763049E+02;  1.0002951E-01; -1.9631050E+03;3; -9.2088252E-01;  0.0000000E+00;  7.9155463E-01;0; -2.5442889E-02;  3.9764383E+04;  0.0000000E+00; -1.4709215E-01;  4.0000000E+04;  0.0000000E+00;  4.0022195E+04; -2.9812885E-02;  0.0000000E+00;  4.3699960E-03;  2.9984246E+03;
  5.4167187E-01;  9.9999998E-03; -2.7998024E-01;5742; -1.1461505E-02;  0.0000000E+00; -3.5725918E-03;  9.9774237E+02;  1.0002955E-01; -1.8704163E+03;3; -9.8665565E-01;  0.0000000E+00;  7.4026823E-01;0; -2.5028896E-02;  3.9774340E+04;  0.0000000E+00; -1.5539928E-01;  4.0000000E+04;  0.0000000E+00;  4.0021191E+04; -3.0018331E-02;  0.0000000E+00;  4.9894359E-03;  2.8826113E+03;
  5.5180341E-01;  9.9999998E-03; -2.9997817E-01;5801; -1.1848265E-02;  0.0000000E+00; -3.6754012E-03;  9.9757843E+02;  1.0004847E-01; -2.0062148E+03;3; -7.8432208E-01;  0.0000000E+00;  9.2732602E-01;0; -2.6207369E-02;  3.9744641E+04;  0.0000000E+00; -2.0847638E-01;  4.0000000E+04;  0.0000000E+00;  4.0022230E+04; -2.9688647E-02;  0.0000000E+00;  3.4812775E-03;  3.0303330E+03;
  5.5175400E-01;  9.9999998E-03; -2.8997946E-01;5802; -1.1806212E-02;  0.0000000E+00; -3.6751148E-03;  9.9766260E+02;  1.0004845E-01; -1.9364884E+03;3; -8.5132241E-01;  0.0000000E+00;  8.8080806E-01;0; -2.5622720E-02;  3.9751953E+04;  0.0000000E+00; -1.4278750E-01;  4.0000000E+04;  0.0000000E+00;  4.0021496E+04; -2.9880805E-02;  0.0000000E+00;  4.2580846E-03;  2.9434958E+03;
  5.5172998E-01;  9.9999998E-03; -2.7998069E-01;5803; -1.1766218E-02;  0.0000000E+00; -3.6683572E-03;  9.9777661E+02;  1.0004848E-01; -1.8420220E+03;3; -9.2154545E-01;  0.0000000E+00;  8.3078760E-01;0; -2.5177449E-02;  3.9761770E+04;  0.0000000E+00; -1.5030187E-01;  4.0000000E+04;  0.0000000E+00;  4.0020684E+04; -3.0099915E-02;  0.0000000E+00;  4.9224654E-03;  2.8239944E+03;
  5.6191570E-01;  9.9999998E-03; -2.9998097E-01;5862; -1.2133164E-02;  0.0000000E+00; -3.7598771E-03;  9.9773755E+02;  1.0007981E-01; -1.8744161E+03;3; -7.0578927E-01;  0.0000000E+00;  1.0226315E+00;0; -2.6415789E-02;  3.9734543E+04;  0.0000000E+00; -3.6307481E-01;  4.0000000E+04;  0.0000000E+00;  4.0020195E+04; -2.9724190E-02;  0.0000000E+00;  3.3084003E-03;  2.8227805E+03;
  5.6186444E-01;  9.9999998E-03; -2.8998163E-01;5863; -1.2095879E-02;  0.0000000E+00; -3.7648629E-03;  9.9781171E+02;  1.0007969E-01; -1.8129364E+03;3; -7.7805620E-01;  0.0000000E+00;  9.7990489E-01;0; -2.5775902E-02;  3.9740543E+04;  0.0000000E+00; -2.4084927E-01;  4.0000000E+04;  0.0000000E+00;  4.0019785E+04; -2.9926036E-02;  0.0000000E+00;  4.1501336E-03;  2.7350032E+03;
  5.6183892E-01;  9.9999998E-03; -2.7998227E-01;5864; -1.2060513E-02;  0.0000000E+00; -3.7607988E-03;  9.9791425E+02;  1.0007984E-01; -1.7280005E+03;3; -8.5278130E-01;  0.0000000E+00;  9.2578143E-01;0; -2.5330668E-02;  3.9749562E+04;  0.0000000E+00; -2.1889807E-01;  4.0000000E+04;  0.0000000E+00;  4.0018871E+04; -3.0157181E-02;  0.0000000E+00;  4.8265127E-03;  2.6278828E+03;
  5.7206112E-01;  9.9999998E-03; -2.9998535E-01;5923; -1.2401606E-02;  0.0000000E+00; -3.8385317E-03;  9.9798926E+02;  1.0013096E-01; -1.6658788E+03;3; -6.2407464E-01;  0.0000000E+00;  1.1231879E+00;0; -2.6691260E-02;  3.9716594E+04;  0.0000000E+00; -7.5829995E-01;  4.0000000E+04;  0.0000000E+00;  4.0017133E+04; -2.9754326E-02;  0.0000000E+00;  3.0630666E-03;  2.6186382E+03;
  5.7202089E-01;  9.9999998E-03; -2.8998524E-01;5924; -1.2372205E-02;  0.0000000E+00; -3.8455857E-03;  9.9805182E+02;  1.0013096E-01; -1.6140284E+03;3; -7.0118970E-01;  0.0000000E+00;  1.0802718E+00;0; -2.6046937E-02;  3.9721516E+04;  0.0000000E+00; -5.6760722E-01;  4.0000000E+04;  0.0000000E+00;  4.0016613E+04; -2.9962946E-02;  0.0000000E+00;  3.9160089E-03;  2.4820403E+03;
  5.7200253E-01;  9.9999998E-03; -2.7998516E-01;5925; -1.2343958E-02;  0.0000000E+00; -3.8431534E-03;  9.9814600E+02;  1.0013135E-01; -1.5360060E+03;3; -7.8048372E-01;  0.0000000E+00;  1.0264342E+00;0; -2.5599301E-02;  3.9730086E+04;  0.0000000E+00; -4.6819177E-01;  4.0000000E+04;  0.0000000E+00;  4.0015922E+04; -3.0203188E-02;  0.0000000E+00;  4.6038860E-03;  2.3545269E+03;
  5.8219928E-01;  9.9999998E-03; -2.9999107E-01;5984; -1.2657623E-02;  0.0000000E+00; -3.9090612E-03;  9.9824707E+02;  1.0021381E-01; -1.4522552E+03;3; -5.3923464E-01;  0.0000000E+00;  1.2329017E+00;0; -2.7076511E-02;  3.9675414E+04;  0.0000000E+00; -1.3153585E+00;  4.0000000E+04;  0.0000000E+00;  4.0013504E+04; -2.9789330E-02;  0.0000000E+00;  2.7128193E-03;  2.7183755E+03;
  5.8218127E-01;  9.9999998E-03; -2.8999004E-01;5985; -1.2638075E-02;  0.0000000E+00; -3.9126556E-03;  9.9829987E+02;  1.0021405E-01; -1.4085527E+03;3; -6.2072027E-01;  0.0000000E+00;  1.1839445E+00;0; -2.6512839E-02;  3.9679375E+04;  0.0000000E+00; -1.0632331E+00;  4.0000000E+04;  0.0000000E+00;  4.0013191E+04; -3.0001447E-02;  0.0000000E+00;  3.4886077E-03;  2.4684697E+03;
  5.8217746E-01;  9.9999998E-03; -2.7998903E-01;5986; -1.2618663E-02;  0.0000000E+00; -3.8997408E-03;  9.9838708E+02;  1.0021434E-01; -1.3362585E+03;3; -7.0549434E-01;  0.0000000E+00;  1.1212924E+00;0; -2.6219467E-02;  3.9686930E+04;  0.0000000E+00; -8.5312259E-01;  4.0000000E+04;  0.0000000E+00;  4.0012684E+04; -3.0246988E-02;  0.0000000E+00;  4.0275212E-03;  2.2264846E+03;
  5.9230173E-01;  9.9999998E-03; -2.9999796E-01;6045; -1.2906330E-02;  0.0000000E+00; -3.9762803E-03;  9.9840863E+02;  1.0034749E-01; -1.3184319E+03;3; -4.5260677E-01;  0.0000000E+00;  1.3486651E+00;0; -2.7489187E-02;  3.9586086E+04;  0.0000000E+00; -1.8134230E+00;  4.0000000E+04;  0.0000000E+00;  4.0010855E+04; -2.9829862E-02;  0.0000000E+00;  2.3406737E-03;  3.0967981E+03;
  5.9229660E-01;  9.9999998E-03; -2.8999576E-01;6046; -1.2897305E-02;  0.0000000E+00; -3.9755278E-03;  9.9845587E+02;  1.0034800E-01; -1.2792725E+03;3; -5.3819209E-01;  0.0000000E+00;  1.2882822E+00;0; -2.7022187E-02;  3.9589406E+04;  0.0000000E+00; -1.4597859E+00;  4.0000000E+04;  0.0000000E+00;  4.0010508E+04; -3.0042533E-02;  0.0000000E+00;  3.0203452E-03;  2.6822854E+03;
  5.9229809E-01;  9.9999998E-03; -2.7999350E-01;6047; -1.2887054E-02;  0.0000000E+00; -3.9511467E-03;  9.9853369E+02;  1.0034849E-01; -1.2148298E+03;3; -6.2737983E-01;  0.0000000E+00;  1.2258645E+00;0; -2.6881577E-02;  3.9595938E+04;  0.0000000E+00; -1.1233119E+00;  4.0000000E+04;  0.0000000E+00;  4.0009875E+04; -3.0289743E-02;  0.0000000E+00;  3.4081656E-03;  2.2727908E+03;
  6.0231167E-01;  9.9999998E-03; -3.0000588E-01;6106; -1.3148103E-02;  0.0000000E+00; -4.0461947E-03;  9.9836774E+02;  1.0056060E-01; -1.3523074E+03;3; -3.6320087E-01;  0.0000000E+00;  1.4607452E+00;0; -2.7819570E-02;  3.9418094E+04;  0.0000000E+00; -1.6452513E+00;  4.0000000E+04;  0.0000000E+00;  4.0009762E+04; -2.9866600E-02;  0.0000000E+00;  2.0470303E-03;  2.9466550E+03;
  6.0231394E-01;  9.9999998E-03; -2.9000238E-01;6107; -1.3153040E-02;  0.0000000E+00; -4.0446287E-03;  9.9842291E+02;  1.0056145E-01; -1.3065803E+03;3; -4.5389056E-01;  0.0000000E+00;  1.4028282E+00;0; -2.7383324E-02;  3.9421785E+04;  0.0000000E+00; -1.3290310E+00;  4.0000000E+04;  0.0000000E+00;  4.0009012E+04; -3.0077089E-02;  0.0000000E+00;  2.6937658E-03;  2.5780637E+03;
  6.0231864E-01;  9.9999998E-03; -2.7999842E-01;6108; -1.3153083E-02;  0.0000000E+00; -4.0151542E-03;  9.9849805E+02;  1.0056195E-01; -1.2443599E+03;3; -5.4784018E-01;  0.0000000E+00;  1.3420544E+00;0; -2.7319483E-02;  3.9427613E+04;  0.0000000E+00; -1.0062917E+00;  4.0000000E+04;  0.0000000E+00;  4.0008801E+04; -3.0323006E-02;  0.0000000E+00;  3.0035221E-03;  2.1939207E+03;
  6.1225092E-01;  9.9999998E-03; -3.0001551E-01;6167; -1.3397882E-02;  0.0000000E+00; -4.1208128E-03;  9.9811041E+02;  1.0089329E-01; -1.5654866E+03;3; -2.7179560E-01;  0.0000000E+00;  1.5832578E+00;0; -2.8011052E-02;  3.9140285E+04;  0.0000000E+00; -9.3791163E-01;  4.0000000E+04;  0.0000000E+00;  4.0010195E+04; -2.9877214E-02;  0.0000000E+00;  1.8661610E-03;  2.5435933E+03;
  6.1226267E-01;  9.9999998E-03; -2.9001057E-01;6168; -1.3416787E-02;  0.0000000E+00; -4.1221064E-03;  9.9817902E+02;  1.0089496E-01; -1.5086487E+03;3; -3.6807445E-01;  0.0000000E+00;  1.5301657E+00;0; -2.7553201E-02;  3.9144523E+04;  0.0000000E+00; -8.0004275E-01;  4.0000000E+04;  0.0000000E+00;  4.0009535E+04; -3.0085484E-02;  0.0000000E+00;  2.5322824E-03;  2.3978220E+03;
  6.1227238E-01;  9.9999998E-03; -2.8000465E-01;6169; -1.3426651E-02;  0.0000000E+00; -4.0936302E-03;  9.9826172E+02;  1.0089624E-01; -1.4401569E+03;3; -4.6698368E-01;  0.0000000E+00;  1.4693999E+00;0; -2.7498515E-02;  3.9149973E+04;  0.0000000E+00; -6.0519296E-01;  4.0000000E+04;  0.0000000E+00;  4.0008852E+04; -3.0329259E-02;  0.0000000E+00;  2.8307438E-03;  2.1864648E+03;
  6.2213719E-01;  9.9999998E-03; -3.0002829E-01;6228; -1.3675800E-02;  0.0000000E+00; -4.1989195E-03;  9.9771674E+02;  1.0139926E-01; -1.8916501E+03;3; -1.7887932E-01;  0.0000000E+00;  1.7156568E+00;0; -2.8062413E-02;  3.8722086E+04;  0.0000000E+00; -1.3798369E-01;  4.0000000E+04;  0.0000000E+00;  4.0010777E+04; -2.9833946E-02;  0.0000000E+00;  1.7715333E-03;  2.7276919E+03;
  6.2215739E-01;  9.9999998E-03; -2.9002199E-01;6229; -1.3702692E-02;  0.0000000E+00; -4.2041452E-03;  9.9781232E+02;  1.0140163E-01; -1.8124426E+03;3; -2.8008321E-01;  0.0000000E+00;  1.6652910E+00;0; -2.7578063E-02;  3.8727180E+04;  0.0000000E+00; -1.7668638E-01;  4.0000000E+04;  0.0000000E+00;  4.0010168E+04; -3.0043300E-02;  0.0000000E+00;  2.4652379E-03;  2.6482542E+03;
  6.2217230E-01;  9.9999998E-03; -2.8001407E-01;6230; -1.3718378E-02;  0.0000000E+00; -4.1834754E-03;  9.9790942E+02;  1.0140407E-01; -1.7320004E+03;3; -3.8485759E-01;  0.0000000E+00;  1.6051148E+00;0; -2.7449876E-02;  3.8733234E+04;  0.0000000E+00; -1.2475307E-01;  4.0000000E+04;  0.0000000E+00;  4.0009348E+04; -3.0287091E-02;  0.0000000E+00;  2.8372151E-03;  2.5342339E+03;
  6.3195491E-01;  9.9999998E-03; -3.0004624E-01;6289; -1.3993220E-02;  0.0000000E+00; -4.2793821E-03;  9.9735248E+02;  1.0213719E-01; -2.1934192E+03;3; -8.3543673E-02;  0.0000000E+00;  1.8504461E+00;0; -2.7980719E-02;  3.8138965E+04;  0.0000000E+00;  1.7588902E-01;  4.0000000E+04;  0.0000000E+00;  4.0009879E+04; -2.9717183E-02;  0.0000000E+00;  1.7364639E-03;  3.2587805E+03;
  6.3198614E-01;  9.9999998E-03; -2.9003879E-01;6290; -1.4017664E-02;  0.0000000E+00; -4.2879679E-03;  9.9748059E+02;  1.0214166E-01; -2.0872988E+03;3; -1.9129597E-01;  0.0000000E+00;  1.8047929E+00;0; -2.7488284E-02;  3.8145289E+04;  0.0000000E+00;  8.5538857E-02;  4.0000000E+04;  0.0000000E+00;  4.0009078E+04; -2.9932048E-02;  0.0000000E+00;  2.4437648E-03;  3.1248657E+03;
  6.3200825E-01;  9.9999998E-03; -2.8002924E-01;6291; -1.4033005E-02;  0.0000000E+00; -4.2779008E-03;  9.9760345E+02;  1.0214505E-01; -1.9854746E+03;3; -3.0172080E-01;  0.0000000E+00;  1.7488881E+00;0; -2.7255025E-02;  3.8152625E+04;  0.0000000E+00;  1.1283762E-01;  4.0000000E+04;  0.0000000E+00;  4.0007906E+04; -3.0179862E-02;  0.0000000E+00;  2.9248376E-03;  2.9944663E+03;
  6.4174718E-01;  9.9999998E-03; -3.0007136E-01;6350; -1.4340078E-02;  0.0000000E+00; -4.3583005E-03;  9.9719794E+02;  1.0316130E-01; -2.3214651E+03;3;  1.3015512E-02;  0.0000000E+00;  1.9890175E+00;0; -2.7834570E-02;  3.7378066E+04;  0.0000000E+00; -9.7806919E-01;  4.0000000E+04;  0.0000000E+00;  4.0005012E+04; -2.9522981E-02;  0.0000000E+00;  1.6884122E-03;  3.7933806E+03;
  6.4178461E-01;  9.9999998E-03; -2.9006308E-01;6351; -1.4353481E-02;  0.0000000E+00; -4.3700328E-03;  9.9735583E+02;  1.0316780E-01; -2.1906538E+03;3; -9.9716797E-02;  0.0000000E+00;  1.9460169E+00;0; -2.7343567E-02;  3.7385027E+04;  0.0000000E+00; -7.6879489E-01;  4.0000000E+04;  0.0000000E+00;  4.0003684E+04; -2.9746039E-02;  0.0000000E+00;  2.4024718E-03;  3.5207998E+03;
  6.4181054E-01;  9.9999998E-03; -2.8005254E-01;6352; -1.4363930E-02;  0.0000000E+00; -4.3714833E-03;  9.9751129E+02;  1.0317304E-01; -2.0618674E+03;3; -2.1702139E-01;  0.0000000E+00;  1.8980355E+00;0; -2.6993984E-02;  3.7393234E+04;  0.0000000E+00; -4.3201053E-01;  4.0000000E+04;  0.0000000E+00;  4.0002449E+04; -3.0001957E-02;  0.0000000E+00;  3.0079726E-03;  3.2208064E+03;
  6.5160352E-01;  9.9999998E-03; -3.0010453E-01;6411; -1.4674624E-02;  0.0000000E+00; -4.4331537E-03;  9.9730194E+02;  1.0450064E-01; -2.2352947E+03;3;  1.1270954E-01;  0.0000000E+00;  2.1236346E+00;0; -2.7690308E-02;  3.6438895E+04;  0.0000000E+00; -4.0928321E+00;  4.0000000E+04;  0.0000000E+00;  3.9995332E+04; -2.9253144E-02;  0.0000000E+00;  1.5628355E-03;  7.1780635E+03;
  6.5162683E-01;  9.9999998E-03; -2.9009569E-01;6412; -1.4682928E-02;  0.0000000E+00; -4.4456953E-03;  9.9748163E+02;  1.0450911E-01; -2.0864099E+03;3; -7.2710332E-03;  0.0000000E+00;  2.0874341E+00;0; -2.7234048E-02;  3.6446008E+04;  0.0000000E+00; -3.1877816E+00;  4.0000000E+04;  0.0000000E+00;  3.9993426E+04; -2.9485872E-02;  0.0000000E+00;  2.2518239E-03;  5.8746777E+03;
  6.5164262E-01;  9.9999998E-03; -2.8008479E-01;6413; -1.4691711E-02;  0.0000000E+00; -4.4565019E-03;  9.9766400E+02;  1.0451498E-01; -1.9353525E+03;3; -1.3132192E-01;  0.0000000E+00;  2.0510857E+00;0; -2.6789950E-02;  3.6455359E+04;  0.0000000E+00; -2.1171088E+00;  4.0000000E+04;  0.0000000E+00;  3.9992203E+04; -2.9754126E-02;  0.0000000E+00;  2.9641762E-03;  4.4380605E+03;
  6.6167945E-01;  9.9999998E-03; -3.0014470E-01;6472; -1.4956595E-02;  0.0000000E+00; -4.4982992E-03;  9.9751642E+02;  1.0615193E-01; -2.0576206E+03;3;  2.1506228E-01;  0.0000000E+00;  2.2744036E+00;0; -2.7650552E-02;  3.5334117E+04;  0.0000000E+00; -8.3036041E+00;  4.0000000E+04;  0.0000000E+00;  3.9982262E+04; -2.8897082E-02;  0.0000000E+00;  1.2465297E-03;  1.3563907E+04;
  6.6165704E-01;  9.9999998E-03; -2.9013547E-01;6473; -1.4979561E-02;  0.0000000E+00; -4.5131291E-03;  9.9770795E+02;  1.0616234E-01; -1.8989091E+03;3;  8.7347865E-02;  0.0000000E+00;  2.2412779E+00;0; -2.7200254E-02;  3.5340488E+04;  0.0000000E+00; -6.6135101E+00;  4.0000000E+04;  0.0000000E+00;  3.9980539E+04; -2.9145909E-02;  0.0000000E+00;  1.9456563E-03;  1.0939654E+04;
  6.6164511E-01;  9.9999998E-03; -2.8012466E-01;6474; -1.4998859E-02;  0.0000000E+00; -4.5300154E-03;  9.9791388E+02;  1.0616936E-01; -1.7282966E+03;3; -4.2837407E-02;  0.0000000E+00;  2.2085423E+00;0; -2.6702395E-02;  3.5350945E+04;  0.0000000E+00; -4.5974231E+00;  4.0000000E+04;  0.0000000E+00;  3.9978895E+04; -2.9433526E-02;  0.0000000E+00;  2.7311307E-03;  7.8357339E+03;
  6.7208737E-01;  9.9999998E-03; -3.0019024E-01;6533; -1.5197460E-02;  0.0000000E+00; -4.5556203E-03;  9.9762122E+02;  1.0809884E-01; -1.9707589E+03;3;  3.2044277E-01;  0.0000000E+00;  2.4462266E+00;0; -2.7693346E-02;  3.4084945E+04;  0.0000000E+00; -1.1377465E+01;  4.0000000E+04;  0.0000000E+00;  3.9968512E+04; -2.8445754E-02;  0.0000000E+00;  7.5240788E-04;  1.8877051E+04;
  6.7196119E-01;  9.9999998E-03; -2.9018053E-01;6534; -1.5244272E-02;  0.0000000E+00; -4.5722751E-03;  9.9781781E+02;  1.0810918E-01; -1.8078993E+03;3;  1.8537335E-01;  0.0000000E+00;  2.4114108E+00;0; -2.7254466E-02;  3.4091312E+04;  0.0000000E+00; -9.5596666E+00;  4.0000000E+04;  0.0000000E+00;  3.9966859E+04; -2.8721938E-02;  0.0000000E+00;  1.4674725E-03;  1.5989824E+04;
  6.7187548E-01;  9.9999998E-03; -2.8016979E-01;6535; -1.5282730E-02;  0.0000000E+00; -4.5932792E-03;  9.9803516E+02;  1.0811486E-01; -1.6278551E+03;3;  4.8535790E-02;  0.0000000E+00;  2.3802795E+00;0; -2.6719350E-02;  3.4102355E+04;  0.0000000E+00; -6.9644241E+00;  4.0000000E+04;  0.0000000E+00;  3.9964727E+04; -2.9039528E-02;  0.0000000E+00;  2.3201774E-03;  1.1824322E+04;
  6.8282753E-01;  9.9999998E-03; -3.0024123E-01;6594; -1.5441610E-02;  0.0000000E+00; -4.6111438E-03;  9.9757025E+02;  1.1036925E-01; -2.0129800E+03;3;  4.2927051E-01;  0.0000000E+00;  2.6350331E+00;0; -2.7741253E-02;  3.2701027E+04;  0.0000000E+00; -1.2100362E+01;  4.0000000E+04;  0.0000000E+00;  3.9954793E+04; -2.7915290E-02;  0.0000000E+00;  1.7403548E-04;  2.0803658E+04;
  6.8258411E-01;  9.9999998E-03; -2.9023048E-01;6595; -1.5500063E-02;  0.0000000E+00; -4.6273046E-03;  9.9775073E+02;  1.1036934E-01; -1.8634534E+03;3;  2.8712684E-01;  0.0000000E+00;  2.5993633E+00;0; -2.7351854E-02;  3.2711816E+04;  0.0000000E+00; -1.0925479E+01;  4.0000000E+04;  0.0000000E+00;  3.9953152E+04; -2.8223859E-02;  0.0000000E+00;  8.7200553E-04;  1.8939826E+04;
  6.8236715E-01;  9.9999998E-03; -2.8021923E-01;6596; -1.5552309E-02;  0.0000000E+00; -4.6538208E-03;  9.9796918E+02;  1.1036328E-01; -1.6825201E+03;3;  1.4383388E-01;  0.0000000E+00;  2.5669560E+00;0; -2.6751012E-02;  3.2729465E+04;  0.0000000E+00; -8.5768309E+00;  4.0000000E+04;  0.0000000E+00;  3.9951273E+04; -2.8579850E-02;  0.0000000E+00;  1.8288383E-03;  1.5053263E+04;
  6.9465584E-01;  9.9999998E-03; -3.0030268E-01;6655; -1.5775826E-02;  0.0000000E+00; -4.6850187E-03;  9.9755591E+02;  1.1312354E-01; -2.0248809E+03;3;  5.4785138E-01;  0.0000000E+00;  2.8526134E+00;0; -2.7554074E-02;  3.1141805E+04;  0.0000000E+00; -7.6687875E+00;  4.0000000E+04;  0.0000000E+00;  3.9938191E+04; -2.7294939E-02;  0.0000000E+00; -2.5913556E-04;  1.4295232E+04;
  6.9434375E-01;  9.9999998E-03; -2.9029003E-01;6656; -1.5813461E-02;  0.0000000E+00; -4.6959170E-03;  9.9766724E+02;  1.1310323E-01; -1.9326366E+03;3;  3.9944908E-01;  0.0000000E+00;  2.8171527E+00;0; -2.7311685E-02;  3.1158412E+04;  0.0000000E+00; -7.6163015E+00;  4.0000000E+04;  0.0000000E+00;  3.9937152E+04; -2.7633054E-02;  0.0000000E+00;  3.2136965E-04;  1.4294636E+04;
  6.9400144E-01;  9.9999998E-03; -2.8027704E-01;6657; -1.5856229E-02;  0.0000000E+00; -4.7232383E-03;  9.9782776E+02;  1.1306655E-01; -1.7996527E+03;3;  2.5033253E-01;  0.0000000E+00;  2.7831490E+00;0; -2.6728485E-02;  3.1187199E+04;  0.0000000E+00; -6.5123639E+00;  4.0000000E+04;  0.0000000E+00;  3.9935824E+04; -2.8029103E-02;  0.0000000E+00;  1.3006179E-03;  1.2392574E+04;
  7.0708519E-01;  9.9999998E-03; -3.0037713E-01;6716; -1.6064512E-02;  0.0000000E+00; -4.7605634E-03;  9.9796326E+02;  1.1638054E-01; -1.6874089E+03;3;  6.7013729E-01;  0.0000000E+00;  3.0862734E+00;0; -2.7366810E-02;  2.9469934E+04;  0.0000000E+00; -5.3025365E+00;  4.0000000E+04;  0.0000000E+00;  3.9914230E+04; -2.6582012E-02;  0.0000000E+00; -7.8479823E-04;  1.1052812E+04;
  7.0683426E-01;  9.9999998E-03; -2.9036307E-01;6717; -1.6107209E-02;  0.0000000E+00; -4.7679548E-03;  9.9802026E+02;  1.1636343E-01; -1.6401510E+03;3;  5.1856190E-01;  0.0000000E+00;  3.0506670E+00;0; -2.7267192E-02;  2.9480396E+04;  0.0000000E+00; -5.2906756E+00;  4.0000000E+04;  0.0000000E+00;  3.9913879E+04; -2.6955012E-02;  0.0000000E+00; -3.1217898E-04;  1.1103639E+04;
  7.0653403E-01;  9.9999998E-03; -2.8034878E-01;6718; -1.6154995E-02;  0.0000000E+00; -4.7884025E-03;  9.9809259E+02;  1.1632180E-01; -1.5802515E+03;3;  3.6445409E-01;  0.0000000E+00;  3.0221512E+00;0; -2.6826823E-02;  2.9504076E+04;  0.0000000E+00; -4.4458399E+00;  4.0000000E+04;  0.0000000E+00;  3.9913434E+04; -2.7392276E-02;  0.0000000E+00;  5.6545192E-04;  9.5498174E+03;
  7.1856499E-01;  9.9999998E-03; -3.0045125E-01;6777; -1.6279370E-02;  0.0000000E+00; -4.8262738E-03;  9.9831714E+02;  1.1970387E-01; -1.3942321E+03;3;  7.8410292E-01;  0.0000000E+00;  3.3031223E+00;0; -2.7263701E-02;  2.7896662E+04;  0.0000000E+00; -7.1712484E+00;  4.0000000E+04;  0.0000000E+00;  3.9891312E+04; -2.5881546E-02;  0.0000000E+00; -1.3821552E-03;  1.5057561E+04;
  7.1850121E-01;  9.9999998E-03; -2.9043710E-01;6778; -1.6348161E-02;  0.0000000E+00; -4.8310934E-03;  9.9839923E+02;  1.1973148E-01; -1.3261846E+03;3;  6.3047731E-01;  0.0000000E+00;  3.2691612E+00;0; -2.7294151E-02;  2.7887498E+04;  0.0000000E+00; -6.6848216E+00;  4.0000000E+04;  0.0000000E+00;  3.9890223E+04; -2.6284063E-02;  0.0000000E+00; -1.0100881E-03;  1.4223738E+04;
  7.1841705E-01;  9.9999998E-03; -2.8042316E-01;6779; -1.6416576E-02;  0.0000000E+00; -4.8435419E-03;  9.9846820E+02;  1.1974011E-01; -1.2690504E+03;3;  4.7562122E-01;  0.0000000E+00;  3.2397521E+00;0; -2.7018387E-02;  2.7886525E+04;  0.0000000E+00; -5.3287668E+00;  4.0000000E+04;  0.0000000E+00;  3.9889430E+04; -2.6753444E-02;  0.0000000E+00; -2.6494329E-04;  1.1635664E+04;
  7.2978830E-01;  9.9999998E-03; -3.0052283E-01;6838; -1.6559646E-02;  0.0000000E+00; -4.9047973E-03;  9.9812836E+02;  1.2316187E-01; -1.5506227E+03;3;  8.9609051E-01;  0.0000000E+00;  3.5310595E+00;0; -2.6925709E-02;  2.6357875E+04;  0.0000000E+00; -6.6779728E+00;  4.0000000E+04;  0.0000000E+00;  3.9873863E+04; -2.5168262E-02;  0.0000000E+00; -1.7574474E-03;  1.4614466E+04;
  7.2980106E-01;  9.9999998E-03; -2.9050756E-01;6839; -1.6627135E-02;  0.0000000E+00; -4.9083717E-03;  9.9825079E+02;  1.2320548E-01; -1.4491935E+03;3;  7.3929310E-01;  0.0000000E+00;  3.5006559E+00;0; -2.7055740E-02;  2.6345426E+04;  0.0000000E+00; -6.3652258E+00;  4.0000000E+04;  0.0000000E+00;  3.9872332E+04; -2.5600845E-02;  0.0000000E+00; -1.4548955E-03;  1.4036195E+04;
  7.2979254E-01;  9.9999998E-03; -2.8049237E-01;6840; -1.6696958E-02;  0.0000000E+00; -4.9191508E-03;  9.9833948E+02;  1.2323193E-01; -1.3757141E+03;3;  5.8087009E-01;  0.0000000E+00;  3.4754519E+00;0; -2.6856007E-02;  2.6338928E+04;  0.0000000E+00; -5.2136545E+00;  4.0000000E+04;  0.0000000E+00;  3.9871090E+04; -2.6104357E-02;  0.0000000E+00; -7.5165060E-04;  1.1751579E+04;
  7.4183106E-01;  9.9999998E-03; -3.0059707E-01;6899; -1.6912291E-02;  0.0000000E+00; -5.0019934E-03;  9.9736749E+02;  1.2707587E-01; -2.1809751E+03;3;  1.0153027E+00;  0.0000000E+00;  3.7802773E+00;0; -2.6336767E-02;  2.4734367E+04;  0.0000000E+00; -6.3946611E-01;  4.0000000E+04;  0.0000000E+00;  3.9861090E+04; -2.4342382E-02;  0.0000000E+00; -1.9943852E-03;  3.8469263E+03;
  7.4182594E-01;  9.9999998E-03; -2.9057914E-01;6900; -1.6963923E-02;  0.0000000E+00; -5.0048446E-03;  9.9751666E+02;  1.2709706E-01; -2.0573738E+03;3;  8.5367489E-01;  0.0000000E+00;  3.7533324E+00;0; -2.6553378E-02;  2.4733281E+04;  0.0000000E+00; -1.6473533E+00;  4.0000000E+04;  0.0000000E+00;  3.9859199E+04; -2.4809025E-02;  0.0000000E+00; -1.7443529E-03;  5.1888130E+03;
  7.4179274E-01;  9.9999998E-03; -2.8056112E-01;6901; -1.7022530E-02;  0.0000000E+00; -5.0196396E-03;  9.9764832E+02;  1.2710489E-01; -1.9483398E+03;3;  6.9158649E-01;  0.0000000E+00;  3.7298007E+00;0; -2.6351405E-02;  2.4736844E+04;  0.0000000E+00; -1.9685711E+00;  4.0000000E+04;  0.0000000E+00;  3.9857543E+04; -2.5351075E-02;  0.0000000E+00; -1.0003307E-03;  5.6712236E+03;
  7.5432539E-01;  9.9999998E-03; -3.0067414E-01;6960; -1.7191509E-02;  0.0000000E+00; -5.0982535E-03;  9.9644238E+02;  1.3126996E-01; -2.9474226E+03;3;  1.1347411E+00;  0.0000000E+00;  4.0471683E+00;0; -2.5802152E-02;  2.3146586E+04;  0.0000000E+00;  7.6954603E+00;  4.0000000E+04;  0.0000000E+00;  3.9849090E+04; -2.3407739E-02;  0.0000000E+00; -2.3944136E-03;  1.8116490E+04;
  7.5435811E-01;  9.9999998E-03; -2.9065391E-01;6961; -1.7277531E-02;  0.0000000E+00; -5.1055769E-03;  9.9661865E+02;  1.3130464E-01; -2.8014021E+03;3;  9.6970898E-01;  0.0000000E+00;  4.0248251E+00;0; -2.5997303E-02;  2.3142635E+04;  0.0000000E+00;  4.7809272E+00;  4.0000000E+04;  0.0000000E+00;  3.9846672E+04; -2.3891594E-02;  0.0000000E+00; -2.1057082E-03;  1.1736285E+04;
  7.5438559E-01;  9.9999998E-03; -2.8063318E-01;6962; -1.7351164E-02;  0.0000000E+00; -5.1279268E-03;  9.9680255E+02;  1.3132791E-01; -2.6490112E+03;3;  8.0321878E-01;  0.0000000E+00;  4.0130272E+00;0; -2.5721064E-02;  2.3143395E+04;  0.0000000E+00;  2.5524297E+00;  4.0000000E+04;  0.0000000E+00;  3.9844504E+04; -2.4457715E-02;  0.0000000E+00; -1.2633485E-03;  7.0062656E+03;
  7.6858431E-01;  9.9999998E-03; -3.0076927E-01;7021; -1.7382732E-02;  0.0000000E+00; -5.1981653E-03;  9.9638531E+02;  1.3613868E-01; -2.9946804E+03;3;  1.2577055E+00;  0.0000000E+00;  4.3676009E+00;0; -2.5410742E-02;  2.1528873E+04;  0.0000000E+00;  1.0419859E+01;  4.0000000E+04;  0.0000000E+00;  3.9824637E+04; -2.2279548E-02;  0.0000000E+00; -3.1311943E-03;  2.7646961E+04;
  7.6840103E-01;  9.9999998E-03; -2.9074550E-01;7022; -1.7553221E-02;  0.0000000E+00; -5.2081435E-03;  9.9651306E+02;  1.3614008E-01; -2.8888564E+03;3;  1.0890218E+00;  0.0000000E+00;  4.3446884E+00;0; -2.5531907E-02;  2.1534084E+04;  0.0000000E+00;  7.2802544E+00;  4.0000000E+04;  0.0000000E+00;  3.9823027E+04; -2.2758972E-02;  0.0000000E+00; -2.7729354E-03;  1.9879084E+04;
  7.6826930E-01;  9.9999998E-03; -2.8072166E-01;7023; -1.7668640E-02;  0.0000000E+00; -5.2403323E-03;  9.9669623E+02;  1.3612975E-01; -2.7371077E+03;3;  9.1787565E-01;  0.0000000E+00;  4.3353362E+00;0; -2.5068631E-02;  2.1545996E+04;  0.0000000E+00;  4.4675345E+00;  4.0000000E+04;  0.0000000E+00;  3.9820879E+04; -2.3339787E-02;  0.0000000E+00; -1.7288444E-03;  1.2787194E+04;
  7.8429908E-01;  9.9999998E-03; -3.0088523E-01;7082; -1.7626736E-02;  0.0000000E+00; -5.3273276E-03;  9.9745001E+02;  1.4183947E-01; -2.1126313E+03;3;  1.3774796E+00;  0.0000000E+00;  4.7286525E+00;0; -2.4676844E-02;  1.9882598E+04;  0.0000000E+00;  6.2711945E+00;  4.0000000E+04;  0.0000000E+00;  3.9784508E+04; -2.0893242E-02;  0.0000000E+00; -3.7836030E-03;  2.2147771E+04;
  7.8383243E-01;  9.9999998E-03; -2.9085758E-01;7083; -1.7842138E-02;  0.0000000E+00; -5.3246594E-03;  9.9751141E+02;  1.4175479E-01; -2.0617688E+03;3;  1.2077755E+00;  0.0000000E+00;  4.7034612E+00;0; -2.4948917E-02;  1.9908854E+04;  0.0000000E+00;  4.5361485E+00;  4.0000000E+04;  0.0000000E+00;  3.9784312E+04; -2.1350762E-02;  0.0000000E+00; -3.5981545E-03;  1.6577627E+04;
  7.8340060E-01;  9.9999998E-03; -2.8083068E-01;7084; -1.7983211E-02;  0.0000000E+00; -5.3595304E-03;  9.9762201E+02;  1.4165220E-01; -1.9701169E+03;3;  1.0334357E+00;  0.0000000E+00;  4.6990199E+00;0; -2.4347380E-02;  1.9942604E+04;  0.0000000E+00;  2.8477235E+00;  4.0000000E+04;  0.0000000E+00;  3.9783289E+04; -2.1938547E-02;  0.0000000E+00; -2.4088328E-03;  1.0996206E+04;
  7.9970109E-01;  9.9999998E-03; -3.0099925E-01;7143; -1.7793795E-02;  0.0000000E+00; -5.4749502E-03;  9.9821161E+02;  1.4782649E-01; -1.4816370E+03;3;  1.4775205E+00;  0.0000000E+00;  5.0829473E+00;0; -2.3480281E-02;  1.8333158E+04;  0.0000000E+00;  5.4596381E+00;  4.0000000E+04;  0.0000000E+00;  3.9747414E+04; -1.9193940E-02;  0.0000000E+00; -4.2863418E-03;  2.2815381E+04;
  7.9943556E-01;  9.9999998E-03; -2.9097205E-01;7144; -1.8074820E-02;  0.0000000E+00; -5.4548359E-03;  9.9840918E+02;  1.4780945E-01; -1.3179873E+03;3;  1.3108350E+00;  0.0000000E+00;  5.0733905E+00;0; -2.4046097E-02;  1.8344137E+04;  0.0000000E+00;  3.1450274E+00;  4.0000000E+04;  0.0000000E+00;  3.9745215E+04; -1.9590577E-02;  0.0000000E+00; -4.4555198E-03;  1.4954933E+04;
  7.9907346E-01;  9.9999998E-03; -2.8094545E-01;7145; -1.8243685E-02;  0.0000000E+00; -5.4847160E-03;  9.9859558E+02;  1.4771856E-01; -1.1635226E+03;3;  1.1408762E+00;  0.0000000E+00;  5.0758300E+00;0; -2.3453858E-02;  1.8374301E+04;  0.0000000E+00;  1.4989941E+00;  4.0000000E+04;  0.0000000E+00;  3.9743285E+04; -2.0157663E-02;  0.0000000E+00; -3.2961941E-03;  8.6452373E+03;
  8.1388187E-01;  9.9999998E-03; -3.0109563E-01;7204; -1.7976506E-02;  0.0000000E+00; -5.6323521E-03;  9.9803564E+02;  1.5358791E-01; -1.6274106E+03;3;  1.5565817E+00;  0.0000000E+00;  5.3950806E+00;0; -2.1615488E-02;  1.6977193E+04;  0.0000000E+00;  5.0104089E+00;  4.0000000E+04;  0.0000000E+00;  3.9722668E+04; -1.6965084E-02;  0.0000000E+00; -4.6504051E-03;  1.9175020E+04;
  8.1367004E-01;  9.9999998E-03; -2.9106688E-01;7205; -1.8239738E-02;  0.0000000E+00; -5.5996147E-03;  9.9831805E+02;  1.5355936E-01; -1.3934420E+03;3;  1.3880966E+00;  0.0000000E+00;  5.4129324E+00;0; -2.2492696E-02;  1.6991943E+04;  0.0000000E+00;  3.2343285E+00;  4.0000000E+04;  0.0000000E+00;  3.9719406E+04; -1.7411841E-02;  0.0000000E+00; -5.0808550E-03;  1.3066770E+04;
  8.1341207E-01;  9.9999998E-03; -2.8103933E-01;7206; -1.8411078E-02;  0.0000000E+00; -5.6293947E-03;  9.9853687E+02;  1.5350109E-01; -1.2121632E+03;3;  1.2233646E+00;  0.0000000E+00;  5.4301682E+00;0; -2.1934792E-02;  1.7012664E+04;  0.0000000E+00;  2.0959566E+00;  4.0000000E+04;  0.0000000E+00;  3.9716969E+04; -1.8007617E-02;  0.0000000E+00; -3.9271740E-03;  8.7261016E+03;
  8.2696998E-01;  9.9999998E-03; -2.8111964E-01;7267; -1.8596208E-02;  0.0000000E+00; -5.8053462E-03;  9.9761951E+02;  1.5926766E-01; -1.9721910E+03;3;  1.2940836E+00;  0.0000000E+00;  5.7513061E+00;0; -1.9453043E-02;  1.5781076E+04;  0.0000000E+00;  2.4189513E+00;  4.0000000E+04;  0.0000000E+00;  3.9701480E+04; -1.5193927E-02;  0.0000000E+00; -4.2591160E-03;  7.1114585E+03;
  8.2720965E-01;  9.9999998E-03; -2.9114980E-01;7266; -1.8443588E-02;  0.0000000E+00; -5.7592881E-03;  9.9730505E+02;  1.5933076E-01; -2.2327268E+03;3;  1.4533892E+00;  0.0000000E+00;  5.7183914E+00;0; -2.0124037E-02;  1.5759101E+04;  0.0000000E+00;  3.0714827E+00;  4.0000000E+04;  0.0000000E+00;  3.9704910E+04; -1.4482842E-02;  0.0000000E+00; -5.6411941E-03;  9.0342305E+03;
  8.2746053E-01;  9.9999998E-03; -3.0118147E-01;7265; -1.8243676E-02;  0.0000000E+00; -5.7831700E-03;  9.9694910E+02;  1.5939461E-01; -2.5276321E+03;3;  1.6218803E+00;  0.0000000E+00;  5.6810875E+00;0; -1.9206844E-02;  1.5736869E+04;  0.0000000E+00;  4.0765376E+00;  4.0000000E+04;  0.0000000E+00;  3.9708617E+04; -1.3883231E-02;  0.0000000E+00; -5.3236121E-03;  1.2047694E+04;
  8.4320742E-01;  9.9999998E-03; -3.0127996E-01;7326; -1.8610613E-02;  0.0000000E+00; -5.9421645E-03;  9.9589404E+02;  1.6614172E-01; -3.4017307E+03;3;  1.6660666E+00;  0.0000000E+00;  5.9972157E+00;0; -1.5743781E-02;  1.4475264E+04;  0.0000000E+00;  1.5413402E+00;  4.0000000E+04;  0.0000000E+00;  3.9691809E+04; -8.8618351E-03;  0.0000000E+00; -6.8819448E-03;  5.7525928E+03;
  8.4301335E-01;  9.9999998E-03; -2.9124582E-01;7327; -1.8776890E-02;  0.0000000E+00; -5.9448332E-03;  9.9632800E+02;  1.6607633E-01; -3.0421853E+03;3;  1.5114064E+00;  0.0000000E+00;  6.0561037E+00;0; -1.6508039E-02;  1.4496197E+04;  0.0000000E+00;  1.6050272E+00;  4.0000000E+04;  0.0000000E+00;  3.9686941E+04; -9.7126272E-03;  0.0000000E+00; -6.7954129E-03;  4.7394580E+03;
  8.4272206E-01;  9.9999998E-03; -2.8121221E-01;7328; -1.8914351E-02;  0.0000000E+00; -6.0229348E-03;  9.9672638E+02;  1.6597450E-01; -2.7121206E+03;3;  1.3576685E+00;  0.0000000E+00;  6.1040764E+00;0; -1.5592298E-02;  1.4523845E+04;  0.0000000E+00;  1.8960437E+00;  4.0000000E+04;  0.0000000E+00;  3.9682812E+04; -1.0700389E-02;  0.0000000E+00; -4.8919083E-03;  4.3871392E+03;
  8.5928273E-01;  9.9999998E-03; -2.8132266E-01;7389; -1.9282389E-02;  0.0000000E+00; -6.2424219E-03;  9.9643671E+02;  1.7360236E-01; -2.9521138E+03;3;  1.4068211E+00;  0.0000000E+00;  6.4386230E+00;0; -1.0698656E-02;  1.3299341E+04;  0.0000000E+00;  6.2274426E-01;  4.0000000E+04;  0.0000000E+00;  3.9655031E+04; -4.4769379E-03;  0.0000000E+00; -6.2217177E-03;  6.6801421E+03;
  8.5937119E-01;  9.9999998E-03; -2.9135779E-01;7388; -1.9118091E-02;  0.0000000E+00; -6.1395294E-03;  9.9598071E+02;  1.7363393E-01; -3.3298809E+03;3;  1.5532471E+00;  0.0000000E+00;  6.3731780E+00;0; -1.1678485E-02;  1.3284818E+04;  0.0000000E+00; -3.2509351E-01;  4.0000000E+04;  0.0000000E+00;  3.9660180E+04; -3.1261472E-03;  0.0000000E+00; -8.5523380E-03;  1.1691063E+04;
  8.5941499E-01;  9.9999998E-03; -3.0139348E-01;7387; -1.8884929E-02;  0.0000000E+00; -6.1224280E-03;  9.9549890E+02;  1.7362770E-01; -3.7290793E+03;3;  1.6857018E+00;  0.0000000E+00;  6.2980223E+00;0; -1.0711335E-02;  1.3276219E+04;  0.0000000E+00; -1.1634909E+00;  4.0000000E+04;  0.0000000E+00;  3.9665930E+04; -1.8830972E-03;  0.0000000E+00; -8.8282377E-03;  1.6106980E+04;
  8.7791914E-01;  9.9999998E-03; -2.8145269E-01;7450; -1.9591212E-02;  0.0000000E+00; -6.4969575E-03;  9.9671124E+02;  1.8255147E-01; -2.7246636E+03;3;  1.4418445E+00;  0.0000000E+00;  6.7538195E+00;0; -4.0423893E-03;  1.2069534E+04;  0.0000000E+00; -1.3709541E-01;  4.0000000E+04;  0.0000000E+00;  3.9616820E+04;  4.1148984E-03;  0.0000000E+00; -8.1572877E-03;  9.1880010E+03;
  8.7784141E-01;  9.9999998E-03; -2.9148945E-01;7449; -1.9407164E-02;  0.0000000E+00; -6.3774064E-03;  9.9623267E+02;  1.8250178E-01; -3.1211460E+03;3;  1.5724427E+00;  0.0000000E+00;  6.6761098E+00;0; -4.8524854E-03;  1.2067173E+04;  0.0000000E+00; -1.0116216E+00;  4.0000000E+04;  0.0000000E+00;  3.9622730E+04;  6.0574426E-03;  0.0000000E+00; -1.0909928E-02;  1.4864477E+04;
  8.7770957E-01;  9.9999998E-03; -3.0152684E-01;7448; -1.9128183E-02;  0.0000000E+00; -6.3515739E-03;  9.9571393E+02;  1.8238860E-01; -3.5509116E+03;3;  1.6836878E+00;  0.0000000E+00;  6.5791774E+00;0; -3.4569697E-03;  1.2072593E+04;  0.0000000E+00; -1.9293965E+00;  4.0000000E+04;  0.0000000E+00;  3.9629582E+04;  7.8740185E-03;  0.0000000E+00; -1.1330988E-02;  1.9715246E+04;
  8.9681607E-01;  9.9999998E-03; -3.0166811E-01;7509; -1.8824076E-02;  0.0000000E+00; -6.7209937E-03;  9.9641101E+02;  1.9194493E-01; -2.9733970E+03;3;  1.8111234E+00;  0.0000000E+00;  6.7776327E+00;0;  6.7911446E-03;  1.0943896E+04;  0.0000000E+00; -3.0787632E+00;  4.0000000E+04;  0.0000000E+00;  3.9585695E+04;  1.9027049E-02;  0.0000000E+00; -1.2235904E-02;  2.4211217E+04;
  8.9697087E-01;  9.9999998E-03; -2.9162681E-01;7510; -1.9353012E-02;  0.0000000E+00; -6.7097084E-03;  9.9690326E+02;  1.9208662E-01; -2.5656060E+03;3;  1.6183783E+00;  0.0000000E+00;  6.8817987E+00;0;  3.9712153E-03;  1.0935625E+04;  0.0000000E+00; -2.0426457E+00;  4.0000000E+04;  0.0000000E+00;  3.9578820E+04;  1.6342305E-02;  0.0000000E+00; -1.2371089E-02;  1.8287521E+04;
  8.9700979E-01;  9.9999998E-03; -2.8158647E-01;7511; -1.9591069E-02;  0.0000000E+00; -6.8381075E-03;  9.9737433E+02;  1.9212674E-01; -2.1752961E+03;3;  1.4870795E+00;  0.0000000E+00;  6.9844389E+00;0;  4.3194983E-03;  1.0938640E+04;  0.0000000E+00; -1.0951394E+00;  4.0000000E+04;  0.0000000E+00;  3.9572836E+04;  1.3547704E-02;  0.0000000E+00; -9.2282053E-03;  1.1691546E+04;
  9.1728026E-01;  9.9999998E-03; -3.0180946E-01;7570; -1.8364893E-02;  0.0000000E+00; -7.1549895E-03;  9.9625854E+02;  2.0259312E-01; -3.0997144E+03;3;  2.0813148E+00;  0.0000000E+00;  6.8159480E+00;0;  1.6353980E-02;  9.8351328E+03;  0.0000000E+00; -1.1656274E+00;  4.0000000E+04;  0.0000000E+00;  3.9548398E+04;  2.8719505E-02;  0.0000000E+00; -1.2365526E-02;  1.0987570E+04;
  9.1747594E-01;  9.9999998E-03; -2.9176277E-01;7571; -1.8882602E-02;  0.0000000E+00; -7.1873688E-03;  9.9672168E+02;  2.0270415E-01; -2.7160215E+03;3;  1.8890287E+00;  0.0000000E+00;  6.9511251E+00;0;  1.3796609E-02;  9.8309033E+03;  0.0000000E+00; -9.1269487E-01;  4.0000000E+04;  0.0000000E+00;  3.9541789E+04;  2.5419783E-02;  0.0000000E+00; -1.1623174E-02;  8.5287510E+03;
  9.1750401E-01;  9.9999998E-03; -2.8171769E-01;7572; -1.9111564E-02;  0.0000000E+00; -7.3645595E-03;  9.9720764E+02;  2.0270887E-01; -2.3134158E+03;3;  1.7622393E+00;  0.0000000E+00;  7.0610867E+00;0;  1.4213464E-02;  9.8374355E+03;  0.0000000E+00; -7.0466751E-01;  4.0000000E+04;  0.0000000E+00;  3.9535242E+04;  2.1839168E-02;  0.0000000E+00; -7.6257037E-03;  6.0573281E+03;
  9.4017375E-01;  9.9999998E-03; -3.0195656E-01;7631; -1.3978510E-02;  0.0000000E+00; -8.4008928E-03;  9.9521088E+02;  2.1482496E-01; -3.9676895E+03;3;  3.3025475E+00;  0.0000000E+00;  6.7650428E+00;0;  3.4344014E-02;  8.7354746E+03;  0.0000000E+00;  2.6402857E+00;  4.0000000E+04;  0.0000000E+00;  3.9514848E+04;  3.1601395E-02;  0.0000000E+00;  2.7426183E-03;  2.4955572E+04;
  9.3996018E-01;  9.9999998E-03; -2.9190174E-01;7632; -1.5663128E-02;  0.0000000E+00; -8.2856221E-03;  9.9575732E+02;  2.1475312E-01; -3.5149614E+03;3;  3.2784476E+00;  0.0000000E+00;  6.7678456E+00;0;  2.8978612E-02;  8.7485732E+03;  0.0000000E+00;  1.1994977E+00;  4.0000000E+04;  0.0000000E+00;  3.9508266E+04;  2.8471848E-02;  0.0000000E+00;  5.0676358E-04;  1.6128596E+04;
  9.3972731E-01;  9.9999998E-03; -2.8184986E-01;7633; -1.6862087E-02;  0.0000000E+00; -8.3812866E-03;  9.9635596E+02;  2.1462871E-01; -3.0190251E+03;3;  3.1610959E+00;  0.0000000E+00;  6.8334284E+00;0;  2.7038168E-02;  8.7671230E+03;  0.0000000E+00;  6.6660687E-02;  4.0000000E+04;  0.0000000E+00;  3.9500898E+04;  2.4783604E-02;  0.0000000E+00;  2.2545645E-03;  8.4627363E+03;
  9.6544659E-01;  9.9999998E-03; -3.0212545E-01;7692; -1.0173827E-02;  0.0000000E+00; -9.1473619E-03;  9.9521222E+02;  2.2883162E-01; -3.9666023E+03;3;  3.4832723E+00;  0.0000000E+00;  6.7557554E+00;0;  3.7872907E-02;  7.7054985E+03;  0.0000000E+00;  1.0719128E+00;  4.0000000E+04;  0.0000000E+00;  3.9463855E+04;  2.4333870E-02;  0.0000000E+00;  1.3539037E-02;  3.9476734E+04;
  9.6447015E-01;  9.9999998E-03; -2.9205701E-01;7693; -1.2683121E-02;  0.0000000E+00; -9.0431236E-03;  9.9542938E+02;  2.2846705E-01; -3.7866570E+03;3;  3.6533129E+00;  0.0000000E+00;  6.6830635E+00;0;  3.4183271E-02;  7.7301289E+03;  0.0000000E+00;  7.0355886E-01;  4.0000000E+04;  0.0000000E+00;  3.9463336E+04;  2.3353133E-02;  0.0000000E+00;  1.0830136E-02;  3.2017303E+04;
  9.6371454E-01;  9.9999998E-03; -2.8199360E-01;7694; -1.4488317E-02;  0.0000000E+00; -9.1874301E-03;  9.9588562E+02;  2.2810228E-01; -3.4086924E+03;3;  3.6951497E+00;  0.0000000E+00;  6.6875839E+00;0;  3.3268992E-02;  7.7592290E+03;  0.0000000E+00; -2.8449479E-01;  4.0000000E+04;  0.0000000E+00;  3.9459434E+04;  2.1179929E-02;  0.0000000E+00;  1.2089062E-02;  1.8819352E+04;
  9.9061161E-01;  9.9999998E-03; -3.0230325E-01;7753; -9.3774032E-03;  0.0000000E+00; -8.7783430E-03;  9.9602441E+02;  2.4372663E-01; -3.2936829E+03;3;  3.6574647E+00;  0.0000000E+00;  6.2295513E+00;0;  4.0412504E-02;  6.8104678E+03;  0.0000000E+00; -1.3833395E+00;  4.0000000E+04;  0.0000000E+00;  3.9407133E+04;  2.9950600E-02;  0.0000000E+00;  1.0461905E-02;  4.4123137E+04;
  9.8936623E-01;  9.9999998E-03; -2.9222459E-01;7754; -1.2045632E-02;  0.0000000E+00; -8.6919749E-03;  9.9604395E+02;  2.4315149E-01; -3.2775352E+03;3;  3.8302000E+00;  0.0000000E+00;  6.2624502E+00;0;  3.6563877E-02;  6.8384478E+03;  0.0000000E+00; -1.0411940E+00;  4.0000000E+04;  0.0000000E+00;  3.9410254E+04;  2.9078396E-02;  0.0000000E+00;  7.4854819E-03;  3.6613238E+04;
  9.8831344E-01;  9.9999998E-03; -2.8215012E-01;7755; -1.3909766E-02;  0.0000000E+00; -8.9426376E-03;  9.9625543E+02;  2.4259429E-01; -3.1022812E+03;3;  3.9487629E+00;  0.0000000E+00;  6.3032284E+00;0;  3.6974274E-02;  6.8696826E+03;  0.0000000E+00; -1.3752595E+00;  4.0000000E+04;  0.0000000E+00;  3.9411137E+04;  2.7043870E-02;  0.0000000E+00;  9.9304039E-03;  2.1749449E+04;
  9.8751187E-01;  9.9999998E-03; -2.7207890E-01;7756; -1.5206986E-02;  0.0000000E+00; -9.3563842E-03;  9.9663257E+02;  2.4211279E-01; -2.7898457E+03;3;  4.0512538E+00;  0.0000000E+00;  6.3250461E+00;0;  3.7895113E-02;  6.8997495E+03;  0.0000000E+00; -1.4805328E+00;  4.0000000E+04;  0.0000000E+00;  3.9410875E+04;  2.4202146E-02;  0.0000000E+00;  1.3692968E-02;  8.9966357E+03;
  9.6306592E-01;  9.9999998E-03; -2.7193353E-01;7695; -1.5757047E-02;  0.0000000E+00; -9.4607854E-03;  9.9642676E+02;  2.2774397E-01; -2.9603596E+03;3;  3.7455730E+00;  0.0000000E+00;  6.6749463E+00;0;  3.2684878E-02;  7.7901167E+03;  0.0000000E+00; -8.6884326E-01;  4.0000000E+04;  0.0000000E+00;  3.9454820E+04;  1.8126195E-02;  0.0000000E+00;  1.4558683E-02;  8.3051533E+03;
  1.0131443E+00;  9.9999998E-03; -2.8231564E-01;7816; -1.4247285E-02;  0.0000000E+00; -7.8684743E-03;  9.9651294E+02;  2.5785771E-01; -2.8889531E+03;3;  4.0919256E+00;  0.0000000E+00;  5.6940799E+00;0;  6.1589099E-02;  6.0887036E+03;  0.0000000E+00; -2.1939483E+00;  4.0000000E+04;  0.0000000E+00;  3.9365785E+04;  6.5068908E-02;  0.0000000E+00; -3.4798076E-03;  1.6618061E+04;
  1.0141245E+00;  9.9999998E-03; -2.9239488E-01;7815; -1.2665582E-02;  0.0000000E+00; -7.5199907E-03;  9.9622736E+02;  2.5849834E-01; -3.1255388E+03;3;  3.9329391E+00;  0.0000000E+00;  5.6296906E+00;0;  6.2486727E-02;  6.0581704E+03;  0.0000000E+00; -2.0168486E+00;  4.0000000E+04;  0.0000000E+00;  3.9364637E+04;  7.0111640E-02;  0.0000000E+00; -7.6249135E-03;  3.1290742E+04;
  1.0152427E+00;  9.9999998E-03; -3.0247697E-01;7814; -1.0308254E-02;  0.0000000E+00; -7.5091375E-03;  9.9598730E+02;  2.5917086E-01; -3.3244468E+03;3;  3.7746716E+00;  0.0000000E+00;  5.4706125E+00;0;  6.8895087E-02;  6.0284922E+03;  0.0000000E+00; -1.7787272E+00;  4.0000000E+04;  0.0000000E+00;  3.9363430E+04;  7.4793115E-02;  0.0000000E+00; -5.8980323E-03;  4.4016094E+04;
  1.0374527E+00;  9.9999998E-03; -2.8247705E-01;7877; -1.4972391E-02;  0.0000000E+00; -6.2880334E-03;  9.9620660E+02;  2.7327278E-01; -3.1427722E+03;3;  4.0300140E+00;  0.0000000E+00;  5.1970720E+00;0;  1.1737157E-01;  5.4233306E+03;  0.0000000E+00; -2.3321805E+00;  4.0000000E+04;  0.0000000E+00;  3.9328207E+04;  1.4349899E-01;  0.0000000E+00; -2.6127415E-02;  5.7928062E+03;
  1.0379694E+00;  9.9999998E-03; -2.9255489E-01;7876; -1.3820163E-02;  0.0000000E+00; -5.9314300E-03;  9.9578900E+02;  2.7370915E-01; -3.4887373E+03;3;  3.8396187E+00;  0.0000000E+00;  5.0711346E+00;0;  1.2137686E-01;  5.4043501E+03;  0.0000000E+00; -2.2374010E+00;  4.0000000E+04;  0.0000000E+00;  3.9329500E+04;  1.5247096E-01;  0.0000000E+00; -3.1094097E-02;  1.0759511E+04;
  1.0386726E+00;  9.9999998E-03; -3.0263597E-01;7875; -1.2597634E-02;  0.0000000E+00; -5.6856349E-03;  9.9530585E+02;  2.7430877E-01; -3.8890220E+03;3;  3.6195250E+00;  0.0000000E+00;  4.9181700E+00;0;  1.2922373E-01;  5.3799019E+03;  0.0000000E+00; -1.7322965E+00;  4.0000000E+04;  0.0000000E+00;  3.9332684E+04;  1.6219553E-01;  0.0000000E+00; -3.2971807E-02;  1.8251189E+04;
  1.0637354E+00;  9.9999998E-03; -2.8264984E-01;7938; -1.5803337E-02;  0.0000000E+00; -4.8309225E-03;  9.9594836E+02;  2.9040447E-01; -3.3566902E+03;3;  3.7928436E+00;  0.0000000E+00;  4.2673526E+00;0;  2.0170070E-01;  4.8056626E+03;  0.0000000E+00; -2.1597369E+00;  4.0000000E+04;  0.0000000E+00;  3.9284852E+04;  2.5058067E-01;  0.0000000E+00; -4.8879962E-02;  1.4413322E+04;
  1.0638007E+00;  9.9999998E-03; -2.9272458E-01;7937; -1.4667689E-02;  0.0000000E+00; -4.4693938E-03;  9.9550378E+02;  2.9052576E-01; -3.7250249E+03;3;  3.5139489E+00;  0.0000000E+00;  4.0978680E+00;0;  2.0998561E-01;  4.7998735E+03;  0.0000000E+00; -2.2253227E+00;  4.0000000E+04;  0.0000000E+00;  3.9289621E+04;  2.6392886E-01;  0.0000000E+00; -5.3943243E-02;  2.1121926E+04;
  1.0638336E+00;  9.9999998E-03; -3.0280176E-01;7936; -1.3417927E-02;  0.0000000E+00; -4.2300336E-03;  9.9497388E+02;  2.9062647E-01; -4.1640239E+03;3;  3.1132216E+00;  0.0000000E+00;  3.8935025E+00;0;  2.2182831E-01;  4.7954619E+03;  0.0000000E+00; -2.0851908E+00;  4.0000000E+04;  0.0000000E+00;  3.9296512E+04;  2.7647895E-01;  0.0000000E+00; -5.4650638E-02;  2.6586172E+04;
  1.0927087E+00;  9.9999998E-03; -2.8283969E-01;7999; -8.5127009E-03;  0.0000000E+00; -5.4441020E-03;  9.9565308E+02;  3.0995539E-01; -3.6013220E+03;3;  1.4890600E+00;  0.0000000E+00;  2.8038507E+00;0;  2.9832736E-01;  4.2233247E+03;  0.0000000E+00; -2.2785206E+00;  4.0000000E+04;  0.0000000E+00;  3.9223973E+04;  3.3153519E-01;  0.0000000E+00; -3.3207841E-02;  1.9946307E+04;
  1.0924649E+00;  9.9999998E-03; -2.9291299E-01;7998;  3.7993686E-03;  0.0000000E+00; -5.0987676E-03;  9.9517816E+02;  3.0978376E-01; -3.9947915E+03;3;  3.4420488E+00;  0.0000000E+00;  3.0624645E+00;0;  3.2777548E-01;  4.2259814E+03;  0.0000000E+00; -2.1665764E+00;  4.0000000E+04;  0.0000000E+00;  3.9231730E+04;  3.6074582E-01;  0.0000000E+00; -3.2970324E-02;  3.3827656E+04;
  1.0921016E+00;  9.9999998E-03; -3.0299240E-01;7997;  2.2803258E-02;  0.0000000E+00; -5.3596832E-03;  9.9450891E+02;  3.0938464E-01; -4.5492437E+03;3;  5.6043115E+00;  0.0000000E+00;  3.3488398E+00;0;  3.7570569E-01;  4.2346753E+03;  0.0000000E+00; -2.2921286E+00;  4.0000000E+04;  0.0000000E+00;  3.9236402E+04;  3.9697778E-01;  0.0000000E+00; -2.1272093E-02;  4.9176453E+04;
  1.1256868E+00;  9.9999998E-03; -2.8304416E-01;8060;  3.4297433E-02;  0.0000000E+00; -7.1023051E-03;  9.9502850E+02;  3.3303243E-01; -4.1187822E+03;3;  8.1180019E+00;  0.0000000E+00;  2.1349807E+00;0;  3.5694349E-01;  3.6610657E+03;  0.0000000E+00; -4.0219493E+00;  4.0000000E+04;  0.0000000E+00;  3.9145340E+04;  3.1482637E-01;  0.0000000E+00;  4.2117123E-02;  2.0622078E+04;
  1.1254319E+00;  9.9999998E-03; -2.9312232E-01;8059;  3.9874397E-02;  0.0000000E+00; -5.6003155E-03;  9.9419885E+02;  3.3293277E-01; -4.8061182E+03;3;  7.1714597E+00;  0.0000000E+00;  2.5175912E+00;0;  3.6919200E-01;  3.6595383E+03;  0.0000000E+00; -3.9174190E+00;  4.0000000E+04;  0.0000000E+00;  3.9154359E+04;  3.3594561E-01;  0.0000000E+00;  3.3246391E-02;  3.2155164E+04;
  1.1249417E+00;  9.9999998E-03; -3.0320647E-01;8058;  4.7159649E-02;  0.0000000E+00; -4.5684110E-03;  9.9336920E+02;  3.3253968E-01; -5.4934546E+03;3;  6.1035695E+00;  0.0000000E+00;  2.9699636E+00;0;  3.8467479E-01;  3.6653538E+03;  0.0000000E+00; -4.0905356E+00;  4.0000000E+04;  0.0000000E+00;  3.9162961E+04;  3.5877681E-01;  0.0000000E+00;  2.5897991E-02;  4.9775949E+04;
  1.1655166E+00;  9.9999998E-03; -2.8322721E-01;8121;  3.7049361E-02;  0.0000000E+00;  6.2300777E-03;  9.9347461E+02;  3.6194539E-01; -5.4061328E+03;3;  9.1950836E+00;  0.0000000E+00; -1.4714693E+00;0;  1.1542299E-01;  3.0923713E+03;  0.0000000E+00; -6.5533571E+00;  4.0000000E+04;  0.0000000E+00;  3.9112957E+04;  1.0402523E-01;  0.0000000E+00;  1.1397767E-02;  2.0879270E+04;
  1.0124646E+00;  9.9999998E-03; -2.7223918E-01;7817; -1.5484406E-02;  0.0000000E+00; -8.2963305E-03;  9.9688788E+02;  2.5739449E-01; -2.5783450E+03;3;  4.2446032E+00;  0.0000000E+00;  5.7068505E+00;0;  6.1418254E-02;  6.1125986E+03;  0.0000000E+00; -1.9490151E+00;  4.0000000E+04;  0.0000000E+00;  3.9366832E+04;  6.0253460E-02;  0.0000000E+00;  1.1647955E-03;  6.2372100E+03;
  1.0371809E+00;  9.9999998E-03; -2.7240217E-01;7878; -1.6095363E-02;  0.0000000E+00; -6.6599222E-03;  9.9664551E+02;  2.7302909E-01; -2.7791287E+03;3;  4.2204924E+00;  0.0000000E+00;  5.1145978E+00;0;  1.1478334E-01;  5.4355718E+03;  0.0000000E+00; -2.0389061E+00;  4.0000000E+04;  0.0000000E+00;  3.9327102E+04;  1.3525765E-01;  0.0000000E+00; -2.0474305E-02;  4.8985386E+03;
  1.0634969E+00;  9.9999998E-03; -2.7257857E-01;7939; -1.6793057E-02;  0.0000000E+00; -5.0737122E-03;  9.9639380E+02;  2.9016605E-01; -2.9876641E+03;3;  4.0020185E+00;  0.0000000E+00;  4.3823094E+00;0;  1.9273666E-01;  4.8165767E+03;  0.0000000E+00; -2.0758367E+00;  4.0000000E+04;  0.0000000E+00;  3.9279133E+04;  2.3613411E-01;  0.0000000E+00; -4.3397449E-02;  8.7248193E+03;
  1.0925926E+00;  9.9999998E-03; -2.7277529E-01;8000; -1.1582116E-02;  0.0000000E+00; -6.0111606E-03;  9.9616431E+02;  3.0978394E-01; -3.1777795E+03;3;  2.1083622E+00;  0.0000000E+00;  2.6567626E+00;0;  2.8187904E-01;  4.2315171E+03;  0.0000000E+00; -2.6676493E+00;  4.0000000E+04;  0.0000000E+00;  3.9211602E+04;  3.1124631E-01;  0.0000000E+00; -2.9367274E-02;  1.1336610E+04;
  1.1258415E+00;  9.9999998E-03; -2.7297270E-01;8061;  2.9681230E-02;  0.0000000E+00; -8.8398606E-03;  9.9591345E+02;  3.3302569E-01; -3.3856204E+03;3;  9.0635900E+00;  0.0000000E+00;  1.7497412E+00;0;  3.4044564E-01;  3.6656748E+03;  0.0000000E+00; -4.1752195E+00;  4.0000000E+04;  0.0000000E+00;  3.9138109E+04;  2.9340383E-01;  0.0000000E+00;  4.7041807E-02;  1.4595021E+04;
  1.1656362E+00;  9.9999998E-03; -2.7313739E-01;8122;  3.1860575E-02;  0.0000000E+00;  5.0601177E-03;  9.9482074E+02;  3.6185431E-01; -4.2909121E+03;3;  1.0054270E+01;  0.0000000E+00; -1.6431277E+00;0;  1.1338545E-01;  3.0992603E+03;  0.0000000E+00; -5.4825845E+00;  4.0000000E+04;  0.0000000E+00;  3.9109023E+04;  9.5277071E-02;  0.0000000E+00;  1.8108385E-02;  2.0734160E+04;
  1.1659476E+00;  9.9999998E-03; -2.9332134E-01;8120;  4.2302806E-02;  0.0000000E+00;  7.5424947E-03;  9.9200989E+02;  3.6256993E-01; -6.6196206E+03;3;  8.2826977E+00;  0.0000000E+00; -1.3131529E+00;0;  1.0971586E-01;  3.0757310E+03;  0.0000000E+00; -7.1079187E+00;  4.0000000E+04;  0.0000000E+00;  3.9123043E+04;  1.0850733E-01;  0.0000000E+00;  1.2085277E-03;  1.7303213E+04;
  1.1667867E+00;  9.9999998E-03; -3.0342200E-01;8119;  4.7710534E-02;  0.0000000E+00;  8.7117897E-03;  9.9043011E+02;  3.6362132E-01; -7.9284146E+03;3;  7.4168520E+00;  0.0000000E+00; -1.2164385E+00;0;  1.0203306E-01;  3.0517915E+03;  0.0000000E+00; -6.7921863E+00;  4.0000000E+04;  0.0000000E+00;  3.9137273E+04;  1.0917890E-01;  0.0000000E+00; -7.1458439E-03;  1.0947676E+04;
  1.2079443E+00;  9.9999998E-03; -2.7333811E-01;8183;  2.8516397E-02;  0.0000000E+00;  2.4648521E-02;  9.9249371E+02;  3.9275950E-01; -6.2187598E+03;3;  1.0889699E+01;  0.0000000E+00; -5.2794366E+00;0; -2.2452701E-02;  2.6207739E+03;  0.0000000E+00; -5.9980712E+00;  4.0000000E+04;  0.0000000E+00;  3.9083297E+04; -4.5371685E-02;  0.0000000E+00;  2.2918984E-02;  2.5195275E+04;
  1.2086631E+00;  9.9999998E-03; -2.8344297E-01;8182;  3.3032864E-02;  0.0000000E+00;  2.5170382E-02;  9.9094806E+02;  3.9363787E-01; -7.4992490E+03;3;  1.0198507E+01;  0.0000000E+00; -5.1287665E+00;0; -2.8566219E-02;  2.6037314E+03;  0.0000000E+00; -8.7148037E+00;  4.0000000E+04;  0.0000000E+00;  3.9091953E+04; -5.0143402E-02;  0.0000000E+00;  2.1577183E-02;  2.2927113E+04;
  1.2096035E+00;  9.9999998E-03; -2.9355222E-01;8181;  3.7128307E-02;  0.0000000E+00;  2.5729138E-02;  9.8908820E+02;  3.9476931E-01; -9.0401240E+03;3;  9.5585938E+00;  0.0000000E+00; -4.9651108E+00;0; -3.9078191E-02;  2.5823464E+03;  0.0000000E+00; -1.0506691E+01;  4.0000000E+04;  0.0000000E+00;  3.9102645E+04; -5.6301359E-02;  0.0000000E+00;  1.7223168E-02;  1.5136906E+04;
  1.2113622E+00;  9.9999998E-03; -3.0367157E-01;8180;  4.1130733E-02;  0.0000000E+00;  2.6393861E-02;  9.8716644E+02;  3.9669552E-01; -1.0632202E+04;3;  9.1184950E+00;  0.0000000E+00; -4.2380376E+00;0; -4.9947336E-02;  2.5509270E+03;  0.0000000E+00; -1.1091133E+01;  4.0000000E+04;  0.0000000E+00;  3.9113812E+04; -6.5091327E-02;  0.0000000E+00;  1.5143989E-02;  3.7538383E+04;
  1.2525209E+00;  9.9999998E-03; -2.8375453E-01;8243;  2.6683725E-02;  0.0000000E+00;  3.6665522E-02;  9.9430371E+02;  4.2250842E-01; -4.7191597E+03;3;  1.3804474E+01;  0.0000000E+00; -5.0702896E+00;0;  1.3532485E-01;  2.2814426E+03;  0.0000000E+00; -1.0411806E+01;  4.0000000E+04;  0.0000000E+00;  3.8996762E+04; -8.0931053E-02;  0.0000000E+00;  2.1625590E-01;  2.1328691E+04;
  1.2536587E+00;  9.9999998E-03; -2.9387566E-01;8242;  2.9881310E-02;  0.0000000E+00;  3.9480358E-02;  9.9224432E+02;  4.2359102E-01; -6.4252896E+03;3;  1.4075937E+01;  0.0000000E+00; -2.4780972E+00;0;  8.3724327E-02;  2.2647585E+03;  0.0000000E+00; -1.2404733E+01;  4.0000000E+04;  0.0000000E+00;  3.8993629E+04; -9.0450518E-02;  0.0000000E+00;  1.7417485E-01;  1.1599700E+04;
  1.2557765E+00;  9.9999998E-03; -3.0400577E-01;8241;  3.3403363E-02;  0.0000000E+00;  4.1430417E-02;  9.9049200E+02;  4.2541733E-01; -7.8770093E+03;3;  1.4393230E+01;  0.0000000E+00; -1.5716991E+00;0;  3.5493314E-02;  2.2419238E+03;  0.0000000E+00; -1.2940652E+01;  4.0000000E+04;  0.0000000E+00;  3.8995582E+04; -1.0020584E-01;  0.0000000E+00;  1.3569915E-01;  4.6284074E+04;
  1.2975386E+00;  9.9999998E-03; -2.8401864E-01;8304;  2.3884067E-02;  0.0000000E+00;  4.5507737E-02;  9.9768610E+02;  4.3337473E-01; -1.9169410E+03;3;  2.2801912E+01;  0.0000000E+00; -2.6967192E+00;0;  5.4863828E-01;  2.1856580E+03;  0.0000000E+00; -1.2201659E+01;  4.0000000E+04;  0.0000000E+00;  3.8928961E+04;  7.0268437E-02;  0.0000000E+00;  4.7836986E-01;  3.7871109E+04;
  1.2977124E+00;  9.9999998E-03; -2.9413447E-01;8303;  2.7328178E-02;  0.0000000E+00;  4.8068281E-02;  9.9547919E+02;  4.3367279E-01; -3.7452466E+03;3;  2.3173574E+01;  0.0000000E+00; -1.1795424E+00;0;  4.6592870E-01;  2.1781335E+03;  0.0000000E+00; -1.3948789E+01;  4.0000000E+04;  0.0000000E+00;  3.8921746E+04;  3.4342829E-02;  0.0000000E+00;  4.3158588E-01;  2.3818033E+04;
  1.2991632E+00;  9.9999998E-03; -3.0425525E-01;8302;  3.1361848E-02;  0.0000000E+00;  4.9379349E-02;  9.9339618E+02;  4.3430641E-01; -5.4708872E+03;3;  2.4437746E+01;  0.0000000E+00;  7.4634987E-01;0;  3.9658239E-01;  2.1673579E+03;  0.0000000E+00; -1.4300153E+01;  4.0000000E+04;  0.0000000E+00;  3.8929438E+04;  1.3797157E-02;  0.0000000E+00;  3.8278523E-01;  6.4526978E+03;
  1.2514178E+00;  9.9999998E-03; -2.7364480E-01;8244;  2.3754206E-02;  0.0000000E+00;  4.2662580E-02;  9.9573523E+02;  4.2147505E-01; -3.5331985E+03;3;  1.3369183E+01;  0.0000000E+00; -1.2489286E+01;0;  5.3584337E-02;  2.2962058E+03;  0.0000000E+00; -7.0273733E+00;  4.0000000E+04;  0.0000000E+00;  3.8993570E+04; -7.1162440E-02;  0.0000000E+00;  1.2474678E-01;  2.4727598E+04;
  1.2969234E+00;  9.9999998E-03; -2.7388453E-01;8305;  2.0465754E-02;  0.0000000E+00;  4.2899564E-02;  9.9967322E+02;  4.3308300E-01; -2.7069565E+02;3;  2.2130627E+01;  0.0000000E+00; -5.4241858E+00;0;  5.8323556E-01;  2.1921267E+03;  0.0000000E+00; -8.7779236E+00;  4.0000000E+04;  0.0000000E+00;  3.8956645E+04;  1.0771610E-01;  0.0000000E+00;  4.7551945E-01;  3.2762594E+04;
  1.3385733E+00;  9.9999998E-03; -2.7393022E-01;8366;  1.4627853E-02;  0.0000000E+00;  7.8490719E-02;  9.9360852E+02;  4.2053869E-01; -5.2947427E+03;3;  2.9576010E+01;  0.0000000E+00; -1.7863150E+01;0;  1.4621762E+00;  2.2894058E+03;  0.0000000E+00; -9.1399956E+00;  4.0000000E+04;  0.0000000E+00;  3.9039586E+04;  1.2447721E+00;  0.0000000E+00;  2.1740413E-01;  4.1599805E+04;
  1.3391454E+00;  9.9999998E-03; -2.8407308E-01;8365;  1.7393218E-02;  0.0000000E+00;  6.3254640E-02;  9.9206836E+02;  4.2061314E-01; -6.5706387E+03;3;  3.2638264E+01;  0.0000000E+00; -6.1252465E+00;0;  1.5960131E+00;  2.2856536E+03;  0.0000000E+00; -1.2008546E+01;  4.0000000E+04;  0.0000000E+00;  3.9022281E+04;  1.1666393E+00;  0.0000000E+00;  4.2937371E-01;  4.9153156E+04;
  1.3398275E+00;  9.9999998E-03; -2.9421410E-01;8364;  2.0340588E-02;  0.0000000E+00;  6.3916080E-02;  9.9018121E+02;  4.2069057E-01; -8.1339546E+03;3;  3.4591904E+01;  0.0000000E+00;  8.3516035E+00;0;  1.5220366E+00;  2.2814219E+03;  0.0000000E+00; -1.3642034E+01;  4.0000000E+04;  0.0000000E+00;  3.9000078E+04;  1.1068996E+00;  0.0000000E+00;  4.1513687E-01;  4.6372551E+04;
  1.3415914E+00;  9.9999998E-03; -3.0435306E-01;8363;  2.3408838E-02;  0.0000000E+00;  6.9309071E-02;  9.8814539E+02;  4.2066219E-01; -9.8203975E+03;3;  3.5875191E+01;  0.0000000E+00;  3.5501583E+00;0;  1.3898730E+00;  2.2778660E+03;  0.0000000E+00; -1.3879717E+01;  4.0000000E+04;  0.0000000E+00;  3.8988504E+04;  1.1096517E+00;  0.0000000E+00;  2.8022134E-01;  3.6807633E+04;
  1.3772889E+00;  9.9999998E-03; -2.7402553E-01;8427;  9.0269756E-04;  0.0000000E+00;  1.1286841E-01;  9.9001532E+02;  3.9903519E-01; -8.2708115E+03;3;  3.5720470E+01;  0.0000000E+00;  4.8998890E+00;0;  3.4671772E+00;  2.5198979E+03;  0.0000000E+00; -7.6457152E+00;  4.0000000E+04;  0.0000000E+00;  3.9034535E+04;  3.8985431E+00;  0.0000000E+00; -4.3136588E-01;  3.5735090E+04;
  1.3794616E+00;  9.9999998E-03; -2.8413272E-01;8426;  1.0032391E-04;  0.0000000E+00;  9.6869856E-02;  9.8942102E+02;  3.9863235E-01; -8.7630693E+03;3;  3.7854305E+01;  0.0000000E+00; -4.5511012E+00;0;  3.6412184E+00;  2.5216609E+03;  0.0000000E+00; -1.0012925E+01;  4.0000000E+04;  0.0000000E+00;  3.9064836E+04;  3.9574809E+00;  0.0000000E+00; -3.1626254E-01;  4.2985559E+04;
  1.3813744E+00;  9.9999998E-03; -2.9426217E-01;8425; -2.1437902E-03;  0.0000000E+00;  7.5438350E-02;  9.8832257E+02;  3.9819264E-01; -9.6729248E+03;3;  3.9720039E+01;  0.0000000E+00; -1.2371631E+01;0;  3.9776728E+00;  2.5244832E+03;  0.0000000E+00; -1.1478432E+01;  4.0000000E+04;  0.0000000E+00;  3.9068516E+04;  4.0146036E+00;  0.0000000E+00; -3.6930855E-02;  4.1941410E+04;
  1.3837298E+00;  9.9999998E-03; -3.0440751E-01;8424; -1.2150082E-02;  0.0000000E+00;  5.6379862E-02;  9.8674902E+02;  3.9751995E-01; -1.0976258E+04;3;  4.2591263E+01;  0.0000000E+00; -2.0250707E+00;0;  4.3865681E+00;  2.5307849E+03;  0.0000000E+00; -1.1458033E+01;  4.0000000E+04;  0.0000000E+00;  3.9052340E+04;  4.1285462E+00;  0.0000000E+00;  2.5802171E-01;  3.2386684E+04;
  1.4164559E+00;  9.9999998E-03; -2.7415991E-01;8488;  1.8481164E-01;  0.0000000E+00;  8.9124285E-02;  9.9096490E+02;  3.7323812E-01; -7.4833008E+03;3; -1.6036148E+02;  0.0000000E+00;  4.4151196E+01;0;  6.1935272E+00;  2.8864644E+03;  0.0000000E+00; -7.4248486E+00;  4.0000000E+04;  0.0000000E+00;  3.8941914E+04;  7.0825453E+00;  0.0000000E+00; -8.8901782E-01;  2.6570893E+04;
  1.4190238E+00;  9.9999998E-03; -2.8424245E-01;8487;  1.8996152E-01;  0.0000000E+00;  9.0670466E-02;  9.9107446E+02;  3.7249279E-01; -7.3924814E+03;3; -1.7121614E+02;  0.0000000E+00;  3.7390907E+01;0;  6.1412935E+00;  2.8966455E+03;  0.0000000E+00; -9.7245274E+00;  4.0000000E+04;  0.0000000E+00;  3.8982383E+04;  7.2034383E+00;  0.0000000E+00; -1.0621448E+00;  2.8310660E+04;
  1.4214971E+00;  9.9999998E-03; -2.9434723E-01;8486;  1.6878060E-01;  0.0000000E+00;  8.5527748E-02;  9.9081360E+02;  3.7151352E-01; -7.6084272E+03;3; -1.8335626E+02;  0.0000000E+00;  3.3050674E+01;0;  6.2330446E+00;  2.9113818E+03;  0.0000000E+00; -1.0866985E+01;  4.0000000E+04;  0.0000000E+00;  3.9008000E+04;  7.3267112E+00;  0.0000000E+00; -1.0936664E+00;  2.3906883E+04;
  1.4242398E+00;  9.9999998E-03; -3.0446422E-01;8485;  1.3899457E-01;  0.0000000E+00;  7.7610575E-02;  9.9012805E+02;  3.7024519E-01; -8.1761328E+03;3; -1.9686420E+02;  0.0000000E+00;  2.9592426E+01;0;  6.4552259E+00;  2.9317617E+03;  0.0000000E+00; -9.6542807E+00;  4.0000000E+04;  0.0000000E+00;  3.9025562E+04;  7.4754272E+00;  0.0000000E+00; -1.0202014E+00;  1.6397438E+04;
  1.4522977E+00;  9.9999998E-03; -2.7421302E-01;8549;  6.4781582E-01;  0.0000000E+00; -1.2615034E-02;  9.9673065E+02;  3.4521073E-01; -2.7073040E+03;3; -1.6898584E+02;  0.0000000E+00;  5.4927231E+01;0;  7.4680986E+00;  3.4191257E+03;  0.0000000E+00; -8.8755169E+00;  4.0000000E+04;  0.0000000E+00;  3.8819840E+04;  7.9931521E+00;  0.0000000E+00; -5.2505368E-01;  3.1072061E+04;
  1.4552356E+00;  9.9999998E-03; -2.8430229E-01;8548;  6.6351068E-01;  0.0000000E+00; -3.5884955E-03;  9.9707001E+02;  3.4395698E-01; -2.4262100E+03;3; -1.7153125E+02;  0.0000000E+00;  5.3330475E+01;0;  7.3177137E+00;  3.4459705E+03;  0.0000000E+00; -1.1153035E+01;  4.0000000E+04;  0.0000000E+00;  3.8830363E+04;  8.0105696E+00;  0.0000000E+00; -6.9285566E-01;  3.1969482E+04;
  1.4581703E+00;  9.9999998E-03; -2.9439536E-01;8547;  6.6467249E-01;  0.0000000E+00; -9.2805881E-04;  9.9719604E+02;  3.4238389E-01; -2.3218179E+03;3; -1.8029887E+02;  0.0000000E+00;  5.0044582E+01;0;  7.2371726E+00;  3.4801272E+03;  0.0000000E+00; -1.1399359E+01;  4.0000000E+04;  0.0000000E+00;  3.8853195E+04;  8.0153618E+00;  0.0000000E+00; -7.7818906E-01;  2.4578500E+04;
  1.4611822E+00;  9.9999998E-03; -3.0449781E-01;8546;  6.6110188E-01;  0.0000000E+00; -1.7191528E-03;  9.9678583E+02;  3.4066367E-01; -2.6614155E+03;3; -1.8987445E+02;  0.0000000E+00;  4.6773846E+01;0;  7.2168407E+00;  3.5177561E+03;  0.0000000E+00; -7.3732028E+00;  4.0000000E+04;  0.0000000E+00;  3.8881477E+04;  8.0037394E+00;  0.0000000E+00; -7.8689879E-01;  6.6051724E+03;
  1.4872565E+00;  9.9999998E-03; -2.8418094E-01;8609;  9.8833323E-01;  0.0000000E+00; -9.3698569E-02;  1.0032880E+03;  3.1457064E-01;  2.7217471E+03;3; -1.0653741E+02;  0.0000000E+00;  3.8866978E+01;0;  6.1776948E+00;  4.1743369E+03;  0.0000000E+00; -1.4152972E+01;  4.0000000E+04;  0.0000000E+00;  3.8778191E+04;  6.2636242E+00;  0.0000000E+00; -8.5929595E-02;  6.0086121E+04;
  1.4904244E+00;  9.9999998E-03; -2.9428351E-01;8608;  9.9809295E-01;  0.0000000E+00; -8.6854219E-02;  1.0031467E+03;  3.1271687E-01;  2.6048042E+03;3; -1.0597935E+02;  0.0000000E+00;  3.8820370E+01;0;  5.9849806E+00;  4.2270566E+03;  0.0000000E+00; -1.2706824E+01;  4.0000000E+04;  0.0000000E+00;  3.8788059E+04;  6.1403065E+00;  0.0000000E+00; -1.5532586E-01;  5.2960684E+04;
  1.4937626E+00;  9.9999998E-03; -3.0438623E-01;8607;  1.0073537E+00;  0.0000000E+00; -8.3574980E-02;  1.0023461E+03;  3.1085411E-01;  1.9419971E+03;3; -1.0780606E+02;  0.0000000E+00;  3.8855827E+01;0;  5.7967963E+00;  4.2795747E+03;  0.0000000E+00; -4.1892042E+00;  4.0000000E+04;  0.0000000E+00;  3.8815191E+04;  5.9877439E+00;  0.0000000E+00; -1.9094764E-01;  1.7417102E+04;
  1.4845589E+00;  9.9999998E-03; -2.7406290E-01;8610;  9.7546017E-01;  0.0000000E+00; -1.0309421E-01;  1.0031219E+03;  3.1593972E-01;  2.5844656E+03;3; -1.0931158E+02;  0.0000000E+00;  3.7328049E+01;0;  6.3093028E+00;  4.1344492E+03;  0.0000000E+00; -1.2147403E+01;  4.0000000E+04;  0.0000000E+00;  3.8794195E+04;  6.3350735E+00;  0.0000000E+00; -2.5770769E-02;  5.2475574E+04;
  1.5132694E+00;  9.9999998E-03; -2.7382678E-01;8671;  1.1319875E+00;  0.0000000E+00; -1.4308219E-01;  1.0065948E+03;  2.8803733E-01;  5.4570596E+03;3; -2.3524828E+01;  0.0000000E+00;  1.3040772E+01;0;  4.1912231E+00;  5.0051714E+03;  0.0000000E+00; -1.5624331E+01;  4.0000000E+04;  0.0000000E+00;  3.8821707E+04;  3.9660180E+00;  0.0000000E+00;  2.2520521E-01;  8.0440594E+04;
  1.5152930E+00;  9.9999998E-03; -2.8396839E-01;8670;  1.1375455E+00;  0.0000000E+00; -1.3590787E-01;  1.0064991E+03;  2.8686759E-01;  5.3776489E+03;3; -2.2871351E+01;  0.0000000E+00;  1.4203988E+01;0;  4.1627660E+00;  5.0499717E+03;  0.0000000E+00; -1.7548401E+01;  4.0000000E+04;  0.0000000E+00;  3.8801480E+04;  3.9377620E+00;  0.0000000E+00;  2.2500384E-01;  9.1248125E+04;
  1.5188369E+00;  9.9999998E-03; -2.9407912E-01;8669;  1.1464421E+00;  0.0000000E+00; -1.2975176E-01;  1.0056238E+03;  2.8484449E-01;  4.6531196E+03;3; -2.0921764E+01;  0.0000000E+00;  1.4536980E+01;0;  3.9700682E+00;  5.1216382E+03;  0.0000000E+00; -1.4652660E+01;  4.0000000E+04;  0.0000000E+00;  3.8811859E+04;  3.7738841E+00;  0.0000000E+00;  1.9618425E-01;  8.1482859E+04;
  1.5227679E+00;  9.9999998E-03; -3.0418196E-01;8668;  1.1605203E+00;  0.0000000E+00; -1.2679635E-01;  1.0037951E+03;  2.8301755E-01;  3.1398367E+03;3; -1.6488386E+01;  0.0000000E+00;  1.4989351E+01;0;  3.7563200E+00;  5.1826074E+03;  0.0000000E+00; -5.7994020E-01;  4.0000000E+04;  0.0000000E+00;  3.8844070E+04;  3.5711188E+00;  0.0000000E+00;  1.8520105E-01;  2.3782039E+04;
  1.5383130E+00;  9.9999998E-03; -2.7361539E-01;8732;  1.1661979E+00;  0.0000000E+00; -1.4447965E-01;  1.0070267E+03;  2.6330850E-01;  5.8112559E+03;3;  2.4392128E+01;  0.0000000E+00; -4.2575650E+00;0;  2.3943295E+00;  5.9905850E+03;  0.0000000E+00; -1.6611975E+01;  4.0000000E+04;  0.0000000E+00;  3.8859312E+04;  2.1205778E+00;  0.0000000E+00;  2.7375185E-01;  9.1052219E+04;
  1.5393417E+00;  9.9999998E-03; -2.8377536E-01;8731;  1.1721287E+00;  0.0000000E+00; -1.3934411E-01;  1.0069017E+03;  2.6252416E-01;  5.7077783E+03;3;  2.0442104E+01;  0.0000000E+00; -3.8024628E+00;0;  2.4270689E+00;  6.0319922E+03;  0.0000000E+00; -1.7999584E+01;  4.0000000E+04;  0.0000000E+00;  3.8841266E+04;  2.1641104E+00;  0.0000000E+00;  2.6295856E-01;  9.5222836E+04;
  1.5432746E+00;  9.9999998E-03; -2.9388908E-01;8730;  1.1807530E+00;  0.0000000E+00; -1.3377890E-01;  1.0049810E+03;  2.6049960E-01;  4.1188047E+03;3;  2.0162441E+01;  0.0000000E+00; -4.2476964E+00;0;  2.2482805E+00;  6.1171875E+03;  0.0000000E+00; -1.4901861E+01;  4.0000000E+04;  0.0000000E+00;  3.8861406E+04;  2.0180111E+00;  0.0000000E+00;  2.3026951E-01;  8.6610883E+04;
  1.5476456E+00;  9.9999998E-03; -3.0398938E-01;8729;  1.1952993E+00;  0.0000000E+00; -1.3165754E-01;  1.0016016E+03;  2.5905430E-01;  1.3242008E+03;3;  2.0272966E+01;  0.0000000E+00; -4.9081674E+00;0;  2.0811145E+00;  6.1613516E+03;  0.0000000E+00;  4.2827601E+00;  4.0000000E+04;  0.0000000E+00;  3.8905414E+04;  1.8492560E+00;  0.0000000E+00;  2.3185845E-01;  1.6272404E+04;
  1.5612239E+00;  9.9999998E-03; -2.7345619E-01;8793;  1.1687376E+00;  0.0000000E+00; -1.3071947E-01;  1.0057722E+03;  2.4174997E-01;  4.7702783E+03;3;  3.2047268E+01;  0.0000000E+00; -1.2179422E+01;0;  1.1965079E+00;  7.0858633E+03;  0.0000000E+00; -1.4447354E+01;  4.0000000E+04;  0.0000000E+00;  3.8895684E+04;  9.2434770E-01;  0.0000000E+00;  2.7216026E-01;  7.5881352E+04;
  1.5617108E+00;  9.9999998E-03; -2.8363109E-01;8792;  1.1773663E+00;  0.0000000E+00; -1.2705858E-01;  1.0057965E+03;  2.4125478E-01;  4.7903877E+03;3;  3.0277948E+01;  0.0000000E+00; -1.1766198E+01;0;  1.2067757E+00;  7.1249419E+03;  0.0000000E+00; -1.5262256E+01;  4.0000000E+04;  0.0000000E+00;  3.8873832E+04;  9.7798616E-01;  0.0000000E+00;  2.2878954E-01;  7.4914742E+04;
  1.5653640E+00;  9.9999998E-03; -2.9375079E-01;8791;  1.1870517E+00;  0.0000000E+00; -1.2232837E-01;  1.0028681E+03;  2.3956168E-01;  2.3698887E+03;3;  2.9453798E+01;  0.0000000E+00; -1.2752692E+01;0;  1.0774641E+00;  7.2061646E+03;  0.0000000E+00; -1.2217994E+01;  4.0000000E+04;  0.0000000E+00;  3.8901230E+04;  8.9764184E-01;  0.0000000E+00;  1.7982224E-01;  6.9274234E+04;
  1.5690632E+00;  9.9999998E-03; -3.0385479E-01;8790;  1.2019491E+00;  0.0000000E+00; -1.2071608E-01;  9.9826422E+02;  2.3887002E-01; -1.4340908E+03;3;  3.0603771E+01;  0.0000000E+00; -1.4522539E+01;0;  9.9641138E-01;  7.1973687E+03;  0.0000000E+00;  1.2444177E+01;  4.0000000E+04;  0.0000000E+00;  3.8954355E+04;  8.2556462E-01;  0.0000000E+00;  1.7084678E-01;  1.2162728E+04;
  1.5826151E+00;  9.9999998E-03; -2.7335340E-01;8854;  1.1670232E+00;  0.0000000E+00; -1.1322958E-01;  1.0036408E+03;  2.2328047E-01;  3.0060625E+03;3;  3.4105415E+01;  0.0000000E+00; -1.5324637E+01;0;  5.1739728E-01;  8.2687910E+03;  0.0000000E+00; -1.0523105E+01;  4.0000000E+04;  0.0000000E+00;  3.8928215E+04;  2.4230927E-01;  0.0000000E+00;  2.7508798E-01;  4.9137297E+04;
  1.5828856E+00;  9.9999998E-03; -2.8353539E-01;8853;  1.1762885E+00;  0.0000000E+00; -1.1051020E-01;  1.0036710E+03;  2.2296022E-01;  3.0309229E+03;3;  3.3282360E+01;  0.0000000E+00; -1.5629947E+01;0;  4.8507106E-01;  8.3055273E+03;  0.0000000E+00; -1.1822837E+01;  4.0000000E+04;  0.0000000E+00;  3.8903391E+04;  2.8066322E-01;  0.0000000E+00;  2.0440783E-01;  5.1238242E+04;
  1.5857904E+00;  9.9999998E-03; -2.9366592E-01;8852;  1.1859313E+00;  0.0000000E+00; -1.0638784E-01;  1.0001235E+03;  2.2177719E-01;  1.0195365E+02;3;  3.2657116E+01;  0.0000000E+00; -1.6351686E+01;0;  3.8873124E-01;  8.3638867E+03;  0.0000000E+00; -7.4970326E+00;  4.0000000E+04;  0.0000000E+00;  3.8929641E+04;  2.5846666E-01;  0.0000000E+00;  1.3026457E-01;  4.5106016E+04;
  1.5879117E+00;  9.9999998E-03; -3.0378538E-01;8851;  1.1998218E+00;  0.0000000E+00; -1.0542971E-01;  9.9581671E+02;  2.2188544E-01; -3.4530381E+03;3;  3.4912712E+01;  0.0000000E+00; -1.8609209E+01;0;  3.6392719E-01;  8.2903730E+03;  0.0000000E+00;  2.2667110E+01;  4.0000000E+04;  0.0000000E+00;  3.8973375E+04;  2.6711097E-01;  0.0000000E+00;  9.6816197E-02;  4.7572297E+04;
  1.6028693E+00;  9.9999998E-03; -2.7330405E-01;8914;  1.1635305E+00;  0.0000000E+00; -9.6200280E-02;  1.0006614E+03;  2.0746066E-01;  5.4541888E+02;3;  3.5868500E+01;  0.0000000E+00; -1.7062788E+01;0;  1.6831177E-01;  9.5234805E+03;  0.0000000E+00; -8.5941677E+00;  4.0000000E+04;  0.0000000E+00;  3.8954945E+04; -1.2119155E-01;  0.0000000E+00;  2.8950334E-01;  3.0342211E+04;
  1.6028715E+00;  9.9999998E-03; -2.8348768E-01;8913;  1.1729404E+00;  0.0000000E+00; -9.4110437E-02;  1.0005367E+03;  2.0728157E-01;  4.4268582E+02;3;  3.5044941E+01;  0.0000000E+00; -1.7335669E+01;0;  1.0756853E-01;  9.5536875E+03;  0.0000000E+00; -9.7196941E+00;  4.0000000E+04;  0.0000000E+00;  3.8930281E+04; -9.2271015E-02;  0.0000000E+00;  1.9983955E-01;  3.3366906E+04;
  1.6049458E+00;  9.9999998E-03; -2.9362622E-01;8912;  1.1824346E+00;  0.0000000E+00; -9.0933062E-02;  9.9665588E+02;  2.0663814E-01; -2.7574175E+03;3;  3.4784103E+01;  0.0000000E+00; -1.7988102E+01;0;  2.5352426E-02;  9.5698135E+03;  0.0000000E+00; -1.2730892E+00;  4.0000000E+04;  0.0000000E+00;  3.8952691E+04; -8.4904984E-02;  0.0000000E+00;  1.1025741E-01;  2.0954514E+04;
  1.6216133E+00;  9.9999998E-03; -2.7330840E-01;8973;  1.1586370E+00;  0.0000000E+00; -8.1461765E-02;  9.9760284E+02;  1.9408765E-01; -1.9739731E+03;3;  3.8036743E+01;  0.0000000E+00; -1.8026405E+01;0;  1.0266960E-02;  1.0820934E+04;  0.0000000E+00; -7.0682330E+00;  4.0000000E+04;  0.0000000E+00;  3.8971172E+04; -3.0325839E-01;  0.0000000E+00;  3.1352535E-01;  1.4688962E+04;
  1.6214446E+00;  9.9999998E-03; -2.8349295E-01;8972;  1.1680160E+00;  0.0000000E+00; -7.9469398E-02;  9.9712573E+02;  1.9402938E-01; -2.3668601E+03;3;  3.7257500E+01;  0.0000000E+00; -1.8384727E+01;0; -7.2338417E-02;  1.0837904E+04;  0.0000000E+00; -7.5658460E+00;  4.0000000E+04;  0.0000000E+00;  3.8944254E+04; -2.8036737E-01;  0.0000000E+00;  2.0802896E-01;  1.9151676E+04;
  1.6225350E+00;  9.9999998E-03; -2.9363918E-01;8971;  1.1774533E+00;  0.0000000E+00; -7.7114522E-02;  9.9361267E+02;  1.9387043E-01; -5.2592656E+03;3;  3.6703934E+01;  0.0000000E+00; -1.8822973E+01;0; -1.5241890E-01;  1.0805347E+04;  0.0000000E+00;  7.7859402E+00;  4.0000000E+04;  0.0000000E+00;  3.8957242E+04; -2.5819066E-01;  0.0000000E+00;  1.0577177E-01;  6.6291992E+03;
  1.6384672E+00;  9.9999998E-03; -2.9370558E-01;9030;  1.1714119E+00;  0.0000000E+00; -6.5716200E-02;  9.9262268E+02;  1.8308868E-01; -6.0644121E+03;3;  3.8965012E+01;  0.0000000E+00; -1.9353874E+01;0; -2.3318967E-01;  1.2085604E+04;  0.0000000E+00;  1.8929119E+01;  4.0000000E+04;  0.0000000E+00;  3.8934680E+04; -3.5020918E-01;  0.0000000E+00;  1.1701950E-01;  3.4380465E+04;
  1.6385490E+00;  9.9999998E-03; -2.8354943E-01;9031;  1.1618373E+00;  0.0000000E+00; -6.6808999E-02;  9.9443359E+02;  1.8289268E-01; -4.5757412E+03;3;  3.9452255E+01;  0.0000000E+00; -1.8986174E+01;0; -1.5948218E-01;  1.2141968E+04;  0.0000000E+00; -2.7843344E+00;  4.0000000E+04;  0.0000000E+00;  3.8940406E+04; -3.8097566E-01;  0.0000000E+00;  2.2149348E-01;  2.6700566E+03;
  1.6389877E+00;  9.9999998E-03; -2.7336368E-01;9032;  1.1525599E+00;  0.0000000E+00; -6.8783209E-02;  9.9493353E+02;  1.8282312E-01; -4.1645449E+03;3;  4.0038822E+01;  0.0000000E+00; -1.8278055E+01;0; -6.3191861E-02;  1.2139965E+04;  0.0000000E+00; -4.5537434E+00;  4.0000000E+04;  0.0000000E+00;  3.8972809E+04; -4.0336442E-01;  0.0000000E+00;  3.4017256E-01;  4.1142568E+03;
  1.6532634E+00;  9.9999998E-03; -2.9382053E-01;9089;  1.1643783E+00;  0.0000000E+00; -5.6304801E-02;  9.9387622E+02;  1.7386173E-01; -5.0243359E+03;3;  4.1107304E+01;  0.0000000E+00; -1.9054165E+01;0; -2.6499885E-01;  1.3429666E+04;  0.0000000E+00;  2.6824308E+01;  4.0000000E+04;  0.0000000E+00;  3.8885605E+04; -4.0476376E-01;  0.0000000E+00;  1.3976490E-01;  4.6133207E+04;
  1.6543406E+00;  9.9999998E-03; -2.8365436E-01;9090;  1.1547596E+00;  0.0000000E+00; -5.6417231E-02;  9.9326788E+02;  1.7350978E-01; -5.5225825E+03;3;  4.1520615E+01;  0.0000000E+00; -1.8452034E+01;0; -1.9545195E-01;  1.3467953E+04;  0.0000000E+00;  4.6996498E+00;  4.0000000E+04;  0.0000000E+00;  3.8915625E+04; -4.4002858E-01;  0.0000000E+00;  2.4457663E-01;  1.4650674E+04;
  1.6551378E+00;  9.9999998E-03; -2.7346784E-01;9091;  1.1456263E+00;  0.0000000E+00; -5.7963546E-02;  9.9318359E+02;  1.7333907E-01; -5.5910664E+03;3;  4.2029587E+01;  0.0000000E+00; -1.7984407E+01;0; -9.6659780E-02;  1.3469929E+04;  0.0000000E+00; -1.4261231E-01;  4.0000000E+04;  0.0000000E+00;  3.8955883E+04; -4.6371409E-01;  0.0000000E+00;  3.6705431E-01;  1.7283373E+04;
  1.6691792E+00;  9.9999998E-03; -2.8380314E-01;9148;  1.1470681E+00;  0.0000000E+00; -4.8078865E-02;  9.9370923E+02;  1.6554131E-01; -5.1480981E+03;3;  4.3721832E+01;  0.0000000E+00; -1.8252340E+01;0; -2.0051256E-01;  1.4816646E+04;  0.0000000E+00;  1.1469712E+01;  4.0000000E+04;  0.0000000E+00;  3.8870457E+04; -4.7759411E-01;  0.0000000E+00;  2.7708155E-01;  2.2601994E+04;
  1.6703368E+00;  9.9999998E-03; -2.7361879E-01;9149;  1.1380785E+00;  0.0000000E+00; -4.8988711E-02;  9.9253076E+02;  1.6531689E-01; -6.1111904E+03;3;  4.4248615E+01;  0.0000000E+00; -1.7843441E+01;0; -1.0714957E-01;  1.4804500E+04;  0.0000000E+00;  4.8075342E+00;  4.0000000E+04;  0.0000000E+00;  3.8919723E+04; -5.0365222E-01;  0.0000000E+00;  3.9650264E-01;  2.7914809E+04;
  1.6834071E+00;  9.9999998E-03; -2.8399235E-01;9205;  1.1387652E+00;  0.0000000E+00; -4.0845968E-02;  9.9529352E+02;  1.5873489E-01; -3.8405918E+03;3;  4.5893120E+01;  0.0000000E+00; -1.7732119E+01;0; -1.9368187E-01;  1.6175881E+04;  0.0000000E+00;  1.3731204E+01;  4.0000000E+04;  0.0000000E+00;  3.8806848E+04; -5.0129288E-01;  0.0000000E+00;  3.0761102E-01;  1.5228464E+04;
  1.6847432E+00;  9.9999998E-03; -2.7381501E-01;9206;  1.1300113E+00;  0.0000000E+00; -4.1571248E-02;  9.9322827E+02;  1.5851289E-01; -5.5242104E+03;3;  4.6523720E+01;  0.0000000E+00; -1.8168211E+01;0; -1.0316828E-01;  1.6143637E+04;  0.0000000E+00;  9.0488415E+00;  4.0000000E+04;  0.0000000E+00;  3.8862141E+04; -5.2948099E-01;  0.0000000E+00;  4.2631271E-01;  3.0849883E+04;
  1.6973433E+00;  9.9999998E-03; -2.8421223E-01;9262;  1.1300558E+00;  0.0000000E+00; -3.3893876E-02;  9.9707819E+02;  1.5290499E-01; -2.3761064E+03;3;  4.8173393E+01;  0.0000000E+00; -1.7951416E+01;0; -1.8766177E-01;  1.7510836E+04;  0.0000000E+00;  1.1416622E+01;  4.0000000E+04;  0.0000000E+00;  3.8736730E+04; -5.1332688E-01;  0.0000000E+00;  3.2566512E-01;  5.7028032E+03;
  1.6986111E+00;  9.9999998E-03; -2.7405107E-01;9263;  1.1213299E+00;  0.0000000E+00; -3.4318186E-02;  9.9504529E+02;  1.5271489E-01; -4.0279028E+03;3;  4.8980881E+01;  0.0000000E+00; -1.9354956E+01;0; -1.0797119E-01;  1.7478617E+04;  0.0000000E+00;  9.7702141E+00;  4.0000000E+04;  0.0000000E+00;  3.8787484E+04; -5.4517061E-01;  0.0000000E+00;  4.3719941E-01;  2.1527184E+04;
  1.7122376E+00;  9.9999998E-03; -2.7431592E-01;9319;  1.1121663E+00;  0.0000000E+00; -2.6380951E-02;  9.9701294E+02;  1.4776184E-01; -2.4183025E+03;3;  5.1613945E+01;  0.0000000E+00; -2.1881992E+01;0; -1.3380900E-01;  1.8770961E+04;  0.0000000E+00;  6.1354361E+00;  4.0000000E+04;  0.0000000E+00;  3.8707102E+04; -5.5120480E-01;  0.0000000E+00;  4.1739580E-01;  1.7132903E+03;
  1.7256740E+00;  9.9999998E-03; -2.7460587E-01;9374;  1.1026169E+00;  0.0000000E+00; -1.7771510E-02;  9.9855402E+02;  1.4354226E-01; -1.1649066E+03;3;  5.4354977E+01;  0.0000000E+00; -2.3956713E+01;0; -1.7995346E-01;  1.9986590E+04;  0.0000000E+00;  4.0885835E+00;  4.0000000E+04;  0.0000000E+00;  3.8620984E+04; -5.4832399E-01;  0.0000000E+00;  3.6837053E-01;  1.7311523E+04;
  1.2348032E-03;  9.9999998E-03; -2.6981843E-01;2450;  1.1669626E-03;  0.0000000E+00; -3.2674911E-04;  9.9313403E+02;  1.0000000E-01; -5.6883330E+03;3;  4.3669235E+01;  0.0000000E+00;  2.8922539E+01;0; -4.0545012E-03;  3.9449418E+04;  0.0000000E+00; -2.6849145E-01;  4.0000000E+04;  0.0000000E+00;  4.0002648E+04; -3.3220639E-03;  0.0000000E+00; -7.3243713E-04;  1.0443914E+03;
  1.7226228E-03;  9.9999998E-03; -2.5983736E-01;2451;  1.5423450E-03;  0.0000000E+00; -3.7831732E-04;  9.9194897E+02;  1.0000000E-01; -6.6701323E+03;3;  5.5030521E+01;  0.0000000E+00;  2.7278986E+01;0; -4.5492151E-03;  3.9350598E+04;  0.0000000E+00; -3.2722837E-01;  4.0000000E+04;  0.0000000E+00;  4.0009914E+04; -3.9441818E-03;  0.0000000E+00; -6.0503324E-04;  2.0969072E+03;
  2.1768939E-03;  9.9999998E-03; -2.4987221E-01;2452;  1.8291188E-03;  0.0000000E+00; -4.3066390E-04;  9.9079077E+02;  1.0000000E-01; -7.6296606E+03;3;  6.6085548E+01;  0.0000000E+00;  2.5558304E+01;0; -5.0732191E-03;  3.9255117E+04;  0.0000000E+00; -4.0118840E-01;  4.0000000E+04;  0.0000000E+00;  4.0017547E+04; -4.6354625E-03;  0.0000000E+00; -4.3775671E-04;  2.9407629E+03;
  2.5823251E-03;  9.9999998E-03; -2.3990785E-01;2453;  2.0225069E-03;  0.0000000E+00; -4.7055914E-04;  9.8968329E+02;  1.0000000E-01; -8.5472148E+03;3;  7.5859268E+01;  0.0000000E+00;  2.3677099E+01;0; -5.6223935E-03;  3.9166555E+04;  0.0000000E+00; -4.7842649E-01;  4.0000000E+04;  0.0000000E+00;  4.0020309E+04; -5.3784382E-03;  0.0000000E+00; -2.4395541E-04;  3.4712534E+03;
  2.9372331E-03;  9.9999998E-03; -2.2993846E-01;2454;  2.1268546E-03;  0.0000000E+00; -4.9199595E-04;  9.8866718E+02;  1.0000000E-01; -9.3890186E+03;3;  8.3626152E+01;  0.0000000E+00;  2.1468552E+01;0; -6.1893640E-03;  3.9088125E+04;  0.0000000E+00; -5.4379952E-01;  4.0000000E+04;  0.0000000E+00;  4.0022059E+04; -6.1486047E-03;  0.0000000E+00; -4.0759449E-05;  3.6729194E+03;
  3.2351452E-03;  9.9999998E-03; -2.1996205E-01;2455;  2.1573752E-03;  0.0000000E+00; -4.9142324E-04;  9.8776868E+02;  1.0000000E-01; -1.0133441E+04;3;  8.9143257E+01;  0.0000000E+00;  1.8914898E+01;0; -6.7608543E-03;  3.9020805E+04;  0.0000000E+00; -5.8367151E-01;  4.0000000E+04;  0.0000000E+00;  4.0020211E+04; -6.9151483E-03;  0.0000000E+00;  1.5429428E-04;  3.5908032E+03;
  3.4729354E-03;  9.9999998E-03; -2.0997883E-01;2456;  2.1361762E-03;  0.0000000E+00; -4.6796002E-04;  9.8700482E+02;  1.0000000E-01; -1.0766264E+04;3;  9.2535210E+01;  0.0000000E+00;  1.6152397E+01;0; -7.3204450E-03;  3.8964965E+04;  0.0000000E+00; -5.8990622E-01;  4.0000000E+04;  0.0000000E+00;  4.0016684E+04; -7.6465495E-03;  0.0000000E+00;  3.2610467E-04;  3.3040400E+03;
  3.6546523E-03;  9.9999998E-03; -1.9998902E-01;2457;  2.0879586E-03;  0.0000000E+00; -4.2200458E-04;  9.8637891E+02;  1.0000000E-01; -1.1284816E+04;3;  9.4180901E+01;  0.0000000E+00;  1.3404726E+01;0; -7.8515289E-03;  3.8920793E+04;  0.0000000E+00; -5.6159103E-01;  4.0000000E+04;  0.0000000E+00;  4.0013305E+04; -8.3156861E-03;  0.0000000E+00;  4.6415755E-04;  2.9006501E+03;
  3.7896277E-03;  9.9999998E-03; -1.8999374E-01;2458;  2.0351948E-03;  0.0000000E+00; -3.5803972E-04;  9.8589166E+02;  1.0000000E-01; -1.1688509E+04;3;  9.4506989E+01;  0.0000000E+00;  1.0876039E+01;0; -8.3386516E-03;  3.8886750E+04;  0.0000000E+00; -5.0433952E-01;  4.0000000E+04;  0.0000000E+00;  4.0009551E+04; -8.9018531E-03;  0.0000000E+00;  5.6320120E-04;  2.4601213E+03;
  3.8871516E-03;  9.9999998E-03; -1.7999418E-01;2459;  1.9955775E-03;  0.0000000E+00; -2.8325256E-04;  9.8552441E+02;  1.0000000E-01; -1.1992747E+04;3;  9.4013702E+01;  0.0000000E+00;  8.6995764E+00;0; -8.7680463E-03;  3.8861750E+04;  0.0000000E+00; -4.2793217E-01;  4.0000000E+04;  0.0000000E+00;  4.0006211E+04; -9.3911234E-03;  0.0000000E+00;  6.2307675E-04;  2.0427704E+03;
  3.9576567E-03;  9.9999998E-03; -1.6999100E-01;2460;  1.9794903E-03;  0.0000000E+00; -2.0707524E-04;  9.8526202E+02;  1.0000000E-01; -1.2210124E+04;3;  9.3067818E+01;  0.0000000E+00;  6.9102173E+00;0; -9.1291135E-03;  3.8844043E+04;  0.0000000E+00; -3.4348148E-01;  4.0000000E+04;  0.0000000E+00;  4.0003613E+04; -9.7767580E-03;  0.0000000E+00;  6.4764410E-04;  1.6867994E+03;
  4.0092287E-03;  9.9999998E-03; -1.5998565E-01;2461;  1.9900757E-03;  0.0000000E+00; -1.3484035E-04;  9.8508539E+02;  1.0000000E-01; -1.2356490E+04;3;  9.1955795E+01;  0.0000000E+00;  5.4736500E+00;0; -9.4150733E-03;  3.8832344E+04;  0.0000000E+00; -2.6094985E-01;  4.0000000E+04;  0.0000000E+00;  4.0001156E+04; -1.0058301E-02;  0.0000000E+00;  6.4322737E-04;  1.4115043E+03;
  4.0483577E-03;  9.9999998E-03; -1.4997995E-01;2462;  2.0249097E-03;  0.0000000E+00; -7.5040080E-05;  9.8497156E+02;  1.0000000E-01; -1.2450759E+04;3;  9.0900803E+01;  0.0000000E+00;  4.3127675E+00;0; -9.6244868E-03;  3.8824641E+04;  0.0000000E+00; -1.8761136E-01;  4.0000000E+04;  0.0000000E+00;  4.0000672E+04; -1.0241259E-02;  0.0000000E+00;  6.1677163E-04;  1.2212617E+03;
  4.0787328E-03;  9.9999998E-03; -1.3997586E-01;2463;  2.0774510E-03;  0.0000000E+00; -3.0939773E-05;  9.8490564E+02;  1.0000000E-01; -1.2505375E+04;3;  9.0002197E+01;  0.0000000E+00;  3.3490636E+00;0; -9.7607728E-03;  3.8820016E+04;  0.0000000E+00; -1.2756962E-01;  4.0000000E+04;  0.0000000E+00;  3.9999438E+04; -1.0335686E-02;  0.0000000E+00;  5.7491270E-04;  1.1092504E+03;
  4.1015847E-03;  9.9999998E-03; -1.2997329E-01;2464;  2.1392177E-03;  0.0000000E+00; -1.3216202E-06;  9.8486151E+02;  1.0000000E-01; -1.2541966E+04;3;  8.9398895E+01;  0.0000000E+00;  2.5390880E+00;0; -9.8324744E-03;  3.8817031E+04;  0.0000000E+00; -8.2065880E-02;  4.0000000E+04;  0.0000000E+00;  3.9999309E+04; -1.0355689E-02;  0.0000000E+00;  5.2321400E-04;  1.0605487E+03;
  4.1171391E-03;  9.9999998E-03; -1.1997030E-01;2465;  2.2005814E-03;  0.0000000E+00;  1.5721125E-05;  9.8483655E+02;  1.0000000E-01; -1.2562657E+04;3;  8.9034927E+01;  0.0000000E+00;  1.8568175E+00;0; -9.8522278E-03;  3.8815328E+04;  0.0000000E+00; -5.0267790E-02;  4.0000000E+04;  0.0000000E+00;  3.9998648E+04; -1.0317974E-02;  0.0000000E+00;  4.6574615E-04;  1.0566698E+03;
  4.1255197E-03;  9.9999998E-03; -1.0996680E-01;2466;  2.2536789E-03;  0.0000000E+00;  2.3345818E-05;  9.8482312E+02;  1.0000000E-01; -1.2573768E+04;3;  8.8891563E+01;  0.0000000E+00;  1.2881801E+00;0; -9.8357340E-03;  3.8813594E+04;  0.0000000E+00; -2.9715760E-02;  4.0000000E+04;  0.0000000E+00;  3.9998363E+04; -1.0241052E-02;  0.0000000E+00;  4.0531851E-04;  1.0813369E+03;
  1.1148429E-02;  9.9999998E-03; -2.6976919E-01;2510;  7.7270990E-04;  0.0000000E+00; -1.6101240E-04;  9.9425220E+02;  1.0000000E-01; -4.7619395E+03;3;  3.3091427E+01;  0.0000000E+00;  2.5102470E+01;0; -5.5130767E-03;  3.9535918E+04;  0.0000000E+00; -3.0900955E-01;  4.0000000E+04;  0.0000000E+00;  4.0004926E+04; -4.7399234E-03;  0.0000000E+00; -7.7315303E-04;  1.2537786E+03;
  1.1611408E-02;  9.9999998E-03; -2.5980872E-01;2511;  1.0367432E-03;  0.0000000E+00; -2.0463167E-04;  9.9334271E+02;  1.0000000E-01; -5.5154487E+03;3;  4.1695766E+01;  0.0000000E+00;  2.2863537E+01;0; -6.1911372E-03;  3.9456863E+04;  0.0000000E+00; -3.8166896E-01;  4.0000000E+04;  0.0000000E+00;  4.0012617E+04; -5.5756439E-03;  0.0000000E+00; -6.1549316E-04;  2.3172795E+03;
  1.2024461E-02;  9.9999998E-03; -2.4985956E-01;2512;  1.2176952E-03;  0.0000000E+00; -2.4486394E-04;  9.9244623E+02;  1.0000000E-01; -6.2581440E+03;3;  4.9743488E+01;  0.0000000E+00;  2.1088385E+01;0; -6.8744021E-03;  3.9382543E+04;  0.0000000E+00; -4.8197246E-01;  4.0000000E+04;  0.0000000E+00;  4.0019461E+04; -6.4581847E-03;  0.0000000E+00; -4.1621728E-04;  3.1179287E+03;
  1.2379561E-02;  9.9999998E-03; -2.3990701E-01;2513;  1.3092518E-03;  0.0000000E+00; -2.7590824E-04;  9.9160779E+02;  1.0000000E-01; -6.9527910E+03;3;  5.6273113E+01;  0.0000000E+00;  1.9472439E+01;0; -7.5557735E-03;  3.9315117E+04;  0.0000000E+00; -5.9235036E-01;  4.0000000E+04;  0.0000000E+00;  4.0022984E+04; -7.3618423E-03;  0.0000000E+00; -1.9393105E-04;  3.5653518E+03;
  1.2681116E-02;  9.9999998E-03; -2.2994460E-01;2514;  1.3197644E-03;  0.0000000E+00; -2.9250246E-04;  9.9084930E+02;  1.0000000E-01; -7.5811685E+03;3;  6.0838066E+01;  0.0000000E+00;  1.7731600E+01;0; -8.2284464E-03;  3.9256539E+04;  0.0000000E+00; -6.8976068E-01;  4.0000000E+04;  0.0000000E+00;  4.0023191E+04; -8.2589034E-03;  0.0000000E+00;  3.0456722E-05;  3.6633381E+03;
  1.2924315E-02;  9.9999998E-03; -2.1997258E-01;2515;  1.2668084E-03;  0.0000000E+00; -2.9346847E-04;  9.9019672E+02;  1.0000000E-01; -8.1218442E+03;3;  6.3369534E+01;  0.0000000E+00;  1.5719872E+01;0; -8.8813417E-03;  3.9208328E+04;  0.0000000E+00; -7.5318360E-01;  4.0000000E+04;  0.0000000E+00;  4.0020293E+04; -9.1184285E-03;  0.0000000E+00;  2.3708685E-04;  3.4796287E+03;
  1.3109623E-02;  9.9999998E-03; -2.0999114E-01;2516;  1.1749347E-03;  0.0000000E+00; -2.7895579E-04;  9.8964349E+02;  1.0000000E-01; -8.5801523E+03;3;  6.4261360E+01;  0.0000000E+00;  1.3508716E+01;0; -9.5029622E-03;  3.9169316E+04;  0.0000000E+00; -7.6992714E-01;  4.0000000E+04;  0.0000000E+00;  4.0016156E+04; -9.9136718E-03;  0.0000000E+00;  4.1070921E-04;  3.1089763E+03;
  1.3244756E-02;  9.9999998E-03; -2.0000154E-01;2517;  1.0696586E-03;  0.0000000E+00; -2.5058375E-04;  9.8921198E+02;  1.0000000E-01; -8.9376729E+03;3;  6.3822559E+01;  0.0000000E+00;  1.1256047E+01;0; -1.0081870E-02;  3.9139738E+04;  0.0000000E+00; -7.3802310E-01;  4.0000000E+04;  0.0000000E+00;  4.0012562E+04; -1.0624324E-02;  0.0000000E+00;  5.4245378E-04;  2.6482205E+03;
  1.3339974E-02;  9.9999998E-03; -1.9000582E-01;2518;  9.7442849E-04;  0.0000000E+00; -2.1160078E-04;  9.8889075E+02;  1.0000000E-01; -9.2037891E+03;3;  6.2560307E+01;  0.0000000E+00;  9.1574755E+00;0; -1.0607140E-02;  3.9118504E+04;  0.0000000E+00; -6.6506982E-01;  4.0000000E+04;  0.0000000E+00;  4.0008477E+04; -1.1237151E-02;  0.0000000E+00;  6.3001044E-04;  2.1775874E+03;
  1.3404882E-02;  9.9999998E-03; -1.8000546E-01;2519;  9.0658059E-04;  0.0000000E+00; -1.6662623E-04;  9.8866351E+02;  1.0000000E-01; -9.3920801E+03;3;  6.0909901E+01;  0.0000000E+00;  7.3401217E+00;0; -1.1068561E-02;  3.9103957E+04;  0.0000000E+00; -5.6475598E-01;  4.0000000E+04;  0.0000000E+00;  4.0004949E+04; -1.1745143E-02;  0.0000000E+00;  6.7658204E-04;  1.7517496E+03;
  1.3449240E-02;  9.9999998E-03; -1.7000164E-01;2520;  8.7522244E-04;  0.0000000E+00; -1.2101386E-04;  9.8851447E+02;  1.0000000E-01; -9.5155332E+03;3;  5.9167946E+01;  0.0000000E+00;  5.8433881E+00;0; -1.1457926E-02;  3.9094707E+04;  0.0000000E+00; -4.5272380E-01;  4.0000000E+04;  0.0000000E+00;  4.0001840E+04; -1.2146953E-02;  0.0000000E+00;  6.8902812E-04;  1.4011410E+03;
  1.3480971E-02;  9.9999998E-03; -1.5999651E-01;2521;  8.8084606E-04;  0.0000000E+00; -7.8767946E-05;  9.8842596E+02;  1.0000000E-01; -9.5888643E+03;3;  5.7530609E+01;  0.0000000E+00;  4.6341190E+00;0; -1.1769881E-02;  3.9089559E+04;  0.0000000E+00; -3.4298664E-01;  4.0000000E+04;  0.0000000E+00;  4.0000961E+04; -1.2445534E-02;  0.0000000E+00;  6.7565276E-04;  1.1377175E+03;
  1.3506036E-02;  9.9999998E-03; -1.4999220E-01;2522;  9.1788999E-04;  0.0000000E+00; -4.4140179E-05;  9.8837994E+02;  1.0000000E-01; -9.6269873E+03;3;  5.6112885E+01;  0.0000000E+00;  3.6494668E+00;0; -1.2003715E-02;  3.9086812E+04;  0.0000000E+00; -2.4573819E-01;  4.0000000E+04;  0.0000000E+00;  3.9999289E+04; -1.2648016E-02;  0.0000000E+00;  6.4430089E-04;  9.6088831E+02;
  1.3526573E-02;  9.9999998E-03; -1.3998874E-01;2523;  9.7670953E-04;  0.0000000E+00; -1.8095034E-05;  9.8836182E+02;  1.0000000E-01; -9.6419990E+03;3;  5.4960457E+01;  0.0000000E+00;  2.8310704E+00;0; -1.2162953E-02;  3.9085910E+04;  0.0000000E+00; -1.6661972E-01;  4.0000000E+04;  0.0000000E+00;  3.9998812E+04; -1.2764283E-02;  0.0000000E+00;  6.0133083E-04;  8.6068671E+02;
  1.3543257E-02;  9.9999998E-03; -1.2998560E-01;2524;  1.0459652E-03;  0.0000000E+00; -4.5300948E-07;  9.8835223E+02;  1.0000000E-01; -9.6499492E+03;3;  5.4136765E+01;  0.0000000E+00;  2.1425695E+00;0; -1.2255995E-02;  3.9085031E+04;  0.0000000E+00; -1.0718815E-01;  4.0000000E+04;  0.0000000E+00;  3.9999328E+04; -1.2807284E-02;  0.0000000E+00;  5.5129029E-04;  8.1929749E+02;
  1.3555961E-02;  9.9999998E-03; -1.1998237E-01;2525;  1.1141918E-03;  0.0000000E+00;  1.0130958E-05;  9.8834918E+02;  1.0000000E-01; -9.6524678E+03;3;  5.3580093E+01;  0.0000000E+00;  1.5627303E+00;0; -1.2295308E-02;  3.9084738E+04;  0.0000000E+00; -6.6036053E-02;  4.0000000E+04;  0.0000000E+00;  3.9998953E+04; -1.2792265E-02;  0.0000000E+00;  4.9695792E-04;  8.1477649E+02;
  1.3564228E-02;  9.9999998E-03; -1.0997887E-01;2526;  1.1725056E-03;  0.0000000E+00;  1.4876794E-05;  9.8833917E+02;  1.0000000E-01; -9.6607637E+03;3;  5.3317425E+01;  0.0000000E+00;  1.0796255E+00;0; -1.2296485E-02;  3.9083926E+04;  0.0000000E+00; -3.9646048E-02;  4.0000000E+04;  0.0000000E+00;  3.9999410E+04; -1.2736288E-02;  0.0000000E+00;  4.3980329E-04;  8.2920947E+02;
  2.1014001E-02;  9.9999998E-03; -2.6981223E-01;2571;  3.5537576E-04;  0.0000000E+00; -7.3725882E-05;  9.9558911E+02;  1.0000000E-01; -3.6543164E+03;3;  2.2234035E+01;  0.0000000E+00;  1.8625788E+01;0; -6.7812172E-03;  3.9638465E+04;  0.0000000E+00; -3.8381225E-01;  4.0000000E+04;  0.0000000E+00;  4.0007852E+04; -5.9739882E-03;  0.0000000E+00; -8.0722908E-04;  1.5116586E+03;
  2.1447593E-02;  9.9999998E-03; -2.5985846E-01;2572;  5.2070862E-04;  0.0000000E+00; -1.0919738E-04;  9.9497412E+02;  1.0000000E-01; -4.1638330E+03;3;  2.7632545E+01;  0.0000000E+00;  1.6134037E+01;0; -7.5955978E-03;  3.9583215E+04;  0.0000000E+00; -4.6160910E-01;  4.0000000E+04;  0.0000000E+00;  4.0015586E+04; -6.9789113E-03;  0.0000000E+00; -6.1668630E-04;  2.5115803E+03;
  2.1820318E-02;  9.9999998E-03; -2.4991344E-01;2573;  6.0522853E-04;  0.0000000E+00; -1.4137276E-04;  9.9438507E+02;  1.0000000E-01; -4.6518687E+03;3;  3.2191780E+01;  0.0000000E+00;  1.4601749E+01;0; -8.3909659E-03;  3.9532910E+04;  0.0000000E+00; -5.7424748E-01;  4.0000000E+04;  0.0000000E+00;  4.0021445E+04; -8.0065317E-03;  0.0000000E+00; -3.8443450E-04;  3.2113313E+03;
  2.2131454E-02;  9.9999998E-03; -2.3996030E-01;2574;  6.0658919E-04;  0.0000000E+00; -1.6408839E-04;  9.9384515E+02;  1.0000000E-01; -5.0991646E+03;3;  3.5256790E+01;  0.0000000E+00;  1.3615618E+01;0; -9.1610653E-03;  3.9489176E+04;  0.0000000E+00; -7.0053369E-01;  4.0000000E+04;  0.0000000E+00;  4.0023035E+04; -9.0269241E-03;  0.0000000E+00; -1.3414084E-04;  3.5349263E+03;
  2.2386815E-02;  9.9999998E-03; -2.2999293E-01;2575;  5.3455494E-04;  0.0000000E+00; -1.7468871E-04;  9.9336975E+02;  1.0000000E-01; -5.4930298E+03;3;  3.6595013E+01;  0.0000000E+00;  1.2707160E+01;0; -9.9009043E-03;  3.9453516E+04;  0.0000000E+00; -8.1235695E-01;  4.0000000E+04;  0.0000000E+00;  4.0022508E+04; -1.0010004E-02;  0.0000000E+00;  1.0909964E-04;  3.5064395E+03;
  2.2582736E-02;  9.9999998E-03; -2.2001255E-01;2576;  4.0892125E-04;  0.0000000E+00; -1.7386266E-04;  9.9297113E+02;  1.0000000E-01; -5.8232920E+03;3;  3.6358307E+01;  0.0000000E+00;  1.1577554E+01;0; -1.0603436E-02;  3.9425984E+04;  0.0000000E+00; -8.8427329E-01;  4.0000000E+04;  0.0000000E+00;  4.0019008E+04; -1.0926764E-02;  0.0000000E+00;  3.2332819E-04;  3.2146624E+03;
  2.2721905E-02;  9.9999998E-03; -2.1002139E-01;2577;  2.5558486E-04;  0.0000000E+00; -1.6338001E-04;  9.9265436E+02;  1.0000000E-01; -6.0857046E+03;3;  3.4940678E+01;  0.0000000E+00;  1.0183312E+01;0; -1.1261545E-02;  3.9406055E+04;  0.0000000E+00; -9.0124744E-01;  4.0000000E+04;  0.0000000E+00;  4.0015074E+04; -1.1755182E-02;  0.0000000E+00;  4.9363694E-04;  2.7708809E+03;
  2.2814654E-02;  9.9999998E-03; -2.0002235E-01;2578;  1.0274856E-04;  0.0000000E+00; -1.4417554E-04;  9.9242664E+02;  1.0000000E-01; -6.2743906E+03;3;  3.2748154E+01;  0.0000000E+00;  8.6209955E+00;0; -1.1868415E-02;  3.9392391E+04;  0.0000000E+00; -8.6125785E-01;  4.0000000E+04;  0.0000000E+00;  4.0010637E+04; -1.2482083E-02;  0.0000000E+00;  6.1366800E-04;  2.2776843E+03;
  2.2871649E-02;  9.9999998E-03; -1.9001833E-01;2579; -1.7802244E-05;  0.0000000E+00; -1.1568366E-04;  9.9227539E+02;  1.0000000E-01; -6.3996709E+03;3;  3.0169735E+01;  0.0000000E+00;  7.0167098E+00;0; -1.2418385E-02;  3.9384574E+04;  0.0000000E+00; -7.7363074E-01;  4.0000000E+04;  0.0000000E+00;  4.0006035E+04; -1.3103252E-02;  0.0000000E+00;  6.8486773E-04;  1.8100642E+03;
  2.2903888E-02;  9.9999998E-03; -1.8001150E-01;2580; -8.7127693E-05;  0.0000000E+00; -8.8804838E-05;  9.9219312E+02;  1.0000000E-01; -6.4678667E+03;3;  2.7421692E+01;  0.0000000E+00;  5.5907059E+00;0; -1.2906252E-02;  3.9380988E+04;  0.0000000E+00; -6.5477467E-01;  4.0000000E+04;  0.0000000E+00;  4.0003133E+04; -1.3620540E-02;  0.0000000E+00;  7.1428774E-04;  1.4094644E+03;
  2.2922162E-02;  9.9999998E-03; -1.7000434E-01;2581; -1.1839689E-04;  0.0000000E+00; -6.8918343E-05;  9.9216156E+02;  1.0000000E-01; -6.4939893E+03;3;  2.4988287E+01;  0.0000000E+00;  4.4761276E+00;0; -1.3318180E-02;  3.9380266E+04;  0.0000000E+00; -5.2314842E-01;  4.0000000E+04;  0.0000000E+00;  4.0001906E+04; -1.4030333E-02;  0.0000000E+00;  7.1215292E-04;  1.0906252E+03;
  2.2934463E-02;  9.9999998E-03; -1.5999831E-01;2582; -1.1988421E-04;  0.0000000E+00; -5.2114407E-05;  9.9216229E+02;  1.0000000E-01; -6.4933965E+03;3;  2.3106684E+01;  0.0000000E+00;  3.5874155E+00;0; -1.3645564E-02;  3.9381492E+04;  0.0000000E+00; -3.9512497E-01;  4.0000000E+04;  0.0000000E+00;  4.0000375E+04; -1.4334606E-02;  0.0000000E+00;  6.8904198E-04;  8.5428778E+02;
  2.2945520E-02;  9.9999998E-03; -1.4999351E-01;2583; -9.7713026E-05;  0.0000000E+00; -3.7592232E-05;  9.9218414E+02;  1.0000000E-01; -6.4752734E+03;3;  2.1744940E+01;  0.0000000E+00;  2.8550849E+00;0; -1.3888234E-02;  3.9383684E+04;  0.0000000E+00; -2.8247675E-01;  4.0000000E+04;  0.0000000E+00;  3.9999914E+04; -1.4541797E-02;  0.0000000E+00;  6.5356289E-04;  6.9746118E+02;
  2.2956876E-02;  9.9999998E-03; -1.3998957E-01;2584; -5.8427511E-05;  0.0000000E+00; -2.5763615E-05;  9.9221167E+02;  1.0000000E-01; -6.4524595E+03;3;  2.0835777E+01;  0.0000000E+00;  2.2375286E+00;0; -1.4052306E-02;  3.9385902E+04;  0.0000000E+00; -1.9155504E-01;  4.0000000E+04;  0.0000000E+00;  3.9999109E+04; -1.4663815E-02;  0.0000000E+00;  6.1150960E-04;  6.1303265E+02;
  2.2968339E-02;  9.9999998E-03; -1.2998630E-01;2585; -6.4392952E-06;  0.0000000E+00; -1.8370718E-05;  9.9223279E+02;  1.0000000E-01; -6.4349785E+03;3;  2.0104959E+01;  0.0000000E+00;  1.7329592E+00;0; -1.4154684E-02;  3.9387332E+04;  0.0000000E+00; -1.2385423E-01;  4.0000000E+04;  0.0000000E+00;  3.9999762E+04; -1.4720673E-02;  0.0000000E+00;  5.6598877E-04;  5.8252045E+02;
  2.2979004E-02;  9.9999998E-03; -1.1998349E-01;2586;  6.5277767E-05;  0.0000000E+00; -9.1515094E-06;  9.9224213E+02;  1.0000000E-01; -6.4272749E+03;3;  1.9494944E+01;  0.0000000E+00;  1.2578897E+00;0; -1.4208692E-02;  3.9388184E+04;  0.0000000E+00; -7.7333137E-02;  4.0000000E+04;  0.0000000E+00;  3.9999551E+04; -1.4726683E-02;  0.0000000E+00;  5.1799126E-04;  5.7858881E+02;
  2.2987718E-02;  9.9999998E-03; -1.0998141E-01;2587;  1.2631061E-04;  0.0000000E+00; -2.2114734E-06;  9.9224091E+02;  1.0000000E-01; -6.4282627E+03;3;  1.9108557E+01;  0.0000000E+00;  8.6351615E-01;0; -1.4224539E-02;  3.9388176E+04;  0.0000000E+00; -4.7613051E-02;  4.0000000E+04;  0.0000000E+00;  3.9999348E+04; -1.4691760E-02;  0.0000000E+00;  4.6722085E-04;  5.8007672E+02;
  3.0879935E-02;  9.9999998E-03; -2.6987317E-01;2632; -4.2722863E-06;  0.0000000E+00; -3.6806101E-05;  9.9691882E+02;  1.0000000E-01; -2.5527180E+03;3;  1.3085478E+01;  0.0000000E+00;  1.0852235E+01;0; -7.7452003E-03;  3.9741375E+04;  0.0000000E+00; -4.6379843E-01;  4.0000000E+04;  0.0000000E+00;  4.0009773E+04; -6.9172354E-03;  0.0000000E+00; -8.2796492E-04;  1.7298566E+03;
  3.1290874E-02;  9.9999998E-03; -2.5991440E-01;2633;  8.2935003E-05;  0.0000000E+00; -6.8489724E-05;  9.9659882E+02;  1.0000000E-01; -2.8177969E+03;3;  1.5472226E+01;  0.0000000E+00;  8.3258295E+00;0; -8.6434651E-03;  3.9710594E+04;  0.0000000E+00; -5.2697814E-01;  4.0000000E+04;  0.0000000E+00;  4.0017375E+04; -8.0428505E-03;  0.0000000E+00; -6.0061435E-04;  2.6116860E+03;
  3.1630691E-02;  9.9999998E-03; -2.4996437E-01;2634;  9.5060976E-05;  0.0000000E+00; -9.3007802E-05;  9.9631427E+02;  1.0000000E-01; -3.0535432E+03;3;  1.6875444E+01;  0.0000000E+00;  7.2393565E+00;0; -9.5036812E-03;  3.9684367E+04;  0.0000000E+00; -6.2717628E-01;  4.0000000E+04;  0.0000000E+00;  4.0022094E+04; -9.1706607E-03;  0.0000000E+00; -3.3302058E-04;  3.1667129E+03;
  3.1901781E-02;  9.9999998E-03; -2.4000436E-01;2635;  3.2493532E-05;  0.0000000E+00; -1.0566285E-04;  9.9606616E+02;  1.0000000E-01; -3.2591177E+03;3;  1.6943089E+01;  0.0000000E+00;  7.0465679E+00;0; -1.0322707E-02;  3.9665184E+04;  0.0000000E+00; -7.4324489E-01;  4.0000000E+04;  0.0000000E+00;  4.0023129E+04; -1.0268063E-02;  0.0000000E+00; -5.4643300E-05;  3.3374004E+03;
  3.2112900E-02;  9.9999998E-03; -2.3002720E-01;2636; -7.5988501E-05;  0.0000000E+00; -1.0321308E-04;  9.9586932E+02;  1.0000000E-01; -3.4221748E+03;3;  1.5365080E+01;  0.0000000E+00;  6.9988422E+00;0; -1.1103158E-02;  3.9652062E+04;  0.0000000E+00; -8.4640044E-01;  4.0000000E+04;  0.0000000E+00;  4.0021023E+04; -1.1308325E-02;  0.0000000E+00;  2.0516753E-04;  3.1706255E+03;
  3.2263543E-02;  9.9999998E-03; -2.2003524E-01;2637; -2.0325031E-04;  0.0000000E+00; -9.6911594E-05;  9.9571979E+02;  1.0000000E-01; -3.5460725E+03;3;  1.2229818E+01;  0.0000000E+00;  6.8532290E+00;0; -1.1847218E-02;  3.9645297E+04;  0.0000000E+00; -9.1068798E-01;  4.0000000E+04;  0.0000000E+00;  4.0017578E+04; -1.2269707E-02;  0.0000000E+00;  4.2248919E-04;  2.7781792E+03;
  3.2358695E-02;  9.9999998E-03; -2.1003306E-01;2638; -3.4286274E-04;  0.0000000E+00; -8.6528773E-05;  9.9563000E+02;  1.0000000E-01; -3.6204409E+03;3;  8.2633905E+00;  0.0000000E+00;  6.4365387E+00;0; -1.2545804E-02;  3.9643297E+04;  0.0000000E+00; -9.2101002E-01;  4.0000000E+04;  0.0000000E+00;  4.0012453E+04; -1.3129337E-02;  0.0000000E+00;  5.8353262E-04;  2.2884128E+03;
  3.2410640E-02;  9.9999998E-03; -2.0002490E-01;2639; -4.7629667E-04;  0.0000000E+00; -7.3143405E-05;  9.9558923E+02;  1.0000000E-01; -3.6542175E+03;3;  4.1317616E+00;  0.0000000E+00;  5.7748137E+00;0; -1.3190641E-02;  3.9645141E+04;  0.0000000E+00; -8.7556279E-01;  4.0000000E+04;  0.0000000E+00;  4.0007281E+04; -1.3876082E-02;  0.0000000E+00;  6.8544119E-04;  1.8080566E+03;
  3.2431960E-02;  9.9999998E-03; -1.9001426E-01;2640; -5.8603630E-04;  0.0000000E+00; -6.1462160E-05;  9.9560101E+02;  1.0000000E-01; -3.6444895E+03;3;  2.5810906E-01;  0.0000000E+00;  4.9920406E+00;0; -1.3772270E-02;  3.9649957E+04;  0.0000000E+00; -7.8388280E-01;  4.0000000E+04;  0.0000000E+00;  4.0003734E+04; -1.4506608E-02;  0.0000000E+00;  7.3433825E-04;  1.3996802E+03;
  3.2435916E-02;  9.9999998E-03; -1.8000446E-01;2641; -6.6071481E-04;  0.0000000E+00; -5.4437998E-05;  9.9564655E+02;  1.0000000E-01; -3.6067622E+03;3; -3.0009332E+00;  0.0000000E+00;  4.1991553E+00;0; -1.4280864E-02;  3.9656375E+04;  0.0000000E+00; -6.6228026E-01;  4.0000000E+04;  0.0000000E+00;  4.0001266E+04; -1.5022922E-02;  0.0000000E+00;  7.4205804E-04;  1.0778516E+03;
  3.2431979E-02;  9.9999998E-03; -1.6999704E-01;2642; -6.9834827E-04;  0.0000000E+00; -4.9461603E-05;  9.9571906E+02;  1.0000000E-01; -3.5466650E+03;3; -5.5688787E+00;  0.0000000E+00;  3.4643466E+00;0; -1.4707274E-02;  3.9663555E+04;  0.0000000E+00; -5.2895856E-01;  4.0000000E+04;  0.0000000E+00;  3.9999277E+04; -1.5429730E-02;  0.0000000E+00;  7.2245538E-04;  8.2694543E+02;
  3.2427344E-02;  9.9999998E-03; -1.5999201E-01;2643; -7.0166704E-04;  0.0000000E+00; -4.5186662E-05;  9.9580377E+02;  1.0000000E-01; -3.4764944E+03;3; -7.4555640E+00;  0.0000000E+00;  2.8045371E+00;0; -1.5046677E-02;  3.9670512E+04;  0.0000000E+00; -4.0000072E-01;  4.0000000E+04;  0.0000000E+00;  3.9999215E+04; -1.5734855E-02;  0.0000000E+00;  6.8817876E-04;  6.3139850E+02;
  3.2425765E-02;  9.9999998E-03; -1.4998882E-01;2644; -6.7756948E-04;  0.0000000E+00; -4.0426356E-05;  9.9587225E+02;  1.0000000E-01; -3.4197551E+03;3; -8.6776266E+00;  0.0000000E+00;  2.2224605E+00;0; -1.5299892E-02;  3.9676605E+04;  0.0000000E+00; -2.8693601E-01;  4.0000000E+04;  0.0000000E+00;  3.9999754E+04; -1.5948394E-02;  0.0000000E+00;  6.4850203E-04;  4.9290128E+02;
  3.2428224E-02;  9.9999998E-03; -1.3998680E-01;2645; -6.3554448E-04;  0.0000000E+00; -3.5116369E-05;  9.9593701E+02;  1.0000000E-01; -3.3661270E+03;3; -9.4892931E+00;  0.0000000E+00;  1.7179121E+00;0; -1.5473549E-02;  3.9680988E+04;  0.0000000E+00; -1.9592732E-01;  4.0000000E+04;  0.0000000E+00;  3.9999988E+04; -1.6082030E-02;  0.0000000E+00;  6.0848030E-04;  4.2000256E+02;
  3.2434508E-02;  9.9999998E-03; -1.2998551E-01;2646; -5.8517663E-04;  0.0000000E+00; -2.8823342E-05;  9.9598096E+02;  1.0000000E-01; -3.3296836E+03;3; -9.9647551E+00;  0.0000000E+00;  1.2891598E+00;0; -1.5579632E-02;  3.9684168E+04;  0.0000000E+00; -1.2832893E-01;  4.0000000E+04;  0.0000000E+00;  4.0000734E+04; -1.6149046E-02;  0.0000000E+00;  5.6941475E-04;  3.9977515E+02;
  3.2443259E-02;  9.9999998E-03; -1.1998483E-01;2647; -5.3540984E-04;  0.0000000E+00; -2.1629252E-05;  9.9599927E+02;  1.0000000E-01; -3.3145234E+03;3; -1.0209532E+01;  0.0000000E+00;  9.3098092E-01;0; -1.5633481E-02;  3.9685430E+04;  0.0000000E+00; -8.1849128E-02;  4.0000000E+04;  0.0000000E+00;  4.0000652E+04; -1.6163541E-02;  0.0000000E+00;  5.3006003E-04;  3.9574460E+02;
  3.2452296E-02;  9.9999998E-03; -1.0998514E-01;2648; -4.9325521E-04;  0.0000000E+00; -1.4357663E-05;  9.9599945E+02;  1.0000000E-01; -3.3143755E+03;3; -1.0342832E+01;  0.0000000E+00;  6.3746768E-01;0; -1.5651857E-02;  3.9685738E+04;  0.0000000E+00; -5.1930677E-02;  4.0000000E+04;  0.0000000E+00;  4.0000273E+04; -1.6139833E-02;  0.0000000E+00;  4.8797618E-04;  3.8042453E+02;
  4.0771116E-02;  9.9999998E-03; -2.6992187E-01;2693; -2.2133335E-04;  0.0000000E+00; -1.3502498E-05;  9.9806714E+02;  1.0000000E-01; -1.6013374E+03;3;  5.9903870E+00;  0.0000000E+00;  2.7056708E+00;0; -8.3665513E-03;  3.9831059E+04;  0.0000000E+00; -5.0749457E-01;  4.0000000E+04;  0.0000000E+00;  4.0012273E+04; -7.5333230E-03;  0.0000000E+00; -8.3322870E-04;  1.8726632E+03;
  4.1157786E-02;  9.9999998E-03; -2.5995705E-01;2694; -1.8950089E-04;  0.0000000E+00; -4.9423965E-05;  9.9801544E+02;  1.0000000E-01; -1.6441510E+03;3;  6.0686398E+00;  0.0000000E+00;  3.8079455E-01;0; -9.2934193E-03;  3.9822199E+04;  0.0000000E+00; -5.2730519E-01;  4.0000000E+04;  0.0000000E+00;  4.0018629E+04; -8.7290686E-03;  0.0000000E+00; -5.6435051E-04;  2.6049031E+03;
  4.1466229E-02;  9.9999998E-03; -2.4999887E-01;2695; -2.1783516E-04;  0.0000000E+00; -7.0961461E-05;  9.9799744E+02;  1.0000000E-01; -1.6590642E+03;3;  5.0039897E+00;  0.0000000E+00; -1.2355857E-01;0; -1.0171283E-02;  3.9818871E+04;  0.0000000E+00; -5.8362490E-01;  4.0000000E+04;  0.0000000E+00;  4.0021199E+04; -9.9126706E-03;  0.0000000E+00; -2.5861224E-04;  2.9899915E+03;
  4.1700404E-02;  9.9999998E-03; -2.4002911E-01;2696; -3.0450875E-04;  0.0000000E+00; -7.8607765E-05;  9.9800403E+02;  1.0000000E-01; -1.6536322E+03;3;  2.6108871E+00;  0.0000000E+00;  5.8577853E-01;0; -1.1002089E-02;  3.9821195E+04;  0.0000000E+00; -6.6032290E-01;  4.0000000E+04;  0.0000000E+00;  4.0022047E+04; -1.1050420E-02;  0.0000000E+00;  4.8331232E-05;  2.9912234E+03;
  4.1870154E-02;  9.9999998E-03; -2.3004125E-01;2697; -4.4230517E-04;  0.0000000E+00; -7.1278126E-05;  9.9804614E+02;  1.0000000E-01; -1.6187196E+03;3; -1.0327772E+00;  0.0000000E+00;  1.6938238E+00;0; -1.1789035E-02;  3.9828438E+04;  0.0000000E+00; -7.3290628E-01;  4.0000000E+04;  0.0000000E+00;  4.0019277E+04; -1.2111651E-02;  0.0000000E+00;  3.2261608E-04;  2.6800457E+03;
  4.1978057E-02;  9.9999998E-03; -2.2003901E-01;2698; -6.1395328E-04;  0.0000000E+00; -4.7527286E-05;  9.9811957E+02;  1.0000000E-01; -1.5578818E+03;3; -5.4976640E+00;  0.0000000E+00;  2.6595991E+00;0; -1.2532962E-02;  3.9839680E+04;  0.0000000E+00; -7.7843404E-01;  4.0000000E+04;  0.0000000E+00;  4.0014926E+04; -1.3071866E-02;  0.0000000E+00;  5.3890306E-04;  2.1938555E+03;
  4.2033054E-02;  9.9999998E-03; -2.1002798E-01;2699; -7.8924984E-04;  0.0000000E+00; -2.5659789E-05;  9.9821735E+02;  1.0000000E-01; -1.4768965E+03;3; -1.0191240E+01;  0.0000000E+00;  3.2191360E+00;0; -1.3232600E-02;  3.9853500E+04;  0.0000000E+00; -7.8310555E-01;  4.0000000E+04;  0.0000000E+00;  4.0008324E+04; -1.3917891E-02;  0.0000000E+00;  6.8529131E-04;  1.6830985E+03;
  4.2050164E-02;  9.9999998E-03; -2.0001350E-01;2700; -9.4476546E-04;  0.0000000E+00; -1.5653648E-05;  9.9834326E+02;  1.0000000E-01; -1.3725538E+03;3; -1.4650729E+01;  0.0000000E+00;  3.3667538E+00;0; -1.3881424E-02;  3.9868688E+04;  0.0000000E+00; -7.4434769E-01;  4.0000000E+04;  0.0000000E+00;  4.0004656E+04; -1.4644757E-02;  0.0000000E+00;  7.6333305E-04;  1.2667916E+03;
  4.2044237E-02;  9.9999998E-03; -1.9000076E-01;2701; -1.0665009E-03;  0.0000000E+00; -1.5972009E-05;  9.9848773E+02;  1.0000000E-01; -1.2529028E+03;3; -1.8514380E+01;  0.0000000E+00;  3.2236812E+00;0; -1.4468352E-02;  3.9884270E+04;  0.0000000E+00; -6.6891158E-01;  4.0000000E+04;  0.0000000E+00;  4.0001438E+04; -1.5253032E-02;  0.0000000E+00;  7.8467967E-04;  9.9088995E+02;
  4.2026516E-02;  9.9999998E-03; -1.7999162E-01;2702; -1.1458491E-03;  0.0000000E+00; -2.4048948E-05;  9.9864050E+02;  1.0000000E-01; -1.1263385E+03;3; -2.1600397E+01;  0.0000000E+00;  2.9107175E+00;0; -1.4982130E-02;  3.9898969E+04;  0.0000000E+00; -5.6922561E-01;  4.0000000E+04;  0.0000000E+00;  3.9999645E+04; -1.5748488E-02;  0.0000000E+00;  7.6635712E-04;  8.1289282E+02;
  4.2005293E-02;  9.9999998E-03; -1.6998608E-01;2703; -1.1836280E-03;  0.0000000E+00; -3.3688739E-05;  9.9879199E+02;  1.0000000E-01; -1.0008112E+03;3; -2.3895760E+01;  0.0000000E+00;  2.5111613E+00;0; -1.5412723E-02;  3.9911727E+04;  0.0000000E+00; -4.5931715E-01;  4.0000000E+04;  0.0000000E+00;  3.9998820E+04; -1.6138747E-02;  0.0000000E+00;  7.2602450E-04;  6.6081323E+02;
  4.1986771E-02;  9.9999998E-03; -1.5998383E-01;2704; -1.1845189E-03;  0.0000000E+00; -4.1346659E-05;  9.9892542E+02;  1.0000000E-01; -8.9029584E+02;3; -2.5462105E+01;  0.0000000E+00;  2.0780180E+00;0; -1.5755082E-02;  3.9922797E+04;  0.0000000E+00; -3.5190520E-01;  4.0000000E+04;  0.0000000E+00;  3.9999543E+04; -1.6433598E-02;  0.0000000E+00;  6.7851628E-04;  5.0588721E+02;
  4.1974425E-02;  9.9999998E-03; -1.4998421E-01;2705; -1.1566645E-03;  0.0000000E+00; -4.5353569E-05;  9.9903931E+02;  1.0000000E-01; -7.9592810E+02;3; -2.6481144E+01;  0.0000000E+00;  1.6504681E+00;0; -1.6010365E-02;  3.9931477E+04;  0.0000000E+00; -2.5648409E-01;  4.0000000E+04;  0.0000000E+00;  3.9999918E+04; -1.6644076E-02;  0.0000000E+00;  6.3371088E-04;  3.7236841E+02;
  4.1969273E-02;  9.9999998E-03; -1.3998555E-01;2706; -1.1100704E-03;  0.0000000E+00; -4.5337729E-05;  9.9912610E+02;  1.0000000E-01; -7.2402893E+02;3; -2.7109703E+01;  0.0000000E+00;  1.2627877E+00;0; -1.6186364E-02;  3.9937410E+04;  0.0000000E+00; -1.7856269E-01;  4.0000000E+04;  0.0000000E+00;  4.0001770E+04; -1.6782148E-02;  0.0000000E+00;  5.9578393E-04;  3.0494385E+02;
  4.1971054E-02;  9.9999998E-03; -1.2998775E-01;2707; -1.0550665E-03;  0.0000000E+00; -4.1489518E-05;  9.9917651E+02;  1.0000000E-01; -6.8225232E+02;3; -2.7465611E+01;  0.0000000E+00;  9.3430811E-01;0; -1.6296038E-02;  3.9941133E+04;  0.0000000E+00; -1.1979783E-01;  4.0000000E+04;  0.0000000E+00;  4.0001625E+04; -1.6860018E-02;  0.0000000E+00;  5.6397927E-04;  3.0063092E+02;
  4.1977856E-02;  9.9999998E-03; -1.1999046E-01;2708; -1.0011886E-03;  0.0000000E+00; -3.4554047E-05;  9.9919781E+02;  1.0000000E-01; -6.6457379E+02;3; -2.7692896E+01;  0.0000000E+00;  6.6361600E-01;0; -1.6355589E-02;  3.9942383E+04;  0.0000000E+00; -7.8576416E-02;  4.0000000E+04;  0.0000000E+00;  4.0002105E+04; -1.6890060E-02;  0.0000000E+00;  5.3447031E-04;  3.0001920E+02;
  4.1986719E-02;  9.9999998E-03; -1.0999322E-01;2709; -9.5570000E-04;  0.0000000E+00; -2.5876521E-05;  9.9919122E+02;  1.0000000E-01; -6.7005511E+02;3; -2.7850800E+01;  0.0000000E+00;  4.4350857E-01;0; -1.6381968E-02;  3.9942191E+04;  0.0000000E+00; -5.1253699E-02;  4.0000000E+04;  0.0000000E+00;  4.0001316E+04; -1.6884316E-02;  0.0000000E+00;  5.0234847E-04;  2.6628470E+02;
  5.0689649E-02;  9.9999998E-03; -2.6996022E-01;2754; -3.9339336E-04;  0.0000000E+00; -2.4563991E-05;  9.9891797E+02;  1.0000000E-01; -8.9641907E+02;3;  2.4068589E+00;  0.0000000E+00; -4.3496714E+00;0; -8.6534852E-03;  3.9897918E+04;  0.0000000E+00; -4.8217502E-01;  4.0000000E+04;  0.0000000E+00;  4.0013098E+04; -7.8296205E-03;  0.0000000E+00; -8.2386506E-04;  1.9325364E+03;
  5.1049631E-02;  9.9999998E-03; -2.5999001E-01;2755; -3.8589310E-04;  0.0000000E+00; -6.3335770E-05;  9.9907837E+02;  1.0000000E-01; -7.6353394E+02;3;  8.5706496E-01;  0.0000000E+00; -6.4772053E+00;0; -9.5577529E-03;  3.9907078E+04;  0.0000000E+00; -4.2637861E-01;  4.0000000E+04;  0.0000000E+00;  4.0018578E+04; -9.0484899E-03;  0.0000000E+00; -5.0926273E-04;  2.5180022E+03;
  5.1326614E-02;  9.9999998E-03; -2.5002268E-01;2756; -4.4536075E-04;  0.0000000E+00; -7.9984275E-05;  9.9927551E+02;  1.0000000E-01; -6.0022992E+02;3; -1.6640455E+00;  0.0000000E+00; -6.3836594E+00;0; -1.0402696E-02;  3.9922113E+04;  0.0000000E+00; -4.0706033E-01;  4.0000000E+04;  0.0000000E+00;  4.0021008E+04; -1.0239677E-02;  0.0000000E+00; -1.6301979E-04;  2.7379512E+03;
  5.1524997E-02;  9.9999998E-03; -2.4004246E-01;2757; -5.7135813E-04;  0.0000000E+00; -6.7601643E-05;  9.9949176E+02;  1.0000000E-01; -4.2107452E+02;3; -5.1906257E+00;  0.0000000E+00; -4.8253007E+00;0; -1.1195162E-02;  3.9942215E+04;  0.0000000E+00; -4.1902053E-01;  4.0000000E+04;  0.0000000E+00;  4.0020254E+04; -1.1367757E-02;  0.0000000E+00;  1.7259453E-04;  2.5740667E+03;
  5.1656842E-02;  9.9999998E-03; -2.3004396E-01;2758; -7.4733736E-04;  0.0000000E+00; -3.1569580E-05;  9.9972302E+02;  1.0000000E-01; -2.2947499E+02;3; -9.5029087E+00;  0.0000000E+00; -2.7725029E+00;0; -1.1944266E-02;  3.9966055E+04;  0.0000000E+00; -4.4625166E-01;  4.0000000E+04;  0.0000000E+00;  4.0016242E+04; -1.2403808E-02;  0.0000000E+00;  4.5954145E-04;  2.1175728E+03;
  5.1728725E-02;  9.9999998E-03; -2.2003247E-01;2759; -9.4422424E-04;  0.0000000E+00;  6.1247215E-06;  9.9995905E+02;  1.0000000E-01; -3.3924965E+01;3; -1.4154286E+01;  0.0000000E+00; -9.1136110E-01;0; -1.2656366E-02;  3.9991488E+04;  0.0000000E+00; -4.7083575E-01;  4.0000000E+04;  0.0000000E+00;  4.0011590E+04; -1.3328238E-02;  0.0000000E+00;  6.7187176E-04;  1.5271072E+03;
  5.1753290E-02;  9.9999998E-03; -2.1001439E-01;2760; -1.1340675E-03;  0.0000000E+00;  2.8010485E-05;  1.0002062E+03;  1.0000000E-01;  1.7085936E+02;3; -1.8718845E+01;  0.0000000E+00;  4.3385488E-01;0; -1.3331328E-02;  4.0017340E+04;  0.0000000E+00; -4.7984841E-01;  4.0000000E+04;  0.0000000E+00;  4.0005957E+04; -1.4131403E-02;  0.0000000E+00;  8.0007460E-04;  9.8737244E+02;
  5.1747311E-02;  9.9999998E-03; -1.9999744E-01;2761; -1.2964384E-03;  0.0000000E+00;  3.1754778E-05;  1.0004499E+03;  1.0000000E-01;  3.7273019E+02;3; -2.2787327E+01;  0.0000000E+00;  1.2589902E+00;0; -1.3961477E-02;  4.0042422E+04;  0.0000000E+00; -4.6747363E-01;  4.0000000E+04;  0.0000000E+00;  4.0001543E+04; -1.4811818E-02;  0.0000000E+00;  8.5034000E-04;  6.8343555E+02;
  5.1723592E-02;  9.9999998E-03; -1.8998533E-01;2762; -1.4179592E-03;  0.0000000E+00;  1.9125129E-05;  1.0006877E+03;  1.0000000E-01;  5.6976166E+02;3; -2.6145201E+01;  0.0000000E+00;  1.6675309E+00;0; -1.4534399E-02;  4.0065238E+04;  0.0000000E+00; -4.3405679E-01;  4.0000000E+04;  0.0000000E+00;  3.9999547E+04; -1.5374562E-02;  0.0000000E+00;  8.4016263E-04;  6.4588947E+02;
  5.1690388E-02;  9.9999998E-03; -1.7997868E-01;2763; -1.4947213E-03;  0.0000000E+00; -3.1365150E-06;  1.0009064E+03;  1.0000000E-01;  7.5099109E+02;3; -2.8693466E+01;  0.0000000E+00;  1.7768099E+00;0; -1.5036475E-02;  4.0084949E+04;  0.0000000E+00; -3.8400474E-01;  4.0000000E+04;  0.0000000E+00;  3.9997723E+04; -1.5828542E-02;  0.0000000E+00;  7.9206791E-04;  6.5481396E+02;
  5.1655713E-02;  9.9999998E-03; -1.6997714E-01;2764; -1.5289632E-03;  0.0000000E+00; -2.8577891E-05;  1.0011088E+03;  1.0000000E-01;  9.1859131E+02;3; -3.0517189E+01;  0.0000000E+00;  1.6821618E+00;0; -1.5456695E-02;  4.0101609E+04;  0.0000000E+00; -3.2345778E-01;  4.0000000E+04;  0.0000000E+00;  3.9997195E+04; -1.6184639E-02;  0.0000000E+00;  7.2794454E-04;  5.8021692E+02;
  5.1626056E-02;  9.9999998E-03; -1.5998024E-01;2765; -1.5261873E-03;  0.0000000E+00; -5.1135226E-05;  1.0012714E+03;  1.0000000E-01;  1.0533036E+03;3; -3.1685417E+01;  0.0000000E+00;  1.4560727E+00;0; -1.5789844E-02;  4.0114527E+04;  0.0000000E+00; -2.5914815E-01;  4.0000000E+04;  0.0000000E+00;  3.9999418E+04; -1.6454767E-02;  0.0000000E+00;  6.6492270E-04;  4.3127295E+02;
  5.1604908E-02;  9.9999998E-03; -1.4998552E-01;2766; -1.4949880E-03;  0.0000000E+00; -6.5557731E-05;  1.0014026E+03;  1.0000000E-01;  1.1620413E+03;3; -3.2408245E+01;  0.0000000E+00;  1.1728939E+00;0; -1.6037606E-02;  4.0123727E+04;  0.0000000E+00; -1.9748020E-01;  4.0000000E+04;  0.0000000E+00;  4.0002043E+04; -1.6650984E-02;  0.0000000E+00;  6.1337778E-04;  2.8490143E+02;
  5.1593423E-02;  9.9999998E-03; -1.3999167E-01;2767; -1.4441935E-03;  0.0000000E+00; -6.9650021E-05;  1.0014872E+03;  1.0000000E-01;  1.2321627E+03;3; -3.2794113E+01;  0.0000000E+00;  8.9440417E-01;0; -1.6208516E-02;  4.0129660E+04;  0.0000000E+00; -1.4354110E-01;  4.0000000E+04;  0.0000000E+00;  4.0002062E+04; -1.6785085E-02;  0.0000000E+00;  5.7656824E-04;  2.4890137E+02;
  5.1591318E-02;  9.9999998E-03; -1.2999812E-01;2768; -1.3837031E-03;  0.0000000E+00; -6.3314932E-05;  1.0015359E+03;  1.0000000E-01;  1.2724579E+03;3; -3.3022118E+01;  0.0000000E+00;  6.6058761E-01;0; -1.6316459E-02;  4.0132562E+04;  0.0000000E+00; -1.0027228E-01;  4.0000000E+04;  0.0000000E+00;  4.0003254E+04; -1.6868087E-02;  0.0000000E+00;  5.5162807E-04;  2.9516751E+02;
  5.1596113E-02;  9.9999998E-03; -1.2000374E-01;2769; -1.3239002E-03;  0.0000000E+00; -4.9902501E-05;  1.0015452E+03;  1.0000000E-01;  1.2801614E+03;3; -3.3179268E+01;  0.0000000E+00;  4.6293518E-01;0; -1.6378039E-02;  4.0133633E+04;  0.0000000E+00; -6.7942217E-02;  4.0000000E+04;  0.0000000E+00;  4.0003047E+04; -1.6910037E-02;  0.0000000E+00;  5.3199712E-04;  3.0973917E+02;
  5.1604226E-02;  9.9999998E-03; -1.1000780E-01;2770; -1.2749115E-03;  0.0000000E+00; -3.6493984E-05;  1.0015281E+03;  1.0000000E-01;  1.2659395E+03;3; -3.3346451E+01;  0.0000000E+00;  2.9528755E-01;0; -1.6409758E-02;  4.0132551E+04;  0.0000000E+00; -4.5020621E-02;  4.0000000E+04;  0.0000000E+00;  4.0002703E+04; -1.6919829E-02;  0.0000000E+00;  5.1007041E-04;  2.5903796E+02;
  6.0632359E-02;  9.9999998E-03; -2.6999858E-01;2815; -5.1065494E-04;  0.0000000E+00; -8.2390397E-05;  9.9940759E+02;  1.0000000E-01; -4.9080093E+02;3;  1.6138495E+00;  0.0000000E+00; -9.5222054E+00;0; -8.6908406E-03;  3.9936711E+04;  0.0000000E+00; -3.6320508E-01;  4.0000000E+04;  0.0000000E+00;  4.0014559E+04; -7.8908801E-03;  0.0000000E+00; -7.9996011E-04;  1.9255972E+03;
  6.0963534E-02;  9.9999998E-03; -2.6002303E-01;2816; -5.2088319E-04;  0.0000000E+00; -1.1797984E-04;  9.9972949E+02;  1.0000000E-01; -2.2409242E+02;3; -6.8526822E-01;  0.0000000E+00; -1.1616489E+01;0; -9.5312027E-03;  3.9959738E+04;  0.0000000E+00; -2.1212736E-01;  4.0000000E+04;  0.0000000E+00;  4.0018371E+04; -9.0932008E-03;  0.0000000E+00; -4.3800176E-04;  2.4198320E+03;
  6.1209861E-02;  9.9999998E-03; -2.5004685E-01;2817; -6.0278189E-04;  0.0000000E+00; -1.1888870E-04;  1.0000793E+03;  1.0000000E-01;  6.5775917E+01;3; -3.7105212E+00;  0.0000000E+00; -1.1063662E+01;0; -1.0303374E-02;  3.9988352E+04;  0.0000000E+00; -9.7993694E-02;  4.0000000E+04;  0.0000000E+00;  4.0019891E+04; -1.0252116E-02;  0.0000000E+00; -5.1257928E-05;  2.5283682E+03;
  6.1377399E-02;  9.9999998E-03; -2.4005727E-01;2818; -7.5104006E-04;  0.0000000E+00; -8.1287013E-05;  1.0004432E+03;  1.0000000E-01;  3.6719949E+02;3; -7.4092236E+00;  0.0000000E+00; -8.8699160E+00;0; -1.1020224E-02;  4.0021234E+04;  0.0000000E+00; -3.0845460E-02;  4.0000000E+04;  0.0000000E+00;  4.0018441E+04; -1.1332319E-02;  0.0000000E+00;  3.1209594E-04;  2.2480005E+03;
  6.1479349E-02;  9.9999998E-03; -2.3004943E-01;2819; -9.4456697E-04;  0.0000000E+00; -2.1920700E-05;  1.0008036E+03;  1.0000000E-01;  6.6575897E+02;3; -1.1527310E+01;  0.0000000E+00; -6.1356258E+00;0; -1.1696678E-02;  4.0056434E+04;  0.0000000E+00; -8.1674429E-03;  4.0000000E+04;  0.0000000E+00;  4.0014172E+04; -1.2307229E-02;  0.0000000E+00;  6.1055057E-04;  1.6806495E+03;
  6.1526023E-02;  9.9999998E-03; -2.2002862E-01;2820; -1.1520645E-03;  0.0000000E+00;  2.8956460E-05;  1.0011559E+03;  1.0000000E-01;  9.5760254E+02;3; -1.5711930E+01;  0.0000000E+00; -3.6393292E+00;0; -1.2343312E-02;  4.0091629E+04;  0.0000000E+00; -1.9041259E-02;  4.0000000E+04;  0.0000000E+00;  4.0008242E+04; -1.3160890E-02;  0.0000000E+00;  8.1757811E-04;  9.8455933E+02;
  6.1531831E-02;  9.9999998E-03; -2.1000460E-01;2821; -1.3465773E-03;  0.0000000E+00;  5.5671910E-05;  1.0014888E+03;  1.0000000E-01;  1.2334467E+03;3; -1.9591547E+01;  0.0000000E+00; -1.7085437E+00;0; -1.2961712E-02;  4.0125031E+04;  0.0000000E+00; -4.8901666E-02;  4.0000000E+04;  0.0000000E+00;  4.0004539E+04; -1.3887528E-02;  0.0000000E+00;  9.2581700E-04;  3.2398941E+02;
  6.1512534E-02;  9.9999998E-03; -1.9998577E-01;2822; -1.5098336E-03;  0.0000000E+00;  5.7511788E-05;  1.0018018E+03;  1.0000000E-01;  1.4926985E+03;3; -2.2914415E+01;  0.0000000E+00; -3.8097015E-01;0; -1.3544129E-02;  4.0155637E+04;  0.0000000E+00; -8.4897846E-02;  4.0000000E+04;  0.0000000E+00;  4.0000246E+04; -1.4490299E-02;  0.0000000E+00;  9.4616954E-04;  2.3057376E+02;
  6.1477445E-02;  9.9999998E-03; -1.8997437E-01;2823; -1.6339010E-03;  0.0000000E+00;  3.9019109E-05;  1.0020852E+03;  1.0000000E-01;  1.7275560E+03;3; -2.5526182E+01;  0.0000000E+00;  4.5157227E-01;0; -1.4076734E-02;  4.0182012E+04;  0.0000000E+00; -1.1738562E-01;  4.0000000E+04;  0.0000000E+00;  3.9997270E+04; -1.4978733E-02;  0.0000000E+00;  9.0199942E-04;  5.2865417E+02;
  6.1434135E-02;  9.9999998E-03; -1.7997064E-01;2824; -1.7172125E-03;  0.0000000E+00;  3.2762957E-06;  1.0023322E+03;  1.0000000E-01;  1.9321923E+03;3; -2.7446188E+01;  0.0000000E+00;  8.8320553E-01;0; -1.4544518E-02;  4.0203742E+04;  0.0000000E+00; -1.3952129E-01;  4.0000000E+04;  0.0000000E+00;  3.9996977E+04; -1.5366118E-02;  0.0000000E+00;  8.2160078E-04;  6.1626978E+02;
  6.1390653E-02;  9.9999998E-03; -1.6997439E-01;2825; -1.7546841E-03;  0.0000000E+00; -3.8148559E-05;  1.0025439E+03;  1.0000000E-01;  2.1075947E+03;3; -2.8749146E+01;  0.0000000E+00;  1.0149140E+00;0; -1.4936435E-02;  4.0220773E+04;  0.0000000E+00; -1.4737007E-01;  4.0000000E+04;  0.0000000E+00;  3.9997250E+04; -1.5667628E-02;  0.0000000E+00;  7.3119317E-04;  5.2331390E+02;
  6.1353557E-02;  9.9999998E-03; -1.5998310E-01;2826; -1.7501194E-03;  0.0000000E+00; -7.5497017E-05;  1.0027065E+03;  1.0000000E-01;  2.2423069E+03;3; -2.9524263E+01;  0.0000000E+00;  9.4492972E-01;0; -1.5247149E-02;  4.0232973E+04;  0.0000000E+00; -1.4054462E-01;  4.0000000E+04;  0.0000000E+00;  4.0000398E+04; -1.5897512E-02;  0.0000000E+00;  6.5036281E-04;  3.2373978E+02;
  6.1326180E-02;  9.9999998E-03; -1.4999406E-01;2827; -1.7131325E-03;  0.0000000E+00; -1.0287098E-04;  1.0028251E+03;  1.0000000E-01;  2.3405757E+03;3; -2.9930162E+01;  0.0000000E+00;  7.7025717E-01;0; -1.5478259E-02;  4.0241090E+04;  0.0000000E+00; -1.2232041E-01;  4.0000000E+04;  0.0000000E+00;  4.0002070E+04; -1.6068297E-02;  0.0000000E+00;  5.9003773E-04;  1.7505687E+02;
  6.1309751E-02;  9.9999998E-03; -1.4000560E-01;2828; -1.6563752E-03;  0.0000000E+00; -1.1659804E-04;  1.0028961E+03;  1.0000000E-01;  2.3993396E+03;3; -3.0121918E+01;  0.0000000E+00;  5.8350998E-01;0; -1.5637986E-02;  4.0245434E+04;  0.0000000E+00; -9.8219693E-02;  4.0000000E+04;  0.0000000E+00;  4.0005039E+04; -1.6190546E-02;  0.0000000E+00;  5.5255892E-04;  2.8723550E+02;
  6.1303869E-02;  9.9999998E-03; -1.3001662E-01;2829; -1.5921169E-03;  0.0000000E+00; -1.1385090E-04;  1.0029289E+03;  1.0000000E-01;  2.4264993E+03;3; -3.0242056E+01;  0.0000000E+00;  4.3127218E-01;0; -1.5740024E-02;  4.0247211E+04;  0.0000000E+00; -7.3595330E-02;  4.0000000E+04;  0.0000000E+00;  4.0005102E+04; -1.6273055E-02;  0.0000000E+00;  5.3303054E-04;  4.1333002E+02;
  6.1306052E-02;  9.9999998E-03; -1.2002508E-01;2830; -1.5284634E-03;  0.0000000E+00; -9.6859512E-05;  1.0029246E+03;  1.0000000E-01;  2.4230425E+03;3; -3.0345070E+01;  0.0000000E+00;  3.0450180E-01;0; -1.5800873E-02;  4.0246805E+04;  0.0000000E+00; -5.1676761E-02;  4.0000000E+04;  0.0000000E+00;  4.0005277E+04; -1.6323080E-02;  0.0000000E+00;  5.2220718E-04;  4.4329691E+02;
  6.1313353E-02;  9.9999998E-03; -1.1002892E-01;2831; -1.4724180E-03;  0.0000000E+00; -7.1626368E-05;  1.0028914E+03;  1.0000000E-01;  2.3954878E+03;3; -3.0469305E+01;  0.0000000E+00;  2.0395221E-01;0; -1.5836908E-02;  4.0245004E+04;  0.0000000E+00; -3.3939354E-02;  4.0000000E+04;  0.0000000E+00;  4.0004762E+04; -1.6346686E-02;  0.0000000E+00;  5.0977746E-04;  3.7393839E+02;
  7.0603132E-02;  9.9999998E-03; -2.7004102E-01;2876; -5.5692415E-04;  0.0000000E+00; -1.9247290E-04;  9.9955292E+02;  1.0000000E-01; -3.7040927E+02;3;  2.4444542E+00;  0.0000000E+00; -1.2724017E+01;0; -8.6077219E-03;  3.9948961E+04;  0.0000000E+00; -8.8384114E-02;  4.0000000E+04;  0.0000000E+00;  4.0015273E+04; -7.8468155E-03;  0.0000000E+00; -7.6090626E-04;  1.8985270E+03;
  7.0903786E-02;  9.9999998E-03; -2.6006588E-01;2877; -5.7269819E-04;  0.0000000E+00; -2.2809989E-04;  9.9997754E+02;  1.0000000E-01; -1.8616758E+01;3;  1.0535448E-02;  0.0000000E+00; -1.4985494E+01;0; -9.3595488E-03;  3.9980211E+04;  0.0000000E+00;  1.4209096E-01;  4.0000000E+04;  0.0000000E+00;  4.0019164E+04; -9.0059685E-03;  0.0000000E+00; -3.5358034E-04;  2.4170457E+03;
  7.1121715E-02;  9.9999998E-03; -2.5008523E-01;2878; -6.6206529E-04;  0.0000000E+00; -2.1735461E-04;  1.0004328E+03;  1.0000000E-01;  3.5860715E+02;3; -2.9304531E+00;  0.0000000E+00; -1.4224564E+01;0; -1.0032794E-02;  4.0017523E+04;  0.0000000E+00;  3.3238554E-01;  4.0000000E+04;  0.0000000E+00;  4.0019801E+04; -1.0103610E-02;  0.0000000E+00;  7.0815731E-05;  2.5209648E+03;
  7.1266226E-02;  9.9999998E-03; -2.4008740E-01;2879; -8.1804843E-04;  0.0000000E+00; -1.5712449E-04;  1.0008834E+03;  1.0000000E-01;  7.3192993E+02;3; -6.2460566E+00;  0.0000000E+00; -1.1592167E+01;0; -1.0645821E-02;  4.0058242E+04;  0.0000000E+00;  4.6114913E-01;  4.0000000E+04;  0.0000000E+00;  4.0018129E+04; -1.1105178E-02;  0.0000000E+00;  4.5935757E-04;  2.2343516E+03;
  7.1348593E-02;  9.9999998E-03; -2.3006952E-01;2880; -1.0187611E-03;  0.0000000E+00; -7.0830589E-05;  1.0013168E+03;  1.0000000E-01;  1.0909321E+03;3; -9.7264299E+00;  0.0000000E+00; -8.3926888E+00;0; -1.1219578E-02;  4.0100082E+04;  0.0000000E+00;  5.1840901E-01;  4.0000000E+04;  0.0000000E+00;  4.0012680E+04; -1.1987109E-02;  0.0000000E+00;  7.6753070E-04;  1.6854023E+03;
  7.1380608E-02;  9.9999998E-03; -2.2003883E-01;2881; -1.2310472E-03;  0.0000000E+00;  4.7597778E-06;  1.0017183E+03;  1.0000000E-01;  1.4235647E+03;3; -1.3102141E+01;  0.0000000E+00; -5.4535861E+00;0; -1.1769689E-02;  4.0139926E+04;  0.0000000E+00;  5.0625360E-01;  4.0000000E+04;  0.0000000E+00;  4.0007887E+04; -1.2737759E-02;  0.0000000E+00;  9.6807029E-04;  1.0680635E+03;
  7.1376435E-02;  9.9999998E-03; -2.1000710E-01;2882; -1.4255076E-03;  0.0000000E+00;  4.5776862E-05;  1.0020880E+03;  1.0000000E-01;  1.7298276E+03;3; -1.6118090E+01;  0.0000000E+00; -3.1483617E+00;0; -1.2301119E-02;  4.0176578E+04;  0.0000000E+00;  4.3832636E-01;  4.0000000E+04;  0.0000000E+00;  4.0002645E+04; -1.3356776E-02;  0.0000000E+00;  1.0556572E-03;  6.3925769E+02;
  7.1349733E-02;  9.9999998E-03; -1.9998342E-01;2883; -1.5863833E-03;  0.0000000E+00;  5.2594238E-05;  1.0024158E+03;  1.0000000E-01;  2.0014249E+03;3; -1.8589773E+01;  0.0000000E+00; -1.5004598E+00;0; -1.2807463E-02;  4.0208539E+04;  0.0000000E+00;  3.3634517E-01;  4.0000000E+04;  0.0000000E+00;  3.9999125E+04; -1.3852987E-02;  0.0000000E+00;  1.0455231E-03;  6.1346649E+02;
  7.1308888E-02;  9.9999998E-03; -1.8997099E-01;2884; -1.7111111E-03;  0.0000000E+00;  3.1549251E-05;  1.0026990E+03;  1.0000000E-01;  2.2360850E+03;3; -2.0457493E+01;  0.0000000E+00; -4.0316772E-01;0; -1.3275229E-02;  4.0234738E+04;  0.0000000E+00;  2.2342552E-01;  4.0000000E+04;  0.0000000E+00;  3.9996848E+04; -1.4241980E-02;  0.0000000E+00;  9.6675061E-04;  7.0415039E+02;
  7.1261071E-02;  9.9999998E-03; -1.7996927E-01;2885; -1.7941991E-03;  0.0000000E+00; -9.5903370E-06;  1.0029341E+03;  1.0000000E-01;  2.4308447E+03;3; -2.1777264E+01;  0.0000000E+00;  2.2987160E-01;0; -1.3689276E-02;  4.0255082E+04;  0.0000000E+00;  1.1872108E-01;  4.0000000E+04;  0.0000000E+00;  3.9997098E+04; -1.4542371E-02;  0.0000000E+00;  8.5309497E-04;  6.5667279E+02;
  7.1214624E-02;  9.9999998E-03; -1.6997696E-01;2886; -1.8313790E-03;  0.0000000E+00; -5.8385376E-05;  1.0031187E+03;  1.0000000E-01;  2.5837295E+03;3; -2.2598928E+01;  0.0000000E+00;  5.1754081E-01;0; -1.4037289E-02;  4.0269777E+04;  0.0000000E+00;  3.5977475E-02;  4.0000000E+04;  0.0000000E+00;  3.9997660E+04; -1.4772346E-02;  0.0000000E+00;  7.3505763E-04;  4.4994543E+02;
  7.1174890E-02;  9.9999998E-03; -1.5998997E-01;2887; -1.8273825E-03;  0.0000000E+00; -1.0225255E-04;  1.0032598E+03;  1.0000000E-01;  2.7006643E+03;3; -2.3060795E+01;  0.0000000E+00;  5.6251013E-01;0; -1.4313448E-02;  4.0279250E+04;  0.0000000E+00; -1.8130576E-02;  4.0000000E+04;  0.0000000E+00;  4.0001070E+04; -1.4948171E-02;  0.0000000E+00;  6.3472212E-04;  1.4207739E+02;
  7.1145192E-02;  9.9999998E-03; -1.5000522E-01;2888; -1.7915162E-03;  0.0000000E+00; -1.3624065E-04;  1.0033522E+03;  1.0000000E-01;  2.7773042E+03;3; -2.3260159E+01;  0.0000000E+00;  4.7563654E-01;0; -1.4519116E-02;  4.0284332E+04;  0.0000000E+00; -4.4689976E-02;  4.0000000E+04;  0.0000000E+00;  4.0003980E+04; -1.5082830E-02;  0.0000000E+00;  5.6371355E-04;  2.1020148E+02;
  7.1126796E-02;  9.9999998E-03; -1.4002141E-01;2889; -1.7363133E-03;  0.0000000E+00; -1.5290691E-04;  1.0033944E+03;  1.0000000E-01;  2.8121675E+03;3; -2.3320162E+01;  0.0000000E+00;  3.5942763E-01;0; -1.4662270E-02;  4.0286273E+04;  0.0000000E+00; -5.0624408E-02;  4.0000000E+04;  0.0000000E+00;  4.0006770E+04; -1.5185776E-02;  0.0000000E+00;  5.2350585E-04;  4.9509094E+02;
  7.1119040E-02;  9.9999998E-03; -1.3003667E-01;2890; -1.6735333E-03;  0.0000000E+00; -1.5094085E-04;  1.0034035E+03;  1.0000000E-01;  2.8197722E+03;3; -2.3362631E+01;  0.0000000E+00;  2.6452997E-01;0; -1.4755923E-02;  4.0285812E+04;  0.0000000E+00; -4.4369720E-02;  4.0000000E+04;  0.0000000E+00;  4.0006750E+04; -1.5263315E-02;  0.0000000E+00;  5.0739222E-04;  6.6822784E+02;
  7.1119674E-02;  9.9999998E-03; -1.2004719E-01;2891; -1.6114886E-03;  0.0000000E+00; -1.3176643E-04;  1.0033760E+03;  1.0000000E-01;  2.7969580E+03;3; -2.3420425E+01;  0.0000000E+00;  1.8336688E-01;0; -1.4815385E-02;  4.0283836E+04;  0.0000000E+00; -3.2721169E-02;  4.0000000E+04;  0.0000000E+00;  4.0007492E+04; -1.5319033E-02;  0.0000000E+00;  5.0364685E-04;  7.0339331E+02;
  7.1125515E-02;  9.9999998E-03; -1.1005055E-01;2892; -1.5564563E-03;  0.0000000E+00; -9.9716308E-05;  1.0033344E+03;  1.0000000E-01;  2.7624897E+03;3; -2.3538328E+01;  0.0000000E+00;  1.1788155E-01;0; -1.4855425E-02;  4.0281035E+04;  0.0000000E+00; -2.0369112E-02;  4.0000000E+04;  0.0000000E+00;  4.0007082E+04; -1.5354801E-02;  0.0000000E+00;  4.9937610E-04;  6.1398834E+02;
  8.0617219E-02;  9.9999998E-03; -2.7008003E-01;2937; -5.2579487E-04;  0.0000000E+00; -3.4671716E-04;  9.9941461E+02;  1.0000000E-01; -4.8497394E+02;3;  3.8807518E+00;  0.0000000E+00; -1.4318604E+01;0; -8.5485345E-03;  3.9937641E+04;  0.0000000E+00;  4.7198209E-01;  4.0000000E+04;  0.0000000E+00;  4.0015434E+04; -7.8443363E-03;  0.0000000E+00; -7.0419826E-04;  2.0579885E+03;
  8.0883965E-02;  9.9999998E-03; -2.6011434E-01;2938; -5.4382940E-04;  0.0000000E+00; -3.8781721E-04;  9.9990015E+02;  1.0000000E-01; -8.2713707E+01;3;  1.5750508E+00;  0.0000000E+00; -1.7008070E+01;0; -9.2044640E-03;  3.9973965E+04;  0.0000000E+00;  7.1471417E-01;  4.0000000E+04;  0.0000000E+00;  4.0020055E+04; -8.9458879E-03;  0.0000000E+00; -2.5857659E-04;  2.6969287E+03;
  8.1072994E-02;  9.9999998E-03; -2.5013626E-01;2939; -6.3200883E-04;  0.0000000E+00; -3.7607926E-04;  1.0004054E+03;  1.0000000E-01;  3.3589172E+02;3; -1.0299556E+00;  0.0000000E+00; -1.6204811E+01;0; -9.7673656E-03;  4.0015777E+04;  0.0000000E+00;  9.0687591E-01;  4.0000000E+04;  0.0000000E+00;  4.0020539E+04; -9.9636149E-03;  0.0000000E+00;  1.9624911E-04;  2.8747515E+03;
  8.1198558E-02;  9.9999998E-03; -2.4013379E-01;2940; -7.8535813E-04;  0.0000000E+00; -3.0393834E-04;  1.0008997E+03;  1.0000000E-01;  7.4536163E+02;3; -3.7908163E+00;  0.0000000E+00; -1.3287923E+01;0; -1.0260312E-02;  4.0059930E+04;  0.0000000E+00;  1.0294456E+00;  4.0000000E+04;  0.0000000E+00;  4.0018566E+04; -1.0864404E-02;  0.0000000E+00;  6.0409168E-04;  2.6503672E+03;
  8.1269316E-02;  9.9999998E-03; -2.3010829E-01;2941; -9.8850764E-04;  0.0000000E+00; -1.8425722E-04;  1.0013539E+03;  1.0000000E-01;  1.1217461E+03;3; -6.5201111E+00;  0.0000000E+00; -9.7230244E+00;0; -1.0711130E-02;  4.0103473E+04;  0.0000000E+00;  1.0692791E+00;  4.0000000E+04;  0.0000000E+00;  4.0013555E+04; -1.1628821E-02;  0.0000000E+00;  9.1769046E-04;  2.1795864E+03;
  8.1294738E-02;  9.9999998E-03; -2.2006819E-01;2942; -1.2060414E-03;  0.0000000E+00; -6.9595240E-05;  1.0017610E+03;  1.0000000E-01;  1.4589218E+03;3; -9.0515394E+00;  0.0000000E+00; -6.5002537E+00;0; -1.1141650E-02;  4.0144363E+04;  0.0000000E+00;  1.0228169E+00;  4.0000000E+04;  0.0000000E+00;  4.0008094E+04; -1.2251424E-02;  0.0000000E+00;  1.1097728E-03;  1.6666345E+03;
  8.1286624E-02;  9.9999998E-03; -2.1002537E-01;2943; -1.4003280E-03;  0.0000000E+00;  5.6376899E-07;  1.0021136E+03;  1.0000000E-01;  1.7511604E+03;3; -1.1235311E+01;  0.0000000E+00; -3.9685709E+00;0; -1.1562103E-02;  4.0179965E+04;  0.0000000E+00;  9.0013546E-01;  4.0000000E+04;  0.0000000E+00;  4.0002531E+04; -1.2738703E-02;  0.0000000E+00;  1.1765996E-03;  1.2914032E+03;
  8.1256114E-02;  9.9999998E-03; -1.9999281E-01;2944; -1.5560524E-03;  0.0000000E+00;  2.3142235E-05;  1.0024177E+03;  1.0000000E-01;  2.0030051E+03;3; -1.2966999E+01;  0.0000000E+00; -2.1598020E+00;0; -1.1969550E-02;  4.0209457E+04;  0.0000000E+00;  7.2540045E-01;  4.0000000E+04;  0.0000000E+00;  3.9998926E+04; -1.3106488E-02;  0.0000000E+00;  1.1369379E-03;  1.0941764E+03;
  8.1213519E-02;  9.9999998E-03; -1.8997607E-01;2945; -1.6709227E-03;  0.0000000E+00;  9.6135009E-06;  1.0026633E+03;  1.0000000E-01;  2.2064561E+03;3; -1.4212717E+01;  0.0000000E+00; -9.3369025E-01;0; -1.2351820E-02;  4.0232562E+04;  0.0000000E+00;  5.3120565E-01;  4.0000000E+04;  0.0000000E+00;  3.9997715E+04; -1.3376765E-02;  0.0000000E+00;  1.0249451E-03;  9.4669928E+02;
  8.1165314E-02;  9.9999998E-03; -1.7997399E-01;2946; -1.7468252E-03;  0.0000000E+00; -2.8931860E-05;  1.0028536E+03;  1.0000000E-01;  2.3641799E+03;3; -1.5042752E+01;  0.0000000E+00; -1.9478174E-01;0; -1.2694394E-02;  4.0248684E+04;  0.0000000E+00;  3.4830081E-01;  4.0000000E+04;  0.0000000E+00;  3.9997918E+04; -1.3573758E-02;  0.0000000E+00;  8.7936420E-04;  7.2084595E+02;
  8.1119508E-02;  9.9999998E-03; -1.6998285E-01;2947; -1.7807027E-03;  0.0000000E+00; -7.6668017E-05;  1.0029914E+03;  1.0000000E-01;  2.4783496E+03;3; -1.5525016E+01;  0.0000000E+00;  1.7654954E-01;0; -1.2984842E-02;  4.0259285E+04;  0.0000000E+00;  1.9769602E-01;  4.0000000E+04;  0.0000000E+00;  3.9999676E+04; -1.3719293E-02;  0.0000000E+00;  7.3445163E-04;  3.9203564E+02;
  8.1081703E-02;  9.9999998E-03; -1.5999761E-01;2948; -1.7785110E-03;  0.0000000E+00; -1.2233223E-04;  1.0030853E+03;  1.0000000E-01;  2.5560759E+03;3; -1.5754955E+01;  0.0000000E+00;  2.9528314E-01;0; -1.3216901E-02;  4.0264570E+04;  0.0000000E+00;  8.9810818E-02;  4.0000000E+04;  0.0000000E+00;  4.0002742E+04; -1.3831446E-02;  0.0000000E+00;  6.1454542E-04;  1.6343404E+02;
  8.1054538E-02;  9.9999998E-03; -1.5001549E-01;2949; -1.7483805E-03;  0.0000000E+00; -1.5480071E-04;  1.0031292E+03;  1.0000000E-01;  2.5925193E+03;3; -1.5820454E+01;  0.0000000E+00;  2.7301440E-01;0; -1.3391343E-02;  4.0265891E+04;  0.0000000E+00;  2.4312777E-02;  4.0000000E+04;  0.0000000E+00;  4.0006418E+04; -1.3923294E-02;  0.0000000E+00;  5.3195120E-04;  5.0042340E+02;
  8.1039786E-02;  9.9999998E-03; -1.4003550E-01;2950; -1.7018793E-03;  0.0000000E+00; -1.6846857E-04;  1.0031378E+03;  1.0000000E-01;  2.5996301E+03;3; -1.5818862E+01;  0.0000000E+00;  2.1455236E-01;0; -1.3515245E-02;  4.0264305E+04;  0.0000000E+00; -7.5621493E-03;  4.0000000E+04;  0.0000000E+00;  4.0010566E+04; -1.4002727E-02;  0.0000000E+00;  4.8748235E-04;  8.3218079E+02;
  8.1035376E-02;  9.9999998E-03; -1.3005374E-01;2951; -1.6463712E-03;  0.0000000E+00; -1.6222644E-04;  1.0031165E+03;  1.0000000E-01;  2.5819517E+03;3; -1.5818225E+01;  0.0000000E+00;  1.5401322E-01;0; -1.3600019E-02;  4.0261066E+04;  0.0000000E+00; -1.7267026E-02;  4.0000000E+04;  0.0000000E+00;  4.0010773E+04; -1.4072922E-02;  0.0000000E+00;  4.7290351E-04;  1.0304348E+03;
  8.1038989E-02;  9.9999998E-03; -1.2006503E-01;2952; -1.5883463E-03;  0.0000000E+00; -1.3751481E-04;  1.0030745E+03;  1.0000000E-01;  2.5470884E+03;3; -1.5860791E+01;  0.0000000E+00;  1.0368682E-01;0; -1.3658783E-02;  4.0257633E+04;  0.0000000E+00; -1.4990010E-02;  4.0000000E+04;  0.0000000E+00;  4.0010285E+04; -1.4133149E-02;  0.0000000E+00;  4.7436511E-04;  1.0671255E+03;
  8.1045941E-02;  9.9999998E-03; -1.1006711E-01;2953; -1.5359817E-03;  0.0000000E+00; -9.8739169E-05;  1.0030218E+03;  1.0000000E-01;  2.5035342E+03;3; -1.5957557E+01;  0.0000000E+00;  6.1368618E-02;0; -1.3704053E-02;  4.0254223E+04;  0.0000000E+00; -8.1299264E-03;  4.0000000E+04;  0.0000000E+00;  4.0009695E+04; -1.4180777E-02;  0.0000000E+00;  4.7672394E-04;  9.6043610E+02;
  9.0682447E-02;  9.9999998E-03; -2.7010298E-01;2998; -4.5116068E-04;  0.0000000E+00; -5.0051103E-04;  9.9907562E+02;  1.0000000E-01; -7.6580548E+02;3;  5.2480221E+00;  0.0000000E+00; -1.4725028E+01;0; -8.6448779E-03;  3.9910797E+04;  0.0000000E+00;  1.5090220E+00;  4.0000000E+04;  0.0000000E+00;  4.0015371E+04; -8.0188857E-03;  0.0000000E+00; -6.2599219E-04;  2.9590076E+03;
  9.0920523E-02;  9.9999998E-03; -2.6014733E-01;2999; -4.8221136E-04;  0.0000000E+00; -5.4530799E-04;  9.9959344E+02;  1.0000000E-01; -3.3682999E+02;3;  3.0901039E+00;  0.0000000E+00; -1.8056110E+01;0; -9.2152385E-03;  3.9948695E+04;  0.0000000E+00;  1.6380169E+00;  4.0000000E+04;  0.0000000E+00;  4.0021254E+04; -9.0602981E-03;  0.0000000E+00; -1.5494064E-04;  3.5643359E+03;
  9.1082722E-02;  9.9999998E-03; -2.5017285E-01;3000; -5.7163928E-04;  0.0000000E+00; -5.3696998E-04;  1.0001221E+03;  1.0000000E-01;  1.0123170E+02;3;  8.0708581E-01;  0.0000000E+00; -1.7415766E+01;0; -9.6722525E-03;  3.9991504E+04;  0.0000000E+00;  1.6963538E+00;  4.0000000E+04;  0.0000000E+00;  4.0022602E+04; -9.9897478E-03;  0.0000000E+00;  3.1749485E-04;  3.7182100E+03;
  9.1186292E-02;  9.9999998E-03; -2.4016978E-01;3001; -7.1536301E-04;  0.0000000E+00; -4.6898372E-04;  1.0006185E+03;  1.0000000E-01;  5.1247931E+02;3; -1.4388646E+00;  0.0000000E+00; -1.4339804E+01;0; -1.0042791E-02;  4.0036277E+04;  0.0000000E+00;  1.6892928E+00;  4.0000000E+04;  0.0000000E+00;  4.0020254E+04; -1.0776745E-02;  0.0000000E+00;  7.3395378E-04;  3.4595659E+03;
  9.1243252E-02;  9.9999998E-03; -2.3014368E-01;3002; -9.0716418E-04;  0.0000000E+00; -3.4209448E-04;  1.0010588E+03;  1.0000000E-01;  8.7720978E+02;3; -3.5209157E+00;  0.0000000E+00; -1.0474336E+01;0; -1.0362025E-02;  4.0078656E+04;  0.0000000E+00;  1.6167796E+00;  4.0000000E+04;  0.0000000E+00;  4.0015820E+04; -1.1407940E-02;  0.0000000E+00;  1.0459139E-03;  2.9406304E+03;
  9.1266528E-02;  9.9999998E-03; -2.2010276E-01;3003; -1.1216342E-03;  0.0000000E+00; -1.8674321E-04;  1.0014349E+03;  1.0000000E-01;  1.1888059E+03;3; -5.3418231E+00;  0.0000000E+00; -7.0020056E+00;0; -1.0660587E-02;  4.0116918E+04;  0.0000000E+00;  1.4771760E+00;  4.0000000E+04;  0.0000000E+00;  4.0009473E+04; -1.1886190E-02;  0.0000000E+00;  1.2256027E-03;  2.3541807E+03;
  9.1258325E-02;  9.9999998E-03; -2.1005601E-01;3004; -1.3211425E-03;  0.0000000E+00; -6.7717840E-05;  1.0017449E+03;  1.0000000E-01;  1.4456875E+03;3; -6.8539495E+00;  0.0000000E+00; -4.3460641E+00;0; -1.0955627E-02;  4.0148816E+04;  0.0000000E+00;  1.2749518E+00;  4.0000000E+04;  0.0000000E+00;  4.0003973E+04; -1.2226880E-02;  0.0000000E+00;  1.2712522E-03;  1.8518943E+03;
  9.1228426E-02;  9.9999998E-03; -2.0001495E-01;3005; -1.4748420E-03;  0.0000000E+00; -1.8501276E-05;  1.0019897E+03;  1.0000000E-01;  1.6484473E+03;3; -8.0183773E+00;  0.0000000E+00; -2.4616871E+00;0; -1.1248920E-02;  4.0174098E+04;  0.0000000E+00;  1.0277932E+00;  4.0000000E+04;  0.0000000E+00;  4.0000656E+04; -1.2453420E-02;  0.0000000E+00;  1.2044999E-03;  1.4723744E+03;
  9.1184907E-02;  9.9999998E-03; -1.8999156E-01;3006; -1.5815947E-03;  0.0000000E+00; -1.5866370E-05;  1.0021677E+03;  1.0000000E-01;  1.7958998E+03;3; -8.8248672E+00;  0.0000000E+00; -1.2095623E+00;0; -1.1531668E-02;  4.0191469E+04;  0.0000000E+00;  7.6546800E-01;  4.0000000E+04;  0.0000000E+00;  3.9999398E+04; -1.2594656E-02;  0.0000000E+00;  1.0629884E-03;  1.1456462E+03;
  9.1137305E-02;  9.9999998E-03; -1.7998524E-01;3007; -1.6484773E-03;  0.0000000E+00; -4.3149888E-05;  1.0022934E+03;  1.0000000E-01;  1.8999956E+03;3; -9.3336744E+00;  0.0000000E+00; -4.3789938E-01;0; -1.1790724E-02;  4.0202410E+04;  0.0000000E+00;  5.2111822E-01;  4.0000000E+04;  0.0000000E+00;  4.0000246E+04; -1.2680113E-02;  0.0000000E+00;  8.8938879E-04;  7.9457477E+02;
  9.1094837E-02;  9.9999998E-03; -1.6999209E-01;3008; -1.6797739E-03;  0.0000000E+00; -8.3630206E-05;  1.0023692E+03;  1.0000000E-01;  1.9628087E+03;3; -9.6064367E+00;  0.0000000E+00; -3.3921644E-02;0; -1.2014549E-02;  4.0207066E+04;  0.0000000E+00;  3.1972983E-01;  4.0000000E+04;  0.0000000E+00;  4.0001941E+04; -1.2735486E-02;  0.0000000E+00;  7.2093669E-04;  4.5663614E+02;
  9.1063090E-02;  9.9999998E-03; -1.6000620E-01;3009; -1.6811334E-03;  0.0000000E+00; -1.2178260E-04;  1.0024021E+03;  1.0000000E-01;  1.9900671E+03;3; -9.7125101E+00;  0.0000000E+00;  1.1865950E-01;0; -1.2196801E-02;  4.0207270E+04;  0.0000000E+00;  1.7231084E-01;  4.0000000E+04;  0.0000000E+00;  4.0005301E+04; -1.2780430E-02;  0.0000000E+00;  5.8362941E-04;  4.9140756E+02;
  9.1045521E-02;  9.9999998E-03; -1.5002535E-01;3010; -1.6597756E-03;  0.0000000E+00; -1.4462355E-04;  1.0024023E+03;  1.0000000E-01;  1.9902646E+03;3; -9.7220230E+00;  0.0000000E+00;  1.3546616E-01;0; -1.2337218E-02;  4.0204137E+04;  0.0000000E+00;  7.7806197E-02;  4.0000000E+04;  0.0000000E+00;  4.0009285E+04; -1.2827519E-02;  0.0000000E+00;  4.9030141E-04;  8.7582306E+02;
  9.1042347E-02;  9.9999998E-03; -1.4004786E-01;3011; -1.6202460E-03;  0.0000000E+00; -1.5161093E-04;  1.0023757E+03;  1.0000000E-01;  1.9682406E+03;3; -9.6931782E+00;  0.0000000E+00;  1.0111123E-01;0; -1.2440843E-02;  4.0199266E+04;  0.0000000E+00;  2.6079621E-02;  4.0000000E+04;  0.0000000E+00;  4.0012363E+04; -1.2882138E-02;  0.0000000E+00;  4.4129507E-04;  1.2378676E+03;
  9.1051385E-02;  9.9999998E-03; -1.3006692E-01;3012; -1.5697570E-03;  0.0000000E+00; -1.4126320E-04;  1.0023282E+03;  1.0000000E-01;  1.9289331E+03;3; -9.6744623E+00;  0.0000000E+00;  6.4897105E-02;0; -1.2516741E-02;  4.0194105E+04;  0.0000000E+00;  3.3706410E-03;  4.0000000E+04;  0.0000000E+00;  4.0013312E+04; -1.2943953E-02;  0.0000000E+00;  4.2721236E-04;  1.4564047E+03;
  9.1067813E-02;  9.9999998E-03; -1.2007654E-01;3013; -1.5161519E-03;  0.0000000E+00; -1.1184300E-04;  1.0022707E+03;  1.0000000E-01;  1.8812307E+03;3; -9.6966105E+00;  0.0000000E+00;  3.0385213E-02;0; -1.2575505E-02;  4.0189453E+04;  0.0000000E+00; -2.8800583E-03;  4.0000000E+04;  0.0000000E+00;  4.0013633E+04; -1.3008067E-02;  0.0000000E+00;  4.3256217E-04;  1.4969634E+03;
  9.1085792E-02;  9.9999998E-03; -1.1007418E-01;3014; -1.4670946E-03;  0.0000000E+00; -6.7150118E-05;  1.0022125E+03;  1.0000000E-01;  1.8330345E+03;3; -9.7722597E+00;  0.0000000E+00; -6.8365373E-03;0; -1.2626513E-02;  4.0185781E+04;  0.0000000E+00; -1.6987068E-03;  4.0000000E+04;  0.0000000E+00;  4.0012188E+04; -1.3066951E-02;  0.0000000E+00;  4.4043834E-04;  1.3791256E+03;
  1.0082445E-01;  9.9999998E-03; -2.7007136E-01;3059; -3.9424517E-04;  0.0000000E+00; -5.8591820E-04;  9.9862537E+02;  1.0000000E-01; -1.1388813E+03;3;  6.1698418E+00;  0.0000000E+00; -1.4328199E+01;0; -8.9982487E-03;  3.9874668E+04;  0.0000000E+00;  3.2366252E+00;  4.0000000E+04;  0.0000000E+00;  4.0016660E+04; -8.4761092E-03;  0.0000000E+00; -5.2213995E-04;  5.1343628E+03;
  1.0103884E-01;  9.9999998E-03; -2.6012468E-01;3060; -4.5153199E-04;  0.0000000E+00; -6.2910805E-04;  9.9916705E+02;  1.0000000E-01; -6.9010394E+02;3;  4.0651894E+00;  0.0000000E+00; -1.8431118E+01;0; -9.5033543E-03;  3.9912898E+04;  0.0000000E+00;  3.0664163E+00;  4.0000000E+04;  0.0000000E+00;  4.0023039E+04; -9.4604697E-03;  0.0000000E+00; -4.2884378E-05;  5.3310444E+03;
  1.0118504E-01;  9.9999998E-03; -2.5015119E-01;3061; -5.4897083E-04;  0.0000000E+00; -6.1760185E-04;  9.9970374E+02;  1.0000000E-01; -2.4542516E+02;3;  2.0211110E+00;  0.0000000E+00; -1.8059929E+01;0; -9.8696109E-03;  3.9955734E+04;  0.0000000E+00;  2.8007960E+00;  4.0000000E+04;  0.0000000E+00;  4.0025535E+04; -1.0298992E-02;  0.0000000E+00;  4.2938022E-04;  5.1631992E+03;
  1.0127106E-01;  9.9999998E-03; -2.4014822E-01;3062; -6.8823388E-04;  0.0000000E+00; -5.5206014E-04;  1.0001923E+03;  1.0000000E-01;  1.5930414E+02;3;  1.6790619E-01;  0.0000000E+00; -1.4970747E+01;0; -1.0127304E-02;  3.9998820E+04;  0.0000000E+00;  2.4939477E+00;  4.0000000E+04;  0.0000000E+00;  4.0023895E+04; -1.0965770E-02;  0.0000000E+00;  8.3846564E-04;  4.6344741E+03;
  1.0131141E-01;  9.9999998E-03; -2.3012526E-01;3063; -8.6341583E-04;  0.0000000E+00; -4.3608720E-04;  1.0006011E+03;  1.0000000E-01;  4.9806000E+02;3; -1.4189402E+00;  0.0000000E+00; -1.0941177E+01;0; -1.0318169E-02;  4.0039059E+04;  0.0000000E+00;  2.1782243E+00;  4.0000000E+04;  0.0000000E+00;  4.0017852E+04; -1.1455395E-02;  0.0000000E+00;  1.1372258E-03;  3.8709641E+03;
  1.0131840E-01;  9.9999998E-03; -2.2009304E-01;3064; -1.0618594E-03;  0.0000000E+00; -2.7734344E-04;  1.0009297E+03;  1.0000000E-01;  7.7024982E+02;3; -2.7222054E+00;  0.0000000E+00; -7.2494144E+00;0; -1.0482643E-02;  4.0073082E+04;  0.0000000E+00;  1.8622801E+00;  4.0000000E+04;  0.0000000E+00;  4.0012594E+04; -1.1781098E-02;  0.0000000E+00;  1.2984554E-03;  3.0513257E+03;
  1.0130545E-01;  9.9999998E-03; -2.1005709E-01;3065; -1.2540589E-03;  0.0000000E+00; -1.2529492E-04;  1.0011727E+03;  1.0000000E-01;  9.7162683E+02;3; -3.7486637E+00;  0.0000000E+00; -4.4555540E+00;0; -1.0646760E-02;  4.0100148E+04;  0.0000000E+00;  1.5430897E+00;  4.0000000E+04;  0.0000000E+00;  4.0007434E+04; -1.1968680E-02;  0.0000000E+00;  1.3219197E-03;  2.3268325E+03;
  1.0127293E-01;  9.9999998E-03; -2.0002414E-01;3066; -1.4062071E-03;  0.0000000E+00; -4.5985023E-05;  1.0013453E+03;  1.0000000E-01;  1.1146351E+03;3; -4.5178971E+00;  0.0000000E+00; -2.5569131E+00;0; -1.0819213E-02;  4.0119195E+04;  0.0000000E+00;  1.2211176E+00;  4.0000000E+04;  0.0000000E+00;  4.0003359E+04; -1.2050480E-02;  0.0000000E+00;  1.2312657E-03;  1.7558218E+03;
  1.0123041E-01;  9.9999998E-03; -1.9000268E-01;3067; -1.5092164E-03;  0.0000000E+00; -2.7308633E-05;  1.0014492E+03;  1.0000000E-01;  1.2005586E+03;3; -5.0512667E+00;  0.0000000E+00; -1.3132470E+00;0; -1.0995746E-02;  4.0130492E+04;  0.0000000E+00;  9.0867090E-01;  4.0000000E+04;  0.0000000E+00;  4.0000711E+04; -1.2061767E-02;  0.0000000E+00;  1.0660213E-03;  1.2962485E+03;
  1.0118707E-01;  9.9999998E-03; -1.7999665E-01;3068; -1.5699809E-03;  0.0000000E+00; -3.9844348E-05;  1.0014960E+03;  1.0000000E-01;  1.2394711E+03;3; -5.3679414E+00;  0.0000000E+00; -5.6061029E-01;0; -1.1165615E-02;  4.0135094E+04;  0.0000000E+00;  6.2701076E-01;  4.0000000E+04;  0.0000000E+00;  4.0001734E+04; -1.2036559E-02;  0.0000000E+00;  8.7094365E-04;  8.9540460E+02;
  1.0115243E-01;  9.9999998E-03; -1.7000055E-01;3069; -1.5991604E-03;  0.0000000E+00; -6.7201290E-05;  1.0015063E+03;  1.0000000E-01;  1.2479647E+03;3; -5.5295649E+00;  0.0000000E+00; -1.6184852E-01;0; -1.1318825E-02;  4.0134227E+04;  0.0000000E+00;  3.9620599E-01;  4.0000000E+04;  0.0000000E+00;  4.0004023E+04; -1.2003675E-02;  0.0000000E+00;  6.8485038E-04;  6.5730090E+02;
  1.0113371E-01;  9.9999998E-03; -1.6001016E-01;3070; -1.6022916E-03;  0.0000000E+00; -9.1410999E-05;  1.0014863E+03;  1.0000000E-01;  1.2313726E+03;3; -5.5811000E+00;  0.0000000E+00; -8.0215721E-04;0; -1.1449014E-02;  4.0129109E+04;  0.0000000E+00;  2.2570772E-01;  4.0000000E+04;  0.0000000E+00;  4.0007754E+04; -1.1983711E-02;  0.0000000E+00;  5.3469767E-04;  8.4392584E+02;
  1.0113726E-01;  9.9999998E-03; -1.5002649E-01;3071; -1.5828457E-03;  0.0000000E+00; -1.0750838E-04;  1.0014368E+03;  1.0000000E-01;  1.1902874E+03;3; -5.5705690E+00;  0.0000000E+00;  2.6639350E-02;0; -1.1554314E-02;  4.0121941E+04;  0.0000000E+00;  1.1285052E-01;  4.0000000E+04;  0.0000000E+00;  4.0011746E+04; -1.1987820E-02;  0.0000000E+00;  4.3350647E-04;  1.2666594E+03;
  1.0116380E-01;  9.9999998E-03; -1.4004536E-01;3072; -1.5464672E-03;  0.0000000E+00; -1.1171892E-04;  1.0013769E+03;  1.0000000E-01;  1.1407085E+03;3; -5.5425539E+00;  0.0000000E+00;  7.4952533E-03;0; -1.1637638E-02;  4.0114340E+04;  0.0000000E+00;  4.7122005E-02;  4.0000000E+04;  0.0000000E+00;  4.0014902E+04; -1.2018983E-02;  0.0000000E+00;  3.8134481E-04;  1.6564884E+03;
  1.0122144E-01;  9.9999998E-03; -1.3005561E-01;3073; -1.4999706E-03;  0.0000000E+00; -9.9533587E-05;  1.0013136E+03;  1.0000000E-01;  1.0882655E+03;3; -5.5266643E+00;  0.0000000E+00; -1.9310934E-02;0; -1.1704409E-02;  4.0107312E+04;  0.0000000E+00;  1.3833818E-02;  4.0000000E+04;  0.0000000E+00;  4.0016121E+04; -1.2072448E-02;  0.0000000E+00;  3.6803904E-04;  1.8957759E+03;
  1.0129356E-01;  9.9999998E-03; -1.2005424E-01;3074; -1.4505243E-03;  0.0000000E+00; -6.7968853E-05;  1.0012550E+03;  1.0000000E-01;  1.0397731E+03;3; -5.5412607E+00;  0.0000000E+00; -4.7581006E-02;0; -1.1762391E-02;  4.0101945E+04;  0.0000000E+00; -3.3541821E-04;  4.0000000E+04;  0.0000000E+00;  4.0016301E+04; -1.2139414E-02;  0.0000000E+00;  3.7702316E-04;  1.9450970E+03;
  1.0134102E-01;  9.9999998E-03; -1.1004813E-01;3075; -1.4063417E-03;  0.0000000E+00; -2.4206191E-05;  1.0012023E+03;  1.0000000E-01;  9.9602124E+02;3; -5.5869937E+00;  0.0000000E+00; -6.9627397E-02;0; -1.1819219E-02;  4.0099004E+04;  0.0000000E+00; -4.8209266E-03;  4.0000000E+04;  0.0000000E+00;  4.0015605E+04; -1.2209531E-02;  0.0000000E+00;  3.9031194E-04;  1.8238392E+03;
  1.1100176E-01;  9.9999998E-03; -2.6996177E-01;3120; -3.8802522E-04;  0.0000000E+00; -5.6769035E-04;  9.9815771E+02;  1.0000000E-01; -1.5262778E+03;3;  6.6801386E+00;  0.0000000E+00; -1.4027534E+01;0; -9.6612908E-03;  3.9835363E+04;  0.0000000E+00;  5.8273005E+00;  4.0000000E+04;  0.0000000E+00;  4.0018969E+04; -9.2667071E-03;  0.0000000E+00; -3.9458415E-04;  8.7741084E+03;
  1.1117481E-01;  9.9999998E-03; -2.6003024E-01;3121; -4.7888371E-04;  0.0000000E+00; -6.1451265E-04;  9.9872791E+02;  1.0000000E-01; -1.0538961E+03;3;  4.5164666E+00;  0.0000000E+00; -1.8793491E+01;0; -1.0116934E-02;  3.9874238E+04;  0.0000000E+00;  5.1202884E+00;  4.0000000E+04;  0.0000000E+00;  4.0027422E+04; -1.0192585E-02;  0.0000000E+00;  7.5651100E-05;  8.1721021E+03;
  1.1130958E-01;  9.9999998E-03; -2.5006154E-01;3122; -5.9062080E-04;  0.0000000E+00; -6.0029613E-04;  9.9927350E+02;  1.0000000E-01; -6.0190887E+02;3;  2.5738673E+00;  0.0000000E+00; -1.8627110E+01;0; -1.0407845E-02;  3.9917301E+04;  0.0000000E+00;  4.3033347E+00;  4.0000000E+04;  0.0000000E+00;  4.0030250E+04; -1.0936424E-02;  0.0000000E+00;  5.2857841E-04;  7.2942075E+03;
  1.1140577E-01;  9.9999998E-03; -2.4005914E-01;3123; -7.3230144E-04;  0.0000000E+00; -5.3066952E-04;  9.9975195E+02;  1.0000000E-01; -2.0552505E+02;3;  9.6483576E-01;  0.0000000E+00; -1.5469201E+01;0; -1.0568597E-02;  3.9958996E+04;  0.0000000E+00;  3.5022552E+00;  4.0000000E+04;  0.0000000E+00;  4.0029188E+04; -1.1480528E-02;  0.0000000E+00;  9.1193058E-04;  6.1896938E+03;
  1.1146092E-01;  9.9999998E-03; -2.3003587E-01;3124; -9.0029766E-04;  0.0000000E+00; -4.1303472E-04;  1.0001362E+03;  1.0000000E-01;  1.1278693E+02;3; -2.9231736E-01;  0.0000000E+00; -1.1279614E+01;0; -1.0645082E-02;  3.9996371E+04;  0.0000000E+00;  2.7955649E+00;  4.0000000E+04;  0.0000000E+00;  4.0023723E+04; -1.1827541E-02;  0.0000000E+00;  1.1824584E-03;  4.9697480E+03;
  1.1148770E-01;  9.9999998E-03; -2.2000583E-01;3125; -1.0829148E-03;  0.0000000E+00; -2.5996225E-04;  1.0004099E+03;  1.0000000E-01;  3.3964471E+02;3; -1.2328794E+00;  0.0000000E+00; -7.4115872E+00;0; -1.0684524E-02;  4.0026383E+04;  0.0000000E+00;  2.2075298E+00;  4.0000000E+04;  0.0000000E+00;  4.0017090E+04; -1.2000917E-02;  0.0000000E+00;  1.3163941E-03;  3.7824133E+03;
  1.1148579E-01;  9.9999998E-03; -2.0998003E-01;3126; -1.2587784E-03;  0.0000000E+00; -1.0922270E-04;  1.0005855E+03;  1.0000000E-01;  4.8512207E+02;3; -1.9274524E+00;  0.0000000E+00; -4.5045767E+00;0; -1.0721480E-02;  4.0048496E+04;  0.0000000E+00;  1.7233450E+00;  4.0000000E+04;  0.0000000E+00;  4.0010367E+04; -1.2036791E-02;  0.0000000E+00;  1.3153101E-03;  2.7654712E+03;
  1.1146449E-01;  9.9999998E-03; -1.9996029E-01;3127; -1.3986507E-03;  0.0000000E+00; -2.3760173E-05;  1.0006831E+03;  1.0000000E-01;  5.6590991E+02;3; -2.4362774E+00;  0.0000000E+00; -2.5642636E+00;0; -1.0773602E-02;  4.0061848E+04;  0.0000000E+00;  1.3158388E+00;  4.0000000E+04;  0.0000000E+00;  4.0005734E+04; -1.1977294E-02;  0.0000000E+00;  1.2036925E-03;  1.9868213E+03;
  1.1143669E-01;  9.9999998E-03; -1.8994533E-01;3128; -1.4927897E-03;  0.0000000E+00; -3.4600143E-06;  1.0007114E+03;  1.0000000E-01;  5.8941541E+02;3; -2.7803214E+00;  0.0000000E+00; -1.3337419E+00;0; -1.0843480E-02;  4.0067098E+04;  0.0000000E+00;  9.6578711E-01;  4.0000000E+04;  0.0000000E+00;  4.0003641E+04; -1.1864515E-02;  0.0000000E+00;  1.0210351E-03;  1.4198677E+03;
  1.1141069E-01;  9.9999998E-03; -1.7993909E-01;3129; -1.5489985E-03;  0.0000000E+00; -1.1510704E-05;  1.0006889E+03;  1.0000000E-01;  5.7074927E+02;3; -2.9859481E+00;  0.0000000E+00; -6.1211348E-01;0; -1.0924099E-02;  4.0065926E+04;  0.0000000E+00;  6.6878378E-01;  4.0000000E+04;  0.0000000E+00;  4.0003473E+04; -1.1736404E-02;  0.0000000E+00;  8.1230543E-04;  1.0186327E+03;
  1.1139915E-01;  9.9999998E-03; -1.6993679E-01;3130; -1.5742405E-03;  0.0000000E+00; -2.9750732E-05;  1.0006315E+03;  1.0000000E-01;  5.2324445E+02;3; -3.0903406E+00;  0.0000000E+00; -2.3572820E-01;0; -1.1006761E-02;  4.0059523E+04;  0.0000000E+00;  4.2921057E-01;  4.0000000E+04;  0.0000000E+00;  4.0006125E+04; -1.1623126E-02;  0.0000000E+00;  6.1636401E-04;  8.8654327E+02;
  1.1139800E-01;  9.9999998E-03; -1.5993872E-01;3131; -1.5745329E-03;  0.0000000E+00; -4.9339968E-05;  1.0005573E+03;  1.0000000E-01;  4.6171533E+02;3; -3.1269510E+00;  0.0000000E+00; -8.0786720E-02;0; -1.1085601E-02;  4.0050254E+04;  0.0000000E+00;  2.5035006E-01;  4.0000000E+04;  0.0000000E+00;  4.0009734E+04; -1.1545747E-02;  0.0000000E+00;  4.6014637E-04;  1.1540883E+03;
  1.1140710E-01;  9.9999998E-03; -1.4995451E-01;3132; -1.5557433E-03;  0.0000000E+00; -6.3772764E-05;  1.0004751E+03;  1.0000000E-01;  3.9356912E+02;3; -3.1308286E+00;  0.0000000E+00; -4.9019802E-02;0; -1.1158240E-02;  4.0040152E+04;  0.0000000E+00;  1.2853006E-01;  4.0000000E+04;  0.0000000E+00;  4.0013098E+04; -1.1514851E-02;  0.0000000E+00;  3.5661104E-04;  1.6093799E+03;
  1.1142803E-01;  9.9999998E-03; -1.3997918E-01;3133; -1.5230515E-03;  0.0000000E+00; -6.8280911E-05;  1.0004041E+03;  1.0000000E-01;  3.3480536E+02;3; -3.1330671E+00;  0.0000000E+00; -5.7574730E-02;0; -1.1224940E-02;  4.0030828E+04;  0.0000000E+00;  5.3532589E-02;  4.0000000E+04;  0.0000000E+00;  4.0017223E+04; -1.1530344E-02;  0.0000000E+00;  3.0540369E-04;  2.0281691E+03;
  1.1146192E-01;  9.9999998E-03; -1.3000108E-01;3134; -1.4821079E-03;  0.0000000E+00; -5.8757734E-05;  1.0003441E+03;  1.0000000E-01;  2.8512775E+02;3; -3.1390724E+00;  0.0000000E+00; -7.2188802E-02;0; -1.1288111E-02;  4.0023555E+04;  0.0000000E+00;  1.1661489E-02;  4.0000000E+04;  0.0000000E+00;  4.0018770E+04; -1.1583916E-02;  0.0000000E+00;  2.9580438E-04;  2.2928279E+03;
  1.1151201E-01;  9.9999998E-03; -1.2001246E-01;3135; -1.4396926E-03;  0.0000000E+00; -3.2392614E-05;  1.0002937E+03;  1.0000000E-01;  2.4335114E+02;3; -3.1596460E+00;  0.0000000E+00; -8.6184479E-02;0; -1.1350668E-02;  4.0019309E+04;  0.0000000E+00; -9.5354579E-03;  4.0000000E+04;  0.0000000E+00;  4.0018516E+04; -1.1661097E-02;  0.0000000E+00;  3.1042937E-04;  2.3574819E+03;
  1.1161338E-01;  9.9999998E-03; -1.1000519E-01;3136; -1.4026731E-03;  0.0000000E+00;  1.9257002E-06;  1.0002620E+03;  1.0000000E-01;  2.1708028E+02;3; -3.1881387E+00;  0.0000000E+00; -8.3501734E-02;0; -1.1413240E-02;  4.0017547E+04;  0.0000000E+00; -1.8838881E-02;  4.0000000E+04;  0.0000000E+00;  4.0018367E+04; -1.1743504E-02;  0.0000000E+00;  3.3026392E-04;  2.2390056E+03;
  1.2103533E-01;  9.9999998E-03; -2.6984426E-01;3181; -4.6762638E-04;  0.0000000E+00; -4.4898299E-04;  9.9776379E+02;  1.0000000E-01; -1.8526389E+03;3;  7.2100968E+00;  0.0000000E+00; -1.4644982E+01;0; -1.0634680E-02;  3.9799828E+04;  0.0000000E+00;  9.3564749E+00;  4.0000000E+04;  0.0000000E+00;  4.0023852E+04; -1.0369600E-02;  0.0000000E+00; -2.6508048E-04;  1.3893585E+04;
  1.2119292E-01;  9.9999998E-03; -2.5992447E-01;3182; -5.8840640E-04;  0.0000000E+00; -5.0132582E-04;  9.9836462E+02;  1.0000000E-01; -1.3548752E+03;3;  4.7977123E+00;  0.0000000E+00; -1.9673231E+01;0; -1.1044072E-02;  3.9840547E+04;  0.0000000E+00;  7.8283992E+00;  4.0000000E+04;  0.0000000E+00;  4.0032535E+04; -1.1228858E-02;  0.0000000E+00;  1.8478557E-04;  1.2078447E+04;
  1.2133554E-01;  9.9999998E-03; -2.4996637E-01;3183; -7.1447511E-04;  0.0000000E+00; -4.8966391E-04;  9.9892383E+02;  1.0000000E-01; -8.9157971E+02;3;  2.7655213E+00;  0.0000000E+00; -1.9468475E+01;0; -1.1265202E-02;  3.9883844E+04;  0.0000000E+00;  6.2170277E+00;  4.0000000E+04;  0.0000000E+00;  4.0035711E+04; -1.1869247E-02;  0.0000000E+00;  6.0404465E-04;  1.0088842E+04;
  1.2145341E-01;  9.9999998E-03; -2.3997262E-01;3184; -8.6002139E-04;  0.0000000E+00; -4.1913782E-04;  9.9939941E+02;  1.0000000E-01; -4.9756616E+02;3;  1.2259564E+00;  0.0000000E+00; -1.6115128E+01;0; -1.1339569E-02;  3.9925074E+04;  0.0000000E+00;  4.7321429E+00;  4.0000000E+04;  0.0000000E+00;  4.0034773E+04; -1.2286095E-02;  0.0000000E+00;  9.4652642E-04;  8.0919453E+03;
  1.2153963E-01;  9.9999998E-03; -2.2995666E-01;3185; -1.0223492E-03;  0.0000000E+00; -2.9984984E-04;  9.9976495E+02;  1.0000000E-01; -1.9471054E+02;3;  1.4228415E-01;  0.0000000E+00; -1.1687986E+01;0; -1.1316064E-02;  3.9960746E+04;  0.0000000E+00;  3.4982698E+00;  4.0000000E+04;  0.0000000E+00;  4.0029012E+04; -1.2492238E-02;  0.0000000E+00;  1.1761736E-03;  6.2077993E+03;
  1.2158240E-01;  9.9999998E-03; -2.1993287E-01;3186; -1.1903545E-03;  0.0000000E+00; -1.5325789E-04;  1.0000049E+03;  1.0000000E-01;  4.0492682E+00;3; -5.8685178E-01;  0.0000000E+00; -7.6364985E+00;0; -1.1244292E-02;  3.9988629E+04;  0.0000000E+00;  2.5499101E+00;  4.0000000E+04;  0.0000000E+00;  4.0021836E+04; -1.2519710E-02;  0.0000000E+00;  1.2754173E-03;  4.5413447E+03;
  1.2159966E-01;  9.9999998E-03; -2.0991370E-01;3187; -1.3468631E-03;  0.0000000E+00; -2.0703805E-05;  1.0001316E+03;  1.0000000E-01;  1.0903395E+02;3; -1.0736424E+00;  0.0000000E+00; -4.6099887E+00;0; -1.1166733E-02;  4.0006863E+04;  0.0000000E+00;  1.8524910E+00;  4.0000000E+04;  0.0000000E+00;  4.0013785E+04; -1.2415349E-02;  0.0000000E+00;  1.2486166E-03;  3.1830435E+03;
  1.2160305E-01;  9.9999998E-03; -1.9990224E-01;3188; -1.4646868E-03;  0.0000000E+00;  3.5158908E-05;  1.0001652E+03;  1.0000000E-01;  1.3688503E+02;3; -1.4048464E+00;  0.0000000E+00; -2.5944865E+00;0; -1.1109331E-02;  4.0015785E+04;  0.0000000E+00;  1.3416802E+00;  4.0000000E+04;  0.0000000E+00;  4.0008602E+04; -1.2229012E-02;  0.0000000E+00;  1.1196819E-03;  2.1817129E+03;
  1.2158819E-01;  9.9999998E-03; -1.8989587E-01;3189; -1.5436823E-03;  0.0000000E+00;  4.2365187E-05;  1.0001274E+03;  1.0000000E-01;  1.0557726E+02;3; -1.6248978E+00;  0.0000000E+00; -1.3497280E+00;0; -1.1081183E-02;  4.0016496E+04;  0.0000000E+00;  9.5667684E-01;  4.0000000E+04;  0.0000000E+00;  4.0005387E+04; -1.2007822E-02;  0.0000000E+00;  9.2663878E-04;  1.5109551E+03;
  1.2156442E-01;  9.9999998E-03; -1.7989330E-01;3190; -1.5914236E-03;  0.0000000E+00;  2.9377099E-05;  1.0000477E+03;  1.0000000E-01;  3.9505054E+01;3; -1.7653427E+00;  0.0000000E+00; -6.3003939E-01;0; -1.1079380E-02;  4.0010570E+04;  0.0000000E+00;  6.5727353E-01;  4.0000000E+04;  0.0000000E+00;  4.0004738E+04; -1.1792461E-02;  0.0000000E+00;  7.1308104E-04;  1.1150781E+03;
  1.2155013E-01;  9.9999998E-03; -1.6989182E-01;3191; -1.6129673E-03;  0.0000000E+00;  8.3751984E-06;  9.9994720E+02;  1.0000000E-01; -4.3751850E+01;3; -1.8427814E+00;  0.0000000E+00; -2.6045081E-01;0; -1.1097543E-02;  4.0000664E+04;  0.0000000E+00;  4.2367533E-01;  4.0000000E+04;  0.0000000E+00;  4.0007270E+04; -1.1613920E-02;  0.0000000E+00;  5.1637733E-04;  1.0547806E+03;
  1.2156225E-01;  9.9999998E-03; -1.5989335E-01;3192; -1.6133613E-03;  0.0000000E+00; -1.3212791E-05;  9.9984003E+02;  1.0000000E-01; -1.3253946E+02;3; -1.8814319E+00;  0.0000000E+00; -1.0923219E-01;0; -1.1130074E-02;  3.9988023E+04;  0.0000000E+00;  2.4796812E-01;  4.0000000E+04;  0.0000000E+00;  4.0011645E+04; -1.1492195E-02;  0.0000000E+00;  3.6212063E-04;  1.3716998E+03;
  1.2162098E-01;  9.9999998E-03; -1.4990833E-01;3193; -1.5978270E-03;  0.0000000E+00; -3.0421877E-05;  9.9973999E+02;  1.0000000E-01; -2.1540132E+02;3; -1.8922033E+00;  0.0000000E+00; -7.6087430E-02;0; -1.1173332E-02;  3.9976098E+04;  0.0000000E+00;  1.2445879E-01;  4.0000000E+04;  0.0000000E+00;  4.0015516E+04; -1.1435681E-02;  0.0000000E+00;  2.6234885E-04;  1.8560699E+03;
  1.2172867E-01;  9.9999998E-03; -1.3992880E-01;3194; -1.5720456E-03;  0.0000000E+00; -3.9230326E-05;  9.9965527E+02;  1.0000000E-01; -2.8562155E+02;3; -1.8994392E+00;  0.0000000E+00; -8.3714664E-02;0; -1.1224949E-02;  3.9965945E+04;  0.0000000E+00;  4.4363018E-02;  4.0000000E+04;  0.0000000E+00;  4.0017875E+04; -1.1441233E-02;  0.0000000E+00;  2.1628347E-04;  2.3035132E+03;
  1.2187737E-01;  9.9999998E-03; -1.2994254E-01;3195; -1.5409795E-03;  0.0000000E+00; -3.5343652E-05;  9.9959882E+02;  1.0000000E-01; -3.3238565E+02;3; -1.9101852E+00;  0.0000000E+00; -9.4974421E-02;0; -1.1283666E-02;  3.9958832E+04;  0.0000000E+00; -3.3928473E-03;  4.0000000E+04;  0.0000000E+00;  4.0020875E+04; -1.1496733E-02;  0.0000000E+00;  2.1306686E-04;  2.5935293E+03;
  1.2201677E-01;  9.9999998E-03; -1.1994467E-01;3196; -1.5086508E-03;  0.0000000E+00; -1.8190685E-05;  9.9957001E+02;  1.0000000E-01; -3.5623685E+02;3; -1.9269834E+00;  0.0000000E+00; -9.9535435E-02;0; -1.1347840E-02;  3.9955621E+04;  0.0000000E+00; -2.9274201E-02;  4.0000000E+04;  0.0000000E+00;  4.0020887E+04; -1.1583423E-02;  0.0000000E+00;  2.3558343E-04;  2.6736829E+03;
  1.2210196E-01;  9.9999998E-03; -1.0994092E-01;3197; -1.4787391E-03;  0.0000000E+00;  6.6448029E-06;  9.9956305E+02;  1.0000000E-01; -3.6201447E+02;3; -1.9519550E+00;  0.0000000E+00; -9.3595982E-02;0; -1.1414263E-02;  3.9955984E+04;  0.0000000E+00; -4.0878184E-02;  4.0000000E+04;  0.0000000E+00;  4.0020141E+04; -1.1679203E-02;  0.0000000E+00;  2.6493997E-04;  2.5595486E+03;
  1.3099408E-01;  9.9999998E-03; -2.6971522E-01;3242; -6.4684101E-04;  0.0000000E+00; -2.6308940E-04;  9.9751172E+02;  1.0000000E-01; -2.0614727E+03;3;  8.6196280E+00;  0.0000000E+00; -1.7655977E+01;0; -1.1924455E-02;  3.9771781E+04;  0.0000000E+00;  1.3790216E+01;  4.0000000E+04;  0.0000000E+00;  4.0032535E+04; -1.1762857E-02;  0.0000000E+00; -1.6159844E-04;  2.0456289E+04;
  1.3114889E-01;  9.9999998E-03; -2.5981212E-01;3243; -7.8865938E-04;  0.0000000E+00; -3.2258534E-04;  9.9813190E+02;  1.0000000E-01; -1.5477094E+03;3;  5.4741735E+00;  0.0000000E+00; -2.1877260E+01;0; -1.2260067E-02;  3.9814254E+04;  0.0000000E+00;  1.1096012E+01;  4.0000000E+04;  0.0000000E+00;  4.0040570E+04; -1.2525146E-02;  0.0000000E+00;  2.6507885E-04;  1.6923465E+04;
  1.3130619E-01;  9.9999998E-03; -2.4986973E-01;3244; -9.2685909E-04;  0.0000000E+00; -3.1748667E-04;  9.9870349E+02;  1.0000000E-01; -1.0741425E+03;3;  3.0088856E+00;  0.0000000E+00; -2.1013994E+01;0; -1.2394794E-02;  3.9859180E+04;  0.0000000E+00;  8.4504576E+00;  4.0000000E+04;  0.0000000E+00;  4.0044156E+04; -1.3038366E-02;  0.0000000E+00;  6.4357196E-04;  1.3428467E+04;
  1.3144319E-01;  9.9999998E-03; -2.3989180E-01;3245; -1.0720473E-03;  0.0000000E+00; -2.5059879E-04;  9.9918738E+02;  1.0000000E-01; -6.7326489E+02;3;  1.2908752E+00;  0.0000000E+00; -1.7144224E+01;0; -1.2376091E-02;  3.9901730E+04;  0.0000000E+00;  6.1268535E+00;  4.0000000E+04;  0.0000000E+00;  4.0040383E+04; -1.3311980E-02;  0.0000000E+00;  9.3588931E-04;  1.0252823E+04;
  1.3154913E-01;  9.9999998E-03; -2.2989261E-01;3246; -1.2220986E-03;  0.0000000E+00; -1.4084986E-04;  9.9954669E+02;  1.0000000E-01; -3.7554492E+02;3;  2.0367052E-01;  0.0000000E+00; -1.2323237E+01;0; -1.2253664E-02;  3.9937684E+04;  0.0000000E+00;  4.2714963E+00;  4.0000000E+04;  0.0000000E+00;  4.0033938E+04; -1.3371321E-02;  0.0000000E+00;  1.1176566E-03;  7.5233174E+03;
  1.3162220E-01;  9.9999998E-03; -2.1988688E-01;3247; -1.3712659E-03;  0.0000000E+00; -1.0478014E-05;  9.9977032E+02;  1.0000000E-01; -1.9026622E+02;3; -4.3027824E-01;  0.0000000E+00; -8.0015373E+00;0; -1.2080381E-02;  3.9964492E+04;  0.0000000E+00;  2.9051471E+00;  4.0000000E+04;  0.0000000E+00;  4.0025852E+04; -1.3259062E-02;  0.0000000E+00;  1.1786814E-03;  5.2812759E+03;
  1.3166550E-01;  9.9999998E-03; -2.0988172E-01;3248; -1.4943382E-03;  0.0000000E+00;  6.6132168E-05;  9.9986908E+02;  1.0000000E-01; -1.0844138E+02;3; -7.9026687E-01;  0.0000000E+00; -4.8001127E+00;0; -1.1899327E-02;  3.9981430E+04;  0.0000000E+00;  1.9599174E+00;  4.0000000E+04;  0.0000000E+00;  4.0016766E+04; -1.3027270E-02;  0.0000000E+00;  1.1279434E-03;  3.5444292E+03;
  1.3168709E-01;  9.9999998E-03; -1.9987862E-01;3249; -1.5852050E-03;  0.0000000E+00;  9.0710935E-05;  9.9986053E+02;  1.0000000E-01; -1.1555228E+02;3; -1.0044680E+00;  0.0000000E+00; -2.6713319E+00;0; -1.1745397E-02;  3.9987766E+04;  0.0000000E+00;  1.3274045E+00;  4.0000000E+04;  0.0000000E+00;  4.0010715E+04; -1.2731197E-02;  0.0000000E+00;  9.8580075E-04;  2.3097839E+03;
  1.3169491E-01;  9.9999998E-03; -1.8987377E-01;3250; -1.6492370E-03;  0.0000000E+00;  8.7004897E-05;  9.9978674E+02;  1.0000000E-01; -1.7668636E+02;3; -1.1374851E+00;  0.0000000E+00; -1.3765707E+00;0; -1.1631731E-02;  3.9985723E+04;  0.0000000E+00;  9.0140647E-01;  4.0000000E+04;  0.0000000E+00;  4.0006621E+04; -1.2420594E-02;  0.0000000E+00;  7.8886235E-04;  1.5283293E+03;
  1.3170527E-01;  9.9999998E-03; -1.7986657E-01;3251; -1.6890410E-03;  0.0000000E+00;  6.6847009E-05;  9.9966968E+02;  1.0000000E-01; -2.7367126E+02;3; -1.2262752E+00;  0.0000000E+00; -6.4501679E-01;0; -1.1558465E-02;  3.9976934E+04;  0.0000000E+00;  6.0217243E-01;  4.0000000E+04;  0.0000000E+00;  4.0005754E+04; -1.2136547E-02;  0.0000000E+00;  5.7808234E-04;  1.1206288E+03;
  1.3173759E-01;  9.9999998E-03; -1.6985531E-01;3252; -1.7079732E-03;  0.0000000E+00;  4.0930277E-05;  9.9953601E+02;  1.0000000E-01; -3.8438419E+02;3; -1.2787714E+00;  0.0000000E+00; -2.6632965E-01;0; -1.1520900E-02;  3.9964594E+04;  0.0000000E+00;  3.8210297E-01;  4.0000000E+04;  0.0000000E+00;  4.0007414E+04; -1.1909323E-02;  0.0000000E+00;  3.8842284E-04;  1.0992354E+03;
  1.3181502E-01;  9.9999998E-03; -1.5984374E-01;3253; -1.7107066E-03;  0.0000000E+00;  1.4915562E-05;  9.9941003E+02;  1.0000000E-01; -4.8877631E+02;3; -1.3138230E+00;  0.0000000E+00; -1.0786794E-01;0; -1.1513831E-02;  3.9950758E+04;  0.0000000E+00;  2.1810305E-01;  4.0000000E+04;  0.0000000E+00;  4.0011785E+04; -1.1757422E-02;  0.0000000E+00;  2.4359113E-04;  1.4486726E+03;
  1.3194554E-01;  9.9999998E-03; -1.4984380E-01;3254; -1.7014552E-03;  0.0000000E+00; -7.6141105E-06;  9.9930798E+02;  1.0000000E-01; -5.7331714E+02;3; -1.3322778E+00;  0.0000000E+00; -6.8179607E-02;0; -1.1532187E-02;  3.9938121E+04;  0.0000000E+00;  9.9856503E-02;  4.0000000E+04;  0.0000000E+00;  4.0015664E+04; -1.1686699E-02;  0.0000000E+00;  1.5451203E-04;  1.9549778E+03;
  1.3205226E-01;  9.9999998E-03; -1.3985814E-01;3255; -1.6841789E-03;  0.0000000E+00; -2.3400096E-05;  9.9923584E+02;  1.0000000E-01; -6.3306854E+02;3; -1.3485439E+00;  0.0000000E+00; -6.8176627E-02;0; -1.1567689E-02;  3.9928422E+04;  0.0000000E+00;  2.0509997E-02;  4.0000000E+04;  0.0000000E+00;  4.0019535E+04; -1.1688077E-02;  0.0000000E+00;  1.2038834E-04;  2.4243931E+03;
  1.3208340E-01;  9.9999998E-03; -1.2989078E-01;3256; -1.6620588E-03;  0.0000000E+00; -2.9265017E-05;  9.9919305E+02;  1.0000000E-01; -6.6852429E+02;3; -1.3690382E+00;  0.0000000E+00; -7.4711435E-02;0; -1.1613977E-02;  3.9922285E+04;  0.0000000E+00; -2.7508300E-02;  4.0000000E+04;  0.0000000E+00;  4.0021379E+04; -1.1743831E-02;  0.0000000E+00;  1.2985361E-04;  2.7375471E+03;
  1.3207628E-01;  9.9999998E-03; -1.1991903E-01;3257; -1.6375793E-03;  0.0000000E+00; -2.2900153E-05;  9.9918207E+02;  1.0000000E-01; -6.7765985E+02;3; -1.3864913E+00;  0.0000000E+00; -7.9945818E-02;0; -1.1668682E-02;  3.9920422E+04;  0.0000000E+00; -5.2466985E-02;  4.0000000E+04;  0.0000000E+00;  4.0021277E+04; -1.1833427E-02;  0.0000000E+00;  1.6474546E-04;  2.8359355E+03;
  1.3205391E-01;  9.9999998E-03; -1.0993591E-01;3258; -1.6131366E-03;  0.0000000E+00; -5.9947392E-06;  9.9918896E+02;  1.0000000E-01; -6.7193164E+02;3; -1.4101290E+00;  0.0000000E+00; -8.4293693E-02;0; -1.1727679E-02;  3.9921809E+04;  0.0000000E+00; -6.1515007E-02;  4.0000000E+04;  0.0000000E+00;  4.0021035E+04; -1.1933517E-02;  0.0000000E+00;  2.0583846E-04;  2.7312180E+03;
  1.4092547E-01;  9.9999998E-03; -2.6960120E-01;3303; -9.3068863E-04;  0.0000000E+00; -6.1250692E-05;  9.9742902E+02;  1.0000000E-01; -2.1300139E+03;3;  1.1696130E+01;  0.0000000E+00; -2.3969868E+01;0; -1.3535525E-02;  3.9751715E+04;  0.0000000E+00;  1.8981394E+01;  4.0000000E+04;  0.0000000E+00;  4.0046984E+04; -1.3421692E-02;  0.0000000E+00; -1.1383262E-04;  2.8275080E+04;
  1.4110211E-01;  9.9999998E-03; -2.5970882E-01;3304; -1.0877248E-03;  0.0000000E+00; -1.2699816E-04;  9.9804358E+02;  1.0000000E-01; -1.6208430E+03;3;  7.0051966E+00;  0.0000000E+00; -2.5900814E+01;0; -1.3737501E-02;  3.9796590E+04;  0.0000000E+00;  1.4705885E+01;  4.0000000E+04;  0.0000000E+00;  4.0052254E+04; -1.4033406E-02;  0.0000000E+00;  2.9590511E-04;  2.2410945E+04;
  1.4126675E-01;  9.9999998E-03; -2.4978910E-01;3305; -1.2243940E-03;  0.0000000E+00; -1.2956116E-04;  9.9862567E+02;  1.0000000E-01; -1.1385851E+03;3;  3.5724833E+00;  0.0000000E+00; -2.3398081E+01;0; -1.3737140E-02;  3.9844348E+04;  0.0000000E+00;  1.0800265E+01;  4.0000000E+04;  0.0000000E+00;  4.0052324E+04; -1.4370905E-02;  0.0000000E+00;  6.3376490E-04;  1.7024746E+04;
  1.4140512E-01;  9.9999998E-03; -2.3983647E-01;3306; -1.3533031E-03;  0.0000000E+00; -7.4427022E-05;  9.9912543E+02;  1.0000000E-01; -7.2457208E+02;3;  1.3627717E+00;  0.0000000E+00; -1.8520836E+01;0; -1.3593926E-02;  3.9889789E+04;  0.0000000E+00;  7.5499039E+00;  4.0000000E+04;  0.0000000E+00;  4.0046367E+04; -1.4468943E-02;  0.0000000E+00;  8.7501667E-04;  1.2460312E+04;
  1.4151862E-01;  9.9999998E-03; -2.2985783E-01;3307; -1.4789483E-03;  0.0000000E+00;  1.4673107E-05;  9.9949139E+02;  1.0000000E-01; -4.2137079E+02;3;  1.0041124E-01;  0.0000000E+00; -1.3105129E+01;0; -1.3358903E-02;  3.9928129E+04;  0.0000000E+00;  5.0464196E+00;  4.0000000E+04;  0.0000000E+00;  4.0038117E+04; -1.4368212E-02;  0.0000000E+00;  1.0093085E-03;  8.7770859E+03;
  1.4160778E-01;  9.9999998E-03; -2.1986724E-01;3308; -1.5877312E-03;  0.0000000E+00;  8.4447507E-05;  9.9971802E+02;  1.0000000E-01; -2.3362302E+02;3; -5.4173517E-01;  0.0000000E+00; -8.4516573E+00;0; -1.3078649E-02;  3.9956344E+04;  0.0000000E+00;  3.2542090E+00;  4.0000000E+04;  0.0000000E+00;  4.0028750E+04; -1.4116533E-02;  0.0000000E+00;  1.0378846E-03;  5.9126479E+03;
  1.4166886E-01;  9.9999998E-03; -2.0987338E-01;3309; -1.6769078E-03;  0.0000000E+00;  1.2339273E-04;  9.9980640E+02;  1.0000000E-01; -1.6039052E+02;3; -8.3220136E-01;  0.0000000E+00; -5.0215893E+00;0; -1.2803876E-02;  3.9973254E+04;  0.0000000E+00;  2.0527461E+00;  4.0000000E+04;  0.0000000E+00;  4.0018832E+04; -1.3769326E-02;  0.0000000E+00;  9.6544996E-04;  3.7834558E+03;
  1.4170907E-01;  9.9999998E-03; -1.9987553E-01;3310; -1.7459088E-03;  0.0000000E+00;  1.3356171E-04;  9.9978912E+02;  1.0000000E-01; -1.7471111E+02;3; -9.5065141E-01;  0.0000000E+00; -2.7769237E+00;0; -1.2566531E-02;  3.9979199E+04;  0.0000000E+00;  1.2876978E+00;  4.0000000E+04;  0.0000000E+00;  4.0010930E+04; -1.3381062E-02;  0.0000000E+00;  8.1453088E-04;  2.3163376E+03;
  1.4175135E-01;  9.9999998E-03; -1.8986598E-01;3311; -1.7960360E-03;  0.0000000E+00;  1.2104732E-04;  9.9969543E+02;  1.0000000E-01; -2.5233855E+02;3; -1.0105617E+00;  0.0000000E+00; -1.4260010E+00;0; -1.2380761E-02;  3.9976012E+04;  0.0000000E+00;  8.1137955E-01;  4.0000000E+04;  0.0000000E+00;  4.0006207E+04; -1.3000502E-02;  0.0000000E+00;  6.1974087E-04;  1.4217653E+03;
  1.4182076E-01;  9.9999998E-03; -1.7983982E-01;3312; -1.8282963E-03;  0.0000000E+00;  9.5754600E-05;  9.9956366E+02;  1.0000000E-01; -3.6152063E+02;3; -1.0512588E+00;  0.0000000E+00; -6.6269010E-01;0; -1.2248544E-02;  3.9966305E+04;  0.0000000E+00;  5.0880623E-01;  4.0000000E+04;  0.0000000E+00;  4.0004562E+04; -1.2667019E-02;  0.0000000E+00;  4.1847490E-04;  9.8517261E+02;
  1.4191204E-01;  9.9999998E-03; -1.6980247E-01;3313; -1.8453103E-03;  0.0000000E+00;  6.5249282E-05;  9.9942242E+02;  1.0000000E-01; -4.7850497E+02;3; -1.0861714E+00;  0.0000000E+00; -2.6799658E-01;0; -1.2164108E-02;  3.9953148E+04;  0.0000000E+00;  3.0498067E-01;  4.0000000E+04;  0.0000000E+00;  4.0006762E+04; -1.2407439E-02;  0.0000000E+00;  2.4333123E-04;  9.7883087E+02;
  1.4198014E-01;  9.9999998E-03; -1.5979166E-01;3314; -1.8497184E-03;  0.0000000E+00;  3.5351666E-05;  9.9929565E+02;  1.0000000E-01; -5.8353906E+02;3; -1.1146426E+00;  0.0000000E+00; -9.8429032E-02;0; -1.2117830E-02;  3.9939289E+04;  0.0000000E+00;  1.5973505E-01;  4.0000000E+04;  0.0000000E+00;  4.0010582E+04; -1.2234623E-02;  0.0000000E+00;  1.1679286E-04;  1.3526727E+03;
  1.4201085E-01;  9.9999998E-03; -1.4981768E-01;3315; -1.8451641E-03;  0.0000000E+00;  9.5315099E-06;  9.9919708E+02;  1.0000000E-01; -6.6521576E+02;3; -1.1374537E+00;  0.0000000E+00; -5.0493725E-02;0; -1.2102379E-02;  3.9926730E+04;  0.0000000E+00;  5.5974238E-02;  4.0000000E+04;  0.0000000E+00;  4.0014215E+04; -1.2149524E-02;  0.0000000E+00;  4.7145135E-05;  1.8815496E+03;
  1.4201301E-01;  9.9999998E-03; -1.3985613E-01;3316; -1.8349065E-03;  0.0000000E+00; -9.9892477E-06;  9.9912701E+02;  1.0000000E-01; -7.2323883E+02;3; -1.1596112E+00;  0.0000000E+00; -4.6902124E-02;0; -1.2112130E-02;  3.9917164E+04;  0.0000000E+00; -1.3013321E-02;  4.0000000E+04;  0.0000000E+00;  4.0019152E+04; -1.2142789E-02;  0.0000000E+00;  3.0658222E-05;  2.3720718E+03;
  1.4199819E-01;  9.9999998E-03; -1.2989207E-01;3317; -1.8213711E-03;  0.0000000E+00; -2.0374799E-05;  9.9908850E+02;  1.0000000E-01; -7.5513916E+02;3; -1.1811957E+00;  0.0000000E+00; -4.8300449E-02;0; -1.2141433E-02;  3.9910941E+04;  0.0000000E+00; -5.2778859E-02;  4.0000000E+04;  0.0000000E+00;  4.0020938E+04; -1.2196590E-02;  0.0000000E+00;  5.5157278E-05;  2.7020847E+03;
  1.4197114E-01;  9.9999998E-03; -1.1991838E-01;3318; -1.8058912E-03;  0.0000000E+00; -1.9526040E-05;  9.9907294E+02;  1.0000000E-01; -7.6807703E+02;3; -1.2021877E+00;  0.0000000E+00; -5.0372321E-02;0; -1.2183694E-02;  3.9908637E+04;  0.0000000E+00; -7.0365794E-02;  4.0000000E+04;  0.0000000E+00;  4.0020992E+04; -1.2287048E-02;  0.0000000E+00;  1.0335355E-04;  2.8128333E+03;
  1.4193517E-01;  9.9999998E-03; -1.0993259E-01;3319; -1.7892905E-03;  0.0000000E+00; -9.6633685E-06;  9.9907617E+02;  1.0000000E-01; -7.6536108E+02;3; -1.2241017E+00;  0.0000000E+00; -5.3503454E-02;0; -1.2231996E-02;  3.9909547E+04;  0.0000000E+00; -7.2822265E-02;  4.0000000E+04;  0.0000000E+00;  4.0020617E+04; -1.2388611E-02;  0.0000000E+00;  1.5661526E-04;  2.7155671E+03;
  1.5180962E-01;  9.9999998E-03; -1.0992353E-01;3380; -1.9976462E-03;  0.0000000E+00; -6.8595773E-06;  9.9915125E+02;  1.0000000E-01; -7.0319000E+02;3; -1.2067314E+00;  0.0000000E+00; -3.4498129E-02;0; -1.2810494E-02;  3.9914051E+04;  0.0000000E+00; -7.2392121E-02;  4.0000000E+04;  0.0000000E+00;  4.0019020E+04; -1.2933509E-02;  0.0000000E+00;  1.2301563E-04;  2.4975291E+03;
  1.5185054E-01;  9.9999998E-03; -1.1991470E-01;3379; -2.0065228E-03;  0.0000000E+00; -1.4598526E-05;  9.9916168E+02;  1.0000000E-01; -6.9454828E+02;3; -1.1886055E+00;  0.0000000E+00; -3.4507506E-02;0; -1.2776904E-02;  3.9914512E+04;  0.0000000E+00; -7.8930765E-02;  4.0000000E+04;  0.0000000E+00;  4.0019941E+04; -1.2834475E-02;  0.0000000E+00;  5.7571502E-05;  2.5877883E+03;
  1.5188384E-01;  9.9999998E-03; -1.2989354E-01;3378; -2.0128519E-03;  0.0000000E+00; -1.3434275E-05;  9.9919031E+02;  1.0000000E-01; -6.7079584E+02;3; -1.1691130E+00;  0.0000000E+00; -3.4259621E-02;0; -1.2750951E-02;  3.9917973E+04;  0.0000000E+00; -7.4265048E-02;  4.0000000E+04;  0.0000000E+00;  4.0019781E+04; -1.2746097E-02;  0.0000000E+00; -4.8537790E-06;  2.4717837E+03;
  1.5190725E-01;  9.9999998E-03; -1.3986319E-01;3377; -2.0170501E-03;  0.0000000E+00; -1.5795970E-06;  9.9923584E+02;  1.0000000E-01; -6.3306854E+02;3; -1.1488883E+00;  0.0000000E+00; -3.4426678E-02;0; -1.2740890E-02;  3.9924707E+04;  0.0000000E+00; -5.1401332E-02;  4.0000000E+04;  0.0000000E+00;  4.0016789E+04; -1.2694588E-02;  0.0000000E+00; -4.6301677E-05;  2.1376033E+03;
  1.5192105E-01;  9.9999998E-03; -1.4982928E-01;3376; -2.0191569E-03;  0.0000000E+00;  1.9274490E-05;  9.9930811E+02;  1.0000000E-01; -5.7321838E+02;3; -1.1277391E+00;  0.0000000E+00; -3.9208405E-02;0; -1.2755240E-02;  3.9934801E+04;  0.0000000E+00; -3.5917461E-03;  4.0000000E+04;  0.0000000E+00;  4.0013031E+04; -1.2705361E-02;  0.0000000E+00; -4.9879127E-05;  1.6409854E+03;
  1.5192553E-01;  9.9999998E-03; -1.5980300E-01;3375; -2.0182668E-03;  0.0000000E+00;  4.6805431E-05;  9.9940826E+02;  1.0000000E-01; -4.9025775E+02;3; -1.1055473E+00;  0.0000000E+00; -9.1594473E-02;0; -1.2801972E-02;  3.9947723E+04;  0.0000000E+00;  7.4626252E-02;  4.0000000E+04;  0.0000000E+00;  4.0008281E+04; -1.2798840E-02;  0.0000000E+00; -3.1319546E-06;  1.0973181E+03;
  1.5191455E-01;  9.9999998E-03; -1.6980378E-01;3374; -2.0124032E-03;  0.0000000E+00;  7.9113466E-05;  9.9953564E+02;  1.0000000E-01; -3.8472986E+02;3; -1.0838710E+00;  0.0000000E+00; -2.7053368E-01;0; -1.2888369E-02;  3.9961625E+04;  0.0000000E+00;  1.9316646E-01;  4.0000000E+04;  0.0000000E+00;  4.0005336E+04; -1.2987226E-02;  0.0000000E+00;  9.8856668E-05;  6.9483008E+02;
  1.5186934E-01;  9.9999998E-03; -1.7983055E-01;3373; -1.9985861E-03;  0.0000000E+00;  1.1284620E-04;  9.9967084E+02;  1.0000000E-01; -2.7268365E+02;3; -1.0697551E+00;  0.0000000E+00; -6.7977154E-01;0; -1.3020915E-02;  3.9974891E+04;  0.0000000E+00;  3.7890574E-01;  4.0000000E+04;  0.0000000E+00;  4.0003961E+04; -1.3271645E-02;  0.0000000E+00;  2.5072938E-04;  6.9751758E+02;
  1.5178922E-01;  9.9999998E-03; -1.8986487E-01;3372; -1.9741231E-03;  0.0000000E+00;  1.4282769E-04;  9.9979901E+02;  1.0000000E-01; -1.6651381E+02;3; -1.0730703E+00;  0.0000000E+00; -1.4668425E+00;0; -1.3206825E-02;  3.9984137E+04;  0.0000000E+00;  6.8929988E-01;  4.0000000E+04;  0.0000000E+00;  4.0004688E+04; -1.3641489E-02;  0.0000000E+00;  4.3466434E-04;  1.1702039E+03;
  1.5170631E-01;  9.9999998E-03; -1.9989052E-01;3371; -1.9375099E-03;  0.0000000E+00;  1.6267032E-04;  9.9988885E+02;  1.0000000E-01; -9.2096161E+01;3; -1.0835761E+00;  0.0000000E+00; -2.8546250E+00;0; -1.3454105E-02;  3.9986711E+04;  0.0000000E+00;  1.2220851E+00;  4.0000000E+04;  0.0000000E+00;  4.0009738E+04; -1.4075408E-02;  0.0000000E+00;  6.2130328E-04;  2.1612048E+03;
  1.5162742E-01;  9.9999998E-03; -2.0989330E-01;3370; -1.8885059E-03;  0.0000000E+00;  1.6491732E-04;  9.9990454E+02;  1.0000000E-01; -7.9108871E+01;3; -1.0457147E+00;  0.0000000E+00; -5.1748910E+00;0; -1.3763499E-02;  3.9979953E+04;  0.0000000E+00;  2.1183205E+00;  4.0000000E+04;  0.0000000E+00;  4.0018426E+04; -1.4539275E-02;  0.0000000E+00;  7.7577622E-04;  3.8325352E+03;
  1.5089458E-01;  9.9999998E-03; -2.6954266E-01;3364; -1.3084671E-03;  0.0000000E+00;  4.3676886E-05;  9.9746234E+02;  1.0000000E-01; -2.1024097E+03;3;  1.6615625E+01;  0.0000000E+00; -3.2182087E+01;0; -1.5400977E-02;  3.9737602E+04;  0.0000000E+00;  2.4529516E+01;  4.0000000E+04;  0.0000000E+00;  4.0063879E+04; -1.5324517E-02;  0.0000000E+00; -7.6459663E-05;  3.6763070E+04;
  1.5108396E-01;  9.9999998E-03; -2.5966135E-01;3365; -1.4688855E-03;  0.0000000E+00; -5.2977089E-07;  9.9806097E+02;  1.0000000E-01; -1.6064237E+03;3;  9.3821602E+00;  0.0000000E+00; -3.0663614E+01;0; -1.5397390E-02;  3.9785828E+04;  0.0000000E+00;  1.8264429E+01;  4.0000000E+04;  0.0000000E+00;  4.0063629E+04; -1.5694698E-02;  0.0000000E+00;  2.9730762E-04;  2.7927619E+04;
  1.5124547E-01;  9.9999998E-03; -2.4975914E-01;3366; -1.5853225E-03;  0.0000000E+00;  3.0711226E-06;  9.9865424E+02;  1.0000000E-01; -1.1149314E+03;3;  4.4352946E+00;  0.0000000E+00; -2.5877699E+01;0; -1.5199828E-02;  3.9838902E+04;  0.0000000E+00;  1.2967858E+01;  4.0000000E+04;  0.0000000E+00;  4.0059445E+04; -1.5785694E-02;  0.0000000E+00;  5.8586575E-04;  2.0392768E+04;
  1.5137747E-01;  9.9999998E-03; -2.3982623E-01;3367; -1.6784903E-03;  0.0000000E+00;  4.6566860E-05;  9.9917407E+02;  1.0000000E-01; -6.8427692E+02;3;  1.4613583E+00;  0.0000000E+00; -1.9739445E+01;0; -1.4889209E-02;  3.9888695E+04;  0.0000000E+00;  8.8075151E+00;  4.0000000E+04;  0.0000000E+00;  4.0050664E+04; -1.5665043E-02;  0.0000000E+00;  7.7583489E-04;  1.4385323E+04;
  1.5147810E-01;  9.9999998E-03; -2.2986537E-01;3368; -1.7583549E-03;  0.0000000E+00;  1.0057726E-04;  9.9956213E+02;  1.0000000E-01; -3.6275516E+02;3; -1.0903387E-01;  0.0000000E+00; -1.3716634E+01;0; -1.4514821E-02;  3.9930605E+04;  0.0000000E+00;  5.7206469E+00;  4.0000000E+04;  0.0000000E+00;  4.0040590E+04; -1.5383753E-02;  0.0000000E+00;  8.6893188E-04;  9.7706074E+03;
  1.5155515E-01;  9.9999998E-03; -2.1988502E-01;3369; -1.8280725E-03;  0.0000000E+00;  1.4340774E-04;  9.9980536E+02;  1.0000000E-01; -1.6127939E+02;3; -8.1003517E-01;  0.0000000E+00; -8.7530746E+00;0; -1.4125609E-02;  3.9961492E+04;  0.0000000E+00;  3.5536213E+00;  4.0000000E+04;  0.0000000E+00;  4.0029227E+04; -1.4991472E-02;  0.0000000E+00;  8.6586404E-04;  6.3197949E+03;
  1.6093245E-01;  9.9999998E-03; -2.6959810E-01;3425; -1.7270856E-03;  0.0000000E+00; -4.7343456E-05;  9.9745367E+02;  1.0000000E-01; -2.1095701E+03;3;  2.2495703E+01;  0.0000000E+00; -3.7243237E+01;0; -1.7272143E-02;  3.9723477E+04;  0.0000000E+00;  2.9395678E+01;  4.0000000E+04;  0.0000000E+00;  4.0076672E+04; -1.7394850E-02;  0.0000000E+00;  1.2270655E-04;  4.4264574E+04;
  1.6113378E-01;  9.9999998E-03; -2.5970614E-01;3426; -1.8928135E-03;  0.0000000E+00; -1.3058359E-05;  9.9806293E+02;  1.0000000E-01; -1.6048435E+03;3;  1.2035969E+01;  0.0000000E+00; -3.3252235E+01;0; -1.7072972E-02;  3.9777832E+04;  0.0000000E+00;  2.1072451E+01;  4.0000000E+04;  0.0000000E+00;  4.0071812E+04; -1.7432712E-02;  0.0000000E+00;  3.5974092E-04;  3.2320158E+04;
  1.6128927E-01;  9.9999998E-03; -2.4980359E-01;3427; -1.9789066E-03;  0.0000000E+00;  3.0652634E-05;  9.9869055E+02;  1.0000000E-01; -1.0848582E+03;3;  5.2807379E+00;  0.0000000E+00; -2.6806177E+01;0; -1.6651826E-02;  3.9837867E+04;  0.0000000E+00;  1.4533740E+01;  4.0000000E+04;  0.0000000E+00;  4.0062738E+04; -1.7200788E-02;  0.0000000E+00;  5.4896186E-04;  2.2800475E+04;
  1.6137457E-01;  9.9999998E-03; -2.3987530E-01;3428; -2.0261293E-03;  0.0000000E+00;  8.6263033E-05;  9.9926379E+02;  1.0000000E-01; -6.0990869E+02;3;  1.4462411E+00;  0.0000000E+00; -1.9944822E+01;0; -1.6146313E-02;  3.9895207E+04;  0.0000000E+00;  9.6957655E+00;  4.0000000E+04;  0.0000000E+00;  4.0051004E+04; -1.6812764E-02;  0.0000000E+00;  6.6645053E-04;  1.5635074E+04;
  1.6142890E-01;  9.9999998E-03; -2.2991908E-01;3429; -2.0595654E-03;  0.0000000E+00;  1.3834429E-04;  9.9969360E+02;  1.0000000E-01; -2.5381998E+02;3; -4.4107741E-01;  0.0000000E+00; -1.3692410E+01;0; -1.5621996E-02;  3.9941812E+04;  0.0000000E+00;  6.2028885E+00;  4.0000000E+04;  0.0000000E+00;  4.0039551E+04; -1.6331550E-02;  0.0000000E+00;  7.0955284E-04;  1.0313851E+04;
  1.6147617E-01;  9.9999998E-03; -2.1993823E-01;3430; -2.0890816E-03;  0.0000000E+00;  1.7296114E-04;  9.9995911E+02;  1.0000000E-01; -3.3875584E+01;3; -1.1833032E+00;  0.0000000E+00; -8.7076149E+00;0; -1.5120034E-02;  3.9975242E+04;  0.0000000E+00;  3.7632995E+00;  4.0000000E+04;  0.0000000E+00;  4.0027633E+04; -1.5797148E-02;  0.0000000E+00;  6.7711313E-04;  6.4211074E+03;
  1.6155107E-01;  9.9999998E-03; -2.0993924E-01;3431; -2.1181025E-03;  0.0000000E+00;  1.8570064E-04;  1.0000782E+03;  1.0000000E-01;  6.4788292E+01;3; -1.3470893E+00;  0.0000000E+00; -5.1638060E+00;0; -1.4672828E-02;  3.9995207E+04;  0.0000000E+00;  2.1399312E+00;  4.0000000E+04;  0.0000000E+00;  4.0016094E+04; -1.5248090E-02;  0.0000000E+00;  5.7526201E-04;  3.6667913E+03;
  1.6166823E-01;  9.9999998E-03; -1.9992098E-01;3432; -2.1450405E-03;  0.0000000E+00;  1.7574095E-04;  1.0000811E+03;  1.0000000E-01;  6.7158592E+01;3; -1.2896719E+00;  0.0000000E+00; -2.8696318E+00;0; -1.4297397E-02;  4.0003406E+04;  0.0000000E+00;  1.1256224E+00;  4.0000000E+04;  0.0000000E+00;  4.0007227E+04; -1.4721042E-02;  0.0000000E+00;  4.2364519E-04;  1.8549998E+03;
  1.6178249E-01;  9.9999998E-03; -1.8989451E-01;3433; -2.1673068E-03;  0.0000000E+00;  1.5018048E-04;  1.0000056E+03;  1.0000000E-01;  4.6418438E+00;3; -1.1986469E+00;  0.0000000E+00; -1.4820234E+00;0; -1.3995552E-02;  4.0001938E+04;  0.0000000E+00;  5.3549373E-01;  4.0000000E+04;  0.0000000E+00;  4.0002344E+04; -1.4247615E-02;  0.0000000E+00;  2.5206275E-04;  8.1208582E+02;
  1.6183248E-01;  9.9999998E-03; -1.7986409E-01;3434; -2.1834793E-03;  0.0000000E+00;  1.1675050E-04;  9.9989087E+02;  1.0000000E-01; -9.0417198E+01;3; -1.1449239E+00;  0.0000000E+00; -6.8931299E-01;0; -1.3759698E-02;  3.9993594E+04;  0.0000000E+00;  2.1552506E-01;  4.0000000E+04;  0.0000000E+00;  4.0000406E+04; -1.3851817E-02;  0.0000000E+00;  9.2118993E-05;  3.1785739E+02;
  1.6185048E-01;  9.9999998E-03; -1.6983628E-01;3435; -2.1953133E-03;  0.0000000E+00;  8.1233855E-05;  9.9976434E+02;  1.0000000E-01; -1.9525374E+02;3; -1.1343038E+00;  0.0000000E+00; -2.7031642E-01;0; -1.3584979E-02;  3.9980969E+04;  0.0000000E+00;  5.1016901E-02;  4.0000000E+04;  0.0000000E+00;  4.0001812E+04; -1.3552791E-02;  0.0000000E+00; -3.2188480E-05;  2.7842294E+02;
  1.6184656E-01;  9.9999998E-03; -1.5983117E-01;3436; -2.2045663E-03;  0.0000000E+00;  4.8088648E-05;  9.9964032E+02;  1.0000000E-01; -2.9796689E+02;3; -1.1480182E+00;  0.0000000E+00; -8.4074162E-02;0; -1.3463327E-02;  3.9967035E+04;  0.0000000E+00; -3.2481413E-02;  4.0000000E+04;  0.0000000E+00;  4.0005891E+04; -1.3356898E-02;  0.0000000E+00; -1.0642871E-04;  7.1525513E+02;
  1.6183594E-01;  9.9999998E-03; -1.4985305E-01;3437; -2.2127838E-03;  0.0000000E+00;  2.0093767E-05;  9.9953900E+02;  1.0000000E-01; -3.8191513E+02;3; -1.1694174E+00;  0.0000000E+00; -2.9282045E-02;0; -1.3386706E-02;  3.9954043E+04;  0.0000000E+00; -7.4450679E-02;  4.0000000E+04;  0.0000000E+00;  4.0009953E+04; -1.3259104E-02;  0.0000000E+00; -1.2760240E-04;  1.2551171E+03;
  1.6182335E-01;  9.9999998E-03; -1.3988426E-01;3438; -2.2204139E-03;  0.0000000E+00; -9.7575992E-07;  9.9945850E+02;  1.0000000E-01; -4.4862927E+02;3; -1.1910928E+00;  0.0000000E+00; -2.4907064E-02;0; -1.3346713E-02;  3.9943258E+04;  0.0000000E+00; -9.1339462E-02;  4.0000000E+04;  0.0000000E+00;  4.0013445E+04; -1.3244553E-02;  0.0000000E+00; -1.0216051E-04;  1.7398638E+03;
  1.6180626E-01;  9.9999998E-03; -1.2991427E-01;3439; -2.2267874E-03;  0.0000000E+00; -1.3215083E-05;  9.9939966E+02;  1.0000000E-01; -4.9736865E+02;3; -1.2117499E+00;  0.0000000E+00; -2.5786798E-02;0; -1.3334436E-02;  3.9935270E+04;  0.0000000E+00; -9.0640895E-02;  4.0000000E+04;  0.0000000E+00;  4.0016898E+04; -1.3291383E-02;  0.0000000E+00; -4.3053606E-05;  2.0660967E+03;
  1.6177930E-01;  9.9999998E-03; -1.1993640E-01;3440; -2.2303737E-03;  0.0000000E+00; -1.4982295E-05;  9.9935425E+02;  1.0000000E-01; -5.3499719E+02;3; -1.2312956E+00;  0.0000000E+00; -2.6715117E-02;0; -1.3340257E-02;  3.9930590E+04;  0.0000000E+00; -7.9276703E-02;  4.0000000E+04;  0.0000000E+00;  4.0017871E+04; -1.3373563E-02;  0.0000000E+00;  3.3306340E-05;  2.1831753E+03;
  1.6174248E-01;  9.9999998E-03; -1.0994750E-01;3441; -2.2295921E-03;  0.0000000E+00; -7.9963283E-06;  9.9932672E+02;  1.0000000E-01; -5.5781140E+02;3; -1.2494388E+00;  0.0000000E+00; -2.7354827E-02;0; -1.3355167E-02;  3.9928336E+04;  0.0000000E+00; -6.3623108E-02;  4.0000000E+04;  0.0000000E+00;  4.0016812E+04; -1.3465096E-02;  0.0000000E+00;  1.0992941E-04;  2.1034143E+03;
  1.7106426E-01;  9.9999998E-03; -2.6979020E-01;3486; -2.0830377E-03;  0.0000000E+00; -2.2506037E-04;  9.9711945E+02;  1.0000000E-01; -2.3865005E+03;3;  2.6475698E+01;  0.0000000E+00; -3.1058825E+01;0; -1.8891385E-02;  3.9702969E+04;  0.0000000E+00;  3.1591236E+01;  4.0000000E+04;  0.0000000E+00;  4.0069168E+04; -1.9420696E-02;  0.0000000E+00;  5.2931102E-04;  4.7650059E+04;
  1.7122860E-01;  9.9999998E-03; -2.5986248E-01;3487; -2.2967453E-03;  0.0000000E+00; -8.8635948E-05;  9.9788684E+02;  1.0000000E-01; -1.7507159E+03;3;  1.3517618E+01;  0.0000000E+00; -2.9244892E+01;0; -1.8619856E-02;  3.9770305E+04;  0.0000000E+00;  2.2188965E+01;  4.0000000E+04;  0.0000000E+00;  4.0064609E+04; -1.9116953E-02;  0.0000000E+00;  4.9709732E-04;  3.3966746E+04;
  1.7133129E-01;  9.9999998E-03; -2.4994054E-01;3488; -2.3646238E-03;  0.0000000E+00;  2.4007577E-06;  9.9863556E+02;  1.0000000E-01; -1.1304371E+03;3;  5.4334168E+00;  0.0000000E+00; -2.3954216E+01;0; -1.7979901E-02;  3.9840727E+04;  0.0000000E+00;  1.5144516E+01;  4.0000000E+04;  0.0000000E+00;  4.0054004E+04; -1.8515415E-02;  0.0000000E+00;  5.3551421E-04;  2.3507080E+04;
  1.7135660E-01;  9.9999998E-03; -2.3999201E-01;3489; -2.3715536E-03;  0.0000000E+00;  7.0958107E-05;  9.9930426E+02;  1.0000000E-01; -5.7642816E+02;3;  1.0683725E+00;  0.0000000E+00; -1.8148195E+01;0; -1.7266277E-02;  3.9905285E+04;  0.0000000E+00;  1.0105382E+01;  4.0000000E+04;  0.0000000E+00;  4.0043906E+04; -1.7832855E-02;  0.0000000E+00;  5.6657707E-04;  1.5915014E+04;
  1.7135520E-01;  9.9999998E-03; -2.3001668E-01;3490; -2.3599265E-03;  0.0000000E+00;  1.2673711E-04;  9.9979205E+02;  1.0000000E-01; -1.7229143E+02;3; -9.4760174E-01;  0.0000000E+00; -1.2678192E+01;0; -1.6587408E-02;  3.9956129E+04;  0.0000000E+00;  6.4678965E+00;  4.0000000E+04;  0.0000000E+00;  4.0031984E+04; -1.7141905E-02;  0.0000000E+00;  5.5449590E-04;  1.0331561E+04;
  1.7137788E-01;  9.9999998E-03; -2.2001989E-01;3491; -2.3483010E-03;  0.0000000E+00;  1.6372273E-04;  1.0000941E+03;  1.0000000E-01;  7.7923721E+01;3; -1.6386695E+00;  0.0000000E+00; -8.1882124E+00;0; -1.5976537E-02;  3.9990969E+04;  0.0000000E+00;  3.8771858E+00;  4.0000000E+04;  0.0000000E+00;  4.0021121E+04; -1.6468646E-02;  0.0000000E+00;  4.9210904E-04;  6.2348901E+03;
  1.7145823E-01;  9.9999998E-03; -2.1000203E-01;3492; -2.3442523E-03;  0.0000000E+00;  1.7418528E-04;  1.0002349E+03;  1.0000000E-01;  1.9466116E+02;3; -1.6873696E+00;  0.0000000E+00; -4.9315619E+00;0; -1.5448974E-02;  4.0011902E+04;  0.0000000E+00;  2.1165676E+00;  4.0000000E+04;  0.0000000E+00;  4.0010883E+04; -1.5831847E-02;  0.0000000E+00;  3.8287212E-04;  3.3508118E+03;
  1.7159362E-01;  9.9999998E-03; -1.9996561E-01;3493; -2.3473585E-03;  0.0000000E+00;  1.6170040E-04;  1.0002612E+03;  1.0000000E-01;  2.1638895E+02;3; -1.5144552E+00;  0.0000000E+00; -2.7825861E+00;0; -1.5011674E-02;  4.0020664E+04;  0.0000000E+00;  1.0015168E+00;  4.0000000E+04;  0.0000000E+00;  4.0002668E+04; -1.5251820E-02;  0.0000000E+00;  2.4014607E-04;  1.4933573E+03;
  1.7171714E-01;  9.9999998E-03; -1.8993545E-01;3494; -2.3543802E-03;  0.0000000E+00;  1.3497262E-04;  1.0002057E+03;  1.0000000E-01;  1.7036555E+02;3; -1.3353821E+00;  0.0000000E+00; -1.4547914E+00;0; -1.4659855E-02;  4.0020629E+04;  0.0000000E+00;  3.5773012E-01;  4.0000000E+04;  0.0000000E+00;  3.9998945E+04; -1.4749093E-02;  0.0000000E+00;  8.9237976E-05;  5.6198627E+02;
  1.7179129E-01;  9.9999998E-03; -1.7991340E-01;3495; -2.3635786E-03;  0.0000000E+00;  1.0167305E-04;  1.0001108E+03;  1.0000000E-01;  9.1750488E+01;3; -1.2272457E+00;  0.0000000E+00; -6.8231958E-01;0; -1.4383658E-02;  4.0013113E+04;  0.0000000E+00;  2.9472407E-02;  4.0000000E+04;  0.0000000E+00;  3.9997242E+04; -1.4340346E-02;  0.0000000E+00; -4.3312488E-05;  3.8283508E+02;
  1.7181361E-01;  9.9999998E-03; -1.6989355E-01;3496; -2.3748616E-03;  0.0000000E+00;  6.7508088E-05;  9.9999420E+02;  1.0000000E-01; -4.7899880E+00;3; -1.1895083E+00;  0.0000000E+00; -2.6613393E-01;0; -1.4172660E-02;  4.0001410E+04;  0.0000000E+00; -1.0968107E-01;  4.0000000E+04;  0.0000000E+00;  3.9998523E+04; -1.4035415E-02;  0.0000000E+00; -1.3724575E-04;  2.3592529E+02;
  1.7181318E-01;  9.9999998E-03; -1.5989874E-01;3497; -2.3888878E-03;  0.0000000E+00;  3.6185698E-05;  9.9987897E+02;  1.0000000E-01; -1.0029346E+02;3; -1.1936153E+00;  0.0000000E+00; -7.8784108E-02;0; -1.4018307E-02;  3.9987871E+04;  0.0000000E+00; -1.5092568E-01;  4.0000000E+04;  0.0000000E+00;  4.0002930E+04; -1.3836507E-02;  0.0000000E+00; -1.8180099E-04;  3.3030237E+02;
  1.7180893E-01;  9.9999998E-03; -1.4992365E-01;3498; -2.4056926E-03;  0.0000000E+00;  1.0067583E-05;  9.9977728E+02;  1.0000000E-01; -1.8453799E+02;3; -1.2132004E+00;  0.0000000E+00; -2.2278957E-02;0; -1.3911394E-02;  3.9974883E+04;  0.0000000E+00; -1.4881529E-01;  4.0000000E+04;  0.0000000E+00;  4.0005652E+04; -1.3734916E-02;  0.0000000E+00; -1.7647812E-04;  7.9232990E+02;
  1.7180067E-01;  9.9999998E-03; -1.3995506E-01;3499; -2.4239973E-03;  0.0000000E+00; -9.4791403E-06;  9.9968640E+02;  1.0000000E-01; -2.5979514E+02;3; -1.2350262E+00;  0.0000000E+00; -1.7511332E-02;0; -1.3842827E-02;  3.9963594E+04;  0.0000000E+00; -1.2887281E-01;  4.0000000E+04;  0.0000000E+00;  4.0009609E+04; -1.3713680E-02;  0.0000000E+00; -1.2914630E-04;  1.2351202E+03;
  1.7178322E-01;  9.9999998E-03; -1.2998290E-01;3500; -2.4414642E-03;  0.0000000E+00; -2.0686488E-05;  9.9961456E+02;  1.0000000E-01; -3.1934900E+02;3; -1.2557846E+00;  0.0000000E+00; -1.8816808E-02;0; -1.3803486E-02;  3.9955086E+04;  0.0000000E+00; -1.0197157E-01;  4.0000000E+04;  0.0000000E+00;  4.0012645E+04; -1.3750316E-02;  0.0000000E+00; -5.3170097E-05;  1.5363079E+03;
  1.7175096E-01;  9.9999998E-03; -1.2000268E-01;3501; -2.4551195E-03;  0.0000000E+00; -2.1985514E-05;  9.9955426E+02;  1.0000000E-01; -3.6927350E+02;3; -1.2753522E+00;  0.0000000E+00; -2.0103205E-02;0; -1.3783891E-02;  3.9948848E+04;  0.0000000E+00; -7.4927956E-02;  4.0000000E+04;  0.0000000E+00;  4.0012656E+04; -1.3819491E-02;  0.0000000E+00;  3.5600307E-05;  1.6464069E+03;
  1.7170268E-01;  9.9999998E-03; -1.1001320E-01;3502; -2.4622504E-03;  0.0000000E+00; -1.4911624E-05;  9.9950970E+02;  1.0000000E-01; -4.0621072E+02;3; -1.2934910E+00;  0.0000000E+00; -2.1214584E-02;0; -1.3775084E-02;  3.9945113E+04;  0.0000000E+00; -5.2431908E-02;  4.0000000E+04;  0.0000000E+00;  4.0012285E+04; -1.3896483E-02;  0.0000000E+00;  1.2139918E-04;  1.5757170E+03;
  1.8120860E-01;  9.9999998E-03; -2.7001771E-01;3547; -2.3055465E-03;  0.0000000E+00; -2.0037683E-04;  9.9650488E+02;  1.0000000E-01; -2.8956218E+03;3;  2.5685078E+01;  0.0000000E+00; -1.3062993E+01;0; -2.0472778E-02;  3.9682512E+04;  0.0000000E+00;  3.0187191E+01;  4.0000000E+04;  0.0000000E+00;  4.0040035E+04; -2.1104725E-02;  0.0000000E+00;  6.3194626E-04;  4.5655078E+04;
  1.8124944E-01;  9.9999998E-03; -2.6006356E-01;3548; -2.5988994E-03;  0.0000000E+00; -6.4893415E-05;  9.9759277E+02;  1.0000000E-01; -1.9943634E+03;3;  1.2390567E+01;  0.0000000E+00; -1.7908382E+01;0; -2.0060902E-02;  3.9771840E+04;  0.0000000E+00;  2.1693378E+01;  4.0000000E+04;  0.0000000E+00;  4.0039172E+04; -2.0540798E-02;  0.0000000E+00;  4.7989545E-04;  3.2977242E+04;
  1.8127772E-01;  9.9999998E-03; -2.5011867E-01;3549; -2.6802199E-03;  0.0000000E+00;  9.3626040E-06;  9.9849463E+02;  1.0000000E-01; -1.2471746E+03;3;  4.2527313E+00;  0.0000000E+00; -1.6907827E+01;0; -1.9146726E-02;  3.9851133E+04;  0.0000000E+00;  1.5033091E+01;  4.0000000E+04;  0.0000000E+00;  4.0032344E+04; -1.9610716E-02;  0.0000000E+00;  4.6399076E-04;  2.2883512E+04;
  1.8126801E-01;  9.9999998E-03; -2.4014696E-01;3550; -2.6686110E-03;  0.0000000E+00;  5.4088108E-05;  9.9924048E+02;  1.0000000E-01; -6.2926617E+02;3;  8.1688568E-02;  0.0000000E+00; -1.4070395E+01;0; -1.8195935E-02;  3.9917719E+04;  0.0000000E+00;  1.0179935E+01;  4.0000000E+04;  0.0000000E+00;  4.0025898E+04; -1.8656887E-02;  0.0000000E+00;  4.6095205E-04;  1.5494216E+04;
  1.8124411E-01;  9.9999998E-03; -2.3014411E-01;3551; -2.6251036E-03;  0.0000000E+00;  9.4352057E-05;  9.9978625E+02;  1.0000000E-01; -1.7708141E+02;3; -1.6903900E+00;  0.0000000E+00; -1.0548161E+01;0; -1.7357288E-02;  3.9968125E+04;  0.0000000E+00;  6.5870519E+00;  4.0000000E+04;  0.0000000E+00;  4.0019621E+04; -1.7772585E-02;  0.0000000E+00;  4.1529757E-04;  1.0017369E+04;
  1.8126075E-01;  9.9999998E-03; -2.2012025E-01;3552; -2.5794946E-03;  0.0000000E+00;  1.2353036E-04;  1.0001177E+03;  1.0000000E-01;  9.7577484E+01;3; -2.1638429E+00;  0.0000000E+00; -7.1478767E+00;0; -1.6642231E-02;  4.0001918E+04;  0.0000000E+00;  3.9310598E+00;  4.0000000E+04;  0.0000000E+00;  4.0011457E+04; -1.6974155E-02;  0.0000000E+00;  3.3192313E-04;  5.9359829E+03;
  1.8135624E-01;  9.9999998E-03; -2.1007156E-01;3553; -2.5457435E-03;  0.0000000E+00;  1.3123360E-04;  1.0002833E+03;  1.0000000E-01;  2.3466003E+02;3; -2.0358899E+00;  0.0000000E+00; -4.4650350E+00;0; -1.6042754E-02;  4.0021625E+04;  0.0000000E+00;  2.0679462E+00;  4.0000000E+04;  0.0000000E+00;  4.0003980E+04; -1.6262168E-02;  0.0000000E+00;  2.1941472E-04;  3.0561436E+03;
  1.8149126E-01;  9.9999998E-03; -2.0001814E-01;3554; -2.5259685E-03;  0.0000000E+00;  1.1980784E-04;  1.0003282E+03;  1.0000000E-01;  2.7199231E+02;3; -1.7322063E+00;  0.0000000E+00; -2.5772820E+00;0; -1.5551197E-02;  4.0030605E+04;  0.0000000E+00;  8.6729389E-01;  4.0000000E+04;  0.0000000E+00;  3.9998141E+04; -1.5640685E-02;  0.0000000E+00;  8.9488298E-05;  1.2927783E+03;
  1.8160835E-01;  9.9999998E-03; -1.8997964E-01;3555; -2.5184364E-03;  0.0000000E+00;  9.6059186E-05;  1.0003002E+03;  1.0000000E-01;  2.4868433E+02;3; -1.4652308E+00;  0.0000000E+00; -1.3673911E+00;0; -1.5155802E-02;  4.0030984E+04;  0.0000000E+00;  1.7632653E-01;  4.0000000E+04;  0.0000000E+00;  3.9994227E+04; -1.5118216E-02;  0.0000000E+00; -3.7586742E-05;  7.8741949E+02;
  1.8169743E-01;  9.9999998E-03; -1.7995602E-01;3556; -2.5212122E-03;  0.0000000E+00;  6.7084460E-05;  1.0002216E+03;  1.0000000E-01;  1.8359975E+02;3; -1.3053876E+00;  0.0000000E+00; -6.4377832E-01;0; -1.4843384E-02;  4.0024504E+04;  0.0000000E+00; -1.5641777E-01;  4.0000000E+04;  0.0000000E+00;  3.9993535E+04; -1.4702724E-02;  0.0000000E+00; -1.4065918E-04;  8.7353973E+02;
  1.8174176E-01;  9.9999998E-03; -1.6995163E-01;3557; -2.5327776E-03;  0.0000000E+00;  3.7730490E-05;  1.0001185E+03;  1.0000000E-01;  9.8170067E+01;3; -1.2426003E+00;  0.0000000E+00; -2.4909136E-01;0; -1.4600074E-02;  4.0014035E+04;  0.0000000E+00; -2.6641130E-01;  4.0000000E+04;  0.0000000E+00;  3.9995371E+04; -1.4396647E-02;  0.0000000E+00; -2.0342712E-04;  7.4018274E+02;
  1.8175651E-01;  9.9999998E-03; -1.5996587E-01;3558; -2.5521626E-03;  0.0000000E+00;  1.1230126E-05;  1.0000142E+03;  1.0000000E-01;  1.1752754E+01;3; -1.2374384E+00;  0.0000000E+00; -6.9877602E-02;0; -1.4414200E-02;  4.0001309E+04;  0.0000000E+00; -2.6167500E-01;  4.0000000E+04;  0.0000000E+00;  3.9998098E+04; -1.4195643E-02;  0.0000000E+00; -2.1855663E-04;  4.3785263E+02;
  1.8175584E-01;  9.9999998E-03; -1.4999267E-01;3559; -2.5776876E-03;  0.0000000E+00; -1.0792394E-05;  9.9991302E+02;  1.0000000E-01; -7.2047348E+01;3; -1.2550817E+00;  0.0000000E+00; -1.5442569E-02;0; -1.4275578E-02;  3.9988902E+04;  0.0000000E+00; -2.1293394E-01;  4.0000000E+04;  0.0000000E+00;  4.0001227E+04; -1.4087767E-02;  0.0000000E+00; -1.8781063E-04;  3.8194223E+02;
  1.8174009E-01;  9.9999998E-03; -1.4002141E-01;3560; -2.6064145E-03;  0.0000000E+00; -2.7133668E-05;  9.9982166E+02;  1.0000000E-01; -1.4774890E+02;3; -1.2768714E+00;  0.0000000E+00; -1.1013826E-02;0; -1.4175218E-02;  3.9977789E+04;  0.0000000E+00; -1.5598746E-01;  4.0000000E+04;  0.0000000E+00;  4.0004906E+04; -1.4054790E-02;  0.0000000E+00; -1.2042780E-04;  6.8045203E+02;
  1.8170993E-01;  9.9999998E-03; -1.3004462E-01;3561; -2.6345032E-03;  0.0000000E+00; -3.5933910E-05;  9.9974396E+02;  1.0000000E-01; -2.1214215E+02;3; -1.2976611E+00;  0.0000000E+00; -1.2812955E-02;0; -1.4104729E-02;  3.9968914E+04;  0.0000000E+00; -1.0511491E-01;  4.0000000E+04;  0.0000000E+00;  4.0007324E+04; -1.4074652E-02;  0.0000000E+00; -3.0075786E-05;  9.2740601E+02;
  1.8166918E-01;  9.9999998E-03; -1.2005933E-01;3562; -2.6578035E-03;  0.0000000E+00; -3.5416091E-05;  9.9967822E+02;  1.0000000E-01; -2.6660974E+02;3; -1.3171773E+00;  0.0000000E+00; -1.4353590E-02;0; -1.4055709E-02;  3.9962309E+04;  0.0000000E+00; -6.6041648E-02;  4.0000000E+04;  0.0000000E+00;  4.0007711E+04; -1.4123869E-02;  0.0000000E+00;  6.8159454E-05;  1.0175290E+03;
  1.8162122E-01;  9.9999998E-03; -1.1006668E-01;3563; -2.6726325E-03;  0.0000000E+00; -2.7398357E-05;  9.9961975E+02;  1.0000000E-01; -3.1505283E+02;3; -1.3353536E+00;  0.0000000E+00; -1.5792223E-02;0; -1.4019849E-02;  3.9957570E+04;  0.0000000E+00; -4.0571690E-02;  4.0000000E+04;  0.0000000E+00;  4.0007090E+04; -1.4179922E-02;  0.0000000E+00;  1.6007255E-04;  9.5160779E+02;
  1.9124994E-01;  9.9999998E-03; -2.7014795E-01;3608; -2.4072237E-03;  0.0000000E+00; -2.6232316E-05;  9.9610437E+02;  1.0000000E-01; -3.2274644E+03;3;  2.1315125E+01;  0.0000000E+00;  4.4977860E+00;0; -2.2065204E-02;  3.9681141E+04;  0.0000000E+00;  2.7591379E+01;  4.0000000E+04;  0.0000000E+00;  4.0008809E+04; -2.2267729E-02;  0.0000000E+00;  2.0252618E-04;  4.2051957E+04;
  1.9117765E-01;  9.9999998E-03; -2.6019159E-01;3609; -2.7748675E-03;  0.0000000E+00;  6.6670626E-05;  9.9740643E+02;  1.0000000E-01; -2.1487292E+03;3;  9.2547035E+00;  0.0000000E+00; -5.5528479E+00;0; -2.1427281E-02;  3.9786602E+04;  0.0000000E+00;  2.0944180E+01;  4.0000000E+04;  0.0000000E+00;  4.0008996E+04; -2.1558981E-02;  0.0000000E+00;  1.3170096E-04;  3.1781709E+04;
  1.9115286E-01;  9.9999998E-03; -2.5024468E-01;3610; -2.8954812E-03;  0.0000000E+00;  9.5739175E-05;  9.9834546E+02;  1.0000000E-01; -1.3707760E+03;3;  1.9897058E+00;  0.0000000E+00; -8.5961304E+00;0; -2.0201573E-02;  3.9866332E+04;  0.0000000E+00;  1.4882040E+01;  4.0000000E+04;  0.0000000E+00;  4.0005074E+04; -2.0412156E-02;  0.0000000E+00;  2.1058398E-04;  2.2418453E+04;
  1.9112645E-01;  9.9999998E-03; -2.4027418E-01;3611; -2.8892171E-03;  0.0000000E+00;  8.1034123E-05;  9.9908246E+02;  1.0000000E-01; -7.6017603E+02;3; -1.4374585E+00;  0.0000000E+00; -8.8790741E+00;0; -1.8960092E-02;  3.9928473E+04;  0.0000000E+00;  1.0241577E+01;  4.0000000E+04;  0.0000000E+00;  4.0002785E+04; -1.9256782E-02;  0.0000000E+00;  2.9668969E-04;  1.5287573E+04;
  1.9110613E-01;  9.9999998E-03; -2.3026092E-01;3612; -2.8332470E-03;  0.0000000E+00;  6.8072863E-05;  9.9964233E+02;  1.0000000E-01; -2.9633731E+02;3; -2.6244562E+00;  0.0000000E+00; -7.7222600E+00;0; -1.7930496E-02;  3.9973902E+04;  0.0000000E+00;  6.6923499E+00;  4.0000000E+04;  0.0000000E+00;  4.0001551E+04; -1.8222570E-02;  0.0000000E+00;  2.9207370E-04;  9.9036377E+03;
  1.9114166E-01;  9.9999998E-03; -2.2021127E-01;3613; -2.7668157E-03;  0.0000000E+00;  6.9852453E-05;  9.9999170E+02;  1.0000000E-01; -6.8640032E+00;3; -2.7092412E+00;  0.0000000E+00; -5.7812781E+00;0; -1.7112821E-02;  4.0003312E+04;  0.0000000E+00;  3.9751546E+00;  4.0000000E+04;  0.0000000E+00;  4.0000094E+04; -1.7325999E-02;  0.0000000E+00;  2.1317696E-04;  5.8428384E+03;
  1.9125530E-01;  9.9999998E-03; -2.1013303E-01;3614; -2.7104043E-03;  0.0000000E+00;  6.9595000E-05;  1.0001818E+03;  1.0000000E-01;  1.5061302E+02;3; -2.3515913E+00;  0.0000000E+00; -3.8401632E+00;0; -1.6453234E-02;  4.0020379E+04;  0.0000000E+00;  2.0207465E+00;  4.0000000E+04;  0.0000000E+00;  3.9996867E+04; -1.6557146E-02;  0.0000000E+00;  1.0391147E-04;  2.9912185E+03;
  1.9137605E-01;  9.9999998E-03; -2.0006981E-01;3615; -2.6717975E-03;  0.0000000E+00;  6.0428465E-05;  1.0002443E+03;  1.0000000E-01;  2.0246341E+02;3; -1.9168608E+00;  0.0000000E+00; -2.2831652E+00;0; -1.5919685E-02;  4.0028215E+04;  0.0000000E+00;  7.4849874E-01;  4.0000000E+04;  0.0000000E+00;  3.9992949E+04; -1.5908333E-02;  0.0000000E+00; -1.1353133E-05;  1.4327302E+03;
  1.9148616E-01;  9.9999998E-03; -1.9002336E-01;3616; -2.6522309E-03;  0.0000000E+00;  4.1917134E-05;  1.0002314E+03;  1.0000000E-01;  1.9179704E+02;3; -1.5735301E+00;  0.0000000E+00; -1.2279903E+00;0; -1.5489944E-02;  4.0028445E+04;  0.0000000E+00;  2.1050265E-02;  4.0000000E+04;  0.0000000E+00;  3.9990613E+04; -1.5375871E-02;  0.0000000E+00; -1.1407305E-04;  1.2207734E+03;
  1.9157287E-01;  9.9999998E-03; -1.8000203E-01;3617; -2.6497180E-03;  0.0000000E+00;  1.9349693E-05;  1.0001708E+03;  1.0000000E-01;  1.4152686E+02;3; -1.3730373E+00;  0.0000000E+00; -5.7848054E-01;0; -1.5146349E-02;  4.0022945E+04;  0.0000000E+00; -3.0915114E-01;  4.0000000E+04;  0.0000000E+00;  3.9990500E+04; -1.4958492E-02;  0.0000000E+00; -1.8785737E-04;  1.3263043E+03;
  1.9162551E-01;  9.9999998E-03; -1.7000669E-01;3618; -2.6619434E-03;  0.0000000E+00; -3.1326517E-06;  1.0000851E+03;  1.0000000E-01;  7.0516525E+01;3; -1.2912589E+00;  0.0000000E+00; -2.1992628E-01;0; -1.4872762E-02;  4.0013215E+04;  0.0000000E+00; -3.8709804E-01;  4.0000000E+04;  0.0000000E+00;  3.9991566E+04; -1.4651889E-02;  0.0000000E+00; -2.2087357E-04;  1.1751726E+03;
  1.9165081E-01;  9.9999998E-03; -1.6002579E-01;3619; -2.6865217E-03;  0.0000000E+00; -2.3416995E-05;  9.9999329E+02;  1.0000000E-01; -5.5800891E+00;3; -1.2791611E+00;  0.0000000E+00; -5.7276402E-02;0; -1.4655643E-02;  4.0002078E+04;  0.0000000E+00; -3.3738527E-01;  4.0000000E+04;  0.0000000E+00;  3.9994789E+04; -1.4446686E-02;  0.0000000E+00; -2.0895708E-04;  8.2854718E+02;
  1.9165429E-01;  9.9999998E-03; -1.5004957E-01;3620; -2.7202468E-03;  0.0000000E+00; -4.0064460E-05;  9.9990155E+02;  1.0000000E-01; -8.1577942E+01;3; -1.2952472E+00;  0.0000000E+00; -8.6234529E-03;0; -1.4484162E-02;  3.9991234E+04;  0.0000000E+00; -2.4609165E-01;  4.0000000E+04;  0.0000000E+00;  3.9997793E+04; -1.4328250E-02;  0.0000000E+00; -1.5591293E-04;  4.4634885E+02;
  1.9164082E-01;  9.9999998E-03; -1.4007102E-01;3621; -2.7587321E-03;  0.0000000E+00; -5.1937728E-05;  9.9981323E+02;  1.0000000E-01; -1.5471167E+02;3; -1.3170092E+00;  0.0000000E+00; -5.2519254E-03;0; -1.4349850E-02;  3.9980992E+04;  0.0000000E+00; -1.5840521E-01;  4.0000000E+04;  0.0000000E+00;  4.0000168E+04; -1.4277809E-02;  0.0000000E+00; -7.2040326E-05;  2.3325967E+02;
  1.9161424E-01;  9.9999998E-03; -1.3008593E-01;3622; -2.7968255E-03;  0.0000000E+00; -5.6839628E-05;  9.9974139E+02;  1.0000000E-01; -2.1426555E+02;3; -1.3376392E+00;  0.0000000E+00; -7.9523409E-03;0; -1.4245432E-02;  3.9972676E+04;  0.0000000E+00; -9.0704441E-02;  4.0000000E+04;  0.0000000E+00;  4.0002367E+04; -1.4274336E-02;  0.0000000E+00;  2.8904520E-05;  3.0915186E+02;
  1.9158231E-01;  9.9999998E-03; -1.2009359E-01;3623; -2.8293855E-03;  0.0000000E+00; -5.2372576E-05;  9.9967688E+02;  1.0000000E-01; -2.6769614E+02;3; -1.3569181E+00;  0.0000000E+00; -1.0738199E-02;0; -1.4163809E-02;  3.9966934E+04;  0.0000000E+00; -4.6179060E-02;  4.0000000E+04;  0.0000000E+00;  4.0002703E+04; -1.4296561E-02;  0.0000000E+00;  1.3275187E-04;  3.5994821E+02;
  1.9155519E-01;  9.9999998E-03; -1.1009596E-01;3624; -2.8517733E-03;  0.0000000E+00; -4.0170471E-05;  9.9962634E+02;  1.0000000E-01; -3.0957150E+02;3; -1.3751582E+00;  0.0000000E+00; -1.2790092E-02;0; -1.4097587E-02;  3.9962680E+04;  0.0000000E+00; -2.2794647E-02;  4.0000000E+04;  0.0000000E+00;  4.0001789E+04; -1.4324762E-02;  0.0000000E+00;  2.2717510E-04;  2.9504071E+02;
  2.0122457E-01;  9.9999998E-03; -2.7018106E-01;3669; -2.4259745E-03;  0.0000000E+00;  8.3096522E-05;  9.9604742E+02;  1.0000000E-01; -3.2746235E+03;3;  1.5815239E+01;  0.0000000E+00;  1.4775319E+01;0; -2.3208125E-02;  3.9696086E+04;  0.0000000E+00;  2.5705187E+01;  4.0000000E+04;  0.0000000E+00;  3.9989168E+04; -2.2910882E-02;  0.0000000E+00; -2.9724330E-04;  3.9443992E+04;
  2.0106833E-01;  9.9999998E-03; -2.6022124E-01;3670; -2.8489165E-03;  0.0000000E+00;  1.5480047E-04;  9.9741205E+02;  1.0000000E-01; -2.1440874E+03;3;  5.7348027E+00;  0.0000000E+00;  2.3014972E+00;0; -2.2436960E-02;  3.9807621E+04;  0.0000000E+00;  2.0993954E+01;  4.0000000E+04;  0.0000000E+00;  3.9988805E+04; -2.2159081E-02;  0.0000000E+00; -2.7787796E-04;  3.1928070E+04;
  2.0101102E-01;  9.9999998E-03; -2.5027451E-01;3671; -3.0290908E-03;  0.0000000E+00;  1.8933931E-04;  9.9826117E+02;  1.0000000E-01; -1.4406012E+03;3; -3.6394775E-01;  0.0000000E+00; -2.7729785E+00;0; -2.1086026E-02;  3.9880871E+04;  0.0000000E+00;  1.5233963E+01;  4.0000000E+04;  0.0000000E+00;  3.9985078E+04; -2.0930145E-02;  0.0000000E+00; -1.5588111E-04;  2.3012320E+04;
  2.0098026E-01;  9.9999998E-03; -2.4031737E-01;3672; -3.0384525E-03;  0.0000000E+00;  1.3934117E-04;  9.9889233E+02;  1.0000000E-01; -9.1770245E+02;3; -2.9743922E+00;  0.0000000E+00; -4.7145162E+00;0; -1.9590463E-02;  3.9933531E+04;  0.0000000E+00;  1.0526344E+01;  4.0000000E+04;  0.0000000E+00;  3.9982871E+04; -1.9655956E-02;  0.0000000E+00;  6.5492059E-05;  1.5835931E+04;
  2.0097946E-01;  9.9999998E-03; -2.3031211E-01;3673; -2.9814898E-03;  0.0000000E+00;  6.8965703E-05;  9.9939166E+02;  1.0000000E-01; -5.0398575E+02;3; -3.5076327E+00;  0.0000000E+00; -5.1895843E+00;0; -1.8355897E-02;  3.9970125E+04;  0.0000000E+00;  6.8530126E+00;  4.0000000E+04;  0.0000000E+00;  3.9985961E+04; -1.8528614E-02;  0.0000000E+00;  1.7271702E-04;  1.0286132E+04;
  2.0104182E-01;  9.9999998E-03; -2.2025241E-01;3674; -2.9061618E-03;  0.0000000E+00;  2.9185700E-05;  9.9973370E+02;  1.0000000E-01; -2.2063574E+02;3; -3.1618698E+00;  0.0000000E+00; -4.4627681E+00;0; -1.7431512E-02;  3.9992832E+04;  0.0000000E+00;  4.0241160E+00;  4.0000000E+04;  0.0000000E+00;  3.9989203E+04; -1.7571462E-02;  0.0000000E+00;  1.3995035E-04;  6.0678232E+03;
  2.0115542E-01;  9.9999998E-03; -2.1016744E-01;3675; -2.8363978E-03;  0.0000000E+00;  1.2277847E-05;  9.9992603E+02;  1.0000000E-01; -6.1282219E+01;3; -2.5818264E+00;  0.0000000E+00; -3.1685846E+00;0; -1.6722426E-02;  4.0006098E+04;  0.0000000E+00;  1.9899540E+00;  4.0000000E+04;  0.0000000E+00;  3.9990090E+04; -1.6770646E-02;  0.0000000E+00;  4.8220274E-05;  3.1757664E+03;
  2.0125988E-01;  9.9999998E-03; -2.0010708E-01;3676; -2.7856119E-03;  0.0000000E+00; -8.2671285E-08;  9.9999304E+02;  1.0000000E-01; -5.7776146E+00;3; -2.0409544E+00;  0.0000000E+00; -1.9384919E+00;0; -1.6159633E-02;  4.0012191E+04;  0.0000000E+00;  6.6769195E-01;  4.0000000E+04;  0.0000000E+00;  3.9988484E+04; -1.6110493E-02;  0.0000000E+00; -4.9139515E-05;  1.7513175E+03;
  2.0136710E-01;  9.9999998E-03; -1.9006163E-01;3677; -2.7580585E-03;  0.0000000E+00; -1.6039357E-05;  9.9999890E+02;  1.0000000E-01; -8.8886374E-01;3; -1.6473767E+00;  0.0000000E+00; -1.0541098E+00;0; -1.5705476E-02;  4.0011746E+04;  0.0000000E+00; -7.7094913E-02;  4.0000000E+04;  0.0000000E+00;  3.9988141E+04; -1.5577161E-02;  0.0000000E+00; -1.2831495E-04;  1.5783934E+03;
  2.0145150E-01;  9.9999998E-03; -1.8004997E-01;3678; -2.7523411E-03;  0.0000000E+00; -3.3325057E-05;  9.9995142E+02;  1.0000000E-01; -4.0245777E+01;3; -1.4244213E+00;  0.0000000E+00; -4.9223870E-01;0; -1.5337288E-02;  4.0006906E+04;  0.0000000E+00; -3.9336041E-01;  4.0000000E+04;  0.0000000E+00;  3.9987934E+04; -1.5161795E-02;  0.0000000E+00; -1.7549416E-04;  1.6370530E+03;
  2.0150983E-01;  9.9999998E-03; -1.7006098E-01;3679; -2.7657922E-03;  0.0000000E+00; -4.9791637E-05;  9.9988184E+02;  1.0000000E-01; -9.7873772E+01;3; -1.3335432E+00;  0.0000000E+00; -1.8066947E-01;0; -1.5036495E-02;  3.9999129E+04;  0.0000000E+00; -4.3763131E-01;  4.0000000E+04;  0.0000000E+00;  3.9989465E+04; -1.4854011E-02;  0.0000000E+00; -1.8248454E-04;  1.4667543E+03;
  2.0154417E-01;  9.9999998E-03; -1.6007946E-01;3680; -2.7951570E-03;  0.0000000E+00; -6.3904903E-05;  9.9980646E+02;  1.0000000E-01; -1.6034114E+02;3; -1.3184755E+00;  0.0000000E+00; -4.1795362E-02;0; -1.4788790E-02;  3.9989914E+04;  0.0000000E+00; -3.4928951E-01;  4.0000000E+04;  0.0000000E+00;  3.9991957E+04; -1.4640893E-02;  0.0000000E+00; -1.4789721E-04;  1.1366398E+03;
  2.0155492E-01;  9.9999998E-03; -1.5009665E-01;3681; -2.8362831E-03;  0.0000000E+00; -7.4099677E-05;  9.9973492E+02;  1.0000000E-01; -2.1959872E+02;3; -1.3337889E+00;  0.0000000E+00; -2.6031574E-03;0; -1.4583586E-02;  3.9980664E+04;  0.0000000E+00; -2.2658376E-01;  4.0000000E+04;  0.0000000E+00;  3.9993750E+04; -1.4506261E-02;  0.0000000E+00; -7.7325174E-05;  7.7957306E+02;
  2.0154969E-01;  9.9999998E-03; -1.4010806E-01;3682; -2.8836823E-03;  0.0000000E+00; -7.9064179E-05;  9.9966742E+02;  1.0000000E-01; -2.7554776E+02;3; -1.3553761E+00;  0.0000000E+00; -1.3808295E-03;0; -1.4413325E-02;  3.9972719E+04;  0.0000000E+00; -1.2080671E-01;  4.0000000E+04;  0.0000000E+00;  3.9995777E+04; -1.4431493E-02;  0.0000000E+00;  1.8167842E-05;  4.8710922E+02;
  2.0153934E-01;  9.9999998E-03; -1.3011242E-01;3683; -2.9307748E-03;  0.0000000E+00; -7.7296099E-05;  9.9960791E+02;  1.0000000E-01; -3.2483032E+02;3; -1.3761792E+00;  0.0000000E+00; -4.5677600E-03;0; -1.4272396E-02;  3.9966609E+04;  0.0000000E+00; -4.7819991E-02;  4.0000000E+04;  0.0000000E+00;  3.9997664E+04; -1.4397356E-02;  0.0000000E+00;  1.2495973E-04;  3.0824191E+02;
  2.0153642E-01;  9.9999998E-03; -1.2011125E-01;3684; -2.9707942E-03;  0.0000000E+00; -6.8178764E-05;  9.9956665E+02;  1.0000000E-01; -3.5900220E+02;3; -1.3956939E+00;  0.0000000E+00; -7.6999948E-03;0; -1.4155419E-02;  3.9962328E+04;  0.0000000E+00; -6.7748176E-03;  4.0000000E+04;  0.0000000E+00;  3.9997871E+04; -1.4385405E-02;  0.0000000E+00;  2.2998641E-04;  2.5846240E+02;
  2.0154676E-01;  9.9999998E-03; -1.1010645E-01;3685; -2.9982734E-03;  0.0000000E+00; -5.3591910E-05;  9.9953571E+02;  1.0000000E-01; -3.8468048E+02;3; -1.4141555E+00;  0.0000000E+00; -1.0185546E-02;0; -1.4056269E-02;  3.9960273E+04;  0.0000000E+00;  8.8094622E-03;  4.0000000E+04;  0.0000000E+00;  3.9997117E+04; -1.4379261E-02;  0.0000000E+00;  3.2299230E-04;  3.1756476E+02;
  2.1124601E-01;  9.9999998E-03; -2.7015769E-01;3730; -2.4902057E-03;  0.0000000E+00;  1.3328975E-04;  9.9612592E+02;  1.0000000E-01; -3.2095881E+03;3;  1.0137183E+01;  0.0000000E+00;  1.7217674E+01;0; -2.4134699E-02;  3.9708633E+04;  0.0000000E+00;  2.3110106E+01;  4.0000000E+04;  0.0000000E+00;  3.9984051E+04; -2.3360578E-02;  0.0000000E+00; -7.7412167E-04;  3.5576766E+04;
  2.1098043E-01;  9.9999998E-03; -2.6019290E-01;3731; -2.8794992E-03;  0.0000000E+00;  1.7501116E-04;  9.9753058E+02;  1.0000000E-01; -2.0458680E+03;3;  2.5629101E+00;  0.0000000E+00;  5.2098455E+00;0; -2.3050236E-02;  3.9825926E+04;  0.0000000E+00;  2.1456066E+01;  4.0000000E+04;  0.0000000E+00;  3.9980707E+04; -2.2469221E-02;  0.0000000E+00; -5.8101414E-04;  3.2547475E+04;
  2.1089950E-01;  9.9999998E-03; -2.5023460E-01;3732; -3.1139851E-03;  0.0000000E+00;  2.2989644E-04;  9.9825256E+02;  1.0000000E-01; -1.4477122E+03;3; -2.1927633E+00;  0.0000000E+00; -5.2846920E-01;0; -2.1710742E-02;  3.9888191E+04;  0.0000000E+00;  1.5845601E+01;  4.0000000E+04;  0.0000000E+00;  3.9976855E+04; -2.1244140E-02;  0.0000000E+00; -4.6660181E-04;  2.3918684E+04;
  2.1087812E-01;  9.9999998E-03; -2.4028000E-01;3733; -3.1429245E-03;  0.0000000E+00;  1.8722341E-04;  9.9871924E+02;  1.0000000E-01; -1.0611058E+03;3; -4.0574613E+00;  0.0000000E+00; -2.7263746E+00;0; -2.0090971E-02;  3.9928855E+04;  0.0000000E+00;  1.0847054E+01;  4.0000000E+04;  0.0000000E+00;  3.9974164E+04; -1.9927386E-02;  0.0000000E+00; -1.6358428E-04;  1.6438660E+04;
  2.1089837E-01;  9.9999998E-03; -2.3028347E-01;3734; -3.0863220E-03;  0.0000000E+00;  7.9555612E-05;  9.9910773E+02;  1.0000000E-01; -7.3923834E+02;3; -4.0799522E+00;  0.0000000E+00; -3.7019908E+00;0; -1.8678108E-02;  3.9955496E+04;  0.0000000E+00;  6.9617500E+00;  4.0000000E+04;  0.0000000E+00;  3.9976832E+04; -1.8760262E-02;  0.0000000E+00;  8.2153136E-05;  1.0645784E+04;
  2.1098047E-01;  9.9999998E-03; -2.2022577E-01;3735; -3.0075305E-03;  0.0000000E+00;  2.8966606E-06;  9.9939740E+02;  1.0000000E-01; -4.9924515E+02;3; -3.4106863E+00;  0.0000000E+00; -3.5304739E+00;0; -1.7657541E-02;  3.9971402E+04;  0.0000000E+00;  4.0254068E+00;  4.0000000E+04;  0.0000000E+00;  3.9983844E+04; -1.7781414E-02;  0.0000000E+00;  1.2387383E-04;  6.2495928E+03;
  2.1107632E-01;  9.9999998E-03; -2.1016043E-01;3736; -2.9315602E-03;  0.0000000E+00; -3.1374519E-05;  9.9956189E+02;  1.0000000E-01; -3.6295270E+02;3; -2.6896782E+00;  0.0000000E+00; -2.5830038E+00;0; -1.6913211E-02;  3.9980672E+04;  0.0000000E+00;  1.9607764E+00;  4.0000000E+04;  0.0000000E+00;  3.9986051E+04; -1.6975220E-02;  0.0000000E+00;  6.2009531E-05;  3.3565950E+03;
  2.1117331E-01;  9.9999998E-03; -2.0011280E-01;3737; -2.8755846E-03;  0.0000000E+00; -5.2192336E-05;  9.9962915E+02;  1.0000000E-01; -3.0725058E+02;3; -2.0915303E+00;  0.0000000E+00; -1.6041538E+00;0; -1.6332680E-02;  3.9984449E+04;  0.0000000E+00;  6.3239413E-01;  4.0000000E+04;  0.0000000E+00;  3.9985816E+04; -1.6318955E-02;  0.0000000E+00; -1.3725231E-05;  1.9712676E+03;
  2.1127594E-01;  9.9999998E-03; -1.9008522E-01;3738; -2.8448249E-03;  0.0000000E+00; -7.0067843E-05;  9.9962994E+02;  1.0000000E-01; -3.0660861E+02;3; -1.6820266E+00;  0.0000000E+00; -8.6846823E-01;0; -1.5863998E-02;  3.9983664E+04;  0.0000000E+00; -9.6108250E-02;  4.0000000E+04;  0.0000000E+00;  3.9985570E+04; -1.5792735E-02;  0.0000000E+00; -7.1263727E-05;  1.7549766E+03;
  2.1135494E-01;  9.9999998E-03; -1.8009035E-01;3739; -2.8382849E-03;  0.0000000E+00; -8.5968823E-05;  9.9959961E+02;  1.0000000E-01; -3.3169434E+02;3; -1.4581676E+00;  0.0000000E+00; -3.9707565E-01;0; -1.5477820E-02;  3.9979465E+04;  0.0000000E+00; -3.8174433E-01;  4.0000000E+04;  0.0000000E+00;  3.9986371E+04; -1.5381237E-02;  0.0000000E+00; -9.6582888E-05;  1.7516536E+03;
  2.1141413E-01;  9.9999998E-03; -1.7010975E-01;3740; -2.8536106E-03;  0.0000000E+00; -9.8444296E-05;  9.9955542E+02;  1.0000000E-01; -3.6833527E+02;3; -1.3692904E+00;  0.0000000E+00; -1.3794248E-01;0; -1.5153617E-02;  3.9973371E+04;  0.0000000E+00; -3.9251509E-01;  4.0000000E+04;  0.0000000E+00;  3.9988117E+04; -1.5070157E-02;  0.0000000E+00; -8.3459912E-05;  1.5712004E+03;
  2.1145268E-01;  9.9999998E-03; -1.6012973E-01;3741; -2.8874511E-03;  0.0000000E+00; -1.0641736E-04;  9.9950183E+02;  1.0000000E-01; -4.1272906E+02;3; -1.3555595E+00;  0.0000000E+00; -2.5918493E-02;0; -1.4876933E-02;  3.9966891E+04;  0.0000000E+00; -2.7761877E-01;  4.0000000E+04;  0.0000000E+00;  3.9989719E+04; -1.4844425E-02;  0.0000000E+00; -3.2508160E-05;  1.2917732E+03;
  2.1147625E-01;  9.9999998E-03; -1.5014115E-01;3742; -2.9348570E-03;  0.0000000E+00; -1.0938532E-04;  9.9945526E+02;  1.0000000E-01; -4.5129587E+02;3; -1.3714639E+00;  0.0000000E+00;  2.8522792E-03;0; -1.4638023E-02;  3.9960715E+04;  0.0000000E+00; -1.4125478E-01;  4.0000000E+04;  0.0000000E+00;  3.9991477E+04; -1.4687403E-02;  0.0000000E+00;  4.9380928E-05;  1.0318167E+03;
  2.1149541E-01;  9.9999998E-03; -1.4013952E-01;3743; -2.9890754E-03;  0.0000000E+00; -1.0733687E-04;  9.9941589E+02;  1.0000000E-01; -4.8393692E+02;3; -1.3934084E+00;  0.0000000E+00;  1.8643743E-03;0; -1.4430891E-02;  3.9955887E+04;  0.0000000E+00; -3.5233218E-02;  4.0000000E+04;  0.0000000E+00;  3.9992770E+04; -1.4581607E-02;  0.0000000E+00;  1.5071564E-04;  8.5210876E+02;
  2.1152188E-01;  9.9999998E-03; -1.3012582E-01;3744; -3.0425680E-03;  0.0000000E+00; -9.8942903E-05;  9.9939288E+02;  1.0000000E-01; -5.0299811E+02;3; -1.4144653E+00;  0.0000000E+00; -2.0005126E-03;0; -1.4252066E-02;  3.9953039E+04;  0.0000000E+00;  2.8557351E-02;  4.0000000E+04;  0.0000000E+00;  3.9993254E+04; -1.4510203E-02;  0.0000000E+00;  2.5813747E-04;  7.6400897E+02;
  2.1156862E-01;  9.9999998E-03; -1.2010527E-01;3745; -3.0873744E-03;  0.0000000E+00; -8.5191343E-05;  9.9938568E+02;  1.0000000E-01; -5.0897327E+02;3; -1.4344215E+00;  0.0000000E+00; -5.3723254E-03;0; -1.4098480E-02;  3.9952082E+04;  0.0000000E+00;  5.6208566E-02;  4.0000000E+04;  0.0000000E+00;  3.9993441E+04; -1.4458265E-02;  0.0000000E+00;  3.5978461E-04;  7.5730322E+02;
  2.1164566E-01;  9.9999998E-03; -1.1007790E-01;3746; -3.1174896E-03;  0.0000000E+00; -6.9278751E-05;  9.9939154E+02;  1.0000000E-01; -5.0408450E+02;3; -1.4532422E+00;  0.0000000E+00; -7.4833771E-03;0; -1.3965516E-02;  3.9952891E+04;  0.0000000E+00;  5.8418822E-02;  4.0000000E+04;  0.0000000E+00;  3.9993430E+04; -1.4413286E-02;  0.0000000E+00;  4.4776971E-04;  8.1706433E+02;
  2.2131617E-01;  9.9999998E-03; -2.7011326E-01;3791; -2.6667581E-03;  0.0000000E+00;  9.5641895E-05;  9.9629272E+02;  1.0000000E-01; -3.0714192E+03;3;  4.6200490E+00;  0.0000000E+00;  1.3897744E+01;0; -2.4747139E-02;  3.9717973E+04;  0.0000000E+00;  1.8950712E+01;  4.0000000E+04;  0.0000000E+00;  3.9990520E+04; -2.3841403E-02;  0.0000000E+00; -9.0573501E-04;  2.9236232E+04;
  2.2100313E-01;  9.9999998E-03; -2.6013988E-01;3792; -2.9584533E-03;  0.0000000E+00;  1.3059877E-04;  9.9759845E+02;  1.0000000E-01; -1.9896227E+03;3; -2.9905874E-01;  0.0000000E+00;  4.3851533E+00;0; -2.3360671E-02;  3.9829668E+04;  0.0000000E+00;  2.0124475E+01;  4.0000000E+04;  0.0000000E+00;  3.9984004E+04; -2.2715177E-02;  0.0000000E+00; -6.4549391E-04;  3.0409725E+04;
  2.2087346E-01;  9.9999998E-03; -2.5016707E-01;3793; -3.1923663E-03;  0.0000000E+00;  2.0085002E-04;  9.9823584E+02;  1.0000000E-01; -1.4615883E+03;3; -3.4922945E+00;  0.0000000E+00; -7.1126634E-01;0; -2.2044191E-02;  3.9885227E+04;  0.0000000E+00;  1.5634717E+01;  4.0000000E+04;  0.0000000E+00;  3.9980652E+04; -2.1474466E-02;  0.0000000E+00; -5.6972459E-04;  2.3460748E+04;
  2.2085752E-01;  9.9999998E-03; -2.4019891E-01;3794; -3.2305410E-03;  0.0000000E+00;  1.7764849E-04;  9.9856476E+02;  1.0000000E-01; -1.1890527E+03;3; -4.5795903E+00;  0.0000000E+00; -2.5099256E+00;0; -2.0408422E-02;  3.9914477E+04;  0.0000000E+00;  1.0664605E+01;  4.0000000E+04;  0.0000000E+00;  3.9976477E+04; -2.0164113E-02;  0.0000000E+00; -2.4430861E-04;  1.6072975E+04;
  2.2089523E-01;  9.9999998E-03; -2.3019826E-01;3795; -3.1732211E-03;  0.0000000E+00;  6.1556362E-05;  9.9883289E+02;  1.0000000E-01; -9.6693561E+02;3; -4.2371736E+00;  0.0000000E+00; -3.2053626E+00;0; -1.8905213E-02;  3.9932059E+04;  0.0000000E+00;  6.7568569E+00;  4.0000000E+04;  0.0000000E+00;  3.9979020E+04; -1.9002391E-02;  0.0000000E+00;  9.7177879E-05;  1.0291886E+04;
  2.2096236E-01;  9.9999998E-03; -2.2015736E-01;3796; -3.0910240E-03;  0.0000000E+00; -2.6225547E-05;  9.9904083E+02;  1.0000000E-01; -7.9464417E+02;3; -3.4331369E+00;  0.0000000E+00; -2.9372613E+00;0; -1.7841630E-02;  3.9942504E+04;  0.0000000E+00;  3.8914099E+00;  4.0000000E+04;  0.0000000E+00;  3.9983859E+04; -1.8035283E-02;  0.0000000E+00;  1.9365297E-04;  6.0514756E+03;
  2.2104435E-01;  9.9999998E-03; -2.1011688E-01;3797; -3.0136972E-03;  0.0000000E+00; -7.0396607E-05;  9.9915393E+02;  1.0000000E-01; -7.0096783E+02;3; -2.6683519E+00;  0.0000000E+00; -2.1083701E+00;0; -1.7084997E-02;  3.9948078E+04;  0.0000000E+00;  1.8952994E+00;  4.0000000E+04;  0.0000000E+00;  3.9985504E+04; -1.7245440E-02;  0.0000000E+00;  1.6044243E-04;  3.2934539E+03;
  2.2115487E-01;  9.9999998E-03; -2.0008580E-01;3798; -2.9575815E-03;  0.0000000E+00; -9.8941338E-05;  9.9919690E+02;  1.0000000E-01; -6.6536389E+02;3; -2.0700238E+00;  0.0000000E+00; -1.2958571E+00;0; -1.6500717E-02;  3.9950000E+04;  0.0000000E+00;  6.3386351E-01;  4.0000000E+04;  0.0000000E+00;  3.9985348E+04; -1.6605612E-02;  0.0000000E+00;  1.0489475E-04;  1.9566288E+03;
  2.2127230E-01;  9.9999998E-03; -1.9007848E-01;3799; -2.9271010E-03;  0.0000000E+00; -1.2064659E-04;  9.9919763E+02;  1.0000000E-01; -6.6477130E+02;3; -1.6808164E+00;  0.0000000E+00; -6.8791270E-01;0; -1.6027614E-02;  3.9948637E+04;  0.0000000E+00; -3.0291114E-02;  4.0000000E+04;  0.0000000E+00;  3.9985852E+04; -1.6092017E-02;  0.0000000E+00;  6.4403052E-05;  1.7003120E+03;
  2.2135383E-01;  9.9999998E-03; -1.8009929E-01;3800; -2.9216837E-03;  0.0000000E+00; -1.3642991E-04;  9.9918414E+02;  1.0000000E-01; -6.7593152E+02;3; -1.4765495E+00;  0.0000000E+00; -3.0293348E-01;0; -1.5630592E-02;  3.9946008E+04;  0.0000000E+00; -2.6532122E-01;  4.0000000E+04;  0.0000000E+00;  3.9986387E+04; -1.5684610E-02;  0.0000000E+00;  5.4018717E-05;  1.6510770E+03;
  2.2140138E-01;  9.9999998E-03; -1.7013039E-01;3801; -2.9394990E-03;  0.0000000E+00; -1.4511398E-04;  9.9916473E+02;  1.0000000E-01; -6.9198041E+02;3; -1.3995357E+00;  0.0000000E+00; -9.6747853E-02;0; -1.5287371E-02;  3.9942340E+04;  0.0000000E+00; -2.4589755E-01;  4.0000000E+04;  0.0000000E+00;  3.9987785E+04; -1.5366698E-02;  0.0000000E+00;  7.9326426E-05;  1.4873224E+03;
  2.2142570E-01;  9.9999998E-03; -1.6015673E-01;3802; -2.9769996E-03;  0.0000000E+00; -1.4699272E-04;  9.9914795E+02;  1.0000000E-01; -7.0590594E+02;3; -1.3909895E+00;  0.0000000E+00; -1.2489670E-02;0; -1.4984027E-02;  3.9938840E+04;  0.0000000E+00; -1.2192907E-01;  4.0000000E+04;  0.0000000E+00;  3.9989016E+04; -1.5122615E-02;  0.0000000E+00;  1.3858840E-04;  1.2918850E+03;
  2.2146016E-01;  9.9999998E-03; -1.5016446E-01;3803; -3.0287264E-03;  0.0000000E+00; -1.4304429E-04;  9.9913654E+02;  1.0000000E-01; -7.1538715E+02;3; -1.4084976E+00;  0.0000000E+00;  6.0954997E-03;0; -1.4712661E-02;  3.9936633E+04;  0.0000000E+00;  5.6712073E-03;  4.0000000E+04;  0.0000000E+00;  3.9990141E+04; -1.4937139E-02;  0.0000000E+00;  2.2447873E-04;  1.1554696E+03;
  2.2152914E-01;  9.9999998E-03; -1.4014371E-01;3804; -3.0876696E-03;  0.0000000E+00; -1.3320512E-04;  9.9913873E+02;  1.0000000E-01; -7.1356006E+02;3; -1.4308964E+00;  0.0000000E+00;  3.3708948E-03;0; -1.4469461E-02;  3.9936004E+04;  0.0000000E+00;  9.1629222E-02;  4.0000000E+04;  0.0000000E+00;  3.9990301E+04; -1.4795048E-02;  0.0000000E+00;  3.2558735E-04;  1.0903508E+03;
  2.2163196E-01;  9.9999998E-03; -1.3009432E-01;3805; -3.1446256E-03;  0.0000000E+00; -1.1917784E-04;  9.9916003E+02;  1.0000000E-01; -6.9588153E+02;3; -1.4524311E+00;  0.0000000E+00; -1.0001237E-03;0; -1.4253482E-02;  3.9937074E+04;  0.0000000E+00;  1.3147770E-01;  4.0000000E+04;  0.0000000E+00;  3.9990805E+04; -1.4682175E-02;  0.0000000E+00;  4.2869215E-04;  1.0753135E+03;
  2.2174221E-01;  9.9999998E-03; -1.2004580E-01;3806; -3.1909028E-03;  0.0000000E+00; -1.0214486E-04;  9.9919305E+02;  1.0000000E-01; -6.6852429E+02;3; -1.4728732E+00;  0.0000000E+00; -3.8754849E-03;0; -1.4064630E-02;  3.9940039E+04;  0.0000000E+00;  1.3652310E-01;  4.0000000E+04;  0.0000000E+00;  3.9990398E+04; -1.4586992E-02;  0.0000000E+00;  5.2236218E-04;  1.0955693E+03;
  2.2181684E-01;  9.9999998E-03; -1.1001620E-01;3807; -3.2198986E-03;  0.0000000E+00; -8.5880987E-05;  9.9924164E+02;  1.0000000E-01; -6.2827850E+02;3; -1.4920292E+00;  0.0000000E+00; -5.5194753E-03;0; -1.3900669E-02;  3.9944070E+04;  0.0000000E+00;  1.2046519E-01;  4.0000000E+04;  0.0000000E+00;  3.9990469E+04; -1.4500978E-02;  0.0000000E+00;  6.0030876E-04;  1.1436648E+03;
  2.3136404E-01;  9.9999998E-03; -2.7007252E-01;3852; -2.8846548E-03;  0.0000000E+00;  1.1282443E-05;  9.9661981E+02;  1.0000000E-01; -2.8004146E+03;3; -3.1649622E-01;  0.0000000E+00;  9.0700998E+00;0; -2.4964776E-02;  3.9737641E+04;  0.0000000E+00;  1.4720177E+01;  4.0000000E+04;  0.0000000E+00;  3.9998902E+04; -2.4252990E-02;  0.0000000E+00; -7.1178493E-04;  2.2798256E+04;
  2.3111439E-01;  9.9999998E-03; -2.6008585E-01;3853; -3.1240608E-03;  0.0000000E+00;  4.6965190E-05;  9.9763507E+02;  1.0000000E-01; -1.9593026E+03;3; -2.8286455E+00;  0.0000000E+00;  1.8460399E+00;0; -2.3473507E-02;  3.9825035E+04;  0.0000000E+00;  1.6377081E+01;  4.0000000E+04;  0.0000000E+00;  3.9993891E+04; -2.3019062E-02;  0.0000000E+00; -4.5444421E-04;  2.4760885E+04;
  2.3094258E-01;  9.9999998E-03; -2.5009805E-01;3854; -3.2975539E-03;  0.0000000E+00;  1.0632801E-04;  9.9819214E+02;  1.0000000E-01; -1.4977848E+03;3; -4.3794875E+00;  0.0000000E+00; -1.8831091E+00;0; -2.2080837E-02;  3.9873535E+04;  0.0000000E+00;  1.3849286E+01;  4.0000000E+04;  0.0000000E+00;  3.9989758E+04; -2.1725481E-02;  0.0000000E+00; -3.5535466E-04;  2.0684018E+04;
  2.3092221E-01;  9.9999998E-03; -2.4010785E-01;3855; -3.3255520E-03;  0.0000000E+00;  9.3146577E-05;  9.9843475E+02;  1.0000000E-01; -1.2967534E+03;3; -4.6639695E+00;  0.0000000E+00; -3.0613837E+00;0; -2.0496512E-02;  3.9894504E+04;  0.0000000E+00;  9.5853519E+00;  4.0000000E+04;  0.0000000E+00;  3.9986578E+04; -2.0449243E-02;  0.0000000E+00; -4.7267975E-05;  1.4298133E+04;
  2.3094530E-01;  9.9999998E-03; -2.3009910E-01;3856; -3.2633210E-03;  0.0000000E+00;  5.5385285E-06;  9.9860242E+02;  1.0000000E-01; -1.1578932E+03;3; -4.0850840E+00;  0.0000000E+00; -3.1296985E+00;0; -1.9057954E-02;  3.9905898E+04;  0.0000000E+00;  6.1268129E+00;  4.0000000E+04;  0.0000000E+00;  3.9987062E+04; -1.9327305E-02;  0.0000000E+00;  2.6935220E-04;  9.1729834E+03;
  2.3101839E-01;  9.9999998E-03; -2.2006884E-01;3857; -3.1790154E-03;  0.0000000E+00; -6.7450928E-05;  9.9871887E+02;  1.0000000E-01; -1.0614021E+03;3; -3.2642601E+00;  0.0000000E+00; -2.5572364E+00;0; -1.8026570E-02;  3.9911281E+04;  0.0000000E+00;  3.5234315E+00;  4.0000000E+04;  0.0000000E+00;  3.9988941E+04; -1.8398151E-02;  0.0000000E+00;  3.7158144E-04;  5.3511606E+03;
  2.3115657E-01;  9.9999998E-03; -2.1003418E-01;3858; -3.1034604E-03;  0.0000000E+00; -1.1263297E-04;  9.9877008E+02;  1.0000000E-01; -1.0189835E+03;3; -2.5298269E+00;  0.0000000E+00; -1.7457186E+00;0; -1.7285768E-02;  3.9913406E+04;  0.0000000E+00;  1.7265400E+00;  4.0000000E+04;  0.0000000E+00;  3.9989320E+04; -1.7642321E-02;  0.0000000E+00;  3.5655237E-04;  2.8286516E+03;
  2.3129202E-01;  9.9999998E-03; -2.0002025E-01;3859; -3.0495636E-03;  0.0000000E+00; -1.4335464E-04;  9.9878876E+02;  1.0000000E-01; -1.0034778E+03;3; -1.9901842E+00;  0.0000000E+00; -1.0286309E+00;0; -1.6714526E-02;  3.9914070E+04;  0.0000000E+00;  6.4708698E-01;  4.0000000E+04;  0.0000000E+00;  3.9988359E+04; -1.7028309E-02;  0.0000000E+00;  3.1378283E-04;  1.6445757E+03;
  2.3139532E-01;  9.9999998E-03; -1.9003764E-01;3860; -3.0211404E-03;  0.0000000E+00; -1.6641029E-04;  9.9879144E+02;  1.0000000E-01; -1.0012556E+03;3; -1.6532671E+00;  0.0000000E+00; -5.2383786E-01;0; -1.6247025E-02;  3.9914086E+04;  0.0000000E+00;  1.0823156E-01;  4.0000000E+04;  0.0000000E+00;  3.9987586E+04; -1.6529158E-02;  0.0000000E+00;  2.8213297E-04;  1.4236271E+03;
  2.3147014E-01;  9.9999998E-03; -1.8007100E-01;3861; -3.0180526E-03;  0.0000000E+00; -1.8104042E-04;  9.9879620E+02;  1.0000000E-01; -9.9730511E+02;3; -1.4841977E+00;  0.0000000E+00; -2.1765845E-01;0; -1.5845958E-02;  3.9913250E+04;  0.0000000E+00; -5.8808256E-02;  4.0000000E+04;  0.0000000E+00;  3.9988340E+04; -1.6123896E-02;  0.0000000E+00;  2.7793829E-04;  1.3709576E+03;
  2.3152019E-01;  9.9999998E-03; -1.7010583E-01;3862; -3.0384799E-03;  0.0000000E+00; -1.8590485E-04;  9.9880896E+02;  1.0000000E-01; -9.8673755E+02;3; -1.4262732E+00;  0.0000000E+00; -6.1606068E-02;0; -1.5488497E-02;  3.9912918E+04;  0.0000000E+00; -1.7649705E-02;  4.0000000E+04;  0.0000000E+00;  3.9989039E+04; -1.5795331E-02;  0.0000000E+00;  3.0683403E-04;  1.2647412E+03;
  2.3155020E-01;  9.9999998E-03; -1.6012752E-01;3863; -3.0786530E-03;  0.0000000E+00; -1.8196536E-04;  9.9883002E+02;  1.0000000E-01; -9.6930591E+02;3; -1.4256059E+00;  0.0000000E+00; -3.2198997E-03;0; -1.5161707E-02;  3.9913180E+04;  0.0000000E+00;  9.4105259E-02;  4.0000000E+04;  0.0000000E+00;  3.9989598E+04; -1.5527954E-02;  0.0000000E+00;  3.6624700E-04;  1.1840476E+03;
  2.3160836E-01;  9.9999998E-03; -1.5012069E-01;3864; -3.1330036E-03;  0.0000000E+00; -1.7070807E-04;  9.9886389E+02;  1.0000000E-01; -9.4125732E+02;3; -1.4452032E+00;  0.0000000E+00;  6.4212633E-03;0; -1.4860496E-02;  3.9915086E+04;  0.0000000E+00;  1.8937901E-01;  4.0000000E+04;  0.0000000E+00;  3.9990031E+04; -1.5309182E-02;  0.0000000E+00;  4.4868625E-04;  1.1670254E+03;
  2.3169661E-01;  9.9999998E-03; -1.4008303E-01;3865; -3.1930821E-03;  0.0000000E+00; -1.5455822E-04;  9.9891364E+02;  1.0000000E-01; -9.0002393E+02;3; -1.4680308E+00;  0.0000000E+00;  2.1193437E-03;0; -1.4583934E-02;  3.9918996E+04;  0.0000000E+00;  2.3624022E-01;  4.0000000E+04;  0.0000000E+00;  3.9989945E+04; -1.5125977E-02;  0.0000000E+00;  5.4204318E-04;  1.1833102E+03;
  2.3179105E-01;  9.9999998E-03; -1.3003893E-01;3866; -3.2491889E-03;  0.0000000E+00; -1.3552244E-04;  9.9898175E+02;  1.0000000E-01; -8.4358105E+02;3; -1.4899619E+00;  0.0000000E+00; -1.2863582E-03;0; -1.4334690E-02;  3.9924543E+04;  0.0000000E+00;  2.3946460E-01;  4.0000000E+04;  0.0000000E+00;  3.9989809E+04; -1.4967741E-02;  0.0000000E+00;  6.3305104E-04;  1.2051298E+03;
  2.3184575E-01;  9.9999998E-03; -1.2000731E-01;3867; -3.2921738E-03;  0.0000000E+00; -1.1689982E-04;  9.9905774E+02;  1.0000000E-01; -7.8066925E+02;3; -1.5104662E+00;  0.0000000E+00; -4.0215631E-03;0; -1.4114814E-02;  3.9930949E+04;  0.0000000E+00;  2.1534607E-01;  4.0000000E+04;  0.0000000E+00;  3.9989551E+04; -1.4826654E-02;  0.0000000E+00;  7.1184046E-04;  1.2290016E+03;
  2.3185904E-01;  9.9999998E-03; -1.0999187E-01;3868; -3.3166350E-03;  0.0000000E+00; -1.0179314E-04;  9.9913867E+02;  1.0000000E-01; -7.1360944E+02;3; -1.5296390E+00;  0.0000000E+00; -5.3250496E-03;0; -1.3923689E-02;  3.9937988E+04;  0.0000000E+00;  1.7888089E-01;  4.0000000E+04;  0.0000000E+00;  3.9989438E+04; -1.4699387E-02;  0.0000000E+00;  7.7569875E-04;  1.2613335E+03;
  2.4138081E-01;  9.9999998E-03; -2.7003950E-01;3913; -3.1269677E-03;  0.0000000E+00; -9.5005620E-05;  9.9705872E+02;  1.0000000E-01; -2.4368201E+03;3; -4.1187377E+00;  0.0000000E+00;  4.6171260E+00;0; -2.4861529E-02;  3.9768039E+04;  0.0000000E+00;  1.0989302E+01;  4.0000000E+04;  0.0000000E+00;  4.0005691E+04; -2.4606533E-02;  0.0000000E+00; -2.5499653E-04;  1.7186750E+04;
  2.4121612E-01;  9.9999998E-03; -2.6004344E-01;3914; -3.3312598E-03;  0.0000000E+00; -4.9633582E-05;  9.9775067E+02;  1.0000000E-01; -1.8635028E+03;3; -4.7407384E+00;  0.0000000E+00; -5.0504827E-01;0; -2.3431027E-02;  3.9826746E+04;  0.0000000E+00;  1.2064243E+01;  4.0000000E+04;  0.0000000E+00;  4.0002371E+04; -2.3349619E-02;  0.0000000E+00; -8.1409213E-05;  1.8356709E+04;
  2.4107975E-01;  9.9999998E-03; -2.5004300E-01;3915; -3.4421582E-03;  0.0000000E+00; -5.6498307E-06;  9.9814679E+02;  1.0000000E-01; -1.5353640E+03;3; -4.9270782E+00;  0.0000000E+00; -2.8646512E+00;0; -2.1989681E-02;  3.9860602E+04;  0.0000000E+00;  1.0653831E+01;  4.0000000E+04;  0.0000000E+00;  3.9999719E+04; -2.2052096E-02;  0.0000000E+00;  6.2415951E-05;  1.5946953E+04;
  2.4103113E-01;  9.9999998E-03; -2.4003634E-01;3916; -3.4406558E-03;  0.0000000E+00; -1.7948541E-05;  9.9833093E+02;  1.0000000E-01; -1.3827758E+03;3; -4.5352592E+00;  0.0000000E+00; -3.3710794E+00;0; -2.0479519E-02;  3.9875828E+04;  0.0000000E+00;  7.7855768E+00;  4.0000000E+04;  0.0000000E+00;  3.9997578E+04; -2.0831527E-02;  0.0000000E+00;  3.5200809E-04;  1.1569929E+04;
  2.4105595E-01;  9.9999998E-03; -2.3001432E-01;3917; -3.3730655E-03;  0.0000000E+00; -7.7796161E-05;  9.9842462E+02;  1.0000000E-01; -1.3051483E+03;3; -3.7696981E+00;  0.0000000E+00; -3.0023980E+00;0; -1.9175572E-02;  3.9881398E+04;  0.0000000E+00;  5.0448003E+00;  4.0000000E+04;  0.0000000E+00;  3.9997402E+04; -1.9776996E-02;  0.0000000E+00;  6.0142425E-04;  7.4737290E+03;
  2.4115032E-01;  9.9999998E-03; -2.1997650E-01;3918; -3.2891494E-03;  0.0000000E+00; -1.2959295E-04;  9.9847540E+02;  1.0000000E-01; -1.2630754E+03;3; -2.9733689E+00;  0.0000000E+00; -2.2449980E+00;0; -1.8230012E-02;  3.9883082E+04;  0.0000000E+00;  2.9250829E+00;  4.0000000E+04;  0.0000000E+00;  3.9998043E+04; -1.8904429E-02;  0.0000000E+00;  6.7441660E-04;  4.3329922E+03;
  2.4127351E-01;  9.9999998E-03; -2.0995875E-01;3919; -3.2156736E-03;  0.0000000E+00; -1.5843482E-04;  9.9847394E+02;  1.0000000E-01; -1.2643099E+03;3; -2.3386493E+00;  0.0000000E+00; -1.4158123E+00;0; -1.7543940E-02;  3.9883969E+04;  0.0000000E+00;  1.5124953E+00;  4.0000000E+04;  0.0000000E+00;  3.9995379E+04; -1.8191244E-02;  0.0000000E+00;  6.4730470E-04;  2.2924844E+03;
  2.4137424E-01;  9.9999998E-03; -1.9997402E-01;3920; -3.1646716E-03;  0.0000000E+00; -1.8448346E-04;  9.9847229E+02;  1.0000000E-01; -1.2656926E+03;3; -1.8883363E+00;  0.0000000E+00; -7.8743458E-01;0; -1.6999906E-02;  3.9885121E+04;  0.0000000E+00;  6.8918407E-01;  4.0000000E+04;  0.0000000E+00;  3.9992613E+04; -1.7604873E-02;  0.0000000E+00;  6.0496584E-04;  1.3315870E+03;
  2.4147192E-01;  9.9999998E-03; -1.9000465E-01;3921; -3.1392388E-03;  0.0000000E+00; -2.0651497E-04;  9.9848114E+02;  1.0000000E-01; -1.2583348E+03;3; -1.6157455E+00;  0.0000000E+00; -3.8143858E-01;0; -1.6545981E-02;  3.9886410E+04;  0.0000000E+00;  3.0066884E-01;  4.0000000E+04;  0.0000000E+00;  3.9990992E+04; -1.7119708E-02;  0.0000000E+00;  5.7372596E-04;  1.1028995E+03;
  2.4157058E-01;  9.9999998E-03; -1.8003780E-01;3922; -3.1389443E-03;  0.0000000E+00; -2.1855423E-04;  9.9851880E+02;  1.0000000E-01; -1.2271257E+03;3; -1.4879884E+00;  0.0000000E+00; -1.4759092E-01;0; -1.6147666E-02;  3.9888422E+04;  0.0000000E+00;  2.0220521E-01;  4.0000000E+04;  0.0000000E+00;  3.9991738E+04; -1.6715378E-02;  0.0000000E+00;  5.6771160E-04;  1.0491218E+03;
  2.4167581E-01;  9.9999998E-03; -1.7006011E-01;3923; -3.1619202E-03;  0.0000000E+00; -2.1889423E-04;  9.9856854E+02;  1.0000000E-01; -1.1859418E+03;3; -1.4518399E+00;  0.0000000E+00; -3.5531733E-02;0; -1.5782403E-02;  3.9891461E+04;  0.0000000E+00;  2.4919997E-01;  4.0000000E+04;  0.0000000E+00;  3.9991570E+04; -1.6375313E-02;  0.0000000E+00;  5.9290999E-04;  1.0240065E+03;
  2.4178007E-01;  9.9999998E-03; -1.6006060E-01;3924; -3.2040433E-03;  0.0000000E+00; -2.0918946E-04;  9.9863574E+02;  1.0000000E-01; -1.1302396E+03;3; -1.4595851E+00;  0.0000000E+00;  3.1024643E-04;0; -1.5438434E-02;  3.9896062E+04;  0.0000000E+00;  3.2615909E-01;  4.0000000E+04;  0.0000000E+00;  3.9991895E+04; -1.6084434E-02;  0.0000000E+00;  6.4600090E-04;  1.0506132E+03;
  2.4186471E-01;  9.9999998E-03; -1.5003823E-01;3925; -3.2583745E-03;  0.0000000E+00; -1.9161617E-04;  9.9871515E+02;  1.0000000E-01; -1.0644637E+03;3; -1.4815118E+00;  0.0000000E+00;  2.7860149E-03;0; -1.5112198E-02;  3.9902672E+04;  0.0000000E+00;  3.6850461E-01;  4.0000000E+04;  0.0000000E+00;  3.9991520E+04; -1.5829496E-02;  0.0000000E+00;  7.1729772E-04;  1.1001766E+03;
  2.4191393E-01;  9.9999998E-03; -1.4001426E-01;3926; -3.3156385E-03;  0.0000000E+00; -1.6967290E-04;  9.9880920E+02;  1.0000000E-01; -9.8653998E+02;3; -1.5046799E+00;  0.0000000E+00; -9.9668594E-04;0; -1.4806606E-02;  3.9910500E+04;  0.0000000E+00;  3.6283666E-01;  4.0000000E+04;  0.0000000E+00;  3.9991254E+04; -1.5601069E-02;  0.0000000E+00;  7.9446315E-04;  1.1381417E+03;
  2.4191509E-01;  9.9999998E-03; -1.2999904E-01;3927; -3.3660210E-03;  0.0000000E+00; -1.4779274E-04;  9.9891089E+02;  1.0000000E-01; -9.0229547E+02;3; -1.5265838E+00;  0.0000000E+00; -3.8994378E-03;0; -1.4527522E-02;  3.9919242E+04;  0.0000000E+00;  3.2424584E-01;  4.0000000E+04;  0.0000000E+00;  3.9990680E+04; -1.5393635E-02;  0.0000000E+00;  8.6611282E-04;  1.1615706E+03;
  2.4187154E-01;  9.9999998E-03; -1.1998812E-01;3928; -3.4019311E-03;  0.0000000E+00; -1.2953530E-04;  9.9901227E+02;  1.0000000E-01; -8.1829785E+02;3; -1.5471032E+00;  0.0000000E+00; -6.1725336E-03;0; -1.4279682E-02;  3.9927887E+04;  0.0000000E+00;  2.7107629E-01;  4.0000000E+04;  0.0000000E+00;  3.9990336E+04; -1.5205455E-02;  0.0000000E+00;  9.2577253E-04;  1.1802764E+03;
  2.4182132E-01;  9.9999998E-03; -1.0998681E-01;3929; -3.4194058E-03;  0.0000000E+00; -1.1642157E-04;  9.9910358E+02;  1.0000000E-01; -7.4264569E+02;3; -1.5663494E+00;  0.0000000E+00; -8.3004199E-03;0; -1.4064939E-02;  3.9935621E+04;  0.0000000E+00;  2.1657100E-01;  4.0000000E+04;  0.0000000E+00;  3.9990207E+04; -1.5038653E-02;  0.0000000E+00;  9.7371492E-04;  1.2025441E+03;
  2.5136775E-01;  9.9999998E-03; -2.7001432E-01;3974; -3.3921811E-03;  0.0000000E+00; -2.1307061E-04;  9.9754095E+02;  1.0000000E-01; -2.0372758E+03;3; -6.5082421E+00;  0.0000000E+00;  1.2778318E+00;0; -2.4515860E-02;  3.9803305E+04;  0.0000000E+00;  7.9963012E+00;  4.0000000E+04;  0.0000000E+00;  4.0010582E+04; -2.4930064E-02;  0.0000000E+00;  4.1420441E-04;  1.2725489E+04;
  2.5126246E-01;  9.9999998E-03; -2.6001289E-01;3975; -3.5500082E-03;  0.0000000E+00; -1.5515058E-04;  9.9795343E+02;  1.0000000E-01; -1.6955570E+03;3; -5.8147435E+00;  0.0000000E+00; -1.9849494E+00;0; -2.3234280E-02;  3.9838074E+04;  0.0000000E+00;  8.5614786E+00;  4.0000000E+04;  0.0000000E+00;  4.0008895E+04; -2.3689803E-02;  0.0000000E+00;  4.5552233E-04;  1.3189403E+04;
  2.5116515E-01;  9.9999998E-03; -2.5000635E-01;3976; -3.6078731E-03;  0.0000000E+00; -1.0828508E-04;  9.9818109E+02;  1.0000000E-01; -1.5069203E+03;3; -5.1129284E+00;  0.0000000E+00; -3.1989622E+00;0; -2.1894146E-02;  3.9856707E+04;  0.0000000E+00;  7.7335854E+00;  4.0000000E+04;  0.0000000E+00;  4.0007043E+04; -2.2449275E-02;  0.0000000E+00;  5.5513059E-04;  1.1681061E+04;
  2.5110957E-01;  9.9999998E-03; -2.3999059E-01;3977; -3.5834005E-03;  0.0000000E+00; -1.1934401E-04;  9.9828186E+02;  1.0000000E-01; -1.4234659E+03;3; -4.2775407E+00;  0.0000000E+00; -3.2045076E+00;0; -2.0487532E-02;  3.9863945E+04;  0.0000000E+00;  5.9017262E+00;  4.0000000E+04;  0.0000000E+00;  4.0005891E+04; -2.1319317E-02;  0.0000000E+00;  8.3178474E-04;  8.8419170E+03;
  2.5114295E-01;  9.9999998E-03; -2.2995447E-01;3978; -3.5120607E-03;  0.0000000E+00; -1.7528817E-04;  9.9833411E+02;  1.0000000E-01; -1.3801584E+03;3; -3.3933125E+00;  0.0000000E+00; -2.6695814E+00;0; -1.9288108E-02;  3.9864508E+04;  0.0000000E+00;  3.8679729E+00;  4.0000000E+04;  0.0000000E+00;  4.0007254E+04; -2.0350784E-02;  0.0000000E+00;  1.0626764E-03;  5.8392310E+03;
  2.5123394E-01;  9.9999998E-03; -2.1991669E-01;3979; -3.4298915E-03;  0.0000000E+00; -1.9759023E-04;  9.9833081E+02;  1.0000000E-01; -1.3828745E+03;3; -2.6693342E+00;  0.0000000E+00; -1.8471788E+00;0; -1.8474901E-02;  3.9863559E+04;  0.0000000E+00;  2.3093984E+00;  4.0000000E+04;  0.0000000E+00;  4.0005770E+04; -1.9545471E-02;  0.0000000E+00;  1.0705710E-03;  3.5338850E+03;
  2.5131404E-01;  9.9999998E-03; -2.0992070E-01;3980; -3.3595648E-03;  0.0000000E+00; -2.0476762E-04;  9.9828760E+02;  1.0000000E-01; -1.4186759E+03;3; -2.1455369E+00;  0.0000000E+00; -1.0863602E+00;0; -1.7863421E-02;  3.9864145E+04;  0.0000000E+00;  1.3154477E+00;  4.0000000E+04;  0.0000000E+00;  3.9999762E+04; -1.8878095E-02;  0.0000000E+00;  1.0146736E-03;  1.9583202E+03;
  2.5141624E-01;  9.9999998E-03; -1.9994627E-01;3981; -3.3123570E-03;  0.0000000E+00; -2.2598309E-04;  9.9828033E+02;  1.0000000E-01; -1.4247004E+03;3; -1.7849728E+00;  0.0000000E+00; -5.7433748E-01;0; -1.7354287E-02;  3.9866074E+04;  0.0000000E+00;  7.5163317E-01;  4.0000000E+04;  0.0000000E+00;  3.9996176E+04; -1.8321479E-02;  0.0000000E+00;  9.6719246E-04;  1.1632405E+03;
  2.5153807E-01;  9.9999998E-03; -1.8997680E-01;3982; -3.2900362E-03;  0.0000000E+00; -2.4471246E-04;  9.9831952E+02;  1.0000000E-01; -1.3922570E+03;3; -1.5800380E+00;  0.0000000E+00; -2.6287836E-01;0; -1.6921395E-02;  3.9869594E+04;  0.0000000E+00;  5.1125562E-01;  4.0000000E+04;  0.0000000E+00;  3.9994582E+04; -1.7850893E-02;  0.0000000E+00;  9.2949648E-04;  9.1890784E+02;
  2.5167823E-01;  9.9999998E-03; -1.7999922E-01;3983; -3.2921594E-03;  0.0000000E+00; -2.5184380E-04;  9.9839276E+02;  1.0000000E-01; -1.3315673E+03;3; -1.4938240E+00;  0.0000000E+00; -9.3525596E-02;0; -1.6532293E-02;  3.9875109E+04;  0.0000000E+00;  4.6669224E-01;  4.0000000E+04;  0.0000000E+00;  3.9994688E+04; -1.7446863E-02;  0.0000000E+00;  9.1456994E-04;  8.8184998E+02;
  2.5182989E-01;  9.9999998E-03; -1.7000616E-01;3984; -3.3166129E-03;  0.0000000E+00; -2.4613211E-04;  9.9849115E+02;  1.0000000E-01; -1.2500387E+03;3; -1.4779528E+00;  0.0000000E+00; -2.0881671E-02;0; -1.6165070E-02;  3.9882543E+04;  0.0000000E+00;  4.9829102E-01;  4.0000000E+04;  0.0000000E+00;  3.9994680E+04; -1.7093446E-02;  0.0000000E+00;  9.2837639E-04;  9.1967224E+02;
  2.5196999E-01;  9.9999998E-03; -1.5999790E-01;3985; -3.3582167E-03;  0.0000000E+00; -2.3025474E-04;  9.9860205E+02;  1.0000000E-01; -1.1581895E+03;3; -1.4933830E+00;  0.0000000E+00; -1.5555400E-03;0; -1.5809754E-02;  3.9891676E+04;  0.0000000E+00;  5.2105129E-01;  4.0000000E+04;  0.0000000E+00;  3.9994828E+04; -1.6776582E-02;  0.0000000E+00;  9.6682843E-04;  9.6990240E+02;
  2.5205114E-01;  9.9999998E-03; -1.4998430E-01;3986; -3.4091712E-03;  0.0000000E+00; -2.0645527E-04;  9.9872980E+02;  1.0000000E-01; -1.0523159E+03;3; -1.5168906E+00;  0.0000000E+00; -2.7577472E-03;0; -1.5464918E-02;  3.9902000E+04;  0.0000000E+00;  4.9958679E-01;  4.0000000E+04;  0.0000000E+00;  3.9993879E+04; -1.6484303E-02;  0.0000000E+00;  1.0193855E-03;  9.9406848E+02;
  2.5204811E-01;  9.9999998E-03; -1.3997450E-01;3987; -3.4596808E-03;  0.0000000E+00; -1.8072991E-04;  9.9885193E+02;  1.0000000E-01; -9.5113361E+02;3; -1.5404263E+00;  0.0000000E+00; -5.9994957E-03;0; -1.5135977E-02;  3.9912723E+04;  0.0000000E+00;  4.4046584E-01;  4.0000000E+04;  0.0000000E+00;  3.9993238E+04; -1.6210720E-02;  0.0000000E+00;  1.0747425E-03;  9.9634198E+02;
  2.5199112E-01;  9.9999998E-03; -1.2997231E-01;3988; -3.5012038E-03;  0.0000000E+00; -1.5880851E-04;  9.9896796E+02;  1.0000000E-01; -8.5503754E+02;3; -1.5625576E+00;  0.0000000E+00; -8.0657164E-03;0; -1.4832740E-02;  3.9922984E+04;  0.0000000E+00;  3.6446342E-01;  4.0000000E+04;  0.0000000E+00;  3.9992668E+04; -1.5957374E-02;  0.0000000E+00;  1.1246343E-03;  9.9657727E+02;
  2.5190824E-01;  9.9999998E-03; -1.1997509E-01;3989; -3.5279812E-03;  0.0000000E+00; -1.4180424E-04;  9.9906848E+02;  1.0000000E-01; -7.7173126E+02;3; -1.5833970E+00;  0.0000000E+00; -1.0775995E-02;0; -1.4562898E-02;  3.9931773E+04;  0.0000000E+00;  2.8833863E-01;  4.0000000E+04;  0.0000000E+00;  3.9992078E+04; -1.5727796E-02;  0.0000000E+00;  1.1648971E-03;  1.0052639E+03;
  2.5182319E-01;  9.9999998E-03; -1.0998139E-01;3990; -3.5371853E-03;  0.0000000E+00; -1.2968338E-04;  9.9914581E+02;  1.0000000E-01; -7.0768372E+02;3; -1.6025925E+00;  0.0000000E+00; -1.2905323E-02;0; -1.4329433E-02;  3.9938262E+04;  0.0000000E+00;  2.2178017E-01;  4.0000000E+04;  0.0000000E+00;  3.9991820E+04; -1.5526548E-02;  0.0000000E+00;  1.1971151E-03;  1.0231127E+03;
  2.6132309E-01;  9.9999998E-03; -2.6999611E-01;4035; -3.6697886E-03;  0.0000000E+00; -3.4648360E-04;  9.9799829E+02;  1.0000000E-01; -1.6583728E+03;3; -7.4895177E+00;  0.0000000E+00; -7.8143996E-01;0; -2.3903653E-02;  3.9838680E+04;  0.0000000E+00;  5.9329414E+00;  4.0000000E+04;  0.0000000E+00;  4.0013578E+04; -2.5223486E-02;  0.0000000E+00;  1.3198331E-03;  9.6270889E+03;
  2.6125291E-01;  9.9999998E-03; -2.5999185E-01;4036; -3.7778290E-03;  0.0000000E+00; -2.6657627E-04;  9.9819409E+02;  1.0000000E-01; -1.4961553E+03;3; -6.0717158E+00;  0.0000000E+00; -2.6023152E+00;0; -2.2929478E-02;  3.9854176E+04;  0.0000000E+00;  6.1085896E+00;  4.0000000E+04;  0.0000000E+00;  4.0013152E+04; -2.4044856E-02;  0.0000000E+00;  1.1153789E-03;  9.5878135E+03;
  2.6118129E-01;  9.9999998E-03; -2.4998228E-01;4037; -3.7986827E-03;  0.0000000E+00; -2.1456346E-04;  9.9827478E+02;  1.0000000E-01; -1.4292930E+03;3; -4.9052000E+00;  0.0000000E+00; -3.0486732E+00;0; -2.1759374E-02;  3.9859852E+04;  0.0000000E+00;  5.5253592E+00;  4.0000000E+04;  0.0000000E+00;  4.0011949E+04; -2.2908036E-02;  0.0000000E+00;  1.1486616E-03;  8.5082656E+03;
  2.6114559E-01;  9.9999998E-03; -2.3996091E-01;4038; -3.7569152E-03;  0.0000000E+00; -2.3363152E-04;  9.9829694E+02;  1.0000000E-01; -1.4109724E+03;3; -3.8736055E+00;  0.0000000E+00; -2.7667773E+00;0; -2.0449407E-02;  3.9859105E+04;  0.0000000E+00;  4.2238607E+00;  4.0000000E+04;  0.0000000E+00;  4.0012121E+04; -2.1889636E-02;  0.0000000E+00;  1.4402298E-03;  6.5381226E+03;
  2.6118973E-01;  9.9999998E-03; -2.2991879E-01;4039; -3.6837782E-03;  0.0000000E+00; -2.8119242E-04;  9.9830994E+02;  1.0000000E-01; -1.4002073E+03;3; -2.9997101E+00;  0.0000000E+00; -2.1610985E+00;0; -1.9398829E-02;  3.9855484E+04;  0.0000000E+00;  2.7942221E+00;  4.0000000E+04;  0.0000000E+00;  4.0014094E+04; -2.1017602E-02;  0.0000000E+00;  1.6187732E-03;  4.5906802E+03;
  2.6125923E-01;  9.9999998E-03; -2.1989295E-01;4040; -3.6051231E-03;  0.0000000E+00; -2.6345605E-04;  9.9826025E+02;  1.0000000E-01; -1.4413419E+03;3; -2.3870609E+00;  0.0000000E+00; -1.3911778E+00;0; -1.8759228E-02;  3.9853422E+04;  0.0000000E+00;  1.7726500E+00;  4.0000000E+04;  0.0000000E+00;  4.0010539E+04; -2.0284051E-02;  0.0000000E+00;  1.5248223E-03;  3.0148594E+03;
  2.6135397E-01;  9.9999998E-03; -2.0990446E-01;4041; -3.5400314E-03;  0.0000000E+00; -2.5700364E-04;  9.9821173E+02;  1.0000000E-01; -1.4815383E+03;3; -1.9651222E+00;  0.0000000E+00; -7.8107303E-01;0; -1.8221304E-02;  3.9854070E+04;  0.0000000E+00;  1.1401532E+00;  4.0000000E+04;  0.0000000E+00;  4.0003891E+04; -1.9667521E-02;  0.0000000E+00;  1.4462180E-03;  1.8114866E+03;
  2.6148134E-01;  9.9999998E-03; -1.9993187E-01;4042; -3.4966283E-03;  0.0000000E+00; -2.7268686E-04;  9.9822528E+02;  1.0000000E-01; -1.4703287E+03;3; -1.6940284E+00;  0.0000000E+00; -3.9350674E-01;0; -1.7754257E-02;  3.9857723E+04;  0.0000000E+00;  8.1628531E-01;  4.0000000E+04;  0.0000000E+00;  3.9999922E+04; -1.9142440E-02;  0.0000000E+00;  1.3881833E-03;  1.2080077E+03;
  2.6163071E-01;  9.9999998E-03; -1.8995644E-01;4043; -3.4767233E-03;  0.0000000E+00; -2.8550284E-04;  9.9830200E+02;  1.0000000E-01; -1.4067750E+03;3; -1.5537263E+00;  0.0000000E+00; -1.6900735E-01;0; -1.7348515E-02;  3.9864895E+04;  0.0000000E+00;  6.9904006E-01;  4.0000000E+04;  0.0000000E+00;  3.9998398E+04; -1.8686000E-02;  0.0000000E+00;  1.3374854E-03;  1.0164553E+03;
  2.6179034E-01;  9.9999998E-03; -1.7996968E-01;4044; -3.4798600E-03;  0.0000000E+00; -2.8506594E-04;  9.9842639E+02;  1.0000000E-01; -1.3037162E+03;3; -1.5049651E+00;  0.0000000E+00; -5.7178304E-02;0; -1.6973343E-02;  3.9874645E+04;  0.0000000E+00;  6.8146425E-01;  4.0000000E+04;  0.0000000E+00;  3.9998129E+04; -1.8279977E-02;  0.0000000E+00;  1.3066350E-03;  9.8953345E+02;
  2.6194239E-01;  9.9999998E-03; -1.6997053E-01;4045; -3.5031242E-03;  0.0000000E+00; -2.7166485E-04;  9.9857562E+02;  1.0000000E-01; -1.1800654E+03;3; -1.5060931E+00;  0.0000000E+00; -1.4794901E-02;0; -1.6608201E-02;  3.9886719E+04;  0.0000000E+00;  6.7693812E-01;  4.0000000E+04;  0.0000000E+00;  3.9997457E+04; -1.7909728E-02;  0.0000000E+00;  1.3015276E-03;  9.8877441E+02;
  2.6206103E-01;  9.9999998E-03; -1.5996499E-01;4046; -3.5410102E-03;  0.0000000E+00; -2.4729079E-04;  9.9873578E+02;  1.0000000E-01; -1.0473778E+03;3; -1.5268564E+00;  0.0000000E+00; -7.7358154E-03;0; -1.6246157E-02;  3.9899750E+04;  0.0000000E+00;  6.3684207E-01;  4.0000000E+04;  0.0000000E+00;  3.9997008E+04; -1.7564038E-02;  0.0000000E+00;  1.3178807E-03;  9.5135034E+02;
  2.6211745E-01;  9.9999998E-03; -1.4996107E-01;4047; -3.5849654E-03;  0.0000000E+00; -2.1891772E-04;  9.9889001E+02;  1.0000000E-01; -9.1957892E+02;3; -1.5515951E+00;  0.0000000E+00; -9.6835988E-03;0; -1.5889436E-02;  3.9913129E+04;  0.0000000E+00;  5.5542576E-01;  4.0000000E+04;  0.0000000E+00;  3.9996309E+04; -1.7236076E-02;  0.0000000E+00;  1.3466395E-03;  8.7866827E+02;
  2.6209566E-01;  9.9999998E-03; -1.3996005E-01;4048; -3.6258958E-03;  0.0000000E+00; -1.9277475E-04;  9.9902509E+02;  1.0000000E-01; -8.0768085E+02;3; -1.5754857E+00;  0.0000000E+00; -1.1402832E-02;0; -1.5545948E-02;  3.9925199E+04;  0.0000000E+00;  4.5316255E-01;  4.0000000E+04;  0.0000000E+00;  3.9995570E+04; -1.6924294E-02;  0.0000000E+00;  1.3783457E-03;  8.0830103E+02;
  2.6201341E-01;  9.9999998E-03; -1.2996247E-01;4049; -3.6565822E-03;  0.0000000E+00; -1.7172110E-04;  9.9913635E+02;  1.0000000E-01; -7.1553534E+02;3; -1.5977973E+00;  0.0000000E+00; -1.5321915E-02;0; -1.5226696E-02;  3.9935105E+04;  0.0000000E+00;  3.5082078E-01;  4.0000000E+04;  0.0000000E+00;  3.9994902E+04; -1.6632922E-02;  0.0000000E+00;  1.4062267E-03;  7.6948322E+02;
  2.6191381E-01;  9.9999998E-03; -1.1996927E-01;4050; -3.6731008E-03;  0.0000000E+00; -1.5518663E-04;  9.9921356E+02;  1.0000000E-01; -6.5153711E+02;3; -1.6186606E+00;  0.0000000E+00; -1.6822822E-02;0; -1.4942001E-02;  3.9942297E+04;  0.0000000E+00;  2.6157969E-01;  4.0000000E+04;  0.0000000E+00;  3.9994172E+04; -1.6370006E-02;  0.0000000E+00;  1.4280054E-03;  7.6594025E+02;
  2.6181766E-01;  9.9999998E-03; -1.0997774E-01;4051; -3.6734666E-03;  0.0000000E+00; -1.4391159E-04;  9.9925616E+02;  1.0000000E-01; -6.1622949E+02;3; -1.6382992E+00;  0.0000000E+00; -1.7639874E-02;0; -1.4696171E-02;  3.9946633E+04;  0.0000000E+00;  1.9095051E-01;  4.0000000E+04;  0.0000000E+00;  3.9993957E+04; -1.6142456E-02;  0.0000000E+00;  1.4462852E-03;  7.8240692E+02;
  2.7124870E-01;  9.9999998E-03; -2.6998377E-01;4096; -3.9583547E-03;  0.0000000E+00; -4.8362080E-04;  9.9837311E+02;  1.0000000E-01; -1.3478632E+03;3; -7.3199439E+00;  0.0000000E+00; -1.7466589E+00;0; -2.3166915E-02;  3.9868426E+04;  0.0000000E+00;  4.6366205E+00;  4.0000000E+04;  0.0000000E+00;  4.0015219E+04; -2.5487388E-02;  0.0000000E+00;  2.3204726E-03;  7.6206826E+03;
  2.7119884E-01;  9.9999998E-03; -2.5997818E-01;4097; -4.0213140E-03;  0.0000000E+00; -3.8518145E-04;  9.9840613E+02;  1.0000000E-01; -1.3205059E+03;3; -5.6661577E+00;  0.0000000E+00; -2.5858977E+00;0; -2.2536643E-02;  3.9869703E+04;  0.0000000E+00;  4.4804754E+00;  4.0000000E+04;  0.0000000E+00;  4.0015059E+04; -2.4409279E-02;  0.0000000E+00;  1.8726368E-03;  7.2049683E+03;
  2.7115822E-01;  9.9999998E-03; -2.4996758E-01;4098; -4.0144850E-03;  0.0000000E+00; -3.2967885E-04;  9.9837872E+02;  1.0000000E-01; -1.3432213E+03;3; -4.3916125E+00;  0.0000000E+00; -2.5759687E+00;0; -2.1561194E-02;  3.9865207E+04;  0.0000000E+00;  3.8207233E+00;  4.0000000E+04;  0.0000000E+00;  4.0014758E+04; -2.3399290E-02;  0.0000000E+00;  1.8380946E-03;  6.1327061E+03;
  2.7115750E-01;  9.9999998E-03; -2.3994477E-01;4099; -3.9613424E-03;  0.0000000E+00; -3.5441533E-04;  9.9834338E+02;  1.0000000E-01; -1.3724550E+03;3; -3.3780198E+00;  0.0000000E+00; -2.1631389E+00;0; -2.0378869E-02;  3.9858672E+04;  0.0000000E+00;  2.8180277E+00;  4.0000000E+04;  0.0000000E+00;  4.0016184E+04; -2.2502739E-02;  0.0000000E+00;  2.1238702E-03;  4.7628730E+03;
  2.7121899E-01;  9.9999998E-03; -2.2990635E-01;4100; -3.8879570E-03;  0.0000000E+00; -3.8307148E-04;  9.9832318E+02;  1.0000000E-01; -1.3891953E+03;3; -2.6196609E+00;  0.0000000E+00; -1.5819638E+00;0; -1.9524027E-02;  3.9853035E+04;  0.0000000E+00;  1.9022442E+00;  4.0000000E+04;  0.0000000E+00;  4.0018055E+04; -2.1730930E-02;  0.0000000E+00;  2.2069034E-03;  3.7219170E+03;
  2.7130887E-01;  9.9999998E-03; -2.1989058E-01;4101; -3.8150784E-03;  0.0000000E+00; -3.3532729E-04;  9.9826813E+02;  1.0000000E-01; -1.4348236E+03;3; -2.1298335E+00;  0.0000000E+00; -9.6399665E-01;0; -1.9046038E-02;  3.9851066E+04;  0.0000000E+00;  1.3174883E+00;  4.0000000E+04;  0.0000000E+00;  4.0012918E+04; -2.1072838E-02;  0.0000000E+00;  2.0267991E-03;  2.6669526E+03;
  2.7143002E-01;  9.9999998E-03; -2.0990627E-01;4102; -3.7555851E-03;  0.0000000E+00; -3.1717299E-04;  9.9823767E+02;  1.0000000E-01; -1.4600575E+03;3; -1.8115889E+00;  0.0000000E+00; -5.1931775E-01;0; -1.8584082E-02;  3.9853645E+04;  0.0000000E+00;  1.0011696E+00;  4.0000000E+04;  0.0000000E+00;  4.0006945E+04; -2.0508146E-02;  0.0000000E+00;  1.9240641E-03;  1.7951105E+03;
  2.7157441E-01;  9.9999998E-03; -1.9993098E-01;4103; -3.7155587E-03;  0.0000000E+00; -3.2559931E-04;  9.9829608E+02;  1.0000000E-01; -1.4116638E+03;3; -1.6254267E+00;  0.0000000E+00; -2.4851072E-01;0; -1.8163471E-02;  3.9860395E+04;  0.0000000E+00;  8.6849880E-01;  4.0000000E+04;  0.0000000E+00;  4.0003043E+04; -2.0013629E-02;  0.0000000E+00;  1.8501588E-03;  1.3885015E+03;
  2.7172801E-01;  9.9999998E-03; -1.8994926E-01;4104; -3.6966573E-03;  0.0000000E+00; -3.2969459E-04;  9.9842511E+02;  1.0000000E-01; -1.3047532E+03;3; -1.5413053E+00;  0.0000000E+00; -1.0340631E-01;0; -1.7788054E-02;  3.9871465E+04;  0.0000000E+00;  8.2883519E-01;  4.0000000E+04;  0.0000000E+00;  4.0001684E+04; -1.9569080E-02;  0.0000000E+00;  1.7810260E-03;  1.2581927E+03;
  2.7187365E-01;  9.9999998E-03; -1.7995745E-01;4105; -3.6984792E-03;  0.0000000E+00; -3.1959594E-04;  9.9860132E+02;  1.0000000E-01; -1.1587820E+03;3; -1.5227122E+00;  0.0000000E+00; -3.6738735E-02;0; -1.7429417E-02;  3.9885738E+04;  0.0000000E+00;  8.0658990E-01;  4.0000000E+04;  0.0000000E+00;  4.0001254E+04; -1.9158650E-02;  0.0000000E+00;  1.7292339E-03;  1.1954204E+03;
  2.7199399E-01;  9.9999998E-03; -1.6995747E-01;4106; -3.7177673E-03;  0.0000000E+00; -2.9653512E-04;  9.9879230E+02;  1.0000000E-01; -1.0005643E+03;3; -1.5361241E+00;  0.0000000E+00; -1.7069312E-02;0; -1.7070260E-02;  3.9901504E+04;  0.0000000E+00;  7.5330031E-01;  4.0000000E+04;  0.0000000E+00;  4.0000684E+04; -1.8770738E-02;  0.0000000E+00;  1.7004769E-03;  1.0972257E+03;
  2.7207184E-01;  9.9999998E-03; -1.5995610E-01;4107; -3.7483079E-03;  0.0000000E+00; -2.6685192E-04;  9.9898206E+02;  1.0000000E-01; -8.4333417E+02;3; -1.5603890E+00;  0.0000000E+00; -1.5611754E-02;0; -1.6707303E-02;  3.9917750E+04;  0.0000000E+00;  6.5557361E-01;  4.0000000E+04;  0.0000000E+00;  3.9999492E+04; -1.8398469E-02;  0.0000000E+00;  1.6911660E-03;  9.4182483E+02;
  2.7209720E-01;  9.9999998E-03; -1.4995827E-01;4108; -3.7821995E-03;  0.0000000E+00; -2.3674585E-04;  9.9915283E+02;  1.0000000E-01; -7.0185669E+02;3; -1.5855042E+00;  0.0000000E+00; -1.7775863E-02;0; -1.6346302E-02;  3.9932516E+04;  0.0000000E+00;  5.2983648E-01;  4.0000000E+04;  0.0000000E+00;  3.9998680E+04; -1.8040361E-02;  0.0000000E+00;  1.6940595E-03;  7.6233521E+02;
  2.7206364E-01;  9.9999998E-03; -1.3996246E-01;4109; -3.8115813E-03;  0.0000000E+00; -2.1029051E-04;  9.9928644E+02;  1.0000000E-01; -5.9119318E+02;3; -1.6096205E+00;  0.0000000E+00; -2.0754842E-02;0; -1.5996916E-02;  3.9944871E+04;  0.0000000E+00;  4.0116814E-01;  4.0000000E+04;  0.0000000E+00;  3.9997938E+04; -1.7698837E-02;  0.0000000E+00;  1.7019219E-03;  6.1118286E+02;
  2.7198684E-01;  9.9999998E-03; -1.2996757E-01;4110; -3.8308634E-03;  0.0000000E+00; -1.8831763E-04;  9.9937439E+02;  1.0000000E-01; -5.1830634E+02;3; -1.6320894E+00;  0.0000000E+00; -2.2654312E-02;0; -1.5670976E-02;  3.9953164E+04;  0.0000000E+00;  2.8674340E-01;  4.0000000E+04;  0.0000000E+00;  3.9997102E+04; -1.7380660E-02;  0.0000000E+00;  1.7096845E-03;  5.2761285E+02;
  2.7189419E-01;  9.9999998E-03; -1.1997399E-01;4111; -3.8368101E-03;  0.0000000E+00; -1.7242812E-04;  9.9942242E+02;  1.0000000E-01; -4.7850497E+02;3; -1.6533656E+00;  0.0000000E+00; -2.2751268E-02;0; -1.5379302E-02;  3.9957859E+04;  0.0000000E+00;  1.9558741E-01;  4.0000000E+04;  0.0000000E+00;  3.9996379E+04; -1.7095013E-02;  0.0000000E+00;  1.7157106E-03;  5.1318781E+02;
  2.7181041E-01;  9.9999998E-03; -1.0998110E-01;4112; -3.8285640E-03;  0.0000000E+00; -1.6186926E-04;  9.9942419E+02;  1.0000000E-01; -4.7702356E+02;3; -1.6732923E+00;  0.0000000E+00; -2.2654036E-02;0; -1.5127792E-02;  3.9958699E+04;  0.0000000E+00;  1.2939326E-01;  4.0000000E+04;  0.0000000E+00;  3.9995637E+04; -1.6851136E-02;  0.0000000E+00;  1.7233446E-03;  5.3149823E+02;
  2.8115791E-01;  9.9999998E-03; -2.6997596E-01;4157; -4.2604674E-03;  0.0000000E+00; -6.0766190E-04;  9.9861517E+02;  1.0000000E-01; -1.1473256E+03;3; -6.3734827E+00;  0.0000000E+00; -1.9380738E+00;0; -2.2532355E-02;  3.9887855E+04;  0.0000000E+00;  3.6179829E+00;  4.0000000E+04;  0.0000000E+00;  4.0015605E+04; -2.5713388E-02;  0.0000000E+00;  3.1810324E-03;  6.0331001E+03;
  2.8113362E-01;  9.9999998E-03; -2.5997028E-01;4158; -4.2810668E-03;  0.0000000E+00; -5.0174061E-04;  9.9854199E+02;  1.0000000E-01; -1.2079165E+03;3; -4.8463297E+00;  0.0000000E+00; -2.1825099E+00;0; -2.2146894E-02;  3.9879781E+04;  0.0000000E+00;  3.1179755E+00;  4.0000000E+04;  0.0000000E+00;  4.0016094E+04; -2.4759499E-02;  0.0000000E+00;  2.6126057E-03;  5.2627021E+03;
  2.8113964E-01;  9.9999998E-03; -2.4996023E-01;4159; -4.2513241E-03;  0.0000000E+00; -4.4924588E-04;  9.9844696E+02;  1.0000000E-01; -1.2866797E+03;3; -3.7054591E+00;  0.0000000E+00; -1.9520303E+00;0; -2.1323541E-02;  3.9869336E+04;  0.0000000E+00;  2.3794043E+00;  4.0000000E+04;  0.0000000E+00;  4.0016309E+04; -2.3885759E-02;  0.0000000E+00;  2.5622181E-03;  4.2436763E+03;
  2.8119108E-01;  9.9999998E-03; -2.3993970E-01;4160; -4.1909693E-03;  0.0000000E+00; -4.7384680E-04;  9.9838922E+02;  1.0000000E-01; -1.3344808E+03;3; -2.8575974E+00;  0.0000000E+00; -1.5282967E+00;0; -2.0298008E-02;  3.9860379E+04;  0.0000000E+00;  1.6760156E+00;  4.0000000E+04;  0.0000000E+00;  4.0018148E+04; -2.3113152E-02;  0.0000000E+00;  2.8151451E-03;  3.5004480E+03;
  2.8128690E-01;  9.9999998E-03; -2.2990894E-01;4161; -4.1201883E-03;  0.0000000E+00; -4.8160291E-04;  9.9836841E+02;  1.0000000E-01; -1.3517643E+03;3; -2.2703958E+00;  0.0000000E+00; -1.0513450E+00;0; -1.9644098E-02;  3.9855328E+04;  0.0000000E+00;  1.2112386E+00;  4.0000000E+04;  0.0000000E+00;  4.0019414E+04; -2.2441257E-02;  0.0000000E+00;  2.7971577E-03;  3.1429893E+03;
  2.8139257E-01;  9.9999998E-03; -2.1990199E-01;4162; -4.0538632E-03;  0.0000000E+00; -4.1481931E-04;  9.9833154E+02;  1.0000000E-01; -1.3822819E+03;3; -1.9110463E+00;  0.0000000E+00; -6.1201823E-01;0; -1.9301316E-02;  3.9855285E+04;  0.0000000E+00;  9.9286699E-01;  4.0000000E+04;  0.0000000E+00;  4.0014230E+04; -2.1856304E-02;  0.0000000E+00;  2.5549880E-03;  2.4454148E+03;
  2.8152287E-01;  9.9999998E-03; -2.0991920E-01;4163; -3.9994526E-03;  0.0000000E+00; -3.8927351E-04;  9.9835229E+02;  1.0000000E-01; -1.3650972E+03;3; -1.6944127E+00;  0.0000000E+00; -3.1776389E-01;0; -1.8910166E-02;  3.9861035E+04;  0.0000000E+00;  9.1049701E-01;  4.0000000E+04;  0.0000000E+00;  4.0008562E+04; -2.1340519E-02;  0.0000000E+00;  2.4303540E-03;  1.8375334E+03;
  2.8166327E-01;  9.9999998E-03; -1.9994049E-01;4164; -3.9616092E-03;  0.0000000E+00; -3.8788570E-04;  9.9846222E+02;  1.0000000E-01; -1.2740381E+03;3; -1.5819036E+00;  0.0000000E+00; -1.4871581E-01;0; -1.8539295E-02;  3.9871918E+04;  0.0000000E+00;  8.9220566E-01;  4.0000000E+04;  0.0000000E+00;  4.0005492E+04; -2.0874061E-02;  0.0000000E+00;  2.3347661E-03;  1.5701437E+03;
  2.8179759E-01;  9.9999998E-03; -1.8995523E-01;4165; -3.9420244E-03;  0.0000000E+00; -3.8103102E-04;  9.9864526E+02;  1.0000000E-01; -1.1223881E+03;3; -1.5432054E+00;  0.0000000E+00; -6.3162908E-02;0; -1.8196272E-02;  3.9886852E+04;  0.0000000E+00;  8.7662262E-01;  4.0000000E+04;  0.0000000E+00;  4.0004504E+04; -2.0440072E-02;  0.0000000E+00;  2.2437996E-03;  1.4537808E+03;
  2.8191116E-01;  9.9999998E-03; -1.7996055E-01;4166; -3.9404985E-03;  0.0000000E+00; -3.5948804E-04;  9.9886298E+02;  1.0000000E-01; -9.4199805E+02;3; -1.5465475E+00;  0.0000000E+00; -3.1946249E-02;0; -1.7857132E-02;  3.9904602E+04;  0.0000000E+00;  8.2420093E-01;  4.0000000E+04;  0.0000000E+00;  4.0003820E+04; -2.0025974E-02;  0.0000000E+00;  2.1688410E-03;  1.3288422E+03;
  2.8198570E-01;  9.9999998E-03; -1.6996107E-01;4167; -3.9528785E-03;  0.0000000E+00; -3.2865629E-04;  9.9908521E+02;  1.0000000E-01; -7.5790448E+02;3; -1.5676501E+00;  0.0000000E+00; -2.4468094E-02;0; -1.7508568E-02;  3.9923516E+04;  0.0000000E+00;  7.2205806E-01;  4.0000000E+04;  0.0000000E+00;  4.0003246E+04; -1.9623715E-02;  0.0000000E+00;  2.1151472E-03;  1.1376277E+03;
  2.8202245E-01;  9.9999998E-03; -1.5996267E-01;4168; -3.9735604E-03;  0.0000000E+00; -2.9477265E-04;  9.9929120E+02;  1.0000000E-01; -5.8724268E+02;3; -1.5932546E+00;  0.0000000E+00; -2.5335634E-02;0; -1.7151840E-02;  3.9941219E+04;  0.0000000E+00;  5.8326960E-01;  4.0000000E+04;  0.0000000E+00;  4.0001844E+04; -1.9231701E-02;  0.0000000E+00;  2.0798612E-03;  8.9354773E+02;
  2.8202206E-01;  9.9999998E-03; -1.4996789E-01;4169; -3.9956192E-03;  0.0000000E+00; -2.6258425E-04;  9.9945752E+02;  1.0000000E-01; -4.4941940E+02;3; -1.6187073E+00;  0.0000000E+00; -2.6800452E-02;0; -1.6794726E-02;  3.9956359E+04;  0.0000000E+00;  4.3463755E-01;  4.0000000E+04;  0.0000000E+00;  4.0000895E+04; -1.8852443E-02;  0.0000000E+00;  2.0577167E-03;  6.4046515E+02;
  2.8198397E-01;  9.9999998E-03; -1.3997355E-01;4170; -4.0125465E-03;  0.0000000E+00; -2.3485237E-04;  9.9957996E+02;  1.0000000E-01; -3.4799014E+02;3; -1.6428379E+00;  0.0000000E+00; -2.8280517E-02;0; -1.6447710E-02;  3.9967488E+04;  0.0000000E+00;  2.9794207E-01;  4.0000000E+04;  0.0000000E+00;  3.9999844E+04; -1.8491531E-02;  0.0000000E+00;  2.0438212E-03;  4.2554700E+02;
  2.8191724E-01;  9.9999998E-03; -1.2997787E-01;4171; -4.0199687E-03;  0.0000000E+00; -2.1265972E-04;  9.9964130E+02;  1.0000000E-01; -2.9717679E+02;3; -1.6655989E+00;  0.0000000E+00; -2.9100267E-02;0; -1.6122488E-02;  3.9973680E+04;  0.0000000E+00;  1.8588705E-01;  4.0000000E+04;  0.0000000E+00;  3.9998688E+04; -1.8157015E-02;  0.0000000E+00;  2.0345268E-03;  2.9950620E+02;
  2.8184524E-01;  9.9999998E-03; -1.1998250E-01;4172; -4.0157177E-03;  0.0000000E+00; -1.9677397E-04;  9.9964948E+02;  1.0000000E-01; -2.9041153E+02;3; -1.6872487E+00;  0.0000000E+00; -2.8787266E-02;0; -1.5830645E-02;  3.9975168E+04;  0.0000000E+00;  1.0353015E-01;  4.0000000E+04;  0.0000000E+00;  3.9997816E+04; -1.7859500E-02;  0.0000000E+00;  2.0288543E-03;  2.8351303E+02;
  2.8178287E-01;  9.9999998E-03; -1.0998655E-01;4173; -3.9997092E-03;  0.0000000E+00; -1.8617921E-04;  9.9960986E+02;  1.0000000E-01; -3.2320074E+02;3; -1.7076914E+00;  0.0000000E+00; -2.8451018E-02;0; -1.5578652E-02;  3.9972590E+04;  0.0000000E+00;  4.9525384E-02;  4.0000000E+04;  0.0000000E+00;  3.9997203E+04; -1.7608646E-02;  0.0000000E+00;  2.0299940E-03;  3.1155826E+02;
  2.9108524E-01;  9.9999998E-03; -2.6997158E-01;4218; -4.5649167E-03;  0.0000000E+00; -7.2093896E-04;  9.9870966E+02;  1.0000000E-01; -1.0690068E+03;3; -5.0735593E+00;  0.0000000E+00; -1.6683184E+00;0; -2.2018619E-02;  3.9895297E+04;  0.0000000E+00;  2.3990223E+00;  4.0000000E+04;  0.0000000E+00;  4.0015656E+04; -2.5881950E-02;  0.0000000E+00;  3.8633316E-03;  4.2818110E+03;
  2.9110795E-01;  9.9999998E-03; -2.5996664E-01;4219; -4.5485054E-03;  0.0000000E+00; -6.1388768E-04;  9.9858392E+02;  1.0000000E-01; -1.1732014E+03;3; -3.8700037E+00;  0.0000000E+00; -1.6158652E+00;0; -2.1797292E-02;  3.9882719E+04;  0.0000000E+00;  1.7422763E+00;  4.0000000E+04;  0.0000000E+00;  4.0016352E+04; -2.5068520E-02;  0.0000000E+00;  3.2712270E-03;  3.4811572E+03;
  2.9118446E-01;  9.9999998E-03; -2.4995846E-01;4220; -4.5015872E-03;  0.0000000E+00; -5.6494493E-04;  9.9846985E+02;  1.0000000E-01; -1.2677173E+03;3; -2.9959443E+00;  0.0000000E+00; -1.3288156E+00;0; -2.1099173E-02;  3.9870840E+04;  0.0000000E+00;  1.1413565E+00;  4.0000000E+04;  0.0000000E+00;  4.0016641E+04; -2.4333373E-02;  0.0000000E+00;  3.2342002E-03;  2.8746414E+03;
  2.9127201E-01;  9.9999998E-03; -2.3994280E-01;4221; -4.4379923E-03;  0.0000000E+00; -5.8391440E-04;  9.9842657E+02;  1.0000000E-01; -1.3035681E+03;3; -2.3818209E+00;  0.0000000E+00; -9.7531527E-01;0; -2.0234741E-02;  3.9863328E+04;  0.0000000E+00;  8.7606579E-01;  4.0000000E+04;  0.0000000E+00;  4.0018277E+04; -2.3679703E-02;  0.0000000E+00;  3.4449613E-03;  2.7828596E+03;
  2.9136774E-01;  9.9999998E-03; -2.2992130E-01;4222; -4.3715034E-03;  0.0000000E+00; -5.7723513E-04;  9.9843518E+02;  1.0000000E-01; -1.2964078E+03;3; -1.9796337E+00;  0.0000000E+00; -6.3707900E-01;0; -1.9738674E-02;  3.9861160E+04;  0.0000000E+00;  8.0159998E-01;  4.0000000E+04;  0.0000000E+00;  4.0018883E+04; -2.3100095E-02;  0.0000000E+00;  3.3614209E-03;  2.7836123E+03;
  2.9147696E-01;  9.9999998E-03; -2.1992020E-01;4223; -4.3116114E-03;  0.0000000E+00; -5.0689862E-04;  9.9844867E+02;  1.0000000E-01; -1.2852476E+03;3; -1.7451526E+00;  0.0000000E+00; -3.5826007E-01;0; -1.9487135E-02;  3.9864793E+04;  0.0000000E+00;  8.1546247E-01;  4.0000000E+04;  0.0000000E+00;  4.0014645E+04; -2.2582686E-02;  0.0000000E+00;  3.0955498E-03;  2.3086360E+03;
  2.9159760E-01;  9.9999998E-03; -2.0993763E-01;4224; -4.2615123E-03;  0.0000000E+00; -4.7483362E-04;  9.9852747E+02;  1.0000000E-01; -1.2199655E+03;3; -1.6178356E+00;  0.0000000E+00; -1.8331327E-01;0; -1.9165605E-02;  3.9874160E+04;  0.0000000E+00;  8.5348064E-01;  4.0000000E+04;  0.0000000E+00;  4.0010453E+04; -2.2111924E-02;  0.0000000E+00;  2.9463181E-03;  1.8763025E+03;
  2.9171747E-01;  9.9999998E-03; -1.9995672E-01;4225; -4.2245020E-03;  0.0000000E+00; -4.6235815E-04;  9.9869012E+02;  1.0000000E-01; -1.0852039E+03;3; -1.5641401E+00;  0.0000000E+00; -9.0679862E-02;0; -1.8846143E-02;  3.9888734E+04;  0.0000000E+00;  8.6922866E-01;  4.0000000E+04;  0.0000000E+00;  4.0007941E+04; -2.1671847E-02;  0.0000000E+00;  2.8257028E-03;  1.6707606E+03;
  2.9182568E-01;  9.9999998E-03; -1.8996802E-01;4226; -4.2031799E-03;  0.0000000E+00; -4.4129847E-04;  9.9891400E+02;  1.0000000E-01; -8.9972766E+02;3; -1.5576732E+00;  0.0000000E+00; -4.9235631E-02;0; -1.8538343E-02;  3.9907223E+04;  0.0000000E+00;  8.3403516E-01;  4.0000000E+04;  0.0000000E+00;  4.0006910E+04; -2.1249691E-02;  0.0000000E+00;  2.7113489E-03;  1.5303384E+03;
  2.9189798E-01;  9.9999998E-03; -1.7997283E-01;4227; -4.1961418E-03;  0.0000000E+00; -4.0937404E-04;  9.9915955E+02;  1.0000000E-01; -6.9627661E+02;3; -1.5741483E+00;  0.0000000E+00; -3.6928717E-02;0; -1.8221606E-02;  3.9927613E+04;  0.0000000E+00;  7.4046129E-01;  4.0000000E+04;  0.0000000E+00;  4.0006098E+04; -2.0835768E-02;  0.0000000E+00;  2.6141633E-03;  1.3393248E+03;
  2.9193032E-01;  9.9999998E-03; -1.6997381E-01;4228; -4.1998546E-03;  0.0000000E+00; -3.7204035E-04;  9.9939783E+02;  1.0000000E-01; -4.9889948E+02;3; -1.5990844E+00;  0.0000000E+00; -3.5427108E-02;0; -1.7889224E-02;  3.9947652E+04;  0.0000000E+00;  6.0144961E-01;  4.0000000E+04;  0.0000000E+00;  4.0005031E+04; -2.0426478E-02;  0.0000000E+00;  2.5372533E-03;  1.0835609E+03;
  2.9193524E-01;  9.9999998E-03; -1.5997706E-01;4229; -4.2093974E-03;  0.0000000E+00; -3.3410380E-04;  9.9960541E+02;  1.0000000E-01; -3.2690433E+02;3; -1.6251949E+00;  0.0000000E+00; -3.5323557E-02;0; -1.7545810E-02;  3.9965516E+04;  0.0000000E+00;  4.4378695E-01;  4.0000000E+04;  0.0000000E+00;  4.0003555E+04; -2.0024288E-02;  0.0000000E+00;  2.4784792E-03;  7.9385254E+02;
  2.9191750E-01;  9.9999998E-03; -1.4998259E-01;4230; -4.2187455E-03;  0.0000000E+00; -2.9929975E-04;  9.9975958E+02;  1.0000000E-01; -1.9920424E+02;3; -1.6506693E+00;  0.0000000E+00; -3.7025683E-02;0; -1.7200127E-02;  3.9979918E+04;  0.0000000E+00;  2.9314664E-01;  4.0000000E+04;  0.0000000E+00;  4.0002066E+04; -1.9634726E-02;  0.0000000E+00;  2.4345990E-03;  5.0998383E+02;
  2.9187676E-01;  9.9999998E-03; -1.3998765E-01;4231; -4.2228354E-03;  0.0000000E+00; -2.7026210E-04;  9.9984979E+02;  1.0000000E-01; -1.2444093E+02;3; -1.6749777E+00;  0.0000000E+00; -3.7067667E-02;0; -1.6862061E-02;  3.9989086E+04;  0.0000000E+00;  1.6500495E-01;  4.0000000E+04;  0.0000000E+00;  4.0000934E+04; -1.9264949E-02;  0.0000000E+00;  2.4028879E-03;  2.6348062E+02;
  2.9182220E-01;  9.9999998E-03; -1.2999098E-01;4232; -4.2186831E-03;  0.0000000E+00; -2.4744438E-04;  9.9988306E+02;  1.0000000E-01; -9.6886147E+01;3; -1.6981869E+00;  0.0000000E+00; -3.6655281E-02;0; -1.6543370E-02;  3.9992691E+04;  0.0000000E+00;  6.7791857E-02;  4.0000000E+04;  0.0000000E+00;  3.9999656E+04; -1.8924501E-02;  0.0000000E+00;  2.3811318E-03;  9.9341545E+01;
  2.9176882E-01;  9.9999998E-03; -1.1999303E-01;4233; -4.2050774E-03;  0.0000000E+00; -2.3081442E-04;  9.9985297E+02;  1.0000000E-01; -1.2182372E+02;3; -1.7202891E+00;  0.0000000E+00; -3.5820488E-02;0; -1.6255785E-02;  3.9991449E+04;  0.0000000E+00;  3.1346292E-03;  4.0000000E+04;  0.0000000E+00;  3.9999027E+04; -1.8624330E-02;  0.0000000E+00;  2.3685454E-03;  1.2045728E+02;
  2.9172590E-01;  9.9999998E-03; -1.0999277E-01;4234; -4.1825376E-03;  0.0000000E+00; -2.1917629E-04;  9.9977881E+02;  1.0000000E-01; -1.8325407E+02;3; -1.7412844E+00;  0.0000000E+00; -3.5340559E-02;0; -1.6006323E-02;  3.9985754E+04;  0.0000000E+00; -3.2613128E-02;  4.0000000E+04;  0.0000000E+00;  3.9998734E+04; -1.8374203E-02;  0.0000000E+00;  2.3678809E-03;  1.7075229E+02;
  3.0107421E-01;  9.9999998E-03; -2.6996988E-01;4279; -4.8556514E-03;  0.0000000E+00; -8.2732143E-04;  9.9868842E+02;  1.0000000E-01; -1.0866360E+03;3; -3.7902408E+00;  0.0000000E+00; -1.2089440E+00;0; -2.1618828E-02;  3.9892621E+04;  0.0000000E+00;  1.0112075E+00;  4.0000000E+04;  0.0000000E+00;  4.0015898E+04; -2.5986547E-02;  0.0000000E+00;  4.3677194E-03;  2.6455352E+03;
  3.0111846E-01;  9.9999998E-03; -2.5996652E-01;4280; -4.8112990E-03;  0.0000000E+00; -7.2185020E-04;  9.9856915E+02;  1.0000000E-01; -1.1854480E+03;3; -2.9756129E+00;  0.0000000E+00; -1.0605938E+00;0; -2.1500355E-02;  3.9880703E+04;  0.0000000E+00;  7.3251444E-01;  4.0000000E+04;  0.0000000E+00;  4.0016355E+04; -2.5319017E-02;  0.0000000E+00;  3.8186635E-03;  2.4639553E+03;
  3.0122721E-01;  9.9999998E-03; -2.4996130E-01;4281; -4.7549913E-03;  0.0000000E+00; -6.7652552E-04;  9.9848413E+02;  1.0000000E-01; -1.2558657E+03;3; -2.3979435E+00;  0.0000000E+00; -8.1705952E-01;0; -2.0891709E-02;  3.9871461E+04;  0.0000000E+00;  5.1043296E-01;  4.0000000E+04;  0.0000000E+00;  4.0016770E+04; -2.4715068E-02;  0.0000000E+00;  3.8233586E-03;  2.3599814E+03;
  3.0133492E-01;  9.9999998E-03; -2.3995151E-01;4282; -4.6928264E-03;  0.0000000E+00; -6.8407529E-04;  9.9846771E+02;  1.0000000E-01; -1.2694950E+03;3; -2.0090880E+00;  0.0000000E+00; -5.6761104E-01;0; -2.0186823E-02;  3.9867508E+04;  0.0000000E+00;  5.2868170E-01;  4.0000000E+04;  0.0000000E+00;  4.0017688E+04; -2.4169769E-02;  0.0000000E+00;  3.9829472E-03;  2.4571345E+03;
  3.0143648E-01;  9.9999998E-03; -2.2993876E-01;4283; -4.6322099E-03;  0.0000000E+00; -6.7020796E-04;  9.9851593E+02;  1.0000000E-01; -1.2295455E+03;3; -1.7686136E+00;  0.0000000E+00; -3.5599160E-01;0; -1.9794691E-02;  3.9869234E+04;  0.0000000E+00;  6.3453209E-01;  4.0000000E+04;  0.0000000E+00;  4.0017617E+04; -2.3674121E-02;  0.0000000E+00;  3.8794305E-03;  2.5140627E+03;
  3.0153745E-01;  9.9999998E-03; -2.1994230E-01;4284; -4.5780009E-03;  0.0000000E+00; -6.0686463E-04;  9.9858789E+02;  1.0000000E-01; -1.1698928E+03;3; -1.6386647E+00;  0.0000000E+00; -2.0238927E-01;0; -1.9595277E-02;  3.9876922E+04;  0.0000000E+00;  7.3774385E-01;  4.0000000E+04;  0.0000000E+00;  4.0014324E+04; -2.3217719E-02;  0.0000000E+00;  3.6224425E-03;  2.1745701E+03;
  3.0164027E-01;  9.9999998E-03; -2.0995966E-01;4285; -4.5312084E-03;  0.0000000E+00; -5.7034480E-04;  9.9872412E+02;  1.0000000E-01; -1.0570565E+03;3; -1.5802692E+00;  0.0000000E+00; -1.0976464E-01;0; -1.9335911E-02;  3.9890191E+04;  0.0000000E+00;  7.9498547E-01;  4.0000000E+04;  0.0000000E+00;  4.0010566E+04; -2.2788526E-02;  0.0000000E+00;  3.4526151E-03;  1.8480901E+03;
  3.0173576E-01;  9.9999998E-03; -1.9997557E-01;4286; -4.4946163E-03;  0.0000000E+00; -5.4608000E-04;  9.9893390E+02;  1.0000000E-01; -8.8323425E+02;3; -1.5675262E+00;  0.0000000E+00; -6.6873677E-02;0; -1.9066924E-02;  3.9907844E+04;  0.0000000E+00;  7.8683823E-01;  4.0000000E+04;  0.0000000E+00;  4.0009145E+04; -2.2374690E-02;  0.0000000E+00;  3.3077660E-03;  1.6611215E+03;
  3.0180779E-01;  9.9999998E-03; -1.8998443E-01;4287; -4.4698892E-03;  0.0000000E+00; -5.1302271E-04;  9.9918628E+02;  1.0000000E-01; -6.7415375E+02;3; -1.5796937E+00;  0.0000000E+00; -5.2880839E-02;0; -1.8793849E-02;  3.9928555E+04;  0.0000000E+00;  7.1072865E-01;  4.0000000E+04;  0.0000000E+00;  4.0007914E+04; -2.1966690E-02;  0.0000000E+00;  3.1728416E-03;  1.4805460E+03;
  3.0184358E-01;  9.9999998E-03; -1.7998877E-01;4288; -4.4563999E-03;  0.0000000E+00; -4.7211806E-04;  9.9944623E+02;  1.0000000E-01; -4.5880185E+02;3; -1.6035335E+00;  0.0000000E+00; -4.7862865E-02;0; -1.8502517E-02;  3.9950074E+04;  0.0000000E+00;  5.8114386E-01;  4.0000000E+04;  0.0000000E+00;  4.0006754E+04; -2.1559186E-02;  0.0000000E+00;  3.0566694E-03;  1.2404645E+03;
  3.0184656E-01;  9.9999998E-03; -1.6998999E-01;4289; -4.4507538E-03;  0.0000000E+00; -4.2830026E-04;  9.9968042E+02;  1.0000000E-01; -2.6478262E+02;3; -1.6300310E+00;  0.0000000E+00; -4.7301814E-02;0; -1.8191632E-02;  3.9970453E+04;  0.0000000E+00;  4.2478395E-01;  4.0000000E+04;  0.0000000E+00;  4.0005523E+04; -2.1152139E-02;  0.0000000E+00;  2.9605071E-03;  9.5465582E+02;
  3.0183008E-01;  9.9999998E-03; -1.5999292E-01;4290; -4.4483761E-03;  0.0000000E+00; -3.8641674E-04;  9.9987231E+02;  1.0000000E-01; -1.0577479E+02;3; -1.6560458E+00;  0.0000000E+00; -4.8377518E-02;0; -1.7867539E-02;  3.9987547E+04;  0.0000000E+00;  2.6950550E-01;  4.0000000E+04;  0.0000000E+00;  4.0004461E+04; -2.0750402E-02;  0.0000000E+00;  2.8828634E-03;  6.5749377E+02;
  3.0180100E-01;  9.9999998E-03; -1.4999764E-01;4291; -4.4448511E-03;  0.0000000E+00; -3.4938520E-04;  1.0000065E+03;  1.0000000E-01;  5.3331823E+00;3; -1.6813684E+00;  0.0000000E+00; -4.6972800E-02;0; -1.7538678E-02;  3.9999965E+04;  0.0000000E+00;  1.3323270E-01;  4.0000000E+04;  0.0000000E+00;  4.0002707E+04; -2.0361168E-02;  0.0000000E+00;  2.8224909E-03;  3.8170758E+02;
  3.0176196E-01;  9.9999998E-03; -1.4000121E-01;4292; -4.4367425E-03;  0.0000000E+00; -3.1901099E-04;  1.0000688E+03;  1.0000000E-01;  5.7084805E+01;3; -1.7062520E+00;  0.0000000E+00; -4.5838878E-02;0; -1.7214406E-02;  4.0006578E+04;  0.0000000E+00;  2.6296962E-02;  4.0000000E+04;  0.0000000E+00;  4.0001328E+04; -1.9993074E-02;  0.0000000E+00;  2.7786670E-03;  1.5665668E+02;
  3.0172113E-01;  9.9999998E-03; -1.3000274E-01;4293; -4.4220476E-03;  0.0000000E+00; -2.9506983E-04;  1.0000674E+03;  1.0000000E-01;  5.5800892E+01;3; -1.7300259E+00;  0.0000000E+00; -4.4404037E-02;0; -1.6906183E-02;  4.0007848E+04;  0.0000000E+00; -4.6909705E-02;  4.0000000E+04;  0.0000000E+00;  4.0000000E+04; -1.9656455E-02;  0.0000000E+00;  2.7502717E-03;  6.8914879E+01;
  3.0168781E-01;  9.9999998E-03; -1.2000216E-01;4294; -4.4004396E-03;  0.0000000E+00; -2.7682463E-04;  1.0000104E+03;  1.0000000E-01;  8.5923500E+00;3; -1.7526362E+00;  0.0000000E+00; -4.3934826E-02;0; -1.6625559E-02;  4.0004312E+04;  0.0000000E+00; -8.7751582E-02;  4.0000000E+04;  0.0000000E+00;  3.9999434E+04; -1.9362090E-02;  0.0000000E+00;  2.7365310E-03;  1.4005952E+02;
  3.0166900E-01;  9.9999998E-03; -1.0999911E-01;4295; -4.3730116E-03;  0.0000000E+00; -2.6294184E-04;  9.9991260E+02;  1.0000000E-01; -7.2393013E+01;3; -1.7742530E+00;  0.0000000E+00; -4.2028368E-02;0; -1.6380159E-02;  3.9996176E+04;  0.0000000E+00; -1.0170577E-01;  4.0000000E+04;  0.0000000E+00;  3.9999234E+04; -1.9119654E-02;  0.0000000E+00;  2.7394940E-03;  1.6493889E+02;
  3.1109774E-01;  9.9999998E-03; -2.6997027E-01;4340; -5.1239966E-03;  0.0000000E+00; -9.3414920E-04;  9.9860400E+02;  1.0000000E-01; -1.1565599E+03;3; -2.7710023E+00;  0.0000000E+00; -7.5876057E-01;0; -2.1274827E-02;  3.9884914E+04;  0.0000000E+00;  1.7537667E-01;  4.0000000E+04;  0.0000000E+00;  4.0015602E+04; -2.6039839E-02;  0.0000000E+00;  4.7650109E-03;  2.1322993E+03;
  3.1115258E-01;  9.9999998E-03; -2.5996879E-01;4341; -5.0663315E-03;  0.0000000E+00; -8.3090767E-04;  9.9852228E+02;  1.0000000E-01; -1.2242617E+03;3; -2.2954588E+00;  0.0000000E+00; -6.2562060E-01;0; -2.1224655E-02;  3.9876363E+04;  0.0000000E+00;  2.4551906E-01;  4.0000000E+04;  0.0000000E+00;  4.0016305E+04; -2.5510680E-02;  0.0000000E+00;  4.2860247E-03;  2.1818979E+03;
  3.1128258E-01;  9.9999998E-03; -2.4996674E-01;4342; -5.0081867E-03;  0.0000000E+00; -7.8358909E-04;  9.9848254E+02;  1.0000000E-01; -1.2571990E+03;3; -1.9677447E+00;  0.0000000E+00; -4.6001062E-01;0; -2.0713501E-02;  3.9871562E+04;  0.0000000E+00;  2.9478955E-01;  4.0000000E+04;  0.0000000E+00;  4.0015684E+04; -2.5023919E-02;  0.0000000E+00;  4.3104189E-03;  2.1848630E+03;
  3.1140825E-01;  9.9999998E-03; -2.3996302E-01;4343; -4.9496470E-03;  0.0000000E+00; -7.7682146E-04;  9.9851135E+02;  1.0000000E-01; -1.2332985E+03;3; -1.7589279E+00;  0.0000000E+00; -3.1138033E-01;0; -2.0148411E-02;  3.9872047E+04;  0.0000000E+00;  4.4094074E-01;  4.0000000E+04;  0.0000000E+00;  4.0015656E+04; -2.4573563E-02;  0.0000000E+00;  4.4251513E-03;  2.2296792E+03;
  3.1150323E-01;  9.9999998E-03; -2.2995877E-01;4344; -4.8950519E-03;  0.0000000E+00; -7.5811055E-04;  9.9860297E+02;  1.0000000E-01; -1.1573994E+03;3; -1.6410939E+00;  0.0000000E+00; -1.9687964E-01;0; -1.9819601E-02;  3.9878320E+04;  0.0000000E+00;  5.9408301E-01;  4.0000000E+04;  0.0000000E+00;  4.0015559E+04; -2.4151118E-02;  0.0000000E+00;  4.3315184E-03;  2.2397134E+03;
  3.1158513E-01;  9.9999998E-03; -2.1996693E-01;4345; -4.8453049E-03;  0.0000000E+00; -7.0547336E-04;  9.9872968E+02;  1.0000000E-01; -1.0524641E+03;3; -1.5876557E+00;  0.0000000E+00; -1.2203188E-01;0; -1.9641062E-02;  3.9889977E+04;  0.0000000E+00;  6.8795633E-01;  4.0000000E+04;  0.0000000E+00;  4.0012734E+04; -2.3748737E-02;  0.0000000E+00;  4.1076741E-03;  1.9761794E+03;
  3.1166014E-01;  9.9999998E-03; -2.0998311E-01;4346; -4.8004701E-03;  0.0000000E+00; -6.7065004E-04;  9.9891437E+02;  1.0000000E-01; -8.9943134E+02;3; -1.5740556E+00;  0.0000000E+00; -8.3734669E-02;0; -1.9424481E-02;  3.9906258E+04;  0.0000000E+00;  7.0572525E-01;  4.0000000E+04;  0.0000000E+00;  4.0010121E+04; -2.3357835E-02;  0.0000000E+00;  3.9333538E-03;  1.7243550E+03;
  3.1172016E-01;  9.9999998E-03; -1.9999550E-01;4347; -4.7629708E-03;  0.0000000E+00; -6.3766749E-04;  9.9915649E+02;  1.0000000E-01; -6.9884442E+02;3; -1.5844477E+00;  0.0000000E+00; -6.8358958E-02;0; -1.9199461E-02;  3.9926211E+04;  0.0000000E+00;  6.4902782E-01;  4.0000000E+04;  0.0000000E+00;  4.0008812E+04; -2.2970216E-02;  0.0000000E+00;  3.7707565E-03;  1.5415864E+03;
  3.1175485E-01;  9.9999998E-03; -1.9000199E-01;4348; -4.7342288E-03;  0.0000000E+00; -5.9528789E-04;  9.9941968E+02;  1.0000000E-01; -4.8077652E+02;3; -1.6068246E+00;  0.0000000E+00; -6.2517546E-02;0; -1.8959833E-02;  3.9947754E+04;  0.0000000E+00;  5.3315914E-01;  4.0000000E+04;  0.0000000E+00;  4.0007910E+04; -2.2580214E-02;  0.0000000E+00;  3.6203805E-03;  1.3327852E+03;
  3.1176400E-01;  9.9999998E-03; -1.8000458E-01;4349; -4.7136969E-03;  0.0000000E+00; -5.4671790E-04;  9.9967267E+02;  1.0000000E-01; -2.7120221E+02;3; -1.6329606E+00;  0.0000000E+00; -6.1046172E-02;0; -1.8696107E-02;  3.9969059E+04;  0.0000000E+00;  3.8416433E-01;  4.0000000E+04;  0.0000000E+00;  4.0007027E+04; -2.2186276E-02;  0.0000000E+00;  3.4901695E-03;  1.0735883E+03;
  3.1175023E-01;  9.9999998E-03; -1.7000508E-01;4350; -4.6982989E-03;  0.0000000E+00; -4.9807574E-04;  9.9989447E+02;  1.0000000E-01; -8.7404938E+01;3; -1.6591123E+00;  0.0000000E+00; -6.1721351E-02;0; -1.8410163E-02;  3.9988195E+04;  0.0000000E+00;  2.3049894E-01;  4.0000000E+04;  0.0000000E+00;  4.0005754E+04; -2.1790637E-02;  0.0000000E+00;  3.3804732E-03;  7.8925934E+02;
  3.1172189E-01;  9.9999998E-03; -1.6000718E-01;4351; -4.6843826E-03;  0.0000000E+00; -4.5304478E-04;  1.0000632E+03;  1.0000000E-01;  5.2344200E+01;3; -1.6854039E+00;  0.0000000E+00; -6.0058299E-02;0; -1.8109085E-02;  4.0003352E+04;  0.0000000E+00;  9.2367098E-02;  4.0000000E+04;  0.0000000E+00;  4.0004078E+04; -2.1399364E-02;  0.0000000E+00;  3.2902793E-03;  5.1433771E+02;
  3.1168762E-01;  9.9999998E-03; -1.5001038E-01;4352; -4.6690064E-03;  0.0000000E+00; -4.1423517E-04;  1.0001621E+03;  1.0000000E-01;  1.3431718E+02;3; -1.7116410E+00;  0.0000000E+00; -5.6274578E-02;0; -1.7800340E-02;  4.0013484E+04;  0.0000000E+00; -1.8673962E-02;  4.0000000E+04;  0.0000000E+00;  4.0002312E+04; -2.1020532E-02;  0.0000000E+00;  3.2201919E-03;  2.8923306E+02;
  3.1165513E-01;  9.9999998E-03; -1.4001171E-01;4353; -4.6498892E-03;  0.0000000E+00; -3.8220070E-04;  1.0002011E+03;  1.0000000E-01;  1.6661258E+02;3; -1.7368456E+00;  0.0000000E+00; -5.4712839E-02;0; -1.7492546E-02;  4.0018008E+04;  0.0000000E+00; -9.6595332E-02;  4.0000000E+04;  0.0000000E+00;  4.0001109E+04; -2.0663742E-02;  0.0000000E+00;  3.1711967E-03;  1.7906088E+02;
  3.1163055E-01;  9.9999998E-03; -1.3001026E-01;4354; -4.6262140E-03;  0.0000000E+00; -3.5636988E-04;  1.0001779E+03;  1.0000000E-01;  1.4735385E+02;3; -1.7608845E+00;  0.0000000E+00; -5.3354494E-02;0; -1.7196577E-02;  4.0017109E+04;  0.0000000E+00; -1.4077336E-01;  4.0000000E+04;  0.0000000E+00;  3.9999977E+04; -2.0339428E-02;  0.0000000E+00;  3.1428512E-03;  2.0086192E+02;
  3.1162235E-01;  9.9999998E-03; -1.2000602E-01;4355; -4.5984155E-03;  0.0000000E+00; -3.3567191E-04;  1.0001068E+03;  1.0000000E-01;  8.8392563E+01;3; -1.7843338E+00;  0.0000000E+00; -5.1134177E-02;0; -1.6923927E-02;  4.0011766E+04;  0.0000000E+00; -1.5525138E-01;  4.0000000E+04;  0.0000000E+00;  3.9999695E+04; -2.0058246E-02;  0.0000000E+00;  3.1343198E-03;  2.2788385E+02;
  3.1163773E-01;  9.9999998E-03; -1.0999773E-01;4356; -4.5678797E-03;  0.0000000E+00; -3.1871314E-04;  1.0000000E+03;  1.0000000E-01;  0.0000000E+00;3; -1.8062834E+00;  0.0000000E+00; -4.9445968E-02;0; -1.6682588E-02;  4.0003195E+04;  0.0000000E+00; -1.4706276E-01;  4.0000000E+04;  0.0000000E+00;  3.9999578E+04; -1.9829364E-02;  0.0000000E+00;  3.1467765E-03;  2.1225778E+02;
  3.2168075E-01;  9.9999998E-03; -1.0998996E-01;4417; -4.7657401E-03;  0.0000000E+00; -3.8671168E-04;  1.0000387E+03;  1.0000000E-01;  3.2097858E+01;3; -1.8379916E+00;  0.0000000E+00; -5.6665905E-02;0; -1.6911289E-02;  4.0006547E+04;  0.0000000E+00; -1.6455506E-01;  4.0000000E+04;  0.0000000E+00;  4.0000035E+04; -2.0503348E-02;  0.0000000E+00;  3.5920590E-03;  2.3472517E+02;
  3.2162061E-01;  9.9999998E-03; -1.2000264E-01;4416; -4.7975951E-03;  0.0000000E+00; -4.0775348E-04;  1.0001359E+03;  1.0000000E-01;  1.1258941E+02;3; -1.8150108E+00;  0.0000000E+00; -5.9494447E-02;0; -1.7149661E-02;  4.0014664E+04;  0.0000000E+00; -1.9196750E-01;  4.0000000E+04;  0.0000000E+00;  3.9999625E+04; -2.0714011E-02;  0.0000000E+00;  3.5643494E-03;  2.8311795E+02;
  3.2158396E-01;  9.9999998E-03; -1.3001378E-01;4415; -4.8294924E-03;  0.0000000E+00; -4.3146199E-04;  1.0002120E+03;  1.0000000E-01;  1.7569873E+02;3; -1.7909415E+00;  0.0000000E+00; -6.2726259E-02;0; -1.7414538E-02;  4.0020598E+04;  0.0000000E+00; -2.0249426E-01;  4.0000000E+04;  0.0000000E+00;  4.0000043E+04; -2.0975117E-02;  0.0000000E+00;  3.5605791E-03;  2.9481366E+02;
  3.2157862E-01;  9.9999998E-03; -1.4001928E-01;4414; -4.8600938E-03;  0.0000000E+00; -4.5946400E-04;  1.0002514E+03;  1.0000000E-01;  2.0829041E+02;3; -1.7662466E+00;  0.0000000E+00; -6.4583108E-02;0; -1.7697882E-02;  4.0022605E+04;  0.0000000E+00; -1.8790425E-01;  4.0000000E+04;  0.0000000E+00;  4.0000383E+04; -2.1279251E-02;  0.0000000E+00;  3.5813693E-03;  2.7017166E+02;
  3.2159397E-01;  9.9999998E-03; -1.5002064E-01;4413; -4.8882202E-03;  0.0000000E+00; -4.9323961E-04;  1.0002347E+03;  1.0000000E-01;  1.9446364E+02;3; -1.7402748E+00;  0.0000000E+00; -6.7824140E-02;0; -1.7988436E-02;  4.0020129E+04;  0.0000000E+00; -1.4178111E-01;  4.0000000E+04;  0.0000000E+00;  4.0001594E+04; -2.1616137E-02;  0.0000000E+00;  3.6277000E-03;  2.7646524E+02;
  3.2162115E-01;  9.9999998E-03; -1.6001903E-01;4412; -4.9138721E-03;  0.0000000E+00; -5.3358066E-04;  1.0001587E+03;  1.0000000E-01;  1.3145308E+02;3; -1.7141341E+00;  0.0000000E+00; -7.1340755E-02;0; -1.8275976E-02;  4.0012391E+04;  0.0000000E+00; -6.1263222E-02;  4.0000000E+04;  0.0000000E+00;  4.0003273E+04; -2.1975474E-02;  0.0000000E+00;  3.6994980E-03;  4.0305240E+02;
  3.2165146E-01;  9.9999998E-03; -1.7001699E-01;4411; -4.9381861E-03;  0.0000000E+00; -5.8062508E-04;  1.0000212E+03;  1.0000000E-01;  1.7579750E+01;3; -1.6874163E+00;  0.0000000E+00; -7.4962907E-02;0; -1.8552795E-02;  3.9999750E+04;  0.0000000E+00;  5.1585440E-02;  4.0000000E+04;  0.0000000E+00;  4.0005016E+04; -2.2347474E-02;  0.0000000E+00;  3.7946790E-03;  6.2630469E+02;
  3.2167539E-01;  9.9999998E-03; -1.8001665E-01;4410; -4.9629901E-03;  0.0000000E+00; -6.3244055E-04;  9.9983044E+02;  1.0000000E-01; -1.4048985E+02;3; -1.6605664E+00;  0.0000000E+00; -7.4748658E-02;0; -1.8812429E-02;  3.9982527E+04;  0.0000000E+00;  1.8911499E-01;  4.0000000E+04;  0.0000000E+00;  4.0006465E+04; -2.2723660E-02;  0.0000000E+00;  3.9112316E-03;  8.8699432E+02;
  3.2168823E-01;  9.9999998E-03; -1.9001673E-01;4409; -4.9907011E-03;  0.0000000E+00; -6.8579591E-04;  9.9959161E+02;  1.0000000E-01; -3.3836081E+02;3; -1.6342316E+00;  0.0000000E+00; -7.7541389E-02;0; -1.9048333E-02;  3.9962586E+04;  0.0000000E+00;  3.3822957E-01;  4.0000000E+04;  0.0000000E+00;  4.0007551E+04; -2.3097521E-02;  0.0000000E+00;  4.0491866E-03;  1.1383513E+03;
  3.2168737E-01;  9.9999998E-03; -2.0001420E-01;4408; -5.0237700E-03;  0.0000000E+00; -7.3506660E-04;  9.9933008E+02;  1.0000000E-01; -5.5499664E+02;3; -1.6088760E+00;  0.0000000E+00; -8.0135524E-02;0; -1.9256586E-02;  3.9941172E+04;  0.0000000E+00;  4.7743529E-01;  4.0000000E+04;  0.0000000E+00;  4.0008688E+04; -2.3465203E-02;  0.0000000E+00;  4.2086174E-03;  1.3455804E+03;
  3.2167521E-01;  9.9999998E-03; -2.1000613E-01;4407; -5.0633657E-03;  0.0000000E+00; -7.7235192E-04;  9.9907831E+02;  1.0000000E-01; -7.6358331E+02;3; -1.5879971E+00;  0.0000000E+00; -8.3222248E-02;0; -1.9446433E-02;  3.9920422E+04;  0.0000000E+00;  5.7893032E-01;  4.0000000E+04;  0.0000000E+00;  4.0009070E+04; -2.3825904E-02;  0.0000000E+00;  4.3794722E-03;  1.5090121E+03;
  3.2164320E-01;  9.9999998E-03; -2.1999070E-01;4406; -5.1079621E-03;  0.0000000E+00; -8.0270943E-04;  9.9885767E+02;  1.0000000E-01; -9.4639301E+02;3; -1.5768032E+00;  0.0000000E+00; -9.8309457E-02;0; -1.9636322E-02;  3.9902094E+04;  0.0000000E+00;  6.1809349E-01;  4.0000000E+04;  0.0000000E+00;  4.0011066E+04; -2.4181360E-02;  0.0000000E+00;  4.5450381E-03;  1.7181560E+03;
  3.2158777E-01;  9.9999998E-03; -2.2997811E-01;4405; -5.1548327E-03;  0.0000000E+00; -8.4457092E-04;  9.9868762E+02;  1.0000000E-01; -1.0872778E+03;3; -1.5847762E+00;  0.0000000E+00; -1.2656775E-01;0; -1.9813396E-02;  3.9887531E+04;  0.0000000E+00;  5.8011627E-01;  4.0000000E+04;  0.0000000E+00;  4.0013539E+04; -2.4536243E-02;  0.0000000E+00;  4.7228462E-03;  1.9621566E+03;
  3.2150498E-01;  9.9999998E-03; -2.3997487E-01;4404; -5.2057090E-03;  0.0000000E+00; -8.6659368E-04;  9.9855573E+02;  1.0000000E-01; -1.1965587E+03;3; -1.6243299E+00;  0.0000000E+00; -1.7727928E-01;0; -2.0111062E-02;  3.9877102E+04;  0.0000000E+00;  4.6423668E-01;  4.0000000E+04;  0.0000000E+00;  4.0014148E+04; -2.4896346E-02;  0.0000000E+00;  4.7852853E-03;  2.0436168E+03;
  3.2138458E-01;  9.9999998E-03; -2.4997328E-01;4403; -5.2598002E-03;  0.0000000E+00; -8.9420972E-04;  9.9848383E+02;  1.0000000E-01; -1.2561127E+03;3; -1.7106422E+00;  0.0000000E+00; -2.5171572E-01;0; -2.0527700E-02;  3.9871656E+04;  0.0000000E+00;  2.9297215E-01;  4.0000000E+04;  0.0000000E+00;  4.0015555E+04; -2.5267299E-02;  0.0000000E+00;  4.7395988E-03;  2.0939900E+03;
  3.2124460E-01;  9.9999998E-03; -2.5997236E-01;4402; -5.3165536E-03;  0.0000000E+00; -9.5200323E-04;  9.9846906E+02;  1.0000000E-01; -1.2683591E+03;3; -1.8624704E+00;  0.0000000E+00; -3.4214717E-01;0; -2.0889318E-02;  3.9871371E+04;  0.0000000E+00;  1.0958695E-01;  4.0000000E+04;  0.0000000E+00;  4.0016109E+04; -2.5655292E-02;  0.0000000E+00;  4.7659748E-03;  2.1395020E+03;
  3.2116517E-01;  9.9999998E-03; -2.6997203E-01;4401; -5.3775520E-03;  0.0000000E+00; -1.0540573E-03;  9.9849969E+02;  1.0000000E-01; -1.2429772E+03;3; -2.0941675E+00;  0.0000000E+00; -4.3190709E-01;0; -2.0865686E-02;  3.9875230E+04;  0.0000000E+00; -1.2079398E-01;  4.0000000E+04;  0.0000000E+00;  4.0016191E+04; -2.6065309E-02;  0.0000000E+00;  5.1996233E-03;  2.1519087E+03;
  3.3122447E-01;  9.9999998E-03; -2.6997459E-01;4462; -5.6222272E-03;  0.0000000E+00; -1.2051805E-03;  9.9841217E+02;  1.0000000E-01; -1.3154690E+03;3; -1.7265155E+00;  0.0000000E+00; -2.2958182E-01;0; -2.0179486E-02;  3.9866066E+04;  0.0000000E+00;  1.3092685E-02;  4.0000000E+04;  0.0000000E+00;  4.0016562E+04; -2.6085379E-02;  0.0000000E+00;  5.9058922E-03;  2.2086084E+03;
  3.3131924E-01;  9.9999998E-03; -2.5997648E-01;4463; -5.5627339E-03;  0.0000000E+00; -1.0946897E-03;  9.9843481E+02;  1.0000000E-01; -1.2967041E+03;3; -1.6408389E+00;  0.0000000E+00; -1.9268382E-01;0; -2.0418186E-02;  3.9867312E+04;  0.0000000E+00;  2.4371804E-01;  4.0000000E+04;  0.0000000E+00;  4.0016195E+04; -2.5769819E-02;  0.0000000E+00;  5.3516338E-03;  2.1618828E+03;
  3.3145320E-01;  9.9999998E-03; -2.4997984E-01;4464; -5.5084652E-03;  0.0000000E+00; -1.0110199E-03;  9.9849603E+02;  1.0000000E-01; -1.2459895E+03;3; -1.5934968E+00;  0.0000000E+00; -1.5560608E-01;0; -2.0330105E-02;  3.9872512E+04;  0.0000000E+00;  4.0775776E-01;  4.0000000E+04;  0.0000000E+00;  4.0014578E+04; -2.5460292E-02;  0.0000000E+00;  5.1301876E-03;  2.0537256E+03;
  3.3156127E-01;  9.9999998E-03; -2.3998575E-01;4465; -5.4571372E-03;  0.0000000E+00; -9.5917768E-04;  9.9860706E+02;  1.0000000E-01; -1.1540414E+03;3; -1.5744544E+00;  0.0000000E+00; -1.2667298E-01;0; -2.0064712E-02;  3.9881992E+04;  0.0000000E+00;  5.1298237E-01;  4.0000000E+04;  0.0000000E+00;  4.0012941E+04; -2.5153454E-02;  0.0000000E+00;  5.0887424E-03;  1.8855651E+03;
  3.3162817E-01;  9.9999998E-03; -2.2999473E-01;4466; -5.4082014E-03;  0.0000000E+00; -9.3180238E-04;  9.9876593E+02;  1.0000000E-01; -1.0223908E+03;3; -1.5761197E+00;  0.0000000E+00; -1.0892853E-01;0; -1.9787451E-02;  3.9895305E+04;  0.0000000E+00;  5.5105013E-01;  4.0000000E+04;  0.0000000E+00;  4.0011375E+04; -2.4845341E-02;  0.0000000E+00;  5.0578900E-03;  1.6968185E+03;
  3.3166584E-01;  9.9999998E-03; -2.2000970E-01;4467; -5.3615505E-03;  0.0000000E+00; -9.0206222E-04;  9.9896399E+02;  1.0000000E-01; -8.5829669E+02;3; -1.5898708E+00;  0.0000000E+00; -1.0095131E-01;0; -1.9594310E-02;  3.9912121E+04;  0.0000000E+00;  5.2067167E-01;  4.0000000E+04;  0.0000000E+00;  4.0009102E+04; -2.4532504E-02;  0.0000000E+00;  4.9381941E-03;  1.4518094E+03;
  3.3168212E-01;  9.9999998E-03; -2.1002240E-01;4468; -5.3167967E-03;  0.0000000E+00; -8.7574549E-04;  9.9919800E+02;  1.0000000E-01; -6.6442566E+02;3; -1.6108036E+00;  0.0000000E+00; -9.6014790E-02;0; -1.9423183E-02;  3.9931410E+04;  0.0000000E+00;  4.3251562E-01;  4.0000000E+04;  0.0000000E+00;  4.0008309E+04; -2.4211749E-02;  0.0000000E+00;  4.7885673E-03;  1.2815771E+03;
  3.3167523E-01;  9.9999998E-03; -2.0002684E-01;4469; -5.2749617E-03;  0.0000000E+00; -8.3599094E-04;  9.9945020E+02;  1.0000000E-01; -4.5549329E+02;3; -1.6349257E+00;  0.0000000E+00; -9.3400478E-02;0; -1.9261973E-02;  3.9951688E+04;  0.0000000E+00;  3.0542883E-01;  4.0000000E+04;  0.0000000E+00;  4.0008016E+04; -2.3880931E-02;  0.0000000E+00;  4.6189572E-03;  1.1378345E+03;
  3.3164486E-01;  9.9999998E-03; -1.9002552E-01;4470; -5.2371765E-03;  0.0000000E+00; -7.8264321E-04;  9.9968610E+02;  1.0000000E-01; -2.6004202E+02;3; -1.6603237E+00;  0.0000000E+00; -9.1257632E-02;0; -1.9081721E-02;  3.9971547E+04;  0.0000000E+00;  1.6301461E-01;  4.0000000E+04;  0.0000000E+00;  4.0007191E+04; -2.3539880E-02;  0.0000000E+00;  4.4581592E-03;  9.4732379E+02;
  3.3160490E-01;  9.9999998E-03; -1.8002385E-01;4471; -5.2024401E-03;  0.0000000E+00; -7.2662288E-04;  9.9989453E+02;  1.0000000E-01; -8.7355553E+01;3; -1.6870003E+00;  0.0000000E+00; -8.9356393E-02;0; -1.8872300E-02;  3.9989527E+04;  0.0000000E+00;  2.6551468E-02;  4.0000000E+04;  0.0000000E+00;  4.0005699E+04; -2.3191541E-02;  0.0000000E+00;  4.3192417E-03;  7.1567780E+02;
  3.3157071E-01;  9.9999998E-03; -1.7002453E-01;4472; -5.1692114E-03;  0.0000000E+00; -6.7323953E-04;  1.0000613E+03;  1.0000000E-01;  5.0763996E+01;3; -1.7138950E+00;  0.0000000E+00; -8.7533779E-02;0; -1.8638032E-02;  4.0004004E+04;  0.0000000E+00; -8.8915445E-02;  4.0000000E+04;  0.0000000E+00;  4.0004039E+04; -2.2841234E-02;  0.0000000E+00;  4.2032022E-03;  4.9686237E+02;
  3.3154711E-01;  9.9999998E-03; -1.6002692E-01;4473; -5.1361038E-03;  0.0000000E+00; -6.2574522E-04;  1.0001657E+03;  1.0000000E-01;  1.3728008E+02;3; -1.7412465E+00;  0.0000000E+00; -8.3157599E-02;0; -1.8384553E-02;  4.0014422E+04;  0.0000000E+00; -1.7353496E-01;  4.0000000E+04;  0.0000000E+00;  4.0002191E+04; -2.2495756E-02;  0.0000000E+00;  4.1112034E-03;  3.5479837E+02;
  3.3154297E-01;  9.9999998E-03; -1.5002789E-01;4474; -5.1022661E-03;  0.0000000E+00; -5.8462465E-04;  1.0002214E+03;  1.0000000E-01;  1.8340222E+02;3; -1.7682306E+00;  0.0000000E+00; -7.9025567E-02;0; -1.8117344E-02;  4.0020305E+04;  0.0000000E+00; -2.2317760E-01;  4.0000000E+04;  0.0000000E+00;  4.0000738E+04; -2.2163624E-02;  0.0000000E+00;  4.0462799E-03;  3.2549319E+02;
  3.3156678E-01;  9.9999998E-03; -1.4002390E-01;4475; -5.0674509E-03;  0.0000000E+00; -5.4938189E-04;  1.0002247E+03;  1.0000000E-01;  1.8616757E+02;3; -1.7944089E+00;  0.0000000E+00; -7.5472057E-02;0; -1.7843172E-02;  4.0021500E+04;  0.0000000E+00; -2.3938127E-01;  4.0000000E+04;  0.0000000E+00;  3.9999852E+04; -2.1854263E-02;  0.0000000E+00;  4.0110899E-03;  3.4844763E+02;
  3.3162197E-01;  9.9999998E-03; -1.3001211E-01;4476; -5.0323610E-03;  0.0000000E+00; -5.1891297E-04;  1.0001870E+03;  1.0000000E-01;  1.5485982E+02;3; -1.8201156E+00;  0.0000000E+00; -7.1304128E-02;0; -1.7571477E-02;  4.0019008E+04;  0.0000000E+00; -2.2800814E-01;  4.0000000E+04;  0.0000000E+00;  3.9999309E+04; -2.1577058E-02;  0.0000000E+00;  4.0055807E-03;  3.4661929E+02;
  3.3169523E-01;  9.9999998E-03; -1.1999439E-01;4477; -4.9979440E-03;  0.0000000E+00; -4.9146934E-04;  1.0001260E+03;  1.0000000E-01;  1.0439211E+02;3; -1.8449603E+00;  0.0000000E+00; -6.7776665E-02;0; -1.7312776E-02;  4.0013820E+04;  0.0000000E+00; -1.9735515E-01;  4.0000000E+04;  0.0000000E+00;  3.9999262E+04; -2.1339949E-02;  0.0000000E+00;  4.0271734E-03;  2.9675546E+02;
  3.3176446E-01;  9.9999998E-03; -1.0998367E-01;4478; -4.9653295E-03;  0.0000000E+00; -4.6452452E-04;  1.0000526E+03;  1.0000000E-01;  4.3554325E+01;3; -1.8688594E+00;  0.0000000E+00; -6.3692331E-02;0; -1.7075129E-02;  4.0007164E+04;  0.0000000E+00; -1.5628222E-01;  4.0000000E+04;  0.0000000E+00;  3.9999961E+04; -2.1148140E-02;  0.0000000E+00;  4.0730103E-03;  2.2251585E+02;
  3.4130496E-01;  9.9999998E-03; -2.6997733E-01;4523; -5.8652521E-03;  0.0000000E+00; -1.3852995E-03;  9.9834698E+02;  1.0000000E-01; -1.3694922E+03;3; -1.5710570E+00;  0.0000000E+00; -1.2170191E-01;0; -1.9254047E-02;  3.9858453E+04;  0.0000000E+00;  1.9308302E-01;  4.0000000E+04;  0.0000000E+00;  4.0017316E+04; -2.6119124E-02;  0.0000000E+00;  6.8650767E-03;  2.2916306E+03;
  3.4139308E-01;  9.9999998E-03; -2.5998038E-01;4524; -5.8091138E-03;  0.0000000E+00; -1.2517100E-03;  9.9841589E+02;  1.0000000E-01; -1.3124073E+03;3; -1.5591080E+00;  0.0000000E+00; -1.2640402E-01;0; -1.9891642E-02;  3.9864074E+04;  0.0000000E+00;  3.6761266E-01;  4.0000000E+04;  0.0000000E+00;  4.0015965E+04; -2.5874497E-02;  0.0000000E+00;  5.9828558E-03;  2.2054285E+03;
  3.4150797E-01;  9.9999998E-03; -2.4998547E-01;4525; -5.7559274E-03;  0.0000000E+00; -1.1409709E-03;  9.9851825E+02;  1.0000000E-01; -1.2276196E+03;3; -1.5602090E+00;  0.0000000E+00; -1.2592219E-01;0; -2.0095853E-02;  3.9873305E+04;  0.0000000E+00;  4.6879676E-01;  4.0000000E+04;  0.0000000E+00;  4.0014316E+04; -2.5625462E-02;  0.0000000E+00;  5.5296090E-03;  2.0216404E+03;
  3.4159660E-01;  9.9999998E-03; -2.3999408E-01;4526; -5.7052560E-03;  0.0000000E+00; -1.0619289E-03;  9.9864960E+02;  1.0000000E-01; -1.1187832E+03;3; -1.5724605E+00;  0.0000000E+00; -1.1898883E-01;0; -1.9998997E-02;  3.9886035E+04;  0.0000000E+00;  5.0461555E-01;  4.0000000E+04;  0.0000000E+00;  4.0011938E+04; -2.5369916E-02;  0.0000000E+00;  5.3709187E-03;  1.7484945E+03;
  3.4164032E-01;  9.9999998E-03; -2.3000784E-01;4527; -5.6557478E-03;  0.0000000E+00; -1.0187295E-03;  9.9882361E+02;  1.0000000E-01; -9.7463910E+02;3; -1.5901446E+00;  0.0000000E+00; -1.1513305E-01;0; -1.9770784E-02;  3.9901379E+04;  0.0000000E+00;  4.8116672E-01;  4.0000000E+04;  0.0000000E+00;  4.0009211E+04; -2.5105385E-02;  0.0000000E+00;  5.3346008E-03;  1.4328094E+03;
  3.4165353E-01;  9.9999998E-03; -2.2002488E-01;4528; -5.6070713E-03;  0.0000000E+00; -9.9774054E-04;  9.9902881E+02;  1.0000000E-01; -8.0461920E+02;3; -1.6114572E+00;  0.0000000E+00; -1.1093743E-01;0; -1.9553388E-02;  3.9919180E+04;  0.0000000E+00;  4.0663630E-01;  4.0000000E+04;  0.0000000E+00;  4.0007332E+04; -2.4830196E-02;  0.0000000E+00;  5.2768080E-03;  1.1717738E+03;
  3.4165221E-01;  9.9999998E-03; -2.1003422E-01;4529; -5.5602030E-03;  0.0000000E+00; -9.7762200E-04;  9.9926672E+02;  1.0000000E-01; -6.0748901E+02;3; -1.6340578E+00;  0.0000000E+00; -1.0965114E-01;0; -1.9386377E-02;  3.9938008E+04;  0.0000000E+00;  2.9497078E-01;  4.0000000E+04;  0.0000000E+00;  4.0007203E+04; -2.4543175E-02;  0.0000000E+00;  5.1567988E-03;  1.0554054E+03;
  3.4164178E-01;  9.9999998E-03; -2.0003386E-01;4530; -5.5158897E-03;  0.0000000E+00; -9.3718083E-04;  9.9950476E+02;  1.0000000E-01; -4.1030939E+02;3; -1.6585066E+00;  0.0000000E+00; -1.0757505E-01;0; -1.9245651E-02;  3.9957168E+04;  0.0000000E+00;  1.6419557E-01;  4.0000000E+04;  0.0000000E+00;  4.0007023E+04; -2.4244254E-02;  0.0000000E+00;  4.9986048E-03;  9.5182135E+02;
  3.4162146E-01;  9.9999998E-03; -1.9003096E-01;4531; -5.4741427E-03;  0.0000000E+00; -8.8291714E-04;  9.9971588E+02;  1.0000000E-01; -2.3540076E+02;3; -1.6848277E+00;  0.0000000E+00; -1.0330229E-01;0; -1.9088117E-02;  3.9974781E+04;  0.0000000E+00;  3.1727549E-02;  4.0000000E+04;  0.0000000E+00;  4.0005957E+04; -2.3934921E-02;  0.0000000E+00;  4.8468034E-03;  7.7524933E+02;
  3.4159282E-01;  9.9999998E-03; -1.8002929E-01;4532; -5.4337396E-03;  0.0000000E+00; -8.2666671E-04;  9.9988892E+02;  1.0000000E-01; -9.2046776E+01;3; -1.7117300E+00;  0.0000000E+00; -1.0171252E-01;0; -1.8901996E-02;  3.9990562E+04;  0.0000000E+00; -8.6647421E-02;  4.0000000E+04;  0.0000000E+00;  4.0004281E+04; -2.3618327E-02;  0.0000000E+00;  4.7163316E-03;  5.7076068E+02;
  3.4156999E-01;  9.9999998E-03; -1.7002922E-01;4533; -5.3937836E-03;  0.0000000E+00; -7.7379303E-04;  1.0000240E+03;  1.0000000E-01;  1.9851290E+01;3; -1.7392051E+00;  0.0000000E+00; -9.8997392E-02;0; -1.8690389E-02;  4.0002570E+04;  0.0000000E+00; -1.7824303E-01;  4.0000000E+04;  0.0000000E+00;  4.0002496E+04; -2.3299990E-02;  0.0000000E+00;  4.6096016E-03;  4.1214404E+02;
  3.4157127E-01;  9.9999998E-03; -1.6002886E-01;4534; -5.3539290E-03;  0.0000000E+00; -7.2665588E-04;  1.0001071E+03;  1.0000000E-01;  8.8787613E+01;3; -1.7670447E+00;  0.0000000E+00; -9.4778627E-02;0; -1.8457793E-02;  4.0011027E+04;  0.0000000E+00; -2.3581783E-01;  4.0000000E+04;  0.0000000E+00;  4.0001145E+04; -2.2987315E-02;  0.0000000E+00;  4.5295227E-03;  3.5565018E+02;
  3.4160683E-01;  9.9999998E-03; -1.5002441E-01;4535; -5.3141359E-03;  0.0000000E+00; -6.8546861E-04;  1.0001464E+03;  1.0000000E-01;  1.2128052E+02;3; -1.7947624E+00;  0.0000000E+00; -9.0064660E-02;0; -1.8208604E-02;  4.0015422E+04;  0.0000000E+00; -2.5831863E-01;  4.0000000E+04;  0.0000000E+00;  3.9999719E+04; -2.2688610E-02;  0.0000000E+00;  4.4800052E-03;  3.7381259E+02;
  3.4167346E-01;  9.9999998E-03; -1.4001282E-01;4536; -5.2747433E-03;  0.0000000E+00; -6.4901728E-04;  1.0001480E+03;  1.0000000E-01;  1.2266320E+02;3; -1.8216969E+00;  0.0000000E+00; -8.6188063E-02;0; -1.7948681E-02;  4.0016305E+04;  0.0000000E+00; -2.5024480E-01;  4.0000000E+04;  0.0000000E+00;  3.9998805E+04; -2.2412090E-02;  0.0000000E+00;  4.4634081E-03;  3.8681210E+02;
  3.4174693E-01;  9.9999998E-03; -1.2999739E-01;4537; -5.2363575E-03;  0.0000000E+00; -6.1550009E-04;  1.0001244E+03;  1.0000000E-01;  1.0300943E+02;3; -1.8479863E+00;  0.0000000E+00; -8.1622116E-02;0; -1.7686570E-02;  4.0014387E+04;  0.0000000E+00; -2.1971305E-01;  4.0000000E+04;  0.0000000E+00;  3.9998840E+04; -2.2164589E-02;  0.0000000E+00;  4.4780192E-03;  3.5267807E+02;
  3.4180146E-01;  9.9999998E-03; -1.1998525E-01;4538; -5.1998543E-03;  0.0000000E+00; -5.8302167E-04;  1.0000840E+03;  1.0000000E-01;  6.9627663E+01;3; -1.8736110E+00;  0.0000000E+00; -7.6194070E-02;0; -1.7432164E-02;  4.0010688E+04;  0.0000000E+00; -1.7611785E-01;  4.0000000E+04;  0.0000000E+00;  3.9999336E+04; -2.1951724E-02;  0.0000000E+00;  4.5195590E-03;  2.7054688E+02;
  3.4183380E-01;  9.9999998E-03; -1.0998105E-01;4539; -5.1666512E-03;  0.0000000E+00; -5.4979272E-04;  1.0000369E+03;  1.0000000E-01;  3.0517656E+01;3; -1.8982058E+00;  0.0000000E+00; -7.1144953E-02;0; -1.7193684E-02;  4.0005844E+04;  0.0000000E+00; -1.2818335E-01;  4.0000000E+04;  0.0000000E+00;  4.0000406E+04; -2.1777969E-02;  0.0000000E+00;  4.5842840E-03;  1.8361012E+02;
  3.5138306E-01;  9.9999998E-03; -2.6997998E-01;4584; -6.1118426E-03;  0.0000000E+00; -1.5484768E-03;  9.9830042E+02;  1.0000000E-01; -1.4080590E+03;3; -1.5310292E+00;  0.0000000E+00; -7.0983388E-02;0; -1.8636633E-02;  3.9852863E+04;  0.0000000E+00;  2.6712281E-01;  4.0000000E+04;  0.0000000E+00;  4.0017504E+04; -2.6179995E-02;  0.0000000E+00;  7.5433622E-03;  2.3508481E+03;
  3.5145050E-01;  9.9999998E-03; -2.5998366E-01;4585; -6.0583325E-03;  0.0000000E+00; -1.4126106E-03;  9.9840527E+02;  1.0000000E-01; -1.3211971E+03;3; -1.5458027E+00;  0.0000000E+00; -1.0243221E-01;0; -1.9416897E-02;  3.9861914E+04;  0.0000000E+00;  3.8580161E-01;  4.0000000E+04;  0.0000000E+00;  4.0016340E+04; -2.5987294E-02;  0.0000000E+00;  6.5703965E-03;  2.2221438E+03;
  3.5153303E-01;  9.9999998E-03; -2.4998945E-01;4586; -6.0049212E-03;  0.0000000E+00; -1.2842080E-03;  9.9853668E+02;  1.0000000E-01; -1.2123114E+03;3; -1.5655774E+00;  0.0000000E+00; -1.1808889E-01;0; -1.9840010E-02;  3.9873977E+04;  0.0000000E+00;  4.4062358E-01;  4.0000000E+04;  0.0000000E+00;  4.0014129E+04; -2.5784675E-02;  0.0000000E+00;  5.9446665E-03;  1.9849348E+03;
  3.5159776E-01;  9.9999998E-03; -2.3999944E-01;4587; -5.9522144E-03;  0.0000000E+00; -1.1800249E-03;  9.9868805E+02;  1.0000000E-01; -1.0869323E+03;3; -1.5862976E+00;  0.0000000E+00; -1.2372463E-01;0; -1.9912194E-02;  3.9888340E+04;  0.0000000E+00;  4.3728292E-01;  4.0000000E+04;  0.0000000E+00;  4.0011156E+04; -2.5570890E-02;  0.0000000E+00;  5.6586955E-03;  1.6301642E+03;
  3.5162342E-01;  9.9999998E-03; -2.3001574E-01;4588; -5.8996645E-03;  0.0000000E+00; -1.1168547E-03;  9.9885889E+02;  1.0000000E-01; -9.4540533E+02;3; -1.6084875E+00;  0.0000000E+00; -1.2367155E-01;0; -1.9754019E-02;  3.9905000E+04;  0.0000000E+00;  3.8650170E-01;  4.0000000E+04;  0.0000000E+00;  4.0007641E+04; -2.5344420E-02;  0.0000000E+00;  5.5904011E-03;  1.2243842E+03;
  3.5162359E-01;  9.9999998E-03; -2.2003359E-01;4589; -5.8477242E-03;  0.0000000E+00; -1.0953335E-03;  9.9905658E+02;  1.0000000E-01; -7.8160754E+02;3; -1.6313572E+00;  0.0000000E+00; -1.2246942E-01;0; -1.9531121E-02;  3.9922523E+04;  0.0000000E+00;  2.9913440E-01;  4.0000000E+04;  0.0000000E+00;  4.0005980E+04; -2.5104742E-02;  0.0000000E+00;  5.5736206E-03;  9.4921246E+02;
  3.5161057E-01;  9.9999998E-03; -2.1004044E-01;4590; -5.7970332E-03;  0.0000000E+00; -1.0794116E-03;  9.9928558E+02;  1.0000000E-01; -5.9188452E+02;3; -1.6545733E+00;  0.0000000E+00; -1.2094118E-01;0; -1.9363085E-02;  3.9940398E+04;  0.0000000E+00;  1.8815242E-01;  4.0000000E+04;  0.0000000E+00;  4.0006234E+04; -2.4851682E-02;  0.0000000E+00;  5.4885964E-03;  8.7120209E+02;
  3.5159135E-01;  9.9999998E-03; -2.0003709E-01;4591; -5.7494440E-03;  0.0000000E+00; -1.0381145E-03;  9.9950146E+02;  1.0000000E-01; -4.1302536E+02;3; -1.6799548E+00;  0.0000000E+00; -1.1920492E-01;0; -1.9236408E-02;  3.9957746E+04;  0.0000000E+00;  6.7336455E-02;  4.0000000E+04;  0.0000000E+00;  4.0006047E+04; -2.4586251E-02;  0.0000000E+00;  5.3498438E-03;  7.9360846E+02;
  3.5157195E-01;  9.9999998E-03; -1.9003205E-01;4592; -5.7037110E-03;  0.0000000E+00; -9.8380237E-04;  9.9968164E+02;  1.0000000E-01; -2.6374564E+02;3; -1.7068067E+00;  0.0000000E+00; -1.1481953E-01;0; -1.9095780E-02;  3.9973457E+04;  0.0000000E+00; -4.8593365E-02;  4.0000000E+04;  0.0000000E+00;  4.0004852E+04; -2.4310837E-02;  0.0000000E+00;  5.2150567E-03;  6.3344507E+02;
  3.5156137E-01;  9.9999998E-03; -1.8002877E-01;4593; -5.6586028E-03;  0.0000000E+00; -9.2911202E-04;  9.9983032E+02;  1.0000000E-01; -1.4058862E+02;3; -1.7348028E+00;  0.0000000E+00; -1.1088237E-01;0; -1.8928071E-02;  3.9986680E+04;  0.0000000E+00; -1.4590962E-01;  4.0000000E+04;  0.0000000E+00;  4.0002895E+04; -2.4029493E-02;  0.0000000E+00;  5.1014223E-03;  4.5908716E+02;
  3.5156938E-01;  9.9999998E-03; -1.7002584E-01;4594; -5.6136465E-03;  0.0000000E+00; -8.7813486E-04;  9.9994055E+02;  1.0000000E-01; -4.9233177E+01;3; -1.7629528E+00;  0.0000000E+00; -1.0743598E-01;0; -1.8735126E-02;  3.9996898E+04;  0.0000000E+00; -2.1428078E-01;  4.0000000E+04;  0.0000000E+00;  4.0001410E+04; -2.3747694E-02;  0.0000000E+00;  5.0125672E-03;  3.5858194E+02;
  3.5160050E-01;  9.9999998E-03; -1.6001976E-01;4595; -5.5688843E-03;  0.0000000E+00; -8.3200692E-04;  1.0000050E+03;  1.0000000E-01;  4.1480308E+00;3; -1.7914546E+00;  0.0000000E+00; -1.0436009E-01;0; -1.8519843E-02;  4.0003727E+04;  0.0000000E+00; -2.4878508E-01;  4.0000000E+04;  0.0000000E+00;  4.0000125E+04; -2.3472063E-02;  0.0000000E+00;  4.9522198E-03;  3.5737686E+02;
  3.5165042E-01;  9.9999998E-03; -1.5000880E-01;4596; -5.5245752E-03;  0.0000000E+00; -7.9035637E-04;  1.0000417E+03;  1.0000000E-01;  3.4566925E+01;3; -1.8197291E+00;  0.0000000E+00; -1.0027939E-01;0; -1.8285321E-02;  4.0007590E+04;  0.0000000E+00; -2.5062269E-01;  4.0000000E+04;  0.0000000E+00;  3.9999035E+04; -2.3209430E-02;  0.0000000E+00;  4.9241092E-03;  3.8522278E+02;
  3.5170472E-01;  9.9999998E-03; -1.3999668E-01;4597; -5.4814275E-03;  0.0000000E+00; -7.5181801E-04;  1.0000497E+03;  1.0000000E-01;  4.1184021E+01;3; -1.8472849E+00;  0.0000000E+00; -9.5256358E-02;0; -1.8036727E-02;  4.0008672E+04;  0.0000000E+00; -2.2617170E-01;  4.0000000E+04;  0.0000000E+00;  3.9998559E+04; -2.2966327E-02;  0.0000000E+00;  4.9296012E-03;  3.7788144E+02;
  3.5174689E-01;  9.9999998E-03; -1.2998933E-01;4598; -5.4404712E-03;  0.0000000E+00; -7.1497186E-04;  1.0000400E+03;  1.0000000E-01;  3.3085484E+01;3; -1.8745424E+00;  0.0000000E+00; -8.9398906E-02;0; -1.7782178E-02;  4.0007680E+04;  0.0000000E+00; -1.8468671E-01;  4.0000000E+04;  0.0000000E+00;  3.9998859E+04; -2.2748576E-02;  0.0000000E+00;  4.9663982E-03;  3.1596896E+02;
  3.5177436E-01;  9.9999998E-03; -1.1998672E-01;4599; -5.4029203E-03;  0.0000000E+00; -6.7759783E-04;  1.0000236E+03;  1.0000000E-01;  1.9555002E+01;3; -1.9010054E+00;  0.0000000E+00; -8.3465822E-02;0; -1.7530970E-02;  4.0005516E+04;  0.0000000E+00; -1.3574237E-01;  4.0000000E+04;  0.0000000E+00;  3.9999203E+04; -2.2561163E-02;  0.0000000E+00;  5.0301929E-03;  2.1171570E+02;
  3.5178974E-01;  9.9999998E-03; -1.0998724E-01;4600; -5.3699594E-03;  0.0000000E+00; -6.3707819E-04;  1.0000031E+03;  1.0000000E-01;  2.5678287E+00;3; -1.9265627E+00;  0.0000000E+00; -7.7995285E-02;0; -1.7291278E-02;  4.0002844E+04;  0.0000000E+00; -8.7413721E-02;  4.0000000E+04;  0.0000000E+00;  4.0000238E+04; -2.2407468E-02;  0.0000000E+00;  5.1161912E-03;  1.3440054E+02;
  3.6143184E-01;  9.9999998E-03; -2.6998240E-01;4645; -6.3646631E-03;  0.0000000E+00; -1.6679878E-03;  9.9827319E+02;  1.0000000E-01; -1.4306262E+03;3; -1.5323820E+00;  0.0000000E+00; -5.4434791E-02;0; -1.8639280E-02;  3.9849012E+04;  0.0000000E+00;  2.3260288E-01;  4.0000000E+04;  0.0000000E+00;  4.0017348E+04; -2.6275799E-02;  0.0000000E+00;  7.6365191E-03;  2.3432632E+03;
  3.6147824E-01;  9.9999998E-03; -2.5998613E-01;4646; -6.3126199E-03;  0.0000000E+00; -1.5628387E-03;  9.9840045E+02;  1.0000000E-01; -1.3251971E+03;3; -1.5535998E+00;  0.0000000E+00; -8.4660925E-02;0; -1.9128548E-02;  3.9860352E+04;  0.0000000E+00;  3.1838104E-01;  4.0000000E+04;  0.0000000E+00;  4.0015977E+04; -2.6122017E-02;  0.0000000E+00;  6.9934684E-03;  2.2014792E+03;
  3.6153576E-01;  9.9999998E-03; -2.4999164E-01;4647; -6.2576234E-03;  0.0000000E+00; -1.4404427E-03;  9.9855072E+02;  1.0000000E-01; -1.2007068E+03;3; -1.5759461E+00;  0.0000000E+00; -1.0893618E-01;0; -1.9577531E-02;  3.9873758E+04;  0.0000000E+00;  3.5367456E-01;  4.0000000E+04;  0.0000000E+00;  4.0014355E+04; -2.5956696E-02;  0.0000000E+00;  6.3791643E-03;  1.9572029E+03;
  3.6157280E-01;  9.9999998E-03; -2.4000062E-01;4648; -6.2003937E-03;  0.0000000E+00; -1.3265411E-03;  9.9870782E+02;  1.0000000E-01; -1.0705376E+03;3; -1.5996515E+00;  0.0000000E+00; -1.2267984E-01;0; -1.9762093E-02;  3.9888953E+04;  0.0000000E+00;  3.4272102E-01;  4.0000000E+04;  0.0000000E+00;  4.0011711E+04; -2.5778625E-02;  0.0000000E+00;  6.0165324E-03;  1.6048190E+03;
  3.6158395E-01;  9.9999998E-03; -2.3001625E-01;4649; -6.1435406E-03;  0.0000000E+00; -1.2413607E-03;  9.9887524E+02;  1.0000000E-01; -9.3182550E+02;3; -1.6239991E+00;  0.0000000E+00; -1.2830277E-01;0; -1.9712918E-02;  3.9905480E+04;  0.0000000E+00;  2.9274479E-01;  4.0000000E+04;  0.0000000E+00;  4.0007961E+04; -2.5587091E-02;  0.0000000E+00;  5.8741746E-03;  1.1620846E+03;
  3.6157829E-01;  9.9999998E-03; -2.2003335E-01;4650; -6.0869879E-03;  0.0000000E+00; -1.2053370E-03;  9.9905945E+02;  1.0000000E-01; -7.7923724E+02;3; -1.6478772E+00;  0.0000000E+00; -1.2889501E-01;0; -1.9530481E-02;  3.9922465E+04;  0.0000000E+00;  2.1337458E-01;  4.0000000E+04;  0.0000000E+00;  4.0005523E+04; -2.5382111E-02;  0.0000000E+00;  5.8516297E-03;  8.5702948E+02;
  3.6156210E-01;  9.9999998E-03; -2.1003890E-01;4651; -6.0323370E-03;  0.0000000E+00; -1.1832889E-03;  9.9926392E+02;  1.0000000E-01; -6.0980994E+02;3; -1.6728106E+00;  0.0000000E+00; -1.2772040E-01;0; -1.9374587E-02;  3.9939027E+04;  0.0000000E+00;  1.1613123E-01;  4.0000000E+04;  0.0000000E+00;  4.0005148E+04; -2.5163891E-02;  0.0000000E+00;  5.7893051E-03;  7.7080920E+02;
  3.6154407E-01;  9.9999998E-03; -2.0003489E-01;4652; -5.9808725E-03;  0.0000000E+00; -1.1389375E-03;  9.9945068E+02;  1.0000000E-01; -4.5509824E+02;3; -1.6991714E+00;  0.0000000E+00; -1.2668373E-01;0; -1.9257607E-02;  3.9954570E+04;  0.0000000E+00;  1.3757402E-02;  4.0000000E+04;  0.0000000E+00;  4.0004805E+04; -2.4933957E-02;  0.0000000E+00;  5.6763492E-03;  6.8291595E+02;
  3.6153406E-01;  9.9999998E-03; -1.9002917E-01;4653; -5.9313807E-03;  0.0000000E+00; -1.0857880E-03;  9.9961023E+02;  1.0000000E-01; -3.2290445E+02;3; -1.7268176E+00;  0.0000000E+00; -1.2408090E-01;0; -1.9127900E-02;  3.9968266E+04;  0.0000000E+00; -8.0778919E-02;  4.0000000E+04;  0.0000000E+00;  4.0003477E+04; -2.4695283E-02;  0.0000000E+00;  5.5673830E-03;  5.2341998E+02;
  3.6153898E-01;  9.9999998E-03; -1.8002343E-01;4654; -5.8822581E-03;  0.0000000E+00; -1.0325561E-03;  9.9973828E+02;  1.0000000E-01; -2.1683337E+02;3; -1.7554381E+00;  0.0000000E+00; -1.1986254E-01;0; -1.8973865E-02;  3.9979785E+04;  0.0000000E+00; -1.5594362E-01;  4.0000000E+04;  0.0000000E+00;  4.0002172E+04; -2.4451960E-02;  0.0000000E+00;  5.4780962E-03;  3.6929947E+02;
  3.6156300E-01;  9.9999998E-03; -1.7001610E-01;4655; -5.8333073E-03;  0.0000000E+00; -9.8292076E-04;  9.9982269E+02;  1.0000000E-01; -1.4690942E+02;3; -1.7848203E+00;  0.0000000E+00; -1.1548905E-01;0; -1.8795203E-02;  3.9988668E+04;  0.0000000E+00; -2.0350547E-01;  4.0000000E+04;  0.0000000E+00;  4.0000766E+04; -2.4209131E-02;  0.0000000E+00;  5.4139271E-03;  3.0518698E+02;
  3.6160582E-01;  9.9999998E-03; -1.6000569E-01;4656; -5.7848655E-03;  0.0000000E+00; -9.3745330E-04;  9.9989008E+02;  1.0000000E-01; -9.1059151E+01;3; -1.8141493E+00;  0.0000000E+00; -1.1145625E-01;0; -1.8593190E-02;  3.9994602E+04;  0.0000000E+00; -2.2026663E-01;  4.0000000E+04;  0.0000000E+00;  3.9999332E+04; -2.3972593E-02;  0.0000000E+00;  5.3794030E-03;  3.2702777E+02;
  3.6165464E-01;  9.9999998E-03; -1.4999521E-01;4657; -5.7375007E-03;  0.0000000E+00; -8.9489156E-04;  9.9992639E+02;  1.0000000E-01; -6.0985931E+01;3; -1.8431462E+00;  0.0000000E+00; -1.0707029E-01;0; -1.8370114E-02;  3.9998469E+04;  0.0000000E+00; -2.0870458E-01;  4.0000000E+04;  0.0000000E+00;  3.9998555E+04; -2.3747984E-02;  0.0000000E+00;  5.3778710E-03;  3.4894266E+02;
  3.6169463E-01;  9.9999998E-03; -1.3998950E-01;4658; -5.6922343E-03;  0.0000000E+00; -8.5432502E-04;  9.9994617E+02;  1.0000000E-01; -4.4591331E+01;3; -1.8717912E+00;  0.0000000E+00; -1.0144155E-01;0; -1.8130569E-02;  4.0000059E+04;  0.0000000E+00; -1.7592093E-01;  4.0000000E+04;  0.0000000E+00;  3.9998414E+04; -2.3540396E-02;  0.0000000E+00;  5.4098275E-03;  3.2232703E+02;
  3.6172447E-01;  9.9999998E-03; -1.2998837E-01;4659; -5.6503047E-03;  0.0000000E+00; -8.1352267E-04;  9.9995312E+02;  1.0000000E-01; -3.8813717E+01;3; -1.9001396E+00;  0.0000000E+00; -9.5759228E-02;0; -1.7882040E-02;  4.0000285E+04;  0.0000000E+00; -1.3125727E-01;  4.0000000E+04;  0.0000000E+00;  3.9998473E+04; -2.3354741E-02;  0.0000000E+00;  5.4727015E-03;  2.4180374E+02;
  3.6174396E-01;  9.9999998E-03; -1.1999011E-01;4660; -5.6127966E-03;  0.0000000E+00; -7.7010022E-04;  9.9995490E+02;  1.0000000E-01; -3.7381660E+01;3; -1.9273959E+00;  0.0000000E+00; -9.0068325E-02;0; -1.7633382E-02;  3.9999305E+04;  0.0000000E+00; -8.3773270E-02;  4.0000000E+04;  0.0000000E+00;  3.9999457E+04; -2.3194784E-02;  0.0000000E+00;  5.5614025E-03;  1.2900627E+02;
  3.6175314E-01;  9.9999998E-03; -1.0999331E-01;4661; -5.5805361E-03;  0.0000000E+00; -7.2211790E-04;  9.9995526E+02;  1.0000000E-01; -3.7085369E+01;3; -1.9537728E+00;  0.0000000E+00; -8.4119998E-02;0; -1.7392758E-02;  3.9998094E+04;  0.0000000E+00; -4.0499881E-02;  4.0000000E+04;  0.0000000E+00;  4.0000465E+04; -2.3062604E-02;  0.0000000E+00;  5.6698453E-03;  1.0727176E+02;
  3.7147328E-01;  9.9999998E-03; -2.6998419E-01;4706; -6.6258041E-03;  0.0000000E+00; -1.7642899E-03;  9.9825708E+02;  1.0000000E-01; -1.4439591E+03;3; -1.5370555E+00;  0.0000000E+00; -4.2266257E-02;0; -1.9006787E-02;  3.9845949E+04;  0.0000000E+00;  1.4786752E-01;  4.0000000E+04;  0.0000000E+00;  4.0017262E+04; -2.6409877E-02;  0.0000000E+00;  7.4030901E-03;  2.3099604E+03;
  3.7149179E-01;  9.9999998E-03; -2.5998789E-01;4707; -6.5732240E-03;  0.0000000E+00; -1.6835752E-03;  9.9839667E+02;  1.0000000E-01; -1.3283081E+03;3; -1.5592592E+00;  0.0000000E+00; -7.1770176E-02;0; -1.9199811E-02;  3.9858418E+04;  0.0000000E+00;  2.2040197E-01;  4.0000000E+04;  0.0000000E+00;  4.0015832E+04; -2.6287394E-02;  0.0000000E+00;  7.0875818E-03;  2.1531523E+03;
  3.7151894E-01;  9.9999998E-03; -2.4999215E-01;4708; -6.5147625E-03;  0.0000000E+00; -1.6009054E-03;  9.9855444E+02;  1.0000000E-01; -1.1975957E+03;3; -1.5828160E+00;  0.0000000E+00; -9.4426572E-02;0; -1.9371785E-02;  3.9872617E+04;  0.0000000E+00;  2.5244147E-01;  4.0000000E+04;  0.0000000E+00;  4.0014406E+04; -2.6153984E-02;  0.0000000E+00;  6.7821988E-03;  1.9587731E+03;
  3.7154281E-01;  9.9999998E-03; -2.3999856E-01;4709; -6.4534503E-03;  0.0000000E+00; -1.4963415E-03;  9.9871686E+02;  1.0000000E-01; -1.0630811E+03;3; -1.6085094E+00;  0.0000000E+00; -1.1312634E-01;0; -1.9583369E-02;  3.9887676E+04;  0.0000000E+00;  2.4624045E-01;  4.0000000E+04;  0.0000000E+00;  4.0012254E+04; -2.6008766E-02;  0.0000000E+00;  6.4253970E-03;  1.6673281E+03;
  3.7155068E-01;  9.9999998E-03; -2.3001057E-01;4710; -6.3915541E-03;  0.0000000E+00; -1.3914640E-03;  9.9887347E+02;  1.0000000E-01; -9.3330695E+02;3; -1.6348082E+00;  0.0000000E+00; -1.2522289E-01;0; -1.9664060E-02;  3.9903438E+04;  0.0000000E+00;  2.0834787E-01;  4.0000000E+04;  0.0000000E+00;  4.0008934E+04; -2.5851155E-02;  0.0000000E+00;  6.1870948E-03;  1.2484146E+03;
  3.7154612E-01;  9.9999998E-03; -2.2002447E-01;4711; -6.3302605E-03;  0.0000000E+00; -1.3329370E-03;  9.9904364E+02;  1.0000000E-01; -7.9232324E+02;3; -1.6611847E+00;  0.0000000E+00; -1.3030542E-01;0; -1.9557554E-02;  3.9919199E+04;  0.0000000E+00;  1.4694779E-01;  4.0000000E+04;  0.0000000E+00;  4.0006457E+04; -2.5681121E-02;  0.0000000E+00;  6.1235675E-03;  9.1660577E+02;
  3.7153959E-01;  9.9999998E-03; -2.1002842E-01;4712; -6.2715835E-03;  0.0000000E+00; -1.2945150E-03;  9.9922174E+02;  1.0000000E-01; -6.4477191E+02;3; -1.6879075E+00;  0.0000000E+00; -1.3230895E-01;0; -1.9431414E-02;  3.9934898E+04;  0.0000000E+00;  7.1992889E-02;  4.0000000E+04;  0.0000000E+00;  4.0005902E+04; -2.5499318E-02;  0.0000000E+00;  6.0679042E-03;  7.8158887E+02;
  3.7153772E-01;  9.9999998E-03; -2.0002331E-01;4713; -6.2162364E-03;  0.0000000E+00; -1.2447905E-03;  9.9938953E+02;  1.0000000E-01; -5.0576349E+02;3; -1.7158260E+00;  0.0000000E+00; -1.3109681E-01;0; -1.9322854E-02;  3.9948758E+04;  0.0000000E+00; -5.8519230E-03;  4.0000000E+04;  0.0000000E+00;  4.0004902E+04; -2.5307463E-02;  0.0000000E+00;  5.9846090E-03;  6.5364258E+02;
  3.7154686E-01;  9.9999998E-03; -1.9001508E-01;4714; -6.1630681E-03;  0.0000000E+00; -1.1896985E-03;  9.9952875E+02;  1.0000000E-01; -3.9040872E+02;3; -1.7446499E+00;  0.0000000E+00; -1.2925155E-01;0; -1.9201031E-02;  3.9961352E+04;  0.0000000E+00; -7.5925469E-02;  4.0000000E+04;  0.0000000E+00;  4.0003539E+04; -2.5108414E-02;  0.0000000E+00;  5.9073828E-03;  4.7275098E+02;
  3.7156981E-01;  9.9999998E-03; -1.8000558E-01;4715; -6.1106132E-03;  0.0000000E+00; -1.1367043E-03;  9.9963861E+02;  1.0000000E-01; -2.9939893E+02;3; -1.7745522E+00;  0.0000000E+00; -1.2645328E-01;0; -1.9056223E-02;  3.9971684E+04;  0.0000000E+00; -1.2894633E-01;  4.0000000E+04;  0.0000000E+00;  4.0001926E+04; -2.4905918E-02;  0.0000000E+00;  5.8496939E-03;  3.0385477E+02;
  3.7160543E-01;  9.9999998E-03; -1.6999492E-01;4716; -6.0585393E-03;  0.0000000E+00; -1.0872779E-03;  9.9971906E+02;  1.0000000E-01; -2.3273416E+02;3; -1.8046205E+00;  0.0000000E+00; -1.2170292E-01;0; -1.8887533E-02;  3.9980148E+04;  0.0000000E+00; -1.5853249E-01;  4.0000000E+04;  0.0000000E+00;  4.0000367E+04; -2.4704460E-02;  0.0000000E+00;  5.8169267E-03;  2.3320668E+02;
  3.7164676E-01;  9.9999998E-03; -1.5998590E-01;4717; -6.0074418E-03;  0.0000000E+00; -1.0413957E-03;  9.9978345E+02;  1.0000000E-01; -1.7940233E+02;3; -1.8350466E+00;  0.0000000E+00; -1.1744419E-01;0; -1.8694971E-02;  3.9986062E+04;  0.0000000E+00; -1.6264153E-01;  4.0000000E+04;  0.0000000E+00;  3.9999262E+04; -2.4508720E-02;  0.0000000E+00;  5.8137504E-03;  2.5499167E+02;
  3.7168643E-01;  9.9999998E-03; -1.4998157E-01;4718; -5.9582307E-03;  0.0000000E+00; -9.9723414E-04;  9.9982904E+02;  1.0000000E-01; -1.4162563E+02;3; -1.8649669E+00;  0.0000000E+00; -1.1259001E-01;0; -1.8480241E-02;  3.9990086E+04;  0.0000000E+00; -1.4409967E-01;  4.0000000E+04;  0.0000000E+00;  3.9998785E+04; -2.4323450E-02;  0.0000000E+00;  5.8432100E-03;  2.6792218E+02;
  3.7172046E-01;  9.9999998E-03; -1.3998145E-01;4719; -5.9121172E-03;  0.0000000E+00; -9.5333991E-04;  9.9985468E+02;  1.0000000E-01; -1.2039165E+02;3; -1.8947021E+00;  0.0000000E+00; -1.0757128E-01;0; -1.8247601E-02;  3.9992074E+04;  0.0000000E+00; -1.0975696E-01;  4.0000000E+04;  0.0000000E+00;  3.9998613E+04; -2.4152987E-02;  0.0000000E+00;  5.9053861E-03;  2.2996425E+02;
  3.7174523E-01;  9.9999998E-03; -1.2998450E-01;4720; -5.8701392E-03;  0.0000000E+00; -9.0762222E-04;  9.9987286E+02;  1.0000000E-01; -1.0533035E+02;3; -1.9240081E+00;  0.0000000E+00; -1.0202386E-01;0; -1.8004030E-02;  3.9993160E+04;  0.0000000E+00; -6.8258882E-02;  4.0000000E+04;  0.0000000E+00;  3.9998836E+04; -2.4000760E-02;  0.0000000E+00;  5.9967306E-03;  1.4327228E+02;
  3.7175825E-01;  9.9999998E-03; -1.1998957E-01;4721; -5.8331485E-03;  0.0000000E+00; -8.5769140E-04;  9.9988702E+02;  1.0000000E-01; -9.3577599E+01;3; -1.9526372E+00;  0.0000000E+00; -9.5897987E-02;0; -1.7757900E-02;  3.9993207E+04;  0.0000000E+00; -2.7530665E-02;  4.0000000E+04;  0.0000000E+00;  3.9999617E+04; -2.3869125E-02;  0.0000000E+00;  6.1112251E-03;  3.9367744E+01;
  3.7175739E-01;  9.9999998E-03; -1.0999528E-01;4722; -5.8015473E-03;  0.0000000E+00; -8.0176815E-04;  9.9989948E+02;  1.0000000E-01; -8.3306290E+01;3; -1.9800795E+00;  0.0000000E+00; -8.8304915E-02;0; -1.7517144E-02;  3.9993121E+04;  0.0000000E+00;  6.7769238E-03;  4.0000000E+04;  0.0000000E+00;  4.0000930E+04; -2.3758868E-02;  0.0000000E+00;  6.2417234E-03;  1.3138155E+02;
  3.8148579E-01;  9.9999998E-03; -2.6998505E-01;4767; -6.8939845E-03;  0.0000000E+00; -1.8701663E-03;  9.9824121E+02;  1.0000000E-01; -1.4571439E+03;3; -1.5386950E+00;  0.0000000E+00; -2.3388924E-02;0; -1.9328311E-02;  3.9843434E+04;  0.0000000E+00;  6.0446851E-02;  4.0000000E+04;  0.0000000E+00;  4.0017488E+04; -2.6580146E-02;  0.0000000E+00;  7.2518336E-03;  2.3030745E+03;
  3.8149995E-01;  9.9999998E-03; -2.5998855E-01;4768; -6.8393047E-03;  0.0000000E+00; -1.7939819E-03;  9.9838385E+02;  1.0000000E-01; -1.3389250E+03;3; -1.5610926E+00;  0.0000000E+00; -5.2050903E-02;0; -1.9442406E-02;  3.9856102E+04;  0.0000000E+00;  1.2014756E-01;  4.0000000E+04;  0.0000000E+00;  4.0015828E+04; -2.6485469E-02;  0.0000000E+00;  7.0430641E-03;  2.1273435E+03;
  3.8151652E-01;  9.9999998E-03; -2.4999183E-01;4769; -6.7780102E-03;  0.0000000E+00; -1.7335390E-03;  9.9854059E+02;  1.0000000E-01; -1.2091016E+03;3; -1.5861459E+00;  0.0000000E+00; -7.6464310E-02;0; -1.9432491E-02;  3.9870051E+04;  0.0000000E+00;  1.5019032E-01;  4.0000000E+04;  0.0000000E+00;  4.0014297E+04; -2.6381740E-02;  0.0000000E+00;  6.9492492E-03;  1.9579879E+03;
  3.8153502E-01;  9.9999998E-03; -2.3999518E-01;4770; -6.7132399E-03;  0.0000000E+00; -1.6587119E-03;  9.9870636E+02;  1.0000000E-01; -1.0717722E+03;3; -1.6128949E+00;  0.0000000E+00; -9.6356295E-02;0; -1.9518316E-02;  3.9884668E+04;  0.0000000E+00;  1.5190063E-01;  4.0000000E+04;  0.0000000E+00;  4.0013027E+04; -2.6268445E-02;  0.0000000E+00;  6.7501287E-03;  1.7548029E+03;
  3.8155022E-01;  9.9999998E-03; -2.3000166E-01;4771; -6.6473782E-03;  0.0000000E+00; -1.5571961E-03;  9.9886469E+02;  1.0000000E-01; -9.4056598E+02;3; -1.6415155E+00;  0.0000000E+00; -1.1424020E-01;0; -1.9642444E-02;  3.9899980E+04;  0.0000000E+00;  1.3069466E-01;  4.0000000E+04;  0.0000000E+00;  4.0010750E+04; -2.6145097E-02;  0.0000000E+00;  6.5026530E-03;  1.4226597E+03;
  3.8156179E-01;  9.9999998E-03; -2.2000951E-01;4772; -6.5820622E-03;  0.0000000E+00; -1.4773017E-03;  9.9902045E+02;  1.0000000E-01; -8.1153259E+02;3; -1.6704285E+00;  0.0000000E+00; -1.2597089E-01;0; -1.9621145E-02;  3.9915059E+04;  0.0000000E+00;  9.2427567E-02;  4.0000000E+04;  0.0000000E+00;  4.0008039E+04; -2.6011661E-02;  0.0000000E+00;  6.3905152E-03;  1.1019834E+03;
  3.8157395E-01;  9.9999998E-03; -2.1000929E-01;4773; -6.5194843E-03;  0.0000000E+00; -1.4182173E-03;  9.9918274E+02;  1.0000000E-01; -6.7706726E+02;3; -1.6996368E+00;  0.0000000E+00; -1.3116585E-01;0; -1.9536281E-02;  3.9929562E+04;  0.0000000E+00;  4.4132471E-02;  4.0000000E+04;  0.0000000E+00;  4.0006832E+04; -2.5868626E-02;  0.0000000E+00;  6.3323458E-03;  9.1289832E+02;
  3.8159102E-01;  9.9999998E-03; -2.0000128E-01;4774; -6.4605451E-03;  0.0000000E+00; -1.3575293E-03;  9.9932843E+02;  1.0000000E-01; -5.5637933E+02;3; -1.7297810E+00;  0.0000000E+00; -1.3336797E-01;0; -1.9440178E-02;  3.9942809E+04;  0.0000000E+00; -6.2360596E-03;  4.0000000E+04;  0.0000000E+00;  4.0005359E+04; -2.5717422E-02;  0.0000000E+00;  6.2772445E-03;  7.2313324E+02;
  3.8161659E-01;  9.9999998E-03; -1.8999068E-01;4775; -6.4036511E-03;  0.0000000E+00; -1.2976851E-03;  9.9945154E+02;  1.0000000E-01; -4.5440689E+02;3; -1.7601362E+00;  0.0000000E+00; -1.3136229E-01;0; -1.9323951E-02;  3.9954586E+04;  0.0000000E+00; -5.0591223E-02;  4.0000000E+04;  0.0000000E+00;  4.0003520E+04; -2.5560513E-02;  0.0000000E+00;  6.2365625E-03;  4.9288910E+02;
  3.8165185E-01;  9.9999998E-03; -1.7998013E-01;4776; -6.3479892E-03;  0.0000000E+00; -1.2422380E-03;  9.9955371E+02;  1.0000000E-01; -3.6971793E+02;3; -1.7912359E+00;  0.0000000E+00; -1.2917872E-01;0; -1.9184692E-02;  3.9964648E+04;  0.0000000E+00; -8.1937827E-02;  4.0000000E+04;  0.0000000E+00;  4.0001773E+04; -2.5401073E-02;  0.0000000E+00;  6.2163803E-03;  2.7707278E+02;
  3.8169208E-01;  9.9999998E-03; -1.6997159E-01;4777; -6.2934118E-03;  0.0000000E+00; -1.1917008E-03;  9.9964282E+02;  1.0000000E-01; -2.9589285E+02;3; -1.8224856E+00;  0.0000000E+00; -1.2501907E-01;0; -1.9021897E-02;  3.9972828E+04;  0.0000000E+00; -9.5667042E-02;  4.0000000E+04;  0.0000000E+00;  4.0000117E+04; -2.5242755E-02;  0.0000000E+00;  6.2208585E-03;  1.5028241E+02;
  3.8172910E-01;  9.9999998E-03; -1.5996699E-01;4778; -6.2404736E-03;  0.0000000E+00; -1.1434490E-03;  9.9970612E+02;  1.0000000E-01; -2.4349928E+02;3; -1.8540602E+00;  0.0000000E+00; -1.2066780E-01;0; -1.8835202E-02;  3.9979176E+04;  0.0000000E+00; -9.0623371E-02;  4.0000000E+04;  0.0000000E+00;  3.9999172E+04; -2.5089186E-02;  0.0000000E+00;  6.2539843E-03;  1.4869020E+02;
  3.8175911E-01;  9.9999998E-03; -1.4996687E-01;4779; -6.1902781E-03;  0.0000000E+00; -1.0957184E-03;  9.9975537E+02;  1.0000000E-01; -2.0266093E+02;3; -1.8853492E+00;  0.0000000E+00; -1.1617674E-01;0; -1.8625939E-02;  3.9983359E+04;  0.0000000E+00; -6.9489144E-02;  4.0000000E+04;  0.0000000E+00;  3.9998586E+04; -2.4944140E-02;  0.0000000E+00;  6.3182004E-03;  1.5709639E+02;
  3.8178200E-01;  9.9999998E-03; -1.3997045E-01;4780; -6.1439811E-03;  0.0000000E+00; -1.0468153E-03;  9.9979266E+02;  1.0000000E-01; -1.7179761E+02;3; -1.9162635E+00;  0.0000000E+00; -1.1072667E-01;0; -1.8398201E-02;  3.9986305E+04;  0.0000000E+00; -3.8188998E-02;  4.0000000E+04;  0.0000000E+00;  3.9998949E+04; -2.4810927E-02;  0.0000000E+00;  6.4127264E-03;  1.2083327E+02;
  3.8179705E-01;  9.9999998E-03; -1.2997636E-01;4781; -6.1024809E-03;  0.0000000E+00; -9.9476718E-04;  9.9982031E+02;  1.0000000E-01; -1.4888467E+02;3; -1.9468235E+00;  0.0000000E+00; -1.0474413E-01;0; -1.8158818E-02;  3.9987520E+04;  0.0000000E+00; -4.0034126E-03;  4.0000000E+04;  0.0000000E+00;  3.9999266E+04; -2.4692178E-02;  0.0000000E+00;  6.5333601E-03;  4.4928204E+01;
  3.8180333E-01;  9.9999998E-03; -1.1998339E-01;4782; -6.0662734E-03;  0.0000000E+00; -9.3744934E-04;  9.9983783E+02;  1.0000000E-01; -1.3436658E+02;3; -1.9765041E+00;  0.0000000E+00; -9.7497322E-02;0; -1.7915646E-02;  3.9988086E+04;  0.0000000E+00;  2.6761683E-02;  4.0000000E+04;  0.0000000E+00;  4.0000094E+04; -2.4589295E-02;  0.0000000E+00;  6.6736490E-03;  6.3650459E+01;
  3.8180056E-01;  9.9999998E-03; -1.0999041E-01;4783; -6.0353847E-03;  0.0000000E+00; -8.7348639E-04;  9.9985168E+02;  1.0000000E-01; -1.2286073E+02;3; -2.0050421E+00;  0.0000000E+00; -8.9897856E-02;0; -1.7676467E-02;  3.9988434E+04;  0.0000000E+00;  5.0057795E-02;  4.0000000E+04;  0.0000000E+00;  4.0001098E+04; -2.4502473E-02;  0.0000000E+00;  6.8260063E-03;  1.7664357E+02;
  3.9149466E-01;  9.9999998E-03; -2.6998523E-01;4828; -7.1691573E-03;  0.0000000E+00; -1.9818069E-03;  9.9822748E+02;  1.0000000E-01; -1.4685017E+03;3; -1.5360141E+00;  0.0000000E+00; -5.3285877E-03;0; -1.9635191E-02;  3.9841102E+04;  0.0000000E+00; -1.7129006E-02;  4.0000000E+04;  0.0000000E+00;  4.0017336E+04; -2.6779724E-02;  0.0000000E+00;  7.1445331E-03;  2.3113582E+03;
  3.9150527E-01;  9.9999998E-03; -2.5998825E-01;4829; -7.1108839E-03;  0.0000000E+00; -1.9134660E-03;  9.9836554E+02;  1.0000000E-01; -1.3541345E+03;3; -1.5600542E+00;  0.0000000E+00; -3.4487486E-02;0; -1.9663788E-02;  3.9853738E+04;  0.0000000E+00;  2.6516976E-02;  4.0000000E+04;  0.0000000E+00;  4.0016094E+04; -2.6711488E-02;  0.0000000E+00;  7.0476993E-03;  2.1393596E+03;
  3.9152643E-01;  9.9999998E-03; -2.4999078E-01;4830; -7.0472970E-03;  0.0000000E+00; -1.8598351E-03;  9.9852124E+02;  1.0000000E-01; -1.2251012E+03;3; -1.5869011E+00;  0.0000000E+00; -5.9134401E-02;0; -1.9602885E-02;  3.9867281E+04;  0.0000000E+00;  5.2430276E-02;  4.0000000E+04;  0.0000000E+00;  4.0014520E+04; -2.6637293E-02;  0.0000000E+00;  7.0344079E-03;  1.9740841E+03;
  3.9155462E-01;  9.9999998E-03; -2.3999226E-01;4831; -6.9803721E-03;  0.0000000E+00; -1.7969743E-03;  9.9868396E+02;  1.0000000E-01; -1.0902902E+03;3; -1.6151205E+00;  0.0000000E+00; -8.0177851E-02;0; -1.9634783E-02;  3.9881805E+04;  0.0000000E+00;  6.1648060E-02;  4.0000000E+04;  0.0000000E+00;  4.0013516E+04; -2.6556691E-02;  0.0000000E+00;  6.9219070E-03;  1.8107773E+03;
  3.9157873E-01;  9.9999998E-03; -2.2999349E-01;4832; -6.9118231E-03;  0.0000000E+00; -1.7128842E-03;  9.9884717E+02;  1.0000000E-01; -9.5508411E+02;3; -1.6451628E+00;  0.0000000E+00; -9.8332390E-02;0; -1.9720413E-02;  3.9896266E+04;  0.0000000E+00;  5.7018954E-02;  4.0000000E+04;  0.0000000E+00;  4.0011992E+04; -2.6468886E-02;  0.0000000E+00;  6.7484728E-03;  1.5843397E+03;
  3.9160052E-01;  9.9999998E-03; -2.1999414E-01;4833; -6.8436004E-03;  0.0000000E+00; -1.6271502E-03;  9.9900293E+02;  1.0000000E-01; -8.2605072E+02;3; -1.6759741E+00;  0.0000000E+00; -1.1237978E-01;0; -1.9739728E-02;  3.9911023E+04;  0.0000000E+00;  4.1692775E-02;  4.0000000E+04;  0.0000000E+00;  4.0009820E+04; -2.6373675E-02;  0.0000000E+00;  6.6339467E-03;  1.3198232E+03;
  3.9162478E-01;  9.9999998E-03; -2.0998943E-01;4834; -6.7779482E-03;  0.0000000E+00; -1.5496899E-03;  9.9914850E+02;  1.0000000E-01; -7.0546155E+02;3; -1.7074765E+00;  0.0000000E+00; -1.2273783E-01;0; -1.9693483E-02;  3.9924758E+04;  0.0000000E+00;  1.9980775E-02;  4.0000000E+04;  0.0000000E+00;  4.0008074E+04; -2.6271360E-02;  0.0000000E+00;  6.5778778E-03;  1.0860868E+03;
  3.9165387E-01;  9.9999998E-03; -1.9998056E-01;4835; -6.7154611E-03;  0.0000000E+00; -1.4764437E-03;  9.9928326E+02;  1.0000000E-01; -5.9381036E+02;3; -1.7399725E+00;  0.0000000E+00; -1.2737235E-01;0; -1.9610161E-02;  3.9937766E+04;  0.0000000E+00; -2.9780213E-03;  4.0000000E+04;  0.0000000E+00;  4.0006105E+04; -2.6162898E-02;  0.0000000E+00;  6.5527372E-03;  8.2739911E+02;
  3.9168701E-01;  9.9999998E-03; -1.8997124E-01;4836; -6.6550262E-03;  0.0000000E+00; -1.4107645E-03;  9.9940533E+02;  1.0000000E-01; -4.9267743E+02;3; -1.7725701E+00;  0.0000000E+00; -1.2974910E-01;0; -1.9497311E-02;  3.9949523E+04;  0.0000000E+00; -2.1880826E-02;  4.0000000E+04;  0.0000000E+00;  4.0003957E+04; -2.6049981E-02;  0.0000000E+00;  6.5526702E-03;  5.5022284E+02;
  3.9171985E-01;  9.9999998E-03; -1.7996377E-01;4837; -6.5961857E-03;  0.0000000E+00; -1.3510754E-03;  9.9950616E+02;  1.0000000E-01; -4.0912424E+02;3; -1.8051089E+00;  0.0000000E+00; -1.2743124E-01;0; -1.9360345E-02;  3.9959734E+04;  0.0000000E+00; -3.2237198E-02;  4.0000000E+04;  0.0000000E+00;  4.0001984E+04; -2.5934806E-02;  0.0000000E+00;  6.5744603E-03;  3.0289780E+02;
  3.9174861E-01;  9.9999998E-03; -1.6995947E-01;4838; -6.5391259E-03;  0.0000000E+00; -1.2961301E-03;  9.9959399E+02;  1.0000000E-01; -3.3638556E+02;3; -1.8381661E+00;  0.0000000E+00; -1.2512723E-01;0; -1.9199714E-02;  3.9967965E+04;  0.0000000E+00; -3.1283155E-02;  4.0000000E+04;  0.0000000E+00;  4.0000777E+04; -2.5819935E-02;  0.0000000E+00;  6.6202213E-03;  1.2093906E+02;
  3.9177209E-01;  9.9999998E-03; -1.5995896E-01;4839; -6.4847586E-03;  0.0000000E+00; -1.2431092E-03;  9.9966895E+02;  1.0000000E-01; -2.7426385E+02;3; -1.8711581E+00;  0.0000000E+00; -1.2103266E-01;0; -1.9015372E-02;  3.9974871E+04;  0.0000000E+00; -1.8740758E-02;  4.0000000E+04;  0.0000000E+00;  3.9999602E+04; -2.5708498E-02;  0.0000000E+00;  6.6931266E-03;  2.8914425E+01;
  3.9178917E-01;  9.9999998E-03; -1.4996168E-01;4840; -6.4340476E-03;  0.0000000E+00; -1.1895585E-03;  9.9972400E+02;  1.0000000E-01; -2.2868489E+02;3; -1.9037249E+00;  0.0000000E+00; -1.1639922E-01;0; -1.8808881E-02;  3.9979586E+04;  0.0000000E+00;  2.9572330E-03;  4.0000000E+04;  0.0000000E+00;  3.9999406E+04; -2.5603466E-02;  0.0000000E+00;  6.7945844E-03;  4.6969395E+01;
  3.9180315E-01;  9.9999998E-03; -1.3996674E-01;4841; -6.3880761E-03;  0.0000000E+00; -1.1339908E-03;  9.9976483E+02;  1.0000000E-01; -1.9480931E+02;3; -1.9358968E+00;  0.0000000E+00; -1.1120850E-01;0; -1.8584570E-02;  3.9982754E+04;  0.0000000E+00;  2.9170103E-02;  4.0000000E+04;  0.0000000E+00;  3.9999543E+04; -2.5507515E-02;  0.0000000E+00;  6.9229458E-03;  5.4735920E+01;
  3.9181536E-01;  9.9999998E-03; -1.2997313E-01;4842; -6.3473857E-03;  0.0000000E+00; -1.0745139E-03;  9.9979218E+02;  1.0000000E-01; -1.7219266E+02;3; -1.9675535E+00;  0.0000000E+00; -1.0482638E-01;0; -1.8348986E-02;  3.9984602E+04;  0.0000000E+00;  5.4433879E-02;  4.0000000E+04;  0.0000000E+00;  3.9999852E+04; -2.5422538E-02;  0.0000000E+00;  7.0735514E-03;  7.8509590E+01;
  3.9182347E-01;  9.9999998E-03; -1.1997983E-01;4843; -6.3121021E-03;  0.0000000E+00; -1.0092242E-03;  9.9981152E+02;  1.0000000E-01; -1.5614374E+02;3; -1.9985521E+00;  0.0000000E+00; -9.7710431E-02;0; -1.8109506E-02;  3.9985527E+04;  0.0000000E+00;  7.4340403E-02;  4.0000000E+04;  0.0000000E+00;  4.0000504E+04; -2.5349179E-02;  0.0000000E+00;  7.2396738E-03;  1.3785239E+02;
  3.9182574E-01;  9.9999998E-03; -1.0998572E-01;4844; -6.2818886E-03;  0.0000000E+00; -9.3735597E-04;  9.9982367E+02;  1.0000000E-01; -1.4606995E+02;3; -2.0285320E+00;  0.0000000E+00; -9.0978108E-02;0; -1.7873820E-02;  3.9985352E+04;  0.0000000E+00;  8.6526915E-02;  4.0000000E+04;  0.0000000E+00;  4.0001539E+04; -2.5287334E-02;  0.0000000E+00;  7.4135144E-03;  2.1248769E+02;
  4.0149388E-01;  9.9999998E-03; -2.6998496E-01;4889; -7.4488414E-03;  0.0000000E+00; -2.0960693E-03;  9.9821289E+02;  1.0000000E-01; -1.4806001E+03;3; -1.5296882E+00;  0.0000000E+00;  1.3459930E-02;0; -1.9940525E-02;  3.9838781E+04;  0.0000000E+00; -7.8833312E-02;  4.0000000E+04;  0.0000000E+00;  4.0017355E+04; -2.6998241E-02;  0.0000000E+00;  7.0577152E-03;  2.3282593E+03;
  4.0150571E-01;  9.9999998E-03; -2.5998759E-01;4890; -7.3872311E-03;  0.0000000E+00; -2.0319207E-03;  9.9835083E+02;  1.0000000E-01; -1.3662823E+03;3; -1.5550151E+00;  0.0000000E+00; -1.6608536E-02;0; -1.9933838E-02;  3.9851375E+04;  0.0000000E+00; -5.2856442E-02;  4.0000000E+04;  0.0000000E+00;  4.0015988E+04; -2.6956964E-02;  0.0000000E+00;  7.0231268E-03;  2.1546333E+03;
  4.0152657E-01;  9.9999998E-03; -2.4998952E-01;4891; -7.3215822E-03;  0.0000000E+00; -1.9837911E-03;  9.9850433E+02;  1.0000000E-01; -1.2391255E+03;3; -1.5836407E+00;  0.0000000E+00; -4.1688874E-02;0; -1.9835522E-02;  3.9864652E+04;  0.0000000E+00; -3.4335196E-02;  4.0000000E+04;  0.0000000E+00;  4.0014707E+04; -2.6912982E-02;  0.0000000E+00;  7.0774597E-03;  1.9952778E+03;
  4.0155622E-01;  9.9999998E-03; -2.3998961E-01;4892; -7.2530303E-03;  0.0000000E+00; -1.9310546E-03;  9.9866498E+02;  1.0000000E-01; -1.1060428E+03;3; -1.6136202E+00;  0.0000000E+00; -6.4468347E-02;0; -1.9821985E-02;  3.9878824E+04;  0.0000000E+00; -2.1704176E-02;  4.0000000E+04;  0.0000000E+00;  4.0013938E+04; -2.6865933E-02;  0.0000000E+00;  7.0439484E-03;  1.8638779E+03;
  4.0158668E-01;  9.9999998E-03; -2.2998711E-01;4893; -7.1830838E-03;  0.0000000E+00; -1.8596640E-03;  9.9883069E+02;  1.0000000E-01; -9.6876270E+02;3; -1.6454172E+00;  0.0000000E+00; -8.2681589E-02;0; -1.9879958E-02;  3.9892992E+04;  0.0000000E+00; -1.4005959E-02;  4.0000000E+04;  0.0000000E+00;  4.0012895E+04; -2.6815100E-02;  0.0000000E+00;  6.9351420E-03;  1.7169816E+03;
  4.0161443E-01;  9.9999998E-03; -2.1998386E-01;4894; -7.1137738E-03;  0.0000000E+00; -1.7674426E-03;  9.9898523E+02;  1.0000000E-01; -8.4071698E+02;3; -1.6788131E+00;  0.0000000E+00; -9.8513335E-02;0; -1.9931357E-02;  3.9907422E+04;  0.0000000E+00; -1.0350463E-02;  4.0000000E+04;  0.0000000E+00;  4.0011059E+04; -2.6759766E-02;  0.0000000E+00;  6.8284092E-03;  1.4756250E+03;
  4.0164229E-01;  9.9999998E-03; -2.0997901E-01;4895; -7.0460751E-03;  0.0000000E+00; -1.6791041E-03;  9.9912762E+02;  1.0000000E-01; -7.2274500E+02;3; -1.7125441E+00;  0.0000000E+00; -1.1075057E-01;0; -1.9905915E-02;  3.9921309E+04;  0.0000000E+00; -8.8963844E-03;  4.0000000E+04;  0.0000000E+00;  4.0009094E+04; -2.6699727E-02;  0.0000000E+00;  6.7938115E-03;  1.1925400E+03;
  4.0167111E-01;  9.9999998E-03; -1.9997284E-01;4896; -6.9804685E-03;  0.0000000E+00; -1.5992074E-03;  9.9926147E+02;  1.0000000E-01; -6.1183453E+02;3; -1.7469374E+00;  0.0000000E+00; -1.1839528E-01;0; -1.9827595E-02;  3.9934395E+04;  0.0000000E+00; -7.2058043E-03;  4.0000000E+04;  0.0000000E+00;  4.0006598E+04; -2.6635272E-02;  0.0000000E+00;  6.8076770E-03;  8.9380420E+02;
  4.0169907E-01;  9.9999998E-03; -1.8996727E-01;4897; -6.9167195E-03;  0.0000000E+00; -1.5279148E-03;  9.9938287E+02;  1.0000000E-01; -5.1129419E+02;3; -1.7817959E+00;  0.0000000E+00; -1.2278910E-01;0; -1.9715447E-02;  3.9946359E+04;  0.0000000E+00; -2.7442924E-03;  4.0000000E+04;  0.0000000E+00;  4.0004438E+04; -2.6567148E-02;  0.0000000E+00;  6.8517015E-03;  6.0643695E+02;
  4.0172383E-01;  9.9999998E-03; -1.7996365E-01;4898; -6.8551004E-03;  0.0000000E+00; -1.4631579E-03;  9.9948798E+02;  1.0000000E-01; -4.2418555E+02;3; -1.8164637E+00;  0.0000000E+00; -1.2364779E-01;0; -1.9577798E-02;  3.9957246E+04;  0.0000000E+00;  6.4329407E-03;  4.0000000E+04;  0.0000000E+00;  4.0002453E+04; -2.6496820E-02;  0.0000000E+00;  6.9190226E-03;  3.6552289E+02;
  4.0174496E-01;  9.9999998E-03; -1.6996270E-01;4899; -6.7961216E-03;  0.0000000E+00; -1.4019069E-03;  9.9958234E+02;  1.0000000E-01; -3.4601489E+02;3; -1.8511219E+00;  0.0000000E+00; -1.2116685E-01;0; -1.9416362E-02;  3.9966141E+04;  0.0000000E+00;  2.1150930E-02;  4.0000000E+04;  0.0000000E+00;  4.0001141E+04; -2.6426110E-02;  0.0000000E+00;  7.0097493E-03;  1.9242387E+02;
  4.0176341E-01;  9.9999998E-03; -1.5996432E-01;4900; -6.7408830E-03;  0.0000000E+00; -1.3415527E-03;  9.9966559E+02;  1.0000000E-01; -2.7702921E+02;3; -1.8857664E+00;  0.0000000E+00; -1.1800826E-01;0; -1.9231709E-02;  3.9973008E+04;  0.0000000E+00;  4.0719319E-02;  4.0000000E+04;  0.0000000E+00;  4.0000301E+04; -2.6357405E-02;  0.0000000E+00;  7.1256962E-03;  1.0044589E+02;
  4.0178075E-01;  9.9999998E-03; -1.4996809E-01;4901; -6.6903341E-03;  0.0000000E+00; -1.2804501E-03;  9.9972540E+02;  1.0000000E-01; -2.2749974E+02;3; -1.9201158E+00;  0.0000000E+00; -1.1304613E-01;0; -1.9025993E-02;  3.9978078E+04;  0.0000000E+00;  6.2900022E-02;  4.0000000E+04;  0.0000000E+00;  4.0000000E+04; -2.6292963E-02;  0.0000000E+00;  7.2669708E-03;  9.4996330E+01;
  4.0179536E-01;  9.9999998E-03; -1.3997313E-01;4902; -6.6450066E-03;  0.0000000E+00; -1.2165583E-03;  9.9976678E+02;  1.0000000E-01; -1.9322910E+02;3; -1.9536505E+00;  0.0000000E+00; -1.0775328E-01;0; -1.8803904E-02;  3.9981777E+04;  0.0000000E+00;  8.4313430E-02;  4.0000000E+04;  0.0000000E+00;  4.0000367E+04; -2.6234562E-02;  0.0000000E+00;  7.4306573E-03;  1.2349496E+02;
  4.0180832E-01;  9.9999998E-03; -1.2997843E-01;4903; -6.6051907E-03;  0.0000000E+00; -1.1484816E-03;  9.9979657E+02;  1.0000000E-01; -1.6853844E+02;3; -1.9869457E+00;  0.0000000E+00; -1.0200777E-01;0; -1.8571829E-02;  3.9983836E+04;  0.0000000E+00;  1.0139515E-01;  4.0000000E+04;  0.0000000E+00;  4.0000320E+04; -2.6183456E-02;  0.0000000E+00;  7.6116263E-03;  1.5583247E+02;
  4.0181980E-01;  9.9999998E-03; -1.1998315E-01;4904; -6.5707304E-03;  0.0000000E+00; -1.0747461E-03;  9.9980731E+02;  1.0000000E-01; -1.5964981E+02;3; -2.0193589E+00;  0.0000000E+00; -9.5469236E-02;0; -1.8336752E-02;  3.9984723E+04;  0.0000000E+00;  1.1167942E-01;  4.0000000E+04;  0.0000000E+00;  4.0000703E+04; -2.6140153E-02;  0.0000000E+00;  7.8034005E-03;  1.9107495E+02;
  4.0182665E-01;  9.9999998E-03; -1.0998677E-01;4905; -6.5408684E-03;  0.0000000E+00; -9.9442992E-04;  9.9980804E+02;  1.0000000E-01; -1.5900784E+02;3; -2.0505946E+00;  0.0000000E+00; -8.7951072E-02;0; -1.8105913E-02;  3.9984250E+04;  0.0000000E+00;  1.1438314E-01;  4.0000000E+04;  0.0000000E+00;  4.0001387E+04; -2.6104264E-02;  0.0000000E+00;  7.9983501E-03;  2.2935690E+02;
  4.1150215E-01;  9.9999998E-03; -2.6998460E-01;4950; -7.7312500E-03;  0.0000000E+00; -2.2082676E-03;  9.9820251E+02;  1.0000000E-01; -1.4891925E+03;3; -1.5198200E+00;  0.0000000E+00;  3.6967725E-02;0; -2.0281062E-02;  3.9837453E+04;  0.0000000E+00; -1.3455719E-01;  4.0000000E+04;  0.0000000E+00;  4.0017277E+04; -2.7226489E-02;  0.0000000E+00;  6.9454280E-03;  2.3409397E+03;
  4.1151330E-01;  9.9999998E-03; -2.5998697E-01;4951; -7.6665506E-03;  0.0000000E+00; -2.1473092E-03;  9.9833942E+02;  1.0000000E-01; -1.3757635E+03;3; -1.5468024E+00;  0.0000000E+00;  5.1377653E-03;0; -2.0252386E-02;  3.9849602E+04;  0.0000000E+00; -1.2210061E-01;  4.0000000E+04;  0.0000000E+00;  4.0016164E+04; -2.7213434E-02;  0.0000000E+00;  6.9610472E-03;  2.1658472E+03;
  4.1152865E-01;  9.9999998E-03; -2.4998857E-01;4952; -7.5994832E-03;  0.0000000E+00; -2.1012197E-03;  9.9848975E+02;  1.0000000E-01; -1.2512239E+03;3; -1.5765834E+00;  0.0000000E+00; -2.0625871E-02;0; -2.0140009E-02;  3.9862695E+04;  0.0000000E+00; -1.1019590E-01;  4.0000000E+04;  0.0000000E+00;  4.0014793E+04; -2.7200826E-02;  0.0000000E+00;  7.0608165E-03;  2.0067472E+03;
  4.1155180E-01;  9.9999998E-03; -2.3998775E-01;4953; -7.5301779E-03;  0.0000000E+00; -2.0583188E-03;  9.9864642E+02;  1.0000000E-01; -1.1214004E+03;3; -1.6087376E+00;  0.0000000E+00; -4.3182418E-02;0; -2.0075763E-02;  3.9876582E+04;  0.0000000E+00; -9.6739963E-02;  4.0000000E+04;  0.0000000E+00;  4.0014156E+04; -2.7188553E-02;  0.0000000E+00;  7.1127894E-03;  1.9040991E+03;
  4.1157740E-01;  9.9999998E-03; -2.2998361E-01;4954; -7.4598463E-03;  0.0000000E+00; -1.9948736E-03;  9.9881818E+02;  1.0000000E-01; -9.7913281E+02;3; -1.6422707E+00;  0.0000000E+00; -6.1722867E-02;0; -2.0114435E-02;  3.9890949E+04;  0.0000000E+00; -8.1343099E-02;  4.0000000E+04;  0.0000000E+00;  4.0013574E+04; -2.7175659E-02;  0.0000000E+00;  7.0612249E-03;  1.7948812E+03;
  4.1160265E-01;  9.9999998E-03; -2.1998094E-01;4955; -7.3906868E-03;  0.0000000E+00; -1.8957806E-03;  9.9897211E+02;  1.0000000E-01; -8.5158087E+02;3; -1.6779410E+00;  0.0000000E+00; -8.1452891E-02;0; -2.0188093E-02;  3.9905262E+04;  0.0000000E+00; -6.4173862E-02;  4.0000000E+04;  0.0000000E+00;  4.0011574E+04; -2.7161216E-02;  0.0000000E+00;  6.9731227E-03;  1.5284973E+03;
  4.1162828E-01;  9.9999998E-03; -2.0997979E-01;4956; -7.3220166E-03;  0.0000000E+00; -1.8033140E-03;  9.9911499E+02;  1.0000000E-01; -7.3321381E+02;3; -1.7142396E+00;  0.0000000E+00; -9.4992921E-02;0; -2.0166598E-02;  3.9919281E+04;  0.0000000E+00; -4.5084316E-02;  4.0000000E+04;  0.0000000E+00;  4.0009062E+04; -2.7144397E-02;  0.0000000E+00;  6.9777975E-03;  1.2091909E+03;
  4.1165331E-01;  9.9999998E-03; -1.9997779E-01;4957; -7.2542159E-03;  0.0000000E+00; -1.7226333E-03;  9.9925232E+02;  1.0000000E-01; -6.1943927E+02;3; -1.7508258E+00;  0.0000000E+00; -1.0479160E-01;0; -2.0085296E-02;  3.9932742E+04;  0.0000000E+00; -2.3758113E-02;  4.0000000E+04;  0.0000000E+00;  4.0006902E+04; -2.7124779E-02;  0.0000000E+00;  7.0394836E-03;  9.1423889E+02;
  4.1167656E-01;  9.9999998E-03; -1.8997592E-01;4958; -7.1881879E-03;  0.0000000E+00; -1.6484277E-03;  9.9937915E+02;  1.0000000E-01; -5.1435583E+02;3; -1.7877352E+00;  0.0000000E+00; -1.1103418E-01;0; -1.9970711E-02;  3.9945211E+04;  0.0000000E+00;  3.3664546E-06;  4.0000000E+04;  0.0000000E+00;  4.0005012E+04; -2.7102318E-02;  0.0000000E+00;  7.1316059E-03;  6.5182196E+02;
  4.1169819E-01;  9.9999998E-03; -1.7997518E-01;4959; -7.1247104E-03;  0.0000000E+00; -1.5780660E-03;  9.9949652E+02;  1.0000000E-01; -4.1712399E+02;3; -1.8248197E+00;  0.0000000E+00; -1.1387305E-01;0; -1.9830165E-02;  3.9956098E+04;  0.0000000E+00;  2.5894694E-02;  4.0000000E+04;  0.0000000E+00;  4.0003238E+04; -2.7077571E-02;  0.0000000E+00;  7.2474051E-03;  4.3782932E+02;
  4.1171822E-01;  9.9999998E-03; -1.6997595E-01;4960; -7.0647048E-03;  0.0000000E+00; -1.5094603E-03;  9.9959589E+02;  1.0000000E-01; -3.3480536E+02;3; -1.8616532E+00;  0.0000000E+00; -1.1411572E-01;0; -1.9665483E-02;  3.9965629E+04;  0.0000000E+00;  5.2923925E-02;  4.0000000E+04;  0.0000000E+00;  4.0001957E+04; -2.7051577E-02;  0.0000000E+00;  7.3860949E-03;  2.8577814E+02;
  4.1173756E-01;  9.9999998E-03; -1.5997818E-01;4961; -7.0092017E-03;  0.0000000E+00; -1.4405242E-03;  9.9968036E+02;  1.0000000E-01; -2.6483203E+02;3; -1.8980790E+00;  0.0000000E+00; -1.1100097E-01;0; -1.9478127E-02;  3.9973211E+04;  0.0000000E+00;  7.9366207E-02;  4.0000000E+04;  0.0000000E+00;  4.0001219E+04; -2.7025793E-02;  0.0000000E+00;  7.5476659E-03;  2.0315410E+02;
  4.1175604E-01;  9.9999998E-03; -1.4998145E-01;4962; -6.9589643E-03;  0.0000000E+00; -1.3700357E-03;  9.9974707E+02;  1.0000000E-01; -2.0952493E+02;3; -1.9342176E+00;  0.0000000E+00; -1.0697528E-01;0; -1.9271277E-02;  3.9979090E+04;  0.0000000E+00;  1.0298090E-01;  4.0000000E+04;  0.0000000E+00;  4.0000582E+04; -2.7001709E-02;  0.0000000E+00;  7.7304328E-03;  1.8222525E+02;
  4.1177404E-01;  9.9999998E-03; -1.3998508E-01;4963; -6.9143330E-03;  0.0000000E+00; -1.2968086E-03;  9.9979187E+02;  1.0000000E-01; -1.7243956E+02;3; -1.9693218E+00;  0.0000000E+00; -1.0278583E-01;0; -1.9050132E-02;  3.9982766E+04;  0.0000000E+00;  1.2142016E-01;  4.0000000E+04;  0.0000000E+00;  4.0000488E+04; -2.6980655E-02;  0.0000000E+00;  7.9305237E-03;  1.9215468E+02;
  4.1178989E-01;  9.9999998E-03; -1.2998842E-01;4964; -6.8752477E-03;  0.0000000E+00; -1.2193924E-03;  9.9981604E+02;  1.0000000E-01; -1.5239075E+02;3; -2.0040255E+00;  0.0000000E+00; -9.6266724E-02;0; -1.8820889E-02;  3.9984996E+04;  0.0000000E+00;  1.3276556E-01;  4.0000000E+04;  0.0000000E+00;  4.0000688E+04; -2.6963314E-02;  0.0000000E+00;  8.1424257E-03;  2.0739339E+02;
  4.1180283E-01;  9.9999998E-03; -1.1999086E-01;4965; -6.8412516E-03;  0.0000000E+00; -1.1367088E-03;  9.9982568E+02;  1.0000000E-01; -1.4444035E+02;3; -2.0378520E+00;  0.0000000E+00; -8.9929678E-02;0; -1.8590054E-02;  3.9985480E+04;  0.0000000E+00;  1.3620637E-01;  4.0000000E+04;  0.0000000E+00;  4.0000855E+04; -2.6950069E-02;  0.0000000E+00;  8.3600152E-03;  2.1940085E+02;
  4.1181317E-01;  9.9999998E-03; -1.0999200E-01;4966; -6.8114977E-03;  0.0000000E+00; -1.0486194E-03;  9.9981287E+02;  1.0000000E-01; -1.5505734E+02;3; -2.0703552E+00;  0.0000000E+00; -8.3503418E-02;0; -1.8364672E-02;  3.9984633E+04;  0.0000000E+00;  1.3227175E-01;  4.0000000E+04;  0.0000000E+00;  4.0001047E+04; -2.6941158E-02;  0.0000000E+00;  8.5764853E-03;  2.2819794E+02;
  4.2153189E-01;  9.9999998E-03; -2.6998436E-01;5011; -8.0135688E-03;  0.0000000E+00; -2.3182910E-03;  9.9820172E+02;  1.0000000E-01; -1.4898344E+03;3; -1.5058595E+00;  0.0000000E+00;  6.0764067E-02;0; -2.0647734E-02;  3.9836973E+04;  0.0000000E+00; -1.8255056E-01;  4.0000000E+04;  0.0000000E+00;  4.0017559E+04; -2.7458310E-02;  0.0000000E+00;  6.8105767E-03;  2.3411929E+03;
  4.2154428E-01;  9.9999998E-03; -2.5998661E-01;5012; -7.9469141E-03;  0.0000000E+00; -2.2577243E-03;  9.9833643E+02;  1.0000000E-01; -1.3782327E+03;3; -1.5348622E+00;  0.0000000E+00;  2.7491178E-02;0; -2.0625401E-02;  3.9848879E+04;  0.0000000E+00; -1.8159136E-01;  4.0000000E+04;  0.0000000E+00;  4.0016121E+04; -2.7474815E-02;  0.0000000E+00;  6.8494128E-03;  2.1632742E+03;
  4.2155242E-01;  9.9999998E-03; -2.4998821E-01;5013; -7.8793373E-03;  0.0000000E+00; -2.2109987E-03;  9.9848083E+02;  1.0000000E-01; -1.2585817E+03;3; -1.5668211E+00;  0.0000000E+00;  2.2249601E-03;0; -2.0512389E-02;  3.9861754E+04;  0.0000000E+00; -1.7447124E-01;  4.0000000E+04;  0.0000000E+00;  4.0015000E+04; -2.7494818E-02;  0.0000000E+00;  6.9824285E-03;  2.0001453E+03;
  4.2156392E-01;  9.9999998E-03; -2.3998742E-01;5014; -7.8103729E-03;  0.0000000E+00; -2.1761535E-03;  9.9864215E+02;  1.0000000E-01; -1.1249558E+03;3; -1.6011659E+00;  0.0000000E+00; -1.9542869E-02;0; -2.0396426E-02;  3.9875637E+04;  0.0000000E+00; -1.6094977E-01;  4.0000000E+04;  0.0000000E+00;  4.0014227E+04; -2.7518108E-02;  0.0000000E+00;  7.1216826E-03;  1.9011810E+03;
  4.2157838E-01;  9.9999998E-03; -2.2998318E-01;5015; -7.7408729E-03;  0.0000000E+00; -2.1177654E-03;  9.9881195E+02;  1.0000000E-01; -9.8426843E+02;3; -1.6366969E+00;  0.0000000E+00; -4.0146690E-02;0; -2.0415202E-02;  3.9889844E+04;  0.0000000E+00; -1.4140870E-01;  4.0000000E+04;  0.0000000E+00;  4.0013695E+04; -2.7543753E-02;  0.0000000E+00;  7.1285516E-03;  1.8080710E+03;
  4.2159522E-01;  9.9999998E-03; -2.1998326E-01;5016; -7.6725320E-03;  0.0000000E+00; -2.0157534E-03;  9.9896124E+02;  1.0000000E-01; -8.6056824E+02;3; -1.6739892E+00;  0.0000000E+00; -6.0565382E-02;0; -2.0492528E-02;  3.9904129E+04;  0.0000000E+00; -1.1626765E-01;  4.0000000E+04;  0.0000000E+00;  4.0011168E+04; -2.7570575E-02;  0.0000000E+00;  7.0780469E-03;  1.5082336E+03;
  4.2161477E-01;  9.9999998E-03; -2.0998710E-01;5017; -7.6037985E-03;  0.0000000E+00; -1.9253697E-03;  9.9911047E+02;  1.0000000E-01; -7.3696680E+02;3; -1.7127173E+00;  0.0000000E+00; -7.6114893E-02;0; -2.0462472E-02;  3.9918398E+04;  0.0000000E+00; -8.6029738E-02;  4.0000000E+04;  0.0000000E+00;  4.0008930E+04; -2.7597295E-02;  0.0000000E+00;  7.1348241E-03;  1.1741459E+03;
  4.2163515E-01;  9.9999998E-03; -1.9998936E-01;5018; -7.5352215E-03;  0.0000000E+00; -1.8467162E-03;  9.9925427E+02;  1.0000000E-01; -6.1780969E+02;3; -1.7517486E+00;  0.0000000E+00; -8.6241789E-02;0; -2.0374522E-02;  3.9932266E+04;  0.0000000E+00; -5.1542781E-02;  4.0000000E+04;  0.0000000E+00;  4.0006711E+04; -2.7622769E-02;  0.0000000E+00;  7.2482480E-03;  9.0834247E+02;
  4.2165527E-01;  9.9999998E-03; -1.8999042E-01;5019; -7.4682292E-03;  0.0000000E+00; -1.7710287E-03;  9.9939062E+02;  1.0000000E-01; -5.0487460E+02;3; -1.7908217E+00;  0.0000000E+00; -9.4469935E-02;0; -2.0255383E-02;  3.9945027E+04;  0.0000000E+00; -1.4151678E-02;  4.0000000E+04;  0.0000000E+00;  4.0005184E+04; -2.7646104E-02;  0.0000000E+00;  7.3907208E-03;  6.8569110E+02;
  4.2167494E-01;  9.9999998E-03; -1.7999125E-01;5020; -7.4041127E-03;  0.0000000E+00; -1.6953016E-03;  9.9951471E+02;  1.0000000E-01; -4.0206271E+02;3; -1.8302009E+00;  0.0000000E+00; -9.9475376E-02;0; -2.0109925E-02;  3.9956750E+04;  0.0000000E+00;  2.4183216E-02;  4.0000000E+04;  0.0000000E+00;  4.0003812E+04; -2.7666898E-02;  0.0000000E+00;  7.5569735E-03;  5.0163959E+02;
  4.2169434E-01;  9.9999998E-03; -1.6999249E-01;5021; -7.3439414E-03;  0.0000000E+00; -1.6188858E-03;  9.9962482E+02;  1.0000000E-01; -3.1085541E+02;3; -1.8692135E+00;  0.0000000E+00; -1.0084561E-01;0; -1.9939838E-02;  3.9966633E+04;  0.0000000E+00;  6.1004017E-02;  4.0000000E+04;  0.0000000E+00;  4.0002551E+04; -2.7685396E-02;  0.0000000E+00;  7.7455589E-03;  3.6315656E+02;
  4.2171347E-01;  9.9999998E-03; -1.5999427E-01;5022; -7.2886809E-03;  0.0000000E+00; -1.5409668E-03;  9.9971350E+02;  1.0000000E-01; -2.3737601E+02;3; -1.9077839E+00;  0.0000000E+00; -9.9792592E-02;0; -1.9747589E-02;  3.9974750E+04;  0.0000000E+00;  9.3642496E-02;  4.0000000E+04;  0.0000000E+00;  4.0001781E+04; -2.7701991E-02;  0.0000000E+00;  7.9544019E-03;  2.7656140E+02;
  4.2173222E-01;  9.9999998E-03; -1.4999643E-01;5023; -7.2388556E-03;  0.0000000E+00; -1.4608816E-03;  9.9978497E+02;  1.0000000E-01; -1.7816780E+02;3; -1.9454451E+00;  0.0000000E+00; -9.7337782E-02;0; -1.9537527E-02;  3.9981223E+04;  0.0000000E+00;  1.1969267E-01;  4.0000000E+04;  0.0000000E+00;  4.0001285E+04; -2.7717501E-02;  0.0000000E+00;  8.1799738E-03;  2.3806058E+02;
  4.2175061E-01;  9.9999998E-03; -1.3999839E-01;5024; -7.1946736E-03;  0.0000000E+00; -1.3777427E-03;  9.9983179E+02;  1.0000000E-01; -1.3935408E+02;3; -1.9825073E+00;  0.0000000E+00; -9.2919208E-02;0; -1.9315585E-02;  3.9985121E+04;  0.0000000E+00;  1.3744523E-01;  4.0000000E+04;  0.0000000E+00;  4.0000672E+04; -2.7732898E-02;  0.0000000E+00;  8.4173121E-03;  2.2887273E+02;
  4.2176861E-01;  9.9999998E-03; -1.2999967E-01;5025; -7.1560298E-03;  0.0000000E+00; -1.2907734E-03;  9.9985455E+02;  1.0000000E-01; -1.2049042E+02;3; -2.0189958E+00;  0.0000000E+00; -8.7983109E-02;0; -1.9087853E-02;  3.9987344E+04;  0.0000000E+00;  1.4617071E-01;  4.0000000E+04;  0.0000000E+00;  4.0000832E+04; -2.7748872E-02;  0.0000000E+00;  8.6610187E-03;  2.2789771E+02;
  4.2178476E-01;  9.9999998E-03; -1.1999989E-01;5026; -7.1222163E-03;  0.0000000E+00; -1.1994805E-03;  9.9985748E+02;  1.0000000E-01; -1.1807073E+02;3; -2.0543208E+00;  0.0000000E+00; -8.2246028E-02;0; -1.8860534E-02;  3.9987734E+04;  0.0000000E+00;  1.4625685E-01;  4.0000000E+04;  0.0000000E+00;  4.0000625E+04; -2.7766092E-02;  0.0000000E+00;  8.9055570E-03;  2.2387100E+02;
  4.2179793E-01;  9.9999998E-03; -1.0999893E-01;5027; -7.0923115E-03;  0.0000000E+00; -1.1038962E-03;  9.9983795E+02;  1.0000000E-01; -1.3426781E+02;3; -2.0883465E+00;  0.0000000E+00; -7.5912930E-02;0; -1.8639915E-02;  3.9986133E+04;  0.0000000E+00;  1.3904805E-01;  4.0000000E+04;  0.0000000E+00;  4.0000363E+04; -2.7784921E-02;  0.0000000E+00;  9.1450065E-03;  2.1448558E+02;
  4.3156931E-01;  9.9999998E-03; -2.6998445E-01;5072; -8.2927868E-03;  0.0000000E+00; -2.4253177E-03;  9.9821991E+02;  1.0000000E-01; -1.4747731E+03;3; -1.4882249E+00;  0.0000000E+00;  8.9441985E-02;0; -2.1038078E-02;  3.9838547E+04;  0.0000000E+00; -2.0231554E-01;  4.0000000E+04;  0.0000000E+00;  4.0017090E+04; -2.7691191E-02;  0.0000000E+00;  6.6531128E-03;  2.3101877E+03;
  4.3158337E-01;  9.9999998E-03; -2.5998676E-01;5073; -8.2256505E-03;  0.0000000E+00; -2.3627768E-03;  9.9835077E+02;  1.0000000E-01; -1.3663811E+03;3; -1.5194646E+00;  0.0000000E+00;  5.3220410E-02;0; -2.1044046E-02;  3.9850242E+04;  0.0000000E+00; -2.1626984E-01;  4.0000000E+04;  0.0000000E+00;  4.0015641E+04; -2.7737850E-02;  0.0000000E+00;  6.6938037E-03;  2.1301023E+03;
  4.3158808E-01;  9.9999998E-03; -2.4998869E-01;5074; -8.1587965E-03;  0.0000000E+00; -2.3118055E-03;  9.9848914E+02;  1.0000000E-01; -1.2517177E+03;3; -1.5536016E+00;  0.0000000E+00;  2.6596677E-02;0; -2.0950161E-02;  3.9862922E+04;  0.0000000E+00; -2.1707404E-01;  4.0000000E+04;  0.0000000E+00;  4.0014414E+04; -2.7790843E-02;  0.0000000E+00;  6.8406817E-03;  1.9545164E+03;
  4.3159246E-01;  9.9999998E-03; -2.3998851E-01;5075; -8.0912849E-03;  0.0000000E+00; -2.2827541E-03;  9.9865021E+02;  1.0000000E-01; -1.1182893E+03;3; -1.5902059E+00;  0.0000000E+00;  6.3323309E-03;0; -2.0782128E-02;  3.9876402E+04;  0.0000000E+00; -2.0708127E-01;  4.0000000E+04;  0.0000000E+00;  4.0013715E+04; -2.7849985E-02;  0.0000000E+00;  7.0678582E-03;  1.8491912E+03;
  4.3160009E-01;  9.9999998E-03; -2.2998522E-01;5076; -8.0238888E-03;  0.0000000E+00; -2.2317043E-03;  9.9882086E+02;  1.0000000E-01; -9.7691064E+02;3; -1.6284169E+00;  0.0000000E+00; -1.4618471E-02;0; -2.0762250E-02;  3.9890602E+04;  0.0000000E+00; -1.8778366E-01;  4.0000000E+04;  0.0000000E+00;  4.0012953E+04; -2.7914261E-02;  0.0000000E+00;  7.1520112E-03;  1.7604160E+03;
  4.3160954E-01;  9.9999998E-03; -2.1998796E-01;5077; -7.9570757E-03;  0.0000000E+00; -2.1338779E-03;  9.9896753E+02;  1.0000000E-01; -8.5538324E+02;3; -1.6673409E+00;  0.0000000E+00; -3.6490589E-02;0; -2.0823363E-02;  3.9905098E+04;  0.0000000E+00; -1.6028380E-01;  4.0000000E+04;  0.0000000E+00;  4.0010730E+04; -2.7982067E-02;  0.0000000E+00;  7.1587041E-03;  1.4516359E+03;
  4.3162185E-01;  9.9999998E-03; -2.0999563E-01;5078; -7.8893919E-03;  0.0000000E+00; -2.0478463E-03;  9.9911700E+02;  1.0000000E-01; -7.3153485E+02;3; -1.7083216E+00;  0.0000000E+00; -5.2999686E-02;0; -2.0781925E-02;  3.9919262E+04;  0.0000000E+00; -1.2551643E-01;  4.0000000E+04;  0.0000000E+00;  4.0008199E+04; -2.8051736E-02;  0.0000000E+00;  7.2698114E-03;  1.1270391E+03;
  4.3163604E-01;  9.9999998E-03; -2.0000130E-01;5079; -7.8214528E-03;  0.0000000E+00; -1.9714800E-03;  9.9926392E+02;  1.0000000E-01; -6.0980994E+02;3; -1.7496278E+00;  0.0000000E+00; -6.4829499E-02;0; -2.0687057E-02;  3.9933430E+04;  0.0000000E+00; -8.4849723E-02;  4.0000000E+04;  0.0000000E+00;  4.0006434E+04; -2.8121598E-02;  0.0000000E+00;  7.4345409E-03;  8.9459235E+02;
  4.3165126E-01;  9.9999998E-03; -1.9000445E-01;5080; -7.7550504E-03;  0.0000000E+00; -1.8943448E-03;  9.9941034E+02;  1.0000000E-01; -4.8852939E+02;3; -1.7910726E+00;  0.0000000E+00; -7.4422471E-02;0; -2.0562202E-02;  3.9946453E+04;  0.0000000E+00; -4.0379409E-02;  4.0000000E+04;  0.0000000E+00;  4.0005320E+04; -2.8189844E-02;  0.0000000E+00;  7.6276413E-03;  7.0796863E+02;
  4.3166673E-01;  9.9999998E-03; -1.8000630E-01;5081; -7.6915007E-03;  0.0000000E+00; -1.8139073E-03;  9.9954761E+02;  1.0000000E-01; -3.7480423E+02;3; -1.8326114E+00;  0.0000000E+00; -8.1144087E-02;0; -2.0410117E-02;  3.9958574E+04;  0.0000000E+00;  4.9976720E-03;  4.0000000E+04;  0.0000000E+00;  4.0004113E+04; -2.8255306E-02;  0.0000000E+00;  7.8451885E-03;  5.4640619E+02;
  4.3168283E-01;  9.9999998E-03; -1.7000754E-01;5082; -7.6320651E-03;  0.0000000E+00; -1.7300639E-03;  9.9966058E+02;  1.0000000E-01; -2.8117725E+02;3; -1.8737773E+00;  0.0000000E+00; -8.3794005E-02;0; -2.0232512E-02;  3.9968762E+04;  0.0000000E+00;  4.7896661E-02;  4.0000000E+04;  0.0000000E+00;  4.0002945E+04; -2.8317058E-02;  0.0000000E+00;  8.0845468E-03;  4.1304086E+02;
  4.3169972E-01;  9.9999998E-03; -1.6000864E-01;5083; -7.5774626E-03;  0.0000000E+00; -1.6435407E-03;  9.9975543E+02;  1.0000000E-01; -2.0261156E+02;3; -1.9144177E+00;  0.0000000E+00; -8.4121324E-02;0; -2.0033229E-02;  3.9977254E+04;  0.0000000E+00;  8.4977500E-02;  4.0000000E+04;  0.0000000E+00;  4.0002145E+04; -2.8374812E-02;  0.0000000E+00;  8.3415834E-03;  3.1583813E+02;
  4.3171751E-01;  9.9999998E-03; -1.5000962E-01;5084; -7.5281877E-03;  0.0000000E+00; -1.5541974E-03;  9.9982599E+02;  1.0000000E-01; -1.4414407E+02;3; -1.9543176E+00;  0.0000000E+00; -8.3069511E-02;0; -1.9817917E-02;  3.9983547E+04;  0.0000000E+00;  1.1361039E-01;  4.0000000E+04;  0.0000000E+00;  4.0001375E+04; -2.8428854E-02;  0.0000000E+00;  8.6109377E-03;  2.5778485E+02;
  4.3173647E-01;  9.9999998E-03; -1.4001013E-01;5085; -7.4844202E-03;  0.0000000E+00; -1.4618227E-03;  9.9987115E+02;  1.0000000E-01; -1.0676241E+02;3; -1.9935048E+00;  0.0000000E+00; -8.0008410E-02;0; -1.9593105E-02;  3.9987945E+04;  0.0000000E+00;  1.3237609E-01;  4.0000000E+04;  0.0000000E+00;  4.0000996E+04; -2.8479820E-02;  0.0000000E+00;  8.8867163E-03;  2.3055896E+02;
  4.3175587E-01;  9.9999998E-03; -1.3000986E-01;5086; -7.4459179E-03;  0.0000000E+00; -1.3659353E-03;  9.9989441E+02;  1.0000000E-01; -8.7503700E+01;3; -2.0318561E+00;  0.0000000E+00; -7.5124711E-02;0; -1.9365000E-02;  3.9990215E+04;  0.0000000E+00;  1.4125212E-01;  4.0000000E+04;  0.0000000E+00;  4.0000559E+04; -2.8528579E-02;  0.0000000E+00;  9.1635790E-03;  2.1809885E+02;
  4.3177485E-01;  9.9999998E-03; -1.2000865E-01;5087; -7.4120751E-03;  0.0000000E+00; -1.2665333E-03;  9.9989435E+02;  1.0000000E-01; -8.7553078E+01;3; -2.0689490E+00;  0.0000000E+00; -6.9920398E-02;0; -1.9139268E-02;  3.9990422E+04;  0.0000000E+00;  1.4124499E-01;  4.0000000E+04;  0.0000000E+00;  4.0000023E+04; -2.8576223E-02;  0.0000000E+00;  9.4369547E-03;  2.0769734E+02;
  4.3179172E-01;  9.9999998E-03; -1.1000650E-01;5088; -7.3819952E-03;  0.0000000E+00; -1.1642284E-03;  9.9986334E+02;  1.0000000E-01; -1.1323137E+02;3; -2.1042540E+00;  0.0000000E+00; -6.3885435E-02;0; -1.8921563E-02;  3.9988613E+04;  0.0000000E+00;  1.3404463E-01;  4.0000000E+04;  0.0000000E+00;  4.0000109E+04; -2.8623503E-02;  0.0000000E+00;  9.7019393E-03;  1.9380148E+02;
  4.4161639E-01;  9.9999998E-03; -2.6998496E-01;5133; -8.5676778E-03;  0.0000000E+00; -2.5299657E-03;  9.9826343E+02;  1.0000000E-01; -1.4387247E+03;3; -1.4666867E+00;  0.0000000E+00;  1.2127297E-01;0; -2.1444656E-02;  3.9842410E+04;  0.0000000E+00; -1.8986589E-01;  4.0000000E+04;  0.0000000E+00;  4.0016586E+04; -2.7926769E-02;  0.0000000E+00;  6.4821122E-03;  2.2387585E+03;
  4.4162872E-01;  9.9999998E-03; -2.5998744E-01;5134; -8.5015371E-03;  0.0000000E+00; -2.4638122E-03;  9.9838824E+02;  1.0000000E-01; -1.3353203E+03;3; -1.5004660E+00;  0.0000000E+00;  8.2771972E-02;0; -2.1492664E-02;  3.9853930E+04;  0.0000000E+00; -2.2139053E-01;  4.0000000E+04;  0.0000000E+00;  4.0015215E+04; -2.8002968E-02;  0.0000000E+00;  6.5103038E-03;  2.0592356E+03;
  4.4163141E-01;  9.9999998E-03; -2.4998999E-01;5135; -8.4363790E-03;  0.0000000E+00; -2.4060390E-03;  9.9852173E+02;  1.0000000E-01; -1.2247061E+03;3; -1.5373285E+00;  0.0000000E+00;  5.3449422E-02;0; -2.1431530E-02;  3.9866156E+04;  0.0000000E+00; -2.3303720E-01;  4.0000000E+04;  0.0000000E+00;  4.0013477E+04; -2.8088309E-02;  0.0000000E+00;  6.6567790E-03;  1.8632577E+03;
  4.4163141E-01;  9.9999998E-03; -2.3999088E-01;5136; -8.3711846E-03;  0.0000000E+00; -2.3783904E-03;  9.9867542E+02;  1.0000000E-01; -1.0974010E+03;3; -1.5760814E+00;  0.0000000E+00;  3.4793783E-02;0; -2.1224553E-02;  3.9879465E+04;  0.0000000E+00; -2.2978933E-01;  4.0000000E+04;  0.0000000E+00;  4.0012793E+04; -2.8182328E-02;  0.0000000E+00;  6.9577754E-03;  1.7429998E+03;
  4.4163463E-01;  9.9999998E-03; -2.2998907E-01;5137; -8.3065936E-03;  0.0000000E+00; -2.3367496E-03;  9.9884131E+02;  1.0000000E-01; -9.5997284E+02;3; -1.6163404E+00;  0.0000000E+00;  1.3057098E-02;0; -2.1147892E-02;  3.9893258E+04;  0.0000000E+00; -2.1464458E-01;  4.0000000E+04;  0.0000000E+00;  4.0012043E+04; -2.8284000E-02;  0.0000000E+00;  7.1361093E-03;  1.6558784E+03;
  4.4163966E-01;  9.9999998E-03; -2.1999308E-01;5138; -8.2422514E-03;  0.0000000E+00; -2.2511915E-03;  9.9899213E+02;  1.0000000E-01; -8.3498871E+02;3; -1.6578001E+00;  0.0000000E+00; -8.4953634E-03;0; -2.1170551E-02;  3.9907410E+04;  0.0000000E+00; -1.8962304E-01;  4.0000000E+04;  0.0000000E+00;  4.0010258E+04; -2.8391525E-02;  0.0000000E+00;  7.2209747E-03;  1.3755677E+03;
  4.4164595E-01;  9.9999998E-03; -2.1000212E-01;5139; -8.1768716E-03;  0.0000000E+00; -2.1707451E-03;  9.9913885E+02;  1.0000000E-01; -7.1346130E+02;3; -1.7010429E+00;  0.0000000E+00; -2.5359448E-02;0; -2.1117242E-02;  3.9921496E+04;  0.0000000E+00; -1.5610267E-01;  4.0000000E+04;  0.0000000E+00;  4.0007934E+04; -2.8502706E-02;  0.0000000E+00;  7.3854644E-03;  1.0839138E+03;
  4.4165334E-01;  9.9999998E-03; -2.0000967E-01;5140; -8.1110308E-03;  0.0000000E+00; -2.0963375E-03;  9.9929657E+02;  1.0000000E-01; -5.8279834E+02;3; -1.7448792E+00;  0.0000000E+00; -3.8976442E-02;0; -2.1015991E-02;  3.9935348E+04;  0.0000000E+00; -1.1564746E-01;  4.0000000E+04;  0.0000000E+00;  4.0006293E+04; -2.8615234E-02;  0.0000000E+00;  7.5992434E-03;  8.7838739E+02;
  4.4166180E-01;  9.9999998E-03; -1.9001414E-01;5141; -8.0466419E-03;  0.0000000E+00; -2.0170538E-03;  9.9944135E+02;  1.0000000E-01; -4.6285110E+02;3; -1.7887498E+00;  0.0000000E+00; -4.9221121E-02;0; -2.0884980E-02;  3.9948801E+04;  0.0000000E+00; -7.0559911E-02;  4.0000000E+04;  0.0000000E+00;  4.0005172E+04; -2.8726716E-02;  0.0000000E+00;  7.8417351E-03;  7.1514178E+02;
  4.4167167E-01;  9.9999998E-03; -1.8001659E-01;5142; -7.9849614E-03;  0.0000000E+00; -1.9322218E-03;  9.9958142E+02;  1.0000000E-01; -3.4680499E+02;3; -1.8325644E+00;  0.0000000E+00; -5.7640288E-02;0; -2.0724654E-02;  3.9960766E+04;  0.0000000E+00; -2.4000237E-02;  4.0000000E+04;  0.0000000E+00;  4.0003816E+04; -2.8834922E-02;  0.0000000E+00;  8.1102690E-03;  5.6618976E+02;
  4.4168356E-01;  9.9999998E-03; -1.7001793E-01;5143; -7.9270992E-03;  0.0000000E+00; -1.8422712E-03;  9.9969452E+02;  1.0000000E-01; -2.5307927E+02;3; -1.8758410E+00;  0.0000000E+00; -6.1786499E-02;0; -2.0537745E-02;  3.9971109E+04;  0.0000000E+00;  2.0342603E-02;  4.0000000E+04;  0.0000000E+00;  4.0002941E+04; -2.8938178E-02;  0.0000000E+00;  8.4004337E-03;  4.3207263E+02;
  4.4169769E-01;  9.9999998E-03; -1.6001871E-01;5144; -7.8737065E-03;  0.0000000E+00; -1.7484436E-03;  9.9979047E+02;  1.0000000E-01; -1.7357533E+02;3; -1.9186591E+00;  0.0000000E+00; -6.3940883E-02;0; -2.0329472E-02;  3.9979828E+04;  0.0000000E+00;  5.8879949E-02;  4.0000000E+04;  0.0000000E+00;  4.0002270E+04; -2.9035458E-02;  0.0000000E+00;  8.7059857E-03;  3.2209671E+02;
  4.4171414E-01;  9.9999998E-03; -1.5001905E-01;5145; -7.8252377E-03;  0.0000000E+00; -1.6511198E-03;  9.9986682E+02;  1.0000000E-01; -1.1031787E+02;3; -1.9608704E+00;  0.0000000E+00; -6.3504606E-02;0; -2.0106699E-02;  3.9986559E+04;  0.0000000E+00;  8.8893399E-02;  4.0000000E+04;  0.0000000E+00;  4.0001418E+04; -2.9126544E-02;  0.0000000E+00;  9.0198452E-03;  2.4468402E+02;
  4.4173256E-01;  9.9999998E-03; -1.4001872E-01;5146; -7.7818474E-03;  0.0000000E+00; -1.5504906E-03;  9.9990906E+02;  1.0000000E-01; -7.5355896E+01;3; -2.0020423E+00;  0.0000000E+00; -6.1466653E-02;0; -1.9876644E-02;  3.9991023E+04;  0.0000000E+00;  1.0912649E-01;  4.0000000E+04;  0.0000000E+00;  4.0000676E+04; -2.9211937E-02;  0.0000000E+00;  9.3352925E-03;  2.0113759E+02;
  4.4175205E-01;  9.9999998E-03; -1.3001764E-01;5147; -7.7433577E-03;  0.0000000E+00; -1.4467989E-03;  9.9993030E+02;  1.0000000E-01; -5.7726761E+01;3; -2.0422347E+00;  0.0000000E+00; -5.8440577E-02;0; -1.9645572E-02;  3.9993449E+04;  0.0000000E+00;  1.1980075E-01;  4.0000000E+04;  0.0000000E+00;  4.0000520E+04; -2.9292762E-02;  0.0000000E+00;  9.6471915E-03;  1.8244576E+02;
  4.4177172E-01;  9.9999998E-03; -1.2001588E-01;5148; -7.7092079E-03;  0.0000000E+00; -1.3405979E-03;  9.9992450E+02;  1.0000000E-01; -6.2566132E+01;3; -2.0807498E+00;  0.0000000E+00; -5.4053742E-02;0; -1.9418553E-02;  3.9993227E+04;  0.0000000E+00;  1.2205064E-01;  4.0000000E+04;  0.0000000E+00;  3.9999992E+04; -2.9370496E-02;  0.0000000E+00;  9.9519435E-03;  1.7515208E+02;
  4.4178930E-01;  9.9999998E-03; -1.1001340E-01;5149; -7.6787816E-03;  0.0000000E+00; -1.2325881E-03;  9.9989368E+02;  1.0000000E-01; -8.8096275E+01;3; -2.1176498E+00;  0.0000000E+00; -4.9506575E-02;0; -1.9200655E-02;  3.9991230E+04;  0.0000000E+00;  1.1747053E-01;  4.0000000E+04;  0.0000000E+00;  3.9999844E+04; -2.9446412E-02;  0.0000000E+00;  1.0245757E-02;  1.6908235E+02;
  4.5168003E-01;  9.9999998E-03; -2.6998580E-01;5194; -8.8384785E-03;  0.0000000E+00; -2.6337281E-03;  9.9832568E+02;  1.0000000E-01; -1.3871212E+03;3; -1.4414750E+00;  0.0000000E+00;  1.5862277E-01;0; -2.1852665E-02;  3.9848516E+04;  0.0000000E+00; -1.5281840E-01;  4.0000000E+04;  0.0000000E+00;  4.0015809E+04; -2.8169135E-02;  0.0000000E+00;  6.3164695E-03;  2.1388467E+03;
  4.5168492E-01;  9.9999998E-03; -2.5998843E-01;5195; -8.7746913E-03;  0.0000000E+00; -2.5640142E-03;  9.9844293E+02;  1.0000000E-01; -1.2899882E+03;3; -1.4778559E+00;  0.0000000E+00;  1.1787654E-01;0; -2.1943241E-02;  3.9859086E+04;  0.0000000E+00; -2.0190850E-01;  4.0000000E+04;  0.0000000E+00;  4.0014414E+04; -2.8273026E-02;  0.0000000E+00;  6.3297842E-03;  1.9633043E+03;
  4.5168489E-01;  9.9999998E-03; -2.4999163E-01;5196; -8.7120002E-03;  0.0000000E+00; -2.4986858E-03;  9.9856842E+02;  1.0000000E-01; -1.1860405E+03;3; -1.5177161E+00;  0.0000000E+00;  8.5344382E-02;0; -2.1922121E-02;  3.9871168E+04;  0.0000000E+00; -2.2511645E-01;  4.0000000E+04;  0.0000000E+00;  4.0012789E+04; -2.8388789E-02;  0.0000000E+00;  6.4666676E-03;  1.7514934E+03;
  4.5168260E-01;  9.9999998E-03; -2.3999386E-01;5197; -8.6497618E-03;  0.0000000E+00; -2.4659727E-03;  9.9870886E+02;  1.0000000E-01; -1.0696981E+03;3; -1.5586343E+00;  0.0000000E+00;  6.2386304E-02;0; -2.1707563E-02;  3.9883746E+04;  0.0000000E+00; -2.2958019E-01;  4.0000000E+04;  0.0000000E+00;  4.0011777E+04; -2.8515678E-02;  0.0000000E+00;  6.8081156E-03;  1.6040931E+03;
  4.5168117E-01;  9.9999998E-03; -2.2999403E-01;5198; -8.5883485E-03;  0.0000000E+00; -2.4346460E-03;  9.9887671E+02;  1.0000000E-01; -9.3064032E+02;3; -1.6014253E+00;  0.0000000E+00;  4.4648953E-02;0; -2.1561734E-02;  3.9897172E+04;  0.0000000E+00; -2.2016744E-01;  4.0000000E+04;  0.0000000E+00;  4.0011281E+04; -2.8652521E-02;  0.0000000E+00;  7.0907860E-03;  1.5033846E+03;
  4.5167997E-01;  9.9999998E-03; -2.1999735E-01;5199; -8.5272929E-03;  0.0000000E+00; -2.3654371E-03;  9.9902222E+02;  1.0000000E-01; -8.1005115E+02;3; -1.6456225E+00;  0.0000000E+00;  2.3800243E-02;0; -2.1532591E-02;  3.9910879E+04;  0.0000000E+00; -2.0017663E-01;  4.0000000E+04;  0.0000000E+00;  4.0009414E+04; -2.8797330E-02;  0.0000000E+00;  7.2647398E-03;  1.2914633E+03;
  4.5167840E-01;  9.9999998E-03; -2.1000518E-01;5200; -8.4651969E-03;  0.0000000E+00; -2.2922305E-03;  9.9917395E+02;  1.0000000E-01; -6.8437573E+02;3; -1.6909972E+00;  0.0000000E+00;  6.7308950E-03;0; -2.1464450E-02;  3.9924945E+04;  0.0000000E+00; -1.7161708E-01;  4.0000000E+04;  0.0000000E+00;  4.0007512E+04; -2.8947473E-02;  0.0000000E+00;  7.4830218E-03;  1.0466868E+03;
  4.5167807E-01;  9.9999998E-03; -2.0001239E-01;5201; -8.4028561E-03;  0.0000000E+00; -2.2181100E-03;  9.9932513E+02;  1.0000000E-01; -5.5909528E+02;3; -1.7371998E+00;  0.0000000E+00; -8.3594425E-03;0; -2.1357544E-02;  3.9938480E+04;  0.0000000E+00; -1.3613546E-01;  4.0000000E+04;  0.0000000E+00;  4.0006117E+04; -2.9100154E-02;  0.0000000E+00;  7.7426103E-03;  8.6000861E+02;
  4.5167974E-01;  9.9999998E-03; -1.9001724E-01;5202; -8.3417119E-03;  0.0000000E+00; -2.1371634E-03;  9.9947241E+02;  1.0000000E-01; -4.3707407E+02;3; -1.7835754E+00;  0.0000000E+00; -2.0112667E-02;0; -2.1218847E-02;  3.9951285E+04;  0.0000000E+00; -9.5842101E-02;  4.0000000E+04;  0.0000000E+00;  4.0005055E+04; -2.9252240E-02;  0.0000000E+00;  8.0333930E-03;  7.0444806E+02;
  4.5168367E-01;  9.9999998E-03; -1.8002021E-01;5203; -8.2829287E-03;  0.0000000E+00; -2.0488927E-03;  9.9960583E+02;  1.0000000E-01; -3.2655865E+02;3; -1.8293984E+00;  0.0000000E+00; -2.9309614E-02;0; -2.1048754E-02;  3.9963258E+04;  0.0000000E+00; -5.3599123E-02;  4.0000000E+04;  0.0000000E+00;  4.0004230E+04; -2.9400673E-02;  0.0000000E+00;  8.3519183E-03;  5.5807361E+02;
  4.5169017E-01;  9.9999998E-03; -1.7002195E-01;5204; -8.2273893E-03;  0.0000000E+00; -1.9545401E-03;  9.9972748E+02;  1.0000000E-01; -2.2577139E+02;3; -1.8751638E+00;  0.0000000E+00; -3.5131600E-02;0; -2.0850912E-02;  3.9973547E+04;  0.0000000E+00; -1.2779843E-02;  4.0000000E+04;  0.0000000E+00;  4.0002883E+04; -2.9543050E-02;  0.0000000E+00;  8.6921370E-03;  4.2060315E+02;
  4.5169953E-01;  9.9999998E-03; -1.6002277E-01;5205; -8.1756758E-03;  0.0000000E+00; -1.8551461E-03;  9.9982056E+02;  1.0000000E-01; -1.4868715E+02;3; -1.9200827E+00;  0.0000000E+00; -3.8861223E-02;0; -2.0631816E-02;  3.9982266E+04;  0.0000000E+00;  2.3328684E-02;  4.0000000E+04;  0.0000000E+00;  4.0002285E+04; -2.9677691E-02;  0.0000000E+00;  9.0458756E-03;  3.0036090E+02;
  4.5171177E-01;  9.9999998E-03; -1.5002294E-01;5206; -8.1282165E-03;  0.0000000E+00; -1.7516188E-03;  9.9989172E+02;  1.0000000E-01; -8.9725861E+01;3; -1.9644305E+00;  0.0000000E+00; -4.0205754E-02;0; -2.0399375E-02;  3.9988742E+04;  0.0000000E+00;  5.2266292E-02;  4.0000000E+04;  0.0000000E+00;  4.0001504E+04; -2.9804016E-02;  0.0000000E+00;  9.4046406E-03;  2.0699818E+02;
  4.5172673E-01;  9.9999998E-03; -1.4002258E-01;5207; -8.0851503E-03;  0.0000000E+00; -1.6447949E-03;  9.9993610E+02;  1.0000000E-01; -5.2936775E+01;3; -2.0076048E+00;  0.0000000E+00; -4.0027440E-02;0; -2.0161487E-02;  3.9993285E+04;  0.0000000E+00;  7.2939806E-02;  4.0000000E+04;  0.0000000E+00;  4.0001078E+04; -2.9922495E-02;  0.0000000E+00;  9.7610066E-03;  1.4892664E+02;
  4.5174327E-01;  9.9999998E-03; -1.3002162E-01;5208; -8.0464650E-03;  0.0000000E+00; -1.5351813E-03;  9.9995520E+02;  1.0000000E-01; -3.7134750E+01;3; -2.0495946E+00;  0.0000000E+00; -3.8039245E-02;0; -1.9924445E-02;  3.9995582E+04;  0.0000000E+00;  8.5570633E-02;  4.0000000E+04;  0.0000000E+00;  4.0000301E+04; -3.0034514E-02;  0.0000000E+00;  1.0110069E-02;  1.2808295E+02;
  4.5175996E-01;  9.9999998E-03; -1.2001990E-01;5209; -8.0118822E-03;  0.0000000E+00; -1.4237856E-03;  9.9995020E+02;  1.0000000E-01; -4.1282784E+01;3; -2.0899115E+00;  0.0000000E+00; -3.5357118E-02;0; -1.9692613E-02;  3.9995672E+04;  0.0000000E+00;  9.1065884E-02;  4.0000000E+04;  0.0000000E+00;  3.9999898E+04; -3.0141808E-02;  0.0000000E+00;  1.0449195E-02;  1.3126280E+02;
  4.5177665E-01;  9.9999998E-03; -1.1001716E-01;5210; -7.9811160E-03;  0.0000000E+00; -1.3111108E-03;  9.9991870E+02;  1.0000000E-01; -6.7356117E+01;3; -2.1282647E+00;  0.0000000E+00; -3.1620972E-02;0; -1.9470613E-02;  3.9993316E+04;  0.0000000E+00;  9.0600617E-02;  4.0000000E+04;  0.0000000E+00;  3.9999516E+04; -3.0246405E-02;  0.0000000E+00;  1.0775791E-02;  1.3937402E+02;
  4.6174273E-01;  9.9999998E-03; -2.6998672E-01;5255; -9.1062244E-03;  0.0000000E+00; -2.7386218E-03;  9.9839166E+02;  1.0000000E-01; -1.3324562E+03;3; -1.4126077E+00;  0.0000000E+00;  2.0163244E-01;0; -2.2239313E-02;  3.9854723E+04;  0.0000000E+00; -9.8839357E-02;  4.0000000E+04;  0.0000000E+00;  4.0014969E+04; -2.8421629E-02;  0.0000000E+00;  6.1823158E-03;  2.0367427E+03;
  4.6174353E-01;  9.9999998E-03; -2.5998941E-01;5256; -9.0458859E-03;  0.0000000E+00; -2.6741121E-03;  9.9850360E+02;  1.0000000E-01; -1.2397180E+03;3; -1.4524505E+00;  0.0000000E+00;  1.6013755E-01;0; -2.2297768E-02;  3.9865238E+04;  0.0000000E+00; -1.6331229E-01;  4.0000000E+04;  0.0000000E+00;  4.0013785E+04; -2.8550660E-02;  0.0000000E+00;  6.2528923E-03;  1.8747803E+03;
  4.6174017E-01;  9.9999998E-03; -2.4999291E-01;5257; -8.9863297E-03;  0.0000000E+00; -2.6027600E-03;  9.9862170E+02;  1.0000000E-01; -1.1418937E+03;3; -1.4942727E+00;  0.0000000E+00;  1.2491775E-01;0; -2.2333773E-02;  3.9876598E+04;  0.0000000E+00; -1.9736196E-01;  4.0000000E+04;  0.0000000E+00;  4.0012195E+04; -2.8694013E-02;  0.0000000E+00;  6.3602403E-03;  1.6597102E+03;
  4.6173507E-01;  9.9999998E-03; -2.3999670E-01;5258; -8.9275548E-03;  0.0000000E+00; -2.5568174E-03;  9.9875592E+02;  1.0000000E-01; -1.0306869E+03;3; -1.5381100E+00;  0.0000000E+00;  9.8404728E-02;0; -2.2174973E-02;  3.9888500E+04;  0.0000000E+00; -2.0902725E-01;  4.0000000E+04;  0.0000000E+00;  4.0010656E+04; -2.8850861E-02;  0.0000000E+00;  6.6758888E-03;  1.4615458E+03;
  4.6172994E-01;  9.9999998E-03; -2.2999889E-01;5259; -8.8697234E-03;  0.0000000E+00; -2.5253911E-03;  9.9890454E+02;  1.0000000E-01; -9.0757928E+02;3; -1.5836446E+00;  0.0000000E+00;  8.0808811E-02;0; -2.1999633E-02;  3.9901578E+04;  0.0000000E+00; -2.0519620E-01;  4.0000000E+04;  0.0000000E+00;  4.0009648E+04; -2.9019969E-02;  0.0000000E+00;  7.0203356E-03;  1.3370011E+03;
  4.6172291E-01;  9.9999998E-03; -2.2000128E-01;5260; -8.8124806E-03;  0.0000000E+00; -2.4742531E-03;  9.9905627E+02;  1.0000000E-01; -7.8185443E+02;3; -1.6303041E+00;  0.0000000E+00;  6.1732985E-02;0; -2.1909174E-02;  3.9914793E+04;  0.0000000E+00; -1.9073272E-01;  4.0000000E+04;  0.0000000E+00;  4.0008801E+04; -2.9198976E-02;  0.0000000E+00;  7.2898022E-03;  1.1865892E+03;
  4.6171421E-01;  9.9999998E-03; -2.1000551E-01;5261; -8.7545784E-03;  0.0000000E+00; -2.4096572E-03;  9.9921246E+02;  1.0000000E-01; -6.5247540E+02;3; -1.6782643E+00;  0.0000000E+00;  4.2160548E-02;0; -2.1821950E-02;  3.9928289E+04;  0.0000000E+00; -1.6860211E-01;  4.0000000E+04;  0.0000000E+00;  4.0007234E+04; -2.9385097E-02;  0.0000000E+00;  7.5631472E-03;  1.0046399E+03;
  4.6170494E-01;  9.9999998E-03; -2.0000997E-01;5262; -8.6966390E-03;  0.0000000E+00; -2.3354113E-03;  9.9935602E+02;  1.0000000E-01; -5.3351575E+02;3; -1.7266839E+00;  0.0000000E+00;  2.7376587E-02;0; -2.1708002E-02;  3.9941539E+04;  0.0000000E+00; -1.4073575E-01;  4.0000000E+04;  0.0000000E+00;  4.0006305E+04; -2.9574743E-02;  0.0000000E+00;  7.8667402E-03;  8.3346063E+02;
  4.6169704E-01;  9.9999998E-03; -1.9001368E-01;5263; -8.6396551E-03;  0.0000000E+00; -2.2533836E-03;  9.9950043E+02;  1.0000000E-01; -4.1386484E+02;3; -1.7756882E+00;  0.0000000E+00;  1.3589545E-02;0; -2.1559855E-02;  3.9954160E+04;  0.0000000E+00; -1.0893162E-01;  4.0000000E+04;  0.0000000E+00;  4.0004984E+04; -2.9764179E-02;  0.0000000E+00;  8.2043242E-03;  6.7419556E+02;
  4.6169117E-01;  9.9999998E-03; -1.8001637E-01;5264; -8.5844090E-03;  0.0000000E+00; -2.1628656E-03;  9.9962769E+02;  1.0000000E-01; -3.0843573E+02;3; -1.8237792E+00;  0.0000000E+00;  3.1812100E-03;0; -2.1378495E-02;  3.9965441E+04;  0.0000000E+00; -7.5378329E-02;  4.0000000E+04;  0.0000000E+00;  4.0003930E+04; -2.9949777E-02;  0.0000000E+00;  8.5712811E-03;  5.2316589E+02;
  4.6168825E-01;  9.9999998E-03; -1.7001837E-01;5265; -8.5316589E-03;  0.0000000E+00; -2.0657256E-03;  9.9973810E+02;  1.0000000E-01; -2.1698152E+02;3; -1.8716248E+00;  0.0000000E+00; -4.5175729E-03;0; -2.1168202E-02;  3.9975551E+04;  0.0000000E+00; -4.2596936E-02;  4.0000000E+04;  0.0000000E+00;  4.0003137E+04; -3.0128377E-02;  0.0000000E+00;  8.9601744E-03;  3.8231107E+02;
  4.6168935E-01;  9.9999998E-03; -1.6001974E-01;5266; -8.4819356E-03;  0.0000000E+00; -1.9628520E-03;  9.9982849E+02;  1.0000000E-01; -1.4207005E+02;3; -1.9188602E+00;  0.0000000E+00; -9.4605638E-03;0; -2.0936579E-02;  3.9983605E+04;  0.0000000E+00; -1.3019329E-02;  4.0000000E+04;  0.0000000E+00;  4.0001879E+04; -3.0297952E-02;  0.0000000E+00;  9.3613733E-03;  2.5789844E+02;
  4.6169469E-01;  9.9999998E-03; -1.5002052E-01;5267; -8.4356386E-03;  0.0000000E+00; -1.8554067E-03;  9.9989600E+02;  1.0000000E-01; -8.6170403E+01;3; -1.9653723E+00;  0.0000000E+00; -1.2391788E-02;0; -2.0692412E-02;  3.9989922E+04;  0.0000000E+00;  1.1565259E-02;  4.0000000E+04;  0.0000000E+00;  4.0001199E+04; -3.0457633E-02;  0.0000000E+00;  9.7652199E-03;  1.5625494E+02;
  4.6170402E-01;  9.9999998E-03; -1.4002080E-01;5268; -8.3929859E-03;  0.0000000E+00; -1.7445119E-03;  9.9994043E+02;  1.0000000E-01; -4.9331940E+01;3; -2.0106874E+00;  0.0000000E+00; -1.3741028E-02;0; -2.0444248E-02;  3.9994020E+04;  0.0000000E+00;  3.0388810E-02;  4.0000000E+04;  0.0000000E+00;  4.0000477E+04; -3.0608023E-02;  0.0000000E+00;  1.0163774E-02;  8.5642708E+01;
  4.6171620E-01;  9.9999998E-03; -1.3002037E-01;5269; -8.3541768E-03;  0.0000000E+00; -1.6311001E-03;  9.9996191E+02;  1.0000000E-01; -3.1554663E+01;3; -2.0544014E+00;  0.0000000E+00; -1.3138073E-02;0; -2.0198220E-02;  3.9996371E+04;  0.0000000E+00;  4.3613568E-02;  4.0000000E+04;  0.0000000E+00;  3.9999855E+04; -3.0750636E-02;  0.0000000E+00;  1.0552416E-02;  6.3649853E+01;
  4.6173063E-01;  9.9999998E-03; -1.2001907E-01;5270; -8.3192764E-03;  0.0000000E+00; -1.5159213E-03;  9.9995428E+02;  1.0000000E-01; -3.7875473E+01;3; -2.0964353E+00;  0.0000000E+00; -1.1627263E-02;0; -1.9958200E-02;  3.9996312E+04;  0.0000000E+00;  5.1801130E-02;  4.0000000E+04;  0.0000000E+00;  3.9999691E+04; -3.0887561E-02;  0.0000000E+00;  1.0929361E-02;  8.2172241E+01;
  4.6174708E-01;  9.9999998E-03; -1.1001680E-01;5271; -8.2883583E-03;  0.0000000E+00; -1.3994623E-03;  9.9992560E+02;  1.0000000E-01; -6.1627888E+01;3; -2.1364305E+00;  0.0000000E+00; -9.6020922E-03;0; -1.9728102E-02;  3.9994406E+04;  0.0000000E+00;  5.5571951E-02;  4.0000000E+04;  0.0000000E+00;  3.9999277E+04; -3.1021036E-02;  0.0000000E+00;  1.1292934E-02;  1.0200642E+02;
  4.7175583E-01;  9.9999998E-03; -2.6998746E-01;5316; -9.3726330E-03;  0.0000000E+00; -2.8331019E-03;  9.9843787E+02;  1.0000000E-01; -1.2941857E+03;3; -1.3797948E+00;  0.0000000E+00;  2.4465910E-01;0; -2.2736933E-02;  3.9859711E+04;  0.0000000E+00; -4.4995558E-02;  4.0000000E+04;  0.0000000E+00;  4.0014312E+04; -2.8684309E-02;  0.0000000E+00;  5.9473757E-03;  1.9563005E+03;
  4.7175136E-01;  9.9999998E-03; -2.5999013E-01;5317; -9.3163019E-03;  0.0000000E+00; -2.7808694E-03;  9.9854541E+02;  1.0000000E-01; -1.2051017E+03;3; -1.4228696E+00;  0.0000000E+00;  2.0383042E-01;0; -2.2672644E-02;  3.9869781E+04;  0.0000000E+00; -1.1570953E-01;  4.0000000E+04;  0.0000000E+00;  4.0013465E+04; -2.8835200E-02;  0.0000000E+00;  6.1625559E-03;  1.8099209E+03;
  4.7174340E-01;  9.9999998E-03; -2.4999356E-01;5318; -9.2603192E-03;  0.0000000E+00; -2.7148603E-03;  9.9866223E+02;  1.0000000E-01; -1.1083143E+03;3; -1.4675080E+00;  0.0000000E+00;  1.6959263E-01;0; -2.2683330E-02;  3.9880648E+04;  0.0000000E+00; -1.5562744E-01;  4.0000000E+04;  0.0000000E+00;  4.0011789E+04; -2.9002754E-02;  0.0000000E+00;  6.3194251E-03;  1.6072994E+03;
  4.7173679E-01;  9.9999998E-03; -2.3999800E-01;5319; -9.2051858E-03;  0.0000000E+00; -2.6576708E-03;  9.9878662E+02;  1.0000000E-01; -1.0052555E+03;3; -1.5147531E+00;  0.0000000E+00;  1.3988204E-01;0; -2.2589685E-02;  3.9892344E+04;  0.0000000E+00; -1.7204039E-01;  4.0000000E+04;  0.0000000E+00;  4.0010020E+04; -2.9186271E-02;  0.0000000E+00;  6.5965857E-03;  1.3808110E+03;
  4.7173199E-01;  9.9999998E-03; -2.3000266E-01;5320; -9.1514597E-03;  0.0000000E+00; -2.6147142E-03;  9.9892352E+02;  1.0000000E-01; -8.9182660E+02;3; -1.5632027E+00;  0.0000000E+00;  1.1908402E-01;0; -2.2437522E-02;  3.9904840E+04;  0.0000000E+00; -1.7250735E-01;  4.0000000E+04;  0.0000000E+00;  4.0008766E+04; -2.9384268E-02;  0.0000000E+00;  6.9467463E-03;  1.1892546E+03;
  4.7172520E-01;  9.9999998E-03; -2.2000520E-01;5321; -9.0983119E-03;  0.0000000E+00; -2.5746170E-03;  9.9907361E+02;  1.0000000E-01; -7.6748450E+02;3; -1.6123430E+00;  0.0000000E+00;  1.0256463E-01;0; -2.2299731E-02;  3.9917844E+04;  0.0000000E+00; -1.6279513E-01;  4.0000000E+04;  0.0000000E+00;  4.0007727E+04; -2.9594311E-02;  0.0000000E+00;  7.2945803E-03;  1.0624117E+03;
  4.7171503E-01;  9.9999998E-03; -2.1000598E-01;5322; -9.0452265E-03;  0.0000000E+00; -2.5180010E-03;  9.9922595E+02;  1.0000000E-01; -6.4126581E+02;3; -1.6627945E+00;  0.0000000E+00;  8.2902983E-02;0; -2.2189047E-02;  3.9930812E+04;  0.0000000E+00; -1.4689587E-01;  4.0000000E+04;  0.0000000E+00;  4.0006848E+04; -2.9813047E-02;  0.0000000E+00;  7.6240003E-03;  9.3524707E+02;
  4.7170216E-01;  9.9999998E-03; -2.0000683E-01;5323; -8.9922771E-03;  0.0000000E+00; -2.4461320E-03;  9.9937231E+02;  1.0000000E-01; -5.2003467E+02;3; -1.7137085E+00;  0.0000000E+00;  6.6586092E-02;0; -2.2063078E-02;  3.9943473E+04;  0.0000000E+00; -1.2729780E-01;  4.0000000E+04;  0.0000000E+00;  4.0005520E+04; -3.0036487E-02;  0.0000000E+00;  7.9734083E-03;  7.8086200E+02;
  4.7168857E-01;  9.9999998E-03; -1.9000803E-01;5324; -8.9400597E-03;  0.0000000E+00; -2.3640157E-03;  9.9950568E+02;  1.0000000E-01; -4.0951929E+02;3; -1.7647556E+00;  0.0000000E+00;  5.2991193E-02;0; -2.1903660E-02;  3.9955422E+04;  0.0000000E+00; -1.0567582E-01;  4.0000000E+04;  0.0000000E+00;  4.0004297E+04; -3.0260300E-02;  0.0000000E+00;  8.3566392E-03;  6.1794672E+02;
  4.7167608E-01;  9.9999998E-03; -1.8000944E-01;5325; -8.8888761E-03;  0.0000000E+00; -2.2730099E-03;  9.9962952E+02;  1.0000000E-01; -3.0695428E+02;3; -1.8154283E+00;  0.0000000E+00;  3.9978076E-02;0; -2.1709740E-02;  3.9966562E+04;  0.0000000E+00; -8.3471999E-02;  4.0000000E+04;  0.0000000E+00;  4.0002996E+04; -3.0480219E-02;  0.0000000E+00;  8.7704780E-03;  4.6180527E+02;
  4.7166696E-01;  9.9999998E-03; -1.7001095E-01;5326; -8.8394200E-03;  0.0000000E+00; -2.1747074E-03;  9.9972919E+02;  1.0000000E-01; -2.2433934E+02;3; -1.8656970E+00;  0.0000000E+00;  3.0764412E-02;0; -2.1486130E-02;  3.9975812E+04;  0.0000000E+00; -6.2055420E-02;  4.0000000E+04;  0.0000000E+00;  4.0002145E+04; -3.0692764E-02;  0.0000000E+00;  9.2066349E-03;  3.2141879E+02;
  4.7166207E-01;  9.9999998E-03; -1.6001253E-01;5327; -8.7920483E-03;  0.0000000E+00; -2.0701664E-03;  9.9981757E+02;  1.0000000E-01; -1.5115622E+02;3; -1.9151623E+00;  0.0000000E+00;  2.5382210E-02;0; -2.1240870E-02;  3.9983645E+04;  0.0000000E+00; -4.2594012E-02;  4.0000000E+04;  0.0000000E+00;  4.0001469E+04; -3.0895449E-02;  0.0000000E+00;  9.6545797E-03;  2.0224080E+02;
  4.7166178E-01;  9.9999998E-03; -1.5001410E-01;5328; -8.7471781E-03;  0.0000000E+00; -1.9610305E-03;  9.9987915E+02;  1.0000000E-01; -1.0014532E+02;3; -1.9637449E+00;  0.0000000E+00;  2.0779418E-02;0; -2.0983592E-02;  3.9989305E+04;  0.0000000E+00; -2.5835175E-02;  4.0000000E+04;  0.0000000E+00;  4.0000578E+04; -3.1087400E-02;  0.0000000E+00;  1.0103810E-02;  1.0702044E+02;
  4.7166601E-01;  9.9999998E-03; -1.4001548E-01;5329; -8.7051857E-03;  0.0000000E+00; -1.8481793E-03;  9.9991998E+02;  1.0000000E-01; -6.6269730E+01;3; -2.0110466E+00;  0.0000000E+00;  1.8374585E-02;0; -2.0723069E-02;  3.9993172E+04;  0.0000000E+00; -1.1955744E-02;  4.0000000E+04;  0.0000000E+00;  4.0000156E+04; -3.1269051E-02;  0.0000000E+00;  1.0545982E-02;  3.5966511E+01;
  4.7167429E-01;  9.9999998E-03; -1.3001633E-01;5330; -8.6664967E-03;  0.0000000E+00; -1.7327090E-03;  9.9993896E+02;  1.0000000E-01; -5.0566471E+01;3; -2.0567768E+00;  0.0000000E+00;  1.6993279E-02;0; -2.0465374E-02;  3.9995051E+04;  0.0000000E+00; -6.8016100E-04;  4.0000000E+04;  0.0000000E+00;  3.9999613E+04; -3.1442080E-02;  0.0000000E+00;  1.0976705E-02;  1.5377637E+01;
  4.7168651E-01;  9.9999998E-03; -1.2001622E-01;5331; -8.6315190E-03;  0.0000000E+00; -1.6150192E-03;  9.9993677E+02;  1.0000000E-01; -5.2393581E+01;3; -2.1003954E+00;  0.0000000E+00;  1.6911998E-02;0; -2.0213947E-02;  3.9995176E+04;  0.0000000E+00;  8.2740132E-03;  4.0000000E+04;  0.0000000E+00;  3.9999820E+04; -3.1608809E-02;  0.0000000E+00;  1.1394862E-02;  4.6153622E+01;
  4.7170234E-01;  9.9999998E-03; -1.1001513E-01;5332; -8.6006448E-03;  0.0000000E+00; -1.4955079E-03;  9.9991290E+02;  1.0000000E-01; -7.2146111E+01;3; -2.1419024E+00;  0.0000000E+00;  1.7419014E-02;0; -1.9972095E-02;  3.9993496E+04;  0.0000000E+00;  1.5026785E-02;  4.0000000E+04;  0.0000000E+00;  3.9999605E+04; -3.1771537E-02;  0.0000000E+00;  1.1799442E-02;  6.0952320E+01;
  4.8168963E-01;  9.9999998E-03; -1.1001409E-01;5393; -8.9198854E-03;  0.0000000E+00; -1.5963609E-03;  9.9989514E+02;  1.0000146E-01; -8.6861740E+01;3; -2.1443794E+00;  0.0000000E+00;  4.8988536E-02;0; -2.0204239E-02;  3.9990805E+04;  0.0000000E+00; -2.8055646E-02;  4.0000000E+04;  0.0000000E+00;  3.9999648E+04; -3.2504484E-02;  0.0000000E+00;  1.2300246E-02;  5.4016064E+01;
  4.8167378E-01;  9.9999998E-03; -1.2001409E-01;5392; -8.9503638E-03;  0.0000000E+00; -1.7183502E-03;  9.9990857E+02;  1.0000150E-01; -7.5750946E+01;3; -2.1015079E+00;  0.0000000E+00;  5.0352901E-02;0; -2.0460652E-02;  3.9992227E+04;  0.0000000E+00; -3.5512429E-02;  4.0000000E+04;  0.0000000E+00;  3.9999453E+04; -3.2311514E-02;  0.0000000E+00;  1.1850862E-02;  6.9140213E+01;
  4.8166257E-01;  9.9999998E-03; -1.3001311E-01;5391; -8.9850314E-03;  0.0000000E+00; -1.8377196E-03;  9.9991083E+02;  1.0000146E-01; -7.3874451E+01;3; -2.0562167E+00;  0.0000000E+00;  5.2433088E-02;0; -2.0725993E-02;  3.9991754E+04;  0.0000000E+00; -4.2447235E-02;  4.0000000E+04;  0.0000000E+00;  3.9999523E+04; -3.2114081E-02;  0.0000000E+00;  1.1388088E-02;  7.3237312E+01;
  4.8165554E-01;  9.9999998E-03; -1.4001131E-01;5390; -9.0231858E-03;  0.0000000E+00; -1.9540538E-03;  9.9988733E+02;  1.0000150E-01; -9.3330696E+01;3; -2.0087223E+00;  0.0000000E+00;  5.5713885E-02;0; -2.0997256E-02;  3.9990445E+04;  0.0000000E+00; -4.8661582E-02;  4.0000000E+04;  0.0000000E+00;  3.9999508E+04; -3.1909853E-02;  0.0000000E+00;  1.0912597E-02;  7.0516899E+01;
  4.8165202E-01;  9.9999998E-03; -1.5000917E-01;5389; -9.0640550E-03;  0.0000000E+00; -2.0671666E-03;  9.9984894E+02;  1.0000141E-01; -1.2513226E+02;3; -1.9594064E+00;  0.0000000E+00;  5.9626922E-02;0; -2.1271601E-02;  3.9986922E+04;  0.0000000E+00; -5.4424737E-02;  4.0000000E+04;  0.0000000E+00;  4.0000180E+04; -3.1696610E-02;  0.0000000E+00;  1.0425010E-02;  8.3837486E+01;
  4.8165122E-01;  9.9999998E-03; -1.6000715E-01;5388; -9.1070719E-03;  0.0000000E+00; -2.1763016E-03;  9.9979413E+02;  1.0000144E-01; -1.7056308E+02;3; -1.9088639E+00;  0.0000000E+00;  6.5115876E-02;0; -2.1543052E-02;  3.9981609E+04;  0.0000000E+00; -6.0409032E-02;  4.0000000E+04;  0.0000000E+00;  4.0000766E+04; -3.1472750E-02;  0.0000000E+00;  9.9296980E-03;  1.4214668E+02;
  4.8165289E-01;  9.9999998E-03; -1.7000556E-01;5387; -9.1516217E-03;  0.0000000E+00; -2.2807959E-03;  9.9971423E+02;  1.0000145E-01; -2.3673404E+02;3; -1.8569448E+00;  0.0000000E+00;  7.2581090E-02;0; -2.1802243E-02;  3.9974215E+04;  0.0000000E+00; -6.7347690E-02;  4.0000000E+04;  0.0000000E+00;  4.0001562E+04; -3.1237593E-02;  0.0000000E+00;  9.4353510E-03;  2.4351816E+02;
  4.8165631E-01;  9.9999998E-03; -1.8000478E-01;5386; -9.1972770E-03;  0.0000000E+00; -2.3788523E-03;  9.9961633E+02;  1.0000140E-01; -3.1786755E+02;3; -1.8043911E+00;  0.0000000E+00;  8.2126677E-02;0; -2.2039436E-02;  3.9965621E+04;  0.0000000E+00; -7.5807922E-02;  4.0000000E+04;  0.0000000E+00;  4.0002605E+04; -3.0992428E-02;  0.0000000E+00;  8.9529920E-03;  3.7856390E+02;
  4.8166108E-01;  9.9999998E-03; -1.9000503E-01;5385; -9.2437789E-03;  0.0000000E+00; -2.4690682E-03;  9.9950171E+02;  1.0000148E-01; -4.1282782E+02;3; -1.7513846E+00;  0.0000000E+00;  9.6008837E-02;0; -2.2246256E-02;  3.9955176E+04;  0.0000000E+00; -8.6021215E-02;  4.0000000E+04;  0.0000000E+00;  4.0003789E+04; -3.0739855E-02;  0.0000000E+00;  8.4935995E-03;  5.3669012E+02;
  4.8166656E-01;  9.9999998E-03; -2.0000660E-01;5384; -9.2908526E-03;  0.0000000E+00; -2.5500336E-03;  9.9936853E+02;  1.0000140E-01; -5.2314569E+02;3; -1.6980401E+00;  0.0000000E+00;  1.1061086E-01;0; -2.2418227E-02;  3.9943238E+04;  0.0000000E+00; -9.7748324E-02;  4.0000000E+04;  0.0000000E+00;  4.0005051E+04; -3.0483890E-02;  0.0000000E+00;  8.0656633E-03;  6.9773956E+02;
  4.8167104E-01;  9.9999998E-03; -2.1000876E-01;5383; -9.3384068E-03;  0.0000000E+00; -2.6187350E-03;  9.9922418E+02;  1.0000147E-01; -6.4274725E+02;3; -1.6443987E+00;  0.0000000E+00;  1.2817116E-01;0; -2.2558948E-02;  3.9930809E+04;  0.0000000E+00; -1.1011914E-01;  4.0000000E+04;  0.0000000E+00;  4.0006004E+04; -3.0229243E-02;  0.0000000E+00;  7.6702945E-03;  8.3195312E+02;
  4.8167524E-01;  9.9999998E-03; -2.2000925E-01;5382; -9.3867024E-03;  0.0000000E+00; -2.6684240E-03;  9.9907318E+02;  1.0000146E-01; -7.6783014E+02;3; -1.5915970E+00;  0.0000000E+00;  1.4651686E-01;0; -2.2695251E-02;  3.9918051E+04;  0.0000000E+00; -1.2143870E-01;  4.0000000E+04;  0.0000000E+00;  4.0006617E+04; -2.9980786E-02;  0.0000000E+00;  7.2855353E-03;  9.3055811E+02;
  4.8168057E-01;  9.9999998E-03; -2.3000488E-01;5381; -9.4356434E-03;  0.0000000E+00; -2.7073317E-03;  9.9892841E+02;  1.0000141E-01; -8.8777734E+02;3; -1.5394739E+00;  0.0000000E+00;  1.6420743E-01;0; -2.2856196E-02;  3.9905270E+04;  0.0000000E+00; -1.2892826E-01;  4.0000000E+04;  0.0000000E+00;  4.0007711E+04; -2.9743018E-02;  0.0000000E+00;  6.8868208E-03;  1.0850237E+03;
  4.8168838E-01;  9.9999998E-03; -2.3999813E-01;5380; -9.4853099E-03;  0.0000000E+00; -2.7647121E-03;  9.9879877E+02;  1.0000148E-01; -9.9518170E+02;3; -1.4886000E+00;  0.0000000E+00;  1.8831173E-01;0; -2.2965604E-02;  3.9892910E+04;  0.0000000E+00; -1.2843388E-01;  4.0000000E+04;  0.0000000E+00;  4.0010008E+04; -2.9519422E-02;  0.0000000E+00;  6.5538175E-03;  1.3535989E+03;
  4.8169777E-01;  9.9999998E-03; -2.4999385E-01;5379; -9.5365494E-03;  0.0000000E+00; -2.8237822E-03;  9.9868109E+02;  1.0000146E-01; -1.0927098E+03;3; -1.4380558E+00;  0.0000000E+00;  2.1840572E-01;0; -2.3042699E-02;  3.9881422E+04;  0.0000000E+00; -1.1402112E-01;  4.0000000E+04;  0.0000000E+00;  4.0011625E+04; -2.9312529E-02;  0.0000000E+00;  6.2698298E-03;  1.5806255E+03;
  4.8170805E-01;  9.9999998E-03; -2.5999063E-01;5378; -9.5887957E-03;  0.0000000E+00; -2.8785672E-03;  9.9856476E+02;  1.0000148E-01; -1.1890527E+03;3; -1.3901881E+00;  0.0000000E+00;  2.5197172E-01;0; -2.3116641E-02;  3.9870824E+04;  0.0000000E+00; -7.8409113E-02;  4.0000000E+04;  0.0000000E+00;  4.0012988E+04; -2.9123878E-02;  0.0000000E+00;  6.0072374E-03;  1.7672659E+03;
  4.8171762E-01;  9.9999998E-03; -2.6998800E-01;5377; -9.6408324E-03;  0.0000000E+00; -2.9250062E-03;  9.9846320E+02;  1.0000148E-01; -1.2731986E+03;3; -1.3436804E+00;  0.0000000E+00;  2.9250866E-01;0; -2.3249140E-02;  3.9861129E+04;  0.0000000E+00; -1.5466513E-02;  4.0000000E+04;  0.0000000E+00;  4.0013957E+04; -2.8954295E-02;  0.0000000E+00;  5.7051559E-03;  1.9060267E+03;
  4.9174964E-01;  9.9999998E-03; -1.0999945E-01;5454; -9.2479587E-03;  0.0000000E+00; -1.6978915E-03;  9.9985077E+02;  1.0000202E-01; -1.2365083E+02;3; -2.1438735E+00;  0.0000000E+00;  8.4929325E-02;0; -2.0425556E-02;  3.9986973E+04;  0.0000000E+00; -7.0374765E-02;  4.0000000E+04;  0.0000000E+00;  3.9999609E+04; -3.3226334E-02;  0.0000000E+00;  1.2800777E-02;  1.0088575E+02;
  4.9172783E-01;  9.9999998E-03; -1.1999904E-01;5453; -9.2775077E-03;  0.0000000E+00; -1.8225394E-03;  9.9985614E+02;  1.0000196E-01; -1.1920650E+02;3; -2.0994544E+00;  0.0000000E+00;  8.9017212E-02;0; -2.0698324E-02;  3.9987918E+04;  0.0000000E+00; -7.5838983E-02;  4.0000000E+04;  0.0000000E+00;  3.9999527E+04; -3.3001263E-02;  0.0000000E+00;  1.2302939E-02;  1.1807141E+02;
  4.9171200E-01;  9.9999998E-03; -1.2999785E-01;5452; -9.3111899E-03;  0.0000000E+00; -1.9430644E-03;  9.9985181E+02;  1.0000198E-01; -1.2276196E+02;3; -2.0525799E+00;  0.0000000E+00;  9.3390524E-02;0; -2.0979080E-02;  3.9987410E+04;  0.0000000E+00; -7.7834487E-02;  4.0000000E+04;  0.0000000E+00;  3.9999344E+04; -3.2771293E-02;  0.0000000E+00;  1.1792213E-02;  1.3072050E+02;
  4.9170238E-01;  9.9999998E-03; -1.3999601E-01;5451; -9.3481969E-03;  0.0000000E+00; -2.0595847E-03;  9.9983545E+02;  1.0000201E-01; -1.3634183E+02;3; -2.0034564E+00;  0.0000000E+00;  9.8493882E-02;0; -2.1265283E-02;  3.9985852E+04;  0.0000000E+00; -7.6157168E-02;  4.0000000E+04;  0.0000000E+00;  3.9999223E+04; -3.2534529E-02;  0.0000000E+00;  1.1269245E-02;  1.2785322E+02;
  4.9169847E-01;  9.9999998E-03; -1.4999393E-01;5450; -9.3875844E-03;  0.0000000E+00; -2.1721576E-03;  9.9979462E+02;  1.0000207E-01; -1.7016803E+02;3; -1.9523441E+00;  0.0000000E+00;  1.0420522E-01;0; -2.1554366E-02;  3.9982871E+04;  0.0000000E+00; -7.1359016E-02;  4.0000000E+04;  0.0000000E+00;  3.9999453E+04; -3.2288872E-02;  0.0000000E+00;  1.0734507E-02;  1.0723957E+02;
  4.9169955E-01;  9.9999998E-03; -1.5999219E-01;5449; -9.4285328E-03;  0.0000000E+00; -2.2804756E-03;  9.9974213E+02;  1.0000201E-01; -2.1362358E+02;3; -1.8997386E+00;  0.0000000E+00;  1.1063477E-01;0; -2.1840431E-02;  3.9977844E+04;  0.0000000E+00; -6.4822905E-02;  4.0000000E+04;  0.0000000E+00;  3.9999863E+04; -3.2032777E-02;  0.0000000E+00;  1.0192345E-02;  9.6183304E+01;
  4.9170408E-01;  9.9999998E-03; -1.6999146E-01;5448; -9.4703594E-03;  0.0000000E+00; -2.3837374E-03;  9.9966699E+02;  1.0000210E-01; -2.7589343E+02;3; -1.8456285E+00;  0.0000000E+00;  1.1921440E-01;0; -2.2114119E-02;  3.9971457E+04;  0.0000000E+00; -5.8459628E-02;  4.0000000E+04;  0.0000000E+00;  4.0000973E+04; -3.1765871E-02;  0.0000000E+00;  9.6517522E-03;  1.6292485E+02;
  4.9171054E-01;  9.9999998E-03; -1.7999199E-01;5447; -9.5125483E-03;  0.0000000E+00; -2.4809486E-03;  9.9957776E+02;  1.0000210E-01; -3.4981726E+02;3; -1.7905192E+00;  0.0000000E+00;  1.3025983E-01;0; -2.2365328E-02;  3.9962617E+04;  0.0000000E+00; -5.4326613E-02;  4.0000000E+04;  0.0000000E+00;  4.0002000E+04; -3.1489361E-02;  0.0000000E+00;  9.1240341E-03;  3.0138062E+02;
  4.9171627E-01;  9.9999998E-03; -1.8999417E-01;5446; -9.5548322E-03;  0.0000000E+00; -2.5705372E-03;  9.9946490E+02;  1.0000215E-01; -4.4329611E+02;3; -1.7352337E+00;  0.0000000E+00;  1.4406255E-01;0; -2.2585545E-02;  3.9952348E+04;  0.0000000E+00; -5.4097787E-02;  4.0000000E+04;  0.0000000E+00;  4.0003520E+04; -3.1205891E-02;  0.0000000E+00;  8.6203460E-03;  4.8121130E+02;
  4.9171916E-01;  9.9999998E-03; -1.9999798E-01;5445; -9.5971692E-03;  0.0000000E+00; -2.6519103E-03;  9.9933643E+02;  1.0000205E-01; -5.4976221E+02;3; -1.6792665E+00;  0.0000000E+00;  1.6028154E-01;0; -2.2769954E-02;  3.9940523E+04;  0.0000000E+00; -5.8571480E-02;  4.0000000E+04;  0.0000000E+00;  4.0004918E+04; -3.0919798E-02;  0.0000000E+00;  8.1498427E-03;  6.7386816E+02;
  4.9172193E-01;  9.9999998E-03; -2.1000329E-01;5444; -9.6397689E-03;  0.0000000E+00; -2.7217083E-03;  9.9919208E+02;  1.0000203E-01; -6.6936377E+02;3; -1.6231004E+00;  0.0000000E+00;  1.7812671E-01;0; -2.2921536E-02;  3.9928105E+04;  0.0000000E+00; -6.7347959E-02;  4.0000000E+04;  0.0000000E+00;  4.0006027E+04; -3.0636193E-02;  0.0000000E+00;  7.7146576E-03;  8.3201135E+02;
  4.9172401E-01;  9.9999998E-03; -2.2000697E-01;5443; -9.6835271E-03;  0.0000000E+00; -2.7711652E-03;  9.9904095E+02;  1.0000205E-01; -7.9454541E+02;3; -1.5676949E+00;  0.0000000E+00;  1.9739249E-01;0; -2.3069138E-02;  3.9915066E+04;  0.0000000E+00; -7.8740440E-02;  4.0000000E+04;  0.0000000E+00;  4.0006480E+04; -3.0360270E-02;  0.0000000E+00;  7.2911321E-03;  9.3052197E+02;
  4.9172381E-01;  9.9999998E-03; -2.3000325E-01;5442; -9.7283423E-03;  0.0000000E+00; -2.8110591E-03;  9.9888983E+02;  1.0000207E-01; -9.1977643E+02;3; -1.5125705E+00;  0.0000000E+00;  2.1582660E-01;0; -2.3237111E-02;  3.9901895E+04;  0.0000000E+00; -8.9664049E-02;  4.0000000E+04;  0.0000000E+00;  4.0008039E+04; -3.0096821E-02;  0.0000000E+00;  6.8597100E-03;  1.1091702E+03;
  4.9172354E-01;  9.9999998E-03; -2.3999669E-01;5441; -9.7736903E-03;  0.0000000E+00; -2.8760179E-03;  9.9876495E+02;  1.0000210E-01; -1.0232303E+03;3; -1.4586092E+00;  0.0000000E+00;  2.4285063E-01;0; -2.3318231E-02;  3.9889449E+04;  0.0000000E+00; -9.5826894E-02;  4.0000000E+04;  0.0000000E+00;  4.0010352E+04; -2.9849581E-02;  0.0000000E+00;  6.5313503E-03;  1.4108148E+03;
  4.9171656E-01;  9.9999998E-03; -2.4999306E-01;5440; -9.8205311E-03;  0.0000000E+00; -2.9322635E-03;  9.9864294E+02;  1.0000207E-01; -1.1243138E+03;3; -1.4051938E+00;  0.0000000E+00;  2.7292421E-01;0; -2.3400003E-02;  3.9877855E+04;  0.0000000E+00; -9.1148183E-02;  4.0000000E+04;  0.0000000E+00;  4.0011953E+04; -2.9620999E-02;  0.0000000E+00;  6.2209959E-03;  1.6368959E+03;
  4.9170533E-01;  9.9999998E-03; -2.5999022E-01;5439; -9.8682120E-03;  0.0000000E+00; -2.9809892E-03;  9.9852600E+02;  1.0000200E-01; -1.2212001E+03;3; -1.3537062E+00;  0.0000000E+00;  3.0627981E-01;0; -2.3509709E-02;  3.9867152E+04;  0.0000000E+00; -6.9214135E-02;  4.0000000E+04;  0.0000000E+00;  4.0013594E+04; -2.9412964E-02;  0.0000000E+00;  5.9032552E-03;  1.8168267E+03;
  4.9169770E-01;  9.9999998E-03; -2.6998764E-01;5438; -9.9157337E-03;  0.0000000E+00; -3.0249071E-03;  9.9842163E+02;  1.0000207E-01; -1.3076667E+03;3; -1.3046144E+00;  0.0000000E+00;  3.4411067E-01;0; -2.3656137E-02;  3.9857656E+04;  0.0000000E+00; -2.5490858E-02;  4.0000000E+04;  0.0000000E+00;  4.0014641E+04; -2.9226458E-02;  0.0000000E+00;  5.5703199E-03;  1.9594572E+03;
  5.0175989E-01;  9.9999998E-03; -2.6998678E-01;5499; -1.0202056E-02;  0.0000000E+00; -3.1325794E-03;  9.9833539E+02;  1.0000364E-01; -1.3791215E+03;3; -1.2612909E+00;  0.0000000E+00;  4.0457878E-01;0; -2.3958936E-02;  3.9848723E+04;  0.0000000E+00; -6.8113029E-02;  4.0000000E+04;  0.0000000E+00;  4.0015480E+04; -2.9492235E-02;  0.0000000E+00;  5.5332994E-03;  2.0835095E+03;
  5.0176436E-01;  9.9999998E-03; -2.5998911E-01;5500; -1.0157992E-02;  0.0000000E+00; -3.0912850E-03;  9.9844489E+02;  1.0000370E-01; -1.2883586E+03;3; -1.3145244E+00;  0.0000000E+00;  3.6650959E-01;0; -2.3817223E-02;  3.9858676E+04;  0.0000000E+00; -8.7461159E-02;  4.0000000E+04;  0.0000000E+00;  4.0014496E+04; -2.9693607E-02;  0.0000000E+00;  5.8763842E-03;  1.9374752E+03;
  5.0176752E-01;  9.9999998E-03; -2.4999146E-01;5501; -1.0113702E-02;  0.0000000E+00; -3.0464253E-03;  9.9856696E+02;  1.0000373E-01; -1.1872257E+03;3; -1.3689476E+00;  0.0000000E+00;  3.3308977E-01;0; -2.3703611E-02;  3.9869902E+04;  0.0000000E+00; -8.8479400E-02;  4.0000000E+04;  0.0000000E+00;  4.0013000E+04; -2.9918578E-02;  0.0000000E+00;  6.2149670E-03;  1.7599296E+03;
  5.0176048E-01;  9.9999998E-03; -2.3999436E-01;5502; -1.0070245E-02;  0.0000000E+00; -2.9908919E-03;  9.9870001E+02;  1.0000383E-01; -1.0770066E+03;3; -1.4250754E+00;  0.0000000E+00;  3.0293471E-01;0; -2.3636566E-02;  3.9882020E+04;  0.0000000E+00; -7.6051697E-02;  4.0000000E+04;  0.0000000E+00;  4.0011227E+04; -3.0166211E-02;  0.0000000E+00;  6.5296441E-03;  1.5284121E+03;
  5.0174952E-01;  9.9999998E-03; -2.2999957E-01;5503; -1.0028413E-02;  0.0000000E+00; -2.9240733E-03;  9.9883203E+02;  1.0000373E-01; -9.6762695E+02;3; -1.4827881E+00;  0.0000000E+00;  2.7411300E-01;0; -2.3571473E-02;  3.9895262E+04;  0.0000000E+00; -5.7591029E-02;  4.0000000E+04;  0.0000000E+00;  4.0009137E+04; -3.0434759E-02;  0.0000000E+00;  6.8632858E-03;  1.2204785E+03;
  5.0174242E-01;  9.9999998E-03; -2.2000162E-01;5504; -9.9872481E-03;  0.0000000E+00; -2.8778682E-03;  9.9898230E+02;  1.0000384E-01; -8.4313666E+02;3; -1.5405976E+00;  0.0000000E+00;  2.5334153E-01;0; -2.3417667E-02;  3.9908859E+04;  0.0000000E+00; -3.8942959E-02;  4.0000000E+04;  0.0000000E+00;  4.0007617E+04; -3.0721774E-02;  0.0000000E+00;  7.3041068E-03;  1.0188631E+03;
  5.0173336E-01;  9.9999998E-03; -2.0999682E-01;5505; -9.9474201E-03;  0.0000000E+00; -2.8236529E-03;  9.9914069E+02;  1.0000365E-01; -7.1193048E+02;3; -1.5990232E+00;  0.0000000E+00;  2.3348492E-01;0; -2.3268474E-02;  3.9922609E+04;  0.0000000E+00; -2.3922792E-02;  4.0000000E+04;  0.0000000E+00;  4.0006602E+04; -3.1023178E-02;  0.0000000E+00;  7.7547040E-03;  8.7627039E+02;
  5.0172448E-01;  9.9999998E-03; -1.9999038E-01;5506; -9.9087860E-03;  0.0000000E+00; -2.7512771E-03;  9.9928729E+02;  1.0000372E-01; -5.9045245E+02;3; -1.6578802E+00;  0.0000000E+00;  2.1445957E-01;0; -2.3107652E-02;  3.9935371E+04;  0.0000000E+00; -1.5591604E-02;  4.0000000E+04;  0.0000000E+00;  4.0005031E+04; -3.1333979E-02;  0.0000000E+00;  8.2263276E-03;  6.7604266E+02;
  5.0171757E-01;  9.9999998E-03; -1.8998542E-01;5507; -9.8702582E-03;  0.0000000E+00; -2.6689526E-03;  9.9941565E+02;  1.0000368E-01; -4.8413446E+02;3; -1.7161387E+00;  0.0000000E+00;  1.9772007E-01;0; -2.2911374E-02;  3.9947445E+04;  0.0000000E+00; -1.5492233E-02;  4.0000000E+04;  0.0000000E+00;  4.0003121E+04; -3.1648807E-02;  0.0000000E+00;  8.7374337E-03;  4.4696802E+02;
  5.0171256E-01;  9.9999998E-03; -1.7998204E-01;5508; -9.8316623E-03;  0.0000000E+00; -2.5793314E-03;  9.9952740E+02;  1.0000376E-01; -3.9154449E+02;3; -1.7740479E+00;  0.0000000E+00;  1.8312289E-01;0; -2.2678424E-02;  3.9957980E+04;  0.0000000E+00; -2.3628525E-02;  4.0000000E+04;  0.0000000E+00;  4.0001461E+04; -3.1962391E-02;  0.0000000E+00;  9.2839664E-03;  2.3902113E+02;
  5.0170857E-01;  9.9999998E-03; -1.6998003E-01;5509; -9.7927768E-03;  0.0000000E+00; -2.4832534E-03;  9.9961780E+02;  1.0000373E-01; -3.1663303E+02;3; -1.8315123E+00;  0.0000000E+00;  1.7116082E-01;0; -2.2413999E-02;  3.9966520E+04;  0.0000000E+00; -3.8443670E-02;  4.0000000E+04;  0.0000000E+00;  4.0000023E+04; -3.2270346E-02;  0.0000000E+00;  9.8563461E-03;  8.8823318E+01;
  5.0170755E-01;  9.9999998E-03; -1.5997934E-01;5510; -9.7538373E-03;  0.0000000E+00; -2.3810794E-03;  9.9968622E+02;  1.0000366E-01; -2.5994327E+02;3; -1.8877450E+00;  0.0000000E+00;  1.6217913E-01;0; -2.2126447E-02;  3.9973043E+04;  0.0000000E+00; -5.7113133E-02;  4.0000000E+04;  0.0000000E+00;  3.9999590E+04; -3.2569613E-02;  0.0000000E+00;  1.0443166E-02;  9.0402336E+01;
  5.0171095E-01;  9.9999998E-03; -1.4997974E-01;5511; -9.7153857E-03;  0.0000000E+00; -2.2736520E-03;  9.9974286E+02;  1.0000379E-01; -2.1303101E+02;3; -1.9423777E+00;  0.0000000E+00;  1.5335833E-01;0; -2.1826025E-02;  3.9977660E+04;  0.0000000E+00; -7.6211549E-02;  4.0000000E+04;  0.0000000E+00;  3.9998809E+04; -3.2858945E-02;  0.0000000E+00;  1.1032919E-02;  1.4960829E+02;
  5.0171983E-01;  9.9999998E-03; -1.3998073E-01;5512; -9.6780779E-03;  0.0000000E+00; -2.1615471E-03;  9.9977887E+02;  1.0000389E-01; -1.8320470E+02;3; -1.9953550E+00;  0.0000000E+00;  1.4614841E-01;0; -2.1522280E-02;  3.9980547E+04;  0.0000000E+00; -9.2559971E-02;  4.0000000E+04;  0.0000000E+00;  3.9998918E+04; -3.3138536E-02;  0.0000000E+00;  1.1616255E-02;  1.7782573E+02;
  5.0173414E-01;  9.9999998E-03; -1.2998188E-01;5513; -9.6428543E-03;  0.0000000E+00; -2.0446915E-03;  9.9979871E+02;  1.0000376E-01; -1.6676071E+02;3; -2.0459664E+00;  0.0000000E+00;  1.3941132E-01;0; -2.1220922E-02;  3.9981977E+04;  0.0000000E+00; -1.0386281E-01;  4.0000000E+04;  0.0000000E+00;  3.9999133E+04; -3.3409543E-02;  0.0000000E+00;  1.2188621E-02;  1.7779521E+02;
  5.0175351E-01;  9.9999998E-03; -1.1998283E-01;5514; -9.6106166E-03;  0.0000000E+00; -1.9225674E-03;  9.9980554E+02;  1.0000389E-01; -1.6108186E+02;3; -2.0944073E+00;  0.0000000E+00;  1.3231184E-01;0; -2.0924211E-02;  3.9982469E+04;  0.0000000E+00; -1.0901829E-01;  4.0000000E+04;  0.0000000E+00;  3.9999418E+04; -3.3673625E-02;  0.0000000E+00;  1.2749415E-02;  1.6351604E+02;
  5.0177699E-01;  9.9999998E-03; -1.0998350E-01;5515; -9.5822746E-03;  0.0000000E+00; -1.7950367E-03;  9.9981134E+02;  1.0000384E-01; -1.5629187E+02;3; -2.1400132E+00;  0.0000000E+00;  1.2581091E-01;0; -2.0634541E-02;  3.9981902E+04;  0.0000000E+00; -1.0792192E-01;  4.0000000E+04;  0.0000000E+00;  3.9999879E+04; -3.3932220E-02;  0.0000000E+00;  1.3297679E-02;  1.5483351E+02;
  5.1171815E-01;  9.9999998E-03; -2.6998541E-01;5560; -1.0496472E-02;  0.0000000E+00; -3.2402624E-03;  9.9820648E+02;  1.0000632E-01; -1.4858839E+03;3; -1.2147698E+00;  0.0000000E+00;  4.6971449E-01;0; -2.4209252E-02;  3.9835273E+04;  0.0000000E+00; -1.0562467E-01;  4.0000000E+04;  0.0000000E+00;  4.0017004E+04; -2.9734824E-02;  0.0000000E+00;  5.5255727E-03;  2.2685803E+03;
  5.1173210E-01;  9.9999998E-03; -2.5998747E-01;5561; -1.0455336E-02;  0.0000000E+00; -3.2046908E-03;  9.9832599E+02;  1.0000619E-01; -1.3868744E+03;3; -1.2714118E+00;  0.0000000E+00;  4.3303898E-01;0; -2.4051968E-02;  3.9845934E+04;  0.0000000E+00; -1.0702103E-01;  4.0000000E+04;  0.0000000E+00;  4.0015820E+04; -2.9950807E-02;  0.0000000E+00;  5.8988379E-03;  2.1158860E+03;
  5.1174122E-01;  9.9999998E-03; -2.4998932E-01;5562; -1.0414331E-02;  0.0000000E+00; -3.1656513E-03;  9.9846069E+02;  1.0000618E-01; -1.2752726E+03;3; -1.3298790E+00;  0.0000000E+00;  3.9766458E-01;0; -2.3937194E-02;  3.9858164E+04;  0.0000000E+00; -9.0914376E-02;  4.0000000E+04;  0.0000000E+00;  4.0014215E+04; -3.0192371E-02;  0.0000000E+00;  6.2551778E-03;  1.9355461E+03;
  5.1174033E-01;  9.9999998E-03; -2.3999114E-01;5563; -1.0374442E-02;  0.0000000E+00; -3.1117289E-03;  9.9860309E+02;  1.0000615E-01; -1.1573007E+03;3; -1.3894155E+00;  0.0000000E+00;  3.6739767E-01;0; -2.3897540E-02;  3.9871293E+04;  0.0000000E+00; -6.3976064E-02;  4.0000000E+04;  0.0000000E+00;  4.0012758E+04; -3.0458778E-02;  0.0000000E+00;  6.5612379E-03;  1.7108577E+03;
  5.1173472E-01;  9.9999998E-03; -2.2999479E-01;5564; -1.0336286E-02;  0.0000000E+00; -3.0422409E-03;  9.9874860E+02;  1.0000625E-01; -1.0367607E+03;3; -1.4495348E+00;  0.0000000E+00;  3.3839756E-01;0; -2.3864543E-02;  3.9885289E+04;  0.0000000E+00; -3.4006573E-02;  4.0000000E+04;  0.0000000E+00;  4.0010250E+04; -3.0748378E-02;  0.0000000E+00;  6.8838350E-03;  1.3985007E+03;
  5.1172900E-01;  9.9999998E-03; -2.1999595E-01;5565; -1.0298835E-02;  0.0000000E+00; -2.9868567E-03;  9.9890698E+02;  1.0000622E-01; -9.0555463E+02;3; -1.5106632E+00;  0.0000000E+00;  3.1492618E-01;0; -2.3738842E-02;  3.9899828E+04;  0.0000000E+00; -6.7958725E-03;  4.0000000E+04;  0.0000000E+00;  4.0008316E+04; -3.1058470E-02;  0.0000000E+00;  7.3196264E-03;  1.1548340E+03;
  5.1172161E-01;  9.9999998E-03; -2.0999150E-01;5566; -1.0262595E-02;  0.0000000E+00; -2.9257315E-03;  9.9907257E+02;  1.0000617E-01; -7.6837335E+02;3; -1.5720263E+00;  0.0000000E+00;  2.9376015E-01;0; -2.3594348E-02;  3.9914312E+04;  0.0000000E+00;  1.3561611E-02;  4.0000000E+04;  0.0000000E+00;  4.0006945E+04; -3.1384956E-02;  0.0000000E+00;  7.7906079E-03;  9.5411316E+02;
  5.1171386E-01;  9.9999998E-03; -1.9998500E-01;5567; -1.0227276E-02;  0.0000000E+00; -2.8502804E-03;  9.9922003E+02;  1.0000618E-01; -6.4620392E+02;3; -1.6336099E+00;  0.0000000E+00;  2.7373269E-01;0; -2.3426309E-02;  3.9928133E+04;  0.0000000E+00;  2.3959879E-02;  4.0000000E+04;  0.0000000E+00;  4.0005012E+04; -3.1722788E-02;  0.0000000E+00;  8.2964776E-03;  7.1234589E+02;
  5.1170802E-01;  9.9999998E-03; -1.8997931E-01;5568; -1.0191887E-02;  0.0000000E+00; -2.7667647E-03;  9.9935559E+02;  1.0000610E-01; -5.3386145E+02;3; -1.6943568E+00;  0.0000000E+00;  2.5635353E-01;0; -2.3219561E-02;  3.9940691E+04;  0.0000000E+00;  2.2776024E-02;  4.0000000E+04;  0.0000000E+00;  4.0003152E+04; -3.2066491E-02;  0.0000000E+00;  8.8469293E-03;  4.5092044E+02;
  5.1170522E-01;  9.9999998E-03; -1.7997469E-01;5569; -1.0156316E-02;  0.0000000E+00; -2.6767508E-03;  9.9946967E+02;  1.0000620E-01; -4.3939499E+02;3; -1.7548110E+00;  0.0000000E+00;  2.4162324E-01;0; -2.2975139E-02;  3.9951574E+04;  0.0000000E+00;  1.0090715E-02;  4.0000000E+04;  0.0000000E+00;  4.0001270E+04; -3.2410733E-02;  0.0000000E+00;  9.4355932E-03;  2.1435201E+02;
  5.1170582E-01;  9.9999998E-03; -1.6997118E-01;5570; -1.0120472E-02;  0.0000000E+00; -2.5805873E-03;  9.9956061E+02;  1.0000616E-01; -3.6403909E+02;3; -1.8147287E+00;  0.0000000E+00;  2.2858725E-01;0; -2.2698455E-02;  3.9960301E+04;  0.0000000E+00; -1.2162923E-02;  4.0000000E+04;  0.0000000E+00;  4.0000117E+04; -3.2750886E-02;  0.0000000E+00;  1.0052431E-02;  3.3023895E+01;
  5.1170963E-01;  9.9999998E-03; -1.5996888E-01;5571; -1.0084468E-02;  0.0000000E+00; -2.4783823E-03;  9.9963409E+02;  1.0000635E-01; -3.0315192E+02;3; -1.8730386E+00;  0.0000000E+00;  2.1844843E-01;0; -2.2397950E-02;  3.9966902E+04;  0.0000000E+00; -4.0406227E-02;  4.0000000E+04;  0.0000000E+00;  3.9999121E+04; -3.3083815E-02;  0.0000000E+00;  1.0685866E-02;  1.1007217E+02;
  5.1171803E-01;  9.9999998E-03; -1.4996782E-01;5572; -1.0048828E-02;  0.0000000E+00; -2.3708877E-03;  9.9968530E+02;  1.0000607E-01; -2.6073337E+02;3; -1.9295511E+00;  0.0000000E+00;  2.0812263E-01;0; -2.2083854E-02;  3.9971688E+04;  0.0000000E+00; -7.0156187E-02;  4.0000000E+04;  0.0000000E+00;  3.9998590E+04; -3.3407927E-02;  0.0000000E+00;  1.1324072E-02;  1.8561134E+02;
  5.1173145E-01;  9.9999998E-03; -1.3996771E-01;5573; -1.0014119E-02;  0.0000000E+00; -2.2580775E-03;  9.9972046E+02;  1.0000619E-01; -2.3159839E+02;3; -1.9839225E+00;  0.0000000E+00;  1.9927226E-01;0; -2.1765791E-02;  3.9974215E+04;  0.0000000E+00; -9.7087495E-02;  4.0000000E+04;  0.0000000E+00;  3.9998402E+04; -3.3723116E-02;  0.0000000E+00;  1.1957325E-02;  2.1476457E+02;
  5.1174927E-01;  9.9999998E-03; -1.2996833E-01;5574; -9.9812131E-03;  0.0000000E+00; -2.1399544E-03;  9.9973969E+02;  1.0000630E-01; -2.1564822E+02;3; -2.0362039E+00;  0.0000000E+00;  1.8970601E-01;0; -2.1449637E-02;  3.9975531E+04;  0.0000000E+00; -1.1798795E-01;  4.0000000E+04;  0.0000000E+00;  3.9998645E+04; -3.4030303E-02;  0.0000000E+00;  1.2580667E-02;  2.1140707E+02;
  5.1177013E-01;  9.9999998E-03; -1.1996944E-01;5575; -9.9509032E-03;  0.0000000E+00; -2.0156386E-03;  9.9975146E+02;  1.0000610E-01; -2.0592010E+02;3; -2.0859849E+00;  0.0000000E+00;  1.8043500E-01;0; -2.1137297E-02;  3.9975973E+04;  0.0000000E+00; -1.3107805E-01;  4.0000000E+04;  0.0000000E+00;  3.9999359E+04; -3.4330484E-02;  0.0000000E+00;  1.3193186E-02;  1.9643466E+02;
  5.1179242E-01;  9.9999998E-03; -1.0997109E-01;5576; -9.9242143E-03;  0.0000000E+00; -1.8850547E-03;  9.9975879E+02;  1.0000629E-01; -1.9984621E+02;3; -2.1327298E+00;  0.0000000E+00;  1.7164674E-01;0; -2.0831034E-02;  3.9975629E+04;  0.0000000E+00; -1.3574570E-01;  4.0000000E+04;  0.0000000E+00;  3.9999961E+04; -3.4624450E-02;  0.0000000E+00;  1.3793416E-02;  1.9575531E+02;
  5.2167803E-01;  9.9999998E-03; -2.6998392E-01;5621; -1.0800674E-02;  0.0000000E+00; -3.3464739E-03;  9.9806299E+02;  1.0001041E-01; -1.6047941E+03;3; -1.1643404E+00;  0.0000000E+00;  5.3836304E-01;0; -2.4430808E-02;  3.9818707E+04;  0.0000000E+00; -1.4176466E-01;  4.0000000E+04;  0.0000000E+00;  4.0018051E+04; -2.9946197E-02;  0.0000000E+00;  5.5153891E-03;  2.4716890E+03;
  5.2169937E-01;  9.9999998E-03; -2.5998577E-01;5622; -1.0761849E-02;  0.0000000E+00; -3.3160800E-03;  9.9819519E+02;  1.0001060E-01; -1.4952664E+03;3; -1.2251228E+00;  0.0000000E+00;  5.0293577E-01;0; -2.4263939E-02;  3.9830285E+04;  0.0000000E+00; -1.3172916E-01;  4.0000000E+04;  0.0000000E+00;  4.0017121E+04; -3.0177051E-02;  0.0000000E+00;  5.9131118E-03;  2.3056626E+03;
  5.2171451E-01;  9.9999998E-03; -2.4998717E-01;5623; -1.0723877E-02;  0.0000000E+00; -3.2836653E-03;  9.9834326E+02;  1.0001060E-01; -1.3725538E+03;3; -1.2873937E+00;  0.0000000E+00;  4.7071785E-01;0; -2.4141848E-02;  3.9843398E+04;  0.0000000E+00; -1.0208464E-01;  4.0000000E+04;  0.0000000E+00;  4.0015742E+04; -3.0435456E-02;  0.0000000E+00;  6.2936083E-03;  2.1210723E+03;
  5.2171892E-01;  9.9999998E-03; -2.3998836E-01;5624; -1.0687435E-02;  0.0000000E+00; -3.2316817E-03;  9.9849878E+02;  1.0001048E-01; -1.2437179E+03;3; -1.3500655E+00;  0.0000000E+00;  4.3529761E-01;0; -2.4131328E-02;  3.9857664E+04;  0.0000000E+00; -6.2572874E-02;  4.0000000E+04;  0.0000000E+00;  4.0014336E+04; -3.0720780E-02;  0.0000000E+00;  6.5894509E-03;  1.8939297E+03;
  5.2171642E-01;  9.9999998E-03; -2.2999097E-01;5625; -1.0652670E-02;  0.0000000E+00; -3.1611247E-03;  9.9866101E+02;  1.0001051E-01; -1.1093513E+03;3; -1.4133637E+00;  0.0000000E+00;  4.0749896E-01;0; -2.4127366E-02;  3.9872949E+04;  0.0000000E+00; -2.2029612E-02;  4.0000000E+04;  0.0000000E+00;  4.0011637E+04; -3.1031359E-02;  0.0000000E+00;  6.9039934E-03;  1.5787089E+03;
  5.2171248E-01;  9.9999998E-03; -2.1999210E-01;5626; -1.0618668E-02;  0.0000000E+00; -3.0974930E-03;  9.9882758E+02;  1.0001040E-01; -9.7133057E+02;3; -1.4776894E+00;  0.0000000E+00;  3.8102275E-01;0; -2.4031200E-02;  3.9888758E+04;  0.0000000E+00;  1.3501323E-02;  4.0000000E+04;  0.0000000E+00;  4.0009191E+04; -3.1364515E-02;  0.0000000E+00;  7.3333168E-03;  1.2962145E+03;
  5.2170676E-01;  9.9999998E-03; -2.0998949E-01;5627; -1.0585401E-02;  0.0000000E+00; -3.0296862E-03;  9.9900049E+02;  1.0001054E-01; -8.2807532E+02;3; -1.5420907E+00;  0.0000000E+00;  3.5955232E-01;0; -2.3894137E-02;  3.9904242E+04;  0.0000000E+00;  3.9901808E-02;  4.0000000E+04;  0.0000000E+00;  4.0007520E+04; -3.1716261E-02;  0.0000000E+00;  7.8221243E-03;  1.0411975E+03;
  5.2170122E-01;  9.9999998E-03; -1.9998460E-01;5628; -1.0552648E-02;  0.0000000E+00; -2.9518979E-03;  9.9916125E+02;  1.0001054E-01; -6.9489392E+02;3; -1.6065032E+00;  0.0000000E+00;  3.3917296E-01;0; -2.3720782E-02;  3.9919035E+04;  0.0000000E+00;  5.4066729E-02;  4.0000000E+04;  0.0000000E+00;  4.0005398E+04; -3.2081570E-02;  0.0000000E+00;  8.3607873E-03;  7.6764301E+02;
  5.2169794E-01;  9.9999998E-03; -1.8997927E-01;5629; -1.0519776E-02;  0.0000000E+00; -2.8665659E-03;  9.9930261E+02;  1.0001057E-01; -5.7776141E+02;3; -1.6700739E+00;  0.0000000E+00;  3.2099706E-01;0; -2.3505818E-02;  3.9932414E+04;  0.0000000E+00;  5.4321859E-02;  4.0000000E+04;  0.0000000E+00;  4.0003402E+04; -3.2454953E-02;  0.0000000E+00;  8.9491336E-03;  4.8713116E+02;
  5.2169812E-01;  9.9999998E-03; -1.7997421E-01;5630; -1.0486840E-02;  0.0000000E+00; -2.7749359E-03;  9.9942059E+02;  1.0001040E-01; -4.8003580E+02;3; -1.7328671E+00;  0.0000000E+00;  3.0596146E-01;0; -2.3251478E-02;  3.9944094E+04;  0.0000000E+00;  4.0676013E-02;  4.0000000E+04;  0.0000000E+00;  4.0001375E+04; -3.2830842E-02;  0.0000000E+00;  9.5793633E-03;  2.3247752E+02;
  5.2170217E-01;  9.9999998E-03; -1.6996993E-01;5631; -1.0453865E-02;  0.0000000E+00; -2.6770446E-03;  9.9951831E+02;  1.0001042E-01; -3.9905045E+02;3; -1.7949873E+00;  0.0000000E+00;  2.9186159E-01;0; -2.2963814E-02;  3.9953363E+04;  0.0000000E+00;  1.5111134E-02;  4.0000000E+04;  0.0000000E+00;  3.9999941E+04; -3.3204611E-02;  0.0000000E+00;  1.0240797E-02;  3.0858778E+01;
  5.2170998E-01;  9.9999998E-03; -1.5996660E-01;5632; -1.0420898E-02;  0.0000000E+00; -2.5729635E-03;  9.9959479E+02;  1.0001034E-01; -3.3569421E+02;3; -1.8553095E+00;  0.0000000E+00;  2.8055468E-01;0; -2.2651272E-02;  3.9960137E+04;  0.0000000E+00; -1.8488733E-02;  4.0000000E+04;  0.0000000E+00;  3.9998594E+04; -3.3572752E-02;  0.0000000E+00;  1.0921480E-02;  1.2020074E+02;
  5.2172148E-01;  9.9999998E-03; -1.4996438E-01;5633; -1.0388404E-02;  0.0000000E+00; -2.4633065E-03;  9.9964746E+02;  1.0001054E-01; -2.9209052E+02;3; -1.9132850E+00;  0.0000000E+00;  2.6734942E-01;0; -2.2324253E-02;  3.9964824E+04;  0.0000000E+00; -5.5028331E-02;  4.0000000E+04;  0.0000000E+00;  3.9997965E+04; -3.3933371E-02;  0.0000000E+00;  1.1609118E-02;  2.0379695E+02;
  5.2173662E-01;  9.9999998E-03; -1.3996331E-01;5634; -1.0356730E-02;  0.0000000E+00; -2.3480568E-03;  9.9968097E+02;  1.0001052E-01; -2.6428882E+02;3; -1.9693890E+00;  0.0000000E+00;  2.5702548E-01;0; -2.1992689E-02;  3.9967445E+04;  0.0000000E+00; -8.9423761E-02;  4.0000000E+04;  0.0000000E+00;  3.9998148E+04; -3.4286167E-02;  0.0000000E+00;  1.2293478E-02;  2.3477255E+02;
  5.2175450E-01;  9.9999998E-03; -1.2996349E-01;5635; -1.0326528E-02;  0.0000000E+00; -2.2275301E-03;  9.9970117E+02;  1.0001041E-01; -2.4759793E+02;3; -2.0230727E+00;  0.0000000E+00;  2.4518757E-01;0; -2.1662310E-02;  3.9968570E+04;  0.0000000E+00; -1.1782045E-01;  4.0000000E+04;  0.0000000E+00;  3.9998559E+04; -3.4631465E-02;  0.0000000E+00;  1.2969154E-02;  2.2898045E+02;
  5.2177364E-01;  9.9999998E-03; -1.1996484E-01;5636; -1.0298590E-02;  0.0000000E+00; -2.1003895E-03;  9.9971045E+02;  1.0001054E-01; -2.3989445E+02;3; -2.0740581E+00;  0.0000000E+00;  2.3331903E-01;0; -2.1334998E-02;  3.9968555E+04;  0.0000000E+00; -1.3785020E-01;  4.0000000E+04;  0.0000000E+00;  3.9999332E+04; -3.4969762E-02;  0.0000000E+00;  1.3634763E-02;  2.1137427E+02;
  5.2179241E-01;  9.9999998E-03; -1.0996725E-01;5637; -1.0274098E-02;  0.0000000E+00; -1.9664648E-03;  9.9971265E+02;  1.0001040E-01; -2.3806734E+02;3; -2.1217401E+00;  0.0000000E+00;  2.2134218E-01;0; -2.1013081E-02;  3.9968055E+04;  0.0000000E+00; -1.4834552E-01;  4.0000000E+04;  0.0000000E+00;  4.0000020E+04; -3.5301220E-02;  0.0000000E+00;  1.4288140E-02;  2.1309932E+02;
  5.3166300E-01;  9.9999998E-03; -2.6998255E-01;5682; -1.1111409E-02;  0.0000000E+00; -3.4515760E-03;  9.9793597E+02;  1.0001741E-01; -1.7100258E+03;3; -1.1111760E+00;  0.0000000E+00;  6.1621577E-01;0; -2.4611995E-02;  3.9801320E+04;  0.0000000E+00; -1.6735749E-01;  4.0000000E+04;  0.0000000E+00;  4.0019562E+04; -3.0119151E-02;  0.0000000E+00;  5.5071567E-03;  2.6480916E+03;
  5.3168648E-01;  9.9999998E-03; -2.5998423E-01;5683; -1.1074727E-02;  0.0000000E+00; -3.4245520E-03;  9.9807745E+02;  1.0001738E-01; -1.5927944E+03;3; -1.1756442E+00;  0.0000000E+00;  5.7686192E-01;0; -2.4457082E-02;  3.9814387E+04;  0.0000000E+00; -1.5534158E-01;  4.0000000E+04;  0.0000000E+00;  4.0018211E+04; -3.0365815E-02;  0.0000000E+00;  5.9087332E-03;  2.4699463E+03;
  5.3170103E-01;  9.9999998E-03; -2.4998556E-01;5684; -1.1039809E-02;  0.0000000E+00; -3.3947669E-03;  9.9823907E+02;  1.0001735E-01; -1.4588723E+03;3; -1.2411653E+00;  0.0000000E+00;  5.4702789E-01;0; -2.4352795E-02;  3.9828465E+04;  0.0000000E+00; -1.1783347E-01;  4.0000000E+04;  0.0000000E+00;  4.0016957E+04; -3.0641623E-02;  0.0000000E+00;  6.2888279E-03;  2.2687585E+03;
  5.3170294E-01;  9.9999998E-03; -2.3998684E-01;5685; -1.1006836E-02;  0.0000000E+00; -3.3455547E-03;  9.9841211E+02;  1.0001748E-01; -1.3155183E+03;3; -1.3075951E+00;  0.0000000E+00;  5.1103681E-01;0; -2.4357731E-02;  3.9843883E+04;  0.0000000E+00; -6.9436550E-02;  4.0000000E+04;  0.0000000E+00;  4.0014973E+04; -3.0946180E-02;  0.0000000E+00;  6.5884497E-03;  2.0255693E+03;
  5.3169733E-01;  9.9999998E-03; -2.2998957E-01;5686; -1.0975399E-02;  0.0000000E+00; -3.2751132E-03;  9.9858716E+02;  1.0001731E-01; -1.1705348E+03;3; -1.3745704E+00;  0.0000000E+00;  4.8095289E-01;0; -2.4374126E-02;  3.9860199E+04;  0.0000000E+00; -2.1094626E-02;  4.0000000E+04;  0.0000000E+00;  4.0012422E+04; -3.1277999E-02;  0.0000000E+00;  6.9038738E-03;  1.7027987E+03;
  5.3168988E-01;  9.9999998E-03; -2.1999295E-01;5687; -1.0944569E-02;  0.0000000E+00; -3.2060465E-03;  9.9876648E+02;  1.0001730E-01; -1.0219464E+03;3; -1.4416156E+00;  0.0000000E+00;  4.5346683E-01;0; -2.4299301E-02;  3.9877238E+04;  0.0000000E+00;  2.0894706E-02;  4.0000000E+04;  0.0000000E+00;  4.0010117E+04; -3.1634506E-02;  0.0000000E+00;  7.3352037E-03;  1.3756460E+03;
  5.3168273E-01;  9.9999998E-03; -2.0999405E-01;5688; -1.0913810E-02;  0.0000000E+00; -3.1356292E-03;  9.9894867E+02;  1.0001735E-01; -8.7098773E+02;3; -1.5093164E+00;  0.0000000E+00;  4.3108132E-01;0; -2.4165312E-02;  3.9893711E+04;  0.0000000E+00;  5.2495919E-02;  4.0000000E+04;  0.0000000E+00;  4.0007660E+04; -3.2011956E-02;  0.0000000E+00;  7.8466441E-03;  1.0888068E+03;
  5.3167784E-01;  9.9999998E-03; -1.9999184E-01;5689; -1.0883212E-02;  0.0000000E+00; -3.0571769E-03;  9.9912164E+02;  1.0001750E-01; -7.2768311E+02;3; -1.5766461E+00;  0.0000000E+00;  4.1049987E-01;0; -2.3987833E-02;  3.9909633E+04;  0.0000000E+00;  7.0861824E-02;  4.0000000E+04;  0.0000000E+00;  4.0005801E+04; -3.2405473E-02;  0.0000000E+00;  8.4176399E-03;  8.1498895E+02;
  5.3167665E-01;  9.9999998E-03; -1.8998764E-01;5690; -1.0852665E-02;  0.0000000E+00; -2.9699362E-03;  9.9927515E+02;  1.0001754E-01; -6.0052625E+02;3; -1.6432824E+00;  0.0000000E+00;  3.9257240E-01;0; -2.3766752E-02;  3.9923797E+04;  0.0000000E+00;  7.4426420E-02;  4.0000000E+04;  0.0000000E+00;  4.0003484E+04; -3.2809515E-02;  0.0000000E+00;  9.0427613E-03;  5.3931305E+02;
  5.3167969E-01;  9.9999998E-03; -1.7998280E-01;5691; -1.0822373E-02;  0.0000000E+00; -2.8753015E-03;  9.9940448E+02;  1.0001744E-01; -4.9336877E+02;3; -1.7081550E+00;  0.0000000E+00;  3.7591222E-01;0; -2.3504328E-02;  3.9935973E+04;  0.0000000E+00;  6.3128270E-02;  4.0000000E+04;  0.0000000E+00;  4.0001730E+04; -3.3218443E-02;  0.0000000E+00;  9.7141154E-03;  2.8138800E+02;
  5.3168702E-01;  9.9999998E-03; -1.6997807E-01;5692; -1.0792518E-02;  0.0000000E+00; -2.7734670E-03;  9.9950781E+02;  1.0001736E-01; -4.0779092E+02;3; -1.7721078E+00;  0.0000000E+00;  3.6004078E-01;0; -2.3206774E-02;  3.9945957E+04;  0.0000000E+00;  3.8787030E-02;  4.0000000E+04;  0.0000000E+00;  3.9999961E+04; -3.3627283E-02;  0.0000000E+00;  1.0420508E-02;  7.3691002E+01;
  5.3169823E-01;  9.9999998E-03; -1.5997389E-01;5693; -1.0762951E-02;  0.0000000E+00; -2.6651048E-03;  9.9958154E+02;  1.0001750E-01; -3.4670624E+02;3; -1.8341912E+00;  0.0000000E+00;  3.4712785E-01;0; -2.2883043E-02;  3.9953059E+04;  0.0000000E+00;  5.1538772E-03;  4.0000000E+04;  0.0000000E+00;  3.9998695E+04; -3.4032337E-02;  0.0000000E+00;  1.1149296E-02;  1.0784568E+02;
  5.3171265E-01;  9.9999998E-03; -1.4997073E-01;5694; -1.0734025E-02;  0.0000000E+00; -2.5510560E-03;  9.9963550E+02;  1.0001726E-01; -3.0196677E+02;3; -1.8940178E+00;  0.0000000E+00;  3.3267197E-01;0; -2.2543933E-02;  3.9957668E+04;  0.0000000E+00; -3.2660585E-02;  4.0000000E+04;  0.0000000E+00;  3.9997820E+04; -3.4431454E-02;  0.0000000E+00;  1.1887521E-02;  1.9965364E+02;
  5.3172910E-01;  9.9999998E-03; -1.3996896E-01;5695; -1.0705655E-02;  0.0000000E+00; -2.4321415E-03;  9.9966400E+02;  1.0001726E-01; -2.7836249E+02;3; -1.9514574E+00;  0.0000000E+00;  3.2000160E-01;0; -2.2199411E-02;  3.9960070E+04;  0.0000000E+00; -6.9481820E-02;  4.0000000E+04;  0.0000000E+00;  3.9997883E+04; -3.4823723E-02;  0.0000000E+00;  1.2624311E-02;  2.3612166E+02;
  5.3174633E-01;  9.9999998E-03; -1.2996875E-01;5696; -1.0678588E-02;  0.0000000E+00; -2.3081279E-03;  9.9967798E+02;  1.0001732E-01; -2.6680728E+02;3; -2.0063581E+00;  0.0000000E+00;  3.0559713E-01;0; -2.1855393E-02;  3.9960758E+04;  0.0000000E+00; -1.0133154E-01;  4.0000000E+04;  0.0000000E+00;  3.9998145E+04; -3.5209134E-02;  0.0000000E+00;  1.3353741E-02;  2.2966833E+02;
  5.3176296E-01;  9.9999998E-03; -1.1996990E-01;5697; -1.0653574E-02;  0.0000000E+00; -2.1774743E-03;  9.9968030E+02;  1.0001743E-01; -2.6488141E+02;3; -2.0583730E+00;  0.0000000E+00;  2.9068798E-01;0; -2.1513831E-02;  3.9960262E+04;  0.0000000E+00; -1.2557812E-01;  4.0000000E+04;  0.0000000E+00;  3.9998879E+04; -3.5587724E-02;  0.0000000E+00;  1.4073892E-02;  2.0596954E+02;
  5.3177798E-01;  9.9999998E-03; -1.0997234E-01;5698; -1.0631903E-02;  0.0000000E+00; -2.0396642E-03;  9.9967542E+02;  1.0001746E-01; -2.6893066E+02;3; -2.1069226E+00;  0.0000000E+00;  2.7535084E-01;0; -2.1177214E-02;  3.9959133E+04;  0.0000000E+00; -1.4063019E-01;  4.0000000E+04;  0.0000000E+00;  3.9999574E+04; -3.5958908E-02;  0.0000000E+00;  1.4781696E-02;  2.0090346E+02;
  5.4167986E-01;  9.9999998E-03; -2.6998186E-01;5743; -1.1423386E-02;  0.0000000E+00; -3.5524815E-03;  9.9787476E+02;  1.0002949E-01; -1.7607404E+03;3; -1.0542179E+00;  0.0000000E+00;  6.9910717E-01;0; -2.4789393E-02;  3.9786301E+04;  0.0000000E+00; -1.7764078E-01;  4.0000000E+04;  0.0000000E+00;  4.0020176E+04; -3.0251686E-02;  0.0000000E+00;  5.4622930E-03;  2.7252654E+03;
  5.4170185E-01;  9.9999998E-03; -2.5998354E-01;5744; -1.1389314E-02;  0.0000000E+00; -3.5273526E-03;  9.9802802E+02;  1.0002950E-01; -1.6337316E+03;3; -1.1222050E+00;  0.0000000E+00;  6.5691411E-01;0; -2.4654303E-02;  3.9799863E+04;  0.0000000E+00; -1.7309585E-01;  4.0000000E+04;  0.0000000E+00;  4.0018352E+04; -3.0514827E-02;  0.0000000E+00;  5.8605243E-03;  2.5275410E+03;
  5.4171246E-01;  9.9999998E-03; -2.4998522E-01;5745; -1.1358007E-02;  0.0000000E+00; -3.4974839E-03;  9.9819897E+02;  1.0002951E-01; -1.4921060E+03;3; -1.1920196E+00;  0.0000000E+00;  6.2624061E-01;0; -2.4580006E-02;  3.9815043E+04;  0.0000000E+00; -1.3440616E-01;  4.0000000E+04;  0.0000000E+00;  4.0016941E+04; -3.0808628E-02;  0.0000000E+00;  6.2286230E-03;  2.3053374E+03;
  5.4170632E-01;  9.9999998E-03; -2.3998737E-01;5746; -1.1328894E-02;  0.0000000E+00; -3.4505783E-03;  9.9838336E+02;  1.0002956E-01; -1.3393695E+03;3; -1.2620169E+00;  0.0000000E+00;  5.9076905E-01;0; -2.4590762E-02;  3.9831641E+04;  0.0000000E+00; -8.1810676E-02;  4.0000000E+04;  0.0000000E+00;  4.0014996E+04; -3.1132780E-02;  0.0000000E+00;  6.5420172E-03;  2.0429219E+03;
  5.4169101E-01;  9.9999998E-03; -2.2999151E-01;5747; -1.1300905E-02;  0.0000000E+00; -3.3843853E-03;  9.9857104E+02;  1.0002951E-01; -1.1838678E+03;3; -1.3327353E+00;  0.0000000E+00;  5.6044286E-01;0; -2.4605144E-02;  3.9848762E+04;  0.0000000E+00; -2.9470613E-02;  4.0000000E+04;  0.0000000E+00;  4.0012367E+04; -3.1486128E-02;  0.0000000E+00;  6.8809846E-03;  1.7155621E+03;
  5.4167414E-01;  9.9999998E-03; -2.1999857E-01;5748; -1.1273184E-02;  0.0000000E+00; -3.3143489E-03;  9.9875830E+02;  1.0002942E-01; -1.0287117E+03;3; -1.4030802E+00;  0.0000000E+00;  5.3227770E-01;0; -2.4540480E-02;  3.9866406E+04;  0.0000000E+00;  1.6016468E-02;  4.0000000E+04;  0.0000000E+00;  4.0009703E+04; -3.1866301E-02;  0.0000000E+00;  7.3258197E-03;  1.3643727E+03;
  5.4166073E-01;  9.9999998E-03; -2.1000443E-01;5749; -1.1244986E-02;  0.0000000E+00; -3.2456371E-03;  9.9895209E+02;  1.0002949E-01; -8.6817297E+02;3; -1.4738563E+00;  0.0000000E+00;  5.0885922E-01;0; -2.4405949E-02;  3.9883895E+04;  0.0000000E+00;  5.0964098E-02;  4.0000000E+04;  0.0000000E+00;  4.0007551E+04; -3.2269858E-02;  0.0000000E+00;  7.8639090E-03;  1.0808855E+03;
  5.4165268E-01;  9.9999998E-03; -2.0000525E-01;5750; -1.1216816E-02;  0.0000000E+00; -3.1677585E-03;  9.9913776E+02;  1.0002949E-01; -7.1435016E+02;3; -1.5441308E+00;  0.0000000E+00;  4.8825601E-01;0; -2.4226433E-02;  3.9900301E+04;  0.0000000E+00;  7.2980128E-02;  4.0000000E+04;  0.0000000E+00;  4.0005906E+04; -3.2692179E-02;  0.0000000E+00;  8.4657464E-03;  8.4251196E+02;
  5.4165107E-01;  9.9999998E-03; -1.9000237E-01;5751; -1.1189078E-02;  0.0000000E+00; -3.0777068E-03;  9.9930164E+02;  1.0002939E-01; -5.7860089E+02;3; -1.6134197E+00;  0.0000000E+00;  4.7048092E-01;0; -2.4001697E-02;  3.9915336E+04;  0.0000000E+00;  8.0816798E-02;  4.0000000E+04;  0.0000000E+00;  4.0004023E+04; -3.3127692E-02;  0.0000000E+00;  9.1259945E-03;  5.9600067E+02;
  5.4165602E-01;  9.9999998E-03; -1.7999782E-01;5752; -1.1162104E-02;  0.0000000E+00; -2.9781775E-03;  9.9943890E+02;  1.0002954E-01; -4.6487573E+02;3; -1.6805047E+00;  0.0000000E+00;  4.5196605E-01;0; -2.3732617E-02;  3.9927961E+04;  0.0000000E+00;  7.4541427E-02;  4.0000000E+04;  0.0000000E+00;  4.0002027E+04; -3.3570651E-02;  0.0000000E+00;  9.8380325E-03;  3.4799240E+02;
  5.4166651E-01;  9.9999998E-03; -1.6999276E-01;5753; -1.1136022E-02;  0.0000000E+00; -2.8701683E-03;  9.9954413E+02;  1.0002955E-01; -3.7766833E+02;3; -1.7464699E+00;  0.0000000E+00;  4.3501982E-01;0; -2.3425911E-02;  3.9938145E+04;  0.0000000E+00;  5.5810373E-02;  4.0000000E+04;  0.0000000E+00;  4.0000098E+04; -3.4015849E-02;  0.0000000E+00;  1.0589939E-02;  1.3179384E+02;
  5.4168111E-01;  9.9999998E-03; -1.5998805E-01;5754; -1.1110382E-02;  0.0000000E+00; -2.7556727E-03;  9.9962164E+02;  1.0002933E-01; -3.1347263E+02;3; -1.8099422E+00;  0.0000000E+00;  4.1934645E-01;0; -2.3091298E-02;  3.9945492E+04;  0.0000000E+00;  2.7901802E-02;  4.0000000E+04;  0.0000000E+00;  3.9998844E+04; -3.4459218E-02;  0.0000000E+00;  1.1367922E-02;  7.8609642E+01;
  5.4169810E-01;  9.9999998E-03; -1.4998427E-01;5755; -1.1085262E-02;  0.0000000E+00; -2.6360524E-03;  9.9966949E+02;  1.0002962E-01; -2.7381943E+02;3; -1.8712932E+00;  0.0000000E+00;  4.0330002E-01;0; -2.2740230E-02;  3.9950246E+04;  0.0000000E+00; -4.7527645E-03;  4.0000000E+04;  0.0000000E+00;  3.9997965E+04; -3.4898341E-02;  0.0000000E+00;  1.2158110E-02;  1.7556143E+02;
  5.4171562E-01;  9.9999998E-03; -1.3998201E-01;5756; -1.1060588E-02;  0.0000000E+00; -2.5122047E-03;  9.9969873E+02;  1.0002943E-01; -2.4957318E+02;3; -1.9300431E+00;  0.0000000E+00;  3.8783461E-01;0; -2.2382915E-02;  3.9952355E+04;  0.0000000E+00; -3.7711974E-02;  4.0000000E+04;  0.0000000E+00;  3.9997895E+04; -3.5331845E-02;  0.0000000E+00;  1.2948931E-02;  2.2165518E+02;
  5.4173231E-01;  9.9999998E-03; -1.2998147E-01;5757; -1.1037111E-02;  0.0000000E+00; -2.3840403E-03;  9.9969946E+02;  1.0002955E-01; -2.4898061E+02;3; -1.9858475E+00;  0.0000000E+00;  3.7033075E-01;0; -2.2025354E-02;  3.9952395E+04;  0.0000000E+00; -6.7585751E-02;  4.0000000E+04;  0.0000000E+00;  3.9998016E+04; -3.5759158E-02;  0.0000000E+00;  1.3733805E-02;  2.1771730E+02;
  5.4174685E-01;  9.9999998E-03; -1.1998243E-01;5758; -1.1015648E-02;  0.0000000E+00; -2.2494083E-03;  9.9968872E+02;  1.0002952E-01; -2.5786926E+02;3; -2.0386937E+00;  0.0000000E+00;  3.5248819E-01;0; -2.1669697E-02;  3.9951125E+04;  0.0000000E+00; -9.1985382E-02;  4.0000000E+04;  0.0000000E+00;  3.9998492E+04; -3.6179818E-02;  0.0000000E+00;  1.4510120E-02;  1.8514441E+02;
  5.4175830E-01;  9.9999998E-03; -1.0998458E-01;5759; -1.0997503E-02;  0.0000000E+00; -2.1072431E-03;  9.9967078E+02;  1.0002936E-01; -2.7273303E+02;3; -2.0879672E+00;  0.0000000E+00;  3.3407125E-01;0; -2.1318978E-02;  3.9948559E+04;  0.0000000E+00; -1.0919876E-01;  4.0000000E+04;  0.0000000E+00;  3.9999379E+04; -3.6592737E-02;  0.0000000E+00;  1.5273759E-02;  1.6060957E+02;
  5.5173892E-01;  9.9999998E-03; -2.6998207E-01;5804; -1.1731094E-02;  0.0000000E+00; -3.6494248E-03;  9.9791138E+02;  1.0004872E-01; -1.7303708E+03;3; -9.9364263E-01;  0.0000000E+00;  7.8679776E-01;0; -2.4965130E-02;  3.9773789E+04;  0.0000000E+00; -1.8830931E-01;  4.0000000E+04;  0.0000000E+00;  4.0019254E+04; -3.0348381E-02;  0.0000000E+00;  5.3832522E-03;  2.6619734E+03;
  5.5175716E-01;  9.9999998E-03; -2.5998387E-01;5805; -1.1700884E-02;  0.0000000E+00; -3.6219931E-03;  9.9807007E+02;  1.0004855E-01; -1.5989177E+03;3; -1.0656517E+00;  0.0000000E+00;  7.4287248E-01;0; -2.4883835E-02;  3.9787957E+04;  0.0000000E+00; -1.9064517E-01;  4.0000000E+04;  0.0000000E+00;  4.0017746E+04; -3.0627919E-02;  0.0000000E+00;  5.7440843E-03;  2.4462097E+03;
  5.5176055E-01;  9.9999998E-03; -2.4998631E-01;5806; -1.1674190E-02;  0.0000000E+00; -3.5868210E-03;  9.9824518E+02;  1.0004877E-01; -1.4538354E+03;3; -1.1395894E+00;  0.0000000E+00;  7.1060342E-01;0; -2.4860304E-02;  3.9803906E+04;  0.0000000E+00; -1.5131988E-01;  4.0000000E+04;  0.0000000E+00;  4.0015699E+04; -3.0939398E-02;  0.0000000E+00;  6.0790954E-03;  2.1918572E+03;
  5.5174202E-01;  9.9999998E-03; -2.3999003E-01;5807; -1.1649470E-02;  0.0000000E+00; -3.5439946E-03;  9.9843549E+02;  1.0004855E-01; -1.2961609E+03;3; -1.2134150E+00;  0.0000000E+00;  6.7445976E-01;0; -2.4847155E-02;  3.9820879E+04;  0.0000000E+00; -9.6418530E-02;  4.0000000E+04;  0.0000000E+00;  4.0013867E+04; -3.1282824E-02;  0.0000000E+00;  6.4356686E-03;  1.9093401E+03;
  5.5171114E-01;  9.9999998E-03; -2.2999625E-01;5808; -1.1625079E-02;  0.0000000E+00; -3.4888082E-03;  9.9863239E+02;  1.0004845E-01; -1.1330543E+03;3; -1.2881154E+00;  0.0000000E+00;  6.4658260E-01;0; -2.4824224E-02;  3.9838559E+04;  0.0000000E+00; -4.3182090E-02;  4.0000000E+04;  0.0000000E+00;  4.0011422E+04; -3.1657375E-02;  0.0000000E+00;  6.8331514E-03;  1.5978163E+03;
  5.5168051E-01;  9.9999998E-03; -2.2000736E-01;5809; -1.1600771E-02;  0.0000000E+00; -3.4243604E-03;  9.9882690E+02;  1.0004871E-01; -9.7187372E+02;3; -1.3616354E+00;  0.0000000E+00;  6.1979473E-01;0; -2.4753779E-02;  3.9856594E+04;  0.0000000E+00;  2.4051536E-03;  4.0000000E+04;  0.0000000E+00;  4.0009070E+04; -3.2061014E-02;  0.0000000E+00;  7.3072361E-03;  1.2584716E+03;
  5.5165654E-01;  9.9999998E-03; -2.1001779E-01;5810; -1.1575895E-02;  0.0000000E+00; -3.3604503E-03;  9.9902887E+02;  1.0004860E-01; -8.0456982E+02;3; -1.4360265E+00;  0.0000000E+00;  5.9456056E-01;0; -2.4617646E-02;  3.9874238E+04;  0.0000000E+00;  3.8086865E-02;  4.0000000E+04;  0.0000000E+00;  4.0007168E+04; -3.2490656E-02;  0.0000000E+00;  7.8730090E-03;  1.0180099E+03;
  5.5164135E-01;  9.9999998E-03; -2.0002137E-01;5811; -1.1551172E-02;  0.0000000E+00; -3.2831007E-03;  9.9922095E+02;  1.0004871E-01; -6.4541382E+02;3; -1.5092744E+00;  0.0000000E+00;  5.7469791E-01;0; -2.4438908E-02;  3.9891012E+04;  0.0000000E+00;  6.2271461E-02;  4.0000000E+04;  0.0000000E+00;  4.0005668E+04; -3.2941811E-02;  0.0000000E+00;  8.5029025E-03;  8.4408862E+02;
  5.5163616E-01;  9.9999998E-03; -1.9001938E-01;5812; -1.1527440E-02;  0.0000000E+00; -3.1894280E-03;  9.9939508E+02;  1.0004846E-01; -5.0117102E+02;3; -1.5809926E+00;  0.0000000E+00;  5.5466104E-01;0; -2.4212319E-02;  3.9906273E+04;  0.0000000E+00;  7.4332409E-02;  4.0000000E+04;  0.0000000E+00;  4.0004234E+04; -3.3408962E-02;  0.0000000E+00;  9.1966428E-03;  6.4709918E+02;
  5.5164003E-01;  9.9999998E-03; -1.8001485E-01;5813; -1.1504991E-02;  0.0000000E+00; -3.0829755E-03;  9.9953314E+02;  1.0004858E-01; -3.8680386E+02;3; -1.6501248E+00;  0.0000000E+00;  5.3490150E-01;0; -2.3937240E-02;  3.9919082E+04;  0.0000000E+00;  7.4736923E-02;  4.0000000E+04;  0.0000000E+00;  4.0002613E+04; -3.3886220E-02;  0.0000000E+00;  9.9489791E-03;  4.2093845E+02;
  5.5165148E-01;  9.9999998E-03; -1.7000943E-01;5814; -1.1483463E-02;  0.0000000E+00; -2.9677344E-03;  9.9964056E+02;  1.0004850E-01; -2.9776935E+02;3; -1.7176014E+00;  0.0000000E+00;  5.1586837E-01;0; -2.3621183E-02;  3.9929258E+04;  0.0000000E+00;  6.5112151E-02;  4.0000000E+04;  0.0000000E+00;  4.0000621E+04; -3.4368265E-02;  0.0000000E+00;  1.0747082E-02;  2.0267982E+02;
  5.5166775E-01;  9.9999998E-03; -1.6000423E-01;5815; -1.1462282E-02;  0.0000000E+00; -2.8462727E-03;  9.9971698E+02;  1.0004857E-01; -2.3446251E+02;3; -1.7824532E+00;  0.0000000E+00;  4.9743646E-01;0; -2.3275178E-02;  3.9936695E+04;  0.0000000E+00;  4.8069421E-02;  4.0000000E+04;  0.0000000E+00;  3.9999266E+04; -3.4850717E-02;  0.0000000E+00;  1.1575540E-02;  6.7832245E+01;
  5.5168611E-01;  9.9999998E-03; -1.5000005E-01;5816; -1.1441303E-02;  0.0000000E+00; -2.7206037E-03;  9.9975934E+02;  1.0004828E-01; -1.9940176E+02;3; -1.8451780E+00;  0.0000000E+00;  4.7960314E-01;0; -2.2911398E-02;  3.9941039E+04;  0.0000000E+00;  2.6756728E-02;  4.0000000E+04;  0.0000000E+00;  3.9998277E+04; -3.5330731E-02;  0.0000000E+00;  1.2419334E-02;  1.4272621E+02;
  5.5170435E-01;  9.9999998E-03; -1.3999744E-01;5817; -1.1420686E-02;  0.0000000E+00; -2.5915604E-03;  9.9977844E+02;  1.0004857E-01; -1.8355037E+02;3; -1.9050820E+00;  0.0000000E+00;  4.6100023E-01;0; -2.2540491E-02;  3.9942648E+04;  0.0000000E+00;  4.0589673E-03;  4.0000000E+04;  0.0000000E+00;  3.9997953E+04; -3.5806566E-02;  0.0000000E+00;  1.3266075E-02;  2.0177150E+02;
  5.5172110E-01;  9.9999998E-03; -1.2999657E-01;5818; -1.1401232E-02;  0.0000000E+00; -2.4588848E-03;  9.9976428E+02;  1.0004845E-01; -1.9530312E+02;3; -1.9615974E+00;  0.0000000E+00;  4.4098192E-01;0; -2.2168703E-02;  3.9941965E+04;  0.0000000E+00; -1.7958613E-02;  4.0000000E+04;  0.0000000E+00;  3.9997973E+04; -3.6277123E-02;  0.0000000E+00;  1.4108418E-02;  2.0671272E+02;
  5.5173498E-01;  9.9999998E-03; -1.1999725E-01;5819; -1.1384029E-02;  0.0000000E+00; -2.3201457E-03;  9.9973993E+02;  1.0004851E-01; -2.1545070E+02;3; -2.0151832E+00;  0.0000000E+00;  4.1963658E-01;0; -2.1798430E-02;  3.9939402E+04;  0.0000000E+00; -3.7773486E-02;  4.0000000E+04;  0.0000000E+00;  3.9997973E+04; -3.6741290E-02;  0.0000000E+00;  1.4942860E-02;  1.7011630E+02;
  5.5174553E-01;  9.9999998E-03; -1.0999896E-01;5820; -1.1370286E-02;  0.0000000E+00; -2.1732834E-03;  9.9970862E+02;  1.0004858E-01; -2.4142528E+02;3; -2.0649030E+00;  0.0000000E+00;  3.9764515E-01;0; -2.1432981E-02;  3.9935859E+04;  0.0000000E+00; -5.3999253E-02;  4.0000000E+04;  0.0000000E+00;  3.9998812E+04; -3.7197169E-02;  0.0000000E+00;  1.5764188E-02;  1.1620225E+02;
  5.6185037E-01;  9.9999998E-03; -2.6998332E-01;5865; -1.2030687E-02;  0.0000000E+00; -3.7390231E-03;  9.9804980E+02;  1.0007987E-01; -1.6157074E+03;3; -9.2928559E-01;  0.0000000E+00;  8.7751460E-01;0; -2.5190225E-02;  3.9761664E+04;  0.0000000E+00; -2.4736381E-01;  4.0000000E+04;  0.0000000E+00;  4.0017512E+04; -3.0419279E-02;  0.0000000E+00;  5.2290545E-03;  2.4591951E+03;
  5.6186515E-01;  9.9999998E-03; -2.5998518E-01;5866; -1.2006032E-02;  0.0000000E+00; -3.7046433E-03;  9.9820911E+02;  1.0007985E-01; -1.4837112E+03;3; -1.0056756E+00;  0.0000000E+00;  8.3443886E-01;0; -2.5190406E-02;  3.9775844E+04;  0.0000000E+00; -2.3313792E-01;  4.0000000E+04;  0.0000000E+00;  4.0015617E+04; -3.0713711E-02;  0.0000000E+00;  5.5233063E-03;  2.2209417E+03;
  5.6185472E-01;  9.9999998E-03; -2.4998853E-01;5867; -1.1984881E-02;  0.0000000E+00; -3.6636267E-03;  9.9838348E+02;  1.0007981E-01; -1.3392708E+03;3; -1.0836399E+00;  0.0000000E+00;  7.9851621E-01;0; -2.5196098E-02;  3.9791969E+04;  0.0000000E+00; -1.7591712E-01;  4.0000000E+04;  0.0000000E+00;  4.0013637E+04; -3.1041278E-02;  0.0000000E+00;  5.8451788E-03;  1.9287245E+03;
  5.6181949E-01;  9.9999998E-03; -2.3999414E-01;5868; -1.1965043E-02;  0.0000000E+00; -3.6252346E-03;  9.9857202E+02;  1.0007977E-01; -1.1830776E+03;3; -1.1617751E+00;  0.0000000E+00;  7.6443601E-01;0; -2.5135336E-02;  3.9808992E+04;  0.0000000E+00; -1.1219213E-01;  4.0000000E+04;  0.0000000E+00;  4.0011246E+04; -3.1402525E-02;  0.0000000E+00;  6.2671881E-03;  1.6257266E+03;
  5.6177235E-01;  9.9999998E-03; -2.3000252E-01;5869; -1.1944811E-02;  0.0000000E+00; -3.5869912E-03;  9.9877045E+02;  1.0007978E-01; -1.0186379E+03;3; -1.2408767E+00;  0.0000000E+00;  7.3804504E-01;0; -2.5041141E-02;  3.9826453E+04;  0.0000000E+00; -5.7828918E-02;  4.0000000E+04;  0.0000000E+00;  4.0009219E+04; -3.1797145E-02;  0.0000000E+00;  6.7560035E-03;  1.3546522E+03;
  5.6172645E-01;  9.9999998E-03; -2.2001654E-01;5870; -1.1924654E-02;  0.0000000E+00; -3.5348863E-03;  9.9897150E+02;  1.0008001E-01; -8.5207465E+02;3; -1.3184340E+00;  0.0000000E+00;  7.1487737E-01;0; -2.4946209E-02;  3.9844344E+04;  0.0000000E+00; -1.4351379E-02;  4.0000000E+04;  0.0000000E+00;  4.0007277E+04; -3.2223184E-02;  0.0000000E+00;  7.2769742E-03;  1.0770179E+03;
  5.6168884E-01;  9.9999998E-03; -2.1003012E-01;5871; -1.1904516E-02;  0.0000000E+00; -3.4777310E-03;  9.9917963E+02;  1.0007975E-01; -6.7968451E+02;3; -1.3961166E+00;  0.0000000E+00;  6.9152963E-01;0; -2.4806792E-02;  3.9861695E+04;  0.0000000E+00;  1.9322883E-02;  4.0000000E+04;  0.0000000E+00;  4.0006121E+04; -3.2677785E-02;  0.0000000E+00;  7.8709926E-03;  9.1344202E+02;
  5.6166261E-01;  9.9999998E-03; -2.0003544E-01;5872; -1.1884904E-02;  0.0000000E+00; -3.4010760E-03;  9.9937701E+02;  1.0007975E-01; -5.1613354E+02;3; -1.4719558E+00;  0.0000000E+00;  6.6804790E-01;0; -2.4630055E-02;  3.9877965E+04;  0.0000000E+00;  4.3410480E-02;  4.0000000E+04;  0.0000000E+00;  4.0005492E+04; -3.3156905E-02;  0.0000000E+00;  8.5268505E-03;  8.2152417E+02;
  5.6164885E-01;  9.9999998E-03; -1.9003381E-01;5873; -1.1866835E-02;  0.0000000E+00; -3.3024193E-03;  9.9954810E+02;  1.0007992E-01; -3.7440915E+02;3; -1.5455238E+00;  0.0000000E+00;  6.4543986E-01;0; -2.4402265E-02;  3.9892523E+04;  0.0000000E+00;  5.8517449E-02;  4.0000000E+04;  0.0000000E+00;  4.0004688E+04; -3.3654861E-02;  0.0000000E+00;  9.2525957E-03;  6.8439618E+02;
  5.6164658E-01;  9.9999998E-03; -1.8002889E-01;5874; -1.1850148E-02;  0.0000000E+00; -3.1886555E-03;  9.9968689E+02;  1.0007997E-01; -2.5940009E+02;3; -1.6165255E+00;  0.0000000E+00;  6.2353057E-01;0; -2.4120491E-02;  3.9905062E+04;  0.0000000E+00;  6.5850250E-02;  4.0000000E+04;  0.0000000E+00;  4.0002992E+04; -3.4165721E-02;  0.0000000E+00;  1.0045231E-02;  4.8842526E+02;
  5.6165433E-01;  9.9999998E-03; -1.7002288E-01;5875; -1.1833911E-02;  0.0000000E+00; -3.0661402E-03;  9.9978632E+02;  1.0007987E-01; -1.7703203E+02;3; -1.6855558E+00;  0.0000000E+00;  6.0258120E-01;0; -2.3793835E-02;  3.9914895E+04;  0.0000000E+00;  6.7191713E-02;  4.0000000E+04;  0.0000000E+00;  4.0001156E+04; -3.4684148E-02;  0.0000000E+00;  1.0890312E-02;  2.7577533E+02;
  5.6166899E-01;  9.9999998E-03; -1.6001694E-01;5876; -1.1817617E-02;  0.0000000E+00; -2.9383241E-03;  9.9985773E+02;  1.0007964E-01; -1.1787321E+02;3; -1.7516533E+00;  0.0000000E+00;  5.8174545E-01;0; -2.3434971E-02;  3.9921715E+04;  0.0000000E+00;  6.4393073E-02;  4.0000000E+04;  0.0000000E+00;  3.9999738E+04; -3.5205655E-02;  0.0000000E+00;  1.1770683E-02;  1.0824399E+02;
  5.6168818E-01;  9.9999998E-03; -1.5001202E-01;5877; -1.1801171E-02;  0.0000000E+00; -2.8073119E-03;  9.9989197E+02;  1.0007985E-01; -8.9478951E+01;3; -1.8153727E+00;  0.0000000E+00;  5.6094337E-01;0; -2.3056874E-02;  3.9925848E+04;  0.0000000E+00;  5.8935530E-02;  4.0000000E+04;  0.0000000E+00;  3.9998555E+04; -3.5726927E-02;  0.0000000E+00;  1.2670053E-02;  1.2247344E+02;
  5.6170851E-01;  9.9999998E-03; -1.4000885E-01;5878; -1.1785070E-02;  0.0000000E+00; -2.6738557E-03;  9.9990009E+02;  1.0007970E-01; -8.2763092E+01;3; -1.8763220E+00;  0.0000000E+00;  5.3995097E-01;0; -2.2670623E-02;  3.9926965E+04;  0.0000000E+00;  5.1622022E-02;  4.0000000E+04;  0.0000000E+00;  3.9997672E+04; -3.6245629E-02;  0.0000000E+00;  1.3575007E-02;  1.9345975E+02;
  5.6172758E-01;  9.9999998E-03; -1.3000758E-01;5879; -1.1770270E-02;  0.0000000E+00; -2.5368996E-03;  9.9988275E+02;  1.0007964E-01; -9.7133057E+01;3; -1.9333322E+00;  0.0000000E+00;  5.1654583E-01;0; -2.2282869E-02;  3.9925395E+04;  0.0000000E+00;  4.2608831E-02;  4.0000000E+04;  0.0000000E+00;  3.9997996E+04; -3.6760118E-02;  0.0000000E+00;  1.4477250E-02;  2.1741829E+02;
  5.6174380E-01;  9.9999998E-03; -1.2000782E-01;5880; -1.1758047E-02;  0.0000000E+00; -2.3940697E-03;  9.9983978E+02;  1.0007966E-01; -1.3273698E+02;3; -1.9874138E+00;  0.0000000E+00;  4.9133292E-01;0; -2.1896368E-02;  3.9922098E+04;  0.0000000E+00;  3.1913176E-02;  4.0000000E+04;  0.0000000E+00;  3.9997758E+04; -3.7268519E-02;  0.0000000E+00;  1.5372152E-02;  1.9563123E+02;
  5.6175661E-01;  9.9999998E-03; -1.1000883E-01;5881; -1.1749589E-02;  0.0000000E+00; -2.2422350E-03;  9.9978271E+02;  1.0007960E-01; -1.7999490E+02;3; -2.0371726E+00;  0.0000000E+00;  4.6366051E-01;0; -2.1515064E-02;  3.9917273E+04;  0.0000000E+00;  2.0098029E-02;  4.0000000E+04;  0.0000000E+00;  3.9997957E+04; -3.7768234E-02;  0.0000000E+00;  1.6253170E-02;  1.4151526E+02;
  5.7201385E-01;  9.9999998E-03; -2.6998562E-01;5926; -1.2321177E-02;  0.0000000E+00; -3.8175655E-03;  9.9827515E+02;  1.0013127E-01; -1.4289966E+03;3; -8.6181968E-01;  0.0000000E+00;  9.7394085E-01;0; -2.5519300E-02;  3.9741535E+04;  0.0000000E+00; -4.1665921E-01;  4.0000000E+04;  0.0000000E+00;  4.0014719E+04; -3.0475920E-02;  0.0000000E+00;  4.9566203E-03;  2.1683770E+03;
  5.7201850E-01;  9.9999998E-03; -2.5998721E-01;5927; -1.2303134E-02;  0.0000000E+00; -3.7773016E-03;  9.9842615E+02;  1.0013119E-01; -1.3039137E+03;3; -9.4276434E-01;  0.0000000E+00;  9.3085146E-01;0; -2.5564272E-02;  3.9755324E+04;  0.0000000E+00; -3.2839805E-01;  4.0000000E+04;  0.0000000E+00;  4.0012898E+04; -3.0782226E-02;  0.0000000E+00;  5.2179541E-03;  1.9003282E+03;
  5.7199174E-01;  9.9999998E-03; -2.4999100E-01;5928; -1.2287917E-02;  0.0000000E+00; -3.7342182E-03;  9.9859216E+02;  1.0013124E-01; -1.1663867E+03;3; -1.0253332E+00;  0.0000000E+00;  8.9217281E-01;0; -2.5552778E-02;  3.9770625E+04;  0.0000000E+00; -2.2024459E-01;  4.0000000E+04;  0.0000000E+00;  4.0010449E+04; -3.1123254E-02;  0.0000000E+00;  5.5704769E-03;  1.5738987E+03;
  5.7194269E-01;  9.9999998E-03; -2.3999804E-01;5929; -1.2273488E-02;  0.0000000E+00; -3.7025239E-03;  9.9877716E+02;  1.0013139E-01; -1.0131072E+03;3; -1.1079799E+00;  0.0000000E+00;  8.6112553E-01;0; -2.5423402E-02;  3.9787000E+04;  0.0000000E+00; -1.3268706E-01;  4.0000000E+04;  0.0000000E+00;  4.0008148E+04; -3.1499833E-02;  0.0000000E+00;  6.0764314E-03;  1.2575039E+03;
  5.7188213E-01;  9.9999998E-03; -2.3000722E-01;5930; -1.2258075E-02;  0.0000000E+00; -3.6853855E-03;  9.9897162E+02;  1.0013141E-01; -8.5197589E+02;3; -1.1912547E+00;  0.0000000E+00;  8.3753455E-01;0; -2.5240228E-02;  3.9803754E+04;  0.0000000E+00; -7.1315914E-02;  4.0000000E+04;  0.0000000E+00;  4.0006836E+04; -3.1912290E-02;  0.0000000E+00;  6.6720620E-03;  1.0596716E+03;
  5.7182032E-01;  9.9999998E-03; -2.2002123E-01;5931; -1.2243450E-02;  0.0000000E+00; -3.6471281E-03;  9.9917145E+02;  1.0013144E-01; -6.8644971E+02;3; -1.2726866E+00;  0.0000000E+00;  8.1479985E-01;0; -2.5118908E-02;  3.9820625E+04;  0.0000000E+00; -2.9237194E-02;  4.0000000E+04;  0.0000000E+00;  4.0005641E+04; -3.2358617E-02;  0.0000000E+00;  7.2397087E-03;  8.8930188E+02;
  5.7176685E-01;  9.9999998E-03; -2.1003528E-01;5932; -1.2229844E-02;  0.0000000E+00; -3.5940565E-03;  9.9937476E+02;  1.0013153E-01; -5.1801007E+02;3; -1.3531553E+00;  0.0000000E+00;  7.9227930E-01;0; -2.4980653E-02;  3.9837234E+04;  0.0000000E+00;  5.4087339E-04;  4.0000000E+04;  0.0000000E+00;  4.0004965E+04; -3.2836154E-02;  0.0000000E+00;  7.8555010E-03;  8.1309680E+02;
  5.7172608E-01;  9.9999998E-03; -2.0004101E-01;5933; -1.2217648E-02;  0.0000000E+00; -3.5161041E-03;  9.9956995E+02;  1.0013146E-01; -3.5628622E+02;3; -1.4314671E+00;  0.0000000E+00;  7.6826596E-01;0; -2.4805956E-02;  3.9852777E+04;  0.0000000E+00;  2.2014922E-02;  4.0000000E+04;  0.0000000E+00;  4.0005242E+04; -3.3341005E-02;  0.0000000E+00;  8.5350508E-03;  7.9222955E+02;
  5.7169962E-01;  9.9999998E-03; -1.9003934E-01;5934; -1.2207059E-02;  0.0000000E+00; -3.4131529E-03;  9.9973914E+02;  1.0013139E-01; -2.1614203E+02;3; -1.5071772E+00;  0.0000000E+00;  7.4349838E-01;0; -2.4574820E-02;  3.9866578E+04;  0.0000000E+00;  3.7961312E-02;  4.0000000E+04;  0.0000000E+00;  4.0004473E+04; -3.3867802E-02;  0.0000000E+00;  9.2929825E-03;  7.0632385E+02;
  5.7168764E-01;  9.9999998E-03; -1.8003410E-01;5935; -1.2197164E-02;  0.0000000E+00; -3.2936388E-03;  9.9986688E+02;  1.0013138E-01; -1.1026849E+02;3; -1.5795901E+00;  0.0000000E+00;  7.1804655E-01;0; -2.4284458E-02;  3.9878035E+04;  0.0000000E+00;  5.0814506E-02;  4.0000000E+04;  0.0000000E+00;  4.0003117E+04; -3.4410872E-02;  0.0000000E+00;  1.0126414E-02;  5.3934619E+02;
  5.7168794E-01;  9.9999998E-03; -1.7002763E-01;5936; -1.2186960E-02;  0.0000000E+00; -3.1657233E-03;  9.9996320E+02;  1.0013123E-01; -3.0468273E+01;3; -1.6502690E+00;  0.0000000E+00;  6.9476080E-01;0; -2.3945265E-02;  3.9886965E+04;  0.0000000E+00;  6.2712736E-02;  4.0000000E+04;  0.0000000E+00;  4.0001676E+04; -3.4964703E-02;  0.0000000E+00;  1.1019438E-02;  3.3644733E+02;
  5.7169843E-01;  9.9999998E-03; -1.6002114E-01;5937; -1.2175855E-02;  0.0000000E+00; -3.0332883E-03;  1.0000179E+03;  1.0013103E-01;  1.4913158E+01;3; -1.7176213E+00;  0.0000000E+00;  6.7248672E-01;0; -2.3571383E-02;  3.9893074E+04;  0.0000000E+00;  7.4808612E-02;  4.0000000E+04;  0.0000000E+00;  4.0000090E+04; -3.5524633E-02;  0.0000000E+00;  1.1953249E-02;  1.6015001E+02;
  5.7171607E-01;  9.9999998E-03; -1.5001576E-01;5938; -1.2164325E-02;  0.0000000E+00; -2.8987650E-03;  1.0000473E+03;  1.0013118E-01;  3.9208767E+01;3; -1.7822902E+00;  0.0000000E+00;  6.4924353E-01;0; -2.3176553E-02;  3.9896238E+04;  0.0000000E+00;  8.6847708E-02;  4.0000000E+04;  0.0000000E+00;  3.9998879E+04; -3.6086801E-02;  0.0000000E+00;  1.2910249E-02;  1.3012538E+02;
  5.7173795E-01;  9.9999998E-03; -1.4001215E-01;5939; -1.2153128E-02;  0.0000000E+00; -2.7621042E-03;  1.0000413E+03;  1.0013114E-01;  3.4171871E+01;3; -1.8431695E+00;  0.0000000E+00;  6.2368053E-01;0; -2.2772558E-02;  3.9896895E+04;  0.0000000E+00;  9.7424217E-02;  4.0000000E+04;  0.0000000E+00;  3.9997781E+04; -3.6648419E-02;  0.0000000E+00;  1.3875860E-02;  2.0694162E+02;
  5.7176185E-01;  9.9999998E-03; -1.3001028E-01;5940; -1.2143581E-02;  0.0000000E+00; -2.6216127E-03;  1.0000072E+03;  1.0013101E-01;  5.9257584E+00;3; -1.9005483E+00;  0.0000000E+00;  5.9686232E-01;0; -2.2366654E-02;  3.9894871E+04;  0.0000000E+00;  1.0453106E-01;  4.0000000E+04;  0.0000000E+00;  3.9997203E+04; -3.7207112E-02;  0.0000000E+00;  1.4840458E-02;  2.5564511E+02;
  5.7178485E-01;  9.9999998E-03; -1.2000976E-01;5941; -1.2137226E-02;  0.0000000E+00; -2.4747546E-03;  9.9995581E+02;  1.0013115E-01; -3.6591557E+01;3; -1.9548064E+00;  0.0000000E+00;  5.6774962E-01;0; -2.1962000E-02;  3.9890758E+04;  0.0000000E+00;  1.0631794E-01;  4.0000000E+04;  0.0000000E+00;  3.9997148E+04; -3.7760176E-02;  0.0000000E+00;  1.5798176E-02;  2.6218945E+02;
  5.7180554E-01;  9.9999998E-03; -1.1000971E-01;5942; -1.2135069E-02;  0.0000000E+00; -2.3182170E-03;  9.9988483E+02;  1.0013121E-01; -9.5404709E+01;3; -2.0051394E+00;  0.0000000E+00;  5.3620523E-01;0; -2.1563083E-02;  3.9885211E+04;  0.0000000E+00;  1.0200670E-01;  4.0000000E+04;  0.0000000E+00;  3.9997480E+04; -3.8304027E-02;  0.0000000E+00;  1.6740944E-02;  2.3565620E+02;
  5.8219004E-01;  9.9999998E-03; -2.6998857E-01;5987; -1.2603702E-02;  0.0000000E+00; -3.8697368E-03;  9.9850433E+02;  1.0021430E-01; -1.2391255E+03;3; -7.9055446E-01;  0.0000000E+00;  1.0699494E+00;0; -2.6140681E-02;  3.9697457E+04;  0.0000000E+00; -6.6755116E-01;  4.0000000E+04;  0.0000000E+00;  4.0011062E+04; -3.0526435E-02;  0.0000000E+00;  4.3857549E-03;  1.9482184E+03;
  5.8218783E-01;  9.9999998E-03; -2.5998932E-01;5988; -1.2592561E-02;  0.0000000E+00; -3.8334131E-03;  9.9864508E+02;  1.0021447E-01; -1.1225361E+03;3; -8.7733293E-01;  0.0000000E+00;  1.0318134E+00;0; -2.6069352E-02;  3.9710004E+04;  0.0000000E+00; -4.6657881E-01;  4.0000000E+04;  0.0000000E+00;  4.0009277E+04; -3.0840980E-02;  0.0000000E+00;  4.7716270E-03;  1.6073372E+03;
  5.8215535E-01;  9.9999998E-03; -2.4999237E-01;5989; -1.2583393E-02;  0.0000000E+00; -3.8003647E-03;  9.9879871E+02;  1.0021477E-01; -9.9523114E+02;3; -9.6448165E-01;  0.0000000E+00;  9.9598920E-01;0; -2.5920060E-02;  3.9724340E+04;  0.0000000E+00; -2.8690958E-01;  4.0000000E+04;  0.0000000E+00;  4.0007270E+04; -3.1192044E-02;  0.0000000E+00;  5.2719838E-03;  1.2521389E+03;
  5.8209544E-01;  9.9999998E-03; -2.3999879E-01;5990; -1.2574474E-02;  0.0000000E+00; -3.7828281E-03;  9.9897290E+02;  1.0021478E-01; -8.5093890E+02;3; -1.0523582E+00;  0.0000000E+00;  9.6712238E-01;0; -2.5679758E-02;  3.9739602E+04;  0.0000000E+00; -1.5990736E-01;  4.0000000E+04;  0.0000000E+00;  4.0005316E+04; -3.1580847E-02;  0.0000000E+00;  5.9010889E-03;  9.5130933E+02;
  5.8202022E-01;  9.9999998E-03; -2.3000623E-01;5991; -1.2564653E-02;  0.0000000E+00; -3.7843722E-03;  9.9916412E+02;  1.0021497E-01; -6.9252362E+02;3; -1.1401558E+00;  0.0000000E+00;  9.4840640E-01;0; -2.5419755E-02;  3.9755336E+04;  0.0000000E+00; -8.3615415E-02;  4.0000000E+04;  0.0000000E+00;  4.0004648E+04; -3.2008108E-02;  0.0000000E+00;  6.5883533E-03;  8.3813806E+02;
  5.8194137E-01;  9.9999998E-03; -2.2001736E-01;5992; -1.2557207E-02;  0.0000000E+00; -3.7554910E-03;  9.9935980E+02;  1.0021490E-01; -5.3040472E+02;3; -1.2254102E+00;  0.0000000E+00;  9.2622405E-01;0; -2.5281511E-02;  3.9770914E+04;  0.0000000E+00; -4.0554550E-02;  4.0000000E+04;  0.0000000E+00;  4.0004176E+04; -3.2471649E-02;  0.0000000E+00;  7.1901381E-03;  7.6725153E+02;
  5.8187109E-01;  9.9999998E-03; -2.1003039E-01;5993; -1.2552427E-02;  0.0000000E+00; -3.7013255E-03;  9.9954950E+02;  1.0021475E-01; -3.7322400E+02;3; -1.3081225E+00;  0.0000000E+00;  9.0224028E-01;0; -2.5147565E-02;  3.9786203E+04;  0.0000000E+00; -1.5212534E-02;  4.0000000E+04;  0.0000000E+00;  4.0004027E+04; -3.2969028E-02;  0.0000000E+00;  7.8214621E-03;  7.3901562E+02;
  5.8181453E-01;  9.9999998E-03; -2.0003697E-01;5994; -1.2549710E-02;  0.0000000E+00; -3.6216418E-03;  9.9973199E+02;  1.0021470E-01; -2.2201842E+02;3; -1.3884186E+00;  0.0000000E+00;  8.7492937E-01;0; -2.4970509E-02;  3.9800059E+04;  0.0000000E+00;  1.8159064E-03;  4.0000000E+04;  0.0000000E+00;  4.0004301E+04; -3.3496734E-02;  0.0000000E+00;  8.5262246E-03;  7.4970892E+02;
  5.8177412E-01;  9.9999998E-03; -1.9003651E-01;5995; -1.2547907E-02;  0.0000000E+00; -3.5162799E-03;  9.9988422E+02;  1.0021468E-01; -9.5947906E+01;3; -1.4659367E+00;  0.0000000E+00;  8.4914058E-01;0; -2.4731919E-02;  3.9812516E+04;  0.0000000E+00;  1.6207606E-02;  4.0000000E+04;  0.0000000E+00;  4.0003918E+04; -3.4050040E-02;  0.0000000E+00;  9.3181208E-03;  6.9572363E+02;
  5.8175009E-01;  9.9999998E-03; -1.8003242E-01;5996; -1.2545615E-02;  0.0000000E+00; -3.3955143E-03;  1.0000035E+03;  1.0021465E-01;  2.8641164E+00;3; -1.5398463E+00;  0.0000000E+00;  8.2017827E-01;0; -2.4429686E-02;  3.9822895E+04;  0.0000000E+00;  3.1923804E-02;  4.0000000E+04;  0.0000000E+00;  4.0002816E+04; -3.4623347E-02;  0.0000000E+00;  1.0193662E-02;  5.5441418E+02;
  5.8174115E-01;  9.9999998E-03; -1.7002696E-01;5997; -1.2541861E-02;  0.0000000E+00; -3.2663161E-03;  1.0000834E+03;  1.0021455E-01;  6.9035088E+01;3; -1.6114149E+00;  0.0000000E+00;  7.9388189E-01;0; -2.4075720E-02;  3.9830734E+04;  0.0000000E+00;  5.1638875E-02;  4.0000000E+04;  0.0000000E+00;  4.0001410E+04; -3.5211269E-02;  0.0000000E+00;  1.1135549E-02;  3.6607831E+02;
  5.8174473E-01;  9.9999998E-03; -1.6002123E-01;5998; -1.2536260E-02;  0.0000000E+00; -3.1328362E-03;  1.0001284E+03;  1.0021445E-01;  1.0636736E+02;3; -1.6802919E+00;  0.0000000E+00;  7.6928264E-01;0; -2.3684692E-02;  3.9835898E+04;  0.0000000E+00;  7.6109022E-02;  4.0000000E+04;  0.0000000E+00;  3.9999969E+04; -3.5808813E-02;  0.0000000E+00;  1.2124122E-02;  1.9194058E+02;
  5.8175838E-01;  9.9999998E-03; -1.5001623E-01;5999; -1.2529754E-02;  0.0000000E+00; -2.9970191E-03;  1.0001407E+03;  1.0021443E-01;  1.1653992E+02;3; -1.7455448E+00;  0.0000000E+00;  7.4352497E-01;0; -2.3270953E-02;  3.9838465E+04;  0.0000000E+00;  1.0374197E-01;  4.0000000E+04;  0.0000000E+00;  3.9998578E+04; -3.6411587E-02;  0.0000000E+00;  1.3140633E-02;  1.4735321E+02;
  5.8177936E-01;  9.9999998E-03; -1.4001262E-01;6000; -1.2523839E-02;  0.0000000E+00; -2.8586052E-03;  1.0001279E+03;  1.0021447E-01;  1.0597231E+02;3; -1.8066021E+00;  0.0000000E+00;  7.1441919E-01;0; -2.2846958E-02;  3.9838391E+04;  0.0000000E+00;  1.3120267E-01;  4.0000000E+04;  0.0000000E+00;  3.9997547E+04; -3.7015881E-02;  0.0000000E+00;  1.4168924E-02;  2.3031596E+02;
  5.8180565E-01;  9.9999998E-03; -1.3001032E-01;6001; -1.2520061E-02;  0.0000000E+00; -2.7157753E-03;  1.0000892E+03;  1.0021418E-01;  7.3874451E+01;3; -1.8645945E+00;  0.0000000E+00;  6.8498331E-01;0; -2.2420842E-02;  3.9836184E+04;  0.0000000E+00;  1.5448253E-01;  4.0000000E+04;  0.0000000E+00;  3.9997055E+04; -3.7618626E-02;  0.0000000E+00;  1.5197783E-02;  3.0157877E+02;
  5.8183604E-01;  9.9999998E-03; -1.2000871E-01;6002; -1.2520013E-02;  0.0000000E+00; -2.5655008E-03;  1.0000301E+03;  1.0021426E-01;  2.4888186E+01;3; -1.9184057E+00;  0.0000000E+00;  6.5038806E-01;0; -2.1996193E-02;  3.9831922E+04;  0.0000000E+00;  1.6988690E-01;  4.0000000E+04;  0.0000000E+00;  3.9996438E+04; -3.8216088E-02;  0.0000000E+00;  1.6219895E-02;  3.3468491E+02;
  5.8186781E-01;  9.9999998E-03; -1.1000732E-01;6003; -1.2525008E-02;  0.0000000E+00; -2.4038113E-03;  9.9996338E+02;  1.0021417E-01; -3.0320129E+01;3; -1.9674678E+00;  0.0000000E+00;  6.1092955E-01;0; -2.1578286E-02;  3.9826305E+04;  0.0000000E+00;  1.7508045E-01;  4.0000000E+04;  0.0000000E+00;  3.9996699E+04; -3.8803913E-02;  0.0000000E+00;  1.7225627E-02;  3.3327338E+02;
  5.9230638E-01;  9.9999998E-03; -2.6999158E-01;6048; -1.2880028E-02;  0.0000000E+00; -3.9116349E-03;  9.9863770E+02;  1.0034879E-01; -1.1286594E+03;3; -7.1742153E-01;  0.0000000E+00;  1.1744969E+00;0; -2.6852764E-02;  3.9605348E+04;  0.0000000E+00; -8.1904638E-01;  4.0000000E+04;  0.0000000E+00;  4.0008496E+04; -3.0572031E-02;  0.0000000E+00;  3.7192672E-03;  1.8610149E+03;
  5.9230089E-01;  9.9999998E-03; -2.5999069E-01;6049; -1.2875771E-02;  0.0000000E+00; -3.8770172E-03;  9.9876672E+02;  1.0034929E-01; -1.0217489E+03;3; -8.0902249E-01;  0.0000000E+00;  1.1352278E+00;0; -2.6661895E-02;  3.9616793E+04;  0.0000000E+00; -5.4261094E-01;  4.0000000E+04;  0.0000000E+00;  4.0006719E+04; -3.0890837E-02;  0.0000000E+00;  4.2289426E-03;  1.4392469E+03;
  5.9226537E-01;  9.9999998E-03; -2.4999167E-01;6050; -1.2872535E-02;  0.0000000E+00; -3.8555234E-03;  9.9890381E+02;  1.0034923E-01; -9.0817188E+02;3; -9.0185547E-01;  0.0000000E+00;  1.1011035E+00;0; -2.6335264E-02;  3.9629742E+04;  0.0000000E+00; -3.1874916E-01;  4.0000000E+04;  0.0000000E+00;  4.0004543E+04; -3.1248348E-02;  0.0000000E+00;  4.9130842E-03;  1.0621208E+03;
  5.9220129E-01;  9.9999998E-03; -2.3999509E-01;6051; -1.2869349E-02;  0.0000000E+00; -3.8570266E-03;  9.9906708E+02;  1.0034949E-01; -7.7291638E+02;3; -9.9498856E-01;  0.0000000E+00;  1.0826302E+00;0; -2.5938308E-02;  3.9643406E+04;  0.0000000E+00; -1.7017935E-01;  4.0000000E+04;  0.0000000E+00;  4.0003051E+04; -3.1646144E-02;  0.0000000E+00;  5.7078362E-03;  7.9838989E+02;
  5.9211737E-01;  9.9999998E-03; -2.2999825E-01;6052; -1.2866277E-02;  0.0000000E+00; -3.8697114E-03;  9.9924835E+02;  1.0034961E-01; -6.2274780E+02;3; -1.0866719E+00;  0.0000000E+00;  1.0647836E+00;0; -2.5616027E-02;  3.9657719E+04;  0.0000000E+00; -8.7649971E-02;  4.0000000E+04;  0.0000000E+00;  4.0003035E+04; -3.2084793E-02;  0.0000000E+00;  6.4687664E-03;  7.5404773E+02;
  5.9202659E-01;  9.9999998E-03; -2.2000669E-01;6053; -1.2868044E-02;  0.0000000E+00; -3.8411757E-03;  9.9942865E+02;  1.0034963E-01; -4.7336932E+02;3; -1.1755046E+00;  0.0000000E+00;  1.0411810E+00;0; -2.5463633E-02;  3.9672000E+04;  0.0000000E+00; -4.7603607E-02;  4.0000000E+04;  0.0000000E+00;  4.0002582E+04; -3.2562155E-02;  0.0000000E+00;  7.0985211E-03;  6.9246161E+02;
  5.9194487E-01;  9.9999998E-03; -2.1002185E-01;6054; -1.2874177E-02;  0.0000000E+00; -3.7852423E-03;  9.9960297E+02;  1.0034940E-01; -3.2892896E+02;3; -1.2604507E+00;  0.0000000E+00;  1.0153387E+00;0; -2.5318205E-02;  3.9685656E+04;  0.0000000E+00; -2.8872872E-02;  4.0000000E+04;  0.0000000E+00;  4.0002234E+04; -3.3076040E-02;  0.0000000E+00;  7.7578360E-03;  6.2562720E+02;
  5.9187776E-01;  9.9999998E-03; -2.0003252E-01;6055; -1.2881948E-02;  0.0000000E+00; -3.7091207E-03;  9.9976349E+02;  1.0034940E-01; -1.9594507E+02;3; -1.3428584E+00;  0.0000000E+00;  9.8629618E-01;0; -2.5124580E-02;  3.9698441E+04;  0.0000000E+00; -1.8010145E-02;  4.0000000E+04;  0.0000000E+00;  4.0002590E+04; -3.3623982E-02;  0.0000000E+00;  8.4994016E-03;  6.3550238E+02;
  5.9182692E-01;  9.9999998E-03; -1.9003575E-01;6056; -1.2889350E-02;  0.0000000E+00; -3.6080771E-03;  9.9990149E+02;  1.0034945E-01; -8.1627319E+01;3; -1.4221119E+00;  0.0000000E+00;  9.5885289E-01;0; -2.4871068E-02;  3.9709465E+04;  0.0000000E+00; -7.2832536E-03;  4.0000000E+04;  0.0000000E+00;  4.0002234E+04; -3.4201719E-02;  0.0000000E+00;  9.3306508E-03;  6.1342297E+02;
  5.9179306E-01;  9.9999998E-03; -1.8003446E-01;6057; -1.2894866E-02;  0.0000000E+00; -3.4917912E-03;  1.0000026E+03;  1.0034906E-01;  2.1727781E+00;3; -1.4979137E+00;  0.0000000E+00;  9.3025696E-01;0; -2.4553865E-02;  3.9718270E+04;  0.0000000E+00;  8.2062501E-03;  4.0000000E+04;  0.0000000E+00;  4.0001699E+04; -3.4803960E-02;  0.0000000E+00;  1.0250095E-02;  5.0908261E+02;
  5.9177577E-01;  9.9999998E-03; -1.7003085E-01;6058; -1.2897456E-02;  0.0000000E+00; -3.3667267E-03;  1.0000673E+03;  1.0034908E-01;  5.5702129E+01;3; -1.5697843E+00;  0.0000000E+00;  9.0012002E-01;0; -2.4183363E-02;  3.9725195E+04;  0.0000000E+00;  3.1510450E-02;  4.0000000E+04;  0.0000000E+00;  4.0000363E+04; -3.5425205E-02;  0.0000000E+00;  1.1241842E-02;  3.4738181E+02;
  5.9177315E-01;  9.9999998E-03; -1.6002604E-01;6059; -1.2897588E-02;  0.0000000E+00; -3.2363173E-03;  1.0001030E+03;  1.0034893E-01;  8.5330917E+01;3; -1.6392946E+00;  0.0000000E+00;  8.7245399E-01;0; -2.3773648E-02;  3.9729477E+04;  0.0000000E+00;  6.3320875E-02;  4.0000000E+04;  0.0000000E+00;  3.9998910E+04; -3.6059979E-02;  0.0000000E+00;  1.2286331E-02;  1.8463916E+02;
  5.9178311E-01;  9.9999998E-03; -1.5002109E-01;6060; -1.2896592E-02;  0.0000000E+00; -3.1023659E-03;  1.0001097E+03;  1.0034863E-01;  9.0960388E+01;3; -1.7056353E+00;  0.0000000E+00;  8.4445924E-01;0; -2.3339476E-02;  3.9731496E+04;  0.0000000E+00;  1.0141781E-01;  4.0000000E+04;  0.0000000E+00;  3.9997762E+04; -3.6703303E-02;  0.0000000E+00;  1.3363826E-02;  1.4447598E+02;
  5.9180456E-01;  9.9999998E-03; -1.4001653E-01;6061; -1.2896216E-02;  0.0000000E+00; -2.9640393E-03;  1.0000932E+03;  1.0034855E-01;  7.7232384E+01;3; -1.7669343E+00;  0.0000000E+00;  8.1181484E-01;0; -2.2894364E-02;  3.9731285E+04;  0.0000000E+00;  1.4131789E-01;  4.0000000E+04;  0.0000000E+00;  3.9996609E+04; -3.7350696E-02;  0.0000000E+00;  1.4456333E-02;  2.4025470E+02;
  5.9183580E-01;  9.9999998E-03; -1.3001236E-01;6062; -1.2898698E-02;  0.0000000E+00; -2.8194916E-03;  1.0000590E+03;  1.0034847E-01;  4.8887505E+01;3; -1.8234525E+00;  0.0000000E+00;  7.7633190E-01;0; -2.2447005E-02;  3.9729223E+04;  0.0000000E+00;  1.7763273E-01;  4.0000000E+04;  0.0000000E+00;  3.9995863E+04; -3.7997697E-02;  0.0000000E+00;  1.5550693E-02;  3.2849411E+02;
  5.9187508E-01;  9.9999998E-03; -1.2000848E-01;6063; -1.2905729E-02;  0.0000000E+00; -2.6658580E-03;  1.0000031E+03;  1.0034828E-01;  2.5678287E+00;3; -1.8767093E+00;  0.0000000E+00;  7.3594141E-01;0; -2.2002075E-02;  3.9725387E+04;  0.0000000E+00;  2.0519802E-01;  4.0000000E+04;  0.0000000E+00;  3.9995695E+04; -3.8639873E-02;  0.0000000E+00;  1.6637798E-02;  3.8036798E+02;
  5.9191835E-01;  9.9999998E-03; -1.1000505E-01;6064; -1.2918343E-02;  0.0000000E+00; -2.4988328E-03;  9.9993921E+02;  1.0034831E-01; -5.0368946E+01;3; -1.9246403E+00;  0.0000000E+00;  6.9061583E-01;0; -2.1565156E-02;  3.9720320E+04;  0.0000000E+00;  2.2027525E-01;  4.0000000E+04;  0.0000000E+00;  3.9995648E+04; -3.9271571E-02;  0.0000000E+00;  1.7706415E-02;  3.9672382E+02;
  6.0232401E-01;  9.9999998E-03; -2.6999432E-01;6109; -1.3154132E-02;  0.0000000E+00; -3.9695906E-03;  9.9859045E+02;  1.0056274E-01; -1.1677694E+03;3; -6.4295399E-01;  0.0000000E+00;  1.2895527E+00;0; -2.7335027E-02;  3.9435621E+04;  0.0000000E+00; -7.0947957E-01;  4.0000000E+04;  0.0000000E+00;  4.0007352E+04; -3.0604975E-02;  0.0000000E+00;  3.2699483E-03;  1.8076993E+03;
  6.0231715E-01;  9.9999998E-03; -2.5999054E-01;6110; -1.3156209E-02;  0.0000000E+00; -3.9371573E-03;  9.9870599E+02;  1.0056362E-01; -1.0720685E+03;3; -7.3968333E-01;  0.0000000E+00;  1.2501787E+00;0; -2.7065549E-02;  3.9445816E+04;  0.0000000E+00; -4.5529512E-01;  4.0000000E+04;  0.0000000E+00;  4.0005609E+04; -3.0925322E-02;  0.0000000E+00;  3.8597726E-03;  1.4310364E+03;
  6.0228217E-01;  9.9999998E-03; -2.4998768E-01;6111; -1.3158817E-02;  0.0000000E+00; -3.9237035E-03;  9.9883527E+02;  1.0056366E-01; -9.6496039E+02;3; -8.3822352E-01;  0.0000000E+00;  1.2210442E+00;0; -2.6625553E-02;  3.9457230E+04;  0.0000000E+00; -2.5886717E-01;  4.0000000E+04;  0.0000000E+00;  4.0003730E+04; -3.1286441E-02;  0.0000000E+00;  4.6608876E-03;  1.1068982E+03;
  6.0221732E-01;  9.9999998E-03; -2.3998551E-01;6112; -1.3161728E-02;  0.0000000E+00; -3.9330116E-03;  9.9898718E+02;  1.0056426E-01; -8.3908740E+02;3; -9.3631130E-01;  0.0000000E+00;  1.2038475E+00;0; -2.6152648E-02;  3.9469930E+04;  0.0000000E+00; -1.3460571E-01;  4.0000000E+04;  0.0000000E+00;  4.0002840E+04; -3.1690422E-02;  0.0000000E+00;  5.5377744E-03;  9.1422717E+02;
  6.0213059E-01;  9.9999998E-03; -2.2998187E-01;6113; -1.3166499E-02;  0.0000000E+00; -3.9430838E-03;  9.9915308E+02;  1.0056435E-01; -7.0165918E+02;3; -1.0319752E+00;  0.0000000E+00;  1.1858222E+00;0; -2.5813613E-02;  3.9482805E+04;  0.0000000E+00; -7.2133794E-02;  4.0000000E+04;  0.0000000E+00;  4.0002867E+04; -3.2137949E-02;  0.0000000E+00;  6.3243350E-03;  8.9970618E+02;
  6.0203594E-01;  9.9999998E-03; -2.1998821E-01;6114; -1.3179267E-02;  0.0000000E+00; -3.9000788E-03;  9.9930518E+02;  1.0056438E-01; -5.7563806E+02;3; -1.1230277E+00;  0.0000000E+00;  1.1579093E+00;0; -2.5663640E-02;  3.9495730E+04;  0.0000000E+00; -4.8194677E-02;  4.0000000E+04;  0.0000000E+00;  4.0001430E+04; -3.2626614E-02;  0.0000000E+00;  6.9629727E-03;  7.2126233E+02;
  6.0195148E-01;  9.9999998E-03; -2.1000840E-01;6115; -1.3197508E-02;  0.0000000E+00; -3.8402805E-03;  9.9944580E+02;  1.0056417E-01; -4.5914752E+02;3; -1.2100651E+00;  0.0000000E+00;  1.1306789E+00;0; -2.5490243E-02;  3.9508531E+04;  0.0000000E+00; -4.2093970E-02;  4.0000000E+04;  0.0000000E+00;  3.9999887E+04; -3.3154938E-02;  0.0000000E+00;  7.6646949E-03;  5.1195587E+02;
  6.0188109E-01;  9.9999998E-03; -2.0002596E-01;6116; -1.3215623E-02;  0.0000000E+00; -3.7742117E-03;  9.9958801E+02;  1.0056413E-01; -3.4132367E+02;3; -1.2945169E+00;  0.0000000E+00;  1.1033896E+00;0; -2.5263172E-02;  3.9520000E+04;  0.0000000E+00; -4.0394865E-02;  4.0000000E+04;  0.0000000E+00;  3.9999574E+04; -3.3721820E-02;  0.0000000E+00;  8.4586479E-03;  4.7503293E+02;
  6.0182637E-01;  9.9999998E-03; -1.9003473E-01;6117; -1.3231855E-02;  0.0000000E+00; -3.6859296E-03;  9.9971613E+02;  1.0056392E-01; -2.3520323E+02;3; -1.3747610E+00;  0.0000000E+00;  1.0736029E+00;0; -2.4986431E-02;  3.9530266E+04;  0.0000000E+00; -3.5784401E-02;  4.0000000E+04;  0.0000000E+00;  3.9999730E+04; -3.4323391E-02;  0.0000000E+00;  9.3369605E-03;  4.7367892E+02;
  6.0178828E-01;  9.9999998E-03; -1.8003683E-01;6118; -1.3244787E-02;  0.0000000E+00; -3.5814231E-03;  9.9981140E+02;  1.0056404E-01; -1.5624249E+02;3; -1.4526848E+00;  0.0000000E+00;  1.0446557E+00;0; -2.4651444E-02;  3.9538195E+04;  0.0000000E+00; -2.3819696E-02;  4.0000000E+04;  0.0000000E+00;  3.9999379E+04; -3.4954634E-02;  0.0000000E+00;  1.0303190E-02;  4.0957724E+02;
  6.0176784E-01;  9.9999998E-03; -1.7003474E-01;6119; -1.3253713E-02;  0.0000000E+00; -3.4660918E-03;  9.9987384E+02;  1.0056351E-01; -1.0454025E+02;3; -1.5260713E+00;  0.0000000E+00;  1.0140146E+00;0; -2.4263674E-02;  3.9544117E+04;  0.0000000E+00; -1.8750522E-03;  4.0000000E+04;  0.0000000E+00;  3.9998422E+04; -3.5609689E-02;  0.0000000E+00;  1.1346014E-02;  2.8078177E+02;
  6.0176486E-01;  9.9999998E-03; -1.6002987E-01;6120; -1.3259729E-02;  0.0000000E+00; -3.3427994E-03;  9.9990173E+02;  1.0056325E-01; -8.1429794E+01;3; -1.5956758E+00;  0.0000000E+00;  9.8225123E-01;0; -2.3835192E-02;  3.9547969E+04;  0.0000000E+00;  3.0720199E-02;  4.0000000E+04;  0.0000000E+00;  3.9997324E+04; -3.6282714E-02;  0.0000000E+00;  1.2447523E-02;  1.3080879E+02;
  6.0177833E-01;  9.9999998E-03; -1.5002340E-01;6121; -1.3264826E-02;  0.0000000E+00; -3.2129670E-03;  9.9990918E+02;  1.0056295E-01; -7.5257133E+01;3; -1.6613119E+00;  0.0000000E+00;  9.4971836E-01;0; -2.3380492E-02;  3.9549973E+04;  0.0000000E+00;  7.1879767E-02;  4.0000000E+04;  0.0000000E+00;  3.9995754E+04; -3.6967594E-02;  0.0000000E+00;  1.3587103E-02;  1.0698920E+02;
  6.0180664E-01;  9.9999998E-03; -1.4001666E-01;6122; -1.3270897E-02;  0.0000000E+00; -3.0757827E-03;  9.9989484E+02;  1.0056274E-01; -8.7108650E+01;3; -1.7223618E+00;  0.0000000E+00;  9.1327238E-01;0; -2.2914527E-02;  3.9549914E+04;  0.0000000E+00;  1.1705928E-01;  4.0000000E+04;  0.0000000E+00;  3.9994859E+04; -3.7659064E-02;  0.0000000E+00;  1.4744537E-02;  2.2251105E+02;
  6.0184592E-01;  9.9999998E-03; -1.3001081E-01;6123; -1.3280293E-02;  0.0000000E+00; -2.9296642E-03;  9.9986505E+02;  1.0056226E-01; -1.1179931E+02;3; -1.7780402E+00;  0.0000000E+00;  8.7266380E-01;0; -2.2447163E-02;  3.9548641E+04;  0.0000000E+00;  1.6058707E-01;  4.0000000E+04;  0.0000000E+00;  3.9994430E+04; -3.8351361E-02;  0.0000000E+00;  1.5904197E-02;  3.1853601E+02;
  6.0189134E-01;  9.9999998E-03; -1.2000656E-01;6124; -1.3294486E-02;  0.0000000E+00; -2.7723887E-03;  9.9982202E+02;  1.0056242E-01; -1.4745262E+02;3; -1.8298484E+00;  0.0000000E+00;  8.2617134E-01;0; -2.1983664E-02;  3.9545855E+04;  0.0000000E+00;  1.9666073E-01;  4.0000000E+04;  0.0000000E+00;  3.9993871E+04; -3.9038725E-02;  0.0000000E+00;  1.7055061E-02;  3.7799539E+02;
  6.0193807E-01;  9.9999998E-03; -1.1000405E-01;6125; -1.3314659E-02;  0.0000000E+00; -2.6011253E-03;  9.9977527E+02;  1.0056213E-01; -1.8616757E+02;3; -1.8769466E+00;  0.0000000E+00;  7.7425337E-01;0; -2.1530189E-02;  3.9542410E+04;  0.0000000E+00;  2.2059368E-01;  4.0000000E+04;  0.0000000E+00;  3.9994184E+04; -3.9714273E-02;  0.0000000E+00;  1.8184084E-02;  4.0315253E+02;
  6.1227798E-01;  9.9999998E-03; -2.6999784E-01;6170; -1.3434893E-02;  0.0000000E+00; -4.0506073E-03;  9.9835638E+02;  1.0089727E-01; -1.3616899E+03;3; -5.6771624E-01;  0.0000000E+00;  1.4165865E+00;0; -2.7496651E-02;  3.9157438E+04;  0.0000000E+00; -4.0887189E-01;  4.0000000E+04;  0.0000000E+00;  4.0007562E+04; -3.0609993E-02;  0.0000000E+00;  3.1133431E-03;  1.9377119E+03;
  6.1226887E-01;  9.9999998E-03; -2.5999019E-01;6171; -1.3442392E-02;  0.0000000E+00; -4.0224777E-03;  9.9846484E+02;  1.0089819E-01; -1.2718652E+03;3; -6.7067683E-01;  0.0000000E+00;  1.3815128E+00;0; -2.7191661E-02;  3.9166566E+04;  0.0000000E+00; -2.4152611E-01;  4.0000000E+04;  0.0000000E+00;  4.0006121E+04; -3.0930780E-02;  0.0000000E+00;  3.7391181E-03;  1.6845483E+03;
  6.1223400E-01;  9.9999998E-03; -2.4998173E-01;6172; -1.3450165E-02;  0.0000000E+00; -4.0122764E-03;  9.9858563E+02;  1.0089882E-01; -1.1717693E+03;3; -7.7330148E-01;  0.0000000E+00;  1.3513336E+00;0; -2.6735390E-02;  3.9176844E+04;  0.0000000E+00; -1.2154276E-01;  4.0000000E+04;  0.0000000E+00;  4.0004625E+04; -3.1294558E-02;  0.0000000E+00;  4.5591691E-03;  1.4660607E+03;
  6.1217308E-01;  9.9999998E-03; -2.3997146E-01;6173; -1.3459302E-02;  0.0000000E+00; -4.0221070E-03;  9.9873309E+02;  1.0089970E-01; -1.0496000E+03;3; -8.7588233E-01;  0.0000000E+00;  1.3328397E+00;0; -2.6262667E-02;  3.9188578E+04;  0.0000000E+00; -5.7598814E-02;  4.0000000E+04;  0.0000000E+00;  4.0003930E+04; -3.1703863E-02;  0.0000000E+00;  5.4411972E-03;  1.3530543E+03;
  6.1208892E-01;  9.9999998E-03; -2.2995752E-01;6174; -1.3472157E-02;  0.0000000E+00; -4.0219612E-03;  9.9889423E+02;  1.0089993E-01; -9.1612225E+02;3; -9.7493190E-01;  0.0000000E+00;  1.3121141E+00;0; -2.5951594E-02;  3.9200613E+04;  0.0000000E+00; -3.7232764E-02;  4.0000000E+04;  0.0000000E+00;  4.0003992E+04; -3.2159761E-02;  0.0000000E+00;  6.2081669E-03;  1.3430020E+03;
  6.1199689E-01;  9.9999998E-03; -2.1995756E-01;6175; -1.3496243E-02;  0.0000000E+00; -3.9508906E-03;  9.9901019E+02;  1.0089993E-01; -8.2002618E+02;3; -1.0679014E+00;  0.0000000E+00;  1.2777430E+00;0; -2.5837559E-02;  3.9212801E+04;  0.0000000E+00; -4.2242192E-02;  4.0000000E+04;  0.0000000E+00;  4.0001121E+04; -3.2659762E-02;  0.0000000E+00;  6.8222019E-03;  9.9185345E+02;
  6.1191612E-01;  9.9999998E-03; -2.0998070E-01;6176; -1.3526048E-02;  0.0000000E+00; -3.8818333E-03;  9.9912573E+02;  1.0090019E-01; -7.2432520E+02;3; -1.1572210E+00;  0.0000000E+00;  1.2508883E+00;0; -2.5638193E-02;  3.9224988E+04;  0.0000000E+00; -5.5892404E-02;  4.0000000E+04;  0.0000000E+00;  3.9997516E+04; -3.3203244E-02;  0.0000000E+00;  7.5650509E-03;  5.4090448E+02;
  6.1184871E-01;  9.9999998E-03; -2.0000502E-01;6177; -1.3553462E-02;  0.0000000E+00; -3.8248287E-03;  9.9924908E+02;  1.0089987E-01; -6.2210583E+02;3; -1.2430774E+00;  0.0000000E+00;  1.2208767E+00;0; -2.5373623E-02;  3.9236422E+04;  0.0000000E+00; -6.7545727E-02;  4.0000000E+04;  0.0000000E+00;  3.9996359E+04; -3.3790193E-02;  0.0000000E+00;  8.4165717E-03;  3.7333643E+02;
  6.1179519E-01;  9.9999998E-03; -1.9001962E-01;6178; -1.3577259E-02;  0.0000000E+00; -3.7529159E-03;  9.9936774E+02;  1.0089956E-01; -5.2383704E+02;3; -1.3252871E+00;  0.0000000E+00;  1.1939600E+00;0; -2.5069736E-02;  3.9245871E+04;  0.0000000E+00; -7.2211869E-02;  4.0000000E+04;  0.0000000E+00;  3.9996188E+04; -3.4417331E-02;  0.0000000E+00;  9.3475962E-03;  3.4201303E+02;
  6.1175728E-01;  9.9999998E-03; -1.8002576E-01;6179; -1.3596902E-02;  0.0000000E+00; -3.6648908E-03;  9.9945941E+02;  1.0089894E-01; -4.4788858E+02;3; -1.4036303E+00;  0.0000000E+00;  1.1636213E+00;0; -2.4715636E-02;  3.9253613E+04;  0.0000000E+00; -6.7429312E-02;  4.0000000E+04;  0.0000000E+00;  3.9995836E+04; -3.5079367E-02;  0.0000000E+00;  1.0363732E-02;  2.9311313E+02;
  6.1173701E-01;  9.9999998E-03; -1.7002608E-01;6180; -1.3612064E-02;  0.0000000E+00; -3.5630702E-03;  9.9951746E+02;  1.0089874E-01; -3.9979117E+02;3; -1.4783490E+00;  0.0000000E+00;  1.1324085E+00;0; -2.4310984E-02;  3.9259539E+04;  0.0000000E+00; -5.1974230E-02;  4.0000000E+04;  0.0000000E+00;  3.9994906E+04; -3.5770256E-02;  0.0000000E+00;  1.1459272E-02;  1.9174150E+02;
  6.1173457E-01;  9.9999998E-03; -1.6002300E-01;6181; -1.3624256E-02;  0.0000000E+00; -3.4494875E-03;  9.9954840E+02;  1.0089814E-01; -3.7416226E+02;3; -1.5474941E+00;  0.0000000E+00;  1.0964956E+00;0; -2.3864731E-02;  3.9263383E+04;  0.0000000E+00; -2.5607277E-02;  4.0000000E+04;  0.0000000E+00;  3.9993945E+04; -3.6483210E-02;  0.0000000E+00;  1.2618477E-02;  5.8527260E+01;
  6.1174887E-01;  9.9999998E-03; -1.5001865E-01;6182; -1.3635960E-02;  0.0000000E+00; -3.3246668E-03;  9.9955750E+02;  1.0089783E-01; -3.6660690E+02;3; -1.6129860E+00;  0.0000000E+00;  1.0603675E+00;0; -2.3391675E-02;  3.9265570E+04;  0.0000000E+00;  1.0293078E-02;  4.0000000E+04;  0.0000000E+00;  3.9992711E+04; -3.7211455E-02;  0.0000000E+00;  1.3819780E-02;  8.3795380E+01;
  6.1177689E-01;  9.9999998E-03; -1.4001480E-01;6183; -1.3648901E-02;  0.0000000E+00; -3.1890690E-03;  9.9955444E+02;  1.0089713E-01; -3.6912537E+02;3; -1.6729320E+00;  0.0000000E+00;  1.0183604E+00;0; -2.2907622E-02;  3.9266520E+04;  0.0000000E+00;  5.2306838E-02;  4.0000000E+04;  0.0000000E+00;  3.9992285E+04; -3.7948214E-02;  0.0000000E+00;  1.5040591E-02;  1.9815285E+02;
  6.1181438E-01;  9.9999998E-03; -1.3001259E-01;6184; -1.3665337E-02;  0.0000000E+00; -3.0416036E-03;  9.9953894E+02;  1.0089687E-01; -3.8196451E+02;3; -1.7270423E+00;  0.0000000E+00;  9.7097009E-01;0; -2.2423994E-02;  3.9266285E+04;  0.0000000E+00;  9.5755167E-02;  4.0000000E+04;  0.0000000E+00;  3.9991836E+04; -3.8686838E-02;  0.0000000E+00;  1.6262844E-02;  2.7999542E+02;
  6.1185700E-01;  9.9999998E-03; -1.2001213E-01;6185; -1.3686641E-02;  0.0000000E+00; -2.8807572E-03;  9.9951459E+02;  1.0089651E-01; -4.0216147E+02;3; -1.7778441E+00;  0.0000000E+00;  9.1962862E-01;0; -2.1946512E-02;  3.9264746E+04;  0.0000000E+00;  1.3529645E-01;  4.0000000E+04;  0.0000000E+00;  3.9991430E+04; -3.9420214E-02;  0.0000000E+00;  1.7473701E-02;  3.2785556E+02;
  6.1190081E-01;  9.9999998E-03; -1.1001288E-01;6186; -1.3713787E-02;  0.0000000E+00; -2.7051591E-03;  9.9947559E+02;  1.0089607E-01; -4.3445685E+02;3; -1.8236355E+00;  0.0000000E+00;  8.6269343E-01;0; -2.1481620E-02;  3.9262602E+04;  0.0000000E+00;  1.6598503E-01;  4.0000000E+04;  0.0000000E+00;  3.9991684E+04; -4.0140614E-02;  0.0000000E+00;  1.8658994E-02;  3.4707962E+02;
  6.2218118E-01;  9.9999998E-03; -2.7000436E-01;6231; -1.3730938E-02;  0.0000000E+00; -4.1507678E-03;  9.9801294E+02;  1.0140579E-01; -1.6462251E+03;3; -4.9184990E-01;  0.0000000E+00;  1.5552460E+00;0; -2.7370716E-02;  3.8740676E+04;  0.0000000E+00; -4.6823680E-02;  4.0000000E+04;  0.0000000E+00;  4.0008055E+04; -3.0568201E-02;  0.0000000E+00;  3.1974849E-03;  2.3761624E+03;
  6.2217319E-01;  9.9999998E-03; -2.5999254E-01;6232; -1.3742548E-02;  0.0000000E+00; -4.1307104E-03;  9.9812762E+02;  1.0140748E-01; -1.5512153E+03;3; -5.9990877E-01;  0.0000000E+00;  1.5207280E+00;0; -2.7053492E-02;  3.8749422E+04;  0.0000000E+00;  1.8872041E-02;  4.0000000E+04;  0.0000000E+00;  4.0006832E+04; -3.0890843E-02;  0.0000000E+00;  3.8373503E-03;  2.2018418E+03;
  6.2214237E-01;  9.9999998E-03; -2.4997801E-01;6233; -1.3754913E-02;  0.0000000E+00; -4.1222805E-03;  9.9825360E+02;  1.0140868E-01; -1.4468727E+03;3; -7.0807856E-01;  0.0000000E+00;  1.4933631E+00;0; -2.6648596E-02;  3.8759469E+04;  0.0000000E+00;  4.9255475E-02;  4.0000000E+04;  0.0000000E+00;  4.0005703E+04; -3.1258665E-02;  0.0000000E+00;  4.6100691E-03;  2.0453246E+03;
  6.2208831E-01;  9.9999998E-03; -2.3995873E-01;6234; -1.3769710E-02;  0.0000000E+00; -4.1279509E-03;  9.9840765E+02;  1.0140960E-01; -1.3192219E+03;3; -8.1369144E-01;  0.0000000E+00;  1.4702053E+00;0; -2.6244059E-02;  3.8770773E+04;  0.0000000E+00;  4.3071400E-02;  4.0000000E+04;  0.0000000E+00;  4.0005531E+04; -3.1674854E-02;  0.0000000E+00;  5.4307943E-03;  1.9755942E+03;
  6.2201256E-01;  9.9999998E-03; -2.2993276E-01;6235; -1.3790475E-02;  0.0000000E+00; -4.1101254E-03;  9.9856610E+02;  1.0141005E-01; -1.1879664E+03;3; -9.1585815E-01;  0.0000000E+00;  1.4445155E+00;0; -2.6011771E-02;  3.8782844E+04;  0.0000000E+00;  1.1985711E-02;  4.0000000E+04;  0.0000000E+00;  4.0005078E+04; -3.2141097E-02;  0.0000000E+00;  6.1293263E-03;  1.9497780E+03;
  6.2192768E-01;  9.9999998E-03; -2.1992290E-01;6236; -1.3824388E-02;  0.0000000E+00; -4.0108683E-03;  9.9867480E+02;  1.0141039E-01; -1.0978949E+03;3; -1.0111238E+00;  0.0000000E+00;  1.4071398E+00;0; -2.5946429E-02;  3.8795062E+04;  0.0000000E+00; -2.9741546E-02;  4.0000000E+04;  0.0000000E+00;  4.0000934E+04; -3.2655522E-02;  0.0000000E+00;  6.7090937E-03;  1.4200697E+03;
  6.2185431E-01;  9.9999998E-03; -2.0994431E-01;6237; -1.3863125E-02;  0.0000000E+00; -3.9252015E-03;  9.9875787E+02;  1.0141014E-01; -1.0290574E+03;3; -1.1012553E+00;  0.0000000E+00;  1.3750899E+00;0; -2.5738895E-02;  3.8807246E+04;  0.0000000E+00; -6.9173440E-02;  4.0000000E+04;  0.0000000E+00;  3.9995301E+04; -3.3217922E-02;  0.0000000E+00;  7.4790274E-03;  6.9887805E+02;
  6.2179232E-01;  9.9999998E-03; -1.9997340E-01;6238; -1.3897263E-02;  0.0000000E+00; -3.8725862E-03;  9.9886780E+02;  1.0140969E-01; -9.3799817E+02;3; -1.1890230E+00;  0.0000000E+00;  1.3439218E+00;0; -2.5442721E-02;  3.8818637E+04;  0.0000000E+00; -9.8942243E-02;  4.0000000E+04;  0.0000000E+00;  3.9992312E+04; -3.3828925E-02;  0.0000000E+00;  8.3862040E-03;  3.4524976E+02;
  6.2174159E-01;  9.9999998E-03; -1.8999450E-01;6239; -1.3926328E-02;  0.0000000E+00; -3.8163471E-03;  9.9897607E+02;  1.0140939E-01; -8.4832172E+02;3; -1.2732369E+00;  0.0000000E+00;  1.3190391E+00;0; -2.5112880E-02;  3.8828379E+04;  0.0000000E+00; -1.1672671E-01;  4.0000000E+04;  0.0000000E+00;  3.9991434E+04; -3.4485552E-02;  0.0000000E+00;  9.3726721E-03;  2.5306848E+02;
  6.2170333E-01;  9.9999998E-03; -1.8000674E-01;6240; -1.3951580E-02;  0.0000000E+00; -3.7448141E-03;  9.9906927E+02;  1.0140860E-01; -7.7108929E+02;3; -1.3522476E+00;  0.0000000E+00;  1.2888914E+00;0; -2.4740908E-02;  3.8836855E+04;  0.0000000E+00; -1.2296538E-01;  4.0000000E+04;  0.0000000E+00;  3.9991055E+04; -3.5182122E-02;  0.0000000E+00;  1.0441213E-02;  2.1528075E+02;
  6.2168056E-01;  9.9999998E-03; -1.7001274E-01;6241; -1.3972729E-02;  0.0000000E+00; -3.6567659E-03;  9.9913098E+02;  1.0140774E-01; -7.1997961E+02;3; -1.4270825E+00;  0.0000000E+00;  1.2548809E+00;0; -2.4321247E-02;  3.8843109E+04;  0.0000000E+00; -1.1884263E-01;  4.0000000E+04;  0.0000000E+00;  3.9990051E+04; -3.5912130E-02;  0.0000000E+00;  1.1590882E-02;  1.7528760E+02;
  6.2167400E-01;  9.9999998E-03; -1.6001515E-01;6242; -1.3991711E-02;  0.0000000E+00; -3.5525616E-03;  9.9917200E+02;  1.0140680E-01; -6.8600531E+02;3; -1.4955245E+00;  0.0000000E+00;  1.2172236E+00;0; -2.3860257E-02;  3.8847594E+04;  0.0000000E+00; -1.0518783E-01;  4.0000000E+04;  0.0000000E+00;  3.9989477E+04; -3.6668126E-02;  0.0000000E+00;  1.2807869E-02;  1.6439360E+02;
  6.2168294E-01;  9.9999998E-03; -1.5001617E-01;6243; -1.4010585E-02;  0.0000000E+00; -3.4327167E-03;  9.9919360E+02;  1.0140602E-01; -6.6807990E+02;3; -1.5598658E+00;  0.0000000E+00;  1.1744535E+00;0; -2.3372546E-02;  3.8850520E+04;  0.0000000E+00; -8.2491510E-02;  4.0000000E+04;  0.0000000E+00;  3.9988531E+04; -3.7442196E-02;  0.0000000E+00;  1.4069650E-02;  2.0368752E+02;
  6.2170500E-01;  9.9999998E-03; -1.4001742E-01;6244; -1.4030946E-02;  0.0000000E+00; -3.2981781E-03;  9.9919983E+02;  1.0140539E-01; -6.6294421E+02;3; -1.6173609E+00;  0.0000000E+00;  1.1256611E+00;0; -2.2875536E-02;  3.8852496E+04;  0.0000000E+00; -5.1944431E-02;  4.0000000E+04;  0.0000000E+00;  3.9988008E+04; -3.8226750E-02;  0.0000000E+00;  1.5351214E-02;  2.5349365E+02;
  6.2173712E-01;  9.9999998E-03; -1.3001922E-01;6245; -1.4054695E-02;  0.0000000E+00; -3.1491052E-03;  9.9919696E+02;  1.0140461E-01; -6.6531451E+02;3; -1.6712044E+00;  0.0000000E+00;  1.0725429E+00;0; -2.2381656E-02;  3.8853520E+04;  0.0000000E+00; -1.6004967E-02;  4.0000000E+04;  0.0000000E+00;  3.9987738E+04; -3.9014068E-02;  0.0000000E+00;  1.6632412E-02;  2.8251208E+02;
  6.2177515E-01;  9.9999998E-03; -1.2002146E-01;6246; -1.4083077E-02;  0.0000000E+00; -2.9849152E-03;  9.9918884E+02;  1.0140344E-01; -6.7203040E+02;3; -1.7193925E+00;  0.0000000E+00;  1.0122110E+00;0; -2.1896901E-02;  3.8853625E+04;  0.0000000E+00;  2.1496713E-02;  4.0000000E+04;  0.0000000E+00;  3.9987816E+04; -3.9795846E-02;  0.0000000E+00;  1.7898945E-02;  2.8402151E+02;
  6.2181467E-01;  9.9999998E-03; -1.1002395E-01;6247; -1.4117329E-02;  0.0000000E+00; -2.8048698E-03;  9.9917780E+02;  1.0140334E-01; -6.8116589E+02;3; -1.7638131E+00;  0.0000000E+00;  9.4908315E-01;0; -2.1427793E-02;  3.8853254E+04;  0.0000000E+00;  5.6108091E-02;  4.0000000E+04;  0.0000000E+00;  3.9988047E+04; -4.0563274E-02;  0.0000000E+00;  1.9135481E-02;  2.6488599E+02;
  6.3202280E-01;  9.9999998E-03; -2.7001715E-01;6292; -1.4046281E-02;  0.0000000E+00; -4.2595952E-03;  9.9772504E+02;  1.0214782E-01; -1.8847860E+03;3; -4.1447285E-01;  0.0000000E+00;  1.7029493E+00;0; -2.7070399E-02;  3.8160289E+04;  0.0000000E+00;  1.7083584E-01;  4.0000000E+04;  0.0000000E+00;  4.0006852E+04; -3.0465281E-02;  0.0000000E+00;  3.3948803E-03;  2.8479460E+03;
  6.3202131E-01;  9.9999998E-03; -2.6000196E-01;6293; -1.4059928E-02;  0.0000000E+00; -4.2491285E-03;  9.9785883E+02;  1.0215039E-01; -1.7739250E+03;3; -5.2819097E-01;  0.0000000E+00;  1.6673467E+00;0; -2.6757650E-02;  3.8169691E+04;  0.0000000E+00;  2.0337865E-01;  4.0000000E+04;  0.0000000E+00;  4.0005285E+04; -3.0793522E-02;  0.0000000E+00;  4.0358710E-03;  2.6909531E+03;
  6.3200009E-01;  9.9999998E-03; -2.4998240E-01;6294; -1.4075813E-02;  0.0000000E+00; -4.2450251E-03;  9.9800513E+02;  1.0215224E-01; -1.6526938E+03;3; -6.4036667E-01;  0.0000000E+00;  1.6395252E+00;0; -2.6419314E-02;  3.8180125E+04;  0.0000000E+00;  1.9062528E-01;  4.0000000E+04;  0.0000000E+00;  4.0004543E+04; -3.1169176E-02;  0.0000000E+00;  4.7498629E-03;  2.5568164E+03;
  6.3195896E-01;  9.9999998E-03; -2.3995584E-01;6295; -1.4095814E-02;  0.0000000E+00; -4.2428123E-03;  9.9817102E+02;  1.0215345E-01; -1.5152656E+03;3; -7.4952930E-01;  0.0000000E+00;  1.6137544E+00;0; -2.6129924E-02;  3.8192188E+04;  0.0000000E+00;  1.3928096E-01;  4.0000000E+04;  0.0000000E+00;  4.0004172E+04; -3.1596255E-02;  0.0000000E+00;  5.4663299E-03;  2.4980808E+03;
  6.3189673E-01;  9.9999998E-03; -2.2992101E-01;6296; -1.4123937E-02;  0.0000000E+00; -4.2026024E-03;  9.9834064E+02;  1.0215431E-01; -1.3747264E+03;3; -8.5399377E-01;  0.0000000E+00;  1.5847265E+00;0; -2.6008524E-02;  3.8204820E+04;  0.0000000E+00;  6.6788241E-02;  4.0000000E+04;  0.0000000E+00;  4.0003727E+04; -3.2077197E-02;  0.0000000E+00;  6.0686739E-03;  2.4102976E+03;
  6.3182515E-01;  9.9999998E-03; -2.1990246E-01;6297; -1.4164537E-02;  0.0000000E+00; -4.0811906E-03;  9.9844824E+02;  1.0215443E-01; -1.2855931E+03;3; -9.5063615E-01;  0.0000000E+00;  1.5421848E+00;0; -2.5988866E-02;  3.8218227E+04;  0.0000000E+00; -9.8512154E-03;  4.0000000E+04;  0.0000000E+00;  3.9998395E+04; -3.2611728E-02;  0.0000000E+00;  6.6228616E-03;  1.7384449E+03;
  6.3176352E-01;  9.9999998E-03; -2.0991951E-01;6298; -1.4207751E-02;  0.0000000E+00; -3.9826855E-03;  9.9852618E+02;  1.0215411E-01; -1.2210518E+03;3; -1.0433297E+00;  0.0000000E+00;  1.5064907E+00;0; -2.5779316E-02;  3.8231254E+04;  0.0000000E+00; -7.7488936E-02;  4.0000000E+04;  0.0000000E+00;  3.9991074E+04; -3.3199437E-02;  0.0000000E+00;  7.4201208E-03;  8.1703479E+02;
  6.3170981E-01;  9.9999998E-03; -1.9995035E-01;6299; -1.4244791E-02;  0.0000000E+00; -3.9323522E-03;  9.9862439E+02;  1.0215338E-01; -1.1396714E+03;3; -1.1324953E+00;  0.0000000E+00;  1.4756432E+00;0; -2.5461216E-02;  3.8243348E+04;  0.0000000E+00; -1.2939025E-01;  4.0000000E+04;  0.0000000E+00;  3.9986562E+04; -3.3840537E-02;  0.0000000E+00;  8.3793206E-03;  3.1899899E+02;
  6.3166362E-01;  9.9999998E-03; -1.8997638E-01;6300; -1.4277189E-02;  0.0000000E+00; -3.8865232E-03;  9.9874280E+02;  1.0215213E-01; -1.0415507E+03;3; -1.2174848E+00;  0.0000000E+00;  1.4486533E+00;0; -2.5111884E-02;  3.8254332E+04;  0.0000000E+00; -1.6447639E-01;  4.0000000E+04;  0.0000000E+00;  3.9985234E+04; -3.4532160E-02;  0.0000000E+00;  9.4202748E-03;  2.4253328E+02;
  6.3162684E-01;  9.9999998E-03; -1.7999417E-01;6301; -1.4306881E-02;  0.0000000E+00; -3.8261777E-03;  9.9883936E+02;  1.0215112E-01; -9.6155298E+02;3; -1.2972025E+00;  0.0000000E+00;  1.4184419E+00;0; -2.4725879E-02;  3.8263590E+04;  0.0000000E+00; -1.8572555E-01;  4.0000000E+04;  0.0000000E+00;  3.9984418E+04; -3.5268746E-02;  0.0000000E+00;  1.0542868E-02;  2.7470718E+02;
  6.3160247E-01;  9.9999998E-03; -1.7000571E-01;6302; -1.4334359E-02;  0.0000000E+00; -3.7475592E-03;  9.9891748E+02;  1.0214944E-01; -8.9686346E+02;3; -1.3714306E+00;  0.0000000E+00;  1.3811619E+00;0; -2.4294589E-02;  3.8270633E+04;  0.0000000E+00; -1.9710331E-01;  4.0000000E+04;  0.0000000E+00;  3.9983688E+04; -3.6042988E-02;  0.0000000E+00;  1.1748399E-02;  3.1183191E+02;
  6.3159257E-01;  9.9999998E-03; -1.6001332E-01;6303; -1.4360985E-02;  0.0000000E+00; -3.6484683E-03;  9.9896777E+02;  1.0214797E-01; -8.5518561E+02;3; -1.4395225E+00;  0.0000000E+00;  1.3400207E+00;0; -2.3822863E-02;  3.8276109E+04;  0.0000000E+00; -2.0106806E-01;  4.0000000E+04;  0.0000000E+00;  3.9983367E+04; -3.6846496E-02;  0.0000000E+00;  1.3023634E-02;  3.5460724E+02;
  6.3159752E-01;  9.9999998E-03; -1.5001886E-01;6304; -1.4388053E-02;  0.0000000E+00; -3.5312956E-03;  9.9900159E+02;  1.0214671E-01; -8.2718640E+02;3; -1.5001553E+00;  0.0000000E+00;  1.2900136E+00;0; -2.3326129E-02;  3.8280324E+04;  0.0000000E+00; -1.9746391E-01;  4.0000000E+04;  0.0000000E+00;  3.9982773E+04; -3.7670750E-02;  0.0000000E+00;  1.4344621E-02;  3.9657034E+02;
  6.3161641E-01;  9.9999998E-03; -1.4002337E-01;6305; -1.4416845E-02;  0.0000000E+00; -3.3968415E-03;  9.9902112E+02;  1.0214566E-01; -8.1098932E+02;3; -1.5559283E+00;  0.0000000E+00;  1.2331913E+00;0; -2.2822915E-02;  3.8283734E+04;  0.0000000E+00; -1.8474811E-01;  4.0000000E+04;  0.0000000E+00;  3.9982309E+04; -3.8507070E-02;  0.0000000E+00;  1.5684156E-02;  4.2054257E+02;
  6.3164788E-01;  9.9999998E-03; -1.3002716E-01;6306; -1.4448727E-02;  0.0000000E+00; -3.2461921E-03;  9.9903644E+02;  1.0214410E-01; -7.9829834E+02;3; -1.6074399E+00;  0.0000000E+00;  1.1733154E+00;0; -2.2326494E-02;  3.8286223E+04;  0.0000000E+00; -1.6231693E-01;  4.0000000E+04;  0.0000000E+00;  3.9982262E+04; -3.9346717E-02;  0.0000000E+00;  1.7020224E-02;  4.1231491E+02;
  6.3169014E-01;  9.9999998E-03; -1.2002993E-01;6307; -1.4484942E-02;  0.0000000E+00; -3.0790055E-03;  9.9904529E+02;  1.0214268E-01; -7.9094055E+02;3; -1.6545286E+00;  0.0000000E+00;  1.1091088E+00;0; -2.1843057E-02;  3.8288031E+04;  0.0000000E+00; -1.3170137E-01;  4.0000000E+04;  0.0000000E+00;  3.9982621E+04; -4.0180515E-02;  0.0000000E+00;  1.8337458E-02;  3.6856015E+02;
  6.3174015E-01;  9.9999998E-03; -1.1003129E-01;6308; -1.4526810E-02;  0.0000000E+00; -2.8946900E-03;  9.9905896E+02;  1.0214174E-01; -7.7963220E+02;3; -1.6978030E+00;  0.0000000E+00;  1.0387834E+00;0; -2.1378670E-02;  3.8289758E+04;  0.0000000E+00; -9.6254148E-02;  4.0000000E+04;  0.0000000E+00;  3.9982801E+04; -4.0998716E-02;  0.0000000E+00;  1.9620046E-02;  2.9662006E+02;
  6.4183003E-01;  9.9999998E-03; -2.7003926E-01;6353; -1.4375329E-02;  0.0000000E+00; -4.3661236E-03;  9.9766333E+02;  1.0317664E-01; -1.9358958E+03;3; -3.3565876E-01;  0.0000000E+00;  1.8562492E+00;0; -2.6726527E-02;  3.7402504E+04;  0.0000000E+00; -1.0973778E-01;  4.0000000E+04;  0.0000000E+00;  4.0000945E+04; -3.0296579E-02;  0.0000000E+00;  3.5700514E-03;  2.9813113E+03;
  6.4183778E-01;  9.9999998E-03; -2.6002246E-01;6354; -1.4389154E-02;  0.0000000E+00; -4.3649147E-03;  9.9782635E+02;  1.0317994E-01; -1.8008378E+03;3; -4.5410603E-01;  0.0000000E+00;  1.8207674E+00;0; -2.6423326E-02;  3.7412691E+04;  0.0000000E+00;  1.0523910E-01;  4.0000000E+04;  0.0000000E+00;  3.9999684E+04; -3.0635731E-02;  0.0000000E+00;  4.2124051E-03;  2.8066335E+03;
  6.4182985E-01;  9.9999998E-03; -2.5000063E-01;6355; -1.4407332E-02;  0.0000000E+00; -4.3650391E-03;  9.9799902E+02;  1.0318225E-01; -1.6577802E+03;3; -5.7046980E-01;  0.0000000E+00;  1.7910451E+00;0; -2.6153861E-02;  3.7424891E+04;  0.0000000E+00;  1.9202326E-01;  4.0000000E+04;  0.0000000E+00;  3.9998926E+04; -3.1024944E-02;  0.0000000E+00;  4.8710839E-03;  2.6887837E+03;
  6.4180595E-01;  9.9999998E-03; -2.3997125E-01;6356; -1.4431674E-02;  0.0000000E+00; -4.3547214E-03;  9.9818896E+02;  1.0318413E-01; -1.5004019E+03;3; -6.8315655E-01;  0.0000000E+00;  1.7657182E+00;0; -2.5981436E-02;  3.7438145E+04;  0.0000000E+00;  1.7890242E-01;  4.0000000E+04;  0.0000000E+00;  3.9998402E+04; -3.1468838E-02;  0.0000000E+00;  5.4874034E-03;  2.6158115E+03;
  6.4176381E-01;  9.9999998E-03; -2.2993465E-01;6357; -1.4465691E-02;  0.0000000E+00; -4.2944252E-03;  9.9837512E+02;  1.0318504E-01; -1.3461841E+03;3; -7.8904516E-01;  0.0000000E+00;  1.7311378E+00;0; -2.5965413E-02;  3.7452656E+04;  0.0000000E+00;  1.0763483E-01;  4.0000000E+04;  0.0000000E+00;  3.9997199E+04; -3.1971112E-02;  0.0000000E+00;  6.0056993E-03;  2.4349951E+03;
  6.4171278E-01;  9.9999998E-03; -2.1991287E-01;6358; -1.4509583E-02;  0.0000000E+00; -4.1678618E-03;  9.9850604E+02;  1.0318518E-01; -1.2376932E+03;3; -8.8748544E-01;  0.0000000E+00;  1.6849130E+00;0; -2.5962329E-02;  3.7467371E+04;  0.0000000E+00;  1.4752585E-02;  4.0000000E+04;  0.0000000E+00;  3.9991129E+04; -3.2532644E-02;  0.0000000E+00;  6.5703145E-03;  1.7052638E+03;
  6.4166796E-01;  9.9999998E-03; -2.0992379E-01;6359; -1.4552630E-02;  0.0000000E+00; -4.0675909E-03;  9.9859961E+02;  1.0318411E-01; -1.1602140E+03;3; -9.8232591E-01;  0.0000000E+00;  1.6487545E+00;0; -2.5751859E-02;  3.7481781E+04;  0.0000000E+00; -7.5027779E-02;  4.0000000E+04;  0.0000000E+00;  3.9983641E+04; -3.3152916E-02;  0.0000000E+00;  7.4010561E-03;  7.5955450E+02;
  6.4162737E-01;  9.9999998E-03; -1.9995065E-01;6360; -1.4589858E-02;  0.0000000E+00; -4.0180930E-03;  9.9871283E+02;  1.0318274E-01; -1.0663895E+03;3; -1.0732741E+00;  0.0000000E+00;  1.6167408E+00;0; -2.5426429E-02;  3.7495523E+04;  0.0000000E+00; -1.4884669E-01;  4.0000000E+04;  0.0000000E+00;  3.9979043E+04; -3.3831418E-02;  0.0000000E+00;  8.4049879E-03;  2.6503119E+02;
  6.4159238E-01;  9.9999998E-03; -1.8997666E-01;6361; -1.4624685E-02;  0.0000000E+00; -3.9735097E-03;  9.9883832E+02;  1.0318115E-01; -9.6244183E+02;3; -1.1589350E+00;  0.0000000E+00;  1.5863646E+00;0; -2.5068747E-02;  3.7507664E+04;  0.0000000E+00; -2.0373894E-01;  4.0000000E+04;  0.0000000E+00;  3.9976863E+04; -3.4565154E-02;  0.0000000E+00;  9.4964076E-03;  3.2355997E+02;
  6.4156950E-01;  9.9999998E-03; -1.7999560E-01;6362; -1.4659337E-02;  0.0000000E+00; -3.9152550E-03;  9.9895306E+02;  1.0317864E-01; -8.6738281E+02;3; -1.2375251E+00;  0.0000000E+00;  1.5519605E+00;0; -2.4674255E-02;  3.7518398E+04;  0.0000000E+00; -2.4294023E-01;  4.0000000E+04;  0.0000000E+00;  3.9976402E+04; -3.5348576E-02;  0.0000000E+00;  1.0674319E-02;  4.2165491E+02;
  6.4156789E-01;  9.9999998E-03; -1.7000575E-01;6363; -1.4694676E-02;  0.0000000E+00; -3.8362187E-03;  9.9904169E+02;  1.0317668E-01; -7.9395282E+02;3; -1.3099546E+00;  0.0000000E+00;  1.5103726E+00;0; -2.4235256E-02;  3.7526957E+04;  0.0000000E+00; -2.7252999E-01;  4.0000000E+04;  0.0000000E+00;  3.9975961E+04; -3.6174096E-02;  0.0000000E+00;  1.1938840E-02;  4.9238553E+02;
  6.4158618E-01;  9.9999998E-03; -1.6000882E-01;6364; -1.4731006E-02;  0.0000000E+00; -3.7368338E-03;  9.9911035E+02;  1.0317381E-01; -7.3706549E+02;3; -1.3752084E+00;  0.0000000E+00;  1.4623120E+00;0; -2.3757324E-02;  3.7534086E+04;  0.0000000E+00; -2.9669401E-01;  4.0000000E+04;  0.0000000E+00;  3.9975602E+04; -3.7032563E-02;  0.0000000E+00;  1.3275239E-02;  5.5648297E+02;
  6.4161623E-01;  9.9999998E-03; -1.5000941E-01;6365; -1.4768467E-02;  0.0000000E+00; -3.6182033E-03;  9.9915710E+02;  1.0317156E-01; -6.9830121E+02;3; -1.4349447E+00;  0.0000000E+00;  1.4097003E+00;0; -2.3257505E-02;  3.7539781E+04;  0.0000000E+00; -3.1518912E-01;  4.0000000E+04;  0.0000000E+00;  3.9975355E+04; -3.7913971E-02;  0.0000000E+00;  1.4656466E-02;  6.1029358E+02;
  6.4165467E-01;  9.9999998E-03; -1.4000960E-01;6366; -1.4807330E-02;  0.0000000E+00; -3.4825415E-03;  9.9919092E+02;  1.0316910E-01; -6.7030200E+02;3; -1.4881256E+00;  0.0000000E+00;  1.3487096E+00;0; -2.2755606E-02;  3.7544262E+04;  0.0000000E+00; -3.2402647E-01;  4.0000000E+04;  0.0000000E+00;  3.9975121E+04; -3.8808372E-02;  0.0000000E+00;  1.6052766E-02;  6.3832623E+02;
  6.4170069E-01;  9.9999998E-03; -1.3000955E-01;6367; -1.4848593E-02;  0.0000000E+00; -3.3294908E-03;  9.9921759E+02;  1.0316669E-01; -6.4822852E+02;3; -1.5381373E+00;  0.0000000E+00;  1.2822585E+00;0; -2.2265621E-02;  3.7548191E+04;  0.0000000E+00; -3.1922707E-01;  4.0000000E+04;  0.0000000E+00;  3.9975094E+04; -3.9706070E-02;  0.0000000E+00;  1.7440449E-02;  6.2787689E+02;
  6.4175248E-01;  9.9999998E-03; -1.2000924E-01;6368; -1.4893607E-02;  0.0000000E+00; -3.1598157E-03;  9.9924872E+02;  1.0316452E-01; -6.2240210E+02;3; -1.5835901E+00;  0.0000000E+00;  1.2106280E+00;0; -2.1793157E-02;  3.7551449E+04;  0.0000000E+00; -2.9947200E-01;  4.0000000E+04;  0.0000000E+00;  3.9975629E+04; -4.0596526E-02;  0.0000000E+00;  1.8803369E-02;  5.7616046E+02;
  6.4180648E-01;  9.9999998E-03; -1.1000890E-01;6369; -1.4943219E-02;  0.0000000E+00; -2.9714517E-03;  9.9927271E+02;  1.0316254E-01; -6.0255084E+02;3; -1.6258590E+00;  0.0000000E+00;  1.1335539E+00;0; -2.1344054E-02;  3.7554918E+04;  0.0000000E+00; -2.6644772E-01;  4.0000000E+04;  0.0000000E+00;  3.9976293E+04; -4.1469090E-02;  0.0000000E+00;  2.0125035E-02;  4.9109921E+02;
  6.5179592E-01;  9.9999998E-03; -1.0999500E-01;6430; -1.5351846E-02;  0.0000000E+00; -3.0314610E-03;  9.9973700E+02;  1.0449031E-01; -2.1787036E+02;3; -1.5475864E+00;  0.0000000E+00;  1.2314523E+00;0; -2.1334628E-02;  3.6639918E+04;  0.0000000E+00; -4.1963369E-01;  4.0000000E+04;  0.0000000E+00;  3.9967645E+04; -4.1971087E-02;  0.0000000E+00;  2.0636460E-02;  7.2182751E+02;
  6.5174633E-01;  9.9999998E-03; -1.1999576E-01;6429; -1.5293976E-02;  0.0000000E+00; -3.2237119E-03;  9.9970618E+02;  1.0449348E-01; -2.4344989E+02;3; -1.5070072E+00;  0.0000000E+00;  1.3140341E+00;0; -2.1758579E-02;  3.6635664E+04;  0.0000000E+00; -4.4662631E-01;  4.0000000E+04;  0.0000000E+00;  3.9966719E+04; -4.1042421E-02;  0.0000000E+00;  1.9283842E-02;  8.0216833E+02;
  6.5170127E-01;  9.9999998E-03; -1.2999661E-01;6428; -1.5240140E-02;  0.0000000E+00; -3.3978052E-03;  9.9967902E+02;  1.0449724E-01; -2.6591840E+02;3; -1.4627062E+00;  0.0000000E+00;  1.3927486E+00;0; -2.2210147E-02;  3.6631855E+04;  0.0000000E+00; -4.5251742E-01;  4.0000000E+04;  0.0000000E+00;  3.9966262E+04; -4.0093362E-02;  0.0000000E+00;  1.7883215E-02;  8.4339716E+02;
  6.5166461E-01;  9.9999998E-03; -1.3999738E-01;6427; -1.5189316E-02;  0.0000000E+00; -3.5550902E-03;  9.9965051E+02;  1.0450092E-01; -2.8952264E+02;3; -1.4149963E+00;  0.0000000E+00;  1.4655321E+00;0; -2.2684520E-02;  3.6627000E+04;  0.0000000E+00; -4.3767661E-01;  4.0000000E+04;  0.0000000E+00;  3.9966137E+04; -3.9135445E-02;  0.0000000E+00;  1.6450925E-02;  8.3922864E+02;
  6.5163928E-01;  9.9999998E-03; -1.4999773E-01;6426; -1.5140577E-02;  0.0000000E+00; -3.6958065E-03;  9.9961523E+02;  1.0450477E-01; -3.1875638E+02;3; -1.3641665E+00;  0.0000000E+00;  1.5348719E+00;0; -2.3176370E-02;  3.6621602E+04;  0.0000000E+00; -4.0636390E-01;  4.0000000E+04;  0.0000000E+00;  3.9966090E+04; -3.8179781E-02;  0.0000000E+00;  1.5003411E-02;  7.9420032E+02;
  6.5162700E-01;  9.9999998E-03; -1.5999714E-01;6425; -1.5093656E-02;  0.0000000E+00; -3.8206922E-03;  9.9956085E+02;  1.0450931E-01; -3.6384152E+02;3; -1.3066990E+00;  0.0000000E+00;  1.5941231E+00;0; -2.3671731E-02;  3.6614840E+04;  0.0000000E+00; -3.6566830E-01;  4.0000000E+04;  0.0000000E+00;  3.9966086E+04; -3.7237123E-02;  0.0000000E+00;  1.3565391E-02;  7.2132721E+02;
  6.5165806E-01;  9.9999998E-03; -2.7007154E-01;6414; -1.4702485E-02;  0.0000000E+00; -4.4617578E-03;  9.9785388E+02;  1.0452000E-01; -1.7780237E+03;3; -2.5491732E-01;  0.0000000E+00;  2.0157542E+00;0; -2.6451748E-02;  3.6466387E+04;  0.0000000E+00; -1.1425343E+00;  4.0000000E+04;  0.0000000E+00;  3.9990203E+04; -3.0063471E-02;  0.0000000E+00;  3.6117237E-03;  3.2852871E+03;
  6.5162730E-01;  9.9999998E-03; -1.6999519E-01;6424; -1.5048380E-02;  0.0000000E+00; -3.9280471E-03;  9.9948688E+02;  1.0451332E-01; -4.2512375E+02;3; -1.2440560E+00;  0.0000000E+00;  1.6490592E+00;0; -2.4149895E-02;  3.6606730E+04;  0.0000000E+00; -3.2120970E-01;  4.0000000E+04;  0.0000000E+00;  3.9966488E+04; -3.6318298E-02;  0.0000000E+00;  1.2168405E-02;  6.3284778E+02;
  6.5167344E-01;  9.9999998E-03; -2.6005509E-01;6415; -1.4716567E-02;  0.0000000E+00; -4.4677211E-03;  9.9804419E+02;  1.0452384E-01; -1.6203491E+03;3; -3.7875253E-01;  0.0000000E+00;  1.9873301E+00;0; -2.6153030E-02;  3.6478746E+04;  0.0000000E+00; -4.3529764E-01;  4.0000000E+04;  0.0000000E+00;  3.9988988E+04; -3.0419841E-02;  0.0000000E+00;  4.2668111E-03;  2.6475522E+03;
  6.5163809E-01;  9.9999998E-03; -1.7999081E-01;6423; -1.5005077E-02;  0.0000000E+00; -4.0162615E-03;  9.9938843E+02;  1.0451690E-01; -5.0665231E+02;3; -1.1731365E+00;  0.0000000E+00;  1.6946895E+00;0; -2.4591701E-02;  3.6596797E+04;  0.0000000E+00; -2.7288967E-01;  4.0000000E+04;  0.0000000E+00;  3.9967055E+04; -3.5434049E-02;  0.0000000E+00;  1.0842348E-02;  5.2851239E+02;
  6.5168452E-01;  9.9999998E-03; -2.5003445E-01;6416; -1.4736578E-02;  0.0000000E+00; -4.4690454E-03;  9.9825311E+02;  1.0452656E-01; -1.4472676E+03;3; -4.9927130E-01;  0.0000000E+00;  1.9612621E+00;0; -2.5946956E-02;  3.6492332E+04;  0.0000000E+00; -3.5234395E-02;  4.0000000E+04;  0.0000000E+00;  3.9987777E+04; -3.0829297E-02;  0.0000000E+00;  4.8823417E-03;  2.3820996E+03;
  6.5165526E-01;  9.9999998E-03; -1.8998314E-01;6422; -1.4964549E-02;  0.0000000E+00; -4.0839836E-03;  9.9926331E+02;  1.0452082E-01; -6.1035309E+02;3; -1.0962428E+00;  0.0000000E+00;  1.7376486E+00;0; -2.4987992E-02;  3.6584969E+04;  0.0000000E+00; -2.1517290E-01;  4.0000000E+04;  0.0000000E+00;  3.9967977E+04; -3.4594849E-02;  0.0000000E+00;  9.6068569E-03;  3.8745456E+02;
  6.5167052E-01;  9.9999998E-03; -1.9997278E-01;6421; -1.4926424E-02;  0.0000000E+00; -4.1361349E-03;  9.9912018E+02;  1.0452387E-01; -7.2891760E+02;3; -1.0103354E+00;  0.0000000E+00;  1.7711219E+00;0; -2.5342248E-02;  3.6570910E+04;  0.0000000E+00; -1.4181453E-01;  4.0000000E+04;  0.0000000E+00;  3.9969789E+04; -3.3809766E-02;  0.0000000E+00;  8.4675178E-03;  2.2212129E+02;
  6.5168560E-01;  9.9999998E-03; -2.4000794E-01;6417; -1.4764537E-02;  0.0000000E+00; -4.4498742E-03;  9.9846967E+02;  1.0452791E-01; -1.2678652E+03;3; -6.1320347E-01;  0.0000000E+00;  1.9227554E+00;0; -2.5872737E-02;  3.6507266E+04;  0.0000000E+00;  1.1850120E-01;  4.0000000E+04;  0.0000000E+00;  3.9986770E+04; -3.1297468E-02;  0.0000000E+00;  5.4247300E-03;  2.2416721E+03;
  6.5167344E-01;  9.9999998E-03; -2.0996416E-01;6420; -1.4888720E-02;  0.0000000E+00; -4.1841408E-03;  9.9896826E+02;  1.0452623E-01; -8.5479059E+02;3; -9.1779840E-01;  0.0000000E+00;  1.8026482E+00;0; -2.5661338E-02;  3.6555887E+04;  0.0000000E+00; -5.1549144E-02;  4.0000000E+04;  0.0000000E+00;  3.9973109E+04; -3.3085160E-02;  0.0000000E+00;  7.4238223E-03;  4.9894897E+02;
  6.5167671E-01;  9.9999998E-03; -2.2997904E-01;6418; -1.4803091E-02;  0.0000000E+00; -4.3731523E-03;  9.9867224E+02;  1.0452833E-01; -1.1000182E+03;3; -7.2056293E-01;  0.0000000E+00;  1.8837343E+00;0; -2.5931336E-02;  3.6523344E+04;  0.0000000E+00;  1.1881446E-01;  4.0000000E+04;  0.0000000E+00;  3.9984301E+04; -3.1828742E-02;  0.0000000E+00;  5.8974065E-03;  1.9182670E+03;
  6.5166736E-01;  9.9999998E-03; -2.1996340E-01;6419; -1.4847575E-02;  0.0000000E+00; -4.2603691E-03;  9.9882788E+02;  1.0452799E-01; -9.7108356E+02;3; -8.2131535E-01;  0.0000000E+00;  1.8390514E+00;0; -2.5897471E-02;  3.6539637E+04;  0.0000000E+00;  4.4708665E-02;  4.0000000E+04;  0.0000000E+00;  3.9978836E+04; -3.2424651E-02;  0.0000000E+00;  6.5271794E-03;  1.2029574E+03;
  6.6184843E-01;  9.9999998E-03; -1.0997617E-01;6491; -1.5757920E-02;  0.0000000E+00; -3.0758770E-03;  1.0001855E+03;  1.0611613E-01;  1.5367465E+02;3; -1.4610320E+00;  0.0000000E+00;  1.3324751E+00;0; -2.1351479E-02;  3.5553688E+04;  0.0000000E+00; -5.1853120E-01;  4.0000000E+04;  0.0000000E+00;  3.9957117E+04; -4.2514898E-02;  0.0000000E+00;  2.1163419E-02;  9.0151929E+02;
  6.6180283E-01;  9.9999998E-03; -1.1997834E-01;6490; -1.5690353E-02;  0.0000000E+00; -3.2725281E-03;  1.0001728E+03;  1.0612210E-01;  1.4310706E+02;3; -1.4222600E+00;  0.0000000E+00;  1.4226335E+00;0; -2.1741875E-02;  3.5549707E+04;  0.0000000E+00; -5.3522891E-01;  4.0000000E+04;  0.0000000E+00;  3.9956301E+04; -4.1528057E-02;  0.0000000E+00;  1.9786183E-02;  9.6803534E+02;
  6.6175884E-01;  9.9999998E-03; -1.2998191E-01;6489; -1.5626032E-02;  0.0000000E+00; -3.4518670E-03;  1.0001650E+03;  1.0612801E-01;  1.3668748E+02;3; -1.3803568E+00;  0.0000000E+00;  1.5053521E+00;0; -2.2164583E-02;  3.5545457E+04;  0.0000000E+00; -5.2475452E-01;  4.0000000E+04;  0.0000000E+00;  3.9955586E+04; -4.0517591E-02;  0.0000000E+00;  1.8353008E-02;  9.8874493E+02;
  6.6171986E-01;  9.9999998E-03; -1.3998660E-01;6488; -1.5563947E-02;  0.0000000E+00; -3.6169342E-03;  1.0001571E+03;  1.0613424E-01;  1.3016914E+02;3; -1.3347570E+00;  0.0000000E+00;  1.5845352E+00;0; -2.2615947E-02;  3.5540984E+04;  0.0000000E+00; -4.8979220E-01;  4.0000000E+04;  0.0000000E+00;  3.9955398E+04; -3.9495710E-02;  0.0000000E+00;  1.6879763E-02;  9.6058130E+02;
  6.6168940E-01;  9.9999998E-03; -1.4999200E-01;6487; -1.5503526E-02;  0.0000000E+00; -3.7680247E-03;  1.0001309E+03;  1.0614074E-01;  1.0844137E+02;3; -1.2862377E+00;  0.0000000E+00;  1.6606451E+00;0; -2.3091150E-02;  3.5535316E+04;  0.0000000E+00; -4.3744329E-01;  4.0000000E+04;  0.0000000E+00;  3.9955238E+04; -3.8474061E-02;  0.0000000E+00;  1.5382910E-02;  8.9074310E+02;
  6.6166967E-01;  9.9999998E-03; -1.5999775E-01;6486; -1.5444702E-02;  0.0000000E+00; -3.9044293E-03;  1.0000832E+03;  1.0614753E-01;  6.8936317E+01;3; -1.2318147E+00;  0.0000000E+00;  1.7289503E+00;0; -2.3576558E-02;  3.5528453E+04;  0.0000000E+00; -3.7695283E-01;  4.0000000E+04;  0.0000000E+00;  3.9955230E+04; -3.7464403E-02;  0.0000000E+00;  1.3887845E-02;  7.9251477E+02;
  6.6166204E-01;  9.9999998E-03; -1.7000358E-01;6485; -1.5388511E-02;  0.0000000E+00; -4.0242146E-03;  1.0000146E+03;  1.0615339E-01;  1.2147803E+01;3; -1.1731652E+00;  0.0000000E+00;  1.7936325E+00;0; -2.4050180E-02;  3.5519461E+04;  0.0000000E+00; -3.1441656E-01;  4.0000000E+04;  0.0000000E+00;  3.9955633E+04; -3.6478575E-02;  0.0000000E+00;  1.2428395E-02;  6.7566418E+02;
  6.6166633E-01;  9.9999998E-03; -1.8000871E-01;6484; -1.5335759E-02;  0.0000000E+00; -4.1277092E-03;  9.9991858E+02;  1.0615946E-01; -6.7454880E+01;3; -1.1063635E+00;  0.0000000E+00;  1.8473485E+00;0; -2.4490125E-02;  3.5508602E+04;  0.0000000E+00; -2.4914435E-01;  4.0000000E+04;  0.0000000E+00;  3.9956336E+04; -3.5528816E-02;  0.0000000E+00;  1.1038691E-02;  5.3871552E+02;
  6.6168040E-01;  9.9999998E-03; -1.9001366E-01;6483; -1.5287843E-02;  0.0000000E+00; -4.2102439E-03;  9.9978662E+02;  1.0616510E-01; -1.7678511E+02;3; -1.0299500E+00;  0.0000000E+00;  1.8975992E+00;0; -2.4882331E-02;  3.5495602E+04;  0.0000000E+00; -1.7569843E-01;  4.0000000E+04;  0.0000000E+00;  3.9957305E+04; -3.4626700E-02;  0.0000000E+00;  9.7443676E-03;  3.6917612E+02;
  6.6170019E-01;  9.9999998E-03; -2.0001952E-01;6482; -1.5244732E-02;  0.0000000E+00; -4.2743799E-03;  9.9962256E+02;  1.0617015E-01; -3.1268250E+02;3; -9.4537508E-01;  0.0000000E+00;  1.9358991E+00;0; -2.5223862E-02;  3.5480684E+04;  0.0000000E+00; -8.9370184E-02;  4.0000000E+04;  0.0000000E+00;  3.9958602E+04; -3.3782277E-02;  0.0000000E+00;  8.5584139E-03;  1.6201378E+02;
  6.6172099E-01;  9.9999998E-03; -2.1002726E-01;6481; -1.5205918E-02;  0.0000000E+00; -4.3252297E-03;  9.9943231E+02;  1.0617392E-01; -4.7030765E+02;3; -8.5262132E-01;  0.0000000E+00;  1.9723612E+00;0; -2.5520690E-02;  3.5463770E+04;  0.0000000E+00;  6.2915180E-03;  4.0000000E+04;  0.0000000E+00;  3.9960590E+04; -3.3003073E-02;  0.0000000E+00;  7.4823834E-03;  2.1349138E+02;
  6.6173887E-01;  9.9999998E-03; -2.2003616E-01;6480; -1.5167453E-02;  0.0000000E+00; -4.3694712E-03;  9.9923083E+02;  1.0617704E-01; -6.3721649E+02;3; -7.5274032E-01;  0.0000000E+00;  2.0058079E+00;0; -2.5778929E-02;  3.5445684E+04;  0.0000000E+00;  9.0805881E-02;  4.0000000E+04;  0.0000000E+00;  3.9963211E+04; -3.2293174E-02;  0.0000000E+00;  6.5142456E-03;  5.9869330E+02;
  6.6175097E-01;  9.9999998E-03; -2.3004511E-01;6479; -1.5126466E-02;  0.0000000E+00; -4.4377744E-03;  9.9902722E+02;  1.0617916E-01; -8.0595245E+02;3; -6.4774096E-01;  0.0000000E+00;  2.0454087E+00;0; -2.5917312E-02;  3.5427297E+04;  0.0000000E+00;  1.1608075E-01;  4.0000000E+04;  0.0000000E+00;  3.9967797E+04; -3.1653766E-02;  0.0000000E+00;  5.7364535E-03;  1.1503251E+03;
  6.6175610E-01;  9.9999998E-03; -2.4006076E-01;6478; -1.5086634E-02;  0.0000000E+00; -4.5209406E-03;  9.9881299E+02;  1.0617968E-01; -9.8342889E+02;3; -5.3893405E-01;  0.0000000E+00;  2.0875144E+00;0; -2.5848407E-02;  3.5409539E+04;  0.0000000E+00; -4.3019834E-03;  4.0000000E+04;  0.0000000E+00;  3.9971512E+04; -3.1083869E-02;  0.0000000E+00;  5.2354615E-03;  1.6418514E+03;
  6.6173744E-01;  9.9999998E-03; -2.5008029E-01;6477; -1.5056180E-02;  0.0000000E+00; -4.5512244E-03;  9.9857306E+02;  1.0617909E-01; -1.1821887E+03;3; -4.2298424E-01;  0.0000000E+00;  2.1279347E+00;0; -2.5856614E-02;  3.5392617E+04;  0.0000000E+00; -4.1107413E-01;  4.0000000E+04;  0.0000000E+00;  3.9973578E+04; -3.0582441E-02;  0.0000000E+00;  4.7258269E-03;  2.0501929E+03;
  6.6164941E-01;  9.9999998E-03; -2.7011219E-01;6475; -1.5015389E-02;  0.0000000E+00; -4.5433505E-03;  9.9813123E+02;  1.0617355E-01; -1.5482524E+03;3; -1.7196576E-01;  0.0000000E+00;  2.1772363E+00;0; -2.6300225E-02;  3.5363730E+04;  0.0000000E+00; -2.7276564E+00;  4.0000000E+04;  0.0000000E+00;  3.9976781E+04; -2.9764717E-02;  0.0000000E+00;  3.4644930E-03;  5.0220732E+03;
  6.6168720E-01;  9.9999998E-03; -2.6009762E-01;6476; -1.5032963E-02;  0.0000000E+00; -4.5533553E-03;  9.9835101E+02;  1.0617708E-01; -1.3661342E+03;3; -2.9935059E-01;  0.0000000E+00;  2.1520598E+00;0; -2.6003923E-02;  3.5377797E+04;  0.0000000E+00; -1.2896035E+00;  4.0000000E+04;  0.0000000E+00;  3.9975156E+04; -3.0145178E-02;  0.0000000E+00;  4.1412534E-03;  3.0224082E+03;
  6.7181039E-01;  9.9999998E-03; -2.7015808E-01;6536; -1.5310221E-02;  0.0000000E+00; -4.6121548E-03;  9.9827045E+02;  1.0811607E-01; -1.4328976E+03;3; -8.5555054E-02;  0.0000000E+00;  2.3496220E+00;0; -2.6260531E-02;  3.4118141E+04;  0.0000000E+00; -4.4107928E+00;  4.0000000E+04;  0.0000000E+00;  3.9962797E+04; -2.9403208E-02;  0.0000000E+00;  3.1426779E-03;  7.7220308E+03;
  6.7177308E-01;  9.9999998E-03; -2.6014552E-01;6537; -1.5332134E-02;  0.0000000E+00; -4.6232822E-03;  9.9851862E+02;  1.0811608E-01; -1.2273232E+03;3; -2.1730821E-01;  0.0000000E+00;  2.3230917E+00;0; -2.5959829E-02;  3.4135895E+04;  0.0000000E+00; -2.3638091E+00;  4.0000000E+04;  0.0000000E+00;  3.9960711E+04; -2.9819123E-02;  0.0000000E+00;  3.8592953E-03;  4.4692700E+03;
  6.7177176E-01;  9.9999998E-03; -2.5013247E-01;6538; -1.5356993E-02;  0.0000000E+00; -4.6131667E-03;  9.9876874E+02;  1.0811627E-01; -1.0200698E+03;3; -3.4464660E-01;  0.0000000E+00;  2.2968764E+00;0; -2.5865324E-02;  3.4153465E+04;  0.0000000E+00; -9.9145967E-01;  4.0000000E+04;  0.0000000E+00;  3.9958500E+04; -3.0294888E-02;  0.0000000E+00;  4.4295639E-03;  2.3708733E+03;
  6.7178065E-01;  9.9999998E-03; -2.4012066E-01;6539; -1.5389053E-02;  0.0000000E+00; -4.5735380E-03;  9.9901355E+02;  1.0811513E-01; -8.1726080E+02;3; -4.6274972E-01;  0.0000000E+00;  2.2544084E+00;0; -2.5880452E-02;  3.4171250E+04;  0.0000000E+00; -2.4549067E-01;  4.0000000E+04;  0.0000000E+00;  3.9955535E+04; -3.0838467E-02;  0.0000000E+00;  4.9580159E-03;  1.2717896E+03;
  6.7179137E-01;  9.9999998E-03; -2.3011714E-01;6540; -1.5428385E-02;  0.0000000E+00; -4.5020338E-03;  9.9923138E+02;  1.0811218E-01; -6.3677209E+02;3; -5.7353735E-01;  0.0000000E+00;  2.2165685E+00;0; -2.5880195E-02;  3.4190395E+04;  0.0000000E+00;  7.1358427E-02;  4.0000000E+04;  0.0000000E+00;  3.9950602E+04; -3.1454660E-02;  0.0000000E+00;  5.5744643E-03;  5.4741602E+02;
  6.7180037E-01;  9.9999998E-03; -2.2011466E-01;6541; -1.5467982E-02;  0.0000000E+00; -4.4800700E-03;  9.9946521E+02;  1.0810775E-01; -4.4304916E+02;3; -6.8112862E-01;  0.0000000E+00;  2.1848152E+00;0; -2.5636442E-02;  3.4209895E+04;  0.0000000E+00;  1.4304180E-01;  4.0000000E+04;  0.0000000E+00;  3.9947902E+04; -3.2145415E-02;  0.0000000E+00;  6.5089730E-03;  2.1818497E+02;
  6.7180467E-01;  9.9999998E-03; -2.1009533E-01;6542; -1.5508995E-02;  0.0000000E+00; -4.4693388E-03;  9.9971167E+02;  1.0810217E-01; -2.3885742E+02;3; -7.8369898E-01;  0.0000000E+00;  2.1563897E+00;0; -2.5358476E-02;  3.4228863E+04;  0.0000000E+00;  9.9600524E-02;  4.0000000E+04;  0.0000000E+00;  3.9947766E+04; -3.2913312E-02;  0.0000000E+00;  7.5548375E-03;  1.5832239E+02;
  6.7180538E-01;  9.9999998E-03; -2.0006832E-01;6543; -1.5554260E-02;  0.0000000E+00; -4.4191936E-03;  9.9992865E+02;  1.0809516E-01; -5.9109436E+01;3; -8.7629402E-01;  0.0000000E+00;  2.1142051E+00;0; -2.5086530E-02;  3.4246902E+04;  0.0000000E+00;  1.6807266E-02;  4.0000000E+04;  0.0000000E+00;  3.9947363E+04; -3.3756647E-02;  0.0000000E+00;  8.6701186E-03;  4.8383121E+01;
  6.7180365E-01;  9.9999998E-03; -1.9004390E-01;6544; -1.5605312E-02;  0.0000000E+00; -4.3425383E-03;  1.0000941E+03;  1.0808740E-01;  7.8022476E+01;3; -9.5958185E-01;  0.0000000E+00;  2.0687170E+00;0; -2.4762686E-02;  3.4262965E+04;  0.0000000E+00; -7.0692927E-02;  4.0000000E+04;  0.0000000E+00;  3.9946207E+04; -3.4669209E-02;  0.0000000E+00;  9.9065239E-03;  1.8023877E+02;
  6.7180258E-01;  9.9999998E-03; -1.8002406E-01;6545; -1.5663289E-02;  0.0000000E+00; -4.2448551E-03;  1.0002222E+03;  1.0807878E-01;  1.8409355E+02;3; -1.0322710E+00;  0.0000000E+00;  2.0109911E+00;0; -2.4378810E-02;  3.4276648E+04;  0.0000000E+00; -1.5230331E-01;  4.0000000E+04;  0.0000000E+00;  3.9944887E+04; -3.5642255E-02;  0.0000000E+00;  1.1263445E-02;  3.8615237E+02;
  6.7180490E-01;  9.9999998E-03; -1.7000803E-01;6546; -1.5727125E-02;  0.0000000E+00; -4.1251117E-03;  1.0003092E+03;  1.0807087E-01;  2.5619028E+02;3; -1.0947828E+00;  0.0000000E+00;  1.9421228E+00;0; -2.3944650E-02;  3.4288000E+04;  0.0000000E+00; -2.2923315E-01;  4.0000000E+04;  0.0000000E+00;  3.9943953E+04; -3.6663961E-02;  0.0000000E+00;  1.2719310E-02;  5.6973444E+02;
  6.7181325E-01;  9.9999998E-03; -1.5999469E-01;6547; -1.5795754E-02;  0.0000000E+00; -3.9864187E-03;  1.0003657E+03;  1.0806111E-01;  3.0300375E+02;3; -1.1506854E+00;  0.0000000E+00;  1.8697816E+00;0; -2.3479840E-02;  3.4296895E+04;  0.0000000E+00; -3.0535239E-01;  4.0000000E+04;  0.0000000E+00;  3.9943422E+04; -3.7721653E-02;  0.0000000E+00;  1.4241813E-02;  7.2493988E+02;
  6.7182791E-01;  9.9999998E-03; -1.4998339E-01;6548; -1.5867729E-02;  0.0000000E+00; -3.8344390E-03;  1.0003837E+03;  1.0805163E-01;  3.1791690E+02;3; -1.2006452E+00;  0.0000000E+00;  1.7932670E+00;0; -2.3009177E-02;  3.4303773E+04;  0.0000000E+00; -3.8109618E-01;  4.0000000E+04;  0.0000000E+00;  3.9943215E+04; -3.8801886E-02;  0.0000000E+00;  1.5792709E-02;  8.5341217E+02;
  6.7184764E-01;  9.9999998E-03; -1.3997398E-01;6549; -1.5940879E-02;  0.0000000E+00; -3.6705700E-03;  1.0003844E+03;  1.0804205E-01;  3.1850949E+02;3; -1.2470505E+00;  0.0000000E+00;  1.7099140E+00;0; -2.2555590E-02;  3.4308656E+04;  0.0000000E+00; -4.5058423E-01;  4.0000000E+04;  0.0000000E+00;  3.9942957E+04; -3.9891545E-02;  0.0000000E+00;  1.7335955E-02;  9.5071356E+02;
  6.7186987E-01;  9.9999998E-03; -1.2996677E-01;6550; -1.6014943E-02;  0.0000000E+00; -3.4950320E-03;  1.0003607E+03;  1.0803253E-01;  2.9875696E+02;3; -1.2905788E+00;  0.0000000E+00;  1.6226400E+00;0; -2.2132840E-02;  3.4312586E+04;  0.0000000E+00; -5.0363803E-01;  4.0000000E+04;  0.0000000E+00;  3.9943359E+04; -4.0978424E-02;  0.0000000E+00;  1.8845584E-02;  1.0058952E+03;
  6.7189300E-01;  9.9999998E-03; -1.1996202E-01;6551; -1.6090434E-02;  0.0000000E+00; -3.3071977E-03;  1.0003382E+03;  1.0802379E-01;  2.8018958E+02;3; -1.3311613E+00;  0.0000000E+00;  1.5302905E+00;0; -2.1744376E-02;  3.4315945E+04;  0.0000000E+00; -5.3130317E-01;  4.0000000E+04;  0.0000000E+00;  3.9943922E+04; -4.2050201E-02;  0.0000000E+00;  2.0305825E-02;  1.0104256E+03;
  6.7191517E-01;  9.9999998E-03; -1.0995989E-01;6552; -1.6168710E-02;  0.0000000E+00; -3.1042697E-03;  1.0003139E+03;  1.0801467E-01;  2.6004202E+02;3; -1.3681494E+00;  0.0000000E+00;  1.4351501E+00;0; -2.1393074E-02;  3.4319102E+04;  0.0000000E+00; -5.2888334E-01;  4.0000000E+04;  0.0000000E+00;  3.9944883E+04; -4.3094613E-02;  0.0000000E+00;  2.1701539E-02;  9.6447168E+02;
  6.8220526E-01;  9.9999998E-03; -2.7020770E-01;6597; -1.5592839E-02;  0.0000000E+00; -4.6751532E-03;  9.9820593E+02;  1.1035354E-01; -1.4863282E+03;3;  3.8349470E-03;  0.0000000E+00;  2.5367403E+00;0; -2.6265688E-02;  3.2750939E+04;  0.0000000E+00; -5.7633772E+00;  4.0000000E+04;  0.0000000E+00;  3.9949445E+04; -2.8984986E-02;  0.0000000E+00;  2.7192989E-03;  1.0345507E+04;
  6.8208903E-01;  9.9999998E-03; -2.6019639E-01;6598; -1.5622880E-02;  0.0000000E+00; -4.6835043E-03;  9.9845752E+02;  1.1034176E-01; -1.2779391E+03;3; -1.3191657E-01;  0.0000000E+00;  2.5066283E+00;0; -2.5984818E-02;  3.2774766E+04;  0.0000000E+00; -3.3086760E+00;  4.0000000E+04;  0.0000000E+00;  3.9946922E+04; -2.9445214E-02;  0.0000000E+00;  3.4603968E-03;  6.2296455E+03;
  6.8204045E-01;  9.9999998E-03; -2.5018612E-01;6599; -1.5652221E-02;  0.0000000E+00; -4.6684500E-03;  9.9870001E+02;  1.1033082E-01; -1.0770065E+03;3; -2.6176730E-01;  0.0000000E+00;  2.4742258E+00;0; -2.5902102E-02;  3.2797543E+04;  0.0000000E+00; -1.5354316E+00;  4.0000000E+04;  0.0000000E+00;  3.9944258E+04; -2.9968230E-02;  0.0000000E+00;  4.0661287E-03;  3.2733760E+03;
  6.8205667E-01;  9.9999998E-03; -2.4017960E-01;6600; -1.5687345E-02;  0.0000000E+00; -4.6264674E-03;  9.9892438E+02;  1.1032353E-01; -8.9113519E+02;3; -3.8210914E-01;  0.0000000E+00;  2.4330826E+00;0; -2.5895052E-02;  3.2817461E+04;  0.0000000E+00; -4.7276345E-01;  4.0000000E+04;  0.0000000E+00;  3.9940621E+04; -3.0562297E-02;  0.0000000E+00;  4.6672458E-03;  1.4875525E+03;
  6.8207008E-01;  9.9999998E-03; -2.3018448E-01;6601; -1.5726291E-02;  0.0000000E+00; -4.5727254E-03;  9.9913916E+02;  1.1031590E-01; -7.1316498E+02;3; -4.9503657E-01;  0.0000000E+00;  2.3925550E+00;0; -2.5807604E-02;  3.2837770E+04;  0.0000000E+00;  3.1035513E-02;  4.0000000E+04;  0.0000000E+00;  3.9935566E+04; -3.1233890E-02;  0.0000000E+00;  5.4262858E-03;  4.1210898E+02;
  6.8206710E-01;  9.9999998E-03; -2.2018494E-01;6602; -1.5766770E-02;  0.0000000E+00; -4.5888610E-03;  9.9938971E+02;  1.1030684E-01; -5.0561530E+02;3; -6.0817921E-01;  0.0000000E+00;  2.3751667E+00;0; -2.5481123E-02;  3.2858977E+04;  0.0000000E+00;  2.0791326E-01;  4.0000000E+04;  0.0000000E+00;  3.9933844E+04; -3.1986143E-02;  0.0000000E+00;  6.5050209E-03;  2.3038844E+02;
  6.8204957E-01;  9.9999998E-03; -2.1015619E-01;6603; -1.5813595E-02;  0.0000000E+00; -4.6000606E-03;  9.9966962E+02;  1.1029662E-01; -2.7372064E+02;3; -7.1204495E-01;  0.0000000E+00;  2.3503256E+00;0; -2.5199290E-02;  3.2879730E+04;  0.0000000E+00;  2.2303106E-01;  4.0000000E+04;  0.0000000E+00;  3.9935363E+04; -3.2822892E-02;  0.0000000E+00;  7.6236022E-03;  4.0741379E+02;
  6.8202895E-01;  9.9999998E-03; -2.0011562E-01;6604; -1.5866969E-02;  0.0000000E+00; -4.5539993E-03;  9.9990161E+02;  1.1028607E-01; -8.1528549E+01;3; -8.0299717E-01;  0.0000000E+00;  2.3063087E+00;0; -2.4948195E-02;  3.2899391E+04;  0.0000000E+00;  1.7183013E-01;  4.0000000E+04;  0.0000000E+00;  3.9935902E+04; -3.3739381E-02;  0.0000000E+00;  8.7911868E-03;  3.8733124E+02;
  6.8200910E-01;  9.9999998E-03; -1.9008000E-01;6605; -1.5928043E-02;  0.0000000E+00; -4.4688536E-03;  1.0000717E+03;  1.1027415E-01;  5.9356342E+01;3; -8.8385212E-01;  0.0000000E+00;  2.2490695E+00;0; -2.4643295E-02;  3.2917039E+04;  0.0000000E+00;  9.8972313E-02;  4.0000000E+04;  0.0000000E+00;  3.9934465E+04; -3.4727398E-02;  0.0000000E+00;  1.0084103E-02;  1.7604050E+02;
  6.8199223E-01;  9.9999998E-03; -1.8005134E-01;6606; -1.5997175E-02;  0.0000000E+00; -4.3597254E-03;  1.0001917E+03;  1.1026178E-01;  1.5881032E+02;3; -9.5083845E-01;  0.0000000E+00;  2.1808512E+00;0; -2.4270900E-02;  3.2932078E+04;  0.0000000E+00;  2.0856269E-02;  4.0000000E+04;  0.0000000E+00;  3.9932973E+04; -3.5776459E-02;  0.0000000E+00;  1.1505559E-02;  8.6568726E+01;
  6.8197936E-01;  9.9999998E-03; -1.7002861E-01;6607; -1.6074231E-02;  0.0000000E+00; -4.2238366E-03;  1.0002648E+03;  1.1024835E-01;  2.1935181E+02;3; -1.0084075E+00;  0.0000000E+00;  2.0969110E+00;0; -2.3846813E-02;  3.2944074E+04;  0.0000000E+00; -5.9167549E-02;  4.0000000E+04;  0.0000000E+00;  3.9931527E+04; -3.6873978E-02;  0.0000000E+00;  1.3027166E-02;  3.1986639E+02;
  6.8197137E-01;  9.9999998E-03; -1.6001053E-01;6608; -1.6157081E-02;  0.0000000E+00; -4.0669530E-03;  1.0002957E+03;  1.1023516E-01;  2.4493132E+02;3; -1.0613379E+00;  0.0000000E+00;  2.0143316E+00;0; -2.3394153E-02;  3.2953684E+04;  0.0000000E+00; -1.4172302E-01;  4.0000000E+04;  0.0000000E+00;  3.9930094E+04; -3.8005639E-02;  0.0000000E+00;  1.4611487E-02;  5.1315558E+02;
  6.8196791E-01;  9.9999998E-03; -1.4999512E-01;6609; -1.6242679E-02;  0.0000000E+00; -3.8956434E-03;  1.0002863E+03;  1.1022166E-01;  2.3712907E+02;3; -1.1083689E+00;  0.0000000E+00;  1.9260687E+00;0; -2.2940582E-02;  3.2960289E+04;  0.0000000E+00; -2.2584951E-01;  4.0000000E+04;  0.0000000E+00;  3.9929695E+04; -3.9157081E-02;  0.0000000E+00;  1.6216500E-02;  6.6829547E+02;
  6.8196732E-01;  9.9999998E-03; -1.3998207E-01;6610; -1.6329154E-02;  0.0000000E+00; -3.7148574E-03;  1.0002425E+03;  1.1020774E-01;  2.0088319E+02;3; -1.1534964E+00;  0.0000000E+00;  1.8356071E+00;0; -2.2510447E-02;  3.2964898E+04;  0.0000000E+00; -3.0599117E-01;  4.0000000E+04;  0.0000000E+00;  3.9929336E+04; -4.0314615E-02;  0.0000000E+00;  1.7804168E-02;  7.8705859E+02;
  6.8196791E-01;  9.9999998E-03; -1.2997188E-01;6611; -1.6416065E-02;  0.0000000E+00; -3.5274553E-03;  1.0001804E+03;  1.1019445E-01;  1.4942786E+02;3; -1.1939684E+00;  0.0000000E+00;  1.7472007E+00;0; -2.2117563E-02;  3.2967773E+04;  0.0000000E+00; -3.7249920E-01;  4.0000000E+04;  0.0000000E+00;  3.9929652E+04; -4.1465759E-02;  0.0000000E+00;  1.9348197E-02;  8.6346130E+02;
  6.8196839E-01;  9.9999998E-03; -1.1996483E-01;6612; -1.6504565E-02;  0.0000000E+00; -3.3312440E-03;  1.0001040E+03;  1.1018089E-01;  8.6121017E+01;3; -1.2313749E+00;  0.0000000E+00;  1.6482955E+00;0; -2.1765038E-02;  3.2969984E+04;  0.0000000E+00; -4.1603798E-01;  4.0000000E+04;  0.0000000E+00;  3.9930258E+04; -4.2598318E-02;  0.0000000E+00;  2.0833280E-02;  8.9050287E+02;
  6.8196779E-01;  9.9999998E-03; -1.0996091E-01;6613; -1.6595708E-02;  0.0000000E+00; -3.1226811E-03;  1.0000295E+03;  1.1016810E-01;  2.4493134E+01;3; -1.2653750E+00;  0.0000000E+00;  1.5419025E+00;0; -2.1454701E-02;  3.2971699E+04;  0.0000000E+00; -4.3090051E-01;  4.0000000E+04;  0.0000000E+00;  3.9931082E+04; -4.3699730E-02;  0.0000000E+00;  2.2245029E-02;  8.6762177E+02;
  6.9366878E-01;  9.9999998E-03; -2.7026412E-01;6658; -1.5895339E-02;  0.0000000E+00; -4.7483351E-03;  9.9801801E+02;  1.1302149E-01; -1.6420275E+03;3;  1.0367528E-01;  0.0000000E+00;  2.7516437E+00;0; -2.6202634E-02;  3.1223533E+04;  0.0000000E+00; -4.7349830E+00;  4.0000000E+04;  0.0000000E+00;  3.9934602E+04; -2.8484415E-02;  0.0000000E+00;  2.2817806E-03;  9.2726797E+03;
  6.9340634E-01;  9.9999998E-03; -2.6025218E-01;6659; -1.5929466E-02;  0.0000000E+00; -4.7497163E-03;  9.9822034E+02;  1.1297819E-01; -1.4744274E+03;3; -3.6437575E-02;  0.0000000E+00;  2.7148988E+00;0; -2.5987495E-02;  3.1259924E+04;  0.0000000E+00; -2.8509398E+00;  4.0000000E+04;  0.0000000E+00;  3.9932555E+04; -2.9000925E-02;  0.0000000E+00;  3.0134295E-03;  5.9694023E+03;
  6.9322819E-01;  9.9999998E-03; -2.5024256E-01;6660; -1.5962277E-02;  0.0000000E+00; -4.7304523E-03;  9.9842719E+02;  1.1294331E-01; -1.3030248E+03;3; -1.7045760E-01;  0.0000000E+00;  2.6793175E+00;0; -2.5907498E-02;  3.1292664E+04;  0.0000000E+00; -1.3535448E+00;  4.0000000E+04;  0.0000000E+00;  3.9929938E+04; -2.9585147E-02;  0.0000000E+00;  3.6776499E-03;  3.3658865E+03;
  6.9310004E-01;  9.9999998E-03; -2.4023844E-01;6661; -1.5997574E-02;  0.0000000E+00; -4.6965382E-03;  9.9864240E+02;  1.1291521E-01; -1.1247582E+03;3; -2.9474020E-01;  0.0000000E+00;  2.6314971E+00;0; -2.5828863E-02;  3.1322549E+04;  0.0000000E+00; -4.0556273E-01;  4.0000000E+04;  0.0000000E+00;  3.9926422E+04; -3.0245518E-02;  0.0000000E+00;  4.4166553E-03;  1.6812841E+03;
  6.9299692E-01;  9.9999998E-03; -2.3024729E-01;6662; -1.6036097E-02;  0.0000000E+00; -4.6595992E-03;  9.9884589E+02;  1.1288901E-01; -9.5617041E+02;3; -4.1227120E-01;  0.0000000E+00;  2.5959530E+00;0; -2.5672710E-02;  3.1351596E+04;  0.0000000E+00;  9.9980056E-02;  4.0000000E+04;  0.0000000E+00;  3.9921000E+04; -3.0986905E-02;  0.0000000E+00;  5.3141960E-03;  5.8120538E+02;
  6.9290537E-01;  9.9999998E-03; -2.2025609E-01;6663; -1.6080223E-02;  0.0000000E+00; -4.6833875E-03;  9.9909088E+02;  1.1286337E-01; -7.5316382E+02;3; -5.2680320E-01;  0.0000000E+00;  2.5787616E+00;0; -2.5339168E-02;  3.1379795E+04;  0.0000000E+00;  3.2053825E-01;  4.0000000E+04;  0.0000000E+00;  3.9918719E+04; -3.1813543E-02;  0.0000000E+00;  6.4743753E-03;  3.7637888E+02;
  6.9282454E-01;  9.9999998E-03; -2.1023083E-01;6664; -1.6134610E-02;  0.0000000E+00; -4.7105215E-03;  9.9937531E+02;  1.1284046E-01; -5.1756555E+02;3; -6.3213843E-01;  0.0000000E+00;  2.5556412E+00;0; -2.5051307E-02;  3.1406127E+04;  0.0000000E+00;  3.8200355E-01;  4.0000000E+04;  0.0000000E+00;  3.9921168E+04; -3.2729186E-02;  0.0000000E+00;  7.6778801E-03;  6.6983447E+02;
  6.9276226E-01;  9.9999998E-03; -2.0018679E-01;6665; -1.6199324E-02;  0.0000000E+00; -4.6730191E-03;  9.9961926E+02;  1.1282057E-01; -3.1544785E+02;3; -7.2283459E-01;  0.0000000E+00;  2.5104990E+00;0; -2.4813119E-02;  3.1429549E+04;  0.0000000E+00;  3.6764804E-01;  4.0000000E+04;  0.0000000E+00;  3.9922113E+04; -3.3728242E-02;  0.0000000E+00;  8.9151235E-03;  7.5019330E+02;
  6.9271708E-01;  9.9999998E-03; -1.9014683E-01;6666; -1.6274082E-02;  0.0000000E+00; -4.5877802E-03;  9.9978723E+02;  1.1280186E-01; -1.7629129E+02;3; -7.9671371E-01;  0.0000000E+00;  2.4420021E+00;0; -2.4525385E-02;  3.1449596E+04;  0.0000000E+00;  3.2034633E-01;  4.0000000E+04;  0.0000000E+00;  3.9920875E+04; -3.4800053E-02;  0.0000000E+00;  1.0274667E-02;  5.8245831E+02;
  6.9268358E-01;  9.9999998E-03; -1.8011568E-01;6667; -1.6359108E-02;  0.0000000E+00; -4.4694627E-03;  9.9989734E+02;  1.1278380E-01; -8.5034622E+01;3; -8.5841382E-01;  0.0000000E+00;  2.3619554E+00;0; -2.4168655E-02;  3.1466111E+04;  0.0000000E+00;  2.5778535E-01;  4.0000000E+04;  0.0000000E+00;  3.9918977E+04; -3.5932247E-02;  0.0000000E+00;  1.1763592E-02;  3.5861514E+02;
  6.9265819E-01;  9.9999998E-03; -1.7009108E-01;6668; -1.6453164E-02;  0.0000000E+00; -4.3192804E-03;  9.9994836E+02;  1.1276562E-01; -4.2764221E+01;3; -9.1105896E-01;  0.0000000E+00;  2.2632365E+00;0; -2.3758434E-02;  3.1478955E+04;  0.0000000E+00;  1.8586098E-01;  4.0000000E+04;  0.0000000E+00;  3.9917066E+04; -3.7110887E-02;  0.0000000E+00;  1.3352453E-02;  2.4765211E+02;
  6.9263923E-01;  9.9999998E-03; -1.6007113E-01;6669; -1.6552672E-02;  0.0000000E+00; -4.1461736E-03;  9.9994824E+02;  1.1274809E-01; -4.2862984E+01;3; -9.6007812E-01;  0.0000000E+00;  2.1748610E+00;0; -2.3320515E-02;  3.1488305E+04;  0.0000000E+00;  1.0709086E-01;  4.0000000E+04;  0.0000000E+00;  3.9915715E+04; -3.8320392E-02;  0.0000000E+00;  1.4999879E-02;  3.1710019E+02;
  6.9262606E-01;  9.9999998E-03; -1.5005413E-01;6670; -1.6654221E-02;  0.0000000E+00; -3.9591831E-03;  9.9990411E+02;  1.1273090E-01; -7.9454536E+01;3; -1.0041308E+00;  0.0000000E+00;  2.0764728E+00;0; -2.2885246E-02;  3.1494180E+04;  0.0000000E+00;  2.4393216E-02;  4.0000000E+04;  0.0000000E+00;  3.9914605E+04; -3.9545804E-02;  0.0000000E+00;  1.6660558E-02;  4.3445511E+02;
  6.9261628E-01;  9.9999998E-03; -1.4003919E-01;6671; -1.6756216E-02;  0.0000000E+00; -3.7641649E-03;  9.9981317E+02;  1.1271386E-01; -1.5476105E+02;3; -1.0464543E+00;  0.0000000E+00;  1.9798027E+00;0; -2.2478757E-02;  3.1497191E+04;  0.0000000E+00; -5.7214666E-02;  4.0000000E+04;  0.0000000E+00;  3.9914277E+04; -4.0773485E-02;  0.0000000E+00;  1.8294727E-02;  5.3356812E+02;
  6.9260681E-01;  9.9999998E-03; -1.3002646E-01;6672; -1.6858475E-02;  0.0000000E+00; -3.5637591E-03;  9.9969525E+02;  1.1269723E-01; -2.5248666E+02;3; -1.0855665E+00;  0.0000000E+00;  1.8764516E+00;0; -2.2115327E-02;  3.1498410E+04;  0.0000000E+00; -1.3003926E-01;  4.0000000E+04;  0.0000000E+00;  3.9914062E+04; -4.1990966E-02;  0.0000000E+00;  1.9875638E-02;  5.9894592E+02;
  6.9259399E-01;  9.9999998E-03; -1.2001622E-01;6673; -1.6961878E-02;  0.0000000E+00; -3.3550211E-03;  9.9955798E+02;  1.1267979E-01; -3.6621182E+02;3; -1.1204934E+00;  0.0000000E+00;  1.7680856E+00;0; -2.1797894E-02;  3.1498479E+04;  0.0000000E+00; -1.8604098E-01;  4.0000000E+04;  0.0000000E+00;  3.9914367E+04; -4.3185901E-02;  0.0000000E+00;  2.1388007E-02;  6.2487695E+02;
  6.9257629E-01;  9.9999998E-03; -1.1000860E-01;6674; -1.7067565E-02;  0.0000000E+00; -3.1359608E-03;  9.9942755E+02;  1.1266281E-01; -4.7425815E+02;3; -1.1509117E+00;  0.0000000E+00;  1.6538957E+00;0; -2.1527944E-02;  3.1498693E+04;  0.0000000E+00; -2.1969180E-01;  4.0000000E+04;  0.0000000E+00;  3.9915156E+04; -4.4345554E-02;  0.0000000E+00;  2.2817610E-02;  6.1237543E+02;
  7.0619935E-01;  9.9999998E-03; -2.7033466E-01;6719; -1.6200583E-02;  0.0000000E+00; -4.8130010E-03;  9.9818091E+02;  1.1626185E-01; -1.5070684E+03;3;  2.1463059E-01;  0.0000000E+00;  2.9909461E+00;0; -2.6298830E-02;  2.9538633E+04;  0.0000000E+00; -3.1470454E+00;  4.0000000E+04;  0.0000000E+00;  3.9913074E+04; -2.7898287E-02;  0.0000000E+00;  1.5994565E-03;  7.1193198E+03;
  7.0585454E-01;  9.9999998E-03; -2.6032168E-01;6720; -1.6241623E-02;  0.0000000E+00; -4.8191557E-03;  9.9828699E+02;  1.1619013E-01; -1.4192190E+03;3;  6.9694184E-02;  0.0000000E+00;  2.9558311E+00;0; -2.5998797E-02;  2.9580961E+04;  0.0000000E+00; -1.8253982E+00;  4.0000000E+04;  0.0000000E+00;  3.9911938E+04; -2.8477324E-02;  0.0000000E+00;  2.4785274E-03;  4.6496685E+03;
  7.0557517E-01;  9.9999998E-03; -2.5031173E-01;6721; -1.6281812E-02;  0.0000000E+00; -4.8072068E-03;  9.9840845E+02;  1.1612611E-01; -1.3185798E+03;3; -6.7980394E-02;  0.0000000E+00;  2.9162905E+00;0; -2.5831878E-02;  2.9621312E+04;  0.0000000E+00; -7.4522507E-01;  4.0000000E+04;  0.0000000E+00;  3.9910039E+04; -2.9132301E-02;  0.0000000E+00;  3.3004226E-03;  2.6669932E+03;
  7.0537394E-01;  9.9999998E-03; -2.4030784E-01;6722; -1.6324278E-02;  0.0000000E+00; -4.7938274E-03;  9.9855566E+02;  1.1607354E-01; -1.1966080E+03;3; -1.9659589E-01;  0.0000000E+00;  2.8766339E+00;0; -2.5633268E-02;  2.9657135E+04;  0.0000000E+00; -2.6494429E-02;  4.0000000E+04;  0.0000000E+00;  3.9907215E+04; -2.9869046E-02;  0.0000000E+00;  4.2357775E-03;  1.3817526E+03;
  7.0519781E-01;  9.9999998E-03; -2.3031829E-01;6723; -1.6370328E-02;  0.0000000E+00; -4.7705392E-03;  9.9870911E+02;  1.1602541E-01; -1.0695005E+03;3; -3.2002455E-01;  0.0000000E+00;  2.8414359E+00;0; -2.5446478E-02;  2.9692250E+04;  0.0000000E+00;  3.6023280E-01;  4.0000000E+04;  0.0000000E+00;  3.9902754E+04; -3.0693239E-02;  0.0000000E+00;  5.2467599E-03;  6.0331213E+02;
  7.0504498E-01;  9.9999998E-03; -2.2034973E-01;6724; -1.6423624E-02;  0.0000000E+00; -4.7658901E-03;  9.9887177E+02;  1.1598013E-01; -9.3473895E+02;3; -4.3064329E-01;  0.0000000E+00;  2.8044925E+00;0; -2.5194027E-02;  2.9726082E+04;  0.0000000E+00;  5.3662318E-01;  4.0000000E+04;  0.0000000E+00;  3.9898117E+04; -3.1606112E-02;  0.0000000E+00;  6.4120856E-03;  5.4469080E+02;
  7.0490241E-01;  9.9999998E-03; -2.1036406E-01;6725; -1.6488893E-02;  0.0000000E+00; -4.7984519E-03;  9.9910956E+02;  1.1593700E-01; -7.3770746E+02;3; -5.3806800E-01;  0.0000000E+00;  2.7899430E+00;0; -2.4900284E-02;  2.9759105E+04;  0.0000000E+00;  5.9388328E-01;  4.0000000E+04;  0.0000000E+00;  3.9899066E+04; -3.2610063E-02;  0.0000000E+00;  7.7097788E-03;  7.2524091E+02;
  7.0479053E-01;  9.9999998E-03; -2.0034370E-01;6726; -1.6569193E-02;  0.0000000E+00; -4.7850804E-03;  9.9935999E+02;  1.1590143E-01; -5.3025659E+02;3; -6.2435186E-01;  0.0000000E+00;  2.7372844E+00;0; -2.4657091E-02;  2.9787648E+04;  0.0000000E+00;  5.9336901E-01;  4.0000000E+04;  0.0000000E+00;  3.9901496E+04; -3.3701420E-02;  0.0000000E+00;  9.0443287E-03;  8.4119391E+02;
  7.0471174E-01;  9.9999998E-03; -1.9031221E-01;6727; -1.6664525E-02;  0.0000000E+00; -4.7048018E-03;  9.9953741E+02;  1.1587207E-01; -3.8324838E+02;3; -6.9148028E-01;  0.0000000E+00;  2.6604156E+00;0; -2.4389526E-02;  2.9811188E+04;  0.0000000E+00;  5.6574172E-01;  4.0000000E+04;  0.0000000E+00;  3.9901961E+04; -3.4867935E-02;  0.0000000E+00;  1.0478409E-02;  8.5564972E+02;
  7.0465410E-01;  9.9999998E-03; -1.8028449E-01;6728; -1.6771909E-02;  0.0000000E+00; -4.5797094E-03;  9.9965308E+02;  1.1584578E-01; -2.8739926E+02;3; -7.4697399E-01;  0.0000000E+00;  2.5657191E+00;0; -2.4055045E-02;  2.9830445E+04;  0.0000000E+00;  5.2319580E-01;  4.0000000E+04;  0.0000000E+00;  3.9901105E+04; -3.6093384E-02;  0.0000000E+00;  1.2038338E-02;  7.7059540E+02;
  7.0461851E-01;  9.9999998E-03; -1.7026241E-01;6729; -1.6887527E-02;  0.0000000E+00; -4.4197803E-03;  9.9970508E+02;  1.1582267E-01; -2.4433875E+02;3; -7.9431975E-01;  0.0000000E+00;  2.4638813E+00;0; -2.3663908E-02;  2.9844293E+04;  0.0000000E+00;  4.6973306E-01;  4.0000000E+04;  0.0000000E+00;  3.9899461E+04; -3.7361234E-02;  0.0000000E+00;  1.3697325E-02;  6.7964825E+02;
  7.0460093E-01;  9.9999998E-03; -1.6024527E-01;6730; -1.7007355E-02;  0.0000000E+00; -4.2333598E-03;  9.9968121E+02;  1.1580241E-01; -2.6409128E+02;3; -8.4035504E-01;  0.0000000E+00;  2.3622959E+00;0; -2.3243882E-02;  2.9852963E+04;  0.0000000E+00;  4.0788370E-01;  4.0000000E+04;  0.0000000E+00;  3.9897973E+04; -3.8655095E-02;  0.0000000E+00;  1.5411212E-02;  6.3258777E+02;
  7.0459896E-01;  9.9999998E-03; -1.5023085E-01;6731; -1.7128093E-02;  0.0000000E+00; -4.0338757E-03;  9.9960303E+02;  1.1578504E-01; -3.2887958E+02;3; -8.8252115E-01;  0.0000000E+00;  2.2603102E+00;0; -2.2827610E-02;  2.9856430E+04;  0.0000000E+00;  3.4109953E-01;  4.0000000E+04;  0.0000000E+00;  3.9896672E+04; -3.9960254E-02;  0.0000000E+00;  1.7132644E-02;  6.2363458E+02;
  7.0461023E-01;  9.9999998E-03; -1.4021738E-01;6732; -1.7249160E-02;  0.0000000E+00; -3.8267551E-03;  9.9946680E+02;  1.1577030E-01; -4.4176526E+02;3; -9.1937983E-01;  0.0000000E+00;  2.1535518E+00;0; -2.2443319E-02;  2.9855521E+04;  0.0000000E+00;  2.7298579E-01;  4.0000000E+04;  0.0000000E+00;  3.9896062E+04; -4.1263744E-02;  0.0000000E+00;  1.8820425E-02;  6.1980444E+02;
  7.0462888E-01;  9.9999998E-03; -1.3020433E-01;6733; -1.7370872E-02;  0.0000000E+00; -3.6141505E-03;  9.9929718E+02;  1.1575778E-01; -5.8225507E+02;3; -9.5488805E-01;  0.0000000E+00;  2.0418015E+00;0; -2.2106625E-02;  2.9851158E+04;  0.0000000E+00;  2.0742980E-01;  4.0000000E+04;  0.0000000E+00;  3.9895512E+04; -4.2553559E-02;  0.0000000E+00;  2.0446934E-02;  5.9632629E+02;
  7.0464969E-01;  9.9999998E-03; -1.2019142E-01;6734; -1.7494179E-02;  0.0000000E+00; -3.3948065E-03;  9.9910315E+02;  1.1574624E-01; -7.4304065E+02;3; -9.8586893E-01;  0.0000000E+00;  1.9229254E+00;0; -2.1821011E-02;  2.9844969E+04;  0.0000000E+00;  1.4885212E-01;  4.0000000E+04;  0.0000000E+00;  3.9895648E+04; -4.3817393E-02;  0.0000000E+00;  2.1996383E-02;  5.4726166E+02;
  7.0466673E-01;  9.9999998E-03; -1.1017885E-01;6735; -1.7620018E-02;  0.0000000E+00; -3.1661617E-03;  9.9890198E+02;  1.1573510E-01; -9.0970258E+02;3; -1.0126845E+00;  0.0000000E+00;  1.7986860E+00;0; -2.1588489E-02;  2.9838346E+04;  0.0000000E+00;  1.0064057E-01;  4.0000000E+04;  0.0000000E+00;  3.9895812E+04; -4.5042448E-02;  0.0000000E+00;  2.3453958E-02;  4.7891812E+02;
  7.1831501E-01;  9.9999998E-03; -2.7040976E-01;6780; -1.6481377E-02;  0.0000000E+00; -4.8605478E-03;  9.9852386E+02;  1.1973206E-01; -1.2229282E+03;3;  3.2355398E-01;  0.0000000E+00;  3.2141478E+00;0; -2.6562015E-02;  2.7893229E+04;  0.0000000E+00; -3.5748675E+00;  4.0000000E+04;  0.0000000E+00;  3.9888484E+04; -2.7297853E-02;  0.0000000E+00;  7.3583802E-04;  8.2168076E+03;
  7.1819317E-01;  9.9999998E-03; -2.6039785E-01;6781; -1.6540192E-02;  0.0000000E+00; -4.8726629E-03;  9.9858484E+02;  1.1970442E-01; -1.1724113E+03;3;  1.7792243E-01;  0.0000000E+00;  3.1860740E+00;0; -2.6129562E-02;  2.7909574E+04;  0.0000000E+00; -1.9274720E+00;  4.0000000E+04;  0.0000000E+00;  3.9887387E+04; -2.7924547E-02;  0.0000000E+00;  1.7949844E-03;  4.9655610E+03;
  7.1800077E-01;  9.9999998E-03; -2.5038829E-01;6782; -1.6594509E-02;  0.0000000E+00; -4.8834528E-03;  9.9864813E+02;  1.1964690E-01; -1.1200176E+03;3;  3.5009462E-02;  0.0000000E+00;  3.1648514E+00;0; -2.5724689E-02;  2.7940717E+04;  0.0000000E+00; -7.1769881E-01;  4.0000000E+04;  0.0000000E+00;  3.9886059E+04; -2.8642595E-02;  0.0000000E+00;  2.9179070E-03;  2.5690229E+03;
  7.1783006E-01;  9.9999998E-03; -2.4038427E-01;6783; -1.6649617E-02;  0.0000000E+00; -4.9004396E-03;  9.9874951E+02;  1.1959382E-01; -1.0360200E+03;3; -9.7578712E-02;  0.0000000E+00;  3.1414149E+00;0; -2.5350092E-02;  2.7971760E+04;  0.0000000E+00;  3.5961419E-02;  4.0000000E+04;  0.0000000E+00;  3.9884289E+04; -2.9453289E-02;  0.0000000E+00;  4.1031968E-03;  1.1096027E+03;
  7.1768475E-01;  9.9999998E-03; -2.3039222E-01;6784; -1.6709533E-02;  0.0000000E+00; -4.9105077E-03;  9.9888623E+02;  1.1954912E-01; -9.2273926E+02;3; -2.2390355E-01;  0.0000000E+00;  3.1203551E+00;0; -2.5078068E-02;  2.8000766E+04;  0.0000000E+00;  4.4560039E-01;  4.0000000E+04;  0.0000000E+00;  3.9881258E+04; -3.0359592E-02;  0.0000000E+00;  5.2815247E-03;  4.5479898E+02;
  7.1755224E-01;  9.9999998E-03; -2.2042841E-01;6785; -1.6778681E-02;  0.0000000E+00; -4.9016722E-03;  9.9903015E+02;  1.1950796E-01; -8.0348340E+02;3; -3.3210114E-01;  0.0000000E+00;  3.0780954E+00;0; -2.4886599E-02;  2.8029725E+04;  0.0000000E+00;  6.4169401E-01;  4.0000000E+04;  0.0000000E+00;  3.9876855E+04; -3.1360887E-02;  0.0000000E+00;  6.4742886E-03;  6.5279138E+02;
  7.1743268E-01;  9.9999998E-03; -2.1047008E-01;6786; -1.6861873E-02;  0.0000000E+00; -4.9170833E-03;  9.9923212E+02;  1.1946791E-01; -6.3617950E+02;3; -4.3373561E-01;  0.0000000E+00;  3.0507147E+00;0; -2.4654180E-02;  2.8058463E+04;  0.0000000E+00;  7.1988022E-01;  4.0000000E+04;  0.0000000E+00;  3.9876031E+04; -3.2455385E-02;  0.0000000E+00;  7.8012045E-03;  9.1771643E+02;
  7.1732235E-01;  9.9999998E-03; -2.0047621E-01;6787; -1.6962748E-02;  0.0000000E+00; -4.9048890E-03;  9.9947791E+02;  1.1942969E-01; -4.3253094E+02;3; -5.1398396E-01;  0.0000000E+00;  2.9849327E+00;0; -2.4439625E-02;  2.8086082E+04;  0.0000000E+00;  7.3912609E-01;  4.0000000E+04;  0.0000000E+00;  3.9879039E+04; -3.3640195E-02;  0.0000000E+00;  9.2005692E-03;  9.7815912E+02;
  7.1723413E-01;  9.9999998E-03; -1.9045667E-01;6788; -1.7082620E-02;  0.0000000E+00; -4.8208921E-03;  9.9968188E+02;  1.1939494E-01; -2.6354810E+02;3; -5.7241386E-01;  0.0000000E+00;  2.8891602E+00;0; -2.4203341E-02;  2.8110641E+04;  0.0000000E+00;  7.3109508E-01;  4.0000000E+04;  0.0000000E+00;  3.9881055E+04; -3.4902111E-02;  0.0000000E+00;  1.0698768E-02;  1.0502334E+03;
  7.1718091E-01;  9.9999998E-03; -1.8042965E-01;6789; -1.7215410E-02;  0.0000000E+00; -4.6873004E-03;  9.9981415E+02;  1.1936641E-01; -1.5397095E+02;3; -6.2211525E-01;  0.0000000E+00;  2.7883537E+00;0; -2.3896933E-02;  2.8129941E+04;  0.0000000E+00;  7.0958078E-01;  4.0000000E+04;  0.0000000E+00;  3.9880977E+04; -3.6221843E-02;  0.0000000E+00;  1.2324912E-02;  1.0602137E+03;
  7.1716249E-01;  9.9999998E-03; -1.7040461E-01;6790; -1.7354943E-02;  0.0000000E+00; -4.5204726E-03;  9.9987463E+02;  1.1934421E-01; -1.0384891E+02;3; -6.6567725E-01;  0.0000000E+00;  2.6764095E+00;0; -2.3529176E-02;  2.8142984E+04;  0.0000000E+00;  6.7965639E-01;  4.0000000E+04;  0.0000000E+00;  3.9879625E+04; -3.7580218E-02;  0.0000000E+00;  1.4051042E-02;  1.0411084E+03;
  7.1717459E-01;  9.9999998E-03; -1.6038415E-01;6791; -1.7496590E-02;  0.0000000E+00; -4.3281387E-03;  9.9986078E+02;  1.1932784E-01; -1.1535475E+02;3; -7.0683271E-01;  0.0000000E+00;  2.5690804E+00;0; -2.3129262E-02;  2.8149434E+04;  0.0000000E+00;  6.4427817E-01;  4.0000000E+04;  0.0000000E+00;  3.9878008E+04; -3.8959704E-02;  0.0000000E+00;  1.5830442E-02;  1.0429727E+03;
  7.1721178E-01;  9.9999998E-03; -1.5036841E-01;6792; -1.7638363E-02;  0.0000000E+00; -4.1244291E-03;  9.9977795E+02;  1.1931631E-01; -1.8394540E+02;3; -7.4431896E-01;  0.0000000E+00;  2.4583111E+00;0; -2.2731759E-02;  2.8149549E+04;  0.0000000E+00;  6.0637760E-01;  4.0000000E+04;  0.0000000E+00;  3.9876652E+04; -4.0345594E-02;  0.0000000E+00;  1.7613836E-02;  1.0678441E+03;
  7.1726930E-01;  9.9999998E-03; -1.4035469E-01;6793; -1.7780079E-02;  0.0000000E+00; -3.9103841E-03;  9.9963190E+02;  1.1931024E-01; -3.0497900E+02;3; -7.7506095E-01;  0.0000000E+00;  2.3418052E+00;0; -2.2366563E-02;  2.8143916E+04;  0.0000000E+00;  5.6730425E-01;  4.0000000E+04;  0.0000000E+00;  3.9875570E+04; -4.1725494E-02;  0.0000000E+00;  1.9358931E-02;  1.0879371E+03;
  7.1733987E-01;  9.9999998E-03; -1.3034075E-01;6794; -1.7923145E-02;  0.0000000E+00; -3.6909566E-03;  9.9944287E+02;  1.1930790E-01; -4.6156717E+02;3; -8.0434299E-01;  0.0000000E+00;  2.2192190E+00;0; -2.2050845E-02;  2.8134010E+04;  0.0000000E+00;  5.2600169E-01;  4.0000000E+04;  0.0000000E+00;  3.9874953E+04; -4.3087926E-02;  0.0000000E+00;  2.1037081E-02;  1.0784738E+03;
  7.1741426E-01;  9.9999998E-03; -1.2032603E-01;6795; -1.8067950E-02;  0.0000000E+00; -3.4620548E-03;  9.9923315E+02;  1.1930835E-01; -6.3534003E+02;3; -8.3046877E-01;  0.0000000E+00;  2.0892355E+00;0; -2.1789052E-02;  2.8121629E+04;  0.0000000E+00;  4.8106432E-01;  4.0000000E+04;  0.0000000E+00;  3.9874637E+04; -4.4420447E-02;  0.0000000E+00;  2.2631396E-02;  1.0318585E+03;
  7.1748394E-01;  9.9999998E-03; -1.1031020E-01;6796; -1.8215487E-02;  0.0000000E+00; -3.2223854E-03;  9.9901025E+02;  1.1930906E-01; -8.1997675E+02;3; -8.5252005E-01;  0.0000000E+00;  1.9493642E+00;0; -2.1584220E-02;  2.8108363E+04;  0.0000000E+00;  4.3159062E-01;  4.0000000E+04;  0.0000000E+00;  3.9874738E+04; -4.5709908E-02;  0.0000000E+00;  2.4125688E-02;  9.5248157E+02;
  7.2978181E-01;  9.9999998E-03; -2.7047789E-01;6841; -1.6767479E-02;  0.0000000E+00; -4.9359668E-03;  9.9841656E+02;  1.2324644E-01; -1.3118640E+03;3;  4.2662033E-01;  0.0000000E+00;  3.4522314E+00;0; -2.6418326E-02;  2.6336535E+04;  0.0000000E+00; -3.6588912E+00;  4.0000000E+04;  0.0000000E+00;  3.9869715E+04; -2.6687659E-02;  0.0000000E+00;  2.6933252E-04;  8.6208145E+03;
  7.2978961E-01;  9.9999998E-03; -2.6046479E-01;6842; -1.6837180E-02;  0.0000000E+00; -4.9557402E-03;  9.9849097E+02;  1.2325584E-01; -1.2501868E+03;3;  2.7815819E-01;  0.0000000E+00;  3.4310265E+00;0; -2.5903724E-02;  2.6337473E+04;  0.0000000E+00; -2.1526208E+00;  4.0000000E+04;  0.0000000E+00;  3.9868082E+04; -2.7358709E-02;  0.0000000E+00;  1.4549851E-03;  5.5590591E+03;
  7.2979736E-01;  9.9999998E-03; -2.5045359E-01;6843; -1.6906647E-02;  0.0000000E+00; -4.9857688E-03;  9.9858167E+02;  1.2325744E-01; -1.1750778E+03;3;  1.3330145E-01;  0.0000000E+00;  3.4176295E+00;0; -2.5360059E-02;  2.6343143E+04;  0.0000000E+00; -9.6340358E-01;  4.0000000E+04;  0.0000000E+00;  3.9866449E+04; -2.8126704E-02;  0.0000000E+00;  2.7666450E-03;  3.1379460E+03;
  7.2979498E-01;  9.9999998E-03; -2.4044526E-01;6844; -1.6978282E-02;  0.0000000E+00; -5.0261789E-03;  9.9871558E+02;  1.2325627E-01; -1.0641179E+03;3; -1.9963472E-03;  0.0000000E+00;  3.4062147E+00;0; -2.4892133E-02;  2.6351963E+04;  0.0000000E+00; -1.6728432E-01;  4.0000000E+04;  0.0000000E+00;  3.9864797E+04; -2.8998237E-02;  0.0000000E+00;  4.1061034E-03;  1.5558490E+03;
  7.2977263E-01;  9.9999998E-03; -2.3044103E-01;6845; -1.7055688E-02;  0.0000000E+00; -5.0637503E-03;  9.9888971E+02;  1.2324957E-01; -9.1987512E+02;3; -1.2934798E-01;  0.0000000E+00;  3.3950427E+00;0; -2.4577470E-02;  2.6364756E+04;  0.0000000E+00;  3.0272520E-01;  4.0000000E+04;  0.0000000E+00;  3.9863605E+04; -2.9976590E-02;  0.0000000E+00;  5.3991196E-03;  8.0379248E+02;
  7.2971958E-01;  9.9999998E-03; -2.2046104E-01;6846; -1.7144827E-02;  0.0000000E+00; -5.0512422E-03;  9.9906549E+02;  1.2323285E-01; -7.7420026E+02;3; -2.3244461E-01;  0.0000000E+00;  3.3462706E+00;0; -2.4456149E-02;  2.6383158E+04;  0.0000000E+00;  5.5368823E-01;  4.0000000E+04;  0.0000000E+00;  3.9859672E+04; -3.1059137E-02;  0.0000000E+00;  6.6029876E-03;  4.8491916E+02;
  7.2964823E-01;  9.9999998E-03; -2.1050125E-01;6847; -1.7250091E-02;  0.0000000E+00; -5.0367825E-03;  9.9927795E+02;  1.2320621E-01; -5.9820526E+02;3; -3.2416931E-01;  0.0000000E+00;  3.3008909E+00;0; -2.4309367E-02;  2.6405723E+04;  0.0000000E+00;  6.7291605E-01;  4.0000000E+04;  0.0000000E+00;  3.9857340E+04; -3.2239310E-02;  0.0000000E+00;  7.9299426E-03;  7.1616943E+02;
  7.2955209E-01;  9.9999998E-03; -2.0052440E-01;6848; -1.7373737E-02;  0.0000000E+00; -5.0028143E-03;  9.9951825E+02;  1.2316880E-01; -3.9909979E+02;3; -3.9443764E-01;  0.0000000E+00;  3.2196717E+00;0; -2.4141606E-02;  2.6432066E+04;  0.0000000E+00;  7.2014058E-01;  4.0000000E+04;  0.0000000E+00;  3.9858145E+04; -3.3510704E-02;  0.0000000E+00;  9.3690986E-03;  8.8781061E+02;
  7.2943401E-01;  9.9999998E-03; -1.9051787E-01;6849; -1.7515676E-02;  0.0000000E+00; -4.9116109E-03;  9.9974072E+02;  1.2312231E-01; -2.1480872E+02;3; -4.4689557E-01;  0.0000000E+00;  3.1195593E+00;0; -2.3936084E-02;  2.6461359E+04;  0.0000000E+00;  7.3186415E-01;  4.0000000E+04;  0.0000000E+00;  3.9859566E+04; -3.4859702E-02;  0.0000000E+00;  1.0923618E-02;  1.0003430E+03;
  7.2933018E-01;  9.9999998E-03; -1.8049794E-01;6850; -1.7668983E-02;  0.0000000E+00; -4.7772233E-03;  9.9990350E+02;  1.2307692E-01; -7.9948349E+01;3; -4.8915640E-01;  0.0000000E+00;  3.0151446E+00;0; -2.3659363E-02;  2.6488379E+04;  0.0000000E+00;  7.2793758E-01;  4.0000000E+04;  0.0000000E+00;  3.9859594E+04; -3.6265057E-02;  0.0000000E+00;  1.2605694E-02;  1.0651461E+03;
  7.2926074E-01;  9.9999998E-03; -1.7047194E-01;6851; -1.7827028E-02;  0.0000000E+00; -4.6114610E-03;  9.9998572E+02;  1.2303519E-01; -1.1851516E+01;3; -5.2987343E-01;  0.0000000E+00;  2.8869636E+00;0; -2.3319673E-02;  2.6509748E+04;  0.0000000E+00;  7.1864700E-01;  4.0000000E+04;  0.0000000E+00;  3.9858637E+04; -3.7706129E-02;  0.0000000E+00;  1.4386457E-02;  1.1197423E+03;
  7.2923744E-01;  9.9999998E-03; -1.6044499E-01;6852; -1.7985761E-02;  0.0000000E+00; -4.4223485E-03;  9.9999506E+02;  1.2300493E-01; -4.0986490E+00;3; -5.6592774E-01;  0.0000000E+00;  2.7717340E+00;0; -2.2944599E-02;  2.6522910E+04;  0.0000000E+00;  7.0965946E-01;  4.0000000E+04;  0.0000000E+00;  3.9856953E+04; -3.9164867E-02;  0.0000000E+00;  1.6220268E-02;  1.2058911E+03;
  7.2925729E-01;  9.9999998E-03; -1.5042099E-01;6853; -1.8144632E-02;  0.0000000E+00; -4.2216289E-03;  9.9993787E+02;  1.2298507E-01; -5.1455330E+01;3; -5.9796548E-01;  0.0000000E+00;  2.6501195E+00;0; -2.2568377E-02;  2.6527879E+04;  0.0000000E+00;  7.0389920E-01;  4.0000000E+04;  0.0000000E+00;  3.9855754E+04; -4.0626045E-02;  0.0000000E+00;  1.8057669E-02;  1.3168325E+03;
  7.2931021E-01;  9.9999998E-03; -1.4039913E-01;6854; -1.8303970E-02;  0.0000000E+00; -4.0083937E-03;  9.9981427E+02;  1.2297389E-01; -1.5387218E+02;3; -6.2513793E-01;  0.0000000E+00;  2.5202296E+00;0; -2.2221765E-02;  2.6525844E+04;  0.0000000E+00;  7.0039505E-01;  4.0000000E+04;  0.0000000E+00;  3.9854590E+04; -4.2077113E-02;  0.0000000E+00;  1.9855348E-02;  1.4189070E+03;
  7.2938395E-01;  9.9999998E-03; -1.3037831E-01;6855; -1.8464608E-02;  0.0000000E+00; -3.7874188E-03;  9.9965002E+02;  1.2296851E-01; -2.8996707E+02;3; -6.4957100E-01;  0.0000000E+00;  2.3927231E+00;0; -2.1923130E-02;  2.6518508E+04;  0.0000000E+00;  6.9335979E-01;  4.0000000E+04;  0.0000000E+00;  3.9854223E+04; -4.3506328E-02;  0.0000000E+00;  2.1583198E-02;  1.4825999E+03;
  7.2946489E-01;  9.9999998E-03; -1.2035656E-01;6856; -1.8627675E-02;  0.0000000E+00; -3.5557677E-03;  9.9945526E+02;  1.2296735E-01; -4.5129584E+02;3; -6.6948622E-01;  0.0000000E+00;  2.2541397E+00;0; -2.1678559E-02;  2.6508037E+04;  0.0000000E+00;  6.7508006E-01;  4.0000000E+04;  0.0000000E+00;  3.9853879E+04; -4.4901516E-02;  0.0000000E+00;  2.3222957E-02;  1.4921663E+03;
  7.2954184E-01;  9.9999998E-03; -1.1033382E-01;6857; -1.8793963E-02;  0.0000000E+00; -3.3095034E-03;  9.9925403E+02;  1.2296809E-01; -6.1800714E+02;3; -6.8567818E-01;  0.0000000E+00;  2.1035781E+00;0; -2.1492414E-02;  2.6496457E+04;  0.0000000E+00;  6.3937527E-01;  4.0000000E+04;  0.0000000E+00;  3.9854000E+04; -4.6249002E-02;  0.0000000E+00;  2.4756588E-02;  1.4425863E+03;
  7.4172866E-01;  9.9999998E-03; -2.7054304E-01;6902; -1.7088480E-02;  0.0000000E+00; -5.0421515E-03;  9.9776721E+02;  1.2709929E-01; -1.8498241E+03;3;  5.3233296E-01;  0.0000000E+00;  3.7122579E+00;0; -2.5885038E-02;  2.4745342E+04;  0.0000000E+00; -1.7467508E+00;  4.0000000E+04;  0.0000000E+00;  3.9855871E+04; -2.5979210E-02;  0.0000000E+00;  9.4172203E-05;  5.1863687E+03;
  7.4170786E-01;  9.9999998E-03; -2.6052526E-01;6903; -1.7160978E-02;  0.0000000E+00; -5.0742859E-03;  9.9789655E+02;  1.2709917E-01; -1.7426666E+03;3;  3.7899774E-01;  0.0000000E+00;  3.6979892E+00;0; -2.5287457E-02;  2.4752576E+04;  0.0000000E+00; -1.2570097E+00;  4.0000000E+04;  0.0000000E+00;  3.9854035E+04; -2.6698757E-02;  0.0000000E+00;  1.4113002E-03;  4.1911943E+03;
  7.4170482E-01;  9.9999998E-03; -2.5050682E-01;6904; -1.7238922E-02;  0.0000000E+00; -5.1193433E-03;  9.9804047E+02;  1.2709978E-01; -1.6234601E+03;3;  2.3208149E-01;  0.0000000E+00;  3.6873264E+00;0; -2.4688447E-02;  2.4761395E+04;  0.0000000E+00; -7.0003611E-01;  4.0000000E+04;  0.0000000E+00;  3.9852117E+04; -2.7520588E-02;  0.0000000E+00;  2.8321408E-03;  3.1158354E+03;
  7.4169743E-01;  9.9999998E-03; -2.4048606E-01;6905; -1.7322833E-02;  0.0000000E+00; -5.1741749E-03;  9.9822089E+02;  1.2709661E-01; -1.4739829E+03;3;  9.5208496E-02;  0.0000000E+00;  3.6790450E+00;0; -2.4211260E-02;  2.4773338E+04;  0.0000000E+00; -2.1548539E-01;  4.0000000E+04;  0.0000000E+00;  3.9850863E+04; -2.8452817E-02;  0.0000000E+00;  4.2415573E-03;  2.3042180E+03;
  7.4169034E-01;  9.9999998E-03; -2.3045751E-01;6906; -1.7415507E-02;  0.0000000E+00; -5.2306070E-03;  9.9845538E+02;  1.2709397E-01; -1.2796674E+03;3; -2.9165639E-02;  0.0000000E+00;  3.6648250E+00;0; -2.3903616E-02;  2.4786254E+04;  0.0000000E+00;  1.3870589E-01;  4.0000000E+04;  0.0000000E+00;  3.9851438E+04; -2.9499065E-02;  0.0000000E+00;  5.5954498E-03;  1.9826782E+03;
  7.4166906E-01;  9.9999998E-03; -2.2044051E-01;6907; -1.7525213E-02;  0.0000000E+00; -5.2049300E-03;  9.9868024E+02;  1.2708713E-01; -1.0934011E+03;3; -1.3087513E-01;  0.0000000E+00;  3.6203327E+00;0; -2.3878261E-02;  2.4802006E+04;  0.0000000E+00;  3.6522642E-01;  4.0000000E+04;  0.0000000E+00;  3.9848348E+04; -3.0656921E-02;  0.0000000E+00;  6.7786598E-03;  1.5070848E+03;
  7.4162656E-01;  9.9999998E-03; -2.1045434E-01;6908; -1.7656200E-02;  0.0000000E+00; -5.1391008E-03;  9.9888318E+02;  1.2706958E-01; -9.2525769E+02;3; -2.0744613E-01;  0.0000000E+00;  3.5404718E+00;0; -2.3842031E-02;  2.4821797E+04;  0.0000000E+00;  4.9393702E-01;  4.0000000E+04;  0.0000000E+00;  3.9842797E+04; -3.1916942E-02;  0.0000000E+00;  8.0749113E-03;  8.7008856E+02;
  7.4157572E-01;  9.9999998E-03; -2.0048136E-01;6909; -1.7806016E-02;  0.0000000E+00; -5.0677485E-03;  9.9911285E+02;  1.2704642E-01; -7.3499152E+02;3; -2.6437527E-01;  0.0000000E+00;  3.4444256E+00;0; -2.3721600E-02;  2.4843832E+04;  0.0000000E+00;  5.5570251E-01;  4.0000000E+04;  0.0000000E+00;  3.9839629E+04; -3.3267308E-02;  0.0000000E+00;  9.5457081E-03;  6.2618811E+02;
  7.4150425E-01;  9.9999998E-03; -1.9049658E-01;6910; -1.7970446E-02;  0.0000000E+00; -4.9703033E-03;  9.9933661E+02;  1.2701201E-01; -5.4961401E+02;3; -3.0906484E-01;  0.0000000E+00;  3.3367803E+00;0; -2.3538621E-02;  2.4868711E+04;  0.0000000E+00;  5.7702398E-01;  4.0000000E+04;  0.0000000E+00;  3.9838152E+04; -3.4694739E-02;  0.0000000E+00;  1.1156118E-02;  6.6455615E+02;
  7.4142331E-01;  9.9999998E-03; -1.8049343E-01;6911; -1.8142380E-02;  0.0000000E+00; -4.8447498E-03;  9.9952222E+02;  1.2696826E-01; -3.9584064E+02;3; -3.4952399E-01;  0.0000000E+00;  3.2343230E+00;0; -2.3289192E-02;  2.4894623E+04;  0.0000000E+00;  5.7979751E-01;  4.0000000E+04;  0.0000000E+00;  3.9836949E+04; -3.6179893E-02;  0.0000000E+00;  1.2890699E-02;  7.5258789E+02;
  7.4137151E-01;  9.9999998E-03; -1.7048508E-01;6912; -1.8316984E-02;  0.0000000E+00; -4.6904674E-03;  9.9965643E+02;  1.2692876E-01; -2.8463391E+02;3; -3.8534442E-01;  0.0000000E+00;  3.1028719E+00;0; -2.2982258E-02;  2.4916199E+04;  0.0000000E+00;  5.8036643E-01;  4.0000000E+04;  0.0000000E+00;  3.9835887E+04; -3.7700173E-02;  0.0000000E+00;  1.4717914E-02;  8.8400867E+02;
  7.4134761E-01;  9.9999998E-03; -1.6047253E-01;6913; -1.8491631E-02;  0.0000000E+00; -4.5154695E-03;  9.9971240E+02;  1.2689398E-01; -2.3826485E+02;3; -4.1370481E-01;  0.0000000E+00;  2.9850028E+00;0; -2.2640076E-02;  2.4932389E+04;  0.0000000E+00;  5.8995849E-01;  4.0000000E+04;  0.0000000E+00;  3.9834508E+04; -3.9237089E-02;  0.0000000E+00;  1.6597014E-02;  1.0668708E+03;
  7.4135172E-01;  9.9999998E-03; -1.5045647E-01;6914; -1.8666144E-02;  0.0000000E+00; -4.3254970E-03;  9.9970337E+02;  1.2686396E-01; -2.4577081E+02;3; -4.4076139E-01;  0.0000000E+00;  2.8556530E+00;0; -2.2293296E-02;  2.4942893E+04;  0.0000000E+00;  6.1305553E-01;  4.0000000E+04;  0.0000000E+00;  3.9833434E+04; -4.0774588E-02;  0.0000000E+00;  1.8481292E-02;  1.2728966E+03;
  7.4138516E-01;  9.9999998E-03; -1.4043614E-01;6915; -1.8840797E-02;  0.0000000E+00; -4.1212407E-03;  9.9963379E+02;  1.2684186E-01; -3.0339880E+02;3; -4.6371260E-01;  0.0000000E+00;  2.7162588E+00;0; -2.1971369E-02;  2.4947338E+04;  0.0000000E+00;  6.4629567E-01;  4.0000000E+04;  0.0000000E+00;  3.9832648E+04; -4.2299330E-02;  0.0000000E+00;  2.0327961E-02;  1.4655826E+03;
  7.4144322E-01;  9.9999998E-03; -1.3041054E-01;6916; -1.9016938E-02;  0.0000000E+00; -3.9038348E-03;  9.9952576E+02;  1.2682652E-01; -3.9287775E+02;3; -4.8292726E-01;  0.0000000E+00;  2.5732033E+00;0; -2.1693423E-02;  2.4946225E+04;  0.0000000E+00;  6.7921817E-01;  4.0000000E+04;  0.0000000E+00;  3.9832520E+04; -4.3799367E-02;  0.0000000E+00;  2.2105943E-02;  1.6157845E+03;
  7.4151647E-01;  9.9999998E-03; -1.2038189E-01;6917; -1.9196497E-02;  0.0000000E+00; -3.6719323E-03;  9.9938849E+02;  1.2681894E-01; -5.0660291E+02;3; -4.9709439E-01;  0.0000000E+00;  2.4282594E+00;0; -2.1467019E-02;  2.4940969E+04;  0.0000000E+00;  6.9777381E-01;  4.0000000E+04;  0.0000000E+00;  3.9832676E+04; -4.5261659E-02;  0.0000000E+00;  2.3794640E-02;  1.7007831E+03;
  7.4159527E-01;  9.9999998E-03; -1.1035184E-01;6918; -1.9381026E-02;  0.0000000E+00; -3.4215925E-03;  9.9925134E+02;  1.2681650E-01; -6.2022931E+02;3; -5.0552523E-01;  0.0000000E+00;  2.2684879E+00;0; -2.1298390E-02;  2.4933611E+04;  0.0000000E+00;  6.9006383E-01;  4.0000000E+04;  0.0000000E+00;  3.9833039E+04; -4.6671901E-02;  0.0000000E+00;  2.5373511E-02;  1.7047609E+03;
  7.5441730E-01;  9.9999998E-03; -2.7061179E-01;6963; -1.7426116E-02;  0.0000000E+00; -5.1638228E-03;  9.9699402E+02;  1.3134730E-01; -2.4903984E+03;3;  6.4060622E-01;  0.0000000E+00;  4.0027657E+00;0; -2.5122229E-02;  2.3146664E+04;  0.0000000E+00;  1.0554959E+00;  4.0000000E+04;  0.0000000E+00;  3.9841961E+04; -2.5113521E-02;  0.0000000E+00; -8.7071621E-06;  4.2735894E+03;
  7.5455850E-01;  9.9999998E-03; -2.6058954E-01;6964; -1.7510004E-02;  0.0000000E+00; -5.2143130E-03;  9.9721252E+02;  1.3139151E-01; -2.3093667E+03;3;  4.8600000E-01;  0.0000000E+00;  3.9970977E+00;0; -2.4390988E-02;  2.3142920E+04;  0.0000000E+00;  1.8719454E-01;  4.0000000E+04;  0.0000000E+00;  3.9839070E+04; -2.5861593E-02;  0.0000000E+00;  1.4706044E-03;  3.3345994E+03;
  7.5475091E-01;  9.9999998E-03; -2.5056419E-01;6965; -1.7603358E-02;  0.0000000E+00; -5.2759382E-03;  9.9744995E+02;  1.3144511E-01; -2.1126809E+03;3;  3.3863968E-01;  0.0000000E+00;  3.9968462E+00;0; -2.3730325E-02;  2.3137549E+04;  0.0000000E+00; -1.3761415E-01;  4.0000000E+04;  0.0000000E+00;  3.9836531E+04; -2.6716720E-02;  0.0000000E+00;  2.9863964E-03;  3.1552710E+03;
  7.5484383E-01;  9.9999998E-03; -2.4053167E-01;6966; -1.7704878E-02;  0.0000000E+00; -5.3330343E-03;  9.9770197E+02;  1.3146858E-01; -1.9038966E+03;3;  2.0325591E-01;  0.0000000E+00;  3.9872034E+00;0; -2.3302913E-02;  2.3143334E+04;  0.0000000E+00; -1.1649740E-01;  4.0000000E+04;  0.0000000E+00;  3.9835191E+04; -2.7697116E-02;  0.0000000E+00;  4.3942039E-03;  2.9876758E+03;
  7.5480318E-01;  9.9999998E-03; -2.3048271E-01;6967; -1.7814541E-02;  0.0000000E+00; -5.3842398E-03;  9.9797803E+02;  1.3145687E-01; -1.6751624E+03;3;  8.1472144E-02;  0.0000000E+00;  3.9694316E+00;0; -2.3060679E-02;  2.3161217E+04;  0.0000000E+00;  2.7134901E-02;  4.0000000E+04;  0.0000000E+00;  3.9835465E+04; -2.8808855E-02;  0.0000000E+00;  5.7481746E-03;  2.9339104E+03;
  7.5470769E-01;  9.9999998E-03; -2.2043325E-01;6968; -1.7945834E-02;  0.0000000E+00; -5.3381636E-03;  9.9822742E+02;  1.3142803E-01; -1.4685509E+03;3; -7.3427828E-03;  0.0000000E+00;  3.8960669E+00;0; -2.3114579E-02;  2.3185312E+04;  0.0000000E+00;  1.7417577E-01;  4.0000000E+04;  0.0000000E+00;  3.9832223E+04; -3.0042503E-02;  0.0000000E+00;  6.9279238E-03;  2.4661807E+03;
  7.5459015E-01;  9.9999998E-03; -2.1041241E-01;6969; -1.8105848E-02;  0.0000000E+00; -5.2247383E-03;  9.9842493E+02;  1.3138728E-01; -1.3049012E+03;3; -6.7750975E-02;  0.0000000E+00;  3.7854843E+00;0; -2.3158759E-02;  2.3213479E+04;  0.0000000E+00;  2.7783480E-01;  4.0000000E+04;  0.0000000E+00;  3.9825383E+04; -3.1384103E-02;  0.0000000E+00;  8.2253432E-03;  1.5130405E+03;
  7.5446051E-01;  9.9999998E-03; -2.0041870E-01;6970; -1.8281288E-02;  0.0000000E+00; -5.1188860E-03;  9.9862097E+02;  1.3133949E-01; -1.1424861E+03;3; -1.1583137E-01;  0.0000000E+00;  3.6776931E+00;0; -2.3074925E-02;  2.3244016E+04;  0.0000000E+00;  3.2804161E-01;  4.0000000E+04;  0.0000000E+00;  3.9818945E+04; -3.2819755E-02;  0.0000000E+00;  9.7448295E-03;  6.4816168E+02;
  7.5431770E-01;  9.9999998E-03; -1.9043435E-01;6971; -1.8462339E-02;  0.0000000E+00; -5.0195926E-03;  9.9882355E+02;  1.3128249E-01; -9.7468842E+02;3; -1.5990897E-01;  0.0000000E+00;  3.5827410E+00;0; -2.2915248E-02;  2.3275799E+04;  0.0000000E+00;  3.3602789E-01;  4.0000000E+04;  0.0000000E+00;  3.9814840E+04; -3.4333654E-02;  0.0000000E+00;  1.1418407E-02;  1.4222141E+02;
  7.5417721E-01;  9.9999998E-03; -1.8044475E-01;6972; -1.8647024E-02;  0.0000000E+00; -4.9073133E-03;  9.9899677E+02;  1.3122162E-01; -8.3113690E+02;3; -1.9447546E-01;  0.0000000E+00;  3.4669812E+00;0; -2.2702659E-02;  2.3306723E+04;  0.0000000E+00;  3.2313636E-01;  4.0000000E+04;  0.0000000E+00;  3.9812609E+04; -3.5906423E-02;  0.0000000E+00;  1.3203764E-02;  3.1181262E+02;
  7.5406390E-01;  9.9999998E-03; -1.7045134E-01;6973; -1.8834557E-02;  0.0000000E+00; -4.7672396E-03;  9.9913129E+02;  1.3116391E-01; -7.1973267E+02;3; -2.2371873E-01;  0.0000000E+00;  3.3345251E+00;0; -2.2442888E-02;  2.3333561E+04;  0.0000000E+00;  3.1236225E-01;  4.0000000E+04;  0.0000000E+00;  3.9811160E+04; -3.7515838E-02;  0.0000000E+00;  1.5072949E-02;  5.6673828E+02;
  7.5399631E-01;  9.9999998E-03; -1.6045281E-01;6974; -1.9023042E-02;  0.0000000E+00; -4.6073995E-03;  9.9921411E+02;  1.3111445E-01; -6.5109265E+02;3; -2.4901703E-01;  0.0000000E+00;  3.2100472E+00;0; -2.2148862E-02;  2.3354203E+04;  0.0000000E+00;  3.2136586E-01;  4.0000000E+04;  0.0000000E+00;  3.9810121E+04; -3.9141756E-02;  0.0000000E+00;  1.6992893E-02;  7.9957074E+02;
  7.5401336E-01;  9.9999998E-03; -1.5044685E-01;6975; -1.9212523E-02;  0.0000000E+00; -4.4336473E-03;  9.9925372E+02;  1.3108554E-01; -6.1825409E+02;3; -2.6912853E-01;  0.0000000E+00;  3.0741975E+00;0; -2.1844666E-02;  2.3364836E+04;  0.0000000E+00;  3.5696590E-01;  4.0000000E+04;  0.0000000E+00;  3.9809270E+04; -4.0767286E-02;  0.0000000E+00;  1.8922620E-02;  1.0230933E+03;
  7.5409836E-01;  9.9999998E-03; -1.4043580E-01;6976; -1.9403508E-02;  0.0000000E+00; -4.2443965E-03;  9.9925934E+02;  1.3107625E-01; -6.1361224E+02;3; -2.8631335E-01;  0.0000000E+00;  2.9329562E+00;0; -2.1559164E-02;  2.3366963E+04;  0.0000000E+00;  4.1503635E-01;  4.0000000E+04;  0.0000000E+00;  3.9808867E+04; -4.2378727E-02;  0.0000000E+00;  2.0819563E-02;  1.2352455E+03;
  7.5420940E-01;  9.9999998E-03; -1.3042116E-01;6977; -1.9597247E-02;  0.0000000E+00; -4.0382529E-03;  9.9923279E+02;  1.3107230E-01; -6.3563629E+02;3; -2.9778329E-01;  0.0000000E+00;  2.7795577E+00;0; -2.1312842E-02;  2.3364635E+04;  0.0000000E+00;  4.8197600E-01;  4.0000000E+04;  0.0000000E+00;  3.9809152E+04; -4.3963078E-02;  0.0000000E+00;  2.2650236E-02;  1.4247220E+03;
  7.5433397E-01;  9.9999998E-03; -1.2040373E-01;6978; -1.9796042E-02;  0.0000000E+00; -3.8096346E-03;  9.9918903E+02;  1.3107395E-01; -6.7188220E+02;3; -3.0515206E-01;  0.0000000E+00;  2.6173022E+00;0; -2.1114172E-02;  2.3359113E+04;  0.0000000E+00;  5.3817964E-01;  4.0000000E+04;  0.0000000E+00;  3.9809516E+04; -4.5506429E-02;  0.0000000E+00;  2.4392257E-02;  1.5656476E+03;
  7.5445783E-01;  9.9999998E-03; -1.1038167E-01;6979; -2.0000784E-02;  0.0000000E+00; -3.5555400E-03;  9.9914496E+02;  1.3107868E-01; -7.0837500E+02;3; -3.0507880E-01;  0.0000000E+00;  2.4550436E+00;0; -2.0971306E-02;  2.3352273E+04;  0.0000000E+00;  5.6616920E-01;  4.0000000E+04;  0.0000000E+00;  3.9810297E+04; -4.6994008E-02;  0.0000000E+00;  2.6022702E-02;  1.6276787E+03;
  7.6820672E-01;  9.9999998E-03; -2.7069747E-01;7024; -1.7764911E-02;  0.0000000E+00; -5.2925618E-03;  9.9690936E+02;  1.3612583E-01; -2.5605200E+03;3;  7.5142413E-01;  0.0000000E+00;  4.3321252E+00;0; -2.4227245E-02;  2.1557812E+04;  0.0000000E+00;  2.2572093E+00;  4.0000000E+04;  0.0000000E+00;  3.9818410E+04; -2.4018718E-02;  0.0000000E+00; -2.0852702E-04;  7.2941123E+03;
  7.6835328E-01;  9.9999998E-03; -2.6067296E-01;7025; -1.7863952E-02;  0.0000000E+00; -5.3622979E-03;  9.9719281E+02;  1.3617751E-01; -2.3257119E+03;3;  5.9551537E-01;  0.0000000E+00;  4.3315983E+00;0; -2.3299003E-02;  2.1556018E+04;  0.0000000E+00;  7.1761465E-01;  4.0000000E+04;  0.0000000E+00;  3.9815074E+04; -2.4789585E-02;  0.0000000E+00;  1.4905819E-03;  3.9619519E+03;
  7.6858634E-01;  9.9999998E-03; -2.5064537E-01;7026; -1.7972218E-02;  0.0000000E+00; -5.4369392E-03;  9.9751508E+02;  1.3625185E-01; -2.0587070E+03;3;  4.5034096E-01;  0.0000000E+00;  4.3296604E+00;0; -2.2564052E-02;  2.1548762E+04;  0.0000000E+00; -1.8051011E-02;  4.0000000E+04;  0.0000000E+00;  3.9812094E+04; -2.5672095E-02;  0.0000000E+00;  3.1080437E-03;  3.0318518E+03;
  7.6869446E-01;  9.9999998E-03; -2.4060981E-01;7027; -1.8092060E-02;  0.0000000E+00; -5.4855985E-03;  9.9780054E+02;  1.3629137E-01; -1.8222200E+03;3;  3.1708774E-01;  0.0000000E+00;  4.3235002E+00;0; -2.2200041E-02;  2.1551613E+04;  0.0000000E+00; -1.8189025E-01;  4.0000000E+04;  0.0000000E+00;  3.9809805E+04; -2.6691476E-02;  0.0000000E+00;  4.4914349E-03;  2.8859368E+03;
  7.6864171E-01;  9.9999998E-03; -2.3055650E-01;7028; -1.8223437E-02;  0.0000000E+00; -5.5214753E-03;  9.9807532E+02;  1.3628122E-01; -1.5945720E+03;3;  2.0741396E-01;  0.0000000E+00;  4.2883959E+00;0; -2.2015547E-02;  2.1568607E+04;  0.0000000E+00; -1.0296264E-01;  4.0000000E+04;  0.0000000E+00;  3.9809645E+04; -2.7855489E-02;  0.0000000E+00;  5.8399425E-03;  2.8254812E+03;
  7.6850945E-01;  9.9999998E-03; -2.2048680E-01;7029; -1.8381950E-02;  0.0000000E+00; -5.4731327E-03;  9.9831989E+02;  1.3624436E-01; -1.3919606E+03;3;  1.3667218E-01;  0.0000000E+00;  4.1873784E+00;0; -2.2073802E-02;  2.1593721E+04;  0.0000000E+00;  2.3966014E-02;  4.0000000E+04;  0.0000000E+00;  3.9808047E+04; -2.9154101E-02;  0.0000000E+00;  7.0803002E-03;  2.5410957E+03;
  7.6832825E-01;  9.9999998E-03; -2.1042782E-01;7030; -1.8572370E-02;  0.0000000E+00; -5.3368821E-03;  9.9850073E+02;  1.3618807E-01; -1.2421376E+03;3;  8.3252892E-02;  0.0000000E+00;  4.0707717E+00;0; -2.2156261E-02;  2.1624588E+04;  0.0000000E+00;  1.1258101E-01;  4.0000000E+04;  0.0000000E+00;  3.9802242E+04; -3.0574085E-02;  0.0000000E+00;  8.4178252E-03;  1.7489121E+03;
  7.6815659E-01;  9.9999998E-03; -2.0039681E-01;7031; -1.8772468E-02;  0.0000000E+00; -5.2065775E-03;  9.9864868E+02;  1.3612954E-01; -1.1195238E+03;3;  3.9452687E-02;  0.0000000E+00;  3.9556160E+00;0; -2.2106366E-02;  2.1655516E+04;  0.0000000E+00;  1.3775976E-01;  4.0000000E+04;  0.0000000E+00;  3.9795047E+04; -3.2098014E-02;  0.0000000E+00;  9.9916477E-03;  8.3809369E+02;
  7.6799923E-01;  9.9999998E-03; -1.9038840E-01;7032; -1.8972622E-02;  0.0000000E+00; -5.0985971E-03;  9.9879419E+02;  1.3606837E-01; -9.9898401E+02;3;  2.1362847E-03;  0.0000000E+00;  3.8514137E+00;0; -2.1980990E-02;  2.1685521E+04;  0.0000000E+00;  1.0888121E-01;  4.0000000E+04;  0.0000000E+00;  3.9789441E+04; -3.3707816E-02;  0.0000000E+00;  1.1726826E-02;  4.3427045E+02;
  7.6786500E-01;  9.9999998E-03; -1.8038282E-01;7033; -1.9175766E-02;  0.0000000E+00; -4.9846061E-03;  9.9892712E+02;  1.3600737E-01; -8.8886371E+02;3; -2.3838717E-02;  0.0000000E+00;  3.7188284E+00;0; -2.1816079E-02;  2.1713041E+04;  0.0000000E+00;  5.2403178E-02;  4.0000000E+04;  0.0000000E+00;  3.9786117E+04; -3.5383344E-02;  0.0000000E+00;  1.3567266E-02;  6.8982251E+02;
  7.6778042E-01;  9.9999998E-03; -1.7037445E-01;7034; -1.9382037E-02;  0.0000000E+00; -4.8498167E-03;  9.9903455E+02;  1.3595594E-01; -7.9987854E+02;3; -4.3991398E-02;  0.0000000E+00;  3.5931106E+00;0; -2.1613199E-02;  2.1735330E+04;  0.0000000E+00;  1.0859688E-04;  4.0000000E+04;  0.0000000E+00;  3.9783941E+04; -3.7100956E-02;  0.0000000E+00;  1.5487758E-02;  9.1816809E+02;
  7.6777267E-01;  9.9999998E-03; -1.6035694E-01;7035; -1.9588644E-02;  0.0000000E+00; -4.7040852E-03;  9.9912042E+02;  1.3592215E-01; -7.2872009E+02;3; -6.0423907E-02;  0.0000000E+00;  3.4608655E+00;0; -2.1379648E-02;  2.1749312E+04;  0.0000000E+00; -2.2774050E-02;  4.0000000E+04;  0.0000000E+00;  3.9783105E+04; -3.8839616E-02;  0.0000000E+00;  1.7459968E-02;  1.0265381E+03;
  7.6778162E-01;  9.9999998E-03; -1.5033746E-01;7036; -1.9792488E-02;  0.0000000E+00; -4.5459210E-03;  9.9915894E+02;  1.3588914E-01; -6.9681976E+02;3; -7.5405046E-02;  0.0000000E+00;  3.3196745E+00;0; -2.1140372E-02;  2.1760211E+04;  0.0000000E+00; -3.3275811E-03;  4.0000000E+04;  0.0000000E+00;  3.9782512E+04; -4.0580973E-02;  0.0000000E+00;  1.9440601E-02;  1.0431146E+03;
  7.6780260E-01;  9.9999998E-03; -1.4031424E-01;7037; -1.9996503E-02;  0.0000000E+00; -4.3704398E-03;  9.9916675E+02;  1.3585576E-01; -6.9035077E+02;3; -8.4900200E-02;  0.0000000E+00;  3.1662593E+00;0; -2.0919420E-02;  2.1768727E+04;  0.0000000E+00;  5.5468999E-02;  4.0000000E+04;  0.0000000E+00;  3.9782848E+04; -4.2307980E-02;  0.0000000E+00;  2.1388561E-02;  1.0251293E+03;
  7.6785308E-01;  9.9999998E-03; -1.3028726E-01;7038; -2.0204846E-02;  0.0000000E+00; -4.1734334E-03;  9.9916089E+02;  1.3582963E-01; -6.9519019E+02;3; -8.8966794E-02;  0.0000000E+00;  3.0058906E+00;0; -2.0732725E-02;  2.1773385E+04;  0.0000000E+00;  1.3683541E-01;  4.0000000E+04;  0.0000000E+00;  3.9783535E+04; -4.4004750E-02;  0.0000000E+00;  2.3272024E-02;  1.0345957E+03;
  7.6801592E-01;  9.9999998E-03; -1.2025505E-01;7039; -2.0424491E-02;  0.0000000E+00; -3.9510191E-03;  9.9919061E+02;  1.3584030E-01; -6.7054889E+02;3; -8.4983297E-02;  0.0000000E+00;  2.8333199E+00;0; -2.0584833E-02;  2.1766627E+04;  0.0000000E+00;  2.1539678E-01;  4.0000000E+04;  0.0000000E+00;  3.9784848E+04; -4.5656543E-02;  0.0000000E+00;  2.5071710E-02;  1.0813702E+03;
  7.6823139E-01;  9.9999998E-03; -1.1021752E-01;7040; -2.0654162E-02;  0.0000000E+00; -3.6959790E-03;  9.9923737E+02;  1.3587174E-01; -6.3183392E+02;3; -7.5758606E-02;  0.0000000E+00;  2.6525917E+00;0; -2.0488480E-02;  2.1754098E+04;  0.0000000E+00;  2.7095169E-01;  4.0000000E+04;  0.0000000E+00;  3.9785902E+04; -4.7248583E-02;  0.0000000E+00;  2.6760103E-02;  1.1228816E+03;
  7.8303516E-01;  9.9999998E-03; -2.7080420E-01;7085; -1.8092675E-02;  0.0000000E+00; -5.4286299E-03;  9.9776685E+02;  1.4155322E-01; -1.8501204E+03;3;  8.6381704E-01;  0.0000000E+00;  4.6962051E+00;0; -2.3191480E-02;  1.9977406E+04;  0.0000000E+00;  1.4188430E+00;  4.0000000E+04;  0.0000000E+00;  3.9782059E+04; -2.2643322E-02;  0.0000000E+00; -5.4815860E-04;  6.2745625E+03;
  7.8306931E-01;  9.9999998E-03; -2.6078025E-01;7086; -1.8204045E-02;  0.0000000E+00; -5.5191047E-03;  9.9805444E+02;  1.4157403E-01; -1.6118555E+03;3;  7.0656461E-01;  0.0000000E+00;  4.7012200E+00;0; -2.1997400E-02;  1.9985098E+04;  0.0000000E+00;  1.9281238E-01;  4.0000000E+04;  0.0000000E+00;  3.9779449E+04; -2.3430770E-02;  0.0000000E+00;  1.4333709E-03;  2.7234285E+03;
  7.8325289E-01;  9.9999998E-03; -2.5075555E-01;7087; -1.8326512E-02;  0.0000000E+00; -5.6019360E-03;  9.9838690E+02;  1.4163868E-01; -1.3364065E+03;3;  5.6443805E-01;  0.0000000E+00;  4.7002387E+00;0; -2.1178182E-02;  1.9982631E+04;  0.0000000E+00; -3.1230190E-01;  4.0000000E+04;  0.0000000E+00;  3.9776379E+04; -2.4332805E-02;  0.0000000E+00;  3.1546229E-03;  1.8855312E+03;
  7.8336245E-01;  9.9999998E-03; -2.4072783E-01;7088; -1.8468581E-02;  0.0000000E+00; -5.6339782E-03;  9.9867316E+02;  1.4168164E-01; -1.0992775E+03;3;  4.4268709E-01;  0.0000000E+00;  4.6803217E+00;0; -2.0875365E-02;  1.9985383E+04;  0.0000000E+00; -3.2286039E-01;  4.0000000E+04;  0.0000000E+00;  3.9773355E+04; -2.5377916E-02;  0.0000000E+00;  4.5025512E-03;  1.7604674E+03;
  7.8327912E-01;  9.9999998E-03; -2.3068976E-01;7089; -1.8632067E-02;  0.0000000E+00; -5.6380234E-03;  9.9890698E+02;  1.4166144E-01; -9.0555457E+02;3;  3.5279256E-01;  0.0000000E+00;  4.6131587E+00;0; -2.0754326E-02;  2.0003777E+04;  0.0000000E+00; -1.5728199E-01;  4.0000000E+04;  0.0000000E+00;  3.9772090E+04; -2.6583042E-02;  0.0000000E+00;  5.8287168E-03;  1.5319434E+03;
  7.8308076E-01;  9.9999998E-03; -2.2062358E-01;7090; -1.8815357E-02;  0.0000000E+00; -5.6168367E-03;  9.9913025E+02;  1.4160043E-01; -7.2057214E+02;3;  2.8907976E-01;  0.0000000E+00;  4.5164576E+00;0; -2.0713968E-02;  2.0032645E+04;  0.0000000E+00; -3.0060911E-03;  4.0000000E+04;  0.0000000E+00;  3.9772879E+04; -2.7943870E-02;  0.0000000E+00;  7.2299014E-03;  1.4752578E+03;
  7.8282207E-01;  9.9999998E-03; -2.1053824E-01;7091; -1.9025246E-02;  0.0000000E+00; -5.5046380E-03;  9.9929004E+02;  1.4151695E-01; -5.8818085E+02;3;  2.4028848E-01;  0.0000000E+00;  4.3989940E+00;0; -2.0774953E-02;  2.0066988E+04;  0.0000000E+00;  7.3570162E-02;  4.0000000E+04;  0.0000000E+00;  3.9771746E+04; -2.9446868E-02;  0.0000000E+00;  8.6719161E-03;  1.2183428E+03;
  7.8257418E-01;  9.9999998E-03; -2.0047161E-01;7092; -1.9249026E-02;  0.0000000E+00; -5.3576194E-03;  9.9938739E+02;  1.4143313E-01; -5.0754117E+02;3;  2.1349439E-01;  0.0000000E+00;  4.2589507E+00;0; -2.0773109E-02;  2.0100936E+04;  0.0000000E+00;  6.1342150E-02;  4.0000000E+04;  0.0000000E+00;  3.9766844E+04; -3.1069482E-02;  0.0000000E+00;  1.0296372E-02;  6.9133167E+02;
  7.8238308E-01;  9.9999998E-03; -1.9042954E-01;7093; -1.9476851E-02;  0.0000000E+00; -5.2229636E-03;  9.9946161E+02;  1.4136027E-01; -4.4606143E+02;3;  1.8818733E-01;  0.0000000E+00;  4.1383905E+00;0; -2.0701639E-02;  2.0130164E+04;  0.0000000E+00; -2.0236066E-02;  4.0000000E+04;  0.0000000E+00;  3.9761375E+04; -3.2789178E-02;  0.0000000E+00;  1.2087540E-02;  7.8776862E+02;
  7.8226459E-01;  9.9999998E-03; -1.8039058E-01;7094; -1.9705404E-02;  0.0000000E+00; -5.0926725E-03;  9.9953290E+02;  1.4130555E-01; -3.8700137E+02;3;  1.6944280E-01;  0.0000000E+00;  3.9958487E+00;0; -2.0594068E-02;  2.0152654E+04;  0.0000000E+00; -1.3610506E-01;  4.0000000E+04;  0.0000000E+00;  3.9757719E+04; -3.4585334E-02;  0.0000000E+00;  1.3991267E-02;  1.2361582E+03;
  7.8222728E-01;  9.9999998E-03; -1.7035179E-01;7095; -1.9932672E-02;  0.0000000E+00; -4.9533648E-03;  9.9959540E+02;  1.4127007E-01; -3.3520038E+02;3;  1.5739471E-01;  0.0000000E+00;  3.8592424E+00;0; -2.0458795E-02;  2.0167391E+04;  0.0000000E+00; -2.4771297E-01;  4.0000000E+04;  0.0000000E+00;  3.9755184E+04; -3.6433164E-02;  0.0000000E+00;  1.5974369E-02;  1.5649512E+03;
  7.8224641E-01;  9.9999998E-03; -1.6031739E-01;7096; -2.0156341E-02;  0.0000000E+00; -4.8127584E-03;  9.9963391E+02;  1.4124726E-01; -3.0330005E+02;3;  1.4832057E-01;  0.0000000E+00;  3.7277513E+00;0; -2.0305531E-02;  2.0176090E+04;  0.0000000E+00; -3.2387635E-01;  4.0000000E+04;  0.0000000E+00;  3.9754082E+04; -3.8309280E-02;  0.0000000E+00;  1.8003749E-02;  1.7041887E+03;
  7.8230125E-01;  9.9999998E-03; -1.5028603E-01;7097; -2.0377867E-02;  0.0000000E+00; -4.6657752E-03;  9.9965356E+02;  1.4123185E-01; -2.8700421E+02;3;  1.4200629E-01;  0.0000000E+00;  3.5822909E+00;0; -2.0151636E-02;  2.0180350E+04;  0.0000000E+00; -3.4848270E-01;  4.0000000E+04;  0.0000000E+00;  3.9754309E+04; -4.0192191E-02;  0.0000000E+00;  2.0040555E-02;  1.6559326E+03;
  7.8237522E-01;  9.9999998E-03; -1.4024884E-01;7098; -2.0603014E-02;  0.0000000E+00; -4.5005199E-03;  9.9965961E+02;  1.4121765E-01; -2.8201669E+02;3;  1.4282526E-01;  0.0000000E+00;  3.4183464E+00;0; -2.0017622E-02;  2.0181633E+04;  0.0000000E+00; -3.2265839E-01;  4.0000000E+04;  0.0000000E+00;  3.9754953E+04; -4.2063452E-02;  0.0000000E+00;  2.2045830E-02;  1.4596974E+03;
  7.8245848E-01;  9.9999998E-03; -1.3020554E-01;7099; -2.0834159E-02;  0.0000000E+00; -4.3092673E-03;  9.9965649E+02;  1.4120556E-01; -2.8458453E+02;3;  1.5035924E-01;  0.0000000E+00;  3.2480652E+00;0; -1.9918581E-02;  2.0181170E+04;  0.0000000E+00; -2.6131511E-01;  4.0000000E+04;  0.0000000E+00;  3.9756625E+04; -4.3904666E-02;  0.0000000E+00;  2.3986084E-02;  1.1738182E+03;
  7.8254229E-01;  9.9999998E-03; -1.2015980E-01;7100; -2.1074142E-02;  0.0000000E+00; -4.0857573E-03;  9.9966266E+02;  1.4119275E-01; -2.7949826E+02;3;  1.6223140E-01;  0.0000000E+00;  3.0588143E+00;0; -1.9861899E-02;  2.0179984E+04;  0.0000000E+00; -1.8589501E-01;  4.0000000E+04;  0.0000000E+00;  3.9758426E+04; -4.5696583E-02;  0.0000000E+00;  2.5834683E-02;  8.6597125E+02;
  7.8260654E-01;  9.9999998E-03; -1.1011471E-01;7101; -2.1322148E-02;  0.0000000E+00; -3.8240924E-03;  9.9968341E+02;  1.4117579E-01; -2.6226416E+02;3;  1.8161863E-01;  0.0000000E+00;  2.8561771E+00;0; -1.9857723E-02;  2.0179918E+04;  0.0000000E+00; -1.1622645E-01;  4.0000000E+04;  0.0000000E+00;  3.9759980E+04; -4.7419801E-02;  0.0000000E+00;  2.7562078E-02;  6.0362286E+02;
  7.9869729E-01;  9.9999998E-03; -2.7092016E-01;7146; -1.8370826E-02;  0.0000000E+00; -5.5609806E-03;  9.9877924E+02;  1.4760318E-01; -1.0113787E+03;3;  9.7419840E-01;  0.0000000E+00;  5.0839043E+00;0; -2.2082020E-02;  1.8411248E+04;  0.0000000E+00;  4.6183190E-01;  4.0000000E+04;  0.0000000E+00;  3.9741938E+04; -2.0865427E-02;  0.0000000E+00; -1.2165918E-03;  4.1821821E+03;
  7.9858810E-01;  9.9999998E-03; -2.6089776E-01;7147; -1.8493596E-02;  0.0000000E+00; -5.6711291E-03;  9.9904114E+02;  1.4757507E-01; -7.9439722E+02;3;  8.1779540E-01;  0.0000000E+00;  5.0995855E+00;0; -2.0561729E-02;  1.8429404E+04;  0.0000000E+00; -2.1323745E-01;  4.0000000E+04;  0.0000000E+00;  3.9739852E+04; -2.1676842E-02;  0.0000000E+00;  1.1151133E-03;  1.1998639E+03;
  7.9858655E-01;  9.9999998E-03; -2.5087675E-01;7148; -1.8630056E-02;  0.0000000E+00; -5.7637831E-03;  9.9932593E+02;  1.4758663E-01; -5.5845331E+02;3;  6.8064088E-01;  0.0000000E+00;  5.0997367E+00;0; -1.9584617E-02;  1.8439453E+04;  0.0000000E+00; -3.7329343E-01;  4.0000000E+04;  0.0000000E+00;  3.9737414E+04; -2.2617618E-02;  0.0000000E+00;  3.0330017E-03;  6.1995154E+02;
  7.9849714E-01;  9.9999998E-03; -2.4085857E-01;7149; -1.8800307E-02;  0.0000000E+00; -5.7656914E-03;  9.9955731E+02;  1.4756992E-01; -3.6675504E+02;3;  5.7980704E-01;  0.0000000E+00;  5.0358253E+00;0; -1.9370383E-02;  1.8455590E+04;  0.0000000E+00; -2.4458136E-01;  4.0000000E+04;  0.0000000E+00;  3.9734434E+04; -2.3715487E-02;  0.0000000E+00;  4.3451041E-03;  6.2785687E+02;
  7.9832727E-01;  9.9999998E-03; -2.3084936E-01;7150; -1.9009825E-02;  0.0000000E+00; -5.6932806E-03;  9.9972278E+02;  1.4752582E-01; -2.2967250E+02;3;  5.0762784E-01;  0.0000000E+00;  4.9499640E+00;0; -1.9389555E-02;  1.8477789E+04;  0.0000000E+00; -6.4714432E-02;  4.0000000E+04;  0.0000000E+00;  3.9730207E+04; -2.4973873E-02;  0.0000000E+00;  5.5843182E-03;  6.9231476E+02;
  7.9805779E-01;  9.9999998E-03; -2.2083619E-01;7151; -1.9223928E-02;  0.0000000E+00; -5.6626820E-03;  9.9987494E+02;  1.4744078E-01; -1.0360200E+02;3;  4.5551184E-01;  0.0000000E+00;  4.8471665E+00;0; -1.9234130E-02;  1.8509307E+04;  0.0000000E+00;  5.9386626E-02;  4.0000000E+04;  0.0000000E+00;  3.9728941E+04; -2.6405139E-02;  0.0000000E+00;  7.1710092E-03;  8.2100562E+02;
  7.9770148E-01;  9.9999998E-03; -2.1078368E-01;7152; -1.9442054E-02;  0.0000000E+00; -5.6370795E-03;  1.0000295E+03;  1.4732142E-01;  2.4394369E+01;3;  4.1154587E-01;  0.0000000E+00;  4.7397170E+00;0; -1.9125640E-02;  1.8548426E+04;  0.0000000E+00;  8.9632839E-02;  4.0000000E+04;  0.0000000E+00;  3.9731434E+04; -2.8005730E-02;  0.0000000E+00;  8.8800890E-03;  5.9169232E+02;
  7.9731476E-01;  9.9999998E-03; -2.0070846E-01;7153; -1.9685090E-02;  0.0000000E+00; -5.5284905E-03;  1.0001165E+03;  1.4718838E-01;  9.6491089E+01;3;  3.9110637E-01;  0.0000000E+00;  4.5990362E+00;0; -1.9123251E-02;  1.8589855E+04;  0.0000000E+00;  3.0901231E-02;  4.0000000E+04;  0.0000000E+00;  3.9732270E+04; -2.9750194E-02;  0.0000000E+00;  1.0626944E-02;  6.6415137E+02;
  7.9697549E-01;  9.9999998E-03; -1.9063643E-01;7154; -1.9940391E-02;  0.0000000E+00; -5.3844280E-03;  1.0001497E+03;  1.4706442E-01;  1.2404587E+02;3;  3.7586015E-01;  0.0000000E+00;  4.4613380E+00;0; -1.9115342E-02;  1.8627559E+04;  0.0000000E+00; -9.2543997E-02;  4.0000000E+04;  0.0000000E+00;  3.9730625E+04; -3.1609461E-02;  0.0000000E+00;  1.2494119E-02;  1.0639349E+03;
  7.9672390E-01;  9.9999998E-03; -1.8056369E-01;7155; -2.0193042E-02;  0.0000000E+00; -5.2385353E-03;  1.0001497E+03;  1.4696394E-01;  1.2394711E+02;3;  3.7102491E-01;  0.0000000E+00;  4.2988129E+00;0; -1.9086886E-02;  1.8658068E+04;  0.0000000E+00; -2.4853308E-01;  4.0000000E+04;  0.0000000E+00;  3.9728422E+04; -3.3557612E-02;  0.0000000E+00;  1.4470726E-02;  1.5383330E+03;
  7.9658318E-01;  9.9999998E-03; -1.7049697E-01;7156; -2.0440763E-02;  0.0000000E+00; -5.0869514E-03;  1.0001298E+03;  1.4689316E-01;  1.0755251E+02;3;  3.6949486E-01;  0.0000000E+00;  4.1484737E+00;0; -1.9041976E-02;  1.8678586E+04;  0.0000000E+00; -4.0166974E-01;  4.0000000E+04;  0.0000000E+00;  3.9726762E+04; -3.5564650E-02;  0.0000000E+00;  1.6522674E-02;  1.9439011E+03;
  7.9654837E-01;  9.9999998E-03; -1.6043736E-01;7157; -2.0682290E-02;  0.0000000E+00; -4.9424474E-03;  1.0000906E+03;  1.4685601E-01;  7.5059601E+01;3;  3.7335074E-01;  0.0000000E+00;  3.9898062E+00;0; -1.8987168E-02;  1.8688969E+04;  0.0000000E+00; -5.2201474E-01;  4.0000000E+04;  0.0000000E+00;  3.9725891E+04; -3.7604023E-02;  0.0000000E+00;  1.8616855E-02;  2.1855723E+03;
  7.9659432E-01;  9.9999998E-03; -1.5038580E-01;7158; -2.0925542E-02;  0.0000000E+00; -4.7922838E-03;  1.0000449E+03;  1.4684173E-01;  3.7134750E+01;3;  3.7381461E-01;  0.0000000E+00;  3.8367820E+00;0; -1.8937510E-02;  1.8690637E+04;  0.0000000E+00; -5.9264940E-01;  4.0000000E+04;  0.0000000E+00;  3.9726250E+04; -3.9651785E-02;  0.0000000E+00;  2.0714276E-02;  2.2330454E+03;
  7.9668415E-01;  9.9999998E-03; -1.4034171E-01;7159; -2.1175055E-02;  0.0000000E+00; -4.6256967E-03;  9.9999451E+02;  1.4684117E-01; -4.5430813E+00;3;  3.8601664E-01;  0.0000000E+00;  3.6672485E+00;0; -1.8913375E-02;  1.8687225E+04;  0.0000000E+00; -6.1193043E-01;  4.0000000E+04;  0.0000000E+00;  3.9727316E+04; -4.1686978E-02;  0.0000000E+00;  2.2773603E-02;  2.1090393E+03;
  7.9677749E-01;  9.9999998E-03; -1.3029659E-01;7160; -2.1433746E-02;  0.0000000E+00; -4.4305506E-03;  9.9993634E+02;  1.4684059E-01; -5.2739246E+01;3;  4.0740335E-01;  0.0000000E+00;  3.4817107E+00;0; -1.8930128E-02;  1.8681906E+04;  0.0000000E+00; -5.8950025E-01;  4.0000000E+04;  0.0000000E+00;  3.9728969E+04; -4.3691035E-02;  0.0000000E+00;  2.4760908E-02;  1.8660463E+03;
  7.9683816E-01;  9.9999998E-03; -1.2024067E-01;7161; -2.1701679E-02;  0.0000000E+00; -4.2009568E-03;  9.9987585E+02;  1.4682902E-01; -1.0286128E+02;3;  4.3008646E-01;  0.0000000E+00;  3.2766323E+00;0; -1.8995238E-02;  1.8678400E+04;  0.0000000E+00; -5.3979939E-01;  4.0000000E+04;  0.0000000E+00;  3.9731008E+04; -4.5644678E-02;  0.0000000E+00;  2.6649440E-02;  1.5646812E+03;
  7.9685163E-01;  9.9999998E-03; -1.1019006E-01;7162; -2.1976877E-02;  0.0000000E+00; -3.9298707E-03;  9.9981726E+02;  1.4680086E-01; -1.5140311E+02;3;  4.5907870E-01;  0.0000000E+00;  3.0598373E+00;0; -1.9116135E-02;  1.8678420E+04;  0.0000000E+00; -4.7724715E-01;  4.0000000E+04;  0.0000000E+00;  3.9733105E+04; -4.7522511E-02;  0.0000000E+00;  2.8406376E-02;  1.2707008E+03;
  8.1319743E-01;  9.9999998E-03; -2.7101406E-01;7207; -1.8553711E-02;  0.0000000E+00; -5.7043671E-03;  9.9874304E+02;  1.5345527E-01; -1.0413531E+03;3;  1.0634485E+00;  0.0000000E+00;  5.4466324E+00;0; -2.0547308E-02;  1.7030914E+04;  0.0000000E+00;  1.2433878E+00;  4.0000000E+04;  0.0000000E+00;  3.9714828E+04; -1.8732928E-02;  0.0000000E+00; -1.8143808E-03;  5.2963467E+03;
  8.1328899E-01;  9.9999998E-03; -2.6099268E-01;7208; -1.8695058E-02;  0.0000000E+00; -5.8180429E-03;  9.9901624E+02;  1.5351753E-01; -8.1503864E+02;3;  9.1685867E-01;  0.0000000E+00;  5.4741216E+00;0; -1.8899266E-02;  1.7027588E+04;  0.0000000E+00;  5.6762183E-01;  4.0000000E+04;  0.0000000E+00;  3.9712035E+04; -1.9552659E-02;  0.0000000E+00;  6.5339397E-04;  2.5662695E+03;
  8.1339413E-01;  9.9999998E-03; -2.5097367E-01;7209; -1.8855074E-02;  0.0000000E+00; -5.9007476E-03;  9.9929956E+02;  1.5357992E-01; -5.8027985E+02;3;  7.9576826E-01;  0.0000000E+00;  5.4583588E+00;0; -1.7885236E-02;  1.7025564E+04;  0.0000000E+00;  3.0213079E-01;  4.0000000E+04;  0.0000000E+00;  3.9708750E+04; -2.0527665E-02;  0.0000000E+00;  2.6424290E-03;  1.2315096E+03;
  8.1328160E-01;  9.9999998E-03; -2.4096006E-01;7210; -1.9056451E-02;  0.0000000E+00; -5.8824038E-03;  9.9951935E+02;  1.5356342E-01; -3.9821094E+02;3;  7.1015060E-01;  0.0000000E+00;  5.3986793E+00;0; -1.7651144E-02;  1.7040404E+04;  0.0000000E+00;  2.4863349E-01;  4.0000000E+04;  0.0000000E+00;  3.9704805E+04; -2.1701347E-02;  0.0000000E+00;  4.0502022E-03;  7.7167975E+02;
  8.1304818E-01;  9.9999998E-03; -2.3096344E-01;7211; -1.9302851E-02;  0.0000000E+00; -5.7878098E-03;  9.9966840E+02;  1.5350179E-01; -2.7470825E+02;3;  6.5049958E-01;  0.0000000E+00;  5.2976480E+00;0; -1.7632427E-02;  1.7064309E+04;  0.0000000E+00;  2.2599639E-01;  4.0000000E+04;  0.0000000E+00;  3.9698820E+04; -2.3061467E-02;  0.0000000E+00;  5.4290406E-03;  1.1266482E+03;
  8.1273556E-01;  9.9999998E-03; -2.2097760E-01;7212; -1.9546194E-02;  0.0000000E+00; -5.7654162E-03;  9.9980206E+02;  1.5340520E-01; -1.6399535E+02;3;  6.1037689E-01;  0.0000000E+00;  5.1967330E+00;0; -1.7376501E-02;  1.7095676E+04;  0.0000000E+00;  1.7868660E-01;  4.0000000E+04;  0.0000000E+00;  3.9695883E+04; -2.4608625E-02;  0.0000000E+00;  7.2321249E-03;  1.5061790E+03;
  8.1235081E-01;  9.9999998E-03; -2.1096833E-01;7213; -1.9785855E-02;  0.0000000E+00; -5.7780384E-03;  9.9995062E+02;  1.5327969E-01; -4.0887730E+01;3;  5.7685494E-01;  0.0000000E+00;  5.0955229E+00;0; -1.7197313E-02;  1.7132770E+04;  0.0000000E+00;  9.1365658E-02;  4.0000000E+04;  0.0000000E+00;  3.9697883E+04; -2.6338208E-02;  0.0000000E+00;  9.1408957E-03;  1.2889705E+03;
  8.1192201E-01;  9.9999998E-03; -2.0093295E-01;7214; -2.0059666E-02;  0.0000000E+00; -5.7019782E-03;  1.0000524E+03;  1.5313540E-01;  4.3455559E+01;3;  5.6916928E-01;  0.0000000E+00;  4.9452224E+00;0; -1.7204560E-02;  1.7172611E+04;  0.0000000E+00; -3.1172253E-02;  4.0000000E+04;  0.0000000E+00;  3.9700539E+04; -2.8227104E-02;  0.0000000E+00;  1.1022544E-02;  1.0476373E+03;
  8.1149334E-01;  9.9999998E-03; -1.9087964E-01;7215; -2.0350745E-02;  0.0000000E+00; -5.5635176E-03;  1.0000822E+03;  1.5298584E-01;  6.8146217E+01;3;  5.6395566E-01;  0.0000000E+00;  4.8037105E+00;0; -1.7261807E-02;  1.7211914E+04;  0.0000000E+00; -1.7826240E-01;  4.0000000E+04;  0.0000000E+00;  3.9701516E+04; -3.0248426E-02;  0.0000000E+00;  1.2986619E-02;  1.1213739E+03;
  8.1112057E-01;  9.9999998E-03; -1.8080057E-01;7216; -2.0634642E-02;  0.0000000E+00; -5.4138708E-03;  1.0000488E+03;  1.5284875E-01;  4.0393917E+01;3;  5.7281679E-01;  0.0000000E+00;  4.6364746E+00;0; -1.7322700E-02;  1.7246697E+04;  0.0000000E+00; -3.3657715E-01;  4.0000000E+04;  0.0000000E+00;  3.9701586E+04; -3.2373905E-02;  0.0000000E+00;  1.5051204E-02;  1.4391652E+03;
  8.1083059E-01;  9.9999998E-03; -1.7071226E-01;7217; -2.0907339E-02;  0.0000000E+00; -5.2593052E-03;  9.9996594E+02;  1.5273291E-01; -2.8196732E+01;3;  5.8835375E-01;  0.0000000E+00;  4.4460163E+00;0; -1.7384706E-02;  1.7274473E+04;  0.0000000E+00; -4.8981330E-01;  4.0000000E+04;  0.0000000E+00;  3.9700582E+04; -3.4568612E-02;  0.0000000E+00;  1.7183905E-02;  1.8427993E+03;
  8.1066388E-01;  9.9999998E-03; -1.6062224E-01;7218; -2.1176688E-02;  0.0000000E+00; -5.0984817E-03;  9.9986200E+02;  1.5265664E-01; -1.1431775E+02;3;  6.0418481E-01;  0.0000000E+00;  4.2779832E+00;0; -1.7446823E-02;  1.7291492E+04;  0.0000000E+00; -6.2111163E-01;  4.0000000E+04;  0.0000000E+00;  3.9699914E+04; -3.6798950E-02;  0.0000000E+00;  1.9352127E-02;  2.1790398E+03;
  8.1063163E-01;  9.9999998E-03; -1.5054001E-01;7219; -2.1448435E-02;  0.0000000E+00; -4.9331994E-03;  9.9974603E+02;  1.5262416E-01; -2.1041379E+02;3;  6.1890030E-01;  0.0000000E+00;  4.1033926E+00;0; -1.7520064E-02;  1.7296557E+04;  0.0000000E+00; -7.1792388E-01;  4.0000000E+04;  0.0000000E+00;  3.9699969E+04; -3.9036181E-02;  0.0000000E+00;  2.1516116E-02;  2.3737322E+03;
  8.1070799E-01;  9.9999998E-03; -1.4046782E-01;7220; -2.1731101E-02;  0.0000000E+00; -4.7474578E-03;  9.9963556E+02;  1.5262903E-01; -3.0191736E+02;3;  6.4601576E-01;  0.0000000E+00;  3.9012039E+00;0; -1.7624507E-02;  1.7291627E+04;  0.0000000E+00; -7.7545989E-01;  4.0000000E+04;  0.0000000E+00;  3.9700922E+04; -4.1257922E-02;  0.0000000E+00;  2.3633415E-02;  2.4232781E+03;
  8.1082201E-01;  9.9999998E-03; -1.3040483E-01;7221; -2.2023877E-02;  0.0000000E+00; -4.5355577E-03;  9.9952698E+02;  1.5264326E-01; -3.9189014E+02;3;  6.7656404E-01;  0.0000000E+00;  3.6996338E+00;0; -1.7779291E-02;  1.7283213E+04;  0.0000000E+00; -7.9501855E-01;  4.0000000E+04;  0.0000000E+00;  3.9702512E+04; -4.3444414E-02;  0.0000000E+00;  2.5665123E-02;  2.3635115E+03;
  8.1092387E-01;  9.9999998E-03; -1.2035102E-01;7222; -2.2328446E-02;  0.0000000E+00; -4.2916075E-03;  9.9942224E+02;  1.5264978E-01; -4.7865311E+02;3;  7.1672297E-01;  0.0000000E+00;  3.4900601E+00;0; -1.7991550E-02;  1.7275701E+04;  0.0000000E+00; -7.8079289E-01;  4.0000000E+04;  0.0000000E+00;  3.9704488E+04; -4.5573272E-02;  0.0000000E+00;  2.7581722E-02;  2.2375977E+03;
  8.1102407E-01;  9.9999998E-03; -1.1031631E-01;7223; -2.2641636E-02;  0.0000000E+00; -4.0095272E-03;  9.9932751E+02;  1.5265469E-01; -5.5712000E+02;3;  7.5984889E-01;  0.0000000E+00;  3.2527475E+00;0; -1.8264197E-02;  1.7268293E+04;  0.0000000E+00; -7.3881382E-01;  4.0000000E+04;  0.0000000E+00;  3.9706035E+04; -4.7618810E-02;  0.0000000E+00;  2.9354613E-02;  2.0789966E+03;
  8.2562029E-01;  9.9999998E-03; -1.3042219E-01;7282; -2.2671942E-02;  0.0000000E+00; -4.6429434E-03;  9.9888263E+02;  1.5894723E-01; -9.2570215E+02;3;  9.8495317E-01;  0.0000000E+00;  3.9378700E+00;0; -1.6390439E-02;  1.5930710E+04;  0.0000000E+00; -8.7585616E-01;  4.0000000E+04;  0.0000000E+00;  3.9675566E+04; -4.3228749E-02;  0.0000000E+00;  2.6838310E-02;  2.4632986E+03;
  8.2568687E-01;  9.9999998E-03; -1.2036627E-01;7283; -2.3015372E-02;  0.0000000E+00; -4.3688952E-03;  9.9873871E+02;  1.5894783E-01; -1.0449580E+03;3;  1.0330666E+00;  0.0000000E+00;  3.6905463E+00;0; -1.6794503E-02;  1.5926077E+04;  0.0000000E+00; -8.9486516E-01;  4.0000000E+04;  0.0000000E+00;  3.9677121E+04; -4.5558099E-02;  0.0000000E+00;  2.8763596E-02;  2.5430664E+03;
  8.2564062E-01;  9.9999998E-03; -1.4050768E-01;7281; -2.2342602E-02;  0.0000000E+00; -4.8804963E-03;  9.9903802E+02;  1.5897886E-01; -7.9696503E+02;3;  9.3903482E-01;  0.0000000E+00;  4.1795926E+00;0; -1.6046701E-02;  1.5928743E+04;  0.0000000E+00; -8.2615113E-01;  4.0000000E+04;  0.0000000E+00;  3.9673938E+04; -4.0825658E-02;  0.0000000E+00;  2.4778957E-02;  2.3136589E+03;
  8.2568187E-01;  9.9999998E-03; -1.5060656E-01;7280; -2.2024522E-02;  0.0000000E+00; -5.0862064E-03;  9.9919183E+02;  1.5901160E-01; -6.6956128E+02;3;  8.9615750E-01;  0.0000000E+00;  4.3911648E+00;0; -1.5770011E-02;  1.5925009E+04;  0.0000000E+00; -7.5482434E-01;  4.0000000E+04;  0.0000000E+00;  3.9673277E+04; -3.8377993E-02;  0.0000000E+00;  2.2607982E-02;  2.0936313E+03;
  8.2571501E-01;  9.9999998E-03; -1.6070087E-01;7279; -2.1713171E-02;  0.0000000E+00; -5.2698092E-03;  9.9931854E+02;  1.5903653E-01; -5.6457660E+02;3;  8.6223418E-01;  0.0000000E+00;  4.5735698E+00;0; -1.5554881E-02;  1.5921051E+04;  0.0000000E+00; -6.7004198E-01;  4.0000000E+04;  0.0000000E+00;  3.9673465E+04; -3.5918046E-02;  0.0000000E+00;  2.0363165E-02;  1.7964594E+03;
  8.2585740E-01;  9.9999998E-03; -1.1034354E-01;7284; -2.3369437E-02;  0.0000000E+00; -4.0644975E-03;  9.9861621E+02;  1.5898904E-01; -1.1464366E+03;3;  1.0905070E+00;  0.0000000E+00;  3.4485841E+00;0; -1.7260926E-02;  1.5913585E+04;  0.0000000E+00; -8.7788332E-01;  4.0000000E+04;  0.0000000E+00;  3.9677875E+04; -4.7791548E-02;  0.0000000E+00;  3.0530622E-02;  2.5407891E+03;
  8.2579291E-01;  9.9999998E-03; -1.7078154E-01;7278; -2.1405526E-02;  0.0000000E+00; -5.4318472E-03;  9.9943152E+02;  1.5906896E-01; -4.7099899E+02;3;  8.2829005E-01;  0.0000000E+00;  4.7840958E+00;0; -1.5377443E-02;  1.5913171E+04;  0.0000000E+00; -5.7637018E-01;  4.0000000E+04;  0.0000000E+00;  3.9674809E+04; -3.3474218E-02;  0.0000000E+00;  1.8096775E-02;  1.4317378E+03;
  8.2593286E-01;  9.9999998E-03; -1.8085182E-01;7277; -2.1089260E-02;  0.0000000E+00; -5.5861883E-03;  9.9949591E+02;  1.5911849E-01; -4.1761780E+02;3;  7.9544258E-01;  0.0000000E+00;  4.9732852E+00;0; -1.5221989E-02;  1.5900360E+04;  0.0000000E+00; -4.7160125E-01;  4.0000000E+04;  0.0000000E+00;  3.9676445E+04; -3.1073388E-02;  0.0000000E+00;  1.5851399E-02;  1.0284552E+03;
  8.2615000E-01;  9.9999998E-03; -1.9091266E-01;7276; -2.0762749E-02;  0.0000000E+00; -5.7372553E-03;  9.9951117E+02;  1.5918867E-01; -4.0497617E+02;3;  7.5806463E-01;  0.0000000E+00;  5.1466613E+00;0; -1.5080484E-02;  1.5881413E+04;  0.0000000E+00; -3.4662381E-01;  4.0000000E+04;  0.0000000E+00;  3.9677582E+04; -2.8743833E-02;  0.0000000E+00;  1.3663350E-02;  6.3219818E+02;
  8.2645869E-01;  9.9999998E-03; -2.0094769E-01;7275; -2.0426996E-02;  0.0000000E+00; -5.8858166E-03;  9.9946887E+02;  1.5928806E-01; -4.4003690E+02;3;  7.4266899E-01;  0.0000000E+00;  5.3034854E+00;0; -1.4944270E-02;  1.5854896E+04;  0.0000000E+00; -1.8946779E-01;  4.0000000E+04;  0.0000000E+00;  3.9678258E+04; -2.6516333E-02;  0.0000000E+00;  1.1572063E-02;  3.1505762E+02;
  8.2682914E-01;  9.9999998E-03; -2.7109188E-01;7268; -1.8736415E-02;  0.0000000E+00; -5.8982833E-03;  9.9792542E+02;  1.5924133E-01; -1.7187661E+03;3;  1.1398373E+00;  0.0000000E+00;  5.7791395E+00;0; -1.7946640E-02;  1.5796092E+04;  0.0000000E+00;  1.9341002E+00;  4.0000000E+04;  0.0000000E+00;  3.9698062E+04; -1.6013280E-02;  0.0000000E+00; -1.9333599E-03;  5.7197876E+03;
  8.2676351E-01;  9.9999998E-03; -2.1097556E-01;7274; -2.0093171E-02;  0.0000000E+00; -6.0074530E-03;  9.9935529E+02;  1.5937988E-01; -5.3415771E+02;3;  7.3877519E-01;  0.0000000E+00;  5.4429259E+00;0; -1.4831228E-02;  1.5828323E+04;  0.0000000E+00;  1.4036600E-02;  4.0000000E+04;  0.0000000E+00;  3.9678914E+04; -2.4427129E-02;  0.0000000E+00;  9.5959008E-03;  5.7901685E+02;
  8.2689536E-01;  9.9999998E-03; -2.6106659E-01;7269; -1.8882794E-02;  0.0000000E+00; -6.0031437E-03;  9.9822589E+02;  1.5929127E-01; -1.4698348E+03;3;  1.0052681E+00;  0.0000000E+00;  5.7996206E+00;0; -1.6474035E-02;  1.5795837E+04;  0.0000000E+00;  1.5394964E+00;  4.0000000E+04;  0.0000000E+00;  3.9694746E+04; -1.6938547E-02;  0.0000000E+00;  4.6451139E-04;  4.6311470E+03;
  8.2704973E-01;  9.9999998E-03; -2.5104418E-01;7270; -1.9059543E-02;  0.0000000E+00; -6.0543413E-03;  9.9852057E+02;  1.5937358E-01; -1.2256936E+03;3;  8.9087123E-01;  0.0000000E+00;  5.7974534E+00;0; -1.5697226E-02;  1.5790028E+04;  0.0000000E+00;  1.2038782E+00;  4.0000000E+04;  0.0000000E+00;  3.9690816E+04; -1.8018726E-02;  0.0000000E+00;  2.3215001E-03;  3.6936743E+03;
  8.2700998E-01;  9.9999998E-03; -2.2100455E-01;7273; -1.9798746E-02;  0.0000000E+00; -6.0409857E-03;  9.9917682E+02;  1.5944397E-01; -6.8200537E+02;3;  7.4391532E-01;  0.0000000E+00;  5.5705004E+00;0; -1.4854467E-02;  1.5805903E+04;  0.0000000E+00;  2.7096310E-01;  4.0000000E+04;  0.0000000E+00;  3.9678746E+04; -2.2510085E-02;  0.0000000E+00;  7.6556178E-03;  1.2100905E+03;
  8.2710868E-01;  9.9999998E-03; -2.4102703E-01;7271; -1.9280514E-02;  0.0000000E+00; -6.0413205E-03;  9.9876788E+02;  1.5942051E-01; -1.0207612E+03;3;  8.1908458E-01;  0.0000000E+00;  5.7381763E+00;0; -1.5391458E-02;  1.5790667E+04;  0.0000000E+00;  8.9105272E-01;  4.0000000E+04;  0.0000000E+00;  3.9685227E+04; -1.9307630E-02;  0.0000000E+00;  3.9161723E-03;  2.7972417E+03;
  8.2711136E-01;  9.9999998E-03; -2.3102008E-01;7272; -1.9541306E-02;  0.0000000E+00; -6.0058171E-03;  9.9896863E+02;  1.5945144E-01; -8.5449426E+02;3;  7.8160536E-01;  0.0000000E+00;  5.6457891E+00;0; -1.5165916E-02;  1.5794366E+04;  0.0000000E+00;  5.7289374E-01;  4.0000000E+04;  0.0000000E+00;  3.9679801E+04; -2.0802425E-02;  0.0000000E+00;  5.6365100E-03;  1.9418795E+03;
  9.3933070E-01;  9.9999998E-03; -2.7180034E-01;7634; -1.7671155E-02;  0.0000000E+00; -8.5881865E-03;  9.9695953E+02;  2.1439682E-01; -2.5189900E+03;3;  2.8875062E+00;  0.0000000E+00;  6.8486967E+00;0;  2.6268158E-02;  8.7946416E+03;  0.0000000E+00; -5.1561558E-01;  4.0000000E+04;  0.0000000E+00;  3.9493824E+04;  2.0656781E-02;  0.0000000E+00;  5.6113768E-03;  3.7912720E+03;
  8.4246433E-01;  9.9999998E-03; -2.7117991E-01;7329; -1.9036518E-02;  0.0000000E+00; -6.1508217E-03;  9.9710394E+02;  1.6589199E-01; -2.3993394E+03;3;  1.2198068E+00;  0.0000000E+00;  6.1389446E+00;0; -1.3874221E-02;  1.4548783E+04;  0.0000000E+00;  2.1326938E+00;  4.0000000E+04;  0.0000000E+00;  3.9679176E+04; -1.1801682E-02;  0.0000000E+00; -2.0725385E-03;  5.2392930E+03;
  8.4224617E-01;  9.9999998E-03; -1.1057340E-01;7345; -2.4181185E-02;  0.0000000E+00; -4.1437838E-03;  9.9833490E+02;  1.6609991E-01; -1.3795165E+03;3;  1.4785653E+00;  0.0000000E+00;  3.6725986E+00;0; -1.6031645E-02;  1.4593104E+04;  0.0000000E+00; -8.8351679E-01;  4.0000000E+04;  0.0000000E+00;  3.9647207E+04; -4.8059806E-02;  0.0000000E+00;  3.2028161E-02;  2.5253027E+03;
  8.4249938E-01;  9.9999998E-03; -2.6115027E-01;7330; -1.9172562E-02;  0.0000000E+00; -6.2602800E-03;  9.9747046E+02;  1.6592348E-01; -2.0956936E+03;3;  1.0945357E+00;  0.0000000E+00;  6.1546521E+00;0; -1.2582144E-02;  1.4553123E+04;  0.0000000E+00;  2.1001437E+00;  4.0000000E+04;  0.0000000E+00;  3.9675223E+04; -1.2972420E-02;  0.0000000E+00;  3.9027637E-04;  5.9022695E+03;
  8.4218580E-01;  9.9999998E-03; -1.2058437E-01;7344; -2.3791010E-02;  0.0000000E+00; -4.4751959E-03;  9.9842340E+02;  1.6610283E-01; -1.3061852E+03;3;  1.4079295E+00;  0.0000000E+00;  3.9610319E+00;0; -1.5303889E-02;  1.4592870E+04;  0.0000000E+00; -8.8621938E-01;  4.0000000E+04;  0.0000000E+00;  3.9646797E+04; -4.5611423E-02;  0.0000000E+00;  3.0307533E-02;  2.3891506E+03;
  8.4258235E-01;  9.9999998E-03; -2.5112250E-01;7331; -1.9346016E-02;  0.0000000E+00; -6.2964461E-03;  9.9780762E+02;  1.6597581E-01; -1.8163435E+03;3;  1.0008088E+00;  0.0000000E+00;  6.1499453E+00;0; -1.2097212E-02;  1.4553889E+04;  0.0000000E+00;  1.7379042E+00;  4.0000000E+04;  0.0000000E+00;  3.9670043E+04; -1.4324289E-02;  0.0000000E+00;  2.2270777E-03;  5.5174253E+03;
  8.4251332E-01;  9.9999998E-03; -2.4109636E-01;7332; -1.9571032E-02;  0.0000000E+00; -6.2974310E-03;  9.9811359E+02;  1.6597667E-01; -1.5628693E+03;3;  9.4554579E-01;  0.0000000E+00;  6.0871968E+00;0; -1.1885803E-02;  1.4563234E+04;  0.0000000E+00;  1.2007661E+00;  4.0000000E+04;  0.0000000E+00;  3.9664695E+04; -1.5929159E-02;  0.0000000E+00;  4.0433560E-03;  4.3936802E+03;
  8.4200275E-01;  9.9999998E-03; -1.3060783E-01;7343; -2.3400422E-02;  0.0000000E+00; -4.7683911E-03;  9.9851410E+02;  1.6605876E-01; -1.2310269E+03;3;  1.3400823E+00;  0.0000000E+00;  4.2303443E+00;0; -1.4672911E-02;  1.4600994E+04;  0.0000000E+00; -8.5409373E-01;  4.0000000E+04;  0.0000000E+00;  3.9646062E+04; -4.3053940E-02;  0.0000000E+00;  2.8381029E-02;  2.1404463E+03;
  8.4111762E-01;  9.9999998E-03; -1.7073615E-01;7339; -2.1941332E-02;  0.0000000E+00; -5.5940868E-03;  9.9887689E+02;  1.6575202E-01; -9.3049213E+02;3;  1.0876431E+00;  0.0000000E+00;  5.1103401E+00;0; -1.3042888E-02;  1.4651094E+04;  0.0000000E+00; -7.1426433E-01;  4.0000000E+04;  0.0000000E+00;  3.9648320E+04; -3.2350130E-02;  0.0000000E+00;  1.9307243E-02;  1.0390587E+03;
  8.4114641E-01;  9.9999998E-03; -1.6071129E-01;7340; -2.2289133E-02;  0.0000000E+00; -5.4263580E-03;  9.9879321E+02;  1.6576836E-01; -9.9982349E+02;3;  1.1467341E+00;  0.0000000E+00;  4.8912849E+00;0; -1.3366582E-02;  1.4650312E+04;  0.0000000E+00; -7.2412580E-01;  4.0000000E+04;  0.0000000E+00;  3.9646613E+04; -3.5046574E-02;  0.0000000E+00;  2.1679992E-02;  1.2896698E+03;
  8.4135240E-01;  9.9999998E-03; -1.5068030E-01;7341; -2.2646956E-02;  0.0000000E+00; -5.2343705E-03;  9.9869647E+02;  1.6584438E-01; -1.0799694E+03;3;  1.2023648E+00;  0.0000000E+00;  4.6763301E+00;0; -1.3724152E-02;  1.4638204E+04;  0.0000000E+00; -7.5435168E-01;  4.0000000E+04;  0.0000000E+00;  3.9645770E+04; -3.7743255E-02;  0.0000000E+00;  2.4019103E-02;  1.5528254E+03;
  8.4166998E-01;  9.9999998E-03; -1.4064065E-01;7342; -2.3016755E-02;  0.0000000E+00; -5.0167949E-03;  9.9860089E+02;  1.6595395E-01; -1.1591276E+03;3;  1.2666024E+00;  0.0000000E+00;  4.4699512E+00;0; -1.4150968E-02;  1.4619560E+04;  0.0000000E+00; -8.0318743E-01;  4.0000000E+04;  0.0000000E+00;  3.9645625E+04; -4.0421229E-02;  0.0000000E+00;  2.6270261E-02;  1.8430281E+03;
  8.4237689E-01;  9.9999998E-03; -2.3107517E-01;7333; -1.9839447E-02;  0.0000000E+00; -6.2752790E-03;  9.9837488E+02;  1.6596627E-01; -1.3463816E+03;3;  9.1947085E-01;  0.0000000E+00;  5.9930644E+00;0; -1.1802269E-02;  1.4573949E+04;  0.0000000E+00;  6.2568909E-01;  4.0000000E+04;  0.0000000E+00;  3.9659492E+04; -1.7761048E-02;  0.0000000E+00;  5.9587783E-03;  2.9602283E+03;
  8.4124094E-01;  9.9999998E-03; -1.8076222E-01;7338; -2.1594223E-02;  0.0000000E+00; -5.7466626E-03;  9.9893866E+02;  1.6578287E-01; -8.7928369E+02;3;  1.0271891E+00;  0.0000000E+00;  5.3087654E+00;0; -1.2735218E-02;  1.4642139E+04;  0.0000000E+00; -7.0549852E-01;  4.0000000E+04;  0.0000000E+00;  3.9650645E+04; -2.9674673E-02;  0.0000000E+00;  1.6939456E-02;  7.7532269E+02;
  8.4218210E-01;  9.9999998E-03; -2.2101294E-01;7334; -2.0101884E-02;  0.0000000E+00; -6.3672340E-03;  9.9867053E+02;  1.6594751E-01; -1.1014502E+03;3;  8.9400768E-01;  0.0000000E+00;  5.9411674E+00;0; -1.1567946E-02;  1.4585911E+04;  0.0000000E+00;  1.1346213E-01;  4.0000000E+04;  0.0000000E+00;  3.9662027E+04; -1.9806867E-02;  0.0000000E+00;  8.2389219E-03;  1.9940759E+03;
  8.4145623E-01;  9.9999998E-03; -1.9079825E-01;7337; -2.1231553E-02;  0.0000000E+00; -5.9067821E-03;  9.9896478E+02;  1.6583627E-01; -8.5765466E+02;3;  9.8330802E-01;  0.0000000E+00;  5.4695230E+00;0; -1.2441301E-02;  1.4627941E+04;  0.0000000E+00; -6.5954393E-01;  4.0000000E+04;  0.0000000E+00;  3.9654062E+04; -2.7046623E-02;  0.0000000E+00;  1.4605322E-02;  5.7693451E+02;
  8.4170526E-01;  9.9999998E-03; -2.0083927E-01;7336; -2.0841701E-02;  0.0000000E+00; -6.0985512E-03;  9.9895752E+02;  1.6588798E-01; -8.6367920E+02;3;  9.5454186E-01;  0.0000000E+00;  5.6248698E+00;0; -1.2143939E-02;  1.4612617E+04;  0.0000000E+00; -5.3002954E-01;  4.0000000E+04;  0.0000000E+00;  3.9659609E+04; -2.4500499E-02;  0.0000000E+00;  1.2356560E-02;  8.8727063E+02;
  8.4194636E-01;  9.9999998E-03; -2.1091092E-01;7335; -2.0443536E-02;  0.0000000E+00; -6.3036685E-03;  9.9888171E+02;  1.6592231E-01; -9.2649225E+02;3;  8.9968848E-01;  0.0000000E+00;  5.8035526E+00;0; -1.1797288E-02;  1.4598998E+04;  0.0000000E+00; -2.7717033E-01;  4.0000000E+04;  0.0000000E+00;  3.9663723E+04; -2.2071080E-02;  0.0000000E+00;  1.0273792E-02;  1.5468599E+03;
  8.6044216E-01;  9.9999998E-03; -1.1075656E-01;7406; -2.5059480E-02;  0.0000000E+00; -4.2617582E-03;  9.9898987E+02;  1.7433594E-01; -8.3686517E+02;3;  1.9370315E+00;  0.0000000E+00;  3.9410019E+00;0; -1.4641605E-02;  1.3284537E+04;  0.0000000E+00; -7.8556728E-01;  4.0000000E+04;  0.0000000E+00;  3.9613535E+04; -4.8622955E-02;  0.0000000E+00;  3.3981349E-02;  2.0632905E+03;
  8.6039978E-01;  9.9999998E-03; -1.2080302E-01;7405; -2.4623750E-02;  0.0000000E+00; -4.6108346E-03;  9.9904553E+02;  1.7432036E-01; -7.9074298E+02;3;  1.8475747E+00;  0.0000000E+00;  4.2545724E+00;0; -1.3589904E-02;  1.3284422E+04;  0.0000000E+00; -7.9566634E-01;  4.0000000E+04;  0.0000000E+00;  3.9613047E+04; -4.5921005E-02;  0.0000000E+00;  3.2331102E-02;  1.8567543E+03;
  8.6019206E-01;  9.9999998E-03; -1.3084437E-01;7404; -2.4183095E-02;  0.0000000E+00; -4.9223788E-03;  9.9910156E+02;  1.7424037E-01; -7.4432458E+02;3;  1.7549230E+00;  0.0000000E+00;  4.5435147E+00;0; -1.2650488E-02;  1.3294375E+04;  0.0000000E+00; -7.8381121E-01;  4.0000000E+04;  0.0000000E+00;  3.9612285E+04; -4.3080773E-02;  0.0000000E+00;  3.0430285E-02;  1.5772634E+03;
  8.5998988E-01;  9.9999998E-03; -1.4089842E-01;7403; -2.3752665E-02;  0.0000000E+00; -5.1959446E-03;  9.9916217E+02;  1.7416176E-01; -6.9410376E+02;3;  1.6594963E+00;  0.0000000E+00;  4.7950125E+00;0; -1.1815578E-02;  1.3304392E+04;  0.0000000E+00; -7.7552891E-01;  4.0000000E+04;  0.0000000E+00;  3.9611996E+04; -4.0132064E-02;  0.0000000E+00;  2.8316487E-02;  1.3248154E+03;
  8.5983449E-01;  9.9999998E-03; -1.5094334E-01;7402; -2.3336606E-02;  0.0000000E+00; -5.4372554E-03;  9.9923010E+02;  1.7409930E-01; -6.3785846E+02;3;  1.5802097E+00;  0.0000000E+00;  5.0114284E+00;0; -1.1084437E-02;  1.3312133E+04;  0.0000000E+00; -8.0094135E-01;  4.0000000E+04;  0.0000000E+00;  3.9611961E+04; -3.7107904E-02;  0.0000000E+00;  2.6023466E-02;  1.1569060E+03;
  8.5974270E-01;  9.9999998E-03; -1.6097489E-01;7401; -2.2932326E-02;  0.0000000E+00; -5.6510847E-03;  9.9928802E+02;  1.7405508E-01; -5.8985980E+02;3;  1.4903567E+00;  0.0000000E+00;  5.2710857E+00;0; -1.0438520E-02;  1.3316407E+04;  0.0000000E+00; -8.8171655E-01;  4.0000000E+04;  0.0000000E+00;  3.9612676E+04; -3.4033459E-02;  0.0000000E+00;  2.3594938E-02;  1.0572899E+03;
  8.5970956E-01;  9.9999998E-03; -1.7099331E-01;7400; -2.2534965E-02;  0.0000000E+00; -5.8326996E-03;  9.9932678E+02;  1.7402804E-01; -5.5776196E+02;3;  1.4089910E+00;  0.0000000E+00;  5.4800596E+00;0; -9.8476075E-03;  1.3317770E+04;  0.0000000E+00; -1.0161289E+00;  4.0000000E+04;  0.0000000E+00;  3.9613746E+04; -3.0932670E-02;  0.0000000E+00;  2.1085063E-02;  1.0499470E+03;
  8.5969019E-01;  9.9999998E-03; -1.8100600E-01;7399; -2.2132553E-02;  0.0000000E+00; -6.0071852E-03;  9.9932440E+02;  1.7399713E-01; -5.5973724E+02;3;  1.3224517E+00;  0.0000000E+00;  5.6606278E+00;0; -9.2940908E-03;  1.3318990E+04;  0.0000000E+00; -1.1708900E+00;  4.0000000E+04;  0.0000000E+00;  3.9615660E+04; -2.7831934E-02;  0.0000000E+00;  1.8537844E-02;  1.1940618E+03;
  8.5964364E-01;  9.9999998E-03; -1.9102378E-01;7398; -2.1712892E-02;  0.0000000E+00; -6.1876322E-03;  9.9927075E+02;  1.7393865E-01; -6.0418042E+02;3;  1.2438277E+00;  0.0000000E+00;  5.8352728E+00;0; -8.7688752E-03;  1.3322695E+04;  0.0000000E+00; -1.2855647E+00;  4.0000000E+04;  0.0000000E+00;  3.9617840E+04; -2.4762396E-02;  0.0000000E+00;  1.5993521E-02;  1.3921229E+03;
  8.5950094E-01;  9.9999998E-03; -2.0104030E-01;7397; -2.1281270E-02;  0.0000000E+00; -6.3673733E-03;  9.9916333E+02;  1.7383802E-01; -6.9316553E+02;3;  1.1634066E+00;  0.0000000E+00;  6.0087752E+00;0; -8.2788123E-03;  1.3332094E+04;  0.0000000E+00; -1.2788527E+00;  4.0000000E+04;  0.0000000E+00;  3.9621316E+04; -2.1778554E-02;  0.0000000E+00;  1.3499741E-02;  1.4001926E+03;
  8.5932171E-01;  9.9999998E-03; -2.1106799E-01;7396; -2.0847093E-02;  0.0000000E+00; -6.5435381E-03;  9.9900616E+02;  1.7371981E-01; -8.2338403E+02;3;  1.1143976E+00;  0.0000000E+00;  6.1569705E+00;0; -7.7847531E-03;  1.3343334E+04;  0.0000000E+00; -1.0862339E+00;  4.0000000E+04;  0.0000000E+00;  3.9625598E+04; -1.8916596E-02;  0.0000000E+00;  1.1131843E-02;  1.1357390E+03;
  8.5914862E-01;  9.9999998E-03; -2.2112255E-01;7395; -2.0458352E-02;  0.0000000E+00; -6.6282363E-03;  9.9875269E+02;  1.7360167E-01; -1.0333534E+03;3;  1.0710366E+00;  0.0000000E+00;  6.3034081E+00;0; -7.3760767E-03;  1.3353285E+04;  0.0000000E+00; -6.7794836E-01;  4.0000000E+04;  0.0000000E+00;  3.9627539E+04; -1.6222749E-02;  0.0000000E+00;  8.8466723E-03;  8.4488330E+02;
  8.5899854E-01;  9.9999998E-03; -2.3116228E-01;7394; -2.0147564E-02;  0.0000000E+00; -6.6238195E-03;  9.9845605E+02;  1.7350204E-01; -1.2791243E+03;3;  1.0472045E+00;  0.0000000E+00;  6.3938355E+00;0; -7.2057243E-03;  1.3360246E+04;  0.0000000E+00; -8.0609463E-02;  4.0000000E+04;  0.0000000E+00;  3.9630016E+04; -1.3752251E-02;  0.0000000E+00;  6.5465267E-03;  1.8593812E+03;
  8.5887158E-01;  9.9999998E-03; -2.4119227E-01;7393; -1.9882156E-02;  0.0000000E+00; -6.6045467E-03;  9.9812280E+02;  1.7342499E-01; -1.5552152E+03;3;  1.0627086E+00;  0.0000000E+00;  6.4532480E+00;0; -7.2031231E-03;  1.3364044E+04;  0.0000000E+00;  6.1184055E-01;  4.0000000E+04;  0.0000000E+00;  3.9634918E+04; -1.1511352E-02;  0.0000000E+00;  4.3082288E-03;  3.3564561E+03;
  8.5880655E-01;  9.9999998E-03; -2.5122336E-01;7392; -1.9668862E-02;  0.0000000E+00; -6.5593091E-03;  9.9775293E+02;  1.7338832E-01; -1.8616757E+03;3;  1.0951515E+00;  0.0000000E+00;  6.4903207E+00;0; -7.4466928E-03;  1.3361325E+04;  0.0000000E+00;  1.2156130E+00;  4.0000000E+04;  0.0000000E+00;  3.9640125E+04; -9.4932970E-03;  0.0000000E+00;  2.0466042E-03;  4.3220249E+03;
  8.5880464E-01;  9.9999998E-03; -2.6125419E-01;7391; -1.9505041E-02;  0.0000000E+00; -6.5183830E-03;  9.9734454E+02;  1.7338814E-01; -2.1999871E+03;3;  1.1762909E+00;  0.0000000E+00;  6.5004349E+00;0; -7.7440511E-03;  1.3352376E+04;  0.0000000E+00;  1.4764498E+00;  4.0000000E+04;  0.0000000E+00;  3.9645930E+04; -7.6872413E-03;  0.0000000E+00; -5.6809622E-05;  4.1708877E+03;
  8.5901767E-01;  9.9999998E-03; -2.7128762E-01;7390; -1.9392084E-02;  0.0000000E+00; -6.4013316E-03;  9.9689313E+02;  1.7348425E-01; -2.5740010E+03;3;  1.2843577E+00;  0.0000000E+00;  6.4933786E+00;0; -8.8446364E-03;  1.3327645E+04;  0.0000000E+00;  1.2389680E+00;  4.0000000E+04;  0.0000000E+00;  3.9650793E+04; -6.0131978E-03;  0.0000000E+00; -2.8314381E-03;  3.8913376E+03;
  8.7790173E-01;  9.9999998E-03; -1.1075683E-01;7467; -2.5894333E-02;  0.0000000E+00; -4.4081276E-03;  9.9957977E+02;  1.8275844E-01; -3.4813828E+02;3;  2.4321194E+00;  0.0000000E+00;  4.1652713E+00;0; -1.3555266E-02;  1.2117637E+04;  0.0000000E+00; -6.2594843E-01;  4.0000000E+04;  0.0000000E+00;  3.9581023E+04; -4.9625978E-02;  0.0000000E+00;  3.6070712E-02;  1.2539796E+03;
  8.7798083E-01;  9.9999998E-03; -1.2081134E-01;7466; -2.5409875E-02;  0.0000000E+00; -4.7931238E-03;  9.9963995E+02;  1.8278958E-01; -2.9831253E+02;3;  2.3061583E+00;  0.0000000E+00;  4.5269451E+00;0; -1.2149304E-02;  1.2110465E+04;  0.0000000E+00; -6.5851259E-01;  4.0000000E+04;  0.0000000E+00;  3.9579762E+04; -4.6692319E-02;  0.0000000E+00;  3.4543015E-02;  1.1131121E+03;
  8.7797022E-01;  9.9999998E-03; -1.3086791E-01;7465; -2.4921356E-02;  0.0000000E+00; -5.1358147E-03;  9.9970691E+02;  1.8278068E-01; -2.4280792E+02;3;  2.1953573E+00;  0.0000000E+00;  4.8271451E+00;0; -1.0840811E-02;  1.2109459E+04;  0.0000000E+00; -6.8455046E-01;  4.0000000E+04;  0.0000000E+00;  3.9578277E+04; -4.3574762E-02;  0.0000000E+00;  3.2733951E-02;  1.0566190E+03;
  8.7788326E-01;  9.9999998E-03; -1.4092386E-01;7464; -2.4433218E-02;  0.0000000E+00; -5.4417928E-03;  9.9978882E+02;  1.8273625E-01; -1.7495801E+02;3;  2.0881979E+00;  0.0000000E+00;  5.0797839E+00;0; -9.6418373E-03;  1.2113826E+04;  0.0000000E+00; -7.2949070E-01;  4.0000000E+04;  0.0000000E+00;  3.9576848E+04; -4.0301923E-02;  0.0000000E+00;  3.0660085E-02;  1.1457614E+03;
  8.7775201E-01;  9.9999998E-03; -1.5097384E-01;7463; -2.3954343E-02;  0.0000000E+00; -5.7123662E-03;  9.9987262E+02;  1.8266727E-01; -1.0552787E+02;3;  1.9770086E+00;  0.0000000E+00;  5.3209677E+00;0; -8.5569993E-03;  1.2121660E+04;  0.0000000E+00; -8.2121217E-01;  4.0000000E+04;  0.0000000E+00;  3.9576172E+04; -3.6904607E-02;  0.0000000E+00;  2.8347608E-02;  1.2498518E+03;
  8.7762123E-01;  9.9999998E-03; -1.6101255E-01;7462; -2.3486087E-02;  0.0000000E+00; -5.9423125E-03;  9.9994708E+02;  1.8259618E-01; -4.3850609E+01;3;  1.8528842E+00;  0.0000000E+00;  5.5935221E+00;0; -7.5649656E-03;  1.2129851E+04;  0.0000000E+00; -9.7823477E-01;  4.0000000E+04;  0.0000000E+00;  3.9576543E+04; -3.3410288E-02;  0.0000000E+00;  2.5845323E-02;  1.2676467E+03;
  8.7755400E-01;  9.9999998E-03; -1.7104062E-01;7461; -2.3023345E-02;  0.0000000E+00; -6.1484906E-03;  9.9999097E+02;  1.8255143E-01; -7.5059600E+00;3;  1.7409503E+00;  0.0000000E+00;  5.7859449E+00;0; -6.6194478E-03;  1.2134542E+04;  0.0000000E+00; -1.1973280E+00;  4.0000000E+04;  0.0000000E+00;  3.9577332E+04; -2.9839598E-02;  0.0000000E+00;  2.3220150E-02;  1.3108866E+03;
  8.7754482E-01;  9.9999998E-03; -1.8106264E-01;7460; -2.2556886E-02;  0.0000000E+00; -6.3548270E-03;  9.9999823E+02;  1.8252826E-01; -1.4814395E+00;3;  1.6335613E+00;  0.0000000E+00;  5.9774132E+00;0; -5.6835953E-03;  1.2135930E+04;  0.0000000E+00; -1.4441664E+00;  4.0000000E+04;  0.0000000E+00;  3.9578758E+04; -2.6213003E-02;  0.0000000E+00;  2.0529408E-02;  1.5886228E+03;
  8.7755358E-01;  9.9999998E-03; -1.9108734E-01;7459; -2.2074824E-02;  0.0000000E+00; -6.5727467E-03;  9.9994147E+02;  1.8250385E-01; -4.8492451E+01;3;  1.5277927E+00;  0.0000000E+00;  6.1607890E+00;0; -4.7341753E-03;  1.2136627E+04;  0.0000000E+00; -1.6576750E+00;  4.0000000E+04;  0.0000000E+00;  3.9580922E+04; -2.2557467E-02;  0.0000000E+00;  1.7823292E-02;  2.0264489E+03;
  8.7756199E-01;  9.9999998E-03; -2.0112053E-01;7458; -2.1580767E-02;  0.0000000E+00; -6.7993668E-03;  9.9982294E+02;  1.8246844E-01; -1.4671188E+02;3;  1.4322712E+00;  0.0000000E+00;  6.3378267E+00;0; -3.7472798E-03;  1.2137570E+04;  0.0000000E+00; -1.7660182E+00;  4.0000000E+04;  0.0000000E+00;  3.9583934E+04; -1.8913334E-02;  0.0000000E+00;  1.5166054E-02;  2.3376887E+03;
  8.7755668E-01;  9.9999998E-03; -2.1116114E-01;7457; -2.1081591E-02;  0.0000000E+00; -7.0204479E-03;  9.9962866E+02;  1.8241771E-01; -3.0764560E+02;3;  1.3607862E+00;  0.0000000E+00;  6.5122066E+00;0; -2.6838779E-03;  1.2139042E+04;  0.0000000E+00; -1.7079018E+00;  4.0000000E+04;  0.0000000E+00;  3.9587754E+04; -1.5332690E-02;  0.0000000E+00;  1.2648812E-02;  2.3050190E+03;
  8.7753415E-01;  9.9999998E-03; -2.2122602E-01;7456; -2.0661747E-02;  0.0000000E+00; -7.1145380E-03;  9.9932532E+02;  1.8235521E-01; -5.5894708E+02;3;  1.2463288E+00;  0.0000000E+00;  6.6567931E+00;0; -1.7080642E-03;  1.2140691E+04;  0.0000000E+00; -1.4481584E+00;  4.0000000E+04;  0.0000000E+00;  3.9589133E+04; -1.1895854E-02;  0.0000000E+00;  1.0187790E-02;  1.8164042E+03;
  8.7744063E-01;  9.9999998E-03; -2.3128071E-01;7455; -2.0359959E-02;  0.0000000E+00; -7.0515671E-03;  9.9894275E+02;  1.8226907E-01; -8.7592578E+02;3;  1.2024040E+00;  0.0000000E+00;  6.7470365E+00;0; -1.1713146E-03;  1.2145029E+04;  0.0000000E+00; -9.8760825E-01;  4.0000000E+04;  0.0000000E+00;  3.9589820E+04; -8.7021831E-03;  0.0000000E+00;  7.5308685E-03;  9.5649915E+02;
  8.7725812E-01;  9.9999998E-03; -2.4131362E-01;7454; -2.0109368E-02;  0.0000000E+00; -6.9856145E-03;  9.9855737E+02;  1.8215969E-01; -1.1951760E+03;3;  1.2087603E+00;  0.0000000E+00;  6.7873249E+00;0; -9.0912683E-04;  1.2152487E+04;  0.0000000E+00; -3.9726841E-01;  4.0000000E+04;  0.0000000E+00;  3.9594656E+04; -5.7737352E-03;  0.0000000E+00;  4.8646084E-03;  9.5979095E+02;
  8.7711042E-01;  9.9999998E-03; -2.5134623E-01;7453; -1.9928910E-02;  0.0000000E+00; -6.8750093E-03;  9.9813037E+02;  1.8209074E-01; -1.5489437E+03;3;  1.2067202E+00;  0.0000000E+00;  6.8309326E+00;0; -1.1675394E-03;  1.2154846E+04;  0.0000000E+00;  1.3321152E-01;  4.0000000E+04;  0.0000000E+00;  3.9600227E+04; -3.0975738E-03;  0.0000000E+00;  1.9300344E-03;  1.7085063E+03;
  8.7737000E-01;  9.9999998E-03; -2.6137978E-01;7452; -1.9787157E-02;  0.0000000E+00; -6.8014916E-03;  9.9766162E+02;  1.8223773E-01; -1.9372784E+03;3;  1.2548510E+00;  0.0000000E+00;  6.8488579E+00;0; -1.3667354E-03;  1.2127819E+04;  0.0000000E+00;  3.5324845E-01;  4.0000000E+04;  0.0000000E+00;  3.9606738E+04; -5.0329155E-04;  0.0000000E+00; -8.6344389E-04;  2.6872979E+03;
  8.7780201E-01;  9.9999998E-03; -2.7141607E-01;7451; -1.9690331E-02;  0.0000000E+00; -6.6781417E-03;  9.9717523E+02;  1.8247740E-01; -2.3402793E+03;3;  1.3434120E+00;  0.0000000E+00;  6.8221035E+00;0; -2.2075484E-03;  1.2087884E+04;  0.0000000E+00;  3.0436620E-01;  4.0000000E+04;  0.0000000E+00;  3.9611898E+04;  1.9598724E-03;  0.0000000E+00; -4.1674208E-03;  4.9695171E+03;
  8.9674973E-01;  9.9999998E-03; -2.7154702E-01;7512; -1.9700039E-02;  0.0000000E+00; -7.0256465E-03;  9.9785046E+02;  1.9199100E-01; -1.7808383E+03;3;  1.4357182E+00;  0.0000000E+00;  7.0632730E+00;0;  5.6997729E-03;  1.0961472E+04;  0.0000000E+00; -5.4937738E-01;  4.0000000E+04;  0.0000000E+00;  3.9567312E+04;  1.0481406E-02;  0.0000000E+00; -4.7816331E-03;  6.5134604E+03;
  8.9625621E-01;  9.9999998E-03; -2.6150966E-01;7513; -1.9810315E-02;  0.0000000E+00; -7.1548880E-03;  9.9833209E+02;  1.9173323E-01; -1.3818373E+03;3;  1.3680395E+00;  0.0000000E+00;  7.0723624E+00;0;  6.1150668E-03;  1.0998234E+04;  0.0000000E+00; -3.1825683E-01;  4.0000000E+04;  0.0000000E+00;  3.9561223E+04;  7.1358113E-03;  0.0000000E+00; -1.0207447E-03;  2.8965635E+03;
  8.9570779E-01;  9.9999998E-03; -2.5147352E-01;7514; -1.9934962E-02;  0.0000000E+00; -7.2944313E-03;  9.9881592E+02;  1.9143374E-01; -9.8100916E+02;3;  1.3569949E+00;  0.0000000E+00;  7.0589042E+00;0;  6.2553720E-03;  1.1038366E+04;  0.0000000E+00; -3.4114957E-01;  4.0000000E+04;  0.0000000E+00;  3.9555312E+04;  3.5929228E-03;  0.0000000E+00;  2.6624491E-03;  7.3824310E+02;
  8.9572513E-01;  9.9999998E-03; -2.4143624E-01;7515; -2.0088499E-02;  0.0000000E+00; -7.4900417E-03;  9.9921899E+02;  1.9141844E-01; -6.4704333E+02;3;  1.4359685E+00;  0.0000000E+00;  7.0117989E+00;0;  6.3167647E-03;  1.1043420E+04;  0.0000000E+00; -6.4194047E-01;  4.0000000E+04;  0.0000000E+00;  3.9551223E+04;  3.3793222E-05;  0.0000000E+00;  6.2829717E-03;  4.1049512E+02;
  8.9591187E-01;  9.9999998E-03; -2.3139161E-01;7516; -2.0333812E-02;  0.0000000E+00; -7.6363315E-03;  9.9957513E+02;  1.9151023E-01; -3.5198999E+02;3;  1.4616562E+00;  0.0000000E+00;  6.9710326E+00;0;  5.6313057E-03;  1.1035971E+04;  0.0000000E+00; -1.0890462E+00;  4.0000000E+04;  0.0000000E+00;  3.9548633E+04; -3.7321546E-03;  0.0000000E+00;  9.3634604E-03;  1.1472743E+03;
  8.9601606E-01;  9.9999998E-03; -2.2130676E-01;7517; -2.0650897E-02;  0.0000000E+00; -7.7648577E-03;  9.9994135E+02;  1.9158123E-01; -4.8591209E+01;3;  1.5461463E+00;  0.0000000E+00;  6.8680334E+00;0;  4.5088143E-03;  1.1031316E+04;  0.0000000E+00; -1.4855031E+00;  4.0000000E+04;  0.0000000E+00;  3.9552160E+04; -7.7518714E-03;  0.0000000E+00;  1.2260686E-02;  1.8912092E+03;
  8.9601958E-01;  9.9999998E-03; -2.1120697E-01;7518; -2.1141144E-02;  0.0000000E+00; -7.6417946E-03;  1.0001978E+03;  1.9161187E-01;  1.6384720E+02;3;  1.6836092E+00;  0.0000000E+00;  6.7466860E+00;0;  2.7614366E-03;  1.1030721E+04;  0.0000000E+00; -1.7259476E+00;  4.0000000E+04;  0.0000000E+00;  3.9552641E+04; -1.2003466E-02;  0.0000000E+00;  1.4764902E-02;  2.4096204E+03;
  8.9600968E-01;  9.9999998E-03; -2.0113941E-01;7519; -2.1735622E-02;  0.0000000E+00; -7.3567601E-03;  1.0003205E+03;  1.9163433E-01;  2.6557269E+02;3;  1.7744913E+00;  0.0000000E+00;  6.5913806E+00;0;  9.8711625E-04;  1.1030065E+04;  0.0000000E+00; -1.7950706E+00;  4.0000000E+04;  0.0000000E+00;  3.9548418E+04; -1.6352946E-02;  0.0000000E+00;  1.7340062E-02;  2.4952422E+03;
  8.9600497E-01;  9.9999998E-03; -1.9109513E-01;7520; -2.2332724E-02;  0.0000000E+00; -7.0566447E-03;  1.0003569E+03;  1.9164902E-01;  2.9569528E+02;3;  1.9067302E+00;  0.0000000E+00;  6.3904457E+00;0; -6.1563961E-04;  1.1028629E+04;  0.0000000E+00; -1.7141134E+00;  4.0000000E+04;  0.0000000E+00;  3.9544055E+04; -2.0704521E-02;  0.0000000E+00;  2.0088881E-02;  2.2774199E+03;
  8.9602572E-01;  9.9999998E-03; -1.8107046E-01;7521; -2.2897894E-02;  0.0000000E+00; -6.7986813E-03;  1.0003271E+03;  1.9166999E-01;  2.7100464E+02;3;  2.0035591E+00;  0.0000000E+00;  6.2302842E+00;0; -2.0902343E-03;  1.1025495E+04;  0.0000000E+00; -1.5291592E+00;  4.0000000E+04;  0.0000000E+00;  3.9541246E+04; -2.4996631E-02;  0.0000000E+00;  2.2906397E-02;  1.9365360E+03;
  8.9607972E-01;  9.9999998E-03; -1.7104414E-01;7522; -2.3443365E-02;  0.0000000E+00; -6.5606041E-03;  1.0002526E+03;  1.9170292E-01;  2.0927800E+02;3;  2.1378765E+00;  0.0000000E+00;  6.0461717E+00;0; -3.5090279E-03;  1.1020406E+04;  0.0000000E+00; -1.2981880E+00;  4.0000000E+04;  0.0000000E+00;  3.9539441E+04; -2.9202735E-02;  0.0000000E+00;  2.5693707E-02;  1.6829006E+03;
  8.9611858E-01;  9.9999998E-03; -1.6098967E-01;7523; -2.3985667E-02;  0.0000000E+00; -6.3209506E-03;  1.0001324E+03;  1.9173066E-01;  1.0972527E+02;3;  2.2741182E+00;  0.0000000E+00;  5.8460736E+00;0; -4.9235132E-03;  1.1015750E+04;  0.0000000E+00; -1.0717080E+00;  4.0000000E+04;  0.0000000E+00;  3.9539551E+04; -3.3303782E-02;  0.0000000E+00;  2.8380269E-02;  1.5891119E+03;
  8.9623815E-01;  9.9999998E-03; -1.5092510E-01;7524; -2.4540633E-02;  0.0000000E+00; -6.0465136E-03;  1.0000043E+03;  1.9179848E-01;  3.5554545E+00;3;  2.4345543E+00;  0.0000000E+00;  5.5584235E+00;0; -6.3646194E-03;  1.1006958E+04;  0.0000000E+00; -8.8160348E-01;  4.0000000E+04;  0.0000000E+00;  3.9539875E+04; -3.7270196E-02;  0.0000000E+00;  3.0905576E-02;  1.5199780E+03;
  8.9641845E-01;  9.9999998E-03; -1.4085087E-01;7525; -2.5106095E-02;  0.0000000E+00; -5.7305736E-03;  9.9988153E+02;  1.9189313E-01; -9.8170052E+01;3;  2.5608754E+00;  0.0000000E+00;  5.3274322E+00;0; -7.8783967E-03;  1.0995785E+04;  0.0000000E+00; -7.3605800E-01;  4.0000000E+04;  0.0000000E+00;  3.9541453E+04; -4.1083805E-02;  0.0000000E+00;  3.3205409E-02;  1.3365106E+03;
  8.9660460E-01;  9.9999998E-03; -1.3077345E-01;7526; -2.5675263E-02;  0.0000000E+00; -5.3868862E-03;  9.9978229E+02;  1.9198896E-01; -1.8038994E+02;3;  2.6987884E+00;  0.0000000E+00;  5.0832019E+00;0; -9.4924830E-03;  1.0985340E+04;  0.0000000E+00; -6.2776899E-01;  4.0000000E+04;  0.0000000E+00;  3.9543141E+04; -4.4721801E-02;  0.0000000E+00;  3.5229318E-02;  1.0452996E+03;
  8.9674813E-01;  9.9999998E-03; -1.2070646E-01;7527; -2.6241958E-02;  0.0000000E+00; -5.0048488E-03;  9.9969489E+02;  1.9206555E-01; -2.5278293E+02;3;  2.8494222E+00;  0.0000000E+00;  4.7537351E+00;0; -1.1204187E-02;  1.0978300E+04;  0.0000000E+00; -5.4262716E-01;  4.0000000E+04;  0.0000000E+00;  3.9545047E+04; -4.8154179E-02;  0.0000000E+00;  3.6949992E-02;  7.3942572E+02;
  8.9680254E-01;  9.9999998E-03; -1.1065913E-01;7528; -2.6809754E-02;  0.0000000E+00; -4.5650923E-03;  9.9963043E+02;  1.9210176E-01; -3.0616412E+02;3;  3.0144713E+00;  0.0000000E+00;  4.3883343E+00;0; -1.3000101E-02;  1.0976795E+04;  0.0000000E+00; -4.6658719E-01;  4.0000000E+04;  0.0000000E+00;  3.9546469E+04; -5.1351462E-02;  0.0000000E+00;  3.8351361E-02;  5.3178888E+02;
  9.1723144E-01;  9.9999998E-03; -2.7167425E-01;7573; -1.9258980E-02;  0.0000000E+00; -7.5734449E-03;  9.9770685E+02;  2.0254900E-01; -1.8998472E+03;3;  1.7085812E+00;  0.0000000E+00;  7.1103525E+00;0;  1.5038008E-02;  9.8604189E+03;  0.0000000E+00; -5.6875259E-01;  4.0000000E+04;  0.0000000E+00;  3.9528523E+04;  1.7932061E-02;  0.0000000E+00; -2.8940535E-03;  3.9006221E+03;
  9.1678953E-01;  9.9999998E-03; -2.6163292E-01;7574; -1.9413162E-02;  0.0000000E+00; -7.7588353E-03;  9.9820245E+02;  2.0229708E-01; -1.4892416E+03;3;  1.7434962E+00;  0.0000000E+00;  7.1043167E+00;0;  1.5130666E-02;  9.8918555E+03;  0.0000000E+00; -4.9849451E-01;  4.0000000E+04;  0.0000000E+00;  3.9522160E+04;  1.3765154E-02;  0.0000000E+00;  1.3655119E-03;  2.0858950E+03;
  9.1636491E-01;  9.9999998E-03; -2.5159022E-01;7575; -1.9566569E-02;  0.0000000E+00; -8.0151446E-03;  9.9867938E+02;  2.0204093E-01; -1.0940924E+03;3;  1.7714131E+00;  0.0000000E+00;  7.0923910E+00;0;  1.5154503E-02;  9.9218457E+03;  0.0000000E+00; -5.3810310E-01;  4.0000000E+04;  0.0000000E+00;  3.9517152E+04;  9.4159152E-03;  0.0000000E+00;  5.7385885E-03;  9.3420111E+02;
  9.1629410E-01;  9.9999998E-03; -2.4154228E-01;7576; -1.9782262E-02;  0.0000000E+00; -8.2542198E-03;  9.9909619E+02;  2.0196849E-01; -7.4876886E+02;3;  1.8783889E+00;  0.0000000E+00;  7.0426593E+00;0;  1.4275807E-02;  9.9313486E+03;  0.0000000E+00; -6.8638533E-01;  4.0000000E+04;  0.0000000E+00;  3.9514109E+04;  4.9385456E-03;  0.0000000E+00;  9.3372613E-03;  6.3811713E+02;
  9.1638815E-01;  9.9999998E-03; -2.3148574E-01;7577; -2.0123361E-02;  0.0000000E+00; -8.3682677E-03;  9.9942847E+02;  2.0199654E-01; -4.7351740E+02;3;  1.9441909E+00;  0.0000000E+00;  6.9773417E+00;0;  1.2399105E-02;  9.9297305E+03;  0.0000000E+00; -9.0290856E-01;  4.0000000E+04;  0.0000000E+00;  3.9511762E+04;  2.8270949E-04;  0.0000000E+00;  1.2116396E-02;  9.4748871E+02;
  9.1633737E-01;  9.9999998E-03; -2.2138405E-01;7578; -2.0537019E-02;  0.0000000E+00; -8.4674507E-03;  9.9975696E+02;  2.0197153E-01; -2.0137698E+02;3;  2.0747666E+00;  0.0000000E+00;  6.8859997E+00;0;  1.0307027E-02;  9.9337676E+03;  0.0000000E+00; -1.1187530E+00;  4.0000000E+04;  0.0000000E+00;  3.9515633E+04; -4.5664832E-03;  0.0000000E+00;  1.4873510E-02;  1.2555372E+03;
  9.1614389E-01;  9.9999998E-03; -2.1126764E-01;7579; -2.1150066E-02;  0.0000000E+00; -8.2839541E-03;  9.9997015E+02;  2.0188989E-01; -2.4740038E+01;3;  2.1430802E+00;  0.0000000E+00;  6.7870531E+00;0;  7.7018524E-03;  9.9431904E+03;  0.0000000E+00; -1.2795794E+00;  4.0000000E+04;  0.0000000E+00;  3.9515840E+04; -9.5665446E-03;  0.0000000E+00;  1.7268397E-02;  1.5000818E+03;
  9.1580862E-01;  9.9999998E-03; -2.0118560E-01;7580; -2.1878393E-02;  0.0000000E+00; -7.8973323E-03;  1.0000148E+03;  2.0174253E-01;  1.2246566E+01;3;  2.2411871E+00;  0.0000000E+00;  6.6568170E+00;0;  5.1472317E-03;  9.9573262E+03;  0.0000000E+00; -1.3675177E+00;  4.0000000E+04;  0.0000000E+00;  3.9511680E+04; -1.4607942E-02;  0.0000000E+00;  1.9755173E-02;  1.5903906E+03;
  9.1540790E-01;  9.9999998E-03; -1.9111764E-01;7581; -2.2586463E-02;  0.0000000E+00; -7.5287502E-03;  9.9996832E+02;  2.0156506E-01; -2.6221478E+01;3;  2.3283353E+00;  0.0000000E+00;  6.5207725E+00;0;  2.8851870E-03;  9.9731533E+03;  0.0000000E+00; -1.3836844E+00;  4.0000000E+04;  0.0000000E+00;  3.9507543E+04; -1.9600118E-02;  0.0000000E+00;  2.2485305E-02;  1.6798037E+03;
  9.1515315E-01;  9.9999998E-03; -1.8106261E-01;7582; -2.3252519E-02;  0.0000000E+00; -7.2197639E-03;  9.9986755E+02;  2.0145521E-01; -1.0972527E+02;3;  2.4657927E+00;  0.0000000E+00;  6.3740187E+00;0;  8.3057955E-04;  9.9815098E+03;  0.0000000E+00; -1.3311590E+00;  4.0000000E+04;  0.0000000E+00;  3.9504844E+04; -2.4480142E-02;  0.0000000E+00;  2.5310721E-02;  1.6907034E+03;
  9.1505158E-01;  9.9999998E-03; -1.7100494E-01;7583; -2.3889534E-02;  0.0000000E+00; -6.9528939E-03;  9.9972852E+02;  2.0141892E-01; -2.2493187E+02;3;  2.5854695E+00;  0.0000000E+00;  6.2266655E+00;0; -1.1106487E-03;  9.9822324E+03;  0.0000000E+00; -1.2257105E+00;  4.0000000E+04;  0.0000000E+00;  3.9503746E+04; -2.9221566E-02;  0.0000000E+00;  2.8110918E-02;  1.6099264E+03;
  9.1508240E-01;  9.9999998E-03; -1.6093761E-01;7584; -2.4522264E-02;  0.0000000E+00; -6.6843368E-03;  9.9956989E+02;  2.0144808E-01; -3.5633554E+02;3;  2.7423229E+00;  0.0000000E+00;  6.0344558E+00;0; -3.0062869E-03;  9.9764805E+03;  0.0000000E+00; -1.0875847E+00;  4.0000000E+04;  0.0000000E+00;  3.9504219E+04; -3.3804782E-02;  0.0000000E+00;  3.0798495E-02;  1.4962345E+03;
  9.1522276E-01;  9.9999998E-03; -1.5086277E-01;7585; -2.5170077E-02;  0.0000000E+00; -6.3740048E-03;  9.9940369E+02;  2.0153262E-01; -4.9401065E+02;3;  2.9156392E+00;  0.0000000E+00;  5.7764373E+00;0; -4.9144849E-03;  9.9655869E+03;  0.0000000E+00; -9.3332970E-01;  4.0000000E+04;  0.0000000E+00;  3.9505652E+04; -3.8211223E-02;  0.0000000E+00;  3.3296738E-02;  1.3853044E+03;
  9.1544563E-01;  9.9999998E-03; -1.4078526E-01;7586; -2.5829464E-02;  0.0000000E+00; -6.0168062E-03;  9.9925012E+02;  2.0166172E-01; -6.2126630E+02;3;  3.0834630E+00;  0.0000000E+00;  5.5262322E+00;0; -6.8836138E-03;  9.9512715E+03;  0.0000000E+00; -7.7489567E-01;  4.0000000E+04;  0.0000000E+00;  3.9507523E+04; -4.2422842E-02;  0.0000000E+00;  3.5539228E-02;  1.3073776E+03;
  9.1570091E-01;  9.9999998E-03; -1.3070850E-01;7587; -2.6496045E-02;  0.0000000E+00; -5.6146542E-03;  9.9911578E+02;  2.0180783E-01; -7.3257178E+02;3;  3.2756681E+00;  0.0000000E+00;  5.2200904E+00;0; -8.9395232E-03;  9.9362500E+03;  0.0000000E+00; -6.2152672E-01;  4.0000000E+04;  0.0000000E+00;  3.9509555E+04; -4.6420109E-02;  0.0000000E+00;  3.7480585E-02;  1.2877279E+03;
  9.1593671E-01;  9.9999998E-03; -1.2063851E-01;7588; -2.7167346E-02;  0.0000000E+00; -5.1615369E-03;  9.9900476E+02;  2.0194417E-01; -8.2451978E+02;3;  3.4625130E+00;  0.0000000E+00;  4.9082422E+00;0; -1.1077415E-02;  9.9232783E+03;  0.0000000E+00; -4.8093337E-01;  4.0000000E+04;  0.0000000E+00;  3.9511070E+04; -5.0175723E-02;  0.0000000E+00;  3.9098307E-02;  1.3025443E+03;
  9.1610980E-01;  9.9999998E-03; -1.1058321E-01;7589; -2.7823620E-02;  0.0000000E+00; -4.6705413E-03;  9.9891272E+02;  2.0204930E-01; -9.0081390E+02;3;  3.6333091E+00;  0.0000000E+00;  4.5772190E+00;0; -1.3277542E-02;  9.9146104E+03;  0.0000000E+00; -3.5874662E-01;  4.0000000E+04;  0.0000000E+00;  3.9511969E+04; -5.3656805E-02;  0.0000000E+00;  4.0379263E-02;  1.2916074E+03;
  9.3879670E-01;  9.9999998E-03; -2.6175123E-01;7635; -1.8204056E-02;  0.0000000E+00; -8.8380268E-03;  9.9752081E+02;  2.1408853E-01; -2.0539661E+03;3;  2.7469673E+00;  0.0000000E+00;  6.8297029E+00;0;  2.5210777E-02;  8.8277148E+03;  0.0000000E+00; -6.5666735E-01;  4.0000000E+04;  0.0000000E+00;  3.9487344E+04;  1.6200405E-02;  0.0000000E+00;  9.0103727E-03;  1.9856608E+03;
  9.3843609E-01;  9.9999998E-03; -2.5169915E-01;7636; -1.8628445E-02;  0.0000000E+00; -9.1608763E-03;  9.9806659E+02;  2.1386153E-01; -1.6017815E+03;3;  2.7070732E+00;  0.0000000E+00;  6.8174992E+00;0;  2.3854118E-02;  8.8523711E+03;  0.0000000E+00; -5.8581704E-01;  4.0000000E+04;  0.0000000E+00;  3.9483453E+04;  1.1505245E-02;  0.0000000E+00;  1.2348872E-02;  1.3980710E+03;
  9.3859071E-01;  9.9999998E-03; -2.4164313E-01;7637; -1.9101880E-02;  0.0000000E+00; -9.3523161E-03;  9.9856635E+02;  2.1391046E-01; -1.1877686E+03;3;  2.6680489E+00;  0.0000000E+00;  6.7719550E+00;0;  2.1015659E-02;  8.8521602E+03;  0.0000000E+00; -3.8513428E-01;  4.0000000E+04;  0.0000000E+00;  3.9479871E+04;  6.6337674E-03;  0.0000000E+00;  1.4381891E-02;  9.0907153E+02;
  9.3859136E-01;  9.9999998E-03; -2.3158035E-01;7638; -1.9743990E-02;  0.0000000E+00; -9.2820236E-03;  9.9894641E+02;  2.1387824E-01; -8.7286401E+02;3;  2.6713202E+00;  0.0000000E+00;  6.7128620E+00;0;  1.7229509E-02;  8.8569717E+03;  0.0000000E+00; -2.0051360E-01;  4.0000000E+04;  0.0000000E+00;  3.9475945E+04;  1.6294104E-03;  0.0000000E+00;  1.5600097E-02;  1.2231366E+03;
  9.3833709E-01;  9.9999998E-03; -2.2147016E-01;7639; -2.0371491E-02;  0.0000000E+00; -9.2677372E-03;  9.9928668E+02;  2.1372281E-01; -5.9094611E+02;3;  2.7549825E+00;  0.0000000E+00;  6.6611099E+00;0;  1.4065198E-02;  8.8715225E+03;  0.0000000E+00; -1.1366998E-01;  4.0000000E+04;  0.0000000E+00;  3.9478629E+04; -3.5214007E-03;  0.0000000E+00;  1.7586598E-02;  1.9987701E+03;
  9.3789804E-01;  9.9999998E-03; -2.1133325E-01;7640; -2.1174280E-02;  0.0000000E+00; -8.9499950E-03;  9.9948438E+02;  2.1349463E-01; -4.2719769E+02;3;  2.7269931E+00;  0.0000000E+00;  6.6243763E+00;0;  1.0732071E-02;  8.8918184E+03;  0.0000000E+00; -1.3886485E-01;  4.0000000E+04;  0.0000000E+00;  3.9480035E+04; -8.7684421E-03;  0.0000000E+00;  1.9500513E-02;  2.3254468E+03;
  9.3741494E-01;  9.9999998E-03; -2.0123829E-01;7641; -2.2089798E-02;  0.0000000E+00; -8.3948923E-03;  9.9949976E+02;  2.1325412E-01; -4.1445731E+02;3;  2.7988465E+00;  0.0000000E+00;  6.5638633E+00;0;  7.6619936E-03;  8.9119121E+03;  0.0000000E+00; -2.5284645E-01;  4.0000000E+04;  0.0000000E+00;  3.9475082E+04; -1.4043194E-02;  0.0000000E+00;  2.1705188E-02;  2.1782695E+03;
  9.3697619E-01;  9.9999998E-03; -1.9116609E-01;7642; -2.2948317E-02;  0.0000000E+00; -7.9347352E-03;  9.9943066E+02;  2.1303785E-01; -4.7169025E+02;3;  2.8631210E+00;  0.0000000E+00;  6.5224533E+00;0;  5.0392821E-03;  8.9286709E+03;  0.0000000E+00; -4.2101929E-01;  4.0000000E+04;  0.0000000E+00;  3.9470414E+04; -1.9307481E-02;  0.0000000E+00;  2.4346763E-02;  1.9803699E+03;
  9.3667823E-01;  9.9999998E-03; -1.8110479E-01;7643; -2.3730973E-02;  0.0000000E+00; -7.5934795E-03;  9.9932013E+02;  2.1289772E-01; -5.6324323E+02;3;  2.9686387E+00;  0.0000000E+00;  6.4407759E+00;0;  2.6322566E-03;  8.9383643E+03;  0.0000000E+00; -5.9824419E-01;  4.0000000E+04;  0.0000000E+00;  3.9467715E+04; -2.4509523E-02;  0.0000000E+00;  2.7141780E-02;  1.7769252E+03;
  9.3654090E-01;  9.9999998E-03; -1.7104799E-01;7644; -2.4479315E-02;  0.0000000E+00; -7.2988747E-03;  9.9918372E+02;  2.1284074E-01; -6.7627704E+02;3;  3.1105175E+00;  0.0000000E+00;  6.3303285E+00;0;  3.0909665E-04;  8.9406240E+03;  0.0000000E+00; -7.4384075E-01;  4.0000000E+04;  0.0000000E+00;  3.9466973E+04; -2.9602211E-02;  0.0000000E+00;  2.9911308E-02;  1.5707444E+03;
  9.3653619E-01;  9.9999998E-03; -1.6099265E-01;7645; -2.5221663E-02;  0.0000000E+00; -6.9974167E-03;  9.9903192E+02;  2.1285442E-01; -8.0205121E+02;3;  3.2921610E+00;  0.0000000E+00;  6.1443782E+00;0; -1.9901246E-03;  8.9366182E+03;  0.0000000E+00; -8.2593787E-01;  4.0000000E+04;  0.0000000E+00;  3.9467566E+04; -3.4547985E-02;  0.0000000E+00;  3.2557860E-02;  1.3722994E+03;
  9.3664926E-01;  9.9999998E-03; -1.5093854E-01;7646; -2.5984658E-02;  0.0000000E+00; -6.6277878E-03;  9.9888184E+02;  2.1293572E-01; -9.2639337E+02;3;  3.4944503E+00;  0.0000000E+00;  5.8816180E+00;0; -4.3165646E-03;  8.9274238E+03;  0.0000000E+00; -8.2773983E-01;  4.0000000E+04;  0.0000000E+00;  3.9469180E+04; -3.9318111E-02;  0.0000000E+00;  3.5001546E-02;  1.2391267E+03;
  9.3688434E-01;  9.9999998E-03; -1.4088853E-01;7647; -2.6759155E-02;  0.0000000E+00; -6.2139193E-03;  9.9873608E+02;  2.1308316E-01; -1.0471306E+03;3;  3.7085371E+00;  0.0000000E+00;  5.6551533E+00;0; -6.7066550E-03;  8.9129980E+03;  0.0000000E+00; -7.5251055E-01;  4.0000000E+04;  0.0000000E+00;  3.9471367E+04; -4.3889903E-02;  0.0000000E+00;  3.7183248E-02;  1.3305531E+03;
  9.3722564E-01;  9.9999998E-03; -1.3084924E-01;7648; -2.7539231E-02;  0.0000000E+00; -5.7675620E-03;  9.9860925E+02;  2.1328987E-01; -1.1522141E+03;3;  3.9272144E+00;  0.0000000E+00;  5.3916287E+00;0; -9.1775879E-03;  8.8944629E+03;  0.0000000E+00; -6.2103832E-01;  4.0000000E+04;  0.0000000E+00;  3.9473273E+04; -4.8240807E-02;  0.0000000E+00;  3.9063219E-02;  1.6881787E+03;
  9.3759638E-01;  9.9999998E-03; -1.2082011E-01;7649; -2.8317843E-02;  0.0000000E+00; -5.2732350E-03;  9.9849982E+02;  2.1351278E-01; -1.2428782E+03;3;  4.1461992E+00;  0.0000000E+00;  5.0845885E+00;0; -1.1719987E-02;  8.8754238E+03;  0.0000000E+00; -4.6390164E-01;  4.0000000E+04;  0.0000000E+00;  3.9474289E+04; -5.2342236E-02;  0.0000000E+00;  4.0622249E-02;  2.1144419E+03;
  9.3791658E-01;  9.9999998E-03; -1.1080065E-01;7650; -2.9074123E-02;  0.0000000E+00; -4.7460375E-03;  9.9841614E+02;  2.1370988E-01; -1.3122095E+03;3;  4.3733497E+00;  0.0000000E+00;  4.7440414E+00;0; -1.4307797E-02;  8.8595576E+03;  0.0000000E+00; -3.1181452E-01;  4.0000000E+04;  0.0000000E+00;  3.9474023E+04; -5.6157455E-02;  0.0000000E+00;  4.1849658E-02;  2.4063972E+03;
  9.6239370E-01;  9.9999998E-03; -2.6187313E-01;7696; -1.6737118E-02;  0.0000000E+00; -9.8225838E-03;  9.9699402E+02;  2.2734883E-01; -2.4903977E+03;3;  3.7199934E+00;  0.0000000E+00;  6.6544671E+00;0;  3.1532645E-02;  7.8238564E+03;  0.0000000E+00; -8.2866132E-01;  4.0000000E+04;  0.0000000E+00;  3.9451328E+04;  1.4492621E-02;  0.0000000E+00;  1.7040025E-02;  3.5005266E+03;
  9.6207911E-01;  9.9999998E-03; -2.5181109E-01;7697; -1.7604096E-02;  0.0000000E+00; -1.0137361E-02;  9.9763617E+02;  2.2714178E-01; -1.9583636E+03;3;  3.5913930E+00;  0.0000000E+00;  6.5778065E+00;0;  2.8709244E-02;  7.8451738E+03;  0.0000000E+00; -3.5149881E-01;  4.0000000E+04;  0.0000000E+00;  3.9447676E+04;  1.0461873E-02;  0.0000000E+00;  1.8247372E-02;  2.5253904E+03;
  9.6228415E-01;  9.9999998E-03; -2.4175109E-01;7698; -1.8607093E-02;  0.0000000E+00; -1.0041942E-02;  9.9825470E+02;  2.2721927E-01; -1.4459338E+03;3;  3.4471133E+00;  0.0000000E+00;  6.5322313E+00;0;  2.3462113E-02;  7.8455718E+03;  0.0000000E+00;  4.0833458E-01;  4.0000000E+04;  0.0000000E+00;  3.9441625E+04;  6.2556551E-03;  0.0000000E+00;  1.7206458E-02;  3.1405693E+03;
  9.6227294E-01;  9.9999998E-03; -2.3169120E-01;7699; -1.9642834E-02;  0.0000000E+00; -9.7105922E-03;  9.9870111E+02;  2.2717871E-01; -1.0761173E+03;3;  3.2935040E+00;  0.0000000E+00;  6.5519514E+00;0;  1.8513933E-02;  7.8524746E+03;  0.0000000E+00;  1.0960703E+00;  4.0000000E+04;  0.0000000E+00;  3.9435379E+04;  1.8487842E-03;  0.0000000E+00;  1.6665149E-02;  5.6640767E+03;
  9.6191001E-01;  9.9999998E-03; -2.2158472E-01;7700; -2.0497417E-02;  0.0000000E+00; -9.5903073E-03;  9.9907062E+02;  2.2694761E-01; -7.6995325E+02;3;  3.2563436E+00;  0.0000000E+00;  6.5483322E+00;0;  1.5112028E-02;  7.8712153E+03;  0.0000000E+00;  1.5168728E+00;  4.0000000E+04;  0.0000000E+00;  3.9437703E+04; -2.8725343E-03;  0.0000000E+00;  1.7984562E-02;  8.0291323E+03;
  9.6120811E-01;  9.9999998E-03; -2.1144417E-01;7701; -2.1477411E-02;  0.0000000E+00; -9.1509139E-03;  9.9923694E+02;  2.2655092E-01; -6.3217944E+02;3;  3.2744317E+00;  0.0000000E+00;  6.5267596E+00;0;  1.1758776E-02;  7.9004019E+03;  0.0000000E+00;  1.6129353E+00;  4.0000000E+04;  0.0000000E+00;  3.9439531E+04; -7.7731260E-03;  0.0000000E+00;  1.9531902E-02;  9.1242842E+03;
  9.6044099E-01;  9.9999998E-03; -2.0132992E-01;7702; -2.2527128E-02;  0.0000000E+00; -8.5730432E-03;  9.9925018E+02;  2.2613300E-01; -6.2121674E+02;3;  3.3017230E+00;  0.0000000E+00;  6.5453434E+00;0;  8.8589676E-03;  7.9305103E+03;  0.0000000E+00;  1.4391296E+00;  4.0000000E+04;  0.0000000E+00;  3.9436129E+04; -1.2816580E-02;  0.0000000E+00;  2.1675548E-02;  8.9713877E+03;
  9.5980906E-01;  9.9999998E-03; -1.9123630E-01;7703; -2.3489164E-02;  0.0000000E+00; -8.1415335E-03;  9.9919635E+02;  2.2579321E-01; -6.6580811E+02;3;  3.3686049E+00;  0.0000000E+00;  6.5190468E+00;0;  6.3204635E-03;  7.9543730E+03;  0.0000000E+00;  1.0692350E+00;  4.0000000E+04;  0.0000000E+00;  3.9431969E+04; -1.7998639E-02;  0.0000000E+00;  2.4319103E-02;  7.8817676E+03;
  9.5935804E-01;  9.9999998E-03; -1.8116191E-01;7704; -2.4379801E-02;  0.0000000E+00; -7.8056087E-03;  9.9909662E+02;  2.2555958E-01; -7.4842297E+02;3;  3.5137727E+00;  0.0000000E+00;  6.4341593E+00;0;  3.8556326E-03;  7.9700312E+03;  0.0000000E+00;  5.8739746E-01;  4.0000000E+04;  0.0000000E+00;  3.9429762E+04; -2.3256812E-02;  0.0000000E+00;  2.7112445E-02;  6.2026768E+03;
  9.5911336E-01;  9.9999998E-03; -1.7109796E-01;7705; -2.5242724E-02;  0.0000000E+00; -7.4950517E-03;  9.9896515E+02;  2.2544582E-01; -8.5735815E+02;3;  3.6778698E+00;  0.0000000E+00;  6.3135562E+00;0;  1.3700929E-03;  7.9765361E+03;  0.0000000E+00;  9.5850281E-02;  4.0000000E+04;  0.0000000E+00;  3.9429156E+04; -2.8519901E-02;  0.0000000E+00;  2.9889993E-02;  4.4000732E+03;
  9.5905906E-01;  9.9999998E-03; -1.6104288E-01;7706; -2.6115747E-02;  0.0000000E+00; -7.1337125E-03;  9.9881366E+02;  2.2544096E-01; -9.8283606E+02;3;  3.8891678E+00;  0.0000000E+00;  6.1555328E+00;0; -1.1724792E-03;  7.9747358E+03;  0.0000000E+00; -3.1188843E-01;  4.0000000E+04;  0.0000000E+00;  3.9429645E+04; -3.3728007E-02;  0.0000000E+00;  3.2555528E-02;  2.9073591E+03;
  9.5915478E-01;  9.9999998E-03; -1.5099521E-01;7707; -2.7000500E-02;  0.0000000E+00; -6.7385579E-03;  9.9866418E+02;  2.2552197E-01; -1.1066843E+03;3;  4.0986304E+00;  0.0000000E+00;  5.9906101E+00;0; -3.7999265E-03;  7.9665703E+03;  0.0000000E+00; -5.7549268E-01;  4.0000000E+04;  0.0000000E+00;  3.9431125E+04; -3.8836662E-02;  0.0000000E+00;  3.5036735E-02;  1.9950233E+03;
  9.5936137E-01;  9.9999998E-03; -1.4095980E-01;7708; -2.7885633E-02;  0.0000000E+00; -6.3206470E-03;  9.9851648E+02;  2.2566670E-01; -1.2290511E+03;3;  4.3675566E+00;  0.0000000E+00;  5.7395258E+00;0; -6.5344460E-03;  7.9541055E+03;  0.0000000E+00; -6.7822444E-01;  4.0000000E+04;  0.0000000E+00;  3.9432887E+04; -4.3804098E-02;  0.0000000E+00;  3.7269652E-02;  1.7498215E+03;
  9.5965946E-01;  9.9999998E-03; -1.3093768E-01;7709; -2.8780811E-02;  0.0000000E+00; -5.8530318E-03;  9.9839337E+02;  2.2586304E-01; -1.3310730E+03;3;  4.6265111E+00;  0.0000000E+00;  5.4791784E+00;0; -9.3744360E-03;  7.9385190E+03;  0.0000000E+00; -6.4227462E-01;  4.0000000E+04;  0.0000000E+00;  3.9433980E+04; -4.8589844E-02;  0.0000000E+00;  3.9215408E-02;  2.0636086E+03;
  9.5998019E-01;  9.9999998E-03; -1.2092162E-01;7710; -2.9664548E-02;  0.0000000E+00; -5.3460659E-03;  9.9830481E+02;  2.2607064E-01; -1.4044536E+03;3;  4.8928709E+00;  0.0000000E+00;  5.1700735E+00;0; -1.2294471E-02;  7.9228496E+03;  0.0000000E+00; -5.1537108E-01;  4.0000000E+04;  0.0000000E+00;  3.9434215E+04; -5.3154279E-02;  0.0000000E+00;  4.0859807E-02;  2.6388892E+03;
  9.6025485E-01;  9.9999998E-03; -1.1089929E-01;7711; -3.0514492E-02;  0.0000000E+00; -4.8114960E-03;  9.9822900E+02;  2.2624746E-01; -1.4672172E+03;3;  5.1772256E+00;  0.0000000E+00;  4.8196983E+00;0; -1.5256934E-02;  7.9099629E+03;  0.0000000E+00; -3.5321173E-01;  4.0000000E+04;  0.0000000E+00;  3.9432898E+04; -5.7451930E-02;  0.0000000E+00;  4.2194996E-02;  3.1680862E+03;
  9.8667419E-01;  9.9999998E-03; -2.6200557E-01;7757; -1.6295016E-02;  0.0000000E+00; -9.7553320E-03;  9.9709760E+02;  2.4158233E-01; -2.4045730E+03;3;  4.1437325E+00;  0.0000000E+00;  6.2905097E+00;0;  3.6614873E-02;  6.9340835E+03;  0.0000000E+00; -9.6676099E-01;  4.0000000E+04;  0.0000000E+00;  3.9410602E+04;  2.0728165E-02;  0.0000000E+00;  1.5886705E-02;  3.8683340E+03;
  9.8625052E-01;  9.9999998E-03; -2.5193188E-01;7758; -1.7441085E-02;  0.0000000E+00; -9.9013420E-03;  9.9770740E+02;  2.4128719E-01; -1.8993528E+03;3;  4.1330905E+00;  0.0000000E+00;  6.2617288E+00;0;  3.2595649E-02;  6.9566792E+03;  0.0000000E+00; -1.8781118E-02;  4.0000000E+04;  0.0000000E+00;  3.9408684E+04;  1.7193932E-02;  0.0000000E+00;  1.5401718E-02;  3.2363406E+03;
  9.8610771E-01;  9.9999998E-03; -2.4186298E-01;7759; -1.8745735E-02;  0.0000000E+00; -9.5743602E-03;  9.9826837E+02;  2.4115974E-01; -1.4346255E+03;3;  3.8631396E+00;  0.0000000E+00;  6.3767176E+00;0;  2.6806626E-02;  6.9693677E+03;  0.0000000E+00;  1.0934057E+00;  4.0000000E+04;  0.0000000E+00;  3.9402141E+04;  1.3576975E-02;  0.0000000E+00;  1.3229651E-02;  4.4677061E+03;
  9.8572826E-01;  9.9999998E-03; -2.3179904E-01;7760; -1.9992815E-02;  0.0000000E+00; -9.1064693E-03;  9.9865613E+02;  2.4089551E-01; -1.1133507E+03;3;  3.5987191E+00;  0.0000000E+00;  6.6015558E+00;0;  2.2022270E-02;  6.9887397E+03;  0.0000000E+00;  2.0041938E+00;  4.0000000E+04;  0.0000000E+00;  3.9395422E+04;  9.4008138E-03;  0.0000000E+00;  1.2621455E-02;  8.1318735E+03;
  9.8514193E-01;  9.9999998E-03; -2.2171275E-01;7761; -2.1024648E-02;  0.0000000E+00; -8.9069121E-03;  9.9896271E+02;  2.4052031E-01; -8.5938269E+02;3;  3.5581858E+00;  0.0000000E+00;  6.6387362E+00;0;  1.8827122E-02;  7.0137593E+03;  0.0000000E+00;  2.5816915E+00;  4.0000000E+04;  0.0000000E+00;  3.9393906E+04;  4.6607405E-03;  0.0000000E+00;  1.4166380E-02;  1.1628122E+04;
  9.8437780E-01;  9.9999998E-03; -2.1163189E-01;7762; -2.2112850E-02;  0.0000000E+00; -8.5701142E-03;  9.9909607E+02;  2.4007264E-01; -7.4886737E+02;3;  3.5762615E+00;  0.0000000E+00;  6.6560035E+00;0;  1.5816502E-02;  7.0426768E+03;  0.0000000E+00;  2.7801988E+00;  4.0000000E+04;  0.0000000E+00;  3.9391375E+04; -3.9928165E-04;  0.0000000E+00;  1.6215784E-02;  1.3663408E+04;
  9.8366612E-01;  9.9999998E-03; -2.0158145E-01;7763; -2.3182487E-02;  0.0000000E+00; -8.2470858E-03;  9.9913147E+02;  2.3966977E-01; -7.1958429E+02;3;  3.6745253E+00;  0.0000000E+00;  6.6103153E+00;0;  1.3125906E-02;  7.0682051E+03;  0.0000000E+00;  2.6250186E+00;  4.0000000E+04;  0.0000000E+00;  3.9387770E+04; -5.6535709E-03;  0.0000000E+00;  1.8779477E-02;  1.4041466E+04;
  9.8293012E-01;  9.9999998E-03; -1.9151196E-01;7764; -2.4185801E-02;  0.0000000E+00; -7.9995040E-03;  9.9910938E+02;  2.3925562E-01; -7.3785535E+02;3;  3.8181469E+00;  0.0000000E+00;  6.5444546E+00;0;  1.0481341E-02;  7.0934692E+03;  0.0000000E+00;  2.1623747E+00;  4.0000000E+04;  0.0000000E+00;  3.9387027E+04; -1.1174424E-02;  0.0000000E+00;  2.1655764E-02;  1.2803012E+04;
  9.8226297E-01;  9.9999998E-03; -1.8142147E-01;7765; -2.5156641E-02;  0.0000000E+00; -7.7480655E-03;  9.9901385E+02;  2.3888750E-01; -8.1701355E+02;3;  4.0121679E+00;  0.0000000E+00;  6.4430842E+00;0;  7.7698771E-03;  7.1151465E+03;  0.0000000E+00;  1.5005485E+00;  4.0000000E+04;  0.0000000E+00;  3.9386973E+04; -1.6870908E-02;  0.0000000E+00;  2.4640786E-02;  1.0419275E+04;
  9.8177350E-01;  9.9999998E-03; -1.7132147E-01;7766; -2.6131153E-02;  0.0000000E+00; -7.4453359E-03;  9.9887091E+02;  2.3863174E-01; -9.3542993E+02;3;  4.2225318E+00;  0.0000000E+00;  6.3043156E+00;0;  4.9741473E-03;  7.1294341E+03;  0.0000000E+00;  7.7607268E-01;  4.0000000E+04;  0.0000000E+00;  3.9387461E+04; -2.2653170E-02;  0.0000000E+00;  2.7627317E-02;  7.5936890E+03;
  9.8148954E-01;  9.9999998E-03; -1.6122334E-01;7767; -2.7116992E-02;  0.0000000E+00; -7.0956144E-03;  9.9869312E+02;  2.3849915E-01; -1.0827344E+03;3;  4.4628444E+00;  0.0000000E+00;  6.1711588E+00;0;  2.0545982E-03;  7.1355317E+03;  0.0000000E+00;  1.2243509E-01;  4.0000000E+04;  0.0000000E+00;  3.9388418E+04; -2.8474012E-02;  0.0000000E+00;  3.0528611E-02;  5.0216333E+03;
  9.8141122E-01;  9.9999998E-03; -1.5113336E-01;7768; -2.8104110E-02;  0.0000000E+00; -6.7307800E-03;  9.9850812E+02;  2.3848854E-01; -1.2360139E+03;3;  4.7292643E+00;  0.0000000E+00;  5.9743729E+00;0; -1.0143518E-03;  7.1337593E+03;  0.0000000E+00; -3.6324561E-01;  4.0000000E+04;  0.0000000E+00;  3.9389793E+04; -3.4273740E-02;  0.0000000E+00;  3.3259388E-02;  3.1914246E+03;
  9.8154485E-01;  9.9999998E-03; -1.4105213E-01;7769; -2.9106509E-02;  0.0000000E+00; -6.3329474E-03;  9.9834277E+02;  2.3860632E-01; -1.3729976E+03;3;  5.0322924E+00;  0.0000000E+00;  5.7529497E+00;0; -4.2324737E-03;  7.1242612E+03;  0.0000000E+00; -6.4094728E-01;  4.0000000E+04;  0.0000000E+00;  3.9391066E+04; -3.9985005E-02;  0.0000000E+00;  3.5752531E-02;  2.2841990E+03;
  9.8188198E-01;  9.9999998E-03; -1.3097356E-01;7770; -3.0115359E-02;  0.0000000E+00; -5.8946386E-03;  9.9821002E+02;  2.3884131E-01; -1.4829697E+03;3;  5.3418069E+00;  0.0000000E+00;  5.4959579E+00;0; -7.5784475E-03;  7.1079028E+03;  0.0000000E+00; -7.2524679E-01;  4.0000000E+04;  0.0000000E+00;  3.9391852E+04; -4.5549661E-02;  0.0000000E+00;  3.7971213E-02;  2.2004646E+03;
  9.8230797E-01;  9.9999998E-03; -1.2090435E-01;7771; -3.1107774E-02;  0.0000000E+00; -5.4233852E-03;  9.9811584E+02;  2.3912510E-01; -1.5609922E+03;3;  5.6616964E+00;  0.0000000E+00;  5.1929436E+00;0; -1.1018008E-02;  7.0891655E+03;  0.0000000E+00; -6.6712052E-01;  4.0000000E+04;  0.0000000E+00;  3.9391566E+04; -5.0921544E-02;  0.0000000E+00;  3.9903536E-02;  2.6235891E+03;
  9.8275846E-01;  9.9999998E-03; -1.1085090E-01;7772; -3.2061096E-02;  0.0000000E+00; -4.9231178E-03;  9.9805133E+02;  2.3941459E-01; -1.6144227E+03;3;  6.0286121E+00;  0.0000000E+00;  4.8220730E+00;0; -1.4492583E-02;  7.0704814E+03;  0.0000000E+00; -5.3320193E-01;  4.0000000E+04;  0.0000000E+00;  3.9389789E+04; -5.6032419E-02;  0.0000000E+00;  4.1539837E-02;  3.1729155E+03;
  1.0065253E+00;  9.9999998E-03; -1.4105736E-01;7830; -3.0384516E-02;  0.0000000E+00; -6.3646794E-03;  9.9825159E+02;  2.5382406E-01; -1.4485508E+03;3;  5.7790742E+00;  0.0000000E+00;  5.6705394E+00;0;  4.0599257E-03;  6.3075498E+03;  0.0000000E+00; -6.3021386E-01;  4.0000000E+04;  0.0000000E+00;  3.9341910E+04; -2.9418740E-02;  0.0000000E+00;  3.3478666E-02;  2.8366904E+03;
  1.0065004E+00;  9.9999998E-03; -1.5119420E-01;7829; -2.9269222E-02;  0.0000000E+00; -6.6921324E-03;  9.9846655E+02;  2.5375408E-01; -1.2704325E+03;3;  5.4297819E+00;  0.0000000E+00;  5.9263229E+00;0;  8.6464267E-03;  6.3136533E+03;  0.0000000E+00; -3.4352770E-01;  4.0000000E+04;  0.0000000E+00;  3.9340680E+04; -2.1863384E-02;  0.0000000E+00;  3.0509811E-02;  3.9425325E+03;
  1.0066128E+00;  9.9999998E-03; -1.3093032E-01;7831; -3.1497825E-02;  0.0000000E+00; -5.9891823E-03;  9.9807587E+02;  2.5391522E-01; -1.5941268E+03;3;  6.1538849E+00;  0.0000000E+00;  5.4056768E+00;0; -6.4113736E-04;  6.3000107E+03;  0.0000000E+00; -7.6276398E-01;  4.0000000E+04;  0.0000000E+00;  3.9343520E+04; -3.6810823E-02;  0.0000000E+00;  3.6169685E-02;  2.3394043E+03;
  1.0065347E+00;  9.9999998E-03; -1.6132073E-01;7828; -2.8159784E-02;  0.0000000E+00; -6.9623594E-03;  9.9869586E+02;  2.5370869E-01; -1.0804626E+03;3;  5.0841599E+00;  0.0000000E+00;  6.1065092E+00;0;  1.3057932E-02;  6.3179580E+03;  0.0000000E+00;  1.0270141E-01;  4.0000000E+04;  0.0000000E+00;  3.9339617E+04; -1.4269210E-02;  0.0000000E+00;  2.7327143E-02;  5.6924639E+03;
  1.0069045E+00;  9.9999998E-03; -1.2083250E-01;7832; -3.2591645E-02;  0.0000000E+00; -5.5745319E-03;  9.9796100E+02;  2.5412270E-01; -1.6892845E+03;3;  6.5610685E+00;  0.0000000E+00;  5.0637517E+00;0; -5.3124242E-03;  6.2867495E+03;  0.0000000E+00; -7.7313477E-01;  4.0000000E+04;  0.0000000E+00;  3.9343629E+04; -4.3858536E-02;  0.0000000E+00;  3.8546111E-02;  2.2737942E+03;
  1.0067229E+00;  9.9999998E-03; -1.7142566E-01;7827; -2.7075499E-02;  0.0000000E+00; -7.1823355E-03;  9.9891290E+02;  2.5375369E-01; -9.0061597E+02;3;  4.7760911E+00;  0.0000000E+00;  6.2635708E+00;0;  1.7366337E-02;  6.3168110E+03;  0.0000000E+00;  6.7060995E-01;  4.0000000E+04;  0.0000000E+00;  3.9339891E+04; -6.6402610E-03;  0.0000000E+00;  2.4006598E-02;  7.9096167E+03;
  1.0071626E+00;  9.9999998E-03; -1.8152677E-01;7826; -2.6007796E-02;  0.0000000E+00; -7.3524332E-03;  9.9909088E+02;  2.5396422E-01; -7.5316345E+02;3;  4.4663315E+00;  0.0000000E+00;  6.3630214E+00;0;  2.1722518E-02;  6.3065771E+03;  0.0000000E+00;  1.2762104E+00;  4.0000000E+04;  0.0000000E+00;  3.9340148E+04;  1.1140356E-03;  0.0000000E+00;  2.0608483E-02;  1.0161794E+04;
  1.0074965E+00;  9.9999998E-03; -1.1077613E-01;7833; -3.3665910E-02;  0.0000000E+00; -5.1297662E-03;  9.9789276E+02;  2.5452000E-01; -1.7458262E+03;3;  6.9780340E+00;  0.0000000E+00;  4.7454596E+00;0; -9.8608062E-03;  6.2649189E+03;  0.0000000E+00; -7.0756042E-01;  4.0000000E+04;  0.0000000E+00;  3.9342426E+04; -5.0460126E-02;  0.0000000E+00;  4.0599320E-02;  2.3689009E+03;
  1.0076617E+00;  9.9999998E-03; -1.9160663E-01;7825; -2.4947422E-02;  0.0000000E+00; -7.4775694E-03;  9.9919543E+02;  2.5421661E-01; -6.6654865E+02;3;  4.2320523E+00;  0.0000000E+00;  6.4770522E+00;0;  2.6024077E-02;  6.2931445E+03;  0.0000000E+00;  1.8188853E+00;  4.0000000E+04;  0.0000000E+00;  3.9341469E+04;  8.8004889E-03;  0.0000000E+00;  1.7223589E-02;  1.1905137E+04;
  1.0082370E+00;  9.9999998E-03; -2.0167732E-01;7824; -2.3865249E-02;  0.0000000E+00; -7.5990399E-03;  9.9920416E+02;  2.5452822E-01; -6.5933899E+02;3;  4.0276909E+00;  0.0000000E+00;  6.5318918E+00;0;  3.0299207E-02;  6.2757681E+03;  0.0000000E+00;  2.1981306E+00;  4.0000000E+04;  0.0000000E+00;  3.9343938E+04;  1.6416676E-02;  0.0000000E+00;  1.3882531E-02;  1.2630997E+04;
  1.0088943E+00;  9.9999998E-03; -2.1174473E-01;7823; -2.2732206E-02;  0.0000000E+00; -7.7668773E-03;  9.9914050E+02;  2.5490865E-01; -7.1207819E+02;3;  3.9033437E+00;  0.0000000E+00;  6.5556593E+00;0;  3.4578603E-02;  6.2542241E+03;  0.0000000E+00;  2.3334723E+00;  4.0000000E+04;  0.0000000E+00;  3.9348035E+04;  2.3914833E-02;  0.0000000E+00;  1.0663770E-02;  1.2025604E+04;
  1.0095959E+00;  9.9999998E-03; -2.2183712E-01;7822; -2.1566115E-02;  0.0000000E+00; -7.9508154E-03;  9.9896417E+02;  2.5534040E-01; -8.5814807E+02;3;  3.8428547E+00;  0.0000000E+00;  6.4704752E+00;0;  3.8895991E-02;  6.2295957E+03;  0.0000000E+00;  2.1742480E+00;  4.0000000E+04;  0.0000000E+00;  3.9351234E+04;  3.1198967E-02;  0.0000000E+00;  7.6970230E-03;  1.0046941E+04;
  1.0103234E+00;  9.9999998E-03; -2.3193532E-01;7821; -2.0466600E-02;  0.0000000E+00; -7.9858135E-03;  9.9865363E+02;  2.5582644E-01; -1.1154246E+03;3;  3.8690765E+00;  0.0000000E+00;  6.3800678E+00;0;  4.3005761E-02;  6.2023320E+03;  0.0000000E+00;  1.7020149E+00;  4.0000000E+04;  0.0000000E+00;  3.9351957E+04;  3.8214166E-02;  0.0000000E+00;  4.7915955E-03;  6.9350518E+03;
  1.0109056E+00;  9.9999998E-03; -2.4200864E-01;7820; -1.9227868E-02;  0.0000000E+00; -8.2181711E-03;  9.9828589E+02;  2.5624380E-01; -1.4201072E+03;3;  4.0775781E+00;  0.0000000E+00;  6.0816746E+00;0;  4.7560971E-02;  6.1783379E+03;  0.0000000E+00;  9.2969716E-01;  4.0000000E+04;  0.0000000E+00;  3.9357668E+04;  4.4493772E-02;  0.0000000E+00;  3.0671984E-03;  3.8609966E+03;
  1.0113324E+00;  9.9999998E-03; -2.5208175E-01;7819; -1.7853167E-02;  0.0000000E+00; -8.5880645E-03;  9.9784155E+02;  2.5657123E-01; -1.7882446E+03;3;  4.3833227E+00;  0.0000000E+00;  5.7598786E+00;0;  5.3516887E-02;  6.1587905E+03;  0.0000000E+00; -8.6596496E-02;  4.0000000E+04;  0.0000000E+00;  3.9364543E+04;  4.9936693E-02;  0.0000000E+00;  3.5801958E-03;  3.4387224E+03;
  1.0117974E+00;  9.9999998E-03; -2.6216039E-01;7818; -1.6632732E-02;  0.0000000E+00; -8.5997153E-03;  9.9733600E+02;  2.5692320E-01; -2.2070967E+03;3;  4.3646402E+00;  0.0000000E+00;  5.7188358E+00;0;  5.8657028E-02;  6.1382056E+03;  0.0000000E+00; -1.1479400E+00;  4.0000000E+04;  0.0000000E+00;  3.9367355E+04;  5.5065803E-02;  0.0000000E+00;  3.5912243E-03;  3.9824473E+03;
  1.0346348E+00;  9.9999998E-03; -1.1082490E-01;7894; -3.5044350E-02;  0.0000000E+00; -5.5465153E-03;  9.9815765E+02;  2.7175477E-01; -1.5263258E+03;3;  8.1440039E+00;  0.0000000E+00;  4.3412223E+00;0; -1.1239350E-03;  5.5091631E+03;  0.0000000E+00; -6.1654842E-01;  4.0000000E+04;  0.0000000E+00;  3.9291566E+04; -4.1869413E-02;  0.0000000E+00;  4.0745478E-02;  1.6125355E+03;
  1.0341192E+00;  9.9999998E-03; -1.6131864E-01;7889; -2.8748225E-02;  0.0000000E+00; -6.9094836E-03;  9.9891553E+02;  2.7116022E-01; -8.9844293E+02;3;  5.8239465E+00;  0.0000000E+00;  5.7313132E+00;0;  3.6751345E-02;  5.5445273E+03;  0.0000000E+00; -5.9725595E-01;  4.0000000E+04;  0.0000000E+00;  3.9285523E+04;  1.1045055E-02;  0.0000000E+00;  2.5706291E-02;  4.6839380E+03;
  1.0343460E+00;  9.9999998E-03; -1.5122882E-01;7890; -2.9959291E-02;  0.0000000E+00; -6.8209083E-03;  9.9869739E+02;  2.7141127E-01; -1.0791783E+03;3;  6.4311042E+00;  0.0000000E+00;  5.4110479E+00;0;  2.8995262E-02;  5.5331348E+03;  0.0000000E+00; -6.8739879E-01;  4.0000000E+04;  0.0000000E+00;  3.9285781E+04; -4.3551385E-04;  0.0000000E+00;  2.9430777E-02;  3.9655603E+03;
  1.0340471E+00;  9.9999998E-03; -1.7142974E-01;7888; -2.7592689E-02;  0.0000000E+00; -6.9123055E-03;  9.9913135E+02;  2.7100098E-01; -7.1968268E+02;3;  5.4888487E+00;  0.0000000E+00;  5.8568845E+00;0;  4.4734158E-02;  5.5512134E+03;  0.0000000E+00; -4.5751402E-01;  4.0000000E+04;  0.0000000E+00;  3.9286324E+04;  2.2962390E-02;  0.0000000E+00;  2.1771766E-02;  5.3632568E+03;
  1.0347104E+00;  9.9999998E-03; -1.4114442E-01;7891; -3.1230493E-02;  0.0000000E+00; -6.6277399E-03;  9.9850208E+02;  2.7174011E-01; -1.2410009E+03;3;  6.8960609E+00;  0.0000000E+00;  5.1031141E+00;0;  2.1395728E-02;  5.5180469E+03;  0.0000000E+00; -7.2233862E-01;  4.0000000E+04;  0.0000000E+00;  3.9286887E+04; -1.1460147E-02;  0.0000000E+00;  3.2855876E-02;  3.2785417E+03;
  1.0349429E+00;  9.9999998E-03; -1.2093798E-01;7893; -3.3824407E-02;  0.0000000E+00; -5.9677474E-03;  9.9824084E+02;  2.7196631E-01; -1.4574390E+03;3;  7.8228726E+00;  0.0000000E+00;  4.6182117E+00;0;  6.2153079E-03;  5.5035361E+03;  0.0000000E+00; -6.7059779E-01;  4.0000000E+04;  0.0000000E+00;  3.9290102E+04; -3.2313716E-02;  0.0000000E+00;  3.8529024E-02;  2.0950994E+03;
  1.0339818E+00;  9.9999998E-03; -1.8155071E-01;7887; -2.6472617E-02;  0.0000000E+00; -6.8919240E-03;  9.9929858E+02;  2.7083954E-01; -5.8111884E+02;3;  5.0412416E+00;  0.0000000E+00;  5.9101863E+00;0;  5.2726895E-02;  5.5566953E+03;  0.0000000E+00; -2.8139377E-01;  4.0000000E+04;  0.0000000E+00;  3.9289012E+04;  3.5035778E-02;  0.0000000E+00;  1.7691117E-02;  5.9201118E+03;
  1.0339097E+00;  9.9999998E-03; -1.9168104E-01;7886; -2.5368746E-02;  0.0000000E+00; -6.8615507E-03;  9.9936682E+02;  2.7068356E-01; -5.2457727E+02;3;  4.7365751E+00;  0.0000000E+00;  5.9560752E+00;0;  6.0554594E-02;  5.5608550E+03;  0.0000000E+00; -9.2772320E-02;  4.0000000E+04;  0.0000000E+00;  3.9293035E+04;  4.7049474E-02;  0.0000000E+00;  1.3505119E-02;  6.2641030E+03;
  1.0349679E+00;  9.9999998E-03; -1.3104643E-01;7892; -3.2530084E-02;  0.0000000E+00; -6.3382322E-03;  9.9835101E+02;  2.7196309E-01; -1.3661329E+03;3;  7.4130640E+00;  0.0000000E+00;  4.8410749E+00;0;  1.3785243E-02;  5.5064995E+03;  0.0000000E+00; -7.1077728E-01;  4.0000000E+04;  0.0000000E+00;  3.9288613E+04; -2.2116203E-02;  0.0000000E+00;  3.5901446E-02;  2.6524724E+03;
  1.0340372E+00;  9.9999998E-03; -2.0180699E-01;7885; -2.4264963E-02;  0.0000000E+00; -6.8251356E-03;  9.9932416E+02;  2.7069023E-01; -5.5993427E+02;3;  4.4882450E+00;  0.0000000E+00;  5.9427433E+00;0;  6.8365090E-02;  5.5576270E+03;  0.0000000E+00;  5.7500433E-02;  4.0000000E+04;  0.0000000E+00;  3.9296863E+04;  5.9166975E-02;  0.0000000E+00;  9.1981133E-03;  6.2463096E+03;
  1.0342994E+00;  9.9999998E-03; -2.1190584E-01;7884; -2.3160730E-02;  0.0000000E+00; -6.7987004E-03;  9.9916724E+02;  2.7081475E-01; -6.8990576E+02;3;  4.2809892E+00;  0.0000000E+00;  5.9437170E+00;0;  7.5923979E-02;  5.5487026E+03;  0.0000000E+00;  1.3719201E-01;  4.0000000E+04;  0.0000000E+00;  3.9301352E+04;  7.1174145E-02;  0.0000000E+00;  4.7498331E-03;  5.8026743E+03;
  1.0347850E+00;  9.9999998E-03; -2.2200139E-01;7883; -2.2026550E-02;  0.0000000E+00; -6.7790025E-03;  9.9890942E+02;  2.7112269E-01; -9.0352917E+02;3;  4.1919413E+00;  0.0000000E+00;  5.8949947E+00;0;  8.3362453E-02;  5.5316367E+03;  0.0000000E+00;  1.0397416E-01;  4.0000000E+04;  0.0000000E+00;  3.9306074E+04;  8.3250657E-02;  0.0000000E+00;  1.1179852E-04;  4.9513047E+03;
  1.0354184E+00;  9.9999998E-03; -2.3211311E-01;7882; -2.0940833E-02;  0.0000000E+00; -6.6489796E-03;  9.9848120E+02;  2.7156866E-01; -1.2582843E+03;3;  4.0750785E+00;  0.0000000E+00;  5.8415375E+00;0;  9.0274245E-02;  5.5087036E+03;  0.0000000E+00; -6.5201491E-02;  4.0000000E+04;  0.0000000E+00;  3.9305336E+04;  9.5251009E-02;  0.0000000E+00; -4.9767676E-03;  3.6142742E+03;
  1.0360413E+00;  9.9999998E-03; -2.4219114E-01;7881; -1.9821100E-02;  0.0000000E+00; -6.5131388E-03;  9.9801819E+02;  2.7204636E-01; -1.6418781E+03;3;  4.0597720E+00;  0.0000000E+00;  5.7606921E+00;0;  9.6252143E-02;  5.4850732E+03;  0.0000000E+00; -3.8552815E-01;  4.0000000E+04;  0.0000000E+00;  3.9308316E+04;  1.0667387E-01;  0.0000000E+00; -1.0421732E-02;  2.5274587E+03;
  1.0366230E+00;  9.9999998E-03; -2.5225705E-01;7880; -1.8536691E-02;  0.0000000E+00; -6.6456576E-03;  9.9759607E+02;  2.7251616E-01; -1.9915961E+03;3;  4.2460885E+00;  0.0000000E+00;  5.4575424E+00;0;  1.0291766E-01;  5.4626782E+03;  0.0000000E+00; -8.7087739E-01;  4.0000000E+04;  0.0000000E+00;  3.9317195E+04;  1.1740123E-01;  0.0000000E+00; -1.4483573E-02;  3.2961262E+03;
  1.0370014E+00;  9.9999998E-03; -2.6232871E-01;7879; -1.7247632E-02;  0.0000000E+00; -6.8313307E-03;  9.9712732E+02;  2.7284783E-01; -2.3799797E+03;3;  4.3439665E+00;  0.0000000E+00;  5.1500387E+00;0;  1.1026791E-01;  5.4460996E+03;  0.0000000E+00; -1.4797931E+00;  4.0000000E+04;  0.0000000E+00;  3.9323965E+04;  1.2692946E-01;  0.0000000E+00; -1.6661551E-02;  4.5844766E+03;
  1.0624539E+00;  9.9999998E-03; -2.5245538E-01;7941; -1.8750040E-02;  0.0000000E+00; -5.2680206E-03;  9.9741809E+02;  2.8922209E-01; -2.1390476E+03;3;  4.2608061E+00;  0.0000000E+00;  4.6327991E+00;0;  1.7381361E-01;  4.8558472E+03;  0.0000000E+00; -1.9666002E+00;  4.0000000E+04;  0.0000000E+00;  3.9258434E+04;  2.0382906E-01;  0.0000000E+00; -3.0015448E-02;  1.7176976E+03;
  1.0619377E+00;  9.9999998E-03; -2.4240465E-01;7942; -1.9648565E-02;  0.0000000E+00; -5.5874735E-03;  9.9798431E+02;  2.8875276E-01; -1.6699752E+03;3;  4.4022236E+00;  0.0000000E+00;  4.7015429E+00;0;  1.6573378E-01;  4.8760103E+03;  0.0000000E+00; -1.9812888E+00;  4.0000000E+04;  0.0000000E+00;  3.9249195E+04;  1.8676779E-01;  0.0000000E+00; -2.1033997E-02;  1.6029155E+03;
  1.0615035E+00;  9.9999998E-03; -2.3233788E-01;7943; -2.0472597E-02;  0.0000000E+00; -6.0258722E-03;  9.9858679E+02;  2.8837797E-01; -1.1708295E+03;3;  4.5040307E+00;  0.0000000E+00;  4.7193294E+00;0;  1.5661049E-01;  4.8934561E+03;  0.0000000E+00; -2.0386908E+00;  4.0000000E+04;  0.0000000E+00;  3.9248855E+04;  1.6910355E-01;  0.0000000E+00; -1.2493062E-02;  2.1789636E+03;
  1.0630646E+00;  9.9999998E-03; -2.6251444E-01;7940; -1.7802056E-02;  0.0000000E+00; -5.0757946E-03;  9.9686462E+02;  2.8976682E-01; -2.5976021E+03;3;  4.1818419E+00;  0.0000000E+00;  4.5439487E+00;0;  1.8220462E-01;  4.8334053E+03;  0.0000000E+00; -2.0091078E+00;  4.0000000E+04;  0.0000000E+00;  3.9269141E+04;  2.2052865E-01;  0.0000000E+00; -3.8324032E-02;  4.3892065E+03;
  1.0611557E+00;  9.9999998E-03; -2.2223589E-01;7944; -2.1367274E-02;  0.0000000E+00; -6.3225594E-03;  9.9913422E+02;  2.8811157E-01; -7.1726270E+02;3;  4.8196516E+00;  0.0000000E+00;  4.7503085E+00;0;  1.4547317E-01;  4.9076084E+03;  0.0000000E+00; -2.0780065E+00;  4.0000000E+04;  0.0000000E+00;  3.9252309E+04;  1.5068339E-01;  0.0000000E+00; -5.2102162E-03;  2.5097371E+03;
  1.0609772E+00;  9.9999998E-03; -2.1216635E-01;7945; -2.2352057E-02;  0.0000000E+00; -6.4757294E-03;  9.9945892E+02;  2.8800994E-01; -4.4828302E+02;3;  5.0378532E+00;  0.0000000E+00;  4.7408657E+00;0;  1.3317500E-01;  4.9157305E+03;  0.0000000E+00; -2.0666451E+00;  4.0000000E+04;  0.0000000E+00;  3.9248727E+04;  1.3185987E-01;  0.0000000E+00;  1.3151391E-03;  2.8157585E+03;
  1.0609399E+00;  9.9999998E-03; -2.0209745E-01;7946; -2.3378538E-02;  0.0000000E+00; -6.6063241E-03;  9.9964948E+02;  2.8803805E-01; -2.9041113E+02;3;  5.3493180E+00;  0.0000000E+00;  4.7147846E+00;0;  1.2011649E-01;  4.9184424E+03;  0.0000000E+00; -1.9881262E+00;  4.0000000E+04;  0.0000000E+00;  3.9245438E+04;  1.1265841E-01;  0.0000000E+00;  7.4580782E-03;  3.3793953E+03;
  1.0610112E+00;  9.9999998E-03; -1.9199827E-01;7947; -2.4449043E-02;  0.0000000E+00; -6.7170216E-03;  9.9969934E+02;  2.8817761E-01; -2.4907904E+02;3;  5.8489008E+00;  0.0000000E+00;  4.6072097E+00;0;  1.0647188E-01;  4.9165601E+03;  0.0000000E+00; -1.8478038E+00;  4.0000000E+04;  0.0000000E+00;  3.9242703E+04;  9.3200944E-02;  0.0000000E+00;  1.3270935E-02;  4.0530374E+03;
  1.0612028E+00;  9.9999998E-03; -1.8187796E-01;7948; -2.5619116E-02;  0.0000000E+00; -6.8223951E-03;  9.9962402E+02;  2.8843358E-01; -3.1149695E+02;3;  6.2876296E+00;  0.0000000E+00;  4.6010842E+00;0;  9.2575103E-02;  4.9100703E+03;  0.0000000E+00; -1.6684386E+00;  4.0000000E+04;  0.0000000E+00;  3.9239820E+04;  7.3828630E-02;  0.0000000E+00;  1.8746477E-02;  4.6549419E+03;
  1.0616738E+00;  9.9999998E-03; -1.7175569E-01;7949; -2.6846917E-02;  0.0000000E+00; -6.9007995E-03;  9.9946185E+02;  2.8890446E-01; -4.4586334E+02;3;  6.8054204E+00;  0.0000000E+00;  4.5239639E+00;0;  7.8933880E-02;  4.8954092E+03;  0.0000000E+00; -1.4769180E+00;  4.0000000E+04;  0.0000000E+00;  3.9236742E+04;  5.5065278E-02;  0.0000000E+00;  2.3868602E-02;  4.9754805E+03;
  1.0624377E+00;  9.9999998E-03; -1.6163743E-01;7950; -2.8154822E-02;  0.0000000E+00; -6.9376756E-03;  9.9927936E+02;  2.8958610E-01; -5.9701935E+02;3;  7.3653350E+00;  0.0000000E+00;  4.3189168E+00;0;  6.5672107E-02;  4.8729673E+03;  0.0000000E+00; -1.2868620E+00;  4.0000000E+04;  0.0000000E+00;  3.9234957E+04;  3.7091739E-02;  0.0000000E+00;  2.8580366E-02;  4.8657412E+03;
  1.0643040E+00;  9.9999998E-03; -1.1097741E-01;7955; -3.5928793E-02;  0.0000000E+00; -6.0444199E-03;  9.9891693E+02;  2.9127285E-01; -8.9730658E+02;3;  1.0039494E+01;  0.0000000E+00;  3.0660169E+00;0;  4.8615038E-03;  4.8114150E+03;  0.0000000E+00; -3.7510556E-01;  4.0000000E+04;  0.0000000E+00;  3.9241012E+04; -3.7390556E-02;  0.0000000E+00;  4.2252060E-02;  1.5772045E+03;
  1.0631659E+00;  9.9999998E-03; -1.5150227E-01;7951; -2.9604575E-02;  0.0000000E+00; -6.9288751E-03;  9.9910358E+02;  2.9023317E-01; -7.4264465E+02;3;  8.0091467E+00;  0.0000000E+00;  4.2418413E+00;0;  5.2568693E-02;  4.8512251E+03;  0.0000000E+00; -1.0991255E+00;  4.0000000E+04;  0.0000000E+00;  3.9234738E+04;  1.9852985E-02;  0.0000000E+00;  3.2715708E-02;  4.3240776E+03;
  1.0637695E+00;  9.9999998E-03; -1.4136314E-01;7952; -3.1112088E-02;  0.0000000E+00; -6.8871900E-03;  9.9897479E+02;  2.9076111E-01; -8.4935742E+02;3;  8.5532045E+00;  0.0000000E+00;  4.0532756E+00;0;  3.9777443E-02;  4.8327041E+03;  0.0000000E+00; -9.1556865E-01;  4.0000000E+04;  0.0000000E+00;  3.9235691E+04;  3.6301445E-03;  0.0000000E+00;  3.6147300E-02;  3.5082153E+03;
  1.0643756E+00;  9.9999998E-03; -1.2109948E-01;7954; -3.4305923E-02;  0.0000000E+00; -6.4934455E-03;  9.9888782E+02;  2.9130855E-01; -9.2140466E+02;3;  9.7475119E+00;  0.0000000E+00;  3.2896907E+00;0;  1.5776146E-02;  4.8118623E+03;  0.0000000E+00; -5.5096889E-01;  4.0000000E+04;  0.0000000E+00;  3.9239520E+04; -2.5075596E-02;  0.0000000E+00;  4.0851742E-02;  1.9812334E+03;
  1.0641782E+00;  9.9999998E-03; -1.3122906E-01;7953; -3.2680277E-02;  0.0000000E+00; -6.7718634E-03;  9.9890179E+02;  2.9112703E-01; -9.0984943E+02;3;  9.0352659E+00;  0.0000000E+00;  3.7760446E+00;0;  2.7458042E-02;  4.8194028E+03;  0.0000000E+00; -7.3329836E-01;  4.0000000E+04;  0.0000000E+00;  3.9237469E+04; -1.1384804E-02;  0.0000000E+00;  3.8842846E-02;  2.6565771E+03;
  1.0917377E+00;  9.9999998E-03; -2.5266227E-01;8002; -9.5193703E-03;  0.0000000E+00; -7.9806102E-03;  9.9766040E+02;  3.0885571E-01; -1.9383112E+03;3;  5.1339374E+00;  0.0000000E+00;  2.5083311E+00;0;  2.5955790E-01;  4.2667705E+03;  0.0000000E+00; -3.1389184E+00;  4.0000000E+04;  0.0000000E+00;  3.9190449E+04;  2.7379939E-01;  0.0000000E+00; -1.4241481E-02;  1.9632588E+03;
  1.0923541E+00;  9.9999998E-03; -2.6271990E-01;8001; -1.0616383E-02;  0.0000000E+00; -6.8118670E-03;  9.9678705E+02;  3.0948088E-01; -2.6618447E+03;3;  3.5802660E+00;  0.0000000E+00;  2.6180689E+00;0;  2.7080312E-01;  4.2441665E+03;  0.0000000E+00; -3.0084200E+00;  4.0000000E+04;  0.0000000E+00;  3.9197848E+04;  2.9350832E-01;  0.0000000E+00; -2.2705186E-02;  5.8969082E+03;
  1.0911717E+00;  9.9999998E-03; -2.4261098E-01;8003; -9.1584865E-03;  0.0000000E+00; -8.9194989E-03;  9.9848322E+02;  3.0827972E-01; -1.2566038E+03;3;  6.4258242E+00;  0.0000000E+00;  2.4613583E+00;0;  2.4322605E-01;  4.2876992E+03;  0.0000000E+00; -3.1443224E+00;  4.0000000E+04;  0.0000000E+00;  3.9185430E+04;  2.5176799E-01;  0.0000000E+00; -8.5419407E-03;  1.4667491E+03;
  1.0907145E+00;  9.9999998E-03; -2.3254478E-01;8004; -9.6744457E-03;  0.0000000E+00; -9.6722525E-03;  9.9922430E+02;  3.0783543E-01; -6.4264716E+02;3;  7.7305169E+00;  0.0000000E+00;  2.3643618E+00;0;  2.2379968E-01;  4.3046289E+03;  0.0000000E+00; -3.1001365E+00;  4.0000000E+04;  0.0000000E+00;  3.9188367E+04;  2.2753713E-01;  0.0000000E+00; -3.7374508E-03;  2.6690083E+03;
  1.0904504E+00;  9.9999998E-03; -2.2243316E-01;8005; -1.0984392E-02;  0.0000000E+00; -1.0152914E-02;  9.9981012E+02;  3.0760959E-01; -1.5732855E+02;3;  8.6494465E+00;  0.0000000E+00;  2.3168592E+00;0;  2.0244095E-01;  4.3152319E+03;  0.0000000E+00; -2.9750710E+00;  4.0000000E+04;  0.0000000E+00;  3.9197062E+04;  2.0147890E-01;  0.0000000E+00;  9.6204987E-04;  3.5523186E+03;
  1.0903374E+00;  9.9999998E-03; -2.1235316E-01;8006; -1.2710581E-02;  0.0000000E+00; -1.0310626E-02;  1.0000778E+03;  3.0754671E-01;  6.4393105E+01;3;  9.5503159E+00;  0.0000000E+00;  2.1981544E+00;0;  1.8047623E-01;  4.3204790E+03;  0.0000000E+00; -2.7594497E+00;  4.0000000E+04;  0.0000000E+00;  3.9196977E+04;  1.7442392E-01;  0.0000000E+00;  6.0523083E-03;  4.5918442E+03;
  1.0903459E+00;  9.9999998E-03; -2.0229737E-01;8007; -1.4861815E-02;  0.0000000E+00; -1.0343146E-02;  1.0001560E+03;  3.0761340E-01;  1.2928001E+02;3;  1.0330371E+01;  0.0000000E+00;  2.0679102E+00;0;  1.5859999E-01;  4.3211738E+03;  0.0000000E+00; -2.4778728E+00;  4.0000000E+04;  0.0000000E+00;  3.9194898E+04;  1.4682575E-01;  0.0000000E+00;  1.1774235E-02;  5.7069214E+03;
  1.0906618E+00;  9.9999998E-03; -1.9222212E-01;8008; -1.7171279E-02;  0.0000000E+00; -1.0300926E-02;  1.0000768E+03;  3.0795157E-01;  6.3701767E+01;3;  1.0763786E+01;  0.0000000E+00;  1.8141677E+00;0;  1.3709719E-01;  4.3134043E+03;  0.0000000E+00; -2.1608925E+00;  4.0000000E+04;  0.0000000E+00;  3.9193613E+04;  1.1926209E-01;  0.0000000E+00;  1.7835109E-02;  6.6952295E+03;
  1.0911686E+00;  9.9999998E-03; -1.8212770E-01;8009; -1.9593431E-02;  0.0000000E+00; -1.0111254E-02;  9.9987836E+02;  3.0846280E-01; -1.0078706E+02;3;  1.1368812E+01;  0.0000000E+00;  1.3495830E+00;0;  1.1607262E-01;  4.2999985E+03;  0.0000000E+00; -1.8454609E+00;  4.0000000E+04;  0.0000000E+00;  3.9191910E+04;  9.2253283E-02;  0.0000000E+00;  2.3819346E-02;  7.2666689E+03;
  1.0918679E+00;  9.9999998E-03; -1.7201307E-01;8010; -2.2155698E-02;  0.0000000E+00; -9.7758630E-03;  9.9960406E+02;  3.0914071E-01; -3.2803937E+02;3;  1.1696095E+01;  0.0000000E+00;  1.0602700E+00;0;  9.5657483E-02;  4.2815278E+03;  0.0000000E+00; -1.5648388E+00;  4.0000000E+04;  0.0000000E+00;  3.9190457E+04;  6.6301703E-02;  0.0000000E+00;  2.9355779E-02;  7.1628174E+03;
  1.0927067E+00;  9.9999998E-03; -1.6187376E-01;8011; -2.4698516E-02;  0.0000000E+00; -9.2861792E-03;  9.9933081E+02;  3.0992323E-01; -5.5440283E+02;3;  1.1821611E+01;  0.0000000E+00;  6.7500830E-01;0;  7.5974144E-02;  4.2598315E+03;  0.0000000E+00; -1.3341449E+00;  4.0000000E+04;  0.0000000E+00;  3.9189605E+04;  4.1917983E-02;  0.0000000E+00;  3.4056161E-02;  6.3180962E+03;
  1.0934999E+00;  9.9999998E-03; -1.5171494E-01;8012; -2.7317585E-02;  0.0000000E+00; -8.5867438E-03;  9.9910205E+02;  3.1065720E-01; -7.4392792E+02;3;  1.1992975E+01;  0.0000000E+00;  5.8446908E-01;0;  5.7090674E-02;  4.2391553E+03;  0.0000000E+00; -1.1434966E+00;  4.0000000E+04;  0.0000000E+00;  3.9190035E+04;  1.9507650E-02;  0.0000000E+00;  3.7583023E-02;  4.9490454E+03;
  1.0945342E+00;  9.9999998E-03; -1.1118253E-01;8016; -3.6747180E-02;  0.0000000E+00; -5.4556895E-03;  9.9919025E+02;  3.1176689E-01; -6.7084369E+02;3;  1.2257306E+01;  0.0000000E+00;  1.0541108E+00;0; -7.1032569E-03;  4.2071567E+03;  0.0000000E+00; -2.8820172E-01;  4.0000000E+04;  0.0000000E+00;  3.9197266E+04; -4.7124214E-02;  0.0000000E+00;  4.0020958E-02;  2.1412097E+03;
  1.0941073E+00;  9.9999998E-03; -1.4155424E-01;8013; -2.9866783E-02;  0.0000000E+00; -7.7920742E-03;  9.9898193E+02;  3.1123698E-01; -8.4343103E+02;3;  1.1967833E+01;  0.0000000E+00;  5.9945321E-01;0;  3.9191242E-02;  4.2227505E+03;  0.0000000E+00; -9.6323228E-01;  4.0000000E+04;  0.0000000E+00;  3.9191832E+04; -5.9491675E-04;  0.0000000E+00;  3.9786160E-02;  3.5104773E+03;
  1.0946426E+00;  9.9999998E-03; -1.2128430E-01;8015; -3.4605831E-02;  0.0000000E+00; -6.1819423E-03;  9.9904535E+02;  3.1180906E-01; -7.9088934E+02;3;  1.2189440E+01;  0.0000000E+00;  8.2992667E-01;0;  6.9602355E-03;  4.2062588E+03;  0.0000000E+00; -5.3488922E-01;  4.0000000E+04;  0.0000000E+00;  3.9196414E+04; -3.3774909E-02;  0.0000000E+00;  4.0735144E-02;  2.1003879E+03;
  1.0944818E+00;  9.9999998E-03; -1.3140604E-01;8014; -3.2308005E-02;  0.0000000E+00; -6.9810846E-03;  9.9896381E+02;  3.1161663E-01; -8.5844293E+02;3;  1.1964694E+01;  0.0000000E+00;  7.9650784E-01;0;  2.2436567E-02;  4.2118760E+03;  0.0000000E+00; -7.6415515E-01;  4.0000000E+04;  0.0000000E+00;  3.9194312E+04; -1.8321052E-02;  0.0000000E+00;  4.0757619E-02;  2.4887800E+03;
  1.1240332E+00;  9.9999998E-03; -2.4274540E-01;8064;  1.5588067E-02;  0.0000000E+00; -1.3717609E-02;  9.9932495E+02;  3.3099195E-01; -5.5924146E+02;3;  1.1215405E+01;  0.0000000E+00;  1.0231318E+00;0;  2.5717637E-01;  3.7274104E+03;  0.0000000E+00; -3.2848032E+00;  4.0000000E+04;  0.0000000E+00;  3.9135691E+04;  2.2606657E-01;  0.0000000E+00;  3.1109788E-02;  2.8435146E+03;
  1.1248766E+00;  9.9999998E-03; -2.5282121E-01;8063;  2.0591069E-02;  0.0000000E+00; -1.2521923E-02;  9.9829633E+02;  3.3187401E-01; -1.4114613E+03;3;  1.0598657E+01;  0.0000000E+00;  1.2318614E+00;0;  2.9044032E-01;  3.7026101E+03;  0.0000000E+00; -3.7791686E+00;  4.0000000E+04;  0.0000000E+00;  3.9136121E+04;  2.4990341E-01;  0.0000000E+00;  4.0536921E-02;  6.9320791E+03;
  1.1234522E+00;  9.9999998E-03; -2.3265530E-01;8065;  1.0427354E-02;  0.0000000E+00; -1.4497613E-02;  1.0000468E+03;  3.3037475E-01;  3.8813580E+01;3;  1.1945560E+01;  0.0000000E+00;  9.4372696E-01;0;  2.2319126E-01;  3.7447356E+03;  0.0000000E+00; -2.8451371E+00;  4.0000000E+04;  0.0000000E+00;  3.9139914E+04;  1.9959822E-01;  0.0000000E+00;  2.3593035E-02;  1.8011359E+02;
  1.1231163E+00;  9.9999998E-03; -2.2252016E-01;8066;  5.1366030E-03;  0.0000000E+00; -1.4959713E-02;  1.0004780E+03;  3.3004382E-01;  3.9603680E+02;3;  1.2545127E+01;  0.0000000E+00;  6.5500236E-01;0;  1.9060969E-01;  3.7546367E+03;  0.0000000E+00; -2.4507837E+00;  4.0000000E+04;  0.0000000E+00;  3.9150133E+04;  1.7118898E-01;  0.0000000E+00;  1.9420709E-02;  2.6421401E+03;
  1.1258205E+00;  9.9999998E-03; -2.6290104E-01;8062;  2.5312034E-02;  0.0000000E+00; -1.0656830E-02;  9.9696277E+02;  3.3285579E-01; -2.5162654E+03;3;  9.8731127E+00;  0.0000000E+00;  1.4093374E+00;0;  3.1719890E-01;  3.6744912E+03;  0.0000000E+00; -4.1551623E+00;  4.0000000E+04;  0.0000000E+00;  3.9135270E+04;  2.7103111E-01;  0.0000000E+00;  4.6167802E-02;  1.1216251E+04;
  1.1229388E+00;  9.9999998E-03; -2.1241574E-01;8067; -8.2741419E-05;  0.0000000E+00; -1.4778426E-02;  1.0005060E+03;  3.2991987E-01;  4.1914719E+02;3;  1.3080439E+01;  0.0000000E+00;  3.4221645E-02;0;  1.6011395E-01;  3.7589282E+03;  0.0000000E+00; -2.0851269E+00;  4.0000000E+04;  0.0000000E+00;  3.9150824E+04;  1.4208773E-01;  0.0000000E+00;  1.8026222E-02;  4.4012402E+03;
  1.1229167E+00;  9.9999998E-03; -2.0235388E-01;8068; -5.2624936E-03;  0.0000000E+00; -1.3838517E-02;  1.0002753E+03;  3.2997367E-01;  2.2814090E+02;3;  1.3786703E+01;  0.0000000E+00; -8.7105000E-01;0;  1.3205791E-01;  3.7581194E+03;  0.0000000E+00; -1.7553566E+00;  4.0000000E+04;  0.0000000E+00;  3.9148957E+04;  1.1297201E-01;  0.0000000E+00;  1.9085899E-02;  5.9085063E+03;
  1.1269681E+00;  9.9999998E-03; -1.1128464E-01;8077; -3.8950510E-02;  0.0000000E+00; -2.4920451E-03;  9.9848547E+02;  3.3427677E-01; -1.2547745E+03;3;  1.3919791E+01;  0.0000000E+00; -3.5176241E-01;0; -5.0631560E-02;  3.6564658E+03;  0.0000000E+00; -3.0448160E-01;  4.0000000E+04;  0.0000000E+00;  3.9157707E+04; -7.2623856E-02;  0.0000000E+00;  2.1992298E-02;  3.9365068E+03;
  1.1232274E+00;  9.9999998E-03; -1.9227758E-01;8069; -1.0372788E-02;  0.0000000E+00; -1.2283655E-02;  9.9990411E+02;  3.3032468E-01; -7.9454269E+01;3;  1.4321255E+01;  0.0000000E+00; -1.5494303E+00;0;  1.0596267E-01;  3.7496431E+03;  0.0000000E+00; -1.4641057E+00;  4.0000000E+04;  0.0000000E+00;  3.9148215E+04;  8.4021606E-02;  0.0000000E+00;  2.1941064E-02;  7.0491533E+03;
  1.1237259E+00;  9.9999998E-03; -1.8216364E-01;8070; -1.5254724E-02;  0.0000000E+00; -1.0505235E-02;  9.9944122E+02;  3.3085665E-01; -4.6294824E+02;3;  1.4601017E+01;  0.0000000E+00; -1.8827633E+00;0;  8.1791967E-02;  3.7366980E+03;  0.0000000E+00; -1.2261341E+00;  4.0000000E+04;  0.0000000E+00;  3.9148691E+04;  5.6260105E-02;  0.0000000E+00;  2.5531860E-02;  7.5355732E+03;
  1.1274914E+00;  9.9999998E-03; -1.2136617E-01;8076; -3.6543958E-02;  0.0000000E+00; -3.0634352E-03;  9.9827649E+02;  3.3463010E-01; -1.4279049E+03;3;  1.3852184E+01;  0.0000000E+00; -6.3747340E-01;0; -3.6736976E-02;  3.6481536E+03;  0.0000000E+00; -4.9368346E-01;  4.0000000E+04;  0.0000000E+00;  3.9157770E+04; -6.1688159E-02;  0.0000000E+00;  2.4951182E-02;  3.9909001E+03;
  1.1244098E+00;  9.9999998E-03; -1.7201607E-01;8071; -1.9786874E-02;  0.0000000E+00; -8.7715648E-03;  9.9896820E+02;  3.3155340E-01; -8.5483698E+02;3;  1.4648558E+01;  0.0000000E+00; -1.8654048E+00;0;  5.9014596E-02;  3.7198125E+03;  0.0000000E+00; -1.0554229E+00;  4.0000000E+04;  0.0000000E+00;  3.9148910E+04;  3.0283591E-02;  0.0000000E+00;  2.8731005E-02;  7.2125459E+03;
  1.1252465E+00;  9.9999998E-03; -1.6185229E-01;8072; -2.3858627E-02;  0.0000000E+00; -7.2406200E-03;  9.9855878E+02;  3.3237225E-01; -1.1940360E+03;3;  1.4421925E+01;  0.0000000E+00; -1.6482711E+00;0;  3.7314497E-02;  3.7001917E+03;  0.0000000E+00; -9.4503456E-01;  4.0000000E+04;  0.0000000E+00;  3.9149992E+04;  6.5881531E-03;  0.0000000E+00;  3.0726343E-02;  6.2251665E+03;
  1.1274633E+00;  9.9999998E-03; -1.3145633E-01;8075; -3.3850577E-02;  0.0000000E+00; -3.8131420E-03;  9.9814923E+02;  3.3451992E-01; -1.5333336E+03;3;  1.3743932E+01;  0.0000000E+00; -7.7160305E-01;0; -2.0767463E-02;  3.6504197E+03;  0.0000000E+00; -6.5801430E-01;  4.0000000E+04;  0.0000000E+00;  3.9156586E+04; -4.8561711E-02;  0.0000000E+00;  2.7794247E-02;  3.9918660E+03;
  1.1261541E+00;  9.9999998E-03; -1.5169601E-01;8073; -2.7528079E-02;  0.0000000E+00; -5.9122127E-03;  9.9826569E+02;  3.3324075E-01; -1.4368430E+03;3;  1.4120417E+01;  0.0000000E+00; -1.4592314E+00;0;  1.6607633E-02;  3.6798074E+03;  0.0000000E+00; -8.6577523E-01;  4.0000000E+04;  0.0000000E+00;  3.9152000E+04; -1.4533944E-02;  0.0000000E+00;  3.1141577E-02;  5.0378291E+03;
  1.1269155E+00;  9.9999998E-03; -1.4156194E-01;8074; -3.0848294E-02;  0.0000000E+00; -4.7573992E-03;  9.9813379E+02;  3.3397505E-01; -1.5461233E+03;3;  1.3935443E+01;  0.0000000E+00; -1.1479832E+00;0; -2.7962942E-03;  3.6627700E+03;  0.0000000E+00; -7.8008342E-01;  4.0000000E+04;  0.0000000E+00;  3.9154500E+04; -3.2859586E-02;  0.0000000E+00;  3.0063292E-02;  4.2286182E+03;
  1.1597190E+00;  9.9999998E-03; -2.4283907E-01;8125;  1.5969234E-02;  0.0000000E+00;  7.8288000E-04;  9.9853119E+02;  3.5603127E-01; -1.2168965E+03;3;  1.2104664E+01;  0.0000000E+00; -1.6098566E+00;0;  9.3576178E-02;  3.2179319E+03;  0.0000000E+00; -2.1140914E+00;  4.0000000E+04;  0.0000000E+00;  3.9100836E+04;  8.4866136E-02;  0.0000000E+00;  8.7100435E-03;  6.9321694E+03;
  1.1593051E+00;  9.9999998E-03; -2.3274480E-01;8126;  1.0304647E-02;  0.0000000E+00;  7.0126209E-04;  9.9897351E+02;  3.5554120E-01; -8.5043994E+02;3;  1.2750255E+01;  0.0000000E+00; -1.8219321E+00;0;  7.4405566E-02;  3.2282554E+03;  0.0000000E+00; -1.5599369E+00;  4.0000000E+04;  0.0000000E+00;  3.9098262E+04;  7.0384033E-02;  0.0000000E+00;  4.0215324E-03;  4.3078584E+03;
  1.1612254E+00;  9.9999998E-03; -2.5292766E-01;8124;  2.1455681E-02;  0.0000000E+00;  1.3118928E-03;  9.9768732E+02;  3.5752514E-01; -1.9159834E+03;3;  1.1414104E+01;  0.0000000E+00; -1.4925679E+00;0;  1.0978861E-01;  3.1873694E+03;  0.0000000E+00; -2.9655921E+00;  4.0000000E+04;  0.0000000E+00;  3.9108590E+04;  9.3134373E-02;  0.0000000E+00;  1.6654242E-02;  1.1524759E+04;
  1.1591032E+00;  9.9999998E-03; -2.2260389E-01;8127;  4.5538610E-03;  0.0000000E+00;  6.0531328E-04;  9.9919122E+02;  3.5530713E-01; -6.7005109E+02;3;  1.3382266E+01;  0.0000000E+00; -1.9710890E+00;0;  5.6161813E-02;  3.2331138E+03;  0.0000000E+00; -1.1943461E+00;  4.0000000E+04;  0.0000000E+00;  3.9104207E+04;  5.4006945E-02;  0.0000000E+00;  2.1548674E-03;  3.6117544E+03;
  1.1589984E+00;  9.9999998E-03; -2.1246253E-01;8128; -1.2127260E-03;  0.0000000E+00;  7.8865408E-04;  9.9906757E+02;  3.5523811E-01; -7.7251672E+02;3;  1.3911904E+01;  0.0000000E+00; -2.0588899E+00;0;  3.8262505E-02;  3.2344377E+03;  0.0000000E+00; -9.4225091E-01;  4.0000000E+04;  0.0000000E+00;  3.9106273E+04;  3.6757860E-02;  0.0000000E+00;  1.5046437E-03;  3.7202881E+03;
  1.1643800E+00;  9.9999998E-03; -2.6303768E-01;8123;  2.6633229E-02;  0.0000000E+00;  3.4086052E-03;  9.9624420E+02;  3.6053267E-01; -3.1115955E+03;3;  1.0760354E+01;  0.0000000E+00; -1.5763414E+00;0;  1.1120017E-01;  3.1276477E+03;  0.0000000E+00; -4.1914039E+00;  4.0000000E+04;  0.0000000E+00;  3.9109332E+04;  9.1343828E-02;  0.0000000E+00;  1.9856339E-02;  1.7552736E+04;
  1.1589880E+00;  9.9999998E-03; -2.0235449E-01;8129; -6.9046910E-03;  0.0000000E+00;  1.1642107E-03;  9.9867285E+02;  3.5531023E-01; -1.0995178E+03;3;  1.4434168E+01;  0.0000000E+00; -2.1723754E+00;0;  2.0982185E-02;  3.2324763E+03;  0.0000000E+00; -7.5821924E-01;  4.0000000E+04;  0.0000000E+00;  3.9104547E+04;  1.9224910E-02;  0.0000000E+00;  1.7572757E-03;  4.1680552E+03;
  1.1626643E+00;  9.9999998E-03; -1.1140013E-01;8138; -4.3038700E-02;  0.0000000E+00;  3.9346474E-03;  9.9668463E+02;  3.5955691E-01; -2.7467200E+03;3;  1.5434513E+01;  0.0000000E+00; -1.2124431E+00;0; -1.2293415E-01;  3.1497444E+03;  0.0000000E+00; -2.2694182E-01;  4.0000000E+04;  0.0000000E+00;  3.9111996E+04; -9.7120069E-02;  0.0000000E+00; -2.5814081E-02;  5.9682749E+03;
  1.1590736E+00;  9.9999998E-03; -1.9224833E-01;8130; -1.2403737E-02;  0.0000000E+00;  1.5124347E-03;  9.9815582E+02;  3.5550895E-01; -1.5278488E+03;3;  1.4901522E+01;  0.0000000E+00; -2.2748859E+00;0;  4.2698309E-03;  3.2276936E+03;  0.0000000E+00; -6.2003982E-01;  4.0000000E+04;  0.0000000E+00;  3.9103699E+04;  1.8723893E-03;  0.0000000E+00;  2.3974418E-03;  4.9794468E+03;
  1.1593084E+00;  9.9999998E-03; -1.8211542E-01;8131; -1.7656578E-02;  0.0000000E+00;  1.8513656E-03;  9.9759827E+02;  3.5585830E-01; -1.9897589E+03;3;  1.5215506E+01;  0.0000000E+00; -2.3413677E+00;0; -1.2339115E-02;  3.2198289E+03;  0.0000000E+00; -5.2053577E-01;  4.0000000E+04;  0.0000000E+00;  3.9104273E+04; -1.4983108E-02;  0.0000000E+00;  2.6439934E-03;  5.6948760E+03;
  1.1631680E+00;  9.9999998E-03; -1.2148076E-01;8137; -4.0479638E-02;  0.0000000E+00;  4.1019558E-03;  9.9650061E+02;  3.5990074E-01; -2.8991587E+03;3;  1.5217836E+01;  0.0000000E+00; -1.2900951E+00;0; -1.1061323E-01;  3.1429519E+03;  0.0000000E+00; -2.7894512E-01;  4.0000000E+04;  0.0000000E+00;  3.9113113E+04; -8.9655489E-02;  0.0000000E+00; -2.0957740E-02;  6.2302373E+03;
  1.1598319E+00;  9.9999998E-03; -1.7196304E-01;8132; -2.2438785E-02;  0.0000000E+00;  2.3812237E-03;  9.9707959E+02;  3.5646120E-01; -2.4194724E+03;3;  1.5081405E+01;  0.0000000E+00; -2.2861631E+00;0; -2.9342519E-02;  3.2073640E+03;  0.0000000E+00; -4.5491096E-01;  4.0000000E+04;  0.0000000E+00;  3.9105465E+04; -3.1077901E-02;  0.0000000E+00;  1.7353819E-03;  6.0543491E+03;
  1.1632288E+00;  9.9999998E-03; -1.3156156E-01;8136; -3.7598010E-02;  0.0000000E+00;  4.1344650E-03;  9.9635974E+02;  3.5985428E-01; -3.0158459E+03;3;  1.5032681E+01;  0.0000000E+00; -1.4061257E+00;0; -9.6793950E-02;  3.1433430E+03;  0.0000000E+00; -3.2562858E-01;  4.0000000E+04;  0.0000000E+00;  3.9112211E+04; -8.1120126E-02;  0.0000000E+00; -1.5673824E-02;  6.2618213E+03;
  1.1606889E+00;  9.9999998E-03; -1.6182278E-01;8133; -2.6794830E-02;  0.0000000E+00;  2.9562903E-03;  9.9665613E+02;  3.5733959E-01; -2.7703245E+03;3;  1.5036998E+01;  0.0000000E+00; -2.1528215E+00;0; -4.6795692E-02;  3.1901167E+03;  0.0000000E+00; -4.1517520E-01;  4.0000000E+04;  0.0000000E+00;  3.9107297E+04; -4.6044137E-02;  0.0000000E+00; -7.5155671E-04;  6.1150073E+03;
  1.1616914E+00;  9.9999998E-03; -1.5171976E-01;8134; -3.0745044E-02;  0.0000000E+00;  3.5152170E-03;  9.9640295E+02;  3.5832652E-01; -2.9800454E+03;3;  1.4838446E+01;  0.0000000E+00; -1.8612018E+00;0; -6.4205125E-02;  3.1713347E+03;  0.0000000E+00; -3.8868707E-01;  4.0000000E+04;  0.0000000E+00;  3.9108867E+04; -5.9425816E-02;  0.0000000E+00; -4.7793081E-03;  6.0989263E+03;
  1.1626047E+00;  9.9999998E-03; -1.4164037E-01;8135; -3.4338806E-02;  0.0000000E+00;  3.9203363E-03;  9.9631152E+02;  3.5922033E-01; -3.0557957E+03;3;  1.4883788E+01;  0.0000000E+00; -1.5387450E+00;0; -8.1020407E-02;  3.1547471E+03;  0.0000000E+00; -3.6233699E-01;  4.0000000E+04;  0.0000000E+00;  3.9110992E+04; -7.1078040E-02;  0.0000000E+00; -9.9423686E-03;  6.1606411E+03;
  1.1979973E+00;  9.9999998E-03; -2.1258079E-01;8189; -4.3292847E-03;  0.0000000E+00;  1.9804113E-02;  9.9563770E+02;  3.8324493E-01; -3.6140320E+03;3;  1.4105285E+01;  0.0000000E+00; -4.1066756E+00;0; -6.0677219E-02;  2.7652620E+03;  0.0000000E+00;  6.1839455E-01;  4.0000000E+04;  0.0000000E+00;  3.9046000E+04; -3.9095577E-02;  0.0000000E+00; -2.1581642E-02;  5.1854238E+03;
  1.1980608E+00;  9.9999998E-03; -2.0241369E-01;8190; -1.0049694E-02;  0.0000000E+00;  1.9462399E-02;  9.9542023E+02;  3.8340721E-01; -3.7942224E+03;3;  1.4572552E+01;  0.0000000E+00; -3.9470303E+00;0; -7.2522089E-02;  2.7628774E+03;  0.0000000E+00;  5.2186030E-01;  4.0000000E+04;  0.0000000E+00;  3.9043918E+04; -4.4261076E-02;  0.0000000E+00; -2.8261017E-02;  5.4931123E+03;
  1.1979444E+00;  9.9999998E-03; -2.2276612E-01;8188;  1.5371065E-03;  0.0000000E+00;  2.0134954E-02;  9.9550848E+02;  3.8315532E-01; -3.7210894E+03;3;  1.3580396E+01;  0.0000000E+00; -4.2547469E+00;0; -4.9705289E-02;  2.7659128E+03;  0.0000000E+00;  6.1614728E-01;  4.0000000E+04;  0.0000000E+00;  3.9042746E+04; -3.4329832E-02;  0.0000000E+00; -1.5375460E-02;  4.2737510E+03;
  1.1979715E+00;  9.9999998E-03; -2.3292507E-01;8187;  7.4323085E-03;  0.0000000E+00;  2.0637786E-02;  9.9502209E+02;  3.8321275E-01; -4.1240366E+03;3;  1.3117130E+01;  0.0000000E+00; -4.4692216E+00;0; -4.0719934E-02;  2.7640078E+03;  0.0000000E+00;  3.9106062E-01;  4.0000000E+04;  0.0000000E+00;  3.9036758E+04; -3.0299777E-02;  0.0000000E+00; -1.0420159E-02;  3.7635161E+03;
  1.1982157E+00;  9.9999998E-03; -1.9226107E-01;8191; -1.5562424E-02;  0.0000000E+00;  1.9080222E-02;  9.9503076E+02;  3.8368070E-01; -4.1168765E+03;3;  1.4966176E+01;  0.0000000E+00; -3.7832894E+00;0; -8.5003600E-02;  2.7582109E+03;  0.0000000E+00;  4.0814209E-01;  4.0000000E+04;  0.0000000E+00;  3.9041207E+04; -4.9658500E-02;  0.0000000E+00; -3.5345104E-02;  5.6877065E+03;
  1.1984802E+00;  9.9999998E-03; -1.8211243E-01;8192; -2.0795560E-02;  0.0000000E+00;  1.8656520E-02;  9.9459406E+02;  3.8406172E-01; -4.4786895E+03;3;  1.5157510E+01;  0.0000000E+00; -3.5890925E+00;0; -9.7974032E-02;  2.7516499E+03;  0.0000000E+00;  3.1341109E-01;  4.0000000E+04;  0.0000000E+00;  3.9039867E+04; -5.5051874E-02;  0.0000000E+00; -4.2922154E-02;  5.9158213E+03;
  1.1986705E+00;  9.9999998E-03; -2.4300507E-01;8186;  1.3243704E-02;  0.0000000E+00;  2.1208705E-02;  9.9448871E+02;  3.8392285E-01; -4.5659448E+03;3;  1.2562183E+01;  0.0000000E+00; -4.6456718E+00;0; -3.3990689E-02;  2.7520896E+03;  0.0000000E+00; -1.9237906E-01;  4.0000000E+04;  0.0000000E+00;  3.9049535E+04; -2.8313141E-02;  0.0000000E+00; -5.6775473E-03;  7.4837856E+03;
  1.1988770E+00;  9.9999998E-03; -1.7196809E-01;8193; -2.5701663E-02;  0.0000000E+00;  1.8219993E-02;  9.9420953E+02;  3.8454840E-01; -4.7972446E+03;3;  1.5410346E+01;  0.0000000E+00; -3.4275649E+00;0; -1.1129020E-01;  2.7434844E+03;  0.0000000E+00;  2.4621651E-01;  4.0000000E+04;  0.0000000E+00;  3.9040215E+04; -6.0202610E-02;  0.0000000E+00; -5.1087588E-02;  6.1392852E+03;
  1.2008433E+00;  9.9999998E-03; -2.5307956E-01;8185;  1.8805526E-02;  0.0000000E+00;  2.1709044E-02;  9.9389844E+02;  3.8597846E-01; -5.0549609E+03;3;  1.2078988E+01;  0.0000000E+00; -5.0121517E+00;0; -2.6511442E-02;  2.7197593E+03;  0.0000000E+00; -1.2960107E+00;  4.0000000E+04;  0.0000000E+00;  3.9074918E+04; -3.0417722E-02;  0.0000000E+00;  3.9062803E-03;  1.3800781E+04;
  1.1997274E+00;  9.9999998E-03; -1.6186032E-01;8194; -3.0319784E-02;  0.0000000E+00;  1.7921282E-02;  9.9394470E+02;  3.8540712E-01; -5.0166426E+03;3;  1.5659672E+01;  0.0000000E+00; -3.3015175E+00;0; -1.2513678E-01;  2.7301526E+03;  0.0000000E+00;  2.0936199E-01;  4.0000000E+04;  0.0000000E+00;  3.9041215E+04; -6.4750008E-02;  0.0000000E+00; -6.0386769E-02;  6.3284653E+03;
  1.2004522E+00;  9.9999998E-03; -1.1144992E-01;8199; -4.8218206E-02;  0.0000000E+00;  1.4371293E-02;  9.9407648E+02;  3.8646829E-01; -4.9074609E+03;3;  1.6799633E+01;  0.0000000E+00; -2.4014573E+00;0; -1.8511739E-01;  2.7142087E+03;  0.0000000E+00; -8.4161103E-02;  4.0000000E+04;  0.0000000E+00;  3.9052402E+04; -8.1699863E-02;  0.0000000E+00; -1.0341753E-01;  6.4750107E+03;
  1.2007456E+00;  9.9999998E-03; -1.5178552E-01;8195; -3.4634035E-02;  0.0000000E+00;  1.7630914E-02;  9.9382825E+02;  3.8639787E-01; -5.1131318E+03;3;  1.5911605E+01;  0.0000000E+00; -3.1658621E+00;0; -1.3891220E-01;  2.7153384E+03;  0.0000000E+00;  1.8331094E-01;  4.0000000E+04;  0.0000000E+00;  3.9043000E+04; -6.8460166E-02;  0.0000000E+00; -7.0452042E-02;  6.5005869E+03;
  1.2010163E+00;  9.9999998E-03; -1.2153637E-01;8198; -4.5359429E-02;  0.0000000E+00;  1.5400423E-02;  9.9398389E+02;  3.8687479E-01; -4.9841982E+03;3;  1.6575480E+01;  0.0000000E+00; -2.6160221E+00;0; -1.7467093E-01;  2.7080613E+03;  0.0000000E+00;  5.1689623E-03;  4.0000000E+04;  0.0000000E+00;  3.9051785E+04; -7.8322038E-02;  0.0000000E+00; -9.6348889E-02;  6.7049834E+03;
  1.2015479E+00;  9.9999998E-03; -1.3161749E-01;8197; -4.2187840E-02;  0.0000000E+00;  1.6400233E-02;  9.9389587E+02;  3.8726118E-01; -5.0570840E+03;3;  1.6363842E+01;  0.0000000E+00; -2.8263702E+00;0; -1.6379824E-01;  2.7024697E+03;  0.0000000E+00;  8.6860850E-02;  4.0000000E+04;  0.0000000E+00;  3.9049113E+04; -7.4762702E-02;  0.0000000E+00; -8.9035548E-02;  6.7579839E+03;
  1.2015165E+00;  9.9999998E-03; -1.4170617E-01;8196; -3.8615379E-02;  0.0000000E+00;  1.7178800E-02;  9.9383325E+02;  3.8715887E-01; -5.1089834E+03;3;  1.6130451E+01;  0.0000000E+00; -3.0109296E+00;0; -1.5197635E-01;  2.7041384E+03;  0.0000000E+00;  1.4749828E-01;  4.0000000E+04;  0.0000000E+00;  3.9046016E+04; -7.1549021E-02;  0.0000000E+00; -8.0427326E-02;  6.6638892E+03;
  1.2052976E+00;  9.9999998E-03; -2.6321355E-01;8184;  2.3792572E-02;  0.0000000E+00;  2.3422221E-02;  9.9333563E+02;  3.9015716E-01; -5.5212593E+03;3;  1.1515961E+01;  0.0000000E+00; -5.2705145E+00;0; -2.2380082E-02;  2.6586929E+03;  0.0000000E+00; -3.2000153E+00;  4.0000000E+04;  0.0000000E+00;  3.9081102E+04; -3.8549155E-02;  0.0000000E+00;  1.6169073E-02;  1.9825488E+04;
  1.2391096E+00;  9.9999998E-03; -2.0254773E-01;8251; -1.2558076E-02;  0.0000000E+00;  4.0101156E-02;  9.9630261E+02;  4.1160554E-01; -3.0631611E+03;3;  1.5036971E+01;  0.0000000E+00; -6.7272348E+00;0; -5.6381047E-02;  2.4064834E+03;  0.0000000E+00;  1.7932998E+00;  4.0000000E+04;  0.0000000E+00;  3.8974824E+04; -6.5422198E-03;  0.0000000E+00; -4.9838826E-02;  9.6341016E+03;
  1.2392036E+00;  9.9999998E-03; -1.9239725E-01;8252; -1.8108085E-02;  0.0000000E+00;  3.9329678E-02;  9.9594580E+02;  4.1179585E-01; -3.3587520E+03;3;  1.5484010E+01;  0.0000000E+00; -6.4252276E+00;0; -6.4853460E-02;  2.4034966E+03;  0.0000000E+00;  1.4440004E+00;  4.0000000E+04;  0.0000000E+00;  3.8967898E+04;  5.4441951E-03;  0.0000000E+00; -7.0297658E-02;  8.4655986E+03;
  1.2392679E+00;  9.9999998E-03; -2.1274841E-01;8250; -6.8673198E-03;  0.0000000E+00;  4.0865969E-02;  9.9648212E+02;  4.1162449E-01; -2.9144277E+03;3;  1.4611408E+01;  0.0000000E+00; -7.0261960E+00;0; -4.6289969E-02;  2.4063550E+03;  0.0000000E+00;  2.0694101E+00;  4.0000000E+04;  0.0000000E+00;  3.8979684E+04; -1.7114934E-02;  0.0000000E+00; -2.9175036E-02;  1.0170100E+04;
  1.2395633E+00;  9.9999998E-03; -1.8226799E-01;8253; -2.3488753E-02;  0.0000000E+00;  3.8552288E-02;  9.9558783E+02;  4.1220504E-01; -3.6553301E+03;3;  1.5850130E+01;  0.0000000E+00; -6.1069717E+00;0; -7.0981219E-02;  2.3977375E+03;  0.0000000E+00;  1.1001408E+00;  4.0000000E+04;  0.0000000E+00;  3.8963285E+04;  1.9565193E-02;  0.0000000E+00; -9.0546414E-02;  7.1810034E+03;
  1.2401240E+00;  9.9999998E-03; -1.7214401E-01;8254; -2.8650684E-02;  0.0000000E+00;  3.7737112E-02;  9.9528070E+02;  4.1275978E-01; -3.9097859E+03;3;  1.6183901E+01;  0.0000000E+00; -5.7842498E+00;0; -7.4239530E-02;  2.3901833E+03;  0.0000000E+00;  7.9848462E-01;  4.0000000E+04;  0.0000000E+00;  3.8961430E+04;  3.6252759E-02;  0.0000000E+00; -1.1049229E-01;  5.9616489E+03;
  1.2394792E+00;  9.9999998E-03; -2.2298771E-01;8249; -1.0882666E-03;  0.0000000E+00;  4.1609347E-02;  9.9619867E+02;  4.1173360E-01; -3.1492803E+03;3;  1.4075473E+01;  0.0000000E+00; -7.2765946E+00;0; -3.5970978E-02;  2.4043770E+03;  0.0000000E+00;  2.1336186E+00;  4.0000000E+04;  0.0000000E+00;  3.8975770E+04; -2.7142012E-02;  0.0000000E+00; -8.8289659E-03;  8.9693984E+03;
  1.2405846E+00;  9.9999998E-03; -1.6201325E-01;8255; -3.3529442E-02;  0.0000000E+00;  3.6731467E-02;  9.9503094E+02;  4.1321334E-01; -4.1166895E+03;3;  1.6480736E+01;  0.0000000E+00; -5.4560771E+00;0; -7.5413615E-02;  2.3836914E+03;  0.0000000E+00;  5.4250354E-01;  4.0000000E+04;  0.0000000E+00;  3.8962684E+04;  5.4101605E-02;  0.0000000E+00; -1.2951522E-01;  4.9446499E+03;
  1.2410884E+00;  9.9999998E-03; -1.5189445E-01;8256; -3.8110904E-02;  0.0000000E+00;  3.5607778E-02;  9.9486517E+02;  4.1367894E-01; -4.2540151E+03;3;  1.6673109E+01;  0.0000000E+00; -5.0788326E+00;0; -7.3574767E-02;  2.3772410E+03;  0.0000000E+00;  3.1665328E-01;  4.0000000E+04;  0.0000000E+00;  3.8965164E+04;  7.3952809E-02;  0.0000000E+00; -1.4752758E-01;  4.2802949E+03;
  1.2416887E+00;  9.9999998E-03; -1.4178912E-01;8257; -4.2344160E-02;  0.0000000E+00;  3.4386333E-02;  9.9480835E+02;  4.1420564E-01; -4.3010737E+03;3;  1.6982504E+01;  0.0000000E+00; -4.6983399E+00;0; -6.8083152E-02;  2.3704023E+03;  0.0000000E+00;  1.0844794E-01;  4.0000000E+04;  0.0000000E+00;  3.8968445E+04;  9.6522570E-02;  0.0000000E+00; -1.6460572E-01;  4.0798076E+03;
  1.2399358E+00;  9.9999998E-03; -2.3318852E-01;8248;  4.6772161E-03;  0.0000000E+00;  4.2633768E-02;  9.9550128E+02;  4.1210169E-01; -3.7270298E+03;3;  1.3583839E+01;  0.0000000E+00; -7.4870276E+00;0; -2.6965909E-02;  2.3990615E+03;  0.0000000E+00;  1.8132992E+00;  4.0000000E+04;  0.0000000E+00;  3.8965453E+04; -3.6439870E-02;  0.0000000E+00;  9.4739608E-03;  5.4842944E+03;
  1.2418066E+00;  9.9999998E-03; -1.3169196E-01;8258; -4.6185236E-02;  0.0000000E+00;  3.2810103E-02;  9.9471411E+02;  4.1434902E-01; -4.3791440E+03;3;  1.7079994E+01;  0.0000000E+00; -4.2416720E+00;0; -6.3547768E-02;  2.3679011E+03;  0.0000000E+00; -8.0135606E-02;  4.0000000E+04;  0.0000000E+00;  3.8972410E+04;  1.1602820E-01;  0.0000000E+00; -1.7957596E-01;  4.2681636E+03;
  1.2417984E+00;  9.9999998E-03; -1.2158658E-01;8259; -4.9663328E-02;  0.0000000E+00;  3.1049266E-02;  9.9462561E+02;  4.1440460E-01; -4.4524736E+03;3;  1.7390589E+01;  0.0000000E+00; -3.8297517E+00;0; -5.8376908E-02;  2.3666323E+03;  0.0000000E+00; -2.4002580E-01;  4.0000000E+04;  0.0000000E+00;  3.8975047E+04;  1.3501312E-01;  0.0000000E+00; -1.9339003E-01;  4.5470186E+03;
  1.2417719E+00;  9.9999998E-03; -1.1147007E-01;8260; -5.2796923E-02;  0.0000000E+00;  2.9147802E-02;  9.9452252E+02;  4.1447082E-01; -4.5379019E+03;3;  1.7484451E+01;  0.0000000E+00; -3.3458526E+00;0; -5.2119792E-02;  2.3655574E+03;  0.0000000E+00; -3.5806671E-01;  4.0000000E+04;  0.0000000E+00;  3.8975629E+04;  1.5442848E-01;  0.0000000E+00; -2.0654827E-01;  4.6726943E+03;
  1.2411697E+00;  9.9999998E-03; -2.4329469E-01;8247;  1.0348560E-02;  0.0000000E+00;  4.3970272E-02;  9.9495923E+02;  4.1312954E-01; -4.1760928E+03;3;  1.3116880E+01;  0.0000000E+00; -7.8064427E+00;0; -2.0023348E-02;  2.3862068E+03;  0.0000000E+00;  9.3681967E-01;  4.0000000E+04;  0.0000000E+00;  3.8970777E+04; -4.4950828E-02;  0.0000000E+00;  2.4927480E-02;  3.8070044E+03;
  1.2435836E+00;  9.9999998E-03; -2.5337687E-01;8246;  1.5816884E-02;  0.0000000E+00;  4.5048717E-02;  9.9485504E+02;  4.1511977E-01; -4.2624062E+03;3;  1.3273070E+01;  0.0000000E+00; -8.3112326E+00;0; -1.2044474E-02;  2.3629775E+03;  0.0000000E+00; -6.8859023E-01;  4.0000000E+04;  0.0000000E+00;  3.8991898E+04; -5.3340819E-02;  0.0000000E+00;  4.1296344E-02;  1.0243809E+04;
  1.2480905E+00;  9.9999998E-03; -2.6351589E-01;8245;  2.0334385E-02;  0.0000000E+00;  4.6092756E-02;  9.9551758E+02;  4.1875646E-01; -3.7135391E+03;3;  1.2765700E+01;  0.0000000E+00; -9.2196932E+00;0;  3.1473748E-03;  2.3243079E+03;  0.0000000E+00; -3.3436191E+00;  4.0000000E+04;  0.0000000E+00;  3.8994180E+04; -6.1701972E-02;  0.0000000E+00;  6.4849347E-02;  1.6913266E+04;
  1.2825898E+00;  9.9999998E-03; -1.9264476E-01;8313; -1.8418074E-02;  0.0000000E+00;  6.5418012E-02;  1.0004218E+03;  4.2952132E-01;  3.4940894E+02;3;  1.5831855E+01;  0.0000000E+00; -9.7143631E+00;0;  3.5685134E-01;  2.2313220E+03;  0.0000000E+00;  1.4713190E+00;  4.0000000E+04;  0.0000000E+00;  3.8915234E+04;  4.6218073E-01;  0.0000000E+00; -1.0532941E-01;  7.7929385E+03;
  1.2824455E+00;  9.9999998E-03; -2.0279323E-01;8312; -1.2872778E-02;  0.0000000E+00;  6.6467002E-02;  1.0009882E+03;  4.2935270E-01;  8.1871118E+02;3;  1.5546041E+01;  0.0000000E+00; -1.0425473E+01;0;  3.0822229E-01;  2.2349167E+03;  0.0000000E+00;  1.8308278E+00;  4.0000000E+04;  0.0000000E+00;  3.8924617E+04;  3.7636134E-01;  0.0000000E+00; -6.8139039E-02;  1.0099073E+04;
  1.2832149E+00;  9.9999998E-03; -1.8254134E-01;8314; -2.3795644E-02;  0.0000000E+00;  6.4438730E-02;  9.9980377E+02;  4.2984974E-01; -1.6255707E+02;3;  1.6130783E+01;  0.0000000E+00; -8.9158564E+00;0;  4.2334956E-01;  2.2255386E+03;  0.0000000E+00;  1.0534910E+00;  4.0000000E+04;  0.0000000E+00;  3.8908043E+04;  5.6481445E-01;  0.0000000E+00; -1.4146487E-01;  5.3384272E+03;
  1.2828047E+00;  9.9999998E-03; -2.1300240E-01;8311; -7.2633666E-03;  0.0000000E+00;  6.7516059E-02;  1.0013698E+03;  4.2935544E-01;  1.1348383E+03;3;  1.4711353E+01;  0.0000000E+00; -1.2115206E+01;0;  2.7474242E-01;  2.2360398E+03;  0.0000000E+00;  2.0337162E+00;  4.0000000E+04;  0.0000000E+00;  3.8931531E+04;  3.0476734E-01;  0.0000000E+00; -3.0024923E-02;  1.1595259E+04;
  1.2839234E+00;  9.9999998E-03; -1.7244066E-01;8315; -2.8993392E-02;  0.0000000E+00;  6.3241109E-02;  9.9915430E+02;  4.3019044E-01; -7.0064435E+02;3;  1.6355236E+01;  0.0000000E+00; -8.2543640E+00;0;  5.0165302E-01;  2.2192883E+03;  0.0000000E+00;  6.4583403E-01;  4.0000000E+04;  0.0000000E+00;  3.8903363E+04;  6.7756718E-01;  0.0000000E+00; -1.7591417E-01;  3.1017480E+03;
  1.2842863E+00;  9.9999998E-03; -1.6230181E-01;8316; -3.3964906E-02;  0.0000000E+00;  6.1554044E-02;  9.9849493E+02;  4.3038499E-01; -1.2468790E+03;3;  1.6756580E+01;  0.0000000E+00; -7.5445418E+00;0;  5.8021259E-01;  2.2143635E+03;  0.0000000E+00;  2.7930570E-01;  4.0000000E+04;  0.0000000E+00;  3.8901199E+04;  7.8771502E-01;  0.0000000E+00; -2.0750239E-01;  1.3412267E+03;
  1.2834340E+00;  9.9999998E-03; -2.2325478E-01;8310; -1.6060179E-03;  0.0000000E+00;  6.8541549E-02;  1.0013221E+03;  4.2945305E-01;  1.0953342E+03;3;  1.4940162E+01;  0.0000000E+00; -1.2591083E+01;0;  2.5053865E-01;  2.2353298E+03;  0.0000000E+00;  1.9397458E+00;  4.0000000E+04;  0.0000000E+00;  3.8927934E+04;  2.4216221E-01;  0.0000000E+00;  8.3764447E-03;  1.1129360E+04;
  1.2847157E+00;  9.9999998E-03; -1.5214892E-01;8317; -3.8626507E-02;  0.0000000E+00;  5.9627041E-02;  9.9788055E+02;  4.3056664E-01; -1.7558320E+03;3;  1.6753117E+01;  0.0000000E+00; -6.7193904E+00;0;  6.6770035E-01;  2.2096201E+03;  0.0000000E+00; -4.5904595E-02;  4.0000000E+04;  0.0000000E+00;  3.8900926E+04;  9.0405768E-01;  0.0000000E+00; -2.3635735E-01;  6.7888110E+02;
  1.2853380E+00;  9.9999998E-03; -1.4202091E-01;8318; -4.2801972E-02;  0.0000000E+00;  5.7494022E-02;  9.9733044E+02;  4.3078780E-01; -2.2116030E+03;3;  1.7155260E+01;  0.0000000E+00; -5.9355922E+00;0;  7.6772934E-01;  2.2046824E+03;  0.0000000E+00; -3.1569615E-01;  4.0000000E+04;  0.0000000E+00;  3.8901637E+04;  1.0304065E+00;  0.0000000E+00; -2.6267713E-01;  1.2581156E+03;
  1.2843155E+00;  9.9999998E-03; -2.3347640E-01;8309;  4.1293092E-03;  0.0000000E+00;  6.9785535E-02;  1.0008053E+03;  4.2967144E-01;  6.6711560E+02;3;  1.5527936E+01;  0.0000000E+00; -1.2701903E+01;0;  2.3224142E-01;  2.2328660E+03;  0.0000000E+00;  1.3848647E+00;  4.0000000E+04;  0.0000000E+00;  3.8913590E+04;  1.8803339E-01;  0.0000000E+00;  4.4208042E-02;  7.9576523E+03;
  1.2857687E+00;  9.9999998E-03; -1.3191752E-01;8319; -4.6631183E-02;  0.0000000E+00;  5.4968454E-02;  9.9682159E+02;  4.3094423E-01; -2.6331538E+03;3;  1.6778517E+01;  0.0000000E+00; -5.0156116E+00;0;  8.6635411E-01;  2.2007339E+03;  0.0000000E+00; -5.1215702E-01;  4.0000000E+04;  0.0000000E+00;  3.8902465E+04;  1.1524062E+00;  0.0000000E+00; -2.8605211E-01;  1.5313651E+03;
  1.2859532E+00;  9.9999998E-03; -1.2181734E-01;8320; -5.0100911E-02;  0.0000000E+00;  5.2015197E-02;  9.9632635E+02;  4.3103236E-01; -3.0434465E+03;3;  1.6812180E+01;  0.0000000E+00; -4.0343342E+00;0;  9.5806432E-01;  2.1978401E+03;  0.0000000E+00; -6.2581867E-01;  4.0000000E+04;  0.0000000E+00;  3.8902145E+04;  1.2650551E+00;  0.0000000E+00; -3.0699077E-01;  1.3419810E+03;
  1.2858778E+00;  9.9999998E-03; -1.1171814E-01;8321; -5.3308230E-02;  0.0000000E+00;  4.8682734E-02;  9.9582544E+02;  4.3106589E-01; -3.4584309E+03;3;  1.7283022E+01;  0.0000000E+00; -3.5314810E+00;0;  1.0386490E+00;  2.1959158E+03;  0.0000000E+00; -6.5629518E-01;  4.0000000E+04;  0.0000000E+00;  3.8899918E+04;  1.3646070E+00;  0.0000000E+00; -3.2595801E-01;  8.5677600E+02;
  1.2858517E+00;  9.9999998E-03; -2.4360207E-01;8308;  9.8183397E-03;  0.0000000E+00;  7.1330242E-02;  1.0002581E+03;  4.3012980E-01;  2.1381258E+02;3;  1.7052387E+01;  0.0000000E+00; -1.2828848E+01;0;  2.1972142E-01;  2.2273677E+03;  0.0000000E+00;  2.1488971E-01;  4.0000000E+04;  0.0000000E+00;  3.8908793E+04;  1.4608730E-01;  0.0000000E+00;  7.3634118E-02;  2.9401550E+03;
  1.2885681E+00;  9.9999998E-03; -2.5365943E-01;8307;  1.4826039E-02;  0.0000000E+00;  7.1583770E-02;  1.0001351E+03;  4.3094549E-01;  1.1199218E+02;3;  1.8222708E+01;  0.0000000E+00; -1.3101453E+01;0;  2.2267711E-01;  2.2176162E+03;  0.0000000E+00; -1.7344122E+00;  4.0000000E+04;  0.0000000E+00;  3.8933980E+04;  1.1972813E-01;  0.0000000E+00;  1.0294898E-01;  6.7670928E+03;
  1.2934215E+00;  9.9999998E-03; -2.6372397E-01;8306;  1.7374262E-02;  0.0000000E+00;  5.2673955E-02;  1.0006592E+03;  4.3223184E-01;  5.4613293E+02;3;  2.1500948E+01;  0.0000000E+00; -2.4435814E+01;0;  4.1702217E-01;  2.2029229E+03;  0.0000000E+00; -4.7772427E+00;  4.0000000E+04;  0.0000000E+00;  3.8981043E+04;  1.1895506E-01;  0.0000000E+00;  2.9806712E-01;  1.9185473E+04;
  1.3258699E+00;  9.9999998E-03; -2.0287326E-01;8373; -1.1323253E-02;  0.0000000E+00;  9.5588535E-02;  9.9478662E+02;  4.2231232E-01; -4.3188726E+03;3;  1.7896339E+01;  0.0000000E+00; -8.8568125E+00;0;  1.6859580E+00;  2.2818740E+03;  0.0000000E+00;  5.6653529E-01;  4.0000000E+04;  0.0000000E+00;  3.8908031E+04;  1.8081267E+00;  0.0000000E+00; -1.2216865E-01;  4.6351641E+03;
  1.3262539E+00;  9.9999998E-03; -1.9277903E-01;8374; -1.7488409E-02;  0.0000000E+00;  9.3382262E-02;  9.9416229E+02;  4.2239824E-01; -4.8360527E+03;3;  1.7319475E+01;  0.0000000E+00; -8.8489094E+00;0;  1.8868263E+00;  2.2789373E+03;  0.0000000E+00;  3.6128831E-01;  4.0000000E+04;  0.0000000E+00;  3.8892473E+04;  2.0533531E+00;  0.0000000E+00; -1.6652684E-01;  1.9889774E+03;
  1.3261002E+00;  9.9999998E-03; -2.1303171E-01;8372; -5.2950350E-03;  0.0000000E+00;  9.7912721E-02;  9.9524506E+02;  4.2212743E-01; -3.9391074E+03;3;  1.8678476E+01;  0.0000000E+00; -9.0596066E+00;0;  1.5279310E+00;  2.2847712E+03;  0.0000000E+00;  6.4544857E-01;  4.0000000E+04;  0.0000000E+00;  3.8924844E+04;  1.6075597E+00;  0.0000000E+00; -7.9628721E-02;  7.1695669E+03;
  1.3271254E+00;  9.9999998E-03; -1.8271065E-01;8375; -2.3157759E-02;  0.0000000E+00;  9.1352753E-02;  9.9346259E+02;  4.2240950E-01; -5.4157417E+03;3;  1.6258261E+01;  0.0000000E+00; -9.0923433E+00;0;  2.1278706E+00;  2.2759746E+03;  0.0000000E+00;  1.2960410E-01;  4.0000000E+04;  0.0000000E+00;  3.8879836E+04;  2.3384144E+00;  0.0000000E+00; -2.1054398E-01;  2.5087787E+02;
  1.3267227E+00;  9.9999998E-03; -2.2325945E-01;8371;  1.9038800E-04;  0.0000000E+00;  1.0007171E-01;  9.9538593E+02;  4.2187533E-01; -3.8223760E+03;3;  1.9782429E+01;  0.0000000E+00; -9.2524529E+00;0;  1.3986356E+00;  2.2875237E+03;  0.0000000E+00;  4.7303495E-01;  4.0000000E+04;  0.0000000E+00;  3.8934477E+04;  1.4399651E+00;  0.0000000E+00; -4.1329518E-02;  8.3682197E+03;
  1.3280745E+00;  9.9999998E-03; -1.7261133E-01;8376; -2.7432682E-02;  0.0000000E+00;  8.9163512E-02;  9.9273248E+02;  4.2239961E-01; -6.0205625E+03;3;  9.4383488E+00;  0.0000000E+00; -9.4407530E+00;0;  2.3872595E+00;  2.2729443E+03;  0.0000000E+00; -5.9824806E-02;  4.0000000E+04;  0.0000000E+00;  3.8869488E+04;  2.6394496E+00;  0.0000000E+00; -2.5219023E-01;  1.9272867E+03;
  1.3287753E+00;  9.9999998E-03; -1.6245426E-01;8377; -2.9349171E-02;  0.0000000E+00;  8.6592108E-02;  9.9201306E+02;  4.2237970E-01; -6.6165449E+03;3; -5.9410658E+00;  0.0000000E+00; -9.4119091E+00;0;  2.6415412E+00;  2.2700664E+03;  0.0000000E+00; -1.8520123E-01;  4.0000000E+04;  0.0000000E+00;  3.8859867E+04;  2.9313705E+00;  0.0000000E+00; -2.8982925E-01;  3.1209351E+03;
  1.3277389E+00;  9.9999998E-03; -2.3348588E-01;8370;  5.1612565E-03;  0.0000000E+00;  1.0207739E-01;  9.9515106E+02;  4.2156979E-01; -4.0169688E+03;3;  2.1819658E+01;  0.0000000E+00; -9.4234562E+00;0;  1.2947108E+00;  2.2902466E+03;  0.0000000E+00; -1.0147051E-01;  4.0000000E+04;  0.0000000E+00;  3.8933863E+04;  1.3066866E+00;  0.0000000E+00; -1.1975828E-02;  7.4988926E+03;
  1.3292611E+00;  9.9999998E-03; -1.5226281E-01;8378; -3.0553104E-02;  0.0000000E+00;  8.3529979E-02;  9.9133850E+02;  4.2232737E-01; -7.1753462E+03;3; -1.8497259E+01;  0.0000000E+00; -9.9894552E+00;0;  2.8868110E+00;  2.2676719E+03;  0.0000000E+00; -2.5858855E-01;  4.0000000E+04;  0.0000000E+00;  3.8852406E+04;  3.2094970E+00;  0.0000000E+00; -3.2268590E-01;  3.8748411E+03;
  1.3297207E+00;  9.9999998E-03; -1.4208767E-01;8379; -3.0713910E-02;  0.0000000E+00;  7.9999350E-02;  9.9071582E+02;  4.2224488E-01; -7.6911899E+03;3; -2.9358133E+01;  0.0000000E+00; -9.8825636E+00;0;  3.1300030E+00;  2.2658384E+03;  0.0000000E+00; -2.8418890E-01;  4.0000000E+04;  0.0000000E+00;  3.8847090E+04;  3.4808795E+00;  0.0000000E+00; -3.5087645E-01;  4.2931592E+03;
  1.3293077E+00;  9.9999998E-03; -2.4365011E-01;8369;  9.7692451E-03;  0.0000000E+00;  1.0407809E-01;  9.9472632E+02;  4.2125943E-01; -4.3688257E+03;3;  2.3995399E+01;  0.0000000E+00; -9.1903353E+00;0;  1.2159406E+00;  2.2922007E+03;  0.0000000E+00; -1.2312661E+00;  4.0000000E+04;  0.0000000E+00;  3.8934773E+04;  1.2148799E+00;  0.0000000E+00;  1.0607463E-03;  6.7243354E+03;
  1.3302149E+00;  9.9999998E-03; -1.3196632E-01;8380; -2.8630257E-02;  0.0000000E+00;  7.6135747E-02;  9.9015381E+02;  4.2213982E-01; -8.1567661E+03;3; -4.0698669E+01;  0.0000000E+00; -9.1864862E+00;0;  3.3710351E+00;  2.2644077E+03;  0.0000000E+00; -2.6359650E-01;  4.0000000E+04;  0.0000000E+00;  3.8843070E+04;  3.7461181E+00;  0.0000000E+00; -3.7508306E-01;  4.6274204E+03;
  1.3319507E+00;  9.9999998E-03; -2.5374234E-01;8368;  1.3558111E-02;  0.0000000E+00;  1.0490581E-01;  9.9443066E+02;  4.2093325E-01; -4.6137241E+03;3;  2.6945009E+01;  0.0000000E+00; -8.4276505E+00;0;  1.1826177E+00;  2.2929189E+03;  0.0000000E+00; -3.0688977E+00;  4.0000000E+04;  0.0000000E+00;  3.8960328E+04;  1.1868590E+00;  0.0000000E+00; -4.2412961E-03;  1.2396877E+04;
  1.3307273E+00;  9.9999998E-03; -1.2186981E-01;8381; -2.3945792E-02;  0.0000000E+00;  7.1878612E-02;  9.8961121E+02;  4.2204875E-01; -8.6062441E+03;3; -5.0585373E+01;  0.0000000E+00; -8.8894444E+00;0;  3.6061010E+00;  2.2631917E+03;  0.0000000E+00; -2.0291056E-01;  4.0000000E+04;  0.0000000E+00;  3.8838773E+04;  4.0024319E+00;  0.0000000E+00; -3.9633095E-01;  5.1634072E+03;
  1.3310337E+00;  9.9999998E-03; -1.1175899E-01;8382; -2.1288227E-02;  0.0000000E+00;  6.7272000E-02;  9.8908008E+02;  4.2202136E-01; -9.0462432E+03;3; -5.7980595E+01;  0.0000000E+00; -7.9743724E+00;0;  3.8174942E+00;  2.2617212E+03;  0.0000000E+00; -1.1675122E-01;  4.0000000E+04;  0.0000000E+00;  3.8833766E+04;  4.2327857E+00;  0.0000000E+00; -4.1529164E-01;  5.9993501E+03;
  1.3357255E+00;  9.9999998E-03; -2.6380536E-01;8367;  1.5608375E-02;  0.0000000E+00;  9.8680407E-02;  9.9440063E+02;  4.2066824E-01; -4.6385889E+03;3;  3.0851610E+01;  0.0000000E+00; -7.4228401E+00;0;  1.2516341E+00;  2.2917468E+03;  0.0000000E+00; -5.7877722E+00;  4.0000000E+04;  0.0000000E+00;  3.9018953E+04;  1.2279680E+00;  0.0000000E+00;  2.3666115E-02;  2.6394299E+04;
  1.3672012E+00;  9.9999998E-03; -2.0304032E-01;8434;  3.3729903E-02;  0.0000000E+00;  1.1571466E-01;  9.9132886E+02;  4.0160173E-01; -7.1829248E+03;3; -6.4129112E+01;  0.0000000E+00;  6.0662003E+00;0;  4.2948742E+00;  2.5040725E+03;  0.0000000E+00; -4.3702608E-01;  4.0000000E+04;  0.0000000E+00;  3.8888875E+04;  4.5175662E+00;  0.0000000E+00; -2.2269194E-01;  1.8605092E+03;
  1.3676426E+00;  9.9999998E-03; -1.9293967E-01;8435;  6.5058663E-02;  0.0000000E+00;  1.1273423E-01;  9.9135657E+02;  4.0163100E-01; -7.1599585E+03;3; -7.5869080E+01;  0.0000000E+00;  7.6540594E+00;0;  4.5605440E+00;  2.5046379E+03;  0.0000000E+00; -4.6454221E-01;  4.0000000E+04;  0.0000000E+00;  3.8870691E+04;  4.8094263E+00;  0.0000000E+00; -2.4888207E-01;  3.2757546E+03;
  1.3671746E+00;  9.9999998E-03; -2.1317169E-01;8433;  4.1959491E-03;  0.0000000E+00;  1.1666159E-01;  9.9132849E+02;  4.0144953E-01; -7.1832212E+03;3; -4.8877895E+01;  0.0000000E+00;  3.7967005E+00;0;  4.0591936E+00;  2.5046936E+03;  0.0000000E+00; -4.4476643E-01;  4.0000000E+04;  0.0000000E+00;  3.8909047E+04;  4.2611284E+00;  0.0000000E+00; -2.0193458E-01;  3.1632490E+03;
  1.3684725E+00;  9.9999998E-03; -1.8283708E-01;8436;  9.9628128E-02;  0.0000000E+00;  1.0773023E-01;  9.9140894E+02;  4.0153825E-01; -7.1165469E+03;3; -8.5907822E+01;  0.0000000E+00;  8.9623108E+00;0;  4.8498068E+00;  2.5065159E+03;  0.0000000E+00; -4.5792860E-01;  4.0000000E+04;  0.0000000E+00;  3.8853398E+04;  5.1270657E+00;  0.0000000E+00; -2.7725878E-01;  5.2203032E+03;
  1.3676194E+00;  9.9999998E-03; -2.2335495E-01;8432; -6.9523952E-03;  0.0000000E+00;  1.1674995E-01;  9.9127655E+02;  4.0114859E-01; -7.2262207E+03;3;  1.9262897E+01;  0.0000000E+00;  6.8635569E+00;0;  3.8607471E+00;  2.5068875E+03;  0.0000000E+00; -5.8766979E-01;  4.0000000E+04;  0.0000000E+00;  3.8924898E+04;  4.0510635E+00;  0.0000000E+00; -1.9031639E-01;  5.1128057E+03;
  1.3696520E+00;  9.9999998E-03; -1.7271861E-01;8437;  1.3846707E-01;  0.0000000E+00;  1.0073826E-01;  9.9149146E+02;  4.0131974E-01; -7.0481953E+03;3; -9.3887711E+01;  0.0000000E+00;  1.0406452E+01;0;  5.1544638E+00;  2.5099790E+03;  0.0000000E+00; -3.7796736E-01;  4.0000000E+04;  0.0000000E+00;  3.8836566E+04;  5.4585724E+00;  0.0000000E+00; -3.0410844E-01;  7.0649155E+03;
  1.3682392E+00;  9.9999998E-03; -2.3356082E-01;8431; -3.4377417E-03;  0.0000000E+00;  1.1824342E-01;  9.9107678E+02;  4.0081722E-01; -7.3917144E+03;3;  2.6398075E+01;  0.0000000E+00;  8.1751509E+00;0;  3.6751852E+00;  2.5095076E+03;  0.0000000E+00; -9.9279845E-01;  4.0000000E+04;  0.0000000E+00;  3.8931320E+04;  3.8709490E+00;  0.0000000E+00; -1.9576378E-01;  6.1458950E+03;
  1.3708642E+00;  9.9999998E-03; -1.6254953E-01;8438;  1.7725319E-01;  0.0000000E+00;  9.3210749E-02;  9.9159515E+02;  4.0103370E-01; -6.9622661E+03;3; -9.9786636E+01;  0.0000000E+00;  1.1622982E+01;0;  5.4493227E+00;  2.5142742E+03;  0.0000000E+00; -2.2383246E-01;  4.0000000E+04;  0.0000000E+00;  3.8821012E+04;  5.7753968E+00;  0.0000000E+00; -3.2607421E-01;  8.7527578E+03;
  1.3689923E+00;  9.9999998E-03; -2.4374340E-01;8430;  2.2755818E-04;  0.0000000E+00;  1.2036803E-01;  9.9071985E+02;  4.0054050E-01; -7.6873574E+03;3;  2.9685228E+01;  0.0000000E+00;  8.7671719E+00;0;  3.4946005E+00;  2.5115823E+03;  0.0000000E+00; -1.7997112E+00;  4.0000000E+04;  0.0000000E+00;  3.8929492E+04;  3.7210155E+00;  0.0000000E+00; -2.2641483E-01;  7.4839609E+03;
  1.3717486E+00;  9.9999998E-03; -1.5232340E-01;8439;  2.0928575E-01;  0.0000000E+00;  8.7213576E-02;  9.9169751E+02;  4.0076962E-01; -6.8774775E+03;3; -1.0681209E+02;  0.0000000E+00;  1.3251365E+01;0;  5.7101727E+00;  2.5180923E+03;  0.0000000E+00; -3.4466296E-02;  4.0000000E+04;  0.0000000E+00;  3.8808457E+04;  6.0520945E+00;  0.0000000E+00; -3.4192178E-01;  1.0113761E+04;
  1.3718073E+00;  9.9999998E-03; -1.3189583E-01;8441;  2.4236254E-01;  0.0000000E+00;  7.9441346E-02;  9.9171722E+02;  4.0064245E-01; -6.8611328E+03;3; -1.2128683E+02;  0.0000000E+00;  1.2443252E+01;0;  6.0933485E+00;  2.5197336E+03;  0.0000000E+00;  2.9881284E-01;  4.0000000E+04;  0.0000000E+00;  3.8796918E+04;  6.4551444E+00;  0.0000000E+00; -3.6179587E-01;  1.1376402E+04;
  1.3719147E+00;  9.9999998E-03; -1.4208086E-01;8440;  2.2839980E-01;  0.0000000E+00;  8.3233587E-02;  9.9173096E+02;  4.0067101E-01; -6.8497759E+03;3; -1.1377921E+02;  0.0000000E+00;  1.2801499E+01;0;  5.9159746E+00;  2.5194524E+03;  0.0000000E+00;  1.4831273E-01;  4.0000000E+04;  0.0000000E+00;  3.8800531E+04;  6.2693081E+00;  0.0000000E+00; -3.5333353E-01;  1.0948909E+04;
  1.3719252E+00;  9.9999998E-03; -1.2177265E-01;8442;  2.6137382E-01;  0.0000000E+00;  7.4700594E-02;  9.9171771E+02;  4.0056708E-01; -6.8607368E+03;3; -1.2734193E+02;  0.0000000E+00;  1.2054340E+01;0;  6.2665887E+00;  2.5206433E+03;  0.0000000E+00;  4.0986145E-01;  4.0000000E+04;  0.0000000E+00;  3.8794430E+04;  6.6339250E+00;  0.0000000E+00; -3.6733612E-01;  1.1689245E+04;
  1.3722627E+00;  9.9999998E-03; -1.1166367E-01;8443;  2.8582019E-01;  0.0000000E+00;  6.9085069E-02;  9.9172266E+02;  4.0047458E-01; -6.8566338E+03;3; -1.3140009E+02;  0.0000000E+00;  1.1442291E+01;0;  6.4324417E+00;  2.5220776E+03;  0.0000000E+00;  4.7943443E-01;  4.0000000E+04;  0.0000000E+00;  3.8791891E+04;  6.8027196E+00;  0.0000000E+00; -3.7027809E-01;  1.2089343E+04;
  1.3702861E+00;  9.9999998E-03; -2.5388113E-01;8429;  3.5766587E-03;  0.0000000E+00;  1.2301587E-01;  9.9030328E+02;  4.0025872E-01; -8.0324136E+03;3;  3.3901897E+01;  0.0000000E+00;  9.6911240E+00;0;  3.3392360E+00;  2.5131416E+03;  0.0000000E+00; -3.1390867E+00;  4.0000000E+04;  0.0000000E+00;  3.8931672E+04;  3.6354680E+00;  0.0000000E+00; -2.9623193E-01;  1.2066733E+04;
  1.3733566E+00;  9.9999998E-03; -2.6396543E-01;8428;  4.1644541E-03;  0.0000000E+00;  1.2355226E-01;  9.9005945E+02;  3.9966947E-01; -8.2343486E+03;3;  3.6112427E+01;  0.0000000E+00;  9.8107643E+00;0;  3.3102612E+00;  2.5168264E+03;  0.0000000E+00; -5.1350837E+00;  4.0000000E+04;  0.0000000E+00;  3.8965246E+04;  3.7172306E+00;  0.0000000E+00; -4.0696934E-01;  2.2053443E+04;
  1.4061761E+00;  9.9999998E-03; -2.0327979E-01;8495;  2.8952742E-01;  0.0000000E+00;  7.1978442E-02;  9.9391687E+02;  3.7692630E-01; -5.0385371E+03;3; -1.4367897E+02;  0.0000000E+00;  5.2331646E+01;0;  6.7256231E+00;  2.8555549E+03;  0.0000000E+00;  2.4206206E-01;  4.0000000E+04;  0.0000000E+00;  3.8866219E+04;  7.0169907E+00;  0.0000000E+00; -2.9136771E-01;  5.4240400E+03;
  1.4061613E+00;  9.9999998E-03; -2.1340275E-01;8494;  2.4693951E-01;  0.0000000E+00;  7.4184798E-02;  9.9323004E+02;  3.7682950E-01; -5.6074199E+03;3; -1.4521623E+02;  0.0000000E+00;  5.2332867E+01;0;  6.6237507E+00;  2.8520818E+03;  0.0000000E+00;  2.4774852E-01;  4.0000000E+04;  0.0000000E+00;  3.8881590E+04;  6.9281049E+00;  0.0000000E+00; -3.0435428E-01;  4.3152178E+03;
  1.4067911E+00;  9.9999998E-03; -1.9316599E-01;8496;  3.3666691E-01;  0.0000000E+00;  6.6865943E-02;  9.9473322E+02;  3.7678468E-01; -4.3623647E+03;3; -1.4171339E+02;  0.0000000E+00;  5.1779976E+01;0;  6.8330007E+00;  2.8630886E+03;  0.0000000E+00;  2.3209466E-01;  4.0000000E+04;  0.0000000E+00;  3.8849434E+04;  7.1154170E+00;  0.0000000E+00; -2.8241655E-01;  7.2354536E+03;
  1.4066143E+00;  9.9999998E-03; -2.2355312E-01;8493;  2.0625982E-01;  0.0000000E+00;  7.4408695E-02;  9.9262628E+02;  3.7652022E-01; -6.1074722E+03;3; -1.4667412E+02;  0.0000000E+00;  5.2317627E+01;0;  6.5305128E+00;  2.8520684E+03;  0.0000000E+00;  1.3273281E-01;  4.0000000E+04;  0.0000000E+00;  3.8892645E+04;  6.8552570E+00;  0.0000000E+00; -3.2474411E-01;  4.5293843E+03;
  1.4080192E+00;  9.9999998E-03; -1.8306339E-01;8497;  3.8980398E-01;  0.0000000E+00;  5.8201779E-02;  9.9567126E+02;  3.7639508E-01; -3.5853750E+03;3; -1.3863615E+02;  0.0000000E+00;  5.0964294E+01;0;  6.9344640E+00;  2.8747749E+03;  0.0000000E+00;  2.8016385E-01;  4.0000000E+04;  0.0000000E+00;  3.8830520E+04;  7.2074780E+00;  0.0000000E+00; -2.7301419E-01;  9.4012734E+03;
  1.4074891E+00;  9.9999998E-03; -2.3373353E-01;8492;  1.6774420E-01;  0.0000000E+00;  7.3125966E-02;  9.9201501E+02;  3.7601277E-01; -6.6137822E+03;3; -1.4754387E+02;  0.0000000E+00;  5.1719635E+01;0;  6.4518924E+00;  2.8557019E+03;  0.0000000E+00; -2.5998625E-01;  4.0000000E+04;  0.0000000E+00;  3.8892215E+04;  6.8061733E+00;  0.0000000E+00; -3.5428101E-01;  6.1486626E+03;
  1.4086730E+00;  9.9999998E-03; -2.4389936E-01;8491;  1.3580056E-01;  0.0000000E+00;  7.1659647E-02;  9.9138269E+02;  3.7541077E-01; -7.1374580E+03;3; -1.4781343E+02;  0.0000000E+00;  5.1869465E+01;0;  6.3879299E+00;  2.8613989E+03;  0.0000000E+00; -1.1255546E+00;  4.0000000E+04;  0.0000000E+00;  3.8882070E+04;  6.7831817E+00;  0.0000000E+00; -3.9525181E-01;  9.5031055E+03;
  1.4098115E+00;  9.9999998E-03; -1.7297752E-01;8498;  4.4883576E-01;  0.0000000E+00;  4.6094354E-02;  9.9671808E+02;  3.7575349E-01; -2.7183381E+03;3; -1.3356798E+02;  0.0000000E+00;  4.9455677E+01;0;  7.0159349E+00;  2.8906028E+03;  0.0000000E+00;  4.0262732E-01;  4.0000000E+04;  0.0000000E+00;  3.8811324E+04;  7.2743812E+00;  0.0000000E+00; -2.5844637E-01;  1.1714207E+04;
  1.4101890E+00;  9.9999998E-03; -2.5403255E-01;8490;  1.2044689E-01;  0.0000000E+00;  7.2508194E-02;  9.9077618E+02;  3.7481987E-01; -7.6397920E+03;3; -1.4718971E+02;  0.0000000E+00;  5.3116516E+01;0;  6.3315659E+00;  2.8674082E+03;  0.0000000E+00; -2.6327004E+00;  4.0000000E+04;  0.0000000E+00;  3.8870684E+04;  6.7947736E+00;  0.0000000E+00; -4.6320778E-01;  1.4920609E+04;
  1.4114022E+00;  9.9999998E-03; -1.6282243E-01;8499;  5.0261754E-01;  0.0000000E+00;  3.5836216E-02;  9.9767493E+02;  3.7511387E-01; -1.9257615E+03;3; -1.2849991E+02;  0.0000000E+00;  4.7769928E+01;0;  7.0571737E+00;  2.9059851E+03;  0.0000000E+00;  5.6405401E-01;  4.0000000E+04;  0.0000000E+00;  3.8793258E+04;  7.2948728E+00;  0.0000000E+00; -2.3769911E-01;  1.3922240E+04;
  1.4120488E+00;  9.9999998E-03; -1.5256649E-01;8500;  5.4190332E-01;  0.0000000E+00;  3.1141302E-02;  9.9834064E+02;  3.7477526E-01; -1.3743625E+03;3; -1.2580731E+02;  0.0000000E+00;  4.6516224E+01;0;  7.0635571E+00;  2.9151475E+03;  0.0000000E+00;  7.1928686E-01;  4.0000000E+04;  0.0000000E+00;  3.8779320E+04;  7.2789040E+00;  0.0000000E+00; -2.1534666E-01;  1.5637860E+04;
  1.4120216E+00;  9.9999998E-03; -1.4229444E-01;8501;  5.7181180E-01;  0.0000000E+00;  2.9181845E-02;  9.9875452E+02;  3.7466633E-01; -1.0315990E+03;3; -1.2522636E+02;  0.0000000E+00;  4.5309639E+01;0;  7.0564547E+00;  2.9191492E+03;  0.0000000E+00;  8.5127789E-01;  4.0000000E+04;  0.0000000E+00;  3.8771168E+04;  7.2507176E+00;  0.0000000E+00; -1.9426301E-01;  1.6601303E+04;
  1.4113468E+00;  9.9999998E-03; -1.2190373E-01;8503;  6.2301165E-01;  0.0000000E+00;  2.6485970E-02;  9.9918304E+02;  3.7475127E-01; -6.7664307E+02;3; -1.2624992E+02;  0.0000000E+00;  4.2193092E+01;0;  7.0346456E+00;  2.9199844E+03;  0.0000000E+00;  9.8256856E-01;  4.0000000E+04;  0.0000000E+00;  3.8768371E+04;  7.1912136E+00;  0.0000000E+00; -1.5656799E-01;  1.6918027E+04;
  1.4116911E+00;  9.9999998E-03; -1.3206388E-01;8502;  5.9771186E-01;  0.0000000E+00;  2.7914291E-02;  9.9901996E+02;  3.7468779E-01; -8.1171387E+02;3; -1.2578405E+02;  0.0000000E+00;  4.3884644E+01;0;  7.0462074E+00;  2.9201624E+03;  0.0000000E+00;  9.4354659E-01;  4.0000000E+04;  0.0000000E+00;  3.8768367E+04;  7.2211852E+00;  0.0000000E+00; -1.7497790E-01;  1.6926994E+04;
  1.4112860E+00;  9.9999998E-03; -1.1177168E-01;8504;  6.5104473E-01;  0.0000000E+00;  2.4226319E-02;  9.9935376E+02;  3.7476006E-01; -5.3525214E+02;3; -1.2517383E+02;  0.0000000E+00;  4.0199944E+01;0;  7.0176401E+00;  2.9207427E+03;  0.0000000E+00;  9.6547627E-01;  4.0000000E+04;  0.0000000E+00;  3.8769316E+04;  7.1542606E+00;  0.0000000E+00; -1.3662072E-01;  1.6853420E+04;
  1.4128861E+00;  9.9999998E-03; -2.6412109E-01;8489;  1.3643259E-01;  0.0000000E+00;  7.9486452E-02;  9.9049707E+02;  3.7405026E-01; -7.8709019E+03;3; -1.4959319E+02;  0.0000000E+00;  5.3384998E+01;0;  6.2783537E+00;  2.8763313E+03;  0.0000000E+00; -4.8447790E+00;  4.0000000E+04;  0.0000000E+00;  3.8880117E+04;  6.9022064E+00;  0.0000000E+00; -6.2385249E-01;  2.1429996E+04;
  1.4430625E+00;  9.9999998E-03; -2.1344683E-01;8555;  6.8779987E-01;  0.0000000E+00; -3.9298911E-02;  9.9930884E+02;  3.4953189E-01; -5.7238446E+02;3; -1.4782828E+02;  0.0000000E+00;  5.3454868E+01;0;  7.2776270E+00;  3.3555457E+03;  0.0000000E+00;  1.6224592E+00;  4.0000000E+04;  0.0000000E+00;  3.8861855E+04;  7.5177879E+00;  0.0000000E+00; -2.4016085E-01;  8.1830742E+03;
  1.4432521E+00;  9.9999998E-03; -2.0334324E-01;8556;  7.2317022E-01;  0.0000000E+00; -4.1868545E-02;  1.0003335E+03;  3.4941855E-01;  2.7622107E+02;3; -1.3676479E+02;  0.0000000E+00;  5.2530800E+01;0;  7.1481709E+00;  3.3653982E+03;  0.0000000E+00;  1.7801254E+00;  4.0000000E+04;  0.0000000E+00;  3.8851887E+04;  7.3588281E+00;  0.0000000E+00; -2.1065699E-01;  8.8834805E+03;
  1.4435537E+00;  9.9999998E-03; -2.2356428E-01;8554;  6.5642393E-01;  0.0000000E+00; -3.8800273E-02;  9.9849878E+02;  3.4923822E-01; -1.2431899E+03;3; -1.5756000E+02;  0.0000000E+00;  5.4092281E+01;0;  7.3817019E+00;  3.3543306E+03;  0.0000000E+00;  1.2301292E+00;  4.0000000E+04;  0.0000000E+00;  3.8869105E+04;  7.6424980E+00;  0.0000000E+00; -2.6079607E-01;  8.3970010E+03;
  1.4440658E+00;  9.9999998E-03; -1.9324374E-01;8557;  7.6314819E-01;  0.0000000E+00; -4.6878383E-02;  1.0015364E+03;  3.4897950E-01;  1.2723083E+03;3; -1.2441907E+02;  0.0000000E+00;  5.0496967E+01;0;  6.9848137E+00;  3.3821851E+03;  0.0000000E+00;  1.8134960E+00;  4.0000000E+04;  0.0000000E+00;  3.8839277E+04;  7.1574702E+00;  0.0000000E+00; -1.7265655E-01;  1.0229043E+04;
  1.4444711E+00;  9.9999998E-03; -2.3372340E-01;8553;  6.2596488E-01;  0.0000000E+00; -3.9093386E-02;  9.9779053E+02;  3.4866610E-01; -1.8297284E+03;3; -1.6578058E+02;  0.0000000E+00;  5.4027515E+01;0;  7.4736924E+00;  3.3594778E+03;  0.0000000E+00;  4.2978957E-01;  4.0000000E+04;  0.0000000E+00;  3.8865285E+04;  7.7459540E+00;  0.0000000E+00; -2.7226147E-01;  1.0339520E+04;
  1.4452596E+00;  9.9999998E-03; -1.8314338E-01;8558;  8.0476230E-01;  0.0000000E+00; -5.3471643E-02;  1.0027829E+03;  3.4834829E-01;  2.3046096E+03;3; -1.1118736E+02;  0.0000000E+00;  4.8106701E+01;0;  6.7887554E+00;  3.4028186E+03;  0.0000000E+00;  1.7805105E+00;  4.0000000E+04;  0.0000000E+00;  3.8824461E+04;  6.9157877E+00;  0.0000000E+00; -1.2703216E-01;  1.2040545E+04;
  1.4465330E+00;  9.9999998E-03; -1.7302077E-01;8559;  8.4342617E-01;  0.0000000E+00; -5.9980810E-02;  1.0039291E+03;  3.4763905E-01;  3.2537717E+03;3; -9.8268364E+01;  0.0000000E+00;  4.5725994E+01;0;  6.5713911E+00;  3.4242683E+03;  0.0000000E+00;  1.6981088E+00;  4.0000000E+04;  0.0000000E+00;  3.8808664E+04;  6.6469846E+00;  0.0000000E+00; -7.5593293E-02;  1.4070431E+04;
  1.4457333E+00;  9.9999998E-03; -2.4388652E-01;8552;  6.0007715E-01;  0.0000000E+00; -3.9170038E-02;  9.9713116E+02;  3.4790155E-01; -2.3757297E+03;3; -1.7181578E+02;  0.0000000E+00;  5.3818367E+01;0;  7.5592146E+00;  3.3698252E+03;  0.0000000E+00; -9.8355085E-01;  4.0000000E+04;  0.0000000E+00;  3.8848762E+04;  7.8333282E+00;  0.0000000E+00; -2.7411366E-01;  1.4471891E+04;
  1.4476111E+00;  9.9999998E-03; -1.6285439E-01;8560;  8.7598336E-01;  0.0000000E+00; -6.5013498E-02;  1.0048344E+03;  3.4695682E-01;  4.0034131E+03;3; -8.6775154E+01;  0.0000000E+00;  4.3623558E+01;0;  6.3502140E+00;  3.4436418E+03;  0.0000000E+00;  1.5694010E+00;  4.0000000E+04;  0.0000000E+00;  3.8793867E+04;  6.3717189E+00;  0.0000000E+00; -2.1505011E-02;  1.5999295E+04;
  1.4472624E+00;  9.9999998E-03; -2.5402439E-01;8551;  5.8681196E-01;  0.0000000E+00; -3.7079863E-02;  9.9660034E+02;  3.4709492E-01; -2.8152983E+03;3; -1.7440610E+02;  0.0000000E+00;  5.3929134E+01;0;  7.6317973E+00;  3.3826650E+03;  0.0000000E+00; -3.1455750E+00;  4.0000000E+04;  0.0000000E+00;  3.8827203E+04;  7.9078999E+00;  0.0000000E+00; -2.7610263E-01;  2.0638803E+04;
  1.4484311E+00;  9.9999998E-03; -1.5264107E-01;8561;  9.0312827E-01;  0.0000000E+00; -6.8518542E-02;  1.0054600E+03;  3.4635055E-01;  4.5213623E+03;3; -7.6722389E+01;  0.0000000E+00;  4.2161091E+01;0;  6.1357865E+00;  3.4595061E+03;  0.0000000E+00;  1.4042652E+00;  4.0000000E+04;  0.0000000E+00;  3.8782688E+04;  6.1036053E+00;  0.0000000E+00;  3.2181371E-02;  1.7471990E+04;
  1.4478424E+00;  9.9999998E-03; -1.1178184E-01;8565;  9.6616346E-01;  0.0000000E+00; -7.1885750E-02;  1.0054743E+03;  3.4626350E-01;  4.5333252E+03;3; -5.0009670E+01;  0.0000000E+00;  4.0538738E+01;0;  5.5409975E+00;  3.4596948E+03;  0.0000000E+00;  8.0091548E-01;  4.0000000E+04;  0.0000000E+00;  3.8780574E+04;  5.3468127E+00;  0.0000000E+00;  1.9418482E-01;  1.7659777E+04;
  1.4482707E+00;  9.9999998E-03; -1.2194962E-01;8564;  9.5412368E-01;  0.0000000E+00; -7.1413636E-02;  1.0056794E+03;  3.4604564E-01;  4.7032051E+03;3; -5.5764698E+01;  0.0000000E+00;  4.0806911E+01;0;  5.6576834E+00;  3.4656597E+03;  0.0000000E+00;  9.1549897E-01;  4.0000000E+04;  0.0000000E+00;  3.8776957E+04;  5.4974484E+00;  0.0000000E+00;  1.6023497E-01;  1.8129430E+04;
  1.4488494E+00;  9.9999998E-03; -1.4239863E-01;8562;  9.2490518E-01;  0.0000000E+00; -7.0485838E-02;  1.0057869E+03;  3.4595117E-01;  4.7921304E+03;3; -6.8197365E+01;  0.0000000E+00;  4.1517319E+01;0;  5.9426155E+00;  3.4691343E+03;  0.0000000E+00;  1.2227299E+00;  4.0000000E+04;  0.0000000E+00;  3.8776547E+04;  5.8610139E+00;  0.0000000E+00;  8.1601821E-02;  1.8262734E+04;
  1.4487062E+00;  9.9999998E-03; -1.3216293E-01;8563;  9.4101888E-01;  0.0000000E+00; -7.1129568E-02;  1.0058214E+03;  3.4589151E-01;  4.8207632E+03;3; -6.1511024E+01;  0.0000000E+00;  4.1083103E+01;0;  5.7865906E+00;  3.4700815E+03;  0.0000000E+00;  1.0539619E+00;  4.0000000E+04;  0.0000000E+00;  3.8775012E+04;  5.6629405E+00;  0.0000000E+00;  1.2365030E-01;  1.8411861E+04;
  1.4493423E+00;  9.9999998E-03; -2.6413453E-01;8550;  6.0178882E-01;  0.0000000E+00; -2.8901218E-02;  9.9636328E+02;  3.4624460E-01; -3.0115569E+03;3; -1.7236844E+02;  0.0000000E+00;  5.4588604E+01;0;  7.6343150E+00;  3.3979143E+03;  0.0000000E+00; -5.9390836E+00;  4.0000000E+04;  0.0000000E+00;  3.8811125E+04;  7.9648762E+00;  0.0000000E+00; -3.3056101E-01;  2.7329082E+04;
  1.4763969E+00;  9.9999998E-03; -2.0313007E-01;8617;  1.0205511E+00;  0.0000000E+00; -1.1906854E-01;  1.0052648E+03;  3.2029343E-01;  4.3587246E+03;3; -5.9336296E+01;  0.0000000E+00;  3.4098671E+01;0;  5.4784341E+00;  4.0455928E+03;  0.0000000E+00;  2.5910373E+00;  4.0000000E+04;  0.0000000E+00;  3.8858793E+04;  5.4936285E+00;  0.0000000E+00; -1.5194592E-02;  1.0038739E+04;
  1.4765769E+00;  9.9999998E-03; -2.1321991E-01;8616;  1.0093147E+00;  0.0000000E+00; -1.1800667E-01;  1.0044724E+03;  3.2028294E-01;  3.7026982E+03;3; -7.0884026E+01;  0.0000000E+00;  3.4335598E+01;0;  5.6826859E+00;  4.0385305E+03;  0.0000000E+00;  2.0687540E+00;  4.0000000E+04;  0.0000000E+00;  3.8866145E+04;  5.7398047E+00;  0.0000000E+00; -5.7118900E-02;  9.6349814E+03;
  1.4767354E+00;  9.9999998E-03; -1.9301559E-01;8618;  1.0331554E+00;  0.0000000E+00; -1.2083246E-01;  1.0062007E+03;  3.1997636E-01;  5.1336523E+03;3; -4.6761894E+01;  0.0000000E+00;  3.3268509E+01;0;  5.2351551E+00;  4.0610571E+03;  0.0000000E+00;  2.8299026E+00;  4.0000000E+04;  0.0000000E+00;  3.8851422E+04;  5.1967421E+00;  0.0000000E+00;  3.8413029E-02;  1.0827390E+04;
  1.4772305E+00;  9.9999998E-03; -2.2331537E-01;8615;  9.9852687E-01;  0.0000000E+00; -1.1762072E-01;  1.0039019E+03;  3.1995395E-01;  3.2303271E+03;3; -8.2002365E+01;  0.0000000E+00;  3.4503956E+01;0;  5.8511868E+00;  4.0399937E+03;  0.0000000E+00;  1.1563673E+00;  4.0000000E+04;  0.0000000E+00;  3.8873996E+04;  5.9359212E+00;  0.0000000E+00; -8.4734306E-02;  9.9994639E+03;
  1.4776274E+00;  9.9999998E-03; -1.8288530E-01;8619;  1.0464283E+00;  0.0000000E+00; -1.2324011E-01;  1.0071535E+03;  3.1931478E-01;  5.9223564E+03;3; -3.2665245E+01;  0.0000000E+00;  3.1550783E+01;0;  4.9535298E+00;  4.0849026E+03;  0.0000000E+00;  2.8525829E+00;  4.0000000E+04;  0.0000000E+00;  3.8842645E+04;  4.8520589E+00;  0.0000000E+00;  1.0147079E-01;  1.1972996E+04;
  1.4782658E+00;  9.9999998E-03; -2.3345388E-01;8614;  9.8784238E-01;  0.0000000E+00; -1.1746960E-01;  1.0035141E+03;  3.1934845E-01;  2.9092463E+03;3; -9.2241577E+01;  0.0000000E+00;  3.3968338E+01;0;  5.9921036E+00;  4.0495457E+03;  0.0000000E+00; -3.0129135E-01;  4.0000000E+04;  0.0000000E+00;  3.8876148E+04;  6.0871053E+00;  0.0000000E+00; -9.5001876E-02;  1.2546169E+04;
  1.4795711E+00;  9.9999998E-03; -2.4361856E-01;8613;  9.7610283E-01;  0.0000000E+00; -1.1738364E-01;  1.0032341E+03;  3.1855848E-01;  2.6773806E+03;3; -1.0226170E+02;  0.0000000E+00;  3.3893723E+01;0;  6.1168356E+00;  4.0657537E+03;  0.0000000E+00; -2.4770234E+00;  4.0000000E+04;  0.0000000E+00;  3.8866289E+04;  6.1998796E+00;  0.0000000E+00; -8.3043925E-02;  1.8544650E+04;
  1.4788356E+00;  9.9999998E-03; -1.7274627E-01;8620;  1.0580633E+00;  0.0000000E+00; -1.2584080E-01;  1.0080109E+03;  3.1845930E-01;  6.6321685E+03;3; -1.7826849E+01;  0.0000000E+00;  3.0287506E+01;0;  4.6545858E+00;  4.1127197E+03;  0.0000000E+00;  2.6988306E+00;  4.0000000E+04;  0.0000000E+00;  3.8833148E+04;  4.4851489E+00;  0.0000000E+00;  1.6943690E-01;  1.3246165E+04;
  1.4809558E+00;  9.9999998E-03; -2.5377917E-01;8612;  9.6570879E-01;  0.0000000E+00; -1.1633062E-01;  1.0030648E+03;  3.1774238E-01;  2.5372998E+03;3; -1.1108360E+02;  0.0000000E+00;  3.4080437E+01;0;  6.2383943E+00;  4.0848921E+03;  0.0000000E+00; -5.4162607E+00;  4.0000000E+04;  0.0000000E+00;  3.8846879E+04;  6.2868085E+00;  0.0000000E+00; -4.8414096E-02;  2.8275680E+04;
  1.4800694E+00;  9.9999998E-03; -1.6259053E-01;8621;  1.0665431E+00;  0.0000000E+00; -1.2809195E-01;  1.0086430E+03;  3.1756991E-01;  7.1553345E+03;3; -3.8290362E+00;  0.0000000E+00;  2.6737896E+01;0;  4.3622293E+00;  4.1394497E+03;  0.0000000E+00;  2.3926365E+00;  4.0000000E+04;  0.0000000E+00;  3.8825297E+04;  4.1253510E+00;  0.0000000E+00;  2.3687834E-01;  1.4352435E+04;
  1.4824674E+00;  9.9999998E-03; -2.6392967E-01;8611;  9.6398813E-01;  0.0000000E+00; -1.1162063E-01;  1.0029967E+03;  3.1693581E-01;  2.4808074E+03;3; -1.1230670E+02;  0.0000000E+00;  3.5274399E+01;0;  6.3272600E+00;  4.1059502E+03;  0.0000000E+00; -8.8532438E+00;  4.0000000E+04;  0.0000000E+00;  3.8820441E+04;  6.3432369E+00;  0.0000000E+00; -1.5976712E-02;  4.0569863E+04;
  1.4811293E+00;  9.9999998E-03; -1.5239856E-01;8622;  1.0719398E+00;  0.0000000E+00; -1.2785940E-01;  1.0089963E+03;  3.1677443E-01;  7.4477651E+03;3;  7.9476995E+00;  0.0000000E+00;  1.2564319E+01;0;  4.0919480E+00;  4.1614990E+03;  0.0000000E+00;  1.9644916E+00;  4.0000000E+04;  0.0000000E+00;  3.8820230E+04;  3.7927904E+00;  0.0000000E+00;  2.9915762E-01;  1.5049713E+04;
  1.4816947E+00;  9.9999998E-03; -1.4216377E-01;8623;  1.0749424E+00;  0.0000000E+00; -1.2075193E-01;  1.0090263E+03;  3.1629661E-01;  7.4724883E+03;3;  1.7334782E+01;  0.0000000E+00; -2.4291544E+00;0;  3.8652759E+00;  4.1726948E+03;  0.0000000E+00;  1.4720199E+00;  4.0000000E+04;  0.0000000E+00;  3.8818891E+04;  3.5135968E+00;  0.0000000E+00;  3.5167903E-01;  1.5243200E+04;
  1.4811338E+00;  9.9999998E-03; -1.1158125E-01;8626;  1.0765550E+00;  0.0000000E+00; -9.3796097E-02;  1.0078174E+03;  3.1659323E-01;  6.4717300E+03;3;  3.5983624E+01;  0.0000000E+00; -1.6358610E+00;0;  3.4057064E+00;  4.1520181E+03;  0.0000000E+00;  3.5631263E-01;  4.0000000E+04;  0.0000000E+00;  3.8831742E+04;  2.9479725E+00;  0.0000000E+00;  4.5773375E-01;  1.3424267E+04;
  1.4815235E+00;  9.9999998E-03; -1.2172900E-01;8625;  1.0766388E+00;  0.0000000E+00; -1.0238051E-01;  1.0083382E+03;  3.1631133E-01;  6.9028726E+03;3;  3.1357422E+01;  0.0000000E+00; -2.3812070E+00;0;  3.5326710E+00;  4.1643042E+03;  0.0000000E+00;  6.2030029E-01;  4.0000000E+04;  0.0000000E+00;  3.8825312E+04;  3.1039507E+00;  0.0000000E+00;  4.2872012E-01;  1.4287910E+04;
  1.4817823E+00;  9.9999998E-03; -1.3192619E-01;8624;  1.0762825E+00;  0.0000000E+00; -1.1134558E-01;  1.0087797E+03;  3.1616396E-01;  7.2682949E+03;3;  2.5159138E+01;  0.0000000E+00; -2.9495044E+00;0;  3.6814508E+00;  4.1727456E+03;  0.0000000E+00;  1.0007772E+00;  4.0000000E+04;  0.0000000E+00;  3.8820957E+04;  3.2872059E+00;  0.0000000E+00;  3.9424500E-01;  1.4950611E+04;
  1.5062674E+00;  9.9999998E-03; -2.0285344E-01;8678;  1.1098977E+00;  0.0000000E+00; -1.5394737E-01;  1.0064901E+03;  2.9198977E-01;  5.3710957E+03;3;  2.0702065E+01;  0.0000000E+00;  6.4611201E+00;0;  3.3581648E+00;  4.8792949E+03;  0.0000000E+00;  2.3555391E+00;  4.0000000E+04;  0.0000000E+00;  3.8883109E+04;  3.1592495E+00;  0.0000000E+00;  1.9891535E-01;  8.8286279E+03;
  1.5065277E+00;  9.9999998E-03; -1.9273709E-01;8679;  1.1064099E+00;  0.0000000E+00; -1.5212922E-01;  1.0071301E+03;  2.9166389E-01;  5.9006519E+03;3;  2.6494854E+01;  0.0000000E+00; -2.6963027E+00;0;  3.1660447E+00;  4.8957930E+03;  0.0000000E+00;  2.7240341E+00;  4.0000000E+04;  0.0000000E+00;  3.8882371E+04;  2.9097240E+00;  0.0000000E+00;  2.5632080E-01;  8.9578223E+03;
  1.5066465E+00;  9.9999998E-03; -2.1293466E-01;8677;  1.1135302E+00;  0.0000000E+00; -1.5355791E-01;  1.0060198E+03;  2.9191476E-01;  4.9818691E+03;3;  1.4035408E+01;  0.0000000E+00;  9.2961102E+00;0;  3.5110731E+00;  4.8759751E+03;  0.0000000E+00;  1.6501172E+00;  4.0000000E+04;  0.0000000E+00;  3.8886562E+04;  3.3595939E+00;  0.0000000E+00;  1.5147913E-01;  8.8554316E+03;
  1.5073129E+00;  9.9999998E-03; -1.8259582E-01;8680;  1.1031274E+00;  0.0000000E+00; -1.4529829E-01;  1.0078054E+03;  2.9103401E-01;  6.4595479E+03;3;  3.1110933E+01;  0.0000000E+00; -1.0527599E+01;0;  2.9482551E+00;  4.9219116E+03;  0.0000000E+00;  2.8311872E+00;  4.0000000E+04;  0.0000000E+00;  3.8881051E+04;  2.6292336E+00;  0.0000000E+00;  3.1902134E-01;  9.2293662E+03;
  1.5076270E+00;  9.9999998E-03; -2.2301538E-01;8676;  1.1175292E+00;  0.0000000E+00; -1.5274934E-01;  1.0058187E+03;  2.9145300E-01;  4.8153604E+03;3;  8.5686836E+00;  0.0000000E+00;  1.1030255E+01;0;  3.6239271E+00;  4.8860322E+03;  0.0000000E+00;  4.8178712E-01;  4.0000000E+04;  0.0000000E+00;  3.8893668E+04;  3.5059817E+00;  0.0000000E+00;  1.1794546E-01;  1.0007820E+04;
  1.5084369E+00;  9.9999998E-03; -1.7244479E-01;8681;  1.1001407E+00;  0.0000000E+00; -1.3446867E-01;  1.0084069E+03;  2.9022208E-01;  6.9571255E+03;3;  3.4490395E+01;  0.0000000E+00; -1.3515995E+01;0;  2.7219248E+00;  4.9529536E+03;  0.0000000E+00;  2.7262573E+00;  4.0000000E+04;  0.0000000E+00;  3.8879344E+04;  2.3399231E+00;  0.0000000E+00;  3.8200161E-01;  9.5395186E+03;
  1.5090408E+00;  9.9999998E-03; -2.3313509E-01;8675;  1.1219997E+00;  0.0000000E+00; -1.5231428E-01;  1.0058694E+03;  2.9070681E-01;  4.8571729E+03;3;  2.5710621E+00;  0.0000000E+00;  1.1077029E+01;0;  3.7089014E+00;  4.9072402E+03;  0.0000000E+00; -1.3538389E+00;  4.0000000E+04;  0.0000000E+00;  3.8899852E+04;  3.6063480E+00;  0.0000000E+00;  1.0255341E-01;  1.5080490E+04;
  1.5096304E+00;  9.9999998E-03; -1.6227771E-01;8682;  1.0972675E+00;  0.0000000E+00; -1.2249691E-01;  1.0088498E+03;  2.8939405E-01;  7.3234692E+03;3;  3.8585991E+01;  0.0000000E+00; -1.2440490E+01;0;  2.5050433E+00;  4.9828013E+03;  0.0000000E+00;  2.4481328E+00;  4.0000000E+04;  0.0000000E+00;  3.8878301E+04;  2.0655704E+00;  0.0000000E+00;  4.3947285E-01;  9.7088389E+03;
  1.5105667E+00;  9.9999998E-03; -2.4329454E-01;8674;  1.1265512E+00;  0.0000000E+00; -1.5163286E-01;  1.0060732E+03;  2.8987390E-01;  5.0257344E+03;3; -2.3416433E+00;  0.0000000E+00;  1.2404493E+01;0;  3.7907674E+00;  4.9339263E+03;  0.0000000E+00; -4.0864348E+00;  4.0000000E+04;  0.0000000E+00;  3.8897258E+04;  3.6827202E+00;  0.0000000E+00;  1.0804735E-01;  2.6149891E+04;
  1.5105826E+00;  9.9999998E-03; -1.5208773E-01;8683;  1.0942992E+00;  0.0000000E+00; -1.1121867E-01;  1.0090628E+03;  2.8873727E-01;  7.4996333E+03;3;  4.1592110E+01;  0.0000000E+00; -1.0422543E+01;0;  2.3135593E+00;  5.0045371E+03;  0.0000000E+00;  2.0338933E+00;  4.0000000E+04;  0.0000000E+00;  3.8879352E+04;  1.8266181E+00;  0.0000000E+00;  4.8694116E-01;  9.6063857E+03;
  1.5118318E+00;  9.9999998E-03; -2.5347456E-01;8673;  1.1302162E+00;  0.0000000E+00; -1.5049925E-01;  1.0063220E+03;  2.8913957E-01;  5.2313984E+03;3; -9.1206760E+00;  0.0000000E+00;  1.1903819E+01;0;  3.9002991E+00;  4.9598989E+03;  0.0000000E+00; -7.7785282E+00;  4.0000000E+04;  0.0000000E+00;  3.8881711E+04;  3.7635269E+00;  0.0000000E+00;  1.3677205E-01;  4.3261172E+04;
  1.5111414E+00;  9.9999998E-03; -1.4188248E-01;8684;  1.0914760E+00;  0.0000000E+00; -1.0102410E-01;  1.0090125E+03;  2.8834248E-01;  7.4579312E+03;3;  4.4229111E+01;  0.0000000E+00; -8.2271929E+00;0;  2.1525798E+00;  5.0148613E+03;  0.0000000E+00;  1.5361147E+00;  4.0000000E+04;  0.0000000E+00;  3.8882629E+04;  1.6294628E+00;  0.0000000E+00;  5.2311695E-01;  9.1973877E+03;
  1.5110856E+00;  9.9999998E-03; -1.1144419E-01;8687;  1.0843661E+00;  0.0000000E+00; -7.5409763E-02;  1.0075782E+03;  2.8843659E-01;  6.2710132E+03;3;  5.0874786E+01;  0.0000000E+00; -2.4889781E+00;0;  1.8074651E+00;  4.9922476E+03;  0.0000000E+00;  2.5749189E-01;  4.0000000E+04;  0.0000000E+00;  3.8902539E+04;  1.2260846E+00;  0.0000000E+00;  5.8138049E-01;  6.5758833E+03;
  1.5125670E+00;  9.9999998E-03; -2.6365736E-01;8672;  1.1319590E+00;  0.0000000E+00; -1.4786473E-01;  1.0064966E+03;  2.8859484E-01;  5.3758447E+03;3; -1.6825508E+01;  0.0000000E+00;  1.1526938E+01;0;  4.0531254E+00;  4.9816025E+03;  0.0000000E+00; -1.1989498E+01;  4.0000000E+04;  0.0000000E+00;  3.8853902E+04;  3.8709488E+00;  0.0000000E+00;  1.8217650E-01;  6.3346012E+04;
  1.5113279E+00;  9.9999998E-03; -1.3170104E-01;8685;  1.0888579E+00;  0.0000000E+00; -9.1832064E-02;  1.0087070E+03;  2.8821135E-01;  7.2050742E+03;3;  4.6652145E+01;  0.0000000E+00; -6.0824618E+00;0;  2.0191479E+00;  5.0140410E+03;  0.0000000E+00;  1.0295384E+00;  4.0000000E+04;  0.0000000E+00;  3.8887969E+04;  1.4698118E+00;  0.0000000E+00;  5.4933619E-01;  8.5212822E+03;
  1.5112697E+00;  9.9999998E-03; -1.2155943E-01;8686;  1.0864857E+00;  0.0000000E+00; -8.3375558E-02;  1.0081911E+03;  2.8827047E-01;  6.7782363E+03;3;  4.8765469E+01;  0.0000000E+00; -4.1457644E+00;0;  1.9061050E+00;  5.0052432E+03;  0.0000000E+00;  5.8848494E-01;  4.0000000E+04;  0.0000000E+00;  3.8894531E+04;  1.3380507E+00;  0.0000000E+00;  5.6805432E-01;  7.6229414E+03;
  1.5337820E+00;  9.9999998E-03; -1.9250400E-01;8740;  1.1109306E+00;  0.0000000E+00; -1.3277003E-01;  1.0054345E+03;  2.6578316E-01;  4.4950117E+03;3;  3.6780495E+01;  0.0000000E+00; -2.1033092E+01;0;  1.6742097E+00;  5.8714658E+03;  0.0000000E+00;  2.0137501E+00;  4.0000000E+04;  0.0000000E+00;  3.8921672E+04;  1.2777623E+00;  0.0000000E+00;  3.9644739E-01;  5.6330303E+03;
  1.5340067E+00;  9.9999998E-03; -2.0261309E-01;8739;  1.1161373E+00;  0.0000000E+00; -1.4159840E-01;  1.0050674E+03;  2.6579970E-01;  4.1913975E+03;3;  3.5225079E+01;  0.0000000E+00; -1.7865479E+01;0;  1.7629166E+00;  5.8668770E+03;  0.0000000E+00;  1.7376224E+00;  4.0000000E+04;  0.0000000E+00;  3.8918145E+04;  1.4151016E+00;  0.0000000E+00;  3.4781489E-01;  5.9681904E+03;
  1.5341871E+00;  9.9999998E-03; -1.8236250E-01;8741;  1.1061413E+00;  0.0000000E+00; -1.2185720E-01;  1.0058937E+03;  2.6541933E-01;  4.8747734E+03;3;  3.8982719E+01;  0.0000000E+00; -2.0230522E+01;0;  1.5642241E+00;  5.8908853E+03;  0.0000000E+00;  2.0812275E+00;  4.0000000E+04;  0.0000000E+00;  3.8926340E+04;  1.1170576E+00;  0.0000000E+00;  4.4716659E-01;  5.1748955E+03;
  1.5349300E+00;  9.9999998E-03; -2.1268287E-01;8738;  1.1221297E+00;  0.0000000E+00; -1.4605272E-01;  1.0048944E+03;  2.6543131E-01;  4.0481367E+03;3;  3.4655697E+01;  0.0000000E+00; -1.1680962E+01;0;  1.8220531E+00;  5.8793115E+03;  0.0000000E+00;  1.1453780E+00;  4.0000000E+04;  0.0000000E+00;  3.8918047E+04;  1.5168518E+00;  0.0000000E+00;  3.0520126E-01;  6.4774253E+03;
  1.5350490E+00;  9.9999998E-03; -1.7221069E-01;8742;  1.1016431E+00;  0.0000000E+00; -1.1104466E-01;  1.0063419E+03;  2.6482758E-01;  5.2453965E+03;3;  4.1261616E+01;  0.0000000E+00; -1.7663048E+01;0;  1.4434023E+00;  5.9194819E+03;  0.0000000E+00;  2.0097778E+00;  4.0000000E+04;  0.0000000E+00;  3.8930430E+04;  9.4917142E-01;  0.0000000E+00;  4.9423081E-01;  4.6698022E+03;
  1.5360461E+00;  9.9999998E-03; -1.6204916E-01;8743;  1.0973969E+00;  0.0000000E+00; -1.0103072E-01;  1.0067129E+03;  2.6420560E-01;  5.5520928E+03;3;  4.3584076E+01;  0.0000000E+00; -1.5139647E+01;0;  1.3248756E+00;  5.9480112E+03;  0.0000000E+00;  1.8519763E+00;  4.0000000E+04;  0.0000000E+00;  3.8934562E+04;  7.9205489E-01;  0.0000000E+00;  5.3282076E-01;  4.1246548E+03;
  1.5364829E+00;  9.9999998E-03; -2.2274655E-01;8737;  1.1289625E+00;  0.0000000E+00; -1.4735650E-01;  1.0050209E+03;  2.6473153E-01;  4.1526851E+03;3;  3.3563507E+01;  0.0000000E+00; -1.0231955E+01;0;  1.8512027E+00;  5.9072563E+03;  0.0000000E+00;  2.8393304E-02;  4.0000000E+04;  0.0000000E+00;  3.8924691E+04;  1.5799932E+00;  0.0000000E+00;  2.7120945E-01;  9.7586309E+03;
  1.5368201E+00;  9.9999998E-03; -1.5186971E-01;8744;  1.0934726E+00;  0.0000000E+00; -9.1966078E-02;  1.0069340E+03;  2.6375756E-01;  5.7348735E+03;3;  4.5971230E+01;  0.0000000E+00; -1.2645063E+01;0;  1.2197633E+00;  5.9669673E+03;  0.0000000E+00;  1.6336677E+00;  4.0000000E+04;  0.0000000E+00;  3.8939359E+04;  6.5911657E-01;  0.0000000E+00;  5.6064671E-01;  3.5019402E+03;
  1.5373396E+00;  9.9999998E-03; -1.4170948E-01;8745;  1.0898550E+00;  0.0000000E+00; -8.3682969E-02;  1.0069412E+03;  2.6346651E-01;  5.7407124E+03;3;  4.8147038E+01;  0.0000000E+00; -1.0393812E+01;0;  1.1270682E+00;  5.9765767E+03;  0.0000000E+00;  1.3536347E+00;  4.0000000E+04;  0.0000000E+00;  3.8945438E+04;  5.4890132E-01;  0.0000000E+00;  5.7816684E-01;  2.7440825E+03;
  1.5376923E+00;  9.9999998E-03; -1.3157544E-01;8746;  1.0865395E+00;  0.0000000E+00; -7.5956374E-02;  1.0067057E+03;  2.6327032E-01;  5.5458442E+03;3;  5.0313915E+01;  0.0000000E+00; -8.3257294E+00;0;  1.0432433E+00;  5.9796338E+03;  0.0000000E+00;  1.0305529E+00;  4.0000000E+04;  0.0000000E+00;  3.8952598E+04;  4.5603567E-01;  0.0000000E+00;  5.8720762E-01;  1.8969484E+03;
  1.5379424E+00;  9.9999998E-03; -1.2146837E-01;8747;  1.0835280E+00;  0.0000000E+00; -6.8619512E-02;  1.0062646E+03;  2.6314291E-01;  5.1810234E+03;3;  5.2051823E+01;  0.0000000E+00; -6.5600548E+00;0;  9.6657658E-01;  5.9778198E+03;  0.0000000E+00;  7.0954412E-01;  4.0000000E+04;  0.0000000E+00;  3.8961043E+04;  3.7676445E-01;  0.0000000E+00;  5.8981216E-01;  1.2117671E+03;
  1.5380810E+00;  9.9999998E-03; -1.1137971E-01;8748;  1.0808693E+00;  0.0000000E+00; -6.1616082E-02;  1.0056756E+03;  2.6309526E-01;  4.6938711E+03;3;  5.3368546E+01;  0.0000000E+00; -4.9419589E+00;0;  8.9745307E-01;  5.9714717E+03;  0.0000000E+00;  4.3110821E-01;  4.0000000E+04;  0.0000000E+00;  3.8969746E+04;  3.0964527E-01;  0.0000000E+00;  5.8780783E-01;  1.2999426E+03;
  1.5383058E+00;  9.9999998E-03; -2.3285507E-01;8736;  1.1363431E+00;  0.0000000E+00; -1.4779568E-01;  1.0053546E+03;  2.6390991E-01;  4.4283423E+03;3;  3.2940212E+01;  0.0000000E+00; -9.6409340E+00;0;  1.8695551E+00;  5.9426406E+03;  0.0000000E+00; -1.9873066E+00;  4.0000000E+04;  0.0000000E+00;  3.8932480E+04;  1.6204373E+00;  0.0000000E+00;  2.4911788E-01;  1.9821963E+04;
  1.5392692E+00;  9.9999998E-03; -2.6342300E-01;8733;  1.1598469E+00;  0.0000000E+00; -1.4696176E-01;  1.0065665E+03;  2.6321676E-01;  5.4305630E+03;3;  2.9020596E+01;  0.0000000E+00; -6.5276699E+00;0;  2.2044082E+00;  5.9855239E+03;  0.0000000E+00; -1.3928860E+01;  4.0000000E+04;  0.0000000E+00;  3.8889008E+04;  1.9463549E+00;  0.0000000E+00;  2.5805342E-01;  8.2277625E+04;
  1.5397151E+00;  9.9999998E-03; -2.4302472E-01;8735;  1.1441453E+00;  0.0000000E+00; -1.4787701E-01;  1.0057469E+03;  2.6330379E-01;  4.7526226E+03;3;  3.2364693E+01;  0.0000000E+00; -8.6634932E+00;0;  1.9142778E+00;  5.9710645E+03;  0.0000000E+00; -5.2552271E+00;  4.0000000E+04;  0.0000000E+00;  3.8929484E+04;  1.6744781E+00;  0.0000000E+00;  2.3979975E-01;  3.7990402E+04;
  1.5401460E+00;  9.9999998E-03; -2.5322288E-01;8734;  1.1521716E+00;  0.0000000E+00; -1.4760296E-01;  1.0061103E+03;  2.6306924E-01;  5.0531519E+03;3;  3.0623224E+01;  0.0000000E+00; -8.3834486E+00;0;  2.0178738E+00;  5.9854048E+03;  0.0000000E+00; -9.6738939E+00;  4.0000000E+04;  0.0000000E+00;  3.8912992E+04;  1.7749808E+00;  0.0000000E+00;  2.4289304E-01;  6.2139742E+04;
  1.5584965E+00;  9.9999998E-03; -1.9235462E-01;8801;  1.1083840E+00;  0.0000000E+00; -1.0779123E-01;  1.0029213E+03;  2.4317637E-01;  2.4145391E+03;3;  3.9740559E+01;  0.0000000E+00; -2.3885590E+01;0;  8.3059227E-01;  6.9712085E+03;  0.0000000E+00;  1.4848248E+00;  4.0000000E+04;  0.0000000E+00;  3.8958617E+04;  3.7443110E-01;  0.0000000E+00;  4.5616117E-01;  2.8742629E+03;
  1.5585548E+00;  9.9999998E-03; -1.8222688E-01;8802;  1.1030251E+00;  0.0000000E+00; -9.9159285E-02;  1.0031287E+03;  2.4306098E-01;  2.5858748E+03;3;  4.1583721E+01;  0.0000000E+00; -2.1786076E+01;0;  7.9022801E-01;  6.9793545E+03;  0.0000000E+00;  1.4893905E+00;  4.0000000E+04;  0.0000000E+00;  3.8966102E+04;  2.9885125E-01;  0.0000000E+00;  4.9137679E-01;  2.3802856E+03;
  1.5590730E+00;  9.9999998E-03; -1.7208077E-01;8803;  1.0979728E+00;  0.0000000E+00; -9.0800323E-02;  1.0034095E+03;  2.4274038E-01;  2.8179551E+03;3;  4.3748558E+01;  0.0000000E+00; -1.9471962E+01;0;  7.3981881E-01;  6.9989878E+03;  0.0000000E+00;  1.3990209E+00;  4.0000000E+04;  0.0000000E+00;  3.8973223E+04;  2.1915977E-01;  0.0000000E+00;  5.2065903E-01;  1.4759197E+03;
  1.5591353E+00;  9.9999998E-03; -2.0244591E-01;8800;  1.1139522E+00;  0.0000000E+00; -1.1623977E-01;  1.0028448E+03;  2.4295135E-01;  2.3512300E+03;3;  3.7827915E+01;  0.0000000E+00; -2.4900520E+01;0;  8.5493284E-01;  6.9826333E+03;  0.0000000E+00;  1.3099570E+00;  4.0000000E+04;  0.0000000E+00;  3.8952586E+04;  4.3519086E-01;  0.0000000E+00;  4.1974199E-01;  2.7234827E+03;
  1.5597682E+00;  9.9999998E-03; -1.6192564E-01;8804;  1.0932225E+00;  0.0000000E+00; -8.3002366E-02;  1.0036854E+03;  2.4238262E-01;  3.0458694E+03;3;  4.5947632E+01;  0.0000000E+00; -1.7366947E+01;0;  6.8575484E-01;  7.0202046E+03;  0.0000000E+00;  1.2804022E+00;  4.0000000E+04;  0.0000000E+00;  3.8979922E+04;  1.4441615E-01;  0.0000000E+00;  5.4133868E-01;  1.0239144E+03;
  1.5604581E+00;  9.9999998E-03; -1.5177010E-01;8805;  1.0888063E+00;  0.0000000E+00; -7.5728282E-02;  1.0038904E+03;  2.4206434E-01;  3.2152500E+03;3;  4.7855156E+01;  0.0000000E+00; -1.5378288E+01;0;  6.3150066E-01;  7.0376982E+03;  0.0000000E+00;  1.1701152E+00;  4.0000000E+04;  0.0000000E+00;  3.8986543E+04;  7.8787707E-02;  0.0000000E+00;  5.5271298E-01;  1.6648635E+03;
  1.5605412E+00;  9.9999998E-03; -2.1250154E-01;8799;  1.1198988E+00;  0.0000000E+00; -1.2352160E-01;  1.0029849E+03;  2.4236856E-01;  2.4668730E+03;3;  3.7252453E+01;  0.0000000E+00; -2.3180288E+01;0;  8.6176777E-01;  7.0149141E+03;  0.0000000E+00;  8.2996923E-01;  4.0000000E+04;  0.0000000E+00;  3.8952035E+04;  4.7415787E-01;  0.0000000E+00;  3.8760990E-01;  3.7577742E+03;
  1.5611165E+00;  9.9999998E-03; -1.4162694E-01;8806;  1.0848045E+00;  0.0000000E+00; -6.8841211E-02;  1.0039473E+03;  2.4176294E-01;  3.2621660E+03;3;  4.9130112E+01;  0.0000000E+00; -1.3433590E+01;0;  5.7758188E-01;  7.0523677E+03;  0.0000000E+00;  1.0585772E+00;  4.0000000E+04;  0.0000000E+00;  3.8994059E+04;  2.2185968E-02;  0.0000000E+00;  5.5539590E-01;  2.6159338E+03;
  1.5617026E+00;  9.9999998E-03; -1.3150442E-01;8807;  1.0812016E+00;  0.0000000E+00; -6.2278215E-02;  1.0038159E+03;  2.4147093E-01;  3.1535295E+03;3;  5.0934814E+01;  0.0000000E+00; -1.1548549E+01;0;  5.2529061E-01;  7.0638940E+03;  0.0000000E+00;  9.2044210E-01;  4.0000000E+04;  0.0000000E+00;  3.9002227E+04; -2.5724810E-02;  0.0000000E+00;  5.5101544E-01;  3.6528582E+03;
  1.5621889E+00;  9.9999998E-03; -1.2140954E-01;8808;  1.0779326E+00;  0.0000000E+00; -5.6021057E-02;  1.0034779E+03;  2.4123120E-01;  2.8741814E+03;3;  5.2847935E+01;  0.0000000E+00; -9.5343370E+00;0;  4.7584558E-01;  7.0706030E+03;  0.0000000E+00;  7.5634128E-01;  4.0000000E+04;  0.0000000E+00;  3.9010723E+04; -6.5752521E-02;  0.0000000E+00;  5.4159808E-01;  4.7401660E+03;
  1.5625173E+00;  9.9999998E-03; -2.2256133E-01;8798;  1.1267576E+00;  0.0000000E+00; -1.2735857E-01;  1.0032807E+03;  2.4155222E-01;  2.7112039E+03;3;  3.7188007E+01;  0.0000000E+00; -1.7149305E+01;0;  8.5508746E-01;  7.0616299E+03;  0.0000000E+00; -3.0866995E-01;  4.0000000E+04;  0.0000000E+00;  3.8958328E+04;  4.9345776E-01;  0.0000000E+00;  3.6162969E-01;  1.0230022E+04;
  1.5629578E+00;  9.9999998E-03; -2.6325133E-01;8794;  1.1601547E+00;  0.0000000E+00; -1.3100415E-01;  1.0047069E+03;  2.4126549E-01;  3.8896619E+03;3;  3.3267712E+01;  0.0000000E+00; -1.3629063E+01;0;  1.0712512E+00;  7.0962231E+03;  0.0000000E+00; -1.4271920E+01;  4.0000000E+04;  0.0000000E+00;  3.8927496E+04;  7.8125560E-01;  0.0000000E+00;  2.8999549E-01;  8.1033211E+04;
  1.5625452E+00;  9.9999998E-03; -1.1132660E-01;8809;  1.0749786E+00;  0.0000000E+00; -5.0090786E-02;  1.0029854E+03;  2.4106349E-01;  2.4670835E+03;3;  5.4528687E+01;  0.0000000E+00; -7.9002666E+00;0;  4.3021905E-01;  7.0715176E+03;  0.0000000E+00;  5.8208078E-01;  4.0000000E+04;  0.0000000E+00;  3.9019160E+04; -9.8799288E-02;  0.0000000E+00;  5.2901834E-01;  5.8177993E+03;
  1.5644020E+00;  9.9999998E-03; -2.3268305E-01;8797;  1.1346611E+00;  0.0000000E+00; -1.2782341E-01;  1.0035276E+03;  2.4079084E-01;  2.9150164E+03;3;  3.6458851E+01;  0.0000000E+00; -1.5190803E+01;0;  8.4942240E-01;  7.1061602E+03;  0.0000000E+00; -2.7462311E+00;  4.0000000E+04;  0.0000000E+00;  3.8963031E+04;  5.1123846E-01;  0.0000000E+00;  3.3818394E-01;  2.4260752E+04;
  1.5649837E+00;  9.9999998E-03; -2.5305894E-01;8795;  1.1515424E+00;  0.0000000E+00; -1.2881689E-01;  1.0038097E+03;  2.4060044E-01;  3.1480125E+03;3;  3.4413860E+01;  0.0000000E+00; -1.4378996E+01;0;  9.3551672E-01;  7.1226309E+03;  0.0000000E+00; -1.1751987E+01;  4.0000000E+04;  0.0000000E+00;  3.8941762E+04;  6.3625890E-01;  0.0000000E+00;  2.9925781E-01;  7.1734859E+04;
  1.5653683E+00;  9.9999998E-03; -2.4286580E-01;8796;  1.1430479E+00;  0.0000000E+00; -1.2804039E-01;  1.0036047E+03;  2.4043703E-01;  2.9785393E+03;3;  3.5543953E+01;  0.0000000E+00; -1.4820037E+01;0;  8.7038207E-01;  7.1278633E+03;  0.0000000E+00; -6.8395095E+00;  4.0000000E+04;  0.0000000E+00;  3.8955672E+04;  5.5296779E-01;  0.0000000E+00;  3.1741425E-01;  4.6550301E+04;
  1.5809923E+00;  9.9999998E-03; -1.8215464E-01;8863;  1.0976124E+00;  0.0000000E+00; -7.9913080E-02;  1.0006045E+03;  2.2382194E-01;  4.9916455E+02;3;  4.3346897E+01;  0.0000000E+00; -2.4486467E+01;0;  4.0407985E-01;  8.1813872E+03;  0.0000000E+00;  1.2322720E+00;  4.0000000E+04;  0.0000000E+00;  3.8994832E+04; -7.8473605E-02;  0.0000000E+00;  4.8255345E-01;  3.7988662E+03;
  1.5811801E+00;  9.9999998E-03; -1.7201567E-01;8864;  1.0923773E+00;  0.0000000E+00; -7.3066734E-02;  1.0006296E+03;  2.2374409E-01;  5.1992957E+02;3;  4.4908680E+01;  0.0000000E+00; -2.2224926E+01;0;  3.8458699E-01;  8.1861494E+03;  0.0000000E+00;  1.0924847E+00;  4.0000000E+04;  0.0000000E+00;  3.9003406E+04; -1.1172695E-01;  0.0000000E+00;  4.9631396E-01;  4.1031968E+03;
  1.5813028E+00;  9.9999998E-03; -1.9227576E-01;8862;  1.1032016E+00;  0.0000000E+00; -8.6948037E-02;  1.0006863E+03;  2.2369640E-01;  5.6668231E+02;3;  4.1719746E+01;  0.0000000E+00; -2.6496662E+01;0;  4.1446674E-01;  8.1922705E+03;  0.0000000E+00;  1.2389914E+00;  4.0000000E+04;  0.0000000E+00;  3.8985820E+04; -4.8335686E-02;  0.0000000E+00;  4.6280241E-01;  2.9742039E+03;
  1.5816690E+00;  9.9999998E-03; -1.6186695E-01;8865;  1.0874858E+00;  0.0000000E+00; -6.6590674E-02;  1.0007223E+03;  2.2355974E-01;  5.9639832E+02;3;  4.6574741E+01;  0.0000000E+00; -1.9944416E+01;0;  3.5848522E-01;  8.1991982E+03;  0.0000000E+00;  9.0773731E-01;  4.0000000E+04;  0.0000000E+00;  3.9010641E+04; -1.4408338E-01;  0.0000000E+00;  5.0256860E-01;  4.6252188E+03;
  1.5823270E+00;  9.9999998E-03; -1.5170749E-01;8866;  1.0829276E+00;  0.0000000E+00; -6.0496438E-02;  1.0008210E+03;  2.2330940E-01;  6.7787744E+02;3;  4.8209488E+01;  0.0000000E+00; -1.7803082E+01;0;  3.2759351E-01;  8.2165908E+03;  0.0000000E+00;  7.6696187E-01;  4.0000000E+04;  0.0000000E+00;  3.9017910E+04; -1.7350143E-01;  0.0000000E+00;  5.0109494E-01;  5.4745522E+03;
  1.5823132E+00;  9.9999998E-03; -2.0235866E-01;8861;  1.1090884E+00;  0.0000000E+00; -9.3969546E-02;  1.0009130E+03;  2.2329713E-01;  7.5376642E+02;3;  4.0093163E+01;  0.0000000E+00; -2.7974155E+01;0;  4.1368839E-01;  8.2236729E+03;  0.0000000E+00;  1.0610993E+00;  4.0000000E+04;  0.0000000E+00;  3.8978594E+04; -2.6637914E-02;  0.0000000E+00;  4.4032630E-01;  1.0201005E+03;
  1.5830494E+00;  9.9999998E-03; -1.4154860E-01;8867;  1.0786967E+00;  0.0000000E+00; -5.4759923E-02;  1.0008717E+03;  2.2301985E-01;  7.1968317E+02;3;  4.9928421E+01;  0.0000000E+00; -1.5635486E+01;0;  2.9370126E-01;  8.2355732E+03;  0.0000000E+00;  6.9636244E-01;  4.0000000E+04;  0.0000000E+00;  3.9024758E+04; -1.9902763E-01;  0.0000000E+00;  4.9272889E-01;  6.3942612E+03;
  1.5837344E+00;  9.9999998E-03; -1.3141143E-01;8868;  1.0748246E+00;  0.0000000E+00; -4.9358640E-02;  1.0008073E+03;  2.2272442E-01;  6.6651025E+02;3;  5.1492207E+01;  0.0000000E+00; -1.3879029E+01;0;  2.5883669E-01;  8.2531738E+03;  0.0000000E+00;  6.6232455E-01;  4.0000000E+04;  0.0000000E+00;  3.9032215E+04; -2.2035243E-01;  0.0000000E+00;  4.7918913E-01;  7.3011880E+03;
  1.5842949E+00;  9.9999998E-03; -2.6314461E-01;8855;  1.1576635E+00;  0.0000000E+00; -1.1307316E-01;  1.0023410E+03;  2.2276081E-01;  1.9327446E+03;3;  3.5002003E+01;  0.0000000E+00; -1.5980364E+01;0;  4.8328155E-01;  8.2825283E+03;  0.0000000E+00; -1.1868162E+01;  4.0000000E+04;  0.0000000E+00;  3.8963320E+04;  1.6286615E-01;  0.0000000E+00;  3.2041541E-01;  5.9134547E+04;
  1.5840302E+00;  9.9999998E-03; -2.1240844E-01;8860;  1.1153058E+00;  0.0000000E+00; -1.0058977E-01;  1.0012231E+03;  2.2264813E-01;  1.0097889E+03;3;  3.8874866E+01;  0.0000000E+00; -2.8177097E+01;0;  4.0353510E-01;  8.2736631E+03;  0.0000000E+00;  5.5550545E-01;  4.0000000E+04;  0.0000000E+00;  3.8976855E+04; -1.6391672E-02;  0.0000000E+00;  4.1992676E-01;  2.8541147E+03;
  1.5843459E+00;  9.9999998E-03; -1.2130805E-01;8869;  1.0713030E+00;  0.0000000E+00; -4.4254433E-02;  1.0005983E+03;  2.2245625E-01;  4.9396173E+02;3;  5.3362171E+01;  0.0000000E+00; -1.1997309E+01;0;  2.2443549E-01;  8.2668398E+03;  0.0000000E+00;  6.2673485E-01;  4.0000000E+04;  0.0000000E+00;  3.9039711E+04; -2.3794667E-01;  0.0000000E+00;  4.6238217E-01;  8.2193154E+03;
  1.5848471E+00;  9.9999998E-03; -1.1122027E-01;8870;  1.0681020E+00;  0.0000000E+00; -3.9459769E-02;  1.0002480E+03;  2.2224374E-01;  2.0470482E+02;3;  5.5111843E+01;  0.0000000E+00; -1.0159919E+01;0;  1.9168964E-01;  8.2748389E+03;  0.0000000E+00;  5.7055926E-01;  4.0000000E+04;  0.0000000E+00;  3.9047027E+04; -2.5235307E-01;  0.0000000E+00;  4.4404271E-01;  9.1380332E+03;
  1.5860629E+00;  9.9999998E-03; -2.2247402E-01;8859;  1.1224332E+00;  0.0000000E+00; -1.0551077E-01;  1.0014410E+03;  2.2191688E-01;  1.1895732E+03;3;  3.9052872E+01;  0.0000000E+00; -2.3162361E+01;0;  3.9122862E-01;  8.3284873E+03;  0.0000000E+00; -7.9023033E-01;  4.0000000E+04;  0.0000000E+00;  3.8981535E+04; -1.3558468E-02;  0.0000000E+00;  4.0478709E-01;  1.0472863E+04;
  1.5866798E+00;  9.9999998E-03; -2.5295401E-01;8856;  1.1484497E+00;  0.0000000E+00; -1.0992499E-01;  1.0011516E+03;  2.2192568E-01;  9.5060370E+02;3;  3.6239048E+01;  0.0000000E+00; -1.7171705E+01;0;  4.2098916E-01;  8.3267773E+03;  0.0000000E+00; -1.2129209E+01;  4.0000000E+04;  0.0000000E+00;  3.8974727E+04;  7.7461392E-02;  0.0000000E+00;  3.4352776E-01;  6.2744965E+04;
  1.5875666E+00;  9.9999998E-03; -2.3260546E-01;8858;  1.1307288E+00;  0.0000000E+00; -1.0709065E-01;  1.0013148E+03;  2.2141846E-01;  1.0853679E+03;3;  3.8717491E+01;  0.0000000E+00; -1.9249495E+01;0;  3.8369635E-01;  8.3636777E+03;  0.0000000E+00; -3.7275043E+00;  4.0000000E+04;  0.0000000E+00;  3.8983816E+04; -5.0070318E-03;  0.0000000E+00;  3.8870338E-01;  2.4751859E+04;
  1.5878663E+00;  9.9999998E-03; -2.4277608E-01;8857;  1.1395718E+00;  0.0000000E+00; -1.0801555E-01;  1.0010007E+03;  2.2140509E-01;  8.2606653E+02;3;  3.7584190E+01;  0.0000000E+00; -1.7977842E+01;0;  3.9030561E-01;  8.3621602E+03;  0.0000000E+00; -8.2291679E+00;  4.0000000E+04;  0.0000000E+00;  3.8979926E+04;  2.2168022E-02;  0.0000000E+00;  3.6813760E-01;  4.5405316E+04;
  1.6018475E+00;  9.9999998E-03; -1.7201270E-01;8924;  1.0859554E+00;  0.0000000E+00; -5.6701969E-02;  9.9850116E+02;  2.0753480E-01; -1.2361263E+03;3;  4.5345169E+01;  0.0000000E+00; -2.4514732E+01;0;  1.8963808E-01;  9.4687842E+03;  0.0000000E+00;  9.4594890E-01;  4.0000000E+04;  0.0000000E+00;  3.9019070E+04; -2.5799051E-01;  0.0000000E+00;  4.4762859E-01;  6.4984224E+03;
  1.6018518E+00;  9.9999998E-03; -1.8213494E-01;8923;  1.0912043E+00;  0.0000000E+00; -6.2469725E-02;  9.9880408E+02;  2.0750311E-01; -9.8630530E+02;3;  4.4014698E+01;  0.0000000E+00; -2.6747770E+01;0;  1.9920526E-01;  9.4768301E+03;  0.0000000E+00;  1.0979251E+00;  4.0000000E+04;  0.0000000E+00;  3.9010254E+04; -2.4761449E-01;  0.0000000E+00;  4.4681975E-01;  5.7038584E+03;
  1.6022087E+00;  9.9999998E-03; -1.6187380E-01;8925;  1.0810058E+00;  0.0000000E+00; -5.1218163E-02;  9.9832501E+02;  2.0743124E-01; -1.3814034E+03;3;  4.6904484E+01;  0.0000000E+00; -2.2014517E+01;0;  1.7314371E-01;  9.4746387E+03;  0.0000000E+00;  6.8552566E-01;  4.0000000E+04;  0.0000000E+00;  3.9026664E+04; -2.6916149E-01;  0.0000000E+00;  4.4230521E-01;  7.2104497E+03;
  1.6023562E+00;  9.9999998E-03; -1.9224776E-01;8922;  1.0968289E+00;  0.0000000E+00; -6.8478577E-02;  9.9921350E+02;  2.0728795E-01; -6.4861707E+02;3;  4.2785454E+01;  0.0000000E+00; -2.8986414E+01;0;  2.0101921E-01;  9.5032656E+03;  0.0000000E+00;  1.0833207E+00;  4.0000000E+04;  0.0000000E+00;  3.9000305E+04; -2.3975264E-01;  0.0000000E+00;  4.4077185E-01;  4.4098213E+03;
  1.6027850E+00;  9.9999998E-03; -1.5169933E-01;8926;  1.0763412E+00;  0.0000000E+00; -4.6155009E-02;  9.9822809E+02;  2.0724267E-01; -1.4612750E+03;3;  4.8556335E+01;  0.0000000E+00; -1.9758398E+01;0;  1.5128860E-01;  9.4892754E+03;  0.0000000E+00;  4.5133230E-01;  4.0000000E+04;  0.0000000E+00;  3.9033180E+04; -2.7982432E-01;  0.0000000E+00;  4.3111292E-01;  8.0407480E+03;
  1.6034584E+00;  9.9999998E-03; -1.4150873E-01;8927;  1.0719631E+00;  0.0000000E+00; -4.1485574E-02;  9.9819531E+02;  2.0700653E-01; -1.4882411E+03;3;  5.0204514E+01;  0.0000000E+00; -1.7636236E+01;0;  1.2589636E-01;  9.5086406E+03;  0.0000000E+00;  3.3607951E-01;  4.0000000E+04;  0.0000000E+00;  3.9039051E+04; -2.8921008E-01;  0.0000000E+00;  4.1510645E-01;  8.8540811E+03;
  1.6035269E+00;  9.9999998E-03; -2.0232868E-01;8921;  1.1028056E+00;  0.0000000E+00; -7.4418724E-02;  9.9965607E+02;  2.0685689E-01; -2.8360892E+02;3;  4.1829636E+01;  0.0000000E+00; -3.0668056E+01;0;  1.9502442E-01;  9.5497061E+03;  0.0000000E+00;  9.3718421E-01;  4.0000000E+04;  0.0000000E+00;  3.8991965E+04; -2.3669721E-01;  0.0000000E+00;  4.3172163E-01;  2.8183926E+03;
  1.6043754E+00;  9.9999998E-03; -2.6309985E-01;8915;  1.1538365E+00;  0.0000000E+00; -9.5634557E-02;  9.9949066E+02;  2.0702262E-01; -4.1998175E+02;3;  3.7020931E+01;  0.0000000E+00; -1.7845825E+01;0;  1.8421534E-01;  9.5374521E+03;  0.0000000E+00; -9.7386026E+00;  4.0000000E+04;  0.0000000E+00;  3.8988355E+04; -1.6347718E-01;  0.0000000E+00;  3.4769252E-01;  3.8056695E+04;
  1.6041369E+00;  9.9999998E-03; -1.3133837E-01;8928;  1.0679282E+00;  0.0000000E+00; -3.7184473E-02;  9.9814636E+02;  2.0675242E-01; -1.5285233E+03;3;  5.1769009E+01;  0.0000000E+00; -1.5561563E+01;0;  9.8895013E-02;  9.5289756E+03;  0.0000000E+00;  3.2990006E-01;  4.0000000E+04;  0.0000000E+00;  3.9044918E+04; -2.9701358E-01;  0.0000000E+00;  3.9590859E-01;  9.5881289E+03;
  1.6047904E+00;  9.9999998E-03; -1.2120797E-01;8929;  1.0642326E+00;  0.0000000E+00; -3.3233687E-02;  9.9805048E+02;  2.0650500E-01; -1.6075323E+03;3;  5.3546661E+01;  0.0000000E+00; -1.3392784E+01;0;  7.1768224E-02;  9.5475596E+03;  0.0000000E+00;  3.7422749E-01;  4.0000000E+04;  0.0000000E+00;  3.9051070E+04; -3.0338609E-01;  0.0000000E+00;  3.7515432E-01;  1.0306401E+04;
  1.6052630E+00;  9.9999998E-03; -2.1238747E-01;8920;  1.1093565E+00;  0.0000000E+00; -8.0063298E-02;  9.9995361E+02;  2.0627828E-01; -3.8235851E+01;3;  4.1161945E+01;  0.0000000E+00; -3.1050095E+01;0;  1.8445271E-01;  9.6077871E+03;  0.0000000E+00;  5.2843219E-01;  4.0000000E+04;  0.0000000E+00;  3.8988160E+04; -2.3897558E-01;  0.0000000E+00;  4.2342830E-01;  2.6246899E+03;
  1.6053760E+00;  9.9999998E-03; -1.1109886E-01;8930;  1.0608504E+00;  0.0000000E+00; -2.9605538E-02;  9.9785254E+02;  2.0628226E-01; -1.7706302E+03;3;  5.5236122E+01;  0.0000000E+00; -1.1464442E+01;0;  4.5754224E-02;  9.5621465E+03;  0.0000000E+00;  4.2011979E-01;  4.0000000E+04;  0.0000000E+00;  3.9056977E+04; -3.0857402E-01;  0.0000000E+00;  3.5432824E-01;  1.1047699E+04;
  1.6064711E+00;  9.9999998E-03; -2.5291166E-01;8916;  1.1442403E+00;  0.0000000E+00; -9.2415512E-02;  9.9849890E+02;  2.0630144E-01; -1.2375944E+03;3;  3.8213329E+01;  0.0000000E+00; -1.9241465E+01;0;  1.7186435E-01;  9.5863906E+03;  0.0000000E+00; -1.0813529E+01;  4.0000000E+04;  0.0000000E+00;  3.8998770E+04; -2.0451505E-01;  0.0000000E+00;  3.7637940E-01;  4.4376250E+04;
  1.6070343E+00;  9.9999998E-03; -2.2246304E-01;8919;  1.1170207E+00;  0.0000000E+00; -8.4431842E-02;  9.9985919E+02;  2.0574191E-01; -1.1606886E+02;3;  4.0996334E+01;  0.0000000E+00; -2.8228758E+01;0;  1.7450917E-01;  9.6562227E+03;  0.0000000E+00; -7.9996109E-01;  4.0000000E+04;  0.0000000E+00;  3.8990684E+04; -2.4328005E-01;  0.0000000E+00;  4.1778922E-01;  7.4925781E+03;
  1.6078861E+00;  9.9999998E-03; -2.4274233E-01;8917;  1.1349107E+00;  0.0000000E+00; -8.9569539E-02;  9.9855060E+02;  2.0569924E-01; -1.1948645E+03;3;  3.9398872E+01;  0.0000000E+00; -2.1138441E+01;0;  1.6666771E-01;  9.6425752E+03;  0.0000000E+00; -8.0727711E+00;  4.0000000E+04;  0.0000000E+00;  3.8997703E+04; -2.3132552E-01;  0.0000000E+00;  3.9799324E-01;  3.4370238E+04;
  1.6080866E+00;  9.9999998E-03; -2.3258677E-01;8918;  1.1257044E+00;  0.0000000E+00; -8.7267913E-02;  9.9925073E+02;  2.0548844E-01; -6.1769214E+02;3;  4.0420311E+01;  0.0000000E+00; -2.4309278E+01;0;  1.6828460E-01;  9.6715508E+03;  0.0000000E+00; -3.8682494E+00;  4.0000000E+04;  0.0000000E+00;  3.8995141E+04; -2.4301478E-01;  0.0000000E+00;  4.1129938E-01;  1.8839742E+04;
  1.6213108E+00;  9.9999998E-03; -1.7204367E-01;8983;  1.0790137E+00;  0.0000000E+00; -4.1480184E-02;  9.9719495E+02;  1.9377756E-01; -2.3099031E+03;3;  4.5704865E+01;  0.0000000E+00; -2.6115952E+01;0;  7.1329206E-02;  1.0827908E+04;  0.0000000E+00;  8.0015111E-01;  4.0000000E+04;  0.0000000E+00;  3.9021246E+04; -3.1987971E-01;  0.0000000E+00;  3.9120892E-01;  8.0187588E+03;
  1.6214474E+00;  9.9999998E-03; -1.8213779E-01;8982;  1.0842135E+00;  0.0000000E+00; -4.6304915E-02;  9.9780408E+02;  1.9369599E-01; -1.8082509E+03;3;  4.4411575E+01;  0.0000000E+00; -2.8810003E+01;0;  7.9711944E-02;  1.0848462E+04;  0.0000000E+00;  9.2754984E-01;  4.0000000E+04;  0.0000000E+00;  3.9011965E+04; -3.2138956E-01;  0.0000000E+00;  4.0110150E-01;  6.9419805E+03;
  1.6215444E+00;  9.9999998E-03; -1.6192690E-01;8984;  1.0740745E+00;  0.0000000E+00; -3.6968857E-02;  9.9671393E+02;  1.9373460E-01; -2.7059470E+03;3;  4.6936806E+01;  0.0000000E+00; -2.3525721E+01;0;  5.6862384E-02;  1.0823830E+04;  0.0000000E+00;  5.3292280E-01;  4.0000000E+04;  0.0000000E+00;  3.9029309E+04; -3.1986627E-01;  0.0000000E+00;  3.7672865E-01;  8.9171152E+03;
  1.6219994E+00;  9.9999998E-03; -1.5175368E-01;8985;  1.0694211E+00;  0.0000000E+00; -3.2912694E-02;  9.9637677E+02;  1.9361073E-01; -2.9834819E+03;3;  4.8430923E+01;  0.0000000E+00; -2.0954931E+01;0;  3.7764460E-02;  1.0831626E+04;  0.0000000E+00;  2.3873554E-01;  4.0000000E+04;  0.0000000E+00;  3.9035270E+04; -3.2047766E-01;  0.0000000E+00;  3.5824212E-01;  9.7434502E+03;
  1.6220582E+00;  9.9999998E-03; -1.9221370E-01;8981;  1.0897530E+00;  0.0000000E+00; -5.1480792E-02;  9.9845209E+02;  1.9346635E-01; -1.2746036E+03;3;  4.3513412E+01;  0.0000000E+00; -3.1144562E+01;0;  8.1485331E-02;  1.0886721E+04;  0.0000000E+00;  9.7135603E-01;  4.0000000E+04;  0.0000000E+00;  3.9002355E+04; -3.2535949E-01;  0.0000000E+00;  4.0684482E-01;  5.7480527E+03;
  1.6225740E+00;  9.9999998E-03; -1.4154112E-01;8986;  1.0650338E+00;  0.0000000E+00; -2.9307757E-02;  9.9617914E+02;  1.9343558E-01; -3.1460173E+03;3;  5.0001953E+01;  0.0000000E+00; -1.8293127E+01;0;  1.5744448E-02;  1.0847342E+04;  0.0000000E+00;  5.9648942E-02;  4.0000000E+04;  0.0000000E+00;  3.9040605E+04; -3.2114375E-01;  0.0000000E+00;  3.3688819E-01;  1.0467214E+04;
  1.6229591E+00;  9.9999998E-03; -2.6310346E-01;8974;  1.1488308E+00;  0.0000000E+00; -8.0946989E-02;  9.9671863E+02;  1.9372711E-01; -2.7017209E+03;3;  3.8994160E+01;  0.0000000E+00; -1.8784245E+01;0;  5.3181618E-02;  1.0835274E+04;  0.0000000E+00; -7.0004568E+00;  4.0000000E+04;  0.0000000E+00;  3.9007750E+04; -3.2736093E-01;  0.0000000E+00;  3.8054255E-01;  1.7459041E+04;
  1.6232101E+00;  9.9999998E-03; -1.3133356E-01;8987;  1.0609546E+00;  0.0000000E+00; -2.6128169E-02;  9.9607996E+02;  1.9322659E-01; -3.2274932E+03;3;  5.1476505E+01;  0.0000000E+00; -1.6078514E+01;0; -7.4973404E-03;  1.0868023E+04;  0.0000000E+00;  3.6263999E-02;  4.0000000E+04;  0.0000000E+00;  3.9045059E+04; -3.2156974E-01;  0.0000000E+00;  3.1407240E-01;  1.1063561E+04;
  1.6232343E+00;  9.9999998E-03; -2.0226671E-01;8980;  1.0957351E+00;  0.0000000E+00; -5.6461215E-02;  9.9898187E+02;  1.9309244E-01; -8.3824237E+02;3;  4.2923630E+01;  0.0000000E+00; -3.2747772E+01;0;  7.7054203E-02;  1.0939114E+04;  0.0000000E+00;  1.0907345E+00;  4.0000000E+04;  0.0000000E+00;  3.8995656E+04; -3.3275533E-01;  0.0000000E+00;  4.0980953E-01;  5.0443950E+03;
  1.6238660E+00;  9.9999998E-03; -1.2116124E-01;8988;  1.0571934E+00;  0.0000000E+00; -2.3290930E-02;  9.9601819E+02;  1.9300394E-01; -3.2781836E+03;3;  5.3132076E+01;  0.0000000E+00; -1.4066951E+01;0; -3.0479610E-02;  1.0890139E+04;  0.0000000E+00;  1.1210236E-01;  4.0000000E+04;  0.0000000E+00;  3.9049465E+04; -3.2171842E-01;  0.0000000E+00;  2.9123881E-01;  1.1597611E+04;
  1.6247391E+00;  9.9999998E-03; -2.5290424E-01;8975;  1.1389678E+00;  0.0000000E+00; -7.7859111E-02;  9.9611310E+02;  1.9314553E-01; -3.1997498E+03;3;  4.0071262E+01;  0.0000000E+00; -2.0666424E+01;0;  6.1990172E-02;  1.0885378E+04;  0.0000000E+00; -7.5719709E+00;  4.0000000E+04;  0.0000000E+00;  3.9024707E+04; -3.4713477E-01;  0.0000000E+00;  4.0912494E-01;  2.2036045E+04;
  1.6244627E+00;  9.9999998E-03; -1.1103131E-01;8989;  1.0537614E+00;  0.0000000E+00; -2.0732362E-02;  9.9593237E+02;  1.9280373E-01; -3.3486104E+03;3;  5.4580410E+01;  0.0000000E+00; -1.2514290E+01;0; -5.1938742E-02;  1.0909086E+04;  0.0000000E+00;  2.2186625E-01;  4.0000000E+04;  0.0000000E+00;  3.9053738E+04; -3.2169816E-01;  0.0000000E+00;  2.6975942E-01;  1.2141383E+04;
  1.6247512E+00;  9.9999998E-03; -2.1232440E-01;8979;  1.1025926E+00;  0.0000000E+00; -6.1198950E-02;  9.9911731E+02;  1.9266529E-01; -7.2664185E+02;3;  4.2830757E+01;  0.0000000E+00; -3.2907234E+01;0;  6.9388419E-02;  1.0990493E+04;  0.0000000E+00;  1.1364663E+00;  4.0000000E+04;  0.0000000E+00;  3.8996324E+04; -3.4310287E-01;  0.0000000E+00;  4.1249129E-01;  5.1896328E+03;
  1.6261774E+00;  9.9999998E-03; -2.4272351E-01;8976;  1.1291727E+00;  0.0000000E+00; -7.3471941E-02;  9.9644269E+02;  1.9259146E-01; -2.9280518E+03;3;  4.1417767E+01;  0.0000000E+00; -2.4705322E+01;0;  5.8545709E-02;  1.0953150E+04;  0.0000000E+00; -5.7643065E+00;  4.0000000E+04;  0.0000000E+00;  3.9022199E+04; -3.5859138E-01;  0.0000000E+00;  4.1713709E-01;  1.7888473E+04;
  1.6261142E+00;  9.9999998E-03; -2.2241807E-01;8978;  1.1105385E+00;  0.0000000E+00; -6.5218769E-02;  9.9860266E+02;  1.9233325E-01; -1.1501414E+03;3;  4.2995880E+01;  0.0000000E+00; -3.1313448E+01;0;  6.1755568E-02;  1.1019311E+04;  0.0000000E+00;  2.5468966E-01;  4.0000000E+04;  0.0000000E+00;  3.9004012E+04; -3.5379511E-01;  0.0000000E+00;  4.1555068E-01;  5.4239961E+03;
  1.6267176E+00;  9.9999998E-03; -2.3255780E-01;8977;  1.1195207E+00;  0.0000000E+00; -6.9167353E-02;  9.9750165E+02;  1.9227652E-01; -2.0562791E+03;3;  4.2525745E+01;  0.0000000E+00; -2.8707703E+01;0;  5.7578504E-02;  1.1007101E+04;  0.0000000E+00; -2.4043190E+00;  4.0000000E+04;  0.0000000E+00;  3.9013734E+04; -3.6041647E-01;  0.0000000E+00;  4.1799498E-01;  9.3749688E+03;
  1.6398125E+00;  9.9999998E-03; -1.7208840E-01;9042;  1.0718571E+00;  0.0000000E+00; -2.7574947E-02;  9.9667346E+02;  1.8214944E-01; -2.7340945E+03;3;  4.5324791E+01;  0.0000000E+00; -2.6700617E+01;0; -1.4428049E-02;  1.2240385E+04;  0.0000000E+00;  6.2020117E-01;  4.0000000E+04;  0.0000000E+00;  3.9010461E+04; -3.4969702E-01;  0.0000000E+00;  3.3526897E-01;  8.7647988E+03;
  1.6399106E+00;  9.9999998E-03; -1.6200955E-01;9043;  1.0671051E+00;  0.0000000E+00; -2.4104923E-02;  9.9592151E+02;  1.8214637E-01; -3.3521050E+03;3;  4.6449799E+01;  0.0000000E+00; -2.3930563E+01;0; -2.8056234E-02;  1.2224952E+04;  0.0000000E+00;  4.0206519E-01;  4.0000000E+04;  0.0000000E+00;  3.9019809E+04; -3.4164873E-01;  0.0000000E+00;  3.1359249E-01;  9.8940547E+03;
  1.6400121E+00;  9.9999998E-03; -1.8214130E-01;9041;  1.0769063E+00;  0.0000000E+00; -3.1447530E-02;  9.9748810E+02;  1.8206064E-01; -2.0645085E+03;3;  4.4508450E+01;  0.0000000E+00; -2.9609550E+01;0; -5.5787563E-03;  1.2270340E+04;  0.0000000E+00;  7.8629792E-01;  4.0000000E+04;  0.0000000E+00;  3.9000129E+04; -3.5953417E-01;  0.0000000E+00;  3.5395542E-01;  7.5916431E+03;
  1.6402205E+00;  9.9999998E-03; -1.5186882E-01;9044;  1.0626007E+00;  0.0000000E+00; -2.1103639E-02;  9.9532507E+02;  1.8207280E-01; -3.8421453E+03;3;  4.7734463E+01;  0.0000000E+00; -2.1147974E+01;0; -4.5238256E-02;  1.2222872E+04;  0.0000000E+00;  1.2440394E-01;  4.0000000E+04;  0.0000000E+00;  3.9026719E+04; -3.3483323E-01;  0.0000000E+00;  2.8959498E-01;  1.0836005E+04;
  1.6402868E+00;  9.9999998E-03; -2.6315582E-01;9033;  1.1427464E+00;  0.0000000E+00; -6.8447381E-02;  9.9416827E+02;  1.8250707E-01; -4.7928467E+03;3;  4.1015034E+01;  0.0000000E+00; -1.9439363E+01;0; -6.5267384E-03;  1.2153156E+04;  0.0000000E+00; -3.6199839E+00;  4.0000000E+04;  0.0000000E+00;  3.9015562E+04; -4.2144319E-01;  0.0000000E+00;  4.1491646E-01;  9.5978184E+03;
  1.6406512E+00;  9.9999998E-03; -1.4165710E-01;9045;  1.0583483E+00;  0.0000000E+00; -1.8551040E-02;  9.9490472E+02;  1.8195245E-01; -4.1874355E+03;3;  4.9162487E+01;  0.0000000E+00; -1.8538023E+01;0; -6.4342588E-02;  1.2231076E+04;  0.0000000E+00; -8.6515509E-02;  4.0000000E+04;  0.0000000E+00;  3.9031441E+04; -3.2877243E-01;  0.0000000E+00;  2.6442984E-01;  1.1563630E+04;
  1.6406227E+00;  9.9999998E-03; -1.9217518E-01;9040;  1.0823333E+00;  0.0000000E+00; -3.5603069E-02;  9.9823065E+02;  1.8186142E-01; -1.4541083E+03;3;  4.3885662E+01;  0.0000000E+00; -3.2005604E+01;0; -2.2369325E-03;  1.2313704E+04;  0.0000000E+00;  1.1372484E+00;  4.0000000E+04;  0.0000000E+00;  3.8991789E+04; -3.7171319E-01;  0.0000000E+00;  3.6947626E-01;  7.0535063E+03;
  1.6411754E+00;  9.9999998E-03; -1.3142793E-01;9046;  1.0543678E+00;  0.0000000E+00; -1.6359493E-02;  9.9466077E+02;  1.8179716E-01; -4.3876035E+03;3;  5.0533829E+01;  0.0000000E+00; -1.6645323E+01;0; -8.3817050E-02;  1.2247161E+04;  0.0000000E+00; -1.4387739E-01;  4.0000000E+04;  0.0000000E+00;  3.9035105E+04; -3.2317227E-01;  0.0000000E+00;  2.3935522E-01;  1.2094531E+04;
  1.6416512E+00;  9.9999998E-03; -2.0221129E-01;9039;  1.0883653E+00;  0.0000000E+00; -3.9746199E-02;  9.9865112E+02;  1.8157862E-01; -1.1083845E+03;3;  4.3908176E+01;  0.0000000E+00; -3.3904316E+01;0; -3.9612949E-03;  1.2361689E+04;  0.0000000E+00;  1.9216123E+00;  4.0000000E+04;  0.0000000E+00;  3.8990090E+04; -3.8648388E-01;  0.0000000E+00;  3.8252258E-01;  8.6122588E+03;
  1.6417407E+00;  9.9999998E-03; -1.2122933E-01;9047;  1.0507052E+00;  0.0000000E+00; -1.4443480E-02;  9.9455499E+02;  1.8162696E-01; -4.4742397E+03;3;  5.1945415E+01;  0.0000000E+00; -1.4666924E+01;0; -1.0226759E-01;  1.2267191E+04;  0.0000000E+00; -7.2340868E-02;  4.0000000E+04;  0.0000000E+00;  3.9038156E+04; -3.1792611E-01;  0.0000000E+00;  2.1565852E-01;  1.2491193E+04;
  1.6418755E+00;  9.9999998E-03; -2.5294808E-01;9034;  1.1326517E+00;  0.0000000E+00; -6.4992979E-02;  9.9378705E+02;  1.8202212E-01; -5.1051890E+03;3;  4.2333408E+01;  0.0000000E+00; -2.2935167E+01;0;  4.2615533E-03;  1.2204405E+04;  0.0000000E+00; -3.2284973E+00;  4.0000000E+04;  0.0000000E+00;  3.9038375E+04; -4.3277270E-01;  0.0000000E+00;  4.3703425E-01;  1.2077159E+04;
  1.6422802E+00;  9.9999998E-03; -1.1107158E-01;9048;  1.0473491E+00;  0.0000000E+00; -1.2790278E-02;  9.9451416E+02;  1.8147016E-01; -4.5074932E+03;3;  5.3503933E+01;  0.0000000E+00; -1.2882885E+01;0; -1.1878739E-01;  1.2286609E+04;  0.0000000E+00;  5.7195704E-02;  4.0000000E+04;  0.0000000E+00;  3.9040867E+04; -3.1311798E-01;  0.0000000E+00;  1.9433059E-01;  1.2839261E+04;
  1.6428677E+00;  9.9999998E-03; -2.1228300E-01;9038;  1.0952955E+00;  0.0000000E+00; -4.3782257E-02;  9.9841833E+02;  1.8128534E-01; -1.2995012E+03;3;  4.4265202E+01;  0.0000000E+00; -3.3973747E+01;0; -8.8431239E-03;  1.2396773E+04;  0.0000000E+00;  2.8212924E+00;  4.0000000E+04;  0.0000000E+00;  3.8997188E+04; -4.0307915E-01;  0.0000000E+00;  3.9423603E-01;  1.2272526E+04;
  1.6433343E+00;  9.9999998E-03; -2.4275284E-01;9035;  1.1223879E+00;  0.0000000E+00; -5.9047364E-02;  9.9429315E+02;  1.8151747E-01; -4.6884814E+03;3;  4.3664986E+01;  0.0000000E+00; -2.7322903E+01;0; -7.4425638E-03;  1.2281431E+04;  0.0000000E+00; -2.1517189E+00;  4.0000000E+04;  0.0000000E+00;  3.9037742E+04; -4.3640897E-01;  0.0000000E+00;  4.2896640E-01;  1.2285559E+04;
  1.6438562E+00;  9.9999998E-03; -2.2240812E-01;9037;  1.1033006E+00;  0.0000000E+00; -4.7878869E-02;  9.9733661E+02;  1.8110581E-01; -2.1879626E+03;3;  4.4566296E+01;  0.0000000E+00; -3.3413914E+01;0; -1.4315695E-02;  1.2399301E+04;  0.0000000E+00;  2.6121457E+00;  4.0000000E+04;  0.0000000E+00;  3.9010543E+04; -4.1929939E-01;  0.0000000E+00;  4.0498370E-01;  1.4615110E+04;
  1.6441046E+00;  9.9999998E-03; -2.3257215E-01;9036;  1.1124167E+00;  0.0000000E+00; -5.2931663E-02;  9.9567780E+02;  1.8116778E-01; -3.5506033E+03;3;  4.4458023E+01;  0.0000000E+00; -3.1627899E+01;0; -1.5352994E-02;  1.2357370E+04;  0.0000000E+00;  4.2002618E-01;  4.0000000E+04;  0.0000000E+00;  3.9025348E+04; -4.3157181E-01;  0.0000000E+00;  4.1621882E-01;  1.3321421E+04;
  1.6565036E+00;  9.9999998E-03; -2.6326057E-01;9092;  1.1358355E+00;  0.0000000E+00; -5.7186615E-02;  9.9209668E+02;  1.7304729E-01; -6.4813052E+03;3;  4.3177727E+01;  0.0000000E+00; -2.0204533E+01;0; -3.9710820E-02;  1.3474320E+04;  0.0000000E+00;  6.5666574E-01;  4.0000000E+04;  0.0000000E+00;  3.9004090E+04; -4.8054948E-01;  0.0000000E+00;  4.4083866E-01;  2.4400143E+04;
  1.6580831E+00;  9.9999998E-03; -2.5305077E-01;9093;  1.1254101E+00;  0.0000000E+00; -5.2514691E-02;  9.9148102E+02;  1.7263284E-01; -6.9845059E+03;3;  4.4636509E+01;  0.0000000E+00; -2.5303070E+01;0; -4.0339053E-02;  1.3518183E+04;  0.0000000E+00;  1.2612871E+00;  4.0000000E+04;  0.0000000E+00;  3.9031734E+04; -4.8973364E-01;  0.0000000E+00;  4.4939458E-01;  2.7316715E+04;
  1.6572940E+00;  9.9999998E-03; -1.7212594E-01;9101;  1.0649332E+00;  0.0000000E+00; -1.5278174E-02;  9.9670166E+02;  1.7235816E-01; -2.7045540E+03;3;  4.4538258E+01;  0.0000000E+00; -2.6350525E+01;0; -7.8645200E-02;  1.3676553E+04;  0.0000000E+00;  5.3913200E-01;  4.0000000E+04;  0.0000000E+00;  3.8985484E+04; -3.6281329E-01;  0.0000000E+00;  2.8416809E-01;  8.8175977E+03;
  1.6574619E+00;  9.9999998E-03; -1.8213548E-01;9100;  1.0697535E+00;  0.0000000E+00; -1.8210806E-02;  9.9757947E+02;  1.7229156E-01; -1.9847321E+03;3;  4.4000957E+01;  0.0000000E+00; -2.9575752E+01;0; -7.0413500E-02;  1.3709557E+04;  0.0000000E+00;  9.8749548E-01;  4.0000000E+04;  0.0000000E+00;  3.8974836E+04; -3.8030154E-01;  0.0000000E+00;  3.0988804E-01;  8.0631968E+03;
  1.6573511E+00;  9.9999998E-03; -1.6209276E-01;9102;  1.0604464E+00;  0.0000000E+00; -1.2800572E-02;  9.9579352E+02;  1.7236069E-01; -3.4491719E+03;3;  4.5419018E+01;  0.0000000E+00; -2.3580688E+01;0; -9.0308696E-02;  1.3653320E+04;  0.0000000E+00;  3.1124082E-01;  4.0000000E+04;  0.0000000E+00;  3.8996891E+04; -3.4701240E-01;  0.0000000E+00;  2.5670370E-01;  1.0136791E+04;
  1.6579516E+00;  9.9999998E-03; -1.9214070E-01;9099;  1.0750149E+00;  0.0000000E+00; -2.1389728E-02;  9.9823816E+02;  1.7215632E-01; -1.4445282E+03;3;  4.3933041E+01;  0.0000000E+00; -3.1950094E+01;0; -6.6579282E-02;  1.3747702E+04;  0.0000000E+00;  2.0858419E+00;  4.0000000E+04;  0.0000000E+00;  3.8970258E+04; -3.9977276E-01;  0.0000000E+00;  3.3319348E-01;  9.8252432E+03;
  1.6575631E+00;  9.9999998E-03; -1.5200625E-01;9103;  1.0562025E+00;  0.0000000E+00; -1.0777531E-02;  9.9497046E+02;  1.7231882E-01; -4.1239365E+03;3;  4.6519279E+01;  0.0000000E+00; -2.0908001E+01;0; -1.0414848E-01;  1.3640643E+04;  0.0000000E+00;  9.1977961E-02;  4.0000000E+04;  0.0000000E+00;  3.9006109E+04; -3.3255038E-01;  0.0000000E+00;  2.2840190E-01;  1.1326672E+04;
  1.6578546E+00;  9.9999998E-03; -1.4183968E-01;9104;  1.0522094E+00;  0.0000000E+00; -9.1352174E-03;  9.9431934E+02;  1.7224273E-01; -4.6576089E+03;3;  4.7555931E+01;  0.0000000E+00; -1.8726685E+01;0; -1.1869927E-01;  1.3637630E+04;  0.0000000E+00; -1.0167099E-01;  4.0000000E+04;  0.0000000E+00;  3.9012176E+04; -3.1912521E-01;  0.0000000E+00;  2.0042594E-01;  1.2205562E+04;
  1.6587378E+00;  9.9999998E-03; -2.0218503E-01;9098;  1.0809865E+00;  0.0000000E+00; -2.4787217E-02;  9.9838306E+02;  1.7197463E-01; -1.3255656E+03;3;  4.4342445E+01;  0.0000000E+00; -3.3555977E+01;0; -6.7131847E-02;  1.3779931E+04;  0.0000000E+00;  4.0769405E+00;  4.0000000E+04;  0.0000000E+00;  3.8975441E+04; -4.2117867E-01;  0.0000000E+00;  3.5404682E-01;  1.5773622E+04;
  1.6582125E+00;  9.9999998E-03; -1.3162079E-01;9105;  1.0484772E+00;  0.0000000E+00; -7.8088129E-03;  9.9386633E+02;  1.7214705E-01; -5.0287437E+03;3;  4.8958302E+01;  0.0000000E+00; -1.6530437E+01;0; -1.3263017E-01;  1.3643050E+04;  0.0000000E+00; -1.8597604E-01;  4.0000000E+04;  0.0000000E+00;  3.9015965E+04; -3.0654180E-01;  0.0000000E+00;  1.7391163E-01;  1.2780923E+04;
  1.6586280E+00;  9.9999998E-03; -1.2140288E-01;9106;  1.0449883E+00;  0.0000000E+00; -6.7384988E-03;  9.9361438E+02;  1.7203976E-01; -5.2349692E+03;3;  5.0437508E+01;  0.0000000E+00; -1.4690483E+01;0; -1.4487605E-01;  1.3655037E+04;  0.0000000E+00; -1.4333662E-01;  4.0000000E+04;  0.0000000E+00;  3.9018488E+04; -2.9469046E-01;  0.0000000E+00;  1.4981441E-01;  1.3127028E+04;
  1.6595103E+00;  9.9999998E-03; -2.4284583E-01;9094;  1.1147825E+00;  0.0000000E+00; -4.5536835E-02;  9.9202808E+02;  1.7219180E-01; -6.5345396E+03;3;  4.5909031E+01;  0.0000000E+00; -2.9883221E+01;0; -6.0722888E-02;  1.3598112E+04;  0.0000000E+00;  2.4534435E+00;  4.0000000E+04;  0.0000000E+00;  3.9035289E+04; -4.9021104E-01;  0.0000000E+00;  4.2948815E-01;  2.8343980E+04;
  1.6596676E+00;  9.9999998E-03; -2.1230124E-01;9097;  1.0877920E+00;  0.0000000E+00; -2.8341793E-02;  9.9763330E+02;  1.7179912E-01; -1.9399353E+03;3;  4.4995148E+01;  0.0000000E+00; -3.4375992E+01;0; -7.1264803E-02;  1.3790011E+04;  0.0000000E+00;  6.2388363E+00;  4.0000000E+04;  0.0000000E+00;  3.8987551E+04; -4.4367400E-01;  0.0000000E+00;  3.7240919E-01;  2.3951049E+04;
  1.6590742E+00;  9.9999998E-03; -1.1120463E-01;9107;  1.0417421E+00;  0.0000000E+00; -5.8637992E-03;  9.9351459E+02;  1.7192595E-01; -5.3163979E+03;3;  5.1973984E+01;  0.0000000E+00; -1.3043808E+01;0; -1.5489744E-01;  1.3670852E+04;  0.0000000E+00; -3.0917015E-02;  4.0000000E+04;  0.0000000E+00;  3.9019449E+04; -2.8360009E-01;  0.0000000E+00;  1.2870266E-01;  1.3333082E+04;
  1.6603789E+00;  9.9999998E-03; -2.3265140E-01;9095;  1.1047156E+00;  0.0000000E+00; -3.8288597E-02;  9.9368616E+02;  1.7185128E-01; -5.1747104E+03;3;  4.6060791E+01;  0.0000000E+00; -3.3408813E+01;0; -7.5035512E-02;  1.3690454E+04;  0.0000000E+00;  4.8358331E+00;  4.0000000E+04;  0.0000000E+00;  3.9021922E+04; -4.8152483E-01;  0.0000000E+00;  4.0648931E-01;  2.9775812E+04;
  1.6603695E+00;  9.9999998E-03; -2.2246775E-01;9096;  1.0956792E+00;  0.0000000E+00; -3.2680973E-02;  9.9587476E+02;  1.7172672E-01; -3.3809648E+03;3;  4.5655342E+01;  0.0000000E+00; -3.4761105E+01;0; -7.5746566E-02;  1.3761420E+04;  0.0000000E+00;  6.7696776E+00;  4.0000000E+04;  0.0000000E+00;  3.9003457E+04; -4.6495453E-01;  0.0000000E+00;  3.8920796E-01;  2.9503213E+04;
  1.6717759E+00;  9.9999998E-03; -2.6341403E-01;9150;  1.1283070E+00;  0.0000000E+00; -4.7358215E-02;  9.9083179E+02;  1.6506213E-01; -7.4992495E+03;3;  4.5472618E+01;  0.0000000E+00; -2.1593849E+01;0; -6.1086774E-02;  1.4787523E+04;  0.0000000E+00;  5.5595388E+00;  4.0000000E+04;  0.0000000E+00;  3.8974238E+04; -5.2203292E-01;  0.0000000E+00;  4.6094614E-01;  3.8510285E+04;
  1.6733350E+00;  9.9999998E-03; -2.5320187E-01;9151;  1.1176405E+00;  0.0000000E+00; -4.1488849E-02;  9.8975653E+02;  1.6472401E-01; -8.3762949E+03;3;  4.6995266E+01;  0.0000000E+00; -2.7279657E+01;0; -7.7747166E-02;  1.4811140E+04;  0.0000000E+00;  6.9937863E+00;  4.0000000E+04;  0.0000000E+00;  3.9010910E+04; -5.3200042E-01;  0.0000000E+00;  4.5425326E-01;  4.5193301E+04;
  1.6739142E+00;  9.9999998E-03; -1.8209243E-01;9158;  1.0629886E+00;  0.0000000E+00; -6.6711577E-03;  9.9783838E+02;  1.6409332E-01; -1.7674041E+03;3;  4.3138538E+01;  0.0000000E+00; -2.8387251E+01;0; -1.1962935E-01;  1.5135614E+04;  0.0000000E+00;  2.0471466E+00;  4.0000000E+04;  0.0000000E+00;  3.8938766E+04; -3.8963395E-01;  0.0000000E+00;  2.7000460E-01;  1.0136201E+04;
  1.6738158E+00;  9.9999998E-03; -1.7212349E-01;9159;  1.0584764E+00;  0.0000000E+00; -4.7033397E-03;  9.9703333E+02;  1.6412383E-01; -2.4257065E+03;3;  4.3381920E+01;  0.0000000E+00; -2.5304462E+01;0; -1.2449481E-01;  1.5106750E+04;  0.0000000E+00;  8.7201613E-01;  4.0000000E+04;  0.0000000E+00;  3.8946438E+04; -3.6365637E-01;  0.0000000E+00;  2.3916157E-01;  8.6433486E+03;
  1.6738904E+00;  9.9999998E-03; -1.6213953E-01;9160;  1.0543244E+00;  0.0000000E+00; -3.1107760E-03;  9.9608673E+02;  1.6412252E-01; -3.1996272E+03;3;  4.3930862E+01;  0.0000000E+00; -2.2692574E+01;0; -1.3143910E-01;  1.5079719E+04;  0.0000000E+00;  3.8950241E-01;  4.0000000E+04;  0.0000000E+00;  3.8958621E+04; -3.3882135E-01;  0.0000000E+00;  2.0738225E-01;  9.6182363E+03;
  1.6742444E+00;  9.9999998E-03; -1.9209281E-01;9157;  1.0679891E+00;  0.0000000E+00; -8.9623835E-03;  9.9828265E+02;  1.6401948E-01; -1.4040474E+03;3;  4.3480145E+01;  0.0000000E+00; -3.0886152E+01;0; -1.1799827E-01;  1.5160015E+04;  0.0000000E+00;  4.4739323E+00;  4.0000000E+04;  0.0000000E+00;  3.8942066E+04; -4.1689217E-01;  0.0000000E+00;  2.9889390E-01;  1.6529898E+04;
  1.6740530E+00;  9.9999998E-03; -1.5211600E-01;9161;  1.0504566E+00;  0.0000000E+00; -1.9229077E-03;  9.9513379E+02;  1.6409534E-01; -3.9786233E+03;3;  4.4711109E+01;  0.0000000E+00; -1.9996407E+01;0; -1.3913043E-01;  1.5057708E+04;  0.0000000E+00;  1.5006319E-01;  4.0000000E+04;  0.0000000E+00;  3.8970977E+04; -3.1501296E-01;  0.0000000E+00;  1.7588253E-01;  1.1036762E+04;
  1.6747376E+00;  9.9999998E-03; -2.4299021E-01;9152;  1.1067804E+00;  0.0000000E+00; -3.3625275E-02;  9.9005054E+02;  1.6435425E-01; -8.1336450E+03;3;  4.7787277E+01;  0.0000000E+00; -3.1926735E+01;0; -1.0877350E-01;  1.4882818E+04;  0.0000000E+00;  8.7400284E+00;  4.0000000E+04;  0.0000000E+00;  3.9020273E+04; -5.3163296E-01;  0.0000000E+00;  4.2285946E-01;  4.8448699E+04;
  1.6748172E+00;  9.9999998E-03; -2.0218371E-01;9156;  1.0736877E+00;  0.0000000E+00; -1.1791094E-02;  9.9801642E+02;  1.6392286E-01; -1.6215485E+03;3;  4.4129631E+01;  0.0000000E+00; -3.3004543E+01;0; -1.2009349E-01;  1.5168530E+04;  0.0000000E+00;  8.1746798E+00;  4.0000000E+04;  0.0000000E+00;  3.8955488E+04; -4.4531128E-01;  0.0000000E+00;  3.2521778E-01;  2.7647529E+04;
  1.6742560E+00;  9.9999998E-03; -1.4202499E-01;9162;  1.0468055E+00;  0.0000000E+00; -1.0901134E-03;  9.9429285E+02;  1.6405515E-01; -4.6660151E+03;3;  4.5736889E+01;  0.0000000E+00; -1.7928772E+01;0; -1.4632924E-01;  1.5042240E+04;  0.0000000E+00; -2.1587791E-02;  4.0000000E+04;  0.0000000E+00;  3.8979879E+04; -2.9214978E-01;  0.0000000E+00;  1.4582054E-01;  1.2210848E+04;
  1.6744765E+00;  9.9999998E-03; -1.3185491E-01;9163;  1.0433487E+00;  0.0000000E+00; -5.3093076E-04;  9.9362573E+02;  1.6400746E-01; -5.2111904E+03;3;  4.7028667E+01;  0.0000000E+00; -1.5911832E+01;0; -1.5199083E-01;  1.5033868E+04;  0.0000000E+00; -1.2212846E-01;  4.0000000E+04;  0.0000000E+00;  3.8985445E+04; -2.7020669E-01;  0.0000000E+00;  1.1821586E-01;  1.2991471E+04;
  1.6747270E+00;  9.9999998E-03; -1.2163991E-01;9164;  1.0400773E+00;  0.0000000E+00; -1.7342635E-04;  9.9317383E+02;  1.6395569E-01; -5.5803813E+03;3;  4.8340809E+01;  0.0000000E+00; -1.4282310E+01;0; -1.5540324E-01;  1.5032722E+04;  0.0000000E+00; -1.2140573E-01;  4.0000000E+04;  0.0000000E+00;  3.8988215E+04; -2.4918331E-01;  0.0000000E+00;  9.3780071E-02;  1.3426619E+04;
  1.6750467E+00;  9.9999998E-03; -1.1141720E-01;9165;  1.0369997E+00;  0.0000000E+00;  7.0075999E-05;  9.9292358E+02;  1.6388643E-01; -5.7846216E+03;3;  4.9827007E+01;  0.0000000E+00; -1.2853623E+01;0; -1.5630126E-01;  1.5039666E+04;  0.0000000E+00; -4.7911964E-02;  4.0000000E+04;  0.0000000E+00;  3.8989285E+04; -2.2902931E-01;  0.0000000E+00;  7.2728053E-02;  1.3613268E+04;
  1.6755140E+00;  9.9999998E-03; -2.1236867E-01;9155;  1.0802073E+00;  0.0000000E+00; -1.5172365E-02;  9.9660962E+02;  1.6384125E-01; -2.7711956E+03;3;  4.5329586E+01;  0.0000000E+00; -3.4276608E+01;0; -1.2545991E-01;  1.5146225E+04;  0.0000000E+00;  1.1704238E+01;  4.0000000E+04;  0.0000000E+00;  3.8971039E+04; -4.7393221E-01;  0.0000000E+00;  3.4847230E-01;  3.9881730E+04;
  1.6757158E+00;  9.9999998E-03; -2.3278202E-01;9153;  1.0967386E+00;  0.0000000E+00; -2.5764322E-02;  9.9168274E+02;  1.6403191E-01; -6.7980015E+03;3;  4.7357388E+01;  0.0000000E+00; -3.4301311E+01;0; -1.2809935E-01;  1.4983751E+04;  0.0000000E+00;  1.0965687E+01;  4.0000000E+04;  0.0000000E+00;  3.9009109E+04; -5.2039450E-01;  0.0000000E+00;  3.9229515E-01;  4.9374879E+04;
  1.6759605E+00;  9.9999998E-03; -2.2257708E-01;9154;  1.0878313E+00;  0.0000000E+00; -1.9614944E-02;  9.9419781E+02;  1.6385491E-01; -4.7421465E+03;3;  4.6415474E+01;  0.0000000E+00; -3.5145367E+01;0; -1.3068983E-01;  1.5081730E+04;  0.0000000E+00;  1.2706906E+01;  4.0000000E+04;  0.0000000E+00;  3.8988941E+04; -5.0016397E-01;  0.0000000E+00;  3.6947414E-01;  4.7607605E+04;
  1.6862539E+00;  9.9999998E-03; -2.6361364E-01;9207;  1.1203350E+00;  0.0000000E+00; -3.9273672E-02;  9.9068842E+02;  1.5829530E-01; -7.5934976E+03;3;  4.7827335E+01;  0.0000000E+00; -2.2610369E+01;0; -6.8870634E-02;  1.6091601E+04;  0.0000000E+00;  1.0628862E+01;  4.0000000E+04;  0.0000000E+00;  3.8926000E+04; -5.5051249E-01;  0.0000000E+00;  4.8164186E-01;  4.8016469E+04;
  1.6878438E+00;  9.9999998E-03; -2.5340104E-01;9208;  1.1095728E+00;  0.0000000E+00; -3.2272153E-02;  9.8875195E+02;  1.5802827E-01; -9.1692812E+03;3;  4.9027996E+01;  0.0000000E+00; -2.8750814E+01;0; -1.0544091E-01;  1.6077861E+04;  0.0000000E+00;  1.2877121E+01;  4.0000000E+04;  0.0000000E+00;  3.8973758E+04; -5.6301385E-01;  0.0000000E+00;  4.5757294E-01;  5.9141551E+04;
  1.6893016E+00;  9.9999998E-03; -2.4318627E-01;9209;  1.0986444E+00;  0.0000000E+00; -2.3319820E-02;  9.8830249E+02;  1.5772420E-01; -9.5323672E+03;3;  4.9246075E+01;  0.0000000E+00; -3.3237366E+01;0; -1.5303135E-01;  1.6123498E+04;  0.0000000E+00;  1.4945223E+01;  4.0000000E+04;  0.0000000E+00;  3.8991531E+04; -5.6359899E-01;  0.0000000E+00;  4.1056764E-01;  6.4809398E+04;
  1.6895373E+00;  9.9999998E-03; -1.8200192E-01;9215;  1.0566843E+00;  0.0000000E+00;  3.0908508E-03;  9.9800476E+02;  1.5720895E-01; -1.6258575E+03;3;  4.1945549E+01;  0.0000000E+00; -2.5948009E+01;0; -1.5417226E-01;  1.6517229E+04;  0.0000000E+00;  4.6329732E+00;  4.0000000E+04;  0.0000000E+00;  3.8896652E+04; -3.8804707E-01;  0.0000000E+00;  2.3387481E-01;  1.6274385E+04;
  1.6895605E+00;  9.9999998E-03; -1.7204563E-01;9216;  1.0525830E+00;  0.0000000E+00;  4.2079114E-03;  9.9737134E+02;  1.5720862E-01; -2.1419915E+03;3;  4.1778439E+01;  0.0000000E+00; -2.3563152E+01;0; -1.5227149E-01;  1.6499693E+04;  0.0000000E+00;  2.1137969E+00;  4.0000000E+04;  0.0000000E+00;  3.8894688E+04; -3.5201064E-01;  0.0000000E+00;  1.9973914E-01;  1.0133398E+04;
  1.6896771E+00;  9.9999998E-03; -1.6211012E-01;9217;  1.0488634E+00;  0.0000000E+00;  4.9616280E-03;  9.9651245E+02;  1.5719570E-01; -2.8417422E+03;3;  4.2082611E+01;  0.0000000E+00; -2.1559231E+01;0; -1.5091163E-01;  1.6474623E+04;  0.0000000E+00;  9.2166287E-01;  4.0000000E+04;  0.0000000E+00;  3.8904449E+04; -3.1618983E-01;  0.0000000E+00;  1.6527820E-01;  8.8326934E+03;
  1.6896874E+00;  9.9999998E-03; -1.9205117E-01;9214;  1.0613006E+00;  0.0000000E+00;  1.4578210E-03;  9.9815601E+02;  1.5719059E-01; -1.5025338E+03;3;  4.2668514E+01;  0.0000000E+00; -2.8971035E+01;0; -1.5803105E-01;  1.6520121E+04;  0.0000000E+00;  9.0233011E+00;  4.0000000E+04;  0.0000000E+00;  3.8911676E+04; -4.2439583E-01;  0.0000000E+00;  2.6636478E-01;  2.8051420E+04;
  1.6898283E+00;  9.9999998E-03; -1.5215027E-01;9218;  1.0454140E+00;  0.0000000E+00;  5.4389420E-03;  9.9555035E+02;  1.5717588E-01; -3.6255884E+03;3;  4.2680237E+01;  0.0000000E+00; -1.9820030E+01;0; -1.4881036E-01;  1.6447131E+04;  0.0000000E+00;  4.0154603E-01;  4.0000000E+04;  0.0000000E+00;  3.8918355E+04; -2.8060225E-01;  0.0000000E+00;  1.3179189E-01;  9.8838320E+03;
  1.6899711E+00;  9.9999998E-03; -1.4213866E-01;9219;  1.0421463E+00;  0.0000000E+00;  5.6458018E-03;  9.9460553E+02;  1.5715650E-01; -4.3952529E+03;3;  4.3655197E+01;  0.0000000E+00; -1.8284618E+01;0; -1.4498165E-01;  1.6420961E+04;  0.0000000E+00;  1.4685452E-01;  4.0000000E+04;  0.0000000E+00;  3.8930781E+04; -2.4541761E-01;  0.0000000E+00;  1.0043596E-01;  1.1319184E+04;
  1.6901022E+00;  9.9999998E-03; -1.3204770E-01;9220;  1.0390092E+00;  0.0000000E+00;  5.6429966E-03;  9.9377057E+02;  1.5713702E-01; -5.0754258E+03;3;  4.4759739E+01;  0.0000000E+00; -1.7058498E+01;0; -1.3875388E-01;  1.6399330E+04;  0.0000000E+00;  5.0751264E-03;  4.0000000E+04;  0.0000000E+00;  3.8939965E+04; -2.1078378E-01;  0.0000000E+00;  7.2029904E-02;  1.2459013E+04;
  1.6900860E+00;  9.9999998E-03; -2.0224372E-01;9213;  1.0665627E+00;  0.0000000E+00; -9.1084756E-04;  9.9732361E+02;  1.5716313E-01; -2.1805679E+03;3;  4.3699017E+01;  0.0000000E+00; -3.1442070E+01;0; -1.6482016E-01;  1.6497938E+04;  0.0000000E+00;  1.4721786E+01;  4.0000000E+04;  0.0000000E+00;  3.8930801E+04; -4.6091184E-01;  0.0000000E+00;  2.9609168E-01;  4.3919176E+04;
  1.6902508E+00;  9.9999998E-03; -1.2187434E-01;9221;  1.0359905E+00;  0.0000000E+00;  5.5042803E-03;  9.9310333E+02;  1.5711296E-01; -5.6188320E+03;3;  4.6175354E+01;  0.0000000E+00; -1.5763062E+01;0; -1.2977198E-01;  1.6385355E+04;  0.0000000E+00; -4.8839215E-02;  4.0000000E+04;  0.0000000E+00;  3.8945188E+04; -1.7683434E-01;  0.0000000E+00;  4.7062367E-02;  1.3173272E+04;
  1.6904488E+00;  9.9999998E-03; -1.1165407E-01;9222;  1.0330790E+00;  0.0000000E+00;  5.2600061E-03;  9.9265668E+02;  1.5707865E-01; -5.9824561E+03;3;  4.7740162E+01;  0.0000000E+00; -1.4643880E+01;0; -1.1808959E-01;  1.6380313E+04;  0.0000000E+00; -3.0297484E-02;  4.0000000E+04;  0.0000000E+00;  3.8947367E+04; -1.4381492E-01;  0.0000000E+00;  2.5725326E-02;  1.3522075E+04;
  1.6904036E+00;  9.9999998E-03; -2.3296879E-01;9210;  1.0886106E+00;  0.0000000E+00; -1.4879226E-02;  9.8954834E+02;  1.5743294E-01; -8.5148281E+03;3;  4.8389278E+01;  0.0000000E+00; -3.4453899E+01;0; -1.7918468E-01;  1.6219149E+04;  0.0000000E+00;  1.7406897E+01;  4.0000000E+04;  0.0000000E+00;  3.8984871E+04; -5.5115354E-01;  0.0000000E+00;  3.7196887E-01;  6.6890047E+04;
  1.6906298E+00;  9.9999998E-03; -2.1250716E-01;9212;  1.0727090E+00;  0.0000000E+00; -4.0777558E-03;  9.9513086E+02;  1.5715478E-01; -3.9666160E+03;3;  4.5325794E+01;  0.0000000E+00; -3.3592754E+01;0; -1.7419553E-01;  1.6437326E+04;  0.0000000E+00;  1.9133791E+01;  4.0000000E+04;  0.0000000E+00;  3.8945016E+04; -4.9626100E-01;  0.0000000E+00;  3.2206547E-01;  5.8451488E+04;
  1.6908690E+00;  9.9999998E-03; -2.2274718E-01;9211;  1.0799756E+00;  0.0000000E+00; -8.5321609E-03;  9.9214148E+02;  1.5723068E-01; -6.4014844E+03;3;  4.6828594E+01;  0.0000000E+00; -3.4925781E+01;0; -1.8199679E-01;  1.6336139E+04;  0.0000000E+00;  1.9684425E+01;  4.0000000E+04;  0.0000000E+00;  3.8964465E+04; -5.2756059E-01;  0.0000000E+00;  3.4556380E-01;  6.5852055E+04;
  1.7001266E+00;  9.9999998E-03; -2.6385882E-01;9264;  1.1118799E+00;  0.0000000E+00; -3.1507224E-02;  9.9172418E+02;  1.5253893E-01; -6.7249473E+03;3;  5.0081478E+01;  0.0000000E+00; -2.4014021E+01;0; -8.4476590E-02;  1.7388256E+04;  0.0000000E+00;  1.3989679E+01;  4.0000000E+04;  0.0000000E+00;  3.8856496E+04; -5.6892210E-01;  0.0000000E+00;  4.8444551E-01;  4.9130672E+04;
  1.7017620E+00;  9.9999998E-03; -2.5365141E-01;9265;  1.1012601E+00;  0.0000000E+00; -2.4058171E-02;  9.8858313E+02;  1.5233672E-01; -9.2730469E+03;3;  5.0955708E+01;  0.0000000E+00; -2.9648872E+01;0; -1.3282946E-01;  1.7319568E+04;  0.0000000E+00;  1.7490448E+01;  4.0000000E+04;  0.0000000E+00;  3.8914570E+04; -5.8440179E-01;  0.0000000E+00;  4.5157233E-01;  6.6044734E+04;
  1.7032768E+00;  9.9999998E-03; -2.4343753E-01;9266;  1.0903759E+00;  0.0000000E+00; -1.4312977E-02;  9.8701910E+02;  1.5209900E-01; -1.0538733E+04;3;  5.0560211E+01;  0.0000000E+00; -3.3990971E+01;0; -1.9680279E-01;  1.7319385E+04;  0.0000000E+00;  2.0261574E+01;  4.0000000E+04;  0.0000000E+00;  3.8943754E+04; -5.8702385E-01;  0.0000000E+00;  3.9022106E-01;  7.5595422E+04;
  1.7043412E+00;  9.9999998E-03; -1.8192792E-01;9272;  1.0509133E+00;  0.0000000E+00;  1.0976246E-02;  9.9798163E+02;  1.5145309E-01; -1.6381464E+03;3;  4.0546303E+01;  0.0000000E+00; -2.5191076E+01;0; -1.7415534E-01;  1.7822654E+04;  0.0000000E+00;  9.5237007E+00;  4.0000000E+04;  0.0000000E+00;  3.8851938E+04; -3.7536192E-01;  0.0000000E+00;  2.0120658E-01;  2.7079035E+04;
  1.7043529E+00;  9.9999998E-03; -1.9209756E-01;9271;  1.0550064E+00;  0.0000000E+00;  9.7225429E-03;  9.9771222E+02;  1.5147729E-01; -1.8567981E+03;3;  4.1577057E+01;  0.0000000E+00; -2.7181818E+01;0; -1.8694146E-01;  1.7799387E+04;  0.0000000E+00;  1.6439100E+01;  4.0000000E+04;  0.0000000E+00;  3.8877027E+04; -4.2250633E-01;  0.0000000E+00;  2.3556487E-01;  4.4066555E+04;
  1.7045385E+00;  9.9999998E-03; -1.7192483E-01;9273;  1.0473015E+00;  0.0000000E+00;  1.1674080E-02;  9.9755499E+02;  1.5141609E-01; -1.9842538E+03;3;  4.0107018E+01;  0.0000000E+00; -2.3817049E+01;0; -1.6182148E-01;  1.7824297E+04;  0.0000000E+00;  4.8963833E+00;  4.0000000E+04;  0.0000000E+00;  3.8836043E+04; -3.2721877E-01;  0.0000000E+00;  1.6539729E-01;  1.5648070E+04;
  1.7047853E+00;  9.9999998E-03; -1.6200413E-01;9274;  1.0440608E+00;  0.0000000E+00;  1.1990095E-02;  9.9684888E+02;  1.5138160E-01; -2.5571375E+03;3;  4.0100555E+01;  0.0000000E+00; -2.2504963E+01;0; -1.4826581E-01;  1.7810543E+04;  0.0000000E+00;  2.3463194E+00;  4.0000000E+04;  0.0000000E+00;  3.8836188E+04; -2.7799150E-01;  0.0000000E+00;  1.2972569E-01;  9.7784365E+03;
  1.7044853E+00;  9.9999998E-03; -2.3321794E-01;9267;  1.0805995E+00;  0.0000000E+00; -5.6871986E-03;  9.8747040E+02;  1.5185128E-01; -1.0168713E+04;3;  4.9222446E+01;  0.0000000E+00; -3.4270615E+01;0; -2.2811046E-01;  1.7390750E+04;  0.0000000E+00;  2.3402596E+01;  4.0000000E+04;  0.0000000E+00;  3.8944105E+04; -5.7388425E-01;  0.0000000E+00;  3.4577379E-01;  8.0581719E+04;
  1.7047149E+00;  9.9999998E-03; -2.0241888E-01;9270;  1.0597214E+00;  0.0000000E+00;  7.9227975E-03;  9.9606982E+02;  1.5148965E-01; -3.1893914E+03;3;  4.2963711E+01;  0.0000000E+00; -2.9397228E+01;0; -2.0203075E-01;  1.7742801E+04;  0.0000000E+00;  2.3722527E+01;  4.0000000E+04;  0.0000000E+00;  3.8892688E+04; -4.6828267E-01;  0.0000000E+00;  2.6625192E-01;  6.3046754E+04;
  1.7050034E+00;  9.9999998E-03; -1.5209304E-01;9275;  1.0410599E+00;  0.0000000E+00;  1.2033836E-02;  9.9599377E+02;  1.5135324E-01; -3.2508289E+03;3;  4.0448704E+01;  0.0000000E+00; -2.1259436E+01;0; -1.3228765E-01;  1.7786168E+04;  0.0000000E+00;  1.0899689E+00;  4.0000000E+04;  0.0000000E+00;  3.8846945E+04; -2.2774586E-01;  0.0000000E+00;  9.5458217E-02;  8.4740918E+03;
  1.7051666E+00;  9.9999998E-03; -1.4214653E-01;9276;  1.0382122E+00;  0.0000000E+00;  1.1856224E-02;  9.9506226E+02;  1.5133381E-01; -4.0065452E+03;3;  4.1265228E+01;  0.0000000E+00; -2.0016705E+01;0; -1.1319444E-01;  1.7756375E+04;  0.0000000E+00;  4.9317497E-01;  4.0000000E+04;  0.0000000E+00;  3.8861520E+04; -1.7675439E-01;  0.0000000E+00;  6.3559949E-02;  9.5120039E+03;
  1.7052666E+00;  9.9999998E-03; -1.3213463E-01;9277;  1.0354259E+00;  0.0000000E+00;  1.1471943E-02;  9.9414886E+02;  1.5132232E-01; -4.7475264E+03;3;  4.2575100E+01;  0.0000000E+00; -1.8689186E+01;0; -9.0803877E-02;  1.7725641E+04;  0.0000000E+00;  1.9860022E-01;  4.0000000E+04;  0.0000000E+00;  3.8875105E+04; -1.2552424E-01;  0.0000000E+00;  3.4720358E-02;  1.0951615E+04;
  1.7053357E+00;  9.9999998E-03; -1.2203512E-01;9278;  1.0326804E+00;  0.0000000E+00;  1.0934495E-02;  9.9332892E+02;  1.5131529E-01; -5.4126836E+03;3;  4.4279518E+01;  0.0000000E+00; -1.7383469E+01;0; -6.5263778E-02;  1.7698799E+04;  0.0000000E+00;  5.2153334E-02;  4.0000000E+04;  0.0000000E+00;  3.8884777E+04; -7.4568219E-02;  0.0000000E+00;  9.3044424E-03;  1.2090704E+04;
  1.7054132E+00;  9.9999998E-03; -1.1185883E-01;9279;  1.0299823E+00;  0.0000000E+00;  1.0291405E-02;  9.9269446E+02;  1.5131047E-01; -5.9273501E+03;3;  4.6397106E+01;  0.0000000E+00; -1.6055843E+01;0; -3.7130915E-02;  1.7679123E+04;  0.0000000E+00; -2.4536091E-03;  4.0000000E+04;  0.0000000E+00;  3.8890188E+04; -2.4565749E-02;  0.0000000E+00; -1.2565164E-02;  1.2798251E+04;
  1.7051799E+00;  9.9999998E-03; -2.1273257E-01;9269;  1.0653665E+00;  0.0000000E+00;  5.1559457E-03;  9.9302631E+02;  1.5152667E-01; -5.6584805E+03;3;  4.5040432E+01;  0.0000000E+00; -3.1967428E+01;0; -2.1855924E-01;  1.7641570E+04;  0.0000000E+00;  2.7534893E+01;  4.0000000E+04;  0.0000000E+00;  3.8904859E+04; -5.1087683E-01;  0.0000000E+00;  2.9231760E-01;  7.6695406E+04;
  1.7051792E+00;  9.9999998E-03; -2.2298776E-01;9268;  1.0722532E+00;  0.0000000E+00;  7.6928711E-04;  9.8972119E+02;  1.5164360E-01; -8.3402871E+03;3;  4.7155037E+01;  0.0000000E+00; -3.3951557E+01;0; -2.3073551E-01;  1.7510832E+04;  0.0000000E+00;  2.6551432E+01;  4.0000000E+04;  0.0000000E+00;  3.8926234E+04; -5.4730833E-01;  0.0000000E+00;  3.1657282E-01;  8.1551594E+04;
  1.7135633E+00;  9.9999998E-03; -2.6414409E-01;9320;  1.1030344E+00;  0.0000000E+00; -2.3321154E-02;  9.9382550E+02;  1.4762762E-01; -4.9965566E+03;3;  5.2295113E+01;  0.0000000E+00; -2.5411367E+01;0; -1.1913753E-01;  1.8673617E+04;  0.0000000E+00;  1.3401189E+01;  4.0000000E+04;  0.0000000E+00;  3.8768582E+04; -5.7788903E-01;  0.0000000E+00;  4.5875150E-01;  3.8623184E+04;
  1.7151527E+00;  9.9999998E-03; -2.5394678E-01;9321;  1.0928150E+00;  0.0000000E+00; -1.6645333E-02;  9.8966528E+02;  1.4748681E-01; -8.3585391E+03;3;  5.2825085E+01;  0.0000000E+00; -3.0150953E+01;0; -1.6216126E-01;  1.8546975E+04;  0.0000000E+00;  2.0319050E+01;  4.0000000E+04;  0.0000000E+00;  3.8834418E+04; -5.9614867E-01;  0.0000000E+00;  4.3398741E-01;  6.5395652E+04;
  1.7167020E+00;  9.9999998E-03; -2.4373846E-01;9322;  1.0822996E+00;  0.0000000E+00; -7.2985045E-03;  9.8670184E+02;  1.4731728E-01; -1.0749444E+04;3;  5.1910923E+01;  0.0000000E+00; -3.3744320E+01;0; -2.3073068E-01;  1.8481328E+04;  0.0000000E+00;  2.4606659E+01;  4.0000000E+04;  0.0000000E+00;  3.8875566E+04; -6.0098159E-01;  0.0000000E+00;  3.7025091E-01;  8.0610070E+04;
  1.7180177E+00;  9.9999998E-03; -2.3352183E-01;9323;  1.0727459E+00;  0.0000000E+00;  1.4506220E-03;  9.8586792E+02;  1.4712073E-01; -1.1418154E+04;3;  4.9918785E+01;  0.0000000E+00; -3.3543892E+01;0; -2.7050921E-01;  1.8502803E+04;  0.0000000E+00;  2.8401688E+01;  4.0000000E+04;  0.0000000E+00;  3.8885820E+04; -5.8828688E-01;  0.0000000E+00;  3.1777766E-01;  8.9066367E+04;
  1.7184957E+00;  9.9999998E-03; -1.9229180E-01;9327;  1.0490272E+00;  0.0000000E+00;  1.6442945E-02;  9.9671448E+02;  1.4667284E-01; -2.6541130E+03;3;  4.0615227E+01;  0.0000000E+00; -2.7065865E+01;0; -2.0695671E-01;  1.8981889E+04;  0.0000000E+00;  2.6722404E+01;  4.0000000E+04;  0.0000000E+00;  3.8831441E+04; -4.1161811E-01;  0.0000000E+00;  2.0466140E-01;  6.3087293E+04;
  1.7184900E+00;  9.9999998E-03; -1.8194966E-01;9328;  1.0455340E+00;  0.0000000E+00;  1.7607428E-02;  9.9766052E+02;  1.4662556E-01; -1.8898832E+03;3;  3.9167568E+01;  0.0000000E+00; -2.5572466E+01;0; -1.8161024E-01;  1.9034561E+04;  0.0000000E+00;  1.7407099E+01;  4.0000000E+04;  0.0000000E+00;  3.8806996E+04; -3.5204321E-01;  0.0000000E+00;  1.7043297E-01;  4.2123863E+04;
  1.7189181E+00;  9.9999998E-03; -2.2329026E-01;9324;  1.0646789E+00;  0.0000000E+00;  8.1158997E-03;  9.8727197E+02;  1.4692935E-01; -1.0280368E+04;3;  4.7251633E+01;  0.0000000E+00; -3.2349880E+01;0; -2.7559987E-01;  1.8601580E+04;  0.0000000E+00;  3.2518330E+01;  4.0000000E+04;  0.0000000E+00;  3.8873676E+04; -5.5930167E-01;  0.0000000E+00;  2.8370181E-01;  9.2980219E+04;
  1.7189112E+00;  9.9999998E-03; -2.0270649E-01;9326;  1.0531315E+00;  0.0000000E+00;  1.4971338E-02;  9.9403009E+02;  1.4671281E-01; -4.8218550E+03;3;  4.2304375E+01;  0.0000000E+00; -2.8015001E+01;0; -2.3317346E-01;  1.8884635E+04;  0.0000000E+00;  3.3894787E+01;  4.0000000E+04;  0.0000000E+00;  3.8838367E+04; -4.6741870E-01;  0.0000000E+00;  2.3424524E-01;  8.1777336E+04;
  1.7188473E+00;  9.9999998E-03; -1.7182140E-01;9329;  1.0425159E+00;  0.0000000E+00;  1.8208638E-02;  9.9749445E+02;  1.4656091E-01; -2.0237650E+03;3;  3.8332291E+01;  0.0000000E+00; -2.4540731E+01;0; -1.5477714E-01;  1.9059496E+04;  0.0000000E+00;  9.9371281E+00;  4.0000000E+04;  0.0000000E+00;  3.8776055E+04; -2.8953043E-01;  0.0000000E+00;  1.3475329E-01;  2.5524320E+04;
  1.7192137E+00;  9.9999998E-03; -2.1303082E-01;9325;  1.0582346E+00;  0.0000000E+00;  1.2445794E-02;  9.9037189E+02;  1.4678551E-01; -7.7757363E+03;3;  4.4728565E+01;  0.0000000E+00; -3.0238344E+01;0; -2.5852153E-01;  1.8744691E+04;  0.0000000E+00;  3.5420906E+01;  4.0000000E+04;  0.0000000E+00;  3.8852348E+04; -5.1760489E-01;  0.0000000E+00;  2.5908336E-01;  9.1597609E+04;
  1.7192820E+00;  9.9999998E-03; -1.6185504E-01;9330;  1.0398347E+00;  0.0000000E+00;  1.8333452E-02;  9.9695074E+02;  1.4649935E-01; -2.4625378E+03;3;  3.7989471E+01;  0.0000000E+00; -2.3517141E+01;0; -1.2472989E-01;  1.9064180E+04;  0.0000000E+00;  5.2442880E+00;  4.0000000E+04;  0.0000000E+00;  3.8759820E+04; -2.2425625E-01;  0.0000000E+00;  9.9526353E-02;  1.4786130E+04;
  1.7196405E+00;  9.9999998E-03; -1.5195389E-01;9331;  1.0373584E+00;  0.0000000E+00;  1.8114159E-02;  9.9625403E+02;  1.4645307E-01; -3.0247981E+03;3;  3.8139042E+01;  0.0000000E+00; -2.2385893E+01;0; -9.0474956E-02;  1.9051697E+04;  0.0000000E+00;  2.6255631E+00;  4.0000000E+04;  0.0000000E+00;  3.8760742E+04; -1.5634570E-01;  0.0000000E+00;  6.5870740E-02;  9.0742783E+03;
  1.7198831E+00;  9.9999998E-03; -1.4205174E-01;9332;  1.0349518E+00;  0.0000000E+00;  1.7626153E-02;  9.9544299E+02;  1.4642480E-01; -3.6793660E+03;3;  3.8864178E+01;  0.0000000E+00; -2.1270931E+01;0; -5.1700100E-02;  1.9026115E+04;  0.0000000E+00;  1.2548878E+00;  4.0000000E+04;  0.0000000E+00;  3.8772625E+04; -8.6200118E-02;  0.0000000E+00;  3.4500018E-02;  7.6048145E+03;
  1.7200047E+00;  9.9999998E-03; -1.3210443E-01;9333;  1.0325519E+00;  0.0000000E+00;  1.6922070E-02;  9.9459283E+02;  1.4641671E-01; -4.3655786E+03;3;  4.0206623E+01;  0.0000000E+00; -2.0069662E+01;0; -8.7555172E-03;  1.8992682E+04;  0.0000000E+00;  5.5892336E-01;  4.0000000E+04;  0.0000000E+00;  3.8788598E+04; -1.4643753E-02;  0.0000000E+00;  5.8882358E-03;  8.5806426E+03;
  1.7200358E+00;  9.9999998E-03; -1.2208320E-01;9334;  1.0301027E+00;  0.0000000E+00;  1.6054407E-02;  9.9372473E+02;  1.4641599E-01; -5.0664326E+03;3;  4.2322247E+01;  0.0000000E+00; -1.8587740E+01;0;  3.7544101E-02;  1.8957055E+04;  0.0000000E+00;  2.0930827E-01;  4.0000000E+04;  0.0000000E+00;  3.8803051E+04;  5.7243299E-02;  0.0000000E+00; -1.9699195E-02;  1.0035091E+04;
  1.7200283E+00;  9.9999998E-03; -1.1198136E-01;9335;  1.0275847E+00;  0.0000000E+00;  1.5054012E-02;  9.9296680E+02;  1.4642507E-01; -5.6783740E+03;3;  4.4825485E+01;  0.0000000E+00; -1.7351238E+01;0;  8.6048067E-02;  1.8924926E+04;  0.0000000E+00;  4.2800061E-02;  4.0000000E+04;  0.0000000E+00;  3.8813953E+04;  1.2826075E-01;  0.0000000E+00; -4.2212676E-02;  1.1210263E+04;
  1.7267683E+00;  9.9999998E-03; -2.6445928E-01;9375;  1.0936500E+00;  0.0000000E+00; -1.5066731E-02;  9.9635345E+02;  1.4343747E-01; -2.9363655E+03;3;  5.4600910E+01;  0.0000000E+00; -2.7822809E+01;0; -1.6873115E-01;  1.9919982E+04;  0.0000000E+00;  7.7573996E+00;  4.0000000E+04;  0.0000000E+00;  3.8670793E+04; -5.7911152E-01;  0.0000000E+00;  4.1038036E-01;  1.6690088E+04;
  1.7281727E+00;  9.9999998E-03; -2.5428173E-01;9376;  1.0840731E+00;  0.0000000E+00; -8.8215442E-03;  9.9195105E+02;  1.4334291E-01; -6.4776201E+03;3;  5.4437725E+01;  0.0000000E+00; -3.0725657E+01;0; -2.1064273E-01;  1.9763012E+04;  0.0000000E+00;  1.8956190E+01;  4.0000000E+04;  0.0000000E+00;  3.8733594E+04; -5.9928286E-01;  0.0000000E+00;  3.8864014E-01;  5.4007965E+04;
  1.7296895E+00;  9.9999998E-03; -2.4408613E-01;9377;  1.0741874E+00;  0.0000000E+00; -7.8754855E-04;  9.8763446E+02;  1.4323501E-01; -9.9451514E+03;3;  5.3082943E+01;  0.0000000E+00; -3.2534061E+01;0; -2.6934281E-01;  1.9624555E+04;  0.0000000E+00;  2.6523096E+01;  4.0000000E+04;  0.0000000E+00;  3.8783477E+04; -6.0581583E-01;  0.0000000E+00;  3.3647302E-01;  7.7460070E+04;
  1.7310581E+00;  9.9999998E-03; -2.3387808E-01;9378;  1.0650033E+00;  0.0000000E+00;  7.3483377E-03;  9.8523877E+02;  1.4309931E-01; -1.1864952E+04;3;  5.0577908E+01;  0.0000000E+00; -3.2171326E+01;0; -3.1089276E-01;  1.9574436E+04;  0.0000000E+00;  3.1979876E+01;  4.0000000E+04;  0.0000000E+00;  3.8805273E+04; -5.9409142E-01;  0.0000000E+00;  2.8319865E-01;  9.1307812E+04;
  1.7321489E+00;  9.9999998E-03; -1.8216930E-01;9383;  1.0404769E+00;  0.0000000E+00;  2.3105253E-02;  9.9686969E+02;  1.4257906E-01; -2.5149285E+03;3;  3.7658188E+01;  0.0000000E+00; -2.5936728E+01;0; -1.7966096E-01;  2.0139715E+04;  0.0000000E+00;  2.8593145E+01;  4.0000000E+04;  0.0000000E+00;  3.8751801E+04; -3.1941363E-01;  0.0000000E+00;  1.3975267E-01;  6.0273324E+04;
  1.7321159E+00;  9.9999998E-03; -2.2365367E-01;9379;  1.0573492E+00;  0.0000000E+00;  1.3746704E-02;  9.8529291E+02;  1.4294475E-01; -1.1815997E+04;3;  4.7396553E+01;  0.0000000E+00; -3.0956753E+01;0; -3.1635904E-01;  1.9623564E+04;  0.0000000E+00;  3.7193344E+01;  4.0000000E+04;  0.0000000E+00;  3.8801359E+04; -5.6305522E-01;  0.0000000E+00;  2.4669617E-01;  9.9073633E+04;
  1.7323261E+00;  9.9999998E-03; -1.9266254E-01;9382;  1.0432624E+00;  0.0000000E+00;  2.2025321E-02;  9.9482709E+02;  1.4263198E-01; -4.1556436E+03;3;  3.9535313E+01;  0.0000000E+00; -2.7032251E+01;0; -2.2093180E-01;  2.0050486E+04;  0.0000000E+00;  3.8514885E+01;  4.0000000E+04;  0.0000000E+00;  3.8762043E+04; -3.9207870E-01;  0.0000000E+00;  1.7114690E-01;  8.1755469E+04;
  1.7325016E+00;  9.9999998E-03; -1.7184502E-01;9384;  1.0381566E+00;  0.0000000E+00;  2.3737641E-02;  9.9721735E+02;  1.4250796E-01; -2.2352566E+03;3;  3.6419788E+01;  0.0000000E+00; -2.5038317E+01;0; -1.3471971E-01;  2.0187379E+04;  0.0000000E+00;  1.8107931E+01;  4.0000000E+04;  0.0000000E+00;  3.8716918E+04; -2.4099141E-01;  0.0000000E+00;  1.0627170E-01;  3.9371145E+04;
  1.7327075E+00;  9.9999998E-03; -2.1340045E-01;9380;  1.0513146E+00;  0.0000000E+00;  1.8036183E-02;  9.8756586E+02;  1.4279868E-01; -9.9872412E+03;3;  4.4502899E+01;  0.0000000E+00; -2.9184599E+01;0; -2.9500002E-01;  1.9749643E+04;  0.0000000E+00;  4.1685787E+01;  4.0000000E+04;  0.0000000E+00;  3.8782895E+04; -5.1628846E-01;  0.0000000E+00;  2.2128846E-01;  1.0119670E+05;
  1.7327143E+00;  9.9999998E-03; -2.0309003E-01;9381;  1.0467249E+00;  0.0000000E+00;  2.0640865E-02;  9.9120544E+02;  1.4269319E-01; -7.0638657E+03;3;  4.1731014E+01;  0.0000000E+00; -2.7661245E+01;0; -2.6056808E-01;  1.9909533E+04;  0.0000000E+00;  4.3079887E+01;  4.0000000E+04;  0.0000000E+00;  3.8765512E+04; -4.5818907E-01;  0.0000000E+00;  1.9762097E-01;  9.6165219E+04;
  1.7330993E+00;  9.9999998E-03; -1.6175660E-01;9385;  1.0361365E+00;  0.0000000E+00;  2.3836205E-02;  9.9684753E+02;  1.4243194E-01; -2.5316780E+03;3;  3.5710381E+01;  0.0000000E+00; -2.4091106E+01;0; -8.4349275E-02;  2.0211975E+04;  0.0000000E+00;  1.0416727E+01;  4.0000000E+04;  0.0000000E+00;  3.8682590E+04; -1.5755744E-01;  0.0000000E+00;  7.3208168E-02;  2.3891574E+04;
  1.7336496E+00;  9.9999998E-03; -1.5180399E-01;9386;  1.0342407E+00;  0.0000000E+00;  2.3472141E-02;  9.9628467E+02;  1.4236499E-01; -2.9829509E+03;3;  3.5711178E+01;  0.0000000E+00; -2.3121140E+01;0; -2.7849052E-02;  2.0217707E+04;  0.0000000E+00;  5.6355457E+00;  4.0000000E+04;  0.0000000E+00;  3.8666840E+04; -6.9546238E-02;  0.0000000E+00;  4.1697185E-02;  1.3880344E+04;
  1.7340506E+00;  9.9999998E-03; -1.4189744E-01;9387;  1.0323560E+00;  0.0000000E+00;  2.2788353E-02;  9.9565887E+02;  1.4232044E-01; -3.4847529E+03;3;  3.6352127E+01;  0.0000000E+00; -2.2120441E+01;0;  3.4629859E-02;  2.0205846E+04;  0.0000000E+00;  2.8713503E+00;  4.0000000E+04;  0.0000000E+00;  3.8669316E+04;  2.2470830E-02;  0.0000000E+00;  1.2159031E-02;  8.2070117E+03;
  1.7342850E+00;  9.9999998E-03; -1.3198248E-01;9388;  1.0303499E+00;  0.0000000E+00;  2.1856181E-02;  9.9494751E+02;  1.4229652E-01; -4.0553706E+03;3;  3.7672066E+01;  0.0000000E+00; -2.1114386E+01;0;  1.0215122E-01;  2.0179719E+04;  0.0000000E+00;  1.3442761E+00;  4.0000000E+04;  0.0000000E+00;  3.8682305E+04;  1.1735601E-01;  0.0000000E+00; -1.5204789E-02;  6.4135835E+03;
  1.7343683E+00;  9.9999998E-03; -1.2202123E-01;9389;  1.0281851E+00;  0.0000000E+00;  2.0742090E-02;  9.9417834E+02;  1.4229047E-01; -4.6725400E+03;3;  4.0344788E+01;  0.0000000E+00; -1.9722980E+01;0;  1.7310441E-01;  2.0144779E+04;  0.0000000E+00;  5.4137897E-01;  4.0000000E+04;  0.0000000E+00;  3.8699137E+04;  2.1343689E-01;  0.0000000E+00; -4.0332489E-02;  7.2634863E+03;
  1.7343550E+00;  9.9999998E-03; -1.1199097E-01;9390;  1.0258188E+00;  0.0000000E+00;  1.9465882E-02;  9.9340436E+02;  1.4229554E-01; -5.2938164E+03;3;  4.3129143E+01;  0.0000000E+00; -1.8548328E+01;0;  2.4562398E-01;  2.0107564E+04;  0.0000000E+00;  1.4820249E-01;  4.0000000E+04;  0.0000000E+00;  3.8714883E+04;  3.0889621E-01;  0.0000000E+00; -6.3272238E-02;  8.7205049E+03;
  1.7398703E+00;  9.9999998E-03; -2.6479593E-01;9429;  1.0838326E+00;  0.0000000E+00; -6.0094111E-03;  9.9833417E+02;  1.3986664E-01; -1.3335659E+03;3;  5.6788315E+01;  0.0000000E+00; -2.8245888E+01;0; -2.4290878E-01;  2.1080271E+04;  0.0000000E+00;  2.1635482E+00;  4.0000000E+04;  0.0000000E+00;  3.8567871E+04; -5.7338548E-01;  0.0000000E+00;  3.3047670E-01;  6.7260308E+03;
  1.7409809E+00;  9.9999998E-03; -2.5464660E-01;9430;  1.0750232E+00;  0.0000000E+00; -1.3468546E-03;  9.9496362E+02;  1.3980199E-01; -4.0296084E+03;3;  5.5911266E+01;  0.0000000E+00; -3.0386965E+01;0; -2.6737294E-01;  2.0950631E+04;  0.0000000E+00;  1.1924632E+01;  4.0000000E+04;  0.0000000E+00;  3.8617988E+04; -5.9464258E-01;  0.0000000E+00;  3.2726964E-01;  3.1478629E+04;
  1.7423416E+00;  9.9999998E-03; -2.4446958E-01;9431;  1.0659364E+00;  0.0000000E+00;  5.0519956E-03;  9.9005774E+02;  1.3974167E-01; -7.9494141E+03;3;  5.4153442E+01;  0.0000000E+00; -3.1414108E+01;0; -3.1115773E-01;  2.0763219E+04;  0.0000000E+00;  2.4379013E+01;  4.0000000E+04;  0.0000000E+00;  3.8670664E+04; -6.0222256E-01;  0.0000000E+00;  2.9106483E-01;  6.4766930E+04;
  1.7437019E+00;  9.9999998E-03; -2.3427549E-01;9432;  1.0573618E+00;  0.0000000E+00;  1.2182392E-02;  9.8608887E+02;  1.3966417E-01; -1.1115087E+04;3;  5.1132641E+01;  0.0000000E+00; -3.0687876E+01;0; -3.4940159E-01;  2.0631092E+04;  0.0000000E+00;  3.2965214E+01;  4.0000000E+04;  0.0000000E+00;  3.8702629E+04; -5.9112680E-01;  0.0000000E+00;  2.4172521E-01;  8.5819805E+04;
  1.7448653E+00;  9.9999998E-03; -2.2406478E-01;9433;  1.0501652E+00;  0.0000000E+00;  1.8141761E-02;  9.8440753E+02;  1.3955888E-01; -1.2450979E+04;3;  4.7689495E+01;  0.0000000E+00; -2.9483059E+01;0; -3.5511672E-01;  2.0603369E+04;  0.0000000E+00;  3.9676849E+01;  4.0000000E+04;  0.0000000E+00;  3.8707785E+04; -5.5865467E-01;  0.0000000E+00;  2.0353793E-01;  9.8304977E+04;
  1.7456028E+00;  9.9999998E-03; -1.8262331E-01;9437;  1.0356163E+00;  0.0000000E+00;  2.7503643E-02;  9.9522345E+02;  1.3917583E-01; -3.8127144E+03;3;  3.6078300E+01;  0.0000000E+00; -2.5954693E+01;0; -1.7236024E-01;  2.1127295E+04;  0.0000000E+00;  4.1760036E+01;  4.0000000E+04;  0.0000000E+00;  3.8669641E+04; -2.7863392E-01;  0.0000000E+00;  1.0627367E-01;  7.8401594E+04;
  1.7456985E+00;  9.9999998E-03; -1.7209612E-01;9438;  1.0341175E+00;  0.0000000E+00;  2.8174464E-02;  9.9663629E+02;  1.3911554E-01; -2.6848503E+03;3;  3.4392212E+01;  0.0000000E+00; -2.5076298E+01;0; -1.0668138E-01;  2.1206109E+04;  0.0000000E+00;  3.0032927E+01;  4.0000000E+04;  0.0000000E+00;  3.8650680E+04; -1.8431486E-01;  0.0000000E+00;  7.7633478E-02;  5.6453418E+04;
  1.7456887E+00;  9.9999998E-03; -2.1382661E-01;9434;  1.0445867E+00;  0.0000000E+00;  2.2336975E-02;  9.8522565E+02;  1.3943492E-01; -1.1792631E+04;3;  4.4449677E+01;  0.0000000E+00; -2.8255896E+01;0; -3.3015573E-01;  2.0678807E+04;  0.0000000E+00;  4.5617813E+01;  4.0000000E+04;  0.0000000E+00;  3.8694281E+04; -5.0713873E-01;  0.0000000E+00;  1.7698301E-01;  1.0441970E+05;
  1.7459162E+00;  9.9999998E-03; -1.9315499E-01;9436;  1.0376426E+00;  0.0000000E+00;  2.6523892E-02;  9.9192010E+02;  1.3923424E-01; -6.4484365E+03;3;  3.8452942E+01;  0.0000000E+00; -2.6727043E+01;0; -2.3208132E-01;  2.0992416E+04;  0.0000000E+00;  4.8909679E+01;  4.0000000E+04;  0.0000000E+00;  3.8667184E+04; -3.6417904E-01;  0.0000000E+00;  1.3209772E-01;  9.5492586E+04;
  1.7460526E+00;  9.9999998E-03; -2.0353943E-01;9435;  1.0404925E+00;  0.0000000E+00;  2.5023220E-02;  9.8806891E+02;  1.3931946E-01; -9.5213154E+03;3;  4.1195908E+01;  0.0000000E+00; -2.7231001E+01;0; -2.8631917E-01;  2.0824850E+04;  0.0000000E+00;  4.9497459E+01;  4.0000000E+04;  0.0000000E+00;  3.8675660E+04; -4.4097000E-01;  0.0000000E+00;  1.5465084E-01;  1.0386167E+05;
  1.7462918E+00;  9.9999998E-03; -1.6179585E-01;9439;  1.0328624E+00;  0.0000000E+00;  2.8359005E-02;  9.9660815E+02;  1.3903581E-01; -2.7064556E+03;3;  3.3435131E+01;  0.0000000E+00; -2.4033281E+01;0; -3.3266041E-02;  2.1249182E+04;  0.0000000E+00;  1.8948248E+01;  4.0000000E+04;  0.0000000E+00;  3.8609215E+04; -8.1912011E-02;  0.0000000E+00;  4.8645969E-02;  3.6798047E+04;
  1.7470217E+00;  9.9999998E-03; -1.5171476E-01;9440;  1.0316610E+00;  0.0000000E+00;  2.7994402E-02;  9.9615204E+02;  1.3895738E-01; -3.0691885E+03;3;  3.3319473E+01;  0.0000000E+00; -2.3032534E+01;0;  4.8370413E-02;  2.1273455E+04;  0.0000000E+00;  1.1051431E+01;  4.0000000E+04;  0.0000000E+00;  3.8574781E+04;  2.7456857E-02;  0.0000000E+00;  2.0913556E-02;  2.2565994E+04;
  1.7476413E+00;  9.9999998E-03; -1.4174521E-01;9441;  1.0303200E+00;  0.0000000E+00;  2.7191898E-02;  9.9566522E+02;  1.3889383E-01; -3.4563533E+03;3;  3.4056538E+01;  0.0000000E+00; -2.2062201E+01;0;  1.3749278E-01;  2.1280943E+04;  0.0000000E+00;  6.0461726E+00;  4.0000000E+04;  0.0000000E+00;  3.8560121E+04;  1.4273956E-01;  0.0000000E+00; -5.2467929E-03;  1.3157371E+04;
  1.7480702E+00;  9.9999998E-03; -1.3181013E-01;9442;  1.0287329E+00;  0.0000000E+00;  2.6110196E-02;  9.9514362E+02;  1.3884918E-01; -3.8713491E+03;3;  3.5982426E+01;  0.0000000E+00; -2.1296951E+01;0;  2.3246248E-01;  2.1271375E+04;  0.0000000E+00;  3.0395582E+00;  4.0000000E+04;  0.0000000E+00;  3.8563320E+04;  2.6244304E-01;  0.0000000E+00; -2.9980551E-02;  7.4406079E+03;
  1.7483032E+00;  9.9999998E-03; -1.2187023E-01;9443;  1.0268064E+00;  0.0000000E+00;  2.4835154E-02;  9.9454358E+02;  1.3882534E-01; -4.3491265E+03;3;  3.8573135E+01;  0.0000000E+00; -2.0283789E+01;0;  3.3079475E-01;  2.1247463E+04;  0.0000000E+00;  1.3291298E+00;  4.0000000E+04;  0.0000000E+00;  3.8576828E+04;  3.8431707E-01;  0.0000000E+00; -5.3522304E-02;  5.1592476E+03;
  1.7483661E+00;  9.9999998E-03; -1.1189635E-01;9444;  1.0245556E+00;  0.0000000E+00;  2.3396943E-02;  9.9390588E+02;  1.3882191E-01; -4.8572061E+03;3;  4.1813995E+01;  0.0000000E+00; -1.9233166E+01;0;  4.2951763E-01;  2.1213920E+04;  0.0000000E+00;  4.3328360E-01;  4.0000000E+04;  0.0000000E+00;  3.8594043E+04;  5.0557506E-01;  0.0000000E+00; -7.6057419E-02;  5.7409229E+03;
  1.7527640E+00;  9.9999998E-03; -2.6515010E-01;9482;  1.0738481E+00;  0.0000000E+00;  2.5927552E-03;  1.0000292E+03;  1.3684069E-01;  2.3220873E+01;3;  5.8790474E+01;  0.0000000E+00; -2.6887203E+01;0; -3.2169610E-01;  2.2152193E+04;  0.0000000E+00;  7.0369163E+00;  4.0000000E+04;  0.0000000E+00;  3.8456059E+04; -5.6240433E-01;  0.0000000E+00;  2.4070822E-01;  1.6742844E+04;
  1.7537401E+00;  9.9999998E-03; -2.5502893E-01;9483;  1.0655020E+00;  0.0000000E+00;  6.2240511E-03;  9.9761847E+02;  1.3678835E-01; -1.8923719E+03;3;  5.7297638E+01;  0.0000000E+00; -2.8739983E+01;0; -3.3922070E-01;  2.2059070E+04;  0.0000000E+00;  2.8960125E+00;  4.0000000E+04;  0.0000000E+00;  3.8496562E+04; -5.8473712E-01;  0.0000000E+00;  2.4551642E-01;  5.1480288E+03;
  1.7548286E+00;  9.9999998E-03; -2.4487968E-01;9484;  1.0573245E+00;  0.0000000E+00;  1.1205375E-02;  9.9343427E+02;  1.3675095E-01; -5.2138711E+03;3;  5.4935047E+01;  0.0000000E+00; -2.9128456E+01;0; -3.6955374E-01;  2.1884506E+04;  0.0000000E+00;  1.5790165E+01;  4.0000000E+04;  0.0000000E+00;  3.8540316E+04; -5.9217530E-01;  0.0000000E+00;  2.2262157E-01;  4.1258477E+04;
  1.7560693E+00;  9.9999998E-03; -2.3470615E-01;9485;  1.0496013E+00;  0.0000000E+00;  1.6767439E-02;  9.8855408E+02;  1.3671643E-01; -9.0824736E+03;3;  5.1746536E+01;  0.0000000E+00; -2.8499626E+01;0; -3.9488918E-01;  2.1691348E+04;  0.0000000E+00;  2.9068129E+01;  4.0000000E+04;  0.0000000E+00;  3.8576328E+04; -5.8060467E-01;  0.0000000E+00;  1.8571550E-01;  7.0618953E+04;
  1.7572528E+00;  9.9999998E-03; -2.2451350E-01;9486;  1.0430632E+00;  0.0000000E+00;  2.1850076E-02;  9.8511774E+02;  1.3666271E-01; -1.1800721E+04;3;  4.8132416E+01;  0.0000000E+00; -2.7711689E+01;0; -3.9590552E-01;  2.1575244E+04;  0.0000000E+00;  3.8856743E+01;  4.0000000E+04;  0.0000000E+00;  3.8589949E+04; -5.4649448E-01;  0.0000000E+00;  1.5058896E-01;  8.9547758E+04;
  1.7582184E+00;  9.9999998E-03; -2.1429707E-01;9487;  1.0380449E+00;  0.0000000E+00;  2.5720449E-02;  9.8408643E+02;  1.3658011E-01; -1.2610934E+04;3;  4.4472561E+01;  0.0000000E+00; -2.6903414E+01;0; -3.6644971E-01;  2.1570529E+04;  0.0000000E+00;  4.6802368E+01;  4.0000000E+04;  0.0000000E+00;  3.8582328E+04; -4.9067536E-01;  0.0000000E+00;  1.2422565E-01;  1.0068866E+05;
  1.7587566E+00;  9.9999998E-03; -1.7263022E-01;9491;  1.0302571E+00;  0.0000000E+00;  3.1447459E-02;  9.9526978E+02;  1.3625541E-01; -3.7472803E+03;3;  3.2335876E+01;  0.0000000E+00; -2.4125605E+01;0; -7.6180786E-02;  2.2111902E+04;  0.0000000E+00;  4.4604820E+01;  4.0000000E+04;  0.0000000E+00;  3.8556559E+04; -1.2191083E-01;  0.0000000E+00;  4.5730043E-02;  7.4026852E+04;
  1.7588582E+00;  9.9999998E-03; -2.0403983E-01;9488;  1.0344781E+00;  0.0000000E+00;  2.8286388E-02;  9.8545428E+02;  1.3648286E-01; -1.1522390E+04;3;  4.0882786E+01;  0.0000000E+00; -2.6178368E+01;0; -3.1282511E-01;  2.1664473E+04;  0.0000000E+00;  5.2972881E+01;  4.0000000E+04;  0.0000000E+00;  3.8564781E+04; -4.1693732E-01;  0.0000000E+00;  1.0411222E-01;  1.0494804E+05;
  1.7589213E+00;  9.9999998E-03; -1.8324186E-01;9490;  1.0309139E+00;  0.0000000E+00;  3.0815903E-02;  9.9239453E+02;  1.3631341E-01; -6.0244434E+03;3;  3.4437706E+01;  0.0000000E+00; -2.5184361E+01;0; -1.6418299E-01;  2.1986822E+04;  0.0000000E+00;  5.3633247E+01;  4.0000000E+04;  0.0000000E+00;  3.8552535E+04; -2.3092313E-01;  0.0000000E+00;  6.6740148E-02;  9.1870828E+04;
  1.7590793E+00;  9.9999998E-03; -1.9370788E-01;9489;  1.0322070E+00;  0.0000000E+00;  2.9828666E-02;  9.8858252E+02;  1.3638720E-01; -9.0431094E+03;3;  3.7474163E+01;  0.0000000E+00; -2.5815413E+01;0; -2.4343944E-01;  2.1820385E+04;  0.0000000E+00;  5.6015285E+01;  4.0000000E+04;  0.0000000E+00;  3.8551059E+04; -3.2935137E-01;  0.0000000E+00;  8.5911930E-02;  1.0225330E+05;
  1.7590704E+00;  9.9999998E-03; -1.6208228E-01;9492;  1.0298728E+00;  0.0000000E+00;  3.1756777E-02;  9.9620935E+02;  1.3619000E-01; -3.0023799E+03;3;  3.1140469E+01;  0.0000000E+00; -2.2889456E+01;0;  2.1432405E-02;  2.2181865E+04;  0.0000000E+00;  3.1774870E+01;  4.0000000E+04;  0.0000000E+00;  3.8531820E+04; -1.8307458E-03;  0.0000000E+00;  2.3263151E-02;  5.3026082E+04;
  1.7598287E+00;  9.9999998E-03; -1.5177609E-01;9493;  1.0294393E+00;  0.0000000E+00;  3.1484634E-02;  9.9598346E+02;  1.3611187E-01; -3.1797322E+03;3;  3.1177898E+01;  0.0000000E+00; -2.1418756E+01;0;  1.2934670E-01;  2.2220955E+04;  0.0000000E+00;  2.0178604E+01;  4.0000000E+04;  0.0000000E+00;  3.8489176E+04;  1.2819611E-01;  0.0000000E+00;  1.1505982E-03;  3.4844402E+04;
  1.7606584E+00;  9.9999998E-03; -1.4166722E-01;9494;  1.0286793E+00;  0.0000000E+00;  3.0630145E-02;  9.9553613E+02;  1.3603263E-01; -3.5319976E+03;3;  3.2958530E+01;  0.0000000E+00; -1.9987347E+01;0;  2.4612144E-01;  2.2246018E+04;  0.0000000E+00;  1.1871002E+01;  4.0000000E+04;  0.0000000E+00;  3.8455859E+04;  2.6604801E-01;  0.0000000E+00; -1.9926582E-02;  2.1621914E+04;
  1.7613367E+00;  9.9999998E-03; -1.3165788E-01;9495;  1.0274704E+00;  0.0000000E+00;  2.9424436E-02;  9.9513239E+02;  1.3597007E-01; -3.8497883E+03;3;  3.4850002E+01;  0.0000000E+00; -1.9368912E+01;0;  3.6918712E-01;  2.2256846E+04;  0.0000000E+00;  6.4576416E+00;  4.0000000E+04;  0.0000000E+00;  3.8441664E+04;  4.0958622E-01;  0.0000000E+00; -4.0399108E-02;  1.2658493E+04;
  1.7618002E+00;  9.9999998E-03; -1.2168858E-01;9496;  1.0259799E+00;  0.0000000E+00;  2.8112262E-02;  9.9473553E+02;  1.3592680E-01; -4.1624019E+03;3;  3.3035328E+01;  0.0000000E+00; -2.0183926E+01;0;  4.9525714E-01;  2.2252135E+04;  0.0000000E+00;  3.1175685E+00;  4.0000000E+04;  0.0000000E+00;  3.8443855E+04;  5.5612797E-01;  0.0000000E+00; -6.0870830E-02;  6.9055522E+03;
  1.7620426E+00;  9.9999998E-03; -1.1172422E-01;9497;  1.0248276E+00;  0.0000000E+00;  2.6819773E-02;  9.9429382E+02;  1.3590589E-01; -4.5109463E+03;3;  2.0740427E+01;  0.0000000E+00; -2.2576841E+01;0;  6.2041295E-01;  2.2232734E+04;  0.0000000E+00;  1.1976442E+00;  4.0000000E+04;  0.0000000E+00;  3.8456523E+04;  7.0210534E-01;  0.0000000E+00; -8.1692412E-02;  4.0449495E+03;
  1.7664133E+00;  9.9999998E-03; -2.5542086E-01;9535;  1.0557445E+00;  0.0000000E+00;  1.3125824E-02;  9.9954321E+02;  1.3423456E-01; -3.6006512E+02;3;  5.8597103E+01;  0.0000000E+00; -2.5363939E+01;0; -4.1429362E-01;  2.3061625E+04;  0.0000000E+00;  4.8495641E+00;  4.0000000E+04;  0.0000000E+00;  3.8369086E+04; -5.7178867E-01;  0.0000000E+00;  1.5749505E-01;  9.5996699E+03;
  1.7673036E+00;  9.9999998E-03; -2.4530108E-01;9536;  1.0483664E+00;  0.0000000E+00;  1.6792681E-02;  9.9667822E+02;  1.3420606E-01; -2.6166516E+03;3;  5.5757702E+01;  0.0000000E+00; -2.5990940E+01;0; -4.3339586E-01;  2.2938184E+04;  0.0000000E+00;  3.7325685E+00;  4.0000000E+04;  0.0000000E+00;  3.8402598E+04; -5.7767648E-01;  0.0000000E+00;  1.4428061E-01;  1.2887071E+04;
  1.7683102E+00;  9.9999998E-03; -2.3515375E-01;9537;  1.0416541E+00;  0.0000000E+00;  2.1006439E-02;  9.9223871E+02;  1.3419071E-01; -6.1094712E+03;3;  5.2370411E+01;  0.0000000E+00; -2.5981453E+01;0; -4.4730765E-01;  2.2745924E+04;  0.0000000E+00;  1.8084358E+01;  4.0000000E+04;  0.0000000E+00;  3.8433441E+04; -5.6409585E-01;  0.0000000E+00;  1.1678821E-01;  4.5267062E+04;
  1.7694023E+00;  9.9999998E-03; -2.2498322E-01;9538;  1.0359533E+00;  0.0000000E+00;  2.5080303E-02;  9.8769031E+02;  1.3417612E-01; -9.6822764E+03;3;  4.8613811E+01;  0.0000000E+00; -2.5305141E+01;0; -4.4111425E-01;  2.2561781E+04;  0.0000000E+00;  3.2511089E+01;  4.0000000E+04;  0.0000000E+00;  3.8451199E+04; -5.2772909E-01;  0.0000000E+00;  8.6614847E-02;  7.1501148E+04;
  1.7704147E+00;  9.9999998E-03; -2.1479067E-01;9539;  1.0316032E+00;  0.0000000E+00;  2.8245546E-02;  9.8476306E+02;  1.3413893E-01; -1.1975962E+04;3;  4.4670448E+01;  0.0000000E+00; -2.4831289E+01;0; -4.0460372E-01;  2.2463480E+04;  0.0000000E+00;  4.3967899E+01;  4.0000000E+04;  0.0000000E+00;  3.8449230E+04; -4.6803337E-01;  0.0000000E+00;  6.3429639E-02;  8.8998758E+04;
  1.7712181E+00;  9.9999998E-03; -2.0456633E-01;9540;  1.0286465E+00;  0.0000000E+00;  3.0451264E-02;  9.8418799E+02;  1.3407633E-01; -1.2420706E+04;3;  4.0673302E+01;  0.0000000E+00; -2.4378290E+01;0; -3.4126475E-01;  2.2474248E+04;  0.0000000E+00;  5.3189491E+01;  4.0000000E+04;  0.0000000E+00;  3.8433688E+04; -3.8756984E-01;  0.0000000E+00;  4.6305079E-02;  9.9149250E+04;
  1.7718174E+00;  9.9999998E-03; -1.7335644E-01;9543;  1.0264539E+00;  0.0000000E+00;  3.3481758E-02;  9.9256921E+02;  1.3384308E-01; -5.8344727E+03;3;  3.0289192E+01;  0.0000000E+00; -2.1947739E+01;0; -4.8905995E-02;  2.2891035E+04;  0.0000000E+00;  5.7996693E+01;  4.0000000E+04;  0.0000000E+00;  3.8421980E+04; -5.6180913E-02;  0.0000000E+00;  7.2749192E-03;  8.7139383E+04;
  1.7718333E+00;  9.9999998E-03; -1.6267969E-01;9544;  1.0269411E+00;  0.0000000E+00;  3.3771660E-02;  9.9503204E+02;  1.3378309E-01; -3.9006472E+03;3;  2.8988352E+01;  0.0000000E+00; -2.0168747E+01;0;  7.2970226E-02;  2.3006361E+04;  0.0000000E+00;  4.7717373E+01;  4.0000000E+04;  0.0000000E+00;  3.8427484E+04;  7.8869119E-02;  0.0000000E+00; -5.8988966E-03;  6.9812516E+04;
  1.7717239E+00;  9.9999998E-03; -1.9428463E-01;9541;  1.0269605E+00;  0.0000000E+00;  3.1906791E-02;  9.8583618E+02;  1.3399565E-01; -1.1121825E+04;3;  3.6577808E+01;  0.0000000E+00; -2.3830309E+01;0; -2.5769779E-01;  2.2577455E+04;  0.0000000E+00;  5.9718193E+01;  4.0000000E+04;  0.0000000E+00;  3.8416910E+04; -2.9006451E-01;  0.0000000E+00;  3.2366730E-02;  1.0234148E+05;
  1.7718978E+00;  9.9999998E-03; -1.8390140E-01;9542;  1.0263234E+00;  0.0000000E+00;  3.2886267E-02;  9.8900397E+02;  1.3391332E-01; -8.6333057E+03;3;  3.2930408E+01;  0.0000000E+00; -2.3118937E+01;0; -1.5940295E-01;  2.2732803E+04;  0.0000000E+00;  6.1827290E+01;  4.0000000E+04;  0.0000000E+00;  3.8411672E+04; -1.7901953E-01;  0.0000000E+00;  1.9616578E-02;  9.8285703E+04;
  1.7723262E+00;  9.9999998E-03; -1.5209989E-01;9545;  1.0273091E+00;  0.0000000E+00;  3.3559155E-02;  9.9571191E+02;  1.3371916E-01; -3.3656191E+03;3;  2.9568502E+01;  0.0000000E+00; -1.7790285E+01;0;  2.0613778E-01;  2.3069555E+04;  0.0000000E+00;  3.4073265E+01;  4.0000000E+04;  0.0000000E+00;  3.8402020E+04;  2.2601593E-01;  0.0000000E+00; -1.9878142E-02;  5.0254062E+04;
  1.7731955E+00;  9.9999998E-03; -1.4175811E-01;9546;  1.0271398E+00;  0.0000000E+00;  3.2682553E-02;  9.9541803E+02;  1.3364376E-01; -3.5939629E+03;3;  3.1259596E+01;  0.0000000E+00; -1.6147404E+01;0;  3.4891936E-01;  2.3106695E+04;  0.0000000E+00;  2.1826860E+01;  4.0000000E+04;  0.0000000E+00;  3.8360508E+04;  3.8293442E-01;  0.0000000E+00; -3.4015048E-02;  3.3390184E+04;
  1.7741084E+00;  9.9999998E-03; -1.3160549E-01;9547;  1.0272033E+00;  0.0000000E+00;  3.1868931E-02;  9.9502032E+02;  1.3357031E-01; -3.9031926E+03;3;  1.8269197E+01;  0.0000000E+00; -2.2147264E+01;0;  4.9816465E-01;  2.3133637E+04;  0.0000000E+00;  1.2847817E+01;  4.0000000E+04;  0.0000000E+00;  3.8327141E+04;  5.4698944E-01;  0.0000000E+00; -4.8824772E-02;  2.0903824E+04;
  1.7748487E+00;  9.9999998E-03; -1.2155756E-01;9548;  1.0331132E+00;  0.0000000E+00;  3.3328101E-02;  9.9473676E+02;  1.3351162E-01; -4.1231484E+03;3; -3.7864300E+01;  0.0000000E+00; -3.3385632E+01;0;  6.5102327E-01;  2.3149973E+04;  0.0000000E+00;  6.8453317E+00;  4.0000000E+04;  0.0000000E+00;  3.8311328E+04;  7.1614534E-01;  0.0000000E+00; -6.5122046E-02;  1.2260034E+04;
  1.7753456E+00;  9.9999998E-03; -1.1155736E-01;9549;  1.0444938E+00;  0.0000000E+00;  3.4305304E-02;  9.9448352E+02;  1.3346970E-01; -4.3198457E+03;3; -6.0192825E+01;  0.0000000E+00; -2.5278452E+01;0;  8.0051768E-01;  2.3152152E+04;  0.0000000E+00;  3.0860987E+00;  4.0000000E+04;  0.0000000E+00;  3.8310961E+04;  8.8281918E-01;  0.0000000E+00; -8.2301483E-02;  6.5406021E+03;
  1.7797788E+00;  9.9999998E-03; -2.4572258E-01;9586;  1.0392826E+00;  0.0000000E+00;  2.1309309E-02;  9.9893658E+02;  1.3205354E-01; -8.2980365E+02;3;  5.6904640E+01;  0.0000000E+00; -2.1876823E+01;0; -4.9450424E-01;  2.3876771E+04;  0.0000000E+00;  2.8857353E+00;  4.0000000E+04;  0.0000000E+00;  3.8261004E+04; -5.6102377E-01;  0.0000000E+00;  6.6519529E-02;  5.0091616E+03;
  1.7805802E+00;  9.9999998E-03; -2.3560257E-01;9587;  1.0334246E+00;  0.0000000E+00;  2.4544897E-02;  9.9588544E+02;  1.3204098E-01; -3.2085923E+03;3;  5.3268925E+01;  0.0000000E+00; -2.2370617E+01;0; -5.0285774E-01;  2.3739197E+04;  0.0000000E+00;  3.0834191E+00;  4.0000000E+04;  0.0000000E+00;  3.8284828E+04; -5.4465264E-01;  0.0000000E+00;  4.1794915E-02;  1.5680566E+04;
  1.7814704E+00;  9.9999998E-03; -2.2545718E-01;9588;  1.0287015E+00;  0.0000000E+00;  2.7517481E-02;  9.9157678E+02;  1.3204204E-01; -6.5636748E+03;3;  4.9182583E+01;  0.0000000E+00; -2.2330462E+01;0; -4.8799071E-01;  2.3549898E+04;  0.0000000E+00;  1.8494280E+01;  4.0000000E+04;  0.0000000E+00;  3.8299945E+04; -5.0494123E-01;  0.0000000E+00;  1.6950514E-02;  4.4328074E+04;
  1.7824122E+00;  9.9999998E-03; -2.1528979E-01;9589;  1.0251642E+00;  0.0000000E+00;  2.9858127E-02;  9.8741205E+02;  1.3203856E-01; -9.8012568E+03;3;  4.4848255E+01;  0.0000000E+00; -2.1738831E+01;0; -4.4402987E-01;  2.3379910E+04;  0.0000000E+00;  3.4885197E+01;  4.0000000E+04;  0.0000000E+00;  3.8300266E+04; -4.4137591E-01;  0.0000000E+00; -2.6539501E-03;  6.8628539E+04;
  1.7832743E+00;  9.9999998E-03; -2.0509711E-01;9590;  1.0228609E+00;  0.0000000E+00;  3.1596057E-02;  9.8486548E+02;  1.3201621E-01; -1.1775438E+04;3;  4.0553226E+01;  0.0000000E+00; -2.0982830E+01;0; -3.7264052E-01;  2.3294873E+04;  0.0000000E+00;  4.8621017E+01;  4.0000000E+04;  0.0000000E+00;  3.8285852E+04; -3.5539848E-01;  0.0000000E+00; -1.7242044E-02;  8.5573414E+04;
  1.7839603E+00;  9.9999998E-03; -1.9486313E-01;9591;  1.0217760E+00;  0.0000000E+00;  3.2734498E-02;  9.8451013E+02;  1.3196912E-01; -1.2044851E+04;3;  3.5853752E+01;  0.0000000E+00; -2.0271902E+01;0; -2.7661973E-01;  2.3311656E+04;  0.0000000E+00;  5.9175282E+01;  4.0000000E+04;  0.0000000E+00;  3.8265750E+04; -2.4961551E-01;  0.0000000E+00; -2.7004221E-02;  9.5180703E+04;
  1.7844130E+00;  9.9999998E-03; -1.8455422E-01;9592;  1.0217996E+00;  0.0000000E+00;  3.3495318E-02;  9.8616663E+02;  1.3189989E-01; -1.0752588E+04;3;  3.1520693E+01;  0.0000000E+00; -1.9430204E+01;0; -1.6119936E-01;  2.3412084E+04;  0.0000000E+00;  6.5695961E+01;  4.0000000E+04;  0.0000000E+00;  3.8253305E+04; -1.2752648E-01;  0.0000000E+00; -3.3672892E-02;  9.7519344E+04;
  1.7846296E+00;  9.9999998E-03; -1.7412025E-01;9593;  1.0226759E+00;  0.0000000E+00;  3.3908281E-02;  9.8914386E+02;  1.3182737E-01; -8.4368125E+03;3;  2.8162659E+01;  0.0000000E+00; -1.7791061E+01;0; -2.9829204E-02;  2.3557781E+04;  0.0000000E+00;  6.6909691E+01;  4.0000000E+04;  0.0000000E+00;  3.8257086E+04;  7.9461746E-03;  0.0000000E+00; -3.7775379E-02;  9.2782125E+04;
  1.7846935E+00;  9.9999998E-03; -1.6350909E-01;9594;  1.0239540E+00;  0.0000000E+00;  3.3895638E-02;  9.9238654E+02;  1.3175841E-01; -5.9164561E+03;3;  2.6887682E+01;  0.0000000E+00; -1.5121194E+01;0;  1.1491060E-01;  2.3704977E+04;  0.0000000E+00;  6.2052570E+01;  4.0000000E+04;  0.0000000E+00;  3.8275281E+04;  1.5532048E-01;  0.0000000E+00; -4.0409882E-02;  8.1787109E+04;
  1.7848911E+00;  9.9999998E-03; -1.5278231E-01;9595;  1.0250021E+00;  0.0000000E+00;  3.3344820E-02;  9.9457806E+02;  1.3169807E-01; -4.2126777E+03;3;  2.8300663E+01;  0.0000000E+00; -1.1835627E+01;0;  2.7093297E-01;  2.3812887E+04;  0.0000000E+00;  5.1019524E+01;  4.0000000E+04;  0.0000000E+00;  3.8283238E+04;  3.1441182E-01;  0.0000000E+00; -4.3478847E-02;  6.5677570E+04;
  1.7854995E+00;  9.9999998E-03; -1.4216182E-01;9596;  1.0255986E+00;  0.0000000E+00;  3.2337464E-02;  9.9516864E+02;  1.3163555E-01; -3.7518362E+03;3;  2.5426702E+01;  0.0000000E+00; -1.1217154E+01;0;  4.3572122E-01;  2.3873475E+04;  0.0000000E+00;  3.6791580E+01;  4.0000000E+04;  0.0000000E+00;  3.8260336E+04;  4.8426211E-01;  0.0000000E+00; -4.8540898E-02;  4.7776227E+04;
  1.7864398E+00;  9.9999998E-03; -1.3177112E-01;9597;  1.0326438E+00;  0.0000000E+00;  3.4255173E-02;  9.9490247E+02;  1.3156666E-01; -3.9552263E+03;3; -4.3670921E+01;  0.0000000E+00; -2.8139015E+01;0;  6.1025411E-01;  2.3910035E+04;  0.0000000E+00;  2.3763176E+01;  4.0000000E+04;  0.0000000E+00;  3.8220492E+04;  6.6872722E-01;  0.0000000E+00; -5.8473118E-02;  3.2071031E+04;
  1.7874125E+00;  9.9999998E-03; -1.2157459E-01;9598;  1.0524945E+00;  0.0000000E+00;  3.8061850E-02;  9.9456482E+02;  1.3149989E-01; -4.2135669E+03;3; -6.8178825E+01;  0.0000000E+00; -1.8888411E+01;0;  7.8881568E-01;  2.3939400E+04;  0.0000000E+00;  1.3926039E+01;  4.0000000E+04;  0.0000000E+00;  3.8186695E+04;  8.5821575E-01;  0.0000000E+00; -6.9400087E-02;  2.0173217E+04;
  1.7881916E+00;  9.9999998E-03; -1.1149212E-01;9599;  1.0716369E+00;  0.0000000E+00;  3.8775779E-02;  9.9438293E+02;  1.3144451E-01; -4.3515386E+03;3; -7.7435844E+01;  0.0000000E+00; -1.2120933E+01;0;  9.5589763E-01;  2.3961957E+04;  0.0000000E+00;  7.2215781E+00;  4.0000000E+04;  0.0000000E+00;  3.8167961E+04;  1.0368884E+00;  0.0000000E+00; -8.0990739E-02;  1.1830395E+04;
  1.7928978E+00;  9.9999998E-03; -2.3604311E-01;9635;  1.0251215E+00;  0.0000000E+00;  2.6397143E-02;  9.9838965E+02;  1.3023174E-01; -1.2420718E+03;3;  5.4224827E+01;  0.0000000E+00; -1.7112482E+01;0; -5.4694635E-01;  2.4613170E+04;  0.0000000E+00;  8.6194533E-01;  4.0000000E+04;  0.0000000E+00;  3.8132508E+04; -5.2561474E-01;  0.0000000E+00; -2.1331619E-02;  3.5842559E+03;
  1.7936053E+00;  9.9999998E-03; -2.2592276E-01;9636;  1.0212801E+00;  0.0000000E+00;  2.8618908E-02;  9.9538800E+02;  1.3022755E-01; -3.5548896E+03;3;  4.9860168E+01;  0.0000000E+00; -1.7482456E+01;0; -5.2946323E-01;  2.4476662E+04;  0.0000000E+00;  9.2598993E-01;  4.0000000E+04;  0.0000000E+00;  3.8143961E+04; -4.8189726E-01;  0.0000000E+00; -4.7565982E-02;  1.4703766E+04;
  1.7943728E+00;  9.9999998E-03; -2.1577889E-01;9637;  1.0185282E+00;  0.0000000E+00;  3.0333186E-02;  9.9140497E+02;  1.3023731E-01; -6.6200220E+03;3;  4.5045143E+01;  0.0000000E+00; -1.7252043E+01;0; -4.8313209E-01;  2.4300324E+04;  0.0000000E+00;  1.7693871E+01;  4.0000000E+04;  0.0000000E+00;  3.8144121E+04; -4.1523734E-01;  0.0000000E+00; -6.7894764E-02;  4.0439961E+04;
  1.7951831E+00;  9.9999998E-03; -2.0561449E-01;9638;  1.0169595E+00;  0.0000000E+00;  3.1563997E-02;  9.8756256E+02;  1.3024320E-01; -9.5719082E+03;3;  4.0038845E+01;  0.0000000E+00; -1.6358929E+01;0; -4.0666708E-01;  2.4143637E+04;  0.0000000E+00;  3.6564522E+01;  4.0000000E+04;  0.0000000E+00;  3.8128879E+04; -3.2482213E-01;  0.0000000E+00; -8.1844948E-02;  6.3520301E+04;
  1.7959334E+00;  9.9999998E-03; -1.9542249E-01;9639;  1.0165931E+00;  0.0000000E+00;  3.2301709E-02;  9.8518494E+02;  1.3023101E-01; -1.1393297E+04;3;  3.5082520E+01;  0.0000000E+00; -1.4993104E+01;0; -3.0136669E-01;  2.4065008E+04;  0.0000000E+00;  5.2492085E+01;  4.0000000E+04;  0.0000000E+00;  3.8103719E+04; -2.1257068E-01;  0.0000000E+00; -8.8796012E-02;  7.9985797E+04;
  1.7965534E+00;  9.9999998E-03; -1.8518040E-01;9640;  1.0173242E+00;  0.0000000E+00;  3.2674063E-02;  9.8483569E+02;  1.3019581E-01; -1.1654665E+04;3;  3.0011524E+01;  0.0000000E+00; -1.3615111E+01;0; -1.7204428E-01;  2.4079020E+04;  0.0000000E+00;  6.4024658E+01;  4.0000000E+04;  0.0000000E+00;  3.8080719E+04; -8.1867509E-02;  0.0000000E+00; -9.0176761E-02;  8.9003922E+04;
  1.7970040E+00;  9.9999998E-03; -1.7484851E-01;9641;  1.0189734E+00;  0.0000000E+00;  3.2645267E-02;  9.8632733E+02;  1.3013749E-01; -1.0503492E+04;3;  2.5809828E+01;  0.0000000E+00; -1.1418497E+01;0; -2.2837937E-02;  2.4170016E+04;  0.0000000E+00;  7.0432327E+01;  4.0000000E+04;  0.0000000E+00;  3.8072430E+04;  6.3484244E-02;  0.0000000E+00; -8.6322181E-02;  9.0809680E+04;
  1.7972987E+00;  9.9999998E-03; -1.6437475E-01;9642;  1.0210487E+00;  0.0000000E+00;  3.2104794E-02;  9.8901917E+02;  1.3006943E-01; -8.4331152E+03;3;  2.4265493E+01;  0.0000000E+00; -7.8590989E+00;0;  1.4127389E-01;  2.4302695E+04;  0.0000000E+00;  7.1004341E+01;  4.0000000E+04;  0.0000000E+00;  3.8083438E+04;  2.1996373E-01;  0.0000000E+00; -7.8689851E-02;  8.6011898E+04;
  1.7975219E+00;  9.9999998E-03; -1.5372287E-01;9643;  1.0227424E+00;  0.0000000E+00;  3.0881956E-02;  9.9194153E+02;  1.3000542E-01; -6.1873984E+03;3;  2.5473166E+01;  0.0000000E+00; -3.8070500E+00;0;  3.1581983E-01;  2.4437338E+04;  0.0000000E+00;  6.5438652E+01;  4.0000000E+04;  0.0000000E+00;  3.8107117E+04;  3.8556153E-01;  0.0000000E+00; -6.9741696E-02;  7.5672195E+04;
  1.7978733E+00;  9.9999998E-03; -1.4296925E-01;9644;  1.0248525E+00;  0.0000000E+00;  2.9398417E-02;  9.9394708E+02;  1.2994525E-01; -4.6458408E+03;3;  7.5062866E+00;  0.0000000E+00; -3.1370049E+00;0;  4.9924994E-01;  2.4539375E+04;  0.0000000E+00;  5.4069050E+01;  4.0000000E+04;  0.0000000E+00;  3.8118758E+04;  5.6285971E-01;  0.0000000E+00; -6.3609779E-02;  6.1128953E+04;
  1.7985448E+00;  9.9999998E-03; -1.3231291E-01;9645;  1.0421228E+00;  0.0000000E+00;  3.2237109E-02;  9.9459204E+02;  1.2988843E-01; -4.1479556E+03;3; -7.1835175E+01;  0.0000000E+00; -1.7478403E+01;0;  7.0365131E-01;  2.4599854E+04;  0.0000000E+00;  3.9545654E+01;  4.0000000E+04;  0.0000000E+00;  3.8100902E+04;  7.7092451E-01;  0.0000000E+00; -6.7273200E-02;  4.5026871E+04;
  1.7994851E+00;  9.9999998E-03; -1.2187574E-01;9646;  1.0692044E+00;  0.0000000E+00;  3.7089854E-02;  9.9442889E+02;  1.2983055E-01; -4.2690029E+03;3; -8.2838226E+01;  0.0000000E+00; -9.5550537E+00;0;  9.0224016E-01;  2.4636900E+04;  0.0000000E+00;  2.5836657E+01;  4.0000000E+04;  0.0000000E+00;  3.8064898E+04;  9.7523212E-01;  0.0000000E+00; -7.2991945E-02;  3.0560199E+04;
  1.8004532E+00;  9.9999998E-03; -1.1163407E-01;9647;  1.0942906E+00;  0.0000000E+00;  3.8460676E-02;  9.9415698E+02;  1.2977317E-01; -4.4728633E+03;3; -8.9721008E+01;  0.0000000E+00; -2.9439881E+00;0;  1.0821646E+00;  2.4667314E+04;  0.0000000E+00;  1.5150220E+01;  4.0000000E+04;  0.0000000E+00;  3.8031023E+04;  1.1606805E+00;  0.0000000E+00; -7.8515932E-02;  1.9331367E+04;
  1.8049879E+00;  9.9999998E-03; -2.3646566E-01;9682;  1.0166770E+00;  0.0000000E+00;  2.5836738E-02;  1.0013762E+03;  1.2869987E-01;  1.0483378E+03;3;  5.5368324E+01;  0.0000000E+00; -1.0554728E+01;0; -5.7292342E-01;  2.5441459E+04;  0.0000000E+00;  3.0885187E+01;  4.0000000E+04;  0.0000000E+00;  3.7973570E+04; -5.1670527E-01;  0.0000000E+00; -5.6218155E-02;  4.8357437E+03;
  1.8058063E+00;  9.9999998E-03; -2.2637413E-01;9683;  1.0135435E+00;  0.0000000E+00;  2.7716026E-02;  9.9796393E+02;  1.2870815E-01; -1.5496730E+03;3;  5.0540668E+01;  0.0000000E+00; -1.0855706E+01;0; -5.5949789E-01;  2.5282430E+04;  0.0000000E+00; -9.2246443E-01;  4.0000000E+04;  0.0000000E+00;  3.7982422E+04; -4.6691126E-01;  0.0000000E+00; -9.2586629E-02;  3.6294504E+03;
  1.8064280E+00;  9.9999998E-03; -2.1625389E-01;9684;  1.0116518E+00;  0.0000000E+00;  2.9107714E-02;  9.9514813E+02;  1.2871277E-01; -3.6902107E+03;3;  4.5177803E+01;  0.0000000E+00; -1.0504212E+01;0; -5.1631892E-01;  2.5154979E+04;  0.0000000E+00; -1.9532787E+00;  4.0000000E+04;  0.0000000E+00;  3.7981855E+04; -3.9609316E-01;  0.0000000E+00; -1.2022579E-01;  1.1933225E+04;
  1.8070871E+00;  9.9999998E-03; -2.0611227E-01;9685;  1.0109080E+00;  0.0000000E+00;  2.9905073E-02;  9.9150031E+02;  1.2872502E-01; -6.4598555E+03;3;  3.9547424E+01;  0.0000000E+00; -9.7890902E+00;0; -4.3949991E-01;  2.4996270E+04;  0.0000000E+00;  1.5899972E+01;  4.0000000E+04;  0.0000000E+00;  3.7966633E+04; -3.0222893E-01;  0.0000000E+00; -1.3727099E-01;  3.4878891E+04;
  1.8077893E+00;  9.9999998E-03; -1.9595127E-01;9686;  1.0113224E+00;  0.0000000E+00;  3.0232631E-02;  9.8792950E+02;  1.2873577E-01; -9.1664209E+03;3;  3.3660843E+01;  0.0000000E+00; -8.6564703E+00;0; -3.3035505E-01;  2.4852852E+04;  0.0000000E+00;  3.6966518E+01;  4.0000000E+04;  0.0000000E+00;  3.7937039E+04; -1.8557762E-01;  0.0000000E+00; -1.4477743E-01;  5.6588215E+04;
  1.8084579E+00;  9.9999998E-03; -1.8575974E-01;9687;  1.0128865E+00;  0.0000000E+00;  3.0158421E-02;  9.8565082E+02;  1.2873273E-01; -1.0888579E+04;3;  2.8003521E+01;  0.0000000E+00; -6.5924821E+00;0; -1.9198330E-01;  2.4777965E+04;  0.0000000E+00;  5.4623253E+01;  4.0000000E+04;  0.0000000E+00;  3.7902742E+04; -4.8894525E-02;  0.0000000E+00; -1.4308877E-01;  7.2229508E+04;
  1.8090384E+00;  9.9999998E-03; -1.7551005E-01;9688;  1.0154190E+00;  0.0000000E+00;  2.9608808E-02;  9.8520935E+02;  1.2870513E-01; -1.1216126E+04;3;  2.2934286E+01;  0.0000000E+00; -3.4439921E+00;0; -2.9623613E-02;  2.4786629E+04;  0.0000000E+00;  6.6834206E+01;  4.0000000E+04;  0.0000000E+00;  3.7877426E+04;  1.0319325E-01;  0.0000000E+00; -1.3281687E-01;  8.0612844E+04;
  1.8095089E+00;  9.9999998E-03; -1.6516002E-01;9689;  1.0184388E+00;  0.0000000E+00;  2.8350469E-02;  9.8647046E+02;  1.2865734E-01; -1.0254223E+04;3;  2.0784897E+01;  0.0000000E+00;  1.1927787E+00;0;  1.4966102E-01;  2.4864779E+04;  0.0000000E+00;  7.3045296E+01;  4.0000000E+04;  0.0000000E+00;  3.7871746E+04;  2.6513204E-01;  0.0000000E+00; -1.1547102E-01;  8.2074453E+04;
  1.8098912E+00;  9.9999998E-03; -1.5466060E-01;9690;  1.0210503E+00;  0.0000000E+00;  2.6227754E-02;  9.8882581E+02;  1.2859721E-01; -8.4653281E+03;3;  1.7860855E+01;  0.0000000E+00;  6.1984715E+00;0;  3.3785301E-01;  2.4981020E+04;  0.0000000E+00;  7.3169693E+01;  4.0000000E+04;  0.0000000E+00;  3.7888168E+04;  4.3250498E-01;  0.0000000E+00; -9.4651982E-02;  7.7574445E+04;
  1.8102542E+00;  9.9999998E-03; -1.4399481E-01;9691;  1.0264313E+00;  0.0000000E+00;  2.3577997E-02;  9.9139508E+02;  1.2853821E-01; -6.5161616E+03;3; -2.4176903E+01;  0.0000000E+00;  1.0432130E+01;0;  5.4278553E-01;  2.5101031E+04;  0.0000000E+00;  6.7306099E+01;  4.0000000E+04;  0.0000000E+00;  3.7915215E+04;  6.1825770E-01;  0.0000000E+00; -7.5472184E-02;  6.8294562E+04;
  1.8107169E+00;  9.9999998E-03; -1.3324666E-01;9692;  1.0500032E+00;  0.0000000E+00;  2.5313806E-02;  9.9327661E+02;  1.2848572E-01; -5.0885981E+03;3; -8.5482330E+01;  0.0000000E+00; -8.7232237E+00;0;  7.7673292E-01;  2.5196785E+04;  0.0000000E+00;  5.6060883E+01;  4.0000000E+04;  0.0000000E+00;  3.7929648E+04;  8.4808844E-01;  0.0000000E+00; -7.1355492E-02;  5.5587441E+04;
  1.8113730E+00;  9.9999998E-03; -1.2257560E-01;9693;  1.0815798E+00;  0.0000000E+00;  3.1022551E-02;  9.9406268E+02;  1.2843524E-01; -4.4901978E+03;3; -9.4449547E+01;  0.0000000E+00; -2.0798354E+00;0;  9.9361014E-01;  2.5259771E+04;  0.0000000E+00;  4.1849800E+01;  4.0000000E+04;  0.0000000E+00;  3.7917859E+04;  1.0666974E+00;  0.0000000E+00; -7.3087245E-02;  4.1612527E+04;
  1.8122185E+00;  9.9999998E-03; -1.1209536E-01;9694;  1.1110921E+00;  0.0000000E+00;  3.3555847E-02;  9.9407202E+02;  1.2839004E-01; -4.4786274E+03;3; -9.7679497E+01;  0.0000000E+00;  4.4284983E+00;0;  1.1834195E+00;  2.5297918E+04;  0.0000000E+00;  2.7938536E+01;  4.0000000E+04;  0.0000000E+00;  3.7888121E+04;  1.2567583E+00;  0.0000000E+00; -7.3338903E-02;  2.8711092E+04;
  1.8177919E+00;  9.9999998E-03; -2.2679690E-01;9729;  1.0058275E+00;  0.0000000E+00;  2.4664277E-02;  1.0010529E+03;  1.2742454E-01;  7.9001489E+02;3;  5.1075382E+01;  0.0000000E+00; -2.1923909E+00;0; -5.7724869E-01;  2.6050275E+04;  0.0000000E+00;  3.5265862E+01;  4.0000000E+04;  0.0000000E+00;  3.7816695E+04; -4.6769699E-01;  0.0000000E+00; -1.0955169E-01;  7.9965815E+03;
  1.8185427E+00;  9.9999998E-03; -2.1670762E-01;9730;  1.0046247E+00;  0.0000000E+00;  2.5515765E-02;  9.9765466E+02;  1.2744218E-01; -1.7581459E+03;3;  4.5162811E+01;  0.0000000E+00; -1.6458720E+00;0; -5.3702492E-01;  2.5891770E+04;  0.0000000E+00; -1.7731481E+00;  4.0000000E+04;  0.0000000E+00;  3.7812375E+04; -3.9256069E-01;  0.0000000E+00; -1.4446422E-01;  3.8232881E+03;
  1.8190955E+00;  9.9999998E-03; -2.0658493E-01;9731;  1.0047176E+00;  0.0000000E+00;  2.5916217E-02;  9.9508679E+02;  1.2744883E-01; -3.6805320E+03;3;  3.8833347E+01;  0.0000000E+00; -9.3330944E-01;0; -4.6428764E-01;  2.5778230E+04;  0.0000000E+00; -5.1660738E+00;  4.0000000E+04;  0.0000000E+00;  3.7800719E+04; -2.9599601E-01;  0.0000000E+00; -1.6829164E-01;  8.4445391E+03;
  1.8196677E+00;  9.9999998E-03; -1.9644138E-01;9732;  1.0059757E+00;  0.0000000E+00;  2.5858983E-02;  9.9183728E+02;  1.2746146E-01; -6.1102847E+03;3;  3.2468765E+01;  0.0000000E+00;  4.4704518E-01;0; -3.5746470E-01;  2.5641016E+04;  0.0000000E+00;  1.2670403E+01;  4.0000000E+04;  0.0000000E+00;  3.7772863E+04; -1.7754324E-01;  0.0000000E+00; -1.7992146E-01;  2.8055459E+04;
  1.8202835E+00;  9.9999998E-03; -1.8627870E-01;9733;  1.0084107E+00;  0.0000000E+00;  2.5359835E-02;  9.8857739E+02;  1.2747665E-01; -8.5436963E+03;3;  2.5604481E+01;  0.0000000E+00;  2.4084885E+00;0; -2.1762337E-01;  2.5513871E+04;  0.0000000E+00;  3.4937340E+01;  4.0000000E+04;  0.0000000E+00;  3.7731426E+04; -3.8178932E-02;  0.0000000E+00; -1.7944443E-01;  4.7729621E+04;
  1.8208886E+00;  9.9999998E-03; -1.7608243E-01;9734;  1.0119770E+00;  0.0000000E+00;  2.4285287E-02;  9.8640918E+02;  1.2747718E-01; -1.0157404E+04;3;  1.9641687E+01;  0.0000000E+00;  6.4293728E+00;0; -4.8551030E-02;  2.5444236E+04;  0.0000000E+00;  5.3562817E+01;  4.0000000E+04;  0.0000000E+00;  3.7689324E+04;  1.1750784E-01;  0.0000000E+00; -1.6605887E-01;  6.2038777E+04;
  1.8214461E+00;  9.9999998E-03; -1.6582155E-01;9735;  1.0161734E+00;  0.0000000E+00;  2.2235969E-02;  9.8585315E+02;  1.2745626E-01; -1.0565264E+04;3;  1.6498621E+01;  0.0000000E+00;  1.2725216E+01;0;  1.4112429E-01;  2.5446500E+04;  0.0000000E+00;  6.6045418E+01;  4.0000000E+04;  0.0000000E+00;  3.7661680E+04;  2.8187862E-01;  0.0000000E+00; -1.4075433E-01;  6.9621312E+04;
  1.8219446E+00;  9.9999998E-03; -1.5545624E-01;9736;  1.0205801E+00;  0.0000000E+00;  1.8917736E-02;  9.8679865E+02;  1.2741902E-01; -9.8526592E+03;3;  1.4752492E+00;  0.0000000E+00;  2.0144388E+01;0;  3.4390563E-01;  2.5508797E+04;  0.0000000E+00;  7.2091019E+01;  4.0000000E+04;  0.0000000E+00;  3.7656906E+04;  4.5197549E-01;  0.0000000E+00; -1.0806987E-01;  7.0931914E+04;
  1.8223990E+00;  9.9999998E-03; -1.4494972E-01;9737;  1.0304710E+00;  0.0000000E+00;  1.4819137E-02;  9.8873889E+02;  1.2736908E-01; -8.3995244E+03;3; -4.4900864E+01;  0.0000000E+00;  2.0644238E+01;0;  5.7426590E-01;  2.5605902E+04;  0.0000000E+00;  7.2120926E+01;  4.0000000E+04;  0.0000000E+00;  3.7673770E+04;  6.5088516E-01;  0.0000000E+00; -7.6619290E-02;  6.7104391E+04;
  1.8228478E+00;  9.9999998E-03; -1.3430056E-01;9738;  1.0562863E+00;  0.0000000E+00;  1.5107004E-02;  9.9094159E+02;  1.2731789E-01; -6.7525317E+03;3; -9.5217339E+01;  0.0000000E+00;  2.2786891E+00;0;  8.3239830E-01;  2.5710400E+04;  0.0000000E+00;  6.6600609E+01;  4.0000000E+04;  0.0000000E+00;  3.7699797E+04;  8.9747536E-01;  0.0000000E+00; -6.5077089E-02;  5.9355398E+04;
  1.8233492E+00;  9.9999998E-03; -1.2358098E-01;9739;  1.0904598E+00;  0.0000000E+00;  2.0461554E-02;  9.9269385E+02;  1.2727109E-01; -5.4426758E+03;3; -1.0389442E+02;  0.0000000E+00;  4.3649902E+00;0;  1.0690413E+00;  2.5800160E+04;  0.0000000E+00;  5.6292034E+01;  4.0000000E+04;  0.0000000E+00;  3.7715688E+04;  1.1332176E+00;  0.0000000E+00; -6.4176276E-02;  4.8904699E+04;
  1.8239491E+00;  9.9999998E-03; -1.1291227E-01;9740;  1.1236143E+00;  0.0000000E+00;  2.4492051E-02;  9.9362006E+02;  1.2723032E-01; -4.7488809E+03;3; -1.0411700E+02;  0.0000000E+00;  1.0802855E+01;0;  1.2695540E+00;  2.5864115E+04;  0.0000000E+00;  4.3125973E+01;  4.0000000E+04;  0.0000000E+00;  3.7710688E+04;  1.3313787E+00;  0.0000000E+00; -6.1824691E-02;  3.7339473E+04;
  1.8304319E+00;  9.9999998E-03; -2.1711874E-01;9774;  9.9787408E-01;  0.0000000E+00;  1.9392034E-02;  1.0008867E+03;  1.2636591E-01;  6.5405902E+02;3;  4.5115147E+01;  0.0000000E+00;  8.4987993E+00;0; -5.4166651E-01;  2.6606465E+04;  0.0000000E+00;  4.2265377E+01;  4.0000000E+04;  0.0000000E+00;  3.7642566E+04; -4.1076910E-01;  0.0000000E+00; -1.3089739E-01;  1.1088229E+04;
  1.8311344E+00;  9.9999998E-03; -2.0702972E-01;9775;  9.9865091E-01;  0.0000000E+00;  1.9259922E-02;  9.9747192E+02;  1.2638412E-01; -1.8629432E+03;3;  3.7962814E+01;  0.0000000E+00;  9.2600965E+00;0; -4.7615483E-01;  2.6451260E+04;  0.0000000E+00; -7.4196744E-01;  4.0000000E+04;  0.0000000E+00;  3.7624637E+04; -3.1392375E-01;  0.0000000E+00; -1.6223109E-01;  3.7761794E+03;
  1.8316445E+00;  9.9999998E-03; -1.9689938E-01;9776;  1.0007060E+00;  0.0000000E+00;  1.8792801E-02;  9.9519208E+02;  1.2639709E-01; -3.5403684E+03;3;  3.0767679E+01;  0.0000000E+00;  1.1078528E+01;0; -3.7788510E-01;  2.6352256E+04;  0.0000000E+00; -8.4613762E+00;  4.0000000E+04;  0.0000000E+00;  3.7603910E+04; -1.9707648E-01;  0.0000000E+00; -1.8080860E-01;  5.0039043E+03;
  1.8321502E+00;  9.9999998E-03; -1.8674394E-01;9777;  1.0040425E+00;  0.0000000E+00;  1.7877160E-02;  9.9244250E+02;  1.2640889E-01; -5.5609243E+03;3;  2.2911690E+01;  0.0000000E+00;  1.3628666E+01;0; -2.4425374E-01;  2.6241762E+04;  0.0000000E+00;  7.3007512E+00;  4.0000000E+04;  0.0000000E+00;  3.7567621E+04; -5.9565257E-02;  0.0000000E+00; -1.8468848E-01;  2.0110564E+04;
  1.8326966E+00;  9.9999998E-03; -1.7656747E-01;9778;  1.0087558E+00;  0.0000000E+00;  1.6156787E-02;  9.8959778E+02;  1.2641992E-01; -7.6479575E+03;3;  1.5741641E+01;  0.0000000E+00;  1.8755968E+01;0; -7.4733965E-02;  2.6136771E+04;  0.0000000E+00;  2.9170010E+01;  4.0000000E+04;  0.0000000E+00;  3.7518582E+04;  9.5900826E-02;  0.0000000E+00; -1.7063479E-01;  3.6890352E+04;
  1.8332546E+00;  9.9999998E-03; -1.6635546E-01;9779;  1.0143601E+00;  0.0000000E+00;  1.3193941E-02;  9.8758655E+02;  1.2642357E-01; -9.1191641E+03;3;  7.6127825E+00;  0.0000000E+00;  2.6486010E+01;0;  1.2117623E-01;  2.6074236E+04;  0.0000000E+00;  4.7787937E+01;  4.0000000E+04;  0.0000000E+00;  3.7471527E+04;  2.6079267E-01;  0.0000000E+00; -1.3961644E-01;  4.9361988E+04;
  1.8337947E+00;  9.9999998E-03; -1.5607929E-01;9780;  1.0216509E+00;  0.0000000E+00;  8.5598091E-03;  9.8690112E+02;  1.2641078E-01; -9.6150098E+03;3; -1.3594374E+01;  0.0000000E+00;  3.3195705E+01;0;  3.4228551E-01;  2.6069570E+04;  0.0000000E+00;  6.0282551E+01;  4.0000000E+04;  0.0000000E+00;  3.7440465E+04;  4.3891063E-01;  0.0000000E+00; -9.6625112E-02;  5.6143125E+04;
  1.8343071E+00;  9.9999998E-03; -1.4570495E-01;9781;  1.0353116E+00;  0.0000000E+00;  3.6227412E-03;  9.8749347E+02;  1.2638341E-01; -9.1732002E+03;3; -5.6868675E+01;  0.0000000E+00;  3.0637758E+01;0;  5.9499484E-01;  2.6115127E+04;  0.0000000E+00;  6.6480034E+01;  4.0000000E+04;  0.0000000E+00;  3.7432699E+04;  6.5254521E-01;  0.0000000E+00; -5.7550382E-02;  5.7658406E+04;
  1.8347956E+00;  9.9999998E-03; -1.3520662E-01;9782;  1.0618279E+00;  0.0000000E+00;  2.4333333E-03;  9.8897101E+02;  1.2634407E-01; -8.0835522E+03;3; -9.9493996E+01;  0.0000000E+00;  1.4187271E+01;0;  8.7353128E-01;  2.6192314E+04;  0.0000000E+00;  6.7035049E+01;  4.0000000E+04;  0.0000000E+00;  3.7445109E+04;  9.1353470E-01;  0.0000000E+00; -4.0003408E-02;  5.4959883E+04;
  1.8352786E+00;  9.9999998E-03; -1.2458741E-01;9783;  1.0969630E+00;  0.0000000E+00;  6.7939018E-03;  9.9075885E+02;  1.2630139E-01; -6.7682607E+03;3; -1.1131879E+02;  0.0000000E+00;  1.1103652E+01;0;  1.1311226E+00;  2.6280064E+04;  0.0000000E+00;  6.2612431E+01;  4.0000000E+04;  0.0000000E+00;  3.7466930E+04;  1.1700882E+00;  0.0000000E+00; -3.8965553E-02;  4.9113562E+04;
  1.8357815E+00;  9.9999998E-03; -1.1390599E-01;9784;  1.1327689E+00;  0.0000000E+00;  1.1756203E-02;  9.9229840E+02;  1.2626401E-01; -5.6363779E+03;3; -1.0944258E+02;  0.0000000E+00;  1.3818012E+01;0;  1.3462223E+00;  2.6359096E+04;  0.0000000E+00;  5.3927460E+01;  4.0000000E+04;  0.0000000E+00;  3.7482059E+04;  1.3843203E+00;  0.0000000E+00; -3.8098026E-02;  4.1096305E+04;
  1.8363231E+00;  9.9999998E-03; -1.0325677E-01;9785;  1.1649069E+00;  0.0000000E+00;  1.4889895E-02;  9.9322516E+02;  1.2623250E-01; -4.9540742E+03;3; -1.0460255E+02;  0.0000000E+00;  1.7100508E+01;0;  1.5143354E+00;  2.6418480E+04;  0.0000000E+00;  4.2451790E+01;  4.0000000E+04;  0.0000000E+00;  3.7480520E+04;  1.5505815E+00;  0.0000000E+00; -3.6246046E-02;  3.2045180E+04;
  1.8429282E+00;  9.9999998E-03; -2.0741506E-01;9817;  9.9290782E-01;  0.0000000E+00;  9.8530930E-03;  1.0009600E+03;  1.2548818E-01;  6.9474847E+02;3;  3.7160294E+01;  0.0000000E+00;  2.1092852E+01;0; -4.7110522E-01;  2.7121197E+04;  0.0000000E+00;  5.3401627E+01;  4.0000000E+04;  0.0000000E+00;  3.7454648E+04; -3.6162466E-01;  0.0000000E+00; -1.0948056E-01;  1.4735783E+04;
  1.8436104E+00;  9.9999998E-03; -1.9732371E-01;9818;  9.9577975E-01;  0.0000000E+00;  8.6753415E-03;  9.9746112E+02;  1.2551302E-01; -1.8353456E+03;3;  2.8640192E+01;  0.0000000E+00;  2.3107712E+01;0; -3.8282746E-01;  2.6966387E+04;  0.0000000E+00;  3.7112377E+00;  4.0000000E+04;  0.0000000E+00;  3.7421383E+04; -2.4989283E-01;  0.0000000E+00; -1.3293462E-01;  3.4174099E+03;
  1.8440983E+00;  9.9999998E-03; -1.8717606E-01;9819;  1.0000837E+00;  0.0000000E+00;  7.2262278E-03;  9.9544958E+02;  1.2552115E-01; -3.2868716E+03;3;  1.9612206E+01;  0.0000000E+00;  2.6366789E+01;0; -2.6154035E-01;  2.6884463E+04;  0.0000000E+00; -1.1007320E+01;  4.0000000E+04;  0.0000000E+00;  3.7394469E+04; -1.1907537E-01;  0.0000000E+00; -1.4246500E-01;  3.1998369E+03;
  1.8445643E+00;  9.9999998E-03; -1.7699571E-01;9820;  1.0060130E+00;  0.0000000E+00;  4.8469864E-03;  9.9326758E+02;  1.2553076E-01; -4.8592822E+03;3;  1.0297510E+01;  0.0000000E+00;  3.2820614E+01;0; -9.9215150E-02;  2.6801920E+04;  0.0000000E+00; -4.4946587E-01;  4.0000000E+04;  0.0000000E+00;  3.7355375E+04;  3.0898897E-02;  0.0000000E+00; -1.3011405E-01;  1.1516859E+04;
  1.8246691E+00;  9.9999998E-03; -1.0239620E-01;9741;  1.1530530E+00;  0.0000000E+00;  2.5552627E-02;  9.9383344E+02;  1.2720175E-01; -4.5855796E+03;3; -1.0079691E+02;  0.0000000E+00;  1.4616203E+01;0;  1.4338070E+00;  2.5901820E+04;  0.0000000E+00;  2.9685524E+01;  4.0000000E+04;  0.0000000E+00;  3.7687711E+04;  1.4940251E+00;  0.0000000E+00; -6.0218111E-02;  2.6335248E+04;
  1.8450595E+00;  9.9999998E-03; -1.6679099E-01;9821;  1.0135049E+00;  0.0000000E+00;  8.4611180E-04;  9.9096649E+02;  1.2554079E-01; -6.5148462E+03;3; -2.8740127E+00;  0.0000000E+00;  4.0470680E+01;0;  1.0131052E-01;  2.6722361E+04;  0.0000000E+00;  1.8825130E+01;  4.0000000E+04;  0.0000000E+00;  3.7304664E+04;  1.9651525E-01;  0.0000000E+00; -9.5204726E-02;  2.4568498E+04;
  1.8455746E+00;  9.9999998E-03; -1.5655009E-01;9822;  1.0236744E+00;  0.0000000E+00; -4.7009205E-03;  9.8921021E+02;  1.2554307E-01; -7.7748550E+03;3; -2.5239475E+01;  0.0000000E+00;  4.5738014E+01;0;  3.3494353E-01;  2.6671152E+04;  0.0000000E+00;  3.6693905E+01;  4.0000000E+04;  0.0000000E+00;  3.7256254E+04;  3.8232368E-01;  0.0000000E+00; -4.7380149E-02;  3.5080617E+04;
  1.8460900E+00;  9.9999998E-03; -1.4625053E-01;9823;  1.0403059E+00;  0.0000000E+00; -1.0293166E-02;  9.8843646E+02;  1.2553659E-01; -8.3252588E+03;3; -6.4163002E+01;  0.0000000E+00;  4.1296364E+01;0;  6.0591811E-01;  2.6661760E+04;  0.0000000E+00;  4.9325901E+01;  4.0000000E+04;  0.0000000E+00;  3.7222199E+04;  6.1083746E-01;  0.0000000E+00; -4.9193259E-03;  4.1315117E+04;
  1.8465931E+00;  9.9999998E-03; -1.3586441E-01;9824;  1.0675218E+00;  0.0000000E+00; -1.2214314E-02;  9.8867749E+02;  1.2551570E-01; -8.1448838E+03;3; -1.0377664E+02;  0.0000000E+00;  2.4570314E+01;0;  9.0139931E-01;  2.6692311E+04;  0.0000000E+00;  5.6227810E+01;  4.0000000E+04;  0.0000000E+00;  3.7209422E+04;  8.8879466E-01;  0.0000000E+00;  1.2604657E-02;  4.3399320E+04;
  1.8470854E+00;  9.9999998E-03; -1.2537417E-01;9825;  1.1029909E+00;  0.0000000E+00; -8.4280856E-03;  9.8967841E+02;  1.2548986E-01; -7.4187783E+03;3; -1.1652235E+02;  0.0000000E+00;  1.3582006E+01;0;  1.1785347E+00;  2.6748871E+04;  0.0000000E+00;  5.7871075E+01;  4.0000000E+04;  0.0000000E+00;  3.7214633E+04;  1.1703719E+00;  0.0000000E+00;  8.1628812E-03;  4.2049434E+04;
  1.8475668E+00;  9.9999998E-03; -1.1478703E-01;9826;  1.1397829E+00;  0.0000000E+00; -2.8007901E-03;  9.9098004E+02;  1.2545875E-01; -6.4779580E+03;3; -1.1580805E+02;  0.0000000E+00;  1.2685148E+01;0;  1.4094369E+00;  2.6816658E+04;  0.0000000E+00;  5.5018547E+01;  4.0000000E+04;  0.0000000E+00;  3.7228109E+04;  1.4070971E+00;  0.0000000E+00;  2.3398120E-03;  3.8151559E+04;
  1.8480476E+00;  9.9999998E-03; -1.0414860E-01;9827;  1.1738402E+00;  0.0000000E+00;  2.5368575E-03;  9.9215625E+02;  1.2543060E-01; -5.6286372E+03;3; -1.0940864E+02;  0.0000000E+00;  1.2316217E+01;0;  1.5851270E+00;  2.6879766E+04;  0.0000000E+00;  4.8346798E+01;  4.0000000E+04;  0.0000000E+00;  3.7237891E+04;  1.5867541E+00;  0.0000000E+00; -1.6270680E-03;  3.2467477E+04;
  1.8559821E+00;  9.9999998E-03; -1.8756305E-01;9858;  9.9675983E-01;  0.0000000E+00; -6.8084486E-03;  9.9769983E+02;  1.2479125E-01; -1.6278193E+03;3;  1.6223497E+01;  0.0000000E+00;  4.1096062E+01;0; -2.5489569E-01;  2.7447980E+04;  0.0000000E+00;  1.4534909E+01;  4.0000000E+04;  0.0000000E+00;  3.7209156E+04; -2.1699567E-01;  0.0000000E+00; -3.7900019E-02;  4.1676953E+03;
  1.8564782E+00;  9.9999998E-03; -1.7739190E-01;9859;  1.0040857E+00;  0.0000000E+00; -1.0174331E-02;  9.9583191E+02;  1.2480064E-01; -2.9471248E+03;3;  4.9183426E+00;  0.0000000E+00;  4.8027851E+01;0; -1.0278425E-01;  2.7375367E+04;  0.0000000E+00; -1.0271399E+01;  4.0000000E+04;  0.0000000E+00;  3.7177336E+04; -7.7026971E-02;  0.0000000E+00; -2.5757276E-02;  3.8941843E+03;
  1.8569243E+00;  9.9999998E-03; -1.6717482E-01;9860;  1.0135478E+00;  0.0000000E+00; -1.5042780E-02;  9.9424133E+02;  1.2480674E-01; -4.0684519E+03;3; -1.1761935E+01;  0.0000000E+00;  5.4345791E+01;0;  9.3402840E-02;  2.7319271E+04;  0.0000000E+00; -8.4535427E+00;  4.0000000E+04;  0.0000000E+00;  3.7141570E+04;  8.4780641E-02;  0.0000000E+00;  8.6222012E-03;  4.3211587E+03;
  1.8573809E+00;  9.9999998E-03; -1.5692601E-01;9861;  1.0263560E+00;  0.0000000E+00; -2.1166647E-02;  9.9256256E+02;  1.2480976E-01; -5.2501592E+03;3; -3.6504646E+01;  0.0000000E+00;  5.5905617E+01;0;  3.3018059E-01;  2.7266729E+04;  0.0000000E+00;  5.8379908E+00;  4.0000000E+04;  0.0000000E+00;  3.7097121E+04;  2.7546594E-01;  0.0000000E+00;  5.4714635E-02;  1.2820275E+04;
  1.8578578E+00;  9.9999998E-03; -1.4664304E-01;9862;  1.0454768E+00;  0.0000000E+00; -2.6638541E-02;  9.9113916E+02;  1.2481305E-01; -6.2494590E+03;3; -7.3837189E+01;  0.0000000E+00;  4.7347080E+01;0;  6.0742640E-01;  2.7228561E+04;  0.0000000E+00;  2.1766996E+01;  4.0000000E+04;  0.0000000E+00;  3.7051633E+04;  5.1670098E-01;  0.0000000E+00;  9.0725407E-02;  2.1159170E+04;
  1.8583391E+00;  9.9999998E-03; -1.3630988E-01;9863;  1.0740060E+00;  0.0000000E+00; -2.8200787E-02;  9.9035339E+02;  1.2480779E-01; -6.7976387E+03;3; -1.1083666E+02;  0.0000000E+00;  2.4826731E+01;0;  9.1404641E-01;  2.7218605E+04;  0.0000000E+00;  3.4283028E+01;  4.0000000E+04;  0.0000000E+00;  3.7015812E+04;  8.1655455E-01;  0.0000000E+00;  9.7491853E-02;  2.6818588E+04;
  1.8588164E+00;  9.9999998E-03; -1.2590711E-01;9864;  1.1101129E+00;  0.0000000E+00; -2.3842247E-02;  9.9029480E+02;  1.2479687E-01; -6.8329082E+03;3; -1.2350742E+02;  0.0000000E+00;  8.6565361E+00;0;  1.2081639E+00;  2.7236666E+04;  0.0000000E+00;  4.1913559E+01;  4.0000000E+04;  0.0000000E+00;  3.6995410E+04;  1.1297694E+00;  0.0000000E+00;  7.8394398E-02;  2.9390773E+04;
  1.8592824E+00;  9.9999998E-03; -1.1542442E-01;9865;  1.1467382E+00;  0.0000000E+00; -1.6512960E-02;  9.9080951E+02;  1.2477957E-01; -6.4649658E+03;3; -1.2106783E+02;  0.0000000E+00;  4.9922929E+00;0;  1.4468390E+00;  2.7275279E+04;  0.0000000E+00;  4.4821430E+01;  4.0000000E+04;  0.0000000E+00;  3.6989191E+04;  1.3901805E+00;  0.0000000E+00;  5.6658480E-02;  2.9272131E+04;
  1.8597320E+00;  9.9999998E-03; -1.0487089E-01;9866;  1.1811571E+00;  0.0000000E+00; -9.5011359E-03;  9.9159241E+02;  1.2476022E-01; -5.9092993E+03;3; -1.1493622E+02;  0.0000000E+00;  6.2619481E+00;0;  1.6316092E+00;  2.7323705E+04;  0.0000000E+00;  4.3628895E+01;  4.0000000E+04;  0.0000000E+00;  3.6990008E+04;  1.5887040E+00;  0.0000000E+00;  4.2905182E-02;  2.7082412E+04;
  1.8682506E+00;  9.9999998E-03; -1.7771953E-01;9895;  1.0023468E+00;  0.0000000E+00; -2.8204853E-02;  9.9835846E+02;  1.2419021E-01; -1.1350115E+03;3; -2.2188623E-01;  0.0000000E+00;  5.9467758E+01;0; -8.4007531E-02;  2.7905447E+04;  0.0000000E+00;  3.5513123E+01;  4.0000000E+04;  0.0000000E+00;  3.6998562E+04; -2.2984736E-01;  0.0000000E+00;  1.4583983E-01;  8.7511064E+03;
  1.8687757E+00;  9.9999998E-03; -1.6752912E-01;9896;  1.0140387E+00;  0.0000000E+00; -3.3834625E-02;  9.9636841E+02;  1.2420473E-01; -2.5084221E+03;3; -2.2016006E+01;  0.0000000E+00;  6.0985497E+01;0;  1.0334241E-01;  2.7830736E+04;  0.0000000E+00; -1.5381631E+00;  4.0000000E+04;  0.0000000E+00;  3.6958008E+04; -7.3440686E-02;  0.0000000E+00;  1.7678310E-01;  3.8243904E+03;
  1.8692214E+00;  9.9999998E-03; -1.5727518E-01;9897;  1.0299698E+00;  0.0000000E+00; -3.9598599E-02;  9.9515277E+02;  1.2420724E-01; -3.3451196E+03;3; -5.3907322E+01;  0.0000000E+00;  5.6532043E+01;0;  3.3604079E-01;  2.7791662E+04;  0.0000000E+00; -1.1988167E+01;  4.0000000E+04;  0.0000000E+00;  3.6926371E+04;  1.2701072E-01;  0.0000000E+00;  2.0903008E-01;  3.3749570E+03;
  1.8696527E+00;  9.9999998E-03; -1.4697802E-01;9898;  1.0527163E+00;  0.0000000E+00; -4.3390106E-02;  9.9404523E+02;  1.2420820E-01; -4.1059282E+03;3; -9.5593216E+01;  0.0000000E+00;  3.6032528E+01;0;  6.1508298E-01;  2.7762111E+04;  0.0000000E+00; -6.0309477E+00;  4.0000000E+04;  0.0000000E+00;  3.6891199E+04;  3.9501268E-01;  0.0000000E+00;  2.2007030E-01;  4.2652163E+03;
  1.8700924E+00;  9.9999998E-03; -1.3664539E-01;9899;  1.0841976E+00;  0.0000000E+00; -4.1997470E-02;  9.9302875E+02;  1.2420902E-01; -4.8025454E+03;3; -1.2519789E+02;  0.0000000E+00;  7.2768097E+00;0;  9.2429519E-01;  2.7739553E+04;  0.0000000E+00;  5.7249026E+00;  4.0000000E+04;  0.0000000E+00;  3.6851984E+04;  7.2993422E-01;  0.0000000E+00;  1.9436097E-01;  9.5402324E+03;
  1.8705350E+00;  9.9999998E-03; -1.2627372E-01;9900;  1.1199645E+00;  0.0000000E+00; -3.5406761E-02;  9.9232385E+02;  1.2420867E-01; -5.2834458E+03;3; -1.2954860E+02;  0.0000000E+00; -3.8725195E+00;0;  1.2093174E+00;  2.7732664E+04;  0.0000000E+00;  1.6752865E+01;  4.0000000E+04;  0.0000000E+00;  3.6815203E+04;  1.0585887E+00;  0.0000000E+00;  1.5072873E-01;  1.4076021E+04;
  1.8709698E+00;  9.9999998E-03; -1.1585297E-01;9901;  1.1549934E+00;  0.0000000E+00; -2.7564004E-02;  9.9205396E+02;  1.2420285E-01; -5.4644614E+03;3; -1.2575449E+02;  0.0000000E+00; -1.3714507E+00;0;  1.4457879E+00;  2.7744213E+04;  0.0000000E+00;  2.4412197E+01;  4.0000000E+04;  0.0000000E+00;  3.6786504E+04;  1.3288243E+00;  0.0000000E+00;  1.1696358E-01;  1.6703791E+04;
  1.8713902E+00;  9.9999998E-03; -1.0537588E-01;9902;  1.1887240E+00;  0.0000000E+00; -1.9667545E-02;  9.9217407E+02;  1.2419394E-01; -5.3772554E+03;3; -1.2057662E+02;  0.0000000E+00;  3.3495862E+00;0;  1.6380512E+00;  2.7769609E+04;  0.0000000E+00;  2.8251717E+01;  4.0000000E+04;  0.0000000E+00;  3.6767387E+04;  1.5452046E+00;  0.0000000E+00;  9.2846520E-02;  1.7422781E+04;
  1.8804061E+00;  9.9999998E-03; -1.6777208E-01;9930;  1.0182661E+00;  0.0000000E+00; -4.9740616E-02;  9.9966437E+02;  1.2369204E-01; -2.2632494E+02;3; -6.3810722E+01;  0.0000000E+00;  3.8727489E+01;0;  1.4153951E-01;  2.8348582E+04;  0.0000000E+00;  6.8781937E+01;  4.0000000E+04;  0.0000000E+00;  3.6802363E+04; -2.0082644E-01;  0.0000000E+00;  3.4236595E-01;  1.6569930E+04;
  1.8809710E+00;  9.9999998E-03; -1.5757649E-01;9931;  1.0400181E+00;  0.0000000E+00; -5.3305015E-02;  9.9718304E+02;  1.2371301E-01; -1.8972451E+03;3; -1.0242426E+02;  0.0000000E+00;  2.0949821E+01;0;  3.9108509E-01;  2.8259648E+04;  0.0000000E+00;  1.9695930E+01;  4.0000000E+04;  0.0000000E+00;  3.6742234E+04;  4.8459079E-02;  0.0000000E+00;  3.4262601E-01;  5.5307119E+03;
  1.8814331E+00;  9.9999998E-03; -1.4730279E-01;9932;  1.0681441E+00;  0.0000000E+00; -5.3199284E-02;  9.9594427E+02;  1.2372010E-01; -2.7288425E+03;3; -1.2796609E+02;  0.0000000E+00;  8.7986547E-01;0;  6.7094159E-01;  2.8223027E+04;  0.0000000E+00; -5.2487407E+00;  4.0000000E+04;  0.0000000E+00;  3.6704773E+04;  3.5909352E-01;  0.0000000E+00;  3.1184807E-01;  3.9701431E+03;
  1.8818525E+00;  9.9999998E-03; -1.3696955E-01;9933;  1.1001480E+00;  0.0000000E+00; -4.9002241E-02;  9.9516980E+02;  1.2372088E-01; -3.2469758E+03;3; -1.3351013E+02;  0.0000000E+00; -5.6512671E+00;0;  9.4453311E-01;  2.8207037E+04;  0.0000000E+00; -1.1361423E+01;  4.0000000E+04;  0.0000000E+00;  3.6673617E+04;  6.8224728E-01;  0.0000000E+00;  2.6228583E-01;  3.2930186E+03;
  1.8822594E+00;  9.9999998E-03; -1.2659380E-01;9934;  1.1330745E+00;  0.0000000E+00; -4.2180128E-02;  9.9452234E+02;  1.2372192E-01; -3.6789939E+03;3; -1.3166127E+02;  0.0000000E+00; -4.7426567E+00;0;  1.1897335E+00;  2.8199158E+04;  0.0000000E+00; -7.3544302E+00;  4.0000000E+04;  0.0000000E+00;  3.6640281E+04;  9.7871405E-01;  0.0000000E+00;  2.1101950E-01;  2.6079719E+03;
  1.8826568E+00;  9.9999998E-03; -1.1617768E-01;9935;  1.1662817E+00;  0.0000000E+00; -3.4754857E-02;  9.9403052E+02;  1.2372044E-01; -4.0058501E+03;3; -1.2908804E+02;  0.0000000E+00; -1.9161009E+00;0;  1.4147660E+00;  2.8200559E+04;  0.0000000E+00; -6.0678657E-02;  4.0000000E+04;  0.0000000E+00;  3.6607094E+04;  1.2439229E+00;  0.0000000E+00;  1.7084302E-01;  4.5981196E+03;
  1.8830433E+00;  9.9999998E-03; -1.0572382E-01;9936;  1.1980015E+00;  0.0000000E+00; -2.7971014E-02;  9.9371674E+02;  1.2371788E-01; -4.2129004E+03;3; -1.2675484E+02;  0.0000000E+00;  2.2980149E+00;0;  1.6048599E+00;  2.8209770E+04;  0.0000000E+00;  6.4996924E+00;  4.0000000E+04;  0.0000000E+00;  3.6576848E+04;  1.4600768E+00;  0.0000000E+00;  1.4478315E-01;  6.6469199E+03;
  1.8930376E+00;  9.9999998E-03; -1.4751704E-01;9963;  1.0935597E+00;  0.0000000E+00; -5.2326255E-02;  9.9860486E+02;  1.2330595E-01; -9.1479834E+02;3; -1.3228944E+02;  0.0000000E+00; -7.2089440E-01;0;  7.9160970E-01;  2.8679891E+04;  0.0000000E+00;  5.5584469E+01;  4.0000000E+04;  0.0000000E+00;  3.6539754E+04;  4.7146037E-01;  0.0000000E+00;  3.2014933E-01;  1.2561891E+04;
  1.8935212E+00;  9.9999998E-03; -1.3724504E-01;9964;  1.1221517E+00;  0.0000000E+00; -4.9643431E-02;  9.9695520E+02;  1.2331932E-01; -1.9942264E+03;3; -1.3235089E+02;  0.0000000E+00; -1.6161667E+00;0;  1.0069683E+00;  2.8634014E+04;  0.0000000E+00;  1.7219368E+01;  4.0000000E+04;  0.0000000E+00;  3.6482578E+04;  7.1889514E-01;  0.0000000E+00;  2.8807312E-01;  5.1135098E+03;
  1.8939397E+00;  9.9999998E-03; -1.2689714E-01;9965;  1.1508951E+00;  0.0000000E+00; -4.5886569E-02;  9.9612085E+02;  1.2332436E-01; -2.5382524E+03;3; -1.3211981E+02;  0.0000000E+00; -1.3933949E+00;0;  1.2018523E+00;  2.8618918E+04;  0.0000000E+00; -2.8795824E+00;  4.0000000E+04;  0.0000000E+00;  3.6444969E+04;  9.4461524E-01;  0.0000000E+00;  2.5723711E-01;  3.5323237E+03;
  1.8943213E+00;  9.9999998E-03; -1.1648977E-01;9966;  1.1801180E+00;  0.0000000E+00; -4.0866021E-02;  9.9565027E+02;  1.2332430E-01; -2.8436699E+03;3; -1.3208656E+02;  0.0000000E+00;  9.6245044E-01;0;  1.3825983E+00;  2.8618297E+04;  0.0000000E+00; -9.9101562E+00;  4.0000000E+04;  0.0000000E+00;  3.6415117E+04;  1.1562893E+00;  0.0000000E+00;  2.2630890E-01;  3.1787256E+03;
  1.8946792E+00;  9.9999998E-03; -1.0603059E-01;9967;  1.2085348E+00;  0.0000000E+00; -3.5350055E-02;  9.9536011E+02;  1.2332141E-01; -3.0308601E+03;3; -1.3089929E+02;  0.0000000E+00;  3.9642215E+00;0;  1.5388266E+00;  2.8625025E+04;  0.0000000E+00; -9.6093607E+00;  4.0000000E+04;  0.0000000E+00;  3.6389734E+04;  1.3384392E+00;  0.0000000E+00;  2.0038739E-01;  2.2422380E+03;
  1.9054667E+00;  9.9999998E-03; -1.2706867E-01;9992;  1.1744075E+00;  0.0000000E+00; -4.5990661E-02;  9.9859961E+02;  1.2298661E-01; -8.9178925E+02;3; -1.3038750E+02;  0.0000000E+00;  5.6050935E+00;0;  1.2833080E+00;  2.9039141E+04;  0.0000000E+00;  5.6420578E+01;  4.0000000E+04;  0.0000000E+00;  3.6279758E+04;  1.0067776E+00;  0.0000000E+00;  2.7653041E-01;  1.1871038E+04;
  1.9058883E+00;  9.9999998E-03; -1.1672907E-01;9993;  1.1995420E+00;  0.0000000E+00; -4.3411519E-02;  9.9735596E+02;  1.2299801E-01; -1.6820426E+03;3; -1.3073988E+02;  0.0000000E+00;  6.2417946E+00;0;  1.4067525E+00;  2.9013883E+04;  0.0000000E+00;  2.4124741E+01;  4.0000000E+04;  0.0000000E+00;  3.6223520E+04;  1.1440009E+00;  0.0000000E+00;  2.6275158E-01;  5.8207495E+03;
  1.9062552E+00;  9.9999998E-03; -1.0631937E-01;9994;  1.2250346E+00;  0.0000000E+00; -4.0132668E-02;  9.9670740E+02;  1.2300352E-01; -2.0927751E+03;3; -1.3069649E+02;  0.0000000E+00;  8.3732662E+00;0;  1.5281515E+00;  2.9008746E+04;  0.0000000E+00;  4.8870921E+00;  4.0000000E+04;  0.0000000E+00;  3.6185402E+04;  1.2799611E+00;  0.0000000E+00;  2.4819040E-01;  3.1826165E+03;
  4.1269762E-03;  9.9999998E-03; -9.9963501E-02;2467;  2.2935860E-03;  0.0000000E+00;  2.4308110E-05;  9.8480988E+02;  1.0000000E-01; -1.2584730E+04;3;  8.8987320E+01;  0.0000000E+00;  8.2262474E-01;0; -9.7989673E-03;  3.8812418E+04;  0.0000000E+00; -1.7324109E-02;  4.0000000E+04;  0.0000000E+00;  3.9998973E+04; -1.0143211E-02;  0.0000000E+00;  3.4424374E-04;  1.1231451E+03;
  4.1221841E-03;  9.9999998E-03; -8.9961745E-02;2468;  2.3179839E-03;  0.0000000E+00;  2.0641322E-05;  9.8480341E+02;  1.0000000E-01; -1.2590113E+04;3;  8.9221298E+01;  0.0000000E+00;  4.5206380E-01;0; -9.7556021E-03;  3.8811574E+04;  0.0000000E+00; -1.0239132E-02;  4.0000000E+04;  0.0000000E+00;  3.9999363E+04; -1.0040466E-02;  0.0000000E+00;  2.8486332E-04;  1.1752178E+03;
  4.1122003E-03;  9.9999998E-03; -7.9962611E-02;2469;  2.3275083E-03;  0.0000000E+00;  1.4113633E-05;  9.8480328E+02;  1.0000000E-01; -1.2590212E+04;3;  8.9550858E+01;  0.0000000E+00;  1.6853194E-01;0; -9.7156353E-03;  3.8810941E+04;  0.0000000E+00; -6.2805158E-03;  4.0000000E+04;  0.0000000E+00;  3.9999965E+04; -9.9453405E-03;  0.0000000E+00;  2.2970498E-04;  1.2337548E+03;
  4.0982161E-03;  9.9999998E-03; -6.9966219E-02;2470;  2.3249770E-03;  0.0000000E+00;  6.1583278E-06;  9.8480420E+02;  1.0000000E-01; -1.2589422E+04;3;  8.9970840E+01;  0.0000000E+00; -3.5535939E-02;0; -9.6848765E-03;  3.8810652E+04;  0.0000000E+00; -4.0272251E-03;  4.0000000E+04;  0.0000000E+00;  4.0000336E+04; -9.8661538E-03;  0.0000000E+00;  1.8127698E-04;  1.2958594E+03;
  4.0815612E-03;  9.9999998E-03; -5.9971984E-02;2471;  2.3138949E-03;  0.0000000E+00; -1.8872555E-06;  9.8481329E+02;  1.0000000E-01; -1.2581916E+04;3;  9.0385078E+01;  0.0000000E+00; -1.6931783E-01;0; -9.6651809E-03;  3.8810672E+04;  0.0000000E+00; -2.6625169E-03;  4.0000000E+04;  0.0000000E+00;  4.0000773E+04; -9.8067839E-03;  0.0000000E+00;  1.4160333E-04;  1.3584169E+03;
  4.0641730E-03;  9.9999998E-03; -4.9979042E-02;2472;  2.2982832E-03;  0.0000000E+00; -8.7318722E-06;  9.8482349E+02;  1.0000000E-01; -1.2573472E+04;3;  9.0797066E+01;  0.0000000E+00; -2.4045640E-01;0; -9.6557932E-03;  3.8811098E+04;  0.0000000E+00; -1.7642220E-03;  4.0000000E+04;  0.0000000E+00;  4.0001137E+04; -9.7675156E-03;  0.0000000E+00;  1.1172213E-04;  1.4176726E+03;
  4.0474380E-03;  9.9999998E-03; -3.9986040E-02;2473;  2.2814884E-03;  0.0000000E+00; -1.3294974E-05;  9.8483856E+02;  1.0000000E-01; -1.2560979E+04;3;  9.1137360E+01;  0.0000000E+00; -2.5862011E-01;0; -9.6539874E-03;  3.8811738E+04;  0.0000000E+00; -1.1233599E-03;  4.0000000E+04;  0.0000000E+00;  4.0001703E+04; -9.7453892E-03;  0.0000000E+00;  9.1402180E-05;  1.4699000E+03;
  4.0328586E-03;  9.9999998E-03; -2.9991994E-02;2474;  2.2662471E-03;  0.0000000E+00; -1.4723623E-05;  9.8485364E+02;  1.0000000E-01; -1.2548484E+04;3;  9.1406319E+01;  0.0000000E+00; -2.3327351E-01;0; -9.6567012E-03;  3.8812441E+04;  0.0000000E+00; -6.4479315E-04;  4.0000000E+04;  0.0000000E+00;  4.0002922E+04; -9.7359288E-03;  0.0000000E+00;  7.9227153E-05;  1.5121687E+03;
  4.0216213E-03;  9.9999998E-03; -1.9996228E-02;2475;  2.2543359E-03;  0.0000000E+00; -1.2609027E-05;  9.8486719E+02;  1.0000000E-01; -1.2537226E+04;3;  9.1591118E+01;  0.0000000E+00; -1.7459343E-01;0; -9.6610021E-03;  3.8813047E+04;  0.0000000E+00; -2.9511220E-04;  4.0000000E+04;  0.0000000E+00;  4.0003254E+04; -9.7340159E-03;  0.0000000E+00;  7.3013849E-05;  1.5427422E+03;
  4.0145991E-03;  9.9999998E-03; -9.9987006E-03;2476;  2.2468956E-03;  0.0000000E+00; -7.2877037E-06;  9.8487415E+02;  1.0000000E-01; -1.2531497E+04;3;  9.1714287E+01;  0.0000000E+00; -9.3011126E-02;0; -9.6645644E-03;  3.8813578E+04;  0.0000000E+00; -7.5567405E-05;  4.0000000E+04;  0.0000000E+00;  4.0002719E+04; -9.7350217E-03;  0.0000000E+00;  7.0457565E-05;  1.5610283E+03;
  4.0122187E-03;  9.9999998E-03; -1.4491916E-10;2477;  2.2443819E-03;  0.0000000E+00; -6.1324695E-10;  9.8487628E+02;  1.0000000E-01; -1.2529720E+04;3;  9.1757050E+01;  0.0000000E+00; -7.2005755E-06;0; -9.6659027E-03;  3.8813812E+04;  0.0000000E+00; -2.4287666E-13;  4.0000000E+04;  0.0000000E+00;  4.0002672E+04; -9.7357221E-03;  0.0000000E+00;  6.9819529E-05;  1.5670836E+03;
  4.0145996E-03;  9.9999998E-03;  9.9987006E-03;2478;  2.2469000E-03;  0.0000000E+00;  7.2868679E-06;  9.8487415E+02;  1.0000000E-01; -1.2531497E+04;3;  9.1714378E+01;  0.0000000E+00;  9.3040921E-02;0; -9.6645607E-03;  3.8813578E+04;  0.0000000E+00; -7.5536147E-05;  4.0000000E+04;  0.0000000E+00;  4.0002719E+04; -9.7350143E-03;  0.0000000E+00;  7.0454073E-05;  1.5610381E+03;
  4.0216227E-03;  9.9999998E-03;  1.9996228E-02;2479;  2.2543273E-03;  0.0000000E+00;  1.2606182E-05;  9.8486719E+02;  1.0000000E-01; -1.2537226E+04;3;  9.1591133E+01;  0.0000000E+00;  1.7460567E-01;0; -9.6610030E-03;  3.8813055E+04;  0.0000000E+00; -2.9509960E-04;  4.0000000E+04;  0.0000000E+00;  4.0003254E+04; -9.7340103E-03;  0.0000000E+00;  7.3007068E-05;  1.5427499E+03;
  4.0328591E-03;  9.9999998E-03;  2.9991992E-02;2480;  2.2662373E-03;  0.0000000E+00;  1.4718344E-05;  9.8485370E+02;  1.0000000E-01; -1.2548436E+04;3;  9.1406029E+01;  0.0000000E+00;  2.3320791E-01;0; -9.6567320E-03;  3.8812445E+04;  0.0000000E+00; -6.4480392E-04;  4.0000000E+04;  0.0000000E+00;  4.0002922E+04; -9.7359493E-03;  0.0000000E+00;  7.9217425E-05;  1.5121758E+03;
  4.0474404E-03;  9.9999998E-03;  3.9986040E-02;2481;  2.2814940E-03;  0.0000000E+00;  1.3289917E-05;  9.8483850E+02;  1.0000000E-01; -1.2561027E+04;3;  9.1138077E+01;  0.0000000E+00;  2.5860587E-01;0; -9.6540088E-03;  3.8811742E+04;  0.0000000E+00; -1.1231672E-03;  4.0000000E+04;  0.0000000E+00;  4.0001703E+04; -9.7453985E-03;  0.0000000E+00;  9.1389978E-05;  1.4699180E+03;
  4.0641753E-03;  9.9999998E-03;  4.9979039E-02;2482;  2.2982883E-03;  0.0000000E+00;  8.7257322E-06;  9.8482349E+02;  1.0000000E-01; -1.2573472E+04;3;  9.0797310E+01;  0.0000000E+00;  2.4057345E-01;0; -9.6558221E-03;  3.8811098E+04;  0.0000000E+00; -1.7642507E-03;  4.0000000E+04;  0.0000000E+00;  4.0001137E+04; -9.7675305E-03;  0.0000000E+00;  1.1170832E-04;  1.4176906E+03;
  4.0815636E-03;  9.9999998E-03;  5.9971984E-02;2483;  2.3138982E-03;  0.0000000E+00;  1.8785563E-06;  9.8481329E+02;  1.0000000E-01; -1.2581916E+04;3;  9.0385109E+01;  0.0000000E+00;  1.6928487E-01;0; -9.6652247E-03;  3.8810660E+04;  0.0000000E+00; -2.6628643E-03;  4.0000000E+04;  0.0000000E+00;  4.0000773E+04; -9.8068137E-03;  0.0000000E+00;  1.4158883E-04;  1.3584281E+03;
  1.3567513E-02;  9.9999998E-03; -9.9975772E-02;2527;  1.2151680E-03;  0.0000000E+00;  1.5583824E-05;  9.8833026E+02;  1.0000000E-01; -9.6681709E+03;3;  5.3248646E+01;  0.0000000E+00;  6.8495309E-01;0; -1.2275046E-02;  3.9083004E+04;  0.0000000E+00; -2.3805814E-02;  4.0000000E+04;  0.0000000E+00;  3.9999352E+04; -1.2656082E-02;  0.0000000E+00;  3.8103649E-04;  8.5269275E+02;
  1.3565599E-02;  9.9999998E-03; -8.9973949E-02;2528;  1.2401601E-03;  0.0000000E+00;  1.2929338E-05;  9.8832092E+02;  1.0000000E-01; -9.6758740E+03;3;  5.3354416E+01;  0.0000000E+00;  3.7097490E-01;0; -1.2244554E-02;  3.9081715E+04;  0.0000000E+00; -1.4730470E-02;  4.0000000E+04;  0.0000000E+00;  3.9999434E+04; -1.2566851E-02;  0.0000000E+00;  3.2229608E-04;  8.8221674E+02;
  1.3558771E-02;  9.9999998E-03; -7.9974212E-02;2529;  1.2484555E-03;  0.0000000E+00;  7.8994581E-06;  9.8831604E+02;  1.0000000E-01; -9.6799238E+03;3;  5.3578583E+01;  0.0000000E+00;  1.3075452E-01;0; -1.2214855E-02;  3.9080887E+04;  0.0000000E+00; -9.5904050E-03;  4.0000000E+04;  0.0000000E+00;  3.9999035E+04; -1.2480743E-02;  0.0000000E+00;  2.6588782E-04;  9.1841309E+02;
  1.3548007E-02;  9.9999998E-03; -6.9976717E-02;2530;  1.2435463E-03;  0.0000000E+00;  1.5013957E-06;  9.8830737E+02;  1.0000000E-01; -9.6871338E+03;3;  5.3952896E+01;  0.0000000E+00; -4.2141043E-02;0; -1.2191902E-02;  3.9079777E+04;  0.0000000E+00; -6.5574786E-03;  4.0000000E+04;  0.0000000E+00;  3.9999133E+04; -1.2406446E-02;  0.0000000E+00;  2.1454388E-04;  9.6226660E+02;
  1.3534309E-02;  9.9999998E-03; -5.9980761E-02;2531;  1.2295732E-03;  0.0000000E+00; -5.1228953E-06;  9.8830054E+02;  1.0000000E-01; -9.6927627E+03;3;  5.4403839E+01;  0.0000000E+00; -1.5451019E-01;0; -1.2177603E-02;  3.9079383E+04;  0.0000000E+00; -4.6016308E-03;  4.0000000E+04;  0.0000000E+00;  3.9999598E+04; -1.2348438E-02;  0.0000000E+00;  1.7083446E-04;  1.0130166E+03;
  1.3519363E-02;  9.9999998E-03; -4.9985815E-02;2532;  1.2106326E-03;  0.0000000E+00; -1.0822579E-05;  9.8830481E+02;  1.0000000E-01; -9.6892568E+03;3;  5.4822990E+01;  0.0000000E+00; -2.1375926E-01;0; -1.2171253E-02;  3.9078934E+04;  0.0000000E+00; -3.1993294E-03;  4.0000000E+04;  0.0000000E+00;  4.0000441E+04; -1.2307734E-02;  0.0000000E+00;  1.3648199E-04;  1.0673959E+03;
  1.3504557E-02;  9.9999998E-03; -3.9990779E-02;2533;  1.1909382E-03;  0.0000000E+00; -1.4486940E-05;  9.8830701E+02;  1.0000000E-01; -9.6874297E+03;3;  5.5252022E+01;  0.0000000E+00; -2.2772302E-01;0; -1.2170822E-02;  3.9078961E+04;  0.0000000E+00; -2.1082840E-03;  4.0000000E+04;  0.0000000E+00;  4.0001023E+04; -1.2282710E-02;  0.0000000E+00;  1.1188732E-04;  1.1205977E+03;
  1.3491306E-02;  9.9999998E-03; -2.9994920E-02;2534;  1.1731311E-03;  0.0000000E+00; -1.5257439E-05;  9.8831506E+02;  1.0000000E-01; -9.6807637E+03;3;  5.5590843E+01;  0.0000000E+00; -2.0431413E-01;0; -1.2173524E-02;  3.9079098E+04;  0.0000000E+00; -1.2354437E-03;  4.0000000E+04;  0.0000000E+00;  4.0001832E+04; -1.2269625E-02;  0.0000000E+00;  9.6100237E-05;  1.1674542E+03;
  1.3480870E-02;  9.9999998E-03; -1.9997748E-02;2535;  1.1593072E-03;  0.0000000E+00; -1.2741803E-05;  9.8832275E+02;  1.0000000E-01; -9.6743926E+03;3;  5.5844822E+01;  0.0000000E+00; -1.5234651E-01;0; -1.2177210E-02;  3.9079285E+04;  0.0000000E+00; -5.7115365E-04;  4.0000000E+04;  0.0000000E+00;  4.0002320E+04; -1.2264421E-02;  0.0000000E+00;  8.7211163E-05;  1.2037054E+03;
  1.3474229E-02;  9.9999998E-03; -9.9993125E-03;2536;  1.1506600E-03;  0.0000000E+00; -7.2618559E-06;  9.8832727E+02;  1.0000000E-01; -9.6706396E+03;3;  5.6007263E+01;  0.0000000E+00; -8.1028789E-02;0; -1.2180077E-02;  3.9079539E+04;  0.0000000E+00; -1.4681311E-04;  4.0000000E+04;  0.0000000E+00;  4.0002742E+04; -1.2263109E-02;  0.0000000E+00;  8.3032355E-05;  1.2264688E+03;
  1.3471933E-02;  9.9999998E-03; -8.1062081E-11;2537;  1.1476873E-03;  0.0000000E+00; -9.7396147E-10;  9.8833020E+02;  1.0000000E-01; -9.6682207E+03;3;  5.6053276E+01;  0.0000000E+00; -2.2282056E-06;0; -1.2181113E-02;  3.9079629E+04;  0.0000000E+00;  7.4909690E-14;  4.0000000E+04;  0.0000000E+00;  4.0002742E+04; -1.2262966E-02;  0.0000000E+00;  8.1853155E-05;  1.2341936E+03;
  1.3474229E-02;  9.9999998E-03;  9.9993115E-03;2538;  1.1506615E-03;  0.0000000E+00;  7.2567022E-06;  9.8832727E+02;  1.0000000E-01; -9.6706396E+03;3;  5.6007339E+01;  0.0000000E+00;  8.1021421E-02;0; -1.2180070E-02;  3.9079543E+04;  0.0000000E+00; -1.4674698E-04;  4.0000000E+04;  0.0000000E+00;  4.0002746E+04; -1.2263099E-02;  0.0000000E+00;  8.3028455E-05;  1.2264755E+03;
  1.3480871E-02;  9.9999998E-03;  1.9997748E-02;2539;  1.1593061E-03;  0.0000000E+00;  1.2735515E-05;  9.8832275E+02;  1.0000000E-01; -9.6743926E+03;3;  5.5844830E+01;  0.0000000E+00;  1.5231396E-01;0; -1.2177222E-02;  3.9079289E+04;  0.0000000E+00; -5.7098415E-04;  4.0000000E+04;  0.0000000E+00;  4.0002320E+04; -1.2264426E-02;  0.0000000E+00;  8.7203603E-05;  1.2037134E+03;
  1.3491308E-02;  9.9999998E-03;  2.9994918E-02;2540;  1.1731311E-03;  0.0000000E+00;  1.5254139E-05;  9.8831506E+02;  1.0000000E-01; -9.6807637E+03;3;  5.5590973E+01;  0.0000000E+00;  2.0430624E-01;0; -1.2173557E-02;  3.9079094E+04;  0.0000000E+00; -1.2353085E-03;  4.0000000E+04;  0.0000000E+00;  4.0001832E+04; -1.2269646E-02;  0.0000000E+00;  9.6089447E-05;  1.1674653E+03;
  1.3504560E-02;  9.9999998E-03;  3.9990779E-02;2541;  1.1909425E-03;  0.0000000E+00;  1.4481529E-05;  9.8830701E+02;  1.0000000E-01; -9.6874297E+03;3;  5.5252048E+01;  0.0000000E+00;  2.2766279E-01;0; -1.2170829E-02;  3.9078961E+04;  0.0000000E+00; -2.1075699E-03;  4.0000000E+04;  0.0000000E+00;  4.0001023E+04; -1.2282703E-02;  0.0000000E+00;  1.1187387E-04;  1.1206000E+03;
  1.3519365E-02;  9.9999998E-03;  4.9985811E-02;2542;  1.2106308E-03;  0.0000000E+00;  1.0817790E-05;  9.8830481E+02;  1.0000000E-01; -9.6892568E+03;3;  5.4822979E+01;  0.0000000E+00;  2.1373281E-01;0; -1.2171295E-02;  3.9078945E+04;  0.0000000E+00; -3.1991682E-03;  4.0000000E+04;  0.0000000E+00;  4.0000441E+04; -1.2307762E-02;  0.0000000E+00;  1.3646643E-04;  1.0674044E+03;
  1.3534310E-02;  9.9999998E-03;  5.9980761E-02;2543;  1.2295730E-03;  0.0000000E+00;  5.1172906E-06;  9.8830054E+02;  1.0000000E-01; -9.6927627E+03;3;  5.4403770E+01;  0.0000000E+00;  1.5450145E-01;0; -1.2177665E-02;  3.9079387E+04;  0.0000000E+00; -4.6025300E-03;  4.0000000E+04;  0.0000000E+00;  3.9999598E+04; -1.2348482E-02;  0.0000000E+00;  1.7081788E-04;  1.0130211E+03;
  2.2992821E-02;  9.9999998E-03; -9.9980652E-02;2588;  1.7061569E-04;  0.0000000E+00;  1.8650341E-06;  9.9222791E+02;  1.0000000E-01; -6.4390278E+03;3;  1.8933390E+01;  0.0000000E+00;  5.4235911E-01;0; -1.4217356E-02;  3.9386977E+04;  0.0000000E+00; -2.9713385E-02;  4.0000000E+04;  0.0000000E+00;  3.9999242E+04; -1.4630813E-02;  0.0000000E+00;  4.1345711E-04;  5.7894855E+02;
  2.2993606E-02;  9.9999998E-03; -8.9981213E-02;2589;  1.9595129E-04;  0.0000000E+00;  2.6866137E-06;  9.9221063E+02;  1.0000000E-01; -6.4533481E+03;3;  1.8923485E+01;  0.0000000E+00;  2.8727242E-01;0; -1.4200022E-02;  3.9385746E+04;  0.0000000E+00; -1.9292176E-02;  4.0000000E+04;  0.0000000E+00;  3.9999254E+04; -1.4557467E-02;  0.0000000E+00;  3.5744495E-04;  5.7752954E+02;
  2.2989735E-02;  9.9999998E-03; -7.9982832E-02;2590;  2.0365868E-04;  0.0000000E+00;  7.8269170E-07;  9.9219128E+02;  1.0000000E-01; -6.4693975E+03;3;  1.9072254E+01;  0.0000000E+00;  9.2241742E-02;0; -1.4181905E-02;  3.9383855E+04;  0.0000000E+00; -1.3176134E-02;  4.0000000E+04;  0.0000000E+00;  3.9999836E+04; -1.4483095E-02;  0.0000000E+00;  3.0118995E-04;  5.8287280E+02;
  2.2981841E-02;  9.9999998E-03; -6.9985323E-02;2591;  1.9728918E-04;  0.0000000E+00; -3.0726605E-06;  9.9217102E+02;  1.0000000E-01; -6.4861377E+03;3;  1.9370380E+01;  0.0000000E+00; -4.7992941E-02;0; -1.4168359E-02;  3.9382539E+04;  0.0000000E+00; -9.3646068E-03;  4.0000000E+04;  0.0000000E+00;  3.9999527E+04; -1.4416026E-02;  0.0000000E+00;  2.4766644E-04;  6.0135822E+02;
  2.2970771E-02;  9.9999998E-03; -5.9988406E-02;2592;  1.8127575E-04;  0.0000000E+00; -7.7848226E-06;  9.9215942E+02;  1.0000000E-01; -6.4957671E+03;3;  1.9739521E+01;  0.0000000E+00; -1.3870467E-01;0; -1.4161002E-02;  3.9381262E+04;  0.0000000E+00; -6.7443717E-03;  4.0000000E+04;  0.0000000E+00;  3.9999648E+04; -1.4361082E-02;  0.0000000E+00;  2.0007964E-04;  6.3547253E+02;
  2.2958010E-02;  9.9999998E-03; -4.9991909E-02;2593;  1.6035968E-04;  0.0000000E+00; -1.2136313E-05;  9.9215479E+02;  1.0000000E-01; -6.4996187E+03;3;  2.0151138E+01;  0.0000000E+00; -1.8564604E-01;0; -1.4159231E-02;  3.9380227E+04;  0.0000000E+00; -4.7603957E-03;  4.0000000E+04;  0.0000000E+00;  3.9999836E+04; -1.4320204E-02;  0.0000000E+00;  1.6097382E-04;  6.8278271E+02;
  2.2944922E-02;  9.9999998E-03; -3.9995182E-02;2594;  1.3875356E-04;  0.0000000E+00; -1.4947303E-05;  9.9215094E+02;  1.0000000E-01; -6.5027788E+03;3;  2.0590059E+01;  0.0000000E+00; -1.9527349E-01;0; -1.4161170E-02;  3.9379613E+04;  0.0000000E+00; -3.1609128E-03;  4.0000000E+04;  0.0000000E+00;  4.0000836E+04; -1.4292722E-02;  0.0000000E+00;  1.3155176E-04;  7.3694910E+02;
  2.2932997E-02;  9.9999998E-03; -2.9997753E-02;2595;  1.1944001E-04;  0.0000000E+00; -1.5245279E-05;  9.9214996E+02;  1.0000000E-01; -6.5036187E+03;3;  2.0987173E+01;  0.0000000E+00; -1.7415436E-01;0; -1.4164728E-02;  3.9379246E+04;  0.0000000E+00; -1.8581895E-03;  4.0000000E+04;  0.0000000E+00;  4.0000918E+04; -1.4276229E-02;  0.0000000E+00;  1.1150046E-04;  7.8988373E+02;
  2.2923440E-02;  9.9999998E-03; -1.9999320E-02;2596;  1.0440339E-04;  0.0000000E+00; -1.2562669E-05;  9.9215393E+02;  1.0000000E-01; -6.5003101E+03;3;  2.1280449E+01;  0.0000000E+00; -1.2954350E-01;0; -1.4168223E-02;  3.9379141E+04;  0.0000000E+00; -8.5981359E-04;  4.0000000E+04;  0.0000000E+00;  4.0001656E+04; -1.4267564E-02;  0.0000000E+00;  9.9340003E-05;  8.3385468E+02;
  2.2917291E-02;  9.9999998E-03; -9.9999364E-03;2597;  9.4966439E-05;  0.0000000E+00; -7.1268282E-06;  9.9215741E+02;  1.0000000E-01; -6.4974458E+03;3;  2.1465324E+01;  0.0000000E+00; -6.9057174E-02;0; -1.4170666E-02;  3.9379227E+04;  0.0000000E+00; -2.2106210E-04;  4.0000000E+04;  0.0000000E+00;  4.0001895E+04; -1.4263792E-02;  0.0000000E+00;  9.3125338E-05;  8.6272498E+02;
  2.2915173E-02;  9.9999998E-03; -7.7434142E-11;2598;  9.1784939E-05;  0.0000000E+00; -1.0271837E-09;  9.9215790E+02;  1.0000000E-01; -6.4970508E+03;3;  2.1533560E+01;  0.0000000E+00; -2.0182367E-06;0; -1.4171543E-02;  3.9378984E+04;  0.0000000E+00; -1.1799164E-13;  4.0000000E+04;  0.0000000E+00;  4.0002152E+04; -1.4262800E-02;  0.0000000E+00;  9.1257207E-05;  8.7274091E+02;
  2.2917293E-02;  9.9999998E-03;  9.9999364E-03;2599;  9.4966133E-05;  0.0000000E+00;  7.1245372E-06;  9.9215741E+02;  1.0000000E-01; -6.4974458E+03;3;  2.1465336E+01;  0.0000000E+00;  6.9031671E-02;0; -1.4170673E-02;  3.9379227E+04;  0.0000000E+00; -2.2100749E-04;  4.0000000E+04;  0.0000000E+00;  4.0001895E+04; -1.4263794E-02;  0.0000000E+00;  9.3121249E-05;  8.6272766E+02;
  2.2923442E-02;  9.9999998E-03;  1.9999320E-02;2600;  1.0440234E-04;  0.0000000E+00;  1.2561069E-05;  9.9215393E+02;  1.0000000E-01; -6.5003101E+03;3;  2.1280519E+01;  0.0000000E+00;  1.2954871E-01;0; -1.4168245E-02;  3.9379141E+04;  0.0000000E+00; -8.5987669E-04;  4.0000000E+04;  0.0000000E+00;  4.0001656E+04; -1.4267577E-02;  0.0000000E+00;  9.9331854E-05;  8.3386298E+02;
  2.2933001E-02;  9.9999998E-03;  2.9997753E-02;2601;  1.1944448E-04;  0.0000000E+00;  1.5244285E-05;  9.9214984E+02;  1.0000000E-01; -6.5037173E+03;3;  2.0987986E+01;  0.0000000E+00;  1.7421938E-01;0; -1.4164751E-02;  3.9379246E+04;  0.0000000E+00; -1.8581180E-03;  4.0000000E+04;  0.0000000E+00;  4.0000918E+04; -1.4276240E-02;  0.0000000E+00;  1.1148889E-04;  7.8990289E+02;
  2.2944922E-02;  9.9999998E-03;  3.9995182E-02;2602;  1.3875370E-04;  0.0000000E+00;  1.4941161E-05;  9.9215094E+02;  1.0000000E-01; -6.5027788E+03;3;  2.0590061E+01;  0.0000000E+00;  1.9524205E-01;0; -1.4161200E-02;  3.9379613E+04;  0.0000000E+00; -3.1607929E-03;  4.0000000E+04;  0.0000000E+00;  4.0000836E+04; -1.4292737E-02;  0.0000000E+00;  1.3153712E-04;  7.3695551E+02;
  2.2958012E-02;  9.9999998E-03;  4.9991909E-02;2603;  1.6035965E-04;  0.0000000E+00;  1.2131213E-05;  9.9215479E+02;  1.0000000E-01; -6.4996187E+03;3;  2.0151175E+01;  0.0000000E+00;  1.8558927E-01;0; -1.4159261E-02;  3.9380234E+04;  0.0000000E+00; -4.7599450E-03;  4.0000000E+04;  0.0000000E+00;  3.9999836E+04; -1.4320218E-02;  0.0000000E+00;  1.6095689E-04;  6.8279144E+02;
  2.2970773E-02;  9.9999998E-03;  5.9988406E-02;2604;  1.8127468E-04;  0.0000000E+00;  7.7774148E-06;  9.9215942E+02;  1.0000000E-01; -6.4957671E+03;3;  1.9739517E+01;  0.0000000E+00;  1.3866416E-01;0; -1.4161052E-02;  3.9381266E+04;  0.0000000E+00; -6.7445356E-03;  4.0000000E+04;  0.0000000E+00;  3.9999648E+04; -1.4361113E-02;  0.0000000E+00;  2.0006156E-04;  6.3547351E+02;
  3.2459151E-02;  9.9999998E-03; -9.9986434E-02;2649; -4.6285667E-04;  0.0000000E+00; -8.4400499E-06;  9.9598083E+02;  1.0000000E-01; -3.3297825E+03;3; -1.0384568E+01;  0.0000000E+00;  3.9908499E-01;0; -1.5650392E-02;  3.9684645E+04;  0.0000000E+00; -3.3579599E-02;  4.0000000E+04;  0.0000000E+00;  3.9999648E+04; -1.6091598E-02;  0.0000000E+00;  4.4120569E-04;  3.4844357E+02;
  3.2462437E-02;  9.9999998E-03; -8.9988612E-02;2650; -4.4571797E-04;  0.0000000E+00; -4.9748733E-06;  9.9595184E+02;  1.0000000E-01; -3.3538311E+03;3; -1.0360768E+01;  0.0000000E+00;  2.0687282E-01;0; -1.5641604E-02;  3.9683070E+04;  0.0000000E+00; -2.2537615E-02;  4.0000000E+04;  0.0000000E+00;  3.9999805E+04; -1.6031021E-02;  0.0000000E+00;  3.8941787E-04;  3.0931195E+02;
  3.2461260E-02;  9.9999998E-03; -7.9991110E-02;2651; -4.4104445E-04;  0.0000000E+00; -4.2230167E-06;  9.9592725E+02;  1.0000000E-01; -3.3741763E+03;3; -1.0308978E+01;  0.0000000E+00;  5.5263735E-02;0; -1.5633646E-02;  3.9680840E+04;  0.0000000E+00; -1.5740993E-02;  4.0000000E+04;  0.0000000E+00;  3.9999512E+04; -1.5967915E-02;  0.0000000E+00;  3.3426788E-04;  2.7791846E+02;
  3.2455977E-02;  9.9999998E-03; -6.9993630E-02;2652; -4.4614534E-04;  0.0000000E+00; -5.7568918E-06;  9.9589850E+02;  1.0000000E-01; -3.3980273E+03;3; -1.0146229E+01;  0.0000000E+00; -5.8941774E-02;0; -1.5630629E-02;  3.9678629E+04;  0.0000000E+00; -1.1289229E-02;  4.0000000E+04;  0.0000000E+00;  3.9999148E+04; -1.5909642E-02;  0.0000000E+00;  2.7901246E-04;  2.6700250E+02;
  3.2447431E-02;  9.9999998E-03; -5.9995972E-02;2653; -4.5782398E-04;  0.0000000E+00; -8.6043610E-06;  9.9587396E+02;  1.0000000E-01; -3.4183230E+03;3; -9.8999033E+00;  0.0000000E+00; -1.3758110E-01;0; -1.5632939E-02;  3.9676781E+04;  0.0000000E+00; -8.1282379E-03;  4.0000000E+04;  0.0000000E+00;  4.0000016E+04; -1.5860513E-02;  0.0000000E+00;  2.2757356E-04;  2.8266879E+02;
  3.2436710E-02;  9.9999998E-03; -4.9998146E-02;2654; -4.7288783E-04;  0.0000000E+00; -1.1577276E-05;  9.9586255E+02;  1.0000000E-01; -3.4278042E+03;3; -9.6289396E+00;  0.0000000E+00; -1.8159412E-01;0; -1.5638994E-02;  3.9675301E+04;  0.0000000E+00; -5.7134796E-03;  4.0000000E+04;  0.0000000E+00;  3.9999805E+04; -1.5822422E-02;  0.0000000E+00;  1.8342749E-04;  3.2308411E+02;
  3.2425199E-02;  9.9999998E-03; -3.9999913E-02;2655; -4.8837037E-04;  0.0000000E+00; -1.3522370E-05;  9.9585449E+02;  1.0000000E-01; -3.4344707E+03;3; -9.3153114E+00;  0.0000000E+00; -1.9341853E-01;0; -1.5646519E-02;  3.9674184E+04;  0.0000000E+00; -3.7785652E-03;  4.0000000E+04;  0.0000000E+00;  3.9999832E+04; -1.5795227E-02;  0.0000000E+00;  1.4870855E-04;  3.7997495E+02;
  3.2414470E-02;  9.9999998E-03; -3.0001026E-02;2656; -5.0211360E-04;  0.0000000E+00; -1.3482704E-05;  9.9584711E+02;  1.0000000E-01; -3.4405940E+03;3; -8.9931765E+00;  0.0000000E+00; -1.7562126E-01;0; -1.5653597E-02;  3.9673496E+04;  0.0000000E+00; -2.2159489E-03;  4.0000000E+04;  0.0000000E+00;  4.0000867E+04; -1.5777469E-02;  0.0000000E+00;  1.2387169E-04;  4.4152042E+02;
  3.2405745E-02;  9.9999998E-03; -2.0001324E-02;2657; -5.1280356E-04;  0.0000000E+00; -1.0984012E-05;  9.9584802E+02;  1.0000000E-01; -3.4398533E+03;3; -8.7532492E+00;  0.0000000E+00; -1.3274394E-01;0; -1.5658956E-02;  3.9673117E+04;  0.0000000E+00; -1.0244874E-03;  4.0000000E+04;  0.0000000E+00;  4.0000828E+04; -1.5766935E-02;  0.0000000E+00;  1.0797878E-04;  4.9564774E+02;
  3.2400075E-02;  9.9999998E-03; -1.0000880E-02;2658; -5.1950134E-04;  0.0000000E+00; -6.2028748E-06;  9.9584967E+02;  1.0000000E-01; -3.4384707E+03;3; -8.5971470E+00;  0.0000000E+00; -7.1381062E-02;0; -1.5662208E-02;  3.9672891E+04;  0.0000000E+00; -2.6331222E-04;  4.0000000E+04;  0.0000000E+00;  4.0001461E+04; -1.5761625E-02;  0.0000000E+00;  9.9416007E-05;  5.3241559E+02;
  3.2398112E-02;  9.9999998E-03; -8.6120180E-11;2659; -5.2177365E-04;  0.0000000E+00; -1.0144939E-09;  9.9585028E+02;  1.0000000E-01; -3.4379768E+03;3; -8.5421610E+00;  0.0000000E+00; -1.5545913E-05;0; -1.5663296E-02;  3.9672645E+04;  0.0000000E+00;  4.2699240E-13;  4.0000000E+04;  0.0000000E+00;  4.0001520E+04; -1.5760045E-02;  0.0000000E+00;  9.6749005E-05;  5.4541180E+02;
  3.2400075E-02;  9.9999998E-03;  1.0000880E-02;2660; -5.1949843E-04;  0.0000000E+00;  6.1993674E-06;  9.9584955E+02;  1.0000000E-01; -3.4385693E+03;3; -8.5964918E+00;  0.0000000E+00;  7.1365207E-02;0; -1.5662218E-02;  3.9672891E+04;  0.0000000E+00; -2.6325401E-04;  4.0000000E+04;  0.0000000E+00;  4.0001461E+04; -1.5761629E-02;  0.0000000E+00;  9.9411744E-05;  5.3241962E+02;
  3.2405745E-02;  9.9999998E-03;  2.0001324E-02;2661; -5.1280583E-04;  0.0000000E+00;  1.0983652E-05;  9.9584814E+02;  1.0000000E-01; -3.4397546E+03;3; -8.7538872E+00;  0.0000000E+00;  1.3271897E-01;0; -1.5658967E-02;  3.9673113E+04;  0.0000000E+00; -1.0243228E-03;  4.0000000E+04;  0.0000000E+00;  4.0000828E+04; -1.5766937E-02;  0.0000000E+00;  1.0797032E-04;  4.9565216E+02;
  3.2414470E-02;  9.9999998E-03;  3.0001026E-02;2662; -5.0211285E-04;  0.0000000E+00;  1.3480524E-05;  9.9584705E+02;  1.0000000E-01; -3.4406433E+03;3; -8.9928141E+00;  0.0000000E+00;  1.7562264E-01;0; -1.5653597E-02;  3.9673492E+04;  0.0000000E+00; -2.2155740E-03;  4.0000000E+04;  0.0000000E+00;  4.0000867E+04; -1.5777458E-02;  0.0000000E+00;  1.2385963E-04;  4.4152576E+02;
  3.2425199E-02;  9.9999998E-03;  3.9999913E-02;2663; -4.8837042E-04;  0.0000000E+00;  1.3520007E-05;  9.9585443E+02;  1.0000000E-01; -3.4345203E+03;3; -9.3149815E+00;  0.0000000E+00;  1.9342151E-01;0; -1.5646562E-02;  3.9674191E+04;  0.0000000E+00; -3.7788586E-03;  4.0000000E+04;  0.0000000E+00;  3.9999828E+04; -1.5795255E-02;  0.0000000E+00;  1.4869325E-04;  3.7998203E+02;
  3.2436710E-02;  9.9999998E-03;  4.9998146E-02;2664; -4.7288969E-04;  0.0000000E+00;  1.1574074E-05;  9.9586255E+02;  1.0000000E-01; -3.4278042E+03;3; -9.6289396E+00;  0.0000000E+00;  1.8159600E-01;0; -1.5639028E-02;  3.9675301E+04;  0.0000000E+00; -5.7134451E-03;  4.0000000E+04;  0.0000000E+00;  3.9999805E+04; -1.5822437E-02;  0.0000000E+00;  1.8340957E-04;  3.2308914E+02;
  3.2447435E-02;  9.9999998E-03;  5.9995972E-02;2665; -4.5782680E-04;  0.0000000E+00;  8.6006257E-06;  9.9587402E+02;  1.0000000E-01; -3.4182737E+03;3; -9.9002209E+00;  0.0000000E+00;  1.3757870E-01;0; -1.5632985E-02;  3.9676785E+04;  0.0000000E+00; -8.1281122E-03;  4.0000000E+04;  0.0000000E+00;  4.0000016E+04; -1.5860539E-02;  0.0000000E+00;  2.2755428E-04;  2.8267578E+02;
  4.1994601E-02;  9.9999998E-03; -9.9995650E-02;2710; -9.2309568E-04;  0.0000000E+00; -1.7417935E-05;  9.9916650E+02;  1.0000000E-01; -6.9054840E+02;3; -2.7977520E+01;  0.0000000E+00;  2.6735514E-01;0; -1.6390419E-02;  3.9941047E+04;  0.0000000E+00; -3.3805773E-02;  4.0000000E+04;  0.0000000E+00;  4.0000484E+04; -1.6854092E-02;  0.0000000E+00;  4.6367355E-04;  1.9978697E+02;
  4.1999705E-02;  9.9999998E-03; -8.9997768E-02;2711; -9.0495206E-04;  0.0000000E+00; -1.1208391E-05;  9.9913135E+02;  1.0000000E-01; -7.1968335E+02;3; -2.8062778E+01;  0.0000000E+00;  1.2778848E-01;0; -1.6392536E-02;  3.9938637E+04;  0.0000000E+00; -2.2790382E-02;  4.0000000E+04;  0.0000000E+00;  4.0000301E+04; -1.6809426E-02;  0.0000000E+00;  4.1689025E-04;  1.1992177E+02;
  4.2001128E-02;  9.9999998E-03; -7.9999462E-02;2712; -9.0020959E-04;  0.0000000E+00; -8.2866709E-06;  9.9908771E+02;  1.0000000E-01; -7.5583051E+02;3; -2.8055624E+01;  0.0000000E+00;  1.8191798E-02;0; -1.6395375E-02;  3.9936277E+04;  0.0000000E+00; -1.5714651E-02;  4.0000000E+04;  0.0000000E+00;  4.0000094E+04; -1.6758658E-02;  0.0000000E+00;  3.6328280E-04;  5.1480507E+01;
  4.1998211E-02;  9.9999998E-03; -7.0000730E-02;2713; -9.0618158E-04;  0.0000000E+00; -8.3119066E-06;  9.9905389E+02;  1.0000000E-01; -7.8382971E+02;3; -2.7986294E+01;  0.0000000E+00; -6.3754283E-02;0; -1.6401697E-02;  3.9933609E+04;  0.0000000E+00; -1.0995471E-02;  4.0000000E+04;  0.0000000E+00;  3.9999863E+04; -1.6708143E-02;  0.0000000E+00;  3.0644529E-04;  1.7099190E+01;
  4.1991703E-02;  9.9999998E-03; -6.0001802E-02;2714; -9.1923214E-04;  0.0000000E+00; -1.0278151E-05;  9.9902789E+02;  1.0000000E-01; -8.0535992E+02;3; -2.7823158E+01;  0.0000000E+00; -1.1918203E-01;0; -1.6411163E-02;  3.9931367E+04;  0.0000000E+00; -7.7054109E-03;  4.0000000E+04;  0.0000000E+00;  3.9999469E+04; -1.6662262E-02;  0.0000000E+00;  2.5110017E-04;  1.2572142E+01;
  4.1982632E-02;  9.9999998E-03; -5.0002698E-02;2715; -9.3575515E-04;  0.0000000E+00; -1.2809246E-05;  9.9900909E+02;  1.0000000E-01; -8.2096442E+02;3; -2.7573143E+01;  0.0000000E+00; -1.4918666E-01;0; -1.6421793E-02;  3.9929621E+04;  0.0000000E+00; -5.3016343E-03;  4.0000000E+04;  0.0000000E+00;  4.0000250E+04; -1.6623521E-02;  0.0000000E+00;  2.0172809E-04;  4.3363754E+01;
  4.1972492E-02;  9.9999998E-03; -4.0003244E-02;2716; -9.5272152E-04;  0.0000000E+00; -1.4541627E-05;  9.9899835E+02;  1.0000000E-01; -8.2985309E+02;3; -2.7278103E+01;  0.0000000E+00; -1.5489654E-01;0; -1.6431428E-02;  3.9928273E+04;  0.0000000E+00; -3.4629479E-03;  4.0000000E+04;  0.0000000E+00;  4.0000332E+04; -1.6592888E-02;  0.0000000E+00;  1.6145952E-04;  1.0592762E+02;
  4.1962817E-02;  9.9999998E-03; -3.0003255E-02;2717; -9.6780935E-04;  0.0000000E+00; -1.4356639E-05;  9.9899286E+02;  1.0000000E-01; -8.3439618E+02;3; -2.6979471E+01;  0.0000000E+00; -1.3879259E-01;0; -1.6438784E-02;  3.9927352E+04;  0.0000000E+00; -2.0221502E-03;  4.0000000E+04;  0.0000000E+00;  4.0001312E+04; -1.6570361E-02;  0.0000000E+00;  1.3157765E-04;  1.7925807E+02;
  4.1954890E-02;  9.9999998E-03; -2.0002618E-02;2718; -9.7947207E-04;  0.0000000E+00; -1.1664861E-05;  9.9899207E+02;  1.0000000E-01; -8.3503809E+02;3; -2.6730724E+01;  0.0000000E+00; -1.0403114E-01;0; -1.6443437E-02;  3.9926754E+04;  0.0000000E+00; -9.3532610E-04;  4.0000000E+04;  0.0000000E+00;  4.0001355E+04; -1.6555173E-02;  0.0000000E+00;  1.1173572E-04;  2.4617899E+02;
  4.1949745E-02;  9.9999998E-03; -1.0001445E-02;2719; -9.8676013E-04;  0.0000000E+00; -6.5628074E-06;  9.9899078E+02;  1.0000000E-01; -8.3612451E+02;3; -2.6557249E+01;  0.0000000E+00; -5.5397473E-02;0; -1.6445866E-02;  3.9926172E+04;  0.0000000E+00; -2.4084892E-04;  4.0000000E+04;  0.0000000E+00;  4.0001652E+04; -1.6546549E-02;  0.0000000E+00;  1.0068316E-04;  2.9250894E+02;
  4.1947942E-02;  9.9999998E-03; -1.2357719E-10;2720; -9.8926097E-04;  0.0000000E+00; -1.0258397E-09;  9.9899298E+02;  1.0000000E-01; -8.3429736E+02;3; -2.6507418E+01;  0.0000000E+00; -1.2873254E-05;0; -1.6446561E-02;  3.9926094E+04;  0.0000000E+00; -5.7153045E-13;  4.0000000E+04;  0.0000000E+00;  4.0001652E+04; -1.6543729E-02;  0.0000000E+00;  9.7168428E-05;  3.0899289E+02;
  4.1949745E-02;  9.9999998E-03;  1.0001445E-02;2721; -9.8676211E-04;  0.0000000E+00;  6.5610870E-06;  9.9899072E+02;  1.0000000E-01; -8.3617389E+02;3; -2.6556986E+01;  0.0000000E+00;  5.5382643E-02;0; -1.6445870E-02;  3.9926168E+04;  0.0000000E+00; -2.4079392E-04;  4.0000000E+04;  0.0000000E+00;  4.0001652E+04; -1.6546549E-02;  0.0000000E+00;  1.0067878E-04;  2.9251193E+02;
  4.1954890E-02;  9.9999998E-03;  2.0002618E-02;2722; -9.7947230E-04;  0.0000000E+00;  1.1662477E-05;  9.9899207E+02;  1.0000000E-01; -8.3503809E+02;3; -2.6730694E+01;  0.0000000E+00;  1.0401223E-01;0; -1.6443452E-02;  3.9926758E+04;  0.0000000E+00; -9.3515724E-04;  4.0000000E+04;  0.0000000E+00;  4.0001355E+04; -1.6555179E-02;  0.0000000E+00;  1.1172722E-04;  2.4617984E+02;
  4.1962821E-02;  9.9999998E-03;  3.0003255E-02;2723; -9.6780912E-04;  0.0000000E+00;  1.4353868E-05;  9.9899286E+02;  1.0000000E-01; -8.3439618E+02;3; -2.6979391E+01;  0.0000000E+00;  1.3877858E-01;0; -1.6438803E-02;  3.9927352E+04;  0.0000000E+00; -2.0219760E-03;  4.0000000E+04;  0.0000000E+00;  4.0001312E+04; -1.6570369E-02;  0.0000000E+00;  1.3156516E-04;  1.7926952E+02;
  4.1972492E-02;  9.9999998E-03;  4.0003244E-02;2724; -9.5272082E-04;  0.0000000E+00;  1.4538203E-05;  9.9899835E+02;  1.0000000E-01; -8.2985309E+02;3; -2.7278088E+01;  0.0000000E+00;  1.5487443E-01;0; -1.6431458E-02;  3.9928273E+04;  0.0000000E+00; -3.4631146E-03;  4.0000000E+04;  0.0000000E+00;  4.0000328E+04; -1.6592901E-02;  0.0000000E+00;  1.6144378E-04;  1.0593147E+02;
  4.1982632E-02;  9.9999998E-03;  5.0002698E-02;2725; -9.3575416E-04;  0.0000000E+00;  1.2805685E-05;  9.9900909E+02;  1.0000000E-01; -8.2096442E+02;3; -2.7573071E+01;  0.0000000E+00;  1.4916086E-01;0; -1.6421823E-02;  3.9929617E+04;  0.0000000E+00; -5.3012455E-03;  4.0000000E+04;  0.0000000E+00;  4.0000254E+04; -1.6623532E-02;  0.0000000E+00;  2.0170983E-04;  4.3373089E+01;
  4.1991707E-02;  9.9999998E-03;  6.0001802E-02;2726; -9.1923488E-04;  0.0000000E+00;  1.0272303E-05;  9.9902789E+02;  1.0000000E-01; -8.0535992E+02;3; -2.7823101E+01;  0.0000000E+00;  1.1913925E-01;0; -1.6411202E-02;  3.9931379E+04;  0.0000000E+00; -7.7057104E-03;  4.0000000E+04;  0.0000000E+00;  3.9999469E+04; -1.6662283E-02;  0.0000000E+00;  2.5108000E-04;  1.2574938E+01;
  5.1612746E-02;  9.9999998E-03; -1.0000969E-01;2771; -1.2410207E-03;  0.0000000E+00; -2.5419378E-05;  1.0014942E+03;  1.0000000E-01;  1.2378909E+03;3; -3.3520061E+01;  0.0000000E+00;  1.6636129E-01;0; -1.6426211E-02;  4.0130645E+04;  0.0000000E+00; -2.9369684E-02;  4.0000000E+04;  0.0000000E+00;  4.0002230E+04; -1.6905926E-02;  0.0000000E+00;  4.7971497E-04;  1.5741905E+02;
  5.1619451E-02;  9.9999998E-03; -9.0009883E-02;2772; -1.2224375E-03;  0.0000000E+00; -1.6244710E-05;  1.0014520E+03;  1.0000000E-01;  1.2029290E+03;3; -3.3668915E+01;  0.0000000E+00;  6.8008736E-02;0; -1.6438112E-02;  4.0128109E+04;  0.0000000E+00; -1.8952368E-02;  4.0000000E+04;  0.0000000E+00;  4.0001070E+04; -1.6876170E-02;  0.0000000E+00;  4.3805866E-04;  4.1419479E+01;
  5.1622238E-02;  9.9999998E-03; -8.0009013E-02;2773; -1.2178866E-03;  0.0000000E+00; -1.0612814E-05;  1.0014031E+03;  1.0000000E-01;  1.1624363E+03;3; -3.3732845E+01;  0.0000000E+00; -6.8965089E-03;0; -1.6451059E-02;  4.0125348E+04;  0.0000000E+00; -1.2153460E-02;  4.0000000E+04;  0.0000000E+00;  4.0000281E+04; -1.6837072E-02;  0.0000000E+00;  3.8601304E-04;  7.6831276E+01;
  5.1620569E-02;  9.9999998E-03; -7.0007600E-02;2774; -1.2243300E-03;  0.0000000E+00; -8.9161695E-06;  1.0013657E+03;  1.0000000E-01;  1.1314248E+03;3; -3.3721603E+01;  0.0000000E+00; -6.2391914E-02;0; -1.6466303E-02;  4.0122891E+04;  0.0000000E+00; -7.7920612E-03;  4.0000000E+04;  0.0000000E+00;  4.0000293E+04; -1.6793881E-02;  0.0000000E+00;  3.2757767E-04;  1.4088118E+02;
  5.1615052E-02;  9.9999998E-03; -6.0006380E-02;2775; -1.2380171E-03;  0.0000000E+00; -9.8710098E-06;  1.0013357E+03;  1.0000000E-01;  1.1066354E+03;3; -3.3599625E+01;  0.0000000E+00; -9.9232547E-02;0; -1.6482379E-02;  4.0120426E+04;  0.0000000E+00; -5.0297901E-03;  4.0000000E+04;  0.0000000E+00;  4.0000062E+04; -1.6750708E-02;  0.0000000E+00;  2.6832885E-04;  1.5336870E+02;
  5.1606812E-02;  9.9999998E-03; -5.0005574E-02;2776; -1.2552746E-03;  0.0000000E+00; -1.2049833E-05;  1.0013160E+03;  1.0000000E-01;  1.0903395E+03;3; -3.3386967E+01;  0.0000000E+00; -1.1822120E-01;0; -1.6496886E-02;  4.0118508E+04;  0.0000000E+00; -3.2645348E-03;  4.0000000E+04;  0.0000000E+00;  4.0000191E+04; -1.6710650E-02;  0.0000000E+00;  2.1376470E-04;  1.1573680E+02;
  5.1597409E-02;  9.9999998E-03; -4.0004943E-02;2777; -1.2729290E-03;  0.0000000E+00; -1.3778087E-05;  1.0013062E+03;  1.0000000E-01;  1.0821422E+03;3; -3.3122272E+01;  0.0000000E+00; -1.2026032E-01;0; -1.6507810E-02;  4.0116867E+04;  0.0000000E+00; -2.0757462E-03;  4.0000000E+04;  0.0000000E+00;  4.0000812E+04; -1.6675815E-02;  0.0000000E+00;  1.6800495E-04;  4.2258419E+01;
  5.1588319E-02;  9.9999998E-03; -3.0004159E-02;2778; -1.2887022E-03;  0.0000000E+00; -1.3753491E-05;  1.0013048E+03;  1.0000000E-01;  1.0810558E+03;3; -3.2854637E+01;  0.0000000E+00; -1.0611090E-01;0; -1.6514538E-02;  4.0116152E+04;  0.0000000E+00; -1.2100984E-03;  4.0000000E+04;  0.0000000E+00;  4.0001785E+04; -1.6647689E-02;  0.0000000E+00;  1.3315168E-04;  4.6503624E+01;
  5.1580895E-02;  9.9999998E-03; -2.0003056E-02;2779; -1.3008345E-03;  0.0000000E+00; -1.1272085E-05;  1.0013059E+03;  1.0000000E-01;  1.0819447E+03;3; -3.2622448E+01;  0.0000000E+00; -7.8572378E-02;0; -1.6517688E-02;  4.0115469E+04;  0.0000000E+00; -5.6576915E-04;  4.0000000E+04;  0.0000000E+00;  4.0001977E+04; -1.6627122E-02;  0.0000000E+00;  1.0943463E-04;  1.2839799E+02;
  5.1576070E-02;  9.9999998E-03; -1.0001629E-02;2780; -1.3084593E-03;  0.0000000E+00; -6.3771445E-06;  1.0013060E+03;  1.0000000E-01;  1.0819447E+03;3; -3.2459274E+01;  0.0000000E+00; -4.1234449E-02;0; -1.6518688E-02;  4.0115098E+04;  0.0000000E+00; -1.4730499E-04;  4.0000000E+04;  0.0000000E+00;  4.0002191E+04; -1.6614636E-02;  0.0000000E+00;  9.5947769E-05;  1.8544461E+02;
  5.1574405E-02;  9.9999998E-03; -1.4967790E-10;2781; -1.3110674E-03;  0.0000000E+00; -6.8852185E-10;  1.0013078E+03;  1.0000000E-01;  1.0835249E+03;3; -3.2407654E+01;  0.0000000E+00; -4.8169950E-06;0; -1.6518855E-02;  4.0115035E+04;  0.0000000E+00; -8.8281319E-13;  4.0000000E+04;  0.0000000E+00;  4.0002652E+04; -1.6610462E-02;  0.0000000E+00;  9.1606191E-05;  2.0582523E+02;
  5.1576070E-02;  9.9999998E-03;  1.0001628E-02;2782; -1.3084563E-03;  0.0000000E+00;  6.3764210E-06;  1.0013060E+03;  1.0000000E-01;  1.0819447E+03;3; -3.2459213E+01;  0.0000000E+00;  4.1237216E-02;0; -1.6518716E-02;  4.0115098E+04;  0.0000000E+00; -1.4721780E-04;  4.0000000E+04;  0.0000000E+00;  4.0002191E+04; -1.6614659E-02;  0.0000000E+00;  9.5943702E-05;  1.8544371E+02;
  5.1580895E-02;  9.9999998E-03;  2.0003054E-02;2783; -1.3008349E-03;  0.0000000E+00;  1.1271226E-05;  1.0013059E+03;  1.0000000E-01;  1.0819447E+03;3; -3.2622452E+01;  0.0000000E+00;  7.8570493E-02;0; -1.6517714E-02;  4.0115469E+04;  0.0000000E+00; -5.6572148E-04;  4.0000000E+04;  0.0000000E+00;  4.0001977E+04; -1.6627140E-02;  0.0000000E+00;  1.0942639E-04;  1.2840428E+02;
  5.1588319E-02;  9.9999998E-03;  3.0004157E-02;2784; -1.2887060E-03;  0.0000000E+00;  1.3751764E-05;  1.0013047E+03;  1.0000000E-01;  1.0809570E+03;3; -3.2854645E+01;  0.0000000E+00;  1.0610016E-01;0; -1.6514571E-02;  4.0116156E+04;  0.0000000E+00; -1.2098717E-03;  4.0000000E+04;  0.0000000E+00;  4.0001785E+04; -1.6647711E-02;  0.0000000E+00;  1.3313947E-04;  4.6505371E+01;
  5.1597409E-02;  9.9999998E-03;  4.0004943E-02;2785; -1.2729294E-03;  0.0000000E+00;  1.3776190E-05;  1.0013062E+03;  1.0000000E-01;  1.0821422E+03;3; -3.3122269E+01;  0.0000000E+00;  1.2024520E-01;0; -1.6507844E-02;  4.0116871E+04;  0.0000000E+00; -2.0753595E-03;  4.0000000E+04;  0.0000000E+00;  4.0000816E+04; -1.6675834E-02;  0.0000000E+00;  1.6798946E-04;  4.2245060E+01;
  5.1606812E-02;  9.9999998E-03;  5.0005574E-02;2786; -1.2552782E-03;  0.0000000E+00;  1.2046492E-05;  1.0013160E+03;  1.0000000E-01;  1.0903395E+03;3; -3.3386925E+01;  0.0000000E+00;  1.1820991E-01;0; -1.6496921E-02;  4.0118508E+04;  0.0000000E+00; -3.2640579E-03;  4.0000000E+04;  0.0000000E+00;  4.0000191E+04; -1.6710667E-02;  0.0000000E+00;  2.1374589E-04;  1.1573518E+02;
  5.1615052E-02;  9.9999998E-03;  6.0006380E-02;2787; -1.2380169E-03;  0.0000000E+00;  9.8677046E-06;  1.0013357E+03;  1.0000000E-01;  1.1066354E+03;3; -3.3599571E+01;  0.0000000E+00;  9.9219143E-02;0; -1.6482439E-02;  4.0120430E+04;  0.0000000E+00; -5.0292397E-03;  4.0000000E+04;  0.0000000E+00;  4.0000062E+04; -1.6750747E-02;  0.0000000E+00;  2.6830766E-04;  1.5336372E+02;
  6.1322019E-02;  9.9999998E-03; -1.0002808E-01;2832; -1.4300572E-03;  0.0000000E+00; -4.3193369E-05;  1.0028484E+03;  1.0000000E-01;  2.3599333E+03;3; -3.0632504E+01;  0.0000000E+00;  1.2328115E-01;0; -1.5861580E-02;  4.0242270E+04;  0.0000000E+00; -2.0660438E-02;  4.0000000E+04;  0.0000000E+00;  4.0003879E+04; -1.6348917E-02;  0.0000000E+00;  4.8733683E-04;  2.3628621E+02;
  6.1328549E-02;  9.9999998E-03; -9.0024479E-02;2833; -1.4061149E-03;  0.0000000E+00; -2.0988244E-05;  1.0027979E+03;  1.0000000E-01;  2.3179592E+03;3; -3.0784365E+01;  0.0000000E+00;  4.7736842E-02;0; -1.5883543E-02;  4.0239848E+04;  0.0000000E+00; -1.1454190E-02;  4.0000000E+04;  0.0000000E+00;  4.0002469E+04; -1.6334102E-02;  0.0000000E+00;  4.5055919E-04;  7.6068047E+01;
  6.1331291E-02;  9.9999998E-03; -8.0019720E-02;2834; -1.4004607E-03;  0.0000000E+00; -8.3236382E-06;  1.0027535E+03;  1.0000000E-01;  2.2812195E+03;3; -3.0894766E+01;  0.0000000E+00; -9.1082677E-03;0; -1.5906386E-02;  4.0236883E+04;  0.0000000E+00; -5.6195650E-03;  4.0000000E+04;  0.0000000E+00;  4.0002012E+04; -1.6306365E-02;  0.0000000E+00;  3.9997956E-04;  6.5393593E+01;
  6.1329991E-02;  9.9999998E-03; -7.0014656E-02;2835; -1.4078518E-03;  0.0000000E+00; -3.2877522E-06;  1.0027160E+03;  1.0000000E-01;  2.2501091E+03;3; -3.0913479E+01;  0.0000000E+00; -5.0056621E-02;0; -1.5929740E-02;  4.0234453E+04;  0.0000000E+00; -2.3256545E-03;  4.0000000E+04;  0.0000000E+00;  4.0000891E+04; -1.6269784E-02;  0.0000000E+00;  3.4004531E-04;  1.5111963E+02;
  6.1325002E-02;  9.9999998E-03; -6.0010336E-02;2836; -1.4238034E-03;  0.0000000E+00; -3.8945477E-06;  1.0026919E+03;  1.0000000E-01;  2.2301592E+03;3; -3.0839703E+01;  0.0000000E+00; -7.7342995E-02;0; -1.5950989E-02;  4.0232262E+04;  0.0000000E+00; -7.4148178E-04;  4.0000000E+04;  0.0000000E+00;  4.0000535E+04; -1.6228162E-02;  0.0000000E+00;  2.7717336E-04;  1.7019466E+02;
  6.1317332E-02;  9.9999998E-03; -5.0007313E-02;2837; -1.4443981E-03;  0.0000000E+00; -7.4077425E-06;  1.0026786E+03;  1.0000000E-01;  2.2191965E+03;3; -3.0680210E+01;  0.0000000E+00; -9.0251476E-02;0; -1.5967401E-02;  4.0230863E+04;  0.0000000E+00; -1.4938605E-04;  4.0000000E+04;  0.0000000E+00;  4.0001004E+04; -1.6185226E-02;  0.0000000E+00;  2.1782512E-04;  1.2665633E+02;
  6.1308254E-02;  9.9999998E-03; -4.0005364E-02;2838; -1.4661404E-03;  0.0000000E+00; -1.1397239E-05;  1.0026733E+03;  1.0000000E-01;  2.2147522E+03;3; -3.0461830E+01;  0.0000000E+00; -8.8042289E-02;0; -1.5977444E-02;  4.0229801E+04;  0.0000000E+00; -2.0179266E-05;  4.0000000E+04;  0.0000000E+00;  4.0001836E+04; -1.6144473E-02;  0.0000000E+00;  1.6702909E-04;  3.8868580E+01;
  6.1299253E-02;  9.9999998E-03; -3.0004093E-02;2839; -1.4863125E-03;  0.0000000E+00; -1.3803146E-05;  1.0026713E+03;  1.0000000E-01;  2.2131719E+03;3; -3.0228575E+01;  0.0000000E+00; -7.8213438E-02;0; -1.5981467E-02;  4.0229199E+04;  0.0000000E+00; -2.9277009E-05;  4.0000000E+04;  0.0000000E+00;  4.0002473E+04; -1.6109101E-02;  0.0000000E+00;  1.2763393E-04;  6.7280083E+01;
  6.1291747E-02;  9.9999998E-03; -2.0002969E-02;2840; -1.5024438E-03;  0.0000000E+00; -1.2816966E-05;  1.0026764E+03;  1.0000000E-01;  2.2173201E+03;3; -3.0033339E+01;  0.0000000E+00; -5.7741031E-02;0; -1.5981315E-02;  4.0228730E+04;  0.0000000E+00; -3.2996842E-05;  4.0000000E+04;  0.0000000E+00;  4.0003105E+04; -1.6081702E-02;  0.0000000E+00;  1.0038786E-04;  1.6530878E+02;
  6.1286792E-02;  9.9999998E-03; -1.0001630E-02;2841; -1.5126426E-03;  0.0000000E+00; -7.8863450E-06;  1.0026832E+03;  1.0000000E-01;  2.2230483E+03;3; -2.9905197E+01;  0.0000000E+00; -3.0920738E-02;0; -1.5979739E-02;  4.0228539E+04;  0.0000000E+00; -1.2873003E-05;  4.0000000E+04;  0.0000000E+00;  4.0003906E+04; -1.6064428E-02;  0.0000000E+00;  8.4689222E-05;  2.3339270E+02;
  6.1285064E-02;  9.9999998E-03; -1.6795168E-10;2842; -1.5161318E-03;  0.0000000E+00; -1.0088138E-10;  1.0026846E+03;  1.0000000E-01;  2.2241345E+03;3; -2.9857056E+01;  0.0000000E+00;  1.9621343E-06;0; -1.5978921E-02;  4.0228332E+04;  0.0000000E+00; -4.5604173E-13;  4.0000000E+04;  0.0000000E+00;  4.0003992E+04; -1.6058518E-02;  0.0000000E+00;  7.9597005E-05;  2.5768094E+02;
  6.1286792E-02;  9.9999998E-03;  1.0001630E-02;2843; -1.5126416E-03;  0.0000000E+00;  7.8860148E-06;  1.0026832E+03;  1.0000000E-01;  2.2230483E+03;3; -2.9905193E+01;  0.0000000E+00;  3.0923557E-02;0; -1.5979741E-02;  4.0228543E+04;  0.0000000E+00; -1.2836459E-05;  4.0000000E+04;  0.0000000E+00;  4.0003906E+04; -1.6064426E-02;  0.0000000E+00;  8.4685322E-05;  2.3339268E+02;
  6.1291747E-02;  9.9999998E-03;  2.0002969E-02;2844; -1.5024444E-03;  0.0000000E+00;  1.2817060E-05;  1.0026764E+03;  1.0000000E-01;  2.2173201E+03;3; -3.0033344E+01;  0.0000000E+00;  5.7753768E-02;0; -1.5981343E-02;  4.0228730E+04;  0.0000000E+00; -3.2801439E-05;  4.0000000E+04;  0.0000000E+00;  4.0003105E+04; -1.6081722E-02;  0.0000000E+00;  1.0037984E-04;  1.6532054E+02;
  6.1299253E-02;  9.9999998E-03;  3.0004093E-02;2845; -1.4863118E-03;  0.0000000E+00;  1.3801719E-05;  1.0026713E+03;  1.0000000E-01;  2.2131719E+03;3; -3.0228527E+01;  0.0000000E+00;  7.8192778E-02;0; -1.5981497E-02;  4.0229199E+04;  0.0000000E+00; -2.8973585E-05;  4.0000000E+04;  0.0000000E+00;  4.0002473E+04; -1.6109120E-02;  0.0000000E+00;  1.2762209E-04;  6.7287231E+01;
  6.1308254E-02;  9.9999998E-03;  4.0005364E-02;2846; -1.4661428E-03;  0.0000000E+00;  1.1397201E-05;  1.0026732E+03;  1.0000000E-01;  2.2147522E+03;3; -3.0461548E+01;  0.0000000E+00;  8.8058881E-02;0; -1.5977509E-02;  4.0229801E+04;  0.0000000E+00; -1.9953692E-05;  4.0000000E+04;  0.0000000E+00;  4.0001836E+04; -1.6144523E-02;  0.0000000E+00;  1.6701399E-04;  3.8863781E+01;
  6.1317332E-02;  9.9999998E-03;  5.0007313E-02;2847; -1.4444009E-03;  0.0000000E+00;  7.4060790E-06;  1.0026786E+03;  1.0000000E-01;  2.2191965E+03;3; -3.0680517E+01;  0.0000000E+00;  9.0257891E-02;0; -1.5967453E-02;  4.0230871E+04;  0.0000000E+00; -1.4884678E-04;  4.0000000E+04;  0.0000000E+00;  4.0001004E+04; -1.6185259E-02;  0.0000000E+00;  2.1780642E-04;  1.2665114E+02;
  6.1325002E-02;  9.9999998E-03;  6.0010336E-02;2848; -1.4238032E-03;  0.0000000E+00;  3.8927715E-06;  1.0026918E+03;  1.0000000E-01;  2.2301592E+03;3; -3.0839334E+01;  0.0000000E+00;  7.7351779E-02;0; -1.5951049E-02;  4.0232266E+04;  0.0000000E+00; -7.4041454E-04;  4.0000000E+04;  0.0000000E+00;  4.0000535E+04; -1.6228201E-02;  0.0000000E+00;  2.7715261E-04;  1.7018010E+02;
  7.1132332E-02;  9.9999998E-03; -1.0004713E-01;2893; -1.5152323E-03;  0.0000000E+00; -6.0939594E-05;  1.0032798E+03;  1.0000000E-01;  2.7172566E+03;3; -2.3686735E+01;  0.0000000E+00;  6.4380281E-02;0; -1.4887836E-02;  4.0278035E+04;  0.0000000E+00; -9.9737216E-03;  4.0000000E+04;  0.0000000E+00;  4.0006078E+04; -1.5371820E-02;  0.0000000E+00;  4.8398427E-04;  4.4326297E+02;
  7.1137302E-02;  9.9999998E-03; -9.0039432E-02;2894; -1.4903765E-03;  0.0000000E+00; -2.3563718E-05;  1.0032312E+03;  1.0000000E-01;  2.6769614E+03;3; -2.3846201E+01;  0.0000000E+00;  2.1349341E-02;0; -1.4919347E-02;  4.0275352E+04;  0.0000000E+00; -2.6351481E-03;  4.0000000E+04;  0.0000000E+00;  4.0004559E+04; -1.5371110E-02;  0.0000000E+00;  4.5176339E-04;  2.4805476E+02;
  7.1139231E-02;  9.9999998E-03; -8.0030605E-02;2895; -1.4825216E-03;  0.0000000E+00; -1.9080396E-06;  1.0031877E+03;  1.0000000E-01;  2.6409128E+03;3; -2.3959185E+01;  0.0000000E+00; -1.9275609E-02;0; -1.4951368E-02;  4.0272902E+04;  0.0000000E+00;  1.6105025E-03;  4.0000000E+04;  0.0000000E+00;  4.0003301E+04; -1.5354175E-02;  0.0000000E+00;  4.0280711E-04;  8.1721992E+01;
  7.1137622E-02;  9.9999998E-03; -7.0021927E-02;2896; -1.4883878E-03;  0.0000000E+00;  4.7403460E-06;  1.0031574E+03;  1.0000000E-01;  2.6158271E+03;3; -2.3997746E+01;  0.0000000E+00; -4.5379169E-02;0; -1.4981592E-02;  4.0271371E+04;  0.0000000E+00;  3.3642119E-03;  4.0000000E+04;  0.0000000E+00;  4.0002367E+04; -1.5323516E-02;  0.0000000E+00;  3.4192429E-04;  1.9458975E+01;
  7.1132749E-02;  9.9999998E-03; -6.0014654E-02;2897; -1.5034315E-03;  0.0000000E+00;  2.7974456E-06;  1.0031434E+03;  1.0000000E-01;  2.6042720E+03;3; -2.3955055E+01;  0.0000000E+00; -5.9271824E-02;0; -1.5006306E-02;  4.0270156E+04;  0.0000000E+00;  3.4817930E-03;  4.0000000E+04;  0.0000000E+00;  4.0002281E+04; -1.5282551E-02;  0.0000000E+00;  2.7624553E-04;  3.9144958E+01;
  7.1125336E-02;  9.9999998E-03; -5.0009504E-02;2898; -1.5237780E-03;  0.0000000E+00; -3.5938715E-06;  1.0031391E+03;  1.0000000E-01;  2.6007166E+03;3; -2.3827314E+01;  0.0000000E+00; -6.3481919E-02;0; -1.5022748E-02;  4.0269422E+04;  0.0000000E+00;  2.7788724E-03;  4.0000000E+04;  0.0000000E+00;  4.0002605E+04; -1.5235778E-02;  0.0000000E+00;  2.1302937E-04;  1.5403070E+01;
  7.1116582E-02;  9.9999998E-03; -4.0006433E-02;2899; -1.5464353E-03;  0.0000000E+00; -1.0648906E-05;  1.0031464E+03;  1.0000000E-01;  2.6067412E+03;3; -2.3666800E+01;  0.0000000E+00; -6.5528825E-02;0; -1.5030031E-02;  4.0268914E+04;  0.0000000E+00;  1.8488882E-03;  4.0000000E+04;  0.0000000E+00;  4.0002875E+04; -1.5188106E-02;  0.0000000E+00;  1.5807494E-04;  1.1937520E+02;
  7.1107835E-02;  9.9999998E-03; -3.0004647E-02;2900; -1.5679991E-03;  0.0000000E+00; -1.5123385E-05;  1.0031542E+03;  1.0000000E-01;  2.6132595E+03;3; -2.3490742E+01;  0.0000000E+00; -5.8532637E-02;0; -1.5029721E-02;  4.0268668E+04;  0.0000000E+00;  1.0248770E-03;  4.0000000E+04;  0.0000000E+00;  4.0004348E+04; -1.5144592E-02;  0.0000000E+00;  1.1487150E-04;  2.4371602E+02;
  7.1100481E-02;  9.9999998E-03; -2.0003282E-02;2901; -1.5855122E-03;  0.0000000E+00; -1.4520350E-05;  1.0031662E+03;  1.0000000E-01;  2.6231357E+03;3; -2.3344030E+01;  0.0000000E+00; -4.4385407E-02;0; -1.5025163E-02;  4.0268594E+04;  0.0000000E+00;  4.3886821E-04;  4.0000000E+04;  0.0000000E+00;  4.0005328E+04; -1.5109796E-02;  0.0000000E+00;  8.4632673E-05;  3.5729803E+02;
  7.1095563E-02;  9.9999998E-03; -1.0001775E-02;2902; -1.5968337E-03;  0.0000000E+00; -8.8645947E-06;  1.0031749E+03;  1.0000000E-01;  2.6303455E+03;3; -2.3245876E+01;  0.0000000E+00; -2.3923932E-02;0; -1.5020293E-02;  4.0268633E+04;  0.0000000E+00;  1.0592905E-04;  4.0000000E+04;  0.0000000E+00;  4.0006109E+04; -1.5087337E-02;  0.0000000E+00;  6.7043860E-05;  4.3556659E+02;
  7.1093813E-02;  9.9999998E-03; -1.6356988E-10;2903; -1.6007220E-03;  0.0000000E+00; -2.5464020E-10;  1.0031782E+03;  1.0000000E-01;  2.6330120E+03;3; -2.3211611E+01;  0.0000000E+00;  2.6809023E-06;0; -1.5018282E-02;  4.0268520E+04;  0.0000000E+00; -3.9875598E-13;  4.0000000E+04;  0.0000000E+00;  4.0006371E+04; -1.5079590E-02;  0.0000000E+00;  6.1307604E-05;  4.6335474E+02;
  7.1095563E-02;  9.9999998E-03;  1.0001774E-02;2904; -1.5968328E-03;  0.0000000E+00;  8.8651550E-06;  1.0031749E+03;  1.0000000E-01;  2.6303455E+03;3; -2.3245832E+01;  0.0000000E+00;  2.3944411E-02;0; -1.5020302E-02;  4.0268637E+04;  0.0000000E+00;  1.0603463E-04;  4.0000000E+04;  0.0000000E+00;  4.0006109E+04; -1.5087342E-02;  0.0000000E+00;  6.7040091E-05;  4.3557031E+02;
  7.1100481E-02;  9.9999998E-03;  2.0003282E-02;2905; -1.5855152E-03;  0.0000000E+00;  1.4520988E-05;  1.0031662E+03;  1.0000000E-01;  2.6231357E+03;3; -2.3344044E+01;  0.0000000E+00;  4.4373978E-02;0; -1.5025189E-02;  4.0268598E+04;  0.0000000E+00;  4.3900992E-04;  4.0000000E+04;  0.0000000E+00;  4.0005332E+04; -1.5109815E-02;  0.0000000E+00;  8.4625302E-05;  3.5730914E+02;
  7.1107835E-02;  9.9999998E-03;  3.0004647E-02;2906; -1.5680005E-03;  0.0000000E+00;  1.5122471E-05;  1.0031542E+03;  1.0000000E-01;  2.6132595E+03;3; -2.3490673E+01;  0.0000000E+00;  5.8539338E-02;0; -1.5029736E-02;  4.0268668E+04;  0.0000000E+00;  1.0251778E-03;  4.0000000E+04;  0.0000000E+00;  4.0004348E+04; -1.5144596E-02;  0.0000000E+00;  1.1486039E-04;  2.4372160E+02;
  7.1116582E-02;  9.9999998E-03;  4.0006433E-02;2907; -1.5464381E-03;  0.0000000E+00;  1.0647997E-05;  1.0031463E+03;  1.0000000E-01;  2.6066423E+03;3; -2.3666782E+01;  0.0000000E+00;  6.5525651E-02;0; -1.5030053E-02;  4.0268914E+04;  0.0000000E+00;  1.8495057E-03;  4.0000000E+04;  0.0000000E+00;  4.0002875E+04; -1.5188114E-02;  0.0000000E+00;  1.5806039E-04;  1.1938858E+02;
  7.1125336E-02;  9.9999998E-03;  5.0009504E-02;2908; -1.5237795E-03;  0.0000000E+00;  3.5915707E-06;  1.0031391E+03;  1.0000000E-01;  2.6007166E+03;3; -2.3827291E+01;  0.0000000E+00;  6.3453823E-02;0; -1.5022771E-02;  4.0269426E+04;  0.0000000E+00;  2.7787574E-03;  4.0000000E+04;  0.0000000E+00;  4.0002605E+04; -1.5235783E-02;  0.0000000E+00;  2.1301185E-04;  1.5404327E+01;
  7.1132749E-02;  9.9999998E-03;  6.0014654E-02;2909; -1.5034344E-03;  0.0000000E+00; -2.7971123E-06;  1.0031434E+03;  1.0000000E-01;  2.6042720E+03;3; -2.3955019E+01;  0.0000000E+00;  5.9261639E-02;0; -1.5006344E-02;  4.0270156E+04;  0.0000000E+00;  3.4815557E-03;  4.0000000E+04;  0.0000000E+00;  4.0002277E+04; -1.5282569E-02;  0.0000000E+00;  2.7622504E-04;  3.9132690E+01;
  8.1052437E-02;  9.9999998E-03; -1.0006026E-01;2954; -1.4957980E-03;  0.0000000E+00; -5.2259929E-05;  1.0029664E+03;  1.0000000E-01;  2.4576096E+03;3; -1.6088272E+01;  0.0000000E+00;  2.2754701E-02;0; -1.3745074E-02;  4.0251539E+04;  0.0000000E+00; -1.1596236E-03;  4.0000000E+04;  0.0000000E+00;  4.0008543E+04; -1.4212548E-02;  0.0000000E+00;  4.6747379E-04;  7.6225513E+02;
  8.1056669E-02;  9.9999998E-03; -9.0048812E-02;2955; -1.4712374E-03;  0.0000000E+00; -9.4682655E-06;  1.0029174E+03;  1.0000000E-01;  2.4170181E+03;3; -1.6224012E+01;  0.0000000E+00; -1.2964970E-02;0; -1.3785913E-02;  4.0249180E+04;  0.0000000E+00;  3.7814807E-03;  4.0000000E+04;  0.0000000E+00;  4.0006758E+04; -1.4225597E-02;  0.0000000E+00;  4.3968507E-04;  5.3923914E+02;
  8.1057772E-02;  9.9999998E-03; -8.0037281E-02;2956; -1.4629442E-03;  0.0000000E+00;  1.1045122E-05;  1.0028851E+03;  1.0000000E-01;  2.3902534E+03;3; -1.6326487E+01;  0.0000000E+00; -3.6140390E-02;0; -1.3825696E-02;  4.0247902E+04;  0.0000000E+00;  6.1770673E-03;  4.0000000E+04;  0.0000000E+00;  4.0005426E+04; -1.4218718E-02;  0.0000000E+00;  3.9302139E-04;  3.5244308E+02;
  8.1055753E-02;  9.9999998E-03; -7.0026502E-02;2957; -1.4674504E-03;  0.0000000E+00;  1.4539173E-05;  1.0028728E+03;  1.0000000E-01;  2.3800808E+03;3; -1.6374392E+01;  0.0000000E+00; -4.9926694E-02;0; -1.3860412E-02;  4.0247320E+04;  0.0000000E+00;  6.4722886E-03;  4.0000000E+04;  0.0000000E+00;  4.0003859E+04; -1.4192828E-02;  0.0000000E+00;  3.3241569E-04;  2.4309276E+02;
  8.1050776E-02;  9.9999998E-03; -6.0017556E-02;2958; -1.4804513E-03;  0.0000000E+00;  8.1629687E-06;  1.0028710E+03;  1.0000000E-01;  2.3785994E+03;3; -1.6351667E+01;  0.0000000E+00; -5.4423645E-02;0; -1.3885742E-02;  4.0247230E+04;  0.0000000E+00;  5.4847854E-03;  4.0000000E+04;  0.0000000E+00;  4.0003891E+04; -1.4151121E-02;  0.0000000E+00;  2.6537807E-04;  2.2628398E+02;
  8.1043676E-02;  9.9999998E-03; -5.0011620E-02;2959; -1.4979132E-03;  0.0000000E+00; -2.7960332E-06;  1.0028839E+03;  1.0000000E-01;  2.3891670E+03;3; -1.6272783E+01;  0.0000000E+00; -5.0052878E-02;0; -1.3899166E-02;  4.0247430E+04;  0.0000000E+00;  4.0019676E-03;  4.0000000E+04;  0.0000000E+00;  4.0004477E+04; -1.4098884E-02;  0.0000000E+00;  1.9971744E-04;  2.9218655E+02;
  8.1035458E-02;  9.9999998E-03; -4.0008336E-02;2960; -1.5170940E-03;  0.0000000E+00; -1.2837200E-05;  1.0029030E+03;  1.0000000E-01;  2.4050679E+03;3; -1.6148151E+01;  0.0000000E+00; -4.0472187E-02;0; -1.3900905E-02;  4.0248094E+04;  0.0000000E+00;  2.5594409E-03;  4.0000000E+04;  0.0000000E+00;  4.0005758E+04; -1.4042732E-02;  0.0000000E+00;  1.4182762E-04;  4.1339423E+02;
  8.1027210E-02;  9.9999998E-03; -3.0006727E-02;2961; -1.5358070E-03;  0.0000000E+00; -1.8511435E-05;  1.0029235E+03;  1.0000000E-01;  2.4220549E+03;3; -1.6018791E+01;  0.0000000E+00; -3.4350224E-02;0; -1.3893988E-02;  4.0248496E+04;  0.0000000E+00;  1.4075997E-03;  4.0000000E+04;  0.0000000E+00;  4.0006453E+04; -1.3989743E-02;  0.0000000E+00;  9.5754818E-05;  5.5457385E+02;
  8.1020087E-02;  9.9999998E-03; -2.0005452E-02;2962; -1.5513835E-03;  0.0000000E+00; -1.7712409E-05;  1.0029380E+03;  1.0000000E-01;  2.4341040E+03;3; -1.5904543E+01;  0.0000000E+00; -2.5247214E-02;0; -1.3883299E-02;  4.0248754E+04;  0.0000000E+00;  6.0964882E-04;  4.0000000E+04;  0.0000000E+00;  4.0007703E+04; -1.3946462E-02;  0.0000000E+00;  6.3163207E-05;  6.8165967E+02;
  8.1015296E-02;  9.9999998E-03; -1.0003316E-02;2963; -1.5616175E-03;  0.0000000E+00; -1.0775215E-05;  1.0029507E+03;  1.0000000E-01;  2.4445728E+03;3; -1.5830954E+01;  0.0000000E+00; -1.5108804E-02;0; -1.3874130E-02;  4.0248930E+04;  0.0000000E+00;  1.4952818E-04;  4.0000000E+04;  0.0000000E+00;  4.0008301E+04; -1.3918178E-02;  0.0000000E+00;  4.4047785E-05;  7.6828979E+02;
  8.1013583E-02;  9.9999998E-03; -5.8225737E-11;2964; -1.5651354E-03;  0.0000000E+00;  7.0290956E-10;  1.0029557E+03;  1.0000000E-01;  2.4488196E+03;3; -1.5806378E+01;  0.0000000E+00;  1.5046779E-05;0; -1.3870573E-02;  4.0248949E+04;  0.0000000E+00;  6.5620409E-13;  4.0000000E+04;  0.0000000E+00;  4.0008871E+04; -1.3908357E-02;  0.0000000E+00;  3.7784554E-05;  7.9880518E+02;
  8.1015296E-02;  9.9999998E-03;  1.0003316E-02;2965; -1.5616171E-03;  0.0000000E+00;  1.0774963E-05;  1.0029507E+03;  1.0000000E-01;  2.4445728E+03;3; -1.5830941E+01;  0.0000000E+00;  1.5116373E-02;0; -1.3874128E-02;  4.0248930E+04;  0.0000000E+00;  1.4970277E-04;  4.0000000E+04;  0.0000000E+00;  4.0008301E+04; -1.3918172E-02;  0.0000000E+00;  4.4044475E-05;  7.6829614E+02;
  8.1020087E-02;  9.9999998E-03;  2.0005452E-02;2966; -1.5513848E-03;  0.0000000E+00;  1.7714205E-05;  1.0029380E+03;  1.0000000E-01;  2.4341040E+03;3; -1.5904522E+01;  0.0000000E+00;  2.5283372E-02;0; -1.3883317E-02;  4.0248754E+04;  0.0000000E+00;  6.0993322E-04;  4.0000000E+04;  0.0000000E+00;  4.0007703E+04; -1.3946474E-02;  0.0000000E+00;  6.3156527E-05;  6.8166656E+02;
  8.1027210E-02;  9.9999998E-03;  3.0006727E-02;2967; -1.5358101E-03;  0.0000000E+00;  1.8511948E-05;  1.0029235E+03;  1.0000000E-01;  2.4220549E+03;3; -1.6018789E+01;  0.0000000E+00;  3.4360081E-02;0; -1.3894015E-02;  4.0248496E+04;  0.0000000E+00;  1.4079720E-03;  4.0000000E+04;  0.0000000E+00;  4.0006453E+04; -1.3989760E-02;  0.0000000E+00;  9.5744952E-05;  5.5457904E+02;
  8.1035450E-02;  9.9999998E-03;  4.0008336E-02;2968; -1.5170965E-03;  0.0000000E+00;  1.2837813E-05;  1.0029031E+03;  1.0000000E-01;  2.4051665E+03;3; -1.6148312E+01;  0.0000000E+00;  4.0477838E-02;0; -1.3900941E-02;  4.0248098E+04;  0.0000000E+00;  2.5597380E-03;  4.0000000E+04;  0.0000000E+00;  4.0005758E+04; -1.4042756E-02;  0.0000000E+00;  1.4181448E-04;  4.1340079E+02;
  8.1043676E-02;  9.9999998E-03;  5.0011620E-02;2969; -1.4979158E-03;  0.0000000E+00;  2.7966837E-06;  1.0028838E+03;  1.0000000E-01;  2.3891670E+03;3; -1.6272766E+01;  0.0000000E+00;  5.0048184E-02;0; -1.3899202E-02;  4.0247422E+04;  0.0000000E+00;  4.0031215E-03;  4.0000000E+04;  0.0000000E+00;  4.0004477E+04; -1.4098903E-02;  0.0000000E+00;  1.9970107E-04;  2.9220151E+02;
  8.1050776E-02;  9.9999998E-03;  6.0017560E-02;2970; -1.4804541E-03;  0.0000000E+00; -8.1669123E-06;  1.0028710E+03;  1.0000000E-01;  2.3785007E+03;3; -1.6351494E+01;  0.0000000E+00;  5.4404140E-02;0; -1.3885793E-02;  4.0247234E+04;  0.0000000E+00;  5.4859235E-03;  4.0000000E+04;  0.0000000E+00;  4.0003891E+04; -1.4151152E-02;  0.0000000E+00;  2.6535892E-04;  2.2628644E+02;
  9.1100849E-02;  9.9999998E-03; -1.0006184E-01;3015; -1.4294010E-03;  0.0000000E+00; -1.5893396E-05;  1.0021663E+03;  1.0000000E-01;  1.7947147E+03;3; -9.8792772E+00;  0.0000000E+00; -3.8806234E-02;0; -1.2675803E-02;  4.0183461E+04;  0.0000000E+00;  1.4555814E-03;  4.0000000E+04;  0.0000000E+00;  4.0010918E+04; -1.3112666E-02;  0.0000000E+00;  4.3686270E-04;  1.1609580E+03;
  9.1110773E-02;  9.9999998E-03; -9.0047657E-02;3016; -1.4078083E-03;  0.0000000E+00;  1.7953158E-05;  1.0021338E+03;  1.0000000E-01;  1.7678512E+03;3; -9.9872303E+00;  0.0000000E+00; -4.7943894E-02;0; -1.2724670E-02;  4.0182574E+04;  0.0000000E+00;  3.9100973E-03;  4.0000000E+04;  0.0000000E+00;  4.0008867E+04; -1.3138617E-02;  0.0000000E+00;  4.1394739E-04;  9.1698260E+02;
  9.1114953E-02;  9.9999998E-03; -8.0034629E-02;3017; -1.4006007E-03;  0.0000000E+00;  2.8806353E-05;  1.0021177E+03;  1.0000000E-01;  1.7544196E+03;3; -1.0078944E+01;  0.0000000E+00; -5.9622716E-02;0; -1.2769688E-02;  4.0182730E+04;  0.0000000E+00;  4.8598824E-03;  4.0000000E+04;  0.0000000E+00;  4.0007195E+04; -1.3140609E-02;  0.0000000E+00;  3.7092128E-04;  7.1503119E+02;
  9.1114014E-02;  9.9999998E-03; -7.0023336E-02;3018; -1.4032379E-03;  0.0000000E+00;  2.6246731E-05;  1.0021205E+03;  1.0000000E-01;  1.7567898E+03;3; -1.0120144E+01;  0.0000000E+00; -6.2430501E-02;0; -1.2805671E-02;  4.0183773E+04;  0.0000000E+00;  4.5370371E-03;  4.0000000E+04;  0.0000000E+00;  4.0006270E+04; -1.3118098E-02;  0.0000000E+00;  3.1242706E-04;  6.0020587E+02;
  9.1108993E-02;  9.9999998E-03; -6.0014762E-02;3019; -1.4125863E-03;  0.0000000E+00;  1.5678213E-05;  1.0021393E+03;  1.0000000E-01;  1.7723943E+03;3; -1.0108479E+01;  0.0000000E+00; -5.9319720E-02;0; -1.2828305E-02;  4.0185113E+04;  0.0000000E+00;  3.5377950E-03;  4.0000000E+04;  0.0000000E+00;  4.0006480E+04; -1.3074271E-02;  0.0000000E+00;  2.4596619E-04;  5.8781982E+02;
  9.1101333E-02;  9.9999998E-03; -5.0010465E-02;3020; -1.4264656E-03;  0.0000000E+00;  5.7484823E-07;  1.0021700E+03;  1.0000000E-01;  1.7977764E+03;3; -1.0055552E+01;  0.0000000E+00; -5.0375015E-02;0; -1.2835837E-02;  4.0186648E+04;  0.0000000E+00;  2.4080828E-03;  4.0000000E+04;  0.0000000E+00;  4.0006922E+04; -1.3015466E-02;  0.0000000E+00;  1.7962852E-04;  6.6511780E+02;
  9.1092341E-02;  9.9999998E-03; -4.0010039E-02;3021; -1.4419156E-03;  0.0000000E+00; -1.3060622E-05;  1.0022050E+03;  1.0000000E-01;  1.8268125E+03;3; -9.9805241E+00;  0.0000000E+00; -4.0062290E-02;0; -1.2829610E-02;  4.0187930E+04;  0.0000000E+00;  1.4611884E-03;  4.0000000E+04;  0.0000000E+00;  4.0008066E+04; -1.2949858E-02;  0.0000000E+00;  1.2024773E-04;  8.0068939E+02;
  9.1083169E-02;  9.9999998E-03; -3.0011281E-02;3022; -1.4560493E-03;  0.0000000E+00; -2.0309495E-05;  1.0022379E+03;  1.0000000E-01;  1.8540710E+03;3; -9.9004774E+00;  0.0000000E+00; -2.9286550E-02;0; -1.2814136E-02;  4.0189406E+04;  0.0000000E+00;  7.8171195E-04;  4.0000000E+04;  0.0000000E+00;  4.0009691E+04; -1.2886500E-02;  0.0000000E+00;  7.2363866E-05;  9.5556512E+02;
  9.1075189E-02;  9.9999998E-03; -2.0011464E-02;3023; -1.4674910E-03;  0.0000000E+00; -2.0219511E-05;  1.0022598E+03;  1.0000000E-01;  1.8722433E+03;3; -9.8282299E+00;  0.0000000E+00; -1.9100830E-02;0; -1.2795931E-02;  4.0190090E+04;  0.0000000E+00;  3.3675408E-04;  4.0000000E+04;  0.0000000E+00;  4.0011039E+04; -1.2834040E-02;  0.0000000E+00;  3.8108690E-05;  1.0931984E+03;
  9.1069840E-02;  9.9999998E-03; -1.0008424E-02;3024; -1.4749967E-03;  0.0000000E+00; -1.2781116E-05;  1.0022766E+03;  1.0000000E-01;  1.8861688E+03;3; -9.7824392E+00;  0.0000000E+00; -9.0881195E-03;0; -1.2781638E-02;  4.0190516E+04;  0.0000000E+00;  8.2851810E-05;  4.0000000E+04;  0.0000000E+00;  4.0011035E+04; -1.2799480E-02;  0.0000000E+00;  1.7842684E-05;  1.1860968E+03;
  9.1067918E-02;  9.9999998E-03;  2.5021568E-10;3025; -1.4776407E-03;  0.0000000E+00; -8.7456342E-10;  1.0022838E+03;  1.0000000E-01;  1.8920946E+03;3; -9.7678127E+00;  0.0000000E+00;  5.3118511E-06;0; -1.2776263E-02;  4.0190852E+04;  0.0000000E+00;  2.8784782E-13;  4.0000000E+04;  0.0000000E+00;  4.0011316E+04; -1.2787431E-02;  0.0000000E+00;  1.1168509E-05;  1.2186378E+03;
  9.1069840E-02;  9.9999998E-03;  1.0008425E-02;3026; -1.4749985E-03;  0.0000000E+00;  1.2778299E-05;  1.0022766E+03;  1.0000000E-01;  1.8861688E+03;3; -9.7824545E+00;  0.0000000E+00;  9.1044875E-03;0; -1.2781653E-02;  4.0190516E+04;  0.0000000E+00;  8.3036939E-05;  4.0000000E+04;  0.0000000E+00;  4.0011035E+04; -1.2799492E-02;  0.0000000E+00;  1.7839859E-05;  1.1860995E+03;
  9.1075189E-02;  9.9999998E-03;  2.0011464E-02;3027; -1.4674948E-03;  0.0000000E+00;  2.0217012E-05;  1.0022598E+03;  1.0000000E-01;  1.8721445E+03;3; -9.8281393E+00;  0.0000000E+00;  1.9122763E-02;0; -1.2795952E-02;  4.0190098E+04;  0.0000000E+00;  3.3715664E-04;  4.0000000E+04;  0.0000000E+00;  4.0011039E+04; -1.2834055E-02;  0.0000000E+00;  3.8103128E-05;  1.0932073E+03;
  9.1083162E-02;  9.9999998E-03;  3.0011283E-02;3028; -1.4560518E-03;  0.0000000E+00;  2.0308327E-05;  1.0022379E+03;  1.0000000E-01;  1.8540710E+03;3; -9.9004517E+00;  0.0000000E+00;  2.9312078E-02;0; -1.2814167E-02;  4.0189402E+04;  0.0000000E+00;  7.8236550E-04;  4.0000000E+04;  0.0000000E+00;  4.0009691E+04; -1.2886522E-02;  0.0000000E+00;  7.2355135E-05;  9.5557489E+02;
  9.1092341E-02;  9.9999998E-03;  4.0010039E-02;3029; -1.4419191E-03;  0.0000000E+00;  1.3056740E-05;  1.0022049E+03;  1.0000000E-01;  1.8267137E+03;3; -9.9805183E+00;  0.0000000E+00;  4.0052924E-02;0; -1.2829646E-02;  4.0187922E+04;  0.0000000E+00;  1.4623543E-03;  4.0000000E+04;  0.0000000E+00;  4.0008070E+04; -1.2949882E-02;  0.0000000E+00;  1.2023589E-04;  8.0070062E+02;
  9.1101333E-02;  9.9999998E-03;  5.0010465E-02;3030; -1.4264691E-03;  0.0000000E+00; -5.7734979E-07;  1.0021700E+03;  1.0000000E-01;  1.7978751E+03;3; -1.0055639E+01;  0.0000000E+00;  5.0372463E-02;0; -1.2835871E-02;  4.0186645E+04;  0.0000000E+00;  2.4081164E-03;  4.0000000E+04;  0.0000000E+00;  4.0006922E+04; -1.3015484E-02;  0.0000000E+00;  1.7961342E-04;  6.6512408E+02;
  9.1108993E-02;  9.9999998E-03;  6.0014762E-02;3031; -1.4125907E-03;  0.0000000E+00; -1.5681846E-05;  1.0021393E+03;  1.0000000E-01;  1.7723943E+03;3; -1.0108484E+01;  0.0000000E+00;  5.9325706E-02;0; -1.2828360E-02;  4.0185109E+04;  0.0000000E+00;  3.5390384E-03;  4.0000000E+04;  0.0000000E+00;  4.0006480E+04; -1.3074309E-02;  0.0000000E+00;  2.4594870E-04;  5.8781921E+02;
  1.0137398E-01;  9.9999998E-03; -1.0003691E-01;3076; -1.3743484E-03;  0.0000000E+00;  1.4918532E-05;  1.0011677E+03;  1.0000000E-01;  9.6747882E+02;3; -5.6530313E+00;  0.0000000E+00; -7.1080416E-02;0; -1.1876167E-02;  4.0098121E+04;  0.0000000E+00; -5.2886275E-03;  4.0000000E+04;  0.0000000E+00;  4.0013277E+04; -1.2269054E-02;  0.0000000E+00;  3.9288719E-04;  1.5934318E+03;
  1.0139443E-01;  9.9999998E-03; -9.0020679E-02;3077; -1.3558465E-03;  0.0000000E+00;  3.4736579E-05;  1.0011580E+03;  1.0000000E-01;  9.5938025E+02;3; -5.7263365E+00;  0.0000000E+00; -7.1712442E-02;0; -1.1930803E-02;  4.0098875E+04;  0.0000000E+00; -4.5945048E-03;  4.0000000E+04;  0.0000000E+00;  4.0011133E+04; -1.2307001E-02;  0.0000000E+00;  3.7619841E-04;  1.3340381E+03;
  1.0140608E-01;  9.9999998E-03; -8.0001339E-02;3078; -1.3483857E-03;  0.0000000E+00;  3.9663282E-05;  1.0011650E+03;  1.0000000E-01;  9.6520728E+02;3; -5.7838159E+00;  0.0000000E+00; -6.9991991E-02;0; -1.1977737E-02;  4.0101047E+04;  0.0000000E+00; -3.8338765E-03;  4.0000000E+04;  0.0000000E+00;  4.0009762E+04; -1.2316441E-02;  0.0000000E+00;  3.3870424E-04;  1.1198076E+03;
  1.0141038E-01;  9.9999998E-03; -6.9982842E-02;3079; -1.3494900E-03;  0.0000000E+00;  3.3961285E-05;  1.0011929E+03;  1.0000000E-01;  9.8831775E+02;3; -5.8173537E+00;  0.0000000E+00; -6.6605754E-02;0; -1.2011431E-02;  4.0103785E+04;  0.0000000E+00; -3.2077297E-03;  4.0000000E+04;  0.0000000E+00;  4.0009082E+04; -1.2295847E-02;  0.0000000E+00;  2.8441555E-04;  9.9978516E+02;
  1.0140963E-01;  9.9999998E-03; -5.9974208E-02;3080; -1.3561203E-03;  0.0000000E+00;  2.2054302E-05;  1.0012310E+03;  1.0000000E-01;  1.0199218E+03;3; -5.8186064E+00;  0.0000000E+00; -6.1250679E-02;0; -1.2027900E-02;  4.0106891E+04;  0.0000000E+00; -2.6177980E-03;  4.0000000E+04;  0.0000000E+00;  4.0008961E+04; -1.2248546E-02;  0.0000000E+00;  2.2064603E-04;  9.8932526E+02;
  1.0140494E-01;  9.9999998E-03; -4.9977571E-02;3081; -1.3653645E-03;  0.0000000E+00;  8.0463715E-06;  1.0012793E+03;  1.0000000E-01;  1.0599207E+03;3; -5.7950191E+00;  0.0000000E+00; -5.5252448E-02;0; -1.2026440E-02;  4.0109832E+04;  0.0000000E+00; -1.9810596E-03;  4.0000000E+04;  0.0000000E+00;  4.0009727E+04; -1.2182011E-02;  0.0000000E+00;  1.5557051E-04;  1.0734597E+03;
  1.0139772E-01;  9.9999998E-03; -3.9986841E-02;3082; -1.3750751E-03;  0.0000000E+00; -4.2199135E-06;  1.0013250E+03;  1.0000000E-01;  1.0976479E+03;3; -5.7548103E+00;  0.0000000E+00; -4.8782684E-02;0; -1.2009958E-02;  4.0111977E+04;  0.0000000E+00; -1.3253760E-03;  4.0000000E+04;  0.0000000E+00;  4.0010734E+04; -1.2106250E-02;  0.0000000E+00;  9.6292402E-05;  1.2181208E+03;
  1.0138920E-01;  9.9999998E-03; -2.9997183E-02;3083; -1.3841358E-03;  0.0000000E+00; -1.2522240E-05;  1.0013674E+03;  1.0000000E-01;  1.1329062E+03;3; -5.7100992E+00;  0.0000000E+00; -3.8523667E-02;0; -1.1984482E-02;  4.0113871E+04;  0.0000000E+00; -7.4392895E-04;  4.0000000E+04;  0.0000000E+00;  4.0012414E+04; -1.2032276E-02;  0.0000000E+00;  4.7793579E-05;  1.3821279E+03;
  1.0138091E-01;  9.9999998E-03; -2.0005126E-02;3084; -1.3913091E-03;  0.0000000E+00; -1.4408292E-05;  1.0013966E+03;  1.0000000E-01;  1.1571030E+03;3; -5.6680913E+00;  0.0000000E+00; -2.6610117E-02;0; -1.1957933E-02;  4.0115145E+04;  0.0000000E+00; -3.1960153E-04;  4.0000000E+04;  0.0000000E+00;  4.0013371E+04; -1.1970610E-02;  0.0000000E+00;  1.2677080E-05;  1.5271152E+03;
  1.0137475E-01;  9.9999998E-03; -1.0007652E-02;3085; -1.3957437E-03;  0.0000000E+00; -9.3983790E-06;  1.0014174E+03;  1.0000000E-01;  1.1742877E+03;3; -5.6418228E+00;  0.0000000E+00; -1.3672451E-02;0; -1.1938122E-02;  4.0115984E+04;  0.0000000E+00; -7.7069839E-05;  4.0000000E+04;  0.0000000E+00;  4.0014105E+04; -1.1929829E-02;  0.0000000E+00; -8.2930865E-06;  1.6245686E+03;
  1.0137220E-01;  9.9999998E-03;  5.3450333E-10;3086; -1.3972487E-03;  0.0000000E+00; -2.7285105E-09;  1.0014237E+03;  1.0000000E-01;  1.1795222E+03;3; -5.6326857E+00;  0.0000000E+00;  1.1991322E-05;0; -1.1930810E-02;  4.0116223E+04;  0.0000000E+00;  1.8315789E-12;  4.0000000E+04;  0.0000000E+00;  4.0014410E+04; -1.1915573E-02;  0.0000000E+00; -1.5236961E-05;  1.6586019E+03;
  1.0137475E-01;  9.9999998E-03;  1.0007652E-02;3087; -1.3957453E-03;  0.0000000E+00;  9.3938961E-06;  1.0014174E+03;  1.0000000E-01;  1.1742877E+03;3; -5.6418271E+00;  0.0000000E+00;  1.3677776E-02;0; -1.1938123E-02;  4.0115984E+04;  0.0000000E+00; -7.6891251E-05;  4.0000000E+04;  0.0000000E+00;  4.0014105E+04; -1.1929828E-02;  0.0000000E+00; -8.2952665E-06;  1.6245684E+03;
  1.0138091E-01;  9.9999998E-03;  2.0005126E-02;3088; -1.3913113E-03;  0.0000000E+00;  1.4404224E-05;  1.0013966E+03;  1.0000000E-01;  1.1571030E+03;3; -5.6680856E+00;  0.0000000E+00;  2.6637228E-02;0; -1.1957956E-02;  4.0115148E+04;  0.0000000E+00; -3.1896343E-04;  4.0000000E+04;  0.0000000E+00;  4.0013371E+04; -1.1970629E-02;  0.0000000E+00;  1.2672620E-05;  1.5271239E+03;
  1.0138920E-01;  9.9999998E-03;  2.9997185E-02;3089; -1.3841382E-03;  0.0000000E+00;  1.2517228E-05;  1.0013674E+03;  1.0000000E-01;  1.1329062E+03;3; -5.7100725E+00;  0.0000000E+00;  3.8550340E-02;0; -1.1984500E-02;  4.0113871E+04;  0.0000000E+00; -7.4338296E-04;  4.0000000E+04;  0.0000000E+00;  4.0012414E+04; -1.2032286E-02;  0.0000000E+00;  4.7786583E-05;  1.3821360E+03;
  1.0139772E-01;  9.9999998E-03;  3.9986841E-02;3090; -1.3750800E-03;  0.0000000E+00;  4.2139018E-06;  1.0013250E+03;  1.0000000E-01;  1.0976479E+03;3; -5.7548127E+00;  0.0000000E+00;  4.8783191E-02;0; -1.2009976E-02;  4.0111973E+04;  0.0000000E+00; -1.3249867E-03;  4.0000000E+04;  0.0000000E+00;  4.0010738E+04; -1.2106259E-02;  0.0000000E+00;  9.6282725E-05;  1.2181400E+03;
  1.0140494E-01;  9.9999998E-03;  4.9977571E-02;3091; -1.3653697E-03;  0.0000000E+00; -8.0542959E-06;  1.0012793E+03;  1.0000000E-01;  1.0599207E+03;3; -5.7950330E+00;  0.0000000E+00;  5.5191211E-02;0; -1.2026498E-02;  4.0109836E+04;  0.0000000E+00; -1.9805608E-03;  4.0000000E+04;  0.0000000E+00;  4.0009727E+04; -1.2182056E-02;  0.0000000E+00;  1.5555756E-04;  1.0734728E+03;
  1.0140963E-01;  9.9999998E-03;  5.9974208E-02;3092; -1.3561266E-03;  0.0000000E+00; -2.2058988E-05;  1.0012309E+03;  1.0000000E-01;  1.0198230E+03;3; -5.8185487E+00;  0.0000000E+00;  6.1250087E-02;0; -1.2027955E-02;  4.0106891E+04;  0.0000000E+00; -2.6169345E-03;  4.0000000E+04;  0.0000000E+00;  4.0008961E+04; -1.2248585E-02;  0.0000000E+00;  2.2063077E-04;  9.8933618E+02;
  1.1178491E-01;  9.9999998E-03; -9.9985033E-02;3137; -1.3751073E-03;  0.0000000E+00;  2.8886647E-05;  1.0002427E+03;  1.0000000E-01;  2.0108073E+02;3; -3.2090566E+00;  0.0000000E+00; -7.8200772E-02;0; -1.1473627E-02;  4.0018039E+04;  0.0000000E+00; -2.1686632E-02;  4.0000000E+04;  0.0000000E+00;  4.0016121E+04; -1.1813521E-02;  0.0000000E+00;  3.3989493E-04;  2.0012883E+03;
  1.1190337E-01;  9.9999998E-03; -8.9963727E-02;3138; -1.3578197E-03;  0.0000000E+00;  4.3917426E-05;  1.0002573E+03;  1.0000000E-01;  2.1312978E+02;3; -3.2400169E+00;  0.0000000E+00; -7.4149616E-02;0; -1.1529221E-02;  4.0020684E+04;  0.0000000E+00; -2.1046167E-02;  4.0000000E+04;  0.0000000E+00;  4.0014125E+04; -1.1860118E-02;  0.0000000E+00;  3.3089708E-04;  1.7288488E+03;
  1.1199603E-01;  9.9999998E-03; -7.9944335E-02;3139; -1.3495350E-03;  0.0000000E+00;  4.7320500E-05;  1.0002864E+03;  1.0000000E-01;  2.3722786E+02;3; -3.2634368E+00;  0.0000000E+00; -6.9035538E-02;0; -1.1573279E-02;  4.0024344E+04;  0.0000000E+00; -1.8535329E-02;  4.0000000E+04;  0.0000000E+00;  4.0012191E+04; -1.1874016E-02;  0.0000000E+00;  3.0073678E-04;  1.5018289E+03;
  1.1204524E-01;  9.9999998E-03; -6.9940522E-02;3140; -1.3481291E-03;  0.0000000E+00;  4.0793184E-05;  1.0003334E+03;  1.0000000E-01;  2.7623911E+02;3; -3.2788942E+00;  0.0000000E+00; -6.3132703E-02;0; -1.1600590E-02;  4.0028953E+04;  0.0000000E+00; -1.5079912E-02;  4.0000000E+04;  0.0000000E+00;  4.0011375E+04; -1.1853429E-02;  0.0000000E+00;  2.5283897E-04;  1.3725648E+03;
  1.1205817E-01;  9.9999998E-03; -5.9946131E-02;3141; -1.3507862E-03;  0.0000000E+00;  2.8003455E-05;  1.0003897E+03;  1.0000000E-01;  3.2285507E+02;3; -3.2823160E+00;  0.0000000E+00; -5.4161627E-02;0; -1.1607990E-02;  4.0033523E+04;  0.0000000E+00; -1.1352708E-02;  4.0000000E+04;  0.0000000E+00;  4.0011363E+04; -1.1801991E-02;  0.0000000E+00;  1.9400088E-04;  1.3570872E+03;
  1.1205401E-01;  9.9999998E-03; -4.9956203E-02;3142; -1.3553350E-03;  0.0000000E+00;  1.3875795E-05;  1.0004492E+03;  1.0000000E-01;  3.7213763E+02;3; -3.2747762E+00;  0.0000000E+00; -4.5956533E-02;0; -1.1595724E-02;  4.0037465E+04;  0.0000000E+00; -7.8504514E-03;  4.0000000E+04;  0.0000000E+00;  4.0012023E+04; -1.1727912E-02;  0.0000000E+00;  1.3218787E-04;  1.4407292E+03;
  1.1204651E-01;  9.9999998E-03; -3.9968517E-02;3143; -1.3603420E-03;  0.0000000E+00;  1.3956206E-06;  1.0005015E+03;  1.0000000E-01;  4.1549442E+02;3; -3.2580116E+00;  0.0000000E+00; -3.9265621E-02;0; -1.1567779E-02;  4.0040551E+04;  0.0000000E+00; -4.8968643E-03;  4.0000000E+04;  0.0000000E+00;  4.0013133E+04; -1.1642475E-02;  0.0000000E+00;  7.4695774E-05;  1.5885621E+03;
  1.1203889E-01;  9.9999998E-03; -2.9980564E-02;3144; -1.3646188E-03;  0.0000000E+00; -6.9224066E-06;  1.0005504E+03;  1.0000000E-01;  4.5598709E+02;3; -3.2380602E+00;  0.0000000E+00; -3.0108579E-02;0; -1.1531609E-02;  4.0042789E+04;  0.0000000E+00; -2.6487473E-03;  4.0000000E+04;  0.0000000E+00;  4.0014859E+04; -1.1558504E-02;  0.0000000E+00;  2.6895106E-05;  1.7576467E+03;
  1.1203278E-01;  9.9999998E-03; -1.9990658E-02;3145; -1.3680819E-03;  0.0000000E+00; -9.5231571E-06;  1.0005896E+03;  1.0000000E-01;  4.8848001E+02;3; -3.2208035E+00;  0.0000000E+00; -2.1452622E-02;0; -1.1496373E-02;  4.0044547E+04;  0.0000000E+00; -1.1281878E-03;  4.0000000E+04;  0.0000000E+00;  4.0016098E+04; -1.1488218E-02;  0.0000000E+00; -8.1549306E-06;  1.9077839E+03;
  1.1202902E-01;  9.9999998E-03; -9.9977199E-03;3146; -1.3703238E-03;  0.0000000E+00; -6.5376053E-06;  1.0006112E+03;  1.0000000E-01;  5.0635605E+02;3; -3.2080755E+00;  0.0000000E+00; -1.1262196E-02;0; -1.1470922E-02;  4.0045562E+04;  0.0000000E+00; -2.7269358E-04;  4.0000000E+04;  0.0000000E+00;  4.0016734E+04; -1.1441647E-02;  0.0000000E+00; -2.9275390E-05;  2.0089989E+03;
  1.1202783E-01;  9.9999998E-03; -2.5584987E-10;3147; -1.3711039E-03;  0.0000000E+00; -2.3564197E-09;  1.0006188E+03;  1.0000000E-01;  5.1267688E+02;3; -3.2036583E+00;  0.0000000E+00;  1.9488103E-05;0; -1.1461643E-02;  4.0045887E+04;  0.0000000E+00;  2.5507044E-12;  4.0000000E+04;  0.0000000E+00;  4.0017074E+04; -1.1425341E-02;  0.0000000E+00; -3.6301401E-05;  2.0444076E+03;
  1.1202902E-01;  9.9999998E-03;  9.9977199E-03;3148; -1.3703246E-03;  0.0000000E+00;  6.5320210E-06;  1.0006112E+03;  1.0000000E-01;  5.0635605E+02;3; -3.2080591E+00;  0.0000000E+00;  1.1294987E-02;0; -1.1470914E-02;  4.0045559E+04;  0.0000000E+00; -2.7239107E-04;  4.0000000E+04;  0.0000000E+00;  4.0016734E+04; -1.1441637E-02;  0.0000000E+00; -2.9276911E-05;  2.0089995E+03;
  1.1203278E-01;  9.9999998E-03;  1.9990658E-02;3149; -1.3680845E-03;  0.0000000E+00;  9.5180503E-06;  1.0005897E+03;  1.0000000E-01;  4.8848001E+02;3; -3.2207968E+00;  0.0000000E+00;  2.1491637E-02;0; -1.1496388E-02;  4.0044543E+04;  0.0000000E+00; -1.1278887E-03;  4.0000000E+04;  0.0000000E+00;  4.0016098E+04; -1.1488230E-02;  0.0000000E+00; -8.1580783E-06;  1.9077974E+03;
  1.1203888E-01;  9.9999998E-03;  2.9980564E-02;3150; -1.3646232E-03;  0.0000000E+00;  6.9154084E-06;  1.0005504E+03;  1.0000000E-01;  4.5598709E+02;3; -3.2380674E+00;  0.0000000E+00;  3.0106358E-02;0; -1.1531623E-02;  4.0042789E+04;  0.0000000E+00; -2.6483019E-03;  4.0000000E+04;  0.0000000E+00;  4.0014859E+04; -1.1558513E-02;  0.0000000E+00;  2.6889906E-05;  1.7576494E+03;
  1.1204650E-01;  9.9999998E-03;  3.9968517E-02;3151; -1.3603470E-03;  0.0000000E+00; -1.4010136E-06;  1.0005015E+03;  1.0000000E-01;  4.1549442E+02;3; -3.2580168E+00;  0.0000000E+00;  3.9271530E-02;0; -1.1567819E-02;  4.0040555E+04;  0.0000000E+00; -4.8956964E-03;  4.0000000E+04;  0.0000000E+00;  4.0013133E+04; -1.1642507E-02;  0.0000000E+00;  7.4688185E-05;  1.5885850E+03;
  1.1205401E-01;  9.9999998E-03;  4.9956203E-02;3152; -1.3553409E-03;  0.0000000E+00; -1.3881155E-05;  1.0004492E+03;  1.0000000E-01;  3.7213763E+02;3; -3.2747743E+00;  0.0000000E+00;  4.5971714E-02;0; -1.1595747E-02;  4.0037461E+04;  0.0000000E+00; -7.8495201E-03;  4.0000000E+04;  0.0000000E+00;  4.0012023E+04; -1.1727924E-02;  0.0000000E+00;  1.3217771E-04;  1.4407488E+03;
  1.1205816E-01;  9.9999998E-03;  5.9946131E-02;3153; -1.3507924E-03;  0.0000000E+00; -2.8012479E-05;  1.0003897E+03;  1.0000000E-01;  3.2285507E+02;3; -3.2823071E+00;  0.0000000E+00;  5.4121692E-02;0; -1.1608050E-02;  4.0033523E+04;  0.0000000E+00; -1.1351251E-02;  4.0000000E+04;  0.0000000E+00;  4.0011363E+04; -1.1802038E-02;  0.0000000E+00;  1.9398841E-04;  1.3570931E+03;
  1.2210476E-01;  9.9999998E-03; -9.9945374E-02;3198; -1.4540391E-03;  0.0000000E+00;  2.7927590E-05;  9.9958105E+02;  1.0000000E-01; -3.4710129E+02;3; -1.9781247E+00;  0.0000000E+00; -8.4264360E-02;0; -1.1477481E-02;  3.9959641E+04;  0.0000000E+00; -4.3228824E-02;  4.0000000E+04;  0.0000000E+00;  4.0018305E+04; -1.1762819E-02;  0.0000000E+00;  2.8533870E-04;  2.3176362E+03;
  1.2208809E-01;  9.9999998E-03; -8.9945175E-02;3199; -1.4368065E-03;  0.0000000E+00;  4.2021933E-05;  9.9962292E+02;  1.0000000E-01; -3.1238623E+02;3; -2.0090909E+00;  0.0000000E+00; -7.6097339E-02;0; -1.1532176E-02;  3.9964391E+04;  0.0000000E+00; -3.9967820E-02;  4.0000000E+04;  0.0000000E+00;  4.0015633E+04; -1.1818885E-02;  0.0000000E+00;  2.8670812E-04;  2.0345677E+03;
  1.2206755E-01;  9.9999998E-03; -7.9943247E-02;3200; -1.4265992E-03;  0.0000000E+00;  4.6240701E-05;  9.9967981E+02;  1.0000000E-01; -2.6527646E+02;3; -2.0369523E+00;  0.0000000E+00; -6.5611236E-02;0; -1.1571928E-02;  3.9970680E+04;  0.0000000E+00; -3.3677205E-02;  4.0000000E+04;  0.0000000E+00;  4.0014562E+04; -1.1837967E-02;  0.0000000E+00;  2.6603887E-04;  1.7934139E+03;
  1.2204856E-01;  9.9999998E-03; -6.9943480E-02;3201; -1.4215662E-03;  0.0000000E+00;  4.1412372E-05;  9.9974280E+02;  1.0000000E-01; -2.1308040E+02;3; -2.0567935E+00;  0.0000000E+00; -5.7520088E-02;0; -1.1591568E-02;  3.9976609E+04;  0.0000000E+00; -2.6246259E-02;  4.0000000E+04;  0.0000000E+00;  4.0013094E+04; -1.1817724E-02;  0.0000000E+00;  2.2615594E-04;  1.6497365E+03;
  1.2203302E-01;  9.9999998E-03; -5.9947245E-02;3202; -1.4196920E-03;  0.0000000E+00;  3.1088839E-05;  9.9981244E+02;  1.0000000E-01; -1.5540302E+02;3; -2.0704062E+00;  0.0000000E+00; -4.6448842E-02;0; -1.1588820E-02;  3.9982195E+04;  0.0000000E+00; -1.8993018E-02;  4.0000000E+04;  0.0000000E+00;  4.0012891E+04; -1.1762464E-02;  0.0000000E+00;  1.7364460E-04;  1.6225769E+03;
  1.2202112E-01;  9.9999998E-03; -4.9954064E-02;3203; -1.4191304E-03;  0.0000000E+00;  1.8587371E-05;  9.9987610E+02;  1.0000000E-01; -1.0266376E+02;3; -2.0728252E+00;  0.0000000E+00; -3.6696445E-02;0; -1.1565150E-02;  3.9986691E+04;  0.0000000E+00; -1.2712697E-02;  4.0000000E+04;  0.0000000E+00;  4.0013855E+04; -1.1681682E-02;  0.0000000E+00;  1.1653254E-04;  1.6985956E+03;
  1.2201251E-01;  9.9999998E-03; -3.9963055E-02;3204; -1.4193138E-03;  0.0000000E+00;  7.5002217E-06;  9.9993518E+02;  1.0000000E-01; -5.3677494E+01;3; -2.0682759E+00;  0.0000000E+00; -2.8823238E-02;0; -1.1525962E-02;  3.9990102E+04;  0.0000000E+00; -7.7531445E-03;  4.0000000E+04;  0.0000000E+00;  4.0014707E+04; -1.1588244E-02;  0.0000000E+00;  6.2281797E-05;  1.8428557E+03;
  1.2200636E-01;  9.9999998E-03; -2.9973155E-02;3205; -1.4199204E-03;  0.0000000E+00; -8.0995321E-08;  9.9998224E+02;  1.0000000E-01; -1.4715633E+01;3; -2.0626855E+00;  0.0000000E+00; -2.1608388E-02;0; -1.1479829E-02;  3.9992551E+04;  0.0000000E+00; -4.1485117E-03;  4.0000000E+04;  0.0000000E+00;  4.0016121E+04; -1.1496347E-02;  0.0000000E+00;  1.6518721E-05;  2.0113969E+03;
  1.2200179E-01;  9.9999998E-03; -1.9983456E-02;3206; -1.4205819E-03;  0.0000000E+00; -3.5302589E-06;  1.0000186E+03;  1.0000000E-01;  1.5406972E+01;3; -2.0578058E+00;  0.0000000E+00; -1.4482251E-02;0; -1.1436798E-02;  3.9993926E+04;  0.0000000E+00; -1.7648895E-03;  4.0000000E+04;  0.0000000E+00;  4.0017410E+04; -1.1419405E-02;  0.0000000E+00; -1.7392120E-05;  2.1626414E+03;
  1.2199914E-01;  9.9999998E-03; -9.9928929E-03;3207; -1.4211229E-03;  0.0000000E+00; -2.9583507E-06;  1.0000406E+03;  1.0000000E-01;  3.3579296E+01;3; -2.0543065E+00;  0.0000000E+00; -7.2483970E-03;0; -1.1406407E-02;  3.9994930E+04;  0.0000000E+00; -4.2786018E-04;  4.0000000E+04;  0.0000000E+00;  4.0018188E+04; -1.1368430E-02;  0.0000000E+00; -3.7976592E-05;  2.2652129E+03;
  1.2199827E-01;  9.9999998E-03; -3.6376085E-10;3208; -1.4213255E-03;  0.0000000E+00; -2.5450078E-09;  1.0000473E+03;  1.0000000E-01;  3.9208767E+01;3; -2.0527198E+00;  0.0000000E+00;  2.1121068E-05;0; -1.1395465E-02;  3.9995164E+04;  0.0000000E+00;  1.0439738E-12;  4.0000000E+04;  0.0000000E+00;  4.0018449E+04; -1.1350615E-02;  0.0000000E+00; -4.4849792E-05;  2.3012100E+03;
  1.2199913E-01;  9.9999998E-03;  9.9928919E-03;3209; -1.4211235E-03;  0.0000000E+00;  2.9517562E-06;  1.0000406E+03;  1.0000000E-01;  3.3579296E+01;3; -2.0543101E+00;  0.0000000E+00;  7.2517442E-03;0; -1.1406414E-02;  3.9994930E+04;  0.0000000E+00; -4.2767698E-04;  4.0000000E+04;  0.0000000E+00;  4.0018188E+04; -1.1368437E-02;  0.0000000E+00; -3.7977410E-05;  2.2652158E+03;
  1.2200179E-01;  9.9999998E-03;  1.9983456E-02;3210; -1.4205851E-03;  0.0000000E+00;  3.5247515E-06;  1.0000186E+03;  1.0000000E-01;  1.5406972E+01;3; -2.0577979E+00;  0.0000000E+00;  1.4506076E-02;0; -1.1436801E-02;  3.9993922E+04;  0.0000000E+00; -1.7643304E-03;  4.0000000E+04;  0.0000000E+00;  4.0017410E+04; -1.1419407E-02;  0.0000000E+00; -1.7393993E-05;  2.1626514E+03;
  1.2200636E-01;  9.9999998E-03;  2.9973153E-02;3211; -1.4199250E-03;  0.0000000E+00;  7.3934686E-08;  9.9998224E+02;  1.0000000E-01; -1.4715633E+01;3; -2.0626972E+00;  0.0000000E+00;  2.1617223E-02;0; -1.1479854E-02;  3.9992551E+04;  0.0000000E+00; -4.1478346E-03;  4.0000000E+04;  0.0000000E+00;  4.0016121E+04; -1.1496369E-02;  0.0000000E+00;  1.6515365E-05;  2.0114115E+03;
  1.2201251E-01;  9.9999998E-03;  3.9963052E-02;3212; -1.4193200E-03;  0.0000000E+00; -7.5078642E-06;  9.9993518E+02;  1.0000000E-01; -5.3677494E+01;3; -2.0682778E+00;  0.0000000E+00;  2.8793912E-02;0; -1.1525981E-02;  3.9990098E+04;  0.0000000E+00; -7.7522132E-03;  4.0000000E+04;  0.0000000E+00;  4.0014707E+04; -1.1588258E-02;  0.0000000E+00;  6.2276769E-05;  1.8428698E+03;
  1.2202112E-01;  9.9999998E-03;  4.9954064E-02;3213; -1.4191373E-03;  0.0000000E+00; -1.8594197E-05;  9.9987598E+02;  1.0000000E-01; -1.0276253E+02;3; -2.0728204E+00;  0.0000000E+00;  3.6718916E-02;0; -1.1565174E-02;  3.9986688E+04;  0.0000000E+00; -1.2711599E-02;  4.0000000E+04;  0.0000000E+00;  4.0013855E+04; -1.1681699E-02;  0.0000000E+00;  1.1652518E-04;  1.6986050E+03;
  1.2203302E-01;  9.9999998E-03;  5.9947241E-02;3214; -1.4196987E-03;  0.0000000E+00; -3.1095653E-05;  9.9981244E+02;  1.0000000E-01; -1.5540302E+02;3; -2.0704055E+00;  0.0000000E+00;  4.6438586E-02;0; -1.1588866E-02;  3.9982195E+04;  0.0000000E+00; -1.8992778E-02;  4.0000000E+04;  0.0000000E+00;  4.0012891E+04; -1.1762502E-02;  0.0000000E+00;  1.7363568E-04;  1.6225876E+03;
  1.3202365E-01;  9.9999998E-03; -9.9942029E-02;3259; -1.5911340E-03;  0.0000000E+00;  1.3549287E-05;  9.9922064E+02;  1.0000000E-01; -6.4566077E+02;3; -1.4273872E+00;  0.0000000E+00; -8.1523173E-02;0; -1.1784511E-02;  3.9925863E+04;  0.0000000E+00; -6.0216878E-02;  4.0000000E+04;  0.0000000E+00;  4.0019148E+04; -1.2021760E-02;  0.0000000E+00;  2.3724932E-04;  2.4884414E+03;
  1.3198960E-01;  9.9999998E-03; -8.9940459E-02;3260; -1.5731743E-03;  0.0000000E+00;  2.9318888E-05;  9.9926605E+02;  1.0000000E-01; -6.0808154E+02;3; -1.4414697E+00;  0.0000000E+00; -7.3592596E-02;0; -1.1831558E-02;  3.9931613E+04;  0.0000000E+00; -5.2856192E-02;  4.0000000E+04;  0.0000000E+00;  4.0017281E+04; -1.2080668E-02;  0.0000000E+00;  2.4911002E-04;  2.1973105E+03;
  1.3195659E-01;  9.9999998E-03; -7.9936765E-02;3261; -1.5601818E-03;  0.0000000E+00;  3.6914997E-05;  9.9932599E+02;  1.0000000E-01; -5.5840393E+02;3; -1.4529529E+00;  0.0000000E+00; -6.4543217E-02;0; -1.1861810E-02;  3.9937844E+04;  0.0000000E+00; -4.2701259E-02;  4.0000000E+04;  0.0000000E+00;  4.0015410E+04; -1.2100019E-02;  0.0000000E+00;  2.3820919E-04;  1.9430642E+03;
  1.3192935E-01;  9.9999998E-03; -6.9934674E-02;3262; -1.5511389E-03;  0.0000000E+00;  3.6723439E-05;  9.9938904E+02;  1.0000000E-01; -5.0615854E+02;3; -1.4638180E+00;  0.0000000E+00; -5.4102782E-02;0; -1.1870398E-02;  3.9944027E+04;  0.0000000E+00; -3.2117486E-02;  4.0000000E+04;  0.0000000E+00;  4.0014137E+04; -1.2077476E-02;  0.0000000E+00;  2.0707778E-04;  1.7837280E+03;
  1.3190843E-01;  9.9999998E-03; -5.9935994E-02;3263; -1.5449557E-03;  0.0000000E+00;  3.0438670E-05;  9.9945343E+02;  1.0000000E-01; -4.5282669E+02;3; -1.4720805E+00;  0.0000000E+00; -4.2067487E-02;0; -1.1855628E-02;  3.9949434E+04;  0.0000000E+00; -2.2598825E-02;  4.0000000E+04;  0.0000000E+00;  4.0013520E+04; -1.2017720E-02;  0.0000000E+00;  1.6209188E-04;  1.7410942E+03;
  1.3189253E-01;  9.9999998E-03; -4.9940929E-02;3264; -1.5406631E-03;  0.0000000E+00;  2.1329128E-05;  9.9951514E+02;  1.0000000E-01; -4.0171704E+02;3; -1.4810721E+00;  0.0000000E+00; -3.0333774E-02;0; -1.1819780E-02;  3.9953551E+04;  0.0000000E+00; -1.4850810E-02;  4.0000000E+04;  0.0000000E+00;  4.0014094E+04; -1.1930946E-02;  0.0000000E+00;  1.1116659E-04;  1.8038553E+03;
  1.3188061E-01;  9.9999998E-03; -3.9948989E-02;3265; -1.5374473E-03;  0.0000000E+00;  1.2189637E-05;  9.9957019E+02;  1.0000000E-01; -3.5608868E+02;3; -1.4896400E+00;  0.0000000E+00; -2.1442110E-02;0; -1.1769199E-02;  3.9956770E+04;  0.0000000E+00; -8.9951251E-03;  4.0000000E+04;  0.0000000E+00;  4.0015410E+04; -1.1830952E-02;  0.0000000E+00;  6.1753577E-05;  1.9379419E+03;
  1.3187169E-01;  9.9999998E-03; -2.9960431E-02;3266; -1.5351288E-03;  0.0000000E+00;  5.1723159E-06;  9.9961456E+02;  1.0000000E-01; -3.1934900E+02;3; -1.4965796E+00;  0.0000000E+00; -1.3247919E-02;0; -1.1713224E-02;  3.9958816E+04;  0.0000000E+00; -4.8308973E-03;  4.0000000E+04;  0.0000000E+00;  4.0016625E+04; -1.1732763E-02;  0.0000000E+00;  1.9538980E-05;  2.0993862E+03;
  1.3186499E-01;  9.9999998E-03; -1.9974146E-02;3267; -1.5336013E-03;  0.0000000E+00;  1.0969394E-06;  9.9964539E+02;  1.0000000E-01; -2.9376947E+02;3; -1.5018549E+00;  0.0000000E+00; -7.5120684E-03;0; -1.1662698E-02;  3.9960117E+04;  0.0000000E+00; -2.0763786E-03;  4.0000000E+04;  0.0000000E+00;  4.0017910E+04; -1.1650695E-02;  0.0000000E+00; -1.2002542E-05;  2.2460745E+03;
  1.3186064E-01;  9.9999998E-03; -9.9879317E-03;3268; -1.5327500E-03;  0.0000000E+00; -2.6068255E-07;  9.9966467E+02;  1.0000000E-01; -2.7781931E+02;3; -1.5049579E+00;  0.0000000E+00; -3.4006084E-03;0; -1.1627605E-02;  3.9960613E+04;  0.0000000E+00; -5.0866290E-04;  4.0000000E+04;  0.0000000E+00;  4.0018664E+04; -1.1596353E-02;  0.0000000E+00; -3.1252319E-05;  2.3461150E+03;
  1.3185905E-01;  9.9999998E-03; -3.8176634E-10;3269; -1.5324744E-03;  0.0000000E+00; -3.1190164E-09;  9.9967041E+02;  1.0000000E-01; -2.7307870E+02;3; -1.5060070E+00;  0.0000000E+00;  1.1173419E-05;0; -1.1615043E-02;  3.9960848E+04;  0.0000000E+00;  2.2793499E-12;  4.0000000E+04;  0.0000000E+00;  4.0018754E+04; -1.1577345E-02;  0.0000000E+00; -3.7697115E-05;  2.3813059E+03;
  1.3186064E-01;  9.9999998E-03;  9.9879308E-03;3270; -1.5327515E-03;  0.0000000E+00;  2.5634696E-07;  9.9966461E+02;  1.0000000E-01; -2.7786868E+02;3; -1.5049509E+00;  0.0000000E+00;  3.4551786E-03;0; -1.1627619E-02;  3.9960613E+04;  0.0000000E+00; -5.0848920E-04;  4.0000000E+04;  0.0000000E+00;  4.0018664E+04; -1.1596367E-02;  0.0000000E+00; -3.1252475E-05;  2.3461213E+03;
  1.3186499E-01;  9.9999998E-03;  1.9974146E-02;3271; -1.5336046E-03;  0.0000000E+00; -1.1016821E-06;  9.9964545E+02;  1.0000000E-01; -2.9372009E+02;3; -1.5018582E+00;  0.0000000E+00;  7.5350730E-03;0; -1.1662709E-02;  3.9960113E+04;  0.0000000E+00; -2.0762258E-03;  4.0000000E+04;  0.0000000E+00;  4.0017910E+04; -1.1650706E-02;  0.0000000E+00; -1.2003023E-05;  2.2460859E+03;
  1.3187169E-01;  9.9999998E-03;  2.9960431E-02;3272; -1.5351333E-03;  0.0000000E+00; -5.1778948E-06;  9.9961456E+02;  1.0000000E-01; -3.1934900E+02;3; -1.4965994E+00;  0.0000000E+00;  1.3259152E-02;0; -1.1713251E-02;  3.9958820E+04;  0.0000000E+00; -4.8303767E-03;  4.0000000E+04;  0.0000000E+00;  4.0016625E+04; -1.1732789E-02;  0.0000000E+00;  1.9537691E-05;  2.0993975E+03;
  1.3188061E-01;  9.9999998E-03;  3.9948989E-02;3273; -1.5374527E-03;  0.0000000E+00; -1.2196016E-05;  9.9957025E+02;  1.0000000E-01; -3.5603931E+02;3; -1.4896426E+00;  0.0000000E+00;  2.1441134E-02;0; -1.1769210E-02;  3.9956770E+04;  0.0000000E+00; -8.9950757E-03;  4.0000000E+04;  0.0000000E+00;  4.0015410E+04; -1.1830961E-02;  0.0000000E+00;  6.1751147E-05;  1.9379574E+03;
  1.3189253E-01;  9.9999998E-03;  4.9940925E-02;3274; -1.5406687E-03;  0.0000000E+00; -2.1335483E-05;  9.9951514E+02;  1.0000000E-01; -4.0171704E+02;3; -1.4810826E+00;  0.0000000E+00;  3.0337177E-02;0; -1.1819821E-02;  3.9953551E+04;  0.0000000E+00; -1.4850728E-02;  4.0000000E+04;  0.0000000E+00;  4.0014094E+04; -1.1930984E-02;  0.0000000E+00;  1.1116230E-04;  1.8038712E+03;
  1.3190843E-01;  9.9999998E-03;  5.9935994E-02;3275; -1.5449615E-03;  0.0000000E+00; -3.0445270E-05;  9.9945337E+02;  1.0000000E-01; -4.5287607E+02;3; -1.4720803E+00;  0.0000000E+00;  4.2090099E-02;0; -1.1855655E-02;  3.9949426E+04;  0.0000000E+00; -2.2598296E-02;  4.0000000E+04;  0.0000000E+00;  4.0013520E+04; -1.2017741E-02;  0.0000000E+00;  1.6208550E-04;  1.7411021E+03;
  1.4189339E-01;  9.9999998E-03; -9.9935375E-02;3320; -1.7720247E-03;  0.0000000E+00;  4.4397189E-06;  9.9910236E+02;  1.0000000E-01; -7.4368268E+02;3; -1.2397238E+00;  0.0000000E+00; -5.2346986E-02;0; -1.2278412E-02;  3.9912848E+04;  0.0000000E+00; -6.6131532E-02;  4.0000000E+04;  0.0000000E+00;  4.0019012E+04; -1.2477764E-02;  0.0000000E+00;  1.9935156E-04;  2.4752354E+03;
  1.4185014E-01;  9.9999998E-03; -8.9930616E-02;3321; -1.7550049E-03;  0.0000000E+00;  1.8134120E-05;  9.9913696E+02;  1.0000000E-01; -7.1499213E+02;3; -1.2558875E+00;  0.0000000E+00; -5.2567974E-02;0; -1.2314519E-02;  3.9917867E+04;  0.0000000E+00; -5.4937348E-02;  4.0000000E+04;  0.0000000E+00;  4.0016668E+04; -1.2536369E-02;  0.0000000E+00;  2.2185009E-04;  2.1810994E+03;
  1.4181040E-01;  9.9999998E-03; -7.9923525E-02;3322; -1.7390363E-03;  0.0000000E+00;  2.7326778E-05;  9.9918555E+02;  1.0000000E-01; -6.7474634E+02;3; -1.2662578E+00;  0.0000000E+00; -4.8878159E-02;0; -1.2332994E-02;  3.9923398E+04;  0.0000000E+00; -4.2567827E-02;  4.0000000E+04;  0.0000000E+00;  4.0014684E+04; -1.2553971E-02;  0.0000000E+00;  2.2097735E-04;  1.9178319E+03;
  1.4177740E-01;  9.9999998E-03; -6.9919012E-02;3323; -1.7248526E-03;  0.0000000E+00;  2.9876657E-05;  9.9923553E+02;  1.0000000E-01; -6.3336481E+02;3; -1.2749783E+00;  0.0000000E+00; -4.3329947E-02;0; -1.2329000E-02;  3.9928551E+04;  0.0000000E+00; -3.1129893E-02;  4.0000000E+04;  0.0000000E+00;  4.0013324E+04; -1.2528235E-02;  0.0000000E+00;  1.9923504E-04;  1.7445988E+03;
  1.4175032E-01;  9.9999998E-03; -5.9919756E-02;3324; -1.7125894E-03;  0.0000000E+00;  2.6665424E-05;  9.9928931E+02;  1.0000000E-01; -5.8877350E+02;3; -1.2803866E+00;  0.0000000E+00; -3.6923997E-02;0; -1.2301286E-02;  3.9933062E+04;  0.0000000E+00; -2.1649405E-02;  4.0000000E+04;  0.0000000E+00;  4.0012621E+04; -1.2464148E-02;  0.0000000E+00;  1.6286215E-04;  1.6853834E+03;
  1.4172766E-01;  9.9999998E-03; -4.9926616E-02;3325; -1.7021995E-03;  0.0000000E+00;  2.0119467E-05;  9.9933673E+02;  1.0000000E-01; -5.4951532E+02;3; -1.2847520E+00;  0.0000000E+00; -3.0611549E-02;0; -1.2252782E-02;  3.9936402E+04;  0.0000000E+00; -1.4333295E-02;  4.0000000E+04;  0.0000000E+00;  4.0013137E+04; -1.2372372E-02;  0.0000000E+00;  1.1958905E-04;  1.7310109E+03;
  1.4170958E-01;  9.9999998E-03; -3.9938200E-02;3326; -1.6936533E-03;  0.0000000E+00;  1.2842955E-05;  9.9937659E+02;  1.0000000E-01; -5.1647925E+02;3; -1.2879248E+00;  0.0000000E+00; -2.4458455E-02;0; -1.2190654E-02;  3.9938746E+04;  0.0000000E+00; -8.9059416E-03;  4.0000000E+04;  0.0000000E+00;  4.0014148E+04; -1.2267326E-02;  0.0000000E+00;  7.6671640E-05;  1.8490082E+03;
  1.4169635E-01;  9.9999998E-03; -2.9952945E-02;3327; -1.6869678E-03;  0.0000000E+00;  6.6840535E-06;  9.9941260E+02;  1.0000000E-01; -4.8665289E+02;3; -1.2907798E+00;  0.0000000E+00; -1.8362362E-02;0; -1.2125016E-02;  3.9939988E+04;  0.0000000E+00; -4.9643116E-03;  4.0000000E+04;  0.0000000E+00;  4.0015598E+04; -1.2164636E-02;  0.0000000E+00;  3.9619223E-05;  1.9965720E+03;
  1.4168727E-01;  9.9999998E-03; -1.9969577E-02;3328; -1.6821884E-03;  0.0000000E+00;  2.6611274E-06;  9.9943555E+02;  1.0000000E-01; -4.6764108E+02;3; -1.2923675E+00;  0.0000000E+00; -1.2284700E-02;0; -1.2067196E-02;  3.9940645E+04;  0.0000000E+00; -2.2170960E-03;  4.0000000E+04;  0.0000000E+00;  4.0016844E+04; -1.2078993E-02;  0.0000000E+00;  1.1796996E-05;  2.1323992E+03;
  1.4168142E-01;  9.9999998E-03; -9.9858427E-03;3329; -1.6793254E-03;  0.0000000E+00;  7.0632296E-07;  9.9945105E+02;  1.0000000E-01; -4.5480194E+02;3; -1.2932397E+00;  0.0000000E+00; -6.1146845E-03;0; -1.2027579E-02;  3.9941070E+04;  0.0000000E+00; -5.5876077E-04;  4.0000000E+04;  0.0000000E+00;  4.0017246E+04; -1.2022357E-02;  0.0000000E+00; -5.2221963E-06;  2.2254282E+03;
  1.4167929E-01;  9.9999998E-03; -3.9889111E-10;3330; -1.6783708E-03;  0.0000000E+00; -2.9239369E-09;  9.9945312E+02;  1.0000000E-01; -4.5307361E+02;3; -1.2934856E+00;  0.0000000E+00;  9.0301446E-06;0; -1.2013504E-02;  3.9941094E+04;  0.0000000E+00;  6.1540080E-13;  4.0000000E+04;  0.0000000E+00;  4.0017445E+04; -1.2002579E-02;  0.0000000E+00; -1.0925310E-05;  2.2581458E+03;
  1.4168142E-01;  9.9999998E-03;  9.9858418E-03;3331; -1.6793271E-03;  0.0000000E+00; -7.1214743E-07;  9.9945105E+02;  1.0000000E-01; -4.5480194E+02;3; -1.2932388E+00;  0.0000000E+00;  6.1440696E-03;0; -1.2027587E-02;  3.9941074E+04;  0.0000000E+00; -5.5863964E-04;  4.0000000E+04;  0.0000000E+00;  4.0017246E+04; -1.2022365E-02;  0.0000000E+00; -5.2216619E-06;  2.2254294E+03;
  1.4168727E-01;  9.9999998E-03;  1.9969577E-02;3332; -1.6821912E-03;  0.0000000E+00; -2.6660709E-06;  9.9943555E+02;  1.0000000E-01; -4.6764108E+02;3; -1.2923676E+00;  0.0000000E+00;  1.2323180E-02;0; -1.2067193E-02;  3.9940645E+04;  0.0000000E+00; -2.2170423E-03;  4.0000000E+04;  0.0000000E+00;  4.0016844E+04; -1.2078991E-02;  0.0000000E+00;  1.1797771E-05;  2.1324041E+03;
  1.4169635E-01;  9.9999998E-03;  2.9952945E-02;3333; -1.6869722E-03;  0.0000000E+00; -6.6896855E-06;  9.9941260E+02;  1.0000000E-01; -4.8665289E+02;3; -1.2907902E+00;  0.0000000E+00;  1.8375646E-02;0; -1.2125025E-02;  3.9939984E+04;  0.0000000E+00; -4.9641700E-03;  4.0000000E+04;  0.0000000E+00;  4.0015598E+04; -1.2164645E-02;  0.0000000E+00;  3.9619877E-05;  1.9965807E+03;
  1.4170958E-01;  9.9999998E-03;  3.9938200E-02;3334; -1.6936591E-03;  0.0000000E+00; -1.2848725E-05;  9.9937665E+02;  1.0000000E-01; -5.1642981E+02;3; -1.2879328E+00;  0.0000000E+00;  2.4473270E-02;0; -1.2190664E-02;  3.9938750E+04;  0.0000000E+00; -8.9057051E-03;  4.0000000E+04;  0.0000000E+00;  4.0014148E+04; -1.2267335E-02;  0.0000000E+00;  7.6671502E-05;  1.8490205E+03;
  1.4172766E-01;  9.9999998E-03;  4.9926616E-02;3335; -1.7022066E-03;  0.0000000E+00; -2.0126407E-05;  9.9933673E+02;  1.0000000E-01; -5.4951532E+02;3; -1.2847645E+00;  0.0000000E+00;  3.0612888E-02;0; -1.2252810E-02;  3.9936398E+04;  0.0000000E+00; -1.4332679E-02;  4.0000000E+04;  0.0000000E+00;  4.0013141E+04; -1.2372398E-02;  0.0000000E+00;  1.1958772E-04;  1.7310145E+03;
  1.4175032E-01;  9.9999998E-03;  5.9919756E-02;3336; -1.7125967E-03;  0.0000000E+00; -2.6672464E-05;  9.9928931E+02;  1.0000000E-01; -5.8877350E+02;3; -1.2803977E+00;  0.0000000E+00;  3.6937620E-02;0; -1.2301301E-02;  3.9933062E+04;  0.0000000E+00; -2.1650223E-02;  4.0000000E+04;  0.0000000E+00;  4.0012621E+04; -1.2464160E-02;  0.0000000E+00;  1.6285907E-04;  1.6853911E+03;
  1.5150243E-01;  9.9999998E-03; -9.9866875E-03;3390; -1.8629677E-03;  0.0000000E+00;  9.4031645E-07;  9.9935449E+02;  1.0000000E-01; -5.3479968E+02;3; -1.2907233E+00;  0.0000000E+00; -5.1518381E-03;0; -1.2492888E-02;  3.9933059E+04;  0.0000000E+00; -6.9492310E-04;  4.0000000E+04;  0.0000000E+00;  4.0014586E+04; -1.2536224E-02;  0.0000000E+00;  4.3335949E-05;  1.9070764E+03;
  1.5149985E-01;  9.9999998E-03; -4.5720991E-10;3391; -1.8610918E-03;  0.0000000E+00; -3.6666885E-09;  9.9935657E+02;  1.0000000E-01; -5.3307135E+02;3; -1.2912375E+00;  0.0000000E+00;  1.3695326E-05;0; -1.2477385E-02;  3.9933008E+04;  0.0000000E+00;  5.7963860E-13;  4.0000000E+04;  0.0000000E+00;  4.0014582E+04; -1.2516103E-02;  0.0000000E+00;  3.8718259E-05;  1.9358036E+03;
  1.5150243E-01;  9.9999998E-03;  9.9866865E-03;3392; -1.8629697E-03;  0.0000000E+00; -9.4716410E-07;  9.9935449E+02;  1.0000000E-01; -5.3479968E+02;3; -1.2907264E+00;  0.0000000E+00;  5.1595136E-03;0; -1.2492888E-02;  3.9933059E+04;  0.0000000E+00; -6.9488364E-04;  4.0000000E+04;  0.0000000E+00;  4.0014586E+04; -1.2536225E-02;  0.0000000E+00;  4.3337182E-05;  1.9070800E+03;
  1.5150972E-01;  9.9999998E-03; -1.9970978E-02;3389; -1.8685102E-03;  0.0000000E+00;  2.9990595E-06;  9.9934753E+02;  1.0000000E-01; -5.4057733E+02;3; -1.2891395E+00;  0.0000000E+00; -1.0215218E-02;0; -1.2536753E-02;  3.9933129E+04;  0.0000000E+00; -2.6406622E-03;  4.0000000E+04;  0.0000000E+00;  4.0014184E+04; -1.2593904E-02;  0.0000000E+00;  5.7150384E-05;  1.8251902E+03;
  1.5150972E-01;  9.9999998E-03;  1.9970976E-02;3393; -1.8685133E-03;  0.0000000E+00; -3.0058598E-06;  9.9934753E+02;  1.0000000E-01; -5.4057733E+02;3; -1.2891481E+00;  0.0000000E+00;  1.0220732E-02;0; -1.2536758E-02;  3.9933129E+04;  0.0000000E+00; -2.6401985E-03;  4.0000000E+04;  0.0000000E+00;  4.0014184E+04; -1.2593910E-02;  0.0000000E+00;  5.7152534E-05;  1.8251996E+03;
  1.5152177E-01;  9.9999998E-03; -2.9954918E-02;3388; -1.8774914E-03;  0.0000000E+00;  6.8702848E-06;  9.9933270E+02;  1.0000000E-01; -5.5282385E+02;3; -1.2865262E+00;  0.0000000E+00; -1.5157221E-02;0; -1.2601477E-02;  3.9933211E+04;  0.0000000E+00; -5.5183270E-03;  4.0000000E+04;  0.0000000E+00;  4.0013105E+04; -1.2681288E-02;  0.0000000E+00;  7.9810612E-05;  1.7056514E+03;
  1.5152177E-01;  9.9999998E-03;  2.9954916E-02;3394; -1.8774965E-03;  0.0000000E+00; -6.8769473E-06;  9.9933270E+02;  1.0000000E-01; -5.5282385E+02;3; -1.2865318E+00;  0.0000000E+00;  1.5165342E-02;0; -1.2601492E-02;  3.9933211E+04;  0.0000000E+00; -5.5181431E-03;  4.0000000E+04;  0.0000000E+00;  4.0013105E+04; -1.2681305E-02;  0.0000000E+00;  7.9813122E-05;  1.7056622E+03;
  1.5153922E-01;  9.9999998E-03; -3.9940603E-02;3387; -1.8895518E-03;  0.0000000E+00;  1.2509166E-05;  9.9931641E+02;  1.0000000E-01; -5.6635437E+02;3; -1.2826878E+00;  0.0000000E+00; -1.9913970E-02;0; -1.2676409E-02;  3.9932762E+04;  0.0000000E+00; -9.0697641E-03;  4.0000000E+04;  0.0000000E+00;  4.0012172E+04; -1.2786426E-02;  0.0000000E+00;  1.1001729E-04;  1.5774785E+03;
  1.5153922E-01;  9.9999998E-03;  3.9940603E-02;3395; -1.8895575E-03;  0.0000000E+00; -1.2515150E-05;  9.9931635E+02;  1.0000000E-01; -5.6640375E+02;3; -1.2826985E+00;  0.0000000E+00;  1.9925566E-02;0; -1.2676441E-02;  3.9932762E+04;  0.0000000E+00; -9.0686874E-03;  4.0000000E+04;  0.0000000E+00;  4.0012172E+04; -1.2786461E-02;  0.0000000E+00;  1.1001957E-04;  1.5774836E+03;
  1.5156260E-01;  9.9999998E-03; -4.9929176E-02;3386; -1.9041478E-03;  0.0000000E+00;  1.8947627E-05;  9.9929163E+02;  1.0000000E-01; -5.8689697E+02;3; -1.2773890E+00;  0.0000000E+00; -2.3985378E-02;0; -1.2749752E-02;  3.9931539E+04;  0.0000000E+00; -1.3333530E-02;  4.0000000E+04;  0.0000000E+00;  4.0011105E+04; -1.2894536E-02;  0.0000000E+00;  1.4478428E-04;  1.4801331E+03;
  1.5156260E-01;  9.9999998E-03;  4.9929172E-02;3396; -1.9041549E-03;  0.0000000E+00; -1.8953520E-05;  9.9929156E+02;  1.0000000E-01; -5.8694635E+02;3; -1.2774017E+00;  0.0000000E+00;  2.3983043E-02;0; -1.2749778E-02;  3.9931539E+04;  0.0000000E+00; -1.3332316E-02;  4.0000000E+04;  0.0000000E+00;  4.0011105E+04; -1.2894563E-02;  0.0000000E+00;  1.4478524E-04;  1.4801370E+03;
  1.5159205E-01;  9.9999998E-03; -5.9921052E-02;3385; -1.9205920E-03;  0.0000000E+00;  2.4444429E-05;  9.9926019E+02;  1.0000000E-01; -6.1292096E+02;3; -1.2709165E+00;  0.0000000E+00; -2.8009241E-02;0; -1.2810867E-02;  3.9929477E+04;  0.0000000E+00; -1.8729879E-02;  4.0000000E+04;  0.0000000E+00;  4.0010891E+04; -1.2989896E-02;  0.0000000E+00;  1.7902878E-04;  1.4542515E+03;
  1.5159205E-01;  9.9999998E-03;  5.9921052E-02;3397; -1.9205996E-03;  0.0000000E+00; -2.4452767E-05;  9.9926019E+02;  1.0000000E-01; -6.1292096E+02;3; -1.2709243E+00;  0.0000000E+00;  2.8006407E-02;0; -1.2810891E-02;  3.9929473E+04;  0.0000000E+00; -1.8729273E-02;  4.0000000E+04;  0.0000000E+00;  4.0010891E+04; -1.2989920E-02;  0.0000000E+00;  1.7902876E-04;  1.4542535E+03;
  1.5162720E-01;  9.9999998E-03; -6.9916695E-02;3384; -1.9380044E-03;  0.0000000E+00;  2.6858415E-05;  9.9922931E+02;  1.0000000E-01; -6.3850049E+02;3; -1.2620715E+00;  0.0000000E+00; -3.0599209E-02;0; -1.2852069E-02;  3.9926594E+04;  0.0000000E+00; -2.5921579E-02;  4.0000000E+04;  0.0000000E+00;  4.0011504E+04; -1.3057966E-02;  0.0000000E+00;  2.0589682E-04;  1.5292754E+03;
  1.5166782E-01;  9.9999998E-03; -7.9916306E-02;3383; -1.9554025E-03;  0.0000000E+00;  2.4392722E-05;  9.9919983E+02;  1.0000000E-01; -6.6294421E+02;3; -1.2514575E+00;  0.0000000E+00; -3.2672722E-02;0; -1.2869879E-02;  3.9923000E+04;  0.0000000E+00; -3.5461877E-02;  4.0000000E+04;  0.0000000E+00;  4.0013434E+04; -1.3087839E-02;  0.0000000E+00;  2.1796059E-04;  1.7115393E+03;
  1.5171312E-01;  9.9999998E-03; -8.9918762E-02;3382; -1.9717172E-03;  0.0000000E+00;  1.6503864E-05;  9.9917365E+02;  1.0000000E-01; -6.8462262E+02;3; -1.2379639E+00;  0.0000000E+00; -3.3293039E-02;0; -1.2865162E-02;  3.9918949E+04;  0.0000000E+00; -4.7335513E-02;  4.0000000E+04;  0.0000000E+00;  4.0015312E+04; -1.3074246E-02;  0.0000000E+00;  2.0908497E-04;  1.9758335E+03;
  1.5176231E-01;  9.9999998E-03; -9.9922605E-02;3381; -1.9859930E-03;  0.0000000E+00;  5.0428903E-06;  9.9915723E+02;  1.0000000E-01; -6.9820245E+02;3; -1.2232895E+00;  0.0000000E+00; -3.3963300E-02;0; -1.2842869E-02;  3.9915754E+04;  0.0000000E+00; -6.0475681E-02;  4.0000000E+04;  0.0000000E+00;  4.0017746E+04; -1.3019425E-02;  0.0000000E+00;  1.7655571E-04;  2.2648306E+03;
  1.6169770E-01;  9.9999998E-03; -9.9950321E-02;3442; -2.2234234E-03;  0.0000000E+00;  3.3369836E-06;  9.9930798E+02;  1.0000000E-01; -5.7331714E+02;3; -1.2659304E+00;  0.0000000E+00; -2.7351938E-02;0; -1.3370104E-02;  3.9928172E+04;  0.0000000E+00; -4.8329696E-02;  4.0000000E+04;  0.0000000E+00;  4.0014824E+04; -1.3543100E-02;  0.0000000E+00;  1.7299587E-04;  1.8858624E+03;
  1.6164920E-01;  9.9999998E-03; -8.9949884E-02;3443; -2.2116911E-03;  0.0000000E+00;  1.4408679E-05;  9.9930151E+02;  1.0000000E-01; -5.7869971E+02;3; -1.2806188E+00;  0.0000000E+00; -2.6826955E-02;0; -1.3376041E-02;  3.9929762E+04;  0.0000000E+00; -3.5983715E-02;  4.0000000E+04;  0.0000000E+00;  4.0012559E+04; -1.3590476E-02;  0.0000000E+00;  2.1443449E-04;  1.6095370E+03;
  1.6160147E-01;  9.9999998E-03; -7.9949461E-02;3444; -2.1950810E-03;  0.0000000E+00;  2.1782613E-05;  9.9930200E+02;  1.0000000E-01; -5.7825525E+02;3; -1.2934924E+00;  0.0000000E+00; -2.5954595E-02;0; -1.3365227E-02;  3.9931586E+04;  0.0000000E+00; -2.7334291E-02;  4.0000000E+04;  0.0000000E+00;  4.0010477E+04; -1.3597628E-02;  0.0000000E+00;  2.3240095E-04;  1.3498469E+03;
  1.6155811E-01;  9.9999998E-03; -6.9950655E-02;3445; -2.1749171E-03;  0.0000000E+00;  2.4284045E-05;  9.9930731E+02;  1.0000000E-01; -5.7386029E+02;3; -1.3045129E+00;  0.0000000E+00; -2.4508178E-02;0; -1.3332820E-02;  3.9933312E+04;  0.0000000E+00; -2.1794137E-02;  4.0000000E+04;  0.0000000E+00;  4.0008789E+04; -1.3562838E-02;  0.0000000E+00;  2.3001691E-04;  1.1620938E+03;
  1.6152096E-01;  9.9999998E-03; -5.9953991E-02;3446; -2.1529540E-03;  0.0000000E+00;  2.2194930E-05;  9.9932092E+02;  1.0000000E-01; -5.6260138E+02;3; -1.3136907E+00;  0.0000000E+00; -2.2277985E-02;0; -1.3278067E-02;  3.9934879E+04;  0.0000000E+00; -1.8092023E-02;  4.0000000E+04;  0.0000000E+00;  4.0007832E+04; -1.3491445E-02;  0.0000000E+00;  2.1337795E-04;  1.0727568E+03;
  1.6149083E-01;  9.9999998E-03; -4.9959280E-02;3447; -2.1309678E-03;  0.0000000E+00;  1.7220627E-05;  9.9933105E+02;  1.0000000E-01; -5.5420654E+02;3; -1.3212016E+00;  0.0000000E+00; -1.9582203E-02;0; -1.3204763E-02;  3.9935457E+04;  0.0000000E+00; -1.4924829E-02;  4.0000000E+04;  0.0000000E+00;  4.0008020E+04; -1.3394268E-02;  0.0000000E+00;  1.8950562E-04;  1.0788379E+03;
  1.6146694E-01;  9.9999998E-03; -3.9966490E-02;3448; -2.1106047E-03;  0.0000000E+00;  1.1321280E-05;  9.9933972E+02;  1.0000000E-01; -5.4704626E+02;3; -1.3271496E+00;  0.0000000E+00; -1.6345268E-02;0; -1.3120837E-02;  3.9935535E+04;  0.0000000E+00; -1.1463449E-02;  4.0000000E+04;  0.0000000E+00;  4.0008438E+04; -1.3285441E-02;  0.0000000E+00;  1.6460447E-04;  1.1541147E+03;
  1.6144899E-01;  9.9999998E-03; -2.9975671E-02;3449; -2.0932762E-03;  0.0000000E+00;  6.1430669E-06;  9.9934686E+02;  1.0000000E-01; -5.4112048E+02;3; -1.3316407E+00;  0.0000000E+00; -1.2609391E-02;0; -1.3037282E-02;  3.9935109E+04;  0.0000000E+00; -7.5862221E-03;  4.0000000E+04;  0.0000000E+00;  4.0009262E+04; -1.3180303E-02;  0.0000000E+00;  1.4302164E-04;  1.2603829E+03;
  1.6143598E-01;  9.9999998E-03; -1.9985812E-02;3450; -2.0800806E-03;  0.0000000E+00;  2.6137491E-06;  9.9935211E+02;  1.0000000E-01; -5.3677496E+02;3; -1.3347707E+00;  0.0000000E+00; -8.6310394E-03;0; -1.2966202E-02;  3.9934598E+04;  0.0000000E+00; -3.8206649E-03;  4.0000000E+04;  0.0000000E+00;  4.0010180E+04; -1.3093257E-02;  0.0000000E+00;  1.2705606E-04;  1.3605172E+03;
  1.6142772E-01;  9.9999998E-03; -9.9948309E-03;3451; -2.0718195E-03;  0.0000000E+00;  7.8525630E-07;  9.9935278E+02;  1.0000000E-01; -5.3618237E+02;3; -1.3366088E+00;  0.0000000E+00; -4.3663671E-03;0; -1.2918419E-02;  3.9934148E+04;  0.0000000E+00; -1.0328890E-03;  4.0000000E+04;  0.0000000E+00;  4.0010863E+04; -1.3035896E-02;  0.0000000E+00;  1.1747672E-04;  1.4284629E+03;
  1.6142462E-01;  9.9999998E-03; -4.6827131E-10;3452; -2.0690013E-03;  0.0000000E+00; -3.9845363E-09;  9.9935370E+02;  1.0000000E-01; -5.3544165E+02;3; -1.3372132E+00;  0.0000000E+00;  4.4289036E-06;0; -1.2901580E-02;  3.9933934E+04;  0.0000000E+00; -1.4098207E-12;  4.0000000E+04;  0.0000000E+00;  4.0010945E+04; -1.3015886E-02;  0.0000000E+00;  1.1430590E-04;  1.4520072E+03;
  1.6142772E-01;  9.9999998E-03;  9.9948300E-03;3453; -2.0718214E-03;  0.0000000E+00; -7.9315021E-07;  9.9935272E+02;  1.0000000E-01; -5.3628113E+02;3; -1.3366108E+00;  0.0000000E+00;  4.3781260E-03;0; -1.2918419E-02;  3.9934152E+04;  0.0000000E+00; -1.0329324E-03;  4.0000000E+04;  0.0000000E+00;  4.0010863E+04; -1.3035898E-02;  0.0000000E+00;  1.1747851E-04;  1.4284683E+03;
  1.6143598E-01;  9.9999998E-03;  1.9985812E-02;3454; -2.0800838E-03;  0.0000000E+00; -2.6213629E-06;  9.9935211E+02;  1.0000000E-01; -5.3677496E+02;3; -1.3347698E+00;  0.0000000E+00;  8.6406767E-03;0; -1.2966199E-02;  3.9934598E+04;  0.0000000E+00; -3.8205525E-03;  4.0000000E+04;  0.0000000E+00;  4.0010180E+04; -1.3093258E-02;  0.0000000E+00;  1.2705954E-04;  1.3605277E+03;
  1.6144899E-01;  9.9999998E-03;  2.9975669E-02;3455; -2.0932814E-03;  0.0000000E+00; -6.1508722E-06;  9.9934686E+02;  1.0000000E-01; -5.4112048E+02;3; -1.3316497E+00;  0.0000000E+00;  1.2613118E-02;0; -1.3037307E-02;  3.9935105E+04;  0.0000000E+00; -7.5864270E-03;  4.0000000E+04;  0.0000000E+00;  4.0009262E+04; -1.3180333E-02;  0.0000000E+00;  1.4302597E-04;  1.2603925E+03;
  1.6146694E-01;  9.9999998E-03;  3.9966490E-02;3456; -2.1106105E-03;  0.0000000E+00; -1.1328490E-05;  9.9933972E+02;  1.0000000E-01; -5.4704626E+02;3; -1.3271511E+00;  0.0000000E+00;  1.6350985E-02;0; -1.3120851E-02;  3.9935535E+04;  0.0000000E+00; -1.1462350E-02;  4.0000000E+04;  0.0000000E+00;  4.0008438E+04; -1.3285460E-02;  0.0000000E+00;  1.6460904E-04;  1.1541166E+03;
  1.6149083E-01;  9.9999998E-03;  4.9959280E-02;3457; -2.1309750E-03;  0.0000000E+00; -1.7228253E-05;  9.9933105E+02;  1.0000000E-01; -5.5420654E+02;3; -1.3212111E+00;  0.0000000E+00;  1.9575804E-02;0; -1.3204766E-02;  3.9935457E+04;  0.0000000E+00; -1.4924982E-02;  4.0000000E+04;  0.0000000E+00;  4.0008020E+04; -1.3394276E-02;  0.0000000E+00;  1.8950952E-04;  1.0788458E+03;
  1.6152096E-01;  9.9999998E-03;  5.9953988E-02;3458; -2.1529621E-03;  0.0000000E+00; -2.2201601E-05;  9.9932092E+02;  1.0000000E-01; -5.6260138E+02;3; -1.3136945E+00;  0.0000000E+00;  2.2281958E-02;0; -1.3278077E-02;  3.9934879E+04;  0.0000000E+00; -1.8090468E-02;  4.0000000E+04;  0.0000000E+00;  4.0007836E+04; -1.3491458E-02;  0.0000000E+00;  2.1338118E-04;  1.0727614E+03;
  1.7164633E-01;  9.9999998E-03; -1.0001678E-01;3503; -2.4612581E-03;  0.0000000E+00; -3.4099025E-06;  9.9946863E+02;  1.0000000E-01; -4.4023447E+02;3; -1.3100625E+00;  0.0000000E+00; -2.2024449E-02;0; -1.3768286E-02;  3.9943414E+04;  0.0000000E+00; -3.6711134E-02;  4.0000000E+04;  0.0000000E+00;  4.0010957E+04; -1.3960215E-02;  0.0000000E+00;  1.9192850E-04;  1.3762084E+03;
  1.7159007E-01;  9.9999998E-03; -9.0017200E-02;3504; -2.4518389E-03;  0.0000000E+00;  7.8250359E-06;  9.9944189E+02;  1.0000000E-01; -4.6235730E+02;3; -1.3249369E+00;  0.0000000E+00; -2.1741305E-02;0; -1.3754666E-02;  3.9943012E+04;  0.0000000E+00; -2.7789211E-02;  4.0000000E+04;  0.0000000E+00;  4.0008406E+04; -1.3995204E-02;  0.0000000E+00;  2.4053869E-04;  1.1178699E+03;
  1.7153923E-01;  9.9999998E-03; -8.0016226E-02;3505; -2.4348286E-03;  0.0000000E+00;  1.5659536E-05;  9.9942877E+02;  1.0000000E-01; -4.7327057E+02;3; -1.3380711E+00;  0.0000000E+00; -2.1232016E-02;0; -1.3726419E-02;  3.9943422E+04;  0.0000000E+00; -2.4096673E-02;  4.0000000E+04;  0.0000000E+00;  4.0006371E+04; -1.3992890E-02;  0.0000000E+00;  2.6647115E-04;  8.6859210E+02;
  1.7149703E-01;  9.9999998E-03; -7.0014179E-02;3506; -2.4119320E-03;  0.0000000E+00;  1.8548790E-05;  9.9941547E+02;  1.0000000E-01; -4.8428259E+02;3; -1.3494771E+00;  0.0000000E+00; -2.0243406E-02;0; -1.3678496E-02;  3.9943820E+04;  0.0000000E+00; -2.3224153E-02;  4.0000000E+04;  0.0000000E+00;  4.0005008E+04; -1.3951925E-02;  0.0000000E+00;  2.7342842E-04;  6.8031659E+02;
  1.7146683E-01;  9.9999998E-03; -6.0011342E-02;3507; -2.3855448E-03;  0.0000000E+00;  1.7105582E-05;  9.9941284E+02;  1.0000000E-01; -4.8645538E+02;3; -1.3591371E+00;  0.0000000E+00; -1.8599924E-02;0; -1.3610146E-02;  3.9944176E+04;  0.0000000E+00; -2.2732088E-02;  4.0000000E+04;  0.0000000E+00;  4.0004031E+04; -1.3877654E-02;  0.0000000E+00;  2.6750760E-04;  5.8067206E+02;
  1.7145494E-01;  9.9999998E-03; -5.0008990E-02;3508; -2.3583700E-03;  0.0000000E+00;  1.2872062E-05;  9.9941345E+02;  1.0000000E-01; -4.8596158E+02;3; -1.3671557E+00;  0.0000000E+00; -1.6437953E-02;0; -1.3525300E-02;  3.9944059E+04;  0.0000000E+00; -2.0867709E-02;  4.0000000E+04;  0.0000000E+00;  4.0004164E+04; -1.3780553E-02;  0.0000000E+00;  2.5525287E-04;  5.7009631E+02;
  1.7146482E-01;  9.9999998E-03; -4.0009227E-02;3509; -2.3329032E-03;  0.0000000E+00;  7.8269431E-06;  9.9941339E+02;  1.0000000E-01; -4.8601096E+02;3; -1.3736341E+00;  0.0000000E+00; -1.3761579E-02;0; -1.3432131E-02;  3.9943605E+04;  0.0000000E+00; -1.6984336E-02;  4.0000000E+04;  0.0000000E+00;  4.0004363E+04; -1.3674189E-02;  0.0000000E+00;  2.4205817E-04;  6.2568671E+02;
  1.7148763E-01;  9.9999998E-03; -3.0011803E-02;3510; -2.3110709E-03;  0.0000000E+00;  3.5627834E-06;  9.9941437E+02;  1.0000000E-01; -4.8517148E+02;3; -1.3786131E+00;  0.0000000E+00; -1.0654766E-02;0; -1.3341549E-02;  3.9942965E+04;  0.0000000E+00; -1.1551538E-02;  4.0000000E+04;  0.0000000E+00;  4.0005188E+04; -1.3572740E-02;  0.0000000E+00;  2.3119194E-04;  7.1152765E+02;
  1.7150667E-01;  9.9999998E-03; -2.0013805E-02;3511; -2.2942366E-03;  0.0000000E+00;  9.2301866E-07;  9.9941187E+02;  1.0000000E-01; -4.8724548E+02;3; -1.3821220E+00;  0.0000000E+00; -7.2591016E-03;0; -1.3265415E-02;  3.9942148E+04;  0.0000000E+00; -5.8809505E-03;  4.0000000E+04;  0.0000000E+00;  4.0005469E+04; -1.3489201E-02;  0.0000000E+00;  2.2378574E-04;  7.9279871E+02;
  1.7151047E-01;  9.9999998E-03; -1.0011766E-02;3512; -2.2834479E-03;  0.0000000E+00; -4.9581711E-08;  9.9940985E+02;  1.0000000E-01; -4.8892444E+02;3; -1.3841597E+00;  0.0000000E+00; -3.6669911E-03;0; -1.3214408E-02;  3.9941559E+04;  0.0000000E+00; -1.5950506E-03;  4.0000000E+04;  0.0000000E+00;  4.0006246E+04; -1.3434038E-02;  0.0000000E+00;  2.1962952E-04;  8.4683380E+02;
  1.7151049E-01;  9.9999998E-03; -3.4698464E-10;3513; -2.2797338E-03;  0.0000000E+00; -4.3110524E-09;  9.9940771E+02;  1.0000000E-01; -4.9070218E+02;3; -1.3848244E+00;  0.0000000E+00;  5.9299209E-06;0; -1.3196464E-02;  3.9941371E+04;  0.0000000E+00;  6.6353623E-13;  4.0000000E+04;  0.0000000E+00;  4.0006379E+04; -1.3414781E-02;  0.0000000E+00;  2.1831690E-04;  8.6503534E+02;
  1.7151047E-01;  9.9999998E-03;  1.0011765E-02;3514; -2.2834500E-03;  0.0000000E+00;  4.0988756E-08;  9.9940991E+02;  1.0000000E-01; -4.8887506E+02;3; -1.3841603E+00;  0.0000000E+00;  3.6747279E-03;0; -1.3214421E-02;  3.9941562E+04;  0.0000000E+00; -1.5950965E-03;  4.0000000E+04;  0.0000000E+00;  4.0006246E+04; -1.3434053E-02;  0.0000000E+00;  2.1963187E-04;  8.4683295E+02;
  1.7150667E-01;  9.9999998E-03;  2.0013805E-02;3515; -2.2942398E-03;  0.0000000E+00; -9.3182985E-07;  9.9941193E+02;  1.0000000E-01; -4.8719611E+02;3; -1.3821243E+00;  0.0000000E+00;  7.2636958E-03;0; -1.3265432E-02;  3.9942148E+04;  0.0000000E+00; -5.8809449E-03;  4.0000000E+04;  0.0000000E+00;  4.0005469E+04; -1.3489222E-02;  0.0000000E+00;  2.2379030E-04;  7.9280383E+02;
  1.7148763E-01;  9.9999998E-03;  3.0011801E-02;3516; -2.3110760E-03;  0.0000000E+00; -3.5708181E-06;  9.9941443E+02;  1.0000000E-01; -4.8512207E+02;3; -1.3786246E+00;  0.0000000E+00;  1.0664196E-02;0; -1.3341575E-02;  3.9942961E+04;  0.0000000E+00; -1.1552177E-02;  4.0000000E+04;  0.0000000E+00;  4.0005188E+04; -1.3572773E-02;  0.0000000E+00;  2.3119790E-04;  7.1153168E+02;
  1.7146482E-01;  9.9999998E-03;  4.0009227E-02;3517; -2.3329097E-03;  0.0000000E+00; -7.8349367E-06;  9.9941321E+02;  1.0000000E-01; -4.8615909E+02;3; -1.3736351E+00;  0.0000000E+00;  1.3760870E-02;0; -1.3432138E-02;  3.9943598E+04;  0.0000000E+00; -1.6984146E-02;  4.0000000E+04;  0.0000000E+00;  4.0004363E+04; -1.3674202E-02;  0.0000000E+00;  2.4206474E-04;  6.2569147E+02;
  1.7145494E-01;  9.9999998E-03;  5.0008986E-02;3518; -2.3583774E-03;  0.0000000E+00; -1.2879919E-05;  9.9941339E+02;  1.0000000E-01; -4.8601096E+02;3; -1.3671607E+00;  0.0000000E+00;  1.6432200E-02;0; -1.3525318E-02;  3.9944055E+04;  0.0000000E+00; -2.0869832E-02;  4.0000000E+04;  0.0000000E+00;  4.0004164E+04; -1.3780578E-02;  0.0000000E+00;  2.5525945E-04;  5.7010010E+02;
  1.7146683E-01;  9.9999998E-03;  6.0011342E-02;3519; -2.3855530E-03;  0.0000000E+00; -1.7112976E-05;  9.9941284E+02;  1.0000000E-01; -4.8645538E+02;3; -1.3591377E+00;  0.0000000E+00;  1.8597076E-02;0; -1.3610161E-02;  3.9944168E+04;  0.0000000E+00; -2.2728609E-02;  4.0000000E+04;  0.0000000E+00;  4.0004035E+04; -1.3877674E-02;  0.0000000E+00;  2.6751336E-04;  5.8067871E+02;
  1.8157323E-01;  9.9999998E-03; -1.0006937E-01;3564; -2.6769089E-03;  0.0000000E+00; -1.4709283E-05;  9.9957379E+02;  1.0000000E-01; -3.5312582E+02;3; -1.3519332E+00;  0.0000000E+00; -1.7644458E-02;0; -1.3988605E-02;  3.9955004E+04;  0.0000000E+00; -2.7536670E-02;  4.0000000E+04;  0.0000000E+00;  4.0005695E+04; -1.4223884E-02;  0.0000000E+00;  2.3527873E-04;  7.7215582E+02;
  1.8153551E-01;  9.9999998E-03; -9.0069368E-02;3565; -2.6701130E-03;  0.0000000E+00; -1.8523300E-06;  9.9953723E+02;  1.0000000E-01; -3.8339658E+02;3; -1.3670789E+00;  0.0000000E+00; -1.8375887E-02;0; -1.3953310E-02;  3.9953926E+04;  0.0000000E+00; -2.3886206E-02;  4.0000000E+04;  0.0000000E+00;  4.0004172E+04; -1.4242230E-02;  0.0000000E+00;  2.8891925E-04;  5.3814325E+02;
  1.8151705E-01;  9.9999998E-03; -8.0067366E-02;3566; -2.6530970E-03;  0.0000000E+00;  6.7409815E-06;  9.9951068E+02;  1.0000000E-01; -4.0537125E+02;3; -1.3806478E+00;  0.0000000E+00; -1.7758530E-02;0; -1.3906195E-02;  3.9953688E+04;  0.0000000E+00; -2.5717214E-02;  4.0000000E+04;  0.0000000E+00;  4.0002004E+04; -1.4227766E-02;  0.0000000E+00;  3.2157110E-04;  3.0870212E+02;
  1.8151864E-01;  9.9999998E-03; -7.0062444E-02;3567; -2.6280303E-03;  0.0000000E+00;  9.9725466E-06;  9.9950171E+02;  1.0000000E-01; -4.1282782E+02;3; -1.3925885E+00;  0.0000000E+00; -1.6981689E-02;0; -1.3842070E-02;  3.9953719E+04;  0.0000000E+00; -2.9060878E-02;  4.0000000E+04;  0.0000000E+00;  4.0000523E+04; -1.4179699E-02;  0.0000000E+00;  3.3762961E-04;  1.3351118E+02;
  1.8153504E-01;  9.9999998E-03; -6.0054760E-02;3568; -2.5978228E-03;  0.0000000E+00;  9.0427502E-06;  9.9949200E+02;  1.0000000E-01; -4.2087698E+02;3; -1.4028503E+00;  0.0000000E+00; -1.5585186E-02;0; -1.3759896E-02;  3.9953820E+04;  0.0000000E+00; -3.0726537E-02;  4.0000000E+04;  0.0000000E+00;  3.9999535E+04; -1.4103022E-02;  0.0000000E+00;  3.4312598E-04;  5.1624405E+01;
  1.8156315E-01;  9.9999998E-03; -5.0046675E-02;3569; -2.5657441E-03;  0.0000000E+00;  5.6778645E-06;  9.9949481E+02;  1.0000000E-01; -4.1855606E+02;3; -1.4114233E+00;  0.0000000E+00; -1.3802691E-02;0; -1.3663389E-02;  3.9953832E+04;  0.0000000E+00; -2.8941665E-02;  4.0000000E+04;  0.0000000E+00;  3.9999641E+04; -1.4007230E-02;  0.0000000E+00;  3.4384124E-04;  4.2838631E+01;
  1.8159868E-01;  9.9999998E-03; -4.0041629E-02;3570; -2.5348829E-03;  0.0000000E+00;  1.8049780E-06;  9.9949554E+02;  1.0000000E-01; -4.1791409E+02;3; -1.4183425E+00;  0.0000000E+00; -1.1491583E-02;0; -1.3560571E-02;  3.9953598E+04;  0.0000000E+00; -2.3571055E-02;  4.0000000E+04;  0.0000000E+00;  3.9999941E+04; -1.3904487E-02;  0.0000000E+00;  3.4391580E-04;  6.5186707E+01;
  1.8163809E-01;  9.9999998E-03; -3.0041659E-02;3571; -2.5079737E-03;  0.0000000E+00; -1.1712352E-06;  9.9949786E+02;  1.0000000E-01; -4.1598822E+02;3; -1.4236850E+00;  0.0000000E+00; -9.3443654E-03;0; -1.3462472E-02;  3.9953234E+04;  0.0000000E+00; -1.5897393E-02;  4.0000000E+04;  0.0000000E+00;  4.0000574E+04; -1.3807734E-02;  0.0000000E+00;  3.4526133E-04;  1.3318860E+02;
  1.8167047E-01;  9.9999998E-03; -2.0041356E-02;3572; -2.4870960E-03;  0.0000000E+00; -2.3949137E-06;  9.9949902E+02;  1.0000000E-01; -4.1504999E+02;3; -1.4274663E+00;  0.0000000E+00; -6.6450015E-03;0; -1.3381050E-02;  3.9952629E+04;  0.0000000E+00; -8.0227237E-03;  4.0000000E+04;  0.0000000E+00;  4.0001242E+04; -1.3728768E-02;  0.0000000E+00;  3.4771793E-04;  2.0206676E+02;
  1.8169118E-01;  9.9999998E-03; -1.0030313E-02;3573; -2.4738628E-03;  0.0000000E+00; -1.7873713E-06;  9.9949463E+02;  1.0000000E-01; -4.1870419E+02;3; -1.4297088E+00;  0.0000000E+00; -3.4608834E-03;0; -1.3327082E-02;  3.9952160E+04;  0.0000000E+00; -2.1651238E-03;  4.0000000E+04;  0.0000000E+00;  4.0001473E+04; -1.3677147E-02;  0.0000000E+00;  3.5006559E-04;  2.4631903E+02;
  1.8170059E-01;  9.9999998E-03; -2.7507929E-10;3574; -2.4693655E-03;  0.0000000E+00; -4.7457518E-09;  9.9949585E+02;  1.0000000E-01; -4.1766721E+02;3; -1.4304677E+00;  0.0000000E+00;  3.4416630E-06;0; -1.3308157E-02;  3.9951953E+04;  0.0000000E+00; -5.7504462E-13;  4.0000000E+04;  0.0000000E+00;  4.0001867E+04; -1.3659216E-02;  0.0000000E+00;  3.5105963E-04;  2.6040042E+02;
  1.8169118E-01;  9.9999998E-03;  1.0030312E-02;3575; -2.4738645E-03;  0.0000000E+00;  1.7780181E-06;  9.9949463E+02;  1.0000000E-01; -4.1870419E+02;3; -1.4297085E+00;  0.0000000E+00;  3.4705240E-03;0; -1.3327072E-02;  3.9952160E+04;  0.0000000E+00; -2.1653373E-03;  4.0000000E+04;  0.0000000E+00;  4.0001473E+04; -1.3677141E-02;  0.0000000E+00;  3.5006809E-04;  2.4632091E+02;
  1.8167047E-01;  9.9999998E-03;  2.0041356E-02;3576; -2.4870995E-03;  0.0000000E+00;  2.3859341E-06;  9.9949902E+02;  1.0000000E-01; -4.1504999E+02;3; -1.4274664E+00;  0.0000000E+00;  6.6492097E-03;0; -1.3381050E-02;  3.9952629E+04;  0.0000000E+00; -8.0230208E-03;  4.0000000E+04;  0.0000000E+00;  4.0001242E+04; -1.3728773E-02;  0.0000000E+00;  3.4772343E-04;  2.0206744E+02;
  1.8163809E-01;  9.9999998E-03;  3.0041659E-02;3577; -2.5079786E-03;  0.0000000E+00;  1.1628924E-06;  9.9949780E+02;  1.0000000E-01; -4.1603763E+02;3; -1.4236887E+00;  0.0000000E+00;  9.3493257E-03;0; -1.3462457E-02;  3.9953238E+04;  0.0000000E+00; -1.5898038E-02;  4.0000000E+04;  0.0000000E+00;  4.0000574E+04; -1.3807726E-02;  0.0000000E+00;  3.4526901E-04;  1.3319846E+02;
  1.8159868E-01;  9.9999998E-03;  4.0041629E-02;3578; -2.5348894E-03;  0.0000000E+00; -1.8130684E-06;  9.9949554E+02;  1.0000000E-01; -4.1791409E+02;3; -1.4183520E+00;  0.0000000E+00;  1.1493057E-02;0; -1.3560569E-02;  3.9953598E+04;  0.0000000E+00; -2.3570994E-02;  4.0000000E+04;  0.0000000E+00;  3.9999941E+04; -1.3904493E-02;  0.0000000E+00;  3.4392413E-04;  6.5191551E+01;
  1.8156315E-01;  9.9999998E-03;  5.0046675E-02;3579; -2.5657518E-03;  0.0000000E+00; -5.6856206E-06;  9.9949481E+02;  1.0000000E-01; -4.1855606E+02;3; -1.4114337E+00;  0.0000000E+00;  1.3806512E-02;0; -1.3663395E-02;  3.9953828E+04;  0.0000000E+00; -2.8942475E-02;  4.0000000E+04;  0.0000000E+00;  3.9999641E+04; -1.4007245E-02;  0.0000000E+00;  3.4385012E-04;  4.2841431E+01;
  1.8153504E-01;  9.9999998E-03;  6.0054760E-02;3580; -2.5978317E-03;  0.0000000E+00; -9.0500671E-06;  9.9949200E+02;  1.0000000E-01; -4.2087698E+02;3; -1.4028567E+00;  0.0000000E+00;  1.5585663E-02;0; -1.3759905E-02;  3.9953820E+04;  0.0000000E+00; -3.0727610E-02;  4.0000000E+04;  0.0000000E+00;  3.9999535E+04; -1.4103038E-02;  0.0000000E+00;  3.4313410E-04;  5.1626339E+01;
  1.9154316E-01;  9.9999998E-03; -1.0009509E-01;3625; -2.8607852E-03;  0.0000000E+00; -2.5731340E-05;  9.9958636E+02;  1.0000000E-01; -3.4270636E+02;3; -1.3919955E+00;  0.0000000E+00; -1.4423053E-02;0; -1.4038842E-02;  3.9960586E+04;  0.0000000E+00; -1.5548803E-02;  4.0000000E+04;  0.0000000E+00;  4.0000352E+04; -1.4342889E-02;  0.0000000E+00;  3.0404728E-04;  1.3806718E+02;
  1.9154982E-01;  9.9999998E-03; -9.0092525E-02;3626; -2.8556779E-03;  0.0000000E+00; -1.2944719E-05;  9.9955750E+02;  1.0000000E-01; -3.6660690E+02;3; -1.4077842E+00;  0.0000000E+00; -1.4973601E-02;0; -1.3979136E-02;  3.9959652E+04;  0.0000000E+00; -1.8360162E-02;  4.0000000E+04;  0.0000000E+00;  3.9999180E+04; -1.4339658E-02;  0.0000000E+00;  3.6052245E-04;  7.3231262E+01;
  1.9157159E-01;  9.9999998E-03; -8.0088645E-02;3627; -2.8376114E-03;  0.0000000E+00; -4.8699317E-06;  9.9954205E+02;  1.0000000E-01; -3.7939667E+02;3; -1.4218384E+00;  0.0000000E+00; -1.4861571E-02;0; -1.3910905E-02;  3.9959949E+04;  0.0000000E+00; -2.5412861E-02;  4.0000000E+04;  0.0000000E+00;  3.9997547E+04; -1.4309457E-02;  0.0000000E+00;  3.9855245E-04;  2.7262411E+02;
  1.9160093E-01;  9.9999998E-03; -7.0082717E-02;3628; -2.8093327E-03;  0.0000000E+00; -1.8077131E-06;  9.9953845E+02;  1.0000000E-01; -3.8235956E+02;3; -1.4343189E+00;  0.0000000E+00; -1.4675257E-02;0; -1.3829113E-02;  3.9960621E+04;  0.0000000E+00; -3.1976867E-02;  4.0000000E+04;  0.0000000E+00;  3.9996172E+04; -1.4252245E-02;  0.0000000E+00;  4.2313256E-04;  4.2966644E+02;
  1.9163123E-01;  9.9999998E-03; -6.0073905E-02;3629; -2.7743822E-03;  0.0000000E+00; -2.4398455E-06;  9.9954443E+02;  1.0000000E-01; -3.7742142E+02;3; -1.4450233E+00;  0.0000000E+00; -1.3817047E-02;0; -1.3732735E-02;  3.9961496E+04;  0.0000000E+00; -3.4907717E-02;  4.0000000E+04;  0.0000000E+00;  3.9995301E+04; -1.4172814E-02;  0.0000000E+00;  4.4007844E-04;  5.1453851E+02;
  1.9165976E-01;  9.9999998E-03; -5.0064284E-02;3630; -2.7367165E-03;  0.0000000E+00; -5.0359877E-06;  9.9955511E+02;  1.0000000E-01; -3.6858215E+02;3; -1.4539245E+00;  0.0000000E+00; -1.2438383E-02;0; -1.3625280E-02;  3.9962379E+04;  0.0000000E+00; -3.2948948E-02;  4.0000000E+04;  0.0000000E+00;  3.9995613E+04; -1.4079488E-02;  0.0000000E+00;  4.5420832E-04;  5.2128070E+02;
  1.9168742E-01;  9.9999998E-03; -4.0056102E-02;3631; -2.7001316E-03;  0.0000000E+00; -7.6276979E-06;  9.9956586E+02;  1.0000000E-01; -3.5969354E+02;3; -1.4611291E+00;  0.0000000E+00; -1.0769411E-02;0; -1.3514394E-02;  3.9962828E+04;  0.0000000E+00; -2.6614374E-02;  4.0000000E+04;  0.0000000E+00;  3.9996340E+04; -1.3982651E-02;  0.0000000E+00;  4.6825650E-04;  4.6751706E+02;
  1.9172110E-01;  9.9999998E-03; -3.0054508E-02;3632; -2.6680892E-03;  0.0000000E+00; -8.7681356E-06;  9.9957318E+02;  1.0000000E-01; -3.5361963E+02;3; -1.4666921E+00;  0.0000000E+00; -8.6250305E-03;0; -1.3410603E-02;  3.9963008E+04;  0.0000000E+00; -1.7765315E-02;  4.0000000E+04;  0.0000000E+00;  3.9997023E+04; -1.3893254E-02;  0.0000000E+00;  4.8265173E-04;  3.8718597E+02;
  1.9175737E-01;  9.9999998E-03; -2.0053761E-02;3633; -2.6432765E-03;  0.0000000E+00; -7.7087061E-06;  9.9958026E+02;  1.0000000E-01; -3.4774326E+02;3; -1.4706377E+00;  0.0000000E+00; -5.9248200E-03;0; -1.3325402E-02;  3.9963184E+04;  0.0000000E+00; -8.8874334E-03;  4.0000000E+04;  0.0000000E+00;  3.9997059E+04; -1.3821236E-02;  0.0000000E+00;  4.9583387E-04;  3.1469101E+02;
  1.9178511E-01;  9.9999998E-03; -1.0039404E-02;3634; -2.6276002E-03;  0.0000000E+00; -4.5858633E-06;  9.9958270E+02;  1.0000000E-01; -3.4571863E+02;3; -1.4730372E+00;  0.0000000E+00; -3.0283106E-03;0; -1.3269241E-02;  3.9963074E+04;  0.0000000E+00; -2.3854051E-03;  4.0000000E+04;  0.0000000E+00;  3.9998035E+04; -1.3774502E-02;  0.0000000E+00;  5.0526153E-04;  2.7009085E+02;
  1.9179673E-01;  9.9999998E-03; -2.3287422E-10;3635; -2.6222463E-03;  0.0000000E+00; -4.8474544E-09;  9.9958655E+02;  1.0000000E-01; -3.4255823E+02;3; -1.4738501E+00;  0.0000000E+00;  3.9857387E-06;0; -1.3249570E-02;  3.9963160E+04;  0.0000000E+00; -7.9120618E-13;  4.0000000E+04;  0.0000000E+00;  3.9998141E+04; -1.3758296E-02;  0.0000000E+00;  5.0872669E-04;  2.5623703E+02;
  1.9178511E-01;  9.9999998E-03;  1.0039404E-02;3636; -2.6276018E-03;  0.0000000E+00;  4.5759311E-06;  9.9958264E+02;  1.0000000E-01; -3.4576801E+02;3; -1.4730443E+00;  0.0000000E+00;  3.0353474E-03;0; -1.3269253E-02;  3.9963074E+04;  0.0000000E+00; -2.3856531E-03;  4.0000000E+04;  0.0000000E+00;  3.9998035E+04; -1.3774518E-02;  0.0000000E+00;  5.0526473E-04;  2.7008688E+02;
  1.9175737E-01;  9.9999998E-03;  2.0053763E-02;3637; -2.6432802E-03;  0.0000000E+00;  7.6991191E-06;  9.9958026E+02;  1.0000000E-01; -3.4774326E+02;3; -1.4706434E+00;  0.0000000E+00;  5.9314873E-03;0; -1.3325408E-02;  3.9963184E+04;  0.0000000E+00; -8.8878516E-03;  4.0000000E+04;  0.0000000E+00;  3.9997059E+04; -1.3821248E-02;  0.0000000E+00;  4.9584027E-04;  3.1468768E+02;
  1.9172110E-01;  9.9999998E-03;  3.0054508E-02;3638; -2.6680941E-03;  0.0000000E+00;  8.7589215E-06;  9.9957324E+02;  1.0000000E-01; -3.5357025E+02;3; -1.4666970E+00;  0.0000000E+00;  8.6306129E-03;0; -1.3410593E-02;  3.9963012E+04;  0.0000000E+00; -1.7765757E-02;  4.0000000E+04;  0.0000000E+00;  3.9997027E+04; -1.3893254E-02;  0.0000000E+00;  4.8266078E-04;  3.8717941E+02;
  1.9168742E-01;  9.9999998E-03;  4.0056102E-02;3639; -2.7001377E-03;  0.0000000E+00;  7.6187721E-06;  9.9956580E+02;  1.0000000E-01; -3.5974292E+02;3; -1.4611369E+00;  0.0000000E+00;  1.0768373E-02;0; -1.3514397E-02;  3.9962824E+04;  0.0000000E+00; -2.6616357E-02;  4.0000000E+04;  0.0000000E+00;  3.9996340E+04; -1.3982663E-02;  0.0000000E+00;  4.6826637E-04;  4.6750830E+02;
  1.9165976E-01;  9.9999998E-03;  5.0064284E-02;3640; -2.7367235E-03;  0.0000000E+00;  5.0271874E-06;  9.9955511E+02;  1.0000000E-01; -3.6858215E+02;3; -1.4539242E+00;  0.0000000E+00;  1.2444768E-02;0; -1.3625291E-02;  3.9962379E+04;  0.0000000E+00; -3.2950383E-02;  4.0000000E+04;  0.0000000E+00;  3.9995613E+04; -1.4079510E-02;  0.0000000E+00;  4.5421903E-04;  5.2126758E+02;
  1.9163123E-01;  9.9999998E-03;  6.0073905E-02;3641; -2.7743909E-03;  0.0000000E+00;  2.4317528E-06;  9.9954449E+02;  1.0000000E-01; -3.7737204E+02;3; -1.4450213E+00;  0.0000000E+00;  1.3821264E-02;0; -1.3732738E-02;  3.9961488E+04;  0.0000000E+00; -3.4908824E-02;  4.0000000E+04;  0.0000000E+00;  3.9995301E+04; -1.4172827E-02;  0.0000000E+00;  4.4008868E-04;  5.1453052E+02;
  2.0157243E-01;  9.9999998E-03; -1.0010022E-01;3686; -3.0096418E-03;  0.0000000E+00; -3.9267910E-05;  9.9951733E+02;  1.0000000E-01; -3.9988992E+02;3; -1.4316640E+00;  0.0000000E+00; -1.0926260E-02;0; -1.3967868E-02;  3.9959832E+04;  0.0000000E+00;  7.5380653E-03;  4.0000000E+04;  0.0000000E+00;  3.9996141E+04; -1.4366150E-02;  0.0000000E+00;  3.9828219E-04;  4.4936157E+02;
  2.0161192E-01;  9.9999998E-03; -9.0092547E-02;3687; -3.0044219E-03;  0.0000000E+00; -2.7925038E-05;  9.9951495E+02;  1.0000000E-01; -4.0186517E+02;3; -1.4475043E+00;  0.0000000E+00; -1.1470239E-02;0; -1.3882487E-02;  3.9960660E+04;  0.0000000E+00; -2.3558268E-03;  4.0000000E+04;  0.0000000E+00;  3.9994652E+04; -1.4337689E-02;  0.0000000E+00;  4.5520157E-04;  6.1706677E+02;
  2.0165890E-01;  9.9999998E-03; -8.0083199E-02;3688; -2.9841980E-03;  0.0000000E+00; -2.1345500E-05;  9.9952130E+02;  1.0000000E-01; -3.9658139E+02;3; -1.4619216E+00;  0.0000000E+00; -1.1348749E-02;0; -1.3793022E-02;  3.9962332E+04;  0.0000000E+00; -1.4321983E-02;  4.0000000E+04;  0.0000000E+00;  3.9993578E+04; -1.4290169E-02;  0.0000000E+00;  4.9714633E-04;  7.8119995E+02;
  2.0170711E-01;  9.9999998E-03; -7.0070796E-02;3689; -2.9522481E-03;  0.0000000E+00; -1.9178578E-05;  9.9953546E+02;  1.0000000E-01; -3.8487799E+02;3; -1.4746978E+00;  0.0000000E+00; -1.1294366E-02;0; -1.3694591E-02;  3.9964312E+04;  0.0000000E+00; -2.3909211E-02;  4.0000000E+04;  0.0000000E+00;  3.9992539E+04; -1.4224247E-02;  0.0000000E+00;  5.2965601E-04;  9.0521796E+02;
  2.0174615E-01;  9.9999998E-03; -6.0054533E-02;3690; -2.9126653E-03;  0.0000000E+00; -1.9917345E-05;  9.9955310E+02;  1.0000000E-01; -3.7026114E+02;3; -1.4856231E+00;  0.0000000E+00; -1.0682271E-02;0; -1.3585979E-02;  3.9966484E+04;  0.0000000E+00; -2.8696099E-02;  4.0000000E+04;  0.0000000E+00;  3.9992074E+04; -1.4144083E-02;  0.0000000E+00;  5.5810442E-04;  9.6286859E+02;
  2.0177127E-01;  9.9999998E-03; -5.0036266E-02;3691; -2.8698742E-03;  0.0000000E+00; -2.1637939E-05;  9.9958130E+02;  1.0000000E-01; -3.4690378E+02;3; -1.4948732E+00;  0.0000000E+00; -9.9904481E-03;0; -1.3470329E-02;  3.9968301E+04;  0.0000000E+00; -2.8095121E-02;  4.0000000E+04;  0.0000000E+00;  3.9992324E+04; -1.4056432E-02;  0.0000000E+00;  5.8610318E-04;  9.4710608E+02;
  2.0178825E-01;  9.9999998E-03; -4.0020436E-02;3692; -2.8282013E-03;  0.0000000E+00; -2.2379276E-05;  9.9960406E+02;  1.0000000E-01; -3.2804010E+02;3; -1.5023397E+00;  0.0000000E+00; -8.7014874E-03;0; -1.3354505E-02;  3.9969684E+04;  0.0000000E+00; -2.3023142E-02;  4.0000000E+04;  0.0000000E+00;  3.9992258E+04; -1.3969291E-02;  0.0000000E+00;  6.1478571E-04;  8.7406903E+02;
  2.0181027E-01;  9.9999998E-03; -3.0014636E-02;3693; -2.7916299E-03;  0.0000000E+00; -2.0806327E-05;  9.9962592E+02;  1.0000000E-01; -3.0991718E+02;3; -1.5082209E+00;  0.0000000E+00; -7.2281933E-03;0; -1.3248088E-02;  3.9970441E+04;  0.0000000E+00; -1.5435532E-02;  4.0000000E+04;  0.0000000E+00;  3.9993551E+04; -1.3890966E-02;  0.0000000E+00;  6.4287754E-04;  7.7745837E+02;
  2.0183508E-01;  9.9999998E-03; -2.0015040E-02;3694; -2.7632075E-03;  0.0000000E+00; -1.6054117E-05;  9.9963800E+02;  1.0000000E-01; -2.9989276E+02;3; -1.5124264E+00;  0.0000000E+00; -5.2093701E-03;0; -1.3161795E-02;  3.9971129E+04;  0.0000000E+00; -7.7163605E-03;  4.0000000E+04;  0.0000000E+00;  3.9994441E+04; -1.3828962E-02;  0.0000000E+00;  6.6716736E-04;  6.9107294E+02;
  2.0185496E-01;  9.9999998E-03; -1.0012918E-02;3695; -2.7452337E-03;  0.0000000E+00; -8.7332546E-06;  9.9964929E+02;  1.0000000E-01; -2.9055969E+02;3; -1.5149349E+00;  0.0000000E+00; -2.7864627E-03;0; -1.3105378E-02;  3.9971387E+04;  0.0000000E+00; -2.0648648E-03;  4.0000000E+04;  0.0000000E+00;  3.9994922E+04; -1.3789201E-02;  0.0000000E+00;  6.8382255E-04;  6.3585944E+02;
  2.0186467E-01;  9.9999998E-03; -1.4300777E-10;3696; -2.7390691E-03;  0.0000000E+00; -5.5873399E-09;  9.9965338E+02;  1.0000000E-01; -2.8715237E+02;3; -1.5157640E+00;  0.0000000E+00;  2.2980335E-06;0; -1.3085683E-02;  3.9971453E+04;  0.0000000E+00; -7.2944130E-13;  4.0000000E+04;  0.0000000E+00;  3.9994961E+04; -1.3775494E-02;  0.0000000E+00;  6.8981136E-04;  6.1778442E+02;
  2.0185494E-01;  9.9999998E-03;  1.0012918E-02;3697; -2.7452351E-03;  0.0000000E+00;  8.7227090E-06;  9.9964935E+02;  1.0000000E-01; -2.9051031E+02;3; -1.5149288E+00;  0.0000000E+00;  2.7915656E-03;0; -1.3105375E-02;  3.9971387E+04;  0.0000000E+00; -2.0652937E-03;  4.0000000E+04;  0.0000000E+00;  3.9994922E+04; -1.3789201E-02;  0.0000000E+00;  6.8382651E-04;  6.3585529E+02;
  2.0183508E-01;  9.9999998E-03;  2.0015040E-02;3698; -2.7632108E-03;  0.0000000E+00;  1.6043490E-05;  9.9963800E+02;  1.0000000E-01; -2.9989276E+02;3; -1.5124286E+00;  0.0000000E+00;  5.2082879E-03;0; -1.3161801E-02;  3.9971129E+04;  0.0000000E+00; -7.7167917E-03;  4.0000000E+04;  0.0000000E+00;  3.9994441E+04; -1.3828976E-02;  0.0000000E+00;  6.6717481E-04;  6.9106537E+02;
  2.0181027E-01;  9.9999998E-03;  3.0014638E-02;3699; -2.7916348E-03;  0.0000000E+00;  2.0796431E-05;  9.9962592E+02;  1.0000000E-01; -3.0991718E+02;3; -1.5082306E+00;  0.0000000E+00;  7.2337869E-03;0; -1.3248100E-02;  3.9970441E+04;  0.0000000E+00; -1.5436302E-02;  4.0000000E+04;  0.0000000E+00;  3.9993551E+04; -1.3890987E-02;  0.0000000E+00;  6.4288726E-04;  7.7744440E+02;
  2.0178825E-01;  9.9999998E-03;  4.0020436E-02;3700; -2.8282078E-03;  0.0000000E+00;  2.2369810E-05;  9.9960413E+02;  1.0000000E-01; -3.2799072E+02;3; -1.5023413E+00;  0.0000000E+00;  8.7007349E-03;0; -1.3354507E-02;  3.9969688E+04;  0.0000000E+00; -2.3023315E-02;  4.0000000E+04;  0.0000000E+00;  3.9992258E+04; -1.3969305E-02;  0.0000000E+00;  6.1479758E-04;  8.7406323E+02;
  2.0177127E-01;  9.9999998E-03;  5.0036266E-02;3701; -2.8698815E-03;  0.0000000E+00;  2.1628934E-05;  9.9958130E+02;  1.0000000E-01; -3.4690378E+02;3; -1.4948699E+00;  0.0000000E+00;  9.9750292E-03;0; -1.3470322E-02;  3.9968305E+04;  0.0000000E+00; -2.8096512E-02;  4.0000000E+04;  0.0000000E+00;  3.9992324E+04; -1.4056438E-02;  0.0000000E+00;  5.8611564E-04;  9.4709814E+02;
  2.0174615E-01;  9.9999998E-03;  6.0054533E-02;3702; -2.9126739E-03;  0.0000000E+00;  1.9909183E-05;  9.9955316E+02;  1.0000000E-01; -3.7021176E+02;3; -1.4856203E+00;  0.0000000E+00;  1.0685539E-02;0; -1.3585988E-02;  3.9966484E+04;  0.0000000E+00; -2.8694429E-02;  4.0000000E+04;  0.0000000E+00;  3.9992078E+04; -1.4144103E-02;  0.0000000E+00;  5.5811554E-04;  9.6286011E+02;
  2.1173117E-01;  9.9999998E-03; -1.0005192E-01;3747; -3.1291731E-03;  0.0000000E+00; -5.5927565E-05;  9.9940814E+02;  1.0000000E-01; -4.9035651E+02;3; -1.4709535E+00;  0.0000000E+00; -8.1920931E-03;0; -1.3847351E-02;  3.9955066E+04;  0.0000000E+00;  4.6197407E-02;  4.0000000E+04;  0.0000000E+00;  3.9991703E+04; -1.4366041E-02;  0.0000000E+00;  5.1868969E-04;  9.2343530E+02;
  2.1179582E-01;  9.9999998E-03; -9.0034649E-02;3748; -3.1222147E-03;  0.0000000E+00; -4.6558409E-05;  9.9943463E+02;  1.0000000E-01; -4.6838181E+02;3; -1.4870692E+00;  0.0000000E+00; -8.2577532E-03;0; -1.3737489E-02;  3.9958121E+04;  0.0000000E+00;  2.8441522E-02;  4.0000000E+04;  0.0000000E+00;  3.9991164E+04; -1.4311319E-02;  0.0000000E+00;  5.7382969E-04;  1.0499460E+03;
  2.1183266E-01;  9.9999998E-03; -8.0023579E-02;3749; -3.0987270E-03;  0.0000000E+00; -4.1792795E-05;  9.9946893E+02;  1.0000000E-01; -4.3998755E+02;3; -1.5015237E+00;  0.0000000E+00; -8.6543271E-03;0; -1.3629396E-02;  3.9961625E+04;  0.0000000E+00;  1.1085351E-02;  4.0000000E+04;  0.0000000E+00;  3.9990113E+04; -1.4247424E-02;  0.0000000E+00;  6.1802845E-04;  1.1673021E+03;
  2.1184354E-01;  9.9999998E-03; -7.0014492E-02;3750; -3.0625756E-03;  0.0000000E+00; -4.0610019E-05;  9.9949866E+02;  1.0000000E-01; -4.1534628E+02;3; -1.5141743E+00;  0.0000000E+00; -8.5086301E-03;0; -1.3518091E-02;  3.9964863E+04;  0.0000000E+00; -2.5442857E-03;  4.0000000E+04;  0.0000000E+00;  3.9989578E+04; -1.4175311E-02;  0.0000000E+00;  6.5721921E-04;  1.2457260E+03;
  2.1183501E-01;  9.9999998E-03; -6.0003262E-02;3751; -3.0184428E-03;  0.0000000E+00; -4.1471809E-05;  9.9953503E+02;  1.0000000E-01; -3.8522366E+02;3; -1.5251107E+00;  0.0000000E+00; -8.2029756E-03;0; -1.3401715E-02;  3.9967816E+04;  0.0000000E+00; -1.1018165E-02;  4.0000000E+04;  0.0000000E+00;  3.9989434E+04; -1.4097980E-02;  0.0000000E+00;  6.9626537E-04;  1.2629310E+03;
  2.1181524E-01;  9.9999998E-03; -4.9990483E-02;3752; -2.9711658E-03;  0.0000000E+00; -4.2277585E-05;  9.9956726E+02;  1.0000000E-01; -3.5850839E+02;3; -1.5344592E+00;  0.0000000E+00; -7.7567077E-03;0; -1.3282328E-02;  3.9970262E+04;  0.0000000E+00; -1.4256732E-02;  4.0000000E+04;  0.0000000E+00;  3.9989859E+04; -1.4019861E-02;  0.0000000E+00;  7.3753338E-04;  1.2130531E+03;
  2.1179703E-01;  9.9999998E-03; -3.9981537E-02;3753; -2.9254097E-03;  0.0000000E+00; -4.1120264E-05;  9.9959839E+02;  1.0000000E-01; -3.3273132E+02;3; -1.5421114E+00;  0.0000000E+00; -6.8485360E-03;0; -1.3165697E-02;  3.9971715E+04;  0.0000000E+00; -1.3175741E-02;  4.0000000E+04;  0.0000000E+00;  3.9991223E+04; -1.3946204E-02;  0.0000000E+00;  7.8050664E-04;  1.1122886E+03;
  2.1179168E-01;  9.9999998E-03; -2.9982651E-02;3754; -2.8852727E-03;  0.0000000E+00; -3.6247729E-05;  9.9962286E+02;  1.0000000E-01; -3.1243561E+02;3; -1.5482521E+00;  0.0000000E+00; -5.9189983E-03;0; -1.3060239E-02;  3.9973172E+04;  0.0000000E+00; -9.3963547E-03;  4.0000000E+04;  0.0000000E+00;  3.9991836E+04; -1.3882317E-02;  0.0000000E+00;  8.2207762E-04;  9.9342780E+02;
  2.1179427E-01;  9.9999998E-03; -1.9989206E-02;3755; -2.8540476E-03;  0.0000000E+00; -2.7170689E-05;  9.9964258E+02;  1.0000000E-01; -2.9613977E+02;3; -1.5527190E+00;  0.0000000E+00; -4.5461785E-03;0; -1.2975608E-02;  3.9973801E+04;  0.0000000E+00; -4.8564048E-03;  4.0000000E+04;  0.0000000E+00;  3.9992727E+04; -1.3832933E-02;  0.0000000E+00;  8.5732527E-04;  8.8895471E+02;
  2.1179742E-01;  9.9999998E-03; -9.9955807E-03;3756; -2.8341070E-03;  0.0000000E+00; -1.4571511E-05;  9.9965210E+02;  1.0000000E-01; -2.8823877E+02;3; -1.5554663E+00;  0.0000000E+00; -2.4951121E-03;0; -1.2920676E-02;  3.9974176E+04;  0.0000000E+00; -1.3207991E-03;  4.0000000E+04;  0.0000000E+00;  3.9993422E+04; -1.3801740E-02;  0.0000000E+00;  8.8106375E-04;  8.2059143E+02;
  2.1179919E-01;  9.9999998E-03; -1.1902671E-10;3757; -2.8273612E-03;  0.0000000E+00; -5.9554579E-09;  9.9965643E+02;  1.0000000E-01; -2.8463391E+02;3; -1.5563381E+00;  0.0000000E+00;  2.4484757E-06;0; -1.2901599E-02;  3.9974207E+04;  0.0000000E+00; -7.4587900E-13;  4.0000000E+04;  0.0000000E+00;  3.9993543E+04; -1.3791062E-02;  0.0000000E+00;  8.8946300E-04;  7.9734222E+02;
  2.1179742E-01;  9.9999998E-03;  9.9955807E-03;3758; -2.8341082E-03;  0.0000000E+00;  1.4559460E-05;  9.9965210E+02;  1.0000000E-01; -2.8823877E+02;3; -1.5554695E+00;  0.0000000E+00;  2.4872976E-03;0; -1.2920670E-02;  3.9974180E+04;  0.0000000E+00; -1.3211084E-03;  4.0000000E+04;  0.0000000E+00;  3.9993422E+04; -1.3801738E-02;  0.0000000E+00;  8.8106719E-04;  8.2058289E+02;
  2.1179427E-01;  9.9999998E-03;  1.9989206E-02;3759; -2.8540499E-03;  0.0000000E+00;  2.7159776E-05;  9.9964258E+02;  1.0000000E-01; -2.9613977E+02;3; -1.5527176E+00;  0.0000000E+00;  4.5421282E-03;0; -1.2975595E-02;  3.9973797E+04;  0.0000000E+00; -4.8571792E-03;  4.0000000E+04;  0.0000000E+00;  3.9992727E+04; -1.3832927E-02;  0.0000000E+00;  8.5733162E-04;  8.8895312E+02;
  2.1179168E-01;  9.9999998E-03;  2.9982651E-02;3760; -2.8852774E-03;  0.0000000E+00;  3.6238820E-05;  9.9962292E+02;  1.0000000E-01; -3.1238623E+02;3; -1.5482501E+00;  0.0000000E+00;  5.9219077E-03;0; -1.3060246E-02;  3.9973172E+04;  0.0000000E+00; -9.3971118E-03;  4.0000000E+04;  0.0000000E+00;  3.9991836E+04; -1.3882334E-02;  0.0000000E+00;  8.2208880E-04;  9.9342310E+02;
  2.1179703E-01;  9.9999998E-03;  3.9981537E-02;3761; -2.9254158E-03;  0.0000000E+00;  4.1112169E-05;  9.9959845E+02;  1.0000000E-01; -3.3268195E+02;3; -1.5421153E+00;  0.0000000E+00;  6.8556285E-03;0; -1.3165702E-02;  3.9971715E+04;  0.0000000E+00; -1.3176022E-02;  4.0000000E+04;  0.0000000E+00;  3.9991223E+04; -1.3946220E-02;  0.0000000E+00;  7.8051822E-04;  1.1122928E+03;
  2.1181524E-01;  9.9999998E-03;  4.9990483E-02;3762; -2.9711733E-03;  0.0000000E+00;  4.2271156E-05;  9.9956732E+02;  1.0000000E-01; -3.5845898E+02;3; -1.5344614E+00;  0.0000000E+00;  7.7770664E-03;0; -1.3282339E-02;  3.9970258E+04;  0.0000000E+00; -1.4258160E-02;  4.0000000E+04;  0.0000000E+00;  3.9989859E+04; -1.4019886E-02;  0.0000000E+00;  7.3754694E-04;  1.2130458E+03;
  2.1183501E-01;  9.9999998E-03;  6.0003266E-02;3763; -3.0184509E-03;  0.0000000E+00;  4.1464540E-05;  9.9953503E+02;  1.0000000E-01; -3.8522366E+02;3; -1.5251112E+00;  0.0000000E+00;  8.2089324E-03;0; -1.3401728E-02;  3.9967816E+04;  0.0000000E+00; -1.1021231E-02;  4.0000000E+04;  0.0000000E+00;  3.9989430E+04; -1.4098005E-02;  0.0000000E+00;  6.9627754E-04;  1.2629255E+03;
  2.2185466E-01;  9.9999998E-03; -1.0000168E-01;3808; -3.2286751E-03;  0.0000000E+00; -7.4105868E-05;  9.9929626E+02;  1.0000000E-01; -5.8304523E+02;3; -1.5096846E+00;  0.0000000E+00; -6.1898069E-03;0; -1.3756877E-02;  3.9949445E+04;  0.0000000E+00;  9.5149413E-02;  4.0000000E+04;  0.0000000E+00;  3.9989938E+04; -1.4419382E-02;  0.0000000E+00;  6.6250516E-04;  1.2144235E+03;
  2.2186148E-01;  9.9999998E-03; -8.9996666E-02;3809; -3.2179933E-03;  0.0000000E+00; -6.6672459E-05;  9.9934711E+02;  1.0000000E-01; -5.4092297E+02;3; -1.5256419E+00;  0.0000000E+00; -6.8388619E-03;0; -1.3626987E-02;  3.9954027E+04;  0.0000000E+00;  6.8566956E-02;  4.0000000E+04;  0.0000000E+00;  3.9988973E+04; -1.4339938E-02;  0.0000000E+00;  7.1295077E-04;  1.2954905E+03;
  2.2184616E-01;  9.9999998E-03; -7.9995863E-02;3810; -3.1905882E-03;  0.0000000E+00; -6.3188752E-05;  9.9939526E+02;  1.0000000E-01; -5.0102286E+02;3; -1.5400474E+00;  0.0000000E+00; -7.8584710E-03;0; -1.3504413E-02;  3.9958617E+04;  0.0000000E+00;  4.5028415E-02;  4.0000000E+04;  0.0000000E+00;  3.9988625E+04; -1.4262125E-02;  0.0000000E+00;  7.5771176E-04;  1.3661376E+03;
  2.2181495E-01;  9.9999998E-03; -6.9994181E-02;3811; -3.1506338E-03;  0.0000000E+00; -6.2704421E-05;  9.9943646E+02;  1.0000000E-01; -4.6690036E+02;3; -1.5526788E+00;  0.0000000E+00; -7.9302816E-03;0; -1.3383890E-02;  3.9962223E+04;  0.0000000E+00;  2.6309965E-02;  4.0000000E+04;  0.0000000E+00;  3.9988230E+04; -1.4186614E-02;  0.0000000E+00;  8.0272491E-04;  1.4013855E+03;
  2.2177324E-01;  9.9999998E-03; -5.9989229E-02;3812; -3.1030017E-03;  0.0000000E+00; -6.3460961E-05;  9.9947485E+02;  1.0000000E-01; -4.3504944E+02;3; -1.5637608E+00;  0.0000000E+00; -7.8673214E-03;0; -1.3262996E-02;  3.9965070E+04;  0.0000000E+00;  1.2788730E-02;  4.0000000E+04;  0.0000000E+00;  3.9988594E+04; -1.4114914E-02;  0.0000000E+00;  8.5191918E-04;  1.3810135E+03;
  2.2172770E-01;  9.9999998E-03; -4.9981494E-02;3813; -3.0526489E-03;  0.0000000E+00; -6.3367268E-05;  9.9950769E+02;  1.0000000E-01; -4.0788971E+02;3; -1.5731777E+00;  0.0000000E+00; -7.2863335E-03;0; -1.3142911E-02;  3.9967258E+04;  0.0000000E+00;  4.1739126E-03;  4.0000000E+04;  0.0000000E+00;  3.9989336E+04; -1.4049087E-02;  0.0000000E+00;  9.0617599E-04;  1.3002148E+03;
  2.2168997E-01;  9.9999998E-03; -3.9978120E-02;3814; -3.0043055E-03;  0.0000000E+00; -6.0273574E-05;  9.9953149E+02;  1.0000000E-01; -3.8813718E+02;3; -1.5813129E+00;  0.0000000E+00; -7.4116085E-03;0; -1.3028248E-02;  3.9968578E+04;  0.0000000E+00; -2.5983521E-04;  4.0000000E+04;  0.0000000E+00;  3.9990555E+04; -1.3991450E-02;  0.0000000E+00;  9.6320157E-04;  1.1756488E+03;
  2.2166795E-01;  9.9999998E-03; -2.9983582E-02;3815; -2.9620370E-03;  0.0000000E+00; -5.2302392E-05;  9.9955603E+02;  1.0000000E-01; -3.6784146E+02;3; -1.5876048E+00;  0.0000000E+00; -6.1391024E-03;0; -1.2926199E-02;  3.9969227E+04;  0.0000000E+00; -1.6155336E-03;  4.0000000E+04;  0.0000000E+00;  3.9991445E+04; -1.3944237E-02;  0.0000000E+00;  1.0180388E-03;  1.0387220E+03;
  2.2165664E-01;  9.9999998E-03; -1.9992210E-02;3816; -2.9291518E-03;  0.0000000E+00; -3.9068971E-05;  9.9956940E+02;  1.0000000E-01; -3.5673065E+02;3; -1.5924335E+00;  0.0000000E+00; -4.8894645E-03;0; -1.2845134E-02;  3.9969586E+04;  0.0000000E+00; -1.2347559E-03;  4.0000000E+04;  0.0000000E+00;  3.9992316E+04; -1.3909237E-02;  0.0000000E+00;  1.0641030E-03;  9.2053406E+02;
  2.2165135E-01;  9.9999998E-03; -9.9987779E-03;3817; -2.9082086E-03;  0.0000000E+00; -2.1155480E-05;  9.9958167E+02;  1.0000000E-01; -3.4655811E+02;3; -1.5953670E+00;  0.0000000E+00; -2.7330799E-03;0; -1.2792774E-02;  3.9969746E+04;  0.0000000E+00; -3.9188817E-04;  4.0000000E+04;  0.0000000E+00;  3.9993090E+04; -1.3887698E-02;  0.0000000E+00;  1.0949236E-03;  8.4306268E+02;
  2.2165039E-01;  9.9999998E-03; -2.2451203E-10;3818; -2.9010209E-03;  0.0000000E+00; -5.4938716E-09;  9.9958209E+02;  1.0000000E-01; -3.4621243E+02;3; -1.5963777E+00;  0.0000000E+00;  4.6346177E-06;0; -1.2774644E-02;  3.9969898E+04;  0.0000000E+00;  5.2884222E-13;  4.0000000E+04;  0.0000000E+00;  3.9993297E+04; -1.3880437E-02;  0.0000000E+00;  1.1057932E-03;  8.1652448E+02;
  2.2165135E-01;  9.9999998E-03;  9.9987779E-03;3819; -2.9082103E-03;  0.0000000E+00;  2.1144006E-05;  9.9958160E+02;  1.0000000E-01; -3.4665686E+02;3; -1.5953634E+00;  0.0000000E+00;  2.7466193E-03;0; -1.2792768E-02;  3.9969746E+04;  0.0000000E+00; -3.9228270E-04;  4.0000000E+04;  0.0000000E+00;  3.9993090E+04; -1.3887695E-02;  0.0000000E+00;  1.0949272E-03;  8.4306030E+02;
  2.2165664E-01;  9.9999998E-03;  1.9992210E-02;3820; -2.9291548E-03;  0.0000000E+00;  3.9057624E-05;  9.9956946E+02;  1.0000000E-01; -3.5668127E+02;3; -1.5924275E+00;  0.0000000E+00;  4.8991567E-03;0; -1.2845130E-02;  3.9969586E+04;  0.0000000E+00; -1.2352850E-03;  4.0000000E+04;  0.0000000E+00;  3.9992316E+04; -1.3909240E-02;  0.0000000E+00;  1.0641109E-03;  9.2053070E+02;
  2.2166795E-01;  9.9999998E-03;  2.9983582E-02;3821; -2.9620414E-03;  0.0000000E+00;  5.2293155E-05;  9.9955603E+02;  1.0000000E-01; -3.6784146E+02;3; -1.5876017E+00;  0.0000000E+00;  6.1486480E-03;0; -1.2926208E-02;  3.9969227E+04;  0.0000000E+00; -1.6157464E-03;  4.0000000E+04;  0.0000000E+00;  3.9991445E+04; -1.3944258E-02;  0.0000000E+00;  1.0180498E-03;  1.0387139E+03;
  2.2168997E-01;  9.9999998E-03;  3.9978120E-02;3822; -3.0043116E-03;  0.0000000E+00;  6.0265473E-05;  9.9953149E+02;  1.0000000E-01; -3.8813718E+02;3; -1.5813119E+00;  0.0000000E+00;  7.4131005E-03;0; -1.3028242E-02;  3.9968582E+04;  0.0000000E+00; -2.6033580E-04;  4.0000000E+04;  0.0000000E+00;  3.9990555E+04; -1.3991456E-02;  0.0000000E+00;  9.6321420E-04;  1.1756355E+03;
  2.2172770E-01;  9.9999998E-03;  4.9981494E-02;3823; -3.0526554E-03;  0.0000000E+00;  6.3358508E-05;  9.9950769E+02;  1.0000000E-01; -4.0788971E+02;3; -1.5731753E+00;  0.0000000E+00;  7.2829076E-03;0; -1.3142914E-02;  3.9967254E+04;  0.0000000E+00;  4.1724485E-03;  4.0000000E+04;  0.0000000E+00;  3.9989344E+04; -1.4049103E-02;  0.0000000E+00;  9.0618955E-04;  1.3002024E+03;
  2.2177324E-01;  9.9999998E-03;  5.9989229E-02;3824; -3.1030106E-03;  0.0000000E+00;  6.3453364E-05;  9.9947479E+02;  1.0000000E-01; -4.3514819E+02;3; -1.5637649E+00;  0.0000000E+00;  7.8696366E-03;0; -1.3263005E-02;  3.9965070E+04;  0.0000000E+00;  1.2788138E-02;  4.0000000E+04;  0.0000000E+00;  3.9988590E+04; -1.4114939E-02;  0.0000000E+00;  8.5193425E-04;  1.3810106E+03;
  2.3184177E-01;  9.9999998E-03; -9.9989250E-02;3869; -3.3206944E-03;  0.0000000E+00; -9.1825350E-05;  9.9921198E+02;  1.0000000E-01; -6.5287042E+02;3; -1.5471328E+00;  0.0000000E+00; -6.5627368E-03;0; -1.3757639E-02;  3.9944348E+04;  0.0000000E+00;  1.4047265E-01;  4.0000000E+04;  0.0000000E+00;  3.9988891E+04; -1.4584835E-02;  0.0000000E+00;  8.2719559E-04;  1.3046866E+03;
  2.3180558E-01;  9.9999998E-03; -8.9993767E-02;3870; -3.3055597E-03;  0.0000000E+00; -8.5655643E-05;  9.9927600E+02;  1.0000000E-01; -5.9983490E+02;3; -1.5633337E+00;  0.0000000E+00; -8.5626403E-03;0; -1.3610837E-02;  3.9949688E+04;  0.0000000E+00;  1.0575844E-01;  4.0000000E+04;  0.0000000E+00;  3.9988625E+04; -1.4482863E-02;  0.0000000E+00;  8.7202631E-04;  1.3523713E+03;
  2.3175946E-01;  9.9999998E-03; -7.9999290E-02;3871; -3.2742855E-03;  0.0000000E+00; -8.3265513E-05;  9.9932416E+02;  1.0000000E-01; -5.5993475E+02;3; -1.5776644E+00;  0.0000000E+00; -8.8795759E-03;0; -1.3476827E-02;  3.9953898E+04;  0.0000000E+00;  7.6759964E-02;  4.0000000E+04;  0.0000000E+00;  3.9988633E+04; -1.4393732E-02;  0.0000000E+00;  9.1690448E-04;  1.3878253E+03;
  2.3170589E-01;  9.9999998E-03; -7.0001282E-02;3872; -3.2311478E-03;  0.0000000E+00; -8.3238025E-05;  9.9935999E+02;  1.0000000E-01; -5.3025659E+02;3; -1.5906696E+00;  0.0000000E+00; -9.3508614E-03;0; -1.3350108E-02;  3.9956859E+04;  0.0000000E+00;  5.3467639E-02;  4.0000000E+04;  0.0000000E+00;  3.9988637E+04; -1.4317504E-02;  0.0000000E+00;  9.6739654E-04;  1.3890498E+03;
  2.3164815E-01;  9.9999998E-03; -5.9998315E-02;3873; -3.1810969E-03;  0.0000000E+00; -8.3777108E-05;  9.9938501E+02;  1.0000000E-01; -5.0951645E+02;3; -1.6016699E+00;  0.0000000E+00; -8.4307604E-03;0; -1.3227746E-02;  3.9958621E+04;  0.0000000E+00;  3.5247259E-02;  4.0000000E+04;  0.0000000E+00;  3.9988953E+04; -1.4254096E-02;  0.0000000E+00;  1.0263503E-03;  1.3386077E+03;
  2.3159309E-01;  9.9999998E-03; -4.9992237E-02;3874; -3.1291107E-03;  0.0000000E+00; -8.2782892E-05;  9.9940088E+02;  1.0000000E-01; -4.9638101E+02;3; -1.6115234E+00;  0.0000000E+00; -8.3608190E-03;0; -1.3109895E-02;  3.9959332E+04;  0.0000000E+00;  2.1517716E-02;  4.0000000E+04;  0.0000000E+00;  3.9989609E+04; -1.4203033E-02;  0.0000000E+00;  1.0931377E-03;  1.2338964E+03;
  2.3155449E-01;  9.9999998E-03; -3.9990418E-02;3875; -3.0797597E-03;  0.0000000E+00; -7.7631499E-05;  9.9941321E+02;  1.0000000E-01; -4.8615909E+02;3; -1.6199343E+00;  0.0000000E+00; -8.3719557E-03;0; -1.3000016E-02;  3.9959488E+04;  0.0000000E+00;  1.1825779E-02;  4.0000000E+04;  0.0000000E+00;  3.9991035E+04; -1.4163829E-02;  0.0000000E+00;  1.1638131E-03;  1.0926041E+03;
  2.3155521E-01;  9.9999998E-03; -2.9994382E-02;3876; -3.0370788E-03;  0.0000000E+00; -6.6954221E-05;  9.9942365E+02;  1.0000000E-01; -4.7751736E+02;3; -1.6269745E+00;  0.0000000E+00; -7.6186797E-03;0; -1.2903965E-02;  3.9959367E+04;  0.0000000E+00;  5.6105438E-03;  4.0000000E+04;  0.0000000E+00;  3.9992195E+04; -1.4136038E-02;  0.0000000E+00;  1.2320729E-03;  9.4465479E+02;
  2.3156889E-01;  9.9999998E-03; -1.9999448E-02;3877; -3.0040881E-03;  0.0000000E+00; -4.9775950E-05;  9.9943219E+02;  1.0000000E-01; -4.7040646E+02;3; -1.6321787E+00;  0.0000000E+00; -6.0797608E-03;0; -1.2828475E-02;  3.9959098E+04;  0.0000000E+00;  2.1043408E-03;  4.0000000E+04;  0.0000000E+00;  3.9993250E+04; -1.4117777E-02;  0.0000000E+00;  1.2893028E-03;  8.1939514E+02;
  2.3157935E-01;  9.9999998E-03; -1.0002354E-02;3878; -2.9831072E-03;  0.0000000E+00; -2.6808377E-05;  9.9943561E+02;  1.0000000E-01; -4.6759171E+02;3; -1.6352926E+00;  0.0000000E+00; -2.9564055E-03;0; -1.2780008E-02;  3.9958723E+04;  0.0000000E+00;  4.6054344E-04;  4.0000000E+04;  0.0000000E+00;  3.9993586E+04; -1.4107438E-02;  0.0000000E+00;  1.3274299E-03;  7.3780615E+02;
  2.3158534E-01;  9.9999998E-03; -6.0238017E-12;3879; -2.9758858E-03;  0.0000000E+00; -5.6458580E-09;  9.9943781E+02;  1.0000000E-01; -4.6576462E+02;3; -1.6363008E+00;  0.0000000E+00;  2.5559525E-06;0; -1.2763303E-02;  3.9958652E+04;  0.0000000E+00; -8.9469567E-13;  4.0000000E+04;  0.0000000E+00;  3.9993781E+04; -1.4104185E-02;  0.0000000E+00;  1.3408822E-03;  7.0985461E+02;
  2.3157935E-01;  9.9999998E-03;  1.0002353E-02;3880; -2.9831084E-03;  0.0000000E+00;  2.6797808E-05;  9.9943561E+02;  1.0000000E-01; -4.6759171E+02;3; -1.6352917E+00;  0.0000000E+00;  2.9684559E-03;0; -1.2780009E-02;  3.9958723E+04;  0.0000000E+00;  4.6038951E-04;  4.0000000E+04;  0.0000000E+00;  3.9993586E+04; -1.4107444E-02;  0.0000000E+00;  1.3274350E-03;  7.3779919E+02;
  2.3156889E-01;  9.9999998E-03;  1.9999448E-02;3881; -3.0040911E-03;  0.0000000E+00;  4.9765367E-05;  9.9943219E+02;  1.0000000E-01; -4.7040646E+02;3; -1.6321784E+00;  0.0000000E+00;  6.0839485E-03;0; -1.2828474E-02;  3.9959098E+04;  0.0000000E+00;  2.1039795E-03;  4.0000000E+04;  0.0000000E+00;  3.9993250E+04; -1.4117783E-02;  0.0000000E+00;  1.2893088E-03;  8.1939026E+02;
  2.3155521E-01;  9.9999998E-03;  2.9994380E-02;3882; -3.0370834E-03;  0.0000000E+00;  6.6945686E-05;  9.9942365E+02;  1.0000000E-01; -4.7751736E+02;3; -1.6269798E+00;  0.0000000E+00;  7.6214965E-03;0; -1.2903968E-02;  3.9959371E+04;  0.0000000E+00;  5.6103873E-03;  4.0000000E+04;  0.0000000E+00;  3.9992195E+04; -1.4136052E-02;  0.0000000E+00;  1.2320837E-03;  9.4464697E+02;
  2.3155449E-01;  9.9999998E-03;  3.9990418E-02;3883; -3.0797655E-03;  0.0000000E+00;  7.7621713E-05;  9.9941321E+02;  1.0000000E-01; -4.8615909E+02;3; -1.6199329E+00;  0.0000000E+00;  8.3879046E-03;0; -1.3000038E-02;  3.9959492E+04;  0.0000000E+00;  1.1825038E-02;  4.0000000E+04;  0.0000000E+00;  3.9991035E+04; -1.4163862E-02;  0.0000000E+00;  1.1638248E-03;  1.0925902E+03;
  2.3159309E-01;  9.9999998E-03;  4.9992237E-02;3884; -3.1291179E-03;  0.0000000E+00;  8.2774473E-05;  9.9940088E+02;  1.0000000E-01; -4.9638101E+02;3; -1.6115263E+00;  0.0000000E+00;  8.3732773E-03;0; -1.3109921E-02;  3.9959332E+04;  0.0000000E+00;  2.1518229E-02;  4.0000000E+04;  0.0000000E+00;  3.9989609E+04; -1.4203073E-02;  0.0000000E+00;  1.0931522E-03;  1.2338916E+03;
  2.3164815E-01;  9.9999998E-03;  5.9998315E-02;3885; -3.1811055E-03;  0.0000000E+00;  8.3767081E-05;  9.9938501E+02;  1.0000000E-01; -5.0951645E+02;3; -1.6016713E+00;  0.0000000E+00;  8.4345480E-03;0; -1.3227754E-02;  3.9958625E+04;  0.0000000E+00;  3.5249136E-02;  4.0000000E+04;  0.0000000E+00;  3.9988953E+04; -1.4254119E-02;  0.0000000E+00;  1.0263653E-03;  1.3386071E+03;
  2.4176727E-01;  9.9999998E-03; -9.9991925E-02;3930; -3.4174877E-03;  0.0000000E+00; -1.0742205E-04;  9.9917609E+02;  1.0000000E-01; -6.8259796E+02;3; -1.5840486E+00;  0.0000000E+00; -1.0275127E-02;0; -1.3880246E-02;  3.9941664E+04;  0.0000000E+00;  1.6803528E-01;  4.0000000E+04;  0.0000000E+00;  3.9989941E+04; -1.4894270E-02;  0.0000000E+00;  1.0140238E-03;  1.2305659E+03;
  2.4170978E-01;  9.9999998E-03; -9.0000384E-02;3931; -3.3974615E-03;  0.0000000E+00; -1.0272255E-04;  9.9922388E+02;  1.0000000E-01; -6.4299414E+02;3; -1.6002113E+00;  0.0000000E+00; -1.0862561E-02;0; -1.3720173E-02;  3.9945980E+04;  0.0000000E+00;  1.2800060E-01;  4.0000000E+04;  0.0000000E+00;  3.9989309E+04; -1.4773433E-02;  0.0000000E+00;  1.0532597E-03;  1.2574391E+03;
  2.4165216E-01;  9.9999998E-03; -8.0007792E-02;3932; -3.3625625E-03;  0.0000000E+00; -1.0125725E-04;  9.9925507E+02;  1.0000000E-01; -6.1716772E+02;3; -1.6147156E+00;  0.0000000E+00; -1.0677345E-02;0; -1.3578340E-02;  3.9948812E+04;  0.0000000E+00;  9.5994644E-02;  4.0000000E+04;  0.0000000E+00;  3.9989191E+04; -1.4676656E-02;  0.0000000E+00;  1.0983156E-03;  1.2679445E+03;
  2.4161009E-01;  9.9999998E-03; -7.0009917E-02;3933; -3.3173310E-03;  0.0000000E+00; -1.0169709E-04;  9.9926654E+02;  1.0000000E-01; -6.0763715E+02;3; -1.6280277E+00;  0.0000000E+00; -1.1163732E-02;0; -1.3449321E-02;  3.9949820E+04;  0.0000000E+00;  7.0346363E-02;  4.0000000E+04;  0.0000000E+00;  3.9989766E+04; -1.4603824E-02;  0.0000000E+00;  1.1545039E-03;  1.2432196E+03;
  2.4158624E-01;  9.9999998E-03; -6.0004268E-02;3934; -3.2665136E-03;  0.0000000E+00; -1.0187619E-04;  9.9926880E+02;  1.0000000E-01; -6.0581000E+02;3; -1.6398571E+00;  0.0000000E+00; -1.1157054E-02;0; -1.3329525E-02;  3.9949613E+04;  0.0000000E+00;  4.9523383E-02;  4.0000000E+04;  0.0000000E+00;  3.9990078E+04; -1.4553102E-02;  0.0000000E+00;  1.2235761E-03;  1.1698551E+03;
  2.4156332E-01;  9.9999998E-03; -4.9994532E-02;3935; -3.2147081E-03;  0.0000000E+00; -9.9601333E-05;  9.9926587E+02;  1.0000000E-01; -6.0822974E+02;3; -1.6499803E+00;  0.0000000E+00; -1.0683841E-02;0; -1.3217847E-02;  3.9948289E+04;  0.0000000E+00;  3.2710269E-02;  4.0000000E+04;  0.0000000E+00;  3.9991281E+04; -1.4520779E-02;  0.0000000E+00;  1.3029324E-03;  1.0486157E+03;
  2.4155231E-01;  9.9999998E-03; -3.9990734E-02;3936; -3.1663508E-03;  0.0000000E+00; -9.2631999E-05;  9.9925818E+02;  1.0000000E-01; -6.1459991E+02;3; -1.6589041E+00;  0.0000000E+00; -1.0108909E-02;0; -1.3116440E-02;  3.9946922E+04;  0.0000000E+00;  1.9680453E-02;  4.0000000E+04;  0.0000000E+00;  3.9992590E+04; -1.4503359E-02;  0.0000000E+00;  1.3869191E-03;  8.9820673E+02;
  2.4155191E-01;  9.9999998E-03; -2.9993162E-02;3937; -3.1248406E-03;  0.0000000E+00; -7.9248741E-05;  9.9925641E+02;  1.0000000E-01; -6.1603198E+02;3; -1.6660519E+00;  0.0000000E+00; -8.9830840E-03;0; -1.3029302E-02;  3.9945449E+04;  0.0000000E+00;  1.0311433E-02;  4.0000000E+04;  0.0000000E+00;  3.9993566E+04; -1.4496372E-02;  0.0000000E+00;  1.4670697E-03;  7.4703595E+02;
  2.4155337E-01;  9.9999998E-03; -1.9998351E-02;3938; -3.0928524E-03;  0.0000000E+00; -5.8709546E-05;  9.9924988E+02;  1.0000000E-01; -6.2146393E+02;3; -1.6716710E+00;  0.0000000E+00; -6.8833600E-03;0; -1.2961502E-02;  3.9944328E+04;  0.0000000E+00;  4.2722388E-03;  4.0000000E+04;  0.0000000E+00;  3.9994664E+04; -1.4495150E-02;  0.0000000E+00;  1.5336479E-03;  6.2190936E+02;
  2.4155898E-01;  9.9999998E-03; -1.0002030E-02;3939; -3.0727496E-03;  0.0000000E+00; -3.1417734E-05;  9.9924652E+02;  1.0000000E-01; -6.2422925E+02;3; -1.6750157E+00;  0.0000000E+00; -3.6905119E-03;0; -1.2918328E-02;  3.9943258E+04;  0.0000000E+00;  1.0127539E-03;  4.0000000E+04;  0.0000000E+00;  3.9995082E+04; -1.4496242E-02;  0.0000000E+00;  1.5779139E-03;  5.4132806E+02;
  2.4156307E-01;  9.9999998E-03;  2.9682912E-10;3940; -3.0658420E-03;  0.0000000E+00; -4.9422106E-09;  9.9924481E+02;  1.0000000E-01; -6.2566132E+02;3; -1.6761973E+00;  0.0000000E+00;  9.1059210E-06;0; -1.2903517E-02;  3.9943074E+04;  0.0000000E+00; -1.7331122E-12;  4.0000000E+04;  0.0000000E+00;  3.9995273E+04; -1.4497004E-02;  0.0000000E+00;  1.5934878E-03;  5.1383429E+02;
  2.4155898E-01;  9.9999998E-03;  1.0002030E-02;3941; -3.0727510E-03;  0.0000000E+00;  3.1407995E-05;  9.9924646E+02;  1.0000000E-01; -6.2427863E+02;3; -1.6750185E+00;  0.0000000E+00;  3.6975883E-03;0; -1.2918340E-02;  3.9943258E+04;  0.0000000E+00;  1.0127919E-03;  4.0000000E+04;  0.0000000E+00;  3.9995082E+04; -1.4496258E-02;  0.0000000E+00;  1.5779178E-03;  5.4132587E+02;
  2.4155337E-01;  9.9999998E-03;  1.9998351E-02;3942; -3.0928557E-03;  0.0000000E+00;  5.8700156E-05;  9.9924988E+02;  1.0000000E-01; -6.2146393E+02;3; -1.6716700E+00;  0.0000000E+00;  6.8900390E-03;0; -1.2961501E-02;  3.9944328E+04;  0.0000000E+00;  4.2724875E-03;  4.0000000E+04;  0.0000000E+00;  3.9994664E+04; -1.4495157E-02;  0.0000000E+00;  1.5336558E-03;  6.2189819E+02;
  2.4155191E-01;  9.9999998E-03;  2.9993162E-02;3943; -3.1248452E-03;  0.0000000E+00;  7.9238111E-05;  9.9925641E+02;  1.0000000E-01; -6.1603198E+02;3; -1.6660551E+00;  0.0000000E+00;  8.9896573E-03;0; -1.3029314E-02;  3.9945449E+04;  0.0000000E+00;  1.0311266E-02;  4.0000000E+04;  0.0000000E+00;  3.9993566E+04; -1.4496394E-02;  0.0000000E+00;  1.4670799E-03;  7.4702472E+02;
  2.4155231E-01;  9.9999998E-03;  3.9990734E-02;3944; -3.1663568E-03;  0.0000000E+00;  9.2620852E-05;  9.9925818E+02;  1.0000000E-01; -6.1459991E+02;3; -1.6589037E+00;  0.0000000E+00;  1.0098961E-02;0; -1.3116444E-02;  3.9946930E+04;  0.0000000E+00;  1.9680312E-02;  4.0000000E+04;  0.0000000E+00;  3.9992594E+04; -1.4503377E-02;  0.0000000E+00;  1.3869319E-03;  8.9820532E+02;
  2.4156332E-01;  9.9999998E-03;  4.9994532E-02;3945; -3.2147157E-03;  0.0000000E+00;  9.9590863E-05;  9.9926599E+02;  1.0000000E-01; -6.0813092E+02;3; -1.6499799E+00;  0.0000000E+00;  1.0686213E-02;0; -1.3217858E-02;  3.9948293E+04;  0.0000000E+00;  3.2711696E-02;  4.0000000E+04;  0.0000000E+00;  3.9991281E+04; -1.4520805E-02;  0.0000000E+00;  1.3029472E-03;  1.0486077E+03;
  2.4158624E-01;  9.9999998E-03;  6.0004268E-02;3946; -3.2665224E-03;  0.0000000E+00;  1.0186888E-04;  9.9926874E+02;  1.0000000E-01; -6.0585944E+02;3; -1.6398557E+00;  0.0000000E+00;  1.1162982E-02;0; -1.3329527E-02;  3.9949617E+04;  0.0000000E+00;  4.9524210E-02;  4.0000000E+04;  0.0000000E+00;  3.9990078E+04; -1.4553117E-02;  0.0000000E+00;  1.2235894E-03;  1.1698561E+03;
  2.5174919E-01;  9.9999998E-03; -9.9990122E-02;3991; -3.5284916E-03;  0.0000000E+00; -1.2208713E-04;  9.9919489E+02;  1.0000000E-01; -6.6704285E+02;3; -1.6205109E+00;  0.0000000E+00; -1.3497225E-02;0; -1.4130717E-02;  3.9943012E+04;  0.0000000E+00;  1.6829266E-01;  4.0000000E+04;  0.0000000E+00;  3.9991461E+04; -1.5357566E-02;  0.0000000E+00;  1.2268492E-03;  1.0442344E+03;
  2.5169253E-01;  9.9999998E-03; -8.9999087E-02;3992; -3.5036709E-03;  0.0000000E+00; -1.1833633E-04;  9.9921136E+02;  1.0000000E-01; -6.5336426E+02;3; -1.6368724E+00;  0.0000000E+00; -1.3785317E-02;0; -1.3961989E-02;  3.9944762E+04;  0.0000000E+00;  1.2728772E-01;  4.0000000E+04;  0.0000000E+00;  3.9991074E+04; -1.5223396E-02;  0.0000000E+00;  1.2614074E-03;  1.0577708E+03;
  2.5164786E-01;  9.9999998E-03; -8.0004819E-02;3993; -3.4659877E-03;  0.0000000E+00; -1.1764040E-04;  9.9920917E+02;  1.0000000E-01; -6.5519135E+02;3; -1.6519468E+00;  0.0000000E+00; -1.4238750E-02;0; -1.3816832E-02;  3.9944734E+04;  0.0000000E+00;  9.6075945E-02;  4.0000000E+04;  0.0000000E+00;  3.9991113E+04; -1.5124259E-02;  0.0000000E+00;  1.3074266E-03;  1.0491553E+03;
  2.5161123E-01;  9.9999998E-03; -7.0005052E-02;3994; -3.4197159E-03;  0.0000000E+00; -1.1799392E-04;  9.9918933E+02;  1.0000000E-01; -6.7163531E+02;3; -1.6654396E+00;  0.0000000E+00; -1.3812072E-02;0; -1.3689395E-02;  3.9942852E+04;  0.0000000E+00;  7.1583658E-02;  4.0000000E+04;  0.0000000E+00;  3.9991629E+04; -1.5058486E-02;  0.0000000E+00;  1.3690911E-03;  1.0035603E+03;
  2.5157481E-01;  9.9999998E-03; -6.0000576E-02;3995; -3.3694052E-03;  0.0000000E+00; -1.1754765E-04;  9.9916071E+02;  1.0000000E-01; -6.9533838E+02;3; -1.6776049E+00;  0.0000000E+00; -1.3934489E-02;0; -1.3575170E-02;  3.9940160E+04;  0.0000000E+00;  5.1537637E-02;  4.0000000E+04;  0.0000000E+00;  3.9992344E+04; -1.5021789E-02;  0.0000000E+00;  1.4466183E-03;  9.1296265E+02;
  2.5156173E-01;  9.9999998E-03; -4.9994573E-02;3996; -3.3196097E-03;  0.0000000E+00; -1.1392860E-04;  9.9913171E+02;  1.0000000E-01; -7.1933771E+02;3; -1.6883265E+00;  0.0000000E+00; -1.3500856E-02;0; -1.3472967E-02;  3.9936965E+04;  0.0000000E+00;  3.4891762E-02;  4.0000000E+04;  0.0000000E+00;  3.9993340E+04; -1.5009785E-02;  0.0000000E+00;  1.5368179E-03;  7.8224194E+02;
  2.5157723E-01;  9.9999998E-03; -3.9991494E-02;3997; -3.2741807E-03;  0.0000000E+00; -1.0496193E-04;  9.9910541E+02;  1.0000000E-01; -7.4116425E+02;3; -1.6975373E+00;  0.0000000E+00; -1.2118356E-02;0; -1.3383330E-02;  3.9933406E+04;  0.0000000E+00;  2.1509979E-02;  4.0000000E+04;  0.0000000E+00;  3.9994340E+04; -1.5015886E-02;  0.0000000E+00;  1.6325567E-03;  6.3106537E+02;
  2.5159663E-01;  9.9999998E-03; -2.9992675E-02;3998; -3.2358353E-03;  0.0000000E+00; -8.9184476E-05;  9.9908185E+02;  1.0000000E-01; -7.6066986E+02;3; -1.7051998E+00;  0.0000000E+00; -1.0519789E-02;0; -1.3307855E-02;  3.9930668E+04;  0.0000000E+00;  1.1525585E-02;  4.0000000E+04;  0.0000000E+00;  3.9995379E+04; -1.5031295E-02;  0.0000000E+00;  1.7234397E-03;  4.8541696E+02;
  2.5161901E-01;  9.9999998E-03; -1.9995568E-02;3999; -3.2067667E-03;  0.0000000E+00; -6.5853274E-05;  9.9906555E+02;  1.0000000E-01; -7.7415094E+02;3; -1.7109869E+00;  0.0000000E+00; -7.8972718E-03;0; -1.3250073E-02;  3.9928375E+04;  0.0000000E+00;  4.8669069E-03;  4.0000000E+04;  0.0000000E+00;  3.9996262E+04; -1.5048830E-02;  0.0000000E+00;  1.7987569E-03;  3.6822836E+02;
  2.5163779E-01;  9.9999998E-03; -9.9982359E-03;4000; -3.1886599E-03;  0.0000000E+00; -3.4870969E-05;  9.9905402E+02;  1.0000000E-01; -7.8373090E+02;3; -1.7146053E+00;  0.0000000E+00; -4.2688115E-03;0; -1.3213632E-02;  3.9927148E+04;  0.0000000E+00;  1.1690384E-03;  4.0000000E+04;  0.0000000E+00;  3.9996980E+04; -1.5062281E-02;  0.0000000E+00;  1.8486489E-03;  2.9404065E+02;
  2.5164545E-01;  9.9999998E-03;  3.1730318E-10;4001; -3.1825134E-03;  0.0000000E+00; -4.5764148E-09;  9.9905048E+02;  1.0000000E-01; -7.8664441E+02;3; -1.7158527E+00;  0.0000000E+00; -6.9716543E-07;0; -1.3201196E-02;  3.9926660E+04;  0.0000000E+00; -1.3603300E-12;  4.0000000E+04;  0.0000000E+00;  3.9997047E+04; -1.5067330E-02;  0.0000000E+00;  1.8661338E-03;  2.6893079E+02;
  2.5163779E-01;  9.9999998E-03;  9.9982368E-03;4002; -3.1886618E-03;  0.0000000E+00;  3.4862867E-05;  9.9905402E+02;  1.0000000E-01; -7.8373090E+02;3; -1.7146006E+00;  0.0000000E+00;  4.2810547E-03;0; -1.3213637E-02;  3.9927148E+04;  0.0000000E+00;  1.1690621E-03;  4.0000000E+04;  0.0000000E+00;  3.9996980E+04; -1.5062289E-02;  0.0000000E+00;  1.8486520E-03;  2.9403732E+02;
  2.5161901E-01;  9.9999998E-03;  1.9995568E-02;4003; -3.2067697E-03;  0.0000000E+00;  6.5844833E-05;  9.9906555E+02;  1.0000000E-01; -7.7415094E+02;3; -1.7109818E+00;  0.0000000E+00;  7.9104062E-03;0; -1.3250073E-02;  3.9928387E+04;  0.0000000E+00;  4.8667868E-03;  4.0000000E+04;  0.0000000E+00;  3.9996266E+04; -1.5048839E-02;  0.0000000E+00;  1.7987656E-03;  3.6822296E+02;
  2.5159663E-01;  9.9999998E-03;  2.9992675E-02;4004; -3.2358400E-03;  0.0000000E+00;  8.9174398E-05;  9.9908179E+02;  1.0000000E-01; -7.6071924E+02;3; -1.7051964E+00;  0.0000000E+00;  1.0533243E-02;0; -1.3307854E-02;  3.9930668E+04;  0.0000000E+00;  1.1526020E-02;  4.0000000E+04;  0.0000000E+00;  3.9995379E+04; -1.5031304E-02;  0.0000000E+00;  1.7234507E-03;  4.8540744E+02;
  2.5157723E-01;  9.9999998E-03;  3.9991494E-02;4005; -3.2741867E-03;  0.0000000E+00;  1.0495299E-04;  9.9910547E+02;  1.0000000E-01; -7.4111487E+02;3; -1.6975303E+00;  0.0000000E+00;  1.2138812E-02;0; -1.3383351E-02;  3.9933414E+04;  0.0000000E+00;  2.1511121E-02;  4.0000000E+04;  0.0000000E+00;  3.9994340E+04; -1.5015921E-02;  0.0000000E+00;  1.6325691E-03;  6.3105328E+02;
  2.5156173E-01;  9.9999998E-03;  4.9994573E-02;4006; -3.3196174E-03;  0.0000000E+00;  1.1391893E-04;  9.9913159E+02;  1.0000000E-01; -7.1943646E+02;3; -1.6883266E+00;  0.0000000E+00;  1.3488825E-02;0; -1.3472987E-02;  3.9936961E+04;  0.0000000E+00;  3.4890726E-02;  4.0000000E+04;  0.0000000E+00;  3.9993340E+04; -1.5009820E-02;  0.0000000E+00;  1.5368331E-03;  7.8223712E+02;
  2.5157481E-01;  9.9999998E-03;  6.0000576E-02;4007; -3.3694140E-03;  0.0000000E+00;  1.1753847E-04;  9.9916077E+02;  1.0000000E-01; -6.9528900E+02;3; -1.6776069E+00;  0.0000000E+00;  1.3937304E-02;0; -1.3575181E-02;  3.9940160E+04;  0.0000000E+00;  5.1536098E-02;  4.0000000E+04;  0.0000000E+00;  3.9992344E+04; -1.5021813E-02;  0.0000000E+00;  1.4466320E-03;  9.1296021E+02;
  2.6173869E-01;  9.9999998E-03; -9.9986844E-02;4052; -3.6579387E-03;  0.0000000E+00; -1.3735273E-04;  9.9926123E+02;  1.0000000E-01; -6.1203204E+02;3; -1.6563314E+00;  0.0000000E+00; -1.7988279E-02;0; -1.4488740E-02;  3.9947777E+04;  0.0000000E+00;  1.3885729E-01;  4.0000000E+04;  0.0000000E+00;  3.9993484E+04; -1.5956072E-02;  0.0000000E+00;  1.4673322E-03;  8.0000897E+02;
  2.6167986E-01;  9.9999998E-03; -8.9994624E-02;4053; -3.6287620E-03;  0.0000000E+00; -1.3439328E-04;  9.9924493E+02;  1.0000000E-01; -6.2556256E+02;3; -1.6732048E+00;  0.0000000E+00; -1.7901849E-02;0; -1.4315560E-02;  3.9946445E+04;  0.0000000E+00;  1.0204851E-01;  4.0000000E+04;  0.0000000E+00;  3.9993352E+04; -1.5814075E-02;  0.0000000E+00;  1.4985158E-03;  8.0239685E+02;
  2.6164800E-01;  9.9999998E-03; -7.9999596E-02;4054; -3.5894166E-03;  0.0000000E+00; -1.3364445E-04;  9.9920465E+02;  1.0000000E-01; -6.5894434E+02;3; -1.6886044E+00;  0.0000000E+00; -1.7875206E-02;0; -1.4171103E-02;  3.9943023E+04;  0.0000000E+00;  7.6081343E-02;  4.0000000E+04;  0.0000000E+00;  3.9993578E+04; -1.5717423E-02;  0.0000000E+00;  1.5463196E-03;  7.7606482E+02;
  2.6163763E-01;  9.9999998E-03; -6.9998860E-02;4055; -3.5439539E-03;  0.0000000E+00; -1.3333463E-04;  9.9914874E+02;  1.0000000E-01; -7.0526398E+02;3; -1.7027304E+00;  0.0000000E+00; -1.7563058E-02;0; -1.4049130E-02;  3.9938145E+04;  0.0000000E+00;  5.6804020E-02;  4.0000000E+04;  0.0000000E+00;  3.9993914E+04; -1.5663076E-02;  0.0000000E+00;  1.6139462E-03;  7.1169855E+02;
  2.6163185E-01;  9.9999998E-03; -5.9993874E-02;4056; -3.4963996E-03;  0.0000000E+00; -1.3158134E-04;  9.9908960E+02;  1.0000000E-01; -7.5425024E+02;3; -1.7151972E+00;  0.0000000E+00; -1.6579175E-02;0; -1.3944368E-02;  3.9932875E+04;  0.0000000E+00;  4.1357122E-02;  4.0000000E+04;  0.0000000E+00;  3.9994379E+04; -1.5644461E-02;  0.0000000E+00;  1.7000934E-03;  6.0802246E+02;
  2.6163945E-01;  9.9999998E-03; -4.9987063E-02;4057; -3.4507057E-03;  0.0000000E+00; -1.2633226E-04;  9.9903369E+02;  1.0000000E-01; -8.0056995E+02;3; -1.7262954E+00;  0.0000000E+00; -1.5518218E-02;0; -1.3854144E-02;  3.9927379E+04;  0.0000000E+00;  2.8426528E-02;  4.0000000E+04;  0.0000000E+00;  3.9995559E+04; -1.5654065E-02;  0.0000000E+00;  1.7999207E-03;  4.7485535E+02;
  2.6165155E-01;  9.9999998E-03; -3.9984483E-02;4058; -3.4098634E-03;  0.0000000E+00; -1.1529733E-04;  9.9898535E+02;  1.0000000E-01; -8.4061823E+02;3; -1.7358277E+00;  0.0000000E+00; -1.3719226E-02;0; -1.3776995E-02;  3.9922430E+04;  0.0000000E+00;  1.7798841E-02;  4.0000000E+04;  0.0000000E+00;  3.9996586E+04; -1.5681636E-02;  0.0000000E+00;  1.9046406E-03;  3.3199933E+02;
  2.6166093E-01;  9.9999998E-03; -2.9987235E-02;4059; -3.3760231E-03;  0.0000000E+00; -9.7264565E-05;  9.9894684E+02;  1.0000000E-01; -8.7251855E+02;3; -1.7436262E+00;  0.0000000E+00; -1.1648861E-02;0; -1.3713244E-02;  3.9918578E+04;  0.0000000E+00;  9.6711591E-03;  4.0000000E+04;  0.0000000E+00;  3.9997367E+04; -1.5716491E-02;  0.0000000E+00;  2.0032469E-03;  2.0160739E+02;
  2.6166701E-01;  9.9999998E-03; -1.9992137E-02;4060; -3.3507918E-03;  0.0000000E+00; -7.1211703E-05;  9.9891833E+02;  1.0000000E-01; -8.9612280E+02;3; -1.7494748E+00;  0.0000000E+00; -7.6403054E-03;0; -1.3664905E-02;  3.9915383E+04;  0.0000000E+00;  4.1305437E-03;  4.0000000E+04;  0.0000000E+00;  3.9998285E+04; -1.5749201E-02;  0.0000000E+00;  2.0842962E-03;  1.0102875E+02;
  2.6167035E-01;  9.9999998E-03; -9.9965353E-03;4061; -3.3352573E-03;  0.0000000E+00; -3.7681788E-05;  9.9890143E+02;  1.0000000E-01; -9.1014709E+02;3; -1.7533464E+00;  0.0000000E+00; -4.6193805E-03;0; -1.3634497E-02;  3.9913535E+04;  0.0000000E+00;  9.9996338E-04;  4.0000000E+04;  0.0000000E+00;  3.9998730E+04; -1.5772140E-02;  0.0000000E+00;  2.1376421E-03;  3.9294674E+01;
  2.6167169E-01;  9.9999998E-03;  5.7593369E-10;4062; -3.3299888E-03;  0.0000000E+00; -3.3558172E-09;  9.9889545E+02;  1.0000000E-01; -9.1508521E+02;3; -1.7546482E+00;  0.0000000E+00;  5.8786036E-06;0; -1.3624106E-02;  3.9912852E+04;  0.0000000E+00; -9.7003926E-13;  4.0000000E+04;  0.0000000E+00;  3.9998957E+04; -1.5780374E-02;  0.0000000E+00;  2.1562690E-03;  1.8756750E+01;
  2.6167035E-01;  9.9999998E-03;  9.9965371E-03;4063; -3.3352587E-03;  0.0000000E+00;  3.7675043E-05;  9.9890143E+02;  1.0000000E-01; -9.1014709E+02;3; -1.7533422E+00;  0.0000000E+00;  4.6295295E-03;0; -1.3634492E-02;  3.9913535E+04;  0.0000000E+00;  1.0000129E-03;  4.0000000E+04;  0.0000000E+00;  3.9998727E+04; -1.5772138E-02;  0.0000000E+00;  2.1376461E-03;  3.9284286E+01;
  2.6166701E-01;  9.9999998E-03;  1.9992137E-02;4064; -3.3507943E-03;  0.0000000E+00;  7.1204238E-05;  9.9891833E+02;  1.0000000E-01; -8.9612280E+02;3; -1.7494761E+00;  0.0000000E+00;  7.6524974E-03;0; -1.3664910E-02;  3.9915383E+04;  0.0000000E+00;  4.1309739E-03;  4.0000000E+04;  0.0000000E+00;  3.9998285E+04; -1.5749210E-02;  0.0000000E+00;  2.0843009E-03;  1.0102097E+02;
  2.6166093E-01;  9.9999998E-03;  2.9987235E-02;4065; -3.3760276E-03;  0.0000000E+00;  9.7256168E-05;  9.9894678E+02;  1.0000000E-01; -8.7256793E+02;3; -1.7436222E+00;  0.0000000E+00;  1.1647900E-02;0; -1.3713252E-02;  3.9918578E+04;  0.0000000E+00;  9.6715344E-03;  4.0000000E+04;  0.0000000E+00;  3.9997367E+04; -1.5716508E-02;  0.0000000E+00;  2.0032558E-03;  2.0159532E+02;
  2.6165155E-01;  9.9999998E-03;  3.9984483E-02;4066; -3.4098700E-03;  0.0000000E+00;  1.1528882E-04;  9.9898535E+02;  1.0000000E-01; -8.4061823E+02;3; -1.7358247E+00;  0.0000000E+00;  1.3732697E-02;0; -1.3777004E-02;  3.9922430E+04;  0.0000000E+00;  1.7799012E-02;  4.0000000E+04;  0.0000000E+00;  3.9996586E+04; -1.5681654E-02;  0.0000000E+00;  1.9046505E-03;  3.3198151E+02;
  2.6163945E-01;  9.9999998E-03;  4.9987063E-02;4067; -3.4507138E-03;  0.0000000E+00;  1.2632299E-04;  9.9903369E+02;  1.0000000E-01; -8.0056995E+02;3; -1.7262994E+00;  0.0000000E+00;  1.5513088E-02;0; -1.3854145E-02;  3.9927379E+04;  0.0000000E+00;  2.8427152E-02;  4.0000000E+04;  0.0000000E+00;  3.9995559E+04; -1.5654080E-02;  0.0000000E+00;  1.7999349E-03;  4.7485925E+02;
  2.6163185E-01;  9.9999998E-03;  5.9993874E-02;4068; -3.4964094E-03;  0.0000000E+00;  1.3157260E-04;  9.9908960E+02;  1.0000000E-01; -7.5425024E+02;3; -1.7152023E+00;  0.0000000E+00;  1.6578345E-02;0; -1.3944390E-02;  3.9932875E+04;  0.0000000E+00;  4.1358802E-02;  4.0000000E+04;  0.0000000E+00;  3.9994379E+04; -1.5644496E-02;  0.0000000E+00;  1.7001064E-03;  6.0802386E+02;
  2.7174869E-01;  9.9999998E-03; -9.9987850E-02;4113; -3.8071175E-03;  0.0000000E+00; -1.5560772E-04;  9.9938995E+02;  1.0000000E-01; -5.0541782E+02;3; -1.6918195E+00;  0.0000000E+00; -2.2828838E-02;0; -1.4917104E-02;  3.9956355E+04;  0.0000000E+00;  8.5162200E-02;  4.0000000E+04;  0.0000000E+00;  3.9995230E+04; -1.6656060E-02;  0.0000000E+00;  1.7389558E-03;  5.4567212E+02;
  2.7171028E-01;  9.9999998E-03; -8.9992195E-02;4114; -3.7749009E-03;  0.0000000E+00; -1.5265244E-04;  9.9932526E+02;  1.0000000E-01; -5.5899652E+02;3; -1.7090976E+00;  0.0000000E+00; -2.2884579E-02;0; -1.4743890E-02;  3.9951441E+04;  0.0000000E+00;  5.7646710E-02;  4.0000000E+04;  0.0000000E+00;  3.9995301E+04; -1.6513383E-02;  0.0000000E+00;  1.7694931E-03;  5.3472626E+02;
  2.7169585E-01;  9.9999998E-03; -7.9992354E-02;4115; -3.7353705E-03;  0.0000000E+00; -1.5117748E-04;  9.9924323E+02;  1.0000000E-01; -6.2699463E+02;3; -1.7251161E+00;  0.0000000E+00; -2.2496874E-02;0; -1.4602775E-02;  3.9944648E+04;  0.0000000E+00;  4.1139789E-02;  4.0000000E+04;  0.0000000E+00;  3.9995586E+04; -1.6423274E-02;  0.0000000E+00;  1.8204987E-03;  4.8920224E+02;
  2.7168944E-01;  9.9999998E-03; -6.9988772E-02;4116; -3.6921378E-03;  0.0000000E+00; -1.4944203E-04;  9.9915295E+02;  1.0000000E-01; -7.0175793E+02;3; -1.7395763E+00;  0.0000000E+00; -2.1615047E-02;0; -1.4487164E-02;  3.9936863E+04;  0.0000000E+00;  3.0743940E-02;  4.0000000E+04;  0.0000000E+00;  3.9996355E+04; -1.6380856E-02;  0.0000000E+00;  1.8936915E-03;  4.0740250E+02;
  2.7167818E-01;  9.9999998E-03; -5.9986491E-02;4117; -3.6486969E-03;  0.0000000E+00; -1.4558804E-04;  9.9906775E+02;  1.0000000E-01; -7.7237323E+02;3; -1.7524712E+00;  0.0000000E+00; -1.9802272E-02;0; -1.4391385E-02;  3.9929355E+04;  0.0000000E+00;  2.3133755E-02;  4.0000000E+04;  0.0000000E+00;  3.9997211E+04; -1.6377876E-02;  0.0000000E+00;  1.9864906E-03;  2.9522528E+02;
  2.7166179E-01;  9.9999998E-03; -4.9986556E-02;4118; -3.6081441E-03;  0.0000000E+00; -1.3799073E-04;  9.9898761E+02;  1.0000000E-01; -8.3874170E+02;3; -1.7637427E+00;  0.0000000E+00; -1.7874356E-02;0; -1.4311475E-02;  3.9922035E+04;  0.0000000E+00;  1.6670875E-02;  4.0000000E+04;  0.0000000E+00;  3.9998191E+04; -1.6404105E-02;  0.0000000E+00;  2.0926306E-03;  1.6681790E+02;
  2.7164805E-01;  9.9999998E-03; -3.9989159E-02;4119; -3.5730063E-03;  0.0000000E+00; -1.2441927E-04;  9.9892047E+02;  1.0000000E-01; -8.9434509E+02;3; -1.7734931E+00;  0.0000000E+00; -1.5528085E-02;0; -1.4245360E-02;  3.9915922E+04;  0.0000000E+00;  1.0965934E-02;  4.0000000E+04;  0.0000000E+00;  3.9999117E+04; -1.6448349E-02;  0.0000000E+00;  2.2029884E-03;  4.2289238E+01;
  2.7164149E-01;  9.9999998E-03; -2.9993601E-02;4120; -3.5447155E-03;  0.0000000E+00; -1.0392063E-04;  9.9886877E+02;  1.0000000E-01; -9.3720807E+02;3; -1.7814205E+00;  0.0000000E+00; -1.2432477E-02;0; -1.4192472E-02;  3.9910684E+04;  0.0000000E+00;  6.2349676E-03;  4.0000000E+04;  0.0000000E+00;  3.9999852E+04; -1.6498866E-02;  0.0000000E+00;  2.3063936E-03;  6.8094894E+01;
  2.7164134E-01;  9.9999998E-03; -1.9997828E-02;4121; -3.5243127E-03;  0.0000000E+00; -7.5169475E-05;  9.9882965E+02;  1.0000000E-01; -9.6960223E+02;3; -1.7873864E+00;  0.0000000E+00; -8.7493425E-03;0; -1.4153332E-02;  3.9906969E+04;  0.0000000E+00;  2.7645039E-03;  4.0000000E+04;  0.0000000E+00;  4.0000504E+04; -1.6544446E-02;  0.0000000E+00;  2.3911137E-03;  1.4402908E+02;
  2.7164441E-01;  9.9999998E-03; -9.9999253E-03;4122; -3.5120493E-03;  0.0000000E+00; -3.9551313E-05;  9.9880756E+02;  1.0000000E-01; -9.8792267E+02;3; -1.7911159E+00;  0.0000000E+00; -4.6276394E-03;0; -1.4129203E-02;  3.9904797E+04;  0.0000000E+00;  6.8616564E-04;  4.0000000E+04;  0.0000000E+00;  4.0000891E+04; -1.6575983E-02;  0.0000000E+00;  2.4467795E-03;  1.8808653E+02;
  2.7164581E-01;  9.9999998E-03;  8.3215373E-10;4123; -3.5079827E-03;  0.0000000E+00; -2.6234399E-09;  9.9879980E+02;  1.0000000E-01; -9.9434222E+02;3; -1.7923803E+00;  0.0000000E+00;  5.7074385E-06;0; -1.4121019E-02;  3.9904035E+04;  0.0000000E+00; -1.4142417E-12;  4.0000000E+04;  0.0000000E+00;  4.0001035E+04; -1.6587205E-02;  0.0000000E+00;  2.4661857E-03;  2.0223758E+02;
  2.7164441E-01;  9.9999998E-03;  9.9999271E-03;4124; -3.5120507E-03;  0.0000000E+00;  3.9546165E-05;  9.9880756E+02;  1.0000000E-01; -9.8792267E+02;3; -1.7911114E+00;  0.0000000E+00;  4.6294378E-03;0; -1.4129212E-02;  3.9904793E+04;  0.0000000E+00;  6.8633206E-04;  4.0000000E+04;  0.0000000E+00;  4.0000891E+04; -1.6575994E-02;  0.0000000E+00;  2.4467821E-03;  1.8809346E+02;
  2.7164134E-01;  9.9999998E-03;  1.9997828E-02;4125; -3.5243162E-03;  0.0000000E+00;  7.5163567E-05;  9.9882965E+02;  1.0000000E-01; -9.6960223E+02;3; -1.7873877E+00;  0.0000000E+00;  8.7492652E-03;0; -1.4153348E-02;  3.9906973E+04;  0.0000000E+00;  2.7651093E-03;  4.0000000E+04;  0.0000000E+00;  4.0000504E+04; -1.6544469E-02;  0.0000000E+00;  2.3911200E-03;  1.4403963E+02;
  2.7164149E-01;  9.9999998E-03;  2.9993601E-02;4126; -3.5447206E-03;  0.0000000E+00;  1.0391382E-04;  9.9886877E+02;  1.0000000E-01; -9.3720807E+02;3; -1.7814249E+00;  0.0000000E+00;  1.2434288E-02;0; -1.4192471E-02;  3.9910684E+04;  0.0000000E+00;  6.2356568E-03;  4.0000000E+04;  0.0000000E+00;  3.9999852E+04; -1.6498871E-02;  0.0000000E+00;  2.3063994E-03;  6.8114471E+01;
  2.7164805E-01;  9.9999998E-03;  3.9989159E-02;4127; -3.5730135E-03;  0.0000000E+00;  1.2441198E-04;  9.9892053E+02;  1.0000000E-01; -8.9429572E+02;3; -1.7734985E+00;  0.0000000E+00;  1.5530670E-02;0; -1.4245376E-02;  3.9915922E+04;  0.0000000E+00;  1.0966748E-02;  4.0000000E+04;  0.0000000E+00;  3.9999117E+04; -1.6448375E-02;  0.0000000E+00;  2.2029986E-03;  4.2270054E+01;
  2.7166179E-01;  9.9999998E-03;  4.9986556E-02;4128; -3.6081527E-03;  0.0000000E+00;  1.3798309E-04;  9.9898761E+02;  1.0000000E-01; -8.3874170E+02;3; -1.7637447E+00;  0.0000000E+00;  1.7871547E-02;0; -1.4311503E-02;  3.9922039E+04;  0.0000000E+00;  1.6671443E-02;  4.0000000E+04;  0.0000000E+00;  3.9998191E+04; -1.6404144E-02;  0.0000000E+00;  2.0926420E-03;  1.6680901E+02;
  2.7167818E-01;  9.9999998E-03;  5.9986491E-02;4129; -3.6487067E-03;  0.0000000E+00;  1.4557980E-04;  9.9906763E+02;  1.0000000E-01; -7.7247198E+02;3; -1.7524776E+00;  0.0000000E+00;  1.9776830E-02;0; -1.4391405E-02;  3.9929352E+04;  0.0000000E+00;  2.3135049E-02;  4.0000000E+04;  0.0000000E+00;  3.9997207E+04; -1.6377907E-02;  0.0000000E+00;  1.9865029E-03;  2.9522159E+02;
  2.8173938E-01;  9.9999998E-03; -9.9988505E-02;4174; -3.9734496E-03;  0.0000000E+00; -1.7943971E-04;  9.9953033E+02;  1.0000000E-01; -3.8912479E+02;3; -1.7267599E+00;  0.0000000E+00; -2.8630937E-02;0; -1.5368102E-02;  3.9966766E+04;  0.0000000E+00;  1.8776370E-02;  4.0000000E+04;  0.0000000E+00;  3.9997469E+04; -1.7411906E-02;  0.0000000E+00;  2.0438044E-03;  3.2094980E+02;
  2.8171012E-01;  9.9999998E-03; -8.9988045E-02;4175; -3.9394507E-03;  0.0000000E+00; -1.7534816E-04;  9.9943011E+02;  1.0000000E-01; -4.7213480E+02;3; -1.7445307E+00;  0.0000000E+00; -2.8076654E-02;0; -1.5196344E-02;  3.9958570E+04;  0.0000000E+00;  4.6653049E-03;  4.0000000E+04;  0.0000000E+00;  3.9997270E+04; -1.7272502E-02;  0.0000000E+00;  2.0761585E-03;  2.9201044E+02;
  2.8168866E-01;  9.9999998E-03; -7.9988107E-02;4176; -3.9009454E-03;  0.0000000E+00; -1.7208279E-04;  9.9931512E+02;  1.0000000E-01; -5.6739136E+02;3; -1.7608969E+00;  0.0000000E+00; -2.6898667E-02;0; -1.5058251E-02;  3.9949148E+04;  0.0000000E+00;  6.8224390E-04;  4.0000000E+04;  0.0000000E+00;  3.9997781E+04; -1.7189382E-02;  0.0000000E+00;  2.1311305E-03;  2.2381769E+02;
  2.8166994E-01;  9.9999998E-03; -6.9989756E-02;4177; -3.8611928E-03;  0.0000000E+00; -1.6800930E-04;  9.9919995E+02;  1.0000000E-01; -6.6284546E+02;3; -1.7757226E+00;  0.0000000E+00; -2.5344213E-02;0; -1.4948005E-02;  3.9939066E+04;  0.0000000E+00;  1.4446786E-03;  4.0000000E+04;  0.0000000E+00;  3.9998398E+04; -1.7157380E-02;  0.0000000E+00;  2.2093742E-03;  1.2393814E+02;
  2.8165576E-01;  9.9999998E-03; -5.9991952E-02;4178; -3.8232801E-03;  0.0000000E+00; -1.6116993E-04;  9.9909473E+02;  1.0000000E-01; -7.5000348E+02;3; -1.7890629E+00;  0.0000000E+00; -2.2863489E-02;0; -1.4860265E-02;  3.9929617E+04;  0.0000000E+00;  3.2940325E-03;  4.0000000E+04;  0.0000000E+00;  3.9999293E+04; -1.7167881E-02;  0.0000000E+00;  2.3076166E-03;  8.0705004E+00;
  2.8165245E-01;  9.9999998E-03; -4.9993835E-02;4179; -3.7896561E-03;  0.0000000E+00; -1.5025318E-04;  9.9900000E+02;  1.0000000E-01; -8.2847040E+02;3; -1.8008188E+00;  0.0000000E+00; -2.0356616E-02;0; -1.4790794E-02;  3.9921051E+04;  0.0000000E+00;  4.3470617E-03;  4.0000000E+04;  0.0000000E+00;  4.0000207E+04; -1.7209809E-02;  0.0000000E+00;  2.4190156E-03;  1.1353950E+02;
  2.8166428E-01;  9.9999998E-03; -3.9995931E-02;4180; -3.7620116E-03;  0.0000000E+00; -1.3324991E-04;  9.9892401E+02;  1.0000000E-01; -8.9143158E+02;3; -1.8108741E+00;  0.0000000E+00; -1.7144030E-02;0; -1.4736458E-02;  3.9914094E+04;  0.0000000E+00;  4.1287658E-03;  4.0000000E+04;  0.0000000E+00;  4.0000727E+04; -1.7270375E-02;  0.0000000E+00;  2.5339175E-03;  2.1704330E+02;
  2.8168461E-01;  9.9999998E-03; -2.9998766E-02;4181; -3.7408688E-03;  0.0000000E+00; -1.0955139E-04;  9.9885974E+02;  1.0000000E-01; -9.4466461E+02;3; -1.8192518E+00;  0.0000000E+00; -1.3030517E-02;0; -1.4694934E-02;  3.9908461E+04;  0.0000000E+00;  2.9834916E-03;  4.0000000E+04;  0.0000000E+00;  4.0001289E+04; -1.7335609E-02;  0.0000000E+00;  2.6406751E-03;  2.9417282E+02;
  2.8170404E-01;  9.9999998E-03; -2.0001590E-02;4182; -3.7262545E-03;  0.0000000E+00; -7.8323879E-05;  9.9881427E+02;  1.0000000E-01; -9.8234259E+02;3; -1.8253919E+00;  0.0000000E+00; -8.9345248E-03;0; -1.4665178E-02;  3.9904559E+04;  0.0000000E+00;  1.5471431E-03;  4.0000000E+04;  0.0000000E+00;  4.0001699E+04; -1.7392604E-02;  0.0000000E+00;  2.7274254E-03;  3.4214767E+02;
  2.8171676E-01;  9.9999998E-03; -1.0002379E-02;4183; -3.7177771E-03;  0.0000000E+00; -4.0906598E-05;  9.9878760E+02;  1.0000000E-01; -1.0044654E+03;3; -1.8292930E+00;  0.0000000E+00; -4.6987077E-03;0; -1.4647075E-02;  3.9902238E+04;  0.0000000E+00;  4.2030084E-04;  4.0000000E+04;  0.0000000E+00;  4.0002129E+04; -1.7431110E-02;  0.0000000E+00;  2.7840349E-03;  3.6574088E+02;
  2.8172129E-01;  9.9999998E-03;  1.1388757E-09;4184; -3.7150267E-03;  0.0000000E+00; -1.7909179E-09;  9.9877728E+02;  1.0000000E-01; -1.0130084E+03;3; -1.8305438E+00;  0.0000000E+00;  4.5377064E-06;0; -1.4640955E-02;  3.9901520E+04;  0.0000000E+00;  7.1457461E-14;  4.0000000E+04;  0.0000000E+00;  4.0002035E+04; -1.7444668E-02;  0.0000000E+00;  2.8037135E-03;  3.7241873E+02;
  2.8171676E-01;  9.9999998E-03;  1.0002381E-02;4185; -3.7177792E-03;  0.0000000E+00;  4.0903291E-05;  9.9878760E+02;  1.0000000E-01; -1.0044654E+03;3; -1.8292911E+00;  0.0000000E+00;  4.7085127E-03;0; -1.4647082E-02;  3.9902246E+04;  0.0000000E+00;  4.2057555E-04;  4.0000000E+04;  0.0000000E+00;  4.0002129E+04; -1.7431118E-02;  0.0000000E+00;  2.7840352E-03;  3.6574539E+02;
  2.8170404E-01;  9.9999998E-03;  2.0001592E-02;4186; -3.7262582E-03;  0.0000000E+00;  7.8320598E-05;  9.9881433E+02;  1.0000000E-01; -9.8229321E+02;3; -1.8253944E+00;  0.0000000E+00;  8.9344084E-03;0; -1.4665191E-02;  3.9904559E+04;  0.0000000E+00;  1.5477365E-03;  4.0000000E+04;  0.0000000E+00;  4.0001699E+04; -1.7392617E-02;  0.0000000E+00;  2.7274254E-03;  3.4215836E+02;
  2.8168461E-01;  9.9999998E-03;  2.9998766E-02;4187; -3.7408744E-03;  0.0000000E+00;  1.0954731E-04;  9.9885968E+02;  1.0000000E-01; -9.4471405E+02;3; -1.8192477E+00;  0.0000000E+00;  1.3041207E-02;0; -1.4694935E-02;  3.9908461E+04;  0.0000000E+00;  2.9846367E-03;  4.0000000E+04;  0.0000000E+00;  4.0001289E+04; -1.7335614E-02;  0.0000000E+00;  2.6406799E-03;  2.9419467E+02;
  2.8166428E-01;  9.9999998E-03;  3.9995931E-02;4188; -3.7620191E-03;  0.0000000E+00;  1.3324532E-04;  9.9892395E+02;  1.0000000E-01; -8.9148096E+02;3; -1.8108782E+00;  0.0000000E+00;  1.7144717E-02;0; -1.4736464E-02;  3.9914094E+04;  0.0000000E+00;  4.1305572E-03;  4.0000000E+04;  0.0000000E+00;  4.0000727E+04; -1.7270392E-02;  0.0000000E+00;  2.5339273E-03;  2.1705768E+02;
  2.8165245E-01;  9.9999998E-03;  4.9993835E-02;4189; -3.7896647E-03;  0.0000000E+00;  1.5024822E-04;  9.9900000E+02;  1.0000000E-01; -8.2847040E+02;3; -1.8008223E+00;  0.0000000E+00;  2.0350747E-02;0; -1.4790811E-02;  3.9921047E+04;  0.0000000E+00;  4.3482431E-03;  4.0000000E+04;  0.0000000E+00;  4.0000211E+04; -1.7209839E-02;  0.0000000E+00;  2.4190280E-03;  1.1355068E+02;
  2.8165573E-01;  9.9999998E-03;  5.9991952E-02;4190; -3.8232903E-03;  0.0000000E+00;  1.6116379E-04;  9.9909473E+02;  1.0000000E-01; -7.5000348E+02;3; -1.7890635E+00;  0.0000000E+00;  2.2862781E-02;0; -1.4860260E-02;  3.9929621E+04;  0.0000000E+00;  3.2948044E-03;  4.0000000E+04;  0.0000000E+00;  3.9999293E+04; -1.7167890E-02;  0.0000000E+00;  2.3076304E-03;  8.0733337E+00;
  2.9169580E-01;  9.9999998E-03; -9.9991590E-02;4235; -4.1528032E-03;  0.0000000E+00; -2.1097118E-04;  9.9966797E+02;  1.0000000E-01; -2.7510333E+02;3; -1.7607933E+00;  0.0000000E+00; -3.4648046E-02;0; -1.5797330E-02;  3.9977168E+04;  0.0000000E+00; -4.5979511E-02;  4.0000000E+04;  0.0000000E+00;  3.9998480E+04; -1.8181201E-02;  0.0000000E+00;  2.3838703E-03;  1.6745837E+02;
  2.9167682E-01;  9.9999998E-03; -8.9991920E-02;4236; -4.1186083E-03;  0.0000000E+00; -2.0449002E-04;  9.9954083E+02;  1.0000000E-01; -3.8043369E+02;3; -1.7791328E+00;  0.0000000E+00; -3.2865994E-02;0; -1.5627332E-02;  3.9966734E+04;  0.0000000E+00; -4.4413324E-02;  4.0000000E+04;  0.0000000E+00;  3.9998797E+04; -1.8048422E-02;  0.0000000E+00;  2.4210913E-03;  1.1429539E+02;
  2.9166952E-01;  9.9999998E-03; -7.9993248E-02;4237; -4.0828171E-03;  0.0000000E+00; -1.9832920E-04;  9.9941046E+02;  1.0000000E-01; -4.8843063E+02;3; -1.7960342E+00;  0.0000000E+00; -3.1312969E-02;0; -1.5492273E-02;  3.9955281E+04;  0.0000000E+00; -3.4848716E-02;  4.0000000E+04;  0.0000000E+00;  3.9999340E+04; -1.7974600E-02;  0.0000000E+00;  2.4823279E-03;  4.8845718E+01;
  2.9167894E-01;  9.9999998E-03; -6.9993459E-02;4238; -4.0484457E-03;  0.0000000E+00; -1.9045606E-04;  9.9928394E+02;  1.0000000E-01; -5.9326715E+02;3; -1.8115299E+00;  0.0000000E+00; -2.8978474E-02;0; -1.5387134E-02;  3.9943984E+04;  0.0000000E+00; -2.2829693E-02;  4.0000000E+04;  0.0000000E+00;  4.0000395E+04; -1.7954348E-02;  0.0000000E+00;  2.5672137E-03;  1.2111708E+02;
  2.9169878E-01;  9.9999998E-03; -5.9993263E-02;4239; -4.0176874E-03;  0.0000000E+00; -1.7945126E-04;  9.9916663E+02;  1.0000000E-01; -6.9044958E+02;3; -1.8254849E+00;  0.0000000E+00; -2.5912195E-02;0; -1.5306485E-02;  3.9933875E+04;  0.0000000E+00; -1.2082353E-02;  4.0000000E+04;  0.0000000E+00;  4.0001246E+04; -1.7977631E-02;  0.0000000E+00;  2.6711461E-03;  2.3648337E+02;
  2.9171681E-01;  9.9999998E-03; -4.9994722E-02;4240; -3.9919252E-03;  0.0000000E+00; -1.6388032E-04;  9.9906665E+02;  1.0000000E-01; -7.7326208E+02;3; -1.8377706E+00;  0.0000000E+00; -2.2515977E-02;0; -1.5244953E-02;  3.9924918E+04;  0.0000000E+00; -4.4745710E-03;  4.0000000E+04;  0.0000000E+00;  4.0002062E+04; -1.8030960E-02;  0.0000000E+00;  2.7860068E-03;  3.3977921E+02;
  2.9172900E-01;  9.9999998E-03; -3.9997973E-02;4241; -3.9718146E-03;  0.0000000E+00; -1.4238755E-04;  9.9898633E+02;  1.0000000E-01; -8.3982812E+02;3; -1.8482419E+00;  0.0000000E+00; -1.8096589E-02;0; -1.5198369E-02;  3.9917719E+04;  0.0000000E+00; -3.0835395E-04;  4.0000000E+04;  0.0000000E+00;  4.0002922E+04; -1.8100146E-02;  0.0000000E+00;  2.9017772E-03;  4.1579001E+02;
  2.9174009E-01;  9.9999998E-03; -3.0001700E-02;4242; -3.9574057E-03;  0.0000000E+00; -1.1473760E-04;  9.9892340E+02;  1.0000000E-01; -8.9192542E+02;3; -1.8567072E+00;  0.0000000E+00; -1.4037871E-02;0; -1.5163984E-02;  3.9912215E+04;  0.0000000E+00;  1.1239232E-03;  4.0000000E+04;  0.0000000E+00;  4.0002910E+04; -1.8171642E-02;  0.0000000E+00;  3.0076581E-03;  4.5996072E+02;
  2.9175276E-01;  9.9999998E-03; -2.0004319E-02;4243; -3.9481851E-03;  0.0000000E+00; -8.0652353E-05;  9.9887775E+02;  1.0000000E-01; -9.2975146E+02;3; -1.8630397E+00;  0.0000000E+00; -9.1793044E-03;0; -1.5140263E-02;  3.9908578E+04;  0.0000000E+00;  9.5601415E-04;  4.0000000E+04;  0.0000000E+00;  4.0003129E+04; -1.8233201E-02;  0.0000000E+00;  3.0929367E-03;  4.7738165E+02;
  2.9176334E-01;  9.9999998E-03; -1.0004278E-02;4244; -3.9432240E-03;  0.0000000E+00; -4.1652991E-05;  9.9885040E+02;  1.0000000E-01; -9.5241748E+02;3; -1.8669161E+00;  0.0000000E+00; -4.4363113E-03;0; -1.5126283E-02;  3.9906410E+04;  0.0000000E+00;  3.1221655E-04;  4.0000000E+04;  0.0000000E+00;  4.0003043E+04; -1.8274616E-02;  0.0000000E+00;  3.1483332E-03;  4.7954047E+02;
  2.9176757E-01;  9.9999998E-03;  1.3850421E-09;4245; -3.9416840E-03;  0.0000000E+00; -9.5955743E-10;  9.9884106E+02;  1.0000000E-01; -9.6017035E+02;3; -1.8682977E+00;  0.0000000E+00;  3.2866328E-06;0; -1.5121691E-02;  3.9905738E+04;  0.0000000E+00; -1.0605489E-13;  4.0000000E+04;  0.0000000E+00;  4.0003020E+04; -1.8289238E-02;  0.0000000E+00;  3.1675468E-03;  4.7847556E+02;
  2.9176334E-01;  9.9999998E-03;  1.0004281E-02;4246; -3.9432254E-03;  0.0000000E+00;  4.1650990E-05;  9.9885040E+02;  1.0000000E-01; -9.5241748E+02;3; -1.8669142E+00;  0.0000000E+00;  4.4415803E-03;0; -1.5126292E-02;  3.9906410E+04;  0.0000000E+00;  3.1261609E-04;  4.0000000E+04;  0.0000000E+00;  4.0003043E+04; -1.8274626E-02;  0.0000000E+00;  3.1483343E-03;  4.7954645E+02;
  2.9175276E-01;  9.9999998E-03;  2.0004321E-02;4247; -3.9481884E-03;  0.0000000E+00;  8.0649908E-05;  9.9887769E+02;  1.0000000E-01; -9.2980084E+02;3; -1.8630502E+00;  0.0000000E+00;  9.1862250E-03;0; -1.5140263E-02;  3.9908578E+04;  0.0000000E+00;  9.5671811E-04;  4.0000000E+04;  0.0000000E+00;  4.0003129E+04; -1.8233202E-02;  0.0000000E+00;  3.0929390E-03;  4.7738715E+02;
  2.9174009E-01;  9.9999998E-03;  3.0001702E-02;4248; -3.9574117E-03;  0.0000000E+00;  1.1473469E-04;  9.9892340E+02;  1.0000000E-01; -8.9192542E+02;3; -1.8567078E+00;  0.0000000E+00;  1.4038404E-02;0; -1.5164000E-02;  3.9912215E+04;  0.0000000E+00;  1.1250220E-03;  4.0000000E+04;  0.0000000E+00;  4.0002910E+04; -1.8171664E-02;  0.0000000E+00;  3.0076643E-03;  4.5997482E+02;
  2.9172897E-01;  9.9999998E-03;  3.9997976E-02;4249; -3.9718221E-03;  0.0000000E+00;  1.4238442E-04;  9.9898633E+02;  1.0000000E-01; -8.3982812E+02;3; -1.8482488E+00;  0.0000000E+00;  1.8089222E-02;0; -1.5198390E-02;  3.9917719E+04;  0.0000000E+00; -3.0696447E-04;  4.0000000E+04;  0.0000000E+00;  4.0002918E+04; -1.8100176E-02;  0.0000000E+00;  2.9017862E-03;  4.1580405E+02;
  2.9171681E-01;  9.9999998E-03;  4.9994726E-02;4250; -3.9919345E-03;  0.0000000E+00;  1.6387703E-04;  9.9906653E+02;  1.0000000E-01; -7.7336084E+02;3; -1.8377733E+00;  0.0000000E+00;  2.2504333E-02;0; -1.5244978E-02;  3.9924918E+04;  0.0000000E+00; -4.4741188E-03;  4.0000000E+04;  0.0000000E+00;  4.0002062E+04; -1.8030992E-02;  0.0000000E+00;  2.7860142E-03;  3.3978354E+02;
  2.9169878E-01;  9.9999998E-03;  5.9993263E-02;4251; -4.0176981E-03;  0.0000000E+00;  1.7944674E-04;  9.9916656E+02;  1.0000000E-01; -6.9049896E+02;3; -1.8254871E+00;  0.0000000E+00;  2.5901126E-02;0; -1.5306494E-02;  3.9933875E+04;  0.0000000E+00; -1.2082245E-02;  4.0000000E+04;  0.0000000E+00;  4.0001246E+04; -1.7977651E-02;  0.0000000E+00;  2.6711568E-03;  2.3649081E+02;
  3.0166489E-01;  9.9999998E-03; -9.9995747E-02;4296; -4.3416526E-03;  0.0000000E+00; -2.5187214E-04;  9.9978778E+02;  1.0000000E-01; -1.7579750E+02;3; -1.7944440E+00;  0.0000000E+00; -3.9791889E-02;0; -1.6173176E-02;  3.9986008E+04;  0.0000000E+00; -9.6285522E-02;  4.0000000E+04;  0.0000000E+00;  3.9999180E+04; -1.8935697E-02;  0.0000000E+00;  2.7625207E-03;  1.4120740E+02;
  3.0167601E-01;  9.9999998E-03; -8.9991838E-02;4297; -4.3088845E-03;  0.0000000E+00; -2.4181962E-04;  9.9965186E+02;  1.0000000E-01; -2.8843628E+02;3; -1.8133627E+00;  0.0000000E+00; -3.8351517E-02;0; -1.6004249E-02;  3.9974215E+04;  0.0000000E+00; -7.9306856E-02;  4.0000000E+04;  0.0000000E+00;  4.0000105E+04; -1.8812826E-02;  0.0000000E+00;  2.8085774E-03;  1.2565405E+02;
  3.0169436E-01;  9.9999998E-03; -7.9989098E-02;4298; -4.2771595E-03;  0.0000000E+00; -2.3095503E-04;  9.9951495E+02;  1.0000000E-01; -4.0186517E+02;3; -1.8308536E+00;  0.0000000E+00; -3.5601325E-02;0; -1.5870083E-02;  3.9962609E+04;  0.0000000E+00; -5.7663921E-02;  4.0000000E+04;  0.0000000E+00;  4.0001055E+04; -1.8748410E-02;  0.0000000E+00;  2.8783260E-03;  1.9464674E+02;
  3.0171251E-01;  9.9999998E-03; -6.9989681E-02;4299; -4.2485800E-03;  0.0000000E+00; -2.1756769E-04;  9.9938757E+02;  1.0000000E-01; -5.0739307E+02;3; -1.8470893E+00;  0.0000000E+00; -3.2056246E-02;0; -1.5766053E-02;  3.9951504E+04;  0.0000000E+00; -3.6630150E-02;  4.0000000E+04;  0.0000000E+00;  4.0002230E+04; -1.8735422E-02;  0.0000000E+00;  2.9693691E-03;  3.0912030E+02;
  3.0173707E-01;  9.9999998E-03; -5.9992447E-02;4300; -4.2248638E-03;  0.0000000E+00; -2.0059918E-04;  9.9927930E+02;  1.0000000E-01; -5.9706952E+02;3; -1.8615235E+00;  0.0000000E+00; -2.8351290E-02;0; -1.5687495E-02;  3.9941434E+04;  0.0000000E+00; -1.9521665E-02;  4.0000000E+04;  0.0000000E+00;  4.0002883E+04; -1.8764203E-02;  0.0000000E+00;  3.0767084E-03;  4.2008243E+02;
  3.0176711E-01;  9.9999998E-03; -4.9995791E-02;4301; -4.2068334E-03;  0.0000000E+00; -1.7894428E-04;  9.9918750E+02;  1.0000000E-01; -6.7311676E+02;3; -1.8743124E+00;  0.0000000E+00; -2.4326036E-02;0; -1.5629580E-02;  3.9933449E+04;  0.0000000E+00; -7.7700238E-03;  4.0000000E+04;  0.0000000E+00;  4.0003477E+04; -1.8822070E-02;  0.0000000E+00;  3.1924893E-03;  5.0340912E+02;
  3.0179638E-01;  9.9999998E-03; -3.9999697E-02;4302; -4.1944506E-03;  0.0000000E+00; -1.5193684E-04;  9.9911237E+02;  1.0000000E-01; -7.3538660E+02;3; -1.8851593E+00;  0.0000000E+00; -1.9304452E-02;0; -1.5587671E-02;  3.9926973E+04;  0.0000000E+00; -1.2580992E-03;  4.0000000E+04;  0.0000000E+00;  4.0003738E+04; -1.8894669E-02;  0.0000000E+00;  3.3069984E-03;  5.4926862E+02;
  3.0181882E-01;  9.9999998E-03; -3.0003328E-02;4303; -4.1868119E-03;  0.0000000E+00; -1.1981244E-04;  9.9905328E+02;  1.0000000E-01; -7.8432349E+02;3; -1.8939167E+00;  0.0000000E+00; -1.4687350E-02;0; -1.5558128E-02;  3.9922391E+04;  0.0000000E+00;  1.1758631E-03;  4.0000000E+04;  0.0000000E+00;  4.0003738E+04; -1.8968018E-02;  0.0000000E+00;  3.4098893E-03;  5.6005182E+02;
  3.0183297E-01;  9.9999998E-03; -2.0005288E-02;4304; -4.1827140E-03;  0.0000000E+00; -8.2739098E-05;  9.9901544E+02;  1.0000000E-01; -8.1568066E+02;3; -1.9003820E+00;  0.0000000E+00; -9.2255762E-03;0; -1.5538422E-02;  3.9919184E+04;  0.0000000E+00;  1.1874257E-03;  4.0000000E+04;  0.0000000E+00;  4.0003812E+04; -1.9029913E-02;  0.0000000E+00;  3.4914915E-03;  5.4784821E+02;
  3.0184057E-01;  9.9999998E-03; -1.0004415E-02;4305; -4.1809203E-03;  0.0000000E+00; -4.2183943E-05;  9.9899219E+02;  1.0000000E-01; -8.3493933E+02;3; -1.9042760E+00;  0.0000000E+00; -4.5304187E-03;0; -1.5527110E-02;  3.9917355E+04;  0.0000000E+00;  4.0400060E-04;  4.0000000E+04;  0.0000000E+00;  4.0003652E+04; -1.9071039E-02;  0.0000000E+00;  3.5439294E-03;  5.2992468E+02;
  3.0184296E-01;  9.9999998E-03;  1.4967032E-09;4306; -4.1804505E-03;  0.0000000E+00;  6.1330060E-12;  9.9898315E+02;  1.0000000E-01; -8.4244531E+02;3; -1.9055257E+00;  0.0000000E+00;  3.8967810E-06;0; -1.5523400E-02;  3.9916688E+04;  0.0000000E+00;  4.7322427E-13;  4.0000000E+04;  0.0000000E+00;  4.0003551E+04; -1.9085418E-02;  0.0000000E+00;  3.5620185E-03;  5.2180511E+02;
  3.0184057E-01;  9.9999998E-03;  1.0004418E-02;4307; -4.1809226E-03;  0.0000000E+00;  4.2183623E-05;  9.9899219E+02;  1.0000000E-01; -8.3493933E+02;3; -1.9042712E+00;  0.0000000E+00;  4.5332974E-03;0; -1.5527124E-02;  3.9917352E+04;  0.0000000E+00;  4.0423096E-04;  4.0000000E+04;  0.0000000E+00;  4.0003652E+04; -1.9071056E-02;  0.0000000E+00;  3.5439315E-03;  5.2993286E+02;
  3.0183297E-01;  9.9999998E-03;  2.0005289E-02;4308; -4.1827182E-03;  0.0000000E+00;  8.2739105E-05;  9.9901544E+02;  1.0000000E-01; -8.1568066E+02;3; -1.9003890E+00;  0.0000000E+00;  9.2301946E-03;0; -1.5538443E-02;  3.9919184E+04;  0.0000000E+00;  1.1879535E-03;  4.0000000E+04;  0.0000000E+00;  4.0003812E+04; -1.9029936E-02;  0.0000000E+00;  3.4914927E-03;  5.4786816E+02;
  3.0181882E-01;  9.9999998E-03;  3.0003330E-02;4309; -4.1868179E-03;  0.0000000E+00;  1.1981193E-04;  9.9905328E+02;  1.0000000E-01; -7.8432349E+02;3; -1.8939191E+00;  0.0000000E+00;  1.4682670E-02;0; -1.5558112E-02;  3.9922391E+04;  0.0000000E+00;  1.1763159E-03;  4.0000000E+04;  0.0000000E+00;  4.0003738E+04; -1.8968005E-02;  0.0000000E+00;  3.4098923E-03;  5.6006580E+02;
  3.0179638E-01;  9.9999998E-03;  3.9999697E-02;4310; -4.1944585E-03;  0.0000000E+00;  1.5193604E-04;  9.9911230E+02;  1.0000000E-01; -7.3543597E+02;3; -1.8851596E+00;  0.0000000E+00;  1.9300131E-02;0; -1.5587693E-02;  3.9926977E+04;  0.0000000E+00; -1.2574479E-03;  4.0000000E+04;  0.0000000E+00;  4.0003738E+04; -1.8894700E-02;  0.0000000E+00;  3.3070068E-03;  5.4927936E+02;
  3.0176708E-01;  9.9999998E-03;  4.9995791E-02;4311; -4.2068432E-03;  0.0000000E+00;  1.7894247E-04;  9.9918738E+02;  1.0000000E-01; -6.7326489E+02;3; -1.8743166E+00;  0.0000000E+00;  2.4327608E-02;0; -1.5629586E-02;  3.9933445E+04;  0.0000000E+00; -7.7699218E-03;  4.0000000E+04;  0.0000000E+00;  4.0003477E+04; -1.8822083E-02;  0.0000000E+00;  3.1924970E-03;  5.0340701E+02;
  3.0173707E-01;  9.9999998E-03;  5.9992451E-02;4312; -4.2248755E-03;  0.0000000E+00;  2.0059617E-04;  9.9927930E+02;  1.0000000E-01; -5.9706952E+02;3; -1.8615270E+00;  0.0000000E+00;  2.8339207E-02;0; -1.5687540E-02;  3.9941426E+04;  0.0000000E+00; -1.9520808E-02;  4.0000000E+04;  0.0000000E+00;  4.0002883E+04; -1.8764257E-02;  0.0000000E+00;  3.0767173E-03;  4.2007999E+02;
  3.1166711E-01;  9.9999998E-03; -9.9989556E-02;4357; -4.5364308E-03;  0.0000000E+00; -3.0326776E-04;  9.9987512E+02;  1.0000000E-01; -1.0345387E+02;3; -1.8273546E+00;  0.0000000E+00; -4.5711573E-02;0; -1.6476432E-02;  3.9992578E+04;  0.0000000E+00; -1.2433259E-01;  4.0000000E+04;  0.0000000E+00;  4.0000402E+04; -1.9657999E-02;  0.0000000E+00;  3.1815667E-03;  1.8215466E+02;
  3.1170526E-01;  9.9999998E-03; -8.9985512E-02;4358; -4.5062066E-03;  0.0000000E+00; -2.8774928E-04;  9.9974585E+02;  1.0000000E-01; -2.1056195E+02;3; -1.8470576E+00;  0.0000000E+00; -4.2990547E-02;0; -1.6306028E-02;  3.9981387E+04;  0.0000000E+00; -9.4739385E-02;  4.0000000E+04;  0.0000000E+00;  4.0001656E+04; -1.9545443E-02;  0.0000000E+00;  3.2394158E-03;  2.1411566E+02;
  3.1174871E-01;  9.9999998E-03; -7.9984300E-02;4359; -4.4791754E-03;  0.0000000E+00; -2.7021533E-04;  9.9962726E+02;  1.0000000E-01; -3.0883078E+02;3; -1.8654689E+00;  0.0000000E+00; -3.9475825E-02;0; -1.6169392E-02;  3.9970473E+04;  0.0000000E+00; -6.4565808E-02;  4.0000000E+04;  0.0000000E+00;  4.0002504E+04; -1.9488594E-02;  0.0000000E+00;  3.3192029E-03;  3.2009497E+02;
  3.1178853E-01;  9.9999998E-03; -6.9986470E-02;4360; -4.4567822E-03;  0.0000000E+00; -2.4967454E-04;  9.9951910E+02;  1.0000000E-01; -3.9840848E+02;3; -1.8822407E+00;  0.0000000E+00; -3.5301223E-02;0; -1.6062994E-02;  3.9960586E+04;  0.0000000E+00; -3.8258225E-02;  4.0000000E+04;  0.0000000E+00;  4.0003176E+04; -1.9479966E-02;  0.0000000E+00;  3.4169732E-03;  4.4276874E+02;
  3.1181887E-01;  9.9999998E-03; -5.9991200E-02;4361; -4.4398773E-03;  0.0000000E+00; -2.2499650E-04;  9.9942639E+02;  1.0000000E-01; -4.7524582E+02;3; -1.8973379E+00;  0.0000000E+00; -3.0561989E-02;0; -1.5982471E-02;  3.9952531E+04;  0.0000000E+00; -1.8316841E-02;  4.0000000E+04;  0.0000000E+00;  4.0003938E+04; -1.9508980E-02;  0.0000000E+00;  3.5265095E-03;  5.4370715E+02;
  3.1183851E-01;  9.9999998E-03; -4.9997542E-02;4362; -4.4285855E-03;  0.0000000E+00; -1.9581217E-04;  9.9934900E+02;  1.0000000E-01; -5.3934277E+02;3; -1.9105101E+00;  0.0000000E+00; -2.5557006E-02;0; -1.5923332E-02;  3.9945633E+04;  0.0000000E+00; -5.4501425E-03;  4.0000000E+04;  0.0000000E+00;  4.0004434E+04; -1.9563409E-02;  0.0000000E+00;  3.6400757E-03;  6.0419128E+02;
  3.1185064E-01;  9.9999998E-03; -4.0003717E-02;4363; -4.4222809E-03;  0.0000000E+00; -1.6242407E-04;  9.9928882E+02;  1.0000000E-01; -5.8921790E+02;3; -1.9215645E+00;  0.0000000E+00; -2.0378524E-02;0; -1.5881233E-02;  3.9940707E+04;  0.0000000E+00;  1.0624361E-03;  4.0000000E+04;  0.0000000E+00;  4.0004512E+04; -1.9630475E-02;  0.0000000E+00;  3.7492428E-03;  6.2009259E+02;
  3.1185809E-01;  9.9999998E-03; -3.0007854E-02;4364; -4.4197794E-03;  0.0000000E+00; -1.2508851E-04;  9.9924500E+02;  1.0000000E-01; -6.2551318E+02;3; -1.9304807E+00;  0.0000000E+00; -1.5431894E-02;0; -1.5852408E-02;  3.9937234E+04;  0.0000000E+00;  2.8812839E-03;  4.0000000E+04;  0.0000000E+00;  4.0004020E+04; -1.9697832E-02;  0.0000000E+00;  3.8454239E-03;  6.0001978E+02;
  3.1186301E-01;  9.9999998E-03; -2.0008802E-02;4365; -4.4195978E-03;  0.0000000E+00; -8.4880456E-05;  9.9921588E+02;  1.0000000E-01; -6.4961127E+02;3; -1.9369487E+00;  0.0000000E+00; -1.0204486E-02;0; -1.5834009E-02;  3.9934836E+04;  0.0000000E+00;  2.0847518E-03;  4.0000000E+04;  0.0000000E+00;  4.0003867E+04; -1.9754712E-02;  0.0000000E+00;  3.9207018E-03;  5.6189252E+02;
  3.1186628E-01;  9.9999998E-03; -1.0006181E-02;4366; -4.4202376E-03;  0.0000000E+00; -4.2795487E-05;  9.9919684E+02;  1.0000000E-01; -6.6541327E+02;3; -1.9408313E+00;  0.0000000E+00; -4.9226717E-03;0; -1.5823780E-02;  3.9933723E+04;  0.0000000E+00;  6.5088575E-04;  4.0000000E+04;  0.0000000E+00;  4.0003477E+04; -1.9792462E-02;  0.0000000E+00;  3.9686817E-03;  5.2700830E+02;
  3.1186771E-01;  9.9999998E-03;  1.6787326E-09;4367; -4.4205906E-03;  0.0000000E+00;  8.3830026E-10;  9.9918860E+02;  1.0000000E-01; -6.7222791E+02;3; -1.9420792E+00;  0.0000000E+00;  4.6406567E-06;0; -1.5820539E-02;  3.9933410E+04;  0.0000000E+00; -6.5301123E-13;  4.0000000E+04;  0.0000000E+00;  4.0003664E+04; -1.9805713E-02;  0.0000000E+00;  3.9851740E-03;  5.1305756E+02;
  3.1186628E-01;  9.9999998E-03;  1.0006185E-02;4368; -4.4202409E-03;  0.0000000E+00;  4.2797175E-05;  9.9919678E+02;  1.0000000E-01; -6.6546265E+02;3; -1.9408323E+00;  0.0000000E+00;  4.9254703E-03;0; -1.5823789E-02;  3.9933723E+04;  0.0000000E+00;  6.5102248E-04;  4.0000000E+04;  0.0000000E+00;  4.0003477E+04; -1.9792475E-02;  0.0000000E+00;  3.9686854E-03;  5.2701318E+02;
  3.1186301E-01;  9.9999998E-03;  2.0008806E-02;4369; -4.4196025E-03;  0.0000000E+00;  8.4882013E-05;  9.9921594E+02;  1.0000000E-01; -6.4956189E+02;3; -1.9369522E+00;  0.0000000E+00;  1.0206160E-02;0; -1.5834000E-02;  3.9934840E+04;  0.0000000E+00;  2.0849665E-03;  4.0000000E+04;  0.0000000E+00;  4.0003867E+04; -1.9754704E-02;  0.0000000E+00;  3.9207041E-03;  5.6189899E+02;
  3.1185809E-01;  9.9999998E-03;  3.0007858E-02;4370; -4.4197859E-03;  0.0000000E+00;  1.2508962E-04;  9.9924500E+02;  1.0000000E-01; -6.2551318E+02;3; -1.9304708E+00;  0.0000000E+00;  1.5428239E-02;0; -1.5852435E-02;  3.9937234E+04;  0.0000000E+00;  2.8813537E-03;  4.0000000E+04;  0.0000000E+00;  4.0004020E+04; -1.9697864E-02;  0.0000000E+00;  3.8454293E-03;  6.0003534E+02;
  3.1185064E-01;  9.9999998E-03;  4.0003721E-02;4371; -4.4222898E-03;  0.0000000E+00;  1.6242494E-04;  9.9928888E+02;  1.0000000E-01; -5.8916852E+02;3; -1.9215673E+00;  0.0000000E+00;  2.0375500E-02;0; -1.5881239E-02;  3.9940707E+04;  0.0000000E+00;  1.0622302E-03;  4.0000000E+04;  0.0000000E+00;  4.0004512E+04; -1.9630484E-02;  0.0000000E+00;  3.7492455E-03;  6.2010394E+02;
  3.1183851E-01;  9.9999998E-03;  4.9997546E-02;4372; -4.4285958E-03;  0.0000000E+00;  1.9581211E-04;  9.9934894E+02;  1.0000000E-01; -5.3939215E+02;3; -1.9105021E+00;  0.0000000E+00;  2.5549943E-02;0; -1.5923340E-02;  3.9945629E+04;  0.0000000E+00; -5.4498930E-03;  4.0000000E+04;  0.0000000E+00;  4.0004434E+04; -1.9563420E-02;  0.0000000E+00;  3.6400806E-03;  6.0419513E+02;
  3.1181887E-01;  9.9999998E-03;  5.9991203E-02;4373; -4.4398885E-03;  0.0000000E+00;  2.2499613E-04;  9.9942645E+02;  1.0000000E-01; -4.7519644E+02;3; -1.8973299E+00;  0.0000000E+00;  3.0552603E-02;0; -1.5982503E-02;  3.9952523E+04;  0.0000000E+00; -1.8316634E-02;  4.0000000E+04;  0.0000000E+00;  4.0003938E+04; -1.9509023E-02;  0.0000000E+00;  3.5265202E-03;  5.4372223E+02;
  3.2190263E-01;  9.9999998E-03; -1.0005190E-02;4427; -4.6552271E-03;  0.0000000E+00; -4.3918688E-05;  9.9944025E+02;  1.0000000E-01; -4.6373996E+02;3; -1.9769703E+00;  0.0000000E+00; -5.1485775E-03;0; -1.6017254E-02;  3.9953816E+04;  0.0000000E+00;  9.6669036E-04;  4.0000000E+04;  0.0000000E+00;  4.0003359E+04; -2.0442355E-02;  0.0000000E+00;  4.4251014E-03;  4.8846045E+02;
  3.2190263E-01;  9.9999998E-03;  1.7383328E-09;4428; -4.6561165E-03;  0.0000000E+00;  1.8324493E-09;  9.9943799E+02;  1.0000000E-01; -4.6561646E+02;3; -1.9781570E+00;  0.0000000E+00;  2.4976789E-06;0; -1.6014019E-02;  3.9953762E+04;  0.0000000E+00;  2.0832340E-12;  4.0000000E+04;  0.0000000E+00;  4.0003344E+04; -2.0453593E-02;  0.0000000E+00;  4.4395742E-03;  4.7054016E+02;
  3.2190263E-01;  9.9999998E-03;  1.0005194E-02;4429; -4.6552294E-03;  0.0000000E+00;  4.3922373E-05;  9.9944025E+02;  1.0000000E-01; -4.6373996E+02;3; -1.9769673E+00;  0.0000000E+00;  5.1532108E-03;0; -1.6017262E-02;  3.9953816E+04;  0.0000000E+00;  9.6665986E-04;  4.0000000E+04;  0.0000000E+00;  4.0003359E+04; -2.0442357E-02;  0.0000000E+00;  4.4250963E-03;  4.8846561E+02;
  3.2190222E-01;  9.9999998E-03; -2.0008115E-02;4426; -4.6529765E-03;  0.0000000E+00; -8.7746790E-05;  9.9945239E+02;  1.0000000E-01; -4.5366617E+02;3; -1.9730357E+00;  0.0000000E+00; -1.0581369E-02;0; -1.6027559E-02;  3.9954328E+04;  0.0000000E+00;  3.3240838E-03;  4.0000000E+04;  0.0000000E+00;  4.0003848E+04; -2.0410251E-02;  0.0000000E+00;  4.3826913E-03;  5.3533240E+02;
  3.2190222E-01;  9.9999998E-03;  2.0008119E-02;4430; -4.6529807E-03;  0.0000000E+00;  8.7750079E-05;  9.9945239E+02;  1.0000000E-01; -4.5366617E+02;3; -1.9730371E+00;  0.0000000E+00;  1.0583311E-02;0; -1.6027600E-02;  3.9954328E+04;  0.0000000E+00;  3.3241070E-03;  4.0000000E+04;  0.0000000E+00;  4.0003848E+04; -2.0410292E-02;  0.0000000E+00;  4.3826932E-03;  5.3533337E+02;
  3.2189974E-01;  9.9999998E-03; -3.0008567E-02;4425; -4.6504093E-03;  0.0000000E+00; -1.3157575E-04;  9.9947235E+02;  1.0000000E-01; -4.3712344E+02;3; -1.9664812E+00;  0.0000000E+00; -1.6059950E-02;0; -1.6046636E-02;  3.9955453E+04;  0.0000000E+00;  5.5682524E-03;  4.0000000E+04;  0.0000000E+00;  4.0004434E+04; -2.0361835E-02;  0.0000000E+00;  4.3151984E-03;  5.9325934E+02;
  3.2189974E-01;  9.9999998E-03;  3.0008571E-02;4431; -4.6504163E-03;  0.0000000E+00;  1.3157877E-04;  9.9947235E+02;  1.0000000E-01; -4.3712344E+02;3; -1.9664755E+00;  0.0000000E+00;  1.6059084E-02;0; -1.6046640E-02;  3.9955449E+04;  0.0000000E+00;  5.5679581E-03;  4.0000000E+04;  0.0000000E+00;  4.0004434E+04; -2.0361839E-02;  0.0000000E+00;  4.3152003E-03;  5.9326904E+02;
  3.2189324E-01;  9.9999998E-03; -4.0006358E-02;4424; -4.6489672E-03;  0.0000000E+00; -1.7438860E-04;  9.9949536E+02;  1.0000000E-01; -4.1806226E+02;3; -1.9574971E+00;  0.0000000E+00; -2.1808285E-02;0; -1.6076971E-02;  3.9957391E+04;  0.0000000E+00;  5.5559436E-03;  4.0000000E+04;  0.0000000E+00;  4.0004793E+04; -2.0304196E-02;  0.0000000E+00;  4.2272238E-03;  6.3902332E+02;
  3.2189324E-01;  9.9999998E-03;  4.0006362E-02;4432; -4.6489756E-03;  0.0000000E+00;  1.7439137E-04;  9.9949530E+02;  1.0000000E-01; -4.1811163E+02;3; -1.9574887E+00;  0.0000000E+00;  2.1806611E-02;0; -1.6076997E-02;  3.9957395E+04;  0.0000000E+00;  5.5548381E-03;  4.0000000E+04;  0.0000000E+00;  4.0004793E+04; -2.0304227E-02;  0.0000000E+00;  4.2272303E-03;  6.3903912E+02;
  3.2188058E-01;  9.9999998E-03; -5.0001770E-02;4423; -4.6503688E-03;  0.0000000E+00; -2.1538723E-04;  9.9953900E+02;  1.0000000E-01; -3.8191513E+02;3; -1.9460716E+00;  0.0000000E+00; -2.7299974E-02;0; -1.6122043E-02;  3.9960586E+04;  0.0000000E+00;  9.4154425E-04;  4.0000000E+04;  0.0000000E+00;  4.0005285E+04; -2.0246824E-02;  0.0000000E+00;  4.1247802E-03;  6.5072723E+02;
  3.2188058E-01;  9.9999998E-03;  5.0001774E-02;4433; -4.6503791E-03;  0.0000000E+00;  2.1538971E-04;  9.9953894E+02;  1.0000000E-01; -3.8196451E+02;3; -1.9460716E+00;  0.0000000E+00;  2.7293932E-02;0; -1.6122071E-02;  3.9960586E+04;  0.0000000E+00;  9.4212021E-04;  4.0000000E+04;  0.0000000E+00;  4.0005289E+04; -2.0246858E-02;  0.0000000E+00;  4.1247862E-03;  6.5073730E+02;
  3.2186237E-01;  9.9999998E-03; -5.9995834E-02;4422; -4.6561453E-03;  0.0000000E+00; -2.5312809E-04;  9.9959436E+02;  1.0000000E-01; -3.3608926E+02;3; -1.9323714E+00;  0.0000000E+00; -3.3083789E-02;0; -1.6185684E-02;  3.9965062E+04;  0.0000000E+00; -1.0333722E-02;  4.0000000E+04;  0.0000000E+00;  4.0004762E+04; -2.0200627E-02;  0.0000000E+00;  4.0149423E-03;  6.1425293E+02;
  3.2186234E-01;  9.9999998E-03;  5.9995838E-02;4434; -4.6561565E-03;  0.0000000E+00;  2.5313036E-04;  9.9959436E+02;  1.0000000E-01; -3.3608926E+02;3; -1.9323601E+00;  0.0000000E+00;  3.3077743E-02;0; -1.6185723E-02;  3.9965062E+04;  0.0000000E+00; -1.0333564E-02;  4.0000000E+04;  0.0000000E+00;  4.0004762E+04; -2.0200681E-02;  0.0000000E+00;  4.0149568E-03;  6.1425848E+02;
  3.2184187E-01;  9.9999998E-03; -6.9989227E-02;4421; -4.6675028E-03;  0.0000000E+00; -2.8709517E-04;  9.9965674E+02;  1.0000000E-01; -2.8438702E+02;3; -1.9167446E+00;  0.0000000E+00; -3.8587604E-02;0; -1.6272197E-02;  3.9971109E+04;  0.0000000E+00; -2.9566698E-02;  4.0000000E+04;  0.0000000E+00;  4.0004164E+04; -2.0177459E-02;  0.0000000E+00;  3.9052621E-03;  5.2764490E+02;
  3.2181737E-01;  9.9999998E-03; -7.9983063E-02;4420; -4.6848152E-03;  0.0000000E+00; -3.1678850E-04;  9.9973743E+02;  1.0000000E-01; -2.1752472E+02;3; -1.8992907E+00;  0.0000000E+00; -4.3112364E-02;0; -1.6385471E-02;  3.9978699E+04;  0.0000000E+00; -5.6888759E-02;  4.0000000E+04;  0.0000000E+00;  4.0003234E+04; -2.0188276E-02;  0.0000000E+00;  3.8028038E-03;  4.0418497E+02;
  3.2178438E-01;  9.9999998E-03; -8.9980245E-02;4419; -4.7077308E-03;  0.0000000E+00; -3.4256256E-04;  9.9983173E+02;  1.0000000E-01; -1.3940346E+02;3; -1.8802930E+00;  0.0000000E+00; -4.8141431E-02;0; -1.6528623E-02;  3.9987602E+04;  0.0000000E+00; -9.0933755E-02;  4.0000000E+04;  0.0000000E+00;  4.0002285E+04; -2.0242270E-02;  0.0000000E+00;  3.7136469E-03;  2.7678275E+02;
  3.2173961E-01;  9.9999998E-03; -9.9982195E-02;4418; -4.7352519E-03;  0.0000000E+00; -3.6552706E-04;  9.9993652E+02;  1.0000000E-01; -5.2591106E+01;3; -1.8597659E+00;  0.0000000E+00; -5.2398693E-02;0; -1.6703745E-02;  3.9997215E+04;  0.0000000E+00; -1.2853329E-01;  4.0000000E+04;  0.0000000E+00;  4.0001031E+04; -2.0346187E-02;  0.0000000E+00;  3.6424424E-03;  2.0755754E+02;
  3.3181950E-01;  9.9999998E-03; -9.9980153E-02;4479; -4.9359770E-03;  0.0000000E+00; -4.3634075E-04;  9.9997321E+02;  1.0000000E-01; -2.2221594E+01;3; -1.8913684E+00;  0.0000000E+00; -5.8041103E-02;0; -1.6863795E-02;  4.0000102E+04;  0.0000000E+00; -1.1259898E-01;  4.0000000E+04;  0.0000000E+00;  4.0001227E+04; -2.1004146E-02;  0.0000000E+00;  4.1403514E-03;  2.1252354E+02;
  3.3185947E-01;  9.9999998E-03; -8.9981131E-02;4480; -4.9112146E-03;  0.0000000E+00; -4.0494621E-04;  9.9990308E+02;  1.0000000E-01; -8.0294022E+01;3; -1.9127147E+00;  0.0000000E+00; -5.3281397E-02;0; -1.6681693E-02;  3.9992781E+04;  0.0000000E+00; -7.2188690E-02;  4.0000000E+04;  0.0000000E+00;  4.0002352E+04; -2.0907547E-02;  0.0000000E+00;  4.2258543E-03;  3.1776486E+02;
  3.3188429E-01;  9.9999998E-03; -7.9985335E-02;4481; -4.8919530E-03;  0.0000000E+00; -3.6912379E-04;  9.9984125E+02;  1.0000000E-01; -1.3150246E+02;3; -1.9325500E+00;  0.0000000E+00; -4.7752399E-02;0; -1.6529687E-02;  3.9986758E+04;  0.0000000E+00; -3.8776837E-02;  4.0000000E+04;  0.0000000E+00;  4.0003805E+04; -2.0854469E-02;  0.0000000E+00;  4.3247836E-03;  4.5649588E+02;
  3.3189669E-01;  9.9999998E-03; -6.9991246E-02;4482; -4.8786532E-03;  0.0000000E+00; -3.2873426E-04;  9.9979376E+02;  1.0000000E-01; -1.7085936E+02;3; -1.9506965E+00;  0.0000000E+00; -4.1785020E-02;0; -1.6407179E-02;  3.9982062E+04;  0.0000000E+00; -1.4138623E-02;  4.0000000E+04;  0.0000000E+00;  4.0004727E+04; -2.0838654E-02;  0.0000000E+00;  4.4314754E-03;  5.7238391E+02;
  3.3189997E-01;  9.9999998E-03; -5.9997719E-02;4483; -4.8711374E-03;  0.0000000E+00; -2.8429515E-04;  9.9976001E+02;  1.0000000E-01; -1.9880919E+02;3; -1.9669304E+00;  0.0000000E+00; -3.5848867E-02;0; -1.6312029E-02;  3.9978219E+04;  0.0000000E+00;  1.5170823E-03;  4.0000000E+04;  0.0000000E+00;  4.0005105E+04; -2.0851705E-02;  0.0000000E+00;  4.5396765E-03;  6.4080115E+02;
  3.3189750E-01;  9.9999998E-03; -5.0003521E-02;4484; -4.8685637E-03;  0.0000000E+00; -2.3692886E-04;  9.9973187E+02;  1.0000000E-01; -2.2211717E+02;3; -1.9808829E+00;  0.0000000E+00; -2.9460205E-02;0; -1.6241118E-02;  3.9976117E+04;  0.0000000E+00;  9.1725225E-03;  4.0000000E+04;  0.0000000E+00;  4.0005543E+04; -2.0884369E-02;  0.0000000E+00;  4.6432493E-03;  6.5457605E+02;
  3.3189270E-01;  9.9999998E-03; -4.0007502E-02;4485; -4.8696953E-03;  0.0000000E+00; -1.8826523E-04;  9.9971674E+02;  1.0000000E-01; -2.3466003E+02;3; -1.9925522E+00;  0.0000000E+00; -2.3542706E-02;0; -1.6190585E-02;  3.9974891E+04;  0.0000000E+00;  1.0660717E-02;  4.0000000E+04;  0.0000000E+00;  4.0005281E+04; -2.0927038E-02;  0.0000000E+00;  4.7364533E-03;  6.2077728E+02;
  3.3188787E-01;  9.9999998E-03; -3.0009100E-02;4486; -4.8729461E-03;  0.0000000E+00; -1.3958765E-04;  9.9970624E+02;  1.0000000E-01; -2.4340053E+02;3; -2.0017111E+00;  0.0000000E+00; -1.7058188E-02;0; -1.6156536E-02;  3.9974391E+04;  0.0000000E+00;  8.2952296E-03;  4.0000000E+04;  0.0000000E+00;  4.0004445E+04; -2.0970816E-02;  0.0000000E+00;  4.8142797E-03;  5.5712109E+02;
  3.3188412E-01;  9.9999998E-03; -2.0008152E-02;4487; -4.8766714E-03;  0.0000000E+00; -9.2112889E-05;  9.9970001E+02;  1.0000000E-01; -2.4853618E+02;3; -2.0081956E+00;  0.0000000E+00; -1.1542582E-02;0; -1.6135309E-02;  3.9974598E+04;  0.0000000E+00;  4.4667264E-03;  4.0000000E+04;  0.0000000E+00;  4.0003750E+04; -2.1008005E-02;  0.0000000E+00;  4.8726960E-03;  4.8694983E+02;
  3.3188176E-01;  9.9999998E-03; -1.0004870E-02;4488; -4.8795287E-03;  0.0000000E+00; -4.5619945E-05;  9.9969562E+02;  1.0000000E-01; -2.5219040E+02;3; -2.0121863E+00;  0.0000000E+00; -5.7488633E-03;0; -1.6123937E-02;  3.9974664E+04;  0.0000000E+00;  1.2387149E-03;  4.0000000E+04;  0.0000000E+00;  4.0003277E+04; -2.1032801E-02;  0.0000000E+00;  4.9088630E-03;  4.3339053E+02;
  3.3188096E-01;  9.9999998E-03;  1.8661745E-09;4489; -4.8806341E-03;  0.0000000E+00;  2.9173179E-09;  9.9969568E+02;  1.0000000E-01; -2.5214102E+02;3; -2.0135891E+00;  0.0000000E+00;  3.9516917E-06;0; -1.6120352E-02;  3.9974707E+04;  0.0000000E+00;  7.7552716E-13;  4.0000000E+04;  0.0000000E+00;  4.0003090E+04; -2.1041457E-02;  0.0000000E+00;  4.9211052E-03;  4.1346921E+02;
  3.3188176E-01;  9.9999998E-03;  1.0004873E-02;4490; -4.8795315E-03;  0.0000000E+00;  4.5625693E-05;  9.9969562E+02;  1.0000000E-01; -2.5219040E+02;3; -2.0121918E+00;  0.0000000E+00;  5.7557379E-03;0; -1.6123934E-02;  3.9974664E+04;  0.0000000E+00;  1.2386331E-03;  4.0000000E+04;  0.0000000E+00;  4.0003277E+04; -2.1032795E-02;  0.0000000E+00;  4.9088621E-03;  4.3339380E+02;
  3.3188412E-01;  9.9999998E-03;  2.0008156E-02;4491; -4.8766760E-03;  0.0000000E+00;  9.2118331E-05;  9.9969995E+02;  1.0000000E-01; -2.4858556E+02;3; -2.0081894E+00;  0.0000000E+00;  1.1546846E-02;0; -1.6135311E-02;  3.9974594E+04;  0.0000000E+00;  4.4663390E-03;  4.0000000E+04;  0.0000000E+00;  4.0003746E+04; -2.1008009E-02;  0.0000000E+00;  4.8726983E-03;  4.8695050E+02;
  3.3188787E-01;  9.9999998E-03;  3.0009104E-02;4492; -4.8729535E-03;  0.0000000E+00;  1.3959277E-04;  9.9970624E+02;  1.0000000E-01; -2.4340053E+02;3; -2.0017064E+00;  0.0000000E+00;  1.7057981E-02;0; -1.6156534E-02;  3.9974395E+04;  0.0000000E+00;  8.2945796E-03;  4.0000000E+04;  0.0000000E+00;  4.0004445E+04; -2.0970816E-02;  0.0000000E+00;  4.8142821E-03;  5.5712775E+02;
  3.3189270E-01;  9.9999998E-03;  4.0007506E-02;4493; -4.8697041E-03;  0.0000000E+00;  1.8827019E-04;  9.9971680E+02;  1.0000000E-01; -2.3461064E+02;3; -1.9925339E+00;  0.0000000E+00;  2.3540273E-02;0; -1.6190607E-02;  3.9974887E+04;  0.0000000E+00;  1.0659751E-02;  4.0000000E+04;  0.0000000E+00;  4.0005289E+04; -2.0927068E-02;  0.0000000E+00;  4.7364617E-03;  6.2077777E+02;
  3.3189750E-01;  9.9999998E-03;  5.0003525E-02;4494; -4.8685740E-03;  0.0000000E+00;  2.3693370E-04;  9.9973187E+02;  1.0000000E-01; -2.2211717E+02;3; -1.9808788E+00;  0.0000000E+00;  2.9453605E-02;0; -1.6241124E-02;  3.9976117E+04;  0.0000000E+00;  9.1715734E-03;  4.0000000E+04;  0.0000000E+00;  4.0005543E+04; -2.0884374E-02;  0.0000000E+00;  4.6432507E-03;  6.5458350E+02;
  3.3189997E-01;  9.9999998E-03;  5.9997723E-02;4495; -4.8711500E-03;  0.0000000E+00;  2.8429975E-04;  9.9976007E+02;  1.0000000E-01; -1.9875981E+02;3; -1.9669274E+00;  0.0000000E+00;  3.5842955E-02;0; -1.6312080E-02;  3.9978219E+04;  0.0000000E+00;  1.5151789E-03;  4.0000000E+04;  0.0000000E+00;  4.0005105E+04; -2.0851769E-02;  0.0000000E+00;  4.5396890E-03;  6.4079858E+02;
  3.4185010E-01;  9.9999998E-03; -9.9982113E-02;4540; -5.1380205E-03;  0.0000000E+00; -5.1320973E-04;  9.9999011E+02;  1.0000000E-01; -8.1972990E+00;3; -1.9216572E+00;  0.0000000E+00; -6.5646984E-02;0; -1.6977180E-02;  4.0000980E+04;  0.0000000E+00; -8.2769610E-02;  4.0000000E+04;  0.0000000E+00;  4.0001609E+04; -2.1645563E-02;  0.0000000E+00;  4.6683825E-03;  2.1158054E+02;
  3.4185722E-01;  9.9999998E-03; -8.9986198E-02;4541; -5.1149884E-03;  0.0000000E+00; -4.7192298E-04;  9.9995441E+02;  1.0000000E-01; -3.7776711E+01;3; -1.9439678E+00;  0.0000000E+00; -5.9415903E-02;0; -1.6786747E-02;  3.9996504E+04;  0.0000000E+00; -4.4375736E-02;  4.0000000E+04;  0.0000000E+00;  4.0002727E+04; -2.1553880E-02;  0.0000000E+00;  4.7671320E-03;  3.4547678E+02;
  3.4185964E-01;  9.9999998E-03; -7.9991721E-02;4542; -5.0980924E-03;  0.0000000E+00; -4.2538389E-04;  9.9992664E+02;  1.0000000E-01; -6.0788403E+01;3; -1.9644682E+00;  0.0000000E+00; -5.2466225E-02;0; -1.6624780E-02;  3.9993160E+04;  0.0000000E+00; -1.5304053E-02;  4.0000000E+04;  0.0000000E+00;  4.0003938E+04; -2.1499513E-02;  0.0000000E+00;  4.8747323E-03;  4.8455835E+02;
  3.4185934E-01;  9.9999998E-03; -6.9997646E-02;4543; -5.0872159E-03;  0.0000000E+00; -3.7382319E-04;  9.9991095E+02;  1.0000000E-01; -7.3775688E+01;3; -1.9832463E+00;  0.0000000E+00; -4.6152335E-02;0; -1.6491894E-02;  3.9990785E+04;  0.0000000E+00;  3.9543835E-03;  4.0000000E+04;  0.0000000E+00;  4.0004797E+04; -2.1476721E-02;  0.0000000E+00;  4.9848286E-03;  5.8717682E+02;
  3.4185764E-01;  9.9999998E-03; -6.0002927E-02;4544; -5.0817663E-03;  0.0000000E+00; -3.1877391E-04;  9.9990179E+02;  1.0000000E-01; -8.1380417E+01;3; -1.9998797E+00;  0.0000000E+00; -3.9017320E-02;0; -1.6387109E-02;  3.9989625E+04;  0.0000000E+00;  1.4214455E-02;  4.0000000E+04;  0.0000000E+00;  4.0005262E+04; -2.1478390E-02;  0.0000000E+00;  5.0912811E-03;  6.3683044E+02;
  3.4185487E-01;  9.9999998E-03; -5.0007008E-02;4545; -5.0807046E-03;  0.0000000E+00; -2.6183273E-04;  9.9990094E+02;  1.0000000E-01; -8.2071754E+01;3; -2.0144379E+00;  0.0000000E+00; -3.2083876E-02;0; -1.6307903E-02;  3.9989656E+04;  0.0000000E+00;  1.7186299E-02;  4.0000000E+04;  0.0000000E+00;  4.0005082E+04; -2.1496644E-02;  0.0000000E+00;  5.1887408E-03;  6.3204364E+02;
  3.4185207E-01;  9.9999998E-03; -4.0009309E-02;4546; -5.0826599E-03;  0.0000000E+00; -2.0517963E-04;  9.9990668E+02;  1.0000000E-01; -7.7331146E+01;3; -2.0264585E+00;  0.0000000E+00; -2.5291987E-02;0; -1.6250886E-02;  3.9990414E+04;  0.0000000E+00;  1.5105246E-02;  4.0000000E+04;  0.0000000E+00;  4.0004766E+04; -2.1523824E-02;  0.0000000E+00;  5.2729379E-03;  5.8356555E+02;
  3.4184963E-01;  9.9999998E-03; -3.0009653E-02;4547; -5.0861295E-03;  0.0000000E+00; -1.5027718E-04;  9.9991443E+02;  1.0000000E-01; -7.0911575E+01;3; -2.0359681E+00;  0.0000000E+00; -1.8932175E-02;0; -1.6212197E-02;  3.9991523E+04;  0.0000000E+00;  1.0374028E-02;  4.0000000E+04;  0.0000000E+00;  4.0003926E+04; -2.1552902E-02;  0.0000000E+00;  5.3407042E-03;  5.1055637E+02;
  3.4184730E-01;  9.9999998E-03; -2.0008050E-02;4548; -5.0896835E-03;  0.0000000E+00; -9.7967350E-05;  9.9992188E+02;  1.0000000E-01; -6.4738907E+01;3; -2.0427527E+00;  0.0000000E+00; -1.2341687E-02;0; -1.6188022E-02;  3.9992699E+04;  0.0000000E+00;  5.2196844E-03;  4.0000000E+04;  0.0000000E+00;  4.0003332E+04; -2.1578042E-02;  0.0000000E+00;  5.3900201E-03;  4.3588095E+02;
  3.4184611E-01;  9.9999998E-03; -1.0004493E-02;4549; -5.0922609E-03;  0.0000000E+00; -4.8260295E-05;  9.9992767E+02;  1.0000000E-01; -5.9899540E+01;3; -2.0468085E+00;  0.0000000E+00; -6.2101875E-03;0; -1.6175022E-02;  3.9993566E+04;  0.0000000E+00;  1.3968288E-03;  4.0000000E+04;  0.0000000E+00;  4.0002949E+04; -2.1594921E-02;  0.0000000E+00;  5.4198992E-03;  3.8086404E+02;
  3.4184554E-01;  9.9999998E-03;  2.0690101E-09;4550; -5.0932090E-03;  0.0000000E+00;  4.0478749E-09;  9.9992963E+02;  1.0000000E-01; -5.8319340E+01;3; -2.0480905E+00;  0.0000000E+00;  5.1073275E-06;0; -1.6170934E-02;  3.9993883E+04;  0.0000000E+00;  1.8022307E-12;  4.0000000E+04;  0.0000000E+00;  4.0002812E+04; -2.1600820E-02;  0.0000000E+00;  5.4298863E-03;  3.6069153E+02;
  3.4184611E-01;  9.9999998E-03;  1.0004497E-02;4551; -5.0922632E-03;  0.0000000E+00;  4.8268259E-05;  9.9992773E+02;  1.0000000E-01; -5.9850159E+01;3; -2.0467997E+00;  0.0000000E+00;  6.2199947E-03;0; -1.6174981E-02;  3.9993562E+04;  0.0000000E+00;  1.3965447E-03;  4.0000000E+04;  0.0000000E+00;  4.0002949E+04; -2.1594891E-02;  0.0000000E+00;  5.4199095E-03;  3.8087228E+02;
  3.4184730E-01;  9.9999998E-03;  2.0008055E-02;4552; -5.0896881E-03;  0.0000000E+00;  9.7975295E-05;  9.9992181E+02;  1.0000000E-01; -6.4788292E+01;3; -2.0427516E+00;  0.0000000E+00;  1.2346846E-02;0; -1.6188027E-02;  3.9992699E+04;  0.0000000E+00;  5.2189957E-03;  4.0000000E+04;  0.0000000E+00;  4.0003332E+04; -2.1578049E-02;  0.0000000E+00;  5.3900224E-03;  4.3588007E+02;
  3.4184963E-01;  9.9999998E-03;  3.0009657E-02;4553; -5.0861365E-03;  0.0000000E+00;  1.5028469E-04;  9.9991449E+02;  1.0000000E-01; -7.0862190E+01;3; -2.0359576E+00;  0.0000000E+00;  1.8934287E-02;0; -1.6212203E-02;  3.9991531E+04;  0.0000000E+00;  1.0373347E-02;  4.0000000E+04;  0.0000000E+00;  4.0003926E+04; -2.1552905E-02;  0.0000000E+00;  5.3407024E-03;  5.1056009E+02;
  3.4185207E-01;  9.9999998E-03;  4.0009312E-02;4554; -5.0826692E-03;  0.0000000E+00;  2.0518682E-04;  9.9990662E+02;  1.0000000E-01; -7.7380531E+01;3; -2.0264504E+00;  0.0000000E+00;  2.5292736E-02;0; -1.6250890E-02;  3.9990414E+04;  0.0000000E+00;  1.5104823E-02;  4.0000000E+04;  0.0000000E+00;  4.0004766E+04; -2.1523828E-02;  0.0000000E+00;  5.2729375E-03;  5.8356396E+02;
  3.4185487E-01;  9.9999998E-03;  5.0007012E-02;4555; -5.0807153E-03;  0.0000000E+00;  2.6184024E-04;  9.9990100E+02;  1.0000000E-01; -8.2022369E+01;3; -2.0144305E+00;  0.0000000E+00;  3.2076776E-02;0; -1.6307939E-02;  3.9989656E+04;  0.0000000E+00;  1.7184976E-02;  4.0000000E+04;  0.0000000E+00;  4.0005078E+04; -2.1496687E-02;  0.0000000E+00;  5.1887478E-03;  6.3205023E+02;
  3.4185764E-01;  9.9999998E-03;  6.0002930E-02;4556; -5.0817789E-03;  0.0000000E+00;  3.1878089E-04;  9.9990179E+02;  1.0000000E-01; -8.1380417E+01;3; -1.9998716E+00;  0.0000000E+00;  3.9007727E-02;0; -1.6387139E-02;  3.9989621E+04;  0.0000000E+00;  1.4212919E-02;  4.0000000E+04;  0.0000000E+00;  4.0005262E+04; -2.1478422E-02;  0.0000000E+00;  5.0912839E-03;  6.3682373E+02;
  3.5179728E-01;  9.9999998E-03; -9.9989943E-02;4601; -5.3425026E-03;  0.0000000E+00; -5.9178547E-04;  9.9998657E+02;  1.0000000E-01; -1.1110797E+01;3; -1.9508474E+00;  0.0000000E+00; -7.1357921E-02;0; -1.7069753E-02;  4.0000062E+04;  0.0000000E+00; -4.5371227E-02;  4.0000000E+04;  0.0000000E+00;  4.0001457E+04; -2.2288745E-02;  0.0000000E+00;  5.2189920E-03;  2.1965208E+02;
  3.5180104E-01;  9.9999998E-03; -8.9993961E-02;4602; -5.3210673E-03;  0.0000000E+00; -5.4059603E-04;  9.9998022E+02;  1.0000000E-01; -1.6394598E+01;3; -1.9740260E+00;  0.0000000E+00; -6.3892625E-02;0; -1.6871467E-02;  3.9997992E+04;  0.0000000E+00; -1.2774670E-02;  4.0000000E+04;  0.0000000E+00;  4.0002691E+04; -2.2203775E-02;  0.0000000E+00;  5.3323074E-03;  3.6660519E+02;
  3.5180348E-01;  9.9999998E-03; -7.9998389E-02;4603; -5.3056609E-03;  0.0000000E+00; -4.8336826E-04;  9.9997601E+02;  1.0000000E-01; -1.9851290E+01;3; -1.9953767E+00;  0.0000000E+00; -5.6780104E-02;0; -1.6700029E-02;  3.9997109E+04;  0.0000000E+00;  9.3547348E-03;  4.0000000E+04;  0.0000000E+00;  4.0003816E+04; -2.2149242E-02;  0.0000000E+00;  5.4492136E-03;  4.9557520E+02;
  3.5180554E-01;  9.9999998E-03; -7.0002437E-02;4604; -5.2957670E-03;  0.0000000E+00; -4.2130559E-04;  9.9998657E+02;  1.0000000E-01; -1.1110797E+01;3; -2.0147951E+00;  0.0000000E+00; -4.9480747E-02;0; -1.6557211E-02;  3.9996652E+04;  0.0000000E+00;  2.1606866E-02;  4.0000000E+04;  0.0000000E+00;  4.0004488E+04; -2.2120150E-02;  0.0000000E+00;  5.5629392E-03;  5.8105908E+02;
  3.5180727E-01;  9.9999998E-03; -6.0005665E-02;4605; -5.2905739E-03;  0.0000000E+00; -3.5616505E-04;  1.0000043E+03;  1.0000000E-01;  3.5554550E+00;3; -2.0323644E+00;  0.0000000E+00; -4.1729830E-02;0; -1.6442996E-02;  3.9997543E+04;  0.0000000E+00;  2.5639582E-02;  4.0000000E+04;  0.0000000E+00;  4.0004613E+04; -2.2110656E-02;  0.0000000E+00;  5.6676609E-03;  6.1382587E+02;
  3.5180876E-01;  9.9999998E-03; -5.0007705E-02;4606; -5.2889297E-03;  0.0000000E+00; -2.9014650E-04;  1.0000211E+03;  1.0000000E-01;  1.7480988E+01;3; -2.0473692E+00;  0.0000000E+00; -3.4757830E-02;0; -1.6355647E-02;  3.9999234E+04;  0.0000000E+00;  2.3707882E-02;  4.0000000E+04;  0.0000000E+00;  4.0004648E+04; -2.2114683E-02;  0.0000000E+00;  5.7590357E-03;  5.9651874E+02;
  3.5180944E-01;  9.9999998E-03; -4.0008634E-02;4607; -5.2895974E-03;  0.0000000E+00; -2.2542242E-04;  1.0000453E+03;  1.0000000E-01;  3.7529804E+01;3; -2.0596488E+00;  0.0000000E+00; -2.7860926E-02;0; -1.6292090E-02;  4.0001660E+04;  0.0000000E+00;  1.8259484E-02;  4.0000000E+04;  0.0000000E+00;  4.0004195E+04; -2.2126425E-02;  0.0000000E+00;  5.8343355E-03;  5.4164624E+02;
  3.5180867E-01;  9.9999998E-03; -3.0008517E-02;4608; -5.2914387E-03;  0.0000000E+00; -1.6377644E-04;  1.0000673E+03;  1.0000000E-01;  5.5800892E+01;3; -2.0694280E+00;  0.0000000E+00; -2.0514054E-02;0; -1.6248669E-02;  4.0004000E+04;  0.0000000E+00;  1.1584293E-02;  4.0000000E+04;  0.0000000E+00;  4.0003621E+04; -2.2140885E-02;  0.0000000E+00;  5.8922153E-03;  4.6782126E+02;
  3.5180697E-01;  9.9999998E-03; -2.0007055E-02;4609; -5.2934540E-03;  0.0000000E+00; -1.0620042E-04;  1.0000843E+03;  1.0000000E-01;  6.9825188E+01;3; -2.0764110E+00;  0.0000000E+00; -1.3447596E-02;0; -1.6221359E-02;  4.0005949E+04;  0.0000000E+00;  5.5476432E-03;  4.0000000E+04;  0.0000000E+00;  4.0002918E+04; -2.2154054E-02;  0.0000000E+00;  5.9326952E-03;  3.9568137E+02;
  3.5180491E-01;  9.9999998E-03; -1.0004119E-02;4610; -5.2949241E-03;  0.0000000E+00; -5.2135714E-05;  1.0000985E+03;  1.0000000E-01;  8.1577942E+01;3; -2.0806847E+00;  0.0000000E+00; -6.7013311E-03;0; -1.6206600E-02;  4.0007434E+04;  0.0000000E+00;  1.4442633E-03;  4.0000000E+04;  0.0000000E+00;  4.0002398E+04; -2.2163054E-02;  0.0000000E+00;  5.9564547E-03;  3.4371579E+02;
  3.5180378E-01;  9.9999998E-03;  2.3303628E-09;4611; -5.2953963E-03;  0.0000000E+00;  5.3391513E-09;  1.0001042E+03;  1.0000000E-01;  8.6318550E+01;3; -2.0819995E+00;  0.0000000E+00;  7.0828755E-06;0; -1.6201956E-02;  4.0007988E+04;  0.0000000E+00;  1.3351681E-12;  4.0000000E+04;  0.0000000E+00;  4.0002281E+04; -2.2166204E-02;  0.0000000E+00;  5.9642470E-03;  3.2485001E+02;
  3.5180491E-01;  9.9999998E-03;  1.0004124E-02;4612; -5.2949269E-03;  0.0000000E+00;  5.2146373E-05;  1.0000985E+03;  1.0000000E-01;  8.1577942E+01;3; -2.0806780E+00;  0.0000000E+00;  6.7112967E-03;0; -1.6206598E-02;  4.0007434E+04;  0.0000000E+00;  1.4440524E-03;  4.0000000E+04;  0.0000000E+00;  4.0002398E+04; -2.2163047E-02;  0.0000000E+00;  5.9564491E-03;  3.4372296E+02;
  3.5180697E-01;  9.9999998E-03;  2.0007061E-02;4613; -5.2934596E-03;  0.0000000E+00;  1.0621110E-04;  1.0000844E+03;  1.0000000E-01;  6.9923950E+01;3; -2.0764091E+00;  0.0000000E+00;  1.3453795E-02;0; -1.6221363E-02;  4.0005949E+04;  0.0000000E+00;  5.5470206E-03;  4.0000000E+04;  0.0000000E+00;  4.0002918E+04; -2.2154061E-02;  0.0000000E+00;  5.9326985E-03;  3.9568344E+02;
  3.5180867E-01;  9.9999998E-03;  3.0008523E-02;4614; -5.2914456E-03;  0.0000000E+00;  1.6378640E-04;  1.0000673E+03;  1.0000000E-01;  5.5800892E+01;3; -2.0694127E+00;  0.0000000E+00;  2.0516120E-02;0; -1.6248690E-02;  4.0004000E+04;  0.0000000E+00;  1.1583338E-02;  4.0000000E+04;  0.0000000E+00;  4.0003621E+04; -2.2140905E-02;  0.0000000E+00;  5.8922153E-03;  4.6782001E+02;
  3.5180944E-01;  9.9999998E-03;  4.0008642E-02;4615; -5.2896063E-03;  0.0000000E+00;  2.2543235E-04;  1.0000454E+03;  1.0000000E-01;  3.7628567E+01;3; -2.0596406E+00;  0.0000000E+00;  2.7857773E-02;0; -1.6292134E-02;  4.0001656E+04;  0.0000000E+00;  1.8257799E-02;  4.0000000E+04;  0.0000000E+00;  4.0004195E+04; -2.2126460E-02;  0.0000000E+00;  5.8343266E-03;  5.4164691E+02;
  3.5180876E-01;  9.9999998E-03;  5.0007708E-02;4616; -5.2889409E-03;  0.0000000E+00;  2.9015591E-04;  1.0000211E+03;  1.0000000E-01;  1.7480988E+01;3; -2.0473597E+00;  0.0000000E+00;  3.4756102E-02;0; -1.6355673E-02;  3.9999234E+04;  0.0000000E+00;  2.3707284E-02;  4.0000000E+04;  0.0000000E+00;  4.0004648E+04; -2.2114718E-02;  0.0000000E+00;  5.7590450E-03;  5.9651013E+02;
  3.5180727E-01;  9.9999998E-03;  6.0005672E-02;4617; -5.2905860E-03;  0.0000000E+00;  3.5617419E-04;  1.0000043E+03;  1.0000000E-01;  3.5554550E+00;3; -2.0323548E+00;  0.0000000E+00;  4.1719861E-02;0; -1.6443036E-02;  3.9997543E+04;  0.0000000E+00;  2.5637427E-02;  4.0000000E+04;  0.0000000E+00;  4.0004617E+04; -2.2110697E-02;  0.0000000E+00;  5.6676604E-03;  6.1381702E+02;
  3.6175412E-01;  9.9999998E-03; -9.9997014E-02;4662; -5.5539738E-03;  0.0000000E+00; -6.6797243E-04;  9.9995721E+02;  1.0000000E-01; -3.5455788E+01;3; -1.9790393E+00;  0.0000000E+00; -7.6860473E-02;0; -1.7167080E-02;  3.9997125E+04;  0.0000000E+00; -5.8195041E-03;  4.0000000E+04;  0.0000000E+00;  4.0001730E+04; -2.2958318E-02;  0.0000000E+00;  5.7912385E-03;  2.4139429E+02;
  3.6175215E-01;  9.9999998E-03; -9.0000674E-02;4663; -5.5332012E-03;  0.0000000E+00; -6.0698087E-04;  9.9996753E+02;  1.0000000E-01; -2.6912819E+01;3; -2.0031610E+00;  0.0000000E+00; -6.8815507E-02;0; -1.6962321E-02;  3.9996660E+04;  0.0000000E+00;  1.8360160E-02;  4.0000000E+04;  0.0000000E+00;  4.0002941E+04; -2.2880644E-02;  0.0000000E+00;  5.9183221E-03;  3.8201678E+02;
  3.6175272E-01;  9.9999998E-03; -8.0003910E-02;4664; -5.5179438E-03;  0.0000000E+00; -5.3976284E-04;  9.9998553E+02;  1.0000000E-01; -1.1999660E+01;3; -2.0253718E+00;  0.0000000E+00; -6.0772602E-02;0; -1.6783064E-02;  3.9997379E+04;  0.0000000E+00;  3.2101914E-02;  4.0000000E+04;  0.0000000E+00;  4.0003926E+04; -2.2826830E-02;  0.0000000E+00;  6.0437657E-03;  4.9311456E+02;
  3.6175656E-01;  9.9999998E-03; -7.0006058E-02;4665; -5.5073630E-03;  0.0000000E+00; -4.6796826E-04;  1.0000101E+03;  1.0000000E-01;  8.2960615E+00;3; -2.0455985E+00;  0.0000000E+00; -5.2806266E-02;0; -1.6632048E-02;  3.9998668E+04;  0.0000000E+00;  3.6827464E-02;  4.0000000E+04;  0.0000000E+00;  4.0004617E+04; -2.2792768E-02;  0.0000000E+00;  6.1607193E-03;  5.6068939E+02;
  3.6176088E-01;  9.9999998E-03; -6.0006868E-02;4666; -5.5004493E-03;  0.0000000E+00; -3.9357145E-04;  1.0000416E+03;  1.0000000E-01;  3.4468163E+01;3; -2.0638442E+00;  0.0000000E+00; -4.5005079E-02;0; -1.6510073E-02;  4.0000871E+04;  0.0000000E+00;  3.4770381E-02;  4.0000000E+04;  0.0000000E+00;  4.0004691E+04; -2.2773787E-02;  0.0000000E+00;  6.2637138E-03;  5.8052716E+02;
  3.6176348E-01;  9.9999998E-03; -5.0007019E-02;4667; -5.4962183E-03;  0.0000000E+00; -3.1909559E-04;  1.0000755E+03;  1.0000000E-01;  6.2516750E+01;3; -2.0794201E+00;  0.0000000E+00; -3.7804134E-02;0; -1.6415996E-02;  4.0003547E+04;  0.0000000E+00;  2.8455660E-02;  4.0000000E+04;  0.0000000E+00;  4.0004375E+04; -2.2765374E-02;  0.0000000E+00;  6.3493778E-03;  5.5765710E+02;
  3.6176333E-01;  9.9999998E-03; -4.0006906E-02;4668; -5.4937913E-03;  0.0000000E+00; -2.4711364E-04;  1.0001058E+03;  1.0000000E-01;  8.7602463E+01;3; -2.0920968E+00;  0.0000000E+00; -3.0268908E-02;0; -1.6347077E-02;  4.0006848E+04;  0.0000000E+00;  2.0283140E-02;  4.0000000E+04;  0.0000000E+00;  4.0004109E+04; -2.2763494E-02;  0.0000000E+00;  6.4164186E-03;  5.0431497E+02;
  3.6176088E-01;  9.9999998E-03; -3.0006509E-02;4669; -5.4924907E-03;  0.0000000E+00; -1.7915659E-04;  1.0001367E+03;  1.0000000E-01;  1.1328075E+02;3; -2.1022062E+00;  0.0000000E+00; -2.2707891E-02;0; -1.6299706E-02;  4.0009789E+04;  0.0000000E+00;  1.2221595E-02;  4.0000000E+04;  0.0000000E+00;  4.0003664E+04; -2.2765046E-02;  0.0000000E+00;  6.4653410E-03;  4.3702838E+02;
  3.6175764E-01;  9.9999998E-03; -2.0005403E-02;4670; -5.4918230E-03;  0.0000000E+00; -1.1595221E-04;  1.0001593E+03;  1.0000000E-01;  1.3194688E+02;3; -2.1095245E+00;  0.0000000E+00; -1.5308301E-02;0; -1.6269699E-02;  4.0012289E+04;  0.0000000E+00;  5.6620114E-03;  4.0000000E+04;  0.0000000E+00;  4.0003020E+04; -2.2767624E-02;  0.0000000E+00;  6.4979247E-03;  3.7303241E+02;
  3.6175430E-01;  9.9999998E-03; -1.0003213E-02;4671; -5.4914681E-03;  0.0000000E+00; -5.6862857E-05;  1.0001787E+03;  1.0000000E-01;  1.4804520E+02;3; -2.1138477E+00;  0.0000000E+00; -7.5353635E-03;0; -1.6253429E-02;  4.0013801E+04;  0.0000000E+00;  1.4469206E-03;  4.0000000E+04;  0.0000000E+00;  4.0002566E+04; -2.2769701E-02;  0.0000000E+00;  6.5162717E-03;  3.2758505E+02;
  3.6175317E-01;  9.9999998E-03;  2.6524889E-09;4672; -5.4913326E-03;  0.0000000E+00;  6.8502954E-09;  1.0001836E+03;  1.0000000E-01;  1.5209447E+02;3; -2.1152005E+00;  0.0000000E+00;  6.5082831E-06;0; -1.6248360E-02;  4.0014465E+04;  0.0000000E+00; -3.0812245E-13;  4.0000000E+04;  0.0000000E+00;  4.0002461E+04; -2.2770541E-02;  0.0000000E+00;  6.5221796E-03;  3.1119373E+02;
  3.6175430E-01;  9.9999998E-03;  1.0003218E-02;4673; -5.4914709E-03;  0.0000000E+00;  5.6876230E-05;  1.0001787E+03;  1.0000000E-01;  1.4804520E+02;3; -2.1138477E+00;  0.0000000E+00;  7.5467308E-03;0; -1.6253447E-02;  4.0013801E+04;  0.0000000E+00;  1.4466853E-03;  4.0000000E+04;  0.0000000E+00;  4.0002570E+04; -2.2769716E-02;  0.0000000E+00;  6.5162689E-03;  3.2759375E+02;
  3.6175764E-01;  9.9999998E-03;  2.0005409E-02;4674; -5.4918285E-03;  0.0000000E+00;  1.1596538E-04;  1.0001593E+03;  1.0000000E-01;  1.3194688E+02;3; -2.1095240E+00;  0.0000000E+00;  1.5319023E-02;0; -1.6269721E-02;  4.0012285E+04;  0.0000000E+00;  5.6614997E-03;  4.0000000E+04;  0.0000000E+00;  4.0003020E+04; -2.2767648E-02;  0.0000000E+00;  6.4979261E-03;  3.7303830E+02;
  3.6176088E-01;  9.9999998E-03;  3.0006515E-02;4675; -5.4924977E-03;  0.0000000E+00;  1.7916934E-04;  1.0001367E+03;  1.0000000E-01;  1.1318198E+02;3; -2.1022038E+00;  0.0000000E+00;  2.2710282E-02;0; -1.6299684E-02;  4.0009785E+04;  0.0000000E+00;  1.2220751E-02;  4.0000000E+04;  0.0000000E+00;  4.0003664E+04; -2.2765031E-02;  0.0000000E+00;  6.4653479E-03;  4.3704184E+02;
  3.6176333E-01;  9.9999998E-03;  4.0006913E-02;4676; -5.4938006E-03;  0.0000000E+00;  2.4712615E-04;  1.0001058E+03;  1.0000000E-01;  8.7602463E+01;3; -2.0920773E+00;  0.0000000E+00;  3.0272096E-02;0; -1.6347121E-02;  4.0006848E+04;  0.0000000E+00;  2.0282995E-02;  4.0000000E+04;  0.0000000E+00;  4.0004109E+04; -2.2763545E-02;  0.0000000E+00;  6.4164228E-03;  5.0430762E+02;
  3.6176348E-01;  9.9999998E-03;  5.0007023E-02;4677; -5.4962290E-03;  0.0000000E+00;  3.1910761E-04;  1.0000755E+03;  1.0000000E-01;  6.2516750E+01;3; -2.0794113E+00;  0.0000000E+00;  3.7796494E-02;0; -1.6416034E-02;  4.0003551E+04;  0.0000000E+00;  2.8454453E-02;  4.0000000E+04;  0.0000000E+00;  4.0004375E+04; -2.2765417E-02;  0.0000000E+00;  6.3493825E-03;  5.5766162E+02;
  3.6176088E-01;  9.9999998E-03;  6.0006876E-02;4678; -5.5004619E-03;  0.0000000E+00;  3.9358315E-04;  1.0000416E+03;  1.0000000E-01;  3.4468163E+01;3; -2.0638437E+00;  0.0000000E+00;  4.4995748E-02;0; -1.6510095E-02;  4.0000867E+04;  0.0000000E+00;  3.4769461E-02;  4.0000000E+04;  0.0000000E+00;  4.0004695E+04; -2.2773813E-02;  0.0000000E+00;  6.2637189E-03;  5.8051086E+02;
  3.7174582E-01;  9.9999998E-03; -1.0000042E-01;4723; -5.7753404E-03;  0.0000000E+00; -7.3881517E-04;  9.9991052E+02;  1.0000000E-01; -7.4121361E+01;3; -2.0063407E+00;  0.0000000E+00; -8.0264166E-02;0; -1.7289143E-02;  3.9992977E+04;  0.0000000E+00;  3.1596273E-02;  4.0000000E+04;  0.0000000E+00;  4.0001996E+04; -2.3669746E-02;  0.0000000E+00;  6.3806036E-03;  2.6788354E+02;
  3.7173104E-01;  9.9999998E-03; -9.0003915E-02;4724; -5.7542827E-03;  0.0000000E+00; -6.6895765E-04;  9.9992993E+02;  1.0000000E-01; -5.8072433E+01;3; -2.0311253E+00;  0.0000000E+00; -7.2101146E-02;0; -1.7080296E-02;  3.9993516E+04;  0.0000000E+00;  4.6132989E-02;  4.0000000E+04;  0.0000000E+00;  4.0002918E+04; -2.3600467E-02;  0.0000000E+00;  6.5201712E-03;  3.8806708E+02;
  3.7172091E-01;  9.9999998E-03; -8.0005482E-02;4725; -5.7378146E-03;  0.0000000E+00; -5.9269229E-04;  9.9995508E+02;  1.0000000E-01; -3.7233517E+01;3; -2.0542562E+00;  0.0000000E+00; -6.4679235E-02;0; -1.6895942E-02;  3.9994598E+04;  0.0000000E+00;  5.1274795E-02;  4.0000000E+04;  0.0000000E+00;  4.0003480E+04; -2.3549000E-02;  0.0000000E+00;  6.6530574E-03;  4.7780533E+02;
  3.7171805E-01;  9.9999998E-03; -7.0006043E-02;4726; -5.7250257E-03;  0.0000000E+00; -5.1171257E-04;  9.9998486E+02;  1.0000000E-01; -1.2542855E+01;3; -2.0754335E+00;  0.0000000E+00; -5.6980748E-02;0; -1.6739614E-02;  3.9996625E+04;  0.0000000E+00;  4.8993699E-02;  4.0000000E+04;  0.0000000E+00;  4.0003867E+04; -2.3512367E-02;  0.0000000E+00;  6.7727533E-03;  5.2934460E+02;
  3.7171879E-01;  9.9999998E-03; -6.0006138E-02;4727; -5.7149753E-03;  0.0000000E+00; -4.2887617E-04;  1.0000162E+03;  1.0000000E-01;  1.3431719E+01;3; -2.0940857E+00;  0.0000000E+00; -4.8190132E-02;0; -1.6612614E-02;  3.9999359E+04;  0.0000000E+00;  4.1746747E-02;  4.0000000E+04;  0.0000000E+00;  4.0004289E+04; -2.3486990E-02;  0.0000000E+00;  6.8743769E-03;  5.4157538E+02;
  3.7171754E-01;  9.9999998E-03; -5.0005957E-02;4728; -5.7068006E-03;  0.0000000E+00; -3.4722770E-04;  1.0000543E+03;  1.0000000E-01;  4.5035763E+01;3; -2.1103668E+00;  0.0000000E+00; -4.1046035E-02;0; -1.6514234E-02;  4.0002422E+04;  0.0000000E+00;  3.2001272E-02;  4.0000000E+04;  0.0000000E+00;  4.0004188E+04; -2.3469618E-02;  0.0000000E+00;  6.9553833E-03;  5.1993817E+02;
  3.7171319E-01;  9.9999998E-03; -4.0005535E-02;4729; -5.7000560E-03;  0.0000000E+00; -2.6864174E-04;  1.0000933E+03;  1.0000000E-01;  7.7232384E+01;3; -2.1236238E+00;  0.0000000E+00; -3.2602623E-02;0; -1.6441893E-02;  4.0005531E+04;  0.0000000E+00;  2.1843195E-02;  4.0000000E+04;  0.0000000E+00;  4.0003926E+04; -2.3457693E-02;  0.0000000E+00;  7.0158010E-03;  4.7489838E+02;
  3.7170744E-01;  9.9999998E-03; -3.0004786E-02;4730; -5.6946739E-03;  0.0000000E+00; -1.9497254E-04;  1.0001219E+03;  1.0000000E-01;  1.0103418E+02;3; -2.1340206E+00;  0.0000000E+00; -2.4354869E-02;0; -1.6391965E-02;  4.0008473E+04;  0.0000000E+00;  1.2795453E-02;  4.0000000E+04;  0.0000000E+00;  4.0003543E+04; -2.3449598E-02;  0.0000000E+00;  7.0576337E-03;  4.1973703E+02;
  3.7170208E-01;  9.9999998E-03; -2.0003624E-02;4731; -5.6906408E-03;  0.0000000E+00; -1.2632780E-04;  1.0001486E+03;  1.0000000E-01;  1.2315701E+02;3; -2.1416581E+00;  0.0000000E+00; -1.6459182E-02;0; -1.6360337E-02;  4.0010918E+04;  0.0000000E+00;  5.8259899E-03;  4.0000000E+04;  0.0000000E+00;  4.0003258E+04; -2.3444377E-02;  0.0000000E+00;  7.0840400E-03;  3.6810956E+02;
  3.7169757E-01;  9.9999998E-03; -1.0002002E-02;4732; -5.6880782E-03;  0.0000000E+00; -6.1979452E-05;  1.0001636E+03;  1.0000000E-01;  1.3560110E+02;3; -2.1460192E+00;  0.0000000E+00; -8.3332900E-03;0; -1.6343148E-02;  4.0012371E+04;  0.0000000E+00;  1.4750473E-03;  4.0000000E+04;  0.0000000E+00;  4.0002820E+04; -2.3441348E-02;  0.0000000E+00;  7.0981998E-03;  3.3173401E+02;
  3.7169564E-01;  9.9999998E-03;  3.0654366E-09;4733; -5.6871776E-03;  0.0000000E+00;  8.3044451E-09;  1.0001699E+03;  1.0000000E-01;  1.4073676E+02;3; -2.1474407E+00;  0.0000000E+00;  6.2557783E-06;0; -1.6337745E-02;  4.0013047E+04;  0.0000000E+00;  1.0974827E-12;  4.0000000E+04;  0.0000000E+00;  4.0002695E+04; -2.3440352E-02;  0.0000000E+00;  7.1026073E-03;  3.1862482E+02;
  3.7169757E-01;  9.9999998E-03;  1.0002009E-02;4734; -5.6880810E-03;  0.0000000E+00;  6.1995779E-05;  1.0001636E+03;  1.0000000E-01;  1.3560110E+02;3; -2.1460207E+00;  0.0000000E+00;  8.3428146E-03;0; -1.6343154E-02;  4.0012371E+04;  0.0000000E+00;  1.4748159E-03;  4.0000000E+04;  0.0000000E+00;  4.0002820E+04; -2.3441352E-02;  0.0000000E+00;  7.0981984E-03;  3.3172943E+02;
  3.7170208E-01;  9.9999998E-03;  2.0003632E-02;4735; -5.6906459E-03;  0.0000000E+00;  1.2634361E-04;  1.0001487E+03;  1.0000000E-01;  1.2315701E+02;3; -2.1416578E+00;  0.0000000E+00;  1.6471731E-02;0; -1.6360376E-02;  4.0010918E+04;  0.0000000E+00;  5.8256001E-03;  4.0000000E+04;  0.0000000E+00;  4.0003258E+04; -2.3444412E-02;  0.0000000E+00;  7.0840362E-03;  3.6810303E+02;
  3.7170744E-01;  9.9999998E-03;  3.0004792E-02;4736; -5.6946808E-03;  0.0000000E+00;  1.9498804E-04;  1.0001219E+03;  1.0000000E-01;  1.0103418E+02;3; -2.1340065E+00;  0.0000000E+00;  2.4361795E-02;0; -1.6391978E-02;  4.0008473E+04;  0.0000000E+00;  1.2794764E-02;  4.0000000E+04;  0.0000000E+00;  4.0003543E+04; -2.3449617E-02;  0.0000000E+00;  7.0576398E-03;  4.1974527E+02;
  3.7171319E-01;  9.9999998E-03;  4.0005542E-02;4737; -5.7000662E-03;  0.0000000E+00;  2.6865589E-04;  1.0000933E+03;  1.0000000E-01;  7.7232384E+01;3; -2.1236181E+00;  0.0000000E+00;  3.2599863E-02;0; -1.6441934E-02;  4.0005531E+04;  0.0000000E+00;  2.1842290E-02;  4.0000000E+04;  0.0000000E+00;  4.0003926E+04; -2.3457740E-02;  0.0000000E+00;  7.0158062E-03;  4.7489737E+02;
  3.7171754E-01;  9.9999998E-03;  5.0005961E-02;4738; -5.7068123E-03;  0.0000000E+00;  3.4724065E-04;  1.0000544E+03;  1.0000000E-01;  4.5035763E+01;3; -2.1103725E+00;  0.0000000E+00;  4.1034203E-02;0; -1.6514258E-02;  4.0002414E+04;  0.0000000E+00;  3.1999897E-02;  4.0000000E+04;  0.0000000E+00;  4.0004188E+04; -2.3469646E-02;  0.0000000E+00;  6.9553871E-03;  5.1993170E+02;
  3.7171879E-01;  9.9999998E-03;  6.0006145E-02;4739; -5.7149888E-03;  0.0000000E+00;  4.2888921E-04;  1.0000163E+03;  1.0000000E-01;  1.3530481E+01;3; -2.0940890E+00;  0.0000000E+00;  4.8184898E-02;0; -1.6612694E-02;  3.9999355E+04;  0.0000000E+00;  4.1745946E-02;  4.0000000E+04;  0.0000000E+00;  4.0004289E+04; -2.3487067E-02;  0.0000000E+00;  6.8743727E-03;  5.4156689E+02;
  3.8178700E-01;  9.9999998E-03; -9.9996075E-02;4784; -6.0093594E-03;  0.0000000E+00; -8.0239435E-04;  9.9986292E+02;  1.0000000E-01; -1.1357703E+02;3; -2.0323699E+00;  0.0000000E+00; -8.2307875E-02;0; -1.7448708E-02;  3.9988609E+04;  0.0000000E+00;  6.4138837E-02;  4.0000000E+04;  0.0000000E+00;  4.0002082E+04; -2.4430821E-02;  0.0000000E+00;  6.9821123E-03;  2.8608469E+02;
  3.8176328E-01;  9.9999998E-03; -8.9999743E-02;4785; -5.9873681E-03;  0.0000000E+00; -7.2403956E-04;  9.9987683E+02;  1.0000000E-01; -1.0202180E+02;3; -2.0583591E+00;  0.0000000E+00; -7.4923947E-02;0; -1.7239001E-02;  3.9989117E+04;  0.0000000E+00;  6.9156878E-02;  4.0000000E+04;  0.0000000E+00;  4.0002699E+04; -2.4372686E-02;  0.0000000E+00;  7.1336860E-03;  3.7937167E+02;
  3.8173726E-01;  9.9999998E-03; -8.0001436E-02;4786; -5.9686815E-03;  0.0000000E+00; -6.3960283E-04;  9.9989404E+02;  1.0000000E-01; -8.7799988E+01;3; -2.0822730E+00;  0.0000000E+00; -6.7199394E-02;0; -1.7053021E-02;  3.9990070E+04;  0.0000000E+00;  6.6559367E-02;  4.0000000E+04;  0.0000000E+00;  4.0003320E+04; -2.4326561E-02;  0.0000000E+00;  7.2735394E-03;  4.4786957E+02;
  3.8171539E-01;  9.9999998E-03; -7.0001967E-02;4787; -5.9525850E-03;  0.0000000E+00; -5.5130874E-04;  9.9992120E+02;  1.0000000E-01; -6.5282104E+01;3; -2.1042669E+00;  0.0000000E+00; -5.8880944E-02;0; -1.6894693E-02;  3.9991500E+04;  0.0000000E+00;  5.8497071E-02;  4.0000000E+04;  0.0000000E+00;  4.0003785E+04; -2.4290569E-02;  0.0000000E+00;  7.3958770E-03;  4.8724518E+02;
  3.8169771E-01;  9.9999998E-03; -6.0002316E-02;4788; -5.9382920E-03;  0.0000000E+00; -4.6162680E-04;  9.9994733E+02;  1.0000000E-01; -4.3653088E+01;3; -2.1235752E+00;  0.0000000E+00; -5.0835460E-02;0; -1.6765801E-02;  3.9993582E+04;  0.0000000E+00;  4.7302932E-02;  4.0000000E+04;  0.0000000E+00;  4.0004051E+04; -2.4262566E-02;  0.0000000E+00;  7.4967653E-03;  4.9749225E+02;
  3.8168341E-01;  9.9999998E-03; -5.0002802E-02;4789; -5.9254868E-03;  0.0000000E+00; -3.7375189E-04;  9.9997180E+02;  1.0000000E-01; -2.3357365E+01;3; -2.1401415E+00;  0.0000000E+00; -4.2049117E-02;0; -1.6665822E-02;  3.9995980E+04;  0.0000000E+00;  3.5080254E-02;  4.0000000E+04;  0.0000000E+00;  4.0003707E+04; -2.4240650E-02;  0.0000000E+00;  7.5748283E-03;  4.8293787E+02;
  3.8167152E-01;  9.9999998E-03; -4.0003039E-02;4790; -5.9140045E-03;  0.0000000E+00; -2.8983716E-04;  9.9999927E+02;  1.0000000E-01; -5.9257585E-01;3; -2.1540415E+00;  0.0000000E+00; -3.4174312E-02;0; -1.6592365E-02;  3.9998246E+04;  0.0000000E+00;  2.3465093E-02;  4.0000000E+04;  0.0000000E+00;  4.0003484E+04; -2.4223512E-02;  0.0000000E+00;  7.6311473E-03;  4.5145279E+02;
  3.8166106E-01;  9.9999998E-03; -3.0002790E-02;4791; -5.9042531E-03;  0.0000000E+00; -2.1090606E-04;  1.0000242E+03;  1.0000000E-01;  2.0048815E+01;3; -2.1647937E+00;  0.0000000E+00; -2.5439998E-02;0; -1.6541686E-02;  4.0000312E+04;  0.0000000E+00;  1.3586580E-02;  4.0000000E+04;  0.0000000E+00;  4.0003102E+04; -2.4210272E-02;  0.0000000E+00;  7.6685855E-03;  4.1263739E+02;
  3.8165218E-01;  9.9999998E-03; -2.0002136E-02;4792; -5.8967210E-03;  0.0000000E+00; -1.3714466E-04;  1.0000425E+03;  1.0000000E-01;  3.5159500E+01;3; -2.1726158E+00;  0.0000000E+00; -1.7183017E-02;0; -1.6509585E-02;  4.0002133E+04;  0.0000000E+00;  6.1484291E-03;  4.0000000E+04;  0.0000000E+00;  4.0003191E+04; -2.4200683E-02;  0.0000000E+00;  7.6910988E-03;  3.7627075E+02;
  3.8164619E-01;  9.9999998E-03; -1.0001132E-02;4793; -5.8919066E-03;  0.0000000E+00; -6.7477347E-05;  1.0000495E+03;  1.0000000E-01;  4.0986496E+01;3; -2.1771977E+00;  0.0000000E+00; -8.7203039E-03;0; -1.6492195E-02;  4.0003559E+04;  0.0000000E+00;  1.5523740E-03;  4.0000000E+04;  0.0000000E+00;  4.0003098E+04; -2.4194855E-02;  0.0000000E+00;  7.7026607E-03;  3.5066608E+02;
  3.8164389E-01;  9.9999998E-03;  3.7409160E-09;4794; -5.8902539E-03;  0.0000000E+00;  9.9495185E-09;  1.0000560E+03;  1.0000000E-01;  4.6418442E+01;3; -2.1786842E+00;  0.0000000E+00;  6.9913831E-06;0; -1.6486695E-02;  4.0003969E+04;  0.0000000E+00;  2.5735796E-12;  4.0000000E+04;  0.0000000E+00;  4.0002914E+04; -2.4192862E-02;  0.0000000E+00;  7.7061667E-03;  3.4145767E+02;
  3.8164619E-01;  9.9999998E-03;  1.0001140E-02;4795; -5.8919098E-03;  0.0000000E+00;  6.7497138E-05;  1.0000494E+03;  1.0000000E-01;  4.0986496E+01;3; -2.1772065E+00;  0.0000000E+00;  8.7363850E-03;0; -1.6492212E-02;  4.0003562E+04;  0.0000000E+00;  1.5522582E-03;  4.0000000E+04;  0.0000000E+00;  4.0003098E+04; -2.4194876E-02;  0.0000000E+00;  7.7026635E-03;  3.5067017E+02;
  3.8165218E-01;  9.9999998E-03;  2.0002143E-02;4796; -5.8967257E-03;  0.0000000E+00;  1.3716363E-04;  1.0000425E+03;  1.0000000E-01;  3.5159500E+01;3; -2.1726179E+00;  0.0000000E+00;  1.7191667E-02;0; -1.6509634E-02;  4.0002133E+04;  0.0000000E+00;  6.1480147E-03;  4.0000000E+04;  0.0000000E+00;  4.0003191E+04; -2.4200724E-02;  0.0000000E+00;  7.6910914E-03;  3.7628159E+02;
  3.8166106E-01;  9.9999998E-03;  3.0002797E-02;4797; -5.9042606E-03;  0.0000000E+00;  2.1092419E-04;  1.0000242E+03;  1.0000000E-01;  2.0048815E+01;3; -2.1647949E+00;  0.0000000E+00;  2.5447877E-02;0; -1.6541708E-02;  4.0000312E+04;  0.0000000E+00;  1.3586369E-02;  4.0000000E+04;  0.0000000E+00;  4.0003102E+04; -2.4210287E-02;  0.0000000E+00;  7.6685795E-03;  4.1262851E+02;
  3.8167152E-01;  9.9999998E-03;  4.0003043E-02;4798; -5.9140134E-03;  0.0000000E+00;  2.8985381E-04;  9.9999921E+02;  1.0000000E-01; -6.4195716E-01;3; -2.1540365E+00;  0.0000000E+00;  3.4177583E-02;0; -1.6592383E-02;  3.9998246E+04;  0.0000000E+00;  2.3463737E-02;  4.0000000E+04;  0.0000000E+00;  4.0003484E+04; -2.4223527E-02;  0.0000000E+00;  7.6311426E-03;  4.5143604E+02;
  3.8168341E-01;  9.9999998E-03;  5.0002810E-02;4799; -5.9254980E-03;  0.0000000E+00;  3.7376871E-04;  9.9997180E+02;  1.0000000E-01; -2.3357365E+01;3; -2.1401429E+00;  0.0000000E+00;  4.2049151E-02;0; -1.6665844E-02;  3.9995977E+04;  0.0000000E+00;  3.5079800E-02;  4.0000000E+04;  0.0000000E+00;  4.0003707E+04; -2.4240676E-02;  0.0000000E+00;  7.5748325E-03;  4.8293460E+02;
  3.8169771E-01;  9.9999998E-03;  6.0002323E-02;4800; -5.9383060E-03;  0.0000000E+00;  4.6164278E-04;  9.9994733E+02;  1.0000000E-01; -4.3653088E+01;3; -2.1235702E+00;  0.0000000E+00;  5.0837539E-02;0; -1.6765829E-02;  3.9993594E+04;  0.0000000E+00;  4.7302734E-02;  4.0000000E+04;  0.0000000E+00;  4.0004051E+04; -2.4262607E-02;  0.0000000E+00;  7.4967789E-03;  4.9747418E+02;
  3.9182085E-01;  9.9999998E-03; -9.9990159E-02;4845; -6.2558660E-03;  0.0000000E+00; -8.5803034E-04;  9.9982880E+02;  1.0000000E-01; -1.4182315E+02;3; -2.0572555E+00;  0.0000000E+00; -8.2751051E-02;0; -1.7649177E-02;  3.9985293E+04;  0.0000000E+00;  9.0512224E-02;  4.0000000E+04;  0.0000000E+00;  4.0002059E+04; -2.5235964E-02;  0.0000000E+00;  7.5867861E-03;  2.8689090E+02;
  3.9180747E-01;  9.9999998E-03; -8.9992821E-02;4846; -6.2330440E-03;  0.0000000E+00; -7.7215856E-04;  9.9982556E+02;  1.0000000E-01; -1.4453912E+02;3; -2.0843041E+00;  0.0000000E+00; -7.5158685E-02;0; -1.7442243E-02;  3.9984996E+04;  0.0000000E+00;  8.7203570E-02;  4.0000000E+04;  0.0000000E+00;  4.0002656E+04; -2.5193600E-02;  0.0000000E+00;  7.7513573E-03;  3.5162793E+02;
  3.9178646E-01;  9.9999998E-03; -7.9994202E-02;4847; -6.2123253E-03;  0.0000000E+00; -6.8111182E-04;  9.9982867E+02;  1.0000000E-01; -1.4192191E+02;3; -2.1091838E+00;  0.0000000E+00; -6.7220196E-02;0; -1.7258473E-02;  3.9984879E+04;  0.0000000E+00;  7.8318395E-02;  4.0000000E+04;  0.0000000E+00;  4.0002875E+04; -2.5158564E-02;  0.0000000E+00;  7.9000918E-03;  4.0109644E+02;
  3.9176208E-01;  9.9999998E-03; -6.9995143E-02;4848; -6.1929999E-03;  0.0000000E+00; -5.8694929E-04;  9.9983643E+02;  1.0000000E-01; -1.3550233E+02;3; -2.1317675E+00;  0.0000000E+00; -5.9508547E-02;0; -1.7101984E-02;  3.9984832E+04;  0.0000000E+00;  6.5877639E-02;  4.0000000E+04;  0.0000000E+00;  4.0003250E+04; -2.5129663E-02;  0.0000000E+00;  8.0276784E-03;  4.3242139E+02;
  3.9173770E-01;  9.9999998E-03; -5.9995923E-02;4849; -6.1747478E-03;  0.0000000E+00; -4.9242837E-04;  9.9984424E+02;  1.0000000E-01; -1.2903339E+02;3; -2.1518021E+00;  0.0000000E+00; -5.1785681E-02;0; -1.6974546E-02;  3.9985395E+04;  0.0000000E+00;  5.1836941E-02;  4.0000000E+04;  0.0000000E+00;  4.0003582E+04; -2.5105616E-02;  0.0000000E+00;  8.1310701E-03;  4.4548618E+02;
  3.9171508E-01;  9.9999998E-03; -4.9996614E-02;4850; -6.1575063E-03;  0.0000000E+00; -3.9967670E-04;  9.9984973E+02;  1.0000000E-01; -1.2449030E+02;3; -2.1690145E+00;  0.0000000E+00; -4.2776573E-02;0; -1.6875833E-02;  3.9986145E+04;  0.0000000E+00;  3.7833389E-02;  4.0000000E+04;  0.0000000E+00;  4.0003500E+04; -2.5085572E-02;  0.0000000E+00;  8.2097398E-03;  4.4284579E+02;
  3.9169553E-01;  9.9999998E-03; -3.9997246E-02;4851; -6.1416621E-03;  0.0000000E+00; -3.1120147E-04;  9.9985767E+02;  1.0000000E-01; -1.1792259E+02;3; -2.1833541E+00;  0.0000000E+00; -3.4534104E-02;0; -1.6803518E-02;  3.9986844E+04;  0.0000000E+00;  2.5094267E-02;  4.0000000E+04;  0.0000000E+00;  4.0003312E+04; -2.5069037E-02;  0.0000000E+00;  8.2655195E-03;  4.2899261E+02;
  3.9168000E-01;  9.9999998E-03; -2.9997827E-02;4852; -6.1279652E-03;  0.0000000E+00; -2.2746799E-04;  9.9986517E+02;  1.0000000E-01; -1.1170055E+02;3; -2.1945038E+00;  0.0000000E+00; -2.5777619E-02;0; -1.6753837E-02;  3.9987758E+04;  0.0000000E+00;  1.4475795E-02;  4.0000000E+04;  0.0000000E+00;  4.0003160E+04; -2.5055846E-02;  0.0000000E+00;  8.3020087E-03;  4.0970282E+02;
  3.9166841E-01;  9.9999998E-03; -1.9998467E-02;4853; -6.1173197E-03;  0.0000000E+00; -1.4852908E-04;  9.9986908E+02;  1.0000000E-01; -1.0844138E+02;3; -2.2025354E+00;  0.0000000E+00; -1.7114334E-02;0; -1.6722471E-02;  3.9988238E+04;  0.0000000E+00;  6.5428773E-03;  4.0000000E+04;  0.0000000E+00;  4.0003184E+04; -2.5046086E-02;  0.0000000E+00;  8.3236145E-03;  3.9072934E+02;
  3.9166105E-01;  9.9999998E-03; -9.9992137E-03;4854; -6.1105243E-03;  0.0000000E+00; -7.3317839E-05;  9.9987329E+02;  1.0000000E-01; -1.0498469E+02;3; -2.2072811E+00;  0.0000000E+00; -8.9580202E-03;0; -1.6705511E-02;  3.9988809E+04;  0.0000000E+00;  1.6516095E-03;  4.0000000E+04;  0.0000000E+00;  4.0003023E+04; -2.5040055E-02;  0.0000000E+00;  8.3345436E-03;  3.7707919E+02;
  3.9165831E-01;  9.9999998E-03;  4.5450492E-09;4855; -6.1082030E-03;  0.0000000E+00;  1.1613116E-08;  9.9987476E+02;  1.0000000E-01; -1.0375015E+02;3; -2.2089069E+00;  0.0000000E+00;  6.3772977E-06;0; -1.6700203E-02;  3.9988863E+04;  0.0000000E+00;  1.2316636E-12;  4.0000000E+04;  0.0000000E+00;  4.0003031E+04; -2.5038008E-02;  0.0000000E+00;  8.3378050E-03;  3.7214014E+02;
  3.9166105E-01;  9.9999998E-03;  9.9992231E-03;4856; -6.1105266E-03;  0.0000000E+00;  7.3340801E-05;  9.9987329E+02;  1.0000000E-01; -1.0498469E+02;3; -2.2072866E+00;  0.0000000E+00;  8.9706210E-03;0; -1.6705539E-02;  3.9988805E+04;  0.0000000E+00;  1.6516469E-03;  4.0000000E+04;  0.0000000E+00;  4.0003023E+04; -2.5040075E-02;  0.0000000E+00;  8.3345370E-03;  3.7708347E+02;
  3.9166841E-01;  9.9999998E-03;  1.9998476E-02;4857; -6.1173248E-03;  0.0000000E+00;  1.4855148E-04;  9.9986914E+02;  1.0000000E-01; -1.0839200E+02;3; -2.2025454E+00;  0.0000000E+00;  1.7123850E-02;0; -1.6722526E-02;  3.9988234E+04;  0.0000000E+00;  6.5427287E-03;  4.0000000E+04;  0.0000000E+00;  4.0003188E+04; -2.5046136E-02;  0.0000000E+00;  8.3236089E-03;  3.9073325E+02;
  3.9168000E-01;  9.9999998E-03;  2.9997837E-02;4858; -6.1279736E-03;  0.0000000E+00;  2.2748917E-04;  9.9986517E+02;  1.0000000E-01; -1.1170055E+02;3; -2.1945028E+00;  0.0000000E+00;  2.5787596E-02;0; -1.6753843E-02;  3.9987758E+04;  0.0000000E+00;  1.4475421E-02;  4.0000000E+04;  0.0000000E+00;  4.0003152E+04; -2.5055857E-02;  0.0000000E+00;  8.3020143E-03;  4.0969357E+02;
  3.9169553E-01;  9.9999998E-03;  3.9997254E-02;4859; -6.1416719E-03;  0.0000000E+00;  3.1122123E-04;  9.9985767E+02;  1.0000000E-01; -1.1792259E+02;3; -2.1833498E+00;  0.0000000E+00;  3.4538221E-02;0; -1.6803551E-02;  3.9986848E+04;  0.0000000E+00;  2.5094045E-02;  4.0000000E+04;  0.0000000E+00;  4.0003316E+04; -2.5069062E-02;  0.0000000E+00;  8.2655093E-03;  4.2898618E+02;
  3.9171508E-01;  9.9999998E-03;  4.9996626E-02;4860; -6.1575184E-03;  0.0000000E+00;  3.9969556E-04;  9.9984973E+02;  1.0000000E-01; -1.2449030E+02;3; -2.1690230E+00;  0.0000000E+00;  4.2778466E-02;0; -1.6875865E-02;  3.9986145E+04;  0.0000000E+00;  3.7833087E-02;  4.0000000E+04;  0.0000000E+00;  4.0003500E+04; -2.5085606E-02;  0.0000000E+00;  8.2097407E-03;  4.4282816E+02;
  3.9173770E-01;  9.9999998E-03;  5.9995931E-02;4861; -6.1747618E-03;  0.0000000E+00;  4.9244735E-04;  9.9984418E+02;  1.0000000E-01; -1.2908276E+02;3; -2.1517951E+00;  0.0000000E+00;  5.1790785E-02;0; -1.6974630E-02;  3.9985395E+04;  0.0000000E+00;  5.1837172E-02;  4.0000000E+04;  0.0000000E+00;  4.0003578E+04; -2.5105711E-02;  0.0000000E+00;  8.1310812E-03;  4.4547937E+02;
  4.0182751E-01;  9.9999998E-03; -9.9988945E-02;4906; -6.5145893E-03;  0.0000000E+00; -9.0779079E-04;  9.9979926E+02;  1.0000000E-01; -1.6631628E+02;3; -2.0804062E+00;  0.0000000E+00; -8.1073448E-02;0; -1.7886423E-02;  3.9983148E+04;  0.0000000E+00;  1.1011744E-01;  4.0000000E+04;  0.0000000E+00;  4.0001695E+04; -2.6075048E-02;  0.0000000E+00;  8.1886258E-03;  2.6841315E+02;
  4.0182123E-01;  9.9999998E-03; -8.9989908E-02;4907; -6.4906920E-03;  0.0000000E+00; -8.1547187E-04;  9.9978693E+02;  1.0000000E-01; -1.7653822E+02;3; -2.1082807E+00;  0.0000000E+00; -7.3438011E-02;0; -1.7684733E-02;  3.9981613E+04;  0.0000000E+00;  1.0031077E-01;  4.0000000E+04;  0.0000000E+00;  4.0002223E+04; -2.6051397E-02;  0.0000000E+00;  8.3666630E-03;  3.0540704E+02;
  4.0180761E-01;  9.9999998E-03; -7.9990283E-02;4908; -6.4681452E-03;  0.0000000E+00; -7.1915082E-04;  9.9976288E+02;  1.0000000E-01; -1.9643889E+02;3; -2.1342022E+00;  0.0000000E+00; -6.6002570E-02;0; -1.7506126E-02;  3.9979891E+04;  0.0000000E+00;  8.6729988E-02;  4.0000000E+04;  0.0000000E+00;  4.0002660E+04; -2.6032139E-02;  0.0000000E+00;  8.5260132E-03;  3.3790109E+02;
  4.0178895E-01;  9.9999998E-03; -6.9990732E-02;4909; -6.4463029E-03;  0.0000000E+00; -6.2091113E-04;  9.9974597E+02;  1.0000000E-01; -2.1046318E+02;3; -2.1576900E+00;  0.0000000E+00; -5.8696002E-02;0; -1.7354354E-02;  3.9977945E+04;  0.0000000E+00;  7.1142145E-02;  4.0000000E+04;  0.0000000E+00;  4.0002539E+04; -2.6016332E-02;  0.0000000E+00;  8.6619779E-03;  3.6423126E+02;
  4.0176865E-01;  9.9999998E-03; -5.9991471E-02;4910; -6.4249756E-03;  0.0000000E+00; -5.2259694E-04;  9.9972760E+02;  1.0000000E-01; -2.2567262E+02;3; -2.1783826E+00;  0.0000000E+00; -5.0253976E-02;0; -1.7231140E-02;  3.9976312E+04;  0.0000000E+00;  5.5100400E-02;  4.0000000E+04;  0.0000000E+00;  4.0002762E+04; -2.6003204E-02;  0.0000000E+00;  8.7720640E-03;  3.8355154E+02;
  4.0174949E-01;  9.9999998E-03; -4.9992394E-02;4911; -6.4044846E-03;  0.0000000E+00; -4.2640665E-04;  9.9970892E+02;  1.0000000E-01; -2.4112898E+02;3; -2.1964073E+00;  0.0000000E+00; -4.1934982E-02;0; -1.7136164E-02;  3.9975098E+04;  0.0000000E+00;  3.9845001E-02;  4.0000000E+04;  0.0000000E+00;  4.0003070E+04; -2.5992377E-02;  0.0000000E+00;  8.8562127E-03;  3.9597620E+02;
  4.0173173E-01;  9.9999998E-03; -3.9993476E-02;4912; -6.3854433E-03;  0.0000000E+00; -3.3376299E-04;  9.9969208E+02;  1.0000000E-01; -2.5510390E+02;3; -2.2112079E+00;  0.0000000E+00; -3.3356737E-02;0; -1.7066823E-02;  3.9973562E+04;  0.0000000E+00;  2.6299354E-02;  4.0000000E+04;  0.0000000E+00;  4.0002836E+04; -2.5983248E-02;  0.0000000E+00;  8.9164246E-03;  4.0255313E+02;
  4.0171623E-01;  9.9999998E-03; -2.9994825E-02;4913; -6.3689109E-03;  0.0000000E+00; -2.4531045E-04;  9.9967981E+02;  1.0000000E-01; -2.6527646E+02;3; -2.2228737E+00;  0.0000000E+00; -2.5040260E-02;0; -1.7019466E-02;  3.9972570E+04;  0.0000000E+00;  1.5136629E-02;  4.0000000E+04;  0.0000000E+00;  4.0003109E+04; -2.5975863E-02;  0.0000000E+00;  8.9563979E-03;  4.0481949E+02;
  4.0170401E-01;  9.9999998E-03; -1.9996379E-02;4914; -6.3560139E-03;  0.0000000E+00; -1.6089383E-04;  9.9966724E+02;  1.0000000E-01; -2.7569589E+02;3; -2.2312071E+00;  0.0000000E+00; -1.6606934E-02;0; -1.6989704E-02;  3.9971887E+04;  0.0000000E+00;  6.8356311E-03;  4.0000000E+04;  0.0000000E+00;  4.0002902E+04; -2.5970271E-02;  0.0000000E+00;  8.9805666E-03;  4.0459518E+02;
  4.0169606E-01;  9.9999998E-03; -9.9981092E-03;4915; -6.3477745E-03;  0.0000000E+00; -7.9668236E-05;  9.9966443E+02;  1.0000000E-01; -2.7801682E+02;3; -2.2362189E+00;  0.0000000E+00; -8.3395680E-03;0; -1.6973665E-02;  3.9971348E+04;  0.0000000E+00;  1.7251396E-03;  4.0000000E+04;  0.0000000E+00;  4.0002941E+04; -2.5966737E-02;  0.0000000E+00;  8.9930724E-03;  4.0357761E+02;
  4.0169317E-01;  9.9999998E-03;  4.9065370E-09;4916; -6.3449494E-03;  0.0000000E+00;  1.3260313E-08;  9.9966028E+02;  1.0000000E-01; -2.8147351E+02;3; -2.2378342E+00;  0.0000000E+00;  6.2860763E-06;0; -1.6968660E-02;  3.9971262E+04;  0.0000000E+00; -7.0009292E-13;  4.0000000E+04;  0.0000000E+00;  4.0002812E+04; -2.5965555E-02;  0.0000000E+00;  8.9968955E-03;  4.0308331E+02;
  4.0169606E-01;  9.9999998E-03;  9.9981194E-03;4917; -6.3477773E-03;  0.0000000E+00;  7.9694408E-05;  9.9966437E+02;  1.0000000E-01; -2.7806622E+02;3; -2.2362230E+00;  0.0000000E+00;  8.3516547E-03;0; -1.6973695E-02;  3.9971344E+04;  0.0000000E+00;  1.7250796E-03;  4.0000000E+04;  0.0000000E+00;  4.0002941E+04; -2.5966767E-02;  0.0000000E+00;  8.9930724E-03;  4.0357495E+02;
  4.0170401E-01;  9.9999998E-03;  1.9996388E-02;4918; -6.3560191E-03;  0.0000000E+00;  1.6091907E-04;  9.9966724E+02;  1.0000000E-01; -2.7569589E+02;3; -2.2312143E+00;  0.0000000E+00;  1.6616780E-02;0; -1.6989723E-02;  3.9971898E+04;  0.0000000E+00;  6.8355892E-03;  4.0000000E+04;  0.0000000E+00;  4.0002902E+04; -2.5970288E-02;  0.0000000E+00;  8.9805657E-03;  4.0459113E+02;
  4.0171623E-01;  9.9999998E-03;  2.9994834E-02;4919; -6.3689193E-03;  0.0000000E+00;  2.4533464E-04;  9.9967975E+02;  1.0000000E-01; -2.6532584E+02;3; -2.2228856E+00;  0.0000000E+00;  2.5048887E-02;0; -1.7019497E-02;  3.9972566E+04;  0.0000000E+00;  1.5136256E-02;  4.0000000E+04;  0.0000000E+00;  4.0003109E+04; -2.5975892E-02;  0.0000000E+00;  8.9563951E-03;  4.0483182E+02;
  4.0173173E-01;  9.9999998E-03;  3.9993487E-02;4920; -6.3854540E-03;  0.0000000E+00;  3.3378601E-04;  9.9969214E+02;  1.0000000E-01; -2.5505452E+02;3; -2.2112062E+00;  0.0000000E+00;  3.3363014E-02;0; -1.7066857E-02;  3.9973566E+04;  0.0000000E+00;  2.6298797E-02;  4.0000000E+04;  0.0000000E+00;  4.0002832E+04; -2.5983276E-02;  0.0000000E+00;  8.9164190E-03;  4.0256113E+02;
  4.0174949E-01;  9.9999998E-03;  4.9992405E-02;4921; -6.4044963E-03;  0.0000000E+00;  4.2642839E-04;  9.9970886E+02;  1.0000000E-01; -2.4117836E+02;3; -2.1963959E+00;  0.0000000E+00;  4.1941419E-02;0; -1.7136194E-02;  3.9975098E+04;  0.0000000E+00;  3.9844844E-02;  4.0000000E+04;  0.0000000E+00;  4.0003070E+04; -2.5992401E-02;  0.0000000E+00;  8.8562081E-03;  3.9598016E+02;
  4.0176865E-01;  9.9999998E-03;  5.9991483E-02;4922; -6.4249905E-03;  0.0000000E+00;  5.2261789E-04;  9.9972760E+02;  1.0000000E-01; -2.2567262E+02;3; -2.1783760E+00;  0.0000000E+00;  5.0258618E-02;0; -1.7231215E-02;  3.9976312E+04;  0.0000000E+00;  5.5101246E-02;  4.0000000E+04;  0.0000000E+00;  4.0002762E+04; -2.6003286E-02;  0.0000000E+00;  8.7720715E-03;  3.8355182E+02;
  4.1181806E-01;  9.9999998E-03; -9.9991858E-02;4967; -6.7847678E-03;  0.0000000E+00; -9.5514645E-04;  9.9979401E+02;  1.0000000E-01; -1.7066183E+02;3; -2.1014347E+00;  0.0000000E+00; -7.6813042E-02;0; -1.8151328E-02;  3.9982492E+04;  0.0000000E+00;  1.2234382E-01;  4.0000000E+04;  0.0000000E+00;  4.0001004E+04; -2.6935970E-02;  0.0000000E+00;  8.7846424E-03;  2.3661130E+02;
  4.1181576E-01;  9.9999998E-03; -8.9991078E-02;4968; -6.7599323E-03;  0.0000000E+00; -8.5753115E-04;  9.9975793E+02;  1.0000000E-01; -2.0053754E+02;3; -2.1305561E+00;  0.0000000E+00; -7.0041306E-02;0; -1.7956126E-02;  3.9979656E+04;  0.0000000E+00;  1.0816751E-01;  4.0000000E+04;  0.0000000E+00;  4.0001301E+04; -2.6933908E-02;  0.0000000E+00;  8.9777810E-03;  2.4795247E+02;
  4.1180754E-01;  9.9999998E-03; -7.9990193E-02;4969; -6.7360536E-03;  0.0000000E+00; -7.5725414E-04;  9.9971472E+02;  1.0000000E-01; -2.3633899E+02;3; -2.1573596E+00;  0.0000000E+00; -6.2239856E-02;0; -1.7784005E-02;  3.9976039E+04;  0.0000000E+00;  9.1496065E-02;  4.0000000E+04;  0.0000000E+00;  4.0001461E+04; -2.6934348E-02;  0.0000000E+00;  9.1503430E-03;  2.6446991E+02;
  4.1179341E-01;  9.9999998E-03; -6.9989614E-02;4970; -6.7125312E-03;  0.0000000E+00; -6.5574719E-04;  9.9966968E+02;  1.0000000E-01; -2.7367126E+02;3; -2.1817613E+00;  0.0000000E+00; -5.4761078E-02;0; -1.7638192E-02;  3.9972191E+04;  0.0000000E+00;  7.3882401E-02;  4.0000000E+04;  0.0000000E+00;  4.0001992E+04; -2.6936414E-02;  0.0000000E+00;  9.2982231E-03;  2.8673785E+02;
  4.1177687E-01;  9.9999998E-03; -5.9989430E-02;4971; -6.6893776E-03;  0.0000000E+00; -5.5462442E-04;  9.9962469E+02;  1.0000000E-01; -3.1095416E+02;3; -2.2033830E+00;  0.0000000E+00; -4.7123045E-02;0; -1.7520320E-02;  3.9968316E+04;  0.0000000E+00;  5.6599405E-02;  4.0000000E+04;  0.0000000E+00;  4.0002375E+04; -2.6939664E-02;  0.0000000E+00;  9.4193453E-03;  3.1347491E+02;
  4.1176006E-01;  9.9999998E-03; -4.9989786E-02;4972; -6.6669662E-03;  0.0000000E+00; -4.5535367E-04;  9.9957654E+02;  1.0000000E-01; -3.5085428E+02;3; -2.2220111E+00;  0.0000000E+00; -3.8929768E-02;0; -1.7429769E-02;  3.9964684E+04;  0.0000000E+00;  4.0619425E-02;  4.0000000E+04;  0.0000000E+00;  4.0002625E+04; -2.6943469E-02;  0.0000000E+00;  9.5136994E-03;  3.4216519E+02;
  4.1174424E-01;  9.9999998E-03; -3.9990816E-02;4973; -6.6461861E-03;  0.0000000E+00; -3.5879199E-04;  9.9953430E+02;  1.0000000E-01; -3.8581625E+02;3; -2.2374740E+00;  0.0000000E+00; -3.1154960E-02;0; -1.7363975E-02;  3.9960984E+04;  0.0000000E+00;  2.6672445E-02;  4.0000000E+04;  0.0000000E+00;  4.0002574E+04; -2.6947174E-02;  0.0000000E+00;  9.5831994E-03;  3.6995874E+02;
  4.1173100E-01;  9.9999998E-03; -2.9992510E-02;4974; -6.6281911E-03;  0.0000000E+00; -2.6532903E-04;  9.9950146E+02;  1.0000000E-01; -4.1302536E+02;3; -2.2496097E+00;  0.0000000E+00; -2.3291888E-02;0; -1.7319284E-02;  3.9958227E+04;  0.0000000E+00;  1.5297332E-02;  4.0000000E+04;  0.0000000E+00;  4.0002867E+04; -2.6950495E-02;  0.0000000E+00;  9.6312109E-03;  3.9411536E+02;
  4.1172054E-01;  9.9999998E-03; -1.9994721E-02;4975; -6.6141780E-03;  0.0000000E+00; -1.7483212E-04;  9.9947113E+02;  1.0000000E-01; -4.3816046E+02;3; -2.2584136E+00;  0.0000000E+00; -1.5680145E-02;0; -1.7291393E-02;  3.9956066E+04;  0.0000000E+00;  6.8926704E-03;  4.0000000E+04;  0.0000000E+00;  4.0003027E+04; -2.6953023E-02;  0.0000000E+00;  9.6616289E-03;  4.1260385E+02;
  4.1171378E-01;  9.9999998E-03; -9.9972673E-03;4976; -6.6052470E-03;  0.0000000E+00; -8.6716558E-05;  9.9945886E+02;  1.0000000E-01; -4.4833301E+02;3; -2.2637274E+00;  0.0000000E+00; -7.8406120E-03;0; -1.7276403E-02;  3.9954855E+04;  0.0000000E+00;  1.7373009E-03;  4.0000000E+04;  0.0000000E+00;  4.0003051E+04; -2.6954543E-02;  0.0000000E+00;  9.6781403E-03;  4.2413116E+02;
  4.1171136E-01;  9.9999998E-03;  5.1763105E-09;4977; -6.6021574E-03;  0.0000000E+00;  1.4872438E-08;  9.9945270E+02;  1.0000000E-01; -4.5341928E+02;3; -2.2654803E+00;  0.0000000E+00;  5.9726790E-06;0; -1.7271794E-02;  3.9954590E+04;  0.0000000E+00; -1.4389212E-12;  4.0000000E+04;  0.0000000E+00;  4.0003121E+04; -2.6955120E-02;  0.0000000E+00;  9.6833259E-03;  4.2803809E+02;
  4.1171378E-01;  9.9999998E-03;  9.9972775E-03;4978; -6.6052498E-03;  0.0000000E+00;  8.6745793E-05;  9.9945880E+02;  1.0000000E-01; -4.4838239E+02;3; -2.2637315E+00;  0.0000000E+00;  7.8522945E-03;0; -1.7276406E-02;  3.9954852E+04;  0.0000000E+00;  1.7373811E-03;  4.0000000E+04;  0.0000000E+00;  4.0003051E+04; -2.6954545E-02;  0.0000000E+00;  9.6781394E-03;  4.2412521E+02;
  4.1172054E-01;  9.9999998E-03;  1.9994732E-02;4979; -6.6141831E-03;  0.0000000E+00;  1.7486025E-04;  9.9947119E+02;  1.0000000E-01; -4.3811105E+02;3; -2.2584124E+00;  0.0000000E+00;  1.5690619E-02;0; -1.7291404E-02;  3.9956062E+04;  0.0000000E+00;  6.8926252E-03;  4.0000000E+04;  0.0000000E+00;  4.0003023E+04; -2.6953030E-02;  0.0000000E+00;  9.6616261E-03;  4.1260693E+02;
  4.1173100E-01;  9.9999998E-03;  2.9992521E-02;4980; -6.6281985E-03;  0.0000000E+00;  2.6535580E-04;  9.9950140E+02;  1.0000000E-01; -4.1307474E+02;3; -2.2496009E+00;  0.0000000E+00;  2.3300068E-02;0; -1.7319323E-02;  3.9958230E+04;  0.0000000E+00;  1.5297743E-02;  4.0000000E+04;  0.0000000E+00;  4.0002867E+04; -2.6950531E-02;  0.0000000E+00;  9.6312072E-03;  3.9411481E+02;
  4.1174424E-01;  9.9999998E-03;  3.9990824E-02;4981; -6.6461964E-03;  0.0000000E+00;  3.5881740E-04;  9.9953430E+02;  1.0000000E-01; -3.8581625E+02;3; -2.2374723E+00;  0.0000000E+00;  3.1160774E-02;0; -1.7363995E-02;  3.9960984E+04;  0.0000000E+00;  2.6671968E-02;  4.0000000E+04;  0.0000000E+00;  4.0002574E+04; -2.6947204E-02;  0.0000000E+00;  9.5832087E-03;  3.6995657E+02;
  4.1176003E-01;  9.9999998E-03;  4.9989797E-02;4982; -6.6669779E-03;  0.0000000E+00;  4.5537794E-04;  9.9957654E+02;  1.0000000E-01; -3.5085428E+02;3; -2.2220078E+00;  0.0000000E+00;  3.8933460E-02;0; -1.7429788E-02;  3.9964691E+04;  0.0000000E+00;  4.0619563E-02;  4.0000000E+04;  0.0000000E+00;  4.0002625E+04; -2.6943503E-02;  0.0000000E+00;  9.5137153E-03;  3.4216577E+02;
  4.1177687E-01;  9.9999998E-03;  5.9989441E-02;4983; -6.6893925E-03;  0.0000000E+00;  5.5464782E-04;  9.9962469E+02;  1.0000000E-01; -3.1095416E+02;3; -2.2033825E+00;  0.0000000E+00;  4.7123700E-02;0; -1.7520349E-02;  3.9968316E+04;  0.0000000E+00;  5.6599557E-02;  4.0000000E+04;  0.0000000E+00;  4.0002375E+04; -2.6939711E-02;  0.0000000E+00;  9.4193611E-03;  3.1346317E+02;
  4.2180756E-01;  9.9999998E-03; -9.9997111E-02;5028; -7.0652855E-03;  0.0000000E+00; -1.0045990E-03;  9.9979883E+02;  1.0000000E-01; -1.6666196E+02;3; -2.1207983E+00;  0.0000000E+00; -6.9743544E-02;0; -1.8432332E-02;  3.9983117E+04;  0.0000000E+00;  1.2639338E-01;  4.0000000E+04;  0.0000000E+00;  4.0000500E+04; -2.7805585E-02;  0.0000000E+00;  9.3732532E-03;  2.0222060E+02;
  4.2181131E-01;  9.9999998E-03; -8.9994967E-02;5029; -7.0399456E-03;  0.0000000E+00; -9.0241223E-04;  9.9974481E+02;  1.0000000E-01; -2.1140143E+02;3; -2.1509690E+00;  0.0000000E+00; -6.2386483E-02;0; -1.8243261E-02;  3.9979035E+04;  0.0000000E+00;  1.1017276E-01;  4.0000000E+04;  0.0000000E+00;  4.0000707E+04; -2.7827859E-02;  0.0000000E+00;  9.5845973E-03;  1.9254457E+02;
  4.2180815E-01;  9.9999998E-03; -7.9992972E-02;5030; -7.0154793E-03;  0.0000000E+00; -7.9870562E-04;  9.9968091E+02;  1.0000000E-01; -2.6433820E+02;3; -2.1788383E+00;  0.0000000E+00; -5.5437133E-02;0; -1.8077105E-02;  3.9973914E+04;  0.0000000E+00;  9.2121795E-02;  4.0000000E+04;  0.0000000E+00;  4.0000945E+04; -2.7851317E-02;  0.0000000E+00;  9.7742109E-03;  1.9275786E+02;
  4.2180067E-01;  9.9999998E-03; -6.9991305E-02;5031; -6.9915028E-03;  0.0000000E+00; -6.9455942E-04;  9.9961566E+02;  1.0000000E-01; -3.1841074E+02;3; -2.2041361E+00;  0.0000000E+00; -4.8623141E-02;0; -1.7936848E-02;  3.9968227E+04;  0.0000000E+00;  7.3686853E-02;  4.0000000E+04;  0.0000000E+00;  4.0001137E+04; -2.7875548E-02;  0.0000000E+00;  9.9387011E-03;  2.0885492E+02;
  4.2179045E-01;  9.9999998E-03; -5.9990145E-02;5032; -6.9679930E-03;  0.0000000E+00; -5.9075281E-04;  9.9954730E+02;  1.0000000E-01; -3.7505112E+02;3; -2.2265940E+00;  0.0000000E+00; -4.1077733E-02;0; -1.7823651E-02;  3.9962301E+04;  0.0000000E+00;  5.6002200E-02;  4.0000000E+04;  0.0000000E+00;  4.0001707E+04; -2.7899742E-02;  0.0000000E+00;  1.0076090E-02;  2.4130281E+02;
  4.2177871E-01;  9.9999998E-03; -4.9989734E-02;5033; -6.9453716E-03;  0.0000000E+00; -4.8825791E-04;  9.9947394E+02;  1.0000000E-01; -4.3583954E+02;3; -2.2459159E+00;  0.0000000E+00; -3.4240868E-02;0; -1.7736794E-02;  3.9956367E+04;  0.0000000E+00;  3.9921176E-02;  4.0000000E+04;  0.0000000E+00;  4.0001816E+04; -2.7922880E-02;  0.0000000E+00;  1.0186085E-02;  2.8497684E+02;
  4.2176664E-01;  9.9999998E-03; -3.9990276E-02;5034; -6.9245240E-03;  0.0000000E+00; -3.8736386E-04;  9.9941284E+02;  1.0000000E-01; -4.8645538E+02;3; -2.2619321E+00;  0.0000000E+00; -2.7466031E-02;0; -1.7673800E-02;  3.9951176E+04;  0.0000000E+00;  2.6066633E-02;  4.0000000E+04;  0.0000000E+00;  4.0001965E+04; -2.7943870E-02;  0.0000000E+00;  1.0270070E-02;  3.3257574E+02;
  4.2175558E-01;  9.9999998E-03; -2.9991753E-02;5035; -6.9065858E-03;  0.0000000E+00; -2.8824716E-04;  9.9936127E+02;  1.0000000E-01; -5.2917023E+02;3; -2.2745960E+00;  0.0000000E+00; -2.0941254E-02;0; -1.7630951E-02;  3.9946898E+04;  0.0000000E+00;  1.4882133E-02;  4.0000000E+04;  0.0000000E+00;  4.0002344E+04; -2.7961550E-02;  0.0000000E+00;  1.0330599E-02;  3.7708459E+02;
  4.2174610E-01;  9.9999998E-03; -1.9994004E-02;5036; -6.8926611E-03;  0.0000000E+00; -1.9083929E-04;  9.9931818E+02;  1.0000000E-01; -5.6487292E+02;3; -2.2837198E+00;  0.0000000E+00; -1.3972225E-02;0; -1.7604133E-02;  3.9943293E+04;  0.0000000E+00;  6.6829128E-03;  4.0000000E+04;  0.0000000E+00;  4.0002676E+04; -2.7974892E-02;  0.0000000E+00;  1.0370759E-02;  4.1281268E+02;
  4.2174023E-01;  9.9999998E-03; -9.9968454E-03;5037; -6.8838522E-03;  0.0000000E+00; -9.5007672E-05;  9.9929309E+02;  1.0000000E-01; -5.8566248E+02;3; -2.2892113E+00;  0.0000000E+00; -6.9556357E-03;0; -1.7589806E-02;  3.9941309E+04;  0.0000000E+00;  1.6809059E-03;  4.0000000E+04;  0.0000000E+00;  4.0002836E+04; -2.7983297E-02;  0.0000000E+00;  1.0393491E-02;  4.3582520E+02;
  4.2173812E-01;  9.9999998E-03;  5.4689013E-09;5038; -6.8808296E-03;  0.0000000E+00;  1.6326615E-08;  9.9928455E+02;  1.0000000E-01; -5.9272400E+02;3; -2.2910633E+00;  0.0000000E+00;  5.3894637E-06;0; -1.7585322E-02;  3.9940609E+04;  0.0000000E+00; -2.4619460E-12;  4.0000000E+04;  0.0000000E+00;  4.0002859E+04; -2.7986145E-02;  0.0000000E+00;  1.0400822E-02;  4.4375943E+02;
  4.2174026E-01;  9.9999998E-03;  9.9968566E-03;5039; -6.8838550E-03;  0.0000000E+00;  9.5039846E-05;  9.9929309E+02;  1.0000000E-01; -5.8566248E+02;3; -2.2892177E+00;  0.0000000E+00;  6.9670258E-03;0; -1.7589841E-02;  3.9941316E+04;  0.0000000E+00;  1.6809455E-03;  4.0000000E+04;  0.0000000E+00;  4.0002840E+04; -2.7983340E-02;  0.0000000E+00;  1.0393498E-02;  4.3582504E+02;
  4.2174610E-01;  9.9999998E-03;  1.9994013E-02;5040; -6.8926667E-03;  0.0000000E+00;  1.9087031E-04;  9.9931812E+02;  1.0000000E-01; -5.6492230E+02;3; -2.2837250E+00;  0.0000000E+00;  1.3982710E-02;0; -1.7604165E-02;  3.9943289E+04;  0.0000000E+00;  6.6828118E-03;  4.0000000E+04;  0.0000000E+00;  4.0002676E+04; -2.7974915E-02;  0.0000000E+00;  1.0370751E-02;  4.1281927E+02;
  4.2175558E-01;  9.9999998E-03;  2.9991765E-02;5041; -6.9065932E-03;  0.0000000E+00;  2.8827647E-04;  9.9936127E+02;  1.0000000E-01; -5.2917023E+02;3; -2.2745881E+00;  0.0000000E+00;  2.0950178E-02;0; -1.7630948E-02;  3.9946898E+04;  0.0000000E+00;  1.4881934E-02;  4.0000000E+04;  0.0000000E+00;  4.0002344E+04; -2.7961556E-02;  0.0000000E+00;  1.0330608E-02;  3.7708954E+02;
  4.2176664E-01;  9.9999998E-03;  3.9990287E-02;5042; -6.9245347E-03;  0.0000000E+00;  3.8739163E-04;  9.9941284E+02;  1.0000000E-01; -4.8645538E+02;3; -2.2619314E+00;  0.0000000E+00;  2.7473463E-02;0; -1.7673813E-02;  3.9951176E+04;  0.0000000E+00;  2.6065635E-02;  4.0000000E+04;  0.0000000E+00;  4.0001969E+04; -2.7943879E-02;  0.0000000E+00;  1.0270067E-02;  3.3257767E+02;
  4.2177871E-01;  9.9999998E-03;  4.9989745E-02;5043; -6.9453856E-03;  0.0000000E+00;  4.8828445E-04;  9.9947400E+02;  1.0000000E-01; -4.3579013E+02;3; -2.2459178E+00;  0.0000000E+00;  3.4244884E-02;0; -1.7736804E-02;  3.9956371E+04;  0.0000000E+00;  3.9921638E-02;  4.0000000E+04;  0.0000000E+00;  4.0001816E+04; -2.7922912E-02;  0.0000000E+00;  1.0186107E-02;  2.8498450E+02;
  4.2179045E-01;  9.9999998E-03;  5.9990156E-02;5044; -6.9680088E-03;  0.0000000E+00;  5.9077883E-04;  9.9954730E+02;  1.0000000E-01; -3.7505112E+02;3; -2.2265880E+00;  0.0000000E+00;  4.1082632E-02;0; -1.7823704E-02;  3.9962293E+04;  0.0000000E+00;  5.6002602E-02;  4.0000000E+04;  0.0000000E+00;  4.0001711E+04; -2.7899807E-02;  0.0000000E+00;  1.0076103E-02;  2.4130690E+02;
  4.3180445E-01;  9.9999998E-03; -1.0000362E-01;5089; -7.3546953E-03;  0.0000000E+00; -1.0595537E-03;  9.9981494E+02;  1.0000000E-01; -1.5332899E+02;3; -2.1378586E+00;  0.0000000E+00; -5.8018740E-02;0; -1.8717628E-02;  3.9985055E+04;  0.0000000E+00;  1.2158684E-01;  4.0000000E+04;  0.0000000E+00;  4.0000055E+04; -2.8671166E-02;  0.0000000E+00;  9.9535380E-03;  1.7538377E+02;
  4.3181276E-01;  9.9999998E-03; -9.0000518E-02;5090; -7.3292898E-03;  0.0000000E+00; -9.5348497E-04;  9.9974896E+02;  1.0000000E-01; -2.0799411E+02;3; -2.1693528E+00;  0.0000000E+00; -5.2178152E-02;0; -1.8532455E-02;  3.9979754E+04;  0.0000000E+00;  1.0574906E-01;  4.0000000E+04;  0.0000000E+00;  4.0000109E+04; -2.8719567E-02;  0.0000000E+00;  1.0187111E-02;  1.5465260E+02;
  4.3181697E-01;  9.9999998E-03; -7.9997487E-02;5091; -7.3051336E-03;  0.0000000E+00; -8.4673549E-04;  9.9967126E+02;  1.0000000E-01; -2.7233798E+02;3; -2.1981597E+00;  0.0000000E+00; -4.5671806E-02;0; -1.8370045E-02;  3.9973664E+04;  0.0000000E+00;  8.8200912E-02;  4.0000000E+04;  0.0000000E+00;  4.0000242E+04; -2.8768692E-02;  0.0000000E+00;  1.0398647E-02;  1.3908403E+02;
  4.3181702E-01;  9.9999998E-03; -6.9994852E-02;5092; -7.2818594E-03;  0.0000000E+00; -7.3977560E-04;  9.9958362E+02;  1.0000000E-01; -3.4497791E+02;3; -2.2244203E+00;  0.0000000E+00; -3.9726850E-02;0; -1.8232867E-02;  3.9966453E+04;  0.0000000E+00;  7.0337050E-02;  4.0000000E+04;  0.0000000E+00;  4.0000594E+04; -2.8817894E-02;  0.0000000E+00;  1.0585026E-02;  1.4297462E+02;
  4.3181387E-01;  9.9999998E-03; -5.9992936E-02;5093; -7.2594630E-03;  0.0000000E+00; -6.3286367E-04;  9.9949744E+02;  1.0000000E-01; -4.1638327E+02;3; -2.2476959E+00;  0.0000000E+00; -3.3781294E-02;0; -1.8121924E-02;  3.9958988E+04;  0.0000000E+00;  5.3269859E-02;  4.0000000E+04;  0.0000000E+00;  4.0000680E+04; -2.8866097E-02;  0.0000000E+00;  1.0744173E-02;  1.7609816E+02;
  4.3180835E-01;  9.9999998E-03; -4.9991984E-02;5094; -7.2382968E-03;  0.0000000E+00; -5.2633212E-04;  9.9941193E+02;  1.0000000E-01; -4.8719611E+02;3; -2.2676227E+00;  0.0000000E+00; -2.7833300E-02;0; -1.8036379E-02;  3.9951988E+04;  0.0000000E+00;  3.7829001E-02;  4.0000000E+04;  0.0000000E+00;  4.0001102E+04; -2.8911674E-02;  0.0000000E+00;  1.0875296E-02;  2.3128290E+02;
  4.3180069E-01;  9.9999998E-03; -3.9992008E-02;5095; -7.2190841E-03;  0.0000000E+00; -4.2024197E-04;  9.9933453E+02;  1.0000000E-01; -5.5134241E+02;3; -2.2842977E+00;  0.0000000E+00; -2.2128044E-02;0; -1.7973872E-02;  3.9945367E+04;  0.0000000E+00;  2.4605071E-02;  4.0000000E+04;  0.0000000E+00;  4.0001746E+04; -2.8952682E-02;  0.0000000E+00;  1.0978810E-02;  2.9514996E+02;
  4.3179259E-01;  9.9999998E-03; -2.9993070E-02;5096; -7.2027161E-03;  0.0000000E+00; -3.1470877E-04;  9.9926862E+02;  1.0000000E-01; -6.0595819E+02;3; -2.2974579E+00;  0.0000000E+00; -1.6703784E-02;0; -1.7930934E-02;  3.9939715E+04;  0.0000000E+00;  1.3998639E-02;  4.0000000E+04;  0.0000000E+00;  4.0002113E+04; -2.8987169E-02;  0.0000000E+00;  1.1056235E-02;  3.5642151E+02;
  4.3178552E-01;  9.9999998E-03; -1.9994920E-02;5097; -7.1901232E-03;  0.0000000E+00; -2.0959668E-04;  9.9922327E+02;  1.0000000E-01; -6.4348798E+02;3; -2.3069665E+00;  0.0000000E+00; -1.1188546E-02;0; -1.7903840E-02;  3.9935453E+04;  0.0000000E+00;  6.2684547E-03;  4.0000000E+04;  0.0000000E+00;  4.0002574E+04; -2.9013354E-02;  0.0000000E+00;  1.1109514E-02;  4.0631439E+02;
  4.3178058E-01;  9.9999998E-03; -9.9972859E-03;5098; -7.1821506E-03;  0.0000000E+00; -1.0477849E-04;  9.9918964E+02;  1.0000000E-01; -6.7138843E+02;3; -2.3126757E+00;  0.0000000E+00; -5.6882114E-03;0; -1.7889112E-02;  3.9932863E+04;  0.0000000E+00;  1.5738488E-03;  4.0000000E+04;  0.0000000E+00;  4.0002793E+04; -2.9029682E-02;  0.0000000E+00;  1.1140571E-02;  4.3877969E+02;
  4.3177909E-01;  9.9999998E-03;  5.7648286E-09;5099; -7.1794433E-03;  0.0000000E+00;  1.7650175E-08;  9.9917792E+02;  1.0000000E-01; -6.8106714E+02;3; -2.3145759E+00;  0.0000000E+00;  7.3375322E-06;0; -1.7884526E-02;  3.9931867E+04;  0.0000000E+00; -2.2249303E-12;  4.0000000E+04;  0.0000000E+00;  4.0003008E+04; -2.9035298E-02;  0.0000000E+00;  1.1150773E-02;  4.4997458E+02;
  4.3178058E-01;  9.9999998E-03;  9.9972971E-03;5100; -7.1821534E-03;  0.0000000E+00;  1.0481328E-04;  9.9918970E+02;  1.0000000E-01; -6.7133905E+02;3; -2.3126788E+00;  0.0000000E+00;  5.6986539E-03;0; -1.7889112E-02;  3.9932863E+04;  0.0000000E+00;  1.5738175E-03;  4.0000000E+04;  0.0000000E+00;  4.0002793E+04; -2.9029684E-02;  0.0000000E+00;  1.1140571E-02;  4.3878622E+02;
  4.3178552E-01;  9.9999998E-03;  1.9994931E-02;5101; -7.1901288E-03;  0.0000000E+00;  2.0963006E-04;  9.9922314E+02;  1.0000000E-01; -6.4358673E+02;3; -2.3069634E+00;  0.0000000E+00;  1.1198937E-02;0; -1.7903853E-02;  3.9935457E+04;  0.0000000E+00;  6.2684421E-03;  4.0000000E+04;  0.0000000E+00;  4.0002574E+04; -2.9013384E-02;  0.0000000E+00;  1.1109530E-02;  4.0631882E+02;
  4.3179259E-01;  9.9999998E-03;  2.9993081E-02;5102; -7.2027245E-03;  0.0000000E+00;  3.1474073E-04;  9.9926862E+02;  1.0000000E-01; -6.0595819E+02;3; -2.2974577E+00;  0.0000000E+00;  1.6713034E-02;0; -1.7930998E-02;  3.9939715E+04;  0.0000000E+00;  1.3999022E-02;  4.0000000E+04;  0.0000000E+00;  4.0002113E+04; -2.8987238E-02;  0.0000000E+00;  1.1056241E-02;  3.5641965E+02;
  4.3180069E-01;  9.9999998E-03;  3.9992020E-02;5103; -7.2190948E-03;  0.0000000E+00;  4.2027212E-04;  9.9933435E+02;  1.0000000E-01; -5.5149060E+02;3; -2.2843001E+00;  0.0000000E+00;  2.2134338E-02;0; -1.7973963E-02;  3.9945371E+04;  0.0000000E+00;  2.4604753E-02;  4.0000000E+04;  0.0000000E+00;  4.0001746E+04; -2.8952787E-02;  0.0000000E+00;  1.0978824E-02;  2.9515637E+02;
  4.3180832E-01;  9.9999998E-03;  4.9991995E-02;5104; -7.2383108E-03;  0.0000000E+00;  5.2636105E-04;  9.9941187E+02;  1.0000000E-01; -4.8724548E+02;3; -2.2676208E+00;  0.0000000E+00;  2.7835703E-02;0; -1.8036392E-02;  3.9951992E+04;  0.0000000E+00;  3.7829135E-02;  4.0000000E+04;  0.0000000E+00;  4.0001109E+04; -2.8911708E-02;  0.0000000E+00;  1.0875316E-02;  2.3127798E+02;
  4.3181387E-01;  9.9999998E-03;  5.9992947E-02;5105; -7.2594793E-03;  0.0000000E+00;  6.3289219E-04;  9.9949744E+02;  1.0000000E-01; -4.1638327E+02;3; -2.2476892E+00;  0.0000000E+00;  3.3785511E-02;0; -1.8121937E-02;  3.9958992E+04;  0.0000000E+00;  5.3268399E-02;  4.0000000E+04;  0.0000000E+00;  4.0000680E+04; -2.8866138E-02;  0.0000000E+00;  1.0744201E-02;  1.7609012E+02;
  4.4180444E-01;  9.9999998E-03; -1.0001007E-01;5150; -7.6513784E-03;  0.0000000E+00; -1.1233912E-03;  9.9983960E+02;  1.0000000E-01; -1.3288513E+02;3; -2.1524823E+00;  0.0000000E+00; -4.4520635E-02;0; -1.8996943E-02;  3.9987336E+04;  0.0000000E+00;  1.0776509E-01;  4.0000000E+04;  0.0000000E+00;  3.9999793E+04; -2.9521797E-02;  0.0000000E+00;  1.0524853E-02;  1.5793282E+02;
  4.4181648E-01;  9.9999998E-03; -9.0006068E-02;5151; -7.6263291E-03;  0.0000000E+00; -1.0134905E-03;  9.9976660E+02;  1.0000000E-01; -1.9337724E+02;3; -2.1851540E+00;  0.0000000E+00; -3.9140195E-02;0; -1.8811967E-02;  3.9981578E+04;  0.0000000E+00;  9.4601907E-02;  4.0000000E+04;  0.0000000E+00;  3.9999504E+04; -2.9597420E-02;  0.0000000E+00;  1.0785454E-02;  1.3863670E+02;
  4.4182518E-01;  9.9999998E-03; -8.0002017E-02;5152; -7.6031866E-03;  0.0000000E+00; -9.0338610E-04;  9.9968463E+02;  1.0000000E-01; -2.6127655E+02;3; -2.2151358E+00;  0.0000000E+00; -3.3996329E-02;0; -1.8649286E-02;  3.9974816E+04;  0.0000000E+00;  7.9485498E-02;  4.0000000E+04;  0.0000000E+00;  3.9999672E+04; -2.9673347E-02;  0.0000000E+00;  1.1024062E-02;  1.1378137E+02;
  4.4183046E-01;  9.9999998E-03; -6.9998488E-02;5153; -7.5816270E-03;  0.0000000E+00; -7.9283857E-04;  9.9959143E+02;  1.0000000E-01; -3.3850894E+02;3; -2.2423613E+00;  0.0000000E+00; -2.8774710E-02;0; -1.8511161E-02;  3.9967211E+04;  0.0000000E+00;  6.3739285E-02;  4.0000000E+04;  0.0000000E+00;  4.0000035E+04; -2.9748863E-02;  0.0000000E+00;  1.1237700E-02;  1.0051285E+02;
  4.4183299E-01;  9.9999998E-03; -5.9995919E-02;5154; -7.5615975E-03;  0.0000000E+00; -6.8172131E-04;  9.9949561E+02;  1.0000000E-01; -4.1786472E+02;3; -2.2664056E+00;  0.0000000E+00; -2.3889422E-02;0; -1.8398549E-02;  3.9959125E+04;  0.0000000E+00;  4.8459888E-02;  4.0000000E+04;  0.0000000E+00;  4.0000430E+04; -2.9822504E-02;  0.0000000E+00;  1.1423956E-02;  1.2738263E+02;
  4.4183320E-01;  9.9999998E-03; -4.9994469E-02;5155; -7.5432928E-03;  0.0000000E+00; -5.6999078E-04;  9.9940179E+02;  1.0000000E-01; -4.9559091E+02;3; -2.2871881E+00;  0.0000000E+00; -1.9324064E-02;0; -1.8310616E-02;  3.9951336E+04;  0.0000000E+00;  3.4496129E-02;  4.0000000E+04;  0.0000000E+00;  4.0001082E+04; -2.9891888E-02;  0.0000000E+00;  1.1581272E-02;  1.8970036E+02;
  4.4183141E-01;  9.9999998E-03; -3.9994147E-02;5156; -7.5271176E-03;  0.0000000E+00; -4.5791024E-04;  9.9931848E+02;  1.0000000E-01; -5.6462598E+02;3; -2.3043368E+00;  0.0000000E+00; -1.4691769E-02;0; -1.8245324E-02;  3.9944191E+04;  0.0000000E+00;  2.2465311E-02;  4.0000000E+04;  0.0000000E+00;  4.0001750E+04; -2.9954309E-02;  0.0000000E+00;  1.1708983E-02;  2.6490842E+02;
  4.4182757E-01;  9.9999998E-03; -2.9994806E-02;5157; -7.5135729E-03;  0.0000000E+00; -3.4487530E-04;  9.9924878E+02;  1.0000000E-01; -6.2235278E+02;3; -2.3179777E+00;  0.0000000E+00; -1.1266395E-02;0; -1.8199541E-02;  3.9938051E+04;  0.0000000E+00;  1.2786550E-02;  4.0000000E+04;  0.0000000E+00;  4.0002207E+04; -3.0006699E-02;  0.0000000E+00;  1.1807159E-02;  3.3759521E+02;
  4.4182369E-01;  9.9999998E-03; -1.9996202E-02;5158; -7.5033070E-03;  0.0000000E+00; -2.3055541E-04;  9.9919354E+02;  1.0000000E-01; -6.6812927E+02;3; -2.3278539E+00;  0.0000000E+00; -7.8135189E-03;0; -1.8169984E-02;  3.9933531E+04;  0.0000000E+00;  5.7257405E-03;  4.0000000E+04;  0.0000000E+00;  4.0002594E+04; -3.0046470E-02;  0.0000000E+00;  1.1876485E-02;  3.9711380E+02;
  4.4182095E-01;  9.9999998E-03; -9.9980030E-03;5159; -7.4969162E-03;  0.0000000E+00; -1.1542570E-04;  9.9916345E+02;  1.0000000E-01; -6.9306683E+02;3; -2.3337295E+00;  0.0000000E+00; -3.8025298E-03;0; -1.8153623E-02;  3.9930629E+04;  0.0000000E+00;  1.4373978E-03;  4.0000000E+04;  0.0000000E+00;  4.0002930E+04; -3.0071326E-02;  0.0000000E+00;  1.1917702E-02;  4.3594757E+02;
  4.4181937E-01;  9.9999998E-03;  6.0612702E-09;5160; -7.4947365E-03;  0.0000000E+00;  1.8782695E-08;  9.9915240E+02;  1.0000000E-01; -7.0220239E+02;3; -2.3357124E+00;  0.0000000E+00;  7.5789940E-06;0; -1.8148402E-02;  3.9929617E+04;  0.0000000E+00; -2.9414318E-12;  4.0000000E+04;  0.0000000E+00;  4.0003113E+04; -3.0079706E-02;  0.0000000E+00;  1.1931304E-02;  4.4943100E+02;
  4.4182095E-01;  9.9999998E-03;  9.9980151E-03;5161; -7.4969186E-03;  0.0000000E+00;  1.1546275E-04;  9.9916345E+02;  1.0000000E-01; -6.9306683E+02;3; -2.3337212E+00;  0.0000000E+00;  3.8128758E-03;0; -1.8153608E-02;  3.9930633E+04;  0.0000000E+00;  1.4374236E-03;  4.0000000E+04;  0.0000000E+00;  4.0002930E+04; -3.0071298E-02;  0.0000000E+00;  1.1917689E-02;  4.3594302E+02;
  4.4182369E-01;  9.9999998E-03;  1.9996213E-02;5162; -7.5033130E-03;  0.0000000E+00;  2.3059153E-04;  9.9919354E+02;  1.0000000E-01; -6.6812927E+02;3; -2.3278584E+00;  0.0000000E+00;  7.8265974E-03;0; -1.8169973E-02;  3.9933531E+04;  0.0000000E+00;  5.7255351E-03;  4.0000000E+04;  0.0000000E+00;  4.0002594E+04; -3.0046476E-02;  0.0000000E+00;  1.1876502E-02;  3.9711273E+02;
  4.4182757E-01;  9.9999998E-03;  2.9994817E-02;5163; -7.5135813E-03;  0.0000000E+00;  3.4490996E-04;  9.9924878E+02;  1.0000000E-01; -6.2235278E+02;3; -2.3179736E+00;  0.0000000E+00;  1.1275573E-02;0; -1.8199544E-02;  3.9938051E+04;  0.0000000E+00;  1.2786333E-02;  4.0000000E+04;  0.0000000E+00;  4.0002203E+04; -3.0006714E-02;  0.0000000E+00;  1.1807169E-02;  3.3760904E+02;
  4.4183141E-01;  9.9999998E-03;  3.9994158E-02;5164; -7.5271288E-03;  0.0000000E+00;  4.5794316E-04;  9.9931842E+02;  1.0000000E-01; -5.6467542E+02;3; -2.3043330E+00;  0.0000000E+00;  1.4698385E-02;0; -1.8245358E-02;  3.9944191E+04;  0.0000000E+00;  2.2464460E-02;  4.0000000E+04;  0.0000000E+00;  4.0001750E+04; -2.9954353E-02;  0.0000000E+00;  1.1708996E-02;  2.6491263E+02;
  4.4183320E-01;  9.9999998E-03;  4.9994480E-02;5165; -7.5433077E-03;  0.0000000E+00;  5.7002262E-04;  9.9940186E+02;  1.0000000E-01; -4.9554153E+02;3; -2.2871952E+00;  0.0000000E+00;  1.9330272E-02;0; -1.8310623E-02;  3.9951336E+04;  0.0000000E+00;  3.4496062E-02;  4.0000000E+04;  0.0000000E+00;  4.0001082E+04; -2.9891901E-02;  0.0000000E+00;  1.1581277E-02;  1.8970493E+02;
  4.4183299E-01;  9.9999998E-03;  5.9995927E-02;5166; -7.5616147E-03;  0.0000000E+00;  6.8175246E-04;  9.9949554E+02;  1.0000000E-01; -4.1791409E+02;3; -2.2664137E+00;  0.0000000E+00;  2.3891954E-02;0; -1.8398538E-02;  3.9959125E+04;  0.0000000E+00;  4.8459854E-02;  4.0000000E+04;  0.0000000E+00;  4.0000426E+04; -2.9822510E-02;  0.0000000E+00;  1.1423972E-02;  1.2737347E+02;
  4.5179278E-01;  9.9999998E-03; -1.0001353E-01;5211; -7.9537882E-03;  0.0000000E+00; -1.1976638E-03;  9.9986420E+02;  1.0000000E-01; -1.1249065E+02;3; -2.1645615E+00;  0.0000000E+00; -2.7823966E-02;0; -1.9262945E-02;  3.9989355E+04;  0.0000000E+00;  8.5417412E-02;  4.0000000E+04;  0.0000000E+00;  3.9999309E+04; -3.0349923E-02;  0.0000000E+00;  1.1086978E-02;  1.3994443E+02;
  4.5180747E-01;  9.9999998E-03; -9.0009220E-02;5212; -7.9295272E-03;  0.0000000E+00; -1.0837681E-03;  9.9979297E+02;  1.0000000E-01; -1.7150133E+02;3; -2.1982872E+00;  0.0000000E+00; -2.3336744E-02;0; -1.9073531E-02;  3.9984004E+04;  0.0000000E+00;  7.6746128E-02;  4.0000000E+04;  0.0000000E+00;  3.9999258E+04; -3.0453229E-02;  0.0000000E+00;  1.1379698E-02;  1.2701720E+02;
  4.5182028E-01;  9.9999998E-03; -8.0004752E-02;5213; -7.9080174E-03;  0.0000000E+00; -9.6947007E-04;  9.9970898E+02;  1.0000000E-01; -2.4107961E+02;3; -2.2296383E+00;  0.0000000E+00; -1.8966721E-02;0; -1.8905729E-02;  3.9977062E+04;  0.0000000E+00;  6.5780073E-02;  4.0000000E+04;  0.0000000E+00;  3.9999293E+04; -3.0556470E-02;  0.0000000E+00;  1.1650742E-02;  1.0092892E+02;
  4.5183119E-01;  9.9999998E-03; -7.0000798E-02;5214; -7.8889541E-03;  0.0000000E+00; -8.5424859E-04;  9.9962048E+02;  1.0000000E-01; -3.1441086E+02;3; -2.2577105E+00;  0.0000000E+00; -1.5342413E-02;0; -1.8761858E-02;  3.9969648E+04;  0.0000000E+00;  5.3646177E-02;  4.0000000E+04;  0.0000000E+00;  3.9999836E+04; -3.0658778E-02;  0.0000000E+00;  1.1896919E-02;  7.7721169E+01;
  4.5183998E-01;  9.9999998E-03; -5.9997793E-02;5215; -7.8722220E-03;  0.0000000E+00; -7.3776790E-04;  9.9952686E+02;  1.0000000E-01; -3.9198892E+02;3; -2.2826138E+00;  0.0000000E+00; -1.2243600E-02;0; -1.8642806E-02;  3.9961777E+04;  0.0000000E+00;  4.1359302E-02;  4.0000000E+04;  0.0000000E+00;  4.0000355E+04; -3.0758098E-02;  0.0000000E+00;  1.2115293E-02;  1.0071251E+02;
  4.5184645E-01;  9.9999998E-03; -4.9996071E-02;5216; -7.8577949E-03;  0.0000000E+00; -6.1982806E-04;  9.9943805E+02;  1.0000000E-01; -4.6556708E+02;3; -2.3039420E+00;  0.0000000E+00; -9.0039354E-03;0; -1.8548151E-02;  3.9954207E+04;  0.0000000E+00;  2.9773120E-02;  4.0000000E+04;  0.0000000E+00;  4.0001047E+04; -3.0851442E-02;  0.0000000E+00;  1.2303291E-02;  1.6810483E+02;
  4.5185080E-01;  9.9999998E-03; -3.9995547E-02;5217; -7.8456849E-03;  0.0000000E+00; -4.9980823E-04;  9.9935883E+02;  1.0000000E-01; -5.3119482E+02;3; -2.3217599E+00;  0.0000000E+00; -6.6003771E-03;0; -1.8476170E-02;  3.9947344E+04;  0.0000000E+00;  1.9557798E-02;  4.0000000E+04;  0.0000000E+00;  4.0001770E+04; -3.0935219E-02;  0.0000000E+00;  1.2459048E-02;  2.4899823E+02;
  4.5185372E-01;  9.9999998E-03; -2.9996004E-02;5218; -7.8360038E-03;  0.0000000E+00; -3.7736425E-04;  9.9929517E+02;  1.0000000E-01; -5.8393408E+02;3; -2.3358390E+00;  0.0000000E+00; -4.6233358E-03;0; -1.8424474E-02;  3.9941512E+04;  0.0000000E+00;  1.1201720E-02;  4.0000000E+04;  0.0000000E+00;  4.0002191E+04; -3.1005651E-02;  0.0000000E+00;  1.2581177E-02;  3.2672238E+02;
  4.5185518E-01;  9.9999998E-03; -1.9997153E-02;5219; -7.8288931E-03;  0.0000000E+00; -2.5305551E-04;  9.9924121E+02;  1.0000000E-01; -6.2862421E+02;3; -2.3459198E+00;  0.0000000E+00; -3.0340119E-03;0; -1.8390145E-02;  3.9936969E+04;  0.0000000E+00;  5.0367680E-03;  4.0000000E+04;  0.0000000E+00;  4.0002703E+04; -3.1059014E-02;  0.0000000E+00;  1.2668868E-02;  3.9032495E+02;
  4.5185566E-01;  9.9999998E-03; -9.9985339E-03;5220; -7.8244815E-03;  0.0000000E+00; -1.2694807E-04;  9.9920856E+02;  1.0000000E-01; -6.5568518E+02;3; -2.3520956E+00;  0.0000000E+00; -1.7200577E-03;0; -1.8370757E-02;  3.9934227E+04;  0.0000000E+00;  1.2672847E-03;  4.0000000E+04;  0.0000000E+00;  4.0003031E+04; -3.1092381E-02;  0.0000000E+00;  1.2721624E-02;  4.3183121E+02;
  4.5185566E-01;  9.9999998E-03;  6.3826588E-09;5221; -7.8229373E-03;  0.0000000E+00;  1.9763272E-08;  9.9919940E+02;  1.0000000E-01; -6.6328986E+02;3; -2.3541143E+00;  0.0000000E+00;  5.5226965E-06;0; -1.8364483E-02;  3.9933238E+04;  0.0000000E+00; -3.7577688E-12;  4.0000000E+04;  0.0000000E+00;  4.0003250E+04; -3.1103706E-02;  0.0000000E+00;  1.2739222E-02;  4.4621201E+02;
  4.5185566E-01;  9.9999998E-03;  9.9985469E-03;5222; -7.8244852E-03;  0.0000000E+00;  1.2698724E-04;  9.9920850E+02;  1.0000000E-01; -6.5573456E+02;3; -2.3520970E+00;  0.0000000E+00;  1.7328484E-03;0; -1.8370727E-02;  3.9934227E+04;  0.0000000E+00;  1.2672618E-03;  4.0000000E+04;  0.0000000E+00;  4.0003031E+04; -3.1092346E-02;  0.0000000E+00;  1.2721619E-02;  4.3182922E+02;
  4.5185518E-01;  9.9999998E-03;  1.9997166E-02;5223; -7.8288987E-03;  0.0000000E+00;  2.5309384E-04;  9.9924121E+02;  1.0000000E-01; -6.2862421E+02;3; -2.3459177E+00;  0.0000000E+00;  3.0452653E-03;0; -1.8390145E-02;  3.9936969E+04;  0.0000000E+00;  5.0367154E-03;  4.0000000E+04;  0.0000000E+00;  4.0002707E+04; -3.1059023E-02;  0.0000000E+00;  1.2668879E-02;  3.9032458E+02;
  4.5185372E-01;  9.9999998E-03;  2.9996017E-02;5224; -7.8360122E-03;  0.0000000E+00;  3.7740107E-04;  9.9929504E+02;  1.0000000E-01; -5.8403284E+02;3; -2.3358364E+00;  0.0000000E+00;  4.6317400E-03;0; -1.8424470E-02;  3.9941520E+04;  0.0000000E+00;  1.1201500E-02;  4.0000000E+04;  0.0000000E+00;  4.0002191E+04; -3.1005679E-02;  0.0000000E+00;  1.2581210E-02;  3.2673294E+02;
  4.5185080E-01;  9.9999998E-03;  3.9995562E-02;5225; -7.8456970E-03;  0.0000000E+00;  4.9984339E-04;  9.9935883E+02;  1.0000000E-01; -5.3119482E+02;3; -2.3217609E+00;  0.0000000E+00;  6.6075544E-03;0; -1.8476203E-02;  3.9947344E+04;  0.0000000E+00;  1.9558618E-02;  4.0000000E+04;  0.0000000E+00;  4.0001766E+04; -3.0935260E-02;  0.0000000E+00;  1.2459057E-02;  2.4899402E+02;
  4.5184645E-01;  9.9999998E-03;  4.9996082E-02;5226; -7.8578088E-03;  0.0000000E+00;  6.1986252E-04;  9.9943811E+02;  1.0000000E-01; -4.6551770E+02;3; -2.3039405E+00;  0.0000000E+00;  9.0083573E-03;0; -1.8548124E-02;  3.9954211E+04;  0.0000000E+00;  2.9773256E-02;  4.0000000E+04;  0.0000000E+00;  4.0001047E+04; -3.0851439E-02;  0.0000000E+00;  1.2303314E-02;  1.6811462E+02;
  4.5183998E-01;  9.9999998E-03;  5.9997804E-02;5227; -7.8722406E-03;  0.0000000E+00;  7.3780172E-04;  9.9952692E+02;  1.0000000E-01; -3.9193954E+02;3; -2.2826264E+00;  0.0000000E+00;  1.2246786E-02;0; -1.8642835E-02;  3.9961777E+04;  0.0000000E+00;  4.1360334E-02;  4.0000000E+04;  0.0000000E+00;  4.0000355E+04; -3.0758135E-02;  0.0000000E+00;  1.2115299E-02;  1.0069984E+02;
  4.6176437E-01;  9.9999998E-03; -1.0001352E-01;5272; -8.2613360E-03;  0.0000000E+00; -1.2820823E-03;  9.9987830E+02;  1.0000000E-01; -1.0083665E+02;3; -2.1740561E+00;  0.0000000E+00; -6.7118630E-03;0; -1.9511847E-02;  3.9990762E+04;  0.0000000E+00;  5.5545766E-02;  4.0000000E+04;  0.0000000E+00;  3.9999320E+04; -3.1152846E-02;  0.0000000E+00;  1.1640999E-02;  1.0866232E+02;
  4.6178240E-01;  9.9999998E-03; -9.0009645E-02;5273; -8.2381563E-03;  0.0000000E+00; -1.1640855E-03;  9.9981390E+02;  1.0000000E-01; -1.5416847E+02;3; -2.2091048E+00;  0.0000000E+00; -4.1780025E-03;0; -1.9313280E-02;  3.9985742E+04;  0.0000000E+00;  5.2370749E-02;  4.0000000E+04;  0.0000000E+00;  3.9999484E+04; -3.1284124E-02;  0.0000000E+00;  1.1970845E-02;  9.8518913E+01;
  4.6180016E-01;  9.9999998E-03; -8.0005638E-02;5274; -8.2186442E-03;  0.0000000E+00; -1.0446843E-03;  9.9974524E+02;  1.0000000E-01; -2.1105576E+02;3; -2.2413027E+00;  0.0000000E+00; -1.7852194E-03;0; -1.9135598E-02;  3.9979879E+04;  0.0000000E+00;  4.6747789E-02;  4.0000000E+04;  0.0000000E+00;  3.9999773E+04; -3.1414878E-02;  0.0000000E+00;  1.2279280E-02;  7.4281471E+01;
  4.6181667E-01;  9.9999998E-03; -7.0002049E-02;5275; -8.2025770E-03;  0.0000000E+00; -9.2358439E-04;  9.9966125E+02;  1.0000000E-01; -2.8063403E+02;3; -2.2703340E+00;  0.0000000E+00;  1.7844330E-04;0; -1.8981013E-02;  3.9972930E+04;  0.0000000E+00;  3.9448544E-02;  4.0000000E+04;  0.0000000E+00;  3.9999887E+04; -3.1543691E-02;  0.0000000E+00;  1.2562676E-02;  5.9482922E+01;
  4.6183160E-01;  9.9999998E-03; -5.9999298E-02;5276; -8.1896689E-03;  0.0000000E+00; -8.0036750E-04;  9.9958368E+02;  1.0000000E-01; -3.4492853E+02;3; -2.2958963E+00;  0.0000000E+00;  2.2009346E-03;0; -1.8850928E-02;  3.9966422E+04;  0.0000000E+00;  3.1285189E-02;  4.0000000E+04;  0.0000000E+00;  4.0000320E+04; -3.1668216E-02;  0.0000000E+00;  1.2817288E-02;  9.9009300E+01;
  4.6184421E-01;  9.9999998E-03; -4.9997609E-02;5277; -8.1795929E-03;  0.0000000E+00; -6.7460310E-04;  9.9950476E+02;  1.0000000E-01; -4.1030939E+02;3; -2.3180554E+00;  0.0000000E+00;  3.0144234E-03;0; -1.8745214E-02;  3.9959543E+04;  0.0000000E+00;  2.3039402E-02;  4.0000000E+04;  0.0000000E+00;  4.0000762E+04; -3.1784710E-02;  0.0000000E+00;  1.3039496E-02;  1.7162242E+02;
  4.6185473E-01;  9.9999998E-03; -3.9996967E-02;5278; -8.1719784E-03;  0.0000000E+00; -5.4540701E-04;  9.9944122E+02;  1.0000000E-01; -4.6294986E+02;3; -2.3363028E+00;  0.0000000E+00;  3.5477618E-03;0; -1.8662911E-02;  3.9953555E+04;  0.0000000E+00;  1.5401676E-02;  4.0000000E+04;  0.0000000E+00;  4.0001387E+04; -3.1888962E-02;  0.0000000E+00;  1.3226050E-02;  2.5234117E+02;
  4.6186265E-01;  9.9999998E-03; -2.9997220E-02;5279; -8.1665786E-03;  0.0000000E+00; -4.1292285E-04;  9.9938220E+02;  1.0000000E-01; -5.1183737E+02;3; -2.3507347E+00;  0.0000000E+00;  3.2334067E-03;0; -1.8602218E-02;  3.9948559E+04;  0.0000000E+00;  8.9347828E-03;  4.0000000E+04;  0.0000000E+00;  4.0002152E+04; -3.1976283E-02;  0.0000000E+00;  1.3374064E-02;  3.2847116E+02;
  4.6186852E-01;  9.9999998E-03; -1.9998008E-02;5280; -8.1629762E-03;  0.0000000E+00; -2.7701643E-04;  9.9934143E+02;  1.0000000E-01; -5.4561420E+02;3; -2.3611343E+00;  0.0000000E+00;  2.5323331E-03;0; -1.8560996E-02;  3.9944746E+04;  0.0000000E+00;  4.0521831E-03;  4.0000000E+04;  0.0000000E+00;  4.0002543E+04; -3.2042403E-02;  0.0000000E+00;  1.3481406E-02;  3.9041269E+02;
  4.6187237E-01;  9.9999998E-03; -9.9990014E-03;5281; -8.1609804E-03;  0.0000000E+00; -1.3898095E-04;  9.9931720E+02;  1.0000000E-01; -5.6566302E+02;3; -2.3673475E+00;  0.0000000E+00;  1.3263288E-03;0; -1.8537194E-02;  3.9942586E+04;  0.0000000E+00;  1.0245729E-03;  4.0000000E+04;  0.0000000E+00;  4.0002859E+04; -3.2083679E-02;  0.0000000E+00;  1.3546485E-02;  4.3068448E+02;
  4.6187377E-01;  9.9999998E-03;  6.7248482E-09;5282; -8.1603434E-03;  0.0000000E+00;  2.0826365E-08;  9.9930835E+02;  1.0000000E-01; -5.7302081E+02;3; -2.3694494E+00;  0.0000000E+00;  5.6232184E-06;0; -1.8529385E-02;  3.9941727E+04;  0.0000000E+00; -3.1933731E-12;  4.0000000E+04;  0.0000000E+00;  4.0002973E+04; -3.2097682E-02;  0.0000000E+00;  1.3568296E-02;  4.4464575E+02;
  4.6187237E-01;  9.9999998E-03;  9.9990144E-03;5283; -8.1609832E-03;  0.0000000E+00;  1.3902260E-04;  9.9931720E+02;  1.0000000E-01; -5.6566302E+02;3; -2.3673329E+00;  0.0000000E+00; -1.3123669E-03;0; -1.8537188E-02;  3.9942586E+04;  0.0000000E+00;  1.0247179E-03;  4.0000000E+04;  0.0000000E+00;  4.0002863E+04; -3.2083675E-02;  0.0000000E+00;  1.3546487E-02;  4.3068701E+02;
  4.6186852E-01;  9.9999998E-03;  1.9998021E-02;5284; -8.1629818E-03;  0.0000000E+00;  2.7705703E-04;  9.9934143E+02;  1.0000000E-01; -5.4561420E+02;3; -2.3611245E+00;  0.0000000E+00; -2.5227806E-03;0; -1.8560998E-02;  3.9944750E+04;  0.0000000E+00;  4.0521156E-03;  4.0000000E+04;  0.0000000E+00;  4.0002539E+04; -3.2042403E-02;  0.0000000E+00;  1.3481405E-02;  3.9040701E+02;
  4.6186265E-01;  9.9999998E-03;  2.9997233E-02;5285; -8.1665898E-03;  0.0000000E+00;  4.1296222E-04;  9.9938226E+02;  1.0000000E-01; -5.1178799E+02;3; -2.3507550E+00;  0.0000000E+00; -3.2237100E-03;0; -1.8602224E-02;  3.9948559E+04;  0.0000000E+00;  8.9351321E-03;  4.0000000E+04;  0.0000000E+00;  4.0002152E+04; -3.1976301E-02;  0.0000000E+00;  1.3374077E-02;  3.2847122E+02;
  4.6185473E-01;  9.9999998E-03;  3.9996978E-02;5286; -8.1719896E-03;  0.0000000E+00;  5.4544501E-04;  9.9944122E+02;  1.0000000E-01; -4.6294986E+02;3; -2.3363044E+00;  0.0000000E+00; -3.5420458E-03;0; -1.8662926E-02;  3.9953551E+04;  0.0000000E+00;  1.5401389E-02;  4.0000000E+04;  0.0000000E+00;  4.0001383E+04; -3.1888992E-02;  0.0000000E+00;  1.3226066E-02;  2.5233990E+02;
  4.6184421E-01;  9.9999998E-03;  4.9997620E-02;5287; -8.1796087E-03;  0.0000000E+00;  6.7464053E-04;  9.9950482E+02;  1.0000000E-01; -4.1026001E+02;3; -2.3180614E+00;  0.0000000E+00; -3.0109498E-03;0; -1.8745247E-02;  3.9959543E+04;  0.0000000E+00;  2.3038337E-02;  4.0000000E+04;  0.0000000E+00;  4.0000766E+04; -3.1784780E-02;  0.0000000E+00;  1.3039533E-02;  1.7162885E+02;
  4.6183160E-01;  9.9999998E-03;  5.9999309E-02;5288; -8.1896875E-03;  0.0000000E+00;  8.0040511E-04;  9.9958356E+02;  1.0000000E-01; -3.4502728E+02;3; -2.2959006E+00;  0.0000000E+00; -2.1993443E-03;0; -1.8850949E-02;  3.9966426E+04;  0.0000000E+00;  3.1284526E-02;  4.0000000E+04;  0.0000000E+00;  4.0000324E+04; -3.1668279E-02;  0.0000000E+00;  1.2817332E-02;  9.9014832E+01;
  4.7172093E-01;  9.9999998E-03; -1.0001304E-01;5333; -8.5741598E-03;  0.0000000E+00; -1.3745870E-03;  9.9987579E+02;  1.0000000E-01; -1.0291067E+02;3; -2.1807969E+00;  0.0000000E+00;  1.8126214E-02;0; -1.9743416E-02;  3.9990613E+04;  0.0000000E+00;  1.9572908E-02;  4.0000000E+04;  0.0000000E+00;  3.9999363E+04; -3.1932123E-02;  0.0000000E+00;  1.2188707E-02;  5.9810188E+01;
  4.7174108E-01;  9.9999998E-03; -9.0010293E-02;5334; -8.5521750E-03;  0.0000000E+00; -1.2517561E-03;  9.9982544E+02;  1.0000000E-01; -1.4463788E+02;3; -2.2170362E+00;  0.0000000E+00;  1.8669648E-02;0; -1.9531408E-02;  3.9986441E+04;  0.0000000E+00;  2.1899173E-02;  4.0000000E+04;  0.0000000E+00;  3.9999477E+04; -3.2091416E-02;  0.0000000E+00;  1.2560008E-02;  4.4384178E+01;
  4.7176141E-01;  9.9999998E-03; -8.0007330E-02;5335; -8.5347136E-03;  0.0000000E+00; -1.1266777E-03;  9.9976849E+02;  1.0000000E-01; -1.9179704E+02;3; -2.2501819E+00;  0.0000000E+00;  1.9121232E-02;0; -1.9339457E-02;  3.9981711E+04;  0.0000000E+00;  2.2095602E-02;  4.0000000E+04;  0.0000000E+00;  3.9999727E+04; -3.2249294E-02;  0.0000000E+00;  1.2909836E-02;  3.2118183E+01;
  4.7178143E-01;  9.9999998E-03; -7.0004553E-02;5336; -8.5215988E-03;  0.0000000E+00; -9.9880318E-04;  9.9970447E+02;  1.0000000E-01; -2.4483258E+02;3; -2.2800369E+00;  0.0000000E+00;  1.9607924E-02;0; -1.9170012E-02;  3.9976500E+04;  0.0000000E+00;  2.0429891E-02;  4.0000000E+04;  0.0000000E+00;  4.0000391E+04; -3.2403991E-02;  0.0000000E+00;  1.3233978E-02;  6.7358795E+01;
  4.7180048E-01;  9.9999998E-03; -6.0002249E-02;5337; -8.5125137E-03;  0.0000000E+00; -8.6785224E-04;  9.9964777E+02;  1.0000000E-01; -2.9184360E+02;3; -2.3064444E+00;  0.0000000E+00;  1.8721687E-02;0; -1.9024918E-02;  3.9971266E+04;  0.0000000E+00;  1.7359970E-02;  4.0000000E+04;  0.0000000E+00;  4.0000582E+04; -3.2552660E-02;  0.0000000E+00;  1.3527742E-02;  1.2972681E+02;
  4.7181803E-01;  9.9999998E-03; -5.0000645E-02;5338; -8.5067870E-03;  0.0000000E+00; -7.3263870E-04;  9.9959149E+02;  1.0000000E-01; -3.3845956E+02;3; -2.3291152E+00;  0.0000000E+00;  1.7210903E-02;0; -1.8904835E-02;  3.9966242E+04;  0.0000000E+00;  1.3463566E-02;  4.0000000E+04;  0.0000000E+00;  4.0001352E+04; -3.2691158E-02;  0.0000000E+00;  1.3786324E-02;  2.0231427E+02;
  4.7183341E-01;  9.9999998E-03; -3.9999738E-02;5339; -8.5037900E-03;  0.0000000E+00; -5.9322547E-04;  9.9954425E+02;  1.0000000E-01; -3.7756958E+02;3; -2.3478041E+00;  0.0000000E+00;  1.5114680E-02;0; -1.8809356E-02;  3.9961883E+04;  0.0000000E+00;  9.3492465E-03;  4.0000000E+04;  0.0000000E+00;  4.0002039E+04; -3.2814458E-02;  0.0000000E+00;  1.4005101E-02;  2.7666977E+02;
  4.7184598E-01;  9.9999998E-03; -2.9999413E-02;5340; -8.5026054E-03;  0.0000000E+00; -4.4935482E-04;  9.9950366E+02;  1.0000000E-01; -4.1119824E+02;3; -2.3624179E+00;  0.0000000E+00;  1.2143551E-02;0; -1.8737471E-02;  3.9958156E+04;  0.0000000E+00;  5.5725416E-03;  4.0000000E+04;  0.0000000E+00;  4.0002332E+04; -3.2917425E-02;  0.0000000E+00;  1.4179954E-02;  3.4490948E+02;
  4.7185528E-01;  9.9999998E-03; -1.9999495E-02;5341; -8.5024694E-03;  0.0000000E+00; -3.0214945E-04;  9.9947455E+02;  1.0000000E-01; -4.3534570E+02;3; -2.3729086E+00;  0.0000000E+00;  8.6222244E-03;0; -1.8687654E-02;  3.9955332E+04;  0.0000000E+00;  2.5734182E-03;  4.0000000E+04;  0.0000000E+00;  4.0002871E+04; -3.2995049E-02;  0.0000000E+00;  1.4307396E-02;  3.9970993E+02;
  4.7186109E-01;  9.9999998E-03; -9.9997595E-03;5342; -8.5027972E-03;  0.0000000E+00; -1.5192300E-04;  9.9945813E+02;  1.0000000E-01; -4.4892557E+02;3; -2.3795187E+00;  0.0000000E+00;  4.4638952E-03;0; -1.8658500E-02;  3.9953867E+04;  0.0000000E+00;  6.5749558E-04;  4.0000000E+04;  0.0000000E+00;  4.0003250E+04; -3.3043437E-02;  0.0000000E+00;  1.4384937E-02;  4.3514346E+02;
  4.7186312E-01;  9.9999998E-03;  7.0617081E-09;5343; -8.5029919E-03;  0.0000000E+00;  2.1917359E-08;  9.9945062E+02;  1.0000000E-01; -4.5514761E+02;3; -2.3814688E+00;  0.0000000E+00;  6.0760740E-06;0; -1.8648822E-02;  3.9953043E+04;  0.0000000E+00; -4.4073777E-12;  4.0000000E+04;  0.0000000E+00;  4.0003434E+04; -3.3059780E-02;  0.0000000E+00;  1.4410959E-02;  4.4735281E+02;
  4.7186109E-01;  9.9999998E-03;  9.9997735E-03;5344; -8.5028000E-03;  0.0000000E+00;  1.5196651E-04;  9.9945807E+02;  1.0000000E-01; -4.4897495E+02;3; -2.3795059E+00;  0.0000000E+00; -4.4533676E-03;0; -1.8658455E-02;  3.9953867E+04;  0.0000000E+00;  6.5763667E-04;  4.0000000E+04;  0.0000000E+00;  4.0003250E+04; -3.3043385E-02;  0.0000000E+00;  1.4384930E-02;  4.3514215E+02;
  4.7185528E-01;  9.9999998E-03;  1.9999508E-02;5345; -8.5024750E-03;  0.0000000E+00;  3.0219211E-04;  9.9947455E+02;  1.0000000E-01; -4.3534570E+02;3; -2.3729062E+00;  0.0000000E+00; -8.6127138E-03;0; -1.8687647E-02;  3.9955332E+04;  0.0000000E+00;  2.5736392E-03;  4.0000000E+04;  0.0000000E+00;  4.0002871E+04; -3.2995053E-02;  0.0000000E+00;  1.4307407E-02;  3.9971274E+02;
  4.7184598E-01;  9.9999998E-03;  2.9999426E-02;5346; -8.5026156E-03;  0.0000000E+00;  4.4939679E-04;  9.9950360E+02;  1.0000000E-01; -4.1124762E+02;3; -2.3624282E+00;  0.0000000E+00; -1.2134115E-02;0; -1.8737495E-02;  3.9958160E+04;  0.0000000E+00;  5.5729714E-03;  4.0000000E+04;  0.0000000E+00;  4.0002332E+04; -3.2917455E-02;  0.0000000E+00;  1.4179959E-02;  3.4491116E+02;
  4.7183341E-01;  9.9999998E-03;  3.9999750E-02;5347; -8.5038021E-03;  0.0000000E+00;  5.9326674E-04;  9.9954419E+02;  1.0000000E-01; -3.7761896E+02;3; -2.3477957E+00;  0.0000000E+00; -1.5109704E-02;0; -1.8809430E-02;  3.9961883E+04;  0.0000000E+00;  9.3491767E-03;  4.0000000E+04;  0.0000000E+00;  4.0002043E+04; -3.2814540E-02;  0.0000000E+00;  1.4005109E-02;  2.7666611E+02;
  4.7181803E-01;  9.9999998E-03;  5.0000656E-02;5348; -8.5068028E-03;  0.0000000E+00;  7.3267979E-04;  9.9959149E+02;  1.0000000E-01; -3.3845956E+02;3; -2.3291163E+00;  0.0000000E+00; -1.7206402E-02;0; -1.8904865E-02;  3.9966242E+04;  0.0000000E+00;  1.3462462E-02;  4.0000000E+04;  0.0000000E+00;  4.0001352E+04; -3.2691203E-02;  0.0000000E+00;  1.3786338E-02;  2.0231795E+02;
  4.7180048E-01;  9.9999998E-03;  6.0002264E-02;5349; -8.5125323E-03;  0.0000000E+00;  8.6789363E-04;  9.9964789E+02;  1.0000000E-01; -2.9169547E+02;3; -2.3064439E+00;  0.0000000E+00; -1.8720176E-02;0; -1.9024957E-02;  3.9971266E+04;  0.0000000E+00;  1.7359531E-02;  4.0000000E+04;  0.0000000E+00;  4.0000582E+04; -3.2552727E-02;  0.0000000E+00;  1.3527770E-02;  1.2972336E+02;
  4.8170978E-01;  9.9999998E-03; -1.0001314E-01;5394; -8.8941166E-03;  0.0000000E+00; -1.4715382E-03;  9.9986877E+02;  1.0000148E-01; -1.0873766E+02;3; -2.1846666E+00;  0.0000000E+00;  4.7268894E-02;0; -1.9960007E-02;  3.9988746E+04;  0.0000000E+00; -2.0565055E-02;  4.0000000E+04;  0.0000000E+00;  3.9999867E+04; -3.2694656E-02;  0.0000000E+00;  1.2734650E-02;  3.1595011E+01;
  4.8173293E-01;  9.9999998E-03; -9.0011582E-02;5395; -8.8734254E-03;  0.0000000E+00; -1.3436776E-03;  9.9983667E+02;  1.0000148E-01; -1.3530481E+02;3; -2.2219448E+00;  0.0000000E+00;  4.5836248E-02;0; -1.9731440E-02;  3.9985840E+04;  0.0000000E+00; -1.3674163E-02;  4.0000000E+04;  0.0000000E+00;  4.0000152E+04; -3.2882657E-02;  0.0000000E+00;  1.3151218E-02;  3.2328136E+01;
  4.8175803E-01;  9.9999998E-03; -8.0009677E-02;5396; -8.8579822E-03;  0.0000000E+00; -1.2124341E-03;  9.9979926E+02;  1.0000142E-01; -1.6631628E+02;3; -2.2559948E+00;  0.0000000E+00;  4.4042293E-02;0; -1.9522045E-02;  3.9982582E+04;  0.0000000E+00; -7.9298904E-03;  4.0000000E+04;  0.0000000E+00;  4.0000535E+04; -3.3067957E-02;  0.0000000E+00;  1.3545913E-02;  7.4101250E+01;
  4.8180863E-01;  9.9999998E-03; -6.0005736E-02;5398; -8.8422121E-03;  0.0000000E+00; -9.3720725E-04;  9.9972540E+02;  1.0000145E-01; -2.2749974E+02;3; -2.3137701E+00;  0.0000000E+00;  3.7825849E-02;0; -1.9172410E-02;  3.9975891E+04;  0.0000000E+00; -9.0486155E-04;  4.0000000E+04;  0.0000000E+00;  4.0001168E+04; -3.3421006E-02;  0.0000000E+00;  1.4248597E-02;  1.9107732E+02;
  4.8180863E-01;  9.9999998E-03;  6.0005747E-02;5410; -8.8422308E-03;  0.0000000E+00;  9.3725277E-04;  9.9972540E+02;  1.0000145E-01; -2.2749974E+02;3; -2.3137767E+00;  0.0000000E+00; -3.7825692E-02;0; -1.9172404E-02;  3.9975887E+04;  0.0000000E+00; -9.0490043E-04;  4.0000000E+04;  0.0000000E+00;  4.0001168E+04; -3.3421043E-02;  0.0000000E+00;  1.4248640E-02;  1.9107472E+02;
  4.8178369E-01;  9.9999998E-03; -7.0007682E-02;5397; -8.8477489E-03;  0.0000000E+00; -1.0773788E-03;  9.9975983E+02;  1.0000142E-01; -1.9895734E+02;3; -2.2866819E+00;  0.0000000E+00;  4.1342814E-02;0; -1.9334927E-02;  3.9979285E+04;  0.0000000E+00; -3.6581524E-03;  4.0000000E+04;  0.0000000E+00;  4.0000836E+04; -3.3248533E-02;  0.0000000E+00;  1.3913605E-02;  1.2935780E+02;
  4.8183218E-01;  9.9999998E-03; -5.0004017E-02;5399; -8.8405972E-03;  0.0000000E+00; -7.9204451E-04;  9.9969702E+02;  1.0000148E-01; -2.5100525E+02;3; -2.3368790E+00;  0.0000000E+00;  3.3856094E-02;0; -1.9035714E-02;  3.9972730E+04;  0.0000000E+00;  5.2442274E-04;  4.0000000E+04;  0.0000000E+00;  4.0001746E+04; -3.3580597E-02;  0.0000000E+00;  1.4544884E-02;  2.5510368E+02;
  4.8183218E-01;  9.9999998E-03;  5.0004032E-02;5409; -8.8406131E-03;  0.0000000E+00;  7.9208985E-04;  9.9969702E+02;  1.0000148E-01; -2.5100525E+02;3; -2.3368959E+00;  0.0000000E+00; -3.3853635E-02;0; -1.9035723E-02;  3.9972723E+04;  0.0000000E+00;  5.2611699E-04;  4.0000000E+04;  0.0000000E+00;  4.0001750E+04; -3.3580642E-02;  0.0000000E+00;  1.4544918E-02;  2.5509256E+02;
  4.8189235E-01;  9.9999998E-03; -1.0000663E-02;5403; -8.8501852E-03;  0.0000000E+00; -1.6445975E-04;  9.9962799E+02;  1.0000148E-01; -3.0818881E+02;3; -2.3879144E+00;  0.0000000E+00;  7.6535591E-03;0; -1.8747071E-02;  3.9965922E+04;  0.0000000E+00;  1.3033615E-04;  4.0000000E+04;  0.0000000E+00;  4.0003254E+04; -3.3982709E-02;  0.0000000E+00;  1.5235638E-02;  4.4237863E+02;
  4.8189500E-01;  9.9999998E-03;  7.3732758E-09;5404; -8.8510029E-03;  0.0000000E+00;  2.3093111E-08;  9.9962476E+02;  1.0000145E-01; -3.1090479E+02;3; -2.3904035E+00;  0.0000000E+00;  6.2618756E-06;0; -1.8735554E-02;  3.9965590E+04;  0.0000000E+00; -3.7406636E-12;  4.0000000E+04;  0.0000000E+00;  4.0003293E+04; -3.4001350E-02;  0.0000000E+00;  1.5265797E-02;  4.5180661E+02;
  4.8189235E-01;  9.9999998E-03;  1.0000678E-02;5405; -8.8501871E-03;  0.0000000E+00;  1.6450556E-04;  9.9962793E+02;  1.0000148E-01; -3.0823819E+02;3; -2.3879147E+00;  0.0000000E+00; -7.6428368E-03;0; -1.8747093E-02;  3.9965926E+04;  0.0000000E+00;  1.3031656E-04;  4.0000000E+04;  0.0000000E+00;  4.0003254E+04; -3.3982735E-02;  0.0000000E+00;  1.5235642E-02;  4.4237823E+02;
  4.8188406E-01;  9.9999998E-03; -2.0001218E-02;5402; -8.8478066E-03;  0.0000000E+00; -3.2698177E-04;  9.9963666E+02;  1.0000151E-01; -3.0102853E+02;3; -2.3815958E+00;  0.0000000E+00;  1.5639860E-02;0; -1.8782068E-02;  3.9966875E+04;  0.0000000E+00;  4.6523131E-04;  4.0000000E+04;  0.0000000E+00;  4.0003137E+04; -3.3927869E-02;  0.0000000E+00;  1.5145802E-02;  4.1490149E+02;
  4.8188406E-01;  9.9999998E-03;  2.0001233E-02;5406; -8.8478131E-03;  0.0000000E+00;  3.2702705E-04;  9.9963666E+02;  1.0000151E-01; -3.0102853E+02;3; -2.3815804E+00;  0.0000000E+00; -1.5631586E-02;0; -1.8782031E-02;  3.9966879E+04;  0.0000000E+00;  4.6546586E-04;  4.0000000E+04;  0.0000000E+00;  4.0003137E+04; -3.3927858E-02;  0.0000000E+00;  1.5145826E-02;  4.1491260E+02;
  4.8187092E-01;  9.9999998E-03; -3.0001828E-02;5401; -8.8445758E-03;  0.0000000E+00; -4.8636080E-04;  9.9964734E+02;  1.0000148E-01; -2.9218927E+02;3; -2.3707614E+00;  0.0000000E+00;  2.3001865E-02;0; -1.8841118E-02;  3.9968266E+04;  0.0000000E+00;  8.3725434E-04;  4.0000000E+04;  0.0000000E+00;  4.0002707E+04; -3.3839483E-02;  0.0000000E+00;  1.4998364E-02;  3.7184430E+02;
  4.8187092E-01;  9.9999998E-03;  3.0001841E-02;5407; -8.8445861E-03;  0.0000000E+00;  4.8640586E-04;  9.9964734E+02;  1.0000148E-01; -2.9218927E+02;3; -2.3707507E+00;  0.0000000E+00; -2.2995362E-02;0; -1.8841157E-02;  3.9968266E+04;  0.0000000E+00;  8.3712861E-04;  4.0000000E+04;  0.0000000E+00;  4.0002707E+04; -3.3839528E-02;  0.0000000E+00;  1.4998371E-02;  3.7185428E+02;
  4.8185334E-01;  9.9999998E-03; -4.0002689E-02;5400; -8.8417586E-03;  0.0000000E+00; -6.4153003E-04;  9.9966693E+02;  1.0000148E-01; -2.7594281E+02;3; -2.3560524E+00;  0.0000000E+00;  2.8365660E-02;0; -1.8925443E-02;  3.9970203E+04;  0.0000000E+00;  9.7549899E-04;  4.0000000E+04;  0.0000000E+00;  4.0002285E+04; -3.3722024E-02;  0.0000000E+00;  1.4796580E-02;  3.1701407E+02;
  4.8185334E-01;  9.9999998E-03;  4.0002704E-02;5408; -8.8417716E-03;  0.0000000E+00;  6.4157491E-04;  9.9966693E+02;  1.0000148E-01; -2.7594281E+02;3; -2.3560522E+00;  0.0000000E+00; -2.8361652E-02;0; -1.8925462E-02;  3.9970199E+04;  0.0000000E+00;  9.7554905E-04;  4.0000000E+04;  0.0000000E+00;  4.0002281E+04; -3.3722062E-02;  0.0000000E+00;  1.4796601E-02;  3.1701364E+02;
  4.9196464E-01;  9.9999998E-03; -9.9999299E-03;5464; -9.2022792E-03;  0.0000000E+00; -1.7594999E-04;  9.9976947E+02;  1.0000206E-01; -1.9100694E+02;3; -2.3931551E+00;  0.0000000E+00;  1.1523251E-02;0; -1.8817550E-02;  3.9976887E+04;  0.0000000E+00; -5.5957946E-04;  4.0000000E+04;  0.0000000E+00;  4.0003363E+04; -3.4908820E-02;  0.0000000E+00;  1.6091270E-02;  4.4821646E+02;
  4.9196687E-01;  9.9999998E-03;  7.6045357E-09;5465; -9.2037097E-03;  0.0000000E+00;  2.4261372E-08;  9.9977075E+02;  1.0000201E-01; -1.8992055E+02;3; -2.3948882E+00;  0.0000000E+00;  4.9579430E-06;0; -1.8804096E-02;  3.9976816E+04;  0.0000000E+00; -3.5822625E-12;  4.0000000E+04;  0.0000000E+00;  4.0003391E+04; -3.4929335E-02;  0.0000000E+00;  1.6125239E-02;  4.5417654E+02;
  4.9196464E-01;  9.9999998E-03;  9.9999448E-03;5466; -9.2022829E-03;  0.0000000E+00;  1.7599849E-04;  9.9976947E+02;  1.0000206E-01; -1.9100694E+02;3; -2.3931456E+00;  0.0000000E+00; -1.1513455E-02;0; -1.8817516E-02;  3.9976891E+04;  0.0000000E+00; -5.5946520E-04;  4.0000000E+04;  0.0000000E+00;  4.0003363E+04; -3.4908794E-02;  0.0000000E+00;  1.6091278E-02;  4.4821918E+02;
  4.9195793E-01;  9.9999998E-03; -1.9999668E-02;5463; -9.1982195E-03;  0.0000000E+00; -3.5069240E-04;  9.9977069E+02;  1.0000205E-01; -1.8996994E+02;3; -2.3865232E+00;  0.0000000E+00;  2.3457067E-02;0; -1.8858060E-02;  3.9976816E+04;  0.0000000E+00; -2.2755535E-03;  4.0000000E+04;  0.0000000E+00;  4.0003309E+04; -3.4848209E-02;  0.0000000E+00;  1.5990149E-02;  4.3061649E+02;
  4.9195793E-01;  9.9999998E-03;  1.9999683E-02;5467; -9.1982260E-03;  0.0000000E+00;  3.5074053E-04;  9.9977057E+02;  1.0000205E-01; -1.9006870E+02;3; -2.3865113E+00;  0.0000000E+00; -2.3451060E-02;0; -1.8858038E-02;  3.9976816E+04;  0.0000000E+00; -2.2753531E-03;  4.0000000E+04;  0.0000000E+00;  4.0003309E+04; -3.4848206E-02;  0.0000000E+00;  1.5990168E-02;  4.3062936E+02;
  4.9194703E-01;  9.9999998E-03; -2.9999213E-02;5462; -9.1925068E-03;  0.0000000E+00; -5.2181986E-04;  9.9977063E+02;  1.0000210E-01; -1.9001932E+02;3; -2.3755691E+00;  0.0000000E+00;  3.4235537E-02;0; -1.8926226E-02;  3.9976996E+04;  0.0000000E+00; -5.2518570E-03;  4.0000000E+04;  0.0000000E+00;  4.0002992E+04; -3.4750357E-02;  0.0000000E+00;  1.5824132E-02;  4.0220114E+02;
  4.9194700E-01;  9.9999998E-03;  2.9999228E-02;5468; -9.1925170E-03;  0.0000000E+00;  5.2186823E-04;  9.9977075E+02;  1.0000210E-01; -1.8992055E+02;3; -2.3755641E+00;  0.0000000E+00; -3.4231063E-02;0; -1.8926263E-02;  3.9976996E+04;  0.0000000E+00; -5.2515040E-03;  4.0000000E+04;  0.0000000E+00;  4.0002988E+04; -3.4750402E-02;  0.0000000E+00;  1.5824139E-02;  4.0219989E+02;
  4.9193180E-01;  9.9999998E-03; -3.9998703E-02;5461; -9.1864532E-03;  0.0000000E+00; -6.8840315E-04;  9.9977094E+02;  1.0000205E-01; -1.8977242E+02;3; -2.3604405E+00;  0.0000000E+00;  4.4649307E-02;0; -1.9022798E-02;  3.9977445E+04;  0.0000000E+00; -9.6302414E-03;  4.0000000E+04;  0.0000000E+00;  4.0002809E+04; -3.4619682E-02;  0.0000000E+00;  1.5596883E-02;  3.6452521E+02;
  4.9193180E-01;  9.9999998E-03;  3.9998718E-02;5469; -9.1864672E-03;  0.0000000E+00;  6.8845187E-04;  9.9977100E+02;  1.0000205E-01; -1.8972302E+02;3; -2.3604569E+00;  0.0000000E+00; -4.4644225E-02;0; -1.9022826E-02;  3.9977445E+04;  0.0000000E+00; -9.6303970E-03;  4.0000000E+04;  0.0000000E+00;  4.0002809E+04; -3.4619730E-02;  0.0000000E+00;  1.5596904E-02;  3.6452988E+02;
  4.9191239E-01;  9.9999998E-03; -4.9998291E-02;5460; -9.1818850E-03;  0.0000000E+00; -8.4977108E-04;  9.9977338E+02;  1.0000209E-01; -1.8774777E+02;3; -2.3412383E+00;  0.0000000E+00;  5.2325986E-02;0; -1.9148119E-02;  3.9978398E+04;  0.0000000E+00; -1.5538845E-02;  4.0000000E+04;  0.0000000E+00;  4.0002324E+04; -3.4461569E-02;  0.0000000E+00;  1.5313451E-02;  3.1954001E+02;
  4.9191239E-01;  9.9999998E-03;  4.9998306E-02;5470; -9.1819009E-03;  0.0000000E+00;  8.4982050E-04;  9.9977338E+02;  1.0000209E-01; -1.8774777E+02;3; -2.3412333E+00;  0.0000000E+00; -5.2321211E-02;0; -1.9148115E-02;  3.9978402E+04;  0.0000000E+00; -1.5540039E-02;  4.0000000E+04;  0.0000000E+00;  4.0002324E+04; -3.4461599E-02;  0.0000000E+00;  1.5313485E-02;  3.1953387E+02;
  4.9188945E-01;  9.9999998E-03; -5.9998050E-02;5459; -9.1802441E-03;  0.0000000E+00; -1.0054031E-03;  9.9978308E+02;  1.0000206E-01; -1.7969862E+02;3; -2.3175673E+00;  0.0000000E+00;  6.0231943E-02;0; -1.9301808E-02;  3.9979203E+04;  0.0000000E+00; -2.3021385E-02;  4.0000000E+04;  0.0000000E+00;  4.0001852E+04; -3.4281779E-02;  0.0000000E+00;  1.4979972E-02;  2.6943237E+02;
  4.9188945E-01;  9.9999998E-03;  5.9998065E-02;5471; -9.1802627E-03;  0.0000000E+00;  1.0054526E-03;  9.9978308E+02;  1.0000206E-01; -1.7969862E+02;3; -2.3175819E+00;  0.0000000E+00; -6.0234718E-02;0; -1.9301750E-02;  3.9979203E+04;  0.0000000E+00; -2.3023242E-02;  4.0000000E+04;  0.0000000E+00;  4.0001852E+04; -3.4281783E-02;  0.0000000E+00;  1.4980034E-02;  2.6943304E+02;
  4.9186346E-01;  9.9999998E-03; -6.9998056E-02;5458; -9.1828173E-03;  0.0000000E+00; -1.1549114E-03;  9.9979419E+02;  1.0000208E-01; -1.7051370E+02;3; -2.2901812E+00;  0.0000000E+00;  6.6437982E-02;0; -1.9482749E-02;  3.9980484E+04;  0.0000000E+00; -3.1948511E-02;  4.0000000E+04;  0.0000000E+00;  4.0001410E+04; -3.4086108E-02;  0.0000000E+00;  1.4603360E-02;  2.1681941E+02;
  4.9183503E-01;  9.9999998E-03; -7.9998329E-02;5457; -9.1906255E-03;  0.0000000E+00; -1.2982945E-03;  9.9980829E+02;  1.0000210E-01; -1.5881032E+02;3; -2.2586918E+00;  0.0000000E+00;  7.2477557E-02;0; -1.9688852E-02;  3.9982156E+04;  0.0000000E+00; -4.1943669E-02;  4.0000000E+04;  0.0000000E+00;  4.0000938E+04; -3.3879515E-02;  0.0000000E+00;  1.4190663E-02;  1.6530281E+02;
  4.9180526E-01;  9.9999998E-03; -8.9998797E-02;5456; -9.2040813E-03;  0.0000000E+00; -1.4360166E-03;  9.9982697E+02;  1.0000204E-01; -1.4335397E+02;3; -2.2236855E+00;  0.0000000E+00;  7.7196337E-02;0; -1.9917153E-02;  3.9984027E+04;  0.0000000E+00; -5.2338477E-02;  4.0000000E+04;  0.0000000E+00;  4.0000727E+04; -3.3665933E-02;  0.0000000E+00;  1.3748780E-02;  1.2162377E+02;
  4.9177614E-01;  9.9999998E-03; -9.9999249E-02;5455; -9.2232907E-03;  0.0000000E+00; -1.5690709E-03;  9.9984259E+02;  1.0000208E-01; -1.3041606E+02;3; -2.1853542E+00;  0.0000000E+00;  8.1133373E-02;0; -2.0163992E-02;  3.9985488E+04;  0.0000000E+00; -6.2181491E-02;  4.0000000E+04;  0.0000000E+00;  4.0000312E+04; -3.3447828E-02;  0.0000000E+00;  1.3283836E-02;  9.7597038E+01;
  5.0180274E-01;  9.9999998E-03; -9.9984169E-02;5516; -9.5587634E-03;  0.0000000E+00; -1.6623348E-03;  9.9980615E+02;  1.0000372E-01; -1.6058804E+02;3; -2.1825924E+00;  0.0000000E+00;  1.1927062E-01;0; -2.0355079E-02;  3.9981383E+04;  0.0000000E+00; -1.0128255E-01;  4.0000000E+04;  0.0000000E+00;  4.0000430E+04; -3.4186061E-02;  0.0000000E+00;  1.3830982E-02;  1.6957948E+02;
  5.0182861E-01;  9.9999998E-03; -8.9985237E-02;5517; -9.5408699E-03;  0.0000000E+00; -1.5238912E-03;  9.9980615E+02;  1.0000387E-01; -1.6058804E+02;3; -2.2220891E+00;  0.0000000E+00;  1.1194659E-01;0; -2.0089628E-02;  3.9980609E+04;  0.0000000E+00; -9.0360999E-02;  4.0000000E+04;  0.0000000E+00;  4.0001043E+04; -3.4434736E-02;  0.0000000E+00;  1.4345108E-02;  2.0745239E+02;
  5.0185227E-01;  9.9999998E-03; -7.9986915E-02;5518; -9.5289443E-03;  0.0000000E+00; -1.3789563E-03;  9.9981238E+02;  1.0000373E-01; -1.5545239E+02;3; -2.2579403E+00;  0.0000000E+00;  1.0410456E-01;0; -1.9842565E-02;  3.9979867E+04;  0.0000000E+00; -7.6677404E-02;  4.0000000E+04;  0.0000000E+00;  4.0001598E+04; -3.4676727E-02;  0.0000000E+00;  1.4834163E-02;  2.5560611E+02;
  5.0187236E-01;  9.9999998E-03; -6.9989018E-02;5519; -9.5229922E-03;  0.0000000E+00; -1.2270196E-03;  9.9981091E+02;  1.0000388E-01; -1.5663754E+02;3; -2.2898772E+00;  0.0000000E+00;  9.5474303E-02;0; -1.9618001E-02;  3.9980016E+04;  0.0000000E+00; -6.1755948E-02;  4.0000000E+04;  0.0000000E+00;  4.0002223E+04; -3.4908935E-02;  0.0000000E+00;  1.5290935E-02;  3.0349973E+02;
  5.0188845E-01;  9.9999998E-03; -5.9991214E-02;5520; -9.5226131E-03;  0.0000000E+00; -1.0679802E-03;  9.9981940E+02;  1.0000376E-01; -1.4962540E+02;3; -2.3178110E+00;  0.0000000E+00;  8.4731348E-02;0; -1.9419657E-02;  3.9980254E+04;  0.0000000E+00; -4.6937462E-02;  4.0000000E+04;  0.0000000E+00;  4.0002512E+04; -3.5127196E-02;  0.0000000E+00;  1.5707539E-02;  3.4561542E+02;
  5.0190037E-01;  9.9999998E-03; -4.9993400E-02;5521; -9.5265983E-03;  0.0000000E+00; -9.0223365E-04;  9.9982953E+02;  1.0000374E-01; -1.4123058E+02;3; -2.3415306E+00;  0.0000000E+00;  7.3729552E-02;0; -1.9250287E-02;  3.9980621E+04;  0.0000000E+00; -3.3285052E-02;  4.0000000E+04;  0.0000000E+00;  4.0002715E+04; -3.5326205E-02;  0.0000000E+00;  1.6075918E-02;  3.8006433E+02;
  5.0190842E-01;  9.9999998E-03; -3.9995451E-02;5522; -9.5335850E-03;  0.0000000E+00; -7.3068426E-04;  9.9984222E+02;  1.0000377E-01; -1.3071236E+02;3; -2.3609753E+00;  0.0000000E+00;  6.1042085E-02;0; -1.9111594E-02;  3.9981430E+04;  0.0000000E+00; -2.1550501E-02;  4.0000000E+04;  0.0000000E+00;  4.0003227E+04; -3.5500076E-02;  0.0000000E+00;  1.6388481E-02;  4.0671384E+02;
  5.0191337E-01;  9.9999998E-03; -2.9997177E-02;5523; -9.5417481E-03;  0.0000000E+00; -5.5345346E-04;  9.9985547E+02;  1.0000386E-01; -1.1974970E+02;3; -2.3764477E+00;  0.0000000E+00;  4.6742879E-02;0; -1.9004330E-02;  3.9982441E+04;  0.0000000E+00; -1.2187873E-02;  4.0000000E+04;  0.0000000E+00;  4.0003223E+04; -3.5642941E-02;  0.0000000E+00;  1.6638611E-02;  4.2619861E+02;
  5.0191623E-01;  9.9999998E-03; -1.9998573E-02;5524; -9.5492043E-03;  0.0000000E+00; -3.7129689E-04;  9.9986584E+02;  1.0000373E-01; -1.1115735E+02;3; -2.3875413E+00;  0.0000000E+00;  3.1704623E-02;0; -1.8928314E-02;  3.9982941E+04;  0.0000000E+00; -5.4274485E-03;  4.0000000E+04;  0.0000000E+00;  4.0003484E+04; -3.5749383E-02;  0.0000000E+00;  1.6821070E-02;  4.3919275E+02;
  5.0191766E-01;  9.9999998E-03; -9.9994568E-03;5525; -9.5543200E-03;  0.0000000E+00; -1.8624122E-04;  9.9987201E+02;  1.0000381E-01; -1.0602169E+02;3; -2.3940299E+00;  0.0000000E+00;  1.6292773E-02;0; -1.8883077E-02;  3.9983348E+04;  0.0000000E+00; -1.3573766E-03;  4.0000000E+04;  0.0000000E+00;  4.0003457E+04; -3.5815109E-02;  0.0000000E+00;  1.6932031E-02;  4.4657724E+02;
  5.0191802E-01;  9.9999998E-03;  7.8551894E-09;5526; -9.5562031E-03;  0.0000000E+00;  2.5660803E-08;  9.9987354E+02;  1.0000373E-01; -1.0478716E+02;3; -2.3960757E+00;  0.0000000E+00;  4.0924697E-06;0; -1.8868044E-02;  3.9983664E+04;  0.0000000E+00; -2.0728744E-12;  4.0000000E+04;  0.0000000E+00;  4.0003473E+04; -3.5837330E-02;  0.0000000E+00;  1.6969286E-02;  4.4893027E+02;
  5.0191766E-01;  9.9999998E-03;  9.9994726E-03;5527; -9.5543237E-03;  0.0000000E+00;  1.8629277E-04;  9.9987201E+02;  1.0000381E-01; -1.0602169E+02;3; -2.3940320E+00;  0.0000000E+00; -1.6285777E-02;0; -1.8883079E-02;  3.9983352E+04;  0.0000000E+00; -1.3573106E-03;  4.0000000E+04;  0.0000000E+00;  4.0003461E+04; -3.5815105E-02;  0.0000000E+00;  1.6932026E-02;  4.4658731E+02;
  5.0191623E-01;  9.9999998E-03;  1.9998590E-02;5528; -9.5492126E-03;  0.0000000E+00;  3.7134867E-04;  9.9986591E+02;  1.0000373E-01; -1.1110797E+02;3; -2.3875685E+00;  0.0000000E+00; -3.1698573E-02;0; -1.8928330E-02;  3.9982941E+04;  0.0000000E+00; -5.4272353E-03;  4.0000000E+04;  0.0000000E+00;  4.0003484E+04; -3.5749398E-02;  0.0000000E+00;  1.6821068E-02;  4.3918900E+02;
  5.0191337E-01;  9.9999998E-03;  2.9997194E-02;5529; -9.5417593E-03;  0.0000000E+00;  5.5350550E-04;  9.9985547E+02;  1.0000386E-01; -1.1974970E+02;3; -2.3764577E+00;  0.0000000E+00; -4.6740126E-02;0; -1.9004326E-02;  3.9982445E+04;  0.0000000E+00; -1.2187949E-02;  4.0000000E+04;  0.0000000E+00;  4.0003223E+04; -3.5642959E-02;  0.0000000E+00;  1.6638633E-02;  4.2620264E+02;
  5.0190842E-01;  9.9999998E-03;  3.9995465E-02;5530; -9.5335990E-03;  0.0000000E+00;  7.3073676E-04;  9.9984222E+02;  1.0000377E-01; -1.3071236E+02;3; -2.3609848E+00;  0.0000000E+00; -6.1040558E-02;0; -1.9111589E-02;  3.9981422E+04;  0.0000000E+00; -2.1549841E-02;  4.0000000E+04;  0.0000000E+00;  4.0003227E+04; -3.5500094E-02;  0.0000000E+00;  1.6388506E-02;  4.0671210E+02;
  5.0190037E-01;  9.9999998E-03;  4.9993414E-02;5531; -9.5266150E-03;  0.0000000E+00;  9.0228720E-04;  9.9982953E+02;  1.0000374E-01; -1.4123058E+02;3; -2.3415482E+00;  0.0000000E+00; -7.3727816E-02;0; -1.9250263E-02;  3.9980621E+04;  0.0000000E+00; -3.3284001E-02;  4.0000000E+04;  0.0000000E+00;  4.0002711E+04; -3.5326216E-02;  0.0000000E+00;  1.6075954E-02;  3.8006238E+02;
  5.0188845E-01;  9.9999998E-03;  5.9991233E-02;5532; -9.5226336E-03;  0.0000000E+00;  1.0680337E-03;  9.9981940E+02;  1.0000376E-01; -1.4962540E+02;3; -2.3178301E+00;  0.0000000E+00; -8.4738940E-02;0; -1.9419709E-02;  3.9980242E+04;  0.0000000E+00; -4.6936881E-02;  4.0000000E+04;  0.0000000E+00;  4.0002512E+04; -3.5127286E-02;  0.0000000E+00;  1.5707577E-02;  3.4561053E+02;
  5.1181430E-01;  9.9999998E-03; -9.9973403E-02;5577; -9.9022109E-03;  0.0000000E+00; -1.7482064E-03;  9.9976569E+02;  1.0000619E-01; -1.9411797E+02;3; -2.1764414E+00;  0.0000000E+00;  1.6152337E-01;0; -2.0534325E-02;  3.9975512E+04;  0.0000000E+00; -1.3240547E-01;  4.0000000E+04;  0.0000000E+00;  4.0000891E+04; -3.4912389E-02;  0.0000000E+00;  1.4378062E-02;  2.2431979E+02;
  5.1183385E-01;  9.9999998E-03; -8.9976475E-02;5578; -9.8857228E-03;  0.0000000E+00; -1.6039147E-03;  9.9977319E+02;  1.0000612E-01; -1.8789592E+02;3; -2.2167773E+00;  0.0000000E+00;  1.5101293E-01;0; -2.0251345E-02;  3.9975141E+04;  0.0000000E+00; -1.2226406E-01;  4.0000000E+04;  0.0000000E+00;  4.0001273E+04; -3.5193305E-02;  0.0000000E+00;  1.4941960E-02;  2.7300989E+02;
  5.1185006E-01;  9.9999998E-03; -7.9980075E-02;5579; -9.8753339E-03;  0.0000000E+00; -1.4518241E-03;  9.9978137E+02;  1.0000617E-01; -1.8113068E+02;3; -2.2533555E+00;  0.0000000E+00;  1.3940801E-01;0; -1.9986970E-02;  3.9975406E+04;  0.0000000E+00; -1.0704856E-01;  4.0000000E+04;  0.0000000E+00;  4.0002133E+04; -3.5465118E-02;  0.0000000E+00;  1.5478147E-02;  3.2500522E+02;
  5.1186281E-01;  9.9999998E-03; -6.9983803E-02;5580; -9.8711783E-03;  0.0000000E+00; -1.2917941E-03;  9.9979639E+02;  1.0000610E-01; -1.6868658E+02;3; -2.2856920E+00;  0.0000000E+00;  1.2685290E-01;0; -1.9745968E-02;  3.9976195E+04;  0.0000000E+00; -8.8696145E-02;  4.0000000E+04;  0.0000000E+00;  4.0002543E+04; -3.5724372E-02;  0.0000000E+00;  1.5978403E-02;  3.6919199E+02;
  5.1187176E-01;  9.9999998E-03; -5.9987362E-02;5581; -9.8726973E-03;  0.0000000E+00; -1.1237927E-03;  9.9981598E+02;  1.0000613E-01; -1.5244014E+02;3; -2.3138399E+00;  0.0000000E+00;  1.1278889E-01;0; -1.9532628E-02;  3.9976992E+04;  0.0000000E+00; -6.9150209E-02;  4.0000000E+04;  0.0000000E+00;  4.0002797E+04; -3.5966475E-02;  0.0000000E+00;  1.6433846E-02;  4.0084891E+02;
  5.1187730E-01;  9.9999998E-03; -4.9990594E-02;5582; -9.8789204E-03;  0.0000000E+00; -9.4847195E-04;  9.9983655E+02;  1.0000623E-01; -1.3540358E+02;3; -2.3381152E+00;  0.0000000E+00;  9.7090147E-02;0; -1.9350249E-02;  3.9978465E+04;  0.0000000E+00; -5.0144121E-02;  4.0000000E+04;  0.0000000E+00;  4.0003051E+04; -3.6185898E-02;  0.0000000E+00;  1.6835649E-02;  4.1981747E+02;
  5.1187944E-01;  9.9999998E-03; -3.9993398E-02;5583; -9.8879514E-03;  0.0000000E+00; -7.6680456E-04;  9.9985590E+02;  1.0000616E-01; -1.1940403E+02;3; -2.3575172E+00;  0.0000000E+00;  7.9112738E-02;0; -1.9200925E-02;  3.9979938E+04;  0.0000000E+00; -3.3082310E-02;  4.0000000E+04;  0.0000000E+00;  4.0003320E+04; -3.6376577E-02;  0.0000000E+00;  1.7175652E-02;  4.2853976E+02;
  5.1187921E-01;  9.9999998E-03; -2.9995697E-02;5584; -9.8977648E-03;  0.0000000E+00; -5.7971827E-04;  9.9987762E+02;  1.0000622E-01; -1.0137985E+02;3; -2.3732388E+00;  0.0000000E+00;  5.9794653E-02;0; -1.9085260E-02;  3.9981262E+04;  0.0000000E+00; -1.8991886E-02;  4.0000000E+04;  0.0000000E+00;  4.0003344E+04; -3.6532309E-02;  0.0000000E+00;  1.7447049E-02;  4.3032480E+02;
  5.1187813E-01;  9.9999998E-03; -1.9997559E-02;5585; -9.9064559E-03;  0.0000000E+00; -3.8848043E-04;  9.9989447E+02;  1.0000621E-01; -8.7404938E+01;3; -2.3841887E+00;  0.0000000E+00;  4.0843379E-02;0; -1.9003503E-02;  3.9982988E+04;  0.0000000E+00; -8.5491799E-03;  4.0000000E+04;  0.0000000E+00;  4.0003434E+04; -3.6648005E-02;  0.0000000E+00;  1.7644502E-02;  4.2858142E+02;
  5.1187694E-01;  9.9999998E-03; -9.9989688E-03;5586; -9.9124415E-03;  0.0000000E+00; -1.9458494E-04;  9.9990546E+02;  1.0000639E-01; -7.8318771E+01;3; -2.3907578E+00;  0.0000000E+00;  2.0098174E-02;0; -1.8954881E-02;  3.9983645E+04;  0.0000000E+00; -2.1521689E-03;  4.0000000E+04;  0.0000000E+00;  4.0003367E+04; -3.6719255E-02;  0.0000000E+00;  1.7764375E-02;  4.2623022E+02;
  5.1187664E-01;  9.9999998E-03;  8.2265545E-09;5587; -9.9145500E-03;  0.0000000E+00;  2.7418794E-08;  9.9990753E+02;  1.0000618E-01; -7.6590424E+01;3; -2.3926523E+00;  0.0000000E+00;  2.7378683E-06;0; -1.8938677E-02;  3.9983922E+04;  0.0000000E+00;  5.7939080E-14;  4.0000000E+04;  0.0000000E+00;  4.0003152E+04; -3.6743276E-02;  0.0000000E+00;  1.7804598E-02;  4.2517316E+02;
  5.1187694E-01;  9.9999998E-03;  9.9989856E-03;5588; -9.9124461E-03;  0.0000000E+00;  1.9464015E-04;  9.9990552E+02;  1.0000639E-01; -7.8269394E+01;3; -2.3907771E+00;  0.0000000E+00; -2.0093281E-02;0; -1.8954849E-02;  3.9983645E+04;  0.0000000E+00; -2.1522010E-03;  4.0000000E+04;  0.0000000E+00;  4.0003367E+04; -3.6719225E-02;  0.0000000E+00;  1.7764376E-02;  4.2623001E+02;
  5.1187813E-01;  9.9999998E-03;  1.9997576E-02;5589; -9.9064633E-03;  0.0000000E+00;  3.8853631E-04;  9.9989447E+02;  1.0000621E-01; -8.7404938E+01;3; -2.3842056E+00;  0.0000000E+00; -4.0839247E-02;0; -1.9003477E-02;  3.9982988E+04;  0.0000000E+00; -8.5490458E-03;  4.0000000E+04;  0.0000000E+00;  4.0003434E+04; -3.6647994E-02;  0.0000000E+00;  1.7644517E-02;  4.2859763E+02;
  5.1187921E-01;  9.9999998E-03;  2.9995713E-02;5590; -9.8977778E-03;  0.0000000E+00;  5.7977467E-04;  9.9987762E+02;  1.0000622E-01; -1.0137985E+02;3; -2.3732677E+00;  0.0000000E+00; -5.9794273E-02;0; -1.9085245E-02;  3.9981258E+04;  0.0000000E+00; -1.8991591E-02;  4.0000000E+04;  0.0000000E+00;  4.0003344E+04; -3.6532309E-02;  0.0000000E+00;  1.7447064E-02;  4.3032336E+02;
  5.1187944E-01;  9.9999998E-03;  3.9993417E-02;5591; -9.8879654E-03;  0.0000000E+00;  7.6686154E-04;  9.9985602E+02;  1.0000611E-01; -1.1930527E+02;3; -2.3575191E+00;  0.0000000E+00; -7.9112172E-02;0; -1.9200904E-02;  3.9979938E+04;  0.0000000E+00; -3.3082634E-02;  4.0000000E+04;  0.0000000E+00;  4.0003320E+04; -3.6376595E-02;  0.0000000E+00;  1.7175691E-02;  4.2855066E+02;
  5.1187730E-01;  9.9999998E-03;  4.9990609E-02;5592; -9.8789381E-03;  0.0000000E+00;  9.4852928E-04;  9.9983655E+02;  1.0000623E-01; -1.3540358E+02;3; -2.3381386E+00;  0.0000000E+00; -9.7084947E-02;0; -1.9350287E-02;  3.9978465E+04;  0.0000000E+00; -5.0144669E-02;  4.0000000E+04;  0.0000000E+00;  4.0003055E+04; -3.6185965E-02;  0.0000000E+00;  1.6835678E-02;  4.1981982E+02;
  5.1187176E-01;  9.9999998E-03;  5.9987381E-02;5593; -9.8727169E-03;  0.0000000E+00;  1.1238504E-03;  9.9981598E+02;  1.0000613E-01; -1.5244014E+02;3; -2.3138597E+00;  0.0000000E+00; -1.1278466E-01;0; -1.9532705E-02;  3.9976992E+04;  0.0000000E+00; -6.9148138E-02;  4.0000000E+04;  0.0000000E+00;  4.0002801E+04; -3.5966575E-02;  0.0000000E+00;  1.6433870E-02;  4.0082794E+02;
  5.2180928E-01;  9.9999998E-03; -9.9970557E-02;5638; -1.0254079E-02;  0.0000000E+00; -1.8248896E-03;  9.9972046E+02;  1.0001040E-01; -2.3159839E+02;3; -2.1665046E+00;  0.0000000E+00;  2.0811902E-01;0; -2.0700365E-02;  3.9967301E+04;  0.0000000E+00; -1.4927471E-01;  4.0000000E+04;  0.0000000E+00;  4.0000820E+04; -3.5625424E-02;  0.0000000E+00;  1.4925059E-02;  2.4896391E+02;
  5.2182317E-01;  9.9999998E-03; -8.9974485E-02;5639; -1.0239495E-02;  0.0000000E+00; -1.6746786E-03;  9.9972308E+02;  1.0001049E-01; -2.2942561E+02;3; -2.2074976E+00;  0.0000000E+00;  1.9385371E-01;0; -2.0401621E-02;  3.9967219E+04;  0.0000000E+00; -1.4157504E-01;  4.0000000E+04;  0.0000000E+00;  4.0001523E+04; -3.5940770E-02;  0.0000000E+00;  1.5539149E-02;  3.0424603E+02;
  5.2183390E-01;  9.9999998E-03; -7.9978645E-02;5640; -1.0231071E-02;  0.0000000E+00; -1.5155227E-03;  9.9973102E+02;  1.0001046E-01; -2.2285789E+02;3; -2.2443926E+00;  0.0000000E+00;  1.7822810E-01;0; -2.0122180E-02;  3.9967328E+04;  0.0000000E+00; -1.2689494E-01;  4.0000000E+04;  0.0000000E+00;  4.0002027E+04; -3.6244553E-02;  0.0000000E+00;  1.6122373E-02;  3.5827634E+02;
  5.2184147E-01;  9.9999998E-03; -6.9982708E-02;5641; -1.0228959E-02;  0.0000000E+00; -1.3476090E-03;  9.9974860E+02;  1.0001037E-01; -2.0829041E+02;3; -2.2773337E+00;  0.0000000E+00;  1.6142280E-01;0; -1.9867515E-02;  3.9967914E+04;  0.0000000E+00; -1.0734416E-01;  4.0000000E+04;  0.0000000E+00;  4.0002582E+04; -3.6532812E-02;  0.0000000E+00;  1.6665297E-02;  3.9872296E+02;
  5.2184606E-01;  9.9999998E-03; -5.9986487E-02;5642; -1.0232595E-02;  0.0000000E+00; -1.1713982E-03;  9.9976605E+02;  1.0001051E-01; -1.9382169E+02;3; -2.3056371E+00;  0.0000000E+00;  1.4242689E-01;0; -1.9642305E-02;  3.9968895E+04;  0.0000000E+00; -8.5228920E-02;  4.0000000E+04;  0.0000000E+00;  4.0002902E+04; -3.6800466E-02;  0.0000000E+00;  1.7158162E-02;  4.2108990E+02;
  5.2184814E-01;  9.9999998E-03; -4.9989883E-02;5643; -1.0240803E-02;  0.0000000E+00; -9.8717306E-04;  9.9978979E+02;  1.0001035E-01; -1.7416791E+02;3; -2.3300250E+00;  0.0000000E+00;  1.2131432E-01;0; -1.9450206E-02;  3.9970336E+04;  0.0000000E+00; -6.2781408E-02;  4.0000000E+04;  0.0000000E+00;  4.0003223E+04; -3.7041795E-02;  0.0000000E+00;  1.7591588E-02;  4.2656131E+02;
  5.2184755E-01;  9.9999998E-03; -3.9992850E-02;5644; -1.0251610E-02;  0.0000000E+00; -7.9600944E-04;  9.9981110E+02;  1.0001035E-01; -1.5648940E+02;3; -2.3500800E+00;  0.0000000E+00;  9.9104553E-02;0; -1.9293400E-02;  3.9972043E+04;  0.0000000E+00; -4.1963652E-02;  4.0000000E+04;  0.0000000E+00;  4.0003184E+04; -3.7250418E-02;  0.0000000E+00;  1.7957019E-02;  4.1958060E+02;
  5.2184576E-01;  9.9999998E-03; -2.9995257E-02;5645; -1.0262890E-02;  0.0000000E+00; -6.0015277E-04;  9.9982825E+02;  1.0001040E-01; -1.4231696E+02;3; -2.3653047E+00;  0.0000000E+00;  7.4715272E-02;0; -1.9172508E-02;  3.9973695E+04;  0.0000000E+00; -2.4338894E-02;  4.0000000E+04;  0.0000000E+00;  4.0003121E+04; -3.7420295E-02;  0.0000000E+00;  1.8247787E-02;  4.0596234E+02;
  5.2184361E-01;  9.9999998E-03; -1.9997230E-02;5646; -1.0272681E-02;  0.0000000E+00; -4.0160591E-04;  9.9984802E+02;  1.0001042E-01; -1.2592236E+02;3; -2.3764427E+00;  0.0000000E+00;  4.9958192E-02;0; -1.9087249E-02;  3.9975273E+04;  0.0000000E+00; -1.1037055E-02;  4.0000000E+04;  0.0000000E+00;  4.0003012E+04; -3.7545938E-02;  0.0000000E+00;  1.8458689E-02;  3.9137994E+02;
  5.2184194E-01;  9.9999998E-03; -9.9987816E-03;5647; -1.0279262E-02;  0.0000000E+00; -2.0106937E-04;  9.9985895E+02;  1.0001042E-01; -1.1683620E+02;3; -2.3830080E+00;  0.0000000E+00;  2.5279168E-02;0; -1.9036660E-02;  3.9976168E+04;  0.0000000E+00; -2.7906911E-03;  4.0000000E+04;  0.0000000E+00;  4.0002738E+04; -3.7623163E-02;  0.0000000E+00;  1.8586503E-02;  3.8061102E+02;
  5.2184141E-01;  9.9999998E-03;  8.6235783E-09;5648; -1.0281618E-02;  0.0000000E+00;  2.9528586E-08;  9.9986432E+02;  1.0001050E-01; -1.1239188E+02;3; -2.3847353E+00;  0.0000000E+00;  1.2360888E-06;0; -1.9019974E-02;  3.9976465E+04;  0.0000000E+00; -4.6853932E-13;  4.0000000E+04;  0.0000000E+00;  4.0002805E+04; -3.7649281E-02;  0.0000000E+00;  1.8629307E-02;  3.7659293E+02;
  5.2184194E-01;  9.9999998E-03;  9.9987984E-03;5649; -1.0279266E-02;  0.0000000E+00;  2.0112886E-04;  9.9985901E+02;  1.0001042E-01; -1.1678682E+02;3; -2.3830101E+00;  0.0000000E+00; -2.5276378E-02;0; -1.9036680E-02;  3.9976168E+04;  0.0000000E+00; -2.7909670E-03;  4.0000000E+04;  0.0000000E+00;  4.0002738E+04; -3.7623186E-02;  0.0000000E+00;  1.8586505E-02;  3.8060529E+02;
  5.2184361E-01;  9.9999998E-03;  1.9997248E-02;5650; -1.0272690E-02;  0.0000000E+00;  4.0166616E-04;  9.9984802E+02;  1.0001042E-01; -1.2592236E+02;3; -2.3764501E+00;  0.0000000E+00; -4.9956657E-02;0; -1.9087231E-02;  3.9975273E+04;  0.0000000E+00; -1.1037445E-02;  4.0000000E+04;  0.0000000E+00;  4.0003012E+04; -3.7545938E-02;  0.0000000E+00;  1.8458707E-02;  3.9139166E+02;
  5.2184576E-01;  9.9999998E-03;  2.9995276E-02;5651; -1.0262902E-02;  0.0000000E+00;  6.0021400E-04;  9.9982819E+02;  1.0001040E-01; -1.4236635E+02;3; -2.3653226E+00;  0.0000000E+00; -7.4715115E-02;0; -1.9172465E-02;  3.9973699E+04;  0.0000000E+00; -2.4338715E-02;  4.0000000E+04;  0.0000000E+00;  4.0003121E+04; -3.7420236E-02;  0.0000000E+00;  1.8247770E-02;  4.0595673E+02;
  5.2184755E-01;  9.9999998E-03;  3.9992865E-02;5652; -1.0251625E-02;  0.0000000E+00;  7.9607131E-04;  9.9981097E+02;  1.0001045E-01; -1.5658817E+02;3; -2.3501022E+00;  0.0000000E+00; -9.9106967E-02;0; -1.9293377E-02;  3.9972039E+04;  0.0000000E+00; -4.1963264E-02;  4.0000000E+04;  0.0000000E+00;  4.0003184E+04; -3.7250429E-02;  0.0000000E+00;  1.7957052E-02;  4.1957941E+02;
  5.2184814E-01;  9.9999998E-03;  4.9989898E-02;5653; -1.0240820E-02;  0.0000000E+00;  9.8723569E-04;  9.9978979E+02;  1.0001035E-01; -1.7416791E+02;3; -2.3300254E+00;  0.0000000E+00; -1.2131672E-01;0; -1.9450219E-02;  3.9970340E+04;  0.0000000E+00; -6.2781520E-02;  4.0000000E+04;  0.0000000E+00;  4.0003223E+04; -3.7041835E-02;  0.0000000E+00;  1.7591616E-02;  4.2654858E+02;
  5.2184606E-01;  9.9999998E-03;  5.9986502E-02;5654; -1.0232615E-02;  0.0000000E+00;  1.1714615E-03;  9.9976611E+02;  1.0001051E-01; -1.9377229E+02;3; -2.3056662E+00;  0.0000000E+00; -1.4242813E-01;0; -1.9642329E-02;  3.9968895E+04;  0.0000000E+00; -8.5228667E-02;  4.0000000E+04;  0.0000000E+00;  4.0002902E+04; -3.6800541E-02;  0.0000000E+00;  1.7158212E-02;  4.2109244E+02;
  5.3179014E-01;  9.9999998E-03; -9.9975780E-02;5699; -1.0614617E-02;  0.0000000E+00; -1.8931379E-03;  9.9966998E+02;  1.0001730E-01; -2.7342438E+02;3; -2.1523504E+00;  0.0000000E+00;  2.5849444E-01;0; -2.0849839E-02;  3.9957547E+04;  0.0000000E+00; -1.4596464E-01;  4.0000000E+04;  0.0000000E+00;  4.0000414E+04; -3.6321621E-02;  0.0000000E+00;  1.5471782E-02;  2.3522119E+02;
  5.3179902E-01;  9.9999998E-03; -8.9979753E-02;5700; -1.0602705E-02;  0.0000000E+00; -1.7369497E-03;  9.9966492E+02;  1.0001747E-01; -2.7762177E+02;3; -2.1939683E+00;  0.0000000E+00;  2.4018422E-01;0; -2.0537077E-02;  3.9956305E+04;  0.0000000E+00; -1.4205138E-01;  4.0000000E+04;  0.0000000E+00;  4.0001191E+04; -3.6673583E-02;  0.0000000E+00;  1.6136507E-02;  2.9200345E+02;
  5.3180504E-01;  9.9999998E-03; -7.9983689E-02;5701; -1.0596925E-02;  0.0000000E+00; -1.5708265E-03;  9.9966193E+02;  1.0001741E-01; -2.8009085E+02;3; -2.2314422E+00;  0.0000000E+00;  2.2054598E-01;0; -2.0244850E-02;  3.9955730E+04;  0.0000000E+00; -1.3018224E-01;  4.0000000E+04;  0.0000000E+00;  4.0001891E+04; -3.7011351E-02;  0.0000000E+00;  1.6766502E-02;  3.4628290E+02;
  5.3180832E-01;  9.9999998E-03; -6.9987319E-02;5702; -1.0597376E-02;  0.0000000E+00; -1.3952829E-03;  9.9966888E+02;  1.0001725E-01; -2.7431323E+02;3; -2.2643311E+00;  0.0000000E+00;  1.9893198E-01;0; -1.9979250E-02;  3.9955273E+04;  0.0000000E+00; -1.1228029E-01;  4.0000000E+04;  0.0000000E+00;  4.0002461E+04; -3.7330493E-02;  0.0000000E+00;  1.7351244E-02;  3.8365991E+02;
  5.3180933E-01;  9.9999998E-03; -5.9990514E-02;5703; -1.0603560E-02;  0.0000000E+00; -1.2108404E-03;  9.9967322E+02;  1.0001735E-01; -2.7070840E+02;3; -2.2927227E+00;  0.0000000E+00;  1.7377850E-01;0; -1.9745389E-02;  3.9955961E+04;  0.0000000E+00; -9.0656288E-02;  4.0000000E+04;  0.0000000E+00;  4.0002625E+04; -3.7625510E-02;  0.0000000E+00;  1.7880121E-02;  3.9924738E+02;
  5.3180796E-01;  9.9999998E-03; -4.9993284E-02;5704; -1.0613855E-02;  0.0000000E+00; -1.0178754E-03;  9.9968744E+02;  1.0001732E-01; -2.5895563E+02;3; -2.3174508E+00;  0.0000000E+00;  1.4695540E-01;0; -1.9546902E-02;  3.9956719E+04;  0.0000000E+00; -6.7739792E-02;  4.0000000E+04;  0.0000000E+00;  4.0002750E+04; -3.7890080E-02;  0.0000000E+00;  1.8343179E-02;  3.9472964E+02;
  5.3180486E-01;  9.9999998E-03; -3.9995514E-02;5705; -1.0626415E-02;  0.0000000E+00; -8.1883580E-04;  9.9970459E+02;  1.0001732E-01; -2.4473383E+02;3; -2.3374267E+00;  0.0000000E+00;  1.2055065E-01;0; -1.9385939E-02;  3.9958035E+04;  0.0000000E+00; -4.5811407E-02;  4.0000000E+04;  0.0000000E+00;  4.0002645E+04; -3.8117975E-02;  0.0000000E+00;  1.8732036E-02;  3.7598859E+02;
  5.3180170E-01;  9.9999998E-03; -2.9997120E-02;5706; -1.0639245E-02;  0.0000000E+00; -6.1606744E-04;  9.9972144E+02;  1.0001733E-01; -2.3080829E+02;3; -2.3528509E+00;  0.0000000E+00;  9.0511337E-02;0; -1.9262599E-02;  3.9959352E+04;  0.0000000E+00; -2.6814681E-02;  4.0000000E+04;  0.0000000E+00;  4.0002367E+04; -3.8302813E-02;  0.0000000E+00;  1.9040214E-02;  3.5059116E+02;
  5.3179866E-01;  9.9999998E-03; -1.9998416E-02;5707; -1.0649985E-02;  0.0000000E+00; -4.1143605E-04;  9.9973163E+02;  1.0001739E-01; -2.2236407E+02;3; -2.3637705E+00;  0.0000000E+00;  6.1004423E-02;0; -1.9176194E-02;  3.9960445E+04;  0.0000000E+00; -1.2239875E-02;  4.0000000E+04;  0.0000000E+00;  4.0002156E+04; -3.8439237E-02;  0.0000000E+00;  1.9263042E-02;  3.2615268E+02;
  5.3179669E-01;  9.9999998E-03; -9.9993525E-03;5708; -1.0657170E-02;  0.0000000E+00; -2.0596597E-04;  9.9974170E+02;  1.0001720E-01; -2.1401863E+02;3; -2.3703465E+00;  0.0000000E+00;  3.0160686E-02;0; -1.9125072E-02;  3.9961188E+04;  0.0000000E+00; -3.1070772E-03;  4.0000000E+04;  0.0000000E+00;  4.0002020E+04; -3.8522817E-02;  0.0000000E+00;  1.9397745E-02;  3.0880099E+02;
  5.3179604E-01;  9.9999998E-03;  8.9755812E-09;5709; -1.0659639E-02;  0.0000000E+00;  3.1854754E-08;  9.9974323E+02;  1.0001738E-01; -2.1273473E+02;3; -2.3722997E+00;  0.0000000E+00; -7.0303031E-07;0; -1.9108325E-02;  3.9961562E+04;  0.0000000E+00; -8.3149893E-13;  4.0000000E+04;  0.0000000E+00;  4.0001949E+04; -3.8551114E-02;  0.0000000E+00;  1.9442789E-02;  3.0253470E+02;
  5.3179669E-01;  9.9999998E-03;  9.9993702E-03;5710; -1.0657175E-02;  0.0000000E+00;  2.0603008E-04;  9.9974170E+02;  1.0001720E-01; -2.1401863E+02;3; -2.3703470E+00;  0.0000000E+00; -3.0161273E-02;0; -1.9125113E-02;  3.9961191E+04;  0.0000000E+00; -3.1072493E-03;  4.0000000E+04;  0.0000000E+00;  4.0002016E+04; -3.8522851E-02;  0.0000000E+00;  1.9397737E-02;  3.0879202E+02;
  5.3179866E-01;  9.9999998E-03;  1.9998435E-02;5711; -1.0649992E-02;  0.0000000E+00;  4.1150092E-04;  9.9973169E+02;  1.0001739E-01; -2.2231470E+02;3; -2.3637836E+00;  0.0000000E+00; -6.1004806E-02;0; -1.9176183E-02;  3.9960445E+04;  0.0000000E+00; -1.2239946E-02;  4.0000000E+04;  0.0000000E+00;  4.0002156E+04; -3.8439248E-02;  0.0000000E+00;  1.9263064E-02;  3.2613425E+02;
  5.3180170E-01;  9.9999998E-03;  2.9997136E-02;5712; -1.0639255E-02;  0.0000000E+00;  6.1613310E-04;  9.9972144E+02;  1.0001733E-01; -2.3080829E+02;3; -2.3528581E+00;  0.0000000E+00; -9.0513162E-02;0; -1.9262606E-02;  3.9959355E+04;  0.0000000E+00; -2.6815327E-02;  4.0000000E+04;  0.0000000E+00;  4.0002367E+04; -3.8302824E-02;  0.0000000E+00;  1.9040218E-02;  3.5057486E+02;
  5.3180486E-01;  9.9999998E-03;  3.9995529E-02;5713; -1.0626431E-02;  0.0000000E+00;  8.1890187E-04;  9.9970447E+02;  1.0001726E-01; -2.4483258E+02;3; -2.3374357E+00;  0.0000000E+00; -1.2055281E-01;0; -1.9385865E-02;  3.9958043E+04;  0.0000000E+00; -4.5811664E-02;  4.0000000E+04;  0.0000000E+00;  4.0002645E+04; -3.8117941E-02;  0.0000000E+00;  1.8732077E-02;  3.7600015E+02;
  5.3180796E-01;  9.9999998E-03;  4.9993303E-02;5714; -1.0613873E-02;  0.0000000E+00;  1.0179423E-03;  9.9968750E+02;  1.0001732E-01; -2.5890625E+02;3; -2.3174777E+00;  0.0000000E+00; -1.4695738E-01;0; -1.9546999E-02;  3.9956715E+04;  0.0000000E+00; -6.7740560E-02;  4.0000000E+04;  0.0000000E+00;  4.0002746E+04; -3.7890211E-02;  0.0000000E+00;  1.8343212E-02;  3.9473322E+02;
  5.3180933E-01;  9.9999998E-03;  5.9990533E-02;5715; -1.0603582E-02;  0.0000000E+00;  1.2109078E-03;  9.9967310E+02;  1.0001728E-01; -2.7085654E+02;3; -2.2927539E+00;  0.0000000E+00; -1.7377844E-01;0; -1.9745432E-02;  3.9955949E+04;  0.0000000E+00; -9.0657569E-02;  4.0000000E+04;  0.0000000E+00;  4.0002625E+04; -3.7625566E-02;  0.0000000E+00;  1.7880134E-02;  3.9924271E+02;
  5.4176623E-01;  9.9999998E-03; -9.9987477E-02;5760; -1.0983834E-02;  0.0000000E+00; -1.9556514E-03;  9.9964673E+02;  1.0002934E-01; -2.9268307E+02;3; -2.1341307E+00;  0.0000000E+00;  3.1353438E-01;0; -2.0977644E-02;  3.9945715E+04;  0.0000000E+00; -1.1828986E-01;  4.0000000E+04;  0.0000000E+00;  3.9999914E+04; -3.6995787E-02;  0.0000000E+00;  1.6018143E-02;  1.8065036E+02;
  5.4177094E-01;  9.9999998E-03; -8.9990631E-02;5761; -1.0975509E-02;  0.0000000E+00; -1.7935357E-03;  9.9962531E+02;  1.0002936E-01; -3.1041098E+02;3; -2.1760852E+00;  0.0000000E+00;  2.9058227E-01;0; -2.0652082E-02;  3.9943254E+04;  0.0000000E+00; -1.1911903E-01;  4.0000000E+04;  0.0000000E+00;  4.0000910E+04; -3.7386216E-02;  0.0000000E+00;  1.6734134E-02;  2.3367239E+02;
  5.4177296E-01;  9.9999998E-03; -7.9993650E-02;5762; -1.0973278E-02;  0.0000000E+00; -1.6204456E-03;  9.9960706E+02;  1.0002926E-01; -3.2557104E+02;3; -2.2135828E+00;  0.0000000E+00;  2.6497313E-01;0; -2.0348798E-02;  3.9940887E+04;  0.0000000E+00; -1.1232794E-01;  4.0000000E+04;  0.0000000E+00;  4.0001371E+04; -3.7759796E-02;  0.0000000E+00;  1.7410997E-02;  2.8728195E+02;
  5.4177243E-01;  9.9999998E-03; -6.9996253E-02;5763; -1.0977202E-02;  0.0000000E+00; -1.4369324E-03;  9.9959174E+02;  1.0002947E-01; -3.3826202E+02;3; -2.2462158E+00;  0.0000000E+00;  2.3806582E-01;0; -2.0074565E-02;  3.9939398E+04;  0.0000000E+00; -9.9262051E-02;  4.0000000E+04;  0.0000000E+00;  4.0001840E+04; -3.8111575E-02;  0.0000000E+00;  1.8037010E-02;  3.2345126E+02;
  5.4176939E-01;  9.9999998E-03; -5.9998363E-02;5764; -1.0986465E-02;  0.0000000E+00; -1.2440567E-03;  9.9958417E+02;  1.0002933E-01; -3.4453348E+02;3; -2.2751405E+00;  0.0000000E+00;  2.0729597E-01;0; -1.9834595E-02;  3.9938316E+04;  0.0000000E+00; -8.1811659E-02;  4.0000000E+04;  0.0000000E+00;  4.0002035E+04; -3.8435362E-02;  0.0000000E+00;  1.8600767E-02;  3.3607837E+02;
  5.4176408E-01;  9.9999998E-03; -4.9999956E-02;5765; -1.0999331E-02;  0.0000000E+00; -1.0433070E-03;  9.9958026E+02;  1.0002938E-01; -3.4774326E+02;3; -2.2998941E+00;  0.0000000E+00;  1.7581236E-01;0; -1.9632418E-02;  3.9938145E+04;  0.0000000E+00; -6.2186994E-02;  4.0000000E+04;  0.0000000E+00;  4.0002031E+04; -3.8724508E-02;  0.0000000E+00;  1.9092090E-02;  3.2663492E+02;
  5.4175806E-01;  9.9999998E-03; -4.0000949E-02;5766; -1.1014074E-02;  0.0000000E+00; -8.3764165E-04;  9.9957794E+02;  1.0002935E-01; -3.4966913E+02;3; -2.3198295E+00;  0.0000000E+00;  1.4361122E-01;0; -1.9469855E-02;  3.9938336E+04;  0.0000000E+00; -4.2644504E-02;  4.0000000E+04;  0.0000000E+00;  4.0001730E+04; -3.8972605E-02;  0.0000000E+00;  1.9502750E-02;  3.0130789E+02;
  5.4175240E-01;  9.9999998E-03; -3.0001350E-02;5767; -1.1028514E-02;  0.0000000E+00; -6.2896207E-04;  9.9958502E+02;  1.0002936E-01; -3.4379276E+02;3; -2.3352754E+00;  0.0000000E+00;  1.0885625E-01;0; -1.9346414E-02;  3.9938863E+04;  0.0000000E+00; -2.5229326E-02;  4.0000000E+04;  0.0000000E+00;  4.0001375E+04; -3.9173182E-02;  0.0000000E+00;  1.9826768E-02;  2.6883655E+02;
  5.4174775E-01;  9.9999998E-03; -2.0001283E-02;5768; -1.1040455E-02;  0.0000000E+00; -4.1952392E-04;  9.9959039E+02;  1.0002936E-01; -3.3934842E+02;3; -2.3461351E+00;  0.0000000E+00;  7.2628796E-02;0; -1.9260636E-02;  3.9939535E+04;  0.0000000E+00; -1.1604032E-02;  4.0000000E+04;  0.0000000E+00;  4.0001352E+04; -3.9320894E-02;  0.0000000E+00;  2.0060258E-02;  2.3805464E+02;
  5.4174489E-01;  9.9999998E-03; -1.0000831E-02;5769; -1.1048299E-02;  0.0000000E+00; -2.0975931E-04;  9.9959161E+02;  1.0002940E-01; -3.3836081E+02;3; -2.3528967E+00;  0.0000000E+00;  3.5261575E-02;0; -1.9210374E-02;  3.9939781E+04;  0.0000000E+00; -2.9590998E-03;  4.0000000E+04;  0.0000000E+00;  4.0001031E+04; -3.9411385E-02;  0.0000000E+00;  2.0201011E-02;  2.1640970E+02;
  5.4174399E-01;  9.9999998E-03;  9.2914316E-09;5770; -1.1050941E-02;  0.0000000E+00;  3.4457383E-08;  9.9959290E+02;  1.0002925E-01; -3.3727441E+02;3; -2.3553963E+00;  0.0000000E+00; -2.1634478E-06;0; -1.9193698E-02;  3.9939973E+04;  0.0000000E+00;  4.4894890E-13;  4.0000000E+04;  0.0000000E+00;  4.0001113E+04; -3.9441776E-02;  0.0000000E+00;  2.0248078E-02;  2.0862457E+02;
  5.4174489E-01;  9.9999998E-03;  1.0000849E-02;5771; -1.1048304E-02;  0.0000000E+00;  2.0982843E-04;  9.9959161E+02;  1.0002940E-01; -3.3836081E+02;3; -2.3528872E+00;  0.0000000E+00; -3.5262197E-02;0; -1.9210324E-02;  3.9939777E+04;  0.0000000E+00; -2.9593317E-03;  4.0000000E+04;  0.0000000E+00;  4.0001031E+04; -3.9411340E-02;  0.0000000E+00;  2.0201016E-02;  2.1641162E+02;
  5.4174775E-01;  9.9999998E-03;  2.0001302E-02;5772; -1.1040462E-02;  0.0000000E+00;  4.1959356E-04;  9.9959039E+02;  1.0002936E-01; -3.3934842E+02;3; -2.3461454E+00;  0.0000000E+00; -7.2632208E-02;0; -1.9260680E-02;  3.9939539E+04;  0.0000000E+00; -1.1604283E-02;  4.0000000E+04;  0.0000000E+00;  4.0001352E+04; -3.9320935E-02;  0.0000000E+00;  2.0060254E-02;  2.3805804E+02;
  5.4175240E-01;  9.9999998E-03;  3.0001368E-02;5773; -1.1028525E-02;  0.0000000E+00;  6.2903238E-04;  9.9958502E+02;  1.0002931E-01; -3.4379276E+02;3; -2.3352871E+00;  0.0000000E+00; -1.0885937E-01;0; -1.9346489E-02;  3.9938867E+04;  0.0000000E+00; -2.5229596E-02;  4.0000000E+04;  0.0000000E+00;  4.0001375E+04; -3.9173272E-02;  0.0000000E+00;  1.9826783E-02;  2.6883612E+02;
  5.4175806E-01;  9.9999998E-03;  4.0000968E-02;5774; -1.1014090E-02;  0.0000000E+00;  8.3771255E-04;  9.9957800E+02;  1.0002930E-01; -3.4961975E+02;3; -2.3198483E+00;  0.0000000E+00; -1.4361374E-01;0; -1.9469885E-02;  3.9938332E+04;  0.0000000E+00; -4.2644531E-02;  4.0000000E+04;  0.0000000E+00;  4.0001723E+04; -3.8972646E-02;  0.0000000E+00;  1.9502761E-02;  3.0130939E+02;
  5.4176408E-01;  9.9999998E-03;  4.9999975E-02;5775; -1.0999351E-02;  0.0000000E+00;  1.0433784E-03;  9.9958026E+02;  1.0002938E-01; -3.4774326E+02;3; -2.2999036E+00;  0.0000000E+00; -1.7581841E-01;0; -1.9632494E-02;  3.9938145E+04;  0.0000000E+00; -6.2187530E-02;  4.0000000E+04;  0.0000000E+00;  4.0002027E+04; -3.8724575E-02;  0.0000000E+00;  1.9092081E-02;  3.2662540E+02;
  5.4176939E-01;  9.9999998E-03;  5.9998382E-02;5776; -1.0986486E-02;  0.0000000E+00;  1.2441286E-03;  9.9958423E+02;  1.0002933E-01; -3.4443469E+02;3; -2.2751539E+00;  0.0000000E+00; -2.0730253E-01;0; -1.9834548E-02;  3.9938316E+04;  0.0000000E+00; -8.1814058E-02;  4.0000000E+04;  0.0000000E+00;  4.0002035E+04; -3.8435355E-02;  0.0000000E+00;  1.8600807E-02;  3.3606125E+02;
  5.5175215E-01;  9.9999998E-03; -1.0000116E-01;5821; -1.1361226E-02;  0.0000000E+00; -2.0165960E-03;  9.9966174E+02;  1.0004845E-01; -2.8023898E+02;3; -2.1113474E+00;  0.0000000E+00;  3.7254801E-01;0; -2.1077834E-02;  3.9931465E+04;  0.0000000E+00; -6.5487556E-02;  4.0000000E+04;  0.0000000E+00;  3.9999414E+04; -3.7642140E-02;  0.0000000E+00;  1.6564306E-02;  9.3439796E+01;
  5.5175507E-01;  9.9999998E-03; -9.0003215E-02;5822; -1.1357614E-02;  0.0000000E+00; -1.8482008E-03;  9.9961536E+02;  1.0004840E-01; -3.1865765E+02;3; -2.1528337E+00;  0.0000000E+00;  3.4301805E-01;0; -2.0739751E-02;  3.9927297E+04;  0.0000000E+00; -7.1448036E-02;  4.0000000E+04;  0.0000000E+00;  3.9999906E+04; -3.8072374E-02;  0.0000000E+00;  1.7332623E-02;  1.3353615E+02;
  5.5175453E-01;  9.9999998E-03; -8.0004923E-02;5823; -1.1360148E-02;  0.0000000E+00; -1.6676647E-03;  9.9957416E+02;  1.0004842E-01; -3.5278015E+02;3; -2.1904685E+00;  0.0000000E+00;  3.1216249E-01;0; -2.0426212E-02;  3.9923148E+04;  0.0000000E+00; -7.1647875E-02;  4.0000000E+04;  0.0000000E+00;  4.0000578E+04; -3.8483072E-02;  0.0000000E+00;  1.8056860E-02;  1.8729045E+02;
  5.5175054E-01;  9.9999998E-03; -7.0006140E-02;5824; -1.1368445E-02;  0.0000000E+00; -1.4762263E-03;  9.9953589E+02;  1.0004834E-01; -3.8448294E+02;3; -2.2235332E+00;  0.0000000E+00;  2.7964199E-01;0; -2.0144278E-02;  3.9919859E+04;  0.0000000E+00; -6.6491514E-02;  4.0000000E+04;  0.0000000E+00;  4.0000938E+04; -3.8868375E-02;  0.0000000E+00;  1.8724097E-02;  2.2540752E+02;
  5.5174381E-01;  9.9999998E-03; -6.0006868E-02;5825; -1.1381502E-02;  0.0000000E+00; -1.2749973E-03;  9.9950690E+02;  1.0004846E-01; -4.0853165E+02;3; -2.2522442E+00;  0.0000000E+00;  2.4360567E-01;0; -1.9899562E-02;  3.9917395E+04;  0.0000000E+00; -5.6997702E-02;  4.0000000E+04;  0.0000000E+00;  4.0001234E+04; -3.9221868E-02;  0.0000000E+00;  1.9322306E-02;  2.3980437E+02;
  5.5173504E-01;  9.9999998E-03; -5.0007168E-02;5826; -1.1397793E-02;  0.0000000E+00; -1.0669695E-03;  9.9948199E+02;  1.0004857E-01; -4.2917303E+02;3; -2.2765813E+00;  0.0000000E+00;  2.0554098E-01;0; -1.9695424E-02;  3.9915445E+04;  0.0000000E+00; -4.4701550E-02;  4.0000000E+04;  0.0000000E+00;  4.0000844E+04; -3.9536513E-02;  0.0000000E+00;  1.9841090E-02;  2.3109459E+02;
  5.5172604E-01;  9.9999998E-03; -4.0006921E-02;5827; -1.1415340E-02;  0.0000000E+00; -8.5497333E-04;  9.9946631E+02;  1.0004835E-01; -4.4216034E+02;3; -2.2966347E+00;  0.0000000E+00;  1.6690232E-01;0; -1.9532921E-02;  3.9914215E+04;  0.0000000E+00; -3.1408548E-02;  4.0000000E+04;  0.0000000E+00;  4.0000734E+04; -3.9805558E-02;  0.0000000E+00;  2.0272637E-02;  2.0519540E+02;
  5.5171728E-01;  9.9999998E-03; -3.0006103E-02;5828; -1.1431808E-02;  0.0000000E+00; -6.4112619E-04;  9.9945886E+02;  1.0004839E-01; -4.4833301E+02;3; -2.3118722E+00;  0.0000000E+00;  1.2582090E-01;0; -1.9410867E-02;  3.9913785E+04;  0.0000000E+00; -1.8924693E-02;  4.0000000E+04;  0.0000000E+00;  4.0000449E+04; -4.0022470E-02;  0.0000000E+00;  2.0611603E-02;  1.7089117E+02;
  5.5170989E-01;  9.9999998E-03; -2.0004757E-02;5829; -1.1445165E-02;  0.0000000E+00; -4.2731204E-04;  9.9945087E+02;  1.0004836E-01; -4.5495010E+02;3; -2.3231630E+00;  0.0000000E+00;  8.4284984E-02;0; -1.9326860E-02;  3.9913324E+04;  0.0000000E+00; -8.8162534E-03;  4.0000000E+04;  0.0000000E+00;  4.0000309E+04; -4.0181812E-02;  0.0000000E+00;  2.0854952E-02;  1.3778476E+02;
  5.5170470E-01;  9.9999998E-03; -1.0002713E-02;5830; -1.1453792E-02;  0.0000000E+00; -2.1344519E-04;  9.9944305E+02;  1.0004847E-01; -4.6141904E+02;3; -2.3300881E+00;  0.0000000E+00;  4.1713510E-02;0; -1.9277981E-02;  3.9913148E+04;  0.0000000E+00; -2.2653255E-03;  4.0000000E+04;  0.0000000E+00;  4.0000297E+04; -4.0279187E-02;  0.0000000E+00;  2.1001207E-02;  1.1423814E+02;
  5.5170280E-01;  9.9999998E-03;  9.5429717E-09;5831; -1.1456709E-02;  0.0000000E+00;  3.6825661E-08;  9.9944446E+02;  1.0004861E-01; -4.6023389E+02;3; -2.3324282E+00;  0.0000000E+00; -3.7548648E-06;0; -1.9261945E-02;  3.9913133E+04;  0.0000000E+00; -2.1317689E-13;  4.0000000E+04;  0.0000000E+00;  4.0000098E+04; -4.0311906E-02;  0.0000000E+00;  2.1049961E-02;  1.0574445E+02;
  5.5170470E-01;  9.9999998E-03;  1.0002732E-02;5832; -1.1453797E-02;  0.0000000E+00;  2.1351964E-04;  9.9944312E+02;  1.0004843E-01; -4.6136966E+02;3; -2.3301032E+00;  0.0000000E+00; -4.1717350E-02;0; -1.9277966E-02;  3.9913145E+04;  0.0000000E+00; -2.2656105E-03;  4.0000000E+04;  0.0000000E+00;  4.0000301E+04; -4.0279195E-02;  0.0000000E+00;  2.1001229E-02;  1.1422894E+02;
  5.5170989E-01;  9.9999998E-03;  2.0004777E-02;5833; -1.1445172E-02;  0.0000000E+00;  4.2738675E-04;  9.9945093E+02;  1.0004843E-01; -4.5490073E+02;3; -2.3231711E+00;  0.0000000E+00; -8.4287412E-02;0; -1.9326856E-02;  3.9913328E+04;  0.0000000E+00; -8.8166604E-03;  4.0000000E+04;  0.0000000E+00;  4.0000309E+04; -4.0181801E-02;  0.0000000E+00;  2.0854944E-02;  1.3777370E+02;
  5.5171728E-01;  9.9999998E-03;  3.0006122E-02;5834; -1.1431820E-02;  0.0000000E+00;  6.4120133E-04;  9.9945886E+02;  1.0004839E-01; -4.4833301E+02;3; -2.3118706E+00;  0.0000000E+00; -1.2583017E-01;0; -1.9410904E-02;  3.9913789E+04;  0.0000000E+00; -1.8925179E-02;  4.0000000E+04;  0.0000000E+00;  4.0000449E+04; -4.0022530E-02;  0.0000000E+00;  2.0611625E-02;  1.7089249E+02;
  5.5172604E-01;  9.9999998E-03;  4.0006939E-02;5835; -1.1415358E-02;  0.0000000E+00;  8.5504883E-04;  9.9946637E+02;  1.0004835E-01; -4.4211096E+02;3; -2.2966647E+00;  0.0000000E+00; -1.6691095E-01;0; -1.9532917E-02;  3.9914215E+04;  0.0000000E+00; -3.1408343E-02;  4.0000000E+04;  0.0000000E+00;  4.0000734E+04; -3.9805561E-02;  0.0000000E+00;  2.0272644E-02;  2.0520485E+02;
  5.5173504E-01;  9.9999998E-03;  5.0007187E-02;5836; -1.1397813E-02;  0.0000000E+00;  1.0670453E-03;  9.9948218E+02;  1.0004857E-01; -4.2902490E+02;3; -2.2766063E+00;  0.0000000E+00; -2.0554581E-01;0; -1.9695446E-02;  3.9915441E+04;  0.0000000E+00; -4.4701830E-02;  4.0000000E+04;  0.0000000E+00;  4.0000840E+04; -3.9536521E-02;  0.0000000E+00;  1.9841075E-02;  2.3108052E+02;
  5.5174381E-01;  9.9999998E-03;  6.0006887E-02;5837; -1.1381524E-02;  0.0000000E+00;  1.2750730E-03;  9.9950696E+02;  1.0004842E-01; -4.0848227E+02;3; -2.2522373E+00;  0.0000000E+00; -2.4361263E-01;0; -1.9899564E-02;  3.9917391E+04;  0.0000000E+00; -5.6998394E-02;  4.0000000E+04;  0.0000000E+00;  4.0001234E+04; -3.9221894E-02;  0.0000000E+00;  1.9322330E-02;  2.3978378E+02;
  5.6176555E-01;  9.9999998E-03; -1.0001004E-01;5882; -1.1746255E-02;  0.0000000E+00; -2.0799306E-03;  9.9971814E+02;  1.0007958E-01; -2.3352426E+02;3; -2.0830963E+00;  0.0000000E+00;  4.3378964E-01;0; -2.1145009E-02;  3.9911523E+04;  0.0000000E+00;  8.1954589E-03;  4.0000000E+04;  0.0000000E+00;  3.9998758E+04; -3.8255740E-02;  0.0000000E+00;  1.7110731E-02;  7.0802711E+01;
  5.6177020E-01;  9.9999998E-03; -9.0010956E-02;5883; -1.1748629E-02;  0.0000000E+00; -1.9048080E-03;  9.9965302E+02;  1.0007951E-01; -2.8744867E+02;3; -2.1249421E+00;  0.0000000E+00;  4.0027881E-01;0; -2.0793835E-02;  3.9905668E+04;  0.0000000E+00; -2.4961010E-03;  4.0000000E+04;  0.0000000E+00;  3.9999082E+04; -3.8726419E-02;  0.0000000E+00;  1.7932585E-02;  3.4235647E+00;
  5.6177020E-01;  9.9999998E-03; -8.0011480E-02;5884; -1.1756930E-02;  0.0000000E+00; -1.7169159E-03;  9.9958905E+02;  1.0007960E-01; -3.4048419E+02;3; -2.1619914E+00;  0.0000000E+00;  3.6231115E-01;0; -2.0469675E-02;  3.9899996E+04;  0.0000000E+00; -1.0765231E-02;  4.0000000E+04;  0.0000000E+00;  3.9999629E+04; -3.9174709E-02;  0.0000000E+00;  1.8705035E-02;  6.3903927E+01;
  5.6176537E-01;  9.9999998E-03; -7.0011534E-02;5885; -1.1770687E-02;  0.0000000E+00; -1.5172805E-03;  9.9952655E+02;  1.0007960E-01; -3.9223581E+02;3; -2.1950631E+00;  0.0000000E+00;  3.2323414E-01;0; -2.0180032E-02;  3.9894766E+04;  0.0000000E+00; -1.5815571E-02;  4.0000000E+04;  0.0000000E+00;  3.9999922E+04; -3.9594043E-02;  0.0000000E+00;  1.9414011E-02;  1.0666953E+02;
  5.6175679E-01;  9.9999998E-03; -6.0011137E-02;5886; -1.1788637E-02;  0.0000000E+00; -1.3077719E-03;  9.9947601E+02;  1.0007947E-01; -4.3411118E+02;3; -2.2238512E+00;  0.0000000E+00;  2.8034693E-01;0; -1.9930767E-02;  3.9890523E+04;  0.0000000E+00; -1.7419929E-02;  4.0000000E+04;  0.0000000E+00;  4.0000016E+04; -3.9977524E-02;  0.0000000E+00;  2.0046758E-02;  1.2593095E+02;
  5.6174594E-01;  9.9999998E-03; -5.0010424E-02;5887; -1.1809150E-02;  0.0000000E+00; -1.0922267E-03;  9.9943329E+02;  1.0007939E-01; -4.6951758E+02;3; -2.2478151E+00;  0.0000000E+00;  2.3760253E-01;0; -1.9724835E-02;  3.9887043E+04;  0.0000000E+00; -1.6003454E-02;  4.0000000E+04;  0.0000000E+00;  4.0000168E+04; -4.0317860E-02;  0.0000000E+00;  2.0593025E-02;  1.2225383E+02;
  5.6173438E-01;  9.9999998E-03; -4.0009510E-02;5888; -1.1830197E-02;  0.0000000E+00; -8.7381818E-04;  9.9939838E+02;  1.0007937E-01; -4.9845505E+02;3; -2.2676828E+00;  0.0000000E+00;  1.9261380E-01;0; -1.9562755E-02;  3.9884391E+04;  0.0000000E+00; -1.2494841E-02;  4.0000000E+04;  0.0000000E+00;  3.9999824E+04; -4.0607981E-02;  0.0000000E+00;  2.1045227E-02;  1.0076865E+02;
  5.6172323E-01;  9.9999998E-03; -3.0008208E-02;5889; -1.1849280E-02;  0.0000000E+00; -6.5445126E-04;  9.9937201E+02;  1.0007945E-01; -5.2028156E+02;3; -2.2828290E+00;  0.0000000E+00;  1.4385779E-01;0; -1.9442542E-02;  3.9882969E+04;  0.0000000E+00; -8.0816336E-03;  4.0000000E+04;  0.0000000E+00;  3.9999477E+04; -4.0841460E-02;  0.0000000E+00;  2.1398919E-02;  6.9583908E+01;
  5.6171370E-01;  9.9999998E-03; -2.0006390E-02;5890; -1.1864459E-02;  0.0000000E+00; -4.3580824E-04;  9.9935687E+02;  1.0007954E-01; -5.3282446E+02;3; -2.2938552E+00;  0.0000000E+00;  9.4382010E-02;0; -1.9360619E-02;  3.9881605E+04;  0.0000000E+00; -3.9420235E-03;  4.0000000E+04;  0.0000000E+00;  3.9999129E+04; -4.1012470E-02;  0.0000000E+00;  2.1651851E-02;  3.8092052E+01;
  5.6170660E-01;  9.9999998E-03; -1.0003804E-02;5891; -1.1874096E-02;  0.0000000E+00; -2.1773223E-04;  9.9935016E+02;  1.0007961E-01; -5.3840454E+02;3; -2.3015242E+00;  0.0000000E+00;  4.6894256E-02;0; -1.9313412E-02;  3.9880773E+04;  0.0000000E+00; -1.0396496E-03;  4.0000000E+04;  0.0000000E+00;  3.9999004E+04; -4.1116882E-02;  0.0000000E+00;  2.1803470E-02;  1.4946096E+01;
  5.6170386E-01;  9.9999998E-03;  9.7809547E-09;5892; -1.1877366E-02;  0.0000000E+00;  3.9648263E-08;  9.9934381E+02;  1.0007939E-01; -5.4363892E+02;3; -2.3031621E+00;  0.0000000E+00; -2.7580545E-06;0; -1.9298028E-02;  3.9880672E+04;  0.0000000E+00; -4.9843761E-13;  4.0000000E+04;  0.0000000E+00;  3.9998949E+04; -4.1151967E-02;  0.0000000E+00;  2.1853939E-02;  6.4969888E+00;
  5.6170660E-01;  9.9999998E-03;  1.0003824E-02;5893; -1.1874099E-02;  0.0000000E+00;  2.1781163E-04;  9.9935016E+02;  1.0007961E-01; -5.3840454E+02;3; -2.3014920E+00;  0.0000000E+00; -4.6900865E-02;0; -1.9313406E-02;  3.9880770E+04;  0.0000000E+00; -1.0398917E-03;  4.0000000E+04;  0.0000000E+00;  3.9999004E+04; -4.1116878E-02;  0.0000000E+00;  2.1803472E-02;  1.4939422E+01;
  5.6171370E-01;  9.9999998E-03;  2.0006411E-02;5894; -1.1864468E-02;  0.0000000E+00;  4.3588819E-04;  9.9935687E+02;  1.0007954E-01; -5.3282446E+02;3; -2.2938738E+00;  0.0000000E+00; -9.4388001E-02;0; -1.9360630E-02;  3.9881598E+04;  0.0000000E+00; -3.9426093E-03;  4.0000000E+04;  0.0000000E+00;  3.9999133E+04; -4.1012488E-02;  0.0000000E+00;  2.1651858E-02;  3.8088001E+01;
  5.6172323E-01;  9.9999998E-03;  3.0008228E-02;5895; -1.1849294E-02;  0.0000000E+00;  6.5453153E-04;  9.9937201E+02;  1.0007945E-01; -5.2028156E+02;3; -2.2828197E+00;  0.0000000E+00; -1.4386478E-01;0; -1.9442512E-02;  3.9882969E+04;  0.0000000E+00; -8.0830734E-03;  4.0000000E+04;  0.0000000E+00;  3.9999477E+04; -4.0841453E-02;  0.0000000E+00;  2.1398941E-02;  6.9569511E+01;
  5.6173438E-01;  9.9999998E-03;  4.0009528E-02;5896; -1.1830212E-02;  0.0000000E+00;  8.7389833E-04;  9.9939838E+02;  1.0007937E-01; -4.9845505E+02;3; -2.2676914E+00;  0.0000000E+00; -1.9262268E-01;0; -1.9562792E-02;  3.9884387E+04;  0.0000000E+00; -1.2495956E-02;  4.0000000E+04;  0.0000000E+00;  3.9999824E+04; -4.0608034E-02;  0.0000000E+00;  2.1045242E-02;  1.0076245E+02;
  5.6174594E-01;  9.9999998E-03;  5.0010446E-02;5897; -1.1809170E-02;  0.0000000E+00;  1.0923070E-03;  9.9943329E+02;  1.0007939E-01; -4.6951758E+02;3; -2.2478216E+00;  0.0000000E+00; -2.3760821E-01;0; -1.9724870E-02;  3.9887047E+04;  0.0000000E+00; -1.6004028E-02;  4.0000000E+04;  0.0000000E+00;  4.0000164E+04; -4.0317900E-02;  0.0000000E+00;  2.0593030E-02;  1.2224384E+02;
  5.6175679E-01;  9.9999998E-03;  6.0011156E-02;5898; -1.1788660E-02;  0.0000000E+00;  1.3078515E-03;  9.9947595E+02;  1.0007951E-01; -4.3416055E+02;3; -2.2238615E+00;  0.0000000E+00; -2.8035465E-01;0; -1.9930713E-02;  3.9890520E+04;  0.0000000E+00; -1.7420499E-02;  4.0000000E+04;  0.0000000E+00;  4.0000016E+04; -3.9977510E-02;  0.0000000E+00;  2.0046797E-02;  1.2592563E+02;
  5.7182235E-01;  9.9999998E-03; -1.0000970E-01;5943; -1.2138456E-02;  0.0000000E+00; -2.1498124E-03;  9.9981006E+02;  1.0013086E-01; -1.5737827E+02;3; -2.0503755E+00;  0.0000000E+00;  4.9979004E-01;0; -2.1176729E-02;  3.9878707E+04;  0.0000000E+00;  9.2095777E-02;  4.0000000E+04;  0.0000000E+00;  3.9997844E+04; -3.8834274E-02;  0.0000000E+00;  1.7657544E-02;  1.8954030E+02;
  5.7183379E-01;  9.9999998E-03; -9.0009540E-02;5944; -1.2147846E-02;  0.0000000E+00; -1.9675645E-03;  9.9973163E+02;  1.0013097E-01; -2.2236407E+02;3; -2.0912447E+00;  0.0000000E+00;  4.5933044E-01;0; -2.0811256E-02;  3.9871539E+04;  0.0000000E+00;  7.8106917E-02;  4.0000000E+04;  0.0000000E+00;  3.9998125E+04; -3.9345458E-02;  0.0000000E+00;  1.8534202E-02;  1.3809970E+02;
  5.7183951E-01;  9.9999998E-03; -8.0009066E-02;5945; -1.2163064E-02;  0.0000000E+00; -1.7718787E-03;  9.9964984E+02;  1.0013099E-01; -2.9011526E+02;3; -2.1284819E+00;  0.0000000E+00;  4.1610065E-01;0; -2.0475410E-02;  3.9864863E+04;  0.0000000E+00;  6.2106825E-02;  4.0000000E+04;  0.0000000E+00;  3.9998746E+04; -3.9831180E-02;  0.0000000E+00;  1.9355770E-02;  9.4366760E+01;
  5.7183969E-01;  9.9999998E-03; -7.0008300E-02;5946; -1.2183370E-02;  0.0000000E+00; -1.5641606E-03;  9.9957050E+02;  1.0013084E-01; -3.5584180E+02;3; -2.1609042E+00;  0.0000000E+00;  3.7059304E-01;0; -2.0177165E-02;  3.9858652E+04;  0.0000000E+00;  4.6156481E-02;  4.0000000E+04;  0.0000000E+00;  3.9998637E+04; -4.0284462E-02;  0.0000000E+00;  2.0107297E-02;  6.6933357E+01;
  5.7183450E-01;  9.9999998E-03; -6.0007375E-02;5947; -1.2207294E-02;  0.0000000E+00; -1.3464553E-03;  9.9950360E+02;  1.0013077E-01; -4.1124762E+02;3; -2.1897395E+00;  0.0000000E+00;  3.2097185E-01;0; -1.9922471E-02;  3.9852828E+04;  0.0000000E+00;  3.1915579E-02;  4.0000000E+04;  0.0000000E+00;  3.9998941E+04; -4.0697798E-02;  0.0000000E+00;  2.0775327E-02;  5.2194050E+01;
  5.7182550E-01;  9.9999998E-03; -5.0006419E-02;5948; -1.2232942E-02;  0.0000000E+00; -1.1229293E-03;  9.9944360E+02;  1.0013092E-01; -4.6097461E+02;3; -2.2134159E+00;  0.0000000E+00;  2.7279565E-01;0; -1.9714143E-02;  3.9848070E+04;  0.0000000E+00;  2.0370483E-02;  4.0000000E+04;  0.0000000E+00;  3.9998852E+04; -4.1063678E-02;  0.0000000E+00;  2.1349534E-02;  3.7227489E+01;
  5.7181406E-01;  9.9999998E-03; -4.0005658E-02;5949; -1.2258282E-02;  0.0000000E+00; -8.9736405E-04;  9.9939331E+02;  1.0013068E-01; -5.0265244E+02;3; -2.2324853E+00;  0.0000000E+00;  2.2101484E-01;0; -1.9551858E-02;  3.9844641E+04;  0.0000000E+00;  1.1814308E-02;  4.0000000E+04;  0.0000000E+00;  3.9998598E+04; -4.1374695E-02;  0.0000000E+00;  2.1822836E-02;  1.7885773E+01;
  5.7180232E-01;  9.9999998E-03; -3.0005021E-02;5950; -1.2280798E-02;  0.0000000E+00; -6.7138713E-04;  9.9935510E+02;  1.0013074E-01; -5.3430585E+02;3; -2.2479777E+00;  0.0000000E+00;  1.6419168E-01;0; -1.9432873E-02;  3.9841602E+04;  0.0000000E+00;  6.0108956E-03;  4.0000000E+04;  0.0000000E+00;  3.9998582E+04; -4.1624367E-02;  0.0000000E+00;  2.2191495E-02;  2.3761070E+01;
  5.7179201E-01;  9.9999998E-03; -2.0004326E-02;5951; -1.2298335E-02;  0.0000000E+00; -4.4625273E-04;  9.9932867E+02;  1.0013067E-01; -5.5618182E+02;3; -2.2588053E+00;  0.0000000E+00;  1.0692124E-01;0; -1.9352777E-02;  3.9839766E+04;  0.0000000E+00;  2.4459602E-03;  4.0000000E+04;  0.0000000E+00;  3.9998098E+04; -4.1807007E-02;  0.0000000E+00;  2.2454230E-02;  5.0121662E+01;
  5.7178426E-01;  9.9999998E-03; -1.0003010E-02;5952; -1.2309254E-02;  0.0000000E+00; -2.2243301E-04;  9.9931726E+02;  1.0013087E-01; -5.6561365E+02;3; -2.2658823E+00;  0.0000000E+00;  5.1430088E-02;0; -1.9307122E-02;  3.9838516E+04;  0.0000000E+00;  5.7532790E-04;  4.0000000E+04;  0.0000000E+00;  3.9998059E+04; -4.1918453E-02;  0.0000000E+00;  2.2611331E-02;  7.0883057E+01;
  5.7178122E-01;  9.9999998E-03;  9.9642916E-09;5953; -1.2312921E-02;  0.0000000E+00;  4.2364231E-08;  9.9931000E+02;  1.0013071E-01; -5.7163818E+02;3; -2.2685616E+00;  0.0000000E+00; -4.7813546E-06;0; -1.9292274E-02;  3.9838242E+04;  0.0000000E+00; -3.0357706E-12;  4.0000000E+04;  0.0000000E+00;  3.9997926E+04; -4.1955806E-02;  0.0000000E+00;  2.2663532E-02;  7.8596352E+01;
  5.7178426E-01;  9.9999998E-03;  1.0003030E-02;5954; -1.2309258E-02;  0.0000000E+00;  2.2251764E-04;  9.9931714E+02;  1.0013088E-01; -5.6576178E+02;3; -2.2659011E+00;  0.0000000E+00; -5.1434252E-02;0; -1.9307127E-02;  3.9838516E+04;  0.0000000E+00;  5.7495182E-04;  4.0000000E+04;  0.0000000E+00;  3.9998059E+04; -4.1918434E-02;  0.0000000E+00;  2.2611307E-02;  7.0882690E+01;
  5.7179201E-01;  9.9999998E-03;  2.0004347E-02;5955; -1.2298344E-02;  0.0000000E+00;  4.4633812E-04;  9.9932867E+02;  1.0013067E-01; -5.5618182E+02;3; -2.2588031E+00;  0.0000000E+00; -1.0692465E-01;0; -1.9352783E-02;  3.9839766E+04;  0.0000000E+00;  2.4454147E-03;  4.0000000E+04;  0.0000000E+00;  3.9998098E+04; -4.1807022E-02;  0.0000000E+00;  2.2454239E-02;  5.0115566E+01;
  5.7180232E-01;  9.9999998E-03;  3.0005042E-02;5956; -1.2280812E-02;  0.0000000E+00;  6.7147258E-04;  9.9935510E+02;  1.0013074E-01; -5.3430585E+02;3; -2.2479825E+00;  0.0000000E+00; -1.6419917E-01;0; -1.9432873E-02;  3.9841590E+04;  0.0000000E+00;  6.0098427E-03;  4.0000000E+04;  0.0000000E+00;  3.9998582E+04; -4.1624349E-02;  0.0000000E+00;  2.2191476E-02;  2.3753569E+01;
  5.7181406E-01;  9.9999998E-03;  4.0005680E-02;5957; -1.2258298E-02;  0.0000000E+00;  8.9744909E-04;  9.9939325E+02;  1.0013068E-01; -5.0270184E+02;3; -2.2324855E+00;  0.0000000E+00; -2.2102652E-01;0; -1.9551925E-02;  3.9844660E+04;  0.0000000E+00;  1.1812923E-02;  4.0000000E+04;  0.0000000E+00;  3.9998598E+04; -4.1374739E-02;  0.0000000E+00;  2.1822814E-02;  1.7882399E+01;
  5.7182550E-01;  9.9999998E-03;  5.0006442E-02;5958; -1.2232961E-02;  0.0000000E+00;  1.1230134E-03;  9.9944342E+02;  1.0013079E-01; -4.6112277E+02;3; -2.2134206E+00;  0.0000000E+00; -2.7280620E-01;0; -1.9714169E-02;  3.9848074E+04;  0.0000000E+00;  2.0367695E-02;  4.0000000E+04;  0.0000000E+00;  3.9998852E+04; -4.1063696E-02;  0.0000000E+00;  2.1349527E-02;  3.7223843E+01;
  5.7183450E-01;  9.9999998E-03;  6.0007397E-02;5959; -1.2207317E-02;  0.0000000E+00;  1.3465392E-03;  9.9950354E+02;  1.0013077E-01; -4.1129700E+02;3; -2.1897554E+00;  0.0000000E+00; -3.2098004E-01;0; -1.9922525E-02;  3.9852828E+04;  0.0000000E+00;  3.1911384E-02;  4.0000000E+04;  0.0000000E+00;  3.9998938E+04; -4.0697847E-02;  0.0000000E+00;  2.0775322E-02;  5.2186005E+01;
  5.8189857E-01;  9.9999998E-03; -1.0000575E-01;6004; -1.2536087E-02;  0.0000000E+00; -2.2288105E-03;  9.9988013E+02;  1.0021400E-01; -9.9305832E+01;3; -2.0120804E+00;  0.0000000E+00;  5.6908351E-01;0; -2.1174492E-02;  3.9819641E+04;  0.0000000E+00;  1.6963020E-01;  4.0000000E+04;  0.0000000E+00;  3.9996941E+04; -3.9376687E-02;  0.0000000E+00;  1.8202195E-02;  3.0676993E+02;
  5.8192533E-01;  9.9999998E-03; -9.0003878E-02;6005; -1.2553387E-02;  0.0000000E+00; -2.0394258E-03;  9.9979578E+02;  1.0021414E-01; -1.6918040E+02;3; -2.0527790E+00;  0.0000000E+00;  5.2288407E-01;0; -2.0793758E-02;  3.9812559E+04;  0.0000000E+00;  1.5486345E-01;  4.0000000E+04;  0.0000000E+00;  3.9997129E+04; -3.9928142E-02;  0.0000000E+00;  1.9134384E-02;  2.6550327E+02;
  5.8194476E-01;  9.9999998E-03; -8.0001906E-02;6006; -1.2576450E-02;  0.0000000E+00; -1.8358263E-03;  9.9970880E+02;  1.0021397E-01; -2.4127713E+02;3; -2.0891371E+00;  0.0000000E+00;  4.7365525E-01;0; -2.0445339E-02;  3.9805426E+04;  0.0000000E+00;  1.3330975E-01;  4.0000000E+04;  0.0000000E+00;  3.9997586E+04; -4.0451016E-02;  0.0000000E+00;  2.0005677E-02;  2.1836223E+02;
  5.8195531E-01;  9.9999998E-03; -7.0000187E-02;6007; -1.2604223E-02;  0.0000000E+00; -1.6201804E-03;  9.9962653E+02;  1.0021388E-01; -3.0942334E+02;3; -2.1213562E+00;  0.0000000E+00;  4.2111290E-01;0; -2.0137712E-02;  3.9799062E+04;  0.0000000E+00;  1.0805707E-01;  4.0000000E+04;  0.0000000E+00;  3.9997535E+04; -4.0937766E-02;  0.0000000E+00;  2.0800054E-02;  1.7213560E+02;
  5.8195752E-01;  9.9999998E-03; -5.9998930E-02;6008; -1.2634923E-02;  0.0000000E+00; -1.3941104E-03;  9.9954913E+02;  1.0021403E-01; -3.7352029E+02;3; -2.1500735E+00;  0.0000000E+00;  3.6564898E-01;0; -1.9876586E-02;  3.9792652E+04;  0.0000000E+00;  8.2115009E-02;  4.0000000E+04;  0.0000000E+00;  3.9997805E+04; -4.1380353E-02;  0.0000000E+00;  2.1503767E-02;  1.3157147E+02;
  5.8195299E-01;  9.9999998E-03; -4.9998268E-02;6009; -1.2666549E-02;  0.0000000E+00; -1.1621158E-03;  9.9948279E+02;  1.0021371E-01; -4.2848172E+02;3; -2.1729219E+00;  0.0000000E+00;  3.1075928E-01;0; -1.9664753E-02;  3.9787344E+04;  0.0000000E+00;  5.7952356E-02;  4.0000000E+04;  0.0000000E+00;  3.9997605E+04; -4.1771047E-02;  0.0000000E+00;  2.2106294E-02;  1.0154669E+02;
  5.8194351E-01;  9.9999998E-03; -3.9998356E-02;6010; -1.2696967E-02;  0.0000000E+00; -9.2807540E-04;  9.9942456E+02;  1.0021380E-01; -4.7672726E+02;3; -2.1917112E+00;  0.0000000E+00;  2.5174534E-01;0; -1.9501198E-02;  3.9782977E+04;  0.0000000E+00;  3.7239090E-02;  4.0000000E+04;  0.0000000E+00;  3.9997609E+04; -4.2102240E-02;  0.0000000E+00;  2.2601042E-02;  8.9634613E+01;
  5.8193213E-01;  9.9999998E-03; -2.9999057E-02;6011; -1.2723479E-02;  0.0000000E+00; -6.9376762E-04;  9.9937531E+02;  1.0021389E-01; -5.1756561E+02;3; -2.2067177E+00;  0.0000000E+00;  1.8765418E-01;0; -1.9382453E-02;  3.9779621E+04;  0.0000000E+00;  2.0886404E-02;  4.0000000E+04;  0.0000000E+00;  3.9997379E+04; -4.2367492E-02;  0.0000000E+00;  2.2985039E-02;  9.8982246E+01;
  5.8192194E-01;  9.9999998E-03; -2.0000136E-02;6012; -1.2743993E-02;  0.0000000E+00; -4.6036052E-04;  9.9934644E+02;  1.0021383E-01; -5.4146619E+02;3; -2.2176588E+00;  0.0000000E+00;  1.2174387E-01;0; -1.9303316E-02;  3.9777320E+04;  0.0000000E+00;  9.2333434E-03;  4.0000000E+04;  0.0000000E+00;  3.9997195E+04; -4.2561233E-02;  0.0000000E+00;  2.3257917E-02;  1.1895277E+02;
  5.8191448E-01;  9.9999998E-03; -1.0000888E-02;6013; -1.2756706E-02;  0.0000000E+00; -2.2897658E-04;  9.9932379E+02;  1.0021370E-01; -5.6023108E+02;3; -2.2239690E+00;  0.0000000E+00;  5.9060447E-02;0; -1.9258630E-02;  3.9775711E+04;  0.0000000E+00;  2.2981903E-03;  4.0000000E+04;  0.0000000E+00;  3.9996844E+04; -4.2679351E-02;  0.0000000E+00;  2.3420721E-02;  1.3630792E+02;
  5.8191156E-01;  9.9999998E-03;  1.0099013E-08;6014; -1.2760956E-02;  0.0000000E+00;  4.4928800E-08;  9.9931757E+02;  1.0021380E-01; -5.6536670E+02;3; -2.2254848E+00;  0.0000000E+00; -2.7784822E-06;0; -1.9244233E-02;  3.9775324E+04;  0.0000000E+00; -3.4007016E-12;  4.0000000E+04;  0.0000000E+00;  3.9996918E+04; -4.2719014E-02;  0.0000000E+00;  2.3474781E-02;  1.4300491E+02;
  5.8191448E-01;  9.9999998E-03;  1.0000909E-02;6015; -1.2756711E-02;  0.0000000E+00;  2.2906640E-04;  9.9932379E+02;  1.0021370E-01; -5.6023108E+02;3; -2.2239783E+00;  0.0000000E+00; -5.9066124E-02;0; -1.9258581E-02;  3.9775707E+04;  0.0000000E+00;  2.2977046E-03;  4.0000000E+04;  0.0000000E+00;  3.9996848E+04; -4.2679314E-02;  0.0000000E+00;  2.3420732E-02;  1.3630461E+02;
  5.8192194E-01;  9.9999998E-03;  2.0000156E-02;6016; -1.2744001E-02;  0.0000000E+00;  4.6045019E-04;  9.9934644E+02;  1.0021383E-01; -5.4146619E+02;3; -2.2176573E+00;  0.0000000E+00; -1.2175106E-01;0; -1.9303404E-02;  3.9777320E+04;  0.0000000E+00;  9.2328424E-03;  4.0000000E+04;  0.0000000E+00;  3.9997195E+04; -4.2561315E-02;  0.0000000E+00;  2.3257911E-02;  1.1894308E+02;
  5.8193213E-01;  9.9999998E-03;  2.9999077E-02;6017; -1.2723492E-02;  0.0000000E+00;  6.9385709E-04;  9.9937531E+02;  1.0021389E-01; -5.1756561E+02;3; -2.2066832E+00;  0.0000000E+00; -1.8766527E-01;0; -1.9382488E-02;  3.9779621E+04;  0.0000000E+00;  2.0885035E-02;  4.0000000E+04;  0.0000000E+00;  3.9997379E+04; -4.2367544E-02;  0.0000000E+00;  2.2985056E-02;  9.8984535E+01;
  5.8194351E-01;  9.9999998E-03;  3.9998379E-02;6018; -1.2696982E-02;  0.0000000E+00;  9.2816405E-04;  9.9942456E+02;  1.0021380E-01; -4.7672726E+02;3; -2.1917086E+00;  0.0000000E+00; -2.5175619E-01;0; -1.9501185E-02;  3.9782977E+04;  0.0000000E+00;  3.7236761E-02;  4.0000000E+04;  0.0000000E+00;  3.9997613E+04; -4.2102262E-02;  0.0000000E+00;  2.2601077E-02;  8.9638321E+01;
  5.8195299E-01;  9.9999998E-03;  4.9998291E-02;6019; -1.2666568E-02;  0.0000000E+00;  1.1622044E-03;  9.9948279E+02;  1.0021371E-01; -4.2848172E+02;3; -2.1729138E+00;  0.0000000E+00; -3.1076825E-01;0; -1.9664751E-02;  3.9787344E+04;  0.0000000E+00;  5.7948913E-02;  4.0000000E+04;  0.0000000E+00;  3.9997605E+04; -4.1771069E-02;  0.0000000E+00;  2.2106318E-02;  1.0154077E+02;
  5.8195752E-01;  9.9999998E-03;  5.9998948E-02;6020; -1.2634947E-02;  0.0000000E+00;  1.3941982E-03;  9.9954913E+02;  1.0021403E-01; -3.7352029E+02;3; -2.1500754E+00;  0.0000000E+00; -3.6565557E-01;0; -1.9876726E-02;  3.9792656E+04;  0.0000000E+00;  8.2112849E-02;  4.0000000E+04;  0.0000000E+00;  3.9997805E+04; -4.1380469E-02;  0.0000000E+00;  2.1503743E-02;  1.3157498E+02;
  5.9196126E-01;  9.9999998E-03; -1.0000217E-01;6065; -1.2937332E-02;  0.0000000E+00; -2.3177457E-03;  9.9986298E+02;  1.0034835E-01; -1.1352766E+02;3; -1.9691237E+00;  0.0000000E+00;  6.4387709E-01;0; -2.1144304E-02;  3.9714547E+04;  0.0000000E+00;  2.2131257E-01;  4.0000000E+04;  0.0000000E+00;  3.9995715E+04; -3.9886434E-02;  0.0000000E+00;  1.8742129E-02;  3.8445810E+02;
  5.9199959E-01;  9.9999998E-03; -8.9999884E-02;6066; -1.2962728E-02;  0.0000000E+00; -2.1213111E-03;  9.9978845E+02;  1.0034798E-01; -1.7525430E+02;3; -2.0088980E+00;  0.0000000E+00;  5.9089118E-01;0; -2.0748822E-02;  3.9708414E+04;  0.0000000E+00;  2.0901759E-01;  4.0000000E+04;  0.0000000E+00;  3.9995852E+04; -4.0477261E-02;  0.0000000E+00;  1.9728439E-02;  3.5174051E+02;
  5.9203094E-01;  9.9999998E-03; -7.9997957E-02;6067; -1.2993871E-02;  0.0000000E+00; -1.9099094E-03;  9.9970746E+02;  1.0034810E-01; -2.4236351E+02;3; -2.0451894E+00;  0.0000000E+00;  5.3627324E-01;0; -2.0388480E-02;  3.9702035E+04;  0.0000000E+00;  1.8588451E-01;  4.0000000E+04;  0.0000000E+00;  3.9996297E+04; -4.1036487E-02;  0.0000000E+00;  2.0648006E-02;  3.0647083E+02;
  5.9205353E-01;  9.9999998E-03; -6.9996171E-02;6068; -1.3029582E-02;  0.0000000E+00; -1.6858444E-03;  9.9962915E+02;  1.0034806E-01; -3.0725058E+02;3; -2.0761306E+00;  0.0000000E+00;  4.7613209E-01;0; -2.0071315E-02;  3.9695758E+04;  0.0000000E+00;  1.5549174E-01;  4.0000000E+04;  0.0000000E+00;  3.9996344E+04; -4.1555673E-02;  0.0000000E+00;  2.1484358E-02;  2.5592195E+02;
  5.9206468E-01;  9.9999998E-03; -5.9994828E-02;6069; -1.3067626E-02;  0.0000000E+00; -1.4512945E-03;  9.9955725E+02;  1.0034783E-01; -3.6680444E+02;3; -2.1035912E+00;  0.0000000E+00;  4.1432288E-01;0; -1.9803619E-02;  3.9690039E+04;  0.0000000E+00;  1.2176060E-01;  4.0000000E+04;  0.0000000E+00;  3.9996438E+04; -4.2026676E-02;  0.0000000E+00;  2.2223057E-02;  2.0715363E+02;
  5.9206557E-01;  9.9999998E-03; -4.9994253E-02;6070; -1.3105825E-02;  0.0000000E+00; -1.2103501E-03;  9.9948566E+02;  1.0034808E-01; -4.2611142E+02;3; -2.1264970E+00;  0.0000000E+00;  3.5140365E-01;0; -1.9587645E-02;  3.9684719E+04;  0.0000000E+00;  8.8349655E-02;  4.0000000E+04;  0.0000000E+00;  3.9996445E+04; -4.2441208E-02;  0.0000000E+00;  2.2853563E-02;  1.6819250E+02;
  5.9205955E-01;  9.9999998E-03; -3.9994676E-02;6071; -1.3141952E-02;  0.0000000E+00; -9.6653815E-04;  9.9943201E+02;  1.0034766E-01; -4.7055460E+02;3; -2.1451969E+00;  0.0000000E+00;  2.8411862E-01;0; -1.9422065E-02;  3.9680430E+04;  0.0000000E+00;  5.8185305E-02;  4.0000000E+04;  0.0000000E+00;  3.9996148E+04; -4.2791814E-02;  0.0000000E+00;  2.3369748E-02;  1.4770767E+02;
  5.9204990E-01;  9.9999998E-03; -2.9995827E-02;6072; -1.3173047E-02;  0.0000000E+00; -7.2197383E-04;  9.9938348E+02;  1.0034752E-01; -5.1075098E+02;3; -2.1593840E+00;  0.0000000E+00;  2.1181375E-01;0; -1.9302804E-02;  3.9677008E+04;  0.0000000E+00;  3.3309359E-02;  4.0000000E+04;  0.0000000E+00;  3.9996141E+04; -4.3072037E-02;  0.0000000E+00;  2.3769233E-02;  1.4865024E+02;
  5.9204006E-01;  9.9999998E-03; -1.9997515E-02;6073; -1.3196856E-02;  0.0000000E+00; -4.7892402E-04;  9.9934772E+02;  1.0034764E-01; -5.4037976E+02;3; -2.1690941E+00;  0.0000000E+00;  1.4025620E-01;0; -1.9224085E-02;  3.9674629E+04;  0.0000000E+00;  1.4953448E-02;  4.0000000E+04;  0.0000000E+00;  3.9995844E+04; -4.3276448E-02;  0.0000000E+00;  2.4052363E-02;  1.6259145E+02;
  5.9203273E-01;  9.9999998E-03; -9.9992147E-03;6074; -1.3211837E-02;  0.0000000E+00; -2.3820286E-04;  9.9932928E+02;  1.0034753E-01; -5.5568799E+02;3; -2.1755652E+00;  0.0000000E+00;  6.9213368E-02;0; -1.9179696E-02;  3.9673055E+04;  0.0000000E+00;  3.7576053E-03;  4.0000000E+04;  0.0000000E+00;  3.9995703E+04; -4.3400694E-02;  0.0000000E+00;  2.4220997E-02;  1.7674780E+02;
  5.9202987E-01;  9.9999998E-03;  1.0361819E-08;6075; -1.3216942E-02;  0.0000000E+00;  4.7032277E-08;  9.9932294E+02;  1.0034761E-01; -5.6092242E+02;3; -2.1768618E+00;  0.0000000E+00; -3.2335356E-06;0; -1.9165466E-02;  3.9672508E+04;  0.0000000E+00; -4.3951600E-12;  4.0000000E+04;  0.0000000E+00;  3.9995598E+04; -4.3442398E-02;  0.0000000E+00;  2.4276933E-02;  1.8244533E+02;
  5.9203273E-01;  9.9999998E-03;  9.9992352E-03;6076; -1.3211842E-02;  0.0000000E+00;  2.3829742E-04;  9.9932941E+02;  1.0034746E-01; -5.5558923E+02;3; -2.1755586E+00;  0.0000000E+00; -6.9216721E-02;0; -1.9179799E-02;  3.9673055E+04;  0.0000000E+00;  3.7572926E-03;  4.0000000E+04;  0.0000000E+00;  3.9995707E+04; -4.3400776E-02;  0.0000000E+00;  2.4220977E-02;  1.7675952E+02;
  5.9204006E-01;  9.9999998E-03;  1.9997535E-02;6077; -1.3196866E-02;  0.0000000E+00;  4.7901872E-04;  9.9934784E+02;  1.0034756E-01; -5.4028101E+02;3; -2.1690831E+00;  0.0000000E+00; -1.4026837E-01;0; -1.9224009E-02;  3.9674629E+04;  0.0000000E+00;  1.4952786E-02;  4.0000000E+04;  0.0000000E+00;  3.9995844E+04; -4.3276403E-02;  0.0000000E+00;  2.4052395E-02;  1.6259186E+02;
  5.9204990E-01;  9.9999998E-03;  2.9995849E-02;6078; -1.3173062E-02;  0.0000000E+00;  7.2206883E-04;  9.9938354E+02;  1.0034752E-01; -5.1070160E+02;3; -2.1594009E+00;  0.0000000E+00; -2.1181752E-01;0; -1.9302865E-02;  3.9677012E+04;  0.0000000E+00;  3.3307847E-02;  4.0000000E+04;  0.0000000E+00;  3.9996141E+04; -4.3072086E-02;  0.0000000E+00;  2.3769220E-02;  1.4866496E+02;
  5.9205955E-01;  9.9999998E-03;  3.9994698E-02;6079; -1.3141968E-02;  0.0000000E+00;  9.6663315E-04;  9.9943201E+02;  1.0034766E-01; -4.7055460E+02;3; -2.1451733E+00;  0.0000000E+00; -2.8413093E-01;0; -1.9422121E-02;  3.9680430E+04;  0.0000000E+00;  5.8183122E-02;  4.0000000E+04;  0.0000000E+00;  3.9996148E+04; -4.2791877E-02;  0.0000000E+00;  2.3369756E-02;  1.4771098E+02;
  5.9206557E-01;  9.9999998E-03;  4.9994275E-02;6080; -1.3105846E-02;  0.0000000E+00;  1.2104434E-03;  9.9948566E+02;  1.0034808E-01; -4.2611142E+02;3; -2.1264958E+00;  0.0000000E+00; -3.5141471E-01;0; -1.9587701E-02;  3.9684715E+04;  0.0000000E+00;  8.8346459E-02;  4.0000000E+04;  0.0000000E+00;  3.9996441E+04; -4.2441256E-02;  0.0000000E+00;  2.2853555E-02;  1.6819920E+02;
  5.9206468E-01;  9.9999998E-03;  5.9994847E-02;6081; -1.3067649E-02;  0.0000000E+00;  1.4513863E-03;  9.9955719E+02;  1.0034789E-01; -3.6685382E+02;3; -2.1035755E+00;  0.0000000E+00; -4.1433147E-01;0; -1.9803666E-02;  3.9690027E+04;  0.0000000E+00;  1.2175877E-01;  4.0000000E+04;  0.0000000E+00;  3.9996434E+04; -4.2026706E-02;  0.0000000E+00;  2.2223040E-02;  2.0715787E+02;
  6.0198236E-01;  9.9999998E-03; -1.0000298E-01;6126; -1.3341204E-02;  0.0000000E+00; -2.4141087E-03;  9.9971460E+02;  1.0056186E-01; -2.3643776E+02;3; -1.9202645E+00;  0.0000000E+00;  7.2018075E-01;0; -2.1095112E-02;  3.9537832E+04;  0.0000000E+00;  2.2973244E-01;  4.0000000E+04;  0.0000000E+00;  3.9994312E+04; -4.0370852E-02;  0.0000000E+00;  1.9275740E-02;  4.0007574E+02;
  6.0202122E-01;  9.9999998E-03; -9.0002850E-02;6127; -1.3374176E-02;  0.0000000E+00; -2.2106061E-03;  9.9965179E+02;  1.0056183E-01; -2.8848566E+02;3; -1.9593341E+00;  0.0000000E+00;  6.6040814E-01;0; -2.0687863E-02;  3.9532699E+04;  0.0000000E+00;  2.2375803E-01;  4.0000000E+04;  0.0000000E+00;  3.9994355E+04; -4.1000511E-02;  0.0000000E+00;  2.0312648E-02;  3.7553055E+02;
  6.0205293E-01;  9.9999998E-03; -8.0003008E-02;6128; -1.3412933E-02;  0.0000000E+00; -1.9916126E-03;  9.9958600E+02;  1.0056185E-01; -3.4300266E+02;3; -1.9940494E+00;  0.0000000E+00;  5.9891129E-01;0; -2.0317994E-02;  3.9527746E+04;  0.0000000E+00;  2.0450580E-01;  4.0000000E+04;  0.0000000E+00;  3.9994680E+04; -4.1595008E-02;  0.0000000E+00;  2.1277014E-02;  3.3600732E+02;
  6.0207653E-01;  9.9999998E-03; -7.0002742E-02;6129; -1.3456149E-02;  0.0000000E+00; -1.7590889E-03;  9.9951935E+02;  1.0056146E-01; -3.9821097E+02;3; -2.0255005E+00;  0.0000000E+00;  5.3369612E-01;0; -1.9993724E-02;  3.9522629E+04;  0.0000000E+00;  1.7530820E-01;  4.0000000E+04;  0.0000000E+00;  3.9994797E+04; -4.2145699E-02;  0.0000000E+00;  2.2151975E-02;  2.8784286E+02;
  6.0209191E-01;  9.9999998E-03; -6.0001764E-02;6130; -1.3501667E-02;  0.0000000E+00; -1.5159824E-03;  9.9945654E+02;  1.0056137E-01; -4.5025888E+02;3; -2.0514638E+00;  0.0000000E+00;  4.6645224E-01;0; -1.9720893E-02;  3.9518102E+04;  0.0000000E+00;  1.4031793E-01;  4.0000000E+04;  0.0000000E+00;  3.9994840E+04; -4.2644128E-02;  0.0000000E+00;  2.2923235E-02;  2.3817967E+02;
  6.0209960E-01;  9.9999998E-03; -5.0000146E-02;6131; -1.3546915E-02;  0.0000000E+00; -1.2654715E-03;  9.9940503E+02;  1.0056134E-01; -4.9292432E+02;3; -2.0738680E+00;  0.0000000E+00;  3.9325285E-01;0; -1.9501712E-02;  3.9514195E+04;  0.0000000E+00;  1.0378127E-01;  4.0000000E+04;  0.0000000E+00;  3.9994723E+04; -4.3082099E-02;  0.0000000E+00;  2.3580387E-02;  1.9575578E+02;
  6.0209990E-01;  9.9999998E-03; -3.9998520E-02;6132; -1.3589038E-02;  0.0000000E+00; -1.0110682E-03;  9.9935425E+02;  1.0056116E-01; -5.3499719E+02;3; -2.0918906E+00;  0.0000000E+00;  3.1743181E-01;0; -1.9334605E-02;  3.9510500E+04;  0.0000000E+00;  6.9455057E-02;  4.0000000E+04;  0.0000000E+00;  3.9994535E+04; -4.3451872E-02;  0.0000000E+00;  2.4117267E-02;  1.7010854E+02;
  6.0209441E-01;  9.9999998E-03; -2.9997671E-02;6133; -1.3625202E-02;  0.0000000E+00; -7.5517292E-04;  9.9931287E+02;  1.0056099E-01; -5.6926782E+02;3; -2.1057510E+00;  0.0000000E+00;  2.3864616E-01;0; -1.9214878E-02;  3.9507484E+04;  0.0000000E+00;  4.0268537E-02;  4.0000000E+04;  0.0000000E+00;  3.9994422E+04; -4.3746654E-02;  0.0000000E+00;  2.4531776E-02;  1.6581792E+02;
  6.0208726E-01;  9.9999998E-03; -1.9997833E-02;6134; -1.3652797E-02;  0.0000000E+00; -5.0105923E-04;  9.9928253E+02;  1.0056104E-01; -5.9440295E+02;3; -2.1151741E+00;  0.0000000E+00;  1.5708429E-01;0; -1.9136215E-02;  3.9505328E+04;  0.0000000E+00;  1.8243108E-02;  4.0000000E+04;  0.0000000E+00;  3.9994418E+04; -4.3961223E-02;  0.0000000E+00;  2.4825009E-02;  1.7611850E+02;
  6.0208189E-01;  9.9999998E-03; -9.9987444E-03;6135; -1.3670077E-02;  0.0000000E+00; -2.4949390E-04;  9.9926080E+02;  1.0056102E-01; -6.1242712E+02;3; -2.1202931E+00;  0.0000000E+00;  7.9763211E-02;0; -1.9092355E-02;  3.9504297E+04;  0.0000000E+00;  4.6088975E-03;  4.0000000E+04;  0.0000000E+00;  3.9994230E+04; -4.4091750E-02;  0.0000000E+00;  2.4999395E-02;  1.8846756E+02;
  6.0207993E-01;  9.9999998E-03;  1.0729926E-08;6136; -1.3676107E-02;  0.0000000E+00;  4.9571540E-08;  9.9925775E+02;  1.0056108E-01; -6.1494556E+02;3; -2.1216321E+00;  0.0000000E+00; -4.9941696E-06;0; -1.9078245E-02;  3.9503676E+04;  0.0000000E+00; -5.8891095E-12;  4.0000000E+04;  0.0000000E+00;  3.9994062E+04; -4.4135518E-02;  0.0000000E+00;  2.5057273E-02;  1.9360133E+02;
  6.0208189E-01;  9.9999998E-03;  9.9987658E-03;6137; -1.3670082E-02;  0.0000000E+00;  2.4959305E-04;  9.9926086E+02;  1.0056102E-01; -6.1237775E+02;3; -2.1202896E+00;  0.0000000E+00; -7.9768494E-02;0; -1.9092299E-02;  3.9504297E+04;  0.0000000E+00;  4.6088374E-03;  4.0000000E+04;  0.0000000E+00;  3.9994227E+04; -4.4091739E-02;  0.0000000E+00;  2.4999440E-02;  1.8846638E+02;
  6.0208726E-01;  9.9999998E-03;  1.9997854E-02;6138; -1.3652805E-02;  0.0000000E+00;  5.0115905E-04;  9.9928253E+02;  1.0056099E-01; -5.9440295E+02;3; -2.1151755E+00;  0.0000000E+00; -1.5709440E-01;0; -1.9136267E-02;  3.9505328E+04;  0.0000000E+00;  1.8242687E-02;  4.0000000E+04;  0.0000000E+00;  3.9994414E+04; -4.3961298E-02;  0.0000000E+00;  2.4825031E-02;  1.7611826E+02;
  6.0209441E-01;  9.9999998E-03;  2.9997693E-02;6139; -1.3625215E-02;  0.0000000E+00;  7.5527199E-04;  9.9931281E+02;  1.0056105E-01; -5.6931726E+02;3; -2.1057370E+00;  0.0000000E+00; -2.3865283E-01;0; -1.9214921E-02;  3.9507484E+04;  0.0000000E+00;  4.0267110E-02;  4.0000000E+04;  0.0000000E+00;  3.9994422E+04; -4.3746691E-02;  0.0000000E+00;  2.4531770E-02;  1.6582744E+02;
  6.0209990E-01;  9.9999998E-03;  3.9998543E-02;6140; -1.3589056E-02;  0.0000000E+00;  1.0111659E-03;  9.9935431E+02;  1.0056146E-01; -5.3494781E+02;3; -2.0918894E+00;  0.0000000E+00; -3.1743979E-01;0; -1.9334566E-02;  3.9510508E+04;  0.0000000E+00;  6.9452487E-02;  4.0000000E+04;  0.0000000E+00;  3.9994535E+04; -4.3451805E-02;  0.0000000E+00;  2.4117239E-02;  1.7011937E+02;
  6.0209960E-01;  9.9999998E-03;  5.0000168E-02;6141; -1.3546935E-02;  0.0000000E+00;  1.2655681E-03;  9.9940497E+02;  1.0056129E-01; -4.9297372E+02;3; -2.0738547E+00;  0.0000000E+00; -3.9326042E-01;0; -1.9501772E-02;  3.9514207E+04;  0.0000000E+00;  1.0377836E-01;  4.0000000E+04;  0.0000000E+00;  3.9994727E+04; -4.3082155E-02;  0.0000000E+00;  2.3580384E-02;  1.9575273E+02;
  6.0209191E-01;  9.9999998E-03;  6.0001787E-02;6142; -1.3501693E-02;  0.0000000E+00;  1.5160782E-03;  9.9945667E+02;  1.0056137E-01; -4.5016010E+02;3; -2.0514266E+00;  0.0000000E+00; -4.6646202E-01;0; -1.9720938E-02;  3.9518102E+04;  0.0000000E+00;  1.4031236E-01;  4.0000000E+04;  0.0000000E+00;  3.9994840E+04; -4.2644165E-02;  0.0000000E+00;  2.2923227E-02;  2.3817532E+02;
  6.1194199E-01;  9.9999998E-03; -1.0001422E-01;6187; -1.3747569E-02;  0.0000000E+00; -2.5127532E-03;  9.9943915E+02;  1.0089583E-01; -4.6467822E+02;3; -1.8658375E+00;  0.0000000E+00;  7.9853618E-01;0; -2.1037575E-02;  3.9259980E+04;  0.0000000E+00;  1.8427110E-01;  4.0000000E+04;  0.0000000E+00;  3.9991738E+04; -4.0839825E-02;  0.0000000E+00;  1.9802250E-02;  3.4472949E+02;
  6.1197746E-01;  9.9999998E-03; -9.0015613E-02;6188; -1.3787724E-02;  0.0000000E+00; -2.3024345E-03;  9.9939612E+02;  1.0089567E-01; -5.0028214E+02;3; -1.9044061E+00;  0.0000000E+00;  7.3363835E-01;0; -2.0623609E-02;  3.9256836E+04;  0.0000000E+00;  1.8859141E-01;  4.0000000E+04;  0.0000000E+00;  3.9992062E+04; -4.1508988E-02;  0.0000000E+00;  2.0885378E-02;  3.2666907E+02;
  6.1200494E-01;  9.9999998E-03; -8.0016427E-02;6189; -1.3833717E-02;  0.0000000E+00; -2.0760589E-03;  9.9934985E+02;  1.0089529E-01; -5.3865143E+02;3; -1.9382122E+00;  0.0000000E+00;  6.6505730E-01;0; -2.0249141E-02;  3.9253523E+04;  0.0000000E+00;  1.7943709E-01;  4.0000000E+04;  0.0000000E+00;  3.9992559E+04; -4.2139269E-02;  0.0000000E+00;  2.1890128E-02;  2.9693106E+02;
  6.1202401E-01;  9.9999998E-03; -7.0016168E-02;6190; -1.3883943E-02;  0.0000000E+00; -1.8355128E-03;  9.9930621E+02;  1.0089497E-01; -5.7479858E+02;3; -1.9678165E+00;  0.0000000E+00;  5.9381503E-01;0; -1.9922169E-02;  3.9250434E+04;  0.0000000E+00;  1.5906142E-01;  4.0000000E+04;  0.0000000E+00;  3.9992492E+04; -4.2721726E-02;  0.0000000E+00;  2.2799557E-02;  2.5885663E+02;
  6.1203539E-01;  9.9999998E-03; -6.0014647E-02;6191; -1.3936462E-02;  0.0000000E+00; -1.5840443E-03;  9.9926532E+02;  1.0089485E-01; -6.0867413E+02;3; -1.9936817E+00;  0.0000000E+00;  5.1855415E-01;0; -1.9647984E-02;  3.9247293E+04;  0.0000000E+00;  1.3093615E-01;  4.0000000E+04;  0.0000000E+00;  3.9992414E+04; -4.3247487E-02;  0.0000000E+00;  2.3599504E-02;  2.1691533E+02;
  6.1204082E-01;  9.9999998E-03; -5.0012220E-02;6192; -1.3988267E-02;  0.0000000E+00; -1.3232643E-03;  9.9922705E+02;  1.0089473E-01; -6.4037695E+02;3; -2.0149207E+00;  0.0000000E+00;  4.3686962E-01;0; -1.9428646E-02;  3.9244691E+04;  0.0000000E+00;  9.9116683E-02;  4.0000000E+04;  0.0000000E+00;  3.9992469E+04; -4.3708365E-02;  0.0000000E+00;  2.4279719E-02;  1.7833958E+02;
  6.1204201E-01;  9.9999998E-03; -4.0009212E-02;6193; -1.4036230E-02;  0.0000000E+00; -1.0580631E-03;  9.9919159E+02;  1.0089454E-01; -6.6975885E+02;3; -2.0320270E+00;  0.0000000E+00;  3.5204220E-01;0; -1.9262303E-02;  3.9242320E+04;  0.0000000E+00;  6.7587063E-02;  4.0000000E+04;  0.0000000E+00;  3.9992406E+04; -4.4096794E-02;  0.0000000E+00;  2.4834491E-02;  1.5299667E+02;
  6.1204088E-01;  9.9999998E-03; -3.0006101E-02;6194; -1.4077476E-02;  0.0000000E+00; -7.9112343E-04;  9.9916229E+02;  1.0089444E-01; -6.9400507E+02;3; -2.0449612E+00;  0.0000000E+00;  2.6717594E-01;0; -1.9143753E-02;  3.9240441E+04;  0.0000000E+00;  3.9752897E-02;  4.0000000E+04;  0.0000000E+00;  3.9992156E+04; -4.4406209E-02;  0.0000000E+00;  2.5262456E-02;  1.4787180E+02;
  6.1203879E-01;  9.9999998E-03; -2.0003386E-02;6195; -1.4109034E-02;  0.0000000E+00; -5.2472157E-04;  9.9913812E+02;  1.0089423E-01; -7.1405389E+02;3; -2.0540071E+00;  0.0000000E+00;  1.7676778E-01;0; -1.9066282E-02;  3.9239168E+04;  0.0000000E+00;  1.8193021E-02;  4.0000000E+04;  0.0000000E+00;  3.9992344E+04; -4.4631183E-02;  0.0000000E+00;  2.5564902E-02;  1.5791887E+02;
  6.1203682E-01;  9.9999998E-03; -1.0001405E-02;6196; -1.4128906E-02;  0.0000000E+00; -2.6161844E-04;  9.9912695E+02;  1.0089421E-01; -7.2328821E+02;3; -2.0588717E+00;  0.0000000E+00;  8.8842861E-02;0; -1.9023133E-02;  3.9238277E+04;  0.0000000E+00;  4.6239463E-03;  4.0000000E+04;  0.0000000E+00;  3.9991891E+04; -4.4767726E-02;  0.0000000E+00;  2.5744593E-02;  1.7036186E+02;
  6.1203635E-01;  9.9999998E-03;  1.1114069E-08;6197; -1.4135716E-02;  0.0000000E+00;  5.2010062E-08;  9.9911963E+02;  1.0089427E-01; -7.2936206E+02;3; -2.0599780E+00;  0.0000000E+00; -3.0200338E-06;0; -1.9009467E-02;  3.9237895E+04;  0.0000000E+00; -8.8051467E-12;  4.0000000E+04;  0.0000000E+00;  3.9991930E+04; -4.4813644E-02;  0.0000000E+00;  2.5804177E-02;  1.7556361E+02;
  6.1203682E-01;  9.9999998E-03;  1.0001427E-02;6198; -1.4128910E-02;  0.0000000E+00;  2.6172274E-04;  9.9912695E+02;  1.0089421E-01; -7.2328821E+02;3; -2.0588720E+00;  0.0000000E+00; -8.8840365E-02;0; -1.9023165E-02;  3.9238281E+04;  0.0000000E+00;  4.6238573E-03;  4.0000000E+04;  0.0000000E+00;  3.9991891E+04; -4.4767756E-02;  0.0000000E+00;  2.5744591E-02;  1.7035577E+02;
  6.1203879E-01;  9.9999998E-03;  2.0003408E-02;6199; -1.4109044E-02;  0.0000000E+00;  5.2482646E-04;  9.9913812E+02;  1.0089423E-01; -7.1405389E+02;3; -2.0539956E+00;  0.0000000E+00; -1.7677252E-01;0; -1.9066349E-02;  3.9239172E+04;  0.0000000E+00;  1.8192524E-02;  4.0000000E+04;  0.0000000E+00;  3.9992340E+04; -4.4631232E-02;  0.0000000E+00;  2.5564883E-02;  1.5793149E+02;
  6.1204088E-01;  9.9999998E-03;  3.0006124E-02;6200; -1.4077489E-02;  0.0000000E+00;  7.9122657E-04;  9.9916229E+02;  1.0089444E-01; -6.9400507E+02;3; -2.0449760E+00;  0.0000000E+00; -2.6717195E-01;0; -1.9143812E-02;  3.9240445E+04;  0.0000000E+00;  3.9752431E-02;  4.0000000E+04;  0.0000000E+00;  3.9992156E+04; -4.4406269E-02;  0.0000000E+00;  2.5262456E-02;  1.4787981E+02;
  6.1204201E-01;  9.9999998E-03;  4.0009234E-02;6201; -1.4036249E-02;  0.0000000E+00;  1.0581646E-03;  9.9919159E+02;  1.0089454E-01; -6.6975885E+02;3; -2.0320141E+00;  0.0000000E+00; -3.5204661E-01;0; -1.9262305E-02;  3.9242316E+04;  0.0000000E+00;  6.7585632E-02;  4.0000000E+04;  0.0000000E+00;  3.9992406E+04; -4.4096805E-02;  0.0000000E+00;  2.4834501E-02;  1.5300760E+02;
  6.1204082E-01;  9.9999998E-03;  5.0012242E-02;6202; -1.3988288E-02;  0.0000000E+00;  1.3233646E-03;  9.9922705E+02;  1.0089470E-01; -6.4037695E+02;3; -2.0149198E+00;  0.0000000E+00; -4.3686971E-01;0; -1.9428704E-02;  3.9244688E+04;  0.0000000E+00;  9.9113226E-02;  4.0000000E+04;  0.0000000E+00;  3.9992473E+04; -4.3708410E-02;  0.0000000E+00;  2.4279706E-02;  1.7834891E+02;
  6.1203539E-01;  9.9999998E-03;  6.0014669E-02;6203; -1.3936488E-02;  0.0000000E+00;  1.5841441E-03;  9.9926538E+02;  1.0089481E-01; -6.0862476E+02;3; -1.9936643E+00;  0.0000000E+00; -5.1856107E-01;0; -1.9648036E-02;  3.9247289E+04;  0.0000000E+00;  1.3092971E-01;  4.0000000E+04;  0.0000000E+00;  3.9992410E+04; -4.3247551E-02;  0.0000000E+00;  2.3599515E-02;  2.1691705E+02;
  6.2185174E-01;  9.9999998E-03; -1.0002628E-01;6248; -1.4157968E-02;  0.0000000E+00; -2.6069391E-03;  9.9916309E+02;  1.0140263E-01; -6.9336310E+02;3; -1.8051575E+00;  0.0000000E+00;  8.7913412E-01;0; -2.0982226E-02;  3.8852562E+04;  0.0000000E+00;  8.3715670E-02;  4.0000000E+04;  0.0000000E+00;  3.9988371E+04; -4.1307021E-02;  0.0000000E+00;  2.0324795E-02;  2.3730370E+02;
  6.2188345E-01;  9.9999998E-03; -9.0028048E-02;6249; -1.4204931E-02;  0.0000000E+00; -2.3907579E-03;  9.9914655E+02;  1.0140219E-01; -7.0709113E+02;3; -1.8421532E+00;  0.0000000E+00;  8.0830443E-01;0; -2.0569168E-02;  3.8851676E+04;  0.0000000E+00;  1.0140674E-01;  4.0000000E+04;  0.0000000E+00;  3.9988746E+04; -4.2017605E-02;  0.0000000E+00;  2.1448437E-02;  2.1113272E+02;
  6.2190807E-01;  9.9999998E-03; -8.0028616E-02;6250; -1.4257683E-02;  0.0000000E+00; -2.1576446E-03;  9.9912573E+02;  1.0140149E-01; -7.2432520E+02;3; -1.8759632E+00;  0.0000000E+00;  7.3293060E-01;0; -2.0197362E-02;  3.8850410E+04;  0.0000000E+00;  1.0794392E-01;  4.0000000E+04;  0.0000000E+00;  3.9989148E+04; -4.2685453E-02;  0.0000000E+00;  2.2488091E-02;  1.8925601E+02;
  6.2192470E-01;  9.9999998E-03; -7.0027739E-02;6251; -1.4314734E-02;  0.0000000E+00; -1.9098269E-03;  9.9910596E+02;  1.0140128E-01; -7.4071979E+02;3; -1.9042698E+00;  0.0000000E+00;  6.5683824E-01;0; -1.9874312E-02;  3.8849207E+04;  0.0000000E+00;  1.0381170E-01;  4.0000000E+04;  0.0000000E+00;  3.9989422E+04; -4.3301113E-02;  0.0000000E+00;  2.3426801E-02;  1.6830199E+02;
  6.2193352E-01;  9.9999998E-03; -6.0025334E-02;6252; -1.4373908E-02;  0.0000000E+00; -1.6498861E-03;  9.9908936E+02;  1.0140084E-01; -7.5444781E+02;3; -1.9288287E+00;  0.0000000E+00;  5.7111585E-01;0; -1.9604972E-02;  3.8848391E+04;  0.0000000E+00;  9.0922356E-02;  4.0000000E+04;  0.0000000E+00;  3.9989516E+04; -4.3855548E-02;  0.0000000E+00;  2.4250576E-02;  1.4477103E+02;
  6.2193608E-01;  9.9999998E-03; -5.0021563E-02;6253; -1.4431827E-02;  0.0000000E+00; -1.3795277E-03;  9.9906909E+02;  1.0140058E-01; -7.7123743E+02;3; -1.9499058E+00;  0.0000000E+00;  4.8154119E-01;0; -1.9390825E-02;  3.8847449E+04;  0.0000000E+00;  7.2194636E-02;  4.0000000E+04;  0.0000000E+00;  3.9989609E+04; -4.4340350E-02;  0.0000000E+00;  2.4949525E-02;  1.2008727E+02;
  6.2193412E-01;  9.9999998E-03; -4.0017247E-02;6254; -1.4485416E-02;  0.0000000E+00; -1.1036436E-03;  9.9905310E+02;  1.0140052E-01; -7.8447162E+02;3; -1.9655930E+00;  0.0000000E+00;  3.8891011E-01;0; -1.9229377E-02;  3.8846770E+04;  0.0000000E+00;  5.1054001E-02;  4.0000000E+04;  0.0000000E+00;  3.9989465E+04; -4.4747867E-02;  0.0000000E+00;  2.5518490E-02;  1.0221774E+02;
  6.2192953E-01;  9.9999998E-03; -3.0012920E-02;6255; -1.4531231E-02;  0.0000000E+00; -8.2607253E-04;  9.9904242E+02;  1.0140011E-01; -7.9336029E+02;3; -1.9781741E+00;  0.0000000E+00;  2.9285461E-01;0; -1.9115312E-02;  3.8846141E+04;  0.0000000E+00;  3.0845929E-02;  4.0000000E+04;  0.0000000E+00;  3.9989430E+04; -4.5071822E-02;  0.0000000E+00;  2.5956510E-02;  1.0070740E+02;
  6.2192452E-01;  9.9999998E-03; -2.0008625E-02;6256; -1.4566348E-02;  0.0000000E+00; -5.4834760E-04;  9.9903009E+02;  1.0139981E-01; -8.0353284E+02;3; -1.9861928E+00;  0.0000000E+00;  1.9905773E-01;0; -1.9041361E-02;  3.8845812E+04;  0.0000000E+00;  1.4378944E-02;  4.0000000E+04;  0.0000000E+00;  3.9988945E+04; -4.5306936E-02;  0.0000000E+00;  2.6265575E-02;  1.1336243E+02;
  6.2192053E-01;  9.9999998E-03; -1.0004243E-02;6257; -1.4588354E-02;  0.0000000E+00; -2.7324801E-04;  9.9902502E+02;  1.0140011E-01; -8.0773022E+02;3; -1.9899442E+00;  0.0000000E+00;  9.7716324E-02;0; -1.9000437E-02;  3.8845484E+04;  0.0000000E+00;  3.6938183E-03;  4.0000000E+04;  0.0000000E+00;  3.9988820E+04; -4.5449510E-02;  0.0000000E+00;  2.6449073E-02;  1.2745490E+02;
  6.2191904E-01;  9.9999998E-03;  1.1503064E-08;6258; -1.4595889E-02;  0.0000000E+00;  5.4088208E-08;  9.9902216E+02;  1.0139997E-01; -8.1014990E+02;3; -1.9917700E+00;  0.0000000E+00; -3.0743554E-06;0; -1.8987460E-02;  3.8845492E+04;  0.0000000E+00; -1.6082821E-11;  4.0000000E+04;  0.0000000E+00;  3.9988809E+04; -4.5497317E-02;  0.0000000E+00;  2.6509857E-02;  1.3327858E+02;
  6.2192053E-01;  9.9999998E-03;  1.0004265E-02;6259; -1.4588359E-02;  0.0000000E+00;  2.7335674E-04;  9.9902502E+02;  1.0140011E-01; -8.0773022E+02;3; -1.9899458E+00;  0.0000000E+00; -9.7718015E-02;0; -1.9000473E-02;  3.8845473E+04;  0.0000000E+00;  3.6942763E-03;  4.0000000E+04;  0.0000000E+00;  3.9988820E+04; -4.5449492E-02;  0.0000000E+00;  2.6449019E-02;  1.2746503E+02;
  6.2192452E-01;  9.9999998E-03;  2.0008648E-02;6260; -1.4566356E-02;  0.0000000E+00;  5.4845569E-04;  9.9903009E+02;  1.0139981E-01; -8.0353284E+02;3; -1.9861922E+00;  0.0000000E+00; -1.9905971E-01;0; -1.9041380E-02;  3.8845816E+04;  0.0000000E+00;  1.4379505E-02;  4.0000000E+04;  0.0000000E+00;  3.9988945E+04; -4.5306951E-02;  0.0000000E+00;  2.6265571E-02;  1.1336831E+02;
  6.2192953E-01;  9.9999998E-03;  3.0012943E-02;6261; -1.4531244E-02;  0.0000000E+00;  8.2617992E-04;  9.9904230E+02;  1.0140017E-01; -7.9345905E+02;3; -1.9781467E+00;  0.0000000E+00; -2.9285672E-01;0; -1.9115401E-02;  3.8846137E+04;  0.0000000E+00;  3.0845737E-02;  4.0000000E+04;  0.0000000E+00;  3.9989430E+04; -4.5071881E-02;  0.0000000E+00;  2.5956480E-02;  1.0070885E+02;
  6.2193412E-01;  9.9999998E-03;  4.0017270E-02;6262; -1.4485433E-02;  0.0000000E+00;  1.1037481E-03;  9.9905310E+02;  1.0140052E-01; -7.8447162E+02;3; -1.9655669E+00;  0.0000000E+00; -3.8891062E-01;0; -1.9229429E-02;  3.8846766E+04;  0.0000000E+00;  5.1052608E-02;  4.0000000E+04;  0.0000000E+00;  3.9989465E+04; -4.4747923E-02;  0.0000000E+00;  2.5518494E-02;  1.0221700E+02;
  6.2193608E-01;  9.9999998E-03;  5.0021585E-02;6263; -1.4431847E-02;  0.0000000E+00;  1.3796318E-03;  9.9906909E+02;  1.0140058E-01; -7.7123743E+02;3; -1.9498805E+00;  0.0000000E+00; -4.8154402E-01;0; -1.9390849E-02;  3.8847449E+04;  0.0000000E+00;  7.2192185E-02;  4.0000000E+04;  0.0000000E+00;  3.9989609E+04; -4.4340376E-02;  0.0000000E+00;  2.4949526E-02;  1.2008121E+02;
  6.2193352E-01;  9.9999998E-03;  6.0025357E-02;6264; -1.4373932E-02;  0.0000000E+00;  1.6499890E-03;  9.9908929E+02;  1.0140084E-01; -7.5449719E+02;3; -1.9288065E+00;  0.0000000E+00; -5.7111889E-01;0; -1.9604990E-02;  3.8848391E+04;  0.0000000E+00;  9.0919055E-02;  4.0000000E+04;  0.0000000E+00;  3.9989520E+04; -4.3855567E-02;  0.0000000E+00;  2.4250576E-02;  1.4476762E+02;
  6.3179314E-01;  9.9999998E-03; -1.0003114E-01;6309; -1.4574938E-02;  0.0000000E+00; -2.6919979E-03;  9.9907166E+02;  1.0214076E-01; -7.6911401E+02;3; -1.7378583E+00;  0.0000000E+00;  9.6540892E-01;0; -2.0940863E-02;  3.8291234E+04;  0.0000000E+00; -6.0239736E-02;  4.0000000E+04;  0.0000000E+00;  3.9983543E+04; -4.1791115E-02;  0.0000000E+00;  2.0850252E-02;  2.1024574E+02;
  6.3184345E-01;  9.9999998E-03; -9.0029970E-02;6310; -1.4629425E-02;  0.0000000E+00; -2.4706915E-03;  9.9908160E+02;  1.0213955E-01; -7.6086731E+02;3; -1.7746335E+00;  0.0000000E+00;  8.8636863E-01;0; -2.0538000E-02;  3.8292512E+04;  0.0000000E+00; -2.7816815E-02;  4.0000000E+04;  0.0000000E+00;  3.9983992E+04; -4.2547259E-02;  0.0000000E+00;  2.2009259E-02;  1.2538458E+02;
  6.3188595E-01;  9.9999998E-03; -8.0028027E-02;6311; -1.4689496E-02;  0.0000000E+00; -2.2316584E-03;  9.9909314E+02;  1.0213891E-01; -7.5133673E+02;3; -1.8063905E+00;  0.0000000E+00;  8.0658823E-01;0; -2.0178087E-02;  3.8294332E+04;  0.0000000E+00; -2.1357082E-03;  4.0000000E+04;  0.0000000E+00;  3.9984633E+04; -4.3256577E-02;  0.0000000E+00;  2.3078490E-02;  5.7333626E+01;
  6.3191801E-01;  9.9999998E-03; -7.0025302E-02;6312; -1.4753910E-02;  0.0000000E+00; -1.9777259E-03;  9.9910730E+02;  1.0213833E-01; -7.3958398E+02;3; -1.8336132E+00;  0.0000000E+00;  7.2005510E-01;0; -1.9867923E-02;  3.8295676E+04;  0.0000000E+00;  1.5124171E-02;  4.0000000E+04;  0.0000000E+00;  3.9984914E+04; -4.3909077E-02;  0.0000000E+00;  2.4041153E-02;  2.7237780E+01;
  6.3193929E-01;  9.9999998E-03; -6.0021803E-02;6313; -1.4819994E-02;  0.0000000E+00; -1.7097909E-03;  9.9911322E+02;  1.0213739E-01; -7.3469519E+02;3; -1.8575816E+00;  0.0000000E+00;  6.2641603E-01;0; -1.9611645E-02;  3.8297004E+04;  0.0000000E+00;  2.3789786E-02;  4.0000000E+04;  0.0000000E+00;  3.9985020E+04; -4.4495240E-02;  0.0000000E+00;  2.4883594E-02;  3.5953758E+01;
  6.3195086E-01;  9.9999998E-03; -5.0017748E-02;6314; -1.4884207E-02;  0.0000000E+00; -1.4306093E-03;  9.9911926E+02;  1.0213724E-01; -7.2965833E+02;3; -1.8763890E+00;  0.0000000E+00;  5.2762651E-01;0; -1.9410085E-02;  3.8298367E+04;  0.0000000E+00;  2.4988767E-02;  4.0000000E+04;  0.0000000E+00;  3.9985176E+04; -4.5006622E-02;  0.0000000E+00;  2.5596537E-02;  3.7698380E+01;
  6.3195479E-01;  9.9999998E-03; -4.0013611E-02;6315; -1.4943473E-02;  0.0000000E+00; -1.1455521E-03;  9.9912683E+02;  1.0213652E-01; -7.2338690E+02;3; -1.8912033E+00;  0.0000000E+00;  4.2952400E-01;0; -1.9260030E-02;  3.8299648E+04;  0.0000000E+00;  2.0844698E-02;  4.0000000E+04;  0.0000000E+00;  3.9985062E+04; -4.5435466E-02;  0.0000000E+00;  2.6175436E-02;  3.3038223E+01;
  6.3195413E-01;  9.9999998E-03; -3.0009829E-02;6316; -1.4993952E-02;  0.0000000E+00; -8.5792714E-04;  9.9913647E+02;  1.0213626E-01; -7.1543652E+02;3; -1.9023991E+00;  0.0000000E+00;  3.2141840E-01;0; -1.9155379E-02;  3.8300555E+04;  0.0000000E+00;  1.3976777E-02;  4.0000000E+04;  0.0000000E+00;  3.9984762E+04; -4.5775555E-02;  0.0000000E+00;  2.6620176E-02;  4.1021915E+01;
  6.3195133E-01;  9.9999998E-03; -2.0006618E-02;6317; -1.5032575E-02;  0.0000000E+00; -5.7037675E-04;  9.9913885E+02;  1.0213589E-01; -7.1346124E+02;3; -1.9098138E+00;  0.0000000E+00;  2.1758345E-01;0; -1.9088579E-02;  3.8301434E+04;  0.0000000E+00;  6.9529023E-03;  4.0000000E+04;  0.0000000E+00;  3.9984664E+04; -4.6022039E-02;  0.0000000E+00;  2.6933460E-02;  6.1565510E+01;
  6.3194835E-01;  9.9999998E-03; -1.0003628E-02;6318; -1.5056851E-02;  0.0000000E+00; -2.8405161E-04;  9.9914539E+02;  1.0213576E-01; -7.0802930E+02;3; -1.9128934E+00;  0.0000000E+00;  1.0869247E-01;0; -1.9052116E-02;  3.8301895E+04;  0.0000000E+00;  1.8518093E-03;  4.0000000E+04;  0.0000000E+00;  3.9984477E+04; -4.6171289E-02;  0.0000000E+00;  2.7119173E-02;  7.9740562E+01;
  6.3194692E-01;  9.9999998E-03;  1.1932411E-08;6319; -1.5064967E-02;  0.0000000E+00;  5.6625510E-08;  9.9914081E+02;  1.0213578E-01; -7.1183167E+02;3; -1.9139937E+00;  0.0000000E+00; -3.2504049E-06;0; -1.9040599E-02;  3.8302234E+04;  0.0000000E+00; -2.6424779E-11;  4.0000000E+04;  0.0000000E+00;  3.9984492E+04; -4.6221260E-02;  0.0000000E+00;  2.7180661E-02;  8.6703972E+01;
  6.3194835E-01;  9.9999998E-03;  1.0003652E-02;6320; -1.5056856E-02;  0.0000000E+00;  2.8416445E-04;  9.9914532E+02;  1.0213573E-01; -7.0807867E+02;3; -1.9128952E+00;  0.0000000E+00; -1.0869465E-01;0; -1.9052086E-02;  3.8301891E+04;  0.0000000E+00;  1.8525574E-03;  4.0000000E+04;  0.0000000E+00;  3.9984473E+04; -4.6171289E-02;  0.0000000E+00;  2.7119203E-02;  7.9745842E+01;
  6.3195133E-01;  9.9999998E-03;  2.0006640E-02;6321; -1.5032584E-02;  0.0000000E+00;  5.7048805E-04;  9.9913885E+02;  1.0213578E-01; -7.1346124E+02;3; -1.9098142E+00;  0.0000000E+00; -2.1759050E-01;0; -1.9088613E-02;  3.8301430E+04;  0.0000000E+00;  6.9541810E-03;  4.0000000E+04;  0.0000000E+00;  3.9984668E+04; -4.6022054E-02;  0.0000000E+00;  2.6933441E-02;  6.1571945E+01;
  6.3195413E-01;  9.9999998E-03;  3.0009851E-02;6322; -1.4993967E-02;  0.0000000E+00;  8.5803762E-04;  9.9913647E+02;  1.0213626E-01; -7.1543652E+02;3; -1.9024076E+00;  0.0000000E+00; -3.2142586E-01;0; -1.9155459E-02;  3.8300559E+04;  0.0000000E+00;  1.3978087E-02;  4.0000000E+04;  0.0000000E+00;  3.9984762E+04; -4.5775600E-02;  0.0000000E+00;  2.6620140E-02;  4.1028461E+01;
  6.3195479E-01;  9.9999998E-03;  4.0013637E-02;6323; -1.4943491E-02;  0.0000000E+00;  1.1456609E-03;  9.9912683E+02;  1.0213652E-01; -7.2338690E+02;3; -1.8911960E+00;  0.0000000E+00; -4.2952132E-01;0; -1.9260038E-02;  3.8299652E+04;  0.0000000E+00;  2.0846089E-02;  4.0000000E+04;  0.0000000E+00;  3.9985062E+04; -4.5435481E-02;  0.0000000E+00;  2.6175443E-02;  3.3044567E+01;
  6.3195086E-01;  9.9999998E-03;  5.0017770E-02;6324; -1.4884226E-02;  0.0000000E+00;  1.4307162E-03;  9.9911920E+02;  1.0213724E-01; -7.2970770E+02;3; -1.8763720E+00;  0.0000000E+00; -5.2764112E-01;0; -1.9410171E-02;  3.8298367E+04;  0.0000000E+00;  2.4986260E-02;  4.0000000E+04;  0.0000000E+00;  3.9985176E+04; -4.5006655E-02;  0.0000000E+00;  2.5596485E-02;  3.7694004E+01;
  6.3193929E-01;  9.9999998E-03;  6.0021825E-02;6325; -1.4820019E-02;  0.0000000E+00;  1.7098988E-03;  9.9911322E+02;  1.0213742E-01; -7.3469519E+02;3; -1.8575532E+00;  0.0000000E+00; -6.2640566E-01;0; -1.9611754E-02;  3.8297004E+04;  0.0000000E+00;  2.3784364E-02;  4.0000000E+04;  0.0000000E+00;  3.9985020E+04; -4.4495333E-02;  0.0000000E+00;  2.4883579E-02;  3.5944881E+01;
  6.4185870E-01;  9.9999998E-03; -1.0000873E-01;6370; -1.4998402E-02;  0.0000000E+00; -2.7643268E-03;  9.9930084E+02;  1.0316058E-01; -5.7924286E+02;3; -1.6644833E+00;  0.0000000E+00;  1.0539048E+00;0; -2.0924952E-02;  3.7557867E+04;  0.0000000E+00; -2.2417854E-01;  4.0000000E+04;  0.0000000E+00;  3.9976906E+04; -4.2312626E-02;  0.0000000E+00;  2.1387674E-02;  3.8830594E+02;
  6.4190561E-01;  9.9999998E-03; -9.0008616E-02;6371; -1.5059520E-02;  0.0000000E+00; -2.5381660E-03;  9.9933179E+02;  1.0315883E-01; -5.5361395E+02;3; -1.6995543E+00;  0.0000000E+00;  9.6903491E-01;0; -2.0543193E-02;  3.7561152E+04;  0.0000000E+00; -1.7785053E-01;  4.0000000E+04;  0.0000000E+00;  3.9977762E+04; -4.3115921E-02;  0.0000000E+00;  2.2572728E-02;  2.8660385E+02;
  6.4194477E-01;  9.9999998E-03; -8.0008321E-02;6372; -1.5126191E-02;  0.0000000E+00; -2.2943746E-03;  9.9936584E+02;  1.0315756E-01; -5.2536780E+02;3; -1.7298249E+00;  0.0000000E+00;  8.8087559E-01;0; -2.0206003E-02;  3.7564531E+04;  0.0000000E+00; -1.3249618E-01;  4.0000000E+04;  0.0000000E+00;  3.9978477E+04; -4.3868102E-02;  0.0000000E+00;  2.3662100E-02;  2.0289952E+02;
  6.4197570E-01;  9.9999998E-03; -7.0007749E-02;6373; -1.5196934E-02;  0.0000000E+00; -2.0342323E-03;  9.9939764E+02;  1.0315657E-01; -4.9904758E+02;3; -1.7552164E+00;  0.0000000E+00;  7.8579652E-01;0; -1.9919239E-02;  3.7567762E+04;  0.0000000E+00; -9.2077538E-02;  4.0000000E+04;  0.0000000E+00;  3.9978805E+04; -4.4558808E-02;  0.0000000E+00;  2.4639569E-02;  1.4598183E+02;
  6.4199835E-01;  9.9999998E-03; -6.0006782E-02;6374; -1.5269073E-02;  0.0000000E+00; -1.7592475E-03;  9.9943158E+02;  1.0315521E-01; -4.7094962E+02;3; -1.7773776E+00;  0.0000000E+00;  6.8094456E-01;0; -1.9685866E-02;  3.7571609E+04;  0.0000000E+00; -5.9125289E-02;  4.0000000E+04;  0.0000000E+00;  3.9979023E+04; -4.5178227E-02;  0.0000000E+00;  2.5492361E-02;  1.1063285E+02;
  6.4201385E-01;  9.9999998E-03; -5.0005637E-02;6375; -1.5339097E-02;  0.0000000E+00; -1.4726071E-03;  9.9946423E+02;  1.0315417E-01; -4.4388864E+02;3; -1.7946124E+00;  0.0000000E+00;  5.7628906E-01;0; -1.9505730E-02;  3.7574891E+04;  0.0000000E+00; -3.4613866E-02;  4.0000000E+04;  0.0000000E+00;  3.9979129E+04; -4.5717679E-02;  0.0000000E+00;  2.6211949E-02;  8.2235092E+01;
  6.4202332E-01;  9.9999998E-03; -4.0004697E-02;6376; -1.5403510E-02;  0.0000000E+00; -1.1800963E-03;  9.9949139E+02;  1.0315340E-01; -4.2137076E+02;3; -1.8080839E+00;  0.0000000E+00;  4.6620843E-01;0; -1.9374618E-02;  3.7577941E+04;  0.0000000E+00; -1.8114485E-02;  4.0000000E+04;  0.0000000E+00;  3.9979035E+04; -4.6169437E-02;  0.0000000E+00;  2.6794819E-02;  5.0886940E+01;
  6.4202851E-01;  9.9999998E-03; -3.0004090E-02;6377; -1.5458307E-02;  0.0000000E+00; -8.8397547E-04;  9.9951367E+02;  1.0315263E-01; -4.0290216E+02;3; -1.8179501E+00;  0.0000000E+00;  3.5015273E-01;0; -1.9285686E-02;  3.7580438E+04;  0.0000000E+00; -8.1877448E-03;  4.0000000E+04;  0.0000000E+00;  3.9978637E+04; -4.6527300E-02;  0.0000000E+00;  2.7241614E-02;  1.7290373E+01;
  6.4203119E-01;  9.9999998E-03; -2.0004010E-02;6378; -1.5500099E-02;  0.0000000E+00; -5.8815151E-04;  9.9953131E+02;  1.0315228E-01; -3.8828528E+02;3; -1.8252926E+00;  0.0000000E+00;  2.3584294E-01;0; -1.9230565E-02;  3.7582391E+04;  0.0000000E+00; -2.9503782E-03;  4.0000000E+04;  0.0000000E+00;  3.9978590E+04; -4.6786394E-02;  0.0000000E+00;  2.7555829E-02;  2.0321230E+01;
  6.4203238E-01;  9.9999998E-03; -1.0003144E-02;6379; -1.5526443E-02;  0.0000000E+00; -2.9307135E-04;  9.9953906E+02;  1.0315170E-01; -3.8186572E+02;3; -1.8291566E+00;  0.0000000E+00;  1.2183070E-01;0; -1.9201368E-02;  3.7583914E+04;  0.0000000E+00; -6.3012313E-04;  4.0000000E+04;  0.0000000E+00;  3.9978445E+04; -4.6943292E-02;  0.0000000E+00;  2.7741924E-02;  4.3354118E+01;
  6.4203274E-01;  9.9999998E-03;  1.2546646E-08;6380; -1.5535347E-02;  0.0000000E+00;  5.8484716E-08;  9.9954401E+02;  1.0315151E-01; -3.7776706E+02;3; -1.8285056E+00;  0.0000000E+00; -5.0772851E-06;0; -1.9192290E-02;  3.7584207E+04;  0.0000000E+00; -3.8570140E-11;  4.0000000E+04;  0.0000000E+00;  3.9978148E+04; -4.6995785E-02;  0.0000000E+00;  2.7803496E-02;  5.2034050E+01;
  6.4203238E-01;  9.9999998E-03;  1.0003169E-02;6381; -1.5526446E-02;  0.0000000E+00;  2.9318850E-04;  9.9953906E+02;  1.0315170E-01; -3.8186572E+02;3; -1.8291489E+00;  0.0000000E+00; -1.2183022E-01;0; -1.9201342E-02;  3.7583910E+04;  0.0000000E+00; -6.2865927E-04;  4.0000000E+04;  0.0000000E+00;  3.9978445E+04; -4.6943273E-02;  0.0000000E+00;  2.7741931E-02;  4.3369385E+01;
  6.4203119E-01;  9.9999998E-03;  2.0004034E-02;6382; -1.5500108E-02;  0.0000000E+00;  5.8826682E-04;  9.9953137E+02;  1.0315228E-01; -3.8823590E+02;3; -1.8252863E+00;  0.0000000E+00; -2.3584454E-01;0; -1.9230641E-02;  3.7582391E+04;  0.0000000E+00; -2.9482588E-03;  4.0000000E+04;  0.0000000E+00;  3.9978590E+04; -4.6786446E-02;  0.0000000E+00;  2.7555805E-02;  2.0319378E+01;
  6.4202851E-01;  9.9999998E-03;  3.0004114E-02;6383; -1.5458320E-02;  0.0000000E+00;  8.8408985E-04;  9.9951367E+02;  1.0315263E-01; -4.0290216E+02;3; -1.8179327E+00;  0.0000000E+00; -3.5015413E-01;0; -1.9285671E-02;  3.7580438E+04;  0.0000000E+00; -8.1852498E-03;  4.0000000E+04;  0.0000000E+00;  3.9978641E+04; -4.6527285E-02;  0.0000000E+00;  2.7241614E-02;  1.7287401E+01;
  6.4202332E-01;  9.9999998E-03;  4.0004723E-02;6384; -1.5403528E-02;  0.0000000E+00;  1.1802091E-03;  9.9949152E+02;  1.0315338E-01; -4.2127200E+02;3; -1.8080736E+00;  0.0000000E+00; -4.6620962E-01;0; -1.9374654E-02;  3.7577930E+04;  0.0000000E+00; -1.8112972E-02;  4.0000000E+04;  0.0000000E+00;  3.9979035E+04; -4.6169471E-02;  0.0000000E+00;  2.6794817E-02;  5.0889240E+01;
  6.4201385E-01;  9.9999998E-03;  5.0005663E-02;6385; -1.5339117E-02;  0.0000000E+00;  1.4727191E-03;  9.9946423E+02;  1.0315417E-01; -4.4388864E+02;3; -1.7945971E+00;  0.0000000E+00; -5.7628661E-01;0; -1.9505719E-02;  3.7574891E+04;  0.0000000E+00; -3.4612898E-02;  4.0000000E+04;  0.0000000E+00;  3.9979133E+04; -4.5717679E-02;  0.0000000E+00;  2.6211960E-02;  8.2236076E+01;
  6.4199835E-01;  9.9999998E-03;  6.0006805E-02;6386; -1.5269097E-02;  0.0000000E+00;  1.7593594E-03;  9.9943152E+02;  1.0315521E-01; -4.7099899E+02;3; -1.7773619E+00;  0.0000000E+00; -6.8094760E-01;0; -1.9685881E-02;  3.7571609E+04;  0.0000000E+00; -5.9125017E-02;  4.0000000E+04;  0.0000000E+00;  3.9979027E+04; -4.5178220E-02;  0.0000000E+00;  2.5492338E-02;  1.1062943E+02;
  6.5208268E-01;  9.9999998E-03;  1.3250295E-08;6441; -1.5999578E-02;  0.0000000E+00;  6.1316932E-08;  1.0001173E+03;  1.0447160E-01;  9.7182426E+01;3; -1.7349702E+00;  0.0000000E+00; -1.8708506E-06;0; -1.9449495E-02;  3.6681680E+04;  0.0000000E+00; -6.0341281E-11;  4.0000000E+04;  0.0000000E+00;  3.9969934E+04; -4.7820359E-02;  0.0000000E+00;  2.8370865E-02;  4.6872623E+01;
  6.5208107E-01;  9.9999998E-03; -1.0000094E-02;6440; -1.5989916E-02;  0.0000000E+00; -2.9968744E-04;  1.0001132E+03;  1.0447188E-01;  9.3725739E+01;3; -1.7353059E+00;  0.0000000E+00;  1.3097197E-01;0; -1.9455118E-02;  3.6681000E+04;  0.0000000E+00; -3.1789672E-03;  4.0000000E+04;  0.0000000E+00;  3.9970184E+04; -4.7765125E-02;  0.0000000E+00;  2.8310006E-02;  3.6340717E+01;
  6.5208107E-01;  9.9999998E-03;  1.0000120E-02;6442; -1.5989924E-02;  0.0000000E+00;  2.9980959E-04;  1.0001132E+03;  1.0447188E-01;  9.3725739E+01;3; -1.7352854E+00;  0.0000000E+00; -1.3097066E-01;0; -1.9455150E-02;  3.6681000E+04;  0.0000000E+00; -3.1767963E-03;  4.0000000E+04;  0.0000000E+00;  3.9970184E+04; -4.7765151E-02;  0.0000000E+00;  2.8310001E-02;  3.6335148E+01;
  6.5207601E-01;  9.9999998E-03; -1.9999085E-02;6439; -1.5961844E-02;  0.0000000E+00; -6.0012261E-04;  1.0000922E+03;  1.0447238E-01;  7.6442276E+01;3; -1.7318504E+00;  0.0000000E+00;  2.5404283E-01;0; -1.9474253E-02;  3.6679172E+04;  0.0000000E+00; -1.3076391E-02;  4.0000000E+04;  0.0000000E+00;  3.9970316E+04; -4.7600169E-02;  0.0000000E+00;  2.8125916E-02;  2.1624348E+01;
  6.5207601E-01;  9.9999998E-03;  1.9999111E-02;6443; -1.5961856E-02;  0.0000000E+00;  6.0024322E-04;  1.0000922E+03;  1.0447238E-01;  7.6442276E+01;3; -1.7318693E+00;  0.0000000E+00; -2.5404149E-01;0; -1.9474227E-02;  3.6679172E+04;  0.0000000E+00; -1.3072658E-02;  4.0000000E+04;  0.0000000E+00;  3.9970320E+04; -4.7600154E-02;  0.0000000E+00;  2.8125927E-02;  2.1617163E+01;
  6.5206695E-01;  9.9999998E-03; -2.9997138E-02;6438; -1.5917428E-02;  0.0000000E+00; -9.0225280E-04;  1.0000627E+03;  1.0447284E-01;  5.1949142E+01;3; -1.7261156E+00;  0.0000000E+00;  3.7948814E-01;0; -1.9512836E-02;  3.6675914E+04;  0.0000000E+00; -3.0661771E-02;  4.0000000E+04;  0.0000000E+00;  3.9970605E+04; -4.7327425E-02;  0.0000000E+00;  2.7814589E-02;  5.9271770E+01;
  6.5206695E-01;  9.9999998E-03;  2.9997163E-02;6444; -1.5917441E-02;  0.0000000E+00;  9.0237119E-04;  1.0000627E+03;  1.0447284E-01;  5.1949142E+01;3; -1.7261286E+00;  0.0000000E+00; -3.7948781E-01;0; -1.9512877E-02;  3.6675914E+04;  0.0000000E+00; -3.0656653E-02;  4.0000000E+04;  0.0000000E+00;  3.9970598E+04; -4.7327481E-02;  0.0000000E+00;  2.7814604E-02;  5.9272808E+01;
  6.5205318E-01;  9.9999998E-03; -3.9995670E-02;6437; -1.5858600E-02;  0.0000000E+00; -1.2044926E-03;  1.0000290E+03;  1.0447374E-01;  2.3999319E+01;3; -1.7168576E+00;  0.0000000E+00;  5.0460535E-01;0; -1.9579770E-02;  3.6672125E+04;  0.0000000E+00; -5.7180054E-02;  4.0000000E+04;  0.0000000E+00;  3.9970918E+04; -4.6950426E-02;  0.0000000E+00;  2.7370656E-02;  1.1688536E+02;
  6.5205318E-01;  9.9999998E-03;  3.9995696E-02;6445; -1.5858619E-02;  0.0000000E+00;  1.2046096E-03;  1.0000290E+03;  1.0447374E-01;  2.3999319E+01;3; -1.7168593E+00;  0.0000000E+00; -5.0460595E-01;0; -1.9579735E-02;  3.6672129E+04;  0.0000000E+00; -5.7176720E-02;  4.0000000E+04;  0.0000000E+00;  3.9970918E+04; -4.6950404E-02;  0.0000000E+00;  2.7370669E-02;  1.1687084E+02;
  6.5203387E-01;  9.9999998E-03; -4.9995117E-02;6436; -1.5789296E-02;  0.0000000E+00; -1.5030201E-03;  9.9998364E+02;  1.0447542E-01; -1.3530480E+01;3; -1.7052623E+00;  0.0000000E+00;  6.2675673E-01;0; -1.9684102E-02;  3.6667520E+04;  0.0000000E+00; -9.3630254E-02;  4.0000000E+04;  0.0000000E+00;  3.9970875E+04; -4.6473805E-02;  0.0000000E+00;  2.6789702E-02;  1.7946266E+02;
  6.5203387E-01;  9.9999998E-03;  4.9995139E-02;6446; -1.5789317E-02;  0.0000000E+00;  1.5031364E-03;  9.9998370E+02;  1.0447542E-01; -1.3481099E+01;3; -1.7052412E+00;  0.0000000E+00; -6.2675613E-01;0; -1.9684117E-02;  3.6667523E+04;  0.0000000E+00; -9.3628086E-02;  4.0000000E+04;  0.0000000E+00;  3.9970875E+04; -4.6473790E-02;  0.0000000E+00;  2.6789673E-02;  1.7945209E+02;
  6.5200800E-01;  9.9999998E-03; -5.9995100E-02;6435; -1.5713427E-02;  0.0000000E+00; -1.7951397E-03;  9.9994037E+02;  1.0447723E-01; -4.9381317E+01;3; -1.6900318E+00;  0.0000000E+00;  7.3789430E-01;0; -1.9834083E-02;  3.6662738E+04;  0.0000000E+00; -1.4014015E-01;  4.0000000E+04;  0.0000000E+00;  3.9971086E+04; -4.5904014E-02;  0.0000000E+00;  2.6069932E-02;  2.4501530E+02;
  6.5200800E-01;  9.9999998E-03;  5.9995122E-02;6447; -1.5713450E-02;  0.0000000E+00;  1.7952562E-03;  9.9994049E+02;  1.0447721E-01; -4.9282555E+01;3; -1.6900136E+00;  0.0000000E+00; -7.3789573E-01;0; -1.9834086E-02;  3.6662746E+04;  0.0000000E+00; -1.4013897E-01;  4.0000000E+04;  0.0000000E+00;  3.9971082E+04; -4.5904003E-02;  0.0000000E+00;  2.6069917E-02;  2.4500725E+02;
  6.5197587E-01;  9.9999998E-03; -6.9995135E-02;6434; -1.5634982E-02;  0.0000000E+00; -2.0764321E-03;  9.9989337E+02;  1.0447907E-01; -8.8343170E+01;3; -1.6694167E+00;  0.0000000E+00;  8.5125905E-01;0; -2.0035082E-02;  3.6657633E+04;  0.0000000E+00; -1.9539870E-01;  4.0000000E+04;  0.0000000E+00;  3.9970766E+04; -4.5248918E-02;  0.0000000E+00;  2.5213836E-02;  3.1759525E+02;
  6.5193778E-01;  9.9999998E-03; -7.9994887E-02;6433; -1.5557337E-02;  0.0000000E+00; -2.3417994E-03;  9.9984564E+02;  1.0448122E-01; -1.2789761E+02;3; -1.6453141E+00;  0.0000000E+00;  9.5498335E-01;0; -2.0288734E-02;  3.6652922E+04;  0.0000000E+00; -2.5635064E-01;  4.0000000E+04;  0.0000000E+00;  3.9970109E+04; -4.4517577E-02;  0.0000000E+00;  2.4228843E-02;  4.0381567E+02;
  6.5189409E-01;  9.9999998E-03; -8.9994676E-02;6432; -1.5483372E-02;  0.0000000E+00; -2.5900975E-03;  9.9980756E+02;  1.0448410E-01; -1.5945227E+02;3; -1.6167197E+00;  0.0000000E+00;  1.0542061E+00;0; -2.0593308E-02;  3.6648125E+04;  0.0000000E+00; -3.1822222E-01;  4.0000000E+04;  0.0000000E+00;  3.9969559E+04; -4.3720193E-02;  0.0000000E+00;  2.3126885E-02;  5.0597256E+02;
  6.5184605E-01;  9.9999998E-03; -9.9994592E-02;6431; -1.5414742E-02;  0.0000000E+00; -2.8200697E-03;  9.9976782E+02;  1.0448702E-01; -1.9234023E+02;3; -1.5843687E+00;  0.0000000E+00;  1.1453052E+00;0; -2.0943983E-02;  3.6643980E+04;  0.0000000E+00; -3.7487835E-01;  4.0000000E+04;  0.0000000E+00;  3.9968434E+04; -4.2867512E-02;  0.0000000E+00;  2.1923529E-02;  6.1704144E+02;
  6.6208899E-01;  9.9999998E-03; -9.9965828E-03;6501; -1.6450824E-02;  0.0000000E+00; -3.0333083E-04;  1.0005471E+03;  1.0608612E-01;  4.5332047E+02;3; -1.6335506E+00;  0.0000000E+00;  1.3704416E-01;0; -1.9803161E-02;  3.5600242E+04;  0.0000000E+00; -5.0724465E-03;  4.0000000E+04;  0.0000000E+00;  3.9959664E+04; -4.8630513E-02;  0.0000000E+00;  2.8827352E-02;  8.0725853E+01;
  6.6209054E-01;  9.9999998E-03;  1.3918401E-08;6502; -1.6460963E-02;  0.0000000E+00;  6.4067038E-08;  1.0005566E+03;  1.0608586E-01;  4.6112271E+02;3; -1.6358062E+00;  0.0000000E+00; -7.0082945E-07;0; -1.9801786E-02;  3.5600953E+04;  0.0000000E+00; -8.1949655E-11;  4.0000000E+04;  0.0000000E+00;  3.9959504E+04; -4.8688415E-02;  0.0000000E+00;  2.8886629E-02;  9.3940475E+01;
  6.6208899E-01;  9.9999998E-03;  9.9966107E-03;6503; -1.6450830E-02;  0.0000000E+00;  3.0345784E-04;  1.0005469E+03;  1.0608622E-01;  4.5312296E+02;3; -1.6335074E+00;  0.0000000E+00; -1.3704483E-01;0; -1.9803099E-02;  3.5600250E+04;  0.0000000E+00; -5.0697071E-03;  4.0000000E+04;  0.0000000E+00;  3.9959664E+04; -4.8630491E-02;  0.0000000E+00;  2.8827392E-02;  8.0721832E+01;
  6.6208452E-01;  9.9999998E-03; -1.9993084E-02;6500; -1.6421584E-02;  0.0000000E+00; -6.0687005E-04;  1.0005243E+03;  1.0608685E-01;  4.3435806E+02;3; -1.6294581E+00;  0.0000000E+00;  2.7341402E-01;0; -1.9809783E-02;  3.5597961E+04;  0.0000000E+00; -2.0598166E-02;  4.0000000E+04;  0.0000000E+00;  3.9959797E+04; -4.8457664E-02;  0.0000000E+00;  2.8647881E-02;  5.4589241E+01;
  6.6208452E-01;  9.9999998E-03;  1.9993111E-02;6504; -1.6421592E-02;  0.0000000E+00;  6.0699519E-04;  1.0005242E+03;  1.0608685E-01;  4.3435806E+02;3; -1.6294602E+00;  0.0000000E+00; -2.7341521E-01;0; -1.9809779E-02;  3.5597965E+04;  0.0000000E+00; -2.0593675E-02;  4.0000000E+04;  0.0000000E+00;  3.9959797E+04; -4.8457664E-02;  0.0000000E+00;  2.8647885E-02;  5.4588947E+01;
  6.6207701E-01;  9.9999998E-03; -2.9989468E-02;6499; -1.6374733E-02;  0.0000000E+00; -9.1210112E-04;  1.0004943E+03;  1.0608841E-01;  4.0946988E+02;3; -1.6259919E+00;  0.0000000E+00;  4.1017577E-01;0; -1.9828228E-02;  3.5594070E+04;  0.0000000E+00; -4.7334440E-02;  4.0000000E+04;  0.0000000E+00;  3.9960184E+04; -4.8171703E-02;  0.0000000E+00;  2.8343474E-02;  7.8325775E+01;
  6.6207701E-01;  9.9999998E-03;  2.9989496E-02;6505; -1.6374743E-02;  0.0000000E+00;  9.1222452E-04;  1.0004942E+03;  1.0608827E-01;  4.0946988E+02;3; -1.6259815E+00;  0.0000000E+00; -4.1017389E-01;0; -1.9828252E-02;  3.5594066E+04;  0.0000000E+00; -4.7328234E-02;  4.0000000E+04;  0.0000000E+00;  3.9960184E+04; -4.8171733E-02;  0.0000000E+00;  2.8343480E-02;  7.8316933E+01;
  6.6206568E-01;  9.9999998E-03; -3.9985888E-02;6498; -1.6312815E-02;  0.0000000E+00; -1.2179890E-03;  1.0004541E+03;  1.0609008E-01;  3.7618686E+02;3; -1.6185067E+00;  0.0000000E+00;  5.4090548E-01;0; -1.9867893E-02;  3.5589285E+04;  0.0000000E+00; -8.6056821E-02;  4.0000000E+04;  0.0000000E+00;  3.9960633E+04; -4.7775887E-02;  0.0000000E+00;  2.7907994E-02;  1.5438719E+02;
  6.6206568E-01;  9.9999998E-03;  3.9985914E-02;6506; -1.6312830E-02;  0.0000000E+00;  1.2181113E-03;  1.0004541E+03;  1.0609008E-01;  3.7618686E+02;3; -1.6185234E+00;  0.0000000E+00; -5.4090500E-01;0; -1.9867875E-02;  3.5589285E+04;  0.0000000E+00; -8.6049706E-02;  4.0000000E+04;  0.0000000E+00;  3.9960633E+04; -4.7775853E-02;  0.0000000E+00;  2.7907979E-02;  1.5436993E+02;
  6.6204977E-01;  9.9999998E-03; -4.9982827E-02;6497; -1.6239371E-02;  0.0000000E+00; -1.5210722E-03;  1.0004007E+03;  1.0609205E-01;  3.3194119E+02;3; -1.6080718E+00;  0.0000000E+00;  6.7168868E-01;0; -1.9939231E-02;  3.5583859E+04;  0.0000000E+00; -1.3700423E-01;  4.0000000E+04;  0.0000000E+00;  3.9960680E+04; -4.7274966E-02;  0.0000000E+00;  2.7335735E-02;  2.4662910E+02;
  6.6204977E-01;  9.9999998E-03;  4.9982853E-02;6507; -1.6239388E-02;  0.0000000E+00;  1.5211937E-03;  1.0004006E+03;  1.0609199E-01;  3.3194119E+02;3; -1.6080705E+00;  0.0000000E+00; -6.7168838E-01;0; -1.9939274E-02;  3.5583863E+04;  0.0000000E+00; -1.3699844E-01;  4.0000000E+04;  0.0000000E+00;  3.9960680E+04; -4.7274996E-02;  0.0000000E+00;  2.7335722E-02;  2.4661987E+02;
  6.6202891E-01;  9.9999998E-03; -5.9980143E-02;6496; -1.6158255E-02;  0.0000000E+00; -1.8177088E-03;  1.0003535E+03;  1.0609499E-01;  2.9283121E+02;3; -1.5933503E+00;  0.0000000E+00;  7.9741925E-01;0; -2.0051660E-02;  3.5578129E+04;  0.0000000E+00; -1.9922487E-01;  4.0000000E+04;  0.0000000E+00;  3.9960961E+04; -4.6675280E-02;  0.0000000E+00;  2.6623620E-02;  3.4565820E+02;
  6.6202891E-01;  9.9999998E-03;  5.9980169E-02;6508; -1.6158279E-02;  0.0000000E+00;  1.8178298E-03;  1.0003535E+03;  1.0609499E-01;  2.9283121E+02;3; -1.5933386E+00;  0.0000000E+00; -7.9742426E-01;0; -2.0051716E-02;  3.5578133E+04;  0.0000000E+00; -1.9922368E-01;  4.0000000E+04;  0.0000000E+00;  3.9960961E+04; -4.6675295E-02;  0.0000000E+00;  2.6623579E-02;  3.4565906E+02;
  6.6200274E-01;  9.9999998E-03; -6.9977947E-02;6495; -1.6073495E-02;  0.0000000E+00; -2.1032491E-03;  1.0003083E+03;  1.0609844E-01;  2.5549893E+02;3; -1.5754347E+00;  0.0000000E+00;  9.1890591E-01;0; -2.0212166E-02;  3.5572441E+04;  0.0000000E+00; -2.6999161E-01;  4.0000000E+04;  0.0000000E+00;  3.9960500E+04; -4.5984652E-02;  0.0000000E+00;  2.5772486E-02;  4.5072821E+02;
  6.6197121E-01;  9.9999998E-03; -7.9976261E-02;6494; -1.5988767E-02;  0.0000000E+00; -2.3732064E-03;  1.0002653E+03;  1.0610209E-01;  2.1984561E+02;3; -1.5534384E+00;  0.0000000E+00;  1.0331289E+00;0; -2.0424202E-02;  3.5566777E+04;  0.0000000E+00; -3.4453216E-01;  4.0000000E+04;  0.0000000E+00;  3.9959852E+04; -4.5212463E-02;  0.0000000E+00;  2.4788260E-02;  5.6378516E+02;
  6.6193438E-01;  9.9999998E-03; -8.9975342E-02;6493; -1.5907008E-02;  0.0000000E+00; -2.6258242E-03;  1.0002290E+03;  1.0610646E-01;  1.8972302E+02;3; -1.5275524E+00;  0.0000000E+00;  1.1389428E+00;0; -2.0687228E-02;  3.5561965E+04;  0.0000000E+00; -4.1614339E-01;  4.0000000E+04;  0.0000000E+00;  3.9959188E+04; -4.4369031E-02;  0.0000000E+00;  2.3681803E-02;  6.8350818E+02;
  6.6189301E-01;  9.9999998E-03; -9.9975273E-02;6492; -1.5829939E-02;  0.0000000E+00; -2.8602504E-03;  1.0002037E+03;  1.0611106E-01;  1.6878534E+02;3; -1.4970425E+00;  0.0000000E+00;  1.2376333E+00;0; -2.0998104E-02;  3.5557523E+04;  0.0000000E+00; -4.7681624E-01;  4.0000000E+04;  0.0000000E+00;  3.9958062E+04; -4.3465938E-02;  0.0000000E+00;  2.2467835E-02;  8.0113971E+02;
  6.7193538E-01;  9.9999998E-03; -9.9959880E-02;6553; -1.6250912E-02;  0.0000000E+00; -2.8841400E-03;  1.0002958E+03;  1.0800669E-01;  2.4512885E+02;3; -1.3996484E+00;  0.0000000E+00;  1.3357712E+00;0; -2.1082649E-02;  3.4322207E+04;  0.0000000E+00; -4.9711224E-01;  4.0000000E+04;  0.0000000E+00;  3.9945602E+04; -4.4099260E-02;  0.0000000E+00;  2.3016611E-02;  8.7697156E+02;
  6.7195290E-01;  9.9999998E-03; -8.9961231E-02;6554; -1.6337708E-02;  0.0000000E+00; -2.6459577E-03;  1.0002962E+03;  1.0799950E-01;  2.4542514E+02;3; -1.4291650E+00;  0.0000000E+00;  1.2257863E+00;0; -2.0817518E-02;  3.4326047E+04;  0.0000000E+00; -4.4159275E-01;  4.0000000E+04;  0.0000000E+00;  3.9946699E+04; -4.5051787E-02;  0.0000000E+00;  2.4234269E-02;  7.6247986E+02;
  6.7196763E-01;  9.9999998E-03; -7.9963781E-02;6555; -1.6428282E-02;  0.0000000E+00; -2.3894841E-03;  1.0003077E+03;  1.0799278E-01;  2.5490636E+02;3; -1.4528221E+00;  0.0000000E+00;  1.1124704E+00;0; -2.0601640E-02;  3.4330820E+04;  0.0000000E+00; -3.7085462E-01;  4.0000000E+04;  0.0000000E+00;  3.9947641E+04; -4.5939963E-02;  0.0000000E+00;  2.5338324E-02;  6.3596509E+02;
  6.7197996E-01;  9.9999998E-03; -6.9967233E-02;6556; -1.6520826E-02;  0.0000000E+00; -2.1152210E-03;  1.0003305E+03;  1.0798662E-01;  2.7377002E+02;3; -1.4731897E+00;  0.0000000E+00;  9.8606300E-01;0; -2.0436982E-02;  3.4336273E+04;  0.0000000E+00; -2.9407445E-01;  4.0000000E+04;  0.0000000E+00;  3.9948164E+04; -4.6751916E-02;  0.0000000E+00;  2.6314935E-02;  5.0799707E+02;
  6.7199028E-01;  9.9999998E-03; -5.9971400E-02;6557; -1.6612226E-02;  0.0000000E+00; -1.8262940E-03;  1.0003697E+03;  1.0798125E-01;  3.0626291E+02;3; -1.4888691E+00;  0.0000000E+00;  8.5526621E-01;0; -2.0322265E-02;  3.4342449E+04;  0.0000000E+00; -2.1921684E-01;  4.0000000E+04;  0.0000000E+00;  3.9948473E+04; -4.7476906E-02;  0.0000000E+00;  2.7154641E-02;  3.8340485E+02;
  6.7199892E-01;  9.9999998E-03; -4.9975876E-02;6558; -1.6698860E-02;  0.0000000E+00; -1.5273464E-03;  1.0004137E+03;  1.0797668E-01;  3.4270633E+02;3; -1.5015713E+00;  0.0000000E+00;  7.1951300E-01;0; -2.0252295E-02;  3.4348684E+04;  0.0000000E+00; -1.5213087E-01;  4.0000000E+04;  0.0000000E+00;  3.9948316E+04; -4.8105557E-02;  0.0000000E+00;  2.7853262E-02;  2.6567627E+02;
  6.7200577E-01;  9.9999998E-03; -3.9980650E-02;6559; -1.6776668E-02;  0.0000000E+00; -1.2219581E-03;  1.0004554E+03;  1.0797307E-01;  3.7727325E+02;3; -1.5111879E+00;  0.0000000E+00;  5.7790542E-01;0; -2.0218357E-02;  3.4354777E+04;  0.0000000E+00; -9.6328124E-02;  4.0000000E+04;  0.0000000E+00;  3.9947906E+04; -4.8629940E-02;  0.0000000E+00;  2.8411582E-02;  1.6669463E+02;
  6.7201090E-01;  9.9999998E-03; -2.9985648E-02;6560; -1.6841561E-02;  0.0000000E+00; -9.1451051E-04;  1.0004984E+03;  1.0797056E-01;  4.1292657E+02;3; -1.5171071E+00;  0.0000000E+00;  4.3811351E-01;0; -2.0209193E-02;  3.4360137E+04;  0.0000000E+00; -5.3342868E-02;  4.0000000E+04;  0.0000000E+00;  3.9947297E+04; -4.9043551E-02;  0.0000000E+00;  2.8834358E-02;  1.2343393E+02;
  6.7201424E-01;  9.9999998E-03; -1.9990424E-02;6561; -1.6890587E-02;  0.0000000E+00; -6.0799852E-04;  1.0005284E+03;  1.0796814E-01;  4.3771597E+02;3; -1.5198736E+00;  0.0000000E+00;  2.9027605E-01;0; -2.0213537E-02;  3.4364387E+04;  0.0000000E+00; -2.3339704E-02;  4.0000000E+04;  0.0000000E+00;  3.9946738E+04; -4.9342081E-02;  0.0000000E+00;  2.9128544E-02;  1.5350017E+02;
  6.7201626E-01;  9.9999998E-03; -9.9952025E-03;6562; -1.6920712E-02;  0.0000000E+00; -3.0342987E-04;  1.0005526E+03;  1.0796691E-01;  4.5786356E+02;3; -1.5226252E+00;  0.0000000E+00;  1.4047720E-01;0; -2.0220872E-02;  3.4367195E+04;  0.0000000E+00; -5.7699857E-03;  4.0000000E+04;  0.0000000E+00;  3.9946375E+04; -4.9522303E-02;  0.0000000E+00;  2.9301431E-02;  1.9525185E+02;
  6.7201692E-01;  9.9999998E-03;  1.4405130E-08;6563; -1.6930813E-02;  0.0000000E+00;  6.6407338E-08;  1.0005602E+03;  1.0796670E-01;  4.6408560E+02;3; -1.5258100E+00;  0.0000000E+00; -5.6758017E-07;0; -2.0224001E-02;  3.4368098E+04;  0.0000000E+00; -1.0462477E-10;  4.0000000E+04;  0.0000000E+00;  3.9946422E+04; -4.9582448E-02;  0.0000000E+00;  2.9358447E-02;  2.1190726E+02;
  6.7201626E-01;  9.9999998E-03;  9.9952305E-03;6564; -1.6920712E-02;  0.0000000E+00;  3.0356192E-04;  1.0005527E+03;  1.0796720E-01;  4.5786356E+02;3; -1.5226296E+00;  0.0000000E+00; -1.4047977E-01;0; -2.0220852E-02;  3.4367195E+04;  0.0000000E+00; -5.7670823E-03;  4.0000000E+04;  0.0000000E+00;  3.9946375E+04; -4.9522292E-02;  0.0000000E+00;  2.9301440E-02;  1.9523372E+02;
  6.7201424E-01;  9.9999998E-03;  1.9990453E-02;6565; -1.6890600E-02;  0.0000000E+00;  6.0812855E-04;  1.0005282E+03;  1.0796822E-01;  4.3761722E+02;3; -1.5199184E+00;  0.0000000E+00; -2.9027817E-01;0; -2.0213548E-02;  3.4364387E+04;  0.0000000E+00; -2.3333993E-02;  4.0000000E+04;  0.0000000E+00;  3.9946734E+04; -4.9342114E-02;  0.0000000E+00;  2.9128566E-02;  1.5350429E+02;
  6.7201090E-01;  9.9999998E-03;  2.9985676E-02;6566; -1.6841570E-02;  0.0000000E+00;  9.1463939E-04;  1.0004985E+03;  1.0797051E-01;  4.1302533E+02;3; -1.5171548E+00;  0.0000000E+00; -4.3811309E-01;0; -2.0209257E-02;  3.4360137E+04;  0.0000000E+00; -5.3336184E-02;  4.0000000E+04;  0.0000000E+00;  3.9947297E+04; -4.9043585E-02;  0.0000000E+00;  2.8834328E-02;  1.2341762E+02;
  6.7200577E-01;  9.9999998E-03;  3.9980680E-02;6567; -1.6776683E-02;  0.0000000E+00;  1.2220857E-03;  1.0004553E+03;  1.0797307E-01;  3.7727325E+02;3; -1.5111552E+00;  0.0000000E+00; -5.7790416E-01;0; -2.0218361E-02;  3.4354777E+04;  0.0000000E+00; -9.6320510E-02;  4.0000000E+04;  0.0000000E+00;  3.9947910E+04; -4.8629940E-02;  0.0000000E+00;  2.8411578E-02;  1.6668202E+02;
  6.7199892E-01;  9.9999998E-03;  4.9975906E-02;6568; -1.6698876E-02;  0.0000000E+00;  1.5274730E-03;  1.0004138E+03;  1.0797677E-01;  3.4280508E+02;3; -1.5015448E+00;  0.0000000E+00; -7.1951467E-01;0; -2.0252308E-02;  3.4348680E+04;  0.0000000E+00; -1.5212417E-01;  4.0000000E+04;  0.0000000E+00;  3.9948316E+04; -4.8105594E-02;  0.0000000E+00;  2.7853286E-02;  2.6566418E+02;
  6.7199028E-01;  9.9999998E-03;  5.9971426E-02;6569; -1.6612247E-02;  0.0000000E+00;  1.8264208E-03;  1.0003698E+03;  1.0798122E-01;  3.0636169E+02;3; -1.4888704E+00;  0.0000000E+00; -8.5525978E-01;0; -2.0322328E-02;  3.4342449E+04;  0.0000000E+00; -2.1921369E-01;  4.0000000E+04;  0.0000000E+00;  3.9948473E+04; -4.7476970E-02;  0.0000000E+00;  2.7154641E-02;  3.8339789E+02;
  6.8196559E-01;  9.9999998E-03; -9.9959880E-02;6614; -1.6690390E-02;  0.0000000E+00; -2.8978963E-03;  9.9996600E+02;  1.1015628E-01; -2.8147350E+01;3; -1.2962996E+00;  0.0000000E+00;  1.4309138E+00;0; -2.1189302E-02;  3.2973609E+04;  0.0000000E+00; -4.1648319E-01;  4.0000000E+04;  0.0000000E+00;  3.9931953E+04; -4.4757329E-02;  0.0000000E+00;  2.3568027E-02;  8.0159662E+02;
  6.8196219E-01;  9.9999998E-03; -8.9960970E-02;6615; -1.6788822E-02;  0.0000000E+00; -2.6552475E-03;  9.9991882E+02;  1.1014520E-01; -6.7257355E+01;3; -1.3220546E+00;  0.0000000E+00;  1.3130165E+00;0; -2.0972202E-02;  3.2977047E+04;  0.0000000E+00; -3.7719193E-01;  4.0000000E+04;  0.0000000E+00;  3.9932820E+04; -4.5758437E-02;  0.0000000E+00;  2.4786236E-02;  7.0456335E+02;
  6.8195784E-01;  9.9999998E-03; -7.9963312E-02;6616; -1.6890116E-02;  0.0000000E+00; -2.3942427E-03;  9.9989166E+02;  1.1013468E-01; -8.9775230E+01;3; -1.3443967E+00;  0.0000000E+00;  1.1843385E+00;0; -2.0806069E-02;  3.2980953E+04;  0.0000000E+00; -3.2083017E-01;  4.0000000E+04;  0.0000000E+00;  3.9933270E+04; -4.6690363E-02;  0.0000000E+00;  2.5884295E-02;  5.9016602E+02;
  6.8195301E-01;  9.9999998E-03; -6.9966622E-02;6617; -1.6991880E-02;  0.0000000E+00; -2.1156662E-03;  9.9988550E+02;  1.1012568E-01; -9.4861511E+01;3; -1.3610811E+00;  0.0000000E+00;  1.0502554E+00;0; -2.0691423E-02;  3.2985914E+04;  0.0000000E+00; -2.5633252E-01;  4.0000000E+04;  0.0000000E+00;  3.9933742E+04; -4.7540989E-02;  0.0000000E+00;  2.6849566E-02;  4.6981198E+02;
  6.8194783E-01;  9.9999998E-03; -5.9970841E-02;6618; -1.7091217E-02;  0.0000000E+00; -1.8236380E-03;  9.9989398E+02;  1.1011732E-01; -8.7849358E+01;3; -1.3751873E+00;  0.0000000E+00;  9.0752870E-01;0; -2.0625230E-02;  3.2992062E+04;  0.0000000E+00; -1.9176874E-01;  4.0000000E+04;  0.0000000E+00;  3.9933754E+04; -4.8299190E-02;  0.0000000E+00;  2.7673960E-02;  3.5323434E+02;
  6.8194276E-01;  9.9999998E-03; -4.9975634E-02;6619; -1.7183973E-02;  0.0000000E+00; -1.5225677E-03;  9.9992004E+02;  1.1011066E-01; -6.6220345E+01;3; -1.3861836E+00;  0.0000000E+00;  7.6224476E-01;0; -2.0600054E-02;  3.2998512E+04;  0.0000000E+00; -1.3317823E-01;  4.0000000E+04;  0.0000000E+00;  3.9933602E+04; -4.8955172E-02;  0.0000000E+00;  2.8355118E-02;  2.5757266E+02;
  6.8193799E-01;  9.9999998E-03; -3.9980754E-02;6620; -1.7266380E-02;  0.0000000E+00; -1.2163070E-03;  9.9995068E+02;  1.1010469E-01; -4.0838348E+01;3; -1.3936760E+00;  0.0000000E+00;  6.1542863E-01;0; -2.0605469E-02;  3.3005215E+04;  0.0000000E+00; -8.4246397E-02;  4.0000000E+04;  0.0000000E+00;  3.9932812E+04; -4.9501210E-02;  0.0000000E+00;  2.8895741E-02;  2.2041286E+02;
  6.8193364E-01;  9.9999998E-03; -2.9985933E-02;6621; -1.7334694E-02;  0.0000000E+00; -9.0919057E-04;  9.9998627E+02;  1.1010028E-01; -1.1357702E+01;3; -1.3993152E+00;  0.0000000E+00;  4.6429795E-01;0; -2.0628745E-02;  3.3011188E+04;  0.0000000E+00; -4.6595078E-02;  4.0000000E+04;  0.0000000E+00;  3.9932324E+04; -4.9931228E-02;  0.0000000E+00;  2.9302483E-02;  2.6020135E+02;
  6.8193007E-01;  9.9999998E-03; -1.9990960E-02;6622; -1.7385647E-02;  0.0000000E+00; -6.0338480E-04;  1.0000183E+03;  1.1009674E-01;  1.5209445E+01;3; -1.4016440E+00;  0.0000000E+00;  3.0904904E-01;0; -2.0657089E-02;  3.3015832E+04;  0.0000000E+00; -2.0374320E-02;  4.0000000E+04;  0.0000000E+00;  3.9931754E+04; -5.0241124E-02;  0.0000000E+00;  2.9584035E-02;  3.2988010E+02;
  6.8192756E-01;  9.9999998E-03; -9.9957734E-03;6623; -1.7416907E-02;  0.0000000E+00; -3.0077080E-04;  1.0000377E+03;  1.1009508E-01;  3.1208992E+01;3; -1.4018059E+00;  0.0000000E+00;  1.5446931E-01;0; -2.0679180E-02;  3.3018809E+04;  0.0000000E+00; -5.0354362E-03;  4.0000000E+04;  0.0000000E+00;  3.9931082E+04; -5.0427936E-02;  0.0000000E+00;  2.9748756E-02;  3.8541980E+02;
  6.8192673E-01;  9.9999998E-03;  1.4701408E-08;6624; -1.7427541E-02;  0.0000000E+00;  6.8476169E-08;  1.0000437E+03;  1.1009413E-01;  3.6245884E+01;3; -1.4042335E+00;  0.0000000E+00;  9.0392859E-08;0; -2.0687340E-02;  3.3019883E+04;  0.0000000E+00; -1.2383317E-10;  4.0000000E+04;  0.0000000E+00;  3.9931098E+04; -5.0490297E-02;  0.0000000E+00;  2.9802958E-02;  4.0598935E+02;
  6.8192756E-01;  9.9999998E-03;  9.9958023E-03;6625; -1.7416911E-02;  0.0000000E+00;  3.0090736E-04;  1.0000377E+03;  1.1009508E-01;  3.1208992E+01;3; -1.4018213E+00;  0.0000000E+00; -1.5447453E-01;0; -2.0679165E-02;  3.3018809E+04;  0.0000000E+00; -5.0324397E-03;  4.0000000E+04;  0.0000000E+00;  3.9931082E+04; -5.0427932E-02;  0.0000000E+00;  2.9748768E-02;  3.8542896E+02;
  6.8193007E-01;  9.9999998E-03;  1.9990990E-02;6626; -1.7385652E-02;  0.0000000E+00;  6.0352043E-04;  1.0000184E+03;  1.1009681E-01;  1.5209445E+01;3; -1.4015931E+00;  0.0000000E+00; -3.0904928E-01;0; -2.0657135E-02;  3.3015828E+04;  0.0000000E+00; -2.0368466E-02;  4.0000000E+04;  0.0000000E+00;  3.9931754E+04; -5.0241116E-02;  0.0000000E+00;  2.9583981E-02;  3.2988181E+02;
  6.8193364E-01;  9.9999998E-03;  2.9985961E-02;6627; -1.7334703E-02;  0.0000000E+00;  9.0932450E-04;  9.9998627E+02;  1.1010028E-01; -1.1357702E+01;3; -1.3992841E+00;  0.0000000E+00; -4.6430084E-01;0; -2.0628786E-02;  3.3011188E+04;  0.0000000E+00; -4.6588890E-02;  4.0000000E+04;  0.0000000E+00;  3.9932324E+04; -4.9931273E-02;  0.0000000E+00;  2.9302487E-02;  2.6020139E+02;
  6.8193799E-01;  9.9999998E-03;  3.9980784E-02;6628; -1.7266393E-02;  0.0000000E+00;  1.2164400E-03;  9.9995068E+02;  1.1010469E-01; -4.0838348E+01;3; -1.3936766E+00;  0.0000000E+00; -6.1543077E-01;0; -2.0605495E-02;  3.3005211E+04;  0.0000000E+00; -8.4238999E-02;  4.0000000E+04;  0.0000000E+00;  3.9932812E+04; -4.9501244E-02;  0.0000000E+00;  2.8895749E-02;  2.2041646E+02;
  6.8194276E-01;  9.9999998E-03;  4.9975663E-02;6629; -1.7183989E-02;  0.0000000E+00;  1.5227001E-03;  9.9992010E+02;  1.1011063E-01; -6.6170959E+01;3; -1.3861589E+00;  0.0000000E+00; -7.6224822E-01;0; -2.0600079E-02;  3.2998516E+04;  0.0000000E+00; -1.3317299E-01;  4.0000000E+04;  0.0000000E+00;  3.9933602E+04; -4.8955146E-02;  0.0000000E+00;  2.8355068E-02;  2.5756696E+02;
  6.8194783E-01;  9.9999998E-03;  5.9970871E-02;6630; -1.7091239E-02;  0.0000000E+00;  1.8237706E-03;  9.9989404E+02;  1.1011732E-01; -8.7799980E+01;3; -1.3752110E+00;  0.0000000E+00; -9.0752906E-01;0; -2.0625204E-02;  3.2992055E+04;  0.0000000E+00; -1.9176678E-01;  4.0000000E+04;  0.0000000E+00;  3.9933754E+04; -4.8299167E-02;  0.0000000E+00;  2.7673963E-02;  3.5322961E+02;
  6.9255197E-01;  9.9999998E-03; -1.0000370E-01;6675; -1.7176576E-02;  0.0000000E+00; -2.9036333E-03;  9.9929431E+02;  1.1264547E-01; -5.8462537E+02;3; -1.1766274E+00;  0.0000000E+00;  1.5363444E+00;0; -2.1307638E-02;  3.1499869E+04;  0.0000000E+00; -2.2941603E-01;  4.0000000E+04;  0.0000000E+00;  3.9915637E+04; -4.5456991E-02;  0.0000000E+00;  2.4149353E-02;  5.6795465E+02;
  6.9252127E-01;  9.9999998E-03; -9.0001121E-02;6676; -1.7288623E-02;  0.0000000E+00; -2.6561527E-03;  9.9919360E+02;  1.1262806E-01; -6.6807983E+02;3; -1.1994489E+00;  0.0000000E+00;  1.4101421E+00;0; -2.1139143E-02;  3.1502643E+04;  0.0000000E+00; -2.1778756E-01;  4.0000000E+04;  0.0000000E+00;  3.9916270E+04; -4.6506815E-02;  0.0000000E+00;  2.5367672E-02;  5.0163223E+02;
  6.9248420E-01;  9.9999998E-03; -7.9999685E-02;6677; -1.7402265E-02;  0.0000000E+00; -2.3917262E-03;  9.9911884E+02;  1.1261085E-01; -7.3000397E+02;3; -1.2179418E+00;  0.0000000E+00;  1.2718811E+00;0; -2.1023870E-02;  3.1507475E+04;  0.0000000E+00; -1.9048199E-01;  4.0000000E+04;  0.0000000E+00;  3.9916895E+04; -4.7481965E-02;  0.0000000E+00;  2.6458096E-02;  4.2496341E+02;
  6.9244242E-01;  9.9999998E-03; -6.9998279E-02;6678; -1.7514640E-02;  0.0000000E+00; -2.1099469E-03;  9.9907489E+02;  1.1259457E-01; -7.6644739E+02;3; -1.2334555E+00;  0.0000000E+00;  1.1246569E+00;0; -2.0960310E-02;  3.1514072E+04;  0.0000000E+00; -1.5444718E-01;  4.0000000E+04;  0.0000000E+00;  3.9917020E+04; -4.8369743E-02;  0.0000000E+00;  2.7409432E-02;  3.5078000E+02;
  6.9239873E-01;  9.9999998E-03; -5.9997257E-02;6679; -1.7622396E-02;  0.0000000E+00; -1.8161485E-03;  9.9905548E+02;  1.1257912E-01; -7.8249634E+02;3; -1.2449124E+00;  0.0000000E+00;  9.7342747E-01;0; -2.0943675E-02;  3.1522236E+04;  0.0000000E+00; -1.1613164E-01;  4.0000000E+04;  0.0000000E+00;  3.9917094E+04; -4.9158923E-02;  0.0000000E+00;  2.8215248E-02;  2.9921277E+02;
  6.9235587E-01;  9.9999998E-03; -4.9996980E-02;6680; -1.7721903E-02;  0.0000000E+00; -1.5143774E-03;  9.9906110E+02;  1.1256533E-01; -7.7785449E+02;3; -1.2548077E+00;  0.0000000E+00;  8.1750667E-01;0; -2.0964697E-02;  3.1531221E+04;  0.0000000E+00; -8.0474965E-02;  4.0000000E+04;  0.0000000E+00;  3.9916539E+04; -4.9839966E-02;  0.0000000E+00;  2.8875269E-02;  3.0094424E+02;
  6.9231677E-01;  9.9999998E-03; -3.9997473E-02;6681; -1.7808845E-02;  0.0000000E+00; -1.2078633E-03;  9.9908142E+02;  1.1255291E-01; -7.6101544E+02;3; -1.2617533E+00;  0.0000000E+00;  6.5428102E-01;0; -2.1010594E-02;  3.1540131E+04;  0.0000000E+00; -5.0550211E-02;  4.0000000E+04;  0.0000000E+00;  3.9916035E+04; -5.0405256E-02;  0.0000000E+00;  2.9394662E-02;  3.6579709E+02;
  6.9228399E-01;  9.9999998E-03; -2.9998299E-02;6682; -1.7879767E-02;  0.0000000E+00; -9.0153527E-04;  9.9910602E+02;  1.1254330E-01; -7.4067035E+02;3; -1.2644188E+00;  0.0000000E+00;  4.9115610E-01;0; -2.1067038E-02;  3.1548338E+04;  0.0000000E+00; -2.7696773E-02;  4.0000000E+04;  0.0000000E+00;  3.9914988E+04; -5.0849240E-02;  0.0000000E+00;  2.9782202E-02;  4.6400388E+02;
  6.9225913E-01;  9.9999998E-03; -1.9999085E-02;6683; -1.7932249E-02;  0.0000000E+00; -5.9866579E-04;  9.9913147E+02;  1.1253632E-01; -7.1958453E+02;3; -1.2674260E+00;  0.0000000E+00;  3.3146513E-01;0; -2.1119984E-02;  3.1554742E+04;  0.0000000E+00; -1.2000138E-02;  4.0000000E+04;  0.0000000E+00;  3.9914422E+04; -5.1168513E-02;  0.0000000E+00;  3.0048529E-02;  5.6002496E+02;
  6.9224381E-01;  9.9999998E-03; -9.9997781E-03;6684; -1.7964654E-02;  0.0000000E+00; -2.9867978E-04;  9.9914880E+02;  1.1253200E-01; -7.0521460E+02;3; -1.2695247E+00;  0.0000000E+00;  1.6670318E-01;0; -2.1157244E-02;  3.1558738E+04;  0.0000000E+00; -2.9468879E-03;  4.0000000E+04;  0.0000000E+00;  3.9913770E+04; -5.1360853E-02;  0.0000000E+00;  3.0203609E-02;  6.2814020E+02;
  6.9223845E-01;  9.9999998E-03;  1.4999399E-08;6685; -1.7975548E-02;  0.0000000E+00;  7.0245079E-08;  9.9915161E+02;  1.1253030E-01; -7.0289368E+02;3; -1.2688674E+00;  0.0000000E+00; -3.1497075E-06;0; -2.1170631E-02;  3.1560316E+04;  0.0000000E+00; -1.3156089E-10;  4.0000000E+04;  0.0000000E+00;  3.9913699E+04; -5.1425111E-02;  0.0000000E+00;  3.0254479E-02;  6.5266302E+02;
  6.9224381E-01;  9.9999998E-03;  9.9998079E-03;6686; -1.7964657E-02;  0.0000000E+00;  2.9881971E-04;  9.9914874E+02;  1.1253189E-01; -7.0526398E+02;3; -1.2695223E+00;  0.0000000E+00; -1.6670550E-01;0; -2.1157257E-02;  3.1558746E+04;  0.0000000E+00; -2.9442452E-03;  4.0000000E+04;  0.0000000E+00;  3.9913770E+04; -5.1360872E-02;  0.0000000E+00;  3.0203614E-02;  6.2813879E+02;
  6.9225913E-01;  9.9999998E-03;  1.9999115E-02;6687; -1.7932255E-02;  0.0000000E+00;  5.9880601E-04;  9.9913135E+02;  1.1253625E-01; -7.1968329E+02;3; -1.2674209E+00;  0.0000000E+00; -3.3147416E-01;0; -2.1119971E-02;  3.1554746E+04;  0.0000000E+00; -1.1995348E-02;  4.0000000E+04;  0.0000000E+00;  3.9914418E+04; -5.1168531E-02;  0.0000000E+00;  3.0048560E-02;  5.6003168E+02;
  6.9228399E-01;  9.9999998E-03;  2.9998329E-02;6688; -1.7879779E-02;  0.0000000E+00;  9.0167439E-04;  9.9910583E+02;  1.1254327E-01; -7.4081848E+02;3; -1.2644557E+00;  0.0000000E+00; -4.9116448E-01;0; -2.1067116E-02;  3.1548338E+04;  0.0000000E+00; -2.7691040E-02;  4.0000000E+04;  0.0000000E+00;  3.9914992E+04; -5.0849322E-02;  0.0000000E+00;  2.9782206E-02;  4.6400998E+02;
  6.9231677E-01;  9.9999998E-03;  3.9997503E-02;6689; -1.7808856E-02;  0.0000000E+00;  1.2080038E-03;  9.9908148E+02;  1.1255290E-01; -7.6096606E+02;3; -1.2617525E+00;  0.0000000E+00; -6.5427303E-01;0; -2.1010652E-02;  3.1540135E+04;  0.0000000E+00; -5.0542671E-02;  4.0000000E+04;  0.0000000E+00;  3.9916031E+04; -5.0405290E-02;  0.0000000E+00;  2.9394638E-02;  3.6583231E+02;
  6.9235587E-01;  9.9999998E-03;  4.9997009E-02;6690; -1.7721921E-02;  0.0000000E+00;  1.5145161E-03;  9.9906110E+02;  1.1256533E-01; -7.7785449E+02;3; -1.2548052E+00;  0.0000000E+00; -8.1751263E-01;0; -2.0964701E-02;  3.1531221E+04;  0.0000000E+00; -8.0470361E-02;  4.0000000E+04;  0.0000000E+00;  3.9916539E+04; -4.9839988E-02;  0.0000000E+00;  2.8875288E-02;  3.0095041E+02;
  6.9239873E-01;  9.9999998E-03;  5.9997287E-02;6691; -1.7622419E-02;  0.0000000E+00;  1.8162872E-03;  9.9905548E+02;  1.1257912E-01; -7.8249634E+02;3; -1.2449137E+00;  0.0000000E+00; -9.7342551E-01;0; -2.0943739E-02;  3.1522238E+04;  0.0000000E+00; -1.1612968E-01;  4.0000000E+04;  0.0000000E+00;  3.9917098E+04; -4.9158946E-02;  0.0000000E+00;  2.8215207E-02;  2.9921191E+02;
  7.0467496E-01;  9.9999998E-03; -1.0016701E-01;6736; -1.7748760E-02;  0.0000000E+00; -2.9252013E-03;  9.9871027E+02;  1.1572332E-01; -1.0685129E+03;3; -1.0342634E+00;  0.0000000E+00;  1.6694347E+00;0; -2.1411009E-02;  2.9832805E+04;  0.0000000E+00;  6.4413927E-02;  4.0000000E+04;  0.0000000E+00;  3.9896227E+04; -4.6214923E-02;  0.0000000E+00;  2.4803914E-02;  4.0491989E+02;
  7.0467204E-01;  9.9999998E-03; -9.0156056E-02;6737; -1.7879738E-02;  0.0000000E+00; -2.6685139E-03;  9.9854858E+02;  1.1571142E-01; -1.2024844E+03;3; -1.0517778E+00;  0.0000000E+00;  1.5275116E+00;0; -2.1290358E-02;  2.9829275E+04;  0.0000000E+00;  3.9795853E-02;  4.0000000E+04;  0.0000000E+00;  3.9896758E+04; -4.7320846E-02;  0.0000000E+00;  2.6030488E-02;  3.4180209E+02;
  7.0465630E-01;  9.9999998E-03; -8.0145881E-02;6738; -1.8011000E-02;  0.0000000E+00; -2.3952390E-03;  9.9841931E+02;  1.1569832E-01; -1.3095925E+03;3; -1.0653918E+00;  0.0000000E+00;  1.3744721E+00;0; -2.1226613E-02;  2.9828535E+04;  0.0000000E+00;  2.4680704E-02;  4.0000000E+04;  0.0000000E+00;  3.9897008E+04; -4.8346233E-02;  0.0000000E+00;  2.7119620E-02;  3.0540805E+02;
  7.0462906E-01;  9.9999998E-03; -7.0135638E-02;6739; -1.8139059E-02;  0.0000000E+00; -2.1070743E-03;  9.9832562E+02;  1.1568467E-01; -1.3871705E+03;3; -1.0757508E+00;  0.0000000E+00;  1.2158356E+00;0; -2.1216787E-02;  2.9830764E+04;  0.0000000E+00;  1.6142923E-02;  4.0000000E+04;  0.0000000E+00;  3.9896973E+04; -4.9278028E-02;  0.0000000E+00;  2.8061241E-02;  3.0793259E+02;
  7.0459324E-01;  9.9999998E-03; -6.0124282E-02;6740; -1.8260052E-02;  0.0000000E+00; -1.8084195E-03;  9.9826746E+02;  1.1567078E-01; -1.4353667E+03;3; -1.0824981E+00;  0.0000000E+00;  1.0490128E+00;0; -2.1253580E-02;  2.9835408E+04;  0.0000000E+00;  1.1421361E-02;  4.0000000E+04;  0.0000000E+00;  3.9896801E+04; -5.0104596E-02;  0.0000000E+00;  2.8851015E-02;  3.5537604E+02;
  7.0455241E-01;  9.9999998E-03; -5.0111018E-02;6741; -1.8369580E-02;  0.0000000E+00; -1.5037281E-03;  9.9824707E+02;  1.1565778E-01; -1.4522551E+03;3; -1.0901874E+00;  0.0000000E+00;  8.7727493E-01;0; -2.1325184E-02;  2.9842012E+04;  0.0000000E+00;  8.4738638E-03;  4.0000000E+04;  0.0000000E+00;  3.9896172E+04; -5.0816189E-02;  0.0000000E+00;  2.9491005E-02;  4.4461102E+02;
  7.0451081E-01;  9.9999998E-03; -4.0095389E-02;6742; -1.8464126E-02;  0.0000000E+00; -1.1973802E-03;  9.9824316E+02;  1.1564524E-01; -1.4555143E+03;3; -1.0941631E+00;  0.0000000E+00;  7.0385784E-01;0; -2.1416686E-02;  2.9849498E+04;  0.0000000E+00;  6.1230226E-03;  4.0000000E+04;  0.0000000E+00;  3.9895250E+04; -5.1405668E-02;  0.0000000E+00;  2.9988982E-02;  5.6290338E+02;
  7.0447314E-01;  9.9999998E-03; -3.0076476E-02;6743; -1.8540449E-02;  0.0000000E+00; -8.9238648E-04;  9.9825287E+02;  1.1563516E-01; -1.4474651E+03;3; -1.0974993E+00;  0.0000000E+00;  5.2772993E-01;0; -2.1511525E-02;  2.9856703E+04;  0.0000000E+00;  3.9262013E-03;  4.0000000E+04;  0.0000000E+00;  3.9894664E+04; -5.1868048E-02;  0.0000000E+00;  3.0356523E-02;  6.9006616E+02;
  7.0444322E-01;  9.9999998E-03; -2.0053707E-02;6744; -1.8596195E-02;  0.0000000E+00; -5.9175654E-04;  9.9826788E+02;  1.1562708E-01; -1.4350210E+03;3; -1.0988839E+00;  0.0000000E+00;  3.5893703E-01;0; -2.1593254E-02;  2.9862826E+04;  0.0000000E+00;  1.9486882E-03;  4.0000000E+04;  0.0000000E+00;  3.9893512E+04; -5.2199889E-02;  0.0000000E+00;  3.0606635E-02;  8.0304193E+02;
  7.0442426E-01;  9.9999998E-03; -1.0027865E-02;6745; -1.8630443E-02;  0.0000000E+00; -2.9501758E-04;  9.9828363E+02;  1.1562194E-01; -1.4219844E+03;3; -1.0997603E+00;  0.0000000E+00;  1.7757212E-01;0; -2.1648590E-02;  2.9866832E+04;  0.0000000E+00;  5.2380731E-04;  4.0000000E+04;  0.0000000E+00;  3.9892832E+04; -5.2399810E-02;  0.0000000E+00;  3.0751221E-02;  8.8074725E+02;
  7.0441771E-01;  9.9999998E-03;  1.4977964E-08;6746; -1.8641772E-02;  0.0000000E+00;  7.1446443E-08;  9.9828699E+02;  1.1562067E-01; -1.4192190E+03;3; -1.0986779E+00;  0.0000000E+00; -1.2091186E-06;0; -2.1667996E-02;  2.9868213E+04;  0.0000000E+00; -1.2061728E-10;  4.0000000E+04;  0.0000000E+00;  3.9892582E+04; -5.2466460E-02;  0.0000000E+00;  3.0798463E-02;  9.0846478E+02;
  7.0442426E-01;  9.9999998E-03;  1.0027895E-02;6747; -1.8630447E-02;  0.0000000E+00;  2.9516174E-04;  9.9828369E+02;  1.1562190E-01; -1.4219349E+03;3; -1.0997379E+00;  0.0000000E+00; -1.7757399E-01;0; -2.1648576E-02;  2.9866830E+04;  0.0000000E+00;  5.2563183E-04;  4.0000000E+04;  0.0000000E+00;  3.9892840E+04; -5.2399788E-02;  0.0000000E+00;  3.0751212E-02;  8.8074451E+02;
  7.0444322E-01;  9.9999998E-03;  2.0053737E-02;6748; -1.8596200E-02;  0.0000000E+00;  5.9190212E-04;  9.9826788E+02;  1.1562708E-01; -1.4350210E+03;3; -1.0989112E+00;  0.0000000E+00; -3.5894766E-01;0; -2.1593340E-02;  2.9862828E+04;  0.0000000E+00;  1.9519591E-03;  4.0000000E+04;  0.0000000E+00;  3.9893512E+04; -5.2199982E-02;  0.0000000E+00;  3.0606642E-02;  8.0305243E+02;
  7.0447314E-01;  9.9999998E-03;  3.0076506E-02;6749; -1.8540461E-02;  0.0000000E+00;  8.9253212E-04;  9.9825287E+02;  1.1563516E-01; -1.4474651E+03;3; -1.0974917E+00;  0.0000000E+00; -5.2774036E-01;0; -2.1511542E-02;  2.9856705E+04;  0.0000000E+00;  3.9303252E-03;  4.0000000E+04;  0.0000000E+00;  3.9894668E+04; -5.1868051E-02;  0.0000000E+00;  3.0356510E-02;  6.9009338E+02;
  7.0451081E-01;  9.9999998E-03;  4.0095419E-02;6750; -1.8464139E-02;  0.0000000E+00;  1.1975255E-03;  9.9824316E+02;  1.1564524E-01; -1.4555143E+03;3; -1.0941857E+00;  0.0000000E+00; -7.0386386E-01;0; -2.1416813E-02;  2.9849504E+04;  0.0000000E+00;  6.1268411E-03;  4.0000000E+04;  0.0000000E+00;  3.9895250E+04; -5.1405784E-02;  0.0000000E+00;  2.9988971E-02;  5.6291174E+02;
  7.0455241E-01;  9.9999998E-03;  5.0111048E-02;6751; -1.8369600E-02;  0.0000000E+00;  1.5038728E-03;  9.9824689E+02;  1.1565779E-01; -1.4524032E+03;3; -1.0901930E+00;  0.0000000E+00; -8.7728357E-01;0; -2.1325178E-02;  2.9842018E+04;  0.0000000E+00;  8.4783630E-03;  4.0000000E+04;  0.0000000E+00;  3.9896172E+04; -5.0816186E-02;  0.0000000E+00;  2.9491007E-02;  4.4462262E+02;
  7.0459318E-01;  9.9999998E-03;  6.0124312E-02;6752; -1.8260073E-02;  0.0000000E+00;  1.8085659E-03;  9.9826752E+02;  1.1567055E-01; -1.4353174E+03;3; -1.0824939E+00;  0.0000000E+00; -1.0490159E+00;0; -2.1253608E-02;  2.9835408E+04;  0.0000000E+00;  1.1423361E-02;  4.0000000E+04;  0.0000000E+00;  3.9896809E+04; -5.0104622E-02;  0.0000000E+00;  2.8851014E-02;  3.5538742E+02;
  7.1754265E-01;  9.9999998E-03; -1.0029339E-01;6797; -1.8365713E-02;  0.0000000E+00; -2.9685167E-03;  9.9879675E+02;  1.1931013E-01; -9.9686060E+02;3; -8.6973023E-01;  0.0000000E+00;  1.8048186E+00;0; -2.1439208E-02;  2.8095984E+04;  0.0000000E+00;  3.7774086E-01;  4.0000000E+04;  0.0000000E+00;  3.9875156E+04; -4.6942174E-02;  0.0000000E+00;  2.5502967E-02;  8.5192310E+02;
  7.1758783E-01;  9.9999998E-03; -9.0275481E-02;6798; -1.8517710E-02;  0.0000000E+00; -2.7002580E-03;  9.9861115E+02;  1.1931047E-01; -1.1506340E+03;3; -8.7919670E-01;  0.0000000E+00;  1.6614003E+00;0; -2.1356462E-02;  2.8085623E+04;  0.0000000E+00;  3.2088459E-01;  4.0000000E+04;  0.0000000E+00;  3.9875441E+04; -4.8102953E-02;  0.0000000E+00;  2.6746491E-02;  7.4559497E+02;
  7.1761805E-01;  9.9999998E-03; -8.0256112E-02;6799; -1.8669356E-02;  0.0000000E+00; -2.4188319E-03;  9.9846570E+02;  1.1931025E-01; -1.2711244E+03;3; -8.8443732E-01;  0.0000000E+00;  1.4990865E+00;0; -2.1335609E-02;  2.8078023E+04;  0.0000000E+00;  2.6317793E-01;  4.0000000E+04;  0.0000000E+00;  3.9875434E+04; -4.9177930E-02;  0.0000000E+00;  2.7842321E-02;  6.5103107E+02;
  7.1763384E-01;  9.9999998E-03; -7.0234694E-02;6800; -1.8816264E-02;  0.0000000E+00; -2.1238867E-03;  9.9835535E+02;  1.1930910E-01; -1.3625786E+03;3; -8.9015341E-01;  0.0000000E+00;  1.3216766E+00;0; -2.1372044E-02;  2.8073641E+04;  0.0000000E+00;  2.0702414E-01;  4.0000000E+04;  0.0000000E+00;  3.9875145E+04; -5.0153401E-02;  0.0000000E+00;  2.8781356E-02;  5.8883624E+02;
  7.1763659E-01;  9.9999998E-03; -6.0210839E-02;6801; -1.8953217E-02;  0.0000000E+00; -1.8182158E-03;  9.9829010E+02;  1.1930643E-01; -1.4166018E+03;3; -8.9438641E-01;  0.0000000E+00;  1.1385281E+00;0; -2.1456489E-02;  2.8072195E+04;  0.0000000E+00;  1.5478148E-01;  4.0000000E+04;  0.0000000E+00;  3.9874434E+04; -5.1017433E-02;  0.0000000E+00;  2.9560944E-02;  5.8096234E+02;
  7.1763003E-01;  9.9999998E-03; -5.0184373E-02;6802; -1.9075587E-02;  0.0000000E+00; -1.5078222E-03;  9.9825311E+02;  1.1930332E-01; -1.4472676E+03;3; -8.9725327E-01;  0.0000000E+00;  9.4492710E-01;0; -2.1575024E-02;  2.8073146E+04;  0.0000000E+00;  1.0850461E-01;  4.0000000E+04;  0.0000000E+00;  3.9873941E+04; -5.1760454E-02;  0.0000000E+00;  3.0185429E-02;  6.3752496E+02;
  7.1761543E-01;  9.9999998E-03; -4.0154003E-02;6803; -1.9179272E-02;  0.0000000E+00; -1.1983226E-03;  9.9824915E+02;  1.1929952E-01; -1.4505267E+03;3; -9.0001696E-01;  0.0000000E+00;  7.5653702E-01;0; -2.1709651E-02;  2.8076035E+04;  0.0000000E+00;  6.9678910E-02;  4.0000000E+04;  0.0000000E+00;  3.9872734E+04; -5.2374862E-02;  0.0000000E+00;  3.0665211E-02;  7.4451520E+02;
  7.1759552E-01;  9.9999998E-03; -3.0119434E-02;6804; -1.9261900E-02;  0.0000000E+00; -8.9209335E-04;  9.9825885E+02;  1.1929509E-01; -1.4425270E+03;3; -9.0314031E-01;  0.0000000E+00;  5.6803387E-01;0; -2.1841271E-02;  2.8079863E+04;  0.0000000E+00;  3.9182108E-02;  4.0000000E+04;  0.0000000E+00;  3.9871766E+04; -5.2855946E-02;  0.0000000E+00;  3.1014675E-02;  8.7215332E+02;
  7.1757537E-01;  9.9999998E-03; -2.0081833E-02;6805; -1.9321885E-02;  0.0000000E+00; -5.9101195E-04;  9.9827515E+02;  1.1929139E-01; -1.4289965E+03;3; -9.0120882E-01;  0.0000000E+00;  3.8072619E-01;0; -2.1951318E-02;  2.8083770E+04;  0.0000000E+00;  1.7380022E-02;  4.0000000E+04;  0.0000000E+00;  3.9870824E+04; -5.3200874E-02;  0.0000000E+00;  3.1249557E-02;  9.8949030E+02;
  7.1756065E-01;  9.9999998E-03; -1.0041922E-02;6806; -1.9357976E-02;  0.0000000E+00; -2.9504328E-04;  9.9828424E+02;  1.1928820E-01; -1.4214906E+03;3; -9.0268654E-01;  0.0000000E+00;  1.8596032E-01;0; -2.2024073E-02;  2.8086574E+04;  0.0000000E+00;  4.3366547E-03;  4.0000000E+04;  0.0000000E+00;  3.9870242E+04; -5.3408127E-02;  0.0000000E+00;  3.1384055E-02;  1.0712612E+03;
  7.1755528E-01;  9.9999998E-03;  1.4444237E-08;6807; -1.9370029E-02;  0.0000000E+00;  7.3756269E-08;  9.9828876E+02;  1.1928692E-01; -1.4177375E+03;3; -9.0289813E-01;  0.0000000E+00; -8.7718154E-06;0; -2.2049524E-02;  2.8087629E+04;  0.0000000E+00; -8.4161268E-11;  4.0000000E+04;  0.0000000E+00;  3.9869941E+04; -5.3477269E-02;  0.0000000E+00;  3.1427745E-02;  1.1005066E+03;
  7.1756065E-01;  9.9999998E-03;  1.0041951E-02;6808; -1.9357979E-02;  0.0000000E+00;  2.9519340E-04;  9.9828430E+02;  1.1928800E-01; -1.4214412E+03;3; -9.0268600E-01;  0.0000000E+00; -1.8596704E-01;0; -2.2024177E-02;  2.8086576E+04;  0.0000000E+00;  4.3371948E-03;  4.0000000E+04;  0.0000000E+00;  3.9870238E+04; -5.3408209E-02;  0.0000000E+00;  3.1384032E-02;  1.0712710E+03;
  7.1757537E-01;  9.9999998E-03;  2.0081863E-02;6809; -1.9321894E-02;  0.0000000E+00;  5.9116288E-04;  9.9827509E+02;  1.1929139E-01; -1.4290459E+03;3; -9.0124941E-01;  0.0000000E+00; -3.8073322E-01;0; -2.1951372E-02;  2.8083777E+04;  0.0000000E+00;  1.7381229E-02;  4.0000000E+04;  0.0000000E+00;  3.9870824E+04; -5.3200953E-02;  0.0000000E+00;  3.1249581E-02;  9.8949670E+02;
  7.1759552E-01;  9.9999998E-03;  3.0119464E-02;6810; -1.9261908E-02;  0.0000000E+00;  8.9224323E-04;  9.9825897E+02;  1.1929507E-01; -1.4424282E+03;3; -9.0315366E-01;  0.0000000E+00; -5.6803876E-01;0; -2.1841258E-02;  2.8079863E+04;  0.0000000E+00;  3.9182756E-02;  4.0000000E+04;  0.0000000E+00;  3.9871766E+04; -5.2855942E-02;  0.0000000E+00;  3.1014685E-02;  8.7215228E+02;
  7.1761543E-01;  9.9999998E-03;  4.0154032E-02;6811; -1.9179285E-02;  0.0000000E+00;  1.1984755E-03;  9.9824921E+02;  1.1929952E-01; -1.4504774E+03;3; -9.0001881E-01;  0.0000000E+00; -7.5655586E-01;0; -2.1709740E-02;  2.8076031E+04;  0.0000000E+00;  6.9678567E-02;  4.0000000E+04;  0.0000000E+00;  3.9872727E+04; -5.2374937E-02;  0.0000000E+00;  3.0665196E-02;  7.4452264E+02;
  7.1763003E-01;  9.9999998E-03;  5.0184406E-02;6812; -1.9075608E-02;  0.0000000E+00;  1.5079748E-03;  9.9825299E+02;  1.1930332E-01; -1.4473663E+03;3; -8.9727408E-01;  0.0000000E+00; -9.4493330E-01;0; -2.1575039E-02;  2.8073145E+04;  0.0000000E+00;  1.0850336E-01;  4.0000000E+04;  0.0000000E+00;  3.9873941E+04; -5.1760446E-02;  0.0000000E+00;  3.0185407E-02;  6.3755042E+02;
  7.1763659E-01;  9.9999998E-03;  6.0210869E-02;6813; -1.8953241E-02;  0.0000000E+00;  1.8183714E-03;  9.9828998E+02;  1.1930644E-01; -1.4167006E+03;3; -8.9440227E-01;  0.0000000E+00; -1.1385195E+00;0; -2.1456663E-02;  2.8072189E+04;  0.0000000E+00;  1.5478089E-01;  4.0000000E+04;  0.0000000E+00;  3.9874426E+04; -5.1017594E-02;  0.0000000E+00;  2.9560931E-02;  5.8097083E+02;
  7.2960526E-01;  9.9999998E-03; -1.0030967E-01;6858; -1.8963236E-02;  0.0000000E+00; -3.0455121E-03;  9.9906189E+02;  1.2296839E-01; -7.7721252E+02;3; -6.9675690E-01;  0.0000000E+00;  1.9421842E+00;0; -2.1369237E-02;  2.6485736E+04;  0.0000000E+00;  5.8388478E-01;  4.0000000E+04;  0.0000000E+00;  3.9854410E+04; -4.7534287E-02;  0.0000000E+00;  2.6165050E-02;  1.3387045E+03;
  7.2965109E-01;  9.9999998E-03; -9.0283930E-02;6859; -1.9133702E-02;  0.0000000E+00; -2.7633004E-03;  9.9889398E+02;  1.2296873E-01; -9.1631970E+02;3; -7.0294631E-01;  0.0000000E+00;  1.7708679E+00;0; -2.1312077E-02;  2.6476844E+04;  0.0000000E+00;  5.1082873E-01;  4.0000000E+04;  0.0000000E+00;  3.9854633E+04; -4.8742410E-02;  0.0000000E+00;  2.7430333E-02;  1.1948007E+03;
  7.2967976E-01;  9.9999998E-03; -8.0256939E-02;6860; -1.9301880E-02;  0.0000000E+00; -2.4658293E-03;  9.9876416E+02;  1.2296783E-01; -1.0238722E+03;3; -7.0669085E-01;  0.0000000E+00;  1.6024412E+00;0; -2.1321001E-02;  2.6470494E+04;  0.0000000E+00;  4.2613110E-01;  4.0000000E+04;  0.0000000E+00;  3.9854738E+04; -4.9858905E-02;  0.0000000E+00;  2.8537905E-02;  1.0338221E+03;
  7.2969103E-01;  9.9999998E-03; -7.0228860E-02;6861; -1.9463487E-02;  0.0000000E+00; -2.1584898E-03;  9.9867291E+02;  1.2296507E-01; -1.0994750E+03;3; -7.0337617E-01;  0.0000000E+00;  1.4264629E+00;0; -2.1390755E-02;  2.6467109E+04;  0.0000000E+00;  3.3735472E-01;  4.0000000E+04;  0.0000000E+00;  3.9854250E+04; -5.0870031E-02;  0.0000000E+00;  2.9479276E-02;  8.8654065E+02;
  7.2968823E-01;  9.9999998E-03; -6.0199529E-02;6862; -1.9613001E-02;  0.0000000E+00; -1.8435399E-03;  9.9863208E+02;  1.2296319E-01; -1.1333011E+03;3; -7.0396060E-01;  0.0000000E+00;  1.2289588E+00;0; -2.1510553E-02;  2.6466361E+04;  0.0000000E+00;  2.5183609E-01;  4.0000000E+04;  0.0000000E+00;  3.9853832E+04; -5.1764201E-02;  0.0000000E+00;  3.0253649E-02;  7.8995691E+02;
  7.2967488E-01;  9.9999998E-03; -5.0170060E-02;6863; -1.9745087E-02;  0.0000000E+00; -1.5254079E-03;  9.9861462E+02;  1.2296011E-01; -1.1477699E+03;3; -7.0318365E-01;  0.0000000E+00;  1.0207217E+00;0; -2.1664349E-02;  2.6467885E+04;  0.0000000E+00;  1.7534731E-01;  4.0000000E+04;  0.0000000E+00;  3.9853133E+04; -5.2531838E-02;  0.0000000E+00;  3.0867489E-02;  7.7418103E+02;
  7.2965616E-01;  9.9999998E-03; -4.0140957E-02;6864; -1.9855367E-02;  0.0000000E+00; -1.2099304E-03;  9.9862177E+02;  1.2295775E-01; -1.1418441E+03;3; -7.0402139E-01;  0.0000000E+00;  8.1290185E-01;0; -2.1832045E-02;  2.6470555E+04;  0.0000000E+00;  1.1153565E-01;  4.0000000E+04;  0.0000000E+00;  3.9851977E+04; -5.3166017E-02;  0.0000000E+00;  3.1333972E-02;  8.3685706E+02;
  7.2963518E-01;  9.9999998E-03; -3.0110028E-02;6865; -1.9942904E-02;  0.0000000E+00; -8.9913688E-04;  9.9864056E+02;  1.2295546E-01; -1.1262891E+03;3; -7.0580709E-01;  0.0000000E+00;  6.1128265E-01;0; -2.1992251E-02;  2.6473975E+04;  0.0000000E+00;  6.2078785E-02;  4.0000000E+04;  0.0000000E+00;  3.9851059E+04; -5.3662490E-02;  0.0000000E+00;  3.1670239E-02;  9.4238251E+02;
  7.2961527E-01;  9.9999998E-03; -2.0076409E-02;6866; -2.0005507E-02;  0.0000000E+00; -5.9396354E-04;  9.9866400E+02;  1.2295169E-01; -1.1068328E+03;3; -7.0316058E-01;  0.0000000E+00;  4.0240890E-01;0; -2.2124082E-02;  2.6477348E+04;  0.0000000E+00;  2.7289772E-02;  4.0000000E+04;  0.0000000E+00;  3.9850098E+04; -5.4018218E-02;  0.0000000E+00;  3.1894136E-02;  1.0493228E+03;
  7.2960109E-01;  9.9999998E-03; -1.0039754E-02;6867; -2.0042760E-02;  0.0000000E+00; -2.9640470E-04;  9.9868323E+02;  1.2294976E-01; -1.0909320E+03;3; -7.0266283E-01;  0.0000000E+00;  1.9874851E-01;0; -2.2210646E-02;  2.6479838E+04;  0.0000000E+00;  6.7681596E-03;  4.0000000E+04;  0.0000000E+00;  3.9849648E+04; -5.4232012E-02;  0.0000000E+00;  3.2021366E-02;  1.1264246E+03;
  7.2959614E-01;  9.9999998E-03;  1.5003280E-08;6868; -2.0055359E-02;  0.0000000E+00;  7.6683861E-08;  9.9868738E+02;  1.2294906E-01; -1.0874753E+03;3; -7.0529181E-01;  0.0000000E+00; -7.1365566E-06;0; -2.2240892E-02;  2.6480688E+04;  0.0000000E+00; -2.7013296E-11;  4.0000000E+04;  0.0000000E+00;  3.9849398E+04; -5.4303426E-02;  0.0000000E+00;  3.2062534E-02;  1.1543754E+03;
  7.2960109E-01;  9.9999998E-03;  1.0039785E-02;6869; -2.0042764E-02;  0.0000000E+00;  2.9655971E-04;  9.9868341E+02;  1.2295038E-01; -1.0907839E+03;3; -7.0272571E-01;  0.0000000E+00; -1.9875461E-01;0; -2.2210706E-02;  2.6479838E+04;  0.0000000E+00;  6.7676203E-03;  4.0000000E+04;  0.0000000E+00;  3.9849648E+04; -5.4232083E-02;  0.0000000E+00;  3.2021377E-02;  1.1264349E+03;
  7.2961527E-01;  9.9999998E-03;  2.0076441E-02;6870; -2.0005519E-02;  0.0000000E+00;  5.9411756E-04;  9.9866394E+02;  1.2295177E-01; -1.1068822E+03;3; -7.0316541E-01;  0.0000000E+00; -4.0243012E-01;0; -2.2124123E-02;  2.6477352E+04;  0.0000000E+00;  2.7288735E-02;  4.0000000E+04;  0.0000000E+00;  3.9850098E+04; -5.4018274E-02;  0.0000000E+00;  3.1894151E-02;  1.0493489E+03;
  7.2963518E-01;  9.9999998E-03;  3.0110057E-02;6871; -1.9942913E-02;  0.0000000E+00;  8.9929363E-04;  9.9864081E+02;  1.2295502E-01; -1.1260421E+03;3; -7.0580721E-01;  0.0000000E+00; -6.1128592E-01;0; -2.1992259E-02;  2.6473973E+04;  0.0000000E+00;  6.2076438E-02;  4.0000000E+04;  0.0000000E+00;  3.9851055E+04; -5.3662486E-02;  0.0000000E+00;  3.1670228E-02;  9.4236469E+02;
  7.2965616E-01;  9.9999998E-03;  4.0140990E-02;6872; -1.9855382E-02;  0.0000000E+00;  1.2100913E-03;  9.9862177E+02;  1.2295775E-01; -1.1418441E+03;3; -7.0401716E-01;  0.0000000E+00; -8.1291050E-01;0; -2.1832090E-02;  2.6470555E+04;  0.0000000E+00;  1.1153239E-01;  4.0000000E+04;  0.0000000E+00;  3.9851969E+04; -5.3166080E-02;  0.0000000E+00;  3.1333990E-02;  8.3684912E+02;
  7.2967488E-01;  9.9999998E-03;  5.0170094E-02;6873; -1.9745108E-02;  0.0000000E+00;  1.5255713E-03;  9.9861469E+02;  1.2296021E-01; -1.1477206E+03;3; -7.0325190E-01;  0.0000000E+00; -1.0207138E+00;0; -2.1664387E-02;  2.6467881E+04;  0.0000000E+00;  1.7534488E-01;  4.0000000E+04;  0.0000000E+00;  3.9853133E+04; -5.2531876E-02;  0.0000000E+00;  3.0867489E-02;  7.7417950E+02;
  7.2968823E-01;  9.9999998E-03;  6.0199562E-02;6874; -1.9613028E-02;  0.0000000E+00;  1.8437026E-03;  9.9863208E+02;  1.2296261E-01; -1.1333011E+03;3; -7.0394093E-01;  0.0000000E+00; -1.2289522E+00;0; -2.1510655E-02;  2.6466357E+04;  0.0000000E+00;  2.5183314E-01;  4.0000000E+04;  0.0000000E+00;  3.9853832E+04; -5.1764261E-02;  0.0000000E+00;  3.0253606E-02;  7.8997083E+02;
  7.4167007E-01;  9.9999998E-03; -1.0032022E-01;6919; -1.9569691E-02;  0.0000000E+00; -3.1485991E-03;  9.9911627E+02;  1.2681669E-01; -7.3212738E+02;3; -5.1191783E-01;  0.0000000E+00;  2.0941827E+00;0; -2.1193849E-02;  2.4925250E+04;  0.0000000E+00;  6.5037209E-01;  4.0000000E+04;  0.0000000E+00;  3.9833453E+04; -4.8015080E-02;  0.0000000E+00;  2.6821231E-02;  1.6238137E+03;
  7.4173284E-01;  9.9999998E-03; -9.0286538E-02;6920; -1.9759566E-02;  0.0000000E+00; -2.8532427E-03;  9.9901556E+02;  1.2681960E-01; -8.1558179E+02;3; -5.1345235E-01;  0.0000000E+00;  1.9118234E+00;0; -2.1158218E-02;  2.4917809E+04;  0.0000000E+00;  5.8070195E-01;  4.0000000E+04;  0.0000000E+00;  3.9833812E+04; -4.9275976E-02;  0.0000000E+00;  2.8117757E-02;  1.4697936E+03;
  7.4177969E-01;  9.9999998E-03; -8.0251910E-02;6921; -1.9946091E-02;  0.0000000E+00; -2.5394410E-03;  9.9894623E+02;  1.2682231E-01; -8.7301227E+02;3; -5.1017052E-01;  0.0000000E+00;  1.7167580E+00;0; -2.1192081E-02;  2.4912277E+04;  0.0000000E+00;  4.8952734E-01;  4.0000000E+04;  0.0000000E+00;  3.9834051E+04; -5.0439443E-02;  0.0000000E+00;  2.9247362E-02;  1.2697809E+03;
  7.4181169E-01;  9.9999998E-03; -7.0216909E-02;6922; -2.0123161E-02;  0.0000000E+00; -2.2149880E-03;  9.9891162E+02;  1.2682430E-01; -9.0170282E+02;3; -5.0400454E-01;  0.0000000E+00;  1.5156510E+00;0; -2.1290263E-02;  2.4908906E+04;  0.0000000E+00;  3.8852406E-01;  4.0000000E+04;  0.0000000E+00;  3.9833738E+04; -5.1492088E-02;  0.0000000E+00;  3.0201824E-02;  1.0627555E+03;
  7.4183333E-01;  9.9999998E-03; -6.0183764E-02;6923; -2.0285442E-02;  0.0000000E+00; -1.8866778E-03;  9.9890881E+02;  1.2682810E-01; -9.0402374E+02;3; -4.9836090E-01;  0.0000000E+00;  1.3154016E+00;0; -2.1440662E-02;  2.4907299E+04;  0.0000000E+00;  2.8908491E-01;  4.0000000E+04;  0.0000000E+00;  3.9833176E+04; -5.2422252E-02;  0.0000000E+00;  3.0981589E-02;  8.9536243E+02;
  7.4184299E-01;  9.9999998E-03; -5.0152473E-02;6924; -2.0427596E-02;  0.0000000E+00; -1.5597313E-03;  9.9893616E+02;  1.2683144E-01; -8.8135773E+02;3; -4.9166521E-01;  0.0000000E+00;  1.1024561E+00;0; -2.1625493E-02;  2.4907559E+04;  0.0000000E+00;  1.9986938E-01;  4.0000000E+04;  0.0000000E+00;  3.9832359E+04; -5.3220581E-02;  0.0000000E+00;  3.1595089E-02;  8.1122577E+02;
  7.4184394E-01;  9.9999998E-03; -4.0122900E-02;6925; -2.0546358E-02;  0.0000000E+00; -1.2358089E-03;  9.9897754E+02;  1.2683319E-01; -8.4708710E+02;3; -4.8956597E-01;  0.0000000E+00;  8.8455850E-01;0; -2.1822698E-02;  2.4908988E+04;  0.0000000E+00;  1.2601246E-01;  4.0000000E+04;  0.0000000E+00;  3.9831516E+04; -5.3880345E-02;  0.0000000E+00;  3.2057647E-02;  8.2246906E+02;
  7.4183989E-01;  9.9999998E-03; -3.0094871E-02;6926; -2.0639157E-02;  0.0000000E+00; -9.1757980E-04;  9.9902460E+02;  1.2683560E-01; -8.0812524E+02;3; -4.8762992E-01;  0.0000000E+00;  6.5863353E-01;0; -2.2008315E-02;  2.4911096E+04;  0.0000000E+00;  6.9533639E-02;  4.0000000E+04;  0.0000000E+00;  3.9830688E+04; -5.4396834E-02;  0.0000000E+00;  3.2388519E-02;  8.9543280E+02;
  7.4183512E-01;  9.9999998E-03; -2.0066746E-02;6927; -2.0704884E-02;  0.0000000E+00; -6.0692622E-04;  9.9906299E+02;  1.2683600E-01; -7.7627429E+02;3; -4.8512188E-01;  0.0000000E+00;  4.3575189E-01;0; -2.2159714E-02;  2.4912928E+04;  0.0000000E+00;  3.0358609E-02;  4.0000000E+04;  0.0000000E+00;  3.9829801E+04; -5.4767255E-02;  0.0000000E+00;  3.2607540E-02;  9.8225037E+02;
  7.4183148E-01;  9.9999998E-03; -1.0035564E-02;6928; -2.0744475E-02;  0.0000000E+00; -3.0193143E-04;  9.9909521E+02;  1.2683789E-01; -7.4960840E+02;3; -4.8256257E-01;  0.0000000E+00;  2.2214141E-01;0; -2.2258740E-02;  2.4914258E+04;  0.0000000E+00;  7.4985884E-03;  4.0000000E+04;  0.0000000E+00;  3.9829234E+04; -5.4990221E-02;  0.0000000E+00;  3.2731481E-02;  1.0477594E+03;
  7.4183005E-01;  9.9999998E-03;  1.5672425E-08;6929; -2.0757698E-02;  0.0000000E+00;  8.0444956E-08;  9.9910394E+02;  1.2683794E-01; -7.4234930E+02;3; -4.8388296E-01;  0.0000000E+00; -6.6411772E-06;0; -2.2293076E-02;  2.4914842E+04;  0.0000000E+00;  4.6746038E-11;  4.0000000E+04;  0.0000000E+00;  3.9829043E+04; -5.5064563E-02;  0.0000000E+00;  3.2771487E-02;  1.0717793E+03;
  7.4183148E-01;  9.9999998E-03;  1.0035596E-02;6930; -2.0744478E-02;  0.0000000E+00;  3.0209243E-04;  9.9909521E+02;  1.2683730E-01; -7.4960840E+02;3; -4.8253796E-01;  0.0000000E+00; -2.2216377E-01;0; -2.2258647E-02;  2.4914256E+04;  0.0000000E+00;  7.4973446E-03;  4.0000000E+04;  0.0000000E+00;  3.9829234E+04; -5.4990139E-02;  0.0000000E+00;  3.2731492E-02;  1.0477502E+03;
  7.4183512E-01;  9.9999998E-03;  2.0066777E-02;6931; -2.0704893E-02;  0.0000000E+00;  6.0708745E-04;  9.9906293E+02;  1.2683608E-01; -7.7632367E+02;3; -4.8508129E-01;  0.0000000E+00; -4.3575802E-01;0; -2.2159737E-02;  2.4912930E+04;  0.0000000E+00;  3.0355934E-02;  4.0000000E+04;  0.0000000E+00;  3.9829797E+04; -5.4767255E-02;  0.0000000E+00;  3.2607518E-02;  9.8223724E+02;
  7.4183989E-01;  9.9999998E-03;  3.0094903E-02;6932; -2.0639172E-02;  0.0000000E+00;  9.1774354E-04;  9.9902460E+02;  1.2683499E-01; -8.0812524E+02;3; -4.8762283E-01;  0.0000000E+00; -6.5863043E-01;0; -2.2008304E-02;  2.4911098E+04;  0.0000000E+00;  6.9530122E-02;  4.0000000E+04;  0.0000000E+00;  3.9830684E+04; -5.4396827E-02;  0.0000000E+00;  3.2388523E-02;  8.9544464E+02;
  7.4184388E-01;  9.9999998E-03;  4.0122934E-02;6933; -2.0546377E-02;  0.0000000E+00;  1.2359734E-03;  9.9897748E+02;  1.2683287E-01; -8.4713647E+02;3; -4.8960027E-01;  0.0000000E+00; -8.8455766E-01;0; -2.1822754E-02;  2.4908994E+04;  0.0000000E+00;  1.2600882E-01;  4.0000000E+04;  0.0000000E+00;  3.9831508E+04; -5.3880416E-02;  0.0000000E+00;  3.2057662E-02;  8.2247095E+02;
  7.4184299E-01;  9.9999998E-03;  5.0152507E-02;6934; -2.0427616E-02;  0.0000000E+00;  1.5598976E-03;  9.9893622E+02;  1.2683111E-01; -8.8130835E+02;3; -4.9164149E-01;  0.0000000E+00; -1.1024643E+00;0; -2.1625601E-02;  2.4907561E+04;  0.0000000E+00;  1.9986132E-01;  4.0000000E+04;  0.0000000E+00;  3.9832363E+04; -5.3220671E-02;  0.0000000E+00;  3.1595070E-02;  8.1120709E+02;
  7.4183327E-01;  9.9999998E-03;  6.0183797E-02;6935; -2.0285469E-02;  0.0000000E+00;  1.8868482E-03;  9.9890881E+02;  1.2682773E-01; -9.0402374E+02;3; -4.9834651E-01;  0.0000000E+00; -1.3153888E+00;0; -2.1440702E-02;  2.4907303E+04;  0.0000000E+00;  2.8907812E-01;  4.0000000E+04;  0.0000000E+00;  3.9833176E+04; -5.2422263E-02;  0.0000000E+00;  3.0981561E-02;  8.9536426E+02;
  7.5456959E-01;  9.9999998E-03; -1.0035012E-01;6980; -2.0210618E-02;  0.0000000E+00; -3.2739984E-03;  9.9911298E+02;  1.3108593E-01; -7.3489276E+02;3; -3.0154109E-01;  0.0000000E+00;  2.2659652E+00;0; -2.0892538E-02;  2.3345150E+04;  0.0000000E+00;  5.5619109E-01;  4.0000000E+04;  0.0000000E+00;  3.9810992E+04; -4.8410419E-02;  0.0000000E+00;  2.7517881E-02;  1.5926321E+03;
  7.5466174E-01;  9.9999998E-03; -9.0310894E-02;6981; -2.0421021E-02;  0.0000000E+00; -2.9654177E-03;  9.9910382E+02;  1.3109300E-01; -7.4244806E+02;3; -2.9472360E-01;  0.0000000E+00;  2.0629809E+00;0; -2.0884452E-02;  2.3338971E+04;  0.0000000E+00;  5.0880754E-01;  4.0000000E+04;  0.0000000E+00;  3.9811594E+04; -4.9739171E-02;  0.0000000E+00;  2.8854718E-02;  1.4650229E+03;
  7.5472271E-01;  9.9999998E-03; -8.0270216E-02;6982; -2.0625854E-02;  0.0000000E+00; -2.6354790E-03;  9.9911517E+02;  1.3109750E-01; -7.3306561E+02;3; -2.8679293E-01;  0.0000000E+00;  1.8535192E+00;0; -2.0948837E-02;  2.3335182E+04;  0.0000000E+00;  4.3353462E-01;  4.0000000E+04;  0.0000000E+00;  3.9811719E+04; -5.0963812E-02;  0.0000000E+00;  3.0014975E-02;  1.2724968E+03;
  7.5474662E-01;  9.9999998E-03; -7.0231937E-02;6983; -2.0818073E-02;  0.0000000E+00; -2.2936512E-03;  9.9914301E+02;  1.3109714E-01; -7.1000458E+02;3; -2.7434462E-01;  0.0000000E+00;  1.6337785E+00;0; -2.1080252E-02;  2.3334588E+04;  0.0000000E+00;  3.4428626E-01;  4.0000000E+04;  0.0000000E+00;  3.9811566E+04; -5.2069947E-02;  0.0000000E+00;  3.0989695E-02;  1.0587853E+03;
  7.5473809E-01;  9.9999998E-03; -6.0198020E-02;6984; -2.0990813E-02;  0.0000000E+00; -1.9498996E-03;  9.9919385E+02;  1.3109307E-01; -6.6788232E+02;3; -2.6309147E-01;  0.0000000E+00;  1.4148949E+00;0; -2.1265555E-02;  2.3336826E+04;  0.0000000E+00;  2.5452307E-01;  4.0000000E+04;  0.0000000E+00;  3.9810910E+04; -5.3045914E-02;  0.0000000E+00;  3.1780358E-02;  8.7639417E+02;
  7.5470942E-01;  9.9999998E-03; -5.0165821E-02;6985; -2.1140009E-02;  0.0000000E+00; -1.6104990E-03;  9.9925763E+02;  1.3108607E-01; -6.1504431E+02;3; -2.5386363E-01;  0.0000000E+00;  1.1902905E+00;0; -2.1484688E-02;  2.3340932E+04;  0.0000000E+00;  1.7406532E-01;  4.0000000E+04;  0.0000000E+00;  3.9810582E+04; -5.3883217E-02;  0.0000000E+00;  3.2398529E-02;  7.7302362E+02;
  7.5467283E-01;  9.9999998E-03; -4.0133439E-02;6986; -2.1263177E-02;  0.0000000E+00; -1.2770775E-03;  9.9932715E+02;  1.3107908E-01; -5.5746570E+02;3; -2.4406229E-01;  0.0000000E+00;  9.5171112E-01;0; -2.1713264E-02;  2.3346068E+04;  0.0000000E+00;  1.0831475E-01;  4.0000000E+04;  0.0000000E+00;  3.9809660E+04; -5.4575365E-02;  0.0000000E+00;  3.2862101E-02;  7.6238434E+02;
  7.5463587E-01;  9.9999998E-03; -3.0102294E-02;6987; -2.1358198E-02;  0.0000000E+00; -9.4912481E-04;  9.9938928E+02;  1.3107242E-01; -5.0596097E+02;3; -2.4364960E-01;  0.0000000E+00;  7.1021426E-01;0; -2.1925215E-02;  2.3350900E+04;  0.0000000E+00;  5.9006687E-02;  4.0000000E+04;  0.0000000E+00;  3.9808852E+04; -5.5117350E-02;  0.0000000E+00;  3.3192135E-02;  8.1120404E+02;
  7.5460470E-01;  9.9999998E-03; -2.0072278E-02;6988; -2.1424886E-02;  0.0000000E+00; -6.2792574E-04;  9.9944690E+02;  1.3106747E-01; -4.5820923E+02;3; -2.3963737E-01;  0.0000000E+00;  4.6980271E-01;0; -2.2096641E-02;  2.3354979E+04;  0.0000000E+00;  2.5501842E-02;  4.0000000E+04;  0.0000000E+00;  3.9808293E+04; -5.5506364E-02;  0.0000000E+00;  3.3409722E-02;  8.7441949E+02;
  7.5458211E-01;  9.9999998E-03; -1.0039157E-02;6989; -2.1464422E-02;  0.0000000E+00; -3.1235933E-04;  9.9948297E+02;  1.3106379E-01; -4.2833353E+02;3; -2.3554131E-01;  0.0000000E+00;  2.3894128E-01;0; -2.2207946E-02;  2.3357715E+04;  0.0000000E+00;  6.2617627E-03;  4.0000000E+04;  0.0000000E+00;  3.9808191E+04; -5.5740356E-02;  0.0000000E+00;  3.3532411E-02;  9.2220282E+02;
  7.5457340E-01;  9.9999998E-03;  1.6152910E-08;6990; -2.1477532E-02;  0.0000000E+00;  8.4573401E-08;  9.9949738E+02;  1.3106270E-01; -4.1643265E+02;3; -2.3605040E-01;  0.0000000E+00; -1.0370391E-05;0; -2.2246439E-02;  2.3358686E+04;  0.0000000E+00;  1.2318334E-10;  4.0000000E+04;  0.0000000E+00;  3.9807844E+04; -5.5818427E-02;  0.0000000E+00;  3.3571988E-02;  9.3962018E+02;
  7.5458211E-01;  9.9999998E-03;  1.0039190E-02;6991; -2.1464428E-02;  0.0000000E+00;  3.1252834E-04;  9.9948297E+02;  1.3106379E-01; -4.2833353E+02;3; -2.3554204E-01;  0.0000000E+00; -2.3896529E-01;0; -2.2207949E-02;  2.3357713E+04;  0.0000000E+00;  6.2598344E-03;  4.0000000E+04;  0.0000000E+00;  3.9808195E+04; -5.5740368E-02;  0.0000000E+00;  3.3532418E-02;  9.2218280E+02;
  7.5460470E-01;  9.9999998E-03;  2.0072311E-02;6992; -2.1424897E-02;  0.0000000E+00;  6.2809768E-04;  9.9944690E+02;  1.3106745E-01; -4.5820923E+02;3; -2.3966978E-01;  0.0000000E+00; -4.6981218E-01;0; -2.2096608E-02;  2.3354982E+04;  0.0000000E+00;  2.5498625E-02;  4.0000000E+04;  0.0000000E+00;  3.9808297E+04; -5.5506315E-02;  0.0000000E+00;  3.3409707E-02;  8.7445691E+02;
  7.5463587E-01;  9.9999998E-03;  3.0102326E-02;6993; -2.1358212E-02;  0.0000000E+00;  9.4929739E-04;  9.9938910E+02;  1.3107251E-01; -5.0610910E+02;3; -2.4365206E-01;  0.0000000E+00; -7.1021783E-01;0; -2.1925278E-02;  2.3350904E+04;  0.0000000E+00;  5.9001695E-02;  4.0000000E+04;  0.0000000E+00;  3.9808852E+04; -5.5117365E-02;  0.0000000E+00;  3.3192087E-02;  8.1121558E+02;
  7.5467283E-01;  9.9999998E-03;  4.0133473E-02;6994; -2.1263195E-02;  0.0000000E+00;  1.2772497E-03;  9.9932721E+02;  1.3107881E-01; -5.5741632E+02;3; -2.4407414E-01;  0.0000000E+00; -9.5170331E-01;0; -2.1713231E-02;  2.3346064E+04;  0.0000000E+00;  1.0830937E-01;  4.0000000E+04;  0.0000000E+00;  3.9809668E+04; -5.4575320E-02;  0.0000000E+00;  3.2862090E-02;  7.6238586E+02;
  7.5470942E-01;  9.9999998E-03;  5.0165854E-02;6995; -2.1140032E-02;  0.0000000E+00;  1.6106723E-03;  9.9925769E+02;  1.3108566E-01; -6.1499493E+02;3; -2.5381446E-01;  0.0000000E+00; -1.1902747E+00;0; -2.1484729E-02;  2.3340930E+04;  0.0000000E+00;  1.7405920E-01;  4.0000000E+04;  0.0000000E+00;  3.9810578E+04; -5.3883240E-02;  0.0000000E+00;  3.2398511E-02;  7.7301324E+02;
  7.5473809E-01;  9.9999998E-03;  6.0198054E-02;6996; -2.0990839E-02;  0.0000000E+00;  1.9500748E-03;  9.9919391E+02;  1.3109291E-01; -6.6783289E+02;3; -2.6308283E-01;  0.0000000E+00; -1.4148964E+00;0; -2.1265633E-02;  2.3336826E+04;  0.0000000E+00;  2.5451389E-01;  4.0000000E+04;  0.0000000E+00;  3.9810914E+04; -5.3045955E-02;  0.0000000E+00;  3.1780321E-02;  8.7638519E+02;
  7.6844341E-01;  9.9999998E-03; -1.0017943E-01;7041; -2.0889850E-02;  0.0000000E+00; -3.4050413E-03;  9.9930182E+02;  1.3590510E-01; -5.7845276E+02;3; -6.2790476E-02;  0.0000000E+00;  2.4463336E+00;0; -2.0456098E-02;  2.1740930E+04;  0.0000000E+00;  2.9241696E-01;  4.0000000E+04;  0.0000000E+00;  3.9786984E+04; -4.8763167E-02;  0.0000000E+00;  2.8307069E-02;  1.1157507E+03;
  7.6862383E-01;  9.9999998E-03; -9.0146087E-02;7042; -2.1124935E-02;  0.0000000E+00; -3.0820281E-03;  9.9938367E+02;  1.3593638E-01; -5.1060281E+02;3; -4.4879317E-02;  0.0000000E+00;  2.2271359E+00;0; -2.0496113E-02;  2.1729883E+04;  0.0000000E+00;  2.7965114E-01;  4.0000000E+04;  0.0000000E+00;  3.9787469E+04; -5.0182316E-02;  0.0000000E+00;  2.9686203E-02;  1.0434884E+03;
  7.6876009E-01;  9.9999998E-03; -8.0116101E-02;7043; -2.1351995E-02;  0.0000000E+00; -2.7363065E-03;  9.9947406E+02;  1.3596077E-01; -4.3574072E+02;3; -2.7421014E-02;  0.0000000E+00;  1.9990915E+00;0; -2.0610286E-02;  2.1722008E+04;  0.0000000E+00;  2.4120539E-01;  4.0000000E+04;  0.0000000E+00;  3.9787625E+04; -5.1489919E-02;  0.0000000E+00;  3.0879634E-02;  9.1970593E+02;
  7.6885432E-01;  9.9999998E-03; -7.0090748E-02;7044; -2.1562824E-02;  0.0000000E+00; -2.3795306E-03;  9.9956677E+02;  1.3597663E-01; -3.5890341E+02;3; -6.4165583E-03;  0.0000000E+00;  1.7608526E+00;0; -2.0792119E-02;  2.1717191E+04;  0.0000000E+00;  1.8958418E-01;  4.0000000E+04;  0.0000000E+00;  3.9787234E+04; -5.2671753E-02;  0.0000000E+00;  3.1879634E-02;  7.8338330E+02;
  7.6891255E-01;  9.9999998E-03; -6.0070083E-02;7045; -2.1751165E-02;  0.0000000E+00; -2.0225067E-03;  9.9967004E+02;  1.3598759E-01; -2.7337497E+02;3;  1.1001674E-02;  0.0000000E+00;  1.5279430E+00;0; -2.1026473E-02;  2.1715066E+04;  0.0000000E+00;  1.3643023E-01;  4.0000000E+04;  0.0000000E+00;  3.9786457E+04; -5.3715877E-02;  0.0000000E+00;  3.2689404E-02;  6.8690125E+02;
  7.6894027E-01;  9.9999998E-03; -5.0052885E-02;7046; -2.1912262E-02;  0.0000000E+00; -1.6699514E-03;  9.9977075E+02;  1.3599280E-01; -1.8992055E+02;3;  3.0236762E-02;  0.0000000E+00;  1.2841722E+00;0; -2.1291126E-02;  2.1715102E+04;  0.0000000E+00;  8.9769885E-02;  4.0000000E+04;  0.0000000E+00;  3.9785715E+04; -5.4612663E-02;  0.0000000E+00;  3.3321537E-02;  6.6496210E+02;
  7.6894146E-01;  9.9999998E-03; -4.0036552E-02;7047; -2.2042897E-02;  0.0000000E+00; -1.3268192E-03;  9.9986328E+02;  1.3599266E-01; -1.1328074E+02;3;  4.3634109E-02;  0.0000000E+00;  1.0398352E+00;0; -2.1559559E-02;  2.1717020E+04;  0.0000000E+00;  5.3361934E-02;  4.0000000E+04;  0.0000000E+00;  3.9784801E+04; -5.5354692E-02;  0.0000000E+00;  3.3795133E-02;  7.0089282E+02;
  7.6892734E-01;  9.9999998E-03; -3.0022774E-02;7048; -2.2143124E-02;  0.0000000E+00; -9.9138648E-04;  9.9994958E+02;  1.3599016E-01; -4.1776592E+01;3;  5.3602260E-02;  0.0000000E+00;  7.8943962E-01;0; -2.1803826E-02;  2.1719785E+04;  0.0000000E+00;  2.7720453E-02;  4.0000000E+04;  0.0000000E+00;  3.9784223E+04; -5.5936284E-02;  0.0000000E+00;  3.4132458E-02;  7.5345319E+02;
  7.6891452E-01;  9.9999998E-03; -2.0014100E-02;7049; -2.2213502E-02;  0.0000000E+00; -6.6038832E-04;  1.0000112E+03;  1.3598827E-01;  9.2836876E+00;3;  6.1323587E-02;  0.0000000E+00;  5.2549833E-01;0; -2.1998454E-02;  2.1722121E+04;  0.0000000E+00;  1.1487505E-02;  4.0000000E+04;  0.0000000E+00;  3.9783910E+04; -5.6353994E-02;  0.0000000E+00;  3.4355540E-02;  7.9709631E+02;
  7.6890707E-01;  9.9999998E-03; -1.0007757E-02;7050; -2.2255663E-02;  0.0000000E+00; -3.3141978E-04;  1.0000540E+03;  1.3598725E-01;  4.4739471E+01;3;  6.0629997E-02;  0.0000000E+00;  2.5750616E-01;0; -2.2123579E-02;  2.1723510E+04;  0.0000000E+00;  2.7408998E-03;  4.0000000E+04;  0.0000000E+00;  3.9783688E+04; -5.6605592E-02;  0.0000000E+00;  3.4482013E-02;  8.2354480E+02;
  7.6890558E-01;  9.9999998E-03;  1.6689977E-08;7051; -2.2269521E-02;  0.0000000E+00;  8.9885560E-08;  1.0000711E+03;  1.3598800E-01;  5.8862530E+01;3;  5.7339534E-02;  0.0000000E+00; -1.5905474E-05;0; -2.2166859E-02;  2.1723885E+04;  0.0000000E+00;  1.9991588E-10;  4.0000000E+04;  0.0000000E+00;  3.9783641E+04; -5.6689825E-02;  0.0000000E+00;  3.4522966E-02;  8.3230792E+02;
  7.6890707E-01;  9.9999998E-03;  1.0007790E-02;7052; -2.2255672E-02;  0.0000000E+00;  3.3159947E-04;  1.0000541E+03;  1.3598734E-01;  4.4838234E+01;3;  6.0610682E-02;  0.0000000E+00; -2.5753188E-01;0; -2.2123612E-02;  2.1723512E+04;  0.0000000E+00;  2.7394718E-03;  4.0000000E+04;  0.0000000E+00;  3.9783688E+04; -5.6605637E-02;  0.0000000E+00;  3.4482025E-02;  8.2355566E+02;
  7.6891452E-01;  9.9999998E-03;  2.0014133E-02;7053; -2.2213515E-02;  0.0000000E+00;  6.6056877E-04;  1.0000112E+03;  1.3598850E-01;  9.2836876E+00;3;  6.1309073E-02;  0.0000000E+00; -5.2551407E-01;0; -2.1998458E-02;  2.1722115E+04;  0.0000000E+00;  1.1484661E-02;  4.0000000E+04;  0.0000000E+00;  3.9783910E+04; -5.6353997E-02;  0.0000000E+00;  3.4355540E-02;  7.9708759E+02;
  7.6892734E-01;  9.9999998E-03;  3.0022807E-02;7054; -2.2143140E-02;  0.0000000E+00;  9.9156576E-04;  9.9994958E+02;  1.3599016E-01; -4.1776592E+01;3;  5.3623706E-02;  0.0000000E+00; -7.8944385E-01;0; -2.1803781E-02;  2.1719779E+04;  0.0000000E+00;  2.7716344E-02;  4.0000000E+04;  0.0000000E+00;  3.9784223E+04; -5.5936232E-02;  0.0000000E+00;  3.4132451E-02;  7.5345929E+02;
  7.6894146E-01;  9.9999998E-03;  4.0036585E-02;7055; -2.2042917E-02;  0.0000000E+00;  1.3270004E-03;  9.9986334E+02;  1.3599266E-01; -1.1323135E+02;3;  4.3672070E-02;  0.0000000E+00; -1.0398357E+00;0; -2.1559622E-02;  2.1717020E+04;  0.0000000E+00;  5.3359054E-02;  4.0000000E+04;  0.0000000E+00;  3.9784801E+04; -5.5354729E-02;  0.0000000E+00;  3.3795107E-02;  7.0090350E+02;
  7.6894033E-01;  9.9999998E-03;  5.0052918E-02;7056; -2.1912284E-02;  0.0000000E+00;  1.6701329E-03;  9.9977063E+02;  1.3599271E-01; -1.9001930E+02;3;  3.0246859E-02;  0.0000000E+00; -1.2841618E+00;0; -2.1291226E-02;  2.1715092E+04;  0.0000000E+00;  8.9764304E-02;  4.0000000E+04;  0.0000000E+00;  3.9785719E+04; -5.4612733E-02;  0.0000000E+00;  3.3321507E-02;  6.6498499E+02;
  7.6891249E-01;  9.9999998E-03;  6.0070116E-02;7057; -2.1751193E-02;  0.0000000E+00;  2.0226901E-03;  9.9967023E+02;  1.3598765E-01; -2.7322681E+02;3;  1.0998585E-02;  0.0000000E+00; -1.5279142E+00;0; -2.1026522E-02;  2.1715066E+04;  0.0000000E+00;  1.3642585E-01;  4.0000000E+04;  0.0000000E+00;  3.9786453E+04; -5.3715881E-02;  0.0000000E+00;  3.2689359E-02;  6.8689117E+02;
  7.8262758E-01;  9.9999998E-03; -1.0008032E-01;7102; -2.1573894E-02;  0.0000000E+00; -3.5238203E-03;  9.9971368E+02;  1.4114845E-01; -2.3722784E+02;3;  2.0391887E-01;  0.0000000E+00;  2.6374943E+00;0; -1.9916704E-02;  2.0183068E+04;  0.0000000E+00; -6.4563543E-02;  4.0000000E+04;  0.0000000E+00;  3.9761582E+04; -4.9053404E-02;  0.0000000E+00;  2.9136701E-02;  4.4052625E+02;
  7.8258878E-01;  9.9999998E-03; -9.0062357E-02;7103; -2.1821722E-02;  0.0000000E+00; -3.1874625E-03;  9.9974225E+02;  1.4110669E-01; -2.1352481E+02;3;  2.2643992E-01;  0.0000000E+00;  2.3909280E+00;0; -2.0046234E-02;  2.0190215E+04;  0.0000000E+00; -3.3765096E-02;  4.0000000E+04;  0.0000000E+00;  3.9762344E+04; -5.0578214E-02;  0.0000000E+00;  3.0531980E-02;  3.8395078E+02;
  7.8253645E-01;  9.9999998E-03; -8.0059208E-02;7104; -2.2058895E-02;  0.0000000E+00; -2.8298488E-03;  9.9978424E+02;  1.4106953E-01; -1.7876036E+02;3;  2.5017503E-01;  0.0000000E+00;  2.1472058E+00;0; -2.0244576E-02;  2.0197658E+04;  0.0000000E+00; -2.0653399E-02;  4.0000000E+04;  0.0000000E+00;  3.9762602E+04; -5.1979430E-02;  0.0000000E+00;  3.1734854E-02;  3.9779153E+02;
  7.8255737E-01;  9.9999998E-03; -7.0063777E-02;7105; -2.2281436E-02;  0.0000000E+00; -2.4642674E-03;  9.9985120E+02;  1.4106458E-01; -1.2330515E+02;3;  2.7721024E-01;  0.0000000E+00;  1.8819151E+00;0; -2.0502303E-02;  2.0197697E+04;  0.0000000E+00; -1.9008923E-02;  4.0000000E+04;  0.0000000E+00;  3.9761594E+04; -5.3248230E-02;  0.0000000E+00;  3.2745928E-02;  4.7296130E+02;
  7.8257442E-01;  9.9999998E-03; -6.0067691E-02;7106; -2.2478761E-02;  0.0000000E+00; -2.0983426E-03;  9.9992780E+02;  1.4106417E-01; -5.9800774E+01;3;  2.9670766E-01;  0.0000000E+00;  1.6334102E+00;0; -2.0805683E-02;  2.0197322E+04;  0.0000000E+00; -2.0207655E-02;  4.0000000E+04;  0.0000000E+00;  3.9760512E+04; -5.4371554E-02;  0.0000000E+00;  3.3565871E-02;  5.9840051E+02;
  7.8257418E-01;  9.9999998E-03; -5.0064128E-02;7107; -2.2647174E-02;  0.0000000E+00; -1.7393319E-03;  1.0000070E+03;  1.4106148E-01;  5.8269954E+00;3;  3.2507354E-01;  0.0000000E+00;  1.3862514E+00;0; -2.1131143E-02;  2.0198236E+04;  0.0000000E+00; -1.9837856E-02;  4.0000000E+04;  0.0000000E+00;  3.9759238E+04; -5.5338651E-02;  0.0000000E+00;  3.4207508E-02;  7.2961194E+02;
  7.8256345E-01;  9.9999998E-03; -4.0053800E-02;7108; -2.2783574E-02;  0.0000000E+00; -1.3891447E-03;  1.0000813E+03;  1.4105643E-01;  6.7356117E+01;3;  3.4111124E-01;  0.0000000E+00;  1.1165380E+00;0; -2.1450493E-02;  2.0199791E+04;  0.0000000E+00; -1.6628440E-02;  4.0000000E+04;  0.0000000E+00;  3.9758527E+04; -5.6140900E-02;  0.0000000E+00;  3.4690406E-02;  8.2745667E+02;
  7.8255457E-01;  9.9999998E-03; -3.0037334E-02;7109; -2.2888621E-02;  0.0000000E+00; -1.0420936E-03;  1.0001475E+03;  1.4105359E-01;  1.2216937E+02;3;  3.5766643E-01;  0.0000000E+00;  8.4192801E-01;0; -2.1734871E-02;  2.0200980E+04;  0.0000000E+00; -1.1394194E-02;  4.0000000E+04;  0.0000000E+00;  3.9758137E+04; -5.6771856E-02;  0.0000000E+00;  3.5036985E-02;  8.7814801E+02;
  7.8255022E-01;  9.9999998E-03; -2.0020306E-02;7110; -2.2962136E-02;  0.0000000E+00; -6.9646933E-04;  1.0002015E+03;  1.4105447E-01;  1.6690884E+02;3;  3.6872777E-01;  0.0000000E+00;  5.5833393E-01;0; -2.1958273E-02;  2.0201730E+04;  0.0000000E+00; -5.7930872E-03;  4.0000000E+04;  0.0000000E+00;  3.9758125E+04; -5.7226069E-02;  0.0000000E+00;  3.5267796E-02;  8.9293726E+02;
  7.8254867E-01;  9.9999998E-03; -1.0008584E-02;7111; -2.3006277E-02;  0.0000000E+00; -3.5067336E-04;  1.0002394E+03;  1.4105345E-01;  1.9841412E+02;3;  3.7119257E-01;  0.0000000E+00;  2.8808090E-01;0; -2.2100553E-02;  2.0201979E+04;  0.0000000E+00; -1.5637223E-03;  4.0000000E+04;  0.0000000E+00;  3.9758094E+04; -5.7499807E-02;  0.0000000E+00;  3.5399254E-02;  8.9153058E+02;
  7.8254831E-01;  9.9999998E-03;  1.7078770E-08;7112; -2.3021318E-02;  0.0000000E+00;  9.4049220E-08;  1.0002547E+03;  1.4105380E-01;  2.1105574E+02;3;  3.6891794E-01;  0.0000000E+00; -1.5932997E-05;0; -2.2149306E-02;  2.0202123E+04;  0.0000000E+00;  2.4426600E-10;  4.0000000E+04;  0.0000000E+00;  3.9758059E+04; -5.7591170E-02;  0.0000000E+00;  3.5441864E-02;  8.8918298E+02;
  7.8254867E-01;  9.9999998E-03;  1.0008618E-02;7113; -2.3006283E-02;  0.0000000E+00;  3.5086050E-04;  1.0002394E+03;  1.4105396E-01;  1.9841412E+02;3;  3.7119094E-01;  0.0000000E+00; -2.8811058E-01;0; -2.2100613E-02;  2.0201994E+04;  0.0000000E+00; -1.5642153E-03;  4.0000000E+04;  0.0000000E+00;  3.9758094E+04; -5.7499822E-02;  0.0000000E+00;  3.5399210E-02;  8.9154431E+02;
  7.8255022E-01;  9.9999998E-03;  2.0020340E-02;7114; -2.2962151E-02;  0.0000000E+00;  6.9665851E-04;  1.0002014E+03;  1.4105430E-01;  1.6690884E+02;3;  3.6872169E-01;  0.0000000E+00; -5.5834794E-01;0; -2.1958292E-02;  2.0201727E+04;  0.0000000E+00; -5.7939827E-03;  4.0000000E+04;  0.0000000E+00;  3.9758121E+04; -5.7226077E-02;  0.0000000E+00;  3.5267785E-02;  8.9294958E+02;
  7.8255457E-01;  9.9999998E-03;  3.0037368E-02;7115; -2.2888638E-02;  0.0000000E+00;  1.0422834E-03;  1.0001473E+03;  1.4105347E-01;  1.2207061E+02;3;  3.5766453E-01;  0.0000000E+00; -8.4193408E-01;0; -2.1734897E-02;  2.0200980E+04;  0.0000000E+00; -1.1395813E-02;  4.0000000E+04;  0.0000000E+00;  3.9758141E+04; -5.6771852E-02;  0.0000000E+00;  3.5036955E-02;  8.7812854E+02;
  7.8256345E-01;  9.9999998E-03;  4.0053833E-02;7116; -2.2783598E-02;  0.0000000E+00;  1.3893336E-03;  1.0000812E+03;  1.4105670E-01;  6.7257355E+01;3;  3.4110045E-01;  0.0000000E+00; -1.1165363E+00;0; -2.1450561E-02;  2.0199795E+04;  0.0000000E+00; -1.6630590E-02;  4.0000000E+04;  0.0000000E+00;  3.9758527E+04; -5.6140959E-02;  0.0000000E+00;  3.4690399E-02;  8.2747156E+02;
  7.8257418E-01;  9.9999998E-03;  5.0064161E-02;7117; -2.2647200E-02;  0.0000000E+00;  1.7395219E-03;  1.0000069E+03;  1.4106137E-01;  5.7282324E+00;3;  3.2507312E-01;  0.0000000E+00; -1.3862395E+00;0; -2.1131150E-02;  2.0198234E+04;  0.0000000E+00; -1.9840904E-02;  4.0000000E+04;  0.0000000E+00;  3.9759242E+04; -5.5338662E-02;  0.0000000E+00;  3.4207512E-02;  7.2961621E+02;
  7.8257442E-01;  9.9999998E-03;  6.0067724E-02;7118; -2.2478791E-02;  0.0000000E+00;  2.0985322E-03;  9.9992798E+02;  1.4106429E-01; -5.9652630E+01;3;  2.9669613E-01;  0.0000000E+00; -1.6333938E+00;0; -2.0805772E-02;  2.0197322E+04;  0.0000000E+00; -2.0209294E-02;  4.0000000E+04;  0.0000000E+00;  3.9760516E+04; -5.4371573E-02;  0.0000000E+00;  3.3565801E-02;  5.9837970E+02;
  7.9683822E-01;  9.9999998E-03; -1.0015959E-01;7163; -2.2255335E-02;  0.0000000E+00; -3.6192364E-03;  9.9977283E+02;  1.4676504E-01; -1.8819220E+02;3;  4.9129280E-01;  0.0000000E+00;  2.8150127E+00;0; -1.9299058E-02;  1.8680641E+04;  0.0000000E+00; -4.1253796E-01;  4.0000000E+04;  0.0000000E+00;  3.9734578E+04; -4.9300931E-02;  0.0000000E+00;  3.0001873E-02;  1.0352328E+03;
  7.9681933E-01;  9.9999998E-03; -9.0151362E-02;7164; -2.2529494E-02;  0.0000000E+00; -3.2754133E-03;  9.9973846E+02;  1.4673175E-01; -2.1668521E+02;3;  5.2607358E-01;  0.0000000E+00;  2.5591118E+00;0; -1.9547865E-02;  1.8683357E+04;  0.0000000E+00; -3.5085213E-01;  4.0000000E+04;  0.0000000E+00;  3.9734762E+04; -5.0961491E-02;  0.0000000E+00;  3.1413626E-02;  8.7892932E+02;
  7.9679215E-01;  9.9999998E-03; -8.0157496E-02;7165; -2.2789808E-02;  0.0000000E+00; -2.9122636E-03;  9.9971655E+02;  1.4669739E-01; -2.3480815E+02;3;  5.5747819E-01;  0.0000000E+00;  2.3000684E+00;0; -1.9860800E-02;  1.8686730E+04;  0.0000000E+00; -2.9272708E-01;  4.0000000E+04;  0.0000000E+00;  3.9733980E+04; -5.2488897E-02;  0.0000000E+00;  3.2628097E-02;  8.1565918E+02;
  7.9676402E-01;  9.9999998E-03; -7.0164666E-02;7166; -2.3027625E-02;  0.0000000E+00; -2.5451656E-03;  9.9970618E+02;  1.4666595E-01; -2.4344989E+02;3;  5.9555942E-01;  0.0000000E+00;  2.0256991E+00;0; -2.0227022E-02;  1.8690207E+04;  0.0000000E+00; -2.3722112E-01;  4.0000000E+04;  0.0000000E+00;  3.9732797E+04; -5.3870562E-02;  0.0000000E+00;  3.3643540E-02;  8.5892316E+02;
  7.9672223E-01;  9.9999998E-03; -6.0160082E-02;7167; -2.3237620E-02;  0.0000000E+00; -2.1768082E-03;  9.9970245E+02;  1.4663500E-01; -2.4651154E+02;3;  6.1985600E-01;  0.0000000E+00;  1.7419333E+00;0; -2.0628005E-02;  1.8694723E+04;  0.0000000E+00; -1.8376695E-01;  4.0000000E+04;  0.0000000E+00;  3.9731211E+04; -5.5094164E-02;  0.0000000E+00;  3.4466159E-02;  9.7160944E+02;
  7.9663950E-01;  9.9999998E-03; -5.0134625E-02;7168; -2.3413809E-02;  0.0000000E+00; -1.8105125E-03;  9.9970258E+02;  1.4659625E-01; -2.4641277E+02;3;  6.4317107E-01;  0.0000000E+00;  1.4695868E+00;0; -2.1037918E-02;  1.8701199E+04;  0.0000000E+00; -1.3347366E-01;  4.0000000E+04;  0.0000000E+00;  3.9729984E+04; -5.6146711E-02;  0.0000000E+00;  3.5108794E-02;  1.0755261E+03;
  7.9655194E-01;  9.9999998E-03; -4.0094413E-02;7169; -2.3556555E-02;  0.0000000E+00; -1.4494746E-03;  9.9971106E+02;  1.4656064E-01; -2.3940062E+02;3;  6.7477912E-01;  0.0000000E+00;  1.2048085E+00;0; -2.1426190E-02;  1.8707863E+04;  0.0000000E+00; -8.8463411E-02;  4.0000000E+04;  0.0000000E+00;  3.9729660E+04; -5.7019070E-02;  0.0000000E+00;  3.5592880E-02;  1.1217109E+03;
  7.9647696E-01;  9.9999998E-03; -3.0062506E-02;7170; -2.3665847E-02;  0.0000000E+00; -1.0964457E-03;  9.9972797E+02;  1.4653113E-01; -2.2537633E+02;3;  6.9910282E-01;  0.0000000E+00;  9.0586746E-01;0; -2.1762826E-02;  1.8713279E+04;  0.0000000E+00; -5.1083159E-02;  4.0000000E+04;  0.0000000E+00;  3.9729730E+04; -5.7703074E-02;  0.0000000E+00;  3.5940249E-02;  1.1134740E+03;
  7.9642355E-01;  9.9999998E-03; -2.0036547E-02;7171; -2.3743572E-02;  0.0000000E+00; -7.3860493E-04;  9.9974561E+02;  1.4651094E-01; -2.1075946E+02;3;  7.0633423E-01;  0.0000000E+00;  6.0746175E-01;0; -2.2022501E-02;  1.8717162E+04;  0.0000000E+00; -2.3112116E-02;  4.0000000E+04;  0.0000000E+00;  3.9730121E+04; -5.8194663E-02;  0.0000000E+00;  3.6172163E-02;  1.0738197E+03;
  7.9639161E-01;  9.9999998E-03; -1.0016414E-02;7172; -2.3789586E-02;  0.0000000E+00; -3.7154951E-04;  9.9975940E+02;  1.4649954E-01; -1.9935237E+02;3;  7.0985925E-01;  0.0000000E+00;  2.9981679E-01;0; -2.2186253E-02;  1.8719271E+04;  0.0000000E+00; -5.8369203E-03;  4.0000000E+04;  0.0000000E+00;  3.9730457E+04; -5.8490764E-02;  0.0000000E+00;  3.6304511E-02;  1.0344999E+03;
  7.9638082E-01;  9.9999998E-03;  1.6769253E-08;7173; -2.3804858E-02;  0.0000000E+00;  9.8209732E-08;  9.9976154E+02;  1.4649592E-01; -1.9757465E+02;3;  7.0909363E-01;  0.0000000E+00; -1.4151797E-05;0; -2.2242118E-02;  1.8720119E+04;  0.0000000E+00;  2.4842278E-10;  4.0000000E+04;  0.0000000E+00;  3.9730430E+04; -5.8589611E-02;  0.0000000E+00;  3.6347494E-02;  1.0186683E+03;
  7.9639161E-01;  9.9999998E-03;  1.0016449E-02;7174; -2.3789592E-02;  0.0000000E+00;  3.7174561E-04;  9.9975946E+02;  1.4649943E-01; -1.9930299E+02;3;  7.0988935E-01;  0.0000000E+00; -2.9984209E-01;0; -2.2186264E-02;  1.8719273E+04;  0.0000000E+00; -5.8361678E-03;  4.0000000E+04;  0.0000000E+00;  3.9730457E+04; -5.8490798E-02;  0.0000000E+00;  3.6304533E-02;  1.0345077E+03;
  7.9642355E-01;  9.9999998E-03;  2.0036580E-02;7175; -2.3743583E-02;  0.0000000E+00;  7.3880091E-04;  9.9974573E+02;  1.4651108E-01; -2.1066069E+02;3;  7.0635527E-01;  0.0000000E+00; -6.0748488E-01;0; -2.2022571E-02;  1.8717160E+04;  0.0000000E+00; -2.3111261E-02;  4.0000000E+04;  0.0000000E+00;  3.9730125E+04; -5.8194682E-02;  0.0000000E+00;  3.6172111E-02;  1.0738152E+03;
  7.9647696E-01;  9.9999998E-03;  3.0062541E-02;7176; -2.3665866E-02;  0.0000000E+00;  1.0966427E-03;  9.9972809E+02;  1.4653103E-01; -2.2527756E+02;3;  6.9908696E-01;  0.0000000E+00; -9.0587914E-01;0; -2.1762803E-02;  1.8713279E+04;  0.0000000E+00; -5.1082261E-02;  4.0000000E+04;  0.0000000E+00;  3.9729734E+04; -5.7703044E-02;  0.0000000E+00;  3.5940241E-02;  1.1135022E+03;
  7.9655194E-01;  9.9999998E-03;  4.0094450E-02;7177; -2.3556575E-02;  0.0000000E+00;  1.4496718E-03;  9.9971100E+02;  1.4656088E-01; -2.3945000E+02;3;  6.7477101E-01;  0.0000000E+00; -1.2047924E+00;0; -2.1426227E-02;  1.8707865E+04;  0.0000000E+00; -8.8462643E-02;  4.0000000E+04;  0.0000000E+00;  3.9729664E+04; -5.7019066E-02;  0.0000000E+00;  3.5592839E-02;  1.1217269E+03;
  7.9663950E-01;  9.9999998E-03;  5.0134663E-02;7178; -2.3413833E-02;  0.0000000E+00;  1.8107089E-03;  9.9970270E+02;  1.4659637E-01; -2.4631400E+02;3;  6.4322042E-01;  0.0000000E+00; -1.4695797E+00;0; -2.1037973E-02;  1.8701193E+04;  0.0000000E+00; -1.3347146E-01;  4.0000000E+04;  0.0000000E+00;  3.9729977E+04; -5.6146733E-02;  0.0000000E+00;  3.5108760E-02;  1.0755265E+03;
  7.9672223E-01;  9.9999998E-03;  6.0160119E-02;7179; -2.3237651E-02;  0.0000000E+00;  2.1770047E-03;  9.9970239E+02;  1.4663461E-01; -2.4656091E+02;3;  6.1990201E-01;  0.0000000E+00; -1.7419106E+00;0; -2.0628080E-02;  1.8694721E+04;  0.0000000E+00; -1.8376513E-01;  4.0000000E+04;  0.0000000E+00;  3.9731211E+04; -5.5094168E-02;  0.0000000E+00;  3.4466088E-02;  9.7159973E+02;
  8.1106788E-01;  9.9999998E-03; -1.0031408E-01;7224; -2.2954434E-02;  0.0000000E+00; -3.6887389E-03;  9.9922815E+02;  1.5264466E-01; -6.3948804E+02;3;  8.0188084E-01;  0.0000000E+00;  2.9915385E+00;0; -1.8604340E-02;  1.7264229E+04;  0.0000000E+00; -6.7591053E-01;  4.0000000E+04;  0.0000000E+00;  3.9706555E+04; -4.9555346E-02;  0.0000000E+00;  3.0951006E-02;  1.9054146E+03;
  8.1104088E-01;  9.9999998E-03; -9.0325616E-02;7225; -2.3256285E-02;  0.0000000E+00; -3.3403351E-03;  9.9912885E+02;  1.5261708E-01; -7.2175732E+02;3;  8.4944117E-01;  0.0000000E+00;  2.7227287E+00;0; -1.9011907E-02;  1.7264111E+04;  0.0000000E+00; -5.9766960E-01;  4.0000000E+04;  0.0000000E+00;  3.9705898E+04; -5.1364280E-02;  0.0000000E+00;  3.2352373E-02;  1.7316047E+03;
  8.1103218E-01;  9.9999998E-03; -8.0331713E-02;7226; -2.3542481E-02;  0.0000000E+00; -2.9777566E-03;  9.9904242E+02;  1.5260296E-01; -7.9336023E+02;3;  8.9070570E-01;  0.0000000E+00;  2.4457912E+00;0; -1.9476172E-02;  1.7262027E+04;  0.0000000E+00; -5.0863522E-01;  4.0000000E+04;  0.0000000E+00;  3.9704270E+04; -5.3031981E-02;  0.0000000E+00;  3.3555809E-02;  1.5915961E+03;
  8.1103605E-01;  9.9999998E-03; -7.0336893E-02;7227; -2.3803538E-02;  0.0000000E+00; -2.6140339E-03;  9.9897528E+02;  1.5259822E-01; -8.4896356E+02;3;  9.3731141E-01;  0.0000000E+00;  2.1640856E+00;0; -1.9982148E-02;  1.7258834E+04;  0.0000000E+00; -4.1372564E-01;  4.0000000E+04;  0.0000000E+00;  3.9702359E+04; -5.4541044E-02;  0.0000000E+00;  3.4558896E-02;  1.5236768E+03;
  8.1083721E-01;  9.9999998E-03; -6.0310882E-02;7228; -2.4024595E-02;  0.0000000E+00; -2.2492288E-03;  9.9890802E+02;  1.5251251E-01; -9.0466571E+02;3;  9.6993011E-01;  0.0000000E+00;  1.8749952E+00;0; -2.0510063E-02;  1.7273775E+04;  0.0000000E+00; -3.1644985E-01;  4.0000000E+04;  0.0000000E+00;  3.9701020E+04; -5.5868674E-02;  0.0000000E+00;  3.5358611E-02;  1.5064657E+03;
  8.1060362E-01;  9.9999998E-03; -5.0229862E-02;7229; -2.4211505E-02;  0.0000000E+00; -1.8817839E-03;  9.9884900E+02;  1.5241627E-01; -9.5360260E+02;3;  1.0003728E+00;  0.0000000E+00;  1.5659924E+00;0; -2.1027822E-02;  1.7291381E+04;  0.0000000E+00; -2.2492582E-01;  4.0000000E+04;  0.0000000E+00;  3.9700227E+04; -5.7010561E-02;  0.0000000E+00;  3.5982739E-02;  1.4807501E+03;
  8.1038660E-01;  9.9999998E-03; -4.0158261E-02;7230; -2.4361812E-02;  0.0000000E+00; -1.5158576E-03;  9.9880743E+02;  1.5232769E-01; -9.8802136E+02;3;  1.0252767E+00;  0.0000000E+00;  1.2572409E+00;0; -2.1500912E-02;  1.7307701E+04;  0.0000000E+00; -1.4589639E-01;  4.0000000E+04;  0.0000000E+00;  3.9700684E+04; -5.7951469E-02;  0.0000000E+00;  3.6450557E-02;  1.4180701E+03;
  8.1020713E-01;  9.9999998E-03; -3.0106032E-02;7231; -2.4477700E-02;  0.0000000E+00; -1.1435351E-03;  9.9877960E+02;  1.5225504E-01; -1.0110825E+03;3;  1.0486717E+00;  0.0000000E+00;  9.5054847E-01;0; -2.1901075E-02;  1.7320861E+04;  0.0000000E+00; -8.2702629E-02;  4.0000000E+04;  0.0000000E+00;  3.9701258E+04; -5.8686495E-02;  0.0000000E+00;  3.6785420E-02;  1.3214932E+03;
  8.1007642E-01;  9.9999998E-03; -2.0065753E-02;7232; -2.4559783E-02;  0.0000000E+00; -7.6882570E-04;  9.9876465E+02;  1.5220413E-01; -1.0234772E+03;3;  1.0668740E+00;  0.0000000E+00;  6.4372599E-01;0; -2.2204552E-02;  1.7330332E+04;  0.0000000E+00; -3.6906451E-02;  4.0000000E+04;  0.0000000E+00;  3.9702031E+04; -5.9213344E-02;  0.0000000E+00;  3.7008792E-02;  1.2187042E+03;
  8.0999649E-01;  9.9999998E-03; -1.0031494E-02;7233; -2.4610015E-02;  0.0000000E+00; -3.8808867E-04;  9.9876001E+02;  1.5217315E-01; -1.0273289E+03;3;  1.0767468E+00;  0.0000000E+00;  3.2686022E-01;0; -2.2393920E-02;  1.7336033E+04;  0.0000000E+00; -9.2415102E-03;  4.0000000E+04;  0.0000000E+00;  3.9702770E+04; -5.9530314E-02;  0.0000000E+00;  3.7136395E-02;  1.1420609E+03;
  8.0996990E-01;  9.9999998E-03;  1.8067039E-08;7234; -2.4626629E-02;  0.0000000E+00;  1.0219918E-07;  9.9875647E+02;  1.5216216E-01; -1.0302424E+03;3;  1.0776728E+00;  0.0000000E+00; -1.8163526E-05;0; -2.2458252E-02;  1.7338006E+04;  0.0000000E+00;  2.1541408E-10;  4.0000000E+04;  0.0000000E+00;  3.9703039E+04; -5.9636112E-02;  0.0000000E+00;  3.7177861E-02;  1.1141443E+03;
  8.0999649E-01;  9.9999998E-03;  1.0031531E-02;7235; -2.4610020E-02;  0.0000000E+00;  3.8829367E-04;  9.9875995E+02;  1.5217276E-01; -1.0273783E+03;3;  1.0767360E+00;  0.0000000E+00; -3.2687008E-01;0; -2.2393897E-02;  1.7336029E+04;  0.0000000E+00; -9.2400918E-03;  4.0000000E+04;  0.0000000E+00;  3.9702770E+04; -5.9530266E-02;  0.0000000E+00;  3.7136368E-02;  1.1420597E+03;
  8.1007642E-01;  9.9999998E-03;  2.0065790E-02;7236; -2.4559792E-02;  0.0000000E+00;  7.6903036E-04;  9.9876465E+02;  1.5220413E-01; -1.0234772E+03;3;  1.0668640E+00;  0.0000000E+00; -6.4374799E-01;0; -2.2204567E-02;  1.7330330E+04;  0.0000000E+00; -3.6903247E-02;  4.0000000E+04;  0.0000000E+00;  3.9702027E+04; -5.9213363E-02;  0.0000000E+00;  3.7008796E-02;  1.2187224E+03;
  8.1020713E-01;  9.9999998E-03;  3.0106071E-02;7237; -2.4477717E-02;  0.0000000E+00;  1.1437377E-03;  9.9877979E+02;  1.5225536E-01; -1.0109343E+03;3;  1.0486865E+00;  0.0000000E+00; -9.5054847E-01;0; -2.1901157E-02;  1.7320859E+04;  0.0000000E+00; -8.2698889E-02;  4.0000000E+04;  0.0000000E+00;  3.9701254E+04; -5.8686554E-02;  0.0000000E+00;  3.6785398E-02;  1.3215269E+03;
  8.1038654E-01;  9.9999998E-03;  4.0158302E-02;7238; -2.4361834E-02;  0.0000000E+00;  1.5160597E-03;  9.9880737E+02;  1.5232733E-01; -9.8807074E+02;3;  1.0252837E+00;  0.0000000E+00; -1.2572355E+00;0; -2.1500997E-02;  1.7307693E+04;  0.0000000E+00; -1.4589143E-01;  4.0000000E+04;  0.0000000E+00;  3.9700688E+04; -5.7951491E-02;  0.0000000E+00;  3.6450494E-02;  1.4180702E+03;
  8.1060362E-01;  9.9999998E-03;  5.0229900E-02;7239; -2.4211535E-02;  0.0000000E+00;  1.8819843E-03;  9.9884900E+02;  1.5241607E-01; -9.5360260E+02;3;  1.0003961E+00;  0.0000000E+00; -1.5659857E+00;0; -2.1027859E-02;  1.7291379E+04;  0.0000000E+00; -2.2492267E-01;  4.0000000E+04;  0.0000000E+00;  3.9700227E+04; -5.7010572E-02;  0.0000000E+00;  3.5982713E-02;  1.4807590E+03;
  8.1083721E-01;  9.9999998E-03;  6.0310919E-02;7240; -2.4024624E-02;  0.0000000E+00;  2.2494290E-03;  9.9890790E+02;  1.5251234E-01; -9.0476447E+02;3;  9.6992028E-01;  0.0000000E+00; -1.8749883E+00;0; -2.0510174E-02;  1.7273779E+04;  0.0000000E+00; -3.1644472E-01;  4.0000000E+04;  0.0000000E+00;  3.9701023E+04; -5.5868719E-02;  0.0000000E+00;  3.5358544E-02;  1.5064703E+03;
  8.2481068E-01;  9.9999998E-03;  1.7743293E-08;7295; -2.5578447E-02;  0.0000000E+00;  1.0596772E-07;  9.9797760E+02;  1.5846357E-01; -1.6755081E+03;3;  1.4985708E+00;  0.0000000E+00; -1.4257805E-05;0; -2.2838175E-02;  1.5992744E+04;  0.0000000E+00;  1.3792838E-10;  4.0000000E+04;  0.0000000E+00;  3.9675066E+04; -6.0826596E-02;  0.0000000E+00;  3.7988421E-02;  1.0914028E+03;
  8.2482409E-01;  9.9999998E-03; -1.0046457E-02;7294; -2.5557635E-02;  0.0000000E+00; -4.0914639E-04;  9.9797809E+02;  1.5846792E-01; -1.6751130E+03;3;  1.4950073E+00;  0.0000000E+00;  3.4982762E-01;0; -2.2761554E-02;  1.5992079E+04;  0.0000000E+00; -1.1190445E-02;  4.0000000E+04;  0.0000000E+00;  3.9674707E+04; -6.0711708E-02;  0.0000000E+00;  3.7950154E-02;  1.1275494E+03;
  8.2482409E-01;  9.9999998E-03;  1.0046494E-02;7296; -2.5557639E-02;  0.0000000E+00;  4.0935885E-04;  9.9797815E+02;  1.5846850E-01; -1.6750636E+03;3;  1.4950309E+00;  0.0000000E+00; -3.4983119E-01;0; -2.2761617E-02;  1.5992082E+04;  0.0000000E+00; -1.1188770E-02;  4.0000000E+04;  0.0000000E+00;  3.9674707E+04; -6.0711712E-02;  0.0000000E+00;  3.7950095E-02;  1.1275756E+03;
  8.2486528E-01;  9.9999998E-03; -2.0089922E-02;7293; -2.5497951E-02;  0.0000000E+00; -8.0782099E-04;  9.9798071E+02;  1.5848172E-01; -1.6729402E+03;3;  1.4811242E+00;  0.0000000E+00;  6.7775589E-01;0; -2.2536021E-02;  1.5990088E+04;  0.0000000E+00; -4.4667069E-02;  4.0000000E+04;  0.0000000E+00;  3.9674094E+04; -6.0368143E-02;  0.0000000E+00;  3.7832122E-02;  1.2315759E+03;
  8.2486528E-01;  9.9999998E-03;  2.0089962E-02;7297; -2.5497954E-02;  0.0000000E+00;  8.0803421E-04;  9.9798096E+02;  1.5848273E-01; -1.6727427E+03;3;  1.4811635E+00;  0.0000000E+00; -6.7776084E-01;0; -2.2535995E-02;  1.5990088E+04;  0.0000000E+00; -4.4663228E-02;  4.0000000E+04;  0.0000000E+00;  3.9674094E+04; -6.0368102E-02;  0.0000000E+00;  3.7832107E-02;  1.2315834E+03;
  8.2493794E-01;  9.9999998E-03; -3.0132312E-02;7292; -2.5400078E-02;  0.0000000E+00; -1.1961274E-03;  9.9799164E+02;  1.5850809E-01; -1.6639034E+03;3;  1.4620675E+00;  0.0000000E+00;  1.0000893E+00;0; -2.2172410E-02;  1.5986132E+04;  0.0000000E+00; -1.0007200E-01;  4.0000000E+04;  0.0000000E+00;  3.9672875E+04; -5.9797660E-02;  0.0000000E+00;  3.7625249E-02;  1.3857214E+03;
  8.2493794E-01;  9.9999998E-03;  3.0132353E-02;7298; -2.5400093E-02;  0.0000000E+00;  1.1963366E-03;  9.9799158E+02;  1.5850832E-01; -1.6639528E+03;3;  1.4620494E+00;  0.0000000E+00; -1.0000700E+00;0; -2.2172511E-02;  1.5986133E+04;  0.0000000E+00; -1.0006770E-01;  4.0000000E+04;  0.0000000E+00;  3.9672871E+04; -5.9797734E-02;  0.0000000E+00;  3.7625223E-02;  1.3857557E+03;
  8.2504803E-01;  9.9999998E-03; -4.0180501E-02;7291; -2.5264133E-02;  0.0000000E+00; -1.5737000E-03;  9.9801624E+02;  1.5854949E-01; -1.6435089E+03;3;  1.4312677E+00;  0.0000000E+00;  1.3480099E+00;0; -2.1688290E-02;  1.5979726E+04;  0.0000000E+00; -1.7663765E-01;  4.0000000E+04;  0.0000000E+00;  3.9671719E+04; -5.9002578E-02;  0.0000000E+00;  3.7314288E-02;  1.5572964E+03;
  8.2504803E-01;  9.9999998E-03;  4.0180542E-02;7299; -2.5264153E-02;  0.0000000E+00;  1.5739076E-03;  9.9801630E+02;  1.5854937E-01; -1.6434596E+03;3;  1.4312494E+00;  0.0000000E+00; -1.3479662E+00;0; -2.1688387E-02;  1.5979718E+04;  0.0000000E+00; -1.7663307E-01;  4.0000000E+04;  0.0000000E+00;  3.9671719E+04; -5.9002601E-02;  0.0000000E+00;  3.7314214E-02;  1.5573081E+03;
  8.2518923E-01;  9.9999998E-03; -5.0244849E-02;7290; -2.5090387E-02;  0.0000000E+00; -1.9404124E-03;  9.9805646E+02;  1.5860488E-01; -1.6101765E+03;3;  1.3941051E+00;  0.0000000E+00;  1.6734266E+00;0; -2.1106604E-02;  1.5970697E+04;  0.0000000E+00; -2.7277580E-01;  4.0000000E+04;  0.0000000E+00;  3.9671320E+04; -5.7984773E-02;  0.0000000E+00;  3.6878169E-02;  1.7108693E+03;
  8.2518923E-01;  9.9999998E-03;  5.0244890E-02;7300; -2.5090409E-02;  0.0000000E+00;  1.9406261E-03;  9.9805670E+02;  1.5860525E-01; -1.6099790E+03;3;  1.3941323E+00;  0.0000000E+00; -1.6733819E+00;0; -2.1106739E-02;  1.5970698E+04;  0.0000000E+00; -2.7276659E-01;  4.0000000E+04;  0.0000000E+00;  3.9671324E+04; -5.7984821E-02;  0.0000000E+00;  3.6878083E-02;  1.7108538E+03;
  8.2536882E-01;  9.9999998E-03; -6.0331710E-02;7289; -2.4879683E-02;  0.0000000E+00; -2.3066034E-03;  9.9811182E+02;  1.5867820E-01; -1.5643013E+03;3;  1.3532856E+00;  0.0000000E+00;  1.9812284E+00;0; -2.0455141E-02;  1.5958414E+04;  0.0000000E+00; -3.8526404E-01;  4.0000000E+04;  0.0000000E+00;  3.9671527E+04; -5.6748893E-02;  0.0000000E+00;  3.6293752E-02;  1.8328998E+03;
  8.2536882E-01;  9.9999998E-03;  6.0331747E-02;7301; -2.4879711E-02;  0.0000000E+00;  2.3068131E-03;  9.9811200E+02;  1.5867877E-01; -1.5641532E+03;3;  1.3533206E+00;  0.0000000E+00; -1.9811790E+00;0; -2.0455182E-02;  1.5958412E+04;  0.0000000E+00; -3.8525501E-01;  4.0000000E+04;  0.0000000E+00;  3.9671523E+04; -5.6748852E-02;  0.0000000E+00;  3.6293671E-02;  1.8328866E+03;
  8.2556480E-01;  9.9999998E-03; -7.0412129E-02;7288; -2.4633937E-02;  0.0000000E+00; -2.6689770E-03;  9.9819147E+02;  1.5876469E-01; -1.4983279E+03;3;  1.3096526E+00;  0.0000000E+00;  2.2978539E+00;0; -1.9766781E-02;  1.5944102E+04;  0.0000000E+00; -5.0743419E-01;  4.0000000E+04;  0.0000000E+00;  3.9672828E+04; -5.5305030E-02;  0.0000000E+00;  3.5538249E-02;  1.9477019E+03;
  8.2572150E-01;  9.9999998E-03; -8.0410138E-02;7287; -2.4357755E-02;  0.0000000E+00; -3.0230193E-03;  9.9828638E+02;  1.5884319E-01; -1.4197128E+03;3;  1.2619401E+00;  0.0000000E+00;  2.6016436E+00;0; -1.9079961E-02;  1.5931258E+04;  0.0000000E+00; -6.2834692E-01;  4.0000000E+04;  0.0000000E+00;  3.9674906E+04; -5.3676151E-02;  0.0000000E+00;  3.4596190E-02;  2.0903015E+03;
  8.2584059E-01;  9.9999998E-03; -9.0391397E-02;7286; -2.4049271E-02;  0.0000000E+00; -3.3825985E-03;  9.9838635E+02;  1.5892053E-01; -1.3369004E+03;3;  1.2077726E+00;  0.0000000E+00;  2.8981402E+00;0; -1.8418144E-02;  1.5919474E+04;  0.0000000E+00; -7.3784101E-01;  4.0000000E+04;  0.0000000E+00;  3.9676836E+04; -5.1868916E-02;  0.0000000E+00;  3.3450771E-02;  2.2754082E+03;
  8.2595640E-01;  9.9999998E-03; -1.0035468E-01;7285; -2.3720045E-02;  0.0000000E+00; -3.7343765E-03;  9.9850256E+02;  1.5899879E-01; -1.2406068E+03;3;  1.1522738E+00;  0.0000000E+00;  3.1931431E+00;0; -1.7803069E-02;  1.5907550E+04;  0.0000000E+00; -8.2421535E-01;  4.0000000E+04;  0.0000000E+00;  3.9677754E+04; -4.9904507E-02;  0.0000000E+00;  3.2101437E-02;  2.4455400E+03;
  8.4256375E-01;  9.9999998E-03;  1.8782766E-08;7356; -2.6736321E-02;  0.0000000E+00;  1.1061894E-07;  9.9803424E+02;  1.6612965E-01; -1.6285958E+03;3;  2.0365419E+00;  0.0000000E+00;  1.3409249E-06;0; -2.3489978E-02;  1.4592563E+04;  0.0000000E+00;  2.8791376E-11;  4.0000000E+04;  0.0000000E+00;  3.9644180E+04; -6.2292881E-02;  0.0000000E+00;  3.8802903E-02;  9.5283813E+02;
  8.4254485E-01;  9.9999998E-03; -1.0047416E-02;7355; -2.6712216E-02;  0.0000000E+00; -4.1212852E-04;  9.9802814E+02;  1.6612065E-01; -1.6336327E+03;3;  2.0287628E+00;  0.0000000E+00;  3.2834491E-01;0; -2.3394916E-02;  1.4593876E+04;  0.0000000E+00; -1.1582104E-02;  4.0000000E+04;  0.0000000E+00;  3.9643930E+04; -6.2168952E-02;  0.0000000E+00;  3.8774036E-02;  9.8642938E+02;
  8.4254485E-01;  9.9999998E-03;  1.0047455E-02;7357; -2.6712220E-02;  0.0000000E+00;  4.1235049E-04;  9.9802814E+02;  1.6612123E-01; -1.6336327E+03;3;  2.0288012E+00;  0.0000000E+00; -3.2834026E-01;0; -2.3394857E-02;  1.4593875E+04;  0.0000000E+00; -1.1580748E-02;  4.0000000E+04;  0.0000000E+00;  3.9643926E+04; -6.2168904E-02;  0.0000000E+00;  3.8774047E-02;  9.8646008E+02;
  8.4249121E-01;  9.9999998E-03; -2.0090688E-02;7354; -2.6639521E-02;  0.0000000E+00; -8.2213228E-04;  9.9802118E+02;  1.6609831E-01; -1.6394103E+03;3;  2.0100770E+00;  0.0000000E+00;  6.8820572E-01;0; -2.3113411E-02;  1.4597484E+04;  0.0000000E+00; -4.6014763E-02;  4.0000000E+04;  0.0000000E+00;  3.9643242E+04; -6.1797336E-02;  0.0000000E+00;  3.8683925E-02;  1.0880366E+03;
  8.4249121E-01;  9.9999998E-03;  2.0090729E-02;7358; -2.6639530E-02;  0.0000000E+00;  8.2235486E-04;  9.9802118E+02;  1.6609831E-01; -1.6394103E+03;3;  2.0101411E+00;  0.0000000E+00; -6.8818855E-01;0; -2.3113504E-02;  1.4597480E+04;  0.0000000E+00; -4.6011474E-02;  4.0000000E+04;  0.0000000E+00;  3.9643242E+04; -6.1797354E-02;  0.0000000E+00;  3.8683850E-02;  1.0880911E+03;
  8.4241354E-01;  9.9999998E-03; -3.0131366E-02;7353; -2.6516551E-02;  0.0000000E+00; -1.2259695E-03;  9.9800385E+02;  1.6606510E-01; -1.6537803E+03;3;  1.9776365E+00;  0.0000000E+00;  1.0725529E+00;0; -2.2657212E-02;  1.4602667E+04;  0.0000000E+00; -1.0252259E-01;  4.0000000E+04;  0.0000000E+00;  3.9642125E+04; -6.1178762E-02;  0.0000000E+00;  3.8521551E-02;  1.2523285E+03;
  8.4241354E-01;  9.9999998E-03;  3.0131409E-02;7359; -2.6516568E-02;  0.0000000E+00;  1.2261898E-03;  9.9800366E+02;  1.6606502E-01; -1.6539285E+03;3;  1.9776415E+00;  0.0000000E+00; -1.0725303E+00;0; -2.2657260E-02;  1.4602669E+04;  0.0000000E+00; -1.0251836E-01;  4.0000000E+04;  0.0000000E+00;  3.9642129E+04; -6.1178748E-02;  0.0000000E+00;  3.8521487E-02;  1.2523588E+03;
  8.4232777E-01;  9.9999998E-03; -4.0176917E-02;7352; -2.6346978E-02;  0.0000000E+00; -1.6131526E-03;  9.9799323E+02;  1.6603011E-01; -1.6625702E+03;3;  1.9357910E+00;  0.0000000E+00;  1.4317214E+00;0; -2.2045985E-02;  1.4608154E+04;  0.0000000E+00; -1.8009563E-01;  4.0000000E+04;  0.0000000E+00;  3.9641246E+04; -6.0315497E-02;  0.0000000E+00;  3.8269512E-02;  1.4572521E+03;
  8.4232777E-01;  9.9999998E-03;  4.0176958E-02;7360; -2.6346995E-02;  0.0000000E+00;  1.6133708E-03;  9.9799335E+02;  1.6603047E-01; -1.6624714E+03;3;  1.9357810E+00;  0.0000000E+00; -1.4316907E+00;0; -2.2046018E-02;  1.4608155E+04;  0.0000000E+00; -1.8009079E-01;  4.0000000E+04;  0.0000000E+00;  3.9641238E+04; -6.0315479E-02;  0.0000000E+00;  3.8269460E-02;  1.4573032E+03;
  8.4224880E-01;  9.9999998E-03; -5.0240286E-02;7351; -2.6135756E-02;  0.0000000E+00; -1.9843969E-03;  9.9799237E+02;  1.6599953E-01; -1.6632615E+03;3;  1.8814882E+00;  0.0000000E+00;  1.7822295E+00;0; -2.1305300E-02;  1.4612700E+04;  0.0000000E+00; -2.7725616E-01;  4.0000000E+04;  0.0000000E+00;  3.9640676E+04; -5.9210163E-02;  0.0000000E+00;  3.7904862E-02;  1.6676366E+03;
  8.4224880E-01;  9.9999998E-03;  5.0240330E-02;7361; -2.6135782E-02;  0.0000000E+00;  1.9846079E-03;  9.9799213E+02;  1.6600013E-01; -1.6635084E+03;3;  1.8815014E+00;  0.0000000E+00; -1.7822204E+00;0; -2.1305386E-02;  1.4612696E+04;  0.0000000E+00; -2.7725068E-01;  4.0000000E+04;  0.0000000E+00;  3.9640684E+04; -5.9210178E-02;  0.0000000E+00;  3.7904792E-02;  1.6676716E+03;
  8.4218800E-01;  9.9999998E-03; -6.0331028E-02;7350; -2.5884984E-02;  0.0000000E+00; -2.3483785E-03;  9.9801392E+02;  1.6598019E-01; -1.6454348E+03;3;  1.8251450E+00;  0.0000000E+00;  2.1028357E+00;0; -2.0465154E-02;  1.4615370E+04;  0.0000000E+00; -3.9117485E-01;  4.0000000E+04;  0.0000000E+00;  3.9640855E+04; -5.7865940E-02;  0.0000000E+00;  3.7400786E-02;  1.8567158E+03;
  8.4218800E-01;  9.9999998E-03;  6.0331073E-02;7362; -2.5885012E-02;  0.0000000E+00;  2.3485911E-03;  9.9801398E+02;  1.6598152E-01; -1.6453855E+03;3;  1.8251586E+00;  0.0000000E+00; -2.1027932E+00;0; -2.0465307E-02;  1.4615373E+04;  0.0000000E+00; -3.9116707E-01;  4.0000000E+04;  0.0000000E+00;  3.9640855E+04; -5.7865981E-02;  0.0000000E+00;  3.7400674E-02;  1.8566880E+03;
  8.4215772E-01;  9.9999998E-03; -7.0439719E-02;7349; -2.5598751E-02;  0.0000000E+00; -2.7064783E-03;  9.9805011E+02;  1.6597773E-01; -1.6154603E+03;3;  1.7658585E+00;  0.0000000E+00;  2.4379728E+00;0; -1.9560892E-02;  1.4615149E+04;  0.0000000E+00; -5.1619983E-01;  4.0000000E+04;  0.0000000E+00;  3.9642027E+04; -5.6291427E-02;  0.0000000E+00;  3.6730535E-02;  2.0292469E+03;
  8.4215206E-01;  9.9999998E-03; -8.0509111E-02;7348; -2.5282344E-02;  0.0000000E+00; -3.0623865E-03;  9.9810455E+02;  1.6598883E-01; -1.5703258E+03;3;  1.6941760E+00;  0.0000000E+00;  2.7684278E+00;0; -1.8634420E-02;  1.4612393E+04;  0.0000000E+00; -6.4181650E-01;  4.0000000E+04;  0.0000000E+00;  3.9643586E+04; -5.4507323E-02;  0.0000000E+00;  3.5872903E-02;  2.2075588E+03;
  8.4217191E-01;  9.9999998E-03; -9.0552911E-02;7347; -2.4934964E-02;  0.0000000E+00; -3.4237579E-03;  9.9817572E+02;  1.6601653E-01; -1.5113645E+03;3;  1.6285897E+00;  0.0000000E+00;  3.0750079E+00;0; -1.7718382E-02;  1.4607234E+04;  0.0000000E+00; -7.5428456E-01;  4.0000000E+04;  0.0000000E+00;  3.9645539E+04; -5.2527182E-02;  0.0000000E+00;  3.4808800E-02;  2.3893840E+03;
  8.4221852E-01;  9.9999998E-03; -1.0057750E-01;7346; -2.4563879E-02;  0.0000000E+00; -3.7895020E-03;  9.9825177E+02;  1.6606052E-01; -1.4483540E+03;3;  1.5533890E+00;  0.0000000E+00;  3.3774316E+00;0; -1.6842026E-02;  1.4599516E+04;  0.0000000E+00; -8.3867103E-01;  4.0000000E+04;  0.0000000E+00;  3.9646832E+04; -5.0369773E-02;  0.0000000E+00;  3.3527747E-02;  2.5177039E+03;
  8.5998899E-01;  9.9999998E-03; -1.0056125E-02;7416; -2.7848391E-02;  0.0000000E+00; -4.1619502E-04;  9.9921692E+02;  1.7428486E-01; -6.4877173E+02;3;  2.5977809E+00;  0.0000000E+00;  3.5362777E-01;0; -2.4290644E-02;  1.3326239E+04;  0.0000000E+00; -9.5713241E-03;  4.0000000E+04;  0.0000000E+00;  3.9612156E+04; -6.3720465E-02;  0.0000000E+00;  3.9429821E-02;  9.4361920E+02;
  8.5999149E-01;  9.9999998E-03;  2.0038067E-08;7417; -2.7874537E-02;  0.0000000E+00;  1.1197709E-07;  9.9923260E+02;  1.7428970E-01; -6.3578442E+02;3;  2.5913515E+00;  0.0000000E+00;  7.7077857E-06;0; -2.4407096E-02;  1.3326164E+04;  0.0000000E+00; -4.3890599E-11;  4.0000000E+04;  0.0000000E+00;  3.9612188E+04; -6.3847817E-02;  0.0000000E+00;  3.9440721E-02;  9.2182928E+02;
  8.5998893E-01;  9.9999998E-03;  1.0056166E-02;7418; -2.7848395E-02;  0.0000000E+00;  4.1641921E-04;  9.9921680E+02;  1.7428523E-01; -6.4887048E+02;3;  2.5978329E+00;  0.0000000E+00; -3.5361373E-01;0; -2.4290640E-02;  1.3326240E+04;  0.0000000E+00; -9.5706731E-03;  4.0000000E+04;  0.0000000E+00;  3.9612160E+04; -6.3720472E-02;  0.0000000E+00;  3.9429832E-02;  9.4361725E+02;
  8.5998303E-01;  9.9999998E-03; -2.0107379E-02;7415; -2.7768761E-02;  0.0000000E+00; -8.2547718E-04;  9.9918066E+02;  1.7427258E-01; -6.7879559E+02;3;  2.5795538E+00;  0.0000000E+00;  7.3740518E-01;0; -2.3944750E-02;  1.3326739E+04;  0.0000000E+00; -3.8059037E-02;  4.0000000E+04;  0.0000000E+00;  3.9611551E+04; -6.3337430E-02;  0.0000000E+00;  3.9392680E-02;  1.0129086E+03;
  8.5998303E-01;  9.9999998E-03;  2.0107422E-02;7419; -2.7768767E-02;  0.0000000E+00;  8.2570192E-04;  9.9918091E+02;  1.7427255E-01; -6.7859802E+02;3;  2.5795715E+00;  0.0000000E+00; -7.3738915E-01;0; -2.3944791E-02;  1.3326736E+04;  0.0000000E+00; -3.8057849E-02;  4.0000000E+04;  0.0000000E+00;  3.9611555E+04; -6.3337415E-02;  0.0000000E+00;  3.9392624E-02;  1.0129395E+03;
  8.5997802E-01;  9.9999998E-03; -3.0152915E-02;7414; -2.7635118E-02;  0.0000000E+00; -1.2253503E-03;  9.9912567E+02;  1.7425434E-01; -7.2437451E+02;3;  2.5426061E+00;  0.0000000E+00;  1.1291575E+00;0; -2.3381412E-02;  1.3327058E+04;  0.0000000E+00; -8.5015446E-02;  4.0000000E+04;  0.0000000E+00;  3.9610824E+04; -6.2697627E-02;  0.0000000E+00;  3.9316215E-02;  1.1339832E+03;
  8.5997802E-01;  9.9999998E-03;  3.0152960E-02;7420; -2.7635129E-02;  0.0000000E+00;  1.2255760E-03;  9.9912573E+02;  1.7425419E-01; -7.2432513E+02;3;  2.5426648E+00;  0.0000000E+00; -1.1291258E+00;0; -2.3381524E-02;  1.3327057E+04;  0.0000000E+00; -8.5012667E-02;  4.0000000E+04;  0.0000000E+00;  3.9610824E+04; -6.2697686E-02;  0.0000000E+00;  3.9316162E-02;  1.1340154E+03;
  8.5997891E-01;  9.9999998E-03; -4.0198613E-02;7413; -2.7451418E-02;  0.0000000E+00; -1.6150086E-03;  9.9906042E+02;  1.7423542E-01; -7.7839771E+02;3;  2.4873824E+00;  0.0000000E+00;  1.5077884E+00;0; -2.2621199E-02;  1.3326882E+04;  0.0000000E+00; -1.5011434E-01;  4.0000000E+04;  0.0000000E+00;  3.9609711E+04; -6.1800439E-02;  0.0000000E+00;  3.9179239E-02;  1.2986373E+03;
  8.5997891E-01;  9.9999998E-03;  4.0198661E-02;7421; -2.7451435E-02;  0.0000000E+00;  1.6152350E-03;  9.9906042E+02;  1.7423595E-01; -7.7839771E+02;3;  2.4874156E+00;  0.0000000E+00; -1.5077530E+00;0; -2.2621300E-02;  1.3326881E+04;  0.0000000E+00; -1.5010953E-01;  4.0000000E+04;  0.0000000E+00;  3.9609711E+04; -6.1800461E-02;  0.0000000E+00;  3.9179161E-02;  1.2987009E+03;
  8.5999125E-01;  9.9999998E-03; -5.0253782E-02;7412; -2.7217939E-02;  0.0000000E+00; -1.9972401E-03;  9.9898920E+02;  1.7421901E-01; -8.3740833E+02;3;  2.4322395E+00;  0.0000000E+00;  1.8870734E+00;0; -2.1690208E-02;  1.3325648E+04;  0.0000000E+00; -2.3294806E-01;  4.0000000E+04;  0.0000000E+00;  3.9609016E+04; -6.0644094E-02;  0.0000000E+00;  3.8953885E-02;  1.4813586E+03;
  8.5999125E-01;  9.9999998E-03;  5.0253831E-02;7422; -2.7217962E-02;  0.0000000E+00;  1.9974681E-03;  9.9898914E+02;  1.7421976E-01; -8.3745770E+02;3;  2.4322670E+00;  0.0000000E+00; -1.8870274E+00;0; -2.1690339E-02;  1.3325646E+04;  0.0000000E+00; -2.3294201E-01;  4.0000000E+04;  0.0000000E+00;  3.9609012E+04; -6.0644139E-02;  0.0000000E+00;  3.8953800E-02;  1.4814041E+03;
  8.6002010E-01;  9.9999998E-03; -6.0329951E-02;7411; -2.6942784E-02;  0.0000000E+00; -2.3674769E-03;  9.9892975E+02;  1.7420994E-01; -8.8669092E+02;3;  2.3683012E+00;  0.0000000E+00;  2.2462955E+00;0; -2.0621728E-02;  1.3322859E+04;  0.0000000E+00; -3.3196092E-01;  4.0000000E+04;  0.0000000E+00;  3.9608746E+04; -5.9229683E-02;  0.0000000E+00;  3.8607955E-02;  1.6523975E+03;
  8.6002010E-01;  9.9999998E-03;  6.0330000E-02;7423; -2.6942812E-02;  0.0000000E+00;  2.3677021E-03;  9.9892969E+02;  1.7420989E-01; -8.8674030E+02;3;  2.3683507E+00;  0.0000000E+00; -2.2462971E+00;0; -2.0621769E-02;  1.3322860E+04;  0.0000000E+00; -3.3195066E-01;  4.0000000E+04;  0.0000000E+00;  3.9608734E+04; -5.9229657E-02;  0.0000000E+00;  3.8607888E-02;  1.6524429E+03;
  8.6007607E-01;  9.9999998E-03; -7.0438102E-02;7410; -2.6628621E-02;  0.0000000E+00; -2.7361724E-03;  9.9889264E+02;  1.7421292E-01; -9.1740607E+02;3;  2.2916081E+00;  0.0000000E+00;  2.5978873E+00;0; -1.9451998E-02;  1.3318035E+04;  0.0000000E+00; -4.4275525E-01;  4.0000000E+04;  0.0000000E+00;  3.9609277E+04; -5.7559196E-02;  0.0000000E+00;  3.8107198E-02;  1.8011182E+03;
  8.6016017E-01;  9.9999998E-03; -8.0550537E-02;7409; -2.6280360E-02;  0.0000000E+00; -3.1064439E-03;  9.9888629E+02;  1.7423286E-01; -9.2268988E+02;3;  2.2108750E+00;  0.0000000E+00;  2.9539247E+00;0; -1.8226337E-02;  1.3310715E+04;  0.0000000E+00; -5.5675781E-01;  4.0000000E+04;  0.0000000E+00;  3.9610648E+04; -5.5645324E-02;  0.0000000E+00;  3.7418988E-02;  1.9411884E+03;
  8.6026394E-01;  9.9999998E-03; -9.0636104E-02;7408; -2.5899049E-02;  0.0000000E+00; -3.4879711E-03;  9.9890399E+02;  1.7426679E-01; -9.0802362E+02;3;  2.1228173E+00;  0.0000000E+00;  3.2859113E+00;0; -1.6990870E-02;  1.3301635E+04;  0.0000000E+00; -6.6097730E-01;  4.0000000E+04;  0.0000000E+00;  3.9612234E+04; -5.3506486E-02;  0.0000000E+00;  3.6515616E-02;  2.0683921E+03;
  8.6037683E-01;  9.9999998E-03; -1.0070916E-01;7407; -2.5487229E-02;  0.0000000E+00; -3.8822633E-03;  9.9893890E+02;  1.7430854E-01; -8.7908618E+02;3;  2.0384688E+00;  0.0000000E+00;  3.5968328E+00;0; -1.5783533E-02;  1.3291540E+04;  0.0000000E+00; -7.4066240E-01;  4.0000000E+04;  0.0000000E+00;  3.9613332E+04; -5.1157553E-02;  0.0000000E+00;  3.5374019E-02;  2.1302991E+03;
  8.7748575E-01;  9.9999998E-03; -1.0065206E-02;7477; -2.8977118E-02;  0.0000000E+00; -4.0748570E-04;  9.9995477E+02;  1.8267842E-01; -3.7480419E+01;3;  3.2161372E+00;  0.0000000E+00;  4.1589427E-01;0; -2.5591552E-02;  1.2168978E+04;  0.0000000E+00; -5.4490175E-03;  4.0000000E+04;  0.0000000E+00;  3.9579754E+04; -6.5565094E-02;  0.0000000E+00;  3.9973542E-02;  9.4141779E+02;
  8.7748772E-01;  9.9999998E-03;  2.1187644E-08;7478; -2.9008579E-02;  0.0000000E+00;  1.1496581E-07;  9.9996503E+02;  1.8268086E-01; -2.8986832E+01;3;  3.2184525E+00;  0.0000000E+00;  2.1012034E-05;0; -2.5734134E-02;  1.2169141E+04;  0.0000000E+00; -4.9367430E-11;  4.0000000E+04;  0.0000000E+00;  3.9579859E+04; -6.5696724E-02;  0.0000000E+00;  3.9962590E-02;  9.3655676E+02;
  8.7748575E-01;  9.9999998E-03;  1.0065248E-02;7479; -2.8977122E-02;  0.0000000E+00;  4.0771547E-04;  9.9995465E+02;  1.8267727E-01; -3.7579182E+01;3;  3.2161119E+00;  0.0000000E+00; -4.1584656E-01;0; -2.5591597E-02;  1.2168975E+04;  0.0000000E+00; -5.4487092E-03;  4.0000000E+04;  0.0000000E+00;  3.9579750E+04; -6.5565139E-02;  0.0000000E+00;  3.9973542E-02;  9.4143604E+02;
  8.7747985E-01;  9.9999998E-03; -2.0121872E-02;7476; -2.8887419E-02;  0.0000000E+00; -8.0390519E-04;  9.9991187E+02;  1.8267116E-01; -7.3034966E+01;3;  3.1971784E+00;  0.0000000E+00;  7.7977580E-01;0; -2.5169626E-02;  1.2168369E+04;  0.0000000E+00; -2.2072464E-02;  4.0000000E+04;  0.0000000E+00;  3.9579797E+04; -6.5170653E-02;  0.0000000E+00;  4.0001027E-02;  9.6223767E+02;
  8.7747979E-01;  9.9999998E-03;  2.0121917E-02;7480; -2.8887428E-02;  0.0000000E+00;  8.0413488E-04;  9.9991180E+02;  1.8267068E-01; -7.3084351E+01;3;  3.1972179E+00;  0.0000000E+00; -7.7973354E-01;0; -2.5169648E-02;  1.2168373E+04;  0.0000000E+00; -2.2071496E-02;  4.0000000E+04;  0.0000000E+00;  3.9579797E+04; -6.5170623E-02;  0.0000000E+00;  4.0000975E-02;  9.6225970E+02;
  8.7747061E-01;  9.9999998E-03; -3.0168958E-02;7475; -2.8743517E-02;  0.0000000E+00; -1.1924159E-03;  9.9984790E+02;  1.8265873E-01; -1.2602112E+02;3;  3.1536312E+00;  0.0000000E+00;  1.1659632E+00;0; -2.4483383E-02;  1.2167374E+04;  0.0000000E+00; -5.0712988E-02;  4.0000000E+04;  0.0000000E+00;  3.9579168E+04; -6.4511776E-02;  0.0000000E+00;  4.0028393E-02;  1.0110333E+03;
  8.7747061E-01;  9.9999998E-03;  3.0169005E-02;7481; -2.8743530E-02;  0.0000000E+00;  1.1926473E-03;  9.9984802E+02;  1.8265796E-01; -1.2592236E+02;3;  3.1536562E+00;  0.0000000E+00; -1.1659302E+00;0; -2.4483431E-02;  1.2167373E+04;  0.0000000E+00; -5.0710991E-02;  4.0000000E+04;  0.0000000E+00;  3.9579168E+04; -6.4511798E-02;  0.0000000E+00;  4.0028367E-02;  1.0110564E+03;
  8.7745982E-01;  9.9999998E-03; -4.0211722E-02;7474; -2.8542517E-02;  0.0000000E+00; -1.5834569E-03;  9.9976227E+02;  1.8264259E-01; -1.9693269E+02;3;  3.0963008E+00;  0.0000000E+00;  1.5731295E+00;0; -2.3554839E-02;  1.2165945E+04;  0.0000000E+00; -9.2769630E-02;  4.0000000E+04;  0.0000000E+00;  3.9578816E+04; -6.3583814E-02;  0.0000000E+00;  4.0028974E-02;  1.0910040E+03;
  8.7745982E-01;  9.9999998E-03;  4.0211774E-02;7482; -2.8542534E-02;  0.0000000E+00;  1.5836938E-03;  9.9976221E+02;  1.8264277E-01; -1.9703145E+02;3;  3.0963509E+00;  0.0000000E+00; -1.5730983E+00;0; -2.3554999E-02;  1.2165943E+04;  0.0000000E+00; -9.2767917E-02;  4.0000000E+04;  0.0000000E+00;  3.9578816E+04; -6.3583903E-02;  0.0000000E+00;  4.0028904E-02;  1.0910200E+03;
  8.7744915E-01;  9.9999998E-03; -5.0259341E-02;7473; -2.8287925E-02;  0.0000000E+00; -1.9742190E-03;  9.9967261E+02;  1.8262477E-01; -2.7125156E+02;3;  3.0242703E+00;  0.0000000E+00;  1.9660219E+00;0; -2.2415437E-02;  1.2164019E+04;  0.0000000E+00; -1.4986564E-01;  4.0000000E+04;  0.0000000E+00;  3.9578016E+04; -6.2383000E-02;  0.0000000E+00;  3.9967563E-02;  1.1867207E+03;
  8.7744915E-01;  9.9999998E-03;  5.0259393E-02;7483; -2.8287947E-02;  0.0000000E+00;  1.9744590E-03;  9.9967267E+02;  1.8262464E-01; -2.7120218E+02;3;  3.0243104E+00;  0.0000000E+00; -1.9659903E+00;0; -2.2415537E-02;  1.2164015E+04;  0.0000000E+00; -1.4986351E-01;  4.0000000E+04;  0.0000000E+00;  3.9578012E+04; -6.2383011E-02;  0.0000000E+00;  3.9967474E-02;  1.1867291E+03;
  8.7744373E-01;  9.9999998E-03; -6.0324561E-02;7472; -2.7982449E-02;  0.0000000E+00; -2.3665838E-03;  9.9959308E+02;  1.8260607E-01; -3.3712625E+02;3;  2.9465399E+00;  0.0000000E+00;  2.3622866E+00;0; -2.1102104E-02;  1.2161486E+04;  0.0000000E+00; -2.2272617E-01;  4.0000000E+04;  0.0000000E+00;  3.9577977E+04; -6.0905825E-02;  0.0000000E+00;  3.9803721E-02;  1.2693171E+03;
  8.7744373E-01;  9.9999998E-03;  6.0324617E-02;7484; -2.7982475E-02;  0.0000000E+00;  2.3668271E-03;  9.9959302E+02;  1.8260576E-01; -3.3717563E+02;3;  2.9466136E+00;  0.0000000E+00; -2.3622622E+00;0; -2.1102257E-02;  1.2161489E+04;  0.0000000E+00; -2.2271661E-01;  4.0000000E+04;  0.0000000E+00;  3.9577992E+04; -6.0905840E-02;  0.0000000E+00;  3.9803583E-02;  1.2693533E+03;
  8.7745565E-01;  9.9999998E-03; -7.0419766E-02;7471; -2.7635420E-02;  0.0000000E+00; -2.7546475E-03;  9.9953369E+02;  1.8259536E-01; -3.8631003E+02;3;  2.8562799E+00;  0.0000000E+00;  2.7377665E+00;0; -1.9658029E-02;  1.2157582E+04;  0.0000000E+00; -3.0940795E-01;  4.0000000E+04;  0.0000000E+00;  3.9578371E+04; -5.9153020E-02;  0.0000000E+00;  3.9494991E-02;  1.3188718E+03;
  8.7750667E-01;  9.9999998E-03; -8.0534771E-02;7470; -2.7249865E-02;  0.0000000E+00; -3.1536047E-03;  9.9950641E+02;  1.8260330E-01; -4.0892667E+02;3;  2.7491429E+00;  0.0000000E+00;  3.1002049E+00;0; -1.8132035E-02;  1.2151193E+04;  0.0000000E+00; -4.0377852E-01;  4.0000000E+04;  0.0000000E+00;  3.9579391E+04; -5.7131696E-02;  0.0000000E+00;  3.8999662E-02;  1.3464661E+03;
  8.7761992E-01;  9.9999998E-03; -9.0628192E-02;7469; -2.6829446E-02;  0.0000000E+00; -3.5640041E-03;  9.9950684E+02;  1.8264383E-01; -4.0858099E+02;3;  2.6484239E+00;  0.0000000E+00;  3.4650013E+00;0; -1.6578324E-02;  1.2140953E+04;  0.0000000E+00; -4.9542534E-01;  4.0000000E+04;  0.0000000E+00;  3.9580723E+04; -5.4861762E-02;  0.0000000E+00;  3.8283437E-02;  1.3674041E+03;
  8.7776697E-01;  9.9999998E-03; -1.0069745E-01;7468; -2.6375053E-02;  0.0000000E+00; -3.9861551E-03;  9.9953595E+02;  1.8270196E-01; -3.8443353E+02;3;  2.5499818E+00;  0.0000000E+00;  3.8089559E+00;0; -1.5041031E-02;  1.2128811E+04;  0.0000000E+00; -5.7215780E-01;  4.0000000E+04;  0.0000000E+00;  3.9581047E+04; -5.2355900E-02;  0.0000000E+00;  3.7314869E-02;  1.3511173E+03;
  8.9676297E-01;  9.9999998E-03; -1.0062297E-01;7529; -2.7357727E-02;  0.0000000E+00; -4.1004377E-03;  9.9957458E+02;  1.9209528E-01; -3.5243442E+02;3;  3.1459355E+00;  0.0000000E+00;  4.0302601E+00;0; -1.4858663E-02;  1.0981109E+04;  0.0000000E+00; -3.9068988E-01;  4.0000000E+04;  0.0000000E+00;  3.9546645E+04; -5.4291025E-02;  0.0000000E+00;  3.9432362E-02;  4.9170151E+02;
  8.9666468E-01;  9.9999998E-03; -9.0569325E-02;7530; -2.7868757E-02;  0.0000000E+00; -3.6344407E-03;  9.9954468E+02;  1.9206275E-01; -3.7722385E+02;3;  3.2733934E+00;  0.0000000E+00;  3.6642103E+00;0; -1.6753055E-02;  1.0989019E+04;  0.0000000E+00; -3.1266126E-01;  4.0000000E+04;  0.0000000E+00;  3.9546547E+04; -5.6963496E-02;  0.0000000E+00;  4.0210441E-02;  5.8135938E+02;
  8.9653420E-01;  9.9999998E-03; -8.0489844E-02;7531; -2.8336929E-02;  0.0000000E+00; -3.1821048E-03;  9.9953271E+02;  1.9201685E-01; -3.8714948E+02;3;  3.4011922E+00;  0.0000000E+00;  3.2617869E+00;0; -1.8643543E-02;  1.0999010E+04;  0.0000000E+00; -2.3576336E-01;  4.0000000E+04;  0.0000000E+00;  3.9545516E+04; -5.9357684E-02;  0.0000000E+00;  4.0714141E-02;  7.2824457E+02;
  8.9639181E-01;  9.9999998E-03; -7.0381463E-02;7532; -2.8758623E-02;  0.0000000E+00; -2.7482065E-03;  9.9955652E+02;  1.9196445E-01; -3.6739697E+02;3;  3.5202227E+00;  0.0000000E+00;  2.8564739E+00;0; -2.0480290E-02;  1.1009780E+04;  0.0000000E+00; -1.6591235E-01;  4.0000000E+04;  0.0000000E+00;  3.9544605E+04; -6.1464664E-02;  0.0000000E+00;  4.0984374E-02;  8.7397620E+02;
  8.9624876E-01;  9.9999998E-03; -6.0293086E-02;7533; -2.9132426E-02;  0.0000000E+00; -2.3225178E-03;  9.9960901E+02;  1.9190937E-01; -3.2394141E+02;3;  3.6199164E+00;  0.0000000E+00;  2.4552181E+00;0; -2.2200827E-02;  1.1020719E+04;  0.0000000E+00; -1.0825199E-01;  4.0000000E+04;  0.0000000E+00;  3.9544125E+04; -6.3271284E-02;  0.0000000E+00;  4.1070458E-02;  9.6243896E+02;
  8.9611220E-01;  9.9999998E-03; -5.0236143E-02;7534; -2.9450309E-02;  0.0000000E+00; -1.9143445E-03;  9.9967834E+02;  1.9185476E-01; -2.6646155E+02;3;  3.7145252E+00;  0.0000000E+00;  2.0573163E+00;0; -2.3752276E-02;  1.1031229E+04;  0.0000000E+00; -6.4907447E-02;  4.0000000E+04;  0.0000000E+00;  3.9544258E+04; -6.4777911E-02;  0.0000000E+00;  4.1025635E-02;  9.8733685E+02;
  8.9598709E-01;  9.9999998E-03; -4.0195994E-02;7535; -2.9711556E-02;  0.0000000E+00; -1.5221573E-03;  9.9975934E+02;  1.9180420E-01; -1.9940173E+02;3;  3.8091292E+00;  0.0000000E+00;  1.6350856E+00;0; -2.5090739E-02;  1.1040916E+04;  0.0000000E+00; -3.5185065E-02;  4.0000000E+04;  0.0000000E+00;  3.9544605E+04; -6.5993242E-02;  0.0000000E+00;  4.0902503E-02;  9.8225421E+02;
  8.9587981E-01;  9.9999998E-03; -3.0159537E-02;7536; -2.9915538E-02;  0.0000000E+00; -1.1433871E-03;  9.9983221E+02;  1.9175810E-01; -1.3900839E+02;3;  3.8499069E+00;  0.0000000E+00;  1.2267215E+00;0; -2.6176762E-02;  1.1049185E+04;  0.0000000E+00; -1.6622145E-02;  4.0000000E+04;  0.0000000E+00;  3.9544895E+04; -6.6926382E-02;  0.0000000E+00;  4.0749621E-02;  9.8140521E+02;
  8.9579713E-01;  9.9999998E-03; -2.0116352E-02;7537; -3.0064035E-02;  0.0000000E+00; -7.5918675E-04;  9.9988953E+02;  1.9172210E-01; -9.1503571E+01;3;  3.8942311E+00;  0.0000000E+00;  8.2204217E-01;0; -2.6978243E-02;  1.1055558E+04;  0.0000000E+00; -6.2647522E-03;  4.0000000E+04;  0.0000000E+00;  3.9544973E+04; -6.7586921E-02;  0.0000000E+00;  4.0608678E-02;  9.9797388E+02;
  8.9574498E-01;  9.9999998E-03; -1.0062464E-02;7538; -3.0153776E-02;  0.0000000E+00; -3.7502617E-04;  9.9992792E+02;  1.9170003E-01; -5.9702007E+01;3;  3.9190717E+00;  0.0000000E+00;  4.1222119E-01;0; -2.7469806E-02;  1.1059529E+04;  0.0000000E+00; -1.3820942E-03;  4.0000000E+04;  0.0000000E+00;  3.9544910E+04; -6.7980587E-02;  0.0000000E+00;  4.0510781E-02;  1.0215425E+03;
  8.9572716E-01;  9.9999998E-03;  2.0917980E-08;7539; -3.0183131E-02;  0.0000000E+00;  1.1903708E-07;  9.9993848E+02;  1.9169252E-01; -5.0961514E+01;3;  3.9424925E+00;  0.0000000E+00;  3.1700416E-05;0; -2.7635589E-02;  1.1060882E+04;  0.0000000E+00;  9.1747616E-12;  4.0000000E+04;  0.0000000E+00;  3.9544707E+04; -6.8111397E-02;  0.0000000E+00;  4.0475808E-02;  1.0325760E+03;
  8.9574498E-01;  9.9999998E-03;  1.0062506E-02;7540; -3.0153777E-02;  0.0000000E+00;  3.7526496E-04;  9.9992798E+02;  1.9169925E-01; -5.9652626E+01;3;  3.9191258E+00;  0.0000000E+00; -4.1216758E-01;0; -2.7469840E-02;  1.1059533E+04;  0.0000000E+00; -1.3811387E-03;  4.0000000E+04;  0.0000000E+00;  3.9544910E+04; -6.7980602E-02;  0.0000000E+00;  4.0510762E-02;  1.0215731E+03;
  8.9579707E-01;  9.9999998E-03;  2.0116394E-02;7541; -3.0064046E-02;  0.0000000E+00;  7.5942691E-04;  9.9988947E+02;  1.9172157E-01; -9.1552956E+01;3;  3.8942111E+00;  0.0000000E+00; -8.2197213E-01;0; -2.6978228E-02;  1.1055558E+04;  0.0000000E+00; -6.2628039E-03;  4.0000000E+04;  0.0000000E+00;  3.9544973E+04; -6.7586906E-02;  0.0000000E+00;  4.0608678E-02;  9.9799811E+02;
  8.9587981E-01;  9.9999998E-03;  3.0159578E-02;7542; -2.9915547E-02;  0.0000000E+00;  1.1436301E-03;  9.9983228E+02;  1.9175796E-01; -1.3895901E+02;3;  3.8499861E+00;  0.0000000E+00; -1.2266790E+00;0; -2.6176728E-02;  1.1049186E+04;  0.0000000E+00; -1.6618453E-02;  4.0000000E+04;  0.0000000E+00;  3.9544895E+04; -6.6926353E-02;  0.0000000E+00;  4.0749624E-02;  9.8142993E+02;
  8.9598709E-01;  9.9999998E-03;  4.0196035E-02;7543; -2.9711571E-02;  0.0000000E+00;  1.5224015E-03;  9.9975964E+02;  1.9180343E-01; -1.9915483E+02;3;  3.8091595E+00;  0.0000000E+00; -1.6350398E+00;0; -2.5090847E-02;  1.1040917E+04;  0.0000000E+00; -3.5181511E-02;  4.0000000E+04;  0.0000000E+00;  3.9544613E+04; -6.5993257E-02;  0.0000000E+00;  4.0902410E-02;  9.8234003E+02;
  8.9611220E-01;  9.9999998E-03;  5.0236188E-02;7544; -2.9450329E-02;  0.0000000E+00;  1.9145970E-03;  9.9967847E+02;  1.9185513E-01; -2.6636279E+02;3;  3.7145743E+00;  0.0000000E+00; -2.0572865E+00;0; -2.3752470E-02;  1.1031232E+04;  0.0000000E+00; -6.4906336E-02;  4.0000000E+04;  0.0000000E+00;  3.9544254E+04; -6.4777963E-02;  0.0000000E+00;  4.1025493E-02;  9.8740112E+02;
  8.9624876E-01;  9.9999998E-03;  6.0293134E-02;7545; -2.9132454E-02;  0.0000000E+00;  2.3227737E-03;  9.9960907E+02;  1.9191025E-01; -3.2389203E+02;3;  3.6199646E+00;  0.0000000E+00; -2.4551945E+00;0; -2.2200976E-02;  1.1020718E+04;  0.0000000E+00; -1.0824733E-01;  4.0000000E+04;  0.0000000E+00;  3.9544121E+04; -6.3271344E-02;  0.0000000E+00;  4.1070368E-02;  9.6240979E+02;
  9.1620380E-01;  9.9999998E-03; -1.0054157E-01;7590; -2.8447697E-02;  0.0000000E+00; -4.1658180E-03;  9.9885492E+02;  2.0211065E-01; -9.4866437E+02;3;  3.8052120E+00;  0.0000000E+00;  4.2377043E+00;0; -1.5513919E-02;  9.9109629E+03;  0.0000000E+00; -2.5789565E-01;  4.0000000E+04;  0.0000000E+00;  3.9511660E+04; -5.6837790E-02;  0.0000000E+00;  4.1323870E-02;  1.2223979E+03;
  9.1624409E-01;  9.9999998E-03; -9.0481564E-02;7591; -2.9026372E-02;  0.0000000E+00; -3.6659555E-03;  9.9880884E+02;  2.0214443E-01; -9.8683612E+02;3;  3.9688554E+00;  0.0000000E+00;  3.8394072E+00;0; -1.7759342E-02;  9.9108311E+03;  0.0000000E+00; -1.7844211E-01;  4.0000000E+04;  0.0000000E+00;  3.9510434E+04; -5.9711754E-02;  0.0000000E+00;  4.1952413E-02;  1.1251489E+03;
  9.1624379E-01;  9.9999998E-03; -8.0403745E-02;7592; -2.9550144E-02;  0.0000000E+00; -3.1853025E-03;  9.9879041E+02;  2.0215556E-01; -1.0021443E+03;3;  4.1324415E+00;  0.0000000E+00;  3.4179659E+00;0; -1.9969847E-02;  9.9134092E+03;  0.0000000E+00; -1.1823469E-01;  4.0000000E+04;  0.0000000E+00;  3.9508695E+04; -6.2266048E-02;  0.0000000E+00;  4.2296201E-02;  1.0653474E+03;
  9.1621327E-01;  9.9999998E-03; -7.0314147E-02;7593; -3.0019622E-02;  0.0000000E+00; -2.7177394E-03;  9.9880298E+02;  2.0214795E-01; -9.9172491E+02;3;  4.2715812E+00;  0.0000000E+00;  3.0015488E+00;0; -2.2091795E-02;  9.9179238E+03;  0.0000000E+00; -7.4092552E-02;  4.0000000E+04;  0.0000000E+00;  3.9507094E+04; -6.4494044E-02;  0.0000000E+00;  4.2402249E-02;  1.0709996E+03;
  9.1615772E-01;  9.9999998E-03; -6.0232453E-02;7594; -3.0425705E-02;  0.0000000E+00; -2.2714927E-03;  9.9883936E+02;  2.0212045E-01; -9.6155292E+02;3;  4.4035707E+00;  0.0000000E+00;  2.5787163E+00;0; -2.4066031E-02;  9.9239395E+03;  0.0000000E+00; -4.2893589E-02;  4.0000000E+04;  0.0000000E+00;  3.9506270E+04; -6.6392116E-02;  0.0000000E+00;  4.2326085E-02;  1.1056603E+03;
  9.1607797E-01;  9.9999998E-03; -5.0175805E-02;7595; -3.0760266E-02;  0.0000000E+00; -1.8621325E-03;  9.9888611E+02;  2.0207667E-01; -9.2283795E+02;3;  4.5214996E+00;  0.0000000E+00;  2.1158018E+00;0; -2.5835965E-02;  9.9311719E+03;  0.0000000E+00; -2.2046667E-02;  4.0000000E+04;  0.0000000E+00;  3.9505711E+04; -6.7963548E-02;  0.0000000E+00;  4.2127583E-02;  1.1327291E+03;
  9.1598237E-01;  9.9999998E-03; -4.0143345E-02;7596; -3.1031689E-02;  0.0000000E+00; -1.4701897E-03;  9.9893805E+02;  2.0202400E-01; -8.7982684E+02;3;  4.6023393E+00;  0.0000000E+00;  1.7083606E+00;0; -2.7353533E-02;  9.9388848E+03;  0.0000000E+00; -9.3721794E-03;  4.0000000E+04;  0.0000000E+00;  3.9505594E+04; -6.9221444E-02;  0.0000000E+00;  4.1867912E-02;  1.1550072E+03;
  9.1588277E-01;  9.9999998E-03; -3.0120144E-02;7597; -3.1243069E-02;  0.0000000E+00; -1.0852645E-03;  9.9898254E+02;  2.0196876E-01; -8.4293903E+02;3;  4.6700296E+00;  0.0000000E+00;  1.2838712E+00;0; -2.8579675E-02;  9.9463027E+03;  0.0000000E+00; -2.8319121E-03;  4.0000000E+04;  0.0000000E+00;  3.9505430E+04; -7.0181228E-02;  0.0000000E+00;  4.1601554E-02;  1.1907495E+03;
  9.1579527E-01;  9.9999998E-03; -2.0093000E-02;7598; -3.1393189E-02;  0.0000000E+00; -7.1251666E-04;  9.9901105E+02;  2.0191830E-01; -8.1933472E+02;3;  4.7264056E+00;  0.0000000E+00;  8.5405773E-01;0; -2.9482383E-02;  9.9523623E+03;  0.0000000E+00; -3.6683120E-04;  4.0000000E+04;  0.0000000E+00;  3.9505230E+04; -7.0856735E-02;  0.0000000E+00;  4.1374352E-02;  1.2423175E+03;
  9.1573524E-01;  9.9999998E-03; -1.0052629E-02;7599; -3.1481370E-02;  0.0000000E+00; -3.5602506E-04;  9.9902844E+02;  2.0188560E-01; -8.0491541E+02;3;  4.7588758E+00;  0.0000000E+00;  4.0794435E-01;0; -3.0035619E-02;  9.9564619E+03;  0.0000000E+00;  5.6263409E-05;  4.0000000E+04;  0.0000000E+00;  3.9504801E+04; -7.1257941E-02;  0.0000000E+00;  4.1222323E-02;  1.2915519E+03;
  9.1571414E-01;  9.9999998E-03;  2.3549756E-08;7600; -3.1510524E-02;  0.0000000E+00;  1.2972662E-07;  9.9903210E+02;  2.0187350E-01; -8.0190314E+02;3;  4.7585635E+00;  0.0000000E+00;  3.2669828E-05;0; -3.0222081E-02;  9.9578721E+03;  0.0000000E+00;  8.9149819E-11;  4.0000000E+04;  0.0000000E+00;  3.9504852E+04; -7.1391098E-02;  0.0000000E+00;  4.1169018E-02;  1.3120966E+03;
  9.1573530E-01;  9.9999998E-03;  1.0052674E-02;7601; -3.1481374E-02;  0.0000000E+00;  3.5628348E-04;  9.9902838E+02;  2.0188569E-01; -8.0496478E+02;3;  4.7589145E+00;  0.0000000E+00; -4.0787598E-01;0; -3.0035652E-02;  9.9564600E+03;  0.0000000E+00;  5.8351423E-05;  4.0000000E+04;  0.0000000E+00;  3.9504805E+04; -7.1257964E-02;  0.0000000E+00;  4.1222312E-02;  1.2915596E+03;
  9.1579527E-01;  9.9999998E-03;  2.0093042E-02;7602; -3.1393200E-02;  0.0000000E+00;  7.1277347E-04;  9.9901117E+02;  2.0191811E-01; -8.1923596E+02;3;  4.7263718E+00;  0.0000000E+00; -8.5398006E-01;0; -2.9482428E-02;  9.9523594E+03;  0.0000000E+00; -3.6329561E-04;  4.0000000E+04;  0.0000000E+00;  3.9505230E+04; -7.0856735E-02;  0.0000000E+00;  4.1374307E-02;  1.2423672E+03;
  9.1588277E-01;  9.9999998E-03;  3.0120188E-02;7603; -3.1243082E-02;  0.0000000E+00;  1.0855233E-03;  9.9898267E+02;  2.0196845E-01; -8.4284021E+02;3;  4.6700482E+00;  0.0000000E+00; -1.2837937E+00;0; -2.8579775E-02;  9.9463037E+03;  0.0000000E+00; -2.8279335E-03;  4.0000000E+04;  0.0000000E+00;  3.9505430E+04; -7.0181265E-02;  0.0000000E+00;  4.1601490E-02;  1.1908069E+03;
  9.1598237E-01;  9.9999998E-03;  4.0143389E-02;7604; -3.1031705E-02;  0.0000000E+00;  1.4704510E-03;  9.9893805E+02;  2.0202400E-01; -8.7982684E+02;3;  4.6023655E+00;  0.0000000E+00; -1.7082835E+00;0; -2.7353618E-02;  9.9388799E+03;  0.0000000E+00; -9.3669826E-03;  4.0000000E+04;  0.0000000E+00;  3.9505582E+04; -6.9221400E-02;  0.0000000E+00;  4.1867781E-02;  1.1550927E+03;
  9.1607803E-01;  9.9999998E-03;  5.0175853E-02;7605; -3.0760286E-02;  0.0000000E+00;  1.8623929E-03;  9.9888623E+02;  2.0207827E-01; -9.2273920E+02;3;  4.5215654E+00;  0.0000000E+00; -2.1157532E+00;0; -2.5836244E-02;  9.9311680E+03;  0.0000000E+00; -2.2042757E-02;  4.0000000E+04;  0.0000000E+00;  3.9505715E+04; -6.7963712E-02;  0.0000000E+00;  4.2127468E-02;  1.1327563E+03;
  9.1615772E-01;  9.9999998E-03;  6.0232498E-02;7606; -3.0425731E-02;  0.0000000E+00;  2.2717493E-03;  9.9883954E+02;  2.0212132E-01; -9.6140479E+02;3;  4.4036393E+00;  0.0000000E+00; -2.5786941E+00;0; -2.4066228E-02;  9.9239346E+03;  0.0000000E+00; -4.2888831E-02;  4.0000000E+04;  0.0000000E+00;  3.9506262E+04; -6.6392161E-02;  0.0000000E+00;  4.2325933E-02;  1.1057228E+03;
  9.3813962E-01;  9.9999998E-03; -1.0078532E-01;7651; -2.9788148E-02;  0.0000000E+00; -4.2046406E-03;  9.9834576E+02;  2.1385376E-01; -1.3704795E+03;3;  4.5848722E+00;  0.0000000E+00;  4.3639603E+00;0; -1.6906582E-02;  8.8489033E+03;  0.0000000E+00; -1.8746156E-01;  4.0000000E+04;  0.0000000E+00;  3.9472754E+04; -5.9652958E-02;  0.0000000E+00;  4.2746376E-02;  2.4653679E+03;
  9.3826652E-01;  9.9999998E-03; -9.0735279E-02;7652; -3.0438386E-02;  0.0000000E+00; -3.6849892E-03;  9.9828784E+02;  2.1394137E-01; -1.4184780E+03;3;  4.7844882E+00;  0.0000000E+00;  3.9779496E+00;0; -1.9485842E-02;  8.8431992E+03;  0.0000000E+00; -1.0115942E-01;  4.0000000E+04;  0.0000000E+00;  3.9469852E+04; -6.2814713E-02;  0.0000000E+00;  4.3328870E-02;  2.3059832E+03;
  9.3829584E-01;  9.9999998E-03; -8.0667794E-02;7653; -3.1017518E-02;  0.0000000E+00; -3.1904033E-03;  9.9824402E+02;  2.1397349E-01; -1.4547733E+03;3;  4.9791951E+00;  0.0000000E+00;  3.5665607E+00;0; -2.1989815E-02;  8.8425449E+03;  0.0000000E+00; -5.0945822E-02;  4.0000000E+04;  0.0000000E+00;  3.9467180E+04; -6.5616980E-02;  0.0000000E+00;  4.3627165E-02;  2.0325704E+03;
  9.3824953E-01;  9.9999998E-03; -7.0580877E-02;7654; -3.1530287E-02;  0.0000000E+00; -2.7075142E-03;  9.9822003E+02;  2.1395503E-01; -1.4746740E+03;3;  5.1691990E+00;  0.0000000E+00;  3.1214266E+00;0; -2.4363205E-02;  8.8456221E+03;  0.0000000E+00; -2.6875630E-02;  4.0000000E+04;  0.0000000E+00;  3.9464637E+04; -6.8053238E-02;  0.0000000E+00;  4.3690033E-02;  1.7775646E+03;
  9.3815470E-01;  9.9999998E-03; -6.0494181E-02;7655; -3.1954993E-02;  0.0000000E+00; -2.2777342E-03;  9.9820074E+02;  2.1390797E-01; -1.4906241E+03;3;  5.3255315E+00;  0.0000000E+00;  2.6837111E+00;0; -2.6550759E-02;  8.8511826E+03;  0.0000000E+00; -1.7305847E-02;  4.0000000E+04;  0.0000000E+00;  3.9462473E+04; -7.0123479E-02;  0.0000000E+00;  4.3572720E-02;  1.6237832E+03;
  9.3802589E-01;  9.9999998E-03; -5.0408714E-02;7656; -3.2304354E-02;  0.0000000E+00; -1.8691767E-03;  9.9818634E+02;  2.1383262E-01; -1.5025745E+03;3;  5.4472060E+00;  0.0000000E+00;  2.2434044E+00;0; -2.8496545E-02;  8.8583018E+03;  0.0000000E+00; -1.3282311E-02;  4.0000000E+04;  0.0000000E+00;  3.9461566E+04; -7.1837068E-02;  0.0000000E+00;  4.3340523E-02;  1.5697017E+03;
  9.3788952E-01;  9.9999998E-03; -4.0328473E-02;7657; -3.2585494E-02;  0.0000000E+00; -1.4709810E-03;  9.9817633E+02;  2.1375206E-01; -1.5108705E+03;3;  5.5544329E+00;  0.0000000E+00;  1.7973636E+00;0; -3.0155033E-02;  8.8656572E+03;  0.0000000E+00; -1.0165661E-02;  4.0000000E+04;  0.0000000E+00;  3.9461051E+04; -7.3209450E-02;  0.0000000E+00;  4.3054417E-02;  1.5736514E+03;
  9.3776876E-01;  9.9999998E-03; -3.0253820E-02;7658; -3.2799859E-02;  0.0000000E+00; -1.0848696E-03;  9.9816217E+02;  2.1367694E-01; -1.5226233E+03;3;  5.6384459E+00;  0.0000000E+00;  1.3325846E+00;0; -3.1488780E-02;  8.8721045E+03;  0.0000000E+00; -6.7232302E-03;  4.0000000E+04;  0.0000000E+00;  3.9460578E+04; -7.4257448E-02;  0.0000000E+00;  4.2768668E-02;  1.6039221E+03;
  9.3767059E-01;  9.9999998E-03; -2.0179234E-02;7659; -3.2949891E-02;  0.0000000E+00; -7.0828776E-04;  9.9814496E+02;  2.1361400E-01; -1.5368451E+03;3;  5.6914673E+00;  0.0000000E+00;  8.8351440E-01;0; -3.2465979E-02;  8.8772803E+03;  0.0000000E+00; -3.3672359E-03;  4.0000000E+04;  0.0000000E+00;  3.9460438E+04; -7.4994653E-02;  0.0000000E+00;  4.2528674E-02;  1.6449336E+03;
  9.3760616E-01;  9.9999998E-03; -1.0095523E-02;7660; -3.3034999E-02;  0.0000000E+00; -3.5329582E-04;  9.9812866E+02;  2.1357404E-01; -1.5503756E+03;3;  5.7399220E+00;  0.0000000E+00;  4.3254834E-01;0; -3.3063319E-02;  8.8806240E+03;  0.0000000E+00; -9.0530142E-04;  4.0000000E+04;  0.0000000E+00;  3.9460352E+04; -7.5432636E-02;  0.0000000E+00;  4.2369317E-02;  1.6820265E+03;
  9.3758327E-01;  9.9999998E-03;  2.6557540E-08;7661; -3.3064134E-02;  0.0000000E+00;  1.4273964E-07;  9.9812463E+02;  2.1355975E-01; -1.5536841E+03;3;  5.7564635E+00;  0.0000000E+00;  3.9346960E-05;0; -3.3264246E-02;  8.8818252E+03;  0.0000000E+00;  1.0866075E-10;  4.0000000E+04;  0.0000000E+00;  3.9460082E+04; -7.5577863E-02;  0.0000000E+00;  4.2313617E-02;  1.6974910E+03;
  9.3760616E-01;  9.9999998E-03;  1.0095575E-02;7662; -3.3035006E-02;  0.0000000E+00;  3.5358060E-04;  9.9812842E+02;  2.1357359E-01; -1.5505731E+03;3;  5.7398643E+00;  0.0000000E+00; -4.3246782E-01;0; -3.3063285E-02;  8.8806240E+03;  0.0000000E+00; -9.0356410E-04;  4.0000000E+04;  0.0000000E+00;  3.9460352E+04; -7.5432591E-02;  0.0000000E+00;  4.2369306E-02;  1.6820405E+03;
  9.3767059E-01;  9.9999998E-03;  2.0179285E-02;7663; -3.2949898E-02;  0.0000000E+00;  7.0856937E-04;  9.9814478E+02;  2.1361414E-01; -1.5370426E+03;3;  5.6915517E+00;  0.0000000E+00; -8.8345498E-01;0; -3.2466032E-02;  8.8772803E+03;  0.0000000E+00; -3.3639194E-03;  4.0000000E+04;  0.0000000E+00;  3.9460434E+04; -7.4994661E-02;  0.0000000E+00;  4.2528629E-02;  1.6449167E+03;
  9.3776876E-01;  9.9999998E-03;  3.0253867E-02;7664; -3.2799874E-02;  0.0000000E+00;  1.0851463E-03;  9.9816223E+02;  2.1367694E-01; -1.5225739E+03;3;  5.6384239E+00;  0.0000000E+00; -1.3325086E+00;0; -3.1488877E-02;  8.8721035E+03;  0.0000000E+00; -6.7194621E-03;  4.0000000E+04;  0.0000000E+00;  3.9460574E+04; -7.4257448E-02;  0.0000000E+00;  4.2768572E-02;  1.6039479E+03;
  9.3788952E-01;  9.9999998E-03;  4.0328518E-02;7665; -3.2585517E-02;  0.0000000E+00;  1.4712540E-03;  9.9817615E+02;  2.1375221E-01; -1.5110187E+03;3;  5.5544682E+00;  0.0000000E+00; -1.7972866E+00;0; -3.0155148E-02;  8.8656572E+03;  0.0000000E+00; -1.0163506E-02;  4.0000000E+04;  0.0000000E+00;  3.9461039E+04; -7.3209457E-02;  0.0000000E+00;  4.3054309E-02;  1.5736503E+03;
  9.3802595E-01;  9.9999998E-03;  5.0408758E-02;7666; -3.2304380E-02;  0.0000000E+00;  1.8694487E-03;  9.9818610E+02;  2.1383323E-01; -1.5027720E+03;3;  5.4471421E+00;  0.0000000E+00; -2.2433479E+00;0; -2.8496776E-02;  8.8583027E+03;  0.0000000E+00; -1.3281563E-02;  4.0000000E+04;  0.0000000E+00;  3.9461570E+04; -7.1837164E-02;  0.0000000E+00;  4.3340389E-02;  1.5696802E+03;
  9.3815470E-01;  9.9999998E-03;  6.0494225E-02;7667; -3.1955022E-02;  0.0000000E+00;  2.2779990E-03;  9.9820087E+02;  2.1390826E-01; -1.4905254E+03;3;  5.3255868E+00;  0.0000000E+00; -2.6836925E+00;0; -2.6550960E-02;  8.8511846E+03;  0.0000000E+00; -1.7305646E-02;  4.0000000E+04;  0.0000000E+00;  3.9462473E+04; -7.0123531E-02;  0.0000000E+00;  4.3572571E-02;  1.6237960E+03;
  9.6045226E-01;  9.9999998E-03; -1.0085842E-01;7712; -3.1311419E-02;  0.0000000E+00; -4.2723431E-03;  9.9816968E+02;  2.2637635E-01; -1.5164010E+03;3;  5.4249563E+00;  0.0000000E+00;  4.4753475E+00;0; -1.8215563E-02;  7.9009453E+03;  0.0000000E+00; -2.0309162E-01;  4.0000000E+04;  0.0000000E+00;  3.9430453E+04; -6.1435945E-02;  0.0000000E+00;  4.3220382E-02;  3.4464097E+03;
  9.6054339E-01;  9.9999998E-03; -9.0787083E-02;7713; -3.2029219E-02;  0.0000000E+00; -3.7559913E-03;  9.9812445E+02;  2.2644012E-01; -1.5538320E+03;3;  5.6676679E+00;  0.0000000E+00;  4.1008773E+00;0; -2.1118101E-02;  7.8968540E+03;  0.0000000E+00; -9.3342744E-02;  4.0000000E+04;  0.0000000E+00;  3.9427043E+04; -6.5065742E-02;  0.0000000E+00;  4.3947641E-02;  3.4068960E+03;
  9.6055102E-01;  9.9999998E-03; -8.0706216E-02;7714; -3.2663558E-02;  0.0000000E+00; -3.2613361E-03;  9.9808740E+02;  2.2645108E-01; -1.5845472E+03;3;  5.9071593E+00;  0.0000000E+00;  3.6642315E+00;0; -2.3899935E-02;  7.8966543E+03;  0.0000000E+00; -3.0657867E-02;  4.0000000E+04;  0.0000000E+00;  3.9423668E+04; -6.8303145E-02;  0.0000000E+00;  4.4403210E-02;  3.1167261E+03;
  9.6050376E-01;  9.9999998E-03; -7.0608824E-02;7715; -3.3209011E-02;  0.0000000E+00; -2.7981533E-03;  9.9806293E+02;  2.2642414E-01; -1.6048429E+03;3;  6.1345530E+00;  0.0000000E+00;  3.2020166E+00;0; -2.6506130E-02;  7.8991289E+03;  0.0000000E+00; -5.1392172E-03;  4.0000000E+04;  0.0000000E+00;  3.9420527E+04; -7.1136884E-02;  0.0000000E+00;  4.4630755E-02;  2.7172725E+03;
  9.6041936E-01;  9.9999998E-03; -6.0503494E-02;7716; -3.3662494E-02;  0.0000000E+00; -2.3733440E-03;  9.9804407E+02;  2.2636850E-01; -1.6204474E+03;3;  6.3171782E+00;  0.0000000E+00;  2.7752254E+00;0; -2.8880142E-02;  7.9034507E+03;  0.0000000E+00; -5.8843719E-04;  4.0000000E+04;  0.0000000E+00;  3.9418457E+04; -7.3563412E-02;  0.0000000E+00;  4.4683270E-02;  2.3440869E+03;
  9.6032554E-01;  9.9999998E-03; -5.0406054E-02;7717; -3.4031834E-02;  0.0000000E+00; -1.9646233E-03;  9.9803192E+02;  2.2630379E-01; -1.6305211E+03;3;  6.4750228E+00;  0.0000000E+00;  2.3098881E+00;0; -3.0968923E-02;  7.9082266E+03;  0.0000000E+00; -3.2297680E-03;  4.0000000E+04;  0.0000000E+00;  3.9417719E+04; -7.5587250E-02;  0.0000000E+00;  4.4618327E-02;  2.0691809E+03;
  9.6024221E-01;  9.9999998E-03; -4.0316645E-02;7718; -3.4328759E-02;  0.0000000E+00; -1.5585886E-03;  9.9801978E+02;  2.2624078E-01; -1.6405950E+03;3;  6.6123881E+00;  0.0000000E+00;  1.8967367E+00;0; -3.2731541E-02;  7.9125581E+03;  0.0000000E+00; -5.4609249E-03;  4.0000000E+04;  0.0000000E+00;  3.9417398E+04; -7.7220656E-02;  0.0000000E+00;  4.4489115E-02;  1.8949972E+03;
  9.6017522E-01;  9.9999998E-03; -3.0234138E-02;7719; -3.4553893E-02;  0.0000000E+00; -1.1650663E-03;  9.9801019E+02;  2.2618656E-01; -1.6484960E+03;3;  6.7155104E+00;  0.0000000E+00;  1.4092705E+00;0; -3.4136049E-02;  7.9161514E+03;  0.0000000E+00; -5.1543647E-03;  4.0000000E+04;  0.0000000E+00;  3.9417559E+04; -7.8476660E-02;  0.0000000E+00;  4.4340611E-02;  1.7956838E+03;
  9.6012384E-01;  9.9999998E-03; -2.0156130E-02;7720; -3.4708418E-02;  0.0000000E+00; -7.7225495E-04;  9.9799792E+02;  2.2614424E-01; -1.6586685E+03;3;  6.7840867E+00;  0.0000000E+00;  8.9257640E-01;0; -3.5157125E-02;  7.9188467E+03;  0.0000000E+00; -3.0638434E-03;  4.0000000E+04;  0.0000000E+00;  3.9417887E+04; -7.9365946E-02;  0.0000000E+00;  4.4208821E-02;  1.7449125E+03;
  9.6009159E-01;  9.9999998E-03; -1.0078992E-02;7721; -3.4795828E-02;  0.0000000E+00; -3.8848550E-04;  9.9798730E+02;  2.2611763E-01; -1.6674584E+03;3;  6.8273315E+00;  0.0000000E+00;  4.4753844E-01;0; -3.5777614E-02;  7.9205566E+03;  0.0000000E+00; -8.8705658E-04;  4.0000000E+04;  0.0000000E+00;  3.9418047E+04; -7.9897083E-02;  0.0000000E+00;  4.4119470E-02;  1.7231901E+03;
  9.6008033E-01;  9.9999998E-03;  2.7098123E-08;7722; -3.4825046E-02;  0.0000000E+00;  1.5061940E-07;  9.9798175E+02;  2.2610785E-01; -1.6721002E+03;3;  6.8349133E+00;  0.0000000E+00;  3.4478842E-05;0; -3.5985462E-02;  7.9211279E+03;  0.0000000E+00;  1.1295652E-12;  4.0000000E+04;  0.0000000E+00;  3.9417891E+04; -8.0073528E-02;  0.0000000E+00;  4.4088066E-02;  1.7176360E+03;
  9.6009159E-01;  9.9999998E-03;  1.0079047E-02;7723; -3.4795832E-02;  0.0000000E+00;  3.8878602E-04;  9.9798724E+02;  2.2611780E-01; -1.6675078E+03;3;  6.8274317E+00;  0.0000000E+00; -4.4747341E-01;0; -3.5777658E-02;  7.9205581E+03;  0.0000000E+00; -8.8890636E-04;  4.0000000E+04;  0.0000000E+00;  3.9418043E+04; -7.9897121E-02;  0.0000000E+00;  4.4119462E-02;  1.7231776E+03;
  9.6012384E-01;  9.9999998E-03;  2.0156184E-02;7724; -3.4708429E-02;  0.0000000E+00;  7.7255105E-04;  9.9799805E+02;  2.2614533E-01; -1.6585697E+03;3;  6.7841148E+00;  0.0000000E+00; -8.9250928E-01;0; -3.5157204E-02;  7.9188438E+03;  0.0000000E+00; -3.0682152E-03;  4.0000000E+04;  0.0000000E+00;  3.9417887E+04; -7.9365969E-02;  0.0000000E+00;  4.4208765E-02;  1.7448962E+03;
  9.6017522E-01;  9.9999998E-03;  3.0234188E-02;7725; -3.4553912E-02;  0.0000000E+00;  1.1653547E-03;  9.9801013E+02;  2.2618659E-01; -1.6485453E+03;3;  6.7154188E+00;  0.0000000E+00; -1.4092118E+00;0; -3.4136210E-02;  7.9161499E+03;  0.0000000E+00; -5.1620738E-03;  4.0000000E+04;  0.0000000E+00;  3.9417566E+04; -7.8476720E-02;  0.0000000E+00;  4.4340510E-02;  1.7957102E+03;
  9.6024221E-01;  9.9999998E-03;  4.0316690E-02;7726; -3.4328781E-02;  0.0000000E+00;  1.5588735E-03;  9.9801984E+02;  2.2624016E-01; -1.6405455E+03;3;  6.6124144E+00;  0.0000000E+00; -1.8966988E+00;0; -3.2731615E-02;  7.9125610E+03;  0.0000000E+00; -5.4730573E-03;  4.0000000E+04;  0.0000000E+00;  3.9417398E+04; -7.7220649E-02;  0.0000000E+00;  4.4489034E-02;  1.8950288E+03;
  9.6032554E-01;  9.9999998E-03;  5.0406102E-02;7727; -3.4031861E-02;  0.0000000E+00;  1.9649058E-03;  9.9803180E+02;  2.2630385E-01; -1.6306199E+03;3;  6.4749184E+00;  0.0000000E+00; -2.3098335E+00;0; -3.0969158E-02;  7.9082295E+03;  0.0000000E+00; -3.2442403E-03;  4.0000000E+04;  0.0000000E+00;  3.9417723E+04; -7.5587340E-02;  0.0000000E+00;  4.4618182E-02;  2.0692095E+03;
  9.6041936E-01;  9.9999998E-03;  6.0503535E-02;7728; -3.3662528E-02;  0.0000000E+00;  2.3736246E-03;  9.9804388E+02;  2.2636801E-01; -1.6205956E+03;3;  6.3171535E+00;  0.0000000E+00; -2.7751946E+00;0; -2.8880391E-02;  7.9034541E+03;  0.0000000E+00; -6.0742308E-04;  4.0000000E+04;  0.0000000E+00;  3.9418457E+04; -7.3563471E-02;  0.0000000E+00;  4.4683080E-02;  2.3440757E+03;
  9.8318660E-01;  9.9999998E-03; -1.0078525E-01;7773; -3.2954898E-02;  0.0000000E+00; -4.4192583E-03;  9.9801154E+02;  2.3968737E-01; -1.6474094E+03;3;  6.3330331E+00;  0.0000000E+00;  4.5011706E+00;0; -1.7945502E-02;  7.0534590E+03;  0.0000000E+00; -3.8380173E-01;  4.0000000E+04;  0.0000000E+00;  3.9386852E+04; -6.0831010E-02;  0.0000000E+00;  4.2885508E-02;  3.5587864E+03;
  9.8355365E-01;  9.9999998E-03; -9.0707287E-02;7774; -3.3763699E-02;  0.0000000E+00; -3.9287438E-03;  9.9799628E+02;  2.3991559E-01; -1.6600510E+03;3;  6.6422267E+00;  0.0000000E+00;  4.0889378E+00;0; -2.1306675E-02;  7.0394087E+03;  0.0000000E+00; -2.5808743E-01;  4.0000000E+04;  0.0000000E+00;  3.9382973E+04; -6.5259703E-02;  0.0000000E+00;  4.3953028E-02;  3.6426035E+03;
  9.8383957E-01;  9.9999998E-03; -8.0626704E-02;7775; -3.4478229E-02;  0.0000000E+00; -3.4570133E-03;  9.9800073E+02;  2.4009280E-01; -1.6563474E+03;3;  6.9340067E+00;  0.0000000E+00;  3.6841583E+00;0; -2.4501793E-02;  7.0289282E+03;  0.0000000E+00; -1.7040163E-01;  4.0000000E+04;  0.0000000E+00;  3.9379363E+04; -6.9269367E-02;  0.0000000E+00;  4.4767573E-02;  3.4366475E+03;
  9.8403496E-01;  9.9999998E-03; -7.0539340E-02;7776; -3.5079934E-02;  0.0000000E+00; -3.0262712E-03;  9.9801947E+02;  2.4020717E-01; -1.6408418E+03;3;  7.1970124E+00;  0.0000000E+00;  3.2759187E+00;0; -2.7464677E-02;  7.0222075E+03;  0.0000000E+00; -1.1620476E-01;  4.0000000E+04;  0.0000000E+00;  3.9376355E+04; -7.2832942E-02;  0.0000000E+00;  4.5368265E-02;  3.0491072E+03;
  9.8416436E-01;  9.9999998E-03; -6.0442481E-02;7777; -3.5589121E-02;  0.0000000E+00; -2.6059600E-03;  9.9805377E+02;  2.4027984E-01; -1.6123981E+03;3;  7.4535146E+00;  0.0000000E+00;  2.8099244E+00;0; -3.0134004E-02;  7.0181455E+03;  0.0000000E+00; -8.3112180E-02;  4.0000000E+04;  0.0000000E+00;  3.9374102E+04; -7.5931557E-02;  0.0000000E+00;  4.5797553E-02;  2.6066631E+03;
  9.8425192E-01;  9.9999998E-03; -5.0352402E-02;7778; -3.6006339E-02;  0.0000000E+00; -2.1875801E-03;  9.9809381E+02;  2.4032235E-01; -1.5792633E+03;3;  7.6301866E+00;  0.0000000E+00;  2.3580561E+00;0; -3.2457083E-02;  7.0158223E+03;  0.0000000E+00; -5.9901971E-02;  4.0000000E+04;  0.0000000E+00;  3.9373445E+04; -7.8554288E-02;  0.0000000E+00;  4.6097204E-02;  2.2001826E+03;
  9.8432684E-01;  9.9999998E-03; -4.0277973E-02;7779; -3.6337566E-02;  0.0000000E+00; -1.7652451E-03;  9.9813477E+02;  2.4035589E-01; -1.5452889E+03;3;  7.8053193E+00;  0.0000000E+00;  1.8989210E+00;0; -3.4396201E-02;  7.0140029E+03;  0.0000000E+00; -4.0543273E-02;  4.0000000E+04;  0.0000000E+00;  3.9373496E+04; -8.0700241E-02;  0.0000000E+00;  4.6304040E-02;  1.8700516E+03;
  9.8439711E-01;  9.9999998E-03; -3.0213021E-02;7780; -3.6594324E-02;  0.0000000E+00; -1.3368488E-03;  9.9817841E+02;  2.4038753E-01; -1.5091418E+03;3;  7.9337912E+00;  0.0000000E+00;  1.4212371E+00;0; -3.5925429E-02;  7.0123193E+03;  0.0000000E+00; -2.3891209E-02;  4.0000000E+04;  0.0000000E+00;  3.9373930E+04; -8.2371272E-02;  0.0000000E+00;  4.6445843E-02;  1.6243300E+03;
  9.8445523E-01;  9.9999998E-03; -2.0144835E-02;7781; -3.6770295E-02;  0.0000000E+00; -9.0086961E-04;  9.9821649E+02;  2.4041288E-01; -1.4775872E+03;3;  8.0260296E+00;  0.0000000E+00;  9.4602865E-01;0; -3.7030708E-02;  7.0109585E+03;  0.0000000E+00; -1.0930023E-02;  4.0000000E+04;  0.0000000E+00;  3.9374711E+04; -8.3570331E-02;  0.0000000E+00;  4.6539623E-02;  1.4596172E+03;
  9.8449725E-01;  9.9999998E-03; -1.0073175E-02;7782; -3.6873803E-02;  0.0000000E+00; -4.6140171E-04;  9.9823773E+02;  2.4043177E-01; -1.4600074E+03;3;  8.0762129E+00;  0.0000000E+00;  4.8425868E-01;0; -3.7698653E-02;  7.0098784E+03;  0.0000000E+00; -2.7606636E-03;  4.0000000E+04;  0.0000000E+00;  3.9375441E+04; -8.4293112E-02;  0.0000000E+00;  4.6594460E-02;  1.3690485E+03;
  9.8451227E-01;  9.9999998E-03;  2.4860803E-08;7783; -3.6908485E-02;  0.0000000E+00;  1.5381251E-07;  9.9824652E+02;  2.4043748E-01; -1.4526990E+03;3;  8.0950994E+00;  0.0000000E+00;  2.9789890E-05;0; -3.7921861E-02;  7.0095039E+03;  0.0000000E+00; -2.0195016E-10;  4.0000000E+04;  0.0000000E+00;  3.9375422E+04; -8.4534429E-02;  0.0000000E+00;  4.6612568E-02;  1.3408966E+03;
  9.8449725E-01;  9.9999998E-03;  1.0073225E-02;7784; -3.6873810E-02;  0.0000000E+00;  4.6170808E-04;  9.9823798E+02;  2.4043140E-01; -1.4598099E+03;3;  8.0762272E+00;  0.0000000E+00; -4.8419872E-01;0; -3.7698667E-02;  7.0098779E+03;  0.0000000E+00; -2.7677494E-03;  4.0000000E+04;  0.0000000E+00;  3.9375438E+04; -8.4293142E-02;  0.0000000E+00;  4.6594474E-02;  1.3690369E+03;
  9.8445529E-01;  9.9999998E-03;  2.0144887E-02;7785; -3.6770310E-02;  0.0000000E+00;  9.0117479E-04;  9.9821649E+02;  2.4041229E-01; -1.4775872E+03;3;  8.0260038E+00;  0.0000000E+00; -9.4596195E-01;0; -3.7030749E-02;  7.0109595E+03;  0.0000000E+00; -1.0944375E-02;  4.0000000E+04;  0.0000000E+00;  3.9374707E+04; -8.3570324E-02;  0.0000000E+00;  4.6539575E-02;  1.4596110E+03;
  9.8439711E-01;  9.9999998E-03;  3.0213071E-02;7786; -3.6594339E-02;  0.0000000E+00;  1.3371498E-03;  9.9817834E+02;  2.4038756E-01; -1.5091912E+03;3;  7.9338236E+00;  0.0000000E+00; -1.4211949E+00;0; -3.5925515E-02;  7.0123174E+03;  0.0000000E+00; -2.3912717E-02;  4.0000000E+04;  0.0000000E+00;  3.9373930E+04; -8.2371287E-02;  0.0000000E+00;  4.6445772E-02;  1.6243328E+03;
  9.8432678E-01;  9.9999998E-03;  4.0278021E-02;7787; -3.6337588E-02;  0.0000000E+00;  1.7655384E-03;  9.9813446E+02;  2.4035542E-01; -1.5455852E+03;3;  7.8052869E+00;  0.0000000E+00; -1.8988781E+00;0; -3.4396317E-02;  7.0140044E+03;  0.0000000E+00; -4.0572841E-02;  4.0000000E+04;  0.0000000E+00;  3.9373504E+04; -8.0700271E-02;  0.0000000E+00;  4.6303954E-02;  1.8700945E+03;
  9.8425186E-01;  9.9999998E-03;  5.0352447E-02;7788; -3.6006376E-02;  0.0000000E+00;  2.1878704E-03;  9.9809381E+02;  2.4032296E-01; -1.5792633E+03;3;  7.6300616E+00;  0.0000000E+00; -2.3580246E+00;0; -3.2457307E-02;  7.0158208E+03;  0.0000000E+00; -5.9941251E-02;  4.0000000E+04;  0.0000000E+00;  3.9373438E+04; -7.8554370E-02;  0.0000000E+00;  4.6097063E-02;  2.2001809E+03;
  9.8416430E-01;  9.9999998E-03;  6.0442530E-02;7789; -3.5589159E-02;  0.0000000E+00;  2.6062545E-03;  9.9805377E+02;  2.4027985E-01; -1.6123981E+03;3;  7.4535303E+00;  0.0000000E+00; -2.8098917E+00;0; -3.0134164E-02;  7.0181401E+03;  0.0000000E+00; -8.3158359E-02;  4.0000000E+04;  0.0000000E+00;  3.9374090E+04; -7.5931557E-02;  0.0000000E+00;  4.5797393E-02;  2.6066321E+03;
  1.0080842E+00;  9.9999998E-03; -1.0072096E-01;7834; -3.4667127E-02;  0.0000000E+00; -4.6814838E-03;  9.9787006E+02;  2.5490135E-01; -1.7646404E+03;3;  7.3576279E+00;  0.0000000E+00;  4.3598938E+00;0; -1.4323860E-02;  6.2442168E+03;  0.0000000E+00; -6.1003214E-01;  4.0000000E+04;  0.0000000E+00;  3.9339688E+04; -5.6681059E-02;  0.0000000E+00;  4.2357199E-02;  2.4107002E+03;
  1.0085405E+00;  9.9999998E-03; -9.0652712E-02;7835; -3.5582963E-02;  0.0000000E+00; -4.2232196E-03;  9.9786139E+02;  2.5518996E-01; -1.7718007E+03;3;  7.7400203E+00;  0.0000000E+00;  3.9921830E+00;0; -1.8641442E-02;  6.2284561E+03;  0.0000000E+00; -5.0879496E-01;  4.0000000E+04;  0.0000000E+00;  3.9336750E+04; -6.2477220E-02;  0.0000000E+00;  4.3835778E-02;  2.3241499E+03;
  1.0088253E+00;  9.9999998E-03; -8.0577254E-02;7836; -3.6392551E-02;  0.0000000E+00; -3.7708499E-03;  9.9786658E+02;  2.5536448E-01; -1.7675045E+03;3;  8.1155863E+00;  0.0000000E+00;  3.5519297E+00;0; -2.2716232E-02;  6.2186323E+03;  0.0000000E+00; -4.1532826E-01;  4.0000000E+04;  0.0000000E+00;  3.9333641E+04; -6.7775398E-02;  0.0000000E+00;  4.5059167E-02;  2.1390679E+03;
  1.0090271E+00;  9.9999998E-03; -7.0500650E-02;7837; -3.7086017E-02;  0.0000000E+00; -3.3481808E-03;  9.9788013E+02;  2.5548649E-01; -1.7562949E+03;3;  8.3875246E+00;  0.0000000E+00;  3.2172043E+00;0; -2.6444733E-02;  6.2117715E+03;  0.0000000E+00; -3.3094612E-01;  4.0000000E+04;  0.0000000E+00;  3.9331348E+04; -7.2512321E-02;  0.0000000E+00;  4.6067588E-02;  1.9184773E+03;
  1.0092320E+00;  9.9999998E-03; -1.0075327E-02;7843; -3.9168190E-02;  0.0000000E+00; -5.4101687E-04;  9.9796094E+02;  2.5559199E-01; -1.6893339E+03;3;  9.4052210E+00;  0.0000000E+00;  4.7145879E-01;0; -3.8977914E-02;  6.2042393E+03;  0.0000000E+00; -7.5308662E-03;  4.0000000E+04;  0.0000000E+00;  3.9334141E+04; -8.8011071E-02;  0.0000000E+00;  4.9033158E-02;  7.3694629E+02;
  1.0092432E+00;  9.9999998E-03;  2.3486576E-08;7844; -3.9213955E-02;  0.0000000E+00;  1.5565668E-07;  9.9796460E+02;  2.5559810E-01; -1.6862723E+03;3;  9.4244671E+00;  0.0000000E+00;  1.9952862E-05;0; -3.9244670E-02;  6.2038696E+03;  0.0000000E+00; -4.1300530E-10;  4.0000000E+04;  0.0000000E+00;  3.9334586E+04; -8.8341877E-02;  0.0000000E+00;  4.9097206E-02;  6.9254639E+02;
  1.0092319E+00;  9.9999998E-03;  1.0075375E-02;7845; -3.9168198E-02;  0.0000000E+00;  5.4132892E-04;  9.9796112E+02;  2.5559205E-01; -1.6891858E+03;3;  9.4051542E+00;  0.0000000E+00; -4.7141480E-01;0; -3.8977996E-02;  6.2042402E+03;  0.0000000E+00; -7.5392425E-03;  4.0000000E+04;  0.0000000E+00;  3.9334145E+04; -8.8011101E-02;  0.0000000E+00;  4.9033105E-02;  7.3695801E+02;
  1.0092058E+00;  9.9999998E-03; -2.0145712E-02;7842; -3.9043758E-02;  0.0000000E+00; -1.0681449E-03;  9.9795056E+02;  2.5557488E-01; -1.6979263E+03;3;  9.3457193E+00;  0.0000000E+00;  9.1938996E-01;0; -3.8176492E-02;  6.2051377E+03;  0.0000000E+00; -3.0152917E-02;  4.0000000E+04;  0.0000000E+00;  3.9333180E+04; -8.7020241E-02;  0.0000000E+00;  4.8843749E-02;  8.6467615E+02;
  1.0092058E+00;  9.9999998E-03;  2.0145763E-02;7846; -3.9043773E-02;  0.0000000E+00;  1.0684571E-03;  9.9795056E+02;  2.5557584E-01; -1.6979263E+03;3;  9.3457308E+00;  0.0000000E+00; -9.1933483E-01;0; -3.8176555E-02;  6.2051396E+03;  0.0000000E+00; -3.0169973E-02;  4.0000000E+04;  0.0000000E+00;  3.9333184E+04; -8.7020263E-02;  0.0000000E+00;  4.8843708E-02;  8.6471149E+02;
  1.0091820E+00;  9.9999998E-03; -3.0210869E-02;7841; -3.8829688E-02;  0.0000000E+00; -1.5799940E-03;  9.9793732E+02;  2.5556359E-01; -1.7088889E+03;3;  9.2401581E+00;  0.0000000E+00;  1.4255719E+00;0; -3.6846813E-02;  6.2060122E+03;  0.0000000E+00; -6.7638531E-02;  4.0000000E+04;  0.0000000E+00;  3.9332102E+04; -8.5382529E-02;  0.0000000E+00;  4.8535716E-02;  1.0559949E+03;
  1.0091820E+00;  9.9999998E-03;  3.0210916E-02;7847; -3.8829707E-02;  0.0000000E+00;  1.5803028E-03;  9.9793719E+02;  2.5556409E-01; -1.7089877E+03;3;  9.2401390E+00;  0.0000000E+00; -1.4255487E+00;0; -3.6847007E-02;  6.2060137E+03;  0.0000000E+00; -6.7664795E-02;  4.0000000E+04;  0.0000000E+00;  3.9332094E+04; -8.5382648E-02;  0.0000000E+00;  4.8535641E-02;  1.0560023E+03;
  1.0091826E+00;  9.9999998E-03; -4.0281445E-02;7840; -3.8528852E-02;  0.0000000E+00; -2.0574022E-03;  9.9792383E+02;  2.5556859E-01; -1.7200491E+03;3;  9.0920906E+00;  0.0000000E+00;  1.8765137E+00;0; -3.4993809E-02;  6.2061636E+03;  0.0000000E+00; -1.1895093E-01;  4.0000000E+04;  0.0000000E+00;  3.9330719E+04; -8.3105929E-02;  0.0000000E+00;  4.8112120E-02;  1.2794480E+03;
  1.0091826E+00;  9.9999998E-03;  4.0281489E-02;7848; -3.8528886E-02;  0.0000000E+00;  2.0577069E-03;  9.9792365E+02;  2.5556898E-01; -1.7201973E+03;3;  9.0920782E+00;  0.0000000E+00; -1.8764716E+00;0; -3.4994010E-02;  6.2061631E+03;  0.0000000E+00; -1.1898568E-01;  4.0000000E+04;  0.0000000E+00;  3.9330719E+04; -8.3105981E-02;  0.0000000E+00;  4.8111971E-02;  1.2794844E+03;
  1.0091815E+00;  9.9999998E-03; -6.0430072E-02;7838; -3.7665516E-02;  0.0000000E+00; -2.9400573E-03;  9.9790167E+02;  2.5557840E-01; -1.7384189E+03;3;  8.6907768E+00;  0.0000000E+00;  2.7298625E+00;0; -2.9761855E-02;  6.2066045E+03;  0.0000000E+00; -2.5340766E-01;  4.0000000E+04;  0.0000000E+00;  3.9329988E+04; -7.6658316E-02;  0.0000000E+00;  4.6896461E-02;  1.7066503E+03;
  1.0091815E+00;  9.9999998E-03;  6.0430132E-02;7850; -3.7665553E-02;  0.0000000E+00;  2.9403779E-03;  9.9790234E+02;  2.5557950E-01; -1.7378757E+03;3;  8.6907692E+00;  0.0000000E+00; -2.7298343E+00;0; -2.9762067E-02;  6.2066060E+03;  0.0000000E+00; -2.5345650E-01;  4.0000000E+04;  0.0000000E+00;  3.9329984E+04; -7.6658383E-02;  0.0000000E+00;  4.6896316E-02;  1.7066338E+03;
  1.0092021E+00;  9.9999998E-03; -5.0358232E-02;7839; -3.8144067E-02;  0.0000000E+00; -2.5129630E-03;  9.9791492E+02;  2.5558695E-01; -1.7274563E+03;3;  8.8975239E+00;  0.0000000E+00;  2.3212955E+00;0; -3.2624245E-02;  6.2057295E+03;  0.0000000E+00; -1.8190186E-01;  4.0000000E+04;  0.0000000E+00;  3.9329898E+04; -8.0194868E-02;  0.0000000E+00;  4.7570623E-02;  1.5010703E+03;
  1.0092021E+00;  9.9999998E-03;  5.0358284E-02;7849; -3.8144100E-02;  0.0000000E+00;  2.5132706E-03;  9.9791522E+02;  2.5558656E-01; -1.7272094E+03;3;  8.8974705E+00;  0.0000000E+00; -2.3212745E+00;0; -3.2624479E-02;  6.2057290E+03;  0.0000000E+00; -1.8194366E-01;  4.0000000E+04;  0.0000000E+00;  3.9329895E+04; -8.0194920E-02;  0.0000000E+00;  4.7570441E-02;  1.5011117E+03;
  1.0338137E+00;  9.9999998E-03;  2.6801477E-08;7905; -4.1689001E-02;  0.0000000E+00;  1.6368696E-07;  9.9777765E+02;  2.7118197E-01; -1.8411808E+03;3;  1.0796004E+01;  0.0000000E+00;  9.8117453E-06;0; -4.2143427E-02;  5.5176631E+03;  0.0000000E+00; -4.7538928E-10;  4.0000000E+04;  0.0000000E+00;  3.9296227E+04; -9.2129692E-02;  0.0000000E+00;  4.9986266E-02;  1.8935710E+02;
  1.0338336E+00;  9.9999998E-03; -1.0066441E-02;7904; -4.1636527E-02;  0.0000000E+00; -6.3493714E-04;  9.9779254E+02;  2.7119082E-01; -1.8288354E+03;3;  1.0787210E+01;  0.0000000E+00;  4.5978642E-01;0; -4.1799203E-02;  5.5174185E+03;  0.0000000E+00; -7.0625879E-03;  4.0000000E+04;  0.0000000E+00;  3.9295711E+04; -9.1704823E-02;  0.0000000E+00;  4.9905621E-02;  1.3587990E+02;
  1.0338336E+00;  9.9999998E-03;  1.0066493E-02;7906; -4.1636538E-02;  0.0000000E+00;  6.3526456E-04;  9.9779266E+02;  2.7119184E-01; -1.8287367E+03;3;  1.0787223E+01;  0.0000000E+00; -4.5976120E-01;0; -4.1799322E-02;  5.5174155E+03;  0.0000000E+00; -7.0640412E-03;  4.0000000E+04;  0.0000000E+00;  3.9295703E+04; -9.1704883E-02;  0.0000000E+00;  4.9905561E-02;  1.3585500E+02;
  1.0338964E+00;  9.9999998E-03; -2.0131426E-02;7903; -4.1477382E-02;  0.0000000E+00; -1.2350356E-03;  9.9783112E+02;  2.7123022E-01; -1.7968859E+03;3;  1.0715477E+01;  0.0000000E+00;  8.5816348E-01;0; -4.0766392E-02;  5.5165840E+03;  0.0000000E+00; -2.8288107E-02;  4.0000000E+04;  0.0000000E+00;  3.9294676E+04; -9.0433381E-02;  0.0000000E+00;  4.9666990E-02;  1.5726582E+01;
  1.0338966E+00;  9.9999998E-03;  2.0131474E-02;7907; -4.1477397E-02;  0.0000000E+00;  1.2353600E-03;  9.9783112E+02;  2.7123022E-01; -1.7968859E+03;3;  1.0715525E+01;  0.0000000E+00; -8.5813552E-01;0; -4.0766515E-02;  5.5165786E+03;  0.0000000E+00; -2.8291596E-02;  4.0000000E+04;  0.0000000E+00;  3.9294672E+04; -9.0433419E-02;  0.0000000E+00;  4.9666904E-02;  1.5795249E+01;
  1.0340068E+00;  9.9999998E-03; -3.0200504E-02;7902; -4.1206442E-02;  0.0000000E+00; -1.8019532E-03;  9.9789148E+02;  2.7129573E-01; -1.7468625E+03;3;  1.0606632E+01;  0.0000000E+00;  1.3027184E+00;0; -3.9040137E-02;  5.5148721E+03;  0.0000000E+00; -6.3607752E-02;  4.0000000E+04;  0.0000000E+00;  3.9292668E+04; -8.8321455E-02;  0.0000000E+00;  4.9281318E-02;  2.2676393E+02;
  1.0340068E+00;  9.9999998E-03;  3.0200554E-02;7908; -4.1206457E-02;  0.0000000E+00;  1.8022833E-03;  9.9789166E+02;  2.7129602E-01; -1.7467145E+03;3;  1.0606622E+01;  0.0000000E+00; -1.3026977E+00;0; -3.9040320E-02;  5.5148687E+03;  0.0000000E+00; -6.3613541E-02;  4.0000000E+04;  0.0000000E+00;  3.9292668E+04; -8.8321507E-02;  0.0000000E+00;  4.9281187E-02;  2.2681021E+02;
  1.0341721E+00;  9.9999998E-03; -4.0281311E-02;7901; -4.0826473E-02;  0.0000000E+00; -2.3517853E-03;  9.9796881E+02;  2.7140015E-01; -1.6828151E+03;3;  1.0475713E+01;  0.0000000E+00;  1.6701820E+00;0; -3.6612436E-02;  5.5119160E+03;  0.0000000E+00; -1.1244255E-01;  4.0000000E+04;  0.0000000E+00;  3.9290578E+04; -8.5375346E-02;  0.0000000E+00;  4.8762910E-02;  4.5295184E+02;
  1.0341721E+00;  9.9999998E-03;  4.0281367E-02;7909; -4.0826496E-02;  0.0000000E+00;  2.3521176E-03;  9.9796906E+02;  2.7140051E-01; -1.6826176E+03;3;  1.0475616E+01;  0.0000000E+00; -1.6701628E+00;0; -3.6612652E-02;  5.5119146E+03;  0.0000000E+00; -1.1244962E-01;  4.0000000E+04;  0.0000000E+00;  3.9290578E+04; -8.5375443E-02;  0.0000000E+00;  4.8762791E-02;  4.5296683E+02;
  1.0343906E+00;  9.9999998E-03; -5.0365258E-02;7900; -4.0346801E-02;  0.0000000E+00; -2.8609601E-03;  9.9804376E+02;  2.7154389E-01; -1.6206935E+03;3;  1.0232265E+01;  0.0000000E+00;  2.1586385E+00;0; -3.3482578E-02;  5.5075439E+03;  0.0000000E+00; -1.7322569E-01;  4.0000000E+04;  0.0000000E+00;  3.9289051E+04; -8.1603140E-02;  0.0000000E+00;  4.8120562E-02;  6.3102777E+02;
  1.0343906E+00;  9.9999998E-03;  5.0365314E-02;7910; -4.0346831E-02;  0.0000000E+00;  2.8612895E-03;  9.9804388E+02;  2.7154461E-01; -1.6205947E+03;3;  1.0232263E+01;  0.0000000E+00; -2.1586437E+00;0; -3.3482749E-02;  5.5075464E+03;  0.0000000E+00; -1.7323752E-01;  4.0000000E+04;  0.0000000E+00;  3.9289039E+04; -8.1603199E-02;  0.0000000E+00;  4.8120450E-02;  6.3111145E+02;
  1.0346525E+00;  9.9999998E-03; -6.0443077E-02;7899; -3.9765794E-02;  0.0000000E+00; -3.3157696E-03;  9.9811279E+02;  2.7171794E-01; -1.5635099E+03;3;  1.0017867E+01;  0.0000000E+00;  2.5317426E+00;0; -2.9657960E-02;  5.5018799E+03;  0.0000000E+00; -2.4314462E-01;  4.0000000E+04;  0.0000000E+00;  3.9288203E+04; -7.7010006E-02;  0.0000000E+00;  4.7352046E-02;  7.1990503E+02;
  1.0346525E+00;  9.9999998E-03;  6.0443133E-02;7911; -3.9765831E-02;  0.0000000E+00;  3.3160981E-03;  9.9811279E+02;  2.7171925E-01; -1.5635099E+03;3;  1.0017779E+01;  0.0000000E+00; -2.5317161E+00;0; -2.9658150E-02;  5.5018765E+03;  0.0000000E+00; -2.4315749E-01;  4.0000000E+04;  0.0000000E+00;  3.9288203E+04; -7.7010080E-02;  0.0000000E+00;  4.7351930E-02;  7.1993250E+02;
  1.0346990E+00;  9.9999998E-03; -1.0074295E-01;7895; -3.6204875E-02;  0.0000000E+00; -5.1096808E-03;  9.9814203E+02;  2.7178705E-01; -1.5393131E+03;3;  8.5941286E+00;  0.0000000E+00;  4.0400486E+00;0; -7.8929588E-03;  5.5054507E+03;  0.0000000E+00; -5.5027753E-01;  4.0000000E+04;  0.0000000E+00;  3.9291234E+04; -5.0494656E-02;  0.0000000E+00;  4.2601697E-02;  1.2096199E+03;
  1.0349088E+00;  9.9999998E-03; -7.0523113E-02;7898; -3.9073031E-02;  0.0000000E+00; -3.7612906E-03;  9.9816370E+02;  2.7189627E-01; -1.5213383E+03;3;  9.7256031E+00;  0.0000000E+00;  2.9013684E+00;0; -2.5134884E-02;  5.4961914E+03;  0.0000000E+00; -3.1870973E-01;  4.0000000E+04;  0.0000000E+00;  3.9287957E+04; -7.1587816E-02;  0.0000000E+00;  4.6452932E-02;  7.4138788E+02;
  1.0350283E+00;  9.9999998E-03; -9.0677783E-02;7896; -3.7273403E-02;  0.0000000E+00; -4.6805968E-03;  9.9816949E+02;  2.7200022E-01; -1.5165483E+03;3;  9.0182877E+00;  0.0000000E+00;  3.6019940E+00;0; -1.4146052E-02;  5.4950889E+03;  0.0000000E+00; -4.7441632E-01;  4.0000000E+04;  0.0000000E+00;  3.9289676E+04; -5.8284745E-02;  0.0000000E+00;  4.4138692E-02;  9.1567651E+02;
  1.0350695E+00;  9.9999998E-03; -8.0603100E-02;7897; -3.8240436E-02;  0.0000000E+00; -4.2173434E-03;  9.9818170E+02;  2.7201694E-01; -1.5064252E+03;3;  9.4421968E+00;  0.0000000E+00;  3.2410583E+00;0; -1.9938972E-02;  5.4929092E+03;  0.0000000E+00; -3.9661831E-01;  4.0000000E+04;  0.0000000E+00;  3.9288422E+04; -6.5337308E-02;  0.0000000E+00;  4.5398336E-02;  7.7326477E+02;
  1.0623224E+00;  9.9999998E-03; -1.0084693E-02;7965; -4.4511542E-02;  0.0000000E+00; -6.6161650E-04;  9.9861157E+02;  2.8998756E-01; -1.1502869E+03;3;  1.2371030E+01;  0.0000000E+00;  3.0328888E-01;0; -5.1790807E-02;  4.8421133E+03;  0.0000000E+00;  2.1144417E-03;  4.0000000E+04;  0.0000000E+00;  3.9251668E+04; -9.7801603E-02;  0.0000000E+00;  4.6010796E-02;  1.0362089E+03;
  1.0623533E+00;  9.9999998E-03;  3.3465763E-08;7966; -4.4591952E-02;  0.0000000E+00;  1.7838892E-07;  9.9859229E+02;  2.9001608E-01; -1.1662864E+03;3;  1.2409000E+01;  0.0000000E+00;  3.0901574E-06;0; -5.2270409E-02;  4.8409292E+03;  0.0000000E+00; -3.7098558E-10;  4.0000000E+04;  0.0000000E+00;  3.9252176E+04; -9.8316178E-02;  0.0000000E+00;  4.6045769E-02;  1.1047063E+03;
  1.0623224E+00;  9.9999998E-03;  1.0084758E-02;7967; -4.4511553E-02;  0.0000000E+00;  6.6197256E-04;  9.9861139E+02;  2.8998539E-01; -1.1504351E+03;3;  1.2371056E+01;  0.0000000E+00; -3.0328301E-01;0; -5.1790781E-02;  4.8421152E+03;  0.0000000E+00;  2.1275950E-03;  4.0000000E+04;  0.0000000E+00;  3.9251664E+04; -9.7801551E-02;  0.0000000E+00;  4.6010770E-02;  1.0362198E+03;
  1.0622661E+00;  9.9999998E-03; -2.0164737E-02;7964; -4.4274617E-02;  0.0000000E+00; -1.3080949E-03;  9.9866052E+02;  2.8992894E-01; -1.1097449E+03;3;  1.2293714E+01;  0.0000000E+00;  6.6345555E-01;0; -5.0370723E-02;  4.8446685E+03;  0.0000000E+00;  8.2152365E-03;  4.0000000E+04;  0.0000000E+00;  3.9250582E+04; -9.6272022E-02;  0.0000000E+00;  4.5901299E-02;  8.5196539E+02;
  1.0622662E+00;  9.9999998E-03;  2.0164801E-02;7968; -4.4274632E-02;  0.0000000E+00;  1.3084498E-03;  9.9866058E+02;  2.8992987E-01; -1.1096956E+03;3;  1.2293700E+01;  0.0000000E+00; -6.6345465E-01;0; -5.0370928E-02;  4.8446689E+03;  0.0000000E+00;  8.2415268E-03;  4.0000000E+04;  0.0000000E+00;  3.9250578E+04; -9.6272156E-02;  0.0000000E+00;  4.5901228E-02;  8.5197974E+02;
  1.0622042E+00;  9.9999998E-03; -3.0239122E-02;7963; -4.3896992E-02;  0.0000000E+00; -1.9240042E-03;  9.9873376E+02;  2.8985733E-01; -1.0490553E+03;3;  1.2170599E+01;  0.0000000E+00;  1.0151118E+00;0; -4.8018288E-02;  4.8479819E+03;  0.0000000E+00;  1.7373836E-02;  4.0000000E+04;  0.0000000E+00;  3.9248332E+04; -9.3745679E-02;  0.0000000E+00;  4.5727391E-02;  6.2504236E+02;
  1.0622042E+00;  9.9999998E-03;  3.0239180E-02;7969; -4.3897022E-02;  0.0000000E+00;  1.9243511E-03;  9.9873352E+02;  2.8985682E-01; -1.0492528E+03;3;  1.2170595E+01;  0.0000000E+00; -1.0151190E+00;0; -4.8018452E-02;  4.8479824E+03;  0.0000000E+00;  1.7410135E-02;  4.0000000E+04;  0.0000000E+00;  3.9248332E+04; -9.3745768E-02;  0.0000000E+00;  4.5727316E-02;  6.2502466E+02;
  1.0621446E+00;  9.9999998E-03; -4.0316068E-02;7962; -4.3371744E-02;  0.0000000E+00; -2.5093714E-03;  9.9881885E+02;  2.8978211E-01; -9.7853888E+02;3;  1.2029243E+01;  0.0000000E+00;  1.2995149E+00;0; -4.4720970E-02;  4.8516538E+03;  0.0000000E+00;  2.7557015E-02;  4.0000000E+04;  0.0000000E+00;  3.9246395E+04; -9.0229668E-02;  0.0000000E+00;  4.5508698E-02;  5.2407782E+02;
  1.0621448E+00;  9.9999998E-03;  4.0316131E-02;7970; -4.3371785E-02;  0.0000000E+00;  2.5097148E-03;  9.9881866E+02;  2.8978229E-01; -9.7873645E+02;3;  1.2029165E+01;  0.0000000E+00; -1.2995180E+00;0; -4.4721100E-02;  4.8516538E+03;  0.0000000E+00;  2.7600531E-02;  4.0000000E+04;  0.0000000E+00;  3.9246395E+04; -9.0229720E-02;  0.0000000E+00;  4.5508619E-02;  5.2410620E+02;
  1.0621107E+00;  9.9999998E-03; -5.0403833E-02;7961; -4.2704891E-02;  0.0000000E+00; -3.0659421E-03;  9.9890753E+02;  2.8972107E-01; -9.0510895E+02;3;  1.1809967E+01;  0.0000000E+00;  1.6259357E+00;0; -4.0471755E-02;  4.8548359E+03;  0.0000000E+00;  3.5210602E-02;  4.0000000E+04;  0.0000000E+00;  3.9244316E+04; -8.5733242E-02;  0.0000000E+00;  4.5261487E-02;  6.6972443E+02;
  1.0621107E+00;  9.9999998E-03;  5.0403897E-02;7971; -4.2704929E-02;  0.0000000E+00;  3.0662897E-03;  9.9890771E+02;  2.8972140E-01; -9.0496082E+02;3;  1.1809936E+01;  0.0000000E+00; -1.6259323E+00;0; -4.0472016E-02;  4.8548379E+03;  0.0000000E+00;  3.5262123E-02;  4.0000000E+04;  0.0000000E+00;  3.9244309E+04; -8.5733391E-02;  0.0000000E+00;  4.5261376E-02;  6.6978638E+02;
  1.0621295E+00;  9.9999998E-03; -6.0493946E-02;7960; -4.1910492E-02;  0.0000000E+00; -3.5843356E-03;  9.9896582E+02;  2.8970692E-01; -8.5681409E+02;3;  1.1540715E+01;  0.0000000E+00;  1.9886992E+00;0; -3.5276368E-02;  4.8565493E+03;  0.0000000E+00;  3.4319416E-02;  4.0000000E+04;  0.0000000E+00;  3.9243137E+04; -8.0268927E-02;  0.0000000E+00;  4.4992559E-02;  8.9906262E+02;
  1.0621295E+00;  9.9999998E-03;  6.0494006E-02;7972; -4.1910533E-02;  0.0000000E+00;  3.5846767E-03;  9.9896570E+02;  2.8970766E-01; -8.5691290E+02;3;  1.1540691E+01;  0.0000000E+00; -1.9886860E+00;0; -3.5276648E-02;  4.8565518E+03;  0.0000000E+00;  3.4378223E-02;  4.0000000E+04;  0.0000000E+00;  3.9243133E+04; -8.0269091E-02;  0.0000000E+00;  4.4992443E-02;  8.9914148E+02;
  1.0623357E+00;  9.9999998E-03; -7.0585757E-02;7959; -4.1002039E-02;  0.0000000E+00; -4.0599774E-03;  9.9900616E+02;  2.8983665E-01; -8.2338300E+02;3;  1.1244656E+01;  0.0000000E+00;  2.3210983E+00;0; -2.9176868E-02;  4.8533672E+03;  0.0000000E+00;  1.7452085E-02;  4.0000000E+04;  0.0000000E+00;  3.9242445E+04; -7.3852882E-02;  0.0000000E+00;  4.4676013E-02;  1.0866725E+03;
  1.0628252E+00;  9.9999998E-03; -8.0679923E-02;7958; -3.9957855E-02;  0.0000000E+00; -4.5365449E-03;  9.9901477E+02;  2.9018649E-01; -8.1622272E+02;3;  1.1017738E+01;  0.0000000E+00;  2.4740417E+00;0; -2.2166885E-02;  4.8429600E+03;  0.0000000E+00; -2.4228875E-02;  4.0000000E+04;  0.0000000E+00;  3.9242207E+04; -6.6458032E-02;  0.0000000E+00;  4.4291146E-02;  1.2131821E+03;
  1.0633078E+00;  9.9999998E-03; -9.0770096E-02;7957; -3.8762372E-02;  0.0000000E+00; -5.0337291E-03;  9.9899402E+02;  2.9054180E-01; -8.3345679E+02;3;  1.0687648E+01;  0.0000000E+00;  2.6988599E+00;0; -1.4144067E-02;  4.8324761E+03;  0.0000000E+00; -1.0317352E-01;  4.0000000E+04;  0.0000000E+00;  3.9242379E+04; -5.7973828E-02;  0.0000000E+00;  4.3829761E-02;  1.2915717E+03;
  1.0638611E+00;  9.9999998E-03; -1.0086485E-01;7956; -3.7420053E-02;  0.0000000E+00; -5.5401302E-03;  9.9895599E+02;  2.9094946E-01; -8.6496191E+02;3;  1.0377659E+01;  0.0000000E+00;  2.8893940E+00;0; -5.1401928E-03;  4.8203936E+03;  0.0000000E+00; -2.2140227E-01;  4.0000000E+04;  0.0000000E+00;  3.9241945E+04; -4.8329245E-02;  0.0000000E+00;  4.3189052E-02;  1.3853464E+03;
  1.0919294E+00;  9.9999998E-03; -1.0111819E-02;8026; -4.7566671E-02;  0.0000000E+00; -5.2779407E-04;  9.9949493E+02;  3.1006506E-01; -4.1845636E+02;3;  1.4030929E+01;  0.0000000E+00;  1.8053991E-01;0; -7.6457649E-02;  4.2498120E+03;  0.0000000E+00;  8.0934670E-03;  4.0000000E+04;  0.0000000E+00;  3.9205633E+04; -1.0838997E-01;  0.0000000E+00;  3.1932313E-02;  1.8220797E+03;
  1.0919237E+00;  9.9999998E-03;  3.8558298E-08;8027; -4.7661297E-02;  0.0000000E+00;  1.9136313E-07;  9.9947614E+02;  3.1006867E-01; -4.3401144E+02;3;  1.4053721E+01;  0.0000000E+00;  2.8890790E-06;0; -7.7014714E-02;  4.2495815E+03;  0.0000000E+00; -1.8833832E-10;  4.0000000E+04;  0.0000000E+00;  3.9206176E+04; -1.0889304E-01;  0.0000000E+00;  3.1878326E-02;  1.8935417E+03;
  1.0919294E+00;  9.9999998E-03;  1.0111893E-02;8028; -4.7566678E-02;  0.0000000E+00;  5.2817538E-04;  9.9949481E+02;  3.1006581E-01; -4.1855511E+02;3;  1.4030860E+01;  0.0000000E+00; -1.8054427E-01;0; -7.6457649E-02;  4.2498115E+03;  0.0000000E+00;  8.1185494E-03;  4.0000000E+04;  0.0000000E+00;  3.9205637E+04; -1.0838997E-01;  0.0000000E+00;  3.1932328E-02;  1.8220992E+03;
  1.0919549E+00;  9.9999998E-03; -2.0216471E-02;8025; -4.7280461E-02;  0.0000000E+00; -1.0502071E-03;  9.9954309E+02;  3.1006694E-01; -3.7855634E+02;3;  1.3969516E+01;  0.0000000E+00;  3.2104224E-01;0; -7.4789375E-02;  4.2503164E+03;  0.0000000E+00;  3.2545142E-02;  4.0000000E+04;  0.0000000E+00;  3.9203926E+04; -1.0688590E-01;  0.0000000E+00;  3.2096524E-02;  1.6350044E+03;
  1.0919549E+00;  9.9999998E-03;  2.0216543E-02;8029; -4.7280479E-02;  0.0000000E+00;  1.0505839E-03;  9.9954303E+02;  3.1006482E-01; -3.7860571E+02;3;  1.3969577E+01;  0.0000000E+00; -3.2105246E-01;0; -7.4789554E-02;  4.2503174E+03;  0.0000000E+00;  3.2594386E-02;  4.0000000E+04;  0.0000000E+00;  3.9203930E+04; -1.0688604E-01;  0.0000000E+00;  3.2096490E-02;  1.6349956E+03;
  1.0920049E+00;  9.9999998E-03; -3.0315952E-02;8024; -4.6804585E-02;  0.0000000E+00; -1.5765767E-03;  9.9960925E+02;  3.1007546E-01; -3.2374319E+02;3;  1.3857590E+01;  0.0000000E+00;  5.0262380E-01;0; -7.1999624E-02;  4.2508159E+03;  0.0000000E+00;  7.3352195E-02;  4.0000000E+04;  0.0000000E+00;  3.9201488E+04; -1.0438970E-01;  0.0000000E+00;  3.2390084E-02;  1.4325320E+03;
  1.0920049E+00;  9.9999998E-03;  3.0316021E-02;8030; -4.6804618E-02;  0.0000000E+00;  1.5769473E-03;  9.9960919E+02;  3.1007534E-01; -3.2379257E+02;3;  1.3857655E+01;  0.0000000E+00; -5.0264120E-01;0; -7.1999788E-02;  4.2508188E+03;  0.0000000E+00;  7.3423803E-02;  4.0000000E+04;  0.0000000E+00;  3.9201488E+04; -1.0438984E-01;  0.0000000E+00;  3.2390047E-02;  1.4325636E+03;
  1.0920717E+00;  9.9999998E-03; -4.0420536E-02;8023; -4.6155270E-02;  0.0000000E+00; -2.0913735E-03;  9.9968347E+02;  3.1008950E-01; -2.6221420E+02;3;  1.3692921E+01;  0.0000000E+00;  7.0043123E-01;0; -6.8057671E-02;  4.2512544E+03;  0.0000000E+00;  1.2862295E-01;  4.0000000E+04;  0.0000000E+00;  3.9198824E+04; -1.0090637E-01;  0.0000000E+00;  3.2848697E-02;  1.4090160E+03;
  1.0920717E+00;  9.9999998E-03;  4.0420599E-02;8031; -4.6155311E-02;  0.0000000E+00;  2.0917386E-03;  9.9968323E+02;  3.1008875E-01; -2.6246112E+02;3;  1.3692956E+01;  0.0000000E+00; -7.0045149E-01;0; -6.8057790E-02;  4.2512524E+03;  0.0000000E+00;  1.2871513E-01;  4.0000000E+04;  0.0000000E+00;  3.9198812E+04; -1.0090647E-01;  0.0000000E+00;  3.2848679E-02;  1.4091071E+03;
  1.0921738E+00;  9.9999998E-03; -5.0541945E-02;8022; -4.5327231E-02;  0.0000000E+00; -2.5857259E-03;  9.9973865E+02;  3.1012517E-01; -2.1653659E+02;3;  1.3534006E+01;  0.0000000E+00;  8.5752535E-01;0; -6.2937982E-02;  4.2510522E+03;  0.0000000E+00;  1.9126993E-01;  4.0000000E+04;  0.0000000E+00;  3.9196496E+04; -9.6431077E-02;  0.0000000E+00;  3.3493094E-02;  1.6863052E+03;
  1.0921738E+00;  9.9999998E-03;  5.0542012E-02;8032; -4.5327276E-02;  0.0000000E+00;  2.5860902E-03;  9.9973901E+02;  3.1012505E-01; -2.1624031E+02;3;  1.3533930E+01;  0.0000000E+00; -8.5750973E-01;0; -6.2938161E-02;  4.2510532E+03;  0.0000000E+00;  1.9138075E-01;  4.0000000E+04;  0.0000000E+00;  3.9196496E+04; -9.6431166E-02;  0.0000000E+00;  3.3493005E-02;  1.6864417E+03;
  1.0923104E+00;  9.9999998E-03; -6.0669485E-02;8021; -4.4324294E-02;  0.0000000E+00; -3.0453703E-03;  9.9976123E+02;  3.1018940E-01; -1.9782112E+02;3;  1.3288364E+01;  0.0000000E+00;  1.0355347E+00;0; -5.6604169E-02;  4.2499028E+03;  0.0000000E+00;  2.4577276E-01;  4.0000000E+04;  0.0000000E+00;  3.9194871E+04; -9.0950586E-02;  0.0000000E+00;  3.4346417E-02;  2.1197017E+03;
  1.0923104E+00;  9.9999998E-03;  6.0669556E-02;8033; -4.4324346E-02;  0.0000000E+00;  3.0457345E-03;  9.9976141E+02;  3.1018934E-01; -1.9767297E+02;3;  1.3288427E+01;  0.0000000E+00; -1.0355105E+00;0; -5.6604333E-02;  4.2499023E+03;  0.0000000E+00;  2.4589665E-01;  4.0000000E+04;  0.0000000E+00;  3.9194871E+04; -9.0950713E-02;  0.0000000E+00;  3.4346379E-02;  2.1198850E+03;
  1.0925556E+00;  9.9999998E-03; -7.0791617E-02;8020; -4.3172378E-02;  0.0000000E+00; -3.4695726E-03;  9.9973834E+02;  3.1034222E-01; -2.1678351E+02;3;  1.3013373E+01;  0.0000000E+00;  1.2274635E+00;0; -4.9113326E-02;  4.2460527E+03;  0.0000000E+00;  2.6874691E-01;  4.0000000E+04;  0.0000000E+00;  3.9194641E+04; -8.4483489E-02;  0.0000000E+00;  3.5370164E-02;  2.4900103E+03;
  1.0929891E+00;  9.9999998E-03; -8.0899984E-02;8019; -4.1857127E-02;  0.0000000E+00; -3.8875036E-03;  9.9965955E+02;  3.1064981E-01; -2.8206546E+02;3;  1.2793453E+01;  0.0000000E+00;  1.2706137E+00;0; -4.0517509E-02;  4.2377700E+03;  0.0000000E+00;  2.3464967E-01;  4.0000000E+04;  0.0000000E+00;  3.9195125E+04; -7.7021144E-02;  0.0000000E+00;  3.6503635E-02;  2.6548955E+03;
  1.0935986E+00;  9.9999998E-03; -9.0997435E-02;8018; -4.0359367E-02;  0.0000000E+00; -4.3439935E-03;  9.9952618E+02;  3.1109762E-01; -3.9253122E+02;3;  1.2552461E+01;  0.0000000E+00;  1.2574894E+00;0; -3.0777272E-02;  4.2254834E+03;  0.0000000E+00;  1.2602855E-01;  4.0000000E+04;  0.0000000E+00;  3.9196152E+04; -6.8476453E-02;  0.0000000E+00;  3.7699182E-02;  2.5831531E+03;
  1.0941573E+00;  9.9999998E-03; -1.0108882E-01;8017; -3.8673323E-02;  0.0000000E+00; -4.8460886E-03;  9.9935992E+02;  3.1150249E-01; -5.3030481E+02;3;  1.2299872E+01;  0.0000000E+00;  1.2922266E+00;0; -1.9675869E-02;  4.2142710E+03;  0.0000000E+00; -5.5939231E-02;  4.0000000E+04;  0.0000000E+00;  3.9197273E+04; -5.8601160E-02;  0.0000000E+00;  3.8925290E-02;  2.3580559E+03;
  1.1250194E+00;  9.9999998E-03; -1.0133004E-02;8087; -5.1437788E-02;  0.0000000E+00; -1.3403641E-04;  9.9891125E+02;  3.3317763E-01; -9.0199597E+02;3;  1.5780688E+01;  0.0000000E+00;  1.3332049E-02;0; -1.2523328E-01;  3.6821609E+03;  0.0000000E+00;  8.7651418E-04;  4.0000000E+04;  0.0000000E+00;  3.9155641E+04; -1.2400120E-01;  0.0000000E+00; -1.2320734E-03;  2.9076184E+03;
  1.1250457E+00;  9.9999998E-03;  4.0717307E-08;8088; -5.1554617E-02;  0.0000000E+00;  2.0251645E-07;  9.9889020E+02;  3.3320686E-01; -9.1942755E+02;3;  1.5805343E+01;  0.0000000E+00;  8.0186874E-07;0; -1.2590818E-01;  3.6813379E+03;  0.0000000E+00;  2.1106167E-10;  4.0000000E+04;  0.0000000E+00;  3.9156008E+04; -1.2442375E-01;  0.0000000E+00; -1.4844354E-03;  2.9860454E+03;
  1.1250193E+00;  9.9999998E-03;  1.0133084E-02;8089; -5.1437795E-02;  0.0000000E+00;  1.3444110E-04;  9.9891132E+02;  3.3317727E-01; -9.0194659E+02;3;  1.5780673E+01;  0.0000000E+00; -1.3332671E-02;0; -1.2523316E-01;  3.6821624E+03;  0.0000000E+00;  8.9566410E-04;  4.0000000E+04;  0.0000000E+00;  3.9155645E+04; -1.2400112E-01;  0.0000000E+00; -1.2320373E-03;  2.9076006E+03;
  1.1249521E+00;  9.9999998E-03; -2.0257430E-02;8086; -5.1090848E-02;  0.0000000E+00; -2.7415951E-04;  9.9898126E+02;  3.3309990E-01; -8.4402252E+02;3;  1.5709058E+01;  0.0000000E+00;  2.3266571E-02;0; -1.2322652E-01;  3.6843523E+03;  0.0000000E+00;  5.2888012E-03;  4.0000000E+04;  0.0000000E+00;  3.9154109E+04; -1.2273678E-01;  0.0000000E+00; -4.8974081E-04;  2.6858516E+03;
  1.1249521E+00;  9.9999998E-03;  2.0257510E-02;8090; -5.1090870E-02;  0.0000000E+00;  2.7456266E-04;  9.9898090E+02;  3.3310163E-01; -8.4431879E+02;3;  1.5709049E+01;  0.0000000E+00; -2.3270875E-02;0; -1.2322656E-01;  3.6843538E+03;  0.0000000E+00;  5.3287596E-03;  4.0000000E+04;  0.0000000E+00;  3.9154105E+04; -1.2273688E-01;  0.0000000E+00; -4.8968475E-04;  2.6858108E+03;
  1.1248562E+00;  9.9999998E-03; -3.0369759E-02;8085; -5.0521981E-02;  0.0000000E+00; -4.2157719E-04;  9.9906909E+02;  3.3298790E-01; -7.7123474E+02;3;  1.5590447E+01;  0.0000000E+00;  3.3630162E-02;0; -1.1990262E-01;  3.6875820E+03;  0.0000000E+00;  1.7529063E-02;  4.0000000E+04;  0.0000000E+00;  3.9151734E+04; -1.2063214E-01;  0.0000000E+00;  7.2952412E-04;  2.3736101E+03;
  1.1248562E+00;  9.9999998E-03;  3.0369837E-02;8091; -5.0522011E-02;  0.0000000E+00;  4.2197548E-04;  9.9906927E+02;  3.3298802E-01; -7.7108655E+02;3;  1.5590450E+01;  0.0000000E+00; -3.3628017E-02;0; -1.1990263E-01;  3.6875828E+03;  0.0000000E+00;  1.7590832E-02;  4.0000000E+04;  0.0000000E+00;  3.9151727E+04; -1.2063218E-01;  0.0000000E+00;  7.2955468E-04;  2.3736001E+03;
  1.1247917E+00;  9.9999998E-03; -4.0480033E-02;8084; -4.9745079E-02;  0.0000000E+00; -5.8164005E-04;  9.9916711E+02;  3.3288792E-01; -6.9005212E+02;3;  1.5433203E+01;  0.0000000E+00;  2.9668082E-02;0; -1.1534645E-01;  3.6904541E+03;  0.0000000E+00;  4.1132614E-02;  4.0000000E+04;  0.0000000E+00;  3.9149105E+04; -1.1770533E-01;  0.0000000E+00;  2.3588873E-03;  2.0942446E+03;
  1.1247917E+00;  9.9999998E-03;  4.0480115E-02;8092; -4.9745120E-02;  0.0000000E+00;  5.8203860E-04;  9.9916724E+02;  3.3288726E-01; -6.8990399E+02;3;  1.5433299E+01;  0.0000000E+00; -2.9642219E-02;0; -1.1534655E-01;  3.6904539E+03;  0.0000000E+00;  4.1220017E-02;  4.0000000E+04;  0.0000000E+00;  3.9149102E+04; -1.1770542E-01;  0.0000000E+00;  2.3588717E-03;  2.0941851E+03;
  1.1247795E+00;  9.9999998E-03; -5.0609928E-02;8083; -4.8769552E-02;  0.0000000E+00; -7.5371121E-04;  9.9923517E+02;  3.3282396E-01; -6.3365887E+02;3;  1.5237604E+01;  0.0000000E+00;  3.5903554E-02;0; -1.0955592E-01;  3.6924045E+03;  0.0000000E+00;  7.4961521E-02;  4.0000000E+04;  0.0000000E+00;  3.9147281E+04; -1.1394641E-01;  0.0000000E+00;  4.3904879E-03;  2.0237480E+03;
  1.1247795E+00;  9.9999998E-03;  5.0610013E-02;8093; -4.8769608E-02;  0.0000000E+00;  7.5411081E-04;  9.9923517E+02;  3.3282396E-01; -6.3365887E+02;3;  1.5237585E+01;  0.0000000E+00; -3.5911538E-02;0; -1.0955600E-01;  3.6924070E+03;  0.0000000E+00;  7.5069271E-02;  4.0000000E+04;  0.0000000E+00;  3.9147293E+04; -1.1394650E-01;  0.0000000E+00;  4.3904972E-03;  2.0238113E+03;
  1.1248257E+00;  9.9999998E-03; -6.0757391E-02;8082; -4.7597688E-02;  0.0000000E+00; -9.5362897E-04;  9.9926117E+02;  3.3280176E-01; -6.1212866E+02;3;  1.5009276E+01;  0.0000000E+00;  1.8922478E-02;0; -1.0250842E-01;  3.6930640E+03;  0.0000000E+00;  1.0942893E-01;  4.0000000E+04;  0.0000000E+00;  3.9146371E+04; -1.0933215E-01;  0.0000000E+00;  6.8237302E-03;  2.2656780E+03;
  1.1248258E+00;  9.9999998E-03;  6.0757481E-02;8094; -4.7597747E-02;  0.0000000E+00;  9.5402810E-04;  9.9926147E+02;  3.3280331E-01; -6.1183240E+02;3;  1.5009322E+01;  0.0000000E+00; -1.8892644E-02;0; -1.0250865E-01;  3.6930618E+03;  0.0000000E+00;  1.0955366E-01;  4.0000000E+04;  0.0000000E+00;  3.9146371E+04; -1.0933235E-01;  0.0000000E+00;  6.8237046E-03;  2.2658616E+03;
  1.1249697E+00;  9.9999998E-03; -7.0899263E-02;8081; -4.6242956E-02;  0.0000000E+00; -1.1803048E-03;  9.9922961E+02;  3.3286375E-01; -6.3825128E+02;3;  1.4755660E+01;  0.0000000E+00; -5.0583347E-03;0; -9.4267607E-02;  3.6914954E+03;  0.0000000E+00;  1.2565006E-01;  4.0000000E+04;  0.0000000E+00;  3.9147590E+04; -1.0386182E-01;  0.0000000E+00;  9.5942132E-03;  2.7171626E+03;
  1.1252480E+00;  9.9999998E-03; -8.1025213E-02;8080; -4.4707488E-02;  0.0000000E+00; -1.4415552E-03;  9.9912048E+02;  3.3303759E-01; -7.2866809E+02;3;  1.4507725E+01;  0.0000000E+00; -7.3911145E-02;0; -8.4904134E-02;  3.6869451E+03;  0.0000000E+00;  1.0086073E-01;  4.0000000E+04;  0.0000000E+00;  3.9150043E+04; -9.7517118E-02;  0.0000000E+00;  1.2612984E-02;  3.1875034E+03;
  1.1256438E+00;  9.9999998E-03; -9.1127455E-02;8079; -4.2987704E-02;  0.0000000E+00; -1.7346332E-03;  9.9894574E+02;  3.3331481E-01; -8.7345361E+02;3;  1.4255515E+01;  0.0000000E+00; -8.5480407E-02;0; -7.4422568E-02;  3.6798875E+03;  0.0000000E+00;  1.8482741E-02;  4.0000000E+04;  0.0000000E+00;  3.9153324E+04; -9.0231702E-02;  0.0000000E+00;  1.5809132E-02;  3.5502095E+03;
  1.1261908E+00;  9.9999998E-03; -1.0120707E-01;8078; -4.1067068E-02;  0.0000000E+00; -2.0882771E-03;  9.9872717E+02;  3.3370924E-01; -1.0544849E+03;3;  1.4060071E+01;  0.0000000E+00; -2.3461729E-01;0; -6.2931299E-02;  3.6700244E+03;  0.0000000E+00; -1.2266138E-01;  4.0000000E+04;  0.0000000E+00;  3.9156094E+04; -8.1947036E-02;  0.0000000E+00;  1.9015737E-02;  3.7845044E+03;
  1.1615202E+00;  9.9999998E-03; -1.0137676E-02;8148; -5.6721605E-02;  0.0000000E+00;  5.2506890E-04;  9.9619824E+02;  3.5935009E-01; -3.1496692E+03;3;  1.7428535E+01;  0.0000000E+00; -1.2895742E-01;0; -1.9745600E-01;  3.1532476E+03;  0.0000000E+00; -8.7064961E-03;  4.0000000E+04;  0.0000000E+00;  3.9100500E+04; -1.3396274E-01;  0.0000000E+00; -6.3493267E-02;  4.1553521E+03;
  1.1615804E+00;  9.9999998E-03;  4.8053149E-08;8149; -5.6853551E-02;  0.0000000E+00;  2.1832308E-07;  9.9615900E+02;  3.5941046E-01; -3.1821619E+03;3;  1.7454809E+01;  0.0000000E+00;  1.1943281E-05;0; -1.9824958E-01;  3.1520042E+03;  0.0000000E+00;  1.0088550E-09;  4.0000000E+04;  0.0000000E+00;  3.9101172E+04; -1.3423112E-01;  0.0000000E+00; -6.4018458E-02;  4.2266572E+03;
  1.1615202E+00;  9.9999998E-03;  1.0137774E-02;8150; -5.6721613E-02;  0.0000000E+00; -5.2463100E-04;  9.9619855E+02;  3.5934934E-01; -3.1494224E+03;3;  1.7428518E+01;  0.0000000E+00;  1.2895784E-01;0; -1.9745588E-01;  3.1532485E+03;  0.0000000E+00; -8.7067243E-03;  4.0000000E+04;  0.0000000E+00;  3.9100492E+04; -1.3396275E-01;  0.0000000E+00; -6.3493140E-02;  4.1552749E+03;
  1.1613529E+00;  9.9999998E-03; -2.0268226E-02;8147; -5.6329764E-02;  0.0000000E+00;  1.0302020E-03;  9.9630664E+02;  3.5918230E-01; -3.0598452E+03;3;  1.7351032E+01;  0.0000000E+00; -2.5687557E-01;0; -1.9510464E-01;  3.1567888E+03;  0.0000000E+00; -3.2899097E-02;  4.0000000E+04;  0.0000000E+00;  3.9099379E+04; -1.3314763E-01;  0.0000000E+00; -6.1957017E-02;  3.9504268E+03;
  1.1613529E+00;  9.9999998E-03;  2.0268327E-02;8151; -5.6329791E-02;  0.0000000E+00; -1.0297623E-03;  9.9630707E+02;  3.5918242E-01; -3.0594995E+03;3;  1.7351137E+01;  0.0000000E+00;  2.5690269E-01;0; -1.9510466E-01;  3.1567888E+03;  0.0000000E+00; -3.2895599E-02;  4.0000000E+04;  0.0000000E+00;  3.9099375E+04; -1.3314764E-01;  0.0000000E+00; -6.1957017E-02;  3.9502913E+03;
  1.1610775E+00;  9.9999998E-03; -3.0396502E-02;8146; -5.5680953E-02;  0.0000000E+00;  1.4971597E-03;  9.9646954E+02;  3.5890290E-01; -2.9248867E+03;3;  1.7224453E+01;  0.0000000E+00; -3.8253850E-01;0; -1.9119850E-01;  3.1625486E+03;  0.0000000E+00; -6.6977605E-02;  4.0000000E+04;  0.0000000E+00;  3.9097641E+04; -1.3175733E-01;  0.0000000E+00; -5.9441164E-02;  3.6485344E+03;
  1.1610775E+00;  9.9999998E-03;  3.0396614E-02;8152; -5.5680990E-02;  0.0000000E+00; -1.4967181E-03;  9.9646918E+02;  3.5890234E-01; -2.9251831E+03;3;  1.7224413E+01;  0.0000000E+00;  3.8256165E-01;0; -1.9119829E-01;  3.1625496E+03;  0.0000000E+00; -6.6964291E-02;  4.0000000E+04;  0.0000000E+00;  3.9097641E+04; -1.3175718E-01;  0.0000000E+00; -5.9441112E-02;  3.6484250E+03;
  1.1607319E+00;  9.9999998E-03; -4.0534444E-02;8145; -5.4785866E-02;  0.0000000E+00;  1.9122307E-03;  9.9666351E+02;  3.5854751E-01; -2.7642012E+03;3;  1.7053505E+01;  0.0000000E+00; -5.0386864E-01;0; -1.8581745E-01;  3.1697871E+03;  0.0000000E+00; -1.0234749E-01;  4.0000000E+04;  0.0000000E+00;  3.9096059E+04; -1.2974668E-01;  0.0000000E+00; -5.6070779E-02;  3.3301943E+03;
  1.1607319E+00;  9.9999998E-03;  4.0534552E-02;8153; -5.4785907E-02;  0.0000000E+00; -1.9117869E-03;  9.9666351E+02;  3.5854751E-01; -2.7642012E+03;3;  1.7053539E+01;  0.0000000E+00;  5.0390881E-01;0; -1.8581747E-01;  3.1697888E+03;  0.0000000E+00; -1.0231559E-01;  4.0000000E+04;  0.0000000E+00;  3.9096051E+04; -1.2974676E-01;  0.0000000E+00; -5.6070704E-02;  3.3301355E+03;
  1.1603973E+00;  9.9999998E-03; -5.0671123E-02;8144; -5.3665821E-02;  0.0000000E+00;  2.2704864E-03;  9.9685461E+02;  3.5818464E-01; -2.6058857E+03;3;  1.6846262E+01;  0.0000000E+00; -6.2080795E-01;0; -1.7914739E-01;  3.1770403E+03;  0.0000000E+00; -1.2950052E-01;  4.0000000E+04;  0.0000000E+00;  3.9095215E+04; -1.2707588E-01;  0.0000000E+00; -5.2071508E-02;  3.1176284E+03;
  1.1603973E+00;  9.9999998E-03;  5.0671227E-02;8154; -5.3665873E-02;  0.0000000E+00; -2.2700450E-03;  9.9685498E+02;  3.5818228E-01; -2.6055894E+03;3;  1.6846296E+01;  0.0000000E+00;  6.2085390E-01;0; -1.7914754E-01;  3.1770378E+03;  0.0000000E+00; -1.2944758E-01;  4.0000000E+04;  0.0000000E+00;  3.9095223E+04; -1.2707610E-01;  0.0000000E+00; -5.2071445E-02;  3.1175549E+03;
  1.1601533E+00;  9.9999998E-03; -6.0821217E-02;8143; -5.2338172E-02;  0.0000000E+00;  2.5770667E-03;  9.9701080E+02;  3.5788900E-01; -2.4764580E+03;3;  1.6611277E+01;  0.0000000E+00; -7.3192781E-01;0; -1.7136186E-01;  3.1828367E+03;  0.0000000E+00; -1.4230447E-01;  4.0000000E+04;  0.0000000E+00;  3.9096031E+04; -1.2371253E-01;  0.0000000E+00; -4.7649335E-02;  3.1285015E+03;
  1.1601533E+00;  9.9999998E-03;  6.0821328E-02;8155; -5.2338231E-02;  0.0000000E+00; -2.5766240E-03;  9.9701099E+02;  3.5788926E-01; -2.4763098E+03;3;  1.6611223E+01;  0.0000000E+00;  7.3193526E-01;0; -1.7136198E-01;  3.1828359E+03;  0.0000000E+00; -1.4222556E-01;  4.0000000E+04;  0.0000000E+00;  3.9096027E+04; -1.2371267E-01;  0.0000000E+00; -4.7649316E-02;  3.1284998E+03;
  1.1600957E+00;  9.9999998E-03; -7.0974715E-02;8142; -5.0823361E-02;  0.0000000E+00;  2.8472205E-03;  9.9710461E+02;  3.5774356E-01; -2.3987817E+03;3;  1.6361778E+01;  0.0000000E+00; -8.3673495E-01;0; -1.6269286E-01;  3.1854270E+03;  0.0000000E+00; -1.4263187E-01;  4.0000000E+04;  0.0000000E+00;  3.9098449E+04; -1.1965611E-01;  0.0000000E+00; -4.3036748E-02;  3.4425415E+03;
  1.1604764E+00;  9.9999998E-03; -8.1112914E-02;8141; -4.9170047E-02;  0.0000000E+00;  3.1298157E-03;  9.9710309E+02;  3.5796720E-01; -2.4000161E+03;3;  1.6119267E+01;  0.0000000E+00; -9.3236113E-01;0; -1.5373148E-01;  3.1809014E+03;  0.0000000E+00; -1.4190006E-01;  4.0000000E+04;  0.0000000E+00;  3.9102062E+04; -1.1497688E-01;  0.0000000E+00; -3.8754605E-02;  4.0482966E+03;
  1.1611884E+00;  9.9999998E-03; -9.1226056E-02;8140; -4.7354478E-02;  0.0000000E+00;  3.4261863E-03;  9.9700952E+02;  3.5847586E-01; -2.4775442E+03;3;  1.5883595E+01;  0.0000000E+00; -1.0319616E+00;0; -1.4436066E-01;  3.1709204E+03;  0.0000000E+00; -1.5243243E-01;  4.0000000E+04;  0.0000000E+00;  3.9106066E+04; -1.0969650E-01;  0.0000000E+00; -3.4664162E-02;  4.7855532E+03;
  1.1619616E+00;  9.9999998E-03; -1.0131790E-01;8139; -4.5321312E-02;  0.0000000E+00;  3.7007830E-03;  9.9686420E+02;  3.5904232E-01; -2.5979351E+03;3;  1.5653627E+01;  0.0000000E+00; -1.1290535E+00;0; -1.3414186E-01;  3.1598086E+03;  0.0000000E+00; -1.8133046E-01;  4.0000000E+04;  0.0000000E+00;  3.9109664E+04; -1.0376416E-01;  0.0000000E+00; -3.0377693E-02;  5.4678701E+03;
  1.1993634E+00;  9.9999998E-03; -6.0798921E-02;8204; -5.8619279E-02;  0.0000000E+00;  8.7864408E-03;  9.9384473E+02;  3.8616696E-01; -5.0994546E+03;3;  1.8035662E+01;  0.0000000E+00; -1.3047595E+00;0; -2.2810943E-01;  2.7201804E+03;  0.0000000E+00; -2.3355979E-01;  4.0000000E+04;  0.0000000E+00;  3.9037445E+04; -9.0036020E-02;  0.0000000E+00; -1.3807341E-01;  4.3183994E+03;
  1.1993634E+00;  9.9999998E-03;  6.0799062E-02;8216; -5.8619346E-02;  0.0000000E+00; -8.7859510E-03;  9.9384473E+02;  3.8616538E-01; -5.0994546E+03;3;  1.8035622E+01;  0.0000000E+00;  1.3047870E+00;0; -2.2810912E-01;  2.7201802E+03;  0.0000000E+00; -2.3355232E-01;  4.0000000E+04;  0.0000000E+00;  3.9037453E+04; -9.0035610E-02;  0.0000000E+00; -1.3807350E-01;  4.3184160E+03;
  1.1995016E+00;  9.9999998E-03; -5.0637383E-02;8205; -5.9993375E-02;  0.0000000E+00;  7.4862149E-03;  9.9368250E+02;  3.8641551E-01; -5.2338691E+03;3;  1.8260536E+01;  0.0000000E+00; -1.0868241E+00;0; -2.3394048E-01;  2.7163643E+03;  0.0000000E+00; -1.8766698E-01;  4.0000000E+04;  0.0000000E+00;  3.9036223E+04; -8.9656197E-02;  0.0000000E+00; -1.4428429E-01;  4.1968896E+03;
  1.1995016E+00;  9.9999998E-03;  5.0637510E-02;8215; -5.9993420E-02;  0.0000000E+00; -7.4857115E-03;  9.9368280E+02;  3.8641730E-01; -5.2336221E+03;3;  1.8260574E+01;  0.0000000E+00;  1.0868222E+00;0; -2.3394024E-01;  2.7163667E+03;  0.0000000E+00; -1.8767345E-01;  4.0000000E+04;  0.0000000E+00;  3.9036230E+04; -8.9656152E-02;  0.0000000E+00; -1.4428410E-01;  4.1968384E+03;
  1.1993655E+00;  9.9999998E-03; -7.0953846E-02;8203; -5.7023551E-02;  0.0000000E+00;  1.0019371E-02;  9.9399609E+02;  3.8602597E-01; -4.9740767E+03;3;  1.7796829E+01;  0.0000000E+00; -1.5257448E+00;0; -2.2121432E-01;  2.7222166E+03;  0.0000000E+00; -2.6037917E-01;  4.0000000E+04;  0.0000000E+00;  3.9040137E+04; -8.9667581E-02;  0.0000000E+00; -1.3154674E-01;  4.6259766E+03;
  1.1997755E+00;  9.9999998E-03; -4.0479887E-02;8206; -6.1147336E-02;  0.0000000E+00;  6.1166044E-03;  9.9351221E+02;  3.8676137E-01; -5.3749492E+03;3;  1.8456581E+01;  0.0000000E+00; -8.6822587E-01;0; -2.3863003E-01;  2.7110283E+03;  0.0000000E+00; -1.3302965E-01;  4.0000000E+04;  0.0000000E+00;  3.9035664E+04; -8.8570394E-02;  0.0000000E+00; -1.5005963E-01;  4.2478760E+03;
  1.1997755E+00;  9.9999998E-03;  4.0480033E-02;8214; -6.1147384E-02;  0.0000000E+00; -6.1161118E-03;  9.9351196E+02;  3.8676053E-01; -5.3751470E+03;3;  1.8456579E+01;  0.0000000E+00;  8.6824811E-01;0; -2.3862994E-01;  2.7110295E+03;  0.0000000E+00; -1.3304442E-01;  4.0000000E+04;  0.0000000E+00;  3.9035672E+04; -8.8570289E-02;  0.0000000E+00; -1.5005966E-01;  4.2477920E+03;
  1.1994690E+00;  9.9999998E-03; -8.1095800E-02;8202; -5.5194624E-02;  0.0000000E+00;  1.1182011E-02;  9.9409973E+02;  3.8596928E-01; -4.8882036E+03;3;  1.7546881E+01;  0.0000000E+00; -1.7472142E+00;0; -2.1334554E-01;  2.7228040E+03;  0.0000000E+00; -2.5981238E-01;  4.0000000E+04;  0.0000000E+00;  3.9043770E+04; -8.8638730E-02;  0.0000000E+00; -1.2470681E-01;  5.0688008E+03;
  1.2001014E+00;  9.9999998E-03; -3.0350588E-02;8207; -6.2064636E-02;  0.0000000E+00;  4.6740044E-03;  9.9336963E+02;  3.8712859E-01; -5.4930679E+03;3;  1.8621065E+01;  0.0000000E+00; -6.5217668E-01;0; -2.4215718E-01;  2.7054070E+03;  0.0000000E+00; -8.0071315E-02;  4.0000000E+04;  0.0000000E+00;  3.9036223E+04; -8.7108657E-02;  0.0000000E+00; -1.5504852E-01;  4.3913716E+03;
  1.2001014E+00;  9.9999998E-03;  3.0350722E-02;8213; -6.2064677E-02;  0.0000000E+00; -4.6735145E-03;  9.9336987E+02;  3.8713074E-01; -5.4928701E+03;3;  1.8620977E+01;  0.0000000E+00;  6.5217721E-01;0; -2.4215707E-01;  2.7054067E+03;  0.0000000E+00; -8.0089793E-02;  4.0000000E+04;  0.0000000E+00;  3.9036219E+04; -8.7108620E-02;  0.0000000E+00; -1.5504844E-01;  4.3911841E+03;
  1.1996793E+00;  9.9999998E-03; -9.1224216E-02;8201; -5.3124409E-02;  0.0000000E+00;  1.2283421E-02;  9.9415356E+02;  3.8601935E-01; -4.8436123E+03;3;  1.7284243E+01;  0.0000000E+00; -1.9640235E+00;0; -2.0461455E-01;  2.7217068E+03;  0.0000000E+00; -2.2773820E-01;  4.0000000E+04;  0.0000000E+00;  3.9047801E+04; -8.6945333E-02;  0.0000000E+00; -1.1766922E-01;  5.5782471E+03;
  1.2003952E+00;  9.9999998E-03; -2.0235876E-02;8208; -6.2731817E-02;  0.0000000E+00;  3.1620837E-03;  9.9326019E+02;  3.8744348E-01; -5.5837310E+03;3;  1.8743340E+01;  0.0000000E+00; -4.3520838E-01;0; -2.4458352E-01;  2.7006060E+03;  0.0000000E+00; -3.7082762E-02;  4.0000000E+04;  0.0000000E+00;  3.9036629E+04; -8.5682131E-02;  0.0000000E+00; -1.5890138E-01;  4.5426401E+03;
  1.2003952E+00;  9.9999998E-03;  2.0236004E-02;8212; -6.2731847E-02;  0.0000000E+00; -3.1615985E-03;  9.9326031E+02;  3.8744369E-01; -5.5836318E+03;3;  1.8743317E+01;  0.0000000E+00;  4.3523166E-01;0; -2.4458337E-01;  2.7006077E+03;  0.0000000E+00; -3.7099276E-02;  4.0000000E+04;  0.0000000E+00;  3.9036633E+04; -8.5681960E-02;  0.0000000E+00; -1.5890141E-01;  4.5425312E+03;
  1.2005754E+00;  9.9999998E-03; -1.0120737E-02;8209; -6.3133992E-02;  0.0000000E+00;  1.5954116E-03;  9.9318909E+02;  3.8763478E-01; -5.6426421E+03;3;  1.8818626E+01;  0.0000000E+00; -2.1787044E-01;0; -2.4600592E-01;  2.6976460E+03;  0.0000000E+00; -9.4736675E-03;  4.0000000E+04;  0.0000000E+00;  3.9036988E+04; -8.4727801E-02;  0.0000000E+00; -1.6127813E-01;  4.6461553E+03;
  1.2005752E+00;  9.9999998E-03;  1.0120861E-02;8211; -6.3133992E-02;  0.0000000E+00; -1.5949230E-03;  9.9318933E+02;  3.8763708E-01; -5.6424443E+03;3;  1.8818602E+01;  0.0000000E+00;  2.1790916E-01;0; -2.4600577E-01;  2.6976467E+03;  0.0000000E+00; -9.4831437E-03;  4.0000000E+04;  0.0000000E+00;  3.9037000E+04; -8.4727950E-02;  0.0000000E+00; -1.6127782E-01;  4.6461162E+03;
  1.2006285E+00;  9.9999998E-03;  6.1079803E-08;8210; -6.3267171E-02;  0.0000000E+00;  2.4095354E-07;  9.9316418E+02;  3.8769504E-01; -5.6632832E+03;3;  1.8843857E+01;  0.0000000E+00;  1.5866011E-05;0; -2.4647880E-01;  2.6967437E+03;  0.0000000E+00;  5.7573146E-10;  4.0000000E+04;  0.0000000E+00;  3.9037355E+04; -8.4418602E-02;  0.0000000E+00; -1.6206020E-01;  4.6815508E+03;
  1.2000049E+00;  9.9999998E-03; -1.0134320E-01;8200; -5.0802082E-02;  0.0000000E+00;  1.3339404E-02;  9.9413947E+02;  3.8618088E-01; -4.8552661E+03;3;  1.7048782E+01;  0.0000000E+00; -2.1875134E+00;0; -1.9515330E-01;  2.7188167E+03;  0.0000000E+00; -1.6625169E-01;  4.0000000E+04;  0.0000000E+00;  3.9051051E+04; -8.4610656E-02;  0.0000000E+00; -1.1054265E-01;  6.0766567E+03;
  1.2413981E+00;  9.9999998E-03; -8.1107885E-02;8263; -6.0243055E-02;  0.0000000E+00;  2.2513440E-02;  9.9397522E+02;  4.1455212E-01; -4.9913120E+03;3;  1.8321726E+01;  0.0000000E+00; -2.1936476E+00;0; -3.1945467E-02;  2.3641865E+03;  0.0000000E+00; -3.9597949E-01;  4.0000000E+04;  0.0000000E+00;  3.8967855E+04;  2.1027024E-01;  0.0000000E+00; -2.4221571E-01;  3.7065129E+03;
  1.2413157E+00;  9.9999998E-03; -9.1239341E-02;8262; -5.8065139E-02;  0.0000000E+00;  2.4799639E-02;  9.9415692E+02;  4.1434559E-01; -4.8408008E+03;3;  1.7923368E+01;  0.0000000E+00; -2.5267992E+00;0; -4.1614130E-02;  2.3665366E+03;  0.0000000E+00; -4.3161115E-01;  4.0000000E+04;  0.0000000E+00;  3.8971793E+04;  1.8866341E-01;  0.0000000E+00; -2.3027754E-01;  4.1893232E+03;
  1.2417217E+00;  9.9999998E-03; -7.0959516E-02;8264; -6.2149379E-02;  0.0000000E+00;  2.0134564E-02;  9.9381732E+02;  4.1495019E-01; -5.1221201E+03;3;  1.8509565E+01;  0.0000000E+00; -1.7931244E+00;0; -1.8517241E-02;  2.3596907E+03;  0.0000000E+00; -3.2644764E-01;  4.0000000E+04;  0.0000000E+00;  3.8963426E+04;  2.3570199E-01;  0.0000000E+00; -2.5421923E-01;  3.2359258E+03;
  1.2415106E+00;  9.9999998E-03; -1.0135681E-01;8261; -5.5584814E-02;  0.0000000E+00;  2.7026879E-02;  9.9435480E+02;  4.1437200E-01; -4.6768584E+03;3;  1.7786806E+01;  0.0000000E+00; -2.9749708E+00;0; -4.7462031E-02;  2.3664036E+03;  0.0000000E+00; -4.2130363E-01;  4.0000000E+04;  0.0000000E+00;  3.8974746E+04;  1.7111391E-01;  0.0000000E+00; -2.1857594E-01;  4.5465449E+03;
  1.2421932E+00;  9.9999998E-03; -6.0791269E-02;8265; -6.3765347E-02;  0.0000000E+00;  1.7623236E-02;  9.9369519E+02;  4.1546023E-01; -5.2232998E+03;3;  1.8878199E+01;  0.0000000E+00; -1.5334011E+00;0; -2.4373233E-03;  2.3539834E+03;  0.0000000E+00; -2.4048918E-01;  4.0000000E+04;  0.0000000E+00;  3.8959395E+04;  2.6343751E-01;  0.0000000E+00; -2.6587483E-01;  2.8752673E+03;
  1.2421931E+00;  9.9999998E-03;  6.0791411E-02;8277; -6.3765407E-02;  0.0000000E+00; -1.7622663E-02;  9.9369550E+02;  4.1545957E-01; -5.2230527E+03;3;  1.8878206E+01;  0.0000000E+00;  1.5334438E+00;0; -2.4370253E-03;  2.3539834E+03;  0.0000000E+00; -2.4055924E-01;  4.0000000E+04;  0.0000000E+00;  3.8959398E+04;  2.6343775E-01;  0.0000000E+00; -2.6587477E-01;  2.8752061E+03;
  1.2426873E+00;  9.9999998E-03; -1.0105480E-02;8270; -6.8059459E-02;  0.0000000E+00;  3.0771683E-03;  9.9316467E+02;  4.1626850E-01; -5.6628325E+03;3;  1.9788239E+01;  0.0000000E+00; -2.2111507E-01;0;  3.7697017E-02;  2.3435393E+03;  0.0000000E+00; -3.6683106E-03;  4.0000000E+04;  0.0000000E+00;  3.8954758E+04;  3.3570498E-01;  0.0000000E+00; -2.9800797E-01;  2.4407095E+03;
  1.2426744E+00;  9.9999998E-03;  7.1440134E-08;8271; -6.8182409E-02;  0.0000000E+00;  2.7092233E-07;  9.9314423E+02;  4.1627088E-01; -5.6797700E+03;3;  1.9887583E+01;  0.0000000E+00; -6.6049397E-06;0;  3.8543224E-02;  2.3434304E+03;  0.0000000E+00; -8.9626456E-10;  4.0000000E+04;  0.0000000E+00;  3.8954762E+04;  3.3744940E-01;  0.0000000E+00; -2.9890618E-01;  2.4486052E+03;
  1.2426872E+00;  9.9999998E-03;  1.0105625E-02;8272; -6.8059474E-02;  0.0000000E+00; -3.0766253E-03;  9.9316492E+02;  4.1626656E-01; -5.6626353E+03;3;  1.9788242E+01;  0.0000000E+00;  2.2118044E-01;0;  3.7694246E-02;  2.3435413E+03;  0.0000000E+00; -3.6833333E-03;  4.0000000E+04;  0.0000000E+00;  3.8954766E+04;  3.3570167E-01;  0.0000000E+00; -2.9800743E-01;  2.4406453E+03;
  1.2427186E+00;  9.9999998E-03; -2.0212028E-02;8269; -6.7684241E-02;  0.0000000E+00;  6.1312048E-03;  9.9322931E+02;  4.1625434E-01; -5.6092549E+03;3;  1.9754541E+01;  0.0000000E+00; -4.6625569E-01;0;  3.5063535E-02;  2.3439326E+03;  0.0000000E+00; -1.6511383E-02;  4.0000000E+04;  0.0000000E+00;  3.8954512E+04;  3.3037591E-01;  0.0000000E+00; -2.9531237E-01;  2.4272891E+03;
  1.2427187E+00;  9.9999998E-03;  2.0212181E-02;8273; -6.7684270E-02;  0.0000000E+00; -6.1306665E-03;  9.9322906E+02;  4.1625383E-01; -5.6094526E+03;3;  1.9754501E+01;  0.0000000E+00;  4.6629989E-01;0;  3.5065174E-02;  2.3439324E+03;  0.0000000E+00; -1.6541060E-02;  4.0000000E+04;  0.0000000E+00;  3.8954508E+04;  3.3037785E-01;  0.0000000E+00; -2.9531267E-01;  2.4271909E+03;
  1.2427685E+00;  9.9999998E-03; -3.0326376E-02;8268; -6.7067645E-02;  0.0000000E+00;  9.1490019E-03;  9.9333032E+02;  4.1622809E-01; -5.5256050E+03;3;  1.9534582E+01;  0.0000000E+00; -6.7951369E-01;0;  3.0764461E-02;  2.3445669E+03;  0.0000000E+00; -4.3239739E-02;  4.0000000E+04;  0.0000000E+00;  3.8954434E+04;  3.2166010E-01;  0.0000000E+00; -2.9089564E-01;  2.4345098E+03;
  1.2427684E+00;  9.9999998E-03;  3.0326527E-02;8274; -6.7067675E-02;  0.0000000E+00; -9.1484459E-03;  9.9333057E+02;  4.1622838E-01; -5.5254072E+03;3;  1.9534513E+01;  0.0000000E+00;  6.7948276E-01;0;  3.0763477E-02;  2.3445662E+03;  0.0000000E+00; -4.3284800E-02;  4.0000000E+04;  0.0000000E+00;  3.8954422E+04;  3.2165879E-01;  0.0000000E+00; -2.9089531E-01;  2.4343909E+03;
  1.2428100E+00;  9.9999998E-03; -4.0458322E-02;8267; -6.6204414E-02;  0.0000000E+00;  1.2104650E-02;  9.9346234E+02;  4.1617560E-01; -5.4162275E+03;3;  1.9394018E+01;  0.0000000E+00; -9.7979707E-01;0;  2.4534762E-02;  2.3455984E+03;  0.0000000E+00; -8.9205936E-02;  4.0000000E+04;  0.0000000E+00;  3.8954738E+04;  3.0931154E-01;  0.0000000E+00; -2.8477678E-01;  2.4931433E+03;
  1.2428099E+00;  9.9999998E-03;  4.0458474E-02;8275; -6.6204466E-02;  0.0000000E+00; -1.2104091E-02;  9.9346222E+02;  4.1617772E-01; -5.4163262E+03;3;  1.9393946E+01;  0.0000000E+00;  9.7986889E-01;0;  2.4534702E-02;  2.3455981E+03;  0.0000000E+00; -8.9262418E-02;  4.0000000E+04;  0.0000000E+00;  3.8954738E+04;  3.0931124E-01;  0.0000000E+00; -2.8477654E-01;  2.4929666E+03;
  1.2427123E+00;  9.9999998E-03; -5.0614581E-02;8266; -6.5108836E-02;  0.0000000E+00;  1.4961922E-02;  9.9360510E+02;  4.1598967E-01; -5.2979614E+03;3;  1.9126469E+01;  0.0000000E+00; -1.1948684E+00;0;  1.4620990E-02;  2.3480061E+03;  0.0000000E+00; -1.5665574E-01;  4.0000000E+04;  0.0000000E+00;  3.8956332E+04;  2.9129064E-01;  0.0000000E+00; -2.7666965E-01;  2.6320544E+03;
  1.2427123E+00;  9.9999998E-03;  5.0614741E-02;8276; -6.5108903E-02;  0.0000000E+00; -1.4961387E-02;  9.9360480E+02;  4.1598883E-01; -5.2982085E+03;3;  1.9126434E+01;  0.0000000E+00;  1.1948352E+00;0;  1.4623553E-02;  2.3480063E+03;  0.0000000E+00; -1.5672503E-01;  4.0000000E+04;  0.0000000E+00;  3.8956328E+04;  2.9129386E-01;  0.0000000E+00; -2.7667031E-01;  2.6319456E+03;
  1.2859170E+00;  9.9999998E-03; -1.0160725E-01;8322; -5.6111857E-02;  0.0000000E+00;  4.5177087E-02;  9.9531232E+02;  4.3115216E-01; -3.8834883E+03;3;  1.7194576E+01;  0.0000000E+00; -2.6066585E+00;0;  1.1217766E+00;  2.1936174E+03;  0.0000000E+00; -6.0993391E-01;  4.0000000E+04;  0.0000000E+00;  3.8895488E+04;  1.4660811E+00;  0.0000000E+00; -3.4430453E-01;  8.3553528E+02;
  1.2863040E+00;  9.9999998E-03; -9.1481104E-02;8323; -5.8399294E-02;  0.0000000E+00;  4.1541394E-02;  9.9480188E+02;  4.3136972E-01; -4.3063716E+03;3;  1.7912331E+01;  0.0000000E+00; -2.1420867E+00;0;  1.2182413E+00;  2.1902166E+03;  0.0000000E+00; -5.0186139E-01;  4.0000000E+04;  0.0000000E+00;  3.8888980E+04;  1.5810714E+00;  0.0000000E+00; -3.6283001E-01;  1.6995564E+03;
  1.2869773E+00;  9.9999998E-03; -8.1336230E-02;8324; -6.0271274E-02;  0.0000000E+00;  3.7759438E-02;  9.9432068E+02;  4.3167490E-01; -4.7050093E+03;3;  1.8041536E+01;  0.0000000E+00; -1.6523701E+00;0;  1.3264203E+00;  2.1859985E+03;  0.0000000E+00; -3.5951865E-01;  4.0000000E+04;  0.0000000E+00;  3.8880914E+04;  1.7077380E+00;  0.0000000E+00; -3.8131776E-01;  2.6434724E+03;
  1.2875974E+00;  9.9999998E-03; -7.1145885E-02;8325; -6.1775111E-02;  0.0000000E+00;  3.3669278E-02;  9.9388702E+02;  4.3196002E-01; -5.0642915E+03;3;  1.8428040E+01;  0.0000000E+00; -9.7992396E-01;0;  1.4294176E+00;  2.1820808E+03;  0.0000000E+00; -2.1784240E-01;  4.0000000E+04;  0.0000000E+00;  3.8873109E+04;  1.8280364E+00;  0.0000000E+00; -3.9861888E-01;  3.3528108E+03;
  1.2878780E+00;  9.9999998E-03; -6.0930751E-02;8326; -6.3196078E-02;  0.0000000E+00;  2.9253110E-02;  9.9350604E+02;  4.3214998E-01; -5.3799229E+03;3;  1.9057924E+01;  0.0000000E+00; -7.6878256E-01;0;  1.5096877E+00;  2.1792561E+03;  0.0000000E+00; -1.0492764E-01;  4.0000000E+04;  0.0000000E+00;  3.8867242E+04;  1.9232278E+00;  0.0000000E+00; -4.1354015E-01;  3.7379451E+03;
  1.2878779E+00;  9.9999998E-03;  6.0930919E-02;8338; -6.3196175E-02;  0.0000000E+00; -2.9252535E-02;  9.9350623E+02;  4.3214968E-01; -5.3797256E+03;3;  1.9058184E+01;  0.0000000E+00;  7.6885015E-01;0;  1.5096889E+00;  2.1792561E+03;  0.0000000E+00; -1.0504777E-01;  4.0000000E+04;  0.0000000E+00;  3.8867234E+04;  1.9232293E+00;  0.0000000E+00; -4.1354045E-01;  3.7378235E+03;
  1.2879291E+00;  9.9999998E-03; -5.0741404E-02;8327; -6.4547978E-02;  0.0000000E+00;  2.4631552E-02;  9.9318463E+02;  4.3226671E-01; -5.6461763E+03;3;  1.9185471E+01;  0.0000000E+00; -6.1337674E-01;0;  1.5699880E+00;  2.1772063E+03;  0.0000000E+00; -3.0716378E-02;  4.0000000E+04;  0.0000000E+00;  3.8863020E+04;  1.9960088E+00;  0.0000000E+00; -4.2602077E-01;  3.8557268E+03;
  1.2879292E+00;  9.9999998E-03;  5.0741587E-02;8337; -6.4547941E-02;  0.0000000E+00; -2.4630997E-02;  9.9318451E+02;  4.3226650E-01; -5.6462749E+03;3;  1.9185549E+01;  0.0000000E+00;  6.1346608E-01;0;  1.5699985E+00;  2.1772063E+03;  0.0000000E+00; -3.0813243E-02;  4.0000000E+04;  0.0000000E+00;  3.8863023E+04;  1.9960201E+00;  0.0000000E+00; -4.2602161E-01;  3.8556716E+03;
  1.2881585E+00;  9.9999998E-03; -3.0432049E-02;8329; -6.6382743E-02;  0.0000000E+00;  1.5020775E-02;  9.9274219E+02;  4.3248561E-01; -6.0127173E+03;3;  1.9859745E+01;  0.0000000E+00; -2.2324255E-01;0;  1.6706274E+00;  2.1734480E+03;  0.0000000E+00;  1.8108787E-02;  4.0000000E+04;  0.0000000E+00;  3.8860184E+04;  2.1158481E+00;  0.0000000E+00; -4.4522065E-01;  3.7554382E+03;
  1.2881583E+00;  9.9999998E-03;  3.0432219E-02;8335; -6.6382967E-02;  0.0000000E+00; -1.5020097E-02;  9.9274286E+02;  4.3248415E-01; -6.0121738E+03;3;  1.9859627E+01;  0.0000000E+00;  2.2317722E-01;0;  1.6706141E+00;  2.1734482E+03;  0.0000000E+00;  1.8056290E-02;  4.0000000E+04;  0.0000000E+00;  3.8860180E+04;  2.1158342E+00;  0.0000000E+00; -4.4522008E-01;  3.7555874E+03;
  1.2880182E+00;  9.9999998E-03; -4.0580131E-02;8328; -6.5625474E-02;  0.0000000E+00;  1.9891884E-02;  9.9293365E+02;  4.3237621E-01; -5.8541118E+03;3;  1.9335670E+01;  0.0000000E+00; -1.1115484E-01;0;  1.6236186E+00;  2.1752651E+03;  0.0000000E+00;  7.4062170E-03;  4.0000000E+04;  0.0000000E+00;  3.8860969E+04;  2.0602369E+00;  0.0000000E+00; -4.3661839E-01;  3.8295837E+03;
  1.2880181E+00;  9.9999998E-03;  4.0580306E-02;8336; -6.5625541E-02;  0.0000000E+00; -1.9891240E-02;  9.9293390E+02;  4.3237731E-01; -5.8539141E+03;3;  1.9335754E+01;  0.0000000E+00;  1.1119751E-01;0;  1.6236156E+00;  2.1752659E+03;  0.0000000E+00;  7.3322989E-03;  4.0000000E+04;  0.0000000E+00;  3.8860953E+04;  2.0602343E+00;  0.0000000E+00; -4.3661872E-01;  3.8296704E+03;
  1.2883475E+00;  9.9999998E-03;  7.9245922E-08;8332; -6.7345783E-02;  0.0000000E+00;  3.3642780E-07;  9.9248901E+02;  4.3263164E-01; -6.2224307E+03;3;  2.0061275E+01;  0.0000000E+00;  1.2959540E-04;0;  1.7335004E+00;  2.1709612E+03;  0.0000000E+00; -3.4085434E-10;  4.0000000E+04;  0.0000000E+00;  3.8859992E+04;  2.1899793E+00;  0.0000000E+00; -4.5647892E-01;  3.6332827E+03;
  1.2883261E+00;  9.9999998E-03; -1.0144091E-02;8331; -6.7244798E-02;  0.0000000E+00;  5.0508874E-03;  9.9251874E+02;  4.3261132E-01; -6.1978398E+03;3;  2.0070026E+01;  0.0000000E+00;  1.1693037E-01;0;  1.7263874E+00;  2.1712332E+03;  0.0000000E+00;  4.1034971E-03;  4.0000000E+04;  0.0000000E+00;  3.8860211E+04;  2.1816063E+00;  0.0000000E+00; -4.5521891E-01;  3.6458982E+03;
  1.2883260E+00;  9.9999998E-03;  1.0144250E-02;8333; -6.7244917E-02;  0.0000000E+00; -5.0502187E-03;  9.9251855E+02;  4.3261102E-01; -6.1979878E+03;3;  2.0070179E+01;  0.0000000E+00; -1.1679475E-01;0;  1.7263758E+00;  2.1712336E+03;  0.0000000E+00;  4.0873233E-03;  4.0000000E+04;  0.0000000E+00;  3.8860219E+04;  2.1815941E+00;  0.0000000E+00; -4.5521832E-01;  3.6459419E+03;
  1.2882739E+00;  9.9999998E-03; -2.0287178E-02;8330; -6.6933379E-02;  0.0000000E+00;  1.0063787E-02;  9.9260657E+02;  4.3256992E-01; -6.1250547E+03;3;  1.9927525E+01;  0.0000000E+00; -2.1784621E-01;0;  1.7058982E+00;  2.1720535E+03;  0.0000000E+00;  1.3090861E-02;  4.0000000E+04;  0.0000000E+00;  3.8860160E+04;  2.1573832E+00;  0.0000000E+00; -4.5148507E-01;  3.6876562E+03;
  1.2882738E+00;  9.9999998E-03;  2.0287342E-02;8334; -6.6933520E-02;  0.0000000E+00; -1.0063115E-02;  9.9260657E+02;  4.3256849E-01; -6.1250547E+03;3;  1.9927433E+01;  0.0000000E+00;  2.1800773E-01;0;  1.7058902E+00;  2.1720532E+03;  0.0000000E+00;  1.3057073E-02;  4.0000000E+04;  0.0000000E+00;  3.8860160E+04;  2.1573749E+00;  0.0000000E+00; -4.5148468E-01;  3.6877124E+03;
  1.3313072E+00;  9.9999998E-03; -1.0161985E-01;8383; -1.7924890E-02;  0.0000000E+00;  6.2330801E-02;  9.8856677E+02;  4.2202985E-01; -9.4714785E+03;3; -6.4226036E+01;  0.0000000E+00; -7.5582252E+00;0;  4.0147557E+00;  2.2601440E+03;  0.0000000E+00; -1.8381326E-02;  4.0000000E+04;  0.0000000E+00;  3.8827148E+04;  4.4475160E+00;  0.0000000E+00; -4.3276039E-01;  7.0573394E+03;
  1.3316447E+00;  9.9999998E-03; -9.1447279E-02;8384; -1.1458103E-02;  0.0000000E+00;  5.7032228E-02;  9.8807861E+02;  4.2205891E-01; -9.8758760E+03;3; -7.0535393E+01;  0.0000000E+00; -6.7465482E+00;0;  4.2024207E+00;  2.2586223E+03;  0.0000000E+00;  7.5248793E-02;  4.0000000E+04;  0.0000000E+00;  3.8819449E+04;  4.6514463E+00;  0.0000000E+00; -4.4902566E-01;  8.1489473E+03;
  1.3319757E+00;  9.9999998E-03; -8.1226595E-02;8385; -3.8652222E-03;  0.0000000E+00;  5.1395603E-02;  9.8764532E+02;  4.2210734E-01; -1.0234796E+04;3; -7.5487038E+01;  0.0000000E+00; -6.0030589E+00;0;  4.3742590E+00;  2.2571301E+03;  0.0000000E+00;  1.4689167E-01;  4.0000000E+04;  0.0000000E+00;  3.8811684E+04;  4.8382788E+00;  0.0000000E+00; -4.6401972E-01;  9.0935410E+03;
  1.3321615E+00;  9.9999998E-03; -7.1004808E-02;8386;  3.9718667E-04;  0.0000000E+00;  4.5555342E-02;  9.8727277E+02;  4.2218167E-01; -1.0543451E+04;3; -7.9585686E+01;  0.0000000E+00; -5.3109512E+00;0;  4.5193081E+00;  2.2554382E+03;  0.0000000E+00;  1.8497996E-01;  4.0000000E+04;  0.0000000E+00;  3.8805047E+04;  4.9968653E+00;  0.0000000E+00; -4.7755724E-01;  9.7784932E+03;
  1.3323978E+00;  9.9999998E-03; -6.0812175E-02;8387;  6.7341672E-03;  0.0000000E+00;  3.9464176E-02;  9.8697681E+02;  4.2225212E-01; -1.0788607E+04;3; -8.3104797E+01;  0.0000000E+00; -4.4288845E+00;0;  4.6495395E+00;  2.2539348E+03;  0.0000000E+00;  1.9002049E-01;  4.0000000E+04;  0.0000000E+00;  3.8799734E+04;  5.1390643E+00;  0.0000000E+00; -4.8952499E-01;  1.0206441E+04;
  1.3323981E+00;  9.9999998E-03;  6.0812384E-02;8399;  6.7397528E-03;  0.0000000E+00; -3.9463509E-02;  9.8697681E+02;  4.2225143E-01; -1.0788607E+04;3; -8.3104553E+01;  0.0000000E+00;  4.4286966E+00;0;  4.6495562E+00;  2.2539351E+03;  0.0000000E+00;  1.8991621E-01;  4.0000000E+04;  0.0000000E+00;  3.8799738E+04;  5.1390815E+00;  0.0000000E+00; -4.8952529E-01;  1.0206406E+04;
  1.3326799E+00;  9.9999998E-03; -5.0646249E-02;8388;  1.5155082E-02;  0.0000000E+00;  3.3095535E-02;  9.8676135E+02;  4.2230624E-01; -1.0967104E+04;3; -8.5714355E+01;  0.0000000E+00; -3.7408485E+00;0;  4.7641964E+00;  2.2526838E+03;  0.0000000E+00;  1.6775590E-01;  4.0000000E+04;  0.0000000E+00;  3.8796340E+04;  5.2639689E+00;  0.0000000E+00; -4.9977243E-01;  1.0428757E+04;
  1.3326800E+00;  9.9999998E-03;  5.0646454E-02;8398;  1.5156073E-02;  0.0000000E+00; -3.3095021E-02;  9.8676129E+02;  4.2230678E-01; -1.0967152E+04;3; -8.5714249E+01;  0.0000000E+00;  3.7406898E+00;0;  4.7642012E+00;  2.2526833E+03;  0.0000000E+00;  1.6767414E-01;  4.0000000E+04;  0.0000000E+00;  3.8796340E+04;  5.2639737E+00;  0.0000000E+00; -4.9977252E-01;  1.0428837E+04;
  1.3329625E+00;  9.9999998E-03; -4.0499114E-02;8389;  2.4010386E-02;  0.0000000E+00;  2.6555277E-02;  9.8660889E+02;  4.2234915E-01; -1.1093406E+04;3; -8.7345299E+01;  0.0000000E+00; -2.8997145E+00;0;  4.8604736E+00;  2.2516577E+03;  0.0000000E+00;  1.2781720E-01;  4.0000000E+04;  0.0000000E+00;  3.8794527E+04;  5.3686676E+00;  0.0000000E+00; -5.0819421E-01;  1.0515651E+04;
  1.3329625E+00;  9.9999998E-03;  4.0499315E-02;8397;  2.4009610E-02;  0.0000000E+00; -2.6554834E-02;  9.8660895E+02;  4.2234945E-01; -1.1093356E+04;3; -8.7345322E+01;  0.0000000E+00;  2.8994288E+00;0;  4.8604746E+00;  2.2516584E+03;  0.0000000E+00;  1.2775812E-01;  4.0000000E+04;  0.0000000E+00;  3.8794527E+04;  5.3686690E+00;  0.0000000E+00; -5.0819421E-01;  1.0515733E+04;
  1.3332046E+00;  9.9999998E-03; -3.0364847E-02;8390;  3.1738840E-02;  0.0000000E+00;  1.9942414E-02;  9.8650958E+02;  4.2237535E-01; -1.1175666E+04;3; -8.8463608E+01;  0.0000000E+00; -2.0455441E+00;0;  4.9361343E+00;  2.2508723E+03;  0.0000000E+00;  8.1428856E-02;  4.0000000E+04;  0.0000000E+00;  3.8793801E+04;  5.4508753E+00;  0.0000000E+00; -5.1474100E-01;  1.0531197E+04;
  1.3332046E+00;  9.9999998E-03;  3.0365044E-02;8396;  3.1736463E-02;  0.0000000E+00; -1.9942027E-02;  9.8650946E+02;  4.2237866E-01; -1.1175765E+04;3; -8.8463943E+01;  0.0000000E+00;  2.0454686E+00;0;  4.9361291E+00;  2.2508718E+03;  0.0000000E+00;  8.1390686E-02;  4.0000000E+04;  0.0000000E+00;  3.8793793E+04;  5.4508700E+00;  0.0000000E+00; -5.1474094E-01;  1.0531287E+04;
  1.3333894E+00;  9.9999998E-03; -2.0238340E-02;8391;  3.7646804E-02;  0.0000000E+00;  1.3295190E-02;  9.8644904E+02;  4.2239353E-01; -1.1225782E+04;3; -8.9101677E+01;  0.0000000E+00; -1.3610586E+00;0;  4.9905443E+00;  2.2503250E+03;  0.0000000E+00;  3.9363470E-02;  4.0000000E+04;  0.0000000E+00;  3.8793586E+04;  5.5099440E+00;  0.0000000E+00; -5.1939988E-01;  1.0521023E+04;
  1.3333894E+00;  9.9999998E-03;  2.0238537E-02;8395;  3.7647050E-02;  0.0000000E+00; -1.3294746E-02;  9.8644904E+02;  4.2239615E-01; -1.1225782E+04;3; -8.9101707E+01;  0.0000000E+00;  1.3608035E+00;0;  4.9905438E+00;  2.2503254E+03;  0.0000000E+00;  3.9340165E-02;  4.0000000E+04;  0.0000000E+00;  3.8793582E+04;  5.5099440E+00;  0.0000000E+00; -5.1940006E-01;  1.0521060E+04;
  1.3334992E+00;  9.9999998E-03; -1.0117557E-02;8392;  4.1114271E-02;  0.0000000E+00;  6.6560409E-03;  9.8641187E+02;  4.2240417E-01; -1.1256591E+04;3; -8.9532059E+01;  0.0000000E+00; -6.1276501E-01;0;  5.0229845E+00;  2.2499790E+03;  0.0000000E+00;  1.0333792E-02;  4.0000000E+04;  0.0000000E+00;  3.8793551E+04;  5.5451736E+00;  0.0000000E+00; -5.2218932E-01;  1.0508714E+04;
  1.3335341E+00;  9.9999998E-03;  9.5902642E-08;8393;  4.2201709E-02;  0.0000000E+00;  2.1463660E-07;  9.8639996E+02;  4.2240787E-01; -1.1266466E+04;3; -8.9672470E+01;  0.0000000E+00; -1.2394215E-04;0;  5.0336738E+00;  2.2498557E+03;  0.0000000E+00;  1.4152439E-09;  4.0000000E+04;  0.0000000E+00;  3.8793520E+04;  5.5567932E+00;  0.0000000E+00; -5.2311927E-01;  1.0503956E+04;
  1.3334991E+00;  9.9999998E-03;  1.0117751E-02;8394;  4.1109677E-02;  0.0000000E+00; -6.6556437E-03;  9.8641193E+02;  4.2240411E-01; -1.1256541E+04;3; -8.9532829E+01;  0.0000000E+00;  6.1270928E-01;0;  5.0229807E+00;  2.2499790E+03;  0.0000000E+00;  1.0323393E-02;  4.0000000E+04;  0.0000000E+00;  3.8793547E+04;  5.5451703E+00;  0.0000000E+00; -5.2218956E-01;  1.0508788E+04;
  1.3726035E+00;  9.9999998E-03; -1.0152939E-01;8444;  3.1068474E-01;  0.0000000E+00;  6.3194714E-02;  9.9170569E+02;  4.0041250E-01; -6.8706509E+03;3; -1.3451797E+02;  0.0000000E+00;  1.0884372E+01;0;  6.5798182E+00;  2.5231370E+03;  0.0000000E+00;  5.0933045E-01;  4.0000000E+04;  0.0000000E+00;  3.8787809E+04;  6.9514599E+00;  0.0000000E+00; -3.7164184E-01;  1.2647234E+04;
  1.3728685E+00;  9.9999998E-03; -9.1342069E-02;8445;  3.3343554E-01;  0.0000000E+00;  5.7237752E-02;  9.9165100E+02;  4.0040678E-01; -6.9159722E+03;3; -1.3711407E+02;  0.0000000E+00;  1.0162428E+01;0;  6.7059865E+00;  2.5235566E+03;  0.0000000E+00;  5.0377786E-01;  4.0000000E+04;  0.0000000E+00;  3.8782676E+04;  7.0781250E+00;  0.0000000E+00; -3.7213871E-01;  1.3337125E+04;
  1.3731104E+00;  9.9999998E-03; -8.1152178E-02;8446;  3.5437995E-01;  0.0000000E+00;  5.1139951E-02;  9.9160535E+02;  4.0043274E-01; -6.9537891E+03;3; -1.3912154E+02;  0.0000000E+00;  9.1173306E+00;0;  6.8131609E+00;  2.5236616E+03;  0.0000000E+00;  4.6831992E-01;  4.0000000E+04;  0.0000000E+00;  3.8776715E+04;  7.1850419E+00;  0.0000000E+00; -3.7188080E-01;  1.4074240E+04;
  1.3733748E+00;  9.9999998E-03; -7.0976749E-02;8447;  3.7408012E-01;  0.0000000E+00;  4.4844195E-02;  9.9158887E+02;  4.0046167E-01; -6.9674121E+03;3; -1.4047868E+02;  0.0000000E+00;  8.1871367E+00;0;  6.9035740E+00;  2.5237454E+03;  0.0000000E+00;  4.0957049E-01;  4.0000000E+04;  0.0000000E+00;  3.8770766E+04;  7.2744784E+00;  0.0000000E+00; -3.7090456E-01;  1.4772288E+04;
  1.3736352E+00;  9.9999998E-03; -6.0815632E-02;8448;  3.9159968E-01;  0.0000000E+00;  3.8455151E-02;  9.9161786E+02;  4.0048432E-01; -6.9434121E+03;3; -1.4137444E+02;  0.0000000E+00;  7.0517712E+00;0;  6.9775372E+00;  2.5239116E+03;  0.0000000E+00;  3.3521280E-01;  4.0000000E+04;  0.0000000E+00;  3.8765855E+04;  7.3471160E+00;  0.0000000E+00; -3.6957905E-01;  1.5377643E+04;
  1.3736352E+00;  9.9999998E-03;  6.0815856E-02;8460;  3.9159849E-01;  0.0000000E+00; -3.8454354E-02;  9.9161810E+02;  4.0048292E-01; -6.9432144E+03;3; -1.4137476E+02;  0.0000000E+00; -7.0519509E+00;0;  6.9775319E+00;  2.5239119E+03;  0.0000000E+00;  3.3516657E-01;  4.0000000E+04;  0.0000000E+00;  3.8765867E+04;  7.3471112E+00;  0.0000000E+00; -3.6957937E-01;  1.5377653E+04;
  1.3738912E+00;  9.9999998E-03; -5.0666638E-02;8449;  4.0684560E-01;  0.0000000E+00;  3.1998776E-02;  9.9166559E+02;  4.0049565E-01; -6.9038594E+03;3; -1.4186513E+02;  0.0000000E+00;  5.9162464E+00;0;  7.0365739E+00;  2.5242039E+03;  0.0000000E+00;  2.5381207E-01;  4.0000000E+04;  0.0000000E+00;  3.8761582E+04;  7.4046421E+00;  0.0000000E+00; -3.6806837E-01;  1.5875699E+04;
  1.3738912E+00;  9.9999998E-03;  5.0666861E-02;8459;  4.0684569E-01;  0.0000000E+00; -3.1997859E-02;  9.9166577E+02;  4.0049395E-01; -6.9037109E+03;3; -1.4186490E+02;  0.0000000E+00; -5.9164014E+00;0;  7.0365705E+00;  2.5242046E+03;  0.0000000E+00;  2.5378093E-01;  4.0000000E+04;  0.0000000E+00;  3.8761566E+04;  7.4046388E+00;  0.0000000E+00; -3.6806846E-01;  1.5875765E+04;
  1.3741387E+00;  9.9999998E-03; -4.0526424E-02;8450;  4.1972205E-01;  0.0000000E+00;  2.5530083E-02;  9.9174445E+02;  4.0048951E-01; -6.8385337E+03;3; -1.4207776E+02;  0.0000000E+00;  4.7783432E+00;0;  7.0822682E+00;  2.5246614E+03;  0.0000000E+00;  1.7379469E-01;  4.0000000E+04;  0.0000000E+00;  3.8758086E+04;  7.4487634E+00;  0.0000000E+00; -3.6649528E-01;  1.6275938E+04;
  1.3741387E+00;  9.9999998E-03;  4.0526651E-02;8458;  4.1972327E-01;  0.0000000E+00; -2.5529087E-02;  9.9174445E+02;  4.0049013E-01; -6.8385337E+03;3; -1.4207727E+02;  0.0000000E+00; -4.7785196E+00;0;  7.0822620E+00;  2.5246614E+03;  0.0000000E+00;  1.7377053E-01;  4.0000000E+04;  0.0000000E+00;  3.8758078E+04;  7.4487572E+00;  0.0000000E+00; -3.6649501E-01;  1.6275991E+04;
  1.3743478E+00;  9.9999998E-03; -3.0391775E-02;8451;  4.2975104E-01;  0.0000000E+00;  1.9092267E-02;  9.9182874E+02;  4.0047881E-01; -6.7687163E+03;3; -1.4214772E+02;  0.0000000E+00;  3.5855742E+00;0;  7.1157241E+00;  2.5251433E+03;  0.0000000E+00;  1.0280088E-01;  4.0000000E+04;  0.0000000E+00;  3.8755633E+04;  7.4808297E+00;  0.0000000E+00; -3.6510551E-01;  1.6591885E+04;
  1.3743477E+00;  9.9999998E-03;  3.0392000E-02;8457;  4.2975006E-01;  0.0000000E+00; -1.9091383E-02;  9.9182867E+02;  4.0047789E-01; -6.7687656E+03;3; -1.4214809E+02;  0.0000000E+00; -3.5857327E+00;0;  7.1157160E+00;  2.5251443E+03;  0.0000000E+00;  1.0278653E-01;  4.0000000E+04;  0.0000000E+00;  3.8755633E+04;  7.4808221E+00;  0.0000000E+00; -3.6510628E-01;  1.6592035E+04;
  1.3744900E+00;  9.9999998E-03; -2.0260874E-02;8452;  4.3648958E-01;  0.0000000E+00;  1.2712461E-02;  9.9189777E+02;  4.0047058E-01; -6.7115391E+03;3; -1.4232143E+02;  0.0000000E+00;  2.4058182E+00;0;  7.1380882E+00;  2.5255308E+03;  0.0000000E+00;  4.7307316E-02;  4.0000000E+04;  0.0000000E+00;  3.8753660E+04;  7.5022240E+00;  0.0000000E+00; -3.6413598E-01;  1.6827961E+04;
  1.3744899E+00;  9.9999998E-03;  2.0261098E-02;8456;  4.3648705E-01;  0.0000000E+00; -1.2711593E-02;  9.9189807E+02;  4.0046719E-01; -6.7112925E+03;3; -1.4232236E+02;  0.0000000E+00; -2.4059975E+00;0;  7.1380873E+00;  2.5255293E+03;  0.0000000E+00;  4.7299601E-02;  4.0000000E+04;  0.0000000E+00;  3.8753656E+04;  7.5022240E+00;  0.0000000E+00; -3.6413684E-01;  1.6828047E+04;
  1.3745700E+00;  9.9999998E-03; -1.0131110E-02;8453;  4.4029161E-01;  0.0000000E+00;  6.3551343E-03;  9.9193665E+02;  4.0045932E-01; -6.6793457E+03;3; -1.4249966E+02;  0.0000000E+00;  1.2020247E+00;0;  7.1508470E+00;  2.5257573E+03;  0.0000000E+00;  1.2076072E-02;  4.0000000E+04;  0.0000000E+00;  3.8752406E+04;  7.5144286E+00;  0.0000000E+00; -3.6358157E-01;  1.6977523E+04;
  1.3745698E+00;  9.9999998E-03;  1.0131328E-02;8455;  4.4028580E-01;  0.0000000E+00; -6.3542738E-03;  9.9193707E+02;  4.0045822E-01; -6.6789507E+03;3; -1.4250189E+02;  0.0000000E+00; -1.2021757E+00;0;  7.1508393E+00;  2.5257554E+03;  0.0000000E+00;  1.2072896E-02;  4.0000000E+04;  0.0000000E+00;  3.8752402E+04;  7.5144229E+00;  0.0000000E+00; -3.6358362E-01;  1.6977637E+04;
  1.3745954E+00;  9.9999998E-03;  1.0900312E-07;8454;  4.4150490E-01;  0.0000000E+00;  4.7981666E-07;  9.9194891E+02;  4.0045691E-01; -6.6691743E+03;3; -1.4257701E+02;  0.0000000E+00; -5.3596683E-05;0;  7.1549773E+00;  2.5258259E+03;  0.0000000E+00;  1.4950362E-09;  4.0000000E+04;  0.0000000E+00;  3.8752070E+04;  7.5183816E+00;  0.0000000E+00; -3.6340410E-01;  1.7029232E+04;
  1.4113232E+00;  9.9999998E-03; -1.0162508E-01;8505;  6.7832291E-01;  0.0000000E+00;  2.1746261E-02;  9.9948621E+02;  3.7477854E-01; -4.2555551E+02;3; -1.2327071E+02;  0.0000000E+00;  3.7931095E+01;0;  6.9957681E+00;  2.9213030E+03;  0.0000000E+00;  8.9873666E-01;  4.0000000E+04;  0.0000000E+00;  3.8769000E+04;  7.1119576E+00;  0.0000000E+00; -1.1618956E-01;  1.6894857E+04;
  1.4114406E+00;  9.9999998E-03; -9.1478661E-02;8506;  7.0371848E-01;  0.0000000E+00;  1.9150147E-02;  9.9959961E+02;  3.7480924E-01; -3.3160733E+02;3; -1.2077426E+02;  0.0000000E+00;  3.5379795E+01;0;  6.9690108E+00;  2.9218191E+03;  0.0000000E+00;  7.9671335E-01;  4.0000000E+04;  0.0000000E+00;  3.8767566E+04;  7.0645561E+00;  0.0000000E+00; -9.5545366E-02;  1.7105854E+04;
  1.4116114E+00;  9.9999998E-03; -8.1330635E-02;8507;  7.2640866E-01;  0.0000000E+00;  1.6554391E-02;  9.9970972E+02;  3.7483716E-01; -2.4042378E+02;3; -1.1797646E+02;  0.0000000E+00;  3.2550819E+01;0;  6.9379830E+00;  2.9223716E+03;  0.0000000E+00;  6.7364299E-01;  4.0000000E+04;  0.0000000E+00;  3.8764242E+04;  7.0133114E+00;  0.0000000E+00; -7.5328149E-02;  1.7479912E+04;
  1.4118111E+00;  9.9999998E-03; -7.1181387E-02;8508;  7.4592340E-01;  0.0000000E+00;  1.4047615E-02;  9.9983978E+02;  3.7485316E-01; -1.3270197E+02;3; -1.1514347E+02;  0.0000000E+00;  2.9445101E+01;0;  6.9037976E+00;  2.9230908E+03;  0.0000000E+00;  5.4205662E-01;  4.0000000E+04;  0.0000000E+00;  3.8760211E+04;  6.9601374E+00;  0.0000000E+00; -5.6339793E-02;  1.7975539E+04;
  1.4120371E+00;  9.9999998E-03; -6.1028101E-02;8509;  7.6229614E-01;  0.0000000E+00;  1.1646556E-02;  9.9998633E+02;  3.7485266E-01; -1.1305329E+01;3; -1.1240395E+02;  0.0000000E+00;  2.6108032E+01;0;  6.8674078E+00;  2.9240957E+03;  0.0000000E+00;  4.1254547E-01;  4.0000000E+04;  0.0000000E+00;  3.8755668E+04;  6.9065170E+00;  0.0000000E+00; -3.9108992E-02;  1.8539121E+04;
  1.4120370E+00;  9.9999998E-03;  6.1028324E-02;8521;  7.6229620E-01;  0.0000000E+00; -1.1645533E-02;  9.9998608E+02;  3.7485459E-01; -1.1502803E+01;3; -1.1240401E+02;  0.0000000E+00; -2.6108145E+01;0;  6.8674021E+00;  2.9240942E+03;  0.0000000E+00;  4.1254991E-01;  4.0000000E+04;  0.0000000E+00;  3.8755668E+04;  6.9065123E+00;  0.0000000E+00; -3.9110284E-02;  1.8539148E+04;
  1.4122639E+00;  9.9999998E-03; -5.0869863E-02;8510;  7.7550679E-01;  0.0000000E+00;  9.3941204E-03;  1.0001556E+03;  3.7483647E-01;  1.2885101E+02;3; -1.0994691E+02;  0.0000000E+00;  2.2539722E+01;0;  6.8309407E+00;  2.9253286E+03;  0.0000000E+00;  2.9352227E-01;  4.0000000E+04;  0.0000000E+00;  3.8751070E+04;  6.8551679E+00;  0.0000000E+00; -2.4227347E-02;  1.9125811E+04;
  1.4122638E+00;  9.9999998E-03;  5.0870091E-02;8520;  7.7550644E-01;  0.0000000E+00; -9.3931407E-03;  1.0001558E+03;  3.7483683E-01;  1.2904848E+02;3; -1.0994705E+02;  0.0000000E+00; -2.2539896E+01;0;  6.8309398E+00;  2.9253289E+03;  0.0000000E+00;  2.9352403E-01;  4.0000000E+04;  0.0000000E+00;  3.8751059E+04;  6.8551688E+00;  0.0000000E+00; -2.4229011E-02;  1.9125883E+04;
  1.4124732E+00;  9.9999998E-03; -4.0706437E-02;8511;  7.8575915E-01;  0.0000000E+00;  7.2927056E-03;  1.0003287E+03;  3.7480831E-01;  2.7221606E+02;3; -1.0788419E+02;  0.0000000E+00;  1.8752251E+01;0;  6.7967191E+00;  2.9267178E+03;  0.0000000E+00;  1.9090094E-01;  4.0000000E+04;  0.0000000E+00;  3.8746562E+04;  6.8087254E+00;  0.0000000E+00; -1.2006423E-02;  1.9698918E+04;
  1.4124731E+00;  9.9999998E-03;  4.0706668E-02;8519;  7.8575897E-01;  0.0000000E+00; -7.2917016E-03;  1.0003289E+03;  3.7480795E-01;  2.7241354E+02;3; -1.0788431E+02;  0.0000000E+00; -1.8752365E+01;0;  6.7967238E+00;  2.9267180E+03;  0.0000000E+00;  1.9090667E-01;  4.0000000E+04;  0.0000000E+00;  3.8746570E+04;  6.8087316E+00;  0.0000000E+00; -1.2007870E-02;  1.9699012E+04;
  1.4126472E+00;  9.9999998E-03; -3.0537296E-02;8512;  7.9329979E-01;  0.0000000E+00;  5.3208591E-03;  1.0004848E+03;  3.7477350E-01;  4.0156036E+02;3; -1.0628661E+02;  0.0000000E+00;  1.4833100E+01;0;  6.7672100E+00;  2.9280303E+03;  0.0000000E+00;  1.0845727E-01;  4.0000000E+04;  0.0000000E+00;  3.8742430E+04;  6.7697978E+00;  0.0000000E+00; -2.5880062E-03;  2.0221160E+04;
  1.4126472E+00;  9.9999998E-03;  3.0537525E-02;8518;  7.9329979E-01;  0.0000000E+00; -5.3198203E-03;  1.0004849E+03;  3.7477341E-01;  4.0165909E+02;3; -1.0628653E+02;  0.0000000E+00; -1.4833337E+01;0;  6.7672091E+00;  2.9280298E+03;  0.0000000E+00;  1.0846393E-01;  4.0000000E+04;  0.0000000E+00;  3.8742426E+04;  6.7697978E+00;  0.0000000E+00; -2.5888931E-03;  2.0221221E+04;
  1.4127704E+00;  9.9999998E-03; -2.0362984E-02;8513;  7.9835856E-01;  0.0000000E+00;  3.4664336E-03;  1.0006066E+03;  3.7474236E-01;  5.0246857E+02;3; -1.0519708E+02;  0.0000000E+00;  1.0512361E+01;0;  6.7447691E+00;  2.9290923E+03;  0.0000000E+00;  4.8466723E-02;  4.0000000E+04;  0.0000000E+00;  3.8739328E+04;  6.7407837E+00;  0.0000000E+00;  3.9855135E-03;  2.0648705E+04;
  1.4128376E+00;  9.9999998E-03; -1.0183667E-02;8514;  8.0120391E-01;  0.0000000E+00;  1.7073076E-03;  1.0006796E+03;  3.7472424E-01;  5.6289496E+02;3; -1.0459843E+02;  0.0000000E+00;  5.5210333E+00;0;  6.7309842E+00;  2.9297520E+03;  0.0000000E+00;  1.2147292E-02;  4.0000000E+04;  0.0000000E+00;  3.8736996E+04;  6.7231884E+00;  0.0000000E+00;  7.7956319E-03;  2.0932906E+04;
  1.4128377E+00;  9.9999998E-03;  1.0183896E-02;8516;  8.0120456E-01;  0.0000000E+00; -1.7062419E-03;  1.0006796E+03;  3.7472418E-01;  5.6289496E+02;3; -1.0459825E+02;  0.0000000E+00; -5.5212817E+00;0;  6.7309833E+00;  2.9297534E+03;  0.0000000E+00;  1.2150589E-02;  4.0000000E+04;  0.0000000E+00;  3.8737000E+04;  6.7231874E+00;  0.0000000E+00;  7.7957045E-03;  2.0932934E+04;
  1.4127704E+00;  9.9999998E-03;  2.0363212E-02;8517;  7.9835880E-01;  0.0000000E+00; -3.4653856E-03;  1.0006064E+03;  3.7474349E-01;  5.0227112E+02;3; -1.0519707E+02;  0.0000000E+00; -1.0512556E+01;0;  6.7447648E+00;  2.9290913E+03;  0.0000000E+00;  4.8472531E-02;  4.0000000E+04;  0.0000000E+00;  3.8739332E+04;  6.7407799E+00;  0.0000000E+00;  3.9849360E-03;  2.0648801E+04;
  1.4128579E+00;  9.9999998E-03;  1.1402745E-07;8515;  8.0211115E-01;  0.0000000E+00;  5.2782167E-07;  1.0007039E+03;  3.7471944E-01;  5.8303711E+02;3; -1.0441382E+02;  0.0000000E+00; -1.6210906E-04;0;  6.7263761E+00;  2.9299634E+03;  0.0000000E+00;  1.2519322E-09;  4.0000000E+04;  0.0000000E+00;  3.8736309E+04;  6.7173448E+00;  0.0000000E+00;  9.0311877E-03;  2.1032920E+04;
  1.4475522E+00;  9.9999998E-03; -8.1390426E-02;8568;  9.9784493E-01;  0.0000000E+00; -6.9226667E-02;  1.0050870E+03;  3.4669375E-01;  4.2125986E+03;3; -3.0418697E+01;  0.0000000E+00;  1.2706808E+01;0;  5.2034655E+00;  3.4483328E+03;  0.0000000E+00;  4.9763355E-01;  4.0000000E+04;  0.0000000E+00;  3.8787266E+04;  4.9139614E+00;  0.0000000E+00;  2.8950411E-01;  1.6666277E+04;
  1.4478954E+00;  9.9999998E-03; -6.1098084E-02;8570;  1.0123328E+00;  0.0000000E+00; -5.2901406E-02;  1.0051802E+03;  3.4675422E-01;  4.2897861E+03;3; -1.8647881E+01;  0.0000000E+00;  5.7193084E+00;0;  4.9971247E+00;  3.4475117E+03;  0.0000000E+00;  3.1026062E-01;  4.0000000E+04;  0.0000000E+00;  3.8785078E+04;  4.6581640E+00;  0.0000000E+00;  3.3896044E-01;  1.6884096E+04;
  1.4478954E+00;  9.9999998E-03;  6.1098330E-02;8582;  1.0123329E+00;  0.0000000E+00;  5.2902464E-02;  1.0051805E+03;  3.4675407E-01;  4.2899839E+03;3; -1.8647787E+01;  0.0000000E+00; -5.7192197E+00;0;  4.9971247E+00;  3.4475117E+03;  0.0000000E+00;  3.1029499E-01;  4.0000000E+04;  0.0000000E+00;  3.8785074E+04;  4.6581659E+00;  0.0000000E+00;  3.3895859E-01;  1.6884111E+04;
  1.4477037E+00;  9.9999998E-03; -7.1250133E-02;8569;  1.0058401E+00;  0.0000000E+00; -6.1814070E-02;  1.0050972E+03;  3.4674132E-01;  4.2210845E+03;3; -2.4255857E+01;  0.0000000E+00;  7.0450883E+00;0;  5.0965295E+00;  3.4473984E+03;  0.0000000E+00;  4.0109533E-01;  4.0000000E+04;  0.0000000E+00;  3.8787141E+04;  4.7802939E+00;  0.0000000E+00;  3.1623554E-01;  1.6688047E+04;
  1.4475037E+00;  9.9999998E-03; -9.1519706E-02;8567;  9.8846310E-01;  0.0000000E+00; -7.2672166E-02;  1.0051537E+03;  3.4659529E-01;  4.2678823E+03;3; -3.7072777E+01;  0.0000000E+00;  2.9584845E+01;0;  5.3138480E+00;  3.4507412E+03;  0.0000000E+00;  5.9691465E-01;  4.0000000E+04;  0.0000000E+00;  3.8786430E+04;  5.0543122E+00;  0.0000000E+00;  2.5953579E-01;  1.6836980E+04;
  1.4481000E+00;  9.9999998E-03; -5.0933812E-02;8571;  1.0174404E+00;  0.0000000E+00; -4.3623228E-02;  1.0053185E+03;  3.4673941E-01;  4.4042925E+03;3; -1.3770490E+01;  0.0000000E+00;  5.0743303E+00;0;  4.9076071E+00;  3.4484353E+03;  0.0000000E+00;  2.2723225E-01;  4.0000000E+04;  0.0000000E+00;  3.8782590E+04;  4.5500951E+00;  0.0000000E+00;  3.5751194E-01;  1.7212182E+04;
  1.4480999E+00;  9.9999998E-03;  5.0934054E-02;8581;  1.0174402E+00;  0.0000000E+00;  4.3624263E-02;  1.0053186E+03;  3.4674013E-01;  4.4043916E+03;3; -1.3770510E+01;  0.0000000E+00; -5.0741959E+00;0;  4.9076061E+00;  3.4484358E+03;  0.0000000E+00;  2.2725941E-01;  4.0000000E+04;  0.0000000E+00;  3.8782562E+04;  4.5500965E+00;  0.0000000E+00;  3.5750970E-01;  1.7212250E+04;
  1.4483064E+00;  9.9999998E-03; -4.0758591E-02;8572;  1.0213590E+00;  0.0000000E+00; -3.4380008E-02;  1.0054930E+03;  3.4670016E-01;  4.5487104E+03;3; -9.6961212E+00;  0.0000000E+00;  4.3215847E+00;0;  4.8296041E+00;  3.4500129E+03;  0.0000000E+00;  1.5344229E-01;  4.0000000E+04;  0.0000000E+00;  3.8779418E+04;  4.4574919E+00;  0.0000000E+00;  3.7211233E-01;  1.7617637E+04;
  1.4483064E+00;  9.9999998E-03;  4.0758830E-02;8580;  1.0213587E+00;  0.0000000E+00;  3.4381088E-02;  1.0054927E+03;  3.4669930E-01;  4.5485132E+03;3; -9.6962099E+00;  0.0000000E+00; -4.3214450E+00;0;  4.8296070E+00;  3.4500110E+03;  0.0000000E+00;  1.5346837E-01;  4.0000000E+04;  0.0000000E+00;  3.8779430E+04;  4.4574966E+00;  0.0000000E+00;  3.7211025E-01;  1.7617771E+04;
  1.4475859E+00;  9.9999998E-03; -1.0164497E-01;8566;  9.7776592E-01;  0.0000000E+00; -7.2611056E-02;  1.0052887E+03;  3.4645349E-01;  4.3796289E+03;3; -4.3747585E+01;  0.0000000E+00;  3.8889309E+01;0;  5.4267602E+00;  3.4545234E+03;  0.0000000E+00;  6.9733316E-01;  4.0000000E+04;  0.0000000E+00;  3.8784062E+04;  5.1994290E+00;  0.0000000E+00;  2.2733122E-01;  1.7188900E+04;
  1.4484906E+00;  9.9999998E-03; -3.0576168E-02;8573;  1.0242225E+00;  0.0000000E+00; -2.5363058E-02;  1.0056690E+03;  3.4665027E-01;  4.6945107E+03;3; -6.4954906E+00;  0.0000000E+00;  3.4267521E+00;0;  4.7658415E+00;  3.4518135E+03;  0.0000000E+00;  9.0747654E-02;  4.0000000E+04;  0.0000000E+00;  3.8776148E+04;  4.3828397E+00;  0.0000000E+00;  3.8300189E-01;  1.8041674E+04;
  1.4484906E+00;  9.9999998E-03;  3.0576408E-02;8579;  1.0242225E+00;  0.0000000E+00;  2.5364250E-02;  1.0056689E+03;  3.4665120E-01;  4.6945107E+03;3; -6.4954057E+00;  0.0000000E+00; -3.4264691E+00;0;  4.7658362E+00;  3.4518137E+03;  0.0000000E+00;  9.0767063E-02;  4.0000000E+04;  0.0000000E+00;  3.8776160E+04;  4.3828354E+00;  0.0000000E+00;  3.8300076E-01;  1.8041691E+04;
  1.4486282E+00;  9.9999998E-03; -2.0389222E-02;8574;  1.0261364E+00;  0.0000000E+00; -1.6659649E-02;  1.0058185E+03;  3.4660336E-01;  4.8182979E+03;3; -4.2222762E+00;  0.0000000E+00;  2.3876941E+00;0;  4.7189846E+00;  3.4534001E+03;  0.0000000E+00;  4.2026509E-02;  4.0000000E+04;  0.0000000E+00;  3.8773266E+04;  4.3285451E+00;  0.0000000E+00;  3.9043927E-01;  1.8419129E+04;
  1.4486283E+00;  9.9999998E-03;  2.0389462E-02;8578;  1.0261365E+00;  0.0000000E+00;  1.6660970E-02;  1.0058184E+03;  3.4660527E-01;  4.8181992E+03;3; -4.2222376E+00;  0.0000000E+00; -2.3873601E+00;0;  4.7189808E+00;  3.4534011E+03;  0.0000000E+00;  4.2039089E-02;  4.0000000E+04;  0.0000000E+00;  3.8773262E+04;  4.3285427E+00;  0.0000000E+00;  3.9043799E-01;  1.8419168E+04;
  1.4487075E+00;  9.9999998E-03; -1.0197304E-02;8575;  1.0272088E+00;  0.0000000E+00; -8.2455166E-03;  1.0059153E+03;  3.4657642E-01;  4.8985527E+03;3; -2.8852363E+00;  0.0000000E+00;  1.2287872E+00;0;  4.6907015E+00;  3.4544380E+03;  0.0000000E+00;  1.0795739E-02;  4.0000000E+04;  0.0000000E+00;  3.8771188E+04;  4.2959929E+00;  0.0000000E+00;  3.9470884E-01;  1.8682703E+04;
  1.4487331E+00;  9.9999998E-03;  1.2047978E-07;8576;  1.0275536E+00;  0.0000000E+00;  6.8090014E-07;  1.0059507E+03;  3.4656814E-01;  4.9277720E+03;3; -2.4450686E+00;  0.0000000E+00;  1.6735579E-04;0;  4.6812620E+00;  3.4547761E+03;  0.0000000E+00;  6.5224287E-10;  4.0000000E+04;  0.0000000E+00;  3.8770477E+04;  4.2851644E+00;  0.0000000E+00;  3.9609766E-01;  1.8777471E+04;
  1.4487076E+00;  9.9999998E-03;  1.0197546E-02;8577;  1.0272093E+00;  0.0000000E+00;  8.2469247E-03;  1.0059156E+03;  3.4657767E-01;  4.8987500E+03;3; -2.8849199E+00;  0.0000000E+00; -1.2283856E+00;0;  4.6906958E+00;  3.4544404E+03;  0.0000000E+00;  1.0801753E-02;  4.0000000E+04;  0.0000000E+00;  3.8771195E+04;  4.2959871E+00;  0.0000000E+00;  3.9470869E-01;  1.8682666E+04;
  1.4806519E+00;  9.9999998E-03; -8.1253797E-02;8629;  1.0758017E+00;  0.0000000E+00; -6.7878604E-02;  1.0066292E+03;  3.1721845E-01;  5.4881260E+03;3;  4.6820446E+01;  0.0000000E+00;  4.8326027E-01;0;  3.0636058E+00;  4.1250078E+03;  0.0000000E+00;  8.2236044E-02;  4.0000000E+04;  0.0000000E+00;  3.8848836E+04;  2.5365751E+00;  0.0000000E+00;  5.2703083E-01;  1.1068820E+04;
  1.4806765E+00;  9.9999998E-03; -9.1362223E-02;8628;  1.0760905E+00;  0.0000000E+00; -7.6653279E-02;  1.0069045E+03;  3.1707510E-01;  5.7159985E+03;3;  4.4008308E+01;  0.0000000E+00; -2.4189359E-01;0;  3.1727750E+00;  4.1313018E+03;  0.0000000E+00;  1.1603320E-01;  4.0000000E+04;  0.0000000E+00;  3.8844223E+04;  2.6661358E+00;  0.0000000E+00;  5.0663924E-01;  1.1706930E+04;
  1.4807267E+00;  9.9999998E-03; -7.1130112E-02;8630;  1.0755190E+00;  0.0000000E+00; -5.9003424E-02;  1.0064882E+03;  3.1729600E-01;  5.3713716E+03;3;  4.9527748E+01;  0.0000000E+00;  1.0271102E+00;0;  2.9611015E+00;  4.1214692E+03;  0.0000000E+00;  7.2474293E-02;  4.0000000E+04;  0.0000000E+00;  3.8851988E+04;  2.4166856E+00;  0.0000000E+00;  5.4441583E-01;  1.0641080E+04;
  1.4808408E+00;  9.9999998E-03; -1.0146745E-01;8627;  1.0763723E+00;  0.0000000E+00; -8.5281231E-02;  1.0073231E+03;  3.1685889E-01;  6.0624868E+03;3;  4.0536743E+01;  0.0000000E+00; -1.0233133E+00;0;  3.2864876E+00;  4.1405752E+03;  0.0000000E+00;  1.9750816E-01;  4.0000000E+04;  0.0000000E+00;  3.8838145E+04;  2.8029428E+00;  0.0000000E+00;  4.8354471E-01;  1.2517739E+04;
  1.4808652E+00;  9.9999998E-03; -6.0987372E-02;8631;  1.0752082E+00;  0.0000000E+00; -5.0133668E-02;  1.0064879E+03;  3.1732288E-01;  5.3711660E+03;3;  5.2050476E+01;  0.0000000E+00;  1.4497521E+00;0;  2.8673105E+00;  4.1202886E+03;  0.0000000E+00;  7.0355035E-02;  4.0000000E+04;  0.0000000E+00;  3.8853500E+04;  2.3086679E+00;  0.0000000E+00;  5.5864275E-01;  1.0425995E+04;
  1.4808654E+00;  9.9999998E-03;  6.0987640E-02;8643;  1.0752082E+00;  0.0000000E+00;  5.0134812E-02;  1.0064883E+03;  3.1732383E-01;  5.3714624E+03;3;  5.2050716E+01;  0.0000000E+00; -1.4495858E+00;0;  2.8673091E+00;  4.1202886E+03;  0.0000000E+00;  7.0391521E-02;  4.0000000E+04;  0.0000000E+00;  3.8853496E+04;  2.3086674E+00;  0.0000000E+00;  5.5864167E-01;  1.0426028E+04;
  1.4810101E+00;  9.9999998E-03; -5.0830662E-02;8632;  1.0748923E+00;  0.0000000E+00; -4.1365441E-02;  1.0065984E+03;  3.1732434E-01;  5.4626426E+03;3;  5.3912441E+01;  0.0000000E+00;  1.5949483E+00;0;  2.7857223E+00;  4.1205435E+03;  0.0000000E+00;  6.6107422E-02;  4.0000000E+04;  0.0000000E+00;  3.8853707E+04;  2.2160368E+00;  0.0000000E+00;  5.6968552E-01;  1.0406784E+04;
  1.4810101E+00;  9.9999998E-03;  5.0830930E-02;8642;  1.0748923E+00;  0.0000000E+00;  4.1366596E-02;  1.0065988E+03;  3.1732553E-01;  5.4628398E+03;3;  5.3913170E+01;  0.0000000E+00; -1.5947304E+00;0;  2.7857223E+00;  4.1205435E+03;  0.0000000E+00;  6.6143394E-02;  4.0000000E+04;  0.0000000E+00;  3.8853711E+04;  2.2160385E+00;  0.0000000E+00;  5.6968391E-01;  1.0406960E+04;
  1.4811491E+00;  9.9999998E-03; -4.0668558E-02;8633;  1.0746217E+00;  0.0000000E+00; -3.2751516E-02;  1.0067786E+03;  3.1730869E-01;  5.6117529E+03;3;  5.5606869E+01;  0.0000000E+00;  1.5956455E+00;0;  2.7172697E+00;  4.1218228E+03;  0.0000000E+00;  5.5337027E-02;  4.0000000E+04;  0.0000000E+00;  3.8852535E+04;  2.1393912E+00;  0.0000000E+00;  5.7787853E-01;  1.0533733E+04;
  1.4811492E+00;  9.9999998E-03;  4.0668823E-02;8641;  1.0746218E+00;  0.0000000E+00;  3.2752655E-02;  1.0067786E+03;  3.1730855E-01;  5.6117529E+03;3;  5.5607010E+01;  0.0000000E+00; -1.5954471E+00;0;  2.7172697E+00;  4.1218252E+03;  0.0000000E+00;  5.5367365E-02;  4.0000000E+04;  0.0000000E+00;  3.8852531E+04;  2.1393917E+00;  0.0000000E+00;  5.7787806E-01;  1.0533778E+04;
  1.4812794E+00;  9.9999998E-03; -3.0504474E-02;8634;  1.0743811E+00;  0.0000000E+00; -2.4332220E-02;  1.0069848E+03;  3.1727585E-01;  5.7824766E+03;3;  5.6822773E+01;  0.0000000E+00;  1.4587586E+00;0;  2.6624153E+00;  4.1237358E+03;  0.0000000E+00;  3.8557865E-02;  4.0000000E+04;  0.0000000E+00;  3.8850879E+04;  2.0787463E+00;  0.0000000E+00;  5.8366901E-01;  1.0739917E+04;
  1.4812794E+00;  9.9999998E-03;  3.0504735E-02;8640;  1.0743811E+00;  0.0000000E+00;  2.4333427E-02;  1.0069852E+03;  3.1727731E-01;  5.7827725E+03;3;  5.6822865E+01;  0.0000000E+00; -1.4585022E+00;0;  2.6624148E+00;  4.1237354E+03;  0.0000000E+00;  3.8582683E-02;  4.0000000E+04;  0.0000000E+00;  3.8850895E+04;  2.0787468E+00;  0.0000000E+00;  5.8366799E-01;  1.0739983E+04;
  1.4813875E+00;  9.9999998E-03; -2.0339023E-02;8635;  1.0741807E+00;  0.0000000E+00; -1.6099900E-02;  1.0071697E+03;  3.1723934E-01;  5.9355356E+03;3;  5.7512180E+01;  0.0000000E+00;  1.0278703E+00;0;  2.6221790E+00;  4.1256626E+03;  0.0000000E+00;  1.9990072E-02;  4.0000000E+04;  0.0000000E+00;  3.8849207E+04;  2.0347195E+00;  0.0000000E+00;  5.8745950E-01;  1.0956029E+04;
  1.4813875E+00;  9.9999998E-03;  2.0339282E-02;8639;  1.0741807E+00;  0.0000000E+00;  1.6101057E-02;  1.0071692E+03;  3.1724054E-01;  5.9351411E+03;3;  5.7512581E+01;  0.0000000E+00; -1.0276150E+00;0;  2.6221769E+00;  4.1256631E+03;  0.0000000E+00;  2.0007167E-02;  4.0000000E+04;  0.0000000E+00;  3.8849215E+04;  2.0347178E+00;  0.0000000E+00;  5.8745909E-01;  1.0956090E+04;
  1.4814574E+00;  9.9999998E-03; -1.0170931E-02;8636;  1.0740607E+00;  0.0000000E+00; -8.0075199E-03;  1.0072963E+03;  3.1721249E-01;  6.0403389E+03;3;  5.7835499E+01;  0.0000000E+00;  5.2602857E-01;0;  2.5976629E+00;  4.1270503E+03;  0.0000000E+00;  5.4798652E-03;  4.0000000E+04;  0.0000000E+00;  3.8848043E+04;  2.0080850E+00;  0.0000000E+00;  5.8957779E-01;  1.1118270E+04;
  1.4814800E+00;  9.9999998E-03;  1.2858818E-07;8637;  1.0740205E+00;  0.0000000E+00;  5.9706701E-07;  1.0073366E+03;  3.1720471E-01;  6.0736938E+03;3;  5.7952072E+01;  0.0000000E+00;  1.2592971E-04;0;  2.5895107E+00;  4.1275376E+03;  0.0000000E+00;  1.3236250E-10;  4.0000000E+04;  0.0000000E+00;  3.8847531E+04;  1.9992590E+00;  0.0000000E+00;  5.9025168E-01;  1.1178940E+04;
  1.4814575E+00;  9.9999998E-03;  1.0171188E-02;8638;  1.0740607E+00;  0.0000000E+00;  8.0087231E-03;  1.0072966E+03;  3.1721261E-01;  6.0405361E+03;3;  5.7835583E+01;  0.0000000E+00; -5.2577901E-01;0;  2.5976605E+00;  4.1270503E+03;  0.0000000E+00;  5.4882816E-03;  4.0000000E+04;  0.0000000E+00;  3.8848043E+04;  2.0080826E+00;  0.0000000E+00;  5.8957791E-01;  1.1118309E+04;
  1.5107856E+00;  9.9999998E-03; -9.1255605E-02;8689;  1.0807670E+00;  0.0000000E+00; -6.0286004E-02;  1.0063593E+03;  2.8877050E-01;  5.2624702E+03;3;  5.4797394E+01;  0.0000000E+00; -1.2297526E-01;0;  1.6340730E+00;  4.9679189E+03;  0.0000000E+00; -5.6893818E-02;  4.0000000E+04;  0.0000000E+00;  3.8918039E+04;  1.0366424E+00;  0.0000000E+00;  5.9743059E-01;  4.4635215E+03;
  1.5107541E+00;  9.9999998E-03; -8.1147984E-02;8690;  1.0792208E+00;  0.0000000E+00; -5.2985527E-02;  1.0059268E+03;  2.8886747E-01;  4.9044795E+03;3;  5.6652866E+01;  0.0000000E+00;  6.5589637E-01;0;  1.5560615E+00;  4.9600679E+03;  0.0000000E+00; -8.8002659E-02;  4.0000000E+04;  0.0000000E+00;  3.8924488E+04;  9.5439792E-01;  0.0000000E+00;  6.0166365E-01;  3.6021978E+03;
  1.5109046E+00;  9.9999998E-03; -1.0134760E-01;8688;  1.0824736E+00;  0.0000000E+00; -6.7743905E-02;  1.0069335E+03;  2.8862038E-01;  5.7376450E+03;3;  5.2859730E+01;  0.0000000E+00; -1.1556984E+00;0;  1.7175746E+00;  4.9790645E+03;  0.0000000E+00;  4.7927268E-02;  4.0000000E+04;  0.0000000E+00;  3.8910633E+04;  1.1267099E+00;  0.0000000E+00;  5.9086472E-01;  5.4832700E+03;
  1.5107714E+00;  9.9999998E-03; -7.1021050E-02;8691;  1.0778418E+00;  0.0000000E+00; -4.5855265E-02;  1.0056544E+03;  2.8893444E-01;  4.6791665E+03;3;  5.8242550E+01;  0.0000000E+00;  1.2186308E+00;0;  1.4853418E+00;  4.9549731E+03;  0.0000000E+00; -7.7585295E-02;  4.0000000E+04;  0.0000000E+00;  3.8929016E+04;  8.8135546E-01;  0.0000000E+00;  6.0398632E-01;  2.9587524E+03;
  1.5107919E+00;  9.9999998E-03; -6.0881395E-02;8692;  1.0766455E+00;  0.0000000E+00; -3.8929891E-02;  1.0055533E+03;  2.8898692E-01;  4.5954126E+03;3;  5.9681702E+01;  0.0000000E+00;  1.6531290E+00;0;  1.4238300E+00;  4.9518115E+03;  0.0000000E+00; -5.1044755E-02;  4.0000000E+04;  0.0000000E+00;  3.8931750E+04;  8.1897765E-01;  0.0000000E+00;  6.0485232E-01;  2.5535259E+03;
  1.5107919E+00;  9.9999998E-03;  6.0881667E-02;8704;  1.0766456E+00;  0.0000000E+00;  3.8930964E-02;  1.0055532E+03;  2.8898624E-01;  4.5953140E+03;3;  5.9681705E+01;  0.0000000E+00; -1.6530498E+00;0;  1.4238303E+00;  4.9518149E+03;  0.0000000E+00; -5.1014569E-02;  4.0000000E+04;  0.0000000E+00;  3.8931750E+04;  8.1897861E-01;  0.0000000E+00;  6.0485172E-01;  2.5535461E+03;
  1.5108181E+00;  9.9999998E-03; -5.0735228E-02;8693;  1.0756230E+00;  0.0000000E+00; -3.2208085E-02;  1.0055894E+03;  2.8902781E-01;  4.6253008E+03;3;  6.0854565E+01;  0.0000000E+00;  1.8046330E+00;0;  1.3714871E+00;  4.9504604E+03;  0.0000000E+00; -2.4683336E-02;  4.0000000E+04;  0.0000000E+00;  3.8933094E+04;  7.6677591E-01;  0.0000000E+00;  6.0471117E-01;  2.3584375E+03;
  1.5108181E+00;  9.9999998E-03;  5.0735503E-02;8703;  1.0756232E+00;  0.0000000E+00;  3.2209221E-02;  1.0055892E+03;  2.8902784E-01;  4.6251035E+03;3;  6.0854744E+01;  0.0000000E+00; -1.8045369E+00;0;  1.3714871E+00;  4.9504604E+03;  0.0000000E+00; -2.4654645E-02;  4.0000000E+04;  0.0000000E+00;  3.8933094E+04;  7.6677650E-01;  0.0000000E+00;  6.0471064E-01;  2.3585603E+03;
  1.5108557E+00;  9.9999998E-03; -4.0586889E-02;8694;  1.0748017E+00;  0.0000000E+00; -2.5623349E-02;  1.0057272E+03;  2.8904706E-01;  4.7394331E+03;3;  6.1640114E+01;  0.0000000E+00;  1.6791370E+00;0;  1.3281029E+00;  4.9505791E+03;  0.0000000E+00; -6.5032169E-03;  4.0000000E+04;  0.0000000E+00;  3.8933488E+04;  7.2414160E-01;  0.0000000E+00;  6.0396135E-01;  2.3231372E+03;
  1.5108557E+00;  9.9999998E-03;  4.0587164E-02;8702;  1.0748018E+00;  0.0000000E+00;  2.5624568E-02;  1.0057273E+03;  2.8904665E-01;  4.7394331E+03;3;  6.1639801E+01;  0.0000000E+00; -1.6789844E+00;0;  1.3281031E+00;  4.9505801E+03;  0.0000000E+00; -6.4750765E-03;  4.0000000E+04;  0.0000000E+00;  3.8933492E+04;  7.2414297E-01;  0.0000000E+00;  6.0396004E-01;  2.3232544E+03;
  1.5109075E+00;  9.9999998E-03; -3.0438926E-02;8695;  1.0741928E+00;  0.0000000E+00; -1.9124191E-02;  1.0059117E+03;  2.8904831E-01;  4.8920366E+03;3;  6.2514309E+01;  0.0000000E+00;  1.3859525E+00;0;  1.2935882E+00;  4.9518208E+03;  0.0000000E+00;  1.8910851E-03;  4.0000000E+04;  0.0000000E+00;  3.8932762E+04;  6.9064873E-01;  0.0000000E+00;  6.0293949E-01;  2.3861987E+03;
  1.5109075E+00;  9.9999998E-03;  3.0439202E-02;8701;  1.0741929E+00;  0.0000000E+00;  1.9125398E-02;  1.0059117E+03;  2.8905034E-01;  4.8920366E+03;3;  6.2514626E+01;  0.0000000E+00; -1.3857435E+00;0;  1.2935866E+00;  4.9518193E+03;  0.0000000E+00;  1.9125225E-03;  4.0000000E+04;  0.0000000E+00;  3.8932754E+04;  6.9064760E-01;  0.0000000E+00;  6.0293901E-01;  2.3862522E+03;
  1.5109606E+00;  9.9999998E-03; -2.0292174E-02;8696;  1.0737656E+00;  0.0000000E+00; -1.2709344E-02;  1.0060901E+03;  2.8904060E-01;  5.0397080E+03;3;  6.3120686E+01;  0.0000000E+00;  9.6998632E-01;0;  1.2684031E+00;  4.9534077E+03;  0.0000000E+00;  3.0088674E-03;  4.0000000E+04;  0.0000000E+00;  3.8932238E+04;  6.6645473E-01;  0.0000000E+00;  6.0194832E-01;  2.4875134E+03;
  1.5109606E+00;  9.9999998E-03;  2.0292444E-02;8700;  1.0737656E+00;  0.0000000E+00;  1.2710528E-02;  1.0060904E+03;  2.8904018E-01;  5.0399053E+03;3;  6.3120842E+01;  0.0000000E+00; -9.6982062E-01;0;  1.2684020E+00;  4.9534106E+03;  0.0000000E+00;  3.0242465E-03;  4.0000000E+04;  0.0000000E+00;  3.8932230E+04;  6.6645372E-01;  0.0000000E+00;  6.0194826E-01;  2.4875750E+03;
  1.5109941E+00;  9.9999998E-03; -1.0146130E-02;8697;  1.0735118E+00;  0.0000000E+00; -6.3447542E-03;  1.0062138E+03;  2.8903314E-01;  5.1420020E+03;3;  6.3487663E+01;  0.0000000E+00;  5.2553278E-01;0;  1.2532549E+00;  4.9545664E+03;  0.0000000E+00;  1.1214264E-03;  4.0000000E+04;  0.0000000E+00;  3.8931484E+04;  6.5200603E-01;  0.0000000E+00;  6.0124886E-01;  2.5757158E+03;
  1.5109942E+00;  9.9999998E-03;  1.0146393E-02;8699;  1.0735117E+00;  0.0000000E+00;  6.3458737E-03;  1.0062143E+03;  2.8903279E-01;  5.1423965E+03;3;  6.3487579E+01;  0.0000000E+00; -5.2535659E-01;0;  1.2532525E+00;  4.9545669E+03;  0.0000000E+00;  1.1298279E-03;  4.0000000E+04;  0.0000000E+00;  3.8931492E+04;  6.5200484E-01;  0.0000000E+00;  6.0124767E-01;  2.5757146E+03;
  1.5110043E+00;  9.9999998E-03;  1.3129112E-07;8698;  1.0734259E+00;  0.0000000E+00;  5.4727633E-07;  1.0062612E+03;  2.8903148E-01;  5.1811646E+03;3;  6.3618279E+01;  0.0000000E+00;  9.4006420E-05;0;  1.2482423E+00;  4.9549502E+03;  0.0000000E+00; -1.6589068E-10;  4.0000000E+04;  0.0000000E+00;  3.8931262E+04;  6.4724386E-01;  0.0000000E+00;  6.0099840E-01;  2.6105115E+03;
  1.5379394E+00;  9.9999998E-03;  1.3546244E-07;8759;  1.0677998E+00;  0.0000000E+00;  5.5015875E-07;  1.0033105E+03;  2.6352084E-01;  2.7378552E+03;3;  6.5191254E+01;  0.0000000E+00;  3.8553237E-05;0;  5.4177529E-01;  5.9238120E+03;  0.0000000E+00; -2.7335423E-10;  4.0000000E+04;  0.0000000E+00;  3.8998723E+04;  1.8020723E-02;  0.0000000E+00;  5.2375454E-01;  4.3705679E+03;
  1.5379378E+00;  9.9999998E-03; -1.0131756E-02;8758;  1.0679002E+00;  0.0000000E+00; -4.9233073E-03;  1.0032800E+03;  2.6351669E-01;  2.7126162E+03;3;  6.5169037E+01;  0.0000000E+00;  1.1648048E-01;0;  5.4475302E-01;  5.9236929E+03;  0.0000000E+00;  7.4527517E-04;  4.0000000E+04;  0.0000000E+00;  3.8999109E+04;  2.0162206E-02;  0.0000000E+00;  5.2459079E-01;  4.3919102E+03;
  1.5379378E+00;  9.9999998E-03;  1.0132028E-02;8760;  1.0679002E+00;  0.0000000E+00;  4.9244263E-03;  1.0032802E+03;  2.6351663E-01;  2.7128132E+03;3;  6.5169083E+01;  0.0000000E+00; -1.1632760E-01;0;  5.4475224E-01;  5.9236914E+03;  0.0000000E+00;  7.5120566E-04;  4.0000000E+04;  0.0000000E+00;  3.8999109E+04;  2.0162430E-02;  0.0000000E+00;  5.2458984E-01;  4.3918433E+03;
  1.5379325E+00;  9.9999998E-03; -2.0264866E-02;8757;  1.0682055E+00;  0.0000000E+00; -9.8764841E-03;  1.0032012E+03;  2.6350647E-01;  2.6474482E+03;3;  6.4900337E+01;  0.0000000E+00;  2.2801355E-01;0;  5.5370212E-01;  5.9234272E+03;  0.0000000E+00;  2.0815886E-03;  4.0000000E+04;  0.0000000E+00;  3.8999465E+04;  2.6624829E-02;  0.0000000E+00;  5.2707726E-01;  4.4447070E+03;
  1.5379325E+00;  9.9999998E-03;  2.0265143E-02;8761;  1.0682057E+00;  0.0000000E+00;  9.8776435E-03;  1.0032012E+03;  2.6350588E-01;  2.6475469E+03;3;  6.4900528E+01;  0.0000000E+00; -2.2791938E-01;0;  5.5370134E-01;  5.9234258E+03;  0.0000000E+00;  2.0929484E-03;  4.0000000E+04;  0.0000000E+00;  3.8999469E+04;  2.6624812E-02;  0.0000000E+00;  5.2707654E-01;  4.4446587E+03;
  1.5379306E+00;  9.9999998E-03; -3.0400721E-02;8756;  1.0687134E+00;  0.0000000E+00; -1.4889755E-02;  1.0031017E+03;  2.6348507E-01;  2.5652239E+03;3;  6.4327301E+01;  0.0000000E+00;  2.8906670E-01;0;  5.6853437E-01;  5.9233745E+03;  0.0000000E+00;  1.7910949E-03;  4.0000000E+04;  0.0000000E+00;  3.8999762E+04;  3.7419777E-02;  0.0000000E+00;  5.3111458E-01;  4.5014775E+03;
  1.5379306E+00;  9.9999998E-03;  3.0401004E-02;8762;  1.0687134E+00;  0.0000000E+00;  1.4890932E-02;  1.0031019E+03;  2.6348460E-01;  2.5654211E+03;3;  6.4327705E+01;  0.0000000E+00; -2.8900194E-01;0;  5.6853443E-01;  5.9233774E+03;  0.0000000E+00;  1.8071274E-03;  4.0000000E+04;  0.0000000E+00;  3.8999766E+04;  3.7420131E-02;  0.0000000E+00;  5.3111428E-01;  4.5013521E+03;
  1.5379378E+00;  9.9999998E-03; -4.0539801E-02;8755;  1.0694265E+00;  0.0000000E+00; -1.9998640E-02;  1.0030286E+03;  2.6345080E-01;  2.5046890E+03;3;  6.3476151E+01;  0.0000000E+00;  2.2921035E-01;0;  5.8921123E-01;  5.9240439E+03;  0.0000000E+00; -2.2893599E-03;  4.0000000E+04;  0.0000000E+00;  3.8999988E+04;  5.2649006E-02;  0.0000000E+00;  5.3656220E-01;  4.5217847E+03;
  1.5379378E+00;  9.9999998E-03;  4.0540088E-02;8763;  1.0694267E+00;  0.0000000E+00;  1.9999774E-02;  1.0030284E+03;  2.6345068E-01;  2.5045903E+03;3;  6.3474091E+01;  0.0000000E+00; -2.2921030E-01;0;  5.8921069E-01;  5.9240435E+03;  0.0000000E+00; -2.2708429E-03;  4.0000000E+04;  0.0000000E+00;  3.8999980E+04;  5.2649390E-02;  0.0000000E+00;  5.3656131E-01;  4.5216909E+03;
  1.5379508E+00;  9.9999998E-03; -5.0680868E-02;8754;  1.0703477E+00;  0.0000000E+00; -2.5263609E-02;  1.0030192E+03;  2.6341292E-01;  2.4969983E+03;3;  6.2404682E+01;  0.0000000E+00; -2.2290049E-02;0;  6.1585081E-01;  5.9258105E+03;  0.0000000E+00; -1.0396104E-02;  4.0000000E+04;  0.0000000E+00;  3.8999520E+04;  7.2606757E-02;  0.0000000E+00;  5.4324406E-01;  4.4584722E+03;
  1.5379506E+00;  9.9999998E-03;  5.0681155E-02;8764;  1.0703478E+00;  0.0000000E+00;  2.5264740E-02;  1.0030190E+03;  2.6341116E-01;  2.4968010E+03;3;  6.2402725E+01;  0.0000000E+00;  2.2320999E-02;0;  6.1585176E-01;  5.9258135E+03;  0.0000000E+00; -1.0373062E-02;  4.0000000E+04;  0.0000000E+00;  3.8999527E+04;  7.2607614E-02;  0.0000000E+00;  5.4324412E-01;  4.4583618E+03;
  1.5379781E+00;  9.9999998E-03; -6.0820535E-02;8753;  1.0714993E+00;  0.0000000E+00; -3.0718200E-02;  1.0031287E+03;  2.6335862E-01;  2.5875022E+03;3;  6.1335133E+01;  0.0000000E+00; -3.9812931E-01;0;  6.4829582E-01;  5.9293149E+03;  0.0000000E+00; -1.8675420E-02;  4.0000000E+04;  0.0000000E+00;  3.8998062E+04;  9.7418301E-02;  0.0000000E+00;  5.5087751E-01;  4.2722300E+03;
  1.5379779E+00;  9.9999998E-03;  6.0820818E-02;8765;  1.0714995E+00;  0.0000000E+00;  3.0719297E-02;  1.0031283E+03;  2.6336071E-01;  2.5872065E+03;3;  6.1334835E+01;  0.0000000E+00;  3.9833343E-01;0;  6.4829671E-01;  5.9293169E+03;  0.0000000E+00; -1.8652981E-02;  4.0000000E+04;  0.0000000E+00;  3.8998059E+04;  9.7419031E-02;  0.0000000E+00;  5.5087769E-01;  4.2721270E+03;
  1.5381227E+00;  9.9999998E-03; -1.0129217E-01;8749;  1.0785313E+00;  0.0000000E+00; -5.4916881E-02;  1.0050087E+03;  2.6311132E-01;  4.1423540E+03;3;  5.5365753E+01;  0.0000000E+00; -3.5729425E+00;0;  8.3554894E-01;  5.9621689E+03;  0.0000000E+00;  2.1978918E-01;  4.0000000E+04;  0.0000000E+00;  3.8977863E+04;  2.5284225E-01;  0.0000000E+00;  5.8270669E-01;  2.0037169E+03;
  1.5380727E+00;  9.9999998E-03; -8.1081204E-02;8751;  1.0745242E+00;  0.0000000E+00; -4.2333487E-02;  1.0038014E+03;  2.6322418E-01;  3.1438396E+03;3;  5.8485592E+01;  0.0000000E+00; -1.6039325E+00;0;  7.3023677E-01;  5.9427788E+03;  0.0000000E+00;  9.5753176E-03;  4.0000000E+04;  0.0000000E+00;  3.8991160E+04;  1.6268426E-01;  0.0000000E+00;  5.6755251E-01;  3.4312319E+03;
  1.5380224E+00;  9.9999998E-03; -7.0955344E-02;8752;  1.0728929E+00;  0.0000000E+00; -3.6405660E-02;  1.0033848E+03;  2.6329499E-01;  2.7992710E+03;3;  5.9937923E+01;  0.0000000E+00; -9.2292029E-01;0;  6.8640500E-01;  5.9350347E+03;  0.0000000E+00; -1.7387165E-02;  4.0000000E+04;  0.0000000E+00;  3.8995301E+04;  1.2728794E-01;  0.0000000E+00;  5.5911708E-01;  3.9343679E+03;
  1.5381147E+00;  9.9999998E-03; -9.1193870E-02;8750;  1.0763950E+00;  0.0000000E+00; -4.8499860E-02;  1.0043546E+03;  2.6315719E-01;  3.6013921E+03;3;  5.6839794E+01;  0.0000000E+00; -2.4753721E+00;0;  7.7985400E-01;  5.9522104E+03;  0.0000000E+00;  8.2420781E-02;  4.0000000E+04;  0.0000000E+00;  3.8985320E+04;  2.0420724E-01;  0.0000000E+00;  5.7564676E-01;  2.7723320E+03;
  1.5627750E+00;  9.9999998E-03; -1.0123851E-01;8810;  1.0723295E+00;  0.0000000E+00; -4.4438977E-02;  1.0023807E+03;  2.4096927E-01;  1.9674038E+03;3;  5.6284962E+01;  0.0000000E+00; -6.4731860E+00;0;  3.8874578E-01;  7.0677568E+03;  0.0000000E+00;  4.1599864E-01;  4.0000000E+04;  0.0000000E+00;  3.9026734E+04; -1.2601824E-01;  0.0000000E+00;  5.1476401E-01;  6.8121162E+03;
  1.5626070E+00;  9.9999998E-03;  1.3936284E-07;8820;  1.0605193E+00;  0.0000000E+00;  5.6089220E-07;  9.9968109E+02;  2.4124157E-01; -2.6352405E+02;3;  6.6257576E+01;  0.0000000E+00;  6.7680608E-05;0;  1.9782147E-01;  7.0172197E+03;  0.0000000E+00; -2.9125694E-10;  4.0000000E+04;  0.0000000E+00;  3.9045859E+04; -2.2745505E-01;  0.0000000E+00;  4.2527652E-01;  9.4490234E+03;
  1.5626153E+00;  9.9999998E-03; -1.0122813E-02;8819;  1.0606240E+00;  0.0000000E+00; -3.9708600E-03;  9.9967749E+02;  2.4123184E-01; -2.6652866E+02;3;  6.6076180E+01;  0.0000000E+00; -1.0635179E-01;0;  1.9968005E-01;  7.0176157E+03;  0.0000000E+00;  2.0051366E-03;  4.0000000E+04;  0.0000000E+00;  3.9046293E+04; -2.2658171E-01;  0.0000000E+00;  4.2626175E-01;  9.4585566E+03;
  1.5626153E+00;  9.9999998E-03;  1.0123091E-02;8821;  1.0606240E+00;  0.0000000E+00;  3.9719702E-03;  9.9967737E+02;  2.4123254E-01; -2.6662717E+02;3;  6.6076241E+01;  0.0000000E+00;  1.0645308E-01;0;  1.9967964E-01;  7.0176147E+03;  0.0000000E+00;  2.0084730E-03;  4.0000000E+04;  0.0000000E+00;  3.9046289E+04; -2.2658193E-01;  0.0000000E+00;  4.2626157E-01;  9.4585908E+03;
  1.5626310E+00;  9.9999998E-03; -2.0246901E-02;8818;  1.0609564E+00;  0.0000000E+00; -7.9803336E-03;  9.9967419E+02;  2.4121192E-01; -2.6923761E+02;3;  6.5714912E+01;  0.0000000E+00; -4.1256633E-01;0;  2.0534405E-01;  7.0186362E+03;  0.0000000E+00;  7.4614002E-03;  4.0000000E+04;  0.0000000E+00;  3.9046312E+04; -2.2390270E-01;  0.0000000E+00;  4.2924675E-01;  9.4773828E+03;
  1.5626310E+00;  9.9999998E-03;  2.0247178E-02;8822;  1.0609564E+00;  0.0000000E+00;  7.9814345E-03;  9.9967407E+02;  2.4121304E-01; -2.6933612E+02;3;  6.5715233E+01;  0.0000000E+00;  4.1256773E-01;0;  2.0534353E-01;  7.0186367E+03;  0.0000000E+00;  7.4682808E-03;  4.0000000E+04;  0.0000000E+00;  3.9046309E+04; -2.2390290E-01;  0.0000000E+00;  4.2924643E-01;  9.4773213E+03;
  1.5628862E+00;  9.9999998E-03; -9.1138348E-02;8811;  1.0699887E+00;  0.0000000E+00; -3.9059501E-02;  1.0017352E+03;  2.4093316E-01;  1.4339498E+03;3;  5.7766003E+01;  0.0000000E+00; -5.1795063E+00;0;  3.5165703E-01;  7.0605820E+03;  0.0000000E+00;  2.7507302E-01;  4.0000000E+04;  0.0000000E+00;  3.9033023E+04; -1.4836939E-01;  0.0000000E+00;  5.0002640E-01;  7.6580903E+03;
  1.5626591E+00;  9.9999998E-03; -3.0374445E-02;8817;  1.0615128E+00;  0.0000000E+00; -1.2019674E-02;  9.9968762E+02;  2.4118096E-01; -2.5815454E+02;3;  6.5235268E+01;  0.0000000E+00; -6.8599617E-01;0;  2.1477561E-01;  7.0206284E+03;  0.0000000E+00;  1.5175352E-02;  4.0000000E+04;  0.0000000E+00;  3.9046402E+04; -2.1941312E-01;  0.0000000E+00;  4.3418872E-01;  9.4849795E+03;
  1.5626591E+00;  9.9999998E-03;  3.0374724E-02;8823;  1.0615129E+00;  0.0000000E+00;  1.2020767E-02;  9.9968817E+02;  2.4117944E-01; -2.5771124E+02;3;  6.5234001E+01;  0.0000000E+00;  6.8593228E-01;0;  2.1477564E-01;  7.0206279E+03;  0.0000000E+00;  1.5184674E-02;  4.0000000E+04;  0.0000000E+00;  3.9046414E+04; -2.1941306E-01;  0.0000000E+00;  4.3418869E-01;  9.4849902E+03;
  1.5627019E+00;  9.9999998E-03; -4.0506411E-02;8816;  1.0623180E+00;  0.0000000E+00; -1.6091794E-02;  9.9976599E+02;  2.4113640E-01; -1.9338164E+02;3;  6.4541229E+01;  0.0000000E+00; -9.3495607E-01;0;  2.2795096E-01;  7.0238560E+03;  0.0000000E+00;  2.4638303E-02;  4.0000000E+04;  0.0000000E+00;  3.9046363E+04; -2.1308765E-01;  0.0000000E+00;  4.4103861E-01;  9.4530752E+03;
  1.5627019E+00;  9.9999998E-03;  4.0506698E-02;8824;  1.0623180E+00;  0.0000000E+00;  1.6092902E-02;  9.9976599E+02;  2.4113640E-01; -1.9338164E+02;3;  6.4542511E+01;  0.0000000E+00;  9.3501300E-01;0;  2.2795045E-01;  7.0238569E+03;  0.0000000E+00;  2.4649993E-02;  4.0000000E+04;  0.0000000E+00;  3.9046367E+04; -2.1308744E-01;  0.0000000E+00;  4.4103789E-01;  9.4529365E+03;
  1.5629050E+00;  9.9999998E-03; -8.1026286E-02;8812;  1.0679443E+00;  0.0000000E+00; -3.3969443E-02;  1.0011274E+03;  2.4094248E-01;  9.3163324E+02;3;  5.9462875E+01;  0.0000000E+00; -3.9211714E+00;0;  3.1892902E-01;  7.0516733E+03;  0.0000000E+00;  1.6965324E-01;  4.0000000E+04;  0.0000000E+00;  3.9038344E+04; -1.6674228E-01;  0.0000000E+00;  4.8567128E-01;  8.3235791E+03;
  1.5627552E+00;  9.9999998E-03; -5.0641481E-02;8815;  1.0633570E+00;  0.0000000E+00; -2.0256972E-02;  9.9992242E+02;  2.4108662E-01; -6.4132034E+01;3;  6.3530430E+01;  0.0000000E+00; -1.3832014E+00;0;  2.4491775E-01;  7.0285264E+03;  0.0000000E+00;  3.7703145E-02;  4.0000000E+04;  0.0000000E+00;  3.9045648E+04; -2.0482877E-01;  0.0000000E+00;  4.4974652E-01;  9.3496963E+03;
  1.5627551E+00;  9.9999998E-03;  5.0641768E-02;8825;  1.0633570E+00;  0.0000000E+00;  2.0258062E-02;  9.9992267E+02;  2.4108665E-01; -6.3885754E+01;3;  6.3529976E+01;  0.0000000E+00;  1.3833628E+00;0;  2.4491759E-01;  7.0285269E+03;  0.0000000E+00;  3.7715979E-02;  4.0000000E+04;  0.0000000E+00;  3.9045652E+04; -2.0482861E-01;  0.0000000E+00;  4.4974619E-01;  9.3496152E+03;
  1.5628662E+00;  9.9999998E-03; -7.0905440E-02;8813;  1.0661571E+00;  0.0000000E+00; -2.9160088E-02;  1.0006007E+03;  2.4098860E-01;  4.9640552E+02;3;  6.0989265E+01;  0.0000000E+00; -2.8226564E+00;0;  2.9039097E-01;  7.0425669E+03;  0.0000000E+00;  1.0035520E-01;  4.0000000E+04;  0.0000000E+00;  3.9041906E+04; -1.8189947E-01;  0.0000000E+00;  4.7229046E-01;  8.8111523E+03;
  1.5628097E+00;  9.9999998E-03; -6.0776208E-02;8814;  1.0646274E+00;  0.0000000E+00; -2.4596650E-02;  1.0002058E+03;  2.4103929E-01;  1.7003329E+02;3;  6.2269806E+01;  0.0000000E+00; -2.0530896E+00;0;  2.6575556E-01;  7.0346450E+03;  0.0000000E+00;  5.9877403E-02;  4.0000000E+04;  0.0000000E+00;  3.9044195E+04; -1.9447732E-01;  0.0000000E+00;  4.6023288E-01;  9.1442188E+03;
  1.5628097E+00;  9.9999998E-03;  6.0776498E-02;8826;  1.0646274E+00;  0.0000000E+00;  2.4597766E-02;  1.0002064E+03;  2.4103929E-01;  1.7052586E+02;3;  6.2269569E+01;  0.0000000E+00;  2.0533247E+00;0;  2.6575559E-01;  7.0346436E+03;  0.0000000E+00;  5.9888639E-02;  4.0000000E+04;  0.0000000E+00;  3.9044188E+04; -1.9447683E-01;  0.0000000E+00;  4.6023241E-01;  9.1441016E+03;
  1.5852160E+00;  9.9999998E-03; -1.0113077E-01;8871;  1.0652242E+00;  0.0000000E+00; -3.4955349E-02;  9.9977423E+02;  2.2209261E-01; -1.8639586E+02;3;  5.6751278E+01;  0.0000000E+00; -8.5478048E+00;0;  1.6142303E-01;  8.2771133E+03;  0.0000000E+00;  4.8802245E-01;  4.0000000E+04;  0.0000000E+00;  3.9053812E+04; -2.6411542E-01;  0.0000000E+00;  4.2553845E-01;  1.0004991E+04;
  1.5854448E+00;  9.9999998E-03; -9.1036372E-02;8872;  1.0626856E+00;  0.0000000E+00; -3.0734114E-02;  9.9922986E+02;  2.2199889E-01; -6.3579504E+02;3;  5.8417995E+01;  0.0000000E+00; -6.9849095E+00;0;  1.3418591E-01;  8.2743564E+03;  0.0000000E+00;  3.8789895E-01;  4.0000000E+04;  0.0000000E+00;  3.9059625E+04; -2.7372217E-01;  0.0000000E+00;  4.0790808E-01;  1.0768001E+04;
  1.5851592E+00;  9.9999998E-03; -1.0114047E-02;8880;  1.0527014E+00;  0.0000000E+00; -3.1691794E-03;  9.9655963E+02;  2.2219272E-01; -2.8402327E+03;3;  6.6439896E+01;  0.0000000E+00; -4.6798983E-01;0;  2.5590450E-02;  8.2192402E+03;  0.0000000E+00;  3.7954592E-03;  4.0000000E+04;  0.0000000E+00;  3.9076430E+04; -3.0823684E-01;  0.0000000E+00;  3.3382729E-01;  1.3098312E+04;
  1.5851448E+00;  9.9999998E-03;  1.4246282E-07;8881;  1.0525831E+00;  0.0000000E+00;  5.5337830E-07;  9.9653857E+02;  2.2220214E-01; -2.8576050E+03;3;  6.6546310E+01;  0.0000000E+00;  6.6372202E-05;0;  2.4294823E-02;  8.2183242E+03;  0.0000000E+00; -2.8180883E-10;  4.0000000E+04;  0.0000000E+00;  3.9076547E+04; -3.0865663E-01;  0.0000000E+00;  3.3295146E-01;  1.3112122E+04;
  1.5851592E+00;  9.9999998E-03;  1.0114332E-02;8882;  1.0527012E+00;  0.0000000E+00;  3.1702749E-03;  9.9655957E+02;  2.2219464E-01; -2.8402820E+03;3;  6.6437996E+01;  0.0000000E+00;  4.6804893E-01;0;  2.5590420E-02;  8.2192373E+03;  0.0000000E+00;  3.7966599E-03;  4.0000000E+04;  0.0000000E+00;  3.9076434E+04; -3.0823663E-01;  0.0000000E+00;  3.3382705E-01;  1.3098257E+04;
  1.5851998E+00;  9.9999998E-03; -2.0228533E-02;8879;  1.0530573E+00;  0.0000000E+00; -6.3304789E-03;  9.9662848E+02;  2.2216766E-01; -2.7833923E+03;3;  6.6134056E+01;  0.0000000E+00; -9.2977631E-01;0;  2.9488087E-02;  8.2220146E+03;  0.0000000E+00;  1.4618393E-02;  4.0000000E+04;  0.0000000E+00;  3.9076223E+04; -3.0697864E-01;  0.0000000E+00;  3.3646673E-01;  1.3052493E+04;
  1.5852000E+00;  9.9999998E-03;  2.0228816E-02;8883;  1.0530574E+00;  0.0000000E+00;  6.3315695E-03;  9.9662848E+02;  2.2216851E-01; -2.7833923E+03;3;  6.6134743E+01;  0.0000000E+00;  9.2976648E-01;0;  2.9488176E-02;  8.2220137E+03;  0.0000000E+00;  1.4621031E-02;  4.0000000E+04;  0.0000000E+00;  3.9076227E+04; -3.0697864E-01;  0.0000000E+00;  3.3646682E-01;  1.3052436E+04;
  1.5852621E+00;  9.9999998E-03; -3.0345196E-02;8878;  1.0536442E+00;  0.0000000E+00; -9.5158583E-03;  9.9675201E+02;  2.2213113E-01; -2.6813777E+03;3;  6.5542725E+01;  0.0000000E+00; -1.5133283E+00;0;  3.6013365E-02;  8.2265537E+03;  0.0000000E+00;  3.1476542E-02;  4.0000000E+04;  0.0000000E+00;  3.9075570E+04; -3.0488729E-01;  0.0000000E+00;  3.4090066E-01;  1.2963976E+04;
  1.5852621E+00;  9.9999998E-03;  3.0345479E-02;8884;  1.0536443E+00;  0.0000000E+00;  9.5169218E-03;  9.9675214E+02;  2.2213107E-01; -2.6812793E+03;3;  6.5543434E+01;  0.0000000E+00;  1.5132729E+00;0;  3.6013126E-02;  8.2265527E+03;  0.0000000E+00;  3.1480584E-02;  4.0000000E+04;  0.0000000E+00;  3.9075566E+04; -3.0488741E-01;  0.0000000E+00;  3.4090054E-01;  1.2963903E+04;
  1.5855412E+00;  9.9999998E-03; -8.0937125E-02;8873;  1.0604577E+00;  0.0000000E+00; -2.6786113E-02;  9.9865649E+02;  2.2196452E-01; -1.1091051E+03;3;  6.0027359E+01;  0.0000000E+00; -5.6149230E+00;0;  1.1025423E-01;  8.2675898E+03;  0.0000000E+00;  2.8685579E-01;  4.0000000E+04;  0.0000000E+00;  3.9064391E+04; -2.8159624E-01;  0.0000000E+00;  3.9185047E-01;  1.1402033E+04;
  1.5853419E+00;  9.9999998E-03; -4.0465157E-02;8877;  1.0544708E+00;  0.0000000E+00; -1.2751813E-02;  9.9695074E+02;  2.2208542E-01; -2.5173115E+03;3;  6.4776703E+01;  0.0000000E+00; -2.1775088E+00;0;  4.5184791E-02;  8.2328926E+03;  0.0000000E+00;  5.4578770E-02;  4.0000000E+04;  0.0000000E+00;  3.9074324E+04; -3.0197796E-01;  0.0000000E+00;  3.4716275E-01;  1.2819213E+04;
  1.5853420E+00;  9.9999998E-03;  4.0465441E-02;8885;  1.0544707E+00;  0.0000000E+00;  1.2752863E-02;  9.9695062E+02;  2.2208546E-01; -2.5174099E+03;3;  6.4777901E+01;  0.0000000E+00;  2.1775398E+00;0;  4.5184225E-02;  8.2328975E+03;  0.0000000E+00;  5.4585479E-02;  4.0000000E+04;  0.0000000E+00;  3.9074336E+04; -3.0197823E-01;  0.0000000E+00;  3.4716246E-01;  1.2819151E+04;
  1.5855465E+00;  9.9999998E-03; -7.0828326E-02;8874;  1.0585222E+00;  0.0000000E+00; -2.3066409E-02;  9.9811072E+02;  2.2196862E-01; -1.5596847E+03;3;  6.1439491E+01;  0.0000000E+00; -4.5897703E+00;0;  8.9524329E-02;  8.2587139E+03;  0.0000000E+00;  1.9969854E-01;  4.0000000E+04;  0.0000000E+00;  3.9068020E+04; -2.8814691E-01;  0.0000000E+00;  3.7767124E-01;  1.1909583E+04;
  1.5854270E+00;  9.9999998E-03; -5.0587863E-02;8876;  1.0555501E+00;  0.0000000E+00; -1.6063208E-02;  9.9724280E+02;  2.2203642E-01; -2.2761890E+03;3;  6.3831032E+01;  0.0000000E+00; -2.9083571E+00;0;  5.7087511E-02;  8.2406719E+03;  0.0000000E+00;  8.6763032E-02;  4.0000000E+04;  0.0000000E+00;  3.9072941E+04; -2.9824349E-01;  0.0000000E+00;  3.5533100E-01;  1.2603997E+04;
  1.5854270E+00;  9.9999998E-03;  5.0588146E-02;8886;  1.0555501E+00;  0.0000000E+00;  1.6064236E-02;  9.9724261E+02;  2.2203703E-01; -2.2763364E+03;3;  6.3830353E+01;  0.0000000E+00;  2.9083707E+00;0;  5.7087123E-02;  8.2406670E+03;  0.0000000E+00;  8.6769082E-02;  4.0000000E+04;  0.0000000E+00;  3.9072941E+04; -2.9824340E-01;  0.0000000E+00;  3.5533053E-01;  1.2603936E+04;
  1.5855016E+00;  9.9999998E-03; -6.0710553E-02;8875;  1.0568935E+00;  0.0000000E+00; -1.9498011E-02;  9.9762860E+02;  2.2199437E-01; -1.9576682E+03;3;  6.2699947E+01;  0.0000000E+00; -3.7400308E+00;0;  7.1829855E-02;  8.2494912E+03;  0.0000000E+00;  1.3336347E-01;  4.0000000E+04;  0.0000000E+00;  3.9070883E+04; -2.9365432E-01;  0.0000000E+00;  3.6548418E-01;  1.2305269E+04;
  1.5855016E+00;  9.9999998E-03;  6.0710836E-02;8887;  1.0568935E+00;  0.0000000E+00;  1.9499054E-02;  9.9762885E+02;  2.2199614E-01; -1.9574714E+03;3;  6.2699863E+01;  0.0000000E+00;  3.7400882E+00;0;  7.1829140E-02;  8.2494883E+03;  0.0000000E+00;  1.3336857E-01;  4.0000000E+04;  0.0000000E+00;  3.9070875E+04; -2.9365465E-01;  0.0000000E+00;  3.6548379E-01;  1.2305145E+04;
  1.6058385E+00;  9.9999998E-03; -1.0100651E-01;8931;  1.0578080E+00;  0.0000000E+00; -2.6259236E-02;  9.9754926E+02;  2.0610870E-01; -2.0206671E+03;3;  5.6908924E+01;  0.0000000E+00; -9.7646942E+00;0;  2.1861613E-02;  9.5707832E+03;  0.0000000E+00;  4.3433341E-01;  4.0000000E+04;  0.0000000E+00;  3.9062719E+04; -3.1281036E-01;  0.0000000E+00;  3.3467197E-01;  1.1785271E+04;
  1.6061435E+00;  9.9999998E-03; -9.0923131E-02;8932;  1.0551175E+00;  0.0000000E+00; -2.3145394E-02;  9.9715753E+02;  2.0599462E-01; -2.3435925E+03;3;  5.8322239E+01;  0.0000000E+00; -8.4552984E+00;0;  6.6974759E-04;  9.5726123E+03;  0.0000000E+00;  4.0708953E-01;  4.0000000E+04;  0.0000000E+00;  3.9067949E+04; -3.1634283E-01;  0.0000000E+00;  3.1701258E-01;  1.2475125E+04;
  1.6058118E+00;  9.9999998E-03;  1.4801036E-07;8941;  1.0445486E+00;  0.0000000E+00;  5.3336811E-07;  9.9432434E+02;  2.0612580E-01; -4.6796299E+03;3;  6.6421158E+01;  0.0000000E+00;  1.3392354E-05;0; -8.1023097E-02;  9.5058291E+03;  0.0000000E+00; -2.3833394E-10;  4.0000000E+04;  0.0000000E+00;  3.9092602E+04; -3.3272648E-01;  0.0000000E+00;  2.5170338E-01;  1.5688867E+04;
  1.6058348E+00;  9.9999998E-03; -1.0105859E-02;8940;  1.0446734E+00;  0.0000000E+00; -2.4243318E-03;  9.9436127E+02;  2.0611528E-01; -4.6491523E+03;3;  6.6286087E+01;  0.0000000E+00; -6.9065315E-01;0; -8.0097616E-02;  9.5074131E+03;  0.0000000E+00;  6.2489868E-03;  4.0000000E+04;  0.0000000E+00;  3.9092336E+04; -3.3246940E-01;  0.0000000E+00;  2.5237179E-01;  1.5640383E+04;
  1.6058348E+00;  9.9999998E-03;  1.0106155E-02;8942;  1.0446734E+00;  0.0000000E+00;  2.4253943E-03;  9.9436151E+02;  2.0611480E-01; -4.6489561E+03;3;  6.6286514E+01;  0.0000000E+00;  6.9065946E-01;0; -8.0097646E-02;  9.5074141E+03;  0.0000000E+00;  6.2484099E-03;  4.0000000E+04;  0.0000000E+00;  3.9092336E+04; -3.3246943E-01;  0.0000000E+00;  2.5237179E-01;  1.5640372E+04;
  1.6059024E+00;  9.9999998E-03; -2.0211937E-02;8939;  1.0450376E+00;  0.0000000E+00; -4.8549175E-03;  9.9447363E+02;  2.0608842E-01; -4.5564932E+03;3;  6.5940636E+01;  0.0000000E+00; -1.4774792E+00;0; -7.7317595E-02;  9.5122070E+03;  0.0000000E+00;  2.4329776E-02;  4.0000000E+04;  0.0000000E+00;  3.9091020E+04; -3.3170909E-01;  0.0000000E+00;  2.5439149E-01;  1.5497340E+04;
  1.6059024E+00;  9.9999998E-03;  2.0212229E-02;8943;  1.0450376E+00;  0.0000000E+00;  4.8559853E-03;  9.9447345E+02;  2.0608814E-01; -4.5566406E+03;3;  6.5939041E+01;  0.0000000E+00;  1.4775085E+00;0; -7.7317625E-02;  9.5122090E+03;  0.0000000E+00;  2.4328245E-02;  4.0000000E+04;  0.0000000E+00;  3.9091023E+04; -3.3170921E-01;  0.0000000E+00;  2.5439158E-01;  1.5497315E+04;
  1.6060020E+00;  9.9999998E-03; -3.0317999E-02;8938;  1.0456430E+00;  0.0000000E+00; -7.3028808E-03;  9.9466937E+02;  2.0604704E-01; -4.3950728E+03;3;  6.5362984E+01;  0.0000000E+00; -2.3121202E+00;0; -7.2644591E-02;  9.5197197E+03;  0.0000000E+00;  5.2942764E-02;  4.0000000E+04;  0.0000000E+00;  3.9089301E+04; -3.3048335E-01;  0.0000000E+00;  2.5783876E-01;  1.5265438E+04;
  1.6060020E+00;  9.9999998E-03;  3.0318290E-02;8944;  1.0456431E+00;  0.0000000E+00;  7.3039196E-03;  9.9466919E+02;  2.0604636E-01; -4.3952202E+03;3;  6.5363708E+01;  0.0000000E+00;  2.3121254E+00;0; -7.2645426E-02;  9.5197217E+03;  0.0000000E+00;  5.2940436E-02;  4.0000000E+04;  0.0000000E+00;  3.9089297E+04; -3.3048368E-01;  0.0000000E+00;  2.5783825E-01;  1.5265379E+04;
  1.6063086E+00;  9.9999998E-03; -8.0835462E-02;8933;  1.0527842E+00;  0.0000000E+00; -2.0211896E-02;  9.9669635E+02;  2.0593037E-01; -2.7237815E+03;3;  5.9860874E+01;  0.0000000E+00; -7.0460582E+00;0; -1.7745167E-02;  9.5690605E+03;  0.0000000E+00;  3.4792203E-01;  4.0000000E+04;  0.0000000E+00;  3.9072988E+04; -3.1940797E-01;  0.0000000E+00;  3.0166280E-01;  1.3096067E+04;
  1.6061207E+00;  9.9999998E-03; -4.0424414E-02;8937;  1.0465065E+00;  0.0000000E+00; -9.7679514E-03;  9.9494659E+02;  2.0599721E-01; -4.1664697E+03;3;  6.4631355E+01;  0.0000000E+00; -3.0710871E+00;0; -6.6040844E-02;  9.5294609E+03;  0.0000000E+00;  9.1581143E-02;  4.0000000E+04;  0.0000000E+00;  3.9086848E+04; -3.2885399E-01;  0.0000000E+00;  2.6281315E-01;  1.4954156E+04;
  1.6061207E+00;  9.9999998E-03;  4.0424705E-02;8945;  1.0465066E+00;  0.0000000E+00;  9.7689666E-03;  9.9494623E+02;  2.0599681E-01; -4.1667646E+03;3;  6.4632469E+01;  0.0000000E+00;  3.0711093E+00;0; -6.6040665E-02;  9.5294648E+03;  0.0000000E+00;  9.1580153E-02;  4.0000000E+04;  0.0000000E+00;  3.9086855E+04; -3.2885349E-01;  0.0000000E+00;  2.6281282E-01;  1.4954115E+04;
  1.6063588E+00;  9.9999998E-03; -7.0739135E-02;8934;  1.0507684E+00;  0.0000000E+00; -1.7448287E-02;  9.9620142E+02;  2.0590886E-01; -3.1318506E+03;3;  6.1268520E+01;  0.0000000E+00; -5.8161192E+00;0; -3.3448607E-02;  9.5615195E+03;  0.0000000E+00;  2.7464229E-01;  4.0000000E+04;  0.0000000E+00;  3.9077062E+04; -3.2215017E-01;  0.0000000E+00;  2.8870156E-01;  1.3647608E+04;
  1.6062375E+00;  9.9999998E-03; -5.0530493E-02;8936;  1.0476381E+00;  0.0000000E+00; -1.2264688E-02;  9.9531171E+02;  2.0595230E-01; -3.8654341E+03;3;  6.3688751E+01;  0.0000000E+00; -3.9025183E+00;0; -5.7410955E-02;  9.5405010E+03;  0.0000000E+00;  1.4120319E-01;  4.0000000E+04;  0.0000000E+00;  3.9084023E+04; -3.2688561E-01;  0.0000000E+00;  2.6947466E-01;  1.4575374E+04;
  1.6062376E+00;  9.9999998E-03;  5.0530784E-02;8946;  1.0476381E+00;  0.0000000E+00;  1.2265716E-02;  9.9531165E+02;  2.0595281E-01; -3.8654832E+03;3;  6.3690292E+01;  0.0000000E+00;  3.9026468E+00;0; -5.7410926E-02;  9.5405029E+03;  0.0000000E+00;  1.4120059E-01;  4.0000000E+04;  0.0000000E+00;  3.9084020E+04; -3.2688564E-01;  0.0000000E+00;  2.6947471E-01;  1.4575304E+04;
  1.6063248E+00;  9.9999998E-03; -6.0636103E-02;8935;  1.0490570E+00;  0.0000000E+00; -1.4815510E-02;  9.9573181E+02;  2.0591925E-01; -3.5190034E+03;3;  6.2594612E+01;  0.0000000E+00; -4.7841659E+00;0; -4.6602994E-02;  9.5515830E+03;  0.0000000E+00;  2.0289047E-01;  4.0000000E+04;  0.0000000E+00;  3.9080723E+04; -3.2463896E-01;  0.0000000E+00;  2.7803597E-01;  1.4138736E+04;
  1.6063249E+00;  9.9999998E-03;  6.0636394E-02;8947;  1.0490571E+00;  0.0000000E+00;  1.4816516E-02;  9.9573206E+02;  2.0591950E-01; -3.5188069E+03;3;  6.2596535E+01;  0.0000000E+00;  4.7842999E+00;0; -4.6602666E-02;  9.5515732E+03;  0.0000000E+00;  2.0288603E-01;  4.0000000E+04;  0.0000000E+00;  3.9080730E+04; -3.2463896E-01;  0.0000000E+00;  2.7803630E-01;  1.4138729E+04;
  1.6249439E+00;  9.9999998E-03; -1.0093354E-01;8990;  1.0506918E+00;  0.0000000E+00; -1.8383047E-02;  9.9578210E+02;  1.9264443E-01; -3.4722036E+03;3;  5.6191788E+01;  0.0000000E+00; -1.0916257E+01;0; -7.1146131E-02;  1.0922092E+04;  0.0000000E+00;  3.1483594E-01;  4.0000000E+04;  0.0000000E+00;  3.9058188E+04; -3.2167229E-01;  0.0000000E+00;  2.5052616E-01;  1.2711865E+04;
  1.6252991E+00;  9.9999998E-03; -9.0844065E-02;8991;  1.0479462E+00;  0.0000000E+00; -1.6234703E-02;  9.9555060E+02;  1.9252388E-01; -3.6626550E+03;3;  5.7742893E+01;  0.0000000E+00; -9.3642883E+00;0; -8.7897614E-02;  1.0928858E+04;  0.0000000E+00;  3.6237198E-01;  4.0000000E+04;  0.0000000E+00;  3.9062676E+04; -3.2178593E-01;  0.0000000E+00;  2.3388831E-01;  1.3288142E+04;
  1.6250701E+00;  9.9999998E-03; -1.0098153E-02;8999;  1.0369873E+00;  0.0000000E+00; -1.7303507E-03;  9.9304803E+02;  1.9256593E-01; -5.7228237E+03;3;  6.5613441E+01;  0.0000000E+00; -8.9182395E-01;0; -1.4816077E-01;  1.0862435E+04;  0.0000000E+00;  9.0680895E-03;  4.0000000E+04;  0.0000000E+00;  3.9093371E+04; -3.2789281E-01;  0.0000000E+00;  1.7973204E-01;  1.7112527E+04;
  1.6250417E+00;  9.9999998E-03;  1.5076242E-07;9000;  1.0368603E+00;  0.0000000E+00;  5.1650591E-07;  9.9300549E+02;  1.9257577E-01; -5.7578237E+03;3;  6.5743134E+01;  0.0000000E+00; -1.4189683E-05;0; -1.4882009E-01;  1.0860304E+04;  0.0000000E+00; -1.8332867E-10;  4.0000000E+04;  0.0000000E+00;  3.9093777E+04; -3.2806951E-01;  0.0000000E+00;  1.7924942E-01;  1.7197346E+04;
  1.6250701E+00;  9.9999998E-03;  1.0098454E-02;9001;  1.0369873E+00;  0.0000000E+00;  1.7313744E-03;  9.9304810E+02;  1.9256592E-01; -5.7227749E+03;3;  6.5613838E+01;  0.0000000E+00;  8.9175117E-01;0; -1.4816101E-01;  1.0862435E+04;  0.0000000E+00;  9.0655712E-03;  4.0000000E+04;  0.0000000E+00;  3.9093375E+04; -3.2789293E-01;  0.0000000E+00;  1.7973192E-01;  1.7112549E+04;
  1.6251497E+00;  9.9999998E-03; -2.0196296E-02;8998;  1.0373700E+00;  0.0000000E+00; -3.4719836E-03;  9.9318201E+02;  1.9254105E-01; -5.6124810E+03;3;  6.5233223E+01;  0.0000000E+00; -1.8219696E+00;0; -1.4617018E-01;  1.0868625E+04;  0.0000000E+00;  3.5493754E-02;  4.0000000E+04;  0.0000000E+00;  3.9091145E+04; -3.2738182E-01;  0.0000000E+00;  1.8121164E-01;  1.6867670E+04;
  1.6251497E+00;  9.9999998E-03;  2.0196596E-02;9002;  1.0373700E+00;  0.0000000E+00;  3.4729897E-03;  9.9318201E+02;  1.9254094E-01; -5.6124810E+03;3;  6.5231567E+01;  0.0000000E+00;  1.8219613E+00;0; -1.4617050E-01;  1.0868630E+04;  0.0000000E+00;  3.5489753E-02;  4.0000000E+04;  0.0000000E+00;  3.9091152E+04; -3.2738203E-01;  0.0000000E+00;  1.8121153E-01;  1.6867674E+04;
  1.6255226E+00;  9.9999998E-03; -8.0755226E-02;8992;  1.0455188E+00;  0.0000000E+00; -1.4241390E-02;  9.9523260E+02;  1.9244450E-01; -3.9243330E+03;3;  5.9177067E+01;  0.0000000E+00; -8.0898399E+00;0; -1.0216714E-01;  1.0929579E+04;  0.0000000E+00;  3.6056802E-01;  4.0000000E+04;  0.0000000E+00;  3.9067227E+04; -3.2213008E-01;  0.0000000E+00;  2.1996294E-01;  1.3852767E+04;
  1.6252652E+00;  9.9999998E-03; -3.0293966E-02;8997;  1.0380188E+00;  0.0000000E+00; -5.2245683E-03;  9.9339618E+02;  1.9250427E-01; -5.4361279E+03;3;  6.4671394E+01;  0.0000000E+00; -2.7445445E+00;0; -1.4281660E-01;  1.0878123E+04;  0.0000000E+00;  7.7265494E-02;  4.0000000E+04;  0.0000000E+00;  3.9088203E+04; -3.2659867E-01;  0.0000000E+00;  1.8378207E-01;  1.6490213E+04;
  1.6252652E+00;  9.9999998E-03;  3.0294262E-02;9003;  1.0380188E+00;  0.0000000E+00;  5.2255755E-03;  9.9339636E+02;  1.9250436E-01; -5.4359810E+03;3;  6.4672501E+01;  0.0000000E+00;  2.7446387E+00;0; -1.4281671E-01;  1.0878127E+04;  0.0000000E+00;  7.7260166E-02;  4.0000000E+04;  0.0000000E+00;  3.9088199E+04; -3.2659858E-01;  0.0000000E+00;  1.8378188E-01;  1.6490184E+04;
  1.6253973E+00;  9.9999998E-03; -4.0391173E-02;8996;  1.0389427E+00;  0.0000000E+00; -6.9729211E-03;  9.9368890E+02;  1.9246204E-01; -5.1951035E+03;3;  6.3916214E+01;  0.0000000E+00; -3.6925955E+00;0; -1.3804780E-01;  1.0890026E+04;  0.0000000E+00;  1.3164489E-01;  4.0000000E+04;  0.0000000E+00;  3.9084363E+04; -3.2563108E-01;  0.0000000E+00;  1.8758328E-01;  1.6019076E+04;
  1.6253973E+00;  9.9999998E-03;  4.0391468E-02;9004;  1.0389427E+00;  0.0000000E+00;  6.9739176E-03;  9.9368884E+02;  1.9246243E-01; -5.1951523E+03;3;  6.3917831E+01;  0.0000000E+00;  3.6927042E+00;0; -1.3804770E-01;  1.0890027E+04;  0.0000000E+00;  1.3163838E-01;  4.0000000E+04;  0.0000000E+00;  3.9084367E+04; -3.2563093E-01;  0.0000000E+00;  1.8758324E-01;  1.6019049E+04;
  1.6256148E+00;  9.9999998E-03; -7.0668340E-02;8993;  1.0434157E+00;  0.0000000E+00; -1.2349686E-02;  9.9485724E+02;  1.9240758E-01; -4.2332515E+03;3;  6.0558285E+01;  0.0000000E+00; -6.9080095E+00;0; -1.1406292E-01;  1.0924406E+04;  0.0000000E+00;  3.2136562E-01;  4.0000000E+04;  0.0000000E+00;  3.9071465E+04; -3.2274073E-01;  0.0000000E+00;  2.0867781E-01;  1.4405241E+04;
  1.6255184E+00;  9.9999998E-03; -5.0486922E-02;8995;  1.0401424E+00;  0.0000000E+00; -8.7330351E-03;  9.9405090E+02;  1.9242539E-01; -4.8970283E+03;3;  6.2940800E+01;  0.0000000E+00; -4.7248511E+00;0; -1.3176689E-01;  1.0902729E+04;  0.0000000E+00;  1.9496588E-01;  4.0000000E+04;  0.0000000E+00;  3.9080078E+04; -3.2458892E-01;  0.0000000E+00;  1.9282204E-01;  1.5495826E+04;
  1.6255184E+00;  9.9999998E-03;  5.0487217E-02;9005;  1.0401427E+00;  0.0000000E+00;  8.7340195E-03;  9.9405090E+02;  1.9242539E-01; -4.8970283E+03;3;  6.2942493E+01;  0.0000000E+00;  4.7249002E+00;0; -1.3176695E-01;  1.0902732E+04;  0.0000000E+00;  1.9496068E-01;  4.0000000E+04;  0.0000000E+00;  3.9080059E+04; -3.2458881E-01;  0.0000000E+00;  1.9282186E-01;  1.5495805E+04;
  1.6256008E+00;  9.9999998E-03; -6.0579635E-02;8994;  1.0416305E+00;  0.0000000E+00; -1.0520478E-02;  9.9444989E+02;  1.9240566E-01; -4.5685581E+03;3;  6.1824554E+01;  0.0000000E+00; -5.7667274E+00;0; -1.2383756E-01;  1.0914777E+04;  0.0000000E+00;  2.6141873E-01;  4.0000000E+04;  0.0000000E+00;  3.9075707E+04; -3.2358921E-01;  0.0000000E+00;  1.9975165E-01;  1.4952729E+04;
  1.6256008E+00;  9.9999998E-03;  6.0579930E-02;9006;  1.0416306E+00;  0.0000000E+00;  1.0521447E-02;  9.9445001E+02;  1.9240476E-01; -4.5684600E+03;3;  6.1824203E+01;  0.0000000E+00;  5.7666454E+00;0; -1.2383790E-01;  1.0914784E+04;  0.0000000E+00;  2.6141319E-01;  4.0000000E+04;  0.0000000E+00;  3.9075695E+04; -3.2358921E-01;  0.0000000E+00;  1.9975130E-01;  1.4952679E+04;
  1.6427680E+00;  9.9999998E-03; -1.0093797E-01;9049;  1.0442853E+00;  0.0000000E+00; -1.1326042E-02;  9.9445599E+02;  1.8132348E-01; -4.5550195E+03;3;  5.5025352E+01;  0.0000000E+00; -1.1348459E+01;0; -1.3307968E-01;  1.2303531E+04;  0.0000000E+00;  1.9016629E-01;  4.0000000E+04;  0.0000000E+00;  3.9043660E+04; -3.0886394E-01;  0.0000000E+00;  1.7578426E-01;  1.3198112E+04;
  1.6431633E+00;  9.9999998E-03; -9.0827964E-02;9050;  1.0415182E+00;  0.0000000E+00; -1.0012402E-02;  9.9435181E+02;  1.8120441E-01; -4.6403955E+03;3;  5.6540546E+01;  0.0000000E+00; -9.9478731E+00;0; -1.4507774E-01;  1.2315467E+04;  0.0000000E+00;  2.8760478E-01;  4.0000000E+04;  0.0000000E+00;  3.9046684E+04; -3.0530253E-01;  0.0000000E+00;  1.6022480E-01;  1.3587693E+04;
  1.6434329E+00;  9.9999998E-03; -8.0734789E-02;9051;  1.0390583E+00;  0.0000000E+00; -8.8017508E-03;  9.9417242E+02;  1.8112034E-01; -4.7875840E+03;3;  5.7949787E+01;  0.0000000E+00; -8.7746181E+00;0; -1.5493533E-01;  1.2320385E+04;  0.0000000E+00;  3.3335552E-01;  4.0000000E+04;  0.0000000E+00;  3.9049543E+04; -3.0254775E-01;  0.0000000E+00;  1.4761242E-01;  1.4011828E+04;
  1.6431850E+00;  9.9999998E-03; -1.0093641E-02;9058;  1.0300969E+00;  0.0000000E+00; -1.1206303E-03;  9.9240106E+02;  1.8115889E-01; -6.2430513E+03;3;  6.4312347E+01;  0.0000000E+00; -1.0630350E+00;0; -1.8555117E-01;  1.2259892E+04;  0.0000000E+00;  1.1287969E-02;  4.0000000E+04;  0.0000000E+00;  3.9077969E+04; -2.9944918E-01;  0.0000000E+00;  1.1389802E-01;  1.7431848E+04;
  1.6431571E+00;  9.9999998E-03;  1.5247971E-07;9059;  1.0299590E+00;  0.0000000E+00;  4.9112458E-07;  9.9235815E+02;  1.8116643E-01; -6.2783306E+03;3;  6.4412735E+01;  0.0000000E+00; -8.0520607E-05;0; -1.8599302E-01;  1.2257571E+04;  0.0000000E+00; -1.3999069E-10;  4.0000000E+04;  0.0000000E+00;  3.9078801E+04; -2.9953480E-01;  0.0000000E+00;  1.1354177E-01;  1.7539955E+04;
  1.6431850E+00;  9.9999998E-03;  1.0093944E-02;9060;  1.0300969E+00;  0.0000000E+00;  1.1216053E-03;  9.9240118E+02;  1.8115960E-01; -6.2429531E+03;3;  6.4312767E+01;  0.0000000E+00;  1.0629634E+00;0; -1.8555117E-01;  1.2259891E+04;  0.0000000E+00;  1.1284483E-02;  4.0000000E+04;  0.0000000E+00;  3.9077969E+04; -2.9944915E-01;  0.0000000E+00;  1.1389797E-01;  1.7431871E+04;
  1.6432623E+00;  9.9999998E-03; -2.0187963E-02;9057;  1.0305127E+00;  0.0000000E+00; -2.2311779E-03;  9.9252899E+02;  1.8113969E-01; -6.1379043E+03;3;  6.3982002E+01;  0.0000000E+00; -2.0542722E+00;0; -1.8422128E-01;  1.2266570E+04;  0.0000000E+00;  4.4170976E-02;  4.0000000E+04;  0.0000000E+00;  3.9075480E+04; -2.9922479E-01;  0.0000000E+00;  1.1500351E-01;  1.7124445E+04;
  1.6432623E+00;  9.9999998E-03;  2.0188265E-02;9061;  1.0305127E+00;  0.0000000E+00;  2.2321516E-03;  9.9252905E+02;  1.8113959E-01; -6.1378550E+03;3;  6.3980293E+01;  0.0000000E+00;  2.0542417E+00;0; -1.8422142E-01;  1.2266576E+04;  0.0000000E+00;  4.4164974E-02;  4.0000000E+04;  0.0000000E+00;  3.9075480E+04; -2.9922491E-01;  0.0000000E+00;  1.1500350E-01;  1.7124395E+04;
  1.6435775E+00;  9.9999998E-03; -7.0647590E-02;9052;  1.0369029E+00;  0.0000000E+00; -7.6595475E-03;  9.9392999E+02;  1.8107408E-01; -4.9866953E+03;3;  5.9332909E+01;  0.0000000E+00; -7.5219903E+00;0; -1.6295819E-01;  1.2318734E+04;  0.0000000E+00;  3.2995158E-01;  4.0000000E+04;  0.0000000E+00;  3.9053285E+04; -3.0061942E-01;  0.0000000E+00;  1.3766123E-01;  1.4476037E+04;
  1.6433725E+00;  9.9999998E-03; -3.0282630E-02;9056;  1.0312128E+00;  0.0000000E+00; -3.3254011E-03;  9.9273236E+02;  1.8111052E-01; -5.9707402E+03;3;  6.3427116E+01;  0.0000000E+00; -3.1009598E+00;0; -1.8199462E-01;  1.2276875E+04;  0.0000000E+00;  9.5557839E-02;  4.0000000E+04;  0.0000000E+00;  3.9071262E+04; -2.9895461E-01;  0.0000000E+00;  1.1696000E-01;  1.6664059E+04;
  1.6433727E+00;  9.9999998E-03;  3.0282930E-02;9062;  1.0312128E+00;  0.0000000E+00;  3.3263694E-03;  9.9273248E+02;  1.8111031E-01; -5.9706421E+03;3;  6.3425671E+01;  0.0000000E+00;  3.1009197E+00;0; -1.8199489E-01;  1.2276882E+04;  0.0000000E+00;  9.5548943E-02;  4.0000000E+04;  0.0000000E+00;  3.9071262E+04; -2.9895464E-01;  0.0000000E+00;  1.1695974E-01;  1.6664020E+04;
  1.6434890E+00;  9.9999998E-03; -4.0376719E-02;9055;  1.0321971E+00;  0.0000000E+00; -4.4091735E-03;  9.9299640E+02;  1.8108110E-01; -5.7537280E+03;3;  6.2658688E+01;  0.0000000E+00; -4.2024469E+00;0; -1.7884083E-01;  1.2289086E+04;  0.0000000E+00;  1.5984151E-01;  4.0000000E+04;  0.0000000E+00;  3.9066801E+04; -2.9878253E-01;  0.0000000E+00;  1.1994170E-01;  1.6114974E+04;
  1.6434890E+00;  9.9999998E-03;  4.0377017E-02;9063;  1.0321972E+00;  0.0000000E+00;  4.4101467E-03;  9.9299615E+02;  1.8108112E-01; -5.7539238E+03;3;  6.2657509E+01;  0.0000000E+00;  4.2025518E+00;0; -1.7884085E-01;  1.2289091E+04;  0.0000000E+00;  1.5983272E-01;  4.0000000E+04;  0.0000000E+00;  3.9066801E+04; -2.9878232E-01;  0.0000000E+00;  1.1994147E-01;  1.6114980E+04;
  1.6436179E+00;  9.9999998E-03; -6.0559493E-02;9053;  1.0350394E+00;  0.0000000E+00; -6.5653399E-03;  9.9362720E+02;  1.8105458E-01; -5.2354209E+03;3;  6.0608940E+01;  0.0000000E+00; -6.3423500E+00;0; -1.6946192E-01;  1.2311941E+04;  0.0000000E+00;  2.8989905E-01;  4.0000000E+04;  0.0000000E+00;  3.9057512E+04; -2.9944369E-01;  0.0000000E+00;  1.2998177E-01;  1.4986488E+04;
  1.6436180E+00;  9.9999998E-03;  6.0559787E-02;9065;  1.0350397E+00;  0.0000000E+00;  6.5663033E-03;  9.9362726E+02;  1.8105398E-01; -5.2353721E+03;3;  6.0608536E+01;  0.0000000E+00;  6.3423672E+00;0; -1.6946214E-01;  1.2311938E+04;  0.0000000E+00;  2.8988966E-01;  4.0000000E+04;  0.0000000E+00;  3.9057512E+04; -2.9944372E-01;  0.0000000E+00;  1.2998158E-01;  1.4986473E+04;
  1.6435800E+00;  9.9999998E-03; -5.0469305E-02;9054;  1.0334693E+00;  0.0000000E+00; -5.4889796E-03;  9.9330402E+02;  1.8105990E-01; -5.5009443E+03;3;  6.1701214E+01;  0.0000000E+00; -5.3017335E+00;0; -1.7469838E-01;  1.2301442E+04;  0.0000000E+00;  2.2848055E-01;  4.0000000E+04;  0.0000000E+00;  3.9062043E+04; -2.9888603E-01;  0.0000000E+00;  1.2418765E-01;  1.5540301E+04;
  1.6435800E+00;  9.9999998E-03;  5.0469603E-02;9064;  1.0334694E+00;  0.0000000E+00;  5.4899328E-03;  9.9330353E+02;  1.8105935E-01; -5.5013359E+03;3;  6.1700447E+01;  0.0000000E+00;  5.3017683E+00;0; -1.7469837E-01;  1.2301448E+04;  0.0000000E+00;  2.2847050E-01;  4.0000000E+04;  0.0000000E+00;  3.9062047E+04; -2.9888573E-01;  0.0000000E+00;  1.2418737E-01;  1.5540247E+04;
  1.6595234E+00;  9.9999998E-03; -1.0103527E-01;9108;  1.0387471E+00;  0.0000000E+00; -5.1182033E-03;  9.9347327E+02;  1.7180841E-01; -5.3498813E+03;3;  5.3399651E+01;  0.0000000E+00; -1.1736861E+01;0; -1.6264834E-01;  1.3687851E+04;  0.0000000E+00;  9.7714022E-02;  4.0000000E+04;  0.0000000E+00;  3.9020531E+04; -2.7341115E-01;  0.0000000E+00;  1.1076282E-01;  1.3488836E+04;
  1.6599171E+00;  9.9999998E-03; -9.0897515E-02;9109;  1.0360186E+00;  0.0000000E+00; -4.4715879E-03;  9.9344305E+02;  1.7170741E-01; -5.3743184E+03;3;  5.4940693E+01;  0.0000000E+00; -1.0321861E+01;0; -1.6837576E-01;  1.3701911E+04;  0.0000000E+00;  2.0654683E-01;  4.0000000E+04;  0.0000000E+00;  3.9021332E+04; -2.6438409E-01;  0.0000000E+00;  9.6008338E-02;  1.3657363E+04;
  1.6602238E+00;  9.9999998E-03; -8.0779888E-02;9110;  1.0335516E+00;  0.0000000E+00; -3.9155642E-03;  9.9336823E+02;  1.7162801E-01; -5.4354146E+03;3;  5.6458973E+01;  0.0000000E+00; -9.0921135E+00;0; -1.7252977E-01;  1.3710606E+04;  0.0000000E+00;  2.7348685E-01;  4.0000000E+04;  0.0000000E+00;  3.9022680E+04; -2.5671852E-01;  0.0000000E+00;  8.4188744E-02;  1.3873133E+04;
  1.6604406E+00;  9.9999998E-03; -7.0674770E-02;9111;  1.0313534E+00;  0.0000000E+00; -3.4070022E-03;  9.9323615E+02;  1.7156889E-01; -5.5434790E+03;3;  5.7884022E+01;  0.0000000E+00; -7.9697089E+00;0; -1.7557627E-01;  1.3714120E+04;  0.0000000E+00;  2.9318079E-01;  4.0000000E+04;  0.0000000E+00;  3.9024691E+04; -2.5048962E-01;  0.0000000E+00;  7.4913360E-02;  1.4156044E+04;
  1.6605626E+00;  9.9999998E-03; -6.0576547E-02;9112;  1.0294378E+00;  0.0000000E+00; -2.9249724E-03;  9.9305737E+02;  1.7153549E-01; -5.6898706E+03;3;  5.9249493E+01;  0.0000000E+00; -6.8861575E+00;0; -1.7790164E-01;  1.3712027E+04;  0.0000000E+00;  2.7239227E-01;  4.0000000E+04;  0.0000000E+00;  3.9027793E+04; -2.4572243E-01;  0.0000000E+00;  6.7820787E-02;  1.4516437E+04;
  1.6605626E+00;  9.9999998E-03;  6.0576845E-02;9124;  1.0294378E+00;  0.0000000E+00;  2.9259133E-03;  9.9305731E+02;  1.7153518E-01; -5.6899194E+03;3;  5.9246578E+01;  0.0000000E+00;  6.8859916E+00;0; -1.7790174E-01;  1.3712028E+04;  0.0000000E+00;  2.7238351E-01;  4.0000000E+04;  0.0000000E+00;  3.9027793E+04; -2.4572249E-01;  0.0000000E+00;  6.7820735E-02;  1.4516415E+04;
  1.6604111E+00;  9.9999998E-03; -1.0095043E-02;9117;  1.0242325E+00;  0.0000000E+00; -5.0594076E-04;  9.9217908E+02;  1.7155653E-01; -6.4098193E+03;3;  6.3351124E+01;  0.0000000E+00; -1.1074747E+00;0; -1.8422526E-01;  1.3673629E+04;  0.0000000E+00;  1.1922473E-02;  4.0000000E+04;  0.0000000E+00;  3.9045832E+04; -2.3759173E-01;  0.0000000E+00;  5.3366471E-02;  1.6665213E+04;
  1.6603931E+00;  9.9999998E-03;  1.5296301E-07;9118;  1.0240840E+00;  0.0000000E+00;  4.6543656E-07;  9.9214532E+02;  1.7156027E-01; -6.4375366E+03;3;  6.3505886E+01;  0.0000000E+00; -5.9447499E-05;0; -1.8443926E-01;  1.3671721E+04;  0.0000000E+00; -1.2863341E-10;  4.0000000E+04;  0.0000000E+00;  3.9046598E+04; -2.3749308E-01;  0.0000000E+00;  5.3053822E-02;  1.6770820E+04;
  1.6604111E+00;  9.9999998E-03;  1.0095349E-02;9119;  1.0242324E+00;  0.0000000E+00;  5.0687027E-04;  9.9217920E+02;  1.7155577E-01; -6.4097217E+03;3;  6.3351570E+01;  0.0000000E+00;  1.1073624E+00;0; -1.8422544E-01;  1.3673631E+04;  0.0000000E+00;  1.1919521E-02;  4.0000000E+04;  0.0000000E+00;  3.9045832E+04; -2.3759186E-01;  0.0000000E+00;  5.3366430E-02;  1.6665232E+04;
  1.6604608E+00;  9.9999998E-03; -2.0190500E-02;9116;  1.0246800E+00;  0.0000000E+00; -1.0089951E-03;  9.9227051E+02;  1.7154782E-01; -6.3348325E+03;3;  6.2973957E+01;  0.0000000E+00; -2.2612700E+00;0; -1.8360111E-01;  1.3679093E+04;  0.0000000E+00;  4.6292320E-02;  4.0000000E+04;  0.0000000E+00;  3.9043188E+04; -2.3793498E-01;  0.0000000E+00;  5.4333858E-02;  1.6368751E+04;
  1.6604608E+00;  9.9999998E-03;  2.0190803E-02;9120;  1.0246800E+00;  0.0000000E+00;  1.0099241E-03;  9.9227069E+02;  1.7154667E-01; -6.3346860E+03;3;  6.2972210E+01;  0.0000000E+00;  2.2611322E+00;0; -1.8360113E-01;  1.3679095E+04;  0.0000000E+00;  4.6286486E-02;  4.0000000E+04;  0.0000000E+00;  3.9043188E+04; -2.3793498E-01;  0.0000000E+00;  5.4333854E-02;  1.6368770E+04;
  1.6605256E+00;  9.9999998E-03; -3.0286470E-02;9115;  1.0254253E+00;  0.0000000E+00; -1.5018856E-03;  9.9242767E+02;  1.7153414E-01; -6.2060000E+03;3;  6.2341587E+01;  0.0000000E+00; -3.4315312E+00;0; -1.8261756E-01;  1.3687393E+04;  0.0000000E+00;  9.8715805E-02;  4.0000000E+04;  0.0000000E+00;  3.9039453E+04; -2.3867723E-01;  0.0000000E+00;  5.6059677E-02;  1.5936531E+04;
  1.6605256E+00;  9.9999998E-03;  3.0286772E-02;9121;  1.0254253E+00;  0.0000000E+00;  1.5028234E-03;  9.9242755E+02;  1.7153372E-01; -6.2060977E+03;3;  6.2340240E+01;  0.0000000E+00;  3.4315293E+00;0; -1.8261775E-01;  1.3687391E+04;  0.0000000E+00;  9.8709010E-02;  4.0000000E+04;  0.0000000E+00;  3.9039457E+04; -2.3867738E-01;  0.0000000E+00;  5.6059636E-02;  1.5936529E+04;
  1.6605812E+00;  9.9999998E-03; -4.0383019E-02;9114;  1.0264682E+00;  0.0000000E+00; -1.9839392E-03;  9.9262579E+02;  1.7152354E-01; -6.0435698E+03;3;  6.1508984E+01;  0.0000000E+00; -4.5882435E+00;0; -1.8133262E-01;  1.3696866E+04;  0.0000000E+00;  1.6149230E-01;  4.0000000E+04;  0.0000000E+00;  3.9035508E+04; -2.4004923E-01;  0.0000000E+00;  5.8716603E-02;  1.5441643E+04;
  1.6605812E+00;  9.9999998E-03;  4.0383317E-02;9122;  1.0264683E+00;  0.0000000E+00;  1.9848868E-03;  9.9262567E+02;  1.7152409E-01; -6.0436675E+03;3;  6.1510574E+01;  0.0000000E+00;  4.5882492E+00;0; -1.8133289E-01;  1.3696863E+04;  0.0000000E+00;  1.6148345E-01;  4.0000000E+04;  0.0000000E+00;  3.9035512E+04; -2.4004932E-01;  0.0000000E+00;  5.8716435E-02;  1.5441642E+04;
  1.6606028E+00;  9.9999998E-03; -5.0479837E-02;9113;  1.0278075E+00;  0.0000000E+00; -2.4551002E-03;  9.9284320E+02;  1.7152230E-01; -5.8653481E+03;3;  6.0484520E+01;  0.0000000E+00; -5.7268023E+00;0; -1.7977314E-01;  1.3705749E+04;  0.0000000E+00;  2.2377838E-01;  4.0000000E+04;  0.0000000E+00;  3.9031273E+04; -2.4230886E-01;  0.0000000E+00;  6.2535718E-02;  1.4952476E+04;
  1.6606028E+00;  9.9999998E-03;  5.0480135E-02;9123;  1.0278076E+00;  0.0000000E+00;  2.4560376E-03;  9.9284344E+02;  1.7152148E-01; -5.8651528E+03;3;  6.0483852E+01;  0.0000000E+00;  5.7267661E+00;0; -1.7977324E-01;  1.3705752E+04;  0.0000000E+00;  2.2377063E-01;  4.0000000E+04;  0.0000000E+00;  3.9031273E+04; -2.4230890E-01;  0.0000000E+00;  6.2535651E-02;  1.4952425E+04;
  1.6754112E+00;  9.9999998E-03; -1.0121389E-01;9166;  1.0341103E+00;  0.0000000E+00;  2.2346644E-04;  9.9280945E+02;  1.6380583E-01; -5.8774556E+03;3;  5.1404949E+01;  0.0000000E+00; -1.1645019E+01;0; -1.5492545E-01;  1.5051747E+04;  0.0000000E+00;  4.4581287E-02;  4.0000000E+04;  0.0000000E+00;  3.8988766E+04; -2.0999879E-01;  0.0000000E+00;  5.5073339E-02;  1.3654076E+04;
  1.6757760E+00;  9.9999998E-03; -9.1035686E-02;9167;  1.0314330E+00;  0.0000000E+00;  3.1562199E-04;  9.9277570E+02;  1.6372761E-01; -5.9046519E+03;3;  5.3029663E+01;  0.0000000E+00; -1.0547799E+01;0; -1.5188415E-01;  1.5065003E+04;  0.0000000E+00;  1.2854765E-01;  4.0000000E+04;  0.0000000E+00;  3.8988051E+04; -1.9248319E-01;  0.0000000E+00;  4.0599037E-02;  1.3639834E+04;
  1.6761067E+00;  9.9999998E-03; -8.0884025E-02;9168;  1.0289929E+00;  0.0000000E+00;  3.6708370E-04;  9.9276245E+02;  1.6365536E-01; -5.9150767E+03;3;  5.4808918E+01;  0.0000000E+00; -9.3927565E+00;0; -1.4791843E-01;  1.5076439E+04;  0.0000000E+00;  1.8722866E-01;  4.0000000E+04;  0.0000000E+00;  3.8987266E+04; -1.7686504E-01;  0.0000000E+00;  2.8946608E-02;  1.3636898E+04;
  1.6763767E+00;  9.9999998E-03; -7.0752628E-02;9169;  1.0267906E+00;  0.0000000E+00;  3.7361099E-04;  9.9272815E+02;  1.6359700E-01; -5.9427656E+03;3;  5.6471752E+01;  0.0000000E+00; -8.2392139E+00;0; -1.4373744E-01;  1.5084422E+04;  0.0000000E+00;  2.1227333E-01;  4.0000000E+04;  0.0000000E+00;  3.8987309E+04; -1.6347198E-01;  0.0000000E+00;  1.9734552E-02;  1.3686344E+04;
  1.6765786E+00;  9.9999998E-03; -6.0634170E-02;9170;  1.0248427E+00;  0.0000000E+00;  3.5095774E-04;  9.9265594E+02;  1.6355149E-01; -6.0015586E+03;3;  5.7902882E+01;  0.0000000E+00; -7.1975656E+00;0; -1.3987082E-01;  1.5088270E+04;  0.0000000E+00;  2.0527689E-01;  4.0000000E+04;  0.0000000E+00;  3.8987781E+04; -1.5245260E-01;  0.0000000E+00;  1.2581775E-02;  1.3811114E+04;
  1.6765786E+00;  9.9999998E-03;  6.0634468E-02;9182;  1.0248429E+00;  0.0000000E+00; -3.5003349E-04;  9.9265594E+02;  1.6355149E-01; -6.0015586E+03;3;  5.7902649E+01;  0.0000000E+00;  7.1976347E+00;0; -1.3987090E-01;  1.5088269E+04;  0.0000000E+00;  2.0527127E-01;  4.0000000E+04;  0.0000000E+00;  3.8987785E+04; -1.5245269E-01;  0.0000000E+00;  1.2581795E-02;  1.3811132E+04;
  1.6767153E+00;  9.9999998E-03; -5.0522272E-02;9171;  1.0231632E+00;  0.0000000E+00;  3.0620626E-04;  9.9256372E+02;  1.6352244E-01; -6.0767441E+03;3;  5.9197285E+01;  0.0000000E+00; -6.0301089E+00;0; -1.3664268E-01;  1.5088207E+04;  0.0000000E+00;  1.7407046E-01;  4.0000000E+04;  0.0000000E+00;  3.8989344E+04; -1.4379191E-01;  0.0000000E+00;  7.1492330E-03;  1.4017472E+04;
  1.6767153E+00;  9.9999998E-03;  5.0522573E-02;9181;  1.0231633E+00;  0.0000000E+00; -3.0528678E-04;  9.9256342E+02;  1.6352208E-01; -6.0769873E+03;3;  5.9196686E+01;  0.0000000E+00;  6.0301700E+00;0; -1.3664316E-01;  1.5088210E+04;  0.0000000E+00;  1.7406560E-01;  4.0000000E+04;  0.0000000E+00;  3.8989344E+04; -1.4379235E-01;  0.0000000E+00;  7.1491944E-03;  1.4017465E+04;
  1.6767921E+00;  9.9999998E-03; -4.0413991E-02;9172;  1.0217670E+00;  0.0000000E+00;  2.4990886E-04;  9.9244958E+02;  1.6350356E-01; -6.1699229E+03;3;  6.0248543E+01;  0.0000000E+00; -4.8888173E+00;0; -1.3420615E-01;  1.5085470E+04;  0.0000000E+00;  1.2906790E-01;  4.0000000E+04;  0.0000000E+00;  3.8991746E+04; -1.3735975E-01;  0.0000000E+00;  3.1536047E-03;  1.4291829E+04;
  1.6767921E+00;  9.9999998E-03;  4.0414289E-02;9180;  1.0217670E+00;  0.0000000E+00; -2.4899980E-04;  9.9244965E+02;  1.6350351E-01; -6.1698745E+03;3;  6.0247555E+01;  0.0000000E+00;  4.8888612E+00;0; -1.3420668E-01;  1.5085470E+04;  0.0000000E+00;  1.2906297E-01;  4.0000000E+04;  0.0000000E+00;  3.8991738E+04; -1.3736020E-01;  0.0000000E+00;  3.1535106E-03;  1.4291821E+04;
  1.6768247E+00;  9.9999998E-03; -3.0308500E-02;9173;  1.0206660E+00;  0.0000000E+00;  1.8798617E-04;  9.9233777E+02;  1.6349418E-01; -6.2612554E+03;3;  6.1081810E+01;  0.0000000E+00; -3.7205973E+00;0; -1.3254023E-01;  1.5081359E+04;  0.0000000E+00;  8.0790222E-02;  4.0000000E+04;  0.0000000E+00;  3.8994219E+04; -1.3287687E-01;  0.0000000E+00;  3.3664290E-04;  1.4598641E+04;
  1.6768247E+00;  9.9999998E-03;  3.0308800E-02;9179;  1.0206662E+00;  0.0000000E+00; -1.8707641E-04;  9.9233801E+02;  1.6349584E-01; -6.2610605E+03;3;  6.1080479E+01;  0.0000000E+00;  3.7205293E+00;0; -1.3254048E-01;  1.5081357E+04;  0.0000000E+00;  8.0786631E-02;  4.0000000E+04;  0.0000000E+00;  3.8994219E+04; -1.3287707E-01;  0.0000000E+00;  3.3659104E-04;  1.4598634E+04;
  1.6768246E+00;  9.9999998E-03; -1.0102289E-02;9175;  1.0193976E+00;  0.0000000E+00;  6.2140374E-05;  9.9219818E+02;  1.6349065E-01; -6.3753262E+03;3;  6.2034084E+01;  0.0000000E+00; -1.2498006E+00;0; -1.3100305E-01;  1.5074330E+04;  0.0000000E+00;  1.0082738E-02;  4.0000000E+04;  0.0000000E+00;  3.8998398E+04; -1.2844478E-01;  0.0000000E+00; -2.5582814E-03;  1.5087950E+04;
  1.6768215E+00;  9.9999998E-03;  1.5128752E-07;9176;  1.0192382E+00;  0.0000000E+00;  4.4188573E-07;  9.9218292E+02;  1.6349106E-01; -6.3877993E+03;3;  6.2112980E+01;  0.0000000E+00; -1.2556209E-04;0; -1.3084447E-01;  1.5073171E+04;  0.0000000E+00; -1.3925625E-10;  4.0000000E+04;  0.0000000E+00;  3.8999156E+04; -1.2794837E-01;  0.0000000E+00; -2.8961063E-03;  1.5161949E+04;
  1.6768246E+00;  9.9999998E-03;  1.0102591E-02;9177;  1.0193977E+00;  0.0000000E+00; -6.1252053E-05;  9.9219794E+02;  1.6349141E-01; -6.3755210E+03;3;  6.2034508E+01;  0.0000000E+00;  1.2495998E+00;0; -1.3100319E-01;  1.5074334E+04;  0.0000000E+00;  1.0081222E-02;  4.0000000E+04;  0.0000000E+00;  3.8998398E+04; -1.2844492E-01;  0.0000000E+00; -2.5582598E-03;  1.5087944E+04;
  1.6768291E+00;  9.9999998E-03; -2.0204747E-02;9174;  1.0198762E+00;  0.0000000E+00;  1.2550339E-04;  9.9224927E+02;  1.6349210E-01; -6.3335786E+03;3;  6.1678425E+01;  0.0000000E+00; -2.4743314E+00;0; -1.3152893E-01;  1.5077245E+04;  0.0000000E+00;  3.8634498E-02;  4.0000000E+04;  0.0000000E+00;  3.8996531E+04; -1.3001752E-01;  0.0000000E+00; -1.5114073E-03;  1.4884249E+04;
  1.6768291E+00;  9.9999998E-03;  2.0205051E-02;9178;  1.0198764E+00;  0.0000000E+00; -1.2460251E-04;  9.9224933E+02;  1.6349202E-01; -6.3335303E+03;3;  6.1679241E+01;  0.0000000E+00;  2.4742367E+00;0; -1.3152917E-01;  1.5077244E+04;  0.0000000E+00;  3.8631570E-02;  4.0000000E+04;  0.0000000E+00;  3.8996539E+04; -1.3001773E-01;  0.0000000E+00; -1.5114323E-03;  1.4884220E+04;
  1.6907018E+00;  9.9999998E-03; -1.0142870E-01;9223;  1.0303255E+00;  0.0000000E+00;  4.9727196E-03;  9.9240320E+02;  1.5703540E-01; -6.1885420E+03;3;  4.9678421E+01;  0.0000000E+00; -1.3291358E+01;0; -1.0428364E-01;  1.6382785E+04;  0.0000000E+00;  1.7509399E-02;  4.0000000E+04;  0.0000000E+00;  3.8947117E+04; -1.1215875E-01;  0.0000000E+00;  7.8751147E-03;  1.3606575E+04;
  1.6909937E+00;  9.9999998E-03; -9.1220543E-02;9224;  1.0277481E+00;  0.0000000E+00;  4.6410253E-03;  9.9230481E+02;  1.5698467E-01; -6.2682554E+03;3;  5.1848171E+01;  0.0000000E+00; -1.1874645E+01;0; -8.9284897E-02;  1.6390641E+04;  0.0000000E+00;  5.9503779E-02;  4.0000000E+04;  0.0000000E+00;  3.8945711E+04; -8.2429588E-02;  0.0000000E+00; -6.8553062E-03;  1.3526991E+04;
  1.6912984E+00;  9.9999998E-03; -8.1035495E-02;9225;  1.0253557E+00;  0.0000000E+00;  4.2598150E-03;  9.9227557E+02;  1.5693131E-01; -6.2915698E+03;3;  5.3915787E+01;  0.0000000E+00; -1.0582595E+01;0; -7.4118719E-02;  1.6401002E+04;  0.0000000E+00;  8.9247443E-02;  4.0000000E+04;  0.0000000E+00;  3.8943410E+04; -5.5214617E-02;  0.0000000E+00; -1.8904099E-02;  1.3371461E+04;
  1.6915878E+00;  9.9999998E-03; -7.0872322E-02;9226;  1.0231626E+00;  0.0000000E+00;  3.8320047E-03;  9.9229559E+02;  1.5688169E-01; -6.2748057E+03;3;  5.5608334E+01;  0.0000000E+00; -9.3965931E+00;0; -5.9747271E-02;  1.6411242E+04;  0.0000000E+00;  1.0433187E-01;  4.0000000E+04;  0.0000000E+00;  3.8941176E+04; -3.1081472E-02;  0.0000000E+00; -2.8665800E-02;  1.3205962E+04;
  1.6918449E+00;  9.9999998E-03; -6.0726102E-02;9227;  1.0211991E+00;  0.0000000E+00;  3.3641616E-03;  9.9232336E+02;  1.5683669E-01; -6.2518296E+03;3;  5.7009365E+01;  0.0000000E+00; -8.2189064E+00;0; -4.6887305E-02;  1.6419910E+04;  0.0000000E+00;  1.0373499E-01;  4.0000000E+04;  0.0000000E+00;  3.8939492E+04; -1.0409442E-02;  0.0000000E+00; -3.6477864E-02;  1.3073204E+04;
  1.6918449E+00;  9.9999998E-03;  6.0726404E-02;9239;  1.0211992E+00;  0.0000000E+00; -3.3632712E-03;  9.9232349E+02;  1.5683739E-01; -6.2517324E+03;3;  5.7009315E+01;  0.0000000E+00;  8.2189016E+00;0; -4.6888310E-02;  1.6419906E+04;  0.0000000E+00;  1.0373190E-01;  4.0000000E+04;  0.0000000E+00;  3.8939500E+04; -1.0410525E-02;  0.0000000E+00; -3.6477786E-02;  1.3073204E+04;
  1.6920578E+00;  9.9999998E-03; -5.0591700E-02;9228;  1.0194916E+00;  0.0000000E+00;  2.8577081E-03;  9.9233478E+02;  1.5679942E-01; -6.2421763E+03;3;  5.8252110E+01;  0.0000000E+00; -6.9887624E+00;0; -3.6012758E-02;  1.6426311E+04;  0.0000000E+00;  9.0149432E-02;  4.0000000E+04;  0.0000000E+00;  3.8938137E+04;  6.5902662E-03;  0.0000000E+00; -4.2603023E-02;  1.2996727E+04;
  1.6920578E+00;  9.9999998E-03;  5.0591998E-02;9238;  1.0194917E+00;  0.0000000E+00; -2.8568136E-03;  9.9233478E+02;  1.5679942E-01; -6.2421763E+03;3;  5.8251743E+01;  0.0000000E+00;  6.9887104E+00;0; -3.6013827E-02;  1.6426312E+04;  0.0000000E+00;  9.0148397E-02;  4.0000000E+04;  0.0000000E+00;  3.8938137E+04;  6.5890942E-03;  0.0000000E+00; -4.2602919E-02;  1.2996761E+04;
  1.6922209E+00;  9.9999998E-03; -4.0465459E-02;9229;  1.0180664E+00;  0.0000000E+00;  2.3249916E-03;  9.9233374E+02;  1.5677124E-01; -6.2427456E+03;3;  5.9125397E+01;  0.0000000E+00; -5.6487541E+00;0; -2.7349966E-02;  1.6430404E+04;  0.0000000E+00;  6.8354480E-02;  4.0000000E+04;  0.0000000E+00;  3.8937547E+04;  1.9906277E-02;  0.0000000E+00; -4.7256242E-02;  1.2982277E+04;
  1.6922209E+00;  9.9999998E-03;  4.0465761E-02;9237;  1.0180664E+00;  0.0000000E+00; -2.3241024E-03;  9.9233392E+02;  1.5677108E-01; -6.2425996E+03;3;  5.9127094E+01;  0.0000000E+00;  5.6487522E+00;0; -2.7350726E-02;  1.6430400E+04;  0.0000000E+00;  6.8353578E-02;  4.0000000E+04;  0.0000000E+00;  3.8937551E+04;  1.9905491E-02;  0.0000000E+00; -4.7256216E-02;  1.2982273E+04;
  1.6923361E+00;  9.9999998E-03; -3.0345000E-02;9230;  1.0169319E+00;  0.0000000E+00;  1.7641692E-03;  9.9232623E+02;  1.5675029E-01; -6.2486792E+03;3;  5.9830685E+01;  0.0000000E+00; -4.2985625E+00;0; -2.0900438E-02;  1.6432428E+04;  0.0000000E+00;  4.3686975E-02;  4.0000000E+04;  0.0000000E+00;  3.8937602E+04;  2.9730009E-02;  0.0000000E+00; -5.0630447E-02;  1.3018753E+04;
  1.6923361E+00;  9.9999998E-03;  3.0345302E-02;9236;  1.0169320E+00;  0.0000000E+00; -1.7632894E-03;  9.9232629E+02;  1.5675047E-01; -6.2486309E+03;3;  5.9831944E+01;  0.0000000E+00;  4.2985101E+00;0; -2.0901078E-02;  1.6432430E+04;  0.0000000E+00;  4.3687232E-02;  4.0000000E+04;  0.0000000E+00;  3.8937609E+04;  2.9729316E-02;  0.0000000E+00; -5.0630394E-02;  1.3018721E+04;
  1.6924103E+00;  9.9999998E-03; -2.0228362E-02;9231;  1.0161167E+00;  0.0000000E+00;  1.1870785E-03;  9.9231708E+02;  1.5673728E-01; -6.2560361E+03;3;  6.0356819E+01;  0.0000000E+00; -2.8647821E+00;0; -1.6512990E-02;  1.6433211E+04;  0.0000000E+00;  2.1273935E-02;  4.0000000E+04;  0.0000000E+00;  3.8938125E+04;  3.6385503E-02;  0.0000000E+00; -5.2898493E-02;  1.3080813E+04;
  1.6924103E+00;  9.9999998E-03;  2.0228663E-02;9235;  1.0161167E+00;  0.0000000E+00; -1.1862032E-03;  9.9231732E+02;  1.5673788E-01; -6.2558418E+03;3;  6.0357498E+01;  0.0000000E+00;  2.8646848E+00;0; -1.6513348E-02;  1.6433219E+04;  0.0000000E+00;  2.1274606E-02;  4.0000000E+04;  0.0000000E+00;  3.8938121E+04;  3.6385138E-02;  0.0000000E+00; -5.2898485E-02;  1.3080808E+04;
  1.6924524E+00;  9.9999998E-03; -1.0113690E-02;9232;  1.0156151E+00;  0.0000000E+00;  5.9662416E-04;  9.9231073E+02;  1.5673046E-01; -6.2611636E+03;3;  6.0613361E+01;  0.0000000E+00; -1.4548599E+00;0; -1.3976529E-02;  1.6433506E+04;  0.0000000E+00;  5.6229499E-03;  4.0000000E+04;  0.0000000E+00;  3.8938465E+04;  4.0226810E-02;  0.0000000E+00; -5.4203339E-02;  1.3136444E+04;
  1.6924524E+00;  9.9999998E-03;  1.0113992E-02;9234;  1.0156151E+00;  0.0000000E+00; -5.9575564E-04;  9.9231061E+02;  1.5672974E-01; -6.2612607E+03;3;  6.0613865E+01;  0.0000000E+00;  1.4547518E+00;0; -1.3976756E-02;  1.6433502E+04;  0.0000000E+00;  5.6232437E-03;  4.0000000E+04;  0.0000000E+00;  3.8938469E+04;  4.0226594E-02;  0.0000000E+00; -5.4203350E-02;  1.3136431E+04;
  1.6924657E+00;  9.9999998E-03;  1.5135828E-07;9233;  1.0154542E+00;  0.0000000E+00;  4.2866077E-07;  9.9230957E+02;  1.5672714E-01; -6.2620645E+03;3;  6.0825470E+01;  0.0000000E+00; -9.5303709E-05;0; -1.3152912E-02;  1.6433506E+04;  0.0000000E+00; -1.4544251E-10;  4.0000000E+04;  0.0000000E+00;  3.8938773E+04;  4.1474447E-02;  0.0000000E+00; -5.4627359E-02;  1.3158558E+04;
  1.7055321E+00;  9.9999998E-03; -1.0164508E-01;9280;  1.0273567E+00;  0.0000000E+00;  9.5815472E-03;  9.9225403E+02;  1.5129855E-01; -6.2844551E+03;3;  4.8736801E+01;  0.0000000E+00; -1.4626143E+01;0; -7.3834807E-03;  1.7668275E+04;  0.0000000E+00; -5.0067496E-03;  4.0000000E+04;  0.0000000E+00;  3.8892453E+04;  2.3684490E-02;  0.0000000E+00; -3.1067971E-02;  1.3124642E+04;
  1.7057146E+00;  9.9999998E-03; -9.1423787E-02;9281;  1.0248381E+00;  0.0000000E+00;  8.8290554E-03;  9.9203461E+02;  1.5127906E-01; -6.4621030E+03;3;  5.1130032E+01;  0.0000000E+00; -1.3171506E+01;0;  2.2852026E-02;  1.7666262E+04;  0.0000000E+00;  3.6256646E-03;  4.0000000E+04;  0.0000000E+00;  3.8891891E+04;  6.9481283E-02;  0.0000000E+00; -4.6629258E-02;  1.3157435E+04;
  1.7059480E+00;  9.9999998E-03; -8.1212208E-02;9282;  1.0224518E+00;  0.0000000E+00;  8.0258390E-03;  9.9194824E+02;  1.5125066E-01; -6.5317051E+03;3;  5.2982735E+01;  0.0000000E+00; -1.1816836E+01;0;  5.2301805E-02;  1.7671064E+04;  0.0000000E+00;  4.3265196E-03;  4.0000000E+04;  0.0000000E+00;  3.8889500E+04;  1.1197649E-01;  0.0000000E+00; -5.9674684E-02;  1.2989148E+04;
  1.7062110E+00;  9.9999998E-03; -7.1017660E-02;9283;  1.0202550E+00;  0.0000000E+00;  7.1716942E-03;  9.9196936E+02;  1.5121752E-01; -6.5140630E+03;3;  5.4663666E+01;  0.0000000E+00; -1.0514666E+01;0;  7.9818927E-02;  1.7680078E+04;  0.0000000E+00;  1.6174046E-03;  4.0000000E+04;  0.0000000E+00;  3.8886164E+04;  1.5038449E-01;  0.0000000E+00; -7.0565559E-02;  1.2705545E+04;
  1.7064801E+00;  9.9999998E-03; -6.0840696E-02;9284;  1.0182902E+00;  0.0000000E+00;  6.2712734E-03;  9.9204071E+02;  1.5118031E-01; -6.4556562E+03;3;  5.6172234E+01;  0.0000000E+00; -9.2651081E+00;0;  1.0449092E-01;  1.7690992E+04;  0.0000000E+00; -7.2292372E-05;  4.0000000E+04;  0.0000000E+00;  3.8882184E+04;  1.8405728E-01;  0.0000000E+00; -7.9566360E-02;  1.2374016E+04;
  1.7064801E+00;  9.9999998E-03;  6.0841002E-02;9296;  1.0182903E+00;  0.0000000E+00; -6.2704086E-03;  9.9204053E+02;  1.5118080E-01; -6.4558018E+03;3;  5.6172157E+01;  0.0000000E+00;  9.2650385E+00;0;  1.0448952E-01;  1.7690988E+04;  0.0000000E+00; -7.1661183E-05;  4.0000000E+04;  0.0000000E+00;  3.8882188E+04;  1.8405570E-01;  0.0000000E+00; -7.9566181E-02;  1.2374025E+04;
  1.7067361E+00;  9.9999998E-03; -5.0679099E-02;9285;  1.0165765E+00;  0.0000000E+00;  5.3217197E-03;  9.9213361E+02;  1.5114506E-01; -6.3797832E+03;3;  5.7266354E+01;  0.0000000E+00; -7.8522635E+00;0;  1.2570727E-01;  1.7702047E+04;  0.0000000E+00; -6.5274508E-04;  4.0000000E+04;  0.0000000E+00;  3.8878527E+04;  2.1257249E-01;  0.0000000E+00; -8.6865209E-02;  1.2043614E+04;
  1.7067361E+00;  9.9999998E-03;  5.0679404E-02;9295;  1.0165766E+00;  0.0000000E+00; -5.3208582E-03;  9.9213385E+02;  1.5114510E-01; -6.3795898E+03;3;  5.7266026E+01;  0.0000000E+00;  7.8522053E+00;0;  1.2570599E-01;  1.7702045E+04;  0.0000000E+00; -6.5109658E-04;  4.0000000E+04;  0.0000000E+00;  3.8878527E+04;  2.1257110E-01;  0.0000000E+00; -8.6865112E-02;  1.2043628E+04;
  1.7069603E+00;  9.9999998E-03; -4.0530283E-02;9286;  1.0151402E+00;  0.0000000E+00;  4.3183779E-03;  9.9223596E+02;  1.5111388E-01; -6.2963452E+03;3;  5.8077923E+01;  0.0000000E+00; -6.3844948E+00;0;  1.4307977E-01;  1.7712066E+04;  0.0000000E+00; -5.7680713E-04;  4.0000000E+04;  0.0000000E+00;  3.8874945E+04;  2.3567341E-01;  0.0000000E+00; -9.2593640E-02;  1.1748337E+04;
  1.7069603E+00;  9.9999998E-03;  4.0530585E-02;9294;  1.0151404E+00;  0.0000000E+00; -4.3175179E-03;  9.9223560E+02;  1.5111311E-01; -6.2966353E+03;3;  5.8079433E+01;  0.0000000E+00;  6.3843598E+00;0;  1.4307845E-01;  1.7712068E+04;  0.0000000E+00; -5.7448074E-04;  4.0000000E+04;  0.0000000E+00;  3.8874941E+04;  2.3567192E-01;  0.0000000E+00; -9.2593469E-02;  1.1748295E+04;
  1.7071387E+00;  9.9999998E-03; -3.0390723E-02;9287;  1.0139986E+00;  0.0000000E+00;  3.2801745E-03;  9.9231567E+02;  1.5109012E-01; -6.2313735E+03;3;  5.8645424E+01;  0.0000000E+00; -4.8680654E+00;0;  1.5642978E-01;  1.7720049E+04;  0.0000000E+00; -2.5765219E-04;  4.0000000E+04;  0.0000000E+00;  3.8872191E+04;  2.5329253E-01;  0.0000000E+00; -9.6862748E-02;  1.1509631E+04;
  1.7071387E+00;  9.9999998E-03;  3.0391026E-02;9293;  1.0139989E+00;  0.0000000E+00; -3.2793216E-03;  9.9231586E+02;  1.5108977E-01; -6.2312285E+03;3;  5.8646572E+01;  0.0000000E+00;  4.8680658E+00;0;  1.5642899E-01;  1.7720055E+04;  0.0000000E+00; -2.5396541E-04;  4.0000000E+04;  0.0000000E+00;  3.8872191E+04;  2.5329158E-01;  0.0000000E+00; -9.6862577E-02;  1.1509643E+04;
  1.7072655E+00;  9.9999998E-03; -2.0257523E-02;9288;  1.0131744E+00;  0.0000000E+00;  2.2128508E-03;  9.9238177E+02;  1.5107282E-01; -6.1775264E+03;3;  5.8986580E+01;  0.0000000E+00; -3.1815236E+00;0;  1.6579774E-01;  1.7725758E+04;  0.0000000E+00; -2.9896095E-05;  4.0000000E+04;  0.0000000E+00;  3.8870188E+04;  2.6558900E-01;  0.0000000E+00; -9.9791259E-02;  1.1338222E+04;
  1.7072655E+00;  9.9999998E-03;  2.0257829E-02;9292;  1.0131744E+00;  0.0000000E+00; -2.2120059E-03;  9.9238159E+02;  1.5107223E-01; -6.1776714E+03;3;  5.8987301E+01;  0.0000000E+00;  3.1814468E+00;0;  1.6579711E-01;  1.7725758E+04;  0.0000000E+00; -2.7374210E-05;  4.0000000E+04;  0.0000000E+00;  3.8870188E+04;  2.6558831E-01;  0.0000000E+00; -9.9791192E-02;  1.1338230E+04;
  1.7073414E+00;  9.9999998E-03; -1.0127928E-02;9289;  1.0126719E+00;  0.0000000E+00;  1.1051582E-03;  9.9241992E+02;  1.5106161E-01; -6.1464482E+03;3;  5.9204521E+01;  0.0000000E+00; -1.6152433E+00;0;  1.7133638E-01;  1.7729133E+04;  0.0000000E+00;  1.4640904E-05;  4.0000000E+04;  0.0000000E+00;  3.8869227E+04;  2.7283090E-01;  0.0000000E+00; -1.0149451E-01;  1.1236577E+04;
  1.7073414E+00;  9.9999998E-03;  1.0128233E-02;9291;  1.0126722E+00;  0.0000000E+00; -1.1043182E-03;  9.9241998E+02;  1.5106198E-01; -6.1463999E+03;3;  5.9202793E+01;  0.0000000E+00;  1.6151432E+00;0;  1.7133597E-01;  1.7729133E+04;  0.0000000E+00;  1.6254971E-05;  4.0000000E+04;  0.0000000E+00;  3.8869230E+04;  2.7283043E-01;  0.0000000E+00; -1.0149445E-01;  1.1236621E+04;
  1.7073671E+00;  9.9999998E-03;  1.5246081E-07;9290;  1.0125086E+00;  0.0000000E+00;  4.2099734E-07;  9.9243207E+02;  1.5105772E-01; -6.1365396E+03;3;  5.9286411E+01;  0.0000000E+00; -8.2930375E-05;0;  1.7317456E-01;  1.7730178E+04;  0.0000000E+00; -1.2302390E-10;  4.0000000E+04;  0.0000000E+00;  3.8868551E+04;  2.7522844E-01;  0.0000000E+00; -1.0205389E-01;  1.1203165E+04;
  1.7200296E+00;  9.9999998E-03; -1.0181163E-01;9336;  1.0250424E+00;  0.0000000E+00;  1.3962804E-02;  9.9238544E+02;  1.4643753E-01; -6.1477109E+03;3;  4.7460617E+01;  0.0000000E+00; -1.6141474E+01;0;  1.3528983E-01;  1.8900260E+04;  0.0000000E+00; -2.4230838E-02;  4.0000000E+04;  0.0000000E+00;  3.8820320E+04;  1.9708163E-01;  0.0000000E+00; -6.1791793E-02;  1.1953769E+04;
  1.7200835E+00;  9.9999998E-03; -9.1601983E-02;9337;  1.0225484E+00;  0.0000000E+00;  1.2816065E-02;  9.9199615E+02;  1.4644043E-01; -6.4618701E+03;3;  4.9971035E+01;  0.0000000E+00; -1.4721171E+01;0;  1.8378192E-01;  1.8885545E+04;  0.0000000E+00; -4.4542376E-02;  4.0000000E+04;  0.0000000E+00;  3.8822785E+04;  2.6251128E-01;  0.0000000E+00; -7.8729361E-02;  1.2290695E+04;
  1.7202079E+00;  9.9999998E-03; -8.1379876E-02;9338;  1.0201565E+00;  0.0000000E+00;  1.1626216E-02;  9.9179858E+02;  1.4643471E-01; -6.6210859E+03;3;  5.1847813E+01;  0.0000000E+00; -1.3099900E+01;0;  2.3012146E-01;  1.8880646E+04;  0.0000000E+00; -5.3715412E-02;  4.0000000E+04;  0.0000000E+00;  3.8822402E+04;  3.2346860E-01;  0.0000000E+00; -9.3347132E-02;  1.2293267E+04;
  1.7203978E+00;  9.9999998E-03; -7.1162999E-02;9339;  1.0179609E+00;  0.0000000E+00;  1.0363988E-02;  9.9175629E+02;  1.4642112E-01; -6.6547788E+03;3;  5.3556133E+01;  0.0000000E+00; -1.1651542E+01;0;  2.7309930E-01;  1.8883941E+04;  0.0000000E+00; -6.3094676E-02;  4.0000000E+04;  0.0000000E+00;  3.8819223E+04;  3.7900454E-01;  0.0000000E+00; -1.0590525E-01;  1.2051349E+04;
  1.7206298E+00;  9.9999998E-03; -6.0959697E-02;9340;  1.0159776E+00;  0.0000000E+00;  9.0530114E-03;  9.9182422E+02;  1.4640112E-01; -6.5993525E+03;3;  5.4917511E+01;  0.0000000E+00; -1.0241274E+01;0;  3.1167260E-01;  1.8892783E+04;  0.0000000E+00; -6.7906477E-02;  4.0000000E+04;  0.0000000E+00;  3.8814555E+04;  4.2823532E-01;  0.0000000E+00; -1.1656273E-01;  1.1653083E+04;
  1.7206298E+00;  9.9999998E-03;  6.0960002E-02;9352;  1.0159777E+00;  0.0000000E+00; -9.0521667E-03;  9.9182428E+02;  1.4640069E-01; -6.5993042E+03;3;  5.4917500E+01;  0.0000000E+00;  1.0241347E+01;0;  3.1167057E-01;  1.8892785E+04;  0.0000000E+00; -6.7904502E-02;  4.0000000E+04;  0.0000000E+00;  3.8814555E+04;  4.2823300E-01;  0.0000000E+00; -1.1656242E-01;  1.1653103E+04;
  1.7208766E+00;  9.9999998E-03; -5.0772082E-02;9341;  1.0142746E+00;  0.0000000E+00;  7.6662814E-03;  9.9195294E+02;  1.4637670E-01; -6.4948291E+03;3;  5.6036297E+01;  0.0000000E+00; -8.8047819E+00;0;  3.4505421E-01;  1.8904975E+04;  0.0000000E+00; -6.2937111E-02;  4.0000000E+04;  0.0000000E+00;  3.8809277E+04;  4.7046152E-01;  0.0000000E+00; -1.2540731E-01;  1.1176258E+04;
  1.7208766E+00;  9.9999998E-03;  5.0772388E-02;9351;  1.0142748E+00;  0.0000000E+00; -7.6654451E-03;  9.9195300E+02;  1.4637698E-01; -6.4947812E+03;3;  5.6035988E+01;  0.0000000E+00;  8.8047400E+00;0;  3.4505227E-01;  1.8904979E+04;  0.0000000E+00; -6.2932573E-02;  4.0000000E+04;  0.0000000E+00;  3.8809273E+04;  4.7045928E-01;  0.0000000E+00; -1.2540701E-01;  1.1176278E+04;
  1.7211142E+00;  9.9999998E-03; -4.0599555E-02;9342;  1.0128558E+00;  0.0000000E+00;  6.2222308E-03;  9.9210522E+02;  1.4635144E-01; -6.3713438E+03;3;  5.6726658E+01;  0.0000000E+00; -7.0726910E+00;0;  3.7275183E-01;  1.8917945E+04;  0.0000000E+00; -4.9499843E-02;  4.0000000E+04;  0.0000000E+00;  3.8803730E+04;  5.0525331E-01;  0.0000000E+00; -1.3250147E-01;  1.0687880E+04;
  1.7211142E+00;  9.9999998E-03;  4.0599864E-02;9350;  1.0128558E+00;  0.0000000E+00; -6.2214127E-03;  9.9210522E+02;  1.4635061E-01; -6.3713438E+03;3;  5.6727806E+01;  0.0000000E+00;  7.0724649E+00;0;  3.7275016E-01;  1.8917949E+04;  0.0000000E+00; -4.9495719E-02;  4.0000000E+04;  0.0000000E+00;  3.8803730E+04;  5.0525153E-01;  0.0000000E+00; -1.3250135E-01;  1.0687849E+04;
  1.7213192E+00;  9.9999998E-03; -3.0439604E-02;9343;  1.0117294E+00;  0.0000000E+00;  4.7265091E-03;  9.9224811E+02;  1.4632985E-01; -6.2555552E+03;3;  5.7262901E+01;  0.0000000E+00; -5.2375803E+00;0;  3.9442086E-01;  1.8929746E+04;  0.0000000E+00; -3.2161355E-02;  4.0000000E+04;  0.0000000E+00;  3.8798473E+04;  5.3231990E-01;  0.0000000E+00; -1.3789904E-01;  1.0244472E+04;
  1.7213192E+00;  9.9999998E-03;  3.0439910E-02;9349;  1.0117295E+00;  0.0000000E+00; -4.7256830E-03;  9.9224811E+02;  1.4632948E-01; -6.2555552E+03;3;  5.7263905E+01;  0.0000000E+00;  5.2375464E+00;0;  3.9441937E-01;  1.8929748E+04;  0.0000000E+00; -3.2157838E-02;  4.0000000E+04;  0.0000000E+00;  3.8798473E+04;  5.3231823E-01;  0.0000000E+00; -1.3789885E-01;  1.0244458E+04;
  1.7214726E+00;  9.9999998E-03; -2.0288790E-02;9344;  1.0109113E+00;  0.0000000E+00;  3.1776456E-03;  9.9236987E+02;  1.4631340E-01; -6.1569302E+03;3;  5.7424400E+01;  0.0000000E+00; -3.6002455E+00;0;  4.0986234E-01;  1.8938938E+04;  0.0000000E+00; -1.5718522E-02;  4.0000000E+04;  0.0000000E+00;  3.8794715E+04;  5.5152524E-01;  0.0000000E+00; -1.4166288E-01;  9.8924795E+03;
  1.7214726E+00;  9.9999998E-03;  2.0289095E-02;9348;  1.0109115E+00;  0.0000000E+00; -3.1768209E-03;  9.9236987E+02;  1.4631267E-01; -6.1569302E+03;3;  5.7425106E+01;  0.0000000E+00;  3.6002858E+00;0;  4.0986189E-01;  1.8938932E+04;  0.0000000E+00; -1.5715711E-02;  4.0000000E+04;  0.0000000E+00;  3.8794715E+04;  5.5152464E-01;  0.0000000E+00; -1.4166275E-01;  9.8924678E+03;
  1.7215648E+00;  9.9999998E-03; -1.0143578E-02;9345;  1.0104214E+00;  0.0000000E+00;  1.6023678E-03;  9.9243427E+02;  1.4630176E-01; -6.1047725E+03;3;  5.7574532E+01;  0.0000000E+00; -1.8028032E+00;0;  4.1904891E-01;  1.8944621E+04;  0.0000000E+00; -4.1471422E-03;  4.0000000E+04;  0.0000000E+00;  3.8792293E+04;  5.6291914E-01;  0.0000000E+00; -1.4387025E-01;  9.6668262E+03;
  1.7215648E+00;  9.9999998E-03;  1.0143883E-02;9347;  1.0104215E+00;  0.0000000E+00; -1.6015425E-03;  9.9243427E+02;  1.4630176E-01; -6.1047725E+03;3;  5.7574924E+01;  0.0000000E+00;  1.8028464E+00;0;  4.1904867E-01;  1.8944623E+04;  0.0000000E+00; -4.1455436E-03;  4.0000000E+04;  0.0000000E+00;  3.8792285E+04;  5.6291878E-01;  0.0000000E+00; -1.4387012E-01;  9.6668350E+03;
  1.7215945E+00;  9.9999998E-03;  1.5203992E-07;9346;  1.0102682E+00;  0.0000000E+00;  4.1331390E-07;  9.9246393E+02;  1.4629905E-01; -6.0807524E+03;3;  5.7886314E+01;  0.0000000E+00;  1.7453212E-05;0;  4.2207491E-01;  1.8946514E+04;  0.0000000E+00; -8.5035444E-11;  4.0000000E+04;  0.0000000E+00;  3.8791387E+04;  5.6666893E-01;  0.0000000E+00; -1.4459400E-01;  9.5892158E+03;
  1.7342415E+00;  9.9999998E-03; -8.1508301E-02;9393;  1.0184085E+00;  0.0000000E+00;  1.5068240E-02;  9.9187445E+02;  1.4233974E-01; -6.5220576E+03;3;  5.0522339E+01;  0.0000000E+00; -1.4655531E+01;0;  4.5182809E-01;  2.0029766E+04;  0.0000000E+00; -9.3908437E-02;  4.0000000E+04;  0.0000000E+00;  3.8737684E+04;  5.7130092E-01;  0.0000000E+00; -1.1947283E-01;  1.1045988E+04;
  1.7343071E+00;  9.9999998E-03; -7.1286358E-02;9394;  1.0161871E+00;  0.0000000E+00;  1.3441802E-02;  9.9172382E+02;  1.4234591E-01; -6.6427578E+03;3;  5.2270695E+01;  0.0000000E+00; -1.2937920E+01;0;  5.1117927E-01;  2.0023135E+04;  0.0000000E+00; -9.0016529E-02;  4.0000000E+04;  0.0000000E+00;  3.8737078E+04;  6.4532799E-01;  0.0000000E+00; -1.3414873E-01;  1.1028262E+04;
  1.7342494E+00;  9.9999998E-03; -9.1715798E-02;9392;  1.0208193E+00;  0.0000000E+00;  1.6600572E-02;  9.9220892E+02;  1.4232607E-01; -6.2535928E+03;3;  4.8528336E+01;  0.0000000E+00; -1.6366016E+01;0;  3.8694966E-01;  2.0046826E+04;  0.0000000E+00; -8.2968757E-02;  4.0000000E+04;  0.0000000E+00;  3.8734484E+04;  4.8974717E-01;  0.0000000E+00; -1.0279751E-01;  1.0700794E+04;
  1.7343040E+00;  9.9999998E-03; -1.0188499E-01;9391;  1.0233194E+00;  0.0000000E+00;  1.8080322E-02;  9.9272437E+02;  1.4230855E-01; -5.8397085E+03;3;  4.5826576E+01;  0.0000000E+00; -1.7432396E+01;0;  3.1767797E-01;  2.0073584E+04;  0.0000000E+00; -2.3329569E-02;  4.0000000E+04;  0.0000000E+00;  3.8726980E+04;  4.0176013E-01;  0.0000000E+00; -8.4082164E-02;  9.9271270E+03;
  1.7344429E+00;  9.9999998E-03; -6.1067652E-02;9395;  1.0142044E+00;  0.0000000E+00;  1.1729340E-02;  9.9171515E+02;  1.4234465E-01; -6.6493330E+03;3;  5.3632042E+01;  0.0000000E+00; -1.1328567E+01;0;  5.6413376E-01;  2.0024988E+04;  0.0000000E+00; -8.2667321E-02;  4.0000000E+04;  0.0000000E+00;  3.8733609E+04;  7.1097398E-01;  0.0000000E+00; -1.4684024E-01;  1.0740647E+04;
  1.7344429E+00;  9.9999998E-03;  6.1067954E-02;9407;  1.0142045E+00;  0.0000000E+00; -1.1728531E-02;  9.9171509E+02;  1.4234476E-01; -6.6493809E+03;3;  5.3631855E+01;  0.0000000E+00;  1.1328410E+01;0;  5.6413066E-01;  2.0024994E+04;  0.0000000E+00; -8.2664900E-02;  4.0000000E+04;  0.0000000E+00;  3.8733613E+04;  7.1097040E-01;  0.0000000E+00; -1.4683977E-01;  1.0740649E+04;
  1.7346258E+00;  9.9999998E-03; -5.0860081E-02;9396;  1.0125066E+00;  0.0000000E+00;  9.9333059E-03;  9.9181128E+02;  1.4233644E-01; -6.5716250E+03;3;  5.4606533E+01;  0.0000000E+00; -9.5695791E+00;0;  6.0995686E-01;  2.0033197E+04;  0.0000000E+00; -7.2031200E-02;  4.0000000E+04;  0.0000000E+00;  3.8728277E+04;  7.6748919E-01;  0.0000000E+00; -1.5753235E-01;  1.0280241E+04;
  1.7346258E+00;  9.9999998E-03;  5.0860386E-02;9406;  1.0125068E+00;  0.0000000E+00; -9.9325003E-03;  9.9181122E+02;  1.4233664E-01; -6.5716733E+03;3;  5.4607697E+01;  0.0000000E+00;  9.5695677E+00;0;  6.0995424E-01;  2.0033193E+04;  0.0000000E+00; -7.2025903E-02;  4.0000000E+04;  0.0000000E+00;  3.8728273E+04;  7.6748610E-01;  0.0000000E+00; -1.5753187E-01;  1.0280238E+04;
  1.7348205E+00;  9.9999998E-03; -4.0666290E-02;9397;  1.0111049E+00;  0.0000000E+00;  8.0665750E-03;  9.9196600E+02;  1.4232506E-01; -6.4468770E+03;3;  5.5203541E+01;  0.0000000E+00; -7.7826986E+00;0;  6.4795685E-01;  2.0044480E+04;  0.0000000E+00; -5.5604234E-02;  4.0000000E+04;  0.0000000E+00;  3.8721836E+04;  8.1415755E-01;  0.0000000E+00; -1.6620068E-01;  9.7418730E+03;
  1.7348205E+00;  9.9999998E-03;  4.0666591E-02;9405;  1.0111051E+00;  0.0000000E+00; -8.0657741E-03;  9.9196576E+02;  1.4232545E-01; -6.4470684E+03;3;  5.5202747E+01;  0.0000000E+00;  7.7824845E+00;0;  6.4795458E-01;  2.0044477E+04;  0.0000000E+00; -5.5601053E-02;  4.0000000E+04;  0.0000000E+00;  3.8721836E+04;  8.1415504E-01;  0.0000000E+00; -1.6620047E-01;  9.7418770E+03;
  1.7350036E+00;  9.9999998E-03; -3.0485822E-02;9398;  1.0100104E+00;  0.0000000E+00;  6.1213700E-03;  9.9213397E+02;  1.4231317E-01; -6.3115659E+03;3;  5.5732121E+01;  0.0000000E+00; -5.8729553E+00;0;  6.7782462E-01;  2.0056281E+04;  0.0000000E+00; -3.5806175E-02;  4.0000000E+04;  0.0000000E+00;  3.8716113E+04;  8.5068983E-01;  0.0000000E+00; -1.7286523E-01;  9.2137334E+03;
  1.7350036E+00;  9.9999998E-03;  3.0486127E-02;9404;  1.0100104E+00;  0.0000000E+00; -6.1205663E-03;  9.9213403E+02;  1.4231308E-01; -6.3115181E+03;3;  5.5731167E+01;  0.0000000E+00;  5.8728724E+00;0;  6.7782414E-01;  2.0056287E+04;  0.0000000E+00; -3.5803247E-02;  4.0000000E+04;  0.0000000E+00;  3.8716125E+04;  8.5068905E-01;  0.0000000E+00; -1.7286491E-01;  9.2137236E+03;
  1.7351488E+00;  9.9999998E-03; -2.0317124E-02;9399;  1.0092351E+00;  0.0000000E+00;  4.1216789E-03;  9.9227570E+02;  1.4230323E-01; -6.1974238E+03;3;  5.6071541E+01;  0.0000000E+00; -3.9569285E+00;0;  6.9924200E-01;  2.0066219E+04;  0.0000000E+00; -1.7385932E-02;  4.0000000E+04;  0.0000000E+00;  3.8711102E+04;  8.7680221E-01;  0.0000000E+00; -1.7756018E-01;  8.7730801E+03;
  1.7351488E+00;  9.9999998E-03;  2.0317428E-02;9403;  1.0092351E+00;  0.0000000E+00; -4.1208761E-03;  9.9227563E+02;  1.4230326E-01; -6.1974717E+03;3;  5.6070335E+01;  0.0000000E+00;  3.9570253E+00;0;  6.9924188E-01;  2.0066225E+04;  0.0000000E+00; -1.7384682E-02;  4.0000000E+04;  0.0000000E+00;  3.8711102E+04;  8.7680197E-01;  0.0000000E+00; -1.7756008E-01;  8.7730605E+03;
  1.7352382E+00;  9.9999998E-03; -1.0156876E-02;9400;  1.0087595E+00;  0.0000000E+00;  2.0681282E-03;  9.9237915E+02;  1.4229885E-01; -6.1142021E+03;3;  5.6073185E+01;  0.0000000E+00; -1.9802687E+00;0;  7.1203327E-01;  2.0072738E+04;  0.0000000E+00; -4.5656045E-03;  4.0000000E+04;  0.0000000E+00;  3.8707629E+04;  8.9236945E-01;  0.0000000E+00; -1.8033619E-01;  8.4815234E+03;
  1.7352382E+00;  9.9999998E-03;  1.0157180E-02;9402;  1.0087594E+00;  0.0000000E+00; -2.0673296E-03;  9.9237921E+02;  1.4229931E-01; -6.1141543E+03;3;  5.6071819E+01;  0.0000000E+00;  1.9802727E+00;0;  7.1203190E-01;  2.0072738E+04;  0.0000000E+00; -4.5645814E-03;  4.0000000E+04;  0.0000000E+00;  3.8707625E+04;  8.9236802E-01;  0.0000000E+00; -1.8033613E-01;  8.4815283E+03;
  1.7352666E+00;  9.9999998E-03;  1.5169388E-07;9401;  1.0086005E+00;  0.0000000E+00;  3.9985167E-07;  9.9241064E+02;  1.4229678E-01; -6.0888252E+03;3;  5.6038231E+01;  0.0000000E+00;  1.2762654E-05;0;  7.1624327E-01;  2.0074818E+04;  0.0000000E+00; -4.0212358E-11;  4.0000000E+04;  0.0000000E+00;  3.8706754E+04;  8.9749300E-01;  0.0000000E+00; -1.8124974E-01;  8.3796904E+03;
  1.7481217E+00;  9.9999998E-03; -5.0930381E-02;9450;  1.0113111E+00;  0.0000000E+00;  1.2099707E-02;  9.9181964E+02;  1.3890874E-01; -6.5209136E+03;3;  5.0813908E+01;  0.0000000E+00; -1.0235085E+01;0;  9.0074033E-01;  2.1089500E+04;  0.0000000E+00; -4.5839757E-02;  4.0000000E+04;  0.0000000E+00;  3.8631535E+04;  1.0827329E+00;  0.0000000E+00; -1.8199259E-01;  9.1571396E+03;
  1.7481217E+00;  9.9999998E-03;  5.0930686E-02;9460;  1.0113112E+00;  0.0000000E+00; -1.2098913E-02;  9.9181964E+02;  1.3890874E-01; -6.5209136E+03;3;  5.0813293E+01;  0.0000000E+00;  1.0235227E+01;0;  9.0073884E-01;  2.1089500E+04;  0.0000000E+00; -4.5838822E-02;  4.0000000E+04;  0.0000000E+00;  3.8631535E+04;  1.0827310E+00;  0.0000000E+00; -1.8199217E-01;  9.1571699E+03;
  1.7480534E+00;  9.9999998E-03; -6.1148036E-02;9449;  1.0129484E+00;  0.0000000E+00;  1.4274499E-02;  9.9182214E+02;  1.3890095E-01; -6.5191606E+03;3;  5.0604118E+01;  0.0000000E+00; -1.2300381E+01;0;  8.4385455E-01;  2.1089637E+04;  0.0000000E+00; -7.5971447E-02;  4.0000000E+04;  0.0000000E+00;  3.8635016E+04;  1.0130764E+00;  0.0000000E+00; -1.6922186E-01;  9.4293057E+03;
  1.7480534E+00;  9.9999998E-03;  6.1148342E-02;9461;  1.0129484E+00;  0.0000000E+00; -1.4273704E-02;  9.9182214E+02;  1.3890091E-01; -6.5191606E+03;3;  5.0603672E+01;  0.0000000E+00;  1.2300288E+01;0;  8.4385264E-01;  2.1089643E+04;  0.0000000E+00; -7.5970344E-02;  4.0000000E+04;  0.0000000E+00;  3.8635016E+04;  1.0130744E+00;  0.0000000E+00; -1.6922174E-01;  9.4293301E+03;
  1.7482300E+00;  9.9999998E-03; -4.0722903E-02;9451;  1.0100094E+00;  0.0000000E+00;  9.8270411E-03;  9.9190637E+02;  1.3891107E-01; -6.4514014E+03;3;  5.0101177E+01;  0.0000000E+00; -7.9946718E+00;0;  9.4764334E-01;  2.1094623E+04;  0.0000000E+00; -2.5087221E-02;  4.0000000E+04;  0.0000000E+00;  3.8626871E+04;  1.1400452E+00;  0.0000000E+00; -1.9240181E-01;  8.7284912E+03;
  1.7482300E+00;  9.9999998E-03;  4.0723208E-02;9459;  1.0100093E+00;  0.0000000E+00; -9.8262606E-03;  9.9190637E+02;  1.3891119E-01; -6.4514014E+03;3;  5.0100491E+01;  0.0000000E+00;  7.9945893E+00;0;  9.4764036E-01;  2.1094621E+04;  0.0000000E+00; -2.5085997E-02;  4.0000000E+04;  0.0000000E+00;  3.8626871E+04;  1.1400419E+00;  0.0000000E+00; -1.9240160E-01;  8.7284795E+03;
  1.7480519E+00;  9.9999998E-03; -7.1367465E-02;9448;  1.0148987E+00;  0.0000000E+00;  1.6344687E-02;  9.9194940E+02;  1.3888776E-01; -6.4177217E+03;3;  4.9631397E+01;  0.0000000E+00; -1.4246187E+01;0;  7.7740878E-01;  2.1098072E+04;  0.0000000E+00; -1.1239369E-01;  4.0000000E+04;  0.0000000E+00;  3.8635441E+04;  9.3158931E-01;  0.0000000E+00; -1.5418051E-01;  9.4400703E+03;
  1.7481216E+00;  9.9999998E-03; -8.1572451E-02;9447;  1.0171318E+00;  0.0000000E+00;  1.8297561E-02;  9.9222852E+02;  1.3886647E-01; -6.1949736E+03;3;  4.8040203E+01;  0.0000000E+00; -1.5634776E+01;0;  7.0182329E-01;  2.1116309E+04;  0.0000000E+00; -1.4024037E-01;  4.0000000E+04;  0.0000000E+00;  3.8631781E+04;  8.3886427E-01;  0.0000000E+00; -1.3704097E-01;  9.0946709E+03;
  1.7483470E+00;  9.9999998E-03; -3.0527607E-02;9452;  1.0090508E+00;  0.0000000E+00;  7.4639884E-03;  9.9202576E+02;  1.3891105E-01; -6.3558315E+03;3;  4.9030109E+01;  0.0000000E+00; -6.1296277E+00;0;  9.8423553E-01;  2.1102299E+04;  0.0000000E+00; -1.1644325E-02;  4.0000000E+04;  0.0000000E+00;  3.8621203E+04;  1.1846641E+00;  0.0000000E+00; -2.0042858E-01;  8.2509609E+03;
  1.7483470E+00;  9.9999998E-03;  3.0527912E-02;9458;  1.0090507E+00;  0.0000000E+00; -7.4632112E-03;  9.9202606E+02;  1.3891152E-01; -6.3555469E+03;3;  4.9030712E+01;  0.0000000E+00;  6.1296511E+00;0;  9.8423332E-01;  2.1102301E+04;  0.0000000E+00; -1.1646153E-02;  4.0000000E+04;  0.0000000E+00;  3.8621203E+04;  1.1846616E+00;  0.0000000E+00; -2.0042832E-01;  8.2509688E+03;
  1.7484436E+00;  9.9999998E-03; -2.0343849E-02;9453;  1.0084068E+00;  0.0000000E+00;  5.0219218E-03;  9.9214868E+02;  1.3891149E-01; -6.2574941E+03;3;  4.7497986E+01;  0.0000000E+00; -4.0907154E+00;0;  1.0102696E+00;  2.1109588E+04;  0.0000000E+00; -4.1448176E-03;  4.0000000E+04;  0.0000000E+00;  3.8616480E+04;  1.2163650E+00;  0.0000000E+00; -2.0609540E-01;  7.8245786E+03;
  1.7484436E+00;  9.9999998E-03;  2.0344155E-02;9457;  1.0084070E+00;  0.0000000E+00; -5.0211498E-03;  9.9214886E+02;  1.3891137E-01; -6.2573516E+03;3;  4.7498455E+01;  0.0000000E+00;  4.0907369E+00;0;  1.0102687E+00;  2.1109590E+04;  0.0000000E+00; -4.1462355E-03;  4.0000000E+04;  0.0000000E+00;  3.8616480E+04;  1.2163639E+00;  0.0000000E+00; -2.0609526E-01;  7.8245674E+03;
  1.7485193E+00;  9.9999998E-03;  1.5164652E-07;9455;  1.0079300E+00;  0.0000000E+00;  3.8541467E-07;  9.9226385E+02;  1.3891278E-01; -6.1654590E+03;3;  4.5802177E+01;  0.0000000E+00; -2.9884686E-06;0;  1.0307847E+00;  2.1116105E+04;  0.0000000E+00;  4.8001984E-12;  4.0000000E+04;  0.0000000E+00;  3.8611910E+04;  1.2413473E+00;  0.0000000E+00; -2.1056263E-01;  7.4278340E+03;
  1.7485025E+00;  9.9999998E-03; -1.0169345E-02;9454;  1.0080445E+00;  0.0000000E+00;  2.5257566E-03;  9.9223383E+02;  1.3891231E-01; -6.1894570E+03;3;  4.6298813E+01;  0.0000000E+00; -2.1426101E+00;0;  1.0257295E+00;  2.1114361E+04;  0.0000000E+00; -8.5228530E-04;  4.0000000E+04;  0.0000000E+00;  3.8612977E+04;  1.2351851E+00;  0.0000000E+00; -2.0945565E-01;  7.5318599E+03;
  1.7485025E+00;  9.9999998E-03;  1.0169648E-02;9456;  1.0080445E+00;  0.0000000E+00; -2.5249894E-03;  9.9223383E+02;  1.3891278E-01; -6.1894570E+03;3;  4.6299057E+01;  0.0000000E+00;  2.1425967E+00;0;  1.0257288E+00;  2.1114361E+04;  0.0000000E+00; -8.5339509E-04;  4.0000000E+04;  0.0000000E+00;  3.8612977E+04;  1.2351846E+00;  0.0000000E+00; -2.0945568E-01;  7.5318550E+03;
  1.7482331E+00;  9.9999998E-03; -9.1742091E-02;9446;  1.0195796E+00;  0.0000000E+00;  2.0107325E-02;  9.9267194E+02;  1.3884556E-01; -5.8411670E+03;3;  4.6697227E+01;  0.0000000E+00; -1.7567793E+01;0;  6.1766779E-01;  2.1143797E+04;  0.0000000E+00; -1.2090096E-01;  4.0000000E+04;  0.0000000E+00;  3.8623438E+04;  7.3574436E-01;  0.0000000E+00; -1.1807657E-01;  8.3257783E+03;
  1.7483299E+00;  9.9999998E-03; -1.0185523E-01;9445;  1.0220910E+00;  0.0000000E+00;  2.1818768E-02;  9.9325769E+02;  1.3882875E-01; -5.3739502E+03;3;  4.4442589E+01;  0.0000000E+00; -1.8492054E+01;0;  5.2611744E-01;  2.1177785E+04;  0.0000000E+00;  2.3947932E-02;  4.0000000E+04;  0.0000000E+00;  3.8610574E+04;  6.2375534E-01;  0.0000000E+00; -9.7637899E-02;  7.1364028E+03;
  1.7615259E+00;  9.9999998E-03;  1.5183201E-07;9508;  1.0235512E+00;  0.0000000E+00;  3.7106679E-07;  9.9215424E+02;  1.3604429E-01; -6.2044385E+03;3; -6.7739166E+01;  0.0000000E+00;  8.8036759E-06;0;  1.3400198E+00;  2.2078148E+04;  0.0000000E+00;  2.6748839E-11;  4.0000000E+04;  0.0000000E+00;  3.8502730E+04;  1.5707333E+00;  0.0000000E+00; -2.3071353E-01;  6.4651572E+03;
  1.7615230E+00;  9.9999998E-03; -1.0185580E-02;9507;  1.0232215E+00;  0.0000000E+00;  3.0600261E-03;  9.9213928E+02;  1.3604048E-01; -6.2162812E+03;3; -6.6965309E+01;  0.0000000E+00; -2.8673813E+00;0;  1.3342688E+00;  2.2077646E+04;  0.0000000E+00;  3.6757810E-03;  4.0000000E+04;  0.0000000E+00;  3.8503660E+04;  1.5636656E+00;  0.0000000E+00; -2.2939686E-01;  6.5521787E+03;
  1.7615230E+00;  9.9999998E-03;  1.0185883E-02;9509;  1.0232214E+00;  0.0000000E+00; -3.0592780E-03;  9.9213928E+02;  1.3604048E-01; -6.2162812E+03;3; -6.6965065E+01;  0.0000000E+00;  2.8674259E+00;0;  1.3342667E+00;  2.2077643E+04;  0.0000000E+00;  3.6730580E-03;  4.0000000E+04;  0.0000000E+00;  3.8503656E+04;  1.5636635E+00;  0.0000000E+00; -2.2939679E-01;  6.5521670E+03;
  1.7615051E+00;  9.9999998E-03; -2.0372611E-02;9506;  1.0223047E+00;  0.0000000E+00;  6.0471916E-03;  9.9209174E+02;  1.3603477E-01; -6.2539678E+03;3; -6.4606041E+01;  0.0000000E+00; -5.7983170E+00;0;  1.3166764E+00;  2.2076055E+04;  0.0000000E+00;  1.0968641E-02;  4.0000000E+04;  0.0000000E+00;  3.8506668E+04;  1.5420936E+00;  0.0000000E+00; -2.2541730E-01;  6.7899336E+03;
  1.7615051E+00;  9.9999998E-03;  2.0372916E-02;9510;  1.0223043E+00;  0.0000000E+00; -6.0464307E-03;  9.9209155E+02;  1.3603458E-01; -6.2541094E+03;3; -6.4605293E+01;  0.0000000E+00;  5.7984385E+00;0;  1.3166740E+00;  2.2076053E+04;  0.0000000E+00;  1.0963889E-02;  4.0000000E+04;  0.0000000E+00;  3.8506664E+04;  1.5420911E+00;  0.0000000E+00; -2.2541714E-01;  6.7899126E+03;
  1.7614745E+00;  9.9999998E-03; -3.0565277E-02;9505;  1.0209680E+00;  0.0000000E+00;  8.9215590E-03;  9.9204077E+02;  1.3602765E-01; -6.2943940E+03;3; -5.9631195E+01;  0.0000000E+00; -8.7413921E+00;0;  1.2869351E+00;  2.2073688E+04;  0.0000000E+00;  1.2383163E-02;  4.0000000E+04;  0.0000000E+00;  3.8510156E+04;  1.5056587E+00;  0.0000000E+00; -2.1872368E-01;  7.1126807E+03;
  1.7614745E+00;  9.9999998E-03;  3.0565582E-02;9511;  1.0209678E+00;  0.0000000E+00; -8.9207962E-03;  9.9204077E+02;  1.3602689E-01; -6.2943945E+03;3; -5.9630890E+01;  0.0000000E+00;  8.7414494E+00;0;  1.2869328E+00;  2.2073691E+04;  0.0000000E+00;  1.2379108E-02;  4.0000000E+04;  0.0000000E+00;  3.8510160E+04;  1.5056562E+00;  0.0000000E+00; -2.1872346E-01;  7.1126475E+03;
  1.7614553E+00;  9.9999998E-03; -4.0768031E-02;9504;  1.0196707E+00;  0.0000000E+00;  1.1716760E-02;  9.9200507E+02;  1.3601613E-01; -6.3227080E+03;3; -5.2200108E+01;  0.0000000E+00; -1.1143353E+01;0;  1.2450857E+00;  2.2073357E+04;  0.0000000E+00; -3.6764937E-03;  4.0000000E+04;  0.0000000E+00;  3.8514008E+04;  1.4543519E+00;  0.0000000E+00; -2.0926622E-01;  7.4248550E+03;
  1.7614553E+00;  9.9999998E-03;  4.0768337E-02;9512;  1.0196705E+00;  0.0000000E+00; -1.1715990E-02;  9.9200500E+02;  1.3601591E-01; -6.3227554E+03;3; -5.2198917E+01;  0.0000000E+00;  1.1143374E+01;0;  1.2450823E+00;  2.2073355E+04;  0.0000000E+00; -3.6768534E-03;  4.0000000E+04;  0.0000000E+00;  3.8514012E+04;  1.4543482E+00;  0.0000000E+00; -2.0926595E-01;  7.4248516E+03;
  1.7614754E+00;  9.9999998E-03; -5.0979547E-02;9503;  1.0190756E+00;  0.0000000E+00;  1.4378906E-02;  9.9203668E+02;  1.3600148E-01; -6.2975952E+03;3; -4.3261349E+01;  0.0000000E+00; -1.3406965E+01;0;  1.1911945E+00;  2.2077771E+04;  0.0000000E+00; -4.7024190E-02;  4.0000000E+04;  0.0000000E+00;  3.8516086E+04;  1.3882120E+00;  0.0000000E+00; -1.9701745E-01;  7.6164546E+03;
  1.7614754E+00;  9.9999998E-03;  5.0979853E-02;9513;  1.0190754E+00;  0.0000000E+00; -1.4378122E-02;  9.9203705E+02;  1.3600111E-01; -6.2973125E+03;3; -4.3259899E+01;  0.0000000E+00;  1.3407079E+01;0;  1.1911926E+00;  2.2077773E+04;  0.0000000E+00; -4.7021676E-02;  4.0000000E+04;  0.0000000E+00;  3.8516078E+04;  1.3882098E+00;  0.0000000E+00; -1.9701713E-01;  7.6164478E+03;
  1.7615538E+00;  9.9999998E-03; -6.1192952E-02;9502;  1.0194105E+00;  0.0000000E+00;  1.6944200E-02;  9.9215814E+02;  1.3597952E-01; -6.2012632E+03;3; -3.5873196E+01;  0.0000000E+00; -1.5911598E+01;0;  1.1251301E+00;  2.2088922E+04;  0.0000000E+00; -1.1975382E-01;  4.0000000E+04;  0.0000000E+00;  3.8515469E+04;  1.3071592E+00;  0.0000000E+00; -1.8202911E-01;  7.5818018E+03;
  1.7615538E+00;  9.9999998E-03;  6.1193258E-02;9514;  1.0194104E+00;  0.0000000E+00; -1.6943408E-02;  9.9215820E+02;  1.3597989E-01; -6.2012163E+03;3; -3.5872166E+01;  0.0000000E+00;  1.5911612E+01;0;  1.1251262E+00;  2.2088914E+04;  0.0000000E+00; -1.1975159E-01;  4.0000000E+04;  0.0000000E+00;  3.8515465E+04;  1.3071549E+00;  0.0000000E+00; -1.8202864E-01;  7.5817983E+03;
  1.7616975E+00;  9.9999998E-03; -7.1393684E-02;9501;  1.0206293E+00;  0.0000000E+00;  1.9359747E-02;  9.9241254E+02;  1.3595521E-01; -5.9995317E+03;3; -3.0480928E+01;  0.0000000E+00; -1.8616562E+01;0;  1.0468380E+00;  2.2108670E+04;  0.0000000E+00; -2.0690562E-01;  4.0000000E+04;  0.0000000E+00;  3.8511234E+04;  1.2113860E+00;  0.0000000E+00; -1.6454789E-01;  7.2309604E+03;
  1.7618760E+00;  9.9999998E-03; -8.1563041E-02;9500;  1.0221484E+00;  0.0000000E+00;  2.1652320E-02;  9.9279761E+02;  1.3593264E-01; -5.6943613E+03;3; -2.5639002E+01;  0.0000000E+00; -2.1335842E+01;0;  9.5620739E-01;  2.2136498E+04;  0.0000000E+00; -2.5992253E-01;  4.0000000E+04;  0.0000000E+00;  3.8502660E+04;  1.1012576E+00;  0.0000000E+00; -1.4505018E-01;  6.4996533E+03;
  1.7620919E+00;  9.9999998E-03; -1.0173446E-01;9498;  1.0241899E+00;  0.0000000E+00;  2.5394725E-02;  9.9380072E+02;  1.3590369E-01; -4.9006089E+03;3; -1.0902418E+00;  0.0000000E+00; -2.4119539E+01;0;  7.4074233E-01;  2.2203127E+04;  0.0000000E+00;  2.2059095E-01;  4.0000000E+04;  0.0000000E+00;  3.8473223E+04;  8.4364808E-01;  0.0000000E+00; -1.0290575E-01;  4.1474482E+03;
  1.7620226E+00;  9.9999998E-03; -9.1682054E-02;9499;  1.0233344E+00;  0.0000000E+00;  2.3680899E-02;  9.9327490E+02;  1.3591276E-01; -5.3164780E+03;3; -1.6639931E+01;  0.0000000E+00; -2.3665646E+01;0;  8.5355937E-01;  2.2169389E+04;  0.0000000E+00; -1.7635646E-01;  4.0000000E+04;  0.0000000E+00;  3.8489320E+04;  9.7779435E-01;  0.0000000E+00; -1.2423494E-01;  5.3893662E+03;
  1.7743913E+00;  9.9999998E-03;  1.5184011E-07;9560;  1.0668483E+00;  0.0000000E+00;  3.6251359E-07;  9.9216058E+02;  1.3360983E-01; -6.1434287E+03;3; -8.0638191E+01;  0.0000000E+00;  4.7070433E-05;0;  1.6119652E+00;  2.2969744E+04;  0.0000000E+00;  3.9334206E-11;  4.0000000E+04;  0.0000000E+00;  3.8374414E+04;  1.8513982E+00;  0.0000000E+00; -2.3943299E-01;  5.2279399E+03;
  1.7744091E+00;  9.9999998E-03; -1.0207431E-02;9559;  1.0665691E+00;  0.0000000E+00;  3.6847396E-03;  9.9216357E+02;  1.3360506E-01; -6.1409629E+03;3; -8.0475838E+01;  0.0000000E+00; -1.1574467E+00;0;  1.6058168E+00;  2.2970834E+04;  0.0000000E+00;  2.3070478E-03;  4.0000000E+04;  0.0000000E+00;  3.8375012E+04;  1.8437134E+00;  0.0000000E+00; -2.3789652E-01;  5.2854438E+03;
  1.7744091E+00;  9.9999998E-03;  1.0207735E-02;9561;  1.0665689E+00;  0.0000000E+00; -3.6840080E-03;  9.9216351E+02;  1.3360448E-01; -6.1410093E+03;3; -8.0475777E+01;  0.0000000E+00;  1.1575021E+00;0;  1.6058156E+00;  2.2970830E+04;  0.0000000E+00;  2.3037088E-03;  4.0000000E+04;  0.0000000E+00;  3.8375016E+04;  1.8437119E+00;  0.0000000E+00; -2.3789623E-01;  5.2854419E+03;
  1.7744542E+00;  9.9999998E-03; -2.0409858E-02;9558;  1.0659072E+00;  0.0000000E+00;  7.3162331E-03;  9.9217688E+02;  1.3359410E-01; -6.1303350E+03;3; -8.0093201E+01;  0.0000000E+00; -2.3065741E+00;0;  1.5870780E+00;  2.2973672E+04;  0.0000000E+00;  2.3204475E-03;  4.0000000E+04;  0.0000000E+00;  3.8376637E+04;  1.8203523E+00;  0.0000000E+00; -2.3327430E-01;  5.4320117E+03;
  1.7744542E+00;  9.9999998E-03;  2.0410161E-02;9562;  1.0659071E+00;  0.0000000E+00; -7.3154946E-03;  9.9217700E+02;  1.3359416E-01; -6.1302417E+03;3; -8.0093163E+01;  0.0000000E+00;  2.3066394E+00;0;  1.5870775E+00;  2.2973672E+04;  0.0000000E+00;  2.3154037E-03;  4.0000000E+04;  0.0000000E+00;  3.8376637E+04;  1.8203512E+00;  0.0000000E+00; -2.3327379E-01;  5.4320039E+03;
  1.7745253E+00;  9.9999998E-03; -3.0611349E-02;9557;  1.0651752E+00;  0.0000000E+00;  1.0879935E-02;  9.9222614E+02;  1.3358079E-01; -6.0914238E+03;3; -7.9393700E+01;  0.0000000E+00; -3.4401178E+00;0;  1.5552589E+00;  2.2978883E+04;  0.0000000E+00; -1.7724367E-02;  4.0000000E+04;  0.0000000E+00;  3.8378484E+04;  1.7807864E+00;  0.0000000E+00; -2.2552757E-01;  5.5970454E+03;
  1.7745253E+00;  9.9999998E-03;  3.0611655E-02;9563;  1.0651748E+00;  0.0000000E+00; -1.0879185E-02;  9.9222607E+02;  1.3358048E-01; -6.0914707E+03;3; -7.9393623E+01;  0.0000000E+00;  3.4401834E+00;0;  1.5552568E+00;  2.2978879E+04;  0.0000000E+00; -1.7730555E-02;  4.0000000E+04;  0.0000000E+00;  3.8378488E+04;  1.7807841E+00;  0.0000000E+00; -2.2552733E-01;  5.5970405E+03;
  1.7746404E+00;  9.9999998E-03; -4.0815350E-02;9556;  1.0648233E+00;  0.0000000E+00;  1.4363262E-02;  9.9232043E+02;  1.3356115E-01; -6.0170059E+03;3; -7.8386253E+01;  0.0000000E+00; -4.5435429E+00;0;  1.5099983E+00;  2.2988156E+04;  0.0000000E+00; -7.7689879E-02;  4.0000000E+04;  0.0000000E+00;  3.8379336E+04;  1.7246083E+00;  0.0000000E+00; -2.1460992E-01;  5.6826650E+03;
  1.7746404E+00;  9.9999998E-03;  4.0815655E-02;9564;  1.0648229E+00;  0.0000000E+00; -1.4362508E-02;  9.9232056E+02;  1.3356109E-01; -6.0169126E+03;3; -7.8385979E+01;  0.0000000E+00;  4.5437379E+00;0;  1.5099972E+00;  2.2988158E+04;  0.0000000E+00; -7.7695973E-02;  4.0000000E+04;  0.0000000E+00;  3.8379340E+04;  1.7246066E+00;  0.0000000E+00; -2.1460938E-01;  5.6826592E+03;
  1.7748135E+00;  9.9999998E-03; -5.1019557E-02;9555;  1.0651257E+00;  0.0000000E+00;  1.7866516E-02;  9.9247839E+02;  1.3353667E-01; -5.8924658E+03;3; -7.7417740E+01;  0.0000000E+00; -5.7548928E+00;0;  1.4508187E+00;  2.3003768E+04;  0.0000000E+00; -1.9028158E-01;  4.0000000E+04;  0.0000000E+00;  3.8377781E+04;  1.6513464E+00;  0.0000000E+00; -2.0052777E-01;  5.5886763E+03;
  1.7748135E+00;  9.9999998E-03;  5.1019862E-02;9565;  1.0651252E+00;  0.0000000E+00; -1.7865755E-02;  9.9247839E+02;  1.3353567E-01; -5.8924658E+03;3; -7.7417542E+01;  0.0000000E+00;  5.7551184E+00;0;  1.4508169E+00;  2.3003768E+04;  0.0000000E+00; -1.9028577E-01;  4.0000000E+04;  0.0000000E+00;  3.8377785E+04;  1.6513442E+00;  0.0000000E+00; -2.0052730E-01;  5.5886582E+03;
  1.7750452E+00;  9.9999998E-03; -6.1213087E-02;9554;  1.0660545E+00;  0.0000000E+00;  2.1340497E-02;  9.9272900E+02;  1.3350865E-01; -5.6951006E+03;3; -7.5990829E+01;  0.0000000E+00; -7.4699473E+00;0;  1.3772905E+00;  2.3026029E+04;  0.0000000E+00; -3.4629929E-01;  4.0000000E+04;  0.0000000E+00;  3.8372887E+04;  1.5607842E+00;  0.0000000E+00; -1.8349369E-01;  5.2337949E+03;
  1.7750452E+00;  9.9999998E-03;  6.1213396E-02;9566;  1.0660540E+00;  0.0000000E+00; -2.1339733E-02;  9.9272900E+02;  1.3350865E-01; -5.6951006E+03;3; -7.5990845E+01;  0.0000000E+00;  7.4700108E+00;0;  1.3772880E+00;  2.3026021E+04;  0.0000000E+00; -3.4630725E-01;  4.0000000E+04;  0.0000000E+00;  3.8372879E+04;  1.5607811E+00;  0.0000000E+00; -1.8349314E-01;  5.2338135E+03;
  1.7752935E+00;  9.9999998E-03; -7.1380198E-02;9553;  1.0665271E+00;  0.0000000E+00;  2.4853799E-02;  9.9307556E+02;  1.3348226E-01; -5.4226284E+03;3; -7.4872055E+01;  0.0000000E+00; -9.6160631E+00;0;  1.2889265E+00;  2.3054383E+04;  0.0000000E+00; -4.8867449E-01;  4.0000000E+04;  0.0000000E+00;  3.8363926E+04;  1.4529685E+00;  0.0000000E+00; -1.6404203E-01;  4.5638291E+03;
  1.7754996E+00;  9.9999998E-03; -8.1503168E-02;9552;  1.0654523E+00;  0.0000000E+00;  2.8207516E-02;  9.9347180E+02;  1.3346015E-01; -5.1115029E+03;3; -7.3874741E+01;  0.0000000E+00; -1.2150381E+01;0;  1.1859025E+00;  2.3085617E+04;  0.0000000E+00; -4.8681480E-01;  4.0000000E+04;  0.0000000E+00;  3.8351188E+04;  1.3289680E+00;  0.0000000E+00; -1.4306557E-01;  3.5805188E+03;
  1.7755919E+00;  9.9999998E-03; -1.0157007E-01;9550;  1.0548748E+00;  0.0000000E+00;  3.3374507E-02;  9.9420276E+02;  1.3344985E-01; -4.5388667E+03;3; -6.8938225E+01;  0.0000000E+00; -1.9297478E+01;0;  9.4073355E-01;  2.3139904E+04;  0.0000000E+00;  9.3436188E-01;  4.0000000E+04;  0.0000000E+00;  3.8321160E+04;  1.0419239E+00;  0.0000000E+00; -1.0119030E-01;  3.2098135E+03;
  1.7756202E+00;  9.9999998E-03; -9.1563299E-02;9551;  1.0621697E+00;  0.0000000E+00;  3.1040339E-02;  9.9386334E+02;  1.3344814E-01; -4.8044800E+03;3; -7.2426598E+01;  0.0000000E+00; -1.5140396E+01;0;  1.0694922E+00;  2.3115945E+04;  0.0000000E+00; -1.1892628E-01;  4.0000000E+04;  0.0000000E+00;  3.8336020E+04;  1.1912236E+00;  0.0000000E+00; -1.2173136E-01;  2.5878264E+03;
  1.7872143E+00;  9.9999998E-03;  1.5275458E-07;9610;  1.1115367E+00;  0.0000000E+00;  3.6410205E-07;  9.9235211E+02;  1.3155371E-01; -5.9299976E+03;3; -7.7812935E+01;  0.0000000E+00;  3.9061764E-05;0;  1.8169242E+00;  2.3798041E+04;  0.0000000E+00;  3.4857728E-11;  4.0000000E+04;  0.0000000E+00;  3.8223051E+04;  2.0514112E+00;  0.0000000E+00; -2.3448698E-01;  3.5959092E+03;
  1.7872603E+00;  9.9999998E-03; -1.0246618E-02;9609;  1.1116972E+00;  0.0000000E+00;  4.0119430E-03;  9.9237988E+02;  1.3154903E-01; -5.9082178E+03;3; -7.7679810E+01;  0.0000000E+00;  1.2478571E-01;0;  1.8104837E+00;  2.3800875E+04;  0.0000000E+00; -1.5363278E-02;  4.0000000E+04;  0.0000000E+00;  3.8223316E+04;  2.0432088E+00;  0.0000000E+00; -2.3272516E-01;  3.6205361E+03;
  1.7872603E+00;  9.9999998E-03;  1.0246923E-02;9611;  1.1116972E+00;  0.0000000E+00; -4.0112175E-03;  9.9237976E+02;  1.3154912E-01; -5.9083101E+03;3; -7.7679817E+01;  0.0000000E+00; -1.2481745E-01;0;  1.8104832E+00;  2.3800881E+04;  0.0000000E+00; -1.5367352E-02;  4.0000000E+04;  0.0000000E+00;  3.8223309E+04;  2.0432081E+00;  0.0000000E+00; -2.3272495E-01;  3.6205215E+03;
  1.7873833E+00;  9.9999998E-03; -2.0473706E-02;9608;  1.1120929E+00;  0.0000000E+00;  7.9416363E-03;  9.9245874E+02;  1.3153403E-01; -5.8464321E+03;3; -7.7559738E+01;  0.0000000E+00;  2.5567132E-01;0;  1.7908175E+00;  2.3809053E+04;  0.0000000E+00; -6.9421664E-02;  4.0000000E+04;  0.0000000E+00;  3.8223523E+04;  2.0182829E+00;  0.0000000E+00; -2.2746533E-01;  3.6673984E+03;
  1.7873833E+00;  9.9999998E-03;  2.0474011E-02;9612;  1.1120926E+00;  0.0000000E+00; -7.9409070E-03;  9.9245880E+02;  1.3153401E-01; -5.8463857E+03;3; -7.7559746E+01;  0.0000000E+00; -2.5564769E-01;0;  1.7908170E+00;  2.3809055E+04;  0.0000000E+00; -6.9428839E-02;  4.0000000E+04;  0.0000000E+00;  3.8223527E+04;  2.0182819E+00;  0.0000000E+00; -2.2746493E-01;  3.6673765E+03;
  1.7875726E+00;  9.9999998E-03; -3.0683422E-02;9607;  1.1128026E+00;  0.0000000E+00;  1.1790398E-02;  9.9259985E+02;  1.3151324E-01; -5.7360806E+03;3; -7.7332825E+01;  0.0000000E+00;  6.3558318E-02;0;  1.7573521E+00;  2.3822369E+04;  0.0000000E+00; -1.7990813E-01;  4.0000000E+04;  0.0000000E+00;  3.8223266E+04;  1.9760847E+00;  0.0000000E+00; -2.1873261E-01;  3.6681677E+03;
  1.7875726E+00;  9.9999998E-03;  3.0683730E-02;9613;  1.1128025E+00;  0.0000000E+00; -1.1789666E-02;  9.9260010E+02;  1.3151357E-01; -5.7358960E+03;3; -7.7332855E+01;  0.0000000E+00; -6.3495390E-02;0;  1.7573496E+00;  2.3822369E+04;  0.0000000E+00; -1.7991865E-01;  4.0000000E+04;  0.0000000E+00;  3.8223262E+04;  1.9760818E+00;  0.0000000E+00; -2.1873228E-01;  3.6681711E+03;
  1.7878349E+00;  9.9999998E-03; -4.0883251E-02;9606;  1.1140569E+00;  0.0000000E+00;  1.5618198E-02;  9.9281586E+02;  1.3148738E-01; -5.5673325E+03;3; -7.7549026E+01;  0.0000000E+00;  2.6678818E-01;0;  1.7095711E+00;  2.3841730E+04;  0.0000000E+00; -3.6115763E-01;  4.0000000E+04;  0.0000000E+00;  3.8220836E+04;  1.9161326E+00;  0.0000000E+00; -2.0656143E-01;  3.5389602E+03;
  1.7878349E+00;  9.9999998E-03;  4.0883556E-02;9614;  1.1140566E+00;  0.0000000E+00; -1.5617454E-02;  9.9281573E+02;  1.3148746E-01; -5.5674248E+03;3; -7.7549164E+01;  0.0000000E+00; -2.6669565E-01;0;  1.7095716E+00;  2.3841732E+04;  0.0000000E+00; -3.6116889E-01;  4.0000000E+04;  0.0000000E+00;  3.8220836E+04;  1.9161329E+00;  0.0000000E+00; -2.0656134E-01;  3.5389460E+03;
  1.7881606E+00;  9.9999998E-03; -5.1069241E-02;9605;  1.1156526E+00;  0.0000000E+00;  1.9378034E-02;  9.9307751E+02;  1.3145718E-01; -5.3629795E+03;3; -7.8080933E+01;  0.0000000E+00;  3.2098135E-01;0;  1.6469502E+00;  2.3867076E+04;  0.0000000E+00; -6.0308558E-01;  4.0000000E+04;  0.0000000E+00;  3.8215562E+04;  1.8381014E+00;  0.0000000E+00; -1.9115111E-01;  3.2100488E+03;
  1.7881606E+00;  9.9999998E-03;  5.1069546E-02;9615;  1.1156520E+00;  0.0000000E+00; -1.9377276E-02;  9.9307751E+02;  1.3145743E-01; -5.3629795E+03;3; -7.8080841E+01;  0.0000000E+00; -3.2086140E-01;0;  1.6469488E+00;  2.3867066E+04;  0.0000000E+00; -6.0309863E-01;  4.0000000E+04;  0.0000000E+00;  3.8215566E+04;  1.8380996E+00;  0.0000000E+00; -1.9115074E-01;  3.2100439E+03;
  1.7887075E+00;  9.9999998E-03; -1.0146330E-01;9600;  1.0884851E+00;  0.0000000E+00;  3.7565500E-02;  9.9429633E+02;  1.3140641E-01; -4.4165620E+03;3; -8.2487152E+01;  0.0000000E+00; -7.2728677E+00;0;  1.1085068E+00;  2.3972719E+04;  0.0000000E+00;  2.9876473E+00;  4.0000000E+04;  0.0000000E+00;  3.8163809E+04;  1.2039307E+00;  0.0000000E+00; -9.5423907E-02;  6.2650923E+03;
  1.7885000E+00;  9.9999998E-03; -6.1232343E-02;9604;  1.1163595E+00;  0.0000000E+00;  2.3518136E-02;  9.9339801E+02;  1.3142748E-01; -5.1131138E+03;3; -7.8667007E+01;  0.0000000E+00;  9.0985835E-01;0;  1.5690498E+00;  2.3896752E+04;  0.0000000E+00; -8.4027582E-01;  4.0000000E+04;  0.0000000E+00;  3.8206949E+04;  1.7420521E+00;  0.0000000E+00; -1.7300227E-01;  2.6359319E+03;
  1.7885000E+00;  9.9999998E-03;  6.1232649E-02;9616;  1.1163590E+00;  0.0000000E+00; -2.3517372E-02;  9.9339795E+02;  1.3142756E-01; -5.1131597E+03;3; -7.8666939E+01;  0.0000000E+00; -9.0973401E-01;0;  1.5690477E+00;  2.3896756E+04;  0.0000000E+00; -8.4029031E-01;  4.0000000E+04;  0.0000000E+00;  3.8206949E+04;  1.7420496E+00;  0.0000000E+00; -1.7300190E-01;  2.6359421E+03;
  1.7887784E+00;  9.9999998E-03; -7.1357898E-02;9603;  1.1149552E+00;  0.0000000E+00;  2.7650721E-02;  9.9372919E+02;  1.3140348E-01; -4.8554038E+03;3; -8.0388550E+01;  0.0000000E+00;  8.2799636E-02;0;  1.4758184E+00;  2.3926684E+04;  0.0000000E+00; -9.1765797E-01;  4.0000000E+04;  0.0000000E+00;  3.8195500E+04;  1.6288629E+00;  0.0000000E+00; -1.5304443E-01;  1.8121206E+03;
  1.7889525E+00;  9.9999998E-03; -9.1451705E-02;9601;  1.1019011E+00;  0.0000000E+00;  3.5078939E-02;  9.9420935E+02;  1.3139135E-01; -4.4828999E+03;3; -8.4440956E+01;  0.0000000E+00; -3.7851818E+00;0;  1.2458475E+00;  2.3969139E+04;  0.0000000E+00;  5.7521653E-01;  4.0000000E+04;  0.0000000E+00;  3.8170434E+04;  1.3587255E+00;  0.0000000E+00; -1.1287808E-01;  2.7725747E+03;
  1.7889525E+00;  9.9999998E-03; -8.1427224E-02;9602;  1.1108528E+00;  0.0000000E+00;  3.1539634E-02;  9.9401727E+02;  1.3139267E-01; -4.6316206E+03;3; -8.2694313E+01;  0.0000000E+00; -1.0778370E+00;0;  1.3680743E+00;  2.3952439E+04;  0.0000000E+00; -5.7047927E-01;  4.0000000E+04;  0.0000000E+00;  3.8182000E+04;  1.5006008E+00;  0.0000000E+00; -1.3252647E-01;  1.2161715E+03;
  1.8000559E+00;  9.9999998E-03;  1.5382133E-07;9658;  1.1550672E+00;  0.0000000E+00;  3.7377723E-07;  9.9271448E+02;  1.2982199E-01; -5.5794048E+03;3; -7.1096275E+01;  0.0000000E+00;  1.6408041E-05;0;  1.9451708E+00;  2.4569064E+04;  0.0000000E+00;  2.9304822E-11;  4.0000000E+04;  0.0000000E+00;  3.8048047E+04;  2.1595926E+00;  0.0000000E+00; -2.1442182E-01;  1.6524410E+03;
  1.8001301E+00;  9.9999998E-03; -1.0302575E-02;9657;  1.1556537E+00;  0.0000000E+00;  3.9024020E-03;  9.9277167E+02;  1.2981720E-01; -5.5351567E+03;3; -7.1237503E+01;  0.0000000E+00;  9.6156579E-01;0;  1.9384432E+00;  2.4573555E+04;  0.0000000E+00; -5.6005217E-02;  4.0000000E+04;  0.0000000E+00;  3.8047938E+04;  2.1509292E+00;  0.0000000E+00; -2.1248607E-01;  1.6474467E+03;
  1.8001301E+00;  9.9999998E-03;  1.0302883E-02;9659;  1.1556536E+00;  0.0000000E+00; -3.9016560E-03;  9.9277173E+02;  1.2981750E-01; -5.5351108E+03;3; -7.1237587E+01;  0.0000000E+00; -9.6155369E-01;0;  1.9384429E+00;  2.4573555E+04;  0.0000000E+00; -5.6010000E-02;  4.0000000E+04;  0.0000000E+00;  3.8047938E+04;  2.1509287E+00;  0.0000000E+00; -2.1248585E-01;  1.6474337E+03;
  1.8003305E+00;  9.9999998E-03; -2.0566765E-02;9656;  1.1570576E+00;  0.0000000E+00;  7.7666175E-03;  9.9286993E+02;  1.2979700E-01; -5.4587969E+03;3; -7.1443268E+01;  0.0000000E+00;  2.1544840E+00;0;  1.9180765E+00;  2.4586152E+04;  0.0000000E+00; -2.2469559E-01;  4.0000000E+04;  0.0000000E+00;  3.8046797E+04;  2.1248493E+00;  0.0000000E+00; -2.0677285E-01;  1.6109904E+03;
  1.8003305E+00;  9.9999998E-03;  2.0567073E-02;9660;  1.1570573E+00;  0.0000000E+00; -7.7658705E-03;  9.9286987E+02;  1.2979749E-01; -5.4588423E+03;3; -7.1443237E+01;  0.0000000E+00; -2.1544683E+00;0;  1.9180704E+00;  2.4586143E+04;  0.0000000E+00; -2.2470519E-01;  4.0000000E+04;  0.0000000E+00;  3.8046797E+04;  2.1248434E+00;  0.0000000E+00; -2.0677291E-01;  1.6109868E+03;
  1.8006233E+00;  9.9999998E-03; -3.0791672E-02;9655;  1.1590517E+00;  0.0000000E+00;  1.1555362E-02;  9.9312311E+02;  1.2977938E-01; -5.2633359E+03;3; -7.2035561E+01;  0.0000000E+00;  3.4184742E+00;0;  1.8837249E+00;  2.4605617E+04;  0.0000000E+00; -5.0045413E-01;  4.0000000E+04;  0.0000000E+00;  3.8044156E+04;  2.0811939E+00;  0.0000000E+00; -1.9746898E-01;  1.4950018E+03;
  1.8006233E+00;  9.9999998E-03;  3.0791979E-02;9661;  1.1590513E+00;  0.0000000E+00; -1.1554613E-02;  9.9312299E+02;  1.2977934E-01; -5.2634272E+03;3; -7.2035591E+01;  0.0000000E+00; -3.4184430E+00;0;  1.8837233E+00;  2.4605615E+04;  0.0000000E+00; -5.0046653E-01;  4.0000000E+04;  0.0000000E+00;  3.8044156E+04;  2.0811920E+00;  0.0000000E+00; -1.9746877E-01;  1.4949866E+03;
  1.8009946E+00;  9.9999998E-03; -4.0985335E-02;9654;  1.1614405E+00;  0.0000000E+00;  1.5272266E-02;  9.9336920E+02;  1.2974854E-01; -5.0729966E+03;3; -7.3453148E+01;  0.0000000E+00;  4.3670859E+00;0;  1.8352609E+00;  2.4630748E+04;  0.0000000E+00; -8.5131609E-01;  4.0000000E+04;  0.0000000E+00;  3.8039176E+04;  2.0200608E+00;  0.0000000E+00; -1.8479988E-01;  1.2540087E+03;
  1.8009946E+00;  9.9999998E-03;  4.0985644E-02;9662;  1.1614403E+00;  0.0000000E+00; -1.5271516E-02;  9.9336926E+02;  1.2974802E-01; -5.0729512E+03;3; -7.3453087E+01;  0.0000000E+00; -4.3670382E+00;0;  1.8352591E+00;  2.4630748E+04;  0.0000000E+00; -8.5133517E-01;  4.0000000E+04;  0.0000000E+00;  3.8039176E+04;  2.0200586E+00;  0.0000000E+00; -1.8479955E-01;  1.2539993E+03;
  1.8012362E+00;  9.9999998E-03; -1.0151155E-01;9648;  1.1165131E+00;  0.0000000E+00;  3.7476949E-02;  9.9406274E+02;  1.2972599E-01; -4.5412676E+03;3; -9.2481125E+01;  0.0000000E+00;  1.9382994E+00;0;  1.2412763E+00;  2.4693654E+04;  0.0000000E+00;  7.7161798E+00;  4.0000000E+04;  0.0000000E+00;  3.8009367E+04;  1.3283937E+00;  0.0000000E+00; -8.7117441E-02;  1.1364679E+04;
  1.8013939E+00;  9.9999998E-03; -5.1147845E-02;9653;  1.1629355E+00;  0.0000000E+00;  1.9088211E-02;  9.9364478E+02;  1.2971991E-01; -4.8601353E+03;3; -7.6060898E+01;  0.0000000E+00;  6.1214228E+00;0;  1.7726605E+00;  2.4658947E+04;  0.0000000E+00; -1.1903423E+00;  4.0000000E+04;  0.0000000E+00;  3.8031379E+04;  1.9419236E+00;  0.0000000E+00; -1.6926306E-01;  8.5346332E+02;
  1.8013939E+00;  9.9999998E-03;  5.1148154E-02;9663;  1.1629351E+00;  0.0000000E+00; -1.9087462E-02;  9.9364490E+02;  1.2971979E-01; -4.8600439E+03;3; -7.6060890E+01;  0.0000000E+00; -6.1213803E+00;0;  1.7726592E+00;  2.4658949E+04;  0.0000000E+00; -1.1903632E+00;  4.0000000E+04;  0.0000000E+00;  3.8031391E+04;  1.9419221E+00;  0.0000000E+00; -1.6926287E-01;  8.5345996E+02;
  1.8017470E+00;  9.9999998E-03; -9.1448709E-02;9649;  1.1351798E+00;  0.0000000E+00;  3.5033412E-02;  9.9409222E+02;  1.2969428E-01; -4.5162603E+03;3; -9.1693024E+01;  0.0000000E+00;  5.0332074E+00;0;  1.3802608E+00;  2.4711076E+04;  0.0000000E+00;  2.9767053E+00;  4.0000000E+04;  0.0000000E+00;  3.8001141E+04;  1.4798832E+00;  0.0000000E+00; -9.9622346E-02;  6.0708804E+03;
  1.8017322E+00;  9.9999998E-03; -6.1275627E-02;9652;  1.1620358E+00;  0.0000000E+00;  2.3346189E-02;  9.9389569E+02;  1.2969674E-01; -4.6665625E+03;3; -7.9123299E+01;  0.0000000E+00;  7.6287794E+00;0;  1.6960037E+00;  2.4685699E+04;  0.0000000E+00; -1.3361385E+00;  4.0000000E+04;  0.0000000E+00;  3.8021480E+04;  1.8477067E+00;  0.0000000E+00; -1.5170303E-01;  2.1519298E+02;
  1.8017322E+00;  9.9999998E-03;  6.1275937E-02;9664;  1.1620355E+00;  0.0000000E+00; -2.3345437E-02;  9.9389569E+02;  1.2969674E-01; -4.6665625E+03;3; -7.9123276E+01;  0.0000000E+00; -7.6287036E+00;0;  1.6960034E+00;  2.4685693E+04;  0.0000000E+00; -1.3361686E+00;  4.0000000E+04;  0.0000000E+00;  3.8021480E+04;  1.8477061E+00;  0.0000000E+00; -1.5170264E-01;  2.1521002E+02;
  1.8019755E+00;  9.9999998E-03; -8.1408411E-02;9650;  1.1492481E+00;  0.0000000E+00;  3.1677406E-02;  9.9413593E+02;  1.2968175E-01; -4.4817729E+03;3; -8.8736359E+01;  0.0000000E+00;  7.0911369E+00;0;  1.5009847E+00;  2.4715268E+04;  0.0000000E+00;  2.7510101E-01;  4.0000000E+04;  0.0000000E+00;  3.8003164E+04;  1.6164142E+00;  0.0000000E+00; -1.1542952E-01;  2.7811846E+03;
  1.8019471E+00;  9.9999998E-03; -7.1360126E-02;9651;  1.1581671E+00;  0.0000000E+00;  2.7576465E-02;  9.9407599E+02;  1.2968296E-01; -4.5276919E+03;3; -8.3672112E+01;  0.0000000E+00;  8.1960917E+00;0;  1.6056459E+00;  2.4705957E+04;  0.0000000E+00; -9.8809850E-01;  4.0000000E+04;  0.0000000E+00;  3.8011246E+04;  1.7389293E+00;  0.0000000E+00; -1.3328332E-01;  8.6738190E+02;
  1.8131032E+00;  9.9999998E-03; -1.0180061E-01;9695;  1.1374716E+00;  0.0000000E+00;  3.3281606E-02;  9.9385693E+02;  1.2834528E-01; -4.6362344E+03;3; -9.8010582E+01;  0.0000000E+00;  9.4823627E+00;0;  1.3458287E+00;  2.5325795E+04;  0.0000000E+00;  1.6635527E+01;  4.0000000E+04;  0.0000000E+00;  3.7856176E+04;  1.4218924E+00;  0.0000000E+00; -7.6063789E-02;  1.8382979E+04;
  1.8129718E+00;  9.9999998E-03;  1.5421097E-07;9705;  1.1956758E+00;  0.0000000E+00;  3.8188350E-07;  9.9319397E+02;  1.2836602E-01; -5.1373574E+03;3; -6.3541725E+01;  0.0000000E+00; -7.2456896E-06;0;  2.0052714E+00;  2.5285750E+04;  0.0000000E+00;  2.7433122E-11;  4.0000000E+04;  0.0000000E+00;  3.7851438E+04;  2.1845760E+00;  0.0000000E+00; -1.7930458E-01;  3.3920139E+02;
  1.8130558E+00;  9.9999998E-03; -1.0366873E-02;9704;  1.1964507E+00;  0.0000000E+00;  3.3807326E-03;  9.9323792E+02;  1.2836246E-01; -5.1036846E+03;3; -6.3862144E+01;  0.0000000E+00;  1.7028517E+00;0;  1.9985858E+00;  2.5290393E+04;  0.0000000E+00; -1.0626845E-01;  4.0000000E+04;  0.0000000E+00;  3.7850617E+04;  2.1759641E+00;  0.0000000E+00; -1.7737834E-01;  3.7026254E+02;
  1.8130558E+00;  9.9999998E-03;  1.0367182E-02;9706;  1.1964508E+00;  0.0000000E+00; -3.3799759E-03;  9.9323804E+02;  1.2836201E-01; -5.1035947E+03;3; -6.3862045E+01;  0.0000000E+00; -1.7028573E+00;0;  1.9985842E+00;  2.5290393E+04;  0.0000000E+00; -1.0627428E-01;  4.0000000E+04;  0.0000000E+00;  3.7850617E+04;  2.1759627E+00;  0.0000000E+00; -1.7737854E-01;  3.7026813E+02;
  1.8132799E+00;  9.9999998E-03; -2.0678228E-02;9703;  1.1983356E+00;  0.0000000E+00;  6.7042075E-03;  9.9336914E+02;  1.2834753E-01; -5.0032744E+03;3; -6.4447685E+01;  0.0000000E+00;  3.6725171E+00;0;  1.9786448E+00;  2.5303289E+04;  0.0000000E+00; -4.0418366E-01;  4.0000000E+04;  0.0000000E+00;  3.7848316E+04;  2.1504214E+00;  0.0000000E+00; -1.7177659E-01;  4.9541806E+02;
  1.8132799E+00;  9.9999998E-03;  2.0678537E-02;9707;  1.1983355E+00;  0.0000000E+00; -6.7034559E-03;  9.9336926E+02;  1.2834758E-01; -5.0031846E+03;3; -6.4447800E+01;  0.0000000E+00; -3.6725614E+00;0;  1.9786479E+00;  2.5303287E+04;  0.0000000E+00; -4.0419477E-01;  4.0000000E+04;  0.0000000E+00;  3.7848312E+04;  2.1504242E+00;  0.0000000E+00; -1.7177635E-01;  4.9543347E+02;
  1.8136030E+00;  9.9999998E-03; -3.0925425E-02;9702;  1.2008966E+00;  0.0000000E+00;  1.0039189E-02;  9.9354272E+02;  1.2832767E-01; -4.8704072E+03;3; -6.6016685E+01;  0.0000000E+00;  5.9206614E+00;0;  1.9458410E+00;  2.5322121E+04;  0.0000000E+00; -8.2681233E-01;  4.0000000E+04;  0.0000000E+00;  3.7844027E+04;  2.1086774E+00;  0.0000000E+00; -1.6283640E-01;  7.3054028E+02;
  1.8136030E+00;  9.9999998E-03;  3.0925734E-02;9708;  1.2008961E+00;  0.0000000E+00; -1.0038429E-02;  9.9354272E+02;  1.2832767E-01; -4.8704072E+03;3; -6.6016510E+01;  0.0000000E+00; -5.9206996E+00;0;  1.9458424E+00;  2.5322121E+04;  0.0000000E+00; -8.2683033E-01;  4.0000000E+04;  0.0000000E+00;  3.7844027E+04;  2.1086788E+00;  0.0000000E+00; -1.6283639E-01;  7.3056763E+02;
  1.8138440E+00;  9.9999998E-03; -9.1629289E-02;9696;  1.1601541E+00;  0.0000000E+00;  3.1280726E-02;  9.9374243E+02;  1.2830839E-01; -4.7184253E+03;3; -9.5222427E+01;  0.0000000E+00;  1.2164556E+01;0;  1.4827080E+00;  2.5350383E+04;  0.0000000E+00;  8.5505056E+00;  4.0000000E+04;  0.0000000E+00;  3.7832820E+04;  1.5656090E+00;  0.0000000E+00; -8.2900986E-02;  1.0934754E+04;
  1.8139786E+00;  9.9999998E-03; -4.1117661E-02;9701;  1.2031726E+00;  0.0000000E+00;  1.3334353E-02;  9.9371332E+02;  1.2830487E-01; -4.7395840E+03;3; -6.8980263E+01;  0.0000000E+00;  8.1535807E+00;0;  1.9007436E+00;  2.5343490E+04;  0.0000000E+00; -1.2432827E+00;  4.0000000E+04;  0.0000000E+00;  3.7837535E+04;  2.0517721E+00;  0.0000000E+00; -1.5102847E-01;  1.0250862E+03;
  1.8139786E+00;  9.9999998E-03;  4.1117974E-02;9709;  1.2031722E+00;  0.0000000E+00; -1.3333599E-02;  9.9371332E+02;  1.2830487E-01; -4.7395840E+03;3; -6.8980331E+01;  0.0000000E+00; -8.1535606E+00;0;  1.9007447E+00;  2.5343486E+04;  0.0000000E+00; -1.2433081E+00;  4.0000000E+04;  0.0000000E+00;  3.7837535E+04;  2.0517731E+00;  0.0000000E+00; -1.5102841E-01;  1.0250989E+03;
  1.8143221E+00;  9.9999998E-03; -5.1263392E-02;9700;  1.2031617E+00;  0.0000000E+00;  1.6889432E-02;  9.9386237E+02;  1.2828664E-01; -4.6252642E+03;3; -7.3446579E+01;  0.0000000E+00;  1.1082699E+01;0;  1.8437867E+00;  2.5362771E+04;  0.0000000E+00; -1.4323550E+00;  4.0000000E+04;  0.0000000E+00;  3.7829785E+04;  1.9808925E+00;  0.0000000E+00; -1.3710581E-01;  1.3431025E+03;
  1.8143221E+00;  9.9999998E-03;  5.1263705E-02;9710;  1.2031612E+00;  0.0000000E+00; -1.6888665E-02;  9.9386230E+02;  1.2828687E-01; -4.6253091E+03;3; -7.3446426E+01;  0.0000000E+00; -1.1082676E+01;0;  1.8437880E+00;  2.5362768E+04;  0.0000000E+00; -1.4323781E+00;  4.0000000E+04;  0.0000000E+00;  3.7829781E+04;  1.9808939E+00;  0.0000000E+00; -1.3710579E-01;  1.3431108E+03;
  1.8143437E+00;  9.9999998E-03; -8.1525527E-02;9697;  1.1785183E+00;  0.0000000E+00;  2.8354863E-02;  9.9378027E+02;  1.2828319E-01; -4.6870376E+03;3; -9.0537338E+01;  0.0000000E+00;  1.3164244E+01;0;  1.5974641E+00;  2.5369016E+04;  0.0000000E+00;  3.3258648E+00;  4.0000000E+04;  0.0000000E+00;  3.7820855E+04;  1.6910909E+00;  0.0000000E+00; -9.3626849E-02;  6.0347720E+03;
  1.8145437E+00;  9.9999998E-03; -6.1369628E-02;9699;  1.1999294E+00;  0.0000000E+00;  2.0847730E-02;  9.9390588E+02;  1.2827447E-01; -4.5912324E+03;3; -7.8387611E+01;  0.0000000E+00;  1.2790578E+01;0;  1.7751720E+00;  2.5375572E+04;  0.0000000E+00; -1.0587591E+00;  4.0000000E+04;  0.0000000E+00;  3.7822355E+04;  1.8972398E+00;  0.0000000E+00; -1.2206776E-01;  1.8633512E+03;
  1.8145437E+00;  9.9999998E-03;  6.1369941E-02;9711;  1.1999288E+00;  0.0000000E+00; -2.0846963E-02;  9.9390582E+02;  1.2827395E-01; -4.5912769E+03;3; -7.8387436E+01;  0.0000000E+00; -1.2790519E+01;0;  1.7751716E+00;  2.5375566E+04;  0.0000000E+00; -1.0587876E+00;  4.0000000E+04;  0.0000000E+00;  3.7822359E+04;  1.8972391E+00;  0.0000000E+00; -1.2206744E-01;  1.8633501E+03;
  1.8145707E+00;  9.9999998E-03; -7.1448646E-02;9698;  1.1918887E+00;  0.0000000E+00;  2.4835225E-02;  9.9386780E+02;  1.2827247E-01; -4.6197749E+03;3; -8.5204895E+01;  0.0000000E+00;  1.3463813E+01;0;  1.6938590E+00;  2.5378029E+04;  0.0000000E+00;  3.3706826E-01;  4.0000000E+04;  0.0000000E+00;  3.7818055E+04;  1.8009903E+00;  0.0000000E+00; -1.0713134E-01;  3.1918328E+03;
  1.8253955E+00;  9.9999998E-03; -9.2039846E-02;9742;  1.1781956E+00;  0.0000000E+00;  2.4535345E-02;  9.9366278E+02;  1.2716758E-01; -4.7078130E+03;3; -9.6711388E+01;  0.0000000E+00;  1.6917444E+01;0;  1.5661258E+00;  2.5926848E+04;  0.0000000E+00;  1.8321152E+01;  4.0000000E+04;  0.0000000E+00;  3.7659766E+04;  1.6282749E+00;  0.0000000E+00; -6.2149167E-02;  1.7266498E+04;
  1.8259012E+00;  9.9999998E-03;  1.5421536E-07;9751;  1.2325979E+00;  0.0000000E+00;  3.7158031E-07;  9.9346863E+02;  1.2715125E-01; -4.8486660E+03;3; -5.7481121E+01;  0.0000000E+00; -4.1209161E-05;0;  2.0179474E+00;  2.5935150E+04;  0.0000000E+00;  2.5584299E-11;  4.0000000E+04;  0.0000000E+00;  3.7637652E+04;  2.1492202E+00;  0.0000000E+00; -1.3127281E-01;  1.9580841E+03;
  1.8259668E+00;  9.9999998E-03; -1.0398461E-02;9750;  1.2332665E+00;  0.0000000E+00;  2.4205728E-03;  9.9349890E+02;  1.2714945E-01; -4.8257520E+03;3; -5.7922478E+01;  0.0000000E+00;  2.2304204E+00;0;  2.0122344E+00;  2.5937971E+04;  0.0000000E+00; -1.2839624E-01;  4.0000000E+04;  0.0000000E+00;  3.7636492E+04;  2.1419046E+00;  0.0000000E+00; -1.2967020E-01;  1.9986714E+03;
  1.8259668E+00;  9.9999998E-03;  1.0398771E-02;9752;  1.2332665E+00;  0.0000000E+00; -2.4198298E-03;  9.9349890E+02;  1.2714945E-01; -4.8257520E+03;3; -5.7922520E+01;  0.0000000E+00; -2.2304890E+00;0;  2.0122361E+00;  2.5937969E+04;  0.0000000E+00; -1.2840365E-01;  4.0000000E+04;  0.0000000E+00;  3.7636496E+04;  2.1419063E+00;  0.0000000E+00; -1.2967016E-01;  1.9986787E+03;
  1.8260450E+00;  9.9999998E-03; -8.1803404E-02;9743;  1.1990745E+00;  0.0000000E+00;  2.2340117E-02;  9.9346710E+02;  1.2714192E-01; -4.8488564E+03;3; -9.0926308E+01;  0.0000000E+00;  1.7039476E+01;0;  1.6725748E+00;  2.5944396E+04;  0.0000000E+00;  9.8815594E+00;  4.0000000E+04;  0.0000000E+00;  3.7636398E+04;  1.7404673E+00;  0.0000000E+00; -6.7892537E-02;  1.0579911E+04;
  1.8261467E+00;  9.9999998E-03; -2.0741722E-02;9749;  1.2348895E+00;  0.0000000E+00;  4.9145534E-03;  9.9355994E+02;  1.2714335E-01; -4.7792617E+03;3; -5.9213490E+01;  0.0000000E+00;  5.2331901E+00;0;  1.9954067E+00;  2.5945732E+04;  0.0000000E+00; -4.5762858E-01;  4.0000000E+04;  0.0000000E+00;  3.7632922E+04;  2.1204300E+00;  0.0000000E+00; -1.2502328E-01;  2.1174971E+03;
  1.8261467E+00;  9.9999998E-03;  2.0742033E-02;9753;  1.2348896E+00;  0.0000000E+00; -4.9138307E-03;  9.9356000E+02;  1.2714311E-01; -4.7792173E+03;3; -5.9213448E+01;  0.0000000E+00; -5.2332859E+00;0;  1.9954069E+00;  2.5945732E+04;  0.0000000E+00; -4.5764396E-01;  4.0000000E+04;  0.0000000E+00;  3.7632922E+04;  2.1204302E+00;  0.0000000E+00; -1.2502331E-01;  2.1175168E+03;
  1.8263958E+00;  9.9999998E-03; -3.1019382E-02;9748;  1.2367175E+00;  0.0000000E+00;  7.4495962E-03;  9.9356976E+02;  1.2712961E-01; -4.7703232E+03;3; -6.1525291E+01;  0.0000000E+00;  7.7695651E+00;0;  1.9682810E+00;  2.5955629E+04;  0.0000000E+00; -8.2979316E-01;  4.0000000E+04;  0.0000000E+00;  3.7627668E+04;  2.0860095E+00;  0.0000000E+00; -1.1772852E-01;  2.2992136E+03;
  1.8263956E+00;  9.9999998E-03;  3.1019691E-02;9754;  1.2367171E+00;  0.0000000E+00; -7.4488749E-03;  9.9356958E+02;  1.2712960E-01; -4.7705000E+03;3; -6.1525345E+01;  0.0000000E+00; -7.7696733E+00;0;  1.9682814E+00;  2.5955627E+04;  0.0000000E+00; -8.2981616E-01;  4.0000000E+04;  0.0000000E+00;  3.7627668E+04;  2.0860100E+00;  0.0000000E+00; -1.1772856E-01;  2.2992366E+03;
  1.8265156E+00;  9.9999998E-03; -7.1638100E-02;9744;  1.2155365E+00;  0.0000000E+00;  1.9625552E-02;  9.9338818E+02;  1.2712184E-01; -4.9042437E+03;3; -8.4775932E+01;  0.0000000E+00;  1.6638775E+01;0;  1.7584841E+00;  2.5957740E+04;  0.0000000E+00;  4.3051953E+00;  4.0000000E+04;  0.0000000E+00;  3.7621895E+04;  1.8350588E+00;  0.0000000E+00; -7.6574735E-02;  6.2081758E+03;
  1.8266379E+00;  9.9999998E-03; -4.1226428E-02;9747;  1.2369871E+00;  0.0000000E+00;  1.0093078E-02;  9.9356763E+02;  1.2711965E-01; -4.7703164E+03;3; -6.6072144E+01;  0.0000000E+00;  1.0670393E+01;0;  1.9314816E+00;  2.5964312E+04;  0.0000000E+00; -9.7554201E-01;  4.0000000E+04;  0.0000000E+00;  3.7621598E+04;  2.0398889E+00;  0.0000000E+00; -1.0840720E-01;  2.5125566E+03;
  1.8266379E+00;  9.9999998E-03;  4.1226741E-02;9755;  1.2369870E+00;  0.0000000E+00; -1.0092366E-02;  9.9356769E+02;  1.2711936E-01; -4.7702725E+03;3; -6.6072159E+01;  0.0000000E+00; -1.0670359E+01;0;  1.9314817E+00;  2.5964309E+04;  0.0000000E+00; -9.7557539E-01;  4.0000000E+04;  0.0000000E+00;  3.7621602E+04;  2.0398889E+00;  0.0000000E+00; -1.0840710E-01;  2.5125618E+03;
  1.8267869E+00;  9.9999998E-03; -5.1379092E-02;9746;  1.2343212E+00;  0.0000000E+00;  1.3201938E-02;  9.9352362E+02;  1.2711462E-01; -4.8019902E+03;3; -7.1215576E+01;  0.0000000E+00;  1.3485511E+01;0;  1.8851905E+00;  2.5968326E+04;  0.0000000E+00; -5.1100218E-01;  4.0000000E+04;  0.0000000E+00;  3.7616793E+04;  1.9830341E+00;  0.0000000E+00; -9.7843684E-02;  2.8519111E+03;
  1.8267870E+00;  9.9999998E-03;  5.1379409E-02;9756;  1.2343212E+00;  0.0000000E+00; -1.3201244E-02;  9.9352374E+02;  1.2711528E-01; -4.8019014E+03;3; -7.1215584E+01;  0.0000000E+00; -1.3485498E+01;0;  1.8851907E+00;  2.5968336E+04;  0.0000000E+00; -5.1103288E-01;  4.0000000E+04;  0.0000000E+00;  3.7616801E+04;  1.9830343E+00;  0.0000000E+00; -9.7843572E-02;  2.8519138E+03;
  1.8267610E+00;  9.9999998E-03; -6.1506115E-02;9745;  1.2273725E+00;  0.0000000E+00;  1.6533088E-02;  9.9344470E+02;  1.2711434E-01; -4.8606782E+03;3; -7.8154472E+01;  0.0000000E+00;  1.5782795E+01;0;  1.8283141E+00;  2.5966174E+04;  0.0000000E+00;  1.0551702E+00;  4.0000000E+04;  0.0000000E+00;  3.7615758E+04;  1.9152412E+00;  0.0000000E+00; -8.6927190E-02;  3.8198406E+03;
  1.8267610E+00;  9.9999998E-03;  6.1506428E-02;9757;  1.2273725E+00;  0.0000000E+00; -1.6532419E-02;  9.9344482E+02;  1.2711436E-01; -4.8605898E+03;3; -7.8154610E+01;  0.0000000E+00; -1.5782839E+01;0;  1.8283154E+00;  2.5966174E+04;  0.0000000E+00;  1.0551435E+00;  4.0000000E+04;  0.0000000E+00;  3.7615758E+04;  1.9152426E+00;  0.0000000E+00; -8.6927161E-02;  3.8198435E+03;
  1.8368987E+00;  9.9999998E-03; -9.2715390E-02;9786;  1.1921680E+00;  0.0000000E+00;  1.5823165E-02;  9.9353876E+02;  1.2620935E-01; -4.7206201E+03;3; -9.8214127E+01;  0.0000000E+00;  1.7283909E+01;0;  1.6418791E+00;  2.6456428E+04;  0.0000000E+00;  3.0365118E+01;  4.0000000E+04;  0.0000000E+00;  3.7463910E+04;  1.6777579E+00;  0.0000000E+00; -3.5878737E-02;  2.3245924E+04;
  1.8374721E+00;  9.9999998E-03; -8.2279973E-02;9787;  1.2147809E+00;  0.0000000E+00;  1.5037187E-02;  9.9347998E+02;  1.2618990E-01; -4.7593682E+03;3; -9.1554489E+01;  0.0000000E+00;  1.7602020E+01;0;  1.7389452E+00;  2.6477570E+04;  0.0000000E+00;  1.9786310E+01;  4.0000000E+04;  0.0000000E+00;  3.7442371E+04;  1.7769399E+00;  0.0000000E+00; -3.7994675E-02;  1.5809130E+04;
  1.8379923E+00;  9.9999998E-03; -7.1905561E-02;9788;  1.2328316E+00;  0.0000000E+00;  1.3308826E-02;  9.9331073E+02;  1.2617624E-01; -4.8789727E+03;3; -8.4868019E+01;  0.0000000E+00;  1.7024805E+01;0;  1.8129661E+00;  2.6488072E+04;  0.0000000E+00;  1.1759177E+01;  4.0000000E+04;  0.0000000E+00;  3.7424422E+04;  1.8554574E+00;  0.0000000E+00; -4.2491268E-02;  1.0229750E+04;
  1.8383929E+00;  9.9999998E-03; -6.1592076E-02;9789;  1.2464298E+00;  0.0000000E+00;  1.1120316E-02;  9.9314136E+02;  1.2616242E-01; -4.9994238E+03;3; -7.7621597E+01;  0.0000000E+00;  1.6252073E+01;0;  1.8698055E+00;  2.6493816E+04;  0.0000000E+00;  6.1935272E+00;  4.0000000E+04;  0.0000000E+00;  3.7411668E+04;  1.9182093E+00;  0.0000000E+00; -4.8403848E-02;  6.4598794E+03;
  1.8383929E+00;  9.9999998E-03;  6.1592389E-02;9801;  1.2464298E+00;  0.0000000E+00; -1.1119677E-02;  9.9314142E+02;  1.2616217E-01; -4.9993804E+03;3; -7.7621727E+01;  0.0000000E+00; -1.6252174E+01;0;  1.8698059E+00;  2.6493809E+04;  0.0000000E+00;  6.1934743E+00;  4.0000000E+04;  0.0000000E+00;  3.7411672E+04;  1.9182099E+00;  0.0000000E+00; -4.8403926E-02;  6.4598843E+03;
  1.8385433E+00;  9.9999998E-03;  1.5415051E-07;9795;  1.2635230E+00;  0.0000000E+00;  3.4383942E-07;  9.9324957E+02;  1.2616059E-01; -4.9193740E+03;3; -5.4914299E+01;  0.0000000E+00;  2.3245811E-06;0;  2.0081682E+00;  2.6495336E+04;  0.0000000E+00;  2.3110170E-11;  4.0000000E+04;  0.0000000E+00;  3.7413445E+04;  2.0831995E+00;  0.0000000E+00; -7.5031310E-02;  2.7859031E+03;
  1.8385752E+00;  9.9999998E-03; -1.0362086E-02;9794;  1.2637913E+00;  0.0000000E+00;  1.2067597E-03;  9.9323401E+02;  1.2615995E-01; -4.9304658E+03;3; -5.5372227E+01;  0.0000000E+00;  3.6280527E+00;0;  2.0043132E+00;  2.6495783E+04;  0.0000000E+00; -6.5988809E-02;  4.0000000E+04;  0.0000000E+00;  3.7412004E+04;  2.0783064E+00;  0.0000000E+00; -7.3993303E-02;  2.8215703E+03;
  1.8385752E+00;  9.9999998E-03;  1.0362394E-02;9796;  1.2637912E+00;  0.0000000E+00; -1.2060734E-03;  9.9323395E+02;  1.2615965E-01; -4.9305532E+03;3; -5.5372093E+01;  0.0000000E+00; -3.6280298E+00;0;  2.0043118E+00;  2.6495791E+04;  0.0000000E+00; -6.5998480E-02;  4.0000000E+04;  0.0000000E+00;  3.7412008E+04;  2.0783052E+00;  0.0000000E+00; -7.3993355E-02;  2.8215793E+03;
  1.8386511E+00;  9.9999998E-03; -2.0678086E-02;9793;  1.2641637E+00;  0.0000000E+00;  2.5870723E-03;  9.9318573E+02;  1.2615669E-01; -4.9650630E+03;3; -5.6957317E+01;  0.0000000E+00;  7.1191425E+00;0;  1.9928579E+00;  2.6497391E+04;  0.0000000E+00; -1.6492076E-01;  4.0000000E+04;  0.0000000E+00;  3.7408922E+04;  2.0638981E+00;  0.0000000E+00; -7.1040094E-02;  2.9168750E+03;
  1.8386511E+00;  9.9999998E-03;  2.0678399E-02;9797;  1.2641635E+00;  0.0000000E+00; -2.5863734E-03;  9.9318567E+02;  1.2615691E-01; -4.9651499E+03;3; -5.6957237E+01;  0.0000000E+00; -7.1192417E+00;0;  1.9928592E+00;  2.6497389E+04;  0.0000000E+00; -1.6494505E-01;  4.0000000E+04;  0.0000000E+00;  3.7408930E+04;  2.0638993E+00;  0.0000000E+00; -7.1040064E-02;  2.9168682E+03;
  1.8386455E+00;  9.9999998E-03; -5.1351372E-02;9790;  1.2557492E+00;  0.0000000E+00;  8.6929211E-03;  9.9306476E+02;  1.2615731E-01; -5.0532695E+03;3; -7.0718239E+01;  0.0000000E+00;  1.5254374E+01;0;  1.9138026E+00;  2.6497006E+04;  0.0000000E+00;  2.6630003E+00;  4.0000000E+04;  0.0000000E+00;  3.7404660E+04;  1.9685495E+00;  0.0000000E+00; -5.4746825E-02;  4.2993301E+03;
  1.8386455E+00;  9.9999998E-03;  5.1351689E-02;9800;  1.2557491E+00;  0.0000000E+00; -8.6922338E-03;  9.9306476E+02;  1.2615731E-01; -5.0532695E+03;3; -7.0718285E+01;  0.0000000E+00; -1.5254434E+01;0;  1.9138037E+00;  2.6497000E+04;  0.0000000E+00;  2.6629324E+00;  4.0000000E+04;  0.0000000E+00;  3.7404664E+04;  1.9685504E+00;  0.0000000E+00; -5.4746773E-02;  4.2993145E+03;
  1.8387281E+00;  9.9999998E-03; -3.0934380E-02;9792;  1.2636067E+00;  0.0000000E+00;  4.1884342E-03;  9.9311713E+02;  1.2615435E-01; -5.0144497E+03;3; -6.0127144E+01;  0.0000000E+00;  1.0242046E+01;0;  1.9739759E+00;  2.6498645E+04;  0.0000000E+00; -2.5577780E-02;  4.0000000E+04;  0.0000000E+00;  3.7404957E+04;  2.0404959E+00;  0.0000000E+00; -6.6519916E-02;  3.0619275E+03;
  1.8387281E+00;  9.9999998E-03;  3.0934690E-02;9798;  1.2636062E+00;  0.0000000E+00; -4.1877329E-03;  9.9311713E+02;  1.2615405E-01; -5.0144497E+03;3; -6.0127064E+01;  0.0000000E+00; -1.0242115E+01;0;  1.9739776E+00;  2.6498650E+04;  0.0000000E+00; -2.5599750E-02;  4.0000000E+04;  0.0000000E+00;  3.7404957E+04;  2.0404975E+00;  0.0000000E+00; -6.6520035E-02;  3.0619519E+03;
  1.8387461E+00;  9.9999998E-03; -4.1146278E-02;9791;  1.2610598E+00;  0.0000000E+00;  6.2681232E-03;  9.9306281E+02;  1.2615363E-01; -5.0539111E+03;3; -6.4517387E+01;  0.0000000E+00;  1.3131955E+01;0;  1.9477183E+00;  2.6498518E+04;  0.0000000E+00;  7.5585586E-01;  4.0000000E+04;  0.0000000E+00;  3.7402797E+04;  2.0086482E+00;  0.0000000E+00; -6.0929894E-02;  3.3752021E+03;
  1.8387460E+00;  9.9999998E-03;  4.1146588E-02;9799;  1.2610596E+00;  0.0000000E+00; -6.2674480E-03;  9.9306268E+02;  1.2615351E-01; -5.0539980E+03;3; -6.4517548E+01;  0.0000000E+00; -1.3132116E+01;0;  1.9477175E+00;  2.6498520E+04;  0.0000000E+00;  7.5583601E-01;  4.0000000E+04;  0.0000000E+00;  3.7402801E+04;  2.0086477E+00;  0.0000000E+00; -6.0930163E-02;  3.3752285E+03;
  1.8485267E+00;  9.9999998E-03; -9.3529291E-02;9828;  1.2033464E+00;  0.0000000E+00;  6.0673277E-03;  9.9292426E+02;  1.2540971E-01; -5.0733960E+03;3; -1.0162668E+02;  0.0000000E+00;  1.4124247E+01;0;  1.7128367E+00;  2.6929553E+04;  0.0000000E+00;  3.9063599E+01;  4.0000000E+04;  0.0000000E+00;  3.7235262E+04;  1.7160524E+00;  0.0000000E+00; -3.2157290E-03;  2.5859541E+04;
  1.8489920E+00;  9.9999998E-03; -8.2957417E-02;9829;  1.2275196E+00;  0.0000000E+00;  7.4666021E-03;  9.9327429E+02;  1.2539175E-01; -4.8186235E+03;3; -9.4603882E+01;  0.0000000E+00;  1.6205681E+01;0;  1.8020599E+00;  2.6963775E+04;  0.0000000E+00;  2.9203215E+01;  4.0000000E+04;  0.0000000E+00;  3.7224578E+04;  1.8061428E+00;  0.0000000E+00; -4.0829689E-03;  1.9389086E+04;
  1.8494346E+00;  9.9999998E-03; -7.2366871E-02;9830;  1.2468212E+00;  0.0000000E+00;  7.0166383E-03;  9.9342554E+02;  1.2538259E-01; -4.7066802E+03;3; -8.7088173E+01;  0.0000000E+00;  1.7600508E+01;0;  1.8644708E+00;  2.6981951E+04;  0.0000000E+00;  2.0873325E+01;  4.0000000E+04;  0.0000000E+00;  3.7216266E+04;  1.8696297E+00;  0.0000000E+00; -5.1588556E-03;  1.3978692E+04;
  1.8498082E+00;  9.9999998E-03; -6.1812229E-02;9831;  1.2614760E+00;  0.0000000E+00;  5.7653091E-03;  9.9336993E+02;  1.2536968E-01; -4.7434531E+03;3; -7.9052147E+01;  0.0000000E+00;  1.7789042E+01;0;  1.9074942E+00;  2.6991807E+04;  0.0000000E+00;  1.4096296E+01;  4.0000000E+04;  0.0000000E+00;  3.7207910E+04;  1.9145776E+00;  0.0000000E+00; -7.0833578E-03;  9.6817520E+03;
  1.8498081E+00;  9.9999998E-03;  6.1812535E-02;9843;  1.2614762E+00;  0.0000000E+00; -5.7647228E-03;  9.9336993E+02;  1.2536968E-01; -4.7434531E+03;3; -7.9052414E+01;  0.0000000E+00; -1.7789433E+01;0;  1.9074953E+00;  2.6991805E+04;  0.0000000E+00;  1.4096337E+01;  4.0000000E+04;  0.0000000E+00;  3.7207906E+04;  1.9145788E+00;  0.0000000E+00; -7.0835468E-03;  9.6817959E+03;
  1.8501078E+00;  9.9999998E-03; -5.1365726E-02;9832;  1.2719911E+00;  0.0000000E+00;  4.0943916E-03;  9.9322821E+02;  1.2536424E-01; -4.8423643E+03;3; -7.2061203E+01;  0.0000000E+00;  1.8631557E+01;0;  1.9378818E+00;  2.6994277E+04;  0.0000000E+00;  8.6671724E+00;  4.0000000E+04;  0.0000000E+00;  3.7198172E+04;  1.9470390E+00;  0.0000000E+00; -9.1571612E-03;  6.4584238E+03;
  1.8501078E+00;  9.9999998E-03;  5.1366039E-02;9842;  1.2719916E+00;  0.0000000E+00; -4.0938533E-03;  9.9322815E+02;  1.2536402E-01; -4.8424067E+03;3; -7.2061600E+01;  0.0000000E+00; -1.8631554E+01;0;  1.9378817E+00;  2.6994277E+04;  0.0000000E+00;  8.6671276E+00;  4.0000000E+04;  0.0000000E+00;  3.7198176E+04;  1.9470390E+00;  0.0000000E+00; -9.1572935E-03;  6.4584272E+03;
  1.8503147E+00;  9.9999998E-03; -4.1024521E-02;9833;  1.2787452E+00;  0.0000000E+00;  2.3371510E-03;  9.9309296E+02;  1.2536049E-01; -4.9373125E+03;3; -6.5550461E+01;  0.0000000E+00;  1.7503567E+01;0;  1.9589890E+00;  2.6994123E+04;  0.0000000E+00;  4.7320380E+00;  4.0000000E+04;  0.0000000E+00;  3.7190625E+04;  1.9701600E+00;  0.0000000E+00; -1.1170958E-02;  4.4014497E+03;
  1.8503147E+00;  9.9999998E-03;  4.1024834E-02;9841;  1.2787460E+00;  0.0000000E+00; -2.3366211E-03;  9.9309302E+02;  1.2536025E-01; -4.9372700E+03;3; -6.5550652E+01;  0.0000000E+00; -1.7503765E+01;0;  1.9589905E+00;  2.6994131E+04;  0.0000000E+00;  4.7320013E+00;  4.0000000E+04;  0.0000000E+00;  3.7190621E+04;  1.9701616E+00;  0.0000000E+00; -1.1171153E-02;  4.4014429E+03;
  1.8504350E+00;  9.9999998E-03; -3.0759271E-02;9834;  1.2824941E+00;  0.0000000E+00;  8.7889924E-04;  9.9300964E+02;  1.2535974E-01; -4.9958394E+03;3; -6.0966160E+01;  0.0000000E+00;  1.5744300E+01;0;  1.9734621E+00;  2.6993014E+04;  0.0000000E+00;  2.1925347E+00;  4.0000000E+04;  0.0000000E+00;  3.7186523E+04;  1.9865334E+00;  0.0000000E+00; -1.3071259E-02;  3.4070444E+03;
  1.8504350E+00;  9.9999998E-03;  3.0759579E-02;9840;  1.2824938E+00;  0.0000000E+00; -8.7827939E-04;  9.9300958E+02;  1.2535985E-01; -4.9958823E+03;3; -6.0966106E+01;  0.0000000E+00; -1.5744246E+01;0;  1.9734607E+00;  2.6993016E+04;  0.0000000E+00;  2.1925144E+00;  4.0000000E+04;  0.0000000E+00;  3.7186527E+04;  1.9865322E+00;  0.0000000E+00; -1.3071507E-02;  3.4070693E+03;
  1.8504874E+00;  9.9999998E-03; -2.0526808E-02;9835;  1.2842783E+00;  0.0000000E+00; -3.6163048E-05;  9.9297943E+02;  1.2535857E-01; -5.0169829E+03;3; -5.8082726E+01;  0.0000000E+00;  1.1891654E+01;0;  1.9831219E+00;  2.6992148E+04;  0.0000000E+00;  7.8248167E-01;  4.0000000E+04;  0.0000000E+00;  3.7185242E+04;  1.9979118E+00;  0.0000000E+00; -1.4789983E-02;  3.0844519E+03;
  1.8504874E+00;  9.9999998E-03;  2.0527119E-02;9839;  1.2842784E+00;  0.0000000E+00;  3.6771024E-05;  9.9297943E+02;  1.2535857E-01; -5.0169829E+03;3; -5.8082668E+01;  0.0000000E+00; -1.1891652E+01;0;  1.9831219E+00;  2.6992148E+04;  0.0000000E+00;  7.8246164E-01;  4.0000000E+04;  0.0000000E+00;  3.7185246E+04;  1.9979119E+00;  0.0000000E+00; -1.4790111E-02;  3.0844570E+03;
  1.8505005E+00;  9.9999998E-03; -1.0278167E-02;9836;  1.2849472E+00;  0.0000000E+00; -2.2646811E-04;  9.9297919E+02;  1.2535809E-01; -5.0170396E+03;3; -5.6317425E+01;  0.0000000E+00;  6.4860086E+00;0;  1.9887094E+00;  2.6991887E+04;  0.0000000E+00;  1.6061215E-01;  4.0000000E+04;  0.0000000E+00;  3.7185762E+04;  2.0047762E+00;  0.0000000E+00; -1.6066808E-02;  3.0039324E+03;
  1.8505006E+00;  9.9999998E-03;  1.0278478E-02;9838;  1.2849476E+00;  0.0000000E+00;  2.2707575E-04;  9.9297925E+02;  1.2535785E-01; -5.0169966E+03;3; -5.6317333E+01;  0.0000000E+00; -6.4860520E+00;0;  1.9887104E+00;  2.6991873E+04;  0.0000000E+00;  1.6060044E-01;  4.0000000E+04;  0.0000000E+00;  3.7185758E+04;  2.0047772E+00;  0.0000000E+00; -1.6066754E-02;  3.0039058E+03;
  1.8505018E+00;  9.9999998E-03;  1.5443646E-07;9837;  1.2850974E+00;  0.0000000E+00;  2.9163323E-07;  9.9298578E+02;  1.2535712E-01; -5.0123003E+03;3; -5.5792797E+01;  0.0000000E+00;  5.5223703E-05;0;  1.9905496E+00;  2.6991832E+04;  0.0000000E+00;  2.1024151E-11;  4.0000000E+04;  0.0000000E+00;  3.7186406E+04;  2.0070887E+00;  0.0000000E+00; -1.6539074E-02;  2.9851545E+03;
  1.8601654E+00;  9.9999998E-03; -9.4280943E-02;9867;  1.2118057E+00;  0.0000000E+00; -3.7490781E-03;  9.9233832E+02;  1.2474261E-01; -5.3806982E+03;3; -1.0748824E+02;  0.0000000E+00;  1.0760545E+01;0;  1.7648692E+00;  2.7370229E+04;  0.0000000E+00;  3.9041409E+01;  4.0000000E+04;  0.0000000E+00;  3.6989348E+04;  1.7294130E+00;  0.0000000E+00;  3.5456181E-02;  2.3434707E+04;
  1.8605745E+00;  9.9999998E-03; -8.3674639E-02;9868;  1.2373457E+00;  0.0000000E+00; -4.8908778E-04;  9.9290491E+02;  1.2472846E-01; -4.9789712E+03;3; -9.9497993E+01;  0.0000000E+00;  1.5831255E+01;0;  1.8535650E+00;  2.7408734E+04;  0.0000000E+00;  3.2549465E+01;  4.0000000E+04;  0.0000000E+00;  3.6985898E+04;  1.8198227E+00;  0.0000000E+00;  3.3742342E-02;  1.9140674E+04;
  1.8609475E+00;  9.9999998E-03; -7.3003739E-02;9869;  1.2576145E+00;  0.0000000E+00;  3.0916688E-04;  9.9335992E+02;  1.2471607E-01; -4.6564019E+03;3; -9.1984970E+01;  0.0000000E+00;  2.1148726E+01;0;  1.9083134E+00;  2.7437510E+04;  0.0000000E+00;  2.6393665E+01;  4.0000000E+04;  0.0000000E+00;  3.6987266E+04;  1.8730925E+00;  0.0000000E+00;  3.5220899E-02;  1.5136512E+04;
  1.8612734E+00;  9.9999998E-03; -6.2306177E-02;9870;  1.2736715E+00;  0.0000000E+00; -3.6708062E-04;  9.9365961E+02;  1.2470914E-01; -4.4435156E+03;3; -8.4496941E+01;  0.0000000E+00;  2.5518337E+01;0;  1.9426420E+00;  2.7455838E+04;  0.0000000E+00;  2.0670298E+01;  4.0000000E+04;  0.0000000E+00;  3.6989047E+04;  1.9051315E+00;  0.0000000E+00;  3.7510518E-02;  1.1545650E+04;
  1.8612734E+00;  9.9999998E-03;  6.2306490E-02;9882;  1.2736722E+00;  0.0000000E+00;  3.6744887E-04;  9.9365961E+02;  1.2470914E-01; -4.4435156E+03;3; -8.4497345E+01;  0.0000000E+00; -2.5518450E+01;0;  1.9426465E+00;  2.7455840E+04;  0.0000000E+00;  2.0670300E+01;  4.0000000E+04;  0.0000000E+00;  3.6989043E+04;  1.9051366E+00;  0.0000000E+00;  3.7509926E-02;  1.1545697E+04;
  1.8615413E+00;  9.9999998E-03; -5.1653624E-02;9871;  1.2857752E+00;  0.0000000E+00; -1.8675214E-03;  9.9375470E+02;  1.2470168E-01; -4.3746787E+03;3; -7.6917572E+01;  0.0000000E+00;  2.6042076E+01;0;  1.9633623E+00;  2.7466393E+04;  0.0000000E+00;  1.5189989E+01;  4.0000000E+04;  0.0000000E+00;  3.6986477E+04;  1.9234973E+00;  0.0000000E+00;  3.9864980E-02;  8.3765449E+03;
  1.8615414E+00;  9.9999998E-03;  5.1653937E-02;9881;  1.2857761E+00;  0.0000000E+00;  1.8679742E-03;  9.9375476E+02;  1.2470167E-01; -4.3746372E+03;3; -7.6917816E+01;  0.0000000E+00; -2.6042362E+01;0;  1.9633669E+00;  2.7466387E+04;  0.0000000E+00;  1.5189942E+01;  4.0000000E+04;  0.0000000E+00;  3.6986477E+04;  1.9235023E+00;  0.0000000E+00;  3.9864544E-02;  8.3765273E+03;
  1.8617525E+00;  9.9999998E-03; -4.1104943E-02;9872;  1.2939147E+00;  0.0000000E+00; -2.6336822E-03;  9.9370239E+02;  1.2469828E-01; -4.4095361E+03;3; -6.9132004E+01;  0.0000000E+00;  1.9211483E+01;0;  1.9727148E+00;  2.7469918E+04;  0.0000000E+00;  1.0096250E+01;  4.0000000E+04;  0.0000000E+00;  3.6980379E+04;  1.9315392E+00;  0.0000000E+00;  4.1175589E-02;  5.7491372E+03;
  1.8617525E+00;  9.9999998E-03;  4.1105259E-02;9880;  1.2939153E+00;  0.0000000E+00;  2.6342242E-03;  9.9370239E+02;  1.2469828E-01; -4.4095361E+03;3; -6.9132172E+01;  0.0000000E+00; -1.9211552E+01;0;  1.9727179E+00;  2.7469904E+04;  0.0000000E+00;  1.0096194E+01;  4.0000000E+04;  0.0000000E+00;  3.6980387E+04;  1.9315426E+00;  0.0000000E+00;  4.1175194E-02;  5.7491387E+03;
  1.8619028E+00;  9.9999998E-03; -3.0691598E-02;9873;  1.2985924E+00;  0.0000000E+00; -1.7686823E-03;  9.9356238E+02;  1.2469570E-01; -4.5062905E+03;3; -6.3156662E+01;  0.0000000E+00;  8.8102856E+00;0;  1.9744574E+00;  2.7470086E+04;  0.0000000E+00;  5.7594790E+00;  4.0000000E+04;  0.0000000E+00;  3.6972363E+04;  1.9329655E+00;  0.0000000E+00;  4.1491859E-02;  3.9097334E+03;
  1.8619028E+00;  9.9999998E-03;  3.0691929E-02;9879;  1.2985932E+00;  0.0000000E+00;  1.7695493E-03;  9.9356244E+02;  1.2469545E-01; -4.5062480E+03;3; -6.3156784E+01;  0.0000000E+00; -8.8109169E+00;0;  1.9744613E+00;  2.7470068E+04;  0.0000000E+00;  5.7593541E+00;  4.0000000E+04;  0.0000000E+00;  3.6972359E+04;  1.9329695E+00;  0.0000000E+00;  4.1491918E-02;  3.9096309E+03;
  1.8619999E+00;  9.9999998E-03; -2.0404009E-02;9874;  1.3011861E+00;  0.0000000E+00; -4.6780580E-04;  9.9342267E+02;  1.2469436E-01; -4.6032432E+03;3; -6.0237320E+01;  0.0000000E+00;  3.5768478E+00;0;  1.9745914E+00;  2.7468740E+04;  0.0000000E+00;  2.5332382E+00;  4.0000000E+04;  0.0000000E+00;  3.6965098E+04;  1.9328197E+00;  0.0000000E+00;  4.1771706E-02;  3.0530830E+03;
  1.8619999E+00;  9.9999998E-03;  2.0404324E-02;9878;  1.3011861E+00;  0.0000000E+00;  4.6843966E-04;  9.9342267E+02;  1.2469436E-01; -4.6032432E+03;3; -6.0237354E+01;  0.0000000E+00; -3.5769730E+00;0;  1.9745908E+00;  2.7468736E+04;  0.0000000E+00;  2.5332096E+00;  4.0000000E+04;  0.0000000E+00;  3.6965094E+04;  1.9328192E+00;  0.0000000E+00;  4.1771472E-02;  3.0530667E+03;
  1.8620669E+00;  9.9999998E-03;  1.5427533E-07;9876;  1.3030638E+00;  0.0000000E+00;  3.1408649E-07;  9.9330811E+02;  1.2469470E-01; -4.6828257E+03;3; -5.8872639E+01;  0.0000000E+00; -6.7055225E-05;0;  1.9755937E+00;  2.7467090E+04;  0.0000000E+00;  2.4848837E-11;  4.0000000E+04;  0.0000000E+00;  3.6959441E+04;  1.9332627E+00;  0.0000000E+00;  4.2331014E-02;  2.9332249E+03;
  1.8620517E+00;  9.9999998E-03; -1.0193442E-02;9875;  1.3026191E+00;  0.0000000E+00;  3.8307819E-05;  9.9333575E+02;  1.2469493E-01; -4.6636064E+03;3; -5.9193081E+01;  0.0000000E+00;  1.7654600E+00;0;  1.9753008E+00;  2.7467264E+04;  0.0000000E+00;  6.1602539E-01;  4.0000000E+04;  0.0000000E+00;  3.6960918E+04;  1.9331330E+00;  0.0000000E+00;  4.2167805E-02;  2.9106450E+03;
  1.8620517E+00;  9.9999998E-03;  1.0193751E-02;9877;  1.3026191E+00;  0.0000000E+00; -3.7696507E-05;  9.9333575E+02;  1.2469526E-01; -4.6636064E+03;3; -5.9192970E+01;  0.0000000E+00; -1.7655734E+00;0;  1.9753020E+00;  2.7467266E+04;  0.0000000E+00;  6.1601847E-01;  4.0000000E+04;  0.0000000E+00;  3.6960918E+04;  1.9331343E+00;  0.0000000E+00;  4.2167682E-02;  2.9106467E+03;
  1.8717897E+00;  9.9999998E-03; -9.4845824E-02;9903;  1.2195005E+00;  0.0000000E+00; -1.3139863E-02;  9.9251855E+02;  1.2418451E-01; -5.1364165E+03;3; -1.1437268E+02;  0.0000000E+00;  9.1313200E+00;0;  1.7832123E+00;  2.7801648E+04;  0.0000000E+00;  2.8698107E+01;  4.0000000E+04;  0.0000000E+00;  3.6755379E+04;  1.7034900E+00;  0.0000000E+00;  7.9722255E-02;  1.6605885E+04;
  1.8721611E+00;  9.9999998E-03; -8.4257208E-02;9904;  1.2454764E+00;  0.0000000E+00; -9.0609873E-03;  9.9296515E+02;  1.2417309E-01; -4.8261460E+03;3; -1.0790257E+02;  0.0000000E+00;  1.6800846E+01;0;  1.8784837E+00;  2.7834867E+04;  0.0000000E+00;  2.6987877E+01;  4.0000000E+04;  0.0000000E+00;  3.6750555E+04;  1.8019421E+00;  0.0000000E+00;  7.6541588E-02;  1.4866016E+04;
  1.8724971E+00;  9.9999998E-03; -7.3604159E-02;9905;  1.2670841E+00;  0.0000000E+00; -7.8860391E-03;  9.9344849E+02;  1.2416444E-01; -4.4914878E+03;3; -1.0112223E+02;  0.0000000E+00;  2.3655676E+01;0;  1.9394628E+00;  2.7864125E+04;  0.0000000E+00;  2.4255543E+01;  4.0000000E+04;  0.0000000E+00;  3.6751922E+04;  1.8590226E+00;  0.0000000E+00;  8.0440179E-02;  1.2725619E+04;
  1.8727894E+00;  9.9999998E-03; -6.2895112E-02;9906;  1.2848126E+00;  0.0000000E+00; -8.6558275E-03;  9.9390063E+02;  1.2415635E-01; -4.1790083E+03;3; -9.2820221E+01;  0.0000000E+00;  2.6299707E+01;0;  1.9765089E+00;  2.7888148E+04;  0.0000000E+00;  2.1069906E+01;  4.0000000E+04;  0.0000000E+00;  3.6757164E+04;  1.8896043E+00;  0.0000000E+00;  8.6904570E-02;  1.0486876E+04;
  1.8727894E+00;  9.9999998E-03;  6.2895410E-02;9918;  1.2848115E+00;  0.0000000E+00;  8.6568873E-03;  9.9390063E+02;  1.2415672E-01; -4.1790083E+03;3; -9.2819664E+01;  0.0000000E+00; -2.6299372E+01;0;  1.9765033E+00;  2.7888156E+04;  0.0000000E+00;  2.1070229E+01;  4.0000000E+04;  0.0000000E+00;  3.6757164E+04;  1.8895985E+00;  0.0000000E+00;  8.6904719E-02;  1.0487017E+04;
  1.8730314E+00;  9.9999998E-03; -5.2155990E-02;9907;  1.2984231E+00;  0.0000000E+00; -9.7998604E-03;  9.9424481E+02;  1.2414958E-01; -3.9412563E+03;3; -8.4063408E+01;  0.0000000E+00;  2.4516430E+01;0;  1.9933373E+00;  2.7906127E+04;  0.0000000E+00;  1.7572550E+01;  4.0000000E+04;  0.0000000E+00;  3.6762316E+04;  1.9004877E+00;  0.0000000E+00;  9.2849605E-02;  8.2903262E+03;
  1.8730314E+00;  9.9999998E-03;  5.2156296E-02;9917;  1.2984223E+00;  0.0000000E+00;  9.8007638E-03;  9.9424481E+02;  1.2414957E-01; -3.9412563E+03;3; -8.4062904E+01;  0.0000000E+00; -2.4516094E+01;0;  1.9933310E+00;  2.7906127E+04;  0.0000000E+00;  1.7572666E+01;  4.0000000E+04;  0.0000000E+00;  3.6762320E+04;  1.9004816E+00;  0.0000000E+00;  9.2849359E-02;  8.2903887E+03;
  1.8732263E+00;  9.9999998E-03; -4.1448120E-02;9908;  1.3077120E+00;  0.0000000E+00; -8.9243557E-03;  9.9441156E+02;  1.2414485E-01; -3.8255198E+03;3; -7.4731148E+01;  0.0000000E+00;  1.4369775E+01;0;  1.9921223E+00;  2.7916973E+04;  0.0000000E+00;  1.3505904E+01;  4.0000000E+04;  0.0000000E+00;  3.6763273E+04;  1.8962054E+00;  0.0000000E+00;  9.5916890E-02;  6.1424561E+03;
  1.8732263E+00;  9.9999998E-03;  4.1448433E-02;9916;  1.3077120E+00;  0.0000000E+00;  8.9251464E-03;  9.9441156E+02;  1.2414485E-01; -3.8255198E+03;3; -7.4731133E+01;  0.0000000E+00; -1.4369705E+01;0;  1.9921227E+00;  2.7916988E+04;  0.0000000E+00;  1.3505917E+01;  4.0000000E+04;  0.0000000E+00;  3.6763277E+04;  1.8962061E+00;  0.0000000E+00;  9.5916480E-02;  6.1424648E+03;
  1.8733768E+00;  9.9999998E-03; -3.0850720E-02;9909;  1.3130094E+00;  0.0000000E+00; -4.3648109E-03;  9.9437408E+02;  1.2414286E-01; -3.8499954E+03;3; -6.8179932E+01;  0.0000000E+00;  5.7109690E+00;0;  1.9790131E+00;  2.7920934E+04;  0.0000000E+00;  8.9127874E+00;  4.0000000E+04;  0.0000000E+00;  3.6757145E+04;  1.8825961E+00;  0.0000000E+00;  9.6416920E-02;  4.1796162E+03;
  1.8733768E+00;  9.9999998E-03;  3.0851027E-02;9915;  1.3130095E+00;  0.0000000E+00;  4.3655639E-03;  9.9437408E+02;  1.2414286E-01; -3.8499954E+03;3; -6.8179932E+01;  0.0000000E+00; -5.7110519E+00;0;  1.9790144E+00;  2.7920939E+04;  0.0000000E+00;  8.9127884E+00;  4.0000000E+04;  0.0000000E+00;  3.6757148E+04;  1.8825978E+00;  0.0000000E+00;  9.6416593E-02;  4.1796211E+03;
  1.8734868E+00;  9.9999998E-03; -2.0432718E-02;9910;  1.3163102E+00;  0.0000000E+00; -6.5403309E-04;  9.9419019E+02;  1.2414226E-01; -3.9749758E+03;3; -6.5661713E+01;  0.0000000E+00;  3.8726971E+00;0;  1.9704375E+00;  2.7919818E+04;  0.0000000E+00;  4.4260178E+00;  4.0000000E+04;  0.0000000E+00;  3.6746270E+04;  1.8722798E+00;  0.0000000E+00;  9.8157756E-02;  2.8409626E+03;
  1.8734868E+00;  9.9999998E-03;  2.0433029E-02;9914;  1.3163093E+00;  0.0000000E+00;  6.5467833E-04;  9.9419012E+02;  1.2414224E-01; -3.9750166E+03;3; -6.5661919E+01;  0.0000000E+00; -3.8728118E+00;0;  1.9704309E+00;  2.7919826E+04;  0.0000000E+00;  4.4260058E+00;  4.0000000E+04;  0.0000000E+00;  3.6746273E+04;  1.8722734E+00;  0.0000000E+00;  9.8157384E-02;  2.8409651E+03;
  1.8735549E+00;  9.9999998E-03; -1.0178621E-02;9911;  1.3183464E+00;  0.0000000E+00;  4.5393026E-04;  9.9400464E+02;  1.2414472E-01; -4.1013101E+03;3; -6.4319977E+01;  0.0000000E+00;  1.6334022E+00;0;  1.9676350E+00;  2.7916883E+04;  0.0000000E+00;  1.1663027E+00;  4.0000000E+04;  0.0000000E+00;  3.6736324E+04;  1.8673385E+00;  0.0000000E+00;  1.0029653E-01;  2.5084590E+03;
  1.8735549E+00;  9.9999998E-03;  1.0178932E-02;9913;  1.3183461E+00;  0.0000000E+00; -4.5322417E-04;  9.9400464E+02;  1.2414405E-01; -4.1013105E+03;3; -6.4319801E+01;  0.0000000E+00; -1.6335175E+00;0;  1.9676321E+00;  2.7916891E+04;  0.0000000E+00;  1.1662980E+00;  4.0000000E+04;  0.0000000E+00;  3.6736324E+04;  1.8673359E+00;  0.0000000E+00;  1.0029616E-01;  2.5085034E+03;
  1.8735776E+00;  9.9999998E-03;  1.5515464E-07;9912;  1.3190334E+00;  0.0000000E+00;  3.9686518E-07;  9.9393207E+02;  1.2414488E-01; -4.1507798E+03;3; -6.3880104E+01;  0.0000000E+00; -9.0777874E-05;0;  1.9670899E+00;  2.7915855E+04;  0.0000000E+00;  2.4218896E-11;  4.0000000E+04;  0.0000000E+00;  3.6732668E+04;  1.8658847E+00;  0.0000000E+00;  1.0120519E-01;  2.5646956E+03;
  1.8834089E+00;  9.9999998E-03; -9.5220320E-02;9937;  1.2272199E+00;  0.0000000E+00; -2.2142770E-02;  9.9366833E+02;  1.2371427E-01; -4.2419741E+03;3; -1.2349598E+02;  0.0000000E+00;  8.4270372E+00;0;  1.7532636E+00;  2.8227963E+04;  0.0000000E+00;  1.1109950E+01;  4.0000000E+04;  0.0000000E+00;  3.6554062E+04;  1.6234562E+00;  0.0000000E+00;  1.2980738E-01;  7.8257539E+03;
  1.8837487E+00;  9.9999998E-03; -8.4658414E-02;9938;  1.2536240E+00;  0.0000000E+00; -1.8257603E-02;  9.9383820E+02;  1.2370908E-01; -4.1251074E+03;3; -1.1778054E+02;  0.0000000E+00;  1.5796422E+01;0;  1.8666549E+00;  2.8250391E+04;  0.0000000E+00;  1.3761690E+01;  4.0000000E+04;  0.0000000E+00;  3.6540469E+04;  1.7407347E+00;  0.0000000E+00;  1.2592022E-01;  8.1402446E+03;
  1.8840560E+00;  9.9999998E-03; -7.4044265E-02;9939;  1.2767287E+00;  0.0000000E+00; -1.6902057E-02;  9.9411908E+02;  1.2370355E-01; -3.9344011E+03;3; -1.1051826E+02;  0.0000000E+00;  2.1776934E+01;0;  1.9497412E+00;  2.8274119E+04;  0.0000000E+00;  1.4651106E+01;  4.0000000E+04;  0.0000000E+00;  3.6533898E+04;  1.8187335E+00;  0.0000000E+00;  1.3100782E-01;  7.7470391E+03;
  1.8843255E+00;  9.9999998E-03; -6.3383915E-02;9940;  1.2959713E+00;  0.0000000E+00; -1.7233709E-02;  9.9444458E+02;  1.2369739E-01; -3.7144441E+03;3; -1.0186751E+02;  0.0000000E+00;  2.3909687E+01;0;  2.0023394E+00;  2.8296035E+04;  0.0000000E+00;  1.4216832E+01;  4.0000000E+04;  0.0000000E+00;  3.6532215E+04;  1.8625019E+00;  0.0000000E+00;  1.3983738E-01;  6.8810239E+03;
  1.8843255E+00;  9.9999998E-03;  6.3384220E-02;9952;  1.2959720E+00;  0.0000000E+00;  1.7234191E-02;  9.9444452E+02;  1.2369739E-01; -3.7145237E+03;3; -1.0186800E+02;  0.0000000E+00; -2.3909853E+01;0;  2.0023444E+00;  2.8296029E+04;  0.0000000E+00;  1.4216949E+01;  4.0000000E+04;  0.0000000E+00;  3.6532207E+04;  1.8625081E+00;  0.0000000E+00;  1.3983642E-01;  6.8810703E+03;
  1.8845515E+00;  9.9999998E-03; -5.2674524E-02;9941;  1.3106332E+00;  0.0000000E+00; -1.7337210E-02;  9.9478589E+02;  1.2369174E-01; -3.4845198E+03;3; -9.2440208E+01;  0.0000000E+00;  2.1029617E+01;0;  2.0220709E+00;  2.8315621E+04;  0.0000000E+00;  1.3097172E+01;  4.0000000E+04;  0.0000000E+00;  3.6534895E+04;  1.8745944E+00;  0.0000000E+00;  1.4747648E-01;  5.8117642E+03;
  1.8845515E+00;  9.9999998E-03;  5.2674826E-02;9951;  1.3106329E+00;  0.0000000E+00;  1.7337829E-02;  9.9478583E+02;  1.2369204E-01; -3.4845596E+03;3; -9.2440582E+01;  0.0000000E+00; -2.1029289E+01;0;  2.0220695E+00;  2.8315617E+04;  0.0000000E+00;  1.3097454E+01;  4.0000000E+04;  0.0000000E+00;  3.6534891E+04;  1.8745936E+00;  0.0000000E+00;  1.4747575E-01;  5.8118672E+03;
  1.8847342E+00;  9.9999998E-03; -4.1931219E-02;9942;  1.3206875E+00;  0.0000000E+00; -1.5093972E-02;  9.9507208E+02;  1.2368826E-01; -3.2919619E+03;3; -8.2408943E+01;  0.0000000E+00;  1.1348863E+01;0;  2.0141346E+00;  2.8330586E+04;  0.0000000E+00;  1.1412325E+01;  4.0000000E+04;  0.0000000E+00;  3.6538527E+04;  1.8627691E+00;  0.0000000E+00;  1.5136558E-01;  4.6561035E+03;
  1.8847342E+00;  9.9999998E-03;  4.1931529E-02;9950;  1.3206850E+00;  0.0000000E+00;  1.5094806E-02;  9.9507220E+02;  1.2368818E-01; -3.2918823E+03;3; -8.2407738E+01;  0.0000000E+00; -1.1347413E+01;0;  2.0141110E+00;  2.8330602E+04;  0.0000000E+00;  1.1412355E+01;  4.0000000E+04;  0.0000000E+00;  3.6538531E+04;  1.8627460E+00;  0.0000000E+00;  1.5136509E-01;  4.6561064E+03;
  1.8848768E+00;  9.9999998E-03; -3.1216510E-02;9943;  1.3266513E+00;  0.0000000E+00; -8.8939052E-03;  9.9518787E+02;  1.2368763E-01; -3.2135903E+03;3; -7.6167152E+01;  0.0000000E+00;  5.4895253E+00;0;  1.9897931E+00;  2.8339094E+04;  0.0000000E+00;  8.7388487E+00;  4.0000000E+04;  0.0000000E+00;  3.6536992E+04;  1.8378940E+00;  0.0000000E+00;  1.5189910E-01;  3.4027522E+03;
  1.8848768E+00;  9.9999998E-03;  3.1216823E-02;9949;  1.3266522E+00;  0.0000000E+00;  8.8947397E-03;  9.9518781E+02;  1.2368762E-01; -3.2136301E+03;3; -7.6167213E+01;  0.0000000E+00; -5.4896235E+00;0;  1.9898020E+00;  2.8339086E+04;  0.0000000E+00;  8.7388382E+00;  4.0000000E+04;  0.0000000E+00;  3.6536988E+04;  1.8379035E+00;  0.0000000E+00;  1.5189846E-01;  3.4027566E+03;
  1.8849827E+00;  9.9999998E-03; -2.0636344E-02;9944;  1.3305893E+00;  0.0000000E+00; -3.1466982E-03;  9.9506757E+02;  1.2368706E-01; -3.2931887E+03;3; -7.3134811E+01;  0.0000000E+00;  4.0732446E+00;0;  1.9737551E+00;  2.8340988E+04;  0.0000000E+00;  4.9934778E+00;  4.0000000E+04;  0.0000000E+00;  3.6526824E+04;  1.8196357E+00;  0.0000000E+00;  1.5411943E-01;  2.2401042E+03;
  1.8849828E+00;  9.9999998E-03;  2.0636667E-02;9948;  1.3305885E+00;  0.0000000E+00;  3.1477518E-03;  9.9506750E+02;  1.2368705E-01; -3.2932285E+03;3; -7.3135551E+01;  0.0000000E+00; -4.0734096E+00;0;  1.9737475E+00;  2.8340980E+04;  0.0000000E+00;  4.9933934E+00;  4.0000000E+04;  0.0000000E+00;  3.6526828E+04;  1.8196282E+00;  0.0000000E+00;  1.5411919E-01;  2.2400520E+03;
  1.8850510E+00;  9.9999998E-03; -1.0255381E-02;9945;  1.3330541E+00;  0.0000000E+00; -2.9132224E-04;  9.9483868E+02;  1.2368863E-01; -3.4454858E+03;3; -7.1438660E+01;  0.0000000E+00;  2.2387137E+00;0;  1.9680613E+00;  2.8338340E+04;  0.0000000E+00;  1.4427832E+00;  4.0000000E+04;  0.0000000E+00;  3.6514086E+04;  1.8107630E+00;  0.0000000E+00;  1.5729836E-01;  1.8176613E+03;
  1.8850511E+00;  9.9999998E-03;  1.0255703E-02;9947;  1.3330543E+00;  0.0000000E+00;  2.9244926E-04;  9.9483875E+02;  1.2368865E-01; -3.4454060E+03;3; -7.1438637E+01;  0.0000000E+00; -2.2388043E+00;0;  1.9680616E+00;  2.8338332E+04;  0.0000000E+00;  1.4427491E+00;  4.0000000E+04;  0.0000000E+00;  3.6514086E+04;  1.8107634E+00;  0.0000000E+00;  1.5729822E-01;  1.8175889E+03;
  1.8850747E+00;  9.9999998E-03;  1.5634792E-07;9946;  1.3338968E+00;  0.0000000E+00;  4.9993452E-07;  9.9473041E+02;  1.2368976E-01; -3.5175608E+03;3; -7.0894356E+01;  0.0000000E+00; -5.9217215E-05;0;  1.9670312E+00;  2.8336953E+04;  0.0000000E+00;  2.2311457E-11;  4.0000000E+04;  0.0000000E+00;  3.6508254E+04;  1.8082104E+00;  0.0000000E+00;  1.5882082E-01;  1.8969008E+03;
  1.8950167E+00;  9.9999998E-03; -9.5526911E-02;9968;  1.2363535E+00;  0.0000000E+00; -3.0293159E-02;  9.9518921E+02;  1.2332022E-01; -3.1400786E+03;3; -1.2883786E+02;  0.0000000E+00;  8.9609709E+00;0;  1.6841807E+00;  2.8635434E+04;  0.0000000E+00; -6.3133616E+00;  4.0000000E+04;  0.0000000E+00;  3.6366504E+04;  1.5002298E+00;  0.0000000E+00;  1.8395093E-01;  1.5534008E+03;
  1.8953285E+00;  9.9999998E-03; -8.4982313E-02;9969;  1.2631154E+00;  0.0000000E+00; -2.6742693E-02;  9.9514539E+02;  1.2331946E-01; -3.1663896E+03;3; -1.2404149E+02;  0.0000000E+00;  1.4280716E+01;0;  1.8204172E+00;  2.8649824E+04;  0.0000000E+00; -2.6090918E+00;  4.0000000E+04;  0.0000000E+00;  3.6346586E+04;  1.6412423E+00;  0.0000000E+00;  1.7917494E-01;  1.7421056E+03;
  1.8956115E+00;  9.9999998E-03; -7.4395552E-02;9970;  1.2869647E+00;  0.0000000E+00; -2.5333174E-02;  9.9520966E+02;  1.2331866E-01; -3.1224341E+03;3; -1.1800880E+02;  0.0000000E+00;  1.8897209E+01;0;  1.9299662E+00;  2.8666467E+04;  0.0000000E+00;  3.9836445E-01;  4.0000000E+04;  0.0000000E+00;  3.6331547E+04;  1.7450945E+00;  0.0000000E+00;  1.8487170E-01;  2.1412717E+03;
  1.8958603E+00;  9.9999998E-03; -6.3769378E-02;9971;  1.3066859E+00;  0.0000000E+00; -2.4717074E-02;  9.9535364E+02;  1.2331581E-01; -3.0268230E+03;3; -1.0962486E+02;  0.0000000E+00;  1.9230480E+01;0;  1.9985549E+00;  2.8683902E+04;  0.0000000E+00;  2.3851688E+00;  4.0000000E+04;  0.0000000E+00;  3.6321738E+04;  1.8050404E+00;  0.0000000E+00;  1.9351462E-01;  2.2834031E+03;
  1.8958603E+00;  9.9999998E-03;  6.3769691E-02;9983;  1.3066860E+00;  0.0000000E+00;  2.4718028E-02;  9.9535370E+02;  1.2331582E-01; -3.0267842E+03;3; -1.0962488E+02;  0.0000000E+00; -1.9230854E+01;0;  1.9985583E+00;  2.8683881E+04;  0.0000000E+00;  2.3851593E+00;  4.0000000E+04;  0.0000000E+00;  3.6321738E+04;  1.8050438E+00;  0.0000000E+00;  1.9351450E-01;  2.2834082E+03;
  1.8960714E+00;  9.9999998E-03; -5.3103488E-02;9972;  1.3221021E+00;  0.0000000E+00; -2.3305481E-02;  9.9555457E+02;  1.2331254E-01; -2.8945127E+03;3; -1.0008163E+02;  0.0000000E+00;  1.5429399E+01;0;  2.0290635E+00;  2.8701039E+04;  0.0000000E+00;  3.5247269E+00;  4.0000000E+04;  0.0000000E+00;  3.6316648E+04;  1.8284733E+00;  0.0000000E+00;  2.0059021E-01;  2.1708904E+03;
  1.8960714E+00;  9.9999998E-03;  5.3103849E-02;9982;  1.3221016E+00;  0.0000000E+00;  2.3306381E-02;  9.9555457E+02;  1.2331286E-01; -2.8945127E+03;3; -1.0008224E+02;  0.0000000E+00; -1.5429565E+01;0;  2.0290601E+00;  2.8701020E+04;  0.0000000E+00;  3.5236111E+00;  4.0000000E+04;  0.0000000E+00;  3.6316648E+04;  1.8284701E+00;  0.0000000E+00;  2.0058995E-01;  2.1706052E+03;
  1.8962437E+00;  9.9999998E-03; -4.2401165E-02;9973;  1.3329777E+00;  0.0000000E+00; -1.9360384E-02;  9.9575928E+02;  1.2330989E-01; -2.7601357E+03;3; -9.0910156E+01;  0.0000000E+00;  8.3375311E+00;0;  2.0245488E+00;  2.8715537E+04;  0.0000000E+00;  4.0359244E+00;  4.0000000E+04;  0.0000000E+00;  3.6314730E+04;  1.8207897E+00;  0.0000000E+00;  2.0375906E-01;  1.8972491E+03;
  1.8962437E+00;  9.9999998E-03;  4.2401504E-02;9981;  1.3329775E+00;  0.0000000E+00;  1.9361805E-02;  9.9575934E+02;  1.2330990E-01; -2.7600579E+03;3; -9.0909843E+01;  0.0000000E+00; -8.3375072E+00;0;  2.0245476E+00;  2.8715541E+04;  0.0000000E+00;  4.0354161E+00;  4.0000000E+04;  0.0000000E+00;  3.6314727E+04;  1.8207881E+00;  0.0000000E+00;  2.0375933E-01;  1.8971210E+03;
  1.8963774E+00;  9.9999998E-03; -3.1676583E-02;9974;  1.3402331E+00;  0.0000000E+00; -1.3392937E-02;  9.9589923E+02;  1.2330785E-01; -2.6681782E+03;3; -8.5451416E+01;  0.0000000E+00;  5.9932051E+00;0;  2.0058255E+00;  2.8726248E+04;  0.0000000E+00;  3.9450846E+00;  4.0000000E+04;  0.0000000E+00;  3.6313172E+04;  1.7999074E+00;  0.0000000E+00;  2.0591813E-01;  1.5295708E+03;
  1.8963774E+00;  9.9999998E-03;  3.1676900E-02;9980;  1.3402325E+00;  0.0000000E+00;  1.3393693E-02;  9.9589917E+02;  1.2330765E-01; -2.6682561E+03;3; -8.5451645E+01;  0.0000000E+00; -5.9933782E+00;0;  2.0058184E+00;  2.8726236E+04;  0.0000000E+00;  3.9450707E+00;  4.0000000E+04;  0.0000000E+00;  3.6313172E+04;  1.7999010E+00;  0.0000000E+00;  2.0591733E-01;  1.5295756E+03;
  1.8964748E+00;  9.9999998E-03; -2.0993592E-02;9975;  1.3450006E+00;  0.0000000E+00; -7.1161389E-03;  9.9588190E+02;  1.2330707E-01; -2.6788574E+03;3; -8.1840469E+01;  0.0000000E+00;  4.2267370E+00;0;  1.9898798E+00;  2.8731260E+04;  0.0000000E+00;  2.8176742E+00;  4.0000000E+04;  0.0000000E+00;  3.6306531E+04;  1.7810366E+00;  0.0000000E+00;  2.0884320E-01;  1.0786794E+03;
  1.8964748E+00;  9.9999998E-03;  2.0993918E-02;9979;  1.3449996E+00;  0.0000000E+00;  7.1165580E-03;  9.9588171E+02;  1.2330706E-01; -2.6789739E+03;3; -8.1841377E+01;  0.0000000E+00; -4.2270007E+00;0;  1.9898698E+00;  2.8731285E+04;  0.0000000E+00;  2.8175702E+00;  4.0000000E+04;  0.0000000E+00;  3.6306527E+04;  1.7810276E+00;  0.0000000E+00;  2.0884223E-01;  1.0787146E+03;
  1.8965371E+00;  9.9999998E-03; -1.0440590E-02;9976;  1.3478446E+00;  0.0000000E+00; -2.4219917E-03;  9.9571863E+02;  1.2330698E-01; -2.7846941E+03;3; -7.9843872E+01;  0.0000000E+00;  2.2763102E+00;0;  1.9828814E+00;  2.8731162E+04;  0.0000000E+00;  9.4431841E-01;  4.0000000E+04;  0.0000000E+00;  3.6295145E+04;  1.7705666E+00;  0.0000000E+00;  2.1231481E-01;  8.7756854E+02;
  1.8965369E+00;  9.9999998E-03;  1.0440913E-02;9978;  1.3478439E+00;  0.0000000E+00;  2.4231295E-03;  9.9571857E+02;  1.2330682E-01; -2.7847327E+03;3; -7.9843948E+01;  0.0000000E+00; -2.2764444E+00;0;  1.9828731E+00;  2.8731152E+04;  0.0000000E+00;  9.4427937E-01;  4.0000000E+04;  0.0000000E+00;  3.6295141E+04;  1.7705585E+00;  0.0000000E+00;  2.1231459E-01;  8.7761890E+02;
  1.8965589E+00;  9.9999998E-03;  1.6031322E-07;9977;  1.3488188E+00;  0.0000000E+00;  6.1168612E-07;  9.9562494E+02;  1.2330751E-01; -2.8454531E+03;3; -7.9207733E+01;  0.0000000E+00; -6.3925982E-05;0;  1.9816859E+00;  2.8730291E+04;  0.0000000E+00;  1.8326606E-11;  4.0000000E+04;  0.0000000E+00;  3.6289848E+04;  1.7676294E+00;  0.0000000E+00;  2.1405649E-01;  9.6134906E+02;
  1.9065833E+00;  9.9999998E-03; -9.5845155E-02;9995;  1.2501401E+00;  0.0000000E+00; -3.7109416E-02;  9.9639386E+02;  1.2300348E-01; -2.2902314E+03;3; -1.2904482E+02;  0.0000000E+00;  1.1497459E+01;0;  1.6469142E+00;  2.9013494E+04;  0.0000000E+00; -4.7249861E+00;  4.0000000E+04;  0.0000000E+00;  3.6159066E+04;  1.4073076E+00;  0.0000000E+00;  2.3960660E-01;  2.6565151E+03;
  1.9068780E+00;  9.9999998E-03; -8.5318841E-02;9996;  1.2745669E+00;  0.0000000E+00; -3.4529459E-02;  9.9626147E+02;  1.2300240E-01; -2.3726150E+03;3; -1.2576489E+02;  0.0000000E+00;  1.4858723E+01;0;  1.7646551E+00;  2.9024080E+04;  0.0000000E+00; -8.2721357E+00;  4.0000000E+04;  0.0000000E+00;  3.6138688E+04;  1.5276917E+00;  0.0000000E+00;  2.3696338E-01;  2.3969219E+03;
  1.9071394E+00;  9.9999998E-03; -7.4754499E-02;9997;  1.2974286E+00;  0.0000000E+00; -3.2192670E-02;  9.9623492E+02;  1.2299972E-01; -2.3879370E+03;3; -1.2098988E+02;  0.0000000E+00;  1.7832512E+01;0;  1.8732634E+00;  2.9038645E+04;  0.0000000E+00; -8.6194096E+00;  4.0000000E+04;  0.0000000E+00;  3.6121410E+04;  1.6346288E+00;  0.0000000E+00;  2.3863459E-01;  1.9518826E+03;
  1.9073690E+00;  9.9999998E-03; -6.4153492E-02;9998;  1.3172102E+00;  0.0000000E+00; -3.0218951E-02;  9.9628485E+02;  1.2299758E-01; -2.3549854E+03;3; -1.1320892E+02;  0.0000000E+00;  1.6434799E+01;0;  1.9548997E+00;  2.9053658E+04;  0.0000000E+00; -7.5147762E+00;  4.0000000E+04;  0.0000000E+00;  3.6107879E+04;  1.7106831E+00;  0.0000000E+00;  2.4421659E-01;  1.4709313E+03;
  1.9073690E+00;  9.9999998E-03;  6.4153820E-02;10010;  1.3172125E+00;  0.0000000E+00;  3.0219685E-02;  9.9628516E+02;  1.2299756E-01; -2.3547964E+03;3; -1.1320570E+02;  0.0000000E+00; -1.6434298E+01;0;  1.9549334E+00;  2.9053643E+04;  0.0000000E+00; -7.5149846E+00;  4.0000000E+04;  0.0000000E+00;  3.6107887E+04;  1.7107177E+00;  0.0000000E+00;  2.4421568E-01;  1.4709744E+03;
  1.9075663E+00;  9.9999998E-03; -5.3520802E-02;9999;  1.3326408E+00;  0.0000000E+00; -2.7122989E-02;  9.9636536E+02;  1.2299609E-01; -2.3028398E+03;3; -1.0462090E+02;  0.0000000E+00;  1.1878396E+01;0;  1.9930737E+00;  2.9067354E+04;  0.0000000E+00; -5.9461188E+00;  4.0000000E+04;  0.0000000E+00;  3.6097574E+04;  1.7443275E+00;  0.0000000E+00;  2.4874617E-01;  1.0576709E+03;
  1.9075662E+00;  9.9999998E-03;  5.3521089E-02;10009;  1.3326401E+00;  0.0000000E+00;  2.7124112E-02;  9.9636536E+02;  1.2299609E-01; -2.3028398E+03;3; -1.0462085E+02;  0.0000000E+00; -1.1878362E+01;0;  1.9930648E+00;  2.9067385E+04;  0.0000000E+00; -5.9455776E+00;  4.0000000E+04;  0.0000000E+00;  3.6097574E+04;  1.7443185E+00;  0.0000000E+00;  2.4874628E-01;  1.0575845E+03;
  1.9077289E+00;  9.9999998E-03; -4.2864449E-02;10000;  1.3442051E+00;  0.0000000E+00; -2.2711081E-02;  9.9645752E+02;  1.2299541E-01; -2.2435706E+03;3; -9.7787041E+01;  0.0000000E+00;  9.1099558E+00;0;  2.0035369E+00;  2.9079260E+04;  0.0000000E+00; -4.3572836E+00;  4.0000000E+04;  0.0000000E+00;  3.6089770E+04;  1.7506392E+00;  0.0000000E+00;  2.5289777E-01;  7.3403851E+02;
  1.9077289E+00;  9.9999998E-03;  4.2864766E-02;10008;  1.3442048E+00;  0.0000000E+00;  2.2711832E-02;  9.9645752E+02;  1.2299498E-01; -2.2435706E+03;3; -9.7787102E+01;  0.0000000E+00; -9.1100245E+00;0;  2.0035326E+00;  2.9079264E+04;  0.0000000E+00; -4.3572550E+00;  4.0000000E+04;  0.0000000E+00;  3.6089773E+04;  1.7506359E+00;  0.0000000E+00;  2.5289673E-01;  7.3403558E+02;
  1.9078555E+00;  9.9999998E-03; -3.2183688E-02;10001;  1.3523917E+00;  0.0000000E+00; -1.7757045E-02;  9.9655054E+02;  1.2299439E-01; -2.1839727E+03;3; -9.2503189E+01;  0.0000000E+00;  6.7267656E+00;0;  1.9991895E+00;  2.9088639E+04;  0.0000000E+00; -2.8031988E+00;  4.0000000E+04;  0.0000000E+00;  3.6084883E+04;  1.7413919E+00;  0.0000000E+00;  2.5779763E-01;  4.8377505E+02;
  1.9078555E+00;  9.9999998E-03;  3.2183975E-02;10007;  1.3523902E+00;  0.0000000E+00;  1.7757304E-02;  9.9655048E+02;  1.2299409E-01; -2.1840105E+03;3; -9.2502937E+01;  0.0000000E+00; -6.7269721E+00;0;  1.9991653E+00;  2.9088689E+04;  0.0000000E+00; -2.8028393E+00;  4.0000000E+04;  0.0000000E+00;  3.6084887E+04;  1.7413692E+00;  0.0000000E+00;  2.5779599E-01;  4.8365204E+02;
  1.9079448E+00;  9.9999998E-03; -2.1473674E-02;10002;  1.3579141E+00;  0.0000000E+00; -1.2178142E-02;  9.9664301E+02;  1.2299415E-01; -2.1249805E+03;3; -8.8740799E+01;  0.0000000E+00;  4.4048147E+00;0;  1.9914880E+00;  2.9095916E+04;  0.0000000E+00; -1.3519057E+00;  4.0000000E+04;  0.0000000E+00;  3.6082855E+04;  1.7294592E+00;  0.0000000E+00;  2.6202878E-01;  2.9012805E+02;
  1.9079448E+00;  9.9999998E-03;  2.1473989E-02;10006;  1.3579131E+00;  0.0000000E+00;  1.2178830E-02;  9.9664307E+02;  1.2299412E-01; -2.1249426E+03;3; -8.8739906E+01;  0.0000000E+00; -4.4048934E+00;0;  1.9914742E+00;  2.9095896E+04;  0.0000000E+00; -1.3518904E+00;  4.0000000E+04;  0.0000000E+00;  3.6082855E+04;  1.7294466E+00;  0.0000000E+00;  2.6202750E-01;  2.9009006E+02;
  1.9079983E+00;  9.9999998E-03; -1.0741100E-02;10003;  1.3610224E+00;  0.0000000E+00; -6.0808989E-03;  9.9670032E+02;  1.2299320E-01; -2.0884133E+03;3; -8.6546715E+01;  0.0000000E+00;  2.1750717E+00;0;  1.9842070E+00;  2.9100041E+04;  0.0000000E+00; -3.4509462E-01;  4.0000000E+04;  0.0000000E+00;  3.6081891E+04;  1.7193438E+00;  0.0000000E+00;  2.6486325E-01;  1.8558145E+02;
  1.9079983E+00;  9.9999998E-03;  1.0741427E-02;10005;  1.3610229E+00;  0.0000000E+00;  6.0826559E-03;  9.9670038E+02;  1.2299255E-01; -2.0883755E+03;3; -8.6546883E+01;  0.0000000E+00; -2.1751420E+00;0;  1.9842165E+00;  2.9100025E+04;  0.0000000E+00; -3.4514466E-01;  4.0000000E+04;  0.0000000E+00;  3.6081898E+04;  1.7193531E+00;  0.0000000E+00;  2.6486334E-01;  1.8566745E+02;
  1.9080161E+00;  9.9999998E-03;  1.6748713E-07;10004;  1.3620329E+00;  0.0000000E+00;  7.3241841E-07;  9.9672009E+02;  1.2299275E-01; -2.0758364E+03;3; -8.5795364E+01;  0.0000000E+00; -4.7653913E-05;0;  1.9815756E+00;  2.9101629E+04;  0.0000000E+00;  6.2202958E-11;  4.0000000E+04;  0.0000000E+00;  3.6081504E+04;  1.7156317E+00;  0.0000000E+00;  2.6594388E-01;  1.6127365E+02;
  1.9180446E+00;  9.9999998E-03; -9.6034423E-02;10017;  1.2692310E+00;  0.0000000E+00; -4.1310474E-02;  9.9815387E+02;  1.2273291E-01; -1.1399045E+03;3; -1.2336023E+02;  0.0000000E+00;  1.8990023E+01;0;  1.6812001E+00;  2.9388156E+04;  0.0000000E+00;  3.8282757E+01;  4.0000000E+04;  0.0000000E+00;  3.5972070E+04;  1.3931891E+00;  0.0000000E+00;  2.8801110E-01;  7.6039351E+03;
  1.9183486E+00;  9.9999998E-03; -8.5572839E-02;10018;  1.2914131E+00;  0.0000000E+00; -4.0785186E-02;  9.9758643E+02;  1.2273940E-01; -1.4891417E+03;3; -1.2211213E+02;  0.0000000E+00;  2.1891226E+01;0;  1.7804281E+00;  2.9386738E+04;  0.0000000E+00;  1.9200891E+01;  4.0000000E+04;  0.0000000E+00;  3.5933484E+04;  1.4840006E+00;  0.0000000E+00;  2.9642752E-01;  4.3523848E+03;
  1.9186107E+00;  9.9999998E-03; -7.5059921E-02;10019;  1.3122125E+00;  0.0000000E+00; -3.9681248E-02;  9.9729077E+02;  1.2274389E-01; -1.6704541E+03;3; -1.1668152E+02;  0.0000000E+00;  1.9085098E+01;0;  1.8694005E+00;  2.9391957E+04;  0.0000000E+00;  7.3792515E+00;  4.0000000E+04;  0.0000000E+00;  3.5905789E+04;  1.5675441E+00;  0.0000000E+00;  3.0185643E-01;  2.5559849E+03;
  1.9188336E+00;  9.9999998E-03; -6.4510047E-02;10020;  1.3310680E+00;  0.0000000E+00; -3.7174907E-02;  9.9716333E+02;  1.2274516E-01; -1.7480553E+03;3; -1.0981207E+02;  0.0000000E+00;  1.5737124E+01;0;  1.9451848E+00;  2.9402039E+04;  0.0000000E+00;  7.0339674E-01;  4.0000000E+04;  0.0000000E+00;  3.5884379E+04;  1.6415319E+00;  0.0000000E+00;  3.0365291E-01;  1.7049772E+03;
  1.9188336E+00;  9.9999998E-03;  6.4510375E-02;10032;  1.3310679E+00;  0.0000000E+00;  3.7175532E-02;  9.9716333E+02;  1.2274516E-01; -1.7480553E+03;3; -1.0981209E+02;  0.0000000E+00; -1.5737098E+01;0;  1.9451841E+00;  2.9402045E+04;  0.0000000E+00;  7.0344561E-01;  4.0000000E+04;  0.0000000E+00;  3.5884371E+04;  1.6415328E+00;  0.0000000E+00;  3.0365136E-01;  1.7049799E+03;
  1.9190207E+00;  9.9999998E-03; -5.3919852E-02;10021;  1.3463038E+00;  0.0000000E+00; -3.3479106E-02;  9.9716345E+02;  1.2274545E-01; -1.7471660E+03;3; -1.0309290E+02;  0.0000000E+00;  1.2619028E+01;0;  1.9886154E+00;  2.9414115E+04;  0.0000000E+00; -2.5209391E+00;  4.0000000E+04;  0.0000000E+00;  3.5869641E+04;  1.6835310E+00;  0.0000000E+00;  3.0508435E-01;  1.3731542E+03;
  1.9190207E+00;  9.9999998E-03;  5.3920168E-02;10031;  1.3463037E+00;  0.0000000E+00;  3.3480264E-02;  9.9716345E+02;  1.2274545E-01; -1.7471660E+03;3; -1.0309283E+02;  0.0000000E+00; -1.2619081E+01;0;  1.9886166E+00;  2.9414090E+04;  0.0000000E+00; -2.5209348E+00;  4.0000000E+04;  0.0000000E+00;  3.5869641E+04;  1.6835321E+00;  0.0000000E+00;  3.0508450E-01;  1.3731555E+03;
  1.9191737E+00;  9.9999998E-03; -4.3300897E-02;10022;  1.3582430E+00;  0.0000000E+00; -2.8923269E-02;  9.9721625E+02;  1.2274475E-01; -1.7140188E+03;3; -9.7234009E+01;  0.0000000E+00;  9.7188082E+00;0;  2.0115597E+00;  2.9425139E+04;  0.0000000E+00; -3.5576224E+00;  4.0000000E+04;  0.0000000E+00;  3.5859867E+04;  1.7039148E+00;  0.0000000E+00;  3.0764490E-01;  1.1858915E+03;
  1.9191737E+00;  9.9999998E-03;  4.3301199E-02;10030;  1.3582462E+00;  0.0000000E+00;  2.8924074E-02;  9.9721637E+02;  1.2274466E-01; -1.7139454E+03;3; -9.7232277E+01;  0.0000000E+00; -9.7185745E+00;0;  2.0116143E+00;  2.9425145E+04;  0.0000000E+00; -3.5575490E+00;  4.0000000E+04;  0.0000000E+00;  3.5859867E+04;  1.7039707E+00;  0.0000000E+00;  3.0764365E-01;  1.1858977E+03;
  1.9192916E+00;  9.9999998E-03; -3.2658860E-02;10023;  1.3670913E+00;  0.0000000E+00; -2.3938056E-02;  9.9732599E+02;  1.2274362E-01; -1.6459333E+03;3; -9.2395340E+01;  0.0000000E+00;  6.9391618E+00;0;  2.0211768E+00;  2.9435084E+04;  0.0000000E+00; -3.3247669E+00;  4.0000000E+04;  0.0000000E+00;  3.5855586E+04;  1.7098316E+00;  0.0000000E+00;  3.1134528E-01;  1.0251033E+03;
  1.9192916E+00;  9.9999998E-03;  3.2659132E-02;10029;  1.3670905E+00;  0.0000000E+00;  2.3937711E-02;  9.9732599E+02;  1.2274370E-01; -1.6459333E+03;3; -9.2394371E+01;  0.0000000E+00; -6.9393721E+00;0;  2.0211592E+00;  2.9435086E+04;  0.0000000E+00; -3.3245566E+00;  4.0000000E+04;  0.0000000E+00;  3.5855602E+04;  1.7098171E+00;  0.0000000E+00;  3.1134200E-01;  1.0250043E+03;
  1.9193735E+00;  9.9999998E-03; -2.1956375E-02;10024;  1.3729047E+00;  0.0000000E+00; -1.8595606E-02;  9.9756311E+02;  1.2274233E-01; -1.4996783E+03;3; -8.8868614E+01;  0.0000000E+00;  4.2073126E+00;0;  2.0187297E+00;  2.9444561E+04;  0.0000000E+00; -2.2772257E+00;  4.0000000E+04;  0.0000000E+00;  3.5860586E+04;  1.7041193E+00;  0.0000000E+00;  3.1461030E-01;  9.7751196E+02;
  1.9193734E+00;  9.9999998E-03;  2.1956634E-02;10028;  1.3729044E+00;  0.0000000E+00;  1.8595776E-02;  9.9756299E+02;  1.2274231E-01; -1.4997518E+03;3; -8.8868599E+01;  0.0000000E+00; -4.2075806E+00;0;  2.0187263E+00;  2.9444598E+04;  0.0000000E+00; -2.2770169E+00;  4.0000000E+04;  0.0000000E+00;  3.5860594E+04;  1.7041177E+00;  0.0000000E+00;  3.1460863E-01;  9.7737268E+02;
  1.9194186E+00;  9.9999998E-03; -1.1087446E-02;10025;  1.3761666E+00;  0.0000000E+00; -1.1093822E-02;  9.9795569E+02;  1.2273847E-01; -1.2579536E+03;3; -8.6600533E+01;  0.0000000E+00;  1.7866666E+00;0;  2.0103319E+00;  2.9453994E+04;  0.0000000E+00; -7.9975969E-01;  4.0000000E+04;  0.0000000E+00;  3.5877102E+04;  1.6956066E+00;  0.0000000E+00;  3.1472531E-01;  1.1813407E+03;
  1.9194186E+00;  9.9999998E-03;  1.1087789E-02;10027;  1.3761668E+00;  0.0000000E+00;  1.1095337E-02;  9.9795569E+02;  1.2273845E-01; -1.2579536E+03;3; -8.6600571E+01;  0.0000000E+00; -1.7867689E+00;0;  2.0103378E+00;  2.9454000E+04;  0.0000000E+00; -7.9979259E-01;  4.0000000E+04;  0.0000000E+00;  3.5877102E+04;  1.6956127E+00;  0.0000000E+00;  3.1472513E-01;  1.1813452E+03;
  1.9194317E+00;  9.9999998E-03;  1.7169199E-07;10026;  1.3772905E+00;  0.0000000E+00;  8.3809670E-07;  9.9819073E+02;  1.2273620E-01; -1.1132625E+03;3; -8.5734673E+01;  0.0000000E+00; -5.1349401E-05;0;  2.0064859E+00;  2.9459186E+04;  0.0000000E+00;  3.4020303E-10;  4.0000000E+04;  0.0000000E+00;  3.5887664E+04;  1.6928596E+00;  0.0000000E+00;  3.1362620E-01;  1.3681198E+03;
  1.9303999E+00;  9.9999998E-03; -5.4110948E-02;10036;  1.3630884E+00;  0.0000000E+00; -4.1092284E-02;  9.9857861E+02;  1.2252849E-01; -8.5076312E+02;3; -9.3004646E+01;  0.0000000E+00;  1.2261440E+01;0;  2.0331309E+00;  2.9758900E+04;  0.0000000E+00;  2.5184446E+01;  4.0000000E+04;  0.0000000E+00;  3.5671062E+04;  1.6619420E+00;  0.0000000E+00;  3.7118888E-01;  4.5769897E+03;
  1.9303999E+00;  9.9999998E-03;  5.4111257E-02;10046;  1.3630881E+00;  0.0000000E+00;  4.1093029E-02;  9.9857861E+02;  1.2252849E-01; -8.5076312E+02;3; -9.3004585E+01;  0.0000000E+00; -1.2261464E+01;0;  2.0331280E+00;  2.9758900E+04;  0.0000000E+00;  2.5184343E+01;  4.0000000E+04;  0.0000000E+00;  3.5671055E+04;  1.6619405E+00;  0.0000000E+00;  3.7118766E-01;  4.5769829E+03;
  1.9305499E+00;  9.9999998E-03; -4.3537527E-02;10037;  1.3743836E+00;  0.0000000E+00; -3.5650879E-02;  9.9848853E+02;  1.2252640E-01; -9.0432532E+02;3; -8.7796921E+01;  0.0000000E+00;  9.1569471E+00;0;  2.0467207E+00;  2.9768895E+04;  0.0000000E+00;  1.6279745E+01;  4.0000000E+04;  0.0000000E+00;  3.5653648E+04;  1.6800783E+00;  0.0000000E+00;  3.6664253E-01;  3.1222656E+03;
  1.9305499E+00;  9.9999998E-03;  4.3537878E-02;10045;  1.3743815E+00;  0.0000000E+00;  3.5651647E-02;  9.9848877E+02;  1.2252612E-01; -9.0418262E+02;3; -8.7794273E+01;  0.0000000E+00; -9.1564169E+00;0;  2.0466864E+00;  2.9768898E+04;  0.0000000E+00;  1.6280346E+01;  4.0000000E+04;  0.0000000E+00;  3.5653641E+04;  1.6800454E+00;  0.0000000E+00;  3.6664110E-01;  3.1223796E+03;
  1.9306636E+00;  9.9999998E-03; -3.2938693E-02;10038;  1.3826458E+00;  0.0000000E+00; -2.9900827E-02;  9.9855206E+02;  1.2252405E-01; -8.6605939E+02;3; -8.3384773E+01;  0.0000000E+00;  6.2164655E+00;0;  2.0479295E+00;  2.9779531E+04;  0.0000000E+00;  1.0144176E+01;  4.0000000E+04;  0.0000000E+00;  3.5646125E+04;  1.6828799E+00;  0.0000000E+00;  3.6504954E-01;  2.1921050E+03;
  1.9306636E+00;  9.9999998E-03;  3.2939024E-02;10044;  1.3826466E+00;  0.0000000E+00;  2.9901911E-02;  9.9855206E+02;  1.2252405E-01; -8.6605939E+02;3; -8.3384575E+01;  0.0000000E+00; -6.2166114E+00;0;  2.0479438E+00;  2.9779523E+04;  0.0000000E+00;  1.0144375E+01;  4.0000000E+04;  0.0000000E+00;  3.5646121E+04;  1.6828948E+00;  0.0000000E+00;  3.6504892E-01;  2.1921101E+03;
  1.9307413E+00;  9.9999998E-03; -2.2277361E-02;10039;  1.3880980E+00;  0.0000000E+00; -2.4399290E-02;  9.9885889E+02;  1.2252051E-01; -6.8242377E+02;3; -8.0075356E+01;  0.0000000E+00;  3.3663352E+00;0;  2.0403786E+00;  2.9790590E+04;  0.0000000E+00;  5.6344581E+00;  4.0000000E+04;  0.0000000E+00;  3.5654789E+04;  1.6752684E+00;  0.0000000E+00;  3.6511028E-01;  1.7939562E+03;
  1.9307413E+00;  9.9999998E-03;  2.2277674E-02;10043;  1.3880975E+00;  0.0000000E+00;  2.4399817E-02;  9.9885883E+02;  1.2251982E-01; -6.8245941E+02;3; -8.0075378E+01;  0.0000000E+00; -3.3665633E+00;0;  2.0403714E+00;  2.9790598E+04;  0.0000000E+00;  5.6345148E+00;  4.0000000E+04;  0.0000000E+00;  3.5654785E+04;  1.6752627E+00;  0.0000000E+00;  3.6510885E-01;  1.7939086E+03;
  1.9307814E+00;  9.9999998E-03; -1.1353150E-02;10040;  1.3912846E+00;  0.0000000E+00; -1.6297180E-02;  9.9955096E+02;  1.2251431E-01; -2.6852225E+02;3; -7.7874649E+01;  0.0000000E+00;  9.8293734E-01;0;  2.0281928E+00;  2.9803881E+04;  0.0000000E+00;  1.8425101E+00;  4.0000000E+04;  0.0000000E+00;  3.5688047E+04;  1.6669321E+00;  0.0000000E+00;  3.6126071E-01;  2.1314724E+03;
  1.9307914E+00;  9.9999998E-03;  1.7488033E-07;10041;  1.3924029E+00;  0.0000000E+00;  8.0433762E-07;  1.0000288E+03;  1.2251116E-01;  1.7249996E+01;3; -7.7041374E+01;  0.0000000E+00; -4.3705106E-05;0;  2.0204678E+00;  2.9811762E+04;  0.0000000E+00;  8.9028135E-10;  4.0000000E+04;  0.0000000E+00;  3.5712660E+04;  1.6640974E+00;  0.0000000E+00;  3.5637045E-01;  2.5486912E+03;
  1.9307814E+00;  9.9999998E-03;  1.1353493E-02;10042;  1.3912846E+00;  0.0000000E+00;  1.6298939E-02;  9.9955090E+02;  1.2251431E-01; -2.6855789E+02;3; -7.7875214E+01;  0.0000000E+00; -9.8307562E-01;0;  2.0281930E+00;  2.9803865E+04;  0.0000000E+00;  1.8426359E+00;  4.0000000E+04;  0.0000000E+00;  3.5688051E+04;  1.6669319E+00;  0.0000000E+00;  3.6126101E-01;  2.1314680E+03;
  4.0982161E-03;  9.9999998E-03;  6.9966219E-02;2484;  2.3249772E-03;  0.0000000E+00; -6.1668652E-06;  9.8480420E+02;  1.0000000E-01; -1.2589422E+04;3;  8.9970940E+01;  0.0000000E+00;  3.5597254E-02;0; -9.6849306E-03;  3.8810656E+04;  0.0000000E+00; -4.0278500E-03;  4.0000000E+04;  0.0000000E+00;  4.0000336E+04; -9.8661929E-03;  0.0000000E+00;  1.8126260E-04;  1.2958602E+03;
  4.1122003E-03;  9.9999998E-03;  7.9962611E-02;2485;  2.3275020E-03;  0.0000000E+00; -1.4120764E-05;  9.8480328E+02;  1.0000000E-01; -1.2590212E+04;3;  8.9550873E+01;  0.0000000E+00; -1.6858891E-01;0; -9.7156698E-03;  3.8810941E+04;  0.0000000E+00; -6.2812944E-03;  4.0000000E+04;  0.0000000E+00;  3.9999965E+04; -9.9453609E-03;  0.0000000E+00;  2.2969139E-04;  1.2337439E+03;
  4.1221827E-03;  9.9999998E-03;  8.9961745E-02;2486;  2.3179771E-03;  0.0000000E+00; -2.0658768E-05;  9.8480347E+02;  1.0000000E-01; -1.2590063E+04;3;  8.9220886E+01;  0.0000000E+00; -4.5207614E-01;0; -9.7556515E-03;  3.8811570E+04;  0.0000000E+00; -1.0239611E-02;  4.0000000E+04;  0.0000000E+00;  3.9999363E+04; -1.0040503E-02;  0.0000000E+00;  2.8485167E-04;  1.1752161E+03;
  4.1269744E-03;  9.9999998E-03;  9.9963501E-02;2487;  2.2935835E-03;  0.0000000E+00; -2.4320194E-05;  9.8480988E+02;  1.0000000E-01; -1.2584730E+04;3;  8.8987206E+01;  0.0000000E+00; -8.2268077E-01;0; -9.7990418E-03;  3.8812422E+04;  0.0000000E+00; -1.7325606E-02;  4.0000000E+04;  0.0000000E+00;  3.9998973E+04; -1.0143276E-02;  0.0000000E+00;  3.4423408E-04;  1.1231229E+03;
  4.1255178E-03;  9.9999998E-03;  1.0996680E-01;2488;  2.2536686E-03;  0.0000000E+00; -2.3344472E-05;  9.8482300E+02;  1.0000000E-01; -1.2573866E+04;3;  8.8892365E+01;  0.0000000E+00; -1.2881125E+00;0; -9.8358020E-03;  3.8813598E+04;  0.0000000E+00; -2.9715616E-02;  4.0000000E+04;  0.0000000E+00;  3.9998363E+04; -1.0241114E-02;  0.0000000E+00;  4.0531205E-04;  1.0813240E+03;
  4.1171326E-03;  9.9999998E-03;  1.1997030E-01;2489;  2.2005579E-03;  0.0000000E+00; -1.5729833E-05;  9.8483667E+02;  1.0000000E-01; -1.2562509E+04;3;  8.9033867E+01;  0.0000000E+00; -1.8567115E+00;0; -9.8522762E-03;  3.8815336E+04;  0.0000000E+00; -5.0264675E-02;  4.0000000E+04;  0.0000000E+00;  3.9998648E+04; -1.0318018E-02;  0.0000000E+00;  4.6574272E-04;  1.0566429E+03;
  4.1015754E-03;  9.9999998E-03;  1.2997329E-01;2490;  2.1391809E-03;  0.0000000E+00;  1.3134405E-06;  9.8486151E+02;  1.0000000E-01; -1.2541966E+04;3;  8.9398682E+01;  0.0000000E+00; -2.5390465E+00;0; -9.8325005E-03;  3.8817031E+04;  0.0000000E+00; -8.2065828E-02;  4.0000000E+04;  0.0000000E+00;  3.9999309E+04; -1.0355717E-02;  0.0000000E+00;  5.2321580E-04;  1.0605204E+03;
  4.0787263E-03;  9.9999998E-03;  1.3997586E-01;2491;  2.0774305E-03;  0.0000000E+00;  3.0933730E-05;  9.8490564E+02;  1.0000000E-01; -1.2505375E+04;3;  9.0002106E+01;  0.0000000E+00; -3.3489785E+00;0; -9.7608352E-03;  3.8820016E+04;  0.0000000E+00; -1.2756978E-01;  4.0000000E+04;  0.0000000E+00;  3.9999438E+04; -1.0335755E-02;  0.0000000E+00;  5.7491905E-04;  1.1092264E+03;
  4.0483507E-03;  9.9999998E-03;  1.4997995E-01;2492;  2.0248860E-03;  0.0000000E+00;  7.5028336E-05;  9.8497156E+02;  1.0000000E-01; -1.2450759E+04;3;  9.0900749E+01;  0.0000000E+00; -4.3127317E+00;0; -9.6245287E-03;  3.8824648E+04;  0.0000000E+00; -1.8761164E-01;  4.0000000E+04;  0.0000000E+00;  4.0000672E+04; -1.0241311E-02;  0.0000000E+00;  6.1678252E-04;  1.2212389E+03;
  4.0092221E-03;  9.9999998E-03;  1.5998565E-01;2493;  1.9900550E-03;  0.0000000E+00;  1.3483160E-04;  9.8508533E+02;  1.0000000E-01; -1.2356539E+04;3;  9.1956177E+01;  0.0000000E+00; -5.4736319E+00;0; -9.4151283E-03;  3.8832348E+04;  0.0000000E+00; -2.6094878E-01;  4.0000000E+04;  0.0000000E+00;  4.0001156E+04; -1.0058371E-02;  0.0000000E+00;  6.4324349E-04;  1.4114872E+03;
  3.9576511E-03;  9.9999998E-03;  1.6999100E-01;2494;  1.9794721E-03;  0.0000000E+00;  2.0707039E-04;  9.8526202E+02;  1.0000000E-01; -1.2210124E+04;3;  9.3067787E+01;  0.0000000E+00; -6.9101696E+00;0; -9.1291498E-03;  3.8844043E+04;  0.0000000E+00; -3.4348115E-01;  4.0000000E+04;  0.0000000E+00;  4.0003613E+04; -9.7768139E-03;  0.0000000E+00;  6.4766366E-04;  1.6867802E+03;
  3.8871474E-03;  9.9999998E-03;  1.7999418E-01;2495;  1.9955812E-03;  0.0000000E+00;  2.8324712E-04;  9.8552441E+02;  1.0000000E-01; -1.1992747E+04;3;  9.4013786E+01;  0.0000000E+00; -8.6995640E+00;0; -8.7680910E-03;  3.8861746E+04;  0.0000000E+00; -4.2793140E-01;  4.0000000E+04;  0.0000000E+00;  4.0006211E+04; -9.3911923E-03;  0.0000000E+00;  6.2310131E-04;  2.0427596E+03;
  3.7896242E-03;  9.9999998E-03;  1.8999374E-01;2496;  2.0351792E-03;  0.0000000E+00;  3.5803340E-04;  9.8589166E+02;  1.0000000E-01; -1.1688509E+04;3;  9.4506943E+01;  0.0000000E+00; -1.0876085E+01;0; -8.3387224E-03;  3.8886754E+04;  0.0000000E+00; -5.0433892E-01;  4.0000000E+04;  0.0000000E+00;  4.0009551E+04; -8.9019500E-03;  0.0000000E+00;  5.6322786E-04;  2.4601111E+03;
  3.6546492E-03;  9.9999998E-03;  1.9998902E-01;2497;  2.0879444E-03;  0.0000000E+00;  4.2199981E-04;  9.8637891E+02;  1.0000000E-01; -1.1284816E+04;3;  9.4180893E+01;  0.0000000E+00; -1.3404740E+01;0; -7.8515708E-03;  3.8920801E+04;  0.0000000E+00; -5.6159234E-01;  4.0000000E+04;  0.0000000E+00;  4.0013305E+04; -8.3157569E-03;  0.0000000E+00;  4.6418578E-04;  2.9006431E+03;
  3.4729321E-03;  9.9999998E-03;  2.0997882E-01;2498;  2.1361606E-03;  0.0000000E+00;  4.6795318E-04;  9.8700482E+02;  1.0000000E-01; -1.0766264E+04;3;  9.2535469E+01;  0.0000000E+00; -1.6152409E+01;0; -7.3204958E-03;  3.8964973E+04;  0.0000000E+00; -5.8990467E-01;  4.0000000E+04;  0.0000000E+00;  4.0016684E+04; -7.6466296E-03;  0.0000000E+00;  3.2613362E-04;  3.3040425E+03;
  3.2351434E-03;  9.9999998E-03;  2.1996205E-01;2499;  2.1573550E-03;  0.0000000E+00;  4.9142324E-04;  9.8776874E+02;  1.0000000E-01; -1.0133393E+04;3;  8.9142738E+01;  0.0000000E+00; -1.8914854E+01;0; -6.7609060E-03;  3.9020805E+04;  0.0000000E+00; -5.8367139E-01;  4.0000000E+04;  0.0000000E+00;  4.0020211E+04; -6.9152303E-03;  0.0000000E+00;  1.5432431E-04;  3.5907988E+03;
  2.9372314E-03;  9.9999998E-03;  2.2993846E-01;2500;  2.1268483E-03;  0.0000000E+00;  4.9199123E-04;  9.8866718E+02;  1.0000000E-01; -9.3890186E+03;3;  8.3626091E+01;  0.0000000E+00; -2.1468639E+01;0; -6.1894334E-03;  3.9088129E+04;  0.0000000E+00; -5.4379618E-01;  4.0000000E+04;  0.0000000E+00;  4.0022059E+04; -6.1487015E-03;  0.0000000E+00; -4.0731975E-05;  3.6729194E+03;
  1.3548008E-02;  9.9999998E-03;  6.9976717E-02;2544;  1.2435431E-03;  0.0000000E+00; -1.5065838E-06;  9.8830743E+02;  1.0000000E-01; -9.6870840E+03;3;  5.3952419E+01;  0.0000000E+00;  4.2239163E-02;0; -1.2191952E-02;  3.9079777E+04;  0.0000000E+00; -6.5576085E-03;  4.0000000E+04;  0.0000000E+00;  3.9999133E+04; -1.2406480E-02;  0.0000000E+00;  2.1452707E-04;  9.6226355E+02;
  1.3558771E-02;  9.9999998E-03;  7.9974212E-02;2545;  1.2484514E-03;  0.0000000E+00; -7.9115962E-06;  9.8831610E+02;  1.0000000E-01; -9.6798740E+03;3;  5.3578194E+01;  0.0000000E+00; -1.3077223E-01;0; -1.2214893E-02;  3.9080891E+04;  0.0000000E+00; -9.5896190E-03;  4.0000000E+04;  0.0000000E+00;  3.9999035E+04; -1.2480765E-02;  0.0000000E+00;  2.6587187E-04;  9.1841687E+02;
  1.3565597E-02;  9.9999998E-03;  8.9973949E-02;2546;  1.2401481E-03;  0.0000000E+00; -1.2937986E-05;  9.8832104E+02;  1.0000000E-01; -9.6757754E+03;3;  5.3353054E+01;  0.0000000E+00; -3.7093955E-01;0; -1.2244618E-02;  3.9081711E+04;  0.0000000E+00; -1.4731188E-02;  4.0000000E+04;  0.0000000E+00;  3.9999434E+04; -1.2566901E-02;  0.0000000E+00;  3.2228197E-04;  8.8221057E+02;
  1.3567512E-02;  9.9999998E-03;  9.9975772E-02;2547;  1.2151607E-03;  0.0000000E+00; -1.5591950E-05;  9.8833026E+02;  1.0000000E-01; -9.6681709E+03;3;  5.3248528E+01;  0.0000000E+00; -6.8498719E-01;0; -1.2275114E-02;  3.9083008E+04;  0.0000000E+00; -2.3805561E-02;  4.0000000E+04;  0.0000000E+00;  3.9999352E+04; -1.2656138E-02;  0.0000000E+00;  3.8102461E-04;  8.5268237E+02;
  1.3564225E-02;  9.9999998E-03;  1.0997887E-01;2548;  1.1724978E-03;  0.0000000E+00; -1.4885982E-05;  9.8833923E+02;  1.0000000E-01; -9.6607148E+03;3;  5.3316887E+01;  0.0000000E+00; -1.0796014E+00;0; -1.2296532E-02;  3.9083926E+04;  0.0000000E+00; -3.9646208E-02;  4.0000000E+04;  0.0000000E+00;  3.9999414E+04; -1.2736327E-02;  0.0000000E+00;  4.3979503E-04;  8.2919403E+02;
  1.3555956E-02;  9.9999998E-03;  1.1998237E-01;2549;  1.1141746E-03;  0.0000000E+00; -1.0136691E-05;  9.8834912E+02;  1.0000000E-01; -9.6525176E+03;3;  5.3580364E+01;  0.0000000E+00; -1.5627044E+00;0; -1.2295353E-02;  3.9084738E+04;  0.0000000E+00; -6.6036835E-02;  4.0000000E+04;  0.0000000E+00;  3.9998953E+04; -1.2792307E-02;  0.0000000E+00;  4.9695390E-04;  8.1475287E+02;
  1.3543252E-02;  9.9999998E-03;  1.2998560E-01;2550;  1.0459436E-03;  0.0000000E+00;  4.4793563E-07;  9.8835229E+02;  1.0000000E-01; -9.6499004E+03;3;  5.4136204E+01;  0.0000000E+00; -2.1425440E+00;0; -1.2256024E-02;  3.9085031E+04;  0.0000000E+00; -1.0718922E-01;  4.0000000E+04;  0.0000000E+00;  3.9999328E+04; -1.2807314E-02;  0.0000000E+00;  5.5129034E-04;  8.1928351E+02;
  1.3526568E-02;  9.9999998E-03;  1.3998874E-01;2551;  9.7669277E-04;  0.0000000E+00;  1.8092962E-05;  9.8836176E+02;  1.0000000E-01; -9.6420479E+03;3;  5.4960690E+01;  0.0000000E+00; -2.8310359E+00;0; -1.2162993E-02;  3.9085910E+04;  0.0000000E+00; -1.6661701E-01;  4.0000000E+04;  0.0000000E+00;  3.9998812E+04; -1.2764329E-02;  0.0000000E+00;  6.0133665E-04;  8.6066418E+02;
  1.3506033E-02;  9.9999998E-03;  1.4999220E-01;2552;  9.1787463E-04;  0.0000000E+00;  4.4137763E-05;  9.8837994E+02;  1.0000000E-01; -9.6269873E+03;3;  5.6112751E+01;  0.0000000E+00; -3.6494150E+00;0; -1.2003776E-02;  3.9086816E+04;  0.0000000E+00; -2.4573797E-01;  4.0000000E+04;  0.0000000E+00;  3.9999289E+04; -1.2648088E-02;  0.0000000E+00;  6.4431207E-04;  9.6086652E+02;
  1.3480966E-02;  9.9999998E-03;  1.5999651E-01;2553;  8.8083145E-04;  0.0000000E+00;  7.8763405E-05;  9.8842596E+02;  1.0000000E-01; -9.5888643E+03;3;  5.7530479E+01;  0.0000000E+00; -4.6340227E+00;0; -1.1769938E-02;  3.9089559E+04;  0.0000000E+00; -3.4298646E-01;  4.0000000E+04;  0.0000000E+00;  4.0000961E+04; -1.2445608E-02;  0.0000000E+00;  6.7566993E-04;  1.1377047E+03;
  1.3449236E-02;  9.9999998E-03;  1.7000164E-01;2554;  8.7520335E-04;  0.0000000E+00;  1.2100777E-04;  9.8851447E+02;  1.0000000E-01; -9.5155332E+03;3;  5.9167847E+01;  0.0000000E+00; -5.8433599E+00;0; -1.1457950E-02;  3.9094711E+04;  0.0000000E+00; -4.5272553E-01;  4.0000000E+04;  0.0000000E+00;  4.0001840E+04; -1.2147000E-02;  0.0000000E+00;  6.8905018E-04;  1.4011321E+03;
  1.3404880E-02;  9.9999998E-03;  1.8000546E-01;2555;  9.0656942E-04;  0.0000000E+00;  1.6662292E-04;  9.8866345E+02;  1.0000000E-01; -9.3921299E+03;3;  6.0910255E+01;  0.0000000E+00; -7.3400893E+00;0; -1.1068609E-02;  3.9103957E+04;  0.0000000E+00; -5.6475723E-01;  4.0000000E+04;  0.0000000E+00;  4.0004949E+04; -1.1745216E-02;  0.0000000E+00;  6.7660818E-04;  1.7517460E+03;
  1.3339972E-02;  9.9999998E-03;  1.9000582E-01;2556;  9.7441429E-04;  0.0000000E+00;  2.1159736E-04;  9.8889075E+02;  1.0000000E-01; -9.2037891E+03;3;  6.2560257E+01;  0.0000000E+00; -9.1575222E+00;0; -1.0607187E-02;  3.9118508E+04;  0.0000000E+00; -6.6507149E-01;  4.0000000E+04;  0.0000000E+00;  4.0008477E+04; -1.1237226E-02;  0.0000000E+00;  6.3003972E-04;  2.1775820E+03;
  1.3244755E-02;  9.9999998E-03;  2.0000154E-01;2557;  1.0696485E-03;  0.0000000E+00;  2.5058008E-04;  9.8921198E+02;  1.0000000E-01; -8.9376729E+03;3;  6.3822536E+01;  0.0000000E+00; -1.1256051E+01;0; -1.0081911E-02;  3.9139742E+04;  0.0000000E+00; -7.3802519E-01;  4.0000000E+04;  0.0000000E+00;  4.0012570E+04; -1.0624395E-02;  0.0000000E+00;  5.4248463E-04;  2.6482217E+03;
  1.3109623E-02;  9.9999998E-03;  2.0999114E-01;2558;  1.1749254E-03;  0.0000000E+00;  2.7895143E-04;  9.8964343E+02;  1.0000000E-01; -8.5802021E+03;3;  6.4261726E+01;  0.0000000E+00; -1.3508800E+01;0; -9.5030023E-03;  3.9169312E+04;  0.0000000E+00; -7.6992536E-01;  4.0000000E+04;  0.0000000E+00;  4.0016156E+04; -9.9137416E-03;  0.0000000E+00;  4.1073925E-04;  3.1089700E+03;
  1.2924316E-02;  9.9999998E-03;  2.1997258E-01;2559;  1.2668045E-03;  0.0000000E+00;  2.9346690E-04;  9.9019672E+02;  1.0000000E-01; -8.1218442E+03;3;  6.3369576E+01;  0.0000000E+00; -1.5719934E+01;0; -8.8814078E-03;  3.9208328E+04;  0.0000000E+00; -7.5318605E-01;  4.0000000E+04;  0.0000000E+00;  4.0020293E+04; -9.1185272E-03;  0.0000000E+00;  2.3711903E-04;  3.4796350E+03;
  1.2681116E-02;  9.9999998E-03;  2.2994460E-01;2560;  1.3197602E-03;  0.0000000E+00;  2.9249798E-04;  9.9084937E+02;  1.0000000E-01; -7.5811191E+03;3;  6.0837669E+01;  0.0000000E+00; -1.7731588E+01;0; -8.2284864E-03;  3.9256543E+04;  0.0000000E+00; -6.8976045E-01;  4.0000000E+04;  0.0000000E+00;  4.0023191E+04; -8.2589732E-03;  0.0000000E+00;  3.0486495E-05;  3.6633325E+03;
  2.2981843E-02;  9.9999998E-03;  6.9985323E-02;2605;  1.9728478E-04;  0.0000000E+00;  3.0600588E-06;  9.9217102E+02;  1.0000000E-01; -6.4861377E+03;3;  1.9370340E+01;  0.0000000E+00;  4.7969371E-02;0; -1.4168401E-02;  3.9382539E+04;  0.0000000E+00; -9.3634967E-03;  4.0000000E+04;  0.0000000E+00;  3.9999523E+04; -1.4416049E-02;  0.0000000E+00;  2.4764801E-04;  6.0135547E+02;
  2.2989737E-02;  9.9999998E-03;  7.9982832E-02;2606;  2.0365357E-04;  0.0000000E+00; -7.9729051E-07;  9.9219122E+02;  1.0000000E-01; -6.4694468E+03;3;  1.9072540E+01;  0.0000000E+00; -9.2279062E-02;0; -1.4181957E-02;  3.9383855E+04;  0.0000000E+00; -1.3176647E-02;  4.0000000E+04;  0.0000000E+00;  3.9999836E+04; -1.4483129E-02;  0.0000000E+00;  3.0117182E-04;  5.8286737E+02;
  2.2993604E-02;  9.9999998E-03;  8.9981213E-02;2607;  1.9594484E-04;  0.0000000E+00; -2.6948969E-06;  9.9221069E+02;  1.0000000E-01; -6.4532988E+03;3;  1.8923046E+01;  0.0000000E+00; -2.8718358E-01;0; -1.4200081E-02;  3.9385746E+04;  0.0000000E+00; -1.9292090E-02;  4.0000000E+04;  0.0000000E+00;  3.9999254E+04; -1.4557510E-02;  0.0000000E+00;  3.5742889E-04;  5.7752289E+02;
  2.2992820E-02;  9.9999998E-03;  9.9980652E-02;2608;  1.7060616E-04;  0.0000000E+00; -1.8749918E-06;  9.9222803E+02;  1.0000000E-01; -6.4389292E+03;3;  1.8932587E+01;  0.0000000E+00; -5.4233593E-01;0; -1.4217407E-02;  3.9386973E+04;  0.0000000E+00; -2.9712927E-02;  4.0000000E+04;  0.0000000E+00;  3.9999242E+04; -1.4630851E-02;  0.0000000E+00;  4.1344378E-04;  5.7893536E+02;
  2.2987714E-02;  9.9999998E-03;  1.0998141E-01;2609;  1.2630143E-04;  0.0000000E+00;  2.2044035E-06;  9.9224091E+02;  1.0000000E-01; -6.4282627E+03;3;  1.9108461E+01;  0.0000000E+00; -8.6349279E-01;0; -1.4224585E-02;  3.9388176E+04;  0.0000000E+00; -4.7613014E-02;  4.0000000E+04;  0.0000000E+00;  3.9999348E+04; -1.4691796E-02;  0.0000000E+00;  4.6721069E-04;  5.8006720E+02;
  2.2979001E-02;  9.9999998E-03;  1.1998349E-01;2610;  6.5265383E-05;  0.0000000E+00;  9.1481688E-06;  9.9224213E+02;  1.0000000E-01; -6.4272749E+03;3;  1.9494843E+01;  0.0000000E+00; -1.2578256E+00;0; -1.4208741E-02;  3.9388184E+04;  0.0000000E+00; -7.7334419E-02;  4.0000000E+04;  0.0000000E+00;  3.9999547E+04; -1.4726727E-02;  0.0000000E+00;  5.1798561E-04;  5.7857190E+02;
  2.2968335E-02;  9.9999998E-03;  1.2998630E-01;2611; -6.4545238E-06;  0.0000000E+00;  1.8362914E-05;  9.9223279E+02;  1.0000000E-01; -6.4349785E+03;3;  2.0104824E+01;  0.0000000E+00; -1.7328806E+00;0; -1.4154729E-02;  3.9387332E+04;  0.0000000E+00; -1.2385680E-01;  4.0000000E+04;  0.0000000E+00;  3.9999762E+04; -1.4720718E-02;  0.0000000E+00;  5.6598865E-04;  5.8250409E+02;
  2.2956872E-02;  9.9999998E-03;  1.3998957E-01;2612; -5.8435540E-05;  0.0000000E+00;  2.5760794E-05;  9.9221161E+02;  1.0000000E-01; -6.4525581E+03;3;  2.0835987E+01;  0.0000000E+00; -2.2374675E+00;0; -1.4052340E-02;  3.9385895E+04;  0.0000000E+00; -1.9155490E-01;  4.0000000E+04;  0.0000000E+00;  3.9999105E+04; -1.4663856E-02;  0.0000000E+00;  6.1151537E-04;  6.1301978E+02;
  2.2945516E-02;  9.9999998E-03;  1.4999351E-01;2613; -9.7722303E-05;  0.0000000E+00;  3.7587764E-05;  9.9218414E+02;  1.0000000E-01; -6.4752734E+03;3;  2.1744749E+01;  0.0000000E+00; -2.8550608E+00;0; -1.3888275E-02;  3.9383691E+04;  0.0000000E+00; -2.8247678E-01;  4.0000000E+04;  0.0000000E+00;  3.9999914E+04; -1.4541849E-02;  0.0000000E+00;  6.5357471E-04;  6.9744733E+02;
  2.2934459E-02;  9.9999998E-03;  1.5999830E-01;2614; -1.1989538E-04;  0.0000000E+00;  5.2108106E-05;  9.9216229E+02;  1.0000000E-01; -6.4933965E+03;3;  2.3106443E+01;  0.0000000E+00; -3.5874104E+00;0; -1.3645594E-02;  3.9381488E+04;  0.0000000E+00; -3.9512423E-01;  4.0000000E+04;  0.0000000E+00;  4.0000375E+04; -1.4334654E-02;  0.0000000E+00;  6.8905967E-04;  8.5426666E+02;
  2.2922160E-02;  9.9999998E-03;  1.7000434E-01;2615; -1.1840458E-04;  0.0000000E+00;  6.8915324E-05;  9.9216168E+02;  1.0000000E-01; -6.4938906E+03;3;  2.4987446E+01;  0.0000000E+00; -4.4760818E+00;0; -1.3318222E-02;  3.9380273E+04;  0.0000000E+00; -5.2314824E-01;  4.0000000E+04;  0.0000000E+00;  4.0001906E+04; -1.4030398E-02;  0.0000000E+00;  7.1217580E-04;  1.0906217E+03;
  2.2903886E-02;  9.9999998E-03;  1.8001150E-01;2616; -8.7137298E-05;  0.0000000E+00;  8.8803252E-05;  9.9219305E+02;  1.0000000E-01; -6.4679160E+03;3;  2.7421907E+01;  0.0000000E+00; -5.5906644E+00;0; -1.2906290E-02;  3.9380992E+04;  0.0000000E+00; -6.5477395E-01;  4.0000000E+04;  0.0000000E+00;  4.0003133E+04; -1.3620606E-02;  0.0000000E+00;  7.1431586E-04;  1.4094508E+03;
  2.2871647E-02;  9.9999998E-03;  1.9001833E-01;2617; -1.7812654E-05;  0.0000000E+00;  1.1568154E-04;  9.9227539E+02;  1.0000000E-01; -6.3996709E+03;3;  3.0169659E+01;  0.0000000E+00; -7.0166798E+00;0; -1.2418410E-02;  3.9384574E+04;  0.0000000E+00; -7.7363336E-01;  4.0000000E+04;  0.0000000E+00;  4.0006035E+04; -1.3103310E-02;  0.0000000E+00;  6.8490009E-04;  1.8100621E+03;
  2.2814654E-02;  9.9999998E-03;  2.0002235E-01;2618;  1.0273745E-04;  0.0000000E+00;  1.4417124E-04;  9.9242664E+02;  1.0000000E-01; -6.2743906E+03;3;  3.2748055E+01;  0.0000000E+00; -8.6209869E+00;0; -1.1868443E-02;  3.9392391E+04;  0.0000000E+00; -8.6125922E-01;  4.0000000E+04;  0.0000000E+00;  4.0010637E+04; -1.2482146E-02;  0.0000000E+00;  6.1370293E-04;  2.2776853E+03;
  2.2721907E-02;  9.9999998E-03;  2.1002139E-01;2619;  2.5557214E-04;  0.0000000E+00;  1.6337895E-04;  9.9265436E+02;  1.0000000E-01; -6.0857046E+03;3;  3.4940670E+01;  0.0000000E+00; -1.0183332E+01;0; -1.1261582E-02;  3.9406055E+04;  0.0000000E+00; -9.0125161E-01;  4.0000000E+04;  0.0000000E+00;  4.0015074E+04; -1.1755254E-02;  0.0000000E+00;  4.9367180E-04;  2.7708879E+03;
  2.2582738E-02;  9.9999998E-03;  2.2001255E-01;2620;  4.0890893E-04;  0.0000000E+00;  1.7385915E-04;  9.9297113E+02;  1.0000000E-01; -5.8232920E+03;3;  3.6358307E+01;  0.0000000E+00; -1.1577643E+01;0; -1.0603476E-02;  3.9425980E+04;  0.0000000E+00; -8.8427323E-01;  4.0000000E+04;  0.0000000E+00;  4.0019008E+04; -1.0926839E-02;  0.0000000E+00;  3.2336259E-04;  3.2146599E+03;
  2.2386817E-02;  9.9999998E-03;  2.2999293E-01;2621;  5.3454516E-04;  0.0000000E+00;  1.7468120E-04;  9.9336975E+02;  1.0000000E-01; -5.4930298E+03;3;  3.6594955E+01;  0.0000000E+00; -1.2707219E+01;0; -9.9009350E-03;  3.9453516E+04;  0.0000000E+00; -8.1236631E-01;  4.0000000E+04;  0.0000000E+00;  4.0022508E+04; -1.0010067E-02;  0.0000000E+00;  1.0913215E-04;  3.5064346E+03;
  3.2455977E-02;  9.9999998E-03;  6.9993630E-02;2666; -4.4614723E-04;  0.0000000E+00;  5.7500497E-06;  9.9589856E+02;  1.0000000E-01; -3.3979780E+03;3; -1.0146564E+01;  0.0000000E+00;  5.8908459E-02;0; -1.5630662E-02;  3.9678641E+04;  0.0000000E+00; -1.1289189E-02;  4.0000000E+04;  0.0000000E+00;  3.9999148E+04; -1.5909655E-02;  0.0000000E+00;  2.7899214E-04;  2.6700354E+02;
  3.2461260E-02;  9.9999998E-03;  7.9991110E-02;2667; -4.4104859E-04;  0.0000000E+00;  4.2196461E-06;  9.9592731E+02;  1.0000000E-01; -3.3741267E+03;3; -1.0309351E+01;  0.0000000E+00; -5.5295814E-02;0; -1.5633712E-02;  3.9680840E+04;  0.0000000E+00; -1.5741220E-02;  4.0000000E+04;  0.0000000E+00;  3.9999512E+04; -1.5967960E-02;  0.0000000E+00;  3.3424850E-04;  2.7791013E+02;
  3.2462437E-02;  9.9999998E-03;  8.9988612E-02;2668; -4.4572179E-04;  0.0000000E+00;  4.9677928E-06;  9.9595178E+02;  1.0000000E-01; -3.3538804E+03;3; -1.0360587E+01;  0.0000000E+00; -2.0694360E-01;0; -1.5641661E-02;  3.9683074E+04;  0.0000000E+00; -2.2537550E-02;  4.0000000E+04;  0.0000000E+00;  3.9999805E+04; -1.6031060E-02;  0.0000000E+00;  3.8939924E-04;  3.0929642E+02;
  3.2459151E-02;  9.9999998E-03;  9.9986434E-02;2669; -4.6286336E-04;  0.0000000E+00;  8.4364647E-06;  9.9598083E+02;  1.0000000E-01; -3.3297825E+03;3; -1.0384661E+01;  0.0000000E+00; -3.9910114E-01;0; -1.5650453E-02;  3.9684645E+04;  0.0000000E+00; -3.3579484E-02;  4.0000000E+04;  0.0000000E+00;  3.9999648E+04; -1.6091643E-02;  0.0000000E+00;  4.4118988E-04;  3.4843701E+02;
  3.2452296E-02;  9.9999998E-03;  1.0998514E-01;2670; -4.9325981E-04;  0.0000000E+00;  1.4353507E-05;  9.9599945E+02;  1.0000000E-01; -3.3143755E+03;3; -1.0342974E+01;  0.0000000E+00; -6.3746357E-01;0; -1.5651910E-02;  3.9685750E+04;  0.0000000E+00; -5.1929496E-02;  4.0000000E+04;  0.0000000E+00;  4.0000273E+04; -1.6139874E-02;  0.0000000E+00;  4.8796419E-04;  3.8040341E+02;
  3.2443259E-02;  9.9999998E-03;  1.1998483E-01;2671; -5.3541566E-04;  0.0000000E+00;  2.1622818E-05;  9.9599921E+02;  1.0000000E-01; -3.3145730E+03;3; -1.0209356E+01;  0.0000000E+00; -9.3097621E-01;0; -1.5633520E-02;  3.9685434E+04;  0.0000000E+00; -8.1848972E-02;  4.0000000E+04;  0.0000000E+00;  4.0000652E+04; -1.6163573E-02;  0.0000000E+00;  5.3005276E-04;  3.9572763E+02;
  3.2434504E-02;  9.9999998E-03;  1.2998551E-01;2672; -5.8518734E-04;  0.0000000E+00;  2.8818416E-05;  9.9598102E+02;  1.0000000E-01; -3.3296343E+03;3; -9.9652863E+00;  0.0000000E+00; -1.2891343E+00;0; -1.5579669E-02;  3.9684168E+04;  0.0000000E+00; -1.2832917E-01;  4.0000000E+04;  0.0000000E+00;  4.0000734E+04; -1.6149081E-02;  0.0000000E+00;  5.6941283E-04;  3.9975027E+02;
  3.2428220E-02;  9.9999998E-03;  1.3998680E-01;2673; -6.3555496E-04;  0.0000000E+00;  3.5112520E-05;  9.9593707E+02;  1.0000000E-01; -3.3660776E+03;3; -9.4897985E+00;  0.0000000E+00; -1.7178764E+00;0; -1.5473589E-02;  3.9681004E+04;  0.0000000E+00; -1.9592898E-01;  4.0000000E+04;  0.0000000E+00;  3.9999988E+04; -1.6082074E-02;  0.0000000E+00;  6.0848519E-04;  4.1998984E+02;
  3.2425761E-02;  9.9999998E-03;  1.4998882E-01;2674; -6.7757949E-04;  0.0000000E+00;  4.0423540E-05;  9.9587225E+02;  1.0000000E-01; -3.4197551E+03;3; -8.6778011E+00;  0.0000000E+00; -2.2224042E+00;0; -1.5299937E-02;  3.9676609E+04;  0.0000000E+00; -2.8693500E-01;  4.0000000E+04;  0.0000000E+00;  3.9999754E+04; -1.5948450E-02;  0.0000000E+00;  6.4851390E-04;  4.9289206E+02;
  3.2427341E-02;  9.9999998E-03;  1.5999201E-01;2675; -7.0167478E-04;  0.0000000E+00;  4.5183111E-05;  9.9580389E+02;  1.0000000E-01; -3.4763955E+03;3; -7.4563060E+00;  0.0000000E+00; -2.8044882E+00;0; -1.5046719E-02;  3.9670508E+04;  0.0000000E+00; -4.0000013E-01;  4.0000000E+04;  0.0000000E+00;  3.9999215E+04; -1.5734917E-02;  0.0000000E+00;  6.8819773E-04;  6.3139514E+02;
  3.2431979E-02;  9.9999998E-03;  1.6999704E-01;2676; -6.9835846E-04;  0.0000000E+00;  4.9460137E-05;  9.9571912E+02;  1.0000000E-01; -3.5466157E+03;3; -5.5696573E+00;  0.0000000E+00; -3.4643130E+00;0; -1.4707310E-02;  3.9663555E+04;  0.0000000E+00; -5.2895826E-01;  4.0000000E+04;  0.0000000E+00;  3.9999277E+04; -1.5429789E-02;  0.0000000E+00;  7.2247919E-04;  8.2694080E+02;
  3.2435913E-02;  9.9999998E-03;  1.8000446E-01;2677; -6.6072296E-04;  0.0000000E+00;  5.4436201E-05;  9.9564655E+02;  1.0000000E-01; -3.6067622E+03;3; -3.0010452E+00;  0.0000000E+00; -4.1991296E+00;0; -1.4280896E-02;  3.9656375E+04;  0.0000000E+00; -6.6228050E-01;  4.0000000E+04;  0.0000000E+00;  4.0001266E+04; -1.5022984E-02;  0.0000000E+00;  7.4208819E-04;  1.0778499E+03;
  3.2431960E-02;  9.9999998E-03;  1.9001426E-01;2678; -5.8604474E-04;  0.0000000E+00;  6.1458719E-05;  9.9560107E+02;  1.0000000E-01; -3.6444402E+03;3;  2.5768098E-01;  0.0000000E+00; -4.9920096E+00;0; -1.3772290E-02;  3.9649965E+04;  0.0000000E+00; -7.8388000E-01;  4.0000000E+04;  0.0000000E+00;  4.0003734E+04; -1.4506663E-02;  0.0000000E+00;  7.3437259E-04;  1.3996738E+03;
  3.2410640E-02;  9.9999998E-03;  2.0002490E-01;2679; -4.7630497E-04;  0.0000000E+00;  7.3140043E-05;  9.9558923E+02;  1.0000000E-01; -3.6542175E+03;3;  4.1316466E+00;  0.0000000E+00; -5.7748322E+00;0; -1.3190674E-02;  3.9645148E+04;  0.0000000E+00; -8.7556332E-01;  4.0000000E+04;  0.0000000E+00;  4.0007281E+04; -1.3876152E-02;  0.0000000E+00;  6.8547862E-04;  1.8080520E+03;
  3.2358695E-02;  9.9999998E-03;  2.1003306E-01;2680; -3.4286891E-04;  0.0000000E+00;  8.6524189E-05;  9.9563000E+02;  1.0000000E-01; -3.6204409E+03;3;  8.2633381E+00;  0.0000000E+00; -6.4365945E+00;0; -1.2545832E-02;  3.9643297E+04;  0.0000000E+00; -9.2101020E-01;  4.0000000E+04;  0.0000000E+00;  4.0012453E+04; -1.3129402E-02;  0.0000000E+00;  5.8357033E-04;  2.2884143E+03;
  3.2263543E-02;  9.9999998E-03;  2.2003524E-01;2681; -2.0325735E-04;  0.0000000E+00;  9.6907352E-05;  9.9571979E+02;  1.0000000E-01; -3.5460725E+03;3;  1.2229729E+01;  0.0000000E+00; -6.8532844E+00;0; -1.1847243E-02;  3.9645297E+04;  0.0000000E+00; -9.1069186E-01;  4.0000000E+04;  0.0000000E+00;  4.0017578E+04; -1.2269769E-02;  0.0000000E+00;  4.2252656E-04;  2.7781760E+03;
  3.2112900E-02;  9.9999998E-03;  2.3002718E-01;2682; -7.5995813E-05;  0.0000000E+00;  1.0320944E-04;  9.9586926E+02;  1.0000000E-01; -3.4222241E+03;3;  1.5365337E+01;  0.0000000E+00; -6.9989696E+00;0; -1.1103189E-02;  3.9652070E+04;  0.0000000E+00; -8.4640378E-01;  4.0000000E+04;  0.0000000E+00;  4.0021023E+04; -1.1308392E-02;  0.0000000E+00;  2.0520294E-04;  3.1706243E+03;
  4.1998215E-02;  9.9999998E-03;  7.0000730E-02;2727; -9.0618688E-04;  0.0000000E+00;  8.3069381E-06;  9.9905389E+02;  1.0000000E-01; -7.8382971E+02;3; -2.7986330E+01;  0.0000000E+00;  6.3737594E-02;0; -1.6401738E-02;  3.9933613E+04;  0.0000000E+00; -1.0995150E-02;  4.0000000E+04;  0.0000000E+00;  3.9999863E+04; -1.6708162E-02;  0.0000000E+00;  3.0642355E-04;  1.7099487E+01;
  4.2001128E-02;  9.9999998E-03;  7.9999462E-02;2728; -9.0021145E-04;  0.0000000E+00;  8.2794659E-06;  9.9908765E+02;  1.0000000E-01; -7.5587988E+02;3; -2.8055393E+01;  0.0000000E+00; -1.8234052E-02;0; -1.6395437E-02;  3.9936273E+04;  0.0000000E+00; -1.5714271E-02;  4.0000000E+04;  0.0000000E+00;  4.0000094E+04; -1.6758697E-02;  0.0000000E+00;  3.6326129E-04;  5.1478432E+01;
  4.1999705E-02;  9.9999998E-03;  8.9997768E-02;2729; -9.0495503E-04;  0.0000000E+00;  1.1201433E-05;  9.9913135E+02;  1.0000000E-01; -7.1968335E+02;3; -2.8062853E+01;  0.0000000E+00; -1.2782536E-01;0; -1.6392577E-02;  3.9938633E+04;  0.0000000E+00; -2.2789642E-02;  4.0000000E+04;  0.0000000E+00;  4.0000301E+04; -1.6809447E-02;  0.0000000E+00;  4.1686988E-04;  1.1990354E+02;
  4.1994601E-02;  9.9999998E-03;  9.9995650E-02;2730; -9.2310191E-04;  0.0000000E+00;  1.7413784E-05;  9.9916656E+02;  1.0000000E-01; -6.9049896E+02;3; -2.7977917E+01;  0.0000000E+00; -2.6736838E-01;0; -1.6390469E-02;  3.9941047E+04;  0.0000000E+00; -3.3805732E-02;  4.0000000E+04;  0.0000000E+00;  4.0000484E+04; -1.6854124E-02;  0.0000000E+00;  4.6365583E-04;  1.9976686E+02;
  4.1986719E-02;  9.9999998E-03;  1.0999322E-01;2731; -9.5570425E-04;  0.0000000E+00;  2.5871139E-05;  9.9919116E+02;  1.0000000E-01; -6.7010449E+02;3; -2.7850710E+01;  0.0000000E+00; -4.4350824E-01;0; -1.6382013E-02;  3.9942188E+04;  0.0000000E+00; -5.1253319E-02;  4.0000000E+04;  0.0000000E+00;  4.0001312E+04; -1.6884347E-02;  0.0000000E+00;  5.0233497E-04;  2.6627100E+02;
  4.1977853E-02;  9.9999998E-03;  1.1999046E-01;2732; -1.0011981E-03;  0.0000000E+00;  3.4549244E-05;  9.9919788E+02;  1.0000000E-01; -6.6452441E+02;3; -2.7693333E+01;  0.0000000E+00; -6.6361523E-01;0; -1.6355624E-02;  3.9942387E+04;  0.0000000E+00; -7.8576982E-02;  4.0000000E+04;  0.0000000E+00;  4.0002105E+04; -1.6890086E-02;  0.0000000E+00;  5.3446181E-04;  3.0000287E+02;
  4.1971050E-02;  9.9999998E-03;  1.2998775E-01;2733; -1.0550733E-03;  0.0000000E+00;  4.1484607E-05;  9.9917645E+02;  1.0000000E-01; -6.8230170E+02;3; -2.7465521E+01;  0.0000000E+00; -9.3426681E-01;0; -1.6296081E-02;  3.9941133E+04;  0.0000000E+00; -1.1979830E-01;  4.0000000E+04;  0.0000000E+00;  4.0001625E+04; -1.6860057E-02;  0.0000000E+00;  5.6397589E-04;  3.0062115E+02;
  4.1969270E-02;  9.9999998E-03;  1.3998555E-01;2734; -1.1100800E-03;  0.0000000E+00;  4.5331351E-05;  9.9912610E+02;  1.0000000E-01; -7.2402893E+02;3; -2.7109863E+01;  0.0000000E+00; -1.2627460E+00;0; -1.6186390E-02;  3.9937410E+04;  0.0000000E+00; -1.7856364E-01;  4.0000000E+04;  0.0000000E+00;  4.0001762E+04; -1.6782178E-02;  0.0000000E+00;  5.9578830E-04;  3.0493576E+02;
  4.1974422E-02;  9.9999998E-03;  1.4998421E-01;2735; -1.1566763E-03;  0.0000000E+00;  4.5349869E-05;  9.9903961E+02;  1.0000000E-01; -7.9568121E+02;3; -2.6482552E+01;  0.0000000E+00; -1.6504127E+00;0; -1.6010379E-02;  3.9931480E+04;  0.0000000E+00; -2.5648361E-01;  4.0000000E+04;  0.0000000E+00;  3.9999918E+04; -1.6644102E-02;  0.0000000E+00;  6.3372270E-04;  3.7236551E+02;
  4.1986767E-02;  9.9999998E-03;  1.5998383E-01;2736; -1.1845294E-03;  0.0000000E+00;  4.1342919E-05;  9.9892535E+02;  1.0000000E-01; -8.9034521E+02;3; -2.5461939E+01;  0.0000000E+00; -2.0779583E+00;0; -1.5755104E-02;  3.9922793E+04;  0.0000000E+00; -3.5190508E-01;  4.0000000E+04;  0.0000000E+00;  3.9999543E+04; -1.6433639E-02;  0.0000000E+00;  6.7853474E-04;  5.0588831E+02;
  4.2005293E-02;  9.9999998E-03;  1.6998608E-01;2737; -1.1836368E-03;  0.0000000E+00;  3.3685141E-05;  9.9879193E+02;  1.0000000E-01; -1.0008606E+03;3; -2.3895641E+01;  0.0000000E+00; -2.5111215E+00;0; -1.5412750E-02;  3.9911727E+04;  0.0000000E+00; -4.5931804E-01;  4.0000000E+04;  0.0000000E+00;  3.9998824E+04; -1.6138799E-02;  0.0000000E+00;  7.2604977E-04;  6.6081494E+02;
  4.2026516E-02;  9.9999998E-03;  1.7999162E-01;2738; -1.1458584E-03;  0.0000000E+00;  2.4046094E-05;  9.9864044E+02;  1.0000000E-01; -1.1263879E+03;3; -2.1600225E+01;  0.0000000E+00; -2.9106994E+00;0; -1.4982142E-02;  3.9898965E+04;  0.0000000E+00; -5.6922710E-01;  4.0000000E+04;  0.0000000E+00;  3.9999645E+04; -1.5748531E-02;  0.0000000E+00;  7.6638866E-04;  8.1289471E+02;
  4.2044237E-02;  9.9999998E-03;  1.9000076E-01;2739; -1.0665101E-03;  0.0000000E+00;  1.5969268E-05;  9.9848773E+02;  1.0000000E-01; -1.2529028E+03;3; -1.8514450E+01;  0.0000000E+00; -3.2236784E+00;0; -1.4468369E-02;  3.9884270E+04;  0.0000000E+00; -6.6891104E-01;  4.0000000E+04;  0.0000000E+00;  4.0001438E+04; -1.5253085E-02;  0.0000000E+00;  7.8471587E-04;  9.9088666E+02;
  4.2050164E-02;  9.9999998E-03;  2.0001350E-01;2740; -9.4477349E-04;  0.0000000E+00;  1.5650534E-05;  9.9834332E+02;  1.0000000E-01; -1.3725044E+03;3; -1.4651049E+01;  0.0000000E+00; -3.3667369E+00;0; -1.3881439E-02;  3.9868684E+04;  0.0000000E+00; -7.4434829E-01;  4.0000000E+04;  0.0000000E+00;  4.0004656E+04; -1.4644812E-02;  0.0000000E+00;  7.6337229E-04;  1.2667904E+03;
  4.2033054E-02;  9.9999998E-03;  2.1002798E-01;2741; -7.8925758E-04;  0.0000000E+00;  2.5657466E-05;  9.9821729E+02;  1.0000000E-01; -1.4769459E+03;3; -1.0191053E+01;  0.0000000E+00; -3.2192266E+00;0; -1.3232631E-02;  3.9853504E+04;  0.0000000E+00; -7.8310490E-01;  4.0000000E+04;  0.0000000E+00;  4.0008328E+04; -1.3917962E-02;  0.0000000E+00;  6.8533118E-04;  1.6830953E+03;
  4.1978057E-02;  9.9999998E-03;  2.2003901E-01;2742; -6.1396137E-04;  0.0000000E+00;  4.7524467E-05;  9.9811951E+02;  1.0000000E-01; -1.5579313E+03;3; -5.4974246E+00;  0.0000000E+00; -2.6597180E+00;0; -1.2532973E-02;  3.9839680E+04;  0.0000000E+00; -7.7843606E-01;  4.0000000E+04;  0.0000000E+00;  4.0014930E+04; -1.3071915E-02;  0.0000000E+00;  5.3894270E-04;  2.1938621E+03;
  4.1870154E-02;  9.9999998E-03;  2.3004125E-01;2743; -4.4231163E-04;  0.0000000E+00;  7.1275637E-05;  9.9804620E+02;  1.0000000E-01; -1.6186703E+03;3; -1.0330441E+00;  0.0000000E+00; -1.6937604E+00;0; -1.1789045E-02;  3.9828438E+04;  0.0000000E+00; -7.3290932E-01;  4.0000000E+04;  0.0000000E+00;  4.0019277E+04; -1.2111700E-02;  0.0000000E+00;  3.2265458E-04;  2.6800574E+03;
  5.1620569E-02;  9.9999998E-03;  7.0007600E-02;2788; -1.2243275E-03;  0.0000000E+00;  8.9095447E-06;  1.0013656E+03;  1.0000000E-01;  1.1313260E+03;3; -3.3721180E+01;  0.0000000E+00;  6.2357936E-02;0; -1.6466357E-02;  4.0122891E+04;  0.0000000E+00; -7.7913920E-03;  4.0000000E+04;  0.0000000E+00;  4.0000297E+04; -1.6793912E-02;  0.0000000E+00;  3.2755546E-04;  1.4088966E+02;
  5.1622238E-02;  9.9999998E-03;  8.0009013E-02;2789; -1.2178852E-03;  0.0000000E+00;  1.0606952E-05;  1.0014030E+03;  1.0000000E-01;  1.1623375E+03;3; -3.3732430E+01;  0.0000000E+00;  6.8608364E-03;0; -1.6451107E-02;  4.0125352E+04;  0.0000000E+00; -1.2152663E-02;  4.0000000E+04;  0.0000000E+00;  4.0000281E+04; -1.6837098E-02;  0.0000000E+00;  3.8599051E-04;  7.6838364E+01;
  5.1619451E-02;  9.9999998E-03;  9.0009883E-02;2790; -1.2224463E-03;  0.0000000E+00;  1.6238391E-05;  1.0014520E+03;  1.0000000E-01;  1.2029290E+03;3; -3.3669056E+01;  0.0000000E+00; -6.8015821E-02;0; -1.6438175E-02;  4.0128109E+04;  0.0000000E+00; -1.8952219E-02;  4.0000000E+04;  0.0000000E+00;  4.0001074E+04; -1.6876211E-02;  0.0000000E+00;  4.3803712E-04;  4.1415016E+01;
  5.1612746E-02;  9.9999998E-03;  1.0000969E-01;2791; -1.2410285E-03;  0.0000000E+00;  2.5413268E-05;  1.0014942E+03;  1.0000000E-01;  1.2378909E+03;3; -3.3520229E+01;  0.0000000E+00; -1.6636145E-01;0; -1.6426256E-02;  4.0130641E+04;  0.0000000E+00; -2.9369002E-02;  4.0000000E+04;  0.0000000E+00;  4.0002230E+04; -1.6905952E-02;  0.0000000E+00;  4.7969641E-04;  1.5740030E+02;
  5.1604226E-02;  9.9999998E-03;  1.1000780E-01;2792; -1.2749202E-03;  0.0000000E+00;  3.6488749E-05;  1.0015281E+03;  1.0000000E-01;  1.2660382E+03;3; -3.3346931E+01;  0.0000000E+00; -2.9529124E-01;0; -1.6409801E-02;  4.0132559E+04;  0.0000000E+00; -4.5019962E-02;  4.0000000E+04;  0.0000000E+00;  4.0002699E+04; -1.6919857E-02;  0.0000000E+00;  5.1005540E-04;  2.5902502E+02;
  5.1596109E-02;  9.9999998E-03;  1.2000374E-01;2793; -1.3239030E-03;  0.0000000E+00;  4.9897655E-05;  1.0015452E+03;  1.0000000E-01;  1.2801614E+03;3; -3.3179317E+01;  0.0000000E+00; -4.6291280E-01;0; -1.6378075E-02;  4.0133633E+04;  0.0000000E+00; -6.7942441E-02;  4.0000000E+04;  0.0000000E+00;  4.0003047E+04; -1.6910063E-02;  0.0000000E+00;  5.3198793E-04;  3.0972241E+02;
  5.1591318E-02;  9.9999998E-03;  1.2999812E-01;2794; -1.3837070E-03;  0.0000000E+00;  6.3311214E-05;  1.0015360E+03;  1.0000000E-01;  1.2725566E+03;3; -3.3022697E+01;  0.0000000E+00; -6.6056049E-01;0; -1.6316494E-02;  4.0132555E+04;  0.0000000E+00; -1.0027294E-01;  4.0000000E+04;  0.0000000E+00;  4.0003254E+04; -1.6868118E-02;  0.0000000E+00;  5.5162510E-04;  2.9514536E+02;
  5.1593419E-02;  9.9999998E-03;  1.3999167E-01;2795; -1.4441980E-03;  0.0000000E+00;  6.9645503E-05;  1.0014872E+03;  1.0000000E-01;  1.2320640E+03;3; -3.2793804E+01;  0.0000000E+00; -8.9434671E-01;0; -1.6208531E-02;  4.0129656E+04;  0.0000000E+00; -1.4354132E-01;  4.0000000E+04;  0.0000000E+00;  4.0002062E+04; -1.6785104E-02;  0.0000000E+00;  5.7657203E-04;  2.4889172E+02;
  5.1604904E-02;  9.9999998E-03;  1.4998552E-01;2796; -1.4949940E-03;  0.0000000E+00;  6.5554937E-05;  1.0014026E+03;  1.0000000E-01;  1.1620413E+03;3; -3.2408787E+01;  0.0000000E+00; -1.1728268E+00;0; -1.6037636E-02;  4.0123738E+04;  0.0000000E+00; -1.9748092E-01;  4.0000000E+04;  0.0000000E+00;  4.0002043E+04; -1.6651025E-02;  0.0000000E+00;  6.1338872E-04;  2.8490457E+02;
  5.1626053E-02;  9.9999998E-03;  1.5998024E-01;2797; -1.5261989E-03;  0.0000000E+00;  5.1132061E-05;  1.0012714E+03;  1.0000000E-01;  1.0533036E+03;3; -3.1685503E+01;  0.0000000E+00; -1.4560089E+00;0; -1.5789865E-02;  4.0114527E+04;  0.0000000E+00; -2.5914884E-01;  4.0000000E+04;  0.0000000E+00;  3.9999422E+04; -1.6454807E-02;  0.0000000E+00;  6.6494133E-04;  4.3127798E+02;
  5.1655710E-02;  9.9999998E-03;  1.6997714E-01;2798; -1.5289705E-03;  0.0000000E+00;  2.8574959E-05;  1.0011087E+03;  1.0000000E-01;  9.1849255E+02;3; -3.0516806E+01;  0.0000000E+00; -1.6821108E+00;0; -1.5456725E-02;  4.0101609E+04;  0.0000000E+00; -3.2345840E-01;  4.0000000E+04;  0.0000000E+00;  3.9997195E+04; -1.6184695E-02;  0.0000000E+00;  7.2797009E-04;  5.8022284E+02;
  5.1690385E-02;  9.9999998E-03;  1.7997868E-01;2799; -1.4947287E-03;  0.0000000E+00;  3.1333302E-06;  1.0009064E+03;  1.0000000E-01;  7.5099109E+02;3; -2.8693489E+01;  0.0000000E+00; -1.7767825E+00;0; -1.5036484E-02;  4.0084953E+04;  0.0000000E+00; -3.8400385E-01;  4.0000000E+04;  0.0000000E+00;  3.9997715E+04; -1.5828583E-02;  0.0000000E+00;  7.9209893E-04;  6.5481512E+02;
  5.1723588E-02;  9.9999998E-03;  1.8998533E-01;2800; -1.4179680E-03;  0.0000000E+00; -1.9128984E-05;  1.0006879E+03;  1.0000000E-01;  5.6986041E+02;3; -2.6145632E+01;  0.0000000E+00; -1.6674856E+00;0; -1.4534420E-02;  4.0065238E+04;  0.0000000E+00; -4.3405664E-01;  4.0000000E+04;  0.0000000E+00;  3.9999547E+04; -1.5374620E-02;  0.0000000E+00;  8.4019947E-04;  6.4588885E+02;
  5.1747307E-02;  9.9999998E-03;  1.9999744E-01;2801; -1.2964477E-03;  0.0000000E+00; -3.1758005E-05;  1.0004500E+03;  1.0000000E-01;  3.7273019E+02;3; -2.2787334E+01;  0.0000000E+00; -1.2590076E+00;0; -1.3961490E-02;  4.0042422E+04;  0.0000000E+00; -4.6747547E-01;  4.0000000E+04;  0.0000000E+00;  4.0001543E+04; -1.4811872E-02;  0.0000000E+00;  8.5038086E-04;  6.8343756E+02;
  5.1753286E-02;  9.9999998E-03;  2.1001439E-01;2802; -1.1340751E-03;  0.0000000E+00; -2.8013919E-05;  1.0002063E+03;  1.0000000E-01;  1.7095813E+02;3; -1.8719282E+01;  0.0000000E+00; -4.3380487E-01;0; -1.3331342E-02;  4.0017340E+04;  0.0000000E+00; -4.7984663E-01;  4.0000000E+04;  0.0000000E+00;  4.0005957E+04; -1.4131458E-02;  0.0000000E+00;  8.0011616E-04;  9.8736871E+02;
  5.1728722E-02;  9.9999998E-03;  2.2003247E-01;2803; -9.4423338E-04;  0.0000000E+00; -6.1278283E-06;  9.9995911E+02;  1.0000000E-01; -3.3875584E+01;3; -1.4154535E+01;  0.0000000E+00;  9.1137123E-01;0; -1.2656362E-02;  3.9991488E+04;  0.0000000E+00; -4.7083557E-01;  4.0000000E+04;  0.0000000E+00;  4.0011586E+04; -1.3328275E-02;  0.0000000E+00;  6.7191321E-04;  1.5270995E+03;
  5.1656842E-02;  9.9999998E-03;  2.3004396E-01;2804; -7.4734673E-04;  0.0000000E+00;  3.1566709E-05;  9.9972302E+02;  1.0000000E-01; -2.2947499E+02;3; -9.5029325E+00;  0.0000000E+00;  2.7724495E+00;0; -1.1944290E-02;  3.9966051E+04;  0.0000000E+00; -4.4625649E-01;  4.0000000E+04;  0.0000000E+00;  4.0016242E+04; -1.2403872E-02;  0.0000000E+00;  4.5958199E-04;  2.1175767E+03;
  6.1329991E-02;  9.9999998E-03;  7.0014656E-02;2849; -1.4078533E-03;  0.0000000E+00;  3.2848031E-06;  1.0027159E+03;  1.0000000E-01;  2.2501091E+03;3; -3.0913176E+01;  0.0000000E+00;  5.0061822E-02;0; -1.5929781E-02;  4.0234457E+04;  0.0000000E+00; -2.3248533E-03;  4.0000000E+04;  0.0000000E+00;  4.0000891E+04; -1.6269803E-02;  0.0000000E+00;  3.4002285E-04;  1.5111160E+02;
  6.1331291E-02;  9.9999998E-03;  8.0019720E-02;2850; -1.4004640E-03;  0.0000000E+00;  8.3214836E-06;  1.0027535E+03;  1.0000000E-01;  2.2812195E+03;3; -3.0894785E+01;  0.0000000E+00;  9.1120424E-03;0; -1.5906440E-02;  4.0236887E+04;  0.0000000E+00; -5.6188498E-03;  4.0000000E+04;  0.0000000E+00;  4.0002012E+04; -1.6306397E-02;  0.0000000E+00;  3.9995668E-04;  6.5400200E+01;
  6.1328545E-02;  9.9999998E-03;  9.0024479E-02;2851; -1.4061199E-03;  0.0000000E+00;  2.0982045E-05;  1.0027979E+03;  1.0000000E-01;  2.3179592E+03;3; -3.0784405E+01;  0.0000000E+00; -4.7750324E-02;0; -1.5883610E-02;  4.0239852E+04;  0.0000000E+00; -1.1453783E-02;  4.0000000E+04;  0.0000000E+00;  4.0002465E+04; -1.6334146E-02;  0.0000000E+00;  4.5053731E-04;  7.6064140E+01;
  6.1322015E-02;  9.9999998E-03;  1.0002808E-01;2852; -1.4300619E-03;  0.0000000E+00;  4.3186199E-05;  1.0028484E+03;  1.0000000E-01;  2.3598345E+03;3; -3.0632256E+01;  0.0000000E+00; -1.2329865E-01;0; -1.5861632E-02;  4.0242270E+04;  0.0000000E+00; -2.0660322E-02;  4.0000000E+04;  0.0000000E+00;  4.0003879E+04; -1.6348949E-02;  0.0000000E+00;  4.8731707E-04;  2.3627472E+02;
  6.1313350E-02;  9.9999998E-03;  1.1002892E-01;2853; -1.4724189E-03;  0.0000000E+00;  7.1620336E-05;  1.0028915E+03;  1.0000000E-01;  2.3954878E+03;3; -3.0469687E+01;  0.0000000E+00; -2.0392282E-01;0; -1.5836967E-02;  4.0245000E+04;  0.0000000E+00; -3.3938710E-02;  4.0000000E+04;  0.0000000E+00;  4.0004762E+04; -1.6346728E-02;  0.0000000E+00;  5.0976162E-04;  3.7392474E+02;
  6.1306052E-02;  9.9999998E-03;  1.2002508E-01;2854; -1.5284647E-03;  0.0000000E+00;  9.6853932E-05;  1.0029246E+03;  1.0000000E-01;  2.4229438E+03;3; -3.0345144E+01;  0.0000000E+00; -3.0447328E-01;0; -1.5800914E-02;  4.0246805E+04;  0.0000000E+00; -5.1678266E-02;  4.0000000E+04;  0.0000000E+00;  4.0005277E+04; -1.6323112E-02;  0.0000000E+00;  5.2219775E-04;  4.4327966E+02;
  6.1303865E-02;  9.9999998E-03;  1.3001662E-01;2855; -1.5921238E-03;  0.0000000E+00;  1.1384736E-04;  1.0029290E+03;  1.0000000E-01;  2.4265981E+03;3; -3.0242495E+01;  0.0000000E+00; -4.3123612E-01;0; -1.5740057E-02;  4.0247207E+04;  0.0000000E+00; -7.3595792E-02;  4.0000000E+04;  0.0000000E+00;  4.0005109E+04; -1.6273085E-02;  0.0000000E+00;  5.3302676E-04;  4.1331549E+02;
  6.1309747E-02;  9.9999998E-03;  1.4000560E-01;2856; -1.6563806E-03;  0.0000000E+00;  1.1659567E-04;  1.0028962E+03;  1.0000000E-01;  2.3994382E+03;3; -3.0122345E+01;  0.0000000E+00; -5.8344632E-01;0; -1.5638014E-02;  4.0245434E+04;  0.0000000E+00; -9.8220631E-02;  4.0000000E+04;  0.0000000E+00;  4.0005043E+04; -1.6190577E-02;  0.0000000E+00;  5.5256241E-04;  2.8721912E+02;
  6.1326176E-02;  9.9999998E-03;  1.4999406E-01;2857; -1.7131366E-03;  0.0000000E+00;  1.0286841E-04;  1.0028251E+03;  1.0000000E-01;  2.3405757E+03;3; -2.9930201E+01;  0.0000000E+00; -7.7018970E-01;0; -1.5478272E-02;  4.0241090E+04;  0.0000000E+00; -1.2232188E-01;  4.0000000E+04;  0.0000000E+00;  4.0002070E+04; -1.6068321E-02;  0.0000000E+00;  5.9004896E-04;  1.7505760E+02;
  6.1353553E-02;  9.9999998E-03;  1.5998310E-01;2858; -1.7501240E-03;  0.0000000E+00;  7.5494521E-05;  1.0027065E+03;  1.0000000E-01;  2.2423069E+03;3; -2.9524338E+01;  0.0000000E+00; -9.4486982E-01;0; -1.5247164E-02;  4.0232984E+04;  0.0000000E+00; -1.4054438E-01;  4.0000000E+04;  0.0000000E+00;  4.0000402E+04; -1.5897546E-02;  0.0000000E+00;  6.5038179E-04;  3.2374890E+02;
  6.1390650E-02;  9.9999998E-03;  1.6997439E-01;2859; -1.7546908E-03;  0.0000000E+00;  3.8146030E-05;  1.0025439E+03;  1.0000000E-01;  2.1075947E+03;3; -2.8748943E+01;  0.0000000E+00; -1.0148624E+00;0; -1.4936458E-02;  4.0220773E+04;  0.0000000E+00; -1.4737059E-01;  4.0000000E+04;  0.0000000E+00;  3.9997250E+04; -1.5667677E-02;  0.0000000E+00;  7.3121890E-04;  5.2333160E+02;
  6.1434131E-02;  9.9999998E-03;  1.7997064E-01;2860; -1.7172178E-03;  0.0000000E+00; -3.2796959E-06;  1.0023322E+03;  1.0000000E-01;  1.9321923E+03;3; -2.7446247E+01;  0.0000000E+00; -8.8317162E-01;0; -1.4544528E-02;  4.0203742E+04;  0.0000000E+00; -1.3952319E-01;  4.0000000E+04;  0.0000000E+00;  3.9996977E+04; -1.5366161E-02;  0.0000000E+00;  8.2163292E-04;  6.1627728E+02;
  6.1477441E-02;  9.9999998E-03;  1.8997437E-01;2861; -1.6339060E-03;  0.0000000E+00; -3.9022452E-05;  1.0020850E+03;  1.0000000E-01;  1.7273585E+03;3; -2.5525572E+01;  0.0000000E+00; -4.5162401E-01;0; -1.4076737E-02;  4.0182016E+04;  0.0000000E+00; -1.1738793E-01;  4.0000000E+04;  0.0000000E+00;  3.9997270E+04; -1.4978774E-02;  0.0000000E+00;  9.0203685E-04;  5.2865332E+02;
  6.1512530E-02;  9.9999998E-03;  1.9998577E-01;2862; -1.5098435E-03;  0.0000000E+00; -5.7515572E-05;  1.0018018E+03;  1.0000000E-01;  1.4927972E+03;3; -2.2914444E+01;  0.0000000E+00;  3.8097358E-01;0; -1.3544147E-02;  4.0155637E+04;  0.0000000E+00; -8.4898070E-02;  4.0000000E+04;  0.0000000E+00;  4.0000246E+04; -1.4490357E-02;  0.0000000E+00;  9.4621006E-04;  2.3056068E+02;
  6.1531827E-02;  9.9999998E-03;  2.1000460E-01;2863; -1.3465851E-03;  0.0000000E+00; -5.5675719E-05;  1.0014888E+03;  1.0000000E-01;  1.2334467E+03;3; -1.9591574E+01;  0.0000000E+00;  1.7085167E+00;0; -1.2961731E-02;  4.0125031E+04;  0.0000000E+00; -4.8897464E-02;  4.0000000E+04;  0.0000000E+00;  4.0004543E+04; -1.3887592E-02;  0.0000000E+00;  9.2586025E-04;  3.2399304E+02;
  6.1526019E-02;  9.9999998E-03;  2.2002862E-01;2864; -1.1520713E-03;  0.0000000E+00; -2.8959528E-05;  1.0011558E+03;  1.0000000E-01;  9.5760254E+02;3; -1.5711972E+01;  0.0000000E+00;  3.6392696E+00;0; -1.2343315E-02;  4.0091633E+04;  0.0000000E+00; -1.9040300E-02;  4.0000000E+04;  0.0000000E+00;  4.0008242E+04; -1.3160937E-02;  0.0000000E+00;  8.1762124E-04;  9.8455676E+02;
  6.1479345E-02;  9.9999998E-03;  2.3004943E-01;2865; -9.4457471E-04;  0.0000000E+00;  2.1918413E-05;  1.0008036E+03;  1.0000000E-01;  6.6575897E+02;3; -1.1527351E+01;  0.0000000E+00;  6.1355610E+00;0; -1.1696693E-02;  4.0056434E+04;  0.0000000E+00; -8.1684673E-03;  4.0000000E+04;  0.0000000E+00;  4.0014172E+04; -1.2307286E-02;  0.0000000E+00;  6.1059289E-04;  1.6806509E+03;
  7.1137622E-02;  9.9999998E-03;  7.0021935E-02;2910; -1.4883875E-03;  0.0000000E+00; -4.7406215E-06;  1.0031574E+03;  1.0000000E-01;  2.6158271E+03;3; -2.3997744E+01;  0.0000000E+00;  4.5369536E-02;0; -1.4981619E-02;  4.0271383E+04;  0.0000000E+00;  3.3641544E-03;  4.0000000E+04;  0.0000000E+00;  4.0002363E+04; -1.5323521E-02;  0.0000000E+00;  3.4190179E-04;  1.9460417E+01;
  7.1139224E-02;  9.9999998E-03;  8.0030605E-02;2911; -1.4825249E-03;  0.0000000E+00;  1.9046795E-06;  1.0031877E+03;  1.0000000E-01;  2.6410117E+03;3; -2.3959209E+01;  0.0000000E+00;  1.9253166E-02;0; -1.4951419E-02;  4.0272902E+04;  0.0000000E+00;  1.6115959E-03;  4.0000000E+04;  0.0000000E+00;  4.0003301E+04; -1.5354203E-02;  0.0000000E+00;  4.0278421E-04;  8.1715759E+01;
  7.1137302E-02;  9.9999998E-03;  9.0039439E-02;2912; -1.4903782E-03;  0.0000000E+00;  2.3556111E-05;  1.0032312E+03;  1.0000000E-01;  2.6769614E+03;3; -2.3846220E+01;  0.0000000E+00; -2.1370932E-02;0; -1.4919402E-02;  4.0275359E+04;  0.0000000E+00; -2.6345802E-03;  4.0000000E+04;  0.0000000E+00;  4.0004559E+04; -1.5371144E-02;  0.0000000E+00;  4.5174171E-04;  2.4804373E+02;
  7.1132325E-02;  9.9999998E-03;  1.0004713E-01;2913; -1.5152359E-03;  0.0000000E+00;  6.0932038E-05;  1.0032798E+03;  1.0000000E-01;  2.7172566E+03;3; -2.3686781E+01;  0.0000000E+00; -6.4446785E-02;0; -1.4887893E-02;  4.0278039E+04;  0.0000000E+00; -9.9735167E-03;  4.0000000E+04;  0.0000000E+00;  4.0006082E+04; -1.5371858E-02;  0.0000000E+00;  4.8396506E-04;  4.4324756E+02;
  7.1125515E-02;  9.9999998E-03;  1.1005055E-01;2914; -1.5564588E-03;  0.0000000E+00;  9.9707184E-05;  1.0033347E+03;  1.0000000E-01;  2.7626873E+03;3; -2.3538986E+01;  0.0000000E+00; -1.1788581E-01;0; -1.4855465E-02;  4.0281035E+04;  0.0000000E+00; -2.0369109E-02;  4.0000000E+04;  0.0000000E+00;  4.0007082E+04; -1.5354826E-02;  0.0000000E+00;  4.9936125E-04;  6.1397882E+02;
  7.1119674E-02;  9.9999998E-03;  1.2004719E-01;2915; -1.6114921E-03;  0.0000000E+00;  1.3176336E-04;  1.0033760E+03;  1.0000000E-01;  2.7969580E+03;3; -2.3420742E+01;  0.0000000E+00; -1.8334645E-01;0; -1.4815444E-02;  4.0283836E+04;  0.0000000E+00; -3.2721519E-02;  4.0000000E+04;  0.0000000E+00;  4.0007492E+04; -1.5319081E-02;  0.0000000E+00;  5.0363655E-04;  7.0336328E+02;
  7.1119033E-02;  9.9999998E-03;  1.3003667E-01;2916; -1.6735378E-03;  0.0000000E+00;  1.5093798E-04;  1.0034036E+03;  1.0000000E-01;  2.8197722E+03;3; -2.3362906E+01;  0.0000000E+00; -2.6448378E-01;0; -1.4755956E-02;  4.0285820E+04;  0.0000000E+00; -4.4370681E-02;  4.0000000E+04;  0.0000000E+00;  4.0006750E+04; -1.5263344E-02;  0.0000000E+00;  5.0738832E-04;  6.6820551E+02;
  7.1126796E-02;  9.9999998E-03;  1.4002141E-01;2917; -1.7363150E-03;  0.0000000E+00;  1.5290556E-04;  1.0033944E+03;  1.0000000E-01;  2.8121675E+03;3; -2.3320227E+01;  0.0000000E+00; -3.5937002E-01;0; -1.4662310E-02;  4.0286270E+04;  0.0000000E+00; -5.0624598E-02;  4.0000000E+04;  0.0000000E+00;  4.0006770E+04; -1.5185818E-02;  0.0000000E+00;  5.2350876E-04;  4.9506323E+02;
  7.1145192E-02;  9.9999998E-03;  1.5000522E-01;2918; -1.7915193E-03;  0.0000000E+00;  1.3623787E-04;  1.0033521E+03;  1.0000000E-01;  2.7772053E+03;3; -2.3260012E+01;  0.0000000E+00; -4.7557914E-01;0; -1.4519146E-02;  4.0284332E+04;  0.0000000E+00; -4.4690620E-02;  4.0000000E+04;  0.0000000E+00;  4.0003980E+04; -1.5082871E-02;  0.0000000E+00;  5.6372443E-04;  2.1018719E+02;
  7.1174890E-02;  9.9999998E-03;  1.5998997E-01;2919; -1.8273878E-03;  0.0000000E+00;  1.0225102E-04;  1.0032598E+03;  1.0000000E-01;  2.7006643E+03;3; -2.3060896E+01;  0.0000000E+00; -5.6244850E-01;0; -1.4313474E-02;  4.0279254E+04;  0.0000000E+00; -1.8131830E-02;  4.0000000E+04;  0.0000000E+00;  4.0001070E+04; -1.4948215E-02;  0.0000000E+00;  6.3474086E-04;  1.4209323E+02;
  7.1214624E-02;  9.9999998E-03;  1.6997696E-01;2920; -1.8313865E-03;  0.0000000E+00;  5.8382419E-05;  1.0031187E+03;  1.0000000E-01;  2.5837295E+03;3; -2.2598972E+01;  0.0000000E+00; -5.1747620E-01;0; -1.4037312E-02;  4.0269777E+04;  0.0000000E+00;  3.5976227E-02;  4.0000000E+04;  0.0000000E+00;  3.9997660E+04; -1.4772395E-02;  0.0000000E+00;  7.3508284E-04;  4.4994839E+02;
  7.1261063E-02;  9.9999998E-03;  1.7996927E-01;2921; -1.7942068E-03;  0.0000000E+00;  9.5876467E-06;  1.0029341E+03;  1.0000000E-01;  2.4308447E+03;3; -2.1777327E+01;  0.0000000E+00; -2.2983308E-01;0; -1.3689282E-02;  4.0255082E+04;  0.0000000E+00;  1.1872086E-01;  4.0000000E+04;  0.0000000E+00;  3.9997098E+04; -1.4542410E-02;  0.0000000E+00;  8.5312739E-04;  6.5667395E+02;
  7.1308881E-02;  9.9999998E-03;  1.8997099E-01;2922; -1.7111182E-03;  0.0000000E+00; -3.1552565E-05;  1.0026990E+03;  1.0000000E-01;  2.2360850E+03;3; -2.0457546E+01;  0.0000000E+00;  4.0318125E-01;0; -1.3275243E-02;  4.0234742E+04;  0.0000000E+00;  2.2342440E-01;  4.0000000E+04;  0.0000000E+00;  3.9996848E+04; -1.4242031E-02;  0.0000000E+00;  9.6678740E-04;  7.0415717E+02;
  7.1349733E-02;  9.9999998E-03;  1.9998342E-01;2923; -1.5863916E-03;  0.0000000E+00; -5.2599145E-05;  1.0024158E+03;  1.0000000E-01;  2.0014249E+03;3; -1.8589834E+01;  0.0000000E+00;  1.5004419E+00;0; -1.2807467E-02;  4.0208539E+04;  0.0000000E+00;  3.3634448E-01;  4.0000000E+04;  0.0000000E+00;  3.9999125E+04; -1.3853032E-02;  0.0000000E+00;  1.0455651E-03;  6.1346777E+02;
  7.1376428E-02;  9.9999998E-03;  2.1000710E-01;2924; -1.4255167E-03;  0.0000000E+00; -4.5780664E-05;  1.0020880E+03;  1.0000000E-01;  1.7299264E+03;3; -1.6118126E+01;  0.0000000E+00;  3.1483169E+00;0; -1.2301119E-02;  4.0176578E+04;  0.0000000E+00;  4.3832433E-01;  4.0000000E+04;  0.0000000E+00;  4.0002645E+04; -1.3356820E-02;  0.0000000E+00;  1.0557007E-03;  6.3925281E+02;
  7.1380608E-02;  9.9999998E-03;  2.2003883E-01;2925; -1.2310566E-03;  0.0000000E+00; -4.7635381E-06;  1.0017184E+03;  1.0000000E-01;  1.4236635E+03;3; -1.3102126E+01;  0.0000000E+00;  5.4535594E+00;0; -1.1769707E-02;  4.0139934E+04;  0.0000000E+00;  5.0625348E-01;  4.0000000E+04;  0.0000000E+00;  4.0007887E+04; -1.2737822E-02;  0.0000000E+00;  9.6811441E-04;  1.0680679E+03;
  7.1348585E-02;  9.9999998E-03;  2.3006952E-01;2926; -1.0187679E-03;  0.0000000E+00;  7.0829075E-05;  1.0013167E+03;  1.0000000E-01;  1.0908334E+03;3; -9.7262373E+00;  0.0000000E+00;  8.3924112E+00;0; -1.1219579E-02;  4.0100090E+04;  0.0000000E+00;  5.1840419E-01;  4.0000000E+04;  0.0000000E+00;  4.0012680E+04; -1.1987153E-02;  0.0000000E+00;  7.6757441E-04;  1.6854077E+03;
  8.1055753E-02;  9.9999998E-03;  7.0026502E-02;2971; -1.4674556E-03;  0.0000000E+00; -1.4540447E-05;  1.0028728E+03;  1.0000000E-01;  2.3800808E+03;3; -1.6374411E+01;  0.0000000E+00;  4.9949862E-02;0; -1.3860459E-02;  4.0247324E+04;  0.0000000E+00;  6.4728176E-03;  4.0000000E+04;  0.0000000E+00;  4.0003859E+04; -1.4192853E-02;  0.0000000E+00;  3.3239397E-04;  2.4309464E+02;
  8.1057772E-02;  9.9999998E-03;  8.0037288E-02;2972; -1.4629454E-03;  0.0000000E+00; -1.1049168E-05;  1.0028851E+03;  1.0000000E-01;  2.3902534E+03;3; -1.6326496E+01;  0.0000000E+00;  3.6121808E-02;0; -1.3825770E-02;  4.0247902E+04;  0.0000000E+00;  6.1790803E-03;  4.0000000E+04;  0.0000000E+00;  4.0005426E+04; -1.4218770E-02;  0.0000000E+00;  3.9299933E-04;  3.5243121E+02;
  8.1056662E-02;  9.9999998E-03;  9.0048812E-02;2973; -1.4712418E-03;  0.0000000E+00;  9.4634615E-06;  1.0029174E+03;  1.0000000E-01;  2.4170181E+03;3; -1.6224039E+01;  0.0000000E+00;  1.2951018E-02;0; -1.3785967E-02;  4.0249184E+04;  0.0000000E+00;  3.7825718E-03;  4.0000000E+04;  0.0000000E+00;  4.0006758E+04; -1.4225630E-02;  0.0000000E+00;  4.3966374E-04;  5.3922821E+02;
  8.1052437E-02;  9.9999998E-03;  1.0006026E-01;2974; -1.4958049E-03;  0.0000000E+00;  5.2251886E-05;  1.0029664E+03;  1.0000000E-01;  2.4576096E+03;3; -1.6088308E+01;  0.0000000E+00; -2.2783907E-02;0; -1.3745135E-02;  4.0251539E+04;  0.0000000E+00; -1.1588202E-03;  4.0000000E+04;  0.0000000E+00;  4.0008543E+04; -1.4212590E-02;  0.0000000E+00;  4.6745542E-04;  7.6223871E+02;
  8.1045941E-02;  9.9999998E-03;  1.1006711E-01;2975; -1.5359866E-03;  0.0000000E+00;  9.8738041E-05;  1.0030218E+03;  1.0000000E-01;  2.5035342E+03;3; -1.5957596E+01;  0.0000000E+00; -6.1385125E-02;0; -1.3704129E-02;  4.0254223E+04;  0.0000000E+00; -8.1290090E-03;  4.0000000E+04;  0.0000000E+00;  4.0009695E+04; -1.4180838E-02;  0.0000000E+00;  4.7670939E-04;  9.6041333E+02;
  8.1038989E-02;  9.9999998E-03;  1.2006503E-01;2976; -1.5883534E-03;  0.0000000E+00;  1.3750824E-04;  1.0030744E+03;  1.0000000E-01;  2.5470884E+03;3; -1.5860693E+01;  0.0000000E+00; -1.0366099E-01;0; -1.3658835E-02;  4.0257629E+04;  0.0000000E+00; -1.4990376E-02;  4.0000000E+04;  0.0000000E+00;  4.0010281E+04; -1.4133190E-02;  0.0000000E+00;  4.7435550E-04;  1.0671008E+03;
  8.1035368E-02;  9.9999998E-03;  1.3005374E-01;2977; -1.6463751E-03;  0.0000000E+00;  1.6222266E-04;  1.0031165E+03;  1.0000000E-01;  2.5819517E+03;3; -1.5818260E+01;  0.0000000E+00; -1.5398555E-01;0; -1.3600068E-02;  4.0261062E+04;  0.0000000E+00; -1.7267175E-02;  4.0000000E+04;  0.0000000E+00;  4.0010773E+04; -1.4072968E-02;  0.0000000E+00;  4.7289921E-04;  1.0304158E+03;
  8.1039779E-02;  9.9999998E-03;  1.4003550E-01;2978; -1.7018851E-03;  0.0000000E+00;  1.6846410E-04;  1.0031378E+03;  1.0000000E-01;  2.5996301E+03;3; -1.5818914E+01;  0.0000000E+00; -2.1450406E-01;0; -1.3515286E-02;  4.0264309E+04;  0.0000000E+00; -7.5620450E-03;  4.0000000E+04;  0.0000000E+00;  4.0010566E+04; -1.4002772E-02;  0.0000000E+00;  4.8748596E-04;  8.3216638E+02;
  8.1054538E-02;  9.9999998E-03;  1.5001549E-01;2979; -1.7483868E-03;  0.0000000E+00;  1.5479866E-04;  1.0031292E+03;  1.0000000E-01;  2.5925193E+03;3; -1.5820498E+01;  0.0000000E+00; -2.7291009E-01;0; -1.3391375E-02;  4.0265895E+04;  0.0000000E+00;  2.4311807E-02;  4.0000000E+04;  0.0000000E+00;  4.0006422E+04; -1.3923336E-02;  0.0000000E+00;  5.3196156E-04;  5.0040900E+02;
  8.1081696E-02;  9.9999998E-03;  1.5999761E-01;2980; -1.7785173E-03;  0.0000000E+00;  1.2232880E-04;  1.0030853E+03;  1.0000000E-01;  2.5560759E+03;3; -1.5755004E+01;  0.0000000E+00; -2.9522368E-01;0; -1.3216926E-02;  4.0264566E+04;  0.0000000E+00;  8.9810774E-02;  4.0000000E+04;  0.0000000E+00;  4.0002742E+04; -1.3831489E-02;  0.0000000E+00;  6.1456271E-04;  1.6342046E+02;
  8.1119500E-02;  9.9999998E-03;  1.6998285E-01;2981; -1.7807105E-03;  0.0000000E+00;  7.6665223E-05;  1.0029915E+03;  1.0000000E-01;  2.4783496E+03;3; -1.5525064E+01;  0.0000000E+00; -1.7648883E-01;0; -1.2984869E-02;  4.0259277E+04;  0.0000000E+00;  1.9769581E-01;  4.0000000E+04;  0.0000000E+00;  3.9999676E+04; -1.3719345E-02;  0.0000000E+00;  7.3447643E-04;  3.9203735E+02;
  8.1165314E-02;  9.9999998E-03;  1.7997399E-01;2982; -1.7468343E-03;  0.0000000E+00;  2.8928180E-05;  1.0028536E+03;  1.0000000E-01;  2.3641799E+03;3; -1.5042810E+01;  0.0000000E+00;  1.9481543E-01;0; -1.2694413E-02;  4.0248684E+04;  0.0000000E+00;  3.4829909E-01;  4.0000000E+04;  0.0000000E+00;  3.9997918E+04; -1.3573808E-02;  0.0000000E+00;  8.7939441E-04;  7.2084698E+02;
  8.1213519E-02;  9.9999998E-03;  1.8997607E-01;2983; -1.6709312E-03;  0.0000000E+00; -9.6170897E-06;  1.0026633E+03;  1.0000000E-01;  2.2064561E+03;3; -1.4212785E+01;  0.0000000E+00;  9.3371511E-01;0; -1.2351830E-02;  4.0232562E+04;  0.0000000E+00;  5.3120595E-01;  4.0000000E+04;  0.0000000E+00;  3.9997715E+04; -1.3376812E-02;  0.0000000E+00;  1.0249823E-03;  9.4669989E+02;
  8.1256114E-02;  9.9999998E-03;  1.9999281E-01;2984; -1.5560621E-03;  0.0000000E+00; -2.3147564E-05;  1.0024177E+03;  1.0000000E-01;  2.0030051E+03;3; -1.2967044E+01;  0.0000000E+00;  2.1597826E+00;0; -1.1969561E-02;  4.0209457E+04;  0.0000000E+00;  7.2540057E-01;  4.0000000E+04;  0.0000000E+00;  3.9998926E+04; -1.3106541E-02;  0.0000000E+00;  1.1369796E-03;  1.0941770E+03;
  8.1286617E-02;  9.9999998E-03;  2.1002537E-01;2985; -1.4003394E-03;  0.0000000E+00; -5.6796580E-07;  1.0021136E+03;  1.0000000E-01;  1.7511604E+03;3; -1.1235361E+01;  0.0000000E+00;  3.9685402E+00;0; -1.1562117E-02;  4.0179973E+04;  0.0000000E+00;  9.0013450E-01;  4.0000000E+04;  0.0000000E+00;  4.0002531E+04; -1.2738761E-02;  0.0000000E+00;  1.1766431E-03;  1.2914003E+03;
  8.1294730E-02;  9.9999998E-03;  2.2006819E-01;2986; -1.2060534E-03;  0.0000000E+00;  6.9589885E-05;  1.0017611E+03;  1.0000000E-01;  1.4590205E+03;3; -9.0517244E+00;  0.0000000E+00;  6.5003467E+00;0; -1.1141662E-02;  4.0144367E+04;  0.0000000E+00;  1.0228207E+00;  4.0000000E+04;  0.0000000E+00;  4.0008098E+04; -1.2251481E-02;  0.0000000E+00;  1.1098187E-03;  1.6666459E+03;
  8.1269309E-02;  9.9999998E-03;  2.3010829E-01;2987; -9.8852045E-04;  0.0000000E+00;  1.8424950E-04;  1.0013539E+03;  1.0000000E-01;  1.1217461E+03;3; -6.5201387E+00;  0.0000000E+00;  9.7229414E+00;0; -1.0711146E-02;  4.0103477E+04;  0.0000000E+00;  1.0692792E+00;  4.0000000E+04;  0.0000000E+00;  4.0013555E+04; -1.1628880E-02;  0.0000000E+00;  9.1773440E-04;  2.1795920E+03;
  9.1114014E-02;  9.9999998E-03;  7.0023336E-02;3032; -1.4032432E-03;  0.0000000E+00; -2.6252816E-05;  1.0021204E+03;  1.0000000E-01;  1.7566910E+03;3; -1.0120046E+01;  0.0000000E+00;  6.2410638E-02;0; -1.2805729E-02;  4.0183773E+04;  0.0000000E+00;  4.5385989E-03;  4.0000000E+04;  0.0000000E+00;  4.0006273E+04; -1.3118137E-02;  0.0000000E+00;  3.1240736E-04;  6.0021051E+02;
  9.1114953E-02;  9.9999998E-03;  8.0034629E-02;3033; -1.4006066E-03;  0.0000000E+00; -2.8814895E-05;  1.0021177E+03;  1.0000000E-01;  1.7544196E+03;3; -1.0078938E+01;  0.0000000E+00;  5.9590861E-02;0; -1.2769748E-02;  4.0182727E+04;  0.0000000E+00;  4.8610643E-03;  4.0000000E+04;  0.0000000E+00;  4.0007195E+04; -1.3140650E-02;  0.0000000E+00;  3.7090172E-04;  7.1503058E+02;
  9.1110773E-02;  9.9999998E-03;  9.0047657E-02;3034; -1.4078146E-03;  0.0000000E+00; -1.7961444E-05;  1.0021337E+03;  1.0000000E-01;  1.7676537E+03;3; -9.9871454E+00;  0.0000000E+00;  4.7930796E-02;0; -1.2724732E-02;  4.0182574E+04;  0.0000000E+00;  3.9100484E-03;  4.0000000E+04;  0.0000000E+00;  4.0008867E+04; -1.3138659E-02;  0.0000000E+00;  4.1392763E-04;  9.1696783E+02;
  9.1100849E-02;  9.9999998E-03;  1.0006184E-01;3035; -1.4294070E-03;  0.0000000E+00;  1.5882815E-05;  1.0021663E+03;  1.0000000E-01;  1.7947147E+03;3; -9.8793039E+00;  0.0000000E+00;  3.8805399E-02;0; -1.2675872E-02;  4.0183465E+04;  0.0000000E+00;  1.4562324E-03;  4.0000000E+04;  0.0000000E+00;  4.0010918E+04; -1.3112717E-02;  0.0000000E+00;  4.3684547E-04;  1.1609353E+03;
  9.1085784E-02;  9.9999998E-03;  1.1007418E-01;3036; -1.4671016E-03;  0.0000000E+00;  6.7140791E-05;  1.0022125E+03;  1.0000000E-01;  1.8329358E+03;3; -9.7721767E+00;  0.0000000E+00;  6.8352302E-03;0; -1.2626585E-02;  4.0185785E+04;  0.0000000E+00; -1.6979590E-03;  4.0000000E+04;  0.0000000E+00;  4.0012188E+04; -1.3067010E-02;  0.0000000E+00;  4.4042501E-04;  1.3790977E+03;
  9.1067813E-02;  9.9999998E-03;  1.2007654E-01;3037; -1.5161596E-03;  0.0000000E+00;  1.1184091E-04;  1.0022706E+03;  1.0000000E-01;  1.8811320E+03;3; -9.6965332E+00;  0.0000000E+00; -3.0358009E-02;0; -1.2575576E-02;  4.0189453E+04;  0.0000000E+00; -2.8787777E-03;  4.0000000E+04;  0.0000000E+00;  4.0013629E+04; -1.3008131E-02;  0.0000000E+00;  4.3255431E-04;  1.4969387E+03;
  9.1051385E-02;  9.9999998E-03;  1.3006692E-01;3038; -1.5697628E-03;  0.0000000E+00;  1.4125605E-04;  1.0023282E+03;  1.0000000E-01;  1.9288344E+03;3; -9.6743870E+00;  0.0000000E+00; -6.4855449E-02;0; -1.2516804E-02;  4.0194105E+04;  0.0000000E+00;  3.3695933E-03;  4.0000000E+04;  0.0000000E+00;  4.0013312E+04; -1.2944014E-02;  0.0000000E+00;  4.2720954E-04;  1.4563862E+03;
  9.1042340E-02;  9.9999998E-03;  1.4004786E-01;3039; -1.6202551E-03;  0.0000000E+00;  1.5160811E-04;  1.0023757E+03;  1.0000000E-01;  1.9682406E+03;3; -9.6932096E+00;  0.0000000E+00; -1.0104392E-01;0; -1.2440878E-02;  4.0199266E+04;  0.0000000E+00;  2.6078936E-02;  4.0000000E+04;  0.0000000E+00;  4.0012363E+04; -1.2882177E-02;  0.0000000E+00;  4.4129847E-04;  1.2378444E+03;
  9.1045521E-02;  9.9999998E-03;  1.5002535E-01;3040; -1.6597846E-03;  0.0000000E+00;  1.4461887E-04;  1.0024022E+03;  1.0000000E-01;  1.9901659E+03;3; -9.7219677E+00;  0.0000000E+00; -1.3541006E-01;0; -1.2337253E-02;  4.0204125E+04;  0.0000000E+00;  7.7804670E-02;  4.0000000E+04;  0.0000000E+00;  4.0009285E+04; -1.2827565E-02;  0.0000000E+00;  4.9031188E-04;  8.7580280E+02;
  9.1063090E-02;  9.9999998E-03;  1.6000620E-01;3041; -1.6811416E-03;  0.0000000E+00;  1.2178020E-04;  1.0024022E+03;  1.0000000E-01;  1.9901659E+03;3; -9.7126122E+00;  0.0000000E+00; -1.1860497E-01;0; -1.2196828E-02;  4.0207270E+04;  0.0000000E+00;  1.7231068E-01;  4.0000000E+04;  0.0000000E+00;  4.0005301E+04; -1.2780474E-02;  0.0000000E+00;  5.8364653E-04;  4.9139987E+02;
  9.1094829E-02;  9.9999998E-03;  1.6999209E-01;3042; -1.6797817E-03;  0.0000000E+00;  8.3627507E-05;  1.0023693E+03;  1.0000000E-01;  1.9629075E+03;3; -9.6065683E+00;  0.0000000E+00;  3.3964541E-02;0; -1.2014580E-02;  4.0207062E+04;  0.0000000E+00;  3.1972769E-01;  4.0000000E+04;  0.0000000E+00;  4.0001941E+04; -1.2735540E-02;  0.0000000E+00;  7.2095997E-04;  4.5663278E+02;
  9.1137305E-02;  9.9999998E-03;  1.7998524E-01;3043; -1.6484874E-03;  0.0000000E+00;  4.3146847E-05;  1.0022933E+03;  1.0000000E-01;  1.8999956E+03;3; -9.3336229E+00;  0.0000000E+00;  4.3790889E-01;0; -1.1790755E-02;  4.0202410E+04;  0.0000000E+00;  5.2111644E-01;  4.0000000E+04;  0.0000000E+00;  4.0000246E+04; -1.2680174E-02;  0.0000000E+00;  8.8941830E-04;  7.9457782E+02;
  9.1184907E-02;  9.9999998E-03;  1.8999156E-01;3044; -1.5816052E-03;  0.0000000E+00;  1.5861968E-05;  1.0021677E+03;  1.0000000E-01;  1.7958998E+03;3; -8.8249416E+00;  0.0000000E+00;  1.2095701E+00;0; -1.1531689E-02;  4.0191469E+04;  0.0000000E+00;  7.6546681E-01;  4.0000000E+04;  0.0000000E+00;  3.9999398E+04; -1.2594712E-02;  0.0000000E+00;  1.0630230E-03;  1.1456459E+03;
  9.1228426E-02;  9.9999998E-03;  2.0001495E-01;3045; -1.4748530E-03;  0.0000000E+00;  1.8497758E-05;  1.0019897E+03;  1.0000000E-01;  1.6484473E+03;3; -8.0184412E+00;  0.0000000E+00;  2.4616778E+00;0; -1.1248946E-02;  4.0174105E+04;  0.0000000E+00;  1.0277947E+00;  4.0000000E+04;  0.0000000E+00;  4.0000656E+04; -1.2453486E-02;  0.0000000E+00;  1.2045405E-03;  1.4723741E+03;
  9.1258325E-02;  9.9999998E-03;  2.1005601E-01;3046; -1.3211535E-03;  0.0000000E+00;  6.7710942E-05;  1.0017449E+03;  1.0000000E-01;  1.4456875E+03;3; -6.8540025E+00;  0.0000000E+00;  4.3460269E+00;0; -1.0955643E-02;  4.0148816E+04;  0.0000000E+00;  1.2749510E+00;  4.0000000E+04;  0.0000000E+00;  4.0003973E+04; -1.2226937E-02;  0.0000000E+00;  1.2712944E-03;  1.8518933E+03;
  9.1266528E-02;  9.9999998E-03;  2.2010276E-01;3047; -1.1216473E-03;  0.0000000E+00;  1.8673639E-04;  1.0014349E+03;  1.0000000E-01;  1.1888059E+03;3; -5.3418875E+00;  0.0000000E+00;  7.0019712E+00;0; -1.0660602E-02;  4.0116914E+04;  0.0000000E+00;  1.4771844E+00;  4.0000000E+04;  0.0000000E+00;  4.0009473E+04; -1.1886249E-02;  0.0000000E+00;  1.2256471E-03;  2.3541936E+03;
  9.1243252E-02;  9.9999998E-03;  2.3014368E-01;3048; -9.0717652E-04;  0.0000000E+00;  3.4208593E-04;  1.0010589E+03;  1.0000000E-01;  8.7730853E+02;3; -3.5209515E+00;  0.0000000E+00;  1.0474254E+01;0; -1.0362040E-02;  4.0078656E+04;  0.0000000E+00;  1.6167728E+00;  4.0000000E+04;  0.0000000E+00;  4.0015820E+04; -1.1408001E-02;  0.0000000E+00;  1.0459605E-03;  2.9406250E+03;
  1.0141037E-01;  9.9999998E-03;  6.9982834E-02;3093; -1.3494961E-03;  0.0000000E+00; -3.3971010E-05;  1.0011929E+03;  1.0000000E-01;  9.8831775E+02;3; -5.8173447E+00;  0.0000000E+00;  6.6598967E-02;0; -1.2011482E-02;  4.0103793E+04;  0.0000000E+00; -3.2060426E-03;  4.0000000E+04;  0.0000000E+00;  4.0009078E+04; -1.2295880E-02;  0.0000000E+00;  2.8439832E-04;  9.9979016E+02;
  1.0140608E-01;  9.9999998E-03;  8.0001339E-02;3094; -1.3483930E-03;  0.0000000E+00; -3.9673243E-05;  1.0011650E+03;  1.0000000E-01;  9.6520728E+02;3; -5.7838073E+00;  0.0000000E+00;  6.9970906E-02;0; -1.1977794E-02;  4.0101047E+04;  0.0000000E+00; -3.8324562E-03;  4.0000000E+04;  0.0000000E+00;  4.0009762E+04; -1.2316479E-02;  0.0000000E+00;  3.3868564E-04;  1.1198077E+03;
  1.0139443E-01;  9.9999998E-03;  9.0020671E-02;3095; -1.3558529E-03;  0.0000000E+00; -3.4745262E-05;  1.0011580E+03;  1.0000000E-01;  9.5938025E+02;3; -5.7263875E+00;  0.0000000E+00;  7.1700118E-02;0; -1.1930854E-02;  4.0098879E+04;  0.0000000E+00; -4.5938990E-03;  4.0000000E+04;  0.0000000E+00;  4.0011133E+04; -1.2307036E-02;  0.0000000E+00;  3.7618200E-04;  1.3340287E+03;
  1.0137397E-01;  9.9999998E-03;  1.0003691E-01;3096; -1.3743554E-03;  0.0000000E+00; -1.4928584E-05;  1.0011677E+03;  1.0000000E-01;  9.6747882E+02;3; -5.6530533E+00;  0.0000000E+00;  7.1092993E-02;0; -1.1876238E-02;  4.0098125E+04;  0.0000000E+00; -5.2889152E-03;  4.0000000E+04;  0.0000000E+00;  4.0013277E+04; -1.2269109E-02;  0.0000000E+00;  3.9287182E-04;  1.5934200E+03;
  1.0134102E-01;  9.9999998E-03;  1.1004813E-01;3097; -1.4063517E-03;  0.0000000E+00;  2.4195908E-05;  1.0012022E+03;  1.0000000E-01;  9.9602124E+02;3; -5.5869617E+00;  0.0000000E+00;  6.9617175E-02;0; -1.1819272E-02;  4.0099008E+04;  0.0000000E+00; -4.8215706E-03;  4.0000000E+04;  0.0000000E+00;  4.0015609E+04; -1.2209573E-02;  0.0000000E+00;  3.9030021E-04;  1.8238121E+03;
  1.0129356E-01;  9.9999998E-03;  1.2005424E-01;3098; -1.4505340E-03;  0.0000000E+00;  6.7962217E-05;  1.0012549E+03;  1.0000000E-01;  1.0396743E+03;3; -5.5412254E+00;  0.0000000E+00;  4.7615241E-02;0; -1.1762441E-02;  4.0101941E+04;  0.0000000E+00; -3.3536687E-04;  4.0000000E+04;  0.0000000E+00;  4.0016301E+04; -1.2139456E-02;  0.0000000E+00;  3.7701536E-04;  1.9450643E+03;
  1.0122143E-01;  9.9999998E-03;  1.3005561E-01;3099; -1.4999779E-03;  0.0000000E+00;  9.9530123E-05;  1.0013136E+03;  1.0000000E-01;  1.0882655E+03;3; -5.5266619E+00;  0.0000000E+00;  1.9333420E-02;0; -1.1704449E-02;  4.0107312E+04;  0.0000000E+00;  1.3833158E-02;  4.0000000E+04;  0.0000000E+00;  4.0016121E+04; -1.2072485E-02;  0.0000000E+00;  3.6803665E-04;  1.8957531E+03;
  1.0116380E-01;  9.9999998E-03;  1.4004536E-01;3100; -1.5464766E-03;  0.0000000E+00;  1.1171363E-04;  1.0013770E+03;  1.0000000E-01;  1.1408073E+03;3; -5.5426345E+00;  0.0000000E+00; -7.4455845E-03;0; -1.1637685E-02;  4.0114348E+04;  0.0000000E+00;  4.7121037E-02;  4.0000000E+04;  0.0000000E+00;  4.0014906E+04; -1.2019034E-02;  0.0000000E+00;  3.8134854E-04;  1.6564673E+03;
  1.0113725E-01;  9.9999998E-03;  1.5002649E-01;3101; -1.5828545E-03;  0.0000000E+00;  1.0750321E-04;  1.0014368E+03;  1.0000000E-01;  1.1902874E+03;3; -5.5705867E+00;  0.0000000E+00; -2.6590839E-02;0; -1.1554363E-02;  4.0121941E+04;  0.0000000E+00;  1.1284864E-01;  4.0000000E+04;  0.0000000E+00;  4.0011746E+04; -1.1987880E-02;  0.0000000E+00;  4.3351663E-04;  1.2666348E+03;
  1.0113371E-01;  9.9999998E-03;  1.6001016E-01;3102; -1.6023025E-03;  0.0000000E+00;  9.1407353E-05;  1.0014863E+03;  1.0000000E-01;  1.2313726E+03;3; -5.5811424E+00;  0.0000000E+00;  8.3726819E-04;0; -1.1449041E-02;  4.0129109E+04;  0.0000000E+00;  2.2570537E-01;  4.0000000E+04;  0.0000000E+00;  4.0007750E+04; -1.1983755E-02;  0.0000000E+00;  5.3471426E-04;  8.4391241E+02;
  1.0115243E-01;  9.9999998E-03;  1.7000055E-01;3103; -1.5991696E-03;  0.0000000E+00;  6.7197478E-05;  1.0015064E+03;  1.0000000E-01;  1.2480635E+03;3; -5.5296540E+00;  0.0000000E+00;  1.6188715E-01;0; -1.1318845E-02;  4.0134227E+04;  0.0000000E+00;  3.9620420E-01;  4.0000000E+04;  0.0000000E+00;  4.0004023E+04; -1.2003718E-02;  0.0000000E+00;  6.8487308E-04;  6.5729834E+02;
  1.0118707E-01;  9.9999998E-03;  1.7999665E-01;3104; -1.5699912E-03;  0.0000000E+00;  3.9840143E-05;  1.0014960E+03;  1.0000000E-01;  1.2394711E+03;3; -5.3679600E+00;  0.0000000E+00;  5.6063521E-01;0; -1.1165645E-02;  4.0135098E+04;  0.0000000E+00;  6.2701041E-01;  4.0000000E+04;  0.0000000E+00;  4.0001734E+04; -1.2036618E-02;  0.0000000E+00;  8.7097258E-04;  8.9540027E+02;
  1.0123041E-01;  9.9999998E-03;  1.9000268E-01;3105; -1.5092271E-03;  0.0000000E+00;  2.7304694E-05;  1.0014492E+03;  1.0000000E-01;  1.2005586E+03;3; -5.0513077E+00;  0.0000000E+00;  1.3132625E+00;0; -1.0995770E-02;  4.0130500E+04;  0.0000000E+00;  9.0867001E-01;  4.0000000E+04;  0.0000000E+00;  4.0000711E+04; -1.2061824E-02;  0.0000000E+00;  1.0660541E-03;  1.2962465E+03;
  1.0127293E-01;  9.9999998E-03;  2.0002414E-01;3106; -1.4062191E-03;  0.0000000E+00;  4.5980596E-05;  1.0013453E+03;  1.0000000E-01;  1.1146351E+03;3; -4.5179515E+00;  0.0000000E+00;  2.5569022E+00;0; -1.0819257E-02;  4.0119191E+04;  0.0000000E+00;  1.2211154E+00;  4.0000000E+04;  0.0000000E+00;  4.0003355E+04; -1.2050561E-02;  0.0000000E+00;  1.2313037E-03;  1.7558168E+03;
  1.0130545E-01;  9.9999998E-03;  2.1005709E-01;3107; -1.2540723E-03;  0.0000000E+00;  1.2528722E-04;  1.0011727E+03;  1.0000000E-01;  9.7162683E+02;3; -3.7487183E+00;  0.0000000E+00;  4.4555006E+00;0; -1.0646780E-02;  4.0100145E+04;  0.0000000E+00;  1.5430869E+00;  4.0000000E+04;  0.0000000E+00;  4.0007434E+04; -1.1968739E-02;  0.0000000E+00;  1.3219592E-03;  2.3268215E+03;
  1.0131840E-01;  9.9999998E-03;  2.2009304E-01;3108; -1.0618728E-03;  0.0000000E+00;  2.7733517E-04;  1.0009297E+03;  1.0000000E-01;  7.7024982E+02;3; -2.7222984E+00;  0.0000000E+00;  7.2495270E+00;0; -1.0482652E-02;  4.0073070E+04;  0.0000000E+00;  1.8622775E+00;  4.0000000E+04;  0.0000000E+00;  4.0012594E+04; -1.1781153E-02;  0.0000000E+00;  1.2985010E-03;  3.0513228E+03;
  1.0131141E-01;  9.9999998E-03;  2.3012526E-01;3109; -8.6342852E-04;  0.0000000E+00;  4.3608109E-04;  1.0006013E+03;  1.0000000E-01;  4.9815875E+02;3; -1.4190142E+00;  0.0000000E+00;  1.0941322E+01;0; -1.0318190E-02;  4.0039062E+04;  0.0000000E+00;  2.1782241E+00;  4.0000000E+04;  0.0000000E+00;  4.0017848E+04; -1.1455459E-02;  0.0000000E+00;  1.1372691E-03;  3.8709685E+03;
  1.1204524E-01;  9.9999998E-03;  6.9940515E-02;3154; -1.3481366E-03;  0.0000000E+00; -4.0802082E-05;  1.0003334E+03;  1.0000000E-01;  2.7623911E+02;3; -3.2788806E+00;  0.0000000E+00;  6.3122131E-02;0; -1.1600623E-02;  4.0028953E+04;  0.0000000E+00; -1.5079455E-02;  4.0000000E+04;  0.0000000E+00;  4.0011375E+04; -1.1853447E-02;  0.0000000E+00;  2.5282448E-04;  1.3725779E+03;
  1.1199602E-01;  9.9999998E-03;  7.9944335E-02;3155; -1.3495419E-03;  0.0000000E+00; -4.7330755E-05;  1.0002864E+03;  1.0000000E-01;  2.3722786E+02;3; -3.2634323E+00;  0.0000000E+00;  6.9023825E-02;0; -1.1573330E-02;  4.0024348E+04;  0.0000000E+00; -1.8533863E-02;  4.0000000E+04;  0.0000000E+00;  4.0012191E+04; -1.1874052E-02;  0.0000000E+00;  3.0072132E-04;  1.5018273E+03;
  1.1190336E-01;  9.9999998E-03;  8.9963719E-02;3156; -1.3578280E-03;  0.0000000E+00; -4.3928441E-05;  1.0002573E+03;  1.0000000E-01;  2.1312978E+02;3; -3.2400212E+00;  0.0000000E+00;  7.4167334E-02;0; -1.1529262E-02;  4.0020684E+04;  0.0000000E+00; -2.1045847E-02;  4.0000000E+04;  0.0000000E+00;  4.0014125E+04; -1.1860144E-02;  0.0000000E+00;  3.3088247E-04;  1.7288545E+03;
  1.1178490E-01;  9.9999998E-03;  9.9985033E-02;3157; -1.3751149E-03;  0.0000000E+00; -2.8898541E-05;  1.0002429E+03;  1.0000000E-01;  2.0127826E+02;3; -3.2091043E+00;  0.0000000E+00;  7.8218773E-02;0; -1.1473673E-02;  4.0018035E+04;  0.0000000E+00; -2.1685686E-02;  4.0000000E+04;  0.0000000E+00;  4.0016121E+04; -1.1813555E-02;  0.0000000E+00;  3.3988172E-04;  2.0012642E+03;
  1.1161338E-01;  9.9999998E-03;  1.1000519E-01;3158; -1.4026817E-03;  0.0000000E+00; -1.9369149E-06;  1.0002620E+03;  1.0000000E-01;  2.1708028E+02;3; -3.1881452E+00;  0.0000000E+00;  8.3477497E-02;0; -1.1413292E-02;  4.0017543E+04;  0.0000000E+00; -1.8839227E-02;  4.0000000E+04;  0.0000000E+00;  4.0018367E+04; -1.1743546E-02;  0.0000000E+00;  3.3025382E-04;  2.2389907E+03;
  1.1151201E-01;  9.9999998E-03;  1.2001246E-01;3159; -1.4397032E-03;  0.0000000E+00;  3.2385255E-05;  1.0002937E+03;  1.0000000E-01;  2.4335114E+02;3; -3.1596618E+00;  0.0000000E+00;  8.6231381E-02;0; -1.1350701E-02;  4.0019301E+04;  0.0000000E+00; -9.5359432E-03;  4.0000000E+04;  0.0000000E+00;  4.0018516E+04; -1.1661123E-02;  0.0000000E+00;  3.1042291E-04;  2.3574514E+03;
  1.1146192E-01;  9.9999998E-03;  1.3000108E-01;3160; -1.4821177E-03;  0.0000000E+00;  5.8754871E-05;  1.0003442E+03;  1.0000000E-01;  2.8512775E+02;3; -3.1390769E+00;  0.0000000E+00;  7.2234884E-02;0; -1.1288145E-02;  4.0023555E+04;  0.0000000E+00;  1.1662751E-02;  4.0000000E+04;  0.0000000E+00;  4.0018770E+04; -1.1583947E-02;  0.0000000E+00;  2.9580219E-04;  2.2928032E+03;
  1.1142802E-01;  9.9999998E-03;  1.3997918E-01;3161; -1.5230601E-03;  0.0000000E+00;  6.8275564E-05;  1.0004041E+03;  1.0000000E-01;  3.3480536E+02;3; -3.1330698E+00;  0.0000000E+00;  5.7611715E-02;0; -1.1224978E-02;  4.0030828E+04;  0.0000000E+00;  5.3533103E-02;  4.0000000E+04;  0.0000000E+00;  4.0017223E+04; -1.1530384E-02;  0.0000000E+00;  3.0540710E-04;  2.0281399E+03;
  1.1140709E-01;  9.9999998E-03;  1.4995451E-01;3162; -1.5557527E-03;  0.0000000E+00;  6.3767438E-05;  1.0004750E+03;  1.0000000E-01;  3.9356912E+02;3; -3.1308289E+00;  0.0000000E+00;  4.9070142E-02;0; -1.1158280E-02;  4.0040156E+04;  0.0000000E+00;  1.2852940E-01;  4.0000000E+04;  0.0000000E+00;  4.0013098E+04; -1.1514900E-02;  0.0000000E+00;  3.5662003E-04;  1.6093677E+03;
  1.1139800E-01;  9.9999998E-03;  1.5993872E-01;3163; -1.5745430E-03;  0.0000000E+00;  4.9335671E-05;  1.0005573E+03;  1.0000000E-01;  4.6171533E+02;3; -3.1269624E+00;  0.0000000E+00;  8.0833837E-02;0; -1.1085636E-02;  4.0050254E+04;  0.0000000E+00;  2.5034934E-01;  4.0000000E+04;  0.0000000E+00;  4.0009734E+04; -1.1545798E-02;  0.0000000E+00;  4.6016174E-04;  1.1540668E+03;
  1.1139914E-01;  9.9999998E-03;  1.6993679E-01;3164; -1.5742518E-03;  0.0000000E+00;  2.9747003E-05;  1.0006316E+03;  1.0000000E-01;  5.2324445E+02;3; -3.0903778E+00;  0.0000000E+00;  2.3577334E-01;0; -1.1006791E-02;  4.0059531E+04;  0.0000000E+00;  4.2920893E-01;  4.0000000E+04;  0.0000000E+00;  4.0006125E+04; -1.1623177E-02;  0.0000000E+00;  6.1638572E-04;  8.8652856E+02;
  1.1141069E-01;  9.9999998E-03;  1.7993909E-01;3165; -1.5490102E-03;  0.0000000E+00;  1.1506550E-05;  1.0006889E+03;  1.0000000E-01;  5.7074927E+02;3; -2.9859853E+00;  0.0000000E+00;  6.1214221E-01;0; -1.0924132E-02;  4.0065926E+04;  0.0000000E+00;  6.6878110E-01;  4.0000000E+04;  0.0000000E+00;  4.0003473E+04; -1.1736464E-02;  0.0000000E+00;  8.1233191E-04;  1.0186278E+03;
  1.1143669E-01;  9.9999998E-03;  1.8994533E-01;3166; -1.4928017E-03;  0.0000000E+00;  3.4552411E-06;  1.0007114E+03;  1.0000000E-01;  5.8931665E+02;3; -2.7803586E+00;  0.0000000E+00;  1.3337554E+00;0; -1.0843514E-02;  4.0067102E+04;  0.0000000E+00;  9.6578467E-01;  4.0000000E+04;  0.0000000E+00;  4.0003641E+04; -1.1864579E-02;  0.0000000E+00;  1.0210661E-03;  1.4198634E+03;
  1.1146449E-01;  9.9999998E-03;  1.9996029E-01;3167; -1.3986642E-03;  0.0000000E+00;  2.3752440E-05;  1.0006831E+03;  1.0000000E-01;  5.6590991E+02;3; -2.4363127E+00;  0.0000000E+00;  2.5642338E+00;0; -1.0773641E-02;  4.0061848E+04;  0.0000000E+00;  1.3158351E+00;  4.0000000E+04;  0.0000000E+00;  4.0005734E+04; -1.1977368E-02;  0.0000000E+00;  1.2037271E-03;  1.9868165E+03;
  1.1148579E-01;  9.9999998E-03;  2.0998003E-01;3168; -1.2587913E-03;  0.0000000E+00;  1.0921516E-04;  1.0005854E+03;  1.0000000E-01;  4.8502332E+02;3; -1.9274753E+00;  0.0000000E+00;  4.5045385E+00;0; -1.0721501E-02;  4.0048492E+04;  0.0000000E+00;  1.7233431E+00;  4.0000000E+04;  0.0000000E+00;  4.0010363E+04; -1.2036851E-02;  0.0000000E+00;  1.3153501E-03;  2.7654651E+03;
  1.1148770E-01;  9.9999998E-03;  2.2000583E-01;3169; -1.0829305E-03;  0.0000000E+00;  2.5995195E-04;  1.0004099E+03;  1.0000000E-01;  3.3964471E+02;3; -1.2329141E+00;  0.0000000E+00;  7.4115715E+00;0; -1.0684540E-02;  4.0026383E+04;  0.0000000E+00;  2.2075272E+00;  4.0000000E+04;  0.0000000E+00;  4.0017086E+04; -1.2000974E-02;  0.0000000E+00;  1.3164347E-03;  3.7824167E+03;
  1.1146092E-01;  9.9999998E-03;  2.3003587E-01;3170; -9.0031378E-04;  0.0000000E+00;  4.1302791E-04;  1.0001362E+03;  1.0000000E-01;  1.1288570E+02;3; -2.9235655E-01;  0.0000000E+00;  1.1279560E+01;0; -1.0645106E-02;  3.9996371E+04;  0.0000000E+00;  2.7955618E+00;  4.0000000E+04;  0.0000000E+00;  4.0023723E+04; -1.1827608E-02;  0.0000000E+00;  1.1825010E-03;  4.9697427E+03;
  1.2204856E-01;  9.9999998E-03;  6.9943480E-02;3215; -1.4215737E-03;  0.0000000E+00; -4.1420128E-05;  9.9974280E+02;  1.0000000E-01; -2.1308040E+02;3; -2.0567882E+00;  0.0000000E+00;  5.7519533E-02;0; -1.1591626E-02;  3.9976605E+04;  0.0000000E+00; -2.6245669E-02;  4.0000000E+04;  0.0000000E+00;  4.0013102E+04; -1.1817771E-02;  0.0000000E+00;  2.2614478E-04;  1.6497462E+03;
  1.2206755E-01;  9.9999998E-03;  7.9943247E-02;3216; -1.4266063E-03;  0.0000000E+00; -4.6249046E-05;  9.9967987E+02;  1.0000000E-01; -2.6522708E+02;3; -2.0369625E+00;  0.0000000E+00;  6.5613419E-02;0; -1.1571977E-02;  3.9970680E+04;  0.0000000E+00; -3.3676393E-02;  4.0000000E+04;  0.0000000E+00;  4.0014562E+04; -1.1838005E-02;  0.0000000E+00;  2.6602755E-04;  1.7934232E+03;
  1.2208808E-01;  9.9999998E-03;  8.9945175E-02;3217; -1.4368144E-03;  0.0000000E+00; -4.2033858E-05;  9.9962292E+02;  1.0000000E-01; -3.1238623E+02;3; -2.0090885E+00;  0.0000000E+00;  7.6074637E-02;0; -1.1532231E-02;  3.9964391E+04;  0.0000000E+00; -3.9967149E-02;  4.0000000E+04;  0.0000000E+00;  4.0015633E+04; -1.1818927E-02;  0.0000000E+00;  2.8669595E-04;  2.0345605E+03;
  1.2210476E-01;  9.9999998E-03;  9.9945374E-02;3218; -1.4540473E-03;  0.0000000E+00; -2.7938833E-05;  9.9958118E+02;  1.0000000E-01; -3.4700253E+02;3; -1.9781458E+00;  0.0000000E+00;  8.4282011E-02;0; -1.1477524E-02;  3.9959645E+04;  0.0000000E+00; -4.3229859E-02;  4.0000000E+04;  0.0000000E+00;  4.0018305E+04; -1.1762853E-02;  0.0000000E+00;  2.8532839E-04;  2.3176277E+03;
  1.2210196E-01;  9.9999998E-03;  1.0994092E-01;3219; -1.4787462E-03;  0.0000000E+00; -6.6542925E-06;  9.9956311E+02;  1.0000000E-01; -3.6196506E+02;3; -1.9519520E+00;  0.0000000E+00;  9.3613558E-02;0; -1.1414314E-02;  3.9955988E+04;  0.0000000E+00; -4.0877014E-02;  4.0000000E+04;  0.0000000E+00;  4.0020141E+04; -1.1679245E-02;  0.0000000E+00;  2.6493132E-04;  2.5595227E+03;
  1.2201677E-01;  9.9999998E-03;  1.1994467E-01;3220; -1.5086585E-03;  0.0000000E+00;  1.8181439E-05;  9.9957001E+02;  1.0000000E-01; -3.5623685E+02;3; -1.9269782E+00;  0.0000000E+00;  9.9563725E-02;0; -1.1347884E-02;  3.9955617E+04;  0.0000000E+00; -2.9272554E-02;  4.0000000E+04;  0.0000000E+00;  4.0020887E+04; -1.1583462E-02;  0.0000000E+00;  2.3557797E-04;  2.6736543E+03;
  1.2187737E-01;  9.9999998E-03;  1.2994254E-01;3221; -1.5409879E-03;  0.0000000E+00;  3.5336896E-05;  9.9959888E+02;  1.0000000E-01; -3.3233627E+02;3; -1.9101902E+00;  0.0000000E+00;  9.5009230E-02;0; -1.1283694E-02;  3.9958828E+04;  0.0000000E+00; -3.3913632E-03;  4.0000000E+04;  0.0000000E+00;  4.0020871E+04; -1.1496759E-02;  0.0000000E+00;  2.1306536E-04;  2.5935039E+03;
  1.2172867E-01;  9.9999998E-03;  1.3992880E-01;3222; -1.5720552E-03;  0.0000000E+00;  3.9225430E-05;  9.9965527E+02;  1.0000000E-01; -2.8562155E+02;3; -1.8994509E+00;  0.0000000E+00;  8.3762497E-02;0; -1.1224987E-02;  3.9965945E+04;  0.0000000E+00;  4.4362888E-02;  4.0000000E+04;  0.0000000E+00;  4.0017875E+04; -1.1441274E-02;  0.0000000E+00;  2.1628710E-04;  2.3034829E+03;
  1.2162097E-01;  9.9999998E-03;  1.4990833E-01;3223; -1.5978377E-03;  0.0000000E+00;  3.0418460E-05;  9.9973993E+02;  1.0000000E-01; -2.1545070E+02;3; -1.8922116E+00;  0.0000000E+00;  7.6134458E-02;0; -1.1173383E-02;  3.9976086E+04;  0.0000000E+00;  1.2445910E-01;  4.0000000E+04;  0.0000000E+00;  4.0015512E+04; -1.1435741E-02;  0.0000000E+00;  2.6235738E-04;  1.8560497E+03;
  1.2156225E-01;  9.9999998E-03;  1.5989335E-01;3224; -1.6133719E-03;  0.0000000E+00;  1.3208864E-05;  9.9983997E+02;  1.0000000E-01; -1.3258884E+02;3; -1.8814424E+00;  0.0000000E+00;  1.0928351E-01;0; -1.1130113E-02;  3.9988016E+04;  0.0000000E+00;  2.4796908E-01;  4.0000000E+04;  0.0000000E+00;  4.0011645E+04; -1.1492248E-02;  0.0000000E+00;  3.6213439E-04;  1.3716814E+03;
  1.2155012E-01;  9.9999998E-03;  1.6989182E-01;3225; -1.6129790E-03;  0.0000000E+00; -8.3792556E-06;  9.9994714E+02;  1.0000000E-01; -4.3801231E+01;3; -1.8428050E+00;  0.0000000E+00;  2.6048240E-01;0; -1.1097579E-02;  4.0000664E+04;  0.0000000E+00;  4.2367551E-01;  4.0000000E+04;  0.0000000E+00;  4.0007270E+04; -1.1613976E-02;  0.0000000E+00;  5.1639677E-04;  1.0547723E+03;
  1.2156442E-01;  9.9999998E-03;  1.7989330E-01;3226; -1.5914359E-03;  0.0000000E+00; -2.9381574E-05;  1.0000476E+03;  1.0000000E-01;  3.9406292E+01;3; -1.7653706E+00;  0.0000000E+00;  6.3005280E-01;0; -1.1079414E-02;  4.0010582E+04;  0.0000000E+00;  6.5727293E-01;  4.0000000E+04;  0.0000000E+00;  4.0004738E+04; -1.1792519E-02;  0.0000000E+00;  7.1310491E-04;  1.1150729E+03;
  1.2158819E-01;  9.9999998E-03;  1.8989587E-01;3227; -1.5436960E-03;  0.0000000E+00; -4.2371121E-05;  1.0001274E+03;  1.0000000E-01;  1.0557726E+02;3; -1.6249244E+00;  0.0000000E+00;  1.3496994E+00;0; -1.1081227E-02;  4.0016488E+04;  0.0000000E+00;  9.5667487E-01;  4.0000000E+04;  0.0000000E+00;  4.0005387E+04; -1.2007895E-02;  0.0000000E+00;  9.2666753E-04;  1.5109550E+03;
  1.2160305E-01;  9.9999998E-03;  1.9990224E-01;3228; -1.4647016E-03;  0.0000000E+00; -3.5164565E-05;  1.0001652E+03;  1.0000000E-01;  1.3688503E+02;3; -1.4048798E+00;  0.0000000E+00;  2.5944674E+00;0; -1.1109362E-02;  4.0015773E+04;  0.0000000E+00;  1.3416777E+00;  4.0000000E+04;  0.0000000E+00;  4.0008602E+04; -1.2229078E-02;  0.0000000E+00;  1.1197155E-03;  2.1817034E+03;
  1.2159965E-01;  9.9999998E-03;  2.0991370E-01;3229; -1.3468788E-03;  0.0000000E+00;  2.0695610E-05;  1.0001315E+03;  1.0000000E-01;  1.0893519E+02;3; -1.0736744E+00;  0.0000000E+00;  4.6098547E+00;0; -1.1166750E-02;  4.0006867E+04;  0.0000000E+00;  1.8524896E+00;  4.0000000E+04;  0.0000000E+00;  4.0013785E+04; -1.2415404E-02;  0.0000000E+00;  1.2486535E-03;  3.1830342E+03;
  1.2158240E-01;  9.9999998E-03;  2.1993287E-01;3230; -1.1903710E-03;  0.0000000E+00;  1.5324859E-04;  1.0000049E+03;  1.0000000E-01;  4.0492682E+00;3; -5.8689106E-01;  0.0000000E+00;  7.6364698E+00;0; -1.1244300E-02;  3.9988621E+04;  0.0000000E+00;  2.5499148E+00;  4.0000000E+04;  0.0000000E+00;  4.0021836E+04; -1.2519756E-02;  0.0000000E+00;  1.2754565E-03;  4.5413428E+03;
  1.2153963E-01;  9.9999998E-03;  2.2995666E-01;3231; -1.0223666E-03;  0.0000000E+00;  2.9984044E-04;  9.9976483E+02;  1.0000000E-01; -1.9480931E+02;3;  1.4227650E-01;  0.0000000E+00;  1.1687672E+01;0; -1.1316109E-02;  3.9960750E+04;  0.0000000E+00;  3.4982684E+00;  4.0000000E+04;  0.0000000E+00;  4.0029012E+04; -1.2492324E-02;  0.0000000E+00;  1.1762155E-03;  6.2077881E+03;
  1.3192935E-01;  9.9999998E-03;  6.9934674E-02;3276; -1.5511450E-03;  0.0000000E+00; -3.6730569E-05;  9.9938904E+02;  1.0000000E-01; -5.0615854E+02;3; -1.4638208E+00;  0.0000000E+00;  5.4103240E-02;0; -1.1870436E-02;  3.9944027E+04;  0.0000000E+00; -3.2117363E-02;  4.0000000E+04;  0.0000000E+00;  4.0014137E+04; -1.2077507E-02;  0.0000000E+00;  2.0706988E-04;  1.7837223E+03;
  1.3195659E-01;  9.9999998E-03;  7.9936765E-02;3277; -1.5601882E-03;  0.0000000E+00; -3.6922451E-05;  9.9932599E+02;  1.0000000E-01; -5.5840393E+02;3; -1.4529669E+00;  0.0000000E+00;  6.4541541E-02;0; -1.1861867E-02;  3.9937844E+04;  0.0000000E+00; -4.2700835E-02;  4.0000000E+04;  0.0000000E+00;  4.0015402E+04; -1.2100067E-02;  0.0000000E+00;  2.3820001E-04;  1.9430735E+03;
  1.3198960E-01;  9.9999998E-03;  8.9940459E-02;3278; -1.5731818E-03;  0.0000000E+00; -2.9328461E-05;  9.9926605E+02;  1.0000000E-01; -6.0808154E+02;3; -1.4414678E+00;  0.0000000E+00;  7.3574364E-02;0; -1.1831613E-02;  3.9931613E+04;  0.0000000E+00; -5.2856423E-02;  4.0000000E+04;  0.0000000E+00;  4.0017281E+04; -1.2080714E-02;  0.0000000E+00;  2.4910105E-04;  2.1973022E+03;
  1.3202365E-01;  9.9999998E-03;  9.9942029E-02;3279; -1.5911412E-03;  0.0000000E+00; -1.3556858E-05;  9.9922076E+02;  1.0000000E-01; -6.4556201E+02;3; -1.4273739E+00;  0.0000000E+00;  8.1524096E-02;0; -1.1784570E-02;  3.9925863E+04;  0.0000000E+00; -6.0217280E-02;  4.0000000E+04;  0.0000000E+00;  4.0019148E+04; -1.2021811E-02;  0.0000000E+00;  2.3724079E-04;  2.4884214E+03;
  1.3205391E-01;  9.9999998E-03;  1.0993591E-01;3280; -1.6131453E-03;  0.0000000E+00;  5.9866506E-06;  9.9918909E+02;  1.0000000E-01; -6.7183282E+02;3; -1.4101449E+00;  0.0000000E+00;  8.4289446E-02;0; -1.1727717E-02;  3.9921805E+04;  0.0000000E+00; -6.1514433E-02;  4.0000000E+04;  0.0000000E+00;  4.0021035E+04; -1.1933547E-02;  0.0000000E+00;  2.0583108E-04;  2.7311958E+03;
  1.3207628E-01;  9.9999998E-03;  1.1991903E-01;3281; -1.6375872E-03;  0.0000000E+00;  2.2891809E-05;  9.9918207E+02;  1.0000000E-01; -6.7765985E+02;3; -1.3864942E+00;  0.0000000E+00;  7.9949506E-02;0; -1.1668722E-02;  3.9920426E+04;  0.0000000E+00; -5.2465666E-02;  4.0000000E+04;  0.0000000E+00;  4.0021277E+04; -1.1833463E-02;  0.0000000E+00;  1.6474098E-04;  2.8359106E+03;
  1.3208340E-01;  9.9999998E-03;  1.2989078E-01;3282; -1.6620671E-03;  0.0000000E+00;  2.9258852E-05;  9.9919318E+02;  1.0000000E-01; -6.6842554E+02;3; -1.3690298E+00;  0.0000000E+00;  7.4743383E-02;0; -1.1614023E-02;  3.9922277E+04;  0.0000000E+00; -2.7507493E-02;  4.0000000E+04;  0.0000000E+00;  4.0021379E+04; -1.1743875E-02;  0.0000000E+00;  1.2985217E-04;  2.7375134E+03;
  1.3205226E-01;  9.9999998E-03;  1.3985814E-01;3283; -1.6841881E-03;  0.0000000E+00;  2.3395678E-05;  9.9923578E+02;  1.0000000E-01; -6.3316730E+02;3; -1.3485376E+00;  0.0000000E+00;  6.8229116E-02;0; -1.1567734E-02;  3.9928422E+04;  0.0000000E+00;  2.0510413E-02;  4.0000000E+04;  0.0000000E+00;  4.0019535E+04; -1.1688125E-02;  0.0000000E+00;  1.2039096E-04;  2.4243750E+03;
  1.3194554E-01;  9.9999998E-03;  1.4984380E-01;3284; -1.7014666E-03;  0.0000000E+00;  7.6101196E-06;  9.9930798E+02;  1.0000000E-01; -5.7331714E+02;3; -1.3322786E+00;  0.0000000E+00;  6.8226621E-02;0; -1.1532226E-02;  3.9938117E+04;  0.0000000E+00;  9.9857248E-02;  4.0000000E+04;  0.0000000E+00;  4.0015660E+04; -1.1686744E-02;  0.0000000E+00;  1.5451893E-04;  1.9549611E+03;
  1.3181502E-01;  9.9999998E-03;  1.5984374E-01;3285; -1.7107178E-03;  0.0000000E+00; -1.4919885E-05;  9.9941016E+02;  1.0000000E-01; -4.8867755E+02;3; -1.3138421E+00;  0.0000000E+00;  1.0791598E-01;0; -1.1513880E-02;  3.9950758E+04;  0.0000000E+00;  2.1810442E-01;  4.0000000E+04;  0.0000000E+00;  4.0011785E+04; -1.1757484E-02;  0.0000000E+00;  2.4360295E-04;  1.4486467E+03;
  1.3173757E-01;  9.9999998E-03;  1.6985531E-01;3286; -1.7079852E-03;  0.0000000E+00; -4.0933955E-05;  9.9953595E+02;  1.0000000E-01; -3.8443356E+02;3; -1.2787893E+00;  0.0000000E+00;  2.6636514E-01;0; -1.1520931E-02;  3.9964590E+04;  0.0000000E+00;  3.8210264E-01;  4.0000000E+04;  0.0000000E+00;  4.0007414E+04; -1.1909369E-02;  0.0000000E+00;  3.8843925E-04;  1.0992244E+03;
  1.3170527E-01;  9.9999998E-03;  1.7986655E-01;3287; -1.6890547E-03;  0.0000000E+00; -6.6851950E-05;  9.9966962E+02;  1.0000000E-01; -2.7372064E+02;3; -1.2263048E+00;  0.0000000E+00;  6.4502805E-01;0; -1.1558505E-02;  3.9976934E+04;  0.0000000E+00;  6.0217041E-01;  4.0000000E+04;  0.0000000E+00;  4.0005758E+04; -1.2136608E-02;  0.0000000E+00;  5.7810399E-04;  1.1206281E+03;
  1.3169491E-01;  9.9999998E-03;  1.8987377E-01;3288; -1.6492518E-03;  0.0000000E+00; -8.7010529E-05;  9.9978668E+02;  1.0000000E-01; -1.7673575E+02;3; -1.1375146E+00;  0.0000000E+00;  1.3765657E+00;0; -1.1631765E-02;  3.9985727E+04;  0.0000000E+00;  9.0140724E-01;  4.0000000E+04;  0.0000000E+00;  4.0006621E+04; -1.2420652E-02;  0.0000000E+00;  7.8888680E-04;  1.5283329E+03;
  1.3168709E-01;  9.9999998E-03;  1.9987862E-01;3289; -1.5852213E-03;  0.0000000E+00; -9.0716901E-05;  9.9986041E+02;  1.0000000E-01; -1.1565105E+02;3; -1.0045115E+00;  0.0000000E+00;  2.6712582E+00;0; -1.1745424E-02;  3.9987766E+04;  0.0000000E+00;  1.3274037E+00;  4.0000000E+04;  0.0000000E+00;  4.0010715E+04; -1.2731253E-02;  0.0000000E+00;  9.8582928E-04;  2.3097852E+03;
  1.3166550E-01;  9.9999998E-03;  2.0988172E-01;3290; -1.4943558E-03;  0.0000000E+00; -6.6139102E-05;  9.9986920E+02;  1.0000000E-01; -1.0834261E+02;3; -7.9032332E-01;  0.0000000E+00;  4.8001704E+00;0; -1.1899356E-02;  3.9981430E+04;  0.0000000E+00;  1.9599190E+00;  4.0000000E+04;  0.0000000E+00;  4.0016766E+04; -1.3027333E-02;  0.0000000E+00;  1.1279765E-03;  3.5444216E+03;
  1.3162220E-01;  9.9999998E-03;  2.1988688E-01;3291; -1.3712833E-03;  0.0000000E+00;  1.0471505E-05;  9.9977032E+02;  1.0000000E-01; -1.9026622E+02;3; -4.3031204E-01;  0.0000000E+00;  8.0015221E+00;0; -1.2080412E-02;  3.9964488E+04;  0.0000000E+00;  2.9051452E+00;  4.0000000E+04;  0.0000000E+00;  4.0025852E+04; -1.3259131E-02;  0.0000000E+00;  1.1787183E-03;  5.2812671E+03;
  1.3154913E-01;  9.9999998E-03;  2.2989261E-01;3292; -1.2221171E-03;  0.0000000E+00;  1.4084559E-04;  9.9954669E+02;  1.0000000E-01; -3.7554492E+02;3;  2.0366141E-01;  0.0000000E+00;  1.2323182E+01;0; -1.2253699E-02;  3.9937676E+04;  0.0000000E+00;  4.2714863E+00;  4.0000000E+04;  0.0000000E+00;  4.0033938E+04; -1.3371397E-02;  0.0000000E+00;  1.1176977E-03;  7.5232974E+03;
  1.4177738E-01;  9.9999998E-03;  6.9919012E-02;3337; -1.7248598E-03;  0.0000000E+00; -2.9882824E-05;  9.9923553E+02;  1.0000000E-01; -6.3336481E+02;3; -1.2749799E+00;  0.0000000E+00;  4.3319050E-02;0; -1.2329043E-02;  3.9928551E+04;  0.0000000E+00; -3.1128250E-02;  4.0000000E+04;  0.0000000E+00;  4.0013328E+04; -1.2528273E-02;  0.0000000E+00;  1.9923043E-04;  1.7446016E+03;
  1.4181040E-01;  9.9999998E-03;  7.9923525E-02;3338; -1.7390437E-03;  0.0000000E+00; -2.7333630E-05;  9.9918555E+02;  1.0000000E-01; -6.7474634E+02;3; -1.2662591E+00;  0.0000000E+00;  4.8869457E-02;0; -1.2333032E-02;  3.9923398E+04;  0.0000000E+00; -4.2566057E-02;  4.0000000E+04;  0.0000000E+00;  4.0014684E+04; -1.2554003E-02;  0.0000000E+00;  2.2097099E-04;  1.9178287E+03;
  1.4185014E-01;  9.9999998E-03;  8.9930616E-02;3339; -1.7550114E-03;  0.0000000E+00; -1.8139914E-05;  9.9913696E+02;  1.0000000E-01; -7.1499213E+02;3; -1.2558749E+00;  0.0000000E+00;  5.2577719E-02;0; -1.2314563E-02;  3.9917863E+04;  0.0000000E+00; -5.4937210E-02;  4.0000000E+04;  0.0000000E+00;  4.0016664E+04; -1.2536407E-02;  0.0000000E+00;  2.2184392E-04;  2.1810903E+03;
  1.4189339E-01;  9.9999998E-03;  9.9935375E-02;3340; -1.7720321E-03;  0.0000000E+00; -4.4455956E-06;  9.9910248E+02;  1.0000000E-01; -7.4358392E+02;3; -1.2397205E+00;  0.0000000E+00;  5.2344076E-02;0; -1.2278441E-02;  3.9912848E+04;  0.0000000E+00; -6.6131704E-02;  4.0000000E+04;  0.0000000E+00;  4.0019012E+04; -1.2477786E-02;  0.0000000E+00;  1.9934507E-04;  2.4752139E+03;
  1.4193517E-01;  9.9999998E-03;  1.0993259E-01;3341; -1.7892970E-03;  0.0000000E+00;  9.6580461E-06;  9.9907617E+02;  1.0000000E-01; -7.6536108E+02;3; -1.2240888E+00;  0.0000000E+00;  5.3495128E-02;0; -1.2232043E-02;  3.9909535E+04;  0.0000000E+00; -7.2823115E-02;  4.0000000E+04;  0.0000000E+00;  4.0020617E+04; -1.2388652E-02;  0.0000000E+00;  1.5660972E-04;  2.7155459E+03;
  1.4197114E-01;  9.9999998E-03;  1.1991838E-01;3342; -1.8058994E-03;  0.0000000E+00;  1.9522977E-05;  9.9907294E+02;  1.0000000E-01; -7.6807703E+02;3; -1.2021784E+00;  0.0000000E+00;  5.0408207E-02;0; -1.2183744E-02;  3.9908641E+04;  0.0000000E+00; -7.0364825E-02;  4.0000000E+04;  0.0000000E+00;  4.0020992E+04; -1.2287093E-02;  0.0000000E+00;  1.0334962E-04;  2.8128105E+03;
  1.4199819E-01;  9.9999998E-03;  1.2989207E-01;3343; -1.8213798E-03;  0.0000000E+00;  2.0370015E-05;  9.9908850E+02;  1.0000000E-01; -7.5513916E+02;3; -1.1811852E+00;  0.0000000E+00;  4.8322961E-02;0; -1.2141473E-02;  3.9910949E+04;  0.0000000E+00; -5.2778944E-02;  4.0000000E+04;  0.0000000E+00;  4.0020938E+04; -1.2196628E-02;  0.0000000E+00;  5.5155673E-05;  2.7020596E+03;
  1.4201301E-01;  9.9999998E-03;  1.3985613E-01;3344; -1.8349153E-03;  0.0000000E+00;  9.9847866E-06;  9.9912708E+02;  1.0000000E-01; -7.2318945E+02;3; -1.1596113E+00;  0.0000000E+00;  4.6933819E-02;0; -1.2112191E-02;  3.9917164E+04;  0.0000000E+00; -1.3011687E-02;  4.0000000E+04;  0.0000000E+00;  4.0019152E+04; -1.2142851E-02;  0.0000000E+00;  3.0659721E-05;  2.3720493E+03;
  1.4201085E-01;  9.9999998E-03;  1.4981768E-01;3345; -1.8451741E-03;  0.0000000E+00; -9.5356054E-06;  9.9919708E+02;  1.0000000E-01; -6.6521576E+02;3; -1.1374648E+00;  0.0000000E+00;  5.0539356E-02;0; -1.2102430E-02;  3.9926738E+04;  0.0000000E+00;  5.5975586E-02;  4.0000000E+04;  0.0000000E+00;  4.0014215E+04; -1.2149580E-02;  0.0000000E+00;  4.7150461E-05;  1.8815265E+03;
  1.4198014E-01;  9.9999998E-03;  1.5979166E-01;3346; -1.8497293E-03;  0.0000000E+00; -3.5355642E-05;  9.9929565E+02;  1.0000000E-01; -5.8353906E+02;3; -1.1146597E+00;  0.0000000E+00;  9.8472655E-02;0; -1.2117874E-02;  3.9939289E+04;  0.0000000E+00;  1.5973535E-01;  4.0000000E+04;  0.0000000E+00;  4.0010578E+04; -1.2234676E-02;  0.0000000E+00;  1.1680226E-04;  1.3526562E+03;
  1.4191204E-01;  9.9999998E-03;  1.6980246E-01;3347; -1.8453228E-03;  0.0000000E+00; -6.5254026E-05;  9.9942255E+02;  1.0000000E-01; -4.7840622E+02;3; -1.0861956E+00;  0.0000000E+00;  2.6803279E-01;0; -1.2164151E-02;  3.9953148E+04;  0.0000000E+00;  3.0498093E-01;  4.0000000E+04;  0.0000000E+00;  4.0006762E+04; -1.2407496E-02;  0.0000000E+00;  2.4334433E-04;  9.7881763E+02;
  1.4182076E-01;  9.9999998E-03;  1.7983982E-01;3348; -1.8283104E-03;  0.0000000E+00; -9.5759809E-05;  9.9956366E+02;  1.0000000E-01; -3.6152063E+02;3; -1.0512933E+00;  0.0000000E+00;  6.6270077E-01;0; -1.2248600E-02;  3.9966312E+04;  0.0000000E+00;  5.0880575E-01;  4.0000000E+04;  0.0000000E+00;  4.0004566E+04; -1.2667092E-02;  0.0000000E+00;  4.1849230E-04;  9.8516150E+02;
  1.4175136E-01;  9.9999998E-03;  1.8986598E-01;3349; -1.7960509E-03;  0.0000000E+00; -1.2105358E-04;  9.9969550E+02;  1.0000000E-01; -2.5228915E+02;3; -1.0105882E+00;  0.0000000E+00;  1.4260256E+00;0; -1.2380796E-02;  3.9976023E+04;  0.0000000E+00;  8.1137997E-01;  4.0000000E+04;  0.0000000E+00;  4.0006207E+04; -1.3000557E-02;  0.0000000E+00;  6.1976205E-04;  1.4217632E+03;
  1.4170907E-01;  9.9999998E-03;  1.9987553E-01;3350; -1.7459256E-03;  0.0000000E+00; -1.3356833E-04;  9.9978906E+02;  1.0000000E-01; -1.7476048E+02;3; -9.5069027E-01;  0.0000000E+00;  2.7768841E+00;0; -1.2566577E-02;  3.9979188E+04;  0.0000000E+00;  1.2876986E+00;  4.0000000E+04;  0.0000000E+00;  4.0010930E+04; -1.3381133E-02;  0.0000000E+00;  8.1455626E-04;  2.3163337E+03;
  1.4166886E-01;  9.9999998E-03;  2.0987338E-01;3351; -1.6769262E-03;  0.0000000E+00; -1.2339854E-04;  9.9980640E+02;  1.0000000E-01; -1.6039052E+02;3; -8.3225113E-01;  0.0000000E+00;  5.0215745E+00;0; -1.2803923E-02;  3.9973254E+04;  0.0000000E+00;  2.0527453E+00;  4.0000000E+04;  0.0000000E+00;  4.0018832E+04; -1.3769402E-02;  0.0000000E+00;  9.6547842E-04;  3.7834534E+03;
  1.4160778E-01;  9.9999998E-03;  2.1986724E-01;3352; -1.5877490E-03;  0.0000000E+00; -8.4454034E-05;  9.9971790E+02;  1.0000000E-01; -2.3372179E+02;3; -5.4177332E-01;  0.0000000E+00;  8.4514561E+00;0; -1.3078692E-02;  3.9956340E+04;  0.0000000E+00;  3.2542086E+00;  4.0000000E+04;  0.0000000E+00;  4.0028750E+04; -1.4116610E-02;  0.0000000E+00;  1.0379181E-03;  5.9126387E+03;
  1.4151862E-01;  9.9999998E-03;  2.2985783E-01;3353; -1.4789680E-03;  0.0000000E+00; -1.4682651E-05;  9.9949139E+02;  1.0000000E-01; -4.2137079E+02;3;  1.0042366E-01;  0.0000000E+00;  1.3105084E+01;0; -1.3358944E-02;  3.9928133E+04;  0.0000000E+00;  5.0464087E+00;  4.0000000E+04;  0.0000000E+00;  4.0038117E+04; -1.4368288E-02;  0.0000000E+00;  1.0093439E-03;  8.7770635E+03;
  1.5162720E-01;  9.9999998E-03;  6.9916695E-02;3398; -1.9380120E-03;  0.0000000E+00; -2.6865315E-05;  9.9922925E+02;  1.0000000E-01; -6.3854987E+02;3; -1.2620701E+00;  0.0000000E+00;  3.0601582E-02;0; -1.2852102E-02;  3.9926594E+04;  0.0000000E+00; -2.5920680E-02;  4.0000000E+04;  0.0000000E+00;  4.0011504E+04; -1.3057997E-02;  0.0000000E+00;  2.0589566E-04;  1.5292725E+03;
  1.5166782E-01;  9.9999998E-03;  7.9916306E-02;3399; -1.9554102E-03;  0.0000000E+00; -2.4399831E-05;  9.9919983E+02;  1.0000000E-01; -6.6294421E+02;3; -1.2514635E+00;  0.0000000E+00;  3.2669250E-02;0; -1.2869916E-02;  3.9922996E+04;  0.0000000E+00; -3.5462555E-02;  4.0000000E+04;  0.0000000E+00;  4.0013434E+04; -1.3087873E-02;  0.0000000E+00;  2.1795786E-04;  1.7115350E+03;
  1.5171312E-01;  9.9999998E-03;  8.9918762E-02;3400; -1.9717244E-03;  0.0000000E+00; -1.6510096E-05;  9.9917358E+02;  1.0000000E-01; -6.8467200E+02;3; -1.2379627E+00;  0.0000000E+00;  3.3293117E-02;0; -1.2865196E-02;  3.9918945E+04;  0.0000000E+00; -4.7335535E-02;  4.0000000E+04;  0.0000000E+00;  4.0015316E+04; -1.3074277E-02;  0.0000000E+00;  2.0908083E-04;  1.9758243E+03;
  1.5176231E-01;  9.9999998E-03;  9.9922605E-02;3401; -1.9860007E-03;  0.0000000E+00; -5.0494891E-06;  9.9915710E+02;  1.0000000E-01; -6.9830121E+02;3; -1.2232835E+00;  0.0000000E+00;  3.3966452E-02;0; -1.2842913E-02;  3.9915750E+04;  0.0000000E+00; -6.0476262E-02;  4.0000000E+04;  0.0000000E+00;  4.0017746E+04; -1.3019464E-02;  0.0000000E+00;  1.7655105E-04;  2.2648184E+03;
  1.5180962E-01;  9.9999998E-03;  1.0992353E-01;3402; -1.9976539E-03;  0.0000000E+00;  6.8533550E-06;  9.9915131E+02;  1.0000000E-01; -7.0314062E+02;3; -1.2067193E+00;  0.0000000E+00;  3.4483828E-02;0; -1.2810527E-02;  3.9914051E+04;  0.0000000E+00; -7.2390795E-02;  4.0000000E+04;  0.0000000E+00;  4.0019020E+04; -1.2933538E-02;  0.0000000E+00;  1.2301106E-04;  2.4975090E+03;
  1.5185054E-01;  9.9999998E-03;  1.1991470E-01;3403; -2.0065298E-03;  0.0000000E+00;  1.4593893E-05;  9.9916174E+02;  1.0000000E-01; -6.9449890E+02;3; -1.1885920E+00;  0.0000000E+00;  3.4524985E-02;0; -1.2776949E-02;  3.9914504E+04;  0.0000000E+00; -7.8929119E-02;  4.0000000E+04;  0.0000000E+00;  4.0019941E+04; -1.2834517E-02;  0.0000000E+00;  5.7567984E-05;  2.5877668E+03;
  1.5188384E-01;  9.9999998E-03;  1.2989354E-01;3404; -2.0128612E-03;  0.0000000E+00;  1.3430311E-05;  9.9919031E+02;  1.0000000E-01; -6.7079584E+02;3; -1.1691195E+00;  0.0000000E+00;  3.4280840E-02;0; -1.2751007E-02;  3.9917977E+04;  0.0000000E+00; -7.4263990E-02;  4.0000000E+04;  0.0000000E+00;  4.0019789E+04; -1.2746152E-02;  0.0000000E+00; -4.8557822E-06;  2.4717603E+03;
  1.5190725E-01;  9.9999998E-03;  1.3986319E-01;3405; -2.0170591E-03;  0.0000000E+00;  1.5750733E-06;  9.9923602E+02;  1.0000000E-01; -6.3292035E+02;3; -1.1488873E+00;  0.0000000E+00;  3.4446884E-02;0; -1.2740941E-02;  3.9924703E+04;  0.0000000E+00; -5.1399242E-02;  4.0000000E+04;  0.0000000E+00;  4.0016789E+04; -1.2694639E-02;  0.0000000E+00; -4.6301258E-05;  2.1375862E+03;
  1.5192105E-01;  9.9999998E-03;  1.4982927E-01;3406; -2.0191672E-03;  0.0000000E+00; -1.9278968E-05;  9.9930817E+02;  1.0000000E-01; -5.7316895E+02;3; -1.1277357E+00;  0.0000000E+00;  3.9249413E-02;0; -1.2755278E-02;  3.9934801E+04;  0.0000000E+00; -3.5900327E-03;  4.0000000E+04;  0.0000000E+00;  4.0013035E+04; -1.2705402E-02;  0.0000000E+00; -4.9875638E-05;  1.6409642E+03;
  1.5192553E-01;  9.9999998E-03;  1.5980300E-01;3407; -2.0182782E-03;  0.0000000E+00; -4.6810273E-05;  9.9940826E+02;  1.0000000E-01; -4.9025775E+02;3; -1.1055630E+00;  0.0000000E+00;  9.1627792E-02;0; -1.2802025E-02;  3.9947727E+04;  0.0000000E+00;  7.4627914E-02;  4.0000000E+04;  0.0000000E+00;  4.0008281E+04; -1.2798900E-02;  0.0000000E+00; -3.1252871E-06;  1.0972987E+03;
  1.5191455E-01;  9.9999998E-03;  1.6980378E-01;3408; -2.0124165E-03;  0.0000000E+00; -7.9118574E-05;  9.9953571E+02;  1.0000000E-01; -3.8468048E+02;3; -1.0838966E+00;  0.0000000E+00;  2.7055672E-01;0; -1.2888411E-02;  3.9961629E+04;  0.0000000E+00;  1.9316731E-01;  4.0000000E+04;  0.0000000E+00;  4.0005340E+04; -1.2987277E-02;  0.0000000E+00;  9.8866323E-05;  6.9482007E+02;
  1.5186934E-01;  9.9999998E-03;  1.7983055E-01;3409; -1.9986008E-03;  0.0000000E+00; -1.1285190E-04;  9.9967078E+02;  1.0000000E-01; -2.7273303E+02;3; -1.0697861E+00;  0.0000000E+00;  6.7977840E-01;0; -1.3020974E-02;  3.9974883E+04;  0.0000000E+00;  3.7890691E-01;  4.0000000E+04;  0.0000000E+00;  4.0003961E+04; -1.3271717E-02;  0.0000000E+00;  2.5074405E-04;  6.9751434E+02;
  1.5178922E-01;  9.9999998E-03;  1.8986487E-01;3410; -1.9741389E-03;  0.0000000E+00; -1.4283345E-04;  9.9979901E+02;  1.0000000E-01; -1.6651381E+02;3; -1.0730959E+00;  0.0000000E+00;  1.4668443E+00;0; -1.3206867E-02;  3.9984137E+04;  0.0000000E+00;  6.8930316E-01;  4.0000000E+04;  0.0000000E+00;  4.0004695E+04; -1.3641549E-02;  0.0000000E+00;  4.3468285E-04;  1.1702015E+03;
  1.5170631E-01;  9.9999998E-03;  1.9989052E-01;3411; -1.9375274E-03;  0.0000000E+00; -1.6267838E-04;  9.9988898E+02;  1.0000000E-01; -9.1997398E+01;3; -1.0836229E+00;  0.0000000E+00;  2.8546422E+00;0; -1.3454140E-02;  3.9986707E+04;  0.0000000E+00;  1.2220854E+00;  4.0000000E+04;  0.0000000E+00;  4.0009738E+04; -1.4075465E-02;  0.0000000E+00;  6.2132441E-04;  2.1611997E+03;
  1.5162742E-01;  9.9999998E-03;  2.0989330E-01;3412; -1.8885246E-03;  0.0000000E+00; -1.6492512E-04;  9.9990454E+02;  1.0000000E-01; -7.9108871E+01;3; -1.0457517E+00;  0.0000000E+00;  5.1748576E+00;0; -1.3763541E-02;  3.9979953E+04;  0.0000000E+00;  2.1183164E+00;  4.0000000E+04;  0.0000000E+00;  4.0018426E+04; -1.4539344E-02;  0.0000000E+00;  7.7580311E-04;  3.8325337E+03;
  1.5155515E-01;  9.9999998E-03;  2.1988502E-01;3413; -1.8280917E-03;  0.0000000E+00; -1.4341692E-04;  9.9980524E+02;  1.0000000E-01; -1.6137816E+02;3; -8.1005037E-01;  0.0000000E+00;  8.7529163E+00;0; -1.4125658E-02;  3.9961492E+04;  0.0000000E+00;  3.5536296E+00;  4.0000000E+04;  0.0000000E+00;  4.0029227E+04; -1.4991553E-02;  0.0000000E+00;  8.6589414E-04;  6.3197793E+03;
  1.5147810E-01;  9.9999998E-03;  2.2986537E-01;3414; -1.7583739E-03;  0.0000000E+00; -1.0058335E-04;  9.9956213E+02;  1.0000000E-01; -3.6275516E+02;3; -1.0907734E-01;  0.0000000E+00;  1.3716645E+01;0; -1.4514871E-02;  3.9930605E+04;  0.0000000E+00;  5.7206340E+00;  4.0000000E+04;  0.0000000E+00;  4.0040590E+04; -1.5383836E-02;  0.0000000E+00;  8.6896517E-04;  9.7706250E+03;
  1.6155811E-01;  9.9999998E-03;  6.9950655E-02;3459; -2.1749251E-03;  0.0000000E+00; -2.4290601E-05;  9.9930731E+02;  1.0000000E-01; -5.7386029E+02;3; -1.3045043E+00;  0.0000000E+00;  2.4509029E-02;0; -1.3332850E-02;  3.9933312E+04;  0.0000000E+00; -2.1796040E-02;  4.0000000E+04;  0.0000000E+00;  4.0008789E+04; -1.3562868E-02;  0.0000000E+00;  2.3001789E-04;  1.1620964E+03;
  1.6160147E-01;  9.9999998E-03;  7.9949461E-02;3460; -2.1950894E-03;  0.0000000E+00; -2.1788597E-05;  9.9930200E+02;  1.0000000E-01; -5.7825525E+02;3; -1.2934903E+00;  0.0000000E+00;  2.5950618E-02;0; -1.3365247E-02;  3.9931594E+04;  0.0000000E+00; -2.7335377E-02;  4.0000000E+04;  0.0000000E+00;  4.0010477E+04; -1.3597648E-02;  0.0000000E+00;  2.3240065E-04;  1.3498391E+03;
  1.6164920E-01;  9.9999998E-03;  8.9949884E-02;3461; -2.2116997E-03;  0.0000000E+00; -1.4414230E-05;  9.9930145E+02;  1.0000000E-01; -5.7874908E+02;3; -1.2806209E+00;  0.0000000E+00;  2.6825981E-02;0; -1.3376085E-02;  3.9929762E+04;  0.0000000E+00; -3.5982873E-02;  4.0000000E+04;  0.0000000E+00;  4.0012559E+04; -1.3590518E-02;  0.0000000E+00;  2.1443288E-04;  1.6095300E+03;
  1.6169770E-01;  9.9999998E-03;  9.9950321E-02;3462; -2.2234316E-03;  0.0000000E+00; -3.3430697E-06;  9.9930798E+02;  1.0000000E-01; -5.7331714E+02;3; -1.2659233E+00;  0.0000000E+00;  2.7346609E-02;0; -1.3370141E-02;  3.9928168E+04;  0.0000000E+00; -4.8327643E-02;  4.0000000E+04;  0.0000000E+00;  4.0014824E+04; -1.3543135E-02;  0.0000000E+00;  1.7299280E-04;  1.8858445E+03;
  1.6174248E-01;  9.9999998E-03;  1.0994750E-01;3463; -2.2296000E-03;  0.0000000E+00;  7.9912588E-06;  9.9932690E+02;  1.0000000E-01; -5.5766327E+02;3; -1.2494290E+00;  0.0000000E+00;  2.7370751E-02;0; -1.3355211E-02;  3.9928340E+04;  0.0000000E+00; -6.3621759E-02;  4.0000000E+04;  0.0000000E+00;  4.0016812E+04; -1.3465137E-02;  0.0000000E+00;  1.0992600E-04;  2.1033792E+03;
  1.6177930E-01;  9.9999998E-03;  1.1993640E-01;3464; -2.2303821E-03;  0.0000000E+00;  1.4977725E-05;  9.9935425E+02;  1.0000000E-01; -5.3499719E+02;3; -1.2312809E+00;  0.0000000E+00;  2.6731767E-02;0; -1.3340291E-02;  3.9930590E+04;  0.0000000E+00; -7.9276882E-02;  4.0000000E+04;  0.0000000E+00;  4.0017867E+04; -1.3373594E-02;  0.0000000E+00;  3.3303033E-05;  2.1831555E+03;
  1.6180626E-01;  9.9999998E-03;  1.2991427E-01;3465; -2.2267967E-03;  0.0000000E+00;  1.3209102E-05;  9.9939966E+02;  1.0000000E-01; -4.9736865E+02;3; -1.2117383E+00;  0.0000000E+00;  2.5791630E-02;0; -1.3334493E-02;  3.9935273E+04;  0.0000000E+00; -9.0639777E-02;  4.0000000E+04;  0.0000000E+00;  4.0016898E+04; -1.3291437E-02;  0.0000000E+00; -4.3056232E-05;  2.0660725E+03;
  1.6182335E-01;  9.9999998E-03;  1.3988426E-01;3466; -2.2204234E-03;  0.0000000E+00;  9.7140355E-07;  9.9945856E+02;  1.0000000E-01; -4.4857990E+02;3; -1.1910903E+00;  0.0000000E+00;  2.4942661E-02;0; -1.3346759E-02;  3.9943262E+04;  0.0000000E+00; -9.1337733E-02;  4.0000000E+04;  0.0000000E+00;  4.0013445E+04; -1.3244597E-02;  0.0000000E+00; -1.0216142E-04;  1.7398414E+03;
  1.6183594E-01;  9.9999998E-03;  1.4985305E-01;3467; -2.2127950E-03;  0.0000000E+00; -2.0098802E-05;  9.9953900E+02;  1.0000000E-01; -3.8191513E+02;3; -1.1694304E+00;  0.0000000E+00;  2.9321112E-02;0; -1.3386753E-02;  3.9954047E+04;  0.0000000E+00; -7.4449725E-02;  4.0000000E+04;  0.0000000E+00;  4.0009949E+04; -1.3259153E-02;  0.0000000E+00; -1.2760084E-04;  1.2550973E+03;
  1.6184656E-01;  9.9999998E-03;  1.5983117E-01;3468; -2.2045786E-03;  0.0000000E+00; -4.8093905E-05;  9.9964032E+02;  1.0000000E-01; -2.9796689E+02;3; -1.1480353E+00;  0.0000000E+00;  8.4098898E-02;0; -1.3463379E-02;  3.9967035E+04;  0.0000000E+00; -3.2480404E-02;  4.0000000E+04;  0.0000000E+00;  4.0005891E+04; -1.3356954E-02;  0.0000000E+00; -1.0642459E-04;  7.1524237E+02;
  1.6185048E-01;  9.9999998E-03;  1.6983628E-01;3469; -2.1953273E-03;  0.0000000E+00; -8.1239712E-05;  9.9976440E+02;  1.0000000E-01; -1.9520436E+02;3; -1.1343232E+00;  0.0000000E+00;  2.7033952E-01;0; -1.3585033E-02;  3.9980973E+04;  0.0000000E+00;  5.1018607E-02;  4.0000000E+04;  0.0000000E+00;  4.0001812E+04; -1.3552851E-02;  0.0000000E+00; -3.2181561E-05;  2.7841049E+02;
  1.6183248E-01;  9.9999998E-03;  1.7986409E-01;3470; -2.1834949E-03;  0.0000000E+00; -1.1675726E-04;  9.9989093E+02;  1.0000000E-01; -9.0367813E+01;3; -1.1449471E+00;  0.0000000E+00;  6.8932360E-01;0; -1.3759750E-02;  3.9993602E+04;  0.0000000E+00;  2.1552593E-01;  4.0000000E+04;  0.0000000E+00;  4.0000406E+04; -1.3851879E-02;  0.0000000E+00;  9.2129463E-05;  3.1785748E+02;
  1.6178247E-01;  9.9999998E-03;  1.8989451E-01;3471; -2.1673236E-03;  0.0000000E+00; -1.5018799E-04;  1.0000056E+03;  1.0000000E-01;  4.6418438E+00;3; -1.1986756E+00;  0.0000000E+00;  1.4820168E+00;0; -1.3995602E-02;  4.0001945E+04;  0.0000000E+00;  5.3549683E-01;  4.0000000E+04;  0.0000000E+00;  4.0002344E+04; -1.4247679E-02;  0.0000000E+00;  2.5207706E-04;  8.1208502E+02;
  1.6166823E-01;  9.9999998E-03;  1.9992098E-01;3472; -2.1450592E-03;  0.0000000E+00; -1.7574927E-04;  1.0000811E+03;  1.0000000E-01;  6.7158592E+01;3; -1.2897178E+00;  0.0000000E+00;  2.8696167E+00;0; -1.4297465E-02;  4.0003406E+04;  0.0000000E+00;  1.1256255E+00;  4.0000000E+04;  0.0000000E+00;  4.0007227E+04; -1.4721127E-02;  0.0000000E+00;  4.2366248E-04;  1.8550023E+03;
  1.6155106E-01;  9.9999998E-03;  2.0993924E-01;3473; -2.1181216E-03;  0.0000000E+00; -1.8570782E-04;  1.0000782E+03;  1.0000000E-01;  6.4788292E+01;3; -1.3471431E+00;  0.0000000E+00;  5.1638703E+00;0; -1.4672888E-02;  3.9995215E+04;  0.0000000E+00;  2.1399333E+00;  4.0000000E+04;  0.0000000E+00;  4.0016098E+04; -1.5248170E-02;  0.0000000E+00;  5.7528279E-04;  3.6667937E+03;
  1.6147617E-01;  9.9999998E-03;  2.1993823E-01;3474; -2.0891021E-03;  0.0000000E+00; -1.7296920E-04;  9.9995917E+02;  1.0000000E-01; -3.3826202E+01;3; -1.1833375E+00;  0.0000000E+00;  8.7076378E+00;0; -1.5120080E-02;  3.9975242E+04;  0.0000000E+00;  3.7632947E+00;  4.0000000E+04;  0.0000000E+00;  4.0027633E+04; -1.5797220E-02;  0.0000000E+00;  6.7714025E-04;  6.4210938E+03;
  1.6142890E-01;  9.9999998E-03;  2.2991908E-01;3475; -2.0595875E-03;  0.0000000E+00; -1.3835124E-04;  9.9969360E+02;  1.0000000E-01; -2.5381998E+02;3; -4.4112143E-01;  0.0000000E+00;  1.3692406E+01;0; -1.5622025E-02;  3.9941812E+04;  0.0000000E+00;  6.2028852E+00;  4.0000000E+04;  0.0000000E+00;  4.0039551E+04; -1.6331609E-02;  0.0000000E+00;  7.0958363E-04;  1.0313845E+04;
  1.7149703E-01;  9.9999998E-03;  7.0014179E-02;3520; -2.4119401E-03;  0.0000000E+00; -1.8555724E-05;  9.9941547E+02;  1.0000000E-01; -4.8428259E+02;3; -1.3494794E+00;  0.0000000E+00;  2.0241078E-02;0; -1.3678527E-02;  3.9943816E+04;  0.0000000E+00; -2.3225129E-02;  4.0000000E+04;  0.0000000E+00;  4.0005008E+04; -1.3951960E-02;  0.0000000E+00;  2.7343247E-04;  6.8031360E+02;
  1.7153923E-01;  9.9999998E-03;  8.0016226E-02;3521; -2.4348372E-03;  0.0000000E+00; -1.5665826E-05;  9.9942877E+02;  1.0000000E-01; -4.7327057E+02;3; -1.3380738E+00;  0.0000000E+00;  2.1234123E-02;0; -1.3726433E-02;  3.9943426E+04;  0.0000000E+00; -2.4097018E-02;  4.0000000E+04;  0.0000000E+00;  4.0006371E+04; -1.3992907E-02;  0.0000000E+00;  2.6647362E-04;  8.6858551E+02;
  1.7159007E-01;  9.9999998E-03;  9.0017200E-02;3522; -2.4518471E-03;  0.0000000E+00; -7.8311677E-06;  9.9944189E+02;  1.0000000E-01; -4.6235730E+02;3; -1.3249300E+00;  0.0000000E+00;  2.1753477E-02;0; -1.3754701E-02;  3.9943016E+04;  0.0000000E+00; -2.7789233E-02;  4.0000000E+04;  0.0000000E+00;  4.0008406E+04; -1.3995240E-02;  0.0000000E+00;  2.4053919E-04;  1.1178583E+03;
  1.7164633E-01;  9.9999998E-03;  1.0001678E-01;3523; -2.4612672E-03;  0.0000000E+00;  3.4032303E-06;  9.9946863E+02;  1.0000000E-01; -4.4023447E+02;3; -1.3100615E+00;  0.0000000E+00;  2.2018677E-02;0; -1.3768326E-02;  3.9943418E+04;  0.0000000E+00; -3.6710348E-02;  4.0000000E+04;  0.0000000E+00;  4.0010957E+04; -1.3960253E-02;  0.0000000E+00;  1.9192672E-04;  1.3761998E+03;
  1.7170268E-01;  9.9999998E-03;  1.1001320E-01;3524; -2.4622593E-03;  0.0000000E+00;  1.4906012E-05;  9.9950970E+02;  1.0000000E-01; -4.0621072E+02;3; -1.2934934E+00;  0.0000000E+00;  2.1230981E-02;0; -1.3775123E-02;  3.9945105E+04;  0.0000000E+00; -5.2432597E-02;  4.0000000E+04;  0.0000000E+00;  4.0012285E+04; -1.3896520E-02;  0.0000000E+00;  1.2139684E-04;  1.5756929E+03;
  1.7175096E-01;  9.9999998E-03;  1.2000268E-01;3525; -2.4551284E-03;  0.0000000E+00;  2.1980048E-05;  9.9955426E+02;  1.0000000E-01; -3.6927350E+02;3; -1.2753477E+00;  0.0000000E+00;  2.0110551E-02;0; -1.3783930E-02;  3.9948852E+04;  0.0000000E+00; -7.4928999E-02;  4.0000000E+04;  0.0000000E+00;  4.0012656E+04; -1.3819527E-02;  0.0000000E+00;  3.5597190E-05;  1.6463815E+03;
  1.7178322E-01;  9.9999998E-03;  1.2998290E-01;3526; -2.4414745E-03;  0.0000000E+00;  2.0681098E-05;  9.9961450E+02;  1.0000000E-01; -3.1939838E+02;3; -1.2557929E+00;  0.0000000E+00;  1.8824661E-02;0; -1.3803551E-02;  3.9955090E+04;  0.0000000E+00; -1.0197167E-01;  4.0000000E+04;  0.0000000E+00;  4.0012645E+04; -1.3750378E-02;  0.0000000E+00; -5.3173389E-05;  1.5362924E+03;
  1.7180067E-01;  9.9999998E-03;  1.3995506E-01;3527; -2.4240075E-03;  0.0000000E+00;  9.4734596E-06;  9.9968640E+02;  1.0000000E-01; -2.5979514E+02;3; -1.2350298E+00;  0.0000000E+00;  1.7531764E-02;0; -1.3842876E-02;  3.9963590E+04;  0.0000000E+00; -1.2887304E-01;  4.0000000E+04;  0.0000000E+00;  4.0009613E+04; -1.3713728E-02;  0.0000000E+00; -1.2914829E-04;  1.2351055E+03;
  1.7180893E-01;  9.9999998E-03;  1.4992365E-01;3528; -2.4057045E-03;  0.0000000E+00; -1.0073112E-05;  9.9977728E+02;  1.0000000E-01; -1.8453799E+02;3; -1.2132204E+00;  0.0000000E+00;  2.2305539E-02;0; -1.3911458E-02;  3.9974891E+04;  0.0000000E+00; -1.4881319E-01;  4.0000000E+04;  0.0000000E+00;  4.0005652E+04; -1.3734979E-02;  0.0000000E+00; -1.7647892E-04;  7.9231830E+02;
  1.7181318E-01;  9.9999998E-03;  1.5989874E-01;3529; -2.3889008E-03;  0.0000000E+00; -3.6191734E-05;  9.9987897E+02;  1.0000000E-01; -1.0029346E+02;3; -1.1936294E+00;  0.0000000E+00;  7.8809485E-02;0; -1.4018371E-02;  3.9987863E+04;  0.0000000E+00; -1.5092309E-01;  4.0000000E+04;  0.0000000E+00;  4.0002930E+04; -1.3836571E-02;  0.0000000E+00; -1.8179954E-04;  3.3029294E+02;
  1.7181361E-01;  9.9999998E-03;  1.6989355E-01;3530; -2.3748763E-03;  0.0000000E+00; -6.7514760E-05;  9.9999426E+02;  1.0000000E-01; -4.7406068E+00;3; -1.1895206E+00;  0.0000000E+00;  2.6614991E-01;0; -1.4172728E-02;  4.0001410E+04;  0.0000000E+00; -1.0967908E-01;  4.0000000E+04;  0.0000000E+00;  3.9998523E+04; -1.4035487E-02;  0.0000000E+00; -1.3724164E-04;  2.3593260E+02;
  1.7179129E-01;  9.9999998E-03;  1.7991340E-01;3531; -2.3635947E-03;  0.0000000E+00; -1.0168026E-04;  1.0001108E+03;  1.0000000E-01;  9.1849251E+01;3; -1.2272713E+00;  0.0000000E+00;  6.8232518E-01;0; -1.4383726E-02;  4.0013109E+04;  0.0000000E+00;  2.9475292E-02;  4.0000000E+04;  0.0000000E+00;  3.9997242E+04; -1.4340421E-02;  0.0000000E+00; -4.3304979E-05;  3.8283887E+02;
  1.7171714E-01;  9.9999998E-03;  1.8993545E-01;3532; -2.3543984E-03;  0.0000000E+00; -1.3498182E-04;  1.0002057E+03;  1.0000000E-01;  1.7046431E+02;3; -1.3354166E+00;  0.0000000E+00;  1.4547802E+00;0; -1.4659918E-02;  4.0020621E+04;  0.0000000E+00;  3.5773152E-01;  4.0000000E+04;  0.0000000E+00;  3.9998945E+04; -1.4749166E-02;  0.0000000E+00;  8.9248162E-05;  5.6199335E+02;
  1.7159362E-01;  9.9999998E-03;  1.9996561E-01;3533; -2.3473792E-03;  0.0000000E+00; -1.6171054E-04;  1.0002610E+03;  1.0000000E-01;  2.1629018E+02;3; -1.5145017E+00;  0.0000000E+00;  2.7824755E+00;0; -1.5011719E-02;  4.0020676E+04;  0.0000000E+00;  1.0015202E+00;  4.0000000E+04;  0.0000000E+00;  4.0002668E+04; -1.5251880E-02;  0.0000000E+00;  2.4016005E-04;  1.4933645E+03;
  1.7145823E-01;  9.9999998E-03;  2.1000203E-01;3534; -2.3442721E-03;  0.0000000E+00; -1.7419440E-04;  1.0002349E+03;  1.0000000E-01;  1.9466116E+02;3; -1.6873972E+00;  0.0000000E+00;  4.9315343E+00;0; -1.5449040E-02;  4.0011902E+04;  0.0000000E+00;  2.1165676E+00;  4.0000000E+04;  0.0000000E+00;  4.0010883E+04; -1.5831931E-02;  0.0000000E+00;  3.8289127E-04;  3.3508152E+03;
  1.7137788E-01;  9.9999998E-03;  2.2001989E-01;3535; -2.3483217E-03;  0.0000000E+00; -1.6373146E-04;  1.0000942E+03;  1.0000000E-01;  7.8022484E+01;3; -1.6387303E+00;  0.0000000E+00;  8.1883097E+00;0; -1.5976610E-02;  3.9990973E+04;  0.0000000E+00;  3.8771849E+00;  4.0000000E+04;  0.0000000E+00;  4.0021121E+04; -1.6468741E-02;  0.0000000E+00;  4.9213215E-04;  6.2348862E+03;
  1.7135519E-01;  9.9999998E-03;  2.3001668E-01;3536; -2.3599491E-03;  0.0000000E+00; -1.2674711E-04;  9.9979205E+02;  1.0000000E-01; -1.7229143E+02;3; -9.4767141E-01;  0.0000000E+00;  1.2678152E+01;0; -1.6587472E-02;  3.9956133E+04;  0.0000000E+00;  6.4678998E+00;  4.0000000E+04;  0.0000000E+00;  4.0031984E+04; -1.7141994E-02;  0.0000000E+00;  5.5452232E-04;  1.0331556E+04;
  1.8151864E-01;  9.9999998E-03;  7.0062444E-02;3581; -2.6280389E-03;  0.0000000E+00; -9.9791605E-06;  9.9950171E+02;  1.0000000E-01; -4.1282782E+02;3; -1.3925866E+00;  0.0000000E+00;  1.6982848E-02;0; -1.3842093E-02;  3.9953719E+04;  0.0000000E+00; -2.9061250E-02;  4.0000000E+04;  0.0000000E+00;  4.0000523E+04; -1.4179729E-02;  0.0000000E+00;  3.3763616E-04;  1.3351237E+02;
  1.8151705E-01;  9.9999998E-03;  8.0067366E-02;3582; -2.6531061E-03;  0.0000000E+00; -6.7473693E-06;  9.9951062E+02;  1.0000000E-01; -4.0542062E+02;3; -1.3806437E+00;  0.0000000E+00;  1.7760145E-02;0; -1.3906227E-02;  3.9953691E+04;  0.0000000E+00; -2.5717678E-02;  4.0000000E+04;  0.0000000E+00;  4.0002004E+04; -1.4227803E-02;  0.0000000E+00;  3.2157532E-04;  3.0868774E+02;
  1.8153551E-01;  9.9999998E-03;  9.0069361E-02;3583; -2.6701218E-03;  0.0000000E+00;  1.8455696E-06;  9.9953723E+02;  1.0000000E-01; -3.8339658E+02;3; -1.3670703E+00;  0.0000000E+00;  1.8374911E-02;0; -1.3953337E-02;  3.9953926E+04;  0.0000000E+00; -2.3887489E-02;  4.0000000E+04;  0.0000000E+00;  4.0004172E+04; -1.4242259E-02;  0.0000000E+00;  2.8892161E-04;  5.3813654E+02;
  1.8157323E-01;  9.9999998E-03;  1.0006937E-01;3584; -2.6769179E-03;  0.0000000E+00;  1.4703141E-05;  9.9957379E+02;  1.0000000E-01; -3.5312582E+02;3; -1.3519282E+00;  0.0000000E+00;  1.7651223E-02;0; -1.3988645E-02;  3.9955008E+04;  0.0000000E+00; -2.7534656E-02;  4.0000000E+04;  0.0000000E+00;  4.0005695E+04; -1.4223924E-02;  0.0000000E+00;  2.3527887E-04;  7.7214435E+02;
  1.8162122E-01;  9.9999998E-03;  1.1006668E-01;3585; -2.6726420E-03;  0.0000000E+00;  2.7392272E-05;  9.9961969E+02;  1.0000000E-01; -3.1510220E+02;3; -1.3353534E+00;  0.0000000E+00;  1.5802054E-02;0; -1.4019898E-02;  3.9957570E+04;  0.0000000E+00; -4.0572215E-02;  4.0000000E+04;  0.0000000E+00;  4.0007090E+04; -1.4179969E-02;  0.0000000E+00;  1.6007082E-04;  9.5158795E+02;
  1.8166918E-01;  9.9999998E-03;  1.2005933E-01;3586; -2.6578133E-03;  0.0000000E+00;  3.5409310E-05;  9.9967834E+02;  1.0000000E-01; -2.6646161E+02;3; -1.3171729E+00;  0.0000000E+00;  1.4347235E-02;0; -1.4055770E-02;  3.9962309E+04;  0.0000000E+00; -6.6039868E-02;  4.0000000E+04;  0.0000000E+00;  4.0007711E+04; -1.4123927E-02;  0.0000000E+00;  6.8156573E-05;  1.0175103E+03;
  1.8170993E-01;  9.9999998E-03;  1.3004462E-01;3587; -2.6345141E-03;  0.0000000E+00;  3.5928031E-05;  9.9974396E+02;  1.0000000E-01; -2.1214215E+02;3; -1.2976621E+00;  0.0000000E+00;  1.2827342E-02;0; -1.4104794E-02;  3.9968914E+04;  0.0000000E+00; -1.0511476E-01;  4.0000000E+04;  0.0000000E+00;  4.0007324E+04; -1.4074715E-02;  0.0000000E+00; -3.0079302E-05;  9.2738861E+02;
  1.8174009E-01;  9.9999998E-03;  1.4002141E-01;3588; -2.6064259E-03;  0.0000000E+00;  2.7127460E-05;  9.9982153E+02;  1.0000000E-01; -1.4784767E+02;3; -1.2768805E+00;  0.0000000E+00;  1.1024357E-02;0; -1.4175275E-02;  3.9977789E+04;  0.0000000E+00; -1.5598571E-01;  4.0000000E+04;  0.0000000E+00;  4.0004906E+04; -1.4054844E-02;  0.0000000E+00; -1.2043137E-04;  6.8043549E+02;
  1.8175584E-01;  9.9999998E-03;  1.4999267E-01;3589; -2.5777004E-03;  0.0000000E+00;  1.0786003E-05;  9.9991296E+02;  1.0000000E-01; -7.2096725E+01;3; -1.2550889E+00;  0.0000000E+00;  1.5457697E-02;0; -1.4275644E-02;  3.9988906E+04;  0.0000000E+00; -2.1293299E-01;  4.0000000E+04;  0.0000000E+00;  4.0001227E+04; -1.4087831E-02;  0.0000000E+00; -1.8781325E-04;  3.8193604E+02;
  1.8175651E-01;  9.9999998E-03;  1.5996587E-01;3590; -2.5521773E-03;  0.0000000E+00; -1.1236949E-05;  1.0000143E+03;  1.0000000E-01;  1.1851517E+01;3; -1.2374744E+00;  0.0000000E+00;  6.9893956E-02;0; -1.4414277E-02;  4.0001305E+04;  0.0000000E+00; -2.6167303E-01;  4.0000000E+04;  0.0000000E+00;  3.9998102E+04; -1.4195720E-02;  0.0000000E+00; -2.1855731E-04;  4.3785513E+02;
  1.8174176E-01;  9.9999998E-03;  1.6995163E-01;3591; -2.5327932E-03;  0.0000000E+00; -3.7738417E-05;  1.0001186E+03;  1.0000000E-01;  9.8268829E+01;3; -1.2426195E+00;  0.0000000E+00;  2.4909753E-01;0; -1.4600146E-02;  4.0014035E+04;  0.0000000E+00; -2.6640829E-01;  4.0000000E+04;  0.0000000E+00;  3.9995371E+04; -1.4396720E-02;  0.0000000E+00; -2.0342594E-04;  7.4018823E+02;
  1.8169743E-01;  9.9999998E-03;  1.7995602E-01;3592; -2.5212304E-03;  0.0000000E+00; -6.7093075E-05;  1.0002216E+03;  1.0000000E-01;  1.8359975E+02;3; -1.3054228E+00;  0.0000000E+00;  6.4377642E-01;0; -1.4843451E-02;  4.0024508E+04;  0.0000000E+00; -1.5641570E-01;  4.0000000E+04;  0.0000000E+00;  3.9993535E+04; -1.4702795E-02;  0.0000000E+00; -1.4065589E-04;  8.7353857E+02;
  1.8160835E-01;  9.9999998E-03;  1.8997964E-01;3593; -2.5184560E-03;  0.0000000E+00; -9.6069060E-05;  1.0003002E+03;  1.0000000E-01;  2.4878308E+02;3; -1.4652723E+00;  0.0000000E+00;  1.3673798E+00;0; -1.5155865E-02;  4.0030988E+04;  0.0000000E+00;  1.7633009E-01;  4.0000000E+04;  0.0000000E+00;  3.9994227E+04; -1.5118284E-02;  0.0000000E+00; -3.7580336E-05;  7.8742694E+02;
  1.8149126E-01;  9.9999998E-03;  2.0001814E-01;3594; -2.5259887E-03;  0.0000000E+00; -1.1981719E-04;  1.0003282E+03;  1.0000000E-01;  2.7189355E+02;3; -1.7322330E+00;  0.0000000E+00;  2.5772913E+00;0; -1.5551263E-02;  4.0030602E+04;  0.0000000E+00;  8.6729705E-01;  4.0000000E+04;  0.0000000E+00;  3.9998137E+04; -1.5640762E-02;  0.0000000E+00;  8.9498099E-05;  1.2927831E+03;
  1.8135624E-01;  9.9999998E-03;  2.1007156E-01;3595; -2.5457651E-03;  0.0000000E+00; -1.3124470E-04;  1.0002833E+03;  1.0000000E-01;  2.3475879E+02;3; -2.0359240E+00;  0.0000000E+00;  4.4650111E+00;0; -1.6042808E-02;  4.0021633E+04;  0.0000000E+00;  2.0679486E+00;  4.0000000E+04;  0.0000000E+00;  4.0003980E+04; -1.6262237E-02;  0.0000000E+00;  2.1942887E-04;  3.0561506E+03;
  1.8126075E-01;  9.9999998E-03;  2.2012025E-01;3596; -2.5795165E-03;  0.0000000E+00; -1.2354075E-04;  1.0001177E+03;  1.0000000E-01;  9.7577484E+01;3; -2.1638851E+00;  0.0000000E+00;  7.1478605E+00;0; -1.6642289E-02;  4.0001922E+04;  0.0000000E+00;  3.9310501E+00;  4.0000000E+04;  0.0000000E+00;  4.0011453E+04; -1.6974233E-02;  0.0000000E+00;  3.3194316E-04;  5.9359648E+03;
  1.8124409E-01;  9.9999998E-03;  2.3014411E-01;3597; -2.6251273E-03;  0.0000000E+00; -9.4364237E-05;  9.9978619E+02;  1.0000000E-01; -1.7713080E+02;3; -1.6904253E+00;  0.0000000E+00;  1.0548053E+01;0; -1.7357349E-02;  3.9968125E+04;  0.0000000E+00;  6.5870333E+00;  4.0000000E+04;  0.0000000E+00;  4.0019621E+04; -1.7772671E-02;  0.0000000E+00;  4.1532086E-04;  1.0017372E+04;
  1.9160093E-01;  9.9999998E-03;  7.0082717E-02;3642; -2.8093418E-03;  0.0000000E+00;  1.8013078E-06;  9.9953845E+02;  1.0000000E-01; -3.8235956E+02;3; -1.4343222E+00;  0.0000000E+00;  1.4681036E-02;0; -1.3829132E-02;  3.9960621E+04;  0.0000000E+00; -3.1979274E-02;  4.0000000E+04;  0.0000000E+00;  3.9996172E+04; -1.4252273E-02;  0.0000000E+00;  4.2314146E-04;  4.2966046E+02;
  1.9157159E-01;  9.9999998E-03;  8.0088645E-02;3643; -2.8376207E-03;  0.0000000E+00;  4.8632110E-06;  9.9954205E+02;  1.0000000E-01; -3.7939667E+02;3; -1.4218373E+00;  0.0000000E+00;  1.4871181E-02;0; -1.3910925E-02;  3.9959949E+04;  0.0000000E+00; -2.5416102E-02;  4.0000000E+04;  0.0000000E+00;  3.9997547E+04; -1.4309485E-02;  0.0000000E+00;  3.9855903E-04;  2.7262946E+02;
  1.9154982E-01;  9.9999998E-03;  9.0092525E-02;3644; -2.8556872E-03;  0.0000000E+00;  1.2938527E-05;  9.9955737E+02;  1.0000000E-01; -3.6670569E+02;3; -1.4077765E+00;  0.0000000E+00;  1.4980605E-02;0; -1.3979164E-02;  3.9959656E+04;  0.0000000E+00; -1.8362168E-02;  4.0000000E+04;  0.0000000E+00;  3.9999180E+04; -1.4339690E-02;  0.0000000E+00;  3.6052626E-04;  7.3237045E+01;
  1.9154316E-01;  9.9999998E-03;  1.0009509E-01;3645; -2.8607950E-03;  0.0000000E+00;  2.5724912E-05;  9.9958636E+02;  1.0000000E-01; -3.4270636E+02;3; -1.3919866E+00;  0.0000000E+00;  1.4421492E-02;0; -1.4038865E-02;  3.9960590E+04;  0.0000000E+00; -1.5551450E-02;  4.0000000E+04;  0.0000000E+00;  4.0000352E+04; -1.4342913E-02;  0.0000000E+00;  3.0404879E-04;  1.3805986E+02;
  1.9155519E-01;  9.9999998E-03;  1.1009596E-01;3646; -2.8517838E-03;  0.0000000E+00;  4.0163835E-05;  9.9962628E+02;  1.0000000E-01; -3.0962088E+02;3; -1.3751497E+00;  0.0000000E+00;  1.2795288E-02;0; -1.4097626E-02;  3.9962676E+04;  0.0000000E+00; -2.2797907E-02;  4.0000000E+04;  0.0000000E+00;  4.0001789E+04; -1.4324801E-02;  0.0000000E+00;  2.2717455E-04;  2.9502405E+02;
  1.9158231E-01;  9.9999998E-03;  1.2009359E-01;3647; -2.8293966E-03;  0.0000000E+00;  5.2365980E-05;  9.9967688E+02;  1.0000000E-01; -2.6769614E+02;3; -1.3569186E+00;  0.0000000E+00;  1.0743769E-02;0; -1.4163855E-02;  3.9966934E+04;  0.0000000E+00; -4.6180740E-02;  4.0000000E+04;  0.0000000E+00;  4.0002703E+04; -1.4296603E-02;  0.0000000E+00;  1.3274916E-04;  3.5993387E+02;
  1.9161424E-01;  9.9999998E-03;  1.3008593E-01;3648; -2.7968376E-03;  0.0000000E+00;  5.6833320E-05;  9.9974127E+02;  1.0000000E-01; -2.1436430E+02;3; -1.3376390E+00;  0.0000000E+00;  7.9635894E-03;0; -1.4245483E-02;  3.9972680E+04;  0.0000000E+00; -9.0702362E-02;  4.0000000E+04;  0.0000000E+00;  4.0002363E+04; -1.4274384E-02;  0.0000000E+00;  2.8900657E-05;  3.0913763E+02;
  1.9164082E-01;  9.9999998E-03;  1.4007102E-01;3649; -2.7587451E-03;  0.0000000E+00;  5.1930925E-05;  9.9981323E+02;  1.0000000E-01; -1.5471167E+02;3; -1.3170047E+00;  0.0000000E+00;  5.2595781E-03;0; -1.4349910E-02;  3.9980996E+04;  0.0000000E+00; -1.5840547E-01;  4.0000000E+04;  0.0000000E+00;  4.0000168E+04; -1.4277865E-02;  0.0000000E+00; -7.2044902E-05;  2.3325806E+02;
  1.9165429E-01;  9.9999998E-03;  1.5004957E-01;3650; -2.7202608E-03;  0.0000000E+00;  4.0057428E-05;  9.9990149E+02;  1.0000000E-01; -8.1627319E+01;3; -1.2952625E+00;  0.0000000E+00;  8.6350748E-03;0; -1.4484227E-02;  3.9991234E+04;  0.0000000E+00; -2.4608965E-01;  4.0000000E+04;  0.0000000E+00;  3.9997789E+04; -1.4328309E-02;  0.0000000E+00; -1.5591730E-04;  4.4635403E+02;
  1.9165081E-01;  9.9999998E-03;  1.6002579E-01;3651; -2.6865378E-03;  0.0000000E+00;  2.3409379E-05;  9.9999341E+02;  1.0000000E-01; -5.4813266E+00;3; -1.2791765E+00;  0.0000000E+00;  5.7283264E-02;0; -1.4655712E-02;  4.0002078E+04;  0.0000000E+00; -3.3738241E-01;  4.0000000E+04;  0.0000000E+00;  3.9994789E+04; -1.4446751E-02;  0.0000000E+00; -2.0896069E-04;  8.2854663E+02;
  1.9162551E-01;  9.9999998E-03;  1.7000669E-01;3652; -2.6619609E-03;  0.0000000E+00;  3.1242766E-06;  1.0000851E+03;  1.0000000E-01;  7.0516525E+01;3; -1.2912827E+00;  0.0000000E+00;  2.1992996E-01;0; -1.4872829E-02;  4.0013227E+04;  0.0000000E+00; -3.8709563E-01;  4.0000000E+04;  0.0000000E+00;  3.9991566E+04; -1.4651954E-02;  0.0000000E+00; -2.2087558E-04;  1.1751755E+03;
  1.9157287E-01;  9.9999998E-03;  1.8000203E-01;3653; -2.6497375E-03;  0.0000000E+00; -1.9358653E-05;  1.0001710E+03;  1.0000000E-01;  1.4162563E+02;3; -1.3730638E+00;  0.0000000E+00;  5.7848918E-01;0; -1.5146432E-02;  4.0022945E+04;  0.0000000E+00; -3.0914691E-01;  4.0000000E+04;  0.0000000E+00;  3.9990500E+04; -1.4958574E-02;  0.0000000E+00; -1.8785677E-04;  1.3263055E+03;
  1.9148616E-01;  9.9999998E-03;  1.9002336E-01;3654; -2.6522523E-03;  0.0000000E+00; -4.1927433E-05;  1.0002314E+03;  1.0000000E-01;  1.9179704E+02;3; -1.5735772E+00;  0.0000000E+00;  1.2279859E+00;0; -1.5490016E-02;  4.0028445E+04;  0.0000000E+00;  2.1053523E-02;  4.0000000E+04;  0.0000000E+00;  3.9990613E+04; -1.5375947E-02;  0.0000000E+00; -1.1406979E-04;  1.2207830E+03;
  1.9137605E-01;  9.9999998E-03;  2.0006981E-01;3655; -2.6718189E-03;  0.0000000E+00; -6.0440252E-05;  1.0002443E+03;  1.0000000E-01;  2.0236465E+02;3; -1.9168791E+00;  0.0000000E+00;  2.2831161E+00;0; -1.5919756E-02;  4.0028215E+04;  0.0000000E+00;  7.4850231E-01;  4.0000000E+04;  0.0000000E+00;  3.9992945E+04; -1.5908409E-02;  0.0000000E+00; -1.1347349E-05;  1.4327396E+03;
  1.9125530E-01;  9.9999998E-03;  2.1013303E-01;3656; -2.7104274E-03;  0.0000000E+00; -6.9606562E-05;  1.0001818E+03;  1.0000000E-01;  1.5061302E+02;3; -2.3516288E+00;  0.0000000E+00;  3.8401494E+00;0; -1.6453307E-02;  4.0020379E+04;  0.0000000E+00;  2.0207481E+00;  4.0000000E+04;  0.0000000E+00;  3.9996867E+04; -1.6557230E-02;  0.0000000E+00;  1.0392324E-04;  2.9912170E+03;
  1.9114165E-01;  9.9999998E-03;  2.2021127E-01;3657; -2.7668376E-03;  0.0000000E+00; -6.9861402E-05;  9.9999176E+02;  1.0000000E-01; -6.8146219E+00;3; -2.7092938E+00;  0.0000000E+00;  5.7813334E+00;0; -1.7112894E-02;  4.0003312E+04;  0.0000000E+00;  3.9751554E+00;  4.0000000E+04;  0.0000000E+00;  4.0000094E+04; -1.7326087E-02;  0.0000000E+00;  2.1319368E-04;  5.8428501E+03;
  1.9110613E-01;  9.9999998E-03;  2.3026092E-01;3658; -2.8332693E-03;  0.0000000E+00; -6.8086403E-05;  9.9964227E+02;  1.0000000E-01; -2.9638669E+02;3; -2.6244566E+00;  0.0000000E+00;  7.7221837E+00;0; -1.7930580E-02;  3.9973898E+04;  0.0000000E+00;  6.6923428E+00;  4.0000000E+04;  0.0000000E+00;  4.0001551E+04; -1.8222671E-02;  0.0000000E+00;  2.9209140E-04;  9.9036172E+03;
  2.0170711E-01;  9.9999998E-03;  7.0070796E-02;3703; -2.9522572E-03;  0.0000000E+00;  1.9170540E-05;  9.9953564E+02;  1.0000000E-01; -3.8472986E+02;3; -1.4746932E+00;  0.0000000E+00;  1.1291823E-02;0; -1.3694610E-02;  3.9964312E+04;  0.0000000E+00; -2.3910884E-02;  4.0000000E+04;  0.0000000E+00;  3.9992539E+04; -1.4224277E-02;  0.0000000E+00;  5.2966602E-04;  9.0521460E+02;
  2.0165890E-01;  9.9999998E-03;  8.0083199E-02;3704; -2.9842074E-03;  0.0000000E+00;  2.1338976E-05;  9.9952130E+02;  1.0000000E-01; -3.9658139E+02;3; -1.4619162E+00;  0.0000000E+00;  1.1341748E-02;0; -1.3793048E-02;  3.9962332E+04;  0.0000000E+00; -1.4324190E-02;  4.0000000E+04;  0.0000000E+00;  3.9993578E+04; -1.4290203E-02;  0.0000000E+00;  4.9715483E-04;  7.8120349E+02;
  2.0161192E-01;  9.9999998E-03;  9.0092547E-02;3705; -3.0044322E-03;  0.0000000E+00;  2.7918804E-05;  9.9951495E+02;  1.0000000E-01; -4.0186517E+02;3; -1.4474986E+00;  0.0000000E+00;  1.1464156E-02;0; -1.3882519E-02;  3.9960668E+04;  0.0000000E+00; -2.3572552E-03;  4.0000000E+04;  0.0000000E+00;  3.9994652E+04; -1.4337726E-02;  0.0000000E+00;  4.5520705E-04;  6.1707599E+02;
  2.0157243E-01;  9.9999998E-03;  1.0010022E-01;3706; -3.0096523E-03;  0.0000000E+00;  3.9260376E-05;  9.9951733E+02;  1.0000000E-01; -3.9988992E+02;3; -1.4316617E+00;  0.0000000E+00;  1.0915437E-02;0; -1.3967901E-02;  3.9959832E+04;  0.0000000E+00;  7.5382013E-03;  4.0000000E+04;  0.0000000E+00;  3.9996141E+04; -1.4366185E-02;  0.0000000E+00;  3.9828516E-04;  4.4937094E+02;
  2.0154676E-01;  9.9999998E-03;  1.1010645E-01;3707; -2.9982848E-03;  0.0000000E+00;  5.3585311E-05;  9.9953571E+02;  1.0000000E-01; -3.8468048E+02;3; -1.4141541E+00;  0.0000000E+00;  1.0192669E-02;0; -1.4056304E-02;  3.9960273E+04;  0.0000000E+00;  8.8108219E-03;  4.0000000E+04;  0.0000000E+00;  3.9997117E+04; -1.4379296E-02;  0.0000000E+00;  3.2299224E-04;  3.1757462E+02;
  2.0153642E-01;  9.9999998E-03;  1.2011125E-01;3708; -2.9708066E-03;  0.0000000E+00;  6.8171670E-05;  9.9956659E+02;  1.0000000E-01; -3.5905157E+02;3; -1.3956953E+00;  0.0000000E+00;  7.7024898E-03;0; -1.4155450E-02;  3.9962336E+04;  0.0000000E+00; -6.7729452E-03;  4.0000000E+04;  0.0000000E+00;  3.9997871E+04; -1.4385434E-02;  0.0000000E+00;  2.2998403E-04;  2.5847055E+02;
  2.0153934E-01;  9.9999998E-03;  1.3011242E-01;3709; -2.9307881E-03;  0.0000000E+00;  7.7288729E-05;  9.9960809E+02;  1.0000000E-01; -3.2468219E+02;3; -1.3761835E+00;  0.0000000E+00;  4.5658015E-03;0; -1.4272446E-02;  3.9966613E+04;  0.0000000E+00; -4.7821715E-02;  4.0000000E+04;  0.0000000E+00;  3.9997664E+04; -1.4397401E-02;  0.0000000E+00;  1.2495574E-04;  3.0825143E+02;
  2.0154969E-01;  9.9999998E-03;  1.4010806E-01;3710; -2.8836967E-03;  0.0000000E+00;  7.9056583E-05;  9.9966760E+02;  1.0000000E-01; -2.7539963E+02;3; -1.3553826E+00;  0.0000000E+00;  1.3807686E-03;0; -1.4413388E-02;  3.9972723E+04;  0.0000000E+00; -1.2080508E-01;  4.0000000E+04;  0.0000000E+00;  3.9995777E+04; -1.4431551E-02;  0.0000000E+00;  1.8162464E-05;  4.8712048E+02;
  2.0155492E-01;  9.9999998E-03;  1.5009665E-01;3711; -2.8362987E-03;  0.0000000E+00;  7.4091891E-05;  9.9973486E+02;  1.0000000E-01; -2.1964810E+02;3; -1.3337969E+00;  0.0000000E+00;  2.6066895E-03;0; -1.4583650E-02;  3.9980664E+04;  0.0000000E+00; -2.2658353E-01;  4.0000000E+04;  0.0000000E+00;  3.9993750E+04; -1.4506319E-02;  0.0000000E+00; -7.7331089E-05;  7.7957471E+02;
  2.0154417E-01;  9.9999998E-03;  1.6007946E-01;3712; -2.7951750E-03;  0.0000000E+00;  6.3896485E-05;  9.9980634E+02;  1.0000000E-01; -1.6043991E+02;3; -1.3184941E+00;  0.0000000E+00;  4.1791137E-02;0; -1.4788866E-02;  3.9989910E+04;  0.0000000E+00; -3.4928840E-01;  4.0000000E+04;  0.0000000E+00;  3.9991957E+04; -1.4640964E-02;  0.0000000E+00; -1.4790257E-04;  1.1366401E+03;
  2.0150983E-01;  9.9999998E-03;  1.7006098E-01;3713; -2.7658110E-03;  0.0000000E+00;  4.9782757E-05;  9.9988184E+02;  1.0000000E-01; -9.7873772E+01;3; -1.3335562E+00;  0.0000000E+00;  1.8067236E-01;0; -1.5036579E-02;  3.9999145E+04;  0.0000000E+00; -4.3762892E-01;  4.0000000E+04;  0.0000000E+00;  3.9989465E+04; -1.4854090E-02;  0.0000000E+00; -1.8248899E-04;  1.4667616E+03;
  2.0145150E-01;  9.9999998E-03;  1.8004997E-01;3714; -2.7523614E-03;  0.0000000E+00;  3.3314853E-05;  9.9995135E+02;  1.0000000E-01; -4.0295158E+01;3; -1.4244471E+00;  0.0000000E+00;  4.9223480E-01;0; -1.5337347E-02;  4.0006910E+04;  0.0000000E+00; -3.9335576E-01;  4.0000000E+04;  0.0000000E+00;  3.9987934E+04; -1.5161850E-02;  0.0000000E+00; -1.7549669E-04;  1.6370402E+03;
  2.0136710E-01;  9.9999998E-03;  1.9006163E-01;3715; -2.7580804E-03;  0.0000000E+00;  1.6029122E-05;  9.9999890E+02;  1.0000000E-01; -8.8886374E-01;3; -1.6473987E+00;  0.0000000E+00;  1.0540993E+00;0; -1.5705567E-02;  4.0011742E+04;  0.0000000E+00; -7.7090390E-02;  4.0000000E+04;  0.0000000E+00;  3.9988141E+04; -1.5577253E-02;  0.0000000E+00; -1.2831407E-04;  1.5783995E+03;
  2.0125987E-01;  9.9999998E-03;  2.0010708E-01;3716; -2.7856349E-03;  0.0000000E+00;  7.1319327E-08;  9.9999304E+02;  1.0000000E-01; -5.7776146E+00;3; -2.0409756E+00;  0.0000000E+00;  1.9384768E+00;0; -1.6159698E-02;  4.0012191E+04;  0.0000000E+00;  6.6769582E-01;  4.0000000E+04;  0.0000000E+00;  3.9988484E+04; -1.6110564E-02;  0.0000000E+00; -4.9135553E-05;  1.7513207E+03;
  2.0115542E-01;  9.9999998E-03;  2.1016744E-01;3717; -2.8364200E-03;  0.0000000E+00; -1.2289789E-05;  9.9992609E+02;  1.0000000E-01; -6.1232838E+01;3; -2.5818462E+00;  0.0000000E+00;  3.1685779E+00;0; -1.6722504E-02;  4.0006098E+04;  0.0000000E+00;  1.9899529E+00;  4.0000000E+04;  0.0000000E+00;  3.9990090E+04; -1.6770734E-02;  0.0000000E+00;  4.8229795E-05;  3.1757654E+03;
  2.0104180E-01;  9.9999998E-03;  2.2025241E-01;3718; -2.9061856E-03;  0.0000000E+00; -2.9199853E-05;  9.9973364E+02;  1.0000000E-01; -2.2068512E+02;3; -3.1618731E+00;  0.0000000E+00;  4.4627233E+00;0; -1.7431591E-02;  3.9992832E+04;  0.0000000E+00;  4.0241094E+00;  4.0000000E+04;  0.0000000E+00;  3.9989199E+04; -1.7571552E-02;  0.0000000E+00;  1.3996147E-04;  6.0678281E+03;
  2.0097946E-01;  9.9999998E-03;  2.3031211E-01;3719; -2.9815130E-03;  0.0000000E+00; -6.8978188E-05;  9.9939166E+02;  1.0000000E-01; -5.0398575E+02;3; -3.5076518E+00;  0.0000000E+00;  5.1895838E+00;0; -1.8356007E-02;  3.9970129E+04;  0.0000000E+00;  6.8530025E+00;  4.0000000E+04;  0.0000000E+00;  3.9985953E+04; -1.8528739E-02;  0.0000000E+00;  1.7273323E-04;  1.0286119E+04;
  2.1184354E-01;  9.9999998E-03;  7.0014492E-02;3764; -3.0625849E-03;  0.0000000E+00;  4.0602201E-05;  9.9949866E+02;  1.0000000E-01; -4.1534628E+02;3; -1.5141743E+00;  0.0000000E+00;  8.5064806E-03;0; -1.3518120E-02;  3.9964867E+04;  0.0000000E+00; -2.5442971E-03;  4.0000000E+04;  0.0000000E+00;  3.9989578E+04; -1.4175352E-02;  0.0000000E+00;  6.5723155E-04;  1.2457286E+03;
  2.1183266E-01;  9.9999998E-03;  8.0023579E-02;3765; -3.0987372E-03;  0.0000000E+00;  4.1787247E-05;  9.9946893E+02;  1.0000000E-01; -4.3998755E+02;3; -1.5015198E+00;  0.0000000E+00;  8.6517790E-03;0; -1.3629426E-02;  3.9961621E+04;  0.0000000E+00;  1.1084194E-02;  4.0000000E+04;  0.0000000E+00;  3.9990113E+04; -1.4247464E-02;  0.0000000E+00;  6.1803800E-04;  1.1672977E+03;
  2.1179582E-01;  9.9999998E-03;  9.0034656E-02;3766; -3.1222249E-03;  0.0000000E+00;  4.6552821E-05;  9.9943481E+02;  1.0000000E-01; -4.6823367E+02;3; -1.4870644E+00;  0.0000000E+00;  8.2662972E-03;0; -1.3737535E-02;  3.9958121E+04;  0.0000000E+00;  2.8439296E-02;  4.0000000E+04;  0.0000000E+00;  3.9991164E+04; -1.4311371E-02;  0.0000000E+00;  5.7383644E-04;  1.0499509E+03;
  2.1173117E-01;  9.9999998E-03;  1.0005192E-01;3767; -3.1291847E-03;  0.0000000E+00;  5.5920791E-05;  9.9940814E+02;  1.0000000E-01; -4.9035651E+02;3; -1.4709525E+00;  0.0000000E+00;  8.1889080E-03;0; -1.3847387E-02;  3.9955078E+04;  0.0000000E+00;  4.6198424E-02;  4.0000000E+04;  0.0000000E+00;  3.9991703E+04; -1.4366081E-02;  0.0000000E+00;  5.1869371E-04;  9.2344678E+02;
  2.1164566E-01;  9.9999998E-03;  1.1007790E-01;3768; -3.1175020E-03;  0.0000000E+00;  6.9272464E-05;  9.9939160E+02;  1.0000000E-01; -5.0403513E+02;3; -1.4532411E+00;  0.0000000E+00;  7.4824016E-03;0; -1.3965568E-02;  3.9952883E+04;  0.0000000E+00;  5.8419175E-02;  4.0000000E+04;  0.0000000E+00;  3.9993430E+04; -1.4413338E-02;  0.0000000E+00;  4.4777014E-04;  8.1707788E+02;
  2.1156862E-01;  9.9999998E-03;  1.2010527E-01;3769; -3.0873879E-03;  0.0000000E+00;  8.5184984E-05;  9.9938562E+02;  1.0000000E-01; -5.0902264E+02;3; -1.4344205E+00;  0.0000000E+00;  5.3760996E-03;0; -1.4098525E-02;  3.9952074E+04;  0.0000000E+00;  5.6209099E-02;  4.0000000E+04;  0.0000000E+00;  3.9993441E+04; -1.4458308E-02;  0.0000000E+00;  3.5978307E-04;  7.5731726E+02;
  2.1152188E-01;  9.9999998E-03;  1.3012582E-01;3770; -3.0425824E-03;  0.0000000E+00;  9.8936041E-05;  9.9939294E+02;  1.0000000E-01; -5.0294873E+02;3; -1.4144706E+00;  0.0000000E+00;  2.0189283E-03;0; -1.4252108E-02;  3.9953039E+04;  0.0000000E+00;  2.8558211E-02;  4.0000000E+04;  0.0000000E+00;  3.9993258E+04; -1.4510241E-02;  0.0000000E+00;  2.5813407E-04;  7.6401532E+02;
  2.1149541E-01;  9.9999998E-03;  1.4013952E-01;3771; -2.9890912E-03;  0.0000000E+00;  1.0732818E-04;  9.9941577E+02;  1.0000000E-01; -4.8403571E+02;3; -1.3934116E+00;  0.0000000E+00; -1.8648624E-03;0; -1.4430948E-02;  3.9955891E+04;  0.0000000E+00; -3.5232797E-02;  4.0000000E+04;  0.0000000E+00;  3.9992770E+04; -1.4581657E-02;  0.0000000E+00;  1.5070963E-04;  8.5211542E+02;
  2.1147625E-01;  9.9999998E-03;  1.5014115E-01;3772; -2.9348743E-03;  0.0000000E+00;  1.0937702E-04;  9.9945520E+02;  1.0000000E-01; -4.5134525E+02;3; -1.3714772E+00;  0.0000000E+00; -2.8592146E-03;0; -1.4638104E-02;  3.9960715E+04;  0.0000000E+00; -1.4125246E-01;  4.0000000E+04;  0.0000000E+00;  3.9991477E+04; -1.4687478E-02;  0.0000000E+00;  4.9374034E-05;  1.0318182E+03;
  2.1145266E-01;  9.9999998E-03;  1.6012973E-01;3773; -2.8874697E-03;  0.0000000E+00;  1.0640855E-04;  9.9950183E+02;  1.0000000E-01; -4.1272906E+02;3; -1.3555652E+00;  0.0000000E+00;  2.5921484E-02;0; -1.4877007E-02;  3.9966895E+04;  0.0000000E+00; -2.7761644E-01;  4.0000000E+04;  0.0000000E+00;  3.9989719E+04; -1.4844493E-02;  0.0000000E+00; -3.2514658E-05;  1.2917690E+03;
  2.1141413E-01;  9.9999998E-03;  1.7010975E-01;3774; -2.8536303E-03;  0.0000000E+00;  9.8435456E-05;  9.9955554E+02;  1.0000000E-01; -3.6823651E+02;3; -1.3693012E+00;  0.0000000E+00;  1.3795218E-01;0; -1.5153698E-02;  3.9973379E+04;  0.0000000E+00; -3.9251247E-01;  4.0000000E+04;  0.0000000E+00;  3.9988117E+04; -1.5070232E-02;  0.0000000E+00; -8.3465653E-05;  1.5712053E+03;
  2.1135494E-01;  9.9999998E-03;  1.8009035E-01;3775; -2.8383071E-03;  0.0000000E+00;  8.5957559E-05;  9.9959955E+02;  1.0000000E-01; -3.3174371E+02;3; -1.4581888E+00;  0.0000000E+00;  3.9705718E-01;0; -1.5477940E-02;  3.9979453E+04;  0.0000000E+00; -3.8174230E-01;  4.0000000E+04;  0.0000000E+00;  3.9986371E+04; -1.5381353E-02;  0.0000000E+00; -9.6587057E-05;  1.7516583E+03;
  2.1127592E-01;  9.9999998E-03;  1.9008522E-01;3776; -2.8448480E-03;  0.0000000E+00;  7.0056820E-05;  9.9963000E+02;  1.0000000E-01; -3.0650986E+02;3; -1.6820418E+00;  0.0000000E+00;  8.6846089E-01;0; -1.5864074E-02;  3.9983656E+04;  0.0000000E+00; -9.6105210E-02;  4.0000000E+04;  0.0000000E+00;  3.9985570E+04; -1.5792809E-02;  0.0000000E+00; -7.1264942E-05;  1.7549741E+03;
  2.1117331E-01;  9.9999998E-03;  2.0011280E-01;3777; -2.8756093E-03;  0.0000000E+00;  5.2177205E-05;  9.9962903E+02;  1.0000000E-01; -3.0734933E+02;3; -2.0915418E+00;  0.0000000E+00;  1.6041156E+00;0; -1.6332787E-02;  3.9984457E+04;  0.0000000E+00;  6.3239592E-01;  4.0000000E+04;  0.0000000E+00;  3.9985816E+04; -1.6319063E-02;  0.0000000E+00; -1.3723455E-05;  1.9712715E+03;
  2.1107630E-01;  9.9999998E-03;  2.1016043E-01;3778; -2.9315848E-03;  0.0000000E+00;  3.1362433E-05;  9.9956189E+02;  1.0000000E-01; -3.6295270E+02;3; -2.6897082E+00;  0.0000000E+00;  2.5829911E+00;0; -1.6913326E-02;  3.9980672E+04;  0.0000000E+00;  1.9607795E+00;  4.0000000E+04;  0.0000000E+00;  3.9986047E+04; -1.6975343E-02;  0.0000000E+00;  6.2017090E-05;  3.3565940E+03;
  2.1098047E-01;  9.9999998E-03;  2.2022575E-01;3779; -3.0075572E-03;  0.0000000E+00; -2.9115865E-06;  9.9939734E+02;  1.0000000E-01; -4.9929453E+02;3; -3.4106853E+00;  0.0000000E+00;  3.5304608E+00;0; -1.7657658E-02;  3.9971402E+04;  0.0000000E+00;  4.0254025E+00;  4.0000000E+04;  0.0000000E+00;  3.9983844E+04; -1.7781541E-02;  0.0000000E+00;  1.2388204E-04;  6.2495806E+03;
  2.1089835E-01;  9.9999998E-03;  2.3028347E-01;3780; -3.0863446E-03;  0.0000000E+00; -7.9563833E-05;  9.9910779E+02;  1.0000000E-01; -7.3918896E+02;3; -4.0800147E+00;  0.0000000E+00;  3.7019877E+00;0; -1.8678196E-02;  3.9955496E+04;  0.0000000E+00;  6.9617276E+00;  4.0000000E+04;  0.0000000E+00;  3.9976832E+04; -1.8760372E-02;  0.0000000E+00;  8.2175538E-05;  1.0645771E+04;
  2.2181495E-01;  9.9999998E-03;  6.9994181E-02;3825; -3.1506438E-03;  0.0000000E+00;  6.2698535E-05;  9.9943652E+02;  1.0000000E-01; -4.6685098E+02;3; -1.5526787E+00;  0.0000000E+00;  7.9352902E-03;0; -1.3383919E-02;  3.9962223E+04;  0.0000000E+00;  2.6306918E-02;  4.0000000E+04;  0.0000000E+00;  3.9988230E+04; -1.4186657E-02;  0.0000000E+00;  8.0273778E-04;  1.4013949E+03;
  2.2184616E-01;  9.9999998E-03;  7.9995863E-02;3826; -3.1905987E-03;  0.0000000E+00;  6.3183834E-05;  9.9939520E+02;  1.0000000E-01; -5.0107224E+02;3; -1.5400420E+00;  0.0000000E+00;  7.8584431E-03;0; -1.3504446E-02;  3.9958613E+04;  0.0000000E+00;  4.5024909E-02;  4.0000000E+04;  0.0000000E+00;  3.9988625E+04; -1.4262170E-02;  0.0000000E+00;  7.5772352E-04;  1.3661417E+03;
  2.2186148E-01;  9.9999998E-03;  8.9996666E-02;3827; -3.2180052E-03;  0.0000000E+00;  6.6666558E-05;  9.9934698E+02;  1.0000000E-01; -5.4102173E+02;3; -1.5256422E+00;  0.0000000E+00;  6.8344227E-03;0; -1.3627027E-02;  3.9954031E+04;  0.0000000E+00;  6.8564020E-02;  4.0000000E+04;  0.0000000E+00;  3.9988973E+04; -1.4339987E-02;  0.0000000E+00;  7.1296009E-04;  1.2954940E+03;
  2.2185464E-01;  9.9999998E-03;  1.0000168E-01;3828; -3.2286877E-03;  0.0000000E+00;  7.4099247E-05;  9.9929620E+02;  1.0000000E-01; -5.8309460E+02;3; -1.5096854E+00;  0.0000000E+00;  6.2026018E-03;0; -1.3756932E-02;  3.9949441E+04;  0.0000000E+00;  9.5147461E-02;  4.0000000E+04;  0.0000000E+00;  3.9989938E+04; -1.4419442E-02;  0.0000000E+00;  6.6251005E-04;  1.2144357E+03;
  2.2181684E-01;  9.9999998E-03;  1.1001620E-01;3829; -3.2199118E-03;  0.0000000E+00;  8.5873275E-05;  9.9924170E+02;  1.0000000E-01; -6.2822913E+02;3; -1.4920297E+00;  0.0000000E+00;  5.5240514E-03;0; -1.3900712E-02;  3.9944066E+04;  0.0000000E+00;  1.2046468E-01;  4.0000000E+04;  0.0000000E+00;  3.9990469E+04; -1.4501023E-02;  0.0000000E+00;  6.0031051E-04;  1.1436794E+03;
  2.2174221E-01;  9.9999998E-03;  1.2004580E-01;3830; -3.1909174E-03;  0.0000000E+00;  1.0213660E-04;  9.9919299E+02;  1.0000000E-01; -6.6857367E+02;3; -1.4728807E+00;  0.0000000E+00;  3.8685221E-03;0; -1.4064681E-02;  3.9940039E+04;  0.0000000E+00;  1.3652264E-01;  4.0000000E+04;  0.0000000E+00;  3.9990402E+04; -1.4587043E-02;  0.0000000E+00;  5.2236172E-04;  1.0955779E+03;
  2.2163196E-01;  9.9999998E-03;  1.3009432E-01;3831; -3.1446414E-03;  0.0000000E+00;  1.1917101E-04;  9.9916016E+02;  1.0000000E-01; -6.9578278E+02;3; -1.4524345E+00;  0.0000000E+00;  1.0140538E-03;0; -1.4253555E-02;  3.9937078E+04;  0.0000000E+00;  1.3147619E-01;  4.0000000E+04;  0.0000000E+00;  3.9990805E+04; -1.4682244E-02;  0.0000000E+00;  4.2868880E-04;  1.0753130E+03;
  2.2152914E-01;  9.9999998E-03;  1.4014371E-01;3832; -3.0876864E-03;  0.0000000E+00;  1.3319674E-04;  9.9913879E+02;  1.0000000E-01; -7.1351068E+02;3; -1.4309046E+00;  0.0000000E+00; -3.3871941E-03;0; -1.4469528E-02;  3.9936000E+04;  0.0000000E+00;  9.1629125E-02;  4.0000000E+04;  0.0000000E+00;  3.9990301E+04; -1.4795110E-02;  0.0000000E+00;  3.2558164E-04;  1.0903639E+03;
  2.2146016E-01;  9.9999998E-03;  1.5016446E-01;3833; -3.0287446E-03;  0.0000000E+00;  1.4303658E-04;  9.9913660E+02;  1.0000000E-01; -7.1533777E+02;3; -1.4085039E+00;  0.0000000E+00; -6.0863667E-03;0; -1.4712743E-02;  3.9936641E+04;  0.0000000E+00;  5.6706280E-03;  4.0000000E+04;  0.0000000E+00;  3.9990145E+04; -1.4937215E-02;  0.0000000E+00;  2.2447194E-04;  1.1554722E+03;
  2.2142570E-01;  9.9999998E-03;  1.6015673E-01;3834; -2.9770199E-03;  0.0000000E+00;  1.4698386E-04;  9.9914795E+02;  1.0000000E-01; -7.0590594E+02;3; -1.3909935E+00;  0.0000000E+00;  1.2494252E-02;0; -1.4984109E-02;  3.9938840E+04;  0.0000000E+00; -1.2192933E-01;  4.0000000E+04;  0.0000000E+00;  3.9989012E+04; -1.5122689E-02;  0.0000000E+00;  1.3858100E-04;  1.2918802E+03;
  2.2140138E-01;  9.9999998E-03;  1.7013039E-01;3835; -2.9395209E-03;  0.0000000E+00;  1.4510391E-04;  9.9916467E+02;  1.0000000E-01; -6.9202979E+02;3; -1.3995469E+00;  0.0000000E+00;  9.6744500E-02;0; -1.5287454E-02;  3.9942340E+04;  0.0000000E+00; -2.4589600E-01;  4.0000000E+04;  0.0000000E+00;  3.9987785E+04; -1.5366774E-02;  0.0000000E+00;  7.9319791E-05;  1.4873240E+03;
  2.2135383E-01;  9.9999998E-03;  1.8009929E-01;3836; -2.9217061E-03;  0.0000000E+00;  1.3641809E-04;  9.9918408E+02;  1.0000000E-01; -6.7598090E+02;3; -1.4765515E+00;  0.0000000E+00;  3.0292237E-01;0; -1.5630674E-02;  3.9946004E+04;  0.0000000E+00; -2.6531929E-01;  4.0000000E+04;  0.0000000E+00;  3.9986387E+04; -1.5684687E-02;  0.0000000E+00;  5.4013828E-05;  1.6510747E+03;
  2.2127230E-01;  9.9999998E-03;  1.9007848E-01;3837; -2.9271252E-03;  0.0000000E+00;  1.2063661E-04;  9.9919769E+02;  1.0000000E-01; -6.6467255E+02;3; -1.6808250E+00;  0.0000000E+00;  6.8790329E-01;0; -1.6027711E-02;  3.9948645E+04;  0.0000000E+00; -3.0290619E-02;  4.0000000E+04;  0.0000000E+00;  3.9985852E+04; -1.6092112E-02;  0.0000000E+00;  6.4401524E-05;  1.7003094E+03;
  2.2115487E-01;  9.9999998E-03;  2.0008580E-01;3838; -2.9576062E-03;  0.0000000E+00;  9.8931057E-05;  9.9919696E+02;  1.0000000E-01; -6.6531451E+02;3; -2.0700448E+00;  0.0000000E+00;  1.2958679E+00;0; -1.6500831E-02;  3.9950012E+04;  0.0000000E+00;  6.3386470E-01;  4.0000000E+04;  0.0000000E+00;  3.9985348E+04; -1.6605727E-02;  0.0000000E+00;  1.0489683E-04;  1.9566370E+03;
  2.2104433E-01;  9.9999998E-03;  2.1011688E-01;3839; -3.0137221E-03;  0.0000000E+00;  7.0383663E-05;  9.9915387E+02;  1.0000000E-01; -7.0101721E+02;3; -2.6683552E+00;  0.0000000E+00;  2.1083927E+00;0; -1.7085083E-02;  3.9948082E+04;  0.0000000E+00;  1.8953030E+00;  4.0000000E+04;  0.0000000E+00;  3.9985504E+04; -1.7245529E-02;  0.0000000E+00;  1.6044617E-04;  3.2934570E+03;
  2.2096236E-01;  9.9999998E-03;  2.2015736E-01;3840; -3.0910496E-03;  0.0000000E+00;  2.6216345E-05;  9.9904089E+02;  1.0000000E-01; -7.9459479E+02;3; -3.4331734E+00;  0.0000000E+00;  2.9373074E+00;0; -1.7841714E-02;  3.9942500E+04;  0.0000000E+00;  3.8914132E+00;  4.0000000E+04;  0.0000000E+00;  3.9983859E+04; -1.8035380E-02;  0.0000000E+00;  1.9366578E-04;  6.0514619E+03;
  2.2089523E-01;  9.9999998E-03;  2.3019826E-01;3841; -3.1732430E-03;  0.0000000E+00; -6.1562634E-05;  9.9883301E+02;  1.0000000E-01; -9.6683685E+02;3; -4.2372484E+00;  0.0000000E+00;  3.2054565E+00;0; -1.8905336E-02;  3.9932055E+04;  0.0000000E+00;  6.7568407E+00;  4.0000000E+04;  0.0000000E+00;  3.9979016E+04; -1.9002534E-02;  0.0000000E+00;  9.7198637E-05;  1.0291884E+04;
  2.3170589E-01;  9.9999998E-03;  7.0001282E-02;3886; -3.2311578E-03;  0.0000000E+00;  8.3229388E-05;  9.9936005E+02;  1.0000000E-01; -5.3020721E+02;3; -1.5906698E+00;  0.0000000E+00;  9.3626911E-03;0; -1.3350147E-02;  3.9956859E+04;  0.0000000E+00;  5.3469025E-02;  4.0000000E+04;  0.0000000E+00;  3.9988637E+04; -1.4317557E-02;  0.0000000E+00;  9.6740999E-04;  1.3890513E+03;
  2.3175946E-01;  9.9999998E-03;  7.9999290E-02;3887; -3.2742971E-03;  0.0000000E+00;  8.3257168E-05;  9.9932416E+02;  1.0000000E-01; -5.5993475E+02;3; -1.5776681E+00;  0.0000000E+00;  8.8697933E-03;0; -1.3476852E-02;  3.9953898E+04;  0.0000000E+00;  7.6760687E-02;  4.0000000E+04;  0.0000000E+00;  3.9988633E+04; -1.4393769E-02;  0.0000000E+00;  9.1691664E-04;  1.3878281E+03;
  2.3180558E-01;  9.9999998E-03;  8.9993767E-02;3888; -3.3055723E-03;  0.0000000E+00;  8.5647327E-05;  9.9927600E+02;  1.0000000E-01; -5.9983490E+02;3; -1.5633340E+00;  0.0000000E+00;  8.5720150E-03;0; -1.3610868E-02;  3.9949691E+04;  0.0000000E+00;  1.0575861E-01;  4.0000000E+04;  0.0000000E+00;  3.9988625E+04; -1.4482904E-02;  0.0000000E+00;  8.7203662E-04;  1.3523821E+03;
  2.3184177E-01;  9.9999998E-03;  9.9989250E-02;3889; -3.3207079E-03;  0.0000000E+00;  9.1819158E-05;  9.9921185E+02;  1.0000000E-01; -6.5296918E+02;3; -1.5471370E+00;  0.0000000E+00;  6.5638470E-03;0; -1.3757670E-02;  3.9944344E+04;  0.0000000E+00;  1.4047132E-01;  4.0000000E+04;  0.0000000E+00;  3.9988891E+04; -1.4584874E-02;  0.0000000E+00;  8.2720345E-04;  1.3046971E+03;
  2.3185903E-01;  9.9999998E-03;  1.0999186E-01;3890; -3.3166497E-03;  0.0000000E+00;  1.0178670E-04;  9.9913867E+02;  1.0000000E-01; -7.1360944E+02;3; -1.5296478E+00;  0.0000000E+00;  5.3258678E-03;0; -1.3923744E-02;  3.9937988E+04;  0.0000000E+00;  1.7887734E-01;  4.0000000E+04;  0.0000000E+00;  3.9989438E+04; -1.4699446E-02;  0.0000000E+00;  7.7570241E-04;  1.2613400E+03;
  2.3184575E-01;  9.9999998E-03;  1.2000731E-01;3891; -3.2921897E-03;  0.0000000E+00;  1.1689294E-04;  9.9905768E+02;  1.0000000E-01; -7.8071869E+02;3; -1.5104680E+00;  0.0000000E+00;  4.0129339E-03;0; -1.4114885E-02;  3.9930953E+04;  0.0000000E+00;  2.1534468E-01;  4.0000000E+04;  0.0000000E+00;  3.9989547E+04; -1.4826726E-02;  0.0000000E+00;  7.1184145E-04;  1.2290149E+03;
  2.3179105E-01;  9.9999998E-03;  1.3003893E-01;3892; -3.2492056E-03;  0.0000000E+00;  1.3551542E-04;  9.9898175E+02;  1.0000000E-01; -8.4358105E+02;3; -1.4899646E+00;  0.0000000E+00;  1.3044347E-03;0; -1.4334757E-02;  3.9924543E+04;  0.0000000E+00;  2.3946393E-01;  4.0000000E+04;  0.0000000E+00;  3.9989809E+04; -1.4967806E-02;  0.0000000E+00;  6.3304842E-04;  1.2051376E+03;
  2.3169661E-01;  9.9999998E-03;  1.4008303E-01;3893; -3.1931002E-03;  0.0000000E+00;  1.5454816E-04;  9.9891370E+02;  1.0000000E-01; -8.9997455E+02;3; -1.4680454E+00;  0.0000000E+00; -2.1458718E-03;0; -1.4584005E-02;  3.9918992E+04;  0.0000000E+00;  2.3623809E-01;  4.0000000E+04;  0.0000000E+00;  3.9989945E+04; -1.5126044E-02;  0.0000000E+00;  5.4203870E-04;  1.1833165E+03;
  2.3160836E-01;  9.9999998E-03;  1.5012069E-01;3894; -3.1330234E-03;  0.0000000E+00;  1.7069944E-04;  9.9886383E+02;  1.0000000E-01; -9.4130670E+02;3; -1.4452115E+00;  0.0000000E+00; -6.4261891E-03;0; -1.4860555E-02;  3.9915094E+04;  0.0000000E+00;  1.8937925E-01;  4.0000000E+04;  0.0000000E+00;  3.9990031E+04; -1.5309234E-02;  0.0000000E+00;  4.4867978E-04;  1.1670227E+03;
  2.3155020E-01;  9.9999998E-03;  1.6012752E-01;3895; -3.0786744E-03;  0.0000000E+00;  1.8195713E-04;  9.9883002E+02;  1.0000000E-01; -9.6930591E+02;3; -1.4256192E+00;  0.0000000E+00;  3.2258441E-03;0; -1.5161789E-02;  3.9913180E+04;  0.0000000E+00;  9.4104335E-02;  4.0000000E+04;  0.0000000E+00;  3.9989598E+04; -1.5528029E-02;  0.0000000E+00;  3.6623984E-04;  1.1840417E+03;
  2.3152018E-01;  9.9999998E-03;  1.7010583E-01;3896; -3.0385030E-03;  0.0000000E+00;  1.8589536E-04;  9.9880896E+02;  1.0000000E-01; -9.8673755E+02;3; -1.4262817E+00;  0.0000000E+00;  6.1599340E-02;0; -1.5488595E-02;  3.9912922E+04;  0.0000000E+00; -1.7650183E-02;  4.0000000E+04;  0.0000000E+00;  3.9989039E+04; -1.5795423E-02;  0.0000000E+00;  3.0682795E-04;  1.2647405E+03;
  2.3147014E-01;  9.9999998E-03;  1.8007100E-01;3897; -3.0180763E-03;  0.0000000E+00;  1.8103021E-04;  9.9879620E+02;  1.0000000E-01; -9.9730511E+02;3; -1.4842035E+00;  0.0000000E+00;  2.1766068E-01;0; -1.5846044E-02;  3.9913250E+04;  0.0000000E+00; -5.8807749E-02;  4.0000000E+04;  0.0000000E+00;  3.9988340E+04; -1.6123978E-02;  0.0000000E+00;  2.7793369E-04;  1.3709542E+03;
  2.3139530E-01;  9.9999998E-03;  1.9003764E-01;3898; -3.0211660E-03;  0.0000000E+00;  1.6639958E-04;  9.9879144E+02;  1.0000000E-01; -1.0012556E+03;3; -1.6532813E+00;  0.0000000E+00;  5.2382815E-01;0; -1.6247110E-02;  3.9914090E+04;  0.0000000E+00;  1.0823122E-01;  4.0000000E+04;  0.0000000E+00;  3.9987586E+04; -1.6529242E-02;  0.0000000E+00;  2.8213143E-04;  1.4236284E+03;
  2.3129201E-01;  9.9999998E-03;  2.0002024E-01;3899; -3.0495902E-03;  0.0000000E+00;  1.4334256E-04;  9.9878870E+02;  1.0000000E-01; -1.0035272E+03;3; -1.9901971E+00;  0.0000000E+00;  1.0286324E+00;0; -1.6714629E-02;  3.9914070E+04;  0.0000000E+00;  6.4708555E-01;  4.0000000E+04;  0.0000000E+00;  3.9988359E+04; -1.7028414E-02;  0.0000000E+00;  3.1378458E-04;  1.6445658E+03;
  2.3115657E-01;  9.9999998E-03;  2.1003418E-01;3900; -3.1034865E-03;  0.0000000E+00;  1.1262194E-04;  9.9877014E+02;  1.0000000E-01; -1.0189341E+03;3; -2.5298569E+00;  0.0000000E+00;  1.7457290E+00;0; -1.7285869E-02;  3.9913414E+04;  0.0000000E+00;  1.7265457E+00;  4.0000000E+04;  0.0000000E+00;  3.9989320E+04; -1.7642427E-02;  0.0000000E+00;  3.5655947E-04;  2.8286631E+03;
  2.3101839E-01;  9.9999998E-03;  2.2006884E-01;3901; -3.1790421E-03;  0.0000000E+00;  6.7438938E-05;  9.9871887E+02;  1.0000000E-01; -1.0614021E+03;3; -3.2642722E+00;  0.0000000E+00;  2.5572515E+00;0; -1.8026661E-02;  3.9911281E+04;  0.0000000E+00;  3.5234208E+00;  4.0000000E+04;  0.0000000E+00;  3.9988941E+04; -1.8398253E-02;  0.0000000E+00;  3.7159235E-04;  5.3511523E+03;
  2.3094530E-01;  9.9999998E-03;  2.3009910E-01;3902; -3.2633457E-03;  0.0000000E+00; -5.5472283E-06;  9.9860248E+02;  1.0000000E-01; -1.1578438E+03;3; -4.0851283E+00;  0.0000000E+00;  3.1297088E+00;0; -1.9058051E-02;  3.9905895E+04;  0.0000000E+00;  6.1267958E+00;  4.0000000E+04;  0.0000000E+00;  3.9987062E+04; -1.9327426E-02;  0.0000000E+00;  2.6937533E-04;  9.1729629E+03;
  2.4161009E-01;  9.9999998E-03;  7.0009917E-02;3947; -3.3173414E-03;  0.0000000E+00;  1.0168890E-04;  9.9926654E+02;  1.0000000E-01; -6.0763715E+02;3; -1.6280285E+00;  0.0000000E+00;  1.1158697E-02;0; -1.3449337E-02;  3.9949816E+04;  0.0000000E+00;  7.0346333E-02;  4.0000000E+04;  0.0000000E+00;  3.9989766E+04; -1.4603856E-02;  0.0000000E+00;  1.1545183E-03;  1.2432290E+03;
  2.4165216E-01;  9.9999998E-03;  8.0007792E-02;3948; -3.3625751E-03;  0.0000000E+00;  1.0124924E-04;  9.9925494E+02;  1.0000000E-01; -6.1726648E+02;3; -1.6147214E+00;  0.0000000E+00;  1.0699985E-02;0; -1.3578363E-02;  3.9948809E+04;  0.0000000E+00;  9.5994540E-02;  4.0000000E+04;  0.0000000E+00;  3.9989188E+04; -1.4676691E-02;  0.0000000E+00;  1.0983285E-03;  1.2679536E+03;
  2.4170978E-01;  9.9999998E-03;  9.0000384E-02;3949; -3.3974745E-03;  0.0000000E+00;  1.0271496E-04;  9.9922394E+02;  1.0000000E-01; -6.4294476E+02;3; -1.6002126E+00;  0.0000000E+00;  1.0868547E-02;0; -1.3720201E-02;  3.9945969E+04;  0.0000000E+00;  1.2800016E-01;  4.0000000E+04;  0.0000000E+00;  3.9989309E+04; -1.4773471E-02;  0.0000000E+00;  1.0532700E-03;  1.2574531E+03;
  2.4176727E-01;  9.9999998E-03;  9.9991925E-02;3950; -3.4175022E-03;  0.0000000E+00;  1.0741439E-04;  9.9917609E+02;  1.0000000E-01; -6.8259796E+02;3; -1.5840535E+00;  0.0000000E+00;  1.0275810E-02;0; -1.3880293E-02;  3.9941668E+04;  0.0000000E+00;  1.6803606E-01;  4.0000000E+04;  0.0000000E+00;  3.9989938E+04; -1.4894325E-02;  0.0000000E+00;  1.0140324E-03;  1.2305851E+03;
  2.4182132E-01;  9.9999998E-03;  1.0998681E-01;3951; -3.4194214E-03;  0.0000000E+00;  1.1641367E-04;  9.9910358E+02;  1.0000000E-01; -7.4264569E+02;3; -1.5663487E+00;  0.0000000E+00;  8.2944846E-03;0; -1.4064965E-02;  3.9935617E+04;  0.0000000E+00;  2.1656848E-01;  4.0000000E+04;  0.0000000E+00;  3.9990207E+04; -1.5038686E-02;  0.0000000E+00;  9.7372121E-04;  1.2025588E+03;
  2.4187154E-01;  9.9999998E-03;  1.1998812E-01;3952; -3.4019479E-03;  0.0000000E+00;  1.2952914E-04;  9.9901245E+02;  1.0000000E-01; -8.1814972E+02;3; -1.5471102E+00;  0.0000000E+00;  6.1838543E-03;0; -1.4279715E-02;  3.9927883E+04;  0.0000000E+00;  2.7107754E-01;  4.0000000E+04;  0.0000000E+00;  3.9990336E+04; -1.5205490E-02;  0.0000000E+00;  9.2577556E-04;  1.1802870E+03;
  2.4191509E-01;  9.9999998E-03;  1.2999904E-01;3953; -3.3660387E-03;  0.0000000E+00;  1.4778652E-04;  9.9891089E+02;  1.0000000E-01; -9.0229547E+02;3; -1.5265930E+00;  0.0000000E+00;  3.8947579E-03;0; -1.4527583E-02;  3.9919238E+04;  0.0000000E+00;  3.2424605E-01;  4.0000000E+04;  0.0000000E+00;  3.9990680E+04; -1.5393695E-02;  0.0000000E+00;  8.6611201E-04;  1.1615802E+03;
  2.4191393E-01;  9.9999998E-03;  1.4001426E-01;3954; -3.3156578E-03;  0.0000000E+00;  1.6966536E-04;  9.9880914E+02;  1.0000000E-01; -9.8658936E+02;3; -1.5046844E+00;  0.0000000E+00;  9.9552923E-04;0; -1.4806685E-02;  3.9910508E+04;  0.0000000E+00;  3.6283454E-01;  4.0000000E+04;  0.0000000E+00;  3.9991254E+04; -1.5601143E-02;  0.0000000E+00;  7.9445855E-04;  1.1381473E+03;
  2.4186471E-01;  9.9999998E-03;  1.5003823E-01;3955; -3.2583950E-03;  0.0000000E+00;  1.9160967E-04;  9.9871515E+02;  1.0000000E-01; -1.0644637E+03;3; -1.4815214E+00;  0.0000000E+00; -2.7911535E-03;0; -1.5112278E-02;  3.9902672E+04;  0.0000000E+00;  3.6850169E-01;  4.0000000E+04;  0.0000000E+00;  3.9991520E+04; -1.5829571E-02;  0.0000000E+00;  7.1729266E-04;  1.1001714E+03;
  2.4178007E-01;  9.9999998E-03;  1.6006060E-01;3956; -3.2040654E-03;  0.0000000E+00;  2.0918259E-04;  9.9863574E+02;  1.0000000E-01; -1.1302396E+03;3; -1.4595950E+00;  0.0000000E+00; -2.9368105E-04;0; -1.5438518E-02;  3.9896059E+04;  0.0000000E+00;  3.2615706E-01;  4.0000000E+04;  0.0000000E+00;  3.9991895E+04; -1.6084513E-02;  0.0000000E+00;  6.4599555E-04;  1.0506108E+03;
  2.4167581E-01;  9.9999998E-03;  1.7006011E-01;3957; -3.1619442E-03;  0.0000000E+00;  2.1888543E-04;  9.9856854E+02;  1.0000000E-01; -1.1859418E+03;3; -1.4518439E+00;  0.0000000E+00;  3.5528723E-02;0; -1.5782494E-02;  3.9891457E+04;  0.0000000E+00;  2.4919832E-01;  4.0000000E+04;  0.0000000E+00;  3.9991570E+04; -1.6375398E-02;  0.0000000E+00;  5.9290463E-04;  1.0240042E+03;
  2.4157058E-01;  9.9999998E-03;  1.8003780E-01;3958; -3.1389685E-03;  0.0000000E+00;  2.1854638E-04;  9.9851892E+02;  1.0000000E-01; -1.2270270E+03;3; -1.4879887E+00;  0.0000000E+00;  1.4758852E-01;0; -1.6147725E-02;  3.9888418E+04;  0.0000000E+00;  2.0220438E-01;  4.0000000E+04;  0.0000000E+00;  3.9991738E+04; -1.6715433E-02;  0.0000000E+00;  5.6770840E-04;  1.0491152E+03;
  2.4147192E-01;  9.9999998E-03;  1.9000465E-01;3959; -3.1392644E-03;  0.0000000E+00;  2.0650643E-04;  9.9848120E+02;  1.0000000E-01; -1.2582854E+03;3; -1.6157484E+00;  0.0000000E+00;  3.8144845E-01;0; -1.6546061E-02;  3.9886410E+04;  0.0000000E+00;  3.0067086E-01;  4.0000000E+04;  0.0000000E+00;  3.9990992E+04; -1.7119788E-02;  0.0000000E+00;  5.7372573E-04;  1.1028943E+03;
  2.4137424E-01;  9.9999998E-03;  1.9997402E-01;3960; -3.1646988E-03;  0.0000000E+00;  1.8447502E-04;  9.9847229E+02;  1.0000000E-01; -1.2656926E+03;3; -1.8883413E+00;  0.0000000E+00;  7.8741431E-01;0; -1.7000012E-02;  3.9885129E+04;  0.0000000E+00;  6.8918580E-01;  4.0000000E+04;  0.0000000E+00;  3.9992617E+04; -1.7604982E-02;  0.0000000E+00;  6.0497125E-04;  1.3315906E+03;
  2.4127351E-01;  9.9999998E-03;  2.0995876E-01;3961; -3.2156990E-03;  0.0000000E+00;  1.5842634E-04;  9.9847400E+02;  1.0000000E-01; -1.2642605E+03;3; -2.3386602E+00;  0.0000000E+00;  1.4158045E+00;0; -1.7544035E-02;  3.9883973E+04;  0.0000000E+00;  1.5124985E+00;  4.0000000E+04;  0.0000000E+00;  3.9995379E+04; -1.8191351E-02;  0.0000000E+00;  6.4731628E-04;  2.2924792E+03;
  2.4115030E-01;  9.9999998E-03;  2.1997650E-01;3962; -3.2891768E-03;  0.0000000E+00;  1.2958304E-04;  9.9847540E+02;  1.0000000E-01; -1.2630754E+03;3; -2.9733777E+00;  0.0000000E+00;  2.2450151E+00;0; -1.8230096E-02;  3.9883090E+04;  0.0000000E+00;  2.9250667E+00;  4.0000000E+04;  0.0000000E+00;  3.9998047E+04; -1.8904526E-02;  0.0000000E+00;  6.7443011E-04;  4.3329780E+03;
  2.4105595E-01;  9.9999998E-03;  2.3001432E-01;3963; -3.3730937E-03;  0.0000000E+00;  7.7787103E-05;  9.9842468E+02;  1.0000000E-01; -1.3050989E+03;3; -3.7697403E+00;  0.0000000E+00;  3.0024157E+00;0; -1.9175678E-02;  3.9881398E+04;  0.0000000E+00;  5.0447745E+00;  4.0000000E+04;  0.0000000E+00;  3.9997402E+04; -1.9777121E-02;  0.0000000E+00;  6.0144236E-04;  7.4736997E+03;
  2.5161123E-01;  9.9999998E-03;  7.0005052E-02;4008; -3.4197269E-03;  0.0000000E+00;  1.1798705E-04;  9.9918939E+02;  1.0000000E-01; -6.7158594E+02;3; -1.6654449E+00;  0.0000000E+00;  1.3800883E-02;0; -1.3689382E-02;  3.9942852E+04;  0.0000000E+00;  7.1582891E-02;  4.0000000E+04;  0.0000000E+00;  3.9991625E+04; -1.5058489E-02;  0.0000000E+00;  1.3691065E-03;  1.0035560E+03;
  2.5164783E-01;  9.9999998E-03;  8.0004819E-02;4009; -3.4660001E-03;  0.0000000E+00;  1.1763300E-04;  9.9920911E+02;  1.0000000E-01; -6.5524072E+02;3; -1.6519517E+00;  0.0000000E+00;  1.4221944E-02;0; -1.3816870E-02;  3.9944730E+04;  0.0000000E+00;  9.6076913E-02;  4.0000000E+04;  0.0000000E+00;  3.9991113E+04; -1.5124312E-02;  0.0000000E+00;  1.3074420E-03;  1.0491615E+03;
  2.5169253E-01;  9.9999998E-03;  8.9999087E-02;4010; -3.5036847E-03;  0.0000000E+00;  1.1832695E-04;  9.9921136E+02;  1.0000000E-01; -6.5336426E+02;3; -1.6368854E+00;  0.0000000E+00;  1.3767364E-02;0; -1.3962007E-02;  3.9944766E+04;  0.0000000E+00;  1.2728697E-01;  4.0000000E+04;  0.0000000E+00;  3.9991074E+04; -1.5223427E-02;  0.0000000E+00;  1.2614198E-03;  1.0577831E+03;
  2.5174919E-01;  9.9999998E-03;  9.9990122E-02;4011; -3.5285065E-03;  0.0000000E+00;  1.2207981E-04;  9.9919489E+02;  1.0000000E-01; -6.6704285E+02;3; -1.6205207E+00;  0.0000000E+00;  1.3486351E-02;0; -1.4130751E-02;  3.9943012E+04;  0.0000000E+00;  1.6829225E-01;  4.0000000E+04;  0.0000000E+00;  3.9991461E+04; -1.5357611E-02;  0.0000000E+00;  1.2268602E-03;  1.0442549E+03;
  2.5182319E-01;  9.9999998E-03;  1.0998139E-01;4012; -3.5372013E-03;  0.0000000E+00;  1.2967586E-04;  9.9914587E+02;  1.0000000E-01; -7.0763428E+02;3; -1.6026046E+00;  0.0000000E+00;  1.2899164E-02;0; -1.4329481E-02;  3.9938270E+04;  0.0000000E+00;  2.2178009E-01;  4.0000000E+04;  0.0000000E+00;  3.9991820E+04; -1.5526604E-02;  0.0000000E+00;  1.1971230E-03;  1.0231248E+03;
  2.5190824E-01;  9.9999998E-03;  1.1997510E-01;4013; -3.5279987E-03;  0.0000000E+00;  1.4179735E-04;  9.9906836E+02;  1.0000000E-01; -7.7183002E+02;3; -1.5834056E+00;  0.0000000E+00;  1.0777136E-02;0; -1.4562955E-02;  3.9931777E+04;  0.0000000E+00;  2.8833929E-01;  4.0000000E+04;  0.0000000E+00;  3.9992082E+04; -1.5727857E-02;  0.0000000E+00;  1.1649015E-03;  1.0052744E+03;
  2.5199112E-01;  9.9999998E-03;  1.2997232E-01;4014; -3.5012227E-03;  0.0000000E+00;  1.5880195E-04;  9.9896802E+02;  1.0000000E-01; -8.5498816E+02;3; -1.5625647E+00;  0.0000000E+00;  8.0604246E-03;0; -1.4832801E-02;  3.9922980E+04;  0.0000000E+00;  3.6446166E-01;  4.0000000E+04;  0.0000000E+00;  3.9992668E+04; -1.5957436E-02;  0.0000000E+00;  1.1246341E-03;  9.9658746E+02;
  2.5204811E-01;  9.9999998E-03;  1.3997452E-01;4015; -3.4597011E-03;  0.0000000E+00;  1.8072517E-04;  9.9885199E+02;  1.0000000E-01; -9.5108423E+02;3; -1.5404365E+00;  0.0000000E+00;  6.0176780E-03;0; -1.5136040E-02;  3.9912719E+04;  0.0000000E+00;  4.4046310E-01;  4.0000000E+04;  0.0000000E+00;  3.9993238E+04; -1.6210780E-02;  0.0000000E+00;  1.0747401E-03;  9.9634363E+02;
  2.5205114E-01;  9.9999998E-03;  1.4998430E-01;4016; -3.4091931E-03;  0.0000000E+00;  2.0644969E-04;  9.9872986E+02;  1.0000000E-01; -1.0522665E+03;3; -1.5168967E+00;  0.0000000E+00;  2.7654744E-03;0; -1.5464996E-02;  3.9902004E+04;  0.0000000E+00;  4.9958721E-01;  4.0000000E+04;  0.0000000E+00;  3.9993879E+04; -1.6484378E-02;  0.0000000E+00;  1.0193823E-03;  9.9407001E+02;
  2.5196999E-01;  9.9999998E-03;  1.5999790E-01;4017; -3.3582395E-03;  0.0000000E+00;  2.3024782E-04;  9.9860205E+02;  1.0000000E-01; -1.1581895E+03;3; -1.4933860E+00;  0.0000000E+00;  1.5500283E-03;0; -1.5809832E-02;  3.9891672E+04;  0.0000000E+00;  5.2104992E-01;  4.0000000E+04;  0.0000000E+00;  3.9994828E+04; -1.6776657E-02;  0.0000000E+00;  9.6682447E-04;  9.6989545E+02;
  2.5182989E-01;  9.9999998E-03;  1.7000616E-01;4018; -3.3166378E-03;  0.0000000E+00;  2.4612481E-04;  9.9849109E+02;  1.0000000E-01; -1.2500881E+03;3; -1.4779611E+00;  0.0000000E+00;  2.0880500E-02;0; -1.6165154E-02;  3.9882539E+04;  0.0000000E+00;  4.9828872E-01;  4.0000000E+04;  0.0000000E+00;  3.9994676E+04; -1.7093528E-02;  0.0000000E+00;  9.2837389E-04;  9.1967004E+02;
  2.5167823E-01;  9.9999998E-03;  1.7999922E-01;4019; -3.2921850E-03;  0.0000000E+00;  2.5183571E-04;  9.9839276E+02;  1.0000000E-01; -1.3315673E+03;3; -1.4938242E+00;  0.0000000E+00;  9.3518347E-02;0; -1.6532406E-02;  3.9875102E+04;  0.0000000E+00;  4.6668983E-01;  4.0000000E+04;  0.0000000E+00;  3.9994688E+04; -1.7446974E-02;  0.0000000E+00;  9.1456890E-04;  8.8184320E+02;
  2.5153804E-01;  9.9999998E-03;  1.8997680E-01;4020; -3.2900628E-03;  0.0000000E+00;  2.4470582E-04;  9.9831958E+02;  1.0000000E-01; -1.3922075E+03;3; -1.5800344E+00;  0.0000000E+00;  2.6288155E-01;0; -1.6921462E-02;  3.9869598E+04;  0.0000000E+00;  5.1125479E-01;  4.0000000E+04;  0.0000000E+00;  3.9994578E+04; -1.7850962E-02;  0.0000000E+00;  9.2949922E-04;  9.1890973E+02;
  2.5141624E-01;  9.9999998E-03;  1.9994627E-01;4021; -3.3123856E-03;  0.0000000E+00;  2.2597385E-04;  9.9828033E+02;  1.0000000E-01; -1.4247004E+03;3; -1.7849873E+00;  0.0000000E+00;  5.7430637E-01;0; -1.7354390E-02;  3.9866082E+04;  0.0000000E+00;  7.5163376E-01;  4.0000000E+04;  0.0000000E+00;  3.9996176E+04; -1.8321590E-02;  0.0000000E+00;  9.6720026E-04;  1.1632423E+03;
  2.5131404E-01;  9.9999998E-03;  2.0992070E-01;4022; -3.3595925E-03;  0.0000000E+00;  2.0476557E-04;  9.9828772E+02;  1.0000000E-01; -1.4185771E+03;3; -2.1455526E+00;  0.0000000E+00;  1.0864465E+00;0; -1.7863529E-02;  3.9864145E+04;  0.0000000E+00;  1.3154469E+00;  4.0000000E+04;  0.0000000E+00;  3.9999766E+04; -1.8878216E-02;  0.0000000E+00;  1.0146874E-03;  1.9583146E+03;
  2.5123394E-01;  9.9999998E-03;  2.1991669E-01;4023; -3.4299183E-03;  0.0000000E+00;  1.9758398E-04;  9.9833087E+02;  1.0000000E-01; -1.3828251E+03;3; -2.6693282E+00;  0.0000000E+00;  1.8472079E+00;0; -1.8474996E-02;  3.9863559E+04;  0.0000000E+00;  2.3093853E+00;  4.0000000E+04;  0.0000000E+00;  4.0005770E+04; -1.9545585E-02;  0.0000000E+00;  1.0705889E-03;  3.5338694E+03;
  2.5114295E-01;  9.9999998E-03;  2.2995447E-01;4024; -3.5120884E-03;  0.0000000E+00;  1.7527856E-04;  9.9833423E+02;  1.0000000E-01; -1.3800597E+03;3; -3.3933735E+00;  0.0000000E+00;  2.6695342E+00;0; -1.9288192E-02;  3.9864508E+04;  0.0000000E+00;  3.8679497E+00;  4.0000000E+04;  0.0000000E+00;  4.0007254E+04; -2.0350905E-02;  0.0000000E+00;  1.0627130E-03;  5.8391885E+03;
  2.6163763E-01;  9.9999998E-03;  6.9998860E-02;4069; -3.5439653E-03;  0.0000000E+00;  1.3332856E-04;  9.9914874E+02;  1.0000000E-01; -7.0526398E+02;3; -1.7027365E+00;  0.0000000E+00;  1.7573921E-02;0; -1.4049163E-02;  3.9938152E+04;  0.0000000E+00;  5.6803405E-02;  4.0000000E+04;  0.0000000E+00;  3.9993914E+04; -1.5663123E-02;  0.0000000E+00;  1.6139593E-03;  7.1171167E+02;
  2.6164800E-01;  9.9999998E-03;  7.9999596E-02;4070; -3.5894294E-03;  0.0000000E+00;  1.3363599E-04;  9.9920471E+02;  1.0000000E-01; -6.5889496E+02;3; -1.6886132E+00;  0.0000000E+00;  1.7864449E-02;0; -1.4171110E-02;  3.9943023E+04;  0.0000000E+00;  7.6083079E-02;  4.0000000E+04;  0.0000000E+00;  3.9993578E+04; -1.5717443E-02;  0.0000000E+00;  1.5463337E-03;  7.7607874E+02;
  2.6167986E-01;  9.9999998E-03;  8.9994632E-02;4071; -3.6287762E-03;  0.0000000E+00;  1.3438752E-04;  9.9924487E+02;  1.0000000E-01; -6.2561194E+02;3; -1.6732169E+00;  0.0000000E+00;  1.7909786E-02;0; -1.4315619E-02;  3.9946445E+04;  0.0000000E+00;  1.0205016E-01;  4.0000000E+04;  0.0000000E+00;  3.9993352E+04; -1.5814150E-02;  0.0000000E+00;  1.4985304E-03;  8.0240436E+02;
  2.6173869E-01;  9.9999998E-03;  9.9986844E-02;4072; -3.6579545E-03;  0.0000000E+00;  1.3734547E-04;  9.9926123E+02;  1.0000000E-01; -6.1203204E+02;3; -1.6563401E+00;  0.0000000E+00;  1.7999357E-02;0; -1.4488785E-02;  3.9947777E+04;  0.0000000E+00;  1.3885884E-01;  4.0000000E+04;  0.0000000E+00;  3.9993484E+04; -1.5956130E-02;  0.0000000E+00;  1.4673450E-03;  8.0003076E+02;
  2.6181766E-01;  9.9999998E-03;  1.0997774E-01;4073; -3.6734832E-03;  0.0000000E+00;  1.4390578E-04;  9.9925616E+02;  1.0000000E-01; -6.1622949E+02;3; -1.6383005E+00;  0.0000000E+00;  1.7631210E-02;0; -1.4696210E-02;  3.9946633E+04;  0.0000000E+00;  1.9095041E-01;  4.0000000E+04;  0.0000000E+00;  3.9993961E+04; -1.6142506E-02;  0.0000000E+00;  1.4462963E-03;  7.8242542E+02;
  2.6191381E-01;  9.9999998E-03;  1.1996927E-01;4074; -3.6731188E-03;  0.0000000E+00;  1.5518100E-04;  9.9921356E+02;  1.0000000E-01; -6.5153711E+02;3; -1.6186625E+00;  0.0000000E+00;  1.6833087E-02;0; -1.4942048E-02;  3.9942305E+04;  0.0000000E+00;  2.6157883E-01;  4.0000000E+04;  0.0000000E+00;  3.9994172E+04; -1.6370060E-02;  0.0000000E+00;  1.4280123E-03;  7.6595081E+02;
  2.6201341E-01;  9.9999998E-03;  1.2996247E-01;4075; -3.6566013E-03;  0.0000000E+00;  1.7171602E-04;  9.9913641E+02;  1.0000000E-01; -7.1548596E+02;3; -1.5978037E+00;  0.0000000E+00;  1.5337084E-02;0; -1.5226772E-02;  3.9935105E+04;  0.0000000E+00;  3.5081688E-01;  4.0000000E+04;  0.0000000E+00;  3.9994902E+04; -1.6633002E-02;  0.0000000E+00;  1.4062304E-03;  7.6948792E+02;
  2.6209566E-01;  9.9999998E-03;  1.3996005E-01;4076; -3.6259163E-03;  0.0000000E+00;  1.9277053E-04;  9.9902502E+02;  1.0000000E-01; -8.0773022E+02;3; -1.5754943E+00;  0.0000000E+00;  1.1405606E-02;0; -1.5546019E-02;  3.9925207E+04;  0.0000000E+00;  4.5316184E-01;  4.0000000E+04;  0.0000000E+00;  3.9995570E+04; -1.6924363E-02;  0.0000000E+00;  1.3783437E-03;  8.0830048E+02;
  2.6211745E-01;  9.9999998E-03;  1.4996107E-01;4077; -3.5849875E-03;  0.0000000E+00;  2.1891324E-04;  9.9888989E+02;  1.0000000E-01; -9.1972705E+02;3; -1.5516024E+00;  0.0000000E+00;  9.6886614E-03;0; -1.5889503E-02;  3.9913125E+04;  0.0000000E+00;  5.5542725E-01;  4.0000000E+04;  0.0000000E+00;  3.9996309E+04; -1.7236140E-02;  0.0000000E+00;  1.3466357E-03;  8.7867078E+02;
  2.6206103E-01;  9.9999998E-03;  1.5996499E-01;4078; -3.5410342E-03;  0.0000000E+00;  2.4728663E-04;  9.9873578E+02;  1.0000000E-01; -1.0473778E+03;3; -1.5268643E+00;  0.0000000E+00;  7.7447528E-03;0; -1.6246233E-02;  3.9899750E+04;  0.0000000E+00;  6.3683939E-01;  4.0000000E+04;  0.0000000E+00;  3.9997008E+04; -1.7564112E-02;  0.0000000E+00;  1.3178801E-03;  9.5134875E+02;
  2.6194239E-01;  9.9999998E-03;  1.6997053E-01;4079; -3.5031496E-03;  0.0000000E+00;  2.7165868E-04;  9.9857562E+02;  1.0000000E-01; -1.1800654E+03;3; -1.5060983E+00;  0.0000000E+00;  1.4789429E-02;0; -1.6608279E-02;  3.9886723E+04;  0.0000000E+00;  6.7693555E-01;  4.0000000E+04;  0.0000000E+00;  3.9997457E+04; -1.7909806E-02;  0.0000000E+00;  1.3015274E-03;  9.8877112E+02;
  2.6179034E-01;  9.9999998E-03;  1.7996968E-01;4080; -3.4798868E-03;  0.0000000E+00;  2.8505921E-04;  9.9842639E+02;  1.0000000E-01; -1.3037162E+03;3; -1.5049721E+00;  0.0000000E+00;  5.7167381E-02;0; -1.6973471E-02;  3.9874641E+04;  0.0000000E+00;  6.8146181E-01;  4.0000000E+04;  0.0000000E+00;  3.9998129E+04; -1.8280108E-02;  0.0000000E+00;  1.3066366E-03;  9.8953009E+02;
  2.6163071E-01;  9.9999998E-03;  1.8995644E-01;4081; -3.4767522E-03;  0.0000000E+00;  2.8549609E-04;  9.9830200E+02;  1.0000000E-01; -1.4067750E+03;3; -1.5537505E+00;  0.0000000E+00;  1.6901767E-01;0; -1.7348647E-02;  3.9864891E+04;  0.0000000E+00;  6.9903749E-01;  4.0000000E+04;  0.0000000E+00;  3.9998395E+04; -1.8686138E-02;  0.0000000E+00;  1.3374911E-03;  1.0164523E+03;
  2.6148131E-01;  9.9999998E-03;  1.9993187E-01;4082; -3.4966574E-03;  0.0000000E+00;  2.7267676E-04;  9.9822516E+02;  1.0000000E-01; -1.4704275E+03;3; -1.6940391E+00;  0.0000000E+00;  3.9352769E-01;0; -1.7754374E-02;  3.9857719E+04;  0.0000000E+00;  8.1628639E-01;  4.0000000E+04;  0.0000000E+00;  3.9999922E+04; -1.9142566E-02;  0.0000000E+00;  1.3881914E-03;  1.2080077E+03;
  2.6135397E-01;  9.9999998E-03;  2.0990446E-01;4083; -3.5400605E-03;  0.0000000E+00;  2.5699520E-04;  9.9821173E+02;  1.0000000E-01; -1.4815383E+03;3; -1.9651212E+00;  0.0000000E+00;  7.8106689E-01;0; -1.8221388E-02;  3.9854070E+04;  0.0000000E+00;  1.1401492E+00;  4.0000000E+04;  0.0000000E+00;  4.0003891E+04; -1.9667624E-02;  0.0000000E+00;  1.4462351E-03;  1.8114788E+03;
  2.6125923E-01;  9.9999998E-03;  2.1989295E-01;4084; -3.6051522E-03;  0.0000000E+00;  2.6343999E-04;  9.9826013E+02;  1.0000000E-01; -1.4414407E+03;3; -2.3870590E+00;  0.0000000E+00;  1.3911889E+00;0; -1.8759329E-02;  3.9853410E+04;  0.0000000E+00;  1.7726370E+00;  4.0000000E+04;  0.0000000E+00;  4.0010539E+04; -2.0284157E-02;  0.0000000E+00;  1.5248288E-03;  3.0148716E+03;
  2.6118973E-01;  9.9999998E-03;  2.2991879E-01;4085; -3.6838085E-03;  0.0000000E+00;  2.8118322E-04;  9.9830994E+02;  1.0000000E-01; -1.4002073E+03;3; -2.9997225E+00;  0.0000000E+00;  2.1610949E+00;0; -1.9398943E-02;  3.9855488E+04;  0.0000000E+00;  2.7942142E+00;  4.0000000E+04;  0.0000000E+00;  4.0014098E+04; -2.1017738E-02;  0.0000000E+00;  1.6187952E-03;  4.5906753E+03;
  2.7168944E-01;  9.9999998E-03;  6.9988772E-02;4130; -3.6921492E-03;  0.0000000E+00;  1.4943579E-04;  9.9915295E+02;  1.0000000E-01; -7.0175793E+02;3; -1.7395819E+00;  0.0000000E+00;  2.1624377E-02;0; -1.4487192E-02;  3.9936863E+04;  0.0000000E+00;  3.0745288E-02;  4.0000000E+04;  0.0000000E+00;  3.9996355E+04; -1.6380899E-02;  0.0000000E+00;  1.8937065E-03;  4.0741006E+02;
  2.7169585E-01;  9.9999998E-03;  7.9992354E-02;4131; -3.7353830E-03;  0.0000000E+00;  1.5117023E-04;  9.9924323E+02;  1.0000000E-01; -6.2699463E+02;3; -1.7251227E+00;  0.0000000E+00;  2.2499913E-02;0; -1.4602785E-02;  3.9944645E+04;  0.0000000E+00;  4.1142777E-02;  4.0000000E+04;  0.0000000E+00;  3.9995586E+04; -1.6423300E-02;  0.0000000E+00;  1.8205153E-03;  4.8921103E+02;
  2.7171028E-01;  9.9999998E-03;  8.9992203E-02;4132; -3.7749151E-03;  0.0000000E+00;  1.5264696E-04;  9.9932538E+02;  1.0000000E-01; -5.5889777E+02;3; -1.7091085E+00;  0.0000000E+00;  2.2881316E-02;0; -1.4743948E-02;  3.9951445E+04;  0.0000000E+00;  5.7646461E-02;  4.0000000E+04;  0.0000000E+00;  3.9995301E+04; -1.6513458E-02;  0.0000000E+00;  1.7695088E-03;  5.3474170E+02;
  2.7174869E-01;  9.9999998E-03;  9.9987850E-02;4133; -3.8071328E-03;  0.0000000E+00;  1.5560183E-04;  9.9939001E+02;  1.0000000E-01; -5.0536841E+02;3; -1.6918327E+00;  0.0000000E+00;  2.2830585E-02;0; -1.4917149E-02;  3.9956355E+04;  0.0000000E+00;  8.5165121E-02;  4.0000000E+04;  0.0000000E+00;  3.9995230E+04; -1.6656118E-02;  0.0000000E+00;  1.7389682E-03;  5.4569855E+02;
  2.7181038E-01;  9.9999998E-03;  1.0998110E-01;4134; -3.8285810E-03;  0.0000000E+00;  1.6186431E-04;  9.9942426E+02;  1.0000000E-01; -4.7697415E+02;3; -1.6733019E+00;  0.0000000E+00;  2.2651257E-02;0; -1.5127842E-02;  3.9958699E+04;  0.0000000E+00;  1.2939318E-01;  4.0000000E+04;  0.0000000E+00;  3.9995637E+04; -1.6851196E-02;  0.0000000E+00;  1.7233538E-03;  5.3151898E+02;
  2.7189419E-01;  9.9999998E-03;  1.1997399E-01;4135; -3.8368281E-03;  0.0000000E+00;  1.7242393E-04;  9.9942249E+02;  1.0000000E-01; -4.7845560E+02;3; -1.6533725E+00;  0.0000000E+00;  2.2745745E-02;0; -1.5379361E-02;  3.9957859E+04;  0.0000000E+00;  1.9558655E-01;  4.0000000E+04;  0.0000000E+00;  3.9996379E+04; -1.7095080E-02;  0.0000000E+00;  1.7157188E-03;  5.1320312E+02;
  2.7198684E-01;  9.9999998E-03;  1.2996757E-01;4136; -3.8308834E-03;  0.0000000E+00;  1.8831390E-04;  9.9937451E+02;  1.0000000E-01; -5.1820758E+02;3; -1.6320953E+00;  0.0000000E+00;  2.2646489E-02;0; -1.5671048E-02;  3.9953168E+04;  0.0000000E+00;  2.8674543E-01;  4.0000000E+04;  0.0000000E+00;  3.9997102E+04; -1.7380735E-02;  0.0000000E+00;  1.7096865E-03;  5.2762683E+02;
  2.7206364E-01;  9.9999998E-03;  1.3996246E-01;4137; -3.8116020E-03;  0.0000000E+00;  2.1028811E-04;  9.9928650E+02;  1.0000000E-01; -5.9114380E+02;3; -1.6096262E+00;  0.0000000E+00;  2.0760702E-02;0; -1.5996993E-02;  3.9944871E+04;  0.0000000E+00;  4.0116623E-01;  4.0000000E+04;  0.0000000E+00;  3.9997934E+04; -1.7698916E-02;  0.0000000E+00;  1.7019237E-03;  6.1118201E+02;
  2.7209720E-01;  9.9999998E-03;  1.4995827E-01;4138; -3.7822225E-03;  0.0000000E+00;  2.3674389E-04;  9.9915283E+02;  1.0000000E-01; -7.0185669E+02;3; -1.5855110E+00;  0.0000000E+00;  1.7785635E-02;0; -1.6346388E-02;  3.9932512E+04;  0.0000000E+00;  5.2983564E-01;  4.0000000E+04;  0.0000000E+00;  3.9998680E+04; -1.8040448E-02;  0.0000000E+00;  1.6940611E-03;  7.6233221E+02;
  2.7207184E-01;  9.9999998E-03;  1.5995610E-01;4139; -3.7483319E-03;  0.0000000E+00;  2.6684918E-04;  9.9898206E+02;  1.0000000E-01; -8.4333417E+02;3; -1.5603896E+00;  0.0000000E+00;  1.5625367E-02;0; -1.6707379E-02;  3.9917754E+04;  0.0000000E+00;  6.5557033E-01;  4.0000000E+04;  0.0000000E+00;  3.9999492E+04; -1.8398548E-02;  0.0000000E+00;  1.6911677E-03;  9.4182166E+02;
  2.7199399E-01;  9.9999998E-03;  1.6995747E-01;4140; -3.7177936E-03;  0.0000000E+00;  2.9653221E-04;  9.9879242E+02;  1.0000000E-01; -1.0004655E+03;3; -1.5361235E+00;  0.0000000E+00;  1.7073624E-02;0; -1.7070323E-02;  3.9901512E+04;  0.0000000E+00;  7.5329661E-01;  4.0000000E+04;  0.0000000E+00;  4.0000684E+04; -1.8770805E-02;  0.0000000E+00;  1.7004811E-03;  1.0972225E+03;
  2.7187365E-01;  9.9999998E-03;  1.7995745E-01;4141; -3.6985062E-03;  0.0000000E+00;  3.1959239E-04;  9.9860138E+02;  1.0000000E-01; -1.1587327E+03;3; -1.5227104E+00;  0.0000000E+00;  3.6740184E-02;0; -1.7429493E-02;  3.9885742E+04;  0.0000000E+00;  8.0658811E-01;  4.0000000E+04;  0.0000000E+00;  4.0001258E+04; -1.9158734E-02;  0.0000000E+00;  1.7292409E-03;  1.1954181E+03;
  2.7172801E-01;  9.9999998E-03;  1.8994926E-01;4142; -3.6966852E-03;  0.0000000E+00;  3.2968775E-04;  9.9842505E+02;  1.0000000E-01; -1.3048026E+03;3; -1.5413063E+00;  0.0000000E+00;  1.0339801E-01;0; -1.7788175E-02;  3.9871461E+04;  0.0000000E+00;  8.2883143E-01;  4.0000000E+04;  0.0000000E+00;  4.0001680E+04; -1.9569213E-02;  0.0000000E+00;  1.7810372E-03;  1.2581877E+03;
  2.7157441E-01;  9.9999998E-03;  1.9993098E-01;4143; -3.7155887E-03;  0.0000000E+00;  3.2558892E-04;  9.9829596E+02;  1.0000000E-01; -1.4117626E+03;3; -1.6254317E+00;  0.0000000E+00;  2.4849677E-01;0; -1.8163554E-02;  3.9860398E+04;  0.0000000E+00;  8.6849791E-01;  4.0000000E+04;  0.0000000E+00;  4.0003043E+04; -2.0013727E-02;  0.0000000E+00;  1.8501723E-03;  1.3885012E+03;
  2.7143002E-01;  9.9999998E-03;  2.0990627E-01;4144; -3.7556149E-03;  0.0000000E+00;  3.1716345E-04;  9.9823761E+02;  1.0000000E-01; -1.4601068E+03;3; -1.8115894E+00;  0.0000000E+00;  5.1932585E-01;0; -1.8584182E-02;  3.9853648E+04;  0.0000000E+00;  1.0011674E+00;  4.0000000E+04;  0.0000000E+00;  4.0006945E+04; -2.0508267E-02;  0.0000000E+00;  1.9240851E-03;  1.7951024E+03;
  2.7130884E-01;  9.9999998E-03;  2.1989058E-01;4145; -3.8151077E-03;  0.0000000E+00;  3.3532025E-04;  9.9826813E+02;  1.0000000E-01; -1.4348236E+03;3; -2.1298358E+00;  0.0000000E+00;  9.6400142E-01;0; -1.9046161E-02;  3.9851066E+04;  0.0000000E+00;  1.3174857E+00;  4.0000000E+04;  0.0000000E+00;  4.0012918E+04; -2.1072986E-02;  0.0000000E+00;  2.0268238E-03;  2.6669431E+03;
  2.7121899E-01;  9.9999998E-03;  2.2990635E-01;4146; -3.8879870E-03;  0.0000000E+00;  3.8306467E-04;  9.9832318E+02;  1.0000000E-01; -1.3891953E+03;3; -2.6196525E+00;  0.0000000E+00;  1.5819770E+00;0; -1.9524096E-02;  3.9853027E+04;  0.0000000E+00;  1.9022305E+00;  4.0000000E+04;  0.0000000E+00;  4.0018051E+04; -2.1731025E-02;  0.0000000E+00;  2.2069290E-03;  3.7219021E+03;
  2.8166991E-01;  9.9999998E-03;  6.9989756E-02;4191; -3.8612043E-03;  0.0000000E+00;  1.6800323E-04;  9.9919995E+02;  1.0000000E-01; -6.6284546E+02;3; -1.7757318E+00;  0.0000000E+00;  2.5338152E-02;0; -1.4948022E-02;  3.9939062E+04;  0.0000000E+00;  1.4465641E-03;  4.0000000E+04;  0.0000000E+00;  3.9998398E+04; -1.7157407E-02;  0.0000000E+00;  2.2093861E-03;  1.2394443E+02;
  2.8168866E-01;  9.9999998E-03;  7.9988107E-02;4192; -3.9009587E-03;  0.0000000E+00;  1.7207678E-04;  9.9931506E+02;  1.0000000E-01; -5.6744073E+02;3; -1.7609047E+00;  0.0000000E+00;  2.6887467E-02;0; -1.5058273E-02;  3.9949156E+04;  0.0000000E+00;  6.8367703E-04;  4.0000000E+04;  0.0000000E+00;  3.9997781E+04; -1.7189415E-02;  0.0000000E+00;  2.1311420E-03;  2.2381073E+02;
  2.8171012E-01;  9.9999998E-03;  8.9988045E-02;4193; -3.9394652E-03;  0.0000000E+00;  1.7534335E-04;  9.9943018E+02;  1.0000000E-01; -4.7208542E+02;3; -1.7445445E+00;  0.0000000E+00;  2.8065510E-02;0; -1.5196351E-02;  3.9958574E+04;  0.0000000E+00;  4.6651768E-03;  4.0000000E+04;  0.0000000E+00;  3.9997270E+04; -1.7272523E-02;  0.0000000E+00;  2.0761718E-03;  2.9202631E+02;
  2.8173938E-01;  9.9999998E-03;  9.9988505E-02;4194; -3.9734649E-03;  0.0000000E+00;  1.7943523E-04;  9.9953027E+02;  1.0000000E-01; -3.8917416E+02;3; -1.7267680E+00;  0.0000000E+00;  2.8627081E-02;0; -1.5368128E-02;  3.9966762E+04;  0.0000000E+00;  1.8775234E-02;  4.0000000E+04;  0.0000000E+00;  3.9997469E+04; -1.7411947E-02;  0.0000000E+00;  2.0438188E-03;  3.2097308E+02;
  2.8178287E-01;  9.9999998E-03;  1.0998655E-01;4195; -3.9997259E-03;  0.0000000E+00;  1.8617563E-04;  9.9960986E+02;  1.0000000E-01; -3.2320074E+02;3; -1.7077012E+00;  0.0000000E+00;  2.8450318E-02;0; -1.5578689E-02;  3.9972586E+04;  0.0000000E+00;  4.9525067E-02;  4.0000000E+04;  0.0000000E+00;  3.9997203E+04; -1.7608697E-02;  0.0000000E+00;  2.0300078E-03;  3.1157425E+02;
  2.8184524E-01;  9.9999998E-03;  1.1998251E-01;4196; -4.0157354E-03;  0.0000000E+00;  1.9677023E-04;  9.9964954E+02;  1.0000000E-01; -2.9036215E+02;3; -1.6872560E+00;  0.0000000E+00;  2.8780468E-02;0; -1.5830712E-02;  3.9975168E+04;  0.0000000E+00;  1.0352775E-01;  4.0000000E+04;  0.0000000E+00;  3.9997816E+04; -1.7859576E-02;  0.0000000E+00;  2.0288639E-03;  2.8353128E+02;
  2.8191724E-01;  9.9999998E-03;  1.2997787E-01;4197; -4.0199882E-03;  0.0000000E+00;  2.1265756E-04;  9.9964142E+02;  1.0000000E-01; -2.9707800E+02;3; -1.6656057E+00;  0.0000000E+00;  2.9102629E-02;0; -1.6122559E-02;  3.9973684E+04;  0.0000000E+00;  1.8588626E-01;  4.0000000E+04;  0.0000000E+00;  3.9998691E+04; -1.8157093E-02;  0.0000000E+00;  2.0345340E-03;  2.9951172E+02;
  2.8198397E-01;  9.9999998E-03;  1.3997355E-01;4198; -4.0125675E-03;  0.0000000E+00;  2.3485070E-04;  9.9957990E+02;  1.0000000E-01; -3.4803955E+02;3; -1.6428394E+00;  0.0000000E+00;  2.8285442E-02;0; -1.6447779E-02;  3.9967484E+04;  0.0000000E+00;  2.9794326E-01;  4.0000000E+04;  0.0000000E+00;  3.9999844E+04; -1.8491607E-02;  0.0000000E+00;  2.0438281E-03;  4.2554855E+02;
  2.8202206E-01;  9.9999998E-03;  1.4996789E-01;4199; -3.9956421E-03;  0.0000000E+00;  2.6258320E-04;  9.9945758E+02;  1.0000000E-01; -4.4937000E+02;3; -1.6187124E+00;  0.0000000E+00;  2.6803099E-02;0; -1.6794816E-02;  3.9956359E+04;  0.0000000E+00;  4.3463644E-01;  4.0000000E+04;  0.0000000E+00;  4.0000895E+04; -1.8852541E-02;  0.0000000E+00;  2.0577246E-03;  6.4046411E+02;
  2.8202245E-01;  9.9999998E-03;  1.5996267E-01;4200; -3.9735851E-03;  0.0000000E+00;  2.9477107E-04;  9.9929126E+02;  1.0000000E-01; -5.8719330E+02;3; -1.5932574E+00;  0.0000000E+00;  2.5337003E-02;0; -1.7151900E-02;  3.9941215E+04;  0.0000000E+00;  5.8326757E-01;  4.0000000E+04;  0.0000000E+00;  4.0001844E+04; -1.9231765E-02;  0.0000000E+00;  2.0798650E-03;  8.9354529E+02;
  2.8198570E-01;  9.9999998E-03;  1.6996107E-01;4201; -3.9529046E-03;  0.0000000E+00;  3.2865378E-04;  9.9908508E+02;  1.0000000E-01; -7.5800323E+02;3; -1.5676550E+00;  0.0000000E+00;  2.4467984E-02;0; -1.7508637E-02;  3.9923516E+04;  0.0000000E+00;  7.2205740E-01;  4.0000000E+04;  0.0000000E+00;  4.0003246E+04; -1.9623792E-02;  0.0000000E+00;  2.1151549E-03;  1.1376287E+03;
  2.8191116E-01;  9.9999998E-03;  1.7996055E-01;4202; -3.9405259E-03;  0.0000000E+00;  3.5948484E-04;  9.9886292E+02;  1.0000000E-01; -9.4204742E+02;3; -1.5465466E+00;  0.0000000E+00;  3.1938862E-02;0; -1.7857231E-02;  3.9904602E+04;  0.0000000E+00;  8.2420146E-01;  4.0000000E+04;  0.0000000E+00;  4.0003820E+04; -2.0026082E-02;  0.0000000E+00;  2.1688507E-03;  1.3288456E+03;
  2.8179759E-01;  9.9999998E-03;  1.8995523E-01;4203; -3.9420538E-03;  0.0000000E+00;  3.8102720E-04;  9.9864520E+02;  1.0000000E-01; -1.1224374E+03;3; -1.5432004E+00;  0.0000000E+00;  6.3165501E-02;0; -1.8196350E-02;  3.9886852E+04;  0.0000000E+00;  8.7662500E-01;  4.0000000E+04;  0.0000000E+00;  4.0004504E+04; -2.0440167E-02;  0.0000000E+00;  2.2438171E-03;  1.4537830E+03;
  2.8166327E-01;  9.9999998E-03;  1.9994049E-01;4204; -3.9616390E-03;  0.0000000E+00;  3.8788238E-04;  9.9846222E+02;  1.0000000E-01; -1.2740381E+03;3; -1.5819128E+00;  0.0000000E+00;  1.4872484E-01;0; -1.8539373E-02;  3.9871934E+04;  0.0000000E+00;  8.9220631E-01;  4.0000000E+04;  0.0000000E+00;  4.0005492E+04; -2.0874165E-02;  0.0000000E+00;  2.3347917E-03;  1.5701415E+03;
  2.8152287E-01;  9.9999998E-03;  2.0991920E-01;4205; -3.9994828E-03;  0.0000000E+00;  3.8926862E-04;  9.9835229E+02;  1.0000000E-01; -1.3650972E+03;3; -1.6944089E+00;  0.0000000E+00;  3.1776187E-01;0; -1.8910281E-02;  3.9861035E+04;  0.0000000E+00;  9.1049701E-01;  4.0000000E+04;  0.0000000E+00;  4.0008566E+04; -2.1340664E-02;  0.0000000E+00;  2.4303822E-03;  1.8375300E+03;
  2.8139257E-01;  9.9999998E-03;  2.1990199E-01;4206; -4.0538977E-03;  0.0000000E+00;  4.1480162E-04;  9.9833136E+02;  1.0000000E-01; -1.3824301E+03;3; -1.9110485E+00;  0.0000000E+00;  6.1202031E-01;0; -1.9301409E-02;  3.9855281E+04;  0.0000000E+00;  9.9287146E-01;  4.0000000E+04;  0.0000000E+00;  4.0014234E+04; -2.1856407E-02;  0.0000000E+00;  2.5549971E-03;  2.4454878E+03;
  2.8128690E-01;  9.9999998E-03;  2.2990894E-01;4207; -4.1202181E-03;  0.0000000E+00;  4.8159872E-04;  9.9836847E+02;  1.0000000E-01; -1.3517148E+03;3; -2.2703867E+00;  0.0000000E+00;  1.0513463E+00;0; -1.9644214E-02;  3.9855324E+04;  0.0000000E+00;  1.2112309E+00;  4.0000000E+04;  0.0000000E+00;  4.0019414E+04; -2.2441408E-02;  0.0000000E+00;  2.7971945E-03;  3.1429102E+03;
  2.9167894E-01;  9.9999998E-03;  6.9993459E-02;4252; -4.0484583E-03;  0.0000000E+00;  1.9045199E-04;  9.9928400E+02;  1.0000000E-01; -5.9321777E+02;3; -1.8115389E+00;  0.0000000E+00;  2.8968105E-02;0; -1.5387177E-02;  3.9943980E+04;  0.0000000E+00; -2.2825789E-02;  4.0000000E+04;  0.0000000E+00;  4.0000398E+04; -1.7954404E-02;  0.0000000E+00;  2.5672261E-03;  1.2111037E+02;
  2.9166952E-01;  9.9999998E-03;  7.9993248E-02;4253; -4.0828297E-03;  0.0000000E+00;  1.9832568E-04;  9.9941058E+02;  1.0000000E-01; -4.8833188E+02;3; -1.7960359E+00;  0.0000000E+00;  3.1296499E-02;0; -1.5492288E-02;  3.9955277E+04;  0.0000000E+00; -3.4846161E-02;  4.0000000E+04;  0.0000000E+00;  3.9999336E+04; -1.7974628E-02;  0.0000000E+00;  2.4823397E-03;  4.8842087E+01;
  2.9167682E-01;  9.9999998E-03;  8.9991920E-02;4254; -4.1186223E-03;  0.0000000E+00;  2.0448619E-04;  9.9954083E+02;  1.0000000E-01; -3.8043369E+02;3; -1.7791443E+00;  0.0000000E+00;  3.2863002E-02;0; -1.5627345E-02;  3.9966734E+04;  0.0000000E+00; -4.4413764E-02;  4.0000000E+04;  0.0000000E+00;  3.9998797E+04; -1.8048452E-02;  0.0000000E+00;  2.4211078E-03;  1.1431159E+02;
  2.9169580E-01;  9.9999998E-03;  9.9991597E-02;4255; -4.1528181E-03;  0.0000000E+00;  2.1096831E-04;  9.9966803E+02;  1.0000000E-01; -2.7505396E+02;3; -1.7607930E+00;  0.0000000E+00;  3.4643289E-02;0; -1.5797364E-02;  3.9977160E+04;  0.0000000E+00; -4.5978807E-02;  4.0000000E+04;  0.0000000E+00;  3.9998480E+04; -1.8181246E-02;  0.0000000E+00;  2.3838829E-03;  1.6746645E+02;
  2.9172590E-01;  9.9999998E-03;  1.0999277E-01;4256; -4.1825539E-03;  0.0000000E+00;  2.1917457E-04;  9.9977887E+02;  1.0000000E-01; -1.8320470E+02;3; -1.7412848E+00;  0.0000000E+00;  3.5340112E-02;0; -1.6006371E-02;  3.9985754E+04;  0.0000000E+00; -3.2612186E-02;  4.0000000E+04;  0.0000000E+00;  3.9998734E+04; -1.8374270E-02;  0.0000000E+00;  2.3678986E-03;  1.7077251E+02;
  2.9176882E-01;  9.9999998E-03;  1.1999303E-01;4257; -4.2050947E-03;  0.0000000E+00;  2.3081272E-04;  9.9985309E+02;  1.0000000E-01; -1.2172495E+02;3; -1.7202848E+00;  0.0000000E+00;  3.5819858E-02;0; -1.6255843E-02;  3.9991453E+04;  0.0000000E+00;  3.1358171E-03;  4.0000000E+04;  0.0000000E+00;  3.9999027E+04; -1.8624399E-02;  0.0000000E+00;  2.3685556E-03;  1.2048290E+02;
  2.9182220E-01;  9.9999998E-03;  1.2999098E-01;4258; -4.2187027E-03;  0.0000000E+00;  2.4744365E-04;  9.9988300E+02;  1.0000000E-01; -9.6935532E+01;3; -1.6981933E+00;  0.0000000E+00;  3.6658462E-02;0; -1.6543467E-02;  3.9992688E+04;  0.0000000E+00;  6.7790508E-02;  4.0000000E+04;  0.0000000E+00;  3.9999656E+04; -1.8924609E-02;  0.0000000E+00;  2.3811413E-03;  9.9342201E+01;
  2.9187676E-01;  9.9999998E-03;  1.3998765E-01;4259; -4.2228564E-03;  0.0000000E+00;  2.7026207E-04;  9.9984979E+02;  1.0000000E-01; -1.2444093E+02;3; -1.6749848E+00;  0.0000000E+00;  3.7073057E-02;0; -1.6862102E-02;  3.9989086E+04;  0.0000000E+00;  1.6500258E-01;  4.0000000E+04;  0.0000000E+00;  4.0000934E+04; -1.9265002E-02;  0.0000000E+00;  2.4028991E-03;  2.6347421E+02;
  2.9191750E-01;  9.9999998E-03;  1.4998259E-01;4260; -4.2187688E-03;  0.0000000E+00;  2.9929995E-04;  9.9975958E+02;  1.0000000E-01; -1.9920424E+02;3; -1.6506739E+00;  0.0000000E+00;  3.7031431E-02;0; -1.7200161E-02;  3.9979914E+04;  0.0000000E+00;  2.9314515E-01;  4.0000000E+04;  0.0000000E+00;  4.0002066E+04; -1.9634768E-02;  0.0000000E+00;  2.4346071E-03;  5.0997549E+02;
  2.9193524E-01;  9.9999998E-03;  1.5997706E-01;4261; -4.2094216E-03;  0.0000000E+00;  3.3410382E-04;  9.9960541E+02;  1.0000000E-01; -3.2690433E+02;3; -1.6251876E+00;  0.0000000E+00;  3.5329886E-02;0; -1.7545883E-02;  3.9965516E+04;  0.0000000E+00;  4.4378608E-01;  4.0000000E+04;  0.0000000E+00;  4.0003555E+04; -2.0024370E-02;  0.0000000E+00;  2.4784871E-03;  7.9384784E+02;
  2.9193032E-01;  9.9999998E-03;  1.6997381E-01;4262; -4.1998816E-03;  0.0000000E+00;  3.7203982E-04;  9.9939783E+02;  1.0000000E-01; -4.9889948E+02;3; -1.5990890E+00;  0.0000000E+00;  3.5431009E-02;0; -1.7889284E-02;  3.9947656E+04;  0.0000000E+00;  6.0144895E-01;  4.0000000E+04;  0.0000000E+00;  4.0005031E+04; -2.0426553E-02;  0.0000000E+00;  2.5372682E-03;  1.0835603E+03;
  2.9189798E-01;  9.9999998E-03;  1.7997283E-01;4263; -4.1961707E-03;  0.0000000E+00;  4.0937267E-04;  9.9915955E+02;  1.0000000E-01; -6.9627661E+02;3; -1.5741441E+00;  0.0000000E+00;  3.6931504E-02;0; -1.8221686E-02;  3.9927613E+04;  0.0000000E+00;  7.4046153E-01;  4.0000000E+04;  0.0000000E+00;  4.0006098E+04; -2.0835865E-02;  0.0000000E+00;  2.6141796E-03;  1.3393245E+03;
  2.9182568E-01;  9.9999998E-03;  1.8996802E-01;4264; -4.2032101E-03;  0.0000000E+00;  4.4129777E-04;  9.9891406E+02;  1.0000000E-01; -8.9967828E+02;3; -1.5576777E+00;  0.0000000E+00;  4.9239989E-02;0; -1.8538408E-02;  3.9907211E+04;  0.0000000E+00;  8.3403677E-01;  4.0000000E+04;  0.0000000E+00;  4.0006910E+04; -2.1249777E-02;  0.0000000E+00;  2.7113697E-03;  1.5303347E+03;
  2.9171747E-01;  9.9999998E-03;  1.9995672E-01;4265; -4.2245341E-03;  0.0000000E+00;  4.6235378E-04;  9.9869006E+02;  1.0000000E-01; -1.0852533E+03;3; -1.5641357E+00;  0.0000000E+00;  9.0689480E-02;0; -1.8846240E-02;  3.9888734E+04;  0.0000000E+00;  8.6922789E-01;  4.0000000E+04;  0.0000000E+00;  4.0007938E+04; -2.1671968E-02;  0.0000000E+00;  2.8257284E-03;  1.6707616E+03;
  2.9159760E-01;  9.9999998E-03;  2.0993763E-01;4266; -4.2615440E-03;  0.0000000E+00;  4.7483837E-04;  9.9852759E+02;  1.0000000E-01; -1.2198667E+03;3; -1.6178247E+00;  0.0000000E+00;  1.8330278E-01;0; -1.9165663E-02;  3.9874160E+04;  0.0000000E+00;  8.5347927E-01;  4.0000000E+04;  0.0000000E+00;  4.0010453E+04; -2.2112021E-02;  0.0000000E+00;  2.9463586E-03;  1.8762706E+03;
  2.9147696E-01;  9.9999998E-03;  2.1992020E-01;4267; -4.3116463E-03;  0.0000000E+00;  5.0689210E-04;  9.9844861E+02;  1.0000000E-01; -1.2852970E+03;3; -1.7452073E+00;  0.0000000E+00;  3.5826883E-01;0; -1.9487264E-02;  3.9864793E+04;  0.0000000E+00;  8.1545866E-01;  4.0000000E+04;  0.0000000E+00;  4.0014645E+04; -2.2582846E-02;  0.0000000E+00;  3.0955826E-03;  2.3086580E+03;
  2.9136774E-01;  9.9999998E-03;  2.2992130E-01;4268; -4.3715378E-03;  0.0000000E+00;  5.7722162E-04;  9.9843512E+02;  1.0000000E-01; -1.2964572E+03;3; -1.9796423E+00;  0.0000000E+00;  6.3706839E-01;0; -1.9738805E-02;  3.9861172E+04;  0.0000000E+00;  8.0159283E-01;  4.0000000E+04;  0.0000000E+00;  4.0018883E+04; -2.3100236E-02;  0.0000000E+00;  3.3614323E-03;  2.7836057E+03;
  3.0171251E-01;  9.9999998E-03;  6.9989681E-02;4313; -4.2485921E-03;  0.0000000E+00;  2.1756520E-04;  9.9938757E+02;  1.0000000E-01; -5.0739307E+02;3; -1.8470837E+00;  0.0000000E+00;  3.2050952E-02;0; -1.5766107E-02;  3.9951492E+04;  0.0000000E+00; -3.6627796E-02;  4.0000000E+04;  0.0000000E+00;  4.0002230E+04; -1.8735487E-02;  0.0000000E+00;  2.9693798E-03;  3.0911777E+02;
  3.0169436E-01;  9.9999998E-03;  7.9989098E-02;4314; -4.2771725E-03;  0.0000000E+00;  2.3095234E-04;  9.9951508E+02;  1.0000000E-01; -4.0176642E+02;3; -1.8308500E+00;  0.0000000E+00;  3.5596080E-02;0; -1.5870113E-02;  3.9962609E+04;  0.0000000E+00; -5.7664268E-02;  4.0000000E+04;  0.0000000E+00;  4.0001055E+04; -1.8748455E-02;  0.0000000E+00;  2.8783421E-03;  1.9463524E+02;
  3.0167601E-01;  9.9999998E-03;  8.9991838E-02;4315; -4.3088989E-03;  0.0000000E+00;  2.4181767E-04;  9.9965186E+02;  1.0000000E-01; -2.8843628E+02;3; -1.8133641E+00;  0.0000000E+00;  3.8343053E-02;0; -1.6004298E-02;  3.9974215E+04;  0.0000000E+00; -7.9306662E-02;  4.0000000E+04;  0.0000000E+00;  4.0000102E+04; -1.8812891E-02;  0.0000000E+00;  2.8085939E-03;  1.2564596E+02;
  3.0166489E-01;  9.9999998E-03;  9.9995747E-02;4316; -4.3416684E-03;  0.0000000E+00;  2.5187084E-04;  9.9978778E+02;  1.0000000E-01; -1.7579750E+02;3; -1.7944676E+00;  0.0000000E+00;  3.9787460E-02;0; -1.6173217E-02;  3.9986004E+04;  0.0000000E+00; -9.6285477E-02;  4.0000000E+04;  0.0000000E+00;  3.9999180E+04; -1.8935753E-02;  0.0000000E+00;  2.7625351E-03;  1.4121434E+02;
  3.0166900E-01;  9.9999998E-03;  1.0999911E-01;4317; -4.3730275E-03;  0.0000000E+00;  2.6294129E-04;  9.9991260E+02;  1.0000000E-01; -7.2393013E+01;3; -1.7742606E+00;  0.0000000E+00;  4.2027619E-02;0; -1.6380195E-02;  3.9996172E+04;  0.0000000E+00; -1.0170561E-01;  4.0000000E+04;  0.0000000E+00;  3.9999230E+04; -1.9119706E-02;  0.0000000E+00;  2.7395105E-03;  1.6495007E+02;
  3.0168781E-01;  9.9999998E-03;  1.2000216E-01;4318; -4.4004573E-03;  0.0000000E+00;  2.7682495E-04;  1.0000104E+03;  1.0000000E-01;  8.5923500E+00;3; -1.7526404E+00;  0.0000000E+00;  4.3936480E-02;0; -1.6625604E-02;  4.0004316E+04;  0.0000000E+00; -8.7747917E-02;  4.0000000E+04;  0.0000000E+00;  3.9999434E+04; -1.9362152E-02;  0.0000000E+00;  2.7365473E-03;  1.4006581E+02;
  3.0172113E-01;  9.9999998E-03;  1.3000274E-01;4319; -4.4220658E-03;  0.0000000E+00;  2.9507090E-04;  1.0000674E+03;  1.0000000E-01;  5.5800892E+01;3; -1.7300256E+00;  0.0000000E+00;  4.4410374E-02;0; -1.6906215E-02;  4.0007848E+04;  0.0000000E+00; -4.6908949E-02;  4.0000000E+04;  0.0000000E+00;  4.0000000E+04; -1.9656500E-02;  0.0000000E+00;  2.7502852E-03;  6.8909172E+01;
  3.0176196E-01;  9.9999998E-03;  1.4000121E-01;4320; -4.4367635E-03;  0.0000000E+00;  3.1901253E-04;  1.0000688E+03;  1.0000000E-01;  5.6986042E+01;3; -1.7062376E+00;  0.0000000E+00;  4.5846641E-02;0; -1.7214466E-02;  4.0006582E+04;  0.0000000E+00;  2.6297417E-02;  4.0000000E+04;  0.0000000E+00;  4.0001328E+04; -1.9993147E-02;  0.0000000E+00;  2.7786805E-03;  1.5664590E+02;
  3.0180100E-01;  9.9999998E-03;  1.4999764E-01;4321; -4.4448734E-03;  0.0000000E+00;  3.4938686E-04;  1.0000065E+03;  1.0000000E-01;  5.4319453E+00;3; -1.6813623E+00;  0.0000000E+00;  4.6982359E-02;0; -1.7538724E-02;  3.9999977E+04;  0.0000000E+00;  1.3323255E-01;  4.0000000E+04;  0.0000000E+00;  4.0002703E+04; -2.0361228E-02;  0.0000000E+00;  2.8225037E-03;  3.8170374E+02;
  3.0183008E-01;  9.9999998E-03;  1.5999292E-01;4322; -4.4484008E-03;  0.0000000E+00;  3.8641822E-04;  9.9987231E+02;  1.0000000E-01; -1.0577479E+02;3; -1.6560385E+00;  0.0000000E+00;  4.8385475E-02;0; -1.7867627E-02;  3.9987551E+04;  0.0000000E+00;  2.6950568E-01;  4.0000000E+04;  0.0000000E+00;  4.0004465E+04; -2.0750506E-02;  0.0000000E+00;  2.8828799E-03;  6.5749225E+02;
  3.0184656E-01;  9.9999998E-03;  1.6998999E-01;4323; -4.4507794E-03;  0.0000000E+00;  4.2830111E-04;  9.9968036E+02;  1.0000000E-01; -2.6483203E+02;3; -1.6300272E+00;  0.0000000E+00;  4.7306269E-02;0; -1.8191695E-02;  3.9970453E+04;  0.0000000E+00;  4.2478368E-01;  4.0000000E+04;  0.0000000E+00;  4.0005523E+04; -2.1152223E-02;  0.0000000E+00;  2.9605275E-03;  9.5464575E+02;
  3.0184358E-01;  9.9999998E-03;  1.7998877E-01;4324; -4.4564283E-03;  0.0000000E+00;  4.7211992E-04;  9.9944635E+02;  1.0000000E-01; -4.5870306E+02;3; -1.6035284E+00;  0.0000000E+00;  4.7865339E-02;0; -1.8502587E-02;  3.9950070E+04;  0.0000000E+00;  5.8114380E-01;  4.0000000E+04;  0.0000000E+00;  4.0006762E+04; -2.1559278E-02;  0.0000000E+00;  3.0566908E-03;  1.2404639E+03;
  3.0180779E-01;  9.9999998E-03;  1.8998444E-01;4325; -4.4699195E-03;  0.0000000E+00;  5.1302271E-04;  9.9918628E+02;  1.0000000E-01; -6.7415375E+02;3; -1.5796964E+00;  0.0000000E+00;  5.2881148E-02;0; -1.8793916E-02;  3.9928562E+04;  0.0000000E+00;  7.1072984E-01;  4.0000000E+04;  0.0000000E+00;  4.0007918E+04; -2.1966787E-02;  0.0000000E+00;  3.1728705E-03;  1.4805448E+03;
  3.0173576E-01;  9.9999998E-03;  1.9997557E-01;4326; -4.4946480E-03;  0.0000000E+00;  5.4607965E-04;  9.9893390E+02;  1.0000000E-01; -8.8323425E+02;3; -1.5675329E+00;  0.0000000E+00;  6.6877916E-02;0; -1.9066967E-02;  3.9907836E+04;  0.0000000E+00;  7.8683805E-01;  4.0000000E+04;  0.0000000E+00;  4.0009145E+04; -2.2374768E-02;  0.0000000E+00;  3.3078010E-03;  1.6611134E+03;
  3.0164027E-01;  9.9999998E-03;  2.0995966E-01;4327; -4.5312410E-03;  0.0000000E+00;  5.7035533E-04;  9.9872430E+02;  1.0000000E-01; -1.0569083E+03;3; -1.5802678E+00;  0.0000000E+00;  1.0976294E-01;0; -1.9335961E-02;  3.9890191E+04;  0.0000000E+00;  7.9498279E-01;  4.0000000E+04;  0.0000000E+00;  4.0010566E+04; -2.2788625E-02;  0.0000000E+00;  3.4526647E-03;  1.8480439E+03;
  3.0153745E-01;  9.9999998E-03;  2.1994230E-01;4328; -4.5780344E-03;  0.0000000E+00;  6.0686335E-04;  9.9858789E+02;  1.0000000E-01; -1.1698928E+03;3; -1.6386964E+00;  0.0000000E+00;  2.0238774E-01;0; -1.9595332E-02;  3.9876918E+04;  0.0000000E+00;  7.3774272E-01;  4.0000000E+04;  0.0000000E+00;  4.0014324E+04; -2.3217821E-02;  0.0000000E+00;  3.6224893E-03;  2.1745564E+03;
  3.0143648E-01;  9.9999998E-03;  2.2993876E-01;4329; -4.6322439E-03;  0.0000000E+00;  6.7020912E-04;  9.9851599E+02;  1.0000000E-01; -1.2294961E+03;3; -1.7686050E+00;  0.0000000E+00;  3.5599029E-01;0; -1.9794751E-02;  3.9869242E+04;  0.0000000E+00;  6.3453078E-01;  4.0000000E+04;  0.0000000E+00;  4.0017617E+04; -2.3674237E-02;  0.0000000E+00;  3.8794861E-03;  2.5139888E+03;
  3.1178853E-01;  9.9999998E-03;  6.9986477E-02;4374; -4.4567948E-03;  0.0000000E+00;  2.4967402E-04;  9.9951910E+02;  1.0000000E-01; -3.9840848E+02;3; -1.8822370E+00;  0.0000000E+00;  3.5292923E-02;0; -1.6063018E-02;  3.9960594E+04;  0.0000000E+00; -3.8258575E-02;  4.0000000E+04;  0.0000000E+00;  4.0003176E+04; -1.9480003E-02;  0.0000000E+00;  3.4169855E-03;  4.4275873E+02;
  3.1174871E-01;  9.9999998E-03;  7.9984300E-02;4375; -4.4791885E-03;  0.0000000E+00;  2.7021515E-04;  9.9962726E+02;  1.0000000E-01; -3.0883078E+02;3; -1.8654780E+00;  0.0000000E+00;  3.9471228E-02;0; -1.6169440E-02;  3.9970473E+04;  0.0000000E+00; -6.4565048E-02;  4.0000000E+04;  0.0000000E+00;  4.0002504E+04; -1.9488653E-02;  0.0000000E+00;  3.3192132E-03;  3.2009384E+02;
  3.1170526E-01;  9.9999998E-03;  8.9985512E-02;4376; -4.5062196E-03;  0.0000000E+00;  2.8774943E-04;  9.9974585E+02;  1.0000000E-01; -2.1056195E+02;3; -1.8470528E+00;  0.0000000E+00;  4.2985797E-02;0; -1.6306033E-02;  3.9981383E+04;  0.0000000E+00; -9.4740294E-02;  4.0000000E+04;  0.0000000E+00;  4.0001656E+04; -1.9545468E-02;  0.0000000E+00;  3.2394344E-03;  2.1409964E+02;
  3.1166711E-01;  9.9999998E-03;  9.9989563E-02;4377; -4.5364453E-03;  0.0000000E+00;  3.0326864E-04;  9.9987506E+02;  1.0000000E-01; -1.0350324E+02;3; -1.8273484E+00;  0.0000000E+00;  4.5707610E-02;0; -1.6476493E-02;  3.9992578E+04;  0.0000000E+00; -1.2433334E-01;  4.0000000E+04;  0.0000000E+00;  4.0000402E+04; -1.9658079E-02;  0.0000000E+00;  3.1815853E-03;  1.8215450E+02;
  3.1163773E-01;  9.9999998E-03;  1.0999773E-01;4378; -4.5678946E-03;  0.0000000E+00;  3.1871450E-04;  1.0000000E+03;  1.0000000E-01;  0.0000000E+00;3; -1.8062717E+00;  0.0000000E+00;  4.9447328E-02;0; -1.6682640E-02;  4.0003195E+04;  0.0000000E+00; -1.4706486E-01;  4.0000000E+04;  0.0000000E+00;  3.9999578E+04; -1.9829430E-02;  0.0000000E+00;  3.1467893E-03;  2.1226413E+02;
  3.1162235E-01;  9.9999998E-03;  1.2000602E-01;4379; -4.5984327E-03;  0.0000000E+00;  3.3567398E-04;  1.0001068E+03;  1.0000000E-01;  8.8491325E+01;3; -1.7843313E+00;  0.0000000E+00;  5.1137932E-02;0; -1.6923977E-02;  4.0011762E+04;  0.0000000E+00; -1.5524809E-01;  4.0000000E+04;  0.0000000E+00;  3.9999695E+04; -2.0058312E-02;  0.0000000E+00;  3.1343338E-03;  2.2788539E+02;
  3.1163055E-01;  9.9999998E-03;  1.3001026E-01;4380; -4.6262322E-03;  0.0000000E+00;  3.5637280E-04;  1.0001778E+03;  1.0000000E-01;  1.4725510E+02;3; -1.7608724E+00;  0.0000000E+00;  5.3357061E-02;0; -1.7196633E-02;  4.0017109E+04;  0.0000000E+00; -1.4077102E-01;  4.0000000E+04;  0.0000000E+00;  3.9999977E+04; -2.0339498E-02;  0.0000000E+00;  3.1428663E-03;  2.0085873E+02;
  3.1165513E-01;  9.9999998E-03;  1.4001171E-01;4381; -4.6499087E-03;  0.0000000E+00;  3.8220387E-04;  1.0002011E+03;  1.0000000E-01;  1.6661258E+02;3; -1.7368395E+00;  0.0000000E+00;  5.4721568E-02;0; -1.7492596E-02;  4.0018004E+04;  0.0000000E+00; -9.6595153E-02;  4.0000000E+04;  0.0000000E+00;  4.0001109E+04; -2.0663805E-02;  0.0000000E+00;  3.1712083E-03;  1.7905388E+02;
  3.1168762E-01;  9.9999998E-03;  1.5001039E-01;4382; -4.6690288E-03;  0.0000000E+00;  4.1423863E-04;  1.0001622E+03;  1.0000000E-01;  1.3441595E+02;3; -1.7116305E+00;  0.0000000E+00;  5.6280944E-02;0; -1.7800394E-02;  4.0013480E+04;  0.0000000E+00; -1.8673709E-02;  4.0000000E+04;  0.0000000E+00;  4.0002312E+04; -2.1020606E-02;  0.0000000E+00;  3.2202122E-03;  2.8922580E+02;
  3.1172189E-01;  9.9999998E-03;  1.6000718E-01;4383; -4.6844073E-03;  0.0000000E+00;  4.5304804E-04;  1.0000630E+03;  1.0000000E-01;  5.2245438E+01;3; -1.6853994E+00;  0.0000000E+00;  6.0067330E-02;0; -1.8109180E-02;  4.0003348E+04;  0.0000000E+00;  9.2367403E-02;  4.0000000E+04;  0.0000000E+00;  4.0004082E+04; -2.1399479E-02;  0.0000000E+00;  3.2902984E-03;  5.1434296E+02;
  3.1175023E-01;  9.9999998E-03;  1.7000508E-01;4384; -4.6983259E-03;  0.0000000E+00;  4.9807853E-04;  9.9989447E+02;  1.0000000E-01; -8.7404938E+01;3; -1.6591145E+00;  0.0000000E+00;  6.1725106E-02;0; -1.8410247E-02;  3.9988199E+04;  0.0000000E+00;  2.3050082E-01;  4.0000000E+04;  0.0000000E+00;  4.0005754E+04; -2.1790741E-02;  0.0000000E+00;  3.3804944E-03;  7.8925214E+02;
  3.1176400E-01;  9.9999998E-03;  1.8000460E-01;4385; -4.7137262E-03;  0.0000000E+00;  5.4672029E-04;  9.9967267E+02;  1.0000000E-01; -2.7120221E+02;3; -1.6329600E+00;  0.0000000E+00;  6.1048135E-02;0; -1.8696155E-02;  3.9969066E+04;  0.0000000E+00;  3.8416621E-01;  4.0000000E+04;  0.0000000E+00;  4.0007031E+04; -2.2186352E-02;  0.0000000E+00;  3.4901956E-03;  1.0735873E+03;
  3.1175485E-01;  9.9999998E-03;  1.9000199E-01;4386; -4.7342596E-03;  0.0000000E+00;  5.9529021E-04;  9.9941968E+02;  1.0000000E-01; -4.8077652E+02;3; -1.6068166E+00;  0.0000000E+00;  6.2515087E-02;0; -1.8959895E-02;  3.9947758E+04;  0.0000000E+00;  5.3315943E-01;  4.0000000E+04;  0.0000000E+00;  4.0007910E+04; -2.2580311E-02;  0.0000000E+00;  3.6204166E-03;  1.3327900E+03;
  3.1172016E-01;  9.9999998E-03;  1.9999550E-01;4387; -4.7630034E-03;  0.0000000E+00;  6.3766894E-04;  9.9915649E+02;  1.0000000E-01; -6.9884442E+02;3; -1.5844570E+00;  0.0000000E+00;  6.8358466E-02;0; -1.9199545E-02;  3.9926203E+04;  0.0000000E+00;  6.4902830E-01;  4.0000000E+04;  0.0000000E+00;  4.0008812E+04; -2.2970339E-02;  0.0000000E+00;  3.7707950E-03;  1.5415782E+03;
  3.1166014E-01;  9.9999998E-03;  2.0998311E-01;4388; -4.8005036E-03;  0.0000000E+00;  6.7065487E-04;  9.9891443E+02;  1.0000000E-01; -8.9938196E+02;3; -1.5740560E+00;  0.0000000E+00;  8.3731763E-02;0; -1.9424554E-02;  3.9906262E+04;  0.0000000E+00;  7.0572132E-01;  4.0000000E+04;  0.0000000E+00;  4.0010121E+04; -2.3357961E-02;  0.0000000E+00;  3.9334078E-03;  1.7243208E+03;
  3.1158513E-01;  9.9999998E-03;  2.1996693E-01;4389; -4.8453393E-03;  0.0000000E+00;  7.0547796E-04;  9.9872974E+02;  1.0000000E-01; -1.0523654E+03;3; -1.5876706E+00;  0.0000000E+00;  1.2202819E-01;0; -1.9641103E-02;  3.9889984E+04;  0.0000000E+00;  6.8795550E-01;  4.0000000E+04;  0.0000000E+00;  4.0012734E+04; -2.3748832E-02;  0.0000000E+00;  4.1077291E-03;  1.9761223E+03;
  3.1150323E-01;  9.9999998E-03;  2.2995877E-01;4390; -4.8950878E-03;  0.0000000E+00;  7.5810961E-04;  9.9860297E+02;  1.0000000E-01; -1.1573994E+03;3; -1.6410985E+00;  0.0000000E+00;  1.9687380E-01;0; -1.9819688E-02;  3.9878324E+04;  0.0000000E+00;  5.9408176E-01;  4.0000000E+04;  0.0000000E+00;  4.0015559E+04; -2.4151251E-02;  0.0000000E+00;  4.3315631E-03;  2.2396865E+03;
  3.2184187E-01;  9.9999998E-03;  6.9989234E-02;4435; -4.6675154E-03;  0.0000000E+00;  2.8709709E-04;  9.9965662E+02;  1.0000000E-01; -2.8448578E+02;3; -1.9167384E+00;  0.0000000E+00;  3.8580932E-02;0; -1.6272236E-02;  3.9971102E+04;  0.0000000E+00; -2.9565413E-02;  4.0000000E+04;  0.0000000E+00;  4.0004160E+04; -2.0177510E-02;  0.0000000E+00;  3.9052737E-03;  5.2764600E+02;
  3.2181737E-01;  9.9999998E-03;  7.9983063E-02;4436; -4.6848287E-03;  0.0000000E+00;  3.1679068E-04;  9.9973749E+02;  1.0000000E-01; -2.1747533E+02;3; -1.8992896E+00;  0.0000000E+00;  4.3105498E-02;0; -1.6385499E-02;  3.9978707E+04;  0.0000000E+00; -5.6889009E-02;  4.0000000E+04;  0.0000000E+00;  4.0003238E+04; -2.0188315E-02;  0.0000000E+00;  3.8028145E-03;  4.0417899E+02;
  3.2178438E-01;  9.9999998E-03;  8.9980245E-02;4437; -4.7077448E-03;  0.0000000E+00;  3.4256504E-04;  9.9983173E+02;  1.0000000E-01; -1.3940346E+02;3; -1.8802856E+00;  0.0000000E+00;  4.8137020E-02;0; -1.6528668E-02;  3.9987602E+04;  0.0000000E+00; -9.0933546E-02;  4.0000000E+04;  0.0000000E+00;  4.0002285E+04; -2.0242330E-02;  0.0000000E+00;  3.7136611E-03;  2.7675928E+02;
  3.2173961E-01;  9.9999998E-03;  9.9982202E-02;4438; -4.7352663E-03;  0.0000000E+00;  3.6552988E-04;  9.9993652E+02;  1.0000000E-01; -5.2591106E+01;3; -1.8597562E+00;  0.0000000E+00;  5.2395932E-02;0; -1.6703788E-02;  3.9997211E+04;  0.0000000E+00; -1.2853502E-01;  4.0000000E+04;  0.0000000E+00;  4.0001031E+04; -2.0346250E-02;  0.0000000E+00;  3.6424617E-03;  2.0754944E+02;
  3.2168075E-01;  9.9999998E-03;  1.0998996E-01;4439; -4.7657555E-03;  0.0000000E+00;  3.8671511E-04;  1.0000387E+03;  1.0000000E-01;  3.2097858E+01;3; -1.8379898E+00;  0.0000000E+00;  5.6671221E-02;0; -1.6911313E-02;  4.0006543E+04;  0.0000000E+00; -1.6455485E-01;  4.0000000E+04;  0.0000000E+00;  4.0000035E+04; -2.0503385E-02;  0.0000000E+00;  3.5920714E-03;  2.3472514E+02;
  3.2162064E-01;  9.9999998E-03;  1.2000264E-01;4440; -4.7976123E-03;  0.0000000E+00;  4.0775753E-04;  1.0001359E+03;  1.0000000E-01;  1.1258941E+02;3; -1.8150178E+00;  0.0000000E+00;  5.9502408E-02;0; -1.7149717E-02;  4.0014668E+04;  0.0000000E+00; -1.9196709E-01;  4.0000000E+04;  0.0000000E+00;  3.9999629E+04; -2.0714082E-02;  0.0000000E+00;  3.5643645E-03;  2.8311774E+02;
  3.2158396E-01;  9.9999998E-03;  1.3001378E-01;4441; -4.8295106E-03;  0.0000000E+00;  4.3146659E-04;  1.0002120E+03;  1.0000000E-01;  1.7559998E+02;3; -1.7909356E+00;  0.0000000E+00;  6.2735364E-02;0; -1.7414592E-02;  4.0020602E+04;  0.0000000E+00; -2.0249379E-01;  4.0000000E+04;  0.0000000E+00;  4.0000043E+04; -2.0975186E-02;  0.0000000E+00;  3.5605927E-03;  2.9481186E+02;
  3.2157862E-01;  9.9999998E-03;  1.4001928E-01;4442; -4.8601138E-03;  0.0000000E+00;  4.5946878E-04;  1.0002515E+03;  1.0000000E-01;  2.0829041E+02;3; -1.7662317E+00;  0.0000000E+00;  6.4595185E-02;0; -1.7697955E-02;  4.0022602E+04;  0.0000000E+00; -1.8790317E-01;  4.0000000E+04;  0.0000000E+00;  4.0000383E+04; -2.1279341E-02;  0.0000000E+00;  3.5813865E-03;  2.7016962E+02;
  3.2159397E-01;  9.9999998E-03;  1.5002064E-01;4443; -4.8882426E-03;  0.0000000E+00;  4.9324444E-04;  1.0002347E+03;  1.0000000E-01;  1.9446364E+02;3; -1.7402658E+00;  0.0000000E+00;  6.7831941E-02;0; -1.7988529E-02;  4.0020133E+04;  0.0000000E+00; -1.4177996E-01;  4.0000000E+04;  0.0000000E+00;  4.0001594E+04; -2.1616250E-02;  0.0000000E+00;  3.6277210E-03;  2.7645541E+02;
  3.2162115E-01;  9.9999998E-03;  1.6001903E-01;4444; -4.9138963E-03;  0.0000000E+00;  5.3358561E-04;  1.0001586E+03;  1.0000000E-01;  1.3145308E+02;3; -1.7141211E+00;  0.0000000E+00;  7.1349584E-02;0; -1.8276049E-02;  4.0012391E+04;  0.0000000E+00; -6.1262563E-02;  4.0000000E+04;  0.0000000E+00;  4.0003273E+04; -2.1975569E-02;  0.0000000E+00;  3.6995201E-03;  4.0305249E+02;
  3.2165146E-01;  9.9999998E-03;  1.7001700E-01;4445; -4.9382127E-03;  0.0000000E+00;  5.8062957E-04;  1.0000212E+03;  1.0000000E-01;  1.7579750E+01;3; -1.6874117E+00;  0.0000000E+00;  7.4959360E-02;0; -1.8552877E-02;  3.9999750E+04;  0.0000000E+00;  5.1587086E-02;  4.0000000E+04;  0.0000000E+00;  4.0005016E+04; -2.2347584E-02;  0.0000000E+00;  3.7947071E-03;  6.2629419E+02;
  3.2167539E-01;  9.9999998E-03;  1.8001665E-01;4446; -4.9630194E-03;  0.0000000E+00;  6.3244486E-04;  9.9983044E+02;  1.0000000E-01; -1.4048985E+02;3; -1.6605687E+00;  0.0000000E+00;  7.4748844E-02;0; -1.8812491E-02;  3.9982535E+04;  0.0000000E+00;  1.8911709E-01;  4.0000000E+04;  0.0000000E+00;  4.0006465E+04; -2.2723759E-02;  0.0000000E+00;  3.9112684E-03;  8.8698950E+02;
  3.2168823E-01;  9.9999998E-03;  1.9001673E-01;4447; -4.9907314E-03;  0.0000000E+00;  6.8579876E-04;  9.9959155E+02;  1.0000000E-01; -3.3841019E+02;3; -1.6342319E+00;  0.0000000E+00;  7.7538252E-02;0; -1.9048374E-02;  3.9962578E+04;  0.0000000E+00;  3.3823094E-01;  4.0000000E+04;  0.0000000E+00;  4.0007555E+04; -2.3097597E-02;  0.0000000E+00;  4.0492229E-03;  1.1383427E+03;
  3.2168737E-01;  9.9999998E-03;  2.0001420E-01;4448; -5.0238031E-03;  0.0000000E+00;  7.3507335E-04;  9.9933014E+02;  1.0000000E-01; -5.5494727E+02;3; -1.6088798E+00;  0.0000000E+00;  8.0129385E-02;0; -1.9256661E-02;  3.9941168E+04;  0.0000000E+00;  4.7743562E-01;  4.0000000E+04;  0.0000000E+00;  4.0008688E+04; -2.3465322E-02;  0.0000000E+00;  4.2086612E-03;  1.3455699E+03;
  3.2167521E-01;  9.9999998E-03;  2.1000615E-01;4449; -5.0633997E-03;  0.0000000E+00;  7.7235961E-04;  9.9907837E+02;  1.0000000E-01; -7.6353394E+02;3; -1.5880026E+00;  0.0000000E+00;  8.3219446E-02;0; -1.9446485E-02;  3.9920422E+04;  0.0000000E+00;  5.7893008E-01;  4.0000000E+04;  0.0000000E+00;  4.0009070E+04; -2.3826011E-02;  0.0000000E+00;  4.3795262E-03;  1.5089785E+03;
  3.2164320E-01;  9.9999998E-03;  2.1999070E-01;4450; -5.1079975E-03;  0.0000000E+00;  8.0271048E-04;  9.9885760E+02;  1.0000000E-01; -9.4644238E+02;3; -1.5768154E+00;  0.0000000E+00;  9.8307297E-02;0; -1.9636421E-02;  3.9902090E+04;  0.0000000E+00;  6.1809564E-01;  4.0000000E+04;  0.0000000E+00;  4.0011066E+04; -2.4181513E-02;  0.0000000E+00;  4.5450921E-03;  1.7181895E+03;
  3.2158777E-01;  9.9999998E-03;  2.2997811E-01;4451; -5.1548700E-03;  0.0000000E+00;  8.4457640E-04;  9.9868762E+02;  1.0000000E-01; -1.0872778E+03;3; -1.5848014E+00;  0.0000000E+00;  1.2655988E-01;0; -1.9813459E-02;  3.9887539E+04;  0.0000000E+00;  5.8011889E-01;  4.0000000E+04;  0.0000000E+00;  4.0013539E+04; -2.4536364E-02;  0.0000000E+00;  4.7229053E-03;  1.9621500E+03;
  3.3189669E-01;  9.9999998E-03;  6.9991253E-02;4496; -4.8786658E-03;  0.0000000E+00;  3.2873853E-04;  9.9979376E+02;  1.0000000E-01; -1.7085936E+02;3; -1.9506829E+00;  0.0000000E+00;  4.1774947E-02;0; -1.6407220E-02;  3.9982055E+04;  0.0000000E+00; -1.4139090E-02;  4.0000000E+04;  0.0000000E+00;  4.0004727E+04; -2.0838702E-02;  0.0000000E+00;  4.4314824E-03;  5.7239398E+02;
  3.3188429E-01;  9.9999998E-03;  7.9985335E-02;4497; -4.8919669E-03;  0.0000000E+00;  3.6912801E-04;  9.9984125E+02;  1.0000000E-01; -1.3150246E+02;3; -1.9325416E+00;  0.0000000E+00;  4.7745235E-02;0; -1.6529737E-02;  3.9986762E+04;  0.0000000E+00; -3.8777452E-02;  4.0000000E+04;  0.0000000E+00;  4.0003805E+04; -2.0854536E-02;  0.0000000E+00;  4.3247999E-03;  4.5649051E+02;
  3.3185947E-01;  9.9999998E-03;  8.9981139E-02;4498; -4.9112290E-03;  0.0000000E+00;  4.0495113E-04;  9.9990314E+02;  1.0000000E-01; -8.0244644E+01;3; -1.9127096E+00;  0.0000000E+00;  5.3277012E-02;0; -1.6681734E-02;  3.9992781E+04;  0.0000000E+00; -7.2189137E-02;  4.0000000E+04;  0.0000000E+00;  4.0002352E+04; -2.0907603E-02;  0.0000000E+00;  4.2258692E-03;  3.1774863E+02;
  3.3181950E-01;  9.9999998E-03;  9.9980153E-02;4499; -4.9359924E-03;  0.0000000E+00;  4.3634599E-04;  9.9997314E+02;  1.0000000E-01; -2.2270975E+01;3; -1.8913640E+00;  0.0000000E+00;  5.8042791E-02;0; -1.6863871E-02;  4.0000102E+04;  0.0000000E+00; -1.1259861E-01;  4.0000000E+04;  0.0000000E+00;  4.0001227E+04; -2.1004243E-02;  0.0000000E+00;  4.1403715E-03;  2.1250720E+02;
  3.3176446E-01;  9.9999998E-03;  1.0998368E-01;4500; -4.9653454E-03;  0.0000000E+00;  4.6453005E-04;  1.0000527E+03;  1.0000000E-01;  4.3653088E+01;3; -1.8688474E+00;  0.0000000E+00;  6.3698925E-02;0; -1.7075177E-02;  4.0007156E+04;  0.0000000E+00; -1.5628156E-01;  4.0000000E+04;  0.0000000E+00;  3.9999961E+04; -2.1148203E-02;  0.0000000E+00;  4.0730261E-03;  2.2251399E+02;
  3.3169523E-01;  9.9999998E-03;  1.1999439E-01;4501; -4.9979608E-03;  0.0000000E+00;  4.9147574E-04;  1.0001260E+03;  1.0000000E-01;  1.0439211E+02;3; -1.8449438E+00;  0.0000000E+00;  6.7782409E-02;0; -1.7312821E-02;  4.0013824E+04;  0.0000000E+00; -1.9735548E-01;  4.0000000E+04;  0.0000000E+00;  3.9999262E+04; -2.1340014E-02;  0.0000000E+00;  4.0271929E-03;  2.9675876E+02;
  3.3162197E-01;  9.9999998E-03;  1.3001211E-01;4502; -5.0323801E-03;  0.0000000E+00;  5.1891978E-04;  1.0001869E+03;  1.0000000E-01;  1.5485982E+02;3; -1.8200984E+00;  0.0000000E+00;  7.1316972E-02;0; -1.7571528E-02;  4.0019008E+04;  0.0000000E+00; -2.2800632E-01;  4.0000000E+04;  0.0000000E+00;  3.9999309E+04; -2.1577131E-02;  0.0000000E+00;  4.0056040E-03;  3.4661938E+02;
  3.3156678E-01;  9.9999998E-03;  1.4002390E-01;4503; -5.0674700E-03;  0.0000000E+00;  5.4938876E-04;  1.0002248E+03;  1.0000000E-01;  1.8626634E+02;3; -1.7943847E+00;  0.0000000E+00;  7.5483948E-02;0; -1.7843232E-02;  4.0021504E+04;  0.0000000E+00; -2.3937976E-01;  4.0000000E+04;  0.0000000E+00;  3.9999852E+04; -2.1854345E-02;  0.0000000E+00;  4.0111137E-03;  3.4844440E+02;
  3.3154297E-01;  9.9999998E-03;  1.5002789E-01;4504; -5.1022880E-03;  0.0000000E+00;  5.8463193E-04;  1.0002214E+03;  1.0000000E-01;  1.8340222E+02;3; -1.7682118E+00;  0.0000000E+00;  7.9035223E-02;0; -1.8117396E-02;  4.0020309E+04;  0.0000000E+00; -2.2317438E-01;  4.0000000E+04;  0.0000000E+00;  4.0000738E+04; -2.2163704E-02;  0.0000000E+00;  4.0463074E-03;  3.2548914E+02;
  3.3154711E-01;  9.9999998E-03;  1.6002692E-01;4505; -5.1361280E-03;  0.0000000E+00;  6.2575180E-04;  1.0001658E+03;  1.0000000E-01;  1.3737883E+02;3; -1.7412392E+00;  0.0000000E+00;  8.3160639E-02;0; -1.8384600E-02;  4.0014418E+04;  0.0000000E+00; -1.7353329E-01;  4.0000000E+04;  0.0000000E+00;  4.0002191E+04; -2.2495838E-02;  0.0000000E+00;  4.1112374E-03;  3.5479037E+02;
  3.3157071E-01;  9.9999998E-03;  1.7002453E-01;4506; -5.1692380E-03;  0.0000000E+00;  6.7324616E-04;  1.0000612E+03;  1.0000000E-01;  5.0763996E+01;3; -1.7138798E+00;  0.0000000E+00;  8.7534033E-02;0; -1.8638074E-02;  4.0004008E+04;  0.0000000E+00; -8.8913910E-02;  4.0000000E+04;  0.0000000E+00;  4.0004039E+04; -2.2841316E-02;  0.0000000E+00;  4.2032422E-03;  4.9686032E+02;
  3.3160490E-01;  9.9999998E-03;  1.8002386E-01;4507; -5.2024694E-03;  0.0000000E+00;  7.2662940E-04;  9.9989453E+02;  1.0000000E-01; -8.7355553E+01;3; -1.6869906E+00;  0.0000000E+00;  8.9355372E-02;0; -1.8872356E-02;  3.9989527E+04;  0.0000000E+00;  2.6553070E-02;  4.0000000E+04;  0.0000000E+00;  4.0005695E+04; -2.3191633E-02;  0.0000000E+00;  4.3192767E-03;  7.1566107E+02;
  3.3164486E-01;  9.9999998E-03;  1.9002552E-01;4508; -5.2372077E-03;  0.0000000E+00;  7.8264799E-04;  9.9968604E+02;  1.0000000E-01; -2.6009140E+02;3; -1.6603106E+00;  0.0000000E+00;  9.1252849E-02;0; -1.9081760E-02;  3.9971547E+04;  0.0000000E+00;  1.6301681E-01;  4.0000000E+04;  0.0000000E+00;  4.0007191E+04; -2.3539962E-02;  0.0000000E+00;  4.4582020E-03;  9.4731317E+02;
  3.3167523E-01;  9.9999998E-03;  2.0002684E-01;4509; -5.2749952E-03;  0.0000000E+00;  8.3599682E-04;  9.9945020E+02;  1.0000000E-01; -4.5549329E+02;3; -1.6349252E+00;  0.0000000E+00;  9.3392871E-02;0; -1.9262040E-02;  3.9951695E+04;  0.0000000E+00;  3.0542952E-01;  4.0000000E+04;  0.0000000E+00;  4.0008016E+04; -2.3881046E-02;  0.0000000E+00;  4.6190056E-03;  1.1378162E+03;
  3.3168209E-01;  9.9999998E-03;  2.1002240E-01;4510; -5.3168326E-03;  0.0000000E+00;  8.7575265E-04;  9.9919800E+02;  1.0000000E-01; -6.6442566E+02;3; -1.6108097E+00;  0.0000000E+00;  9.6009389E-02;0; -1.9423271E-02;  3.9931410E+04;  0.0000000E+00;  4.3251619E-01;  4.0000000E+04;  0.0000000E+00;  4.0008309E+04; -2.4211885E-02;  0.0000000E+00;  4.7886153E-03;  1.2815535E+03;
  3.3166584E-01;  9.9999998E-03;  2.2000970E-01;4511; -5.3615873E-03;  0.0000000E+00;  9.0207375E-04;  9.9896405E+02;  1.0000000E-01; -8.5824731E+02;3; -1.5898792E+00;  0.0000000E+00;  1.0094466E-01;0; -1.9594356E-02;  3.9912121E+04;  0.0000000E+00;  5.2067453E-01;  4.0000000E+04;  0.0000000E+00;  4.0009098E+04; -2.4532618E-02;  0.0000000E+00;  4.9382616E-03;  1.4517496E+03;
  3.3162817E-01;  9.9999998E-03;  2.2999473E-01;4512; -5.4082405E-03;  0.0000000E+00;  9.3180122E-04;  9.9876587E+02;  1.0000000E-01; -1.0224402E+03;3; -1.5761209E+00;  0.0000000E+00;  1.0876831E-01;0; -1.9787537E-02;  3.9895305E+04;  0.0000000E+00;  5.5105454E-01;  4.0000000E+04;  0.0000000E+00;  4.0011375E+04; -2.4845475E-02;  0.0000000E+00;  5.0579389E-03;  1.6968798E+03;
  3.4185934E-01;  9.9999998E-03;  6.9997646E-02;4557; -5.0872290E-03;  0.0000000E+00;  3.7383055E-04;  9.9991101E+02;  1.0000000E-01; -7.3726311E+01;3; -1.9832305E+00;  0.0000000E+00;  4.6141125E-02;0; -1.6491953E-02;  3.9990785E+04;  0.0000000E+00;  3.9542606E-03;  4.0000000E+04;  0.0000000E+00;  4.0004797E+04; -2.1476785E-02;  0.0000000E+00;  4.9848319E-03;  5.8716132E+02;
  3.4185964E-01;  9.9999998E-03;  7.9991728E-02;4558; -5.0981068E-03;  0.0000000E+00;  4.2539046E-04;  9.9992664E+02;  1.0000000E-01; -6.0788403E+01;3; -1.9644644E+00;  0.0000000E+00;  5.2458722E-02;0; -1.6624812E-02;  3.9993168E+04;  0.0000000E+00; -1.5305427E-02;  4.0000000E+04;  0.0000000E+00;  4.0003938E+04; -2.1499557E-02;  0.0000000E+00;  4.8747449E-03;  4.8454340E+02;
  3.4185722E-01;  9.9999998E-03;  8.9986198E-02;4559; -5.1150029E-03;  0.0000000E+00;  4.7192973E-04;  9.9995441E+02;  1.0000000E-01; -3.7776711E+01;3; -1.9439569E+00;  0.0000000E+00;  5.9407432E-02;0; -1.6786786E-02;  3.9996508E+04;  0.0000000E+00; -4.4376403E-02;  4.0000000E+04;  0.0000000E+00;  4.0002727E+04; -2.1553934E-02;  0.0000000E+00;  4.7671483E-03;  3.4547000E+02;
  3.4185010E-01;  9.9999998E-03;  9.9982120E-02;4560; -5.1380363E-03;  0.0000000E+00;  5.1321677E-04;  9.9999011E+02;  1.0000000E-01; -8.1972990E+00;3; -1.9216537E+00;  0.0000000E+00;  6.5647967E-02;0; -1.6977219E-02;  4.0000980E+04;  0.0000000E+00; -8.2767725E-02;  4.0000000E+04;  0.0000000E+00;  4.0001609E+04; -2.1645622E-02;  0.0000000E+00;  4.6684034E-03;  2.1156152E+02;
  3.4183380E-01;  9.9999998E-03;  1.0998106E-01;4561; -5.1666670E-03;  0.0000000E+00;  5.4980029E-04;  1.0000369E+03;  1.0000000E-01;  3.0517656E+01;3; -1.8981949E+00;  0.0000000E+00;  7.1147010E-02;0; -1.7193720E-02;  4.0005844E+04;  0.0000000E+00; -1.2818646E-01;  4.0000000E+04;  0.0000000E+00;  4.0000406E+04; -2.1778023E-02;  0.0000000E+00;  4.5843031E-03;  1.8361484E+02;
  3.4180146E-01;  9.9999998E-03;  1.1998526E-01;4562; -5.1998724E-03;  0.0000000E+00;  5.8303005E-04;  1.0000840E+03;  1.0000000E-01;  6.9627663E+01;3; -1.8736007E+00;  0.0000000E+00;  7.6203123E-02;0; -1.7432215E-02;  4.0010691E+04;  0.0000000E+00; -1.7611659E-01;  4.0000000E+04;  0.0000000E+00;  3.9999336E+04; -2.1951798E-02;  0.0000000E+00;  4.5195841E-03;  2.7054816E+02;
  3.4174693E-01;  9.9999998E-03;  1.2999739E-01;4563; -5.2363756E-03;  0.0000000E+00;  6.1550899E-04;  1.0001245E+03;  1.0000000E-01;  1.0310819E+02;3; -1.8479728E+00;  0.0000000E+00;  8.1636027E-02;0; -1.7686615E-02;  4.0014395E+04;  0.0000000E+00; -2.1971208E-01;  4.0000000E+04;  0.0000000E+00;  3.9998840E+04; -2.2164661E-02;  0.0000000E+00;  4.4780462E-03;  3.5267529E+02;
  3.4167346E-01;  9.9999998E-03;  1.4001282E-01;4564; -5.2747647E-03;  0.0000000E+00;  6.4902619E-04;  1.0001480E+03;  1.0000000E-01;  1.2266320E+02;3; -1.8216990E+00;  0.0000000E+00;  8.6199462E-02;0; -1.7948732E-02;  4.0016305E+04;  0.0000000E+00; -2.5024474E-01;  4.0000000E+04;  0.0000000E+00;  3.9998805E+04; -2.2412164E-02;  0.0000000E+00;  4.4634333E-03;  3.8681186E+02;
  3.4160683E-01;  9.9999998E-03;  1.5002441E-01;4565; -5.3141583E-03;  0.0000000E+00;  6.8547745E-04;  1.0001464E+03;  1.0000000E-01;  1.2128052E+02;3; -1.7947466E+00;  0.0000000E+00;  9.0069570E-02;0; -1.8208671E-02;  4.0015414E+04;  0.0000000E+00; -2.5831777E-01;  4.0000000E+04;  0.0000000E+00;  3.9999715E+04; -2.2688711E-02;  0.0000000E+00;  4.4800392E-03;  3.7381326E+02;
  3.4157127E-01;  9.9999998E-03;  1.6002886E-01;4566; -5.3539532E-03;  0.0000000E+00;  7.2666461E-04;  1.0001070E+03;  1.0000000E-01;  8.8688850E+01;3; -1.7670345E+00;  0.0000000E+00;  9.4777323E-02;0; -1.8457865E-02;  4.0011023E+04;  0.0000000E+00; -2.3581620E-01;  4.0000000E+04;  0.0000000E+00;  4.0001145E+04; -2.2987416E-02;  0.0000000E+00;  4.5295511E-03;  3.5564575E+02;
  3.4156999E-01;  9.9999998E-03;  1.7002922E-01;4567; -5.3938106E-03;  0.0000000E+00;  7.7380129E-04;  1.0000240E+03;  1.0000000E-01;  1.9851290E+01;3; -1.7391988E+00;  0.0000000E+00;  9.8994598E-02;0; -1.8690443E-02;  4.0002578E+04;  0.0000000E+00; -1.7824091E-01;  4.0000000E+04;  0.0000000E+00;  4.0002492E+04; -2.3300076E-02;  0.0000000E+00;  4.6096332E-03;  4.1213745E+02;
  3.4159282E-01;  9.9999998E-03;  1.8002929E-01;4568; -5.4337694E-03;  0.0000000E+00;  8.2667510E-04;  9.9988892E+02;  1.0000000E-01; -9.2046776E+01;3; -1.7117368E+00;  0.0000000E+00;  1.0170937E-01;0; -1.8902060E-02;  3.9990562E+04;  0.0000000E+00; -8.6647213E-02;  4.0000000E+04;  0.0000000E+00;  4.0004277E+04; -2.3618434E-02;  0.0000000E+00;  4.7163749E-03;  5.7075287E+02;
  3.4162146E-01;  9.9999998E-03;  1.9003096E-01;4569; -5.4741758E-03;  0.0000000E+00;  8.8292809E-04;  9.9971594E+02;  1.0000000E-01; -2.3535136E+02;3; -1.6848300E+00;  0.0000000E+00;  1.0329763E-01;0; -1.9088149E-02;  3.9974789E+04;  0.0000000E+00;  3.1730559E-02;  4.0000000E+04;  0.0000000E+00;  4.0005957E+04; -2.3934998E-02;  0.0000000E+00;  4.8468476E-03;  7.7524561E+02;
  3.4164178E-01;  9.9999998E-03;  2.0003386E-01;4570; -5.5159233E-03;  0.0000000E+00;  9.3719887E-04;  9.9950494E+02;  1.0000000E-01; -4.1016122E+02;3; -1.6585129E+00;  0.0000000E+00;  1.0756499E-01;0; -1.9245712E-02;  3.9957164E+04;  0.0000000E+00;  1.6419712E-01;  4.0000000E+04;  0.0000000E+00;  4.0007023E+04; -2.4244368E-02;  0.0000000E+00;  4.9986565E-03;  9.5178735E+02;
  3.4165221E-01;  9.9999998E-03;  2.1003422E-01;4571; -5.5602402E-03;  0.0000000E+00;  9.7762828E-04;  9.9926666E+02;  1.0000000E-01; -6.0753839E+02;3; -1.6340599E+00;  0.0000000E+00;  1.0964122E-01;0; -1.9386452E-02;  3.9938004E+04;  0.0000000E+00;  2.9496852E-01;  4.0000000E+04;  0.0000000E+00;  4.0007203E+04; -2.4543300E-02;  0.0000000E+00;  5.1568486E-03;  1.0554072E+03;
  3.4165353E-01;  9.9999998E-03;  2.2002488E-01;4572; -5.6071095E-03;  0.0000000E+00;  9.9774683E-04;  9.9902875E+02;  1.0000000E-01; -8.0466858E+02;3; -1.6114728E+00;  0.0000000E+00;  1.1092830E-01;0; -1.9553456E-02;  3.9919168E+04;  0.0000000E+00;  4.0663421E-01;  4.0000000E+04;  0.0000000E+00;  4.0007332E+04; -2.4830304E-02;  0.0000000E+00;  5.2768467E-03;  1.1717977E+03;
  3.4164032E-01;  9.9999998E-03;  2.3000786E-01;4573; -5.6557888E-03;  0.0000000E+00;  1.0187374E-03;  9.9882367E+02;  1.0000000E-01; -9.7458972E+02;3; -1.5901651E+00;  0.0000000E+00;  1.1512306E-01;0; -1.9770868E-02;  3.9901383E+04;  0.0000000E+00;  4.8117206E-01;  4.0000000E+04;  0.0000000E+00;  4.0009211E+04; -2.5105506E-02;  0.0000000E+00;  5.3346385E-03;  1.4327065E+03;
  3.5180554E-01;  9.9999998E-03;  7.0002444E-02;4618; -5.2957805E-03;  0.0000000E+00;  4.2131543E-04;  9.9998651E+02;  1.0000000E-01; -1.1160178E+01;3; -2.0147829E+00;  0.0000000E+00;  4.9480867E-02;0; -1.6557224E-02;  3.9996652E+04;  0.0000000E+00;  2.1605276E-02;  4.0000000E+04;  0.0000000E+00;  4.0004488E+04; -2.2120176E-02;  0.0000000E+00;  5.5629527E-03;  5.8105121E+02;
  3.5180348E-01;  9.9999998E-03;  7.9998396E-02;4619; -5.3056753E-03;  0.0000000E+00;  4.8337781E-04;  9.9997601E+02;  1.0000000E-01; -1.9851290E+01;3; -1.9953690E+00;  0.0000000E+00;  5.6760125E-02;0; -1.6700065E-02;  3.9997102E+04;  0.0000000E+00;  9.3533909E-03;  4.0000000E+04;  0.0000000E+00;  4.0003816E+04; -2.2149289E-02;  0.0000000E+00;  5.4492238E-03;  4.9555252E+02;
  3.5180104E-01;  9.9999998E-03;  8.9993961E-02;4620; -5.3210831E-03;  0.0000000E+00;  5.4060580E-04;  9.9998029E+02;  1.0000000E-01; -1.6345217E+01;3; -1.9740174E+00;  0.0000000E+00;  6.3893050E-02;0; -1.6871521E-02;  3.9997992E+04;  0.0000000E+00; -1.2777047E-02;  4.0000000E+04;  0.0000000E+00;  4.0002691E+04; -2.2203840E-02;  0.0000000E+00;  5.3323186E-03;  3.6657977E+02;
  3.5179728E-01;  9.9999998E-03;  9.9989951E-02;4621; -5.3425194E-03;  0.0000000E+00;  5.9179560E-04;  9.9998663E+02;  1.0000000E-01; -1.1061416E+01;3; -1.9508410E+00;  0.0000000E+00;  7.1364090E-02;0; -1.7069791E-02;  4.0000062E+04;  0.0000000E+00; -4.5369793E-02;  4.0000000E+04;  0.0000000E+00;  4.0001457E+04; -2.2288801E-02;  0.0000000E+00;  5.2190097E-03;  2.1965527E+02;
  3.5178974E-01;  9.9999998E-03;  1.0998724E-01;4622; -5.3699762E-03;  0.0000000E+00;  6.3708855E-04;  1.0000031E+03;  1.0000000E-01;  2.5678287E+00;3; -1.9265546E+00;  0.0000000E+00;  7.8001484E-02;0; -1.7291324E-02;  4.0002848E+04;  0.0000000E+00; -8.7412812E-02;  4.0000000E+04;  0.0000000E+00;  4.0000238E+04; -2.2407541E-02;  0.0000000E+00;  5.1162168E-03;  1.3439813E+02;
  3.5177436E-01;  9.9999998E-03;  1.1998673E-01;4623; -5.4029389E-03;  0.0000000E+00;  6.7760836E-04;  1.0000236E+03;  1.0000000E-01;  1.9555002E+01;3; -1.9009970E+00;  0.0000000E+00;  8.3476968E-02;0; -1.7531019E-02;  4.0005523E+04;  0.0000000E+00; -1.3574293E-01;  4.0000000E+04;  0.0000000E+00;  3.9999207E+04; -2.2561235E-02;  0.0000000E+00;  5.0302166E-03;  2.1172217E+02;
  3.5174689E-01;  9.9999998E-03;  1.2998933E-01;4624; -5.4404913E-03;  0.0000000E+00;  7.1498263E-04;  1.0000400E+03;  1.0000000E-01;  3.3085484E+01;3; -1.8745408E+00;  0.0000000E+00;  8.9410633E-02;0; -1.7782245E-02;  4.0007688E+04;  0.0000000E+00; -1.8468522E-01;  4.0000000E+04;  0.0000000E+00;  3.9998859E+04; -2.2748671E-02;  0.0000000E+00;  4.9664276E-03;  3.1596985E+02;
  3.5170472E-01;  9.9999998E-03;  1.3999668E-01;4625; -5.4814499E-03;  0.0000000E+00;  7.5182860E-04;  1.0000499E+03;  1.0000000E-01;  4.1282784E+01;3; -1.8472929E+00;  0.0000000E+00;  9.5264792E-02;0; -1.8036788E-02;  4.0008676E+04;  0.0000000E+00; -2.2617143E-01;  4.0000000E+04;  0.0000000E+00;  3.9998559E+04; -2.2966428E-02;  0.0000000E+00;  4.9296389E-03;  3.7787540E+02;
  3.5165042E-01;  9.9999998E-03;  1.5000881E-01;4626; -5.5245999E-03;  0.0000000E+00;  7.9036696E-04;  1.0000418E+03;  1.0000000E-01;  3.4665688E+01;3; -1.8197340E+00;  0.0000000E+00;  1.0028174E-01;0; -1.8285388E-02;  4.0007590E+04;  0.0000000E+00; -2.5062084E-01;  4.0000000E+04;  0.0000000E+00;  3.9999035E+04; -2.3209525E-02;  0.0000000E+00;  4.9241376E-03;  3.8522003E+02;
  3.5160050E-01;  9.9999998E-03;  1.6001977E-01;4627; -5.5689099E-03;  0.0000000E+00;  8.3201745E-04;  1.0000050E+03;  1.0000000E-01;  4.1480308E+00;3; -1.7914549E+00;  0.0000000E+00;  1.0435984E-01;0; -1.8519918E-02;  4.0003723E+04;  0.0000000E+00; -2.4878341E-01;  4.0000000E+04;  0.0000000E+00;  4.0000121E+04; -2.3472175E-02;  0.0000000E+00;  4.9522570E-03;  3.5737457E+02;
  3.5156938E-01;  9.9999998E-03;  1.7002584E-01;4628; -5.6136744E-03;  0.0000000E+00;  8.7814551E-04;  9.9994055E+02;  1.0000000E-01; -4.9233177E+01;3; -1.7629507E+00;  0.0000000E+00;  1.0743002E-01;0; -1.8735185E-02;  3.9996902E+04;  0.0000000E+00; -2.1427880E-01;  4.0000000E+04;  0.0000000E+00;  4.0001410E+04; -2.3747798E-02;  0.0000000E+00;  5.0126123E-03;  3.5858087E+02;
  3.5156137E-01;  9.9999998E-03;  1.8002878E-01;4629; -5.6586335E-03;  0.0000000E+00;  9.2912285E-04;  9.9983032E+02;  1.0000000E-01; -1.4058862E+02;3; -1.7348040E+00;  0.0000000E+00;  1.1087204E-01;0; -1.8928148E-02;  3.9986684E+04;  0.0000000E+00; -1.4590770E-01;  4.0000000E+04;  0.0000000E+00;  4.0002895E+04; -2.4029603E-02;  0.0000000E+00;  5.1014549E-03;  4.5907965E+02;
  3.5157195E-01;  9.9999998E-03;  1.9003205E-01;4630; -5.7037445E-03;  0.0000000E+00;  9.8381238E-04;  9.9968158E+02;  1.0000000E-01; -2.6379501E+02;3; -1.7068075E+00;  0.0000000E+00;  1.1480814E-01;0; -1.9095838E-02;  3.9973461E+04;  0.0000000E+00; -4.8591193E-02;  4.0000000E+04;  0.0000000E+00;  4.0004852E+04; -2.4310943E-02;  0.0000000E+00;  5.2151051E-03;  6.3343933E+02;
  3.5159135E-01;  9.9999998E-03;  2.0003711E-01;4631; -5.7494789E-03;  0.0000000E+00;  1.0381328E-03;  9.9950159E+02;  1.0000000E-01; -4.1292661E+02;3; -1.6799682E+00;  0.0000000E+00;  1.1919227E-01;0; -1.9236473E-02;  3.9957758E+04;  0.0000000E+00;  6.7339249E-02;  4.0000000E+04;  0.0000000E+00;  4.0006047E+04; -2.4586372E-02;  0.0000000E+00;  5.3498987E-03;  7.9358600E+02;
  3.5161057E-01;  9.9999998E-03;  2.1004045E-01;4632; -5.7970705E-03;  0.0000000E+00;  1.0794288E-03;  9.9928564E+02;  1.0000000E-01; -5.9183508E+02;3; -1.6545700E+00;  0.0000000E+00;  1.2092579E-01;0; -1.9363146E-02;  3.9940402E+04;  0.0000000E+00;  1.8815389E-01;  4.0000000E+04;  0.0000000E+00;  4.0006234E+04; -2.4851793E-02;  0.0000000E+00;  5.4886476E-03;  8.7116425E+02;
  3.5162359E-01;  9.9999998E-03;  2.2003359E-01;4633; -5.8477637E-03;  0.0000000E+00;  1.0953563E-03;  9.9905664E+02;  1.0000000E-01; -7.8155817E+02;3; -1.6313615E+00;  0.0000000E+00;  1.2245998E-01;0; -1.9531157E-02;  3.9922523E+04;  0.0000000E+00;  2.9913315E-01;  4.0000000E+04;  0.0000000E+00;  4.0005980E+04; -2.5104847E-02;  0.0000000E+00;  5.5736890E-03;  9.4919513E+02;
  3.5162342E-01;  9.9999998E-03;  2.3001574E-01;4634; -5.8997055E-03;  0.0000000E+00;  1.1168686E-03;  9.9885889E+02;  1.0000000E-01; -9.4540533E+02;3; -1.6084827E+00;  0.0000000E+00;  1.2366074E-01;0; -1.9754112E-02;  3.9904996E+04;  0.0000000E+00;  3.8650569E-01;  4.0000000E+04;  0.0000000E+00;  4.0007641E+04; -2.5344560E-02;  0.0000000E+00;  5.5904477E-03;  1.2243751E+03;
  3.6175656E-01;  9.9999998E-03;  7.0006058E-02;4679; -5.5073760E-03;  0.0000000E+00;  4.6798005E-04;  1.0000101E+03;  1.0000000E-01;  8.2960615E+00;3; -2.0455928E+00;  0.0000000E+00;  5.2805156E-02;0; -1.6632071E-02;  3.9998668E+04;  0.0000000E+00;  3.6825601E-02;  4.0000000E+04;  0.0000000E+00;  4.0004617E+04; -2.2792792E-02;  0.0000000E+00;  6.1607212E-03;  5.6067719E+02;
  3.6175272E-01;  9.9999998E-03;  8.0003917E-02;4680; -5.5179582E-03;  0.0000000E+00;  5.3977536E-04;  9.9998553E+02;  1.0000000E-01; -1.1999660E+01;3; -2.0253642E+00;  0.0000000E+00;  6.0775165E-02;0; -1.6783115E-02;  3.9997387E+04;  0.0000000E+00;  3.2100718E-02;  4.0000000E+04;  0.0000000E+00;  4.0003930E+04; -2.2826893E-02;  0.0000000E+00;  6.0437783E-03;  4.9310361E+02;
  3.6175215E-01;  9.9999998E-03;  9.0000682E-02;4681; -5.5332165E-03;  0.0000000E+00;  6.0699444E-04;  9.9996753E+02;  1.0000000E-01; -2.6912819E+01;3; -2.0031526E+00;  0.0000000E+00;  6.8811417E-02;0; -1.6962349E-02;  3.9996660E+04;  0.0000000E+00;  1.8359577E-02;  4.0000000E+04;  0.0000000E+00;  4.0002941E+04; -2.2880694E-02;  0.0000000E+00;  5.9183454E-03;  3.8201013E+02;
  3.6175412E-01;  9.9999998E-03;  9.9997021E-02;4682; -5.5539906E-03;  0.0000000E+00;  6.6798553E-04;  9.9995721E+02;  1.0000000E-01; -3.5455788E+01;3; -1.9790272E+00;  0.0000000E+00;  7.6862499E-02;0; -1.7167123E-02;  3.9997129E+04;  0.0000000E+00; -5.8201929E-03;  4.0000000E+04;  0.0000000E+00;  4.0001730E+04; -2.2958381E-02;  0.0000000E+00;  5.7912576E-03;  2.4138072E+02;
  3.6175314E-01;  9.9999998E-03;  1.0999332E-01;4683; -5.5805543E-03;  0.0000000E+00;  7.2213047E-04;  9.9995526E+02;  1.0000000E-01; -3.7085369E+01;3; -1.9537601E+00;  0.0000000E+00;  8.4130473E-02;0; -1.7392784E-02;  3.9998094E+04;  0.0000000E+00; -4.0501174E-02;  4.0000000E+04;  0.0000000E+00;  4.0000465E+04; -2.3062663E-02;  0.0000000E+00;  5.6698797E-03;  1.0727331E+02;
  3.6174396E-01;  9.9999998E-03;  1.1999012E-01;4684; -5.6128167E-03;  0.0000000E+00;  7.7011285E-04;  9.9995471E+02;  1.0000000E-01; -3.7529804E+01;3; -1.9274009E+00;  0.0000000E+00;  9.0076022E-02;0; -1.7633477E-02;  3.9999301E+04;  0.0000000E+00; -8.3776236E-02;  4.0000000E+04;  0.0000000E+00;  3.9999453E+04; -2.3194911E-02;  0.0000000E+00;  5.5614342E-03;  1.2901657E+02;
  3.6172447E-01;  9.9999998E-03;  1.2998837E-01;4685; -5.6503266E-03;  0.0000000E+00;  8.1353512E-04;  9.9995312E+02;  1.0000000E-01; -3.8813717E+01;3; -1.9001410E+00;  0.0000000E+00;  9.5767401E-02;0; -1.7882096E-02;  4.0000293E+04;  0.0000000E+00; -1.3125606E-01;  4.0000000E+04;  0.0000000E+00;  3.9998473E+04; -2.3354834E-02;  0.0000000E+00;  5.4727383E-03;  2.4179991E+02;
  3.6169463E-01;  9.9999998E-03;  1.3998951E-01;4686; -5.6922580E-03;  0.0000000E+00;  8.5433759E-04;  9.9994611E+02;  1.0000000E-01; -4.4640713E+01;3; -1.8718070E+00;  0.0000000E+00;  1.0144667E-01;0; -1.8130615E-02;  4.0000055E+04;  0.0000000E+00; -1.7592064E-01;  4.0000000E+04;  0.0000000E+00;  3.9998414E+04; -2.3540478E-02;  0.0000000E+00;  5.4098619E-03;  3.2232825E+02;
  3.6165461E-01;  9.9999998E-03;  1.4999521E-01;4687; -5.7375259E-03;  0.0000000E+00;  8.9490431E-04;  9.9992639E+02;  1.0000000E-01; -6.0985931E+01;3; -1.8431492E+00;  0.0000000E+00;  1.0706969E-01;0; -1.8370170E-02;  3.9998469E+04;  0.0000000E+00; -2.0870443E-01;  4.0000000E+04;  0.0000000E+00;  3.9998555E+04; -2.3748074E-02;  0.0000000E+00;  5.3779045E-03;  3.4894504E+02;
  3.6160582E-01;  9.9999998E-03;  1.6000569E-01;4688; -5.7848934E-03;  0.0000000E+00;  9.3746616E-04;  9.9989008E+02;  1.0000000E-01; -9.1059151E+01;3; -1.8141571E+00;  0.0000000E+00;  1.1145131E-01;0; -1.8593246E-02;  3.9994605E+04;  0.0000000E+00; -2.2026624E-01;  4.0000000E+04;  0.0000000E+00;  3.9999332E+04; -2.3972690E-02;  0.0000000E+00;  5.3794440E-03;  3.2702872E+02;
  3.6156300E-01;  9.9999998E-03;  1.7001610E-01;4689; -5.8333371E-03;  0.0000000E+00;  9.8293379E-04;  9.9982269E+02;  1.0000000E-01; -1.4690942E+02;3; -1.7848258E+00;  0.0000000E+00;  1.1548147E-01;0; -1.8795239E-02;  3.9988672E+04;  0.0000000E+00; -2.0350471E-01;  4.0000000E+04;  0.0000000E+00;  4.0000766E+04; -2.4209211E-02;  0.0000000E+00;  5.4139718E-03;  3.0518713E+02;
  3.6153895E-01;  9.9999998E-03;  1.8002345E-01;4690; -5.8822897E-03;  0.0000000E+00;  1.0325697E-03;  9.9973828E+02;  1.0000000E-01; -2.1683337E+02;3; -1.7554381E+00;  0.0000000E+00;  1.1985187E-01;0; -1.8973913E-02;  3.9979777E+04;  0.0000000E+00; -1.5594277E-01;  4.0000000E+04;  0.0000000E+00;  4.0002172E+04; -2.4452059E-02;  0.0000000E+00;  5.4781446E-03;  3.6929315E+02;
  3.6153406E-01;  9.9999998E-03;  1.9002919E-01;4691; -5.9314147E-03;  0.0000000E+00;  1.0858041E-03;  9.9961029E+02;  1.0000000E-01; -3.2285507E+02;3; -1.7268391E+00;  0.0000000E+00;  1.2406704E-01;0; -1.9127952E-02;  3.9968262E+04;  0.0000000E+00; -8.0777757E-02;  4.0000000E+04;  0.0000000E+00;  4.0003477E+04; -2.4695380E-02;  0.0000000E+00;  5.5674282E-03;  5.2340448E+02;
  3.6154407E-01;  9.9999998E-03;  2.0003490E-01;4692; -5.9809098E-03;  0.0000000E+00;  1.1389503E-03;  9.9945062E+02;  1.0000000E-01; -4.5514761E+02;3; -1.6991959E+00;  0.0000000E+00;  1.2667249E-01;0; -1.9257691E-02;  3.9954562E+04;  0.0000000E+00;  1.3756754E-02;  4.0000000E+04;  0.0000000E+00;  4.0004805E+04; -2.4934087E-02;  0.0000000E+00;  5.6763967E-03;  6.8291266E+02;
  3.6156210E-01;  9.9999998E-03;  2.1003890E-01;4693; -6.0323752E-03;  0.0000000E+00;  1.1833058E-03;  9.9926392E+02;  1.0000000E-01; -6.0980994E+02;3; -1.6728213E+00;  0.0000000E+00;  1.2770760E-01;0; -1.9374648E-02;  3.9939031E+04;  0.0000000E+00;  1.1613031E-01;  4.0000000E+04;  0.0000000E+00;  4.0005148E+04; -2.5163993E-02;  0.0000000E+00;  5.7893447E-03;  7.7078528E+02;
  3.6157829E-01;  9.9999998E-03;  2.2003335E-01;4694; -6.0870280E-03;  0.0000000E+00;  1.2053607E-03;  9.9905951E+02;  1.0000000E-01; -7.7918787E+02;3; -1.6478940E+00;  0.0000000E+00;  1.2888311E-01;0; -1.9530555E-02;  3.9922457E+04;  0.0000000E+00;  2.1337587E-01;  4.0000000E+04;  0.0000000E+00;  4.0005527E+04; -2.5382249E-02;  0.0000000E+00;  5.8516939E-03;  8.5698480E+02;
  3.6158392E-01;  9.9999998E-03;  2.3001625E-01;4695; -6.1435835E-03;  0.0000000E+00;  1.2413802E-03;  9.9887531E+02;  1.0000000E-01; -9.3177612E+02;3; -1.6240089E+00;  0.0000000E+00;  1.2844147E-01;0; -1.9713072E-02;  3.9905477E+04;  0.0000000E+00;  2.9274753E-01;  4.0000000E+04;  0.0000000E+00;  4.0007961E+04; -2.5587274E-02;  0.0000000E+00;  5.8742021E-03;  1.1619573E+03;
  3.7171805E-01;  9.9999998E-03;  7.0006050E-02;4740; -5.7250401E-03;  0.0000000E+00;  5.1172648E-04;  9.9998486E+02;  1.0000000E-01; -1.2542855E+01;3; -2.0754273E+00;  0.0000000E+00;  5.6968987E-02;0; -1.6739648E-02;  3.9996617E+04;  0.0000000E+00;  4.8993509E-02;  4.0000000E+04;  0.0000000E+00;  4.0003871E+04; -2.3512404E-02;  0.0000000E+00;  6.7727575E-03;  5.2932629E+02;
  3.7172091E-01;  9.9999998E-03;  8.0005489E-02;4741; -5.7378300E-03;  0.0000000E+00;  5.9270771E-04;  9.9995520E+02;  1.0000000E-01; -3.7134750E+01;3; -2.0542486E+00;  0.0000000E+00;  6.4679429E-02;0; -1.6896013E-02;  3.9994594E+04;  0.0000000E+00;  5.1275585E-02;  4.0000000E+04;  0.0000000E+00;  4.0003480E+04; -2.3549080E-02;  0.0000000E+00;  6.6530677E-03;  4.7779910E+02;
  3.7173104E-01;  9.9999998E-03;  9.0003923E-02;4742; -5.7542995E-03;  0.0000000E+00;  6.6897407E-04;  9.9992993E+02;  1.0000000E-01; -5.8072433E+01;3; -2.0311241E+00;  0.0000000E+00;  7.2110653E-02;0; -1.7080342E-02;  3.9993520E+04;  0.0000000E+00;  4.6130911E-02;  4.0000000E+04;  0.0000000E+00;  4.0002918E+04; -2.3600535E-02;  0.0000000E+00;  6.5201931E-03;  3.8805942E+02;
  3.7174582E-01;  9.9999998E-03;  1.0000043E-01;4743; -5.7753585E-03;  0.0000000E+00;  7.3883124E-04;  9.9991052E+02;  1.0000000E-01; -7.4121361E+01;3; -2.0063269E+00;  0.0000000E+00;  8.0260850E-02;0; -1.7289173E-02;  3.9992980E+04;  0.0000000E+00;  3.1595446E-02;  4.0000000E+04;  0.0000000E+00;  4.0001996E+04; -2.3669800E-02;  0.0000000E+00;  6.3806265E-03;  2.6788004E+02;
  3.7175739E-01;  9.9999998E-03;  1.0999529E-01;4744; -5.8015673E-03;  0.0000000E+00;  8.0178399E-04;  9.9989941E+02;  1.0000000E-01; -8.3355667E+01;3; -1.9800700E+00;  0.0000000E+00;  8.8307247E-02;0; -1.7517203E-02;  3.9993117E+04;  0.0000000E+00;  6.7756549E-03;  4.0000000E+04;  0.0000000E+00;  4.0000930E+04; -2.3758948E-02;  0.0000000E+00;  6.2417448E-03;  1.3136467E+02;
  3.7175825E-01;  9.9999998E-03;  1.1998957E-01;4745; -5.8331694E-03;  0.0000000E+00;  8.5770641E-04;  9.9988696E+02;  1.0000000E-01; -9.3626984E+01;3; -1.9526374E+00;  0.0000000E+00;  9.5905423E-02;0; -1.7757945E-02;  3.9993211E+04;  0.0000000E+00; -2.7530864E-02;  4.0000000E+04;  0.0000000E+00;  3.9999613E+04; -2.3869194E-02;  0.0000000E+00;  6.1112489E-03;  3.9367912E+01;
  3.7174523E-01;  9.9999998E-03;  1.2998451E-01;4746; -5.8701630E-03;  0.0000000E+00;  9.0763671E-04;  9.9987280E+02;  1.0000000E-01; -1.0537974E+02;3; -1.9240119E+00;  0.0000000E+00;  1.0202944E-01;0; -1.8004119E-02;  3.9993160E+04;  0.0000000E+00; -6.8258896E-02;  4.0000000E+04;  0.0000000E+00;  3.9998836E+04; -2.4000878E-02;  0.0000000E+00;  5.9967590E-03;  1.4326689E+02;
  3.7172046E-01;  9.9999998E-03;  1.3998146E-01;4747; -5.9121433E-03;  0.0000000E+00;  9.5335458E-04;  9.9985461E+02;  1.0000000E-01; -1.2044104E+02;3; -1.8947084E+00;  0.0000000E+00;  1.0757381E-01;0; -1.8247679E-02;  3.9992082E+04;  0.0000000E+00; -1.0975578E-01;  4.0000000E+04;  0.0000000E+00;  3.9998617E+04; -2.4153102E-02;  0.0000000E+00;  5.9054242E-03;  2.2996088E+02;
  3.7168640E-01;  9.9999998E-03;  1.4998157E-01;4748; -5.9582577E-03;  0.0000000E+00;  9.9724904E-04;  9.9982910E+02;  1.0000000E-01; -1.4157625E+02;3; -1.8649743E+00;  0.0000000E+00;  1.1258781E-01;0; -1.8480338E-02;  3.9990094E+04;  0.0000000E+00; -1.4410056E-01;  4.0000000E+04;  0.0000000E+00;  3.9998789E+04; -2.4323586E-02;  0.0000000E+00;  5.8432491E-03;  2.6791382E+02;
  3.7164676E-01;  9.9999998E-03;  1.5998590E-01;4749; -6.0074711E-03;  0.0000000E+00;  1.0414110E-03;  9.9978339E+02;  1.0000000E-01; -1.7945172E+02;3; -1.8350571E+00;  0.0000000E+00;  1.1743991E-01;0; -1.8695042E-02;  3.9986066E+04;  0.0000000E+00; -1.6264173E-01;  4.0000000E+04;  0.0000000E+00;  3.9999266E+04; -2.4508836E-02;  0.0000000E+00;  5.8137947E-03;  2.5499603E+02;
  3.7160543E-01;  9.9999998E-03;  1.6999492E-01;4750; -6.0585705E-03;  0.0000000E+00;  1.0872936E-03;  9.9971899E+02;  1.0000000E-01; -2.3278354E+02;3; -1.8046386E+00;  0.0000000E+00;  1.2169311E-01;0; -1.8887574E-02;  3.9980152E+04;  0.0000000E+00; -1.5853308E-01;  4.0000000E+04;  0.0000000E+00;  4.0000363E+04; -2.4704542E-02;  0.0000000E+00;  5.8169682E-03;  2.3320831E+02;
  3.7156981E-01;  9.9999998E-03;  1.8000558E-01;4751; -6.1106463E-03;  0.0000000E+00;  1.1367209E-03;  9.9963861E+02;  1.0000000E-01; -2.9939893E+02;3; -1.7745641E+00;  0.0000000E+00;  1.2644312E-01;0; -1.9056279E-02;  3.9971695E+04;  0.0000000E+00; -1.2894672E-01;  4.0000000E+04;  0.0000000E+00;  4.0001918E+04; -2.4906015E-02;  0.0000000E+00;  5.8497363E-03;  3.0384177E+02;
  3.7154686E-01;  9.9999998E-03;  1.9001508E-01;4752; -6.1631030E-03;  0.0000000E+00;  1.1897207E-03;  9.9952887E+02;  1.0000000E-01; -3.9030994E+02;3; -1.7446579E+00;  0.0000000E+00;  1.2925276E-01;0; -1.9201096E-02;  3.9961355E+04;  0.0000000E+00; -7.5924337E-02;  4.0000000E+04;  0.0000000E+00;  4.0003539E+04; -2.5108526E-02;  0.0000000E+00;  5.9074285E-03;  4.7274127E+02;
  3.7153772E-01;  9.9999998E-03;  2.0002332E-01;4753; -6.2162736E-03;  0.0000000E+00;  1.2448096E-03;  9.9938953E+02;  1.0000000E-01; -5.0576349E+02;3; -1.7158297E+00;  0.0000000E+00;  1.3108444E-01;0; -1.9322922E-02;  3.9948770E+04;  0.0000000E+00; -5.8525410E-03;  4.0000000E+04;  0.0000000E+00;  4.0004902E+04; -2.5307575E-02;  0.0000000E+00;  5.9846533E-03;  6.5362952E+02;
  3.7153959E-01;  9.9999998E-03;  2.1002842E-01;4754; -6.2716231E-03;  0.0000000E+00;  1.2945313E-03;  9.9922168E+02;  1.0000000E-01; -6.4482129E+02;3; -1.6879165E+00;  0.0000000E+00;  1.3230956E-01;0; -1.9431515E-02;  3.9934902E+04;  0.0000000E+00;  7.1996503E-02;  4.0000000E+04;  0.0000000E+00;  4.0005902E+04; -2.5499450E-02;  0.0000000E+00;  6.0679349E-03;  7.8159375E+02;
  3.7154612E-01;  9.9999998E-03;  2.2002448E-01;4755; -6.3303011E-03;  0.0000000E+00;  1.3329602E-03;  9.9904370E+02;  1.0000000E-01; -7.9227386E+02;3; -1.6612049E+00;  0.0000000E+00;  1.3026184E-01;0; -1.9557593E-02;  3.9919199E+04;  0.0000000E+00;  1.4694394E-01;  4.0000000E+04;  0.0000000E+00;  4.0006457E+04; -2.5681226E-02;  0.0000000E+00;  6.1236317E-03;  9.1653815E+02;
  3.7155068E-01;  9.9999998E-03;  2.3001057E-01;4756; -6.3915974E-03;  0.0000000E+00;  1.3914951E-03;  9.9887354E+02;  1.0000000E-01; -9.3325757E+02;3; -1.6348393E+00;  0.0000000E+00;  1.2520771E-01;0; -1.9664105E-02;  3.9903449E+04;  0.0000000E+00;  2.0834836E-01;  4.0000000E+04;  0.0000000E+00;  4.0008934E+04; -2.5851274E-02;  0.0000000E+00;  6.1871689E-03;  1.2483701E+03;
  3.8171539E-01;  9.9999998E-03;  7.0001975E-02;4801; -5.9526004E-03;  0.0000000E+00;  5.5132620E-04;  9.9992133E+02;  1.0000000E-01; -6.5183342E+01;3; -2.1042647E+00;  0.0000000E+00;  5.8879420E-02;0; -1.6894741E-02;  3.9991500E+04;  0.0000000E+00;  5.8496229E-02;  4.0000000E+04;  0.0000000E+00;  4.0003785E+04; -2.4290632E-02;  0.0000000E+00;  7.3958915E-03;  4.8724225E+02;
  3.8173726E-01;  9.9999998E-03;  8.0001444E-02;4802; -5.9686988E-03;  0.0000000E+00;  6.3961936E-04;  9.9989404E+02;  1.0000000E-01; -8.7799988E+01;3; -2.0822694E+00;  0.0000000E+00;  6.7195132E-02;0; -1.7053079E-02;  3.9990070E+04;  0.0000000E+00;  6.6559359E-02;  4.0000000E+04;  0.0000000E+00;  4.0003320E+04; -2.4326630E-02;  0.0000000E+00;  7.2735520E-03;  4.4786655E+02;
  3.8176328E-01;  9.9999998E-03;  8.9999758E-02;4803; -5.9873853E-03;  0.0000000E+00;  7.2405697E-04;  9.9987689E+02;  1.0000000E-01; -1.0197243E+02;3; -2.0583420E+00;  0.0000000E+00;  7.4925974E-02;0; -1.7239064E-02;  3.9989121E+04;  0.0000000E+00;  6.9156043E-02;  4.0000000E+04;  0.0000000E+00;  4.0002699E+04; -2.4372781E-02;  0.0000000E+00;  7.1337163E-03;  3.7934604E+02;
  3.8178700E-01;  9.9999998E-03;  9.9996082E-02;4804; -6.0093794E-03;  0.0000000E+00;  8.0241158E-04;  9.9986292E+02;  1.0000000E-01; -1.1357703E+02;3; -2.0323706E+00;  0.0000000E+00;  8.2311958E-02;0; -1.7448766E-02;  3.9988613E+04;  0.0000000E+00;  6.4139158E-02;  4.0000000E+04;  0.0000000E+00;  4.0002082E+04; -2.4430901E-02;  0.0000000E+00;  6.9821347E-03;  2.8608243E+02;
  3.8180056E-01;  9.9999998E-03;  1.0999042E-01;4805; -6.0354061E-03;  0.0000000E+00;  8.7350421E-04;  9.9985175E+02;  1.0000000E-01; -1.2281134E+02;3; -2.0050294E+00;  0.0000000E+00;  8.9901783E-02;0; -1.7676516E-02;  3.9988434E+04;  0.0000000E+00;  5.0056882E-02;  4.0000000E+04;  0.0000000E+00;  4.0001102E+04; -2.4502549E-02;  0.0000000E+00;  6.8260343E-03;  1.7664119E+02;
  3.8180333E-01;  9.9999998E-03;  1.1998340E-01;4806; -6.0662972E-03;  0.0000000E+00;  9.3746663E-04;  9.9983783E+02;  1.0000000E-01; -1.3436658E+02;3; -1.9765096E+00;  0.0000000E+00;  9.7502016E-02;0; -1.7915694E-02;  3.9988090E+04;  0.0000000E+00;  2.6761744E-02;  4.0000000E+04;  0.0000000E+00;  4.0000098E+04; -2.4589377E-02;  0.0000000E+00;  6.6736820E-03;  6.3646828E+01;
  3.8179705E-01;  9.9999998E-03;  1.2997636E-01;4807; -6.1025061E-03;  0.0000000E+00;  9.9478394E-04;  9.9982037E+02;  1.0000000E-01; -1.4883530E+02;3; -1.9468259E+00;  0.0000000E+00;  1.0474481E-01;0; -1.8158890E-02;  3.9987520E+04;  0.0000000E+00; -4.0025320E-03;  4.0000000E+04;  0.0000000E+00;  3.9999262E+04; -2.4692290E-02;  0.0000000E+00;  6.5333997E-03;  4.4928642E+01;
  3.8178200E-01;  9.9999998E-03;  1.3997047E-01;4808; -6.1440077E-03;  0.0000000E+00;  1.0468323E-03;  9.9979266E+02;  1.0000000E-01; -1.7179761E+02;3; -1.9162791E+00;  0.0000000E+00;  1.1072747E-01;0; -1.8398244E-02;  3.9986309E+04;  0.0000000E+00; -3.8187310E-02;  4.0000000E+04;  0.0000000E+00;  3.9998949E+04; -2.4811011E-02;  0.0000000E+00;  6.4127678E-03;  1.2082353E+02;
  3.8175911E-01;  9.9999998E-03;  1.4996687E-01;4809; -6.1903070E-03;  0.0000000E+00;  1.0957356E-03;  9.9975537E+02;  1.0000000E-01; -2.0266093E+02;3; -1.8853636E+00;  0.0000000E+00;  1.1617423E-01;0; -1.8625975E-02;  3.9983363E+04;  0.0000000E+00; -6.9489338E-02;  4.0000000E+04;  0.0000000E+00;  3.9998586E+04; -2.4944225E-02;  0.0000000E+00;  6.3182507E-03;  1.5710115E+02;
  3.8172907E-01;  9.9999998E-03;  1.5996699E-01;4810; -6.2405039E-03;  0.0000000E+00;  1.1434669E-03;  9.9970605E+02;  1.0000000E-01; -2.4354866E+02;3; -1.8540591E+00;  0.0000000E+00;  1.2065943E-01;0; -1.8835286E-02;  3.9979176E+04;  0.0000000E+00; -9.0623640E-02;  4.0000000E+04;  0.0000000E+00;  3.9999168E+04; -2.5089314E-02;  0.0000000E+00;  6.2540285E-03;  1.4868669E+02;
  3.8169208E-01;  9.9999998E-03;  1.6997160E-01;4811; -6.2934444E-03;  0.0000000E+00;  1.1917197E-03;  9.9964276E+02;  1.0000000E-01; -2.9594226E+02;3; -1.8225026E+00;  0.0000000E+00;  1.2500952E-01;0; -1.9021986E-02;  3.9972828E+04;  0.0000000E+00; -9.5667303E-02;  4.0000000E+04;  0.0000000E+00;  4.0000125E+04; -2.5242887E-02;  0.0000000E+00;  6.2209014E-03;  1.5027983E+02;
  3.8165185E-01;  9.9999998E-03;  1.7998014E-01;4812; -6.3480241E-03;  0.0000000E+00;  1.2422582E-03;  9.9955371E+02;  1.0000000E-01; -3.6971793E+02;3; -1.7912594E+00;  0.0000000E+00;  1.2916709E-01;0; -1.9184764E-02;  3.9964656E+04;  0.0000000E+00; -8.1939556E-02;  4.0000000E+04;  0.0000000E+00;  4.0001773E+04; -2.5401190E-02;  0.0000000E+00;  6.2164245E-03;  2.7707196E+02;
  3.8161659E-01;  9.9999998E-03;  1.8999068E-01;4813; -6.4036879E-03;  0.0000000E+00;  1.2977050E-03;  9.9945148E+02;  1.0000000E-01; -4.5445627E+02;3; -1.7601523E+00;  0.0000000E+00;  1.3134865E-01;0; -1.9324012E-02;  3.9954590E+04;  0.0000000E+00; -5.0591931E-02;  4.0000000E+04;  0.0000000E+00;  4.0003520E+04; -2.5560619E-02;  0.0000000E+00;  6.2366063E-03;  4.9288507E+02;
  3.8159102E-01;  9.9999998E-03;  2.0000130E-01;4814; -6.4605824E-03;  0.0000000E+00;  1.3575605E-03;  9.9932861E+02;  1.0000000E-01; -5.5623120E+02;3; -1.7297883E+00;  0.0000000E+00;  1.3334575E-01;0; -1.9440241E-02;  3.9942805E+04;  0.0000000E+00; -6.2352894E-03;  4.0000000E+04;  0.0000000E+00;  4.0005363E+04; -2.5717534E-02;  0.0000000E+00;  6.2772934E-03;  7.2310370E+02;
  3.8157395E-01;  9.9999998E-03;  2.1000929E-01;4815; -6.5195253E-03;  0.0000000E+00;  1.4182371E-03;  9.9918268E+02;  1.0000000E-01; -6.7711664E+02;3; -1.6996391E+00;  0.0000000E+00;  1.3115288E-01;0; -1.9536350E-02;  3.9929566E+04;  0.0000000E+00;  4.4133492E-02;  4.0000000E+04;  0.0000000E+00;  4.0006832E+04; -2.5868731E-02;  0.0000000E+00;  6.3323802E-03;  9.1291260E+02;
  3.8156179E-01;  9.9999998E-03;  2.2000952E-01;4816; -6.5821046E-03;  0.0000000E+00;  1.4773341E-03;  9.9902051E+02;  1.0000000E-01; -8.1148322E+02;3; -1.6704302E+00;  0.0000000E+00;  1.2595256E-01;0; -1.9621214E-02;  3.9915062E+04;  0.0000000E+00;  9.2425831E-02;  4.0000000E+04;  0.0000000E+00;  4.0008039E+04; -2.6011793E-02;  0.0000000E+00;  6.3905795E-03;  1.1019597E+03;
  3.8155019E-01;  9.9999998E-03;  2.3000167E-01;4817; -6.6474229E-03;  0.0000000E+00;  1.5572153E-03;  9.9886475E+02;  1.0000000E-01; -9.4051660E+02;3; -1.6415211E+00;  0.0000000E+00;  1.1422697E-01;0; -1.9642573E-02;  3.9899977E+04;  0.0000000E+00;  1.3069716E-01;  4.0000000E+04;  0.0000000E+00;  4.0010742E+04; -2.6145248E-02;  0.0000000E+00;  6.5026744E-03;  1.4225413E+03;
  3.9176208E-01;  9.9999998E-03;  6.9995150E-02;4862; -6.1930157E-03;  0.0000000E+00;  5.8696716E-04;  9.9983655E+02;  1.0000000E-01; -1.3540358E+02;3; -2.1317644E+00;  0.0000000E+00;  5.9502471E-02;0; -1.7102007E-02;  3.9984836E+04;  0.0000000E+00;  6.5877058E-02;  4.0000000E+04;  0.0000000E+00;  4.0003250E+04; -2.5129696E-02;  0.0000000E+00;  8.0276886E-03;  4.3241519E+02;
  3.9178646E-01;  9.9999998E-03;  7.9994217E-02;4863; -6.2123439E-03;  0.0000000E+00;  6.8113051E-04;  9.9982874E+02;  1.0000000E-01; -1.4187253E+02;3; -2.1091967E+00;  0.0000000E+00;  6.7219421E-02;0; -1.7258512E-02;  3.9984879E+04;  0.0000000E+00;  7.8318387E-02;  4.0000000E+04;  0.0000000E+00;  4.0002875E+04; -2.5158610E-02;  0.0000000E+00;  7.9000983E-03;  4.0109311E+02;
  3.9180747E-01;  9.9999998E-03;  8.9992836E-02;4864; -6.2330626E-03;  0.0000000E+00;  7.7217823E-04;  9.9982556E+02;  1.0000000E-01; -1.4453912E+02;3; -2.0842986E+00;  0.0000000E+00;  7.5156398E-02;0; -1.7442254E-02;  3.9985000E+04;  0.0000000E+00;  8.7202944E-02;  4.0000000E+04;  0.0000000E+00;  4.0002656E+04; -2.5193645E-02;  0.0000000E+00;  7.7513899E-03;  3.5161099E+02;
  3.9182085E-01;  9.9999998E-03;  9.9990174E-02;4865; -6.2558870E-03;  0.0000000E+00;  8.5804967E-04;  9.9982880E+02;  1.0000000E-01; -1.4182315E+02;3; -2.0572572E+00;  0.0000000E+00;  8.2753353E-02;0; -1.7649252E-02;  3.9985289E+04;  0.0000000E+00;  9.0512127E-02;  4.0000000E+04;  0.0000000E+00;  4.0002059E+04; -2.5236066E-02;  0.0000000E+00;  7.5868140E-03;  2.8687509E+02;
  3.9182574E-01;  9.9999998E-03;  1.0998573E-01;4866; -6.2819114E-03;  0.0000000E+00;  9.3737518E-04;  9.9982355E+02;  1.0000000E-01; -1.4616870E+02;3; -2.0285199E+00;  0.0000000E+00;  9.0976179E-02;0; -1.7873917E-02;  3.9985352E+04;  0.0000000E+00;  8.6525850E-02;  4.0000000E+04;  0.0000000E+00;  4.0001539E+04; -2.5287457E-02;  0.0000000E+00;  7.4135400E-03;  2.1247528E+02;
  3.9182347E-01;  9.9999998E-03;  1.1997984E-01;4867; -6.3121268E-03;  0.0000000E+00;  1.0092435E-03;  9.9981140E+02;  1.0000000E-01; -1.5624249E+02;3; -1.9985580E+00;  0.0000000E+00;  9.7713724E-02;0; -1.8109597E-02;  3.9985527E+04;  0.0000000E+00;  7.4340999E-02;  4.0000000E+04;  0.0000000E+00;  4.0000504E+04; -2.5349304E-02;  0.0000000E+00;  7.2397068E-03;  1.3784932E+02;
  3.9181536E-01;  9.9999998E-03;  1.2997314E-01;4868; -6.3474127E-03;  0.0000000E+00;  1.0745336E-03;  9.9979211E+02;  1.0000000E-01; -1.7224203E+02;3; -1.9675570E+00;  0.0000000E+00;  1.0482620E-01;0; -1.8349051E-02;  3.9984594E+04;  0.0000000E+00;  5.4434430E-02;  4.0000000E+04;  0.0000000E+00;  3.9999852E+04; -2.5422640E-02;  0.0000000E+00;  7.0735891E-03;  7.8509514E+01;
  3.9180315E-01;  9.9999998E-03;  1.3996676E-01;4869; -6.3881045E-03;  0.0000000E+00;  1.1340106E-03;  9.9976477E+02;  1.0000000E-01; -1.9485869E+02;3; -1.9359032E+00;  0.0000000E+00;  1.1120687E-01;0; -1.8584624E-02;  3.9982758E+04;  0.0000000E+00;  2.9170923E-02;  4.0000000E+04;  0.0000000E+00;  3.9999539E+04; -2.5507614E-02;  0.0000000E+00;  6.9229905E-03;  5.4742397E+01;
  3.9178917E-01;  9.9999998E-03;  1.4996170E-01;4870; -6.4340779E-03;  0.0000000E+00;  1.1895789E-03;  9.9972394E+02;  1.0000000E-01; -2.2873427E+02;3; -1.9037457E+00;  0.0000000E+00;  1.1639436E-01;0; -1.8808909E-02;  3.9979586E+04;  0.0000000E+00;  2.9563517E-03;  4.0000000E+04;  0.0000000E+00;  3.9999406E+04; -2.5603537E-02;  0.0000000E+00;  6.7946273E-03;  4.6964115E+01;
  3.9177209E-01;  9.9999998E-03;  1.5995896E-01;4871; -6.4847907E-03;  0.0000000E+00;  1.2431302E-03;  9.9966901E+02;  1.0000000E-01; -2.7421448E+02;3; -1.8711736E+00;  0.0000000E+00;  1.2102436E-01;0; -1.9015454E-02;  3.9974871E+04;  0.0000000E+00; -1.8741658E-02;  4.0000000E+04;  0.0000000E+00;  3.9999602E+04; -2.5708623E-02;  0.0000000E+00;  6.6931699E-03;  2.8915541E+01;
  3.9174861E-01;  9.9999998E-03;  1.6995947E-01;4872; -6.5391604E-03;  0.0000000E+00;  1.2961528E-03;  9.9959412E+02;  1.0000000E-01; -3.3628677E+02;3; -1.8381740E+00;  0.0000000E+00;  1.2511525E-01;0; -1.9199777E-02;  3.9967969E+04;  0.0000000E+00; -3.1284396E-02;  4.0000000E+04;  0.0000000E+00;  4.0000777E+04; -2.5820039E-02;  0.0000000E+00;  6.6202623E-03;  1.2093932E+02;
  3.9171985E-01;  9.9999998E-03;  1.7996377E-01;4873; -6.5962221E-03;  0.0000000E+00;  1.3511000E-03;  9.9950623E+02;  1.0000000E-01; -4.0907486E+02;3; -1.8051206E+00;  0.0000000E+00;  1.2741835E-01;0; -1.9360414E-02;  3.9959734E+04;  0.0000000E+00; -3.2238517E-02;  4.0000000E+04;  0.0000000E+00;  4.0001988E+04; -2.5934920E-02;  0.0000000E+00;  6.5745064E-03;  3.0289523E+02;
  3.9168701E-01;  9.9999998E-03;  1.8997124E-01;4874; -6.6550639E-03;  0.0000000E+00;  1.4107911E-03;  9.9940540E+02;  1.0000000E-01; -4.9262805E+02;3; -1.7725767E+00;  0.0000000E+00;  1.2973662E-01;0; -1.9497398E-02;  3.9949523E+04;  0.0000000E+00; -2.1882731E-02;  4.0000000E+04;  0.0000000E+00;  4.0003957E+04; -2.6050113E-02;  0.0000000E+00;  6.5527153E-03;  5.5021478E+02;
  3.9165387E-01;  9.9999998E-03;  1.9998056E-01;4875; -6.7155007E-03;  0.0000000E+00;  1.4764699E-03;  9.9928326E+02;  1.0000000E-01; -5.9381036E+02;3; -1.7399969E+00;  0.0000000E+00;  1.2735774E-01;0; -1.9610278E-02;  3.9937770E+04;  0.0000000E+00; -2.9796832E-03;  4.0000000E+04;  0.0000000E+00;  4.0006105E+04; -2.6163051E-02;  0.0000000E+00;  6.5527735E-03;  8.2739215E+02;
  3.9162478E-01;  9.9999998E-03;  2.0998944E-01;4876; -6.7779906E-03;  0.0000000E+00;  1.5497063E-03;  9.9914838E+02;  1.0000000E-01; -7.0556030E+02;3; -1.7074994E+00;  0.0000000E+00;  1.2272581E-01;0; -1.9693576E-02;  3.9924762E+04;  0.0000000E+00;  1.9981002E-02;  4.0000000E+04;  0.0000000E+00;  4.0008070E+04; -2.6271475E-02;  0.0000000E+00;  6.5779001E-03;  1.0860962E+03;
  3.9160049E-01;  9.9999998E-03;  2.1999416E-01;4877; -6.8436437E-03;  0.0000000E+00;  1.6271800E-03;  9.9900299E+02;  1.0000000E-01; -8.2600134E+02;3; -1.6759847E+00;  0.0000000E+00;  1.1233693E-01;0; -1.9739827E-02;  3.9911035E+04;  0.0000000E+00;  4.1695151E-02;  4.0000000E+04;  0.0000000E+00;  4.0009816E+04; -2.6373820E-02;  0.0000000E+00;  6.6339937E-03;  1.3197712E+03;
  3.9157873E-01;  9.9999998E-03;  2.2999351E-01;4878; -6.9118687E-03;  0.0000000E+00;  1.7129083E-03;  9.9884711E+02;  1.0000000E-01; -9.5513348E+02;3; -1.6451690E+00;  0.0000000E+00;  9.8320134E-02;0; -1.9720543E-02;  3.9896254E+04;  0.0000000E+00;  5.7019051E-02;  4.0000000E+04;  0.0000000E+00;  4.0011992E+04; -2.6469028E-02;  0.0000000E+00;  6.7484835E-03;  1.5844028E+03;
  4.0178895E-01;  9.9999998E-03;  6.9990747E-02;4923; -6.4463187E-03;  0.0000000E+00;  6.2093232E-04;  9.9974591E+02;  1.0000000E-01; -2.1051256E+02;3; -2.1576881E+00;  0.0000000E+00;  5.8693767E-02;0; -1.7354425E-02;  3.9977957E+04;  0.0000000E+00;  7.1141690E-02;  4.0000000E+04;  0.0000000E+00;  4.0002539E+04; -2.6016416E-02;  0.0000000E+00;  8.6619901E-03;  3.6422629E+02;
  4.0180764E-01;  9.9999998E-03;  7.9990290E-02;4924; -6.4681633E-03;  0.0000000E+00;  7.1917189E-04;  9.9976276E+02;  1.0000000E-01; -1.9653766E+02;3; -2.1342127E+00;  0.0000000E+00;  6.6001296E-02;0; -1.7506169E-02;  3.9979895E+04;  0.0000000E+00;  8.6729378E-02;  4.0000000E+04;  0.0000000E+00;  4.0002660E+04; -2.6032191E-02;  0.0000000E+00;  8.5260216E-03;  3.3790433E+02;
  4.0182123E-01;  9.9999998E-03;  8.9989915E-02;4925; -6.4907121E-03;  0.0000000E+00;  8.1549317E-04;  9.9978699E+02;  1.0000000E-01; -1.7648883E+02;3; -2.1082666E+00;  0.0000000E+00;  7.3433869E-02;0; -1.7684769E-02;  3.9981613E+04;  0.0000000E+00;  1.0030983E-01;  4.0000000E+04;  0.0000000E+00;  4.0002227E+04; -2.6051451E-02;  0.0000000E+00;  8.3666816E-03;  3.0538635E+02;
  4.0182751E-01;  9.9999998E-03;  9.9988952E-02;4926; -6.5146121E-03;  0.0000000E+00;  9.0781238E-04;  9.9979919E+02;  1.0000000E-01; -1.6636566E+02;3; -2.0804138E+00;  0.0000000E+00;  8.1072494E-02;0; -1.7886460E-02;  3.9983148E+04;  0.0000000E+00;  1.1011810E-01;  4.0000000E+04;  0.0000000E+00;  4.0001695E+04; -2.6075106E-02;  0.0000000E+00;  8.1886472E-03;  2.6841016E+02;
  4.0182665E-01;  9.9999998E-03;  1.0998678E-01;4927; -6.5408931E-03;  0.0000000E+00;  9.9445181E-04;  9.9980804E+02;  1.0000000E-01; -1.5900784E+02;3; -2.0505941E+00;  0.0000000E+00;  8.7949358E-02;0; -1.8105943E-02;  3.9984258E+04;  0.0000000E+00;  1.1438450E-01;  4.0000000E+04;  0.0000000E+00;  4.0001387E+04; -2.6104331E-02;  0.0000000E+00;  7.9983873E-03;  2.2933994E+02;
  4.0181977E-01;  9.9999998E-03;  1.1998317E-01;4928; -6.5707569E-03;  0.0000000E+00;  1.0747680E-03;  9.9980731E+02;  1.0000000E-01; -1.5964981E+02;3; -2.0193591E+00;  0.0000000E+00;  9.5466316E-02;0; -1.8336793E-02;  3.9984734E+04;  0.0000000E+00;  1.1167849E-01;  4.0000000E+04;  0.0000000E+00;  4.0000703E+04; -2.6140235E-02;  0.0000000E+00;  7.8034415E-03;  1.9107214E+02;
  4.0180832E-01;  9.9999998E-03;  1.2997845E-01;4929; -6.6052186E-03;  0.0000000E+00;  1.1485036E-03;  9.9979663E+02;  1.0000000E-01; -1.6848906E+02;3; -1.9869640E+00;  0.0000000E+00;  1.0200402E-01;0; -1.8571904E-02;  3.9983840E+04;  0.0000000E+00;  1.0139558E-01;  4.0000000E+04;  0.0000000E+00;  4.0000320E+04; -2.6183574E-02;  0.0000000E+00;  7.6116696E-03;  1.5583240E+02;
  4.0179536E-01;  9.9999998E-03;  1.3997315E-01;4930; -6.6450369E-03;  0.0000000E+00;  1.2165807E-03;  9.9976678E+02;  1.0000000E-01; -1.9322910E+02;3; -1.9536488E+00;  0.0000000E+00;  1.0774718E-01;0; -1.8803978E-02;  3.9981777E+04;  0.0000000E+00;  8.4312662E-02;  4.0000000E+04;  0.0000000E+00;  4.0000367E+04; -2.6234671E-02;  0.0000000E+00;  7.4306936E-03;  1.2349563E+02;
  4.0178075E-01;  9.9999998E-03;  1.4996810E-01;4931; -6.6903662E-03;  0.0000000E+00;  1.2804735E-03;  9.9972540E+02;  1.0000000E-01; -2.2749974E+02;3; -1.9201305E+00;  0.0000000E+00;  1.1303793E-01;0; -1.9026073E-02;  3.9978078E+04;  0.0000000E+00;  6.2899798E-02;  4.0000000E+04;  0.0000000E+00;  4.0000000E+04; -2.6293088E-02;  0.0000000E+00;  7.2670146E-03;  9.4992165E+01;
  4.0176341E-01;  9.9999998E-03;  1.5996432E-01;4932; -6.7409165E-03;  0.0000000E+00;  1.3415775E-03;  9.9966571E+02;  1.0000000E-01; -2.7693045E+02;3; -1.8857813E+00;  0.0000000E+00;  1.1799853E-01;0; -1.9231761E-02;  3.9973008E+04;  0.0000000E+00;  4.0719859E-02;  4.0000000E+04;  0.0000000E+00;  4.0000297E+04; -2.6357507E-02;  0.0000000E+00;  7.1257469E-03;  1.0043862E+02;
  4.0174496E-01;  9.9999998E-03;  1.6996272E-01;4933; -6.7961575E-03;  0.0000000E+00;  1.4019334E-03;  9.9958240E+02;  1.0000000E-01; -3.4596552E+02;3; -1.8511455E+00;  0.0000000E+00;  1.2115398E-01;0; -1.9416418E-02;  3.9966148E+04;  0.0000000E+00;  2.1149607E-02;  4.0000000E+04;  0.0000000E+00;  4.0001141E+04; -2.6426215E-02;  0.0000000E+00;  7.0097973E-03;  1.9240857E+02;
  4.0172383E-01;  9.9999998E-03;  1.7996366E-01;4934; -6.8551376E-03;  0.0000000E+00;  1.4631841E-03;  9.9948792E+02;  1.0000000E-01; -4.2423492E+02;3; -1.8164753E+00;  0.0000000E+00;  1.2363594E-01;0; -1.9577883E-02;  3.9957250E+04;  0.0000000E+00;  6.4320392E-03;  4.0000000E+04;  0.0000000E+00;  4.0002449E+04; -2.6496951E-02;  0.0000000E+00;  6.9190664E-03;  3.6550891E+02;
  4.0169907E-01;  9.9999998E-03;  1.8996727E-01;4935; -6.9167591E-03;  0.0000000E+00;  1.5279455E-03;  9.9938300E+02;  1.0000000E-01; -5.1119540E+02;3; -1.7818044E+00;  0.0000000E+00;  1.2277665E-01;0; -1.9715542E-02;  3.9946363E+04;  0.0000000E+00; -2.7466591E-03;  4.0000000E+04;  0.0000000E+00;  4.0004441E+04; -2.6567280E-02;  0.0000000E+00;  6.8517383E-03;  6.0641235E+02;
  4.0167111E-01;  9.9999998E-03;  1.9997284E-01;4936; -6.9805100E-03;  0.0000000E+00;  1.5992390E-03;  9.9926154E+02;  1.0000000E-01; -6.1178516E+02;3; -1.7469581E+00;  0.0000000E+00;  1.1838216E-01;0; -1.9827697E-02;  3.9934406E+04;  0.0000000E+00; -7.2066309E-03;  4.0000000E+04;  0.0000000E+00;  4.0006602E+04; -2.6635410E-02;  0.0000000E+00;  6.8077119E-03;  8.9378180E+02;
  4.0164226E-01;  9.9999998E-03;  2.0997903E-01;4937; -7.0461193E-03;  0.0000000E+00;  1.6791280E-03;  9.9912756E+02;  1.0000000E-01; -7.2279437E+02;3; -1.7125587E+00;  0.0000000E+00;  1.1074951E-01;0; -1.9906014E-02;  3.9921309E+04;  0.0000000E+00; -8.8977329E-03;  4.0000000E+04;  0.0000000E+00;  4.0009094E+04; -2.6699850E-02;  0.0000000E+00;  6.7938352E-03;  1.1925264E+03;
  4.0161443E-01;  9.9999998E-03;  2.1998388E-01;4938; -7.1138185E-03;  0.0000000E+00;  1.7674710E-03;  9.9898523E+02;  1.0000000E-01; -8.4071698E+02;3; -1.6788175E+00;  0.0000000E+00;  9.8495893E-02;0; -1.9931488E-02;  3.9907422E+04;  0.0000000E+00; -1.0348134E-02;  4.0000000E+04;  0.0000000E+00;  4.0011066E+04; -2.6759917E-02;  0.0000000E+00;  6.8284296E-03;  1.4756090E+03;
  4.0158668E-01;  9.9999998E-03;  2.2998713E-01;4939; -7.1831313E-03;  0.0000000E+00;  1.8596919E-03;  9.9883069E+02;  1.0000000E-01; -9.6876270E+02;3; -1.6454355E+00;  0.0000000E+00;  8.2669996E-02;0; -1.9880103E-02;  3.9892996E+04;  0.0000000E+00; -1.4002993E-02;  4.0000000E+04;  0.0000000E+00;  4.0012895E+04; -2.6815265E-02;  0.0000000E+00;  6.9351629E-03;  1.7169635E+03;
  4.1179341E-01;  9.9999998E-03;  6.9989622E-02;4984; -6.7125489E-03;  0.0000000E+00;  6.5577088E-04;  9.9966968E+02;  1.0000000E-01; -2.7367126E+02;3; -2.1817586E+00;  0.0000000E+00;  5.4760512E-02;0; -1.7638281E-02;  3.9972188E+04;  0.0000000E+00;  7.3883265E-02;  4.0000000E+04;  0.0000000E+00;  4.0001988E+04; -2.6936511E-02;  0.0000000E+00;  9.2982305E-03;  2.8672672E+02;
  4.1180754E-01;  9.9999998E-03;  7.9990201E-02;4985; -6.7360732E-03;  0.0000000E+00;  7.5727765E-04;  9.9971472E+02;  1.0000000E-01; -2.3633899E+02;3; -2.1573579E+00;  0.0000000E+00;  6.2233783E-02;0; -1.7784022E-02;  3.9976043E+04;  0.0000000E+00;  9.1495246E-02;  4.0000000E+04;  0.0000000E+00;  4.0001461E+04; -2.6934389E-02;  0.0000000E+00;  9.1503663E-03;  2.6446713E+02;
  4.1181576E-01;  9.9999998E-03;  8.9991085E-02;4986; -6.7599537E-03;  0.0000000E+00;  8.5755467E-04;  9.9975793E+02;  1.0000000E-01; -2.0053754E+02;3; -2.1305652E+00;  0.0000000E+00;  7.0034809E-02;0; -1.7956175E-02;  3.9979656E+04;  0.0000000E+00;  1.0816816E-01;  4.0000000E+04;  0.0000000E+00;  4.0001301E+04; -2.6933977E-02;  0.0000000E+00;  8.9778025E-03;  2.4795068E+02;
  4.1181806E-01;  9.9999998E-03;  9.9991873E-02;4987; -6.7847916E-03;  0.0000000E+00;  9.5517049E-04;  9.9979407E+02;  1.0000000E-01; -1.7061246E+02;3; -2.1014366E+00;  0.0000000E+00;  7.6809458E-02;0; -1.8151375E-02;  3.9982504E+04;  0.0000000E+00;  1.2234399E-01;  4.0000000E+04;  0.0000000E+00;  4.0001004E+04; -2.6936052E-02;  0.0000000E+00;  8.7846778E-03;  2.3660988E+02;
  4.1181317E-01;  9.9999998E-03;  1.0999201E-01;4988; -6.8115238E-03;  0.0000000E+00;  1.0486440E-03;  9.9981293E+02;  1.0000000E-01; -1.5500797E+02;3; -2.0703509E+00;  0.0000000E+00;  8.3503693E-02;0; -1.8364716E-02;  3.9984625E+04;  0.0000000E+00;  1.3227434E-01;  4.0000000E+04;  0.0000000E+00;  4.0001047E+04; -2.6941232E-02;  0.0000000E+00;  8.5765161E-03;  2.2819154E+02;
  4.1180283E-01;  9.9999998E-03;  1.1999087E-01;4989; -6.8412800E-03;  0.0000000E+00;  1.1367332E-03;  9.9982574E+02;  1.0000000E-01; -1.4439098E+02;3; -2.0378666E+00;  0.0000000E+00;  8.9920871E-02;0; -1.8590100E-02;  3.9985480E+04;  0.0000000E+00;  1.3620852E-01;  4.0000000E+04;  0.0000000E+00;  4.0000852E+04; -2.6950154E-02;  0.0000000E+00;  8.3600534E-03;  2.1940236E+02;
  4.1178989E-01;  9.9999998E-03;  1.2998843E-01;4990; -6.8752761E-03;  0.0000000E+00;  1.2194177E-03;  9.9981604E+02;  1.0000000E-01; -1.5239075E+02;3; -2.0040359E+00;  0.0000000E+00;  9.6257083E-02;0; -1.8820921E-02;  3.9985000E+04;  0.0000000E+00;  1.3276550E-01;  4.0000000E+04;  0.0000000E+00;  4.0000684E+04; -2.6963398E-02;  0.0000000E+00;  8.1424769E-03;  2.0739137E+02;
  4.1177404E-01;  9.9999998E-03;  1.3998510E-01;4991; -6.9143646E-03;  0.0000000E+00;  1.2968347E-03;  9.9979187E+02;  1.0000000E-01; -1.7243956E+02;3; -1.9693410E+00;  0.0000000E+00;  1.0277836E-01;0; -1.9050188E-02;  3.9982762E+04;  0.0000000E+00;  1.2141979E-01;  4.0000000E+04;  0.0000000E+00;  4.0000488E+04; -2.6980754E-02;  0.0000000E+00;  7.9305647E-03;  1.9215863E+02;
  4.1175604E-01;  9.9999998E-03;  1.4998147E-01;4992; -6.9589973E-03;  0.0000000E+00;  1.3700628E-03;  9.9974713E+02;  1.0000000E-01; -2.0947556E+02;3; -1.9342288E+00;  0.0000000E+00;  1.0696404E-01;0; -1.9271372E-02;  3.9979090E+04;  0.0000000E+00;  1.0298058E-01;  4.0000000E+04;  0.0000000E+00;  4.0000582E+04; -2.7001852E-02;  0.0000000E+00;  7.7304807E-03;  1.8222229E+02;
  4.1173756E-01;  9.9999998E-03;  1.5997820E-01;4993; -7.0092366E-03;  0.0000000E+00;  1.4405525E-03;  9.9968036E+02;  1.0000000E-01; -2.6483203E+02;3; -1.8981096E+00;  0.0000000E+00;  1.1099081E-01;0; -1.9478193E-02;  3.9973211E+04;  0.0000000E+00;  7.9365261E-02;  4.0000000E+04;  0.0000000E+00;  4.0001215E+04; -2.7025903E-02;  0.0000000E+00;  7.5477106E-03;  2.0314882E+02;
  4.1171822E-01;  9.9999998E-03;  1.6997595E-01;4994; -7.0647411E-03;  0.0000000E+00;  1.5094896E-03;  9.9959589E+02;  1.0000000E-01; -3.3480536E+02;3; -1.8616742E+00;  0.0000000E+00;  1.1410325E-01;0; -1.9665547E-02;  3.9965637E+04;  0.0000000E+00;  5.2922182E-02;  4.0000000E+04;  0.0000000E+00;  4.0001957E+04; -2.7051682E-02;  0.0000000E+00;  7.3861345E-03;  2.8578018E+02;
  4.1169819E-01;  9.9999998E-03;  1.7997520E-01;4995; -7.1247490E-03;  0.0000000E+00;  1.5780956E-03;  9.9949646E+02;  1.0000000E-01; -4.1717340E+02;3; -1.8248293E+00;  0.0000000E+00;  1.1385973E-01;0; -1.9830238E-02;  3.9956098E+04;  0.0000000E+00;  2.5892563E-02;  4.0000000E+04;  0.0000000E+00;  4.0003238E+04; -2.7077688E-02;  0.0000000E+00;  7.2474494E-03;  4.3782416E+02;
  4.1167656E-01;  9.9999998E-03;  1.8997592E-01;4996; -7.1882280E-03;  0.0000000E+00;  1.6484554E-03;  9.9937903E+02;  1.0000000E-01; -5.1445459E+02;3; -1.7877450E+00;  0.0000000E+00;  1.1101717E-01;0; -1.9970786E-02;  3.9945211E+04;  0.0000000E+00;  3.4710567E-06;  4.0000000E+04;  0.0000000E+00;  4.0005008E+04; -2.7102424E-02;  0.0000000E+00;  7.1316380E-03;  6.5182104E+02;
  4.1165331E-01;  9.9999998E-03;  1.9997780E-01;4997; -7.2542578E-03;  0.0000000E+00;  1.7226643E-03;  9.9925232E+02;  1.0000000E-01; -6.1943927E+02;3; -1.7508394E+00;  0.0000000E+00;  1.0477686E-01;0; -2.0085387E-02;  3.9932742E+04;  0.0000000E+00; -2.3760088E-02;  4.0000000E+04;  0.0000000E+00;  4.0006902E+04; -2.7124899E-02;  0.0000000E+00;  7.0395106E-03;  9.1422137E+02;
  4.1162828E-01;  9.9999998E-03;  2.0997980E-01;4998; -7.3220604E-03;  0.0000000E+00;  1.8033502E-03;  9.9911505E+02;  1.0000000E-01; -7.3316443E+02;3; -1.7142527E+00;  0.0000000E+00;  9.4976462E-02;0; -2.0166717E-02;  3.9919285E+04;  0.0000000E+00; -4.5083221E-02;  4.0000000E+04;  0.0000000E+00;  4.0009062E+04; -2.7144540E-02;  0.0000000E+00;  6.9778222E-03;  1.2091554E+03;
  4.1160265E-01;  9.9999998E-03;  2.1998096E-01;4999; -7.3907333E-03;  0.0000000E+00;  1.8958263E-03;  9.9897223E+02;  1.0000000E-01; -8.5148212E+02;3; -1.6779583E+00;  0.0000000E+00;  8.1437759E-02;0; -2.0188201E-02;  3.9905262E+04;  0.0000000E+00; -6.4174674E-02;  4.0000000E+04;  0.0000000E+00;  4.0011570E+04; -2.7161364E-02;  0.0000000E+00;  6.9731623E-03;  1.5284425E+03;
  4.1157740E-01;  9.9999998E-03;  2.2998363E-01;5000; -7.4598948E-03;  0.0000000E+00;  1.9949058E-03;  9.9881812E+02;  1.0000000E-01; -9.7918219E+02;3; -1.6422760E+00;  0.0000000E+00;  6.1706603E-02;0; -2.0114550E-02;  3.9890949E+04;  0.0000000E+00; -8.1343487E-02;  4.0000000E+04;  0.0000000E+00;  4.0013578E+04; -2.7175797E-02;  0.0000000E+00;  7.0612472E-03;  1.7949547E+03;
  4.2180067E-01;  9.9999998E-03;  6.9991320E-02;5045; -6.9915215E-03;  0.0000000E+00;  6.9458509E-04;  9.9961572E+02;  1.0000000E-01; -3.1836136E+02;3; -2.2041483E+00;  0.0000000E+00;  4.8625667E-02;0; -1.7936867E-02;  3.9968234E+04;  0.0000000E+00;  7.3687278E-02;  4.0000000E+04;  0.0000000E+00;  4.0001137E+04; -2.7875580E-02;  0.0000000E+00;  9.9387141E-03;  2.0885280E+02;
  4.2180815E-01;  9.9999998E-03;  7.9992980E-02;5046; -7.0155002E-03;  0.0000000E+00;  7.9873181E-04;  9.9968091E+02;  1.0000000E-01; -2.6433820E+02;3; -2.1788330E+00;  0.0000000E+00;  5.5434957E-02;0; -1.8077143E-02;  3.9973910E+04;  0.0000000E+00;  9.2120968E-02;  4.0000000E+04;  0.0000000E+00;  4.0000945E+04; -2.7851386E-02;  0.0000000E+00;  9.7742435E-03;  1.9275441E+02;
  4.2181131E-01;  9.9999998E-03;  8.9994982E-02;5047; -7.0399693E-03;  0.0000000E+00;  9.0243877E-04;  9.9974475E+02;  1.0000000E-01; -2.1145081E+02;3; -2.1509852E+00;  0.0000000E+00;  6.2386531E-02;0; -1.8243294E-02;  3.9979039E+04;  0.0000000E+00;  1.1017393E-01;  4.0000000E+04;  0.0000000E+00;  4.0000707E+04; -2.7827935E-02;  0.0000000E+00;  9.5846402E-03;  1.9253746E+02;
  4.2180756E-01;  9.9999998E-03;  9.9997126E-02;5048; -7.0653101E-03;  0.0000000E+00;  1.0046262E-03;  9.9979877E+02;  1.0000000E-01; -1.6671133E+02;3; -2.1208088E+00;  0.0000000E+00;  6.9739461E-02;0; -1.8432384E-02;  3.9983117E+04;  0.0000000E+00;  1.2639150E-01;  4.0000000E+04;  0.0000000E+00;  4.0000500E+04; -2.7805675E-02;  0.0000000E+00;  9.3732905E-03;  2.0220947E+02;
  4.2179793E-01;  9.9999998E-03;  1.0999893E-01;5049; -7.0923390E-03;  0.0000000E+00;  1.1039235E-03;  9.9983801E+02;  1.0000000E-01; -1.3421843E+02;3; -2.0883553E+00;  0.0000000E+00;  7.5906806E-02;0; -1.8639972E-02;  3.9986129E+04;  0.0000000E+00;  1.3905127E-01;  4.0000000E+04;  0.0000000E+00;  4.0000363E+04; -2.7784999E-02;  0.0000000E+00;  9.1450270E-03;  2.1448610E+02;
  4.2178476E-01;  9.9999998E-03;  1.1999989E-01;5050; -7.1222456E-03;  0.0000000E+00;  1.1995088E-03;  9.9985748E+02;  1.0000000E-01; -1.1807073E+02;3; -2.0543258E+00;  0.0000000E+00;  8.2237564E-02;0; -1.8860560E-02;  3.9987727E+04;  0.0000000E+00;  1.4625446E-01;  4.0000000E+04;  0.0000000E+00;  4.0000625E+04; -2.7766161E-02;  0.0000000E+00;  8.9055998E-03;  2.2386627E+02;
  4.2176861E-01;  9.9999998E-03;  1.2999967E-01;5051; -7.1560610E-03;  0.0000000E+00;  1.2908024E-03;  9.9985455E+02;  1.0000000E-01; -1.2049042E+02;3; -2.0190051E+00;  0.0000000E+00;  8.7977722E-02;0; -1.9087899E-02;  3.9987344E+04;  0.0000000E+00;  1.4617206E-01;  4.0000000E+04;  0.0000000E+00;  4.0000832E+04; -2.7748959E-02;  0.0000000E+00;  8.6610606E-03;  2.2790105E+02;
  4.2175058E-01;  9.9999998E-03;  1.3999839E-01;5052; -7.1947072E-03;  0.0000000E+00;  1.3777725E-03;  9.9983191E+02;  1.0000000E-01; -1.3925533E+02;3; -1.9825187E+00;  0.0000000E+00;  9.2909656E-02;0; -1.9315623E-02;  3.9985121E+04;  0.0000000E+00;  1.3744465E-01;  4.0000000E+04;  0.0000000E+00;  4.0000668E+04; -2.7732991E-02;  0.0000000E+00;  8.4173679E-03;  2.2886880E+02;
  4.2173222E-01;  9.9999998E-03;  1.4999644E-01;5053; -7.2388905E-03;  0.0000000E+00;  1.4609124E-03;  9.9978503E+02;  1.0000000E-01; -1.7811842E+02;3; -1.9454644E+00;  0.0000000E+00;  9.7325869E-02;0; -1.9537613E-02;  3.9981223E+04;  0.0000000E+00;  1.1969196E-01;  4.0000000E+04;  0.0000000E+00;  4.0001285E+04; -2.7717633E-02;  0.0000000E+00;  8.1800194E-03;  2.3806416E+02;
  4.2171347E-01;  9.9999998E-03;  1.5999429E-01;5054; -7.2887177E-03;  0.0000000E+00;  1.5409987E-03;  9.9971356E+02;  1.0000000E-01; -2.3732661E+02;3; -1.9077920E+00;  0.0000000E+00;  9.9779792E-02;0; -1.9747641E-02;  3.9974750E+04;  0.0000000E+00;  9.3640700E-02;  4.0000000E+04;  0.0000000E+00;  4.0001781E+04; -2.7702088E-02;  0.0000000E+00;  7.9544475E-03;  2.7655978E+02;
  4.2169434E-01;  9.9999998E-03;  1.6999249E-01;5055; -7.3439796E-03;  0.0000000E+00;  1.6189186E-03;  9.9962488E+02;  1.0000000E-01; -3.1080603E+02;3; -1.8692389E+00;  0.0000000E+00;  1.0083177E-01;0; -1.9939914E-02;  3.9966637E+04;  0.0000000E+00;  6.1001968E-02;  4.0000000E+04;  0.0000000E+00;  4.0002551E+04; -2.7685510E-02;  0.0000000E+00;  7.7455947E-03;  3.6315448E+02;
  4.2167494E-01;  9.9999998E-03;  1.7999125E-01;5056; -7.4041528E-03;  0.0000000E+00;  1.6953347E-03;  9.9951471E+02;  1.0000000E-01; -4.0206271E+02;3; -1.8302058E+00;  0.0000000E+00;  9.9460699E-02;0; -2.0110022E-02;  3.9956750E+04;  0.0000000E+00;  2.4181865E-02;  4.0000000E+04;  0.0000000E+00;  4.0003812E+04; -2.7667034E-02;  0.0000000E+00;  7.5570121E-03;  5.0162750E+02;
  4.2165527E-01;  9.9999998E-03;  1.8999043E-01;5057; -7.4682706E-03;  0.0000000E+00;  1.7710620E-03;  9.9939062E+02;  1.0000000E-01; -5.0487460E+02;3; -1.7908384E+00;  0.0000000E+00;  9.4454587E-02;0; -2.0255484E-02;  3.9945023E+04;  0.0000000E+00; -1.4152311E-02;  4.0000000E+04;  0.0000000E+00;  4.0005184E+04; -2.7646234E-02;  0.0000000E+00;  7.3907501E-03;  6.8567139E+02;
  4.2163512E-01;  9.9999998E-03;  1.9998938E-01;5058; -7.5352648E-03;  0.0000000E+00;  1.8467528E-03;  9.9925433E+02;  1.0000000E-01; -6.1776031E+02;3; -1.7517666E+00;  0.0000000E+00;  8.6228587E-02;0; -2.0374607E-02;  3.9932266E+04;  0.0000000E+00; -5.1543947E-02;  4.0000000E+04;  0.0000000E+00;  4.0006711E+04; -2.7622888E-02;  0.0000000E+00;  7.2482810E-03;  9.0831244E+02;
  4.2161477E-01;  9.9999998E-03;  2.0998710E-01;5059; -7.6038442E-03;  0.0000000E+00;  1.9254033E-03;  9.9911047E+02;  1.0000000E-01; -7.3696680E+02;3; -1.7127382E+00;  0.0000000E+00;  7.6099806E-02;0; -2.0462599E-02;  3.9918391E+04;  0.0000000E+00; -8.6029619E-02;  4.0000000E+04;  0.0000000E+00;  4.0008930E+04; -2.7597437E-02;  0.0000000E+00;  7.1348371E-03;  1.1741233E+03;
  4.2159522E-01;  9.9999998E-03;  2.1998328E-01;5060; -7.6725786E-03;  0.0000000E+00;  2.0157872E-03;  9.9896124E+02;  1.0000000E-01; -8.6056824E+02;3; -1.6740007E+00;  0.0000000E+00;  6.0553715E-02;0; -2.0492679E-02;  3.9904133E+04;  0.0000000E+00; -1.1627059E-01;  4.0000000E+04;  0.0000000E+00;  4.0011168E+04; -2.7570736E-02;  0.0000000E+00;  7.0780567E-03;  1.5082170E+03;
  4.2157835E-01;  9.9999998E-03;  2.2998320E-01;5061; -7.7409232E-03;  0.0000000E+00;  2.1177977E-03;  9.9881201E+02;  1.0000000E-01; -9.8421906E+02;3; -1.6367146E+00;  0.0000000E+00;  4.0140517E-02;0; -2.0415369E-02;  3.9889840E+04;  0.0000000E+00; -1.4140955E-01;  4.0000000E+04;  0.0000000E+00;  4.0013695E+04; -2.7543921E-02;  0.0000000E+00;  7.1285525E-03;  1.8079711E+03;
  4.3181700E-01;  9.9999998E-03;  6.9994859E-02;5106; -7.2818780E-03;  0.0000000E+00;  7.3980418E-04;  9.9958368E+02;  1.0000000E-01; -3.4492853E+02;3; -2.2244182E+00;  0.0000000E+00;  3.9725106E-02;0; -1.8232914E-02;  3.9966457E+04;  0.0000000E+00;  7.0337608E-02;  4.0000000E+04;  0.0000000E+00;  4.0000594E+04; -2.8817955E-02;  0.0000000E+00;  1.0585042E-02;  1.4297095E+02;
  4.3181697E-01;  9.9999998E-03;  7.9997502E-02;5107; -7.3051550E-03;  0.0000000E+00;  8.4676436E-04;  9.9967126E+02;  1.0000000E-01; -2.7233798E+02;3; -2.1981680E+00;  0.0000000E+00;  4.5670055E-02;0; -1.8370088E-02;  3.9973664E+04;  0.0000000E+00;  8.8199973E-02;  4.0000000E+04;  0.0000000E+00;  4.0000242E+04; -2.8768772E-02;  0.0000000E+00;  1.0398683E-02;  1.3907193E+02;
  4.3181276E-01;  9.9999998E-03;  9.0000525E-02;5108; -7.3293126E-03;  0.0000000E+00;  9.5351430E-04;  9.9974896E+02;  1.0000000E-01; -2.0799411E+02;3; -2.1693516E+00;  0.0000000E+00;  5.2176617E-02;0; -1.8532513E-02;  3.9979758E+04;  0.0000000E+00;  1.0574825E-01;  4.0000000E+04;  0.0000000E+00;  4.0000105E+04; -2.8719645E-02;  0.0000000E+00;  1.0187132E-02;  1.5464967E+02;
  4.3180445E-01;  9.9999998E-03;  1.0000363E-01;5109; -7.3547210E-03;  0.0000000E+00;  1.0595841E-03;  9.9981494E+02;  1.0000000E-01; -1.5332899E+02;3; -2.1378779E+00;  0.0000000E+00;  5.8015570E-02;0; -1.8717680E-02;  3.9985055E+04;  0.0000000E+00;  1.2158375E-01;  4.0000000E+04;  0.0000000E+00;  4.0000055E+04; -2.8671246E-02;  0.0000000E+00;  9.9535668E-03;  1.7537868E+02;
  4.3179169E-01;  9.9999998E-03;  1.1000650E-01;5110; -7.3820227E-03;  0.0000000E+00;  1.1642593E-03;  9.9986334E+02;  1.0000000E-01; -1.1323137E+02;3; -2.1042609E+00;  0.0000000E+00;  6.3877486E-02;0; -1.8921617E-02;  3.9988613E+04;  0.0000000E+00;  1.3404436E-01;  4.0000000E+04;  0.0000000E+00;  4.0000109E+04; -2.8623605E-02;  0.0000000E+00;  9.7019877E-03;  1.9380061E+02;
  4.3177485E-01;  9.9999998E-03;  1.2000866E-01;5111; -7.4121053E-03;  0.0000000E+00;  1.2665649E-03;  9.9989441E+02;  1.0000000E-01; -8.7503700E+01;3; -2.0689621E+00;  0.0000000E+00;  6.9912426E-02;0; -1.9139282E-02;  3.9990430E+04;  0.0000000E+00;  1.4124319E-01;  4.0000000E+04;  0.0000000E+00;  4.0000023E+04; -2.8576283E-02;  0.0000000E+00;  9.4370004E-03;  2.0769199E+02;
  4.3175587E-01;  9.9999998E-03;  1.3000986E-01;5112; -7.4459491E-03;  0.0000000E+00;  1.3659678E-03;  9.9989435E+02;  1.0000000E-01; -8.7553078E+01;3; -2.0318754E+00;  0.0000000E+00;  7.5112544E-02;0; -1.9365029E-02;  3.9990215E+04;  0.0000000E+00;  1.4125305E-01;  4.0000000E+04;  0.0000000E+00;  4.0000555E+04; -2.8528659E-02;  0.0000000E+00;  9.1636293E-03;  2.1809741E+02;
  4.3173647E-01;  9.9999998E-03;  1.4001015E-01;5113; -7.4844537E-03;  0.0000000E+00;  1.4618563E-03;  9.9987109E+02;  1.0000000E-01; -1.0681179E+02;3; -1.9935106E+00;  0.0000000E+00;  7.9997346E-02;0; -1.9593162E-02;  3.9987945E+04;  0.0000000E+00;  1.3237628E-01;  4.0000000E+04;  0.0000000E+00;  4.0000996E+04; -2.8479915E-02;  0.0000000E+00;  8.8867527E-03;  2.3055424E+02;
  4.3171751E-01;  9.9999998E-03;  1.5000963E-01;5114; -7.5282231E-03;  0.0000000E+00;  1.5542320E-03;  9.9982593E+02;  1.0000000E-01; -1.4419345E+02;3; -1.9543324E+00;  0.0000000E+00;  8.3055913E-02;0; -1.9817989E-02;  3.9983555E+04;  0.0000000E+00;  1.1360570E-01;  4.0000000E+04;  0.0000000E+00;  4.0001375E+04; -2.8428962E-02;  0.0000000E+00;  8.6109741E-03;  2.5778430E+02;
  4.3169972E-01;  9.9999998E-03;  1.6000865E-01;5115; -7.5774998E-03;  0.0000000E+00;  1.6435758E-03;  9.9975537E+02;  1.0000000E-01; -2.0266093E+02;3; -1.9144362E+00;  0.0000000E+00;  8.4108382E-02;0; -2.0033298E-02;  3.9977254E+04;  0.0000000E+00;  8.4975354E-02;  4.0000000E+04;  0.0000000E+00;  4.0002148E+04; -2.8374920E-02;  0.0000000E+00;  8.3416216E-03;  3.1583972E+02;
  4.3168283E-01;  9.9999998E-03;  1.7000756E-01;5116; -7.6321042E-03;  0.0000000E+00;  1.7300994E-03;  9.9966052E+02;  1.0000000E-01; -2.8122662E+02;3; -1.8737832E+00;  0.0000000E+00;  8.3781265E-02;0; -2.0232573E-02;  3.9968758E+04;  0.0000000E+00;  4.7895517E-02;  4.0000000E+04;  0.0000000E+00;  4.0002945E+04; -2.8317165E-02;  0.0000000E+00;  8.0845905E-03;  4.1303992E+02;
  4.3166673E-01;  9.9999998E-03;  1.8000631E-01;5117; -7.6915408E-03;  0.0000000E+00;  1.8139438E-03;  9.9954761E+02;  1.0000000E-01; -3.7480423E+02;3; -1.8326175E+00;  0.0000000E+00;  8.1130154E-02;0; -2.0410188E-02;  3.9958578E+04;  0.0000000E+00;  4.9950066E-03;  4.0000000E+04;  0.0000000E+00;  4.0004109E+04; -2.8255405E-02;  0.0000000E+00;  7.8452164E-03;  5.4640118E+02;
  4.3165126E-01;  9.9999998E-03;  1.9000447E-01;5118; -7.7550937E-03;  0.0000000E+00;  1.8943816E-03;  9.9941034E+02;  1.0000000E-01; -4.8852939E+02;3; -1.7910922E+00;  0.0000000E+00;  7.4404404E-02;0; -2.0562340E-02;  3.9946453E+04;  0.0000000E+00; -4.0381294E-02;  4.0000000E+04;  0.0000000E+00;  4.0005320E+04; -2.8189998E-02;  0.0000000E+00;  7.6276585E-03;  7.0796185E+02;
  4.3163604E-01;  9.9999998E-03;  2.0000131E-01;5119; -7.8214966E-03;  0.0000000E+00;  1.9715198E-03;  9.9926398E+02;  1.0000000E-01; -6.0976056E+02;3; -1.7496451E+00;  0.0000000E+00;  6.4812340E-02;0; -2.0687146E-02;  3.9933434E+04;  0.0000000E+00; -8.4850676E-02;  4.0000000E+04;  0.0000000E+00;  4.0006434E+04; -2.8121697E-02;  0.0000000E+00;  7.4345507E-03;  8.9458405E+02;
  4.3162185E-01;  9.9999998E-03;  2.0999564E-01;5120; -7.8894384E-03;  0.0000000E+00;  2.0478819E-03;  9.9911700E+02;  1.0000000E-01; -7.3153485E+02;3; -1.7083310E+00;  0.0000000E+00;  5.2987050E-02;0; -2.0782022E-02;  3.9919266E+04;  0.0000000E+00; -1.2551947E-01;  4.0000000E+04;  0.0000000E+00;  4.0008199E+04; -2.8051842E-02;  0.0000000E+00;  7.2698207E-03;  1.1270143E+03;
  4.3160954E-01;  9.9999998E-03;  2.1998796E-01;5121; -7.9571260E-03;  0.0000000E+00;  2.1339133E-03;  9.9896753E+02;  1.0000000E-01; -8.5538324E+02;3; -1.6673582E+00;  0.0000000E+00;  3.6474641E-02;0; -2.0823482E-02;  3.9905098E+04;  0.0000000E+00; -1.6028202E-01;  4.0000000E+04;  0.0000000E+00;  4.0010730E+04; -2.7982192E-02;  0.0000000E+00;  7.1587088E-03;  1.4516162E+03;
  4.3160009E-01;  9.9999998E-03;  2.2998524E-01;5122; -8.0239382E-03;  0.0000000E+00;  2.2317537E-03;  9.9882092E+02;  1.0000000E-01; -9.7686127E+02;3; -1.6284219E+00;  0.0000000E+00;  1.4606440E-02;0; -2.0762356E-02;  3.9890605E+04;  0.0000000E+00; -1.8778397E-01;  4.0000000E+04;  0.0000000E+00;  4.0012953E+04; -2.7914405E-02;  0.0000000E+00;  7.1520484E-03;  1.7603932E+03;
  4.4183043E-01;  9.9999998E-03;  6.9998503E-02;5167; -7.5816475E-03;  0.0000000E+00;  7.9286942E-04;  9.9959143E+02;  1.0000000E-01; -3.3850894E+02;3; -2.2423737E+00;  0.0000000E+00;  2.8774520E-02;0; -1.8511254E-02;  3.9967207E+04;  0.0000000E+00;  6.3740157E-02;  4.0000000E+04;  0.0000000E+00;  4.0000035E+04; -2.9748971E-02;  0.0000000E+00;  1.1237716E-02;  1.0049916E+02;
  4.4182518E-01;  9.9999998E-03;  8.0002025E-02;5168; -7.6032085E-03;  0.0000000E+00;  9.0341805E-04;  9.9968463E+02;  1.0000000E-01; -2.6127655E+02;3; -2.2151334E+00;  0.0000000E+00;  3.3995192E-02;0; -1.8649343E-02;  3.9974820E+04;  0.0000000E+00;  7.9483189E-02;  4.0000000E+04;  0.0000000E+00;  3.9999672E+04; -2.9673457E-02;  0.0000000E+00;  1.1024113E-02;  1.1377917E+02;
  4.4181648E-01;  9.9999998E-03;  9.0006076E-02;5169; -7.6263542E-03;  0.0000000E+00;  1.0135235E-03;  9.9976654E+02;  1.0000000E-01; -1.9342664E+02;3; -2.1851587E+00;  0.0000000E+00;  3.9138570E-02;0; -1.8812018E-02;  3.9981582E+04;  0.0000000E+00;  9.4599232E-02;  4.0000000E+04;  0.0000000E+00;  3.9999504E+04; -2.9597519E-02;  0.0000000E+00;  1.0785501E-02;  1.3863760E+02;
  4.4180444E-01;  9.9999998E-03;  1.0001008E-01;5170; -7.6514049E-03;  0.0000000E+00;  1.1234251E-03;  9.9983960E+02;  1.0000000E-01; -1.3288513E+02;3; -2.1524830E+00;  0.0000000E+00;  4.4513412E-02;0; -1.8996991E-02;  3.9987340E+04;  0.0000000E+00;  1.0776319E-01;  4.0000000E+04;  0.0000000E+00;  3.9999797E+04; -2.9521877E-02;  0.0000000E+00;  1.0524885E-02;  1.5793394E+02;
  4.4178930E-01;  9.9999998E-03;  1.1001340E-01;5171; -7.6788110E-03;  0.0000000E+00;  1.2326232E-03;  9.9989368E+02;  1.0000000E-01; -8.8096275E+01;3; -2.1176541E+00;  0.0000000E+00;  4.9500495E-02;0; -1.9200673E-02;  3.9991234E+04;  0.0000000E+00;  1.1746544E-01;  4.0000000E+04;  0.0000000E+00;  3.9999844E+04; -2.9446479E-02;  0.0000000E+00;  1.0245806E-02;  1.6907782E+02;
  4.4177172E-01;  9.9999998E-03;  1.2001590E-01;5172; -7.7092387E-03;  0.0000000E+00;  1.3406338E-03;  9.9992450E+02;  1.0000000E-01; -6.2566132E+01;3; -2.0807719E+00;  0.0000000E+00;  5.4042060E-02;0; -1.9418584E-02;  3.9993227E+04;  0.0000000E+00;  1.2205156E-01;  4.0000000E+04;  0.0000000E+00;  3.9999992E+04; -2.9370572E-02;  0.0000000E+00;  9.9519882E-03;  1.7515364E+02;
  4.4175205E-01;  9.9999998E-03;  1.3001765E-01;5173; -7.7433903E-03;  0.0000000E+00;  1.4468355E-03;  9.9993024E+02;  1.0000000E-01; -5.7776142E+01;3; -2.0422435E+00;  0.0000000E+00;  5.8428787E-02;0; -1.9645603E-02;  3.9993453E+04;  0.0000000E+00;  1.1979979E-01;  4.0000000E+04;  0.0000000E+00;  4.0000520E+04; -2.9292848E-02;  0.0000000E+00;  9.6472446E-03;  1.8244370E+02;
  4.4173253E-01;  9.9999998E-03;  1.4001872E-01;5174; -7.7818823E-03;  0.0000000E+00;  1.5505276E-03;  9.9990906E+02;  1.0000000E-01; -7.5355896E+01;3; -2.0020523E+00;  0.0000000E+00;  6.1455414E-02;0; -1.9876681E-02;  3.9991027E+04;  0.0000000E+00;  1.0912374E-01;  4.0000000E+04;  0.0000000E+00;  4.0000676E+04; -2.9212024E-02;  0.0000000E+00;  9.3353428E-03;  2.0113017E+02;
  4.4171411E-01;  9.9999998E-03;  1.5001906E-01;5175; -7.8252750E-03;  0.0000000E+00;  1.6511575E-03;  9.9986694E+02;  1.0000000E-01; -1.1021911E+02;3; -1.9608774E+00;  0.0000000E+00;  6.3491017E-02;0; -2.0106755E-02;  3.9986562E+04;  0.0000000E+00;  8.8891640E-02;  4.0000000E+04;  0.0000000E+00;  4.0001422E+04; -2.9126635E-02;  0.0000000E+00;  9.0198787E-03;  2.4468158E+02;
  4.4169769E-01;  9.9999998E-03;  1.6001873E-01;5176; -7.8737447E-03;  0.0000000E+00;  1.7484820E-03;  9.9979047E+02;  1.0000000E-01; -1.7357533E+02;3; -1.9186660E+00;  0.0000000E+00;  6.3925959E-02;0; -2.0329535E-02;  3.9979840E+04;  0.0000000E+00;  5.8877625E-02;  4.0000000E+04;  0.0000000E+00;  4.0002270E+04; -2.9035550E-02;  0.0000000E+00;  8.7060146E-03;  3.2208826E+02;
  4.4168356E-01;  9.9999998E-03;  1.7001794E-01;5177; -7.9271393E-03;  0.0000000E+00;  1.8423103E-03;  9.9969446E+02;  1.0000000E-01; -2.5312865E+02;3; -1.8758507E+00;  0.0000000E+00;  6.1770331E-02;0; -2.0537814E-02;  3.9971113E+04;  0.0000000E+00;  2.0340228E-02;  4.0000000E+04;  0.0000000E+00;  4.0002941E+04; -2.8938279E-02;  0.0000000E+00;  8.4004644E-03;  4.3205786E+02;
  4.4167167E-01;  9.9999998E-03;  1.8001661E-01;5178; -7.9850024E-03;  0.0000000E+00;  1.9322612E-03;  9.9958142E+02;  1.0000000E-01; -3.4680499E+02;3; -1.8325735E+00;  0.0000000E+00;  5.7623964E-02;0; -2.0724732E-02;  3.9960770E+04;  0.0000000E+00; -2.4002444E-02;  4.0000000E+04;  0.0000000E+00;  4.0003816E+04; -2.8835028E-02;  0.0000000E+00;  8.1102969E-03;  5.6616699E+02;
  4.4166178E-01;  9.9999998E-03;  1.9001415E-01;5179; -8.0466848E-03;  0.0000000E+00;  2.0170945E-03;  9.9944141E+02;  1.0000000E-01; -4.6280173E+02;3; -1.7887582E+00;  0.0000000E+00;  4.9206041E-02;0; -2.0885088E-02;  3.9948801E+04;  0.0000000E+00; -7.0562109E-02;  4.0000000E+04;  0.0000000E+00;  4.0005172E+04; -2.8726848E-02;  0.0000000E+00;  7.8417612E-03;  7.1512457E+02;
  4.4165331E-01;  9.9999998E-03;  2.0000967E-01;5180; -8.1110774E-03;  0.0000000E+00;  2.0963829E-03;  9.9929669E+02;  1.0000000E-01; -5.8269958E+02;3; -1.7448826E+00;  0.0000000E+00;  3.8959458E-02;0; -2.1016113E-02;  3.9935344E+04;  0.0000000E+00; -1.1564982E-01;  4.0000000E+04;  0.0000000E+00;  4.0006293E+04; -2.8615382E-02;  0.0000000E+00;  7.5992676E-03;  8.7837744E+02;
  4.4164592E-01;  9.9999998E-03;  2.1000214E-01;5181; -8.1769172E-03;  0.0000000E+00;  2.1707849E-03;  9.9913885E+02;  1.0000000E-01; -7.1346130E+02;3; -1.7010474E+00;  0.0000000E+00;  2.5341084E-02;0; -2.1117358E-02;  3.9921496E+04;  0.0000000E+00; -1.5610403E-01;  4.0000000E+04;  0.0000000E+00;  4.0007934E+04; -2.8502828E-02;  0.0000000E+00;  7.3854700E-03;  1.0839098E+03;
  4.4163966E-01;  9.9999998E-03;  2.1999310E-01;5182; -8.2423016E-03;  0.0000000E+00;  2.2512313E-03;  9.9899213E+02;  1.0000000E-01; -8.3498871E+02;3; -1.6578302E+00;  0.0000000E+00;  8.4792804E-03;0; -2.1170681E-02;  3.9907410E+04;  0.0000000E+00; -1.8962592E-01;  4.0000000E+04;  0.0000000E+00;  4.0010262E+04; -2.8391652E-02;  0.0000000E+00;  7.2209705E-03;  1.3755624E+03;
  4.4163463E-01;  9.9999998E-03;  2.2998908E-01;5183; -8.3066449E-03;  0.0000000E+00;  2.3367985E-03;  9.9884137E+02;  1.0000000E-01; -9.5992346E+02;3; -1.6163441E+00;  0.0000000E+00; -1.3072820E-02;0; -2.1148028E-02;  3.9893266E+04;  0.0000000E+00; -2.1464917E-01;  4.0000000E+04;  0.0000000E+00;  4.0012039E+04; -2.8284155E-02;  0.0000000E+00;  7.1361274E-03;  1.6558401E+03;
  4.5183119E-01;  9.9999998E-03;  7.0000805E-02;5228; -7.8889737E-03;  0.0000000E+00;  8.5428305E-04;  9.9962048E+02;  1.0000000E-01; -3.1441086E+02;3; -2.2577116E+00;  0.0000000E+00;  1.5343352E-02;0; -1.8761927E-02;  3.9969652E+04;  0.0000000E+00;  5.3644985E-02;  4.0000000E+04;  0.0000000E+00;  3.9999844E+04; -3.0658869E-02;  0.0000000E+00;  1.1896942E-02;  7.7717827E+01;
  4.5182028E-01;  9.9999998E-03;  8.0004767E-02;5229; -7.9080397E-03;  0.0000000E+00;  9.6950552E-04;  9.9970917E+02;  1.0000000E-01; -2.4093146E+02;3; -2.2296431E+00;  0.0000000E+00;  1.8963715E-02;0; -1.8905763E-02;  3.9977062E+04;  0.0000000E+00;  6.5779321E-02;  4.0000000E+04;  0.0000000E+00;  3.9999293E+04; -3.0556541E-02;  0.0000000E+00;  1.1650777E-02;  1.0092963E+02;
  4.5180747E-01;  9.9999998E-03;  9.0009235E-02;5230; -7.9295514E-03;  0.0000000E+00;  1.0838048E-03;  9.9979309E+02;  1.0000000E-01; -1.7140256E+02;3; -2.1982999E+00;  0.0000000E+00;  2.3333456E-02;0; -1.9073505E-02;  3.9984008E+04;  0.0000000E+00;  7.6743834E-02;  4.0000000E+04;  0.0000000E+00;  3.9999258E+04; -3.0453246E-02;  0.0000000E+00;  1.1379741E-02;  1.2702237E+02;
  4.5179278E-01;  9.9999998E-03;  1.0001355E-01;5231; -7.9538152E-03;  0.0000000E+00;  1.1977020E-03;  9.9986426E+02;  1.0000000E-01; -1.1244126E+02;3; -2.1645665E+00;  0.0000000E+00;  2.7817165E-02;0; -1.9262943E-02;  3.9989355E+04;  0.0000000E+00;  8.5417971E-02;  4.0000000E+04;  0.0000000E+00;  3.9999309E+04; -3.0349972E-02;  0.0000000E+00;  1.1087027E-02;  1.3995728E+02;
  4.5177665E-01;  9.9999998E-03;  1.1001717E-01;5232; -7.9811448E-03;  0.0000000E+00;  1.3111494E-03;  9.9991882E+02;  1.0000000E-01; -6.7257355E+01;3; -2.1282623E+00;  0.0000000E+00;  3.1614076E-02;0; -1.9470658E-02;  3.9993309E+04;  0.0000000E+00;  9.0600155E-02;  4.0000000E+04;  0.0000000E+00;  3.9999516E+04; -3.0246487E-02;  0.0000000E+00;  1.0775828E-02;  1.3937291E+02;
  4.5175996E-01;  9.9999998E-03;  1.2001991E-01;5233; -8.0119129E-03;  0.0000000E+00;  1.4238260E-03;  9.9995020E+02;  1.0000000E-01; -4.1282784E+01;3; -2.0898943E+00;  0.0000000E+00;  3.5344809E-02;0; -1.9692659E-02;  3.9995680E+04;  0.0000000E+00;  9.1064602E-02;  4.0000000E+04;  0.0000000E+00;  3.9999902E+04; -3.0141886E-02;  0.0000000E+00;  1.0449227E-02;  1.3126263E+02;
  4.5174325E-01;  9.9999998E-03;  1.3002163E-01;5234; -8.0464976E-03;  0.0000000E+00;  1.5352222E-03;  9.9995508E+02;  1.0000000E-01; -3.7233517E+01;3; -2.0495861E+00;  0.0000000E+00;  3.8025174E-02;0; -1.9924492E-02;  3.9995582E+04;  0.0000000E+00;  8.5568018E-02;  4.0000000E+04;  0.0000000E+00;  4.0000297E+04; -3.0034602E-02;  0.0000000E+00;  1.0110111E-02;  1.2807594E+02;
  4.5172673E-01;  9.9999998E-03;  1.4002259E-01;5235; -8.0851866E-03;  0.0000000E+00;  1.6448362E-03;  9.9993610E+02;  1.0000000E-01; -5.2936775E+01;3; -2.0076182E+00;  0.0000000E+00;  4.0013220E-02;0; -2.0161547E-02;  3.9993285E+04;  0.0000000E+00;  7.2937146E-02;  4.0000000E+04;  0.0000000E+00;  4.0001082E+04; -2.9922590E-02;  0.0000000E+00;  9.7610438E-03;  1.4892503E+02;
  4.5171177E-01;  9.9999998E-03;  1.5002295E-01;5236; -8.1282537E-03;  0.0000000E+00;  1.7516601E-03;  9.9989172E+02;  1.0000000E-01; -8.9725861E+01;3; -1.9644444E+00;  0.0000000E+00;  4.0191237E-02;0; -2.0399429E-02;  3.9988742E+04;  0.0000000E+00;  5.2264079E-02;  4.0000000E+04;  0.0000000E+00;  4.0001504E+04; -2.9804109E-02;  0.0000000E+00;  9.4046798E-03;  2.0700641E+02;
  4.5169953E-01;  9.9999998E-03;  1.6002277E-01;5237; -8.1757149E-03;  0.0000000E+00;  1.8551880E-03;  9.9982068E+02;  1.0000000E-01; -1.4858839E+02;3; -1.9200760E+00;  0.0000000E+00;  3.8845662E-02;0; -2.0631868E-02;  3.9982266E+04;  0.0000000E+00;  2.3326723E-02;  4.0000000E+04;  0.0000000E+00;  4.0002285E+04; -2.9677784E-02;  0.0000000E+00;  9.0459147E-03;  3.0035486E+02;
  4.5169017E-01;  9.9999998E-03;  1.7002195E-01;5238; -8.2274294E-03;  0.0000000E+00;  1.9545821E-03;  9.9972742E+02;  1.0000000E-01; -2.2582077E+02;3; -1.8751715E+00;  0.0000000E+00;  3.5113480E-02;0; -2.0851027E-02;  3.9973551E+04;  0.0000000E+00; -1.2782068E-02;  4.0000000E+04;  0.0000000E+00;  4.0002883E+04; -2.9543178E-02;  0.0000000E+00;  8.6921500E-03;  4.2059238E+02;
  4.5168367E-01;  9.9999998E-03;  1.8002023E-01;5239; -8.2829725E-03;  0.0000000E+00;  2.0489353E-03;  9.9960583E+02;  1.0000000E-01; -3.2655865E+02;3; -1.8294038E+00;  0.0000000E+00;  2.9292258E-02;0; -2.1048848E-02;  3.9963262E+04;  0.0000000E+00; -5.3603213E-02;  4.0000000E+04;  0.0000000E+00;  4.0004234E+04; -2.9400786E-02;  0.0000000E+00;  8.3519397E-03;  5.5806940E+02;
  4.5167974E-01;  9.9999998E-03;  1.9001725E-01;5240; -8.3417576E-03;  0.0000000E+00;  2.1372030E-03;  9.9947229E+02;  1.0000000E-01; -4.3722220E+02;3; -1.7835668E+00;  0.0000000E+00;  2.0092184E-02;0; -2.1218948E-02;  3.9951285E+04;  0.0000000E+00; -9.5844232E-02;  4.0000000E+04;  0.0000000E+00;  4.0005055E+04; -2.9252356E-02;  0.0000000E+00;  8.0334079E-03;  7.0443829E+02;
  4.5167804E-01;  9.9999998E-03;  2.0001239E-01;5241; -8.4029036E-03;  0.0000000E+00;  2.2181459E-03;  9.9932501E+02;  1.0000000E-01; -5.5919403E+02;3; -1.7371998E+00;  0.0000000E+00;  8.3432021E-03;0; -2.1357654E-02;  3.9938480E+04;  0.0000000E+00; -1.3613656E-01;  4.0000000E+04;  0.0000000E+00;  4.0006117E+04; -2.9100278E-02;  0.0000000E+00;  7.7426252E-03;  8.6000616E+02;
  4.5167837E-01;  9.9999998E-03;  2.1000519E-01;5242; -8.4652454E-03;  0.0000000E+00;  2.2922729E-03;  9.9917395E+02;  1.0000000E-01; -6.8437573E+02;3; -1.6909846E+00;  0.0000000E+00; -6.7486060E-03;0; -2.1464581E-02;  3.9924949E+04;  0.0000000E+00; -1.7162029E-01;  4.0000000E+04;  0.0000000E+00;  4.0007512E+04; -2.8947609E-02;  0.0000000E+00;  7.4830279E-03;  1.0466732E+03;
  4.5167997E-01;  9.9999998E-03;  2.1999736E-01;5243; -8.5273469E-03;  0.0000000E+00;  2.3654772E-03;  9.9902222E+02;  1.0000000E-01; -8.1005115E+02;3; -1.6456236E+00;  0.0000000E+00; -2.3815857E-02;0; -2.1532744E-02;  3.9910891E+04;  0.0000000E+00; -2.0017521E-01;  4.0000000E+04;  0.0000000E+00;  4.0009414E+04; -2.8797477E-02;  0.0000000E+00;  7.2647333E-03;  1.2914360E+03;
  4.5168117E-01;  9.9999998E-03;  2.2999404E-01;5244; -8.5884035E-03;  0.0000000E+00;  2.4346884E-03;  9.9887677E+02;  1.0000000E-01; -9.3059094E+02;3; -1.6014378E+00;  0.0000000E+00; -4.4661280E-02;0; -2.1561895E-02;  3.9897172E+04;  0.0000000E+00; -2.2017232E-01;  4.0000000E+04;  0.0000000E+00;  4.0011281E+04; -2.8652681E-02;  0.0000000E+00;  7.0907860E-03;  1.5032954E+03;
  4.6181667E-01;  9.9999998E-03;  7.0002057E-02;5289; -8.2025975E-03;  0.0000000E+00;  9.2362252E-04;  9.9966132E+02;  1.0000000E-01; -2.8058466E+02;3; -2.2703247E+00;  0.0000000E+00; -1.7824746E-04;0; -1.8981040E-02;  3.9972934E+04;  0.0000000E+00;  3.9448943E-02;  4.0000000E+04;  0.0000000E+00;  3.9999891E+04; -3.1543754E-02;  0.0000000E+00;  1.2562715E-02;  5.9482601E+01;
  4.6180016E-01;  9.9999998E-03;  8.0005646E-02;5290; -8.2186665E-03;  0.0000000E+00;  1.0447236E-03;  9.9974524E+02;  1.0000000E-01; -2.1105576E+02;3; -2.2413096E+00;  0.0000000E+00;  1.7828292E-03;0; -1.9135565E-02;  3.9979879E+04;  0.0000000E+00;  4.6745356E-02;  4.0000000E+04;  0.0000000E+00;  3.9999773E+04; -3.1414893E-02;  0.0000000E+00;  1.2279329E-02;  7.4284691E+01;
  4.6178240E-01;  9.9999998E-03;  9.0009652E-02;5291; -8.2381824E-03;  0.0000000E+00;  1.1641262E-03;  9.9981384E+02;  1.0000000E-01; -1.5421786E+02;3; -2.2091212E+00;  0.0000000E+00;  4.1754525E-03;0; -1.9313306E-02;  3.9985746E+04;  0.0000000E+00;  5.2368589E-02;  4.0000000E+04;  0.0000000E+00;  3.9999480E+04; -3.1284198E-02;  0.0000000E+00;  1.1970893E-02;  9.8528404E+01;
  4.6176437E-01;  9.9999998E-03;  1.0001354E-01;5292; -8.2613649E-03;  0.0000000E+00;  1.2821243E-03;  9.9987830E+02;  1.0000000E-01; -1.0083665E+02;3; -2.1740460E+00;  0.0000000E+00;  6.7092907E-03;0; -1.9511895E-02;  3.9990758E+04;  0.0000000E+00;  5.5545535E-02;  4.0000000E+04;  0.0000000E+00;  3.9999320E+04; -3.1152945E-02;  0.0000000E+00;  1.1641050E-02;  1.0868095E+02;
  4.6174708E-01;  9.9999998E-03;  1.1001681E-01;5293; -8.2883872E-03;  0.0000000E+00;  1.3995059E-03;  9.9992566E+02;  1.0000000E-01; -6.1578506E+01;3; -2.1364248E+00;  0.0000000E+00;  9.5956558E-03;0; -1.9728115E-02;  3.9994410E+04;  0.0000000E+00;  5.5568412E-02;  4.0000000E+04;  0.0000000E+00;  3.9999277E+04; -3.1021105E-02;  0.0000000E+00;  1.1292990E-02;  1.0201618E+02;
  4.6173063E-01;  9.9999998E-03;  1.2001909E-01;5294; -8.3193080E-03;  0.0000000E+00;  1.5159659E-03;  9.9995435E+02;  1.0000000E-01; -3.7826092E+01;3; -2.0964398E+00;  0.0000000E+00;  1.1617559E-02;0; -1.9958226E-02;  3.9996312E+04;  0.0000000E+00;  5.1799826E-02;  4.0000000E+04;  0.0000000E+00;  3.9999691E+04; -3.0887628E-02;  0.0000000E+00;  1.0929402E-02;  8.2176704E+01;
  4.6171620E-01;  9.9999998E-03;  1.3002038E-01;5295; -8.3542112E-03;  0.0000000E+00;  1.6311451E-03;  9.9996198E+02;  1.0000000E-01; -3.1505281E+01;3; -2.0544043E+00;  0.0000000E+00;  1.3125859E-02;0; -2.0198239E-02;  3.9996379E+04;  0.0000000E+00;  4.3611407E-02;  4.0000000E+04;  0.0000000E+00;  3.9999852E+04; -3.0750699E-02;  0.0000000E+00;  1.0552460E-02;  6.3646217E+01;
  4.6170399E-01;  9.9999998E-03;  1.4002082E-01;5296; -8.3930213E-03;  0.0000000E+00;  1.7445569E-03;  9.9994043E+02;  1.0000000E-01; -4.9331940E+01;3; -2.0106866E+00;  0.0000000E+00;  1.3728143E-02;0; -2.0444334E-02;  3.9994031E+04;  0.0000000E+00;  3.0385494E-02;  4.0000000E+04;  0.0000000E+00;  4.0000477E+04; -3.0608144E-02;  0.0000000E+00;  1.0163809E-02;  8.5640785E+01;
  4.6169469E-01;  9.9999998E-03;  1.5002054E-01;5297; -8.4356777E-03;  0.0000000E+00;  1.8554515E-03;  9.9989600E+02;  1.0000000E-01; -8.6170403E+01;3; -1.9653862E+00;  0.0000000E+00;  1.2378436E-02;0; -2.0692492E-02;  3.9989922E+04;  0.0000000E+00;  1.1563072E-02;  4.0000000E+04;  0.0000000E+00;  4.0001191E+04; -3.0457750E-02;  0.0000000E+00;  9.7652581E-03;  1.5625920E+02;
  4.6168935E-01;  9.9999998E-03;  1.6001976E-01;5298; -8.4819747E-03;  0.0000000E+00;  1.9628971E-03;  9.9982849E+02;  1.0000000E-01; -1.4207005E+02;3; -1.9188468E+00;  0.0000000E+00;  9.4422596E-03;0; -2.0936638E-02;  3.9983605E+04;  0.0000000E+00; -1.3023188E-02;  4.0000000E+04;  0.0000000E+00;  4.0001879E+04; -3.0298039E-02;  0.0000000E+00;  9.3614003E-03;  2.5788339E+02;
  4.6168822E-01;  9.9999998E-03;  1.7001839E-01;5299; -8.5316999E-03;  0.0000000E+00;  2.0657710E-03;  9.9973810E+02;  1.0000000E-01; -2.1698152E+02;3; -1.8716309E+00;  0.0000000E+00;  4.5025051E-03;0; -2.1168280E-02;  3.9975555E+04;  0.0000000E+00; -4.2599544E-02;  4.0000000E+04;  0.0000000E+00;  4.0003137E+04; -3.0128472E-02;  0.0000000E+00;  8.9601921E-03;  3.8230200E+02;
  4.6169114E-01;  9.9999998E-03;  1.8001638E-01;5300; -8.5844528E-03;  0.0000000E+00;  2.1629112E-03;  9.9962775E+02;  1.0000000E-01; -3.0838635E+02;3; -1.8237942E+00;  0.0000000E+00; -3.1979228E-03;0; -2.1378608E-02;  3.9965438E+04;  0.0000000E+00; -7.5381920E-02;  4.0000000E+04;  0.0000000E+00;  4.0003926E+04; -2.9949898E-02;  0.0000000E+00;  8.5712895E-03;  5.2316058E+02;
  4.6169701E-01;  9.9999998E-03;  1.9001369E-01;5301; -8.6397016E-03;  0.0000000E+00;  2.2534290E-03;  9.9950043E+02;  1.0000000E-01; -4.1386484E+02;3; -1.7756678E+00;  0.0000000E+00; -1.3605764E-02;0; -2.1559983E-02;  3.9954160E+04;  0.0000000E+00; -1.0893478E-01;  4.0000000E+04;  0.0000000E+00;  4.0004984E+04; -2.9764317E-02;  0.0000000E+00;  8.2043344E-03;  6.7419293E+02;
  4.6170491E-01;  9.9999998E-03;  2.0000999E-01;5302; -8.6966874E-03;  0.0000000E+00;  2.3354571E-03;  9.9935602E+02;  1.0000000E-01; -5.3351575E+02;3; -1.7266881E+00;  0.0000000E+00; -2.7396409E-02;0; -2.1708112E-02;  3.9941543E+04;  0.0000000E+00; -1.4073840E-01;  4.0000000E+04;  0.0000000E+00;  4.0006301E+04; -2.9574851E-02;  0.0000000E+00;  7.8667393E-03;  8.3346008E+02;
  4.6171421E-01;  9.9999998E-03;  2.1000552E-01;5303; -8.7546278E-03;  0.0000000E+00;  2.4096975E-03;  9.9921240E+02;  1.0000000E-01; -6.5252478E+02;3; -1.6782584E+00;  0.0000000E+00; -4.2179905E-02;0; -2.1822093E-02;  3.9928293E+04;  0.0000000E+00; -1.6860224E-01;  4.0000000E+04;  0.0000000E+00;  4.0007234E+04; -2.9385230E-02;  0.0000000E+00;  7.5631361E-03;  1.0046444E+03;
  4.6172291E-01;  9.9999998E-03;  2.2000130E-01;5304; -8.8125337E-03;  0.0000000E+00;  2.4743062E-03;  9.9905634E+02;  1.0000000E-01; -7.8180505E+02;3; -1.6303154E+00;  0.0000000E+00; -6.1749656E-02;0; -2.1909324E-02;  3.9914801E+04;  0.0000000E+00; -1.9073242E-01;  4.0000000E+04;  0.0000000E+00;  4.0008801E+04; -2.9199135E-02;  0.0000000E+00;  7.2898106E-03;  1.1865685E+03;
  4.6172991E-01;  9.9999998E-03;  2.2999890E-01;5305; -8.8697774E-03;  0.0000000E+00;  2.5254325E-03;  9.9890454E+02;  1.0000000E-01; -9.0757928E+02;3; -1.5836469E+00;  0.0000000E+00; -8.0822028E-02;0; -2.1999806E-02;  3.9901578E+04;  0.0000000E+00; -2.0519856E-01;  4.0000000E+04;  0.0000000E+00;  4.0009648E+04; -2.9020114E-02;  0.0000000E+00;  7.0203086E-03;  1.3369712E+03;
  4.7178143E-01;  9.9999998E-03;  7.0004568E-02;5350; -8.5216211E-03;  0.0000000E+00;  9.9884532E-04;  9.9970447E+02;  1.0000000E-01; -2.4483258E+02;3; -2.2800260E+00;  0.0000000E+00; -1.9605407E-02;0; -1.9170100E-02;  3.9976504E+04;  0.0000000E+00;  2.0428604E-02;  4.0000000E+04;  0.0000000E+00;  4.0000387E+04; -3.2404110E-02;  0.0000000E+00;  1.3234010E-02;  6.7356964E+01;
  4.7176141E-01;  9.9999998E-03;  8.0007344E-02;5351; -8.5347369E-03;  0.0000000E+00;  1.1267212E-03;  9.9976849E+02;  1.0000000E-01; -1.9179704E+02;3; -2.2501986E+00;  0.0000000E+00; -1.9123817E-02;0; -1.9339437E-02;  3.9981707E+04;  0.0000000E+00;  2.2094417E-02;  4.0000000E+04;  0.0000000E+00;  3.9999727E+04; -3.2249324E-02;  0.0000000E+00;  1.2909887E-02;  3.2114189E+01;
  4.7174108E-01;  9.9999998E-03;  9.0010308E-02;5352; -8.5522011E-03;  0.0000000E+00;  1.2518011E-03;  9.9982544E+02;  1.0000000E-01; -1.4463788E+02;3; -2.2170298E+00;  0.0000000E+00; -1.8673981E-02;0; -1.9531429E-02;  3.9986430E+04;  0.0000000E+00;  2.1896651E-02;  4.0000000E+04;  0.0000000E+00;  3.9999477E+04; -3.2091491E-02;  0.0000000E+00;  1.2560062E-02;  4.4384941E+01;
  4.7172093E-01;  9.9999998E-03;  1.0001305E-01;5353; -8.5741887E-03;  0.0000000E+00;  1.3746334E-03;  9.9987579E+02;  1.0000000E-01; -1.0291067E+02;3; -2.1808171E+00;  0.0000000E+00; -1.8128939E-02;0; -1.9743422E-02;  3.9990617E+04;  0.0000000E+00;  1.9572850E-02;  4.0000000E+04;  0.0000000E+00;  3.9999359E+04; -3.1932175E-02;  0.0000000E+00;  1.2188753E-02;  5.9822941E+01;
  4.7170234E-01;  9.9999998E-03;  1.1001514E-01;5354; -8.6006755E-03;  0.0000000E+00;  1.4955560E-03;  9.9991296E+02;  1.0000000E-01; -7.2096725E+01;3; -2.1419051E+00;  0.0000000E+00; -1.7422598E-02;0; -1.9972166E-02;  3.9993496E+04;  0.0000000E+00;  1.5025903E-02;  4.0000000E+04;  0.0000000E+00;  3.9999605E+04; -3.1771652E-02;  0.0000000E+00;  1.1799486E-02;  6.0957344E+01;
  4.7168651E-01;  9.9999998E-03;  1.2001624E-01;5355; -8.6315507E-03;  0.0000000E+00;  1.6150679E-03;  9.9993671E+02;  1.0000000E-01; -5.2442963E+01;3; -2.1004012E+00;  0.0000000E+00; -1.6918922E-02;0; -2.0213947E-02;  3.9995184E+04;  0.0000000E+00;  8.2693296E-03;  4.0000000E+04;  0.0000000E+00;  3.9999820E+04; -3.1608857E-02;  0.0000000E+00;  1.1394911E-02;  4.6171852E+01;
  4.7167429E-01;  9.9999998E-03;  1.3001634E-01;5356; -8.6665321E-03;  0.0000000E+00;  1.7327580E-03;  9.9993896E+02;  1.0000000E-01; -5.0566471E+01;3; -2.0567741E+00;  0.0000000E+00; -1.7004907E-02;0; -2.0465380E-02;  3.9995043E+04;  0.0000000E+00; -6.8749173E-04;  4.0000000E+04;  0.0000000E+00;  3.9999613E+04; -3.1442143E-02;  0.0000000E+00;  1.0976763E-02;  1.5386079E+01;
  4.7166598E-01;  9.9999998E-03;  1.4001550E-01;5357; -8.7052220E-03;  0.0000000E+00;  1.8482278E-03;  9.9991992E+02;  1.0000000E-01; -6.6319115E+01;3; -2.0110312E+00;  0.0000000E+00; -1.8387411E-02;0; -2.0723112E-02;  3.9993180E+04;  0.0000000E+00; -1.1959284E-02;  4.0000000E+04;  0.0000000E+00;  4.0000164E+04; -3.1269137E-02;  0.0000000E+00;  1.0546024E-02;  3.5957649E+01;
  4.7166178E-01;  9.9999998E-03;  1.5001412E-01;5358; -8.7472182E-03;  0.0000000E+00;  1.9610790E-03;  9.9987903E+02;  1.0000000E-01; -1.0024408E+02;3; -1.9637622E+00;  0.0000000E+00; -2.0795390E-02;0; -2.0983662E-02;  3.9989301E+04;  0.0000000E+00; -2.5837783E-02;  4.0000000E+04;  0.0000000E+00;  4.0000578E+04; -3.1087507E-02;  0.0000000E+00;  1.0103845E-02;  1.0700648E+02;
  4.7166207E-01;  9.9999998E-03;  1.6001254E-01;5359; -8.7920893E-03;  0.0000000E+00;  2.0702141E-03;  9.9981744E+02;  1.0000000E-01; -1.5125497E+02;3; -1.9151376E+00;  0.0000000E+00; -2.5395425E-02;0; -2.1240957E-02;  3.9983645E+04;  0.0000000E+00; -4.2597659E-02;  4.0000000E+04;  0.0000000E+00;  4.0001469E+04; -3.0895554E-02;  0.0000000E+00;  9.6545964E-03;  2.0224509E+02;
  4.7166696E-01;  9.9999998E-03;  1.7001097E-01;5360; -8.8394629E-03;  0.0000000E+00;  2.1747563E-03;  9.9972931E+02;  1.0000000E-01; -2.2424057E+02;3; -1.8656905E+00;  0.0000000E+00; -3.0780183E-02;0; -2.1486253E-02;  3.9975824E+04;  0.0000000E+00; -6.2059186E-02;  4.0000000E+04;  0.0000000E+00;  4.0002148E+04; -3.0692905E-02;  0.0000000E+00;  9.2066517E-03;  3.2140109E+02;
  4.7167608E-01;  9.9999998E-03;  1.8000945E-01;5361; -8.8889208E-03;  0.0000000E+00;  2.2730599E-03;  9.9962964E+02;  1.0000000E-01; -3.0685553E+02;3; -1.8154278E+00;  0.0000000E+00; -3.9996628E-02;0; -2.1709839E-02;  3.9966574E+04;  0.0000000E+00; -8.3474807E-02;  4.0000000E+04;  0.0000000E+00;  4.0002992E+04; -3.0480331E-02;  0.0000000E+00;  8.7704919E-03;  4.6179788E+02;
  4.7168854E-01;  9.9999998E-03;  1.9000803E-01;5362; -8.9401072E-03;  0.0000000E+00;  2.3640639E-03;  9.9950568E+02;  1.0000000E-01; -4.0951929E+02;3; -1.7647645E+00;  0.0000000E+00; -5.3006522E-02;0; -2.1903768E-02;  3.9955426E+04;  0.0000000E+00; -1.0567871E-01;  4.0000000E+04;  0.0000000E+00;  4.0004293E+04; -3.0260408E-02;  0.0000000E+00;  8.3566401E-03;  6.1793903E+02;
  4.7170216E-01;  9.9999998E-03;  2.0000683E-01;5363; -8.9923264E-03;  0.0000000E+00;  2.4461774E-03;  9.9937225E+02;  1.0000000E-01; -5.2008405E+02;3; -1.7137076E+00;  0.0000000E+00; -6.6602483E-02;0; -2.2063220E-02;  3.9943477E+04;  0.0000000E+00; -1.2730083E-01;  4.0000000E+04;  0.0000000E+00;  4.0005516E+04; -3.0036617E-02;  0.0000000E+00;  7.9733972E-03;  7.8086865E+02;
  4.7171503E-01;  9.9999998E-03;  2.1000598E-01;5364; -9.0452796E-03;  0.0000000E+00;  2.5180604E-03;  9.9922607E+02;  1.0000000E-01; -6.4116705E+02;3; -1.6628009E+00;  0.0000000E+00; -8.2919531E-02;0; -2.2189189E-02;  3.9930816E+04;  0.0000000E+00; -1.4689805E-01;  4.0000000E+04;  0.0000000E+00;  4.0006844E+04; -2.9813187E-02;  0.0000000E+00;  7.6239994E-03;  9.3523834E+02;
  4.7172520E-01;  9.9999998E-03;  2.2000521E-01;5365; -9.0983668E-03;  0.0000000E+00;  2.5746794E-03;  9.9907367E+02;  1.0000000E-01; -7.6743506E+02;3; -1.6123214E+00;  0.0000000E+00; -1.0250967E-01;0; -2.2299884E-02;  3.9917855E+04;  0.0000000E+00; -1.6279621E-01;  4.0000000E+04;  0.0000000E+00;  4.0007730E+04; -2.9594472E-02;  0.0000000E+00;  7.2945883E-03;  1.0623833E+03;
  4.7173199E-01;  9.9999998E-03;  2.3000267E-01;5366; -9.1515183E-03;  0.0000000E+00;  2.6147589E-03;  9.9892352E+02;  1.0000000E-01; -8.9182660E+02;3; -1.5631957E+00;  0.0000000E+00; -1.1909793E-01;0; -2.2437723E-02;  3.9904844E+04;  0.0000000E+00; -1.7250785E-01;  4.0000000E+04;  0.0000000E+00;  4.0008766E+04; -2.9384449E-02;  0.0000000E+00;  6.9467253E-03;  1.1892302E+03;
  4.8168963E-01;  9.9999998E-03;  1.1001410E-01;5415; -8.9199170E-03;  0.0000000E+00;  1.5964126E-03;  9.9989508E+02;  1.0000146E-01; -8.6911125E+01;3; -2.1443765E+00;  0.0000000E+00; -4.8998423E-02;0; -2.0204261E-02;  3.9990805E+04;  0.0000000E+00; -2.8056106E-02;  4.0000000E+04;  0.0000000E+00;  3.9999652E+04; -3.2504547E-02;  0.0000000E+00;  1.2300287E-02;  5.4015301E+01;
  4.8167378E-01;  9.9999998E-03;  1.2001411E-01;5416; -8.9503964E-03;  0.0000000E+00;  1.7184027E-03;  9.9990851E+02;  1.0000150E-01; -7.5800323E+01;3; -2.1015289E+00;  0.0000000E+00; -5.0361656E-02;0; -2.0460691E-02;  3.9992223E+04;  0.0000000E+00; -3.5517532E-02;  4.0000000E+04;  0.0000000E+00;  3.9999449E+04; -3.2311603E-02;  0.0000000E+00;  1.1850912E-02;  6.9147789E+01;
  4.8170978E-01;  9.9999998E-03;  1.0001315E-01;5414; -8.8941464E-03;  0.0000000E+00;  1.4715880E-03;  9.9986884E+02;  1.0000148E-01; -1.0868829E+02;3; -2.1846800E+00;  0.0000000E+00; -4.7273491E-02;0; -1.9959992E-02;  3.9988750E+04;  0.0000000E+00; -2.0568002E-02;  4.0000000E+04;  0.0000000E+00;  3.9999871E+04; -3.2694694E-02;  0.0000000E+00;  1.2734702E-02;  3.1604805E+01;
  4.8166257E-01;  9.9999998E-03;  1.3001312E-01;5417; -8.9850677E-03;  0.0000000E+00;  1.8377726E-03;  9.9991077E+02;  1.0000146E-01; -7.3923836E+01;3; -2.0562394E+00;  0.0000000E+00; -5.2440923E-02;0; -2.0726014E-02;  3.9991758E+04;  0.0000000E+00; -4.2450212E-02;  4.0000000E+04;  0.0000000E+00;  3.9999523E+04; -3.2114144E-02;  0.0000000E+00;  1.1388130E-02;  7.3237579E+01;
  4.8173293E-01;  9.9999998E-03;  9.0011597E-02;5413; -8.8734524E-03;  0.0000000E+00;  1.3437263E-03;  9.9983667E+02;  1.0000148E-01; -1.3530481E+02;3; -2.2219601E+00;  0.0000000E+00; -4.5841508E-02;0; -1.9731458E-02;  3.9985836E+04;  0.0000000E+00; -1.3676275E-02;  4.0000000E+04;  0.0000000E+00;  4.0000152E+04; -3.2882702E-02;  0.0000000E+00;  1.3151244E-02;  3.2322487E+01;
  4.8175803E-01;  9.9999998E-03;  8.0009691E-02;5412; -8.8580074E-03;  0.0000000E+00;  1.2124813E-03;  9.9979938E+02;  1.0000142E-01; -1.6621751E+02;3; -2.2560072E+00;  0.0000000E+00; -4.4046935E-02;0; -1.9522093E-02;  3.9982582E+04;  0.0000000E+00; -7.9314979E-03;  4.0000000E+04;  0.0000000E+00;  4.0000531E+04; -3.3068039E-02;  0.0000000E+00;  1.3545945E-02;  7.4098083E+01;
  4.8165554E-01;  9.9999998E-03;  1.4001133E-01;5418; -9.0232240E-03;  0.0000000E+00;  1.9541059E-03;  9.9988727E+02;  1.0000150E-01; -9.3380074E+01;3; -2.0087225E+00;  0.0000000E+00; -5.5725396E-02;0; -2.0997338E-02;  3.9990441E+04;  0.0000000E+00; -4.8664585E-02;  4.0000000E+04;  0.0000000E+00;  3.9999512E+04; -3.1909950E-02;  0.0000000E+00;  1.0912611E-02;  7.0520096E+01;
  4.8178369E-01;  9.9999998E-03;  7.0007697E-02;5411; -8.8477712E-03;  0.0000000E+00;  1.0774247E-03;  9.9975977E+02;  1.0000142E-01; -1.9900671E+02;3; -2.2866917E+00;  0.0000000E+00; -4.1344360E-02;0; -1.9334983E-02;  3.9979285E+04;  0.0000000E+00; -3.6591475E-03;  4.0000000E+04;  0.0000000E+00;  4.0000840E+04; -3.3248644E-02;  0.0000000E+00;  1.3913662E-02;  1.2935271E+02;
  4.8165199E-01;  9.9999998E-03;  1.5000919E-01;5419; -9.0640951E-03;  0.0000000E+00;  2.0672190E-03;  9.9984900E+02;  1.0000141E-01; -1.2508289E+02;3; -1.9594262E+00;  0.0000000E+00; -5.9639946E-02;0; -2.1271694E-02;  3.9986910E+04;  0.0000000E+00; -5.4428753E-02;  4.0000000E+04;  0.0000000E+00;  4.0000180E+04; -3.1696741E-02;  0.0000000E+00;  1.0425046E-02;  8.3842430E+01;
  4.8165122E-01;  9.9999998E-03;  1.6000716E-01;5420; -9.1071147E-03;  0.0000000E+00;  2.1763532E-03;  9.9979413E+02;  1.0000144E-01; -1.7056308E+02;3; -1.9088751E+00;  0.0000000E+00; -6.5129675E-02;0; -2.1543175E-02;  3.9981609E+04;  0.0000000E+00; -6.0413398E-02;  4.0000000E+04;  0.0000000E+00;  4.0000766E+04; -3.1472888E-02;  0.0000000E+00;  9.9297119E-03;  1.4215079E+02;
  4.8165289E-01;  9.9999998E-03;  1.7000557E-01;5421; -9.1516646E-03;  0.0000000E+00;  2.2808486E-03;  9.9971442E+02;  1.0000145E-01; -2.3658591E+02;3; -1.8569465E+00;  0.0000000E+00; -7.2596356E-02;0; -2.1802351E-02;  3.9974215E+04;  0.0000000E+00; -6.7352429E-02;  4.0000000E+04;  0.0000000E+00;  4.0001562E+04; -3.1237714E-02;  0.0000000E+00;  9.4353631E-03;  2.4351294E+02;
  4.8165631E-01;  9.9999998E-03;  1.8000479E-01;5422; -9.1973236E-03;  0.0000000E+00;  2.3789031E-03;  9.9961621E+02;  1.0000140E-01; -3.1796631E+02;3; -1.8043966E+00;  0.0000000E+00; -8.2142398E-02;0; -2.2039525E-02;  3.9965625E+04;  0.0000000E+00; -7.5809680E-02;  4.0000000E+04;  0.0000000E+00;  4.0002602E+04; -3.0992528E-02;  0.0000000E+00;  8.9530023E-03;  3.7855539E+02;
  4.8166108E-01;  9.9999998E-03;  1.9000505E-01;5423; -9.2438255E-03;  0.0000000E+00;  2.4691215E-03;  9.9950177E+02;  1.0000148E-01; -4.1277844E+02;3; -1.7513757E+00;  0.0000000E+00; -9.6026249E-02;0; -2.2246361E-02;  3.9955195E+04;  0.0000000E+00; -8.6024389E-02;  4.0000000E+04;  0.0000000E+00;  4.0003789E+04; -3.0739965E-02;  0.0000000E+00;  8.4936041E-03;  5.3668243E+02;
  4.8166656E-01;  9.9999998E-03;  2.0000662E-01;5424; -9.2909038E-03;  0.0000000E+00;  2.5500851E-03;  9.9936853E+02;  1.0000140E-01; -5.2314569E+02;3; -1.6980463E+00;  0.0000000E+00; -1.1062692E-01;0; -2.2418380E-02;  3.9943238E+04;  0.0000000E+00; -9.7751021E-02;  4.0000000E+04;  0.0000000E+00;  4.0005051E+04; -3.0484030E-02;  0.0000000E+00;  8.0656512E-03;  6.9772559E+02;
  4.8167104E-01;  9.9999998E-03;  2.1000877E-01;5425; -9.3384609E-03;  0.0000000E+00;  2.6187841E-03;  9.9922418E+02;  1.0000147E-01; -6.4274725E+02;3; -1.6443796E+00;  0.0000000E+00; -1.2819006E-01;0; -2.2559097E-02;  3.9930816E+04;  0.0000000E+00; -1.1012141E-01;  4.0000000E+04;  0.0000000E+00;  4.0006004E+04; -3.0229380E-02;  0.0000000E+00;  7.6702829E-03;  8.3192615E+02;
  4.8167524E-01;  9.9999998E-03;  2.2000927E-01;5426; -9.3867593E-03;  0.0000000E+00;  2.6684755E-03;  9.9907318E+02;  1.0000146E-01; -7.6783014E+02;3; -1.5915849E+00;  0.0000000E+00; -1.4652893E-01;0; -2.2695400E-02;  3.9918051E+04;  0.0000000E+00; -1.2143719E-01;  4.0000000E+04;  0.0000000E+00;  4.0006613E+04; -2.9980913E-02;  0.0000000E+00;  7.2855130E-03;  9.3055536E+02;
  4.8168054E-01;  9.9999998E-03;  2.3000489E-01;5427; -9.4357021E-03;  0.0000000E+00;  2.7073952E-03;  9.9892847E+02;  1.0000141E-01; -8.8772797E+02;3; -1.5394382E+00;  0.0000000E+00; -1.6422147E-01;0; -2.2856308E-02;  3.9905270E+04;  0.0000000E+00; -1.2892577E-01;  4.0000000E+04;  0.0000000E+00;  4.0007715E+04; -2.9743154E-02;  0.0000000E+00;  6.8868459E-03;  1.0850010E+03;
  4.9186346E-01;  9.9999998E-03;  6.9998071E-02;5472; -9.1828387E-03;  0.0000000E+00;  1.1549616E-03;  9.9979407E+02;  1.0000208E-01; -1.7061246E+02;3; -2.2901847E+00;  0.0000000E+00; -6.6440329E-02;0; -1.9482747E-02;  3.9980492E+04;  0.0000000E+00; -3.1948075E-02;  4.0000000E+04;  0.0000000E+00;  4.0001410E+04; -3.4086138E-02;  0.0000000E+00;  1.4603392E-02;  2.1680975E+02;
  4.9183503E-01;  9.9999998E-03;  7.9998344E-02;5473; -9.1906497E-03;  0.0000000E+00;  1.2983459E-03;  9.9980829E+02;  1.0000209E-01; -1.5881032E+02;3; -2.2587061E+00;  0.0000000E+00; -7.2480917E-02;0; -1.9688867E-02;  3.9982156E+04;  0.0000000E+00; -4.1943442E-02;  4.0000000E+04;  0.0000000E+00;  4.0000941E+04; -3.3879574E-02;  0.0000000E+00;  1.4190706E-02;  1.6529245E+02;
  4.9180526E-01;  9.9999998E-03;  8.9998811E-02;5474; -9.2041083E-03;  0.0000000E+00;  1.4360694E-03;  9.9982697E+02;  1.0000204E-01; -1.4335397E+02;3; -2.2237005E+00;  0.0000000E+00; -7.7201277E-02;0; -1.9917153E-02;  3.9984027E+04;  0.0000000E+00; -5.2340794E-02;  4.0000000E+04;  0.0000000E+00;  4.0000727E+04; -3.3665974E-02;  0.0000000E+00;  1.3748821E-02;  1.2161630E+02;
  4.9177614E-01;  9.9999998E-03;  9.9999264E-02;5475; -9.2233196E-03;  0.0000000E+00;  1.5691251E-03;  9.9984265E+02;  1.0000208E-01; -1.3036668E+02;3; -2.1853542E+00;  0.0000000E+00; -8.1139117E-02;0; -2.0164009E-02;  3.9985492E+04;  0.0000000E+00; -6.2185895E-02;  4.0000000E+04;  0.0000000E+00;  4.0000312E+04; -3.3447918E-02;  0.0000000E+00;  1.3283909E-02;  9.7600822E+01;
  4.9174964E-01;  9.9999998E-03;  1.0999946E-01;5476; -9.2479913E-03;  0.0000000E+00;  1.6979467E-03;  9.9985083E+02;  1.0000202E-01; -1.2360144E+02;3; -2.1438642E+00;  0.0000000E+00; -8.4935427E-02;0; -2.0425631E-02;  3.9986965E+04;  0.0000000E+00; -7.0377253E-02;  4.0000000E+04;  0.0000000E+00;  3.9999613E+04; -3.3226445E-02;  0.0000000E+00;  1.2800815E-02;  1.0088950E+02;
  4.9172783E-01;  9.9999998E-03;  1.1999905E-01;5477; -9.2775431E-03;  0.0000000E+00;  1.8225953E-03;  9.9985614E+02;  1.0000196E-01; -1.1920650E+02;3; -2.0994835E+00;  0.0000000E+00; -8.9023739E-02;0; -2.0698372E-02;  3.9987914E+04;  0.0000000E+00; -7.5844571E-02;  4.0000000E+04;  0.0000000E+00;  3.9999527E+04; -3.3001352E-02;  0.0000000E+00;  1.2302979E-02;  1.1807986E+02;
  4.9171200E-01;  9.9999998E-03;  1.2999786E-01;5478; -9.3112262E-03;  0.0000000E+00;  1.9431205E-03;  9.9985175E+02;  1.0000198E-01; -1.2281134E+02;3; -2.0526102E+00;  0.0000000E+00; -9.3396120E-02;0; -2.0979162E-02;  3.9987410E+04;  0.0000000E+00; -7.7837750E-02;  4.0000000E+04;  0.0000000E+00;  3.9999340E+04; -3.2771401E-02;  0.0000000E+00;  1.1792239E-02;  1.3072231E+02;
  4.9170235E-01;  9.9999998E-03;  1.3999602E-01;5479; -9.3482351E-03;  0.0000000E+00;  2.0596404E-03;  9.9983545E+02;  1.0000201E-01; -1.3634183E+02;3; -2.0034525E+00;  0.0000000E+00; -9.8499574E-02;0; -2.1265285E-02;  3.9985852E+04;  0.0000000E+00; -7.6162674E-02;  4.0000000E+04;  0.0000000E+00;  3.9999223E+04; -3.2534566E-02;  0.0000000E+00;  1.1269281E-02;  1.2785702E+02;
  4.9169847E-01;  9.9999998E-03;  1.4999394E-01;5480; -9.3876245E-03;  0.0000000E+00;  2.1722135E-03;  9.9979462E+02;  1.0000207E-01; -1.7016803E+02;3; -1.9523374E+00;  0.0000000E+00; -1.0421403E-01;0; -2.1554410E-02;  3.9982867E+04;  0.0000000E+00; -7.1364857E-02;  4.0000000E+04;  0.0000000E+00;  3.9999453E+04; -3.2288939E-02;  0.0000000E+00;  1.0734528E-02;  1.0724854E+02;
  4.9169952E-01;  9.9999998E-03;  1.5999220E-01;5481; -9.4285766E-03;  0.0000000E+00;  2.2805317E-03;  9.9974213E+02;  1.0000201E-01; -2.1362358E+02;3; -1.8997324E+00;  0.0000000E+00; -1.1064476E-01;0; -2.1840537E-02;  3.9977840E+04;  0.0000000E+00; -6.4826824E-02;  4.0000000E+04;  0.0000000E+00;  3.9999863E+04; -3.2032907E-02;  0.0000000E+00;  1.0192370E-02;  9.6183876E+01;
  4.9170408E-01;  9.9999998E-03;  1.6999148E-01;5482; -9.4704041E-03;  0.0000000E+00;  2.3837932E-03;  9.9966693E+02;  1.0000210E-01; -2.7594281E+02;3; -1.8456031E+00;  0.0000000E+00; -1.1922818E-01;0; -2.2114247E-02;  3.9971457E+04;  0.0000000E+00; -5.8463871E-02;  4.0000000E+04;  0.0000000E+00;  4.0000973E+04; -3.1766001E-02;  0.0000000E+00;  9.6517541E-03;  1.6292316E+02;
  4.9171054E-01;  9.9999998E-03;  1.7999201E-01;5483; -9.5125949E-03;  0.0000000E+00;  2.4810054E-03;  9.9957782E+02;  1.0000210E-01; -3.4976788E+02;3; -1.7905076E+00;  0.0000000E+00; -1.3027428E-01;0; -2.2365427E-02;  3.9962629E+04;  0.0000000E+00; -5.4329105E-02;  4.0000000E+04;  0.0000000E+00;  4.0002000E+04; -3.1489469E-02;  0.0000000E+00;  9.1240425E-03;  3.0136990E+02;
  4.9171624E-01;  9.9999998E-03;  1.8999420E-01;5484; -9.5548825E-03;  0.0000000E+00;  2.5705956E-03;  9.9946503E+02;  1.0000215E-01; -4.4319733E+02;3; -1.7352257E+00;  0.0000000E+00; -1.4408080E-01;0; -2.2585686E-02;  3.9952344E+04;  0.0000000E+00; -5.4100439E-02;  4.0000000E+04;  0.0000000E+00;  4.0003520E+04; -3.1206027E-02;  0.0000000E+00;  8.6203404E-03;  4.8119080E+02;
  4.9171916E-01;  9.9999998E-03;  1.9999799E-01;5485; -9.5972214E-03;  0.0000000E+00;  2.6519599E-03;  9.9933630E+02;  1.0000195E-01; -5.4986096E+02;3; -1.6792598E+00;  0.0000000E+00; -1.6028953E-01;0; -2.2770116E-02;  3.9940520E+04;  0.0000000E+00; -5.8570769E-02;  4.0000000E+04;  0.0000000E+00;  4.0004918E+04; -3.0919943E-02;  0.0000000E+00;  8.1498269E-03;  6.7387860E+02;
  4.9172193E-01;  9.9999998E-03;  2.1000330E-01;5486; -9.6398238E-03;  0.0000000E+00;  2.7217718E-03;  9.9919220E+02;  1.0000203E-01; -6.6926501E+02;3; -1.6230898E+00;  0.0000000E+00; -1.7815322E-01;0; -2.2921685E-02;  3.9928094E+04;  0.0000000E+00; -6.7350775E-02;  4.0000000E+04;  0.0000000E+00;  4.0006023E+04; -3.0636339E-02;  0.0000000E+00;  7.7146525E-03;  8.3197412E+02;
  4.9172398E-01;  9.9999998E-03;  2.2000699E-01;5487; -9.6835839E-03;  0.0000000E+00;  2.7712139E-03;  9.9904089E+02;  1.0000205E-01; -7.9459479E+02;3; -1.5676609E+00;  0.0000000E+00; -1.9739458E-01;0; -2.3069292E-02;  3.9915066E+04;  0.0000000E+00; -7.8741990E-02;  4.0000000E+04;  0.0000000E+00;  4.0006480E+04; -3.0360397E-02;  0.0000000E+00;  7.2911051E-03;  9.3056482E+02;
  4.9172381E-01;  9.9999998E-03;  2.3000327E-01;5488; -9.7284019E-03;  0.0000000E+00;  2.8111131E-03;  9.9888983E+02;  1.0000207E-01; -9.1977643E+02;3; -1.5125372E+00;  0.0000000E+00; -2.1583737E-01;0; -2.3237243E-02;  3.9901898E+04;  0.0000000E+00; -8.9664340E-02;  4.0000000E+04;  0.0000000E+00;  4.0008039E+04; -3.0096931E-02;  0.0000000E+00;  6.8596881E-03;  1.1091658E+03;
  5.0187236E-01;  9.9999998E-03;  6.9989040E-02;5533; -9.5230155E-03;  0.0000000E+00;  1.2270744E-03;  9.9981085E+02;  1.0000388E-01; -1.5668692E+02;3; -2.2898786E+00;  0.0000000E+00; -9.5474735E-02;0; -1.9618012E-02;  3.9980016E+04;  0.0000000E+00; -6.1754532E-02;  4.0000000E+04;  0.0000000E+00;  4.0002227E+04; -3.4909014E-02;  0.0000000E+00;  1.5291003E-02;  3.0349289E+02;
  5.0185227E-01;  9.9999998E-03;  7.9986937E-02;5534; -9.5289694E-03;  0.0000000E+00;  1.3790120E-03;  9.9981238E+02;  1.0000373E-01; -1.5545239E+02;3; -2.2579706E+00;  0.0000000E+00; -1.0410498E-01;0; -1.9842571E-02;  3.9979863E+04;  0.0000000E+00; -7.6678753E-02;  4.0000000E+04;  0.0000000E+00;  4.0001594E+04; -3.4676790E-02;  0.0000000E+00;  1.4834220E-02;  2.5559642E+02;
  5.0182861E-01;  9.9999998E-03;  8.9985251E-02;5535; -9.5408987E-03;  0.0000000E+00;  1.5239485E-03;  9.9980615E+02;  1.0000387E-01; -1.6058804E+02;3; -2.2220819E+00;  0.0000000E+00; -1.1194831E-01;0; -2.0089667E-02;  3.9980602E+04;  0.0000000E+00; -9.0360425E-02;  4.0000000E+04;  0.0000000E+00;  4.0001043E+04; -3.4434821E-02;  0.0000000E+00;  1.4345153E-02;  2.0744130E+02;
  5.0180274E-01;  9.9999998E-03;  9.9984184E-02;5536; -9.5587941E-03;  0.0000000E+00;  1.6623928E-03;  9.9980621E+02;  1.0000372E-01; -1.6053867E+02;3; -2.1826134E+00;  0.0000000E+00; -1.1927474E-01;0; -2.0355107E-02;  3.9981383E+04;  0.0000000E+00; -1.0128125E-01;  4.0000000E+04;  0.0000000E+00;  4.0000434E+04; -3.4186129E-02;  0.0000000E+00;  1.3831021E-02;  1.6956354E+02;
  5.0177699E-01;  9.9999998E-03;  1.0998352E-01;5537; -9.5823072E-03;  0.0000000E+00;  1.7950955E-03;  9.9981134E+02;  1.0000384E-01; -1.5629187E+02;3; -2.1400554E+00;  0.0000000E+00; -1.2581040E-01;0; -2.0634558E-02;  3.9981891E+04;  0.0000000E+00; -1.0792325E-01;  4.0000000E+04;  0.0000000E+00;  3.9999879E+04; -3.3932287E-02;  0.0000000E+00;  1.3297728E-02;  1.5483586E+02;
  5.0175351E-01;  9.9999998E-03;  1.1998285E-01;5538; -9.6106511E-03;  0.0000000E+00;  1.9226262E-03;  9.9980560E+02;  1.0000389E-01; -1.6103249E+02;3; -2.0944276E+00;  0.0000000E+00; -1.3231416E-01;0; -2.0924270E-02;  3.9982469E+04;  0.0000000E+00; -1.0902102E-01;  4.0000000E+04;  0.0000000E+00;  3.9999418E+04; -3.3673711E-02;  0.0000000E+00;  1.2749440E-02;  1.6351938E+02;
  5.0173414E-01;  9.9999998E-03;  1.2998189E-01;5539; -9.6428907E-03;  0.0000000E+00;  2.0447508E-03;  9.9979877E+02;  1.0000384E-01; -1.6671133E+02;3; -2.0459766E+00;  0.0000000E+00; -1.3941421E-01;0; -2.1220945E-02;  3.9981984E+04;  0.0000000E+00; -1.0386778E-01;  4.0000000E+04;  0.0000000E+00;  3.9999129E+04; -3.3409595E-02;  0.0000000E+00;  1.2188650E-02;  1.7780901E+02;
  5.0171977E-01;  9.9999998E-03;  1.3998076E-01;5540; -9.6781161E-03;  0.0000000E+00;  2.1616067E-03;  9.9977881E+02;  1.0000389E-01; -1.8325407E+02;3; -1.9953512E+00;  0.0000000E+00; -1.4615269E-01;0; -2.1522315E-02;  3.9980539E+04;  0.0000000E+00; -9.2564307E-02;  4.0000000E+04;  0.0000000E+00;  3.9998918E+04; -3.3138599E-02;  0.0000000E+00;  1.1616284E-02;  1.7784395E+02;
  5.0171095E-01;  9.9999998E-03;  1.4997976E-01;5541; -9.7154267E-03;  0.0000000E+00;  2.2737118E-03;  9.9974298E+02;  1.0000379E-01; -2.1293225E+02;3; -1.9423652E+00;  0.0000000E+00; -1.5336600E-01;0; -2.1826100E-02;  3.9977656E+04;  0.0000000E+00; -7.6214924E-02;  4.0000000E+04;  0.0000000E+00;  3.9998809E+04; -3.2859027E-02;  0.0000000E+00;  1.1032928E-02;  1.4961617E+02;
  5.0170755E-01;  9.9999998E-03;  1.5997936E-01;5542; -9.7538820E-03;  0.0000000E+00;  2.3811397E-03;  9.9968616E+02;  1.0000366E-01; -2.5999265E+02;3; -1.8877358E+00;  0.0000000E+00; -1.6219155E-01;0; -2.2126544E-02;  3.9973035E+04;  0.0000000E+00; -5.7115138E-02;  4.0000000E+04;  0.0000000E+00;  3.9999590E+04; -3.2569725E-02;  0.0000000E+00;  1.0443180E-02;  9.0403221E+01;
  5.0170857E-01;  9.9999998E-03;  1.6998005E-01;5543; -9.7928224E-03;  0.0000000E+00;  2.4833137E-03;  9.9961780E+02;  1.0000373E-01; -3.1663303E+02;3; -1.8315097E+00;  0.0000000E+00; -1.7117143E-01;0; -2.2414085E-02;  3.9966516E+04;  0.0000000E+00; -3.8447190E-02;  4.0000000E+04;  0.0000000E+00;  4.0000023E+04; -3.2270435E-02;  0.0000000E+00;  9.8563507E-03;  8.8814728E+01;
  5.0171256E-01;  9.9999998E-03;  1.7998205E-01;5544; -9.8317107E-03;  0.0000000E+00;  2.5793926E-03;  9.9952753E+02;  1.0000380E-01; -3.9144571E+02;3; -1.7740368E+00;  0.0000000E+00; -1.8313667E-01;0; -2.2678534E-02;  3.9957984E+04;  0.0000000E+00; -2.3631806E-02;  4.0000000E+04;  0.0000000E+00;  4.0001457E+04; -3.1962488E-02;  0.0000000E+00;  9.2839543E-03;  2.3901256E+02;
  5.0171751E-01;  9.9999998E-03;  1.8998544E-01;5545; -9.8703094E-03;  0.0000000E+00;  2.6690105E-03;  9.9941559E+02;  1.0000368E-01; -4.8418384E+02;3; -1.7161268E+00;  0.0000000E+00; -1.9773644E-01;0; -2.2911517E-02;  3.9947449E+04;  0.0000000E+00; -1.5494912E-02;  4.0000000E+04;  0.0000000E+00;  4.0003121E+04; -3.1648938E-02;  0.0000000E+00;  8.7374207E-03;  4.4695386E+02;
  5.0172448E-01;  9.9999998E-03;  1.9999039E-01;5546; -9.9088401E-03;  0.0000000E+00;  2.7513329E-03;  9.9928723E+02;  1.0000372E-01; -5.9050183E+02;3; -1.6578599E+00;  0.0000000E+00; -2.1447547E-01;0; -2.3107802E-02;  3.9935371E+04;  0.0000000E+00; -1.5592320E-02;  4.0000000E+04;  0.0000000E+00;  4.0005035E+04; -3.1334110E-02;  0.0000000E+00;  8.2263071E-03;  6.7604248E+02;
  5.0173336E-01;  9.9999998E-03;  2.0999683E-01;5547; -9.9474741E-03;  0.0000000E+00;  2.8237239E-03;  9.9914087E+02;  1.0000365E-01; -7.1178235E+02;3; -1.5990114E+00;  0.0000000E+00; -2.3349914E-01;0; -2.3268620E-02;  3.9922613E+04;  0.0000000E+00; -2.3925783E-02;  4.0000000E+04;  0.0000000E+00;  4.0006602E+04; -3.1023314E-02;  0.0000000E+00;  7.7546942E-03;  8.7621912E+02;
  5.0174242E-01;  9.9999998E-03;  2.2000164E-01;5548; -9.9873077E-03;  0.0000000E+00;  2.8779279E-03;  9.9898236E+02;  1.0000384E-01; -8.4308728E+02;3; -1.5405790E+00;  0.0000000E+00; -2.5335634E-01;0; -2.3417845E-02;  3.9908848E+04;  0.0000000E+00; -3.8941894E-02;  4.0000000E+04;  0.0000000E+00;  4.0007613E+04; -3.0721938E-02;  0.0000000E+00;  7.3040919E-03;  1.0188001E+03;
  5.0174952E-01;  9.9999998E-03;  2.2999959E-01;5549; -1.0028476E-02;  0.0000000E+00;  2.9241287E-03;  9.9883203E+02;  1.0000373E-01; -9.6762695E+02;3; -1.4827528E+00;  0.0000000E+00; -2.7412426E-01;0; -2.3571655E-02;  3.9895258E+04;  0.0000000E+00; -5.7591535E-02;  4.0000000E+04;  0.0000000E+00;  4.0009137E+04; -3.0434927E-02;  0.0000000E+00;  6.8632718E-03;  1.2204720E+03;
  5.1186275E-01;  9.9999998E-03;  6.9983818E-02;5594; -9.8712016E-03;  0.0000000E+00;  1.2918526E-03;  9.9979657E+02;  1.0000610E-01; -1.6853844E+02;3; -2.2856975E+00;  0.0000000E+00; -1.2685697E-01;0; -1.9746063E-02;  3.9976203E+04;  0.0000000E+00; -8.8696584E-02;  4.0000000E+04;  0.0000000E+00;  4.0002543E+04; -3.5724498E-02;  0.0000000E+00;  1.5978435E-02;  3.6918820E+02;
  5.1185006E-01;  9.9999998E-03;  7.9980090E-02;5595; -9.8753590E-03;  0.0000000E+00;  1.4518842E-03;  9.9978131E+02;  1.0000617E-01; -1.8118005E+02;3; -2.2533815E+00;  0.0000000E+00; -1.3940866E-01;0; -1.9987002E-02;  3.9975418E+04;  0.0000000E+00; -1.0704700E-01;  4.0000000E+04;  0.0000000E+00;  4.0002129E+04; -3.5465185E-02;  0.0000000E+00;  1.5478182E-02;  3.2500183E+02;
  5.1183385E-01;  9.9999998E-03;  8.9976490E-02;5596; -9.8857526E-03;  0.0000000E+00;  1.6039755E-03;  9.9977325E+02;  1.0000612E-01; -1.8784654E+02;3; -2.2167916E+00;  0.0000000E+00; -1.5101364E-01;0; -2.0251341E-02;  3.9975137E+04;  0.0000000E+00; -1.2226678E-01;  4.0000000E+04;  0.0000000E+00;  4.0001273E+04; -3.5193328E-02;  0.0000000E+00;  1.4941988E-02;  2.7299661E+02;
  5.1181430E-01;  9.9999998E-03;  9.9973425E-02;5597; -9.9022426E-03;  0.0000000E+00;  1.7482680E-03;  9.9976569E+02;  1.0000619E-01; -1.9411797E+02;3; -2.1764774E+00;  0.0000000E+00; -1.6152537E-01;0; -2.0534344E-02;  3.9975512E+04;  0.0000000E+00; -1.3240556E-01;  4.0000000E+04;  0.0000000E+00;  4.0000895E+04; -3.4912437E-02;  0.0000000E+00;  1.4378094E-02;  2.2431030E+02;
  5.1179242E-01;  9.9999998E-03;  1.0997111E-01;5598; -9.9242488E-03;  0.0000000E+00;  1.8851169E-03;  9.9975879E+02;  1.0000629E-01; -1.9984621E+02;3; -2.1327448E+00;  0.0000000E+00; -1.7164880E-01;0; -2.0831086E-02;  3.9975629E+04;  0.0000000E+00; -1.3574764E-01;  4.0000000E+04;  0.0000000E+00;  3.9999961E+04; -3.4624528E-02;  0.0000000E+00;  1.3793441E-02;  1.9575815E+02;
  5.1177013E-01;  9.9999998E-03;  1.1996946E-01;5599; -9.9509377E-03;  0.0000000E+00;  2.0157010E-03;  9.9975153E+02;  1.0000619E-01; -2.0587073E+02;3; -2.0860021E+00;  0.0000000E+00; -1.8043801E-01;0; -2.1137277E-02;  3.9975961E+04;  0.0000000E+00; -1.3108169E-01;  4.0000000E+04;  0.0000000E+00;  3.9999359E+04; -3.4330491E-02;  0.0000000E+00;  1.3193214E-02;  1.9644510E+02;
  5.1174927E-01;  9.9999998E-03;  1.2996836E-01;5600; -9.9812513E-03;  0.0000000E+00;  2.1400179E-03;  9.9973969E+02;  1.0000630E-01; -2.1564822E+02;3; -2.0362239E+00;  0.0000000E+00; -1.8970241E-01;0; -2.1449693E-02;  3.9975523E+04;  0.0000000E+00; -1.1799162E-01;  4.0000000E+04;  0.0000000E+00;  3.9998645E+04; -3.4030389E-02;  0.0000000E+00;  1.2580696E-02;  2.1141782E+02;
  5.1173145E-01;  9.9999998E-03;  1.3996772E-01;5601; -1.0014159E-02;  0.0000000E+00;  2.2581408E-03;  9.9972046E+02;  1.0000619E-01; -2.3159839E+02;3; -1.9839430E+00;  0.0000000E+00; -1.9927576E-01;0; -2.1765888E-02;  3.9974227E+04;  0.0000000E+00; -9.7090244E-02;  4.0000000E+04;  0.0000000E+00;  3.9998398E+04; -3.3723243E-02;  0.0000000E+00;  1.1957355E-02;  2.1475937E+02;
  5.1171803E-01;  9.9999998E-03;  1.4996783E-01;5602; -1.0048869E-02;  0.0000000E+00;  2.3709517E-03;  9.9968536E+02;  1.0000607E-01; -2.6068399E+02;3; -1.9295533E+00;  0.0000000E+00; -2.0812653E-01;0; -2.2083897E-02;  3.9971676E+04;  0.0000000E+00; -7.0160106E-02;  4.0000000E+04;  0.0000000E+00;  3.9998590E+04; -3.3407990E-02;  0.0000000E+00;  1.1324092E-02;  1.8562091E+02;
  5.1170963E-01;  9.9999998E-03;  1.5996890E-01;5603; -1.0084512E-02;  0.0000000E+00;  2.4784468E-03;  9.9963416E+02;  1.0000635E-01; -3.0310254E+02;3; -1.8730483E+00;  0.0000000E+00; -2.1845408E-01;0; -2.2398025E-02;  3.9966906E+04;  0.0000000E+00; -4.0409885E-02;  4.0000000E+04;  0.0000000E+00;  3.9999125E+04; -3.3083897E-02;  0.0000000E+00;  1.0685872E-02;  1.1008272E+02;
  5.1170582E-01;  9.9999998E-03;  1.6997120E-01;5604; -1.0120519E-02;  0.0000000E+00;  2.5806515E-03;  9.9956055E+02;  1.0000616E-01; -3.6408847E+02;3; -1.8147166E+00;  0.0000000E+00; -2.2859530E-01;0; -2.2698596E-02;  3.9960297E+04;  0.0000000E+00; -1.2165098E-02;  4.0000000E+04;  0.0000000E+00;  4.0000117E+04; -3.2751027E-02;  0.0000000E+00;  1.0052431E-02;  3.3030212E+01;
  5.1170522E-01;  9.9999998E-03;  1.7997470E-01;5605; -1.0156365E-02;  0.0000000E+00;  2.6768148E-03;  9.9946967E+02;  1.0000625E-01; -4.3939499E+02;3; -1.7547888E+00;  0.0000000E+00; -2.4163628E-01;0; -2.2975264E-02;  3.9951586E+04;  0.0000000E+00;  1.0089439E-02;  4.0000000E+04;  0.0000000E+00;  4.0001270E+04; -3.2410845E-02;  0.0000000E+00;  9.4355810E-03;  2.1435509E+02;
  5.1170796E-01;  9.9999998E-03;  1.8997933E-01;5606; -1.0191939E-02;  0.0000000E+00;  2.7668269E-03;  9.9935553E+02;  1.0000610E-01; -5.3391083E+02;3; -1.6943324E+00;  0.0000000E+00; -2.5636816E-01;0; -2.3219716E-02;  3.9940691E+04;  0.0000000E+00;  2.2774233E-02;  4.0000000E+04;  0.0000000E+00;  4.0003152E+04; -3.2066628E-02;  0.0000000E+00;  8.8469135E-03;  4.5092667E+02;
  5.1171386E-01;  9.9999998E-03;  1.9998501E-01;5607; -1.0227330E-02;  0.0000000E+00;  2.8503372E-03;  9.9921991E+02;  1.0000618E-01; -6.4630273E+02;3; -1.6335663E+00;  0.0000000E+00; -2.7375019E-01;0; -2.3426456E-02;  3.9928137E+04;  0.0000000E+00;  2.3957921E-02;  4.0000000E+04;  0.0000000E+00;  4.0005012E+04; -3.1722914E-02;  0.0000000E+00;  8.2964581E-03;  7.1235547E+02;
  5.1172161E-01;  9.9999998E-03;  2.0999151E-01;5608; -1.0262651E-02;  0.0000000E+00;  2.9257911E-03;  9.9907257E+02;  1.0000617E-01; -7.6837335E+02;3; -1.5720035E+00;  0.0000000E+00; -2.9377270E-01;0; -2.3594528E-02;  3.9914316E+04;  0.0000000E+00;  1.3561334E-02;  4.0000000E+04;  0.0000000E+00;  4.0006945E+04; -3.1385113E-02;  0.0000000E+00;  7.7905837E-03;  9.5409344E+02;
  5.1172900E-01;  9.9999998E-03;  2.1999595E-01;5609; -1.0298896E-02;  0.0000000E+00;  2.9869087E-03;  9.9890686E+02;  1.0000622E-01; -9.0565338E+02;3; -1.5106424E+00;  0.0000000E+00; -3.1493556E-01;0; -2.3739047E-02;  3.9899828E+04;  0.0000000E+00; -6.7956322E-03;  4.0000000E+04;  0.0000000E+00;  4.0008312E+04; -3.1058630E-02;  0.0000000E+00;  7.3195826E-03;  1.1549298E+03;
  5.1173466E-01;  9.9999998E-03;  2.2999480E-01;5610; -1.0336349E-02;  0.0000000E+00;  3.0422874E-03;  9.9874860E+02;  1.0000625E-01; -1.0367607E+03;3; -1.4495062E+00;  0.0000000E+00; -3.3840451E-01;0; -2.3864787E-02;  3.9885289E+04;  0.0000000E+00; -3.4005579E-02;  4.0000000E+04;  0.0000000E+00;  4.0010250E+04; -3.0748552E-02;  0.0000000E+00;  6.8837656E-03;  1.3984253E+03;
  5.2184147E-01;  9.9999998E-03;  6.9982730E-02;5655; -1.0228983E-02;  0.0000000E+00;  1.3476734E-03;  9.9974860E+02;  1.0001037E-01; -2.0829041E+02;3; -2.2773681E+00;  0.0000000E+00; -1.6142476E-01;0; -1.9867545E-02;  3.9967914E+04;  0.0000000E+00; -1.0734288E-01;  4.0000000E+04;  0.0000000E+00;  4.0002582E+04; -3.6532883E-02;  0.0000000E+00;  1.6665338E-02;  3.9871875E+02;
  5.2183390E-01;  9.9999998E-03;  7.9978660E-02;5656; -1.0231098E-02;  0.0000000E+00;  1.5155870E-03;  9.9973108E+02;  1.0001046E-01; -2.2280852E+02;3; -2.2444298E+00;  0.0000000E+00; -1.7823088E-01;0; -2.0122174E-02;  3.9967328E+04;  0.0000000E+00; -1.2689501E-01;  4.0000000E+04;  0.0000000E+00;  4.0002027E+04; -3.6244586E-02;  0.0000000E+00;  1.6122412E-02;  3.5826895E+02;
  5.2182317E-01;  9.9999998E-03;  8.9974500E-02;5657; -1.0239524E-02;  0.0000000E+00;  1.6747438E-03;  9.9972308E+02;  1.0001046E-01; -2.2942561E+02;3; -2.2075217E+00;  0.0000000E+00; -1.9385302E-01;0; -2.0401649E-02;  3.9967223E+04;  0.0000000E+00; -1.4157434E-01;  4.0000000E+04;  0.0000000E+00;  4.0001520E+04; -3.5940856E-02;  0.0000000E+00;  1.5539207E-02;  3.0423853E+02;
  5.2180928E-01;  9.9999998E-03;  9.9970572E-02;5658; -1.0254110E-02;  0.0000000E+00;  1.8249552E-03;  9.9972040E+02;  1.0001040E-01; -2.3164777E+02;3; -2.1665127E+00;  0.0000000E+00; -2.0812058E-01;0; -2.0700406E-02;  3.9967301E+04;  0.0000000E+00; -1.4927797E-01;  4.0000000E+04;  0.0000000E+00;  4.0000812E+04; -3.5625499E-02;  0.0000000E+00;  1.4925093E-02;  2.4896504E+02;
  5.2179241E-01;  9.9999998E-03;  1.0996727E-01;5659; -1.0274133E-02;  0.0000000E+00;  1.9665307E-03;  9.9971265E+02;  1.0001045E-01; -2.3806734E+02;3; -2.1217551E+00;  0.0000000E+00; -2.2134273E-01;0; -2.1013077E-02;  3.9968055E+04;  0.0000000E+00; -1.4834951E-01;  4.0000000E+04;  0.0000000E+00;  4.0000020E+04; -3.5301268E-02;  0.0000000E+00;  1.4288192E-02;  2.1310292E+02;
  5.2177364E-01;  9.9999998E-03;  1.1996485E-01;5660; -1.0298626E-02;  0.0000000E+00;  2.1004553E-03;  9.9971039E+02;  1.0001054E-01; -2.3994383E+02;3; -2.0740671E+00;  0.0000000E+00; -2.3331556E-01;0; -2.1335028E-02;  3.9968555E+04;  0.0000000E+00; -1.3785277E-01;  4.0000000E+04;  0.0000000E+00;  3.9999328E+04; -3.4969822E-02;  0.0000000E+00;  1.3634793E-02;  2.1138338E+02;
  5.2175450E-01;  9.9999998E-03;  1.2996350E-01;5661; -1.0326566E-02;  0.0000000E+00;  2.2275967E-03;  9.9970117E+02;  1.0001041E-01; -2.4759793E+02;3; -2.0230744E+00;  0.0000000E+00; -2.4518347E-01;0; -2.1662313E-02;  3.9968566E+04;  0.0000000E+00; -1.1782189E-01;  4.0000000E+04;  0.0000000E+00;  3.9998559E+04; -3.4631483E-02;  0.0000000E+00;  1.2969171E-02;  2.2898726E+02;
  5.2173662E-01;  9.9999998E-03;  1.3996334E-01;5662; -1.0356771E-02;  0.0000000E+00;  2.3481234E-03;  9.9968097E+02;  1.0001052E-01; -2.6428882E+02;3; -1.9693880E+00;  0.0000000E+00; -2.5702405E-01;0; -2.1992788E-02;  3.9967449E+04;  0.0000000E+00; -8.9427181E-02;  4.0000000E+04;  0.0000000E+00;  3.9998148E+04; -3.4286276E-02;  0.0000000E+00;  1.2293487E-02;  2.3478900E+02;
  5.2172142E-01;  9.9999998E-03;  1.4996439E-01;5663; -1.0388448E-02;  0.0000000E+00;  2.4633743E-03;  9.9964746E+02;  1.0001054E-01; -2.9209052E+02;3; -1.9132833E+00;  0.0000000E+00; -2.6734972E-01;0; -2.2324361E-02;  3.9964824E+04;  0.0000000E+00; -5.5031396E-02;  4.0000000E+04;  0.0000000E+00;  3.9997965E+04; -3.3933487E-02;  0.0000000E+00;  1.1609125E-02;  2.0380495E+02;
  5.2170998E-01;  9.9999998E-03;  1.5996662E-01;5664; -1.0420944E-02;  0.0000000E+00;  2.5730319E-03;  9.9959491E+02;  1.0001034E-01; -3.3559546E+02;3; -1.8553059E+00;  0.0000000E+00; -2.8055421E-01;0; -2.2651341E-02;  3.9960145E+04;  0.0000000E+00; -1.8490769E-02;  4.0000000E+04;  0.0000000E+00;  3.9998594E+04; -3.3572827E-02;  0.0000000E+00;  1.0921486E-02;  1.2020503E+02;
  5.2170217E-01;  9.9999998E-03;  1.6996995E-01;5665; -1.0453913E-02;  0.0000000E+00;  2.6771133E-03;  9.9951831E+02;  1.0001042E-01; -3.9905045E+02;3; -1.7949630E+00;  0.0000000E+00; -2.9186666E-01;0; -2.2963909E-02;  3.9953363E+04;  0.0000000E+00;  1.5109995E-02;  4.0000000E+04;  0.0000000E+00;  3.9999941E+04; -3.3204727E-02;  0.0000000E+00;  1.0240817E-02;  3.0857723E+01;
  5.2169812E-01;  9.9999998E-03;  1.7997423E-01;5666; -1.0486891E-02;  0.0000000E+00;  2.7750046E-03;  9.9942059E+02;  1.0001040E-01; -4.8003580E+02;3; -1.7328608E+00;  0.0000000E+00; -3.0596614E-01;0; -2.3251627E-02;  3.9944094E+04;  0.0000000E+00;  4.0675275E-02;  4.0000000E+04;  0.0000000E+00;  4.0001375E+04; -3.2830987E-02;  0.0000000E+00;  9.5793614E-03;  2.3248897E+02;
  5.2169794E-01;  9.9999998E-03;  1.8997929E-01;5667; -1.0519829E-02;  0.0000000E+00;  2.8666316E-03;  9.9930255E+02;  1.0001057E-01; -5.7781079E+02;3; -1.6700407E+00;  0.0000000E+00; -3.2101074E-01;0; -2.3505941E-02;  3.9932406E+04;  0.0000000E+00;  5.4322574E-02;  4.0000000E+04;  0.0000000E+00;  4.0003402E+04; -3.2455061E-02;  0.0000000E+00;  8.9491196E-03;  4.8712964E+02;
  5.2170122E-01;  9.9999998E-03;  1.9998461E-01;5668; -1.0552704E-02;  0.0000000E+00;  2.9519578E-03;  9.9916113E+02;  1.0001054E-01; -6.9499268E+02;3; -1.6064892E+00;  0.0000000E+00; -3.3918828E-01;0; -2.3720941E-02;  3.9919023E+04;  0.0000000E+00;  5.4065421E-02;  4.0000000E+04;  0.0000000E+00;  4.0005398E+04; -3.2081705E-02;  0.0000000E+00;  8.3607640E-03;  7.6765918E+02;
  5.2170676E-01;  9.9999998E-03;  2.0998952E-01;5669; -1.0585459E-02;  0.0000000E+00;  3.0297514E-03;  9.9900049E+02;  1.0001054E-01; -8.2807532E+02;3; -1.5420793E+00;  0.0000000E+00; -3.5950604E-01;0; -2.3894299E-02;  3.9904246E+04;  0.0000000E+00;  3.9902277E-02;  4.0000000E+04;  0.0000000E+00;  4.0007520E+04; -3.1716395E-02;  0.0000000E+00;  7.8220973E-03;  1.0411792E+03;
  5.2171242E-01;  9.9999998E-03;  2.1999212E-01;5670; -1.0618730E-02;  0.0000000E+00;  3.0975507E-03;  9.9882751E+02;  1.0001040E-01; -9.7137994E+02;3; -1.4776798E+00;  0.0000000E+00; -3.8102713E-01;0; -2.4031397E-02;  3.9888754E+04;  0.0000000E+00;  1.3501516E-02;  4.0000000E+04;  0.0000000E+00;  4.0009191E+04; -3.1364679E-02;  0.0000000E+00;  7.3332819E-03;  1.2962598E+03;
  5.2171642E-01;  9.9999998E-03;  2.2999100E-01;5671; -1.0652733E-02;  0.0000000E+00;  3.1611989E-03;  9.9866107E+02;  1.0001051E-01; -1.1092526E+03;3; -1.4133269E+00;  0.0000000E+00; -4.0751290E-01;0; -2.4127539E-02;  3.9872941E+04;  0.0000000E+00; -2.2028985E-02;  4.0000000E+04;  0.0000000E+00;  4.0011637E+04; -3.1031536E-02;  0.0000000E+00;  6.9039976E-03;  1.5786932E+03;
  5.3180832E-01;  9.9999998E-03;  6.9987334E-02;5716; -1.0597401E-02;  0.0000000E+00;  1.3953510E-03;  9.9966882E+02;  1.0001725E-01; -2.7436261E+02;3; -2.2643528E+00;  0.0000000E+00; -1.9893195E-01;0; -1.9979324E-02;  3.9955273E+04;  0.0000000E+00; -1.1227860E-01;  4.0000000E+04;  0.0000000E+00;  4.0002461E+04; -3.7330586E-02;  0.0000000E+00;  1.7351262E-02;  3.8364795E+02;
  5.3180504E-01;  9.9999998E-03;  7.9983704E-02;5717; -1.0596952E-02;  0.0000000E+00;  1.5708948E-03;  9.9966187E+02;  1.0001741E-01; -2.8014023E+02;3; -2.2314537E+00;  0.0000000E+00; -2.2054926E-01;0; -2.0244880E-02;  3.9955738E+04;  0.0000000E+00; -1.3018122E-01;  4.0000000E+04;  0.0000000E+00;  4.0001887E+04; -3.7011392E-02;  0.0000000E+00;  1.6766513E-02;  3.4628500E+02;
  5.3179902E-01;  9.9999998E-03;  8.9979775E-02;5718; -1.0602735E-02;  0.0000000E+00;  1.7370185E-03;  9.9966498E+02;  1.0001743E-01; -2.7757239E+02;3; -2.1939917E+00;  0.0000000E+00; -2.4018437E-01;0; -2.0537084E-02;  3.9956305E+04;  0.0000000E+00; -1.4205123E-01;  4.0000000E+04;  0.0000000E+00;  4.0001195E+04; -3.6673632E-02;  0.0000000E+00;  1.6136548E-02;  2.9199261E+02;
  5.3179014E-01;  9.9999998E-03;  9.9975795E-02;5719; -1.0614649E-02;  0.0000000E+00;  1.8932071E-03;  9.9967004E+02;  1.0001730E-01; -2.7337497E+02;3; -2.1523807E+00;  0.0000000E+00; -2.5849172E-01;0; -2.0849859E-02;  3.9957543E+04;  0.0000000E+00; -1.4596456E-01;  4.0000000E+04;  0.0000000E+00;  4.0000414E+04; -3.6321681E-02;  0.0000000E+00;  1.5471822E-02;  2.3521646E+02;
  5.3177798E-01;  9.9999998E-03;  1.0997236E-01;5720; -1.0631938E-02;  0.0000000E+00;  2.0397336E-03;  9.9967523E+02;  1.0001743E-01; -2.6907880E+02;3; -2.1069365E+00;  0.0000000E+00; -2.7534908E-01;0; -2.1177255E-02;  3.9959137E+04;  0.0000000E+00; -1.4062929E-01;  4.0000000E+04;  0.0000000E+00;  3.9999578E+04; -3.5958979E-02;  0.0000000E+00;  1.4781726E-02;  2.0090213E+02;
  5.3176296E-01;  9.9999998E-03;  1.1996992E-01;5721; -1.0653610E-02;  0.0000000E+00;  2.1775442E-03;  9.9968036E+02;  1.0001743E-01; -2.6483203E+02;3; -2.0584054E+00;  0.0000000E+00; -2.9068488E-01;0; -2.1513848E-02;  3.9960262E+04;  0.0000000E+00; -1.2557963E-01;  4.0000000E+04;  0.0000000E+00;  3.9998875E+04; -3.5587762E-02;  0.0000000E+00;  1.4073914E-02;  2.0597980E+02;
  5.3174633E-01;  9.9999998E-03;  1.2996876E-01;5722; -1.0678628E-02;  0.0000000E+00;  2.3081983E-03;  9.9967792E+02;  1.0001732E-01; -2.6685666E+02;3; -2.0063725E+00;  0.0000000E+00; -3.0558962E-01;0; -2.1855455E-02;  3.9960754E+04;  0.0000000E+00; -1.0133281E-01;  4.0000000E+04;  0.0000000E+00;  3.9998145E+04; -3.5209227E-02;  0.0000000E+00;  1.3353772E-02;  2.2968073E+02;
  5.3172910E-01;  9.9999998E-03;  1.3996899E-01;5723; -1.0705698E-02;  0.0000000E+00;  2.4322120E-03;  9.9966388E+02;  1.0001726E-01; -2.7846127E+02;3; -1.9514635E+00;  0.0000000E+00; -3.1999189E-01;0; -2.2199471E-02;  3.9960074E+04;  0.0000000E+00; -6.9483452E-02;  4.0000000E+04;  0.0000000E+00;  3.9997887E+04; -3.4823798E-02;  0.0000000E+00;  1.2624326E-02;  2.3612462E+02;
  5.3171265E-01;  9.9999998E-03;  1.4997074E-01;5724; -1.0734071E-02;  0.0000000E+00;  2.5511272E-03;  9.9963556E+02;  1.0001729E-01; -3.0191739E+02;3; -1.8940226E+00;  0.0000000E+00; -3.3266428E-01;0; -2.2544038E-02;  3.9957680E+04;  0.0000000E+00; -3.2661408E-02;  4.0000000E+04;  0.0000000E+00;  3.9997820E+04; -3.4431558E-02;  0.0000000E+00;  1.1887521E-02;  1.9965700E+02;
  5.3169823E-01;  9.9999998E-03;  1.5997392E-01;5725; -1.0762999E-02;  0.0000000E+00;  2.6651772E-03;  9.9958167E+02;  1.0001763E-01; -3.4655811E+02;3; -1.8342143E+00;  0.0000000E+00; -3.4712705E-01;0; -2.2883151E-02;  3.9953055E+04;  0.0000000E+00;  5.1547401E-03;  4.0000000E+04;  0.0000000E+00;  3.9998691E+04; -3.4032449E-02;  0.0000000E+00;  1.1149299E-02;  1.0785110E+02;
  5.3168702E-01;  9.9999998E-03;  1.6997810E-01;5726; -1.0792566E-02;  0.0000000E+00;  2.7735394E-03;  9.9950781E+02;  1.0001736E-01; -4.0779092E+02;3; -1.7721087E+00;  0.0000000E+00; -3.6004341E-01;0; -2.3206929E-02;  3.9945953E+04;  0.0000000E+00;  3.8786445E-02;  4.0000000E+04;  0.0000000E+00;  3.9999961E+04; -3.3627424E-02;  0.0000000E+00;  1.0420496E-02;  7.3691757E+01;
  5.3167969E-01;  9.9999998E-03;  1.7998281E-01;5727; -1.0822425E-02;  0.0000000E+00;  2.8753711E-03;  9.9940436E+02;  1.0001744E-01; -4.9346753E+02;3; -1.7081232E+00;  0.0000000E+00; -3.7592378E-01;0; -2.3504458E-02;  3.9935969E+04;  0.0000000E+00;  6.3128367E-02;  4.0000000E+04;  0.0000000E+00;  4.0001730E+04; -3.3218559E-02;  0.0000000E+00;  9.7140996E-03;  2.8138022E+02;
  5.3167665E-01;  9.9999998E-03;  1.8998766E-01;5728; -1.0852719E-02;  0.0000000E+00;  2.9700049E-03;  9.9927509E+02;  1.0001754E-01; -6.0057562E+02;3; -1.6432568E+00;  0.0000000E+00; -3.9258075E-01;0; -2.3766879E-02;  3.9923789E+04;  0.0000000E+00;  7.4428439E-02;  4.0000000E+04;  0.0000000E+00;  4.0003488E+04; -3.2809623E-02;  0.0000000E+00;  9.0427436E-03;  5.3931470E+02;
  5.3167784E-01;  9.9999998E-03;  1.9999185E-01;5729; -1.0883270E-02;  0.0000000E+00;  3.0572428E-03;  9.9912158E+02;  1.0001753E-01; -7.2773248E+02;3; -1.5766213E+00;  0.0000000E+00; -4.1051206E-01;0; -2.3988020E-02;  3.9909633E+04;  0.0000000E+00;  7.0863724E-02;  4.0000000E+04;  0.0000000E+00;  4.0005809E+04; -3.2405637E-02;  0.0000000E+00;  8.4176175E-03;  8.1499036E+02;
  5.3168267E-01;  9.9999998E-03;  2.0999406E-01;5730; -1.0913869E-02;  0.0000000E+00;  3.1356961E-03;  9.9894867E+02;  1.0001735E-01; -8.7098773E+02;3; -1.5092926E+00;  0.0000000E+00; -4.3109342E-01;0; -2.4165485E-02;  3.9893703E+04;  0.0000000E+00;  5.2497938E-02;  4.0000000E+04;  0.0000000E+00;  4.0007660E+04; -3.2012109E-02;  0.0000000E+00;  7.8466227E-03;  1.0887996E+03;
  5.3168988E-01;  9.9999998E-03;  2.1999297E-01;5731; -1.0944632E-02;  0.0000000E+00;  3.2061092E-03;  9.9876648E+02;  1.0001730E-01; -1.0219464E+03;3; -1.4415956E+00;  0.0000000E+00; -4.5347700E-01;0; -2.4299517E-02;  3.9877242E+04;  0.0000000E+00;  2.0893065E-02;  4.0000000E+04;  0.0000000E+00;  4.0010117E+04; -3.1634688E-02;  0.0000000E+00;  7.3351702E-03;  1.3756135E+03;
  5.3169733E-01;  9.9999998E-03;  2.2998960E-01;5732; -1.0975465E-02;  0.0000000E+00;  3.2751895E-03;  9.9858734E+02;  1.0001736E-01; -1.1703373E+03;3; -1.3745220E+00;  0.0000000E+00; -4.8098889E-01;0; -2.4374276E-02;  3.9860203E+04;  0.0000000E+00; -2.1092970E-02;  4.0000000E+04;  0.0000000E+00;  4.0012418E+04; -3.1278159E-02;  0.0000000E+00;  6.9038835E-03;  1.7026025E+03;
  5.4177243E-01;  9.9999998E-03;  6.9996275E-02;5777; -1.0977228E-02;  0.0000000E+00;  1.4370041E-03;  9.9959180E+02;  1.0002947E-01; -3.3821265E+02;3; -2.2462406E+00;  0.0000000E+00; -2.3806815E-01;0; -2.0074602E-02;  3.9939402E+04;  0.0000000E+00; -9.9261120E-02;  4.0000000E+04;  0.0000000E+00;  4.0001840E+04; -3.8111653E-02;  0.0000000E+00;  1.8037051E-02;  3.2344958E+02;
  5.4177296E-01;  9.9999998E-03;  7.9993673E-02;5778; -1.0973305E-02;  0.0000000E+00;  1.6205175E-03;  9.9960706E+02;  1.0002926E-01; -3.2557104E+02;3; -2.2135935E+00;  0.0000000E+00; -2.6497680E-01;0; -2.0348845E-02;  3.9940891E+04;  0.0000000E+00; -1.1232705E-01;  4.0000000E+04;  0.0000000E+00;  4.0001375E+04; -3.7759885E-02;  0.0000000E+00;  1.7411040E-02;  2.8728711E+02;
  5.4177094E-01;  9.9999998E-03;  8.9990653E-02;5779; -1.0975539E-02;  0.0000000E+00;  1.7936080E-03;  9.9962524E+02;  1.0002936E-01; -3.1046036E+02;3; -2.1760969E+00;  0.0000000E+00; -2.9058555E-01;0; -2.0652061E-02;  3.9943258E+04;  0.0000000E+00; -1.1912122E-01;  4.0000000E+04;  0.0000000E+00;  4.0000906E+04; -3.7386250E-02;  0.0000000E+00;  1.6734188E-02;  2.3367188E+02;
  5.4176623E-01;  9.9999998E-03;  9.9987492E-02;5780; -1.0983867E-02;  0.0000000E+00;  1.9557246E-03;  9.9964673E+02;  1.0002934E-01; -2.9268307E+02;3; -2.1341670E+00;  0.0000000E+00; -3.1353328E-01;0; -2.0977722E-02;  3.9945711E+04;  0.0000000E+00; -1.1829098E-01;  4.0000000E+04;  0.0000000E+00;  3.9999910E+04; -3.6995862E-02;  0.0000000E+00;  1.6018139E-02;  1.8065125E+02;
  5.4175830E-01;  9.9999998E-03;  1.0998460E-01;5781; -1.0997538E-02;  0.0000000E+00;  2.1073159E-03;  9.9967084E+02;  1.0002936E-01; -2.7268365E+02;3; -2.0879776E+00;  0.0000000E+00; -3.3406726E-01;0; -2.1319006E-02;  3.9948551E+04;  0.0000000E+00; -1.0919920E-01;  4.0000000E+04;  0.0000000E+00;  3.9999383E+04; -3.6592789E-02;  0.0000000E+00;  1.5273784E-02;  1.6061250E+02;
  5.4174680E-01;  9.9999998E-03;  1.1998245E-01;5782; -1.1015685E-02;  0.0000000E+00;  2.2494816E-03;  9.9968866E+02;  1.0002952E-01; -2.5791864E+02;3; -2.0386946E+00;  0.0000000E+00; -3.5248125E-01;0; -2.1669794E-02;  3.9951125E+04;  0.0000000E+00; -9.1982089E-02;  4.0000000E+04;  0.0000000E+00;  3.9998492E+04; -3.6179915E-02;  0.0000000E+00;  1.4510120E-02;  1.8515494E+02;
  5.4173231E-01;  9.9999998E-03;  1.2998149E-01;5783; -1.1037151E-02;  0.0000000E+00;  2.3841145E-03;  9.9969946E+02;  1.0002955E-01; -2.4898061E+02;3; -1.9858434E+00;  0.0000000E+00; -3.7032369E-01;0; -2.2025453E-02;  3.9952395E+04;  0.0000000E+00; -6.7583673E-02;  4.0000000E+04;  0.0000000E+00;  3.9998016E+04; -3.5759270E-02;  0.0000000E+00;  1.3733817E-02;  2.1773351E+02;
  5.4171562E-01;  9.9999998E-03;  1.3998203E-01;5784; -1.1060632E-02;  0.0000000E+00;  2.5122792E-03;  9.9969879E+02;  1.0002943E-01; -2.4952380E+02;3; -1.9300466E+00;  0.0000000E+00; -3.8782400E-01;0; -2.2382988E-02;  3.9952344E+04;  0.0000000E+00; -3.7712246E-02;  4.0000000E+04;  0.0000000E+00;  3.9997891E+04; -3.5331909E-02;  0.0000000E+00;  1.2948921E-02;  2.2165486E+02;
  5.4169810E-01;  9.9999998E-03;  1.4998430E-01;5785; -1.1085307E-02;  0.0000000E+00;  2.6361272E-03;  9.9966949E+02;  1.0002962E-01; -2.7381943E+02;3; -1.8713137E+00;  0.0000000E+00; -4.0328684E-01;0; -2.2740325E-02;  3.9950250E+04;  0.0000000E+00; -4.7501125E-03;  4.0000000E+04;  0.0000000E+00;  3.9997965E+04; -3.4898426E-02;  0.0000000E+00;  1.2158101E-02;  1.7556763E+02;
  5.4168111E-01;  9.9999998E-03;  1.5998806E-01;5786; -1.1110430E-02;  0.0000000E+00;  2.7557474E-03;  9.9962164E+02;  1.0002933E-01; -3.1347263E+02;3; -1.8099291E+00;  0.0000000E+00; -4.1934142E-01;0; -2.3091473E-02;  3.9945492E+04;  0.0000000E+00;  2.7902920E-02;  4.0000000E+04;  0.0000000E+00;  3.9998844E+04; -3.4459386E-02;  0.0000000E+00;  1.1367912E-02;  7.8614197E+01;
  5.4166651E-01;  9.9999998E-03;  1.6999277E-01;5787; -1.1136073E-02;  0.0000000E+00;  2.8702437E-03;  9.9954413E+02;  1.0002951E-01; -3.7766833E+02;3; -1.7464750E+00;  0.0000000E+00; -4.3501392E-01;0; -2.3426045E-02;  3.9938145E+04;  0.0000000E+00;  5.5811793E-02;  4.0000000E+04;  0.0000000E+00;  4.0000098E+04; -3.4015965E-02;  0.0000000E+00;  1.0589919E-02;  1.3179929E+02;
  5.4165602E-01;  9.9999998E-03;  1.7999783E-01;5788; -1.1162158E-02;  0.0000000E+00;  2.9782532E-03;  9.9943896E+02;  1.0002954E-01; -4.6482635E+02;3; -1.6805015E+00;  0.0000000E+00; -4.5196462E-01;0; -2.3732755E-02;  3.9927965E+04;  0.0000000E+00;  7.4543878E-02;  4.0000000E+04;  0.0000000E+00;  4.0002027E+04; -3.3570766E-02;  0.0000000E+00;  9.8380111E-03;  3.4799817E+02;
  5.4165107E-01;  9.9999998E-03;  1.9000238E-01;5789; -1.1189134E-02;  0.0000000E+00;  3.0777806E-03;  9.9930164E+02;  1.0002946E-01; -5.7860089E+02;3; -1.6134050E+00;  0.0000000E+00; -4.7048461E-01;0; -2.4001878E-02;  3.9915340E+04;  0.0000000E+00;  8.0817983E-02;  4.0000000E+04;  0.0000000E+00;  4.0004027E+04; -3.3127844E-02;  0.0000000E+00;  9.1259666E-03;  5.9599036E+02;
  5.4165268E-01;  9.9999998E-03;  2.0000526E-01;5790; -1.1216874E-02;  0.0000000E+00;  3.1678306E-03;  9.9913776E+02;  1.0002949E-01; -7.1435016E+02;3; -1.5441195E+00;  0.0000000E+00; -4.8826244E-01;0; -2.4226604E-02;  3.9900305E+04;  0.0000000E+00;  7.2980940E-02;  4.0000000E+04;  0.0000000E+00;  4.0005910E+04; -3.2692324E-02;  0.0000000E+00;  8.4657203E-03;  8.4249597E+02;
  5.4166067E-01;  9.9999998E-03;  2.1000445E-01;5791; -1.1245048E-02;  0.0000000E+00;  3.2457118E-03;  9.9895215E+02;  1.0002949E-01; -8.6812360E+02;3; -1.4738374E+00;  0.0000000E+00; -5.0886780E-01;0; -2.4406120E-02;  3.9883887E+04;  0.0000000E+00;  5.0967045E-02;  4.0000000E+04;  0.0000000E+00;  4.0007551E+04; -3.2270011E-02;  0.0000000E+00;  7.8638894E-03;  1.0808597E+03;
  5.4167414E-01;  9.9999998E-03;  2.1999858E-01;5792; -1.1273248E-02;  0.0000000E+00;  3.3144143E-03;  9.9875830E+02;  1.0002942E-01; -1.0287117E+03;3; -1.4030645E+00;  0.0000000E+00; -5.3228146E-01;0; -2.4540644E-02;  3.9866406E+04;  0.0000000E+00;  1.6019406E-02;  4.0000000E+04;  0.0000000E+00;  4.0009703E+04; -3.1866428E-02;  0.0000000E+00;  7.3257834E-03;  1.3643380E+03;
  5.4169101E-01;  9.9999998E-03;  2.2999153E-01;5793; -1.1300973E-02;  0.0000000E+00;  3.3844500E-03;  9.9857098E+02;  1.0002951E-01; -1.1839171E+03;3; -1.3327074E+00;  0.0000000E+00; -5.6043220E-01;0; -2.4605349E-02;  3.9848766E+04;  0.0000000E+00; -2.9469362E-02;  4.0000000E+04;  0.0000000E+00;  4.0012367E+04; -3.1486284E-02;  0.0000000E+00;  6.8809362E-03;  1.7156302E+03;
  5.5175054E-01;  9.9999998E-03;  7.0006154E-02;5838; -1.1368470E-02;  0.0000000E+00;  1.4763023E-03;  9.9953583E+02;  1.0004856E-01; -3.8458173E+02;3; -2.2235491E+00;  0.0000000E+00; -2.7964586E-01;0; -2.0144356E-02;  3.9919852E+04;  0.0000000E+00; -6.6491380E-02;  4.0000000E+04;  0.0000000E+00;  4.0000938E+04; -3.8868453E-02;  0.0000000E+00;  1.8724097E-02;  2.2539651E+02;
  5.5175453E-01;  9.9999998E-03;  8.0004945E-02;5839; -1.1360177E-02;  0.0000000E+00;  1.6677405E-03;  9.9957416E+02;  1.0004842E-01; -3.5278015E+02;3; -2.1904724E+00;  0.0000000E+00; -3.1216487E-01;0; -2.0426260E-02;  3.9923152E+04;  0.0000000E+00; -7.1650043E-02;  4.0000000E+04;  0.0000000E+00;  4.0000578E+04; -3.8483139E-02;  0.0000000E+00;  1.8056879E-02;  1.8727127E+02;
  5.5175507E-01;  9.9999998E-03;  9.0003237E-02;5840; -1.1357646E-02;  0.0000000E+00;  1.8482765E-03;  9.9961548E+02;  1.0004833E-01; -3.1855890E+02;3; -2.1528609E+00;  0.0000000E+00; -3.4301928E-01;0; -2.0739798E-02;  3.9927289E+04;  0.0000000E+00; -7.1449108E-02;  4.0000000E+04;  0.0000000E+00;  3.9999906E+04; -3.8072448E-02;  0.0000000E+00;  1.7332651E-02;  1.3352187E+02;
  5.5175215E-01;  9.9999998E-03;  1.0000119E-01;5841; -1.1361259E-02;  0.0000000E+00;  2.0166724E-03;  9.9966180E+02;  1.0004845E-01; -2.8018961E+02;3; -2.1113663E+00;  0.0000000E+00; -3.7254995E-01;0; -2.1077847E-02;  3.9931461E+04;  0.0000000E+00; -6.5485619E-02;  4.0000000E+04;  0.0000000E+00;  3.9999414E+04; -3.7642192E-02;  0.0000000E+00;  1.6564345E-02;  9.3437172E+01;
  5.5174553E-01;  9.9999998E-03;  1.0999898E-01;5842; -1.1370323E-02;  0.0000000E+00;  2.1733602E-03;  9.9970856E+02;  1.0004858E-01; -2.4147466E+02;3; -2.0649085E+00;  0.0000000E+00; -3.9764109E-01;0; -2.1433081E-02;  3.9935859E+04;  0.0000000E+00; -5.4003138E-02;  4.0000000E+04;  0.0000000E+00;  3.9998816E+04; -3.7197299E-02;  0.0000000E+00;  1.5764218E-02;  1.1621947E+02;
  5.5173498E-01;  9.9999998E-03;  1.1999727E-01;5843; -1.1384069E-02;  0.0000000E+00;  2.3202230E-03;  9.9974005E+02;  1.0004846E-01; -2.1535193E+02;3; -2.0151935E+00;  0.0000000E+00; -4.1962796E-01;0; -2.1798531E-02;  3.9939410E+04;  0.0000000E+00; -3.7770644E-02;  4.0000000E+04;  0.0000000E+00;  3.9997973E+04; -3.6741406E-02;  0.0000000E+00;  1.4942875E-02;  1.7013467E+02;
  5.5172110E-01;  9.9999998E-03;  1.2999658E-01;5844; -1.1401274E-02;  0.0000000E+00;  2.4589628E-03;  9.9976440E+02;  1.0004845E-01; -1.9520436E+02;3; -1.9616054E+00;  0.0000000E+00; -4.4097048E-01;0; -2.2168765E-02;  3.9941965E+04;  0.0000000E+00; -1.7953167E-02;  4.0000000E+04;  0.0000000E+00;  3.9997973E+04; -3.6277186E-02;  0.0000000E+00;  1.4108421E-02;  2.0672856E+02;
  5.5170435E-01;  9.9999998E-03;  1.3999745E-01;5845; -1.1420730E-02;  0.0000000E+00;  2.5916388E-03;  9.9977844E+02;  1.0004857E-01; -1.8355037E+02;3; -1.9050853E+00;  0.0000000E+00; -4.6098435E-01;0; -2.2540558E-02;  3.9942656E+04;  0.0000000E+00;  4.0618624E-03;  4.0000000E+04;  0.0000000E+00;  3.9997953E+04; -3.5806630E-02;  0.0000000E+00;  1.3266072E-02;  2.0178584E+02;
  5.5168611E-01;  9.9999998E-03;  1.5000007E-01;5846; -1.1441349E-02;  0.0000000E+00;  2.7206820E-03;  9.9975934E+02;  1.0004828E-01; -1.9940176E+02;3; -1.8451859E+00;  0.0000000E+00; -4.7958902E-01;0; -2.2911530E-02;  3.9941047E+04;  0.0000000E+00;  2.6761476E-02;  4.0000000E+04;  0.0000000E+00;  3.9998281E+04; -3.5330873E-02;  0.0000000E+00;  1.2419344E-02;  1.4273802E+02;
  5.5166775E-01;  9.9999998E-03;  1.6000424E-01;5847; -1.1462330E-02;  0.0000000E+00;  2.8463507E-03;  9.9971692E+02;  1.0004862E-01; -2.3451189E+02;3; -1.7824377E+00;  0.0000000E+00; -4.9742657E-01;0; -2.3275284E-02;  3.9936691E+04;  0.0000000E+00;  4.8074111E-02;  4.0000000E+04;  0.0000000E+00;  3.9999266E+04; -3.4850825E-02;  0.0000000E+00;  1.1575541E-02;  6.7839104E+01;
  5.5165142E-01;  9.9999998E-03;  1.7000945E-01;5848; -1.1483514E-02;  0.0000000E+00;  2.9678128E-03;  9.9964062E+02;  1.0004863E-01; -2.9771997E+02;3; -1.7175820E+00;  0.0000000E+00; -5.1586157E-01;0; -2.3621283E-02;  3.9929266E+04;  0.0000000E+00;  6.5117307E-02;  4.0000000E+04;  0.0000000E+00;  4.0000621E+04; -3.4368347E-02;  0.0000000E+00;  1.0747064E-02;  2.0268689E+02;
  5.5164003E-01;  9.9999998E-03;  1.8001486E-01;5849; -1.1505044E-02;  0.0000000E+00;  3.0830544E-03;  9.9953320E+02;  1.0004853E-01; -3.8675449E+02;3; -1.6501100E+00;  0.0000000E+00; -5.3490257E-01;0; -2.3937389E-02;  3.9919078E+04;  0.0000000E+00;  7.4739970E-02;  4.0000000E+04;  0.0000000E+00;  4.0002613E+04; -3.3886358E-02;  0.0000000E+00;  9.9489689E-03;  4.2093875E+02;
  5.5163616E-01;  9.9999998E-03;  1.9001940E-01;5850; -1.1527498E-02;  0.0000000E+00;  3.1895055E-03;  9.9939508E+02;  1.0004846E-01; -5.0117102E+02;3; -1.5810018E+00;  0.0000000E+00; -5.5466551E-01;0; -2.4212498E-02;  3.9906273E+04;  0.0000000E+00;  7.4334122E-02;  4.0000000E+04;  0.0000000E+00;  4.0004234E+04; -3.3409119E-02;  0.0000000E+00;  9.1966195E-03;  6.4708862E+02;
  5.5164135E-01;  9.9999998E-03;  2.0002139E-01;5851; -1.1551232E-02;  0.0000000E+00;  3.2831766E-03;  9.9922095E+02;  1.0004871E-01; -6.4541382E+02;3; -1.5092640E+00;  0.0000000E+00; -5.7470351E-01;0; -2.4439041E-02;  3.9891023E+04;  0.0000000E+00;  6.2272415E-02;  4.0000000E+04;  0.0000000E+00;  4.0005656E+04; -3.2941919E-02;  0.0000000E+00;  8.5028792E-03;  8.4408398E+02;
  5.5165654E-01;  9.9999998E-03;  2.1001780E-01;5852; -1.1575958E-02;  0.0000000E+00;  3.3605220E-03;  9.9902887E+02;  1.0004868E-01; -8.0456982E+02;3; -1.4359936E+00;  0.0000000E+00; -5.9456468E-01;0; -2.4617804E-02;  3.9874246E+04;  0.0000000E+00;  3.8089696E-02;  4.0000000E+04;  0.0000000E+00;  4.0007168E+04; -3.2490794E-02;  0.0000000E+00;  7.8729894E-03;  1.0179730E+03;
  5.5168051E-01;  9.9999998E-03;  2.2000737E-01;5853; -1.1600835E-02;  0.0000000E+00;  3.4244291E-03;  9.9882684E+02;  1.0004873E-01; -9.7192316E+02;3; -1.3616083E+00;  0.0000000E+00; -6.1979687E-01;0; -2.4754018E-02;  3.9856594E+04;  0.0000000E+00;  2.4078458E-03;  4.0000000E+04;  0.0000000E+00;  4.0009070E+04; -3.2061212E-02;  0.0000000E+00;  7.3071932E-03;  1.2585171E+03;
  5.5171114E-01;  9.9999998E-03;  2.2999626E-01;5854; -1.1625150E-02;  0.0000000E+00;  3.4888790E-03;  9.9863232E+02;  1.0004845E-01; -1.1331038E+03;3; -1.2881196E+00;  0.0000000E+00; -6.4659411E-01;0; -2.4824420E-02;  3.9838555E+04;  0.0000000E+00; -4.3183614E-02;  4.0000000E+04;  0.0000000E+00;  4.0011422E+04; -3.1657524E-02;  0.0000000E+00;  6.8331044E-03;  1.5978838E+03;
  5.6176537E-01;  9.9999998E-03;  7.0011556E-02;5899; -1.1770712E-02;  0.0000000E+00;  1.5173602E-03;  9.9952655E+02;  1.0007960E-01; -3.9223581E+02;3; -2.1950676E+00;  0.0000000E+00; -3.2323718E-01;0; -2.0180106E-02;  3.9894773E+04;  0.0000000E+00; -1.5817596E-02;  4.0000000E+04;  0.0000000E+00;  3.9999922E+04; -3.9594106E-02;  0.0000000E+00;  1.9414000E-02;  1.0666518E+02;
  5.6177020E-01;  9.9999998E-03;  8.0011494E-02;5900; -1.1756957E-02;  0.0000000E+00;  1.7169954E-03;  9.9958893E+02;  1.0007960E-01; -3.4058295E+02;3; -2.1620002E+00;  0.0000000E+00; -3.6231446E-01;0; -2.0469699E-02;  3.9899992E+04;  0.0000000E+00; -1.0765225E-02;  4.0000000E+04;  0.0000000E+00;  3.9999629E+04; -3.9174750E-02;  0.0000000E+00;  1.8705051E-02;  6.3883240E+01;
  5.6177020E-01;  9.9999998E-03;  9.0010978E-02;5901; -1.1748660E-02;  0.0000000E+00;  1.9048870E-03;  9.9965302E+02;  1.0007951E-01; -2.8744867E+02;3; -2.1249502E+00;  0.0000000E+00; -4.0028012E-01;0; -2.0793896E-02;  3.9905668E+04;  0.0000000E+00; -2.4984528E-03;  4.0000000E+04;  0.0000000E+00;  3.9999086E+04; -3.8726527E-02;  0.0000000E+00;  1.7932631E-02;  3.4219851E+00;
  5.6176555E-01;  9.9999998E-03;  1.0001005E-01;5902; -1.1746288E-02;  0.0000000E+00;  2.0800107E-03;  9.9971808E+02;  1.0007958E-01; -2.3357364E+02;3; -2.0831015E+00;  0.0000000E+00; -4.3378806E-01;0; -2.1145061E-02;  3.9911531E+04;  0.0000000E+00;  8.1911739E-03;  4.0000000E+04;  0.0000000E+00;  3.9998758E+04; -3.8255785E-02;  0.0000000E+00;  1.7110724E-02;  7.0813301E+01;
  5.6175661E-01;  9.9999998E-03;  1.1000885E-01;5903; -1.1749627E-02;  0.0000000E+00;  2.2423149E-03;  9.9978271E+02;  1.0007960E-01; -1.7999490E+02;3; -2.0371830E+00;  0.0000000E+00; -4.6364886E-01;0; -2.1515163E-02;  3.9917270E+04;  0.0000000E+00;  2.0095060E-02;  4.0000000E+04;  0.0000000E+00;  3.9997957E+04; -3.7768345E-02;  0.0000000E+00;  1.6253183E-02;  1.4152968E+02;
  5.6174380E-01;  9.9999998E-03;  1.2000784E-01;5904; -1.1758087E-02;  0.0000000E+00;  2.3941509E-03;  9.9983978E+02;  1.0007966E-01; -1.3273698E+02;3; -1.9874167E+00;  0.0000000E+00; -4.9132133E-01;0; -2.1896362E-02;  3.9922090E+04;  0.0000000E+00;  3.1918488E-02;  4.0000000E+04;  0.0000000E+00;  3.9997758E+04; -3.7268534E-02;  0.0000000E+00;  1.5372172E-02;  1.9565382E+02;
  5.6172758E-01;  9.9999998E-03;  1.3000761E-01;5905; -1.1770313E-02;  0.0000000E+00;  2.5369816E-03;  9.9988275E+02;  1.0007964E-01; -9.7133057E+01;3; -1.9333438E+00;  0.0000000E+00; -5.1653403E-01;0; -2.2282954E-02;  3.9925395E+04;  0.0000000E+00;  4.2610433E-02;  4.0000000E+04;  0.0000000E+00;  3.9997996E+04; -3.6760204E-02;  0.0000000E+00;  1.4477250E-02;  2.1742371E+02;
  5.6170851E-01;  9.9999998E-03;  1.4000887E-01;5906; -1.1785115E-02;  0.0000000E+00;  2.6739379E-03;  9.9990002E+02;  1.0007980E-01; -8.2812469E+01;3; -1.8763227E+00;  0.0000000E+00; -5.3993911E-01;0; -2.2670690E-02;  3.9926965E+04;  0.0000000E+00;  5.1628526E-02;  4.0000000E+04;  0.0000000E+00;  3.9997668E+04; -3.6245707E-02;  0.0000000E+00;  1.3575017E-02;  1.9347063E+02;
  5.6168813E-01;  9.9999998E-03;  1.5001203E-01;5907; -1.1801217E-02;  0.0000000E+00;  2.8073944E-03;  9.9989191E+02;  1.0007989E-01; -8.9577713E+01;3; -1.8154036E+00;  0.0000000E+00; -5.6092352E-01;0; -2.3056921E-02;  3.9925848E+04;  0.0000000E+00;  5.8940910E-02;  4.0000000E+04;  0.0000000E+00;  3.9998555E+04; -3.5726968E-02;  0.0000000E+00;  1.2670047E-02;  1.2247366E+02;
  5.6166899E-01;  9.9999998E-03;  1.6001695E-01;5908; -1.1817668E-02;  0.0000000E+00;  2.9384068E-03;  9.9985785E+02;  1.0007964E-01; -1.1777444E+02;3; -1.7516807E+00;  0.0000000E+00; -5.8172750E-01;0; -2.3435045E-02;  3.9921719E+04;  0.0000000E+00;  6.4401872E-02;  4.0000000E+04;  0.0000000E+00;  3.9999738E+04; -3.5205714E-02;  0.0000000E+00;  1.1770670E-02;  1.0825312E+02;
  5.6165433E-01;  9.9999998E-03;  1.7002289E-01;5909; -1.1833965E-02;  0.0000000E+00;  3.0662233E-03;  9.9978650E+02;  1.0007987E-01; -1.7688388E+02;3; -1.6855637E+00;  0.0000000E+00; -6.0257328E-01;0; -2.3793995E-02;  3.9914891E+04;  0.0000000E+00;  6.7198545E-02;  4.0000000E+04;  0.0000000E+00;  4.0001156E+04; -3.4684293E-02;  0.0000000E+00;  1.0890297E-02;  2.7577109E+02;
  5.6164658E-01;  9.9999998E-03;  1.8002892E-01;5910; -1.1850203E-02;  0.0000000E+00;  3.1887372E-03;  9.9968689E+02;  1.0007997E-01; -2.5940009E+02;3; -1.6165380E+00;  0.0000000E+00; -6.2352234E-01;0; -2.4120625E-02;  3.9905066E+04;  0.0000000E+00;  6.5855585E-02;  4.0000000E+04;  0.0000000E+00;  4.0002988E+04; -3.4165848E-02;  0.0000000E+00;  1.0045222E-02;  4.8842947E+02;
  5.6164885E-01;  9.9999998E-03;  1.9003382E-01;5911; -1.1866893E-02;  0.0000000E+00;  3.3024980E-03;  9.9954803E+02;  1.0007988E-01; -3.7445856E+02;3; -1.5455118E+00;  0.0000000E+00; -6.4543694E-01;0; -2.4402387E-02;  3.9892531E+04;  0.0000000E+00;  5.8521543E-02;  4.0000000E+04;  0.0000000E+00;  4.0004688E+04; -3.3654954E-02;  0.0000000E+00;  9.2525678E-03;  6.8438782E+02;
  5.6166261E-01;  9.9999998E-03;  2.0003545E-01;5912; -1.1884964E-02;  0.0000000E+00;  3.4011495E-03;  9.9937689E+02;  1.0007979E-01; -5.1623230E+02;3; -1.4719472E+00;  0.0000000E+00; -6.6805261E-01;0; -2.4630219E-02;  3.9877969E+04;  0.0000000E+00;  4.3413486E-02;  4.0000000E+04;  0.0000000E+00;  4.0005492E+04; -3.3157043E-02;  0.0000000E+00;  8.5268244E-03;  8.2153247E+02;
  5.6168878E-01;  9.9999998E-03;  2.1003014E-01;5913; -1.1904581E-02;  0.0000000E+00;  3.4778137E-03;  9.9917969E+02;  1.0007975E-01; -6.7963507E+02;3; -1.3961296E+00;  0.0000000E+00; -6.9153535E-01;0; -2.4806993E-02;  3.9861699E+04;  0.0000000E+00;  1.9326149E-02;  4.0000000E+04;  0.0000000E+00;  4.0006121E+04; -3.2677967E-02;  0.0000000E+00;  7.8709740E-03;  9.1342981E+02;
  5.6172645E-01;  9.9999998E-03;  2.2001655E-01;5914; -1.1924722E-02;  0.0000000E+00;  3.5349717E-03;  9.9897156E+02;  1.0008001E-01; -8.5202527E+02;3; -1.3184375E+00;  0.0000000E+00; -7.1488261E-01;0; -2.4946377E-02;  3.9844348E+04;  0.0000000E+00; -1.4348461E-02;  4.0000000E+04;  0.0000000E+00;  4.0007277E+04; -3.2223340E-02;  0.0000000E+00;  7.2769630E-03;  1.0770164E+03;
  5.6177235E-01;  9.9999998E-03;  2.3000254E-01;5915; -1.1944882E-02;  0.0000000E+00;  3.5870716E-03;  9.9877045E+02;  1.0007983E-01; -1.0186379E+03;3; -1.2408679E+00;  0.0000000E+00; -7.3805207E-01;0; -2.5041323E-02;  3.9826449E+04;  0.0000000E+00; -5.7827104E-02;  4.0000000E+04;  0.0000000E+00;  4.0009219E+04; -3.1797305E-02;  0.0000000E+00;  6.7559807E-03;  1.3546735E+03;
  5.7183969E-01;  9.9999998E-03;  7.0008315E-02;5960; -1.2183397E-02;  0.0000000E+00;  1.5642433E-03;  9.9957062E+02;  1.0013084E-01; -3.5574301E+02;3; -2.1608987E+00;  0.0000000E+00; -3.7059870E-01;0; -2.0177189E-02;  3.9858652E+04;  0.0000000E+00;  4.6153337E-02;  4.0000000E+04;  0.0000000E+00;  3.9998637E+04; -4.0284488E-02;  0.0000000E+00;  2.0107299E-02;  6.6928856E+01;
  5.7183951E-01;  9.9999998E-03;  8.0009088E-02;5961; -1.2163094E-02;  0.0000000E+00;  1.7719613E-03;  9.9964990E+02;  1.0013099E-01; -2.9006586E+02;3; -2.1284866E+00;  0.0000000E+00; -4.1610396E-01;0; -2.0475430E-02;  3.9864859E+04;  0.0000000E+00;  6.2106196E-02;  4.0000000E+04;  0.0000000E+00;  3.9998746E+04; -3.9831210E-02;  0.0000000E+00;  1.9355780E-02;  9.4366982E+01;
  5.7183379E-01;  9.9999998E-03;  9.0009563E-02;5962; -1.2147882E-02;  0.0000000E+00;  1.9676476E-03;  9.9973169E+02;  1.0013097E-01; -2.2231470E+02;3; -2.0912647E+00;  0.0000000E+00; -4.5933431E-01;0; -2.0811299E-02;  3.9871543E+04;  0.0000000E+00;  7.8102566E-02;  4.0000000E+04;  0.0000000E+00;  3.9998117E+04; -3.9345529E-02;  0.0000000E+00;  1.8534230E-02;  1.3811133E+02;
  5.7182235E-01;  9.9999998E-03;  1.0000972E-01;5963; -1.2138492E-02;  0.0000000E+00;  2.1498960E-03;  9.9981006E+02;  1.0013086E-01; -1.5737827E+02;3; -2.0503843E+00;  0.0000000E+00; -4.9978939E-01;0; -2.1176809E-02;  3.9878707E+04;  0.0000000E+00;  9.2092283E-02;  4.0000000E+04;  0.0000000E+00;  3.9997844E+04; -3.8834359E-02;  0.0000000E+00;  1.7657550E-02;  1.8954224E+02;
  5.7180554E-01;  9.9999998E-03;  1.1000973E-01;5964; -1.2135109E-02;  0.0000000E+00;  2.3183012E-03;  9.9988489E+02;  1.0013118E-01; -9.5355331E+01;3; -2.0051558E+00;  0.0000000E+00; -5.3619766E-01;0; -2.1563156E-02;  3.9885215E+04;  0.0000000E+00;  1.0200659E-01;  4.0000000E+04;  0.0000000E+00;  3.9997480E+04; -3.8304102E-02;  0.0000000E+00;  1.6740946E-02;  2.3567175E+02;
  5.7178485E-01;  9.9999998E-03;  1.2000978E-01;5965; -1.2137267E-02;  0.0000000E+00;  2.4748393E-03;  9.9995575E+02;  1.0013115E-01; -3.6640938E+01;3; -1.9548217E+00;  0.0000000E+00; -5.6774533E-01;0; -2.1962048E-02;  3.9890750E+04;  0.0000000E+00;  1.0632525E-01;  4.0000000E+04;  0.0000000E+00;  3.9997148E+04; -3.7760220E-02;  0.0000000E+00;  1.5798172E-02;  2.6220184E+02;
  5.7176185E-01;  9.9999998E-03;  1.3001029E-01;5966; -1.2143623E-02;  0.0000000E+00;  2.6216980E-03;  1.0000072E+03;  1.0013101E-01;  5.9257584E+00;3; -1.9005864E+00;  0.0000000E+00; -5.9684515E-01;0; -2.2366725E-02;  3.9894871E+04;  0.0000000E+00;  1.0453741E-01;  4.0000000E+04;  0.0000000E+00;  3.9997203E+04; -3.7207201E-02;  0.0000000E+00;  1.4840476E-02;  2.5565660E+02;
  5.7173795E-01;  9.9999998E-03;  1.4001216E-01;5967; -1.2153174E-02;  0.0000000E+00;  2.7621905E-03;  1.0000413E+03;  1.0013114E-01;  3.4171871E+01;3; -1.8431910E+00;  0.0000000E+00; -6.2366092E-01;0; -2.2772729E-02;  3.9896895E+04;  0.0000000E+00;  9.7434960E-02;  4.0000000E+04;  0.0000000E+00;  3.9997781E+04; -3.6648579E-02;  0.0000000E+00;  1.3875850E-02;  2.0695218E+02;
  5.7171607E-01;  9.9999998E-03;  1.5001579E-01;5968; -1.2164373E-02;  0.0000000E+00;  2.8988519E-03;  1.0000472E+03;  1.0013122E-01;  3.9110004E+01;3; -1.7823079E+00;  0.0000000E+00; -6.4922154E-01;0; -2.3176629E-02;  3.9896246E+04;  0.0000000E+00;  8.6858392E-02;  4.0000000E+04;  0.0000000E+00;  3.9998879E+04; -3.6086868E-02;  0.0000000E+00;  1.2910240E-02;  1.3014458E+02;
  5.7169843E-01;  9.9999998E-03;  1.6002117E-01;5969; -1.2175906E-02;  0.0000000E+00;  3.0333747E-03;  1.0000179E+03;  1.0013103E-01;  1.4913158E+01;3; -1.7176191E+00;  0.0000000E+00; -6.7247027E-01;0; -2.3571447E-02;  3.9893074E+04;  0.0000000E+00;  7.4817121E-02;  4.0000000E+04;  0.0000000E+00;  4.0000094E+04; -3.5524674E-02;  0.0000000E+00;  1.1953228E-02;  1.6015952E+02;
  5.7168794E-01;  9.9999998E-03;  1.7002766E-01;5970; -1.2187014E-02;  0.0000000E+00;  3.1658092E-03;  9.9996313E+02;  1.0013123E-01; -3.0517656E+01;3; -1.6502519E+00;  0.0000000E+00; -6.9474858E-01;0; -2.3945387E-02;  3.9886965E+04;  0.0000000E+00;  6.2720947E-02;  4.0000000E+04;  0.0000000E+00;  4.0001676E+04; -3.4964811E-02;  0.0000000E+00;  1.1019424E-02;  3.3645026E+02;
  5.7168764E-01;  9.9999998E-03;  1.8003412E-01;5971; -1.2197220E-02;  0.0000000E+00;  3.2937233E-03;  9.9986682E+02;  1.0013138E-01; -1.1031787E+02;3; -1.5795923E+00;  0.0000000E+00; -7.1803802E-01;0; -2.4284605E-02;  3.9878039E+04;  0.0000000E+00;  5.0822478E-02;  4.0000000E+04;  0.0000000E+00;  4.0003121E+04; -3.4410998E-02;  0.0000000E+00;  1.0126393E-02;  5.3933936E+02;
  5.7169962E-01;  9.9999998E-03;  1.9003937E-01;5972; -1.2207120E-02;  0.0000000E+00;  3.4132381E-03;  9.9973920E+02;  1.0013139E-01; -2.1609265E+02;3; -1.5071516E+00;  0.0000000E+00; -7.4349880E-01;0; -2.4574999E-02;  3.9866578E+04;  0.0000000E+00;  3.7966557E-02;  4.0000000E+04;  0.0000000E+00;  4.0004473E+04; -3.3867966E-02;  0.0000000E+00;  9.2929685E-03;  7.0631177E+02;
  5.7172608E-01;  9.9999998E-03;  2.0004103E-01;5973; -1.2217711E-02;  0.0000000E+00;  3.5161816E-03;  9.9956982E+02;  1.0013146E-01; -3.5638498E+02;3; -1.4314699E+00;  0.0000000E+00; -7.6826429E-01;0; -2.4806118E-02;  3.9852785E+04;  0.0000000E+00;  2.2019181E-02;  4.0000000E+04;  0.0000000E+00;  4.0005242E+04; -3.3341143E-02;  0.0000000E+00;  8.5350256E-03;  7.9223737E+02;
  5.7176685E-01;  9.9999998E-03;  2.1003529E-01;5974; -1.2229911E-02;  0.0000000E+00;  3.5941328E-03;  9.9937469E+02;  1.0013153E-01; -5.1805945E+02;3; -1.3531688E+00;  0.0000000E+00; -7.9228210E-01;0; -2.4980836E-02;  3.9837230E+04;  0.0000000E+00;  5.4597814E-04;  4.0000000E+04;  0.0000000E+00;  4.0004961E+04; -3.2836307E-02;  0.0000000E+00;  7.8554703E-03;  8.1308600E+02;
  5.7182032E-01;  9.9999998E-03;  2.2002126E-01;5975; -1.2243520E-02;  0.0000000E+00;  3.6472173E-03;  9.9917151E+02;  1.0013144E-01; -6.8640033E+02;3; -1.2727101E+00;  0.0000000E+00; -8.1480211E-01;0; -2.5119081E-02;  3.9820625E+04;  0.0000000E+00; -2.9233698E-02;  4.0000000E+04;  0.0000000E+00;  4.0005637E+04; -3.2358777E-02;  0.0000000E+00;  7.2396956E-03;  8.8928961E+02;
  5.7188213E-01;  9.9999998E-03;  2.3000723E-01;5976; -1.2258147E-02;  0.0000000E+00;  3.6854648E-03;  9.9897156E+02;  1.0013144E-01; -8.5202527E+02;3; -1.1912608E+00;  0.0000000E+00; -8.3754182E-01;0; -2.5240434E-02;  3.9803754E+04;  0.0000000E+00; -7.1313441E-02;  4.0000000E+04;  0.0000000E+00;  4.0006836E+04; -3.1912461E-02;  0.0000000E+00;  6.6720261E-03;  1.0597432E+03;
  5.8195531E-01;  9.9999998E-03;  7.0000209E-02;6021; -1.2604250E-02;  0.0000000E+00;  1.6202676E-03;  9.9962653E+02;  1.0021388E-01; -3.0942334E+02;3; -2.1213422E+00;  0.0000000E+00; -4.2112085E-01;0; -2.0137701E-02;  3.9799059E+04;  0.0000000E+00;  1.0805370E-01;  4.0000000E+04;  0.0000000E+00;  3.9997535E+04; -4.0937770E-02;  0.0000000E+00;  2.0800069E-02;  1.7213663E+02;
  5.8194476E-01;  9.9999998E-03;  8.0001920E-02;6022; -1.2576479E-02;  0.0000000E+00;  1.8359133E-03;  9.9970880E+02;  1.0021397E-01; -2.4127713E+02;3; -2.0891244E+00;  0.0000000E+00; -4.7365955E-01;0; -2.0445401E-02;  3.9805422E+04;  0.0000000E+00;  1.3330764E-01;  4.0000000E+04;  0.0000000E+00;  3.9997586E+04; -4.0451072E-02;  0.0000000E+00;  2.0005671E-02;  2.1836395E+02;
  5.8192533E-01;  9.9999998E-03;  9.0003893E-02;6023; -1.2553421E-02;  0.0000000E+00;  2.0395129E-03;  9.9979584E+02;  1.0021431E-01; -1.6913101E+02;3; -2.0527616E+00;  0.0000000E+00; -5.2288604E-01;0; -2.0793786E-02;  3.9812559E+04;  0.0000000E+00;  1.5485840E-01;  4.0000000E+04;  0.0000000E+00;  3.9997129E+04; -3.9928164E-02;  0.0000000E+00;  1.9134378E-02;  2.6551160E+02;
  5.8189857E-01;  9.9999998E-03;  1.0000577E-01;6024; -1.2536123E-02;  0.0000000E+00;  2.2288980E-03;  9.9988019E+02;  1.0021400E-01; -9.9256454E+01;3; -2.0120971E+00;  0.0000000E+00; -5.6908560E-01;0; -2.1174563E-02;  3.9819645E+04;  0.0000000E+00;  1.6962813E-01;  4.0000000E+04;  0.0000000E+00;  3.9996945E+04; -3.9376762E-02;  0.0000000E+00;  1.8202199E-02;  3.0678134E+02;
  5.8186781E-01;  9.9999998E-03;  1.1000734E-01;6025; -1.2525047E-02;  0.0000000E+00;  2.4039000E-03;  9.9996344E+02;  1.0021417E-01; -3.0270748E+01;3; -1.9674661E+00;  0.0000000E+00; -6.1092854E-01;0; -2.1578405E-02;  3.9826297E+04;  0.0000000E+00;  1.7507939E-01;  4.0000000E+04;  0.0000000E+00;  3.9996695E+04; -3.8804021E-02;  0.0000000E+00;  1.7225616E-02;  3.3328601E+02;
  5.8183604E-01;  9.9999998E-03;  1.2000873E-01;6026; -1.2520053E-02;  0.0000000E+00;  2.5655904E-03;  1.0000300E+03;  1.0021426E-01;  2.4888186E+01;3; -1.9184347E+00;  0.0000000E+00; -6.5037328E-01;0; -2.1996334E-02;  3.9831922E+04;  0.0000000E+00;  1.6988969E-01;  4.0000000E+04;  0.0000000E+00;  3.9996438E+04; -3.8216218E-02;  0.0000000E+00;  1.6219884E-02;  3.3469638E+02;
  5.8180565E-01;  9.9999998E-03;  1.3001034E-01;6027; -1.2520106E-02;  0.0000000E+00;  2.7158652E-03;  1.0000893E+03;  1.0021437E-01;  7.3973213E+01;3; -1.8646106E+00;  0.0000000E+00; -6.8497276E-01;0; -2.2420885E-02;  3.9836188E+04;  0.0000000E+00;  1.5449023E-01;  4.0000000E+04;  0.0000000E+00;  3.9997055E+04; -3.7618678E-02;  0.0000000E+00;  1.5197793E-02;  3.0157687E+02;
  5.8177936E-01;  9.9999998E-03;  1.4001265E-01;6028; -1.2523888E-02;  0.0000000E+00;  2.8586956E-03;  1.0001279E+03;  1.0021447E-01;  1.0597231E+02;3; -1.8066223E+00;  0.0000000E+00; -7.1440029E-01;0; -2.2847021E-02;  3.9838391E+04;  0.0000000E+00;  1.3121212E-01;  4.0000000E+04;  0.0000000E+00;  3.9997551E+04; -3.7015934E-02;  0.0000000E+00;  1.4168913E-02;  2.3033340E+02;
  5.8175838E-01;  9.9999998E-03;  1.5001626E-01;6029; -1.2529803E-02;  0.0000000E+00;  2.9971097E-03;  1.0001406E+03;  1.0021443E-01;  1.1653992E+02;3; -1.7455335E+00;  0.0000000E+00; -7.4350619E-01;0; -2.3271024E-02;  3.9838469E+04;  0.0000000E+00;  1.0375230E-01;  4.0000000E+04;  0.0000000E+00;  3.9998578E+04; -3.6411643E-02;  0.0000000E+00;  1.3140620E-02;  1.4736874E+02;
  5.8174473E-01;  9.9999998E-03;  1.6002126E-01;6030; -1.2536312E-02;  0.0000000E+00;  3.1329265E-03;  1.0001285E+03;  1.0021445E-01;  1.0646613E+02;3; -1.6803237E+00;  0.0000000E+00; -7.6926321E-01;0; -2.3684837E-02;  3.9835898E+04;  0.0000000E+00;  7.6119393E-02;  4.0000000E+04;  0.0000000E+00;  3.9999965E+04; -3.5808936E-02;  0.0000000E+00;  1.2124098E-02;  1.9194019E+02;
  5.8174115E-01;  9.9999998E-03;  1.7002697E-01;6031; -1.2541916E-02;  0.0000000E+00;  3.2664062E-03;  1.0000833E+03;  1.0021455E-01;  6.9035088E+01;3; -1.6114333E+00;  0.0000000E+00; -7.9387110E-01;0; -2.4075851E-02;  3.9830730E+04;  0.0000000E+00;  5.1648725E-02;  4.0000000E+04;  0.0000000E+00;  4.0001410E+04; -3.5211362E-02;  0.0000000E+00;  1.1135510E-02;  3.6606586E+02;
  5.8175009E-01;  9.9999998E-03;  1.8003245E-01;6032; -1.2545674E-02;  0.0000000E+00;  3.3956040E-03;  1.0000035E+03;  1.0021462E-01;  2.9628792E+00;3; -1.5398501E+00;  0.0000000E+00; -8.2017636E-01;0; -2.4429878E-02;  3.9822895E+04;  0.0000000E+00;  3.1934194E-02;  4.0000000E+04;  0.0000000E+00;  4.0002816E+04; -3.4623496E-02;  0.0000000E+00;  1.0193618E-02;  5.5441571E+02;
  5.8177412E-01;  9.9999998E-03;  1.9003654E-01;6033; -1.2547970E-02;  0.0000000E+00;  3.5163690E-03;  9.9988428E+02;  1.0021471E-01; -9.5898521E+01;3; -1.4659507E+00;  0.0000000E+00; -8.4913206E-01;0; -2.4732050E-02;  3.9812516E+04;  0.0000000E+00;  1.6216192E-02;  4.0000000E+04;  0.0000000E+00;  4.0003918E+04; -3.4050144E-02;  0.0000000E+00;  9.3180938E-03;  6.9570837E+02;
  5.8181447E-01;  9.9999998E-03;  2.0003699E-01;6034; -1.2549774E-02;  0.0000000E+00;  3.6217237E-03;  9.9973187E+02;  1.0021479E-01; -2.2211717E+02;3; -1.3884444E+00;  0.0000000E+00; -8.7492722E-01;0; -2.4970673E-02;  3.9800059E+04;  0.0000000E+00;  1.8217639E-03;  4.0000000E+04;  0.0000000E+00;  4.0004301E+04; -3.3496864E-02;  0.0000000E+00;  8.5261902E-03;  7.4972375E+02;
  5.8187103E-01;  9.9999998E-03;  2.1003042E-01;6035; -1.2552496E-02;  0.0000000E+00;  3.7014114E-03;  9.9954950E+02;  1.0021475E-01; -3.7322400E+02;3; -1.3081177E+00;  0.0000000E+00; -9.0224349E-01;0; -2.5147727E-02;  3.9786195E+04;  0.0000000E+00; -1.5206167E-02;  4.0000000E+04;  0.0000000E+00;  4.0004027E+04; -3.2969158E-02;  0.0000000E+00;  7.8214314E-03;  7.3900928E+02;
  5.8194137E-01;  9.9999998E-03;  2.2001739E-01;6036; -1.2557279E-02;  0.0000000E+00;  3.7555890E-03;  9.9935999E+02;  1.0021487E-01; -5.3025659E+02;3; -1.2254347E+00;  0.0000000E+00; -9.2622942E-01;0; -2.5281679E-02;  3.9770918E+04;  0.0000000E+00; -4.0551644E-02;  4.0000000E+04;  0.0000000E+00;  4.0004172E+04; -3.2471810E-02;  0.0000000E+00;  7.1901316E-03;  7.6711755E+02;
  5.8202022E-01;  9.9999998E-03;  2.3000625E-01;6037; -1.2564727E-02;  0.0000000E+00;  3.7844598E-03;  9.9916418E+02;  1.0021494E-01; -6.9247424E+02;3; -1.1401650E+00;  0.0000000E+00; -9.4841492E-01;0; -2.5419906E-02;  3.9755332E+04;  0.0000000E+00; -8.3610535E-02;  4.0000000E+04;  0.0000000E+00;  4.0004652E+04; -3.2008231E-02;  0.0000000E+00;  6.5883240E-03;  8.3806158E+02;
  5.9205353E-01;  9.9999998E-03;  6.9996193E-02;6082; -1.3029608E-02;  0.0000000E+00;  1.6859362E-03;  9.9962909E+02;  1.0034806E-01; -3.0729996E+02;3; -2.0761077E+00;  0.0000000E+00; -4.7613883E-01;0; -2.0071398E-02;  3.9695750E+04;  0.0000000E+00;  1.5548530E-01;  4.0000000E+04;  0.0000000E+00;  3.9996344E+04; -4.1555766E-02;  0.0000000E+00;  2.1484368E-02;  2.5591913E+02;
  5.9203094E-01;  9.9999998E-03;  7.9997979E-02;6083; -1.2993903E-02;  0.0000000E+00;  1.9100006E-03;  9.9970746E+02;  1.0034810E-01; -2.4236351E+02;3; -2.0451825E+00;  0.0000000E+00; -5.3628033E-01;0; -2.0388480E-02;  3.9702035E+04;  0.0000000E+00;  1.8587889E-01;  4.0000000E+04;  0.0000000E+00;  3.9996301E+04; -4.1036509E-02;  0.0000000E+00;  2.0648029E-02;  3.0646631E+02;
  5.9199959E-01;  9.9999998E-03;  8.9999907E-02;6084; -1.2962762E-02;  0.0000000E+00;  2.1214020E-03;  9.9978845E+02;  1.0034801E-01; -1.7525430E+02;3; -2.0088947E+00;  0.0000000E+00; -5.9089696E-01;0; -2.0748939E-02;  3.9708418E+04;  0.0000000E+00;  2.0901348E-01;  4.0000000E+04;  0.0000000E+00;  3.9995852E+04; -4.0477380E-02;  0.0000000E+00;  1.9728441E-02;  3.5174991E+02;
  5.9196126E-01;  9.9999998E-03;  1.0000219E-01;6085; -1.2937366E-02;  0.0000000E+00;  2.3178370E-03;  9.9986292E+02;  1.0034835E-01; -1.1357703E+02;3; -1.9691452E+00;  0.0000000E+00; -6.4388442E-01;0; -2.1144392E-02;  3.9714543E+04;  0.0000000E+00;  2.2131176E-01;  4.0000000E+04;  0.0000000E+00;  3.9995715E+04; -3.9886508E-02;  0.0000000E+00;  1.8742116E-02;  3.8447742E+02;
  5.9191835E-01;  9.9999998E-03;  1.1000507E-01;6086; -1.2918382E-02;  0.0000000E+00;  2.4989252E-03;  9.9993933E+02;  1.0034828E-01; -5.0270184E+01;3; -1.9246382E+00;  0.0000000E+00; -6.9061100E-01;0; -2.1565182E-02;  3.9720316E+04;  0.0000000E+00;  2.2027555E-01;  4.0000000E+04;  0.0000000E+00;  3.9995648E+04; -3.9271608E-02;  0.0000000E+00;  1.7706426E-02;  3.9673038E+02;
  5.9187508E-01;  9.9999998E-03;  1.2000851E-01;6087; -1.2905768E-02;  0.0000000E+00;  2.6659516E-03;  1.0000030E+03;  1.0034828E-01;  2.4690659E+00;3; -1.8766954E+00;  0.0000000E+00; -7.3594147E-01;0; -2.2002095E-02;  3.9725379E+04;  0.0000000E+00;  2.0519814E-01;  4.0000000E+04;  0.0000000E+00;  3.9995695E+04; -3.8639896E-02;  0.0000000E+00;  1.6637800E-02;  3.8037073E+02;
  5.9183580E-01;  9.9999998E-03;  1.3001239E-01;6088; -1.2898744E-02;  0.0000000E+00;  2.8195858E-03;  1.0000591E+03;  1.0034844E-01;  4.8986267E+01;3; -1.8234671E+00;  0.0000000E+00; -7.7632326E-01;0; -2.2447076E-02;  3.9729223E+04;  0.0000000E+00;  1.7763939E-01;  4.0000000E+04;  0.0000000E+00;  3.9995859E+04; -3.7997749E-02;  0.0000000E+00;  1.5550673E-02;  3.2850714E+02;
  5.9180456E-01;  9.9999998E-03;  1.4001654E-01;6089; -1.2896264E-02;  0.0000000E+00;  2.9641336E-03;  1.0000933E+03;  1.0034855E-01;  7.7232384E+01;3; -1.7669628E+00;  0.0000000E+00; -8.1179625E-01;0; -2.2894409E-02;  3.9731285E+04;  0.0000000E+00;  1.4132793E-01;  4.0000000E+04;  0.0000000E+00;  3.9996605E+04; -3.7350722E-02;  0.0000000E+00;  1.4456313E-02;  2.4027228E+02;
  5.9178311E-01;  9.9999998E-03;  1.5002111E-01;6090; -1.2896640E-02;  0.0000000E+00;  3.1024606E-03;  1.0001097E+03;  1.0034860E-01;  9.0861626E+01;3; -1.7056638E+00;  0.0000000E+00; -8.4444141E-01;0; -2.3339577E-02;  3.9731496E+04;  0.0000000E+00;  1.0142846E-01;  4.0000000E+04;  0.0000000E+00;  3.9997762E+04; -3.6703400E-02;  0.0000000E+00;  1.3363823E-02;  1.4449179E+02;
  5.9177315E-01;  9.9999998E-03;  1.6002606E-01;6091; -1.2897641E-02;  0.0000000E+00;  3.2364116E-03;  1.0001030E+03;  1.0034893E-01;  8.5330917E+01;3; -1.6393152E+00;  0.0000000E+00; -8.7243974E-01;0; -2.3773791E-02;  3.9729480E+04;  0.0000000E+00;  6.3332394E-02;  4.0000000E+04;  0.0000000E+00;  3.9998910E+04; -3.6060106E-02;  0.0000000E+00;  1.2286315E-02;  1.8464330E+02;
  5.9177577E-01;  9.9999998E-03;  1.7003086E-01;6092; -1.2897513E-02;  0.0000000E+00;  3.3668210E-03;  1.0000673E+03;  1.0034908E-01;  5.5702129E+01;3; -1.5697899E+00;  0.0000000E+00; -9.0010691E-01;0; -2.4183512E-02;  3.9725203E+04;  0.0000000E+00;  3.1522013E-02;  4.0000000E+04;  0.0000000E+00;  4.0000363E+04; -3.5425331E-02;  0.0000000E+00;  1.1241820E-02;  3.4738269E+02;
  5.9179306E-01;  9.9999998E-03;  1.8003447E-01;6093; -1.2894925E-02;  0.0000000E+00;  3.4918832E-03;  1.0000024E+03;  1.0034906E-01;  1.9752527E+00;3; -1.4979433E+00;  0.0000000E+00; -9.3024772E-01;0; -2.4554014E-02;  3.9718266E+04;  0.0000000E+00;  8.2174679E-03;  4.0000000E+04;  0.0000000E+00;  4.0001695E+04; -3.4804087E-02;  0.0000000E+00;  1.0250073E-02;  5.0908557E+02;
  5.9182692E-01;  9.9999998E-03;  1.9003576E-01;6094; -1.2889415E-02;  0.0000000E+00;  3.6081714E-03;  9.9990155E+02;  1.0034942E-01; -8.1577942E+01;3; -1.4221159E+00;  0.0000000E+00; -9.5885086E-01;0; -2.4871208E-02;  3.9709465E+04;  0.0000000E+00; -7.2730989E-03;  4.0000000E+04;  0.0000000E+00;  4.0002234E+04; -3.4201823E-02;  0.0000000E+00;  9.3306145E-03;  6.1341522E+02;
  5.9187776E-01;  9.9999998E-03;  2.0003255E-01;6095; -1.2882015E-02;  0.0000000E+00;  3.7092126E-03;  9.9976349E+02;  1.0034940E-01; -1.9594507E+02;3; -1.3428926E+00;  0.0000000E+00; -9.8629099E-01;0; -2.5124721E-02;  3.9698438E+04;  0.0000000E+00; -1.8002981E-02;  4.0000000E+04;  0.0000000E+00;  4.0002590E+04; -3.3624090E-02;  0.0000000E+00;  8.4993681E-03;  6.3549622E+02;
  5.9194487E-01;  9.9999998E-03;  2.1002187E-01;6096; -1.2874248E-02;  0.0000000E+00;  3.7853324E-03;  9.9960297E+02;  1.0034940E-01; -3.2892896E+02;3; -1.2604653E+00;  0.0000000E+00; -1.0153364E+00;0; -2.5318369E-02;  3.9685652E+04;  0.0000000E+00; -2.8865108E-02;  4.0000000E+04;  0.0000000E+00;  4.0002234E+04; -3.3076175E-02;  0.0000000E+00;  7.7578048E-03;  6.2561572E+02;
  5.9202659E-01;  9.9999998E-03;  2.2000670E-01;6097; -1.2868117E-02;  0.0000000E+00;  3.8412623E-03;  9.9942859E+02;  1.0034967E-01; -4.7341870E+02;3; -1.1755135E+00;  0.0000000E+00; -1.0411828E+00;0; -2.5463805E-02;  3.9671996E+04;  0.0000000E+00; -4.7599416E-02;  4.0000000E+04;  0.0000000E+00;  4.0002582E+04; -3.2562293E-02;  0.0000000E+00;  7.0984876E-03;  6.9250677E+02;
  5.9211737E-01;  9.9999998E-03;  2.2999826E-01;6098; -1.2866354E-02;  0.0000000E+00;  3.8697990E-03;  9.9924829E+02;  1.0034961E-01; -6.2279718E+02;3; -1.0866858E+00;  0.0000000E+00; -1.0647906E+00;0; -2.5616186E-02;  3.9657715E+04;  0.0000000E+00; -8.7650165E-02;  4.0000000E+04;  0.0000000E+00;  4.0003035E+04; -3.2084912E-02;  0.0000000E+00;  6.4687263E-03;  7.5411200E+02;
  6.0207653E-01;  9.9999998E-03;  7.0002757E-02;6143; -1.3456177E-02;  0.0000000E+00;  1.7591849E-03;  9.9951935E+02;  1.0056140E-01; -3.9821097E+02;3; -2.0254688E+00;  0.0000000E+00; -5.3370237E-01;0; -1.9993767E-02;  3.9522633E+04;  0.0000000E+00;  1.7530094E-01;  4.0000000E+04;  0.0000000E+00;  3.9994797E+04; -4.2145744E-02;  0.0000000E+00;  2.2151977E-02;  2.8783240E+02;
  6.0205293E-01;  9.9999998E-03;  8.0003031E-02;6144; -1.3412963E-02;  0.0000000E+00;  1.9917088E-03;  9.9958594E+02;  1.0056169E-01; -3.4305203E+02;3; -1.9940531E+00;  0.0000000E+00; -5.9891999E-01;0; -2.0318002E-02;  3.9527746E+04;  0.0000000E+00;  2.0449795E-01;  4.0000000E+04;  0.0000000E+00;  3.9994680E+04; -4.1595027E-02;  0.0000000E+00;  2.1277025E-02;  3.3599341E+02;
  6.0202122E-01;  9.9999998E-03;  9.0002872E-02;6145; -1.3374209E-02;  0.0000000E+00;  2.2107016E-03;  9.9965161E+02;  1.0056166E-01; -2.8863382E+02;3; -1.9593133E+00;  0.0000000E+00; -6.6042012E-01;0; -2.0687900E-02;  3.9532703E+04;  0.0000000E+00;  2.2375529E-01;  4.0000000E+04;  0.0000000E+00;  3.9994355E+04; -4.1000564E-02;  0.0000000E+00;  2.0312663E-02;  3.7553436E+02;
  6.0198236E-01;  9.9999998E-03;  1.0000300E-01;6146; -1.3341243E-02;  0.0000000E+00;  2.4142044E-03;  9.9971472E+02;  1.0056184E-01; -2.3633899E+02;3; -1.9202548E+00;  0.0000000E+00; -7.2018373E-01;0; -2.1095214E-02;  3.9537836E+04;  0.0000000E+00;  2.2972773E-01;  4.0000000E+04;  0.0000000E+00;  3.9994309E+04; -4.0370926E-02;  0.0000000E+00;  1.9275712E-02;  4.0007526E+02;
  6.0193807E-01;  9.9999998E-03;  1.1000407E-01;6147; -1.3314700E-02;  0.0000000E+00;  2.6012224E-03;  9.9977533E+02;  1.0056213E-01; -1.8611819E+02;3; -1.8769336E+00;  0.0000000E+00; -7.7425712E-01;0; -2.1530306E-02;  3.9542406E+04;  0.0000000E+00;  2.2059363E-01;  4.0000000E+04;  0.0000000E+00;  3.9994184E+04; -3.9714377E-02;  0.0000000E+00;  1.8184071E-02;  4.0315808E+02;
  6.0189134E-01;  9.9999998E-03;  1.2000658E-01;6148; -1.3294529E-02;  0.0000000E+00;  2.7724863E-03;  9.9982202E+02;  1.0056242E-01; -1.4745262E+02;3; -1.8298619E+00;  0.0000000E+00; -8.2616776E-01;0; -2.1983707E-02;  3.9545863E+04;  0.0000000E+00;  1.9666392E-01;  4.0000000E+04;  0.0000000E+00;  3.9993875E+04; -3.9038736E-02;  0.0000000E+00;  1.7055029E-02;  3.7801590E+02;
  6.0184592E-01;  9.9999998E-03;  1.3001083E-01;6149; -1.3280340E-02;  0.0000000E+00;  2.9297625E-03;  9.9986517E+02;  1.0056223E-01; -1.1170055E+02;3; -1.7780495E+00;  0.0000000E+00; -8.7266016E-01;0; -2.2447225E-02;  3.9548637E+04;  0.0000000E+00;  1.6059460E-01;  4.0000000E+04;  0.0000000E+00;  3.9994422E+04; -3.8351435E-02;  0.0000000E+00;  1.5904211E-02;  3.1855557E+02;
  6.0180664E-01;  9.9999998E-03;  1.4001669E-01;6150; -1.3270944E-02;  0.0000000E+00;  3.0758814E-03;  9.9989484E+02;  1.0056274E-01; -8.7108650E+01;3; -1.7223461E+00;  0.0000000E+00; -9.1326326E-01;0; -2.2914650E-02;  3.9549910E+04;  0.0000000E+00;  1.1706919E-01;  4.0000000E+04;  0.0000000E+00;  3.9994859E+04; -3.7659150E-02;  0.0000000E+00;  1.4744500E-02;  2.2252312E+02;
  6.0177833E-01;  9.9999998E-03;  1.5002343E-01;6151; -1.3264877E-02;  0.0000000E+00;  3.2130659E-03;  9.9990912E+02;  1.0056295E-01; -7.5306511E+01;3; -1.6613266E+00;  0.0000000E+00; -9.4970709E-01;0; -2.3380611E-02;  3.9549969E+04;  0.0000000E+00;  7.1888551E-02;  4.0000000E+04;  0.0000000E+00;  3.9995754E+04; -3.6967687E-02;  0.0000000E+00;  1.3587075E-02;  1.0700217E+02;
  6.0176486E-01;  9.9999998E-03;  1.6002989E-01;6152; -1.3259786E-02;  0.0000000E+00;  3.3428981E-03;  9.9990186E+02;  1.0056322E-01; -8.1331032E+01;3; -1.5957056E+00;  0.0000000E+00; -9.8223746E-01;0; -2.3835257E-02;  3.9547969E+04;  0.0000000E+00;  3.0732920E-02;  4.0000000E+04;  0.0000000E+00;  3.9997324E+04; -3.6282770E-02;  0.0000000E+00;  1.2447514E-02;  1.3082018E+02;
  6.0176784E-01;  9.9999998E-03;  1.7003475E-01;6153; -1.3253773E-02;  0.0000000E+00;  3.4661903E-03;  9.9987384E+02;  1.0056351E-01; -1.0454025E+02;3; -1.5261111E+00;  0.0000000E+00; -1.0140045E+00;0; -2.4263833E-02;  3.9544113E+04;  0.0000000E+00; -1.8621229E-03;  4.0000000E+04;  0.0000000E+00;  3.9998422E+04; -3.5609823E-02;  0.0000000E+00;  1.1345991E-02;  2.8078970E+02;
  6.0178828E-01;  9.9999998E-03;  1.8003686E-01;6154; -1.3244849E-02;  0.0000000E+00;  3.5815202E-03;  9.9981134E+02;  1.0056404E-01; -1.5629187E+02;3; -1.4527037E+00;  0.0000000E+00; -1.0446454E+00;0; -2.4651604E-02;  3.9538188E+04;  0.0000000E+00; -2.3807563E-02;  4.0000000E+04;  0.0000000E+00;  3.9999375E+04; -3.4954753E-02;  0.0000000E+00;  1.0303149E-02;  4.0958112E+02;
  6.0182637E-01;  9.9999998E-03;  1.9003476E-01;6155; -1.3231922E-02;  0.0000000E+00;  3.6860297E-03;  9.9971625E+02;  1.0056406E-01; -2.3510446E+02;3; -1.3747945E+00;  0.0000000E+00; -1.0735978E+00;0; -2.4986615E-02;  3.9530273E+04;  0.0000000E+00; -3.5774190E-02;  4.0000000E+04;  0.0000000E+00;  3.9999730E+04; -3.4323551E-02;  0.0000000E+00;  9.3369354E-03;  4.7366782E+02;
  6.0188109E-01;  9.9999998E-03;  2.0002598E-01;6156; -1.3215692E-02;  0.0000000E+00;  3.7743109E-03;  9.9958807E+02;  1.0056403E-01; -3.4127429E+02;3; -1.2945284E+00;  0.0000000E+00; -1.1033870E+00;0; -2.5263306E-02;  3.9520000E+04;  0.0000000E+00; -4.0387493E-02;  4.0000000E+04;  0.0000000E+00;  3.9999574E+04; -3.3721920E-02;  0.0000000E+00;  8.4586153E-03;  4.7501639E+02;
  6.0195148E-01;  9.9999998E-03;  2.1000841E-01;6157; -1.3197579E-02;  0.0000000E+00;  3.8403750E-03;  9.9944580E+02;  1.0056417E-01; -4.5914752E+02;3; -1.2100677E+00;  0.0000000E+00; -1.1306789E+00;0; -2.5490427E-02;  3.9508535E+04;  0.0000000E+00; -4.2087648E-02;  4.0000000E+04;  0.0000000E+00;  3.9999883E+04; -3.3155087E-02;  0.0000000E+00;  7.6646605E-03;  5.1194220E+02;
  6.0203594E-01;  9.9999998E-03;  2.1998823E-01;6158; -1.3179343E-02;  0.0000000E+00;  3.9001664E-03;  9.9930511E+02;  1.0056438E-01; -5.7568744E+02;3; -1.1230557E+00;  0.0000000E+00; -1.1579081E+00;0; -2.5663808E-02;  3.9495734E+04;  0.0000000E+00; -4.8186999E-02;  4.0000000E+04;  0.0000000E+00;  4.0001430E+04; -3.2626733E-02;  0.0000000E+00;  6.9629257E-03;  7.2126746E+02;
  6.0213059E-01;  9.9999998E-03;  2.2998190E-01;6159; -1.3166578E-02;  0.0000000E+00;  3.9431783E-03;  9.9915308E+02;  1.0056425E-01; -7.0165918E+02;3; -1.0320063E+00;  0.0000000E+00; -1.1858251E+00;0; -2.5813797E-02;  3.9482805E+04;  0.0000000E+00; -7.2132066E-02;  4.0000000E+04;  0.0000000E+00;  4.0002859E+04; -3.2138098E-02;  0.0000000E+00;  6.3243010E-03;  8.9969830E+02;
  6.1202401E-01;  9.9999998E-03;  7.0016190E-02;6204; -1.3883973E-02;  0.0000000E+00;  1.8356123E-03;  9.9930627E+02;  1.0089495E-01; -5.7474921E+02;3; -1.9678048E+00;  0.0000000E+00; -5.9381437E-01;0; -1.9922188E-02;  3.9250430E+04;  0.0000000E+00;  1.5905491E-01;  4.0000000E+04;  0.0000000E+00;  3.9992492E+04; -4.2721760E-02;  0.0000000E+00;  2.2799572E-02;  2.5885516E+02;
  6.1200494E-01;  9.9999998E-03;  8.0016449E-02;6205; -1.3833748E-02;  0.0000000E+00;  2.0761590E-03;  9.9934991E+02;  1.0089531E-01; -5.3860205E+02;3; -1.9381834E+00;  0.0000000E+00; -6.6507262E-01;0; -2.0249173E-02;  3.9253523E+04;  0.0000000E+00;  1.7943047E-01;  4.0000000E+04;  0.0000000E+00;  3.9992562E+04; -4.2139318E-02;  0.0000000E+00;  2.1890145E-02;  2.9693298E+02;
  6.1197746E-01;  9.9999998E-03;  9.0015635E-02;6206; -1.3787758E-02;  0.0000000E+00;  2.3025346E-03;  9.9939606E+02;  1.0089567E-01; -5.0033154E+02;3; -1.9043698E+00;  0.0000000E+00; -7.3365587E-01;0; -2.0623634E-02;  3.9256832E+04;  0.0000000E+00;  1.8858470E-01;  4.0000000E+04;  0.0000000E+00;  3.9992055E+04; -4.1509058E-02;  0.0000000E+00;  2.0885425E-02;  3.2666888E+02;
  6.1194199E-01;  9.9999998E-03;  1.0001425E-01;6207; -1.3747607E-02;  0.0000000E+00;  2.5128543E-03;  9.9943921E+02;  1.0089583E-01; -4.6462885E+02;3; -1.8658183E+00;  0.0000000E+00; -7.9854327E-01;0; -2.1037633E-02;  3.9259977E+04;  0.0000000E+00;  1.8426953E-01;  4.0000000E+04;  0.0000000E+00;  3.9991750E+04; -4.0839870E-02;  0.0000000E+00;  1.9802237E-02;  3.4473523E+02;
  6.1190081E-01;  9.9999998E-03;  1.1001290E-01;6208; -1.3713827E-02;  0.0000000E+00;  2.7052606E-03;  9.9947565E+02;  1.0089607E-01; -4.3440747E+02;3; -1.8236321E+00;  0.0000000E+00; -8.6270261E-01;0; -2.1481715E-02;  3.9262605E+04;  0.0000000E+00;  1.6598396E-01;  4.0000000E+04;  0.0000000E+00;  3.9991684E+04; -4.0140737E-02;  0.0000000E+00;  1.8659022E-02;  3.4708157E+02;
  6.1185700E-01;  9.9999998E-03;  1.2001215E-01;6209; -1.3686685E-02;  0.0000000E+00;  2.8808601E-03;  9.9951447E+02;  1.0089671E-01; -4.0226022E+02;3; -1.7778352E+00;  0.0000000E+00; -9.1962290E-01;0; -2.1946596E-02;  3.9264746E+04;  0.0000000E+00;  1.3529910E-01;  4.0000000E+04;  0.0000000E+00;  3.9991430E+04; -3.9420310E-02;  0.0000000E+00;  1.7473714E-02;  3.2786740E+02;
  6.1181438E-01;  9.9999998E-03;  1.3001260E-01;6210; -1.3665383E-02;  0.0000000E+00;  3.0417065E-03;  9.9953894E+02;  1.0089687E-01; -3.8196451E+02;3; -1.7270482E+00;  0.0000000E+00; -9.7096676E-01;0; -2.2424089E-02;  3.9266277E+04;  0.0000000E+00;  9.5759414E-02;  4.0000000E+04;  0.0000000E+00;  3.9991836E+04; -3.8686916E-02;  0.0000000E+00;  1.6262827E-02;  2.8000415E+02;
  6.1177689E-01;  9.9999998E-03;  1.4001483E-01;6211; -1.3648948E-02;  0.0000000E+00;  3.1891726E-03;  9.9955432E+02;  1.0089706E-01; -3.6922412E+02;3; -1.6729183E+00;  0.0000000E+00; -1.0183520E+00;0; -2.2907726E-02;  3.9266520E+04;  0.0000000E+00;  5.2315440E-02;  4.0000000E+04;  0.0000000E+00;  3.9992285E+04; -3.7948307E-02;  0.0000000E+00;  1.5040579E-02;  1.9817375E+02;
  6.1174887E-01;  9.9999998E-03;  1.5001866E-01;6212; -1.3636014E-02;  0.0000000E+00;  3.3247694E-03;  9.9955750E+02;  1.0089783E-01; -3.6660690E+02;3; -1.6130056E+00;  0.0000000E+00; -1.0603628E+00;0; -2.3391724E-02;  3.9265570E+04;  0.0000000E+00;  1.0302136E-02;  4.0000000E+04;  0.0000000E+00;  3.9992715E+04; -3.7211500E-02;  0.0000000E+00;  1.3819776E-02;  8.3800560E+01;
  6.1173457E-01;  9.9999998E-03;  1.6002302E-01;6213; -1.3624312E-02;  0.0000000E+00;  3.4495904E-03;  9.9954846E+02;  1.0089833E-01; -3.7411288E+02;3; -1.5474849E+00;  0.0000000E+00; -1.0964876E+00;0; -2.3864856E-02;  3.9263379E+04;  0.0000000E+00; -2.5596974E-02;  4.0000000E+04;  0.0000000E+00;  3.9993945E+04; -3.6483310E-02;  0.0000000E+00;  1.2618454E-02;  5.8515274E+01;
  6.1173701E-01;  9.9999998E-03;  1.7002611E-01;6214; -1.3612124E-02;  0.0000000E+00;  3.5631726E-03;  9.9951752E+02;  1.0089871E-01; -3.9974179E+02;3; -1.4783734E+00;  0.0000000E+00; -1.1324021E+00;0; -2.4311144E-02;  3.9259539E+04;  0.0000000E+00; -5.1962104E-02;  4.0000000E+04;  0.0000000E+00;  3.9994902E+04; -3.5770386E-02;  0.0000000E+00;  1.1459242E-02;  1.9173483E+02;
  6.1175722E-01;  9.9999998E-03;  1.8002579E-01;6215; -1.3596965E-02;  0.0000000E+00;  3.6649927E-03;  9.9945941E+02;  1.0089894E-01; -4.4788858E+02;3; -1.4036710E+00;  0.0000000E+00; -1.1636145E+00;0; -2.4715707E-02;  3.9253621E+04;  0.0000000E+00; -6.7417867E-02;  4.0000000E+04;  0.0000000E+00;  3.9995832E+04; -3.5079412E-02;  0.0000000E+00;  1.0363705E-02;  2.9308447E+02;
  6.1179519E-01;  9.9999998E-03;  1.9001964E-01;6216; -1.3577322E-02;  0.0000000E+00;  3.7530137E-03;  9.9936761E+02;  1.0089947E-01; -5.2393579E+02;3; -1.3252982E+00;  0.0000000E+00; -1.1939453E+00;0; -2.5069879E-02;  3.9245867E+04;  0.0000000E+00; -7.2200842E-02;  4.0000000E+04;  0.0000000E+00;  3.9996188E+04; -3.4417439E-02;  0.0000000E+00;  9.3475599E-03;  3.4199048E+02;
  6.1184871E-01;  9.9999998E-03;  2.0000505E-01;6217; -1.3553532E-02;  0.0000000E+00;  3.8249297E-03;  9.9924908E+02;  1.0089987E-01; -6.2210583E+02;3; -1.2431047E+00;  0.0000000E+00; -1.2208761E+00;0; -2.5373776E-02;  3.9236418E+04;  0.0000000E+00; -6.7538291E-02;  4.0000000E+04;  0.0000000E+00;  3.9996359E+04; -3.3790320E-02;  0.0000000E+00;  8.4165437E-03;  3.7332260E+02;
  6.1191612E-01;  9.9999998E-03;  2.0998073E-01;6218; -1.3526121E-02;  0.0000000E+00;  3.8819369E-03;  9.9912579E+02;  1.0089972E-01; -7.2427582E+02;3; -1.1572369E+00;  0.0000000E+00; -1.2508833E+00;0; -2.5638292E-02;  3.9224980E+04;  0.0000000E+00; -5.5885792E-02;  4.0000000E+04;  0.0000000E+00;  3.9997516E+04; -3.3203315E-02;  0.0000000E+00;  7.5650234E-03;  5.4086908E+02;
  6.1199689E-01;  9.9999998E-03;  2.1995758E-01;6219; -1.3496320E-02;  0.0000000E+00;  3.9509865E-03;  9.9901013E+02;  1.0089993E-01; -8.2007556E+02;3; -1.0679388E+00;  0.0000000E+00; -1.2777390E+00;0; -2.5837723E-02;  3.9212801E+04;  0.0000000E+00; -4.2238247E-02;  4.0000000E+04;  0.0000000E+00;  4.0001121E+04; -3.2659877E-02;  0.0000000E+00;  6.8221549E-03;  9.9188770E+02;
  6.1208892E-01;  9.9999998E-03;  2.2995755E-01;6220; -1.3472238E-02;  0.0000000E+00;  4.0220534E-03;  9.9889423E+02;  1.0090013E-01; -9.1612225E+02;3; -9.7494215E-01;  0.0000000E+00; -1.3121122E+00;0; -2.5951784E-02;  3.9200621E+04;  0.0000000E+00; -3.7228629E-02;  4.0000000E+04;  0.0000000E+00;  4.0003992E+04; -3.2159887E-02;  0.0000000E+00;  6.2081032E-03;  1.3429565E+03;
  6.2192470E-01;  9.9999998E-03;  7.0027769E-02;6265; -1.4314763E-02;  0.0000000E+00;  1.9099300E-03;  9.9910596E+02;  1.0140128E-01; -7.4071979E+02;3; -1.9042513E+00;  0.0000000E+00; -6.5684289E-01;0; -1.9874366E-02;  3.8849207E+04;  0.0000000E+00;  1.0380535E-01;  4.0000000E+04;  0.0000000E+00;  3.9989422E+04; -4.3301146E-02;  0.0000000E+00;  2.3426780E-02;  1.6829399E+02;
  6.2190807E-01;  9.9999998E-03;  8.0028638E-02;6266; -1.4257716E-02;  0.0000000E+00;  2.1577477E-03;  9.9912573E+02;  1.0140149E-01; -7.2432520E+02;3; -1.8759474E+00;  0.0000000E+00; -7.3293781E-01;0; -2.0197421E-02;  3.8850410E+04;  0.0000000E+00;  1.0793833E-01;  4.0000000E+04;  0.0000000E+00;  3.9989156E+04; -4.2685486E-02;  0.0000000E+00;  2.2488065E-02;  1.8925713E+02;
  6.2188345E-01;  9.9999998E-03;  9.0028077E-02;6267; -1.4204967E-02;  0.0000000E+00;  2.3908622E-03;  9.9914648E+02;  1.0140219E-01; -7.0714050E+02;3; -1.8421683E+00;  0.0000000E+00; -8.0831438E-01;0; -2.0569222E-02;  3.8851668E+04;  0.0000000E+00;  1.0139831E-01;  4.0000000E+04;  0.0000000E+00;  3.9988746E+04; -4.2017650E-02;  0.0000000E+00;  2.1448428E-02;  2.1113795E+02;
  6.2185174E-01;  9.9999998E-03;  1.0002630E-01;6268; -1.4158006E-02;  0.0000000E+00;  2.6070445E-03;  9.9916302E+02;  1.0140278E-01; -6.9341248E+02;3; -1.8051229E+00;  0.0000000E+00; -8.7914282E-01;0; -2.0982271E-02;  3.8852559E+04;  0.0000000E+00;  8.3712444E-02;  4.0000000E+04;  0.0000000E+00;  3.9988375E+04; -4.1307073E-02;  0.0000000E+00;  2.0324802E-02;  2.3731595E+02;
  6.2181467E-01;  9.9999998E-03;  1.1002397E-01;6269; -1.4117370E-02;  0.0000000E+00;  2.8049771E-03;  9.9917773E+02;  1.0140337E-01; -6.8121533E+02;3; -1.7637814E+00;  0.0000000E+00; -9.4908643E-01;0; -2.1427851E-02;  3.8853254E+04;  0.0000000E+00;  5.6104038E-02;  4.0000000E+04;  0.0000000E+00;  3.9988047E+04; -4.0563319E-02;  0.0000000E+00;  1.9135468E-02;  2.6490915E+02;
  6.2177515E-01;  9.9999998E-03;  1.2002149E-01;6270; -1.4083121E-02;  0.0000000E+00;  2.9850234E-03;  9.9918884E+02;  1.0140344E-01; -6.7203040E+02;3; -1.7193567E+00;  0.0000000E+00; -1.0122203E+00;0; -2.1896996E-02;  3.8853621E+04;  0.0000000E+00;  2.1499032E-02;  4.0000000E+04;  0.0000000E+00;  3.9987816E+04; -3.9795939E-02;  0.0000000E+00;  1.7898943E-02;  2.8402039E+02;
  6.2173712E-01;  9.9999998E-03;  1.3001923E-01;6271; -1.4054745E-02;  0.0000000E+00;  3.1492130E-03;  9.9919696E+02;  1.0140459E-01; -6.6531451E+02;3; -1.6712203E+00;  0.0000000E+00; -1.0725446E+00;0; -2.2381753E-02;  3.8853527E+04;  0.0000000E+00; -1.6001094E-02;  4.0000000E+04;  0.0000000E+00;  3.9987738E+04; -3.9014157E-02;  0.0000000E+00;  1.6632404E-02;  2.8253003E+02;
  6.2170500E-01;  9.9999998E-03;  1.4001743E-01;6272; -1.4030997E-02;  0.0000000E+00;  3.2982859E-03;  9.9919977E+02;  1.0140541E-01; -6.6299359E+02;3; -1.6173645E+00;  0.0000000E+00; -1.1256621E+00;0; -2.2875652E-02;  3.8852496E+04;  0.0000000E+00; -5.1937900E-02;  4.0000000E+04;  0.0000000E+00;  3.9988008E+04; -3.8226854E-02;  0.0000000E+00;  1.5351201E-02;  2.5348120E+02;
  6.2168288E-01;  9.9999998E-03;  1.5001619E-01;6273; -1.4010639E-02;  0.0000000E+00;  3.4328233E-03;  9.9919360E+02;  1.0140602E-01; -6.6807990E+02;3; -1.5599074E+00;  0.0000000E+00; -1.1744474E+00;0; -2.3372680E-02;  3.8850516E+04;  0.0000000E+00; -8.2482308E-02;  4.0000000E+04;  0.0000000E+00;  3.9988531E+04; -3.7442312E-02;  0.0000000E+00;  1.4069631E-02;  2.0366922E+02;
  6.2167400E-01;  9.9999998E-03;  1.6001517E-01;6274; -1.3991770E-02;  0.0000000E+00;  3.5526680E-03;  9.9917206E+02;  1.0140680E-01; -6.8595593E+02;3; -1.4955255E+00;  0.0000000E+00; -1.2172209E+00;0; -2.3860324E-02;  3.8847594E+04;  0.0000000E+00; -1.0517727E-01;  4.0000000E+04;  0.0000000E+00;  3.9989480E+04; -3.6668159E-02;  0.0000000E+00;  1.2807835E-02;  1.6438251E+02;
  6.2168056E-01;  9.9999998E-03;  1.7001276E-01;6275; -1.3972788E-02;  0.0000000E+00;  3.6568721E-03;  9.9913092E+02;  1.0140770E-01; -7.2002899E+02;3; -1.4270854E+00;  0.0000000E+00; -1.2548757E+00;0; -2.4321409E-02;  3.8843113E+04;  0.0000000E+00; -1.1883068E-01;  4.0000000E+04;  0.0000000E+00;  3.9990047E+04; -3.5912260E-02;  0.0000000E+00;  1.1590851E-02;  1.7526970E+02;
  6.2170333E-01;  9.9999998E-03;  1.8000676E-01;6276; -1.3951643E-02;  0.0000000E+00;  3.7449198E-03;  9.9906927E+02;  1.0140860E-01; -7.7108929E+02;3; -1.3522581E+00;  0.0000000E+00; -1.2888803E+00;0; -2.4741007E-02;  3.8836844E+04;  0.0000000E+00; -1.2295494E-01;  4.0000000E+04;  0.0000000E+00;  3.9991051E+04; -3.5182189E-02;  0.0000000E+00;  1.0441182E-02;  2.1526297E+02;
  6.2174159E-01;  9.9999998E-03;  1.8999453E-01;6277; -1.3926395E-02;  0.0000000E+00;  3.8164509E-03;  9.9897601E+02;  1.0140942E-01; -8.4837109E+02;3; -1.2732707E+00;  0.0000000E+00; -1.3190221E+00;0; -2.5112955E-02;  3.8828387E+04;  0.0000000E+00; -1.1671800E-01;  4.0000000E+04;  0.0000000E+00;  3.9991434E+04; -3.4485597E-02;  0.0000000E+00;  9.3726423E-03;  2.5305983E+02;
  6.2179226E-01;  9.9999998E-03;  1.9997342E-01;6278; -1.3897333E-02;  0.0000000E+00;  3.8726910E-03;  9.9886780E+02;  1.0140961E-01; -9.3799817E+02;3; -1.1890471E+00;  0.0000000E+00; -1.3439119E+00;0; -2.5442876E-02;  3.8818629E+04;  0.0000000E+00; -9.8933503E-02;  4.0000000E+04;  0.0000000E+00;  3.9992309E+04; -3.3829045E-02;  0.0000000E+00;  8.3861677E-03;  3.4524036E+02;
  6.2185431E-01;  9.9999998E-03;  2.0994432E-01;6279; -1.3863199E-02;  0.0000000E+00;  3.9253067E-03;  9.9875787E+02;  1.0141014E-01; -1.0290574E+03;3; -1.1012870E+00;  0.0000000E+00; -1.3750843E+00;0; -2.5739064E-02;  3.8807254E+04;  0.0000000E+00; -6.9168195E-02;  4.0000000E+04;  0.0000000E+00;  3.9995301E+04; -3.3218052E-02;  0.0000000E+00;  7.4789878E-03;  6.9886945E+02;
  6.2192762E-01;  9.9999998E-03;  2.1992293E-01;6280; -1.3824468E-02;  0.0000000E+00;  4.0109716E-03;  9.9867480E+02;  1.0141039E-01; -1.0978949E+03;3; -1.0111487E+00;  0.0000000E+00; -1.4071333E+00;0; -2.5946574E-02;  3.8795055E+04;  0.0000000E+00; -2.9737834E-02;  4.0000000E+04;  0.0000000E+00;  4.0000934E+04; -3.2655634E-02;  0.0000000E+00;  6.7090592E-03;  1.4200547E+03;
  6.2201250E-01;  9.9999998E-03;  2.2993279E-01;6281; -1.3790557E-02;  0.0000000E+00;  4.1102283E-03;  9.9856610E+02;  1.0141005E-01; -1.1879664E+03;3; -9.1589177E-01;  0.0000000E+00; -1.4445186E+00;0; -2.6011940E-02;  3.8782836E+04;  0.0000000E+00;  1.1993131E-02;  4.0000000E+04;  0.0000000E+00;  4.0005074E+04; -3.2141231E-02;  0.0000000E+00;  6.1292900E-03;  1.9497675E+03;
  6.3191801E-01;  9.9999998E-03;  7.0025325E-02;6326; -1.4753941E-02;  0.0000000E+00;  1.9778339E-03;  9.9910736E+02;  1.0213829E-01; -7.3953461E+02;3; -1.8335947E+00;  0.0000000E+00; -7.2005504E-01;0; -1.9867983E-02;  3.8295676E+04;  0.0000000E+00;  1.5119758E-02;  4.0000000E+04;  0.0000000E+00;  3.9984914E+04; -4.3909118E-02;  0.0000000E+00;  2.4041135E-02;  2.7240599E+01;
  6.3188595E-01;  9.9999998E-03;  8.0028050E-02;6327; -1.4689527E-02;  0.0000000E+00;  2.2317660E-03;  9.9909314E+02;  1.0213865E-01; -7.5133673E+02;3; -1.8063614E+00;  0.0000000E+00; -8.0659491E-01;0; -2.0178162E-02;  3.8294328E+04;  0.0000000E+00; -2.1422259E-03;  4.0000000E+04;  0.0000000E+00;  3.9984633E+04; -4.3256644E-02;  0.0000000E+00;  2.3078483E-02;  5.7352287E+01;
  6.3184345E-01;  9.9999998E-03;  9.0029992E-02;6328; -1.4629463E-02;  0.0000000E+00;  2.4708000E-03;  9.9908173E+02;  1.0213952E-01; -7.6076855E+02;3; -1.7746311E+00;  0.0000000E+00; -8.8637507E-01;0; -2.0537972E-02;  3.8292516E+04;  0.0000000E+00; -2.7824160E-02;  4.0000000E+04;  0.0000000E+00;  3.9983992E+04; -4.2547241E-02;  0.0000000E+00;  2.2009268E-02;  1.2540203E+02;
  6.3179314E-01;  9.9999998E-03;  1.0003117E-01;6329; -1.4574976E-02;  0.0000000E+00;  2.6921087E-03;  9.9907178E+02;  1.0214072E-01; -7.6901526E+02;3; -1.7378337E+00;  0.0000000E+00; -9.6542698E-01;0; -2.0940946E-02;  3.8291234E+04;  0.0000000E+00; -6.0243607E-02;  4.0000000E+04;  0.0000000E+00;  3.9983543E+04; -4.1791182E-02;  0.0000000E+00;  2.0850236E-02;  2.1025424E+02;
  6.3174015E-01;  9.9999998E-03;  1.1003131E-01;6330; -1.4526851E-02;  0.0000000E+00;  2.8948027E-03;  9.9905890E+02;  1.0214174E-01; -7.7968158E+02;3; -1.6977968E+00;  0.0000000E+00; -1.0387959E+00;0; -2.1378778E-02;  3.8289758E+04;  0.0000000E+00; -9.6255809E-02;  4.0000000E+04;  0.0000000E+00;  3.9982797E+04; -4.0998798E-02;  0.0000000E+00;  1.9620020E-02;  2.9662872E+02;
  6.3169014E-01;  9.9999998E-03;  1.2002996E-01;6331; -1.4484989E-02;  0.0000000E+00;  3.0791184E-03;  9.9904535E+02;  1.0214268E-01; -7.9089117E+02;3; -1.6545129E+00;  0.0000000E+00; -1.1091237E+00;0; -2.1843154E-02;  3.8288027E+04;  0.0000000E+00; -1.3170335E-01;  4.0000000E+04;  0.0000000E+00;  3.9982625E+04; -4.0180605E-02;  0.0000000E+00;  1.8337451E-02;  3.6856970E+02;
  6.3164788E-01;  9.9999998E-03;  1.3002719E-01;6332; -1.4448777E-02;  0.0000000E+00;  3.2463041E-03;  9.9903650E+02;  1.0214432E-01; -7.9824896E+02;3; -1.6074499E+00;  0.0000000E+00; -1.1733261E+00;0; -2.2326635E-02;  3.8286219E+04;  0.0000000E+00; -1.6231662E-01;  4.0000000E+04;  0.0000000E+00;  3.9982262E+04; -3.9346829E-02;  0.0000000E+00;  1.7020194E-02;  4.1230045E+02;
  6.3161641E-01;  9.9999998E-03;  1.4002340E-01;6333; -1.4416898E-02;  0.0000000E+00;  3.3969537E-03;  9.9902100E+02;  1.0214541E-01; -8.1108813E+02;3; -1.5559493E+00;  0.0000000E+00; -1.2332054E+00;0; -2.2823043E-02;  3.8283746E+04;  0.0000000E+00; -1.8474211E-01;  4.0000000E+04;  0.0000000E+00;  3.9982309E+04; -3.8507167E-02;  0.0000000E+00;  1.5684124E-02;  4.2055020E+02;
  6.3159752E-01;  9.9999998E-03;  1.5001889E-01;6334; -1.4388107E-02;  0.0000000E+00;  3.5314064E-03;  9.9900153E+02;  1.0214674E-01; -8.2723578E+02;3; -1.5001968E+00;  0.0000000E+00; -1.2900143E+00;0; -2.3326289E-02;  3.8280332E+04;  0.0000000E+00; -1.9745637E-01;  4.0000000E+04;  0.0000000E+00;  3.9982781E+04; -3.7670869E-02;  0.0000000E+00;  1.4344581E-02;  3.9655902E+02;
  6.3159257E-01;  9.9999998E-03;  1.6001335E-01;6335; -1.4361043E-02;  0.0000000E+00;  3.6485784E-03;  9.9896777E+02;  1.0214814E-01; -8.5518561E+02;3; -1.4395624E+00;  0.0000000E+00; -1.3400171E+00;0; -2.3823034E-02;  3.8276109E+04;  0.0000000E+00; -2.0105875E-01;  4.0000000E+04;  0.0000000E+00;  3.9983367E+04; -3.6846634E-02;  0.0000000E+00;  1.3023601E-02;  3.5459137E+02;
  6.3160247E-01;  9.9999998E-03;  1.7000572E-01;6336; -1.4334421E-02;  0.0000000E+00;  3.7476690E-03;  9.9891742E+02;  1.0214947E-01; -8.9691284E+02;3; -1.3714584E+00;  0.0000000E+00; -1.3811542E+00;0; -2.4294715E-02;  3.8270633E+04;  0.0000000E+00; -1.9709361E-01;  4.0000000E+04;  0.0000000E+00;  3.9983691E+04; -3.6043093E-02;  0.0000000E+00;  1.1748378E-02;  3.1182001E+02;
  6.3162684E-01;  9.9999998E-03;  1.7999418E-01;6337; -1.4306947E-02;  0.0000000E+00;  3.8262887E-03;  9.9883948E+02;  1.0215106E-01; -9.6145422E+02;3; -1.2972397E+00;  0.0000000E+00; -1.4184371E+00;0; -2.4725990E-02;  3.8263590E+04;  0.0000000E+00; -1.8571511E-01;  4.0000000E+04;  0.0000000E+00;  3.9984418E+04; -3.5268802E-02;  0.0000000E+00;  1.0542812E-02;  2.7469040E+02;
  6.3166362E-01;  9.9999998E-03;  1.8997641E-01;6338; -1.4277257E-02;  0.0000000E+00;  3.8866340E-03;  9.9874286E+02;  1.0215215E-01; -1.0415013E+03;3; -1.2175269E+00;  0.0000000E+00; -1.4486370E+00;0; -2.5112031E-02;  3.8254340E+04;  0.0000000E+00; -1.6446617E-01;  4.0000000E+04;  0.0000000E+00;  3.9985234E+04; -3.4532268E-02;  0.0000000E+00;  9.4202366E-03;  2.4251555E+02;
  6.3170981E-01;  9.9999998E-03;  1.9995038E-01;6339; -1.4244864E-02;  0.0000000E+00;  3.9324644E-03;  9.9862445E+02;  1.0215345E-01; -1.1396219E+03;3; -1.1325152E+00;  0.0000000E+00; -1.4756377E+00;0; -2.5461350E-02;  3.8243348E+04;  0.0000000E+00; -1.2938370E-01;  4.0000000E+04;  0.0000000E+00;  3.9986562E+04; -3.3840626E-02;  0.0000000E+00;  8.3792778E-03;  3.1898605E+02;
  6.3176346E-01;  9.9999998E-03;  2.0991953E-01;6340; -1.4207827E-02;  0.0000000E+00;  3.9827917E-03;  9.9852612E+02;  1.0215411E-01; -1.2211012E+03;3; -1.0433575E+00;  0.0000000E+00; -1.5064864E+00;0; -2.5779426E-02;  3.8231238E+04;  0.0000000E+00; -7.7482529E-02;  4.0000000E+04;  0.0000000E+00;  3.9991078E+04; -3.3199515E-02;  0.0000000E+00;  7.4200900E-03;  8.1704620E+02;
  6.3182509E-01;  9.9999998E-03;  2.1990247E-01;6341; -1.4164617E-02;  0.0000000E+00;  4.0813000E-03;  9.9844824E+02;  1.0215443E-01; -1.2855931E+03;3; -9.5065176E-01;  0.0000000E+00; -1.5421804E+00;0; -2.5989020E-02;  3.8218223E+04;  0.0000000E+00; -9.8479642E-03;  4.0000000E+04;  0.0000000E+00;  3.9998395E+04; -3.2611843E-02;  0.0000000E+00;  6.6228230E-03;  1.7384293E+03;
  6.3189673E-01;  9.9999998E-03;  2.2992104E-01;6342; -1.4124020E-02;  0.0000000E+00;  4.2027147E-03;  9.9834076E+02;  1.0215427E-01; -1.3746277E+03;3; -8.5401708E-01;  0.0000000E+00; -1.5847260E+00;0; -2.6008699E-02;  3.8204816E+04;  0.0000000E+00;  6.6790171E-02;  4.0000000E+04;  0.0000000E+00;  4.0003727E+04; -3.2077346E-02;  0.0000000E+00;  6.0686474E-03;  2.4101421E+03;
  6.4197570E-01;  9.9999998E-03;  7.0007779E-02;6387; -1.5196965E-02;  0.0000000E+00;  2.0343449E-03;  9.9939777E+02;  1.0315657E-01; -4.9894882E+02;3; -1.7552073E+00;  0.0000000E+00; -7.8580225E-01;0; -1.9919300E-02;  3.7567766E+04;  0.0000000E+00; -9.2083447E-02;  4.0000000E+04;  0.0000000E+00;  3.9978805E+04; -4.4558868E-02;  0.0000000E+00;  2.4639567E-02;  1.4598764E+02;
  6.4194477E-01;  9.9999998E-03;  8.0008343E-02;6388; -1.5126223E-02;  0.0000000E+00;  2.2944878E-03;  9.9936591E+02;  1.0315756E-01; -5.2531842E+02;3; -1.7297882E+00;  0.0000000E+00; -8.8088524E-01;0; -2.0206103E-02;  3.7564535E+04;  0.0000000E+00; -1.3250075E-01;  4.0000000E+04;  0.0000000E+00;  3.9978477E+04; -4.3868188E-02;  0.0000000E+00;  2.3662085E-02;  2.0290816E+02;
  6.4190561E-01;  9.9999998E-03;  9.0008639E-02;6389; -1.5059555E-02;  0.0000000E+00;  2.5382806E-03;  9.9933185E+02;  1.0315905E-01; -5.5356458E+02;3; -1.6995564E+00;  0.0000000E+00; -9.6904552E-01;0; -2.0543249E-02;  3.7561152E+04;  0.0000000E+00; -1.7785648E-01;  4.0000000E+04;  0.0000000E+00;  3.9977758E+04; -4.3115977E-02;  0.0000000E+00;  2.2572728E-02;  2.8661920E+02;
  6.4185870E-01;  9.9999998E-03;  1.0000876E-01;6390; -1.4998442E-02;  0.0000000E+00;  2.7644411E-03;  9.9930072E+02;  1.0316058E-01; -5.7934161E+02;3; -1.6644864E+00;  0.0000000E+00; -1.0539111E+00;0; -2.0924961E-02;  3.7557875E+04;  0.0000000E+00; -2.2418275E-01;  4.0000000E+04;  0.0000000E+00;  3.9976906E+04; -4.2312652E-02;  0.0000000E+00;  2.1387691E-02;  3.8831412E+02;
  6.4180648E-01;  9.9999998E-03;  1.1000892E-01;6391; -1.4943262E-02;  0.0000000E+00;  2.9715686E-03;  9.9927258E+02;  1.0316254E-01; -6.0264960E+02;3; -1.6258440E+00;  0.0000000E+00; -1.1335752E+00;0; -2.1344161E-02;  3.7554918E+04;  0.0000000E+00; -2.6645151E-01;  4.0000000E+04;  0.0000000E+00;  3.9976293E+04; -4.1469190E-02;  0.0000000E+00;  2.0125030E-02;  4.9110016E+02;
  6.4175248E-01;  9.9999998E-03;  1.2000927E-01;6392; -1.4893653E-02;  0.0000000E+00;  3.1599326E-03;  9.9924884E+02;  1.0316449E-01; -6.2230334E+02;3; -1.5835882E+00;  0.0000000E+00; -1.2106495E+00;0; -2.1793250E-02;  3.7551457E+04;  0.0000000E+00; -2.9947418E-01;  4.0000000E+04;  0.0000000E+00;  3.9975629E+04; -4.0596616E-02;  0.0000000E+00;  1.8803366E-02;  5.7616321E+02;
  6.4170069E-01;  9.9999998E-03;  1.3000956E-01;6393; -1.4848644E-02;  0.0000000E+00;  3.3296084E-03;  9.9921765E+02;  1.0316669E-01; -6.4817914E+02;3; -1.5381393E+00;  0.0000000E+00; -1.2822754E+00;0; -2.2265701E-02;  3.7548188E+04;  0.0000000E+00; -3.1922367E-01;  4.0000000E+04;  0.0000000E+00;  3.9975094E+04; -3.9706144E-02;  0.0000000E+00;  1.7440444E-02;  6.2786108E+02;
  6.4165467E-01;  9.9999998E-03;  1.4000963E-01;6394; -1.4807384E-02;  0.0000000E+00;  3.4826575E-03;  9.9919092E+02;  1.0316910E-01; -6.7030200E+02;3; -1.4881655E+00;  0.0000000E+00; -1.3487177E+00;0; -2.2755766E-02;  3.7544266E+04;  0.0000000E+00; -3.2402346E-01;  4.0000000E+04;  0.0000000E+00;  3.9975121E+04; -3.8808506E-02;  0.0000000E+00;  1.6052740E-02;  6.3832410E+02;
  6.4161623E-01;  9.9999998E-03;  1.5000944E-01;6395; -1.4768521E-02;  0.0000000E+00;  3.6183191E-03;  9.9915710E+02;  1.0317156E-01; -6.9830121E+02;3; -1.4349594E+00;  0.0000000E+00; -1.4097049E+00;0; -2.3257600E-02;  3.7539781E+04;  0.0000000E+00; -3.1518325E-01;  4.0000000E+04;  0.0000000E+00;  3.9975355E+04; -3.7914049E-02;  0.0000000E+00;  1.4656449E-02;  6.1028363E+02;
  6.4158618E-01;  9.9999998E-03;  1.6000885E-01;6396; -1.4731063E-02;  0.0000000E+00;  3.7369484E-03;  9.9911035E+02;  1.0317384E-01; -7.3706549E+02;3; -1.3752149E+00;  0.0000000E+00; -1.4623150E+00;0; -2.3757428E-02;  3.7534094E+04;  0.0000000E+00; -2.9668629E-01;  4.0000000E+04;  0.0000000E+00;  3.9975602E+04; -3.7032630E-02;  0.0000000E+00;  1.3275201E-02;  5.5646552E+02;
  6.4156789E-01;  9.9999998E-03;  1.7000578E-01;6397; -1.4694737E-02;  0.0000000E+00;  3.8363321E-03;  9.9904156E+02;  1.0317647E-01; -7.9405157E+02;3; -1.3099773E+00;  0.0000000E+00; -1.5103632E+00;0; -2.4235357E-02;  3.7526953E+04;  0.0000000E+00; -2.7252141E-01;  4.0000000E+04;  0.0000000E+00;  3.9975969E+04; -3.6174163E-02;  0.0000000E+00;  1.1938806E-02;  4.9237479E+02;
  6.4156950E-01;  9.9999998E-03;  1.7999563E-01;6398; -1.4659402E-02;  0.0000000E+00;  3.9153695E-03;  9.9895319E+02;  1.0317879E-01; -8.6728406E+02;3; -1.2375603E+00;  0.0000000E+00; -1.5519540E+00;0; -2.4674399E-02;  3.7518402E+04;  0.0000000E+00; -2.4293073E-01;  4.0000000E+04;  0.0000000E+00;  3.9976402E+04; -3.5348680E-02;  0.0000000E+00;  1.0674281E-02;  4.2163742E+02;
  6.4159238E-01;  9.9999998E-03;  1.8997669E-01;6399; -1.4624753E-02;  0.0000000E+00;  3.9736270E-03;  9.9883850E+02;  1.0318115E-01; -9.6229370E+02;3; -1.1589342E+00;  0.0000000E+00; -1.5863621E+00;0; -2.5068901E-02;  3.7507656E+04;  0.0000000E+00; -2.0372982E-01;  4.0000000E+04;  0.0000000E+00;  3.9976867E+04; -3.4565259E-02;  0.0000000E+00;  9.4963573E-03;  3.2354901E+02;
  6.4162737E-01;  9.9999998E-03;  1.9995068E-01;6400; -1.4589930E-02;  0.0000000E+00;  4.0182080E-03;  9.9871289E+02;  1.0318273E-01; -1.0663401E+03;3; -1.0732816E+00;  0.0000000E+00; -1.6167423E+00;0; -2.5426552E-02;  3.7495527E+04;  0.0000000E+00; -1.4883900E-01;  4.0000000E+04;  0.0000000E+00;  3.9979043E+04; -3.3831496E-02;  0.0000000E+00;  8.4049441E-03;  2.6500250E+02;
  6.4166796E-01;  9.9999998E-03;  2.0992382E-01;6401; -1.4552704E-02;  0.0000000E+00;  4.0677148E-03;  9.9859973E+02;  1.0318427E-01; -1.1601152E+03;3; -9.8234177E-01;  0.0000000E+00; -1.6487457E+00;0; -2.5752019E-02;  3.7481781E+04;  0.0000000E+00; -7.5023554E-02;  4.0000000E+04;  0.0000000E+00;  3.9983641E+04; -3.3153046E-02;  0.0000000E+00;  7.4010259E-03;  7.5952466E+02;
  6.4171278E-01;  9.9999998E-03;  2.1991290E-01;6402; -1.4509661E-02;  0.0000000E+00;  4.1679800E-03;  9.9850610E+02;  1.0318518E-01; -1.2376439E+03;3; -8.8750368E-01;  0.0000000E+00; -1.6849089E+00;0; -2.5962505E-02;  3.7467375E+04;  0.0000000E+00;  1.4755551E-02;  4.0000000E+04;  0.0000000E+00;  3.9991125E+04; -3.2532789E-02;  0.0000000E+00;  6.5702833E-03;  1.7052119E+03;
  6.4176381E-01;  9.9999998E-03;  2.2993468E-01;6403; -1.4465773E-02;  0.0000000E+00;  4.2945365E-03;  9.9837524E+02;  1.0318498E-01; -1.3460853E+03;3; -7.8906363E-01;  0.0000000E+00; -1.7311949E+00;0; -2.5965540E-02;  3.7452652E+04;  0.0000000E+00;  1.0763885E-01;  4.0000000E+04;  0.0000000E+00;  3.9997199E+04; -3.1971216E-02;  0.0000000E+00;  6.0056760E-03;  2.4348210E+03;
  6.5197587E-01;  9.9999998E-03;  6.9995165E-02;6448; -1.5635012E-02;  0.0000000E+00;  2.0765490E-03;  9.9989343E+02;  1.0447907E-01; -8.8293793E+01;3; -1.6694040E+00;  0.0000000E+00; -8.5126489E-01;0; -2.0035107E-02;  3.6657637E+04;  0.0000000E+00; -1.9539860E-01;  4.0000000E+04;  0.0000000E+00;  3.9970770E+04; -4.5248967E-02;  0.0000000E+00;  2.5213860E-02;  3.1759293E+02;
  6.5193778E-01;  9.9999998E-03;  7.9994909E-02;6449; -1.5557370E-02;  0.0000000E+00;  2.3419175E-03;  9.9984558E+02;  1.0448135E-01; -1.2794699E+02;3; -1.6453073E+00;  0.0000000E+00; -9.5499152E-01;0; -2.0288775E-02;  3.6652918E+04;  0.0000000E+00; -2.5635335E-01;  4.0000000E+04;  0.0000000E+00;  3.9970113E+04; -4.4517618E-02;  0.0000000E+00;  2.4228843E-02;  4.0382077E+02;
  6.5189409E-01;  9.9999998E-03;  8.9994699E-02;6450; -1.5483408E-02;  0.0000000E+00;  2.5902167E-03;  9.9980756E+02;  1.0448404E-01; -1.5945227E+02;3; -1.6167091E+00;  0.0000000E+00; -1.0542152E+00;0; -2.0593382E-02;  3.6648133E+04;  0.0000000E+00; -3.1822592E-01;  4.0000000E+04;  0.0000000E+00;  3.9969562E+04; -4.3720242E-02;  0.0000000E+00;  2.3126859E-02;  5.0597748E+02;
  6.5184605E-01;  9.9999998E-03;  9.9994615E-02;6451; -1.5414782E-02;  0.0000000E+00;  2.8201903E-03;  9.9976788E+02;  1.0448698E-01; -1.9229085E+02;3; -1.5843437E+00;  0.0000000E+00; -1.1453235E+00;0; -2.0944029E-02;  3.6643977E+04;  0.0000000E+00; -3.7488416E-01;  4.0000000E+04;  0.0000000E+00;  3.9968434E+04; -4.2867549E-02;  0.0000000E+00;  2.1923520E-02;  6.1705615E+02;
  6.5179592E-01;  9.9999998E-03;  1.0999503E-01;6452; -1.5351889E-02;  0.0000000E+00;  3.0315821E-03;  9.9973706E+02;  1.0449031E-01; -2.1782098E+02;3; -1.5475751E+00;  0.0000000E+00; -1.2314759E+00;0; -2.1334644E-02;  3.6639918E+04;  0.0000000E+00; -4.1963366E-01;  4.0000000E+04;  0.0000000E+00;  3.9967645E+04; -4.1971087E-02;  0.0000000E+00;  2.0636443E-02;  7.2183490E+02;
  6.5174633E-01;  9.9999998E-03;  1.1999578E-01;6453; -1.5294022E-02;  0.0000000E+00;  3.2238348E-03;  9.9970624E+02;  1.0449348E-01; -2.4340051E+02;3; -1.5070034E+00;  0.0000000E+00; -1.3140581E+00;0; -2.1758625E-02;  3.6635664E+04;  0.0000000E+00; -4.4662818E-01;  4.0000000E+04;  0.0000000E+00;  3.9966719E+04; -4.1042455E-02;  0.0000000E+00;  1.9283829E-02;  8.0218115E+02;
  6.5170127E-01;  9.9999998E-03;  1.2999664E-01;6454; -1.5240191E-02;  0.0000000E+00;  3.3979274E-03;  9.9967902E+02;  1.0449734E-01; -2.6591840E+02;3; -1.4627091E+00;  0.0000000E+00; -1.3927742E+00;0; -2.2210218E-02;  3.6631855E+04;  0.0000000E+00; -4.5251915E-01;  4.0000000E+04;  0.0000000E+00;  3.9966266E+04; -4.0093422E-02;  0.0000000E+00;  1.7883204E-02;  8.4339661E+02;
  6.5166461E-01;  9.9999998E-03;  1.3999741E-01;6455; -1.5189369E-02;  0.0000000E+00;  3.5552117E-03;  9.9965051E+02;  1.0450092E-01; -2.8952264E+02;3; -1.4149870E+00;  0.0000000E+00; -1.4655498E+00;0; -2.2684656E-02;  3.6626988E+04;  0.0000000E+00; -4.3767166E-01;  4.0000000E+04;  0.0000000E+00;  3.9966145E+04; -3.9135527E-02;  0.0000000E+00;  1.6450871E-02;  8.3922681E+02;
  6.5163928E-01;  9.9999998E-03;  1.4999774E-01;6456; -1.5140635E-02;  0.0000000E+00;  3.6959264E-03;  9.9961505E+02;  1.0450477E-01; -3.1890454E+02;3; -1.3641778E+00;  0.0000000E+00; -1.5348806E+00;0; -2.3176488E-02;  3.6621609E+04;  0.0000000E+00; -4.0635821E-01;  4.0000000E+04;  0.0000000E+00;  3.9966090E+04; -3.8179878E-02;  0.0000000E+00;  1.5003391E-02;  7.9418982E+02;
  6.5162700E-01;  9.9999998E-03;  1.5999715E-01;6457; -1.5093716E-02;  0.0000000E+00;  3.8208109E-03;  9.9956085E+02;  1.0450928E-01; -3.6384152E+02;3; -1.3067088E+00;  0.0000000E+00; -1.5941323E+00;0; -2.3671893E-02;  3.6614836E+04;  0.0000000E+00; -3.6566088E-01;  4.0000000E+04;  0.0000000E+00;  3.9966086E+04; -3.7237249E-02;  0.0000000E+00;  1.3565356E-02;  7.2131073E+02;
  6.5162730E-01;  9.9999998E-03;  1.6999522E-01;6458; -1.5048441E-02;  0.0000000E+00;  3.9281650E-03;  9.9948688E+02;  1.0451332E-01; -4.2512375E+02;3; -1.2440506E+00;  0.0000000E+00; -1.6490507E+00;0; -2.4150010E-02;  3.6606723E+04;  0.0000000E+00; -3.2120150E-01;  4.0000000E+04;  0.0000000E+00;  3.9966488E+04; -3.6318380E-02;  0.0000000E+00;  1.2168370E-02;  6.3282983E+02;
  6.5163809E-01;  9.9999998E-03;  1.7999084E-01;6459; -1.5005144E-02;  0.0000000E+00;  4.0163794E-03;  9.9938843E+02;  1.0451718E-01; -5.0665231E+02;3; -1.1731755E+00;  0.0000000E+00; -1.6946808E+00;0; -2.4591807E-02;  3.6596797E+04;  0.0000000E+00; -2.7288118E-01;  4.0000000E+04;  0.0000000E+00;  3.9967059E+04; -3.5434105E-02;  0.0000000E+00;  1.0842297E-02;  5.2849915E+02;
  6.5165526E-01;  9.9999998E-03;  1.8998316E-01;6460; -1.4964617E-02;  0.0000000E+00;  4.0841042E-03;  9.9926337E+02;  1.0452078E-01; -6.1030371E+02;3; -1.0962558E+00;  0.0000000E+00; -1.7376329E+00;0; -2.4988178E-02;  3.6584973E+04;  0.0000000E+00; -2.1516293E-01;  4.0000000E+04;  0.0000000E+00;  3.9967977E+04; -3.4594994E-02;  0.0000000E+00;  9.6068168E-03;  3.8745029E+02;
  6.5167052E-01;  9.9999998E-03;  1.9997281E-01;6461; -1.4926493E-02;  0.0000000E+00;  4.1362606E-03;  9.9912036E+02;  1.0452393E-01; -7.2876947E+02;3; -1.0103585E+00;  0.0000000E+00; -1.7711320E+00;0; -2.5342382E-02;  3.6570922E+04;  0.0000000E+00; -1.4180835E-01;  4.0000000E+04;  0.0000000E+00;  3.9969789E+04; -3.3809870E-02;  0.0000000E+00;  8.4674880E-03;  2.2210789E+02;
  6.5167344E-01;  9.9999998E-03;  2.0996419E-01;6462; -1.4888794E-02;  0.0000000E+00;  4.1842679E-03;  9.9896838E+02;  1.0452615E-01; -8.5469183E+02;3; -9.1780108E-01;  0.0000000E+00; -1.8026353E+00;0; -2.5661500E-02;  3.6555879E+04;  0.0000000E+00; -5.1543724E-02;  4.0000000E+04;  0.0000000E+00;  3.9973105E+04; -3.3085294E-02;  0.0000000E+00;  7.4237939E-03;  4.9889105E+02;
  6.5167671E-01;  9.9999998E-03;  2.2997907E-01;6464; -1.4803173E-02;  0.0000000E+00;  4.3732678E-03;  9.9867224E+02;  1.0452833E-01; -1.1000182E+03;3; -7.2057265E-01;  0.0000000E+00; -1.8837255E+00;0; -2.5931489E-02;  3.6523340E+04;  0.0000000E+00;  1.1882012E-01;  4.0000000E+04;  0.0000000E+00;  3.9984301E+04; -3.1828851E-02;  0.0000000E+00;  5.8973618E-03;  1.9182463E+03;
  6.5166736E-01;  9.9999998E-03;  2.1996342E-01;6463; -1.4847655E-02;  0.0000000E+00;  4.2604762E-03;  9.9882776E+02;  1.0452796E-01; -9.7118231E+02;3; -8.2133389E-01;  0.0000000E+00; -1.8390144E+00;0; -2.5897656E-02;  3.6539633E+04;  0.0000000E+00;  4.4709500E-02;  4.0000000E+04;  0.0000000E+00;  3.9978836E+04; -3.2424759E-02;  0.0000000E+00;  6.5271039E-03;  1.2029955E+03;
  6.6200274E-01;  9.9999998E-03;  6.9977976E-02;6509; -1.6073523E-02;  0.0000000E+00;  2.1033706E-03;  1.0003083E+03;  1.0609844E-01;  2.5549893E+02;3; -1.5753841E+00;  0.0000000E+00; -9.1891867E-01;0; -2.0212194E-02;  3.5572441E+04;  0.0000000E+00; -2.6999301E-01;  4.0000000E+04;  0.0000000E+00;  3.9960500E+04; -4.5984671E-02;  0.0000000E+00;  2.5772477E-02;  4.5072540E+02;
  6.6197121E-01;  9.9999998E-03;  7.9976290E-02;6510; -1.5988801E-02;  0.0000000E+00;  2.3733289E-03;  1.0002653E+03;  1.0610209E-01;  2.1984561E+02;3; -1.5534011E+00;  0.0000000E+00; -1.0331409E+00;0; -2.0424245E-02;  3.5566781E+04;  0.0000000E+00; -3.4453285E-01;  4.0000000E+04;  0.0000000E+00;  3.9959852E+04; -4.5212496E-02;  0.0000000E+00;  2.4788251E-02;  5.6378589E+02;
  6.6193438E-01;  9.9999998E-03;  8.9975365E-02;6511; -1.5907045E-02;  0.0000000E+00;  2.6259481E-03;  1.0002291E+03;  1.0610646E-01;  1.8982178E+02;3; -1.5275452E+00;  0.0000000E+00; -1.1389576E+00;0; -2.0687310E-02;  3.5561961E+04;  0.0000000E+00; -4.1614681E-01;  4.0000000E+04;  0.0000000E+00;  3.9959188E+04; -4.4369109E-02;  0.0000000E+00;  2.3681799E-02;  6.8351642E+02;
  6.6189301E-01;  9.9999998E-03;  9.9975295E-02;6512; -1.5829979E-02;  0.0000000E+00;  2.8603759E-03;  1.0002038E+03;  1.0611106E-01;  1.6888409E+02;3; -1.4970380E+00;  0.0000000E+00; -1.2376518E+00;0; -2.0998178E-02;  3.5557523E+04;  0.0000000E+00; -4.7681698E-01;  4.0000000E+04;  0.0000000E+00;  3.9958062E+04; -4.3465987E-02;  0.0000000E+00;  2.2467809E-02;  8.0115179E+02;
  6.6184843E-01;  9.9999998E-03;  1.0997620E-01;6513; -1.5757961E-02;  0.0000000E+00;  3.0760032E-03;  1.0001856E+03;  1.0611635E-01;  1.5377342E+02;3; -1.4610051E+00;  0.0000000E+00; -1.3324980E+00;0; -2.1351581E-02;  3.5553691E+04;  0.0000000E+00; -5.1853347E-01;  4.0000000E+04;  0.0000000E+00;  3.9957117E+04; -4.2514991E-02;  0.0000000E+00;  2.1163410E-02;  9.0151898E+02;
  6.6180283E-01;  9.9999998E-03;  1.1997837E-01;6514; -1.5690399E-02;  0.0000000E+00;  3.2726552E-03;  1.0001727E+03;  1.0612210E-01;  1.4310706E+02;3; -1.4222496E+00;  0.0000000E+00; -1.4226592E+00;0; -2.1742003E-02;  3.5549699E+04;  0.0000000E+00; -5.3523445E-01;  4.0000000E+04;  0.0000000E+00;  3.9956301E+04; -4.1528150E-02;  0.0000000E+00;  1.9786147E-02;  9.6804553E+02;
  6.6175884E-01;  9.9999998E-03;  1.2998192E-01;6515; -1.5626086E-02;  0.0000000E+00;  3.4519939E-03;  1.0001649E+03;  1.0612793E-01;  1.3658871E+02;3; -1.3803750E+00;  0.0000000E+00; -1.5053761E+00;0; -2.2164857E-02;  3.5545457E+04;  0.0000000E+00; -5.2475673E-01;  4.0000000E+04;  0.0000000E+00;  3.9955590E+04; -4.0517803E-02;  0.0000000E+00;  1.8352946E-02;  9.8873676E+02;
  6.6171986E-01;  9.9999998E-03;  1.3998663E-01;6516; -1.5564001E-02;  0.0000000E+00;  3.6170601E-03;  1.0001572E+03;  1.0613424E-01;  1.3016914E+02;3; -1.3347538E+00;  0.0000000E+00; -1.5845588E+00;0; -2.2616029E-02;  3.5540984E+04;  0.0000000E+00; -4.8978984E-01;  4.0000000E+04;  0.0000000E+00;  3.9955402E+04; -3.9495755E-02;  0.0000000E+00;  1.6879726E-02;  9.6056903E+02;
  6.6168934E-01;  9.9999998E-03;  1.4999202E-01;6517; -1.5503582E-02;  0.0000000E+00;  3.7681495E-03;  1.0001308E+03;  1.0614111E-01;  1.0834261E+02;3; -1.2862115E+00;  0.0000000E+00; -1.6606650E+00;0; -2.3091245E-02;  3.5535320E+04;  0.0000000E+00; -4.3743902E-01;  4.0000000E+04;  0.0000000E+00;  3.9955238E+04; -3.8474124E-02;  0.0000000E+00;  1.5382878E-02;  8.9072864E+02;
  6.6166967E-01;  9.9999998E-03;  1.5999778E-01;6518; -1.5444760E-02;  0.0000000E+00;  3.9045529E-03;  1.0000832E+03;  1.0614753E-01;  6.8936317E+01;3; -1.2318045E+00;  0.0000000E+00; -1.7289548E+00;0; -2.3576677E-02;  3.5528465E+04;  0.0000000E+00; -3.7694940E-01;  4.0000000E+04;  0.0000000E+00;  3.9955230E+04; -3.7464466E-02;  0.0000000E+00;  1.3887788E-02;  7.9251562E+02;
  6.6166204E-01;  9.9999998E-03;  1.7000361E-01;6519; -1.5388577E-02;  0.0000000E+00;  4.0243361E-03;  1.0000145E+03;  1.0615346E-01;  1.2049041E+01;3; -1.1731924E+00;  0.0000000E+00; -1.7936269E+00;0; -2.4050340E-02;  3.5519469E+04;  0.0000000E+00; -3.1440866E-01;  4.0000000E+04;  0.0000000E+00;  3.9955629E+04; -3.6478683E-02;  0.0000000E+00;  1.2428343E-02;  6.7565363E+02;
  6.6166633E-01;  9.9999998E-03;  1.8000874E-01;6520; -1.5335825E-02;  0.0000000E+00;  4.1278326E-03;  9.9991864E+02;  1.0615946E-01; -6.7405495E+01;3; -1.1063917E+00;  0.0000000E+00; -1.8473352E+00;0; -2.4490274E-02;  3.5508598E+04;  0.0000000E+00; -2.4913639E-01;  4.0000000E+04;  0.0000000E+00;  3.9956336E+04; -3.5528913E-02;  0.0000000E+00;  1.1038640E-02;  5.3871320E+02;
  6.6168040E-01;  9.9999998E-03;  1.9001369E-01;6521; -1.5287910E-02;  0.0000000E+00;  4.2103678E-03;  9.9978668E+02;  1.0616504E-01; -1.7673573E+02;3; -1.0299370E+00;  0.0000000E+00; -1.8975886E+00;0; -2.4882467E-02;  3.5495605E+04;  0.0000000E+00; -1.7569089E-01;  4.0000000E+04;  0.0000000E+00;  3.9957305E+04; -3.4626797E-02;  0.0000000E+00;  9.7443294E-03;  3.6916977E+02;
  6.6170019E-01;  9.9999998E-03;  2.0001955E-01;6522; -1.5244802E-02;  0.0000000E+00;  4.2745024E-03;  9.9962256E+02;  1.0617018E-01; -3.1268250E+02;3; -9.4538176E-01;  0.0000000E+00; -1.9358889E+00;0; -2.5224004E-02;  3.5480680E+04;  0.0000000E+00; -8.9363784E-02;  4.0000000E+04;  0.0000000E+00;  3.9958598E+04; -3.3782370E-02;  0.0000000E+00;  8.5583664E-03;  1.6200354E+02;
  6.6172099E-01;  9.9999998E-03;  2.1002728E-01;6523; -1.5205992E-02;  0.0000000E+00;  4.3253517E-03;  9.9943231E+02;  1.0617392E-01; -4.7030765E+02;3; -8.5261381E-01;  0.0000000E+00; -1.9723608E+00;0; -2.5520857E-02;  3.5463770E+04;  0.0000000E+00;  6.2959138E-03;  4.0000000E+04;  0.0000000E+00;  3.9960590E+04; -3.3003200E-02;  0.0000000E+00;  7.4823429E-03;  2.1346832E+02;
  6.6173887E-01;  9.9999998E-03;  2.2003619E-01;6524; -1.5167532E-02;  0.0000000E+00;  4.3695918E-03;  9.9923083E+02;  1.0617704E-01; -6.3721649E+02;3; -7.5273842E-01;  0.0000000E+00; -2.0058060E+00;0; -2.5779108E-02;  3.5445676E+04;  0.0000000E+00;  9.0808466E-02;  4.0000000E+04;  0.0000000E+00;  3.9963215E+04; -3.2293312E-02;  0.0000000E+00;  6.5142051E-03;  5.9867078E+02;
  6.6175097E-01;  9.9999998E-03;  2.3004514E-01;6525; -1.5126547E-02;  0.0000000E+00;  4.4378941E-03;  9.9902728E+02;  1.0617924E-01; -8.0585370E+02;3; -6.4772397E-01;  0.0000000E+00; -2.0454044E+00;0; -2.5917474E-02;  3.5427297E+04;  0.0000000E+00;  1.1607999E-01;  4.0000000E+04;  0.0000000E+00;  3.9967797E+04; -3.1653885E-02;  0.0000000E+00;  5.7364106E-03;  1.1502256E+03;
  6.7197996E-01;  9.9999998E-03;  6.9967255E-02;6570; -1.6520852E-02;  0.0000000E+00;  2.1153479E-03;  1.0003306E+03;  1.0798641E-01;  2.7386877E+02;3; -1.4731891E+00;  0.0000000E+00; -9.8605806E-01;0; -2.0437017E-02;  3.4336273E+04;  0.0000000E+00; -2.9407507E-01;  4.0000000E+04;  0.0000000E+00;  3.9948164E+04; -4.6751942E-02;  0.0000000E+00;  2.6314925E-02;  5.0799573E+02;
  6.7196763E-01;  9.9999998E-03;  7.9963811E-02;6571; -1.6428314E-02;  0.0000000E+00;  2.3896117E-03;  1.0003077E+03;  1.0799275E-01;  2.5490636E+02;3; -1.4528308E+00;  0.0000000E+00; -1.1124729E+00;0; -2.0601736E-02;  3.4330820E+04;  0.0000000E+00; -3.7085715E-01;  4.0000000E+04;  0.0000000E+00;  3.9947637E+04; -4.5939986E-02;  0.0000000E+00;  2.5338249E-02;  6.3596857E+02;
  6.7195290E-01;  9.9999998E-03;  8.9961253E-02;6572; -1.6337743E-02;  0.0000000E+00;  2.6460865E-03;  1.0002962E+03;  1.0799950E-01;  2.4542514E+02;3; -1.4291750E+00;  0.0000000E+00; -1.2257984E+00;0; -2.0817606E-02;  3.4326051E+04;  0.0000000E+00; -4.4159698E-01;  4.0000000E+04;  0.0000000E+00;  3.9946699E+04; -4.5051858E-02;  0.0000000E+00;  2.4234252E-02;  7.6248834E+02;
  6.7193538E-01;  9.9999998E-03;  9.9959910E-02;6573; -1.6250953E-02;  0.0000000E+00;  2.8842702E-03;  1.0002958E+03;  1.0800669E-01;  2.4512885E+02;3; -1.3995976E+00;  0.0000000E+00; -1.3357937E+00;0; -2.1082729E-02;  3.4322227E+04;  0.0000000E+00; -4.9711782E-01;  4.0000000E+04;  0.0000000E+00;  3.9945602E+04; -4.4099335E-02;  0.0000000E+00;  2.3016606E-02;  8.7698999E+02;
  6.7191517E-01;  9.9999998E-03;  1.0995992E-01;6574; -1.6168755E-02;  0.0000000E+00;  3.1044011E-03;  1.0003139E+03;  1.0801467E-01;  2.6004202E+02;3; -1.3681606E+00;  0.0000000E+00; -1.4351768E+00;0; -2.1393171E-02;  3.4319105E+04;  0.0000000E+00; -5.2888948E-01;  4.0000000E+04;  0.0000000E+00;  3.9944883E+04; -4.3094661E-02;  0.0000000E+00;  2.1701491E-02;  9.6448706E+02;
  6.7189300E-01;  9.9999998E-03;  1.1996204E-01;6575; -1.6090484E-02;  0.0000000E+00;  3.3073295E-03;  1.0003382E+03;  1.0802379E-01;  2.8018958E+02;3; -1.3311914E+00;  0.0000000E+00; -1.5303129E+00;0; -2.1744452E-02;  3.4315957E+04;  0.0000000E+00; -5.3130352E-01;  4.0000000E+04;  0.0000000E+00;  3.9943914E+04; -4.2050246E-02;  0.0000000E+00;  2.0305794E-02;  1.0104312E+03;
  6.7186987E-01;  9.9999998E-03;  1.2996680E-01;6576; -1.6014993E-02;  0.0000000E+00;  3.4951631E-03;  1.0003606E+03;  1.0803253E-01;  2.9875696E+02;3; -1.2905588E+00;  0.0000000E+00; -1.6226661E+00;0; -2.2132942E-02;  3.4312598E+04;  0.0000000E+00; -5.0364184E-01;  4.0000000E+04;  0.0000000E+00;  3.9943359E+04; -4.0978510E-02;  0.0000000E+00;  1.8845567E-02;  1.0058983E+03;
  6.7184764E-01;  9.9999998E-03;  1.3997401E-01;6577; -1.5940933E-02;  0.0000000E+00;  3.6707008E-03;  1.0003844E+03;  1.0804205E-01;  3.1850949E+02;3; -1.2470022E+00;  0.0000000E+00; -1.7099345E+00;0; -2.2555796E-02;  3.4308656E+04;  0.0000000E+00; -4.5058247E-01;  4.0000000E+04;  0.0000000E+00;  3.9942965E+04; -3.9891694E-02;  0.0000000E+00;  1.7335897E-02;  9.5071710E+02;
  6.7182791E-01;  9.9999998E-03;  1.4998342E-01;6578; -1.5867785E-02;  0.0000000E+00;  3.8345680E-03;  1.0003837E+03;  1.0805163E-01;  3.1781815E+02;3; -1.2006221E+00;  0.0000000E+00; -1.7932817E+00;0; -2.3009341E-02;  3.4303777E+04;  0.0000000E+00; -3.8109100E-01;  4.0000000E+04;  0.0000000E+00;  3.9943211E+04; -3.8802020E-02;  0.0000000E+00;  1.5792679E-02;  8.5340387E+02;
  6.7181325E-01;  9.9999998E-03;  1.5999472E-01;6579; -1.5795814E-02;  0.0000000E+00;  3.9865468E-03;  1.0003657E+03;  1.0806111E-01;  3.0300375E+02;3; -1.1506952E+00;  0.0000000E+00; -1.8697824E+00;0; -2.3479966E-02;  3.4296898E+04;  0.0000000E+00; -3.0534747E-01;  4.0000000E+04;  0.0000000E+00;  3.9943422E+04; -3.7721734E-02;  0.0000000E+00;  1.4241768E-02;  7.2493842E+02;
  6.7180485E-01;  9.9999998E-03;  1.7000806E-01;6580; -1.5727190E-02;  0.0000000E+00;  4.1252370E-03;  1.0003090E+03;  1.0807063E-01;  2.5599274E+02;3; -1.0947413E+00;  0.0000000E+00; -1.9421269E+00;0; -2.3944853E-02;  3.4288000E+04;  0.0000000E+00; -2.2922742E-01;  4.0000000E+04;  0.0000000E+00;  3.9943953E+04; -3.6664110E-02;  0.0000000E+00;  1.2719257E-02;  5.6971942E+02;
  6.7180258E-01;  9.9999998E-03;  1.8002409E-01;6581; -1.5663356E-02;  0.0000000E+00;  4.2449804E-03;  1.0002222E+03;  1.0807890E-01;  1.8409355E+02;3; -1.0322769E+00;  0.0000000E+00; -2.0109975E+00;0; -2.4378922E-02;  3.4276648E+04;  0.0000000E+00; -1.5229559E-01;  4.0000000E+04;  0.0000000E+00;  3.9944887E+04; -3.5642311E-02;  0.0000000E+00;  1.1263389E-02;  3.8613660E+02;
  6.7180365E-01;  9.9999998E-03;  1.9004393E-01;6582; -1.5605380E-02;  0.0000000E+00;  4.3426640E-03;  1.0000941E+03;  1.0808765E-01;  7.8022476E+01;3; -9.5956486E-01;  0.0000000E+00; -2.0687015E+00;0; -2.4762861E-02;  3.4262957E+04;  0.0000000E+00; -7.0685789E-02;  4.0000000E+04;  0.0000000E+00;  3.9946199E+04; -3.4669340E-02;  0.0000000E+00;  9.9064782E-03;  1.8023439E+02;
  6.7180538E-01;  9.9999998E-03;  2.0006834E-01;6583; -1.5554331E-02;  0.0000000E+00;  4.4193198E-03;  9.9992865E+02;  1.0809516E-01; -5.9109436E+01;3; -8.7629431E-01;  0.0000000E+00; -2.1141961E+00;0; -2.5086656E-02;  3.4246906E+04;  0.0000000E+00;  1.6812734E-02;  4.0000000E+04;  0.0000000E+00;  3.9947363E+04; -3.3756733E-02;  0.0000000E+00;  8.6700767E-03;  4.8377068E+01;
  6.7180461E-01;  9.9999998E-03;  2.1009536E-01;6584; -1.5509071E-02;  0.0000000E+00;  4.4694645E-03;  9.9971167E+02;  1.0810217E-01; -2.3885742E+02;3; -7.8370398E-01;  0.0000000E+00; -2.1563797E+00;0; -2.5358636E-02;  3.4228871E+04;  0.0000000E+00;  9.9604465E-02;  4.0000000E+04;  0.0000000E+00;  3.9947766E+04; -3.2913428E-02;  0.0000000E+00;  7.5547928E-03;  1.5831070E+02;
  6.7180037E-01;  9.9999998E-03;  2.2011469E-01;6585; -1.5468059E-02;  0.0000000E+00;  4.4801878E-03;  9.9946515E+02;  1.0810784E-01; -4.4309854E+02;3; -6.8112749E-01;  0.0000000E+00; -2.1848233E+00;0; -2.5636565E-02;  3.4209883E+04;  0.0000000E+00;  1.4304671E-01;  4.0000000E+04;  0.0000000E+00;  3.9947906E+04; -3.2145485E-02;  0.0000000E+00;  6.5089208E-03;  2.1817902E+02;
  6.7179137E-01;  9.9999998E-03;  2.3011716E-01;6586; -1.5428472E-02;  0.0000000E+00;  4.5021502E-03;  9.9923114E+02;  1.0811196E-01; -6.3696960E+02;3; -5.7353103E-01;  0.0000000E+00; -2.2165871E+00;0; -2.5880398E-02;  3.4190395E+04;  0.0000000E+00;  7.1355954E-02;  4.0000000E+04;  0.0000000E+00;  3.9950605E+04; -3.1454794E-02;  0.0000000E+00;  5.5743963E-03;  5.4769366E+02;
  6.8195295E-01;  9.9999998E-03;  6.9966651E-02;6631; -1.6991910E-02;  0.0000000E+00;  2.1157982E-03;  9.9988531E+02;  1.1012562E-01; -9.5009651E+01;3; -1.3610710E+00;  0.0000000E+00; -1.0502576E+00;0; -2.0691456E-02;  3.2985918E+04;  0.0000000E+00; -2.5633278E-01;  4.0000000E+04;  0.0000000E+00;  3.9933742E+04; -4.7541022E-02;  0.0000000E+00;  2.6849566E-02;  4.6981192E+02;
  6.8195784E-01;  9.9999998E-03;  7.9963334E-02;6632; -1.6890148E-02;  0.0000000E+00;  2.3943759E-03;  9.9989166E+02;  1.1013468E-01; -8.9775230E+01;3; -1.3443938E+00;  0.0000000E+00; -1.1843437E+00;0; -2.0806132E-02;  3.2980949E+04;  0.0000000E+00; -3.2083231E-01;  4.0000000E+04;  0.0000000E+00;  3.9933270E+04; -4.6690408E-02;  0.0000000E+00;  2.5884276E-02;  5.9017004E+02;
  6.8196219E-01;  9.9999998E-03;  8.9960992E-02;6633; -1.6788855E-02;  0.0000000E+00;  2.6553820E-03;  9.9991895E+02;  1.1014516E-01; -6.7158592E+01;3; -1.3220320E+00;  0.0000000E+00; -1.3130289E+00;0; -2.0972211E-02;  3.2977047E+04;  0.0000000E+00; -3.7719578E-01;  4.0000000E+04;  0.0000000E+00;  3.9932820E+04; -4.5758449E-02;  0.0000000E+00;  2.4786238E-02;  7.0457257E+02;
  6.8196559E-01;  9.9999998E-03;  9.9959910E-02;6634; -1.6690424E-02;  0.0000000E+00;  2.8980321E-03;  9.9996613E+02;  1.1015628E-01; -2.8048588E+01;3; -1.2962806E+00;  0.0000000E+00; -1.4309329E+00;0; -2.1189431E-02;  3.2973621E+04;  0.0000000E+00; -4.1649166E-01;  4.0000000E+04;  0.0000000E+00;  3.9931949E+04; -4.4757426E-02;  0.0000000E+00;  2.3567995E-02;  8.0161188E+02;
  6.8196779E-01;  9.9999998E-03;  1.0996094E-01;6635; -1.6595751E-02;  0.0000000E+00;  3.1228177E-03;  1.0000296E+03;  1.1016810E-01;  2.4493134E+01;3; -1.2653478E+00;  0.0000000E+00; -1.5419246E+00;0; -2.1454822E-02;  3.2971703E+04;  0.0000000E+00; -4.3090287E-01;  4.0000000E+04;  0.0000000E+00;  3.9931082E+04; -4.3699820E-02;  0.0000000E+00;  2.2244997E-02;  8.6763220E+02;
  6.8196839E-01;  9.9999998E-03;  1.1996486E-01;6636; -1.6504612E-02;  0.0000000E+00;  3.3313797E-03;  1.0001040E+03;  1.1018109E-01;  8.6121017E+01;3; -1.2313043E+00;  0.0000000E+00; -1.6483258E+00;0; -2.1765124E-02;  3.2969984E+04;  0.0000000E+00; -4.1604057E-01;  4.0000000E+04;  0.0000000E+00;  3.9930254E+04; -4.2598359E-02;  0.0000000E+00;  2.0833235E-02;  8.9052246E+02;
  6.8196791E-01;  9.9999998E-03;  1.2997191E-01;6637; -1.6416118E-02;  0.0000000E+00;  3.5275908E-03;  1.0001804E+03;  1.1019445E-01;  1.4942786E+02;3; -1.1939498E+00;  0.0000000E+00; -1.7472233E+00;0; -2.2117719E-02;  3.2967785E+04;  0.0000000E+00; -3.7250534E-01;  4.0000000E+04;  0.0000000E+00;  3.9929652E+04; -4.1465852E-02;  0.0000000E+00;  1.9348133E-02;  8.6346094E+02;
  6.8196732E-01;  9.9999998E-03;  1.3998210E-01;6638; -1.6329208E-02;  0.0000000E+00;  3.7149929E-03;  1.0002425E+03;  1.1020771E-01;  2.0088319E+02;3; -1.1534740E+00;  0.0000000E+00; -1.8356280E+00;0; -2.2510668E-02;  3.2964902E+04;  0.0000000E+00; -3.0598876E-01;  4.0000000E+04;  0.0000000E+00;  3.9929340E+04; -4.0314771E-02;  0.0000000E+00;  1.7804103E-02;  7.8705518E+02;
  6.8196791E-01;  9.9999998E-03;  1.4999515E-01;6639; -1.6242739E-02;  0.0000000E+00;  3.8957773E-03;  1.0002864E+03;  1.1022161E-01;  2.3722784E+02;3; -1.1083556E+00;  0.0000000E+00; -1.9260815E+00;0; -2.2940706E-02;  3.2960293E+04;  0.0000000E+00; -2.2584677E-01;  4.0000000E+04;  0.0000000E+00;  3.9929695E+04; -3.9157160E-02;  0.0000000E+00;  1.6216453E-02;  6.6830328E+02;
  6.8197137E-01;  9.9999998E-03;  1.6001056E-01;6640; -1.6157145E-02;  0.0000000E+00;  4.0670852E-03;  1.0002957E+03;  1.1023516E-01;  2.4493132E+02;3; -1.0613374E+00;  0.0000000E+00; -2.0143344E+00;0; -2.3394350E-02;  3.2953695E+04;  0.0000000E+00; -1.4171989E-01;  4.0000000E+04;  0.0000000E+00;  3.9930086E+04; -3.8005773E-02;  0.0000000E+00;  1.4611422E-02;  5.1314594E+02;
  6.8197936E-01;  9.9999998E-03;  1.7002864E-01;6641; -1.6074296E-02;  0.0000000E+00;  4.2239665E-03;  1.0002647E+03;  1.1024840E-01;  2.1935181E+02;3; -1.0084163E+00;  0.0000000E+00; -2.0969102E+00;0; -2.3846984E-02;  3.2944078E+04;  0.0000000E+00; -5.9161592E-02;  4.0000000E+04;  0.0000000E+00;  3.9931531E+04; -3.6874104E-02;  0.0000000E+00;  1.3027119E-02;  3.1984171E+02;
  6.8199223E-01;  9.9999998E-03;  1.8005137E-01;6642; -1.5997238E-02;  0.0000000E+00;  4.3598567E-03;  1.0001917E+03;  1.1026175E-01;  1.5881032E+02;3; -9.5080793E-01;  0.0000000E+00; -2.1808443E+00;0; -2.4271041E-02;  3.2932074E+04;  0.0000000E+00;  2.0864706E-02;  4.0000000E+04;  0.0000000E+00;  3.9932977E+04; -3.5776533E-02;  0.0000000E+00;  1.1505491E-02;  8.6555435E+01;
  6.8200910E-01;  9.9999998E-03;  1.9008003E-01;6643; -1.5928108E-02;  0.0000000E+00;  4.4689896E-03;  1.0000719E+03;  1.1027423E-01;  5.9553867E+01;3; -8.8383096E-01;  0.0000000E+00; -2.2490551E+00;0; -2.4643486E-02;  3.2917039E+04;  0.0000000E+00;  9.8978847E-02;  4.0000000E+04;  0.0000000E+00;  3.9934461E+04; -3.4727540E-02;  0.0000000E+00;  1.0084054E-02;  1.7602846E+02;
  6.8202895E-01;  9.9999998E-03;  2.0011564E-01;6644; -1.5867040E-02;  0.0000000E+00;  4.5541283E-03;  9.9990161E+02;  1.1028607E-01; -8.1528549E+01;3; -8.0302727E-01;  0.0000000E+00; -2.3062918E+00;0; -2.4948344E-02;  3.2899391E+04;  0.0000000E+00;  1.7183365E-01;  4.0000000E+04;  0.0000000E+00;  3.9935902E+04; -3.3739496E-02;  0.0000000E+00;  8.7911533E-03;  3.8732523E+02;
  6.8204957E-01;  9.9999998E-03;  2.1015620E-01;6645; -1.5813671E-02;  0.0000000E+00;  4.6001836E-03;  9.9966949E+02;  1.1029655E-01; -2.7381940E+02;3; -7.1200573E-01;  0.0000000E+00; -2.3502984E+00;0; -2.5199434E-02;  3.2879734E+04;  0.0000000E+00;  2.2303566E-01;  4.0000000E+04;  0.0000000E+00;  3.9935363E+04; -3.2822985E-02;  0.0000000E+00;  7.6235514E-03;  4.0743649E+02;
  6.8206704E-01;  9.9999998E-03;  2.2018495E-01;6646; -1.5766852E-02;  0.0000000E+00;  4.5889858E-03;  9.9938965E+02;  1.1030682E-01; -5.0566467E+02;3; -6.0819608E-01;  0.0000000E+00; -2.3751538E+00;0; -2.5481321E-02;  3.2858969E+04;  0.0000000E+00;  2.0791516E-01;  4.0000000E+04;  0.0000000E+00;  3.9933848E+04; -3.1986289E-02;  0.0000000E+00;  6.5049687E-03;  2.3040540E+02;
  6.8207008E-01;  9.9999998E-03;  2.3018451E-01;6647; -1.5726371E-02;  0.0000000E+00;  4.5728609E-03;  9.9913928E+02;  1.1031567E-01; -7.1306622E+02;3; -4.9499759E-01;  0.0000000E+00; -2.3925431E+00;0; -2.5807723E-02;  3.2837773E+04;  0.0000000E+00;  3.1044293E-02;  4.0000000E+04;  0.0000000E+00;  3.9935562E+04; -3.1233987E-02;  0.0000000E+00;  5.4262625E-03;  4.1197595E+02;
  6.9244242E-01;  9.9999998E-03;  6.9998302E-02;6692; -1.7514667E-02;  0.0000000E+00;  2.1100855E-03;  9.9907489E+02;  1.1259435E-01; -7.6644739E+02;3; -1.2334269E+00;  0.0000000E+00; -1.1246623E+00;0; -2.0960381E-02;  3.1514074E+04;  0.0000000E+00; -1.5444788E-01;  4.0000000E+04;  0.0000000E+00;  3.9917020E+04; -4.8369784E-02;  0.0000000E+00;  2.7409403E-02;  3.5079868E+02;
  6.9248420E-01;  9.9999998E-03;  7.9999715E-02;6693; -1.7402299E-02;  0.0000000E+00;  2.3918650E-03;  9.9911884E+02;  1.1261085E-01; -7.3000397E+02;3; -1.2179203E+00;  0.0000000E+00; -1.2718877E+00;0; -2.1023929E-02;  3.1507477E+04;  0.0000000E+00; -1.9048452E-01;  4.0000000E+04;  0.0000000E+00;  3.9916898E+04; -4.7481991E-02;  0.0000000E+00;  2.6458062E-02;  4.2496979E+02;
  6.9252127E-01;  9.9999998E-03;  9.0001151E-02;6694; -1.7288659E-02;  0.0000000E+00;  2.6562938E-03;  9.9919373E+02;  1.1262813E-01; -6.6798108E+02;3; -1.1994781E+00;  0.0000000E+00; -1.4101529E+00;0; -2.1139234E-02;  3.1502650E+04;  0.0000000E+00; -2.1779203E-01;  4.0000000E+04;  0.0000000E+00;  3.9916270E+04; -4.6506871E-02;  0.0000000E+00;  2.5367636E-02;  5.0164243E+02;
  6.9255197E-01;  9.9999998E-03;  1.0000373E-01;6695; -1.7176613E-02;  0.0000000E+00;  2.9037744E-03;  9.9929443E+02;  1.1264545E-01; -5.8452661E+02;3; -1.1766205E+00;  0.0000000E+00; -1.5363606E+00;0; -2.1307761E-02;  3.1499869E+04;  0.0000000E+00; -2.2942500E-01;  4.0000000E+04;  0.0000000E+00;  3.9915637E+04; -4.5457091E-02;  0.0000000E+00;  2.4149330E-02;  5.6797742E+02;
  6.9257629E-01;  9.9999998E-03;  1.1000863E-01;6696; -1.7067607E-02;  0.0000000E+00;  3.1361014E-03;  9.9942755E+02;  1.1266281E-01; -4.7425815E+02;3; -1.1508604E+00;  0.0000000E+00; -1.6539140E+00;0; -2.1528006E-02;  3.1498697E+04;  0.0000000E+00; -2.1969733E-01;  4.0000000E+04;  0.0000000E+00;  3.9915160E+04; -4.4345614E-02;  0.0000000E+00;  2.2817608E-02;  6.1240088E+02;
  6.9259399E-01;  9.9999998E-03;  1.2001625E-01;6697; -1.6961927E-02;  0.0000000E+00;  3.3551613E-03;  9.9955798E+02;  1.1267979E-01; -3.6621182E+02;3; -1.1204679E+00;  0.0000000E+00; -1.7681042E+00;0; -2.1798054E-02;  3.1498482E+04;  0.0000000E+00; -1.8604645E-01;  4.0000000E+04;  0.0000000E+00;  3.9914367E+04; -4.3186009E-02;  0.0000000E+00;  2.1387955E-02;  6.2487115E+02;
  6.9260681E-01;  9.9999998E-03;  1.3002649E-01;6698; -1.6858527E-02;  0.0000000E+00;  3.5638984E-03;  9.9969519E+02;  1.1269707E-01; -2.5253604E+02;3; -1.0855534E+00;  0.0000000E+00; -1.8764758E+00;0; -2.2115497E-02;  3.1498426E+04;  0.0000000E+00; -1.3004535E-01;  4.0000000E+04;  0.0000000E+00;  3.9914055E+04; -4.1991085E-02;  0.0000000E+00;  1.9875588E-02;  5.9895099E+02;
  6.9261628E-01;  9.9999998E-03;  1.4003922E-01;6699; -1.6756272E-02;  0.0000000E+00;  3.7643043E-03;  9.9981329E+02;  1.1271384E-01; -1.5466228E+02;3; -1.0464014E+00;  0.0000000E+00; -1.9798263E+00;0; -2.2478899E-02;  3.1497199E+04;  0.0000000E+00; -5.7218432E-02;  4.0000000E+04;  0.0000000E+00;  3.9914277E+04; -4.0773571E-02;  0.0000000E+00;  1.8294672E-02;  5.3356555E+02;
  6.9262606E-01;  9.9999998E-03;  1.5005416E-01;6700; -1.6654283E-02;  0.0000000E+00;  3.9593205E-03;  9.9990405E+02;  1.1273111E-01; -7.9503922E+01;3; -1.0040536E+00;  0.0000000E+00; -2.0764921E+00;0; -2.2885384E-02;  3.1494186E+04;  0.0000000E+00;  2.4395593E-02;  4.0000000E+04;  0.0000000E+00;  3.9914613E+04; -3.9545868E-02;  0.0000000E+00;  1.6660484E-02;  4.3444412E+02;
  6.9263923E-01;  9.9999998E-03;  1.6007116E-01;6701; -1.6552737E-02;  0.0000000E+00;  4.1463091E-03;  9.9994812E+02;  1.1274821E-01; -4.2961746E+01;3; -9.6005505E-01;  0.0000000E+00; -2.1748743E+00;0; -2.3320679E-02;  3.1488314E+04;  0.0000000E+00;  1.0709384E-01;  4.0000000E+04;  0.0000000E+00;  3.9915711E+04; -3.8320486E-02;  0.0000000E+00;  1.4999808E-02;  3.1710229E+02;
  6.9265819E-01;  9.9999998E-03;  1.7009111E-01;6702; -1.6453231E-02;  0.0000000E+00;  4.3194145E-03;  9.9994830E+02;  1.1276562E-01; -4.2813602E+01;3; -9.1103649E-01;  0.0000000E+00; -2.2632420E+00;0; -2.3758586E-02;  3.1478957E+04;  0.0000000E+00;  1.8586583E-01;  4.0000000E+04;  0.0000000E+00;  3.9917066E+04; -3.7110988E-02;  0.0000000E+00;  1.3352402E-02;  2.4765207E+02;
  6.9268358E-01;  9.9999998E-03;  1.8011571E-01;6703; -1.6359175E-02;  0.0000000E+00;  4.4695954E-03;  9.9989734E+02;  1.1278380E-01; -8.5034622E+01;3; -8.5841674E-01;  0.0000000E+00; -2.3619556E+00;0; -2.4168845E-02;  3.1466104E+04;  0.0000000E+00;  2.5779200E-01;  4.0000000E+04;  0.0000000E+00;  3.9918977E+04; -3.5932377E-02;  0.0000000E+00;  1.1763533E-02;  3.5861984E+02;
  6.9271708E-01;  9.9999998E-03;  1.9014686E-01;6704; -1.6274150E-02;  0.0000000E+00;  4.5879148E-03;  9.9978729E+02;  1.1280183E-01; -1.7624191E+02;3; -7.9670376E-01;  0.0000000E+00; -2.4419932E+00;0; -2.4525583E-02;  3.1449596E+04;  0.0000000E+00;  3.2034728E-01;  4.0000000E+04;  0.0000000E+00;  3.9920879E+04; -3.4800187E-02;  0.0000000E+00;  1.0274603E-02;  5.8245062E+02;
  6.9276226E-01;  9.9999998E-03;  2.0018682E-01;6705; -1.6199397E-02;  0.0000000E+00;  4.6731550E-03;  9.9961932E+02;  1.1282057E-01; -3.1539847E+02;3; -7.2279036E-01;  0.0000000E+00; -2.5104861E+00;0; -2.4813302E-02;  3.1429541E+04;  0.0000000E+00;  3.6765090E-01;  4.0000000E+04;  0.0000000E+00;  3.9922113E+04; -3.3728369E-02;  0.0000000E+00;  8.9150677E-03;  7.5018347E+02;
  6.9282454E-01;  9.9999998E-03;  2.1023086E-01;6706; -1.6134685E-02;  0.0000000E+00;  4.7106561E-03;  9.9937531E+02;  1.1284044E-01; -5.1756555E+02;3; -6.3211006E-01;  0.0000000E+00; -2.5556352E+00;0; -2.5051497E-02;  3.1406119E+04;  0.0000000E+00;  3.8200301E-01;  4.0000000E+04;  0.0000000E+00;  3.9921172E+04; -3.2729328E-02;  0.0000000E+00;  7.6778317E-03;  6.6983728E+02;
  6.9290537E-01;  9.9999998E-03;  2.2025612E-01;6707; -1.6080301E-02;  0.0000000E+00;  4.6835286E-03;  9.9909094E+02;  1.1286342E-01; -7.5311444E+02;3; -5.2681780E-01;  0.0000000E+00; -2.5787411E+00;0; -2.5339274E-02;  3.1379793E+04;  0.0000000E+00;  3.2054257E-01;  4.0000000E+04;  0.0000000E+00;  3.9918719E+04; -3.1813625E-02;  0.0000000E+00;  6.4743510E-03;  3.7637671E+02;
  6.9299692E-01;  9.9999998E-03;  2.3024732E-01;6708; -1.6036185E-02;  0.0000000E+00;  4.6597319E-03;  9.9884589E+02;  1.1288901E-01; -9.5617041E+02;3; -4.1224796E-01;  0.0000000E+00; -2.5959466E+00;0; -2.5672853E-02;  3.1351592E+04;  0.0000000E+00;  9.9988140E-02;  4.0000000E+04;  0.0000000E+00;  3.9921000E+04; -3.0987013E-02;  0.0000000E+00;  5.3141601E-03;  5.8118939E+02;
  7.0462906E-01;  9.9999998E-03;  7.0135668E-02;6753; -1.8139085E-02;  0.0000000E+00;  2.1072207E-03;  9.9832556E+02;  1.1568473E-01; -1.3872200E+03;3; -1.0757867E+00;  0.0000000E+00; -1.2158327E+00;0; -2.1216840E-02;  2.9830766E+04;  0.0000000E+00;  1.6141182E-02;  4.0000000E+04;  0.0000000E+00;  3.9896973E+04; -4.9278062E-02;  0.0000000E+00;  2.8061222E-02;  3.0794434E+02;
  7.0465630E-01;  9.9999998E-03;  8.0145910E-02;6754; -1.8011028E-02;  0.0000000E+00;  2.3953873E-03;  9.9841931E+02;  1.1569861E-01; -1.3095925E+03;3; -1.0653821E+00;  0.0000000E+00; -1.3744837E+00;0; -2.1226728E-02;  2.9828531E+04;  0.0000000E+00;  2.4676854E-02;  4.0000000E+04;  0.0000000E+00;  3.9897012E+04; -4.8346296E-02;  0.0000000E+00;  2.7119568E-02;  3.0541528E+02;
  7.0467204E-01;  9.9999998E-03;  9.0156086E-02;6755; -1.7879775E-02;  0.0000000E+00;  2.6686618E-03;  9.9854858E+02;  1.1571141E-01; -1.2024844E+03;3; -1.0517482E+00;  0.0000000E+00; -1.5275097E+00;0; -2.1290490E-02;  2.9829277E+04;  0.0000000E+00;  3.9787035E-02;  4.0000000E+04;  0.0000000E+00;  3.9896758E+04; -4.7320940E-02;  0.0000000E+00;  2.6030449E-02;  3.4182803E+02;
  7.0467490E-01;  9.9999998E-03;  1.0016704E-01;6756; -1.7748801E-02;  0.0000000E+00;  2.9253487E-03;  9.9871021E+02;  1.1572305E-01; -1.0685623E+03;3; -1.0342275E+00;  0.0000000E+00; -1.6694485E+00;0; -2.1411125E-02;  2.9832812E+04;  0.0000000E+00;  6.4405285E-02;  4.0000000E+04;  0.0000000E+00;  3.9896223E+04; -4.6214990E-02;  0.0000000E+00;  2.4803866E-02;  4.0493958E+02;
  7.0466667E-01;  9.9999998E-03;  1.1017888E-01;6757; -1.7620064E-02;  0.0000000E+00;  3.1663082E-03;  9.9890173E+02;  1.1573505E-01; -9.0990015E+02;3; -1.0126642E+00;  0.0000000E+00; -1.7987093E+00;0; -2.1588620E-02;  2.9838350E+04;  0.0000000E+00;  1.0063405E-01;  4.0000000E+04;  0.0000000E+00;  3.9895812E+04; -4.5042533E-02;  0.0000000E+00;  2.3453914E-02;  4.7893973E+02;
  7.0464969E-01;  9.9999998E-03;  1.2019145E-01;6758; -1.7494231E-02;  0.0000000E+00;  3.3949509E-03;  9.9910303E+02;  1.1574621E-01; -7.4313940E+02;3; -9.8584956E-01;  0.0000000E+00; -1.9229434E+00;0; -2.1821156E-02;  2.9844969E+04;  0.0000000E+00;  1.4884415E-01;  4.0000000E+04;  0.0000000E+00;  3.9895648E+04; -4.3817487E-02;  0.0000000E+00;  2.1996330E-02;  5.4725732E+02;
  7.0462888E-01;  9.9999998E-03;  1.3020436E-01;6759; -1.7370926E-02;  0.0000000E+00;  3.6142929E-03;  9.9929712E+02;  1.1575768E-01; -5.8230450E+02;3; -9.5482230E-01;  0.0000000E+00; -2.0418260E+00;0; -2.2106744E-02;  2.9851166E+04;  0.0000000E+00;  2.0742303E-01;  4.0000000E+04;  0.0000000E+00;  3.9895512E+04; -4.2553604E-02;  0.0000000E+00;  2.0446859E-02;  5.9632056E+02;
  7.0461023E-01;  9.9999998E-03;  1.4021741E-01;6760; -1.7249215E-02;  0.0000000E+00;  3.8268967E-03;  9.9946680E+02;  1.1577031E-01; -4.4176526E+02;3; -9.1933858E-01;  0.0000000E+00; -2.1535764E+00;0; -2.2443455E-02;  2.9855521E+04;  0.0000000E+00;  2.7298096E-01;  4.0000000E+04;  0.0000000E+00;  3.9896059E+04; -4.1263822E-02;  0.0000000E+00;  1.8820368E-02;  6.1978650E+02;
  7.0459896E-01;  9.9999998E-03;  1.5023088E-01;6761; -1.7128153E-02;  0.0000000E+00;  4.0340186E-03;  9.9960321E+02;  1.1578479E-01; -3.2873141E+02;3; -8.8251251E-01;  0.0000000E+00; -2.2603188E+00;0; -2.2827817E-02;  2.9856424E+04;  0.0000000E+00;  3.4109843E-01;  4.0000000E+04;  0.0000000E+00;  3.9896676E+04; -3.9960396E-02;  0.0000000E+00;  1.7132578E-02;  6.2364392E+02;
  7.0460093E-01;  9.9999998E-03;  1.6024530E-01;6762; -1.7007418E-02;  0.0000000E+00;  4.2335000E-03;  9.9968115E+02;  1.1580241E-01; -2.6414066E+02;3; -8.4030354E-01;  0.0000000E+00; -2.3623068E+00;0; -2.3244075E-02;  2.9852969E+04;  0.0000000E+00;  4.0788260E-01;  4.0000000E+04;  0.0000000E+00;  3.9897977E+04; -3.8655221E-02;  0.0000000E+00;  1.5411147E-02;  6.3258014E+02;
  7.0461851E-01;  9.9999998E-03;  1.7026244E-01;6763; -1.6887600E-02;  0.0000000E+00;  4.4199158E-03;  9.9970471E+02;  1.1582272E-01; -2.4463504E+02;3; -7.9425251E-01;  0.0000000E+00; -2.4638932E+00;0; -2.3664046E-02;  2.9844289E+04;  0.0000000E+00;  4.6973407E-01;  4.0000000E+04;  0.0000000E+00;  3.9899461E+04; -3.7361309E-02;  0.0000000E+00;  1.3697262E-02;  6.7964398E+02;
  7.0465410E-01;  9.9999998E-03;  1.8028452E-01;6764; -1.6771981E-02;  0.0000000E+00;  4.5798463E-03;  9.9965302E+02;  1.1584578E-01; -2.8744864E+02;3; -7.4691820E-01;  0.0000000E+00; -2.5657132E+00;0; -2.4055189E-02;  2.9830441E+04;  0.0000000E+00;  5.2319568E-01;  4.0000000E+04;  0.0000000E+00;  3.9901098E+04; -3.6093466E-02;  0.0000000E+00;  1.2038277E-02;  7.7059021E+02;
  7.0471174E-01;  9.9999998E-03;  1.9031224E-01;6765; -1.6664596E-02;  0.0000000E+00;  4.7049401E-03;  9.9953741E+02;  1.1587207E-01; -3.8324838E+02;3; -6.9143420E-01;  0.0000000E+00; -2.6604159E+00;0; -2.4389654E-02;  2.9811195E+04;  0.0000000E+00;  5.6574470E-01;  4.0000000E+04;  0.0000000E+00;  3.9901949E+04; -3.4867998E-02;  0.0000000E+00;  1.0478345E-02;  8.5564648E+02;
  7.0479053E-01;  9.9999998E-03;  2.0034373E-01;6766; -1.6569270E-02;  0.0000000E+00;  4.7852169E-03;  9.9935992E+02;  1.1590143E-01; -5.3030597E+02;3; -6.2433887E-01;  0.0000000E+00; -2.7372787E+00;0; -2.4657287E-02;  2.9787643E+04;  0.0000000E+00;  5.9337050E-01;  4.0000000E+04;  0.0000000E+00;  3.9901496E+04; -3.3701554E-02;  0.0000000E+00;  9.0442672E-03;  8.4119550E+02;
  7.0490235E-01;  9.9999998E-03;  2.1036407E-01;6767; -1.6488973E-02;  0.0000000E+00;  4.7985832E-03;  9.9910944E+02;  1.1593702E-01; -7.3780621E+02;3; -5.3803581E-01;  0.0000000E+00; -2.7899404E+00;0; -2.4900462E-02;  2.9759102E+04;  0.0000000E+00;  5.9388405E-01;  4.0000000E+04;  0.0000000E+00;  3.9899066E+04; -3.2610182E-02;  0.0000000E+00;  7.7097188E-03;  7.2524127E+02;
  7.0504498E-01;  9.9999998E-03;  2.2034976E-01;6768; -1.6423704E-02;  0.0000000E+00;  4.7660298E-03;  9.9887177E+02;  1.1598000E-01; -9.3473895E+02;3; -4.3059137E-01;  0.0000000E+00; -2.8044944E+00;0; -2.5194168E-02;  2.9726086E+04;  0.0000000E+00;  5.3662407E-01;  4.0000000E+04;  0.0000000E+00;  3.9898117E+04; -3.1606220E-02;  0.0000000E+00;  6.4120507E-03;  5.4468744E+02;
  7.0519781E-01;  9.9999998E-03;  2.3031834E-01;6769; -1.6370406E-02;  0.0000000E+00;  4.7706743E-03;  9.9870935E+02;  1.1602523E-01; -1.0693030E+03;3; -3.2003358E-01;  0.0000000E+00; -2.8414259E+00;0; -2.5446646E-02;  2.9692254E+04;  0.0000000E+00;  3.6024889E-01;  4.0000000E+04;  0.0000000E+00;  3.9902754E+04; -3.0693356E-02;  0.0000000E+00;  5.2467105E-03;  6.0295209E+02;
  7.1763384E-01;  9.9999998E-03;  7.0234723E-02;6814; -1.8816290E-02;  0.0000000E+00;  2.1240457E-03;  9.9835541E+02;  1.1930912E-01; -1.3625293E+03;3; -8.9013880E-01;  0.0000000E+00; -1.3216572E+00;0; -2.1372093E-02;  2.8073637E+04;  0.0000000E+00;  2.0702131E-01;  4.0000000E+04;  0.0000000E+00;  3.9875148E+04; -5.0153419E-02;  0.0000000E+00;  2.8781326E-02;  5.8884351E+02;
  7.1761805E-01;  9.9999998E-03;  8.0256142E-02;6815; -1.8669387E-02;  0.0000000E+00;  2.4189888E-03;  9.9846588E+02;  1.1931010E-01; -1.2709763E+03;3; -8.8443381E-01;  0.0000000E+00; -1.4990847E+00;0; -2.1335671E-02;  2.8078027E+04;  0.0000000E+00;  2.6317117E-01;  4.0000000E+04;  0.0000000E+00;  3.9875434E+04; -4.9177956E-02;  0.0000000E+00;  2.7842285E-02;  6.5103851E+02;
  7.1758783E-01;  9.9999998E-03;  9.0275511E-02;6816; -1.8517751E-02;  0.0000000E+00;  2.7004150E-03;  9.9861096E+02;  1.1931022E-01; -1.1507822E+03;3; -8.7919146E-01;  0.0000000E+00; -1.6613865E+00;0; -2.1356555E-02;  2.8085623E+04;  0.0000000E+00;  3.2087663E-01;  4.0000000E+04;  0.0000000E+00;  3.9875438E+04; -4.8102997E-02;  0.0000000E+00;  2.6746443E-02;  7.4558704E+02;
  7.1754265E-01;  9.9999998E-03;  1.0029342E-01;6817; -1.8365756E-02;  0.0000000E+00;  2.9686731E-03;  9.9879657E+02;  1.1931024E-01; -9.9700879E+02;3; -8.6968672E-01;  0.0000000E+00; -1.8048258E+00;0; -2.1439398E-02;  2.8095984E+04;  0.0000000E+00;  3.7772965E-01;  4.0000000E+04;  0.0000000E+00;  3.9875156E+04; -4.6942264E-02;  0.0000000E+00;  2.5502866E-02;  8.5191522E+02;
  7.1748394E-01;  9.9999998E-03;  1.1031023E-01;6818; -1.8215533E-02;  0.0000000E+00;  3.2225363E-03;  9.9901044E+02;  1.1930890E-01; -8.1982861E+02;3; -8.5248542E-01;  0.0000000E+00; -1.9493898E+00;0; -2.1584345E-02;  2.8108365E+04;  0.0000000E+00;  4.3158323E-01;  4.0000000E+04;  0.0000000E+00;  3.9874734E+04; -4.5709975E-02;  0.0000000E+00;  2.4125630E-02;  9.5247736E+02;
  7.1741426E-01;  9.9999998E-03;  1.2032606E-01;6819; -1.8068001E-02;  0.0000000E+00;  3.4622063E-03;  9.9923322E+02;  1.1930835E-01; -6.3529065E+02;3; -8.3042628E-01;  0.0000000E+00; -2.0892549E+00;0; -2.1789178E-02;  2.8121641E+04;  0.0000000E+00;  4.8105562E-01;  4.0000000E+04;  0.0000000E+00;  3.9874641E+04; -4.4420507E-02;  0.0000000E+00;  2.2631329E-02;  1.0318583E+03;
  7.1733981E-01;  9.9999998E-03;  1.3034078E-01;6820; -1.7923201E-02;  0.0000000E+00;  3.6911047E-03;  9.9944312E+02;  1.1930798E-01; -4.6136963E+02;3; -8.0430329E-01;  0.0000000E+00; -2.2192407E+00;0; -2.2050967E-02;  2.8134008E+04;  0.0000000E+00;  5.2598906E-01;  4.0000000E+04;  0.0000000E+00;  3.9874953E+04; -4.3087997E-02;  0.0000000E+00;  2.1037029E-02;  1.0784648E+03;
  7.1726930E-01;  9.9999998E-03;  1.4035472E-01;6821; -1.7780136E-02;  0.0000000E+00;  3.9105318E-03;  9.9963190E+02;  1.1931024E-01; -3.0497900E+02;3; -7.7497530E-01;  0.0000000E+00; -2.3418281E+00;0; -2.2366734E-02;  2.8143922E+04;  0.0000000E+00;  5.6729674E-01;  4.0000000E+04;  0.0000000E+00;  3.9875574E+04; -4.1725591E-02;  0.0000000E+00;  1.9358857E-02;  1.0879258E+03;
  7.1721178E-01;  9.9999998E-03;  1.5036844E-01;6822; -1.7638424E-02;  0.0000000E+00;  4.1245767E-03;  9.9977795E+02;  1.1931631E-01; -1.8394540E+02;3; -7.4427521E-01;  0.0000000E+00; -2.4583321E+00;0; -2.2731960E-02;  2.8149553E+04;  0.0000000E+00;  6.0637575E-01;  4.0000000E+04;  0.0000000E+00;  3.9876652E+04; -4.0345713E-02;  0.0000000E+00;  1.7613754E-02;  1.0678418E+03;
  7.1717459E-01;  9.9999998E-03;  1.6038418E-01;6823; -1.7496653E-02;  0.0000000E+00;  4.3282853E-03;  9.9986084E+02;  1.1932792E-01; -1.1530537E+02;3; -7.0680189E-01;  0.0000000E+00; -2.5690911E+00;0; -2.3129437E-02;  2.8149432E+04;  0.0000000E+00;  6.4427507E-01;  4.0000000E+04;  0.0000000E+00;  3.9878004E+04; -3.8959786E-02;  0.0000000E+00;  1.5830349E-02;  1.0429690E+03;
  7.1716249E-01;  9.9999998E-03;  1.7040466E-01;6824; -1.7355008E-02;  0.0000000E+00;  4.5206193E-03;  9.9987494E+02;  1.1934406E-01; -1.0360200E+02;3; -6.6561162E-01;  0.0000000E+00; -2.6764176E+00;0; -2.3529321E-02;  2.8142980E+04;  0.0000000E+00;  6.7965317E-01;  4.0000000E+04;  0.0000000E+00;  3.9879625E+04; -3.7580281E-02;  0.0000000E+00;  1.4050961E-02;  1.0411080E+03;
  7.1718091E-01;  9.9999998E-03;  1.8042968E-01;6825; -1.7215481E-02;  0.0000000E+00;  4.6874443E-03;  9.9981421E+02;  1.1936616E-01; -1.5392155E+02;3; -6.2209737E-01;  0.0000000E+00; -2.7883539E+00;0; -2.3897124E-02;  2.8129941E+04;  0.0000000E+00;  7.0958078E-01;  4.0000000E+04;  0.0000000E+00;  3.9880973E+04; -3.6221959E-02;  0.0000000E+00;  1.2324834E-02;  1.0602043E+03;
  7.1723413E-01;  9.9999998E-03;  1.9045670E-01;6826; -1.7082697E-02;  0.0000000E+00;  4.8210318E-03;  9.9968176E+02;  1.1939484E-01; -2.6364685E+02;3; -5.7240409E-01;  0.0000000E+00; -2.8891582E+00;0; -2.4203479E-02;  2.8110645E+04;  0.0000000E+00;  7.3109460E-01;  4.0000000E+04;  0.0000000E+00;  3.9881055E+04; -3.4902185E-02;  0.0000000E+00;  1.0698705E-02;  1.0502235E+03;
  7.1732235E-01;  9.9999998E-03;  2.0047624E-01;6827; -1.6962824E-02;  0.0000000E+00;  4.9050315E-03;  9.9947791E+02;  1.1942969E-01; -4.3253094E+02;3; -5.1398784E-01;  0.0000000E+00; -2.9849219E+00;0; -2.4439830E-02;  2.8086080E+04;  0.0000000E+00;  7.3912591E-01;  4.0000000E+04;  0.0000000E+00;  3.9879047E+04; -3.3640336E-02;  0.0000000E+00;  9.2005059E-03;  9.7815149E+02;
  7.1743268E-01;  9.9999998E-03;  2.1047011E-01;6828; -1.6861951E-02;  0.0000000E+00;  4.9172281E-03;  9.9923218E+02;  1.1946791E-01; -6.3613013E+02;3; -4.3373740E-01;  0.0000000E+00; -3.0507307E+00;0; -2.4654349E-02;  2.8058463E+04;  0.0000000E+00;  7.1987885E-01;  4.0000000E+04;  0.0000000E+00;  3.9876031E+04; -3.2455511E-02;  0.0000000E+00;  7.8011616E-03;  9.1772241E+02;
  7.1755224E-01;  9.9999998E-03;  2.2042844E-01;6829; -1.6778760E-02;  0.0000000E+00;  4.9018203E-03;  9.9903021E+02;  1.1950751E-01; -8.0343402E+02;3; -3.3205137E-01;  0.0000000E+00; -3.0780706E+00;0; -2.4886765E-02;  2.8029721E+04;  0.0000000E+00;  6.4169961E-01;  4.0000000E+04;  0.0000000E+00;  3.9876855E+04; -3.1361014E-02;  0.0000000E+00;  6.4742481E-03;  6.5279968E+02;
  7.1768475E-01;  9.9999998E-03;  2.3039225E-01;6830; -1.6709622E-02;  0.0000000E+00;  4.9106502E-03;  9.9888623E+02;  1.1954949E-01; -9.2273926E+02;3; -2.2388473E-01;  0.0000000E+00; -3.1203413E+00;0; -2.5078231E-02;  2.8000777E+04;  0.0000000E+00;  4.4561318E-01;  4.0000000E+04;  0.0000000E+00;  3.9881262E+04; -3.0359715E-02;  0.0000000E+00;  5.2814842E-03;  4.5478665E+02;
  7.2969103E-01;  9.9999998E-03;  7.0228890E-02;6875; -1.9463513E-02;  0.0000000E+00;  2.1586544E-03;  9.9867291E+02;  1.2296507E-01; -1.0994750E+03;3; -7.0336962E-01;  0.0000000E+00; -1.4264524E+00;0; -2.1390850E-02;  2.6467111E+04;  0.0000000E+00;  3.3735052E-01;  4.0000000E+04;  0.0000000E+00;  3.9854250E+04; -5.0870091E-02;  0.0000000E+00;  2.9479241E-02;  8.8652588E+02;
  7.2967976E-01;  9.9999998E-03;  8.0256976E-02;6876; -1.9301916E-02;  0.0000000E+00;  2.4659946E-03;  9.9876404E+02;  1.2296773E-01; -1.0239709E+03;3; -7.0669764E-01;  0.0000000E+00; -1.6024323E+00;0; -2.1321068E-02;  2.6470492E+04;  0.0000000E+00;  4.2612264E-01;  4.0000000E+04;  0.0000000E+00;  3.9854742E+04; -4.9858913E-02;  0.0000000E+00;  2.8537845E-02;  1.0338113E+03;
  7.2965109E-01;  9.9999998E-03;  9.0283960E-02;6877; -1.9133739E-02;  0.0000000E+00;  2.7634641E-03;  9.9889392E+02;  1.2296882E-01; -9.1636908E+02;3; -7.0291185E-01;  0.0000000E+00; -1.7708800E+00;0; -2.1312227E-02;  2.6476842E+04;  0.0000000E+00;  5.1081717E-01;  4.0000000E+04;  0.0000000E+00;  3.9854633E+04; -4.8742488E-02;  0.0000000E+00;  2.7430261E-02;  1.1947822E+03;
  7.2960526E-01;  9.9999998E-03;  1.0030971E-01;6878; -1.8963279E-02;  0.0000000E+00;  3.0456732E-03;  9.9906195E+02;  1.2296791E-01; -7.7716315E+02;3; -6.9672257E-01;  0.0000000E+00; -1.9422129E+00;0; -2.1369334E-02;  2.6485736E+04;  0.0000000E+00;  5.8386916E-01;  4.0000000E+04;  0.0000000E+00;  3.9854418E+04; -4.7534339E-02;  0.0000000E+00;  2.6165005E-02;  1.3386804E+03;
  7.2954184E-01;  9.9999998E-03;  1.1033385E-01;6879; -1.8794013E-02;  0.0000000E+00;  3.3096634E-03;  9.9925397E+02;  1.2296808E-01; -6.1805652E+02;3; -6.8567407E-01;  0.0000000E+00; -2.1035814E+00;0; -2.1492574E-02;  2.6496455E+04;  0.0000000E+00;  6.3936234E-01;  4.0000000E+04;  0.0000000E+00;  3.9853996E+04; -4.6249069E-02;  0.0000000E+00;  2.4756495E-02;  1.4425724E+03;
  7.2946489E-01;  9.9999998E-03;  1.2035659E-01;6880; -1.8627729E-02;  0.0000000E+00;  3.5559221E-03;  9.9945520E+02;  1.2296726E-01; -4.5134521E+02;3; -6.6946024E-01;  0.0000000E+00; -2.2541509E+00;0; -2.1678748E-02;  2.6508037E+04;  0.0000000E+00;  6.7506909E-01;  4.0000000E+04;  0.0000000E+00;  3.9853879E+04; -4.4901587E-02;  0.0000000E+00;  2.3222839E-02;  1.4921490E+03;
  7.2938395E-01;  9.9999998E-03;  1.3037834E-01;6881; -1.8464664E-02;  0.0000000E+00;  3.7875730E-03;  9.9965009E+02;  1.2296821E-01; -2.8991769E+02;3; -6.4953643E-01;  0.0000000E+00; -2.3927369E+00;0; -2.1923279E-02;  2.6518516E+04;  0.0000000E+00;  6.9335055E-01;  4.0000000E+04;  0.0000000E+00;  3.9854227E+04; -4.3506406E-02;  0.0000000E+00;  2.1583127E-02;  1.4825939E+03;
  7.2931021E-01;  9.9999998E-03;  1.4039916E-01;6882; -1.8304031E-02;  0.0000000E+00;  4.0085469E-03;  9.9981439E+02;  1.2297360E-01; -1.5377342E+02;3; -6.2511075E-01;  0.0000000E+00; -2.5202436E+00;0; -2.2221914E-02;  2.6525854E+04;  0.0000000E+00;  7.0038646E-01;  4.0000000E+04;  0.0000000E+00;  3.9854590E+04; -4.2077165E-02;  0.0000000E+00;  1.9855252E-02;  1.4188920E+03;
  7.2925723E-01;  9.9999998E-03;  1.5042104E-01;6883; -1.8144699E-02;  0.0000000E+00;  4.2217807E-03;  9.9993799E+02;  1.2298515E-01; -5.1356567E+01;3; -5.9794146E-01;  0.0000000E+00; -2.6501341E+00;0; -2.2568531E-02;  2.6527883E+04;  0.0000000E+00;  7.0389253E-01;  4.0000000E+04;  0.0000000E+00;  3.9855754E+04; -4.0626124E-02;  0.0000000E+00;  1.8057592E-02;  1.3168158E+03;
  7.2923744E-01;  9.9999998E-03;  1.6044502E-01;6884; -1.7985830E-02;  0.0000000E+00;  4.4224979E-03;  9.9999487E+02;  1.2300466E-01; -4.2467933E+00;3; -5.6589621E-01;  0.0000000E+00; -2.7717495E+00;0; -2.2944795E-02;  2.6522914E+04;  0.0000000E+00;  7.0965320E-01;  4.0000000E+04;  0.0000000E+00;  3.9856953E+04; -3.9164953E-02;  0.0000000E+00;  1.6220158E-02;  1.2058784E+03;
  7.2926074E-01;  9.9999998E-03;  1.7047197E-01;6885; -1.7827103E-02;  0.0000000E+00;  4.6116104E-03;  9.9998566E+02;  1.2303523E-01; -1.1900897E+01;3; -5.2983320E-01;  0.0000000E+00; -2.8869779E+00;0; -2.3319868E-02;  2.6509746E+04;  0.0000000E+00;  7.1864331E-01;  4.0000000E+04;  0.0000000E+00;  3.9858637E+04; -3.7706252E-02;  0.0000000E+00;  1.4386384E-02;  1.1197339E+03;
  7.2933018E-01;  9.9999998E-03;  1.8049797E-01;6886; -1.7669056E-02;  0.0000000E+00;  4.7773723E-03;  9.9990350E+02;  1.2307692E-01; -7.9948349E+01;3; -4.8913199E-01;  0.0000000E+00; -3.0151522E+00;0; -2.3659538E-02;  2.6488385E+04;  0.0000000E+00;  7.2793293E-01;  4.0000000E+04;  0.0000000E+00;  3.9859590E+04; -3.6265150E-02;  0.0000000E+00;  1.2605611E-02;  1.0651332E+03;
  7.2943401E-01;  9.9999998E-03;  1.9051790E-01;6887; -1.7515752E-02;  0.0000000E+00;  4.9117608E-03;  9.9974078E+02;  1.2312213E-01; -2.1475934E+02;3; -4.4689426E-01;  0.0000000E+00; -3.1195545E+00;0; -2.3936315E-02;  2.6461365E+04;  0.0000000E+00;  7.3185915E-01;  4.0000000E+04;  0.0000000E+00;  3.9859570E+04; -3.4859858E-02;  0.0000000E+00;  1.0923544E-02;  1.0003283E+03;
  7.2955209E-01;  9.9999998E-03;  2.0052445E-01;6888; -1.7373811E-02;  0.0000000E+00;  5.0029717E-03;  9.9951843E+02;  1.2316851E-01; -3.9895166E+02;3; -3.9441460E-01;  0.0000000E+00; -3.2196748E+00;0; -2.4141775E-02;  2.6432068E+04;  0.0000000E+00;  7.2013623E-01;  4.0000000E+04;  0.0000000E+00;  3.9858145E+04; -3.3510808E-02;  0.0000000E+00;  9.3690325E-03;  8.8780432E+02;
  7.2964823E-01;  9.9999998E-03;  2.1050128E-01;6889; -1.7250173E-02;  0.0000000E+00;  5.0369315E-03;  9.9927795E+02;  1.2320621E-01; -5.9820526E+02;3; -3.2414624E-01;  0.0000000E+00; -3.3008842E+00;0; -2.4309564E-02;  2.6405721E+04;  0.0000000E+00;  6.7291981E-01;  4.0000000E+04;  0.0000000E+00;  3.9857344E+04; -3.2239441E-02;  0.0000000E+00;  7.9298755E-03;  7.1616638E+02;
  7.2971958E-01;  9.9999998E-03;  2.2046107E-01;6890; -1.7144907E-02;  0.0000000E+00;  5.0514033E-03;  9.9906567E+02;  1.2323229E-01; -7.7405212E+02;3; -2.3243982E-01;  0.0000000E+00; -3.3462739E+00;0; -2.4456266E-02;  2.6383162E+04;  0.0000000E+00;  5.5369908E-01;  4.0000000E+04;  0.0000000E+00;  3.9859668E+04; -3.1059228E-02;  0.0000000E+00;  6.6029606E-03;  4.8486313E+02;
  7.2977263E-01;  9.9999998E-03;  2.3044106E-01;6891; -1.7055774E-02;  0.0000000E+00;  5.0638998E-03;  9.9888977E+02;  1.2324928E-01; -9.1982574E+02;3; -1.2934823E-01;  0.0000000E+00; -3.3950195E+00;0; -2.4577623E-02;  2.6364766E+04;  0.0000000E+00;  3.0274352E-01;  4.0000000E+04;  0.0000000E+00;  3.9863594E+04; -2.9976711E-02;  0.0000000E+00;  5.3990879E-03;  8.0370422E+02;
  7.4181169E-01;  9.9999998E-03;  7.0216939E-02;6936; -2.0123189E-02;  0.0000000E+00;  2.2151601E-03;  9.9891180E+02;  1.2682469E-01; -9.0155469E+02;3; -5.0401396E-01;  0.0000000E+00; -1.5156518E+00;0; -2.1290353E-02;  2.4908908E+04;  0.0000000E+00;  3.8851851E-01;  4.0000000E+04;  0.0000000E+00;  3.9833738E+04; -5.1492121E-02;  0.0000000E+00;  3.0201769E-02;  1.0627473E+03;
  7.4177963E-01;  9.9999998E-03;  8.0251947E-02;6937; -1.9946124E-02;  0.0000000E+00;  2.5396149E-03;  9.9894629E+02;  1.2682205E-01; -8.7296289E+02;3; -5.1017857E-01;  0.0000000E+00; -1.7167405E+00;0; -2.1192290E-02;  2.4912279E+04;  0.0000000E+00;  4.8952159E-01;  4.0000000E+04;  0.0000000E+00;  3.9834055E+04; -5.0439574E-02;  0.0000000E+00;  2.9247284E-02;  1.2697776E+03;
  7.4173284E-01;  9.9999998E-03;  9.0286575E-02;6938; -1.9759603E-02;  0.0000000E+00;  2.8534164E-03;  9.9901562E+02;  1.2681964E-01; -8.1553241E+02;3; -5.1343381E-01;  0.0000000E+00; -1.9118273E+00;0; -2.1158317E-02;  2.4917816E+04;  0.0000000E+00;  5.8069342E-01;  4.0000000E+04;  0.0000000E+00;  3.9833812E+04; -4.9276035E-02;  0.0000000E+00;  2.8117718E-02;  1.4697761E+03;
  7.4167007E-01;  9.9999998E-03;  1.0032025E-01;6939; -1.9569734E-02;  0.0000000E+00;  3.1487674E-03;  9.9911627E+02;  1.2681700E-01; -7.3212738E+02;3; -5.1187015E-01;  0.0000000E+00; -2.0941677E+00;0; -2.1194022E-02;  2.4925248E+04;  0.0000000E+00;  6.5036500E-01;  4.0000000E+04;  0.0000000E+00;  3.9833461E+04; -4.8015181E-02;  0.0000000E+00;  2.6821159E-02;  1.6238059E+03;
  7.4159527E-01;  9.9999998E-03;  1.1035187E-01;6940; -1.9381076E-02;  0.0000000E+00;  3.4217590E-03;  9.9925146E+02;  1.2681632E-01; -6.2013055E+02;3; -5.0550228E-01;  0.0000000E+00; -2.2684875E+00;0; -2.1298552E-02;  2.4933607E+04;  0.0000000E+00;  6.9005519E-01;  4.0000000E+04;  0.0000000E+00;  3.9833035E+04; -4.6671983E-02;  0.0000000E+00;  2.5373431E-02;  1.7047529E+03;
  7.4151647E-01;  9.9999998E-03;  1.2038192E-01;6941; -1.9196551E-02;  0.0000000E+00;  3.6720934E-03;  9.9938837E+02;  1.2681842E-01; -5.0675107E+02;3; -4.9703187E-01;  0.0000000E+00; -2.4282761E+00;0; -2.1467216E-02;  2.4940967E+04;  0.0000000E+00;  6.9776392E-01;  4.0000000E+04;  0.0000000E+00;  3.9832676E+04; -4.5261759E-02;  0.0000000E+00;  2.3794543E-02;  1.7007671E+03;
  7.4144322E-01;  9.9999998E-03;  1.3041057E-01;6942; -1.9016994E-02;  0.0000000E+00;  3.9039934E-03;  9.9952582E+02;  1.2682627E-01; -3.9282837E+02;3; -4.8289087E-01;  0.0000000E+00; -2.5732145E+00;0; -2.1693682E-02;  2.4946230E+04;  0.0000000E+00;  6.7921102E-01;  4.0000000E+04;  0.0000000E+00;  3.9832520E+04; -4.3799512E-02;  0.0000000E+00;  2.2105830E-02;  1.6157737E+03;
  7.4138516E-01;  9.9999998E-03;  1.4043617E-01;6943; -1.8840859E-02;  0.0000000E+00;  4.1213981E-03;  9.9963385E+02;  1.2684135E-01; -3.0334943E+02;3; -4.6368390E-01;  0.0000000E+00; -2.7162702E+00;0; -2.1971613E-02;  2.4947342E+04;  0.0000000E+00;  6.4628869E-01;  4.0000000E+04;  0.0000000E+00;  3.9832645E+04; -4.2299461E-02;  0.0000000E+00;  2.0327847E-02;  1.4655741E+03;
  7.4135172E-01;  9.9999998E-03;  1.5045650E-01;6944; -1.8666212E-02;  0.0000000E+00;  4.3256534E-03;  9.9970337E+02;  1.2686396E-01; -2.4577081E+02;3; -4.4069582E-01;  0.0000000E+00; -2.8556736E+00;0; -2.2293491E-02;  2.4942889E+04;  0.0000000E+00;  6.1304879E-01;  4.0000000E+04;  0.0000000E+00;  3.9833438E+04; -4.0774662E-02;  0.0000000E+00;  1.8481171E-02;  1.2728950E+03;
  7.4134761E-01;  9.9999998E-03;  1.6047257E-01;6945; -1.8491704E-02;  0.0000000E+00;  4.5156260E-03;  9.9971246E+02;  1.2689367E-01; -2.3821547E+02;3; -4.1368014E-01;  0.0000000E+00; -2.9850214E+00;0; -2.2640346E-02;  2.4932387E+04;  0.0000000E+00;  5.8995026E-01;  4.0000000E+04;  0.0000000E+00;  3.9834500E+04; -3.9237253E-02;  0.0000000E+00;  1.6596908E-02;  1.0668634E+03;
  7.4137151E-01;  9.9999998E-03;  1.7048511E-01;6946; -1.8317061E-02;  0.0000000E+00;  4.6906229E-03;  9.9965643E+02;  1.2692891E-01; -2.8463391E+02;3; -3.8534838E-01;  0.0000000E+00; -3.1028852E+00;0; -2.2982474E-02;  2.4916193E+04;  0.0000000E+00;  5.8035749E-01;  4.0000000E+04;  0.0000000E+00;  3.9835895E+04; -3.7700284E-02;  0.0000000E+00;  1.4717810E-02;  8.8400391E+02;
  7.4142331E-01;  9.9999998E-03;  1.8049347E-01;6947; -1.8142456E-02;  0.0000000E+00;  4.8449081E-03;  9.9952234E+02;  1.2696859E-01; -3.9574185E+02;3; -3.4951746E-01;  0.0000000E+00; -3.2343371E+00;0; -2.3289401E-02;  2.4894633E+04;  0.0000000E+00;  5.7978952E-01;  4.0000000E+04;  0.0000000E+00;  3.9836945E+04; -3.6180001E-02;  0.0000000E+00;  1.2890601E-02;  7.5256659E+02;
  7.4150425E-01;  9.9999998E-03;  1.9049661E-01;6948; -1.7970525E-02;  0.0000000E+00;  4.9704569E-03;  9.9933655E+02;  1.2701222E-01; -5.4966345E+02;3; -3.0908778E-01;  0.0000000E+00; -3.3367777E+00;0; -2.3538824E-02;  2.4868715E+04;  0.0000000E+00;  5.7702363E-01;  4.0000000E+04;  0.0000000E+00;  3.9838148E+04; -3.4694850E-02;  0.0000000E+00;  1.1156027E-02;  6.6454932E+02;
  7.4157572E-01;  9.9999998E-03;  2.0048138E-01;6949; -1.7806096E-02;  0.0000000E+00;  5.0678994E-03;  9.9911279E+02;  1.2704656E-01; -7.3504089E+02;3; -2.6433536E-01;  0.0000000E+00; -3.4444342E+00;0; -2.3721766E-02;  2.4843836E+04;  0.0000000E+00;  5.5570197E-01;  4.0000000E+04;  0.0000000E+00;  3.9839629E+04; -3.3267397E-02;  0.0000000E+00;  9.5456326E-03;  6.2619061E+02;
  7.4162656E-01;  9.9999998E-03;  2.1045437E-01;6950; -1.7656282E-02;  0.0000000E+00;  5.1392596E-03;  9.9888324E+02;  1.2706946E-01; -9.2520831E+02;3; -2.0743456E-01;  0.0000000E+00; -3.5404890E+00;0; -2.3842227E-02;  2.4821801E+04;  0.0000000E+00;  4.9393523E-01;  4.0000000E+04;  0.0000000E+00;  3.9842801E+04; -3.1917069E-02;  0.0000000E+00;  8.0748424E-03;  8.7006781E+02;
  7.4166906E-01;  9.9999998E-03;  2.2044055E-01;6951; -1.7525302E-02;  0.0000000E+00;  5.2050822E-03;  9.9868030E+02;  1.2708716E-01; -1.0933517E+03;3; -1.3087995E-01;  0.0000000E+00; -3.6203551E+00;0; -2.3878420E-02;  2.4802008E+04;  0.0000000E+00;  3.6523411E-01;  4.0000000E+04;  0.0000000E+00;  3.9848348E+04; -3.0657027E-02;  0.0000000E+00;  6.7786067E-03;  1.5070118E+03;
  7.4169034E-01;  9.9999998E-03;  2.3045754E-01;6952; -1.7415598E-02;  0.0000000E+00;  5.2307560E-03;  9.9845526E+02;  1.2709424E-01; -1.2797662E+03;3; -2.9157137E-02;  0.0000000E+00; -3.6648321E+00;0; -2.3903759E-02;  2.4786258E+04;  0.0000000E+00;  1.3871889E-01;  4.0000000E+04;  0.0000000E+00;  3.9851438E+04; -2.9499155E-02;  0.0000000E+00;  5.5953949E-03;  1.9827867E+03;
  7.5474662E-01;  9.9999998E-03;  7.0231974E-02;6997; -2.0818105E-02;  0.0000000E+00;  2.2938293E-03;  9.9914307E+02;  1.3109747E-01; -7.0995520E+02;3; -2.7431443E-01;  0.0000000E+00; -1.6337678E+00;0; -2.1080380E-02;  2.3334588E+04;  0.0000000E+00;  3.4427893E-01;  4.0000000E+04;  0.0000000E+00;  3.9811566E+04; -5.2069992E-02;  0.0000000E+00;  3.0989612E-02;  1.0587742E+03;
  7.5472271E-01;  9.9999998E-03;  8.0270253E-02;6998; -2.0625887E-02;  0.0000000E+00;  2.6356583E-03;  9.9911523E+02;  1.3109778E-01; -7.3301624E+02;3; -2.8678408E-01;  0.0000000E+00; -1.8535215E+00;0; -2.0948883E-02;  2.3335184E+04;  0.0000000E+00;  4.3352824E-01;  4.0000000E+04;  0.0000000E+00;  3.9811711E+04; -5.0963812E-02;  0.0000000E+00;  3.0014928E-02;  1.2724790E+03;
  7.5466174E-01;  9.9999998E-03;  9.0310931E-02;6999; -2.0421062E-02;  0.0000000E+00;  2.9655986E-03;  9.9910382E+02;  1.3109300E-01; -7.4244806E+02;3; -2.9474673E-01;  0.0000000E+00; -2.0629661E+00;0; -2.0884564E-02;  2.3338975E+04;  0.0000000E+00;  5.0880104E-01;  4.0000000E+04;  0.0000000E+00;  3.9811605E+04; -4.9739230E-02;  0.0000000E+00;  2.8854666E-02;  1.4650242E+03;
  7.5456959E-01;  9.9999998E-03;  1.0035016E-01;7000; -2.0210663E-02;  0.0000000E+00;  3.2741753E-03;  9.9911298E+02;  1.3108547E-01; -7.3489276E+02;3; -3.0151197E-01;  0.0000000E+00; -2.2659552E+00;0; -2.0892672E-02;  2.3345146E+04;  0.0000000E+00;  5.5618459E-01;  4.0000000E+04;  0.0000000E+00;  3.9810992E+04; -4.8410468E-02;  0.0000000E+00;  2.7517796E-02;  1.5926311E+03;
  7.5445783E-01;  9.9999998E-03;  1.1038170E-01;7001; -2.0000832E-02;  0.0000000E+00;  3.5557118E-03;  9.9914484E+02;  1.3107891E-01; -7.0847375E+02;3; -3.0504689E-01;  0.0000000E+00; -2.4550343E+00;0; -2.0971455E-02;  2.3352275E+04;  0.0000000E+00;  5.6616020E-01;  4.0000000E+04;  0.0000000E+00;  3.9810293E+04; -4.6994049E-02;  0.0000000E+00;  2.6022594E-02;  1.6276785E+03;
  7.5433391E-01;  9.9999998E-03;  1.2040376E-01;7002; -1.9796096E-02;  0.0000000E+00;  3.8098015E-03;  9.9918884E+02;  1.3107409E-01; -6.7203033E+02;3; -3.0512372E-01;  0.0000000E+00; -2.6173124E+00;0; -2.1114375E-02;  2.3359109E+04;  0.0000000E+00;  5.3817368E-01;  4.0000000E+04;  0.0000000E+00;  3.9809520E+04; -4.5506477E-02;  0.0000000E+00;  2.4392102E-02;  1.5656545E+03;
  7.5420934E-01;  9.9999998E-03;  1.3042119E-01;7003; -1.9597307E-02;  0.0000000E+00;  4.0384182E-03;  9.9923279E+02;  1.3107230E-01; -6.3563629E+02;3; -2.9771534E-01;  0.0000000E+00; -2.7795749E+00;0; -2.1312991E-02;  2.3364633E+04;  0.0000000E+00;  4.8197246E-01;  4.0000000E+04;  0.0000000E+00;  3.9809148E+04; -4.3963123E-02;  0.0000000E+00;  2.2650132E-02;  1.4247144E+03;
  7.5409836E-01;  9.9999998E-03;  1.4043583E-01;7004; -1.9403571E-02;  0.0000000E+00;  4.2445585E-03;  9.9925934E+02;  1.3107625E-01; -6.1361224E+02;3; -2.8628987E-01;  0.0000000E+00; -2.9329767E+00;0; -2.1559360E-02;  2.3366969E+04;  0.0000000E+00;  4.1503298E-01;  4.0000000E+04;  0.0000000E+00;  3.9808867E+04; -4.2378787E-02;  0.0000000E+00;  2.0819427E-02;  1.2352634E+03;
  7.5401336E-01;  9.9999998E-03;  1.5044688E-01;7005; -1.9212592E-02;  0.0000000E+00;  4.4338088E-03;  9.9925348E+02;  1.3108575E-01; -6.1850098E+02;3; -2.6908886E-01;  0.0000000E+00; -3.0742202E+00;0; -2.1844864E-02;  2.3364838E+04;  0.0000000E+00;  3.5696250E-01;  4.0000000E+04;  0.0000000E+00;  3.9809270E+04; -4.0767401E-02;  0.0000000E+00;  1.8922538E-02;  1.0231115E+03;
  7.5399631E-01;  9.9999998E-03;  1.6045284E-01;7006; -1.9023115E-02;  0.0000000E+00;  4.6075629E-03;  9.9921423E+02;  1.3111444E-01; -6.5099390E+02;3; -2.4898385E-01;  0.0000000E+00; -3.2100701E+00;0; -2.2149036E-02;  2.3354207E+04;  0.0000000E+00;  3.2135898E-01;  4.0000000E+04;  0.0000000E+00;  3.9810121E+04; -3.9141815E-02;  0.0000000E+00;  1.6992779E-02;  7.9956750E+02;
  7.5406390E-01;  9.9999998E-03;  1.7045137E-01;7007; -1.8834630E-02;  0.0000000E+00;  4.7674007E-03;  9.9913123E+02;  1.3116385E-01; -7.1978204E+02;3; -2.2371209E-01;  0.0000000E+00; -3.3345287E+00;0; -2.2443091E-02;  2.3333562E+04;  0.0000000E+00;  3.1235495E-01;  4.0000000E+04;  0.0000000E+00;  3.9811160E+04; -3.7515935E-02;  0.0000000E+00;  1.5072843E-02;  5.6673364E+02;
  7.5417721E-01;  9.9999998E-03;  1.8044479E-01;7008; -1.8647101E-02;  0.0000000E+00;  4.9074702E-03;  9.9899664E+02;  1.3122156E-01; -8.3128510E+02;3; -1.9441824E-01;  0.0000000E+00; -3.4669967E+00;0; -2.2702884E-02;  2.3306725E+04;  0.0000000E+00;  3.2313204E-01;  4.0000000E+04;  0.0000000E+00;  3.9812609E+04; -3.5906538E-02;  0.0000000E+00;  1.3203655E-02;  3.1179456E+02;
  7.5431770E-01;  9.9999998E-03;  1.9043438E-01;7009; -1.8462420E-02;  0.0000000E+00;  5.0197523E-03;  9.9882355E+02;  1.3128249E-01; -9.7468842E+02;3; -1.5992352E-01;  0.0000000E+00; -3.5827451E+00;0; -2.2915423E-02;  2.3275793E+04;  0.0000000E+00;  3.3602315E-01;  4.0000000E+04;  0.0000000E+00;  3.9814840E+04; -3.4333743E-02;  0.0000000E+00;  1.1418320E-02;  1.4221591E+02;
  7.5446051E-01;  9.9999998E-03;  2.0041873E-01;7010; -1.8281370E-02;  0.0000000E+00;  5.1190411E-03;  9.9862091E+02;  1.3133937E-01; -1.1425355E+03;3; -1.1579379E-01;  0.0000000E+00; -3.6776917E+00;0; -2.3075126E-02;  2.3244021E+04;  0.0000000E+00;  3.2803786E-01;  4.0000000E+04;  0.0000000E+00;  3.9818945E+04; -3.2819878E-02;  0.0000000E+00;  9.7447522E-03;  6.4817004E+02;
  7.5459015E-01;  9.9999998E-03;  2.1041246E-01;7011; -1.8105930E-02;  0.0000000E+00;  5.2248957E-03;  9.9842493E+02;  1.3138728E-01; -1.3049012E+03;3; -6.7723542E-02;  0.0000000E+00; -3.7854898E+00;0; -2.3158966E-02;  2.3213479E+04;  0.0000000E+00;  2.7783963E-01;  4.0000000E+04;  0.0000000E+00;  3.9825387E+04; -3.1384241E-02;  0.0000000E+00;  8.2252752E-03;  1.5130441E+03;
  7.5470769E-01;  9.9999998E-03;  2.2043328E-01;7012; -1.7945923E-02;  0.0000000E+00;  5.3383191E-03;  9.9822736E+02;  1.3142803E-01; -1.4686003E+03;3; -7.3289592E-03;  0.0000000E+00; -3.8960555E+00;0; -2.3114773E-02;  2.3185309E+04;  0.0000000E+00;  1.7418474E-01;  4.0000000E+04;  0.0000000E+00;  3.9832215E+04; -3.0042635E-02;  0.0000000E+00;  6.9278632E-03;  2.4662480E+03;
  7.5480318E-01;  9.9999998E-03;  2.3048274E-01;7013; -1.7814634E-02;  0.0000000E+00;  5.3844051E-03;  9.9797791E+02;  1.3145682E-01; -1.6752611E+03;3;  8.1491843E-02;  0.0000000E+00; -3.9694052E+00;0; -2.3060832E-02;  2.3161225E+04;  0.0000000E+00;  2.7146164E-02;  4.0000000E+04;  0.0000000E+00;  3.9835461E+04; -2.8808977E-02;  0.0000000E+00;  5.7481462E-03;  2.9341345E+03;
  7.6885432E-01;  9.9999998E-03;  7.0090786E-02;7058; -2.1562858E-02;  0.0000000E+00;  2.3797143E-03;  9.9956665E+02;  1.3597657E-01; -3.5900217E+02;3; -6.4104544E-03;  0.0000000E+00; -1.7608271E+00;0; -2.0792250E-02;  2.1717184E+04;  0.0000000E+00;  1.8958081E-01;  4.0000000E+04;  0.0000000E+00;  3.9787234E+04; -5.2671760E-02;  0.0000000E+00;  3.1879511E-02;  7.8337091E+02;
  7.6876009E-01;  9.9999998E-03;  8.0116138E-02;7059; -2.1352032E-02;  0.0000000E+00;  2.7364918E-03;  9.9947424E+02;  1.3596080E-01; -4.3559259E+02;3; -2.7429229E-02;  0.0000000E+00; -1.9990559E+00;0; -2.0610392E-02;  2.1722012E+04;  0.0000000E+00;  2.4120049E-01;  4.0000000E+04;  0.0000000E+00;  3.9787625E+04; -5.1489942E-02;  0.0000000E+00;  3.0879550E-02;  9.1970282E+02;
  7.6862383E-01;  9.9999998E-03;  9.0146124E-02;7060; -2.1124976E-02;  0.0000000E+00;  3.0822114E-03;  9.9938354E+02;  1.3593656E-01; -5.1070157E+02;3; -4.4847682E-02;  0.0000000E+00; -2.2271202E+00;0; -2.0496229E-02;  2.1729873E+04;  0.0000000E+00;  2.7964693E-01;  4.0000000E+04;  0.0000000E+00;  3.9787469E+04; -5.0182361E-02;  0.0000000E+00;  2.9686132E-02;  1.0434789E+03;
  7.6844341E-01;  9.9999998E-03;  1.0017946E-01;7061; -2.0889895E-02;  0.0000000E+00;  3.4052220E-03;  9.9930206E+02;  1.3590516E-01; -5.7820581E+02;3; -6.2787049E-02;  0.0000000E+00; -2.4463172E+00;0; -2.0456266E-02;  2.1740926E+04;  0.0000000E+00;  2.9241759E-01;  4.0000000E+04;  0.0000000E+00;  3.9786984E+04; -4.8763268E-02;  0.0000000E+00;  2.8307002E-02;  1.1157583E+03;
  7.6823139E-01;  9.9999998E-03;  1.1021756E-01;7062; -2.0654213E-02;  0.0000000E+00;  3.6961567E-03;  9.9923724E+02;  1.3587196E-01; -6.3193268E+02;3; -7.5728551E-02;  0.0000000E+00; -2.6525841E+00;0; -2.0488679E-02;  2.1754105E+04;  0.0000000E+00;  2.7094939E-01;  4.0000000E+04;  0.0000000E+00;  3.9785906E+04; -4.7248665E-02;  0.0000000E+00;  2.6759986E-02;  1.1228990E+03;
  7.6801592E-01;  9.9999998E-03;  1.2025508E-01;7063; -2.0424549E-02;  0.0000000E+00;  3.9511924E-03;  9.9919043E+02;  1.3584073E-01; -6.7069702E+02;3; -8.4961221E-02;  0.0000000E+00; -2.8333304E+00;0; -2.0585028E-02;  2.1766621E+04;  0.0000000E+00;  2.1539877E-01;  4.0000000E+04;  0.0000000E+00;  3.9784848E+04; -4.5656599E-02;  0.0000000E+00;  2.5071571E-02;  1.0814039E+03;
  7.6785302E-01;  9.9999998E-03;  1.3028730E-01;7064; -2.0204909E-02;  0.0000000E+00;  4.1736062E-03;  9.9916083E+02;  1.3582994E-01; -6.9523956E+02;3; -8.8930272E-02;  0.0000000E+00; -3.0058897E+00;0; -2.0732963E-02;  2.1773381E+04;  0.0000000E+00;  1.3683471E-01;  4.0000000E+04;  0.0000000E+00;  3.9783535E+04; -4.4004839E-02;  0.0000000E+00;  2.3271875E-02;  1.0346211E+03;
  7.6780260E-01;  9.9999998E-03;  1.4031427E-01;7065; -1.9996572E-02;  0.0000000E+00;  4.3706088E-03;  9.9916669E+02;  1.3585638E-01; -6.9040015E+02;3; -8.4895633E-02;  0.0000000E+00; -3.1662741E+00;0; -2.0919610E-02;  2.1768725E+04;  0.0000000E+00;  5.5466525E-02;  4.0000000E+04;  0.0000000E+00;  3.9782848E+04; -4.2308055E-02;  0.0000000E+00;  2.1388445E-02;  1.0251539E+03;
  7.6778162E-01;  9.9999998E-03;  1.5033750E-01;7066; -1.9792560E-02;  0.0000000E+00;  4.5460910E-03;  9.9915930E+02;  1.3588943E-01; -6.9652344E+02;3; -7.5376630E-02;  0.0000000E+00; -3.3196936E+00;0; -2.1140581E-02;  2.1760215E+04;  0.0000000E+00; -3.3287774E-03;  4.0000000E+04;  0.0000000E+00;  3.9782512E+04; -4.0581051E-02;  0.0000000E+00;  1.9440470E-02;  1.0431475E+03;
  7.6777261E-01;  9.9999998E-03;  1.6035697E-01;7067; -1.9588720E-02;  0.0000000E+00;  4.7042533E-03;  9.9912048E+02;  1.3592249E-01; -7.2867072E+02;3; -6.0413346E-02;  0.0000000E+00; -3.4608886E+00;0; -2.1379933E-02;  2.1749311E+04;  0.0000000E+00; -2.2775779E-02;  4.0000000E+04;  0.0000000E+00;  3.9783105E+04; -3.8839769E-02;  0.0000000E+00;  1.7459836E-02;  1.0265623E+03;
  7.6778042E-01;  9.9999998E-03;  1.7037448E-01;7068; -1.9382114E-02;  0.0000000E+00;  4.8499834E-03;  9.9903442E+02;  1.3595586E-01; -7.9997729E+02;3; -4.3951113E-02;  0.0000000E+00; -3.5931184E+00;0; -2.1613443E-02;  2.1735322E+04;  0.0000000E+00;  1.0600494E-04;  4.0000000E+04;  0.0000000E+00;  3.9783938E+04; -3.7101083E-02;  0.0000000E+00;  1.5487639E-02;  9.1815308E+02;
  7.6786500E-01;  9.9999998E-03;  1.8038286E-01;7069; -1.9175846E-02;  0.0000000E+00;  4.9847714E-03;  9.9892712E+02;  1.3600737E-01; -8.8886371E+02;3; -2.3813415E-02;  0.0000000E+00; -3.7188380E+00;0; -2.1816259E-02;  2.1713049E+04;  0.0000000E+00;  5.2400541E-02;  4.0000000E+04;  0.0000000E+00;  3.9786117E+04; -3.5383426E-02;  0.0000000E+00;  1.3567166E-02;  6.8984113E+02;
  7.6799923E-01;  9.9999998E-03;  1.9038843E-01;7070; -1.8972702E-02;  0.0000000E+00;  5.0987639E-03;  9.9879431E+02;  1.3606787E-01; -9.9888525E+02;3;  2.1481749E-03;  0.0000000E+00; -3.8514178E+00;0; -2.1981204E-02;  2.1685529E+04;  0.0000000E+00;  1.0888217E-01;  4.0000000E+04;  0.0000000E+00;  3.9789441E+04; -3.3707943E-02;  0.0000000E+00;  1.1726739E-02;  4.3427798E+02;
  7.6815659E-01;  9.9999998E-03;  2.0039684E-01;7071; -1.8772552E-02;  0.0000000E+00;  5.2067451E-03;  9.9864874E+02;  1.3612954E-01; -1.1194745E+03;3;  3.9465696E-02;  0.0000000E+00; -3.9556155E+00;0; -2.2106577E-02;  2.1655518E+04;  0.0000000E+00;  1.3776679E-01;  4.0000000E+04;  0.0000000E+00;  3.9795043E+04; -3.2098148E-02;  0.0000000E+00;  9.9915713E-03;  8.3809692E+02;
  7.6832825E-01;  9.9999998E-03;  2.1042785E-01;7072; -1.8572459E-02;  0.0000000E+00;  5.3370381E-03;  9.9850061E+02;  1.3618739E-01; -1.2422363E+03;3;  8.3251320E-02;  0.0000000E+00; -4.0707626E+00;0; -2.2156462E-02;  2.1624598E+04;  0.0000000E+00;  1.1259417E-01;  4.0000000E+04;  0.0000000E+00;  3.9802242E+04; -3.0574210E-02;  0.0000000E+00;  8.4177470E-03;  1.7489733E+03;
  7.6850945E-01;  9.9999998E-03;  2.2048683E-01;7073; -1.8382039E-02;  0.0000000E+00;  5.4733022E-03;  9.9832001E+02;  1.3624454E-01; -1.3918618E+03;3;  1.3665849E-01;  0.0000000E+00; -4.1873813E+00;0; -2.2073943E-02;  2.1593725E+04;  0.0000000E+00;  2.3982286E-02;  4.0000000E+04;  0.0000000E+00;  3.9808051E+04; -2.9154187E-02;  0.0000000E+00;  7.0802448E-03;  2.5409927E+03;
  7.6864171E-01;  9.9999998E-03;  2.3055655E-01;7074; -1.8223533E-02;  0.0000000E+00;  5.5216309E-03;  9.9807544E+02;  1.3628069E-01; -1.5944733E+03;3;  2.0742381E-01;  0.0000000E+00; -4.2883887E+00;0; -2.2015706E-02;  2.1568615E+04;  0.0000000E+00; -1.0294318E-01;  4.0000000E+04;  0.0000000E+00;  3.9809645E+04; -2.7855575E-02;  0.0000000E+00;  5.8398689E-03;  2.8252771E+03;
  7.8255743E-01;  9.9999998E-03;  7.0063807E-02;7119; -2.2281468E-02;  0.0000000E+00;  2.4644551E-03;  9.9985083E+02;  1.4106424E-01; -1.2360143E+02;3;  2.7723584E-01;  0.0000000E+00; -1.8818873E+00;0; -2.0502470E-02;  2.0197693E+04;  0.0000000E+00; -1.9011656E-02;  4.0000000E+04;  0.0000000E+00;  3.9761594E+04; -5.3248290E-02;  0.0000000E+00;  3.2745820E-02;  4.7297467E+02;
  7.8253645E-01;  9.9999998E-03;  8.0059238E-02;7120; -2.2058932E-02;  0.0000000E+00;  2.8300365E-03;  9.9978430E+02;  1.4106974E-01; -1.7871098E+02;3;  2.5018764E-01;  0.0000000E+00; -2.1471760E+00;0; -2.0244688E-02;  2.0197650E+04;  0.0000000E+00; -2.0654427E-02;  4.0000000E+04;  0.0000000E+00;  3.9762602E+04; -5.1979482E-02;  0.0000000E+00;  3.1734794E-02;  3.9777676E+02;
  7.8258878E-01;  9.9999998E-03;  9.0062395E-02;7121; -2.1821762E-02;  0.0000000E+00;  3.1876501E-03;  9.9974231E+02;  1.4110643E-01; -2.1347543E+02;3;  2.2645505E-01;  0.0000000E+00; -2.3909025E+00;0; -2.0046338E-02;  2.0190215E+04;  0.0000000E+00; -3.3764075E-02;  4.0000000E+04;  0.0000000E+00;  3.9762344E+04; -5.0578255E-02;  0.0000000E+00;  3.0531917E-02;  3.8396716E+02;
  7.8262758E-01;  9.9999998E-03;  1.0008035E-01;7122; -2.1573938E-02;  0.0000000E+00;  3.5240063E-03;  9.9971368E+02;  1.4114805E-01; -2.3722784E+02;3;  2.0390417E-01;  0.0000000E+00; -2.6374865E+00;0; -1.9916927E-02;  2.0183070E+04;  0.0000000E+00; -6.4561106E-02;  4.0000000E+04;  0.0000000E+00;  3.9761582E+04; -4.9053520E-02;  0.0000000E+00;  2.9136593E-02;  4.4053305E+02;
  7.8260654E-01;  9.9999998E-03;  1.1011475E-01;7123; -2.1322198E-02;  0.0000000E+00;  3.8242757E-03;  9.9968341E+02;  1.4117557E-01; -2.6226416E+02;3;  1.8165500E-01;  0.0000000E+00; -2.8561745E+00;0; -1.9857923E-02;  2.0179918E+04;  0.0000000E+00; -1.1622532E-01;  4.0000000E+04;  0.0000000E+00;  3.9759980E+04; -4.7419887E-02;  0.0000000E+00;  2.7561964E-02;  6.0366193E+02;
  7.8254235E-01;  9.9999998E-03;  1.2015983E-01;7124; -2.1074200E-02;  0.0000000E+00;  4.0859394E-03;  9.9966278E+02;  1.4119343E-01; -2.7939948E+02;3;  1.6221175E-01;  0.0000000E+00; -3.0588164E+00;0; -1.9862141E-02;  2.0179977E+04;  0.0000000E+00; -1.8588951E-01;  4.0000000E+04;  0.0000000E+00;  3.9758430E+04; -4.5696665E-02;  0.0000000E+00;  2.5834523E-02;  8.6599182E+02;
  7.8245842E-01;  9.9999998E-03;  1.3020559E-01;7125; -2.0834219E-02;  0.0000000E+00;  4.3094452E-03;  9.9965668E+02;  1.4120543E-01; -2.8443637E+02;3;  1.5039621E-01;  0.0000000E+00; -3.2480898E+00;0; -1.9918781E-02;  2.0181162E+04;  0.0000000E+00; -2.6131088E-01;  4.0000000E+04;  0.0000000E+00;  3.9756621E+04; -4.3904763E-02;  0.0000000E+00;  2.3985982E-02;  1.1738462E+03;
  7.8237522E-01;  9.9999998E-03;  1.4024886E-01;7126; -2.0603083E-02;  0.0000000E+00;  4.5006988E-03;  9.9965967E+02;  1.4121808E-01; -2.8196732E+02;3;  1.4278322E-01;  0.0000000E+00; -3.4183483E+00;0; -2.0017819E-02;  2.0181639E+04;  0.0000000E+00; -3.2265684E-01;  4.0000000E+04;  0.0000000E+00;  3.9754949E+04; -4.2063523E-02;  0.0000000E+00;  2.2045704E-02;  1.4597017E+03;
  7.8230125E-01;  9.9999998E-03;  1.5028608E-01;7127; -2.0377940E-02;  0.0000000E+00;  4.6659531E-03;  9.9965375E+02;  1.4123148E-01; -2.8685605E+02;3;  1.4199489E-01;  0.0000000E+00; -3.5822992E+00;0; -2.0151880E-02;  2.0180348E+04;  0.0000000E+00; -3.4847838E-01;  4.0000000E+04;  0.0000000E+00;  3.9754305E+04; -4.0192287E-02;  0.0000000E+00;  2.0040408E-02;  1.6559446E+03;
  7.8224647E-01;  9.9999998E-03;  1.6031744E-01;7128; -2.0156417E-02;  0.0000000E+00;  4.8129349E-03;  9.9963373E+02;  1.4124838E-01; -3.0344818E+02;3;  1.4834720E-01;  0.0000000E+00; -3.7277713E+00;0; -2.0305783E-02;  2.0176084E+04;  0.0000000E+00; -3.2387769E-01;  4.0000000E+04;  0.0000000E+00;  3.9754086E+04; -3.8309414E-02;  0.0000000E+00;  1.8003631E-02;  1.7042181E+03;
  7.8222728E-01;  9.9999998E-03;  1.7035183E-01;7129; -1.9932749E-02;  0.0000000E+00;  4.9535404E-03;  9.9959540E+02;  1.4127026E-01; -3.3520038E+02;3;  1.5739812E-01;  0.0000000E+00; -3.8592577E+00;0; -2.0459043E-02;  2.0167387E+04;  0.0000000E+00; -2.4771112E-01;  4.0000000E+04;  0.0000000E+00;  3.9755188E+04; -3.6433298E-02;  0.0000000E+00;  1.5974255E-02;  1.5649595E+03;
  7.8226459E-01;  9.9999998E-03;  1.8039061E-01;7130; -1.9705484E-02;  0.0000000E+00;  5.0928430E-03;  9.9953265E+02;  1.4130592E-01; -3.8719888E+02;3;  1.6944048E-01;  0.0000000E+00; -3.9958560E+00;0; -2.0594299E-02;  2.0152660E+04;  0.0000000E+00; -1.3610071E-01;  4.0000000E+04;  0.0000000E+00;  3.9757719E+04; -3.4585450E-02;  0.0000000E+00;  1.3991152E-02;  1.2361742E+03;
  7.8238308E-01;  9.9999998E-03;  1.9042957E-01;7131; -1.9476937E-02;  0.0000000E+00;  5.2231313E-03;  9.9946155E+02;  1.4135993E-01; -4.4611081E+02;3;  1.8817715E-01;  0.0000000E+00; -4.1383886E+00;0; -2.0701934E-02;  2.0130164E+04;  0.0000000E+00; -2.0226488E-02;  4.0000000E+04;  0.0000000E+00;  3.9761379E+04; -3.2789361E-02;  0.0000000E+00;  1.2087427E-02;  7.8776129E+02;
  7.8257412E-01;  9.9999998E-03;  2.0047164E-01;7132; -1.9249111E-02;  0.0000000E+00;  5.3577824E-03;  9.9938727E+02;  1.4143266E-01; -5.0763992E+02;3;  2.1351238E-01;  0.0000000E+00; -4.2589622E+00;0; -2.0773334E-02;  2.0100934E+04;  0.0000000E+00;  6.1356977E-02;  4.0000000E+04;  0.0000000E+00;  3.9766844E+04; -3.1069623E-02;  0.0000000E+00;  1.0296289E-02;  6.9132806E+02;
  7.8282207E-01;  9.9999998E-03;  2.1053827E-01;7133; -1.9025333E-02;  0.0000000E+00;  5.5048158E-03;  9.9929010E+02;  1.4151636E-01; -5.8813147E+02;3;  2.4028143E-01;  0.0000000E+00; -4.3989925E+00;0; -2.0775143E-02;  2.0066982E+04;  0.0000000E+00;  7.3591448E-02;  4.0000000E+04;  0.0000000E+00;  3.9771742E+04; -2.9446993E-02;  0.0000000E+00;  8.6718509E-03;  1.2183627E+03;
  7.8308076E-01;  9.9999998E-03;  2.2062360E-01;7134; -1.8815452E-02;  0.0000000E+00;  5.6169871E-03;  9.9913000E+02;  1.4160019E-01; -7.2076971E+02;3;  2.8905734E-01;  0.0000000E+00; -4.5164189E+00;0; -2.0714201E-02;  2.0032652E+04;  0.0000000E+00; -2.9794937E-03;  4.0000000E+04;  0.0000000E+00;  3.9772875E+04; -2.7943999E-02;  0.0000000E+00;  7.2297971E-03;  1.4753842E+03;
  7.8327912E-01;  9.9999998E-03;  2.3068979E-01;7135; -1.8632162E-02;  0.0000000E+00;  5.6381961E-03;  9.9890704E+02;  1.4166120E-01; -9.0550519E+02;3;  3.5283890E-01;  0.0000000E+00; -4.6132255E+00;0; -2.0754466E-02;  2.0003785E+04;  0.0000000E+00; -1.5725513E-01;  4.0000000E+04;  0.0000000E+00;  3.9772098E+04; -2.6583133E-02;  0.0000000E+00;  5.8286674E-03;  1.5318444E+03;
  7.9676402E-01;  9.9999998E-03;  7.0164703E-02;7180; -2.3027662E-02;  0.0000000E+00;  2.5453593E-03;  9.9970581E+02;  1.4666586E-01; -2.4374617E+02;3;  5.9556365E-01;  0.0000000E+00; -2.0256665E+00;0; -2.0227168E-02;  1.8690205E+04;  0.0000000E+00; -2.3721825E-01;  4.0000000E+04;  0.0000000E+00;  3.9732793E+04; -5.3870652E-02;  0.0000000E+00;  3.3643484E-02;  8.5891406E+02;
  7.9679215E-01;  9.9999998E-03;  8.0157526E-02;7181; -2.2789849E-02;  0.0000000E+00;  2.9124548E-03;  9.9971661E+02;  1.4669745E-01; -2.3475877E+02;3;  5.5744731E-01;  0.0000000E+00; -2.3000429E+00;0; -1.9860908E-02;  1.8686723E+04;  0.0000000E+00; -2.9272258E-01;  4.0000000E+04;  0.0000000E+00;  3.9733977E+04; -5.2488945E-02;  0.0000000E+00;  3.2628037E-02;  8.1565259E+02;
  7.9681933E-01;  9.9999998E-03;  9.0151392E-02;7182; -2.2529535E-02;  0.0000000E+00;  3.2756026E-03;  9.9973834E+02;  1.4673124E-01; -2.1678398E+02;3;  5.2608860E-01;  0.0000000E+00; -2.5590889E+00;0; -1.9548010E-02;  1.8683357E+04;  0.0000000E+00; -3.5084394E-01;  4.0000000E+04;  0.0000000E+00;  3.9734762E+04; -5.0961509E-02;  0.0000000E+00;  3.1413499E-02;  8.7891205E+02;
  7.9683822E-01;  9.9999998E-03;  1.0015962E-01;7183; -2.2255383E-02;  0.0000000E+00;  3.6194245E-03;  9.9977283E+02;  1.4676543E-01; -1.8819220E+02;3;  4.9131754E-01;  0.0000000E+00; -2.8150089E+00;0; -1.9299231E-02;  1.8680637E+04;  0.0000000E+00; -4.1253123E-01;  4.0000000E+04;  0.0000000E+00;  3.9734582E+04; -4.9300991E-02;  0.0000000E+00;  3.0001760E-02;  1.0352201E+03;
  7.9685163E-01;  9.9999998E-03;  1.1019009E-01;7184; -2.1976929E-02;  0.0000000E+00;  3.9300583E-03;  9.9981744E+02;  1.4680076E-01; -1.5125497E+02;3;  4.5908067E-01;  0.0000000E+00; -3.0598340E+00;0; -1.9116422E-02;  1.8678416E+04;  0.0000000E+00; -4.7724092E-01;  4.0000000E+04;  0.0000000E+00;  3.9733109E+04; -4.7522660E-02;  0.0000000E+00;  2.8406238E-02;  1.2706831E+03;
  7.9683816E-01;  9.9999998E-03;  1.2024070E-01;7185; -2.1701736E-02;  0.0000000E+00;  4.2011454E-03;  9.9987579E+02;  1.4682902E-01; -1.0291066E+02;3;  4.3006438E-01;  0.0000000E+00; -3.2766256E+00;0; -1.8995481E-02;  1.8678396E+04;  0.0000000E+00; -5.3979152E-01;  4.0000000E+04;  0.0000000E+00;  3.9731012E+04; -4.5644764E-02;  0.0000000E+00;  2.6649283E-02;  1.5646698E+03;
  7.9677749E-01;  9.9999998E-03;  1.3029663E-01;7186; -2.1433810E-02;  0.0000000E+00;  4.4307373E-03;  9.9993646E+02;  1.4684072E-01; -5.2640484E+01;3;  4.0743199E-01;  0.0000000E+00; -3.4817255E+00;0; -1.8930333E-02;  1.8681910E+04;  0.0000000E+00; -5.8949411E-01;  4.0000000E+04;  0.0000000E+00;  3.9728965E+04; -4.3691114E-02;  0.0000000E+00;  2.4760781E-02;  1.8660331E+03;
  7.9668415E-01;  9.9999998E-03;  1.4034174E-01;7187; -2.1175122E-02;  0.0000000E+00;  4.6258825E-03;  9.9999445E+02;  1.4684093E-01; -4.5924625E+00;3;  3.8605344E-01;  0.0000000E+00; -3.6672661E+00;0; -1.8913599E-02;  1.8687229E+04;  0.0000000E+00; -6.1192340E-01;  4.0000000E+04;  0.0000000E+00;  3.9727316E+04; -4.1687060E-02;  0.0000000E+00;  2.2773461E-02;  2.1090417E+03;
  7.9659432E-01;  9.9999998E-03;  1.5038583E-01;7188; -2.0925613E-02;  0.0000000E+00;  4.7924686E-03;  1.0000449E+03;  1.4684150E-01;  3.7134750E+01;3;  3.7385592E-01;  0.0000000E+00; -3.8368032E+00;0; -1.8937781E-02;  1.8690631E+04;  0.0000000E+00; -5.9264684E-01;  4.0000000E+04;  0.0000000E+00;  3.9726246E+04; -3.9651915E-02;  0.0000000E+00;  2.0714134E-02;  2.2330671E+03;
  7.9654837E-01;  9.9999998E-03;  1.6043739E-01;7189; -2.0682365E-02;  0.0000000E+00;  4.9426309E-03;  1.0000905E+03;  1.4685549E-01;  7.4960838E+01;3;  3.7336102E-01;  0.0000000E+00; -3.9898219E+00;0; -1.8987481E-02;  1.8688973E+04;  0.0000000E+00; -5.2201104E-01;  4.0000000E+04;  0.0000000E+00;  3.9725891E+04; -3.7604194E-02;  0.0000000E+00;  1.8616714E-02;  2.1855950E+03;
  7.9658318E-01;  9.9999998E-03;  1.7049700E-01;7190; -2.0440845E-02;  0.0000000E+00;  5.0871326E-03;  1.0001296E+03;  1.4689325E-01;  1.0735498E+02;3;  3.6949626E-01;  0.0000000E+00; -4.1484847E+00;0; -1.9042224E-02;  1.8678592E+04;  0.0000000E+00; -4.0166637E-01;  4.0000000E+04;  0.0000000E+00;  3.9726758E+04; -3.5564758E-02;  0.0000000E+00;  1.6522534E-02;  1.9439174E+03;
  7.9672390E-01;  9.9999998E-03;  1.8056373E-01;7191; -2.0193124E-02;  0.0000000E+00;  5.2387090E-03;  1.0001495E+03;  1.4696315E-01;  1.2384834E+02;3;  3.7105626E-01;  0.0000000E+00; -4.2988262E+00;0; -1.9087110E-02;  1.8658070E+04;  0.0000000E+00; -2.4852385E-01;  4.0000000E+04;  0.0000000E+00;  3.9728422E+04; -3.3557728E-02;  0.0000000E+00;  1.4470619E-02;  1.5383574E+03;
  7.9697543E-01;  9.9999998E-03;  1.9063647E-01;7192; -1.9940479E-02;  0.0000000E+00;  5.3846072E-03;  1.0001500E+03;  1.4706431E-01;  1.2424339E+02;3;  3.7586719E-01;  0.0000000E+00; -4.4613442E+00;0; -1.9115582E-02;  1.8627562E+04;  0.0000000E+00; -9.2529386E-02;  4.0000000E+04;  0.0000000E+00;  3.9730629E+04; -3.1609599E-02;  0.0000000E+00;  1.2494016E-02;  1.0639381E+03;
  7.9731476E-01;  9.9999998E-03;  2.0070851E-01;7193; -1.9685181E-02;  0.0000000E+00;  5.5286614E-03;  1.0001165E+03;  1.4718816E-01;  9.6491089E+01;3;  3.9112201E-01;  0.0000000E+00; -4.5990372E+00;0; -1.9123513E-02;  1.8589859E+04;  0.0000000E+00;  3.0922221E-02;  4.0000000E+04;  0.0000000E+00;  3.9732270E+04; -2.9750355E-02;  0.0000000E+00;  1.0626841E-02;  6.6413983E+02;
  7.9770148E-01;  9.9999998E-03;  2.1078371E-01;7194; -1.9442149E-02;  0.0000000E+00;  5.6372350E-03;  1.0000292E+03;  1.4732112E-01;  2.4196844E+01;3;  4.1153145E-01;  0.0000000E+00; -4.7396975E+00;0; -1.9125871E-02;  1.8548420E+04;  0.0000000E+00;  8.9664288E-02;  4.0000000E+04;  0.0000000E+00;  3.9731434E+04; -2.8005864E-02;  0.0000000E+00;  8.8799931E-03;  5.9155029E+02;
  7.9805779E-01;  9.9999998E-03;  2.2083622E-01;7195; -1.9224022E-02;  0.0000000E+00;  5.6628594E-03;  9.9987494E+02;  1.4744078E-01; -1.0360200E+02;3;  4.5554692E-01;  0.0000000E+00; -4.8471723E+00;0; -1.9234307E-02;  1.8509297E+04;  0.0000000E+00;  5.9416633E-02;  4.0000000E+04;  0.0000000E+00;  3.9728934E+04; -2.6405251E-02;  0.0000000E+00;  7.1709431E-03;  8.2096716E+02;
  7.9832727E-01;  9.9999998E-03;  2.3084939E-01;7196; -1.9009922E-02;  0.0000000E+00;  5.6934520E-03;  9.9972272E+02;  1.4752544E-01; -2.2972188E+02;3;  5.0766248E-01;  0.0000000E+00; -4.9499612E+00;0; -1.9389760E-02;  1.8477789E+04;  0.0000000E+00; -6.4683475E-02;  4.0000000E+04;  0.0000000E+00;  3.9730203E+04; -2.4974016E-02;  0.0000000E+00;  5.5842563E-03;  6.9221564E+02;
  8.1103605E-01;  9.9999998E-03;  7.0336923E-02;7241; -2.3803573E-02;  0.0000000E+00;  2.6142346E-03;  9.9897522E+02;  1.5259784E-01; -8.4901294E+02;3;  9.3727976E-01;  0.0000000E+00; -2.1640153E+00;0; -1.9982275E-02;  1.7258822E+04;  0.0000000E+00; -4.1371831E-01;  4.0000000E+04;  0.0000000E+00;  3.9702363E+04; -5.4541070E-02;  0.0000000E+00;  3.4558795E-02;  1.5236893E+03;
  8.1103212E-01;  9.9999998E-03;  8.0331750E-02;7242; -2.3542520E-02;  0.0000000E+00;  2.9779498E-03;  9.9904248E+02;  1.5260272E-01; -7.9331085E+02;3;  8.9073718E-01;  0.0000000E+00; -2.4457748E+00;0; -1.9476298E-02;  1.7262029E+04;  0.0000000E+00; -5.0862646E-01;  4.0000000E+04;  0.0000000E+00;  3.9704266E+04; -5.3032011E-02;  0.0000000E+00;  3.3555713E-02;  1.5915867E+03;
  8.1104088E-01;  9.9999998E-03;  9.0325646E-02;7243; -2.3256330E-02;  0.0000000E+00;  3.3405281E-03;  9.9912866E+02;  1.5261720E-01; -7.2190546E+02;3;  8.4943438E-01;  0.0000000E+00; -2.7227221E+00;0; -1.9011986E-02;  1.7264109E+04;  0.0000000E+00; -5.9765828E-01;  4.0000000E+04;  0.0000000E+00;  3.9705898E+04; -5.1364280E-02;  0.0000000E+00;  3.2352295E-02;  1.7315740E+03;
  8.1106788E-01;  9.9999998E-03;  1.0031411E-01;7244; -2.2954484E-02;  0.0000000E+00;  3.6889343E-03;  9.9922797E+02;  1.5264413E-01; -6.3963617E+02;3;  8.0187249E-01;  0.0000000E+00; -2.9915204E+00;0; -1.8604591E-02;  1.7264221E+04;  0.0000000E+00; -6.7590708E-01;  4.0000000E+04;  0.0000000E+00;  3.9706559E+04; -4.9555473E-02;  0.0000000E+00;  3.0950882E-02;  1.9053961E+03;
  8.1102401E-01;  9.9999998E-03;  1.1031634E-01;7245; -2.2641689E-02;  0.0000000E+00;  4.0097227E-03;  9.9932751E+02;  1.5265442E-01; -5.5712000E+02;3;  7.5983965E-01;  0.0000000E+00; -3.2527308E+00;0; -1.8264409E-02;  1.7268293E+04;  0.0000000E+00; -7.3880786E-01;  4.0000000E+04;  0.0000000E+00;  3.9706039E+04; -4.7618881E-02;  0.0000000E+00;  2.9354472E-02;  2.0789890E+03;
  8.1092387E-01;  9.9999998E-03;  1.2035105E-01;7246; -2.2328502E-02;  0.0000000E+00;  4.2918040E-03;  9.9942236E+02;  1.5264933E-01; -4.7855432E+02;3;  7.1673453E-01;  0.0000000E+00; -3.4900403E+00;0; -1.7991826E-02;  1.7275695E+04;  0.0000000E+00; -7.8078640E-01;  4.0000000E+04;  0.0000000E+00;  3.9704496E+04; -4.5573413E-02;  0.0000000E+00;  2.7581587E-02;  2.2375747E+03;
  8.1082201E-01;  9.9999998E-03;  1.3040486E-01;7247; -2.2023937E-02;  0.0000000E+00;  4.5357533E-03;  9.9952698E+02;  1.5264326E-01; -3.9189014E+02;3;  6.7661542E-01;  0.0000000E+00; -3.6996479E+00;0; -1.7779509E-02;  1.7283215E+04;  0.0000000E+00; -7.9501581E-01;  4.0000000E+04;  0.0000000E+00;  3.9702516E+04; -4.3444496E-02;  0.0000000E+00;  2.5664987E-02;  2.3635090E+03;
  8.1070793E-01;  9.9999998E-03;  1.4046785E-01;7248; -2.1731168E-02;  0.0000000E+00;  4.7476501E-03;  9.9963556E+02;  1.5262903E-01; -3.0191736E+02;3;  6.4604479E-01;  0.0000000E+00; -3.9012153E+00;0; -1.7624767E-02;  1.7291623E+04;  0.0000000E+00; -7.7545792E-01;  4.0000000E+04;  0.0000000E+00;  3.9700922E+04; -4.1258011E-02;  0.0000000E+00;  2.3633244E-02;  2.4232854E+03;
  8.1063163E-01;  9.9999998E-03;  1.5054004E-01;7249; -2.1448510E-02;  0.0000000E+00;  4.9333894E-03;  9.9974615E+02;  1.5262471E-01; -2.1031502E+02;3;  6.1888164E-01;  0.0000000E+00; -4.1034150E+00;0; -1.7520336E-02;  1.7296549E+04;  0.0000000E+00; -7.1792334E-01;  4.0000000E+04;  0.0000000E+00;  3.9699973E+04; -3.9036296E-02;  0.0000000E+00;  2.1515960E-02;  2.3737329E+03;
  8.1066388E-01;  9.9999998E-03;  1.6062228E-01;7250; -2.1176765E-02;  0.0000000E+00;  5.0986665E-03;  9.9986230E+02;  1.5265697E-01; -1.1407084E+02;3;  6.0424358E-01;  0.0000000E+00; -4.2780023E+00;0; -1.7447105E-02;  1.7291500E+04;  0.0000000E+00; -6.2110943E-01;  4.0000000E+04;  0.0000000E+00;  3.9699914E+04; -3.6799092E-02;  0.0000000E+00;  1.9351987E-02;  2.1790674E+03;
  8.1083059E-01;  9.9999998E-03;  1.7071231E-01;7251; -2.0907423E-02;  0.0000000E+00;  5.2594878E-03;  9.9996588E+02;  1.5273334E-01; -2.8246113E+01;3;  5.8836305E-01;  0.0000000E+00; -4.4460344E+00;0; -1.7384972E-02;  1.7274479E+04;  0.0000000E+00; -4.8980877E-01;  4.0000000E+04;  0.0000000E+00;  3.9700582E+04; -3.4568742E-02;  0.0000000E+00;  1.7183769E-02;  1.8428137E+03;
  8.1112057E-01;  9.9999998E-03;  1.8080060E-01;7252; -2.0634731E-02;  0.0000000E+00;  5.4140468E-03;  1.0000485E+03;  1.5284823E-01;  4.0196392E+01;3;  5.7282257E-01;  0.0000000E+00; -4.6364913E+00;0; -1.7322926E-02;  1.7246693E+04;  0.0000000E+00; -3.3656228E-01;  4.0000000E+04;  0.0000000E+00;  3.9701590E+04; -3.2374017E-02;  0.0000000E+00;  1.5051091E-02;  1.4391639E+03;
  8.1149328E-01;  9.9999998E-03;  1.9087967E-01;7253; -2.0350836E-02;  0.0000000E+00;  5.5636950E-03;  1.0000823E+03;  1.5298550E-01;  6.8244980E+01;3;  5.6398845E-01;  0.0000000E+00; -4.8037286E+00;0; -1.7262056E-02;  1.7211914E+04;  0.0000000E+00; -1.7824233E-01;  4.0000000E+04;  0.0000000E+00;  3.9701512E+04; -3.0248558E-02;  0.0000000E+00;  1.2986503E-02;  1.1213634E+03;
  8.1192201E-01;  9.9999998E-03;  2.0093298E-01;7254; -2.0059763E-02;  0.0000000E+00;  5.7021384E-03;  1.0000521E+03;  1.5313484E-01;  4.3159271E+01;3;  5.6915694E-01;  0.0000000E+00; -4.9451981E+00;0; -1.7204797E-02;  1.7172621E+04;  0.0000000E+00; -3.1148618E-02;  4.0000000E+04;  0.0000000E+00;  3.9700535E+04; -2.8227253E-02;  0.0000000E+00;  1.1022456E-02;  1.0475908E+03;
  8.1235075E-01;  9.9999998E-03;  2.1096838E-01;7255; -1.9785946E-02;  0.0000000E+00;  5.7782368E-03;  9.9995087E+02;  1.5327872E-01; -4.0690205E+01;3;  5.7685137E-01;  0.0000000E+00; -5.0955229E+00;0; -1.7197538E-02;  1.7132775E+04;  0.0000000E+00;  9.1395438E-02;  4.0000000E+04;  0.0000000E+00;  3.9697883E+04; -2.6338387E-02;  0.0000000E+00;  9.1408482E-03;  1.2890465E+03;
  8.1273550E-01;  9.9999998E-03;  2.2097765E-01;7256; -1.9546291E-02;  0.0000000E+00;  5.7656122E-03;  9.9980225E+02;  1.5340507E-01; -1.6384720E+02;3;  6.1036664E-01;  0.0000000E+00; -5.1967230E+00;0; -1.7376684E-02;  1.7095684E+04;  0.0000000E+00;  1.7871284E-01;  4.0000000E+04;  0.0000000E+00;  3.9695883E+04; -2.4608769E-02;  0.0000000E+00;  7.2320844E-03;  1.5063220E+03;
  8.1304818E-01;  9.9999998E-03;  2.3096348E-01;7257; -1.9302953E-02;  0.0000000E+00;  5.7879905E-03;  9.9966846E+02;  1.5350166E-01; -2.7465887E+02;3;  6.5047485E-01;  0.0000000E+00; -5.2976456E+00;0; -1.7632637E-02;  1.7064309E+04;  0.0000000E+00;  2.2602759E-01;  4.0000000E+04;  0.0000000E+00;  3.9698816E+04; -2.3061618E-02;  0.0000000E+00;  5.4289820E-03;  1.1267563E+03;
  8.2556480E-01;  9.9999998E-03;  7.0412166E-02;7302; -2.4633970E-02;  0.0000000E+00;  2.6691840E-03;  9.9819141E+02;  1.5876471E-01; -1.4983773E+03;3;  1.3096789E+00;  0.0000000E+00; -2.2978148E+00;0; -1.9766968E-02;  1.5944105E+04;  0.0000000E+00; -5.0742388E-01;  4.0000000E+04;  0.0000000E+00;  3.9672824E+04; -5.5305101E-02;  0.0000000E+00;  3.5538133E-02;  1.9476803E+03;
  8.2562029E-01;  9.9999998E-03;  1.3042222E-01;7308; -2.2672003E-02;  0.0000000E+00;  4.6431450E-03;  9.9888269E+02;  1.5894768E-01; -9.2565277E+02;3;  9.8492485E-01;  0.0000000E+00; -3.9378824E+00;0; -1.6390722E-02;  1.5930708E+04;  0.0000000E+00; -8.7585258E-01;  4.0000000E+04;  0.0000000E+00;  3.9675570E+04; -4.3228865E-02;  0.0000000E+00;  2.6838142E-02;  2.4632986E+03;
  8.2568687E-01;  9.9999998E-03;  1.2036631E-01;7307; -2.3015425E-02;  0.0000000E+00;  4.3691020E-03;  9.9873883E+02;  1.5894744E-01; -1.0448593E+03;3;  1.0330889E+00;  0.0000000E+00; -3.6905384E+00;0; -1.6794777E-02;  1.5926072E+04;  0.0000000E+00; -8.9486098E-01;  4.0000000E+04;  0.0000000E+00;  3.9677129E+04; -4.5558214E-02;  0.0000000E+00;  2.8763438E-02;  2.5430361E+03;
  8.2564062E-01;  9.9999998E-03;  1.4050773E-01;7309; -2.2342671E-02;  0.0000000E+00;  4.8806956E-03;  9.9903784E+02;  1.5897925E-01; -7.9711322E+02;3;  9.3906051E-01;  0.0000000E+00; -4.1796117E+00;0; -1.6046988E-02;  1.5928744E+04;  0.0000000E+00; -8.2614833E-01;  4.0000000E+04;  0.0000000E+00;  3.9673938E+04; -4.0825784E-02;  0.0000000E+00;  2.4778796E-02;  2.3136572E+03;
  8.2572150E-01;  9.9999998E-03;  8.0410175E-02;7303; -2.4357794E-02;  0.0000000E+00;  3.0232216E-03;  9.9828638E+02;  1.5884319E-01; -1.4197128E+03;3;  1.2619907E+00;  0.0000000E+00; -2.6016159E+00;0; -1.9080110E-02;  1.5931250E+04;  0.0000000E+00; -6.2833983E-01;  4.0000000E+04;  0.0000000E+00;  3.9674906E+04; -5.3676192E-02;  0.0000000E+00;  3.4596082E-02;  2.0902983E+03;
  8.2568187E-01;  9.9999998E-03;  1.5060659E-01;7310; -2.2024596E-02;  0.0000000E+00;  5.0864010E-03;  9.9919189E+02;  1.5901192E-01; -6.6951190E+02;3;  8.9613843E-01;  0.0000000E+00; -4.3911633E+00;0; -1.5770275E-02;  1.5925007E+04;  0.0000000E+00; -7.5482202E-01;  4.0000000E+04;  0.0000000E+00;  3.9673277E+04; -3.8378082E-02;  0.0000000E+00;  2.2607807E-02;  2.0936245E+03;
  8.2571501E-01;  9.9999998E-03;  1.6070092E-01;7311; -2.1713249E-02;  0.0000000E+00;  5.2699978E-03;  9.9931848E+02;  1.5903653E-01; -5.6462598E+02;3;  8.6224896E-01;  0.0000000E+00; -4.5735893E+00;0; -1.5555182E-02;  1.5921053E+04;  0.0000000E+00; -6.7004013E-01;  4.0000000E+04;  0.0000000E+00;  3.9673465E+04; -3.5918206E-02;  0.0000000E+00;  2.0363024E-02;  1.7964750E+03;
  8.2584059E-01;  9.9999998E-03;  9.0391435E-02;7304; -2.4049310E-02;  0.0000000E+00;  3.3827990E-03;  9.9838666E+02;  1.5892063E-01; -1.3366041E+03;3;  1.2078263E+00;  0.0000000E+00; -2.8981228E+00;0; -1.8418346E-02;  1.5919471E+04;  0.0000000E+00; -7.3783416E-01;  4.0000000E+04;  0.0000000E+00;  3.9676836E+04; -5.1868968E-02;  0.0000000E+00;  3.3450622E-02;  2.2754014E+03;
  8.2585740E-01;  9.9999998E-03;  1.1034358E-01;7306; -2.3369491E-02;  0.0000000E+00;  4.0647015E-03;  9.9861615E+02;  1.5898912E-01; -1.1464860E+03;3;  1.0905108E+00;  0.0000000E+00; -3.4485743E+00;0; -1.7261142E-02;  1.5913584E+04;  0.0000000E+00; -8.7787390E-01;  4.0000000E+04;  0.0000000E+00;  3.9677883E+04; -4.7791615E-02;  0.0000000E+00;  3.0530473E-02;  2.5407590E+03;
  8.2579285E-01;  9.9999998E-03;  1.7078158E-01;7312; -2.1405611E-02;  0.0000000E+00;  5.4320334E-03;  9.9943140E+02;  1.5906936E-01; -4.7109775E+02;3;  8.2830173E-01;  0.0000000E+00; -4.7840981E+00;0; -1.5377700E-02;  1.5913163E+04;  0.0000000E+00; -5.7636255E-01;  4.0000000E+04;  0.0000000E+00;  3.9674801E+04; -3.3474352E-02;  0.0000000E+00;  1.8096652E-02;  1.4317344E+03;
  8.2595646E-01;  9.9999998E-03;  1.0035472E-01;7305; -2.3720093E-02;  0.0000000E+00;  3.7345793E-03;  9.9850244E+02;  1.5899917E-01; -1.2407056E+03;3;  1.1523162E+00;  0.0000000E+00; -3.1931217E+00;0; -1.7803282E-02;  1.5907551E+04;  0.0000000E+00; -8.2420599E-01;  4.0000000E+04;  0.0000000E+00;  3.9677754E+04; -4.9904607E-02;  0.0000000E+00;  3.2101326E-02;  2.4455093E+03;
  8.2593280E-01;  9.9999998E-03;  1.8085186E-01;7313; -2.1089349E-02;  0.0000000E+00;  5.5863690E-03;  9.9949591E+02;  1.5911798E-01; -4.1761780E+02;3;  7.9545110E-01;  0.0000000E+00; -4.9732790E+00;0; -1.5222201E-02;  1.5900365E+04;  0.0000000E+00; -4.7158635E-01;  4.0000000E+04;  0.0000000E+00;  3.9676441E+04; -3.1073501E-02;  0.0000000E+00;  1.5851300E-02;  1.0284436E+03;
  8.2614994E-01;  9.9999998E-03;  1.9091271E-01;7314; -2.0762844E-02;  0.0000000E+00;  5.7374300E-03;  9.9951111E+02;  1.5918748E-01; -4.0502554E+02;3;  7.5806695E-01;  0.0000000E+00; -5.1466660E+00;0; -1.5080707E-02;  1.5881411E+04;  0.0000000E+00; -3.4660599E-01;  4.0000000E+04;  0.0000000E+00;  3.9677590E+04; -2.8743956E-02;  0.0000000E+00;  1.3663249E-02;  6.3218622E+02;
  8.2645869E-01;  9.9999998E-03;  2.0094775E-01;7315; -2.0427084E-02;  0.0000000E+00;  5.8860201E-03;  9.9946924E+02;  1.5928763E-01; -4.3974063E+02;3;  7.4268657E-01;  0.0000000E+00; -5.3034816E+00;0; -1.4944487E-02;  1.5854896E+04;  0.0000000E+00; -1.8945079E-01;  4.0000000E+04;  0.0000000E+00;  3.9678250E+04; -2.6516465E-02;  0.0000000E+00;  1.1571978E-02;  3.1506644E+02;
  8.2676351E-01;  9.9999998E-03;  2.1097560E-01;7316; -2.0093272E-02;  0.0000000E+00;  6.0076346E-03;  9.9935529E+02;  1.5937988E-01; -5.3415771E+02;3;  7.3879671E-01;  0.0000000E+00; -5.4429407E+00;0; -1.4831464E-02;  1.5828320E+04;  0.0000000E+00;  1.4050310E-02;  4.0000000E+04;  0.0000000E+00;  3.9678910E+04; -2.4427274E-02;  0.0000000E+00;  9.5958104E-03;  5.7902698E+02;
  8.2700992E-01;  9.9999998E-03;  2.2100458E-01;7317; -1.9798847E-02;  0.0000000E+00;  6.0411748E-03;  9.9917682E+02;  1.5944427E-01; -6.8200537E+02;3;  7.4396288E-01;  0.0000000E+00; -5.5705180E+00;0; -1.4854671E-02;  1.5805907E+04;  0.0000000E+00;  2.7097645E-01;  4.0000000E+04;  0.0000000E+00;  3.9678754E+04; -2.2510238E-02;  0.0000000E+00;  7.6555666E-03;  1.2101053E+03;
  8.2711136E-01;  9.9999998E-03;  2.3102011E-01;7318; -1.9541411E-02;  0.0000000E+00;  6.0059987E-03;  9.9896857E+02;  1.5945144E-01; -8.5454364E+02;3;  7.8158963E-01;  0.0000000E+00; -5.6457949E+00;0; -1.5166145E-02;  1.5794364E+04;  0.0000000E+00;  5.7290280E-01;  4.0000000E+04;  0.0000000E+00;  3.9679805E+04; -2.0802582E-02;  0.0000000E+00;  5.6364369E-03;  1.9419021E+03;
  8.4215772E-01;  9.9999998E-03;  7.0439756E-02;7363; -2.5598783E-02;  0.0000000E+00;  2.7066942E-03;  9.9805011E+02;  1.6597660E-01; -1.6154603E+03;3;  1.7659194E+00;  0.0000000E+00; -2.4379864E+00;0; -1.9561049E-02;  1.4615151E+04;  0.0000000E+00; -5.1618767E-01;  4.0000000E+04;  0.0000000E+00;  3.9642023E+04; -5.6291483E-02;  0.0000000E+00;  3.6730435E-02;  2.0292385E+03;
  8.4215206E-01;  9.9999998E-03;  8.0509149E-02;7364; -2.5282381E-02;  0.0000000E+00;  3.0626012E-03;  9.9810461E+02;  1.6598874E-01; -1.5702765E+03;3;  1.6942210E+00;  0.0000000E+00; -2.7683847E+00;0; -1.8634584E-02;  1.4612388E+04;  0.0000000E+00; -6.4180958E-01;  4.0000000E+04;  0.0000000E+00;  3.9643582E+04; -5.4507367E-02;  0.0000000E+00;  3.5872784E-02;  2.2075232E+03;
  8.4217191E-01;  9.9999998E-03;  9.0552948E-02;7365; -2.4935005E-02;  0.0000000E+00;  3.4239732E-03;  9.9817566E+02;  1.6601647E-01; -1.5114139E+03;3;  1.6286377E+00;  0.0000000E+00; -3.0749757E+00;0; -1.7718639E-02;  1.4607237E+04;  0.0000000E+00; -7.5427139E-01;  4.0000000E+04;  0.0000000E+00;  3.9645535E+04; -5.2527249E-02;  0.0000000E+00;  3.4808610E-02;  2.3893601E+03;
  8.4221852E-01;  9.9999998E-03;  1.0057755E-01;7366; -2.4563923E-02;  0.0000000E+00;  3.7897141E-03;  9.9825189E+02;  1.6606075E-01; -1.4482552E+03;3;  1.5534472E+00;  0.0000000E+00; -3.3774230E+00;0; -1.6842246E-02;  1.4599510E+04;  0.0000000E+00; -8.3866727E-01;  4.0000000E+04;  0.0000000E+00;  3.9646832E+04; -5.0369848E-02;  0.0000000E+00;  3.3527602E-02;  2.5176780E+03;
  8.4224617E-01;  9.9999998E-03;  1.1057344E-01;7367; -2.4181236E-02;  0.0000000E+00;  4.1439962E-03;  9.9833496E+02;  1.6610029E-01; -1.3794670E+03;3;  1.4786208E+00;  0.0000000E+00; -3.6725993E+00;0; -1.6031902E-02;  1.4593099E+04;  0.0000000E+00; -8.8351125E-01;  4.0000000E+04;  0.0000000E+00;  3.9647211E+04; -4.8059903E-02;  0.0000000E+00;  3.2028001E-02;  2.5252854E+03;
  8.4218580E-01;  9.9999998E-03;  1.2058441E-01;7368; -2.3791062E-02;  0.0000000E+00;  4.4754087E-03;  9.9842383E+02;  1.6610277E-01; -1.3058395E+03;3;  1.4080019E+00;  0.0000000E+00; -3.9610436E+00;0; -1.5304172E-02;  1.4592872E+04;  0.0000000E+00; -8.8621682E-01;  4.0000000E+04;  0.0000000E+00;  3.9646789E+04; -4.5611504E-02;  0.0000000E+00;  3.0307332E-02;  2.3891387E+03;
  8.4200275E-01;  9.9999998E-03;  1.3060787E-01;7369; -2.3400482E-02;  0.0000000E+00;  4.7686007E-03;  9.9851410E+02;  1.6605966E-01; -1.2310269E+03;3;  1.3400875E+00;  0.0000000E+00; -4.2303724E+00;0; -1.4673185E-02;  1.4600991E+04;  0.0000000E+00; -8.5409379E-01;  4.0000000E+04;  0.0000000E+00;  3.9646066E+04; -4.3054033E-02;  0.0000000E+00;  2.8380848E-02;  2.1404375E+03;
  8.4166998E-01;  9.9999998E-03;  1.4064069E-01;7370; -2.3016822E-02;  0.0000000E+00;  5.0169984E-03;  9.9860077E+02;  1.6595390E-01; -1.1592264E+03;3;  1.2666538E+00;  0.0000000E+00; -4.4699702E+00;0; -1.4151247E-02;  1.4619558E+04;  0.0000000E+00; -8.0318898E-01;  4.0000000E+04;  0.0000000E+00;  3.9645629E+04; -4.0421370E-02;  0.0000000E+00;  2.6270123E-02;  1.8430371E+03;
  8.4135234E-01;  9.9999998E-03;  1.5068035E-01;7371; -2.2647027E-02;  0.0000000E+00;  5.2345693E-03;  9.9869653E+02;  1.6584441E-01; -1.0799200E+03;3;  1.2024237E+00;  0.0000000E+00; -4.6763482E+00;0; -1.3724396E-02;  1.4638206E+04;  0.0000000E+00; -7.5434929E-01;  4.0000000E+04;  0.0000000E+00;  3.9645766E+04; -3.7743349E-02;  0.0000000E+00;  2.4018953E-02;  1.5528333E+03;
  8.4114635E-01;  9.9999998E-03;  1.6071133E-01;7372; -2.2289213E-02;  0.0000000E+00;  5.4265512E-03;  9.9879315E+02;  1.6576853E-01; -9.9987286E+02;3;  1.1467855E+00;  0.0000000E+00; -4.8913078E+00;0; -1.3366813E-02;  1.4650319E+04;  0.0000000E+00; -7.2412550E-01;  4.0000000E+04;  0.0000000E+00;  3.9646617E+04; -3.5046671E-02;  0.0000000E+00;  2.1679858E-02;  1.2896927E+03;
  8.4111756E-01;  9.9999998E-03;  1.7073619E-01;7373; -2.1941422E-02;  0.0000000E+00;  5.5942736E-03;  9.9887671E+02;  1.6575176E-01; -9.3064026E+02;3;  1.0877101E+00;  0.0000000E+00; -5.1103582E+00;0; -1.3043165E-02;  1.4651098E+04;  0.0000000E+00; -7.1425414E-01;  4.0000000E+04;  0.0000000E+00;  3.9648320E+04; -3.2350264E-02;  0.0000000E+00;  1.9307099E-02;  1.0390481E+03;
  8.4237683E-01;  9.9999998E-03;  2.3107520E-01;7379; -1.9839553E-02;  0.0000000E+00;  6.2754778E-03;  9.9837482E+02;  1.6596593E-01; -1.3464309E+03;3;  9.1951567E-01;  0.0000000E+00; -5.9930859E+00;0; -1.1802467E-02;  1.4573952E+04;  0.0000000E+00;  6.2567836E-01;  4.0000000E+04;  0.0000000E+00;  3.9659488E+04; -1.7761208E-02;  0.0000000E+00;  5.9587411E-03;  2.9602644E+03;
  8.4124094E-01;  9.9999998E-03;  1.8076226E-01;7374; -2.1594316E-02;  0.0000000E+00;  5.7468466E-03;  9.9893866E+02;  1.6578287E-01; -8.7928369E+02;3;  1.0272146E+00;  0.0000000E+00; -5.3087716E+00;0; -1.2735460E-02;  1.4642141E+04;  0.0000000E+00; -7.0548582E-01;  4.0000000E+04;  0.0000000E+00;  3.9650652E+04; -2.9674806E-02;  0.0000000E+00;  1.6939346E-02;  7.7530206E+02;
  8.4145617E-01;  9.9999998E-03;  1.9079828E-01;7375; -2.1231648E-02;  0.0000000E+00;  5.9069684E-03;  9.9896490E+02;  1.6583617E-01; -8.5755591E+02;3;  9.8335934E-01;  0.0000000E+00; -5.4695363E+00;0; -1.2441535E-02;  1.4627938E+04;  0.0000000E+00; -6.5952975E-01;  4.0000000E+04;  0.0000000E+00;  3.9654059E+04; -2.7046759E-02;  0.0000000E+00;  1.4605224E-02;  5.7690723E+02;
  8.4218210E-01;  9.9999998E-03;  2.2101296E-01;7378; -2.0101989E-02;  0.0000000E+00;  6.3674259E-03;  9.9867047E+02;  1.6594769E-01; -1.1014996E+03;3;  8.9400989E-01;  0.0000000E+00; -5.9411697E+00;0; -1.1568145E-02;  1.4585912E+04;  0.0000000E+00;  1.1345333E-01;  4.0000000E+04;  0.0000000E+00;  3.9662031E+04; -1.9807011E-02;  0.0000000E+00;  8.2388660E-03;  1.9941268E+03;
  8.4170526E-01;  9.9999998E-03;  2.0083931E-01;7376; -2.0841802E-02;  0.0000000E+00;  6.0987342E-03;  9.9895746E+02;  1.6588798E-01; -8.6372858E+02;3;  9.5456648E-01;  0.0000000E+00; -5.6248860E+00;0; -1.2144143E-02;  1.4612618E+04;  0.0000000E+00; -5.3002119E-01;  4.0000000E+04;  0.0000000E+00;  3.9659617E+04; -2.4500627E-02;  0.0000000E+00;  1.2356484E-02;  8.8728241E+02;
  8.4194636E-01;  9.9999998E-03;  2.1091096E-01;7377; -2.0443631E-02;  0.0000000E+00;  6.3038645E-03;  9.9888177E+02;  1.6592273E-01; -9.2644287E+02;3;  8.9972532E-01;  0.0000000E+00; -5.8035631E+00;0; -1.1797497E-02;  1.4598994E+04;  0.0000000E+00; -2.7717009E-01;  4.0000000E+04;  0.0000000E+00;  3.9663727E+04; -2.2071229E-02;  0.0000000E+00;  1.0273732E-02;  1.5468505E+03;
  8.6007613E-01;  9.9999998E-03;  7.0438147E-02;7424; -2.6628651E-02;  0.0000000E+00;  2.7364001E-03;  9.9889282E+02;  1.7421354E-01; -9.1725793E+02;3;  2.2916853E+00;  0.0000000E+00; -2.5978875E+00;0; -1.9452184E-02;  1.3318032E+04;  0.0000000E+00; -4.4274640E-01;  4.0000000E+04;  0.0000000E+00;  3.9609273E+04; -5.7559229E-02;  0.0000000E+00;  3.8107045E-02;  1.8011036E+03;
  8.6016017E-01;  9.9999998E-03;  8.0550581E-02;7425; -2.6280398E-02;  0.0000000E+00;  3.1066721E-03;  9.9888623E+02;  1.7423300E-01; -9.2273926E+02;3;  2.2109141E+00;  0.0000000E+00; -2.9539185E+00;0; -1.8226571E-02;  1.3310712E+04;  0.0000000E+00; -5.5674738E-01;  4.0000000E+04;  0.0000000E+00;  3.9610648E+04; -5.5645399E-02;  0.0000000E+00;  3.7418827E-02;  1.9411614E+03;
  8.6026394E-01;  9.9999998E-03;  9.0636149E-02;7426; -2.5899086E-02;  0.0000000E+00;  3.4881991E-03;  9.9890399E+02;  1.7426743E-01; -9.0802362E+02;3;  2.1228623E+00;  0.0000000E+00; -3.2858839E+00;0; -1.6991112E-02;  1.3301633E+04;  0.0000000E+00; -6.6096944E-01;  4.0000000E+04;  0.0000000E+00;  3.9612230E+04; -5.3506572E-02;  0.0000000E+00;  3.6515459E-02;  2.0683684E+03;
  8.6037683E-01;  9.9999998E-03;  1.0070921E-01;7427; -2.5487276E-02;  0.0000000E+00;  3.8824903E-03;  9.9893903E+02;  1.7430921E-01; -8.7898743E+02;3;  2.0384684E+00;  0.0000000E+00; -3.5968029E+00;0; -1.5783787E-02;  1.3291535E+04;  0.0000000E+00; -7.4065053E-01;  4.0000000E+04;  0.0000000E+00;  3.9613348E+04; -5.1157609E-02;  0.0000000E+00;  3.5373822E-02;  2.1302771E+03;
  8.6044216E-01;  9.9999998E-03;  1.1075661E-01;7428; -2.5059531E-02;  0.0000000E+00;  4.2619826E-03;  9.9898981E+02;  1.7433612E-01; -8.3691455E+02;3;  1.9370775E+00;  0.0000000E+00; -3.9409883E+00;0; -1.4641833E-02;  1.3284535E+04;  0.0000000E+00; -7.8555912E-01;  4.0000000E+04;  0.0000000E+00;  3.9613531E+04; -4.8622988E-02;  0.0000000E+00;  3.3981156E-02;  2.0632700E+03;
  8.6039978E-01;  9.9999998E-03;  1.2080307E-01;7429; -2.4623806E-02;  0.0000000E+00;  4.6110544E-03;  9.9904565E+02;  1.7432062E-01; -7.9064423E+02;3;  1.8476168E+00;  0.0000000E+00; -4.2545676E+00;0; -1.3590135E-02;  1.3284423E+04;  0.0000000E+00; -7.9566115E-01;  4.0000000E+04;  0.0000000E+00;  3.9613039E+04; -4.5921054E-02;  0.0000000E+00;  3.2330919E-02;  1.8567629E+03;
  8.6019212E-01;  9.9999998E-03;  1.3084441E-01;7430; -2.4183156E-02;  0.0000000E+00;  4.9225944E-03;  9.9910162E+02;  1.7424043E-01; -7.4427521E+02;3;  1.7549716E+00;  0.0000000E+00; -4.5435033E+00;0; -1.2650743E-02;  1.3294372E+04;  0.0000000E+00; -7.8380972E-01;  4.0000000E+04;  0.0000000E+00;  3.9612281E+04; -4.3080855E-02;  0.0000000E+00;  3.0430112E-02;  1.5772737E+03;
  8.5998988E-01;  9.9999998E-03;  1.4089847E-01;7431; -2.3752732E-02;  0.0000000E+00;  5.1961532E-03;  9.9916229E+02;  1.7416249E-01; -6.9400500E+02;3;  1.6595552E+00;  0.0000000E+00; -4.7950320E+00;0; -1.1815798E-02;  1.3304392E+04;  0.0000000E+00; -7.7552927E-01;  4.0000000E+04;  0.0000000E+00;  3.9611996E+04; -4.0132146E-02;  0.0000000E+00;  2.8316349E-02;  1.3248446E+03;
  8.5983449E-01;  9.9999998E-03;  1.5094338E-01;7432; -2.3336682E-02;  0.0000000E+00;  5.4374575E-03;  9.9922992E+02;  1.7409915E-01; -6.3800659E+02;3;  1.5802449E+00;  0.0000000E+00; -5.0114450E+00;0; -1.1084696E-02;  1.3312128E+04;  0.0000000E+00; -8.0093724E-01;  4.0000000E+04;  0.0000000E+00;  3.9611961E+04; -3.7108015E-02;  0.0000000E+00;  2.6023319E-02;  1.1569437E+03;
  8.5974270E-01;  9.9999998E-03;  1.6097493E-01;7433; -2.2932412E-02;  0.0000000E+00;  5.6512807E-03;  9.9928790E+02;  1.7405540E-01; -5.8995856E+02;3;  1.4903851E+00;  0.0000000E+00; -5.2710991E+00;0; -1.0438759E-02;  1.3316410E+04;  0.0000000E+00; -8.8170874E-01;  4.0000000E+04;  0.0000000E+00;  3.9612684E+04; -3.4033567E-02;  0.0000000E+00;  2.3594808E-02;  1.0573035E+03;
  8.5970950E-01;  9.9999998E-03;  1.7099336E-01;7434; -2.2535050E-02;  0.0000000E+00;  5.8328938E-03;  9.9932697E+02;  1.7402758E-01; -5.5761383E+02;3;  1.4090488E+00;  0.0000000E+00; -5.4800901E+00;0; -9.8478049E-03;  1.3317765E+04;  0.0000000E+00; -1.0161208E+00;  4.0000000E+04;  0.0000000E+00;  3.9613746E+04; -3.0932765E-02;  0.0000000E+00;  2.1084961E-02;  1.0499462E+03;
  8.5969019E-01;  9.9999998E-03;  1.8100604E-01;7435; -2.2132639E-02;  0.0000000E+00;  6.0073892E-03;  9.9932483E+02;  1.7399618E-01; -5.5934216E+02;3;  1.3224827E+00;  0.0000000E+00; -5.6606288E+00;0; -9.2942845E-03;  1.3318990E+04;  0.0000000E+00; -1.1708876E+00;  4.0000000E+04;  0.0000000E+00;  3.9615652E+04; -2.7832035E-02;  0.0000000E+00;  1.8537750E-02;  1.1940543E+03;
  8.5964364E-01;  9.9999998E-03;  1.9102383E-01;7436; -2.1712989E-02;  0.0000000E+00;  6.1878264E-03;  9.9927075E+02;  1.7393924E-01; -6.0418042E+02;3;  1.2438610E+00;  0.0000000E+00; -5.8352933E+00;0; -8.7690838E-03;  1.3322692E+04;  0.0000000E+00; -1.2855613E+00;  4.0000000E+04;  0.0000000E+00;  3.9617840E+04; -2.4762519E-02;  0.0000000E+00;  1.5993435E-02;  1.3920844E+03;
  8.5950094E-01;  9.9999998E-03;  2.0104034E-01;7437; -2.1281367E-02;  0.0000000E+00;  6.3675754E-03;  9.9916339E+02;  1.7383799E-01; -6.9311615E+02;3;  1.1634407E+00;  0.0000000E+00; -6.0087919E+00;0; -8.2790349E-03;  1.3332088E+04;  0.0000000E+00; -1.2788615E+00;  4.0000000E+04;  0.0000000E+00;  3.9621324E+04; -2.1778701E-02;  0.0000000E+00;  1.3499666E-02;  1.4001700E+03;
  8.5932171E-01;  9.9999998E-03;  2.1106803E-01;7438; -2.0847196E-02;  0.0000000E+00;  6.5437336E-03;  9.9900610E+02;  1.7371903E-01; -8.2343341E+02;3;  1.1144488E+00;  0.0000000E+00; -6.1570129E+00;0; -7.7849962E-03;  1.3343321E+04;  0.0000000E+00; -1.0862566E+00;  4.0000000E+04;  0.0000000E+00;  3.9625609E+04; -1.8916767E-02;  0.0000000E+00;  1.1131771E-02;  1.1357787E+03;
  8.5914856E-01;  9.9999998E-03;  2.2112258E-01;7439; -2.0458477E-02;  0.0000000E+00;  6.6284002E-03;  9.9875244E+02;  1.7360125E-01; -1.0336003E+03;3;  1.0710695E+00;  0.0000000E+00; -6.3034134E+00;0; -7.3763421E-03;  1.3353283E+04;  0.0000000E+00; -6.7798233E-01;  4.0000000E+04;  0.0000000E+00;  3.9627535E+04; -1.6222898E-02;  0.0000000E+00;  8.8465558E-03;  8.4502368E+02;
  8.5899854E-01;  9.9999998E-03;  2.3116234E-01;7440; -2.0147653E-02;  0.0000000E+00;  6.6240258E-03;  9.9845636E+02;  1.7350245E-01; -1.2788773E+03;3;  1.0472007E+00;  0.0000000E+00; -6.3938956E+00;0; -7.2059049E-03;  1.3360243E+04;  0.0000000E+00; -8.0649853E-02;  4.0000000E+04;  0.0000000E+00;  3.9630012E+04; -1.3752393E-02;  0.0000000E+00;  6.5464885E-03;  1.8590415E+03;
  8.7745565E-01;  9.9999998E-03;  7.0419826E-02;7485; -2.7635451E-02;  0.0000000E+00;  2.7548950E-03;  9.9953369E+02;  1.8259530E-01; -3.8631003E+02;3;  2.8563273E+00;  0.0000000E+00; -2.7377493E+00;0; -1.9658197E-02;  1.2157577E+04;  0.0000000E+00; -3.0939960E-01;  4.0000000E+04;  0.0000000E+00;  3.9578367E+04; -5.9153017E-02;  0.0000000E+00;  3.9494820E-02;  1.3188784E+03;
  8.7750667E-01;  9.9999998E-03;  8.0534823E-02;7486; -2.7249904E-02;  0.0000000E+00;  3.1538485E-03;  9.9950629E+02;  1.8260297E-01; -4.0902545E+02;3;  2.7491689E+00;  0.0000000E+00; -3.1001813E+00;0; -1.8132258E-02;  1.2151194E+04;  0.0000000E+00; -4.0376484E-01;  4.0000000E+04;  0.0000000E+00;  3.9579398E+04; -5.7131756E-02;  0.0000000E+00;  3.8999498E-02;  1.3464193E+03;
  8.7761992E-01;  9.9999998E-03;  9.0628244E-02;7487; -2.6829489E-02;  0.0000000E+00;  3.5642460E-03;  9.9950665E+02;  1.8264329E-01; -4.0872916E+02;3;  2.6484706E+00;  0.0000000E+00; -3.4649649E+00;0; -1.6578645E-02;  1.2140959E+04;  0.0000000E+00; -4.9541551E-01;  4.0000000E+04;  0.0000000E+00;  3.9580719E+04; -5.4861858E-02;  0.0000000E+00;  3.8283214E-02;  1.3673658E+03;
  8.7776697E-01;  9.9999998E-03;  1.0069750E-01;7488; -2.6375100E-02;  0.0000000E+00;  3.9863894E-03;  9.9953583E+02;  1.8270209E-01; -3.8458170E+02;3;  2.5500042E+00;  0.0000000E+00; -3.8089631E+00;0; -1.5041284E-02;  1.2128814E+04;  0.0000000E+00; -5.7214618E-01;  4.0000000E+04;  0.0000000E+00;  3.9581043E+04; -5.2355994E-02;  0.0000000E+00;  3.7314709E-02;  1.3510853E+03;
  8.7790173E-01;  9.9999998E-03;  1.1075687E-01;7489; -2.5894390E-02;  0.0000000E+00;  4.4083553E-03;  9.9957953E+02;  1.8275839E-01; -3.4833582E+02;3;  2.4321518E+00;  0.0000000E+00; -4.1652536E+00;0; -1.3555486E-02;  1.2117635E+04;  0.0000000E+00; -6.2593985E-01;  4.0000000E+04;  0.0000000E+00;  3.9581035E+04; -4.9626026E-02;  0.0000000E+00;  3.6070541E-02;  1.2539763E+03;
  8.7798083E-01;  9.9999998E-03;  1.2081139E-01;7490; -2.5409937E-02;  0.0000000E+00;  4.7933455E-03;  9.9964001E+02;  1.8279004E-01; -2.9826315E+02;3;  2.3062022E+00;  0.0000000E+00; -4.5269489E+00;0; -1.2149587E-02;  1.2110465E+04;  0.0000000E+00; -6.5850365E-01;  4.0000000E+04;  0.0000000E+00;  3.9579766E+04; -4.6692424E-02;  0.0000000E+00;  3.4542836E-02;  1.1131140E+03;
  8.7797022E-01;  9.9999998E-03;  1.3086796E-01;7491; -2.4921425E-02;  0.0000000E+00;  5.1360284E-03;  9.9970667E+02;  1.8278028E-01; -2.4300545E+02;3;  2.1953857E+00;  0.0000000E+00; -4.8271637E+00;0; -1.0841072E-02;  1.2109454E+04;  0.0000000E+00; -6.8454522E-01;  4.0000000E+04;  0.0000000E+00;  3.9578277E+04; -4.3574844E-02;  0.0000000E+00;  3.2733772E-02;  1.0566227E+03;
  8.7788326E-01;  9.9999998E-03;  1.4092390E-01;7492; -2.4433289E-02;  0.0000000E+00;  5.4420023E-03;  9.9978882E+02;  1.8273579E-01; -1.7495801E+02;3;  2.0882246E+00;  0.0000000E+00; -5.0797911E+00;0; -9.6420534E-03;  1.2113821E+04;  0.0000000E+00; -7.2948748E-01;  4.0000000E+04;  0.0000000E+00;  3.9576848E+04; -4.0301986E-02;  0.0000000E+00;  3.0659933E-02;  1.1457754E+03;
  8.7775201E-01;  9.9999998E-03;  1.5097389E-01;7493; -2.3954423E-02;  0.0000000E+00;  5.7125734E-03;  9.9987274E+02;  1.8266758E-01; -1.0542911E+02;3;  1.9770863E+00;  0.0000000E+00; -5.3210006E+00;0; -8.5572135E-03;  1.2121659E+04;  0.0000000E+00; -8.2120681E-01;  4.0000000E+04;  0.0000000E+00;  3.9576172E+04; -3.6904689E-02;  0.0000000E+00;  2.8347475E-02;  1.2498833E+03;
  8.7762123E-01;  9.9999998E-03;  1.6101259E-01;7494; -2.3486167E-02;  0.0000000E+00;  5.9425198E-03;  9.9994739E+02;  1.8259653E-01; -4.3603703E+01;3;  1.8529359E+00;  0.0000000E+00; -5.5935464E+00;0; -7.5651743E-03;  1.2129850E+04;  0.0000000E+00; -9.7822773E-01;  4.0000000E+04;  0.0000000E+00;  3.9576543E+04; -3.3410378E-02;  0.0000000E+00;  2.5845204E-02;  1.2676973E+03;
  8.7755406E-01;  9.9999998E-03;  1.7104067E-01;7495; -2.3023438E-02;  0.0000000E+00;  6.1486932E-03;  9.9999097E+02;  1.8255207E-01; -7.5059600E+00;3;  1.7410147E+00;  0.0000000E+00; -5.7859612E+00;0; -6.6196751E-03;  1.2134546E+04;  0.0000000E+00; -1.1973238E+00;  4.0000000E+04;  0.0000000E+00;  3.9577328E+04; -2.9839706E-02;  0.0000000E+00;  2.3220031E-02;  1.3108708E+03;
  8.7754488E-01;  9.9999998E-03;  1.8106270E-01;7496; -2.2556977E-02;  0.0000000E+00;  6.3550351E-03;  9.9999835E+02;  1.8252812E-01; -1.3826768E+00;3;  1.6335565E+00;  0.0000000E+00; -5.9774370E+00;0; -5.6837741E-03;  1.2135929E+04;  0.0000000E+00; -1.4441626E+00;  4.0000000E+04;  0.0000000E+00;  3.9578770E+04; -2.6213111E-02;  0.0000000E+00;  2.0529337E-02;  1.5886017E+03;
  8.7755364E-01;  9.9999998E-03;  1.9108738E-01;7497; -2.2074910E-02;  0.0000000E+00;  6.5729697E-03;  9.9994171E+02;  1.8250306E-01; -4.8294926E+01;3;  1.5278473E+00;  0.0000000E+00; -6.1608300E+00;0; -4.7343448E-03;  1.2136624E+04;  0.0000000E+00; -1.6576921E+00;  4.0000000E+04;  0.0000000E+00;  3.9580922E+04; -2.2557570E-02;  0.0000000E+00;  1.7823225E-02;  2.0264220E+03;
  8.7756199E-01;  9.9999998E-03;  2.0112057E-01;7498; -2.1580873E-02;  0.0000000E+00;  6.7995642E-03;  9.9982281E+02;  1.8246873E-01; -1.4681065E+02;3;  1.4322965E+00;  0.0000000E+00; -6.3378706E+00;0; -3.7474884E-03;  1.2137570E+04;  0.0000000E+00; -1.7660364E+00;  4.0000000E+04;  0.0000000E+00;  3.9583930E+04; -1.8913468E-02;  0.0000000E+00;  1.5165980E-02;  2.3376602E+03;
  8.7755668E-01;  9.9999998E-03;  2.1116118E-01;7499; -2.1081688E-02;  0.0000000E+00;  7.0206616E-03;  9.9962866E+02;  1.8241715E-01; -3.0764560E+02;3;  1.3608000E+00;  0.0000000E+00; -6.5122380E+00;0; -2.6840782E-03;  1.2139042E+04;  0.0000000E+00; -1.7079399E+00;  4.0000000E+04;  0.0000000E+00;  3.9587754E+04; -1.5332830E-02;  0.0000000E+00;  1.2648752E-02;  2.3050369E+03;
  8.7753415E-01;  9.9999998E-03;  2.2122607E-01;7500; -2.0661827E-02;  0.0000000E+00;  7.1147806E-03;  9.9932550E+02;  1.8235548E-01; -5.5879895E+02;3;  1.2463815E+00;  0.0000000E+00; -6.6568375E+00;0; -1.7082123E-03;  1.2140688E+04;  0.0000000E+00; -1.4482007E+00;  4.0000000E+04;  0.0000000E+00;  3.9589129E+04; -1.1896002E-02;  0.0000000E+00;  1.0187790E-02;  1.8164241E+03;
  8.7744063E-01;  9.9999998E-03;  2.3128077E-01;7501; -2.0360049E-02;  0.0000000E+00;  7.0517831E-03;  9.9894299E+02;  1.8226853E-01; -8.7572827E+02;3;  1.2024074E+00;  0.0000000E+00; -6.7470675E+00;0; -1.1714883E-03;  1.2145030E+04;  0.0000000E+00; -9.8767573E-01;  4.0000000E+04;  0.0000000E+00;  3.9589824E+04; -8.7023294E-03;  0.0000000E+00;  7.5308410E-03;  9.5641925E+02;
  8.9639181E-01;  9.9999998E-03;  7.0381507E-02;7546; -2.8758651E-02;  0.0000000E+00;  2.7484633E-03;  9.9955670E+02;  1.9196421E-01; -3.6724881E+02;3;  3.5203159E+00;  0.0000000E+00; -2.8564477E+00;0; -2.0480528E-02;  1.1009773E+04;  0.0000000E+00; -1.6590817E-01;  4.0000000E+04;  0.0000000E+00;  3.9544605E+04; -6.1464712E-02;  0.0000000E+00;  4.0984184E-02;  8.7394098E+02;
  8.9653414E-01;  9.9999998E-03;  8.0489896E-02;7547; -2.8336968E-02;  0.0000000E+00;  3.1823581E-03;  9.9953271E+02;  1.9201675E-01; -3.8714948E+02;3;  3.4012501E+00;  0.0000000E+00; -3.2617536E+00;0; -1.8643726E-02;  1.0999008E+04;  0.0000000E+00; -2.3575824E-01;  4.0000000E+04;  0.0000000E+00;  3.9545512E+04; -5.9357688E-02;  0.0000000E+00;  4.0713962E-02;  7.2821564E+02;
  8.9666462E-01;  9.9999998E-03;  9.0569377E-02;7548; -2.7868804E-02;  0.0000000E+00;  3.6346898E-03;  9.9954425E+02;  1.9206360E-01; -3.7756952E+02;3;  3.2734489E+00;  0.0000000E+00; -3.6642053E+00;0; -1.6753275E-02;  1.0989023E+04;  0.0000000E+00; -3.1265432E-01;  4.0000000E+04;  0.0000000E+00;  3.9546551E+04; -5.6963526E-02;  0.0000000E+00;  4.0210251E-02;  5.8130865E+02;
  8.9676291E-01;  9.9999998E-03;  1.0062302E-01;7549; -2.7357779E-02;  0.0000000E+00;  4.1006738E-03;  9.9957440E+02;  1.9209443E-01; -3.5258258E+02;3;  3.1459920E+00;  0.0000000E+00; -4.0302629E+00;0; -1.4858950E-02;  1.0981112E+04;  0.0000000E+00; -3.9068404E-01;  4.0000000E+04;  0.0000000E+00;  3.9546645E+04; -5.4291107E-02;  0.0000000E+00;  3.9432157E-02;  4.9163556E+02;
  8.9680254E-01;  9.9999998E-03;  1.1065917E-01;7550; -2.6809817E-02;  0.0000000E+00;  4.5653200E-03;  9.9963007E+02;  1.9210123E-01; -3.0646042E+02;3;  3.0145190E+00;  0.0000000E+00; -4.3883395E+00;0; -1.3000324E-02;  1.0976795E+04;  0.0000000E+00; -4.6657613E-01;  4.0000000E+04;  0.0000000E+00;  3.9546465E+04; -5.1351555E-02;  0.0000000E+00;  3.8351230E-02;  5.3175739E+02;
  8.9674807E-01;  9.9999998E-03;  1.2070650E-01;7551; -2.6242027E-02;  0.0000000E+00;  5.0050700E-03;  9.9969470E+02;  1.9206530E-01; -2.5293108E+02;3;  2.8494697E+00;  0.0000000E+00; -4.7537532E+00;0; -1.1204414E-02;  1.0978301E+04;  0.0000000E+00; -5.4261899E-01;  4.0000000E+04;  0.0000000E+00;  3.9545047E+04; -4.8154246E-02;  0.0000000E+00;  3.6949832E-02;  7.3942938E+02;
  8.9660454E-01;  9.9999998E-03;  1.3077350E-01;7552; -2.5675341E-02;  0.0000000E+00;  5.3871023E-03;  9.9978217E+02;  1.9198895E-01; -1.8048869E+02;3;  2.6988337E+00;  0.0000000E+00; -5.0832291E+00;0; -9.4926953E-03;  1.0985342E+04;  0.0000000E+00; -6.2776226E-01;  4.0000000E+04;  0.0000000E+00;  3.9543152E+04; -4.4721860E-02;  0.0000000E+00;  3.5229165E-02;  1.0453121E+03;
  8.9641845E-01;  9.9999998E-03;  1.4085092E-01;7553; -2.5106179E-02;  0.0000000E+00;  5.7307878E-03;  9.9988135E+02;  1.9189326E-01; -9.8318192E+01;3;  2.5609336E+00;  0.0000000E+00; -5.3274550E+00;0; -7.8785866E-03;  1.0995789E+04;  0.0000000E+00; -7.3604387E-01;  4.0000000E+04;  0.0000000E+00;  3.9541449E+04; -4.1083835E-02;  0.0000000E+00;  3.3205248E-02;  1.3365417E+03;
  8.9623815E-01;  9.9999998E-03;  1.5092514E-01;7554; -2.4540724E-02;  0.0000000E+00;  6.0467273E-03;  1.0000042E+03;  1.9179833E-01;  3.4566917E+00;3;  2.4345653E+00;  0.0000000E+00; -5.5584621E+00;0; -6.3647926E-03;  1.1006956E+04;  0.0000000E+00; -8.8159305E-01;  4.0000000E+04;  0.0000000E+00;  3.9539883E+04; -3.7270270E-02;  0.0000000E+00;  3.0905478E-02;  1.5200515E+03;
  8.9611864E-01;  9.9999998E-03;  1.6098972E-01;7555; -2.3985757E-02;  0.0000000E+00;  6.3211727E-03;  1.0001326E+03;  1.9173136E-01;  1.0982404E+02;3;  2.2741189E+00;  0.0000000E+00; -5.8461089E+00;0; -4.9236752E-03;  1.1015741E+04;  0.0000000E+00; -1.0717046E+00;  4.0000000E+04;  0.0000000E+00;  3.9539551E+04; -3.3303857E-02;  0.0000000E+00;  2.8380182E-02;  1.5891597E+03;
  8.9607978E-01;  9.9999998E-03;  1.7104420E-01;7556; -2.3443466E-02;  0.0000000E+00;  6.5608141E-03;  1.0002523E+03;  1.9170290E-01;  2.0908047E+02;3;  2.1379280E+00;  0.0000000E+00; -6.0462108E+00;0; -3.5092346E-03;  1.1020397E+04;  0.0000000E+00; -1.2981775E+00;  4.0000000E+04;  0.0000000E+00;  3.9539434E+04; -2.9202851E-02;  0.0000000E+00;  2.5693616E-02;  1.6829406E+03;
  8.9602578E-01;  9.9999998E-03;  1.8107051E-01;7557; -2.2897996E-02;  0.0000000E+00;  6.7988886E-03;  1.0003268E+03;  1.9167008E-01;  2.7080713E+02;3;  2.0035498E+00;  0.0000000E+00; -6.2303100E+00;0; -2.0904243E-03;  1.1025493E+04;  0.0000000E+00; -1.5291545E+00;  4.0000000E+04;  0.0000000E+00;  3.9541242E+04; -2.4996743E-02;  0.0000000E+00;  2.2906318E-02;  1.9365087E+03;
  8.9600497E-01;  9.9999998E-03;  1.9109519E-01;7558; -2.2332827E-02;  0.0000000E+00;  7.0568612E-03;  1.0003569E+03;  1.9164978E-01;  2.9569528E+02;3;  1.9067080E+00;  0.0000000E+00; -6.3905082E+00;0; -6.1584450E-04;  1.1028630E+04;  0.0000000E+00; -1.7141186E+00;  4.0000000E+04;  0.0000000E+00;  3.9544055E+04; -2.0704659E-02;  0.0000000E+00;  2.0088814E-02;  2.2773589E+03;
  8.9600968E-01;  9.9999998E-03;  2.0113945E-01;7559; -2.1735732E-02;  0.0000000E+00;  7.3569668E-03;  1.0003204E+03;  1.9163409E-01;  2.6537518E+02;3;  1.7744979E+00;  0.0000000E+00; -6.5914307E+00;0;  9.8692439E-04;  1.1030068E+04;  0.0000000E+00; -1.7950884E+00;  4.0000000E+04;  0.0000000E+00;  3.9548418E+04; -1.6353082E-02;  0.0000000E+00;  1.7340006E-02;  2.4951968E+03;
  8.9601958E-01;  9.9999998E-03;  2.1120703E-01;7560; -2.1141214E-02;  0.0000000E+00;  7.6420577E-03;  1.0001981E+03;  1.9161281E-01;  1.6404472E+02;3;  1.6835977E+00;  0.0000000E+00; -6.7468786E+00;0;  2.7613016E-03;  1.1030728E+04;  0.0000000E+00; -1.7259830E+00;  4.0000000E+04;  0.0000000E+00;  3.9552637E+04; -1.2003601E-02;  0.0000000E+00;  1.4764902E-02;  2.4096228E+03;
  8.9601606E-01;  9.9999998E-03;  2.2130680E-01;7561; -2.0651018E-02;  0.0000000E+00;  7.7650649E-03;  9.9994122E+02;  1.9158152E-01; -4.8689972E+01;3;  1.5461164E+00;  0.0000000E+00; -6.8680873E+00;0;  4.5085377E-03;  1.1031310E+04;  0.0000000E+00; -1.4855441E+00;  4.0000000E+04;  0.0000000E+00;  3.9552164E+04; -7.7520586E-03;  0.0000000E+00;  1.2260596E-02;  1.8912228E+03;
  8.9591181E-01;  9.9999998E-03;  2.3139164E-01;7562; -2.0333951E-02;  0.0000000E+00;  7.6365317E-03;  9.9957489E+02;  1.9151010E-01; -3.5218753E+02;3;  1.4616296E+00;  0.0000000E+00; -6.9710517E+00;0;  5.6309486E-03;  1.1035973E+04;  0.0000000E+00; -1.0890872E+00;  4.0000000E+04;  0.0000000E+00;  3.9548633E+04; -3.7323786E-03;  0.0000000E+00;  9.3633272E-03;  1.1471526E+03;
  9.1621327E-01;  9.9999998E-03;  7.0314199E-02;7607; -3.0019654E-02;  0.0000000E+00;  2.7180004E-03;  9.9880310E+02;  2.0214716E-01; -9.9162610E+02;3;  4.2716241E+00;  0.0000000E+00; -3.0014958E+00;0; -2.2091940E-02;  9.9179219E+03;  0.0000000E+00; -7.4087985E-02;  4.0000000E+04;  0.0000000E+00;  3.9507105E+04; -6.4494036E-02;  0.0000000E+00;  4.2402096E-02;  1.0709934E+03;
  9.1624379E-01;  9.9999998E-03;  8.0403797E-02;7608; -2.9550185E-02;  0.0000000E+00;  3.1855574E-03;  9.9879034E+02;  2.0215566E-01; -1.0021937E+03;3;  4.1324492E+00;  0.0000000E+00; -3.4179556E+00;0; -1.9970093E-02;  9.9134092E+03;  0.0000000E+00; -1.1823422E-01;  4.0000000E+04;  0.0000000E+00;  3.9508695E+04; -6.2266085E-02;  0.0000000E+00;  4.2295992E-02;  1.0653303E+03;
  9.1624403E-01;  9.9999998E-03;  9.0481609E-02;7609; -2.9026419E-02;  0.0000000E+00;  3.6661995E-03;  9.9880896E+02;  2.0214486E-01; -9.8673737E+02;3;  3.9689109E+00;  0.0000000E+00; -3.8393919E+00;0; -1.7759643E-02;  9.9108330E+03;  0.0000000E+00; -1.7844133E-01;  4.0000000E+04;  0.0000000E+00;  3.9510422E+04; -5.9711818E-02;  0.0000000E+00;  4.1952174E-02;  1.1251367E+03;
  9.1620374E-01;  9.9999998E-03;  1.0054161E-01;7610; -2.8447753E-02;  0.0000000E+00;  4.1660564E-03;  9.9885480E+02;  2.0211077E-01; -9.4876312E+02;3;  3.8052387E+00;  0.0000000E+00; -4.2377191E+00;0; -1.5514165E-02;  9.9109648E+03;  0.0000000E+00; -2.5789815E-01;  4.0000000E+04;  0.0000000E+00;  3.9511664E+04; -5.6837842E-02;  0.0000000E+00;  4.1323677E-02;  1.2223905E+03;
  9.1610980E-01;  9.9999998E-03;  1.1058325E-01;7611; -2.7823683E-02;  0.0000000E+00;  4.6707676E-03;  9.9891309E+02;  2.0204788E-01; -9.0046820E+02;3;  3.6333742E+00;  0.0000000E+00; -4.5772448E+00;0; -1.3277743E-02;  9.9146084E+03;  0.0000000E+00; -3.5874662E-01;  4.0000000E+04;  0.0000000E+00;  3.9511969E+04; -5.3656839E-02;  0.0000000E+00;  4.0379096E-02;  1.2915765E+03;
  9.1593665E-01;  9.9999998E-03;  1.2063855E-01;7612; -2.7167417E-02;  0.0000000E+00;  5.1617669E-03;  9.9900513E+02;  2.0194362E-01; -8.2422345E+02;3;  3.4625406E+00;  0.0000000E+00; -4.9082642E+00;0; -1.1077628E-02;  9.9232832E+03;  0.0000000E+00; -4.8093319E-01;  4.0000000E+04;  0.0000000E+00;  3.9511070E+04; -5.0175808E-02;  0.0000000E+00;  3.9098181E-02;  1.3025337E+03;
  9.1570091E-01;  9.9999998E-03;  1.3070855E-01;7613; -2.6496122E-02;  0.0000000E+00;  5.6148823E-03;  9.9911603E+02;  2.0180704E-01; -7.3237427E+02;3;  3.2757092E+00;  0.0000000E+00; -5.2201586E+00;0; -8.9397579E-03;  9.9362471E+03;  0.0000000E+00; -6.2152648E-01;  4.0000000E+04;  0.0000000E+00;  3.9509551E+04; -4.6420194E-02;  0.0000000E+00;  3.7480436E-02;  1.2876931E+03;
  9.1544563E-01;  9.9999998E-03;  1.4078531E-01;7614; -2.5829552E-02;  0.0000000E+00;  6.0170353E-03;  9.9925012E+02;  2.0166151E-01; -6.2126630E+02;3;  3.0834816E+00;  0.0000000E+00; -5.5262632E+00;0; -6.8838261E-03;  9.9512734E+03;  0.0000000E+00; -7.7489036E-01;  4.0000000E+04;  0.0000000E+00;  3.9507523E+04; -4.2422924E-02;  0.0000000E+00;  3.5539098E-02;  1.3074177E+03;
  9.1522276E-01;  9.9999998E-03;  1.5086281E-01;7615; -2.5170164E-02;  0.0000000E+00;  6.3742418E-03;  9.9940399E+02;  2.0153484E-01; -4.9376373E+02;3;  2.9156516E+00;  0.0000000E+00; -5.7764711E+00;0; -4.9146190E-03;  9.9655859E+03;  0.0000000E+00; -9.3331587E-01;  4.0000000E+04;  0.0000000E+00;  3.9505656E+04; -3.8211271E-02;  0.0000000E+00;  3.3296652E-02;  1.3853839E+03;
  9.1508245E-01;  9.9999998E-03;  1.6093765E-01;7616; -2.4522355E-02;  0.0000000E+00;  6.6845790E-03;  9.9957013E+02;  2.0144722E-01; -3.5613803E+02;3;  2.7423069E+00;  0.0000000E+00; -6.0344887E+00;0; -3.0064508E-03;  9.9764795E+03;  0.0000000E+00; -1.0875733E+00;  4.0000000E+04;  0.0000000E+00;  3.9504211E+04; -3.3804853E-02;  0.0000000E+00;  3.0798402E-02;  1.4963036E+03;
  9.1505158E-01;  9.9999998E-03;  1.7100498E-01;7617; -2.3889638E-02;  0.0000000E+00;  6.9531184E-03;  9.9972827E+02;  2.0141883E-01; -2.2512939E+02;3;  2.5855012E+00;  0.0000000E+00; -6.2267098E+00;0; -1.1107940E-03;  9.9822256E+03;  0.0000000E+00; -1.2256888E+00;  4.0000000E+04;  0.0000000E+00;  3.9503750E+04; -2.9221641E-02;  0.0000000E+00;  2.8110847E-02;  1.6099580E+03;
  9.1515321E-01;  9.9999998E-03;  1.8106265E-01;7618; -2.3252629E-02;  0.0000000E+00;  7.2199837E-03;  9.9986737E+02;  2.0145491E-01; -1.0987342E+02;3;  2.4658008E+00;  0.0000000E+00; -6.3740630E+00;0;  8.3040074E-04;  9.9815098E+03;  0.0000000E+00; -1.3311516E+00;  4.0000000E+04;  0.0000000E+00;  3.9504844E+04; -2.4480240E-02;  0.0000000E+00;  2.5310641E-02;  1.6906962E+03;
  9.1540790E-01;  9.9999998E-03;  1.9111769E-01;7619; -2.2586565E-02;  0.0000000E+00;  7.5289933E-03;  9.9996844E+02;  2.0156552E-01; -2.6122713E+01;3;  2.3283501E+00;  0.0000000E+00; -6.5208197E+00;0;  2.8850120E-03;  9.9731523E+03;  0.0000000E+00; -1.3836784E+00;  4.0000000E+04;  0.0000000E+00;  3.9507539E+04; -1.9600237E-02;  0.0000000E+00;  2.2485249E-02;  1.6797512E+03;
  9.1580856E-01;  9.9999998E-03;  2.0118564E-01;7620; -2.1878520E-02;  0.0000000E+00;  7.8975335E-03;  1.0000146E+03;  2.0174268E-01;  1.2049040E+01;3;  2.2412033E+00;  0.0000000E+00; -6.6568718E+00;0;  5.1469607E-03;  9.9573262E+03;  0.0000000E+00; -1.3675163E+00;  4.0000000E+04;  0.0000000E+00;  3.9511688E+04; -1.4608123E-02;  0.0000000E+00;  1.9755084E-02;  1.5903229E+03;
  9.1614383E-01;  9.9999998E-03;  2.1126767E-01;7621; -2.1150185E-02;  0.0000000E+00;  8.2841758E-03;  9.9997003E+02;  2.0188937E-01; -2.4838800E+01;3;  2.1430800E+00;  0.0000000E+00; -6.7870979E+00;0;  7.7015450E-03;  9.9431895E+03;  0.0000000E+00; -1.2795924E+00;  4.0000000E+04;  0.0000000E+00;  3.9515840E+04; -9.5667699E-03;  0.0000000E+00;  1.7268315E-02;  1.5000724E+03;
  9.1633731E-01;  9.9999998E-03;  2.2138408E-01;7622; -2.0537166E-02;  0.0000000E+00;  8.4676500E-03;  9.9975659E+02;  2.0197231E-01; -2.0167328E+02;3;  2.0747378E+00;  0.0000000E+00; -6.8861814E+00;0;  1.0306628E-02;  9.9337686E+03;  0.0000000E+00; -1.1187655E+00;  4.0000000E+04;  0.0000000E+00;  3.9515629E+04; -4.5667598E-03;  0.0000000E+00;  1.4873388E-02;  1.2555707E+03;
  9.1638815E-01;  9.9999998E-03;  2.3148578E-01;7623; -2.0123489E-02;  0.0000000E+00;  8.3684912E-03;  9.9942847E+02;  2.0199525E-01; -4.7351740E+02;3;  1.9441704E+00;  0.0000000E+00; -6.9774170E+00;0;  1.2398710E-02;  9.9297324E+03;  0.0000000E+00; -9.0292537E-01;  4.0000000E+04;  0.0000000E+00;  3.9511762E+04;  2.8241330E-04;  0.0000000E+00;  1.2116296E-02;  9.4749628E+02;
  9.3824953E-01;  9.9999998E-03;  7.0580915E-02;7668; -3.1530324E-02;  0.0000000E+00;  2.7077708E-03;  9.9822021E+02;  2.1395601E-01; -1.4745259E+03;3;  5.1691413E+00;  0.0000000E+00; -3.1213691E+00;0; -2.4363507E-02;  8.8456162E+03;  0.0000000E+00; -2.6880411E-02;  4.0000000E+04;  0.0000000E+00;  3.9464629E+04; -6.8053313E-02;  0.0000000E+00;  4.3689806E-02;  1.7775640E+03;
  9.3829590E-01;  9.9999998E-03;  8.0667838E-02;7669; -3.1017564E-02;  0.0000000E+00;  3.1906632E-03;  9.9824396E+02;  2.1397300E-01; -1.4548721E+03;3;  4.9791865E+00;  0.0000000E+00; -3.5665603E+00;0; -2.1990098E-02;  8.8425469E+03;  0.0000000E+00; -5.0953917E-02;  4.0000000E+04;  0.0000000E+00;  3.9467180E+04; -6.5617062E-02;  0.0000000E+00;  4.3626964E-02;  2.0325718E+03;
  9.3826652E-01;  9.9999998E-03;  9.0735324E-02;7670; -3.0438434E-02;  0.0000000E+00;  3.6852437E-03;  9.9828796E+02;  2.1394125E-01; -1.4183793E+03;3;  4.7844691E+00;  0.0000000E+00; -3.9779522E+00;0; -1.9486114E-02;  8.8432012E+03;  0.0000000E+00; -1.0117188E-01;  4.0000000E+04;  0.0000000E+00;  3.9469848E+04; -6.2814802E-02;  0.0000000E+00;  4.3328688E-02;  2.3059678E+03;
  9.3813968E-01;  9.9999998E-03;  1.0078537E-01;7671; -2.9788202E-02;  0.0000000E+00;  4.2048949E-03;  9.9834564E+02;  2.1385390E-01; -1.3706276E+03;3;  4.5848775E+00;  0.0000000E+00; -4.3639793E+00;0; -1.6906854E-02;  8.8489004E+03;  0.0000000E+00; -1.8747632E-01;  4.0000000E+04;  0.0000000E+00;  3.9472750E+04; -5.9653006E-02;  0.0000000E+00;  4.2746153E-02;  2.4653611E+03;
  9.3791658E-01;  9.9999998E-03;  1.1080069E-01;7672; -2.9074185E-02;  0.0000000E+00;  4.7462853E-03;  9.9841620E+02;  2.1370982E-01; -1.3121602E+03;3;  4.3733478E+00;  0.0000000E+00; -4.7440491E+00;0; -1.4308058E-02;  8.8595566E+03;  0.0000000E+00; -3.1182712E-01;  4.0000000E+04;  0.0000000E+00;  3.9474027E+04; -5.6157574E-02;  0.0000000E+00;  4.1849516E-02;  2.4063643E+03;
  9.3759632E-01;  9.9999998E-03;  1.2082015E-01;7673; -2.8317913E-02;  0.0000000E+00;  5.2734772E-03;  9.9850024E+02;  2.1351205E-01; -1.2425325E+03;3;  4.1462049E+00;  0.0000000E+00; -5.0846214E+00;0; -1.1720233E-02;  8.8754277E+03;  0.0000000E+00; -4.6391299E-01;  4.0000000E+04;  0.0000000E+00;  3.9474285E+04; -5.2342322E-02;  0.0000000E+00;  4.0622089E-02;  2.1143970E+03;
  9.3722564E-01;  9.9999998E-03;  1.3084929E-01;7674; -2.7539305E-02;  0.0000000E+00;  5.7678022E-03;  9.9860901E+02;  2.1329033E-01; -1.1524116E+03;3;  3.9272518E+00;  0.0000000E+00; -5.3916655E+00;0; -9.1778114E-03;  8.8944668E+03;  0.0000000E+00; -6.2104934E-01;  4.0000000E+04;  0.0000000E+00;  3.9473273E+04; -4.8240907E-02;  0.0000000E+00;  3.9063096E-02;  1.6881425E+03;
  9.3688434E-01;  9.9999998E-03;  1.4088857E-01;7675; -2.6759233E-02;  0.0000000E+00;  6.2141647E-03;  9.9873645E+02;  2.1308278E-01; -1.0468344E+03;3;  3.7085581E+00;  0.0000000E+00; -5.6552081E+00;0; -6.7068115E-03;  8.9129951E+03;  0.0000000E+00; -7.5251895E-01;  4.0000000E+04;  0.0000000E+00;  3.9471371E+04; -4.3889984E-02;  0.0000000E+00;  3.7183173E-02;  1.3305336E+03;
  9.3664926E-01;  9.9999998E-03;  1.5093859E-01;7676; -2.5984742E-02;  0.0000000E+00;  6.6280374E-03;  9.9888214E+02;  2.1293531E-01; -9.2614642E+02;3;  3.4944582E+00;  0.0000000E+00; -5.8816500E+00;0; -4.3167584E-03;  8.9274229E+03;  0.0000000E+00; -8.2774150E-01;  4.0000000E+04;  0.0000000E+00;  3.9469180E+04; -3.9318189E-02;  0.0000000E+00;  3.5001431E-02;  1.2391667E+03;
  9.3653619E-01;  9.9999998E-03;  1.6099270E-01;7677; -2.5221754E-02;  0.0000000E+00;  6.9976631E-03;  9.9903192E+02;  2.1285620E-01; -8.0205121E+02;3;  3.2921579E+00;  0.0000000E+00; -6.1444073E+00;0; -1.9903034E-03;  8.9366123E+03;  0.0000000E+00; -8.2593173E-01;  4.0000000E+04;  0.0000000E+00;  3.9467562E+04; -3.4548093E-02;  0.0000000E+00;  3.2557789E-02;  1.3723597E+03;
  9.3654090E-01;  9.9999998E-03;  1.7104805E-01;7678; -2.4479412E-02;  0.0000000E+00;  7.2991257E-03;  9.9918384E+02;  2.1284096E-01; -6.7617828E+02;3;  3.1105397E+00;  0.0000000E+00; -6.3303757E+00;0;  3.0891970E-04;  8.9406211E+03;  0.0000000E+00; -7.4382269E-01;  4.0000000E+04;  0.0000000E+00;  3.9466969E+04; -2.9602313E-02;  0.0000000E+00;  2.9911233E-02;  1.5707882E+03;
  9.3667823E-01;  9.9999998E-03;  1.8110484E-01;7679; -2.3731070E-02;  0.0000000E+00;  7.5937430E-03;  9.9932050E+02;  2.1289676E-01; -5.6294690E+02;3;  2.9686589E+00;  0.0000000E+00; -6.4408360E+00;0;  2.6320219E-03;  8.9383633E+03;  0.0000000E+00; -5.9822595E-01;  4.0000000E+04;  0.0000000E+00;  3.9467707E+04; -2.4509663E-02;  0.0000000E+00;  2.7141685E-02;  1.7769817E+03;
  9.3697619E-01;  9.9999998E-03;  1.9116615E-01;7680; -2.2948427E-02;  0.0000000E+00;  7.9349764E-03;  9.9943060E+02;  2.1303804E-01; -4.7173962E+02;3;  2.8631079E+00;  0.0000000E+00; -6.5225010E+00;0;  5.0389934E-03;  8.9286758E+03;  0.0000000E+00; -4.2099205E-01;  4.0000000E+04;  0.0000000E+00;  3.9470406E+04; -1.9307669E-02;  0.0000000E+00;  2.4346663E-02;  1.9804210E+03;
  9.3741494E-01;  9.9999998E-03;  2.0123833E-01;7681; -2.2089921E-02;  0.0000000E+00;  8.3951252E-03;  9.9949963E+02;  2.1325375E-01; -4.1455609E+02;3;  2.7988572E+00;  0.0000000E+00; -6.5639219E+00;0;  7.6616341E-03;  8.9119072E+03;  0.0000000E+00; -2.5282165E-01;  4.0000000E+04;  0.0000000E+00;  3.9475078E+04; -1.4043431E-02;  0.0000000E+00;  2.1705065E-02;  2.1783296E+03;
  9.3789804E-01;  9.9999998E-03;  2.1133329E-01;7682; -2.1174403E-02;  0.0000000E+00;  8.9502418E-03;  9.9948431E+02;  2.1349473E-01; -4.2724707E+02;3;  2.7269912E+00;  0.0000000E+00; -6.6244278E+00;0;  1.0731659E-02;  8.8918154E+03;  0.0000000E+00; -1.3884412E-01;  4.0000000E+04;  0.0000000E+00;  3.9480039E+04; -8.7687271E-03;  0.0000000E+00;  1.9500386E-02;  2.3255066E+03;
  9.3833709E-01;  9.9999998E-03;  2.2147021E-01;7683; -2.0371623E-02;  0.0000000E+00;  9.2679728E-03;  9.9928650E+02;  2.1372300E-01; -5.9114362E+02;3;  2.7549949E+00;  0.0000000E+00; -6.6611972E+00;0;  1.4064718E-02;  8.8715225E+03;  0.0000000E+00; -1.1364325E-01;  4.0000000E+04;  0.0000000E+00;  3.9478633E+04; -3.5217428E-03;  0.0000000E+00;  1.7586460E-02;  1.9988723E+03;
  9.3859136E-01;  9.9999998E-03;  2.3158039E-01;7684; -1.9744106E-02;  0.0000000E+00;  9.2822993E-03;  9.9894647E+02;  2.1387824E-01; -8.7281464E+02;3;  2.6713262E+00;  0.0000000E+00; -6.7129278E+00;0;  1.7229047E-02;  8.8569727E+03;  0.0000000E+00; -2.0049003E-01;  4.0000000E+04;  0.0000000E+00;  3.9475941E+04;  1.6289945E-03;  0.0000000E+00;  1.5600052E-02;  1.2231818E+03;
  9.6050376E-01;  9.9999998E-03;  7.0608869E-02;7729; -3.3209052E-02;  0.0000000E+00;  2.7984311E-03;  9.9806281E+02;  2.2642371E-01; -1.6049417E+03;3;  6.1345158E+00;  0.0000000E+00; -3.2020116E+00;0; -2.6506327E-02;  7.8991343E+03;  0.0000000E+00; -5.1677618E-03;  4.0000000E+04;  0.0000000E+00;  3.9420527E+04; -7.1136892E-02;  0.0000000E+00;  4.4630565E-02;  2.7172512E+03;
  9.6055102E-01;  9.9999998E-03;  8.0706261E-02;7730; -3.2663599E-02;  0.0000000E+00;  3.2616137E-03;  9.9808752E+02;  2.2645047E-01; -1.5844484E+03;3;  5.9071064E+00;  0.0000000E+00; -3.6642158E+00;0; -2.3900136E-02;  7.8966572E+03;  0.0000000E+00; -3.0689610E-02;  4.0000000E+04;  0.0000000E+00;  3.9423652E+04; -6.8303131E-02;  0.0000000E+00;  4.4402994E-02;  3.1166777E+03;
  9.6054339E-01;  9.9999998E-03;  9.0787128E-02;7731; -3.2029271E-02;  0.0000000E+00;  3.7562710E-03;  9.9812415E+02;  2.2644019E-01; -1.5541283E+03;3;  5.6675882E+00;  0.0000000E+00; -4.1008816E+00;0; -2.1118376E-02;  7.8968530E+03;  0.0000000E+00; -9.3373515E-02;  4.0000000E+04;  0.0000000E+00;  3.9427039E+04; -6.5065801E-02;  0.0000000E+00;  4.3947425E-02;  3.4068450E+03;
  9.6045232E-01;  9.9999998E-03;  1.0085846E-01;7732; -3.1311478E-02;  0.0000000E+00;  4.2726127E-03;  9.9816986E+02;  2.2637700E-01; -1.5162528E+03;3;  5.4249167E+00;  0.0000000E+00; -4.4753623E+00;0; -1.8215861E-02;  7.9009443E+03;  0.0000000E+00; -2.0312303E-01;  4.0000000E+04;  0.0000000E+00;  3.9430457E+04; -6.1436038E-02;  0.0000000E+00;  4.3220177E-02;  3.4463728E+03;
  9.6025491E-01;  9.9999998E-03;  1.1089934E-01;7733; -3.0514553E-02;  0.0000000E+00;  4.8117624E-03;  9.9822864E+02;  2.2624765E-01; -1.4675629E+03;3;  5.1772223E+00;  0.0000000E+00; -4.8196964E+00;0; -1.5257120E-02;  7.9099619E+03;  0.0000000E+00; -3.5323825E-01;  4.0000000E+04;  0.0000000E+00;  3.9432895E+04; -5.7451945E-02;  0.0000000E+00;  4.2194825E-02;  3.1680481E+03;
  9.5998019E-01;  9.9999998E-03;  1.2092166E-01;7734; -2.9664615E-02;  0.0000000E+00;  5.3463215E-03;  9.9830493E+02;  2.2606960E-01; -1.4043549E+03;3;  4.8928876E+00;  0.0000000E+00; -5.1700926E+00;0; -1.2294687E-02;  7.9228486E+03;  0.0000000E+00; -5.1539552E-01;  4.0000000E+04;  0.0000000E+00;  3.9434211E+04; -5.3154353E-02;  0.0000000E+00;  4.0859666E-02;  2.6388376E+03;
  9.5965946E-01;  9.9999998E-03;  1.3093773E-01;7735; -2.8780889E-02;  0.0000000E+00;  5.8532809E-03;  9.9839288E+02;  2.2586301E-01; -1.3314680E+03;3;  4.6265268E+00;  0.0000000E+00; -5.4791965E+00;0; -9.3746707E-03;  7.9385220E+03;  0.0000000E+00; -6.4229804E-01;  4.0000000E+04;  0.0000000E+00;  3.9433984E+04; -4.8589915E-02;  0.0000000E+00;  3.9215244E-02;  2.0635610E+03;
  9.5936137E-01;  9.9999998E-03;  1.4095984E-01;7736; -2.7885711E-02;  0.0000000E+00;  6.3208994E-03;  9.9851660E+02;  2.2566664E-01; -1.2289524E+03;3;  4.3675580E+00;  0.0000000E+00; -5.7395597E+00;0; -6.5346025E-03;  7.9541011E+03;  0.0000000E+00; -6.7823994E-01;  4.0000000E+04;  0.0000000E+00;  3.9432891E+04; -4.3804158E-02;  0.0000000E+00;  3.7269555E-02;  1.7497505E+03;
  9.5915478E-01;  9.9999998E-03;  1.5099525E-01;7737; -2.7000584E-02;  0.0000000E+00;  6.7388127E-03;  9.9866412E+02;  2.2552145E-01; -1.1067338E+03;3;  4.0986285E+00;  0.0000000E+00; -5.9906464E+00;0; -3.8001128E-03;  7.9665713E+03;  0.0000000E+00; -5.7550484E-01;  4.0000000E+04;  0.0000000E+00;  3.9431121E+04; -3.8836747E-02;  0.0000000E+00;  3.5036635E-02;  1.9949463E+03;
  9.5905906E-01;  9.9999998E-03;  1.6104294E-01;7738; -2.6115831E-02;  0.0000000E+00;  7.1339752E-03;  9.9881378E+02;  2.2543970E-01; -9.8273724E+02;3;  3.8891797E+00;  0.0000000E+00; -6.1555667E+00;0; -1.1727400E-03;  7.9747339E+03;  0.0000000E+00; -3.1189048E-01;  4.0000000E+04;  0.0000000E+00;  3.9429645E+04; -3.3728145E-02;  0.0000000E+00;  3.2555405E-02;  2.9072883E+03;
  9.5911336E-01;  9.9999998E-03;  1.7109802E-01;7739; -2.5242811E-02;  0.0000000E+00;  7.4953265E-03;  9.9896545E+02;  2.2544490E-01; -8.5711127E+02;3;  3.6778898E+00;  0.0000000E+00; -6.3136063E+00;0;  1.3698339E-03;  7.9765337E+03;  0.0000000E+00;  9.5856689E-02;  4.0000000E+04;  0.0000000E+00;  3.9429152E+04; -2.8520061E-02;  0.0000000E+00;  2.9889895E-02;  4.4000122E+03;
  9.5935804E-01;  9.9999998E-03;  1.8116197E-01;7740; -2.4379900E-02;  0.0000000E+00;  7.8058820E-03;  9.9909668E+02;  2.2555959E-01; -7.4837360E+02;3;  3.5138021E+00;  0.0000000E+00; -6.4342165E+00;0;  3.8552992E-03;  7.9700356E+03;  0.0000000E+00;  5.8741617E-01;  4.0000000E+04;  0.0000000E+00;  3.9429758E+04; -2.3257030E-02;  0.0000000E+00;  2.7112329E-02;  6.2026279E+03;
  9.5980906E-01;  9.9999998E-03;  1.9123635E-01;7741; -2.3489274E-02;  0.0000000E+00;  8.1417933E-03;  9.9919623E+02;  2.2579342E-01; -6.6590686E+02;3;  3.3686259E+00;  0.0000000E+00; -6.5190859E+00;0;  6.3200295E-03;  7.9543730E+03;  0.0000000E+00;  1.0692687E+00;  4.0000000E+04;  0.0000000E+00;  3.9431965E+04; -1.7998898E-02;  0.0000000E+00;  2.4318928E-02;  7.8817505E+03;
  9.6044099E-01;  9.9999998E-03;  2.0132996E-01;7742; -2.2527248E-02;  0.0000000E+00;  8.5733039E-03;  9.9925012E+02;  2.2613297E-01; -6.2126617E+02;3;  3.3017428E+00;  0.0000000E+00; -6.5454025E+00;0;  8.8584637E-03;  7.9305103E+03;  0.0000000E+00;  1.4391727E+00;  4.0000000E+04;  0.0000000E+00;  3.9436129E+04; -1.2816885E-02;  0.0000000E+00;  2.1675348E-02;  8.9714014E+03;
  9.6120805E-01;  9.9999998E-03;  2.1144421E-01;7743; -2.1477526E-02;  0.0000000E+00;  9.1512045E-03;  9.9923712E+02;  2.2655265E-01; -6.3203125E+02;3;  3.2744613E+00;  0.0000000E+00; -6.5268254E+00;0;  1.1758260E-02;  7.9004058E+03;  0.0000000E+00;  1.6129857E+00;  4.0000000E+04;  0.0000000E+00;  3.9439535E+04; -7.7734925E-03;  0.0000000E+00;  1.9531753E-02;  9.1243096E+03;
  9.6191007E-01;  9.9999998E-03;  2.2158477E-01;7744; -2.0497555E-02;  0.0000000E+00;  9.5905429E-03;  9.9907043E+02;  2.2694707E-01; -7.7015076E+02;3;  3.2563882E+00;  0.0000000E+00; -6.5483956E+00;0;  1.5111327E-02;  7.8712197E+03;  0.0000000E+00;  1.5169454E+00;  4.0000000E+04;  0.0000000E+00;  3.9437707E+04; -2.8729723E-03;  0.0000000E+00;  1.7984299E-02;  8.0292505E+03;
  9.6227288E-01;  9.9999998E-03;  2.3169124E-01;7745; -1.9642983E-02;  0.0000000E+00;  9.7108437E-03;  9.9870123E+02;  2.2717758E-01; -1.0760186E+03;3;  3.2934592E+00;  0.0000000E+00; -6.5518446E+00;0;  1.8513160E-02;  7.8524751E+03;  0.0000000E+00;  1.0961294E+00;  4.0000000E+04;  0.0000000E+00;  3.9435383E+04;  1.8482753E-03;  0.0000000E+00;  1.6664885E-02;  5.6640723E+03;
  9.8403490E-01;  9.9999998E-03;  7.0539393E-02;7790; -3.5079975E-02;  0.0000000E+00;  3.0265697E-03;  9.9801965E+02;  2.4020824E-01; -1.6406936E+03;3;  7.1969995E+00;  0.0000000E+00; -3.2759013E+00;0; -2.7464930E-02;  7.0222100E+03;  0.0000000E+00; -1.1625390E-01;  4.0000000E+04;  0.0000000E+00;  3.9376355E+04; -7.2833009E-02;  0.0000000E+00;  4.5368079E-02;  3.0490259E+03;
  9.8383957E-01;  9.9999998E-03;  8.0626756E-02;7791; -3.4478273E-02;  0.0000000E+00;  3.4573134E-03;  9.9800073E+02;  2.4009396E-01; -1.6563474E+03;3;  6.9339361E+00;  0.0000000E+00; -3.6841340E+00;0; -2.4502020E-02;  7.0289268E+03;  0.0000000E+00; -1.7045616E-01;  4.0000000E+04;  0.0000000E+00;  3.9379371E+04; -6.9269426E-02;  0.0000000E+00;  4.4767406E-02;  3.4365403E+03;
  9.8355365E-01;  9.9999998E-03;  9.0707347E-02;7792; -3.3763744E-02;  0.0000000E+00;  3.9290413E-03;  9.9799646E+02;  2.3991670E-01; -1.6599030E+03;3;  6.6421843E+00;  0.0000000E+00; -4.0889297E+00;0; -2.1306951E-02;  7.0394077E+03;  0.0000000E+00; -2.5813773E-01;  4.0000000E+04;  0.0000000E+00;  3.9382973E+04; -6.5259777E-02;  0.0000000E+00;  4.3952826E-02;  3.6425044E+03;
  9.8318666E-01;  9.9999998E-03;  1.0078530E-01;7793; -3.2954957E-02;  0.0000000E+00;  4.4195466E-03;  9.9801129E+02;  2.3968628E-01; -1.6476069E+03;3;  6.3330355E+00;  0.0000000E+00; -4.5011725E+00;0; -1.7945785E-02;  7.0534546E+03;  0.0000000E+00; -3.8384253E-01;  4.0000000E+04;  0.0000000E+00;  3.9386852E+04; -6.0831100E-02;  0.0000000E+00;  4.2885315E-02;  3.5587195E+03;
  9.8275852E-01;  9.9999998E-03;  1.1085095E-01;7794; -3.2061167E-02;  0.0000000E+00;  4.9233949E-03;  9.9805109E+02;  2.3941520E-01; -1.6146202E+03;3;  6.0285234E+00;  0.0000000E+00; -4.8220401E+00;0; -1.4492862E-02;  7.0704824E+03;  0.0000000E+00; -5.3323543E-01;  4.0000000E+04;  0.0000000E+00;  3.9389793E+04; -5.6032509E-02;  0.0000000E+00;  4.1539647E-02;  3.1728577E+03;
  9.8230797E-01;  9.9999998E-03;  1.2090439E-01;7795; -3.1107856E-02;  0.0000000E+00;  5.4236469E-03;  9.9811554E+02;  2.3912460E-01; -1.5612391E+03;3;  5.6616340E+00;  0.0000000E+00; -5.1929202E+00;0; -1.1018265E-02;  7.0891665E+03;  0.0000000E+00; -6.6714340E-01;  4.0000000E+04;  0.0000000E+00;  3.9391578E+04; -5.0921615E-02;  0.0000000E+00;  3.9903350E-02;  2.6235518E+03;
  9.8188198E-01;  9.9999998E-03;  1.3097361E-01;7796; -3.0115442E-02;  0.0000000E+00;  5.8948975E-03;  9.9821002E+02;  2.3884198E-01; -1.4829697E+03;3;  5.3417664E+00;  0.0000000E+00; -5.4959669E+00;0; -7.5786896E-03;  7.1078970E+03;  0.0000000E+00; -7.2526109E-01;  4.0000000E+04;  0.0000000E+00;  3.9391852E+04; -4.5549773E-02;  0.0000000E+00;  3.7971083E-02;  2.2004202E+03;
  9.8154485E-01;  9.9999998E-03;  1.4105217E-01;7797; -2.9106593E-02;  0.0000000E+00;  6.3332128E-03;  9.9834290E+02;  2.3860723E-01; -1.3728988E+03;3;  5.0323086E+00;  0.0000000E+00; -5.7529612E+00;0; -4.2327791E-03;  7.1242607E+03;  0.0000000E+00; -6.4095592E-01;  4.0000000E+04;  0.0000000E+00;  3.9391066E+04; -3.9985176E-02;  0.0000000E+00;  3.5752397E-02;  2.2841328E+03;
  9.8141122E-01;  9.9999998E-03;  1.5113342E-01;7798; -2.8104195E-02;  0.0000000E+00;  6.7310533E-03;  9.9850818E+02;  2.3848900E-01; -1.2359645E+03;3;  4.7292538E+00;  0.0000000E+00; -5.9743876E+00;0; -1.0146350E-03;  7.1337598E+03;  0.0000000E+00; -3.6324671E-01;  4.0000000E+04;  0.0000000E+00;  3.9389793E+04; -3.4273900E-02;  0.0000000E+00;  3.3259265E-02;  3.1913337E+03;
  9.8148960E-01;  9.9999998E-03;  1.6122338E-01;7799; -2.7117077E-02;  0.0000000E+00;  7.0958976E-03;  9.9869312E+02;  2.3849881E-01; -1.0827344E+03;3;  4.4628701E+00;  0.0000000E+00; -6.1711798E+00;0;  2.0542443E-03;  7.1355327E+03;  0.0000000E+00;  1.2243862E-01;  4.0000000E+04;  0.0000000E+00;  3.9388418E+04; -2.8474249E-02;  0.0000000E+00;  3.0528493E-02;  5.0215107E+03;
  9.8177350E-01;  9.9999998E-03;  1.7132153E-01;7800; -2.6131241E-02;  0.0000000E+00;  7.4456255E-03;  9.9887091E+02;  2.3863001E-01; -9.3542993E+02;3;  4.2225575E+00;  0.0000000E+00; -6.3043432E+00;0;  4.9737524E-03;  7.1294360E+03;  0.0000000E+00;  7.7608603E-01;  4.0000000E+04;  0.0000000E+00;  3.9387461E+04; -2.2653414E-02;  0.0000000E+00;  2.7627166E-02;  7.5935342E+03;
  9.8226297E-01;  9.9999998E-03;  1.8142153E-01;7801; -2.5156733E-02;  0.0000000E+00;  7.7483496E-03;  9.9901367E+02;  2.3888646E-01; -8.1716168E+02;3;  4.0122285E+00;  0.0000000E+00; -6.4431453E+00;0;  7.7694040E-03;  7.1151489E+03;  0.0000000E+00;  1.5005702E+00;  4.0000000E+04;  0.0000000E+00;  3.9386969E+04; -1.6871212E-02;  0.0000000E+00;  2.4640616E-02;  1.0419112E+04;
  9.8293012E-01;  9.9999998E-03;  1.9151202E-01;7802; -2.4185907E-02;  0.0000000E+00;  7.9997759E-03;  9.9910925E+02;  2.3925611E-01; -7.3795410E+02;3;  3.8181715E+00;  0.0000000E+00; -6.5445023E+00;0;  1.0480809E-02;  7.0934692E+03;  0.0000000E+00;  2.1624184E+00;  4.0000000E+04;  0.0000000E+00;  3.9387023E+04; -1.1174758E-02;  0.0000000E+00;  2.1655567E-02;  1.2802887E+04;
  9.8366606E-01;  9.9999998E-03;  2.0158151E-01;7803; -2.3182604E-02;  0.0000000E+00;  8.2473569E-03;  9.9913147E+02;  2.3967032E-01; -7.1958429E+02;3;  3.6745663E+00;  0.0000000E+00; -6.6103630E+00;0;  1.3125269E-02;  7.0682100E+03;  0.0000000E+00;  2.6250794E+00;  4.0000000E+04;  0.0000000E+00;  3.9387773E+04; -5.6539630E-03;  0.0000000E+00;  1.8779231E-02;  1.4041386E+04;
  9.8437774E-01;  9.9999998E-03;  2.1163195E-01;7804; -2.2112958E-02;  0.0000000E+00;  8.5704364E-03;  9.9909644E+02;  2.4007165E-01; -7.4857111E+02;3;  3.5763526E+00;  0.0000000E+00; -6.6560645E+00;0;  1.5815860E-02;  7.0426748E+03;  0.0000000E+00;  2.7802620E+00;  4.0000000E+04;  0.0000000E+00;  3.9391375E+04; -3.9971143E-04;  0.0000000E+00;  1.6215570E-02;  1.3663419E+04;
  9.8514199E-01;  9.9999998E-03;  2.2171281E-01;7805; -2.1024760E-02;  0.0000000E+00;  8.9072222E-03;  9.9896283E+02;  2.4052125E-01; -8.5928394E+02;3;  3.5582719E+00;  0.0000000E+00; -6.6387830E+00;0;  1.8826472E-02;  7.0137593E+03;  0.0000000E+00;  2.5817950E+00;  4.0000000E+04;  0.0000000E+00;  3.9393898E+04;  4.6603237E-03;  0.0000000E+00;  1.4166148E-02;  1.1628198E+04;
  9.8572826E-01;  9.9999998E-03;  2.3179908E-01;7806; -1.9992961E-02;  0.0000000E+00;  9.1066919E-03;  9.9865601E+02;  2.4089439E-01; -1.1134495E+03;3;  3.5988038E+00;  0.0000000E+00; -6.6016006E+00;0;  2.2021383E-02;  6.9887397E+03;  0.0000000E+00;  2.0043077E+00;  4.0000000E+04;  0.0000000E+00;  3.9395414E+04;  9.4003854E-03;  0.0000000E+00;  1.2620999E-02;  8.1320225E+03;
  1.0065253E+00;  9.9999998E-03;  1.4105740E-01;7858; -3.0384608E-02;  0.0000000E+00;  6.3649644E-03;  9.9825146E+02;  2.5382385E-01; -1.4486495E+03;3;  5.7790599E+00;  0.0000000E+00; -5.6705408E+00;0;  4.0596295E-03;  6.3075532E+03;  0.0000000E+00; -6.3020223E-01;  4.0000000E+04;  0.0000000E+00;  3.9341906E+04; -2.9418925E-02;  0.0000000E+00;  3.3478554E-02;  2.8366687E+03;
  1.0065004E+00;  9.9999998E-03;  1.5119424E-01;7859; -2.9269310E-02;  0.0000000E+00;  6.6924267E-03;  9.9846704E+02;  2.5375357E-01; -1.2700374E+03;3;  5.4297771E+00;  0.0000000E+00; -5.9263110E+00;0;  8.6460151E-03;  6.3136543E+03;  0.0000000E+00; -3.4350622E-01;  4.0000000E+04;  0.0000000E+00;  3.9340672E+04; -2.1863634E-02;  0.0000000E+00;  3.0509649E-02;  3.9424524E+03;
  1.0066128E+00;  9.9999998E-03;  1.3093036E-01;7857; -3.1497922E-02;  0.0000000E+00;  5.9894598E-03;  9.9807599E+02;  2.5391412E-01; -1.5940281E+03;3;  6.1538677E+00;  0.0000000E+00; -5.4056501E+00;0; -6.4146891E-04;  6.3000088E+03;  0.0000000E+00; -7.6275873E-01;  4.0000000E+04;  0.0000000E+00;  3.9343523E+04; -3.6810987E-02;  0.0000000E+00;  3.6169518E-02;  2.3393982E+03;
  1.0065347E+00;  9.9999998E-03;  1.6132079E-01;7860; -2.8159875E-02;  0.0000000E+00;  6.9626612E-03;  9.9869604E+02;  2.5370944E-01; -1.0803145E+03;3;  5.0841937E+00;  0.0000000E+00; -6.1065297E+00;0;  1.3057501E-02;  6.3179634E+03;  0.0000000E+00;  1.0272366E-01;  4.0000000E+04;  0.0000000E+00;  3.9339613E+04; -1.4269472E-02;  0.0000000E+00;  2.7326973E-02;  5.6923560E+03;
  1.0069045E+00;  9.9999998E-03;  1.2083255E-01;7856; -3.2591734E-02;  0.0000000E+00;  5.5748089E-03;  9.9796088E+02;  2.5412503E-01; -1.6893833E+03;3;  6.5610347E+00;  0.0000000E+00; -5.0637336E+00;0; -5.3127035E-03;  6.2867471E+03;  0.0000000E+00; -7.7314800E-01;  4.0000000E+04;  0.0000000E+00;  3.9343621E+04; -4.3858651E-02;  0.0000000E+00;  3.8545948E-02;  2.2737651E+03;
  1.0067229E+00;  9.9999998E-03;  1.7142572E-01;7861; -2.7075589E-02;  0.0000000E+00;  7.1826391E-03;  9.9891296E+02;  2.5375298E-01; -9.0056659E+02;3;  4.7761431E+00;  0.0000000E+00; -6.2635884E+00;0;  1.7365802E-02;  6.3168154E+03;  0.0000000E+00;  6.7063534E-01;  4.0000000E+04;  0.0000000E+00;  3.9339895E+04; -6.6405865E-03;  0.0000000E+00;  2.4006389E-02;  7.9094629E+03;
  1.0071626E+00;  9.9999998E-03;  1.8152681E-01;7862; -2.6007887E-02;  0.0000000E+00;  7.3527424E-03;  9.9909052E+02;  2.5396487E-01; -7.5350909E+02;3;  4.4663606E+00;  0.0000000E+00; -6.3630457E+00;0;  2.1721957E-02;  6.3065767E+03;  0.0000000E+00;  1.2762376E+00;  4.0000000E+04;  0.0000000E+00;  3.9340148E+04;  1.1137043E-03;  0.0000000E+00;  2.0608254E-02;  1.0161607E+04;
  1.0074965E+00;  9.9999998E-03;  1.1077619E-01;7855; -3.3665992E-02;  0.0000000E+00;  5.1300470E-03;  9.9789246E+02;  2.5451979E-01; -1.7460730E+03;3;  6.9779954E+00;  0.0000000E+00; -4.7454314E+00;0; -9.8610856E-03;  6.2649146E+03;  0.0000000E+00; -7.0758438E-01;  4.0000000E+04;  0.0000000E+00;  3.9342426E+04; -5.0460245E-02;  0.0000000E+00;  4.0599160E-02;  2.3688389E+03;
  1.0076617E+00;  9.9999998E-03;  1.9160669E-01;7863; -2.4947530E-02;  0.0000000E+00;  7.4778553E-03;  9.9919531E+02;  2.5421792E-01; -6.6664740E+02;3;  4.2320867E+00;  0.0000000E+00; -6.4770813E+00;0;  2.6023455E-02;  6.2931460E+03;  0.0000000E+00;  1.8189343E+00;  4.0000000E+04;  0.0000000E+00;  3.9341461E+04;  8.8000987E-03;  0.0000000E+00;  1.7223356E-02;  1.1904994E+04;
  1.0080842E+00;  9.9999998E-03;  1.0072102E-01;7854; -3.4667194E-02;  0.0000000E+00;  4.6817763E-03;  9.9786963E+02;  2.5490043E-01; -1.7649861E+03;3;  7.3576016E+00;  0.0000000E+00; -4.3598638E+00;0; -1.4324099E-02;  6.2442168E+03;  0.0000000E+00; -6.1007261E-01;  4.0000000E+04;  0.0000000E+00;  3.9339699E+04; -5.6681134E-02;  0.0000000E+00;  4.2357035E-02;  2.4106270E+03;
  1.0082370E+00;  9.9999998E-03;  2.0167738E-01;7864; -2.3865372E-02;  0.0000000E+00;  7.5993193E-03;  9.9920435E+02;  2.5452772E-01; -6.5919086E+02;3;  4.0277338E+00;  0.0000000E+00; -6.5319204E+00;0;  3.0298527E-02;  6.2757695E+03;  0.0000000E+00;  2.1981945E+00;  4.0000000E+04;  0.0000000E+00;  3.9343934E+04;  1.6416268E-02;  0.0000000E+00;  1.3882259E-02;  1.2630897E+04;
  1.0085405E+00;  9.9999998E-03;  9.0652779E-02;7853; -3.5583016E-02;  0.0000000E+00;  4.2235320E-03;  9.9786127E+02;  2.5519052E-01; -1.7718994E+03;3;  7.7399826E+00;  0.0000000E+00; -3.9921618E+00;0; -1.8641733E-02;  6.2284507E+03;  0.0000000E+00; -5.0884658E-01;  4.0000000E+04;  0.0000000E+00;  3.9336738E+04; -6.2477328E-02;  0.0000000E+00;  4.3835595E-02;  2.3240559E+03;
  1.0088943E+00;  9.9999998E-03;  2.1174479E-01;7865; -2.2732344E-02;  0.0000000E+00;  7.7671208E-03;  9.9914026E+02;  2.5490806E-01; -7.1227570E+02;3;  3.9033933E+00;  0.0000000E+00; -6.5556993E+00;0;  3.4577917E-02;  6.2542285E+03;  0.0000000E+00;  2.3335488E+00;  4.0000000E+04;  0.0000000E+00;  3.9348035E+04;  2.3914481E-02;  0.0000000E+00;  1.0663436E-02;  1.2025568E+04;
  1.0088253E+00;  9.9999998E-03;  8.0577321E-02;7852; -3.6392596E-02;  0.0000000E+00;  3.7711815E-03;  9.9786700E+02;  2.5536460E-01; -1.7671588E+03;3;  8.1155739E+00;  0.0000000E+00; -3.5519173E+00;0; -2.2716504E-02;  6.2186348E+03;  0.0000000E+00; -4.1538227E-01;  4.0000000E+04;  0.0000000E+00;  3.9333645E+04; -6.7775503E-02;  0.0000000E+00;  4.5058999E-02;  2.1389844E+03;
  1.0095959E+00;  9.9999998E-03;  2.2183715E-01;7866; -2.1566261E-02;  0.0000000E+00;  7.9510370E-03;  9.9896381E+02;  2.5534195E-01; -8.5844434E+02;3;  3.8428793E+00;  0.0000000E+00; -6.4704766E+00;0;  3.8895324E-02;  6.2295972E+03;  0.0000000E+00;  2.1743515E+00;  4.0000000E+04;  0.0000000E+00;  3.9351238E+04;  3.1198727E-02;  0.0000000E+00;  7.6965983E-03;  1.0047038E+04;
  1.0090271E+00;  9.9999998E-03;  7.0500717E-02;7851; -3.7086058E-02;  0.0000000E+00;  3.3484981E-03;  9.9788025E+02;  2.5548658E-01; -1.7561962E+03;3;  8.3874893E+00;  0.0000000E+00; -3.2171910E+00;0; -2.6444979E-02;  6.2117710E+03;  0.0000000E+00; -3.3099779E-01;  4.0000000E+04;  0.0000000E+00;  3.9331340E+04; -7.2512381E-02;  0.0000000E+00;  4.6067402E-02;  1.9184291E+03;
  1.0103234E+00;  9.9999998E-03;  2.3193538E-01;7867; -2.0466762E-02;  0.0000000E+00;  7.9860408E-03;  9.9865356E+02;  2.5582588E-01; -1.1154740E+03;3;  3.8691213E+00;  0.0000000E+00; -6.3801270E+00;0;  4.3005079E-02;  6.2023296E+03;  0.0000000E+00;  1.7021277E+00;  4.0000000E+04;  0.0000000E+00;  3.9351945E+04;  3.8213950E-02;  0.0000000E+00;  4.7911289E-03;  6.9351313E+03;
  1.0346348E+00;  9.9999998E-03;  1.1082495E-01;7916; -3.5044432E-02;  0.0000000E+00;  5.5468241E-03;  9.9815765E+02;  2.7175426E-01; -1.5263258E+03;3;  8.1439810E+00;  0.0000000E+00; -4.3411779E+00;0; -1.1242293E-03;  5.5091577E+03;  0.0000000E+00; -6.1654437E-01;  4.0000000E+04;  0.0000000E+00;  3.9291559E+04; -4.1869551E-02;  0.0000000E+00;  4.0745322E-02;  1.6125033E+03;
  1.0346990E+00;  9.9999998E-03;  1.0074300E-01;7915; -3.6204945E-02;  0.0000000E+00;  5.1099923E-03;  9.9814203E+02;  2.7178821E-01; -1.5393131E+03;3;  8.5940866E+00;  0.0000000E+00; -4.0400200E+00;0; -7.8932345E-03;  5.5054502E+03;  0.0000000E+00; -5.5027533E-01;  4.0000000E+04;  0.0000000E+00;  3.9291246E+04; -5.0494783E-02;  0.0000000E+00;  4.2601548E-02;  1.2095992E+03;
  1.0349089E+00;  9.9999998E-03;  7.0523173E-02;7912; -3.9073080E-02;  0.0000000E+00;  3.7616116E-03;  9.9816339E+02;  2.7189523E-01; -1.5215852E+03;3;  9.7255535E+00;  0.0000000E+00; -2.9013481E+00;0; -2.5135130E-02;  5.4961909E+03;  0.0000000E+00; -3.1872451E-01;  4.0000000E+04;  0.0000000E+00;  3.9287957E+04; -7.1587905E-02;  0.0000000E+00;  4.6452776E-02;  7.4139819E+02;
  1.0343461E+00;  9.9999998E-03;  1.5122887E-01;7920; -2.9959381E-02;  0.0000000E+00;  6.8212226E-03;  9.9869739E+02;  2.7141258E-01; -1.0791783E+03;3;  6.4311023E+00;  0.0000000E+00; -5.4110651E+00;0;  2.8994842E-02;  5.5331328E+03;  0.0000000E+00; -6.8738198E-01;  4.0000000E+04;  0.0000000E+00;  3.9285781E+04; -4.3577160E-04;  0.0000000E+00;  2.9430613E-02;  3.9655498E+03;
  1.0341192E+00;  9.9999998E-03;  1.6131870E-01;7921; -2.8748317E-02;  0.0000000E+00;  6.9097914E-03;  9.9891541E+02;  2.7115992E-01; -8.9854169E+02;3;  5.8239541E+00;  0.0000000E+00; -5.7313190E+00;0;  3.6750853E-02;  5.5445312E+03;  0.0000000E+00; -5.9723955E-01;  4.0000000E+04;  0.0000000E+00;  3.9285527E+04;  1.1044731E-02;  0.0000000E+00;  2.5706122E-02;  4.6838896E+03;
  1.0340471E+00;  9.9999998E-03;  1.7142980E-01;7922; -2.7592791E-02;  0.0000000E+00;  6.9126035E-03;  9.9913141E+02;  2.7100170E-01; -7.1963330E+02;3;  5.4888911E+00;  0.0000000E+00; -5.8568792E+00;0;  4.4733591E-02;  5.5512153E+03;  0.0000000E+00; -4.5749864E-01;  4.0000000E+04;  0.0000000E+00;  3.9286328E+04;  2.2962013E-02;  0.0000000E+00;  2.1771576E-02;  5.3631978E+03;
  1.0350283E+00;  9.9999998E-03;  9.0677842E-02;7914; -3.7273459E-02;  0.0000000E+00;  4.6809237E-03;  9.9816962E+02;  2.7199918E-01; -1.5164496E+03;3;  9.0182514E+00;  0.0000000E+00; -3.6019528E+00;0; -1.4146306E-02;  5.4950894E+03;  0.0000000E+00; -4.7442636E-01;  4.0000000E+04;  0.0000000E+00;  3.9289672E+04; -5.8284864E-02;  0.0000000E+00;  4.4138558E-02;  9.1563477E+02;
  1.0349430E+00;  9.9999998E-03;  1.2093803E-01;7917; -3.3824492E-02;  0.0000000E+00;  5.9680548E-03;  9.9824103E+02;  2.7196839E-01; -1.4572908E+03;3;  7.8228416E+00;  0.0000000E+00; -4.6181855E+00;0;  6.2149726E-03;  5.5035352E+03;  0.0000000E+00; -6.7059624E-01;  4.0000000E+04;  0.0000000E+00;  3.9290098E+04; -3.2313906E-02;  0.0000000E+00;  3.8528878E-02;  2.0950798E+03;
  1.0347104E+00;  9.9999998E-03;  1.4114447E-01;7919; -3.1230584E-02;  0.0000000E+00;  6.6280467E-03;  9.9850226E+02;  2.7173957E-01; -1.2408527E+03;3;  6.8960295E+00;  0.0000000E+00; -5.1030617E+00;0;  2.1395307E-02;  5.5180454E+03;  0.0000000E+00; -7.2232133E-01;  4.0000000E+04;  0.0000000E+00;  3.9286883E+04; -1.1460426E-02;  0.0000000E+00;  3.2855734E-02;  3.2785364E+03;
  1.0350695E+00;  9.9999998E-03;  8.0603153E-02;7913; -3.8240492E-02;  0.0000000E+00;  4.2176582E-03;  9.9818146E+02;  2.7201429E-01; -1.5066227E+03;3;  9.4421835E+00;  0.0000000E+00; -3.2410545E+00;0; -1.9939266E-02;  5.4929048E+03;  0.0000000E+00; -3.9662674E-01;  4.0000000E+04;  0.0000000E+00;  3.9288422E+04; -6.5337442E-02;  0.0000000E+00;  4.5398176E-02;  7.7326251E+02;
  1.0339818E+00;  9.9999998E-03;  1.8155077E-01;7923; -2.6472723E-02;  0.0000000E+00;  6.8922234E-03;  9.9929834E+02;  2.7083948E-01; -5.8131635E+02;3;  5.0412683E+00;  0.0000000E+00; -5.9101648E+00;0;  5.2726347E-02;  5.5566953E+03;  0.0000000E+00; -2.8138137E-01;  4.0000000E+04;  0.0000000E+00;  3.9289008E+04;  3.5035454E-02;  0.0000000E+00;  1.7690893E-02;  5.9200190E+03;
  1.0339097E+00;  9.9999998E-03;  1.9168109E-01;7924; -2.5368869E-02;  0.0000000E+00;  6.8618385E-03;  9.9936694E+02;  2.7068335E-01; -5.2447852E+02;3;  4.7366128E+00;  0.0000000E+00; -5.9560823E+00;0;  6.0553998E-02;  5.5608540E+03;  0.0000000E+00; -9.2763007E-02;  4.0000000E+04;  0.0000000E+00;  3.9293035E+04;  4.7049124E-02;  0.0000000E+00;  1.3504875E-02;  6.2640264E+03;
  1.0349679E+00;  9.9999998E-03;  1.3104649E-01;7918; -3.2530177E-02;  0.0000000E+00;  6.3385349E-03;  9.9835114E+02;  2.7196482E-01; -1.3660342E+03;3;  7.4130673E+00;  0.0000000E+00; -4.8410625E+00;0;  1.3784882E-02;  5.5065010E+03;  0.0000000E+00; -7.1076089E-01;  4.0000000E+04;  0.0000000E+00;  3.9288617E+04; -2.2116423E-02;  0.0000000E+00;  3.5901304E-02;  2.6524844E+03;
  1.0340371E+00;  9.9999998E-03;  2.0180705E-01;7925; -2.4265092E-02;  0.0000000E+00;  6.8254289E-03;  9.9932446E+02;  2.7068970E-01; -5.5968738E+02;3;  4.4883108E+00;  0.0000000E+00; -5.9427652E+00;0;  6.8364531E-02;  5.5576328E+03;  0.0000000E+00;  5.7518207E-02;  4.0000000E+04;  0.0000000E+00;  3.9296863E+04;  5.9166685E-02;  0.0000000E+00;  9.1978498E-03;  6.2462148E+03;
  1.0342994E+00;  9.9999998E-03;  2.1190590E-01;7926; -2.3160873E-02;  0.0000000E+00;  6.7989868E-03;  9.9916718E+02;  2.7081460E-01; -6.8995520E+02;3;  4.2810521E+00;  0.0000000E+00; -5.9437361E+00;0;  7.5923510E-02;  5.5487046E+03;  0.0000000E+00;  1.3721575E-01;  4.0000000E+04;  0.0000000E+00;  3.9301352E+04;  7.1173951E-02;  0.0000000E+00;  4.7495598E-03;  5.8026099E+03;
  1.0347850E+00;  9.9999998E-03;  2.2200145E-01;7927; -2.2026690E-02;  0.0000000E+00;  6.7793117E-03;  9.9890973E+02;  2.7112055E-01; -9.0328229E+02;3;  4.1919985E+00;  0.0000000E+00; -5.8950405E+00;0;  8.3362147E-02;  5.5316436E+03;  0.0000000E+00;  1.0400952E-01;  4.0000000E+04;  0.0000000E+00;  3.9306062E+04;  8.3250597E-02;  0.0000000E+00;  1.1154795E-04;  4.9512017E+03;
  1.0354184E+00;  9.9999998E-03;  2.3211317E-01;7928; -2.0940999E-02;  0.0000000E+00;  6.6492646E-03;  9.9848120E+02;  2.7156872E-01; -1.2582843E+03;3;  4.0751185E+00;  0.0000000E+00; -5.8415875E+00;0;  9.0274066E-02;  5.5087041E+03;  0.0000000E+00; -6.5152198E-02;  4.0000000E+04;  0.0000000E+00;  3.9305336E+04;  9.5251128E-02;  0.0000000E+00; -4.9770591E-03;  3.6142825E+03;
  1.0623357E+00;  9.9999998E-03;  7.0585817E-02;7973; -4.1002091E-02;  0.0000000E+00;  4.0603140E-03;  9.9900610E+02;  2.8983635E-01; -8.2343237E+02;3;  1.1244713E+01;  0.0000000E+00; -2.3211005E+00;0; -2.9177114E-02;  4.8533706E+03;  0.0000000E+00;  1.7511748E-02;  4.0000000E+04;  0.0000000E+00;  3.9242457E+04; -7.3853031E-02;  0.0000000E+00;  4.4675916E-02;  1.0867705E+03;
  1.0615035E+00;  9.9999998E-03;  2.3233792E-01;7989; -2.0472761E-02;  0.0000000E+00;  6.0262242E-03;  9.9858691E+02;  2.8837568E-01; -1.1707307E+03;3;  4.5040307E+00;  0.0000000E+00; -4.7193871E+00;0;  1.5661091E-01;  4.8934585E+03;  0.0000000E+00; -2.0387840E+00;  4.0000000E+04;  0.0000000E+00;  3.9248852E+04;  1.6910404E-01;  0.0000000E+00; -1.2493126E-02;  2.1789463E+03;
  1.0611557E+00;  9.9999998E-03;  2.2223595E-01;7988; -2.1367440E-02;  0.0000000E+00;  6.3228803E-03;  9.9913422E+02;  2.8811157E-01; -7.1726270E+02;3;  4.8196902E+00;  0.0000000E+00; -4.7503977E+00;0;  1.4547333E-01;  4.9076060E+03;  0.0000000E+00; -2.0781250E+00;  4.0000000E+04;  0.0000000E+00;  3.9252305E+04;  1.5068372E-01;  0.0000000E+00; -5.2103880E-03;  2.5096702E+03;
  1.0628252E+00;  9.9999998E-03;  8.0679990E-02;7974; -3.9957915E-02;  0.0000000E+00;  4.5368876E-03;  9.9901495E+02;  2.9018629E-01; -8.1607458E+02;3;  1.1017724E+01;  0.0000000E+00; -2.4740205E+00;0; -2.2167198E-02;  4.8429609E+03;  0.0000000E+00; -2.4162974E-02;  4.0000000E+04;  0.0000000E+00;  3.9242203E+04; -6.6458218E-02;  0.0000000E+00;  4.4291019E-02;  1.2132965E+03;
  1.0609773E+00;  9.9999998E-03;  2.1216643E-01;7987; -2.2352142E-02;  0.0000000E+00;  6.4760875E-03;  9.9945959E+02;  2.8800979E-01; -4.4769043E+02;3;  5.0379062E+00;  0.0000000E+00; -4.7409115E+00;0;  1.3317512E-01;  4.9157300E+03;  0.0000000E+00; -2.0667613E+00;  4.0000000E+04;  0.0000000E+00;  3.9248727E+04;  1.3186015E-01;  0.0000000E+00;  1.3149633E-03;  2.8156646E+03;
  1.0609399E+00;  9.9999998E-03;  2.0209751E-01;7986; -2.3378678E-02;  0.0000000E+00;  6.6066477E-03;  9.9964941E+02;  2.8803831E-01; -2.9046054E+02;3;  5.3493638E+00;  0.0000000E+00; -4.7148166E+00;0;  1.2011623E-01;  4.9184463E+03;  0.0000000E+00; -1.9882281E+00;  4.0000000E+04;  0.0000000E+00;  3.9245426E+04;  1.1265836E-01;  0.0000000E+00;  7.4578752E-03;  3.3792827E+03;
  1.0633078E+00;  9.9999998E-03;  9.0770148E-02;7975; -3.8762443E-02;  0.0000000E+00;  5.0340551E-03;  9.9899384E+02;  2.9054183E-01; -8.3360492E+02;3;  1.0687567E+01;  0.0000000E+00; -2.6988244E+00;0; -1.4144327E-02;  4.8324761E+03;  0.0000000E+00; -1.0310958E-01;  4.0000000E+04;  0.0000000E+00;  3.9242375E+04; -5.7973985E-02;  0.0000000E+00;  4.3829657E-02;  1.2916830E+03;
  1.0610112E+00;  9.9999998E-03;  1.9199832E-01;7985; -2.4449170E-02;  0.0000000E+00;  6.7173531E-03;  9.9969922E+02;  2.8818059E-01; -2.4917780E+02;3;  5.8489523E+00;  0.0000000E+00; -4.6072245E+00;0;  1.0647152E-01;  4.9165620E+03;  0.0000000E+00; -1.8478943E+00;  4.0000000E+04;  0.0000000E+00;  3.9242707E+04;  9.3200795E-02;  0.0000000E+00;  1.3270725E-02;  4.0529507E+03;
  1.0612028E+00;  9.9999998E-03;  1.8187800E-01;7984; -2.5619227E-02;  0.0000000E+00;  6.8227327E-03;  9.9962415E+02;  2.8843221E-01; -3.1139816E+02;3;  6.2876759E+00;  0.0000000E+00; -4.6010852E+00;0;  9.2574634E-02;  4.9100723E+03;  0.0000000E+00; -1.6685201E+00;  4.0000000E+04;  0.0000000E+00;  3.9239824E+04;  7.3828369E-02;  0.0000000E+00;  1.8746266E-02;  4.6548623E+03;
  1.0616738E+00;  9.9999998E-03;  1.7175575E-01;7983; -2.6847024E-02;  0.0000000E+00;  6.9011441E-03;  9.9946149E+02;  2.8890368E-01; -4.4615961E+02;3;  6.8054633E+00;  0.0000000E+00; -4.5239425E+00;0;  7.8933492E-02;  4.8954106E+03;  0.0000000E+00; -1.4769782E+00;  4.0000000E+04;  0.0000000E+00;  3.9236742E+04;  5.5065095E-02;  0.0000000E+00;  2.3868401E-02;  4.9753999E+03;
  1.0638611E+00;  9.9999998E-03;  1.0086491E-01;7976; -3.7420131E-02;  0.0000000E+00;  5.5404529E-03;  9.9895575E+02;  2.9095012E-01; -8.6515942E+02;3;  1.0377659E+01;  0.0000000E+00; -2.8893571E+00;0; -5.1405132E-03;  4.8203901E+03;  0.0000000E+00; -2.2134599E-01;  4.0000000E+04;  0.0000000E+00;  3.9241938E+04; -4.8329465E-02;  0.0000000E+00;  4.3188952E-02;  1.3854470E+03;
  1.0624377E+00;  9.9999998E-03;  1.6163749E-01;7982; -2.8154919E-02;  0.0000000E+00;  6.9380235E-03;  9.9927917E+02;  2.8958631E-01; -5.9716748E+02;3;  7.3653498E+00;  0.0000000E+00; -4.3188925E+00;0;  6.5671667E-02;  4.8729678E+03;  0.0000000E+00; -1.2869084E+00;  4.0000000E+04;  0.0000000E+00;  3.9234949E+04;  3.7091479E-02;  0.0000000E+00;  2.8580185E-02;  4.8656577E+03;
  1.0643040E+00;  9.9999998E-03;  1.1097746E-01;7977; -3.5928879E-02;  0.0000000E+00;  6.0447417E-03;  9.9891687E+02;  2.9127449E-01; -8.9735596E+02;3;  1.0039444E+01;  0.0000000E+00; -3.0659673E+00;0;  4.8612319E-03;  4.8114165E+03;  0.0000000E+00; -3.7506014E-01;  4.0000000E+04;  0.0000000E+00;  3.9241012E+04; -3.7390731E-02;  0.0000000E+00;  4.2251963E-02;  1.5772957E+03;
  1.0631659E+00;  9.9999998E-03;  1.5150233E-01;7981; -2.9604664E-02;  0.0000000E+00;  6.9292216E-03;  9.9910364E+02;  2.9023021E-01; -7.4259528E+02;3;  8.0091534E+00;  0.0000000E+00; -4.2418008E+00;0;  5.2568283E-02;  4.8512236E+03;  0.0000000E+00; -1.0991505E+00;  4.0000000E+04;  0.0000000E+00;  3.9234730E+04;  1.9852728E-02;  0.0000000E+00;  3.2715555E-02;  4.3240200E+03;
  1.0643758E+00;  9.9999998E-03;  1.2109954E-01;7978; -3.4306005E-02;  0.0000000E+00;  6.4937840E-03;  9.9888824E+02;  2.9130799E-01; -9.2105896E+02;3;  9.7474937E+00;  0.0000000E+00; -3.2896516E+00;0;  1.5775833E-02;  4.8118604E+03;  0.0000000E+00; -5.5093771E-01;  4.0000000E+04;  0.0000000E+00;  3.9239512E+04; -2.5075793E-02;  0.0000000E+00;  4.0851627E-02;  1.9812836E+03;
  1.0637695E+00;  9.9999998E-03;  1.4136320E-01;7980; -3.1112179E-02;  0.0000000E+00;  6.8875360E-03;  9.9897467E+02;  2.9076087E-01; -8.4945618E+02;3;  8.5532169E+00;  0.0000000E+00; -4.0532203E+00;0;  3.9777104E-02;  4.8327056E+03;  0.0000000E+00; -9.1557711E-01;  4.0000000E+04;  0.0000000E+00;  3.9235691E+04;  3.6299198E-03;  0.0000000E+00;  3.6147185E-02;  3.5082009E+03;
  1.0641781E+00;  9.9999998E-03;  1.3122912E-01;7979; -3.2680366E-02;  0.0000000E+00;  6.7722038E-03;  9.9890204E+02;  2.9112586E-01; -9.0965192E+02;3;  9.0352507E+00;  0.0000000E+00; -3.7759855E+00;0;  2.7457729E-02;  4.8194033E+03;  0.0000000E+00; -7.3328292E-01;  4.0000000E+04;  0.0000000E+00;  3.9237461E+04; -1.1385019E-02;  0.0000000E+00;  3.8842749E-02;  2.6565903E+03;
  1.0907145E+00;  9.9999998E-03;  2.3254485E-01;8050; -9.6746199E-03;  0.0000000E+00;  9.6726036E-03;  9.9922449E+02;  3.0783576E-01; -6.4249896E+02;3;  7.7304955E+00;  0.0000000E+00; -2.3644574E+00;0;  2.2380054E-01;  4.3046289E+03;  0.0000000E+00; -3.1003540E+00;  4.0000000E+04;  0.0000000E+00;  3.9188371E+04;  2.2753799E-01;  0.0000000E+00; -3.7374562E-03;  2.6688845E+03;
  1.0904504E+00;  9.9999998E-03;  2.2243324E-01;8049; -1.0984692E-02;  0.0000000E+00;  1.0153216E-02;  9.9981012E+02;  3.0760601E-01; -1.5732855E+02;3;  8.6493912E+00;  0.0000000E+00; -2.3169305E+00;0;  2.0244136E-01;  4.3152373E+03;  0.0000000E+00; -2.9753141E+00;  4.0000000E+04;  0.0000000E+00;  3.9197078E+04;  2.0147941E-01;  0.0000000E+00;  9.6196414E-04;  3.5521147E+03;
  1.0903374E+00;  9.9999998E-03;  2.1235321E-01;8048; -1.2710873E-02;  0.0000000E+00;  1.0310920E-02;  1.0000777E+03;  3.0754870E-01;  6.4393105E+01;3;  9.5502396E+00;  0.0000000E+00; -2.1982086E+00;0;  1.8047653E-01;  4.3204790E+03;  0.0000000E+00; -2.7597210E+00;  4.0000000E+04;  0.0000000E+00;  3.9196973E+04;  1.7442434E-01;  0.0000000E+00;  6.0521923E-03;  4.5916328E+03;
  1.0903457E+00;  9.9999998E-03;  2.0229742E-01;8047; -1.4862183E-02;  0.0000000E+00;  1.0343413E-02;  1.0001555E+03;  3.0761546E-01;  1.2888496E+02;3;  1.0330326E+01;  0.0000000E+00; -2.0679297E+00;0;  1.5860002E-01;  4.3211792E+03;  0.0000000E+00; -2.4781084E+00;  4.0000000E+04;  0.0000000E+00;  3.9194898E+04;  1.4682591E-01;  0.0000000E+00;  1.1774108E-02;  5.7066782E+03;
  1.0906618E+00;  9.9999998E-03;  1.9222218E-01;8046; -1.7171508E-02;  0.0000000E+00;  1.0301244E-02;  1.0000767E+03;  3.0794987E-01;  6.3504242E+01;3;  1.0763710E+01;  0.0000000E+00; -1.8141929E+00;0;  1.3709733E-01;  4.3134067E+03;  0.0000000E+00; -2.1611259E+00;  4.0000000E+04;  0.0000000E+00;  3.9193617E+04;  1.1926235E-01;  0.0000000E+00;  1.7834978E-02;  6.6950322E+03;
  1.0925558E+00;  9.9999998E-03;  7.0791692E-02;8034; -4.3172449E-02;  0.0000000E+00;  3.4699356E-03;  9.9973822E+02;  3.1034186E-01; -2.1688226E+02;3;  1.3013344E+01;  0.0000000E+00; -1.2274415E+00;0; -4.9113624E-02;  4.2460527E+03;  0.0000000E+00;  2.6887673E-01;  4.0000000E+04;  0.0000000E+00;  3.9194625E+04; -8.4483705E-02;  0.0000000E+00;  3.5370082E-02;  2.4902161E+03;
  1.0911688E+00;  9.9999998E-03;  1.8212777E-01;8045; -1.9593548E-02;  0.0000000E+00;  1.0111627E-02;  9.9987878E+02;  3.0846488E-01; -1.0044139E+02;3;  1.1368835E+01;  0.0000000E+00; -1.3495718E+00;0;  1.1607262E-01;  4.2999980E+03;  0.0000000E+00; -1.8456686E+00;  4.0000000E+04;  0.0000000E+00;  3.9191902E+04;  9.2253402E-02;  0.0000000E+00;  2.3819216E-02;  7.2664478E+03;
  1.0929891E+00;  9.9999998E-03;  8.0900051E-02;8035; -4.1857190E-02;  0.0000000E+00;  3.8878720E-03;  9.9965955E+02;  3.1064758E-01; -2.8206546E+02;3;  1.2793388E+01;  0.0000000E+00; -1.2705683E+00;0; -4.0517639E-02;  4.2377739E+03;  0.0000000E+00;  2.3477571E-01;  4.0000000E+04;  0.0000000E+00;  3.9195129E+04; -7.7021249E-02;  0.0000000E+00;  3.6503609E-02;  2.6551021E+03;
  1.0918680E+00;  9.9999998E-03;  1.7201315E-01;8044; -2.2155825E-02;  0.0000000E+00;  9.7762328E-03;  9.9960413E+02;  3.0914277E-01; -3.2798999E+02;3;  1.1696102E+01;  0.0000000E+00; -1.0602198E+00;0;  9.5657453E-02;  4.2815269E+03;  0.0000000E+00; -1.5650234E+00;  4.0000000E+04;  0.0000000E+00;  3.9190449E+04;  6.6301793E-02;  0.0000000E+00;  2.9355662E-02;  7.1625972E+03;
  1.0935986E+00;  9.9999998E-03;  9.0997502E-02;8036; -4.0359441E-02;  0.0000000E+00;  4.3443600E-03;  9.9952606E+02;  3.1109715E-01; -3.9262997E+02;3;  1.2552402E+01;  0.0000000E+00; -1.2574517E+00;0; -3.0777439E-02;  4.2254824E+03;  0.0000000E+00;  1.2614658E-01;  4.0000000E+04;  0.0000000E+00;  3.9196152E+04; -6.8476535E-02;  0.0000000E+00;  3.7699096E-02;  2.5833635E+03;
  1.0927067E+00;  9.9999998E-03;  1.6187383E-01;8043; -2.4698630E-02;  0.0000000E+00;  9.2865573E-03;  9.9933075E+02;  3.0992112E-01; -5.5445221E+02;3;  1.1821630E+01;  0.0000000E+00; -6.7494559E-01;0;  7.5974025E-02;  4.2598345E+03;  0.0000000E+00; -1.3342843E+00;  4.0000000E+04;  0.0000000E+00;  3.9189602E+04;  4.1918024E-02;  0.0000000E+00;  3.4056000E-02;  6.3178774E+03;
  1.0941573E+00;  9.9999998E-03;  1.0108888E-01;8037; -3.8673405E-02;  0.0000000E+00;  4.8464551E-03;  9.9935980E+02;  3.1150395E-01; -5.3040356E+02;3;  1.2299871E+01;  0.0000000E+00; -1.2921690E+00;0; -1.9676093E-02;  4.2142681E+03;  0.0000000E+00; -5.5841010E-02;  4.0000000E+04;  0.0000000E+00;  3.9197266E+04; -5.8601324E-02;  0.0000000E+00;  3.8925231E-02;  2.3582427E+03;
  1.0934999E+00;  9.9999998E-03;  1.5171501E-01;8042; -2.7317679E-02;  0.0000000E+00;  8.5871331E-03;  9.9910248E+02;  3.1065902E-01; -7.4358221E+02;3;  1.1992981E+01;  0.0000000E+00; -5.8439523E-01;0;  5.7090551E-02;  4.2391558E+03;  0.0000000E+00; -1.1436040E+00;  4.0000000E+04;  0.0000000E+00;  3.9190035E+04;  1.9507645E-02;  0.0000000E+00;  3.7582904E-02;  4.9488975E+03;
  1.0945342E+00;  9.9999998E-03;  1.1118260E-01;8038; -3.6747266E-02;  0.0000000E+00;  5.4560592E-03;  9.9919012E+02;  3.1176865E-01; -6.7094244E+02;3;  1.2257245E+01;  0.0000000E+00; -1.0540428E+00;0; -7.1034022E-03;  4.2071558E+03;  0.0000000E+00; -2.8812766E-01;  4.0000000E+04;  0.0000000E+00;  3.9197270E+04; -4.7124330E-02;  0.0000000E+00;  4.0020928E-02;  2.1413108E+03;
  1.0941074E+00;  9.9999998E-03;  1.4155431E-01;8041; -2.9866880E-02;  0.0000000E+00;  7.7924528E-03;  9.9898169E+02;  3.1123653E-01; -8.4362854E+02;3;  1.1967833E+01;  0.0000000E+00; -5.9937644E-01;0;  3.9191086E-02;  4.2227490E+03;  0.0000000E+00; -9.6329117E-01;  4.0000000E+04;  0.0000000E+00;  3.9191824E+04; -5.9494853E-04;  0.0000000E+00;  3.9786033E-02;  3.5103779E+03;
  1.0946426E+00;  9.9999998E-03;  1.2128437E-01;8039; -3.4605917E-02;  0.0000000E+00;  6.1823237E-03;  9.9904559E+02;  3.1180862E-01; -7.9069183E+02;3;  1.2189495E+01;  0.0000000E+00; -8.2987070E-01;0;  6.9600753E-03;  4.2062573E+03;  0.0000000E+00; -5.3485656E-01;  4.0000000E+04;  0.0000000E+00;  3.9196410E+04; -3.3774994E-02;  0.0000000E+00;  4.0735070E-02;  2.1004531E+03;
  1.0944818E+00;  9.9999998E-03;  1.3140610E-01;8040; -3.2308102E-02;  0.0000000E+00;  6.9814580E-03;  9.9896350E+02;  3.1161630E-01; -8.5873920E+02;3;  1.1964638E+01;  0.0000000E+00; -7.9643101E-01;0;  2.2436442E-02;  4.2118745E+03;  0.0000000E+00; -7.6416636E-01;  4.0000000E+04;  0.0000000E+00;  3.9194312E+04; -1.8321091E-02;  0.0000000E+00;  4.0757533E-02;  2.4887712E+03;
  1.1249697E+00;  9.9999998E-03;  7.0899352E-02;8095; -4.6243031E-02;  0.0000000E+00;  1.1807088E-03;  9.9922968E+02;  3.3286384E-01; -6.3820190E+02;3;  1.4755679E+01;  0.0000000E+00;  5.0655147E-03;0; -9.4267733E-02;  3.6914941E+03;  0.0000000E+00;  1.2579116E-01;  4.0000000E+04;  0.0000000E+00;  3.9147590E+04; -1.0386196E-01;  0.0000000E+00;  9.5942272E-03;  2.7173752E+03;
  1.1252480E+00;  9.9999998E-03;  8.1025302E-02;8096; -4.4707566E-02;  0.0000000E+00;  1.4419612E-03;  9.9912012E+02;  3.3303839E-01; -7.2896442E+02;3;  1.4507699E+01;  0.0000000E+00;  7.3925123E-02;0; -8.4904283E-02;  3.6869458E+03;  0.0000000E+00;  1.0099801E-01;  4.0000000E+04;  0.0000000E+00;  3.9150027E+04; -9.7517274E-02;  0.0000000E+00;  1.2612990E-02;  3.1877051E+03;
  1.1256440E+00;  9.9999998E-03;  9.1127545E-02;8097; -4.2987783E-02;  0.0000000E+00;  1.7350334E-03;  9.9894568E+02;  3.3331147E-01; -8.7350299E+02;3;  1.4255586E+01;  0.0000000E+00;  8.5515283E-02;0; -7.4422680E-02;  3.6798865E+03;  0.0000000E+00;  1.8615525E-02;  4.0000000E+04;  0.0000000E+00;  3.9153316E+04; -9.0231851E-02;  0.0000000E+00;  1.5809169E-02;  3.5503850E+03;
  1.1261908E+00;  9.9999998E-03;  1.0120714E-01;8098; -4.1067146E-02;  0.0000000E+00;  2.0886839E-03;  9.9872736E+02;  3.3371034E-01; -1.0543368E+03;3;  1.4060073E+01;  0.0000000E+00;  2.3468046E-01;0; -6.2931381E-02;  3.6700234E+03;  0.0000000E+00; -1.2255482E-01;  4.0000000E+04;  0.0000000E+00;  3.9156098E+04; -8.1947111E-02;  0.0000000E+00;  1.9015729E-02;  3.7846399E+03;
  1.1234523E+00;  9.9999998E-03;  2.3265538E-01;8111;  1.0427240E-02;  0.0000000E+00;  1.4498046E-02;  1.0000468E+03;  3.3037475E-01;  3.8813580E+01;3;  1.1945594E+01;  0.0000000E+00; -9.4381410E-01;0;  2.2319233E-01;  3.7447317E+03;  0.0000000E+00; -2.8453653E+00;  4.0000000E+04;  0.0000000E+00;  3.9139922E+04;  1.9959912E-01;  0.0000000E+00;  2.3593225E-02;  1.7997293E+02;
  1.1231164E+00;  9.9999998E-03;  2.2252025E-01;8110;  5.1365457E-03;  0.0000000E+00;  1.4960136E-02;  1.0004785E+03;  3.3004150E-01;  3.9643185E+02;3;  1.2545101E+01;  0.0000000E+00; -6.5513265E-01;0;  1.9061044E-01;  3.7546353E+03;  0.0000000E+00; -2.4510701E+00;  4.0000000E+04;  0.0000000E+00;  3.9150133E+04;  1.7118955E-01;  0.0000000E+00;  1.9420885E-02;  2.6416907E+03;
  1.1229389E+00;  9.9999998E-03;  2.1241581E-01;8109; -8.2913299E-05;  0.0000000E+00;  1.4778737E-02;  1.0005059E+03;  3.2991949E-01;  4.1904843E+02;3;  1.3080485E+01;  0.0000000E+00; -3.4298848E-02;0;  1.6011445E-01;  3.7589260E+03;  0.0000000E+00; -2.0854003E+00;  4.0000000E+04;  0.0000000E+00;  3.9150824E+04;  1.4208829E-01;  0.0000000E+00;  1.8026160E-02;  4.4008774E+03;
  1.1229167E+00;  9.9999998E-03;  2.0235395E-01;8108; -5.2626696E-03;  0.0000000E+00;  1.3838887E-02;  1.0002754E+03;  3.2997203E-01;  2.2814090E+02;3;  1.3786701E+01;  0.0000000E+00;  8.7106538E-01;0;  1.3205864E-01;  3.7581189E+03;  0.0000000E+00; -1.7556592E+00;  4.0000000E+04;  0.0000000E+00;  3.9148961E+04;  1.1297271E-01;  0.0000000E+00;  1.9085923E-02;  5.9081597E+03;
  1.1269681E+00;  9.9999998E-03;  1.1128472E-01;8099; -3.8950592E-02;  0.0000000E+00;  2.4924579E-03;  9.9848566E+02;  3.3427805E-01; -1.2545770E+03;3;  1.3919789E+01;  0.0000000E+00;  3.5184139E-01;0; -5.0631613E-02;  3.6564661E+03;  0.0000000E+00; -3.0439940E-01;  4.0000000E+04;  0.0000000E+00;  3.9157691E+04; -7.2623886E-02;  0.0000000E+00;  2.1992272E-02;  3.9365933E+03;
  1.1232272E+00;  9.9999998E-03;  1.9227766E-01;8107; -1.0372975E-02;  0.0000000E+00;  1.2284011E-02;  9.9990387E+02;  3.3032373E-01; -7.9651794E+01;3;  1.4321255E+01;  0.0000000E+00;  1.5494542E+00;0;  1.0596334E-01;  3.7496416E+03;  0.0000000E+00; -1.4643852E+00;  4.0000000E+04;  0.0000000E+00;  3.9148223E+04;  8.4022321E-02;  0.0000000E+00;  2.1941019E-02;  7.0488145E+03;
  1.1237259E+00;  9.9999998E-03;  1.8216372E-01;8106; -1.5254889E-02;  0.0000000E+00;  1.0505632E-02;  9.9944116E+02;  3.3085433E-01; -4.6299762E+02;3;  1.4601027E+01;  0.0000000E+00;  1.8828152E+00;0;  8.1792459E-02;  3.7366987E+03;  0.0000000E+00; -1.2263885E+00;  4.0000000E+04;  0.0000000E+00;  3.9148688E+04;  5.6260690E-02;  0.0000000E+00;  2.5531769E-02;  7.5352373E+03;
  1.1274914E+00;  9.9999998E-03;  1.2136625E-01;8100; -3.6544044E-02;  0.0000000E+00;  3.0638578E-03;  9.9827649E+02;  3.3463010E-01; -1.4279049E+03;3;  1.3852126E+01;  0.0000000E+00;  6.3755441E-01;0; -3.6736865E-02;  3.6481523E+03;  0.0000000E+00; -4.9365124E-01;  4.0000000E+04;  0.0000000E+00;  3.9157766E+04; -6.1688047E-02;  0.0000000E+00;  2.4951182E-02;  3.9908818E+03;
  1.1244098E+00;  9.9999998E-03;  1.7201614E-01;8105; -1.9787025E-02;  0.0000000E+00;  8.7719765E-03;  9.9896777E+02;  3.3155292E-01; -8.5518268E+02;3;  1.4648578E+01;  0.0000000E+00;  1.8654696E+00;0;  5.9015047E-02;  3.7198164E+03;  0.0000000E+00; -1.0556489E+00;  4.0000000E+04;  0.0000000E+00;  3.9148914E+04;  3.0284103E-02;  0.0000000E+00;  2.8730944E-02;  7.2122666E+03;
  1.1274632E+00;  9.9999998E-03;  1.3145640E-01;8101; -3.3850659E-02;  0.0000000E+00;  3.8135776E-03;  9.9814917E+02;  3.3452025E-01; -1.5333829E+03;3;  1.3743938E+01;  0.0000000E+00;  7.7168113E-01;0; -2.0767236E-02;  3.6504187E+03;  0.0000000E+00; -6.5803427E-01;  4.0000000E+04;  0.0000000E+00;  3.9156578E+04; -4.8561499E-02;  0.0000000E+00;  2.7794262E-02;  3.9918137E+03;
  1.1252465E+00;  9.9999998E-03;  1.6185236E-01;8104; -2.3858735E-02;  0.0000000E+00;  7.2410647E-03;  9.9855878E+02;  3.3237362E-01; -1.1940360E+03;3;  1.4421902E+01;  0.0000000E+00;  1.6483604E+00;0;  3.7314773E-02;  3.7001909E+03;  0.0000000E+00; -9.4521731E-01;  4.0000000E+04;  0.0000000E+00;  3.9149996E+04;  6.5885447E-03;  0.0000000E+00;  3.0726228E-02;  6.2249507E+03;
  1.1261541E+00;  9.9999998E-03;  1.5169610E-01;8103; -2.7528174E-02;  0.0000000E+00;  5.9126574E-03;  9.9826562E+02;  3.3323997E-01; -1.4368925E+03;3;  1.4120406E+01;  0.0000000E+00;  1.4593260E+00;0;  1.6607845E-02;  3.6798069E+03;  0.0000000E+00; -8.6590874E-01;  4.0000000E+04;  0.0000000E+00;  3.9151992E+04; -1.4533637E-02;  0.0000000E+00;  3.1141482E-02;  5.0377104E+03;
  1.1269155E+00;  9.9999998E-03;  1.4156203E-01;8102; -3.0848378E-02;  0.0000000E+00;  4.7578425E-03;  9.9813403E+02;  3.3397415E-01; -1.5459258E+03;3;  1.3935475E+01;  0.0000000E+00;  1.1480688E+00;0; -2.7960911E-03;  3.6627693E+03;  0.0000000E+00; -7.8016055E-01;  4.0000000E+04;  0.0000000E+00;  3.9154508E+04; -3.2859322E-02;  0.0000000E+00;  3.0063231E-02;  4.2285435E+03;
  1.1600958E+00;  9.9999998E-03;  7.0974827E-02;8156; -5.0823435E-02;  0.0000000E+00; -2.8467781E-03;  9.9710461E+02;  3.5774276E-01; -2.3987817E+03;3;  1.6361780E+01;  0.0000000E+00;  8.3675700E-01;0; -1.6269293E-01;  3.1854241E+03;  0.0000000E+00; -1.4253552E-01;  4.0000000E+04;  0.0000000E+00;  3.9098438E+04; -1.1965618E-01;  0.0000000E+00; -4.3036744E-02;  3.4426089E+03;
  1.1604764E+00;  9.9999998E-03;  8.1113018E-02;8157; -4.9170133E-02;  0.0000000E+00; -3.1293759E-03;  9.9710254E+02;  3.5796618E-01; -2.4004607E+03;3;  1.6119223E+01;  0.0000000E+00;  9.3236071E-01;0; -1.5373154E-01;  3.1808984E+03;  0.0000000E+00; -1.4178829E-01;  4.0000000E+04;  0.0000000E+00;  3.9102055E+04; -1.1497689E-01;  0.0000000E+00; -3.8754653E-02;  4.0483979E+03;
  1.1593052E+00;  9.9999998E-03;  2.3274490E-01;8172;  1.0304572E-02;  0.0000000E+00; -7.0083077E-04;  9.9897339E+02;  3.5554060E-01; -8.5053870E+02;3;  1.2750280E+01;  0.0000000E+00;  1.8219452E+00;0;  7.4406072E-02;  3.2282563E+03;  0.0000000E+00; -1.5600253E+00;  4.0000000E+04;  0.0000000E+00;  3.9098270E+04;  7.0384257E-02;  0.0000000E+00;  4.0218169E-03;  4.3080884E+03;
  1.1611884E+00;  9.9999998E-03;  9.1226161E-02;8158; -4.7354549E-02;  0.0000000E+00; -3.4257367E-03;  9.9700928E+02;  3.5847619E-01; -2.4777417E+03;3;  1.5883654E+01;  0.0000000E+00;  1.0319891E+00;0; -1.4436054E-01;  3.1709199E+03;  0.0000000E+00; -1.5231949E-01;  4.0000000E+04;  0.0000000E+00;  3.9106066E+04; -1.0969643E-01;  0.0000000E+00; -3.4664106E-02;  4.7856206E+03;
  1.1591032E+00;  9.9999998E-03;  2.2260401E-01;8171;  4.5538275E-03;  0.0000000E+00; -6.0477218E-04;  9.9919171E+02;  3.5530606E-01; -6.6965601E+02;3;  1.3382335E+01;  0.0000000E+00;  1.9711920E+00;0;  5.6162920E-02;  3.2331118E+03;  0.0000000E+00; -1.1944758E+00;  4.0000000E+04;  0.0000000E+00;  3.9104203E+04;  5.4007702E-02;  0.0000000E+00;  2.1552166E-03;  3.6114451E+03;
  1.1589984E+00;  9.9999998E-03;  2.1246263E-01;8170; -1.2128225E-03;  0.0000000E+00; -7.8818476E-04;  9.9906750E+02;  3.5523504E-01; -7.7256610E+02;3;  1.3911900E+01;  0.0000000E+00;  2.0588360E+00;0;  3.8263459E-02;  3.2344373E+03;  0.0000000E+00; -9.4238526E-01;  4.0000000E+04;  0.0000000E+00;  3.9106281E+04;  3.6758691E-02;  0.0000000E+00;  1.5047675E-03;  3.7202119E+03;
  1.1619616E+00;  9.9999998E-03;  1.0131799E-01;8159; -4.5321386E-02;  0.0000000E+00; -3.7003348E-03;  9.9686420E+02;  3.5904139E-01; -2.5979351E+03;3;  1.5653677E+01;  0.0000000E+00;  1.1291354E+00;0; -1.3414176E-01;  3.1598088E+03;  0.0000000E+00; -1.8122184E-01;  4.0000000E+04;  0.0000000E+00;  3.9109668E+04; -1.0376405E-01;  0.0000000E+00; -3.0377708E-02;  5.4679292E+03;
  1.1589880E+00;  9.9999998E-03;  2.0235461E-01;8169; -6.9047785E-03;  0.0000000E+00; -1.1637260E-03;  9.9867322E+02;  3.5530970E-01; -1.0992216E+03;3;  1.4434161E+01;  0.0000000E+00;  2.1723659E+00;0;  2.0983065E-02;  3.2324739E+03;  0.0000000E+00; -7.5837076E-01;  4.0000000E+04;  0.0000000E+00;  3.9104547E+04;  1.9225759E-02;  0.0000000E+00;  1.7573048E-03;  4.1678037E+03;
  1.1626644E+00;  9.9999998E-03;  1.1140022E-01;8160; -4.3038785E-02;  0.0000000E+00; -3.9342134E-03;  9.9668457E+02;  3.5955608E-01; -2.7467693E+03;3;  1.5434502E+01;  0.0000000E+00;  1.2124597E+00;0; -1.2293421E-01;  3.1497410E+03;  0.0000000E+00; -2.2684737E-01;  4.0000000E+04;  0.0000000E+00;  3.9112004E+04; -9.7119994E-02;  0.0000000E+00; -2.5814213E-02;  5.9683218E+03;
  1.1590735E+00;  9.9999998E-03;  1.9224843E-01;8168; -1.2403850E-02;  0.0000000E+00; -1.5119708E-03;  9.9815558E+02;  3.5550895E-01; -1.5280464E+03;3;  1.4901550E+01;  0.0000000E+00;  2.2748981E+00;0;  4.2707482E-03;  3.2276948E+03;  0.0000000E+00; -6.2018609E-01;  4.0000000E+04;  0.0000000E+00;  3.9103699E+04;  1.8733044E-03;  0.0000000E+00;  2.3974439E-03;  4.9793271E+03;
  1.1631680E+00;  9.9999998E-03;  1.2148085E-01;8161; -4.0479705E-02;  0.0000000E+00; -4.1014887E-03;  9.9650116E+02;  3.5989860E-01; -2.8987144E+03;3;  1.5217798E+01;  0.0000000E+00;  1.2901524E+00;0; -1.1061287E-01;  3.1429517E+03;  0.0000000E+00; -2.7888408E-01;  4.0000000E+04;  0.0000000E+00;  3.9113109E+04; -8.9655183E-02;  0.0000000E+00; -2.0957682E-02;  6.2302393E+03;
  1.1593084E+00;  9.9999998E-03;  1.8211553E-01;8167; -1.7656680E-02;  0.0000000E+00; -1.8508754E-03;  9.9759821E+02;  3.5585853E-01; -1.9898082E+03;3;  1.5215510E+01;  0.0000000E+00;  2.3413754E+00;0; -1.2338329E-02;  3.2198289E+03;  0.0000000E+00; -5.2066618E-01;  4.0000000E+04;  0.0000000E+00;  3.9104273E+04; -1.4982274E-02;  0.0000000E+00;  2.6439452E-03;  5.6947578E+03;
  1.1598319E+00;  9.9999998E-03;  1.7196314E-01;8166; -2.2438874E-02;  0.0000000E+00; -2.3807129E-03;  9.9707983E+02;  3.5646203E-01; -2.4192749E+03;3;  1.5081442E+01;  0.0000000E+00;  2.2862229E+00;0; -2.9341837E-02;  3.2073660E+03;  0.0000000E+00; -4.5501751E-01;  4.0000000E+04;  0.0000000E+00;  3.9105473E+04; -3.1077143E-02;  0.0000000E+00;  1.7353054E-03;  6.0542368E+03;
  1.1632288E+00;  9.9999998E-03;  1.3156167E-01;8162; -3.7598073E-02;  0.0000000E+00; -4.1339849E-03;  9.9635999E+02;  3.5985643E-01; -3.0156484E+03;3;  1.5032740E+01;  0.0000000E+00;  1.4061786E+00;0; -9.6793488E-02;  3.1433481E+03;  0.0000000E+00; -3.2559708E-01;  4.0000000E+04;  0.0000000E+00;  3.9112219E+04; -8.1119724E-02;  0.0000000E+00; -1.5673760E-02;  6.2617964E+03;
  1.1606889E+00;  9.9999998E-03;  1.6182289E-01;8165; -2.6794916E-02;  0.0000000E+00; -2.9557950E-03;  9.9665631E+02;  3.5733989E-01; -2.7701763E+03;3;  1.5037015E+01;  0.0000000E+00;  2.1528971E+00;0; -4.6795134E-02;  3.1901165E+03;  0.0000000E+00; -4.1526020E-01;  4.0000000E+04;  0.0000000E+00;  3.9107285E+04; -4.6043478E-02;  0.0000000E+00; -7.5165462E-04;  6.1149399E+03;
  1.1626047E+00;  9.9999998E-03;  1.4164048E-01;8163; -3.4338888E-02;  0.0000000E+00; -3.9198808E-03;  9.9631146E+02;  3.5922331E-01; -3.0558450E+03;3;  1.4883830E+01;  0.0000000E+00;  1.5388499E+00;0; -8.1020147E-02;  3.1547463E+03;  0.0000000E+00; -3.6234576E-01;  4.0000000E+04;  0.0000000E+00;  3.9111000E+04; -7.1077630E-02;  0.0000000E+00; -9.9425204E-03;  6.1605586E+03;
  1.1616915E+00;  9.9999998E-03;  1.5171988E-01;8164; -3.0745130E-02;  0.0000000E+00; -3.5147625E-03;  9.9640265E+02;  3.5832709E-01; -2.9803418E+03;3;  1.4838505E+01;  0.0000000E+00;  1.8612944E+00;0; -6.4204834E-02;  3.1713320E+03;  0.0000000E+00; -3.8873425E-01;  4.0000000E+04;  0.0000000E+00;  3.9108875E+04; -5.9425335E-02;  0.0000000E+00; -4.7795009E-03;  6.0989224E+03;
  1.1979975E+00;  9.9999998E-03;  2.1258089E-01;8231; -4.3293629E-03;  0.0000000E+00; -1.9803708E-02;  9.9563763E+02;  3.8324583E-01; -3.6140813E+03;3;  1.4105293E+01;  0.0000000E+00;  4.1066923E+00;0; -6.0676690E-02;  2.7652629E+03;  0.0000000E+00;  6.1849999E-01;  4.0000000E+04;  0.0000000E+00;  3.9046000E+04; -3.9094966E-02;  0.0000000E+00; -2.1581724E-02;  5.1857007E+03;
  1.1980606E+00;  9.9999998E-03;  2.0241381E-01;8230; -1.0049748E-02;  0.0000000E+00; -1.9461919E-02;  9.9542035E+02;  3.8340595E-01; -3.7941235E+03;3;  1.4572596E+01;  0.0000000E+00;  3.9470358E+00;0; -7.2521426E-02;  2.7628772E+03;  0.0000000E+00;  5.2195919E-01;  4.0000000E+04;  0.0000000E+00;  3.9043898E+04; -4.4260267E-02;  0.0000000E+00; -2.8261160E-02;  5.4931709E+03;
  1.1979443E+00;  9.9999998E-03;  2.2276627E-01;8232;  1.5370690E-03;  0.0000000E+00; -2.0134481E-02;  9.9550867E+02;  3.8315681E-01; -3.7209414E+03;3;  1.3580390E+01;  0.0000000E+00;  4.2547469E+00;0; -4.9704473E-02;  2.7659136E+03;  0.0000000E+00;  6.1625856E-01;  4.0000000E+04;  0.0000000E+00;  3.9042742E+04; -3.4329072E-02;  0.0000000E+00; -1.5375402E-02;  4.2733950E+03;
  1.1979713E+00;  9.9999998E-03;  2.3292519E-01;8233;  7.4322736E-03;  0.0000000E+00; -2.0637296E-02;  9.9502209E+02;  3.8321310E-01; -4.1240366E+03;3;  1.3117132E+01;  0.0000000E+00;  4.4692221E+00;0; -4.0719129E-02;  2.7640090E+03;  0.0000000E+00;  3.9117643E-01;  4.0000000E+04;  0.0000000E+00;  3.9036766E+04; -3.0299032E-02;  0.0000000E+00; -1.0420099E-02;  3.7633757E+03;
  1.1982156E+00;  9.9999998E-03;  1.9226119E-01;8229; -1.5562482E-02;  0.0000000E+00; -1.9079726E-02;  9.9503052E+02;  3.8367945E-01; -4.1170742E+03;3;  1.4966195E+01;  0.0000000E+00;  3.7832811E+00;0; -8.5002966E-02;  2.7582104E+03;  0.0000000E+00;  4.0823615E-01;  4.0000000E+04;  0.0000000E+00;  3.9041211E+04; -4.9657691E-02;  0.0000000E+00; -3.5345275E-02;  5.6878784E+03;
  1.1984804E+00;  9.9999998E-03;  1.8211256E-01;8228; -2.0795621E-02;  0.0000000E+00; -1.8656045E-02;  9.9459393E+02;  3.8406220E-01; -4.4787881E+03;3;  1.5157542E+01;  0.0000000E+00;  3.5890858E+00;0; -9.7973503E-02;  2.7516497E+03;  0.0000000E+00;  3.1350213E-01;  4.0000000E+04;  0.0000000E+00;  3.9039867E+04; -5.5051029E-02;  0.0000000E+00; -4.2922474E-02;  5.9159751E+03;
  1.1988770E+00;  9.9999998E-03;  1.7196821E-01;8227; -2.5701715E-02;  0.0000000E+00; -1.8219484E-02;  9.9420959E+02;  3.8454780E-01; -4.7971953E+03;3;  1.5410366E+01;  0.0000000E+00;  3.4275582E+00;0; -1.1128965E-01;  2.7434861E+03;  0.0000000E+00;  2.4630140E-01;  4.0000000E+04;  0.0000000E+00;  3.9040215E+04; -6.0201827E-02;  0.0000000E+00; -5.1087819E-02;  6.1394302E+03;
  1.1997273E+00;  9.9999998E-03;  1.6186045E-01;8226; -3.0319829E-02;  0.0000000E+00; -1.7920770E-02;  9.9394482E+02;  3.8540450E-01; -5.0165435E+03;3;  1.5659692E+01;  0.0000000E+00;  3.3015008E+00;0; -1.2513635E-01;  2.7301545E+03;  0.0000000E+00;  2.0944300E-01;  4.0000000E+04;  0.0000000E+00;  3.9041211E+04; -6.4749345E-02;  0.0000000E+00; -6.0386993E-02;  6.3285801E+03;
  1.1993655E+00;  9.9999998E-03;  7.0953995E-02;8217; -5.7023622E-02;  0.0000000E+00; -1.0018880E-02;  9.9399561E+02;  3.8602623E-01; -4.9744722E+03;3;  1.7796883E+01;  0.0000000E+00;  1.5258396E+00;0; -2.2121406E-01;  2.7222153E+03;  0.0000000E+00; -2.6035550E-01;  4.0000000E+04;  0.0000000E+00;  3.9040117E+04; -8.9667104E-02;  0.0000000E+00; -1.3154694E-01;  4.6259678E+03;
  1.1994690E+00;  9.9999998E-03;  8.1095934E-02;8218; -5.5194676E-02;  0.0000000E+00; -1.1181507E-02;  9.9409967E+02;  3.8596946E-01; -4.8882529E+03;3;  1.7546968E+01;  0.0000000E+00;  1.7472670E+00;0; -2.1334517E-01;  2.7228040E+03;  0.0000000E+00; -2.5977194E-01;  4.0000000E+04;  0.0000000E+00;  3.9043766E+04; -8.8638358E-02;  0.0000000E+00; -1.2470681E-01;  5.0688721E+03;
  1.1996793E+00;  9.9999998E-03;  9.1224335E-02;8219; -5.3124458E-02;  0.0000000E+00; -1.2282919E-02;  9.9415369E+02;  3.8601807E-01; -4.8435132E+03;3;  1.7284309E+01;  0.0000000E+00;  1.9640383E+00;0; -2.0461407E-01;  2.7217075E+03;  0.0000000E+00; -2.2768758E-01;  4.0000000E+04;  0.0000000E+00;  3.9047797E+04; -8.6944878E-02;  0.0000000E+00; -1.1766920E-01;  5.5783062E+03;
  1.2000049E+00;  9.9999998E-03;  1.0134332E-01;8220; -5.0802141E-02;  0.0000000E+00; -1.3338922E-02;  9.9413959E+02;  3.8618097E-01; -4.8551670E+03;3;  1.7048763E+01;  0.0000000E+00;  2.1876028E+00;0; -1.9515309E-01;  2.7188186E+03;  0.0000000E+00; -1.6618758E-01;  4.0000000E+04;  0.0000000E+00;  3.9051051E+04; -8.4610164E-02;  0.0000000E+00; -1.1054292E-01;  6.0767056E+03;
  1.2004523E+00;  9.9999998E-03;  1.1145005E-01;8221; -4.8218273E-02;  0.0000000E+00; -1.4370841E-02;  9.9407642E+02;  3.8646826E-01; -4.9075103E+03;3;  1.6799681E+01;  0.0000000E+00;  2.4015646E+00;0; -1.8511719E-01;  2.7142065E+03;  0.0000000E+00; -8.4098518E-02;  4.0000000E+04;  0.0000000E+00;  3.9052410E+04; -8.1699163E-02;  0.0000000E+00; -1.0341801E-01;  6.4749985E+03;
  1.2007456E+00;  9.9999998E-03;  1.5178566E-01;8225; -3.4634080E-02;  0.0000000E+00; -1.7630422E-02;  9.9382849E+02;  3.8639832E-01; -5.1129341E+03;3;  1.5911572E+01;  0.0000000E+00;  3.1658840E+00;0; -1.3891186E-01;  2.7153379E+03;  0.0000000E+00;  1.8338810E-01;  4.0000000E+04;  0.0000000E+00;  3.9043012E+04; -6.8459563E-02;  0.0000000E+00; -7.0452295E-02;  6.5006592E+03;
  1.2010163E+00;  9.9999998E-03;  1.2153651E-01;8222; -4.5359470E-02;  0.0000000E+00; -1.5399930E-02;  9.9398407E+02;  3.8687399E-01; -4.9840503E+03;3;  1.6575565E+01;  0.0000000E+00;  2.6160934E+00;0; -1.7467062E-01;  2.7080605E+03;  0.0000000E+00;  5.2349162E-03;  4.0000000E+04;  0.0000000E+00;  3.9051777E+04; -7.8321584E-02;  0.0000000E+00; -9.6349038E-02;  6.7050103E+03;
  1.2015479E+00;  9.9999998E-03;  1.3161762E-01;8223; -4.2187877E-02;  0.0000000E+00; -1.6399734E-02;  9.9389581E+02;  3.8726124E-01; -5.0571333E+03;3;  1.6363897E+01;  0.0000000E+00;  2.8264580E+00;0; -1.6379787E-01;  2.7024700E+03;  0.0000000E+00;  8.6933076E-02;  4.0000000E+04;  0.0000000E+00;  3.9049117E+04; -7.4762173E-02;  0.0000000E+00; -8.9035697E-02;  6.7580234E+03;
  1.2015166E+00;  9.9999998E-03;  1.4170630E-01;8224; -3.8615428E-02;  0.0000000E+00; -1.7178321E-02;  9.9383325E+02;  3.8715810E-01; -5.1089834E+03;3;  1.6130463E+01;  0.0000000E+00;  3.0109730E+00;0; -1.5197608E-01;  2.7041392E+03;  0.0000000E+00;  1.4757138E-01;  4.0000000E+04;  0.0000000E+00;  3.9046016E+04; -7.1548440E-02;  0.0000000E+00; -8.0427632E-02;  6.6639546E+03;
  1.2391096E+00;  9.9999998E-03;  2.0254788E-01;8291; -1.2558082E-02;  0.0000000E+00; -4.0100675E-02;  9.9630267E+02;  4.1160426E-01; -3.0631118E+03;3;  1.5036960E+01;  0.0000000E+00;  6.7271729E+00;0; -5.6380462E-02;  2.4064844E+03;  0.0000000E+00;  1.7935266E+00;  4.0000000E+04;  0.0000000E+00;  3.8974812E+04; -6.5414635E-03;  0.0000000E+00; -4.9838997E-02;  9.6346133E+03;
  1.2392035E+00;  9.9999998E-03;  1.9239739E-01;8290; -1.8108094E-02;  0.0000000E+00; -3.9329186E-02;  9.9594592E+02;  4.1179687E-01; -3.3586531E+03;3;  1.5483992E+01;  0.0000000E+00;  6.4251990E+00;0; -6.4852923E-02;  2.4034978E+03;  0.0000000E+00;  1.4442098E+00;  4.0000000E+04;  0.0000000E+00;  3.8967914E+04;  5.4449975E-03;  0.0000000E+00; -7.0297919E-02;  8.4660166E+03;
  1.2392678E+00;  9.9999998E-03;  2.1274857E-01;8292; -6.8673021E-03;  0.0000000E+00; -4.0865403E-02;  9.9648242E+02;  4.1162860E-01; -2.9141807E+03;3;  1.4611409E+01;  0.0000000E+00;  7.0261164E+00;0; -4.6289697E-02;  2.4063579E+03;  0.0000000E+00;  2.0696633E+00;  4.0000000E+04;  0.0000000E+00;  3.8979676E+04; -1.7114693E-02;  0.0000000E+00; -2.9175006E-02;  1.0170427E+04;
  1.2395633E+00;  9.9999998E-03;  1.8226813E-01;8289; -2.3488771E-02;  0.0000000E+00; -3.8551826E-02;  9.9558746E+02;  4.1220510E-01; -3.6556262E+03;3;  1.5850108E+01;  0.0000000E+00;  6.1069903E+00;0; -7.0980392E-02;  2.3977371E+03;  0.0000000E+00;  1.1003252E+00;  4.0000000E+04;  0.0000000E+00;  3.8963293E+04;  1.9566422E-02;  0.0000000E+00; -9.0546817E-02;  7.1813770E+03;
  1.2401237E+00;  9.9999998E-03;  1.7214414E-01;8288; -2.8650692E-02;  0.0000000E+00; -3.7736509E-02;  9.9528101E+02;  4.1276088E-01; -3.9095391E+03;3;  1.6183868E+01;  0.0000000E+00;  5.7842064E+00;0; -7.4239753E-02;  2.3901851E+03;  0.0000000E+00;  7.9863513E-01;  4.0000000E+04;  0.0000000E+00;  3.8961438E+04;  3.6252648E-02;  0.0000000E+00; -1.1049240E-01;  5.9619199E+03;
  1.2394792E+00;  9.9999998E-03;  2.2298785E-01;8293; -1.0882627E-03;  0.0000000E+00; -4.1608881E-02;  9.9619867E+02;  4.1173169E-01; -3.1492803E+03;3;  1.4075530E+01;  0.0000000E+00;  7.2767453E+00;0; -3.5970248E-02;  2.4043762E+03;  0.0000000E+00;  2.1338983E+00;  4.0000000E+04;  0.0000000E+00;  3.8975781E+04; -2.7141336E-02;  0.0000000E+00; -8.8289110E-03;  8.9700977E+03;
  1.2405849E+00;  9.9999998E-03;  1.6201341E-01;8287; -3.3529472E-02;  0.0000000E+00; -3.6731079E-02;  9.9503046E+02;  4.1321033E-01; -4.1170845E+03;3;  1.6480761E+01;  0.0000000E+00;  5.4561186E+00;0; -7.5411633E-02;  2.3836904E+03;  0.0000000E+00;  5.4262805E-01;  4.0000000E+04;  0.0000000E+00;  3.8962676E+04;  5.4104447E-02;  0.0000000E+00; -1.2951608E-01;  4.9448677E+03;
  1.2410883E+00;  9.9999998E-03;  1.5189460E-01;8286; -3.8110923E-02;  0.0000000E+00; -3.5607267E-02;  9.9486536E+02;  4.1367757E-01; -4.2538667E+03;3;  1.6673164E+01;  0.0000000E+00;  5.0788784E+00;0; -7.3573805E-02;  2.3772407E+03;  0.0000000E+00;  3.1674817E-01;  4.0000000E+04;  0.0000000E+00;  3.8965168E+04;  7.3954158E-02;  0.0000000E+00; -1.4752796E-01;  4.2804399E+03;
  1.2413980E+00;  9.9999998E-03;  8.1108026E-02;8279; -6.0243100E-02;  0.0000000E+00; -2.2512870E-02;  9.9397534E+02;  4.1455084E-01; -4.9912134E+03;3;  1.8321630E+01;  0.0000000E+00;  2.1937423E+00;0; -3.1944200E-02;  2.3641853E+03;  0.0000000E+00; -3.9603180E-01;  4.0000000E+04;  0.0000000E+00;  3.8967863E+04;  2.1027181E-01;  0.0000000E+00; -2.4221601E-01;  3.7065339E+03;
  1.2413156E+00;  9.9999998E-03;  9.1239482E-02;8280; -5.8065172E-02;  0.0000000E+00; -2.4799047E-02;  9.9415710E+02;  4.1434816E-01; -4.8406528E+03;3;  1.7923361E+01;  0.0000000E+00;  2.5267370E+00;0; -4.1613579E-02;  2.3665413E+03;  0.0000000E+00; -4.3164375E-01;  4.0000000E+04;  0.0000000E+00;  3.8971789E+04;  1.8866403E-01;  0.0000000E+00; -2.3027761E-01;  4.1893066E+03;
  1.2416888E+00;  9.9999998E-03;  1.4178929E-01;8285; -4.2344186E-02;  0.0000000E+00; -3.4385875E-02;  9.9480835E+02;  4.1420558E-01; -4.3010737E+03;3;  1.6982500E+01;  0.0000000E+00;  4.6984730E+00;0; -6.8081193E-02;  2.3704028E+03;  0.0000000E+00;  1.0851752E-01;  4.0000000E+04;  0.0000000E+00;  3.8968449E+04;  9.6525230E-02;  0.0000000E+00; -1.6460642E-01;  4.0799131E+03;
  1.2417216E+00;  9.9999998E-03;  7.0959650E-02;8278; -6.2149428E-02;  0.0000000E+00; -2.0133974E-02;  9.9381781E+02;  4.1495249E-01; -5.1217251E+03;3;  1.8509472E+01;  0.0000000E+00;  1.7931567E+00;0; -1.8517181E-02;  2.3596912E+03;  0.0000000E+00; -3.2651335E-01;  4.0000000E+04;  0.0000000E+00;  3.8963426E+04;  2.3570229E-01;  0.0000000E+00; -2.5421947E-01;  3.2358857E+03;
  1.2415106E+00;  9.9999998E-03;  1.0135698E-01;8281; -5.5584837E-02;  0.0000000E+00; -2.7026359E-02;  9.9435455E+02;  4.1437194E-01; -4.6770557E+03;3;  1.7786814E+01;  0.0000000E+00;  2.9750936E+00;0; -4.7459319E-02;  2.3664028E+03;  0.0000000E+00; -4.2132241E-01;  4.0000000E+04;  0.0000000E+00;  3.8974750E+04;  1.7111732E-01;  0.0000000E+00; -2.1857664E-01;  4.5464692E+03;
  1.2399356E+00;  9.9999998E-03;  2.3318869E-01;8294;  4.6772328E-03;  0.0000000E+00; -4.2633235E-02;  9.9550165E+02;  4.1209909E-01; -3.7267334E+03;3;  1.3583799E+01;  0.0000000E+00;  7.4871769E+00;0; -2.6965534E-02;  2.3990603E+03;  0.0000000E+00;  1.8135434E+00;  4.0000000E+04;  0.0000000E+00;  3.8965438E+04; -3.6439534E-02;  0.0000000E+00;  9.4740000E-03;  5.4842920E+03;
  1.2418069E+00;  9.9999998E-03;  1.3169213E-01;8284; -4.6185266E-02;  0.0000000E+00; -3.2809667E-02;  9.9471405E+02;  4.1434744E-01; -4.3792427E+03;3;  1.7080008E+01;  0.0000000E+00;  4.2417188E+00;0; -6.3544951E-02;  2.3678992E+03;  0.0000000E+00; -8.0090217E-02;  4.0000000E+04;  0.0000000E+00;  3.8972406E+04;  1.1603180E-01;  0.0000000E+00; -1.7957675E-01;  4.2681724E+03;
  1.2417984E+00;  9.9999998E-03;  1.2158673E-01;8283; -4.9663350E-02;  0.0000000E+00; -3.1048762E-02;  9.9462567E+02;  4.1440585E-01; -4.4524243E+03;3;  1.7390602E+01;  0.0000000E+00;  3.8297725E+00;0; -5.8375016E-02;  2.3666304E+03;  0.0000000E+00; -2.4001293E-01;  4.0000000E+04;  0.0000000E+00;  3.8975051E+04;  1.3501562E-01;  0.0000000E+00; -1.9339064E-01;  4.5470264E+03;
  1.2417721E+00;  9.9999998E-03;  1.1147024E-01;8282; -5.2796945E-02;  0.0000000E+00; -2.9147316E-02;  9.9452185E+02;  4.1447264E-01; -4.5384448E+03;3;  1.7484558E+01;  0.0000000E+00;  3.3458722E+00;0; -5.2116722E-02;  2.3655537E+03;  0.0000000E+00; -3.5806701E-01;  4.0000000E+04;  0.0000000E+00;  3.8975621E+04;  1.5443236E-01;  0.0000000E+00; -2.0654908E-01;  4.6726509E+03;
  1.2825898E+00;  9.9999998E-03;  1.9264494E-01;8351; -1.8418036E-02;  0.0000000E+00; -6.5417551E-02;  1.0004219E+03;  4.2952377E-01;  3.4950769E+02;3;  1.5831958E+01;  0.0000000E+00;  9.7142153E+00;0;  3.5685289E-01;  2.2313220E+03;  0.0000000E+00;  1.4715091E+00;  4.0000000E+04;  0.0000000E+00;  3.8915238E+04;  4.6218234E-01;  0.0000000E+00; -1.0532945E-01;  7.7934004E+03;
  1.2824455E+00;  9.9999998E-03;  2.0279339E-01;8352; -1.2872732E-02;  0.0000000E+00; -6.6466548E-02;  1.0009882E+03;  4.2935365E-01;  8.1861243E+02;3;  1.5546024E+01;  0.0000000E+00;  1.0425594E+01;0;  3.0822381E-01;  2.2349163E+03;  0.0000000E+00;  1.8310435E+00;  4.0000000E+04;  0.0000000E+00;  3.8924605E+04;  3.7636277E-01;  0.0000000E+00; -6.8138950E-02;  1.0099633E+04;
  1.2832152E+00;  9.9999998E-03;  1.8254152E-01;8350; -2.3795564E-02;  0.0000000E+00; -6.4438425E-02;  9.9980286E+02;  4.2985249E-01; -1.6334714E+02;3;  1.6130817E+01;  0.0000000E+00;  8.9157600E+00;0;  4.2335668E-01;  2.2255356E+03;  0.0000000E+00;  1.0536494E+00;  4.0000000E+04;  0.0000000E+00;  3.8908047E+04;  5.6482208E-01;  0.0000000E+00; -1.4146540E-01;  5.3387905E+03;
  1.2828048E+00;  9.9999998E-03;  2.1300255E-01;8353; -7.2633070E-03;  0.0000000E+00; -6.7515701E-02;  1.0013698E+03;  4.2935470E-01;  1.1347395E+03;3;  1.4711381E+01;  0.0000000E+00;  1.2115170E+01;0;  2.7474546E-01;  2.2360376E+03;  0.0000000E+00;  2.0339382E+00;  4.0000000E+04;  0.0000000E+00;  3.8931527E+04;  3.0477014E-01;  0.0000000E+00; -3.0024674E-02;  1.1595923E+04;
  1.2839233E+00;  9.9999998E-03;  1.7244083E-01;8349; -2.8993381E-02;  0.0000000E+00; -6.3240565E-02;  9.9915442E+02;  4.3018764E-01; -7.0049622E+02;3;  1.6355284E+01;  0.0000000E+00;  8.2542181E+00;0;  5.0165230E-01;  2.2192871E+03;  0.0000000E+00;  6.4595598E-01;  4.0000000E+04;  0.0000000E+00;  3.8903355E+04;  6.7756665E-01;  0.0000000E+00; -1.7591433E-01;  3.1020393E+03;
  1.2842861E+00;  9.9999998E-03;  1.6230197E-01;8348; -3.3964906E-02;  0.0000000E+00; -6.1553493E-02;  9.9849487E+02;  4.3038502E-01; -1.2469285E+03;3;  1.6756678E+01;  0.0000000E+00;  7.5444269E+00;0;  5.8021212E-01;  2.2143633E+03;  0.0000000E+00;  2.7937984E-01;  4.0000000E+04;  0.0000000E+00;  3.8901215E+04;  7.8771472E-01;  0.0000000E+00; -2.0750259E-01;  1.3413849E+03;
  1.2834340E+00;  9.9999998E-03;  2.2325496E-01;8354; -1.6059529E-03;  0.0000000E+00; -6.8541095E-02;  1.0013221E+03;  4.2945448E-01;  1.0952355E+03;3;  1.4940184E+01;  0.0000000E+00;  1.2591236E+01;0;  2.5053909E-01;  2.2353306E+03;  0.0000000E+00;  1.9399623E+00;  4.0000000E+04;  0.0000000E+00;  3.8927938E+04;  2.4216215E-01;  0.0000000E+00;  8.3769495E-03;  1.1129960E+04;
  1.2847157E+00;  9.9999998E-03;  1.5214910E-01;8347; -3.8626529E-02;  0.0000000E+00; -5.9626490E-02;  9.9788080E+02;  4.3056443E-01; -1.7556345E+03;3;  1.6753147E+01;  0.0000000E+00;  6.7193079E+00;0;  6.6770077E-01;  2.2096201E+03;  0.0000000E+00; -4.5879494E-02;  4.0000000E+04;  0.0000000E+00;  3.8900938E+04;  9.0405846E-01;  0.0000000E+00; -2.3635766E-01;  6.7888385E+02;
  1.2853379E+00;  9.9999998E-03;  1.4202107E-01;8346; -4.2802013E-02;  0.0000000E+00; -5.7493463E-02;  9.9733069E+02;  4.3078503E-01; -2.2114055E+03;3;  1.7155308E+01;  0.0000000E+00;  5.9356384E+00;0;  7.6773006E-01;  2.2046824E+03;  0.0000000E+00; -3.1571794E-01;  4.0000000E+04;  0.0000000E+00;  3.8901629E+04;  1.0304074E+00;  0.0000000E+00; -2.6267737E-01;  1.2580712E+03;
  1.2843152E+00;  9.9999998E-03;  2.3347661E-01;8355;  4.1293656E-03;  0.0000000E+00; -6.9785036E-02;  1.0008055E+03;  4.2967004E-01;  6.6731311E+02;3;  1.5527953E+01;  0.0000000E+00;  1.2701925E+01;0;  2.3223944E-01;  2.2328684E+03;  0.0000000E+00;  1.3850534E+00;  4.0000000E+04;  0.0000000E+00;  3.8913590E+04;  1.8803082E-01;  0.0000000E+00;  4.4208616E-02;  7.9578062E+03;
  1.2857687E+00;  9.9999998E-03;  1.3191769E-01;8345; -4.6631191E-02;  0.0000000E+00; -5.4967966E-02;  9.9682153E+02;  4.3094304E-01; -2.6332031E+03;3;  1.6778542E+01;  0.0000000E+00;  5.0157189E+00;0;  8.6636007E-01;  2.2007339E+03;  0.0000000E+00; -5.1222438E-01;  4.0000000E+04;  0.0000000E+00;  3.8902469E+04;  1.1524129E+00;  0.0000000E+00; -2.8605279E-01;  1.5313912E+03;
  1.2859530E+00;  9.9999998E-03;  1.2181750E-01;8344; -5.0100949E-02;  0.0000000E+00; -5.2014634E-02;  9.9632660E+02;  4.3103391E-01; -3.0431997E+03;3;  1.6812593E+01;  0.0000000E+00;  4.0345616E+00;0;  9.5806730E-01;  2.1978396E+03;  0.0000000E+00; -6.2591875E-01;  4.0000000E+04;  0.0000000E+00;  3.8902125E+04;  1.2650583E+00;  0.0000000E+00; -3.0699098E-01;  1.3420347E+03;
  1.2858778E+00;  9.9999998E-03;  1.1171830E-01;8343; -5.3308222E-02;  0.0000000E+00; -4.8682205E-02;  9.9582538E+02;  4.3106434E-01; -3.4584802E+03;3;  1.7283108E+01;  0.0000000E+00;  3.5314910E+00;0;  1.0386547E+00;  2.1959148E+03;  0.0000000E+00; -6.5642333E-01;  4.0000000E+04;  0.0000000E+00;  3.8899922E+04;  1.3646134E+00;  0.0000000E+00; -3.2595873E-01;  8.5681171E+02;
  1.2859172E+00;  9.9999998E-03;  1.0160743E-01;8342; -5.6111775E-02;  0.0000000E+00; -4.5176614E-02;  9.9531165E+02;  4.3115735E-01; -3.8840808E+03;3;  1.7194578E+01;  0.0000000E+00;  2.6067998E+00;0;  1.1217906E+00;  2.1936165E+03;  0.0000000E+00; -6.1007553E-01;  4.0000000E+04;  0.0000000E+00;  3.8895480E+04;  1.4660960E+00;  0.0000000E+00; -3.4430540E-01;  8.3544385E+02;
  1.2863040E+00;  9.9999998E-03;  9.1481261E-02;8341; -5.8399316E-02;  0.0000000E+00; -4.1540835E-02;  9.9480194E+02;  4.3136862E-01; -4.3063223E+03;3;  1.7912416E+01;  0.0000000E+00;  2.1419711E+00;0;  1.2182457E+00;  2.1902166E+03;  0.0000000E+00; -5.0201303E-01;  4.0000000E+04;  0.0000000E+00;  3.8888980E+04;  1.5810760E+00;  0.0000000E+00; -3.6283031E-01;  1.6993079E+03;
  1.2869774E+00;  9.9999998E-03;  8.1336409E-02;8340; -6.0271215E-02;  0.0000000E+00; -3.7758928E-02;  9.9432050E+02;  4.3167329E-01; -4.7051572E+03;3;  1.8041569E+01;  0.0000000E+00;  1.6524110E+00;0;  1.3264343E+00;  2.1859983E+03;  0.0000000E+00; -3.5966939E-01;  4.0000000E+04;  0.0000000E+00;  3.8880914E+04;  1.7077529E+00;  0.0000000E+00; -3.8131872E-01;  2.6432356E+03;
  1.2875975E+00;  9.9999998E-03;  7.1146064E-02;8339; -6.1775088E-02;  0.0000000E+00; -3.3668786E-02;  9.9388708E+02;  4.3195996E-01; -5.0642417E+03;3;  1.8427883E+01;  0.0000000E+00;  9.7992295E-01;0;  1.4294300E+00;  2.1820808E+03;  0.0000000E+00; -2.1798080E-01;  4.0000000E+04;  0.0000000E+00;  3.8873086E+04;  1.8280498E+00;  0.0000000E+00; -3.9861977E-01;  3.3525369E+03;
  1.3258698E+00;  9.9999998E-03;  2.0287345E-01;8413; -1.1323221E-02;  0.0000000E+00; -9.5587999E-02;  9.9478693E+02;  4.2231131E-01; -4.3186260E+03;3;  1.7896406E+01;  0.0000000E+00;  8.8567448E+00;0;  1.6859529E+00;  2.2818723E+03;  0.0000000E+00;  5.6664550E-01;  4.0000000E+04;  0.0000000E+00;  3.8908023E+04;  1.8081210E+00;  0.0000000E+00; -1.2216802E-01;  4.6353755E+03;
  1.3262538E+00;  9.9999998E-03;  1.9277923E-01;8412; -1.7488357E-02;  0.0000000E+00; -9.3381763E-02;  9.9416223E+02;  4.2239827E-01; -4.8361514E+03;3;  1.7319561E+01;  0.0000000E+00;  8.8488588E+00;0;  1.8868232E+00;  2.2789368E+03;  0.0000000E+00;  3.6136892E-01;  4.0000000E+04;  0.0000000E+00;  3.8892480E+04;  2.0533497E+00;  0.0000000E+00; -1.6652650E-01;  1.9891631E+03;
  1.3261002E+00;  9.9999998E-03;  2.1303190E-01;8414; -5.2949870E-03;  0.0000000E+00; -9.7912215E-02;  9.9524524E+02;  4.2212847E-01; -3.9389592E+03;3;  1.8678520E+01;  0.0000000E+00;  9.0593748E+00;0;  1.5279268E+00;  2.2847720E+03;  0.0000000E+00;  6.4557141E-01;  4.0000000E+04;  0.0000000E+00;  3.8924844E+04;  1.6075547E+00;  0.0000000E+00; -7.9627827E-02;  7.1697139E+03;
  1.3271254E+00;  9.9999998E-03;  1.8271084E-01;8411; -2.3157664E-02;  0.0000000E+00; -9.1352306E-02;  9.9346234E+02;  4.2240736E-01; -5.4159395E+03;3;  1.6258261E+01;  0.0000000E+00;  9.0922022E+00;0;  2.1278720E+00;  2.2759727E+03;  0.0000000E+00;  1.2965195E-01;  4.0000000E+04;  0.0000000E+00;  3.8879820E+04;  2.3384159E+00;  0.0000000E+00; -2.1054399E-01;  2.5081320E+02;
  1.3267229E+00;  9.9999998E-03;  2.2325964E-01;8415;  1.9044970E-04;  0.0000000E+00; -1.0007124E-01;  9.9538599E+02;  4.2187515E-01; -3.8223264E+03;3;  1.9782530E+01;  0.0000000E+00;  9.2524223E+00;0;  1.3986349E+00;  2.2875256E+03;  0.0000000E+00;  4.7315791E-01;  4.0000000E+04;  0.0000000E+00;  3.8934477E+04;  1.4399637E+00;  0.0000000E+00; -4.1328784E-02;  8.3684434E+03;
  1.3280745E+00;  9.9999998E-03;  1.7261152E-01;8410; -2.7432680E-02;  0.0000000E+00; -8.9163005E-02;  9.9273285E+02;  4.2239675E-01; -6.0202661E+03;3;  9.4385910E+00;  0.0000000E+00;  9.4406881E+00;0;  2.3872569E+00;  2.2729438E+03;  0.0000000E+00; -5.9805218E-02;  4.0000000E+04;  0.0000000E+00;  3.8869488E+04;  2.6394472E+00;  0.0000000E+00; -2.5219026E-01;  1.9271693E+03;
  1.3287752E+00;  9.9999998E-03;  1.6245446E-01;8409; -2.9349172E-02;  0.0000000E+00; -8.6591616E-02;  9.9201331E+02;  4.2237902E-01; -6.6162979E+03;3; -5.9408321E+00;  0.0000000E+00;  9.4118252E+00;0;  2.6415389E+00;  2.2700674E+03;  0.0000000E+00; -1.8520869E-01;  4.0000000E+04;  0.0000000E+00;  3.8859871E+04;  2.9313684E+00;  0.0000000E+00; -2.8982952E-01;  3.1209045E+03;
  1.3277389E+00;  9.9999998E-03;  2.3348607E-01;8416;  5.1613157E-03;  0.0000000E+00; -1.0207694E-01;  9.9515094E+02;  4.2156869E-01; -4.0170676E+03;3;  2.1819769E+01;  0.0000000E+00;  9.4234562E+00;0;  1.2947087E+00;  2.2902466E+03;  0.0000000E+00; -1.0137951E-01;  4.0000000E+04;  0.0000000E+00;  3.8933859E+04;  1.3066839E+00;  0.0000000E+00; -1.1975135E-02;  7.4990693E+03;
  1.3292611E+00;  9.9999998E-03;  1.5226302E-01;8408; -3.0551866E-02;  0.0000000E+00; -8.3529569E-02;  9.9133844E+02;  4.2232755E-01; -7.1753955E+03;3; -1.8499979E+01;  0.0000000E+00;  9.9892445E+00;0;  2.8868182E+00;  2.2676729E+03;  0.0000000E+00; -2.5862405E-01;  4.0000000E+04;  0.0000000E+00;  3.8852402E+04;  3.2095046E+00;  0.0000000E+00; -3.2268646E-01;  3.8748147E+03;
  1.3297207E+00;  9.9999998E-03;  1.4208786E-01;8407; -3.0713717E-02;  0.0000000E+00; -7.9998873E-02;  9.9071594E+02;  4.2224419E-01; -7.6910913E+03;3; -2.9358301E+01;  0.0000000E+00;  9.8826828E+00;0;  3.1300030E+00;  2.2658384E+03;  0.0000000E+00; -2.8425664E-01;  4.0000000E+04;  0.0000000E+00;  3.8847090E+04;  3.4808800E+00;  0.0000000E+00; -3.5087714E-01;  4.2930811E+03;
  1.3302149E+00;  9.9999998E-03;  1.3196653E-01;8406; -2.8630050E-02;  0.0000000E+00; -7.6135278E-02;  9.9015369E+02;  4.2214179E-01; -8.1568652E+03;3; -4.0698944E+01;  0.0000000E+00;  9.1864271E+00;0;  3.3710363E+00;  2.2644082E+03;  0.0000000E+00; -2.6368776E-01;  4.0000000E+04;  0.0000000E+00;  3.8843066E+04;  3.7461202E+00;  0.0000000E+00; -3.7508401E-01;  4.6274600E+03;
  1.3307272E+00;  9.9999998E-03;  1.2187000E-01;8405; -2.3947585E-02;  0.0000000E+00; -7.1878135E-02;  9.8961121E+02;  4.2204884E-01; -8.6062441E+03;3; -5.0584358E+01;  0.0000000E+00;  8.8893995E+00;0;  3.6060967E+00;  2.2631907E+03;  0.0000000E+00; -2.0302886E-01;  4.0000000E+04;  0.0000000E+00;  3.8838766E+04;  4.0024281E+00;  0.0000000E+00; -3.9633140E-01;  5.1633774E+03;
  1.3310337E+00;  9.9999998E-03;  1.1175919E-01;8404; -2.1287650E-02;  0.0000000E+00; -6.7271523E-02;  9.8907996E+02;  4.2201915E-01; -9.0463418E+03;3; -5.7980972E+01;  0.0000000E+00;  7.9741507E+00;0;  3.8174992E+00;  2.2617209E+03;  0.0000000E+00; -1.1688796E-01;  4.0000000E+04;  0.0000000E+00;  3.8833777E+04;  4.2327919E+00;  0.0000000E+00; -4.1529262E-01;  5.9992847E+03;
  1.3313073E+00;  9.9999998E-03;  1.0162005E-01;8403; -1.7922008E-02;  0.0000000E+00; -6.2330298E-02;  9.8856677E+02;  4.2202854E-01; -9.4714785E+03;3; -6.4226990E+01;  0.0000000E+00;  7.5582781E+00;0;  4.0147681E+00;  2.2601455E+03;  0.0000000E+00; -1.8523799E-02;  4.0000000E+04;  0.0000000E+00;  3.8827148E+04;  4.4475293E+00;  0.0000000E+00; -4.3276107E-01;  7.0572271E+03;
  1.3316447E+00;  9.9999998E-03;  9.1447473E-02;8402; -1.1458900E-02;  0.0000000E+00; -5.7031728E-02;  9.8807886E+02;  4.2205885E-01; -9.8756787E+03;3; -7.0535309E+01;  0.0000000E+00;  6.7465382E+00;0;  4.2024274E+00;  2.2586226E+03;  0.0000000E+00;  7.5096376E-02;  4.0000000E+04;  0.0000000E+00;  3.8819461E+04;  4.6514540E+00;  0.0000000E+00; -4.4902650E-01;  8.1488096E+03;
  1.3319758E+00;  9.9999998E-03;  8.1226796E-02;8401; -3.8622776E-03;  0.0000000E+00; -5.1395033E-02;  9.8764520E+02;  4.2210659E-01; -1.0234896E+04;3; -7.5487221E+01;  0.0000000E+00;  6.0028605E+00;0;  4.3742714E+00;  2.2571331E+03;  0.0000000E+00;  1.4674902E-01;  4.0000000E+04;  0.0000000E+00;  3.8811688E+04;  4.8382912E+00;  0.0000000E+00; -4.6402001E-01;  9.0934092E+03;
  1.3321615E+00;  9.9999998E-03;  7.1005009E-02;8400;  3.9922434E-04;  0.0000000E+00; -4.5554779E-02;  9.8727277E+02;  4.2218292E-01; -1.0543451E+04;3; -7.9585670E+01;  0.0000000E+00;  5.3106875E+00;0;  4.5193172E+00;  2.2554399E+03;  0.0000000E+00;  1.8485516E-01;  4.0000000E+04;  0.0000000E+00;  3.8805051E+04;  4.9968748E+00;  0.0000000E+00; -4.7755751E-01;  9.7784443E+03;
  1.3672011E+00;  9.9999998E-03;  2.0304053E-01;8474;  3.3729512E-02;  0.0000000E+00; -1.1571407E-01;  9.9132886E+02;  4.0160173E-01; -7.1829248E+03;3; -6.4128960E+01;  0.0000000E+00; -6.0663075E+00;0;  4.2948637E+00;  2.5040735E+03;  0.0000000E+00; -4.3703100E-01;  4.0000000E+04;  0.0000000E+00;  3.8888875E+04;  4.5175548E+00;  0.0000000E+00; -2.2269128E-01;  1.8605148E+03;
  1.3676426E+00;  9.9999998E-03;  1.9293989E-01;8473;  6.5059885E-02;  0.0000000E+00; -1.1273330E-01;  9.9135693E+02;  4.0163103E-01; -7.1596626E+03;3; -7.5869148E+01;  0.0000000E+00; -7.6542921E+00;0;  4.5605440E+00;  2.5046387E+03;  0.0000000E+00; -4.6454579E-01;  4.0000000E+04;  0.0000000E+00;  3.8870688E+04;  4.8094258E+00;  0.0000000E+00; -2.4888185E-01;  3.2757815E+03;
  1.3671746E+00;  9.9999998E-03;  2.1317191E-01;8475;  4.1956850E-03;  0.0000000E+00; -1.1666089E-01;  9.9132855E+02;  4.0144849E-01; -7.1831719E+03;3; -4.8877617E+01;  0.0000000E+00; -3.7968171E+00;0;  4.0591869E+00;  2.5046914E+03;  0.0000000E+00; -4.4477519E-01;  4.0000000E+04;  0.0000000E+00;  3.8909047E+04;  4.2611208E+00;  0.0000000E+00; -2.0193377E-01;  3.1632021E+03;
  1.3684725E+00;  9.9999998E-03;  1.8283729E-01;8472;  9.9629134E-02;  0.0000000E+00; -1.0772943E-01;  9.9140906E+02;  4.0154067E-01; -7.1164478E+03;3; -8.5907867E+01;  0.0000000E+00; -8.9624138E+00;0;  4.8497972E+00;  2.5065161E+03;  0.0000000E+00; -4.5793006E-01;  4.0000000E+04;  0.0000000E+00;  3.8853398E+04;  5.1270561E+00;  0.0000000E+00; -2.7725872E-01;  5.2203008E+03;
  1.3676194E+00;  9.9999998E-03;  2.2335516E-01;8476; -6.9524208E-03;  0.0000000E+00; -1.1674919E-01;  9.9127661E+02;  4.0114769E-01; -7.2261714E+03;3;  1.9263000E+01;  0.0000000E+00; -6.8639541E+00;0;  3.8607445E+00;  2.5068896E+03;  0.0000000E+00; -5.8769453E-01;  4.0000000E+04;  0.0000000E+00;  3.8924883E+04;  4.0510602E+00;  0.0000000E+00; -1.9031563E-01;  5.1128105E+03;
  1.3696520E+00;  9.9999998E-03;  1.7271882E-01;8471;  1.3846797E-01;  0.0000000E+00; -1.0073743E-01;  9.9149109E+02;  4.0132141E-01; -7.0484917E+03;3; -9.3887619E+01;  0.0000000E+00; -1.0406590E+01;0;  5.1544538E+00;  2.5099795E+03;  0.0000000E+00; -3.7797505E-01;  4.0000000E+04;  0.0000000E+00;  3.8836555E+04;  5.4585624E+00;  0.0000000E+00; -3.0410880E-01;  7.0649077E+03;
  1.3682392E+00;  9.9999998E-03;  2.3356104E-01;8477; -3.4377673E-03;  0.0000000E+00; -1.1824272E-01;  9.9107684E+02;  4.0081862E-01; -7.3916650E+03;3;  2.6398170E+01;  0.0000000E+00; -8.1752357E+00;0;  3.6751785E+00;  2.5095068E+03;  0.0000000E+00; -9.9283504E-01;  4.0000000E+04;  0.0000000E+00;  3.8931320E+04;  3.8709414E+00;  0.0000000E+00; -1.9576292E-01;  6.1457285E+03;
  1.3708640E+00;  9.9999998E-03;  1.6254973E-01;8470;  1.7725287E-01;  0.0000000E+00; -9.3210220E-02;  9.9159528E+02;  4.0103164E-01; -6.9621670E+03;3; -9.9786873E+01;  0.0000000E+00; -1.1623033E+01;0;  5.4493122E+00;  2.5142729E+03;  0.0000000E+00; -2.2384253E-01;  4.0000000E+04;  0.0000000E+00;  3.8821004E+04;  5.7753873E+00;  0.0000000E+00; -3.2607487E-01;  8.7527363E+03;
  1.3717487E+00;  9.9999998E-03;  1.5232362E-01;8469;  2.0928688E-01;  0.0000000E+00; -8.7212719E-02;  9.9169720E+02;  4.0076622E-01; -6.8777241E+03;3; -1.0681239E+02;  0.0000000E+00; -1.3251626E+01;0;  5.7101698E+00;  2.5180933E+03;  0.0000000E+00; -3.4483835E-02;  4.0000000E+04;  0.0000000E+00;  3.8808465E+04;  6.0520921E+00;  0.0000000E+00; -3.4192249E-01;  1.0113679E+04;
  1.3718072E+00;  9.9999998E-03;  1.3189605E-01;8467;  2.4236183E-01;  0.0000000E+00; -7.9440728E-02;  9.9171747E+02;  4.0064165E-01; -6.8609355E+03;3; -1.2128726E+02;  0.0000000E+00; -1.2443205E+01;0;  6.0933380E+00;  2.5197317E+03;  0.0000000E+00;  2.9877406E-01;  4.0000000E+04;  0.0000000E+00;  3.8796926E+04;  6.4551353E+00;  0.0000000E+00; -3.6179730E-01;  1.1376278E+04;
  1.3719146E+00;  9.9999998E-03;  1.4208107E-01;8468;  2.2840010E-01;  0.0000000E+00; -8.3232895E-02;  9.9173071E+02;  4.0067062E-01; -6.8499731E+03;3; -1.1377956E+02;  0.0000000E+00; -1.2801558E+01;0;  5.9159713E+00;  2.5194546E+03;  0.0000000E+00;  1.4828831E-01;  4.0000000E+04;  0.0000000E+00;  3.8800531E+04;  6.2693057E+00;  0.0000000E+00; -3.5333446E-01;  1.0948776E+04;
  1.3719252E+00;  9.9999998E-03;  1.2177287E-01;8466;  2.6137403E-01;  0.0000000E+00; -7.4699849E-02;  9.9171759E+02;  4.0057039E-01; -6.8608359E+03;3; -1.2734226E+02;  0.0000000E+00; -1.2054424E+01;0;  6.2665844E+00;  2.5206433E+03;  0.0000000E+00;  4.0981013E-01;  4.0000000E+04;  0.0000000E+00;  3.8794438E+04;  6.6339216E+00;  0.0000000E+00; -3.6733726E-01;  1.1689156E+04;
  1.3722627E+00;  9.9999998E-03;  1.1166389E-01;8465;  2.8582016E-01;  0.0000000E+00; -6.9084294E-02;  9.9172290E+02;  4.0047345E-01; -6.8564360E+03;3; -1.3140039E+02;  0.0000000E+00; -1.1442399E+01;0;  6.4324379E+00;  2.5220774E+03;  0.0000000E+00;  4.7937676E-01;  4.0000000E+04;  0.0000000E+00;  3.8791891E+04;  6.8027177E+00;  0.0000000E+00; -3.7027964E-01;  1.2089214E+04;
  1.3726038E+00;  9.9999998E-03;  1.0152961E-01;8464;  3.1068885E-01;  0.0000000E+00; -6.3193470E-02;  9.9170520E+02;  4.0041429E-01; -6.8710952E+03;3; -1.3451723E+02;  0.0000000E+00; -1.0884440E+01;0;  6.5798254E+00;  2.5231345E+03;  0.0000000E+00;  5.0927246E-01;  4.0000000E+04;  0.0000000E+00;  3.8787801E+04;  6.9514675E+00;  0.0000000E+00; -3.7164229E-01;  1.2647157E+04;
  1.3728685E+00;  9.9999998E-03;  9.1342285E-02;8463;  3.3343473E-01;  0.0000000E+00; -5.7237022E-02;  9.9165125E+02;  4.0040845E-01; -6.9157744E+03;3; -1.3711440E+02;  0.0000000E+00; -1.0162650E+01;0;  6.7059798E+00;  2.5235576E+03;  0.0000000E+00;  5.0370651E-01;  4.0000000E+04;  0.0000000E+00;  3.8782684E+04;  7.0781198E+00;  0.0000000E+00; -3.7213984E-01;  1.3337095E+04;
  1.3731104E+00;  9.9999998E-03;  8.1152394E-02;8462;  3.5438064E-01;  0.0000000E+00; -5.1139012E-02;  9.9160529E+02;  4.0043169E-01; -6.9538384E+03;3; -1.3912134E+02;  0.0000000E+00; -9.1174955E+00;0;  6.8131604E+00;  2.5236616E+03;  0.0000000E+00;  4.6825954E-01;  4.0000000E+04;  0.0000000E+00;  3.8776715E+04;  7.1850419E+00;  0.0000000E+00; -3.7188140E-01;  1.4074217E+04;
  1.3733748E+00;  9.9999998E-03;  7.0976965E-02;8461;  3.7408167E-01;  0.0000000E+00; -4.4843171E-02;  9.9158899E+02;  4.0046248E-01; -6.9673130E+03;3; -1.4047830E+02;  0.0000000E+00; -8.1873474E+00;0;  6.9035749E+00;  2.5237466E+03;  0.0000000E+00;  4.0951467E-01;  4.0000000E+04;  0.0000000E+00;  3.8770762E+04;  7.2744799E+00;  0.0000000E+00; -3.7090477E-01;  1.4772305E+04;
  1.4061761E+00;  9.9999998E-03;  2.0328002E-01;8535;  2.8952673E-01;  0.0000000E+00; -7.1977399E-02;  9.9391705E+02;  3.7692857E-01; -5.0383892E+03;3; -1.4367923E+02;  0.0000000E+00; -5.2331699E+01;0;  6.7256212E+00;  2.8555552E+03;  0.0000000E+00;  2.4199735E-01;  4.0000000E+04;  0.0000000E+00;  3.8866215E+04;  7.0169888E+00;  0.0000000E+00; -2.9136741E-01;  5.4241465E+03;
  1.4061613E+00;  9.9999998E-03;  2.1340297E-01;8536;  2.4693866E-01;  0.0000000E+00; -7.4183770E-02;  9.9322992E+02;  3.7683097E-01; -5.6075190E+03;3; -1.4521652E+02;  0.0000000E+00; -5.2332935E+01;0;  6.6237507E+00;  2.8520825E+03;  0.0000000E+00;  2.4767052E-01;  4.0000000E+04;  0.0000000E+00;  3.8881586E+04;  6.9281049E+00;  0.0000000E+00; -3.0435419E-01;  4.3153716E+03;
  1.4067911E+00;  9.9999998E-03;  1.9316621E-01;8534;  3.3666623E-01;  0.0000000E+00; -6.6864803E-02;  9.9473309E+02;  3.7678170E-01; -4.3624634E+03;3; -1.4171388E+02;  0.0000000E+00; -5.1779926E+01;0;  6.8329973E+00;  2.8630884E+03;  0.0000000E+00;  2.3204289E-01;  4.0000000E+04;  0.0000000E+00;  3.8849438E+04;  7.1154137E+00;  0.0000000E+00; -2.8241655E-01;  7.2355078E+03;
  1.4066143E+00;  9.9999998E-03;  2.2355334E-01;8537;  2.0625871E-01;  0.0000000E+00; -7.4407741E-02;  9.9262622E+02;  3.7651929E-01; -6.1075215E+03;3; -1.4667455E+02;  0.0000000E+00; -5.2317673E+01;0;  6.5305128E+00;  2.8520706E+03;  0.0000000E+00;  1.3264303E-01;  4.0000000E+04;  0.0000000E+00;  3.8892641E+04;  6.8552570E+00;  0.0000000E+00; -3.2474414E-01;  4.5296440E+03;
  1.4080192E+00;  9.9999998E-03;  1.8306363E-01;8533;  3.8980246E-01;  0.0000000E+00; -5.8200832E-02;  9.9567133E+02;  3.7639356E-01; -3.5853257E+03;3; -1.3863641E+02;  0.0000000E+00; -5.0964298E+01;0;  6.9344592E+00;  2.8747744E+03;  0.0000000E+00;  2.8012231E-01;  4.0000000E+04;  0.0000000E+00;  3.8830523E+04;  7.2074733E+00;  0.0000000E+00; -2.7301410E-01;  9.4013252E+03;
  1.4074891E+00;  9.9999998E-03;  2.3373377E-01;8538;  1.6774341E-01;  0.0000000E+00; -7.3124945E-02;  9.9201508E+02;  3.7601319E-01; -6.6137329E+03;3; -1.4754446E+02;  0.0000000E+00; -5.1719486E+01;0;  6.4518948E+00;  2.8557029E+03;  0.0000000E+00; -2.6008123E-01;  4.0000000E+04;  0.0000000E+00;  3.8892207E+04;  6.8061757E+00;  0.0000000E+00; -3.5428086E-01;  6.1490107E+03;
  1.4098115E+00;  9.9999998E-03;  1.7297775E-01;8532;  4.4883463E-01;  0.0000000E+00; -4.6093266E-02;  9.9671783E+02;  3.7575358E-01; -2.7185354E+03;3; -1.3356827E+02;  0.0000000E+00; -4.9455746E+01;0;  7.0159311E+00;  2.8906045E+03;  0.0000000E+00;  4.0259665E-01;  4.0000000E+04;  0.0000000E+00;  3.8811320E+04;  7.2743778E+00;  0.0000000E+00; -2.5844646E-01;  1.1714252E+04;
  1.4114021E+00;  9.9999998E-03;  1.6282265E-01;8531;  5.0261605E-01;  0.0000000E+00; -3.5835396E-02;  9.9767480E+02;  3.7511486E-01; -1.9258602E+03;3; -1.2850026E+02;  0.0000000E+00; -4.7769897E+01;0;  7.0571713E+00;  2.9059856E+03;  0.0000000E+00;  5.6403553E-01;  4.0000000E+04;  0.0000000E+00;  3.8793270E+04;  7.2948709E+00;  0.0000000E+00; -2.3769955E-01;  1.3922257E+04;
  1.4120487E+00;  9.9999998E-03;  1.5256672E-01;8530;  5.4190189E-01;  0.0000000E+00; -3.1140540E-02;  9.9834052E+02;  3.7477446E-01; -1.3745106E+03;3; -1.2580781E+02;  0.0000000E+00; -4.6516220E+01;0;  7.0635476E+00;  2.9151462E+03;  0.0000000E+00;  7.1926928E-01;  4.0000000E+04;  0.0000000E+00;  3.8779316E+04;  7.2788949E+00;  0.0000000E+00; -2.1534736E-01;  1.5637879E+04;
  1.4120215E+00;  9.9999998E-03;  1.4229466E-01;8529;  5.7181066E-01;  0.0000000E+00; -2.9181045E-02;  9.9875446E+02;  3.7466729E-01; -1.0316484E+03;3; -1.2522690E+02;  0.0000000E+00; -4.5309643E+01;0;  7.0564547E+00;  2.9191487E+03;  0.0000000E+00;  8.5127383E-01;  4.0000000E+04;  0.0000000E+00;  3.8771148E+04;  7.2507186E+00;  0.0000000E+00; -1.9426402E-01;  1.6601250E+04;
  1.4113468E+00;  9.9999998E-03;  1.2190396E-01;8527;  6.2301034E-01;  0.0000000E+00; -2.6485167E-02;  9.9918317E+02;  3.7475184E-01; -6.7654437E+02;3; -1.2625042E+02;  0.0000000E+00; -4.2193066E+01;0;  7.0346341E+00;  2.9199849E+03;  0.0000000E+00;  9.8256713E-01;  4.0000000E+04;  0.0000000E+00;  3.8768375E+04;  7.1912041E+00;  0.0000000E+00; -1.5656988E-01;  1.6918004E+04;
  1.4116910E+00;  9.9999998E-03;  1.3206412E-01;8528;  5.9770972E-01;  0.0000000E+00; -2.7913656E-02;  9.9902002E+02;  3.7468648E-01; -8.1166449E+02;3; -1.2578484E+02;  0.0000000E+00; -4.3884598E+01;0;  7.0462093E+00;  2.9201641E+03;  0.0000000E+00;  9.4354373E-01;  4.0000000E+04;  0.0000000E+00;  3.8768367E+04;  7.2211890E+00;  0.0000000E+00; -1.7497961E-01;  1.6926924E+04;
  1.4112860E+00;  9.9999998E-03;  1.1177191E-01;8526;  6.5104467E-01;  0.0000000E+00; -2.4225254E-02;  9.9935388E+02;  3.7476215E-01; -5.3515338E+02;3; -1.2517389E+02;  0.0000000E+00; -4.0199932E+01;0;  7.0176301E+00;  2.9207434E+03;  0.0000000E+00;  9.6547920E-01;  4.0000000E+04;  0.0000000E+00;  3.8769328E+04;  7.1542521E+00;  0.0000000E+00; -1.3662189E-01;  1.6853354E+04;
  1.4113233E+00;  9.9999998E-03;  1.0162531E-01;8525;  6.7832363E-01;  0.0000000E+00; -2.1745082E-02;  9.9948608E+02;  3.7478054E-01; -4.2565424E+02;3; -1.2327048E+02;  0.0000000E+00; -3.7931133E+01;0;  6.9957604E+00;  2.9213042E+03;  0.0000000E+00;  8.9873242E-01;  4.0000000E+04;  0.0000000E+00;  3.8768992E+04;  7.1119509E+00;  0.0000000E+00; -1.1619035E-01;  1.6894893E+04;
  1.4114406E+00;  9.9999998E-03;  9.1478884E-02;8524;  7.0371890E-01;  0.0000000E+00; -1.9149069E-02;  9.9959924E+02;  3.7480891E-01; -3.3195291E+02;3; -1.2077428E+02;  0.0000000E+00; -3.5379753E+01;0;  6.9690042E+00;  2.9218225E+03;  0.0000000E+00;  7.9670942E-01;  4.0000000E+04;  0.0000000E+00;  3.8767578E+04;  7.0645509E+00;  0.0000000E+00; -9.5546566E-02;  1.7105857E+04;
  1.4116114E+00;  9.9999998E-03;  8.1330866E-02;8523;  7.2640872E-01;  0.0000000E+00; -1.6553411E-02;  9.9970996E+02;  3.7483662E-01; -2.4022630E+02;3; -1.1797647E+02;  0.0000000E+00; -3.2550930E+01;0;  6.9379787E+00;  2.9223726E+03;  0.0000000E+00;  6.7363751E-01;  4.0000000E+04;  0.0000000E+00;  3.8764238E+04;  7.0133085E+00;  0.0000000E+00; -7.5329773E-02;  1.7479887E+04;
  1.4118110E+00;  9.9999998E-03;  7.1181618E-02;8522;  7.4592304E-01;  0.0000000E+00; -1.4046687E-02;  9.9984009E+02;  3.7485468E-01; -1.3245512E+02;3; -1.1514368E+02;  0.0000000E+00; -2.9445213E+01;0;  6.9037933E+00;  2.9230920E+03;  0.0000000E+00;  5.4205763E-01;  4.0000000E+04;  0.0000000E+00;  3.8760211E+04;  6.9601350E+00;  0.0000000E+00; -5.6341745E-02;  1.7975564E+04;
  1.4430624E+00;  9.9999998E-03;  2.1344708E-01;8597;  6.8779868E-01;  0.0000000E+00;  3.9299738E-02;  9.9930920E+02;  3.4953120E-01; -5.7208832E+02;3; -1.4782837E+02;  0.0000000E+00; -5.3455090E+01;0;  7.2776327E+00;  3.3555486E+03;  0.0000000E+00;  1.6224233E+00;  4.0000000E+04;  0.0000000E+00;  3.8861855E+04;  7.5177946E+00;  0.0000000E+00; -2.4016207E-01;  8.1833135E+03;
  1.4432521E+00;  9.9999998E-03;  2.0334350E-01;8596;  7.2316951E-01;  0.0000000E+00;  4.1869376E-02;  1.0003335E+03;  3.4941831E-01;  2.7622107E+02;3; -1.3676492E+02;  0.0000000E+00; -5.2531101E+01;0;  7.1481738E+00;  3.3653999E+03;  0.0000000E+00;  1.7800837E+00;  4.0000000E+04;  0.0000000E+00;  3.8851883E+04;  7.3588319E+00;  0.0000000E+00; -2.1065810E-01;  8.8835723E+03;
  1.4435537E+00;  9.9999998E-03;  2.2356454E-01;8598;  6.5642297E-01;  0.0000000E+00;  3.8801007E-02;  9.9849890E+02;  3.4923953E-01; -1.2430912E+03;3; -1.5756033E+02;  0.0000000E+00; -5.4092617E+01;0;  7.3817096E+00;  3.3543303E+03;  0.0000000E+00;  1.2300856E+00;  4.0000000E+04;  0.0000000E+00;  3.8869090E+04;  7.6425071E+00;  0.0000000E+00; -2.6079759E-01;  8.3972324E+03;
  1.4440657E+00;  9.9999998E-03;  1.9324398E-01;8595;  7.6314652E-01;  0.0000000E+00;  4.6879020E-02;  1.0015363E+03;  3.4897953E-01;  1.2722096E+03;3; -1.2441933E+02;  0.0000000E+00; -5.0497269E+01;0;  6.9848208E+00;  3.3821853E+03;  0.0000000E+00;  1.8134482E+00;  4.0000000E+04;  0.0000000E+00;  3.8839277E+04;  7.1574783E+00;  0.0000000E+00; -1.7265762E-01;  1.0229033E+04;
  1.4444711E+00;  9.9999998E-03;  2.3372366E-01;8599;  6.2596440E-01;  0.0000000E+00;  3.9094105E-02;  9.9779053E+02;  3.4866568E-01; -1.8297284E+03;3; -1.6578081E+02;  0.0000000E+00; -5.4027828E+01;0;  7.4736991E+00;  3.3594775E+03;  0.0000000E+00;  4.2973965E-01;  4.0000000E+04;  0.0000000E+00;  3.8865281E+04;  7.7459621E+00;  0.0000000E+00; -2.7226317E-01;  1.0339927E+04;
  1.4452596E+00;  9.9999998E-03;  1.8314362E-01;8594;  8.0476075E-01;  0.0000000E+00;  5.3472433E-02;  1.0027833E+03;  3.4834704E-01;  2.3049058E+03;3; -1.1118770E+02;  0.0000000E+00; -4.8106922E+01;0;  6.7887597E+00;  3.4028196E+03;  0.0000000E+00;  1.7804618E+00;  4.0000000E+04;  0.0000000E+00;  3.8824461E+04;  6.9157925E+00;  0.0000000E+00; -1.2703258E-01;  1.2040591E+04;
  1.4465330E+00;  9.9999998E-03;  1.7302102E-01;8593;  8.4342569E-01;  0.0000000E+00;  5.9981804E-02;  1.0039290E+03;  3.4763807E-01;  3.2536729E+03;3; -9.8268471E+01;  0.0000000E+00; -4.5726173E+01;0;  6.5713964E+00;  3.4242673E+03;  0.0000000E+00;  1.6980581E+00;  4.0000000E+04;  0.0000000E+00;  3.8808676E+04;  6.6469898E+00;  0.0000000E+00; -7.5593330E-02;  1.4070516E+04;
  1.4476111E+00;  9.9999998E-03;  1.6285463E-01;8592;  8.7598258E-01;  0.0000000E+00;  6.5014347E-02;  1.0048346E+03;  3.4695518E-01;  4.0036106E+03;3; -8.6775406E+01;  0.0000000E+00; -4.3623753E+01;0;  6.3502159E+00;  3.4436438E+03;  0.0000000E+00;  1.5693519E+00;  4.0000000E+04;  0.0000000E+00;  3.8793863E+04;  6.3717213E+00;  0.0000000E+00; -2.1505350E-02;  1.5999341E+04;
  1.4475522E+00;  9.9999998E-03;  8.1390664E-02;8584;  9.9784541E-01;  0.0000000E+00;  6.9227405E-02;  1.0050868E+03;  3.4669480E-01;  4.2124009E+03;3; -3.0418554E+01;  0.0000000E+00; -1.2706579E+01;0;  5.2034659E+00;  3.4483333E+03;  0.0000000E+00;  4.9767661E-01;  4.0000000E+04;  0.0000000E+00;  3.8787258E+04;  4.9139628E+00;  0.0000000E+00;  2.8950292E-01;  1.6666309E+04;
  1.4477037E+00;  9.9999998E-03;  7.1250372E-02;8583;  1.0058401E+00;  0.0000000E+00;  6.1814934E-02;  1.0050970E+03;  3.4674400E-01;  4.2208867E+03;3; -2.4255787E+01;  0.0000000E+00; -7.0450931E+00;0;  5.0965271E+00;  3.4473965E+03;  0.0000000E+00;  4.0113506E-01;  4.0000000E+04;  0.0000000E+00;  3.8787133E+04;  4.7802935E+00;  0.0000000E+00;  3.1623378E-01;  1.6688090E+04;
  1.4475037E+00;  9.9999998E-03;  9.1519937E-02;8585;  9.8846370E-01;  0.0000000E+00;  7.2672978E-02;  1.0051533E+03;  3.4659716E-01;  4.2674873E+03;3; -3.7072422E+01;  0.0000000E+00; -2.9583895E+01;0;  5.3138409E+00;  3.4507388E+03;  0.0000000E+00;  5.9695119E-01;  4.0000000E+04;  0.0000000E+00;  3.8786434E+04;  5.0543051E+00;  0.0000000E+00;  2.5953561E-01;  1.6837002E+04;
  1.4484311E+00;  9.9999998E-03;  1.5264133E-01;8591;  9.0312803E-01;  0.0000000E+00;  6.8519577E-02;  1.0054601E+03;  3.4635207E-01;  4.5215596E+03;3; -7.6722313E+01;  0.0000000E+00; -4.2161179E+01;0;  6.1357827E+00;  3.4595071E+03;  0.0000000E+00;  1.4042265E+00;  4.0000000E+04;  0.0000000E+00;  3.8782699E+04;  6.1036010E+00;  0.0000000E+00;  3.2181740E-02;  1.7472082E+04;
  1.4475861E+00;  9.9999998E-03;  1.0164521E-01;8586;  9.7776628E-01;  0.0000000E+00;  7.2612010E-02;  1.0052889E+03;  3.4645349E-01;  4.3797275E+03;3; -4.3747349E+01;  0.0000000E+00; -3.8889141E+01;0;  5.4267535E+00;  3.4545251E+03;  0.0000000E+00;  6.9736922E-01;  4.0000000E+04;  0.0000000E+00;  3.8784062E+04;  5.1994219E+00;  0.0000000E+00;  2.2733146E-01;  1.7188898E+04;
  1.4478425E+00;  9.9999998E-03;  1.1178208E-01;8587;  9.6616381E-01;  0.0000000E+00;  7.1886733E-02;  1.0054747E+03;  3.4626624E-01;  4.5336211E+03;3; -5.0009468E+01;  0.0000000E+00; -4.0538708E+01;0;  5.5409932E+00;  3.4596963E+03;  0.0000000E+00;  8.0093175E-01;  4.0000000E+04;  0.0000000E+00;  3.8780574E+04;  5.3468080E+00;  0.0000000E+00;  1.9418526E-01;  1.7659756E+04;
  1.4482707E+00;  9.9999998E-03;  1.2194987E-01;8588;  9.5412385E-01;  0.0000000E+00;  7.1414605E-02;  1.0056793E+03;  3.4604642E-01;  4.7031064E+03;3; -5.5764565E+01;  0.0000000E+00; -4.0806973E+01;0;  5.6576810E+00;  3.4656594E+03;  0.0000000E+00;  9.1551358E-01;  4.0000000E+04;  0.0000000E+00;  3.8776945E+04;  5.4974456E+00;  0.0000000E+00;  1.6023539E-01;  1.8129447E+04;
  1.4488494E+00;  9.9999998E-03;  1.4239888E-01;8590;  9.2490405E-01;  0.0000000E+00;  7.0486680E-02;  1.0057871E+03;  3.4595323E-01;  4.7923276E+03;3; -6.8197380E+01;  0.0000000E+00; -4.1517403E+01;0;  5.9426188E+00;  3.4691360E+03;  0.0000000E+00;  1.2227030E+00;  4.0000000E+04;  0.0000000E+00;  3.8776555E+04;  5.8610172E+00;  0.0000000E+00;  8.1601538E-02;  1.8262762E+04;
  1.4487062E+00;  9.9999998E-03;  1.3216317E-01;8589;  9.4101876E-01;  0.0000000E+00;  7.1130507E-02;  1.0058215E+03;  3.4589222E-01;  4.8207632E+03;3; -6.1511097E+01;  0.0000000E+00; -4.1083130E+01;0;  5.7865872E+00;  3.4700796E+03;  0.0000000E+00;  1.0539507E+00;  4.0000000E+04;  0.0000000E+00;  3.8775016E+04;  5.6629367E+00;  0.0000000E+00;  1.2365035E-01;  1.8411822E+04;
  1.4763969E+00;  9.9999998E-03;  2.0313032E-01;8657;  1.0205511E+00;  0.0000000E+00;  1.1906951E-01;  1.0052650E+03;  3.2029361E-01;  4.3589219E+03;3; -5.9336349E+01;  0.0000000E+00; -3.4098988E+01;0;  5.4784422E+00;  4.0455952E+03;  0.0000000E+00;  2.5910370E+00;  4.0000000E+04;  0.0000000E+00;  3.8858797E+04;  5.4936376E+00;  0.0000000E+00; -1.5195315E-02;  1.0038882E+04;
  1.4765769E+00;  9.9999998E-03;  2.1322018E-01;8658;  1.0093143E+00;  0.0000000E+00;  1.1800762E-01;  1.0044727E+03;  3.2028374E-01;  3.7028955E+03;3; -7.0884087E+01;  0.0000000E+00; -3.4336033E+01;0;  5.6826897E+00;  4.0385300E+03;  0.0000000E+00;  2.0687666E+00;  4.0000000E+04;  0.0000000E+00;  3.8866145E+04;  5.7398095E+00;  0.0000000E+00; -5.7119746E-02;  9.6351787E+03;
  1.4767354E+00;  9.9999998E-03;  1.9301584E-01;8656;  1.0331553E+00;  0.0000000E+00;  1.2083340E-01;  1.0062010E+03;  3.1997651E-01;  5.1338496E+03;3; -4.6761974E+01;  0.0000000E+00; -3.3268883E+01;0;  5.2351656E+00;  4.0610542E+03;  0.0000000E+00;  2.8298898E+00;  4.0000000E+04;  0.0000000E+00;  3.8851422E+04;  5.1967530E+00;  0.0000000E+00;  3.8412426E-02;  1.0827474E+04;
  1.4772305E+00;  9.9999998E-03;  2.2331563E-01;8659;  9.9852711E-01;  0.0000000E+00;  1.1762165E-01;  1.0039018E+03;  3.1995505E-01;  3.2303271E+03;3; -8.2002426E+01;  0.0000000E+00; -3.4504105E+01;0;  5.8511939E+00;  4.0399937E+03;  0.0000000E+00;  1.1563792E+00;  4.0000000E+04;  0.0000000E+00;  3.8873992E+04;  5.9359288E+00;  0.0000000E+00; -8.4735006E-02;  9.9996045E+03;
  1.4776275E+00;  9.9999998E-03;  1.8288556E-01;8655;  1.0464283E+00;  0.0000000E+00;  1.2324109E-01;  1.0071536E+03;  3.1931612E-01;  5.9224551E+03;3; -3.2665199E+01;  0.0000000E+00; -3.1550886E+01;0;  4.9535284E+00;  4.0849031E+03;  0.0000000E+00;  2.8525474E+00;  4.0000000E+04;  0.0000000E+00;  3.8842652E+04;  4.8520579E+00;  0.0000000E+00;  1.0147048E-01;  1.1973057E+04;
  1.4782658E+00;  9.9999998E-03;  2.3345415E-01;8660;  9.8784238E-01;  0.0000000E+00;  1.1747050E-01;  1.0035141E+03;  3.1935063E-01;  2.9092463E+03;3; -9.2241783E+01;  0.0000000E+00; -3.3968567E+01;0;  5.9921122E+00;  4.0495405E+03;  0.0000000E+00; -3.0127358E-01;  4.0000000E+04;  0.0000000E+00;  3.8876148E+04;  6.0871148E+00;  0.0000000E+00; -9.5002674E-02;  1.2546618E+04;
  1.4788357E+00;  9.9999998E-03;  1.7274654E-01;8654;  1.0580635E+00;  0.0000000E+00;  1.2584187E-01;  1.0080106E+03;  3.1845874E-01;  6.6317739E+03;3; -1.7826542E+01;  0.0000000E+00; -3.0287613E+01;0;  4.6545839E+00;  4.1127173E+03;  0.0000000E+00;  2.6987844E+00;  4.0000000E+04;  0.0000000E+00;  3.8833148E+04;  4.4851465E+00;  0.0000000E+00;  1.6943732E-01;  1.3246143E+04;
  1.4800695E+00;  9.9999998E-03;  1.6259079E-01;8653;  1.0665435E+00;  0.0000000E+00;  1.2809297E-01;  1.0086428E+03;  3.1757048E-01;  7.1551367E+03;3; -3.8287864E+00;  0.0000000E+00; -2.6737823E+01;0;  4.3622284E+00;  4.1394497E+03;  0.0000000E+00;  2.3925829E+00;  4.0000000E+04;  0.0000000E+00;  3.8825309E+04;  4.1253500E+00;  0.0000000E+00;  2.3687854E-01;  1.4352445E+04;
  1.4811293E+00;  9.9999998E-03;  1.5239882E-01;8652;  1.0719401E+00;  0.0000000E+00;  1.2786043E-01;  1.0089961E+03;  3.1677377E-01;  7.4475679E+03;3;  7.9479275E+00;  0.0000000E+00; -1.2564259E+01;0;  4.0919499E+00;  4.1615005E+03;  0.0000000E+00;  1.9644344E+00;  4.0000000E+04;  0.0000000E+00;  3.8820238E+04;  3.7927921E+00;  0.0000000E+00;  2.9915798E-01;  1.5049749E+04;
  1.4806519E+00;  9.9999998E-03;  8.1254058E-02;8645;  1.0758020E+00;  0.0000000E+00;  6.7879617E-02;  1.0066290E+03;  3.1721881E-01;  5.4879282E+03;3;  4.6820484E+01;  0.0000000E+00; -4.8322186E-01;0;  3.0636024E+00;  4.1250088E+03;  0.0000000E+00;  8.2277395E-02;  4.0000000E+04;  0.0000000E+00;  3.8848836E+04;  2.5365720E+00;  0.0000000E+00;  5.2703047E-01;  1.1068828E+04;
  1.4806765E+00;  9.9999998E-03;  9.1362476E-02;8646;  1.0760907E+00;  0.0000000E+00;  7.6654293E-02;  1.0069045E+03;  3.1707534E-01;  5.7159985E+03;3;  4.4008472E+01;  0.0000000E+00;  2.4191853E-01;0;  3.1727712E+00;  4.1313027E+03;  0.0000000E+00;  1.1606652E-01;  4.0000000E+04;  0.0000000E+00;  3.8844219E+04;  2.6661327E+00;  0.0000000E+00;  5.0663859E-01;  1.1706963E+04;
  1.4807267E+00;  9.9999998E-03;  7.1130373E-02;8644;  1.0755191E+00;  0.0000000E+00;  5.9004504E-02;  1.0064880E+03;  3.1729719E-01;  5.3711743E+03;3;  4.9527843E+01;  0.0000000E+00; -1.0269873E+00;0;  2.9611015E+00;  4.1214702E+03;  0.0000000E+00;  7.2516359E-02;  4.0000000E+04;  0.0000000E+00;  3.8851992E+04;  2.4166870E+00;  0.0000000E+00;  5.4441452E-01;  1.0641042E+04;
  1.4808409E+00;  9.9999998E-03;  1.0146771E-01;8647;  1.0763725E+00;  0.0000000E+00;  8.5282259E-02;  1.0073232E+03;  3.1685808E-01;  6.0625854E+03;3;  4.0536926E+01;  0.0000000E+00;  1.0233537E+00;0;  3.2864869E+00;  4.1405781E+03;  0.0000000E+00;  1.9753315E-01;  4.0000000E+04;  0.0000000E+00;  3.8838160E+04;  2.8029420E+00;  0.0000000E+00;  4.8354474E-01;  1.2517767E+04;
  1.4816947E+00;  9.9999998E-03;  1.4216402E-01;8651;  1.0749425E+00;  0.0000000E+00;  1.2075304E-01;  1.0090267E+03;  3.1629631E-01;  7.4727847E+03;3;  1.7334763E+01;  0.0000000E+00;  2.4291255E+00;0;  3.8652794E+00;  4.1726948E+03;  0.0000000E+00;  1.4719661E+00;  4.0000000E+04;  0.0000000E+00;  3.8818891E+04;  3.5136001E+00;  0.0000000E+00;  3.5167933E-01;  1.5243230E+04;
  1.4811339E+00;  9.9999998E-03;  1.1158150E-01;8648;  1.0765551E+00;  0.0000000E+00;  9.3797177E-02;  1.0078177E+03;  3.1659245E-01;  6.4720259E+03;3;  3.5983940E+01;  0.0000000E+00;  1.6359497E+00;0;  3.4057040E+00;  4.1520190E+03;  0.0000000E+00;  3.5632306E-01;  4.0000000E+04;  0.0000000E+00;  3.8831734E+04;  2.9479702E+00;  0.0000000E+00;  4.5773387E-01;  1.3424218E+04;
  1.4815235E+00;  9.9999998E-03;  1.2172926E-01;8649;  1.0766389E+00;  0.0000000E+00;  1.0238170E-01;  1.0083383E+03;  3.1631082E-01;  6.9028726E+03;3;  3.1357714E+01;  0.0000000E+00;  2.3813081E+00;0;  3.5326686E+00;  4.1643042E+03;  0.0000000E+00;  6.2028849E-01;  4.0000000E+04;  0.0000000E+00;  3.8825320E+04;  3.1039484E+00;  0.0000000E+00;  4.2872030E-01;  1.4287881E+04;
  1.4817824E+00;  9.9999998E-03;  1.3192646E-01;8650;  1.0762830E+00;  0.0000000E+00;  1.1134676E-01;  1.0087790E+03;  3.1616423E-01;  7.2678013E+03;3;  2.5159708E+01;  0.0000000E+00;  2.9496026E+00;0;  3.6814456E+00;  4.1727446E+03;  0.0000000E+00;  1.0007470E+00;  4.0000000E+04;  0.0000000E+00;  3.8820965E+04;  3.2872000E+00;  0.0000000E+00;  3.9424559E-01;  1.4950578E+04;
  1.5062675E+00;  9.9999998E-03;  2.0285369E-01;8718;  1.1098980E+00;  0.0000000E+00;  1.5394822E-01;  1.0064897E+03;  2.9199204E-01;  5.3707012E+03;3;  2.0702312E+01;  0.0000000E+00; -6.4607139E+00;0;  3.3581693E+00;  4.8792988E+03;  0.0000000E+00;  2.3555462E+00;  4.0000000E+04;  0.0000000E+00;  3.8883113E+04;  3.1592538E+00;  0.0000000E+00;  1.9891539E-01;  8.8286582E+03;
  1.5065277E+00;  9.9999998E-03;  1.9273736E-01;8717;  1.1064103E+00;  0.0000000E+00;  1.5213001E-01;  1.0071298E+03;  2.9166374E-01;  5.9004546E+03;3;  2.6494919E+01;  0.0000000E+00;  2.6962836E+00;0;  3.1660461E+00;  4.8957959E+03;  0.0000000E+00;  2.7240417E+00;  4.0000000E+04;  0.0000000E+00;  3.8882375E+04;  2.9097254E+00;  0.0000000E+00;  2.5632069E-01;  8.9578623E+03;
  1.5066465E+00;  9.9999998E-03;  2.1293494E-01;8719;  1.1135303E+00;  0.0000000E+00;  1.5355895E-01;  1.0060201E+03;  2.9191542E-01;  4.9821650E+03;3;  1.4035380E+01;  0.0000000E+00; -9.2967520E+00;0;  3.5110767E+00;  4.8759785E+03;  0.0000000E+00;  1.6501102E+00;  4.0000000E+04;  0.0000000E+00;  3.8886578E+04;  3.3595972E+00;  0.0000000E+00;  1.5147939E-01;  8.8556191E+03;
  1.5073129E+00;  9.9999998E-03;  1.8259607E-01;8716;  1.1031277E+00;  0.0000000E+00;  1.4529903E-01;  1.0078052E+03;  2.9103422E-01;  6.4593506E+03;3;  3.1111336E+01;  0.0000000E+00;  1.0527580E+01;0;  2.9482565E+00;  4.9219131E+03;  0.0000000E+00;  2.8311796E+00;  4.0000000E+04;  0.0000000E+00;  3.8881051E+04;  2.6292353E+00;  0.0000000E+00;  3.1902125E-01;  9.2294678E+03;
  1.5076270E+00;  9.9999998E-03;  2.2301567E-01;8720;  1.1175295E+00;  0.0000000E+00;  1.5275039E-01;  1.0058189E+03;  2.9145521E-01;  4.8155576E+03;3;  8.5685434E+00;  0.0000000E+00; -1.1030778E+01;0;  3.6239300E+00;  4.8860347E+03;  0.0000000E+00;  4.8176014E-01;  4.0000000E+04;  0.0000000E+00;  3.8893660E+04;  3.5059841E+00;  0.0000000E+00;  1.1794583E-01;  1.0007938E+04;
  1.5084369E+00;  9.9999998E-03;  1.7244506E-01;8715;  1.1001409E+00;  0.0000000E+00;  1.3446958E-01;  1.0084071E+03;  2.9022229E-01;  6.9573228E+03;3;  3.4490631E+01;  0.0000000E+00;  1.3515947E+01;0;  2.7219272E+00;  4.9529536E+03;  0.0000000E+00;  2.7262340E+00;  4.0000000E+04;  0.0000000E+00;  3.8879336E+04;  2.3399260E+00;  0.0000000E+00;  3.8200128E-01;  9.5395391E+03;
  1.5090410E+00;  9.9999998E-03;  2.3313537E-01;8721;  1.1220000E+00;  0.0000000E+00;  1.5231526E-01;  1.0058698E+03;  2.9070702E-01;  4.8575674E+03;3;  2.5708725E+00;  0.0000000E+00; -1.1077268E+01;0;  3.7089028E+00;  4.9072407E+03;  0.0000000E+00; -1.3538955E+00;  4.0000000E+04;  0.0000000E+00;  3.8899848E+04;  3.6063485E+00;  0.0000000E+00;  1.0255440E-01;  1.5080966E+04;
  1.5096304E+00;  9.9999998E-03;  1.6227798E-01;8714;  1.0972677E+00;  0.0000000E+00;  1.2249787E-01;  1.0088498E+03;  2.8939319E-01;  7.3234692E+03;3;  3.8586246E+01;  0.0000000E+00;  1.2440460E+01;0;  2.5050440E+00;  4.9828032E+03;  0.0000000E+00;  2.4481077E+00;  4.0000000E+04;  0.0000000E+00;  3.8878297E+04;  2.0655715E+00;  0.0000000E+00;  4.3947250E-01;  9.7089082E+03;
  1.5105826E+00;  9.9999998E-03;  1.5208800E-01;8713;  1.0942994E+00;  0.0000000E+00;  1.1121972E-01;  1.0090629E+03;  2.8873700E-01;  7.4997319E+03;3;  4.1592236E+01;  0.0000000E+00;  1.0422604E+01;0;  2.3135598E+00;  5.0045405E+03;  0.0000000E+00;  2.0338643E+00;  4.0000000E+04;  0.0000000E+00;  3.8879355E+04;  1.8266196E+00;  0.0000000E+00;  4.8694018E-01;  9.6064648E+03;
  1.5107856E+00;  9.9999998E-03;  9.1255873E-02;8707;  1.0807672E+00;  0.0000000E+00;  6.0287148E-02;  1.0063596E+03;  2.8877231E-01;  5.2626675E+03;3;  5.4797653E+01;  0.0000000E+00;  1.2306114E-01;0;  1.6340747E+00;  4.9679214E+03;  0.0000000E+00; -5.6869954E-02;  4.0000000E+04;  0.0000000E+00;  3.8918039E+04;  1.0366446E+00;  0.0000000E+00;  5.9743005E-01;  4.4634478E+03;
  1.5107541E+00;  9.9999998E-03;  8.1148252E-02;8706;  1.0792208E+00;  0.0000000E+00;  5.2986667E-02;  1.0059269E+03;  2.8886956E-01;  4.9045781E+03;3;  5.6652863E+01;  0.0000000E+00; -6.5573478E-01;0;  1.5560625E+00;  4.9600708E+03;  0.0000000E+00; -8.7976895E-02;  4.0000000E+04;  0.0000000E+00;  3.8924477E+04;  9.5439911E-01;  0.0000000E+00;  6.0166335E-01;  3.6021750E+03;
  1.5111414E+00;  9.9999998E-03;  1.4188275E-01;8712;  1.0914762E+00;  0.0000000E+00;  1.0102525E-01;  1.0090124E+03;  2.8834280E-01;  7.4578325E+03;3;  4.4229095E+01;  0.0000000E+00;  8.2272682E+00;0;  2.1525793E+00;  5.0148638E+03;  0.0000000E+00;  1.5360830E+00;  4.0000000E+04;  0.0000000E+00;  3.8882629E+04;  1.6294630E+00;  0.0000000E+00;  5.2311623E-01;  9.1973418E+03;
  1.5109047E+00;  9.9999998E-03;  1.0134787E-01;8708;  1.0824738E+00;  0.0000000E+00;  6.7745090E-02;  1.0069333E+03;  2.8861916E-01;  5.7374473E+03;3;  5.2860229E+01;  0.0000000E+00;  1.1558642E+00;0;  1.7175727E+00;  4.9790693E+03;  0.0000000E+00;  4.7938883E-02;  4.0000000E+04;  0.0000000E+00;  3.8910621E+04;  1.1267089E+00;  0.0000000E+00;  5.9086376E-01;  5.4832773E+03;
  1.5107714E+00;  9.9999998E-03;  7.1021318E-02;8705;  1.0778419E+00;  0.0000000E+00;  4.5856357E-02;  1.0056543E+03;  2.8893384E-01;  4.6790679E+03;3;  5.8242531E+01;  0.0000000E+00; -1.2185258E+00;0;  1.4853427E+00;  4.9549766E+03;  0.0000000E+00; -7.7547878E-02;  4.0000000E+04;  0.0000000E+00;  3.8929004E+04;  8.8135725E-01;  0.0000000E+00;  6.0398555E-01;  2.9588083E+03;
  1.5110856E+00;  9.9999998E-03;  1.1144446E-01;8709;  1.0843663E+00;  0.0000000E+00;  7.5410977E-02;  1.0075784E+03;  2.8843689E-01;  6.2712104E+03;3;  5.0874489E+01;  0.0000000E+00;  2.4890344E+00;0;  1.8074682E+00;  4.9922476E+03;  0.0000000E+00;  2.5748813E-01;  4.0000000E+04;  0.0000000E+00;  3.8902543E+04;  1.2260885E+00;  0.0000000E+00;  5.8137965E-01;  6.5758101E+03;
  1.5113280E+00;  9.9999998E-03;  1.3170131E-01;8711;  1.0888581E+00;  0.0000000E+00;  9.1833256E-02;  1.0087065E+03;  2.8821167E-01;  7.2047783E+03;3;  4.6652264E+01;  0.0000000E+00;  6.0825510E+00;0;  2.0191467E+00;  5.0140420E+03;  0.0000000E+00;  1.0295119E+00;  4.0000000E+04;  0.0000000E+00;  3.8887957E+04;  1.4698113E+00;  0.0000000E+00;  5.4933536E-01;  8.5212363E+03;
  1.5112697E+00;  9.9999998E-03;  1.2155971E-01;8710;  1.0864860E+00;  0.0000000E+00;  8.3376780E-02;  1.0081910E+03;  2.8827038E-01;  6.7781377E+03;3;  4.8765450E+01;  0.0000000E+00;  4.1458721E+00;0;  1.9061031E+00;  5.0052437E+03;  0.0000000E+00;  5.8847576E-01;  4.0000000E+04;  0.0000000E+00;  3.8894527E+04;  1.3380501E+00;  0.0000000E+00;  5.6805301E-01;  7.6228633E+03;
  1.5337820E+00;  9.9999998E-03;  1.9250427E-01;8778;  1.1109308E+00;  0.0000000E+00;  1.3277084E-01;  1.0054348E+03;  2.6578274E-01;  4.4952090E+03;3;  3.6780159E+01;  0.0000000E+00;  2.1032961E+01;0;  1.6742090E+00;  5.8714688E+03;  0.0000000E+00;  2.0137546E+00;  4.0000000E+04;  0.0000000E+00;  3.8921684E+04;  1.2777619E+00;  0.0000000E+00;  3.9644706E-01;  5.6330918E+03;
  1.5340068E+00;  9.9999998E-03;  2.0261338E-01;8779;  1.1161376E+00;  0.0000000E+00;  1.4159948E-01;  1.0050680E+03;  2.6579887E-01;  4.1917915E+03;3;  3.5224632E+01;  0.0000000E+00;  1.7865210E+01;0;  1.7629180E+00;  5.8668813E+03;  0.0000000E+00;  1.7376155E+00;  4.0000000E+04;  0.0000000E+00;  3.8918156E+04;  1.4151030E+00;  0.0000000E+00;  3.4781501E-01;  5.9683281E+03;
  1.5341871E+00;  9.9999998E-03;  1.8236277E-01;8777;  1.1061417E+00;  0.0000000E+00;  1.2185802E-01;  1.0058939E+03;  2.6541951E-01;  4.8749707E+03;3;  3.8983219E+01;  0.0000000E+00;  2.0230448E+01;0;  1.5642252E+00;  5.8908843E+03;  0.0000000E+00;  2.0812402E+00;  4.0000000E+04;  0.0000000E+00;  3.8926344E+04;  1.1170595E+00;  0.0000000E+00;  4.4716576E-01;  5.1749917E+03;
  1.5349300E+00;  9.9999998E-03;  2.1268314E-01;8780;  1.1221299E+00;  0.0000000E+00;  1.4605363E-01;  1.0048943E+03;  2.6543188E-01;  4.0481367E+03;3;  3.4656162E+01;  0.0000000E+00;  1.1680817E+01;0;  1.8220549E+00;  5.8793125E+03;  0.0000000E+00;  1.1453416E+00;  4.0000000E+04;  0.0000000E+00;  3.8918043E+04;  1.5168538E+00;  0.0000000E+00;  3.0520102E-01;  6.4774370E+03;
  1.5350490E+00;  9.9999998E-03;  1.7221098E-01;8776;  1.1016433E+00;  0.0000000E+00;  1.1104553E-01;  1.0063417E+03;  2.6482669E-01;  5.2451992E+03;3;  4.1262203E+01;  0.0000000E+00;  1.7663057E+01;0;  1.4434031E+00;  5.9194878E+03;  0.0000000E+00;  2.0097845E+00;  4.0000000E+04;  0.0000000E+00;  3.8930422E+04;  9.4917279E-01;  0.0000000E+00;  4.9423030E-01;  4.6698735E+03;
  1.5360461E+00;  9.9999998E-03;  1.6204943E-01;8775;  1.0973971E+00;  0.0000000E+00;  1.0103175E-01;  1.0067130E+03;  2.6420441E-01;  5.5520928E+03;3;  4.3583611E+01;  0.0000000E+00;  1.5139503E+01;0;  1.3248782E+00;  5.9480142E+03;  0.0000000E+00;  1.8519816E+00;  4.0000000E+04;  0.0000000E+00;  3.8934566E+04;  7.9205835E-01;  0.0000000E+00;  5.3281987E-01;  4.1247305E+03;
  1.5364830E+00;  9.9999998E-03;  2.2274680E-01;8781;  1.1289629E+00;  0.0000000E+00;  1.4735737E-01;  1.0050204E+03;  2.6473114E-01;  4.1522910E+03;3;  3.3563198E+01;  0.0000000E+00;  1.0231770E+01;0;  1.8512022E+00;  5.9072573E+03;  0.0000000E+00;  2.8321341E-02;  4.0000000E+04;  0.0000000E+00;  3.8924703E+04;  1.5799928E+00;  0.0000000E+00;  2.7120954E-01;  9.7585195E+03;
  1.5368201E+00;  9.9999998E-03;  1.5187000E-01;8774;  1.0934727E+00;  0.0000000E+00;  9.1967195E-02;  1.0069340E+03;  2.6375526E-01;  5.7347749E+03;3;  4.5971653E+01;  0.0000000E+00;  1.2645132E+01;0;  1.2197663E+00;  5.9669692E+03;  0.0000000E+00;  1.6336670E+00;  4.0000000E+04;  0.0000000E+00;  3.8939371E+04;  6.5912056E-01;  0.0000000E+00;  5.6064570E-01;  3.5019487E+03;
  1.5373397E+00;  9.9999998E-03;  1.4170976E-01;8773;  1.0898552E+00;  0.0000000E+00;  8.3684117E-02;  1.0069411E+03;  2.6346767E-01;  5.7406138E+03;3;  4.8147350E+01;  0.0000000E+00;  1.0393913E+01;0;  1.1270689E+00;  5.9765786E+03;  0.0000000E+00;  1.3536189E+00;  4.0000000E+04;  0.0000000E+00;  3.8945430E+04;  5.4890305E-01;  0.0000000E+00;  5.7816583E-01;  2.7440811E+03;
  1.5376923E+00;  9.9999998E-03;  1.3157570E-01;8772;  1.0865397E+00;  0.0000000E+00;  7.5957581E-02;  1.0067062E+03;  2.6327083E-01;  5.5462383E+03;3;  5.0313908E+01;  0.0000000E+00;  8.3257580E+00;0;  1.0432457E+00;  5.9796348E+03;  0.0000000E+00;  1.0305361E+00;  4.0000000E+04;  0.0000000E+00;  3.8952586E+04;  4.5603848E-01;  0.0000000E+00;  5.8720720E-01;  1.8969320E+03;
  1.5379424E+00;  9.9999998E-03;  1.2146864E-01;8771;  1.0835283E+00;  0.0000000E+00;  6.8620689E-02;  1.0062647E+03;  2.6314127E-01;  5.1811221E+03;3;  5.2051750E+01;  0.0000000E+00;  6.5601602E+00;0;  9.6657848E-01;  5.9778188E+03;  0.0000000E+00;  7.0953548E-01;  4.0000000E+04;  0.0000000E+00;  3.8961043E+04;  3.7676722E-01;  0.0000000E+00;  5.8981127E-01;  1.2117822E+03;
  1.5380810E+00;  9.9999998E-03;  1.1137998E-01;8770;  1.0808696E+00;  0.0000000E+00;  6.1617240E-02;  1.0056754E+03;  2.6309422E-01;  4.6937725E+03;3;  5.3368191E+01;  0.0000000E+00;  4.9419532E+00;0;  8.9745438E-01;  5.9714780E+03;  0.0000000E+00;  4.3110380E-01;  4.0000000E+04;  0.0000000E+00;  3.8969746E+04;  3.0964717E-01;  0.0000000E+00;  5.8780718E-01;  1.2999801E+03;
  1.5381225E+00;  9.9999998E-03;  1.0129245E-01;8769;  1.0785315E+00;  0.0000000E+00;  5.4917980E-02;  1.0050088E+03;  2.6310945E-01;  4.1424526E+03;3;  5.5365074E+01;  0.0000000E+00;  3.5729699E+00;0;  8.3555007E-01;  5.9621704E+03;  0.0000000E+00;  2.1979010E-01;  4.0000000E+04;  0.0000000E+00;  3.8977863E+04;  2.5284356E-01;  0.0000000E+00;  5.8270651E-01;  2.0037495E+03;
  1.5380727E+00;  9.9999998E-03;  8.1081480E-02;8767;  1.0745243E+00;  0.0000000E+00;  4.2334590E-02;  1.0038011E+03;  2.6322395E-01;  3.1436423E+03;3;  5.8485786E+01;  0.0000000E+00;  1.6040107E+00;0;  7.3023665E-01;  5.9427808E+03;  0.0000000E+00;  9.5924065E-03;  4.0000000E+04;  0.0000000E+00;  3.8991156E+04;  1.6268516E-01;  0.0000000E+00;  5.6755149E-01;  3.4312361E+03;
  1.5380223E+00;  9.9999998E-03;  7.0955627E-02;8766;  1.0728929E+00;  0.0000000E+00;  3.6406759E-02;  1.0033847E+03;  2.6329696E-01;  2.7992710E+03;3;  5.9939209E+01;  0.0000000E+00;  9.2312062E-01;0;  6.8640578E-01;  5.9350386E+03;  0.0000000E+00; -1.7371645E-02;  4.0000000E+04;  0.0000000E+00;  3.8995316E+04;  1.2728886E-01;  0.0000000E+00;  5.5911690E-01;  3.9343191E+03;
  1.5381147E+00;  9.9999998E-03;  9.1194153E-02;8768;  1.0763952E+00;  0.0000000E+00;  4.8500955E-02;  1.0043547E+03;  2.6315787E-01;  3.6014905E+03;3;  5.6838768E+01;  0.0000000E+00;  2.4753900E+00;0;  7.7985454E-01;  5.9522124E+03;  0.0000000E+00;  8.2433462E-02;  4.0000000E+04;  0.0000000E+00;  3.8985316E+04;  2.0420828E-01;  0.0000000E+00;  5.7564628E-01;  2.7723245E+03;
  1.5383058E+00;  9.9999998E-03;  2.3285535E-01;8782;  1.1363434E+00;  0.0000000E+00;  1.4779674E-01;  1.0053547E+03;  2.6391006E-01;  4.4284409E+03;3;  3.2940670E+01;  0.0000000E+00;  9.6408587E+00;0;  1.8695579E+00;  5.9426431E+03;  0.0000000E+00; -1.9874203E+00;  4.0000000E+04;  0.0000000E+00;  3.8932457E+04;  1.6204393E+00;  0.0000000E+00;  2.4911863E-01;  1.9822055E+04;
  1.5584965E+00;  9.9999998E-03;  1.9235490E-01;8839;  1.1083844E+00;  0.0000000E+00;  1.0779203E-01;  1.0029212E+03;  2.4317679E-01;  2.4144404E+03;3;  3.9740192E+01;  0.0000000E+00;  2.3885384E+01;0;  8.3059180E-01;  6.9712085E+03;  0.0000000E+00;  1.4848274E+00;  4.0000000E+04;  0.0000000E+00;  3.8958605E+04;  3.7443143E-01;  0.0000000E+00;  4.5616040E-01;  2.8743293E+03;
  1.5585548E+00;  9.9999998E-03;  1.8222716E-01;8838;  1.1030253E+00;  0.0000000E+00;  9.9160232E-02;  1.0031288E+03;  2.4306101E-01;  2.5859731E+03;3;  4.1583015E+01;  0.0000000E+00;  2.1785870E+01;0;  7.9022908E-01;  6.9793584E+03;  0.0000000E+00;  1.4894059E+00;  4.0000000E+04;  0.0000000E+00;  3.8966098E+04;  2.9885301E-01;  0.0000000E+00;  4.9137607E-01;  2.3803853E+03;
  1.5590730E+00;  9.9999998E-03;  1.7208105E-01;8837;  1.0979731E+00;  0.0000000E+00;  9.0801336E-02;  1.0034094E+03;  2.4274087E-01;  2.8178567E+03;3;  4.3748058E+01;  0.0000000E+00;  1.9471741E+01;0;  7.3982018E-01;  6.9989932E+03;  0.0000000E+00;  1.3990415E+00;  4.0000000E+04;  0.0000000E+00;  3.8973219E+04;  2.1916215E-01;  0.0000000E+00;  5.2065802E-01;  1.4759777E+03;
  1.5591353E+00;  9.9999998E-03;  2.0244619E-01;8840;  1.1139524E+00;  0.0000000E+00;  1.1624063E-01;  1.0028447E+03;  2.4295138E-01;  2.3511316E+03;3;  3.7827629E+01;  0.0000000E+00;  2.4900333E+01;0;  8.5493362E-01;  6.9826406E+03;  0.0000000E+00;  1.3099376E+00;  4.0000000E+04;  0.0000000E+00;  3.8952594E+04;  4.3519202E-01;  0.0000000E+00;  4.1974163E-01;  2.7235217E+03;
  1.5597681E+00;  9.9999998E-03;  1.6192591E-01;8836;  1.0932227E+00;  0.0000000E+00;  8.3003402E-02;  1.0036850E+03;  2.4238411E-01;  3.0455737E+03;3;  4.5947105E+01;  0.0000000E+00;  1.7366795E+01;0;  6.8575561E-01;  7.0202075E+03;  0.0000000E+00;  1.2804157E+00;  4.0000000E+04;  0.0000000E+00;  3.8979922E+04;  1.4441787E-01;  0.0000000E+00;  5.4133773E-01;  1.0238954E+03;
  1.5604581E+00;  9.9999998E-03;  1.5177038E-01;8835;  1.0888066E+00;  0.0000000E+00;  7.5729385E-02;  1.0038906E+03;  2.4206458E-01;  3.2154470E+03;3;  4.7854435E+01;  0.0000000E+00;  1.5378337E+01;0;  6.3150239E-01;  7.0376982E+03;  0.0000000E+00;  1.1701187E+00;  4.0000000E+04;  0.0000000E+00;  3.8986539E+04;  7.8789823E-02;  0.0000000E+00;  5.5271256E-01;  1.6647769E+03;
  1.5605412E+00;  9.9999998E-03;  2.1250184E-01;8841;  1.1198990E+00;  0.0000000E+00;  1.2352274E-01;  1.0029852E+03;  2.4236852E-01;  2.4671685E+03;3;  3.7252846E+01;  0.0000000E+00;  2.3180168E+01;0;  8.6176908E-01;  7.0149146E+03;  0.0000000E+00;  8.2991147E-01;  4.0000000E+04;  0.0000000E+00;  3.8952023E+04;  4.7415921E-01;  0.0000000E+00;  3.8760990E-01;  3.7578611E+03;
  1.5611163E+00;  9.9999998E-03;  1.4162722E-01;8834;  1.0848049E+00;  0.0000000E+00;  6.8842314E-02;  1.0039471E+03;  2.4176292E-01;  3.2620674E+03;3;  4.9130558E+01;  0.0000000E+00;  1.3433652E+01;0;  5.7758194E-01;  7.0523711E+03;  0.0000000E+00;  1.0585676E+00;  4.0000000E+04;  0.0000000E+00;  3.8994070E+04;  2.2187183E-02;  0.0000000E+00;  5.5539477E-01;  2.6159148E+03;
  1.5617026E+00;  9.9999998E-03;  1.3150470E-01;8833;  1.0812019E+00;  0.0000000E+00;  6.2279314E-02;  1.0038157E+03;  2.4147177E-01;  3.1533323E+03;3;  5.0935287E+01;  0.0000000E+00;  1.1548643E+01;0;  5.2529138E-01;  7.0638950E+03;  0.0000000E+00;  9.2042798E-01;  4.0000000E+04;  0.0000000E+00;  3.9002227E+04; -2.5723692E-02;  0.0000000E+00;  5.5101508E-01;  3.6528960E+03;
  1.5621889E+00;  9.9999998E-03;  1.2140982E-01;8832;  1.0779328E+00;  0.0000000E+00;  5.6022145E-02;  1.0034780E+03;  2.4123174E-01;  2.8741814E+03;3;  5.2847755E+01;  0.0000000E+00;  9.5343657E+00;0;  4.7584608E-01;  7.0706030E+03;  0.0000000E+00;  7.5632381E-01;  4.0000000E+04;  0.0000000E+00;  3.9010719E+04; -6.5751530E-02;  0.0000000E+00;  5.4159760E-01;  4.7401934E+03;
  1.5625173E+00;  9.9999998E-03;  2.2256161E-01;8842;  1.1267580E+00;  0.0000000E+00;  1.2735961E-01;  1.0032808E+03;  2.4155171E-01;  2.7112039E+03;3;  3.7188591E+01;  0.0000000E+00;  1.7149101E+01;0;  8.5508871E-01;  7.0616328E+03;  0.0000000E+00; -3.0879915E-01;  4.0000000E+04;  0.0000000E+00;  3.8958328E+04;  4.9345872E-01;  0.0000000E+00;  3.6162999E-01;  1.0230071E+04;
  1.5625451E+00;  9.9999998E-03;  1.1132688E-01;8831;  1.0749788E+00;  0.0000000E+00;  5.0091896E-02;  1.0029854E+03;  2.4106401E-01;  2.4670835E+03;3;  5.4528259E+01;  0.0000000E+00;  7.9005132E+00;0;  4.3021992E-01;  7.0715195E+03;  0.0000000E+00;  5.8206588E-01;  4.0000000E+04;  0.0000000E+00;  3.9019156E+04; -9.8798253E-02;  0.0000000E+00;  5.2901816E-01;  5.8178545E+03;
  1.5627750E+00;  9.9999998E-03;  1.0123879E-01;8830;  1.0723298E+00;  0.0000000E+00;  4.4440098E-02;  1.0023807E+03;  2.4096860E-01;  1.9674038E+03;3;  5.6285961E+01;  0.0000000E+00;  6.4734554E+00;0;  3.8874668E-01;  7.0677598E+03;  0.0000000E+00;  4.1598508E-01;  4.0000000E+04;  0.0000000E+00;  3.9026723E+04; -1.2601751E-01;  0.0000000E+00;  5.1476419E-01;  6.8121729E+03;
  1.5628862E+00;  9.9999998E-03;  9.1138631E-02;8829;  1.0699890E+00;  0.0000000E+00;  3.9060544E-02;  1.0017351E+03;  2.4093421E-01;  1.4338513E+03;3;  5.7765114E+01;  0.0000000E+00;  5.1795001E+00;0;  3.5165733E-01;  7.0605889E+03;  0.0000000E+00;  2.7507097E-01;  4.0000000E+04;  0.0000000E+00;  3.9033023E+04; -1.4836872E-01;  0.0000000E+00;  5.0002605E-01;  7.6580840E+03;
  1.5629050E+00;  9.9999998E-03;  8.1026569E-02;8828;  1.0679444E+00;  0.0000000E+00;  3.3970509E-02;  1.0011273E+03;  2.4094504E-01;  9.3163324E+02;3;  5.9463181E+01;  0.0000000E+00;  3.9211586E+00;0;  3.1892926E-01;  7.0516748E+03;  0.0000000E+00;  1.6965859E-01;  4.0000000E+04;  0.0000000E+00;  3.9038344E+04; -1.6674201E-01;  0.0000000E+00;  4.8567125E-01;  8.3235146E+03;
  1.5628662E+00;  9.9999998E-03;  7.0905730E-02;8827;  1.0661572E+00;  0.0000000E+00;  2.9161178E-02;  1.0006008E+03;  2.4098815E-01;  4.9650403E+02;3;  6.0989250E+01;  0.0000000E+00;  2.8228297E+00;0;  2.9039156E-01;  7.0425669E+03;  0.0000000E+00;  1.0036785E-01;  4.0000000E+04;  0.0000000E+00;  3.9041895E+04; -1.8189894E-01;  0.0000000E+00;  4.7229049E-01;  8.8110684E+03;
  1.5644020E+00;  9.9999998E-03;  2.3268333E-01;8843;  1.1346614E+00;  0.0000000E+00;  1.2782443E-01;  1.0035276E+03;  2.4078907E-01;  2.9150164E+03;3;  3.6458248E+01;  0.0000000E+00;  1.5190832E+01;0;  8.4942389E-01;  7.1061587E+03;  0.0000000E+00; -2.7464416E+00;  4.0000000E+04;  0.0000000E+00;  3.8963031E+04;  5.1124012E-01;  0.0000000E+00;  3.3818376E-01;  2.4260811E+04;
  1.5809923E+00;  9.9999998E-03;  1.8215492E-01;8899;  1.0976127E+00;  0.0000000E+00;  7.9914041E-02;  1.0006043E+03;  2.2382182E-01;  4.9896768E+02;3;  4.3347870E+01;  0.0000000E+00;  2.4486507E+01;0;  4.0407982E-01;  8.1813940E+03;  0.0000000E+00;  1.2322866E+00;  4.0000000E+04;  0.0000000E+00;  3.8994828E+04; -7.8473173E-02;  0.0000000E+00;  4.8255301E-01;  3.7989072E+03;
  1.5811801E+00;  9.9999998E-03;  1.7201595E-01;8898;  1.0923775E+00;  0.0000000E+00;  7.3067822E-02;  1.0006300E+03;  2.2374435E-01;  5.2022485E+02;3;  4.4909515E+01;  0.0000000E+00;  2.2224981E+01;0;  3.8458747E-01;  8.1861553E+03;  0.0000000E+00;  1.0925068E+00;  4.0000000E+04;  0.0000000E+00;  3.9003410E+04; -1.1172623E-01;  0.0000000E+00;  4.9631369E-01;  4.1031831E+03;
  1.5813028E+00;  9.9999998E-03;  1.9227605E-01;8900;  1.1032019E+00;  0.0000000E+00;  8.6948968E-02;  1.0006862E+03;  2.2369544E-01;  5.6658386E+02;3;  4.1720673E+01;  0.0000000E+00;  2.6496622E+01;0;  4.1446644E-01;  8.1922744E+03;  0.0000000E+00;  1.2389865E+00;  4.0000000E+04;  0.0000000E+00;  3.8985816E+04; -4.8335552E-02;  0.0000000E+00;  4.6280199E-01;  2.9742478E+03;
  1.5816689E+00;  9.9999998E-03;  1.6186723E-01;8897;  1.0874860E+00;  0.0000000E+00;  6.6591732E-02;  1.0007220E+03;  2.2356045E-01;  5.9620148E+02;3;  4.6573967E+01;  0.0000000E+00;  1.9944292E+01;0;  3.5848457E-01;  8.1991992E+03;  0.0000000E+00;  9.0775859E-01;  4.0000000E+04;  0.0000000E+00;  3.9010656E+04; -1.4408290E-01;  0.0000000E+00;  5.0256747E-01;  4.6251826E+03;
  1.5823270E+00;  9.9999998E-03;  1.5170778E-01;8896;  1.0829278E+00;  0.0000000E+00;  6.0497470E-02;  1.0008214E+03;  2.2330858E-01;  6.7817273E+02;3;  4.8208633E+01;  0.0000000E+00;  1.7802990E+01;0;  3.2759374E-01;  8.2165850E+03;  0.0000000E+00;  7.6696831E-01;  4.0000000E+04;  0.0000000E+00;  3.9017910E+04; -1.7350113E-01;  0.0000000E+00;  5.0109488E-01;  5.4745469E+03;
  1.5823132E+00;  9.9999998E-03;  2.0235895E-01;8901;  1.1090888E+00;  0.0000000E+00;  9.3970552E-02;  1.0009133E+03;  2.2329670E-01;  7.5406171E+02;3;  4.0092159E+01;  0.0000000E+00;  2.7973927E+01;0;  4.1368812E-01;  8.2236758E+03;  0.0000000E+00;  1.0610622E+00;  4.0000000E+04;  0.0000000E+00;  3.8978598E+04; -2.6637748E-02;  0.0000000E+00;  4.4032589E-01;  1.0200678E+03;
  1.5830494E+00;  9.9999998E-03;  1.4154889E-01;8895;  1.0786970E+00;  0.0000000E+00;  5.4760993E-02;  1.0008719E+03;  2.2302106E-01;  7.1988000E+02;3;  4.9930725E+01;  0.0000000E+00;  1.5635844E+01;0;  2.9370075E-01;  8.2355771E+03;  0.0000000E+00;  6.9635314E-01;  4.0000000E+04;  0.0000000E+00;  3.9024754E+04; -1.9902737E-01;  0.0000000E+00;  4.9272814E-01;  6.3943057E+03;
  1.5837344E+00;  9.9999998E-03;  1.3141172E-01;8894;  1.0748248E+00;  0.0000000E+00;  4.9359657E-02;  1.0008069E+03;  2.2272460E-01;  6.6621497E+02;3;  5.1492268E+01;  0.0000000E+00;  1.3879185E+01;0;  2.5883648E-01;  8.2531738E+03;  0.0000000E+00;  6.6230911E-01;  4.0000000E+04;  0.0000000E+00;  3.9032211E+04; -2.2035220E-01;  0.0000000E+00;  4.7918868E-01;  7.3012358E+03;
  1.5840302E+00;  9.9999998E-03;  2.1240872E-01;8902;  1.1153061E+00;  0.0000000E+00;  1.0059064E-01;  1.0012230E+03;  2.2264798E-01;  1.0096905E+03;3;  3.8874546E+01;  0.0000000E+00;  2.8176943E+01;0;  4.0353546E-01;  8.2736670E+03;  0.0000000E+00;  5.5542451E-01;  4.0000000E+04;  0.0000000E+00;  3.8976855E+04; -1.6391071E-02;  0.0000000E+00;  4.1992652E-01;  2.8541091E+03;
  1.5843459E+00;  9.9999998E-03;  1.2130834E-01;8893;  1.0713032E+00;  0.0000000E+00;  4.4255465E-02;  1.0005981E+03;  2.2245601E-01;  4.9376489E+02;3;  5.3362179E+01;  0.0000000E+00;  1.1997421E+01;0;  2.2443552E-01;  8.2668389E+03;  0.0000000E+00;  6.2671560E-01;  4.0000000E+04;  0.0000000E+00;  3.9039711E+04; -2.3794658E-01;  0.0000000E+00;  4.6238211E-01;  8.2193818E+03;
  1.5848470E+00;  9.9999998E-03;  1.1122057E-01;8892;  1.0681022E+00;  0.0000000E+00;  3.9460819E-02;  1.0002480E+03;  2.2224289E-01;  2.0470482E+02;3;  5.5111263E+01;  0.0000000E+00;  1.0159980E+01;0;  1.9168961E-01;  8.2748359E+03;  0.0000000E+00;  5.7054079E-01;  4.0000000E+04;  0.0000000E+00;  3.9047012E+04; -2.5235286E-01;  0.0000000E+00;  4.4404247E-01;  9.1380615E+03;
  1.5852160E+00;  9.9999998E-03;  1.0113106E-01;8891;  1.0652242E+00;  0.0000000E+00;  3.4956411E-02;  9.9977435E+02;  2.2209300E-01; -1.8629744E+02;3;  5.6752373E+01;  0.0000000E+00;  8.5481596E+00;0;  1.6142353E-01;  8.2771143E+03;  0.0000000E+00;  4.8800194E-01;  4.0000000E+04;  0.0000000E+00;  3.9053812E+04; -2.6411501E-01;  0.0000000E+00;  4.2553854E-01;  1.0004960E+04;
  1.5860628E+00;  9.9999998E-03;  2.2247432E-01;8903;  1.1224337E+00;  0.0000000E+00;  1.0551175E-01;  1.0014410E+03;  2.2191863E-01;  1.1895732E+03;3;  3.9053917E+01;  0.0000000E+00;  2.3162434E+01;0;  3.9122903E-01;  8.3284863E+03;  0.0000000E+00; -7.9037446E-01;  4.0000000E+04;  0.0000000E+00;  3.8981531E+04; -1.3557840E-02;  0.0000000E+00;  4.0478688E-01;  1.0472947E+04;
  1.5854448E+00;  9.9999998E-03;  9.1036662E-02;8890;  1.0626857E+00;  0.0000000E+00;  3.0735191E-02;  9.9922980E+02;  2.2199893E-01; -6.3584424E+02;3;  5.8418850E+01;  0.0000000E+00;  6.9851480E+00;0;  1.3418627E-01;  8.2743584E+03;  0.0000000E+00;  3.8788930E-01;  4.0000000E+04;  0.0000000E+00;  3.9059617E+04; -2.7372193E-01;  0.0000000E+00;  4.0790820E-01;  1.0767944E+04;
  1.5855412E+00;  9.9999998E-03;  8.0937415E-02;8889;  1.0604578E+00;  0.0000000E+00;  2.6787147E-02;  9.9865637E+02;  2.2196533E-01; -1.1092035E+03;3;  6.0026035E+01;  0.0000000E+00;  5.6148653E+00;0;  1.1025444E-01;  8.2675898E+03;  0.0000000E+00;  2.8685212E-01;  4.0000000E+04;  0.0000000E+00;  3.9064391E+04; -2.8159636E-01;  0.0000000E+00;  3.9185080E-01;  1.1401962E+04;
  1.5855465E+00;  9.9999998E-03;  7.0828617E-02;8888;  1.0585223E+00;  0.0000000E+00;  2.3067450E-02;  9.9811066E+02;  2.2197032E-01; -1.5597339E+03;3;  6.1439625E+01;  0.0000000E+00;  4.5899887E+00;0;  8.9524001E-02;  8.2587119E+03;  0.0000000E+00;  1.9970062E-01;  4.0000000E+04;  0.0000000E+00;  3.9068031E+04; -2.8814691E-01;  0.0000000E+00;  3.7767091E-01;  1.1909557E+04;
  1.5875666E+00;  9.9999998E-03;  2.3260577E-01;8904;  1.1307292E+00;  0.0000000E+00;  1.0709173E-01;  1.0013154E+03;  2.2141886E-01;  1.0857615E+03;3;  3.8718681E+01;  0.0000000E+00;  1.9249502E+01;0;  3.8369685E-01;  8.3636787E+03;  0.0000000E+00; -3.7277486E+00;  4.0000000E+04;  0.0000000E+00;  3.8983797E+04; -5.0068586E-03;  0.0000000E+00;  3.8870370E-01;  2.4752139E+04;
  1.6018475E+00;  9.9999998E-03;  1.7201300E-01;8958;  1.0859555E+00;  0.0000000E+00;  5.6702990E-02;  9.9850140E+02;  2.0753436E-01; -1.2359297E+03;3;  4.5346077E+01;  0.0000000E+00;  2.4514881E+01;0;  1.8963784E-01;  9.4687842E+03;  0.0000000E+00;  9.4597304E-01;  4.0000000E+04;  0.0000000E+00;  3.9019066E+04; -2.5799078E-01;  0.0000000E+00;  4.4762862E-01;  6.4984092E+03;
  1.6018518E+00;  9.9999998E-03;  1.8213524E-01;8959;  1.0912046E+00;  0.0000000E+00;  6.2470723E-02;  9.9880420E+02;  2.0750256E-01; -9.8620697E+02;3;  4.4013824E+01;  0.0000000E+00;  2.6747679E+01;0;  1.9920449E-01;  9.4768291E+03;  0.0000000E+00;  1.0979410E+00;  4.0000000E+04;  0.0000000E+00;  3.9010254E+04; -2.4761491E-01;  0.0000000E+00;  4.4681939E-01;  5.7038506E+03;
  1.6022087E+00;  9.9999998E-03;  1.6187410E-01;8957;  1.0810061E+00;  0.0000000E+00;  5.1219184E-02;  9.9832513E+02;  2.0743191E-01; -1.3813052E+03;3;  4.6903404E+01;  0.0000000E+00;  2.2014338E+01;0;  1.7314339E-01;  9.4746387E+03;  0.0000000E+00;  6.8554562E-01;  4.0000000E+04;  0.0000000E+00;  3.9026664E+04; -2.6916185E-01;  0.0000000E+00;  4.4230524E-01;  7.2104482E+03;
  1.6023562E+00;  9.9999998E-03;  1.9224806E-01;8960;  1.0968293E+00;  0.0000000E+00;  6.8479568E-02;  9.9921356E+02;  2.0728764E-01; -6.4856787E+02;3;  4.2784225E+01;  0.0000000E+00;  2.8986166E+01;0;  2.0101865E-01;  9.5032656E+03;  0.0000000E+00;  1.0833070E+00;  4.0000000E+04;  0.0000000E+00;  3.9000301E+04; -2.3975287E-01;  0.0000000E+00;  4.4077152E-01;  4.4098374E+03;
  1.6027850E+00;  9.9999998E-03;  1.5169962E-01;8956;  1.0763414E+00;  0.0000000E+00;  4.6156012E-02;  9.9822821E+02;  2.0724255E-01; -1.4611766E+03;3;  4.8556957E+01;  0.0000000E+00;  1.9758402E+01;0;  1.5128809E-01;  9.4892744E+03;  0.0000000E+00;  4.5134857E-01;  4.0000000E+04;  0.0000000E+00;  3.9033184E+04; -2.7982473E-01;  0.0000000E+00;  4.3111283E-01;  8.0407749E+03;
  1.6034584E+00;  9.9999998E-03;  1.4150901E-01;8955;  1.0719633E+00;  0.0000000E+00;  4.1486569E-02;  9.9819550E+02;  2.0700608E-01; -1.4880936E+03;3;  5.0204899E+01;  0.0000000E+00;  1.7636467E+01;0;  1.2589648E-01;  9.5086396E+03;  0.0000000E+00;  3.3608392E-01;  4.0000000E+04;  0.0000000E+00;  3.9039055E+04; -2.8921056E-01;  0.0000000E+00;  4.1510704E-01;  8.8541006E+03;
  1.6035269E+00;  9.9999998E-03;  2.0232897E-01;8961;  1.1028057E+00;  0.0000000E+00;  7.4419744E-02;  9.9965607E+02;  2.0685713E-01; -2.8360892E+02;3;  4.1830204E+01;  0.0000000E+00;  3.0668024E+01;0;  1.9502416E-01;  9.5497119E+03;  0.0000000E+00;  9.3713892E-01;  4.0000000E+04;  0.0000000E+00;  3.8991965E+04; -2.3669729E-01;  0.0000000E+00;  4.3172145E-01;  2.8183635E+03;
  1.6041369E+00;  9.9999998E-03;  1.3133866E-01;8954;  1.0679284E+00;  0.0000000E+00;  3.7185472E-02;  9.9814600E+02;  2.0675215E-01; -1.5288182E+03;3;  5.1768864E+01;  0.0000000E+00;  1.5561577E+01;0;  9.8895013E-02;  9.5289785E+03;  0.0000000E+00;  3.2989147E-01;  4.0000000E+04;  0.0000000E+00;  3.9044902E+04; -2.9701379E-01;  0.0000000E+00;  3.9590880E-01;  9.5881797E+03;
  1.6047904E+00;  9.9999998E-03;  1.2120826E-01;8953;  1.0642328E+00;  0.0000000E+00;  3.3234693E-02;  9.9805029E+02;  2.0650466E-01; -1.6076798E+03;3;  5.3546188E+01;  0.0000000E+00;  1.3392788E+01;0;  7.1767807E-02;  9.5475576E+03;  0.0000000E+00;  3.7420839E-01;  4.0000000E+04;  0.0000000E+00;  3.9051074E+04; -3.0338642E-01;  0.0000000E+00;  3.7515423E-01;  1.0306433E+04;
  1.6052630E+00;  9.9999998E-03;  2.1238777E-01;8962;  1.1093569E+00;  0.0000000E+00;  8.0064200E-02;  9.9995349E+02;  2.0627844E-01; -3.8334145E+01;3;  4.1161190E+01;  0.0000000E+00;  3.1049988E+01;0;  1.8445225E-01;  9.6077812E+03;  0.0000000E+00;  5.2832210E-01;  4.0000000E+04;  0.0000000E+00;  3.8988164E+04; -2.3897584E-01;  0.0000000E+00;  4.2342809E-01;  2.6247439E+03;
  1.6053760E+00;  9.9999998E-03;  1.1109915E-01;8952;  1.0608505E+00;  0.0000000E+00;  2.9606555E-02;  9.9785223E+02;  2.0628408E-01; -1.7709250E+03;3;  5.5235447E+01;  0.0000000E+00;  1.1464489E+01;0;  4.5754284E-02;  9.5621416E+03;  0.0000000E+00;  4.2010665E-01;  4.0000000E+04;  0.0000000E+00;  3.9056977E+04; -3.0857408E-01;  0.0000000E+00;  3.5432836E-01;  1.1047786E+04;
  1.6058385E+00;  9.9999998E-03;  1.0100681E-01;8951;  1.0578082E+00;  0.0000000E+00;  2.6260313E-02;  9.9754919E+02;  2.0610945E-01; -2.0207163E+03;3;  5.6910122E+01;  0.0000000E+00;  9.7647581E+00;0;  2.1861047E-02;  9.5707803E+03;  0.0000000E+00;  4.3431884E-01;  4.0000000E+04;  0.0000000E+00;  3.9062719E+04; -3.1281060E-01;  0.0000000E+00;  3.3467165E-01;  1.1785338E+04;
  1.6061435E+00;  9.9999998E-03;  9.0923429E-02;8950;  1.0551176E+00;  0.0000000E+00;  2.3146437E-02;  9.9715741E+02;  2.0599459E-01; -2.3436907E+03;3;  5.8325497E+01;  0.0000000E+00;  8.4556656E+00;0;  6.6944957E-04;  9.5726064E+03;  0.0000000E+00;  4.0708134E-01;  4.0000000E+04;  0.0000000E+00;  3.9067957E+04; -3.1634304E-01;  0.0000000E+00;  3.1701249E-01;  1.2475162E+04;
  1.6063086E+00;  9.9999998E-03;  8.0835760E-02;8949;  1.0527843E+00;  0.0000000E+00;  2.0212917E-02;  9.9669659E+02;  2.0592928E-01; -2.7235850E+03;3;  5.9861427E+01;  0.0000000E+00;  7.0461001E+00;0; -1.7745584E-02;  9.5690605E+03;  0.0000000E+00;  3.4791541E-01;  4.0000000E+04;  0.0000000E+00;  3.9072992E+04; -3.1940818E-01;  0.0000000E+00;  3.0166259E-01;  1.3096049E+04;
  1.6070342E+00;  9.9999998E-03;  2.2246332E-01;8963;  1.1170210E+00;  0.0000000E+00;  8.4432878E-02;  9.9985901E+02;  2.0574290E-01; -1.1621629E+02;3;  4.0995625E+01;  0.0000000E+00;  2.8228777E+01;0;  1.7450899E-01;  9.6562236E+03;  0.0000000E+00; -8.0007333E-01;  4.0000000E+04;  0.0000000E+00;  3.8990680E+04; -2.4327981E-01;  0.0000000E+00;  4.1778880E-01;  7.4926323E+03;
  1.6063589E+00;  9.9999998E-03;  7.0739426E-02;8948;  1.0507684E+00;  0.0000000E+00;  1.7449303E-02;  9.9620209E+02;  2.0590997E-01; -3.1312607E+03;3;  6.1268692E+01;  0.0000000E+00;  5.8161340E+00;0; -3.3448935E-02;  9.5615195E+03;  0.0000000E+00;  2.7463961E-01;  4.0000000E+04;  0.0000000E+00;  3.9077059E+04; -3.2215029E-01;  0.0000000E+00;  2.8870136E-01;  1.3647607E+04;
  1.6080866E+00;  9.9999998E-03;  2.3258707E-01;8964;  1.1257046E+00;  0.0000000E+00;  8.7268881E-02;  9.9925092E+02;  2.0548870E-01; -6.1754474E+02;3;  4.0421307E+01;  0.0000000E+00;  2.4309198E+01;0;  1.6828425E-01;  9.6715596E+03;  0.0000000E+00; -3.8685203E+00;  4.0000000E+04;  0.0000000E+00;  3.8995133E+04; -2.4301507E-01;  0.0000000E+00;  4.1129932E-01;  1.8840127E+04;
  1.6213108E+00;  9.9999998E-03;  1.7204396E-01;9017;  1.0790141E+00;  0.0000000E+00;  4.1481182E-02;  9.9719482E+02;  1.9377798E-01; -2.3100012E+03;3;  4.5705505E+01;  0.0000000E+00;  2.6116091E+01;0;  7.1328998E-02;  1.0827910E+04;  0.0000000E+00;  8.0016685E-01;  4.0000000E+04;  0.0000000E+00;  3.9021242E+04; -3.1987992E-01;  0.0000000E+00;  3.9120892E-01;  8.0187412E+03;
  1.6214474E+00;  9.9999998E-03;  1.8213809E-01;9018;  1.0842137E+00;  0.0000000E+00;  4.6305921E-02;  9.9780396E+02;  1.9369571E-01; -1.8083981E+03;3;  4.4410351E+01;  0.0000000E+00;  2.8809740E+01;0;  7.9711288E-02;  1.0848462E+04;  0.0000000E+00;  9.2754465E-01;  4.0000000E+04;  0.0000000E+00;  3.9011973E+04; -3.2139012E-01;  0.0000000E+00;  4.0110141E-01;  6.9419395E+03;
  1.6215444E+00;  9.9999998E-03;  1.6192719E-01;9016;  1.0740749E+00;  0.0000000E+00;  3.6969822E-02;  9.9671393E+02;  1.9373484E-01; -2.7059470E+03;3;  4.6935322E+01;  0.0000000E+00;  2.3525574E+01;0;  5.6861460E-02;  1.0823830E+04;  0.0000000E+00;  5.3294605E-01;  4.0000000E+04;  0.0000000E+00;  3.9029309E+04; -3.1986693E-01;  0.0000000E+00;  3.7672839E-01;  8.9171484E+03;
  1.6219994E+00;  9.9999998E-03;  1.5175398E-01;9015;  1.0694214E+00;  0.0000000E+00;  3.2913681E-02;  9.9637701E+02;  1.9361086E-01; -2.9832856E+03;3;  4.8431252E+01;  0.0000000E+00;  2.0955000E+01;0;  3.7764043E-02;  1.0831626E+04;  0.0000000E+00;  2.3875734E-01;  4.0000000E+04;  0.0000000E+00;  3.9035266E+04; -3.2047793E-01;  0.0000000E+00;  3.5824198E-01;  9.7434346E+03;
  1.6220582E+00;  9.9999998E-03;  1.9221400E-01;9019;  1.0897534E+00;  0.0000000E+00;  5.1481843E-02;  9.9845233E+02;  1.9346517E-01; -1.2744073E+03;3;  4.3514114E+01;  0.0000000E+00;  3.1144510E+01;0;  8.1484348E-02;  1.0886723E+04;  0.0000000E+00;  9.7132820E-01;  4.0000000E+04;  0.0000000E+00;  3.9002352E+04; -3.2536006E-01;  0.0000000E+00;  4.0684441E-01;  5.7479995E+03;
  1.6225740E+00;  9.9999998E-03;  1.4154141E-01;9014;  1.0650340E+00;  0.0000000E+00;  2.9308734E-02;  9.9617908E+02;  1.9343564E-01; -3.1460664E+03;3;  5.0001926E+01;  0.0000000E+00;  1.8293156E+01;0;  1.5743464E-02;  1.0847347E+04;  0.0000000E+00;  5.9660200E-02;  4.0000000E+04;  0.0000000E+00;  3.9040605E+04; -3.2114428E-01;  0.0000000E+00;  3.3688775E-01;  1.0467256E+04;
  1.6232101E+00;  9.9999998E-03;  1.3133386E-01;9013;  1.0609548E+00;  0.0000000E+00;  2.6129153E-02;  9.9608002E+02;  1.9322604E-01; -3.2274441E+03;3;  5.1476124E+01;  0.0000000E+00;  1.6078634E+01;0; -7.4976981E-03;  1.0868026E+04;  0.0000000E+00;  3.6266021E-02;  4.0000000E+04;  0.0000000E+00;  3.9045051E+04; -3.2157001E-01;  0.0000000E+00;  3.1407231E-01;  1.1063592E+04;
  1.6232343E+00;  9.9999998E-03;  2.0226699E-01;9020;  1.0957353E+00;  0.0000000E+00;  5.6462191E-02;  9.9898157E+02;  1.9309203E-01; -8.3848773E+02;3;  4.2926640E+01;  0.0000000E+00;  3.2747963E+01;0;  7.7053547E-02;  1.0939112E+04;  0.0000000E+00;  1.0906760E+00;  4.0000000E+04;  0.0000000E+00;  3.8995656E+04; -3.3275580E-01;  0.0000000E+00;  4.0980935E-01;  5.0444194E+03;
  1.6238660E+00;  9.9999998E-03;  1.2116154E-01;9012;  1.0571936E+00;  0.0000000E+00;  2.3291912E-02;  9.9601819E+02;  1.9300386E-01; -3.2781836E+03;3;  5.3131279E+01;  0.0000000E+00;  1.4066948E+01;0; -3.0479908E-02;  1.0890144E+04;  0.0000000E+00;  1.1209586E-01;  4.0000000E+04;  0.0000000E+00;  3.9049469E+04; -3.2171860E-01;  0.0000000E+00;  2.9123870E-01;  1.1597695E+04;
  1.6244627E+00;  9.9999998E-03;  1.1103161E-01;9011;  1.0537617E+00;  0.0000000E+00;  2.0733351E-02;  9.9593231E+02;  1.9280292E-01; -3.3486594E+03;3;  5.4579426E+01;  0.0000000E+00;  1.2514293E+01;0; -5.1939189E-02;  1.0909083E+04;  0.0000000E+00;  2.2186103E-01;  4.0000000E+04;  0.0000000E+00;  3.9053746E+04; -3.2169858E-01;  0.0000000E+00;  2.6975939E-01;  1.2141470E+04;
  1.6247513E+00;  9.9999998E-03;  2.1232469E-01;9021;  1.1025931E+00;  0.0000000E+00;  6.1199866E-02;  9.9911719E+02;  1.9266422E-01; -7.2673999E+02;3;  4.2829510E+01;  0.0000000E+00;  3.2907158E+01;0;  6.9387794E-02;  1.0990495E+04;  0.0000000E+00;  1.1363233E+00;  4.0000000E+04;  0.0000000E+00;  3.8996324E+04; -3.4310347E-01;  0.0000000E+00;  4.1249126E-01;  5.1895601E+03;
  1.6249439E+00;  9.9999998E-03;  1.0093384E-01;9010;  1.0506922E+00;  0.0000000E+00;  1.8384049E-02;  9.9578204E+02;  1.9264352E-01; -3.4722527E+03;3;  5.6190525E+01;  0.0000000E+00;  1.0916215E+01;0; -7.1146309E-02;  1.0922093E+04;  0.0000000E+00;  3.1482780E-01;  4.0000000E+04;  0.0000000E+00;  3.9058184E+04; -3.2167226E-01;  0.0000000E+00;  2.5052595E-01;  1.2711891E+04;
  1.6252991E+00;  9.9999998E-03;  9.0844370E-02;9009;  1.0479465E+00;  0.0000000E+00;  1.6235707E-02;  9.9555048E+02;  1.9252446E-01; -3.6627532E+03;3;  5.7743614E+01;  0.0000000E+00;  9.3643970E+00;0; -8.7897390E-02;  1.0928863E+04;  0.0000000E+00;  3.6236179E-01;  4.0000000E+04;  0.0000000E+00;  3.9062676E+04; -3.2178575E-01;  0.0000000E+00;  2.3388836E-01;  1.3288140E+04;
  1.6255226E+00;  9.9999998E-03;  8.0755532E-02;9008;  1.0455189E+00;  0.0000000E+00;  1.4242383E-02;  9.9523260E+02;  1.9244294E-01; -3.9243330E+03;3;  5.9177410E+01;  0.0000000E+00;  8.0899649E+00;0; -1.0216741E-01;  1.0929579E+04;  0.0000000E+00;  3.6056137E-01;  4.0000000E+04;  0.0000000E+00;  3.9067230E+04; -3.2213026E-01;  0.0000000E+00;  2.1996285E-01;  1.3852692E+04;
  1.6261142E+00;  9.9999998E-03;  2.2241837E-01;9022;  1.1105388E+00;  0.0000000E+00;  6.5219760E-02;  9.9860272E+02;  1.9233355E-01; -1.1500923E+03;3;  4.2994614E+01;  0.0000000E+00;  3.1313377E+01;0;  6.1755419E-02;  1.1019313E+04;  0.0000000E+00;  2.5448206E-01;  4.0000000E+04;  0.0000000E+00;  3.9004023E+04; -3.5379562E-01;  0.0000000E+00;  4.1555104E-01;  5.4239282E+03;
  1.6256149E+00;  9.9999998E-03;  7.0668638E-02;9007;  1.0434158E+00;  0.0000000E+00;  1.2350666E-02;  9.9485736E+02;  1.9240776E-01; -4.2331533E+03;3;  6.0558281E+01;  0.0000000E+00;  6.9079814E+00;0; -1.1406347E-01;  1.0924407E+04;  0.0000000E+00;  3.2135892E-01;  4.0000000E+04;  0.0000000E+00;  3.9071461E+04; -3.2274103E-01;  0.0000000E+00;  2.0867756E-01;  1.4405204E+04;
  1.6267174E+00;  9.9999998E-03;  2.3255809E-01;9023;  1.1195209E+00;  0.0000000E+00;  6.9168314E-02;  9.9750146E+02;  1.9227637E-01; -2.0564263E+03;3;  4.2524284E+01;  0.0000000E+00;  2.8707628E+01;0;  5.7578206E-02;  1.1007096E+04;  0.0000000E+00; -2.4045289E+00;  4.0000000E+04;  0.0000000E+00;  3.9013758E+04; -3.6041680E-01;  0.0000000E+00;  4.1799501E-01;  9.3752002E+03;
  1.6398125E+00;  9.9999998E-03;  1.7208870E-01;9076;  1.0718573E+00;  0.0000000E+00;  2.7575910E-02;  9.9667346E+02;  1.8214998E-01; -2.7340945E+03;3;  4.5322880E+01;  0.0000000E+00;  2.6700373E+01;0; -1.4428467E-02;  1.2240391E+04;  0.0000000E+00;  6.2020469E-01;  4.0000000E+04;  0.0000000E+00;  3.9010469E+04; -3.4969750E-01;  0.0000000E+00;  3.3526903E-01;  8.7647871E+03;
  1.6399106E+00;  9.9999998E-03;  1.6200985E-01;9075;  1.0671053E+00;  0.0000000E+00;  2.4105880E-02;  9.9592151E+02;  1.8214548E-01; -3.3521050E+03;3;  4.6449898E+01;  0.0000000E+00;  2.3930538E+01;0; -2.8056771E-02;  1.2224945E+04;  0.0000000E+00;  4.0207705E-01;  4.0000000E+04;  0.0000000E+00;  3.9019801E+04; -3.4164929E-01;  0.0000000E+00;  3.1359252E-01;  9.8940596E+03;
  1.6400121E+00;  9.9999998E-03;  1.8214160E-01;9077;  1.0769064E+00;  0.0000000E+00;  3.1448506E-02;  9.9748779E+02;  1.8206096E-01; -2.0647537E+03;3;  4.4506599E+01;  0.0000000E+00;  2.9609346E+01;0; -5.5789351E-03;  1.2270346E+04;  0.0000000E+00;  7.8627932E-01;  4.0000000E+04;  0.0000000E+00;  3.9000121E+04; -3.5953462E-01;  0.0000000E+00;  3.5395569E-01;  7.5916597E+03;
  1.6402205E+00;  9.9999998E-03;  1.5186910E-01;9074;  1.0626010E+00;  0.0000000E+00;  2.1104593E-02;  9.9532520E+02;  1.8207152E-01; -3.8420474E+03;3;  4.7734447E+01;  0.0000000E+00;  2.1147957E+01;0; -4.5238614E-02;  1.2222878E+04;  0.0000000E+00;  1.2442238E-01;  4.0000000E+04;  0.0000000E+00;  3.9026723E+04; -3.3483374E-01;  0.0000000E+00;  2.8959513E-01;  1.0836003E+04;
  1.6406512E+00;  9.9999998E-03;  1.4165740E-01;9073;  1.0583485E+00;  0.0000000E+00;  1.8552011E-02;  9.9490503E+02;  1.8195228E-01; -4.1871416E+03;3;  4.9164490E+01;  0.0000000E+00;  1.8538204E+01;0; -6.4343035E-02;  1.2231073E+04;  0.0000000E+00; -8.6501032E-02;  4.0000000E+04;  0.0000000E+00;  3.9031441E+04; -3.2877308E-01;  0.0000000E+00;  2.6443005E-01;  1.1563596E+04;
  1.6406229E+00;  9.9999998E-03;  1.9217548E-01;9078;  1.0823336E+00;  0.0000000E+00;  3.5604041E-02;  9.9823077E+02;  1.8186167E-01; -1.4540103E+03;3;  4.3885918E+01;  0.0000000E+00;  3.2005604E+01;0; -2.2373796E-03;  1.2313707E+04;  0.0000000E+00;  1.1372005E+00;  4.0000000E+04;  0.0000000E+00;  3.8991789E+04; -3.7171376E-01;  0.0000000E+00;  3.6947638E-01;  7.0534575E+03;
  1.6411754E+00;  9.9999998E-03;  1.3142823E-01;9072;  1.0543681E+00;  0.0000000E+00;  1.6360465E-02;  9.9466028E+02;  1.8179630E-01; -4.3880444E+03;3;  5.0533356E+01;  0.0000000E+00;  1.6645437E+01;0; -8.3817735E-02;  1.2247161E+04;  0.0000000E+00; -1.4386354E-01;  4.0000000E+04;  0.0000000E+00;  3.9035117E+04; -3.2317272E-01;  0.0000000E+00;  2.3935498E-01;  1.2094600E+04;
  1.6416512E+00;  9.9999998E-03;  2.0221157E-01;9079;  1.0883656E+00;  0.0000000E+00;  3.9747208E-02;  9.9865106E+02;  1.8157703E-01; -1.1084335E+03;3;  4.3908878E+01;  0.0000000E+00;  3.3904308E+01;0; -3.9617121E-03;  1.2361687E+04;  0.0000000E+00;  1.9215244E+00;  4.0000000E+04;  0.0000000E+00;  3.8990090E+04; -3.8648456E-01;  0.0000000E+00;  3.8252285E-01;  8.6122803E+03;
  1.6417407E+00;  9.9999998E-03;  1.2122963E-01;9071;  1.0507054E+00;  0.0000000E+00;  1.4444442E-02;  9.9455469E+02;  1.8162771E-01; -4.4744844E+03;3;  5.1944633E+01;  0.0000000E+00;  1.4666984E+01;0; -1.0226783E-01;  1.2267192E+04;  0.0000000E+00; -7.2335489E-02;  4.0000000E+04;  0.0000000E+00;  3.9038160E+04; -3.1792653E-01;  0.0000000E+00;  2.1565869E-01;  1.2491224E+04;
  1.6422801E+00;  9.9999998E-03;  1.1107188E-01;9070;  1.0473493E+00;  0.0000000E+00;  1.2791247E-02;  9.9451416E+02;  1.8146898E-01; -4.5074932E+03;3;  5.3502953E+01;  0.0000000E+00;  1.2882835E+01;0; -1.1878784E-01;  1.2286606E+04;  0.0000000E+00;  5.7193305E-02;  4.0000000E+04;  0.0000000E+00;  3.9040867E+04; -3.1311840E-01;  0.0000000E+00;  1.9433056E-01;  1.2839308E+04;
  1.6428677E+00;  9.9999998E-03;  2.1228330E-01;9080;  1.0952959E+00;  0.0000000E+00;  4.3783281E-02;  9.9841833E+02;  1.8128611E-01; -1.2995012E+03;3;  4.4265934E+01;  0.0000000E+00;  3.3973732E+01;0; -8.8435411E-03;  1.2396771E+04;  0.0000000E+00;  2.8211522E+00;  4.0000000E+04;  0.0000000E+00;  3.8997199E+04; -4.0308020E-01;  0.0000000E+00;  3.9423665E-01;  1.2272454E+04;
  1.6427680E+00;  9.9999998E-03;  1.0093828E-01;9069;  1.0442854E+00;  0.0000000E+00;  1.1327018E-02;  9.9445575E+02;  1.8132322E-01; -4.5552153E+03;3;  5.5026531E+01;  0.0000000E+00;  1.1348569E+01;0; -1.3308038E-01;  1.2303532E+04;  0.0000000E+00;  1.9015853E-01;  4.0000000E+04;  0.0000000E+00;  3.9043664E+04; -3.0886462E-01;  0.0000000E+00;  1.7578425E-01;  1.3198125E+04;
  1.6431633E+00;  9.9999998E-03;  9.0828270E-02;9068;  1.0415183E+00;  0.0000000E+00;  1.0013384E-02;  9.9435199E+02;  1.8120499E-01; -4.6402485E+03;3;  5.6541222E+01;  0.0000000E+00;  9.9479933E+00;0; -1.4507832E-01;  1.2315463E+04;  0.0000000E+00;  2.8759432E-01;  4.0000000E+04;  0.0000000E+00;  3.9046684E+04; -3.0530304E-01;  0.0000000E+00;  1.6022472E-01;  1.3587697E+04;
  1.6434329E+00;  9.9999998E-03;  8.0735095E-02;9067;  1.0390587E+00;  0.0000000E+00;  8.8027166E-03;  9.9417242E+02;  1.8112001E-01; -4.7875840E+03;3;  5.7950169E+01;  0.0000000E+00;  8.7746487E+00;0; -1.5493588E-01;  1.2320393E+04;  0.0000000E+00;  3.3334637E-01;  4.0000000E+04;  0.0000000E+00;  3.9049543E+04; -3.0254826E-01;  0.0000000E+00;  1.4761238E-01;  1.4011794E+04;
  1.6438562E+00;  9.9999998E-03;  2.2240843E-01;9081;  1.1033008E+00;  0.0000000E+00;  4.7879804E-02;  9.9733667E+02;  1.8110570E-01; -2.1879136E+03;3;  4.4564632E+01;  0.0000000E+00;  3.3414032E+01;0; -1.4316410E-02;  1.2399299E+04;  0.0000000E+00;  2.6118755E+00;  4.0000000E+04;  0.0000000E+00;  3.9010535E+04; -4.1929999E-01;  0.0000000E+00;  4.0498358E-01;  1.4614745E+04;
  1.6435775E+00;  9.9999998E-03;  7.0647895E-02;9066;  1.0369029E+00;  0.0000000E+00;  7.6605040E-03;  9.9393011E+02;  1.8107325E-01; -4.9865972E+03;3;  5.9332867E+01;  0.0000000E+00;  7.5219393E+00;0; -1.6295874E-01;  1.2318740E+04;  0.0000000E+00;  3.2994547E-01;  4.0000000E+04;  0.0000000E+00;  3.9053289E+04; -3.0061987E-01;  0.0000000E+00;  1.3766113E-01;  1.4476018E+04;
  1.6441045E+00;  9.9999998E-03;  2.3257245E-01;9082;  1.1124170E+00;  0.0000000E+00;  5.2932642E-02;  9.9567773E+02;  1.8116693E-01; -3.5506521E+03;3;  4.4459118E+01;  0.0000000E+00;  3.1627836E+01;0; -1.5353709E-02;  1.2357368E+04;  0.0000000E+00;  4.1990355E-01;  4.0000000E+04;  0.0000000E+00;  3.9025352E+04; -4.3157259E-01;  0.0000000E+00;  4.1621888E-01;  1.3321561E+04;
  1.6572940E+00;  9.9999998E-03;  1.7212623E-01;9135;  1.0649334E+00;  0.0000000E+00;  1.5279131E-02;  9.9670160E+02;  1.7235821E-01; -2.7046028E+03;3;  4.4540489E+01;  0.0000000E+00;  2.6350548E+01;0; -7.8645587E-02;  1.3676554E+04;  0.0000000E+00;  5.3912240E-01;  4.0000000E+04;  0.0000000E+00;  3.8985477E+04; -3.6281377E-01;  0.0000000E+00;  2.8416818E-01;  8.8175957E+03;
  1.6574619E+00;  9.9999998E-03;  1.8213579E-01;9136;  1.0697536E+00;  0.0000000E+00;  1.8211773E-02;  9.9757959E+02;  1.7229274E-01; -1.9846343E+03;3;  4.3998642E+01;  0.0000000E+00;  2.9575619E+01;0; -7.0414186E-02;  1.3709553E+04;  0.0000000E+00;  9.8745221E-01;  4.0000000E+04;  0.0000000E+00;  3.8974832E+04; -3.8030234E-01;  0.0000000E+00;  3.0988815E-01;  8.0631416E+03;
  1.6573510E+00;  9.9999998E-03;  1.6209306E-01;9134;  1.0604465E+00;  0.0000000E+00;  1.2801512E-02;  9.9579358E+02;  1.7235963E-01; -3.4491228E+03;3;  4.5418850E+01;  0.0000000E+00;  2.3580593E+01;0; -9.0309054E-02;  1.3653320E+04;  0.0000000E+00;  3.1124485E-01;  4.0000000E+04;  0.0000000E+00;  3.8996883E+04; -3.4701309E-01;  0.0000000E+00;  2.5670403E-01;  1.0136788E+04;
  1.6579516E+00;  9.9999998E-03;  1.9214100E-01;9137;  1.0750151E+00;  0.0000000E+00;  2.1390693E-02;  9.9823810E+02;  1.7215684E-01; -1.4445770E+03;3;  4.3933098E+01;  0.0000000E+00;  3.1950167E+01;0; -6.6579849E-02;  1.3747693E+04;  0.0000000E+00;  2.0857749E+00;  4.0000000E+04;  0.0000000E+00;  3.8970258E+04; -3.9977363E-01;  0.0000000E+00;  3.3319378E-01;  9.8251543E+03;
  1.6575631E+00;  9.9999998E-03;  1.5200655E-01;9133;  1.0562028E+00;  0.0000000E+00;  1.0778468E-02;  9.9497028E+02;  1.7231844E-01; -4.1240835E+03;3;  4.6518951E+01;  0.0000000E+00;  2.0907993E+01;0; -1.0414928E-01;  1.3640638E+04;  0.0000000E+00;  9.1991521E-02;  4.0000000E+04;  0.0000000E+00;  3.9006113E+04; -3.3255130E-01;  0.0000000E+00;  2.2840202E-01;  1.1326655E+04;
  1.6578546E+00;  9.9999998E-03;  1.4183998E-01;9132;  1.0522096E+00;  0.0000000E+00;  9.1361515E-03;  9.9431940E+02;  1.7224233E-01; -4.6575601E+03;3;  4.7555305E+01;  0.0000000E+00;  1.8726690E+01;0; -1.1869971E-01;  1.3637625E+04;  0.0000000E+00; -1.0165644E-01;  4.0000000E+04;  0.0000000E+00;  3.9012172E+04; -3.1912568E-01;  0.0000000E+00;  2.0042597E-01;  1.2205588E+04;
  1.6587378E+00;  9.9999998E-03;  2.0218533E-01;9138;  1.0809867E+00;  0.0000000E+00;  2.4788203E-02;  9.9838293E+02;  1.7197363E-01; -1.3256632E+03;3;  4.4342754E+01;  0.0000000E+00;  3.3556038E+01;0; -6.7132264E-02;  1.3779929E+04;  0.0000000E+00;  4.0768437E+00;  4.0000000E+04;  0.0000000E+00;  3.8975438E+04; -4.2117956E-01;  0.0000000E+00;  3.5404730E-01;  1.5773641E+04;
  1.6582125E+00;  9.9999998E-03;  1.3162109E-01;9131;  1.0484773E+00;  0.0000000E+00;  7.8097493E-03;  9.9386633E+02;  1.7214797E-01; -5.0287437E+03;3;  4.8957607E+01;  0.0000000E+00;  1.6530539E+01;0; -1.3263081E-01;  1.3643055E+04;  0.0000000E+00; -1.8596008E-01;  4.0000000E+04;  0.0000000E+00;  3.9015969E+04; -3.0654275E-01;  0.0000000E+00;  1.7391194E-01;  1.2780963E+04;
  1.6586279E+00;  9.9999998E-03;  1.2140318E-01;9130;  1.0449884E+00;  0.0000000E+00;  6.7394418E-03;  9.9361444E+02;  1.7203943E-01; -5.2349204E+03;3;  5.0438911E+01;  0.0000000E+00;  1.4690536E+01;0; -1.4487641E-01;  1.3655037E+04;  0.0000000E+00; -1.4332919E-01;  4.0000000E+04;  0.0000000E+00;  3.9018484E+04; -2.9469094E-01;  0.0000000E+00;  1.4981453E-01;  1.3127069E+04;
  1.6596676E+00;  9.9999998E-03;  2.1230154E-01;9139;  1.0877924E+00;  0.0000000E+00;  2.8342782E-02;  9.9763342E+02;  1.7179939E-01; -1.9398376E+03;3;  4.4995514E+01;  0.0000000E+00;  3.4375908E+01;0; -7.1265072E-02;  1.3790018E+04;  0.0000000E+00;  6.2386274E+00;  4.0000000E+04;  0.0000000E+00;  3.8987551E+04; -4.4367474E-01;  0.0000000E+00;  3.7240967E-01;  2.3950801E+04;
  1.6590742E+00;  9.9999998E-03;  1.1120494E-01;9129;  1.0417423E+00;  0.0000000E+00;  5.8647464E-03;  9.9351447E+02;  1.7192605E-01; -5.3164956E+03;3;  5.1975163E+01;  0.0000000E+00;  1.3043768E+01;0; -1.5489750E-01;  1.3670850E+04;  0.0000000E+00; -3.0917726E-02;  4.0000000E+04;  0.0000000E+00;  3.9019457E+04; -2.8360036E-01;  0.0000000E+00;  1.2870286E-01;  1.3333126E+04;
  1.6595234E+00;  9.9999998E-03;  1.0103557E-01;9128;  1.0387473E+00;  0.0000000E+00;  5.1191556E-03;  9.9347314E+02;  1.7180833E-01; -5.3499790E+03;3;  5.3400757E+01;  0.0000000E+00;  1.1736814E+01;0; -1.6264887E-01;  1.3687851E+04;  0.0000000E+00;  9.7708866E-02;  4.0000000E+04;  0.0000000E+00;  3.9020535E+04; -2.7341184E-01;  0.0000000E+00;  1.1076297E-01;  1.3488805E+04;
  1.6603788E+00;  9.9999998E-03;  2.3265170E-01;9141;  1.1047159E+00;  0.0000000E+00;  3.8289662E-02;  9.9368616E+02;  1.7185195E-01; -5.1747104E+03;3;  4.6061836E+01;  0.0000000E+00;  3.3408726E+01;0; -7.5035423E-02;  1.3690452E+04;  0.0000000E+00;  4.8358254E+00;  4.0000000E+04;  0.0000000E+00;  3.9021918E+04; -4.8152569E-01;  0.0000000E+00;  4.0649027E-01;  2.9776240E+04;
  1.6603695E+00;  9.9999998E-03;  2.2246805E-01;9140;  1.0956795E+00;  0.0000000E+00;  3.2681964E-02;  9.9587476E+02;  1.7172630E-01; -3.3809653E+03;3;  4.5656219E+01;  0.0000000E+00;  3.4761127E+01;0; -7.5747132E-02;  1.3761419E+04;  0.0000000E+00;  6.7696548E+00;  4.0000000E+04;  0.0000000E+00;  3.9003469E+04; -4.6495539E-01;  0.0000000E+00;  3.8920826E-01;  2.9503266E+04;
  1.6599171E+00;  9.9999998E-03;  9.0897813E-02;9127;  1.0360187E+00;  0.0000000E+00;  4.4725351E-03;  9.9344275E+02;  1.7170702E-01; -5.3745625E+03;3;  5.4938911E+01;  0.0000000E+00;  1.0321849E+01;0; -1.6837636E-01;  1.3701907E+04;  0.0000000E+00;  2.0654058E-01;  4.0000000E+04;  0.0000000E+00;  3.9021332E+04; -2.6438472E-01;  0.0000000E+00;  9.6008360E-02;  1.3657313E+04;
  1.6602240E+00;  9.9999998E-03;  8.0780193E-02;9126;  1.0335517E+00;  0.0000000E+00;  3.9164992E-03;  9.9336841E+02;  1.7162746E-01; -5.4352676E+03;3;  5.6459209E+01;  0.0000000E+00;  9.0922165E+00;0; -1.7253008E-01;  1.3710604E+04;  0.0000000E+00;  2.7347931E-01;  4.0000000E+04;  0.0000000E+00;  3.9022668E+04; -2.5671867E-01;  0.0000000E+00;  8.4188588E-02;  1.3873173E+04;
  1.6604406E+00;  9.9999998E-03;  7.0675068E-02;9125;  1.0313535E+00;  0.0000000E+00;  3.4079480E-03;  9.9323615E+02;  1.7156889E-01; -5.5434790E+03;3;  5.7883972E+01;  0.0000000E+00;  7.9698381E+00;0; -1.7557664E-01;  1.3714129E+04;  0.0000000E+00;  2.9317385E-01;  4.0000000E+04;  0.0000000E+00;  3.9024691E+04; -2.5048995E-01;  0.0000000E+00;  7.4913308E-02;  1.4156035E+04;
  1.6739142E+00;  9.9999998E-03;  1.8209274E-01;9194;  1.0629888E+00;  0.0000000E+00;  6.6721062E-03;  9.9783844E+02;  1.6409236E-01; -1.7673553E+03;3;  4.3135826E+01;  0.0000000E+00;  2.8387079E+01;0; -1.1962947E-01;  1.5135612E+04;  0.0000000E+00;  2.0471039E+00;  4.0000000E+04;  0.0000000E+00;  3.8938770E+04; -3.8963458E-01;  0.0000000E+00;  2.7000511E-01;  1.0136158E+04;
  1.6738158E+00;  9.9999998E-03;  1.7212379E-01;9193;  1.0584768E+00;  0.0000000E+00;  4.7042905E-03;  9.9703333E+02;  1.6412418E-01; -2.4257065E+03;3;  4.3383823E+01;  0.0000000E+00;  2.5304487E+01;0; -1.2449540E-01;  1.5106748E+04;  0.0000000E+00;  8.7199169E-01;  4.0000000E+04;  0.0000000E+00;  3.8946445E+04; -3.6365741E-01;  0.0000000E+00;  2.3916201E-01;  8.6433184E+03;
  1.6738904E+00;  9.9999998E-03;  1.6213983E-01;9192;  1.0543246E+00;  0.0000000E+00;  3.1116896E-03;  9.9608673E+02;  1.6412248E-01; -3.1996272E+03;3;  4.3927841E+01;  0.0000000E+00;  2.2692327E+01;0; -1.3144016E-01;  1.5079715E+04;  0.0000000E+00;  3.8949564E-01;  4.0000000E+04;  0.0000000E+00;  3.8958617E+04; -3.3882242E-01;  0.0000000E+00;  2.0738226E-01;  9.6182451E+03;
  1.6742443E+00;  9.9999998E-03;  1.9209310E-01;9195;  1.0679893E+00;  0.0000000E+00;  8.9633474E-03;  9.9828210E+02;  1.6401993E-01; -1.4045347E+03;3;  4.3480270E+01;  0.0000000E+00;  3.0886181E+01;0; -1.1799860E-01;  1.5160007E+04;  0.0000000E+00;  4.4738851E+00;  4.0000000E+04;  0.0000000E+00;  3.8942070E+04; -4.1689309E-01;  0.0000000E+00;  2.9889449E-01;  1.6529947E+04;
  1.6740530E+00;  9.9999998E-03;  1.5211631E-01;9191;  1.0504569E+00;  0.0000000E+00;  1.9238321E-03;  9.9513379E+02;  1.6409534E-01; -3.9786233E+03;3;  4.4710419E+01;  0.0000000E+00;  1.9996281E+01;0; -1.3913050E-01;  1.5057707E+04;  0.0000000E+00;  1.5006579E-01;  4.0000000E+04;  0.0000000E+00;  3.8970980E+04; -3.1501335E-01;  0.0000000E+00;  1.7588285E-01;  1.1036787E+04;
  1.6748172E+00;  9.9999998E-03;  2.0218401E-01;9196;  1.0736879E+00;  0.0000000E+00;  1.1792056E-02;  9.9801642E+02;  1.6392286E-01; -1.6215485E+03;3;  4.4131760E+01;  0.0000000E+00;  3.3004620E+01;0; -1.2009415E-01;  1.5168533E+04;  0.0000000E+00;  8.1745615E+00;  4.0000000E+04;  0.0000000E+00;  3.8955492E+04; -4.4531190E-01;  0.0000000E+00;  3.2521775E-01;  2.7647377E+04;
  1.6742558E+00;  9.9999998E-03;  1.4202529E-01;9190;  1.0468056E+00;  0.0000000E+00;  1.0910371E-03;  9.9429285E+02;  1.6405515E-01; -4.6660151E+03;3;  4.5736057E+01;  0.0000000E+00;  1.7928673E+01;0; -1.4633027E-01;  1.5042235E+04;  0.0000000E+00; -2.1581834E-02;  4.0000000E+04;  0.0000000E+00;  3.8979871E+04; -2.9215097E-01;  0.0000000E+00;  1.4582071E-01;  1.2210868E+04;
  1.6744764E+00;  9.9999998E-03;  1.3185520E-01;9189;  1.0433490E+00;  0.0000000E+00;  5.3185341E-04;  9.9362561E+02;  1.6400898E-01; -5.2113369E+03;3;  4.7027584E+01;  0.0000000E+00;  1.5911762E+01;0; -1.5199175E-01;  1.5033861E+04;  0.0000000E+00; -1.2211672E-01;  4.0000000E+04;  0.0000000E+00;  3.8985441E+04; -2.7020788E-01;  0.0000000E+00;  1.1821613E-01;  1.2991477E+04;
  1.6747270E+00;  9.9999998E-03;  1.2164022E-01;9188;  1.0400773E+00;  0.0000000E+00;  1.7433958E-04;  9.9317377E+02;  1.6395518E-01; -5.5804302E+03;3;  4.8341946E+01;  0.0000000E+00;  1.4282380E+01;0; -1.5540381E-01;  1.5032726E+04;  0.0000000E+00; -1.2139536E-01;  4.0000000E+04;  0.0000000E+00;  3.8988211E+04; -2.4918412E-01;  0.0000000E+00;  9.3780309E-02;  1.3426642E+04;
  1.6750467E+00;  9.9999998E-03;  1.1141750E-01;9187;  1.0369998E+00;  0.0000000E+00; -6.9154754E-05;  9.9292358E+02;  1.6388744E-01; -5.7846216E+03;3;  4.9827919E+01;  0.0000000E+00;  1.2853675E+01;0; -1.5630206E-01;  1.5039660E+04;  0.0000000E+00; -4.7906939E-02;  4.0000000E+04;  0.0000000E+00;  3.8989273E+04; -2.2903043E-01;  0.0000000E+00;  7.2728358E-02;  1.3613297E+04;
  1.6754112E+00;  9.9999998E-03;  1.0121420E-01;9186;  1.0341104E+00;  0.0000000E+00; -2.2253931E-04;  9.9280945E+02;  1.6380708E-01; -5.8774556E+03;3;  5.1403164E+01;  0.0000000E+00;  1.1644967E+01;0; -1.5492615E-01;  1.5051745E+04;  0.0000000E+00;  4.4582795E-02;  4.0000000E+04;  0.0000000E+00;  3.8988766E+04; -2.0999977E-01;  0.0000000E+00;  5.5073615E-02;  1.3654091E+04;
  1.6755140E+00;  9.9999998E-03;  2.1236897E-01;9197;  1.0802076E+00;  0.0000000E+00;  1.5173332E-02;  9.9660968E+02;  1.6384175E-01; -2.7711470E+03;3;  4.5329575E+01;  0.0000000E+00;  3.4276657E+01;0; -1.2546030E-01;  1.5146224E+04;  0.0000000E+00;  1.1704052E+01;  4.0000000E+04;  0.0000000E+00;  3.8971031E+04; -4.7393325E-01;  0.0000000E+00;  3.4847295E-01;  3.9881430E+04;
  1.6757158E+00;  9.9999998E-03;  2.3278232E-01;9199;  1.0967388E+00;  0.0000000E+00;  2.5765341E-02;  9.9168292E+02;  1.6403168E-01; -6.7978550E+03;3;  4.7357758E+01;  0.0000000E+00;  3.4301289E+01;0; -1.2809929E-01;  1.4983747E+04;  0.0000000E+00;  1.0965292E+01;  4.0000000E+04;  0.0000000E+00;  3.9009109E+04; -5.2039510E-01;  0.0000000E+00;  3.9229581E-01;  4.9374363E+04;
  1.6757760E+00;  9.9999998E-03;  9.1035992E-02;9185;  1.0314332E+00;  0.0000000E+00; -3.1468732E-04;  9.9277570E+02;  1.6372806E-01; -5.9046519E+03;3;  5.3027699E+01;  0.0000000E+00;  1.0547860E+01;0; -1.5188485E-01;  1.5065000E+04;  0.0000000E+00;  1.2854496E-01;  4.0000000E+04;  0.0000000E+00;  3.8988051E+04; -1.9248402E-01;  0.0000000E+00;  4.0599164E-02;  1.3639812E+04;
  1.6759605E+00;  9.9999998E-03;  2.2257739E-01;9198;  1.0878315E+00;  0.0000000E+00;  1.9615950E-02;  9.9419788E+02;  1.6385444E-01; -4.7420493E+03;3;  4.6415638E+01;  0.0000000E+00;  3.5145496E+01;0; -1.3069063E-01;  1.5081732E+04;  0.0000000E+00;  1.2706625E+01;  4.0000000E+04;  0.0000000E+00;  3.8988930E+04; -5.0016499E-01;  0.0000000E+00;  3.6947435E-01;  4.7607234E+04;
  1.6761067E+00;  9.9999998E-03;  8.0884330E-02;9184;  1.0289931E+00;  0.0000000E+00; -3.6616309E-04;  9.9276257E+02;  1.6365509E-01; -5.9149790E+03;3;  5.4809139E+01;  0.0000000E+00;  9.3928499E+00;0; -1.4791934E-01;  1.5076442E+04;  0.0000000E+00;  1.8722452E-01;  4.0000000E+04;  0.0000000E+00;  3.8987262E+04; -1.7686594E-01;  0.0000000E+00;  2.8946588E-02;  1.3636893E+04;
  1.6763767E+00;  9.9999998E-03;  7.0752926E-02;9183;  1.0267907E+00;  0.0000000E+00; -3.7268837E-04;  9.9272827E+02;  1.6359676E-01; -5.9426675E+03;3;  5.6471703E+01;  0.0000000E+00;  8.2393990E+00;0; -1.4373825E-01;  1.5084427E+04;  0.0000000E+00;  2.1226572E-01;  4.0000000E+04;  0.0000000E+00;  3.8987312E+04; -1.6347283E-01;  0.0000000E+00;  1.9734571E-02;  1.3686341E+04;
  1.6895373E+00;  9.9999998E-03;  1.8200223E-01;9251;  1.0566845E+00;  0.0000000E+00; -3.0899309E-03;  9.9800476E+02;  1.5720895E-01; -1.6258575E+03;3;  4.1947414E+01;  0.0000000E+00;  2.5948051E+01;0; -1.5417330E-01;  1.6517229E+04;  0.0000000E+00;  4.6329093E+00;  4.0000000E+04;  0.0000000E+00;  3.8896652E+04; -3.8804844E-01;  0.0000000E+00;  2.3387514E-01;  1.6274358E+04;
  1.6895605E+00;  9.9999998E-03;  1.7204593E-01;9250;  1.0525832E+00;  0.0000000E+00; -4.2069983E-03;  9.9737128E+02;  1.5720822E-01; -2.1420400E+03;3;  4.1780132E+01;  0.0000000E+00;  2.3563173E+01;0; -1.5227243E-01;  1.6499697E+04;  0.0000000E+00;  2.1137564E+00;  4.0000000E+04;  0.0000000E+00;  3.8894684E+04; -3.5201183E-01;  0.0000000E+00;  1.9973940E-01;  1.0133364E+04;
  1.6896771E+00;  9.9999998E-03;  1.6211042E-01;9249;  1.0488634E+00;  0.0000000E+00; -4.9607367E-03;  9.9651288E+02;  1.5719566E-01; -2.8414021E+03;3;  4.2081524E+01;  0.0000000E+00;  2.1559128E+01;0; -1.5091221E-01;  1.6474623E+04;  0.0000000E+00;  9.2164785E-01;  4.0000000E+04;  0.0000000E+00;  3.8904445E+04; -3.1619069E-01;  0.0000000E+00;  1.6527848E-01;  8.8326670E+03;
  1.6896874E+00;  9.9999998E-03;  1.9205147E-01;9252;  1.0613008E+00;  0.0000000E+00; -1.4568747E-03;  9.9815582E+02;  1.5719032E-01; -1.5026797E+03;3;  4.2668198E+01;  0.0000000E+00;  2.8971100E+01;0; -1.5803167E-01;  1.6520121E+04;  0.0000000E+00;  9.0232506E+00;  4.0000000E+04;  0.0000000E+00;  3.8911680E+04; -4.2439690E-01;  0.0000000E+00;  2.6636523E-01;  2.8051361E+04;
  1.6898283E+00;  9.9999998E-03;  1.5215059E-01;9248;  1.0454141E+00;  0.0000000E+00; -5.4380381E-03;  9.9555042E+02;  1.5717579E-01; -3.6255398E+03;3;  4.2679142E+01;  0.0000000E+00;  1.9819935E+01;0; -1.4881121E-01;  1.6447123E+04;  0.0000000E+00;  4.0154359E-01;  4.0000000E+04;  0.0000000E+00;  3.8918355E+04; -2.8060329E-01;  0.0000000E+00;  1.3179208E-01;  9.8838232E+03;
  1.6899711E+00;  9.9999998E-03;  1.4213896E-01;9247;  1.0421466E+00;  0.0000000E+00; -5.6448942E-03;  9.9460541E+02;  1.5715584E-01; -4.3953501E+03;3;  4.3653938E+01;  0.0000000E+00;  1.8284456E+01;0; -1.4498223E-01;  1.6420963E+04;  0.0000000E+00;  1.4686015E-01;  4.0000000E+04;  0.0000000E+00;  3.8930777E+04; -2.4541856E-01;  0.0000000E+00;  1.0043633E-01;  1.1319183E+04;
  1.6901022E+00;  9.9999998E-03;  1.3204800E-01;9246;  1.0390095E+00;  0.0000000E+00; -5.6420891E-03;  9.9377069E+02;  1.5713693E-01; -5.0752803E+03;3;  4.4760822E+01;  0.0000000E+00;  1.7058533E+01;0; -1.3875462E-01;  1.6399334E+04;  0.0000000E+00;  5.0770273E-03;  4.0000000E+04;  0.0000000E+00;  3.8939957E+04; -2.1078493E-01;  0.0000000E+00;  7.2030306E-02;  1.2459006E+04;
  1.6900860E+00;  9.9999998E-03;  2.0224400E-01;9253;  1.0665629E+00;  0.0000000E+00;  9.1185042E-04;  9.9732349E+02;  1.5716301E-01; -2.1806648E+03;3;  4.3699085E+01;  0.0000000E+00;  3.1442255E+01;0; -1.6482064E-01;  1.6497934E+04;  0.0000000E+00;  1.4721809E+01;  4.0000000E+04;  0.0000000E+00;  3.8930809E+04; -4.6091273E-01;  0.0000000E+00;  2.9609209E-01;  4.3919316E+04;
  1.6902508E+00;  9.9999998E-03;  1.2187465E-01;9245;  1.0359906E+00;  0.0000000E+00; -5.5033830E-03;  9.9310358E+02;  1.5711260E-01; -5.6186377E+03;3;  4.6176254E+01;  0.0000000E+00;  1.5763053E+01;0; -1.2977313E-01;  1.6385361E+04;  0.0000000E+00; -4.8830651E-02;  4.0000000E+04;  0.0000000E+00;  3.8945180E+04; -1.7683576E-01;  0.0000000E+00;  4.7062639E-02;  1.3173296E+04;
  1.6904488E+00;  9.9999998E-03;  1.1165437E-01;9244;  1.0330791E+00;  0.0000000E+00; -5.2591003E-03;  9.9265680E+02;  1.5707883E-01; -5.9823105E+03;3;  4.7740932E+01;  0.0000000E+00;  1.4644025E+01;0; -1.1809058E-01;  1.6380306E+04;  0.0000000E+00; -3.0291028E-02;  4.0000000E+04;  0.0000000E+00;  3.8947359E+04; -1.4381623E-01;  0.0000000E+00;  2.5725644E-02;  1.3522108E+04;
  1.6904036E+00;  9.9999998E-03;  2.3296909E-01;9256;  1.0886110E+00;  0.0000000E+00;  1.4880195E-02;  9.8954840E+02;  1.5743273E-01; -8.5147793E+03;3;  4.8389271E+01;  0.0000000E+00;  3.4453922E+01;0; -1.7918482E-01;  1.6219149E+04;  0.0000000E+00;  1.7406612E+01;  4.0000000E+04;  0.0000000E+00;  3.8984871E+04; -5.5115426E-01;  0.0000000E+00;  3.7196943E-01;  6.6889578E+04;
  1.6907018E+00;  9.9999998E-03;  1.0142901E-01;9243;  1.0303255E+00;  0.0000000E+00; -4.9718199E-03;  9.9240308E+02;  1.5703560E-01; -6.1886392E+03;3;  4.9676594E+01;  0.0000000E+00;  1.3291158E+01;0; -1.0428470E-01;  1.6382781E+04;  0.0000000E+00;  1.7505977E-02;  4.0000000E+04;  0.0000000E+00;  3.8947121E+04; -1.1216007E-01;  0.0000000E+00;  7.8753671E-03;  1.3606587E+04;
  1.6906300E+00;  9.9999998E-03;  2.1250746E-01;9254;  1.0727091E+00;  0.0000000E+00;  4.0787254E-03;  9.9513092E+02;  1.5715475E-01; -3.9665674E+03;3;  4.5325417E+01;  0.0000000E+00;  3.3592743E+01;0; -1.7419624E-01;  1.6437326E+04;  0.0000000E+00;  1.9133533E+01;  4.0000000E+04;  0.0000000E+00;  3.8945016E+04; -4.9626204E-01;  0.0000000E+00;  3.2206580E-01;  5.8451316E+04;
  1.6909937E+00;  9.9999998E-03;  9.1220848E-02;9242;  1.0277483E+00;  0.0000000E+00; -4.6401289E-03;  9.9230487E+02;  1.5698509E-01; -6.2682070E+03;3;  5.1848648E+01;  0.0000000E+00;  1.1874571E+01;0; -8.9286014E-02;  1.6390641E+04;  0.0000000E+00;  5.9501816E-02;  4.0000000E+04;  0.0000000E+00;  3.8945719E+04; -8.2430914E-02;  0.0000000E+00; -6.8550981E-03;  1.3526976E+04;
  1.6908690E+00;  9.9999998E-03;  2.2274747E-01;9255;  1.0799758E+00;  0.0000000E+00;  8.5331555E-03;  9.9214142E+02;  1.5723059E-01; -6.4015327E+03;3;  4.6828693E+01;  0.0000000E+00;  3.4925880E+01;0; -1.8199718E-01;  1.6336137E+04;  0.0000000E+00;  1.9684334E+01;  4.0000000E+04;  0.0000000E+00;  3.8964469E+04; -5.2756149E-01;  0.0000000E+00;  3.4556431E-01;  6.5852141E+04;
  1.6912984E+00;  9.9999998E-03;  8.1035793E-02;9241;  1.0253558E+00;  0.0000000E+00; -4.2589121E-03;  9.9227557E+02;  1.5693074E-01; -6.2915698E+03;3;  5.3916130E+01;  0.0000000E+00;  1.0582584E+01;0; -7.4119754E-02;  1.6401000E+04;  0.0000000E+00;  8.9243069E-02;  4.0000000E+04;  0.0000000E+00;  3.8943410E+04; -5.5215888E-02;  0.0000000E+00; -1.8903868E-02;  1.3371470E+04;
  1.6915878E+00;  9.9999998E-03;  7.0872620E-02;9240;  1.0231627E+00;  0.0000000E+00; -3.8310969E-03;  9.9229572E+02;  1.5688141E-01; -6.2747085E+03;3;  5.5608486E+01;  0.0000000E+00;  9.3967743E+00;0; -5.9748400E-02;  1.6411238E+04;  0.0000000E+00;  1.0432638E-01;  4.0000000E+04;  0.0000000E+00;  3.8941168E+04; -3.1082746E-02;  0.0000000E+00; -2.8665654E-02;  1.3205959E+04;
  1.7043412E+00;  9.9999998E-03;  1.8192822E-01;9308;  1.0509135E+00;  0.0000000E+00; -1.0975339E-02;  9.9798169E+02;  1.5145245E-01; -1.6380979E+03;3;  4.0545223E+01;  0.0000000E+00;  2.5191111E+01;0; -1.7415561E-01;  1.7822660E+04;  0.0000000E+00;  9.5236597E+00;  4.0000000E+04;  0.0000000E+00;  3.8851941E+04; -3.7536281E-01;  0.0000000E+00;  2.0120721E-01;  2.7079051E+04;
  1.7043529E+00;  9.9999998E-03;  1.9209787E-01;9309;  1.0550065E+00;  0.0000000E+00; -9.7216154E-03;  9.9771222E+02;  1.5147729E-01; -1.8567981E+03;3;  4.1578636E+01;  0.0000000E+00;  2.7181963E+01;0; -1.8694197E-01;  1.7799389E+04;  0.0000000E+00;  1.6439032E+01;  4.0000000E+04;  0.0000000E+00;  3.8877031E+04; -4.2250741E-01;  0.0000000E+00;  2.3556544E-01;  4.4066520E+04;
  1.7045385E+00;  9.9999998E-03;  1.7192513E-01;9307;  1.0473019E+00;  0.0000000E+00; -1.1673180E-02;  9.9755493E+02;  1.5141617E-01; -1.9843022E+03;3;  4.0108448E+01;  0.0000000E+00;  2.3817181E+01;0; -1.6182227E-01;  1.7824301E+04;  0.0000000E+00;  4.8963504E+00;  4.0000000E+04;  0.0000000E+00;  3.8836051E+04; -3.2721990E-01;  0.0000000E+00;  1.6539763E-01;  1.5648035E+04;
  1.7047853E+00;  9.9999998E-03;  1.6200444E-01;9306;  1.0440609E+00;  0.0000000E+00; -1.1989197E-02;  9.9684888E+02;  1.5138160E-01; -2.5571375E+03;3;  4.0099308E+01;  0.0000000E+00;  2.2504820E+01;0; -1.4826672E-01;  1.7810543E+04;  0.0000000E+00;  2.3462996E+00;  4.0000000E+04;  0.0000000E+00;  3.8836180E+04; -2.7799273E-01;  0.0000000E+00;  1.2972601E-01;  9.7784199E+03;
  1.7044853E+00;  9.9999998E-03;  2.3321824E-01;9313;  1.0805998E+00;  0.0000000E+00;  5.6882226E-03;  9.8747028E+02;  1.5184967E-01; -1.0168810E+04;3;  4.9222473E+01;  0.0000000E+00;  3.4270672E+01;0; -2.2811025E-01;  1.7390756E+04;  0.0000000E+00;  2.3402887E+01;  4.0000000E+04;  0.0000000E+00;  3.8944113E+04; -5.7388502E-01;  0.0000000E+00;  3.4577477E-01;  8.0582352E+04;
  1.7047149E+00;  9.9999998E-03;  2.0241921E-01;9310;  1.0597215E+00;  0.0000000E+00; -7.9219267E-03;  9.9606995E+02;  1.5149024E-01; -3.1892942E+03;3;  4.2962349E+01;  0.0000000E+00;  2.9397268E+01;0; -2.0203131E-01;  1.7742812E+04;  0.0000000E+00;  2.3721983E+01;  4.0000000E+04;  0.0000000E+00;  3.8892691E+04; -4.6828377E-01;  0.0000000E+00;  2.6625246E-01;  6.3046023E+04;
  1.7050034E+00;  9.9999998E-03;  1.5209334E-01;9305;  1.0410600E+00;  0.0000000E+00; -1.2032945E-02;  9.9599365E+02;  1.5135309E-01; -3.2509255E+03;3;  4.0447346E+01;  0.0000000E+00;  2.1259319E+01;0; -1.3228887E-01;  1.7786168E+04;  0.0000000E+00;  1.0899559E+00;  4.0000000E+04;  0.0000000E+00;  3.8846953E+04; -2.2774750E-01;  0.0000000E+00;  9.5458619E-02;  8.4740479E+03;
  1.7051665E+00;  9.9999998E-03;  1.4214683E-01;9304;  1.0382122E+00;  0.0000000E+00; -1.1855349E-02;  9.9506244E+02;  1.5133253E-01; -4.0063999E+03;3;  4.1266212E+01;  0.0000000E+00;  2.0016623E+01;0; -1.1319546E-01;  1.7756377E+04;  0.0000000E+00;  4.9317667E-01;  4.0000000E+04;  0.0000000E+00;  3.8861520E+04; -1.7675586E-01;  0.0000000E+00;  6.3560404E-02;  9.5119912E+03;
  1.7052666E+00;  9.9999998E-03;  1.3213493E-01;9303;  1.0354261E+00;  0.0000000E+00; -1.1471058E-02;  9.9414874E+02;  1.5132217E-01; -4.7476235E+03;3;  4.2575874E+01;  0.0000000E+00;  1.8689272E+01;0; -9.0805158E-02;  1.7725648E+04;  0.0000000E+00;  1.9860172E-01;  4.0000000E+04;  0.0000000E+00;  3.8875102E+04; -1.2552589E-01;  0.0000000E+00;  3.4720730E-02;  1.0951613E+04;
  1.7053357E+00;  9.9999998E-03;  1.2203541E-01;9302;  1.0326804E+00;  0.0000000E+00; -1.0933618E-02;  9.9332880E+02;  1.5131570E-01; -5.4127808E+03;3;  4.4277840E+01;  0.0000000E+00;  1.7383377E+01;0; -6.5265216E-02;  1.7698799E+04;  0.0000000E+00;  5.2160278E-02;  4.0000000E+04;  0.0000000E+00;  3.8884785E+04; -7.4570023E-02;  0.0000000E+00;  9.3048038E-03;  1.2090694E+04;
  1.7054132E+00;  9.9999998E-03;  1.1185914E-01;9301;  1.0299826E+00;  0.0000000E+00; -1.0290513E-02;  9.9269452E+02;  1.5131049E-01; -5.9273013E+03;3;  4.6397724E+01;  0.0000000E+00;  1.6056021E+01;0; -3.7132427E-02;  1.7679121E+04;  0.0000000E+00; -2.4493942E-03;  4.0000000E+04;  0.0000000E+00;  3.8890180E+04; -2.4567539E-02;  0.0000000E+00; -1.2564888E-02;  1.2798265E+04;
  1.7055321E+00;  9.9999998E-03;  1.0164539E-01;9300;  1.0273569E+00;  0.0000000E+00; -9.5806662E-03;  9.9225409E+02;  1.5129873E-01; -6.2844067E+03;3;  4.8737343E+01;  0.0000000E+00;  1.4626115E+01;0; -7.3850118E-03;  1.7668283E+04;  0.0000000E+00; -5.0094817E-03;  4.0000000E+04;  0.0000000E+00;  3.8892453E+04;  2.3682620E-02;  0.0000000E+00; -3.1067632E-02;  1.3124656E+04;
  1.7051799E+00;  9.9999998E-03;  2.1273288E-01;9311;  1.0653667E+00;  0.0000000E+00; -5.1549585E-03;  9.9302655E+02;  1.5152650E-01; -5.6582871E+03;3;  4.5040005E+01;  0.0000000E+00;  3.1967558E+01;0; -2.1855935E-01;  1.7641559E+04;  0.0000000E+00;  2.7534449E+01;  4.0000000E+04;  0.0000000E+00;  3.8904863E+04; -5.1087743E-01;  0.0000000E+00;  2.9231808E-01;  7.6694680E+04;
  1.7057146E+00;  9.9999998E-03;  9.1424093E-02;9299;  1.0248382E+00;  0.0000000E+00; -8.8281790E-03;  9.9203485E+02;  1.5127903E-01; -6.4619097E+03;3;  5.1130543E+01;  0.0000000E+00;  1.3171424E+01;0;  2.2850499E-02;  1.7666260E+04;  0.0000000E+00;  3.6247207E-03;  4.0000000E+04;  0.0000000E+00;  3.8891895E+04;  6.9479525E-02;  0.0000000E+00; -4.6629027E-02;  1.3157481E+04;
  1.7051792E+00;  9.9999998E-03;  2.2298807E-01;9312;  1.0722535E+00;  0.0000000E+00; -7.6835608E-04;  9.8972144E+02;  1.5164311E-01; -8.3400928E+03;3;  4.7154182E+01;  0.0000000E+00;  3.3951679E+01;0; -2.3073551E-01;  1.7510814E+04;  0.0000000E+00;  2.6550316E+01;  4.0000000E+04;  0.0000000E+00;  3.8926223E+04; -5.4730928E-01;  0.0000000E+00;  3.1657377E-01;  8.1549867E+04;
  1.7059480E+00;  9.9999998E-03;  8.1212513E-02;9298;  1.0224519E+00;  0.0000000E+00; -8.0249738E-03;  9.9194830E+02;  1.5125033E-01; -6.5316567E+03;3;  5.2980900E+01;  0.0000000E+00;  1.1816719E+01;0;  5.2299906E-02;  1.7671064E+04;  0.0000000E+00;  4.3283883E-03;  4.0000000E+04;  0.0000000E+00;  3.8889492E+04;  1.1197433E-01;  0.0000000E+00; -5.9674423E-02;  1.2989187E+04;
  1.7062110E+00;  9.9999998E-03;  7.1017966E-02;9297;  1.0202552E+00;  0.0000000E+00; -7.1708243E-03;  9.9196924E+02;  1.5121755E-01; -6.5141597E+03;3;  5.4663902E+01;  0.0000000E+00;  1.0514563E+01;0;  7.9817280E-02;  1.7680078E+04;  0.0000000E+00;  1.6204902E-03;  4.0000000E+04;  0.0000000E+00;  3.8886168E+04;  1.5038259E-01;  0.0000000E+00; -7.0565313E-02;  1.2705564E+04;
  1.7180177E+00;  9.9999998E-03;  2.3352215E-01;9369;  1.0727462E+00;  0.0000000E+00; -1.4496803E-03;  9.8586792E+02;  1.4712052E-01; -1.1418154E+04;3;  4.9920330E+01;  0.0000000E+00;  3.3543938E+01;0; -2.7050906E-01;  1.8502811E+04;  0.0000000E+00;  2.8401321E+01;  4.0000000E+04;  0.0000000E+00;  3.8885812E+04; -5.8828753E-01;  0.0000000E+00;  3.1777847E-01;  8.9066000E+04;
  1.7184956E+00;  9.9999998E-03;  1.9229208E-01;9365;  1.0490273E+00;  0.0000000E+00; -1.6442029E-02;  9.9671417E+02;  1.4667282E-01; -2.6543538E+03;3;  4.0616798E+01;  0.0000000E+00;  2.7066017E+01;0; -2.0695698E-01;  1.8981893E+04;  0.0000000E+00;  2.6722460E+01;  4.0000000E+04;  0.0000000E+00;  3.8831438E+04; -4.1161922E-01;  0.0000000E+00;  2.0466223E-01;  6.3087473E+04;
  1.7184900E+00;  9.9999998E-03;  1.8194996E-01;9364;  1.0455344E+00;  0.0000000E+00; -1.7606530E-02;  9.9766058E+02;  1.4662528E-01; -1.8898351E+03;3;  3.9166340E+01;  0.0000000E+00;  2.5572433E+01;0; -1.8161085E-01;  1.9034555E+04;  0.0000000E+00;  1.7407003E+01;  4.0000000E+04;  0.0000000E+00;  3.8806992E+04; -3.5204437E-01;  0.0000000E+00;  1.7043352E-01;  4.2123785E+04;
  1.7189181E+00;  9.9999998E-03;  2.2329058E-01;9368;  1.0646791E+00;  0.0000000E+00; -8.1148911E-03;  9.8727203E+02;  1.4692922E-01; -1.0280320E+04;3;  4.7251274E+01;  0.0000000E+00;  3.2349976E+01;0; -2.7559939E-01;  1.8601578E+04;  0.0000000E+00;  3.2518051E+01;  4.0000000E+04;  0.0000000E+00;  3.8873672E+04; -5.5930209E-01;  0.0000000E+00;  2.8370270E-01;  9.2980039E+04;
  1.7189111E+00;  9.9999998E-03;  2.0270678E-01;9366;  1.0531318E+00;  0.0000000E+00; -1.4970408E-02;  9.9402991E+02;  1.4671335E-01; -4.8220479E+03;3;  4.2306164E+01;  0.0000000E+00;  2.8015015E+01;0; -2.3317342E-01;  1.8884637E+04;  0.0000000E+00;  3.3894997E+01;  4.0000000E+04;  0.0000000E+00;  3.8838379E+04; -4.6741924E-01;  0.0000000E+00;  2.3424582E-01;  8.1777602E+04;
  1.7188473E+00;  9.9999998E-03;  1.7182171E-01;9363;  1.0425160E+00;  0.0000000E+00; -1.8207757E-02;  9.9749463E+02;  1.4656140E-01; -2.0236205E+03;3;  3.8333141E+01;  0.0000000E+00;  2.4540903E+01;0; -1.5477812E-01;  1.9059498E+04;  0.0000000E+00;  9.9370298E+00;  4.0000000E+04;  0.0000000E+00;  3.8776051E+04; -2.8953183E-01;  0.0000000E+00;  1.3475370E-01;  2.5524234E+04;
  1.7192137E+00;  9.9999998E-03;  2.1303111E-01;9367;  1.0582348E+00;  0.0000000E+00; -1.2444814E-02;  9.9037195E+02;  1.4678587E-01; -7.7756885E+03;3;  4.4725685E+01;  0.0000000E+00;  3.0238388E+01;0; -2.5852153E-01;  1.8744691E+04;  0.0000000E+00;  3.5420765E+01;  4.0000000E+04;  0.0000000E+00;  3.8852344E+04; -5.1760542E-01;  0.0000000E+00;  2.5908390E-01;  9.1597539E+04;
  1.7192820E+00;  9.9999998E-03;  1.6185535E-01;9362;  1.0398347E+00;  0.0000000E+00; -1.8332578E-02;  9.9695087E+02;  1.4649954E-01; -2.4624417E+03;3;  3.7987907E+01;  0.0000000E+00;  2.3517023E+01;0; -1.2473071E-01;  1.9064188E+04;  0.0000000E+00;  5.2442517E+00;  4.0000000E+04;  0.0000000E+00;  3.8759812E+04; -2.2425762E-01;  0.0000000E+00;  9.9526912E-02;  1.4786072E+04;
  1.7196405E+00;  9.9999998E-03;  1.5195419E-01;9361;  1.0373584E+00;  0.0000000E+00; -1.8113274E-02;  9.9625385E+02;  1.4645395E-01; -3.0249426E+03;3;  3.8137455E+01;  0.0000000E+00;  2.2385639E+01;0; -9.0476453E-02;  1.9051699E+04;  0.0000000E+00;  2.6255395E+00;  4.0000000E+04;  0.0000000E+00;  3.8760742E+04; -1.5634771E-01;  0.0000000E+00;  6.5871254E-02;  9.0742529E+03;
  1.7198831E+00;  9.9999998E-03;  1.4205204E-01;9360;  1.0349519E+00;  0.0000000E+00; -1.7625274E-02;  9.9544299E+02;  1.4642480E-01; -3.6793660E+03;3;  3.8864788E+01;  0.0000000E+00;  2.1270872E+01;0; -5.1701505E-02;  1.9026107E+04;  0.0000000E+00;  1.2548726E+00;  4.0000000E+04;  0.0000000E+00;  3.8772613E+04; -8.6201958E-02;  0.0000000E+00;  3.4500454E-02;  7.6048018E+03;
  1.7200047E+00;  9.9999998E-03;  1.3210472E-01;9359;  1.0325522E+00;  0.0000000E+00; -1.6921179E-02;  9.9459265E+02;  1.4641599E-01; -4.3657227E+03;3;  4.0207264E+01;  0.0000000E+00;  2.0069677E+01;0; -8.7571042E-03;  1.8992689E+04;  0.0000000E+00;  5.5892634E-01;  4.0000000E+04;  0.0000000E+00;  3.8788594E+04; -1.4645744E-02;  0.0000000E+00;  5.8886399E-03;  8.5806289E+03;
  1.7200358E+00;  9.9999998E-03;  1.2208350E-01;9358;  1.0301027E+00;  0.0000000E+00; -1.6053557E-02;  9.9372467E+02;  1.4641587E-01; -5.0664805E+03;3;  4.2320484E+01;  0.0000000E+00;  1.8587614E+01;0;  3.7542216E-02;  1.8957053E+04;  0.0000000E+00;  2.0930861E-01;  4.0000000E+04;  0.0000000E+00;  3.8803051E+04;  5.7241037E-02;  0.0000000E+00; -1.9698821E-02;  1.0035100E+04;
  1.7200283E+00;  9.9999998E-03;  1.1198166E-01;9357;  1.0275848E+00;  0.0000000E+00; -1.5053155E-02;  9.9296674E+02;  1.4642519E-01; -5.6784224E+03;3;  4.4826027E+01;  0.0000000E+00;  1.7351337E+01;0;  8.6046055E-02;  1.8924920E+04;  0.0000000E+00;  4.2807203E-02;  4.0000000E+04;  0.0000000E+00;  3.8813957E+04;  1.2825838E-01;  0.0000000E+00; -4.2212326E-02;  1.1210268E+04;
  1.7200296E+00;  9.9999998E-03;  1.0181192E-01;9356;  1.0250425E+00;  0.0000000E+00; -1.3961948E-02;  9.9238538E+02;  1.4643721E-01; -6.1477588E+03;3;  4.7461033E+01;  0.0000000E+00;  1.6141428E+01;0;  1.3528790E-01;  1.8900264E+04;  0.0000000E+00; -2.4230290E-02;  4.0000000E+04;  0.0000000E+00;  3.8820320E+04;  1.9707930E-01;  0.0000000E+00; -6.1791401E-02;  1.1953785E+04;
  1.7200835E+00;  9.9999998E-03;  9.1602288E-02;9355;  1.0225486E+00;  0.0000000E+00; -1.2815204E-02;  9.9199622E+02;  1.4644018E-01; -6.4618218E+03;3;  4.9971466E+01;  0.0000000E+00;  1.4721207E+01;0;  1.8377972E-01;  1.8885533E+04;  0.0000000E+00; -4.4544108E-02;  4.0000000E+04;  0.0000000E+00;  3.8822766E+04;  2.6250875E-01;  0.0000000E+00; -7.8729033E-02;  1.2290720E+04;
  1.7202079E+00;  9.9999998E-03;  8.1380181E-02;9354;  1.0201566E+00;  0.0000000E+00; -1.1625354E-02;  9.9179846E+02;  1.4643532E-01; -6.6211821E+03;3;  5.1848190E+01;  0.0000000E+00;  1.3099782E+01;0;  2.3011893E-01;  1.8880645E+04;  0.0000000E+00; -5.3709161E-02;  4.0000000E+04;  0.0000000E+00;  3.8822398E+04;  3.2346570E-01;  0.0000000E+00; -9.3346767E-02;  1.2293260E+04;
  1.7203977E+00;  9.9999998E-03;  7.1163304E-02;9353;  1.0179610E+00;  0.0000000E+00; -1.0363128E-02;  9.9175635E+02;  1.4642207E-01; -6.6547310E+03;3;  5.3556301E+01;  0.0000000E+00;  1.1651462E+01;0;  2.7309752E-01;  1.8883941E+04;  0.0000000E+00; -6.3086897E-02;  4.0000000E+04;  0.0000000E+00;  3.8819230E+04;  3.7900239E-01;  0.0000000E+00; -1.0590486E-01;  1.2051358E+04;
  1.7310581E+00;  9.9999998E-03;  2.3387839E-01;9424;  1.0650035E+00;  0.0000000E+00; -7.3473342E-03;  9.8523877E+02;  1.4309977E-01; -1.1864952E+04;3;  5.0577595E+01;  0.0000000E+00;  3.2171318E+01;0; -3.1089208E-01;  1.9574439E+04;  0.0000000E+00;  3.1979990E+01;  4.0000000E+04;  0.0000000E+00;  3.8805285E+04; -5.9409243E-01;  0.0000000E+00;  2.8320035E-01;  9.1307828E+04;
  1.7321490E+00;  9.9999998E-03;  1.8216962E-01;9419;  1.0404770E+00;  0.0000000E+00; -2.3104362E-02;  9.9686993E+02;  1.4257929E-01; -2.5147371E+03;3;  3.7656525E+01;  0.0000000E+00;  2.5936674E+01;0; -1.7966154E-01;  2.0139719E+04;  0.0000000E+00;  2.8592905E+01;  4.0000000E+04;  0.0000000E+00;  3.8751801E+04; -3.1941497E-01;  0.0000000E+00;  1.3975343E-01;  6.0273070E+04;
  1.7321159E+00;  9.9999998E-03;  2.2365397E-01;9423;  1.0573494E+00;  0.0000000E+00; -1.3745721E-02;  9.8529279E+02;  1.4294440E-01; -1.1816094E+04;3;  4.7396130E+01;  0.0000000E+00;  3.0957014E+01;0; -3.1635880E-01;  1.9623574E+04;  0.0000000E+00;  3.7193909E+01;  4.0000000E+04;  0.0000000E+00;  3.8801379E+04; -5.6305629E-01;  0.0000000E+00;  2.4669747E-01;  9.9074391E+04;
  1.7323260E+00;  9.9999998E-03;  1.9266282E-01;9420;  1.0432625E+00;  0.0000000E+00; -2.2024376E-02;  9.9482690E+02;  1.4263211E-01; -4.1557876E+03;3;  3.9534580E+01;  0.0000000E+00;  2.7032299E+01;0; -2.2093238E-01;  2.0050482E+04;  0.0000000E+00;  3.8515450E+01;  4.0000000E+04;  0.0000000E+00;  3.8762043E+04; -3.9208019E-01;  0.0000000E+00;  1.7114781E-01;  8.1756383E+04;
  1.7325016E+00;  9.9999998E-03;  1.7184532E-01;9418;  1.0381569E+00;  0.0000000E+00; -2.3736751E-02;  9.9721735E+02;  1.4250761E-01; -2.2352566E+03;3;  3.6418137E+01;  0.0000000E+00;  2.5038279E+01;0; -1.3472065E-01;  2.0187379E+04;  0.0000000E+00;  1.8107916E+01;  4.0000000E+04;  0.0000000E+00;  3.8716918E+04; -2.4099295E-01;  0.0000000E+00;  1.0627229E-01;  3.9371074E+04;
  1.7327076E+00;  9.9999998E-03;  2.1340077E-01;9422;  1.0513146E+00;  0.0000000E+00; -1.8035224E-02;  9.8756610E+02;  1.4279865E-01; -9.9870498E+03;3;  4.4503906E+01;  0.0000000E+00;  2.9184595E+01;0; -2.9500061E-01;  1.9749621E+04;  0.0000000E+00;  4.1684624E+01;  4.0000000E+04;  0.0000000E+00;  3.8782891E+04; -5.1628971E-01;  0.0000000E+00;  2.2128910E-01;  1.0119520E+05;
  1.7327143E+00;  9.9999998E-03;  2.0309031E-01;9421;  1.0467253E+00;  0.0000000E+00; -2.0639906E-02;  9.9120538E+02;  1.4269385E-01; -7.0639141E+03;3;  4.1730217E+01;  0.0000000E+00;  2.7661196E+01;0; -2.6056802E-01;  1.9909537E+04;  0.0000000E+00;  4.3080387E+01;  4.0000000E+04;  0.0000000E+00;  3.8765516E+04; -4.5818999E-01;  0.0000000E+00;  1.9762199E-01;  9.6165906E+04;
  1.7330993E+00;  9.9999998E-03;  1.6175692E-01;9417;  1.0361366E+00;  0.0000000E+00; -2.3835331E-02;  9.9684747E+02;  1.4243181E-01; -2.5317258E+03;3;  3.5711189E+01;  0.0000000E+00;  2.4091030E+01;0; -8.4350556E-02;  2.0211973E+04;  0.0000000E+00;  1.0416680E+01;  4.0000000E+04;  0.0000000E+00;  3.8682594E+04; -1.5755937E-01;  0.0000000E+00;  7.3208809E-02;  2.3891553E+04;
  1.7336496E+00;  9.9999998E-03;  1.5180428E-01;9416;  1.0342407E+00;  0.0000000E+00; -2.3471279E-02;  9.9628455E+02;  1.4236489E-01; -2.9830466E+03;3;  3.5711697E+01;  0.0000000E+00;  2.3121103E+01;0; -2.7850717E-02;  2.0217707E+04;  0.0000000E+00;  5.6355414E+00;  4.0000000E+04;  0.0000000E+00;  3.8666852E+04; -6.9548488E-02;  0.0000000E+00;  4.1697770E-02;  1.3880285E+04;
  1.7340506E+00;  9.9999998E-03;  1.4189775E-01;9415;  1.0323563E+00;  0.0000000E+00; -2.2787498E-02;  9.9565942E+02;  1.4231995E-01; -3.4843220E+03;3;  3.6352573E+01;  0.0000000E+00;  2.2120268E+01;0;  3.4628227E-02;  2.0205850E+04;  0.0000000E+00;  2.8713455E+00;  4.0000000E+04;  0.0000000E+00;  3.8669309E+04;  2.2468703E-02;  0.0000000E+00;  1.2159526E-02;  8.2069824E+03;
  1.7342850E+00;  9.9999998E-03;  1.3198277E-01;9414;  1.0303501E+00;  0.0000000E+00; -2.1855315E-02;  9.9494751E+02;  1.4229587E-01; -4.0553706E+03;3;  3.7672409E+01;  0.0000000E+00;  2.1114328E+01;0;  1.0214938E-01;  2.0179721E+04;  0.0000000E+00;  1.3442609E+00;  4.0000000E+04;  0.0000000E+00;  3.8682316E+04;  1.1735372E-01;  0.0000000E+00; -1.5204335E-02;  6.4135840E+03;
  1.7342415E+00;  9.9999998E-03;  8.1508607E-02;9409;  1.0184088E+00;  0.0000000E+00; -1.5067409E-02;  9.9187433E+02;  1.4233948E-01; -6.5221533E+03;3;  5.0519047E+01;  0.0000000E+00;  1.4655407E+01;0;  4.5182526E-01;  2.0029762E+04;  0.0000000E+00; -9.3904480E-02;  4.0000000E+04;  0.0000000E+00;  3.8737688E+04;  5.7129765E-01;  0.0000000E+00; -1.1947237E-01;  1.1046015E+04;
  1.7343071E+00;  9.9999998E-03;  7.1286663E-02;9408;  1.0161872E+00;  0.0000000E+00; -1.3440986E-02;  9.9172363E+02;  1.4234705E-01; -6.6429014E+03;3;  5.2270702E+01;  0.0000000E+00;  1.2937789E+01;0;  5.1117665E-01;  2.0023143E+04;  0.0000000E+00; -9.0009086E-02;  4.0000000E+04;  0.0000000E+00;  3.8737078E+04;  6.4532495E-01;  0.0000000E+00; -1.3414831E-01;  1.1028276E+04;
  1.7342494E+00;  9.9999998E-03;  9.1716103E-02;9410;  1.0208194E+00;  0.0000000E+00; -1.6599739E-02;  9.9220898E+02;  1.4232586E-01; -6.2535449E+03;3;  4.8528561E+01;  0.0000000E+00;  1.6365820E+01;0;  3.8694721E-01;  2.0046832E+04;  0.0000000E+00; -8.2965739E-02;  4.0000000E+04;  0.0000000E+00;  3.8734480E+04;  4.8974434E-01;  0.0000000E+00; -1.0279713E-01;  1.0700814E+04;
  1.7343040E+00;  9.9999998E-03;  1.0188530E-01;9411;  1.0233196E+00;  0.0000000E+00; -1.8079476E-02;  9.9272430E+02;  1.4230916E-01; -5.8397563E+03;3;  4.5826893E+01;  0.0000000E+00;  1.7432398E+01;0;  3.1767532E-01;  2.0073588E+04;  0.0000000E+00; -2.3329848E-02;  4.0000000E+04;  0.0000000E+00;  3.8726980E+04;  4.0175703E-01;  0.0000000E+00; -8.4081717E-02;  9.9271572E+03;
  1.7343683E+00;  9.9999998E-03;  1.2202153E-01;9413;  1.0281854E+00;  0.0000000E+00; -2.0741243E-02;  9.9417828E+02;  1.4228997E-01; -4.6725879E+03;3;  4.0345070E+01;  0.0000000E+00;  1.9722904E+01;0;  1.7310217E-01;  2.0144777E+04;  0.0000000E+00;  5.4137635E-01;  4.0000000E+04;  0.0000000E+00;  3.8699145E+04;  2.1343425E-01;  0.0000000E+00; -4.0332071E-02;  7.2634995E+03;
  1.7343550E+00;  9.9999998E-03;  1.1199128E-01;9412;  1.0258189E+00;  0.0000000E+00; -1.9465052E-02;  9.9340442E+02;  1.4229517E-01; -5.2937207E+03;3;  4.3127567E+01;  0.0000000E+00;  1.8548038E+01;0;  2.4562171E-01;  2.0107566E+04;  0.0000000E+00;  1.4820983E-01;  4.0000000E+04;  0.0000000E+00;  3.8714898E+04;  3.0889362E-01;  0.0000000E+00; -6.3271917E-02;  8.7205078E+03;
  1.7437019E+00;  9.9999998E-03;  2.3427580E-01;9478;  1.0573621E+00;  0.0000000E+00; -1.2181277E-02;  9.8608893E+02;  1.3966361E-01; -1.1115039E+04;3;  5.1132904E+01;  0.0000000E+00;  3.0687967E+01;0; -3.4939963E-01;  2.0631098E+04;  0.0000000E+00;  3.2965218E+01;  4.0000000E+04;  0.0000000E+00;  3.8702605E+04; -5.9112781E-01;  0.0000000E+00;  2.4172817E-01;  8.5819867E+04;
  1.7448653E+00;  9.9999998E-03;  2.2406510E-01;9477;  1.0501653E+00;  0.0000000E+00; -1.8140795E-02;  9.8440753E+02;  1.3955864E-01; -1.2450979E+04;3;  4.7691143E+01;  0.0000000E+00;  2.9482983E+01;0; -3.5511646E-01;  2.0603381E+04;  0.0000000E+00;  3.9677036E+01;  4.0000000E+04;  0.0000000E+00;  3.8707773E+04; -5.5865556E-01;  0.0000000E+00;  2.0353910E-01;  9.8304977E+04;
  1.7456028E+00;  9.9999998E-03;  1.8262361E-01;9473;  1.0356164E+00;  0.0000000E+00; -2.7502757E-02;  9.9522327E+02;  1.3917594E-01; -3.8128569E+03;3;  3.6076691E+01;  0.0000000E+00;  2.5954565E+01;0; -1.7236087E-01;  2.1127295E+04;  0.0000000E+00;  4.1760189E+01;  4.0000000E+04;  0.0000000E+00;  3.8669637E+04; -2.7863538E-01;  0.0000000E+00;  1.0627451E-01;  7.8401930E+04;
  1.7456985E+00;  9.9999998E-03;  1.7209643E-01;9472;  1.0341175E+00;  0.0000000E+00; -2.8173607E-02;  9.9663629E+02;  1.3911507E-01; -2.6848503E+03;3;  3.4392513E+01;  0.0000000E+00;  2.5076365E+01;0; -1.0668232E-01;  2.1206105E+04;  0.0000000E+00;  3.0032749E+01;  4.0000000E+04;  0.0000000E+00;  3.8650684E+04; -1.8431643E-01;  0.0000000E+00;  7.7634111E-02;  5.6453246E+04;
  1.7456887E+00;  9.9999998E-03;  2.1382692E-01;9476;  1.0445868E+00;  0.0000000E+00; -2.2336073E-02;  9.8522571E+02;  1.3943493E-01; -1.1792536E+04;3;  4.4450771E+01;  0.0000000E+00;  2.8255878E+01;0; -3.3015612E-01;  2.0678795E+04;  0.0000000E+00;  4.5617409E+01;  4.0000000E+04;  0.0000000E+00;  3.8694281E+04; -5.0713980E-01;  0.0000000E+00;  1.7698368E-01;  1.0441891E+05;
  1.7459162E+00;  9.9999998E-03;  1.9315529E-01;9474;  1.0376427E+00;  0.0000000E+00; -2.6522983E-02;  9.9192010E+02;  1.3923424E-01; -6.4484365E+03;3;  3.8453812E+01;  0.0000000E+00;  2.6727154E+01;0; -2.3208232E-01;  2.0992410E+04;  0.0000000E+00;  4.8909485E+01;  4.0000000E+04;  0.0000000E+00;  3.8667176E+04; -3.6418083E-01;  0.0000000E+00;  1.3209851E-01;  9.5492438E+04;
  1.7460526E+00;  9.9999998E-03;  2.0353973E-01;9475;  1.0404928E+00;  0.0000000E+00; -2.5022311E-02;  9.8806897E+02;  1.3931917E-01; -9.5212676E+03;3;  4.1196911E+01;  0.0000000E+00;  2.7231136E+01;0; -2.8631932E-01;  2.0824846E+04;  0.0000000E+00;  4.9496838E+01;  4.0000000E+04;  0.0000000E+00;  3.8675660E+04; -4.4097102E-01;  0.0000000E+00;  1.5465172E-01;  1.0386121E+05;
  1.7462918E+00;  9.9999998E-03;  1.6179615E-01;9471;  1.0328627E+00;  0.0000000E+00; -2.8358139E-02;  9.9660815E+02;  1.3903581E-01; -2.7064556E+03;3;  3.3435467E+01;  0.0000000E+00;  2.4033255E+01;0; -3.3267431E-02;  2.1249186E+04;  0.0000000E+00;  1.8948137E+01;  4.0000000E+04;  0.0000000E+00;  3.8609215E+04; -8.1914023E-02;  0.0000000E+00;  4.8646592E-02;  3.6797984E+04;
  1.7470217E+00;  9.9999998E-03;  1.5171506E-01;9470;  1.0316612E+00;  0.0000000E+00; -2.7993541E-02;  9.9615192E+02;  1.3895781E-01; -3.0692834E+03;3;  3.3317436E+01;  0.0000000E+00;  2.3032101E+01;0;  4.8368767E-02;  2.1273455E+04;  0.0000000E+00;  1.1051406E+01;  4.0000000E+04;  0.0000000E+00;  3.8574770E+04;  2.7454572E-02;  0.0000000E+00;  2.0914197E-02;  2.2565984E+04;
  1.7476413E+00;  9.9999998E-03;  1.4174552E-01;9469;  1.0303202E+00;  0.0000000E+00; -2.7191056E-02;  9.9566534E+02;  1.3889389E-01; -3.4562107E+03;3;  3.4056759E+01;  0.0000000E+00;  2.2062071E+01;0;  1.3749093E-01;  2.1280938E+04;  0.0000000E+00;  6.0461426E+00;  4.0000000E+04;  0.0000000E+00;  3.8560125E+04;  1.4273719E-01;  0.0000000E+00; -5.2462718E-03;  1.3157354E+04;
  1.7480702E+00;  9.9999998E-03;  1.3181044E-01;9468;  1.0287330E+00;  0.0000000E+00; -2.6109364E-02;  9.9514398E+02;  1.3884979E-01; -3.8710161E+03;3;  3.5982559E+01;  0.0000000E+00;  2.1296871E+01;0;  2.3246068E-01;  2.1271371E+04;  0.0000000E+00;  3.0395277E+00;  4.0000000E+04;  0.0000000E+00;  3.8563316E+04;  2.6244077E-01;  0.0000000E+00; -2.9980090E-02;  7.4405586E+03;
  1.7480519E+00;  9.9999998E-03;  7.1367770E-02;9462;  1.0148988E+00;  0.0000000E+00; -1.6343879E-02;  9.9194952E+02;  1.3888785E-01; -6.4176270E+03;3;  4.9631306E+01;  0.0000000E+00;  1.4246159E+01;0;  7.7740622E-01;  2.1098064E+04;  0.0000000E+00; -1.1238790E-01;  4.0000000E+04;  0.0000000E+00;  3.8635441E+04;  9.3158609E-01;  0.0000000E+00; -1.5417990E-01;  9.4400957E+03;
  1.7481216E+00;  9.9999998E-03;  8.1572756E-02;9463;  1.0171319E+00;  0.0000000E+00; -1.8296752E-02;  9.9222839E+02;  1.3886695E-01; -6.1950684E+03;3;  4.8040192E+01;  0.0000000E+00;  1.5634687E+01;0;  7.0182097E-01;  2.1116303E+04;  0.0000000E+00; -1.4023361E-01;  4.0000000E+04;  0.0000000E+00;  3.8631785E+04;  8.3886147E-01;  0.0000000E+00; -1.3704050E-01;  9.0946787E+03;
  1.7482331E+00;  9.9999998E-03;  9.1742389E-02;9464;  1.0195798E+00;  0.0000000E+00; -2.0106502E-02;  9.9267194E+02;  1.3884507E-01; -5.8411670E+03;3;  4.6697369E+01;  0.0000000E+00;  1.7567734E+01;0;  6.1766541E-01;  2.1143807E+04;  0.0000000E+00; -1.2090099E-01;  4.0000000E+04;  0.0000000E+00;  3.8623438E+04;  7.3574156E-01;  0.0000000E+00; -1.1807617E-01;  8.3257979E+03;
  1.7483032E+00;  9.9999998E-03;  1.2187053E-01;9467;  1.0268065E+00;  0.0000000E+00; -2.4834316E-02;  9.9454358E+02;  1.3882533E-01; -4.3491265E+03;3;  3.8573357E+01;  0.0000000E+00;  2.0283787E+01;0;  3.3079246E-01;  2.1247465E+04;  0.0000000E+00;  1.3291068E+00;  4.0000000E+04;  0.0000000E+00;  3.8576828E+04;  3.8431433E-01;  0.0000000E+00; -5.3521860E-02;  5.1592349E+03;
  1.7483661E+00;  9.9999998E-03;  1.1189666E-01;9466;  1.0245557E+00;  0.0000000E+00; -2.3396118E-02;  9.9390582E+02;  1.3882215E-01; -4.8572534E+03;3;  4.1814167E+01;  0.0000000E+00;  1.9233084E+01;0;  4.2951518E-01;  2.1213920E+04;  0.0000000E+00;  4.3327919E-01;  4.0000000E+04;  0.0000000E+00;  3.8594043E+04;  5.0557214E-01;  0.0000000E+00; -7.6056957E-02;  5.7409424E+03;
  1.7483299E+00;  9.9999998E-03;  1.0185552E-01;9465;  1.0220912E+00;  0.0000000E+00; -2.1817947E-02;  9.9325769E+02;  1.3882896E-01; -5.3739502E+03;3;  4.4442772E+01;  0.0000000E+00;  1.8492016E+01;0;  5.2611446E-01;  2.1177789E+04;  0.0000000E+00;  2.3938447E-02;  4.0000000E+04;  0.0000000E+00;  3.8610574E+04;  6.2375188E-01;  0.0000000E+00; -9.7637430E-02;  7.1364209E+03;
  1.7560693E+00;  9.9999998E-03;  2.3470645E-01;9531;  1.0496014E+00;  0.0000000E+00; -1.6766496E-02;  9.8855414E+02;  1.3671675E-01; -9.0824268E+03;3;  5.1745831E+01;  0.0000000E+00;  2.8499733E+01;0; -3.9488858E-01;  2.1691346E+04;  0.0000000E+00;  2.9067743E+01;  4.0000000E+04;  0.0000000E+00;  3.8576332E+04; -5.8060503E-01;  0.0000000E+00;  1.8571647E-01;  7.0618336E+04;
  1.7572529E+00;  9.9999998E-03;  2.2451381E-01;9530;  1.0430634E+00;  0.0000000E+00; -2.1849141E-02;  9.8511786E+02;  1.3666239E-01; -1.1800627E+04;3;  4.8133617E+01;  0.0000000E+00;  2.7711515E+01;0; -3.9590532E-01;  2.1575244E+04;  0.0000000E+00;  3.8855934E+01;  4.0000000E+04;  0.0000000E+00;  3.8589926E+04; -5.4649544E-01;  0.0000000E+00;  1.5059014E-01;  8.9546742E+04;
  1.7582184E+00;  9.9999998E-03;  2.1429737E-01;9529;  1.0380452E+00;  0.0000000E+00; -2.5719533E-02;  9.8408636E+02;  1.3658024E-01; -1.2610981E+04;3;  4.4471470E+01;  0.0000000E+00;  2.6903471E+01;0; -3.6644974E-01;  2.1570553E+04;  0.0000000E+00;  4.6802456E+01;  4.0000000E+04;  0.0000000E+00;  3.8582332E+04; -4.9067658E-01;  0.0000000E+00;  1.2422685E-01;  1.0068894E+05;
  1.7587566E+00;  9.9999998E-03;  1.7263053E-01;9525;  1.0302572E+00;  0.0000000E+00; -3.1446595E-02;  9.9526978E+02;  1.3625610E-01; -3.7472803E+03;3;  3.2336243E+01;  0.0000000E+00;  2.4125668E+01;0; -7.6182231E-02;  2.2111914E+04;  0.0000000E+00;  4.4604630E+01;  4.0000000E+04;  0.0000000E+00;  3.8556555E+04; -1.2191296E-01;  0.0000000E+00;  4.5730729E-02;  7.4026688E+04;
  1.7588582E+00;  9.9999998E-03;  2.0404014E-01;9528;  1.0344783E+00;  0.0000000E+00; -2.8285481E-02;  9.8545435E+02;  1.3648272E-01; -1.1522341E+04;3;  4.0883289E+01;  0.0000000E+00;  2.6178343E+01;0; -3.1282592E-01;  2.1664477E+04;  0.0000000E+00;  5.2972134E+01;  4.0000000E+04;  0.0000000E+00;  3.8564781E+04; -4.1693899E-01;  0.0000000E+00;  1.0411306E-01;  1.0494730E+05;
  1.7589213E+00;  9.9999998E-03;  1.8324217E-01;9526;  1.0309142E+00;  0.0000000E+00; -3.0815005E-02;  9.9239459E+02;  1.3631254E-01; -6.0243960E+03;3;  3.4440704E+01;  0.0000000E+00;  2.5184492E+01;0; -1.6418426E-01;  2.1986832E+04;  0.0000000E+00;  5.3633102E+01;  4.0000000E+04;  0.0000000E+00;  3.8552531E+04; -2.3092523E-01;  0.0000000E+00;  6.6740975E-02;  9.1870703E+04;
  1.7590793E+00;  9.9999998E-03;  1.9370820E-01;9527;  1.0322074E+00;  0.0000000E+00; -2.9827764E-02;  9.8858252E+02;  1.3638720E-01; -9.0431094E+03;3;  3.7474903E+01;  0.0000000E+00;  2.5815634E+01;0; -2.4344006E-01;  2.1820387E+04;  0.0000000E+00;  5.6015125E+01;  4.0000000E+04;  0.0000000E+00;  3.8551051E+04; -3.2935283E-01;  0.0000000E+00;  8.5912772E-02;  1.0225312E+05;
  1.7590704E+00;  9.9999998E-03;  1.6208258E-01;9524;  1.0298729E+00;  0.0000000E+00; -3.1755920E-02;  9.9620935E+02;  1.3619006E-01; -3.0023799E+03;3;  3.1140724E+01;  0.0000000E+00;  2.2889524E+01;0;  2.1430846E-02;  2.2181861E+04;  0.0000000E+00;  3.1774801E+01;  4.0000000E+04;  0.0000000E+00;  3.8531824E+04; -1.8328959E-03;  0.0000000E+00;  2.3263743E-02;  5.3025969E+04;
  1.7598287E+00;  9.9999998E-03;  1.5177639E-01;9523;  1.0294396E+00;  0.0000000E+00; -3.1483795E-02;  9.9598340E+02;  1.3611217E-01; -3.1797793E+03;3;  3.1178068E+01;  0.0000000E+00;  2.1418940E+01;0;  1.2934472E-01;  2.2220947E+04;  0.0000000E+00;  2.0178566E+01;  4.0000000E+04;  0.0000000E+00;  3.8489180E+04;  1.2819351E-01;  0.0000000E+00;  1.1512085E-03;  3.4844359E+04;
  1.7606584E+00;  9.9999998E-03;  1.4166752E-01;9522;  1.0286794E+00;  0.0000000E+00; -3.0629320E-02;  9.9553613E+02;  1.3603322E-01; -3.5319976E+03;3;  3.2958542E+01;  0.0000000E+00;  1.9987204E+01;0;  2.4611951E-01;  2.2246023E+04;  0.0000000E+00;  1.1870959E+01;  4.0000000E+04;  0.0000000E+00;  3.8455855E+04;  2.6604563E-01;  0.0000000E+00; -1.9926120E-02;  2.1621887E+04;
  1.7613367E+00;  9.9999998E-03;  1.3165818E-01;9521;  1.0274706E+00;  0.0000000E+00; -2.9423615E-02;  9.9513245E+02;  1.3597012E-01; -3.8497412E+03;3;  3.4850044E+01;  0.0000000E+00;  1.9368792E+01;0;  3.6918482E-01;  2.2256848E+04;  0.0000000E+00;  6.4576316E+00;  4.0000000E+04;  0.0000000E+00;  3.8441660E+04;  4.0958345E-01;  0.0000000E+00; -4.0398624E-02;  1.2658446E+04;
  1.7618002E+00;  9.9999998E-03;  1.2168888E-01;9520;  1.0259800E+00;  0.0000000E+00; -2.8111449E-02;  9.9473553E+02;  1.3592704E-01; -4.1624019E+03;3;  3.3035366E+01;  0.0000000E+00;  2.0183773E+01;0;  4.9525493E-01;  2.2252135E+04;  0.0000000E+00;  3.1175506E+00;  4.0000000E+04;  0.0000000E+00;  3.8443859E+04;  5.5612522E-01;  0.0000000E+00; -6.0870305E-02;  6.9055547E+03;
  1.7616975E+00;  9.9999998E-03;  7.1393989E-02;9515;  1.0206292E+00;  0.0000000E+00; -1.9358942E-02;  9.9241229E+02;  1.3595554E-01; -5.9997202E+03;3; -3.0479063E+01;  0.0000000E+00;  1.8616550E+01;0;  1.0468345E+00;  2.2108678E+04;  0.0000000E+00; -2.0690043E-01;  4.0000000E+04;  0.0000000E+00;  3.8511227E+04;  1.2113820E+00;  0.0000000E+00; -1.6454750E-01;  7.2309707E+03;
  1.7618760E+00;  9.9999998E-03;  8.1563346E-02;9516;  1.0221483E+00;  0.0000000E+00; -2.1651497E-02;  9.9279761E+02;  1.3593251E-01; -5.6943613E+03;3; -2.5636902E+01;  0.0000000E+00;  2.1335817E+01;0;  9.5620531E-01;  2.2136504E+04;  0.0000000E+00; -2.5992399E-01;  4.0000000E+04;  0.0000000E+00;  3.8502656E+04;  1.1012551E+00;  0.0000000E+00; -1.4504975E-01;  6.4996831E+03;
  1.7620426E+00;  9.9999998E-03;  1.1172452E-01;9519;  1.0248277E+00;  0.0000000E+00; -2.6818959E-02;  9.9429388E+02;  1.3590561E-01; -4.5108989E+03;3;  2.0740610E+01;  0.0000000E+00;  2.2576799E+01;0;  6.2041008E-01;  2.2232740E+04;  0.0000000E+00;  1.1976230E+00;  4.0000000E+04;  0.0000000E+00;  3.8456523E+04;  7.0210212E-01;  0.0000000E+00; -8.1692025E-02;  4.0449380E+03;
  1.7620919E+00;  9.9999998E-03;  1.0173476E-01;9518;  1.0241899E+00;  0.0000000E+00; -2.5393927E-02;  9.9380066E+02;  1.3590381E-01; -4.9006558E+03;3; -1.0902017E+00;  0.0000000E+00;  2.4119240E+01;0;  7.4073946E-01;  2.2203131E+04;  0.0000000E+00;  2.2058095E-01;  4.0000000E+04;  0.0000000E+00;  3.8473223E+04;  8.4364486E-01;  0.0000000E+00; -1.0290538E-01;  4.1474624E+03;
  1.7620226E+00;  9.9999998E-03;  9.1682352E-02;9517;  1.0233343E+00;  0.0000000E+00; -2.3680078E-02;  9.9327472E+02;  1.3591243E-01; -5.3166196E+03;3; -1.6638247E+01;  0.0000000E+00;  2.3665522E+01;0;  8.5355639E-01;  2.2169387E+04;  0.0000000E+00; -1.7636444E-01;  4.0000000E+04;  0.0000000E+00;  3.8489324E+04;  9.7779089E-01;  0.0000000E+00; -1.2423452E-01;  5.3893965E+03;
  1.7683102E+00;  9.9999998E-03;  2.3515405E-01;9583;  1.0416543E+00;  0.0000000E+00; -2.1005508E-02;  9.9223871E+02;  1.3419119E-01; -6.1094712E+03;3;  5.2370239E+01;  0.0000000E+00;  2.5981617E+01;0; -4.4730687E-01;  2.2745922E+04;  0.0000000E+00;  1.8084343E+01;  4.0000000E+04;  0.0000000E+00;  3.8433426E+04; -5.6409645E-01;  0.0000000E+00;  1.1678957E-01;  4.5267102E+04;
  1.7694023E+00;  9.9999998E-03;  2.2498353E-01;9582;  1.0359534E+00;  0.0000000E+00; -2.5079483E-02;  9.8769025E+02;  1.3417608E-01; -9.6823232E+03;3;  4.8614735E+01;  0.0000000E+00;  2.5305101E+01;0; -4.4111565E-01;  2.2561785E+04;  0.0000000E+00;  3.2510868E+01;  4.0000000E+04;  0.0000000E+00;  3.8451176E+04; -5.2773064E-01;  0.0000000E+00;  8.6614996E-02;  7.1501148E+04;
  1.7704147E+00;  9.9999998E-03;  2.1479097E-01;9581;  1.0316035E+00;  0.0000000E+00; -2.8244648E-02;  9.8476306E+02;  1.3413893E-01; -1.1975962E+04;3;  4.4671268E+01;  0.0000000E+00;  2.4831224E+01;0; -4.0460432E-01;  2.2463480E+04;  0.0000000E+00;  4.3967564E+01;  4.0000000E+04;  0.0000000E+00;  3.8449238E+04; -4.6803507E-01;  0.0000000E+00;  6.3430749E-02;  8.8998555E+04;
  1.7712181E+00;  9.9999998E-03;  2.0456663E-01;9580;  1.0286467E+00;  0.0000000E+00; -3.0450378E-02;  9.8418799E+02;  1.3407631E-01; -1.2420707E+04;3;  4.0672318E+01;  0.0000000E+00;  2.4378254E+01;0; -3.4126437E-01;  2.2474244E+04;  0.0000000E+00;  5.3189552E+01;  4.0000000E+04;  0.0000000E+00;  3.8433691E+04; -3.8757065E-01;  0.0000000E+00;  4.6306293E-02;  9.9149539E+04;
  1.7718173E+00;  9.9999998E-03;  1.7335676E-01;9577;  1.0264540E+00;  0.0000000E+00; -3.3480883E-02;  9.9256927E+02;  1.3384306E-01; -5.8344258E+03;3;  3.0289429E+01;  0.0000000E+00;  2.1947676E+01;0; -4.8907373E-02;  2.2891043E+04;  0.0000000E+00;  5.7996754E+01;  4.0000000E+04;  0.0000000E+00;  3.8421973E+04; -5.6183178E-02;  0.0000000E+00;  7.2758039E-03;  8.7139602E+04;
  1.7718333E+00;  9.9999998E-03;  1.6268000E-01;9576;  1.0269412E+00;  0.0000000E+00; -3.3770826E-02;  9.9503210E+02;  1.3378361E-01; -3.9006003E+03;3;  2.8988287E+01;  0.0000000E+00;  2.0168743E+01;0;  7.2968721E-02;  2.3006363E+04;  0.0000000E+00;  4.7717083E+01;  4.0000000E+04;  0.0000000E+00;  3.8427488E+04;  7.8867018E-02;  0.0000000E+00; -5.8982987E-03;  6.9812188E+04;
  1.7717239E+00;  9.9999998E-03;  1.9428493E-01;9579;  1.0269605E+00;  0.0000000E+00; -3.1905878E-02;  9.8583624E+02;  1.3399535E-01; -1.1121779E+04;3;  3.6576248E+01;  0.0000000E+00;  2.3830454E+01;0; -2.5769782E-01;  2.2577471E+04;  0.0000000E+00;  5.9718533E+01;  4.0000000E+04;  0.0000000E+00;  3.8416910E+04; -2.9006568E-01;  0.0000000E+00;  3.2367863E-02;  1.0234155E+05;
  1.7718978E+00;  9.9999998E-03;  1.8390171E-01;9578;  1.0263236E+00;  0.0000000E+00; -3.2885406E-02;  9.8900403E+02;  1.3391279E-01; -8.6332588E+03;3;  3.2930237E+01;  0.0000000E+00;  2.3119003E+01;0; -1.5940391E-01;  2.2732799E+04;  0.0000000E+00;  6.1826649E+01;  4.0000000E+04;  0.0000000E+00;  3.8411656E+04; -1.7902115E-01;  0.0000000E+00;  1.9617250E-02;  9.8284945E+04;
  1.7723262E+00;  9.9999998E-03;  1.5210018E-01;9575;  1.0273092E+00;  0.0000000E+00; -3.3558320E-02;  9.9571185E+02;  1.3371925E-01; -3.3656665E+03;3;  2.9568609E+01;  0.0000000E+00;  1.7790207E+01;0;  2.0613547E-01;  2.3069559E+04;  0.0000000E+00;  3.4073410E+01;  4.0000000E+04;  0.0000000E+00;  3.8402027E+04;  2.2601299E-01;  0.0000000E+00; -1.9877518E-02;  5.0254191E+04;
  1.7731955E+00;  9.9999998E-03;  1.4175843E-01;9574;  1.0271399E+00;  0.0000000E+00; -3.2681726E-02;  9.9541821E+02;  1.3364397E-01; -3.5938228E+03;3;  3.1261480E+01;  0.0000000E+00;  1.6147726E+01;0;  3.4891707E-01;  2.3106699E+04;  0.0000000E+00;  2.1826845E+01;  4.0000000E+04;  0.0000000E+00;  3.8360508E+04;  3.8293159E-01;  0.0000000E+00; -3.4014519E-02;  3.3390164E+04;
  1.7741084E+00;  9.9999998E-03;  1.3160580E-01;9573;  1.0272036E+00;  0.0000000E+00; -3.1868126E-02;  9.9502057E+02;  1.3357125E-01; -3.9030054E+03;3;  1.8269325E+01;  0.0000000E+00;  2.2147480E+01;0;  4.9816257E-01;  2.3133637E+04;  0.0000000E+00;  1.2847763E+01;  4.0000000E+04;  0.0000000E+00;  3.8327141E+04;  5.4698682E-01;  0.0000000E+00; -4.8824266E-02;  2.0903783E+04;
  1.7748487E+00;  9.9999998E-03;  1.2155786E-01;9572;  1.0331129E+00;  0.0000000E+00; -3.3327136E-02;  9.9473651E+02;  1.3351096E-01; -4.1233354E+03;3; -3.7862228E+01;  0.0000000E+00;  3.3386314E+01;0;  6.5102071E-01;  2.3149988E+04;  0.0000000E+00;  6.8453488E+00;  4.0000000E+04;  0.0000000E+00;  3.8311324E+04;  7.1614236E-01;  0.0000000E+00; -6.5121666E-02;  1.2260032E+04;
  1.7753456E+00;  9.9999998E-03;  1.1155766E-01;9571;  1.0444934E+00;  0.0000000E+00; -3.4304429E-02;  9.9448334E+02;  1.3347019E-01; -4.3199858E+03;3; -6.0192577E+01;  0.0000000E+00;  2.5278513E+01;0;  8.0051583E-01;  2.3152156E+04;  0.0000000E+00;  3.0860579E+00;  4.0000000E+04;  0.0000000E+00;  3.8310965E+04;  8.8281685E-01;  0.0000000E+00; -8.2301036E-02;  6.5405698E+03;
  1.7752935E+00;  9.9999998E-03;  7.1380503E-02;9567;  1.0665268E+00;  0.0000000E+00; -2.4853015E-02;  9.9307562E+02;  1.3348246E-01; -5.4225815E+03;3; -7.4871826E+01;  0.0000000E+00;  9.6161671E+00;0;  1.2889242E+00;  2.3054379E+04;  0.0000000E+00; -4.8867968E-01;  4.0000000E+04;  0.0000000E+00;  3.8363926E+04;  1.4529655E+00;  0.0000000E+00; -1.6404131E-01;  4.5638320E+03;
  1.7754996E+00;  9.9999998E-03;  8.1503473E-02;9568;  1.0654519E+00;  0.0000000E+00; -2.8206719E-02;  9.9347180E+02;  1.3346015E-01; -5.1115029E+03;3; -7.3874619E+01;  0.0000000E+00;  1.2150559E+01;0;  1.1859006E+00;  2.3085613E+04;  0.0000000E+00; -4.8682767E-01;  4.0000000E+04;  0.0000000E+00;  3.8351180E+04;  1.3289657E+00;  0.0000000E+00; -1.4306512E-01;  3.5805295E+03;
  1.7755919E+00;  9.9999998E-03;  1.0157038E-01;9570;  1.0548745E+00;  0.0000000E+00; -3.3373702E-02;  9.9420270E+02;  1.3344905E-01; -4.5389136E+03;3; -6.8938141E+01;  0.0000000E+00;  1.9297743E+01;0;  9.4073206E-01;  2.3139910E+04;  0.0000000E+00;  9.3433797E-01;  4.0000000E+04;  0.0000000E+00;  3.8321156E+04;  1.0419219E+00;  0.0000000E+00; -1.0118977E-01;  3.2097944E+03;
  1.7756202E+00;  9.9999998E-03;  9.1563597E-02;9569;  1.0621691E+00;  0.0000000E+00; -3.1039493E-02;  9.9386316E+02;  1.3344920E-01; -4.8046201E+03;3; -7.2426178E+01;  0.0000000E+00;  1.5140732E+01;0;  1.0694898E+00;  2.3115939E+04;  0.0000000E+00; -1.1894849E-01;  4.0000000E+04;  0.0000000E+00;  3.8336020E+04;  1.1912206E+00;  0.0000000E+00; -1.2173085E-01;  2.5878271E+03;
  1.7805802E+00;  9.9999998E-03;  2.3560287E-01;9633;  1.0334249E+00;  0.0000000E+00; -2.4544014E-02;  9.9588544E+02;  1.3204148E-01; -3.2085923E+03;3;  5.3268452E+01;  0.0000000E+00;  2.2370485E+01;0; -5.0285703E-01;  2.3739199E+04;  0.0000000E+00;  3.0832469E+00;  4.0000000E+04;  0.0000000E+00;  3.8284797E+04; -5.4465306E-01;  0.0000000E+00;  4.1796032E-02;  1.5680331E+04;
  1.7814704E+00;  9.9999998E-03;  2.2545749E-01;9632;  1.0287018E+00;  0.0000000E+00; -2.7516590E-02;  9.9157684E+02;  1.3204142E-01; -6.5636284E+03;3;  4.9181732E+01;  0.0000000E+00;  2.2330553E+01;0; -4.8799011E-01;  2.3549902E+04;  0.0000000E+00;  1.8493597E+01;  4.0000000E+04;  0.0000000E+00;  3.8299934E+04; -5.0494182E-01;  0.0000000E+00;  1.6951717E-02;  4.4327422E+04;
  1.7824122E+00;  9.9999998E-03;  2.1529008E-01;9631;  1.0251645E+00;  0.0000000E+00; -2.9857254E-02;  9.8741211E+02;  1.3203862E-01; -9.8012100E+03;3;  4.4849277E+01;  0.0000000E+00;  2.1738716E+01;0; -4.4402960E-01;  2.3379912E+04;  0.0000000E+00;  3.4884712E+01;  4.0000000E+04;  0.0000000E+00;  3.8300258E+04; -4.4137681E-01;  0.0000000E+00; -2.6527992E-03;  6.8628094E+04;
  1.7832743E+00;  9.9999998E-03;  2.0509742E-01;9630;  1.0228610E+00;  0.0000000E+00; -3.1595234E-02;  9.8486548E+02;  1.3201590E-01; -1.1775438E+04;3;  4.0553596E+01;  0.0000000E+00;  2.0982784E+01;0; -3.7264115E-01;  2.3294867E+04;  0.0000000E+00;  4.8620556E+01;  4.0000000E+04;  0.0000000E+00;  3.8285840E+04; -3.5539985E-01;  0.0000000E+00; -1.7241284E-02;  8.5572891E+04;
  1.7839603E+00;  9.9999998E-03;  1.9486344E-01;9629;  1.0217762E+00;  0.0000000E+00; -3.2733668E-02;  9.8451013E+02;  1.3196860E-01; -1.2044851E+04;3;  3.5853996E+01;  0.0000000E+00;  2.0271858E+01;0; -2.7662051E-01;  2.3311645E+04;  0.0000000E+00;  5.9174820E+01;  4.0000000E+04;  0.0000000E+00;  3.8265750E+04; -2.4961722E-01;  0.0000000E+00; -2.7003292E-02;  9.5180273E+04;
  1.7844130E+00;  9.9999998E-03;  1.8455452E-01;9628;  1.0217997E+00;  0.0000000E+00; -3.3494454E-02;  9.8616669E+02;  1.3190043E-01; -1.0752495E+04;3;  3.1520824E+01;  0.0000000E+00;  1.9430195E+01;0; -1.6120015E-01;  2.3412094E+04;  0.0000000E+00;  6.5695854E+01;  4.0000000E+04;  0.0000000E+00;  3.8253309E+04; -1.2752829E-01;  0.0000000E+00; -3.3671860E-02;  9.7519062E+04;
  1.7846296E+00;  9.9999998E-03;  1.7412056E-01;9627;  1.0226761E+00;  0.0000000E+00; -3.3907421E-02;  9.8914386E+02;  1.3182788E-01; -8.4368125E+03;3;  2.8162352E+01;  0.0000000E+00;  1.7790977E+01;0; -2.9830385E-02;  2.3557771E+04;  0.0000000E+00;  6.6909447E+01;  4.0000000E+04;  0.0000000E+00;  3.8257086E+04;  7.9440773E-03;  0.0000000E+00; -3.7774462E-02;  9.2782117E+04;
  1.7846935E+00;  9.9999998E-03;  1.6350938E-01;9626;  1.0239542E+00;  0.0000000E+00; -3.3894811E-02;  9.9238654E+02;  1.3175841E-01; -5.9164565E+03;3;  2.6887403E+01;  0.0000000E+00;  1.5121247E+01;0;  1.1490890E-01;  2.3704982E+04;  0.0000000E+00;  6.2052681E+01;  4.0000000E+04;  0.0000000E+00;  3.8275285E+04;  1.5531807E-01;  0.0000000E+00; -4.0409159E-02;  8.1787109E+04;
  1.7848911E+00;  9.9999998E-03;  1.5278262E-01;9625;  1.0250022E+00;  0.0000000E+00; -3.3344004E-02;  9.9457806E+02;  1.3169773E-01; -4.2126777E+03;3;  2.8300262E+01;  0.0000000E+00;  1.1835639E+01;0;  2.7093124E-01;  2.3812871E+04;  0.0000000E+00;  5.1019337E+01;  4.0000000E+04;  0.0000000E+00;  3.8283246E+04;  3.1440958E-01;  0.0000000E+00; -4.3478332E-02;  6.5677508E+04;
  1.7854995E+00;  9.9999998E-03;  1.4216211E-01;9624;  1.0255988E+00;  0.0000000E+00; -3.2336663E-02;  9.9516882E+02;  1.3163468E-01; -3.7516973E+03;3;  2.5426615E+01;  0.0000000E+00;  1.1217161E+01;0;  4.3571901E-01;  2.3873477E+04;  0.0000000E+00;  3.6791611E+01;  4.0000000E+04;  0.0000000E+00;  3.8260352E+04;  4.8425937E-01;  0.0000000E+00; -4.8540361E-02;  4.7776320E+04;
  1.7864397E+00;  9.9999998E-03;  1.3177142E-01;9623;  1.0326437E+00;  0.0000000E+00; -3.4254294E-02;  9.9490247E+02;  1.3156717E-01; -3.9552266E+03;3; -4.3669609E+01;  0.0000000E+00;  2.8139071E+01;0;  6.1025161E-01;  2.3910037E+04;  0.0000000E+00;  2.3763176E+01;  4.0000000E+04;  0.0000000E+00;  3.8220504E+04;  6.6872418E-01;  0.0000000E+00; -5.8472585E-02;  3.2071098E+04;
  1.7874125E+00;  9.9999998E-03;  1.2157490E-01;9622;  1.0524943E+00;  0.0000000E+00; -3.8060997E-02;  9.9456488E+02;  1.3150007E-01; -4.2135200E+03;3; -6.8178596E+01;  0.0000000E+00;  1.8888559E+01;0;  7.8881377E-01;  2.3939400E+04;  0.0000000E+00;  1.3926022E+01;  4.0000000E+04;  0.0000000E+00;  3.8186695E+04;  8.5821342E-01;  0.0000000E+00; -6.9399655E-02;  2.0173213E+04;
  1.7881916E+00;  9.9999998E-03;  1.1149243E-01;9621;  1.0716366E+00;  0.0000000E+00; -3.8774960E-02;  9.9438300E+02;  1.3144493E-01; -4.3514922E+03;3; -7.7435753E+01;  0.0000000E+00;  1.2121092E+01;0;  9.5589530E-01;  2.3961963E+04;  0.0000000E+00;  7.2215457E+00;  4.0000000E+04;  0.0000000E+00;  3.8167957E+04;  1.0368857E+00;  0.0000000E+00; -8.0990449E-02;  1.1830392E+04;
  1.7887075E+00;  9.9999998E-03;  1.0146360E-01;9620;  1.0884846E+00;  0.0000000E+00; -3.7564673E-02;  9.9429639E+02;  1.3140729E-01; -4.4165161E+03;3; -8.2486916E+01;  0.0000000E+00;  7.2730527E+00;0;  1.1085049E+00;  2.3972713E+04;  0.0000000E+00;  2.9876044E+00;  4.0000000E+04;  0.0000000E+00;  3.8163809E+04;  1.2039284E+00;  0.0000000E+00; -9.5423482E-02;  6.2650732E+03;
  1.7887784E+00;  9.9999998E-03;  7.1358204E-02;9617;  1.1149545E+00;  0.0000000E+00; -2.7649920E-02;  9.9372894E+02;  1.3140468E-01; -4.8555884E+03;3; -8.0388390E+01;  0.0000000E+00; -8.2682110E-02;0;  1.4758167E+00;  2.3926684E+04;  0.0000000E+00; -9.1767633E-01;  4.0000000E+04;  0.0000000E+00;  3.8195496E+04;  1.6288607E+00;  0.0000000E+00; -1.5304394E-01;  1.8121254E+03;
  1.7889525E+00;  9.9999998E-03;  9.1452010E-02;9619;  1.1019007E+00;  0.0000000E+00; -3.5078153E-02;  9.9420941E+02;  1.3139166E-01; -4.4828535E+03;3; -8.4440918E+01;  0.0000000E+00;  3.7852426E+00;0;  1.2458431E+00;  2.3969146E+04;  0.0000000E+00;  5.7519102E-01;  4.0000000E+04;  0.0000000E+00;  3.8170434E+04;  1.3587208E+00;  0.0000000E+00; -1.1287778E-01;  2.7725603E+03;
  1.7889525E+00;  9.9999998E-03;  8.1427529E-02;9618;  1.1108522E+00;  0.0000000E+00; -3.1538825E-02;  9.9401721E+02;  1.3139237E-01; -4.6316665E+03;3; -8.2694267E+01;  0.0000000E+00;  1.0780356E+00;0;  1.3680763E+00;  2.3952443E+04;  0.0000000E+00; -5.7049906E-01;  4.0000000E+04;  0.0000000E+00;  3.8182008E+04;  1.5006021E+00;  0.0000000E+00; -1.3252580E-01;  1.2161616E+03;
  1.7928978E+00;  9.9999998E-03;  2.3604341E-01;9681;  1.0251217E+00;  0.0000000E+00; -2.6396295E-02;  9.9838965E+02;  1.3023174E-01; -1.2420718E+03;3;  5.4224888E+01;  0.0000000E+00;  1.7112421E+01;0; -5.4694510E-01;  2.4613162E+04;  0.0000000E+00;  8.6205560E-01;  4.0000000E+04;  0.0000000E+00;  3.8132520E+04; -5.2561438E-01;  0.0000000E+00; -2.1330738E-02;  3.5842129E+03;
  1.7936053E+00;  9.9999998E-03;  2.2592306E-01;9680;  1.0212802E+00;  0.0000000E+00; -2.8618053E-02;  9.9538800E+02;  1.3022801E-01; -3.5548899E+03;3;  4.9859718E+01;  0.0000000E+00;  1.7482485E+01;0; -5.2946270E-01;  2.4476674E+04;  0.0000000E+00;  9.2612839E-01;  4.0000000E+04;  0.0000000E+00;  3.8143973E+04; -4.8189786E-01;  0.0000000E+00; -4.7564846E-02;  1.4703855E+04;
  1.7943728E+00;  9.9999998E-03;  2.1577920E-01;9679;  1.0185283E+00;  0.0000000E+00; -3.0332427E-02;  9.9140491E+02;  1.3023752E-01; -6.6200679E+03;3;  4.5045525E+01;  0.0000000E+00;  1.7251827E+01;0; -4.8313344E-01;  2.4300295E+04;  0.0000000E+00;  1.7693577E+01;  4.0000000E+04;  0.0000000E+00;  3.8144117E+04; -4.1523895E-01;  0.0000000E+00; -6.7894474E-02;  4.0439785E+04;
  1.7951831E+00;  9.9999998E-03;  2.0561481E-01;9678;  1.0169597E+00;  0.0000000E+00; -3.1563155E-02;  9.8756256E+02;  1.3024323E-01; -9.5719082E+03;3;  4.0039433E+01;  0.0000000E+00;  1.6358877E+01;0; -4.0666738E-01;  2.4143637E+04;  0.0000000E+00;  3.6564449E+01;  4.0000000E+04;  0.0000000E+00;  3.8128871E+04; -3.2482374E-01;  0.0000000E+00; -8.1843652E-02;  6.3520340E+04;
  1.7959332E+00;  9.9999998E-03;  1.9542278E-01;9677;  1.0165932E+00;  0.0000000E+00; -3.2300845E-02;  9.8518488E+02;  1.3023153E-01; -1.1393343E+04;3;  3.5083477E+01;  0.0000000E+00;  1.4992906E+01;0; -3.0136675E-01;  2.4065016E+04;  0.0000000E+00;  5.2493206E+01;  4.0000000E+04;  0.0000000E+00;  3.8103719E+04; -2.1257235E-01;  0.0000000E+00; -8.8794380E-02;  7.9986805E+04;
  1.7965534E+00;  9.9999998E-03;  1.8518071E-01;9676;  1.0173244E+00;  0.0000000E+00; -3.2673229E-02;  9.8483582E+02;  1.3019577E-01; -1.1654573E+04;3;  3.0013580E+01;  0.0000000E+00;  1.3614778E+01;0; -1.7204577E-01;  2.4079021E+04;  0.0000000E+00;  6.4023567E+01;  4.0000000E+04;  0.0000000E+00;  3.8080723E+04; -8.1869908E-02;  0.0000000E+00; -9.0175867E-02;  8.9003086E+04;
  1.7970040E+00;  9.9999998E-03;  1.7484882E-01;9675;  1.0189735E+00;  0.0000000E+00; -3.2644436E-02;  9.8632739E+02;  1.3013780E-01; -1.0503446E+04;3;  2.5809338E+01;  0.0000000E+00;  1.1418528E+01;0; -2.2839151E-02;  2.4170020E+04;  0.0000000E+00;  7.0431564E+01;  4.0000000E+04;  0.0000000E+00;  3.8072441E+04;  6.3482396E-02;  0.0000000E+00; -8.6321548E-02;  9.0809164E+04;
  1.7972988E+00;  9.9999998E-03;  1.6437507E-01;9674;  1.0210487E+00;  0.0000000E+00; -3.2103997E-02;  9.8901923E+02;  1.3007018E-01; -8.4330684E+03;3;  2.4264824E+01;  0.0000000E+00;  7.8589897E+00;0;  1.4127226E-01;  2.4302686E+04;  0.0000000E+00;  7.1003326E+01;  4.0000000E+04;  0.0000000E+00;  3.8083438E+04;  2.1996169E-01;  0.0000000E+00; -7.8689426E-02;  8.6011164E+04;
  1.7975218E+00;  9.9999998E-03;  1.5372317E-01;9673;  1.0227425E+00;  0.0000000E+00; -3.0881181E-02;  9.9194159E+02;  1.3000540E-01; -6.1873525E+03;3;  2.5472820E+01;  0.0000000E+00;  3.8069999E+00;0;  3.1581789E-01;  2.4437338E+04;  0.0000000E+00;  6.5438690E+01;  4.0000000E+04;  0.0000000E+00;  3.8107129E+04;  3.8555914E-01;  0.0000000E+00; -6.9741242E-02;  7.5672242E+04;
  1.7978731E+00;  9.9999998E-03;  1.4296955E-01;9672;  1.0248525E+00;  0.0000000E+00; -2.9397661E-02;  9.9394708E+02;  1.2994507E-01; -4.6458413E+03;3;  7.5088558E+00;  0.0000000E+00;  3.1372192E+00;0;  4.9924719E-01;  2.4539381E+04;  0.0000000E+00;  5.4069374E+01;  4.0000000E+04;  0.0000000E+00;  3.8118758E+04;  5.6285650E-01;  0.0000000E+00; -6.3609287E-02;  6.1129312E+04;
  1.7985446E+00;  9.9999998E-03;  1.3231321E-01;9671;  1.0421224E+00;  0.0000000E+00; -3.2236241E-02;  9.9459186E+02;  1.2988800E-01; -4.1481387E+03;3; -7.1834923E+01;  0.0000000E+00;  1.7478529E+01;0;  7.0364827E-01;  2.4599859E+04;  0.0000000E+00;  3.9545685E+01;  4.0000000E+04;  0.0000000E+00;  3.8100906E+04;  7.7092105E-01;  0.0000000E+00; -6.7272760E-02;  4.5026918E+04;
  1.7994851E+00;  9.9999998E-03;  1.2187605E-01;9670;  1.0692041E+00;  0.0000000E+00; -3.7089061E-02;  9.9442896E+02;  1.2983048E-01; -4.2689570E+03;3; -8.2837944E+01;  0.0000000E+00;  9.5553646E+00;0;  9.0223759E-01;  2.4636900E+04;  0.0000000E+00;  2.5836679E+01;  4.0000000E+04;  0.0000000E+00;  3.8064898E+04;  9.7522920E-01;  0.0000000E+00; -7.2991632E-02;  3.0560230E+04;
  1.8004532E+00;  9.9999998E-03;  1.1163437E-01;9669;  1.0942901E+00;  0.0000000E+00; -3.8459901E-02;  9.9415698E+02;  1.2977333E-01; -4.4728633E+03;3; -8.9720749E+01;  0.0000000E+00;  2.9443638E+00;0;  1.0821625E+00;  2.4667328E+04;  0.0000000E+00;  1.5150232E+01;  4.0000000E+04;  0.0000000E+00;  3.8031023E+04;  1.1606780E+00;  0.0000000E+00; -7.8515492E-02;  1.9331402E+04;
  1.8012362E+00;  9.9999998E-03;  1.0151185E-01;9668;  1.1165127E+00;  0.0000000E+00; -3.7476137E-02;  9.9406274E+02;  1.2972599E-01; -4.5412676E+03;3; -9.2480896E+01;  0.0000000E+00; -1.9382343E+00;0;  1.2412741E+00;  2.4693658E+04;  0.0000000E+00;  7.7161489E+00;  4.0000000E+04;  0.0000000E+00;  3.8009367E+04;  1.3283910E+00;  0.0000000E+00; -8.7116815E-02;  1.1364668E+04;
  1.8017470E+00;  9.9999998E-03;  9.1449015E-02;9667;  1.1351794E+00;  0.0000000E+00; -3.5032630E-02;  9.9409229E+02;  1.2969457E-01; -4.5162144E+03;3; -9.1693169E+01;  0.0000000E+00; -5.0330524E+00;0;  1.3802595E+00;  2.4711090E+04;  0.0000000E+00;  2.9766581E+00;  4.0000000E+04;  0.0000000E+00;  3.8001141E+04;  1.4798814E+00;  0.0000000E+00; -9.9621840E-02;  6.0708662E+03;
  1.8019755E+00;  9.9999998E-03;  8.1408724E-02;9666;  1.1492478E+00;  0.0000000E+00; -3.1676628E-02;  9.9413611E+02;  1.2968160E-01; -4.4816362E+03;3; -8.8736267E+01;  0.0000000E+00; -7.0910397E+00;0;  1.5009842E+00;  2.4715271E+04;  0.0000000E+00;  2.7507392E-01;  4.0000000E+04;  0.0000000E+00;  3.8003160E+04;  1.6164134E+00;  0.0000000E+00; -1.1542916E-01;  2.7811777E+03;
  1.8019471E+00;  9.9999998E-03;  7.1360432E-02;9665;  1.1581666E+00;  0.0000000E+00; -2.7575685E-02;  9.9407611E+02;  1.2968297E-01; -4.5276006E+03;3; -8.3672005E+01;  0.0000000E+00; -8.1960020E+00;0;  1.6056470E+00;  2.4705961E+04;  0.0000000E+00; -9.8813146E-01;  4.0000000E+04;  0.0000000E+00;  3.8011246E+04;  1.7389299E+00;  0.0000000E+00; -1.3328286E-01;  8.6737415E+02;
  1.8049879E+00;  9.9999998E-03;  2.3646598E-01;9728;  1.0166771E+00;  0.0000000E+00; -2.5836030E-02;  1.0013762E+03;  1.2870042E-01;  1.0483378E+03;3;  5.5368797E+01;  0.0000000E+00;  1.0554623E+01;0; -5.7292563E-01;  2.5441441E+04;  0.0000000E+00;  3.0886362E+01;  4.0000000E+04;  0.0000000E+00;  3.7973582E+04; -5.1670641E-01;  0.0000000E+00; -5.6219243E-02;  4.8365918E+03;
  1.8058063E+00;  9.9999998E-03;  2.2637443E-01;9727;  1.0135437E+00;  0.0000000E+00; -2.7715221E-02;  9.9796393E+02;  1.2870815E-01; -1.5496731E+03;3;  5.0540428E+01;  0.0000000E+00;  1.0855633E+01;0; -5.5949700E-01;  2.5282430E+04;  0.0000000E+00; -9.2251223E-01;  4.0000000E+04;  0.0000000E+00;  3.7982426E+04; -4.6691123E-01;  0.0000000E+00; -9.2585750E-02;  3.6294683E+03;
  1.8064280E+00;  9.9999998E-03;  2.1625419E-01;9726;  1.0116520E+00;  0.0000000E+00; -2.9106872E-02;  9.9514819E+02;  1.2871246E-01; -3.6901655E+03;3;  4.5178642E+01;  0.0000000E+00;  1.0504115E+01;0; -5.1631880E-01;  2.5154951E+04;  0.0000000E+00; -1.9538745E+00;  4.0000000E+04;  0.0000000E+00;  3.7981863E+04; -3.9609438E-01;  0.0000000E+00; -1.2022444E-01;  1.1932769E+04;
  1.8070872E+00;  9.9999998E-03;  2.0611258E-01;9725;  1.0109082E+00;  0.0000000E+00; -2.9904252E-02;  9.9150043E+02;  1.2872526E-01; -6.4597651E+03;3;  3.9548134E+01;  0.0000000E+00;  9.7888756E+00;0; -4.3950003E-01;  2.4996238E+04;  0.0000000E+00;  1.5898726E+01;  4.0000000E+04;  0.0000000E+00;  3.7966613E+04; -3.0223030E-01;  0.0000000E+00; -1.3726974E-01;  3.4878102E+04;
  1.8077893E+00;  9.9999998E-03;  1.9595158E-01;9724;  1.0113225E+00;  0.0000000E+00; -3.0231848E-02;  9.8792944E+02;  1.2873682E-01; -9.1664668E+03;3;  3.3661236E+01;  0.0000000E+00;  8.6563950E+00;0; -3.3035576E-01;  2.4852857E+04;  0.0000000E+00;  3.6967152E+01;  4.0000000E+04;  0.0000000E+00;  3.7937039E+04; -1.8557927E-01;  0.0000000E+00; -1.4477648E-01;  5.6588816E+04;
  1.8084577E+00;  9.9999998E-03;  1.8576004E-01;9723;  1.0128866E+00;  0.0000000E+00; -3.0157611E-02;  9.8565082E+02;  1.2873249E-01; -1.0888580E+04;3;  2.8003889E+01;  0.0000000E+00;  6.5925174E+00;0; -1.9198385E-01;  2.4777988E+04;  0.0000000E+00;  5.4623882E+01;  4.0000000E+04;  0.0000000E+00;  3.7902742E+04; -4.8896220E-02;  0.0000000E+00; -1.4308763E-01;  7.2230047E+04;
  1.8090384E+00;  9.9999998E-03;  1.7551036E-01;9722;  1.0154191E+00;  0.0000000E+00; -2.9608017E-02;  9.8520935E+02;  1.2870568E-01; -1.1216126E+04;3;  2.2936052E+01;  0.0000000E+00;  3.4440515E+00;0; -2.9625565E-02;  2.4786648E+04;  0.0000000E+00;  6.6834000E+01;  4.0000000E+04;  0.0000000E+00;  3.7877434E+04;  1.0319075E-01;  0.0000000E+00; -1.3281631E-01;  8.0612859E+04;
  1.8095088E+00;  9.9999998E-03;  1.6516031E-01;9721;  1.0184389E+00;  0.0000000E+00; -2.8349712E-02;  9.8647040E+02;  1.2865750E-01; -1.0254269E+04;3;  2.0785980E+01;  0.0000000E+00; -1.1926546E+00;0;  1.4965919E-01;  2.4864791E+04;  0.0000000E+00;  7.3045967E+01;  4.0000000E+04;  0.0000000E+00;  3.7871750E+04;  2.6512960E-01;  0.0000000E+00; -1.1547041E-01;  8.2074906E+04;
  1.8098912E+00;  9.9999998E-03;  1.5466091E-01;9720;  1.0210503E+00;  0.0000000E+00; -2.6227001E-02;  9.8882581E+02;  1.2859769E-01; -8.4653281E+03;3;  1.7861496E+01;  0.0000000E+00; -6.1983290E+00;0;  3.3785087E-01;  2.4981014E+04;  0.0000000E+00;  7.3169304E+01;  4.0000000E+04;  0.0000000E+00;  3.7888172E+04;  4.3250260E-01;  0.0000000E+00; -9.4651744E-02;  7.7574156E+04;
  1.8102542E+00;  9.9999998E-03;  1.4399514E-01;9719;  1.0264313E+00;  0.0000000E+00; -2.3577267E-02;  9.9139514E+02;  1.2853822E-01; -6.5161162E+03;3; -2.4176823E+01;  0.0000000E+00; -1.0432138E+01;0;  5.4278386E-01;  2.5101035E+04;  0.0000000E+00;  6.7305946E+01;  4.0000000E+04;  0.0000000E+00;  3.7915215E+04;  6.1825591E-01;  0.0000000E+00; -7.5472057E-02;  6.8294516E+04;
  1.8107167E+00;  9.9999998E-03;  1.3324696E-01;9718;  1.0500023E+00;  0.0000000E+00; -2.5312865E-02;  9.9327649E+02;  1.2848529E-01; -5.0886890E+03;3; -8.5481560E+01;  0.0000000E+00;  8.7232456E+00;0;  7.7672976E-01;  2.5196793E+04;  0.0000000E+00;  5.6061283E+01;  4.0000000E+04;  0.0000000E+00;  3.7929645E+04;  8.4808463E-01;  0.0000000E+00; -7.1354859E-02;  5.5587699E+04;
  1.8113730E+00;  9.9999998E-03;  1.2257591E-01;9717;  1.0815793E+00;  0.0000000E+00; -3.1021664E-02;  9.9406262E+02;  1.2843513E-01; -4.4902432E+03;3; -9.4449226E+01;  0.0000000E+00;  2.0798109E+00;0;  9.9360812E-01;  2.5259768E+04;  0.0000000E+00;  4.1849754E+01;  4.0000000E+04;  0.0000000E+00;  3.7917848E+04;  1.0666950E+00;  0.0000000E+00; -7.3086835E-02;  4.1612605E+04;
  1.8122187E+00;  9.9999998E-03;  1.1209568E-01;9716;  1.1110919E+00;  0.0000000E+00; -3.3555083E-02;  9.9407214E+02;  1.2838973E-01; -4.4785371E+03;3; -9.7679436E+01;  0.0000000E+00; -4.4280572E+00;0;  1.1834190E+00;  2.5297932E+04;  0.0000000E+00;  2.7938295E+01;  4.0000000E+04;  0.0000000E+00;  3.7888117E+04;  1.2567575E+00;  0.0000000E+00; -7.3338561E-02;  2.8710996E+04;
  1.8131032E+00;  9.9999998E-03;  1.0180092E-01;9715;  1.1374711E+00;  0.0000000E+00; -3.3280827E-02;  9.9385687E+02;  1.2834550E-01; -4.6362793E+03;3; -9.8010300E+01;  0.0000000E+00; -9.4821501E+00;0;  1.3458283E+00;  2.5325789E+04;  0.0000000E+00;  1.6635473E+01;  4.0000000E+04;  0.0000000E+00;  3.7856184E+04;  1.4218918E+00;  0.0000000E+00; -7.6063558E-02;  1.8383025E+04;
  1.8138440E+00;  9.9999998E-03;  9.1629609E-02;9714;  1.1601539E+00;  0.0000000E+00; -3.1279970E-02;  9.9374255E+02;  1.2830815E-01; -4.7183354E+03;3; -9.5222511E+01;  0.0000000E+00; -1.2164369E+01;0;  1.4827081E+00;  2.5350391E+04;  0.0000000E+00;  8.5504541E+00;  4.0000000E+04;  0.0000000E+00;  3.7832824E+04;  1.5656086E+00;  0.0000000E+00; -8.2900554E-02;  1.0934757E+04;
  1.8143437E+00;  9.9999998E-03;  8.1525840E-02;9713;  1.1785179E+00;  0.0000000E+00; -2.8354140E-02;  9.9378033E+02;  1.2828271E-01; -4.6869927E+03;3; -9.0537254E+01;  0.0000000E+00; -1.3163990E+01;0;  1.5974635E+00;  2.5369020E+04;  0.0000000E+00;  3.3258443E+00;  4.0000000E+04;  0.0000000E+00;  3.7820852E+04;  1.6910900E+00;  0.0000000E+00; -9.3626544E-02;  6.0347705E+03;
  1.8145707E+00;  9.9999998E-03;  7.1448959E-02;9712;  1.1918880E+00;  0.0000000E+00; -2.4834443E-02;  9.9386768E+02;  1.2827165E-01; -4.6198647E+03;3; -8.5204597E+01;  0.0000000E+00; -1.3463722E+01;0;  1.6938593E+00;  2.5378029E+04;  0.0000000E+00;  3.3704591E-01;  4.0000000E+04;  0.0000000E+00;  3.7818059E+04;  1.8009905E+00;  0.0000000E+00; -1.0713106E-01;  3.1918494E+03;
  1.8177919E+00;  9.9999998E-03;  2.2679721E-01;9773;  1.0058278E+00;  0.0000000E+00; -2.4663504E-02;  1.0010529E+03;  1.2742449E-01;  7.9010443E+02;3;  5.1076698E+01;  0.0000000E+00;  2.1935492E+00;0; -5.7724828E-01;  2.6050309E+04;  0.0000000E+00;  3.5265450E+01;  4.0000000E+04;  0.0000000E+00;  3.7816691E+04; -4.6769679E-01;  0.0000000E+00; -1.0955147E-01;  7.9963408E+03;
  1.8185426E+00;  9.9999998E-03;  2.1670792E-01;9772;  1.0046250E+00;  0.0000000E+00; -2.5515025E-02;  9.9765466E+02;  1.2744199E-01; -1.7581460E+03;3;  4.5162815E+01;  0.0000000E+00;  1.6459436E+00;0; -5.3702438E-01;  2.5891842E+04;  0.0000000E+00; -1.7731866E+00;  4.0000000E+04;  0.0000000E+00;  3.7812383E+04; -3.9256078E-01;  0.0000000E+00; -1.4446361E-01;  3.8232739E+03;
  1.8190956E+00;  9.9999998E-03;  2.0658524E-01;9771;  1.0047177E+00;  0.0000000E+00; -2.5915394E-02;  9.9508691E+02;  1.2744837E-01; -3.6804424E+03;3;  3.8834000E+01;  0.0000000E+00;  9.3306732E-01;0; -4.6428776E-01;  2.5778201E+04;  0.0000000E+00; -5.1671638E+00;  4.0000000E+04;  0.0000000E+00;  3.7800691E+04; -2.9599705E-01;  0.0000000E+00; -1.6829069E-01;  8.4438887E+03;
  1.8196677E+00;  9.9999998E-03;  1.9644170E-01;9770;  1.0059760E+00;  0.0000000E+00; -2.5858209E-02;  9.9183734E+02;  1.2746172E-01; -6.1102397E+03;3;  3.2469009E+01;  0.0000000E+00; -4.4699883E-01;0; -3.5746542E-01;  2.5641006E+04;  0.0000000E+00;  1.2669770E+01;  4.0000000E+04;  0.0000000E+00;  3.7772875E+04; -1.7754468E-01;  0.0000000E+00; -1.7992073E-01;  2.8055100E+04;
  1.8202835E+00;  9.9999998E-03;  1.8627901E-01;9769;  1.0084108E+00;  0.0000000E+00; -2.5359087E-02;  9.8857745E+02;  1.2747683E-01; -8.5436514E+03;3;  2.5603952E+01;  0.0000000E+00; -2.4084892E+00;0; -2.1762457E-01;  2.5513859E+04;  0.0000000E+00;  3.4936180E+01;  4.0000000E+04;  0.0000000E+00;  3.7731418E+04; -3.8180463E-02;  0.0000000E+00; -1.7944412E-01;  4.7728980E+04;
  1.8208886E+00;  9.9999998E-03;  1.7608275E-01;9768;  1.0119771E+00;  0.0000000E+00; -2.4284540E-02;  9.8640924E+02;  1.2747675E-01; -1.0157359E+04;3;  1.9641178E+01;  0.0000000E+00; -6.4292440E+00;0; -4.8551954E-02;  2.5444264E+04;  0.0000000E+00;  5.3562855E+01;  4.0000000E+04;  0.0000000E+00;  3.7689336E+04;  1.1750650E-01;  0.0000000E+00; -1.6605845E-01;  6.2038633E+04;
  1.8214459E+00;  9.9999998E-03;  1.6582185E-01;9767;  1.0161734E+00;  0.0000000E+00; -2.2235261E-02;  9.8585315E+02;  1.2745641E-01; -1.0565265E+04;3;  1.6499363E+01;  0.0000000E+00; -1.2724903E+01;0;  1.4112230E-01;  2.5446502E+04;  0.0000000E+00;  6.6045807E+01;  4.0000000E+04;  0.0000000E+00;  3.7661688E+04;  2.8187639E-01;  0.0000000E+00; -1.4075409E-01;  6.9621578E+04;
  1.8219446E+00;  9.9999998E-03;  1.5545656E-01;9766;  1.0205799E+00;  0.0000000E+00; -1.8917067E-02;  9.8679865E+02;  1.2741914E-01; -9.8526592E+03;3;  1.4753362E+00;  0.0000000E+00; -2.0144136E+01;0;  3.4390306E-01;  2.5508781E+04;  0.0000000E+00;  7.2090790E+01;  4.0000000E+04;  0.0000000E+00;  3.7656906E+04;  4.5197317E-01;  0.0000000E+00; -1.0807011E-01;  7.0931836E+04;
  1.8223989E+00;  9.9999998E-03;  1.4495003E-01;9765;  1.0304707E+00;  0.0000000E+00; -1.4818477E-02;  9.8873889E+02;  1.2736890E-01; -8.3995244E+03;3; -4.4899883E+01;  0.0000000E+00; -2.0644373E+01;0;  5.7426333E-01;  2.5605902E+04;  0.0000000E+00;  7.2121071E+01;  4.0000000E+04;  0.0000000E+00;  3.7673785E+04;  6.5088278E-01;  0.0000000E+00; -7.6619469E-02;  6.7104508E+04;
  1.8228480E+00;  9.9999998E-03;  1.3430087E-01;9764;  1.0562859E+00;  0.0000000E+00; -1.5106244E-02;  9.9094159E+02;  1.2731789E-01; -6.7525312E+03;3; -9.5217384E+01;  0.0000000E+00; -2.2789593E+00;0;  8.3239484E-01;  2.5710404E+04;  0.0000000E+00;  6.6600395E+01;  4.0000000E+04;  0.0000000E+00;  3.7699785E+04;  8.9747179E-01;  0.0000000E+00; -6.5076947E-02;  5.9355320E+04;
  1.8233492E+00;  9.9999998E-03;  1.2358129E-01;9763;  1.0904595E+00;  0.0000000E+00; -2.0460812E-02;  9.9269385E+02;  1.2727109E-01; -5.4426758E+03;3; -1.0389442E+02;  0.0000000E+00; -4.3647861E+00;0;  1.0690393E+00;  2.5800158E+04;  0.0000000E+00;  5.6291969E+01;  4.0000000E+04;  0.0000000E+00;  3.7715691E+04;  1.1332157E+00;  0.0000000E+00; -6.4176261E-02;  4.8904664E+04;
  1.8239491E+00;  9.9999998E-03;  1.1291257E-01;9762;  1.1236141E+00;  0.0000000E+00; -2.4491394E-02;  9.9362006E+02;  1.2723032E-01; -4.7488809E+03;3; -1.0411698E+02;  0.0000000E+00; -1.0802705E+01;0;  1.2695531E+00;  2.5864121E+04;  0.0000000E+00;  4.3126022E+01;  4.0000000E+04;  0.0000000E+00;  3.7710691E+04;  1.3313776E+00;  0.0000000E+00; -6.1824601E-02;  3.7339562E+04;
  1.8246691E+00;  9.9999998E-03;  1.0239650E-01;9761;  1.1530524E+00;  0.0000000E+00; -2.5551926E-02;  9.9383337E+02;  1.2720197E-01; -4.5856240E+03;3; -1.0079683E+02;  0.0000000E+00; -1.4616447E+01;0;  1.4338071E+00;  2.5901824E+04;  0.0000000E+00;  2.9685678E+01;  4.0000000E+04;  0.0000000E+00;  3.7687711E+04;  1.4940252E+00;  0.0000000E+00; -6.0218051E-02;  2.6335359E+04;
  1.8253955E+00;  9.9999998E-03;  9.2040166E-02;9760;  1.1781955E+00;  0.0000000E+00; -2.4534620E-02;  9.9366284E+02;  1.2716784E-01; -4.7077686E+03;3; -9.6711632E+01;  0.0000000E+00; -1.6917391E+01;0;  1.5661254E+00;  2.5926850E+04;  0.0000000E+00;  1.8321041E+01;  4.0000000E+04;  0.0000000E+00;  3.7659766E+04;  1.6282743E+00;  0.0000000E+00; -6.2148895E-02;  1.7266469E+04;
  1.8260450E+00;  9.9999998E-03;  8.1803717E-02;9759;  1.1990745E+00;  0.0000000E+00; -2.2339478E-02;  9.9346729E+02;  1.2714173E-01; -4.8487236E+03;3; -9.0926491E+01;  0.0000000E+00; -1.7039343E+01;0;  1.6725752E+00;  2.5944402E+04;  0.0000000E+00;  9.8815641E+00;  4.0000000E+04;  0.0000000E+00;  3.7636395E+04;  1.7404677E+00;  0.0000000E+00; -6.7892469E-02;  1.0579924E+04;
  1.8265156E+00;  9.9999998E-03;  7.1638405E-02;9758;  1.2155360E+00;  0.0000000E+00; -1.9624840E-02;  9.9338806E+02;  1.2712213E-01; -4.9043325E+03;3; -8.4775970E+01;  0.0000000E+00; -1.6638733E+01;0;  1.7584832E+00;  2.5957748E+04;  0.0000000E+00;  4.3051805E+00;  4.0000000E+04;  0.0000000E+00;  3.7621895E+04;  1.8350580E+00;  0.0000000E+00; -7.6574825E-02;  6.2081929E+03;
  1.8304319E+00;  9.9999998E-03;  2.1711905E-01;9816;  9.9787426E-01;  0.0000000E+00; -1.9391308E-02;  1.0008867E+03;  1.2636624E-01;  6.5405908E+02;3;  4.5115040E+01;  0.0000000E+00; -8.4988050E+00;0; -5.4166603E-01;  2.6606482E+04;  0.0000000E+00;  4.2264679E+01;  4.0000000E+04;  0.0000000E+00;  3.7642598E+04; -4.1076910E-01;  0.0000000E+00; -1.3089691E-01;  1.1087804E+04;
  1.8311344E+00;  9.9999998E-03;  2.0703003E-01;9815;  9.9865109E-01;  0.0000000E+00; -1.9259203E-02;  9.9747192E+02;  1.2638460E-01; -1.8629432E+03;3;  3.7962513E+01;  0.0000000E+00; -9.2601032E+00;0; -4.7615537E-01;  2.6451258E+04;  0.0000000E+00; -7.4183756E-01;  4.0000000E+04;  0.0000000E+00;  3.7624617E+04; -3.1392449E-01;  0.0000000E+00; -1.6223088E-01;  3.7761711E+03;
  1.8316445E+00;  9.9999998E-03;  1.9689970E-01;9814;  1.0007062E+00;  0.0000000E+00; -1.8792067E-02;  9.9519214E+02;  1.2639718E-01; -3.5403245E+03;3;  3.0768099E+01;  0.0000000E+00; -1.1078505E+01;0; -3.7788564E-01;  2.6352260E+04;  0.0000000E+00; -8.4616070E+00;  4.0000000E+04;  0.0000000E+00;  3.7603910E+04; -1.9707748E-01;  0.0000000E+00; -1.8080816E-01;  5.0038047E+03;
  1.8321502E+00;  9.9999998E-03;  1.8674426E-01;9813;  1.0040426E+00;  0.0000000E+00; -1.7876437E-02;  9.9244257E+02;  1.2640880E-01; -5.5608804E+03;3;  2.2911211E+01;  0.0000000E+00; -1.3628566E+01;0; -2.4425477E-01;  2.6241736E+04;  0.0000000E+00;  7.2996731E+00;  4.0000000E+04;  0.0000000E+00;  3.7567641E+04; -5.9566319E-02;  0.0000000E+00; -1.8468845E-01;  2.0110055E+04;
  1.8326966E+00;  9.9999998E-03;  1.7656778E-01;9812;  1.0087558E+00;  0.0000000E+00; -1.6156165E-02;  9.8959772E+02;  1.2641968E-01; -7.6480015E+03;3;  1.5742360E+01;  0.0000000E+00; -1.8755838E+01;0; -7.4736565E-02;  2.6136764E+04;  0.0000000E+00;  2.9169802E+01;  4.0000000E+04;  0.0000000E+00;  3.7518590E+04;  9.5898792E-02;  0.0000000E+00; -1.7063536E-01;  3.6890320E+04;
  1.8332546E+00;  9.9999998E-03;  1.6635577E-01;9811;  1.0143601E+00;  0.0000000E+00; -1.3193334E-02;  9.8758649E+02;  1.2642375E-01; -9.1192070E+03;3;  7.6130447E+00;  0.0000000E+00; -2.6485600E+01;0;  1.2117341E-01;  2.6074234E+04;  0.0000000E+00;  4.7788097E+01;  4.0000000E+04;  0.0000000E+00;  3.7471535E+04;  2.6079085E-01;  0.0000000E+00; -1.3961744E-01;  4.9362277E+04;
  1.8337948E+00;  9.9999998E-03;  1.5607961E-01;9810;  1.0216508E+00;  0.0000000E+00; -8.5591637E-03;  9.8690118E+02;  1.2641175E-01; -9.6149658E+03;3; -1.3593404E+01;  0.0000000E+00; -3.3195568E+01;0;  3.4228173E-01;  2.6069572E+04;  0.0000000E+00;  6.0281487E+01;  4.0000000E+04;  0.0000000E+00;  3.7440453E+04;  4.3890750E-01;  0.0000000E+00; -9.6625775E-02;  5.6142621E+04;
  1.8343071E+00;  9.9999998E-03;  1.4570527E-01;9809;  1.0353112E+00;  0.0000000E+00; -3.6221072E-03;  9.8749347E+02;  1.2638290E-01; -9.1732002E+03;3; -5.6868279E+01;  0.0000000E+00; -3.0637943E+01;0;  5.9499162E-01;  2.6115139E+04;  0.0000000E+00;  6.6480087E+01;  4.0000000E+04;  0.0000000E+00;  3.7432695E+04;  6.5254253E-01;  0.0000000E+00; -5.7550900E-02;  5.7658383E+04;
  1.8347956E+00;  9.9999998E-03;  1.3520694E-01;9808;  1.0618278E+00;  0.0000000E+00; -2.4326767E-03;  9.8897107E+02;  1.2634431E-01; -8.0835083E+03;3; -9.9493874E+01;  0.0000000E+00; -1.4187054E+01;0;  8.7352836E-01;  2.6192312E+04;  0.0000000E+00;  6.7034500E+01;  4.0000000E+04;  0.0000000E+00;  3.7445109E+04;  9.1353226E-01;  0.0000000E+00; -4.0003885E-02;  5.4959633E+04;
  1.8352786E+00;  9.9999998E-03;  1.2458774E-01;9807;  1.0969627E+00;  0.0000000E+00; -6.7931009E-03;  9.9075891E+02;  1.2630181E-01; -6.7682168E+03;3; -1.1131872E+02;  0.0000000E+00; -1.1103567E+01;0;  1.1311208E+00;  2.6280057E+04;  0.0000000E+00;  6.2611881E+01;  4.0000000E+04;  0.0000000E+00;  3.7466922E+04;  1.1700864E+00;  0.0000000E+00; -3.8965534E-02;  4.9113324E+04;
  1.8357815E+00;  9.9999998E-03;  1.1390630E-01;9806;  1.1327685E+00;  0.0000000E+00; -1.1755461E-02;  9.9229840E+02;  1.2626405E-01; -5.6363779E+03;3; -1.0944232E+02;  0.0000000E+00; -1.3817958E+01;0;  1.3462205E+00;  2.6359092E+04;  0.0000000E+00;  5.3927418E+01;  4.0000000E+04;  0.0000000E+00;  3.7482062E+04;  1.3843186E+00;  0.0000000E+00; -3.8098071E-02;  4.1096410E+04;
  1.8363231E+00;  9.9999998E-03;  1.0325708E-01;9805;  1.1649070E+00;  0.0000000E+00; -1.4889310E-02;  9.9322528E+02;  1.2623252E-01; -4.9539863E+03;3; -1.0460316E+02;  0.0000000E+00; -1.7100607E+01;0;  1.5143378E+00;  2.6418480E+04;  0.0000000E+00;  4.2451641E+01;  4.0000000E+04;  0.0000000E+00;  3.7480520E+04;  1.5505838E+00;  0.0000000E+00; -3.6246076E-02;  3.2045094E+04;
  1.8368987E+00;  9.9999998E-03;  9.2715703E-02;9804;  1.1921676E+00;  0.0000000E+00; -1.5822440E-02;  9.9353876E+02;  1.2620933E-01; -4.7206201E+03;3; -9.8214012E+01;  0.0000000E+00; -1.7284029E+01;0;  1.6418803E+00;  2.6456436E+04;  0.0000000E+00;  3.0365152E+01;  4.0000000E+04;  0.0000000E+00;  3.7463906E+04;  1.6777589E+00;  0.0000000E+00; -3.5878710E-02;  2.3246016E+04;
  1.8374720E+00;  9.9999998E-03;  8.2280278E-02;9803;  1.2147807E+00;  0.0000000E+00; -1.5036526E-02;  9.9347998E+02;  1.2618990E-01; -4.7593682E+03;3; -9.1554588E+01;  0.0000000E+00; -1.7602072E+01;0;  1.7389451E+00;  2.6477572E+04;  0.0000000E+00;  1.9786322E+01;  4.0000000E+04;  0.0000000E+00;  3.7442352E+04;  1.7769397E+00;  0.0000000E+00; -3.7994638E-02;  1.5809185E+04;
  1.8379923E+00;  9.9999998E-03;  7.1905881E-02;9802;  1.2328318E+00;  0.0000000E+00; -1.3308226E-02;  9.9331085E+02;  1.2617594E-01; -4.8788857E+03;3; -8.4868546E+01;  0.0000000E+00; -1.7024818E+01;0;  1.8129673E+00;  2.6488068E+04;  0.0000000E+00;  1.1759028E+01;  4.0000000E+04;  0.0000000E+00;  3.7424418E+04;  1.8554585E+00;  0.0000000E+00; -4.2491216E-02;  1.0229702E+04;
  1.8429281E+00;  9.9999998E-03;  2.0741536E-01;9857;  9.9290788E-01;  0.0000000E+00; -9.8526264E-03;  1.0009598E+03;  1.2548831E-01;  6.9466229E+02;3;  3.7161564E+01;  0.0000000E+00; -2.1091932E+01;0; -4.7111034E-01;  2.7121211E+04;  0.0000000E+00;  5.3400234E+01;  4.0000000E+04;  0.0000000E+00;  3.7454676E+04; -3.6162654E-01;  0.0000000E+00; -1.0948382E-01;  1.4735241E+04;
  1.8436103E+00;  9.9999998E-03;  1.9732402E-01;9856;  9.9577981E-01;  0.0000000E+00; -8.6747324E-03;  9.9746106E+02;  1.2551332E-01; -1.8353887E+03;3;  2.8640156E+01;  0.0000000E+00; -2.3107574E+01;0; -3.8283026E-01;  2.6966352E+04;  0.0000000E+00;  3.7113147E+00;  4.0000000E+04;  0.0000000E+00;  3.7421375E+04; -2.4989426E-01;  0.0000000E+00; -1.3293599E-01;  3.4174255E+03;
  1.8440982E+00;  9.9999998E-03;  1.8717636E-01;9855;  1.0000837E+00;  0.0000000E+00; -7.2256909E-03;  9.9544952E+02;  1.2552108E-01; -3.2869150E+03;3;  1.9612593E+01;  0.0000000E+00; -2.6366533E+01;0; -2.6154298E-01;  2.6884486E+04;  0.0000000E+00; -1.1006625E+01;  4.0000000E+04;  0.0000000E+00;  3.7394461E+04; -1.1907616E-01;  0.0000000E+00; -1.4246681E-01;  3.1998318E+03;
  1.8445643E+00;  9.9999998E-03;  1.7699602E-01;9854;  1.0060130E+00;  0.0000000E+00; -4.8464229E-03;  9.9326752E+02;  1.2553036E-01; -4.8593247E+03;3;  1.0297508E+01;  0.0000000E+00; -3.2820332E+01;0; -9.9218681E-02;  2.6801904E+04;  0.0000000E+00; -4.5016760E-01;  4.0000000E+04;  0.0000000E+00;  3.7355371E+04;  3.0897062E-02;  0.0000000E+00; -1.3011575E-01;  1.1516568E+04;
  1.8450595E+00;  9.9999998E-03;  1.6679130E-01;9853;  1.0135049E+00;  0.0000000E+00; -8.4553834E-04;  9.9096649E+02;  1.2553971E-01; -6.5148462E+03;3; -2.8738837E+00;  0.0000000E+00; -4.0470394E+01;0;  1.0130768E-01;  2.6722369E+04;  0.0000000E+00;  1.8824980E+01;  4.0000000E+04;  0.0000000E+00;  3.7304676E+04;  1.9651383E-01;  0.0000000E+00; -9.5206149E-02;  2.4568439E+04;
  1.8455746E+00;  9.9999998E-03;  1.5655041E-01;9852;  1.0236742E+00;  0.0000000E+00;  4.7014938E-03;  9.8921021E+02;  1.2554319E-01; -7.7748550E+03;3; -2.5238724E+01;  0.0000000E+00; -4.5737831E+01;0;  3.3493990E-01;  2.6671164E+04;  0.0000000E+00;  3.6694328E+01;  4.0000000E+04;  0.0000000E+00;  3.7256262E+04;  3.8232139E-01;  0.0000000E+00; -4.7381483E-02;  3.5080871E+04;
  1.8460900E+00;  9.9999998E-03;  1.4625084E-01;9851;  1.0403056E+00;  0.0000000E+00;  1.0293760E-02;  9.8843640E+02;  1.2553659E-01; -8.3253018E+03;3; -6.4162804E+01;  0.0000000E+00; -4.1296417E+01;0;  6.0591429E-01;  2.6661756E+04;  0.0000000E+00;  4.9325848E+01;  4.0000000E+04;  0.0000000E+00;  3.7222203E+04;  6.1083472E-01;  0.0000000E+00; -4.9204230E-03;  4.1315078E+04;
  1.8465931E+00;  9.9999998E-03;  1.3586472E-01;9850;  1.0675215E+00;  0.0000000E+00;  1.2214968E-02;  9.8867755E+02;  1.2551570E-01; -8.1448408E+03;3; -1.0377672E+02;  0.0000000E+00; -2.4570753E+01;0;  9.0139711E-01;  2.6692312E+04;  0.0000000E+00;  5.6227592E+01;  4.0000000E+04;  0.0000000E+00;  3.7209414E+04;  8.8879299E-01;  0.0000000E+00;  1.2604091E-02;  4.3399285E+04;
  1.8470854E+00;  9.9999998E-03;  1.2537448E-01;9849;  1.1029906E+00;  0.0000000E+00;  8.4287962E-03;  9.8967841E+02;  1.2548958E-01; -7.4187783E+03;3; -1.1652243E+02;  0.0000000E+00; -1.3582326E+01;0;  1.1785333E+00;  2.6748865E+04;  0.0000000E+00;  5.7870811E+01;  4.0000000E+04;  0.0000000E+00;  3.7214637E+04;  1.1703708E+00;  0.0000000E+00;  8.1625273E-03;  4.2049336E+04;
  1.8475670E+00;  9.9999998E-03;  1.1478736E-01;9848;  1.1397825E+00;  0.0000000E+00;  2.8015864E-03;  9.9098004E+02;  1.2545840E-01; -6.4779580E+03;3; -1.1580805E+02;  0.0000000E+00; -1.2685238E+01;0;  1.4094359E+00;  2.6816643E+04;  0.0000000E+00;  5.5018021E+01;  4.0000000E+04;  0.0000000E+00;  3.7228105E+04;  1.4070960E+00;  0.0000000E+00;  2.3398020E-03;  3.8151449E+04;
  1.8480476E+00;  9.9999998E-03;  1.0414892E-01;9847;  1.1738397E+00;  0.0000000E+00; -2.5360375E-03;  9.9215619E+02;  1.2543076E-01; -5.6286802E+03;3; -1.0940894E+02;  0.0000000E+00; -1.2316363E+01;0;  1.5851257E+00;  2.6879770E+04;  0.0000000E+00;  4.8346672E+01;  4.0000000E+04;  0.0000000E+00;  3.7237891E+04;  1.5867527E+00;  0.0000000E+00; -1.6269475E-03;  3.2467463E+04;
  1.8485267E+00;  9.9999998E-03;  9.3529604E-02;9846;  1.2033458E+00;  0.0000000E+00; -6.0664588E-03;  9.9292419E+02;  1.2540971E-01; -5.0734390E+03;3; -1.0162670E+02;  0.0000000E+00; -1.4124284E+01;0;  1.7128345E+00;  2.6929557E+04;  0.0000000E+00;  3.9063614E+01;  4.0000000E+04;  0.0000000E+00;  3.7235258E+04;  1.7160500E+00;  0.0000000E+00; -3.2155472E-03;  2.5859639E+04;
  1.8489920E+00;  9.9999998E-03;  8.2957730E-02;9845;  1.2275195E+00;  0.0000000E+00; -7.4659609E-03;  9.9327429E+02;  1.2539175E-01; -4.8186235E+03;3; -9.4603745E+01;  0.0000000E+00; -1.6205648E+01;0;  1.8020612E+00;  2.6963764E+04;  0.0000000E+00;  2.9203215E+01;  4.0000000E+04;  0.0000000E+00;  3.7224574E+04;  1.8061444E+00;  0.0000000E+00; -4.0831175E-03;  1.9389129E+04;
  1.8494346E+00;  9.9999998E-03;  7.2367184E-02;9844;  1.2468210E+00;  0.0000000E+00; -7.0160320E-03;  9.9342554E+02;  1.2538259E-01; -4.7066802E+03;3; -8.7088203E+01;  0.0000000E+00; -1.7600506E+01;0;  1.8644716E+00;  2.6981951E+04;  0.0000000E+00;  2.0873318E+01;  4.0000000E+04;  0.0000000E+00;  3.7216266E+04;  1.8696306E+00;  0.0000000E+00; -5.1589957E-03;  1.3978734E+04;
  1.8559821E+00;  9.9999998E-03;  1.8756337E-01;9894;  9.9675995E-01;  0.0000000E+00;  6.8092202E-03;  9.9769995E+02;  1.2479126E-01; -1.6277349E+03;3;  1.6223192E+01;  0.0000000E+00; -4.1096096E+01;0; -2.5489488E-01;  2.7447932E+04;  0.0000000E+00;  1.4535758E+01;  4.0000000E+04;  0.0000000E+00;  3.7209141E+04; -2.1699533E-01;  0.0000000E+00; -3.7899546E-02;  4.1678604E+03;
  1.8564782E+00;  9.9999998E-03;  1.7739221E-01;9893;  1.0040859E+00;  0.0000000E+00;  1.0175133E-02;  9.9583209E+02;  1.2480035E-01; -2.9469985E+03;3;  4.9176683E+00;  0.0000000E+00; -4.8027950E+01;0; -1.0278173E-01;  2.7375363E+04;  0.0000000E+00; -1.0271474E+01;  4.0000000E+04;  0.0000000E+00;  3.7177332E+04; -7.7025153E-02;  0.0000000E+00; -2.5756577E-02;  3.8942446E+03;
  1.8569243E+00;  9.9999998E-03;  1.6717513E-01;9892;  1.0135478E+00;  0.0000000E+00;  1.5043331E-02;  9.9424133E+02;  1.2480623E-01; -4.0684519E+03;3; -1.1761813E+01;  0.0000000E+00; -5.4345531E+01;0;  9.3399748E-02;  2.7319266E+04;  0.0000000E+00; -8.4537868E+00;  4.0000000E+04;  0.0000000E+00;  3.7141555E+04;  8.4779546E-02;  0.0000000E+00;  8.6201988E-03;  4.3210815E+03;
  1.8573809E+00;  9.9999998E-03;  1.5692632E-01;9891;  1.0263560E+00;  0.0000000E+00;  2.1167303E-02;  9.9256268E+02;  1.2480954E-01; -5.2500327E+03;3; -3.6504505E+01;  0.0000000E+00; -5.5905521E+01;0;  3.3017892E-01;  2.7266711E+04;  0.0000000E+00;  5.8371701E+00;  4.0000000E+04;  0.0000000E+00;  3.7097125E+04;  2.7546528E-01;  0.0000000E+00;  5.4713622E-02;  1.2819942E+04;
  1.8578578E+00;  9.9999998E-03;  1.4664337E-01;9890;  1.0454766E+00;  0.0000000E+00;  2.6639216E-02;  9.9113922E+02;  1.2481280E-01; -6.2494170E+03;3; -7.3836334E+01;  0.0000000E+00; -4.7347469E+01;0;  6.0742241E-01;  2.7228551E+04;  0.0000000E+00;  2.1766302E+01;  4.0000000E+04;  0.0000000E+00;  3.7051652E+04;  5.1669788E-01;  0.0000000E+00;  9.0724513E-02;  2.1158932E+04;
  1.8583391E+00;  9.9999998E-03;  1.3631018E-01;9889;  1.0740060E+00;  0.0000000E+00;  2.8201271E-02;  9.9035333E+02;  1.2480808E-01; -6.7976816E+03;3; -1.1083693E+02;  0.0000000E+00; -2.4826595E+01;0;  9.1404539E-01;  2.7218631E+04;  0.0000000E+00;  3.4284512E+01;  4.0000000E+04;  0.0000000E+00;  3.7015824E+04;  8.1655526E-01;  0.0000000E+00;  9.7490117E-02;  2.6819156E+04;
  1.8588164E+00;  9.9999998E-03;  1.2590742E-01;9888;  1.1101124E+00;  0.0000000E+00;  2.3843123E-02;  9.9029480E+02;  1.2479658E-01; -6.8329082E+03;3; -1.2350721E+02;  0.0000000E+00; -8.6569138E+00;0;  1.2081602E+00;  2.7236658E+04;  0.0000000E+00;  4.1913174E+01;  4.0000000E+04;  0.0000000E+00;  3.6995410E+04;  1.1297656E+00;  0.0000000E+00;  7.8394562E-02;  2.9390742E+04;
  1.8592824E+00;  9.9999998E-03;  1.1542472E-01;9887;  1.1467379E+00;  0.0000000E+00;  1.6513728E-02;  9.9080951E+02;  1.2477957E-01; -6.4649658E+03;3; -1.2106778E+02;  0.0000000E+00; -4.9923844E+00;0;  1.4468368E+00;  2.7275273E+04;  0.0000000E+00;  4.4821545E+01;  4.0000000E+04;  0.0000000E+00;  3.6989195E+04;  1.3901787E+00;  0.0000000E+00;  5.6658197E-02;  2.9272191E+04;
  1.8597320E+00;  9.9999998E-03;  1.0487120E-01;9886;  1.1811570E+00;  0.0000000E+00;  9.5017646E-03;  9.9159241E+02;  1.2476005E-01; -5.9092993E+03;3; -1.1493648E+02;  0.0000000E+00; -6.2620683E+00;0;  1.6316092E+00;  2.7323705E+04;  0.0000000E+00;  4.3629002E+01;  4.0000000E+04;  0.0000000E+00;  3.6990004E+04;  1.5887045E+00;  0.0000000E+00;  4.2904694E-02;  2.7082494E+04;
  1.8601654E+00;  9.9999998E-03;  9.4281256E-02;9885;  1.2118056E+00;  0.0000000E+00;  3.7497636E-03;  9.9233832E+02;  1.2474208E-01; -5.3806982E+03;3; -1.0748835E+02;  0.0000000E+00; -1.0760613E+01;0;  1.7648685E+00;  2.7370219E+04;  0.0000000E+00;  3.9041359E+01;  4.0000000E+04;  0.0000000E+00;  3.6989348E+04;  1.7294126E+00;  0.0000000E+00;  3.5455965E-02;  2.3434732E+04;
  1.8605745E+00;  9.9999998E-03;  8.3674960E-02;9884;  1.2373453E+00;  0.0000000E+00;  4.8983400E-04;  9.9290491E+02;  1.2472840E-01; -4.9789712E+03;3; -9.9497925E+01;  0.0000000E+00; -1.5831429E+01;0;  1.8535641E+00;  2.7408723E+04;  0.0000000E+00;  3.2549313E+01;  4.0000000E+04;  0.0000000E+00;  3.6985898E+04;  1.8198218E+00;  0.0000000E+00;  3.3742294E-02;  1.9140656E+04;
  1.8609475E+00;  9.9999998E-03;  7.3004059E-02;9883;  1.2576138E+00;  0.0000000E+00; -3.0833849E-04;  9.9335992E+02;  1.2471636E-01; -4.6564014E+03;3; -9.1984978E+01;  0.0000000E+00; -2.1149038E+01;0;  1.9083121E+00;  2.7437498E+04;  0.0000000E+00;  2.6393414E+01;  4.0000000E+04;  0.0000000E+00;  3.6987254E+04;  1.8730910E+00;  0.0000000E+00;  3.5221081E-02;  1.5136451E+04;
  1.8682505E+00;  9.9999998E-03;  1.7771986E-01;9929;  1.0023468E+00;  0.0000000E+00;  2.8205430E-02;  9.9835846E+02;  1.2419021E-01; -1.1350115E+03;3; -2.2129810E-01;  0.0000000E+00; -5.9467831E+01;0; -8.4010288E-02;  2.7905449E+04;  0.0000000E+00;  3.5513443E+01;  4.0000000E+04;  0.0000000E+00;  3.6998559E+04; -2.2984791E-01;  0.0000000E+00;  1.4583762E-01;  8.7511943E+03;
  1.8687757E+00;  9.9999998E-03;  1.6752943E-01;9928;  1.0140387E+00;  0.0000000E+00;  3.3835221E-02;  9.9636841E+02;  1.2420430E-01; -2.5084221E+03;3; -2.2015804E+01;  0.0000000E+00; -6.0985558E+01;0;  1.0334007E-01;  2.7830744E+04;  0.0000000E+00; -1.5380752E+00;  4.0000000E+04;  0.0000000E+00;  3.6957984E+04; -7.3441215E-02;  0.0000000E+00;  1.7678128E-01;  3.8243823E+03;
  1.8692214E+00;  9.9999998E-03;  1.5727548E-01;9927;  1.0299699E+00;  0.0000000E+00;  3.9599281E-02;  9.9515289E+02;  1.2420800E-01; -3.3450374E+03;3; -5.3907017E+01;  0.0000000E+00; -5.6532581E+01;0;  3.3604205E-01;  2.7791672E+04;  0.0000000E+00; -1.1987886E+01;  4.0000000E+04;  0.0000000E+00;  3.6926375E+04;  1.2701283E-01;  0.0000000E+00;  2.0902923E-01;  3.3749006E+03;
  1.8696526E+00;  9.9999998E-03;  1.4697832E-01;9926;  1.0527160E+00;  0.0000000E+00;  4.3390777E-02;  9.9404523E+02;  1.2420752E-01; -4.1059282E+03;3; -9.5592361E+01;  0.0000000E+00; -3.6033375E+01;0;  6.1508006E-01;  2.7762111E+04;  0.0000000E+00; -6.0307302E+00;  4.0000000E+04;  0.0000000E+00;  3.6891195E+04;  3.9501050E-01;  0.0000000E+00;  2.2006957E-01;  4.2652769E+03;
  1.8700924E+00;  9.9999998E-03;  1.3664570E-01;9925;  1.0841973E+00;  0.0000000E+00;  4.1998148E-02;  9.9302875E+02;  1.2420902E-01; -4.8025459E+03;3; -1.2519807E+02;  0.0000000E+00; -7.2774458E+00;0;  9.2429352E-01;  2.7739562E+04;  0.0000000E+00;  5.7249560E+00;  4.0000000E+04;  0.0000000E+00;  3.6851984E+04;  7.2993338E-01;  0.0000000E+00;  1.9436012E-01;  9.5402490E+03;
  1.8705350E+00;  9.9999998E-03;  1.2627403E-01;9924;  1.1199642E+00;  0.0000000E+00;  3.5407536E-02;  9.9232385E+02;  1.2420812E-01; -5.2834463E+03;3; -1.2954848E+02;  0.0000000E+00;  3.8724041E+00;0;  1.2093146E+00;  2.7732650E+04;  0.0000000E+00;  1.6753006E+01;  4.0000000E+04;  0.0000000E+00;  3.6815211E+04;  1.0585861E+00;  0.0000000E+00;  1.5072848E-01;  1.4076093E+04;
  1.8709698E+00;  9.9999998E-03;  1.1585327E-01;9923;  1.1549922E+00;  0.0000000E+00;  2.7565243E-02;  9.9205383E+02;  1.2420283E-01; -5.4645439E+03;3; -1.2575388E+02;  0.0000000E+00;  1.3713409E+00;0;  1.4457784E+00;  2.7744238E+04;  0.0000000E+00;  2.4413038E+01;  4.0000000E+04;  0.0000000E+00;  3.6786523E+04;  1.3288128E+00;  0.0000000E+00;  1.1696556E-01;  1.6704104E+04;
  1.8713901E+00;  9.9999998E-03;  1.0537619E-01;9922;  1.1887233E+00;  0.0000000E+00;  1.9668531E-02;  9.9217407E+02;  1.2419479E-01; -5.3772559E+03;3; -1.2057610E+02;  0.0000000E+00; -3.3497083E+00;0;  1.6380471E+00;  2.7769629E+04;  0.0000000E+00;  2.8251919E+01;  4.0000000E+04;  0.0000000E+00;  3.6767379E+04;  1.5451998E+00;  0.0000000E+00;  9.2847340E-02;  1.7422895E+04;
  1.8717897E+00;  9.9999998E-03;  9.4846137E-02;9921;  1.2195001E+00;  0.0000000E+00;  1.3140716E-02;  9.9251849E+02;  1.2418450E-01; -5.1364575E+03;3; -1.1437264E+02;  0.0000000E+00; -9.1310577E+00;0;  1.7832094E+00;  2.7801650E+04;  0.0000000E+00;  2.8698219E+01;  4.0000000E+04;  0.0000000E+00;  3.6755383E+04;  1.7034870E+00;  0.0000000E+00;  7.9722390E-02;  1.6605951E+04;
  1.8721610E+00;  9.9999998E-03;  8.4257491E-02;9920;  1.2454751E+00;  0.0000000E+00;  9.0621281E-03;  9.9296509E+02;  1.2417305E-01; -4.8261880E+03;3; -1.0790218E+02;  0.0000000E+00; -1.6800390E+01;0;  1.8784738E+00;  2.7834871E+04;  0.0000000E+00;  2.6988850E+01;  4.0000000E+04;  0.0000000E+00;  3.6750562E+04;  1.8019315E+00;  0.0000000E+00;  7.6542258E-02;  1.4866384E+04;
  1.8724971E+00;  9.9999998E-03;  7.3604487E-02;9919;  1.2670840E+00;  0.0000000E+00;  7.8868791E-03;  9.9344855E+02;  1.2416416E-01; -4.4914468E+03;3; -1.0112228E+02;  0.0000000E+00; -2.3655767E+01;0;  1.9394627E+00;  2.7864125E+04;  0.0000000E+00;  2.4255190E+01;  4.0000000E+04;  0.0000000E+00;  3.6751926E+04;  1.8590225E+00;  0.0000000E+00;  8.0440223E-02;  1.2725534E+04;
  1.8804061E+00;  9.9999998E-03;  1.6777240E-01;9962;  1.0182662E+00;  0.0000000E+00;  4.9741138E-02;  9.9966437E+02;  1.2369160E-01; -2.2632494E+02;3; -6.3810123E+01;  0.0000000E+00; -3.8727894E+01;0;  1.4153694E-01;  2.8348582E+04;  0.0000000E+00;  6.8783104E+01;  4.0000000E+04;  0.0000000E+00;  3.6802355E+04; -2.0082618E-01;  0.0000000E+00;  3.4236312E-01;  1.6570162E+04;
  1.8809710E+00;  9.9999998E-03;  1.5757678E-01;9961;  1.0400178E+00;  0.0000000E+00;  5.3305916E-02;  9.9718311E+02;  1.2371302E-01; -1.8972051E+03;3; -1.0242258E+02;  0.0000000E+00; -2.0950907E+01;0;  3.9108235E-01;  2.8259646E+04;  0.0000000E+00;  1.9695707E+01;  4.0000000E+04;  0.0000000E+00;  3.6742230E+04;  4.8455078E-02;  0.0000000E+00;  3.4262726E-01;  5.5306758E+03;
  1.8814330E+00;  9.9999998E-03;  1.4730310E-01;9960;  1.0681437E+00;  0.0000000E+00;  5.3200074E-02;  9.9594427E+02;  1.2372010E-01; -2.7288428E+03;3; -1.2796560E+02;  0.0000000E+00; -8.8021308E-01;0;  6.7093766E-01;  2.8223047E+04;  0.0000000E+00; -5.2487402E+00;  4.0000000E+04;  0.0000000E+00;  3.6704773E+04;  3.5908994E-01;  0.0000000E+00;  3.1184772E-01;  3.9701362E+03;
  1.8818524E+00;  9.9999998E-03;  1.3696985E-01;9959;  1.1001481E+00;  0.0000000E+00;  4.9002666E-02;  9.9516980E+02;  1.2372062E-01; -3.2469758E+03;3; -1.3351068E+02;  0.0000000E+00;  5.6512804E+00;0;  9.4453466E-01;  2.8207055E+04;  0.0000000E+00; -1.1361089E+01;  4.0000000E+04;  0.0000000E+00;  3.6673613E+04;  6.8225205E-01;  0.0000000E+00;  2.6228264E-01;  3.2930264E+03;
  1.8822594E+00;  9.9999998E-03;  1.2659411E-01;9958;  1.1330740E+00;  0.0000000E+00;  4.2181000E-02;  9.9452228E+02;  1.2372194E-01; -3.6790339E+03;3; -1.3166113E+02;  0.0000000E+00;  4.7425957E+00;0;  1.1897272E+00;  2.8199164E+04;  0.0000000E+00; -7.3545208E+00;  4.0000000E+04;  0.0000000E+00;  3.6640281E+04;  9.7870737E-01;  0.0000000E+00;  2.1101983E-01;  2.6079434E+03;
  1.8826568E+00;  9.9999998E-03;  1.1617801E-01;9957;  1.1662819E+00;  0.0000000E+00;  3.4755234E-02;  9.9403052E+02;  1.2372044E-01; -4.0058496E+03;3; -1.2908806E+02;  0.0000000E+00;  1.9163243E+00;0;  1.4147664E+00;  2.8200533E+04;  0.0000000E+00; -6.1895642E-02;  4.0000000E+04;  0.0000000E+00;  3.6607094E+04;  1.2439258E+00;  0.0000000E+00;  1.7084061E-01;  4.5977930E+03;
  1.8830433E+00;  9.9999998E-03;  1.0572414E-01;9956;  1.1980015E+00;  0.0000000E+00;  2.7971625E-02;  9.9371680E+02;  1.2371789E-01; -4.2128604E+03;3; -1.2675500E+02;  0.0000000E+00; -2.2980361E+00;0;  1.6048632E+00;  2.8209762E+04;  0.0000000E+00;  6.4991484E+00;  4.0000000E+04;  0.0000000E+00;  3.6576844E+04;  1.4600809E+00;  0.0000000E+00;  1.4478236E-01;  6.6467354E+03;
  1.8834089E+00;  9.9999998E-03;  9.5220640E-02;9955;  1.2272192E+00;  0.0000000E+00;  2.2143776E-02;  9.9366833E+02;  1.2371427E-01; -4.2419741E+03;3; -1.2349596E+02;  0.0000000E+00; -8.4267292E+00;0;  1.7532579E+00;  2.8227967E+04;  0.0000000E+00;  1.1109708E+01;  4.0000000E+04;  0.0000000E+00;  3.6554047E+04;  1.6234496E+00;  0.0000000E+00;  1.2980832E-01;  7.8256792E+03;
  1.8837487E+00;  9.9999998E-03;  8.4658727E-02;9954;  1.2536238E+00;  0.0000000E+00;  1.8258240E-02;  9.9383820E+02;  1.2370908E-01; -4.1251074E+03;3; -1.1778032E+02;  0.0000000E+00; -1.5795939E+01;0;  1.8666561E+00;  2.8250396E+04;  0.0000000E+00;  1.3761780E+01;  4.0000000E+04;  0.0000000E+00;  3.6540469E+04;  1.7407362E+00;  0.0000000E+00;  1.2591977E-01;  8.1402588E+03;
  1.8840560E+00;  9.9999998E-03;  7.4044593E-02;9953;  1.2767299E+00;  0.0000000E+00;  1.6902411E-02;  9.9411914E+02;  1.2370261E-01; -3.9343613E+03;3; -1.1051842E+02;  0.0000000E+00; -2.1777267E+01;0;  1.9497538E+00;  2.8274111E+04;  0.0000000E+00;  1.4650799E+01;  4.0000000E+04;  0.0000000E+00;  3.6533902E+04;  1.8187472E+00;  0.0000000E+00;  1.3100654E-01;  7.7469346E+03;
  1.8930376E+00;  9.9999998E-03;  1.4751735E-01;9991;  1.0935597E+00;  0.0000000E+00;  5.2326787E-02;  9.9860486E+02;  1.2330563E-01; -9.1479834E+02;3; -1.3228937E+02;  0.0000000E+00;  7.2077096E-01;0;  7.9160881E-01;  2.8679855E+04;  0.0000000E+00;  5.5585239E+01;  4.0000000E+04;  0.0000000E+00;  3.6539758E+04;  4.7146222E-01;  0.0000000E+00;  3.2014659E-01;  1.2562062E+04;
  1.8935212E+00;  9.9999998E-03;  1.3724537E-01;9990;  1.1221516E+00;  0.0000000E+00;  4.9644068E-02;  9.9695520E+02;  1.2331932E-01; -1.9942264E+03;3; -1.3235106E+02;  0.0000000E+00;  1.6158727E+00;0;  1.0069675E+00;  2.8634025E+04;  0.0000000E+00;  1.7219511E+01;  4.0000000E+04;  0.0000000E+00;  3.6482574E+04;  7.1889567E-01;  0.0000000E+00;  2.8807181E-01;  5.1135210E+03;
  1.8939396E+00;  9.9999998E-03;  1.2689744E-01;9989;  1.1508938E+00;  0.0000000E+00;  4.5887966E-02;  9.9612085E+02;  1.2332467E-01; -2.5382524E+03;3; -1.3211928E+02;  0.0000000E+00;  1.3935505E+00;0;  1.2018406E+00;  2.8618934E+04;  0.0000000E+00; -2.8796060E+00;  4.0000000E+04;  0.0000000E+00;  3.6444977E+04;  9.4459873E-01;  0.0000000E+00;  2.5724185E-01;  3.5323022E+03;
  1.8943213E+00;  9.9999998E-03;  1.1649008E-01;9988;  1.1801175E+00;  0.0000000E+00;  4.0866937E-02;  9.9565027E+02;  1.2332430E-01; -2.8436699E+03;3; -1.3208647E+02;  0.0000000E+00; -9.6237564E-01;0;  1.3825967E+00;  2.8618285E+04;  0.0000000E+00; -9.9100828E+00;  4.0000000E+04;  0.0000000E+00;  3.6415129E+04;  1.1562870E+00;  0.0000000E+00;  2.2630975E-01;  3.1787266E+03;
  1.8946792E+00;  9.9999998E-03;  1.0603090E-01;9987;  1.2085335E+00;  0.0000000E+00;  3.5351265E-02;  9.9536011E+02;  1.2332141E-01; -3.0308604E+03;3; -1.3089874E+02;  0.0000000E+00; -3.9636559E+00;0;  1.5388136E+00;  2.8625025E+04;  0.0000000E+00; -9.6093435E+00;  4.0000000E+04;  0.0000000E+00;  3.6389727E+04;  1.3384236E+00;  0.0000000E+00;  2.0038997E-01;  2.2422190E+03;
  1.8950167E+00;  9.9999998E-03;  9.5527209E-02;9986;  1.2363528E+00;  0.0000000E+00;  3.0294290E-02;  9.9518921E+02;  1.2332047E-01; -3.1400786E+03;3; -1.2883710E+02;  0.0000000E+00; -8.9607887E+00;0;  1.6841729E+00;  2.8635441E+04;  0.0000000E+00; -6.3129163E+00;  4.0000000E+04;  0.0000000E+00;  3.6366516E+04;  1.5002205E+00;  0.0000000E+00;  1.8395239E-01;  1.5534084E+03;
  1.8953285E+00;  9.9999998E-03;  8.4982648E-02;9985;  1.2631156E+00;  0.0000000E+00;  2.6743369E-02;  9.9514532E+02;  1.2331980E-01; -3.1664282E+03;3; -1.2404220E+02;  0.0000000E+00; -1.4281103E+01;0;  1.8204234E+00;  2.8649799E+04;  0.0000000E+00; -2.6096931E+00;  4.0000000E+04;  0.0000000E+00;  3.6346590E+04;  1.6412489E+00;  0.0000000E+00;  1.7917442E-01;  1.7419858E+03;
  1.8956114E+00;  9.9999998E-03;  7.4395843E-02;9984;  1.2869649E+00;  0.0000000E+00;  2.5334097E-02;  9.9520966E+02;  1.2331866E-01; -3.1224343E+03;3; -1.1800926E+02;  0.0000000E+00; -1.8898104E+01;0;  1.9299730E+00;  2.8666471E+04;  0.0000000E+00;  3.9907432E-01;  4.0000000E+04;  0.0000000E+00;  3.6331555E+04;  1.7451010E+00;  0.0000000E+00;  1.8487200E-01;  2.1414497E+03;
  1.9054667E+00;  9.9999998E-03;  1.2706900E-01;10016;  1.1744068E+00;  0.0000000E+00;  4.5991797E-02;  9.9859967E+02;  1.2298659E-01; -8.9175122E+02;3; -1.3038701E+02;  0.0000000E+00; -5.6051674E+00;0;  1.2833024E+00;  2.9039133E+04;  0.0000000E+00;  5.6421341E+01;  4.0000000E+04;  0.0000000E+00;  3.6279758E+04;  1.0067689E+00;  0.0000000E+00;  2.7653345E-01;  1.1871223E+04;
  1.9058883E+00;  9.9999998E-03;  1.1672939E-01;10015;  1.1995418E+00;  0.0000000E+00;  4.3412242E-02;  9.9735596E+02;  1.2299801E-01; -1.6820427E+03;3; -1.3073982E+02;  0.0000000E+00; -6.2417407E+00;0;  1.4067510E+00;  2.9013889E+04;  0.0000000E+00;  2.4124660E+01;  4.0000000E+04;  0.0000000E+00;  3.6223516E+04;  1.1439998E+00;  0.0000000E+00;  2.6275119E-01;  5.8207290E+03;
  1.9062552E+00;  9.9999998E-03;  1.0631968E-01;10014;  1.2250342E+00;  0.0000000E+00;  4.0133525E-02;  9.9670734E+02;  1.2300313E-01; -2.0928130E+03;3; -1.3069669E+02;  0.0000000E+00; -8.3732862E+00;0;  1.5281485E+00;  2.9008758E+04;  0.0000000E+00;  4.8871613E+00;  4.0000000E+04;  0.0000000E+00;  3.6185410E+04;  1.2799577E+00;  0.0000000E+00;  2.4819091E-01;  3.1826155E+03;
  1.9065833E+00;  9.9999998E-03;  9.5845461E-02;10013;  1.2501404E+00;  0.0000000E+00;  3.7110738E-02;  9.9639392E+02;  1.2300349E-01; -2.2901936E+03;3; -1.2904549E+02;  0.0000000E+00; -1.1498809E+01;0;  1.6469249E+00;  2.9013455E+04;  0.0000000E+00; -4.7249613E+00;  4.0000000E+04;  0.0000000E+00;  3.6159047E+04;  1.4073150E+00;  0.0000000E+00;  2.3960982E-01;  2.6565356E+03;
  1.9068780E+00;  9.9999998E-03;  8.5319176E-02;10012;  1.2745664E+00;  0.0000000E+00;  3.4529880E-02;  9.9626147E+02;  1.2300240E-01; -2.3726150E+03;3; -1.2576398E+02;  0.0000000E+00; -1.4857853E+01;0;  1.7646455E+00;  2.9024053E+04;  0.0000000E+00; -8.2723475E+00;  4.0000000E+04;  0.0000000E+00;  3.6138672E+04;  1.5276840E+00;  0.0000000E+00;  2.3696147E-01;  2.3969492E+03;
  1.9071394E+00;  9.9999998E-03;  7.4754812E-02;10011;  1.2974286E+00;  0.0000000E+00;  3.2192554E-02;  9.9623486E+02;  1.2299924E-01; -2.3880129E+03;3; -1.2098985E+02;  0.0000000E+00; -1.7832024E+01;0;  1.8732634E+00;  2.9038639E+04;  0.0000000E+00; -8.6194220E+00;  4.0000000E+04;  0.0000000E+00;  3.6121414E+04;  1.6346328E+00;  0.0000000E+00;  2.3863050E-01;  1.9518627E+03;
  1.9180446E+00;  9.9999998E-03;  9.6034735E-02;10035;  1.2692293E+00;  0.0000000E+00;  4.1311983E-02;  9.9815375E+02;  1.2273293E-01; -1.1399781E+03;3; -1.2336107E+02;  0.0000000E+00; -1.8990313E+01;0;  1.6811801E+00;  2.9388148E+04;  0.0000000E+00;  3.8283070E+01;  4.0000000E+04;  0.0000000E+00;  3.5972070E+04;  1.3931636E+00;  0.0000000E+00;  2.8801653E-01;  7.6039863E+03;
  1.9183486E+00;  9.9999998E-03;  8.5573144E-02;10034;  1.2914139E+00;  0.0000000E+00;  4.0785875E-02;  9.9758643E+02;  1.2273940E-01; -1.4891417E+03;3; -1.2211237E+02;  0.0000000E+00; -2.1890989E+01;0;  1.7804450E+00;  2.9386758E+04;  0.0000000E+00;  1.9200739E+01;  4.0000000E+04;  0.0000000E+00;  3.5933492E+04;  1.4840182E+00;  0.0000000E+00;  2.9642674E-01;  4.3523784E+03;
  1.9186107E+00;  9.9999998E-03;  7.5060226E-02;10033;  1.3122102E+00;  0.0000000E+00;  3.9680392E-02;  9.9729071E+02;  1.2274388E-01; -1.6704908E+03;3; -1.1668198E+02;  0.0000000E+00; -1.9085297E+01;0;  1.8693571E+00;  2.9391961E+04;  0.0000000E+00;  7.3792057E+00;  4.0000000E+04;  0.0000000E+00;  3.5905789E+04;  1.5675093E+00;  0.0000000E+00;  3.0184776E-01;  2.5559651E+03;
  2.5823247E-03;  9.9999998E-03;  2.3990785E-01;2501;  2.0224941E-03;  0.0000000E+00;  4.7055649E-04;  9.8968323E+02;  1.0000000E-01; -8.5472646E+03;3;  7.5859779E+01;  0.0000000E+00; -2.3677206E+01;0; -5.6224563E-03;  3.9166555E+04;  0.0000000E+00; -4.7843006E-01;  4.0000000E+04;  0.0000000E+00;  4.0020309E+04; -5.3785257E-03;  0.0000000E+00; -2.4393067E-04;  3.4712542E+03;
  2.1768936E-03;  9.9999998E-03;  2.4987221E-01;2502;  1.8291058E-03;  0.0000000E+00;  4.3066306E-04;  9.9079077E+02;  1.0000000E-01; -7.6296606E+03;3;  6.6085541E+01;  0.0000000E+00; -2.5558388E+01;0; -5.0732717E-03;  3.9255121E+04;  0.0000000E+00; -4.0118861E-01;  4.0000000E+04;  0.0000000E+00;  4.0017547E+04; -4.6355352E-03;  0.0000000E+00; -4.3773651E-04;  2.9407517E+03;
  1.7226220E-03;  9.9999998E-03;  2.5983736E-01;2503;  1.5423244E-03;  0.0000000E+00;  3.7831403E-04;  9.9194897E+02;  1.0000000E-01; -6.6701323E+03;3;  5.5030586E+01;  0.0000000E+00; -2.7279066E+01;0; -4.5492733E-03;  3.9350598E+04;  0.0000000E+00; -3.2722619E-01;  4.0000000E+04;  0.0000000E+00;  4.0009914E+04; -3.9442610E-03;  0.0000000E+00; -6.0501223E-04;  2.0968965E+03;
  1.2348022E-03;  9.9999998E-03;  2.6981843E-01;2504;  1.1669524E-03;  0.0000000E+00;  3.2674425E-04;  9.9313403E+02;  1.0000000E-01; -5.6883330E+03;3;  4.3669247E+01;  0.0000000E+00; -2.8922552E+01;0; -4.0545524E-03;  3.9449422E+04;  0.0000000E+00; -2.6849633E-01;  4.0000000E+04;  0.0000000E+00;  4.0002648E+04; -3.3221319E-03;  0.0000000E+00; -7.3242030E-04;  1.0443943E+03;
  7.4892188E-04;  9.9999998E-03;  2.7983117E-01;2505;  7.2078855E-04;  0.0000000E+00;  2.8864390E-04;  9.9428821E+02;  1.0000000E-01; -4.7321133E+03;3;  3.3251484E+01;  0.0000000E+00; -3.0479658E+01;0; -3.5897223E-03;  3.9547742E+04;  0.0000000E+00; -2.3000382E-01;  4.0000000E+04;  0.0000000E+00;  3.9995121E+04; -2.7781320E-03;  0.0000000E+00; -8.1159029E-04;  3.7164984E+02;
  2.8341086E-04;  9.9999998E-03;  2.8990534E-01;2506;  2.3928146E-04;  0.0000000E+00;  2.7571895E-04;  9.9538464E+02;  1.0000000E-01; -3.8237437E+03;3;  2.4523451E+01;  0.0000000E+00; -3.1364496E+01;0; -3.1463858E-03;  3.9641102E+04;  0.0000000E+00; -2.0854700E-01;  4.0000000E+04;  0.0000000E+00;  3.9987293E+04; -2.3071843E-03;  0.0000000E+00; -8.3920162E-04;  1.2651685E+03;
  1.2379562E-02;  9.9999998E-03;  2.3990701E-01;2561;  1.3092394E-03;  0.0000000E+00;  2.7590420E-04;  9.9160779E+02;  1.0000000E-01; -6.9527910E+03;3;  5.6273087E+01;  0.0000000E+00; -1.9472479E+01;0; -7.5558289E-03;  3.9315117E+04;  0.0000000E+00; -5.9235060E-01;  4.0000000E+04;  0.0000000E+00;  4.0022984E+04; -7.3619252E-03;  0.0000000E+00; -1.9390375E-04;  3.5653450E+03;
  1.2024462E-02;  9.9999998E-03;  2.4985956E-01;2562;  1.2176874E-03;  0.0000000E+00;  2.4486135E-04;  9.9244629E+02;  1.0000000E-01; -6.2580947E+03;3;  4.9742966E+01;  0.0000000E+00; -2.1088297E+01;0; -6.8744598E-03;  3.9382547E+04;  0.0000000E+00; -4.8197430E-01;  4.0000000E+04;  0.0000000E+00;  4.0019461E+04; -6.4582666E-03;  0.0000000E+00; -4.1619330E-04;  3.1179194E+03;
  1.1611408E-02;  9.9999998E-03;  2.5980872E-01;2563;  1.0367375E-03;  0.0000000E+00;  2.0462839E-04;  9.9334271E+02;  1.0000000E-01; -5.5154487E+03;3;  4.1695717E+01;  0.0000000E+00; -2.2863615E+01;0; -6.1911866E-03;  3.9456863E+04;  0.0000000E+00; -3.8166764E-01;  4.0000000E+04;  0.0000000E+00;  4.0012613E+04; -5.5757156E-03;  0.0000000E+00; -6.1547104E-04;  2.3172681E+03;
  1.1148429E-02;  9.9999998E-03;  2.6976919E-01;2564;  7.7269919E-04;  0.0000000E+00;  1.6100868E-04;  9.9425220E+02;  1.0000000E-01; -4.7619395E+03;3;  3.3091427E+01;  0.0000000E+00; -2.5102547E+01;0; -5.5131288E-03;  3.9535918E+04;  0.0000000E+00; -3.0900621E-01;  4.0000000E+04;  0.0000000E+00;  4.0004926E+04; -4.7399928E-03;  0.0000000E+00; -7.7313586E-04;  1.2537732E+03;
  1.0679633E-02;  9.9999998E-03;  2.7975181E-01;2565;  4.3763791E-04;  0.0000000E+00;  1.2871357E-04;  9.9516016E+02;  1.0000000E-01; -4.0097139E+03;3;  2.4874466E+01;  0.0000000E+00; -2.7719799E+01;0; -4.8495382E-03;  3.9615172E+04;  0.0000000E+00; -2.7019346E-01;  4.0000000E+04;  0.0000000E+00;  3.9996641E+04; -3.9728307E-03;  0.0000000E+00; -8.7670755E-04;  3.8217038E+02;
  1.0247374E-02;  9.9999998E-03;  2.8977266E-01;2566;  6.4349821E-05;  0.0000000E+00;  1.1652980E-04;  9.9602985E+02;  1.0000000E-01; -3.2891909E+03;3;  1.7916462E+01;  0.0000000E+00; -3.0122225E+01;0; -4.2054257E-03;  3.9692508E+04;  0.0000000E+00; -2.5776890E-01;  4.0000000E+04;  0.0000000E+00;  3.9988090E+04; -3.2849342E-03;  0.0000000E+00; -9.2049164E-04;  1.2628857E+03;
  9.8789120E-03;  9.9999998E-03;  2.9984391E-01;2567; -2.0140452E-04;  0.0000000E+00;  1.0262337E-04;  9.9683600E+02;  1.0000000E-01; -2.6213086E+03;3;  1.1752791E+01;  0.0000000E+00; -3.0914318E+01;0; -3.5862732E-03;  3.9762777E+04;  0.0000000E+00; -2.5458041E-01;  4.0000000E+04;  0.0000000E+00;  3.9980988E+04; -2.6828635E-03;  0.0000000E+00; -9.0340967E-04;  2.1727153E+03;
  2.2131454E-02;  9.9999998E-03;  2.3996030E-01;2622;  6.0658413E-04;  0.0000000E+00;  1.6408453E-04;  9.9384515E+02;  1.0000000E-01; -5.0991646E+03;3;  3.5256721E+01;  0.0000000E+00; -1.3615700E+01;0; -9.1611082E-03;  3.9489168E+04;  0.0000000E+00; -7.0053214E-01;  4.0000000E+04;  0.0000000E+00;  4.0023035E+04; -9.0269987E-03;  0.0000000E+00; -1.3410996E-04;  3.5349199E+03;
  2.1820318E-02;  9.9999998E-03;  2.4991344E-01;2623;  6.0521602E-04;  0.0000000E+00;  1.4137141E-04;  9.9438507E+02;  1.0000000E-01; -4.6518687E+03;3;  3.2191750E+01;  0.0000000E+00; -1.4601823E+01;0; -8.3910003E-03;  3.9532918E+04;  0.0000000E+00; -5.7424188E-01;  4.0000000E+04;  0.0000000E+00;  4.0021445E+04; -8.0065932E-03;  0.0000000E+00; -3.8440744E-04;  3.2113257E+03;
  2.1447593E-02;  9.9999998E-03;  2.5985846E-01;2624;  5.2069942E-04;  0.0000000E+00;  1.0919420E-04;  9.9497412E+02;  1.0000000E-01; -4.1638330E+03;3;  2.7632523E+01;  0.0000000E+00; -1.6134075E+01;0; -7.5956467E-03;  3.9583211E+04;  0.0000000E+00; -4.6160561E-01;  4.0000000E+04;  0.0000000E+00;  4.0015586E+04; -6.9789835E-03;  0.0000000E+00; -6.1666308E-04;  2.5115762E+03;
  2.1014001E-02;  9.9999998E-03;  2.6981223E-01;2625;  3.5536540E-04;  0.0000000E+00;  7.3719784E-05;  9.9558905E+02;  1.0000000E-01; -3.6543657E+03;3;  2.2234285E+01;  0.0000000E+00; -1.8626123E+01;0; -6.7812628E-03;  3.9638465E+04;  0.0000000E+00; -3.8380936E-01;  4.0000000E+04;  0.0000000E+00;  4.0007852E+04; -5.9740539E-03;  0.0000000E+00; -8.0720882E-04;  1.5116477E+03;
  2.0558292E-02;  9.9999998E-03;  2.7978647E-01;2626;  1.1887834E-04;  0.0000000E+00;  4.7684203E-05;  9.9621027E+02;  1.0000000E-01; -3.1397136E+03;3;  1.6818802E+01;  0.0000000E+00; -2.2097790E+01;0; -5.9598195E-03;  3.9695965E+04;  0.0000000E+00; -3.4764314E-01;  4.0000000E+04;  0.0000000E+00;  3.9999371E+04; -5.0216825E-03;  0.0000000E+00; -9.3813706E-04;  5.3104926E+02;
  2.0134266E-02;  9.9999998E-03;  2.8978872E-01;2627; -1.1008660E-04;  0.0000000E+00;  1.9944542E-05;  9.9682953E+02;  1.0000000E-01; -2.6266912E+03;3;  1.1615829E+01;  0.0000000E+00; -2.5594196E+01;0; -5.1494706E-03;  3.9753355E+04;  0.0000000E+00; -3.4239644E-01;  4.0000000E+04;  0.0000000E+00;  3.9989922E+04; -4.1497895E-03;  0.0000000E+00; -9.9968142E-04;  1.1088213E+03;
  1.9788915E-02;  9.9999998E-03;  2.9982296E-01;2628; -3.2947527E-04;  0.0000000E+00; -7.8728681E-06;  9.9741449E+02;  1.0000000E-01; -2.1420630E+03;3;  7.3454075E+00;  0.0000000E+00; -2.7938845E+01;0; -4.3596877E-03;  3.9807938E+04;  0.0000000E+00; -3.4477198E-01;  4.0000000E+04;  0.0000000E+00;  3.9982305E+04; -3.3666338E-03;  0.0000000E+00; -9.9305413E-04;  2.0658796E+03;
  3.1901781E-02;  9.9999998E-03;  2.4000436E-01;2683;  3.2483946E-05;  0.0000000E+00;  1.0565631E-04;  9.9606616E+02;  1.0000000E-01; -3.2591177E+03;3;  1.6943066E+01;  0.0000000E+00; -7.0466275E+00;0; -1.0322731E-02;  3.9665184E+04;  0.0000000E+00; -7.4325049E-01;  4.0000000E+04;  0.0000000E+00;  4.0023129E+04; -1.0268121E-02;  0.0000000E+00; -5.4610180E-05;  3.3374006E+03;
  3.1630691E-02;  9.9999998E-03;  2.4996437E-01;2684;  9.5052274E-05;  0.0000000E+00;  9.3003800E-05;  9.9631427E+02;  1.0000000E-01; -3.0535432E+03;3;  1.6875393E+01;  0.0000000E+00; -7.2394233E+00;0; -9.5037222E-03;  3.9684367E+04;  0.0000000E+00; -6.2718773E-01;  4.0000000E+04;  0.0000000E+00;  4.0022094E+04; -9.1707315E-03;  0.0000000E+00; -3.3299063E-04;  3.1667124E+03;
  3.1290874E-02;  9.9999998E-03;  2.5991440E-01;2685;  8.2924962E-05;  0.0000000E+00;  6.8484755E-05;  9.9659875E+02;  1.0000000E-01; -2.8178462E+03;3;  1.5472714E+01;  0.0000000E+00; -8.3263617E+00;0; -8.6435024E-03;  3.9710590E+04;  0.0000000E+00; -5.2698249E-01;  4.0000000E+04;  0.0000000E+00;  4.0017375E+04; -8.0429148E-03;  0.0000000E+00; -6.0058793E-04;  2.6116780E+03;
  3.0879935E-02;  9.9999998E-03;  2.6987317E-01;2686; -4.2810639E-06;  0.0000000E+00;  3.6801823E-05;  9.9691882E+02;  1.0000000E-01; -2.5527180E+03;3;  1.3085462E+01;  0.0000000E+00; -1.0852263E+01;0; -7.7452362E-03;  3.9741379E+04;  0.0000000E+00; -4.6380821E-01;  4.0000000E+04;  0.0000000E+00;  4.0009773E+04; -6.9172936E-03;  0.0000000E+00; -8.2794245E-04;  1.7298667E+03;
  3.0432196E-02;  9.9999998E-03;  2.7985296E-01;2687; -1.2383574E-04;  0.0000000E+00; -4.7526792E-06;  9.9726117E+02;  1.0000000E-01; -2.2690715E+03;3;  9.8936481E+00;  0.0000000E+00; -1.4704109E+01;0; -6.8235542E-03;  3.9776406E+04;  0.0000000E+00; -4.4259924E-01;  4.0000000E+04;  0.0000000E+00;  4.0001855E+04; -5.8327508E-03;  0.0000000E+00; -9.9080335E-04;  7.7828033E+02;
  3.0002939E-02;  9.9999998E-03;  2.8986081E-01;2688; -2.8722908E-04;  0.0000000E+00; -5.6355766E-05;  9.9762183E+02;  1.0000000E-01; -1.9702653E+03;3;  6.8345408E+00;  0.0000000E+00; -1.9098051E+01;0; -5.8912393E-03;  3.9813797E+04;  0.0000000E+00; -4.4886872E-01;  4.0000000E+04;  0.0000000E+00;  3.9992480E+04; -4.8154704E-03;  0.0000000E+00; -1.0757686E-03;  9.5764044E+02;
  2.9673735E-02;  9.9999998E-03;  2.9988030E-01;2689; -4.8204546E-04;  0.0000000E+00; -9.3169809E-05;  9.9798920E+02;  1.0000000E-01; -1.6659282E+03;3;  4.4665375E+00;  0.0000000E+00; -2.2937473E+01;0; -4.9740281E-03;  3.9851266E+04;  0.0000000E+00; -4.5505702E-01;  4.0000000E+04;  0.0000000E+00;  3.9984859E+04; -3.8902534E-03;  0.0000000E+00; -1.0837745E-03;  1.8651621E+03;
  4.1700404E-02;  9.9999998E-03;  2.4002911E-01;2744; -3.0451611E-04;  0.0000000E+00;  7.8603218E-05;  9.9800397E+02;  1.0000000E-01; -1.6536816E+03;3;  2.6110995E+00;  0.0000000E+00; -5.8596027E-01;0; -1.1002115E-02;  3.9821195E+04;  0.0000000E+00; -6.6032362E-01;  4.0000000E+04;  0.0000000E+00;  4.0022043E+04; -1.1050482E-02;  0.0000000E+00;  4.8367176E-05;  2.9912310E+03;
  4.1466229E-02;  9.9999998E-03;  2.4999887E-01;2745; -2.1784309E-04;  0.0000000E+00;  7.0957773E-05;  9.9799744E+02;  1.0000000E-01; -1.6590642E+03;3;  5.0039363E+00;  0.0000000E+00;  1.2350967E-01;0; -1.0171310E-02;  3.9818871E+04;  0.0000000E+00; -5.8362234E-01;  4.0000000E+04;  0.0000000E+00;  4.0021199E+04; -9.9127302E-03;  0.0000000E+00; -2.5858011E-04;  2.9899958E+03;
  4.1157786E-02;  9.9999998E-03;  2.5995705E-01;2746; -1.8950942E-04;  0.0000000E+00;  4.9418635E-05;  9.9801544E+02;  1.0000000E-01; -1.6441510E+03;3;  6.0686140E+00;  0.0000000E+00; -3.8082883E-01;0; -9.2934491E-03;  3.9822207E+04;  0.0000000E+00; -5.2731150E-01;  4.0000000E+04;  0.0000000E+00;  4.0018629E+04; -8.7291272E-03;  0.0000000E+00; -5.6432176E-04;  2.6049148E+03;
  4.0771116E-02;  9.9999998E-03;  2.6992187E-01;2747; -2.2134205E-04;  0.0000000E+00;  1.3496471E-05;  9.9806714E+02;  1.0000000E-01; -1.6013374E+03;3;  5.9903269E+00;  0.0000000E+00; -2.7057207E+00;0; -8.3665792E-03;  3.9831051E+04;  0.0000000E+00; -5.0749451E-01;  4.0000000E+04;  0.0000000E+00;  4.0012273E+04; -7.5333766E-03;  0.0000000E+00; -8.3320303E-04;  1.8726656E+03;
  4.0332511E-02;  9.9999998E-03;  2.7991083E-01;2748; -3.1213232E-04;  0.0000000E+00; -3.8291222E-05;  9.9815912E+02;  1.0000000E-01; -1.5251421E+03;3;  5.2045112E+00;  0.0000000E+00; -6.8907676E+00;0; -7.3959380E-03;  3.9845297E+04;  0.0000000E+00; -5.2330983E-01;  4.0000000E+04;  0.0000000E+00;  4.0004199E+04; -6.3612061E-03;  0.0000000E+00; -1.0347320E-03;  1.0117681E+03;
  3.9893948E-02;  9.9999998E-03;  2.8993702E-01;2749; -4.5477907E-04;  0.0000000E+00; -9.7144497E-05;  9.9829169E+02;  1.0000000E-01; -1.4153180E+03;3;  4.2092900E+00;  0.0000000E+00; -1.2241751E+01;0; -6.3971886E-03;  3.9864617E+04;  0.0000000E+00; -5.5463195E-01;  4.0000000E+04;  0.0000000E+00;  3.9994648E+04; -5.2469741E-03;  0.0000000E+00; -1.1502148E-03;  8.9895221E+02;
  3.9575931E-02;  9.9999998E-03;  2.9995251E-01;2750; -6.3278718E-04;  0.0000000E+00; -1.3732327E-04;  9.9846216E+02;  1.0000000E-01; -1.2740874E+03;3;  3.2847044E+00;  0.0000000E+00; -1.7414261E+01;0; -5.4052882E-03;  3.9885859E+04;  0.0000000E+00; -5.7042462E-01;  4.0000000E+04;  0.0000000E+00;  3.9987254E+04; -4.2271679E-03;  0.0000000E+00; -1.1781205E-03;  1.6695472E+03;
  5.1524997E-02;  9.9999998E-03;  2.4004246E-01;2805; -5.7136640E-04;  0.0000000E+00;  6.7597641E-05;  9.9949176E+02;  1.0000000E-01; -4.2107452E+02;3; -5.1907039E+00;  0.0000000E+00;  4.8252115E+00;0; -1.1195178E-02;  3.9942215E+04;  0.0000000E+00; -4.1902697E-01;  4.0000000E+04;  0.0000000E+00;  4.0020254E+04; -1.1367811E-02;  0.0000000E+00;  1.7263267E-04;  2.5740608E+03;
  5.1326614E-02;  9.9999998E-03;  2.5002268E-01;2806; -4.4536986E-04;  0.0000000E+00;  7.9978825E-05;  9.9927545E+02;  1.0000000E-01; -6.0027930E+02;3; -1.6639001E+00;  0.0000000E+00;  6.3834267E+00;0; -1.0402716E-02;  3.9922113E+04;  0.0000000E+00; -4.0706107E-01;  4.0000000E+04;  0.0000000E+00;  4.0021008E+04; -1.0239731E-02;  0.0000000E+00; -1.6298518E-04;  2.7379641E+03;
  5.1049631E-02;  9.9999998E-03;  2.5999001E-01;2807; -3.8590262E-04;  0.0000000E+00;  6.3329797E-05;  9.9907837E+02;  1.0000000E-01; -7.6353394E+02;3;  8.5698980E-01;  0.0000000E+00;  6.4771304E+00;0; -9.5577752E-03;  3.9907078E+04;  0.0000000E+00; -4.2637455E-01;  4.0000000E+04;  0.0000000E+00;  4.0018578E+04; -9.0485439E-03;  0.0000000E+00; -5.0923158E-04;  2.5179958E+03;
  5.0689649E-02;  9.9999998E-03;  2.6996022E-01;2808; -3.9340154E-04;  0.0000000E+00;  2.4558363E-05;  9.9891803E+02;  1.0000000E-01; -8.9636969E+02;3;  2.4066520E+00;  0.0000000E+00;  4.3499084E+00;0; -8.6535113E-03;  3.9897918E+04;  0.0000000E+00; -4.8217836E-01;  4.0000000E+04;  0.0000000E+00;  4.0013098E+04; -7.8296736E-03;  0.0000000E+00; -8.2383788E-04;  1.9325396E+03;
  5.0262842E-02;  9.9999998E-03;  2.7996045E-01;2809; -4.6543890E-04;  0.0000000E+00; -3.0897605E-05;  9.9880499E+02;  1.0000000E-01; -9.9004608E+02;3;  3.2174518E+00;  0.0000000E+00; -1.7931022E-01;0; -7.6899836E-03;  3.9895008E+04;  0.0000000E+00; -5.6261170E-01;  4.0000000E+04;  0.0000000E+00;  4.0006766E+04; -6.6203675E-03;  0.0000000E+00; -1.0696161E-03;  1.1738369E+03;
  4.9827982E-02;  9.9999998E-03;  2.8999242E-01;2810; -5.9475366E-04;  0.0000000E+00; -9.3130730E-05;  9.9874878E+02;  1.0000000E-01; -1.0366127E+03;3;  3.5739627E+00;  0.0000000E+00; -6.3775687E+00;0; -6.6822646E-03;  3.9898742E+04;  0.0000000E+00; -6.3948309E-01;  4.0000000E+04;  0.0000000E+00;  3.9997012E+04; -5.4605165E-03;  0.0000000E+00; -1.2217483E-03;  9.2965247E+02;
  4.9518295E-02;  9.9999998E-03;  3.0000484E-01;2811; -7.6261320E-04;  0.0000000E+00; -1.3493080E-04;  9.9876794E+02;  1.0000000E-01; -1.0207119E+03;3;  3.5511639E+00;  0.0000000E+00; -1.2670149E+01;0; -5.6664664E-03;  3.9907898E+04;  0.0000000E+00; -6.7755038E-01;  4.0000000E+04;  0.0000000E+00;  3.9989066E+04; -4.3913610E-03;  0.0000000E+00; -1.2751052E-03;  1.5505948E+03;
  6.1377399E-02;  9.9999998E-03;  2.4005727E-01;2866; -7.5104879E-04;  0.0000000E+00;  8.1282618E-05;  1.0004432E+03;  1.0000000E-01;  3.6719949E+02;3; -7.4092464E+00;  0.0000000E+00;  8.8698702E+00;0; -1.1020228E-02;  4.0021234E+04;  0.0000000E+00; -3.0846952E-02;  4.0000000E+04;  0.0000000E+00;  4.0018441E+04; -1.1332365E-02;  0.0000000E+00;  3.1213643E-04;  2.2480105E+03;
  6.1209861E-02;  9.9999998E-03;  2.5004685E-01;2867; -6.0279184E-04;  0.0000000E+00;  1.1888231E-04;  1.0000793E+03;  1.0000000E-01;  6.5775917E+01;3; -3.7105589E+00;  0.0000000E+00;  1.1063606E+01;0; -1.0303384E-02;  3.9988352E+04;  0.0000000E+00; -9.8003983E-02;  4.0000000E+04;  0.0000000E+00;  4.0019887E+04; -1.0252163E-02;  0.0000000E+00; -5.1220937E-05;  2.5283728E+03;
  6.0963534E-02;  9.9999998E-03;  2.6002303E-01;2868; -5.2089483E-04;  0.0000000E+00;  1.1797340E-04;  9.9972949E+02;  1.0000000E-01; -2.2409242E+02;3; -6.8533427E-01;  0.0000000E+00;  1.1616408E+01;0; -9.5312204E-03;  3.9959738E+04;  0.0000000E+00; -2.1212417E-01;  4.0000000E+04;  0.0000000E+00;  4.0018371E+04; -9.0932520E-03;  0.0000000E+00; -4.3796873E-04;  2.4198296E+03;
  6.0632356E-02;  9.9999998E-03;  2.6999858E-01;2869; -5.1066396E-04;  0.0000000E+00;  8.2384489E-05;  9.9940747E+02;  1.0000000E-01; -4.9089969E+02;3;  1.6140609E+00;  0.0000000E+00;  9.5215702E+00;0; -8.6908536E-03;  3.9936715E+04;  0.0000000E+00; -3.6320132E-01;  4.0000000E+04;  0.0000000E+00;  4.0014559E+04; -7.8909229E-03;  0.0000000E+00; -7.9993025E-04;  1.9255990E+03;
  6.0224533E-02;  9.9999998E-03;  2.8000206E-01;2870; -5.7064916E-04;  0.0000000E+00;  2.3332927E-05;  9.9914117E+02;  1.0000000E-01; -7.1153546E+02;3;  3.2558665E+00;  0.0000000E+00;  4.5433269E+00;0; -7.7774650E-03;  3.9921543E+04;  0.0000000E+00; -5.2653950E-01;  4.0000000E+04;  0.0000000E+00;  4.0006574E+04; -6.6842474E-03;  0.0000000E+00; -1.0932178E-03;  1.2229718E+03;
  5.9809655E-02;  9.9999998E-03;  2.9002437E-01;2871; -6.9247786E-04;  0.0000000E+00; -4.3096188E-05;  9.9896008E+02;  1.0000000E-01; -8.6155591E+02;3;  4.3245006E+00;  0.0000000E+00; -2.4085321E+00;0; -6.8045803E-03;  3.9914371E+04;  0.0000000E+00; -6.6561687E-01;  4.0000000E+04;  0.0000000E+00;  3.9998523E+04; -5.5180760E-03;  0.0000000E+00; -1.2865043E-03;  9.4517395E+02;
  5.9498869E-02;  9.9999998E-03;  3.0004665E-01;2872; -8.5570756E-04;  0.0000000E+00; -8.6008840E-05;  9.9886420E+02;  1.0000000E-01; -9.4101044E+02;3;  4.7806716E+00;  0.0000000E+00; -9.8097439E+00;0; -5.8037275E-03;  3.9914324E+04;  0.0000000E+00; -7.4138308E-01;  4.0000000E+04;  0.0000000E+00;  3.9990344E+04; -4.4338387E-03;  0.0000000E+00; -1.3698891E-03;  1.5153156E+03;
  7.1266226E-02;  9.9999998E-03;  2.4008740E-01;2927; -8.1805908E-04;  0.0000000E+00;  1.5711853E-04;  1.0008834E+03;  1.0000000E-01;  7.3192993E+02;3; -6.2460833E+00;  0.0000000E+00;  1.1592102E+01;0; -1.0645834E-02;  4.0058242E+04;  0.0000000E+00;  4.6114564E-01;  4.0000000E+04;  0.0000000E+00;  4.0018129E+04; -1.1105234E-02;  0.0000000E+00;  4.5939960E-04;  2.2343557E+03;
  7.1121715E-02;  9.9999998E-03;  2.5008523E-01;2928; -6.6207611E-04;  0.0000000E+00;  2.1735119E-04;  1.0004328E+03;  1.0000000E-01;  3.5860715E+02;3; -2.9304466E+00;  0.0000000E+00;  1.4224516E+01;0; -1.0032810E-02;  4.0017520E+04;  0.0000000E+00;  3.3238542E-01;  4.0000000E+04;  0.0000000E+00;  4.0019805E+04; -1.0103664E-02;  0.0000000E+00;  7.0854439E-05;  2.5209810E+03;
  7.0903786E-02;  9.9999998E-03;  2.6006588E-01;2929; -5.7270890E-04;  0.0000000E+00;  2.2809513E-04;  9.9997754E+02;  1.0000000E-01; -1.8616758E+01;3;  1.0519492E-02;  0.0000000E+00;  1.4985385E+01;0; -9.3595674E-03;  3.9980211E+04;  0.0000000E+00;  1.4208882E-01;  4.0000000E+04;  0.0000000E+00;  4.0019164E+04; -9.0060225E-03;  0.0000000E+00; -3.5354518E-04;  2.4170430E+03;
  7.0603132E-02;  9.9999998E-03;  2.7004102E-01;2930; -5.5693457E-04;  0.0000000E+00;  1.9246686E-04;  9.9955298E+02;  1.0000000E-01; -3.7035989E+02;3;  2.4443376E+00;  0.0000000E+00;  1.2724249E+01;0; -8.6077368E-03;  3.9948957E+04;  0.0000000E+00; -8.8392384E-02;  4.0000000E+04;  0.0000000E+00;  4.0015273E+04; -7.8468621E-03;  0.0000000E+00; -7.6087483E-04;  1.8985216E+03;
  7.0226610E-02;  9.9999998E-03;  2.8003210E-01;2931; -6.1331713E-04;  0.0000000E+00;  1.2561475E-04;  9.9918976E+02;  1.0000000E-01; -6.7128967E+02;3;  4.3661642E+00;  0.0000000E+00;  7.1105738E+00;0; -7.7696322E-03;  3.9925316E+04;  0.0000000E+00; -3.2647479E-01;  4.0000000E+04;  0.0000000E+00;  4.0007590E+04; -6.6683553E-03;  0.0000000E+00; -1.1012770E-03;  1.1096752E+03;
  6.9834009E-02;  9.9999998E-03;  2.9004470E-01;2932; -7.3224067E-04;  0.0000000E+00;  5.1208728E-05;  9.9891840E+02;  1.0000000E-01; -8.9607343E+02;3;  5.7677188E+00;  0.0000000E+00; -8.7510121E-01;0; -6.8555535E-03;  3.9911023E+04;  0.0000000E+00; -5.3137445E-01;  4.0000000E+04;  0.0000000E+00;  3.9998742E+04; -5.5180457E-03;  0.0000000E+00; -1.3375077E-03;  7.5370825E+02;
  6.9520302E-02;  9.9999998E-03;  3.0008358E-01;2933; -8.9194730E-04;  0.0000000E+00;  5.1370789E-06;  9.9875555E+02;  1.0000000E-01; -1.0309832E+03;3;  6.4439502E+00;  0.0000000E+00; -9.4893274E+00;0; -5.8935378E-03;  3.9905992E+04;  0.0000000E+00; -6.6200650E-01;  4.0000000E+04;  0.0000000E+00;  3.9990316E+04; -4.4399970E-03;  0.0000000E+00; -1.4535405E-03;  1.4815713E+03;
  8.1198558E-02;  9.9999998E-03;  2.4013379E-01;2988; -7.8537170E-04;  0.0000000E+00;  3.0393637E-04;  1.0008996E+03;  1.0000000E-01;  7.4526288E+02;3; -3.7907252E+00;  0.0000000E+00;  1.3287558E+01;0; -1.0260322E-02;  4.0059930E+04;  0.0000000E+00;  1.0294516E+00;  4.0000000E+04;  0.0000000E+00;  4.0018566E+04; -1.0864455E-02;  0.0000000E+00;  6.0413347E-04;  2.6503706E+03;
  8.1072994E-02;  9.9999998E-03;  2.5013626E-01;2989; -6.3201907E-04;  0.0000000E+00;  3.7607542E-04;  1.0004055E+03;  1.0000000E-01;  3.3589172E+02;3; -1.0299687E+00;  0.0000000E+00;  1.6204697E+01;0; -9.7673824E-03;  4.0015785E+04;  0.0000000E+00;  9.0687662E-01;  4.0000000E+04;  0.0000000E+00;  4.0020539E+04; -9.9636717E-03;  0.0000000E+00;  1.9628962E-04;  2.8747537E+03;
  8.0883965E-02;  9.9999998E-03;  2.6011434E-01;2990; -5.4384040E-04;  0.0000000E+00;  3.8781425E-04;  9.9990009E+02;  1.0000000E-01; -8.2763092E+01;3;  1.5750790E+00;  0.0000000E+00;  1.7007721E+01;0; -9.2044706E-03;  3.9973969E+04;  0.0000000E+00;  7.1471667E-01;  4.0000000E+04;  0.0000000E+00;  4.0020055E+04; -8.9459317E-03;  0.0000000E+00; -2.5853876E-04;  2.6969253E+03;
  8.0617219E-02;  9.9999998E-03;  2.7008003E-01;2991; -5.2580534E-04;  0.0000000E+00;  3.4671402E-04;  9.9941455E+02;  1.0000000E-01; -4.8502332E+02;3;  3.8807650E+00;  0.0000000E+00;  1.4318205E+01;0; -8.5485447E-03;  3.9937641E+04;  0.0000000E+00;  4.7198045E-01;  4.0000000E+04;  0.0000000E+00;  4.0015434E+04; -7.8443820E-03;  0.0000000E+00; -7.0416229E-04;  2.0579846E+03;
  8.0277011E-02;  9.9999998E-03;  2.8005308E-01;2992; -5.8136776E-04;  0.0000000E+00;  2.6658503E-04;  9.9898938E+02;  1.0000000E-01; -8.3726025E+02;3;  5.8073311E+00;  0.0000000E+00;  7.6813655E+00;0; -7.7909851E-03;  3.9910086E+04;  0.0000000E+00;  2.0583281E-01;  4.0000000E+04;  0.0000000E+00;  4.0006973E+04; -6.7041800E-03;  0.0000000E+00; -1.0868050E-03;  1.0241678E+03;
  7.9904266E-02;  9.9999998E-03;  2.9005873E-01;2993; -6.9863204E-04;  0.0000000E+00;  1.7447022E-04;  9.9866919E+02;  1.0000000E-01; -1.1025367E+03;3;  7.3115830E+00;  0.0000000E+00; -1.7507067E+00;0; -6.9408640E-03;  3.9892812E+04;  0.0000000E+00; -4.8489474E-02;  4.0000000E+04;  0.0000000E+00;  3.9997461E+04; -5.5765593E-03;  0.0000000E+00; -1.3643046E-03;  2.2487723E+02;
  7.9588436E-02;  9.9999998E-03;  3.0011344E-01;2994; -8.5586170E-04;  0.0000000E+00;  1.1676578E-04;  9.9847382E+02;  1.0000000E-01; -1.2644087E+03;3;  8.1417665E+00;  0.0000000E+00; -1.1805794E+01;0; -6.0247653E-03;  3.9886582E+04;  0.0000000E+00; -2.5122699E-01;  4.0000000E+04;  0.0000000E+00;  3.9987754E+04; -4.5116344E-03;  0.0000000E+00; -1.5131311E-03;  1.4718782E+03;
  9.1186285E-02;  9.9999998E-03;  2.4016978E-01;3049; -7.1537541E-04;  0.0000000E+00;  4.6898192E-04;  1.0006185E+03;  1.0000000E-01;  5.1238055E+02;3; -1.4389275E+00;  0.0000000E+00;  1.4339794E+01;0; -1.0042814E-02;  4.0036277E+04;  0.0000000E+00;  1.6892877E+00;  4.0000000E+04;  0.0000000E+00;  4.0020254E+04; -1.0776811E-02;  0.0000000E+00;  7.3399791E-04;  3.4595681E+03;
  9.1082722E-02;  9.9999998E-03;  2.5017285E-01;3050; -5.7165197E-04;  0.0000000E+00;  5.3696771E-04;  1.0001221E+03;  1.0000000E-01;  1.0123170E+02;3;  8.0706394E-01;  0.0000000E+00;  1.7415720E+01;0; -9.6722702E-03;  3.9991500E+04;  0.0000000E+00;  1.6963581E+00;  4.0000000E+04;  0.0000000E+00;  4.0022602E+04; -9.9898083E-03;  0.0000000E+00;  3.1753816E-04;  3.7182090E+03;
  9.0920523E-02;  9.9999998E-03;  2.6014733E-01;3051; -4.8222247E-04;  0.0000000E+00;  5.4530264E-04;  9.9959338E+02;  1.0000000E-01; -3.3687936E+02;3;  3.0901074E+00;  0.0000000E+00;  1.8055792E+01;0; -9.2152506E-03;  3.9948695E+04;  0.0000000E+00;  1.6380173E+00;  4.0000000E+04;  0.0000000E+00;  4.0021254E+04; -9.0603484E-03;  0.0000000E+00; -1.5490223E-04;  3.5643408E+03;
  9.0682447E-02;  9.9999998E-03;  2.7010298E-01;3052; -4.5117259E-04;  0.0000000E+00;  5.0050579E-04;  9.9907556E+02;  1.0000000E-01; -7.6590424E+02;3;  5.2480397E+00;  0.0000000E+00;  1.4724606E+01;0; -8.6448919E-03;  3.9910793E+04;  0.0000000E+00;  1.5090166E+00;  4.0000000E+04;  0.0000000E+00;  4.0015371E+04; -8.0189342E-03;  0.0000000E+00; -6.2595750E-04;  2.9589956E+03;
  9.0376824E-02;  9.9999998E-03;  2.8005970E-01;3053; -4.8238790E-04;  0.0000000E+00;  4.1074597E-04;  9.9861401E+02;  1.0000000E-01; -1.1482638E+03;3;  7.1456690E+00;  0.0000000E+00;  6.7598839E+00;0; -7.9533067E-03;  3.9881660E+04;  0.0000000E+00;  1.3092172E+00;  4.0000000E+04;  0.0000000E+00;  4.0005820E+04; -6.9129872E-03;  0.0000000E+00; -1.0403194E-03;  2.0805813E+03;
  9.0023249E-02;  9.9999998E-03;  2.9005843E-01;3054; -5.8248802E-04;  0.0000000E+00;  3.0273653E-04;  9.9827155E+02;  1.0000000E-01; -1.4320089E+03;3;  8.6887712E+00;  0.0000000E+00; -4.5932817E+00;0; -7.1528200E-03;  3.9864047E+04;  0.0000000E+00;  1.0514916E+00;  4.0000000E+04;  0.0000000E+00;  3.9994652E+04; -5.8003822E-03;  0.0000000E+00; -1.3524379E-03;  1.6015741E+03;
  8.9709945E-02;  9.9999998E-03;  3.0012748E-01;3055; -7.3532562E-04;  0.0000000E+00;  2.2837495E-04;  9.9807538E+02;  1.0000000E-01; -1.5945228E+03;3;  9.6395206E+00;  0.0000000E+00; -1.6509266E+01;0; -6.2727281E-03;  3.9858754E+04;  0.0000000E+00;  7.6597065E-01;  4.0000000E+04;  0.0000000E+00;  3.9983113E+04; -4.7412389E-03;  0.0000000E+00; -1.5314891E-03;  2.2445598E+03;
  1.0127106E-01;  9.9999998E-03;  2.4014822E-01;3110; -6.8824686E-04;  0.0000000E+00;  5.5205624E-04;  1.0001923E+03;  1.0000000E-01;  1.5930414E+02;3;  1.6786085E-01;  0.0000000E+00;  1.4970674E+01;0; -1.0127316E-02;  3.9998820E+04;  0.0000000E+00;  2.4939435E+00;  4.0000000E+04;  0.0000000E+00;  4.0023895E+04; -1.0965829E-02;  0.0000000E+00;  8.3851221E-04;  4.6344673E+03;
  1.0118503E-01;  9.9999998E-03;  2.5015119E-01;3111; -5.4898398E-04;  0.0000000E+00;  6.1759853E-04;  9.9970380E+02;  1.0000000E-01; -2.4537578E+02;3;  2.0210712E+00;  0.0000000E+00;  1.8060078E+01;0; -9.8696295E-03;  3.9955734E+04;  0.0000000E+00;  2.8007843E+00;  4.0000000E+04;  0.0000000E+00;  4.0025535E+04; -1.0299050E-02;  0.0000000E+00;  4.2942096E-04;  5.1631797E+03;
  1.0103883E-01;  9.9999998E-03;  2.6012468E-01;3112; -4.5154360E-04;  0.0000000E+00;  6.2910462E-04;  9.9916705E+02;  1.0000000E-01; -6.9010394E+02;3;  4.0651598E+00;  0.0000000E+00;  1.8431065E+01;0; -9.5033674E-03;  3.9912898E+04;  0.0000000E+00;  3.0664065E+00;  4.0000000E+04;  0.0000000E+00;  4.0023039E+04; -9.4605247E-03;  0.0000000E+00; -4.2842701E-05;  5.3310288E+03;
  1.0082444E-01;  9.9999998E-03;  2.7007136E-01;3113; -3.9425574E-04;  0.0000000E+00;  5.8591622E-04;  9.9862537E+02;  1.0000000E-01; -1.1388813E+03;3;  6.1698060E+00;  0.0000000E+00;  1.4328114E+01;0; -8.9982580E-03;  3.9874668E+04;  0.0000000E+00;  3.2366233E+00;  4.0000000E+04;  0.0000000E+00;  4.0016664E+04; -8.4761605E-03;  0.0000000E+00; -5.2209804E-04;  5.1343638E+03;
  1.0054252E-01;  9.9999998E-03;  2.8001881E-01;3114; -3.6755649E-04;  0.0000000E+00;  4.9523648E-04;  9.9814398E+02;  1.0000000E-01; -1.5376849E+03;3;  8.2144089E+00;  0.0000000E+00;  4.9572325E+00;0; -8.3423760E-03;  3.9845434E+04;  0.0000000E+00;  3.2534792E+00;  4.0000000E+04;  0.0000000E+00;  4.0005164E+04; -7.3888381E-03;  0.0000000E+00; -9.5353811E-04;  4.7479917E+03;
  1.0020845E-01;  9.9999998E-03;  2.9001489E-01;3115; -4.0503137E-04;  0.0000000E+00;  3.8986048E-04;  9.9778436E+02;  1.0000000E-01; -1.8356024E+03;3;  9.9284811E+00;  0.0000000E+00; -8.5421591E+00;0; -7.5534815E-03;  3.9829039E+04;  0.0000000E+00;  3.0825405E+00;  4.0000000E+04;  0.0000000E+00;  3.9991746E+04; -6.2650172E-03;  0.0000000E+00; -1.2884641E-03;  4.5238906E+03;
  9.9898368E-02;  9.9999998E-03;  3.0010471E-01;3116; -5.1842106E-04;  0.0000000E+00;  3.1221769E-04;  9.9759222E+02;  1.0000000E-01; -1.9948077E+03;3;  1.1008967E+01;  0.0000000E+00; -2.2915684E+01;0; -6.6732913E-03;  3.9826285E+04;  0.0000000E+00;  2.7235575E+00;  4.0000000E+04;  0.0000000E+00;  3.9977094E+04; -5.1817596E-03;  0.0000000E+00; -1.4915318E-03;  4.7371772E+03;
  1.1140577E-01;  9.9999998E-03;  2.4005914E-01;3171; -7.3231489E-04;  0.0000000E+00;  5.3066452E-04;  9.9975195E+02;  1.0000000E-01; -2.0552505E+02;3;  9.6477926E-01;  0.0000000E+00;  1.5469082E+01;0; -1.0568611E-02;  3.9959004E+04;  0.0000000E+00;  3.5022688E+00;  4.0000000E+04;  0.0000000E+00;  4.0029188E+04; -1.1480588E-02;  0.0000000E+00;  9.1197656E-04;  6.1896938E+03;
  1.1130958E-01;  9.9999998E-03;  2.5006154E-01;3172; -5.9063383E-04;  0.0000000E+00;  6.0029299E-04;  9.9927356E+02;  1.0000000E-01; -6.0185950E+02;3;  2.5738168E+00;  0.0000000E+00;  1.8627228E+01;0; -1.0407849E-02;  3.9917297E+04;  0.0000000E+00;  4.3033371E+00;  4.0000000E+04;  0.0000000E+00;  4.0030250E+04; -1.0936473E-02;  0.0000000E+00;  5.2862335E-04;  7.2942002E+03;
  1.1117480E-01;  9.9999998E-03;  2.6003024E-01;3173; -4.7889515E-04;  0.0000000E+00;  6.1450776E-04;  9.9872784E+02;  1.0000000E-01; -1.0539456E+03;3;  4.5164719E+00;  0.0000000E+00;  1.8793140E+01;0; -1.0116945E-02;  3.9874234E+04;  0.0000000E+00;  5.1202774E+00;  4.0000000E+04;  0.0000000E+00;  4.0027426E+04; -1.0192638E-02;  0.0000000E+00;  7.5693009E-05;  8.1720942E+03;
  1.1100176E-01;  9.9999998E-03;  2.6996177E-01;3174; -3.8803570E-04;  0.0000000E+00;  5.6768954E-04;  9.9815778E+02;  1.0000000E-01; -1.5262284E+03;3;  6.6800628E+00;  0.0000000E+00;  1.4028056E+01;0; -9.6613057E-03;  3.9835363E+04;  0.0000000E+00;  5.8272920E+00;  4.0000000E+04;  0.0000000E+00;  4.0018969E+04; -9.2667639E-03;  0.0000000E+00; -3.9454130E-04;  8.7740938E+03;
  1.1076953E-01;  9.9999998E-03;  2.7988723E-01;3175; -3.0528998E-04;  0.0000000E+00;  4.7657135E-04;  9.9763239E+02;  1.0000000E-01; -1.9615248E+03;3;  8.9758272E+00;  0.0000000E+00;  3.3843131E+00;0; -9.0185767E-03;  3.9805207E+04;  0.0000000E+00;  6.2806330E+00;  4.0000000E+04;  0.0000000E+00;  4.0006129E+04; -8.1909131E-03;  0.0000000E+00; -8.2766381E-04;  9.1026025E+03;
  1.1048272E-01;  9.9999998E-03;  2.8986499E-01;3176; -2.5576534E-04;  0.0000000E+00;  3.7833379E-04;  9.9723901E+02;  1.0000000E-01; -2.2874414E+03;3;  1.1048329E+01;  0.0000000E+00; -1.2067332E+01;0; -8.1984177E-03;  3.9788262E+04;  0.0000000E+00;  6.3576736E+00;  4.0000000E+04;  0.0000000E+00;  3.9989340E+04; -7.0258370E-03;  0.0000000E+00; -1.1725803E-03;  9.2173193E+03;
  1.1018728E-01;  9.9999998E-03;  2.9998082E-01;3177; -2.6190453E-04;  0.0000000E+00;  3.1223512E-04;  9.9702289E+02;  1.0000000E-01; -2.4664980E+03;3;  1.2427237E+01;  0.0000000E+00; -2.9467562E+01;0; -7.2427527E-03;  3.9787617E+04;  0.0000000E+00;  5.9771833E+00;  4.0000000E+04;  0.0000000E+00;  3.9971781E+04; -5.8522751E-03;  0.0000000E+00; -1.3904776E-03;  9.2067783E+03;
  1.2145340E-01;  9.9999998E-03;  2.3997262E-01;3232; -8.6003798E-04;  0.0000000E+00;  4.1913107E-04;  9.9939941E+02;  1.0000000E-01; -4.9756616E+02;3;  1.2259206E+00;  0.0000000E+00;  1.6115057E+01;0; -1.1339588E-02;  3.9925062E+04;  0.0000000E+00;  4.7321510E+00;  4.0000000E+04;  0.0000000E+00;  4.0034773E+04; -1.2286157E-02;  0.0000000E+00;  9.4656891E-04;  8.0919424E+03;
  1.2133553E-01;  9.9999998E-03;  2.4996637E-01;3233; -7.1449031E-04;  0.0000000E+00;  4.8965757E-04;  9.9892377E+02;  1.0000000E-01; -8.9162909E+02;3;  2.7655239E+00;  0.0000000E+00;  1.9468224E+01;0; -1.1265223E-02;  3.9883840E+04;  0.0000000E+00;  6.2170248E+00;  4.0000000E+04;  0.0000000E+00;  4.0035711E+04; -1.1869312E-02;  0.0000000E+00;  6.0408935E-04;  1.0088817E+04;
  1.2119292E-01;  9.9999998E-03;  2.5992447E-01;3234; -5.8841804E-04;  0.0000000E+00;  5.0132314E-04;  9.9836469E+02;  1.0000000E-01; -1.3548259E+03;3;  4.7976770E+00;  0.0000000E+00;  1.9673391E+01;0; -1.1044105E-02;  3.9840555E+04;  0.0000000E+00;  7.8283925E+00;  4.0000000E+04;  0.0000000E+00;  4.0032539E+04; -1.1228936E-02;  0.0000000E+00;  1.8483144E-04;  1.2078435E+04;
  1.2103533E-01;  9.9999998E-03;  2.6984426E-01;3235; -4.6763962E-04;  0.0000000E+00;  4.4897999E-04;  9.9776379E+02;  1.0000000E-01; -1.8526389E+03;3;  7.2100883E+00;  0.0000000E+00;  1.4644867E+01;0; -1.0634689E-02;  3.9799828E+04;  0.0000000E+00;  9.3564672E+00;  4.0000000E+04;  0.0000000E+00;  4.0023852E+04; -1.0369653E-02;  0.0000000E+00; -2.6503624E-04;  1.3893592E+04;
  1.2087566E-01;  9.9999998E-03;  2.7973929E-01;3236; -3.2938857E-04;  0.0000000E+00;  3.5569785E-04;  9.9718945E+02;  1.0000000E-01; -2.3284773E+03;3;  9.8850050E+00;  0.0000000E+00;  3.4684422E+00;0; -9.9983066E-03;  3.9766402E+04;  0.0000000E+00;  1.0551505E+01;  4.0000000E+04;  0.0000000E+00;  4.0010617E+04; -9.3085477E-03;  0.0000000E+00; -6.8975869E-04;  1.5322895E+04;
  1.2070651E-01;  9.9999998E-03;  2.8966308E-01;3237; -1.9108002E-04;  0.0000000E+00;  2.5961411E-04;  9.9670959E+02;  1.0000000E-01; -2.7260464E+03;3;  1.2420105E+01;  0.0000000E+00; -1.3070161E+01;0; -9.1229929E-03;  3.9744605E+04;  0.0000000E+00;  1.1157982E+01;  4.0000000E+04;  0.0000000E+00;  3.9992301E+04; -8.0881910E-03;  0.0000000E+00; -1.0348022E-03;  1.6119407E+04;
  1.2054108E-01;  9.9999998E-03;  2.9972085E-01;3238; -7.5348806E-05;  0.0000000E+00;  1.9291886E-04;  9.9637384E+02;  1.0000000E-01; -3.0042114E+03;3;  1.4254148E+01;  0.0000000E+00; -3.2886944E+01;0; -8.0344956E-03;  3.9737180E+04;  0.0000000E+00;  1.0926858E+01;  4.0000000E+04;  0.0000000E+00;  3.9972148E+04; -6.7746728E-03;  0.0000000E+00; -1.2598224E-03;  1.6062402E+04;
  1.3144319E-01;  9.9999998E-03;  2.3989180E-01;3293; -1.0720668E-03;  0.0000000E+00;  2.5059341E-04;  9.9918738E+02;  1.0000000E-01; -6.7326489E+02;3;  1.2908254E+00;  0.0000000E+00;  1.7144148E+01;0; -1.2376138E-02;  3.9901730E+04;  0.0000000E+00;  6.1268487E+00;  4.0000000E+04;  0.0000000E+00;  4.0040387E+04; -1.3312071E-02;  0.0000000E+00;  9.3593239E-04;  1.0252808E+04;
  1.3130619E-01;  9.9999998E-03;  2.4986973E-01;3294; -9.2687557E-04;  0.0000000E+00;  3.1747969E-04;  9.9870349E+02;  1.0000000E-01; -1.0741425E+03;3;  3.0088465E+00;  0.0000000E+00;  2.1013878E+01;0; -1.2394809E-02;  3.9859180E+04;  0.0000000E+00;  8.4504452E+00;  4.0000000E+04;  0.0000000E+00;  4.0044156E+04; -1.3038425E-02;  0.0000000E+00;  6.4361596E-04;  1.3428438E+04;
  1.3114889E-01;  9.9999998E-03;  2.5981212E-01;3295; -7.8867498E-04;  0.0000000E+00;  3.2257973E-04;  9.9813190E+02;  1.0000000E-01; -1.5477094E+03;3;  5.4741378E+00;  0.0000000E+00;  2.1877113E+01;0; -1.2260091E-02;  3.9814250E+04;  0.0000000E+00;  1.1096004E+01;  4.0000000E+04;  0.0000000E+00;  4.0040570E+04; -1.2525217E-02;  0.0000000E+00;  2.6512542E-04;  1.6923430E+04;
  1.3099408E-01;  9.9999998E-03;  2.6971522E-01;3296; -6.4685574E-04;  0.0000000E+00;  2.6308611E-04;  9.9751166E+02;  1.0000000E-01; -2.0615220E+03;3;  8.6196146E+00;  0.0000000E+00;  1.7655552E+01;0; -1.1924479E-02;  3.9771781E+04;  0.0000000E+00;  1.3790214E+01;  4.0000000E+04;  0.0000000E+00;  4.0032531E+04; -1.1762927E-02;  0.0000000E+00; -1.6155140E-04;  2.0456268E+04;
  1.3085714E-01;  9.9999998E-03;  2.7959758E-01;3297; -4.7322334E-04;  0.0000000E+00;  1.6144586E-04;  9.9690155E+02;  1.0000000E-01; -2.5669890E+03;3;  1.2131866E+01;  0.0000000E+00;  7.1334691E+00;0; -1.1323451E-02;  3.9735223E+04;  0.0000000E+00;  1.6148418E+01;  4.0000000E+04;  0.0000000E+00;  4.0020055E+04; -1.0740738E-02;  0.0000000E+00; -5.8271241E-04;  2.3558781E+04;
  1.3076092E-01;  9.9999998E-03;  2.8949475E-01;3298; -2.5126259E-04;  0.0000000E+00;  6.0714116E-05;  9.9633569E+02;  1.0000000E-01; -3.0358154E+03;3;  1.5436373E+01;  0.0000000E+00; -9.4485426E+00;0; -1.0385898E-02;  3.9706891E+04;  0.0000000E+00;  1.7718927E+01;  4.0000000E+04;  0.0000000E+00;  4.0002340E+04; -9.4528170E-03;  0.0000000E+00; -9.3308126E-04;  2.5643670E+04;
  1.3072988E-01;  9.9999998E-03;  2.9951674E-01;3299;  3.8816295E-05;  0.0000000E+00; -1.6784887E-05;  9.9580109E+02;  1.0000000E-01; -3.4787163E+03;3;  1.7490053E+01;  0.0000000E+00; -3.1296759E+01;0; -9.0431729E-03;  3.9685383E+04;  0.0000000E+00;  1.7920883E+01;  4.0000000E+04;  0.0000000E+00;  3.9980539E+04; -7.8704087E-03;  0.0000000E+00; -1.1727642E-03;  2.5963420E+04;
  1.4140512E-01;  9.9999998E-03;  2.3983645E-01;3354; -1.3533251E-03;  0.0000000E+00;  7.4411430E-05;  9.9912518E+02;  1.0000000E-01; -7.2476965E+02;3;  1.3627980E+00;  0.0000000E+00;  1.8520124E+01;0; -1.3593969E-02;  3.9889789E+04;  0.0000000E+00;  7.5499001E+00;  4.0000000E+04;  0.0000000E+00;  4.0046367E+04; -1.4469024E-02;  0.0000000E+00;  8.7505509E-04;  1.2460297E+04;
  1.4126675E-01;  9.9999998E-03;  2.4978910E-01;3355; -1.2244101E-03;  0.0000000E+00;  1.2955716E-04;  9.9862573E+02;  1.0000000E-01; -1.1385356E+03;3;  3.5724263E+00;  0.0000000E+00;  2.3398207E+01;0; -1.3737174E-02;  3.9844348E+04;  0.0000000E+00;  1.0800234E+01;  4.0000000E+04;  0.0000000E+00;  4.0052328E+04; -1.4370983E-02;  0.0000000E+00;  6.3380937E-04;  1.7024742E+04;
  1.4110211E-01;  9.9999998E-03;  2.5970882E-01;3356; -1.0877388E-03;  0.0000000E+00;  1.2699379E-04;  9.9804364E+02;  1.0000000E-01; -1.6207937E+03;3;  7.0051098E+00;  0.0000000E+00;  2.5900932E+01;0; -1.3737535E-02;  3.9796590E+04;  0.0000000E+00;  1.4705854E+01;  4.0000000E+04;  0.0000000E+00;  4.0052254E+04; -1.4033489E-02;  0.0000000E+00;  2.9595336E-04;  2.2410896E+04;
  1.4092547E-01;  9.9999998E-03;  2.6960120E-01;3357; -9.3070470E-04;  0.0000000E+00;  6.1239771E-05;  9.9742896E+02;  1.0000000E-01; -2.1300632E+03;3;  1.1696146E+01;  0.0000000E+00;  2.3969448E+01;0; -1.3535568E-02;  3.9751719E+04;  0.0000000E+00;  1.8981348E+01;  4.0000000E+04;  0.0000000E+00;  4.0046984E+04; -1.3421781E-02;  0.0000000E+00; -1.1378684E-04;  2.8274992E+04;
  1.4079154E-01;  9.9999998E-03;  2.7946991E-01;3358; -7.3328987E-04;  0.0000000E+00; -4.8922429E-05;  9.9681183E+02;  1.0000000E-01; -2.6413574E+03;3;  1.7239786E+01;  0.0000000E+00;  1.6244270E+01;0; -1.3047931E-02;  3.9712293E+04;  0.0000000E+00;  2.3099018E+01;  4.0000000E+04;  0.0000000E+00;  4.0036949E+04; -1.2502472E-02;  0.0000000E+00; -5.4545922E-04;  3.3909855E+04;
  1.4073572E-01;  9.9999998E-03;  2.8935289E-01;3359; -4.7263154E-04;  0.0000000E+00; -1.8270874E-04;  9.9618317E+02;  1.0000000E-01; -3.1621821E+03;3;  2.2568050E+01;  0.0000000E+00;  1.8821028E+00;0; -1.2161038E-02;  3.9676875E+04;  0.0000000E+00;  2.6279839E+01;  4.0000000E+04;  0.0000000E+00;  4.0021367E+04; -1.1220991E-02;  0.0000000E+00; -9.4004686E-04;  3.8208066E+04;
  1.4081602E-01;  9.9999998E-03;  2.9935241E-01;3360; -3.8234532E-05;  0.0000000E+00; -3.4841479E-04;  9.9537390E+02;  1.0000000E-01; -3.8326323E+03;3;  2.5214617E+01;  0.0000000E+00; -2.0913885E+01;0; -1.0594689E-02;  3.9634578E+04;  0.0000000E+00;  2.7349297E+01;  4.0000000E+04;  0.0000000E+00;  4.0000141E+04; -9.3249222E-03;  0.0000000E+00; -1.2697673E-03;  3.9529012E+04;
  1.5137747E-01;  9.9999998E-03;  2.3982623E-01;3415; -1.6785103E-03;  0.0000000E+00; -4.6571771E-05;  9.9917413E+02;  1.0000000E-01; -6.8422754E+02;3;  1.4613079E+00;  0.0000000E+00;  1.9739515E+01;0; -1.4889258E-02;  3.9888695E+04;  0.0000000E+00;  8.8075027E+00;  4.0000000E+04;  0.0000000E+00;  4.0050664E+04; -1.5665133E-02;  0.0000000E+00;  7.7587471E-04;  1.4385313E+04;
  1.5124547E-01;  9.9999998E-03;  2.4975912E-01;3416; -1.5853405E-03;  0.0000000E+00; -3.0784008E-06;  9.9865436E+02;  1.0000000E-01; -1.1148326E+03;3;  4.4351683E+00;  0.0000000E+00;  2.5877941E+01;0; -1.5199851E-02;  3.9838902E+04;  0.0000000E+00;  1.2967835E+01;  4.0000000E+04;  0.0000000E+00;  4.0059445E+04; -1.5785763E-02;  0.0000000E+00;  5.8591197E-04;  2.0392775E+04;
  1.5108396E-01;  9.9999998E-03;  2.5966135E-01;3417; -1.4689008E-03;  0.0000000E+00;  5.2393722E-07;  9.9806097E+02;  1.0000000E-01; -1.6064237E+03;3;  9.3821182E+00;  0.0000000E+00;  3.0663523E+01;0; -1.5397441E-02;  3.9785820E+04;  0.0000000E+00;  1.8264378E+01;  4.0000000E+04;  0.0000000E+00;  4.0063629E+04; -1.5694795E-02;  0.0000000E+00;  2.9735410E-04;  2.7927578E+04;
  1.5089458E-01;  9.9999998E-03;  2.6954266E-01;3418; -1.3084817E-03;  0.0000000E+00; -4.3684042E-05;  9.9746234E+02;  1.0000000E-01; -2.1024097E+03;3;  1.6615541E+01;  0.0000000E+00;  3.2182014E+01;0; -1.5401025E-02;  3.9737602E+04;  0.0000000E+00;  2.4529451E+01;  4.0000000E+04;  0.0000000E+00;  4.0063879E+04; -1.5324613E-02;  0.0000000E+00; -7.6412049E-05;  3.6762922E+04;
  1.5072298E-01;  9.9999998E-03;  2.7942264E-01;3419; -1.0749019E-03;  0.0000000E+00; -1.1874633E-04;  9.9689673E+02;  1.0000000E-01; -2.5709890E+03;3;  2.5633156E+01;  0.0000000E+00;  2.8193439E+01;0; -1.5064289E-02;  3.9697004E+04;  0.0000000E+00;  3.1101322E+01;  4.0000000E+04;  0.0000000E+00;  4.0058105E+04; -1.4576471E-02;  0.0000000E+00; -4.8781722E-04;  4.5928457E+04;
  1.5068230E-01;  9.9999998E-03;  2.8932321E-01;3420; -7.4445037E-04;  0.0000000E+00; -2.0099593E-04;  9.9620642E+02;  1.0000000E-01; -3.1429233E+03;3;  3.4767906E+01;  0.0000000E+00;  1.5926472E+01;0; -1.4185201E-02;  3.9654789E+04;  0.0000000E+00;  3.6578644E+01;  4.0000000E+04;  0.0000000E+00;  4.0046613E+04; -1.3319749E-02;  0.0000000E+00; -8.6545211E-04;  5.3423953E+04;
  1.5085930E-01;  9.9999998E-03;  2.9932886E-01;3421; -2.7880076E-04;  0.0000000E+00; -3.4088752E-04;  9.9501227E+02;  1.0000000E-01; -4.1322290E+03;3;  4.0630905E+01;  0.0000000E+00; -9.8597717E+00;0; -1.2538187E-02;  3.9583387E+04;  0.0000000E+00;  3.8690914E+01;  4.0000000E+04;  0.0000000E+00;  4.0024453E+04; -1.1307499E-02;  0.0000000E+00; -1.2306878E-03;  5.6031641E+04;
  1.6137457E-01;  9.9999998E-03;  2.3987530E-01;3476; -2.0261486E-03;  0.0000000E+00; -8.6269014E-05;  9.9926385E+02;  1.0000000E-01; -6.0985931E+02;3;  1.4461470E+00;  0.0000000E+00;  1.9944897E+01;0; -1.6146366E-02;  3.9895211E+04;  0.0000000E+00;  9.6957264E+00;  4.0000000E+04;  0.0000000E+00;  4.0051004E+04; -1.6812852E-02;  0.0000000E+00;  6.6648657E-04;  1.5635016E+04;
  1.6128927E-01;  9.9999998E-03;  2.4980359E-01;3477; -1.9789240E-03;  0.0000000E+00; -3.0657364E-05;  9.9869061E+02;  1.0000000E-01; -1.0848088E+03;3;  5.2806220E+00;  0.0000000E+00;  2.6806326E+01;0; -1.6651887E-02;  3.9837871E+04;  0.0000000E+00;  1.4533707E+01;  4.0000000E+04;  0.0000000E+00;  4.0062738E+04; -1.7200891E-02;  0.0000000E+00;  5.4900348E-04;  2.2800447E+04;
  1.6113378E-01;  9.9999998E-03;  2.5970614E-01;3478; -1.8928299E-03;  0.0000000E+00;  1.3051417E-05;  9.9806293E+02;  1.0000000E-01; -1.6048435E+03;3;  1.2035884E+01;  0.0000000E+00;  3.3252136E+01;0; -1.7073020E-02;  3.9777836E+04;  0.0000000E+00;  2.1072433E+01;  4.0000000E+04;  0.0000000E+00;  4.0071812E+04; -1.7432809E-02;  0.0000000E+00;  3.5978816E-04;  3.2320084E+04;
  1.6093245E-01;  9.9999998E-03;  2.6959810E-01;3479; -1.7271007E-03;  0.0000000E+00;  4.7337093E-05;  9.9745367E+02;  1.0000000E-01; -2.1095701E+03;3;  2.2495602E+01;  0.0000000E+00;  3.7243206E+01;0; -1.7272215E-02;  3.9723477E+04;  0.0000000E+00;  2.9395636E+01;  4.0000000E+04;  0.0000000E+00;  4.0076680E+04; -1.7394971E-02;  0.0000000E+00;  1.2275591E-04;  4.4264441E+04;
  1.6074820E-01;  9.9999998E-03;  2.7951899E-01;3480; -1.4129981E-03;  0.0000000E+00;  8.5320782E-05;  9.9684973E+02;  1.0000000E-01; -2.6099509E+03;3;  3.6059502E+01;  0.0000000E+00;  3.4256016E+01;0; -1.6952049E-02;  3.9678496E+04;  0.0000000E+00;  3.8601692E+01;  4.0000000E+04;  0.0000000E+00;  4.0072879E+04; -1.6841292E-02;  0.0000000E+00; -1.1075611E-04;  5.7219219E+04;
  1.6072381E-01;  9.9999998E-03;  2.8949505E-01;3481; -9.0904895E-04;  0.0000000E+00;  1.1386829E-04;  9.9595081E+02;  1.0000000E-01; -3.3546707E+03;3;  4.9660328E+01;  0.0000000E+00;  1.7893852E+01;0; -1.5725940E-02;  3.9622746E+04;  0.0000000E+00;  4.6032951E+01;  4.0000000E+04;  0.0000000E+00;  4.0057664E+04; -1.5408111E-02;  0.0000000E+00; -3.1782879E-04;  6.7372992E+04;
  1.6102555E-01;  9.9999998E-03;  2.9954717E-01;3482; -2.9644085E-04;  0.0000000E+00;  1.9382715E-05;  9.9401794E+02;  1.0000000E-01; -4.9560078E+03;3;  5.8439968E+01;  0.0000000E+00; -1.8141127E+01;0; -1.3560698E-02;  3.9498465E+04;  0.0000000E+00;  4.7544434E+01;  4.0000000E+04;  0.0000000E+00;  4.0029734E+04; -1.2899863E-02;  0.0000000E+00; -6.6083553E-04;  6.8958789E+04;
  1.7135660E-01;  9.9999998E-03;  2.3999201E-01;3537; -2.3715729E-03;  0.0000000E+00; -7.0967442E-05;  9.9930426E+02;  1.0000000E-01; -5.7642816E+02;3;  1.0683367E+00;  0.0000000E+00;  1.8148174E+01;0; -1.7266344E-02;  3.9905289E+04;  0.0000000E+00;  1.0105386E+01;  4.0000000E+04;  0.0000000E+00;  4.0043906E+04; -1.7832953E-02;  0.0000000E+00;  5.6660938E-04;  1.5914995E+04;
  1.7133129E-01;  9.9999998E-03;  2.4994053E-01;3538; -2.3646450E-03;  0.0000000E+00; -2.4156470E-06;  9.9863550E+02;  1.0000000E-01; -1.1304866E+03;3;  5.4334211E+00;  0.0000000E+00;  2.3954025E+01;0; -1.7979961E-02;  3.9840727E+04;  0.0000000E+00;  1.5144471E+01;  4.0000000E+04;  0.0000000E+00;  4.0054004E+04; -1.8515507E-02;  0.0000000E+00;  5.3554680E-04;  2.3507049E+04;
  1.7122860E-01;  9.9999998E-03;  2.5986248E-01;3539; -2.2967642E-03;  0.0000000E+00;  8.8625857E-05;  9.9788678E+02;  1.0000000E-01; -1.7507653E+03;3;  1.3517664E+01;  0.0000000E+00;  2.9244698E+01;0; -1.8619940E-02;  3.9770301E+04;  0.0000000E+00;  2.2188961E+01;  4.0000000E+04;  0.0000000E+00;  4.0064609E+04; -1.9117072E-02;  0.0000000E+00;  4.9713231E-04;  3.3966707E+04;
  1.7106426E-01;  9.9999998E-03;  2.6979020E-01;3540; -2.0830652E-03;  0.0000000E+00;  2.2504361E-04;  9.9711932E+02;  1.0000000E-01; -2.3865991E+03;3;  2.6475836E+01;  0.0000000E+00;  3.1058495E+01;0; -1.8891495E-02;  3.9702977E+04;  0.0000000E+00;  3.1591166E+01;  4.0000000E+04;  0.0000000E+00;  4.0069164E+04; -1.9420836E-02;  0.0000000E+00;  5.2934093E-04;  4.7650035E+04;
  1.7093596E-01;  9.9999998E-03;  2.7976394E-01;3541; -1.6116925E-03;  0.0000000E+00;  3.7613726E-04;  9.9621765E+02;  1.0000000E-01; -3.1335903E+03;3;  4.3481152E+01;  0.0000000E+00;  2.2276625E+01;0; -1.8295484E-02;  3.9637738E+04;  0.0000000E+00;  4.1916321E+01;  4.0000000E+04;  0.0000000E+00;  4.0061801E+04; -1.8923009E-02;  0.0000000E+00;  6.2752585E-04;  6.2326605E+04;
  1.7103316E-01;  9.9999998E-03;  2.8979954E-01;3542; -8.8679953E-04;  0.0000000E+00;  3.8561891E-04;  9.9460468E+02;  1.0000000E-01; -4.4699478E+03;3;  5.9620312E+01;  0.0000000E+00; -6.5894237E+00;0; -1.6559558E-02;  3.9533715E+04;  0.0000000E+00;  4.8319118E+01;  4.0000000E+04;  0.0000000E+00;  4.0037488E+04; -1.7025903E-02;  0.0000000E+00;  4.6634558E-04;  7.1037906E+04;
  1.7148858E-01;  9.9999998E-03;  2.9984799E-01;3543; -3.9941419E-04;  0.0000000E+00; -3.9859679E-05;  9.9141193E+02;  1.0000000E-01; -7.1150581E+03;3;  6.9185349E+01;  0.0000000E+00; -5.5023525E+01;0; -1.5451022E-02;  3.9312422E+04;  0.0000000E+00;  4.5607761E+01;  4.0000000E+04;  0.0000000E+00;  4.0008008E+04; -1.4748703E-02;  0.0000000E+00; -7.0231943E-04;  6.6489672E+04;
  1.8126801E-01;  9.9999998E-03;  2.4014696E-01;3598; -2.6686348E-03;  0.0000000E+00; -5.4102387E-05;  9.9924042E+02;  1.0000000E-01; -6.2931555E+02;3;  8.1674397E-02;  0.0000000E+00;  1.4070248E+01;0; -1.8196018E-02;  3.9917719E+04;  0.0000000E+00;  1.0179930E+01;  4.0000000E+04;  0.0000000E+00;  4.0025898E+04; -1.8656997E-02;  0.0000000E+00;  4.6097825E-04;  1.5494226E+04;
  1.8127772E-01;  9.9999998E-03;  2.5011867E-01;3599; -2.6802376E-03;  0.0000000E+00; -9.3653844E-06;  9.9849469E+02;  1.0000000E-01; -1.2471252E+03;3;  4.2525845E+00;  0.0000000E+00;  1.6907934E+01;0; -1.9146768E-02;  3.9851133E+04;  0.0000000E+00;  1.5033014E+01;  4.0000000E+04;  0.0000000E+00;  4.0032340E+04; -1.9610802E-02;  0.0000000E+00;  4.6403383E-04;  2.2883396E+04;
  1.8124944E-01;  9.9999998E-03;  2.6006356E-01;3600; -2.5989241E-03;  0.0000000E+00;  6.4875458E-05;  9.9759271E+02;  1.0000000E-01; -1.9944127E+03;3;  1.2390543E+01;  0.0000000E+00;  1.7908110E+01;0; -2.0060986E-02;  3.9771836E+04;  0.0000000E+00;  2.1693308E+01;  4.0000000E+04;  0.0000000E+00;  4.0039172E+04; -2.0540901E-02;  0.0000000E+00;  4.7991372E-04;  3.2977176E+04;
  1.8120860E-01;  9.9999998E-03;  2.7001771E-01;3601; -2.3055612E-03;  0.0000000E+00;  2.0036858E-04;  9.9650488E+02;  1.0000000E-01; -2.8956218E+03;3;  2.5684948E+01;  0.0000000E+00;  1.3062929E+01;0; -2.0472856E-02;  3.9682508E+04;  0.0000000E+00;  3.0187063E+01;  4.0000000E+04;  0.0000000E+00;  4.0040039E+04; -2.1104850E-02;  0.0000000E+00;  6.3199433E-04;  4.5655008E+04;
  1.8125519E-01;  9.9999998E-03;  2.7999613E-01;3602; -1.7382527E-03;  0.0000000E+00;  3.1704275E-04;  9.9498328E+02;  1.0000000E-01; -4.1562773E+03;3;  4.3212551E+01;  0.0000000E+00; -4.3877807E+00;0; -1.9915272E-02;  3.9569230E+04;  0.0000000E+00;  3.8153156E+01;  4.0000000E+04;  0.0000000E+00;  4.0030648E+04; -2.0699374E-02;  0.0000000E+00;  7.8410353E-04;  5.7345758E+04;
  1.8151186E-01;  9.9999998E-03;  2.8998119E-01;3603; -1.1564170E-03;  0.0000000E+00;  1.6501843E-04;  9.9248212E+02;  1.0000000E-01; -6.2284165E+03;3;  6.0200008E+01;  0.0000000E+00; -3.8041172E+01;0; -1.9228579E-02;  3.9386688E+04;  0.0000000E+00;  4.0296410E+01;  4.0000000E+04;  0.0000000E+00;  4.0015051E+04; -1.9379690E-02;  0.0000000E+00;  1.5111081E-04;  6.0223148E+04;
  1.8184726E-01;  9.9999998E-03;  2.9990435E-01;3604; -1.1735510E-03;  0.0000000E+00; -1.5523624E-04;  9.8922540E+02;  1.0000000E-01; -8.9265625E+03;3;  7.5880875E+01;  0.0000000E+00; -6.9891418E+01;0; -2.0638809E-02;  3.9130398E+04;  0.0000000E+00;  3.7630417E+01;  4.0000000E+04;  0.0000000E+00;  4.0013797E+04; -1.9547686E-02;  0.0000000E+00; -1.0911236E-03;  5.5271152E+04;
  1.9112645E-01;  9.9999998E-03;  2.4027418E-01;3659; -2.8892392E-03;  0.0000000E+00; -8.1044091E-05;  9.9908246E+02;  1.0000000E-01; -7.6017603E+02;3; -1.4375076E+00;  0.0000000E+00;  8.8790741E+00;0; -1.8960157E-02;  3.9928477E+04;  0.0000000E+00;  1.0241564E+01;  4.0000000E+04;  0.0000000E+00;  4.0002785E+04; -1.9256873E-02;  0.0000000E+00;  2.9671506E-04;  1.5287528E+04;
  1.9115284E-01;  9.9999998E-03;  2.5024468E-01;3660; -2.8954998E-03;  0.0000000E+00; -9.5751195E-05;  9.9834546E+02;  1.0000000E-01; -1.3707760E+03;3;  1.9896605E+00;  0.0000000E+00;  8.5961342E+00;0; -2.0201661E-02;  3.9866336E+04;  0.0000000E+00;  1.4882019E+01;  4.0000000E+04;  0.0000000E+00;  4.0005070E+04; -2.0412274E-02;  0.0000000E+00;  2.1061258E-04;  2.2418334E+04;
  1.9117765E-01;  9.9999998E-03;  2.6019159E-01;3661; -2.7748812E-03;  0.0000000E+00; -6.6679495E-05;  9.9740649E+02;  1.0000000E-01; -2.1486799E+03;3;  9.2545013E+00;  0.0000000E+00;  5.5528679E+00;0; -2.1427384E-02;  3.9786605E+04;  0.0000000E+00;  2.0943985E+01;  4.0000000E+04;  0.0000000E+00;  4.0008996E+04; -2.1559130E-02;  0.0000000E+00;  1.3174626E-04;  3.1781508E+04;
  1.9124994E-01;  9.9999998E-03;  2.7014795E-01;3662; -2.4072339E-03;  0.0000000E+00;  2.6228670E-05;  9.9610443E+02;  1.0000000E-01; -3.2274148E+03;3;  2.1314734E+01;  0.0000000E+00; -4.4976215E+00;0; -2.2065258E-02;  3.9681141E+04;  0.0000000E+00;  2.7591280E+01;  4.0000000E+04;  0.0000000E+00;  4.0008805E+04; -2.2267848E-02;  0.0000000E+00;  2.0259099E-04;  4.2051691E+04;
  1.9147259E-01;  9.9999998E-03;  2.8010023E-01;3663; -1.9126291E-03;  0.0000000E+00;  7.6617827E-05;  9.9406927E+02;  1.0000000E-01; -4.9134907E+03;3;  3.7174335E+01;  0.0000000E+00; -2.4452471E+01;0; -2.2129690E-02;  3.9519523E+04;  0.0000000E+00;  3.0973232E+01;  4.0000000E+04;  0.0000000E+00;  4.0006785E+04; -2.2287516E-02;  0.0000000E+00;  1.5782629E-04;  4.7420508E+04;
  1.9176137E-01;  9.9999998E-03;  2.9001072E-01;3664; -1.7208493E-03;  0.0000000E+00;  8.4227097E-05;  9.9136102E+02;  1.0000000E-01; -7.1572295E+03;3;  5.5321655E+01;  0.0000000E+00; -4.6187008E+01;0; -2.2731083E-02;  3.9293688E+04;  0.0000000E+00;  2.9840755E+01;  4.0000000E+04;  0.0000000E+00;  4.0015910E+04; -2.2687923E-02;  0.0000000E+00; -4.3158478E-05;  4.5464062E+04;
  1.9186135E-01;  9.9999998E-03;  2.9994172E-01;3665; -1.6565741E-03;  0.0000000E+00;  1.4329505E-04;  9.8870728E+02;  1.0000000E-01; -9.3557852E+03;3;  7.2906044E+01;  0.0000000E+00; -7.0975067E+01;0; -2.3309415E-02;  3.9074016E+04;  0.0000000E+00;  3.0424952E+01;  4.0000000E+04;  0.0000000E+00;  4.0022453E+04; -2.3308985E-02;  0.0000000E+00; -4.3050386E-07;  4.4124254E+04;
  2.0098026E-01;  9.9999998E-03;  2.4031737E-01;3720; -3.0384692E-03;  0.0000000E+00; -1.3934405E-04;  9.9889246E+02;  1.0000000E-01; -9.1760370E+02;3; -2.9744985E+00;  0.0000000E+00;  4.7146182E+00;0; -1.9590536E-02;  3.9933523E+04;  0.0000000E+00;  1.0526313E+01;  4.0000000E+04;  0.0000000E+00;  3.9982867E+04; -1.9656066E-02;  0.0000000E+00;  6.5528977E-05;  1.5835861E+04;
  2.0101102E-01;  9.9999998E-03;  2.5027451E-01;3721; -3.0291069E-03;  0.0000000E+00; -1.8934661E-04;  9.9826123E+02;  1.0000000E-01; -1.4405519E+03;3; -3.6407021E-01;  0.0000000E+00;  2.7730358E+00;0; -2.1086128E-02;  3.9880871E+04;  0.0000000E+00;  1.5233889E+01;  4.0000000E+04;  0.0000000E+00;  3.9985078E+04; -2.0930275E-02;  0.0000000E+00; -1.5585241E-04;  2.3012191E+04;
  2.0106831E-01;  9.9999998E-03;  2.6022124E-01;3722; -2.8489439E-03;  0.0000000E+00; -1.5481935E-04;  9.9741199E+02;  1.0000000E-01; -2.1441370E+03;3;  5.7348046E+00;  0.0000000E+00; -2.3016076E+00;0; -2.2437114E-02;  3.9807629E+04;  0.0000000E+00;  2.0993856E+01;  4.0000000E+04;  0.0000000E+00;  3.9988797E+04; -2.2159247E-02;  0.0000000E+00; -2.7786725E-04;  3.1927967E+04;
  2.0122457E-01;  9.9999998E-03;  2.7018106E-01;3723; -2.4259905E-03;  0.0000000E+00; -8.3100742E-05;  9.9604749E+02;  1.0000000E-01; -3.2745740E+03;3;  1.5814842E+01;  0.0000000E+00; -1.4775163E+01;0; -2.3208201E-02;  3.9696090E+04;  0.0000000E+00;  2.5704948E+01;  4.0000000E+04;  0.0000000E+00;  3.9989168E+04; -2.2911025E-02;  0.0000000E+00; -2.9717560E-04;  3.9443625E+04;
  2.0152999E-01;  9.9999998E-03;  2.8012723E-01;3724; -2.0643363E-03;  0.0000000E+00; -8.0216465E-05;  9.9385858E+02;  1.0000000E-01; -5.0880537E+03;3;  2.8645712E+01;  0.0000000E+00; -3.3122917E+01;0; -2.4056055E-02;  3.9513609E+04;  0.0000000E+00;  2.4867897E+01;  4.0000000E+04;  0.0000000E+00;  3.9995461E+04; -2.3445837E-02;  0.0000000E+00; -6.1021798E-04;  3.8524188E+04;
  2.0173693E-01;  9.9999998E-03;  2.9005930E-01;3725; -1.9423034E-03;  0.0000000E+00; -1.7834855E-05;  9.9133862E+02;  1.0000000E-01; -7.1757969E+03;3;  4.3756359E+01;  0.0000000E+00; -5.1815594E+01;0; -2.5026275E-02;  3.9296426E+04;  0.0000000E+00;  2.2858004E+01;  4.0000000E+04;  0.0000000E+00;  4.0009762E+04; -2.4404556E-02;  0.0000000E+00; -6.2172016E-04;  3.4404230E+04;
  2.0175396E-01;  9.9999998E-03;  3.0003753E-01;3726; -1.5802057E-03;  0.0000000E+00;  3.5889807E-05;  9.8884070E+02;  1.0000000E-01; -9.2452695E+03;3;  5.9344505E+01;  0.0000000E+00; -8.1574989E+01;0; -2.4465423E-02;  3.9093848E+04;  0.0000000E+00;  2.5486462E+01;  4.0000000E+04;  0.0000000E+00;  4.0010887E+04; -2.3864504E-02;  0.0000000E+00; -6.0091889E-04;  3.5200156E+04;
  2.1087810E-01;  9.9999998E-03;  2.4028000E-01;3781; -3.1429445E-03;  0.0000000E+00; -1.8722746E-04;  9.9871930E+02;  1.0000000E-01; -1.0610564E+03;3; -4.0575337E+00;  0.0000000E+00;  2.7265072E+00;0; -2.0091061E-02;  3.9928855E+04;  0.0000000E+00;  1.0847028E+01;  4.0000000E+04;  0.0000000E+00;  3.9974160E+04; -1.9927504E-02;  0.0000000E+00; -1.6355704E-04;  1.6438617E+04;
  2.1089950E-01;  9.9999998E-03;  2.5023460E-01;3782; -3.1140049E-03;  0.0000000E+00; -2.2989941E-04;  9.9825262E+02;  1.0000000E-01; -1.4476627E+03;3; -2.1928809E+00;  0.0000000E+00;  5.2861470E-01;0; -2.1710837E-02;  3.9888191E+04;  0.0000000E+00;  1.5845522E+01;  4.0000000E+04;  0.0000000E+00;  3.9976855E+04; -2.1244271E-02;  0.0000000E+00; -4.6656677E-04;  2.3918588E+04;
  2.1098042E-01;  9.9999998E-03;  2.6019290E-01;3783; -2.8795300E-03;  0.0000000E+00; -1.7502344E-04;  9.9753052E+02;  1.0000000E-01; -2.0459175E+03;3;  2.5629809E+00;  0.0000000E+00; -5.2097635E+00;0; -2.3050405E-02;  3.9825926E+04;  0.0000000E+00;  2.1456032E+01;  4.0000000E+04;  0.0000000E+00;  3.9980707E+04; -2.2469407E-02;  0.0000000E+00; -5.8099849E-04;  3.2547451E+04;
  2.1124601E-01;  9.9999998E-03;  2.7015769E-01;3784; -2.4902360E-03;  0.0000000E+00; -1.3329639E-04;  9.9612585E+02;  1.0000000E-01; -3.2096377E+03;3;  1.0137372E+01;  0.0000000E+00; -1.7217655E+01;0; -2.4134865E-02;  3.9708633E+04;  0.0000000E+00;  2.3110371E+01;  4.0000000E+04;  0.0000000E+00;  3.9984051E+04; -2.3360774E-02;  0.0000000E+00; -7.7409047E-04;  3.5576988E+04;
  2.1154627E-01;  9.9999998E-03;  2.8011081E-01;3785; -2.2462851E-03;  0.0000000E+00; -1.1449298E-04;  9.9408978E+02;  1.0000000E-01; -4.8965034E+03;3;  1.9574686E+01;  0.0000000E+00; -3.2077354E+01;0; -2.5449719E-02;  3.9532438E+04;  0.0000000E+00;  1.9747280E+01;  4.0000000E+04;  0.0000000E+00;  3.9995488E+04; -2.4341354E-02;  0.0000000E+00; -1.1083654E-03;  3.0633602E+04;
  2.1167634E-01;  9.9999998E-03;  2.9007134E-01;3786; -2.0287712E-03;  0.0000000E+00; -7.4541262E-05;  9.9188708E+02;  1.0000000E-01; -6.7213901E+03;3;  3.0739687E+01;  0.0000000E+00; -5.0819828E+01;0; -2.6416395E-02;  3.9342156E+04;  0.0000000E+00;  1.8354834E+01;  4.0000000E+04;  0.0000000E+00;  4.0006602E+04; -2.5128156E-02;  0.0000000E+00; -1.2882382E-03;  2.6796387E+04;
  2.1170089E-01;  9.9999998E-03;  3.0005065E-01;3787; -1.7524405E-03;  0.0000000E+00; -3.7602240E-05;  9.8953064E+02;  1.0000000E-01; -8.6736807E+03;3;  4.3682957E+01;  0.0000000E+00; -7.5845490E+01;0; -2.6566939E-02;  3.9145836E+04;  0.0000000E+00;  2.0476122E+01;  4.0000000E+04;  0.0000000E+00;  4.0013391E+04; -2.5167972E-02;  0.0000000E+00; -1.3989682E-03;  2.6456350E+04;
  2.2085750E-01;  9.9999998E-03;  2.4019891E-01;3842; -3.2305662E-03;  0.0000000E+00; -1.7766477E-04;  9.9856470E+02;  1.0000000E-01; -1.1891022E+03;3; -4.5795274E+00;  0.0000000E+00;  2.5099087E+00;0; -2.0408528E-02;  3.9914480E+04;  0.0000000E+00;  1.0664607E+01;  4.0000000E+04;  0.0000000E+00;  3.9976480E+04; -2.0164229E-02;  0.0000000E+00; -2.4429939E-04;  1.6072928E+04;
  2.2087346E-01;  9.9999998E-03;  2.5016707E-01;3843; -3.1923782E-03;  0.0000000E+00; -2.0085696E-04;  9.9823602E+02;  1.0000000E-01; -1.4614402E+03;3; -3.4926291E+00;  0.0000000E+00;  7.1139693E-01;0; -2.2044279E-02;  3.9885227E+04;  0.0000000E+00;  1.5634492E+01;  4.0000000E+04;  0.0000000E+00;  3.9980648E+04; -2.1474581E-02;  0.0000000E+00; -5.6969770E-04;  2.3460488E+04;
  2.2100312E-01;  9.9999998E-03;  2.6013988E-01;3844; -2.9584833E-03;  0.0000000E+00; -1.3060945E-04;  9.9759839E+02;  1.0000000E-01; -1.9896721E+03;3; -2.9894924E-01;  0.0000000E+00; -4.3851228E+00;0; -2.3360828E-02;  3.9829668E+04;  0.0000000E+00;  2.0124441E+01;  4.0000000E+04;  0.0000000E+00;  3.9984004E+04; -2.2715351E-02;  0.0000000E+00; -6.4547732E-04;  3.0409768E+04;
  2.2131617E-01;  9.9999998E-03;  2.7011326E-01;3845; -2.6667772E-03;  0.0000000E+00; -9.5654730E-05;  9.9629285E+02;  1.0000000E-01; -3.0713206E+03;3;  4.6194396E+00;  0.0000000E+00; -1.3897533E+01;0; -2.4747280E-02;  3.9717973E+04;  0.0000000E+00;  1.8950287E+01;  4.0000000E+04;  0.0000000E+00;  3.9990512E+04; -2.3841538E-02;  0.0000000E+00; -9.0574217E-04;  2.9235580E+04;
  2.2155143E-01;  9.9999998E-03;  2.8008294E-01;3846; -2.4530226E-03;  0.0000000E+00; -6.7113608E-05;  9.9459460E+02;  1.0000000E-01; -4.4782437E+03;3;  1.0667872E+01;  0.0000000E+00; -2.6270611E+01;0; -2.6234163E-02;  3.9568914E+04;  0.0000000E+00;  1.5235483E+01;  4.0000000E+04;  0.0000000E+00;  4.0001203E+04; -2.5003131E-02;  0.0000000E+00; -1.2310313E-03;  2.3580664E+04;
  2.2164933E-01;  9.9999998E-03;  2.9005599E-01;3847; -2.2154797E-03;  0.0000000E+00; -2.4567074E-05;  9.9272217E+02;  1.0000000E-01; -6.0295581E+03;3;  1.8094919E+01;  0.0000000E+00; -4.2450241E+01;0; -2.7270254E-02;  3.9405719E+04;  0.0000000E+00;  1.3930167E+01;  4.0000000E+04;  0.0000000E+00;  4.0011301E+04; -2.5854222E-02;  0.0000000E+00; -1.4160307E-03;  1.9905818E+04;
  2.2167316E-01;  9.9999998E-03;  3.0003563E-01;3848; -1.9482777E-03;  0.0000000E+00;  4.4865876E-05;  9.9066718E+02;  1.0000000E-01; -7.7320776E+03;3;  2.7718309E+01;  0.0000000E+00; -6.2594509E+01;0; -2.7370611E-02;  3.9230805E+04;  0.0000000E+00;  1.5652113E+01;  4.0000000E+04;  0.0000000E+00;  4.0020254E+04; -2.6103608E-02;  0.0000000E+00; -1.2670027E-03;  1.9356193E+04;
  2.3092221E-01;  9.9999998E-03;  2.4010785E-01;3903; -3.3255769E-03;  0.0000000E+00; -9.3160721E-05;  9.9843475E+02;  1.0000000E-01; -1.2967534E+03;3; -4.6639895E+00;  0.0000000E+00;  3.0613828E+00;0; -2.0496622E-02;  3.9894504E+04;  0.0000000E+00;  9.5853291E+00;  4.0000000E+04;  0.0000000E+00;  3.9986574E+04; -2.0449366E-02;  0.0000000E+00; -4.7255962E-05;  1.4298094E+04;
  2.3094256E-01;  9.9999998E-03;  2.5009805E-01;3904; -3.2975795E-03;  0.0000000E+00; -1.0634051E-04;  9.9819214E+02;  1.0000000E-01; -1.4977848E+03;3; -4.3795571E+00;  0.0000000E+00;  1.8831040E+00;0; -2.2080962E-02;  3.9873527E+04;  0.0000000E+00;  1.3849227E+01;  4.0000000E+04;  0.0000000E+00;  3.9989754E+04; -2.1725627E-02;  0.0000000E+00; -3.5533414E-04;  2.0683922E+04;
  2.3111437E-01;  9.9999998E-03;  2.6008585E-01;3905; -3.1240869E-03;  0.0000000E+00; -4.6970301E-05;  9.9763507E+02;  1.0000000E-01; -1.9593026E+03;3; -2.8286905E+00;  0.0000000E+00; -1.8460257E+00;0; -2.3473594E-02;  3.9825039E+04;  0.0000000E+00;  1.6377127E+01;  4.0000000E+04;  0.0000000E+00;  3.9993891E+04; -2.3019193E-02;  0.0000000E+00; -4.5440154E-04;  2.4760939E+04;
  2.3136404E-01;  9.9999998E-03;  2.7007252E-01;3906; -2.8846825E-03;  0.0000000E+00; -1.1293965E-05;  9.9661987E+02;  1.0000000E-01; -2.8003652E+03;3; -3.1678599E-01;  0.0000000E+00; -9.0699463E+00;0; -2.4964942E-02;  3.9737641E+04;  0.0000000E+00;  1.4719902E+01;  4.0000000E+04;  0.0000000E+00;  3.9998898E+04; -2.4253158E-02;  0.0000000E+00; -7.1178307E-04;  2.2797777E+04;
  2.3154566E-01;  9.9999998E-03;  2.8005403E-01;3907; -2.6827855E-03;  0.0000000E+00;  2.7499445E-05;  9.9528766E+02;  1.0000000E-01; -3.9040872E+03;3;  2.7818868E+00;  0.0000000E+00; -1.8934509E+01;0; -2.6456416E-02;  3.9620676E+04;  0.0000000E+00;  1.1232689E+01;  4.0000000E+04;  0.0000000E+00;  4.0006777E+04; -2.5485262E-02;  0.0000000E+00; -9.7115309E-04;  1.7568457E+04;
  2.3162842E-01;  9.9999998E-03;  2.9003441E-01;3908; -2.4552657E-03;  0.0000000E+00;  9.4817762E-05;  9.9376740E+02;  1.0000000E-01; -5.1636069E+03;3;  6.8068771E+00;  0.0000000E+00; -3.1680098E+01;0; -2.7374269E-02;  3.9486371E+04;  0.0000000E+00;  9.7224884E+00;  4.0000000E+04;  0.0000000E+00;  4.0016418E+04; -2.6452471E-02;  0.0000000E+00; -9.2179829E-04;  1.4089817E+04;
  2.3165549E-01;  9.9999998E-03;  3.0001572E-01;3909; -2.2047684E-03;  0.0000000E+00;  2.1081640E-04;  9.9205121E+02;  1.0000000E-01; -6.5854434E+03;3;  1.2919170E+01;  0.0000000E+00; -4.6855572E+01;0; -2.7178368E-02;  3.9337312E+04;  0.0000000E+00;  1.0740463E+01;  4.0000000E+04;  0.0000000E+00;  4.0026281E+04; -2.6927406E-02;  0.0000000E+00; -2.5096157E-04;  1.3375911E+04;
  2.4103113E-01;  9.9999998E-03;  2.4003634E-01;3964; -3.4406846E-03;  0.0000000E+00;  1.7939157E-05;  9.9833093E+02;  1.0000000E-01; -1.3827758E+03;3; -4.5352392E+00;  0.0000000E+00;  3.3711112E+00;0; -2.0479655E-02;  3.9875828E+04;  0.0000000E+00;  7.7855535E+00;  4.0000000E+04;  0.0000000E+00;  3.9997574E+04; -2.0831674E-02;  0.0000000E+00;  3.5202017E-04;  1.1569904E+04;
  2.4107975E-01;  9.9999998E-03;  2.5004300E-01;3965; -3.4421838E-03;  0.0000000E+00;  5.6388935E-06;  9.9814679E+02;  1.0000000E-01; -1.5353640E+03;3; -4.9270782E+00;  0.0000000E+00;  2.8646729E+00;0; -2.1989785E-02;  3.9860605E+04;  0.0000000E+00;  1.0653762E+01;  4.0000000E+04;  0.0000000E+00;  3.9999719E+04; -2.2052215E-02;  0.0000000E+00;  6.2430991E-05;  1.5946876E+04;
  2.4121611E-01;  9.9999998E-03;  2.6004344E-01;3966; -3.3312882E-03;  0.0000000E+00;  4.9627324E-05;  9.9775061E+02;  1.0000000E-01; -1.8635522E+03;3; -4.7406201E+00;  0.0000000E+00;  5.0510675E-01;0; -2.3431169E-02;  3.9826742E+04;  0.0000000E+00;  1.2064302E+01;  4.0000000E+04;  0.0000000E+00;  4.0002367E+04; -2.3349786E-02;  0.0000000E+00; -8.1381862E-05;  1.8356824E+04;
  2.4138081E-01;  9.9999998E-03;  2.7003950E-01;3967; -3.1270005E-03;  0.0000000E+00;  9.4997456E-05;  9.9705865E+02;  1.0000000E-01; -2.4368694E+03;3; -4.1186342E+00;  0.0000000E+00; -4.6170726E+00;0; -2.4861701E-02;  3.9768051E+04;  0.0000000E+00;  1.0989369E+01;  4.0000000E+04;  0.0000000E+00;  4.0005691E+04; -2.4606707E-02;  0.0000000E+00; -2.5499373E-04;  1.7186912E+04;
  2.4152642E-01;  9.9999998E-03;  2.8002882E-01;3968; -2.9454122E-03;  0.0000000E+00;  1.4866672E-04;  9.9608142E+02;  1.0000000E-01; -3.2464761E+03;3; -3.3680010E+00;  0.0000000E+00; -1.1936130E+01;0; -2.6234148E-02;  3.9681574E+04;  0.0000000E+00;  7.8299055E+00;  4.0000000E+04;  0.0000000E+00;  4.0011215E+04; -2.5870651E-02;  0.0000000E+00; -3.6349718E-04;  1.2676523E+04;
  2.4159786E-01;  9.9999998E-03;  2.9001558E-01;3969; -2.7154882E-03;  0.0000000E+00;  2.5359768E-04;  9.9491229E+02;  1.0000000E-01; -4.2150908E+03;3; -2.1109138E+00;  0.0000000E+00; -2.1554964E+01;0; -2.6722599E-02;  3.9577586E+04;  0.0000000E+00;  6.2613835E+00;  4.0000000E+04;  0.0000000E+00;  4.0019410E+04; -2.6867136E-02;  0.0000000E+00;  1.4453696E-04;  9.7633027E+03;
  2.4163085E-01;  9.9999998E-03;  3.0000043E-01;3970; -2.4833269E-03;  0.0000000E+00;  4.1844198E-04;  9.9352521E+02;  1.0000000E-01; -5.3642432E+03;3;  7.7646059E-01;  0.0000000E+00; -3.2512424E+01;0; -2.6005285E-02;  3.9454848E+04;  0.0000000E+00;  6.4203682E+00;  4.0000000E+04;  0.0000000E+00;  4.0029051E+04; -2.7515545E-02;  0.0000000E+00;  1.5102613E-03;  8.8604209E+03;
  2.5110957E-01;  9.9999998E-03;  2.3999059E-01;4025; -3.5834280E-03;  0.0000000E+00;  1.1933512E-04;  9.9828192E+02;  1.0000000E-01; -1.4234165E+03;3; -4.2776108E+00;  0.0000000E+00;  3.2045288E+00;0; -2.0487661E-02;  3.9863945E+04;  0.0000000E+00;  5.9016891E+00;  4.0000000E+04;  0.0000000E+00;  4.0005891E+04; -2.1319468E-02;  0.0000000E+00;  8.3180715E-04;  8.8418418E+03;
  2.5116515E-01;  9.9999998E-03;  2.5000635E-01;4026; -3.6079062E-03;  0.0000000E+00;  1.0825958E-04;  9.9818103E+02;  1.0000000E-01; -1.5069697E+03;3; -5.1128950E+00;  0.0000000E+00;  3.1986947E+00;0; -2.1894265E-02;  3.9856715E+04;  0.0000000E+00;  7.7335844E+00;  4.0000000E+04;  0.0000000E+00;  4.0007043E+04; -2.2449400E-02;  0.0000000E+00;  5.5513525E-04;  1.1681060E+04;
  2.5126246E-01;  9.9999998E-03;  2.6001289E-01;4027; -3.5500336E-03;  0.0000000E+00;  1.5513989E-04;  9.9795349E+02;  1.0000000E-01; -1.6955076E+03;3; -5.8148599E+00;  0.0000000E+00;  1.9849720E+00;0; -2.3234410E-02;  3.9838070E+04;  0.0000000E+00;  8.5613070E+00;  4.0000000E+04;  0.0000000E+00;  4.0008891E+04; -2.3689948E-02;  0.0000000E+00;  4.5553793E-04;  1.3189143E+04;
  2.5136775E-01;  9.9999998E-03;  2.7001432E-01;4028; -3.3922161E-03;  0.0000000E+00;  2.1305910E-04;  9.9754089E+02;  1.0000000E-01; -2.0373251E+03;3; -6.5081120E+00;  0.0000000E+00; -1.2777811E+00;0; -2.4516050E-02;  3.9803309E+04;  0.0000000E+00;  7.9963746E+00;  4.0000000E+04;  0.0000000E+00;  4.0010586E+04; -2.4930235E-02;  0.0000000E+00;  4.1418569E-04;  1.2725585E+04;
  2.5148061E-01;  9.9999998E-03;  2.8000972E-01;4029; -3.2096412E-03;  0.0000000E+00;  2.9364589E-04;  9.9689044E+02;  1.0000000E-01; -2.5762234E+03;3; -7.3440104E+00;  0.0000000E+00; -6.4667320E+00;0; -2.5506118E-02;  3.9746000E+04;  0.0000000E+00;  5.6879296E+00;  4.0000000E+04;  0.0000000E+00;  4.0014480E+04; -2.6134510E-02;  0.0000000E+00;  6.2839198E-04;  9.6299707E+03;
  2.5155726E-01;  9.9999998E-03;  2.9000118E-01;4030; -3.0243723E-03;  0.0000000E+00;  4.3932884E-04;  9.9602588E+02;  1.0000000E-01; -3.2924995E+03;3; -8.1362257E+00;  0.0000000E+00; -1.3122458E+01;0; -2.5485169E-02;  3.9668082E+04;  0.0000000E+00;  3.5872355E+00;  4.0000000E+04;  0.0000000E+00;  4.0020727E+04; -2.7232192E-02;  0.0000000E+00;  1.7470227E-03;  6.6062568E+03;
  2.5159532E-01;  9.9999998E-03;  2.9999045E-01;4031; -2.8028281E-03;  0.0000000E+00;  6.4322783E-04;  9.9496002E+02;  1.0000000E-01; -4.1755361E+03;3; -7.8510365E+00;  0.0000000E+00; -2.0827730E+01;0; -2.4187077E-02;  3.9572320E+04;  0.0000000E+00;  3.0441732E+00;  4.0000000E+04;  0.0000000E+00;  4.0027984E+04; -2.7996842E-02;  0.0000000E+00;  3.8097650E-03;  5.7402769E+03;
  2.6114559E-01;  9.9999998E-03;  2.3996091E-01;4086; -3.7569432E-03;  0.0000000E+00;  2.3362398E-04;  9.9829694E+02;  1.0000000E-01; -1.4109724E+03;3; -3.8736312E+00;  0.0000000E+00;  2.7668021E+00;0; -2.0449538E-02;  3.9859102E+04;  0.0000000E+00;  4.2238364E+00;  4.0000000E+04;  0.0000000E+00;  4.0012117E+04; -2.1889787E-02;  0.0000000E+00;  1.4402486E-03;  6.5381143E+03;
  2.6118129E-01;  9.9999998E-03;  2.4998228E-01;4087; -3.7987116E-03;  0.0000000E+00;  2.1455409E-04;  9.9827478E+02;  1.0000000E-01; -1.4292930E+03;3; -4.9052258E+00;  0.0000000E+00;  3.0486934E+00;0; -2.1759504E-02;  3.9859855E+04;  0.0000000E+00;  5.5253096E+00;  4.0000000E+04;  0.0000000E+00;  4.0011953E+04; -2.2908175E-02;  0.0000000E+00;  1.1486707E-03;  8.5081846E+03;
  2.6125294E-01;  9.9999998E-03;  2.5999185E-01;4088; -3.7778507E-03;  0.0000000E+00;  2.6657587E-04;  9.9819427E+02;  1.0000000E-01; -1.4960071E+03;3; -6.0719724E+00;  0.0000000E+00;  2.6023629E+00;0; -2.2929555E-02;  3.9854168E+04;  0.0000000E+00;  6.1083794E+00;  4.0000000E+04;  0.0000000E+00;  4.0013160E+04; -2.4044996E-02;  0.0000000E+00;  1.1154414E-03;  9.5874814E+03;
  2.6132309E-01;  9.9999998E-03;  2.6999611E-01;4089; -3.6698168E-03;  0.0000000E+00;  3.4647706E-04;  9.9799835E+02;  1.0000000E-01; -1.6583235E+03;3; -7.4896712E+00;  0.0000000E+00;  7.8149414E-01;0; -2.3903834E-02;  3.9838688E+04;  0.0000000E+00;  5.9328027E+00;  4.0000000E+04;  0.0000000E+00;  4.0013578E+04; -2.5223665E-02;  0.0000000E+00;  1.3198307E-03;  9.6268584E+03;
  2.6141295E-01;  9.9999998E-03;  2.7999553E-01;4090; -3.5085208E-03;  0.0000000E+00;  4.5113286E-04;  9.9761975E+02;  1.0000000E-01; -1.9719937E+03;3; -9.2532845E+00;  0.0000000E+00; -2.5643692E+00;0; -2.4479078E-02;  3.9805832E+04;  0.0000000E+00;  4.3624949E+00;  4.0000000E+04;  0.0000000E+00;  4.0015605E+04; -2.6374316E-02;  0.0000000E+00;  1.8952376E-03;  7.6790386E+03;
  2.6149684E-01;  9.9999998E-03;  2.8999105E-01;4091; -3.3566051E-03;  0.0000000E+00;  6.2765070E-04;  9.9703143E+02;  1.0000000E-01; -2.4593872E+03;3; -1.1264002E+01;  0.0000000E+00; -6.9716887E+00;0; -2.3909196E-02;  3.9752371E+04;  0.0000000E+00;  2.0358951E+00;  4.0000000E+04;  0.0000000E+00;  4.0019508E+04; -2.7491067E-02;  0.0000000E+00;  3.5818694E-03;  4.7859360E+03;
  2.6154628E-01;  9.9999998E-03;  2.9998401E-01;4092; -3.1828487E-03;  0.0000000E+00;  8.5599482E-04;  9.9624390E+02;  1.0000000E-01; -3.1118625E+03;3; -1.2754190E+01;  0.0000000E+00; -1.2090299E+01;0; -2.2226969E-02;  3.9681109E+04;  0.0000000E+00;  6.7894369E-01;  4.0000000E+04;  0.0000000E+00;  4.0025824E+04; -2.8428502E-02;  0.0000000E+00;  6.2015336E-03;  3.8749771E+03;
  2.7115750E-01;  9.9999998E-03;  2.3994477E-01;4147; -3.9613741E-03;  0.0000000E+00;  3.5440683E-04;  9.9834332E+02;  1.0000000E-01; -1.3725044E+03;3; -3.3780160E+00;  0.0000000E+00;  2.1631656E+00;0; -2.0378949E-02;  3.9858676E+04;  0.0000000E+00;  2.8180118E+00;  4.0000000E+04;  0.0000000E+00;  4.0016184E+04; -2.2502838E-02;  0.0000000E+00;  2.1238886E-03;  4.7628882E+03;
  2.7115822E-01;  9.9999998E-03;  2.4996758E-01;4148; -4.0145172E-03;  0.0000000E+00;  3.2967189E-04;  9.9837872E+02;  1.0000000E-01; -1.3432213E+03;3; -4.3916440E+00;  0.0000000E+00;  2.5759954E+00;0; -2.1561312E-02;  3.9865219E+04;  0.0000000E+00;  3.8206913E+00;  4.0000000E+04;  0.0000000E+00;  4.0014758E+04; -2.3399418E-02;  0.0000000E+00;  1.8381074E-03;  6.1326494E+03;
  2.7119884E-01;  9.9999998E-03;  2.5997820E-01;4149; -4.0213452E-03;  0.0000000E+00;  3.8517563E-04;  9.9840613E+02;  1.0000000E-01; -1.3205059E+03;3; -5.6662393E+00;  0.0000000E+00;  2.5859139E+00;0; -2.2536775E-02;  3.9869695E+04;  0.0000000E+00;  4.4804521E+00;  4.0000000E+04;  0.0000000E+00;  4.0015059E+04; -2.4409425E-02;  0.0000000E+00;  1.8726492E-03;  7.2049453E+03;
  2.7124870E-01;  9.9999998E-03;  2.6998377E-01;4150; -3.9583775E-03;  0.0000000E+00;  4.8364254E-04;  9.9837323E+02;  1.0000000E-01; -1.3477644E+03;3; -7.3201613E+00;  0.0000000E+00;  1.7464181E+00;0; -2.3166712E-02;  3.9868422E+04;  0.0000000E+00;  4.6364541E+00;  4.0000000E+04;  0.0000000E+00;  4.0015223E+04; -2.5487525E-02;  0.0000000E+00;  2.3208123E-03;  7.6203916E+03;
  2.7131528E-01;  9.9999998E-03;  2.7998564E-01;4151; -3.8291696E-03;  0.0000000E+00;  6.0837332E-04;  9.9821375E+02;  1.0000000E-01; -1.4798594E+03;3; -9.4226074E+00;  0.0000000E+00; -1.9233570E-01;0; -2.3322079E-02;  3.9855539E+04;  0.0000000E+00;  3.9104109E+00;  4.0000000E+04;  0.0000000E+00;  4.0015156E+04; -2.6564529E-02;  0.0000000E+00;  3.2424489E-03;  6.8285430E+03;
  2.7140251E-01;  9.9999998E-03;  2.8998420E-01;4152; -3.6941678E-03;  0.0000000E+00;  8.0216443E-04;  9.9787286E+02;  1.0000000E-01; -1.7622711E+03;3; -1.1935431E+01;  0.0000000E+00; -2.9716470E+00;0; -2.2288743E-02;  3.9824863E+04;  0.0000000E+00;  1.8262657E+00;  4.0000000E+04;  0.0000000E+00;  4.0017391E+04; -2.7624475E-02;  0.0000000E+00;  5.3357305E-03;  4.3277725E+03;
  2.7147537E-01;  9.9999998E-03;  2.9997990E-01;4153; -3.5978677E-03;  0.0000000E+00;  1.0341881E-03;  9.9732819E+02;  1.0000000E-01; -2.2135671E+03;3; -1.4404388E+01;  0.0000000E+00; -6.1492429E+00;0; -2.0509159E-02;  3.9775375E+04;  0.0000000E+00; -5.8360708E-01;  4.0000000E+04;  0.0000000E+00;  4.0021633E+04; -2.8702348E-02;  0.0000000E+00;  8.1931893E-03;  2.9667368E+03;
  2.8119108E-01;  9.9999998E-03;  2.3993970E-01;4208; -4.1910000E-03;  0.0000000E+00;  4.7384517E-04;  9.9838934E+02;  1.0000000E-01; -1.3343820E+03;3; -2.8576410E+00;  0.0000000E+00;  1.5283030E+00;0; -2.0298112E-02;  3.9860379E+04;  0.0000000E+00;  1.6759967E+00;  4.0000000E+04;  0.0000000E+00;  4.0018148E+04; -2.3113305E-02;  0.0000000E+00;  2.8151935E-03;  3.5003228E+03;
  2.8113964E-01;  9.9999998E-03;  2.4996023E-01;4209; -4.2513534E-03;  0.0000000E+00;  4.4924335E-04;  9.9844702E+02;  1.0000000E-01; -1.2866302E+03;3; -3.7054765E+00;  0.0000000E+00;  1.9520448E+00;0; -2.1323655E-02;  3.9869340E+04;  0.0000000E+00;  2.3793721E+00;  4.0000000E+04;  0.0000000E+00;  4.0016309E+04; -2.3885913E-02;  0.0000000E+00;  2.5622584E-03;  4.2435991E+03;
  2.8113362E-01;  9.9999998E-03;  2.5997028E-01;4210; -4.2810971E-03;  0.0000000E+00;  5.0173805E-04;  9.9854205E+02;  1.0000000E-01; -1.2078671E+03;3; -4.8463721E+00;  0.0000000E+00;  2.1825211E+00;0; -2.2147022E-02;  3.9879785E+04;  0.0000000E+00;  3.1178980E+00;  4.0000000E+04;  0.0000000E+00;  4.0016090E+04; -2.4759656E-02;  0.0000000E+00;  2.6126341E-03;  5.2625898E+03;
  2.8115791E-01;  9.9999998E-03;  2.6997596E-01;4211; -4.2605055E-03;  0.0000000E+00;  6.0766371E-04;  9.9861505E+02;  1.0000000E-01; -1.1474243E+03;3; -6.3733873E+00;  0.0000000E+00;  1.9380717E+00;0; -2.2532437E-02;  3.9887855E+04;  0.0000000E+00;  3.6180041E+00;  4.0000000E+04;  0.0000000E+00;  4.0015602E+04; -2.5713533E-02;  0.0000000E+00;  3.1810971E-03;  6.0332100E+03;
  2.8120580E-01;  9.9999998E-03;  2.7997893E-01;4212; -4.1828034E-03;  0.0000000E+00;  7.4951421E-04;  9.9861438E+02;  1.0000000E-01; -1.1479675E+03;3; -8.3731432E+00;  0.0000000E+00;  9.9689484E-01;0; -2.2316871E-02;  3.9889309E+04;  0.0000000E+00;  3.5054085E+00;  4.0000000E+04;  0.0000000E+00;  4.0014812E+04; -2.6704099E-02;  0.0000000E+00;  4.3872278E-03;  6.0043511E+03;
  2.8127393E-01;  9.9999998E-03;  2.8997949E-01;4213; -4.0643676E-03;  0.0000000E+00;  9.5276238E-04;  9.9849133E+02;  1.0000000E-01; -1.2498906E+03;3; -1.0853728E+01;  0.0000000E+00; -6.1948740E-01;0; -2.0942068E-02;  3.9879273E+04;  0.0000000E+00;  2.3473001E+00;  4.0000000E+04;  0.0000000E+00;  4.0014922E+04; -2.7682738E-02;  0.0000000E+00;  6.7406707E-03;  4.6267256E+03;
  2.8135103E-01;  9.9999998E-03;  2.9997763E-01;4214; -3.9640898E-03;  0.0000000E+00;  1.1944755E-03;  9.9819403E+02;  1.0000000E-01; -1.4962046E+03;3; -1.3588290E+01;  0.0000000E+00; -2.6117835E+00;0; -1.8793583E-02;  3.9853047E+04;  0.0000000E+00; -2.5789297E-04;  4.0000000E+04;  0.0000000E+00;  4.0016910E+04; -2.8668201E-02;  0.0000000E+00;  9.8746167E-03;  2.4905972E+03;
  2.9127201E-01;  9.9999998E-03;  2.3994280E-01;4269; -4.4380245E-03;  0.0000000E+00;  5.8391393E-04;  9.9842664E+02;  1.0000000E-01; -1.3035187E+03;3; -2.3818283E+00;  0.0000000E+00;  9.7532427E-01;0; -2.0234831E-02;  3.9863332E+04;  0.0000000E+00;  8.7604827E-01;  4.0000000E+04;  0.0000000E+00;  4.0018277E+04; -2.3679847E-02;  0.0000000E+00;  3.4450153E-03;  2.7827795E+03;
  2.9118446E-01;  9.9999998E-03;  2.4995846E-01;4270; -4.5016231E-03;  0.0000000E+00;  5.6494499E-04;  9.9846985E+02;  1.0000000E-01; -1.2677173E+03;3; -2.9959729E+00;  0.0000000E+00;  1.3288238E+00;0; -2.1099277E-02;  3.9870844E+04;  0.0000000E+00;  1.1413437E+00;  4.0000000E+04;  0.0000000E+00;  4.0016641E+04; -2.4333529E-02;  0.0000000E+00;  3.2342533E-03;  2.8746318E+03;
  2.9110795E-01;  9.9999998E-03;  2.5996664E-01;4271; -4.5485385E-03;  0.0000000E+00;  6.1388919E-04;  9.9858386E+02;  1.0000000E-01; -1.1732507E+03;3; -3.8699675E+00;  0.0000000E+00;  1.6158628E+00;0; -2.1797361E-02;  3.9882711E+04;  0.0000000E+00;  1.7422475E+00;  4.0000000E+04;  0.0000000E+00;  4.0016355E+04; -2.5068652E-02;  0.0000000E+00;  3.2712910E-03;  3.4811921E+03;
  2.9108524E-01;  9.9999998E-03;  2.6997158E-01;4272; -4.5649521E-03;  0.0000000E+00;  7.2094263E-04;  9.9870966E+02;  1.0000000E-01; -1.0690068E+03;3; -5.0735555E+00;  0.0000000E+00;  1.6683174E+00;0; -2.2018678E-02;  3.9895297E+04;  0.0000000E+00;  2.3989670E+00;  4.0000000E+04;  0.0000000E+00;  4.0015656E+04; -2.5882071E-02;  0.0000000E+00;  3.8633933E-03;  4.2817510E+03;
  2.9111525E-01;  9.9999998E-03;  2.7997458E-01;4273; -4.5484649E-03;  0.0000000E+00;  8.6390978E-04;  9.9879633E+02;  1.0000000E-01; -9.9720636E+02;3; -6.6799645E+00;  0.0000000E+00;  1.3279825E+00;0; -2.1656401E-02;  3.9904523E+04;  0.0000000E+00;  2.5002508E+00;  4.0000000E+04;  0.0000000E+00;  4.0014465E+04; -2.6757732E-02;  0.0000000E+00;  5.1013306E-03;  4.4443691E+03;
  2.9116580E-01;  9.9999998E-03;  2.8997594E-01;4274; -4.5021414E-03;  0.0000000E+00;  1.0607460E-03;  9.9881470E+02;  1.0000000E-01; -9.8199695E+02;3; -8.7429028E+00;  0.0000000E+00;  5.5142581E-01;0; -2.0280125E-02;  3.9907805E+04;  0.0000000E+00;  1.7840708E+00;  4.0000000E+04;  0.0000000E+00;  4.0014043E+04; -2.7672336E-02;  0.0000000E+00;  7.3922104E-03;  3.6062979E+03;
  2.9121873E-01;  9.9999998E-03;  2.9997566E-01;4275; -4.4361800E-03;  0.0000000E+00;  1.2960711E-03;  9.9872736E+02;  1.0000000E-01; -1.0543406E+03;3; -1.1206593E+01;  0.0000000E+00; -5.6929785E-01;0; -1.8143900E-02;  3.9901750E+04;  0.0000000E+00;  1.6353075E-01;  4.0000000E+04;  0.0000000E+00;  4.0014051E+04; -2.8606702E-02;  0.0000000E+00;  1.0462802E-02;  2.0821765E+03;
  3.0133492E-01;  9.9999998E-03;  2.3995151E-01;4330; -4.6928618E-03;  0.0000000E+00;  6.8407517E-04;  9.9846771E+02;  1.0000000E-01; -1.2694950E+03;3; -2.0090837E+00;  0.0000000E+00;  5.6761026E-01;0; -2.0186907E-02;  3.9867512E+04;  0.0000000E+00;  5.2867156E-01;  4.0000000E+04;  0.0000000E+00;  4.0017684E+04; -2.4169905E-02;  0.0000000E+00;  3.9829980E-03;  2.4571282E+03;
  3.0122721E-01;  9.9999998E-03;  2.4996130E-01;4331; -4.7550253E-03;  0.0000000E+00;  6.7652483E-04;  9.9848419E+02;  1.0000000E-01; -1.2558163E+03;3; -2.3979948E+00;  0.0000000E+00;  8.1708449E-01;0; -2.0891804E-02;  3.9871457E+04;  0.0000000E+00;  5.1041752E-01;  4.0000000E+04;  0.0000000E+00;  4.0016773E+04; -2.4715202E-02;  0.0000000E+00;  3.8233981E-03;  2.3598916E+03;
  3.0111846E-01;  9.9999998E-03;  2.5996652E-01;4332; -4.8113321E-03;  0.0000000E+00;  7.2189292E-04;  9.9856927E+02;  1.0000000E-01; -1.1853492E+03;3; -2.9756627E+00;  0.0000000E+00;  1.0606183E+00;0; -2.1500127E-02;  3.9880703E+04;  0.0000000E+00;  7.3249078E-01;  4.0000000E+04;  0.0000000E+00;  4.0016355E+04; -2.5319185E-02;  0.0000000E+00;  3.8190573E-03;  2.4638474E+03;
  3.0107418E-01;  9.9999998E-03;  2.6996988E-01;4333; -4.8556849E-03;  0.0000000E+00;  8.2734908E-04;  9.9868848E+02;  1.0000000E-01; -1.0865865E+03;3; -3.7902639E+00;  0.0000000E+00;  1.2087286E+00;0; -2.1618577E-02;  3.9892617E+04;  0.0000000E+00;  1.0111588E+00;  4.0000000E+04;  0.0000000E+00;  4.0015895E+04; -2.5986670E-02;  0.0000000E+00;  4.3680933E-03;  2.6454211E+03;
  3.0108956E-01;  9.9999998E-03;  2.7997220E-01;4334; -4.8890840E-03;  0.0000000E+00;  9.6791307E-04;  9.9879840E+02;  1.0000000E-01; -9.9547803E+02;3; -4.8981490E+00;  0.0000000E+00;  1.1588455E+00;0; -2.1174038E-02;  3.9904410E+04;  0.0000000E+00;  9.1989589E-01;  4.0000000E+04;  0.0000000E+00;  4.0014562E+04; -2.6715769E-02;  0.0000000E+00;  5.5417307E-03;  2.4976526E+03;
  3.0112812E-01;  9.9999998E-03;  2.8997347E-01;4335; -4.9151727E-03;  0.0000000E+00;  1.1537544E-03;  9.9887732E+02;  1.0000000E-01; -9.3009717E+02;3; -6.3534255E+00;  0.0000000E+00;  8.5937321E-01;0; -1.9867092E-02;  3.9913145E+04;  0.0000000E+00;  1.9402339E-01;  4.0000000E+04;  0.0000000E+00;  4.0013676E+04; -2.7505295E-02;  0.0000000E+00;  7.6382025E-03;  1.8971263E+03;
  3.0116519E-01;  9.9999998E-03;  2.9997367E-01;4336; -4.9394718E-03;  0.0000000E+00;  1.3565735E-03;  9.9889935E+02;  1.0000000E-01; -9.1187543E+02;3; -8.1744537E+00;  0.0000000E+00;  3.2360232E-01;0; -1.8215861E-02;  3.9917555E+04;  0.0000000E+00; -1.2250338E+00;  4.0000000E+04;  0.0000000E+00;  4.0012965E+04; -2.8363053E-02;  0.0000000E+00;  1.0147193E-02;  2.1212004E+03;
  3.1140825E-01;  9.9999998E-03;  2.3996302E-01;4391; -4.9496833E-03;  0.0000000E+00;  7.7682547E-04;  9.9851129E+02;  1.0000000E-01; -1.2333478E+03;3; -1.7589462E+00;  0.0000000E+00;  3.1137878E-01;0; -2.0148506E-02;  3.9872055E+04;  0.0000000E+00;  4.4093901E-01;  4.0000000E+04;  0.0000000E+00;  4.0015664E+04; -2.4573717E-02;  0.0000000E+00;  4.4252109E-03;  2.2297576E+03;
  3.1128258E-01;  9.9999998E-03;  2.4996674E-01;4392; -5.0082216E-03;  0.0000000E+00;  7.8359683E-04;  9.9848260E+02;  1.0000000E-01; -1.2571497E+03;3; -1.9677469E+00;  0.0000000E+00;  4.6001062E-01;0; -2.0713545E-02;  3.9871582E+04;  0.0000000E+00;  2.9478249E-01;  4.0000000E+04;  0.0000000E+00;  4.0015680E+04; -2.5024051E-02;  0.0000000E+00;  4.3105050E-03;  2.1847830E+03;
  3.1115258E-01;  9.9999998E-03;  2.5996879E-01;4393; -5.0663673E-03;  0.0000000E+00;  8.3091331E-04;  9.9852234E+02;  1.0000000E-01; -1.2242123E+03;3; -2.2954857E+00;  0.0000000E+00;  6.2564021E-01;0; -2.1224748E-02;  3.9876359E+04;  0.0000000E+00;  2.4550085E-01;  4.0000000E+04;  0.0000000E+00;  4.0016301E+04; -2.5510821E-02;  0.0000000E+00;  4.2860731E-03;  2.1818108E+03;
  3.1109774E-01;  9.9999998E-03;  2.6997027E-01;4394; -5.1240283E-03;  0.0000000E+00;  9.3421654E-04;  9.9860425E+02;  1.0000000E-01; -1.1563623E+03;3; -2.7710867E+00;  0.0000000E+00;  7.5869846E-01;0; -2.1274187E-02;  3.9884930E+04;  0.0000000E+00;  1.7534998E-01;  4.0000000E+04;  0.0000000E+00;  4.0015598E+04; -2.6039978E-02;  0.0000000E+00;  4.7657909E-03;  2.1320105E+03;
  3.1111094E-01;  9.9999998E-03;  2.7997142E-01;4395; -5.1831724E-03;  0.0000000E+00;  1.0770460E-03;  9.9869519E+02;  1.0000000E-01; -1.0810065E+03;3; -3.4268985E+00;  0.0000000E+00;  8.0507141E-01;0; -2.0698858E-02;  3.9894785E+04;  0.0000000E+00; -1.7335097E-01;  4.0000000E+04;  0.0000000E+00;  4.0015293E+04; -2.6612893E-02;  0.0000000E+00;  5.9140339E-03;  2.0037745E+03;
  3.1115568E-01;  9.9999998E-03;  2.8997207E-01;4396; -5.2493527E-03;  0.0000000E+00;  1.2564361E-03;  9.9877917E+02;  1.0000000E-01; -1.0114282E+03;3; -4.3004546E+00;  0.0000000E+00;  7.1194398E-01;0; -1.9368742E-02;  3.9904258E+04;  0.0000000E+00; -1.0371209E+00;  4.0000000E+04;  0.0000000E+00;  4.0014527E+04; -2.7234271E-02;  0.0000000E+00;  7.8655304E-03;  2.2603037E+03;
  3.1120408E-01;  9.9999998E-03;  2.9997215E-01;4397; -5.3297114E-03;  0.0000000E+00;  1.4356648E-03;  9.9883887E+02;  1.0000000E-01; -9.6199750E+02;3; -5.4216905E+00;  0.0000000E+00;  4.8166308E-01;0; -1.7991776E-02;  3.9911719E+04;  0.0000000E+00; -2.4775007E+00;  4.0000000E+04;  0.0000000E+00;  4.0013297E+04; -2.7919730E-02;  0.0000000E+00;  9.9279545E-03;  3.6922319E+03;
  3.2150495E-01;  9.9999998E-03;  2.3997489E-01;4452; -5.2057453E-03;  0.0000000E+00;  8.6660625E-04;  9.9855579E+02;  1.0000000E-01; -1.1965094E+03;3; -1.6243109E+00;  0.0000000E+00;  1.7723946E-01;0; -2.0111101E-02;  3.9877113E+04;  0.0000000E+00;  4.6423784E-01;  4.0000000E+04;  0.0000000E+00;  4.0014145E+04; -2.4896484E-02;  0.0000000E+00;  4.7853836E-03;  2.0435441E+03;
  3.2138458E-01;  9.9999998E-03;  2.4997328E-01;4453; -5.2598389E-03;  0.0000000E+00;  8.9422072E-04;  9.9848370E+02;  1.0000000E-01; -1.2562114E+03;3; -1.7106348E+00;  0.0000000E+00;  2.5170833E-01;0; -2.0527763E-02;  3.9871660E+04;  0.0000000E+00;  2.9296818E-01;  4.0000000E+04;  0.0000000E+00;  4.0015559E+04; -2.5267448E-02;  0.0000000E+00;  4.7396845E-03;  2.0941580E+03;
  3.2124457E-01;  9.9999998E-03;  2.5997236E-01;4454; -5.3165904E-03;  0.0000000E+00;  9.5201813E-04;  9.9846912E+02;  1.0000000E-01; -1.2683098E+03;3; -1.8624989E+00;  0.0000000E+00;  3.4212598E-01;0; -2.0889360E-02;  3.9871371E+04;  0.0000000E+00;  1.0957938E-01;  4.0000000E+04;  0.0000000E+00;  4.0016109E+04; -2.5655465E-02;  0.0000000E+00;  4.7661038E-03;  2.1394204E+03;
  3.2116517E-01;  9.9999998E-03;  2.6997203E-01;4455; -5.3775902E-03;  0.0000000E+00;  1.0540746E-03;  9.9849963E+02;  1.0000000E-01; -1.2430266E+03;3; -2.0942001E+00;  0.0000000E+00;  4.3189785E-01;0; -2.0865658E-02;  3.9875234E+04;  0.0000000E+00; -1.2080406E-01;  4.0000000E+04;  0.0000000E+00;  4.0016195E+04; -2.6065426E-02;  0.0000000E+00;  5.1997672E-03;  2.1519983E+03;
  3.2115921E-01;  9.9999998E-03;  2.7997196E-01;4456; -5.4438966E-03;  0.0000000E+00;  1.2027895E-03;  9.9855493E+02;  1.0000000E-01; -1.1972007E+03;3; -2.4229569E+00;  0.0000000E+00;  4.7539133E-01;0; -2.0103168E-02;  3.9881477E+04;  0.0000000E+00; -5.1816511E-01;  4.0000000E+04;  0.0000000E+00;  4.0016148E+04; -2.6498951E-02;  0.0000000E+00;  6.3957823E-03;  2.2033857E+03;
  3.2118431E-01;  9.9999998E-03;  2.8997186E-01;4457; -5.5189123E-03;  0.0000000E+00;  1.3819435E-03;  9.9862396E+02;  1.0000000E-01; -1.1400171E+03;3; -2.8745012E+00;  0.0000000E+00;  4.4079036E-01;0; -1.8635396E-02;  3.9889457E+04;  0.0000000E+00; -1.1728969E+00;  4.0000000E+04;  0.0000000E+00;  4.0015035E+04; -2.6959457E-02;  0.0000000E+00;  8.3240615E-03;  2.5369146E+03;
  3.2121101E-01;  9.9999998E-03;  2.9997152E-01;4458; -5.6055174E-03;  0.0000000E+00;  1.5497170E-03;  9.9869263E+02;  1.0000000E-01; -1.0831299E+03;3; -3.4650121E+00;  0.0000000E+00;  3.2635680E-01;0; -1.7289396E-02;  3.9897539E+04;  0.0000000E+00; -2.1049414E+00;  4.0000000E+04;  0.0000000E+00;  4.0014098E+04; -2.7457539E-02;  0.0000000E+00;  1.0168143E-02;  3.4157322E+03;
  3.3156127E-01;  9.9999998E-03;  2.3998575E-01;4513; -5.4571778E-03;  0.0000000E+00;  9.5918862E-04;  9.9860706E+02;  1.0000000E-01; -1.1540414E+03;3; -1.5744711E+00;  0.0000000E+00;  1.2666419E-01;0; -2.0064792E-02;  3.9881984E+04;  0.0000000E+00;  5.1298213E-01;  4.0000000E+04;  0.0000000E+00;  4.0012938E+04; -2.5153607E-02;  0.0000000E+00;  5.0888150E-03;  1.8855642E+03;
  3.3145317E-01;  9.9999998E-03;  2.4997984E-01;4514; -5.5085048E-03;  0.0000000E+00;  1.0110339E-03;  9.9849603E+02;  1.0000000E-01; -1.2459895E+03;3; -1.5935115E+00;  0.0000000E+00;  1.5559989E-01;0; -2.0330159E-02;  3.9872508E+04;  0.0000000E+00;  4.0775985E-01;  4.0000000E+04;  0.0000000E+00;  4.0014578E+04; -2.5460429E-02;  0.0000000E+00;  5.1302700E-03;  2.0537280E+03;
  3.3131924E-01;  9.9999998E-03;  2.5997648E-01;4515; -5.5627734E-03;  0.0000000E+00;  1.0947097E-03;  9.9843475E+02;  1.0000000E-01; -1.2967534E+03;3; -1.6408499E+00;  0.0000000E+00;  1.9266984E-01;0; -2.0418169E-02;  3.9867312E+04;  0.0000000E+00;  2.4371645E-01;  4.0000000E+04;  0.0000000E+00;  4.0016191E+04; -2.5769945E-02;  0.0000000E+00;  5.3517763E-03;  2.1619744E+03;
  3.3122447E-01;  9.9999998E-03;  2.6997459E-01;4516; -5.6222673E-03;  0.0000000E+00;  1.2051954E-03;  9.9841223E+02;  1.0000000E-01; -1.3154196E+03;3; -1.7265165E+00;  0.0000000E+00;  2.2956195E-01;0; -2.0179559E-02;  3.9866059E+04;  0.0000000E+00;  1.3090266E-02;  4.0000000E+04;  0.0000000E+00;  4.0016562E+04; -2.6085544E-02;  0.0000000E+00;  5.9059854E-03;  2.2085208E+03;
  3.3119464E-01;  9.9999998E-03;  2.7997336E-01;4517; -5.6867376E-03;  0.0000000E+00;  1.3543579E-03;  9.9841968E+02;  1.0000000E-01; -1.3092469E+03;3; -1.8574643E+00;  0.0000000E+00;  2.3939794E-01;0; -1.9260831E-02;  3.9868062E+04;  0.0000000E+00; -3.2133308E-01;  4.0000000E+04;  0.0000000E+00;  4.0016504E+04; -2.6408648E-02;  0.0000000E+00;  7.1478174E-03;  2.2539087E+03;
  3.3120400E-01;  9.9999998E-03;  2.8997242E-01;4518; -5.7562836E-03;  0.0000000E+00;  1.5232627E-03;  9.9845093E+02;  1.0000000E-01; -1.2833711E+03;3; -2.0453587E+00;  0.0000000E+00;  2.0628145E-01;0; -1.7808955E-02;  3.9872539E+04;  0.0000000E+00; -7.8735781E-01;  4.0000000E+04;  0.0000000E+00;  4.0016098E+04; -2.6741341E-02;  0.0000000E+00;  8.9323847E-03;  2.4073376E+03;
  3.3121923E-01;  9.9999998E-03;  2.9997152E-01;4519; -5.8317520E-03;  0.0000000E+00;  1.6710127E-03;  9.9849774E+02;  1.0000000E-01; -1.2446068E+03;3; -2.2991118E+00;  0.0000000E+00;  1.3263646E-01;0; -1.6672742E-02;  3.9878453E+04;  0.0000000E+00; -1.3740945E+00;  4.0000000E+04;  0.0000000E+00;  4.0015453E+04; -2.7089776E-02;  0.0000000E+00;  1.0417034E-02;  2.7977217E+03;
  3.4159660E-01;  9.9999998E-03;  2.3999408E-01;4574; -5.7052979E-03;  0.0000000E+00;  1.0619467E-03;  9.9864948E+02;  1.0000000E-01; -1.1188820E+03;3; -1.5724581E+00;  0.0000000E+00;  1.1904250E-01;0; -1.9999111E-02;  3.9886039E+04;  0.0000000E+00;  5.0461394E-01;  4.0000000E+04;  0.0000000E+00;  4.0011938E+04; -2.5370065E-02;  0.0000000E+00;  5.3709545E-03;  1.7486487E+03;
  3.4150797E-01;  9.9999998E-03;  2.4998547E-01;4575; -5.7559707E-03;  0.0000000E+00;  1.1409870E-03;  9.9851813E+02;  1.0000000E-01; -1.2277184E+03;3; -1.5602218E+00;  0.0000000E+00;  1.2590396E-01;0; -2.0095920E-02;  3.9873312E+04;  0.0000000E+00;  4.6879917E-01;  4.0000000E+04;  0.0000000E+00;  4.0014316E+04; -2.5625611E-02;  0.0000000E+00;  5.5296901E-03;  2.0218008E+03;
  3.4139308E-01;  9.9999998E-03;  2.5998038E-01;4576; -5.8091562E-03;  0.0000000E+00;  1.2517298E-03;  9.9841589E+02;  1.0000000E-01; -1.3124073E+03;3; -1.5591435E+00;  0.0000000E+00;  1.2640141E-01;0; -1.9891676E-02;  3.9864082E+04;  0.0000000E+00;  3.6761808E-01;  4.0000000E+04;  0.0000000E+00;  4.0015965E+04; -2.5874628E-02;  0.0000000E+00;  5.9829522E-03;  2.2054326E+03;
  3.4130493E-01;  9.9999998E-03;  2.6997733E-01;4577; -5.8652940E-03;  0.0000000E+00;  1.3853210E-03;  9.9834698E+02;  1.0000000E-01; -1.3694922E+03;3; -1.5710887E+00;  0.0000000E+00;  1.2167944E-01;0; -1.9254088E-02;  3.9858449E+04;  0.0000000E+00;  1.9308159E-01;  4.0000000E+04;  0.0000000E+00;  4.0017312E+04; -2.6119305E-02;  0.0000000E+00;  6.8652160E-03;  2.2916311E+03;
  3.4126163E-01;  9.9999998E-03;  2.7997518E-01;4578; -5.9229298E-03;  0.0000000E+00;  1.5355264E-03;  9.9830499E+02;  1.0000000E-01; -1.4043059E+03;3; -1.6023937E+00;  0.0000000E+00;  9.1990978E-02;0; -1.8125113E-02;  3.9856145E+04;  0.0000000E+00; -6.1943177E-02;  4.0000000E+04;  0.0000000E+00;  4.0017633E+04; -2.6360929E-02;  0.0000000E+00;  8.2358168E-03;  2.3329397E+03;
  3.4125081E-01;  9.9999998E-03;  2.8997356E-01;4579; -5.9803822E-03;  0.0000000E+00;  1.6782432E-03;  9.9829749E+02;  1.0000000E-01; -1.4104786E+03;3; -1.6566334E+00;  0.0000000E+00;  3.7659172E-02;0; -1.6920976E-02;  3.9856410E+04;  0.0000000E+00; -3.8883838E-01;  4.0000000E+04;  0.0000000E+00;  4.0017648E+04; -2.6601415E-02;  0.0000000E+00;  9.6804388E-03;  2.3704939E+03;
  3.4125289E-01;  9.9999998E-03;  2.9997206E-01;4580; -6.0354210E-03;  0.0000000E+00;  1.7907165E-03;  9.9830621E+02;  1.0000000E-01; -1.4032689E+03;3; -1.7377583E+00;  0.0000000E+00; -2.1629021E-02;0; -1.6288005E-02;  3.9859102E+04;  0.0000000E+00; -7.5376260E-01;  4.0000000E+04;  0.0000000E+00;  4.0017020E+04; -2.6844511E-02;  0.0000000E+00;  1.0556506E-02;  2.4892385E+03;
  3.5159776E-01;  9.9999998E-03;  2.3999944E-01;4635; -5.9522567E-03;  0.0000000E+00;  1.1800748E-03;  9.9868811E+02;  1.0000000E-01; -1.0868828E+03;3; -1.5863038E+00;  0.0000000E+00;  1.2371036E-01;0; -1.9912092E-02;  3.9888340E+04;  0.0000000E+00;  4.3728277E-01;  4.0000000E+04;  0.0000000E+00;  4.0011156E+04; -2.5571000E-02;  0.0000000E+00;  5.6589074E-03;  1.6301844E+03;
  3.5153303E-01;  9.9999998E-03;  2.4998945E-01;4636; -6.0049654E-03;  0.0000000E+00;  1.2842234E-03;  9.9853674E+02;  1.0000000E-01; -1.2122620E+03;3; -1.5655812E+00;  0.0000000E+00;  1.1807980E-01;0; -1.9840140E-02;  3.9873977E+04;  0.0000000E+00;  4.4062430E-01;  4.0000000E+04;  0.0000000E+00;  4.0014121E+04; -2.5784846E-02;  0.0000000E+00;  5.9447074E-03;  1.9848479E+03;
  3.5145050E-01;  9.9999998E-03;  2.5998366E-01;4637; -6.0583767E-03;  0.0000000E+00;  1.4126291E-03;  9.9840527E+02;  1.0000000E-01; -1.3211971E+03;3; -1.5457982E+00;  0.0000000E+00;  1.0242629E-01;0; -1.9416973E-02;  3.9861922E+04;  0.0000000E+00;  3.8580123E-01;  4.0000000E+04;  0.0000000E+00;  4.0016336E+04; -2.5987431E-02;  0.0000000E+00;  6.5704593E-03;  2.2221401E+03;
  3.5138303E-01;  9.9999998E-03;  2.6997998E-01;4638; -6.1118845E-03;  0.0000000E+00;  1.5484933E-03;  9.9830042E+02;  1.0000000E-01; -1.4080590E+03;3; -1.5310551E+00;  0.0000000E+00;  7.0969693E-02;0; -1.8636771E-02;  3.9852867E+04;  0.0000000E+00;  2.6711890E-01;  4.0000000E+04;  0.0000000E+00;  4.0017504E+04; -2.6180170E-02;  0.0000000E+00;  7.5433990E-03;  2.3508428E+03;
  3.5133335E-01;  9.9999998E-03;  2.7997729E-01;4639; -6.1621745E-03;  0.0000000E+00;  1.6798513E-03;  9.9822363E+02;  1.0000000E-01; -1.4716621E+03;3; -1.5231166E+00;  0.0000000E+00;  2.4463223E-02;0; -1.7652713E-02;  3.9846965E+04;  0.0000000E+00;  9.0145648E-02;  4.0000000E+04;  0.0000000E+00;  4.0018141E+04; -2.6364297E-02;  0.0000000E+00;  8.7115848E-03;  2.4103174E+03;
  3.5130054E-01;  9.9999998E-03;  2.8997505E-01;4640; -6.2073460E-03;  0.0000000E+00;  1.7848813E-03;  9.9817407E+02;  1.0000000E-01; -1.5127473E+03;3; -1.5226946E+00;  0.0000000E+00; -2.8025908E-02;0; -1.6989062E-02;  3.9843566E+04;  0.0000000E+00; -1.3494955E-01;  4.0000000E+04;  0.0000000E+00;  4.0018293E+04; -2.6541885E-02;  0.0000000E+00;  9.5528234E-03;  2.4367383E+03;
  3.5130042E-01;  9.9999998E-03;  2.9997298E-01;4641; -6.2418403E-03;  0.0000000E+00;  1.8696203E-03;  9.9814453E+02;  1.0000000E-01; -1.5372405E+03;3; -1.5320868E+00;  0.0000000E+00; -6.3453965E-02;0; -1.6813029E-02;  3.9842355E+04;  0.0000000E+00; -3.8071951E-01;  4.0000000E+04;  0.0000000E+00;  4.0018422E+04; -2.6715707E-02;  0.0000000E+00;  9.9026775E-03;  2.4844385E+03;
  3.6157280E-01;  9.9999998E-03;  2.4000064E-01;4696; -6.2004384E-03;  0.0000000E+00;  1.3265598E-03;  9.9870782E+02;  1.0000000E-01; -1.0705376E+03;3; -1.5996691E+00;  0.0000000E+00;  1.2267051E-01;0; -1.9762166E-02;  3.9888961E+04;  0.0000000E+00;  3.4272543E-01;  4.0000000E+04;  0.0000000E+00;  4.0011711E+04; -2.5778748E-02;  0.0000000E+00;  6.0165813E-03;  1.6048145E+03;
  3.6153576E-01;  9.9999998E-03;  2.4999164E-01;4697; -6.2576677E-03;  0.0000000E+00;  1.4404641E-03;  9.9855084E+02;  1.0000000E-01; -1.2006080E+03;3; -1.5759846E+00;  0.0000000E+00;  1.0892818E-01;0; -1.9577641E-02;  3.9873758E+04;  0.0000000E+00;  3.5367495E-01;  4.0000000E+04;  0.0000000E+00;  4.0014355E+04; -2.5956862E-02;  0.0000000E+00;  6.3792216E-03;  1.9570353E+03;
  3.6147821E-01;  9.9999998E-03;  2.5998613E-01;4698; -6.3126651E-03;  0.0000000E+00;  1.5628565E-03;  9.9840045E+02;  1.0000000E-01; -1.3251971E+03;3; -1.5535884E+00;  0.0000000E+00;  8.4649548E-02;0; -1.9128701E-02;  3.9860344E+04;  0.0000000E+00;  3.1838158E-01;  4.0000000E+04;  0.0000000E+00;  4.0015980E+04; -2.6122196E-02;  0.0000000E+00;  6.9934954E-03;  2.2014719E+03;
  3.6143181E-01;  9.9999998E-03;  2.6998240E-01;4699; -6.3647097E-03;  0.0000000E+00;  1.6680158E-03;  9.9827325E+02;  1.0000000E-01; -1.4305768E+03;3; -1.5323941E+00;  0.0000000E+00;  5.4336131E-02;0; -1.8639281E-02;  3.9849012E+04;  0.0000000E+00;  2.3260517E-01;  4.0000000E+04;  0.0000000E+00;  4.0017348E+04; -2.6275959E-02;  0.0000000E+00;  7.6366775E-03;  2.3431719E+03;
  3.6140269E-01;  9.9999998E-03;  2.7997932E-01;4700; -6.4108134E-03;  0.0000000E+00;  1.7662990E-03;  9.9816895E+02;  1.0000000E-01; -1.5169941E+03;3; -1.5144887E+00;  0.0000000E+00;  1.3915252E-02;0; -1.8135447E-02;  3.9840285E+04;  0.0000000E+00;  9.8228730E-02;  4.0000000E+04;  0.0000000E+00;  4.0017887E+04; -2.6419366E-02;  0.0000000E+00;  8.2839197E-03;  2.4363452E+03;
  3.6137861E-01;  9.9999998E-03;  2.8997663E-01;4701; -6.4471173E-03;  0.0000000E+00;  1.8640822E-03;  9.9809003E+02;  1.0000000E-01; -1.5823750E+03;3; -1.5007322E+00;  0.0000000E+00; -3.5212804E-02;0; -1.7637899E-02;  3.9833980E+04;  0.0000000E+00; -7.0713259E-02;  4.0000000E+04;  0.0000000E+00;  4.0018754E+04; -2.6553962E-02;  0.0000000E+00;  8.9160632E-03;  2.5042063E+03;
  3.6136296E-01;  9.9999998E-03;  2.9997411E-01;4702; -6.4669303E-03;  0.0000000E+00;  1.9482380E-03;  9.9803369E+02;  1.0000000E-01; -1.6290404E+03;3; -1.4930521E+00;  0.0000000E+00; -7.5104766E-02;0; -1.7467938E-02;  3.9829832E+04;  0.0000000E+00; -2.4603483E-01;  4.0000000E+04;  0.0000000E+00;  4.0018879E+04; -2.6682066E-02;  0.0000000E+00;  9.2141284E-03;  2.5637019E+03;
  3.7154281E-01;  9.9999998E-03;  2.3999856E-01;4757; -6.4534959E-03;  0.0000000E+00;  1.4963625E-03;  9.9871686E+02;  1.0000000E-01; -1.0630811E+03;3; -1.6085274E+00;  0.0000000E+00;  1.1311104E-01;0; -1.9583471E-02;  3.9887676E+04;  0.0000000E+00;  2.4624097E-01;  4.0000000E+04;  0.0000000E+00;  4.0012254E+04; -2.6008908E-02;  0.0000000E+00;  6.4254375E-03;  1.6673198E+03;
  3.7151894E-01;  9.9999998E-03;  2.4999216E-01;4758; -6.5148091E-03;  0.0000000E+00;  1.6009270E-03;  9.9855444E+02;  1.0000000E-01; -1.1975957E+03;3; -1.5828224E+00;  0.0000000E+00;  9.4417498E-02;0; -1.9371891E-02;  3.9872617E+04;  0.0000000E+00;  2.5243980E-01;  4.0000000E+04;  0.0000000E+00;  4.0014402E+04; -2.6154125E-02;  0.0000000E+00;  6.7822337E-03;  1.9587664E+03;
  3.7149179E-01;  9.9999998E-03;  2.5998789E-01;4759; -6.5732719E-03;  0.0000000E+00;  1.6835931E-03;  9.9839667E+02;  1.0000000E-01; -1.3283081E+03;3; -1.5592622E+00;  0.0000000E+00;  7.1760908E-02;0; -1.9199980E-02;  3.9858422E+04;  0.0000000E+00;  2.2039953E-01;  4.0000000E+04;  0.0000000E+00;  4.0015832E+04; -2.6287559E-02;  0.0000000E+00;  7.0875795E-03;  2.1531414E+03;
  3.7147328E-01;  9.9999998E-03;  2.6998422E-01;4760; -6.6258539E-03;  0.0000000E+00;  1.7643068E-03;  9.9825708E+02;  1.0000000E-01; -1.4439591E+03;3; -1.5370802E+00;  0.0000000E+00;  4.2261112E-02;0; -1.9006964E-02;  3.9845953E+04;  0.0000000E+00;  1.4786239E-01;  4.0000000E+04;  0.0000000E+00;  4.0017258E+04; -2.6410028E-02;  0.0000000E+00;  7.4030645E-03;  2.3099524E+03;
  3.7144759E-01;  9.9999998E-03;  2.7998087E-01;4761; -6.6702268E-03;  0.0000000E+00;  1.8605499E-03;  9.9813593E+02;  1.0000000E-01; -1.5443514E+03;3; -1.5183774E+00;  0.0000000E+00;  3.8265827E-04;0; -1.8584184E-02;  3.9835836E+04;  0.0000000E+00;  4.1570570E-02;  4.0000000E+04;  0.0000000E+00;  4.0018172E+04; -2.6522236E-02;  0.0000000E+00;  7.9380507E-03;  2.4479163E+03;
  3.7140462E-01;  9.9999998E-03;  2.8997791E-01;4762; -6.7026718E-03;  0.0000000E+00;  1.9574373E-03;  9.9803918E+02;  1.0000000E-01; -1.6244973E+03;3; -1.5044798E+00;  0.0000000E+00; -5.1278379E-02;0; -1.8119965E-02;  3.9827512E+04;  0.0000000E+00; -8.4549226E-02;  4.0000000E+04;  0.0000000E+00;  4.0018996E+04; -2.6625222E-02;  0.0000000E+00;  8.5052559E-03;  2.5500811E+03;
  3.7136212E-01;  9.9999998E-03;  2.9997510E-01;4763; -6.7166481E-03;  0.0000000E+00;  2.0348984E-03;  9.9795746E+02;  1.0000000E-01; -1.6921991E+03;3; -1.4953364E+00;  0.0000000E+00; -9.1233298E-02;0; -1.8045219E-02;  3.9820965E+04;  0.0000000E+00; -2.1462846E-01;  4.0000000E+04;  0.0000000E+00;  4.0019422E+04; -2.6720615E-02;  0.0000000E+00;  8.6753964E-03;  2.6374497E+03;
  3.8153499E-01;  9.9999998E-03;  2.3999520E-01;4818; -6.7132865E-03;  0.0000000E+00;  1.6587354E-03;  9.9870636E+02;  1.0000000E-01; -1.0717722E+03;3; -1.6129216E+00;  0.0000000E+00;  9.6340507E-02;0; -1.9518424E-02;  3.9884664E+04;  0.0000000E+00;  1.5190120E-01;  4.0000000E+04;  0.0000000E+00;  4.0013027E+04; -2.6268587E-02;  0.0000000E+00;  6.7501622E-03;  1.7547924E+03;
  3.8151652E-01;  9.9999998E-03;  2.4999185E-01;4819; -6.7780581E-03;  0.0000000E+00;  1.7335598E-03;  9.9854059E+02;  1.0000000E-01; -1.2091016E+03;3; -1.5861479E+00;  0.0000000E+00;  7.6451078E-02;0; -1.9432632E-02;  3.9870062E+04;  0.0000000E+00;  1.5019003E-01;  4.0000000E+04;  0.0000000E+00;  4.0014301E+04; -2.6381897E-02;  0.0000000E+00;  6.9492641E-03;  1.9579760E+03;
  3.8149995E-01;  9.9999998E-03;  2.5998855E-01;4820; -6.8393527E-03;  0.0000000E+00;  1.7939995E-03;  9.9838379E+02;  1.0000000E-01; -1.3390238E+03;3; -1.5611014E+00;  0.0000000E+00;  5.2090164E-02;0; -1.9442596E-02;  3.9856105E+04;  0.0000000E+00;  1.2014990E-01;  4.0000000E+04;  0.0000000E+00;  4.0015832E+04; -2.6485616E-02;  0.0000000E+00;  7.0430203E-03;  2.1274219E+03;
  3.8148579E-01;  9.9999998E-03;  2.6998508E-01;4821; -6.8940371E-03;  0.0000000E+00;  1.8701846E-03;  9.9824127E+02;  1.0000000E-01; -1.4570946E+03;3; -1.5387131E+00;  0.0000000E+00;  2.3389375E-02;0; -1.9328527E-02;  3.9843438E+04;  0.0000000E+00;  6.0444754E-02;  4.0000000E+04;  0.0000000E+00;  4.0017484E+04; -2.6580309E-02;  0.0000000E+00;  7.2517819E-03;  2.3029792E+03;
  3.8145936E-01;  9.9999998E-03;  2.7998179E-01;4822; -6.9402228E-03;  0.0000000E+00;  1.9621849E-03;  9.9811560E+02;  1.0000000E-01; -1.5611904E+03;3; -1.5187746E+00;  0.0000000E+00; -1.7788732E-02;0; -1.8985117E-02;  3.9832484E+04;  0.0000000E+00; -2.0164957E-02;  4.0000000E+04;  0.0000000E+00;  4.0018508E+04; -2.6666224E-02;  0.0000000E+00;  7.6811076E-03;  2.4592480E+03;
  3.8141787E-01;  9.9999998E-03;  2.8997877E-01;4823; -6.9751558E-03;  0.0000000E+00;  2.0520473E-03;  9.9800586E+02;  1.0000000E-01; -1.6521014E+03;3; -1.5045340E+00;  0.0000000E+00; -6.6500977E-02;0; -1.8638324E-02;  3.9823066E+04;  0.0000000E+00; -1.1180858E-01;  4.0000000E+04;  0.0000000E+00;  4.0018969E+04; -2.6743740E-02;  0.0000000E+00;  8.1054149E-03;  2.5825181E+03;
  3.8137105E-01;  9.9999998E-03;  2.9997587E-01;4824; -6.9921934E-03;  0.0000000E+00;  2.1242832E-03;  9.9791150E+02;  1.0000000E-01; -1.7302721E+03;3; -1.4952888E+00;  0.0000000E+00; -1.1297297E-01;0; -1.8627413E-02;  3.9815078E+04;  0.0000000E+00; -2.0441824E-01;  4.0000000E+04;  0.0000000E+00;  4.0019938E+04; -2.6813189E-02;  0.0000000E+00;  8.1857750E-03;  2.6830090E+03;
  3.9155462E-01;  9.9999998E-03;  2.3999226E-01;4879; -6.9804192E-03;  0.0000000E+00;  1.7969995E-03;  9.9868390E+02;  1.0000000E-01; -1.0903889E+03;3; -1.6151593E+00;  0.0000000E+00;  8.0165230E-02;0; -1.9634904E-02;  3.9881809E+04;  0.0000000E+00;  6.1653037E-02;  4.0000000E+04;  0.0000000E+00;  4.0013520E+04; -2.6556836E-02;  0.0000000E+00;  6.9219321E-03;  1.8108514E+03;
  3.9152643E-01;  9.9999998E-03;  2.4999079E-01;4880; -7.0473473E-03;  0.0000000E+00;  1.8598578E-03;  9.9852118E+02;  1.0000000E-01; -1.2251505E+03;3; -1.5869253E+00;  0.0000000E+00;  5.9121165E-02;0; -1.9603046E-02;  3.9867285E+04;  0.0000000E+00;  5.2435357E-02;  4.0000000E+04;  0.0000000E+00;  4.0014508E+04; -2.6637452E-02;  0.0000000E+00;  7.0344056E-03;  1.9741561E+03;
  3.9150524E-01;  9.9999998E-03;  2.5998825E-01;4881; -7.1109342E-03;  0.0000000E+00;  1.9134899E-03;  9.9836554E+02;  1.0000000E-01; -1.3541345E+03;3; -1.5600396E+00;  0.0000000E+00;  3.4480751E-02;0; -1.9663965E-02;  3.9853742E+04;  0.0000000E+00;  2.6519604E-02;  4.0000000E+04;  0.0000000E+00;  4.0016094E+04; -2.6711658E-02;  0.0000000E+00;  7.0476923E-03;  2.1393516E+03;
  3.9149466E-01;  9.9999998E-03;  2.6998523E-01;4882; -7.1692104E-03;  0.0000000E+00;  1.9818349E-03;  9.9822766E+02;  1.0000000E-01; -1.4683535E+03;3; -1.5360307E+00;  0.0000000E+00;  5.3280527E-03;0; -1.9635335E-02;  3.9841102E+04;  0.0000000E+00; -1.7125463E-02;  4.0000000E+04;  0.0000000E+00;  4.0017328E+04; -2.6779907E-02;  0.0000000E+00;  7.1445717E-03;  2.3111003E+03;
  3.9147601E-01;  9.9999998E-03;  2.7998218E-01;4883; -7.2200433E-03;  0.0000000E+00;  2.0668532E-03;  9.9810126E+02;  1.0000000E-01; -1.5730913E+03;3; -1.5151223E+00;  0.0000000E+00; -3.3472966E-02;0; -1.9389607E-02;  3.9829746E+04;  0.0000000E+00; -7.1847685E-02;  4.0000000E+04;  0.0000000E+00;  4.0018680E+04; -2.6841827E-02;  0.0000000E+00;  7.4522207E-03;  2.4720427E+03;
  3.9144018E-01;  9.9999998E-03;  2.8997925E-01;4884; -7.2610439E-03;  0.0000000E+00;  2.1497575E-03;  9.9798828E+02;  1.0000000E-01; -1.6666689E+03;3; -1.4991360E+00;  0.0000000E+00; -8.2116120E-02;0; -1.9143846E-02;  3.9819734E+04;  0.0000000E+00; -1.2947299E-01;  4.0000000E+04;  0.0000000E+00;  4.0019176E+04; -2.6896939E-02;  0.0000000E+00;  7.7530923E-03;  2.5989890E+03;
  3.9139721E-01;  9.9999998E-03;  2.9997635E-01;4885; -7.2868275E-03;  0.0000000E+00;  2.2162800E-03;  9.9788538E+02;  1.0000000E-01; -1.7519504E+03;3; -1.4878269E+00;  0.0000000E+00; -1.3148756E-01;0; -1.9201545E-02;  3.9811039E+04;  0.0000000E+00; -1.8608314E-01;  4.0000000E+04;  0.0000000E+00;  4.0019977E+04; -2.6944607E-02;  0.0000000E+00;  7.7430620E-03;  2.7064832E+03;
  4.0155622E-01;  9.9999998E-03;  2.3998961E-01;4940; -7.2530787E-03;  0.0000000E+00;  1.9310820E-03;  9.9866498E+02;  1.0000000E-01; -1.1060428E+03;3; -1.6136312E+00;  0.0000000E+00;  6.4459063E-02;0; -1.9822145E-02;  3.9878836E+04;  0.0000000E+00; -2.1702971E-02;  4.0000000E+04;  0.0000000E+00;  4.0013938E+04; -2.6866099E-02;  0.0000000E+00;  7.0439540E-03;  1.8638623E+03;
  4.0152657E-01;  9.9999998E-03;  2.4998952E-01;4941; -7.3216334E-03;  0.0000000E+00;  1.9838174E-03;  9.9850433E+02;  1.0000000E-01; -1.2391255E+03;3; -1.5836638E+00;  0.0000000E+00;  4.1680686E-02;0; -1.9835666E-02;  3.9864652E+04;  0.0000000E+00; -3.4337528E-02;  4.0000000E+04;  0.0000000E+00;  4.0014707E+04; -2.6913123E-02;  0.0000000E+00;  7.0774578E-03;  1.9952661E+03;
  4.0150571E-01;  9.9999998E-03;  2.5998762E-01;4942; -7.3872823E-03;  0.0000000E+00;  2.0319493E-03;  9.9835095E+02;  1.0000000E-01; -1.3661836E+03;3; -1.5550162E+00;  0.0000000E+00;  1.6559025E-02;0; -1.9933993E-02;  3.9851375E+04;  0.0000000E+00; -5.2853849E-02;  4.0000000E+04;  0.0000000E+00;  4.0015984E+04; -2.6957124E-02;  0.0000000E+00;  7.0231319E-03;  2.1544497E+03;
  4.0149388E-01;  9.9999998E-03;  2.6998496E-01;4943; -7.4488963E-03;  0.0000000E+00;  2.0960954E-03;  9.9821289E+02;  1.0000000E-01; -1.4806001E+03;3; -1.5297154E+00;  0.0000000E+00; -1.3459045E-02;0; -1.9940725E-02;  3.9838781E+04;  0.0000000E+00; -7.8831151E-02;  4.0000000E+04;  0.0000000E+00;  4.0017355E+04; -2.6998404E-02;  0.0000000E+00;  7.0576798E-03;  2.3282534E+03;
  4.0147880E-01;  9.9999998E-03;  2.7998221E-01;4944; -7.5051277E-03;  0.0000000E+00;  2.1743660E-03;  9.9808807E+02;  1.0000000E-01; -1.5840046E+03;3; -1.5069703E+00;  0.0000000E+00; -5.2345596E-02;0; -1.9770397E-02;  3.9827641E+04;  0.0000000E+00; -1.0939422E-01;  4.0000000E+04;  0.0000000E+00;  4.0018559E+04; -2.7036455E-02;  0.0000000E+00;  7.2660581E-03;  2.4868501E+03;
  4.0145311E-01;  9.9999998E-03;  2.8997946E-01;4945; -7.5543495E-03;  0.0000000E+00;  2.2492239E-03;  9.9797595E+02;  1.0000000E-01; -1.6768909E+03;3; -1.4891224E+00;  0.0000000E+00; -1.0122465E-01;0; -1.9631309E-02;  3.9817660E+04;  0.0000000E+00; -1.3993393E-01;  4.0000000E+04;  0.0000000E+00;  4.0019488E+04; -2.7070235E-02;  0.0000000E+00;  7.4389260E-03;  2.6108433E+03;
  4.0141702E-01;  9.9999998E-03;  2.9997662E-01;4946; -7.5922990E-03;  0.0000000E+00;  2.3089007E-03;  9.9786719E+02;  1.0000000E-01; -1.7670117E+03;3; -1.4762095E+00;  0.0000000E+00; -1.5254088E-01;0; -1.9771690E-02;  3.9808723E+04;  0.0000000E+00; -1.6737533E-01;  4.0000000E+04;  0.0000000E+00;  4.0020266E+04; -2.7098255E-02;  0.0000000E+00;  7.3265657E-03;  2.7236570E+03;
  4.1155180E-01;  9.9999998E-03;  2.3998776E-01;5001; -7.5302287E-03;  0.0000000E+00;  2.0583482E-03;  9.9864642E+02;  1.0000000E-01; -1.1214004E+03;3; -1.6087494E+00;  0.0000000E+00;  4.3173477E-02;0; -2.0075917E-02;  3.9876578E+04;  0.0000000E+00; -9.6740007E-02;  4.0000000E+04;  0.0000000E+00;  4.0014160E+04; -2.7188703E-02;  0.0000000E+00;  7.1127866E-03;  1.9040796E+03;
  4.1152865E-01;  9.9999998E-03;  2.4998859E-01;5002; -7.5995354E-03;  0.0000000E+00;  2.1012491E-03;  9.9848975E+02;  1.0000000E-01; -1.2512239E+03;3; -1.5765809E+00;  0.0000000E+00;  2.0618530E-02;0; -2.0140208E-02;  3.9862695E+04;  0.0000000E+00; -1.1019770E-01;  4.0000000E+04;  0.0000000E+00;  4.0014793E+04; -2.7201016E-02;  0.0000000E+00;  7.0608067E-03;  2.0067343E+03;
  4.1151327E-01;  9.9999998E-03;  2.5998697E-01;5003; -7.6666055E-03;  0.0000000E+00;  2.1473391E-03;  9.9833942E+02;  1.0000000E-01; -1.3757635E+03;3; -1.5467995E+00;  0.0000000E+00; -5.1385746E-03;0; -2.0252552E-02;  3.9849598E+04;  0.0000000E+00; -1.2209842E-01;  4.0000000E+04;  0.0000000E+00;  4.0016168E+04; -2.7213585E-02;  0.0000000E+00;  6.9610337E-03;  2.1658389E+03;
  4.1150212E-01;  9.9999998E-03;  2.6998460E-01;5004; -7.7313068E-03;  0.0000000E+00;  2.2082753E-03;  9.9820239E+02;  1.0000000E-01; -1.4892913E+03;3; -1.5198274E+00;  0.0000000E+00; -3.6765538E-02;0; -2.0281577E-02;  3.9837449E+04;  0.0000000E+00; -1.3455136E-01;  4.0000000E+04;  0.0000000E+00;  4.0017277E+04; -2.7226672E-02;  0.0000000E+00;  6.9450946E-03;  2.3411050E+03;
  4.1148707E-01;  9.9999998E-03;  2.7998206E-01;5005; -7.7925827E-03;  0.0000000E+00;  2.2804951E-03;  9.9807941E+02;  1.0000000E-01; -1.5911649E+03;3; -1.4950823E+00;  0.0000000E+00; -7.6250054E-02;0; -2.0173378E-02;  3.9826238E+04;  0.0000000E+00; -1.4731853E-01;  4.0000000E+04;  0.0000000E+00;  4.0018590E+04; -2.7239751E-02;  0.0000000E+00;  7.0663728E-03;  2.4963987E+03;
  4.1146114E-01;  9.9999998E-03;  2.8997949E-01;5006; -7.8496151E-03;  0.0000000E+00;  2.3471571E-03;  9.9796783E+02;  1.0000000E-01; -1.6836067E+03;3; -1.4751618E+00;  0.0000000E+00; -1.2522034E-01;0; -2.0136710E-02;  3.9816293E+04;  0.0000000E+00; -1.5568635E-01;  4.0000000E+04;  0.0000000E+00;  4.0019422E+04; -2.7251624E-02;  0.0000000E+00;  7.1149124E-03;  2.6179070E+03;
  4.1142407E-01;  9.9999998E-03;  2.9997683E-01;5007; -7.8993002E-03;  0.0000000E+00;  2.4001128E-03;  9.9786536E+02;  1.0000000E-01; -1.7684932E+03;3; -1.4597369E+00;  0.0000000E+00; -1.7536195E-01;0; -2.0353915E-02;  3.9807453E+04;  0.0000000E+00; -1.5388317E-01;  4.0000000E+04;  0.0000000E+00;  4.0020234E+04; -2.7260592E-02;  0.0000000E+00;  6.9066770E-03;  2.7198401E+03;
  4.2156392E-01;  9.9999998E-03;  2.3998742E-01;5062; -7.8104245E-03;  0.0000000E+00;  2.1761879E-03;  9.9864221E+02;  1.0000000E-01; -1.1249065E+03;3; -1.6011641E+00;  0.0000000E+00;  1.9532939E-02;0; -2.0396598E-02;  3.9875637E+04;  0.0000000E+00; -1.6094834E-01;  4.0000000E+04;  0.0000000E+00;  4.0014230E+04; -2.7518280E-02;  0.0000000E+00;  7.1216817E-03;  1.9010836E+03;
  4.2155242E-01;  9.9999998E-03;  2.4998823E-01;5063; -7.8793913E-03;  0.0000000E+00;  2.2110303E-03;  9.9848083E+02;  1.0000000E-01; -1.2585817E+03;3; -1.5668365E+00;  0.0000000E+00; -2.2337087E-03;0; -2.0512573E-02;  3.9861742E+04;  0.0000000E+00; -1.7447238E-01;  4.0000000E+04;  0.0000000E+00;  4.0015000E+04; -2.7494986E-02;  0.0000000E+00;  6.9824122E-03;  2.0001313E+03;
  4.2154425E-01;  9.9999998E-03;  2.5998664E-01;5064; -7.9469699E-03;  0.0000000E+00;  2.2577518E-03;  9.9833636E+02;  1.0000000E-01; -1.3782820E+03;3; -1.5348593E+00;  0.0000000E+00; -2.7500393E-02;0; -2.0625645E-02;  3.9848879E+04;  0.0000000E+00; -1.8158939E-01;  4.0000000E+04;  0.0000000E+00;  4.0016125E+04; -2.7474999E-02;  0.0000000E+00;  6.8493546E-03;  2.1633430E+03;
  4.2153186E-01;  9.9999998E-03;  2.6998436E-01;5065; -8.0136294E-03;  0.0000000E+00;  2.3183231E-03;  9.9820172E+02;  1.0000000E-01; -1.4898344E+03;3; -1.5058854E+00;  0.0000000E+00; -6.0759742E-02;0; -2.0647964E-02;  3.9836977E+04;  0.0000000E+00; -1.8255104E-01;  4.0000000E+04;  0.0000000E+00;  4.0017555E+04; -2.7458508E-02;  0.0000000E+00;  6.8105445E-03;  2.3411870E+03;
  4.2151135E-01;  9.9999998E-03;  2.7998203E-01;5066; -8.0785118E-03;  0.0000000E+00;  2.3848987E-03;  9.9808136E+02;  1.0000000E-01; -1.5895353E+03;3; -1.4793191E+00;  0.0000000E+00; -1.0342932E-01;0; -2.0590333E-02;  3.9826027E+04;  0.0000000E+00; -1.7533636E-01;  4.0000000E+04;  0.0000000E+00;  4.0018543E+04; -2.7445270E-02;  0.0000000E+00;  6.8549369E-03;  2.4905601E+03;
  4.2147902E-01;  9.9999998E-03;  2.8997961E-01;5067; -8.1412774E-03;  0.0000000E+00;  2.4438498E-03;  9.9797314E+02;  1.0000000E-01; -1.6792118E+03;3; -1.4563267E+00;  0.0000000E+00; -1.5008606E-01;0; -2.0645296E-02;  3.9816496E+04;  0.0000000E+00; -1.5402973E-01;  4.0000000E+04;  0.0000000E+00;  4.0019312E+04; -2.7434232E-02;  0.0000000E+00;  6.7889360E-03;  2.6036484E+03;
  4.2143178E-01;  9.9999998E-03;  2.9997703E-01;5068; -8.1999879E-03;  0.0000000E+00;  2.4909952E-03;  9.9787500E+02;  1.0000000E-01; -1.7605428E+03;3; -1.4385977E+00;  0.0000000E+00; -2.0106758E-01;0; -2.0919254E-02;  3.9807852E+04;  0.0000000E+00; -1.1056467E-01;  4.0000000E+04;  0.0000000E+00;  4.0020184E+04; -2.7423909E-02;  0.0000000E+00;  6.5046553E-03;  2.6974768E+03;
  4.3159246E-01;  9.9999998E-03;  2.3998852E-01;5123; -8.0913380E-03;  0.0000000E+00;  2.2827878E-03;  9.9865021E+02;  1.0000000E-01; -1.1182893E+03;3; -1.5902033E+00;  0.0000000E+00; -6.3436404E-03;0; -2.0782324E-02;  3.9876406E+04;  0.0000000E+00; -2.0708247E-01;  4.0000000E+04;  0.0000000E+00;  4.0013715E+04; -2.7850164E-02;  0.0000000E+00;  7.0678410E-03;  1.8491710E+03;
  4.3158808E-01;  9.9999998E-03;  2.4998870E-01;5124; -8.1588533E-03;  0.0000000E+00;  2.3118271E-03;  9.9848914E+02;  1.0000000E-01; -1.2517177E+03;3; -1.5535982E+00;  0.0000000E+00; -2.6601750E-02;0; -2.0950442E-02;  3.9862918E+04;  0.0000000E+00; -2.1707489E-01;  4.0000000E+04;  0.0000000E+00;  4.0014418E+04; -2.7791027E-02;  0.0000000E+00;  6.8405843E-03;  1.9544752E+03;
  4.3158337E-01;  9.9999998E-03;  2.5998679E-01;5125; -8.2257101E-03;  0.0000000E+00;  2.3628380E-03;  9.9835083E+02;  1.0000000E-01; -1.3662823E+03;3; -1.5194654E+00;  0.0000000E+00; -5.3227637E-02;0; -2.1043992E-02;  3.9850246E+04;  0.0000000E+00; -2.1627057E-01;  4.0000000E+04;  0.0000000E+00;  4.0015637E+04; -2.7738003E-02;  0.0000000E+00;  6.6940114E-03;  2.1300505E+03;
  4.3156928E-01;  9.9999998E-03;  2.6998448E-01;5126; -8.2928464E-03;  0.0000000E+00;  2.4253523E-03;  9.9821997E+02;  1.0000000E-01; -1.4747238E+03;3; -1.4882087E+00;  0.0000000E+00; -8.9447409E-02;0; -2.1038286E-02;  3.9838543E+04;  0.0000000E+00; -2.0231688E-01;  4.0000000E+04;  0.0000000E+00;  4.0017090E+04; -2.7691368E-02;  0.0000000E+00;  6.6530821E-03;  2.3100955E+03;
  4.3154627E-01;  9.9999998E-03;  2.7998218E-01;5127; -8.3595617E-03;  0.0000000E+00;  2.4875964E-03;  9.9810229E+02;  1.0000000E-01; -1.5722024E+03;3; -1.4596021E+00;  0.0000000E+00; -1.3493262E-01;0; -2.1015354E-02;  3.9828059E+04;  0.0000000E+00; -1.7002527E-01;  4.0000000E+04;  0.0000000E+00;  4.0018285E+04; -2.7651157E-02;  0.0000000E+00;  6.6358047E-03;  2.4528999E+03;
  4.3151054E-01;  9.9999998E-03;  2.8997990E-01;5128; -8.4255477E-03;  0.0000000E+00;  2.5386615E-03;  9.9800006E+02;  1.0000000E-01; -1.6568914E+03;3; -1.4341165E+00;  0.0000000E+00; -1.8267755E-01;0; -2.1162027E-02;  3.9818637E+04;  0.0000000E+00; -1.1069861E-01;  4.0000000E+04;  0.0000000E+00;  4.0019004E+04; -2.7616695E-02;  0.0000000E+00;  6.4546675E-03;  2.5534644E+03;
  4.3145820E-01;  9.9999998E-03;  2.9997739E-01;5129; -8.4893098E-03;  0.0000000E+00;  2.5799279E-03;  9.9790479E+02;  1.0000000E-01; -1.7358522E+03;3; -1.4129094E+00;  0.0000000E+00; -2.2869875E-01;0; -2.1497421E-02;  3.9810230E+04;  0.0000000E+00; -1.4062219E-02;  4.0000000E+04;  0.0000000E+00;  4.0019598E+04; -2.7586959E-02;  0.0000000E+00;  6.0895388E-03;  2.6455488E+03;
  4.4163141E-01;  9.9999998E-03;  2.3999089E-01;5184; -8.3712395E-03;  0.0000000E+00;  2.3784263E-03;  9.9867535E+02;  1.0000000E-01; -1.0974504E+03;3; -1.5760676E+00;  0.0000000E+00; -3.4792710E-02;0; -2.1224741E-02;  3.9879465E+04;  0.0000000E+00; -2.2979109E-01;  4.0000000E+04;  0.0000000E+00;  4.0012793E+04; -2.8182495E-02;  0.0000000E+00;  6.9577550E-03;  1.7430645E+03;
  4.4163141E-01;  9.9999998E-03;  2.4999000E-01;5185; -8.4364368E-03;  0.0000000E+00;  2.4060765E-03;  9.9852173E+02;  1.0000000E-01; -1.2247061E+03;3; -1.5373323E+00;  0.0000000E+00; -5.3454507E-02;0; -2.1431748E-02;  3.9866160E+04;  0.0000000E+00; -2.3303828E-01;  4.0000000E+04;  0.0000000E+00;  4.0013477E+04; -2.8088490E-02;  0.0000000E+00;  6.6567417E-03;  1.8632434E+03;
  4.4162872E-01;  9.9999998E-03;  2.5998744E-01;5186; -8.5015949E-03;  0.0000000E+00;  2.4638497E-03;  9.9838824E+02;  1.0000000E-01; -1.3353203E+03;3; -1.5004710E+00;  0.0000000E+00; -8.2770497E-02;0; -2.1492876E-02;  3.9853926E+04;  0.0000000E+00; -2.2139180E-01;  4.0000000E+04;  0.0000000E+00;  4.0015219E+04; -2.8003141E-02;  0.0000000E+00;  6.5102652E-03;  2.0592268E+03;
  4.4161636E-01;  9.9999998E-03;  2.6998499E-01;5187; -8.5677430E-03;  0.0000000E+00;  2.5300011E-03;  9.9826361E+02;  1.0000000E-01; -1.4385765E+03;3; -1.4667034E+00;  0.0000000E+00; -1.2129357E-01;0; -2.1444907E-02;  3.9842418E+04;  0.0000000E+00; -1.8986087E-01;  4.0000000E+04;  0.0000000E+00;  4.0016590E+04; -2.7926954E-02;  0.0000000E+00;  6.4820466E-03;  2.2384905E+03;
  4.4159636E-01;  9.9999998E-03;  2.7998269E-01;5188; -8.6342040E-03;  0.0000000E+00;  2.5880982E-03;  9.9814813E+02;  1.0000000E-01; -1.5342283E+03;3; -1.4357184E+00;  0.0000000E+00; -1.6890174E-01;0; -2.1455931E-02;  3.9832383E+04;  0.0000000E+00; -1.3030504E-01;  4.0000000E+04;  0.0000000E+00;  4.0017660E+04; -2.7860198E-02;  0.0000000E+00;  6.4042676E-03;  2.3756379E+03;
  4.4156343E-01;  9.9999998E-03;  2.8998038E-01;5189; -8.7003279E-03;  0.0000000E+00;  2.6333132E-03;  9.9804535E+02;  1.0000000E-01; -1.6194110E+03;3; -1.4074758E+00;  0.0000000E+00; -2.1558069E-01;0; -2.1664852E-02;  3.9822980E+04;  0.0000000E+00; -3.1995699E-02;  4.0000000E+04;  0.0000000E+00;  4.0018590E+04; -2.7802631E-02;  0.0000000E+00;  6.1377785E-03;  2.4775444E+03;
  4.4151473E-01;  9.9999998E-03;  2.9997793E-01;5190; -8.7644365E-03;  0.0000000E+00;  2.6701894E-03;  9.9795538E+02;  1.0000000E-01; -1.6939274E+03;3; -1.3840890E+00;  0.0000000E+00; -2.6070473E-01;0; -2.2034705E-02;  3.9815277E+04;  0.0000000E+00;  1.1638216E-01;  4.0000000E+04;  0.0000000E+00;  4.0019133E+04; -2.7753666E-02;  0.0000000E+00;  5.7189604E-03;  2.5738484E+03;
  4.5168260E-01;  9.9999998E-03;  2.3999387E-01;5245; -8.6498186E-03;  0.0000000E+00;  2.4660148E-03;  9.9870886E+02;  1.0000000E-01; -1.0696981E+03;3; -1.5586486E+00;  0.0000000E+00; -6.2396869E-02;0; -2.1707743E-02;  3.9883750E+04;  0.0000000E+00; -2.2957990E-01;  4.0000000E+04;  0.0000000E+00;  4.0011777E+04; -2.8515849E-02;  0.0000000E+00;  6.8081059E-03;  1.6040818E+03;
  4.5168489E-01;  9.9999998E-03;  2.4999163E-01;5246; -8.7120607E-03;  0.0000000E+00;  2.4987261E-03;  9.9856848E+02;  1.0000000E-01; -1.1859911E+03;3; -1.5177276E+00;  0.0000000E+00; -8.5349172E-02;0; -2.1922274E-02;  3.9871168E+04;  0.0000000E+00; -2.2511826E-01;  4.0000000E+04;  0.0000000E+00;  4.0012789E+04; -2.8388914E-02;  0.0000000E+00;  6.4666397E-03;  1.7513964E+03;
  4.5168492E-01;  9.9999998E-03;  2.5998846E-01;5247; -8.7747527E-03;  0.0000000E+00;  2.5640556E-03;  9.9844293E+02;  1.0000000E-01; -1.2899882E+03;3; -1.4778603E+00;  0.0000000E+00; -1.1787668E-01;0; -2.1943443E-02;  3.9859086E+04;  0.0000000E+00; -2.0190926E-01;  4.0000000E+04;  0.0000000E+00;  4.0014414E+04; -2.8273197E-02;  0.0000000E+00;  6.3297544E-03;  1.9632972E+03;
  4.5168003E-01;  9.9999998E-03;  2.6998582E-01;5248; -8.8385437E-03;  0.0000000E+00;  2.6337714E-03;  9.9832562E+02;  1.0000000E-01; -1.3871707E+03;3; -1.4414632E+00;  0.0000000E+00; -1.5861455E-01;0; -2.1852840E-02;  3.9848523E+04;  0.0000000E+00; -1.5282077E-01;  4.0000000E+04;  0.0000000E+00;  4.0015809E+04; -2.8169291E-02;  0.0000000E+00;  6.3164509E-03;  2.1389285E+03;
  4.5167047E-01;  9.9999998E-03;  2.7998343E-01;5249; -8.9026736E-03;  0.0000000E+00;  2.6882689E-03;  9.9821277E+02;  1.0000000E-01; -1.4806989E+03;3; -1.4075115E+00;  0.0000000E+00; -2.0631272E-01;0; -2.1891195E-02;  3.9838500E+04;  0.0000000E+00; -6.8415061E-02;  4.0000000E+04;  0.0000000E+00;  4.0017008E+04; -2.8077651E-02;  0.0000000E+00;  6.1864550E-03;  2.2722034E+03;
  4.5164901E-01;  9.9999998E-03;  2.8998110E-01;5250; -8.9660734E-03;  0.0000000E+00;  2.7286806E-03;  9.9811310E+02;  1.0000000E-01; -1.5632644E+03;3; -1.3769563E+00;  0.0000000E+00; -2.5371391E-01;0; -2.2145450E-02;  3.9829703E+04;  0.0000000E+00;  6.1455529E-02;  4.0000000E+04;  0.0000000E+00;  4.0017672E+04; -2.7998256E-02;  0.0000000E+00;  5.8528055E-03;  2.3759028E+03;
  4.5161164E-01;  9.9999998E-03;  2.9997870E-01;5251; -9.0262610E-03;  0.0000000E+00;  2.7603530E-03;  9.9802789E+02;  1.0000000E-01; -1.6338303E+03;3; -1.3505111E+00;  0.0000000E+00; -2.9664510E-01;0; -2.2565601E-02;  3.9822281E+04;  0.0000000E+00;  2.4755940E-01;  4.0000000E+04;  0.0000000E+00;  4.0018105E+04; -2.7931055E-02;  0.0000000E+00;  5.3654537E-03;  2.4851243E+03;
  4.6173507E-01;  9.9999998E-03;  2.3999672E-01;5306; -8.9276135E-03;  0.0000000E+00;  2.5568625E-03;  9.9875586E+02;  1.0000000E-01; -1.0307363E+03;3; -1.5381125E+00;  0.0000000E+00; -9.8413721E-02;0; -2.2175156E-02;  3.9888504E+04;  0.0000000E+00; -2.0902780E-01;  4.0000000E+04;  0.0000000E+00;  4.0010656E+04; -2.8851021E-02;  0.0000000E+00;  6.6758660E-03;  1.4616224E+03;
  4.6174017E-01;  9.9999998E-03;  2.4999292E-01;5307; -8.9863893E-03;  0.0000000E+00;  2.6028145E-03;  9.9862158E+02;  1.0000000E-01; -1.1419924E+03;3; -1.4942528E+00;  0.0000000E+00; -1.2486253E-01;0; -2.2333980E-02;  3.9876602E+04;  0.0000000E+00; -1.9735904E-01;  4.0000000E+04;  0.0000000E+00;  4.0012195E+04; -2.8694177E-02;  0.0000000E+00;  6.3601979E-03;  1.6598750E+03;
  4.6174353E-01;  9.9999998E-03;  2.5998941E-01;5308; -9.0459501E-03;  0.0000000E+00;  2.6741582E-03;  9.9850354E+02;  1.0000000E-01; -1.2397675E+03;3; -1.4524457E+00;  0.0000000E+00; -1.6013500E-01;0; -2.2297960E-02;  3.9865242E+04;  0.0000000E+00; -1.6330880E-01;  4.0000000E+04;  0.0000000E+00;  4.0013789E+04; -2.8550828E-02;  0.0000000E+00;  6.2528681E-03;  1.8748610E+03;
  4.6174273E-01;  9.9999998E-03;  2.6998672E-01;5309; -9.1062924E-03;  0.0000000E+00;  2.7386704E-03;  9.9839160E+02;  1.0000000E-01; -1.3325055E+03;3; -1.4126123E+00;  0.0000000E+00; -2.0162798E-01;0; -2.2239489E-02;  3.9854730E+04;  0.0000000E+00; -9.8840803E-02;  4.0000000E+04;  0.0000000E+00;  4.0014977E+04; -2.8421815E-02;  0.0000000E+00;  6.1823260E-03;  2.0368273E+03;
  4.6173838E-01;  9.9999998E-03;  2.7998430E-01;5310; -9.1662938E-03;  0.0000000E+00;  2.7862797E-03;  9.9828424E+02;  1.0000000E-01; -1.4214906E+03;3; -1.3757219E+00;  0.0000000E+00; -2.4820976E-01;0; -2.2346910E-02;  3.9845320E+04;  0.0000000E+00;  3.9715865E-03;  4.0000000E+04;  0.0000000E+00;  4.0015996E+04; -2.8307635E-02;  0.0000000E+00;  5.9607262E-03;  2.1621909E+03;
  4.6172598E-01;  9.9999998E-03;  2.8998193E-01;5311; -9.2247343E-03;  0.0000000E+00;  2.8214650E-03;  9.9818945E+02;  1.0000000E-01; -1.5000070E+03;3; -1.3414640E+00;  0.0000000E+00; -2.9192847E-01;0; -2.2658337E-02;  3.9837211E+04;  0.0000000E+00;  1.5162106E-01;  4.0000000E+04;  0.0000000E+00;  4.0016898E+04; -2.8208494E-02;  0.0000000E+00;  5.5501577E-03;  2.2689690E+03;
  4.6170092E-01;  9.9999998E-03;  2.9997948E-01;5312; -9.2780609E-03;  0.0000000E+00;  2.8489763E-03;  9.9810364E+02;  1.0000000E-01; -1.5711161E+03;3; -1.3131188E+00;  0.0000000E+00; -3.3661556E-01;0; -2.3112170E-02;  3.9829957E+04;  0.0000000E+00;  3.5129848E-01;  4.0000000E+04;  0.0000000E+00;  4.0017293E+04; -2.8124500E-02;  0.0000000E+00;  5.0123287E-03;  2.3976782E+03;
  4.7173679E-01;  9.9999998E-03;  2.3999801E-01;5367; -9.2052463E-03;  0.0000000E+00;  2.6577180E-03;  9.9878656E+02;  1.0000000E-01; -1.0053049E+03;3; -1.5147465E+00;  0.0000000E+00; -1.3986883E-01;0; -2.2589844E-02;  3.9892348E+04;  0.0000000E+00; -1.7203860E-01;  4.0000000E+04;  0.0000000E+00;  4.0010020E+04; -2.9186407E-02;  0.0000000E+00;  6.5965629E-03;  1.3808911E+03;
  4.7174340E-01;  9.9999998E-03;  2.4999358E-01;5368; -9.2603806E-03;  0.0000000E+00;  2.7149080E-03;  9.9866229E+02;  1.0000000E-01; -1.1082649E+03;3; -1.4674829E+00;  0.0000000E+00; -1.6959962E-01;0; -2.2683490E-02;  3.9880648E+04;  0.0000000E+00; -1.5562719E-01;  4.0000000E+04;  0.0000000E+00;  4.0011789E+04; -2.9002899E-02;  0.0000000E+00;  6.3194102E-03;  1.6072078E+03;
  4.7175136E-01;  9.9999998E-03;  2.5999016E-01;5369; -9.3163680E-03;  0.0000000E+00;  2.7809197E-03;  9.9854541E+02;  1.0000000E-01; -1.2051017E+03;3; -1.4228637E+00;  0.0000000E+00; -2.0382632E-01;0; -2.2672847E-02;  3.9869781E+04;  0.0000000E+00; -1.1570618E-01;  4.0000000E+04;  0.0000000E+00;  4.0013480E+04; -2.8835384E-02;  0.0000000E+00;  6.1625368E-03;  1.8099196E+03;
  4.7175583E-01;  9.9999998E-03;  2.6998749E-01;5370; -9.3727028E-03;  0.0000000E+00;  2.8331832E-03;  9.9843793E+02;  1.0000000E-01; -1.2941362E+03;3; -1.3797890E+00;  0.0000000E+00; -2.4406555E-01;0; -2.2737168E-02;  3.9859707E+04;  0.0000000E+00; -4.4992477E-02;  4.0000000E+04;  0.0000000E+00;  4.0014309E+04; -2.8684497E-02;  0.0000000E+00;  5.9473296E-03;  1.9562102E+03;
  4.7175342E-01;  9.9999998E-03;  2.7998501E-01;5371; -9.4277840E-03;  0.0000000E+00;  2.8755367E-03;  9.9833783E+02;  1.0000000E-01; -1.3770968E+03;3; -1.3399639E+00;  0.0000000E+00; -2.8962046E-01;0; -2.2914207E-02;  3.9850746E+04;  0.0000000E+00;  6.1103847E-02;  4.0000000E+04;  0.0000000E+00;  4.0015609E+04; -2.8550753E-02;  0.0000000E+00;  5.6365472E-03;  2.0762341E+03;
  4.7174636E-01;  9.9999998E-03;  2.8998259E-01;5372; -9.4801951E-03;  0.0000000E+00;  2.9101043E-03;  9.9824597E+02;  1.0000000E-01; -1.4531935E+03;3; -1.3024179E+00;  0.0000000E+00; -3.3574757E-01;0; -2.3220832E-02;  3.9842945E+04;  0.0000000E+00;  2.0404118E-01;  4.0000000E+04;  0.0000000E+00;  4.0016062E+04; -2.8434439E-02;  0.0000000E+00;  5.2136071E-03;  2.1877385E+03;
  4.7173229E-01;  9.9999998E-03;  2.9998013E-01;5373; -9.5255515E-03;  0.0000000E+00;  2.9370447E-03;  9.9816595E+02;  1.0000000E-01; -1.5194633E+03;3; -1.2717699E+00;  0.0000000E+00; -3.7904117E-01;0; -2.3653230E-02;  3.9836035E+04;  0.0000000E+00;  3.8605839E-01;  4.0000000E+04;  0.0000000E+00;  4.0016816E+04; -2.8335530E-02;  0.0000000E+00;  4.6823001E-03;  2.3134648E+03;
  4.8170912E-01;  9.9999998E-03;  2.9998049E-01;5434; -9.7759934E-03;  0.0000000E+00;  3.0261748E-03;  9.9819257E+02;  1.0000147E-01; -1.4974391E+03;3; -1.2256680E+00;  0.0000000E+00; -4.3068147E-01;0; -2.4155891E-02;  3.9838020E+04;  0.0000000E+00;  3.3678499E-01;  4.0000000E+04;  0.0000000E+00;  4.0016195E+04; -2.8561037E-02;  0.0000000E+00;  4.4051465E-03;  2.2503677E+03;
  4.8171780E-01;  9.9999998E-03;  2.8998294E-01;5433; -9.7379992E-03;  0.0000000E+00;  3.0024056E-03;  9.9827209E+02;  1.0000147E-01; -1.4315150E+03;3; -1.2605411E+00;  0.0000000E+00; -3.8258040E-01;0; -2.3706801E-02;  3.9844949E+04;  0.0000000E+00;  1.9475763E-01;  4.0000000E+04;  0.0000000E+00;  4.0015828E+04; -2.8673174E-02;  0.0000000E+00;  4.9663731E-03;  2.1407881E+03;
  4.8171979E-01;  9.9999998E-03;  2.7998543E-01;5432; -9.6911956E-03;  0.0000000E+00;  2.9672827E-03;  9.9836353E+02;  1.0000148E-01; -1.3557642E+03;3; -1.3010124E+00;  0.0000000E+00; -3.3551350E-01;0; -2.3429107E-02;  3.9852527E+04;  0.0000000E+00;  7.6396301E-02;  4.0000000E+04;  0.0000000E+00;  4.0015109E+04; -2.8804164E-02;  0.0000000E+00;  5.3750575E-03;  2.0309331E+03;
  4.8168838E-01;  9.9999998E-03;  2.3999815E-01;5428; -9.4853733E-03;  0.0000000E+00;  2.7647647E-03;  9.9879871E+02;  1.0000148E-01; -9.9523114E+02;3; -1.4885833E+00;  0.0000000E+00; -1.8831894E-01;0; -2.2965804E-02;  3.9892906E+04;  0.0000000E+00; -1.2843500E-01;  4.0000000E+04;  0.0000000E+00;  4.0010008E+04; -2.9519603E-02;  0.0000000E+00;  6.5537989E-03;  1.3536844E+03;
  4.8169777E-01;  9.9999998E-03;  2.4999386E-01;5429; -9.5366146E-03;  0.0000000E+00;  2.8238355E-03;  9.9868109E+02;  1.0000146E-01; -1.0927098E+03;3; -1.4380102E+00;  0.0000000E+00; -2.1840750E-01;0; -2.3042873E-02;  3.9881438E+04;  0.0000000E+00; -1.1402024E-01;  4.0000000E+04;  0.0000000E+00;  4.0011629E+04; -2.9312687E-02;  0.0000000E+00;  6.2698154E-03;  1.5806272E+03;
  4.8170802E-01;  9.9999998E-03;  2.5999066E-01;5430; -9.5888646E-03;  0.0000000E+00;  2.8786203E-03;  9.9856476E+02;  1.0000145E-01; -1.1890527E+03;3; -1.3901718E+00;  0.0000000E+00; -2.5196236E-01;0; -2.3116818E-02;  3.9870820E+04;  0.0000000E+00; -7.8409098E-02;  4.0000000E+04;  0.0000000E+00;  4.0012988E+04; -2.9124038E-02;  0.0000000E+00;  6.0072201E-03;  1.7672660E+03;
  4.8171762E-01;  9.9999998E-03;  2.6998800E-01;5431; -9.6409032E-03;  0.0000000E+00;  2.9250593E-03;  9.9846320E+02;  1.0000148E-01; -1.2731986E+03;3; -1.3436645E+00;  0.0000000E+00; -2.9250082E-01;0; -2.3249345E-02;  3.9861129E+04;  0.0000000E+00; -1.5467553E-02;  4.0000000E+04;  0.0000000E+00;  4.0013953E+04; -2.8954482E-02;  0.0000000E+00;  5.7051363E-03;  1.9060262E+03;
  4.9172351E-01;  9.9999998E-03;  2.3999670E-01;5489; -9.7737527E-03;  0.0000000E+00;  2.8760736E-03;  9.9876489E+02;  1.0000210E-01; -1.0232797E+03;3; -1.4585785E+00;  0.0000000E+00; -2.4285406E-01;0; -2.3318401E-02;  3.9889449E+04;  0.0000000E+00; -9.5826671E-02;  4.0000000E+04;  0.0000000E+00;  4.0010348E+04; -2.9849738E-02;  0.0000000E+00;  6.5313373E-03;  1.4109011E+03;
  4.9171653E-01;  9.9999998E-03;  2.4999307E-01;5490; -9.8205972E-03;  0.0000000E+00;  2.9323217E-03;  9.9864294E+02;  1.0000207E-01; -1.1243138E+03;3; -1.4051673E+00;  0.0000000E+00; -2.7292791E-01;0; -2.3400176E-02;  3.9877859E+04;  0.0000000E+00; -9.1145232E-02;  4.0000000E+04;  0.0000000E+00;  4.0011953E+04; -2.9621176E-02;  0.0000000E+00;  6.2209996E-03;  1.6369045E+03;
  4.9170530E-01;  9.9999998E-03;  2.5999022E-01;5491; -9.8682819E-03;  0.0000000E+00;  2.9810432E-03;  9.9852594E+02;  1.0000200E-01; -1.2212494E+03;3; -1.3536780E+00;  0.0000000E+00; -3.0628052E-01;0; -2.3509907E-02;  3.9867152E+04;  0.0000000E+00; -6.9212414E-02;  4.0000000E+04;  0.0000000E+00;  4.0013594E+04; -2.9413128E-02;  0.0000000E+00;  5.9032217E-03;  1.8169114E+03;
  4.9169770E-01;  9.9999998E-03;  2.6998767E-01;5492; -9.9158064E-03;  0.0000000E+00;  3.0249611E-03;  9.9842163E+02;  1.0000207E-01; -1.3076667E+03;3; -1.3046035E+00;  0.0000000E+00; -3.4410524E-01;0; -2.3656370E-02;  3.9857660E+04;  0.0000000E+00; -2.5489023E-02;  4.0000000E+04;  0.0000000E+00;  4.0014641E+04; -2.9226653E-02;  0.0000000E+00;  5.5702832E-03;  1.9594558E+03;
  4.9169108E-01;  9.9999998E-03;  2.7998516E-01;5493; -9.9617299E-03;  0.0000000E+00;  3.0656015E-03;  9.9832269E+02;  1.0000204E-01; -1.3896398E+03;3; -1.2580229E+00;  0.0000000E+00; -3.8946164E-01;0; -2.3833813E-02;  3.9848832E+04;  0.0000000E+00;  3.9250322E-02;  4.0000000E+04;  0.0000000E+00;  4.0015504E+04; -2.9061729E-02;  0.0000000E+00;  5.2279155E-03;  2.0804304E+03;
  4.9168634E-01;  9.9999998E-03;  2.8998271E-01;5494; -1.0004022E-02;  0.0000000E+00;  3.0975810E-03;  9.9823236E+02;  1.0000199E-01; -1.4644524E+03;3; -1.2141498E+00;  0.0000000E+00; -4.3742532E-01;0; -2.4130097E-02;  3.9841082E+04;  0.0000000E+00;  1.1971693E-01;  4.0000000E+04;  0.0000000E+00;  4.0016164E+04; -2.8917808E-02;  0.0000000E+00;  4.7877119E-03;  2.1776492E+03;
  4.9168250E-01;  9.9999998E-03;  2.9998025E-01;5495; -1.0036706E-02;  0.0000000E+00;  3.1184596E-03;  9.9814966E+02;  1.0000207E-01; -1.5329937E+03;3; -1.1749552E+00;  0.0000000E+00; -4.8590785E-01;0; -2.4590861E-02;  3.9834094E+04;  0.0000000E+00;  2.0968994E-01;  4.0000000E+04;  0.0000000E+00;  4.0016660E+04; -2.8793741E-02;  0.0000000E+00;  4.2028804E-03;  2.2696755E+03;
  5.0176042E-01;  9.9999998E-03;  2.3999438E-01;5550; -1.0070310E-02;  0.0000000E+00;  2.9909483E-03;  9.9870007E+02;  1.0000383E-01; -1.0769572E+03;3; -1.4250504E+00;  0.0000000E+00; -3.0293646E-01;0; -2.3636766E-02;  3.9882031E+04;  0.0000000E+00; -7.6050609E-02;  4.0000000E+04;  0.0000000E+00;  4.0011230E+04; -3.0166378E-02;  0.0000000E+00;  6.5296125E-03;  1.5283246E+03;
  5.0176752E-01;  9.9999998E-03;  2.4999149E-01;5551; -1.0113770E-02;  0.0000000E+00;  3.0464830E-03;  9.9856714E+02;  1.0000373E-01; -1.1870775E+03;3; -1.3689152E+00;  0.0000000E+00; -3.3310634E-01;0; -2.3703832E-02;  3.9869902E+04;  0.0000000E+00; -8.8477194E-02;  4.0000000E+04;  0.0000000E+00;  4.0013000E+04; -2.9918779E-02;  0.0000000E+00;  6.2149456E-03;  1.7596704E+03;
  5.0176430E-01;  9.9999998E-03;  2.5998914E-01;5552; -1.0158062E-02;  0.0000000E+00;  3.0913439E-03;  9.9844501E+02;  1.0000370E-01; -1.2882599E+03;3; -1.3144873E+00;  0.0000000E+00; -3.6653519E-01;0; -2.3817448E-02;  3.9858680E+04;  0.0000000E+00; -8.7460116E-02;  4.0000000E+04;  0.0000000E+00;  4.0014496E+04; -2.9693827E-02;  0.0000000E+00;  5.8763791E-03;  1.9373025E+03;
  5.0175983E-01;  9.9999998E-03;  2.6998681E-01;5553; -1.0202131E-02;  0.0000000E+00;  3.1326346E-03;  9.9833545E+02;  1.0000364E-01; -1.3790721E+03;3; -1.2612660E+00;  0.0000000E+00; -4.0457398E-01;0; -2.3959184E-02;  3.9848719E+04;  0.0000000E+00; -6.8110473E-02;  4.0000000E+04;  0.0000000E+00;  4.0015480E+04; -2.9492419E-02;  0.0000000E+00;  5.5332351E-03;  2.0834207E+03;
  5.0176132E-01;  9.9999998E-03;  2.7998441E-01;5554; -1.0245181E-02;  0.0000000E+00;  3.1691263E-03;  9.9823328E+02;  1.0000388E-01; -1.4637117E+03;3; -1.2108419E+00;  0.0000000E+00; -4.4972634E-01;0; -2.4155892E-02;  3.9839379E+04;  0.0000000E+00; -3.2399878E-02;  4.0000000E+04;  0.0000000E+00;  4.0016574E+04; -2.9314542E-02;  0.0000000E+00;  5.1586502E-03;  2.2031848E+03;
  5.0176620E-01;  9.9999998E-03;  2.8998205E-01;5555; -1.0284984E-02;  0.0000000E+00;  3.1969692E-03;  9.9813934E+02;  1.0000371E-01; -1.5415366E+03;3; -1.1628286E+00;  0.0000000E+00; -4.9854925E-01;0; -2.4478775E-02;  3.9831293E+04;  0.0000000E+00;  1.3858994E-02;  4.0000000E+04;  0.0000000E+00;  4.0017156E+04; -2.9159022E-02;  0.0000000E+00;  4.6802475E-03;  2.2967039E+03;
  5.0177550E-01;  9.9999998E-03;  2.9997960E-01;5556; -1.0315965E-02;  0.0000000E+00;  3.2123937E-03;  9.9805011E+02;  1.0000388E-01; -1.6154604E+03;3; -1.1201642E+00;  0.0000000E+00; -5.4411423E-01;0; -2.4998341E-02;  3.9824062E+04;  0.0000000E+00;  6.4271972E-02;  4.0000000E+04;  0.0000000E+00;  4.0017605E+04; -2.9023984E-02;  0.0000000E+00;  4.0256432E-03;  2.3829199E+03;
  5.1174033E-01;  9.9999998E-03;  2.3999116E-01;5611; -1.0374507E-02;  0.0000000E+00;  3.1117871E-03;  9.9860309E+02;  1.0000615E-01; -1.1573007E+03;3; -1.3894095E+00;  0.0000000E+00; -3.6740723E-01;0; -2.3897756E-02;  3.9871289E+04;  0.0000000E+00; -6.3975215E-02;  4.0000000E+04;  0.0000000E+00;  4.0012758E+04; -3.0458961E-02;  0.0000000E+00;  6.5612039E-03;  1.7108545E+03;
  5.1174122E-01;  9.9999998E-03;  2.4998933E-01;5612; -1.0414400E-02;  0.0000000E+00;  3.1657112E-03;  9.9846075E+02;  1.0000618E-01; -1.2752231E+03;3; -1.3298457E+00;  0.0000000E+00; -3.9766490E-01;0; -2.3937399E-02;  3.9858168E+04;  0.0000000E+00; -9.0909265E-02;  4.0000000E+04;  0.0000000E+00;  4.0014215E+04; -3.0192532E-02;  0.0000000E+00;  6.2551326E-03;  1.9354590E+03;
  5.1173210E-01;  9.9999998E-03;  2.5998750E-01;5613; -1.0455407E-02;  0.0000000E+00;  3.2047508E-03;  9.9832593E+02;  1.0000620E-01; -1.3869237E+03;3; -1.2714031E+00;  0.0000000E+00; -4.3303320E-01;0; -2.4052177E-02;  3.9845941E+04;  0.0000000E+00; -1.0702062E-01;  4.0000000E+04;  0.0000000E+00;  4.0015828E+04; -2.9950984E-02;  0.0000000E+00;  5.8988063E-03;  2.1159707E+03;
  5.1171815E-01;  9.9999998E-03;  2.6998544E-01;5614; -1.0496547E-02;  0.0000000E+00;  3.2403560E-03;  9.9820654E+02;  1.0000632E-01; -1.4858345E+03;3; -1.2147571E+00;  0.0000000E+00; -4.6912158E-01;0; -2.4209481E-02;  3.9835273E+04;  0.0000000E+00; -1.0562406E-01;  4.0000000E+04;  0.0000000E+00;  4.0017004E+04; -2.9735001E-02;  0.0000000E+00;  5.5255210E-03;  2.2684924E+03;
  5.1171768E-01;  9.9999998E-03;  2.7998325E-01;5615; -1.0537709E-02;  0.0000000E+00;  3.2715518E-03;  9.9810028E+02;  1.0000617E-01; -1.5738815E+03;3; -1.1601019E+00;  0.0000000E+00; -5.1367867E-01;0; -2.4435263E-02;  3.9825535E+04;  0.0000000E+00; -9.0356395E-02;  4.0000000E+04;  0.0000000E+00;  4.0017730E+04; -2.9544491E-02;  0.0000000E+00;  5.1092273E-03;  2.3905125E+03;
  5.1172698E-01;  9.9999998E-03;  2.8998101E-01;5616; -1.0576943E-02;  0.0000000E+00;  3.2948451E-03;  9.9800079E+02;  1.0000617E-01; -1.6562988E+03;3; -1.1082126E+00;  0.0000000E+00; -5.6095392E-01;0; -2.4791831E-02;  3.9816910E+04;  0.0000000E+00; -6.6743739E-02;  4.0000000E+04;  0.0000000E+00;  4.0018445E+04; -2.9377559E-02;  0.0000000E+00;  4.5857285E-03;  2.4881162E+03;
  5.1174843E-01;  9.9999998E-03;  2.9997864E-01;5617; -1.0609374E-02;  0.0000000E+00;  3.3084496E-03;  9.9790881E+02;  1.0000626E-01; -1.7324943E+03;3; -1.0607947E+00;  0.0000000E+00; -6.0983378E-01;0; -2.5301870E-02;  3.9809172E+04;  0.0000000E+00; -4.0294986E-02;  4.0000000E+04;  0.0000000E+00;  4.0019074E+04; -2.9231800E-02;  0.0000000E+00;  3.9299307E-03;  2.5751438E+03;
  5.2171892E-01;  9.9999998E-03;  2.3998839E-01;5672; -1.0687502E-02;  0.0000000E+00;  3.2317427E-03;  9.9849890E+02;  1.0001042E-01; -1.2436191E+03;3; -1.3500445E+00;  0.0000000E+00; -4.3530393E-01;0; -2.4131525E-02;  3.9857668E+04;  0.0000000E+00; -6.2572636E-02;  4.0000000E+04;  0.0000000E+00;  4.0014340E+04; -3.0720940E-02;  0.0000000E+00;  6.5894146E-03;  1.8937556E+03;
  5.2171451E-01;  9.9999998E-03;  2.4998720E-01;5673; -1.0723948E-02;  0.0000000E+00;  3.2837070E-03;  9.9834320E+02;  1.0001062E-01; -1.3726031E+03;3; -1.2873826E+00;  0.0000000E+00; -4.7071922E-01;0; -2.4142206E-02;  3.9843402E+04;  0.0000000E+00; -1.0207982E-01;  4.0000000E+04;  0.0000000E+00;  4.0015738E+04; -3.0435639E-02;  0.0000000E+00;  6.2934337E-03;  2.1211040E+03;
  5.2169937E-01;  9.9999998E-03;  2.5998577E-01;5674; -1.0761921E-02;  0.0000000E+00;  3.3161419E-03;  9.9819519E+02;  1.0001060E-01; -1.4952664E+03;3; -1.2250972E+00;  0.0000000E+00; -5.0294054E-01;0; -2.4264174E-02;  3.9830281E+04;  0.0000000E+00; -1.3172495E-01;  4.0000000E+04;  0.0000000E+00;  4.0017121E+04; -3.0177251E-02;  0.0000000E+00;  5.9130774E-03;  2.3056611E+03;
  5.2167797E-01;  9.9999998E-03;  2.6998395E-01;5675; -1.0800749E-02;  0.0000000E+00;  3.3465545E-03;  9.9806311E+02;  1.0001048E-01; -1.6046953E+03;3; -1.1642963E+00;  0.0000000E+00; -5.3857839E-01;0; -2.4430752E-02;  3.9818711E+04;  0.0000000E+00; -1.4176215E-01;  4.0000000E+04;  0.0000000E+00;  4.0018047E+04; -2.9946357E-02;  0.0000000E+00;  5.5156043E-03;  2.4715122E+03;
  5.2167004E-01;  9.9999998E-03;  2.7998191E-01;5676; -1.0840832E-02;  0.0000000E+00;  3.3737312E-03;  9.9794611E+02;  1.0001054E-01; -1.7016309E+03;3; -1.1062055E+00;  0.0000000E+00; -5.8395046E-01;0; -2.4664495E-02;  3.9808137E+04;  0.0000000E+00; -1.3645482E-01;  4.0000000E+04;  0.0000000E+00;  4.0019227E+04; -2.9742474E-02;  0.0000000E+00;  5.0779786E-03;  2.6080652E+03;
  5.2168012E-01;  9.9999998E-03;  2.8997985E-01;5677; -1.0880851E-02;  0.0000000E+00;  3.3934279E-03;  9.9784259E+02;  1.0001048E-01; -1.7873568E+03;3; -1.0497479E+00;  0.0000000E+00; -6.3266516E-01;0; -2.5033258E-02;  3.9799102E+04;  0.0000000E+00; -1.2609893E-01;  4.0000000E+04;  0.0000000E+00;  4.0020039E+04; -2.9563617E-02;  0.0000000E+00;  4.5303591E-03;  2.7108313E+03;
  5.2170664E-01;  9.9999998E-03;  2.9997757E-01;5678; -1.0916930E-02;  0.0000000E+00;  3.4023984E-03;  9.9774475E+02;  1.0001039E-01; -1.8684410E+03;3; -9.9801254E-01;  0.0000000E+00; -6.7982996E-01;0; -2.5584001E-02;  3.9790613E+04;  0.0000000E+00; -1.1676560E-01;  4.0000000E+04;  0.0000000E+00;  4.0020609E+04; -2.9406728E-02;  0.0000000E+00;  3.8227269E-03;  2.8054067E+03;
  5.3170294E-01;  9.9999998E-03;  2.3998685E-01;5733; -1.1006905E-02;  0.0000000E+00;  3.3456241E-03;  9.9841211E+02;  1.0001750E-01; -1.3155183E+03;3; -1.3075724E+00;  0.0000000E+00; -5.1104480E-01;0; -2.4357900E-02;  3.9843871E+04;  0.0000000E+00; -6.9435447E-02;  4.0000000E+04;  0.0000000E+00;  4.0014973E+04; -3.0946342E-02;  0.0000000E+00;  6.5884423E-03;  2.0255883E+03;
  5.3170097E-01;  9.9999998E-03;  2.4998558E-01;5734; -1.1039881E-02;  0.0000000E+00;  3.3948310E-03;  9.9823907E+02;  1.0001737E-01; -1.4588723E+03;3; -1.2411525E+00;  0.0000000E+00; -5.4703289E-01;0; -2.4352981E-02;  3.9828457E+04;  0.0000000E+00; -1.1783034E-01;  4.0000000E+04;  0.0000000E+00;  4.0016957E+04; -3.0641761E-02;  0.0000000E+00;  6.2887794E-03;  2.2687559E+03;
  5.3168648E-01;  9.9999998E-03;  2.5998425E-01;5735; -1.1074802E-02;  0.0000000E+00;  3.4246109E-03;  9.9807758E+02;  1.0001739E-01; -1.5926957E+03;3; -1.1756009E+00;  0.0000000E+00; -5.7702333E-01;0; -2.4457160E-02;  3.9814398E+04;  0.0000000E+00; -1.5534000E-01;  4.0000000E+04;  0.0000000E+00;  4.0018211E+04; -3.0365983E-02;  0.0000000E+00;  5.9088236E-03;  2.4697712E+03;
  5.3166300E-01;  9.9999998E-03;  2.6998258E-01;5736; -1.1111488E-02;  0.0000000E+00;  3.4516419E-03;  9.9793597E+02;  1.0001741E-01; -1.7100258E+03;3; -1.1111710E+00;  0.0000000E+00; -6.1621600E-01;0; -2.4612196E-02;  3.9801324E+04;  0.0000000E+00; -1.6735221E-01;  4.0000000E+04;  0.0000000E+00;  4.0019562E+04; -3.0119309E-02;  0.0000000E+00;  5.5071143E-03;  2.6480908E+03;
  5.3165394E-01;  9.9999998E-03;  2.7998078E-01;5737; -1.1150948E-02;  0.0000000E+00;  3.4739538E-03;  9.9781061E+02;  1.0001760E-01; -1.8138746E+03;3; -1.0479755E+00;  0.0000000E+00; -6.5833628E-01;0; -2.4866492E-02;  3.9790266E+04;  0.0000000E+00; -1.5913969E-01;  4.0000000E+04;  0.0000000E+00;  4.0020664E+04; -2.9901175E-02;  0.0000000E+00;  5.0346842E-03;  2.7949197E+03;
  5.3166825E-01;  9.9999998E-03;  2.8997889E-01;5738; -1.1192347E-02;  0.0000000E+00;  3.4893432E-03;  9.9770056E+02;  1.0001747E-01; -1.9050326E+03;3; -9.8712867E-01;  0.0000000E+00; -7.0829618E-01;0; -2.5260981E-02;  3.9780492E+04;  0.0000000E+00; -1.5197046E-01;  4.0000000E+04;  0.0000000E+00;  4.0021562E+04; -2.9709395E-02;  0.0000000E+00;  4.4484143E-03;  2.9072551E+03;
  5.3170156E-01;  9.9999998E-03;  2.9997683E-01;5739; -1.1232604E-02;  0.0000000E+00;  3.4963489E-03;  9.9760229E+02;  1.0001730E-01; -1.9864623E+03;3; -9.3119305E-01;  0.0000000E+00; -7.5815719E-01;0; -2.5804114E-02;  3.9772141E+04;  0.0000000E+00; -1.5790379E-01;  4.0000000E+04;  0.0000000E+00;  4.0022172E+04; -2.9540814E-02;  0.0000000E+00;  3.7367013E-03;  3.0053787E+03;
  5.4170626E-01;  9.9999998E-03;  2.3998739E-01;5794; -1.1328964E-02;  0.0000000E+00;  3.4506454E-03;  9.9838330E+02;  1.0002956E-01; -1.3394189E+03;3; -1.2620038E+00;  0.0000000E+00; -5.9077317E-01;0; -2.4590962E-02;  3.9831641E+04;  0.0000000E+00; -8.1808046E-02;  4.0000000E+04;  0.0000000E+00;  4.0014992E+04; -3.1132938E-02;  0.0000000E+00;  6.5419776E-03;  2.0430018E+03;
  5.4171246E-01;  9.9999998E-03;  2.4998525E-01;5795; -1.1358081E-02;  0.0000000E+00;  3.4975521E-03;  9.9819904E+02;  1.0002953E-01; -1.4920565E+03;3; -1.1920105E+00;  0.0000000E+00; -6.2624103E-01;0; -2.4580184E-02;  3.9815047E+04;  0.0000000E+00; -1.3440426E-01;  4.0000000E+04;  0.0000000E+00;  4.0016941E+04; -3.0808765E-02;  0.0000000E+00;  6.2285815E-03;  2.3052485E+03;
  5.4170179E-01;  9.9999998E-03;  2.5998357E-01;5796; -1.1389391E-02;  0.0000000E+00;  3.5274229E-03;  9.9802795E+02;  1.0002952E-01; -1.6337810E+03;3; -1.1222091E+00;  0.0000000E+00; -6.5690297E-01;0; -2.4654517E-02;  3.9799859E+04;  0.0000000E+00; -1.7309324E-01;  4.0000000E+04;  0.0000000E+00;  4.0018352E+04; -3.0515000E-02;  0.0000000E+00;  5.8604828E-03;  2.5276260E+03;
  5.4167986E-01;  9.9999998E-03;  2.6998186E-01;5797; -1.1423465E-02;  0.0000000E+00;  3.5525507E-03;  9.9787482E+02;  1.0002949E-01; -1.7606909E+03;3; -1.0541917E+00;  0.0000000E+00; -6.9910288E-01;0; -2.4789575E-02;  3.9786309E+04;  0.0000000E+00; -1.7764007E-01;  4.0000000E+04;  0.0000000E+00;  4.0020168E+04; -3.0251818E-02;  0.0000000E+00;  5.4622432E-03;  2.7251785E+03;
  5.4167187E-01;  9.9999998E-03;  2.7998024E-01;5798; -1.1461587E-02;  0.0000000E+00;  3.5726635E-03;  9.9774237E+02;  1.0002955E-01; -1.8704163E+03;3; -9.8662841E-01;  0.0000000E+00; -7.4026138E-01;0; -2.5029106E-02;  3.9774336E+04;  0.0000000E+00; -1.5540139E-01;  4.0000000E+04;  0.0000000E+00;  4.0021191E+04; -3.0018514E-02;  0.0000000E+00;  4.9894080E-03;  2.8826106E+03;
  5.4169261E-01;  9.9999998E-03;  2.8997865E-01;5799; -1.1503450E-02;  0.0000000E+00;  3.5840096E-03;  9.9763037E+02;  1.0002948E-01; -1.9632037E+03;3; -9.2086786E-01;  0.0000000E+00; -7.9155570E-01;0; -2.5443003E-02;  3.9764387E+04;  0.0000000E+00; -1.4709716E-01;  4.0000000E+04;  0.0000000E+00;  4.0022195E+04; -2.9813062E-02;  0.0000000E+00;  4.3700603E-03;  2.9985969E+03;
  5.4173553E-01;  9.9999998E-03;  2.9997692E-01;5800; -1.1546415E-02;  0.0000000E+00;  3.5868129E-03;  9.9753949E+02;  1.0002959E-01; -2.0385103E+03;3; -8.5923547E-01;  0.0000000E+00; -8.3899397E-01;0; -2.6022144E-02;  3.9756109E+04;  0.0000000E+00; -1.7759384E-01;  4.0000000E+04;  0.0000000E+00;  4.0022703E+04; -2.9632419E-02;  0.0000000E+00;  3.6102762E-03;  3.0893950E+03;
  5.5174202E-01;  9.9999998E-03;  2.3999004E-01;5855; -1.1649543E-02;  0.0000000E+00;  3.5440775E-03;  9.9843555E+02;  1.0004855E-01; -1.2961115E+03;3; -1.2134062E+00;  0.0000000E+00; -6.7446554E-01;0; -2.4847290E-02;  3.9820887E+04;  0.0000000E+00; -9.6418008E-02;  4.0000000E+04;  0.0000000E+00;  4.0013867E+04; -3.1282973E-02;  0.0000000E+00;  6.4356825E-03;  1.9092938E+03;
  5.5176055E-01;  9.9999998E-03;  2.4998634E-01;5856; -1.1674265E-02;  0.0000000E+00;  3.5868920E-03;  9.9824524E+02;  1.0004877E-01; -1.4537860E+03;3; -1.1395562E+00;  0.0000000E+00; -7.1059328E-01;0; -2.4860509E-02;  3.9803922E+04;  0.0000000E+00; -1.5131806E-01;  4.0000000E+04;  0.0000000E+00;  4.0015699E+04; -3.0939557E-02;  0.0000000E+00;  6.0790470E-03;  2.1917659E+03;
  5.5175716E-01;  9.9999998E-03;  2.5998390E-01;5857; -1.1700960E-02;  0.0000000E+00;  3.6220651E-03;  9.9807001E+02;  1.0004857E-01; -1.5989672E+03;3; -1.0656316E+00;  0.0000000E+00; -7.4282950E-01;0; -2.4884064E-02;  3.9787957E+04;  0.0000000E+00; -1.9064656E-01;  4.0000000E+04;  0.0000000E+00;  4.0017742E+04; -3.0628087E-02;  0.0000000E+00;  5.7440228E-03;  2.4462971E+03;
  5.5173892E-01;  9.9999998E-03;  2.6998210E-01;5858; -1.1731177E-02;  0.0000000E+00;  3.6495070E-03;  9.9791138E+02;  1.0004877E-01; -1.7303708E+03;3; -9.9362153E-01;  0.0000000E+00; -7.8679472E-01;0; -2.4965256E-02;  3.9773785E+04;  0.0000000E+00; -1.8831371E-01;  4.0000000E+04;  0.0000000E+00;  4.0019258E+04; -3.0348562E-02;  0.0000000E+00;  5.3833057E-03;  2.6619822E+03;
  5.5172998E-01;  9.9999998E-03;  2.7998072E-01;5859; -1.1766301E-02;  0.0000000E+00;  3.6684319E-03;  9.9777655E+02;  1.0004848E-01; -1.8420714E+03;3; -9.2153412E-01;  0.0000000E+00; -8.3078921E-01;0; -2.5177663E-02;  3.9761777E+04;  0.0000000E+00; -1.5030722E-01;  4.0000000E+04;  0.0000000E+00;  4.0020684E+04; -3.0100103E-02;  0.0000000E+00;  4.9224403E-03;  2.8240784E+03;
  5.5175400E-01;  9.9999998E-03;  2.8997946E-01;5860; -1.1806302E-02;  0.0000000E+00;  3.6751837E-03;  9.9766272E+02;  1.0004845E-01; -1.9363896E+03;3; -8.5130113E-01;  0.0000000E+00; -8.8079435E-01;0; -2.5623035E-02;  3.9751949E+04;  0.0000000E+00; -1.4279507E-01;  4.0000000E+04;  0.0000000E+00;  4.0021488E+04; -2.9880997E-02;  0.0000000E+00;  4.2579630E-03;  2.9433203E+03;
  5.5180341E-01;  9.9999998E-03;  2.9997820E-01;5861; -1.1848355E-02;  0.0000000E+00;  3.6754308E-03;  9.9757837E+02;  1.0004847E-01; -2.0062643E+03;3; -7.8432196E-01;  0.0000000E+00; -9.2820501E-01;0; -2.6207464E-02;  3.9744633E+04;  0.0000000E+00; -2.0850182E-01;  4.0000000E+04;  0.0000000E+00;  4.0022227E+04; -2.9688828E-02;  0.0000000E+00;  3.4813646E-03;  3.0304207E+03;
  5.6181943E-01;  9.9999998E-03;  2.3999417E-01;5916; -1.1965119E-02;  0.0000000E+00;  3.6253126E-03;  9.9857214E+02;  1.0007975E-01; -1.1829296E+03;3; -1.1617572E+00;  0.0000000E+00; -7.6447135E-01;0; -2.5135538E-02;  3.9808996E+04;  0.0000000E+00; -1.1219022E-01;  4.0000000E+04;  0.0000000E+00;  4.0011238E+04; -3.1402703E-02;  0.0000000E+00;  6.2671653E-03;  1.6255513E+03;
  5.6185472E-01;  9.9999998E-03;  2.4998854E-01;5917; -1.1984960E-02;  0.0000000E+00;  3.6637033E-03;  9.9838348E+02;  1.0007986E-01; -1.3392708E+03;3; -1.0836483E+00;  0.0000000E+00; -7.9851627E-01;0; -2.5196292E-02;  3.9791977E+04;  0.0000000E+00; -1.7591858E-01;  4.0000000E+04;  0.0000000E+00;  4.0013633E+04; -3.1041436E-02;  0.0000000E+00;  5.8451449E-03;  1.9287227E+03;
  5.6186515E-01;  9.9999998E-03;  2.5998521E-01;5918; -1.2006114E-02;  0.0000000E+00;  3.7047209E-03;  9.9820911E+02;  1.0007985E-01; -1.4837112E+03;3; -1.0056970E+00;  0.0000000E+00; -8.3443910E-01;0; -2.5190584E-02;  3.9775840E+04;  0.0000000E+00; -2.3314135E-01;  4.0000000E+04;  0.0000000E+00;  4.0015617E+04; -3.0713860E-02;  0.0000000E+00;  5.5232747E-03;  2.2209412E+03;
  5.6185037E-01;  9.9999998E-03;  2.6998335E-01;5919; -1.2030775E-02;  0.0000000E+00;  3.7391034E-03;  9.9804999E+02;  1.0007992E-01; -1.6155592E+03;3; -9.2928457E-01;  0.0000000E+00; -8.7757611E-01;0; -2.5190379E-02;  3.9761664E+04;  0.0000000E+00; -2.4737138E-01;  4.0000000E+04;  0.0000000E+00;  4.0017508E+04; -3.0419445E-02;  0.0000000E+00;  5.2290657E-03;  2.4589373E+03;
  5.6183892E-01;  9.9999998E-03;  2.7998230E-01;5920; -1.2060600E-02;  0.0000000E+00;  3.7608780E-03;  9.9791418E+02;  1.0007984E-01; -1.7280499E+03;3; -8.5276735E-01;  0.0000000E+00; -9.2578804E-01;0; -2.5330830E-02;  3.9749566E+04;  0.0000000E+00; -2.1891610E-01;  4.0000000E+04;  0.0000000E+00;  4.0018871E+04; -3.0157335E-02;  0.0000000E+00;  4.8265057E-03;  2.6279697E+03;
  5.6186444E-01;  9.9999998E-03;  2.8998163E-01;5921; -1.2095968E-02;  0.0000000E+00;  3.7649437E-03;  9.9781165E+02;  1.0007969E-01; -1.8129857E+03;3; -7.7804852E-01;  0.0000000E+00; -9.7991192E-01;0; -2.5776058E-02;  3.9740539E+04;  0.0000000E+00; -2.4088088E-01;  4.0000000E+04;  0.0000000E+00;  4.0019793E+04; -2.9926205E-02;  0.0000000E+00;  4.1501466E-03;  2.7350920E+03;
  5.6191570E-01;  9.9999998E-03;  2.9998097E-01;5922; -1.2133260E-02;  0.0000000E+00;  3.7599520E-03;  9.9773761E+02;  1.0007991E-01; -1.8743667E+03;3; -7.0578575E-01;  0.0000000E+00; -1.0226399E+00;0; -2.6416047E-02;  3.9734555E+04;  0.0000000E+00; -3.6310625E-01;  4.0000000E+04;  0.0000000E+00;  4.0020191E+04; -2.9724363E-02;  0.0000000E+00;  3.3083162E-03;  2.8226963E+03;
  5.7194269E-01;  9.9999998E-03;  2.3999806E-01;5977; -1.2273565E-02;  0.0000000E+00;  3.7026049E-03;  9.9877716E+02;  1.0013139E-01; -1.0131072E+03;3; -1.1080073E+00;  0.0000000E+00; -8.6113358E-01;0; -2.5423598E-02;  3.9787008E+04;  0.0000000E+00; -1.3268627E-01;  4.0000000E+04;  0.0000000E+00;  4.0008148E+04; -3.1499997E-02;  0.0000000E+00;  6.0763988E-03;  1.2575024E+03;
  5.7199174E-01;  9.9999998E-03;  2.4999101E-01;5978; -1.2288000E-02;  0.0000000E+00;  3.7343232E-03;  9.9859229E+02;  1.0013139E-01; -1.1662880E+03;3; -1.0253370E+00;  0.0000000E+00; -8.9218515E-01;0; -2.5552804E-02;  3.9770625E+04;  0.0000000E+00; -2.2024526E-01;  4.0000000E+04;  0.0000000E+00;  4.0010449E+04; -3.1123405E-02;  0.0000000E+00;  5.5706021E-03;  1.5737943E+03;
  5.7201850E-01;  9.9999998E-03;  2.5998724E-01;5979; -1.2303218E-02;  0.0000000E+00;  3.7773808E-03;  9.9842627E+02;  1.0013117E-01; -1.3038149E+03;3; -9.4274569E-01;  0.0000000E+00; -9.3086046E-01;0; -2.5564481E-02;  3.9755328E+04;  0.0000000E+00; -3.2839641E-01;  4.0000000E+04;  0.0000000E+00;  4.0012895E+04; -3.0782381E-02;  0.0000000E+00;  5.2179005E-03;  1.9001559E+03;
  5.7201385E-01;  9.9999998E-03;  2.6998565E-01;5980; -1.2321264E-02;  0.0000000E+00;  3.8176465E-03;  9.9827515E+02;  1.0013127E-01; -1.4289966E+03;3; -8.6184019E-01;  0.0000000E+00; -9.7394747E-01;0; -2.5519490E-02;  3.9741527E+04;  0.0000000E+00; -4.1667628E-01;  4.0000000E+04;  0.0000000E+00;  4.0014723E+04; -3.0476073E-02;  0.0000000E+00;  4.9565826E-03;  2.1683801E+03;
  5.7200253E-01;  9.9999998E-03;  2.7998516E-01;5981; -1.2344049E-02;  0.0000000E+00;  3.8432339E-03;  9.9814600E+02;  1.0013135E-01; -1.5360060E+03;3; -7.8048408E-01;  0.0000000E+00; -1.0264424E+00;0; -2.5599498E-02;  3.9730086E+04;  0.0000000E+00; -4.6820918E-01;  4.0000000E+04;  0.0000000E+00;  4.0015914E+04; -3.0203339E-02;  0.0000000E+00;  4.6038409E-03;  2.3545317E+03;
  5.7202089E-01;  9.9999998E-03;  2.8998524E-01;5982; -1.2372299E-02;  0.0000000E+00;  3.8456721E-03;  9.9805176E+02;  1.0013096E-01; -1.6140778E+03;3; -7.0119208E-01;  0.0000000E+00; -1.0803109E+00;0; -2.6047055E-02;  3.9721516E+04;  0.0000000E+00; -5.6764501E-01;  4.0000000E+04;  0.0000000E+00;  4.0016613E+04; -2.9963121E-02;  0.0000000E+00;  3.9160671E-03;  2.4821382E+03;
  5.7206112E-01;  9.9999998E-03;  2.9998535E-01;5983; -1.2401704E-02;  0.0000000E+00;  3.8386090E-03;  9.9798914E+02;  1.0013086E-01; -1.6659775E+03;3; -6.2409717E-01;  0.0000000E+00; -1.1231115E+00;0; -2.6691584E-02;  3.9716602E+04;  0.0000000E+00; -7.5836498E-01;  4.0000000E+04;  0.0000000E+00;  4.0017137E+04; -2.9754514E-02;  0.0000000E+00;  3.0629307E-03;  2.6188315E+03;
  5.8209544E-01;  9.9999998E-03;  2.3999882E-01;6038; -1.2574553E-02;  0.0000000E+00;  3.7829152E-03;  9.9897296E+02;  1.0021478E-01; -8.5088953E+02;3; -1.0523540E+00;  0.0000000E+00; -9.6713555E-01;0; -2.5679961E-02;  3.9739602E+04;  0.0000000E+00; -1.5990901E-01;  4.0000000E+04;  0.0000000E+00;  4.0005312E+04; -3.1581029E-02;  0.0000000E+00;  5.9010684E-03;  9.5123102E+02;
  5.8215535E-01;  9.9999998E-03;  2.4999240E-01;6039; -1.2583476E-02;  0.0000000E+00;  3.8004494E-03;  9.9879871E+02;  1.0021477E-01; -9.9523114E+02;3; -9.6448731E-01;  0.0000000E+00; -9.9600118E-01;0; -2.5920197E-02;  3.9724348E+04;  0.0000000E+00; -2.8691217E-01;  4.0000000E+04;  0.0000000E+00;  4.0007270E+04; -3.1192148E-02;  0.0000000E+00;  5.2719503E-03;  1.2521378E+03;
  5.8218783E-01;  9.9999998E-03;  2.5998935E-01;6040; -1.2592645E-02;  0.0000000E+00;  3.8334960E-03;  9.9864496E+02;  1.0021447E-01; -1.1226349E+03;3; -8.7735510E-01;  0.0000000E+00; -1.0318210E+00;0; -2.6069561E-02;  3.9710008E+04;  0.0000000E+00; -4.6658471E-01;  4.0000000E+04;  0.0000000E+00;  4.0009273E+04; -3.0841136E-02;  0.0000000E+00;  4.7715753E-03;  1.6074906E+03;
  5.8219004E-01;  9.9999998E-03;  2.6998860E-01;6041; -1.2603791E-02;  0.0000000E+00;  3.8698227E-03;  9.9850433E+02;  1.0021449E-01; -1.2391255E+03;3; -7.9059017E-01;  0.0000000E+00; -1.0699470E+00;0; -2.6140913E-02;  3.9697465E+04;  0.0000000E+00; -6.6755456E-01;  4.0000000E+04;  0.0000000E+00;  4.0011062E+04; -3.0526636E-02;  0.0000000E+00;  4.3857233E-03;  1.9482185E+03;
  5.8217746E-01;  9.9999998E-03;  2.7998906E-01;6042; -1.2618757E-02;  0.0000000E+00;  3.8998267E-03;  9.9838708E+02;  1.0021434E-01; -1.3362585E+03;3; -7.0551926E-01;  0.0000000E+00; -1.1213020E+00;0; -2.6219636E-02;  3.9686926E+04;  0.0000000E+00; -8.5313016E-01;  4.0000000E+04;  0.0000000E+00;  4.0012680E+04; -3.0247137E-02;  0.0000000E+00;  4.0275003E-03;  2.2264893E+03;
  5.8218127E-01;  9.9999998E-03;  2.8999007E-01;6043; -1.2638171E-02;  0.0000000E+00;  3.9127418E-03;  9.9829980E+02;  1.0021405E-01; -1.4086022E+03;3; -6.2072897E-01;  0.0000000E+00; -1.1839479E+00;0; -2.6513003E-02;  3.9679379E+04;  0.0000000E+00; -1.0632626E+00;  4.0000000E+04;  0.0000000E+00;  4.0013188E+04; -3.0001590E-02;  0.0000000E+00;  3.4885867E-03;  2.4685649E+03;
  5.8219928E-01;  9.9999998E-03;  2.9999110E-01;6044; -1.2657729E-02;  0.0000000E+00;  3.9091473E-03;  9.9824713E+02;  1.0021381E-01; -1.4522058E+03;3; -5.3924328E-01;  0.0000000E+00; -1.2329130E+00;0; -2.7076695E-02;  3.9675422E+04;  0.0000000E+00; -1.3153797E+00;  4.0000000E+04;  0.0000000E+00;  4.0013508E+04; -2.9789500E-02;  0.0000000E+00;  2.7128044E-03;  2.7183254E+03;
  5.9220129E-01;  9.9999998E-03;  2.3999512E-01;6099; -1.2869430E-02;  0.0000000E+00;  3.8571213E-03;  9.9906714E+02;  1.0034949E-01; -7.7286700E+02;3; -9.9499500E-01;  0.0000000E+00; -1.0826403E+00;0; -2.5938423E-02;  3.9643406E+04;  0.0000000E+00; -1.7018044E-01;  4.0000000E+04;  0.0000000E+00;  4.0003051E+04; -3.1646252E-02;  0.0000000E+00;  5.7078279E-03;  7.9832965E+02;
  5.9226537E-01;  9.9999998E-03;  2.4999169E-01;6100; -1.2872621E-02;  0.0000000E+00;  3.8556268E-03;  9.9890393E+02;  1.0034920E-01; -9.0807306E+02;3; -9.0187365E-01;  0.0000000E+00; -1.1010973E+00;0; -2.6335374E-02;  3.9629750E+04;  0.0000000E+00; -3.1874430E-01;  4.0000000E+04;  0.0000000E+00;  4.0004535E+04; -3.1248514E-02;  0.0000000E+00;  4.9131401E-03;  1.0620016E+03;
  5.9230089E-01;  9.9999998E-03;  2.5999069E-01;6101; -1.2875858E-02;  0.0000000E+00;  3.8771068E-03;  9.9876666E+02;  1.0034929E-01; -1.0217983E+03;3; -8.0904168E-01;  0.0000000E+00; -1.1352329E+00;0; -2.6662145E-02;  3.9616785E+04;  0.0000000E+00; -5.4261267E-01;  4.0000000E+04;  0.0000000E+00;  4.0006715E+04; -3.0891050E-02;  0.0000000E+00;  4.2289048E-03;  1.4393215E+03;
  5.9230632E-01;  9.9999998E-03;  2.6999161E-01;6102; -1.2880120E-02;  0.0000000E+00;  3.9117248E-03;  9.9863770E+02;  1.0034879E-01; -1.1286594E+03;3; -7.1743280E-01;  0.0000000E+00; -1.1745058E+00;0; -2.6852921E-02;  3.9605355E+04;  0.0000000E+00; -8.1905383E-01;  4.0000000E+04;  0.0000000E+00;  4.0008488E+04; -3.0572157E-02;  0.0000000E+00;  3.7192367E-03;  1.8610188E+03;
  5.9229803E-01;  9.9999998E-03;  2.7999353E-01;6103; -1.2887152E-02;  0.0000000E+00;  3.9512627E-03;  9.9853375E+02;  1.0034849E-01; -1.2147805E+03;3; -6.2737113E-01;  0.0000000E+00; -1.2261505E+00;0; -2.6881292E-02;  3.9595945E+04;  0.0000000E+00; -1.1233150E+00;  4.0000000E+04;  0.0000000E+00;  4.0009867E+04; -3.0289903E-02;  0.0000000E+00;  3.4086099E-03;  2.2727307E+03;
  5.9229660E-01;  9.9999998E-03;  2.8999579E-01;6104; -1.2897404E-02;  0.0000000E+00;  3.9755735E-03;  9.9845581E+02;  1.0034816E-01; -1.2793219E+03;3; -5.3819579E-01;  0.0000000E+00; -1.2891066E+00;0; -2.7022326E-02;  3.9589406E+04;  0.0000000E+00; -1.4598237E+00;  4.0000000E+04;  0.0000000E+00;  4.0010504E+04; -3.0042697E-02;  0.0000000E+00;  3.0203708E-03;  2.6823840E+03;
  5.9230173E-01;  9.9999998E-03;  2.9999799E-01;6105; -1.2906437E-02;  0.0000000E+00;  3.9763711E-03;  9.9840863E+02;  1.0034749E-01; -1.3184319E+03;3; -4.5261684E-01;  0.0000000E+00; -1.3486776E+00;0; -2.7489362E-02;  3.9586074E+04;  0.0000000E+00; -1.8134269E+00;  4.0000000E+04;  0.0000000E+00;  4.0010852E+04; -2.9830035E-02;  0.0000000E+00;  2.3406718E-03;  3.0968000E+03;
  6.0221732E-01;  9.9999998E-03;  2.3998553E-01;6160; -1.3161811E-02;  0.0000000E+00;  3.9331061E-03;  9.9898718E+02;  1.0056426E-01; -8.3908740E+02;3; -9.3632740E-01;  0.0000000E+00; -1.2038434E+00;0; -2.6152821E-02;  3.9469934E+04;  0.0000000E+00; -1.3460262E-01;  4.0000000E+04;  0.0000000E+00;  4.0002840E+04; -3.1690560E-02;  0.0000000E+00;  5.5377386E-03;  9.1422339E+02;
  6.0228217E-01;  9.9999998E-03;  2.4998771E-01;6161; -1.3158901E-02;  0.0000000E+00;  3.9237980E-03;  9.9883514E+02;  1.0056369E-01; -9.6505914E+02;3; -8.3824575E-01;  0.0000000E+00; -1.2210648E+00;0; -2.6625739E-02;  3.9457234E+04;  0.0000000E+00; -2.5886720E-01;  4.0000000E+04;  0.0000000E+00;  4.0003727E+04; -3.1286601E-02;  0.0000000E+00;  4.6608611E-03;  1.1070552E+03;
  6.0231715E-01;  9.9999998E-03;  2.5999057E-01;6162; -1.3156300E-02;  0.0000000E+00;  3.9372514E-03;  9.9870612E+02;  1.0056348E-01; -1.0719697E+03;3; -7.3970556E-01;  0.0000000E+00; -1.2501845E+00;0; -2.7065720E-02;  3.9445816E+04;  0.0000000E+00; -4.5528629E-01;  4.0000000E+04;  0.0000000E+00;  4.0005605E+04; -3.0925469E-02;  0.0000000E+00;  3.8597488E-03;  1.4308773E+03;
  6.0232395E-01;  9.9999998E-03;  2.6999432E-01;6163; -1.3154225E-02;  0.0000000E+00;  3.9696852E-03;  9.9859045E+02;  1.0056274E-01; -1.1677694E+03;3; -6.4296573E-01;  0.0000000E+00; -1.2895676E+00;0; -2.7335165E-02;  3.9435629E+04;  0.0000000E+00; -7.0948416E-01;  4.0000000E+04;  0.0000000E+00;  4.0007352E+04; -3.0605104E-02;  0.0000000E+00;  3.2699385E-03;  1.8077008E+03;
  6.0231858E-01;  9.9999998E-03;  2.7999845E-01;6164; -1.3153182E-02;  0.0000000E+00;  4.0152487E-03;  9.9849805E+02;  1.0056198E-01; -1.2443599E+03;3; -5.4786068E-01;  0.0000000E+00; -1.3420606E+00;0; -2.7319666E-02;  3.9427621E+04;  0.0000000E+00; -1.0062883E+00;  4.0000000E+04;  0.0000000E+00;  4.0008801E+04; -3.0323172E-02;  0.0000000E+00;  3.0035065E-03;  2.1939172E+03;
  6.0231394E-01;  9.9999998E-03;  2.9000241E-01;6165; -1.3153145E-02;  0.0000000E+00;  4.0447232E-03;  9.9842291E+02;  1.0056148E-01; -1.3065803E+03;3; -4.5392621E-01;  0.0000000E+00; -1.4028345E+00;0; -2.7383510E-02;  3.9421785E+04;  0.0000000E+00; -1.3290211E+00;  4.0000000E+04;  0.0000000E+00;  4.0009012E+04; -3.0077262E-02;  0.0000000E+00;  2.6937528E-03;  2.5780532E+03;
  6.0231161E-01;  9.9999998E-03;  3.0000591E-01;6166; -1.3148212E-02;  0.0000000E+00;  4.0463055E-03;  9.9836768E+02;  1.0056042E-01; -1.3523568E+03;3; -3.6324126E-01;  0.0000000E+00; -1.4605739E+00;0; -2.7820086E-02;  3.9418102E+04;  0.0000000E+00; -1.6452478E+00;  4.0000000E+04;  0.0000000E+00;  4.0009766E+04; -2.9866768E-02;  0.0000000E+00;  2.0466822E-03;  2.9467031E+03;
  6.1217308E-01;  9.9999998E-03;  2.3997147E-01;6221; -1.3459385E-02;  0.0000000E+00;  4.0222076E-03;  9.9873309E+02;  1.0089970E-01; -1.0496000E+03;3; -8.7589449E-01;  0.0000000E+00; -1.3328427E+00;0; -2.6262833E-02;  3.9188570E+04;  0.0000000E+00; -5.7595544E-02;  4.0000000E+04;  0.0000000E+00;  4.0003930E+04; -3.1704012E-02;  0.0000000E+00;  5.4411800E-03;  1.3530597E+03;
  6.1223394E-01;  9.9999998E-03;  2.4998176E-01;6222; -1.3450255E-02;  0.0000000E+00;  4.0123742E-03;  9.9858575E+02;  1.0089895E-01; -1.1716705E+03;3; -7.7330625E-01;  0.0000000E+00; -1.3513381E+00;0; -2.6735550E-02;  3.9176848E+04;  0.0000000E+00; -1.2153523E-01;  4.0000000E+04;  0.0000000E+00;  4.0004625E+04; -3.1294681E-02;  0.0000000E+00;  4.5591309E-03;  1.4658864E+03;
  6.1226887E-01;  9.9999998E-03;  2.5999022E-01;6223; -1.3442486E-02;  0.0000000E+00;  4.0225731E-03;  9.9846484E+02;  1.0089819E-01; -1.2718652E+03;3; -6.7072409E-01;  0.0000000E+00; -1.3815292E+00;0; -2.7191840E-02;  3.9166562E+04;  0.0000000E+00; -2.4152140E-01;  4.0000000E+04;  0.0000000E+00;  4.0006121E+04; -3.0930916E-02;  0.0000000E+00;  3.7390757E-03;  1.6845410E+03;
  6.1227798E-01;  9.9999998E-03;  2.6999786E-01;6224; -1.3434987E-02;  0.0000000E+00;  4.0507051E-03;  9.9835632E+02;  1.0089751E-01; -1.3617393E+03;3; -5.6769496E-01;  0.0000000E+00; -1.4166054E+00;0; -2.7496779E-02;  3.9157441E+04;  0.0000000E+00; -4.0886644E-01;  4.0000000E+04;  0.0000000E+00;  4.0007566E+04; -3.0610094E-02;  0.0000000E+00;  3.1133143E-03;  1.9377887E+03;
  6.1227238E-01;  9.9999998E-03;  2.8000468E-01;6225; -1.3426749E-02;  0.0000000E+00;  4.0937015E-03;  9.9826166E+02;  1.0089610E-01; -1.4402062E+03;3; -4.6700117E-01;  0.0000000E+00; -1.4691429E+00;0; -2.7499162E-02;  3.9149980E+04;  0.0000000E+00; -6.0518283E-01;  4.0000000E+04;  0.0000000E+00;  4.0008848E+04; -3.0329423E-02;  0.0000000E+00;  2.8302614E-03;  2.1865371E+03;
  6.1226267E-01;  9.9999998E-03;  2.9001060E-01;6226; -1.3416893E-02;  0.0000000E+00;  4.1222055E-03;  9.9817896E+02;  1.0089499E-01; -1.5086981E+03;3; -3.6808467E-01;  0.0000000E+00; -1.5301797E+00;0; -2.7553342E-02;  3.9144531E+04;  0.0000000E+00; -8.0003756E-01;  4.0000000E+04;  0.0000000E+00;  4.0009535E+04; -3.0085640E-02;  0.0000000E+00;  2.5322982E-03;  2.3978950E+03;
  6.1225092E-01;  9.9999998E-03;  3.0001554E-01;6227; -1.3397989E-02;  0.0000000E+00;  4.1209194E-03;  9.9811029E+02;  1.0089329E-01; -1.5655853E+03;3; -2.7182266E-01;  0.0000000E+00; -1.5832654E+00;0; -2.8011043E-02;  3.9140277E+04;  0.0000000E+00; -9.3789071E-01;  4.0000000E+04;  0.0000000E+00;  4.0010203E+04; -2.9877340E-02;  0.0000000E+00;  1.8662969E-03;  2.5437239E+03;
  6.2208831E-01;  9.9999998E-03;  2.3995875E-01;6282; -1.3769797E-02;  0.0000000E+00;  4.1280412E-03;  9.9840765E+02;  1.0140960E-01; -1.3192219E+03;3; -8.1370503E-01;  0.0000000E+00; -1.4702086E+00;0; -2.6244298E-02;  3.8770773E+04;  0.0000000E+00;  4.3075092E-02;  4.0000000E+04;  0.0000000E+00;  4.0005531E+04; -3.1674996E-02;  0.0000000E+00;  5.4306984E-03;  1.9755343E+03;
  6.2214237E-01;  9.9999998E-03;  2.4997802E-01;6283; -1.3755001E-02;  0.0000000E+00;  4.1223816E-03;  9.9825360E+02;  1.0140868E-01; -1.4468727E+03;3; -7.0810443E-01;  0.0000000E+00; -1.4933760E+00;0; -2.6648767E-02;  3.8759477E+04;  0.0000000E+00;  4.9257193E-02;  4.0000000E+04;  0.0000000E+00;  4.0005703E+04; -3.1258784E-02;  0.0000000E+00;  4.6100174E-03;  2.0453162E+03;
  6.2217319E-01;  9.9999998E-03;  2.5999257E-01;6284; -1.3742640E-02;  0.0000000E+00;  4.1308356E-03;  9.9812756E+02;  1.0140751E-01; -1.5512648E+03;3; -5.9993130E-01;  0.0000000E+00; -1.5208013E+00;0; -2.7053431E-02;  3.8749418E+04;  0.0000000E+00;  1.8877190E-02;  4.0000000E+04;  0.0000000E+00;  4.0006832E+04; -3.0890970E-02;  0.0000000E+00;  3.8375384E-03;  2.2019609E+03;
  6.2218118E-01;  9.9999998E-03;  2.7000439E-01;6285; -1.3731034E-02;  0.0000000E+00;  4.1508670E-03;  9.9801294E+02;  1.0140579E-01; -1.6462251E+03;3; -4.9187925E-01;  0.0000000E+00; -1.5552599E+00;0; -2.7370935E-02;  3.8740684E+04;  0.0000000E+00; -4.6814639E-02;  4.0000000E+04;  0.0000000E+00;  4.0008059E+04; -3.0568367E-02;  0.0000000E+00;  3.1974311E-03;  2.3761567E+03;
  6.2217230E-01;  9.9999998E-03;  2.8001410E-01;6286; -1.3718478E-02;  0.0000000E+00;  4.1835811E-03;  9.9790924E+02;  1.0140418E-01; -1.7321486E+03;3; -3.8486671E-01;  0.0000000E+00; -1.6051335E+00;0; -2.7449932E-02;  3.8733242E+04;  0.0000000E+00; -1.2475347E-01;  4.0000000E+04;  0.0000000E+00;  4.0009348E+04; -3.0287197E-02;  0.0000000E+00;  2.8372640E-03;  2.5344932E+03;
  6.2215734E-01;  9.9999998E-03;  2.9002202E-01;6287; -1.3702803E-02;  0.0000000E+00;  4.2042374E-03;  9.9781238E+02;  1.0140157E-01; -1.8123932E+03;3; -2.8014836E-01;  0.0000000E+00; -1.6652341E+00;0; -2.7578402E-02;  3.8727176E+04;  0.0000000E+00; -1.7665975E-01;  4.0000000E+04;  0.0000000E+00;  4.0010164E+04; -3.0043436E-02;  0.0000000E+00;  2.4650346E-03;  2.6481626E+03;
  6.2213719E-01;  9.9999998E-03;  3.0002829E-01;6288; -1.3675915E-02;  0.0000000E+00;  4.1990215E-03;  9.9771674E+02;  1.0139902E-01; -1.8916501E+03;3; -1.7891173E-01;  0.0000000E+00; -1.7156764E+00;0; -2.8062569E-02;  3.8722082E+04;  0.0000000E+00; -1.3795727E-01;  4.0000000E+04;  0.0000000E+00;  4.0010781E+04; -2.9834108E-02;  0.0000000E+00;  1.7715390E-03;  2.7276887E+03;
  6.3195890E-01;  9.9999998E-03;  2.3995586E-01;6343; -1.4095902E-02;  0.0000000E+00;  4.2429185E-03;  9.9817108E+02;  1.0215342E-01; -1.5152163E+03;3; -7.4956000E-01;  0.0000000E+00; -1.6137580E+00;0; -2.6130104E-02;  3.8192176E+04;  0.0000000E+00;  1.3928355E-01;  4.0000000E+04;  0.0000000E+00;  4.0004172E+04; -3.1596396E-02;  0.0000000E+00;  5.4662912E-03;  2.4979817E+03;
  6.3200009E-01;  9.9999998E-03;  2.4998243E-01;6344; -1.4075903E-02;  0.0000000E+00;  4.2451294E-03;  9.9800513E+02;  1.0215217E-01; -1.6526938E+03;3; -6.4041054E-01;  0.0000000E+00; -1.6395363E+00;0; -2.6419517E-02;  3.8180121E+04;  0.0000000E+00;  1.9063002E-01;  4.0000000E+04;  0.0000000E+00;  4.0004539E+04; -3.1169331E-02;  0.0000000E+00;  4.7498150E-03;  2.5568054E+03;
  6.3202131E-01;  9.9999998E-03;  2.6000199E-01;6345; -1.4060020E-02;  0.0000000E+00;  4.2492324E-03;  9.9785876E+02;  1.0215039E-01; -1.7739744E+03;3; -5.2821696E-01;  0.0000000E+00; -1.6673536E+00;0; -2.6757820E-02;  3.8169691E+04;  0.0000000E+00;  2.0338146E-01;  4.0000000E+04;  0.0000000E+00;  4.0005281E+04; -3.0793628E-02;  0.0000000E+00;  4.0358081E-03;  2.6910312E+03;
  6.3202274E-01;  9.9999998E-03;  2.7001718E-01;6346; -1.4046378E-02;  0.0000000E+00;  4.2596790E-03;  9.9772498E+02;  1.0214785E-01; -1.8848354E+03;3; -4.1449156E-01;  0.0000000E+00; -1.7027248E+00;0; -2.7070852E-02;  3.8160301E+04;  0.0000000E+00;  1.7083667E-01;  4.0000000E+04;  0.0000000E+00;  4.0006852E+04; -3.0465391E-02;  0.0000000E+00;  3.3945385E-03;  2.8480276E+03;
  6.3200819E-01;  9.9999998E-03;  2.8002927E-01;6347; -1.4033109E-02;  0.0000000E+00;  4.2780121E-03;  9.9760364E+02;  1.0214505E-01; -1.9853264E+03;3; -3.0170032E-01;  0.0000000E+00; -1.7490137E+00;0; -2.7255047E-02;  3.8152633E+04;  0.0000000E+00;  1.1284391E-01;  4.0000000E+04;  0.0000000E+00;  4.0007906E+04; -3.0179977E-02;  0.0000000E+00;  2.9249301E-03;  2.9942046E+03;
  6.3198614E-01;  9.9999998E-03;  2.9003882E-01;6348; -1.4017772E-02;  0.0000000E+00;  4.2880732E-03;  9.9748059E+02;  1.0214166E-01; -2.0872988E+03;3; -1.9130409E-01;  0.0000000E+00; -1.8047993E+00;0; -2.7488425E-02;  3.8145293E+04;  0.0000000E+00;  8.5544311E-02;  4.0000000E+04;  0.0000000E+00;  4.0009078E+04; -2.9932162E-02;  0.0000000E+00;  2.4437364E-03;  3.1248655E+03;
  6.3195485E-01;  9.9999998E-03;  3.0004624E-01;6349; -1.3993341E-02;  0.0000000E+00;  4.2794812E-03;  9.9735266E+02;  1.0213718E-01; -2.1932712E+03;3; -8.3586037E-02;  0.0000000E+00; -1.8504544E+00;0; -2.7980957E-02;  3.8138953E+04;  0.0000000E+00;  1.7590252E-01;  4.0000000E+04;  0.0000000E+00;  4.0009887E+04; -2.9717296E-02;  0.0000000E+00;  1.7363386E-03;  3.2585217E+03;
  6.4180589E-01;  9.9999998E-03;  2.3997128E-01;6404; -1.4431761E-02;  0.0000000E+00;  4.3548304E-03;  9.9818896E+02;  1.0318413E-01; -1.5004019E+03;3; -6.8318582E-01;  0.0000000E+00; -1.7657300E+00;0; -2.5981605E-02;  3.7438148E+04;  0.0000000E+00;  1.7890351E-01;  4.0000000E+04;  0.0000000E+00;  3.9998406E+04; -3.1468961E-02;  0.0000000E+00;  5.4873559E-03;  2.6157920E+03;
  6.4182985E-01;  9.9999998E-03;  2.5000066E-01;6405; -1.4407420E-02;  0.0000000E+00;  4.3651457E-03;  9.9799890E+02;  1.0318229E-01; -1.6578789E+03;3; -5.7044905E-01;  0.0000000E+00; -1.7910455E+00;0; -2.6154017E-02;  3.7424898E+04;  0.0000000E+00;  1.9202201E-01;  4.0000000E+04;  0.0000000E+00;  3.9998926E+04; -3.1025039E-02;  0.0000000E+00;  4.8710224E-03;  2.6889412E+03;
  6.4183778E-01;  9.9999998E-03;  2.6002249E-01;6406; -1.4389251E-02;  0.0000000E+00;  4.3650195E-03;  9.9782642E+02;  1.0317974E-01; -1.8007885E+03;3; -4.5415756E-01;  0.0000000E+00; -1.8207822E+00;0; -2.6423529E-02;  3.7412688E+04;  0.0000000E+00;  1.0523713E-01;  4.0000000E+04;  0.0000000E+00;  3.9999676E+04; -3.0635858E-02;  0.0000000E+00;  4.2123287E-03;  2.8065354E+03;
  6.4182997E-01;  9.9999998E-03;  2.7003929E-01;6407; -1.4375429E-02;  0.0000000E+00;  4.3662293E-03;  9.9766339E+02;  1.0317664E-01; -1.9358463E+03;3; -3.3569437E-01;  0.0000000E+00; -1.8562661E+00;0; -2.6726713E-02;  3.7402504E+04;  0.0000000E+00; -1.0973822E-01;  4.0000000E+04;  0.0000000E+00;  4.0000953E+04; -3.0296687E-02;  0.0000000E+00;  3.5699743E-03;  2.9812183E+03;
  6.4181054E-01;  9.9999998E-03;  2.8005257E-01;6408; -1.4364034E-02;  0.0000000E+00;  4.3715965E-03;  9.9751123E+02;  1.0317304E-01; -2.0619167E+03;3; -2.1703397E-01;  0.0000000E+00; -1.8980899E+00;0; -2.6994063E-02;  3.7393238E+04;  0.0000000E+00; -4.3201122E-01;  4.0000000E+04;  0.0000000E+00;  4.0002449E+04; -3.0002076E-02;  0.0000000E+00;  3.0080141E-03;  3.2208896E+03;
  6.4178455E-01;  9.9999998E-03;  2.9006311E-01;6409; -1.4353593E-02;  0.0000000E+00;  4.3701306E-03;  9.9735602E+02;  1.0316797E-01; -2.1905059E+03;3; -9.9747427E-02;  0.0000000E+00; -1.9460270E+00;0; -2.7343882E-02;  3.7385031E+04;  0.0000000E+00; -7.6879728E-01;  4.0000000E+04;  0.0000000E+00;  4.0003684E+04; -2.9746147E-02;  0.0000000E+00;  2.4022639E-03;  3.5205510E+03;
  6.4174712E-01;  9.9999998E-03;  3.0007139E-01;6410; -1.4340194E-02;  0.0000000E+00;  4.3584099E-03;  9.9719794E+02;  1.0316148E-01; -2.3214651E+03;3;  1.3017218E-02;  0.0000000E+00; -1.9890213E+00;0; -2.7834717E-02;  3.7378066E+04;  0.0000000E+00; -9.7807956E-01;  4.0000000E+04;  0.0000000E+00;  4.0005008E+04; -2.9523108E-02;  0.0000000E+00;  1.6883914E-03;  3.7933860E+03;
  6.5160346E-01;  9.9999998E-03;  3.0010456E-01;6471; -1.4674737E-02;  0.0000000E+00;  4.4332701E-03;  9.9730182E+02;  1.0450038E-01; -2.2353933E+03;3;  1.1270907E-01;  0.0000000E+00; -2.1236486E+00;0; -2.7690368E-02;  3.6438902E+04;  0.0000000E+00; -4.0928473E+00;  4.0000000E+04;  0.0000000E+00;  3.9995328E+04; -2.9253233E-02;  0.0000000E+00;  1.5628661E-03;  7.1781650E+03;
  6.5162683E-01;  9.9999998E-03;  2.9009572E-01;6470; -1.4683035E-02;  0.0000000E+00;  4.4457996E-03;  9.9748169E+02;  1.0450910E-01; -2.0863606E+03;3; -7.2486880E-03;  0.0000000E+00; -2.0873542E+00;0; -2.7234366E-02;  3.6446000E+04;  0.0000000E+00; -3.1878037E+00;  4.0000000E+04;  0.0000000E+00;  3.9993430E+04; -2.9485991E-02;  0.0000000E+00;  2.2516248E-03;  5.8746631E+03;
  6.5164262E-01;  9.9999998E-03;  2.8008479E-01;6469; -1.4691815E-02;  0.0000000E+00;  4.4566211E-03;  9.9766406E+02;  1.0451502E-01; -1.9353031E+03;3; -1.3132666E-01;  0.0000000E+00; -2.0511029E+00;0; -2.6790015E-02;  3.6455367E+04;  0.0000000E+00; -2.1171162E+00;  4.0000000E+04;  0.0000000E+00;  3.9992211E+04; -2.9754251E-02;  0.0000000E+00;  2.9642356E-03;  4.4380171E+03;
  6.5165800E-01;  9.9999998E-03;  2.7007157E-01;6468; -1.4702582E-02;  0.0000000E+00;  4.4618682E-03;  9.9785394E+02;  1.0452000E-01; -1.7779742E+03;3; -2.5489715E-01;  0.0000000E+00; -2.0157692E+00;0; -2.6451936E-02;  3.6466371E+04;  0.0000000E+00; -1.1425455E+00;  4.0000000E+04;  0.0000000E+00;  3.9990207E+04; -3.0063592E-02;  0.0000000E+00;  3.6116561E-03;  3.2852163E+03;
  6.5167344E-01;  9.9999998E-03;  2.6005512E-01;6467; -1.4716662E-02;  0.0000000E+00;  4.4678310E-03;  9.9804425E+02;  1.0452373E-01; -1.6202997E+03;3; -3.7875083E-01;  0.0000000E+00; -1.9873269E+00;0; -2.6153211E-02;  3.6478750E+04;  0.0000000E+00; -4.3530154E-01;  4.0000000E+04;  0.0000000E+00;  3.9988988E+04; -3.0419949E-02;  0.0000000E+00;  4.2667380E-03;  2.6474622E+03;
  6.5168452E-01;  9.9999998E-03;  2.5003448E-01;6466; -1.4736670E-02;  0.0000000E+00;  4.4691586E-03;  9.9825305E+02;  1.0452656E-01; -1.4473170E+03;3; -4.9929094E-01;  0.0000000E+00; -1.9612674E+00;0; -2.5947092E-02;  3.6492344E+04;  0.0000000E+00; -3.5232164E-02;  4.0000000E+04;  0.0000000E+00;  3.9987777E+04; -3.0829389E-02;  0.0000000E+00;  4.8822961E-03;  2.3821763E+03;
  6.5168554E-01;  9.9999998E-03;  2.4000797E-01;6465; -1.4764625E-02;  0.0000000E+00;  4.4499892E-03;  9.9846960E+02;  1.0452793E-01; -1.2679147E+03;3; -6.1320817E-01;  0.0000000E+00; -1.9227567E+00;0; -2.5872868E-02;  3.6507273E+04;  0.0000000E+00;  1.1850002E-01;  4.0000000E+04;  0.0000000E+00;  3.9986770E+04; -3.1297557E-02;  0.0000000E+00;  5.4246886E-03;  2.2417451E+03;
  6.6167945E-01;  9.9999998E-03;  3.0014473E-01;6532; -1.4956708E-02;  0.0000000E+00;  4.4984147E-03;  9.9751648E+02;  1.0615198E-01; -2.0575713E+03;3;  2.1503223E-01;  0.0000000E+00; -2.2744029E+00;0; -2.7650744E-02;  3.5334117E+04;  0.0000000E+00; -8.3035784E+00;  4.0000000E+04;  0.0000000E+00;  3.9982266E+04; -2.8897209E-02;  0.0000000E+00;  1.2464648E-03;  1.3563883E+04;
  6.6175610E-01;  9.9999998E-03;  2.4006078E-01;6526; -1.5086722E-02;  0.0000000E+00;  4.5210584E-03;  9.9881299E+02;  1.0617972E-01; -9.8342889E+02;3; -5.3894383E-01;  0.0000000E+00; -2.0875196E+00;0; -2.5848590E-02;  3.5409535E+04;  0.0000000E+00; -4.3001473E-03;  4.0000000E+04;  0.0000000E+00;  3.9971508E+04; -3.1084014E-02;  0.0000000E+00;  5.2354243E-03;  1.6418368E+03;
  6.6165698E-01;  9.9999998E-03;  2.9013550E-01;6531; -1.4979670E-02;  0.0000000E+00;  4.5132451E-03;  9.9770795E+02;  1.0616223E-01; -1.8989091E+03;3;  8.7340638E-02;  0.0000000E+00; -2.2412868E+00;0; -2.7200369E-02;  3.5340492E+04;  0.0000000E+00; -6.6135025E+00;  4.0000000E+04;  0.0000000E+00;  3.9980547E+04; -2.9145988E-02;  0.0000000E+00;  1.9456187E-03;  1.0939636E+04;
  6.6173744E-01;  9.9999998E-03;  2.5008032E-01;6527; -1.5056270E-02;  0.0000000E+00;  4.5513399E-03;  9.9857312E+02;  1.0617909E-01; -1.1821393E+03;3; -4.2298946E-01;  0.0000000E+00; -2.1279206E+00;0; -2.5856810E-02;  3.5392617E+04;  0.0000000E+00; -4.1107354E-01;  4.0000000E+04;  0.0000000E+00;  3.9973578E+04; -3.0582579E-02;  0.0000000E+00;  4.7257696E-03;  2.0501016E+03;
  6.6164941E-01;  9.9999998E-03;  2.7011222E-01;6529; -1.5015488E-02;  0.0000000E+00;  4.5434637E-03;  9.9813129E+02;  1.0617333E-01; -1.5482030E+03;3; -1.7198066E-01;  0.0000000E+00; -2.1772406E+00;0; -2.6300412E-02;  3.5363738E+04;  0.0000000E+00; -2.7276559E+00;  4.0000000E+04;  0.0000000E+00;  3.9976789E+04; -2.9764822E-02;  0.0000000E+00;  3.4644103E-03;  5.0220288E+03;
  6.6168720E-01;  9.9999998E-03;  2.6009765E-01;6528; -1.5033058E-02;  0.0000000E+00;  4.5534717E-03;  9.9835101E+02;  1.0617708E-01; -1.3661342E+03;3; -2.9934841E-01;  0.0000000E+00; -2.1520667E+00;0; -2.6004098E-02;  3.5377797E+04;  0.0000000E+00; -1.2896068E+00;  4.0000000E+04;  0.0000000E+00;  3.9975156E+04; -3.0145295E-02;  0.0000000E+00;  4.1411961E-03;  3.0224128E+03;
  6.6164511E-01;  9.9999998E-03;  2.8012469E-01;6530; -1.4998962E-02;  0.0000000E+00;  4.5301365E-03;  9.9791394E+02;  1.0616936E-01; -1.7282473E+03;3; -4.2854920E-02;  0.0000000E+00; -2.2086542E+00;0; -2.6702451E-02;  3.5350953E+04;  0.0000000E+00; -4.5974207E+00;  4.0000000E+04;  0.0000000E+00;  3.9978891E+04; -2.9433629E-02;  0.0000000E+00;  2.7311782E-03;  7.8356890E+03;
  6.7178065E-01;  9.9999998E-03;  2.4012069E-01;6587; -1.5389136E-02;  0.0000000E+00;  4.5736558E-03;  9.9901373E+02;  1.0811506E-01; -8.1711261E+02;3; -4.6274173E-01;  0.0000000E+00; -2.2544034E+00;0; -2.5880624E-02;  3.4171250E+04;  0.0000000E+00; -2.4548468E-01;  4.0000000E+04;  0.0000000E+00;  3.9955531E+04; -3.0838579E-02;  0.0000000E+00;  4.9579558E-03;  1.2715292E+03;
  6.7177176E-01;  9.9999998E-03;  2.5013250E-01;6588; -1.5357085E-02;  0.0000000E+00;  4.6132887E-03;  9.9876868E+02;  1.0811606E-01; -1.0201192E+03;3; -3.4463739E-01;  0.0000000E+00; -2.2968829E+00;0; -2.5865484E-02;  3.4153469E+04;  0.0000000E+00; -9.9146599E-01;  4.0000000E+04;  0.0000000E+00;  3.9958500E+04; -3.0295003E-02;  0.0000000E+00;  4.4295201E-03;  2.3709319E+03;
  6.7177308E-01;  9.9999998E-03;  2.6014555E-01;6589; -1.5332229E-02;  0.0000000E+00;  4.6234038E-03;  9.9851862E+02;  1.0811608E-01; -1.2273232E+03;3; -2.1730751E-01;  0.0000000E+00; -2.3231039E+00;0; -2.5959993E-02;  3.4135898E+04;  0.0000000E+00; -2.3638139E+00;  4.0000000E+04;  0.0000000E+00;  3.9960711E+04; -2.9819252E-02;  0.0000000E+00;  3.8592594E-03;  4.4692725E+03;
  6.7181039E-01;  9.9999998E-03;  2.7015811E-01;6590; -1.5310319E-02;  0.0000000E+00;  4.6123220E-03;  9.9827051E+02;  1.0811607E-01; -1.4328483E+03;3; -8.5553467E-02;  0.0000000E+00; -2.3496614E+00;0; -2.6260145E-02;  3.4118152E+04;  0.0000000E+00; -4.4107876E+00;  4.0000000E+04;  0.0000000E+00;  3.9962805E+04; -2.9403327E-02;  0.0000000E+00;  3.1431830E-03;  7.7220010E+03;
  6.7187548E-01;  9.9999998E-03;  2.8016981E-01;6591; -1.5282832E-02;  0.0000000E+00;  4.5933998E-03;  9.9803522E+02;  1.0811489E-01; -1.6278057E+03;3;  4.8499726E-02;  0.0000000E+00; -2.3802917E+00;0; -2.6719511E-02;  3.4102352E+04;  0.0000000E+00; -6.9644108E+00;  4.0000000E+04;  0.0000000E+00;  3.9964723E+04; -2.9039644E-02;  0.0000000E+00;  2.3201336E-03;  1.1824295E+04;
  6.7196119E-01;  9.9999998E-03;  2.9018056E-01;6592; -1.5244374E-02;  0.0000000E+00;  4.5723943E-03;  9.9781787E+02;  1.0810889E-01; -1.8078500E+03;3;  1.8542309E-01;  0.0000000E+00; -2.4114091E+00;0; -2.7254652E-02;  3.4091312E+04;  0.0000000E+00; -9.5596647E+00;  4.0000000E+04;  0.0000000E+00;  3.9966863E+04; -2.8722048E-02;  0.0000000E+00;  1.4673960E-03;  1.5989781E+04;
  6.7208737E-01;  9.9999998E-03;  3.0019027E-01;6593; -1.5197567E-02;  0.0000000E+00;  4.5557376E-03;  9.9762128E+02;  1.0809863E-01; -1.9707096E+03;3;  3.2044995E-01;  0.0000000E+00; -2.4462311E+00;0; -2.7693553E-02;  3.4084941E+04;  0.0000000E+00; -1.1377438E+01;  4.0000000E+04;  0.0000000E+00;  3.9968516E+04; -2.8445847E-02;  0.0000000E+00;  7.5229455E-04;  1.8877008E+04;
  6.8205661E-01;  9.9999998E-03;  2.4017963E-01;6648; -1.5687430E-02;  0.0000000E+00;  4.6265963E-03;  9.9892450E+02;  1.1032353E-01; -8.9103644E+02;3; -3.8212162E-01;  0.0000000E+00; -2.4330812E+00;0; -2.5895186E-02;  3.2817461E+04;  0.0000000E+00; -4.7275820E-01;  4.0000000E+04;  0.0000000E+00;  3.9940625E+04; -3.0562401E-02;  0.0000000E+00;  4.6672150E-03;  1.4874257E+03;
  6.8204045E-01;  9.9999998E-03;  2.5018615E-01;6649; -1.5652312E-02;  0.0000000E+00;  4.6685776E-03;  9.9869995E+02;  1.1033116E-01; -1.0770559E+03;3; -2.6177338E-01;  0.0000000E+00; -2.4742355E+00;0; -2.5902230E-02;  3.2797539E+04;  0.0000000E+00; -1.5354323E+00;  4.0000000E+04;  0.0000000E+00;  3.9944258E+04; -2.9968334E-02;  0.0000000E+00;  4.0661041E-03;  3.2734246E+03;
  6.8208897E-01;  9.9999998E-03;  2.6019642E-01;6650; -1.5622978E-02;  0.0000000E+00;  4.6836301E-03;  9.9845752E+02;  1.1034176E-01; -1.2779391E+03;3; -1.3191831E-01;  0.0000000E+00; -2.5066371E+00;0; -2.5984982E-02;  3.2774773E+04;  0.0000000E+00; -3.3086674E+00;  4.0000000E+04;  0.0000000E+00;  3.9946922E+04; -2.9445337E-02;  0.0000000E+00;  3.4603549E-03;  6.2296519E+03;
  6.8220526E-01;  9.9999998E-03;  2.7020773E-01;6651; -1.5592939E-02;  0.0000000E+00;  4.6752808E-03;  9.9820587E+02;  1.1035369E-01; -1.4863776E+03;3;  3.8474528E-03;  0.0000000E+00; -2.5367398E+00;0; -2.6265826E-02;  3.2750951E+04;  0.0000000E+00; -5.7633843E+00;  4.0000000E+04;  0.0000000E+00;  3.9949461E+04; -2.8985102E-02;  0.0000000E+00;  2.7192754E-03;  1.0345554E+04;
  6.8236709E-01;  9.9999998E-03;  2.8021926E-01;6652; -1.5552416E-02;  0.0000000E+00;  4.6539246E-03;  9.9796912E+02;  1.1036298E-01; -1.6825696E+03;3;  1.4385608E-01;  0.0000000E+00; -2.5666466E+00;0; -2.6751548E-02;  3.2729459E+04;  0.0000000E+00; -8.5768404E+00;  4.0000000E+04;  0.0000000E+00;  3.9951277E+04; -2.8579950E-02;  0.0000000E+00;  1.8284030E-03;  1.5053309E+04;
  6.8258411E-01;  9.9999998E-03;  2.9023051E-01;6653; -1.5500170E-02;  0.0000000E+00;  4.6274271E-03;  9.9775079E+02;  1.1036934E-01; -1.8634039E+03;3;  2.8715029E-01;  0.0000000E+00; -2.5993714E+00;0; -2.7352067E-02;  3.2711818E+04;  0.0000000E+00; -1.0925458E+01;  4.0000000E+04;  0.0000000E+00;  3.9953145E+04; -2.8223988E-02;  0.0000000E+00;  8.7192183E-04;  1.8939830E+04;
  6.8282753E-01;  9.9999998E-03;  3.0024126E-01;6654; -1.5441730E-02;  0.0000000E+00;  4.6112789E-03;  9.9757001E+02;  1.1036929E-01; -2.0132268E+03;3;  4.2932975E-01;  0.0000000E+00; -2.6350281E+00;0; -2.7741212E-02;  3.2701037E+04;  0.0000000E+00; -1.2100501E+01;  4.0000000E+04;  0.0000000E+00;  3.9954805E+04; -2.7915386E-02;  0.0000000E+00;  1.7417422E-04;  2.0803973E+04;
  6.9310004E-01;  9.9999998E-03;  2.4023847E-01;6709; -1.5997658E-02;  0.0000000E+00;  4.6966695E-03;  9.9864252E+02;  1.1291512E-01; -1.1246594E+03;3; -2.9465994E-01;  0.0000000E+00; -2.6315105E+00;0; -2.5828984E-02;  3.1322549E+04;  0.0000000E+00; -4.0554991E-01;  4.0000000E+04;  0.0000000E+00;  3.9926418E+04; -3.0245606E-02;  0.0000000E+00;  4.4166218E-03;  1.6811321E+03;
  6.9322819E-01;  9.9999998E-03;  2.5024259E-01;6710; -1.5962372E-02;  0.0000000E+00;  4.7305804E-03;  9.9842719E+02;  1.1294329E-01; -1.3030248E+03;3; -1.7042281E-01;  0.0000000E+00; -2.6793106E+00;0; -2.5907662E-02;  3.1292664E+04;  0.0000000E+00; -1.3535300E+00;  4.0000000E+04;  0.0000000E+00;  3.9929941E+04; -2.9585255E-02;  0.0000000E+00;  3.6775926E-03;  3.3658711E+03;
  6.9340634E-01;  9.9999998E-03;  2.6025221E-01;6711; -1.5929567E-02;  0.0000000E+00;  4.7498504E-03;  9.9822021E+02;  1.1297821E-01; -1.4745261E+03;3; -3.6414530E-02;  0.0000000E+00; -2.7149017E+00;0; -2.5987620E-02;  3.1259920E+04;  0.0000000E+00; -2.8509378E+00;  4.0000000E+04;  0.0000000E+00;  3.9932566E+04; -2.9001046E-02;  0.0000000E+00;  3.0134267E-03;  5.9694712E+03;
  6.9366878E-01;  9.9999998E-03;  2.7026415E-01;6712; -1.5895445E-02;  0.0000000E+00;  4.7484646E-03;  9.9801788E+02;  1.1302113E-01; -1.6421262E+03;3;  1.0372645E-01;  0.0000000E+00; -2.7515635E+00;0; -2.6202787E-02;  3.1223535E+04;  0.0000000E+00; -4.7350020E+00;  4.0000000E+04;  0.0000000E+00;  3.9934602E+04; -2.8484501E-02;  0.0000000E+00;  2.2817145E-03;  9.2727744E+03;
  6.9400138E-01;  9.9999998E-03;  2.8027707E-01;6713; -1.5856335E-02;  0.0000000E+00;  4.7233710E-03;  9.9782770E+02;  1.1306658E-01; -1.7997020E+03;3;  2.5033149E-01;  0.0000000E+00; -2.7831457E+00;0; -2.6728576E-02;  3.1187193E+04;  0.0000000E+00; -6.5124021E+00;  4.0000000E+04;  0.0000000E+00;  3.9935824E+04; -2.8029190E-02;  0.0000000E+00;  1.3006144E-03;  1.2392700E+04;
  6.9434375E-01;  9.9999998E-03;  2.9029003E-01;6714; -1.5813574E-02;  0.0000000E+00;  4.6960511E-03;  9.9766718E+02;  1.1310297E-01; -1.9326859E+03;3;  3.9940476E-01;  0.0000000E+00; -2.8171551E+00;0; -2.7311750E-02;  3.1158406E+04;  0.0000000E+00; -7.6163878E+00;  4.0000000E+04;  0.0000000E+00;  3.9937156E+04; -2.7633160E-02;  0.0000000E+00;  3.2141013E-04;  1.4294821E+04;
  6.9465578E-01;  9.9999998E-03;  3.0030271E-01;6715; -1.5775947E-02;  0.0000000E+00;  4.6851509E-03;  9.9755585E+02;  1.1312354E-01; -2.0249302E+03;3;  5.4783374E-01;  0.0000000E+00; -2.8526223E+00;0; -2.7554132E-02;  3.1141811E+04;  0.0000000E+00; -7.6689076E+00;  4.0000000E+04;  0.0000000E+00;  3.9938191E+04; -2.7295010E-02;  0.0000000E+00; -2.5912211E-04;  1.4295418E+04;
  7.0537400E-01;  9.9999998E-03;  2.4030785E-01;6770; -1.6324367E-02;  0.0000000E+00;  4.7939653E-03;  9.9855560E+02;  1.1607365E-01; -1.1966575E+03;3; -1.9653009E-01;  0.0000000E+00; -2.8766270E+00;0; -2.5633413E-02;  2.9657129E+04;  0.0000000E+00; -2.6478821E-02;  4.0000000E+04;  0.0000000E+00;  3.9907211E+04; -2.9869162E-02;  0.0000000E+00;  4.2357477E-03;  1.3818093E+03;
  7.0557517E-01;  9.9999998E-03;  2.5031176E-01;6771; -1.6281910E-02;  0.0000000E+00;  4.8073465E-03;  9.9840833E+02;  1.1612593E-01; -1.3186787E+03;3; -6.7938663E-02;  0.0000000E+00; -2.9162903E+00;0; -2.5832003E-02;  2.9621311E+04;  0.0000000E+00; -7.4521446E-01;  4.0000000E+04;  0.0000000E+00;  3.9910039E+04; -2.9132409E-02;  0.0000000E+00;  3.3004060E-03;  2.6670818E+03;
  7.0585454E-01;  9.9999998E-03;  2.6032171E-01;6772; -1.6241726E-02;  0.0000000E+00;  4.8192930E-03;  9.9828699E+02;  1.1619013E-01; -1.4192190E+03;3;  6.9658913E-02;  0.0000000E+00; -2.9558289E+00;0; -2.5998931E-02;  2.9580959E+04;  0.0000000E+00; -1.8253680E+00;  4.0000000E+04;  0.0000000E+00;  3.9911938E+04; -2.8477438E-02;  0.0000000E+00;  2.4785062E-03;  4.6496313E+03;
  7.0619935E-01;  9.9999998E-03;  2.7033469E-01;6773; -1.6200695E-02;  0.0000000E+00;  4.8131398E-03;  9.9818085E+02;  1.1626185E-01; -1.5071178E+03;3;  2.1461867E-01;  0.0000000E+00; -2.9909480E+00;0; -2.6298931E-02;  2.9538629E+04;  0.0000000E+00; -3.1470399E+00;  4.0000000E+04;  0.0000000E+00;  3.9913074E+04; -2.7898397E-02;  0.0000000E+00;  1.5994656E-03;  7.1193447E+03;
  7.0653397E-01;  9.9999998E-03;  2.8034881E-01;6774; -1.6155107E-02;  0.0000000E+00;  4.7885422E-03;  9.9809253E+02;  1.1632186E-01; -1.5803009E+03;3;  3.6446998E-01;  0.0000000E+00; -3.0221434E+00;0; -2.6826875E-02;  2.9504086E+04;  0.0000000E+00; -4.4458580E+00;  4.0000000E+04;  0.0000000E+00;  3.9913438E+04; -2.7392352E-02;  0.0000000E+00;  5.6547689E-04;  9.5498945E+03;
  7.0683420E-01;  9.9999998E-03;  2.9036310E-01;6775; -1.6107328E-02;  0.0000000E+00;  4.7680954E-03;  9.9802020E+02;  1.1636340E-01; -1.6402004E+03;3;  5.1859206E-01;  0.0000000E+00; -3.0506690E+00;0; -2.7267223E-02;  2.9480396E+04;  0.0000000E+00; -5.2907109E+00;  4.0000000E+04;  0.0000000E+00;  3.9913879E+04; -2.6955102E-02;  0.0000000E+00; -3.1212109E-04;  1.1103757E+04;
  7.0708513E-01;  9.9999998E-03;  3.0037716E-01;6776; -1.6064636E-02;  0.0000000E+00;  4.7607026E-03;  9.9796326E+02;  1.1638027E-01; -1.6874089E+03;3;  6.7018425E-01;  0.0000000E+00; -3.0862727E+00;0; -2.7366893E-02;  2.9469932E+04;  0.0000000E+00; -5.3026228E+00;  4.0000000E+04;  0.0000000E+00;  3.9914223E+04; -2.6582126E-02;  0.0000000E+00; -7.8476826E-04;  1.1053023E+04;
  7.1783006E-01;  9.9999998E-03;  2.4038430E-01;6831; -1.6649708E-02;  0.0000000E+00;  4.9005887E-03;  9.9874951E+02;  1.1959387E-01; -1.0360200E+03;3; -9.7528540E-02;  0.0000000E+00; -3.1414144E+00;0; -2.5350183E-02;  2.7971760E+04;  0.0000000E+00;  3.5985440E-02;  4.0000000E+04;  0.0000000E+00;  3.9884289E+04; -2.9453369E-02;  0.0000000E+00;  4.1031861E-03;  1.1095962E+03;
  7.1800077E-01;  9.9999998E-03;  2.5038832E-01;6832; -1.6594606E-02;  0.0000000E+00;  4.8835948E-03;  9.9864825E+02;  1.1964690E-01; -1.1199188E+03;3;  3.5026837E-02;  0.0000000E+00; -3.1648400E+00;0; -2.5724847E-02;  2.7940717E+04;  0.0000000E+00; -7.1766615E-01;  4.0000000E+04;  0.0000000E+00;  3.9886051E+04; -2.8642718E-02;  0.0000000E+00;  2.9178711E-03;  2.5688999E+03;
  7.1819317E-01;  9.9999998E-03;  2.6039788E-01;6833; -1.6540296E-02;  0.0000000E+00;  4.8728082E-03;  9.9858484E+02;  1.1970447E-01; -1.1724113E+03;3;  1.7793509E-01;  0.0000000E+00; -3.1860666E+00;0; -2.6129622E-02;  2.7909572E+04;  0.0000000E+00; -1.9274400E+00;  4.0000000E+04;  0.0000000E+00;  3.9887383E+04; -2.7924610E-02;  0.0000000E+00;  1.7949883E-03;  4.9655063E+03;
  7.1831501E-01;  9.9999998E-03;  2.7040979E-01;6834; -1.6481483E-02;  0.0000000E+00;  4.8606889E-03;  9.9852405E+02;  1.1973210E-01; -1.2227802E+03;3;  3.2355043E-01;  0.0000000E+00; -3.2141511E+00;0; -2.6562102E-02;  2.7893223E+04;  0.0000000E+00; -3.5748243E+00;  4.0000000E+04;  0.0000000E+00;  3.9888484E+04; -2.7297912E-02;  0.0000000E+00;  7.3580991E-04;  8.2167119E+03;
  7.1841699E-01;  9.9999998E-03;  2.8042316E-01;6835; -1.6416695E-02;  0.0000000E+00;  4.8436946E-03;  9.9846790E+02;  1.1974037E-01; -1.2692974E+03;3;  4.7564393E-01;  0.0000000E+00; -3.2397609E+00;0; -2.7018338E-02;  2.7886520E+04;  0.0000000E+00; -5.3287625E+00;  4.0000000E+04;  0.0000000E+00;  3.9889418E+04; -2.6753547E-02;  0.0000000E+00; -2.6479113E-04;  1.1635729E+04;
  7.1850115E-01;  9.9999998E-03;  2.9043713E-01;6836; -1.6348280E-02;  0.0000000E+00;  4.8312331E-03;  9.9839935E+02;  1.1973148E-01; -1.3260858E+03;3;  6.3050097E-01;  0.0000000E+00; -3.2691636E+00;0; -2.7294265E-02;  2.7887496E+04;  0.0000000E+00; -6.6847730E+00;  4.0000000E+04;  0.0000000E+00;  3.9890227E+04; -2.6284140E-02;  0.0000000E+00; -1.0101263E-03;  1.4223638E+04;
  7.1856493E-01;  9.9999998E-03;  3.0045128E-01;6837; -1.6279496E-02;  0.0000000E+00;  4.8264130E-03;  9.9831726E+02;  1.1970387E-01; -1.3941333E+03;3;  7.8413689E-01;  0.0000000E+00; -3.3031297E+00;0; -2.7263831E-02;  2.7896664E+04;  0.0000000E+00; -7.1712494E+00;  4.0000000E+04;  0.0000000E+00;  3.9891320E+04; -2.5881633E-02;  0.0000000E+00; -1.3821987E-03;  1.5057592E+04;
  7.2979498E-01;  9.9999998E-03;  2.4044529E-01;6892; -1.6978376E-02;  0.0000000E+00;  5.0263242E-03;  9.9871552E+02;  1.2325627E-01; -1.0641674E+03;3; -1.9467124E-03;  0.0000000E+00; -3.4061475E+00;0; -2.4892267E-02;  2.6351967E+04;  0.0000000E+00; -1.6726039E-01;  4.0000000E+04;  0.0000000E+00;  3.9864797E+04; -2.8998330E-02;  0.0000000E+00;  4.1060625E-03;  1.5558690E+03;
  7.2979736E-01;  9.9999998E-03;  2.5045362E-01;6893; -1.6906746E-02;  0.0000000E+00;  4.9859383E-03;  9.9858160E+02;  1.2325772E-01; -1.1751272E+03;3;  1.3336414E-01;  0.0000000E+00; -3.4176440E+00;0; -2.5360014E-02;  2.6343141E+04;  0.0000000E+00; -9.6336609E-01;  4.0000000E+04;  0.0000000E+00;  3.9866445E+04; -2.8126782E-02;  0.0000000E+00;  2.7667680E-03;  3.1379443E+03;
  7.2978961E-01;  9.9999998E-03;  2.6046482E-01;6894; -1.6837286E-02;  0.0000000E+00;  4.9558864E-03;  9.9849091E+02;  1.2325583E-01; -1.2502362E+03;3;  2.7819130E-01;  0.0000000E+00; -3.4309611E+00;0; -2.5903821E-02;  2.6337459E+04;  0.0000000E+00; -2.1525660E+00;  4.0000000E+04;  0.0000000E+00;  3.9868078E+04; -2.7358778E-02;  0.0000000E+00;  1.4549575E-03;  5.5590068E+03;
  7.2978181E-01;  9.9999998E-03;  2.7047792E-01;6895; -1.6767591E-02;  0.0000000E+00;  4.9361214E-03;  9.9841650E+02;  1.2324677E-01; -1.3119135E+03;3;  4.2661735E-01;  0.0000000E+00; -3.4522843E+00;0; -2.6418315E-02;  2.6336531E+04;  0.0000000E+00; -3.6588335E+00;  4.0000000E+04;  0.0000000E+00;  3.9869719E+04; -2.6687734E-02;  0.0000000E+00;  2.6941803E-04;  8.6207041E+03;
  7.2979254E-01;  9.9999998E-03;  2.8049240E-01;6896; -1.6697071E-02;  0.0000000E+00;  4.9193110E-03;  9.9833960E+02;  1.2323165E-01; -1.3756154E+03;3;  5.8085561E-01;  0.0000000E+00; -3.4756439E+00;0; -2.6855852E-02;  2.6338926E+04;  0.0000000E+00; -5.2135749E+00;  4.0000000E+04;  0.0000000E+00;  3.9871090E+04; -2.6104435E-02;  0.0000000E+00; -7.5141696E-04;  1.1751421E+04;
  7.2980100E-01;  9.9999998E-03;  2.9050758E-01;6897; -1.6627254E-02;  0.0000000E+00;  4.9085203E-03;  9.9825085E+02;  1.2320492E-01; -1.4491440E+03;3;  7.3930937E-01;  0.0000000E+00; -3.5006607E+00;0; -2.7055796E-02;  2.6345428E+04;  0.0000000E+00; -6.3651562E+00;  4.0000000E+04;  0.0000000E+00;  3.9872332E+04; -2.5600934E-02;  0.0000000E+00; -1.4548611E-03;  1.4035999E+04;
  7.2978824E-01;  9.9999998E-03;  3.0052286E-01;6898; -1.6559776E-02;  0.0000000E+00;  4.9049398E-03;  9.9812842E+02;  1.2316245E-01; -1.5505734E+03;3;  8.9606792E-01;  0.0000000E+00; -3.5310376E+00;0; -2.6925836E-02;  2.6357879E+04;  0.0000000E+00; -6.6779027E+00;  4.0000000E+04;  0.0000000E+00;  3.9873863E+04; -2.5168315E-02;  0.0000000E+00; -1.7575206E-03;  1.4614324E+04;
  7.4169743E-01;  9.9999998E-03;  2.4048609E-01;6953; -1.7322933E-02;  0.0000000E+00;  5.1743225E-03;  9.9822070E+02;  1.2709633E-01; -1.4741310E+03;3;  9.5197827E-02;  0.0000000E+00; -3.6790237E+00;0; -2.4211403E-02;  2.4773340E+04;  0.0000000E+00; -2.1546029E-01;  4.0000000E+04;  0.0000000E+00;  3.9850863E+04; -2.8452903E-02;  0.0000000E+00;  4.2414996E-03;  2.3043755E+03;
  7.4170482E-01;  9.9999998E-03;  2.5050685E-01;6954; -1.7239025E-02;  0.0000000E+00;  5.1194965E-03;  9.9804041E+02;  1.2709978E-01; -1.6235095E+03;3;  2.3210508E-01;  0.0000000E+00; -3.6873174E+00;0; -2.4688553E-02;  2.4761395E+04;  0.0000000E+00; -7.0000768E-01;  4.0000000E+04;  0.0000000E+00;  3.9852121E+04; -2.7520675E-02;  0.0000000E+00;  2.8321231E-03;  3.1158484E+03;
  7.4170786E-01;  9.9999998E-03;  2.6052529E-01;6955; -1.7161081E-02;  0.0000000E+00;  5.0744428E-03;  9.9789691E+02;  1.2709929E-01; -1.7423704E+03;3;  3.7904856E-01;  0.0000000E+00; -3.6980901E+00;0; -2.5287522E-02;  2.4752574E+04;  0.0000000E+00; -1.2569580E+00;  4.0000000E+04;  0.0000000E+00;  3.9854023E+04; -2.6698848E-02;  0.0000000E+00;  1.4113265E-03;  4.1908145E+03;
  7.4172866E-01;  9.9999998E-03;  2.7054307E-01;6956; -1.7088594E-02;  0.0000000E+00;  5.0422996E-03;  9.9776703E+02;  1.2709881E-01; -1.8499723E+03;3;  5.3234559E-01;  0.0000000E+00; -3.7121134E+00;0; -2.5885183E-02;  2.4745332E+04;  0.0000000E+00; -1.7466867E+00;  4.0000000E+04;  0.0000000E+00;  3.9855867E+04; -2.5979280E-02;  0.0000000E+00;  9.4096547E-05;  5.1863818E+03;
  7.4179274E-01;  9.9999998E-03;  2.8056115E-01;6957; -1.7022645E-02;  0.0000000E+00;  5.0197947E-03;  9.9764825E+02;  1.2710457E-01; -1.9483892E+03;3;  6.9158161E-01;  0.0000000E+00; -3.7298002E+00;0; -2.6351430E-02;  2.4736846E+04;  0.0000000E+00; -1.9684832E+00;  4.0000000E+04;  0.0000000E+00;  3.9857547E+04; -2.5351143E-02;  0.0000000E+00; -1.0002863E-03;  5.6711167E+03;
  7.4182594E-01;  9.9999998E-03;  2.9057920E-01;6958; -1.6964041E-02;  0.0000000E+00;  5.0050011E-03;  9.9751648E+02;  1.2709673E-01; -2.0575713E+03;3;  8.5370928E-01;  0.0000000E+00; -3.7533381E+00;0; -2.6553353E-02;  2.4733275E+04;  0.0000000E+00; -1.6472434E+00;  4.0000000E+04;  0.0000000E+00;  3.9859203E+04; -2.4809087E-02;  0.0000000E+00; -1.7442660E-03;  5.1887788E+03;
  7.4183100E-01;  9.9999998E-03;  3.0059710E-01;6959; -1.6912412E-02;  0.0000000E+00;  5.0021438E-03;  9.9736761E+02;  1.2707601E-01; -2.1808765E+03;3;  1.0153298E+00;  0.0000000E+00; -3.7802875E+00;0; -2.6336811E-02;  2.4734355E+04;  0.0000000E+00; -6.3936228E-01;  4.0000000E+04;  0.0000000E+00;  3.9861090E+04; -2.4342423E-02;  0.0000000E+00; -1.9943886E-03;  3.8466711E+03;
  7.5484377E-01;  9.9999998E-03;  2.4053168E-01;7014; -1.7704973E-02;  0.0000000E+00;  5.3331903E-03;  9.9770184E+02;  1.3146847E-01; -1.9039954E+03;3;  2.0325176E-01;  0.0000000E+00; -3.9872000E+00;0; -2.3303047E-02;  2.3143332E+04;  0.0000000E+00; -1.1647721E-01;  4.0000000E+04;  0.0000000E+00;  3.9835195E+04; -2.7697211E-02;  0.0000000E+00;  4.3941634E-03;  2.9878174E+03;
  7.5475091E-01;  9.9999998E-03;  2.5056422E-01;7015; -1.7603461E-02;  0.0000000E+00;  5.2760942E-03;  9.9744995E+02;  1.3144511E-01; -2.1126809E+03;3;  3.3866739E-01;  0.0000000E+00; -3.9968386E+00;0; -2.3730440E-02;  2.3137547E+04;  0.0000000E+00; -1.3758808E-01;  4.0000000E+04;  0.0000000E+00;  3.9836531E+04; -2.6716800E-02;  0.0000000E+00;  2.9863610E-03;  3.1552517E+03;
  7.5455844E-01;  9.9999998E-03;  2.6058957E-01;7016; -1.7510109E-02;  0.0000000E+00;  5.2144704E-03;  9.9721252E+02;  1.3139175E-01; -2.3093667E+03;3;  4.8598874E-01;  0.0000000E+00; -3.9970903E+00;0; -2.4391105E-02;  2.3142926E+04;  0.0000000E+00;  1.8722972E-01;  4.0000000E+04;  0.0000000E+00;  3.9839066E+04; -2.5861695E-02;  0.0000000E+00;  1.4705894E-03;  3.3345964E+03;
  7.5441724E-01;  9.9999998E-03;  2.7061182E-01;7017; -1.7426228E-02;  0.0000000E+00;  5.1639765E-03;  9.9699420E+02;  1.3134778E-01; -2.4902505E+03;3;  6.4053625E-01;  0.0000000E+00; -4.0027399E+00;0; -2.5122356E-02;  2.3146658E+04;  0.0000000E+00;  1.0555542E+00;  4.0000000E+04;  0.0000000E+00;  3.9841957E+04; -2.5113596E-02;  0.0000000E+00; -8.7607541E-06;  4.2734277E+03;
  7.5438553E-01;  9.9999998E-03;  2.8063321E-01;7018; -1.7351275E-02;  0.0000000E+00;  5.1280791E-03;  9.9680273E+02;  1.3132827E-01; -2.6488630E+03;3;  8.0318862E-01;  0.0000000E+00; -4.0130076E+00;0; -2.5721224E-02;  2.3143393E+04;  0.0000000E+00;  2.5525105E+00;  4.0000000E+04;  0.0000000E+00;  3.9844500E+04; -2.4457788E-02;  0.0000000E+00; -1.2634363E-03;  7.0062705E+03;
  7.5435811E-01;  9.9999998E-03;  2.9065394E-01;7019; -1.7277647E-02;  0.0000000E+00;  5.1057339E-03;  9.9661865E+02;  1.3130458E-01; -2.8014021E+03;3;  9.6973830E-01;  0.0000000E+00; -4.0248218E+00;0; -2.5997357E-02;  2.3142631E+04;  0.0000000E+00;  4.7810493E+00;  4.0000000E+04;  0.0000000E+00;  3.9846668E+04; -2.3891645E-02;  0.0000000E+00; -2.1057122E-03;  1.1736531E+04;
  7.5432533E-01;  9.9999998E-03;  3.0067417E-01;7020; -1.7191626E-02;  0.0000000E+00;  5.0983881E-03;  9.9644257E+02;  1.3127016E-01; -2.9472744E+03;3;  1.1347706E+00;  0.0000000E+00; -4.0474172E+00;0; -2.5801864E-02;  2.3146590E+04;  0.0000000E+00;  7.6956320E+00;  4.0000000E+04;  0.0000000E+00;  3.9849086E+04; -2.3407774E-02;  0.0000000E+00; -2.3940902E-03;  1.8116840E+04;
  7.6869440E-01;  9.9999998E-03;  2.4060985E-01;7075; -1.8092161E-02;  0.0000000E+00;  5.4857573E-03;  9.9780066E+02;  1.3629089E-01; -1.8221212E+03;3;  3.1706494E-01;  0.0000000E+00; -4.3234935E+00;0; -2.2200223E-02;  2.1551617E+04;  0.0000000E+00; -1.8187109E-01;  4.0000000E+04;  0.0000000E+00;  3.9809805E+04; -2.6691595E-02;  0.0000000E+00;  4.4913716E-03;  2.8857505E+03;
  7.6858628E-01;  9.9999998E-03;  2.5064543E-01;7076; -1.7972320E-02;  0.0000000E+00;  5.4370998E-03;  9.9751514E+02;  1.3625117E-01; -2.0586577E+03;3;  4.5033231E-01;  0.0000000E+00; -4.3296413E+00;0; -2.2564188E-02;  2.1548758E+04;  0.0000000E+00; -1.8027894E-02;  4.0000000E+04;  0.0000000E+00;  3.9812094E+04; -2.5672181E-02;  0.0000000E+00;  3.1079927E-03;  3.0317551E+03;
  7.6835322E-01;  9.9999998E-03;  2.6067299E-01;7077; -1.7864056E-02;  0.0000000E+00;  5.3624548E-03;  9.9719305E+02;  1.3617711E-01; -2.3255144E+03;3;  5.9552592E-01;  0.0000000E+00; -4.3315687E+00;0; -2.3299206E-02;  2.1556020E+04;  0.0000000E+00;  7.1765846E-01;  4.0000000E+04;  0.0000000E+00;  3.9815074E+04; -2.4789708E-02;  0.0000000E+00;  1.4905015E-03;  3.9617026E+03;
  7.6820672E-01;  9.9999998E-03;  2.7069750E-01;7078; -1.7765017E-02;  0.0000000E+00;  5.2927178E-03;  9.9690942E+02;  1.3612583E-01; -2.5604707E+03;3;  7.5146526E-01;  0.0000000E+00; -4.3321218E+00;0; -2.4227411E-02;  2.1557812E+04;  0.0000000E+00;  2.2572393E+00;  4.0000000E+04;  0.0000000E+00;  3.9818402E+04; -2.4018811E-02;  0.0000000E+00; -2.0859946E-04;  7.2941357E+03;
  7.6826930E-01;  9.9999998E-03;  2.8072172E-01;7079; -1.7668750E-02;  0.0000000E+00;  5.2404916E-03;  9.9669623E+02;  1.3612922E-01; -2.7371077E+03;3;  9.1786170E-01;  0.0000000E+00; -4.3353276E+00;0; -2.5068764E-02;  2.1545990E+04;  0.0000000E+00;  4.4676042E+00;  4.0000000E+04;  0.0000000E+00;  3.9820875E+04; -2.3339875E-02;  0.0000000E+00; -1.7288895E-03;  1.2787344E+04;
  7.6840103E-01;  9.9999998E-03;  2.9074553E-01;7080; -1.7553328E-02;  0.0000000E+00;  5.2083032E-03;  9.9651294E+02;  1.3613954E-01; -2.8889551E+03;3;  1.0890142E+00;  0.0000000E+00; -4.3446574E+00;0; -2.5532020E-02;  2.1534072E+04;  0.0000000E+00;  7.2803040E+00;  4.0000000E+04;  0.0000000E+00;  3.9823020E+04; -2.2759048E-02;  0.0000000E+00; -2.7729715E-03;  1.9879248E+04;
  7.6858437E-01;  9.9999998E-03;  3.0076930E-01;7081; -1.7382840E-02;  0.0000000E+00;  5.1983260E-03;  9.9638531E+02;  1.3613909E-01; -2.9946804E+03;3;  1.2577187E+00;  0.0000000E+00; -4.3676047E+00;0; -2.5410809E-02;  2.1528867E+04;  0.0000000E+00;  1.0419876E+01;  4.0000000E+04;  0.0000000E+00;  3.9824645E+04; -2.2279598E-02;  0.0000000E+00; -3.1312099E-03;  2.7647041E+04;
  7.8336239E-01;  9.9999998E-03;  2.4072786E-01;7136; -1.8468684E-02;  0.0000000E+00;  5.6341314E-03;  9.9867316E+02;  1.4168152E-01; -1.0992775E+03;3;  4.4268399E-01;  0.0000000E+00; -4.6803017E+00;0; -2.0875594E-02;  1.9985389E+04;  0.0000000E+00; -3.2283393E-01;  4.0000000E+04;  0.0000000E+00;  3.9773359E+04; -2.5378020E-02;  0.0000000E+00;  4.5024273E-03;  1.7603821E+03;
  7.8325289E-01;  9.9999998E-03;  2.5075561E-01;7137; -1.8326618E-02;  0.0000000E+00;  5.6021265E-03;  9.9838708E+02;  1.4163859E-01; -1.3362584E+03;3;  5.6444639E-01;  0.0000000E+00; -4.7000279E+00;0; -2.1178298E-02;  1.9982627E+04;  0.0000000E+00; -3.1228307E-01;  4.0000000E+04;  0.0000000E+00;  3.9776375E+04; -2.4332918E-02;  0.0000000E+00;  3.1546201E-03;  1.8852590E+03;
  7.8306931E-01;  9.9999998E-03;  2.6078027E-01;7138; -1.8204147E-02;  0.0000000E+00;  5.5192686E-03;  9.9805444E+02;  1.4157392E-01; -1.6118555E+03;3;  7.0657521E-01;  0.0000000E+00; -4.7011957E+00;0; -2.1997601E-02;  1.9985107E+04;  0.0000000E+00;  1.9281961E-01;  4.0000000E+04;  0.0000000E+00;  3.9779449E+04; -2.3430903E-02;  0.0000000E+00;  1.4333014E-03;  2.7234497E+03;
  7.8303516E-01;  9.9999998E-03;  2.7080423E-01;7139; -1.8092779E-02;  0.0000000E+00;  5.4287920E-03;  9.9776685E+02;  1.4155322E-01; -1.8501204E+03;3;  8.6381221E-01;  0.0000000E+00; -4.6961980E+00;0; -2.3191672E-02;  1.9977402E+04;  0.0000000E+00;  1.4188708E+00;  4.0000000E+04;  0.0000000E+00;  3.9782055E+04; -2.2643434E-02;  0.0000000E+00; -5.4823788E-04;  6.2746567E+03;
  7.8340060E-01;  9.9999998E-03;  2.8083071E-01;7140; -1.7983319E-02;  0.0000000E+00;  5.3596944E-03;  9.9762201E+02;  1.4165220E-01; -1.9701169E+03;3;  1.0334210E+00;  0.0000000E+00; -4.6989961E+00;0; -2.4347560E-02;  1.9942604E+04;  0.0000000E+00;  2.8477399E+00;  4.0000000E+04;  0.0000000E+00;  3.9783281E+04; -2.1938650E-02;  0.0000000E+00; -2.4089110E-03;  1.0996292E+04;
  7.8383243E-01;  9.9999998E-03;  2.9085761E-01;7141; -1.7842248E-02;  0.0000000E+00;  5.3248229E-03;  9.9751147E+02;  1.4175479E-01; -2.0617192E+03;3;  1.2077954E+00;  0.0000000E+00; -4.7034349E+00;0; -2.4949107E-02;  1.9908854E+04;  0.0000000E+00;  4.5361590E+00;  4.0000000E+04;  0.0000000E+00;  3.9784309E+04; -2.1350859E-02;  0.0000000E+00; -3.5982481E-03;  1.6577703E+04;
  7.8429914E-01;  9.9999998E-03;  3.0088526E-01;7142; -1.7626837E-02;  0.0000000E+00;  5.3274976E-03;  9.9744989E+02;  1.4184007E-01; -2.1127302E+03;3;  1.3774831E+00;  0.0000000E+00; -4.7286668E+00;0; -2.4676887E-02;  1.9882604E+04;  0.0000000E+00;  6.2710996E+00;  4.0000000E+04;  0.0000000E+00;  3.9784504E+04; -2.0893332E-02;  0.0000000E+00; -3.7835550E-03;  2.2147613E+04;
  7.9849714E-01;  9.9999998E-03;  2.4085860E-01;7197; -1.8800406E-02;  0.0000000E+00;  5.7658637E-03;  9.9955719E+02;  1.4757031E-01; -3.6685379E+02;3;  5.7983351E-01;  0.0000000E+00; -5.0358095E+00;0; -1.9370571E-02;  1.8455598E+04;  0.0000000E+00; -2.4455777E-01;  4.0000000E+04;  0.0000000E+00;  3.9734434E+04; -2.3715615E-02;  0.0000000E+00;  4.3450445E-03;  6.2780811E+02;
  7.9858649E-01;  9.9999998E-03;  2.5087681E-01;7198; -1.8630156E-02;  0.0000000E+00;  5.7639442E-03;  9.9932593E+02;  1.4758590E-01; -5.5845331E+02;3;  6.8066192E-01;  0.0000000E+00; -5.0997338E+00;0; -1.9584864E-02;  1.8439455E+04;  0.0000000E+00; -3.7326247E-01;  4.0000000E+04;  0.0000000E+00;  3.9737422E+04; -2.2617748E-02;  0.0000000E+00;  3.0328827E-03;  6.1987103E+02;
  7.9858810E-01;  9.9999998E-03;  2.6089782E-01;7199; -1.8493701E-02;  0.0000000E+00;  5.6712916E-03;  9.9904132E+02;  1.4757515E-01; -7.9424908E+02;3;  8.1784576E-01;  0.0000000E+00; -5.0997229E+00;0; -2.0561777E-02;  1.8429398E+04;  0.0000000E+00; -2.1320720E-01;  4.0000000E+04;  0.0000000E+00;  3.9739844E+04; -2.1676956E-02;  0.0000000E+00;  1.1151786E-03;  1.1997731E+03;
  7.9869729E-01;  9.9999998E-03;  2.7092019E-01;7200; -1.8370936E-02;  0.0000000E+00;  5.5611483E-03;  9.9877930E+02;  1.4760260E-01; -1.0113293E+03;3;  9.7422278E-01;  0.0000000E+00; -5.0839019E+00;0; -2.2082221E-02;  1.8411244E+04;  0.0000000E+00;  4.6184942E-01;  4.0000000E+04;  0.0000000E+00;  3.9741934E+04; -2.0865535E-02;  0.0000000E+00; -1.2166862E-03;  4.1822578E+03;
  7.9907346E-01;  9.9999998E-03;  2.8094548E-01;7201; -1.8243788E-02;  0.0000000E+00;  5.4848869E-03;  9.9859546E+02;  1.4771907E-01; -1.1636213E+03;3;  1.1409088E+00;  0.0000000E+00; -5.0758214E+00;0; -2.3454027E-02;  1.8374299E+04;  0.0000000E+00;  1.4990206E+00;  4.0000000E+04;  0.0000000E+00;  3.9743285E+04; -2.0157782E-02;  0.0000000E+00; -3.2962444E-03;  8.6454053E+03;
  7.9943550E-01;  9.9999998E-03;  2.9097208E-01;7202; -1.8074943E-02;  0.0000000E+00;  5.4550092E-03;  9.9840948E+02;  1.4780913E-01; -1.3176910E+03;3;  1.3108292E+00;  0.0000000E+00; -5.0735002E+00;0; -2.4046166E-02;  1.8344139E+04;  0.0000000E+00;  3.1451323E+00;  4.0000000E+04;  0.0000000E+00;  3.9745215E+04; -1.9590665E-02;  0.0000000E+00; -4.4555017E-03;  1.4955269E+04;
  7.9970109E-01;  9.9999998E-03;  3.0099928E-01;7203; -1.7793899E-02;  0.0000000E+00;  5.4751229E-03;  9.9821161E+02;  1.4782721E-01; -1.4816370E+03;3;  1.4775251E+00;  0.0000000E+00; -5.0829501E+00;0; -2.3480389E-02;  1.8333160E+04;  0.0000000E+00;  5.4596715E+00;  4.0000000E+04;  0.0000000E+00;  3.9747410E+04; -1.9194027E-02;  0.0000000E+00; -4.2863609E-03;  2.2815648E+04;
  8.1328154E-01;  9.9999998E-03;  2.4096009E-01;7258; -1.9056555E-02;  0.0000000E+00;  5.8825728E-03;  9.9951941E+02;  1.5356410E-01; -3.9816156E+02;3;  7.1017212E-01;  0.0000000E+00; -5.3986678E+00;0; -1.7651392E-02;  1.7040404E+04;  0.0000000E+00;  2.4866541E-01;  4.0000000E+04;  0.0000000E+00;  3.9704805E+04; -2.1701494E-02;  0.0000000E+00;  4.0501016E-03;  7.7177466E+02;
  8.1339413E-01;  9.9999998E-03;  2.5097370E-01;7259; -1.8855181E-02;  0.0000000E+00;  5.9009097E-03;  9.9929938E+02;  1.5358092E-01; -5.8042798E+02;3;  7.9576290E-01;  0.0000000E+00; -5.4582887E+00;0; -1.7885540E-02;  1.7025561E+04;  0.0000000E+00;  3.0215973E-01;  4.0000000E+04;  0.0000000E+00;  3.9708750E+04; -2.0527806E-02;  0.0000000E+00;  2.6422655E-03;  1.2316591E+03;
  8.1328899E-01;  9.9999998E-03;  2.6099271E-01;7260; -1.8695164E-02;  0.0000000E+00;  5.8182064E-03;  9.9901593E+02;  1.5351759E-01; -8.1528552E+02;3;  9.1684031E-01;  0.0000000E+00; -5.4739447E+00;0; -1.8899584E-02;  1.7027594E+04;  0.0000000E+00;  5.6765288E-01;  4.0000000E+04;  0.0000000E+00;  3.9712055E+04; -1.9552782E-02;  0.0000000E+00;  6.5319863E-04;  2.5665066E+03;
  8.1319749E-01;  9.9999998E-03;  2.7101409E-01;7261; -1.8553814E-02;  0.0000000E+00;  5.7044984E-03;  9.9874268E+02;  1.5345535E-01; -1.0416494E+03;3;  1.0634575E+00;  0.0000000E+00; -5.4469867E+00;0; -2.0547647E-02;  1.7030912E+04;  0.0000000E+00;  1.2434204E+00;  4.0000000E+04;  0.0000000E+00;  3.9714836E+04; -1.8733041E-02;  0.0000000E+00; -1.8146063E-03;  5.2965981E+03;
  8.1341207E-01;  9.9999998E-03;  2.8103939E-01;7262; -1.8411193E-02;  0.0000000E+00;  5.6295674E-03;  9.9853693E+02;  1.5350167E-01; -1.2121138E+03;3;  1.2233472E+00;  0.0000000E+00; -5.4301610E+00;0; -2.1935005E-02;  1.7012668E+04;  0.0000000E+00;  2.0959971E+00;  4.0000000E+04;  0.0000000E+00;  3.9716977E+04; -1.8007714E-02;  0.0000000E+00; -3.9272900E-03;  8.7262412E+03;
  8.1367004E-01;  9.9999998E-03;  2.9106691E-01;7263; -1.8239856E-02;  0.0000000E+00;  5.5997907E-03;  9.9831805E+02;  1.5355936E-01; -1.3934420E+03;3;  1.3880801E+00;  0.0000000E+00; -5.4129348E+00;0; -2.2492860E-02;  1.6991955E+04;  0.0000000E+00;  3.2343910E+00;  4.0000000E+04;  0.0000000E+00;  3.9719398E+04; -1.7411938E-02;  0.0000000E+00; -5.0809211E-03;  1.3067071E+04;
  8.1388187E-01;  9.9999998E-03;  3.0109569E-01;7264; -1.7976606E-02;  0.0000000E+00;  5.6325551E-03;  9.9803540E+02;  1.5358755E-01; -1.6276576E+03;3;  1.5566224E+00;  0.0000000E+00; -5.3951464E+00;0; -2.1615168E-02;  1.6977193E+04;  0.0000000E+00;  5.0104704E+00;  4.0000000E+04;  0.0000000E+00;  3.9722680E+04; -1.6965184E-02;  0.0000000E+00; -4.6499833E-03;  1.9175332E+04;
  8.2682908E-01;  9.9999998E-03;  2.7109191E-01;7322; -1.8736536E-02;  0.0000000E+00;  5.8984603E-03;  9.9792554E+02;  1.5924159E-01; -1.7186674E+03;3;  1.1398392E+00;  0.0000000E+00; -5.7791333E+00;0; -1.7946869E-02;  1.5796099E+04;  0.0000000E+00;  1.9341781E+00;  4.0000000E+04;  0.0000000E+00;  3.9698062E+04; -1.6013399E-02;  0.0000000E+00; -1.9334694E-03;  5.7199795E+03;
  8.2689530E-01;  9.9999998E-03;  2.6106662E-01;7321; -1.8882908E-02;  0.0000000E+00;  6.0033263E-03;  9.9822589E+02;  1.5929207E-01; -1.4698348E+03;3;  1.0052637E+00;  0.0000000E+00; -5.7996345E+00;0; -1.6474182E-02;  1.5795830E+04;  0.0000000E+00;  1.5395415E+00;  4.0000000E+04;  0.0000000E+00;  3.9694750E+04; -1.6938651E-02;  0.0000000E+00;  4.6446864E-04;  4.6313057E+03;
  8.2696998E-01;  9.9999998E-03;  2.8111967E-01;7323; -1.8596333E-02;  0.0000000E+00;  5.8055306E-03;  9.9761945E+02;  1.5926777E-01; -1.9722404E+03;3;  1.2940454E+00;  0.0000000E+00; -5.7512975E+00;0; -1.9453166E-02;  1.5781069E+04;  0.0000000E+00;  2.4190466E+00;  4.0000000E+04;  0.0000000E+00;  3.9701469E+04; -1.5194031E-02;  0.0000000E+00; -4.2591342E-03;  7.1118086E+03;
  8.2704967E-01;  9.9999998E-03;  2.5104421E-01;7320; -1.9059658E-02;  0.0000000E+00;  6.0545183E-03;  9.9852032E+02;  1.5937302E-01; -1.2258911E+03;3;  8.9090401E-01;  0.0000000E+00; -5.7974997E+00;0; -1.5697449E-02;  1.5790025E+04;  0.0000000E+00;  1.2039086E+00;  4.0000000E+04;  0.0000000E+00;  3.9690828E+04; -1.8018866E-02;  0.0000000E+00;  2.3214165E-03;  3.6938984E+03;
  8.2720959E-01;  9.9999998E-03;  2.9114985E-01;7324; -1.8443711E-02;  0.0000000E+00;  5.7594734E-03;  9.9730499E+02;  1.5933093E-01; -2.2327761E+03;3;  1.4533749E+00;  0.0000000E+00; -5.7183847E+00;0; -2.0124117E-02;  1.5759095E+04;  0.0000000E+00;  3.0715744E+00;  4.0000000E+04;  0.0000000E+00;  3.9704902E+04; -1.4482923E-02;  0.0000000E+00; -5.6411936E-03;  9.0346094E+03;
  8.2710862E-01;  9.9999998E-03;  2.4102707E-01;7319; -1.9280620E-02;  0.0000000E+00;  6.0414956E-03;  9.9876807E+02;  1.5942089E-01; -1.0206130E+03;3;  8.1910890E-01;  0.0000000E+00; -5.7381830E+00;0; -1.5391687E-02;  1.5790674E+04;  0.0000000E+00;  8.9106828E-01;  4.0000000E+04;  0.0000000E+00;  3.9685223E+04; -1.9307770E-02;  0.0000000E+00;  3.9160829E-03;  2.7972273E+03;
  8.2746047E-01;  9.9999998E-03;  3.0118150E-01;7325; -1.8243803E-02;  0.0000000E+00;  5.7833358E-03;  9.9694940E+02;  1.5939479E-01; -2.5273850E+03;3;  1.6218634E+00;  0.0000000E+00; -5.6810288E+00;0; -1.9207273E-02;  1.5736869E+04;  0.0000000E+00;  4.0766277E+00;  4.0000000E+04;  0.0000000E+00;  3.9708617E+04; -1.3883311E-02;  0.0000000E+00; -5.3239604E-03;  1.2047880E+04;
  8.4272206E-01;  9.9999998E-03;  2.8121224E-01;7384; -1.8914478E-02;  0.0000000E+00;  6.0231290E-03;  9.9672644E+02;  1.6597487E-01; -2.7120713E+03;3;  1.3576335E+00;  0.0000000E+00; -6.1042118E+00;0; -1.5592312E-02;  1.4523842E+04;  0.0000000E+00;  1.8961031E+00;  4.0000000E+04;  0.0000000E+00;  3.9682816E+04; -1.0700476E-02;  0.0000000E+00; -4.8918352E-03;  4.3871211E+03;
  8.4301335E-01;  9.9999998E-03;  2.9124588E-01;7385; -1.8777022E-02;  0.0000000E+00;  5.9450222E-03;  9.9632800E+02;  1.6607612E-01; -3.0421853E+03;3;  1.5113854E+00;  0.0000000E+00; -6.0561161E+00;0; -1.6508164E-02;  1.4496193E+04;  0.0000000E+00;  1.6050611E+00;  4.0000000E+04;  0.0000000E+00;  3.9686945E+04; -9.7127017E-03;  0.0000000E+00; -6.7954622E-03;  4.7394360E+03;
  8.4320742E-01;  9.9999998E-03;  3.0127999E-01;7386; -1.8610742E-02;  0.0000000E+00;  5.9423549E-03;  9.9589404E+02;  1.6614172E-01; -3.4017307E+03;3;  1.6660185E+00;  0.0000000E+00; -5.9972210E+00;0; -1.5743861E-02;  1.4475270E+04;  0.0000000E+00;  1.5413401E+00;  4.0000000E+04;  0.0000000E+00;  3.9691812E+04; -8.8618966E-03;  0.0000000E+00; -6.8819639E-03;  5.7526104E+03;
  8.4246433E-01;  9.9999998E-03;  2.7117997E-01;7383; -1.9036636E-02;  0.0000000E+00;  6.1510173E-03;  9.9710425E+02;  1.6589250E-01; -2.3990925E+03;3;  1.2197474E+00;  0.0000000E+00; -6.1391301E+00;0; -1.3874253E-02;  1.4548790E+04;  0.0000000E+00;  2.1327512E+00;  4.0000000E+04;  0.0000000E+00;  3.9679164E+04; -1.1801778E-02;  0.0000000E+00; -2.0724749E-03;  5.2391484E+03;
  8.4249938E-01;  9.9999998E-03;  2.6115030E-01;7382; -1.9172687E-02;  0.0000000E+00;  6.2604700E-03;  9.9747040E+02;  1.6592358E-01; -2.0957429E+03;3;  1.0945655E+00;  0.0000000E+00; -6.1546783E+00;0; -1.2582301E-02;  1.4553127E+04;  0.0000000E+00;  2.1001670E+00;  4.0000000E+04;  0.0000000E+00;  3.9675223E+04; -1.2972538E-02;  0.0000000E+00;  3.9023726E-04;  5.9023945E+03;
  8.4258229E-01;  9.9999998E-03;  2.5112253E-01;7381; -1.9346137E-02;  0.0000000E+00;  6.2966361E-03;  9.9780750E+02;  1.6597597E-01; -1.8164423E+03;3;  1.0008076E+00;  0.0000000E+00; -6.1499615E+00;0; -1.2097389E-02;  1.4553891E+04;  0.0000000E+00;  1.7379010E+00;  4.0000000E+04;  0.0000000E+00;  3.9670039E+04; -1.4324418E-02;  0.0000000E+00;  2.2270291E-03;  5.5175420E+03;
  8.4251332E-01;  9.9999998E-03;  2.4109641E-01;7380; -1.9571140E-02;  0.0000000E+00;  6.2976182E-03;  9.9811371E+02;  1.6597672E-01; -1.5627705E+03;3;  9.4554150E-01;  0.0000000E+00; -6.0872030E+00;0; -1.1885989E-02;  1.4563239E+04;  0.0000000E+00;  1.2007567E+00;  4.0000000E+04;  0.0000000E+00;  3.9664695E+04; -1.5929276E-02;  0.0000000E+00;  4.0432871E-03;  4.3936328E+03;
  8.5887158E-01;  9.9999998E-03;  2.4119231E-01;7441; -1.9882264E-02;  0.0000000E+00;  6.6047437E-03;  9.9812292E+02;  1.7342511E-01; -1.5551165E+03;3;  1.0627203E+00;  0.0000000E+00; -6.4532962E+00;0; -7.2033098E-03;  1.3364045E+04;  0.0000000E+00;  6.1180502E-01;  4.0000000E+04;  0.0000000E+00;  3.9634910E+04; -1.1511491E-02;  0.0000000E+00;  4.3081809E-03;  3.3563362E+03;
  8.5880649E-01;  9.9999998E-03;  2.5122339E-01;7442; -1.9668994E-02;  0.0000000E+00;  6.5595014E-03;  9.9775275E+02;  1.7338765E-01; -1.8618237E+03;3;  1.0951517E+00;  0.0000000E+00; -6.4903870E+00;0; -7.4469065E-03;  1.3361332E+04;  0.0000000E+00;  1.2155888E+00;  4.0000000E+04;  0.0000000E+00;  3.9640133E+04; -9.4934460E-03;  0.0000000E+00;  2.0465392E-03;  4.3221689E+03;
  8.5880458E-01;  9.9999998E-03;  2.6125425E-01;7443; -1.9505171E-02;  0.0000000E+00;  6.5185819E-03;  9.9734442E+02;  1.7338786E-01; -2.2000857E+03;3;  1.1762822E+00;  0.0000000E+00; -6.5004678E+00;0; -7.7441949E-03;  1.3352377E+04;  0.0000000E+00;  1.4764426E+00;  4.0000000E+04;  0.0000000E+00;  3.9645922E+04; -7.6873684E-03;  0.0000000E+00; -5.6826695E-05;  4.1710459E+03;
  8.5901767E-01;  9.9999998E-03;  2.7128768E-01;7444; -1.9392218E-02;  0.0000000E+00;  6.4015239E-03;  9.9689307E+02;  1.7348528E-01; -2.5740505E+03;3;  1.2843163E+00;  0.0000000E+00; -6.4934011E+00;0; -8.8448338E-03;  1.3327646E+04;  0.0000000E+00;  1.2389649E+00;  4.0000000E+04;  0.0000000E+00;  3.9650781E+04; -6.0132970E-03;  0.0000000E+00; -2.8315363E-03;  3.8914099E+03;
  8.5928273E-01;  9.9999998E-03;  2.8132269E-01;7445; -1.9282525E-02;  0.0000000E+00;  6.2426147E-03;  9.9643671E+02;  1.7360252E-01; -2.9521138E+03;3;  1.4068061E+00;  0.0000000E+00; -6.4386435E+00;0; -1.0698858E-02;  1.3299342E+04;  0.0000000E+00;  6.2275517E-01;  4.0000000E+04;  0.0000000E+00;  3.9655027E+04; -4.4770264E-03;  0.0000000E+00; -6.2218313E-03;  6.6801050E+03;
  8.5937119E-01;  9.9999998E-03;  2.9135782E-01;7446; -1.9118210E-02;  0.0000000E+00;  6.1397636E-03;  9.9598096E+02;  1.7363419E-01; -3.3296833E+03;3;  1.5532533E+00;  0.0000000E+00; -6.3723187E+00;0; -1.1678784E-02;  1.3284820E+04;  0.0000000E+00; -3.2503530E-01;  4.0000000E+04;  0.0000000E+00;  3.9660160E+04; -3.1261996E-03;  0.0000000E+00; -8.5525848E-03;  1.1690808E+04;
  8.5941494E-01;  9.9999998E-03;  3.0139351E-01;7447; -1.8885076E-02;  0.0000000E+00;  6.1226357E-03;  9.9549866E+02;  1.7362760E-01; -3.7292769E+03;3;  1.6857083E+00;  0.0000000E+00; -6.2981114E+00;0; -1.0711219E-02;  1.3276224E+04;  0.0000000E+00; -1.1635300E+00;  4.0000000E+04;  0.0000000E+00;  3.9665910E+04; -1.8831496E-03;  0.0000000E+00; -8.8280700E-03;  1.6107380E+04;
  8.7725806E-01;  9.9999998E-03;  2.4131365E-01;7502; -2.0109506E-02;  0.0000000E+00;  6.9858343E-03;  9.9855707E+02;  1.8215933E-01; -1.1954229E+03;3;  1.2087357E+00;  0.0000000E+00; -6.7873173E+00;0; -9.0931868E-04;  1.2152490E+04;  0.0000000E+00; -3.9731786E-01;  4.0000000E+04;  0.0000000E+00;  3.9594656E+04; -5.7739317E-03;  0.0000000E+00;  4.8646131E-03;  9.6028693E+02;
  8.7711036E-01;  9.9999998E-03;  2.5134626E-01;7503; -1.9929027E-02;  0.0000000E+00;  6.8752132E-03;  9.9813043E+02;  1.8209061E-01; -1.5488944E+03;3;  1.2067083E+00;  0.0000000E+00; -6.8310008E+00;0; -1.1677451E-03;  1.2154846E+04;  0.0000000E+00;  1.3316983E-01;  4.0000000E+04;  0.0000000E+00;  3.9600234E+04; -3.0977332E-03;  0.0000000E+00;  1.9299882E-03;  1.7083933E+03;
  8.7737000E-01;  9.9999998E-03;  2.6137981E-01;7504; -1.9787278E-02;  0.0000000E+00;  6.8016881E-03;  9.9766168E+02;  1.8223831E-01; -1.9372290E+03;3;  1.2548774E+00;  0.0000000E+00; -6.8490386E+00;0; -1.3668232E-03;  1.2127819E+04;  0.0000000E+00;  3.5322198E-01;  4.0000000E+04;  0.0000000E+00;  3.9606742E+04; -5.0344196E-04;  0.0000000E+00; -8.6338120E-04;  2.6872024E+03;
  8.7780201E-01;  9.9999998E-03;  2.7141613E-01;7505; -1.9690445E-02;  0.0000000E+00;  6.6783428E-03;  9.9717548E+02;  1.8247744E-01; -2.3400818E+03;3;  1.3434005E+00;  0.0000000E+00; -6.8221512E+00;0; -2.2077588E-03;  1.2087885E+04;  0.0000000E+00;  3.0437806E-01;  4.0000000E+04;  0.0000000E+00;  3.9611918E+04;  1.9597467E-03;  0.0000000E+00; -4.1675055E-03;  4.9692148E+03;
  8.7791914E-01;  9.9999998E-03;  2.8145272E-01;7506; -1.9591352E-02;  0.0000000E+00;  6.4971629E-03;  9.9671118E+02;  1.8255147E-01; -2.7247129E+03;3;  1.4418570E+00;  0.0000000E+00; -6.7538624E+00;0; -4.0425598E-03;  1.2069536E+04;  0.0000000E+00; -1.3708737E-01;  4.0000000E+04;  0.0000000E+00;  3.9616816E+04;  4.1147643E-03;  0.0000000E+00; -8.1573240E-03;  9.1880752E+03;
  8.7784141E-01;  9.9999998E-03;  2.9148951E-01;7507; -1.9407304E-02;  0.0000000E+00;  6.3776248E-03;  9.9623260E+02;  1.8250178E-01; -3.1211956E+03;3;  1.5724351E+00;  0.0000000E+00; -6.6758661E+00;0; -4.8530647E-03;  1.2067174E+04;  0.0000000E+00; -1.0115812E+00;  4.0000000E+04;  0.0000000E+00;  3.9622746E+04;  6.0573430E-03;  0.0000000E+00; -1.0910408E-02;  1.4864488E+04;
  8.7770963E-01;  9.9999998E-03;  3.0152690E-01;7508; -1.9128313E-02;  0.0000000E+00;  6.3517815E-03;  9.9571393E+02;  1.8238860E-01; -3.5509116E+03;3;  1.6836258E+00;  0.0000000E+00; -6.5791755E+00;0; -3.4570666E-03;  1.2072584E+04;  0.0000000E+00; -1.9292949E+00;  4.0000000E+04;  0.0000000E+00;  3.9629598E+04;  7.8739673E-03;  0.0000000E+00; -1.1331034E-02;  1.9715113E+04;
  8.9572513E-01;  9.9999998E-03;  2.4143629E-01;7563; -2.0088635E-02;  0.0000000E+00;  7.4902494E-03;  9.9921887E+02;  1.9141826E-01; -6.4714209E+02;3;  1.4359584E+00;  0.0000000E+00; -7.0118947E+00;0;  6.3164369E-03;  1.1043423E+04;  0.0000000E+00; -6.4197809E-01;  4.0000000E+04;  0.0000000E+00;  3.9551223E+04;  3.3559569E-05;  0.0000000E+00;  6.2828772E-03;  4.1039319E+02;
  8.9570773E-01;  9.9999998E-03;  2.5147355E-01;7564; -1.9935086E-02;  0.0000000E+00;  7.2946446E-03;  9.9881598E+02;  1.9143362E-01; -9.8095978E+02;3;  1.3569783E+00;  0.0000000E+00; -7.0589828E+00;0;  6.2550777E-03;  1.1038360E+04;  0.0000000E+00; -3.4116203E-01;  4.0000000E+04;  0.0000000E+00;  3.9555312E+04;  3.5926902E-03;  0.0000000E+00;  2.6623874E-03;  7.3814081E+02;
  8.9625621E-01;  9.9999998E-03;  2.6150972E-01;7565; -1.9810451E-02;  0.0000000E+00;  7.1551008E-03;  9.9833203E+02;  1.9173275E-01; -1.3818866E+03;3;  1.3680072E+00;  0.0000000E+00; -7.0724111E+00;0;  6.1147441E-03;  1.0998241E+04;  0.0000000E+00; -3.1824446E-01;  4.0000000E+04;  0.0000000E+00;  3.9561223E+04;  7.1355556E-03;  0.0000000E+00; -1.0208115E-03;  2.8964919E+03;
  8.9674973E-01;  9.9999998E-03;  2.7154705E-01;7566; -1.9700175E-02;  0.0000000E+00;  7.0258607E-03;  9.9785040E+02;  1.9199170E-01; -1.7808877E+03;3;  1.4356844E+00;  0.0000000E+00; -7.0633359E+00;0;  5.6994790E-03;  1.0961469E+04;  0.0000000E+00; -5.4935765E-01;  4.0000000E+04;  0.0000000E+00;  3.9567316E+04;  1.0481167E-02;  0.0000000E+00; -4.7816876E-03;  6.5133398E+03;
  8.9700979E-01;  9.9999998E-03;  2.8158650E-01;7567; -1.9591188E-02;  0.0000000E+00;  6.8383217E-03;  9.9737445E+02;  1.9212654E-01; -2.1751975E+03;3;  1.4870787E+00;  0.0000000E+00; -6.9844861E+00;0;  4.3192133E-03;  1.0938633E+04;  0.0000000E+00; -1.0950546E+00;  4.0000000E+04;  0.0000000E+00;  3.9572844E+04;  1.3547481E-02;  0.0000000E+00; -9.2282677E-03;  1.1691213E+04;
  8.9697087E-01;  9.9999998E-03;  2.9162687E-01;7568; -1.9353153E-02;  0.0000000E+00;  6.7099072E-03;  9.9690314E+02;  1.9208689E-01; -2.5657048E+03;3;  1.6183069E+00;  0.0000000E+00; -6.8816404E+00;0;  3.9705923E-03;  1.0935625E+04;  0.0000000E+00; -2.0425751E+00;  4.0000000E+04;  0.0000000E+00;  3.9578832E+04;  1.6342072E-02;  0.0000000E+00; -1.2371480E-02;  1.8287492E+04;
  8.9681613E-01;  9.9999998E-03;  3.0166817E-01;7569; -1.8824110E-02;  0.0000000E+00;  6.7212200E-03;  9.9641125E+02;  1.9194460E-01; -2.9731995E+03;3;  1.8111072E+00;  0.0000000E+00; -6.7776852E+00;0;  6.7911213E-03;  1.0943894E+04;  0.0000000E+00; -3.0785773E+00;  4.0000000E+04;  0.0000000E+00;  3.9585688E+04;  1.9026909E-02;  0.0000000E+00; -1.2235788E-02;  2.4210584E+04;
  9.1629410E-01;  9.9999998E-03;  2.4154234E-01;7624; -1.9782392E-02;  0.0000000E+00;  8.2544480E-03;  9.9909619E+02;  2.0196773E-01; -7.4876886E+02;3;  1.8783643E+00;  0.0000000E+00; -7.0427146E+00;0;  1.4275391E-02;  9.9313516E+03;  0.0000000E+00; -6.8639946E-01;  4.0000000E+04;  0.0000000E+00;  3.9514113E+04;  4.9382215E-03;  0.0000000E+00;  9.3371691E-03;  6.3809698E+02;
  9.1636491E-01;  9.9999998E-03;  2.5159028E-01;7625; -1.9566685E-02;  0.0000000E+00;  8.0153700E-03;  9.9867969E+02;  2.0204045E-01; -1.0938455E+03;3;  1.7713697E+00;  0.0000000E+00; -7.0924540E+00;0;  1.5154076E-02;  9.9218496E+03;  0.0000000E+00; -5.3810090E-01;  4.0000000E+04;  0.0000000E+00;  3.9517133E+04;  9.4155548E-03;  0.0000000E+00;  5.7385210E-03;  9.3395697E+02;
  9.1678947E-01;  9.9999998E-03;  2.6163298E-01;7626; -1.9413294E-02;  0.0000000E+00;  7.7590649E-03;  9.9820245E+02;  2.0229699E-01; -1.4892416E+03;3;  1.7434865E+00;  0.0000000E+00; -7.1043677E+00;0;  1.5130227E-02;  9.8918574E+03;  0.0000000E+00; -4.9846792E-01;  4.0000000E+04;  0.0000000E+00;  3.9522164E+04;  1.3764751E-02;  0.0000000E+00;  1.3654757E-03;  2.0857661E+03;
  9.1723144E-01;  9.9999998E-03;  2.7167431E-01;7627; -1.9259084E-02;  0.0000000E+00;  7.5737122E-03;  9.9770703E+02;  2.0254871E-01; -1.8996991E+03;3;  1.7085675E+00;  0.0000000E+00; -7.1098094E+00;0;  1.5037600E-02;  9.8604199E+03;  0.0000000E+00; -5.6871349E-01;  4.0000000E+04;  0.0000000E+00;  3.9528523E+04;  1.7931638E-02;  0.0000000E+00; -2.8940379E-03;  3.9002876E+03;
  9.1750401E-01;  9.9999998E-03;  2.8171775E-01;7628; -1.9111667E-02;  0.0000000E+00;  7.3647983E-03;  9.9720764E+02;  2.0270887E-01; -2.3134158E+03;3;  1.7622650E+00;  0.0000000E+00; -7.0610986E+00;0;  1.4213103E-02;  9.8374346E+03;  0.0000000E+00; -7.0459092E-01;  4.0000000E+04;  0.0000000E+00;  3.9535238E+04;  2.1838700E-02;  0.0000000E+00; -7.6255975E-03;  6.0570391E+03;
  9.1747594E-01;  9.9999998E-03;  2.9176283E-01;7629; -1.8882651E-02;  0.0000000E+00;  7.1876091E-03;  9.9672186E+02;  2.0270400E-01; -2.7158733E+03;3;  1.8890531E+00;  0.0000000E+00; -6.9511328E+00;0;  1.3796305E-02;  9.8308994E+03;  0.0000000E+00; -9.1259474E-01;  4.0000000E+04;  0.0000000E+00;  3.9541793E+04;  2.5419310E-02;  0.0000000E+00; -1.1623004E-02;  8.5282979E+03;
  9.1728032E-01;  9.9999998E-03;  3.0180949E-01;7630; -1.8364890E-02;  0.0000000E+00;  7.1552559E-03;  9.9625842E+02;  2.0259346E-01; -3.0998130E+03;3;  2.0814056E+00;  0.0000000E+00; -6.8159685E+00;0;  1.6354114E-02;  9.8351357E+03;  0.0000000E+00; -1.1655167E+00;  4.0000000E+04;  0.0000000E+00;  3.9548398E+04;  2.8719010E-02;  0.0000000E+00; -1.2364897E-02;  1.0987229E+04;
  9.3859071E-01;  9.9999998E-03;  2.4164318E-01;7685; -1.9101994E-02;  0.0000000E+00;  9.3525928E-03;  9.9856641E+02;  2.1391062E-01; -1.1877192E+03;3;  2.6680408E+00;  0.0000000E+00; -6.7720127E+00;0;  2.1015210E-02;  8.8521611E+03;  0.0000000E+00; -3.8511044E-01;  4.0000000E+04;  0.0000000E+00;  3.9479879E+04;  6.6332854E-03;  0.0000000E+00;  1.4381925E-02;  9.0904028E+02;
  9.3843609E-01;  9.9999998E-03;  2.5169921E-01;7686; -1.8628562E-02;  0.0000000E+00;  9.1611333E-03;  9.9806665E+02;  2.1386151E-01; -1.6017321E+03;3;  2.7070711E+00;  0.0000000E+00; -6.8175898E+00;0;  2.3853574E-02;  8.8523691E+03;  0.0000000E+00; -5.8578992E-01;  4.0000000E+04;  0.0000000E+00;  3.9483449E+04;  1.1504705E-02;  0.0000000E+00;  1.2348870E-02;  1.3979614E+03;
  9.3879664E-01;  9.9999998E-03;  2.6175129E-01;7687; -1.8204186E-02;  0.0000000E+00;  8.8383006E-03;  9.9752118E+02;  2.1408747E-01; -2.0536699E+03;3;  2.7469637E+00;  0.0000000E+00; -6.8293142E+00;0;  2.5210112E-02;  8.8277139E+03;  0.0000000E+00; -6.5663356E-01;  4.0000000E+04;  0.0000000E+00;  3.9487352E+04;  1.6199775E-02;  0.0000000E+00;  9.0103364E-03;  1.9851390E+03;
  9.3933070E-01;  9.9999998E-03;  2.7180037E-01;7688; -1.7671276E-02;  0.0000000E+00;  8.5884435E-03;  9.9695996E+02;  2.1439707E-01; -2.5185950E+03;3;  2.8875005E+00;  0.0000000E+00; -6.8488584E+00;0;  2.6267618E-02;  8.7946445E+03;  0.0000000E+00; -5.1557094E-01;  4.0000000E+04;  0.0000000E+00;  3.9493828E+04;  2.0656072E-02;  0.0000000E+00;  5.6115473E-03;  3.7909395E+03;
  9.3972731E-01;  9.9999998E-03;  2.8184989E-01;7689; -1.6862156E-02;  0.0000000E+00;  8.3815614E-03;  9.9635577E+02;  2.1462885E-01; -3.0191731E+03;3;  3.1611466E+00;  0.0000000E+00; -6.8334126E+00;0;  2.7037822E-02;  8.7671270E+03;  0.0000000E+00;  6.6672407E-02;  4.0000000E+04;  0.0000000E+00;  3.9500898E+04;  2.4782816E-02;  0.0000000E+00;  2.2550048E-03;  8.4629463E+03;
  9.3996018E-01;  9.9999998E-03;  2.9190180E-01;7690; -1.5663192E-02;  0.0000000E+00;  8.2858829E-03;  9.9575714E+02;  2.1475263E-01; -3.5151096E+03;3;  3.2785025E+00;  0.0000000E+00; -6.7677512E+00;0;  2.8978022E-02;  8.7485801E+03;  0.0000000E+00;  1.1995013E+00;  4.0000000E+04;  0.0000000E+00;  3.9508277E+04;  2.8470969E-02;  0.0000000E+00;  5.0705281E-04;  1.6128767E+04;
  9.4017386E-01;  9.9999998E-03;  3.0195659E-01;7691; -1.3978464E-02;  0.0000000E+00;  8.4011909E-03;  9.9521014E+02;  2.1482520E-01; -3.9682820E+03;3;  3.3024342E+00;  0.0000000E+00; -6.7645779E+00;0;  3.4343258E-02;  8.7354756E+03;  0.0000000E+00;  2.6401854E+00;  4.0000000E+04;  0.0000000E+00;  3.9514852E+04;  3.1600360E-02;  0.0000000E+00;  2.7428975E-03;  2.4955557E+04;
  9.6228421E-01;  9.9999998E-03;  2.4175113E-01;7746; -1.8607212E-02;  0.0000000E+00;  1.0042178E-02;  9.9825439E+02;  2.2722103E-01; -1.4461808E+03;3;  3.4471121E+00;  0.0000000E+00; -6.5321879E+00;0;  2.3461189E-02;  7.8455688E+03;  0.0000000E+00;  4.0840843E-01;  4.0000000E+04;  0.0000000E+00;  3.9441625E+04;  6.2550674E-03;  0.0000000E+00;  1.7206121E-02;  3.1409302E+03;
  9.6207911E-01;  9.9999998E-03;  2.5181112E-01;7747; -1.7604250E-02;  0.0000000E+00;  1.0137592E-02;  9.9763617E+02;  2.2714058E-01; -1.9583636E+03;3;  3.5913997E+00;  0.0000000E+00; -6.5778480E+00;0;  2.8708234E-02;  7.8451743E+03;  0.0000000E+00; -3.5145316E-01;  4.0000000E+04;  0.0000000E+00;  3.9447672E+04;  1.0461227E-02;  0.0000000E+00;  1.8247008E-02;  2.5253992E+03;
  9.6239370E-01;  9.9999998E-03;  2.6187319E-01;7748; -1.6737295E-02;  0.0000000E+00;  9.8228045E-03;  9.9699408E+02;  2.2734760E-01; -2.4903484E+03;3;  3.7200093E+00;  0.0000000E+00; -6.6545234E+00;0;  3.1531472E-02;  7.8238560E+03;  0.0000000E+00; -8.2863170E-01;  4.0000000E+04;  0.0000000E+00;  3.9451336E+04;  1.4491926E-02;  0.0000000E+00;  1.7039545E-02;  3.5004617E+03;
  9.6306592E-01;  9.9999998E-03;  2.7193359E-01;7749; -1.5757209E-02;  0.0000000E+00;  9.4610220E-03;  9.9642670E+02;  2.2774448E-01; -2.9604089E+03;3;  3.7455714E+00;  0.0000000E+00; -6.6749229E+00;0;  3.2683786E-02;  7.7901172E+03;  0.0000000E+00; -8.6883497E-01;  4.0000000E+04;  0.0000000E+00;  3.9454816E+04;  1.8125394E-02;  0.0000000E+00;  1.4558391E-02;  8.3052354E+03;
  9.6371454E-01;  9.9999998E-03;  2.8199363E-01;7750; -1.4488519E-02;  0.0000000E+00;  9.1876611E-03;  9.9588568E+02;  2.2810224E-01; -3.4086431E+03;3;  3.6951673E+00;  0.0000000E+00; -6.6875877E+00;0;  3.3267789E-02;  7.7592256E+03;  0.0000000E+00; -2.8454161E-01;  4.0000000E+04;  0.0000000E+00;  3.9459434E+04;  2.1179082E-02;  0.0000000E+00;  1.2088709E-02;  1.8819254E+04;
  9.6447015E-01;  9.9999998E-03;  2.9205707E-01;7751; -1.2683345E-02;  0.0000000E+00;  9.0433555E-03;  9.9542938E+02;  2.2846662E-01; -3.7866570E+03;3;  3.6533549E+00;  0.0000000E+00; -6.6830850E+00;0;  3.4182098E-02;  7.7301270E+03;  0.0000000E+00;  7.0352000E-01;  4.0000000E+04;  0.0000000E+00;  3.9463324E+04;  2.3352230E-02;  0.0000000E+00;  1.0829868E-02;  3.2017408E+04;
  9.6544659E-01;  9.9999998E-03;  3.0212551E-01;7752; -1.0174064E-02;  0.0000000E+00;  9.1475770E-03;  9.9521204E+02;  2.2883229E-01; -3.9667505E+03;3;  3.4832327E+00;  0.0000000E+00; -6.7555737E+00;0;  3.7871268E-02;  7.7055059E+03;  0.0000000E+00;  1.0716673E+00;  4.0000000E+04;  0.0000000E+00;  3.9463875E+04;  2.4332862E-02;  0.0000000E+00;  1.3538406E-02;  3.9475855E+04;
  9.8610771E-01;  9.9999998E-03;  2.4186304E-01;7807; -1.8745897E-02;  0.0000000E+00;  9.5745903E-03;  9.9826843E+02;  2.4115965E-01; -1.4345760E+03;3;  3.8632011E+00;  0.0000000E+00; -6.3767681E+00;0;  2.6805712E-02;  6.9693652E+03;  0.0000000E+00;  1.0935054E+00;  4.0000000E+04;  0.0000000E+00;  3.9402137E+04;  1.3576522E-02;  0.0000000E+00;  1.3229189E-02;  4.4677725E+03;
  9.8625040E-01;  9.9999998E-03;  2.5193191E-01;7808; -1.7441310E-02;  0.0000000E+00;  9.9015143E-03;  9.9770758E+02;  2.4128878E-01; -1.8992047E+03;3;  4.1330967E+00;  0.0000000E+00; -6.2617936E+00;0;  3.2594297E-02;  6.9566831E+03;  0.0000000E+00; -1.8720811E-02;  4.0000000E+04;  0.0000000E+00;  3.9408680E+04;  1.7193437E-02;  0.0000000E+00;  1.5400860E-02;  3.2360283E+03;
  9.8667419E-01;  9.9999998E-03;  2.6200560E-01;7809; -1.6295234E-02;  0.0000000E+00;  9.7555332E-03;  9.9709772E+02;  2.4158166E-01; -2.4044741E+03;3;  4.1437731E+00;  0.0000000E+00; -6.2905707E+00;0;  3.6613673E-02;  6.9340796E+03;  0.0000000E+00; -9.6672779E-01;  4.0000000E+04;  0.0000000E+00;  3.9410609E+04;  2.0727735E-02;  0.0000000E+00;  1.5885936E-02;  3.8681758E+03;
  9.8751199E-01;  9.9999998E-03;  2.7207896E-01;7810; -1.5207197E-02;  0.0000000E+00;  9.3565984E-03;  9.9663251E+02;  2.4211429E-01; -2.7898950E+03;3;  4.0512366E+00;  0.0000000E+00; -6.3250785E+00;0;  3.7894014E-02;  6.8997485E+03;  0.0000000E+00; -1.4806112E+00;  4.0000000E+04;  0.0000000E+00;  3.9410871E+04;  2.4201758E-02;  0.0000000E+00;  1.3692256E-02;  8.9962100E+03;
  9.8831344E-01;  9.9999998E-03;  2.8215015E-01;7811; -1.3910005E-02;  0.0000000E+00;  8.9428537E-03;  9.9625543E+02;  2.4259476E-01; -3.1022812E+03;3;  3.9487522E+00;  0.0000000E+00; -6.3032351E+00;0;  3.6973089E-02;  6.8696865E+03;  0.0000000E+00; -1.3753347E+00;  4.0000000E+04;  0.0000000E+00;  3.9411137E+04;  2.7043408E-02;  0.0000000E+00;  9.9296821E-03;  2.1749330E+04;
  9.8936611E-01;  9.9999998E-03;  2.9222462E-01;7812; -1.2045933E-02;  0.0000000E+00;  8.6922003E-03;  9.9604419E+02;  2.4315208E-01; -3.2772883E+03;3;  3.8302124E+00;  0.0000000E+00; -6.2626233E+00;0;  3.6562856E-02;  6.8384521E+03;  0.0000000E+00; -1.0411326E+00;  4.0000000E+04;  0.0000000E+00;  3.9410254E+04;  2.9077915E-02;  0.0000000E+00;  7.4849413E-03;  3.6614203E+04;
  9.9061155E-01;  9.9999998E-03;  3.0230331E-01;7813; -9.3776910E-03;  0.0000000E+00;  8.7785544E-03;  9.9602448E+02;  2.4372673E-01; -3.2936335E+03;3;  3.6574519E+00;  0.0000000E+00; -6.2295122E+00;0;  4.0411308E-02;  6.8104727E+03;  0.0000000E+00; -1.3834112E+00;  4.0000000E+04;  0.0000000E+00;  3.9407152E+04;  2.9950226E-02;  0.0000000E+00;  1.0461083E-02;  4.4123289E+04;
  1.0109056E+00;  9.9999998E-03;  2.4200869E-01;7868; -1.9228026E-02;  0.0000000E+00;  8.2183890E-03;  9.9828571E+02;  2.5624371E-01; -1.4202552E+03;3;  4.0776138E+00;  0.0000000E+00; -6.0819321E+00;0;  4.7560427E-02;  6.1783374E+03;  0.0000000E+00;  9.2982304E-01;  4.0000000E+04;  0.0000000E+00;  3.9357660E+04;  4.4493742E-02;  0.0000000E+00;  3.0666851E-03;  3.8612246E+03;
  1.0113324E+00;  9.9999998E-03;  2.5208181E-01;7869; -1.7853370E-02;  0.0000000E+00;  8.5882954E-03;  9.9784167E+02;  2.5657150E-01; -1.7881459E+03;3;  4.3833680E+00;  0.0000000E+00; -5.7600636E+00;0;  5.3516489E-02;  6.1587930E+03;  0.0000000E+00; -8.6503327E-02;  4.0000000E+04;  0.0000000E+00;  3.9364531E+04;  4.9936775E-02;  0.0000000E+00;  3.5797125E-03;  3.4385579E+03;
  1.0117972E+00;  9.9999998E-03;  2.6216045E-01;7870; -1.6632985E-02;  0.0000000E+00;  8.5999826E-03;  9.9733655E+02;  2.5692296E-01; -2.2066030E+03;3;  4.3646622E+00;  0.0000000E+00; -5.7191205E+00;0;  5.8656503E-02;  6.1382114E+03;  0.0000000E+00; -1.1478739E+00;  4.0000000E+04;  0.0000000E+00;  3.9367348E+04;  5.5065524E-02;  0.0000000E+00;  3.5909782E-03;  3.9816953E+03;
  1.0124646E+00;  9.9999998E-03;  2.7223921E-01;7871; -1.5484627E-02;  0.0000000E+00;  8.2965698E-03;  9.9688782E+02;  2.5739384E-01; -2.5783943E+03;3;  4.2445722E+00;  0.0000000E+00; -5.7069387E+00;0;  6.1417971E-02;  6.1126069E+03;  0.0000000E+00; -1.9490297E+00;  4.0000000E+04;  0.0000000E+00;  3.9366828E+04;  6.0253758E-02;  0.0000000E+00;  1.1642112E-03;  6.2369873E+03;
  1.0131443E+00;  9.9999998E-03;  2.8231567E-01;7872; -1.4247532E-02;  0.0000000E+00;  7.8687165E-03;  9.9651294E+02;  2.5785723E-01; -2.8889531E+03;3;  4.0919342E+00;  0.0000000E+00; -5.6941075E+00;0;  6.1588891E-02;  6.0887065E+03;  0.0000000E+00; -2.1940203E+00;  4.0000000E+04;  0.0000000E+00;  3.9365781E+04;  6.5069258E-02;  0.0000000E+00; -3.4803678E-03;  1.6617742E+04;
  1.0141245E+00;  9.9999998E-03;  2.9239494E-01;7873; -1.2665868E-02;  0.0000000E+00;  7.5202337E-03;  9.9622736E+02;  2.5849786E-01; -3.1255388E+03;3;  3.9329219E+00;  0.0000000E+00; -5.6297278E+00;0;  6.2486783E-02;  6.0581680E+03;  0.0000000E+00; -2.0169928E+00;  4.0000000E+04;  0.0000000E+00;  3.9364637E+04;  7.0112206E-02;  0.0000000E+00; -7.6254229E-03;  3.1290244E+04;
  1.0152427E+00;  9.9999998E-03;  3.0247703E-01;7874; -1.0308532E-02;  0.0000000E+00;  7.5093345E-03;  9.9598712E+02;  2.5917023E-01; -3.3245947E+03;3;  3.7746046E+00;  0.0000000E+00; -5.4702196E+00;0;  6.8894282E-02;  6.0284956E+03;  0.0000000E+00; -1.7788957E+00;  4.0000000E+04;  0.0000000E+00;  3.9363453E+04;  7.4793763E-02;  0.0000000E+00; -5.8994838E-03;  4.4015590E+04;
  1.0360414E+00;  9.9999998E-03;  2.4219118E-01;7929; -1.9821266E-02;  0.0000000E+00;  6.5134261E-03;  9.9801758E+02;  2.7204630E-01; -1.6424211E+03;3;  4.0597844E+00;  0.0000000E+00; -5.7607393E+00;0;  9.6252523E-02;  5.4850674E+03;  0.0000000E+00; -3.8547331E-01;  4.0000000E+04;  0.0000000E+00;  3.9308312E+04;  1.0667455E-01;  0.0000000E+00; -1.0422028E-02;  2.5281550E+03;
  1.0366231E+00;  9.9999998E-03;  2.5225711E-01;7930; -1.8536896E-02;  0.0000000E+00;  6.6459472E-03;  9.9759637E+02;  2.7251649E-01; -1.9913491E+03;3;  4.2460670E+00;  0.0000000E+00; -5.4576001E+00;0;  1.0291812E-01;  5.4626787E+03;  0.0000000E+00; -8.7082613E-01;  4.0000000E+04;  0.0000000E+00;  3.9317195E+04;  1.1740196E-01;  0.0000000E+00; -1.4483841E-02;  3.2957090E+03;
  1.0370015E+00;  9.9999998E-03;  2.6232874E-01;7931; -1.7247856E-02;  0.0000000E+00;  6.8315985E-03;  9.9712689E+02;  2.7284870E-01; -2.3803254E+03;3;  4.3439665E+00;  0.0000000E+00; -5.1500945E+00;0;  1.1026847E-01;  5.4460947E+03;  0.0000000E+00; -1.4797419E+00;  4.0000000E+04;  0.0000000E+00;  3.9323953E+04;  1.2693045E-01;  0.0000000E+00; -1.6661974E-02;  4.5850459E+03;
  1.0371809E+00;  9.9999998E-03;  2.7240223E-01;7932; -1.6095607E-02;  0.0000000E+00;  6.6601806E-03;  9.9664532E+02;  2.7302939E-01; -2.7792766E+03;3;  4.2204914E+00;  0.0000000E+00; -5.1145463E+00;0;  1.1478376E-01;  5.4355752E+03;  0.0000000E+00; -2.0388622E+00;  4.0000000E+04;  0.0000000E+00;  3.9327102E+04;  1.3525860E-01;  0.0000000E+00; -2.0474840E-02;  4.8988003E+03;
  1.0374526E+00;  9.9999998E-03;  2.8247711E-01;7933; -1.4972648E-02;  0.0000000E+00;  6.2883142E-03;  9.9620642E+02;  2.7327290E-01; -3.1429204E+03;3;  4.0300245E+00;  0.0000000E+00; -5.1971512E+00;0;  1.1737238E-01;  5.4233340E+03;  0.0000000E+00; -2.3321393E+00;  4.0000000E+04;  0.0000000E+00;  3.9328223E+04;  1.4350002E-01;  0.0000000E+00; -2.6127636E-02;  5.7930269E+03;
  1.0379692E+00;  9.9999998E-03;  2.9255494E-01;7934; -1.3820459E-02;  0.0000000E+00;  5.9316987E-03;  9.9578918E+02;  2.7371040E-01; -3.4885894E+03;3;  3.8396156E+00;  0.0000000E+00; -5.0711489E+00;0;  1.2137768E-01;  5.4043540E+03;  0.0000000E+00; -2.2373486E+00;  4.0000000E+04;  0.0000000E+00;  3.9329488E+04;  1.5247217E-01;  0.0000000E+00; -3.1094491E-02;  1.0759521E+04;
  1.0386724E+00;  9.9999998E-03;  3.0263603E-01;7935; -1.2597942E-02;  0.0000000E+00;  5.6859213E-03;  9.9530573E+02;  2.7430704E-01; -3.8891208E+03;3;  3.6195033E+00;  0.0000000E+00; -4.9182048E+00;0;  1.2922499E-01;  5.3799058E+03;  0.0000000E+00; -1.7322335E+00;  4.0000000E+04;  0.0000000E+00;  3.9332684E+04;  1.6219686E-01;  0.0000000E+00; -3.2971866E-02;  1.8251494E+04;
  1.0619377E+00;  9.9999998E-03;  2.4240473E-01;7990; -1.9648749E-02;  0.0000000E+00;  5.5878102E-03;  9.9798444E+02;  2.8875110E-01; -1.6698765E+03;3;  4.4022431E+00;  0.0000000E+00; -4.7016325E+00;0;  1.6573462E-01;  4.8760068E+03;  0.0000000E+00; -1.9813713E+00;  4.0000000E+04;  0.0000000E+00;  3.9249199E+04;  1.8676868E-01;  0.0000000E+00; -2.1034062E-02;  1.6029434E+03;
  1.0624539E+00;  9.9999998E-03;  2.5245544E-01;7991; -1.8750286E-02;  0.0000000E+00;  5.2683121E-03;  9.9741797E+02;  2.8922144E-01; -2.1391465E+03;3;  4.2607603E+00;  0.0000000E+00; -4.6328869E+00;0;  1.7381427E-01;  4.8558472E+03;  0.0000000E+00; -1.9666220E+00;  4.0000000E+04;  0.0000000E+00;  3.9258438E+04;  2.0382997E-01;  0.0000000E+00; -3.0015701E-02;  1.7177695E+03;
  1.0630645E+00;  9.9999998E-03;  2.6251450E-01;7992; -1.7802289E-02;  0.0000000E+00;  5.0761071E-03;  9.9686475E+02;  2.8976905E-01; -2.5975032E+03;3;  4.1818161E+00;  0.0000000E+00; -4.5439963E+00;0;  1.8220568E-01;  4.8334092E+03;  0.0000000E+00; -2.0090792E+00;  4.0000000E+04;  0.0000000E+00;  3.9269145E+04;  2.2052981E-01;  0.0000000E+00; -3.8324125E-02;  4.3889536E+03;
  1.0634968E+00;  9.9999998E-03;  2.7257863E-01;7993; -1.6793292E-02;  0.0000000E+00;  5.0740005E-03;  9.9639404E+02;  2.9016694E-01; -2.9874666E+03;3;  4.0020361E+00;  0.0000000E+00; -4.3825560E+00;0;  1.9273792E-01;  4.8165801E+03;  0.0000000E+00; -2.0757382E+00;  4.0000000E+04;  0.0000000E+00;  3.9279113E+04;  2.3613544E-01;  0.0000000E+00; -4.3397520E-02;  8.7244561E+03;
  1.0637352E+00;  9.9999998E-03;  2.8264990E-01;7994; -1.5803671E-02;  0.0000000E+00;  4.8312410E-03;  9.9594794E+02;  2.9040679E-01; -3.3570359E+03;3;  3.7928281E+00;  0.0000000E+00; -4.2675052E+00;0;  2.0170203E-01;  4.8056704E+03;  0.0000000E+00; -2.1596086E+00;  4.0000000E+04;  0.0000000E+00;  3.9284867E+04;  2.5058195E-01;  0.0000000E+00; -4.8879918E-02;  1.4413760E+04;
  1.0638006E+00;  9.9999998E-03;  2.9272467E-01;7995; -1.4667943E-02;  0.0000000E+00;  4.4697276E-03;  9.9550403E+02;  2.9052725E-01; -3.7248274E+03;3;  3.5139651E+00;  0.0000000E+00; -4.0970831E+00;0;  2.0998704E-01;  4.7998755E+03;  0.0000000E+00; -2.2251315E+00;  4.0000000E+04;  0.0000000E+00;  3.9289617E+04;  2.6393083E-01;  0.0000000E+00; -5.3943783E-02;  2.1122141E+04;
  1.0638336E+00;  9.9999998E-03;  3.0280182E-01;7996; -1.3418204E-02;  0.0000000E+00;  4.2303163E-03;  9.9497388E+02;  2.9062608E-01; -4.1640239E+03;3;  3.1132369E+00;  0.0000000E+00; -3.8935053E+00;0;  2.2183010E-01;  4.7954653E+03;  0.0000000E+00; -2.0849862E+00;  4.0000000E+04;  0.0000000E+00;  3.9296508E+04;  2.7648136E-01;  0.0000000E+00; -5.4651260E-02;  2.6586797E+04;
  1.0917376E+00;  9.9999998E-03;  2.5266236E-01;8052; -9.5198741E-03;  0.0000000E+00;  7.9809278E-03;  9.9766034E+02;  3.0885550E-01; -1.9383606E+03;3;  5.1337414E+00;  0.0000000E+00; -2.5084348E+00;0;  2.5955844E-01;  4.2667700E+03;  0.0000000E+00; -3.1390116E+00;  4.0000000E+04;  0.0000000E+00;  3.9190453E+04;  2.7380013E-01;  0.0000000E+00; -1.4241708E-02;  1.9632604E+03;
  1.0911719E+00;  9.9999998E-03;  2.4261105E-01;8051; -9.1588553E-03;  0.0000000E+00;  8.9198081E-03;  9.9848309E+02;  3.0827966E-01; -1.2567025E+03;3;  6.4257450E+00;  0.0000000E+00; -2.4614542E+00;0;  2.4322696E-01;  4.2876987E+03;  0.0000000E+00; -3.1445196E+00;  4.0000000E+04;  0.0000000E+00;  3.9185430E+04;  2.5176907E-01;  0.0000000E+00; -8.5421102E-03;  1.4664873E+03;
  1.0923542E+00;  9.9999998E-03;  2.6271999E-01;8053; -1.0616062E-02;  0.0000000E+00;  6.8122144E-03;  9.9678723E+02;  3.0947959E-01; -2.6616965E+03;3;  3.5803201E+00;  0.0000000E+00; -2.6181746E+00;0;  2.7080509E-01;  4.2441665E+03;  0.0000000E+00; -3.0084314E+00;  4.0000000E+04;  0.0000000E+00;  3.9197840E+04;  2.9351029E-01;  0.0000000E+00; -2.2705203E-02;  5.8969116E+03;
  1.0925927E+00;  9.9999998E-03;  2.7277538E-01;8054; -1.1581927E-02;  0.0000000E+00;  6.0114712E-03;  9.9616425E+02;  3.0978227E-01; -3.1778289E+03;3;  2.1083543E+00;  0.0000000E+00; -2.6568494E+00;0;  2.8188086E-01;  4.2315151E+03;  0.0000000E+00; -2.6674974E+00;  4.0000000E+04;  0.0000000E+00;  3.9211602E+04;  3.1124851E-01;  0.0000000E+00; -2.9367659E-02;  1.1336374E+04;
  1.0927088E+00;  9.9999998E-03;  2.8283978E-01;8055; -8.5120071E-03;  0.0000000E+00;  5.4444275E-03;  9.9565320E+02;  3.0995563E-01; -3.6012234E+03;3;  1.4892849E+00;  0.0000000E+00; -2.8040147E+00;0;  2.9832974E-01;  4.2233203E+03;  0.0000000E+00; -2.2781899E+00;  4.0000000E+04;  0.0000000E+00;  3.9223969E+04;  3.3153793E-01;  0.0000000E+00; -3.3208191E-02;  1.9945574E+04;
  1.0924652E+00;  9.9999998E-03;  2.9291308E-01;8056;  3.8001952E-03;  0.0000000E+00;  5.0990791E-03;  9.9517847E+02;  3.0978391E-01; -3.9945447E+03;3;  3.4421816E+00;  0.0000000E+00; -3.0624604E+00;0;  3.2777798E-01;  4.2259775E+03;  0.0000000E+00; -2.1660011E+00;  4.0000000E+04;  0.0000000E+00;  3.9231695E+04;  3.6074886E-01;  0.0000000E+00; -3.2970890E-02;  3.3825805E+04;
  1.0921015E+00;  9.9999998E-03;  3.0299246E-01;8057;  2.2803292E-02;  0.0000000E+00;  5.3601265E-03;  9.9450879E+02;  3.0938533E-01; -4.5493423E+03;3;  5.6042805E+00;  0.0000000E+00; -3.3489332E+00;0;  3.7570891E-01;  4.2346782E+03;  0.0000000E+00; -2.2917774E+00;  4.0000000E+04;  0.0000000E+00;  3.9236414E+04;  3.9697954E-01;  0.0000000E+00; -2.1270638E-02;  4.9177523E+04;
  1.1240331E+00;  9.9999998E-03;  2.4274547E-01;8112;  1.5587987E-02;  0.0000000E+00;  1.3718057E-02;  9.9932501E+02;  3.3099282E-01; -5.5919208E+02;3;  1.1215427E+01;  0.0000000E+00; -1.0232154E+00;0;  2.5717753E-01;  3.7274106E+03;  0.0000000E+00; -3.2849803E+00;  4.0000000E+04;  0.0000000E+00;  3.9135691E+04;  2.2606757E-01;  0.0000000E+00;  3.1109955E-02;  2.8437854E+03;
  1.1248766E+00;  9.9999998E-03;  2.5282130E-01;8113;  2.0591043E-02;  0.0000000E+00;  1.2522353E-02;  9.9829651E+02;  3.3187625E-01; -1.4113131E+03;3;  1.0598644E+01;  0.0000000E+00; -1.2319529E+00;0;  2.9044154E-01;  3.7026118E+03;  0.0000000E+00; -3.7792745E+00;  4.0000000E+04;  0.0000000E+00;  3.9136125E+04;  2.4990427E-01;  0.0000000E+00;  4.0537268E-02;  6.9324814E+03;
  1.1258204E+00;  9.9999998E-03;  2.6290113E-01;8114;  2.5311830E-02;  0.0000000E+00;  1.0657301E-02;  9.9696240E+02;  3.3285645E-01; -2.5165618E+03;3;  9.8730965E+00;  0.0000000E+00; -1.4092340E+00;0;  3.1720069E-01;  3.6744958E+03;  0.0000000E+00; -4.1551423E+00;  4.0000000E+04;  0.0000000E+00;  3.9135270E+04;  2.7103257E-01;  0.0000000E+00;  4.6168119E-02;  1.1216283E+04;
  1.1258415E+00;  9.9999998E-03;  2.7297276E-01;8115;  2.9681068E-02;  0.0000000E+00;  8.8402545E-03;  9.9591302E+02;  3.3302593E-01; -3.3859661E+03;3;  9.0635357E+00;  0.0000000E+00; -1.7495959E+00;0;  3.4044611E-01;  3.6656746E+03;  0.0000000E+00; -4.1750813E+00;  4.0000000E+04;  0.0000000E+00;  3.9138105E+04;  2.9340434E-01;  0.0000000E+00;  4.7041778E-02;  1.4595143E+04;
  1.1256866E+00;  9.9999998E-03;  2.8304425E-01;8116;  3.4297403E-02;  0.0000000E+00;  7.1027502E-03;  9.9502844E+02;  3.3303171E-01; -4.1188315E+03;3;  8.1179762E+00;  0.0000000E+00; -2.1350241E+00;0;  3.5694483E-01;  3.6610659E+03;  0.0000000E+00; -4.0216541E+00;  4.0000000E+04;  0.0000000E+00;  3.9145348E+04;  3.1482723E-01;  0.0000000E+00;  4.2117603E-02;  2.0622082E+04;
  1.1254319E+00;  9.9999998E-03;  2.9312241E-01;8117;  3.9874356E-02;  0.0000000E+00;  5.6007691E-03;  9.9419867E+02;  3.3293265E-01; -4.8062666E+03;3;  7.1714396E+00;  0.0000000E+00; -2.5176365E+00;0;  3.6919355E-01;  3.6595378E+03;  0.0000000E+00; -3.9170034E+00;  4.0000000E+04;  0.0000000E+00;  3.9154344E+04;  3.3594662E-01;  0.0000000E+00;  3.3246934E-02;  3.2155268E+04;
  1.1249418E+00;  9.9999998E-03;  3.0320656E-01;8118;  4.7159750E-02;  0.0000000E+00;  4.5687752E-03;  9.9336945E+02;  3.3254132E-01; -5.4932573E+03;3;  6.1035409E+00;  0.0000000E+00; -2.9702473E+00;0;  3.8467520E-01;  3.6653491E+03;  0.0000000E+00; -4.0898314E+00;  4.0000000E+04;  0.0000000E+00;  3.9162969E+04;  3.5877681E-01;  0.0000000E+00;  2.5898382E-02;  4.9773508E+04;
  1.1597188E+00;  9.9999998E-03;  2.4283919E-01;8173;  1.5969258E-02;  0.0000000E+00; -7.8219001E-04;  9.9853174E+02;  3.5603288E-01; -1.2164027E+03;3;  1.2104663E+01;  0.0000000E+00;  1.6100435E+00;0;  9.3578748E-02;  3.2179377E+03;  0.0000000E+00; -2.1141286E+00;  4.0000000E+04;  0.0000000E+00;  3.9100832E+04;  8.4867731E-02;  0.0000000E+00;  8.7110195E-03;  6.9318701E+03;
  1.1612254E+00;  9.9999998E-03;  2.5292775E-01;8174;  2.1455674E-02;  0.0000000E+00; -1.3113342E-03;  9.9768744E+02;  3.5752526E-01; -1.9158845E+03;3;  1.1414115E+01;  0.0000000E+00;  1.4925572E+00;0;  1.0979052E-01;  3.1873704E+03;  0.0000000E+00; -2.9655874E+00;  4.0000000E+04;  0.0000000E+00;  3.9108586E+04;  9.3135536E-02;  0.0000000E+00;  1.6654987E-02;  1.1524755E+04;
  1.1643797E+00;  9.9999998E-03;  2.6303777E-01;8175;  2.6633218E-02;  0.0000000E+00; -3.4080034E-03;  9.9624347E+02;  3.6053324E-01; -3.1121880E+03;3;  1.0760412E+01;  0.0000000E+00;  1.5766492E+00;0;  1.1120237E-01;  3.1276531E+03;  0.0000000E+00; -4.1912985E+00;  4.0000000E+04;  0.0000000E+00;  3.9109348E+04;  9.1345288E-02;  0.0000000E+00;  1.9857086E-02;  1.7553117E+04;
  1.1655167E+00;  9.9999998E-03;  2.8322732E-01;8177;  3.7049480E-02;  0.0000000E+00; -6.2296493E-03;  9.9347516E+02;  3.6194673E-01; -5.4056880E+03;3;  9.1951571E+00;  0.0000000E+00;  1.4715562E+00;0;  1.1542317E-01;  3.0923694E+03;  0.0000000E+00; -6.5532317E+00;  4.0000000E+04;  0.0000000E+00;  3.9112906E+04;  1.0402498E-01;  0.0000000E+00;  1.1398192E-02;  2.0879336E+04;
  1.1656361E+00;  9.9999998E-03;  2.7313748E-01;8176;  3.1860620E-02;  0.0000000E+00; -5.0595454E-03;  9.9482043E+02;  3.6185342E-01; -4.2911592E+03;3;  1.0054358E+01;  0.0000000E+00;  1.6432030E+00;0;  1.1338738E-01;  3.0992632E+03;  0.0000000E+00; -5.4824786E+00;  4.0000000E+04;  0.0000000E+00;  3.9109031E+04;  9.5278122E-02;  0.0000000E+00;  1.8109264E-02;  2.0734422E+04;
  1.1659478E+00;  9.9999998E-03;  2.9332143E-01;8178;  4.2302962E-02;  0.0000000E+00; -7.5420658E-03;  9.9201031E+02;  3.6256886E-01; -6.6192749E+03;3;  8.2828026E+00;  0.0000000E+00;  1.3126252E+00;0;  1.0971662E-01;  3.0757292E+03;  0.0000000E+00; -7.1078196E+00;  4.0000000E+04;  0.0000000E+00;  3.9123059E+04;  1.0850689E-01;  0.0000000E+00;  1.2097316E-03;  1.7303057E+04;
  1.1667868E+00;  9.9999998E-03;  3.0342209E-01;8179;  4.7710687E-02;  0.0000000E+00; -8.7113362E-03;  9.9042975E+02;  3.6362094E-01; -7.9287109E+03;3;  7.4169359E+00;  0.0000000E+00;  1.2164935E+00;0;  1.0203322E-01;  3.0517874E+03;  0.0000000E+00; -6.7920966E+00;  4.0000000E+04;  0.0000000E+00;  3.9137289E+04;  1.0917860E-01;  0.0000000E+00; -7.1453722E-03;  1.0948191E+04;
  1.1986704E+00;  9.9999998E-03;  2.4300520E-01;8234;  1.3243690E-02;  0.0000000E+00; -2.1208240E-02;  9.9448871E+02;  3.8392228E-01; -4.5659448E+03;3;  1.2562125E+01;  0.0000000E+00;  4.6456895E+00;0; -3.3990033E-02;  2.7520903E+03;  0.0000000E+00; -1.9224975E-01;  4.0000000E+04;  0.0000000E+00;  3.9049508E+04; -2.8312389E-02;  0.0000000E+00; -5.6776451E-03;  7.4834941E+03;
  1.2008432E+00;  9.9999998E-03;  2.5307968E-01;8235;  1.8805539E-02;  0.0000000E+00; -2.1708546E-02;  9.9389850E+02;  3.8597828E-01; -5.0549116E+03;3;  1.2079005E+01;  0.0000000E+00;  5.0122685E+00;0; -2.6510546E-02;  2.7197615E+03;  0.0000000E+00; -1.2958865E+00;  4.0000000E+04;  0.0000000E+00;  3.9074926E+04; -3.0417062E-02;  0.0000000E+00;  3.9065164E-03;  1.3800639E+04;
  1.2052976E+00;  9.9999998E-03;  2.6321369E-01;8236;  2.3792613E-02;  0.0000000E+00; -2.3421733E-02;  9.9333557E+02;  3.9015394E-01; -5.5213091E+03;3;  1.1515993E+01;  0.0000000E+00;  5.2706394E+00;0; -2.2379139E-02;  2.6586931E+03;  0.0000000E+00; -3.1999471E+00;  4.0000000E+04;  0.0000000E+00;  3.9081094E+04; -3.8548768E-02;  0.0000000E+00;  1.6169628E-02;  1.9825562E+04;
  1.2079442E+00;  9.9999998E-03;  2.7333823E-01;8237;  2.8516470E-02;  0.0000000E+00; -2.4647987E-02;  9.9249377E+02;  3.9275587E-01; -6.2187100E+03;3;  1.0889731E+01;  0.0000000E+00;  5.2793093E+00;0; -2.2451555E-02;  2.6207754E+03;  0.0000000E+00; -5.9980798E+00;  4.0000000E+04;  0.0000000E+00;  3.9083281E+04; -4.5371283E-02;  0.0000000E+00;  2.2919727E-02;  2.5195334E+04;
  1.2086632E+00;  9.9999998E-03;  2.8344309E-01;8238;  3.3032954E-02;  0.0000000E+00; -2.5169916E-02;  9.9094781E+02;  3.9363843E-01; -7.4994463E+03;3;  1.0198584E+01;  0.0000000E+00;  5.1288643E+00;0; -2.8565591E-02;  2.6037317E+03;  0.0000000E+00; -8.7149858E+00;  4.0000000E+04;  0.0000000E+00;  3.9091965E+04; -5.0143261E-02;  0.0000000E+00;  2.1577669E-02;  2.2927695E+04;
  1.2096034E+00;  9.9999998E-03;  2.9355234E-01;8239;  3.7128441E-02;  0.0000000E+00; -2.5728576E-02;  9.8908801E+02;  3.9476988E-01; -9.0402715E+03;3;  9.5586519E+00;  0.0000000E+00;  4.9651008E+00;0; -3.9076816E-02;  2.5823459E+03;  0.0000000E+00; -1.0506968E+01;  4.0000000E+04;  0.0000000E+00;  3.9102641E+04; -5.6301158E-02;  0.0000000E+00;  1.7224342E-02;  1.5137219E+04;
  1.2113622E+00;  9.9999998E-03;  3.0367172E-01;8240;  4.1130874E-02;  0.0000000E+00; -2.6393384E-02;  9.8716638E+02;  3.9669645E-01; -1.0632252E+04;3;  9.1186161E+00;  0.0000000E+00;  4.2382069E+00;0; -4.9947582E-02;  2.5509263E+03;  0.0000000E+00; -1.1091498E+01;  4.0000000E+04;  0.0000000E+00;  3.9113832E+04; -6.5091267E-02;  0.0000000E+00;  1.5143684E-02;  3.7538559E+04;
  1.2411698E+00;  9.9999998E-03;  2.4329482E-01;8295;  1.0348582E-02;  0.0000000E+00; -4.3969806E-02;  9.9495917E+02;  4.1313243E-01; -4.1761421E+03;3;  1.3116888E+01;  0.0000000E+00;  7.8065147E+00;0; -2.0021832E-02;  2.3862034E+03;  0.0000000E+00;  9.3705207E-01;  4.0000000E+04;  0.0000000E+00;  3.8970785E+04; -4.4950254E-02;  0.0000000E+00;  2.4928423E-02;  3.8074868E+03;
  1.2435837E+00;  9.9999998E-03;  2.5337702E-01;8296;  1.5816906E-02;  0.0000000E+00; -4.5048252E-02;  9.9485510E+02;  4.1512030E-01; -4.2623569E+03;3;  1.3273118E+01;  0.0000000E+00;  8.3113375E+00;0; -1.2043200E-02;  2.3629763E+03;  0.0000000E+00; -6.8843490E-01;  4.0000000E+04;  0.0000000E+00;  3.8991867E+04; -5.3340495E-02;  0.0000000E+00;  4.1297294E-02;  1.0243732E+04;
  1.2480903E+00;  9.9999998E-03;  2.6351604E-01;8297;  2.0334488E-02;  0.0000000E+00; -4.6092391E-02;  9.9551746E+02;  4.1875732E-01; -3.7136377E+03;3;  1.2765616E+01;  0.0000000E+00;  9.2196217E+00;0;  3.1457841E-03;  2.3243086E+03;  0.0000000E+00; -3.3435731E+00;  4.0000000E+04;  0.0000000E+00;  3.8994188E+04; -6.1701968E-02;  0.0000000E+00;  6.4847752E-02;  1.6913160E+04;
  1.2514178E+00;  9.9999998E-03;  2.7364498E-01;8298;  2.3754286E-02;  0.0000000E+00; -4.2662147E-02;  9.9573541E+02;  4.2147458E-01; -3.5330505E+03;3;  1.3369198E+01;  0.0000000E+00;  1.2489266E+01;0;  5.3584285E-02;  2.2962043E+03;  0.0000000E+00; -7.0274954E+00;  4.0000000E+04;  0.0000000E+00;  3.8993535E+04; -7.1162499E-02;  0.0000000E+00;  1.2474678E-01;  2.4727791E+04;
  1.2525208E+00;  9.9999998E-03;  2.8375468E-01;8299;  2.6683837E-02;  0.0000000E+00; -3.6664870E-02;  9.9430389E+02;  4.2250851E-01; -4.7190117E+03;3;  1.3804457E+01;  0.0000000E+00;  5.0702929E+00;0;  1.3532686E-01;  2.2814443E+03;  0.0000000E+00; -1.0412061E+01;  4.0000000E+04;  0.0000000E+00;  3.8996758E+04; -8.0931254E-02;  0.0000000E+00;  2.1625811E-01;  2.1328734E+04;
  1.2536584E+00;  9.9999998E-03;  2.9387581E-01;8300;  2.9881408E-02;  0.0000000E+00; -3.9479651E-02;  9.9224463E+02;  4.2359477E-01; -6.4250425E+03;3;  1.4075988E+01;  0.0000000E+00;  2.4777353E+00;0;  8.3726645E-02;  2.2647583E+03;  0.0000000E+00; -1.2405096E+01;  4.0000000E+04;  0.0000000E+00;  3.8993641E+04; -9.0450764E-02;  0.0000000E+00;  1.7417741E-01;  1.1599816E+04;
  1.2557766E+00;  9.9999998E-03;  3.0400592E-01;8301;  3.3403486E-02;  0.0000000E+00; -4.1429892E-02;  9.9049139E+02;  4.2541641E-01; -7.8775029E+03;3;  1.4393258E+01;  0.0000000E+00;  1.5708529E+00;0;  3.5495333E-02;  2.2419243E+03;  0.0000000E+00; -1.2941374E+01;  4.0000000E+04;  0.0000000E+00;  3.8995570E+04; -1.0020628E-01;  0.0000000E+00;  1.3570161E-01;  4.6281703E+04;
  1.2858517E+00;  9.9999998E-03;  2.4360223E-01;8356;  9.8183928E-03;  0.0000000E+00; -7.1329817E-02;  1.0002582E+03;  4.3013319E-01;  2.1391135E+02;3;  1.7052382E+01;  0.0000000E+00;  1.2829149E+01;0;  2.1972238E-01;  2.2273665E+03;  0.0000000E+00;  2.1504673E-01;  4.0000000E+04;  0.0000000E+00;  3.8908781E+04;  1.4608738E-01;  0.0000000E+00;  7.3634997E-02;  2.9405273E+03;
  1.2885683E+00;  9.9999998E-03;  2.5365961E-01;8357;  1.4826057E-02;  0.0000000E+00; -7.1583204E-02;  1.0001352E+03;  4.3094414E-01;  1.1199218E+02;3;  1.8222765E+01;  0.0000000E+00;  1.3101294E+01;0;  2.2268023E-01;  2.2176157E+03;  0.0000000E+00; -1.7343320E+00;  4.0000000E+04;  0.0000000E+00;  3.8934004E+04;  1.1972886E-01;  0.0000000E+00;  1.0295137E-01;  6.7673008E+03;
  1.2934214E+00;  9.9999998E-03;  2.6372415E-01;8358;  1.7374363E-02;  0.0000000E+00; -5.2673910E-02;  1.0006594E+03;  4.3223208E-01;  5.4623169E+02;3;  2.1501097E+01;  0.0000000E+00;  2.4435757E+01;0;  4.1701651E-01;  2.2029224E+03;  0.0000000E+00; -4.7772551E+00;  4.0000000E+04;  0.0000000E+00;  3.8981043E+04;  1.1895286E-01;  0.0000000E+00;  2.9806364E-01;  1.9185275E+04;
  1.2969233E+00;  9.9999998E-03;  2.7388471E-01;8359;  2.0465881E-02;  0.0000000E+00; -4.2898837E-02;  9.9967328E+02;  4.3308455E-01; -2.7064627E+02;3;  2.2130768E+01;  0.0000000E+00;  5.4244599E+00;0;  5.8323663E-01;  2.1921265E+03;  0.0000000E+00; -8.7780638E+00;  4.0000000E+04;  0.0000000E+00;  3.8956660E+04;  1.0771411E-01;  0.0000000E+00;  4.7552255E-01;  3.2763000E+04;
  1.2975386E+00;  9.9999998E-03;  2.8401881E-01;8360;  2.3884172E-02;  0.0000000E+00; -4.5507025E-02;  9.9768604E+02;  4.3337482E-01; -1.9169905E+03;3;  2.2802034E+01;  0.0000000E+00;  2.6969371E+00;0;  5.4864097E-01;  2.1856580E+03;  0.0000000E+00; -1.2201995E+01;  4.0000000E+04;  0.0000000E+00;  3.8928984E+04;  7.0267446E-02;  0.0000000E+00;  4.7837350E-01;  3.7872246E+04;
  1.2977124E+00;  9.9999998E-03;  2.9413465E-01;8361;  2.7328297E-02;  0.0000000E+00; -4.8067525E-02;  9.9547876E+02;  4.3367496E-01; -3.7455923E+03;3;  2.3173618E+01;  0.0000000E+00;  1.1797426E+00;0;  4.6593082E-01;  2.1781328E+03;  0.0000000E+00; -1.3949212E+01;  4.0000000E+04;  0.0000000E+00;  3.8921762E+04;  3.4341075E-02;  0.0000000E+00;  4.3158975E-01;  2.3819494E+04;
  1.2991631E+00;  9.9999998E-03;  3.0425543E-01;8362;  3.1361889E-02;  0.0000000E+00; -4.9378611E-02;  9.9339624E+02;  4.3430477E-01; -5.4708379E+03;3;  2.4437626E+01;  0.0000000E+00; -7.4608397E-01;0;  3.9658129E-01;  2.1673577E+03;  0.0000000E+00; -1.4300511E+01;  4.0000000E+04;  0.0000000E+00;  3.8929438E+04;  1.3794077E-02;  0.0000000E+00;  3.8278723E-01;  6.4524019E+03;
  1.3293078E+00;  9.9999998E-03;  2.4365030E-01;8417;  9.7692274E-03;  0.0000000E+00; -1.0407755E-01;  9.9472626E+02;  4.2125753E-01; -4.3688750E+03;3;  2.3995510E+01;  0.0000000E+00;  9.1903276E+00;0;  1.2159413E+00;  2.2922009E+03;  0.0000000E+00; -1.2312011E+00;  4.0000000E+04;  0.0000000E+00;  3.8934785E+04;  1.2148795E+00;  0.0000000E+00;  1.0618283E-03;  6.7248032E+03;
  1.3319507E+00;  9.9999998E-03;  2.5374255E-01;8418;  1.3558111E-02;  0.0000000E+00; -1.0490527E-01;  9.9443079E+02;  4.2093152E-01; -4.6136255E+03;3;  2.6945137E+01;  0.0000000E+00;  8.4276457E+00;0;  1.1826137E+00;  2.2929194E+03;  0.0000000E+00; -3.0688949E+00;  4.0000000E+04;  0.0000000E+00;  3.8960332E+04;  1.1868541E+00;  0.0000000E+00; -4.2404318E-03;  1.2396770E+04;
  1.3357257E+00;  9.9999998E-03;  2.6380557E-01;8419;  1.5608313E-02;  0.0000000E+00; -9.8679513E-02;  9.9440033E+02;  4.2066810E-01; -4.6388359E+03;3;  3.0851683E+01;  0.0000000E+00;  7.4228654E+00;0;  1.2516379E+00;  2.2917446E+03;  0.0000000E+00; -5.7878580E+00;  4.0000000E+04;  0.0000000E+00;  3.9018969E+04;  1.2279682E+00;  0.0000000E+00;  2.3669770E-02;  2.6395027E+04;
  1.3385733E+00;  9.9999998E-03;  2.7393043E-01;8420;  1.4627910E-02;  0.0000000E+00; -7.8490235E-02;  9.9360822E+02;  4.2053673E-01; -5.2949893E+03;3;  2.9576139E+01;  0.0000000E+00;  1.7863230E+01;0;  1.4621720E+00;  2.2894036E+03;  0.0000000E+00; -9.1401300E+00;  4.0000000E+04;  0.0000000E+00;  3.9039578E+04;  1.2447686E+00;  0.0000000E+00;  2.1740341E-01;  4.1600496E+04;
  1.3391454E+00;  9.9999998E-03;  2.8407326E-01;8421;  1.7393263E-02;  0.0000000E+00; -6.3253820E-02;  9.9206836E+02;  4.2061225E-01; -6.5706387E+03;3;  3.2638451E+01;  0.0000000E+00;  6.1260858E+00;0;  1.5960095E+00;  2.2856521E+03;  0.0000000E+00; -1.2008730E+01;  4.0000000E+04;  0.0000000E+00;  3.9022293E+04;  1.1666328E+00;  0.0000000E+00;  4.2937666E-01;  4.9153547E+04;
  1.3398273E+00;  9.9999998E-03;  2.9421428E-01;8422;  2.0340612E-02;  0.0000000E+00; -6.3914828E-02;  9.9018170E+02;  4.2069161E-01; -8.1335596E+03;3;  3.4591873E+01;  0.0000000E+00; -8.3508768E+00;0;  1.5220327E+00;  2.2814209E+03;  0.0000000E+00; -1.3642201E+01;  4.0000000E+04;  0.0000000E+00;  3.9000070E+04;  1.1068866E+00;  0.0000000E+00;  4.1514611E-01;  4.6372188E+04;
  1.3415914E+00;  9.9999998E-03;  3.0435327E-01;8423;  2.3408834E-02;  0.0000000E+00; -6.9308117E-02;  9.8814526E+02;  4.2066282E-01; -9.8204961E+03;3;  3.5875298E+01;  0.0000000E+00; -3.5500042E+00;0;  1.3898708E+00;  2.2778662E+03;  0.0000000E+00; -1.3879905E+01;  4.0000000E+04;  0.0000000E+00;  3.8988512E+04;  1.1096447E+00;  0.0000000E+00;  2.8022608E-01;  3.6807883E+04;
  1.3689923E+00;  9.9999998E-03;  2.4374363E-01;8478;  2.2752771E-04;  0.0000000E+00; -1.2036734E-01;  9.9071991E+02;  4.0054122E-01; -7.6873081E+03;3;  2.9685265E+01;  0.0000000E+00; -8.7672844E+00;0;  3.4945943E+00;  2.5115854E+03;  0.0000000E+00; -1.7997671E+00;  4.0000000E+04;  0.0000000E+00;  3.8929484E+04;  3.7210083E+00;  0.0000000E+00; -2.2641402E-01;  7.4839014E+03;
  1.3702861E+00;  9.9999998E-03;  2.5388134E-01;8479;  3.5765676E-03;  0.0000000E+00; -1.2301516E-01;  9.9030322E+02;  4.0026015E-01; -8.0324629E+03;3;  3.3902050E+01;  0.0000000E+00; -9.6913290E+00;0;  3.3392310E+00;  2.5131416E+03;  0.0000000E+00; -3.1391447E+00;  4.0000000E+04;  0.0000000E+00;  3.8931645E+04;  3.6354630E+00;  0.0000000E+00; -2.9623201E-01;  1.2066969E+04;
  1.3733566E+00;  9.9999998E-03;  2.6396564E-01;8480;  4.1644545E-03;  0.0000000E+00; -1.2355166E-01;  9.9005933E+02;  3.9966953E-01; -8.2344473E+03;3;  3.6112450E+01;  0.0000000E+00; -9.8109579E+00;0;  3.3102546E+00;  2.5168284E+03;  0.0000000E+00; -5.1351485E+00;  4.0000000E+04;  0.0000000E+00;  3.8965230E+04;  3.7172251E+00;  0.0000000E+00; -4.0697050E-01;  2.2053730E+04;
  1.3772889E+00;  9.9999998E-03;  2.7402574E-01;8481;  9.0269296E-04;  0.0000000E+00; -1.1286772E-01;  9.9001569E+02;  3.9903748E-01; -8.2705146E+03;3;  3.5720551E+01;  0.0000000E+00; -4.9000340E+00;0;  3.4671745E+00;  2.5198967E+03;  0.0000000E+00; -7.6457982E+00;  4.0000000E+04;  0.0000000E+00;  3.9034523E+04;  3.8985412E+00;  0.0000000E+00; -4.3136668E-01;  3.5735156E+04;
  1.3794618E+00;  9.9999998E-03;  2.8413293E-01;8482;  1.0017528E-04;  0.0000000E+00; -9.6868917E-02;  9.8942065E+02;  3.9863387E-01; -8.7633652E+03;3;  3.7854340E+01;  0.0000000E+00;  4.5505142E+00;0;  3.6412239E+00;  2.5216631E+03;  0.0000000E+00; -1.0013017E+01;  4.0000000E+04;  0.0000000E+00;  3.9064836E+04;  3.9574845E+00;  0.0000000E+00; -3.1626046E-01;  4.2986344E+04;
  1.3813744E+00;  9.9999998E-03;  2.9426238E-01;8483; -2.1438550E-03;  0.0000000E+00; -7.5437576E-02;  9.8832245E+02;  3.9819205E-01; -9.6730234E+03;3;  3.9720135E+01;  0.0000000E+00;  1.2371639E+01;0;  3.9776721E+00;  2.5244824E+03;  0.0000000E+00; -1.1478539E+01;  4.0000000E+04;  0.0000000E+00;  3.9068508E+04;  4.0146031E+00;  0.0000000E+00; -3.6930993E-02;  4.1941824E+04;
  1.3837298E+00;  9.9999998E-03;  3.0440772E-01;8484; -1.2150044E-02;  0.0000000E+00; -5.6379359E-02;  9.8674902E+02;  3.9752287E-01; -1.0976258E+04;3;  4.2591370E+01;  0.0000000E+00;  2.0253904E+00;0;  4.3865595E+00;  2.5307849E+03;  0.0000000E+00; -1.1458042E+01;  4.0000000E+04;  0.0000000E+00;  3.9052301E+04;  4.1285424E+00;  0.0000000E+00;  2.5801688E-01;  3.2386604E+04;
  1.4086730E+00;  9.9999998E-03;  2.4389958E-01;8539;  1.3579912E-01;  0.0000000E+00; -7.1658604E-02;  9.9138263E+02;  3.7541017E-01; -7.1375073E+03;3; -1.4781415E+02;  0.0000000E+00; -5.1869541E+01;0;  6.3879342E+00;  2.8614009E+03;  0.0000000E+00; -1.1256623E+00;  4.0000000E+04;  0.0000000E+00;  3.8882078E+04;  6.7831864E+00;  0.0000000E+00; -3.9525202E-01;  9.5034551E+03;
  1.4101890E+00;  9.9999998E-03;  2.5403276E-01;8540;  1.2044525E-01;  0.0000000E+00; -7.2507143E-02;  9.9077612E+02;  3.7481955E-01; -7.6398418E+03;3; -1.4719025E+02;  0.0000000E+00; -5.3116138E+01;0;  6.3315659E+00;  2.8674089E+03;  0.0000000E+00; -2.6328015E+00;  4.0000000E+04;  0.0000000E+00;  3.8870684E+04;  6.7947736E+00;  0.0000000E+00; -4.6320763E-01;  1.4921043E+04;
  1.4128861E+00;  9.9999998E-03;  2.6412129E-01;8541;  1.3643073E-01;  0.0000000E+00; -7.9485387E-02;  9.9049689E+02;  3.7405014E-01; -7.8710498E+03;3; -1.4959386E+02;  0.0000000E+00; -5.3384781E+01;0;  6.2783556E+00;  2.8763323E+03;  0.0000000E+00; -4.8448586E+00;  4.0000000E+04;  0.0000000E+00;  3.8880125E+04;  6.9022069E+00;  0.0000000E+00; -6.2385136E-01;  2.1430494E+04;
  1.4164559E+00;  9.9999998E-03;  2.7416012E-01;8542;  1.8480970E-01;  0.0000000E+00; -8.9123346E-02;  9.9096478E+02;  3.7323740E-01; -7.4833994E+03;3; -1.6036185E+02;  0.0000000E+00; -4.4151062E+01;0;  6.1935296E+00;  2.8864651E+03;  0.0000000E+00; -7.4249387E+00;  4.0000000E+04;  0.0000000E+00;  3.8941910E+04;  7.0825462E+00;  0.0000000E+00; -8.8901675E-01;  2.6571369E+04;
  1.4190238E+00;  9.9999998E-03;  2.8424269E-01;8543;  1.8996024E-01;  0.0000000E+00; -9.0669841E-02;  9.9107434E+02;  3.7249228E-01; -7.3925806E+03;3; -1.7121643E+02;  0.0000000E+00; -3.7390949E+01;0;  6.1412945E+00;  2.8966467E+03;  0.0000000E+00; -9.7245750E+00;  4.0000000E+04;  0.0000000E+00;  3.8982375E+04;  7.2034416E+00;  0.0000000E+00; -1.0621473E+00;  2.8310791E+04;
  1.4214970E+00;  9.9999998E-03;  2.9434747E-01;8544;  1.6877885E-01;  0.0000000E+00; -8.5526906E-02;  9.9081360E+02;  3.7151250E-01; -7.6084272E+03;3; -1.8335678E+02;  0.0000000E+00; -3.3050846E+01;0;  6.2330441E+00;  2.9113821E+03;  0.0000000E+00; -1.0866985E+01;  4.0000000E+04;  0.0000000E+00;  3.9008016E+04;  7.3267097E+00;  0.0000000E+00; -1.0936655E+00;  2.3906596E+04;
  1.4242398E+00;  9.9999998E-03;  3.0446446E-01;8545;  1.3899289E-01;  0.0000000E+00; -7.7609770E-02;  9.9012805E+02;  3.7024519E-01; -8.1761328E+03;3; -1.9686464E+02;  0.0000000E+00; -2.9592499E+01;0;  6.4552274E+00;  2.9317654E+03;  0.0000000E+00; -9.6542530E+00;  4.0000000E+04;  0.0000000E+00;  3.9025551E+04;  7.4754281E+00;  0.0000000E+00; -1.0202007E+00;  1.6397398E+04;
  1.4457333E+00;  9.9999998E-03;  2.4388674E-01;8600;  6.0007656E-01;  0.0000000E+00;  3.9170746E-02;  9.9713092E+02;  3.4790310E-01; -2.3759272E+03;3; -1.7181602E+02;  0.0000000E+00; -5.3818508E+01;0;  7.5592251E+00;  3.3698235E+03;  0.0000000E+00; -9.8358870E-01;  4.0000000E+04;  0.0000000E+00;  3.8848754E+04;  7.8333406E+00;  0.0000000E+00; -2.7411538E-01;  1.4472139E+04;
  1.4472624E+00;  9.9999998E-03;  2.5402465E-01;8601;  5.8681178E-01;  0.0000000E+00;  3.7080508E-02;  9.9660059E+02;  3.4709418E-01; -2.8151008E+03;3; -1.7440637E+02;  0.0000000E+00; -5.3929066E+01;0;  7.6317997E+00;  3.3826631E+03;  0.0000000E+00; -3.1456175E+00;  4.0000000E+04;  0.0000000E+00;  3.8827195E+04;  7.9079051E+00;  0.0000000E+00; -2.7610528E-01;  2.0639590E+04;
  1.4493423E+00;  9.9999998E-03;  2.6413479E-01;8602;  6.0178947E-01;  0.0000000E+00;  2.8901666E-02;  9.9636353E+02;  3.4624240E-01; -3.0113594E+03;3; -1.7236867E+02;  0.0000000E+00; -5.4588844E+01;0;  7.6343145E+00;  3.3979167E+03;  0.0000000E+00; -5.9391451E+00;  4.0000000E+04;  0.0000000E+00;  3.8811109E+04;  7.9648805E+00;  0.0000000E+00; -3.3056590E-01;  2.7329904E+04;
  1.4522977E+00;  9.9999998E-03;  2.7421325E-01;8603;  6.4781517E-01;  0.0000000E+00;  1.2615620E-02;  9.9673047E+02;  3.4521109E-01; -2.7074519E+03;3; -1.6898573E+02;  0.0000000E+00; -5.4927277E+01;0;  7.4681072E+00;  3.4191235E+03;  0.0000000E+00; -8.8755379E+00;  4.0000000E+04;  0.0000000E+00;  3.8819836E+04;  7.9931626E+00;  0.0000000E+00; -5.2505565E-01;  3.1072502E+04;
  1.4552356E+00;  9.9999998E-03;  2.8430253E-01;8604;  6.6351062E-01;  0.0000000E+00;  3.5889919E-03;  9.9707019E+02;  3.4395745E-01; -2.4260620E+03;3; -1.7153149E+02;  0.0000000E+00; -5.3330624E+01;0;  7.3177185E+00;  3.4459722E+03;  0.0000000E+00; -1.1153078E+01;  4.0000000E+04;  0.0000000E+00;  3.8830355E+04;  8.0105791E+00;  0.0000000E+00; -6.9286036E-01;  3.1969711E+04;
  1.4581702E+00;  9.9999998E-03;  2.9439560E-01;8605;  6.6467214E-01;  0.0000000E+00;  9.2867797E-04;  9.9719598E+02;  3.4238106E-01; -2.3218672E+03;3; -1.8029906E+02;  0.0000000E+00; -5.0044506E+01;0;  7.2371778E+00;  3.4801255E+03;  0.0000000E+00; -1.1399382E+01;  4.0000000E+04;  0.0000000E+00;  3.8853191E+04;  8.0153694E+00;  0.0000000E+00; -7.7819163E-01;  2.4578018E+04;
  1.4611821E+00;  9.9999998E-03;  3.0449805E-01;8606;  6.6110140E-01;  0.0000000E+00;  1.7196820E-03;  9.9678564E+02;  3.4066352E-01; -2.6615637E+03;3; -1.8987466E+02;  0.0000000E+00; -4.6774151E+01;0;  7.2168517E+00;  3.5177534E+03;  0.0000000E+00; -7.3731918E+00;  4.0000000E+04;  0.0000000E+00;  3.8881512E+04;  8.0037527E+00;  0.0000000E+00; -7.8690082E-01;  6.6057158E+03;
  1.4795711E+00;  9.9999998E-03;  2.4361880E-01;8661;  9.7610343E-01;  0.0000000E+00;  1.1738448E-01;  1.0032335E+03;  3.1856030E-01;  2.6769858E+03;3; -1.0226160E+02;  0.0000000E+00; -3.3893681E+01;0;  6.1168442E+00;  4.0657551E+03;  0.0000000E+00; -2.4770188E+00;  4.0000000E+04;  0.0000000E+00;  3.8866312E+04;  6.1998892E+00;  0.0000000E+00; -8.3045177E-02;  1.8544838E+04;
  1.4809558E+00;  9.9999998E-03;  2.5377941E-01;8662;  9.6570849E-01;  0.0000000E+00;  1.1633143E-01;  1.0030644E+03;  3.1774044E-01;  2.5369050E+03;3; -1.1108380E+02;  0.0000000E+00; -3.4080708E+01;0;  6.2384043E+00;  4.0848904E+03;  0.0000000E+00; -5.4162316E+00;  4.0000000E+04;  0.0000000E+00;  3.8846879E+04;  6.2868190E+00;  0.0000000E+00; -4.8414845E-02;  2.8275865E+04;
  1.4824674E+00;  9.9999998E-03;  2.6392993E-01;8663;  9.6398765E-01;  0.0000000E+00;  1.1162145E-01;  1.0029965E+03;  3.1693467E-01;  2.4807085E+03;3; -1.1230688E+02;  0.0000000E+00; -3.5274601E+01;0;  6.3272705E+00;  4.1059497E+03;  0.0000000E+00; -8.8532791E+00;  4.0000000E+04;  0.0000000E+00;  3.8820441E+04;  6.3432479E+00;  0.0000000E+00; -1.5977215E-02;  4.0570148E+04;
  1.4845588E+00;  9.9999998E-03;  2.7406317E-01;8664;  9.7545987E-01;  0.0000000E+00;  1.0309507E-01;  1.0031217E+03;  3.1593853E-01;  2.5842681E+03;3; -1.0931190E+02;  0.0000000E+00; -3.7328171E+01;0;  6.3093181E+00;  4.1344492E+03;  0.0000000E+00; -1.2147472E+01;  4.0000000E+04;  0.0000000E+00;  3.8794203E+04;  6.3350887E+00;  0.0000000E+00; -2.5770459E-02;  5.2475578E+04;
  1.4872564E+00;  9.9999998E-03;  2.8418118E-01;8665;  9.8833263E-01;  0.0000000E+00;  9.3699373E-02;  1.0032877E+03;  3.1456953E-01;  2.7215496E+03;3; -1.0653758E+02;  0.0000000E+00; -3.8867336E+01;0;  6.1777115E+00;  4.1743335E+03;  0.0000000E+00; -1.4152973E+01;  4.0000000E+04;  0.0000000E+00;  3.8778191E+04;  6.2636404E+00;  0.0000000E+00; -8.5929118E-02;  6.0085672E+04;
  1.4904244E+00;  9.9999998E-03;  2.9428378E-01;8666;  9.9809277E-01;  0.0000000E+00;  8.6855076E-02;  1.0031471E+03;  3.1271622E-01;  2.6051001E+03;3; -1.0597968E+02;  0.0000000E+00; -3.8820511E+01;0;  5.9849801E+00;  4.2270547E+03;  0.0000000E+00; -1.2706919E+01;  4.0000000E+04;  0.0000000E+00;  3.8788055E+04;  6.1403074E+00;  0.0000000E+00; -1.5532741E-01;  5.2960801E+04;
  1.4937626E+00;  9.9999998E-03;  3.0438650E-01;8667;  1.0073533E+00;  0.0000000E+00;  8.3575815E-02;  1.0023464E+03;  3.1085443E-01;  1.9421945E+03;3; -1.0780631E+02;  0.0000000E+00; -3.8855976E+01;0;  5.7968025E+00;  4.2795737E+03;  0.0000000E+00; -4.1892214E+00;  4.0000000E+04;  0.0000000E+00;  3.8815191E+04;  5.9877515E+00;  0.0000000E+00; -1.9094907E-01;  1.7417123E+04;
  1.5105668E+00;  9.9999998E-03;  2.4329482E-01;8722;  1.1265514E+00;  0.0000000E+00;  1.5163371E-01;  1.0060732E+03;  2.8987300E-01;  5.0257344E+03;3; -2.3415844E+00;  0.0000000E+00; -1.2404365E+01;0;  3.7907717E+00;  4.9339243E+03;  0.0000000E+00; -4.0865374E+00;  4.0000000E+04;  0.0000000E+00;  3.8897254E+04;  3.6827242E+00;  0.0000000E+00;  1.0804760E-01;  2.6150229E+04;
  1.5118318E+00;  9.9999998E-03;  2.5347483E-01;8723;  1.1302164E+00;  0.0000000E+00;  1.5050015E-01;  1.0063220E+03;  2.8914034E-01;  5.2314971E+03;3; -9.1206398E+00;  0.0000000E+00; -1.1903245E+01;0;  3.9003055E+00;  4.9598979E+03;  0.0000000E+00; -7.7786813E+00;  4.0000000E+04;  0.0000000E+00;  3.8881676E+04;  3.7635338E+00;  0.0000000E+00;  1.3677178E-01;  4.3261621E+04;
  1.5125669E+00;  9.9999998E-03;  2.6365763E-01;8724;  1.1319591E+00;  0.0000000E+00;  1.4786565E-01;  1.0064966E+03;  2.8859356E-01;  5.3759434E+03;3; -1.6825970E+01;  0.0000000E+00; -1.1527160E+01;0;  4.0531354E+00;  4.9815967E+03;  0.0000000E+00; -1.1989638E+01;  4.0000000E+04;  0.0000000E+00;  3.8853906E+04;  3.8709586E+00;  0.0000000E+00;  1.8217663E-01;  6.3346098E+04;
  1.5132693E+00;  9.9999998E-03;  2.7382705E-01;8725;  1.1319873E+00;  0.0000000E+00;  1.4308321E-01;  1.0065948E+03;  2.8803799E-01;  5.4571582E+03;3; -2.3525379E+01;  0.0000000E+00; -1.3040728E+01;0;  4.1912341E+00;  5.0051685E+03;  0.0000000E+00; -1.5624397E+01;  4.0000000E+04;  0.0000000E+00;  3.8821723E+04;  3.9660275E+00;  0.0000000E+00;  2.2520667E-01;  8.0440289E+04;
  1.5152930E+00;  9.9999998E-03;  2.8396866E-01;8726;  1.1375457E+00;  0.0000000E+00;  1.3590878E-01;  1.0064993E+03;  2.8686556E-01;  5.3778462E+03;3; -2.2871550E+01;  0.0000000E+00; -1.4204403E+01;0;  4.1627698E+00;  5.0499702E+03;  0.0000000E+00; -1.7548586E+01;  4.0000000E+04;  0.0000000E+00;  3.8801480E+04;  3.9377666E+00;  0.0000000E+00;  2.2500321E-01;  9.1248562E+04;
  1.5188367E+00;  9.9999998E-03;  2.9407939E-01;8727;  1.1464422E+00;  0.0000000E+00;  1.2975262E-01;  1.0056237E+03;  2.8484514E-01;  4.6530210E+03;3; -2.0921944E+01;  0.0000000E+00; -1.4537052E+01;0;  3.9700775E+00;  5.1216357E+03;  0.0000000E+00; -1.4652763E+01;  4.0000000E+04;  0.0000000E+00;  3.8811852E+04;  3.7738943E+00;  0.0000000E+00;  1.9618309E-01;  8.1482531E+04;
  1.5227677E+00;  9.9999998E-03;  3.0418223E-01;8728;  1.1605202E+00;  0.0000000E+00;  1.2679720E-01;  1.0037950E+03;  2.8301817E-01;  3.1397383E+03;3; -1.6488634E+01;  0.0000000E+00; -1.4990268E+01;0;  3.7563350E+00;  5.1826030E+03;  0.0000000E+00; -5.8006847E-01;  4.0000000E+04;  0.0000000E+00;  3.8844066E+04;  3.5711334E+00;  0.0000000E+00;  1.8520159E-01;  2.3782039E+04;
  1.5383129E+00;  9.9999998E-03;  2.7361566E-01;8786;  1.1661981E+00;  0.0000000E+00;  1.4448072E-01;  1.0070263E+03;  2.6331010E-01;  5.8109600E+03;3;  2.4392588E+01;  0.0000000E+00;  4.2573938E+00;0;  2.3943365E+00;  5.9905850E+03;  0.0000000E+00; -1.6612219E+01;  4.0000000E+04;  0.0000000E+00;  3.8859340E+04;  2.1205835E+00;  0.0000000E+00;  2.7375296E-01;  9.1052078E+04;
  1.5392691E+00;  9.9999998E-03;  2.6342329E-01;8785;  1.1598471E+00;  0.0000000E+00;  1.4696284E-01;  1.0065666E+03;  2.6321661E-01;  5.4306616E+03;3;  2.9021156E+01;  0.0000000E+00;  6.5273519E+00;0;  2.2044139E+00;  5.9855283E+03;  0.0000000E+00; -1.3929157E+01;  4.0000000E+04;  0.0000000E+00;  3.8889004E+04;  1.9463594E+00;  0.0000000E+00;  2.5805455E-01;  8.2277641E+04;
  1.5393416E+00;  9.9999998E-03;  2.8377563E-01;8787;  1.1721289E+00;  0.0000000E+00;  1.3934527E-01;  1.0069017E+03;  2.6252416E-01;  5.7076797E+03;3;  2.0442532E+01;  0.0000000E+00;  3.8033452E+00;0;  2.4270744E+00;  6.0319854E+03;  0.0000000E+00; -1.7999861E+01;  4.0000000E+04;  0.0000000E+00;  3.8841281E+04;  2.1641140E+00;  0.0000000E+00;  2.6296043E-01;  9.5222922E+04;
  1.5397151E+00;  9.9999998E-03;  2.4302499E-01;8783;  1.1441456E+00;  0.0000000E+00;  1.4787799E-01;  1.0057467E+03;  2.6330480E-01;  4.7525239E+03;3;  3.2364391E+01;  0.0000000E+00;  8.6631117E+00;0;  1.9142818E+00;  5.9710630E+03;  0.0000000E+00; -5.2554040E+00;  4.0000000E+04;  0.0000000E+00;  3.8929477E+04;  1.6744819E+00;  0.0000000E+00;  2.3980004E-01;  3.7990449E+04;
  1.5401459E+00;  9.9999998E-03;  2.5322315E-01;8784;  1.1521721E+00;  0.0000000E+00;  1.4760412E-01;  1.0061102E+03;  2.6306731E-01;  5.0530532E+03;3;  3.0623907E+01;  0.0000000E+00;  8.3836260E+00;0;  2.0178807E+00;  5.9854023E+03;  0.0000000E+00; -9.6740370E+00;  4.0000000E+04;  0.0000000E+00;  3.8912984E+04;  1.7749867E+00;  0.0000000E+00;  2.4289398E-01;  6.2139551E+04;
  1.5432746E+00;  9.9999998E-03;  2.9388934E-01;8788;  1.1807534E+00;  0.0000000E+00;  1.3377993E-01;  1.0049808E+03;  2.6049942E-01;  4.1187061E+03;3;  2.0162409E+01;  0.0000000E+00;  4.2476406E+00;0;  2.2482805E+00;  6.1171904E+03;  0.0000000E+00; -1.4902148E+01;  4.0000000E+04;  0.0000000E+00;  3.8861398E+04;  2.0180099E+00;  0.0000000E+00;  2.3027052E-01;  8.6611305E+04;
  1.5476456E+00;  9.9999998E-03;  3.0398968E-01;8789;  1.1952996E+00;  0.0000000E+00;  1.3165855E-01;  1.0016017E+03;  2.5905523E-01;  1.3242994E+03;3;  2.0272989E+01;  0.0000000E+00;  4.9081168E+00;0;  2.0811148E+00;  6.1613477E+03;  0.0000000E+00;  4.2826362E+00;  4.0000000E+04;  0.0000000E+00;  3.8905426E+04;  1.8492558E+00;  0.0000000E+00;  2.3185907E-01;  1.6272607E+04;
  1.5612239E+00;  9.9999998E-03;  2.7345645E-01;8847;  1.1687379E+00;  0.0000000E+00;  1.3072044E-01;  1.0057724E+03;  2.4174887E-01;  4.7704756E+03;3;  3.2048107E+01;  0.0000000E+00;  1.2179270E+01;0;  1.1965069E+00;  7.0858706E+03;  0.0000000E+00; -1.4448018E+01;  4.0000000E+04;  0.0000000E+00;  3.8895680E+04;  9.2434657E-01;  0.0000000E+00;  2.7216029E-01;  7.5882711E+04;
  1.5617107E+00;  9.9999998E-03;  2.8363138E-01;8848;  1.1773666E+00;  0.0000000E+00;  1.2705976E-01;  1.0057963E+03;  2.4125521E-01;  4.7901909E+03;3;  3.0277843E+01;  0.0000000E+00;  1.1766623E+01;0;  1.2067808E+00;  7.1249385E+03;  0.0000000E+00; -1.5262465E+01;  4.0000000E+04;  0.0000000E+00;  3.8873840E+04;  9.7799057E-01;  0.0000000E+00;  2.2879027E-01;  7.4914523E+04;
  1.5629576E+00;  9.9999998E-03;  2.6325163E-01;8846;  1.1601549E+00;  0.0000000E+00;  1.3100523E-01;  1.0047068E+03;  2.4126558E-01;  3.8896619E+03;3;  3.3268528E+01;  0.0000000E+00;  1.3629260E+01;0;  1.0712535E+00;  7.0962217E+03;  0.0000000E+00; -1.4272338E+01;  4.0000000E+04;  0.0000000E+00;  3.8927496E+04;  7.8125751E-01;  0.0000000E+00;  2.8999606E-01;  8.1033531E+04;
  1.5649837E+00;  9.9999998E-03;  2.5305924E-01;8845;  1.1515427E+00;  0.0000000E+00;  1.2881793E-01;  1.0038099E+03;  2.4059977E-01;  3.1482095E+03;3;  3.4414787E+01;  0.0000000E+00;  1.4378210E+01;0;  9.3551886E-01;  7.1226309E+03;  0.0000000E+00; -1.1752328E+01;  4.0000000E+04;  0.0000000E+00;  3.8941754E+04;  6.3626045E-01;  0.0000000E+00;  2.9925838E-01;  7.1735117E+04;
  1.5653683E+00;  9.9999998E-03;  2.4286608E-01;8844;  1.1430483E+00;  0.0000000E+00;  1.2804145E-01;  1.0036045E+03;  2.4043658E-01;  2.9784409E+03;3;  3.5543461E+01;  0.0000000E+00;  1.4819729E+01;0;  8.7038505E-01;  7.1278604E+03;  0.0000000E+00; -6.8397269E+00;  4.0000000E+04;  0.0000000E+00;  3.8955672E+04;  5.5297071E-01;  0.0000000E+00;  3.1741437E-01;  4.6550195E+04;
  1.5653641E+00;  9.9999998E-03;  2.9375106E-01;8849;  1.1870520E+00;  0.0000000E+00;  1.2232923E-01;  1.0028679E+03;  2.3955987E-01;  2.3697903E+03;3;  2.9453173E+01;  0.0000000E+00;  1.2752674E+01;0;  1.0774591E+00;  7.2061646E+03;  0.0000000E+00; -1.2218375E+01;  4.0000000E+04;  0.0000000E+00;  3.8901219E+04;  8.9763838E-01;  0.0000000E+00;  1.7982069E-01;  6.9274578E+04;
  1.5690632E+00;  9.9999998E-03;  3.0385509E-01;8850;  1.2019496E+00;  0.0000000E+00;  1.2071712E-01;  9.9826447E+02;  2.3887070E-01; -1.4338446E+03;3;  3.0603785E+01;  0.0000000E+00;  1.4522386E+01;0;  9.9641204E-01;  7.1973745E+03;  0.0000000E+00;  1.2444180E+01;  4.0000000E+04;  0.0000000E+00;  3.8954363E+04;  8.2556397E-01;  0.0000000E+00;  1.7084810E-01;  1.2163049E+04;
  1.5826150E+00;  9.9999998E-03;  2.7335367E-01;8908;  1.1670234E+00;  0.0000000E+00;  1.1323060E-01;  1.0036407E+03;  2.2327989E-01;  3.0060625E+03;3;  3.4105011E+01;  0.0000000E+00;  1.5323979E+01;0;  5.1739848E-01;  8.2687891E+03;  0.0000000E+00; -1.0523496E+01;  4.0000000E+04;  0.0000000E+00;  3.8928223E+04;  2.4231064E-01;  0.0000000E+00;  2.7508786E-01;  4.9137434E+04;
  1.5828855E+00;  9.9999998E-03;  2.8353569E-01;8909;  1.1762887E+00;  0.0000000E+00;  1.1051128E-01;  1.0036708E+03;  2.2296137E-01;  3.0308245E+03;3;  3.3282333E+01;  0.0000000E+00;  1.5629745E+01;0;  4.8507351E-01;  8.3055254E+03;  0.0000000E+00; -1.1823064E+01;  4.0000000E+04;  0.0000000E+00;  3.8903375E+04;  2.8066555E-01;  0.0000000E+00;  2.0440798E-01;  5.1237949E+04;
  1.5842949E+00;  9.9999998E-03;  2.6314491E-01;8907;  1.1576638E+00;  0.0000000E+00;  1.1307410E-01;  1.0023412E+03;  2.2276290E-01;  1.9329414E+03;3;  3.5002964E+01;  0.0000000E+00;  1.5980091E+01;0;  4.8328087E-01;  8.2825293E+03;  0.0000000E+00; -1.1868859E+01;  4.0000000E+04;  0.0000000E+00;  3.8963328E+04;  1.6286555E-01;  0.0000000E+00;  3.2041532E-01;  5.9136160E+04;
  1.5857903E+00;  9.9999998E-03;  2.9366621E-01;8910;  1.1859317E+00;  0.0000000E+00;  1.0638895E-01;  1.0001232E+03;  2.2177714E-01;  1.0175683E+02;3;  3.2656956E+01;  0.0000000E+00;  1.6351614E+01;0;  3.8873425E-01;  8.3638906E+03;  0.0000000E+00; -7.4971328E+00;  4.0000000E+04;  0.0000000E+00;  3.8929641E+04;  2.5846934E-01;  0.0000000E+00;  1.3026491E-01;  4.5105410E+04;
  1.5866798E+00;  9.9999998E-03;  2.5295430E-01;8906;  1.1484499E+00;  0.0000000E+00;  1.0992600E-01;  1.0011518E+03;  2.2192496E-01;  9.5080054E+02;3;  3.6238327E+01;  0.0000000E+00;  1.7171907E+01;0;  4.2098916E-01;  8.3267803E+03;  0.0000000E+00; -1.2129689E+01;  4.0000000E+04;  0.0000000E+00;  3.8974727E+04;  7.7461407E-02;  0.0000000E+00;  3.4352776E-01;  6.2745984E+04;
  1.5879118E+00;  9.9999998E-03;  3.0378568E-01;8911;  1.1998223E+00;  0.0000000E+00;  1.0543070E-01;  9.9581683E+02;  2.2188361E-01; -3.4529397E+03;3;  3.4912415E+01;  0.0000000E+00;  1.8609320E+01;0;  3.6392665E-01;  8.2903730E+03;  0.0000000E+00;  2.2667227E+01;  4.0000000E+04;  0.0000000E+00;  3.8973359E+04;  2.6710999E-01;  0.0000000E+00;  9.6816659E-02;  4.7572934E+04;
  1.5878663E+00;  9.9999998E-03;  2.4277638E-01;8905;  1.1395721E+00;  0.0000000E+00;  1.0801656E-01;  1.0010009E+03;  2.2140481E-01;  8.2616492E+02;3;  3.7583584E+01;  0.0000000E+00;  1.7977404E+01;0;  3.9030612E-01;  8.3621592E+03;  0.0000000E+00; -8.2294912E+00;  4.0000000E+04;  0.0000000E+00;  3.8979938E+04;  2.2168403E-02;  0.0000000E+00;  3.6813772E-01;  4.5405688E+04;
  1.6028693E+00;  9.9999998E-03;  2.7330434E-01;8968;  1.1635308E+00;  0.0000000E+00;  9.6201345E-02;  1.0006614E+03;  2.0745949E-01;  5.4551721E+02;3;  3.5868000E+01;  0.0000000E+00;  1.7062801E+01;0;  1.6831276E-01;  9.5234805E+03;  0.0000000E+00; -8.5946922E+00;  4.0000000E+04;  0.0000000E+00;  3.8954938E+04; -1.2119152E-01;  0.0000000E+00;  2.8950429E-01;  3.0343004E+04;
  1.6028714E+00;  9.9999998E-03;  2.8348798E-01;8969;  1.1729407E+00;  0.0000000E+00;  9.4111495E-02;  1.0005367E+03;  2.0728175E-01;  4.4258752E+02;3;  3.5045044E+01;  0.0000000E+00;  1.7336449E+01;0;  1.0756936E-01;  9.5536846E+03;  0.0000000E+00; -9.7198744E+00;  4.0000000E+04;  0.0000000E+00;  3.8930262E+04; -9.2269801E-02;  0.0000000E+00;  1.9983916E-01;  3.3366879E+04;
  1.6043752E+00;  9.9999998E-03;  2.6310015E-01;8967;  1.1538370E+00;  0.0000000E+00;  9.5635623E-02;  9.9949030E+02;  2.0702204E-01; -4.2027667E+02;3;  3.7022491E+01;  0.0000000E+00;  1.7845888E+01;0;  1.8421613E-01;  9.5374561E+03;  0.0000000E+00; -9.7387400E+00;  4.0000000E+04;  0.0000000E+00;  3.8988355E+04; -1.6347630E-01;  0.0000000E+00;  3.4769243E-01;  3.8056039E+04;
  1.6049458E+00;  9.9999998E-03;  2.9362652E-01;8970;  1.1824349E+00;  0.0000000E+00;  9.0933971E-02;  9.9665594E+02;  2.0663941E-01; -2.7573684E+03;3;  3.4785316E+01;  0.0000000E+00;  1.7987963E+01;0;  2.5350772E-02;  9.5698105E+03;  0.0000000E+00; -1.2734170E+00;  4.0000000E+04;  0.0000000E+00;  3.8952691E+04; -8.4906399E-02;  0.0000000E+00;  1.1025717E-01;  2.0955080E+04;
  1.6064711E+00;  9.9999998E-03;  2.5291193E-01;8966;  1.1442405E+00;  0.0000000E+00;  9.2416570E-02;  9.9849872E+02;  2.0630124E-01; -1.2377418E+03;3;  3.8212704E+01;  0.0000000E+00;  1.9241383E+01;0;  1.7186506E-01;  9.5863945E+03;  0.0000000E+00; -1.0813822E+01;  4.0000000E+04;  0.0000000E+00;  3.8998762E+04; -2.0451452E-01;  0.0000000E+00;  3.7637958E-01;  4.4376117E+04;
  1.6078860E+00;  9.9999998E-03;  2.4274261E-01;8965;  1.1349111E+00;  0.0000000E+00;  8.9570582E-02;  9.9855060E+02;  2.0569873E-01; -1.1948645E+03;3;  3.9396065E+01;  0.0000000E+00;  2.1138346E+01;0;  1.6666779E-01;  9.6425762E+03;  0.0000000E+00; -8.0730886E+00;  4.0000000E+04;  0.0000000E+00;  3.8997707E+04; -2.3132524E-01;  0.0000000E+00;  3.9799303E-01;  3.4370414E+04;
  1.6216133E+00;  9.9999998E-03;  2.7330869E-01;9027;  1.1586375E+00;  0.0000000E+00;  8.1462786E-02;  9.9760303E+02;  1.9408783E-01; -1.9738259E+03;3;  3.8036526E+01;  0.0000000E+00;  1.8026352E+01;0;  1.0266453E-02;  1.0820930E+04;  0.0000000E+00; -7.0685167E+00;  4.0000000E+04;  0.0000000E+00;  3.8971172E+04; -3.0325875E-01;  0.0000000E+00;  3.1352520E-01;  1.4689322E+04;
  1.6214446E+00;  9.9999998E-03;  2.8349325E-01;9028;  1.1680162E+00;  0.0000000E+00;  7.9470351E-02;  9.9712585E+02;  1.9403023E-01; -2.3667620E+03;3;  3.7256924E+01;  0.0000000E+00;  1.8384636E+01;0; -7.2338685E-02;  1.0837905E+04;  0.0000000E+00; -7.5664244E+00;  4.0000000E+04;  0.0000000E+00;  3.8944254E+04; -2.8036767E-01;  0.0000000E+00;  2.0802899E-01;  1.9152588E+04;
  1.6229591E+00;  9.9999998E-03;  2.6310375E-01;9026;  1.1488311E+00;  0.0000000E+00;  8.0947973E-02;  9.9671851E+02;  1.9372661E-01; -2.7018191E+03;3;  3.8995190E+01;  0.0000000E+00;  1.8784231E+01;0;  5.3181052E-02;  1.0835276E+04;  0.0000000E+00; -7.0009332E+00;  4.0000000E+04;  0.0000000E+00;  3.9007750E+04; -3.2736132E-01;  0.0000000E+00;  3.8054237E-01;  1.7459156E+04;
  1.6225351E+00;  9.9999998E-03;  2.9363948E-01;9029;  1.1774535E+00;  0.0000000E+00;  7.7115454E-02;  9.9361255E+02;  1.9387087E-01; -5.2593638E+03;3;  3.6704311E+01;  0.0000000E+00;  1.8822878E+01;0; -1.5241948E-01;  1.0805350E+04;  0.0000000E+00;  7.7857518E+00;  4.0000000E+04;  0.0000000E+00;  3.8957250E+04; -2.5819144E-01;  0.0000000E+00;  1.0577197E-01;  6.6290298E+03;
  1.6247391E+00;  9.9999998E-03;  2.5290453E-01;9025;  1.1389679E+00;  0.0000000E+00;  7.7860110E-02;  9.9611322E+02;  1.9314535E-01; -3.1996516E+03;3;  4.0069942E+01;  0.0000000E+00;  2.0666576E+01;0;  6.1990142E-02;  1.0885373E+04;  0.0000000E+00; -7.5725932E+00;  4.0000000E+04;  0.0000000E+00;  3.9024711E+04; -3.4713507E-01;  0.0000000E+00;  4.0912521E-01;  2.2036799E+04;
  1.6261773E+00;  9.9999998E-03;  2.4272379E-01;9024;  1.1291729E+00;  0.0000000E+00;  7.3472947E-02;  9.9644257E+02;  1.9259019E-01; -2.9281501E+03;3;  4.1416584E+01;  0.0000000E+00;  2.4705421E+01;0;  5.8545291E-02;  1.0953147E+04;  0.0000000E+00; -5.7645273E+00;  4.0000000E+04;  0.0000000E+00;  3.9022199E+04; -3.5859168E-01;  0.0000000E+00;  4.1713697E-01;  1.7888564E+04;
  1.6384671E+00;  9.9999998E-03;  2.9370588E-01;9088;  1.1714123E+00;  0.0000000E+00;  6.5717235E-02;  9.9262280E+02;  1.8308812E-01; -6.0643145E+03;3;  3.8965446E+01;  0.0000000E+00;  1.9353840E+01;0; -2.3319018E-01;  1.2085598E+04;  0.0000000E+00;  1.8928854E+01;  4.0000000E+04;  0.0000000E+00;  3.8934688E+04; -3.5020918E-01;  0.0000000E+00;  1.1701899E-01;  3.4379930E+04;
  1.6385490E+00;  9.9999998E-03;  2.8354973E-01;9087;  1.1618376E+00;  0.0000000E+00;  6.6809945E-02;  9.9443359E+02;  1.8289165E-01; -4.5757412E+03;3;  3.9453079E+01;  0.0000000E+00;  1.8986235E+01;0; -1.5948367E-01;  1.2141973E+04;  0.0000000E+00; -2.7846065E+00;  4.0000000E+04;  0.0000000E+00;  3.8940402E+04; -3.8097653E-01;  0.0000000E+00;  2.2149286E-01;  2.6701892E+03;
  1.6389877E+00;  9.9999998E-03;  2.7336395E-01;9086;  1.1525601E+00;  0.0000000E+00;  6.8784170E-02;  9.9493323E+02;  1.8282321E-01; -4.1647905E+03;3;  4.0037708E+01;  0.0000000E+00;  1.8278440E+01;0; -6.3193291E-02;  1.2139966E+04;  0.0000000E+00; -4.5535603E+00;  4.0000000E+04;  0.0000000E+00;  3.8972828E+04; -4.0336472E-01;  0.0000000E+00;  3.4017143E-01;  4.1148628E+03;
  1.6402868E+00;  9.9999998E-03;  2.6315612E-01;9085;  1.1427467E+00;  0.0000000E+00;  6.8448342E-02;  9.9416815E+02;  1.8250690E-01; -4.7929448E+03;3;  4.1016037E+01;  0.0000000E+00;  1.9439554E+01;0; -6.5279901E-03;  1.2153153E+04;  0.0000000E+00; -3.6200371E+00;  4.0000000E+04;  0.0000000E+00;  3.9015570E+04; -4.2144376E-01;  0.0000000E+00;  4.1491577E-01;  9.5982080E+03;
  1.6418754E+00;  9.9999998E-03;  2.5294834E-01;9084;  1.1326519E+00;  0.0000000E+00;  6.4994037E-02;  9.9378693E+02;  1.8202302E-01; -5.1052871E+03;3;  4.2332546E+01;  0.0000000E+00;  2.2935202E+01;0;  4.2611361E-03;  1.2204407E+04;  0.0000000E+00; -3.2282932E+00;  4.0000000E+04;  0.0000000E+00;  3.9038371E+04; -4.3277302E-01;  0.0000000E+00;  4.3703416E-01;  1.2077661E+04;
  1.6433342E+00;  9.9999998E-03;  2.4275313E-01;9083;  1.1223881E+00;  0.0000000E+00;  5.9048265E-02;  9.9429309E+02;  1.8151757E-01; -4.6885308E+03;3;  4.3665646E+01;  0.0000000E+00;  2.7322865E+01;0; -7.4442029E-03;  1.2281431E+04;  0.0000000E+00; -2.1520100E+00;  4.0000000E+04;  0.0000000E+00;  3.9037742E+04; -4.3641007E-01;  0.0000000E+00;  4.2896587E-01;  1.2285516E+04;
  1.6532634E+00;  9.9999998E-03;  2.9382083E-01;9147;  1.1643785E+00;  0.0000000E+00;  5.6305710E-02;  9.9387628E+02;  1.7386208E-01; -5.0242871E+03;3;  4.1107605E+01;  0.0000000E+00;  1.9054169E+01;0; -2.6500010E-01;  1.3429649E+04;  0.0000000E+00;  2.6824766E+01;  4.0000000E+04;  0.0000000E+00;  3.8885613E+04; -4.0476498E-01;  0.0000000E+00;  1.3976488E-01;  4.6134234E+04;
  1.6543406E+00;  9.9999998E-03;  2.8365466E-01;9146;  1.1547598E+00;  0.0000000E+00;  5.6418214E-02;  9.9326788E+02;  1.7350887E-01; -5.5225825E+03;3;  4.1519489E+01;  0.0000000E+00;  1.8452166E+01;0; -1.9545275E-01;  1.3467952E+04;  0.0000000E+00;  4.6995435E+00;  4.0000000E+04;  0.0000000E+00;  3.8915621E+04; -4.4002920E-01;  0.0000000E+00;  2.4457645E-01;  1.4650559E+04;
  1.6551378E+00;  9.9999998E-03;  2.7346814E-01;9145;  1.1456267E+00;  0.0000000E+00;  5.7964530E-02;  9.9318353E+02;  1.7333765E-01; -5.5911157E+03;3;  4.2030220E+01;  0.0000000E+00;  1.7984526E+01;0; -9.6661359E-02;  1.3469922E+04;  0.0000000E+00; -1.4254469E-01;  4.0000000E+04;  0.0000000E+00;  3.8955879E+04; -4.6371490E-01;  0.0000000E+00;  3.6705354E-01;  1.7283977E+04;
  1.6565036E+00;  9.9999998E-03;  2.6326087E-01;9144;  1.1358356E+00;  0.0000000E+00;  5.7187594E-02;  9.9209650E+02;  1.7304575E-01; -6.4814521E+03;3;  4.3176212E+01;  0.0000000E+00;  2.0204666E+01;0; -3.9712399E-02;  1.3474324E+04;  0.0000000E+00;  6.5658754E-01;  4.0000000E+04;  0.0000000E+00;  3.9004086E+04; -4.8055029E-01;  0.0000000E+00;  4.4083789E-01;  2.4400945E+04;
  1.6580831E+00;  9.9999998E-03;  2.5305107E-01;9143;  1.1254102E+00;  0.0000000E+00;  5.2515589E-02;  9.9148090E+02;  1.7263246E-01; -6.9846035E+03;3;  4.4636871E+01;  0.0000000E+00;  2.5302641E+01;0; -4.0340453E-02;  1.3518182E+04;  0.0000000E+00;  1.2611319E+00;  4.0000000E+04;  0.0000000E+00;  3.9031750E+04; -4.8973483E-01;  0.0000000E+00;  4.4939438E-01;  2.7316957E+04;
  1.6595103E+00;  9.9999998E-03;  2.4284613E-01;9142;  1.1147826E+00;  0.0000000E+00;  4.5537792E-02;  9.9202826E+02;  1.7219162E-01; -6.5343931E+03;3;  4.5909702E+01;  0.0000000E+00;  2.9883142E+01;0; -6.0724348E-02;  1.3598115E+04;  0.0000000E+00;  2.4529359E+00;  4.0000000E+04;  0.0000000E+00;  3.9035293E+04; -4.9021253E-01;  0.0000000E+00;  4.2948818E-01;  2.8343207E+04;
  1.6691792E+00;  9.9999998E-03;  2.8380343E-01;9204;  1.1470683E+00;  0.0000000E+00;  4.8079785E-02;  9.9370929E+02;  1.6554047E-01; -5.1480493E+03;3;  4.3722176E+01;  0.0000000E+00;  1.8252382E+01;0; -2.0051447E-01;  1.4816630E+04;  0.0000000E+00;  1.1469430E+01;  4.0000000E+04;  0.0000000E+00;  3.8870480E+04; -4.7759512E-01;  0.0000000E+00;  2.7708066E-01;  2.2601309E+04;
  1.6703367E+00;  9.9999998E-03;  2.7361909E-01;9203;  1.1380787E+00;  0.0000000E+00;  4.8989672E-02;  9.9253076E+02;  1.6531765E-01; -6.1111904E+03;3;  4.4248821E+01;  0.0000000E+00;  1.7843452E+01;0; -1.0715109E-01;  1.4804499E+04;  0.0000000E+00;  4.8073301E+00;  4.0000000E+04;  0.0000000E+00;  3.8919719E+04; -5.0365347E-01;  0.0000000E+00;  3.9650238E-01;  2.7914641E+04;
  1.6717759E+00;  9.9999998E-03;  2.6341432E-01;9202;  1.1283072E+00;  0.0000000E+00;  4.7359139E-02;  9.9083185E+02;  1.6506147E-01; -7.4992007E+03;3;  4.5472710E+01;  0.0000000E+00;  2.1593954E+01;0; -6.1088413E-02;  1.4787521E+04;  0.0000000E+00;  5.5590968E+00;  4.0000000E+04;  0.0000000E+00;  3.8974215E+04; -5.2203417E-01;  0.0000000E+00;  4.6094576E-01;  3.8509746E+04;
  1.6733350E+00;  9.9999998E-03;  2.5320217E-01;9201;  1.1176407E+00;  0.0000000E+00;  4.1489791E-02;  9.8975641E+02;  1.6472420E-01; -8.3763926E+03;3;  4.6995590E+01;  0.0000000E+00;  2.7279722E+01;0; -7.7749223E-02;  1.4811144E+04;  0.0000000E+00;  6.9938221E+00;  4.0000000E+04;  0.0000000E+00;  3.9010914E+04; -5.3200185E-01;  0.0000000E+00;  4.5425263E-01;  4.5193805E+04;
  1.6747376E+00;  9.9999998E-03;  2.4299051E-01;9200;  1.1067808E+00;  0.0000000E+00;  3.3626214E-02;  9.9005048E+02;  1.6435434E-01; -8.1336943E+03;3;  4.7787746E+01;  0.0000000E+00;  3.1926605E+01;0; -1.0877463E-01;  1.4882822E+04;  0.0000000E+00;  8.7398977E+00;  4.0000000E+04;  0.0000000E+00;  3.9020270E+04; -5.3163391E-01;  0.0000000E+00;  4.2285928E-01;  4.8448977E+04;
  1.6834071E+00;  9.9999998E-03;  2.8399265E-01;9261;  1.1387655E+00;  0.0000000E+00;  4.0846944E-02;  9.9529352E+02;  1.5873398E-01; -3.8405918E+03;3;  4.5893307E+01;  0.0000000E+00;  1.7732185E+01;0; -1.9368285E-01;  1.6175883E+04;  0.0000000E+00;  1.3731206E+01;  4.0000000E+04;  0.0000000E+00;  3.8806844E+04; -5.0129396E-01;  0.0000000E+00;  3.0761111E-01;  1.5228577E+04;
  1.6847430E+00;  9.9999998E-03;  2.7381530E-01;9260;  1.1300116E+00;  0.0000000E+00;  4.1572243E-02;  9.9322821E+02;  1.5851264E-01; -5.5242593E+03;3;  4.6522690E+01;  0.0000000E+00;  1.8168446E+01;0; -1.0316935E-01;  1.6143647E+04;  0.0000000E+00;  9.0492458E+00;  4.0000000E+04;  0.0000000E+00;  3.8862145E+04; -5.2948165E-01;  0.0000000E+00;  4.2631230E-01;  3.0850957E+04;
  1.6862538E+00;  9.9999998E-03;  2.6361394E-01;9259;  1.1203352E+00;  0.0000000E+00;  3.9274856E-02;  9.9068848E+02;  1.5829603E-01; -7.5934492E+03;3;  4.7828823E+01;  0.0000000E+00;  2.2609976E+01;0; -6.8868607E-02;  1.6091595E+04;  0.0000000E+00;  1.0629193E+01;  4.0000000E+04;  0.0000000E+00;  3.8926012E+04; -5.5051386E-01;  0.0000000E+00;  4.8164526E-01;  4.8017184E+04;
  1.6878438E+00;  9.9999998E-03;  2.5340137E-01;9258;  1.1095730E+00;  0.0000000E+00;  3.2273181E-02;  9.8875214E+02;  1.5802783E-01; -9.1691357E+03;3;  4.9028114E+01;  0.0000000E+00;  2.8750736E+01;0; -1.0544100E-01;  1.6077861E+04;  0.0000000E+00;  1.2876465E+01;  4.0000000E+04;  0.0000000E+00;  3.8973746E+04; -5.6301463E-01;  0.0000000E+00;  4.5757362E-01;  5.9140504E+04;
  1.6893016E+00;  9.9999998E-03;  2.4318658E-01;9257;  1.0986446E+00;  0.0000000E+00;  2.3320802E-02;  9.8830255E+02;  1.5772445E-01; -9.5323193E+03;3;  4.9246353E+01;  0.0000000E+00;  3.3237274E+01;0; -1.5303156E-01;  1.6123494E+04;  0.0000000E+00;  1.4945029E+01;  4.0000000E+04;  0.0000000E+00;  3.8991531E+04; -5.6360012E-01;  0.0000000E+00;  4.1056857E-01;  6.4809109E+04;
  1.6973432E+00;  9.9999998E-03;  2.8421253E-01;9318;  1.1300560E+00;  0.0000000E+00;  3.3894762E-02;  9.9707812E+02;  1.5290502E-01; -2.3761550E+03;3;  4.8173275E+01;  0.0000000E+00;  1.7951719E+01;0; -1.8766418E-01;  1.7510830E+04;  0.0000000E+00;  1.1416302E+01;  4.0000000E+04;  0.0000000E+00;  3.8736734E+04; -5.1332790E-01;  0.0000000E+00;  3.2566372E-01;  5.7030444E+03;
  1.6986111E+00;  9.9999998E-03;  2.7405137E-01;9317;  1.1213301E+00;  0.0000000E+00;  3.4319151E-02;  9.9504529E+02;  1.5271437E-01; -4.0279028E+03;3;  4.8981075E+01;  0.0000000E+00;  1.9354919E+01;0; -1.0797188E-01;  1.7478600E+04;  0.0000000E+00;  9.7702007E+00;  4.0000000E+04;  0.0000000E+00;  3.8787492E+04; -5.4517180E-01;  0.0000000E+00;  4.3719992E-01;  2.1527236E+04;
  1.7001265E+00;  9.9999998E-03;  2.6385912E-01;9316;  1.1118802E+00;  0.0000000E+00;  3.1508185E-02;  9.9172412E+02;  1.5253957E-01; -6.7249956E+03;3;  5.0081623E+01;  0.0000000E+00;  2.4014097E+01;0; -8.4478080E-02;  1.7388250E+04;  0.0000000E+00;  1.3989826E+01;  4.0000000E+04;  0.0000000E+00;  3.8856504E+04; -5.6892335E-01;  0.0000000E+00;  4.8444527E-01;  4.9131117E+04;
  1.7017618E+00;  9.9999998E-03;  2.5365171E-01;9315;  1.1012603E+00;  0.0000000E+00;  2.4059240E-02;  9.8858313E+02;  1.5233688E-01; -9.2730469E+03;3;  5.0954235E+01;  0.0000000E+00;  2.9649057E+01;0; -1.3282859E-01;  1.7319576E+04;  0.0000000E+00;  1.7490614E+01;  4.0000000E+04;  0.0000000E+00;  3.8914578E+04; -5.8440232E-01;  0.0000000E+00;  4.5157373E-01;  6.6044945E+04;
  1.7032769E+00;  9.9999998E-03;  2.4343784E-01;9314;  1.0903763E+00;  0.0000000E+00;  1.4313918E-02;  9.8701929E+02;  1.5209919E-01; -1.0538589E+04;3;  5.0561813E+01;  0.0000000E+00;  3.3990822E+01;0; -1.9680324E-01;  1.7319385E+04;  0.0000000E+00;  2.0260767E+01;  4.0000000E+04;  0.0000000E+00;  3.8943742E+04; -5.8702475E-01;  0.0000000E+00;  3.9022151E-01;  7.5594039E+04;
  1.7122376E+00;  9.9999998E-03;  2.7431622E-01;9373;  1.1121665E+00;  0.0000000E+00;  2.6381919E-02;  9.9701294E+02;  1.4776184E-01; -2.4183022E+03;3;  5.1614052E+01;  0.0000000E+00;  2.1881935E+01;0; -1.3380939E-01;  1.8770955E+04;  0.0000000E+00;  6.1355357E+00;  4.0000000E+04;  0.0000000E+00;  3.8707098E+04; -5.5120564E-01;  0.0000000E+00;  4.1739625E-01;  1.7135081E+03;
  1.7135633E+00;  9.9999998E-03;  2.6414439E-01;9372;  1.1030347E+00;  0.0000000E+00;  2.3322145E-02;  9.9382550E+02;  1.4762762E-01; -4.9965566E+03;3;  5.2295357E+01;  0.0000000E+00;  2.5411278E+01;0; -1.1913830E-01;  1.8673613E+04;  0.0000000E+00;  1.3401292E+01;  4.0000000E+04;  0.0000000E+00;  3.8768566E+04; -5.7789063E-01;  0.0000000E+00;  4.5875233E-01;  3.8623297E+04;
  1.7151527E+00;  9.9999998E-03;  2.5394708E-01;9371;  1.0928153E+00;  0.0000000E+00;  1.6646292E-02;  9.8966534E+02;  1.4748673E-01; -8.3584912E+03;3;  5.2824856E+01;  0.0000000E+00;  3.0150953E+01;0; -1.6216180E-01;  1.8546984E+04;  0.0000000E+00;  2.0318470E+01;  4.0000000E+04;  0.0000000E+00;  3.8834422E+04; -5.9614986E-01;  0.0000000E+00;  4.3398806E-01;  6.5395047E+04;
  1.7167020E+00;  9.9999998E-03;  2.4373876E-01;9370;  1.0822997E+00;  0.0000000E+00;  7.2996039E-03;  9.8670190E+02;  1.4731723E-01; -1.0749396E+04;3;  5.1910755E+01;  0.0000000E+00;  3.3744465E+01;0; -2.3072961E-01;  1.8481336E+04;  0.0000000E+00;  2.4605894E+01;  4.0000000E+04;  0.0000000E+00;  3.8875578E+04; -6.0098279E-01;  0.0000000E+00;  3.7025318E-01;  8.0609461E+04;
  1.7256740E+00;  9.9999998E-03;  2.7460617E-01;9428;  1.1026173E+00;  0.0000000E+00;  1.7772455E-02;  9.9855402E+02;  1.4354186E-01; -1.1649066E+03;3;  5.4354263E+01;  0.0000000E+00;  2.3956682E+01;0; -1.7995375E-01;  1.9986596E+04;  0.0000000E+00;  4.0883512E+00;  4.0000000E+04;  0.0000000E+00;  3.8620996E+04; -5.4832441E-01;  0.0000000E+00;  3.6837065E-01;  1.7311926E+04;
  1.7267683E+00;  9.9999998E-03;  2.6445961E-01;9427;  1.0936502E+00;  0.0000000E+00;  1.5067699E-02;  9.9635345E+02;  1.4343710E-01; -2.9363655E+03;3;  5.4601288E+01;  0.0000000E+00;  2.7822760E+01;0; -1.6873115E-01;  1.9919988E+04;  0.0000000E+00;  7.7575517E+00;  4.0000000E+04;  0.0000000E+00;  3.8670777E+04; -5.7911247E-01;  0.0000000E+00;  4.1038132E-01;  1.6690434E+04;
  1.7281727E+00;  9.9999998E-03;  2.5428203E-01;9426;  1.0840733E+00;  0.0000000E+00;  8.8224802E-03;  9.9195105E+02;  1.4334328E-01; -6.4776196E+03;3;  5.4437477E+01;  0.0000000E+00;  3.0725033E+01;0; -2.1064305E-01;  1.9763010E+04;  0.0000000E+00;  1.8955778E+01;  4.0000000E+04;  0.0000000E+00;  3.8733586E+04; -5.9928417E-01;  0.0000000E+00;  3.8864112E-01;  5.4007199E+04;
  1.7296894E+00;  9.9999998E-03;  2.4408643E-01;9425;  1.0741876E+00;  0.0000000E+00;  7.8865956E-04;  9.8763428E+02;  1.4323474E-01; -9.9452969E+03;3;  5.3084236E+01;  0.0000000E+00;  3.2533955E+01;0; -2.6934087E-01;  1.9624561E+04;  0.0000000E+00;  2.6524569E+01;  4.0000000E+04;  0.0000000E+00;  3.8783492E+04; -6.0581648E-01;  0.0000000E+00;  3.3647561E-01;  7.7462305E+04;
  1.7398703E+00;  9.9999998E-03;  2.6479623E-01;9481;  1.0838330E+00;  0.0000000E+00;  6.0104281E-03;  9.9833417E+02;  1.3986751E-01; -1.3335659E+03;3;  5.6787182E+01;  0.0000000E+00;  2.8245964E+01;0; -2.4290648E-01;  2.1080264E+04;  0.0000000E+00;  2.1636140E+00;  4.0000000E+04;  0.0000000E+00;  3.8567863E+04; -5.7338500E-01;  0.0000000E+00;  3.3047852E-01;  6.7259365E+03;
  1.7409809E+00;  9.9999998E-03;  2.5464690E-01;9480;  1.0750234E+00;  0.0000000E+00;  1.3476863E-03;  9.9496350E+02;  1.3980167E-01; -4.0297036E+03;3;  5.5910862E+01;  0.0000000E+00;  3.0387024E+01;0; -2.6737484E-01;  2.0950627E+04;  0.0000000E+00;  1.1924995E+01;  4.0000000E+04;  0.0000000E+00;  3.8618008E+04; -5.9464347E-01;  0.0000000E+00;  3.2726863E-01;  3.1479309E+04;
  1.7423418E+00;  9.9999998E-03;  2.4446990E-01;9479;  1.0659366E+00;  0.0000000E+00; -5.0512431E-03;  9.9005774E+02;  1.3974175E-01; -7.9494141E+03;3;  5.4153446E+01;  0.0000000E+00;  3.1414064E+01;0; -3.1116068E-01;  2.0763207E+04;  0.0000000E+00;  2.4377874E+01;  4.0000000E+04;  0.0000000E+00;  3.8670668E+04; -6.0222387E-01;  0.0000000E+00;  2.9106319E-01;  6.4765750E+04;
  1.7527639E+00;  9.9999998E-03;  2.6515040E-01;9534;  1.0738484E+00;  0.0000000E+00; -2.5917373E-03;  1.0000292E+03;  1.3683997E-01;  2.3220873E+01;3;  5.8790676E+01;  0.0000000E+00;  2.6887081E+01;0; -3.2169461E-01;  2.2152186E+04;  0.0000000E+00;  7.0367723E+00;  4.0000000E+04;  0.0000000E+00;  3.8456059E+04; -5.6240487E-01;  0.0000000E+00;  2.4071026E-01;  1.6742922E+04;
  1.7537401E+00;  9.9999998E-03;  2.5502923E-01;9533;  1.0655023E+00;  0.0000000E+00; -6.2230481E-03;  9.9761847E+02;  1.3678813E-01; -1.8923719E+03;3;  5.7297562E+01;  0.0000000E+00;  2.8739929E+01;0; -3.3921945E-01;  2.2059078E+04;  0.0000000E+00;  2.8959174E+00;  4.0000000E+04;  0.0000000E+00;  3.8496566E+04; -5.8473766E-01;  0.0000000E+00;  2.4551819E-01;  5.1479438E+03;
  1.7548285E+00;  9.9999998E-03;  2.4487999E-01;9532;  1.0573248E+00;  0.0000000E+00; -1.1204459E-02;  9.9343420E+02;  1.3675229E-01; -5.2139189E+03;3;  5.4934685E+01;  0.0000000E+00;  2.9128542E+01;0; -3.6955380E-01;  2.1884510E+04;  0.0000000E+00;  1.5790435E+01;  4.0000000E+04;  0.0000000E+00;  3.8540305E+04; -5.9217620E-01;  0.0000000E+00;  2.2262239E-01;  4.1258754E+04;
  1.7664133E+00;  9.9999998E-03;  2.5542119E-01;9585;  1.0557448E+00;  0.0000000E+00; -1.3124892E-02;  9.9954321E+02;  1.3423397E-01; -3.6006512E+02;3;  5.8597183E+01;  0.0000000E+00;  2.5363916E+01;0; -4.1429287E-01;  2.3061627E+04;  0.0000000E+00;  4.8497486E+00;  4.0000000E+04;  0.0000000E+00;  3.8369105E+04; -5.7178885E-01;  0.0000000E+00;  1.5749596E-01;  9.5994883E+03;
  1.7673036E+00;  9.9999998E-03;  2.4530140E-01;9584;  1.0483667E+00;  0.0000000E+00; -1.6791819E-02;  9.9667816E+02;  1.3420531E-01; -2.6166987E+03;3;  5.5757317E+01;  0.0000000E+00;  2.5991085E+01;0; -4.3339619E-01;  2.2938188E+04;  0.0000000E+00;  3.7326961E+00;  4.0000000E+04;  0.0000000E+00;  3.8402578E+04; -5.7767689E-01;  0.0000000E+00;  1.4428070E-01;  1.2887278E+04;
  1.7797788E+00;  9.9999998E-03;  2.4572287E-01;9634;  1.0392829E+00;  0.0000000E+00; -2.1308411E-02;  9.9893658E+02;  1.3205361E-01; -8.2980371E+02;3;  5.6904728E+01;  0.0000000E+00;  2.1876726E+01;0; -4.9450344E-01;  2.3876783E+04;  0.0000000E+00;  2.8857644E+00;  4.0000000E+04;  0.0000000E+00;  3.8260992E+04; -5.6102407E-01;  0.0000000E+00;  6.6520631E-02;  5.0091558E+03;
