TimeStep;Np;Nbound;Nfixed;Nmoving;Nfloat;Nfluid
0.300034;10047;2448;2448;0;0;7599

Pos.x;Pos.y;Pos.z;Idp;Vel.x;Vel.y;Vel.z;Rhop;Mass;Press;Type;Acec.x;Acec.y;Acec.z;CellOffSpring;GradVel;Qfxx;Qfxy;Qfxz;Qfyy;Qfyz;Qfzz;StrainDot.x;StrainDot.y;StrainDot.z;VonMises3D;
 -1.9000000E-01;  9.9999998E-03; -4.4999999E-01;89;  0.0000000E+00;  0.0000000E+00;  0.0000000E+00;  1.0000000E+03;  1.0000000E-01;  0.0000000E+00;0;  0.0000000E+00;  0.0000000E+00;  0.0000000E+00;0;  0.0000000E+00;  4.0000000E+04;  0.0000000E+00;  0.0000000E+00;  4.0000000E+04;  0.0000000E+00;  4.0000000E+04;  0.0000000E+00;  0.0000000E+00;  0.0000000E+00;  0.0000000E+00;
 -1.8000001E-01;  9.9999998E-03; -4.4999999E-01;180;  0.0000000E+00;  0.0000000E+00;  0.0000000E+00;  1.0000000E+03;  1.0000000E-01;  0.0000000E+00;0;  0.0000000E+00;  0.0000000E+00;  0.0000000E+00;0;  0.0000000E+00;  4.0000000E+04;  0.0000000E+00;  0.0000000E+00;  4.0000000E+04;  0.0000000E+00;  4.0000000E+04;  0.0000000E+00;  0.0000000E+00;  0.0000000E+00;  0.0000000E+00;
 -1.7000000E-01;  9.9999998E-03; -4.4999999E-01;271;  0.0000000E+00;  0.0000000E+00;  0.0000000E+00;  1.0000000E+03;  1.0000000E-01;  0.0000000E+00;0;  0.0000000E+00;  0.0000000E+00;  0.0000000E+00;0;  0.0000000E+00;  4.0000000E+04;  0.0000000E+00;  0.0000000E+00;  4.0000000E+04;  0.0000000E+00;  4.0000000E+04;  0.0000000E+00;  0.0000000E+00;  0.0000000E+00;  0.0000000E+00;
 -1.6000000E-01;  9.9999998E-03; -4.4999999E-01;362;  0.0000000E+00;  0.0000000E+00;  0.0000000E+00;  1.0000000E+03;  1.0000000E-01;  0.0000000E+00;0;  0.0000000E+00;  0.0000000E+00;  0.0000000E+00;0;  0.0000000E+00;  4.0000000E+04;  0.0000000E+00;  0.0000000E+00;  4.0000000E+04;  0.0000000E+00;  4.0000000E+04;  0.0000000E+00;  0.0000000E+00;  0.0000000E+00;  0.0000000E+00;
 -1.5000001E-01;  9.9999998E-03; -4.4999999E-01;453;  0.0000000E+00;  0.0000000E+00;  0.0000000E+00;  1.0000000E+03;  1.0000000E-01;  0.0000000E+00;0;  0.0000000E+00;  0.0000000E+00;  0.0000000E+00;0;  0.0000000E+00;  4.0000000E+04;  0.0000000E+00;  0.0000000E+00;  4.0000000E+04;  0.0000000E+00;  4.0000000E+04;  0.0000000E+00;  0.0000000E+00;  0.0000000E+00;  0.0000000E+00;
 -1.4000000E-01;  9.9999998E-03; -4.4999999E-01;544;  0.0000000E+00;  0.0000000E+00;  0.0000000E+00;  1.0000000E+03;  1.0000000E-01;  0.0000000E+00;0;  0.0000000E+00;  0.0000000E+00;  0.0000000E+00;0;  0.0000000E+00;  4.0000000E+04;  0.0000000E+00;  0.0000000E+00;  4.0000000E+04;  0.0000000E+00;  4.0000000E+04;  0.0000000E+00;  0.0000000E+00;  0.0000000E+00;  0.0000000E+00;
 -1.3000000E-01;  9.9999998E-03; -4.4999999E-01;635;  0.0000000E+00;  0.0000000E+00;  0.0000000E+00;  1.0000000E+03;  1.0000000E-01;  0.0000000E+00;0;  0.0000000E+00;  0.0000000E+00;  0.0000000E+00;0;  0.0000000E+00;  4.0000000E+04;  0.0000000E+00;  0.0000000E+00;  4.0000000E+04;  0.0000000E+00;  4.0000000E+04;  0.0000000E+00;  0.0000000E+00;  0.0000000E+00;  0.0000000E+00;
 -1.2000000E-01;  9.9999998E-03; -4.4999999E-01;726;  0.0000000E+00;  0.0000000E+00;  0.0000000E+00;  1.0000000E+03;  1.0000000E-01;  0.0000000E+00;0;  0.0000000E+00;  0.0000000E+00;  0.0000000E+00;0;  0.0000000E+00;  4.0000000E+04;  0.0000000E+00;  0.0000000E+00;  4.0000000E+04;  0.0000000E+00;  4.0000000E+04;  0.0000000E+00;  0.0000000E+00;  0.0000000E+00;  0.0000000E+00;
 -1.1000000E-01;  9.9999998E-03; -4.4999999E-01;817;  0.0000000E+00;  0.0000000E+00;  0.0000000E+00;  1.0000000E+03;  1.0000000E-01;  0.0000000E+00;0;  0.0000000E+00;  0.0000000E+00;  0.0000000E+00;0;  0.0000000E+00;  4.0000000E+04;  0.0000000E+00;  0.0000000E+00;  4.0000000E+04;  0.0000000E+00;  4.0000000E+04;  0.0000000E+00;  0.0000000E+00;  0.0000000E+00;  0.0000000E+00;
 -1.0000000E-01;  9.9999998E-03; -4.4999999E-01;908;  0.0000000E+00;  0.0000000E+00;  0.0000000E+00;  1.0000000E+03;  1.0000000E-01;  0.0000000E+00;0;  0.0000000E+00;  0.0000000E+00;  0.0000000E+00;0;  0.0000000E+00;  4.0000000E+04;  0.0000000E+00;  0.0000000E+00;  4.0000000E+04;  0.0000000E+00;  4.0000000E+04;  0.0000000E+00;  0.0000000E+00;  0.0000000E+00;  0.0000000E+00;
 -9.0000004E-02;  9.9999998E-03; -4.4999999E-01;999;  0.0000000E+00;  0.0000000E+00;  0.0000000E+00;  1.0000000E+03;  1.0000000E-01;  0.0000000E+00;0;  0.0000000E+00;  0.0000000E+00;  0.0000000E+00;0;  0.0000000E+00;  4.0000000E+04;  0.0000000E+00;  0.0000000E+00;  4.0000000E+04;  0.0000000E+00;  4.0000000E+04;  0.0000000E+00;  0.0000000E+00;  0.0000000E+00;  0.0000000E+00;
 -7.9999998E-02;  9.9999998E-03; -4.4999999E-01;1090;  0.0000000E+00;  0.0000000E+00;  0.0000000E+00;  1.0000000E+03;  1.0000000E-01;  0.0000000E+00;0;  0.0000000E+00;  0.0000000E+00;  0.0000000E+00;0;  0.0000000E+00;  4.0000000E+04;  0.0000000E+00;  0.0000000E+00;  4.0000000E+04;  0.0000000E+00;  4.0000000E+04;  0.0000000E+00;  0.0000000E+00;  0.0000000E+00;  0.0000000E+00;
 -7.0000000E-02;  9.9999998E-03; -4.4999999E-01;1181;  0.0000000E+00;  0.0000000E+00;  0.0000000E+00;  1.0000000E+03;  1.0000000E-01;  0.0000000E+00;0;  0.0000000E+00;  0.0000000E+00;  0.0000000E+00;0;  0.0000000E+00;  4.0000000E+04;  0.0000000E+00;  0.0000000E+00;  4.0000000E+04;  0.0000000E+00;  4.0000000E+04;  0.0000000E+00;  0.0000000E+00;  0.0000000E+00;  8.6648275E-12;
 -5.9999999E-02;  9.9999998E-03; -4.4999999E-01;1272;  0.0000000E+00;  0.0000000E+00;  0.0000000E+00;  1.0000000E+03;  1.0000000E-01;  0.0000000E+00;0;  0.0000000E+00;  0.0000000E+00;  0.0000000E+00;0; -2.3471083E-08;  4.0000000E+04;  0.0000000E+00;  0.0000000E+00;  4.0000000E+04;  0.0000000E+00;  4.0000000E+04; -9.4739363E-09;  0.0000000E+00; -1.3997147E-08;  4.8927315E-02;
 -5.0000001E-02;  9.9999998E-03; -4.4999999E-01;1363;  0.0000000E+00;  0.0000000E+00;  0.0000000E+00;  1.0000000E+03;  1.0000000E-01;  0.0000000E+00;0;  0.0000000E+00;  0.0000000E+00;  0.0000000E+00;0; -2.0020521E-07;  4.0000000E+04;  0.0000000E+00;  0.0000000E+00;  4.0000000E+04;  0.0000000E+00;  4.0000000E+04; -7.6454668E-08;  0.0000000E+00; -1.2375054E-07;  4.1738817E-01;
 -3.9999999E-02;  9.9999998E-03; -4.4999999E-01;1454;  0.0000000E+00;  0.0000000E+00;  0.0000000E+00;  1.0000000E+03;  1.0000000E-01;  0.0000000E+00;0;  0.0000000E+00;  0.0000000E+00;  0.0000000E+00;0; -7.1482748E-07;  4.0000000E+04;  0.0000000E+00;  0.0000000E+00;  4.0000000E+04;  0.0000000E+00;  4.0000000E+04; -2.6064453E-07;  0.0000000E+00; -4.5418292E-07;  1.5017610E+00;
 -2.9999999E-02;  9.9999998E-03; -4.4999999E-01;1545;  0.0000000E+00;  0.0000000E+00;  0.0000000E+00;  1.0000000E+03;  1.0000000E-01;  0.0000000E+00;0;  0.0000000E+00;  0.0000000E+00;  0.0000000E+00;0; -1.6972979E-06;  4.0000000E+04;  0.0000000E+00;  0.0000000E+00;  4.0000000E+04;  0.0000000E+00;  4.0000000E+04; -5.9614598E-07;  0.0000000E+00; -1.1011518E-06;  3.5723228E+00;
 -2.0000000E-02;  9.9999998E-03; -4.4999999E-01;1636;  0.0000000E+00;  0.0000000E+00;  0.0000000E+00;  1.0000000E+03;  1.0000000E-01;  0.0000000E+00;0;  0.0000000E+00;  0.0000000E+00;  0.0000000E+00;0; -3.1433246E-06;  4.0000000E+04;  0.0000000E+00;  0.0000000E+00;  4.0000000E+04;  0.0000000E+00;  4.0000000E+04; -1.0691837E-06;  0.0000000E+00; -2.0741411E-06;  6.5555806E+00;
 -9.9999998E-03;  9.9999998E-03; -4.4999999E-01;1727;  0.0000000E+00;  0.0000000E+00;  0.0000000E+00;  1.0000000E+03;  1.0000000E-01;  0.0000000E+00;0;  0.0000000E+00;  0.0000000E+00;  0.0000000E+00;0; -4.9039886E-06;  4.0000000E+04;  0.0000000E+00;  0.0000000E+00;  4.0000000E+04;  0.0000000E+00;  4.0000000E+04; -1.6174599E-06;  0.0000000E+00; -3.2865287E-06;  9.9800653E+00;
  0.0000000E+00;  9.9999998E-03; -4.4999999E-01;1818;  0.0000000E+00;  0.0000000E+00;  0.0000000E+00;  1.0000000E+03;  1.0000000E-01;  0.0000000E+00;0;  0.0000000E+00;  0.0000000E+00;  0.0000000E+00;0; -6.7311439E-06;  4.0000000E+04;  0.0000000E+00;  0.0000000E+00;  4.0000000E+04;  0.0000000E+00;  4.0000000E+04; -2.1470134E-06;  0.0000000E+00; -4.5841307E-06;  1.3094595E+01;
  9.9999998E-03;  9.9999998E-03; -4.4999999E-01;1850;  0.0000000E+00;  0.0000000E+00;  0.0000000E+00;  1.0000000E+03;  1.0000000E-01;  0.0000000E+00;0;  0.0000000E+00;  0.0000000E+00;  0.0000000E+00;0; -8.3570922E-06;  4.0000000E+04;  0.0000000E+00;  0.0000000E+00;  4.0000000E+04;  0.0000000E+00;  4.0000000E+04; -2.5592226E-06;  0.0000000E+00; -5.7978691E-06;  1.5090633E+01;
  2.0000000E-02;  9.9999998E-03; -4.4999999E-01;1880;  0.0000000E+00;  0.0000000E+00;  0.0000000E+00;  1.0000000E+03;  1.0000000E-01;  0.0000000E+00;0;  0.0000000E+00;  0.0000000E+00;  0.0000000E+00;0; -9.5807573E-06;  4.0000000E+04;  0.0000000E+00;  0.0000000E+00;  4.0000000E+04;  0.0000000E+00;  4.0000000E+04; -2.7781402E-06;  0.0000000E+00; -6.8026166E-06;  1.5351496E+01;
  2.9999999E-02;  9.9999998E-03; -4.4999999E-01;1910;  0.0000000E+00;  0.0000000E+00;  0.0000000E+00;  1.0000000E+03;  1.0000000E-01;  0.0000000E+00;0;  0.0000000E+00;  0.0000000E+00;  0.0000000E+00;0; -1.0329330E-05;  4.0000000E+04;  0.0000000E+00;  0.0000000E+00;  4.0000000E+04;  0.0000000E+00;  4.0000000E+04; -2.7685464E-06;  0.0000000E+00; -7.5607836E-06;  1.3656593E+01;
  3.9999999E-02;  9.9999998E-03; -4.4999999E-01;1940;  0.0000000E+00;  0.0000000E+00;  0.0000000E+00;  1.0000000E+03;  1.0000000E-01;  0.0000000E+00;0;  0.0000000E+00;  0.0000000E+00;  0.0000000E+00;0; -1.0671602E-05;  4.0000000E+04;  0.0000000E+00;  0.0000000E+00;  4.0000000E+04;  0.0000000E+00;  4.0000000E+04; -2.5390755E-06;  0.0000000E+00; -8.1325261E-06;  1.0304636E+01;
  5.0000001E-02;  9.9999998E-03; -4.4999999E-01;1970;  0.0000000E+00;  0.0000000E+00;  0.0000000E+00;  1.0000000E+03;  1.0000000E-01;  0.0000000E+00;0;  0.0000000E+00;  0.0000000E+00;  0.0000000E+00;0; -1.0774947E-05;  4.0000000E+04;  0.0000000E+00;  0.0000000E+00;  4.0000000E+04;  0.0000000E+00;  4.0000000E+04; -2.1338392E-06;  0.0000000E+00; -8.6411083E-06;  6.1385307E+00;
  5.9999999E-02;  9.9999998E-03; -4.4999999E-01;2000;  0.0000000E+00;  0.0000000E+00;  0.0000000E+00;  1.0000000E+03;  1.0000000E-01;  0.0000000E+00;0;  0.0000000E+00;  0.0000000E+00;  0.0000000E+00;0; -1.0818088E-05;  4.0000000E+04;  0.0000000E+00;  0.0000000E+00;  4.0000000E+04;  0.0000000E+00;  4.0000000E+04; -1.6220337E-06;  0.0000000E+00; -9.1960537E-06;  2.4336138E+00;
  7.0000000E-02;  9.9999998E-03; -4.4999999E-01;2030;  0.0000000E+00;  0.0000000E+00;  0.0000000E+00;  1.0000000E+03;  1.0000000E-01;  0.0000000E+00;0;  0.0000000E+00;  0.0000000E+00;  0.0000000E+00;0; -1.0905759E-05;  4.0000000E+04;  0.0000000E+00;  0.0000000E+00;  4.0000000E+04;  0.0000000E+00;  4.0000000E+04; -1.0845130E-06;  0.0000000E+00; -9.8212458E-06;  6.9801456E-01;
  7.9999998E-02;  9.9999998E-03; -4.4999999E-01;2060;  0.0000000E+00;  0.0000000E+00;  0.0000000E+00;  1.0000000E+03;  1.0000000E-01;  0.0000000E+00;0;  0.0000000E+00;  0.0000000E+00;  0.0000000E+00;0; -1.1031895E-05;  4.0000000E+04;  0.0000000E+00;  0.0000000E+00;  4.0000000E+04;  0.0000000E+00;  4.0000000E+04; -5.9590354E-07;  0.0000000E+00; -1.0435991E-05;  2.0942314E+00;
  9.0000004E-02;  9.9999998E-03; -4.4999999E-01;2090;  0.0000000E+00;  0.0000000E+00;  0.0000000E+00;  1.0000000E+03;  1.0000000E-01;  0.0000000E+00;0;  0.0000000E+00;  0.0000000E+00;  0.0000000E+00;0; -1.1097008E-05;  4.0000000E+04;  0.0000000E+00;  0.0000000E+00;  4.0000000E+04;  0.0000000E+00;  4.0000000E+04; -2.2694392E-07;  0.0000000E+00; -1.0870064E-05;  7.4943767E+00;
  1.0000000E-01;  9.9999998E-03; -4.4999999E-01;2120;  0.0000000E+00;  0.0000000E+00;  0.0000000E+00;  1.0000000E+03;  1.0000000E-01;  0.0000000E+00;0;  0.0000000E+00;  0.0000000E+00;  0.0000000E+00;0; -1.1022184E-05;  4.0000000E+04;  0.0000000E+00;  0.0000000E+00;  4.0000000E+04;  0.0000000E+00;  4.0000000E+04; -5.3193901E-08;  0.0000000E+00; -1.0968991E-05;  1.7014954E+01;
  1.1000000E-01;  9.9999998E-03; -4.4999999E-01;2150;  0.0000000E+00;  0.0000000E+00;  0.0000000E+00;  1.0000000E+03;  1.0000000E-01;  0.0000000E+00;0;  0.0000000E+00;  0.0000000E+00;  0.0000000E+00;0; -1.0834244E-05;  4.0000000E+04;  0.0000000E+00;  0.0000000E+00;  4.0000000E+04;  0.0000000E+00;  4.0000000E+04; -1.2056634E-07;  0.0000000E+00; -1.0713678E-05;  3.0572241E+01;
  1.2000000E-01;  9.9999998E-03; -4.4999999E-01;2180;  0.0000000E+00;  0.0000000E+00;  0.0000000E+00;  1.0000000E+03;  1.0000000E-01;  0.0000000E+00;0;  0.0000000E+00;  0.0000000E+00;  0.0000000E+00;0; -1.0602737E-05;  4.0000000E+04;  0.0000000E+00;  0.0000000E+00;  4.0000000E+04;  0.0000000E+00;  4.0000000E+04; -4.9488733E-07;  0.0000000E+00; -1.0107850E-05;  4.9786407E+01;
  1.3000000E-01;  9.9999998E-03; -4.4999999E-01;2210;  0.0000000E+00;  0.0000000E+00;  0.0000000E+00;  1.0000000E+03;  1.0000000E-01;  0.0000000E+00;0;  0.0000000E+00;  0.0000000E+00;  0.0000000E+00;0; -1.0491594E-05;  4.0000000E+04;  0.0000000E+00;  0.0000000E+00;  4.0000000E+04;  0.0000000E+00;  4.0000000E+04; -1.3603255E-06;  0.0000000E+00; -9.1312686E-06;  8.1403687E+01;
  1.4000000E-01;  9.9999998E-03; -4.4999999E-01;2240;  0.0000000E+00;  0.0000000E+00;  0.0000000E+00;  1.0000000E+03;  1.0000000E-01;  0.0000000E+00;0;  0.0000000E+00;  0.0000000E+00;  0.0000000E+00;0; -1.0785778E-05;  4.0000000E+04;  0.0000000E+00;  0.0000000E+00;  4.0000000E+04;  0.0000000E+00;  4.0000000E+04; -3.0032854E-06;  0.0000000E+00; -7.7824925E-06;  1.4100728E+02;
  1.5000001E-01;  9.9999998E-03; -4.4999999E-01;2270;  0.0000000E+00;  0.0000000E+00;  0.0000000E+00;  1.0000000E+03;  1.0000000E-01;  0.0000000E+00;0;  0.0000000E+00;  0.0000000E+00;  0.0000000E+00;0; -1.1676084E-05;  4.0000000E+04;  0.0000000E+00;  0.0000000E+00;  4.0000000E+04;  0.0000000E+00;  4.0000000E+04; -5.6344074E-06;  0.0000000E+00; -6.0416764E-06;  2.5478288E+02;
  1.6000000E-01;  9.9999998E-03; -4.4999999E-01;2300;  0.0000000E+00;  0.0000000E+00;  0.0000000E+00;  1.0000000E+03;  1.0000000E-01;  0.0000000E+00;0;  0.0000000E+00;  0.0000000E+00;  0.0000000E+00;0; -1.3063907E-05;  4.0000000E+04;  0.0000000E+00;  0.0000000E+00;  4.0000000E+04;  0.0000000E+00;  4.0000000E+04; -9.2164946E-06;  0.0000000E+00; -3.8474132E-06;  4.6024084E+02;
  1.7000000E-01;  9.9999998E-03; -4.4999999E-01;2330;  0.0000000E+00;  0.0000000E+00;  0.0000000E+00;  1.0000000E+03;  1.0000000E-01;  0.0000000E+00;0;  0.0000000E+00;  0.0000000E+00;  0.0000000E+00;0; -1.4494601E-05;  4.0000000E+04;  0.0000000E+00;  0.0000000E+00;  4.0000000E+04;  0.0000000E+00;  4.0000000E+04; -1.3361819E-05;  0.0000000E+00; -1.1327819E-06;  8.0533374E+02;
  1.8000001E-01;  9.9999998E-03; -4.4999999E-01;2360;  0.0000000E+00;  0.0000000E+00;  0.0000000E+00;  1.0000000E+03;  1.0000000E-01;  0.0000000E+00;0;  0.0000000E+00;  0.0000000E+00;  0.0000000E+00;0; -1.5241674E-05;  4.0000000E+04;  0.0000000E+00;  0.0000000E+00;  4.0000000E+04;  0.0000000E+00;  4.0000000E+04; -1.7331056E-05;  0.0000000E+00;  2.0893817E-06;  1.3394905E+03;
  1.9000000E-01;  9.9999998E-03; -4.4999999E-01;2390;  0.0000000E+00;  0.0000000E+00;  0.0000000E+00;  1.0000000E+03;  1.0000000E-01;  0.0000000E+00;0;  0.0000000E+00;  0.0000000E+00;  0.0000000E+00;0; -1.4730285E-05;  4.0000000E+04;  0.0000000E+00;  0.0000000E+00;  4.0000000E+04;  0.0000000E+00;  4.0000000E+04; -2.0233863E-05;  0.0000000E+00;  5.5035780E-06;  2.0929163E+03;
 -1.9000000E-01;  9.9999998E-03; -4.4000000E-01;90;  0.0000000E+00;  0.0000000E+00;  0.0000000E+00;  1.0000000E+03;  1.0000000E-01;  0.0000000E+00;0;  0.0000000E+00;  0.0000000E+00;  0.0000000E+00;0;  0.0000000E+00;  4.0000000E+04;  0.0000000E+00;  0.0000000E+00;  4.0000000E+04;  0.0000000E+00;  4.0000000E+04;  0.0000000E+00;  0.0000000E+00;  0.0000000E+00;  0.0000000E+00;
 -1.9000000E-01;  9.9999998E-03; -4.3000001E-01;91;  0.0000000E+00;  0.0000000E+00;  0.0000000E+00;  1.0000000E+03;  1.0000000E-01;  0.0000000E+00;0;  0.0000000E+00;  0.0000000E+00;  0.0000000E+00;0;  0.0000000E+00;  4.0000000E+04;  0.0000000E+00;  0.0000000E+00;  4.0000000E+04;  0.0000000E+00;  4.0000000E+04;  0.0000000E+00;  0.0000000E+00;  0.0000000E+00;  0.0000000E+00;
 -1.9000000E-01;  9.9999998E-03; -4.1999999E-01;92;  0.0000000E+00;  0.0000000E+00;  0.0000000E+00;  1.0000000E+03;  1.0000000E-01;  0.0000000E+00;0;  0.0000000E+00;  0.0000000E+00;  0.0000000E+00;0;  0.0000000E+00;  4.0000000E+04;  0.0000000E+00;  0.0000000E+00;  4.0000000E+04;  0.0000000E+00;  4.0000000E+04;  0.0000000E+00;  0.0000000E+00;  0.0000000E+00;  0.0000000E+00;
 -1.9000000E-01;  9.9999998E-03; -4.1000000E-01;93;  0.0000000E+00;  0.0000000E+00;  0.0000000E+00;  1.0000000E+03;  1.0000000E-01;  0.0000000E+00;0;  0.0000000E+00;  0.0000000E+00;  0.0000000E+00;0;  0.0000000E+00;  4.0000000E+04;  0.0000000E+00;  0.0000000E+00;  4.0000000E+04;  0.0000000E+00;  4.0000000E+04;  0.0000000E+00;  0.0000000E+00;  0.0000000E+00;  0.0000000E+00;
 -1.9000000E-01;  9.9999998E-03; -4.0000001E-01;94;  0.0000000E+00;  0.0000000E+00;  0.0000000E+00;  1.0000000E+03;  1.0000000E-01;  0.0000000E+00;0;  0.0000000E+00;  0.0000000E+00;  0.0000000E+00;0;  0.0000000E+00;  4.0000000E+04;  0.0000000E+00;  0.0000000E+00;  4.0000000E+04;  0.0000000E+00;  4.0000000E+04;  0.0000000E+00;  0.0000000E+00;  0.0000000E+00;  0.0000000E+00;
 -1.9000000E-01;  9.9999998E-03; -3.8999999E-01;95;  0.0000000E+00;  0.0000000E+00;  0.0000000E+00;  1.0000000E+03;  1.0000000E-01;  0.0000000E+00;0;  0.0000000E+00;  0.0000000E+00;  0.0000000E+00;0;  0.0000000E+00;  4.0000000E+04;  0.0000000E+00;  0.0000000E+00;  4.0000000E+04;  0.0000000E+00;  4.0000000E+04;  0.0000000E+00;  0.0000000E+00;  0.0000000E+00;  0.0000000E+00;
 -1.9000000E-01;  9.9999998E-03; -3.8000000E-01;96;  0.0000000E+00;  0.0000000E+00;  0.0000000E+00;  1.0000000E+03;  1.0000000E-01;  0.0000000E+00;0;  0.0000000E+00;  0.0000000E+00;  0.0000000E+00;0;  0.0000000E+00;  4.0000000E+04;  0.0000000E+00;  0.0000000E+00;  4.0000000E+04;  0.0000000E+00;  4.0000000E+04;  0.0000000E+00;  0.0000000E+00;  0.0000000E+00;  0.0000000E+00;
 -1.9000000E-01;  9.9999998E-03; -3.7000000E-01;97;  0.0000000E+00;  0.0000000E+00;  0.0000000E+00;  1.0000000E+03;  1.0000000E-01;  0.0000000E+00;0;  0.0000000E+00;  0.0000000E+00;  0.0000000E+00;0;  0.0000000E+00;  4.0000000E+04;  0.0000000E+00;  0.0000000E+00;  4.0000000E+04;  0.0000000E+00;  4.0000000E+04;  0.0000000E+00;  0.0000000E+00;  0.0000000E+00;  0.0000000E+00;
 -1.9000000E-01;  9.9999998E-03; -3.6000001E-01;98;  0.0000000E+00;  0.0000000E+00;  0.0000000E+00;  1.0000000E+03;  1.0000000E-01;  0.0000000E+00;0;  0.0000000E+00;  0.0000000E+00;  0.0000000E+00;0;  0.0000000E+00;  4.0000000E+04;  0.0000000E+00;  0.0000000E+00;  4.0000000E+04;  0.0000000E+00;  4.0000000E+04;  0.0000000E+00;  0.0000000E+00;  0.0000000E+00;  0.0000000E+00;
 -1.9000000E-01;  9.9999998E-03; -3.4999999E-01;99;  0.0000000E+00;  0.0000000E+00;  0.0000000E+00;  1.0000000E+03;  1.0000000E-01;  0.0000000E+00;0;  0.0000000E+00;  0.0000000E+00;  0.0000000E+00;0;  0.0000000E+00;  4.0000000E+04;  0.0000000E+00;  0.0000000E+00;  4.0000000E+04;  0.0000000E+00;  4.0000000E+04;  0.0000000E+00;  0.0000000E+00;  0.0000000E+00;  0.0000000E+00;
 -1.9000000E-01;  9.9999998E-03; -3.4000000E-01;100;  0.0000000E+00;  0.0000000E+00;  0.0000000E+00;  1.0000000E+03;  1.0000000E-01;  0.0000000E+00;0;  0.0000000E+00;  0.0000000E+00;  0.0000000E+00;0;  0.0000000E+00;  4.0000000E+04;  0.0000000E+00;  0.0000000E+00;  4.0000000E+04;  0.0000000E+00;  4.0000000E+04;  0.0000000E+00;  0.0000000E+00;  0.0000000E+00;  0.0000000E+00;
 -1.9000000E-01;  9.9999998E-03; -3.3000001E-01;101;  0.0000000E+00;  0.0000000E+00;  0.0000000E+00;  1.0000000E+03;  1.0000000E-01;  0.0000000E+00;0;  0.0000000E+00;  0.0000000E+00;  0.0000000E+00;0;  0.0000000E+00;  4.0000000E+04;  0.0000000E+00;  0.0000000E+00;  4.0000000E+04;  0.0000000E+00;  4.0000000E+04;  0.0000000E+00;  0.0000000E+00;  0.0000000E+00;  0.0000000E+00;
 -1.9000000E-01;  9.9999998E-03; -3.1999999E-01;102;  0.0000000E+00;  0.0000000E+00;  0.0000000E+00;  1.0000000E+03;  1.0000000E-01;  0.0000000E+00;0;  0.0000000E+00;  0.0000000E+00;  0.0000000E+00;0;  0.0000000E+00;  4.0000000E+04;  0.0000000E+00;  0.0000000E+00;  4.0000000E+04;  0.0000000E+00;  4.0000000E+04;  0.0000000E+00;  0.0000000E+00;  0.0000000E+00;  0.0000000E+00;
 -1.9000000E-01;  9.9999998E-03; -3.1000000E-01;103;  0.0000000E+00;  0.0000000E+00;  0.0000000E+00;  1.0000000E+03;  1.0000000E-01;  0.0000000E+00;0;  0.0000000E+00;  0.0000000E+00;  0.0000000E+00;0;  0.0000000E+00;  4.0000000E+04;  0.0000000E+00;  0.0000000E+00;  4.0000000E+04;  0.0000000E+00;  4.0000000E+04;  0.0000000E+00;  0.0000000E+00;  0.0000000E+00;  0.0000000E+00;
 -1.9000000E-01;  9.9999998E-03; -3.0000001E-01;104;  0.0000000E+00;  0.0000000E+00;  0.0000000E+00;  1.0000000E+03;  1.0000000E-01;  0.0000000E+00;0;  0.0000000E+00;  0.0000000E+00;  0.0000000E+00;0;  0.0000000E+00;  4.0000000E+04;  0.0000000E+00;  0.0000000E+00;  4.0000000E+04;  0.0000000E+00;  4.0000000E+04;  0.0000000E+00;  0.0000000E+00;  0.0000000E+00;  0.0000000E+00;
 -1.9000000E-01;  9.9999998E-03; -2.8999999E-01;105;  0.0000000E+00;  0.0000000E+00;  0.0000000E+00;  1.0000000E+03;  1.0000000E-01;  0.0000000E+00;0;  0.0000000E+00;  0.0000000E+00;  0.0000000E+00;0;  0.0000000E+00;  4.0000000E+04;  0.0000000E+00;  0.0000000E+00;  4.0000000E+04;  0.0000000E+00;  4.0000000E+04;  0.0000000E+00;  0.0000000E+00;  0.0000000E+00;  0.0000000E+00;
 -1.9000000E-01;  9.9999998E-03; -2.8000000E-01;106;  0.0000000E+00;  0.0000000E+00;  0.0000000E+00;  1.0000000E+03;  1.0000000E-01;  0.0000000E+00;0;  0.0000000E+00;  0.0000000E+00;  0.0000000E+00;0;  0.0000000E+00;  4.0000000E+04;  0.0000000E+00;  0.0000000E+00;  4.0000000E+04;  0.0000000E+00;  4.0000000E+04;  0.0000000E+00;  0.0000000E+00;  0.0000000E+00;  0.0000000E+00;
 -1.8000001E-01;  9.9999998E-03; -4.4000000E-01;181;  0.0000000E+00;  0.0000000E+00;  0.0000000E+00;  1.0000000E+03;  1.0000000E-01;  0.0000000E+00;0;  0.0000000E+00;  0.0000000E+00;  0.0000000E+00;0;  0.0000000E+00;  4.0000000E+04;  0.0000000E+00;  0.0000000E+00;  4.0000000E+04;  0.0000000E+00;  4.0000000E+04;  0.0000000E+00;  0.0000000E+00;  0.0000000E+00;  0.0000000E+00;
 -1.8000001E-01;  9.9999998E-03; -4.3000001E-01;182;  0.0000000E+00;  0.0000000E+00;  0.0000000E+00;  1.0000000E+03;  1.0000000E-01;  0.0000000E+00;0;  0.0000000E+00;  0.0000000E+00;  0.0000000E+00;0;  0.0000000E+00;  4.0000000E+04;  0.0000000E+00;  0.0000000E+00;  4.0000000E+04;  0.0000000E+00;  4.0000000E+04;  0.0000000E+00;  0.0000000E+00;  0.0000000E+00;  0.0000000E+00;
 -1.8000001E-01;  9.9999998E-03; -4.1999999E-01;183;  0.0000000E+00;  0.0000000E+00;  0.0000000E+00;  1.0000000E+03;  1.0000000E-01;  0.0000000E+00;0;  0.0000000E+00;  0.0000000E+00;  0.0000000E+00;0;  0.0000000E+00;  4.0000000E+04;  0.0000000E+00;  0.0000000E+00;  4.0000000E+04;  0.0000000E+00;  4.0000000E+04;  0.0000000E+00;  0.0000000E+00;  0.0000000E+00;  0.0000000E+00;
 -1.8000001E-01;  9.9999998E-03; -4.1000000E-01;184;  0.0000000E+00;  0.0000000E+00;  0.0000000E+00;  1.0000000E+03;  1.0000000E-01;  0.0000000E+00;0;  0.0000000E+00;  0.0000000E+00;  0.0000000E+00;0;  0.0000000E+00;  4.0000000E+04;  0.0000000E+00;  0.0000000E+00;  4.0000000E+04;  0.0000000E+00;  4.0000000E+04;  0.0000000E+00;  0.0000000E+00;  0.0000000E+00;  0.0000000E+00;
 -1.8000001E-01;  9.9999998E-03; -4.0000001E-01;185;  0.0000000E+00;  0.0000000E+00;  0.0000000E+00;  1.0000000E+03;  1.0000000E-01;  0.0000000E+00;0;  0.0000000E+00;  0.0000000E+00;  0.0000000E+00;0;  0.0000000E+00;  4.0000000E+04;  0.0000000E+00;  0.0000000E+00;  4.0000000E+04;  0.0000000E+00;  4.0000000E+04;  0.0000000E+00;  0.0000000E+00;  0.0000000E+00;  0.0000000E+00;
 -1.8000001E-01;  9.9999998E-03; -3.8999999E-01;186;  0.0000000E+00;  0.0000000E+00;  0.0000000E+00;  1.0000000E+03;  1.0000000E-01;  0.0000000E+00;0;  0.0000000E+00;  0.0000000E+00;  0.0000000E+00;0;  0.0000000E+00;  4.0000000E+04;  0.0000000E+00;  0.0000000E+00;  4.0000000E+04;  0.0000000E+00;  4.0000000E+04;  0.0000000E+00;  0.0000000E+00;  0.0000000E+00;  0.0000000E+00;
 -1.8000001E-01;  9.9999998E-03; -3.8000000E-01;187;  0.0000000E+00;  0.0000000E+00;  0.0000000E+00;  1.0000000E+03;  1.0000000E-01;  0.0000000E+00;0;  0.0000000E+00;  0.0000000E+00;  0.0000000E+00;0;  0.0000000E+00;  4.0000000E+04;  0.0000000E+00;  0.0000000E+00;  4.0000000E+04;  0.0000000E+00;  4.0000000E+04;  0.0000000E+00;  0.0000000E+00;  0.0000000E+00;  0.0000000E+00;
 -1.8000001E-01;  9.9999998E-03; -3.7000000E-01;188;  0.0000000E+00;  0.0000000E+00;  0.0000000E+00;  1.0000000E+03;  1.0000000E-01;  0.0000000E+00;0;  0.0000000E+00;  0.0000000E+00;  0.0000000E+00;0;  0.0000000E+00;  4.0000000E+04;  0.0000000E+00;  0.0000000E+00;  4.0000000E+04;  0.0000000E+00;  4.0000000E+04;  0.0000000E+00;  0.0000000E+00;  0.0000000E+00;  0.0000000E+00;
 -1.8000001E-01;  9.9999998E-03; -3.6000001E-01;189;  0.0000000E+00;  0.0000000E+00;  0.0000000E+00;  1.0000000E+03;  1.0000000E-01;  0.0000000E+00;0;  0.0000000E+00;  0.0000000E+00;  0.0000000E+00;0;  0.0000000E+00;  4.0000000E+04;  0.0000000E+00;  0.0000000E+00;  4.0000000E+04;  0.0000000E+00;  4.0000000E+04;  0.0000000E+00;  0.0000000E+00;  0.0000000E+00;  0.0000000E+00;
 -1.8000001E-01;  9.9999998E-03; -3.4999999E-01;190;  0.0000000E+00;  0.0000000E+00;  0.0000000E+00;  1.0000000E+03;  1.0000000E-01;  0.0000000E+00;0;  0.0000000E+00;  0.0000000E+00;  0.0000000E+00;0;  0.0000000E+00;  4.0000000E+04;  0.0000000E+00;  0.0000000E+00;  4.0000000E+04;  0.0000000E+00;  4.0000000E+04;  0.0000000E+00;  0.0000000E+00;  0.0000000E+00;  0.0000000E+00;
 -1.8000001E-01;  9.9999998E-03; -3.4000000E-01;191;  0.0000000E+00;  0.0000000E+00;  0.0000000E+00;  1.0000000E+03;  1.0000000E-01;  0.0000000E+00;0;  0.0000000E+00;  0.0000000E+00;  0.0000000E+00;0;  0.0000000E+00;  4.0000000E+04;  0.0000000E+00;  0.0000000E+00;  4.0000000E+04;  0.0000000E+00;  4.0000000E+04;  0.0000000E+00;  0.0000000E+00;  0.0000000E+00;  0.0000000E+00;
 -1.8000001E-01;  9.9999998E-03; -3.3000001E-01;192;  0.0000000E+00;  0.0000000E+00;  0.0000000E+00;  1.0000000E+03;  1.0000000E-01;  0.0000000E+00;0;  0.0000000E+00;  0.0000000E+00;  0.0000000E+00;0;  0.0000000E+00;  4.0000000E+04;  0.0000000E+00;  0.0000000E+00;  4.0000000E+04;  0.0000000E+00;  4.0000000E+04;  0.0000000E+00;  0.0000000E+00;  0.0000000E+00;  0.0000000E+00;
 -1.8000001E-01;  9.9999998E-03; -3.1999999E-01;193;  0.0000000E+00;  0.0000000E+00;  0.0000000E+00;  1.0000000E+03;  1.0000000E-01;  0.0000000E+00;0;  0.0000000E+00;  0.0000000E+00;  0.0000000E+00;0;  0.0000000E+00;  4.0000000E+04;  0.0000000E+00;  0.0000000E+00;  4.0000000E+04;  0.0000000E+00;  4.0000000E+04;  0.0000000E+00;  0.0000000E+00;  0.0000000E+00;  0.0000000E+00;
 -1.8000001E-01;  9.9999998E-03; -3.1000000E-01;194;  0.0000000E+00;  0.0000000E+00;  0.0000000E+00;  1.0000000E+03;  1.0000000E-01;  0.0000000E+00;0;  0.0000000E+00;  0.0000000E+00;  0.0000000E+00;0;  0.0000000E+00;  4.0000000E+04;  0.0000000E+00;  0.0000000E+00;  4.0000000E+04;  0.0000000E+00;  4.0000000E+04;  0.0000000E+00;  0.0000000E+00;  0.0000000E+00;  0.0000000E+00;
 -1.8000001E-01;  9.9999998E-03; -3.0000001E-01;195;  0.0000000E+00;  0.0000000E+00;  0.0000000E+00;  1.0000000E+03;  1.0000000E-01;  0.0000000E+00;0;  0.0000000E+00;  0.0000000E+00;  0.0000000E+00;0;  0.0000000E+00;  4.0000000E+04;  0.0000000E+00;  0.0000000E+00;  4.0000000E+04;  0.0000000E+00;  4.0000000E+04;  0.0000000E+00;  0.0000000E+00;  0.0000000E+00;  0.0000000E+00;
 -1.8000001E-01;  9.9999998E-03; -2.8999999E-01;196;  0.0000000E+00;  0.0000000E+00;  0.0000000E+00;  1.0000000E+03;  1.0000000E-01;  0.0000000E+00;0;  0.0000000E+00;  0.0000000E+00;  0.0000000E+00;0;  0.0000000E+00;  4.0000000E+04;  0.0000000E+00;  0.0000000E+00;  4.0000000E+04;  0.0000000E+00;  4.0000000E+04;  0.0000000E+00;  0.0000000E+00;  0.0000000E+00;  0.0000000E+00;
 -1.8000001E-01;  9.9999998E-03; -2.8000000E-01;197;  0.0000000E+00;  0.0000000E+00;  0.0000000E+00;  1.0000000E+03;  1.0000000E-01;  0.0000000E+00;0;  0.0000000E+00;  0.0000000E+00;  0.0000000E+00;0;  0.0000000E+00;  4.0000000E+04;  0.0000000E+00;  0.0000000E+00;  4.0000000E+04;  0.0000000E+00;  4.0000000E+04;  0.0000000E+00;  0.0000000E+00;  0.0000000E+00;  0.0000000E+00;
 -1.7000000E-01;  9.9999998E-03; -4.4000000E-01;272;  0.0000000E+00;  0.0000000E+00;  0.0000000E+00;  1.0000000E+03;  1.0000000E-01;  0.0000000E+00;0;  0.0000000E+00;  0.0000000E+00;  0.0000000E+00;0;  0.0000000E+00;  4.0000000E+04;  0.0000000E+00;  0.0000000E+00;  4.0000000E+04;  0.0000000E+00;  4.0000000E+04;  0.0000000E+00;  0.0000000E+00;  0.0000000E+00;  0.0000000E+00;
 -1.7000000E-01;  9.9999998E-03; -4.3000001E-01;273;  0.0000000E+00;  0.0000000E+00;  0.0000000E+00;  1.0000000E+03;  1.0000000E-01;  0.0000000E+00;0;  0.0000000E+00;  0.0000000E+00;  0.0000000E+00;0;  0.0000000E+00;  4.0000000E+04;  0.0000000E+00;  0.0000000E+00;  4.0000000E+04;  0.0000000E+00;  4.0000000E+04;  0.0000000E+00;  0.0000000E+00;  0.0000000E+00;  0.0000000E+00;
 -1.7000000E-01;  9.9999998E-03; -4.1999999E-01;274;  0.0000000E+00;  0.0000000E+00;  0.0000000E+00;  1.0000000E+03;  1.0000000E-01;  0.0000000E+00;0;  0.0000000E+00;  0.0000000E+00;  0.0000000E+00;0;  0.0000000E+00;  4.0000000E+04;  0.0000000E+00;  0.0000000E+00;  4.0000000E+04;  0.0000000E+00;  4.0000000E+04;  0.0000000E+00;  0.0000000E+00;  0.0000000E+00;  0.0000000E+00;
 -1.7000000E-01;  9.9999998E-03; -4.1000000E-01;275;  0.0000000E+00;  0.0000000E+00;  0.0000000E+00;  1.0000000E+03;  1.0000000E-01;  0.0000000E+00;0;  0.0000000E+00;  0.0000000E+00;  0.0000000E+00;0;  0.0000000E+00;  4.0000000E+04;  0.0000000E+00;  0.0000000E+00;  4.0000000E+04;  0.0000000E+00;  4.0000000E+04;  0.0000000E+00;  0.0000000E+00;  0.0000000E+00;  0.0000000E+00;
 -1.7000000E-01;  9.9999998E-03; -4.0000001E-01;276;  0.0000000E+00;  0.0000000E+00;  0.0000000E+00;  1.0000000E+03;  1.0000000E-01;  0.0000000E+00;0;  0.0000000E+00;  0.0000000E+00;  0.0000000E+00;0;  0.0000000E+00;  4.0000000E+04;  0.0000000E+00;  0.0000000E+00;  4.0000000E+04;  0.0000000E+00;  4.0000000E+04;  0.0000000E+00;  0.0000000E+00;  0.0000000E+00;  0.0000000E+00;
 -1.7000000E-01;  9.9999998E-03; -3.8999999E-01;277;  0.0000000E+00;  0.0000000E+00;  0.0000000E+00;  1.0000000E+03;  1.0000000E-01;  0.0000000E+00;0;  0.0000000E+00;  0.0000000E+00;  0.0000000E+00;0;  0.0000000E+00;  4.0000000E+04;  0.0000000E+00;  0.0000000E+00;  4.0000000E+04;  0.0000000E+00;  4.0000000E+04;  0.0000000E+00;  0.0000000E+00;  0.0000000E+00;  0.0000000E+00;
 -1.7000000E-01;  9.9999998E-03; -3.8000000E-01;278;  0.0000000E+00;  0.0000000E+00;  0.0000000E+00;  1.0000000E+03;  1.0000000E-01;  0.0000000E+00;0;  0.0000000E+00;  0.0000000E+00;  0.0000000E+00;0;  0.0000000E+00;  4.0000000E+04;  0.0000000E+00;  0.0000000E+00;  4.0000000E+04;  0.0000000E+00;  4.0000000E+04;  0.0000000E+00;  0.0000000E+00;  0.0000000E+00;  0.0000000E+00;
 -1.7000000E-01;  9.9999998E-03; -3.7000000E-01;279;  0.0000000E+00;  0.0000000E+00;  0.0000000E+00;  1.0000000E+03;  1.0000000E-01;  0.0000000E+00;0;  0.0000000E+00;  0.0000000E+00;  0.0000000E+00;0;  0.0000000E+00;  4.0000000E+04;  0.0000000E+00;  0.0000000E+00;  4.0000000E+04;  0.0000000E+00;  4.0000000E+04;  0.0000000E+00;  0.0000000E+00;  0.0000000E+00;  0.0000000E+00;
 -1.7000000E-01;  9.9999998E-03; -3.6000001E-01;280;  0.0000000E+00;  0.0000000E+00;  0.0000000E+00;  1.0000000E+03;  1.0000000E-01;  0.0000000E+00;0;  0.0000000E+00;  0.0000000E+00;  0.0000000E+00;0;  0.0000000E+00;  4.0000000E+04;  0.0000000E+00;  0.0000000E+00;  4.0000000E+04;  0.0000000E+00;  4.0000000E+04;  0.0000000E+00;  0.0000000E+00;  0.0000000E+00;  0.0000000E+00;
 -1.7000000E-01;  9.9999998E-03; -3.4999999E-01;281;  0.0000000E+00;  0.0000000E+00;  0.0000000E+00;  1.0000000E+03;  1.0000000E-01;  0.0000000E+00;0;  0.0000000E+00;  0.0000000E+00;  0.0000000E+00;0;  0.0000000E+00;  4.0000000E+04;  0.0000000E+00;  0.0000000E+00;  4.0000000E+04;  0.0000000E+00;  4.0000000E+04;  0.0000000E+00;  0.0000000E+00;  0.0000000E+00;  0.0000000E+00;
 -1.7000000E-01;  9.9999998E-03; -3.4000000E-01;282;  0.0000000E+00;  0.0000000E+00;  0.0000000E+00;  1.0000000E+03;  1.0000000E-01;  0.0000000E+00;0;  0.0000000E+00;  0.0000000E+00;  0.0000000E+00;0;  0.0000000E+00;  4.0000000E+04;  0.0000000E+00;  0.0000000E+00;  4.0000000E+04;  0.0000000E+00;  4.0000000E+04;  0.0000000E+00;  0.0000000E+00;  0.0000000E+00;  0.0000000E+00;
 -1.7000000E-01;  9.9999998E-03; -3.3000001E-01;283;  0.0000000E+00;  0.0000000E+00;  0.0000000E+00;  1.0000000E+03;  1.0000000E-01;  0.0000000E+00;0;  0.0000000E+00;  0.0000000E+00;  0.0000000E+00;0;  0.0000000E+00;  4.0000000E+04;  0.0000000E+00;  0.0000000E+00;  4.0000000E+04;  0.0000000E+00;  4.0000000E+04;  0.0000000E+00;  0.0000000E+00;  0.0000000E+00;  0.0000000E+00;
 -1.7000000E-01;  9.9999998E-03; -3.1999999E-01;284;  0.0000000E+00;  0.0000000E+00;  0.0000000E+00;  1.0000000E+03;  1.0000000E-01;  0.0000000E+00;0;  0.0000000E+00;  0.0000000E+00;  0.0000000E+00;0;  0.0000000E+00;  4.0000000E+04;  0.0000000E+00;  0.0000000E+00;  4.0000000E+04;  0.0000000E+00;  4.0000000E+04;  0.0000000E+00;  0.0000000E+00;  0.0000000E+00;  0.0000000E+00;
 -1.7000000E-01;  9.9999998E-03; -3.1000000E-01;285;  0.0000000E+00;  0.0000000E+00;  0.0000000E+00;  1.0000000E+03;  1.0000000E-01;  0.0000000E+00;0;  0.0000000E+00;  0.0000000E+00;  0.0000000E+00;0;  0.0000000E+00;  4.0000000E+04;  0.0000000E+00;  0.0000000E+00;  4.0000000E+04;  0.0000000E+00;  4.0000000E+04;  0.0000000E+00;  0.0000000E+00;  0.0000000E+00;  0.0000000E+00;
 -1.7000000E-01;  9.9999998E-03; -3.0000001E-01;286;  0.0000000E+00;  0.0000000E+00;  0.0000000E+00;  1.0000000E+03;  1.0000000E-01;  0.0000000E+00;0;  0.0000000E+00;  0.0000000E+00;  0.0000000E+00;0;  0.0000000E+00;  4.0000000E+04;  0.0000000E+00;  0.0000000E+00;  4.0000000E+04;  0.0000000E+00;  4.0000000E+04;  0.0000000E+00;  0.0000000E+00;  0.0000000E+00;  0.0000000E+00;
 -1.7000000E-01;  9.9999998E-03; -2.8999999E-01;287;  0.0000000E+00;  0.0000000E+00;  0.0000000E+00;  1.0000000E+03;  1.0000000E-01;  0.0000000E+00;0;  0.0000000E+00;  0.0000000E+00;  0.0000000E+00;0;  0.0000000E+00;  4.0000000E+04;  0.0000000E+00;  0.0000000E+00;  4.0000000E+04;  0.0000000E+00;  4.0000000E+04;  0.0000000E+00;  0.0000000E+00;  0.0000000E+00;  6.8926012E-14;
 -1.7000000E-01;  9.9999998E-03; -2.8000000E-01;288;  0.0000000E+00;  0.0000000E+00;  0.0000000E+00;  1.0000000E+03;  1.0000000E-01;  0.0000000E+00;0;  0.0000000E+00;  0.0000000E+00;  0.0000000E+00;0;  0.0000000E+00;  4.0000000E+04;  0.0000000E+00;  0.0000000E+00;  4.0000000E+04;  0.0000000E+00;  4.0000000E+04;  0.0000000E+00;  0.0000000E+00;  0.0000000E+00;  1.4968563E-11;
 -1.6000000E-01;  9.9999998E-03; -4.4000000E-01;363;  0.0000000E+00;  0.0000000E+00;  0.0000000E+00;  1.0000000E+03;  1.0000000E-01;  0.0000000E+00;0;  0.0000000E+00;  0.0000000E+00;  0.0000000E+00;0;  0.0000000E+00;  4.0000000E+04;  0.0000000E+00;  0.0000000E+00;  4.0000000E+04;  0.0000000E+00;  4.0000000E+04;  0.0000000E+00;  0.0000000E+00;  0.0000000E+00;  0.0000000E+00;
 -1.6000000E-01;  9.9999998E-03; -4.3000001E-01;364;  0.0000000E+00;  0.0000000E+00;  0.0000000E+00;  1.0000000E+03;  1.0000000E-01;  0.0000000E+00;0;  0.0000000E+00;  0.0000000E+00;  0.0000000E+00;0;  0.0000000E+00;  4.0000000E+04;  0.0000000E+00;  0.0000000E+00;  4.0000000E+04;  0.0000000E+00;  4.0000000E+04;  0.0000000E+00;  0.0000000E+00;  0.0000000E+00;  0.0000000E+00;
 -1.6000000E-01;  9.9999998E-03; -4.1999999E-01;365;  0.0000000E+00;  0.0000000E+00;  0.0000000E+00;  1.0000000E+03;  1.0000000E-01;  0.0000000E+00;0;  0.0000000E+00;  0.0000000E+00;  0.0000000E+00;0;  0.0000000E+00;  4.0000000E+04;  0.0000000E+00;  0.0000000E+00;  4.0000000E+04;  0.0000000E+00;  4.0000000E+04;  0.0000000E+00;  0.0000000E+00;  0.0000000E+00;  0.0000000E+00;
 -1.6000000E-01;  9.9999998E-03; -4.1000000E-01;366;  0.0000000E+00;  0.0000000E+00;  0.0000000E+00;  1.0000000E+03;  1.0000000E-01;  0.0000000E+00;0;  0.0000000E+00;  0.0000000E+00;  0.0000000E+00;0;  0.0000000E+00;  4.0000000E+04;  0.0000000E+00;  0.0000000E+00;  4.0000000E+04;  0.0000000E+00;  4.0000000E+04;  0.0000000E+00;  0.0000000E+00;  0.0000000E+00;  0.0000000E+00;
 -1.6000000E-01;  9.9999998E-03; -4.0000001E-01;367;  0.0000000E+00;  0.0000000E+00;  0.0000000E+00;  1.0000000E+03;  1.0000000E-01;  0.0000000E+00;0;  0.0000000E+00;  0.0000000E+00;  0.0000000E+00;0;  0.0000000E+00;  4.0000000E+04;  0.0000000E+00;  0.0000000E+00;  4.0000000E+04;  0.0000000E+00;  4.0000000E+04;  0.0000000E+00;  0.0000000E+00;  0.0000000E+00;  0.0000000E+00;
 -1.6000000E-01;  9.9999998E-03; -3.8999999E-01;368;  0.0000000E+00;  0.0000000E+00;  0.0000000E+00;  1.0000000E+03;  1.0000000E-01;  0.0000000E+00;0;  0.0000000E+00;  0.0000000E+00;  0.0000000E+00;0;  0.0000000E+00;  4.0000000E+04;  0.0000000E+00;  0.0000000E+00;  4.0000000E+04;  0.0000000E+00;  4.0000000E+04;  0.0000000E+00;  0.0000000E+00;  0.0000000E+00;  0.0000000E+00;
 -1.6000000E-01;  9.9999998E-03; -3.8000000E-01;369;  0.0000000E+00;  0.0000000E+00;  0.0000000E+00;  1.0000000E+03;  1.0000000E-01;  0.0000000E+00;0;  0.0000000E+00;  0.0000000E+00;  0.0000000E+00;0;  0.0000000E+00;  4.0000000E+04;  0.0000000E+00;  0.0000000E+00;  4.0000000E+04;  0.0000000E+00;  4.0000000E+04;  0.0000000E+00;  0.0000000E+00;  0.0000000E+00;  0.0000000E+00;
 -1.6000000E-01;  9.9999998E-03; -3.7000000E-01;370;  0.0000000E+00;  0.0000000E+00;  0.0000000E+00;  1.0000000E+03;  1.0000000E-01;  0.0000000E+00;0;  0.0000000E+00;  0.0000000E+00;  0.0000000E+00;0;  0.0000000E+00;  4.0000000E+04;  0.0000000E+00;  0.0000000E+00;  4.0000000E+04;  0.0000000E+00;  4.0000000E+04;  0.0000000E+00;  0.0000000E+00;  0.0000000E+00;  0.0000000E+00;
 -1.6000000E-01;  9.9999998E-03; -3.6000001E-01;371;  0.0000000E+00;  0.0000000E+00;  0.0000000E+00;  1.0000000E+03;  1.0000000E-01;  0.0000000E+00;0;  0.0000000E+00;  0.0000000E+00;  0.0000000E+00;0;  0.0000000E+00;  4.0000000E+04;  0.0000000E+00;  0.0000000E+00;  4.0000000E+04;  0.0000000E+00;  4.0000000E+04;  0.0000000E+00;  0.0000000E+00;  0.0000000E+00;  0.0000000E+00;
 -1.6000000E-01;  9.9999998E-03; -3.4999999E-01;372;  0.0000000E+00;  0.0000000E+00;  0.0000000E+00;  1.0000000E+03;  1.0000000E-01;  0.0000000E+00;0;  0.0000000E+00;  0.0000000E+00;  0.0000000E+00;0;  0.0000000E+00;  4.0000000E+04;  0.0000000E+00;  0.0000000E+00;  4.0000000E+04;  0.0000000E+00;  4.0000000E+04;  0.0000000E+00;  0.0000000E+00;  0.0000000E+00;  0.0000000E+00;
 -1.6000000E-01;  9.9999998E-03; -3.4000000E-01;373;  0.0000000E+00;  0.0000000E+00;  0.0000000E+00;  1.0000000E+03;  1.0000000E-01;  0.0000000E+00;0;  0.0000000E+00;  0.0000000E+00;  0.0000000E+00;0; -1.6025029E-09;  4.0000000E+04;  0.0000000E+00;  0.0000000E+00;  4.0000000E+04;  0.0000000E+00;  4.0000000E+04; -1.2421280E-09;  0.0000000E+00; -3.6037495E-10;  1.3451095E-03;
 -1.6000000E-01;  9.9999998E-03; -3.3000001E-01;374;  0.0000000E+00;  0.0000000E+00;  0.0000000E+00;  1.0000000E+03;  1.0000000E-01;  0.0000000E+00;0;  0.0000000E+00;  0.0000000E+00;  0.0000000E+00;0; -2.4145008E-08;  4.0000000E+04;  0.0000000E+00;  0.0000000E+00;  4.0000000E+04;  0.0000000E+00;  4.0000000E+04; -1.9600790E-08;  0.0000000E+00; -4.5442174E-09;  1.1973910E-02;
 -1.6000000E-01;  9.9999998E-03; -3.1999999E-01;375;  0.0000000E+00;  0.0000000E+00;  0.0000000E+00;  1.0000000E+03;  1.0000000E-01;  0.0000000E+00;0;  0.0000000E+00;  0.0000000E+00;  0.0000000E+00;0; -8.6874394E-08;  4.0000000E+04;  0.0000000E+00;  0.0000000E+00;  4.0000000E+04;  0.0000000E+00;  4.0000000E+04; -7.2939685E-08;  0.0000000E+00; -1.3934708E-08;  3.5394564E-02;
 -1.6000000E-01;  9.9999998E-03; -3.1000000E-01;376;  0.0000000E+00;  0.0000000E+00;  0.0000000E+00;  1.0000000E+03;  1.0000000E-01;  0.0000000E+00;0;  0.0000000E+00;  0.0000000E+00;  0.0000000E+00;0; -1.8668736E-07;  4.0000000E+04;  0.0000000E+00;  0.0000000E+00;  4.0000000E+04;  0.0000000E+00;  4.0000000E+04; -1.6191599E-07;  0.0000000E+00; -2.4771367E-08;  6.3292108E-02;
 -1.6000000E-01;  9.9999998E-03; -3.0000001E-01;377;  0.0000000E+00;  0.0000000E+00;  0.0000000E+00;  1.0000000E+03;  1.0000000E-01;  0.0000000E+00;0;  0.0000000E+00;  0.0000000E+00;  0.0000000E+00;0; -2.9790868E-07;  4.0000000E+04;  0.0000000E+00;  0.0000000E+00;  4.0000000E+04;  0.0000000E+00;  4.0000000E+04; -2.6717186E-07;  0.0000000E+00; -3.0736842E-08;  7.8912027E-02;
 -1.6000000E-01;  9.9999998E-03; -2.8999999E-01;378;  0.0000000E+00;  0.0000000E+00;  0.0000000E+00;  1.0000000E+03;  1.0000000E-01;  0.0000000E+00;0;  0.0000000E+00;  0.0000000E+00;  0.0000000E+00;0; -3.8526980E-07;  4.0000000E+04;  0.0000000E+00;  0.0000000E+00;  4.0000000E+04;  0.0000000E+00;  4.0000000E+04; -3.5793806E-07;  0.0000000E+00; -2.7331742E-08;  6.6966690E-02;
 -1.6000000E-01;  9.9999998E-03; -2.8000000E-01;379;  0.0000000E+00;  0.0000000E+00;  0.0000000E+00;  1.0000000E+03;  1.0000000E-01;  0.0000000E+00;0;  0.0000000E+00;  0.0000000E+00;  0.0000000E+00;0; -4.2098540E-07;  4.0000000E+04;  0.0000000E+00;  0.0000000E+00;  4.0000000E+04;  0.0000000E+00;  4.0000000E+04; -4.0593019E-07;  0.0000000E+00; -1.5055194E-08;  2.3648029E-02;
 -1.5000001E-01;  9.9999998E-03; -4.4000000E-01;454;  0.0000000E+00;  0.0000000E+00;  0.0000000E+00;  1.0000000E+03;  1.0000000E-01;  0.0000000E+00;0;  0.0000000E+00;  0.0000000E+00;  0.0000000E+00;0;  0.0000000E+00;  4.0000000E+04;  0.0000000E+00;  0.0000000E+00;  4.0000000E+04;  0.0000000E+00;  4.0000000E+04;  0.0000000E+00;  0.0000000E+00;  0.0000000E+00;  0.0000000E+00;
 -1.5000001E-01;  9.9999998E-03; -4.3000001E-01;455;  0.0000000E+00;  0.0000000E+00;  0.0000000E+00;  1.0000000E+03;  1.0000000E-01;  0.0000000E+00;0;  0.0000000E+00;  0.0000000E+00;  0.0000000E+00;0;  0.0000000E+00;  4.0000000E+04;  0.0000000E+00;  0.0000000E+00;  4.0000000E+04;  0.0000000E+00;  4.0000000E+04;  0.0000000E+00;  0.0000000E+00;  0.0000000E+00;  0.0000000E+00;
 -1.5000001E-01;  9.9999998E-03; -4.1999999E-01;456;  0.0000000E+00;  0.0000000E+00;  0.0000000E+00;  1.0000000E+03;  1.0000000E-01;  0.0000000E+00;0;  0.0000000E+00;  0.0000000E+00;  0.0000000E+00;0;  0.0000000E+00;  4.0000000E+04;  0.0000000E+00;  0.0000000E+00;  4.0000000E+04;  0.0000000E+00;  4.0000000E+04;  0.0000000E+00;  0.0000000E+00;  0.0000000E+00;  0.0000000E+00;
 -1.5000001E-01;  9.9999998E-03; -4.1000000E-01;457;  0.0000000E+00;  0.0000000E+00;  0.0000000E+00;  1.0000000E+03;  1.0000000E-01;  0.0000000E+00;0;  0.0000000E+00;  0.0000000E+00;  0.0000000E+00;0;  0.0000000E+00;  4.0000000E+04;  0.0000000E+00;  0.0000000E+00;  4.0000000E+04;  0.0000000E+00;  4.0000000E+04;  0.0000000E+00;  0.0000000E+00;  0.0000000E+00;  0.0000000E+00;
 -1.5000001E-01;  9.9999998E-03; -4.0000001E-01;458;  0.0000000E+00;  0.0000000E+00;  0.0000000E+00;  1.0000000E+03;  1.0000000E-01;  0.0000000E+00;0;  0.0000000E+00;  0.0000000E+00;  0.0000000E+00;0;  0.0000000E+00;  4.0000000E+04;  0.0000000E+00;  0.0000000E+00;  4.0000000E+04;  0.0000000E+00;  4.0000000E+04;  0.0000000E+00;  0.0000000E+00;  0.0000000E+00;  0.0000000E+00;
 -1.5000001E-01;  9.9999998E-03; -3.8999999E-01;459;  0.0000000E+00;  0.0000000E+00;  0.0000000E+00;  1.0000000E+03;  1.0000000E-01;  0.0000000E+00;0;  0.0000000E+00;  0.0000000E+00;  0.0000000E+00;0;  0.0000000E+00;  4.0000000E+04;  0.0000000E+00;  0.0000000E+00;  4.0000000E+04;  0.0000000E+00;  4.0000000E+04;  0.0000000E+00;  0.0000000E+00;  0.0000000E+00;  0.0000000E+00;
 -1.5000001E-01;  9.9999998E-03; -3.8000000E-01;460;  0.0000000E+00;  0.0000000E+00;  0.0000000E+00;  1.0000000E+03;  1.0000000E-01;  0.0000000E+00;0;  0.0000000E+00;  0.0000000E+00;  0.0000000E+00;0;  0.0000000E+00;  4.0000000E+04;  0.0000000E+00;  0.0000000E+00;  4.0000000E+04;  0.0000000E+00;  4.0000000E+04;  0.0000000E+00;  0.0000000E+00;  0.0000000E+00;  0.0000000E+00;
 -1.5000001E-01;  9.9999998E-03; -3.7000000E-01;461;  0.0000000E+00;  0.0000000E+00;  0.0000000E+00;  1.0000000E+03;  1.0000000E-01;  0.0000000E+00;0;  0.0000000E+00;  0.0000000E+00;  0.0000000E+00;0;  0.0000000E+00;  4.0000000E+04;  0.0000000E+00;  0.0000000E+00;  4.0000000E+04;  0.0000000E+00;  4.0000000E+04;  0.0000000E+00;  0.0000000E+00;  0.0000000E+00;  3.0836722E-09;
 -1.5000001E-01;  9.9999998E-03; -3.6000001E-01;462;  0.0000000E+00;  0.0000000E+00;  0.0000000E+00;  1.0000000E+03;  1.0000000E-01;  0.0000000E+00;0;  0.0000000E+00;  0.0000000E+00;  0.0000000E+00;0; -1.5862181E-08;  4.0000000E+04;  0.0000000E+00;  0.0000000E+00;  4.0000000E+04;  0.0000000E+00;  4.0000000E+04; -1.0829048E-08;  0.0000000E+00; -5.0331330E-09;  1.3408286E-02;
 -1.5000001E-01;  9.9999998E-03; -3.4999999E-01;463;  0.0000000E+00;  0.0000000E+00;  0.0000000E+00;  1.0000000E+03;  1.0000000E-01;  0.0000000E+00;0;  0.0000000E+00;  0.0000000E+00;  0.0000000E+00;0; -1.3524051E-07;  4.0000000E+04;  0.0000000E+00;  0.0000000E+00;  4.0000000E+04;  0.0000000E+00;  4.0000000E+04; -9.7245213E-08;  0.0000000E+00; -3.7995303E-08;  8.9468673E-02;
 -1.5000001E-01;  9.9999998E-03; -3.4000000E-01;464;  0.0000000E+00;  0.0000000E+00;  0.0000000E+00;  1.0000000E+03;  1.0000000E-01;  0.0000000E+00;0;  0.0000000E+00;  0.0000000E+00;  0.0000000E+00;0; -4.7722278E-07;  4.0000000E+04;  0.0000000E+00;  0.0000000E+00;  4.0000000E+04;  0.0000000E+00;  4.0000000E+04; -3.5954335E-07;  0.0000000E+00; -1.1767945E-07;  2.7471620E-01;
 -1.5000001E-01;  9.9999998E-03; -3.3000001E-01;465;  0.0000000E+00;  0.0000000E+00;  0.0000000E+00;  1.0000000E+03;  1.0000000E-01;  0.0000000E+00;0;  0.0000000E+00;  0.0000000E+00;  0.0000000E+00;0; -1.1105415E-06;  4.0000000E+04;  0.0000000E+00;  0.0000000E+00;  4.0000000E+04;  0.0000000E+00;  4.0000000E+04; -8.6969214E-07;  0.0000000E+00; -2.4084929E-07;  5.6711417E-01;
 -1.5000001E-01;  9.9999998E-03; -3.1999999E-01;466;  0.0000000E+00;  0.0000000E+00;  0.0000000E+00;  1.0000000E+03;  1.0000000E-01;  0.0000000E+00;0;  0.0000000E+00;  0.0000000E+00;  0.0000000E+00;0; -2.0033388E-06;  4.0000000E+04;  0.0000000E+00;  0.0000000E+00;  4.0000000E+04;  0.0000000E+00;  4.0000000E+04; -1.6225576E-06;  0.0000000E+00; -3.8078102E-07;  8.9686877E-01;
 -1.5000001E-01;  9.9999998E-03; -3.1000000E-01;467;  0.0000000E+00;  0.0000000E+00;  0.0000000E+00;  1.0000000E+03;  1.0000000E-01;  0.0000000E+00;0;  0.0000000E+00;  0.0000000E+00;  0.0000000E+00;0; -3.0262631E-06;  4.0000000E+04;  0.0000000E+00;  0.0000000E+00;  4.0000000E+04;  0.0000000E+00;  4.0000000E+04; -2.5291897E-06;  0.0000000E+00; -4.9707353E-07;  1.1444834E+00;
 -1.5000001E-01;  9.9999998E-03; -3.0000001E-01;468;  0.0000000E+00;  0.0000000E+00;  0.0000000E+00;  1.0000000E+03;  1.0000000E-01;  0.0000000E+00;0;  0.0000000E+00;  0.0000000E+00;  0.0000000E+00;0; -3.9942029E-06;  4.0000000E+04;  0.0000000E+00;  0.0000000E+00;  4.0000000E+04;  0.0000000E+00;  4.0000000E+04; -3.4437037E-06;  0.0000000E+00; -5.5049924E-07;  1.1847014E+00;
 -1.5000001E-01;  9.9999998E-03; -2.8999999E-01;469;  0.0000000E+00;  0.0000000E+00;  0.0000000E+00;  1.0000000E+03;  1.0000000E-01;  0.0000000E+00;0;  0.0000000E+00;  0.0000000E+00;  0.0000000E+00;0; -4.7282410E-06;  4.0000000E+04;  0.0000000E+00;  0.0000000E+00;  4.0000000E+04;  0.0000000E+00;  4.0000000E+04; -4.2102192E-06;  0.0000000E+00; -5.1802164E-07;  9.3655896E-01;
 -1.5000001E-01;  9.9999998E-03; -2.8000000E-01;470;  0.0000000E+00;  0.0000000E+00;  0.0000000E+00;  1.0000000E+03;  1.0000000E-01;  0.0000000E+00;0;  0.0000000E+00;  0.0000000E+00;  0.0000000E+00;0; -5.1154693E-06;  4.0000000E+04;  0.0000000E+00;  0.0000000E+00;  4.0000000E+04;  0.0000000E+00;  4.0000000E+04; -4.7130843E-06;  0.0000000E+00; -4.0238493E-07;  3.9848155E-01;
 -1.4000000E-01;  9.9999998E-03; -4.4000000E-01;545;  0.0000000E+00;  0.0000000E+00;  0.0000000E+00;  1.0000000E+03;  1.0000000E-01;  0.0000000E+00;0;  0.0000000E+00;  0.0000000E+00;  0.0000000E+00;0;  0.0000000E+00;  4.0000000E+04;  0.0000000E+00;  0.0000000E+00;  4.0000000E+04;  0.0000000E+00;  4.0000000E+04;  0.0000000E+00;  0.0000000E+00;  0.0000000E+00;  0.0000000E+00;
 -1.4000000E-01;  9.9999998E-03; -4.3000001E-01;546;  0.0000000E+00;  0.0000000E+00;  0.0000000E+00;  1.0000000E+03;  1.0000000E-01;  0.0000000E+00;0;  0.0000000E+00;  0.0000000E+00;  0.0000000E+00;0;  0.0000000E+00;  4.0000000E+04;  0.0000000E+00;  0.0000000E+00;  4.0000000E+04;  0.0000000E+00;  4.0000000E+04;  0.0000000E+00;  0.0000000E+00;  0.0000000E+00;  0.0000000E+00;
 -1.4000000E-01;  9.9999998E-03; -4.1999999E-01;547;  0.0000000E+00;  0.0000000E+00;  0.0000000E+00;  1.0000000E+03;  1.0000000E-01;  0.0000000E+00;0;  0.0000000E+00;  0.0000000E+00;  0.0000000E+00;0;  0.0000000E+00;  4.0000000E+04;  0.0000000E+00;  0.0000000E+00;  4.0000000E+04;  0.0000000E+00;  4.0000000E+04;  0.0000000E+00;  0.0000000E+00;  0.0000000E+00;  0.0000000E+00;
 -1.4000000E-01;  9.9999998E-03; -4.1000000E-01;548;  0.0000000E+00;  0.0000000E+00;  0.0000000E+00;  1.0000000E+03;  1.0000000E-01;  0.0000000E+00;0;  0.0000000E+00;  0.0000000E+00;  0.0000000E+00;0;  0.0000000E+00;  4.0000000E+04;  0.0000000E+00;  0.0000000E+00;  4.0000000E+04;  0.0000000E+00;  4.0000000E+04;  0.0000000E+00;  0.0000000E+00;  0.0000000E+00;  0.0000000E+00;
 -1.4000000E-01;  9.9999998E-03; -4.0000001E-01;549;  0.0000000E+00;  0.0000000E+00;  0.0000000E+00;  1.0000000E+03;  1.0000000E-01;  0.0000000E+00;0;  0.0000000E+00;  0.0000000E+00;  0.0000000E+00;0;  0.0000000E+00;  4.0000000E+04;  0.0000000E+00;  0.0000000E+00;  4.0000000E+04;  0.0000000E+00;  4.0000000E+04;  0.0000000E+00;  0.0000000E+00;  0.0000000E+00;  0.0000000E+00;
 -1.4000000E-01;  9.9999998E-03; -3.8999999E-01;550;  0.0000000E+00;  0.0000000E+00;  0.0000000E+00;  1.0000000E+03;  1.0000000E-01;  0.0000000E+00;0;  0.0000000E+00;  0.0000000E+00;  0.0000000E+00;0;  0.0000000E+00;  4.0000000E+04;  0.0000000E+00;  0.0000000E+00;  4.0000000E+04;  0.0000000E+00;  4.0000000E+04;  0.0000000E+00;  0.0000000E+00;  0.0000000E+00;  0.0000000E+00;
 -1.4000000E-01;  9.9999998E-03; -3.8000000E-01;551;  0.0000000E+00;  0.0000000E+00;  0.0000000E+00;  1.0000000E+03;  1.0000000E-01;  0.0000000E+00;0;  0.0000000E+00;  0.0000000E+00;  0.0000000E+00;0; -7.5256965E-09;  4.0000000E+04;  0.0000000E+00;  0.0000000E+00;  4.0000000E+04;  0.0000000E+00;  4.0000000E+04; -4.3440322E-09;  0.0000000E+00; -3.1816645E-09;  9.6869515E-03;
 -1.4000000E-01;  9.9999998E-03; -3.7000000E-01;552;  0.0000000E+00;  0.0000000E+00;  0.0000000E+00;  1.0000000E+03;  1.0000000E-01;  0.0000000E+00;0;  0.0000000E+00;  0.0000000E+00;  0.0000000E+00;0; -1.6771932E-07;  4.0000000E+04;  0.0000000E+00;  0.0000000E+00;  4.0000000E+04;  0.0000000E+00;  4.0000000E+04; -1.0758936E-07;  0.0000000E+00; -6.0129963E-08;  1.4623685E-01;
 -1.4000000E-01;  9.9999998E-03; -3.6000001E-01;553;  0.0000000E+00;  0.0000000E+00;  0.0000000E+00;  1.0000000E+03;  1.0000000E-01;  0.0000000E+00;0;  0.0000000E+00;  0.0000000E+00;  0.0000000E+00;0; -8.0251453E-07;  4.0000000E+04;  0.0000000E+00;  0.0000000E+00;  4.0000000E+04;  0.0000000E+00;  4.0000000E+04; -5.5026010E-07;  0.0000000E+00; -2.5225444E-07;  6.0599369E-01;
 -1.4000000E-01;  9.9999998E-03; -3.4999999E-01;554;  0.0000000E+00;  0.0000000E+00;  0.0000000E+00;  1.0000000E+03;  1.0000000E-01;  0.0000000E+00;0;  0.0000000E+00;  0.0000000E+00;  0.0000000E+00;0; -2.2167167E-06;  4.0000000E+04;  0.0000000E+00;  0.0000000E+00;  4.0000000E+04;  0.0000000E+00;  4.0000000E+04; -1.5931754E-06;  0.0000000E+00; -6.2354121E-07;  1.5068991E+00;
 -1.4000000E-01;  9.9999998E-03; -3.4000000E-01;555;  0.0000000E+00;  0.0000000E+00;  0.0000000E+00;  1.0000000E+03;  1.0000000E-01;  0.0000000E+00;0;  0.0000000E+00;  0.0000000E+00;  0.0000000E+00;0; -4.5940283E-06;  4.0000000E+04;  0.0000000E+00;  0.0000000E+00;  4.0000000E+04;  0.0000000E+00;  4.0000000E+04; -3.4339491E-06;  0.0000000E+00; -1.1600793E-06;  2.8152711E+00;
 -1.4000000E-01;  9.9999998E-03; -3.3000001E-01;556;  0.0000000E+00;  0.0000000E+00;  0.0000000E+00;  1.0000000E+03;  1.0000000E-01;  0.0000000E+00;0;  0.0000000E+00;  0.0000000E+00;  0.0000000E+00;0; -7.9139018E-06;  4.0000000E+04;  0.0000000E+00;  0.0000000E+00;  4.0000000E+04;  0.0000000E+00;  4.0000000E+04; -6.1235046E-06;  0.0000000E+00; -1.7903972E-06;  4.3136020E+00;
 -1.4000000E-01;  9.9999998E-03; -3.1999999E-01;557;  0.0000000E+00;  0.0000000E+00;  0.0000000E+00;  1.0000000E+03;  1.0000000E-01;  0.0000000E+00;0;  0.0000000E+00;  0.0000000E+00;  0.0000000E+00;0; -1.1919058E-05;  4.0000000E+04;  0.0000000E+00;  0.0000000E+00;  4.0000000E+04;  0.0000000E+00;  4.0000000E+04; -9.5195073E-06;  0.0000000E+00; -2.3995508E-06;  5.6273842E+00;
 -1.4000000E-01;  9.9999998E-03; -3.1000000E-01;558;  0.0000000E+00;  0.0000000E+00;  0.0000000E+00;  1.0000000E+03;  1.0000000E-01;  0.0000000E+00;0;  0.0000000E+00;  0.0000000E+00;  0.0000000E+00;0; -1.6162949E-05;  4.0000000E+04;  0.0000000E+00;  0.0000000E+00;  4.0000000E+04;  0.0000000E+00;  4.0000000E+04; -1.3308327E-05;  0.0000000E+00; -2.8546215E-06;  6.3173523E+00;
 -1.4000000E-01;  9.9999998E-03; -3.0000001E-01;559;  0.0000000E+00;  0.0000000E+00;  0.0000000E+00;  1.0000000E+03;  1.0000000E-01;  0.0000000E+00;0;  0.0000000E+00;  0.0000000E+00;  0.0000000E+00;0; -2.0119007E-05;  4.0000000E+04;  0.0000000E+00;  0.0000000E+00;  4.0000000E+04;  0.0000000E+00;  4.0000000E+04; -1.7080869E-05;  0.0000000E+00; -3.0381386E-06;  6.0061874E+00;
 -1.4000000E-01;  9.9999998E-03; -2.8999999E-01;560;  0.0000000E+00;  0.0000000E+00;  0.0000000E+00;  1.0000000E+03;  1.0000000E-01;  0.0000000E+00;0;  0.0000000E+00;  0.0000000E+00;  0.0000000E+00;0; -2.3320652E-05;  4.0000000E+04;  0.0000000E+00;  0.0000000E+00;  4.0000000E+04;  0.0000000E+00;  4.0000000E+04; -2.0437612E-05;  0.0000000E+00; -2.8830407E-06;  4.5019083E+00;
 -1.4000000E-01;  9.9999998E-03; -2.8000000E-01;561;  0.0000000E+00;  0.0000000E+00;  0.0000000E+00;  1.0000000E+03;  1.0000000E-01;  0.0000000E+00;0;  0.0000000E+00;  0.0000000E+00;  0.0000000E+00;0; -2.5488887E-05;  4.0000000E+04;  0.0000000E+00;  0.0000000E+00;  4.0000000E+04;  0.0000000E+00;  4.0000000E+04; -2.3091969E-05;  0.0000000E+00; -2.3969183E-06;  1.8739135E+00;
 -1.3000000E-01;  9.9999998E-03; -4.4000000E-01;636;  0.0000000E+00;  0.0000000E+00;  0.0000000E+00;  1.0000000E+03;  1.0000000E-01;  0.0000000E+00;0;  0.0000000E+00;  0.0000000E+00;  0.0000000E+00;0;  0.0000000E+00;  4.0000000E+04;  0.0000000E+00;  0.0000000E+00;  4.0000000E+04;  0.0000000E+00;  4.0000000E+04;  0.0000000E+00;  0.0000000E+00;  0.0000000E+00;  0.0000000E+00;
 -1.3000000E-01;  9.9999998E-03; -4.3000001E-01;637;  0.0000000E+00;  0.0000000E+00;  0.0000000E+00;  1.0000000E+03;  1.0000000E-01;  0.0000000E+00;0;  0.0000000E+00;  0.0000000E+00;  0.0000000E+00;0;  0.0000000E+00;  4.0000000E+04;  0.0000000E+00;  0.0000000E+00;  4.0000000E+04;  0.0000000E+00;  4.0000000E+04;  0.0000000E+00;  0.0000000E+00;  0.0000000E+00;  0.0000000E+00;
 -1.3000000E-01;  9.9999998E-03; -4.1999999E-01;638;  0.0000000E+00;  0.0000000E+00;  0.0000000E+00;  1.0000000E+03;  1.0000000E-01;  0.0000000E+00;0;  0.0000000E+00;  0.0000000E+00;  0.0000000E+00;0;  0.0000000E+00;  4.0000000E+04;  0.0000000E+00;  0.0000000E+00;  4.0000000E+04;  0.0000000E+00;  4.0000000E+04;  0.0000000E+00;  0.0000000E+00;  0.0000000E+00;  0.0000000E+00;
 -1.3000000E-01;  9.9999998E-03; -4.1000000E-01;639;  0.0000000E+00;  0.0000000E+00;  0.0000000E+00;  1.0000000E+03;  1.0000000E-01;  0.0000000E+00;0;  0.0000000E+00;  0.0000000E+00;  0.0000000E+00;0;  0.0000000E+00;  4.0000000E+04;  0.0000000E+00;  0.0000000E+00;  4.0000000E+04;  0.0000000E+00;  4.0000000E+04;  0.0000000E+00;  0.0000000E+00;  0.0000000E+00;  0.0000000E+00;
 -1.3000000E-01;  9.9999998E-03; -4.0000001E-01;640;  0.0000000E+00;  0.0000000E+00;  0.0000000E+00;  1.0000000E+03;  1.0000000E-01;  0.0000000E+00;0;  0.0000000E+00;  0.0000000E+00;  0.0000000E+00;0;  0.0000000E+00;  4.0000000E+04;  0.0000000E+00;  0.0000000E+00;  4.0000000E+04;  0.0000000E+00;  4.0000000E+04;  0.0000000E+00;  0.0000000E+00;  0.0000000E+00;  0.0000000E+00;
 -1.3000000E-01;  9.9999998E-03; -3.8999999E-01;641;  0.0000000E+00;  0.0000000E+00;  0.0000000E+00;  1.0000000E+03;  1.0000000E-01;  0.0000000E+00;0;  0.0000000E+00;  0.0000000E+00;  0.0000000E+00;0; -5.5298116E-08;  4.0000000E+04;  0.0000000E+00;  0.0000000E+00;  4.0000000E+04;  0.0000000E+00;  4.0000000E+04; -3.0308442E-08;  0.0000000E+00; -2.4989674E-08;  6.6067785E-02;
 -1.3000000E-01;  9.9999998E-03; -3.8000000E-01;642;  0.0000000E+00;  0.0000000E+00;  0.0000000E+00;  1.0000000E+03;  1.0000000E-01;  0.0000000E+00;0;  0.0000000E+00;  0.0000000E+00;  0.0000000E+00;0; -5.8663483E-07;  4.0000000E+04;  0.0000000E+00;  0.0000000E+00;  4.0000000E+04;  0.0000000E+00;  4.0000000E+04; -3.5580115E-07;  0.0000000E+00; -2.3083368E-07;  5.7803959E-01;
 -1.3000000E-01;  9.9999998E-03; -3.7000000E-01;643;  0.0000000E+00;  0.0000000E+00;  0.0000000E+00;  1.0000000E+03;  1.0000000E-01;  0.0000000E+00;0;  0.0000000E+00;  0.0000000E+00;  0.0000000E+00;0; -2.2343781E-06;  4.0000000E+04;  0.0000000E+00;  0.0000000E+00;  4.0000000E+04;  0.0000000E+00;  4.0000000E+04; -1.4403070E-06;  0.0000000E+00; -7.9407113E-07;  1.9895992E+00;
 -1.3000000E-01;  9.9999998E-03; -3.6000001E-01;644;  0.0000000E+00;  0.0000000E+00;  0.0000000E+00;  1.0000000E+03;  1.0000000E-01;  0.0000000E+00;0;  0.0000000E+00;  0.0000000E+00;  0.0000000E+00;0; -5.6590438E-06;  4.0000000E+04;  0.0000000E+00;  0.0000000E+00;  4.0000000E+04;  0.0000000E+00;  4.0000000E+04; -3.8438075E-06;  0.0000000E+00; -1.8152365E-06;  4.5749297E+00;
 -1.3000000E-01;  9.9999998E-03; -3.4999999E-01;645;  0.0000000E+00;  0.0000000E+00;  0.0000000E+00;  1.0000000E+03;  1.0000000E-01;  0.0000000E+00;0;  0.0000000E+00;  0.0000000E+00;  0.0000000E+00;0; -1.1325025E-05;  4.0000000E+04;  0.0000000E+00;  0.0000000E+00;  4.0000000E+04;  0.0000000E+00;  4.0000000E+04; -8.0440723E-06;  0.0000000E+00; -3.2809528E-06;  8.2700891E+00;
 -1.3000000E-01;  9.9999998E-03; -3.4000000E-01;646;  0.0000000E+00;  0.0000000E+00;  0.0000000E+00;  1.0000000E+03;  1.0000000E-01;  0.0000000E+00;0;  0.0000000E+00;  0.0000000E+00;  0.0000000E+00;0; -1.9383759E-05;  4.0000000E+04;  0.0000000E+00;  0.0000000E+00;  4.0000000E+04;  0.0000000E+00;  4.0000000E+04; -1.4317222E-05;  0.0000000E+00; -5.0665371E-06;  1.2631415E+01;
 -1.3000000E-01;  9.9999998E-03; -3.3000001E-01;647;  0.0000000E+00;  0.0000000E+00;  0.0000000E+00;  1.0000000E+03;  1.0000000E-01;  0.0000000E+00;0;  0.0000000E+00;  0.0000000E+00;  0.0000000E+00;0; -2.9583593E-05;  4.0000000E+04;  0.0000000E+00;  0.0000000E+00;  4.0000000E+04;  0.0000000E+00;  4.0000000E+04; -2.2632150E-05;  0.0000000E+00; -6.9514422E-06;  1.6869549E+01;
 -1.3000000E-01;  9.9999998E-03; -3.1999999E-01;648;  0.0000000E+00;  0.0000000E+00;  0.0000000E+00;  1.0000000E+03;  1.0000000E-01;  0.0000000E+00;0;  0.0000000E+00;  0.0000000E+00;  0.0000000E+00;0; -4.1256542E-05;  4.0000000E+04;  0.0000000E+00;  0.0000000E+00;  4.0000000E+04;  0.0000000E+00;  4.0000000E+04; -3.2609358E-05;  0.0000000E+00; -8.6471846E-06;  1.9973646E+01;
 -1.3000000E-01;  9.9999998E-03; -3.1000000E-01;649;  0.0000000E+00;  0.0000000E+00;  0.0000000E+00;  1.0000000E+03;  1.0000000E-01;  0.0000000E+00;0;  0.0000000E+00;  0.0000000E+00;  0.0000000E+00;0; -5.3422762E-05;  4.0000000E+04;  0.0000000E+00;  0.0000000E+00;  4.0000000E+04;  0.0000000E+00;  4.0000000E+04; -4.3579810E-05;  0.0000000E+00; -9.8429509E-06;  2.0919720E+01;
 -1.3000000E-01;  9.9999998E-03; -3.0000001E-01;650;  0.0000000E+00;  0.0000000E+00;  0.0000000E+00;  1.0000000E+03;  1.0000000E-01;  0.0000000E+00;0;  0.0000000E+00;  0.0000000E+00;  0.0000000E+00;0; -6.4992942E-05;  4.0000000E+04;  0.0000000E+00;  0.0000000E+00;  4.0000000E+04;  0.0000000E+00;  4.0000000E+04; -5.4723092E-05;  0.0000000E+00; -1.0269847E-05;  1.8923248E+01;
 -1.3000000E-01;  9.9999998E-03; -2.8999999E-01;651;  0.0000000E+00;  0.0000000E+00;  0.0000000E+00;  1.0000025E+03;  1.0000000E-01;  2.0740154E+00;0;  0.0000000E+00;  0.0000000E+00;  0.0000000E+00;0; -7.5021140E-05;  4.0000000E+04;  0.0000000E+00;  0.0000000E+00;  4.0000000E+04;  0.0000000E+00;  4.0000000E+04; -6.5247717E-05;  0.0000000E+00; -9.7734237E-06;  1.3679590E+01;
 -1.3000000E-01;  9.9999998E-03; -2.8000000E-01;652;  0.0000000E+00;  0.0000000E+00;  0.0000000E+00;  1.0000000E+03;  1.0000000E-01;  0.0000000E+00;0;  0.0000000E+00;  0.0000000E+00;  0.0000000E+00;0; -8.2933286E-05;  4.0000000E+04;  0.0000000E+00;  0.0000000E+00;  4.0000000E+04;  0.0000000E+00;  4.0000000E+04; -7.4565665E-05;  0.0000000E+00; -8.3676177E-06;  5.5015764E+00;
 -1.2000000E-01;  9.9999998E-03; -4.4000000E-01;727;  0.0000000E+00;  0.0000000E+00;  0.0000000E+00;  1.0000000E+03;  1.0000000E-01;  0.0000000E+00;0;  0.0000000E+00;  0.0000000E+00;  0.0000000E+00;0;  0.0000000E+00;  4.0000000E+04;  0.0000000E+00;  0.0000000E+00;  4.0000000E+04;  0.0000000E+00;  4.0000000E+04;  0.0000000E+00;  0.0000000E+00;  0.0000000E+00;  0.0000000E+00;
 -1.2000000E-01;  9.9999998E-03; -4.3000001E-01;728;  0.0000000E+00;  0.0000000E+00;  0.0000000E+00;  1.0000000E+03;  1.0000000E-01;  0.0000000E+00;0;  0.0000000E+00;  0.0000000E+00;  0.0000000E+00;0;  0.0000000E+00;  4.0000000E+04;  0.0000000E+00;  0.0000000E+00;  4.0000000E+04;  0.0000000E+00;  4.0000000E+04;  0.0000000E+00;  0.0000000E+00;  0.0000000E+00;  0.0000000E+00;
 -1.2000000E-01;  9.9999998E-03; -4.1999999E-01;729;  0.0000000E+00;  0.0000000E+00;  0.0000000E+00;  1.0000000E+03;  1.0000000E-01;  0.0000000E+00;0;  0.0000000E+00;  0.0000000E+00;  0.0000000E+00;0;  0.0000000E+00;  4.0000000E+04;  0.0000000E+00;  0.0000000E+00;  4.0000000E+04;  0.0000000E+00;  4.0000000E+04;  0.0000000E+00;  0.0000000E+00;  0.0000000E+00;  0.0000000E+00;
 -1.2000000E-01;  9.9999998E-03; -4.1000000E-01;730;  0.0000000E+00;  0.0000000E+00;  0.0000000E+00;  1.0000000E+03;  1.0000000E-01;  0.0000000E+00;0;  0.0000000E+00;  0.0000000E+00;  0.0000000E+00;0;  0.0000000E+00;  4.0000000E+04;  0.0000000E+00;  0.0000000E+00;  4.0000000E+04;  0.0000000E+00;  4.0000000E+04;  0.0000000E+00;  0.0000000E+00;  0.0000000E+00;  3.0553806E-06;
 -1.2000000E-01;  9.9999998E-03; -4.0000001E-01;731;  0.0000000E+00;  0.0000000E+00;  0.0000000E+00;  1.0000000E+03;  1.0000000E-01;  0.0000000E+00;0;  0.0000000E+00;  0.0000000E+00;  0.0000000E+00;0; -1.4172859E-07;  4.0000000E+04;  0.0000000E+00;  0.0000000E+00;  4.0000000E+04;  0.0000000E+00;  4.0000000E+04; -7.4274411E-08;  0.0000000E+00; -6.7454181E-08;  1.7909507E-01;
 -1.2000000E-01;  9.9999998E-03; -3.8999999E-01;732;  0.0000000E+00;  0.0000000E+00;  0.0000000E+00;  1.0000000E+03;  1.0000000E-01;  0.0000000E+00;0;  0.0000000E+00;  0.0000000E+00;  0.0000000E+00;0; -1.1634302E-06;  4.0000000E+04;  0.0000000E+00;  0.0000000E+00;  4.0000000E+04;  0.0000000E+00;  4.0000000E+04; -6.5226317E-07;  0.0000000E+00; -5.1116706E-07;  1.3154777E+00;
 -1.2000000E-01;  9.9999998E-03; -3.8000000E-01;733;  0.0000000E+00;  0.0000000E+00;  0.0000000E+00;  1.0000000E+03;  1.0000000E-01;  0.0000000E+00;0;  0.0000000E+00;  0.0000000E+00;  0.0000000E+00;0; -4.1787889E-06;  4.0000000E+04;  0.0000000E+00;  0.0000000E+00;  4.0000000E+04;  0.0000000E+00;  4.0000000E+04; -2.5017207E-06;  0.0000000E+00; -1.6770684E-06;  4.3462491E+00;
 -1.2000000E-01;  9.9999998E-03; -3.7000000E-01;734;  0.0000000E+00;  0.0000000E+00;  0.0000000E+00;  1.0000000E+03;  1.0000000E-01;  0.0000000E+00;0;  0.0000000E+00;  0.0000000E+00;  0.0000000E+00;0; -1.0349817E-05;  4.0000000E+04;  0.0000000E+00;  0.0000000E+00;  4.0000000E+04;  0.0000000E+00;  4.0000000E+04; -6.5737568E-06;  0.0000000E+00; -3.7760597E-06;  9.8429260E+00;
 -1.2000000E-01;  9.9999998E-03; -3.6000001E-01;735;  0.0000000E+00;  0.0000000E+00;  0.0000000E+00;  1.0000000E+03;  1.0000000E-01;  0.0000000E+00;0;  0.0000000E+00;  0.0000000E+00;  0.0000000E+00;0; -2.0684885E-05;  4.0000000E+04;  0.0000000E+00;  0.0000000E+00;  4.0000000E+04;  0.0000000E+00;  4.0000000E+04; -1.3850606E-05;  0.0000000E+00; -6.8342797E-06;  1.7776789E+01;
 -1.2000000E-01;  9.9999998E-03; -3.4999999E-01;736;  0.0000000E+00;  0.0000000E+00;  0.0000000E+00;  1.0000000E+03;  1.0000000E-01;  0.0000000E+00;0;  0.0000000E+00;  0.0000000E+00;  0.0000000E+00;0; -3.5795314E-05;  4.0000000E+04;  0.0000000E+00;  0.0000000E+00;  4.0000000E+04;  0.0000000E+00;  4.0000000E+04; -2.5104178E-05;  0.0000000E+00; -1.0691137E-05;  2.7455803E+01;
 -1.2000000E-01;  9.9999998E-03; -3.4000000E-01;737;  0.0000000E+00;  0.0000000E+00;  0.0000000E+00;  1.0000000E+03;  1.0000000E-01;  0.0000000E+00;0;  0.0000000E+00;  0.0000000E+00;  0.0000000E+00;0; -5.5744938E-05;  4.0000000E+04;  0.0000000E+00;  0.0000000E+00;  4.0000000E+04;  0.0000000E+00;  4.0000000E+04; -4.0727176E-05;  0.0000000E+00; -1.5017764E-05;  3.7569069E+01;
 -1.2000000E-01;  9.9999998E-03; -3.3000001E-01;738;  0.0000000E+00;  0.0000000E+00;  0.0000000E+00;  1.0000000E+03;  1.0000000E-01;  0.0000000E+00;0;  0.0000000E+00;  0.0000000E+00;  0.0000000E+00;0; -7.9931473E-05;  4.0000000E+04;  0.0000000E+00;  0.0000000E+00;  4.0000000E+04;  0.0000000E+00;  4.0000000E+04; -6.0592236E-05;  0.0000000E+00; -1.9339239E-05;  4.6325855E+01;
 -1.2000000E-01;  9.9999998E-03; -3.1999999E-01;739;  0.0000000E+00;  0.0000000E+00;  0.0000000E+00;  1.0000133E+03;  1.0000000E-01;  1.1061416E+01;0;  0.0000000E+00;  0.0000000E+00;  0.0000000E+00;0; -1.0708277E-04;  4.0000000E+04;  0.0000000E+00;  0.0000000E+00;  4.0000000E+04;  0.0000000E+00;  4.0000000E+04; -8.4008578E-05;  0.0000000E+00; -2.3074197E-05;  5.1703213E+01;
 -1.2000000E-01;  9.9999998E-03; -3.1000000E-01;740;  0.0000000E+00;  0.0000000E+00;  0.0000000E+00;  1.0000146E+03;  1.0000000E-01;  1.2049042E+01;0;  0.0000000E+00;  0.0000000E+00;  0.0000000E+00;0; -1.3542821E-04;  4.0000000E+04;  0.0000000E+00;  0.0000000E+00;  4.0000000E+04;  0.0000000E+00;  4.0000000E+04; -1.0981890E-04;  0.0000000E+00; -2.5609317E-05;  5.1806362E+01;
 -1.2000000E-01;  9.9999998E-03; -3.0000001E-01;741;  0.0000000E+00;  0.0000000E+00;  0.0000000E+00;  1.0000190E+03;  1.0000000E-01;  1.5802022E+01;0;  0.0000000E+00;  0.0000000E+00;  0.0000000E+00;0; -1.6302659E-04;  4.0000000E+04;  0.0000000E+00;  0.0000000E+00;  4.0000000E+04;  0.0000000E+00;  4.0000000E+04; -1.3661195E-04;  0.0000000E+00; -2.6414631E-05;  4.5305038E+01;
 -1.2000000E-01;  9.9999998E-03; -2.8999999E-01;742;  0.0000000E+00;  0.0000000E+00;  0.0000000E+00;  1.0000233E+03;  1.0000000E-01;  1.9258715E+01;0;  0.0000000E+00;  0.0000000E+00;  0.0000000E+00;0; -1.8818185E-04;  4.0000000E+04;  0.0000000E+00;  0.0000000E+00;  4.0000000E+04;  0.0000000E+00;  4.0000000E+04; -1.6299995E-04;  0.0000000E+00; -2.5181896E-05;  3.1858370E+01;
 -1.2000000E-01;  9.9999998E-03; -2.8000000E-01;743;  0.0000000E+00;  0.0000000E+00;  0.0000000E+00;  1.0000289E+03;  1.0000000E-01;  2.3999321E+01;0;  0.0000000E+00;  0.0000000E+00;  0.0000000E+00;0; -2.0981583E-04;  4.0000000E+04;  0.0000000E+00;  0.0000000E+00;  4.0000000E+04;  0.0000000E+00;  4.0000000E+04; -1.8788539E-04;  0.0000000E+00; -2.1930435E-05;  1.2339349E+01;
 -1.1000000E-01;  9.9999998E-03; -4.4000000E-01;818;  0.0000000E+00;  0.0000000E+00;  0.0000000E+00;  1.0000000E+03;  1.0000000E-01;  0.0000000E+00;0;  0.0000000E+00;  0.0000000E+00;  0.0000000E+00;0;  0.0000000E+00;  4.0000000E+04;  0.0000000E+00;  0.0000000E+00;  4.0000000E+04;  0.0000000E+00;  4.0000000E+04;  0.0000000E+00;  0.0000000E+00;  0.0000000E+00;  0.0000000E+00;
 -1.1000000E-01;  9.9999998E-03; -4.3000001E-01;819;  0.0000000E+00;  0.0000000E+00;  0.0000000E+00;  1.0000000E+03;  1.0000000E-01;  0.0000000E+00;0;  0.0000000E+00;  0.0000000E+00;  0.0000000E+00;0;  0.0000000E+00;  4.0000000E+04;  0.0000000E+00;  0.0000000E+00;  4.0000000E+04;  0.0000000E+00;  4.0000000E+04;  0.0000000E+00;  0.0000000E+00;  0.0000000E+00;  0.0000000E+00;
 -1.1000000E-01;  9.9999998E-03; -4.1999999E-01;820;  0.0000000E+00;  0.0000000E+00;  0.0000000E+00;  1.0000000E+03;  1.0000000E-01;  0.0000000E+00;0;  0.0000000E+00;  0.0000000E+00;  0.0000000E+00;0;  0.0000000E+00;  4.0000000E+04;  0.0000000E+00;  0.0000000E+00;  4.0000000E+04;  0.0000000E+00;  4.0000000E+04;  0.0000000E+00;  0.0000000E+00;  0.0000000E+00;  2.4097387E-06;
 -1.1000000E-01;  9.9999998E-03; -4.1000000E-01;821;  0.0000000E+00;  0.0000000E+00;  0.0000000E+00;  1.0000000E+03;  1.0000000E-01;  0.0000000E+00;0;  0.0000000E+00;  0.0000000E+00;  0.0000000E+00;0; -1.9281032E-07;  4.0000000E+04;  0.0000000E+00;  0.0000000E+00;  4.0000000E+04;  0.0000000E+00;  4.0000000E+04; -9.4401635E-08;  0.0000000E+00; -9.8408677E-08;  2.6959777E-01;
 -1.1000000E-01;  9.9999998E-03; -4.0000001E-01;822;  0.0000000E+00;  0.0000000E+00;  0.0000000E+00;  1.0000000E+03;  1.0000000E-01;  0.0000000E+00;0;  0.0000000E+00;  0.0000000E+00;  0.0000000E+00;0; -1.6338233E-06;  4.0000000E+04;  0.0000000E+00;  0.0000000E+00;  4.0000000E+04;  0.0000000E+00;  4.0000000E+04; -8.4099889E-07;  0.0000000E+00; -7.9282444E-07;  2.0952580E+00;
 -1.1000000E-01;  9.9999998E-03; -3.8999999E-01;823;  0.0000000E+00;  0.0000000E+00;  0.0000000E+00;  1.0000000E+03;  1.0000000E-01;  0.0000000E+00;0;  0.0000000E+00;  0.0000000E+00;  0.0000000E+00;0; -5.9989375E-06;  4.0000000E+04;  0.0000000E+00;  0.0000000E+00;  4.0000000E+04;  0.0000000E+00;  4.0000000E+04; -3.3002577E-06;  0.0000000E+00; -2.6986797E-06;  7.1819472E+00;
 -1.1000000E-01;  9.9999998E-03; -3.8000000E-01;824;  0.0000000E+00;  0.0000000E+00;  0.0000000E+00;  1.0000000E+03;  1.0000000E-01;  0.0000000E+00;0;  0.0000000E+00;  0.0000000E+00;  0.0000000E+00;0; -1.5163587E-05;  4.0000000E+04;  0.0000000E+00;  0.0000000E+00;  4.0000000E+04;  0.0000000E+00;  4.0000000E+04; -8.9210434E-06;  0.0000000E+00; -6.2425433E-06;  1.6695673E+01;
 -1.1000000E-01;  9.9999998E-03; -3.7000000E-01;825;  0.0000000E+00;  0.0000000E+00;  0.0000000E+00;  1.0000000E+03;  1.0000000E-01;  0.0000000E+00;0;  0.0000000E+00;  0.0000000E+00;  0.0000000E+00;0; -3.0892508E-05;  4.0000000E+04;  0.0000000E+00;  0.0000000E+00;  4.0000000E+04;  0.0000000E+00;  4.0000000E+04; -1.9333633E-05;  0.0000000E+00; -1.1558877E-05;  3.0805824E+01;
 -1.1000000E-01;  9.9999998E-03; -3.6000001E-01;826;  0.0000000E+00;  0.0000000E+00;  0.0000000E+00;  1.0000000E+03;  1.0000000E-01;  0.0000000E+00;0;  0.0000000E+00;  0.0000000E+00;  0.0000000E+00;0; -5.4632335E-05;  4.0000000E+04;  0.0000000E+00;  0.0000000E+00;  4.0000000E+04;  0.0000000E+00;  4.0000000E+04; -3.6131740E-05;  0.0000000E+00; -1.8500594E-05;  4.8630474E+01;
 -1.1000000E-01;  9.9999998E-03; -3.4999999E-01;827;  0.0000000E+00;  0.0000000E+00;  0.0000000E+00;  1.0000000E+03;  1.0000000E-01;  0.0000000E+00;0;  0.0000000E+00;  0.0000000E+00;  0.0000000E+00;0; -8.7209955E-05;  4.0000000E+04;  0.0000000E+00;  0.0000000E+00;  4.0000000E+04;  0.0000000E+00;  4.0000000E+04; -6.0546823E-05;  0.0000000E+00; -2.6663134E-05;  6.8323532E+01;
 -1.1000000E-01;  9.9999998E-03; -3.4000000E-01;828;  0.0000000E+00;  0.0000000E+00;  0.0000000E+00;  1.0000266E+03;  1.0000000E-01;  2.2024069E+01;0;  0.0000000E+00;  0.0000000E+00;  0.0000000E+00;0; -1.2860441E-04;  4.0000000E+04;  0.0000000E+00;  0.0000000E+00;  4.0000000E+04;  0.0000000E+00;  4.0000000E+04; -9.3201365E-05;  0.0000000E+00; -3.5403053E-05;  8.7221329E+01;
 -1.1000000E-01;  9.9999998E-03; -3.3000001E-01;829;  0.0000000E+00;  0.0000000E+00;  0.0000000E+00;  1.0000227E+03;  1.0000000E-01;  1.8764902E+01;0;  0.0000000E+00;  0.0000000E+00;  0.0000000E+00;0; -1.7776314E-04;  4.0000000E+04;  0.0000000E+00;  0.0000000E+00;  4.0000000E+04;  0.0000000E+00;  4.0000000E+04; -1.3390796E-04;  0.0000000E+00; -4.3855172E-05;  1.0208408E+02;
 -1.1000000E-01;  9.9999998E-03; -3.1999999E-01;830;  0.0000000E+00;  0.0000000E+00;  0.0000000E+00;  1.0000341E+03;  1.0000000E-01;  2.8246115E+01;0;  0.0000000E+00;  0.0000000E+00;  0.0000000E+00;0; -2.3258751E-04;  4.0000000E+04;  0.0000000E+00;  0.0000000E+00;  4.0000000E+04;  0.0000000E+00;  4.0000000E+04; -1.8160464E-04;  0.0000000E+00; -5.0982871E-05;  1.0947702E+02;
 -1.1000000E-01;  9.9999998E-03; -3.1000000E-01;831;  0.0000000E+00;  0.0000000E+00;  0.0000000E+00;  1.0000446E+03;  1.0000000E-01;  3.6937225E+01;0;  0.0000000E+00;  0.0000000E+00;  0.0000000E+00;0; -2.9018224E-04;  4.0000000E+04;  0.0000000E+00;  0.0000000E+00;  4.0000000E+04;  0.0000000E+00;  4.0000000E+04; -2.3448736E-04;  0.0000000E+00; -5.5694880E-05;  1.0633335E+02;
 -1.1000000E-01;  9.9999998E-03; -3.0000001E-01;832;  0.0000000E+00;  0.0000000E+00;  0.0000000E+00;  1.0000566E+03;  1.0000000E-01;  4.6912254E+01;0;  0.0000000E+00;  0.0000000E+00;  0.0000000E+00;0; -3.4735631E-04;  4.0000000E+04;  0.0000000E+00;  0.0000000E+00;  4.0000000E+04;  0.0000000E+00;  4.0000000E+04; -2.9031298E-04;  0.0000000E+00; -5.7043326E-05;  9.0675514E+01;
 -1.1000000E-01;  9.9999998E-03; -2.8999999E-01;833;  0.0000000E+00;  0.0000000E+00;  0.0000000E+00;  1.0000602E+03;  1.0000000E-01;  4.9875134E+01;0;  0.0000000E+00;  0.0000000E+00;  0.0000000E+00;0; -4.0127270E-04;  4.0000000E+04;  0.0000000E+00;  0.0000000E+00;  4.0000000E+04;  0.0000000E+00;  4.0000000E+04; -3.4680372E-04;  0.0000000E+00; -5.4468972E-05;  6.2305576E+01;
 -1.1000000E-01;  9.9999998E-03; -2.8000000E-01;834;  0.0000000E+00;  0.0000000E+00;  0.0000000E+00;  1.0000612E+03;  1.0000000E-01;  5.0763996E+01;0;  0.0000000E+00;  0.0000000E+00;  0.0000000E+00;0; -4.5002927E-04;  4.0000000E+04;  0.0000000E+00;  0.0000000E+00;  4.0000000E+04;  0.0000000E+00;  4.0000000E+04; -4.0203801E-04;  0.0000000E+00; -4.7991271E-05;  2.3215433E+01;
 -1.0000000E-01;  9.9999998E-03; -4.4000000E-01;909;  0.0000000E+00;  0.0000000E+00;  0.0000000E+00;  1.0000000E+03;  1.0000000E-01;  0.0000000E+00;0;  0.0000000E+00;  0.0000000E+00;  0.0000000E+00;0;  0.0000000E+00;  4.0000000E+04;  0.0000000E+00;  0.0000000E+00;  4.0000000E+04;  0.0000000E+00;  4.0000000E+04;  0.0000000E+00;  0.0000000E+00;  0.0000000E+00;  0.0000000E+00;
 -1.0000000E-01;  9.9999998E-03; -4.3000001E-01;910;  0.0000000E+00;  0.0000000E+00;  0.0000000E+00;  1.0000000E+03;  1.0000000E-01;  0.0000000E+00;0;  0.0000000E+00;  0.0000000E+00;  0.0000000E+00;0;  0.0000000E+00;  4.0000000E+04;  0.0000000E+00;  0.0000000E+00;  4.0000000E+04;  0.0000000E+00;  4.0000000E+04;  0.0000000E+00;  0.0000000E+00;  0.0000000E+00;  0.0000000E+00;
 -1.0000000E-01;  9.9999998E-03; -4.1999999E-01;911;  0.0000000E+00;  0.0000000E+00;  0.0000000E+00;  1.0000000E+03;  1.0000000E-01;  0.0000000E+00;0;  0.0000000E+00;  0.0000000E+00;  0.0000000E+00;0; -1.5812273E-07;  4.0000000E+04;  0.0000000E+00;  0.0000000E+00;  4.0000000E+04;  0.0000000E+00;  4.0000000E+04; -7.3247556E-08;  0.0000000E+00; -8.4875175E-08;  2.4730308E-01;
 -1.0000000E-01;  9.9999998E-03; -4.1000000E-01;912;  0.0000000E+00;  0.0000000E+00;  0.0000000E+00;  1.0000000E+03;  1.0000000E-01;  0.0000000E+00;0;  0.0000000E+00;  0.0000000E+00;  0.0000000E+00;0; -1.7255932E-06;  4.0000000E+04;  0.0000000E+00;  0.0000000E+00;  4.0000000E+04;  0.0000000E+00;  4.0000000E+04; -8.1562314E-07;  0.0000000E+00; -9.0997003E-07;  2.4754460E+00;
 -1.0000000E-01;  9.9999998E-03; -4.0000001E-01;913;  0.0000000E+00;  0.0000000E+00;  0.0000000E+00;  1.0000000E+03;  1.0000000E-01;  0.0000000E+00;0;  0.0000000E+00;  0.0000000E+00;  0.0000000E+00;0; -6.9976004E-06;  4.0000000E+04;  0.0000000E+00;  0.0000000E+00;  4.0000000E+04;  0.0000000E+00;  4.0000000E+04; -3.5210305E-06;  0.0000000E+00; -3.4765699E-06;  9.4690962E+00;
 -1.0000000E-01;  9.9999998E-03; -3.8999999E-01;914;  0.0000000E+00;  0.0000000E+00;  0.0000000E+00;  1.0000000E+03;  1.0000000E-01;  0.0000000E+00;0;  0.0000000E+00;  0.0000000E+00;  0.0000000E+00;0; -1.8700652E-05;  4.0000000E+04;  0.0000000E+00;  0.0000000E+00;  4.0000000E+04;  0.0000000E+00;  4.0000000E+04; -1.0110035E-05;  0.0000000E+00; -8.5906158E-06;  2.3455797E+01;
 -1.0000000E-01;  9.9999998E-03; -3.8000000E-01;915;  0.0000000E+00;  0.0000000E+00;  0.0000000E+00;  1.0000000E+03;  1.0000000E-01;  0.0000000E+00;0;  0.0000000E+00;  0.0000000E+00;  0.0000000E+00;0; -3.9611103E-05;  4.0000000E+04;  0.0000000E+00;  0.0000000E+00;  4.0000000E+04;  0.0000000E+00;  4.0000000E+04; -2.2983295E-05;  0.0000000E+00; -1.6627808E-05;  4.5161114E+01;
 -1.0000000E-01;  9.9999998E-03; -3.7000000E-01;916;  0.0000000E+00;  0.0000000E+00;  0.0000000E+00;  1.0000000E+03;  1.0000000E-01;  0.0000000E+00;0;  0.0000000E+00;  0.0000000E+00;  0.0000000E+00;0; -7.2283685E-05;  4.0000000E+04;  0.0000000E+00;  0.0000000E+00;  4.0000000E+04;  0.0000000E+00;  4.0000000E+04; -4.4748020E-05;  0.0000000E+00; -2.7535665E-05;  7.3696609E+01;
 -1.0000000E-01;  9.9999998E-03; -3.6000001E-01;917;  0.0000000E+00;  0.0000000E+00;  0.0000000E+00;  1.0000137E+03;  1.0000000E-01;  1.1357703E+01;0;  0.0000000E+00;  0.0000000E+00;  0.0000000E+00;0; -1.1881029E-04;  4.0000000E+04;  0.0000000E+00;  0.0000000E+00;  4.0000000E+04;  0.0000000E+00;  4.0000000E+04; -7.7910845E-05;  0.0000000E+00; -4.0899442E-05;  1.0676097E+02;
 -1.0000000E-01;  9.9999998E-03; -3.4999999E-01;918;  0.0000000E+00;  0.0000000E+00;  0.0000000E+00;  1.0000374E+03;  1.0000000E-01;  3.0912706E+01;0;  0.0000000E+00;  0.0000000E+00;  0.0000000E+00;0; -1.8040341E-04;  4.0000000E+04;  0.0000000E+00;  0.0000000E+00;  4.0000000E+04;  0.0000000E+00;  4.0000000E+04; -1.2443357E-04;  0.0000000E+00; -5.5969842E-05;  1.4085599E+02;
 -1.0000000E-01;  9.9999998E-03; -3.4000000E-01;919;  0.0000000E+00;  0.0000000E+00;  0.0000000E+00;  1.0000380E+03;  1.0000000E-01;  3.1505281E+01;0;  0.0000000E+00;  0.0000000E+00;  0.0000000E+00;0; -2.5702501E-04;  4.0000000E+04;  0.0000000E+00;  0.0000000E+00;  4.0000000E+04;  0.0000000E+00;  4.0000000E+04; -1.8536582E-04;  0.0000000E+00; -7.1659175E-05;  1.7150044E+02;
 -1.0000000E-01;  9.9999998E-03; -3.3000001E-01;920;  0.0000000E+00;  0.0000000E+00;  0.0000000E+00;  1.0000598E+03;  1.0000000E-01;  4.9480083E+01;0;  0.0000000E+00;  0.0000000E+00;  0.0000000E+00;0; -3.4707965E-04;  4.0000000E+04;  0.0000000E+00;  0.0000000E+00;  4.0000000E+04;  0.0000000E+00;  4.0000000E+04; -2.6054090E-04;  0.0000000E+00; -8.6538748E-05;  1.9354134E+02;
 -1.0000000E-01;  9.9999998E-03; -3.1999999E-01;921;  0.0000000E+00;  0.0000000E+00;  0.0000000E+00;  1.0000825E+03;  1.0000000E-01;  6.8343742E+01;0;  0.0000000E+00;  0.0000000E+00;  0.0000000E+00;0; -4.4736228E-04;  4.0000000E+04;  0.0000000E+00;  0.0000000E+00;  4.0000000E+04;  0.0000000E+00;  4.0000000E+04; -3.4846354E-04;  0.0000000E+00; -9.8898738E-05;  2.0169264E+02;
 -1.0000000E-01;  9.9999998E-03; -3.1000000E-01;922;  0.0000000E+00;  0.0000000E+00;  0.0000000E+00;  1.0000873E+03;  1.0000000E-01;  7.2294250E+01;0;  0.0000000E+00;  0.0000000E+00;  0.0000000E+00;0; -5.5340014E-04;  4.0000000E+04;  0.0000000E+00;  0.0000000E+00;  4.0000000E+04;  0.0000000E+00;  4.0000000E+04; -4.4647121E-04;  0.0000000E+00; -1.0692892E-04;  1.9141022E+02;
 -1.0000000E-01;  9.9999998E-03; -3.0000001E-01;923;  0.0000000E+00;  0.0000000E+00;  0.0000000E+00;  1.0001197E+03;  1.0000000E-01;  9.9157692E+01;0;  0.0000000E+00;  0.0000000E+00;  0.0000000E+00;0; -6.6019990E-04;  4.0000000E+04;  0.0000000E+00;  0.0000000E+00;  4.0000000E+04;  0.0000000E+00;  4.0000000E+04; -5.5115501E-04;  0.0000000E+00; -1.0904489E-04;  1.6000673E+02;
 -1.0000000E-01;  9.9999998E-03; -2.8999999E-01;924;  0.0000000E+00;  0.0000000E+00;  0.0000000E+00;  1.0001140E+03;  1.0000000E-01;  9.4417084E+01;0;  0.0000000E+00;  0.0000000E+00;  0.0000000E+00;0; -7.6322933E-04;  4.0000000E+04;  0.0000000E+00;  0.0000000E+00;  4.0000000E+04;  0.0000000E+00;  4.0000000E+04; -6.5893115E-04;  0.0000000E+00; -1.0429820E-04;  1.0774852E+02;
 -1.0000000E-01;  9.9999998E-03; -2.8000000E-01;925;  0.0000000E+00;  0.0000000E+00;  0.0000000E+00;  1.0001396E+03;  1.0000000E-01;  1.1565105E+02;0;  0.0000000E+00;  0.0000000E+00;  0.0000000E+00;0; -8.5929013E-04;  4.0000000E+04;  0.0000000E+00;  0.0000000E+00;  4.0000000E+04;  0.0000000E+00;  4.0000000E+04; -7.6659373E-04;  0.0000000E+00; -9.2696428E-05;  3.8814823E+01;
 -9.0000004E-02;  9.9999998E-03; -4.4000000E-01;1000;  0.0000000E+00;  0.0000000E+00;  0.0000000E+00;  1.0000000E+03;  1.0000000E-01;  0.0000000E+00;0;  0.0000000E+00;  0.0000000E+00;  0.0000000E+00;0;  0.0000000E+00;  4.0000000E+04;  0.0000000E+00;  0.0000000E+00;  4.0000000E+04;  0.0000000E+00;  4.0000000E+04;  0.0000000E+00;  0.0000000E+00;  0.0000000E+00;  0.0000000E+00;
 -9.0000004E-02;  9.9999998E-03; -4.3000001E-01;1001;  0.0000000E+00;  0.0000000E+00;  0.0000000E+00;  1.0000000E+03;  1.0000000E-01;  0.0000000E+00;0;  0.0000000E+00;  0.0000000E+00;  0.0000000E+00;0; -7.0356116E-08;  4.0000000E+04;  0.0000000E+00;  0.0000000E+00;  4.0000000E+04;  0.0000000E+00;  4.0000000E+04; -3.2299539E-08;  0.0000000E+00; -3.8056577E-08;  1.2388562E-01;
 -9.0000004E-02;  9.9999998E-03; -4.1999999E-01;1002;  0.0000000E+00;  0.0000000E+00;  0.0000000E+00;  1.0000000E+03;  1.0000000E-01;  0.0000000E+00;0;  0.0000000E+00;  0.0000000E+00;  0.0000000E+00;0; -1.3632720E-06;  4.0000000E+04;  0.0000000E+00;  0.0000000E+00;  4.0000000E+04;  0.0000000E+00;  4.0000000E+04; -5.9830927E-07;  0.0000000E+00; -7.6496269E-07;  2.1538439E+00;
 -9.0000004E-02;  9.9999998E-03; -4.1000000E-01;1003;  0.0000000E+00;  0.0000000E+00;  0.0000000E+00;  1.0000000E+03;  1.0000000E-01;  0.0000000E+00;0;  0.0000000E+00;  0.0000000E+00;  0.0000000E+00;0; -6.6990497E-06;  4.0000000E+04;  0.0000000E+00;  0.0000000E+00;  4.0000000E+04;  0.0000000E+00;  4.0000000E+04; -3.0877450E-06;  0.0000000E+00; -3.6113045E-06;  1.0063205E+01;
 -9.0000004E-02;  9.9999998E-03; -4.0000001E-01;1004;  0.0000000E+00;  0.0000000E+00;  0.0000000E+00;  1.0000000E+03;  1.0000000E-01;  0.0000000E+00;0;  0.0000000E+00;  0.0000000E+00;  0.0000000E+00;0; -1.9779447E-05;  4.0000000E+04;  0.0000000E+00;  0.0000000E+00;  4.0000000E+04;  0.0000000E+00;  4.0000000E+04; -9.7890133E-06;  0.0000000E+00; -9.9904328E-06;  2.7778116E+01;
 -9.0000004E-02;  9.9999998E-03; -3.8999999E-01;1005;  0.0000000E+00;  0.0000000E+00;  0.0000000E+00;  1.0000000E+03;  1.0000000E-01;  0.0000000E+00;0;  0.0000000E+00;  0.0000000E+00;  0.0000000E+00;0; -4.4557339E-05;  4.0000000E+04;  0.0000000E+00;  0.0000000E+00;  4.0000000E+04;  0.0000000E+00;  4.0000000E+04; -2.3807828E-05;  0.0000000E+00; -2.0749512E-05;  5.7241474E+01;
 -9.0000004E-02;  9.9999998E-03; -3.8000000E-01;1006;  0.0000000E+00;  0.0000000E+00;  0.0000000E+00;  1.0000000E+03;  1.0000000E-01;  0.0000000E+00;0;  0.0000000E+00;  0.0000000E+00;  0.0000000E+00;0; -8.4963496E-05;  4.0000000E+04;  0.0000000E+00;  0.0000000E+00;  4.0000000E+04;  0.0000000E+00;  4.0000000E+04; -4.8879421E-05;  0.0000000E+00; -3.6084075E-05;  9.7963623E+01;
 -9.0000004E-02;  9.9999998E-03; -3.7000000E-01;1007;  0.0000000E+00;  0.0000000E+00;  0.0000000E+00;  1.0000407E+03;  1.0000000E-01;  3.3776821E+01;0;  0.0000000E+00;  0.0000000E+00;  0.0000000E+00;0; -1.4467197E-04;  4.0000000E+04;  0.0000000E+00;  0.0000000E+00;  4.0000000E+04;  0.0000000E+00;  4.0000000E+04; -8.9012268E-05;  0.0000000E+00; -5.5659708E-05;  1.4738820E+02;
 -9.0000004E-02;  9.9999998E-03; -3.6000001E-01;1008;  0.0000000E+00;  0.0000000E+00;  0.0000000E+00;  1.0000438E+03;  1.0000000E-01;  3.6245888E+01;0;  0.0000000E+00;  0.0000000E+00;  0.0000000E+00;0; -2.2676919E-04;  4.0000000E+04;  0.0000000E+00;  0.0000000E+00;  4.0000000E+04;  0.0000000E+00;  4.0000000E+04; -1.4805770E-04;  0.0000000E+00; -7.8711477E-05;  2.0131638E+02;
 -9.0000004E-02;  9.9999998E-03; -3.4999999E-01;1009;  0.0000000E+00;  0.0000000E+00;  0.0000000E+00;  1.0000566E+03;  1.0000000E-01;  4.6912254E+01;0;  0.0000000E+00;  0.0000000E+00;  0.0000000E+00;0; -3.3314165E-04;  4.0000000E+04;  0.0000000E+00;  0.0000000E+00;  4.0000000E+04;  0.0000000E+00;  4.0000000E+04; -2.2909882E-04;  0.0000000E+00; -1.0404283E-04;  2.5416675E+02;
 -9.0000004E-02;  9.9999998E-03; -3.4000000E-01;1010;  0.0000000E+00;  0.0000000E+00;  0.0000000E+00;  1.0000945E+03;  1.0000000E-01;  7.8318771E+01;0;  0.0000000E+00;  0.0000000E+00;  0.0000000E+00;0; -4.6387044E-04;  4.0000000E+04;  0.0000000E+00;  0.0000000E+00;  4.0000000E+04;  0.0000000E+00;  4.0000000E+04; -3.3390083E-04;  0.0000000E+00; -1.2996962E-04;  2.9918594E+02;
 -9.0000004E-02;  9.9999998E-03; -3.3000001E-01;1011;  0.0000000E+00;  0.0000000E+00;  0.0000000E+00;  1.0001109E+03;  1.0000000E-01;  9.1849251E+01;0;  0.0000000E+00;  0.0000000E+00;  0.0000000E+00;0; -6.1672227E-04;  4.0000000E+04;  0.0000000E+00;  0.0000000E+00;  4.0000000E+04;  0.0000000E+00;  4.0000000E+04; -4.6244345E-04;  0.0000000E+00; -1.5427879E-04;  3.2881467E+02;
 -9.0000004E-02;  9.9999998E-03; -3.1999999E-01;1012;  0.0000000E+00;  0.0000000E+00;  0.0000000E+00;  1.0001473E+03;  1.0000000E-01;  1.2197186E+02;0;  0.0000000E+00;  0.0000000E+00;  0.0000000E+00;0; -7.8701775E-04;  4.0000000E+04;  0.0000000E+00;  0.0000000E+00;  4.0000000E+04;  0.0000000E+00;  4.0000000E+04; -6.1271922E-04;  0.0000000E+00; -1.7429856E-04;  3.3544687E+02;
 -9.0000004E-02;  9.9999998E-03; -3.1000000E-01;1013;  0.0000000E+00;  0.0000000E+00;  0.0000000E+00;  1.0001803E+03;  1.0000000E-01;  1.4932912E+02;0;  0.0000000E+00;  0.0000000E+00;  0.0000000E+00;0; -9.6809334E-04;  4.0000000E+04;  0.0000000E+00;  0.0000000E+00;  4.0000000E+04;  0.0000000E+00;  4.0000000E+04; -7.8091904E-04;  0.0000000E+00; -1.8717430E-04;  3.1271866E+02;
 -9.0000004E-02;  9.9999998E-03; -3.0000001E-01;1014;  0.0000000E+00;  0.0000000E+00;  0.0000000E+00;  1.0002166E+03;  1.0000000E-01;  1.7945172E+02;0;  0.0000000E+00;  0.0000000E+00;  0.0000000E+00;0; -1.1523931E-03;  4.0000000E+04;  0.0000000E+00;  0.0000000E+00;  4.0000000E+04;  0.0000000E+00;  4.0000000E+04; -9.6200657E-04;  0.0000000E+00; -1.9038649E-04;  2.5721872E+02;
 -9.0000004E-02;  9.9999998E-03; -2.8999999E-01;1015;  0.0000000E+00;  0.0000000E+00;  0.0000000E+00;  1.0002413E+03;  1.0000000E-01;  1.9989558E+02;0;  0.0000000E+00;  0.0000000E+00;  0.0000000E+00;0; -1.3329101E-03;  4.0000000E+04;  0.0000000E+00;  0.0000000E+00;  4.0000000E+04;  0.0000000E+00;  4.0000000E+04; -1.1505021E-03;  0.0000000E+00; -1.8240800E-04;  1.7017273E+02;
 -9.0000004E-02;  9.9999998E-03; -2.8000000E-01;1016;  0.0000000E+00;  0.0000000E+00;  0.0000000E+00;  1.0002733E+03;  1.0000000E-01;  2.2636397E+02;0;  0.0000000E+00;  0.0000000E+00;  0.0000000E+00;0; -1.5044874E-03;  4.0000000E+04;  0.0000000E+00;  0.0000000E+00;  4.0000000E+04;  0.0000000E+00;  4.0000000E+04; -1.3412690E-03;  0.0000000E+00; -1.6321831E-04;  6.0149193E+01;
 -7.9999998E-02;  9.9999998E-03; -4.4000000E-01;1091;  0.0000000E+00;  0.0000000E+00;  0.0000000E+00;  1.0000000E+03;  1.0000000E-01;  0.0000000E+00;0;  0.0000000E+00;  0.0000000E+00;  0.0000000E+00;0; -1.1340653E-08;  4.0000000E+04;  0.0000000E+00;  0.0000000E+00;  4.0000000E+04;  0.0000000E+00;  4.0000000E+04; -5.1704658E-09;  0.0000000E+00; -6.1701866E-09;  2.2339189E-02;
 -7.9999998E-02;  9.9999998E-03; -4.3000001E-01;1092;  0.0000000E+00;  0.0000000E+00;  0.0000000E+00;  1.0000000E+03;  1.0000000E-01;  0.0000000E+00;0;  0.0000000E+00;  0.0000000E+00;  0.0000000E+00;0; -7.4986360E-07;  4.0000000E+04;  0.0000000E+00;  0.0000000E+00;  4.0000000E+04;  0.0000000E+00;  4.0000000E+04; -3.1248086E-07;  0.0000000E+00; -4.3738274E-07;  1.2918817E+00;
 -7.9999998E-02;  9.9999998E-03; -4.1999999E-01;1093;  0.0000000E+00;  0.0000000E+00;  0.0000000E+00;  1.0000000E+03;  1.0000000E-01;  0.0000000E+00;0;  0.0000000E+00;  0.0000000E+00;  0.0000000E+00;0; -5.1445559E-06;  4.0000000E+04;  0.0000000E+00;  0.0000000E+00;  4.0000000E+04;  0.0000000E+00;  4.0000000E+04; -2.1944447E-06;  0.0000000E+00; -2.9501114E-06;  8.4358006E+00;
 -7.9999998E-02;  9.9999998E-03; -4.1000000E-01;1094;  0.0000000E+00;  0.0000000E+00;  0.0000000E+00;  1.0000000E+03;  1.0000000E-01;  0.0000000E+00;0;  0.0000000E+00;  0.0000000E+00;  0.0000000E+00;0; -1.7840273E-05;  4.0000000E+04;  0.0000000E+00;  0.0000000E+00;  4.0000000E+04;  0.0000000E+00;  4.0000000E+04; -8.0976624E-06;  0.0000000E+00; -9.7426109E-06;  2.7584581E+01;
 -7.9999998E-02;  9.9999998E-03; -4.0000001E-01;1095;  0.0000000E+00;  0.0000000E+00;  0.0000000E+00;  1.0000000E+03;  1.0000000E-01;  0.0000000E+00;0;  0.0000000E+00;  0.0000000E+00;  0.0000000E+00;0; -4.4150631E-05;  4.0000000E+04;  0.0000000E+00;  0.0000000E+00;  4.0000000E+04;  0.0000000E+00;  4.0000000E+04; -2.1650423E-05;  0.0000000E+00; -2.2500208E-05;  6.2954254E+01;
 -7.9999998E-02;  9.9999998E-03; -3.8999999E-01;1096;  0.0000000E+00;  0.0000000E+00;  0.0000000E+00;  1.0000000E+03;  1.0000000E-01;  0.0000000E+00;0;  0.0000000E+00;  0.0000000E+00;  0.0000000E+00;0; -8.9532477E-05;  4.0000000E+04;  0.0000000E+00;  0.0000000E+00;  4.0000000E+04;  0.0000000E+00;  4.0000000E+04; -4.7572419E-05;  0.0000000E+00; -4.1960062E-05;  1.1529480E+02;
 -7.9999998E-02;  9.9999998E-03; -3.8000000E-01;1097;  0.0000000E+00;  0.0000000E+00;  0.0000000E+00;  1.0000444E+03;  1.0000000E-01;  3.6739700E+01;0;  0.0000000E+00;  0.0000000E+00;  0.0000000E+00;0; -1.5947058E-04;  4.0000000E+04;  0.0000000E+00;  0.0000000E+00;  4.0000000E+04;  0.0000000E+00;  4.0000000E+04; -9.1439295E-05;  0.0000000E+00; -6.8031288E-05;  1.8221548E+02;
 -7.9999998E-02;  9.9999998E-03; -3.7000000E-01;1098;  0.0000000E+00;  0.0000000E+00;  0.0000000E+00;  1.0000494E+03;  1.0000000E-01;  4.0986496E+01;0;  0.0000000E+00;  0.0000000E+00;  0.0000000E+00;0; -2.5925253E-04;  4.0000000E+04;  0.0000000E+00;  0.0000000E+00;  4.0000000E+04;  0.0000000E+00;  4.0000000E+04; -1.5922275E-04;  0.0000000E+00; -1.0002977E-04;  2.5902789E+02;
 -7.9999998E-02;  9.9999998E-03; -3.6000001E-01;1099;  0.0000000E+00;  0.0000000E+00;  0.0000000E+00;  1.0000746E+03;  1.0000000E-01;  6.1825413E+01;0;  0.0000000E+00;  0.0000000E+00;  0.0000000E+00;0; -3.9347081E-04;  4.0000000E+04;  0.0000000E+00;  0.0000000E+00;  4.0000000E+04;  0.0000000E+00;  4.0000000E+04; -2.5669532E-04;  0.0000000E+00; -1.3677547E-04;  3.3927393E+02;
 -7.9999998E-02;  9.9999998E-03; -3.4999999E-01;1100;  0.0000000E+00;  0.0000000E+00;  0.0000000E+00;  1.0001156E+03;  1.0000000E-01;  9.5799759E+01;0;  0.0000000E+00;  0.0000000E+00;  0.0000000E+00;0; -5.6510925E-04;  4.0000000E+04;  0.0000000E+00;  0.0000000E+00;  4.0000000E+04;  0.0000000E+00;  4.0000000E+04; -3.8858899E-04;  0.0000000E+00; -1.7652025E-04;  4.1492957E+02;
 -7.9999998E-02;  9.9999998E-03; -3.4000000E-01;1101;  0.0000000E+00;  0.0000000E+00;  0.0000000E+00;  1.0001602E+03;  1.0000000E-01;  1.3273698E+02;0;  0.0000000E+00;  0.0000000E+00;  0.0000000E+00;0; -7.7457883E-04;  4.0000000E+04;  0.0000000E+00;  0.0000000E+00;  4.0000000E+04;  0.0000000E+00;  4.0000000E+04; -5.5777503E-04;  0.0000000E+00; -2.1680382E-04;  4.7652625E+02;
 -7.9999998E-02;  9.9999998E-03; -3.3000001E-01;1102;  0.0000000E+00;  0.0000000E+00;  0.0000000E+00;  1.0002123E+03;  1.0000000E-01;  1.7589626E+02;0;  0.0000000E+00;  0.0000000E+00;  0.0000000E+00;0; -1.0189044E-03;  4.0000000E+04;  0.0000000E+00;  0.0000000E+00;  4.0000000E+04;  0.0000000E+00;  4.0000000E+04; -7.6455442E-04;  0.0000000E+00; -2.5434990E-04;  5.1357227E+02;
 -7.9999998E-02;  9.9999998E-03; -3.1999999E-01;1103;  0.0000000E+00;  0.0000000E+00;  0.0000000E+00;  1.0002613E+03;  1.0000000E-01;  2.1648770E+02;0;  0.0000000E+00;  0.0000000E+00;  0.0000000E+00;0; -1.2914562E-03;  4.0000000E+04;  0.0000000E+00;  0.0000000E+00;  4.0000000E+04;  0.0000000E+00;  4.0000000E+04; -1.0063082E-03;  0.0000000E+00; -2.8514786E-04;  5.1559863E+02;
 -7.9999998E-02;  9.9999998E-03; -3.1000000E-01;1104;  0.0000000E+00;  0.0000000E+00;  0.0000000E+00;  1.0003083E+03;  1.0000000E-01;  2.5549895E+02;0;  0.0000000E+00;  0.0000000E+00;  0.0000000E+00;0; -1.5825682E-03;  4.0000000E+04;  0.0000000E+00;  0.0000000E+00;  4.0000000E+04;  0.0000000E+00;  4.0000000E+04; -1.2777000E-03;  0.0000000E+00; -3.0486824E-04;  4.7404886E+02;
 -7.9999998E-02;  9.9999998E-03; -3.0000001E-01;1105;  0.0000000E+00;  0.0000000E+00;  0.0000000E+00;  1.0003708E+03;  1.0000000E-01;  3.0715179E+02;0;  0.0000000E+00;  0.0000000E+00;  0.0000000E+00;0; -1.8810800E-03;  4.0000000E+04;  0.0000000E+00;  0.0000000E+00;  4.0000000E+04;  0.0000000E+00;  4.0000000E+04; -1.5714191E-03;  0.0000000E+00; -3.0966097E-04;  3.8477643E+02;
 -7.9999998E-02;  9.9999998E-03; -2.8999999E-01;1106;  0.0000000E+00;  0.0000000E+00;  0.0000000E+00;  1.0004310E+03;  1.0000000E-01;  3.5702695E+02;0;  0.0000000E+00;  0.0000000E+00;  0.0000000E+00;0; -2.1764459E-03;  4.0000000E+04;  0.0000000E+00;  0.0000000E+00;  4.0000000E+04;  0.0000000E+00;  4.0000000E+04; -1.8792740E-03;  0.0000000E+00; -2.9717179E-04;  2.5071454E+02;
 -7.9999998E-02;  9.9999998E-03; -2.8000000E-01;1107;  0.0000000E+00;  0.0000000E+00;  0.0000000E+00;  1.0004850E+03;  1.0000000E-01;  4.0176642E+02;0;  0.0000000E+00;  0.0000000E+00;  0.0000000E+00;0; -2.4606527E-03;  4.0000000E+04;  0.0000000E+00;  0.0000000E+00;  4.0000000E+04;  0.0000000E+00;  4.0000000E+04; -2.1933126E-03;  0.0000000E+00; -2.6734013E-04;  8.8983910E+01;
 -7.0000000E-02;  9.9999998E-03; -4.4000000E-01;1182;  0.0000000E+00;  0.0000000E+00;  0.0000000E+00;  1.0000000E+03;  1.0000000E-01;  0.0000000E+00;0;  0.0000000E+00;  0.0000000E+00;  0.0000000E+00;0; -2.3235573E-07;  4.0000000E+04;  0.0000000E+00;  0.0000000E+00;  4.0000000E+04;  0.0000000E+00;  4.0000000E+04; -9.5752455E-08;  0.0000000E+00; -1.3660328E-07;  4.4020909E-01;
 -7.0000000E-02;  9.9999998E-03; -4.3000001E-01;1183;  0.0000000E+00;  0.0000000E+00;  0.0000000E+00;  1.0000000E+03;  1.0000000E-01;  0.0000000E+00;0;  0.0000000E+00;  0.0000000E+00;  0.0000000E+00;0; -2.9726605E-06;  4.0000000E+04;  0.0000000E+00;  0.0000000E+00;  4.0000000E+04;  0.0000000E+00;  4.0000000E+04; -1.1973445E-06;  0.0000000E+00; -1.7753159E-06;  5.2516065E+00;
 -7.0000000E-02;  9.9999998E-03; -4.1999999E-01;1184;  0.0000000E+00;  0.0000000E+00;  0.0000000E+00;  1.0000000E+03;  1.0000000E-01;  0.0000000E+00;0;  0.0000000E+00;  0.0000000E+00;  0.0000000E+00;0; -1.3341603E-05;  4.0000000E+04;  0.0000000E+00;  0.0000000E+00;  4.0000000E+04;  0.0000000E+00;  4.0000000E+04; -5.6070508E-06;  0.0000000E+00; -7.7345521E-06;  2.2354584E+01;
 -7.0000000E-02;  9.9999998E-03; -4.1000000E-01;1185;  0.0000000E+00;  0.0000000E+00;  0.0000000E+00;  1.0000000E+03;  1.0000000E-01;  0.0000000E+00;0;  0.0000000E+00;  0.0000000E+00;  0.0000000E+00;0; -3.8065285E-05;  4.0000000E+04;  0.0000000E+00;  0.0000000E+00;  4.0000000E+04;  0.0000000E+00;  4.0000000E+04; -1.7158265E-05;  0.0000000E+00; -2.0907019E-05;  5.9342369E+01;
 -7.0000000E-02;  9.9999998E-03; -4.0000001E-01;1186;  0.0000000E+00;  0.0000000E+00;  0.0000000E+00;  1.0000000E+03;  1.0000000E-01;  0.0000000E+00;0;  0.0000000E+00;  0.0000000E+00;  0.0000000E+00;0; -8.4344007E-05;  4.0000000E+04;  0.0000000E+00;  0.0000000E+00;  4.0000000E+04;  0.0000000E+00;  4.0000000E+04; -4.1245541E-05;  0.0000000E+00; -4.3098469E-05;  1.1972692E+02;
 -7.0000000E-02;  9.9999998E-03; -3.8999999E-01;1187;  0.0000000E+00;  0.0000000E+00;  0.0000000E+00;  1.0000443E+03;  1.0000000E-01;  3.6739700E+01;0;  0.0000000E+00;  0.0000000E+00;  0.0000000E+00;0; -1.5954001E-04;  4.0000000E+04;  0.0000000E+00;  0.0000000E+00;  4.0000000E+04;  0.0000000E+00;  4.0000000E+04; -8.4730018E-05;  0.0000000E+00; -7.4809992E-05;  2.0226656E+02;
 -7.0000000E-02;  9.9999998E-03; -3.8000000E-01;1188;  0.0000000E+00;  0.0000000E+00;  0.0000000E+00;  1.0000561E+03;  1.0000000E-01;  4.6517204E+01;0;  0.0000000E+00;  0.0000000E+00;  0.0000000E+00;0; -2.7124878E-04;  4.0000000E+04;  0.0000000E+00;  0.0000000E+00;  4.0000000E+04;  0.0000000E+00;  4.0000000E+04; -1.5565215E-04;  0.0000000E+00; -1.1559663E-04;  3.0218118E+02;
 -7.0000000E-02;  9.9999998E-03; -3.7000000E-01;1189;  0.0000000E+00;  0.0000000E+00;  0.0000000E+00;  1.0000962E+03;  1.0000000E-01;  7.9701447E+01;0;  0.0000000E+00;  0.0000000E+00;  0.0000000E+00;0; -4.2703783E-04;  4.0000000E+04;  0.0000000E+00;  0.0000000E+00;  4.0000000E+04;  0.0000000E+00;  4.0000000E+04; -2.6264790E-04;  0.0000000E+00; -1.6438993E-04;  4.1235788E+02;
 -7.0000000E-02;  9.9999998E-03; -3.6000001E-01;1190;  0.0000000E+00;  0.0000000E+00;  0.0000000E+00;  1.0001290E+03;  1.0000000E-01;  1.0686118E+02;0;  0.0000000E+00;  0.0000000E+00;  0.0000000E+00;0; -6.3368690E-04;  4.0000000E+04;  0.0000000E+00;  0.0000000E+00;  4.0000000E+04;  0.0000000E+00;  4.0000000E+04; -4.1413732E-04;  0.0000000E+00; -2.1954955E-04;  5.2385083E+02;
 -7.0000000E-02;  9.9999998E-03; -3.4999999E-01;1191;  0.0000000E+00;  0.0000000E+00;  0.0000000E+00;  1.0001851E+03;  1.0000000E-01;  1.5327962E+02;0;  0.0000000E+00;  0.0000000E+00;  0.0000000E+00;0; -8.9584006E-04;  4.0000000E+04;  0.0000000E+00;  0.0000000E+00;  4.0000000E+04;  0.0000000E+00;  4.0000000E+04; -6.1716937E-04;  0.0000000E+00; -2.7867069E-04;  6.2590063E+02;
 -7.0000000E-02;  9.9999998E-03; -3.4000000E-01;1192;  0.0000000E+00;  0.0000000E+00;  0.0000000E+00;  1.0002669E+03;  1.0000000E-01;  2.2112955E+02;0;  0.0000000E+00;  0.0000000E+00;  0.0000000E+00;0; -1.2145388E-03;  4.0000000E+04;  0.0000000E+00;  0.0000000E+00;  4.0000000E+04;  0.0000000E+00;  4.0000000E+04; -8.7623170E-04;  0.0000000E+00; -3.3830712E-04;  7.0590033E+02;
 -7.0000000E-02;  9.9999998E-03; -3.3000001E-01;1193;  0.0000000E+00;  0.0000000E+00;  0.0000000E+00;  1.0003381E+03;  1.0000000E-01;  2.8009085E+02;0;  0.0000000E+00;  0.0000000E+00;  0.0000000E+00;0; -1.5859624E-03;  4.0000000E+04;  0.0000000E+00;  0.0000000E+00;  4.0000000E+04;  0.0000000E+00;  4.0000000E+04; -1.1921894E-03;  0.0000000E+00; -3.9377296E-04;  7.4987219E+02;
 -7.0000000E-02;  9.9999998E-03; -3.1999999E-01;1194;  0.0000000E+00;  0.0000000E+00;  0.0000000E+00;  1.0004284E+03;  1.0000000E-01;  3.5495291E+02;0;  0.0000000E+00;  0.0000000E+00;  0.0000000E+00;0; -2.0009498E-03;  4.0000000E+04;  0.0000000E+00;  0.0000000E+00;  4.0000000E+04;  0.0000000E+00;  4.0000000E+04; -1.5617072E-03;  0.0000000E+00; -4.3924269E-04;  7.4386926E+02;
 -7.0000000E-02;  9.9999998E-03; -3.1000000E-01;1195;  0.0000000E+00;  0.0000000E+00;  0.0000000E+00;  1.0005129E+03;  1.0000000E-01;  4.2497565E+02;0;  0.0000000E+00;  0.0000000E+00;  0.0000000E+00;0; -2.4457686E-03;  4.0000000E+04;  0.0000000E+00;  0.0000000E+00;  4.0000000E+04;  0.0000000E+00;  4.0000000E+04; -1.9774095E-03;  0.0000000E+00; -4.6835907E-04;  6.7664233E+02;
 -7.0000000E-02;  9.9999998E-03; -3.0000001E-01;1196;  0.0000000E+00;  0.0000000E+00;  0.0000000E+00;  1.0006087E+03;  1.0000000E-01;  5.0428204E+02;0;  0.0000000E+00;  0.0000000E+00;  0.0000000E+00;0; -2.9042806E-03;  4.0000000E+04;  0.0000000E+00;  0.0000000E+00;  4.0000000E+04;  0.0000000E+00;  4.0000000E+04; -2.4288520E-03;  0.0000000E+00; -4.7542853E-04;  5.4327539E+02;
 -7.0000000E-02;  9.9999998E-03; -2.8999999E-01;1197;  0.0000000E+00;  0.0000000E+00;  0.0000000E+00;  1.0007021E+03;  1.0000000E-01;  5.8171191E+02;0;  0.0000000E+00;  0.0000000E+00;  0.0000000E+00;0; -3.3609783E-03;  4.0000000E+04;  0.0000000E+00;  0.0000000E+00;  4.0000000E+04;  0.0000000E+00;  4.0000000E+04; -2.9040247E-03;  0.0000000E+00; -4.5695365E-04;  3.4939902E+02;
 -7.0000000E-02;  9.9999998E-03; -2.8000000E-01;1198;  0.0000000E+00;  0.0000000E+00;  0.0000000E+00;  1.0007986E+03;  1.0000000E-01;  6.6161090E+02;0;  0.0000000E+00;  0.0000000E+00;  0.0000000E+00;0; -3.8038320E-03;  4.0000000E+04;  0.0000000E+00;  0.0000000E+00;  4.0000000E+04;  0.0000000E+00;  4.0000000E+04; -3.3909974E-03;  0.0000000E+00; -4.1283449E-04;  1.2733157E+02;
 -5.9999999E-02;  9.9999998E-03; -4.4000000E-01;1273;  0.0000000E+00;  0.0000000E+00;  0.0000000E+00;  1.0000000E+03;  1.0000000E-01;  0.0000000E+00;0;  0.0000000E+00;  0.0000000E+00;  0.0000000E+00;0; -1.1284203E-06;  4.0000000E+04;  0.0000000E+00;  0.0000000E+00;  4.0000000E+04;  0.0000000E+00;  4.0000000E+04; -4.3923478E-07;  0.0000000E+00; -6.8918547E-07;  2.1456723E+00;
 -5.9999999E-02;  9.9999998E-03; -4.3000001E-01;1274;  0.0000000E+00;  0.0000000E+00;  0.0000000E+00;  1.0000000E+03;  1.0000000E-01;  0.0000000E+00;0;  0.0000000E+00;  0.0000000E+00;  0.0000000E+00;0; -7.8153535E-06;  4.0000000E+04;  0.0000000E+00;  0.0000000E+00;  4.0000000E+04;  0.0000000E+00;  4.0000000E+04; -3.0899557E-06;  0.0000000E+00; -4.7253980E-06;  1.4028255E+01;
 -5.9999999E-02;  9.9999998E-03; -4.1999999E-01;1275;  0.0000000E+00;  0.0000000E+00;  0.0000000E+00;  1.0000000E+03;  1.0000000E-01;  0.0000000E+00;0;  0.0000000E+00;  0.0000000E+00;  0.0000000E+00;0; -2.7725364E-05;  4.0000000E+04;  0.0000000E+00;  0.0000000E+00;  4.0000000E+04;  0.0000000E+00;  4.0000000E+04; -1.1576429E-05;  0.0000000E+00; -1.6148935E-05;  4.6611656E+01;
 -5.9999999E-02;  9.9999998E-03; -4.1000000E-01;1276;  0.0000000E+00;  0.0000000E+00;  0.0000000E+00;  1.0000000E+03;  1.0000000E-01;  0.0000000E+00;0;  0.0000000E+00;  0.0000000E+00;  0.0000000E+00;0; -6.9947491E-05;  4.0000000E+04;  0.0000000E+00;  0.0000000E+00;  4.0000000E+04;  0.0000000E+00;  4.0000000E+04; -3.1497304E-05;  0.0000000E+00; -3.8450187E-05;  1.0802228E+02;
 -5.9999999E-02;  9.9999998E-03; -4.0000001E-01;1277;  0.0000000E+00;  0.0000000E+00;  0.0000000E+00;  1.0000315E+03;  1.0000000E-01;  2.6073338E+01;0;  0.0000000E+00;  0.0000000E+00;  0.0000000E+00;0; -1.4392388E-04;  4.0000000E+04;  0.0000000E+00;  0.0000000E+00;  4.0000000E+04;  0.0000000E+00;  4.0000000E+04; -7.0496833E-05;  0.0000000E+00; -7.3427051E-05;  2.0017702E+02;
 -5.9999999E-02;  9.9999998E-03; -3.8999999E-01;1278;  0.0000000E+00;  0.0000000E+00;  0.0000000E+00;  1.0000620E+03;  1.0000000E-01;  5.1356571E+01;0;  0.0000000E+00;  0.0000000E+00;  0.0000000E+00;0; -2.5944083E-04;  4.0000000E+04;  0.0000000E+00;  0.0000000E+00;  4.0000000E+04;  0.0000000E+00;  4.0000000E+04; -1.3817709E-04;  0.0000000E+00; -1.2126374E-04;  3.1928079E+02;
 -5.9999999E-02;  9.9999998E-03; -3.8000000E-01;1279;  0.0000000E+00;  0.0000000E+00;  0.0000000E+00;  1.0000936E+03;  1.0000000E-01;  7.7528671E+01;0;  0.0000000E+00;  0.0000000E+00;  0.0000000E+00;0; -4.2689801E-04;  4.0000000E+04;  0.0000000E+00;  0.0000000E+00;  4.0000000E+04;  0.0000000E+00;  4.0000000E+04; -2.4576019E-04;  0.0000000E+00; -1.8113783E-04;  4.5789484E+02;
 -5.9999999E-02;  9.9999998E-03; -3.7000000E-01;1280;  0.0000000E+00;  0.0000000E+00;  0.0000000E+00;  1.0001431E+03;  1.0000000E-01;  1.1861393E+02;0;  0.0000000E+00;  0.0000000E+00;  0.0000000E+00;0; -6.5695774E-04;  4.0000000E+04;  0.0000000E+00;  0.0000000E+00;  4.0000000E+04;  0.0000000E+00;  4.0000000E+04; -4.0535990E-04;  0.0000000E+00; -2.5159787E-04;  6.0637189E+02;
 -5.9999999E-02;  9.9999998E-03; -3.6000001E-01;1281;  0.0000000E+00;  0.0000000E+00;  0.0000000E+00;  1.0002182E+03;  1.0000000E-01;  1.8073563E+02;0;  0.0000000E+00;  0.0000000E+00;  0.0000000E+00;0; -9.5941476E-04;  4.0000000E+04;  0.0000000E+00;  0.0000000E+00;  4.0000000E+04;  0.0000000E+00;  4.0000000E+04; -6.2889664E-04;  0.0000000E+00; -3.3051815E-04;  7.5318884E+02;
 -5.9999999E-02;  9.9999998E-03; -3.4999999E-01;1282;  0.0000000E+00;  0.0000000E+00;  0.0000000E+00;  1.0003083E+03;  1.0000000E-01;  2.5540018E+02;0;  0.0000000E+00;  0.0000000E+00;  0.0000000E+00;0; -1.3412837E-03;  4.0000000E+04;  0.0000000E+00;  0.0000000E+00;  4.0000000E+04;  0.0000000E+00;  4.0000000E+04; -9.2655211E-04;  0.0000000E+00; -4.1473156E-04;  8.8465686E+02;
 -5.9999999E-02;  9.9999998E-03; -3.4000000E-01;1283;  0.0000000E+00;  0.0000000E+00;  0.0000000E+00;  1.0004108E+03;  1.0000000E-01;  3.4033606E+02;0;  0.0000000E+00;  0.0000000E+00;  0.0000000E+00;0; -1.8046473E-03;  4.0000000E+04;  0.0000000E+00;  0.0000000E+00;  4.0000000E+04;  0.0000000E+00;  4.0000000E+04; -1.3050787E-03;  0.0000000E+00; -4.9956853E-04;  9.8467609E+02;
 -5.9999999E-02;  9.9999998E-03; -3.3000001E-01;1284;  0.0000000E+00;  0.0000000E+00;  0.0000000E+00;  1.0005303E+03;  1.0000000E-01;  4.3939499E+02;0;  0.0000000E+00;  0.0000000E+00;  0.0000000E+00;0; -2.3447864E-03;  4.0000000E+04;  0.0000000E+00;  0.0000000E+00;  4.0000000E+04;  0.0000000E+00;  4.0000000E+04; -1.7662580E-03;  0.0000000E+00; -5.7852844E-04;  1.0351805E+03;
 -5.9999999E-02;  9.9999998E-03; -3.1999999E-01;1285;  0.0000000E+00;  0.0000000E+00;  0.0000000E+00;  1.0006558E+03;  1.0000000E-01;  5.4329327E+02;0;  0.0000000E+00;  0.0000000E+00;  0.0000000E+00;0; -2.9493228E-03;  4.0000000E+04;  0.0000000E+00;  0.0000000E+00;  4.0000000E+04;  0.0000000E+00;  4.0000000E+04; -2.3059342E-03;  0.0000000E+00; -6.4338854E-04;  1.0180287E+03;
 -5.9999999E-02;  9.9999998E-03; -3.1000000E-01;1286;  0.0000000E+00;  0.0000000E+00;  0.0000000E+00;  1.0008021E+03;  1.0000000E-01;  6.6447504E+02;0;  0.0000000E+00;  0.0000000E+00;  0.0000000E+00;0; -3.5991310E-03;  4.0000000E+04;  0.0000000E+00;  0.0000000E+00;  4.0000000E+04;  0.0000000E+00;  4.0000000E+04; -2.9140662E-03;  0.0000000E+00; -6.8506488E-04;  9.1857874E+02;
 -5.9999999E-02;  9.9999998E-03; -3.0000001E-01;1287;  0.0000000E+00;  0.0000000E+00;  0.0000000E+00;  1.0009432E+03;  1.0000000E-01;  7.8140997E+02;0;  0.0000000E+00;  0.0000000E+00;  0.0000000E+00;0; -4.2713243E-03;  4.0000000E+04;  0.0000000E+00;  0.0000000E+00;  4.0000000E+04;  0.0000000E+00;  4.0000000E+04; -3.5759569E-03;  0.0000000E+00; -6.9536717E-04;  7.3096448E+02;
 -5.9999999E-02;  9.9999998E-03; -2.8999999E-01;1288;  0.0000000E+00;  0.0000000E+00;  0.0000000E+00;  1.0010939E+03;  1.0000000E-01;  9.0634473E+02;0;  0.0000000E+00;  0.0000000E+00;  0.0000000E+00;0; -4.9436279E-03;  4.0000000E+04;  0.0000000E+00;  0.0000000E+00;  4.0000000E+04;  0.0000000E+00;  4.0000000E+04; -4.2743664E-03;  0.0000000E+00; -6.6926121E-04;  4.6464532E+02;
 -5.9999999E-02;  9.9999998E-03; -2.8000000E-01;1289;  0.0000000E+00;  0.0000000E+00;  0.0000000E+00;  1.0012381E+03;  1.0000000E-01;  1.0257488E+03;0;  0.0000000E+00;  0.0000000E+00;  0.0000000E+00;0; -5.5985297E-03;  4.0000000E+04;  0.0000000E+00;  0.0000000E+00;  4.0000000E+04;  0.0000000E+00;  4.0000000E+04; -4.9918974E-03;  0.0000000E+00; -6.0663215E-04;  1.7572862E+02;
 -5.0000001E-02;  9.9999998E-03; -4.4000000E-01;1364;  0.0000000E+00;  0.0000000E+00;  0.0000000E+00;  1.0000000E+03;  1.0000000E-01;  0.0000000E+00;0;  0.0000000E+00;  0.0000000E+00;  0.0000000E+00;0; -3.2087023E-06;  4.0000000E+04;  0.0000000E+00;  0.0000000E+00;  4.0000000E+04;  0.0000000E+00;  4.0000000E+04; -1.2142798E-06;  0.0000000E+00; -1.9944225E-06;  6.1638255E+00;
 -5.0000001E-02;  9.9999998E-03; -4.3000001E-01;1365;  0.0000000E+00;  0.0000000E+00;  0.0000000E+00;  1.0000000E+03;  1.0000000E-01;  0.0000000E+00;0;  0.0000000E+00;  0.0000000E+00;  0.0000000E+00;0; -1.6167363E-05;  4.0000000E+04;  0.0000000E+00;  0.0000000E+00;  4.0000000E+04;  0.0000000E+00;  4.0000000E+04; -6.3333455E-06;  0.0000000E+00; -9.8340179E-06;  2.9035507E+01;
 -5.0000001E-02;  9.9999998E-03; -4.1999999E-01;1366;  0.0000000E+00;  0.0000000E+00;  0.0000000E+00;  1.0000000E+03;  1.0000000E-01;  0.0000000E+00;0;  0.0000000E+00;  0.0000000E+00;  0.0000000E+00;0; -4.9541297E-05;  4.0000000E+04;  0.0000000E+00;  0.0000000E+00;  4.0000000E+04;  0.0000000E+00;  4.0000000E+04; -2.0659589E-05;  0.0000000E+00; -2.8881710E-05;  8.2248894E+01;
 -5.0000001E-02;  9.9999998E-03; -4.1000000E-01;1367;  0.0000000E+00;  0.0000000E+00;  0.0000000E+00;  1.0000088E+03;  1.0000000E-01;  7.3084354E+00;0;  0.0000000E+00;  0.0000000E+00;  0.0000000E+00;0; -1.1508985E-04;  4.0000000E+04;  0.0000000E+00;  0.0000000E+00;  4.0000000E+04;  0.0000000E+00;  4.0000000E+04; -5.1945215E-05;  0.0000000E+00; -6.3144631E-05;  1.7357288E+02;
 -5.0000001E-02;  9.9999998E-03; -4.0000001E-01;1368;  0.0000000E+00;  0.0000000E+00;  0.0000000E+00;  1.0000590E+03;  1.0000000E-01;  4.8887505E+01;0;  0.0000000E+00;  0.0000000E+00;  0.0000000E+00;0; -2.2491178E-04;  4.0000000E+04;  0.0000000E+00;  0.0000000E+00;  4.0000000E+04;  0.0000000E+00;  4.0000000E+04; -1.1057782E-04;  0.0000000E+00; -1.1433397E-04;  3.0268875E+02;
 -5.0000001E-02;  9.9999998E-03; -3.8999999E-01;1369;  0.0000000E+00;  0.0000000E+00;  0.0000000E+00;  1.0000916E+03;  1.0000000E-01;  7.5849709E+01;0;  0.0000000E+00;  0.0000000E+00;  0.0000000E+00;0; -3.9180717E-04;  4.0000000E+04;  0.0000000E+00;  0.0000000E+00;  4.0000000E+04;  0.0000000E+00;  4.0000000E+04; -2.0951824E-04;  0.0000000E+00; -1.8228892E-04;  4.6295197E+02;
 -5.0000001E-02;  9.9999998E-03; -3.8000000E-01;1370;  0.0000000E+00;  0.0000000E+00;  0.0000000E+00;  1.0001411E+03;  1.0000000E-01;  1.1683620E+02;0;  0.0000000E+00;  0.0000000E+00;  0.0000000E+00;0; -6.2974554E-04;  4.0000000E+04;  0.0000000E+00;  0.0000000E+00;  4.0000000E+04;  0.0000000E+00;  4.0000000E+04; -3.6391595E-04;  0.0000000E+00; -2.6582956E-04;  6.4422595E+02;
 -5.0000001E-02;  9.9999998E-03; -3.7000000E-01;1371;  0.0000000E+00;  0.0000000E+00;  0.0000000E+00;  1.0002254E+03;  1.0000000E-01;  1.8676015E+02;0;  0.0000000E+00;  0.0000000E+00;  0.0000000E+00;0; -9.5337408E-04;  4.0000000E+04;  0.0000000E+00;  0.0000000E+00;  4.0000000E+04;  0.0000000E+00;  4.0000000E+04; -5.9022440E-04;  0.0000000E+00; -3.6314968E-04;  8.3439648E+02;
 -5.0000001E-02;  9.9999998E-03; -3.6000001E-01;1372;  0.0000000E+00;  0.0000000E+00;  0.0000000E+00;  1.0003262E+03;  1.0000000E-01;  2.7031335E+02;0;  0.0000000E+00;  0.0000000E+00;  0.0000000E+00;0; -1.3764377E-03;  4.0000000E+04;  0.0000000E+00;  0.0000000E+00;  4.0000000E+04;  0.0000000E+00;  4.0000000E+04; -9.0480869E-04;  0.0000000E+00; -4.7162903E-04;  1.0194324E+03;
 -5.0000001E-02;  9.9999998E-03; -3.4999999E-01;1373;  0.0000000E+00;  0.0000000E+00;  0.0000000E+00;  1.0004511E+03;  1.0000000E-01;  3.7371783E+02;0;  0.0000000E+00;  0.0000000E+00;  0.0000000E+00;0; -1.9091617E-03;  4.0000000E+04;  0.0000000E+00;  0.0000000E+00;  4.0000000E+04;  0.0000000E+00;  4.0000000E+04; -1.3219225E-03;  0.0000000E+00; -5.8723910E-04;  1.1826698E+03;
 -5.0000001E-02;  9.9999998E-03; -3.4000000E-01;1374;  0.0000000E+00;  0.0000000E+00;  0.0000000E+00;  1.0006038E+03;  1.0000000E-01;  5.0023276E+02;0;  0.0000000E+00;  0.0000000E+00;  0.0000000E+00;0; -2.5552479E-03;  4.0000000E+04;  0.0000000E+00;  0.0000000E+00;  4.0000000E+04;  0.0000000E+00;  4.0000000E+04; -1.8514041E-03;  0.0000000E+00; -7.0384383E-04;  1.3042496E+03;
 -5.0000001E-02;  9.9999998E-03; -3.3000001E-01;1375;  0.0000000E+00;  0.0000000E+00;  0.0000000E+00;  1.0007751E+03;  1.0000000E-01;  6.4215466E+02;0;  0.0000000E+00;  0.0000000E+00;  0.0000000E+00;0; -3.3091160E-03;  4.0000000E+04;  0.0000000E+00;  0.0000000E+00;  4.0000000E+04;  0.0000000E+00;  4.0000000E+04; -2.4964386E-03;  0.0000000E+00; -8.1267743E-04;  1.3614868E+03;
 -5.0000001E-02;  9.9999998E-03; -3.1999999E-01;1376;  0.0000000E+00;  0.0000000E+00;  0.0000000E+00;  1.0009670E+03;  1.0000000E-01;  8.0116254E+02;0;  0.0000000E+00;  0.0000000E+00;  0.0000000E+00;0; -4.1544493E-03;  4.0000000E+04;  0.0000000E+00;  0.0000000E+00;  4.0000000E+04;  0.0000000E+00;  4.0000000E+04; -3.2520115E-03;  0.0000000E+00; -9.0243790E-04;  1.3311128E+03;
 -5.0000001E-02;  9.9999998E-03; -3.1000000E-01;1377;  0.0000000E+00;  0.0000000E+00;  0.0000000E+00;  1.0011787E+03;  1.0000000E-01;  9.7656500E+02;0;  0.0000000E+00;  0.0000000E+00;  0.0000000E+00;0; -5.0651771E-03;  4.0000000E+04;  0.0000000E+00;  0.0000000E+00;  4.0000000E+04;  0.0000000E+00;  4.0000000E+04; -4.1047134E-03;  0.0000000E+00; -9.6046383E-04;  1.1941697E+03;
 -5.0000001E-02;  9.9999998E-03; -3.0000001E-01;1378;  0.0000000E+00;  0.0000000E+00;  0.0000000E+00;  1.0013972E+03;  1.0000000E-01;  1.1574982E+03;0;  0.0000000E+00;  0.0000000E+00;  0.0000000E+00;0; -6.0094791E-03;  4.0000000E+04;  0.0000000E+00;  0.0000000E+00;  4.0000000E+04;  0.0000000E+00;  4.0000000E+04; -5.0342390E-03;  0.0000000E+00; -9.7524008E-04;  9.4330530E+02;
 -5.0000001E-02;  9.9999998E-03; -2.8999999E-01;1379;  0.0000000E+00;  0.0000000E+00;  0.0000000E+00;  1.0016115E+03;  1.0000000E-01;  1.3350734E+03;0;  0.0000000E+00;  0.0000000E+00;  0.0000000E+00;0; -6.9560530E-03;  4.0000000E+04;  0.0000000E+00;  0.0000000E+00;  4.0000000E+04;  0.0000000E+00;  4.0000000E+04; -6.0163559E-03;  0.0000000E+00; -9.3969726E-04;  5.9270575E+02;
 -5.0000001E-02;  9.9999998E-03; -2.8000000E-01;1380;  0.0000000E+00;  0.0000000E+00;  0.0000000E+00;  1.0018311E+03;  1.0000000E-01;  1.5169941E+03;0;  0.0000000E+00;  0.0000000E+00;  0.0000000E+00;0; -7.8801867E-03;  4.0000000E+04;  0.0000000E+00;  0.0000000E+00;  4.0000000E+04;  0.0000000E+00;  4.0000000E+04; -7.0264027E-03;  0.0000000E+00; -8.5378345E-04;  2.3142906E+02;
 -3.9999999E-02;  9.9999998E-03; -4.4000000E-01;1455;  0.0000000E+00;  0.0000000E+00;  0.0000000E+00;  1.0000000E+03;  1.0000000E-01;  0.0000000E+00;0;  0.0000000E+00;  0.0000000E+00;  0.0000000E+00;0; -6.8390818E-06;  4.0000000E+04;  0.0000000E+00;  0.0000000E+00;  4.0000000E+04;  0.0000000E+00;  4.0000000E+04; -2.5437078E-06;  0.0000000E+00; -4.2953743E-06;  1.3138016E+01;
 -3.9999999E-02;  9.9999998E-03; -4.3000001E-01;1456;  0.0000000E+00;  0.0000000E+00;  0.0000000E+00;  1.0000000E+03;  1.0000000E-01;  0.0000000E+00;0;  0.0000000E+00;  0.0000000E+00;  0.0000000E+00;0; -2.8452512E-05;  4.0000000E+04;  0.0000000E+00;  0.0000000E+00;  4.0000000E+04;  0.0000000E+00;  4.0000000E+04; -1.1093754E-05;  0.0000000E+00; -1.7358758E-05;  5.0399029E+01;
 -3.9999999E-02;  9.9999998E-03; -4.1999999E-01;1457;  0.0000000E+00;  0.0000000E+00;  0.0000000E+00;  1.0000000E+03;  1.0000000E-01;  0.0000000E+00;0;  0.0000000E+00;  0.0000000E+00;  0.0000000E+00;0; -7.9115278E-05;  4.0000000E+04;  0.0000000E+00;  0.0000000E+00;  4.0000000E+04;  0.0000000E+00;  4.0000000E+04; -3.3017550E-05;  0.0000000E+00; -4.6097728E-05;  1.2800259E+02;
 -3.9999999E-02;  9.9999998E-03; -4.1000000E-01;1458;  0.0000000E+00;  0.0000000E+00;  0.0000000E+00;  1.0000480E+03;  1.0000000E-01;  3.9801342E+01;0;  0.0000000E+00;  0.0000000E+00;  0.0000000E+00;0; -1.7356480E-04;  4.0000000E+04;  0.0000000E+00;  0.0000000E+00;  4.0000000E+04;  0.0000000E+00;  4.0000000E+04; -7.8561832E-05;  0.0000000E+00; -9.5002957E-05;  2.5268736E+02;
 -3.9999999E-02;  9.9999998E-03; -4.0000001E-01;1459;  0.0000000E+00;  0.0000000E+00;  0.0000000E+00;  1.0000756E+03;  1.0000000E-01;  6.2615513E+01;0;  0.0000000E+00;  0.0000000E+00;  0.0000000E+00;0; -3.2697443E-04;  4.0000000E+04;  0.0000000E+00;  0.0000000E+00;  4.0000000E+04;  0.0000000E+00;  4.0000000E+04; -1.6129263E-04;  0.0000000E+00; -1.6568181E-04;  4.2157153E+02;
 -3.9999999E-02;  9.9999998E-03; -3.8999999E-01;1460;  0.0000000E+00;  0.0000000E+00;  0.0000000E+00;  1.0001296E+03;  1.0000000E-01;  1.0735499E+02;0;  0.0000000E+00;  0.0000000E+00;  0.0000000E+00;0; -5.5572821E-04;  4.0000000E+04;  0.0000000E+00;  0.0000000E+00;  4.0000000E+04;  0.0000000E+00;  4.0000000E+04; -2.9807808E-04;  0.0000000E+00; -2.5765010E-04;  6.2513855E+02;
 -3.9999999E-02;  9.9999998E-03; -3.8000000E-01;1461;  0.0000000E+00;  0.0000000E+00;  0.0000000E+00;  1.0002161E+03;  1.0000000E-01;  1.7905667E+02;0;  0.0000000E+00;  0.0000000E+00;  0.0000000E+00;0; -8.7808946E-04;  4.0000000E+04;  0.0000000E+00;  0.0000000E+00;  4.0000000E+04;  0.0000000E+00;  4.0000000E+04; -5.0867681E-04;  0.0000000E+00; -3.6941265E-04;  8.5069727E+02;
 -3.9999999E-02;  9.9999998E-03; -3.7000000E-01;1462;  0.0000000E+00;  0.0000000E+00;  0.0000000E+00;  1.0003282E+03;  1.0000000E-01;  2.7189355E+02;0;  0.0000000E+00;  0.0000000E+00;  0.0000000E+00;0; -1.3135578E-03;  4.0000000E+04;  0.0000000E+00;  0.0000000E+00;  4.0000000E+04;  0.0000000E+00;  4.0000000E+04; -8.1471045E-04;  0.0000000E+00; -4.9884734E-04;  1.0839260E+03;
 -3.9999999E-02;  9.9999998E-03; -3.6000001E-01;1463;  0.0000000E+00;  0.0000000E+00;  0.0000000E+00;  1.0004668E+03;  1.0000000E-01;  3.8675449E+02;0;  0.0000000E+00;  0.0000000E+00;  0.0000000E+00;0; -1.8807896E-03;  4.0000000E+04;  0.0000000E+00;  0.0000000E+00;  4.0000000E+04;  0.0000000E+00;  4.0000000E+04; -1.2379499E-03;  0.0000000E+00; -6.4283976E-04;  1.3085209E+03;
 -3.9999999E-02;  9.9999998E-03; -3.4999999E-01;1464;  0.0000000E+00;  0.0000000E+00;  0.0000000E+00;  1.0006385E+03;  1.0000000E-01;  5.2907147E+02;0;  0.0000000E+00;  0.0000000E+00;  0.0000000E+00;0; -2.5941802E-03;  4.0000000E+04;  0.0000000E+00;  0.0000000E+00;  4.0000000E+04;  0.0000000E+00;  4.0000000E+04; -1.7977589E-03;  0.0000000E+00; -7.9642131E-04;  1.5050172E+03;
 -3.9999999E-02;  9.9999998E-03; -3.4000000E-01;1465;  0.0000000E+00;  0.0000000E+00;  0.0000000E+00;  1.0008456E+03;  1.0000000E-01;  7.0062213E+02;0;  0.0000000E+00;  0.0000000E+00;  0.0000000E+00;0; -3.4597772E-03;  4.0000000E+04;  0.0000000E+00;  0.0000000E+00;  4.0000000E+04;  0.0000000E+00;  4.0000000E+04; -2.5080149E-03;  0.0000000E+00; -9.5176237E-04;  1.6497024E+03;
 -3.9999999E-02;  9.9999998E-03; -3.3000001E-01;1466;  0.0000000E+00;  0.0000000E+00;  0.0000000E+00;  1.0010942E+03;  1.0000000E-01;  9.0654224E+02;0;  0.0000000E+00;  0.0000000E+00;  0.0000000E+00;0; -4.4713747E-03;  4.0000000E+04;  0.0000000E+00;  0.0000000E+00;  4.0000000E+04;  0.0000000E+00;  4.0000000E+04; -3.3739884E-03;  0.0000000E+00; -1.0973864E-03;  1.7148021E+03;
 -3.9999999E-02;  9.9999998E-03; -3.1999999E-01;1467;  0.0000000E+00;  0.0000000E+00;  0.0000000E+00;  1.0013610E+03;  1.0000000E-01;  1.1275730E+03;0;  0.0000000E+00;  0.0000000E+00;  0.0000000E+00;0; -5.6081135E-03;  4.0000000E+04;  0.0000000E+00;  0.0000000E+00;  4.0000000E+04;  0.0000000E+00;  4.0000000E+04; -4.3899408E-03;  0.0000000E+00; -1.2181725E-03;  1.6710050E+03;
 -3.9999999E-02;  9.9999998E-03; -3.1000000E-01;1468;  0.0000000E+00;  0.0000000E+00;  0.0000000E+00;  1.0016544E+03;  1.0000000E-01;  1.3706279E+03;0;  0.0000000E+00;  0.0000000E+00;  0.0000000E+00;0; -6.8353098E-03;  4.0000000E+04;  0.0000000E+00;  0.0000000E+00;  4.0000000E+04;  0.0000000E+00;  4.0000000E+04; -5.5384310E-03;  0.0000000E+00; -1.2968790E-03;  1.4936327E+03;
 -3.9999999E-02;  9.9999998E-03; -3.0000001E-01;1469;  0.0000000E+00;  0.0000000E+00;  0.0000000E+00;  1.0019599E+03;  1.0000000E-01;  1.6237566E+03;0;  0.0000000E+00;  0.0000000E+00;  0.0000000E+00;0; -8.1096422E-03;  4.0000000E+04;  0.0000000E+00;  0.0000000E+00;  4.0000000E+04;  0.0000000E+00;  4.0000000E+04; -6.7920219E-03;  0.0000000E+00; -1.3176200E-03;  1.1726813E+03;
 -3.9999999E-02;  9.9999998E-03; -2.8999999E-01;1470;  0.0000000E+00;  0.0000000E+00;  0.0000000E+00;  1.0022700E+03;  1.0000000E-01;  1.8806382E+03;0;  0.0000000E+00;  0.0000000E+00;  0.0000000E+00;0; -9.3880659E-03;  4.0000000E+04;  0.0000000E+00;  0.0000000E+00;  4.0000000E+04;  0.0000000E+00;  4.0000000E+04; -8.1174010E-03;  0.0000000E+00; -1.2706652E-03;  7.2744220E+02;
 -3.9999999E-02;  9.9999998E-03; -2.8000000E-01;1471;  0.0000000E+00;  0.0000000E+00;  0.0000000E+00;  1.0025779E+03;  1.0000000E-01;  2.1357422E+03;0;  0.0000000E+00;  0.0000000E+00;  0.0000000E+00;0; -1.0636728E-02;  4.0000000E+04;  0.0000000E+00;  0.0000000E+00;  4.0000000E+04;  0.0000000E+00;  4.0000000E+04; -9.4805351E-03;  0.0000000E+00; -1.1561934E-03;  2.8854428E+02;
 -2.9999999E-02;  9.9999998E-03; -4.4000000E-01;1546;  0.0000000E+00;  0.0000000E+00;  0.0000000E+00;  1.0000000E+03;  1.0000000E-01;  0.0000000E+00;0;  0.0000000E+00;  0.0000000E+00;  0.0000000E+00;0; -1.2093673E-05;  4.0000000E+04;  0.0000000E+00;  0.0000000E+00;  4.0000000E+04;  0.0000000E+00;  4.0000000E+04; -4.4380408E-06;  0.0000000E+00; -7.6556325E-06;  2.2930298E+01;
 -2.9999999E-02;  9.9999998E-03; -4.3000001E-01;1547;  0.0000000E+00;  0.0000000E+00;  0.0000000E+00;  1.0000000E+03;  1.0000000E-01;  0.0000000E+00;0;  0.0000000E+00;  0.0000000E+00;  0.0000000E+00;0; -4.4442197E-05;  4.0000000E+04;  0.0000000E+00;  0.0000000E+00;  4.0000000E+04;  0.0000000E+00;  4.0000000E+04; -1.7259586E-05;  0.0000000E+00; -2.7182612E-05;  7.6633507E+01;
 -2.9999999E-02;  9.9999998E-03; -4.1999999E-01;1548;  0.0000000E+00;  0.0000000E+00;  0.0000000E+00;  1.0000106E+03;  1.0000000E-01;  8.7898750E+00;0;  0.0000000E+00;  0.0000000E+00;  0.0000000E+00;0; -1.1561590E-04;  4.0000000E+04;  0.0000000E+00;  0.0000000E+00;  4.0000000E+04;  0.0000000E+00;  4.0000000E+04; -4.8235564E-05;  0.0000000E+00; -6.7380337E-05;  1.8018672E+02;
 -2.9999999E-02;  9.9999998E-03; -4.1000000E-01;1549;  0.0000000E+00;  0.0000000E+00;  0.0000000E+00;  1.0000668E+03;  1.0000000E-01;  5.5307079E+01;0;  0.0000000E+00;  0.0000000E+00;  0.0000000E+00;0; -2.4359382E-04;  4.0000000E+04;  0.0000000E+00;  0.0000000E+00;  4.0000000E+04;  0.0000000E+00;  4.0000000E+04; -1.1033740E-04;  0.0000000E+00; -1.3325643E-04;  3.3893689E+02;
 -2.9999999E-02;  9.9999998E-03; -4.0000001E-01;1550;  0.0000000E+00;  0.0000000E+00;  0.0000000E+00;  1.0001212E+03;  1.0000000E-01;  1.0034284E+02;0;  0.0000000E+00;  0.0000000E+00;  0.0000000E+00;0; -4.4695998E-04;  4.0000000E+04;  0.0000000E+00;  0.0000000E+00;  4.0000000E+04;  0.0000000E+00;  4.0000000E+04; -2.2060363E-04;  0.0000000E+00; -2.2635634E-04;  5.4742963E+02;
 -2.9999999E-02;  9.9999998E-03; -3.8999999E-01;1551;  0.0000000E+00;  0.0000000E+00;  0.0000000E+00;  1.0002031E+03;  1.0000000E-01;  1.6819278E+02;0;  0.0000000E+00;  0.0000000E+00;  0.0000000E+00;0; -7.4611325E-04;  4.0000000E+04;  0.0000000E+00;  0.0000000E+00;  4.0000000E+04;  0.0000000E+00;  4.0000000E+04; -4.0019903E-04;  0.0000000E+00; -3.4591425E-04;  7.9348505E+02;
 -2.9999999E-02;  9.9999998E-03; -3.8000000E-01;1552;  0.0000000E+00;  0.0000000E+00;  0.0000000E+00;  1.0003140E+03;  1.0000000E-01;  2.6014078E+02;0;  0.0000000E+00;  0.0000000E+00;  0.0000000E+00;0; -1.1641739E-03;  4.0000000E+04;  0.0000000E+00;  0.0000000E+00;  4.0000000E+04;  0.0000000E+00;  4.0000000E+04; -6.7402009E-04;  0.0000000E+00; -4.9015385E-04;  1.0622094E+03;
 -2.9999999E-02;  9.9999998E-03; -3.7000000E-01;1553;  0.0000000E+00;  0.0000000E+00;  0.0000000E+00;  1.0004485E+03;  1.0000000E-01;  3.7154504E+02;0;  0.0000000E+00;  0.0000000E+00;  0.0000000E+00;0; -1.7262215E-03;  4.0000000E+04;  0.0000000E+00;  0.0000000E+00;  4.0000000E+04;  0.0000000E+00;  4.0000000E+04; -1.0695599E-03;  0.0000000E+00; -6.5666164E-04;  1.3374525E+03;
 -2.9999999E-02;  9.9999998E-03; -3.6000001E-01;1554;  0.0000000E+00;  0.0000000E+00;  0.0000000E+00;  1.0006461E+03;  1.0000000E-01;  5.3529352E+02;0;  0.0000000E+00;  0.0000000E+00;  0.0000000E+00;0; -2.4567021E-03;  4.0000000E+04;  0.0000000E+00;  0.0000000E+00;  4.0000000E+04;  0.0000000E+00;  4.0000000E+04; -1.6148756E-03;  0.0000000E+00; -8.4182643E-04;  1.6010585E+03;
 -2.9999999E-02;  9.9999998E-03; -3.4999999E-01;1555;  0.0000000E+00;  0.0000000E+00;  0.0000000E+00;  1.0008741E+03;  1.0000000E-01;  7.2412769E+02;0;  0.0000000E+00;  0.0000000E+00;  0.0000000E+00;0; -3.3751405E-03;  4.0000000E+04;  0.0000000E+00;  0.0000000E+00;  4.0000000E+04;  0.0000000E+00;  4.0000000E+04; -2.3354576E-03;  0.0000000E+00; -1.0396829E-03;  1.8310917E+03;
 -2.9999999E-02;  9.9999998E-03; -3.4000000E-01;1556;  0.0000000E+00;  0.0000000E+00;  0.0000000E+00;  1.0011489E+03;  1.0000000E-01;  9.5177557E+02;0;  0.0000000E+00;  0.0000000E+00;  0.0000000E+00;0; -4.4908281E-03;  4.0000000E+04;  0.0000000E+00;  0.0000000E+00;  4.0000000E+04;  0.0000000E+00;  4.0000000E+04; -3.2502802E-03;  0.0000000E+00; -1.2405481E-03;  2.0002072E+03;
 -2.9999999E-02;  9.9999998E-03; -3.3000001E-01;1557;  0.0000000E+00;  0.0000000E+00;  0.0000000E+00;  1.0014772E+03;  1.0000000E-01;  1.2238666E+03;0;  0.0000000E+00;  0.0000000E+00;  0.0000000E+00;0; -5.7974639E-03;  4.0000000E+04;  0.0000000E+00;  0.0000000E+00;  4.0000000E+04;  0.0000000E+00;  4.0000000E+04; -4.3676035E-03;  0.0000000E+00; -1.4298606E-03;  2.0753271E+03;
 -2.9999999E-02;  9.9999998E-03; -3.1999999E-01;1558;  0.0000000E+00;  0.0000000E+00;  0.0000000E+00;  1.0018384E+03;  1.0000000E-01;  1.5230187E+03;0;  0.0000000E+00;  0.0000000E+00;  0.0000000E+00;0; -7.2693536E-03;  4.0000000E+04;  0.0000000E+00;  0.0000000E+00;  4.0000000E+04;  0.0000000E+00;  4.0000000E+04; -5.6813755E-03;  0.0000000E+00; -1.5879780E-03;  2.0201783E+03;
 -2.9999999E-02;  9.9999998E-03; -3.1000000E-01;1559;  0.0000000E+00;  0.0000000E+00;  0.0000000E+00;  1.0022319E+03;  1.0000000E-01;  1.8491329E+03;0;  0.0000000E+00;  0.0000000E+00;  0.0000000E+00;0; -8.8616842E-03;  4.0000000E+04;  0.0000000E+00;  0.0000000E+00;  4.0000000E+04;  0.0000000E+00;  4.0000000E+04; -7.1697049E-03;  0.0000000E+00; -1.6919797E-03;  1.8026765E+03;
 -2.9999999E-02;  9.9999998E-03; -3.0000001E-01;1560;  0.0000000E+00;  0.0000000E+00;  0.0000000E+00;  1.0026477E+03;  1.0000000E-01;  2.1936169E+03;0;  0.0000000E+00;  0.0000000E+00;  0.0000000E+00;0; -1.0516846E-02;  4.0000000E+04;  0.0000000E+00;  0.0000000E+00;  4.0000000E+04;  0.0000000E+00;  4.0000000E+04; -8.7965224E-03;  0.0000000E+00; -1.7203230E-03;  1.4082158E+03;
 -2.9999999E-02;  9.9999998E-03; -2.8999999E-01;1561;  0.0000000E+00;  0.0000000E+00;  0.0000000E+00;  1.0030623E+03;  1.0000000E-01;  2.5370146E+03;0;  0.0000000E+00;  0.0000000E+00;  0.0000000E+00;0; -1.2176795E-02;  4.0000000E+04;  0.0000000E+00;  0.0000000E+00;  4.0000000E+04;  0.0000000E+00;  4.0000000E+04; -1.0517008E-02;  0.0000000E+00; -1.6597868E-03;  8.6060217E+02;
 -2.9999999E-02;  9.9999998E-03; -2.8000000E-01;1562;  0.0000000E+00;  0.0000000E+00;  0.0000000E+00;  1.0034720E+03;  1.0000000E-01;  2.8765605E+03;0;  0.0000000E+00;  0.0000000E+00;  0.0000000E+00;0; -1.3796636E-02;  4.0000000E+04;  0.0000000E+00;  0.0000000E+00;  4.0000000E+04;  0.0000000E+00;  4.0000000E+04; -1.2285528E-02;  0.0000000E+00; -1.5111082E-03;  3.4098590E+02;
 -2.0000000E-02;  9.9999998E-03; -4.4000000E-01;1637;  0.0000000E+00;  0.0000000E+00;  0.0000000E+00;  1.0000000E+03;  1.0000000E-01;  0.0000000E+00;0;  0.0000000E+00;  0.0000000E+00;  0.0000000E+00;0; -1.8683309E-05;  4.0000000E+04;  0.0000000E+00;  0.0000000E+00;  4.0000000E+04;  0.0000000E+00;  4.0000000E+04; -6.7672831E-06;  0.0000000E+00; -1.1916027E-05;  3.4485325E+01;
 -2.0000000E-02;  9.9999998E-03; -4.3000001E-01;1638;  0.0000000E+00;  0.0000000E+00;  0.0000000E+00;  1.0000000E+03;  1.0000000E-01;  0.0000000E+00;0;  0.0000000E+00;  0.0000000E+00;  0.0000000E+00;0; -6.3216321E-05;  4.0000000E+04;  0.0000000E+00;  0.0000000E+00;  4.0000000E+04;  0.0000000E+00;  4.0000000E+04; -2.4401654E-05;  0.0000000E+00; -3.8814669E-05;  1.0474176E+02;
 -2.0000000E-02;  9.9999998E-03; -4.1999999E-01;1639;  0.0000000E+00;  0.0000000E+00;  0.0000000E+00;  1.0000462E+03;  1.0000000E-01;  3.8319904E+01;0;  0.0000000E+00;  0.0000000E+00;  0.0000000E+00;0; -1.5707247E-04;  4.0000000E+04;  0.0000000E+00;  0.0000000E+00;  4.0000000E+04;  0.0000000E+00;  4.0000000E+04; -6.5275402E-05;  0.0000000E+00; -9.1797076E-05;  2.3311392E+02;
 -2.0000000E-02;  9.9999998E-03; -4.1000000E-01;1640;  0.0000000E+00;  0.0000000E+00;  0.0000000E+00;  1.0000828E+03;  1.0000000E-01;  6.8541275E+01;0;  0.0000000E+00;  0.0000000E+00;  0.0000000E+00;0; -3.2163598E-04;  4.0000000E+04;  0.0000000E+00;  0.0000000E+00;  4.0000000E+04;  0.0000000E+00;  4.0000000E+04; -1.4514885E-04;  0.0000000E+00; -1.7648713E-04;  4.2354260E+02;
 -2.0000000E-02;  9.9999998E-03; -4.0000001E-01;1641;  0.0000000E+00;  0.0000000E+00;  0.0000000E+00;  1.0001523E+03;  1.0000000E-01;  1.2621865E+02;0;  0.0000000E+00;  0.0000000E+00;  0.0000000E+00;0; -5.7906611E-04;  4.0000000E+04;  0.0000000E+00;  0.0000000E+00;  4.0000000E+04;  0.0000000E+00;  4.0000000E+04; -2.8462856E-04;  0.0000000E+00; -2.9443757E-04;  6.6831030E+02;
 -2.0000000E-02;  9.9999998E-03; -3.8999999E-01;1642;  0.0000000E+00;  0.0000000E+00;  0.0000000E+00;  1.0002597E+03;  1.0000000E-01;  2.1520380E+02;0;  0.0000000E+00;  0.0000000E+00;  0.0000000E+00;0; -9.5397467E-04;  4.0000000E+04;  0.0000000E+00;  0.0000000E+00;  4.0000000E+04;  0.0000000E+00;  4.0000000E+04; -5.0935405E-04;  0.0000000E+00; -4.4462061E-04;  9.5301361E+02;
 -2.0000000E-02;  9.9999998E-03; -3.8000000E-01;1643;  0.0000000E+00;  0.0000000E+00;  0.0000000E+00;  1.0003995E+03;  1.0000000E-01;  3.3105237E+02;0;  0.0000000E+00;  0.0000000E+00;  0.0000000E+00;0; -1.4746352E-03;  4.0000000E+04;  0.0000000E+00;  0.0000000E+00;  4.0000000E+04;  0.0000000E+00;  4.0000000E+04; -8.4967038E-04;  0.0000000E+00; -6.2496489E-04;  1.2610052E+03;
 -2.0000000E-02;  9.9999998E-03; -3.7000000E-01;1644;  0.0000000E+00;  0.0000000E+00;  0.0000000E+00;  1.0005969E+03;  1.0000000E-01;  4.9450455E+02;0;  0.0000000E+00;  0.0000000E+00;  0.0000000E+00;0; -2.1721695E-03;  4.0000000E+04;  0.0000000E+00;  0.0000000E+00;  4.0000000E+04;  0.0000000E+00;  4.0000000E+04; -1.3394285E-03;  0.0000000E+00; -8.3274097E-04;  1.5747151E+03;
 -2.0000000E-02;  9.9999998E-03; -3.6000001E-01;1645;  0.0000000E+00;  0.0000000E+00;  0.0000000E+00;  1.0008353E+03;  1.0000000E-01;  6.9202979E+02;0;  0.0000000E+00;  0.0000000E+00;  0.0000000E+00;0; -3.0774716E-03;  4.0000000E+04;  0.0000000E+00;  0.0000000E+00;  4.0000000E+04;  0.0000000E+00;  4.0000000E+04; -2.0136547E-03;  0.0000000E+00; -1.0638168E-03;  1.8745660E+03;
 -2.0000000E-02;  9.9999998E-03; -3.4999999E-01;1646;  0.0000000E+00;  0.0000000E+00;  0.0000000E+00;  1.0011368E+03;  1.0000000E-01;  9.4189929E+02;0;  0.0000000E+00;  0.0000000E+00;  0.0000000E+00;0; -4.2160442E-03;  4.0000000E+04;  0.0000000E+00;  0.0000000E+00;  4.0000000E+04;  0.0000000E+00;  4.0000000E+04; -2.9048375E-03;  0.0000000E+00; -1.3112070E-03;  2.1366360E+03;
 -2.0000000E-02;  9.9999998E-03; -3.4000000E-01;1647;  0.0000000E+00;  0.0000000E+00;  0.0000000E+00;  1.0014968E+03;  1.0000000E-01;  1.2400637E+03;0;  0.0000000E+00;  0.0000000E+00;  0.0000000E+00;0; -5.6013642E-03;  4.0000000E+04;  0.0000000E+00;  0.0000000E+00;  4.0000000E+04;  0.0000000E+00;  4.0000000E+04; -4.0380661E-03;  0.0000000E+00; -1.5632981E-03;  2.3304973E+03;
 -2.0000000E-02;  9.9999998E-03; -3.3000001E-01;1648;  0.0000000E+00;  0.0000000E+00;  0.0000000E+00;  1.0019199E+03;  1.0000000E-01;  1.5905723E+03;0;  0.0000000E+00;  0.0000000E+00;  0.0000000E+00;0; -7.2278576E-03;  4.0000000E+04;  0.0000000E+00;  0.0000000E+00;  4.0000000E+04;  0.0000000E+00;  4.0000000E+04; -5.4256264E-03;  0.0000000E+00; -1.8022311E-03;  2.4180850E+03;
 -2.0000000E-02;  9.9999998E-03; -3.1999999E-01;1649;  0.0000000E+00;  0.0000000E+00;  0.0000000E+00;  1.0023915E+03;  1.0000000E-01;  1.9812773E+03;0;  0.0000000E+00;  0.0000000E+00;  0.0000000E+00;0; -9.0652909E-03;  4.0000000E+04;  0.0000000E+00;  0.0000000E+00;  4.0000000E+04;  0.0000000E+00;  4.0000000E+04; -7.0619793E-03;  0.0000000E+00; -2.0033116E-03;  2.3556492E+03;
 -2.0000000E-02;  9.9999998E-03; -3.1000000E-01;1650;  0.0000000E+00;  0.0000000E+00;  0.0000000E+00;  1.0028984E+03;  1.0000000E-01;  2.4013147E+03;0;  0.0000000E+00;  0.0000000E+00;  0.0000000E+00;0; -1.1057743E-02;  4.0000000E+04;  0.0000000E+00;  0.0000000E+00;  4.0000000E+04;  0.0000000E+00;  4.0000000E+04; -8.9208083E-03;  0.0000000E+00; -2.1369343E-03;  2.1019434E+03;
 -2.0000000E-02;  9.9999998E-03; -3.0000001E-01;1651;  0.0000000E+00;  0.0000000E+00;  0.0000000E+00;  1.0034284E+03;  1.0000000E-01;  2.8404136E+03;0;  0.0000000E+00;  0.0000000E+00;  0.0000000E+00;0; -1.3130576E-02;  4.0000000E+04;  0.0000000E+00;  0.0000000E+00;  4.0000000E+04;  0.0000000E+00;  4.0000000E+04; -1.0956147E-02;  0.0000000E+00; -2.1744298E-03;  1.6350443E+03;
 -2.0000000E-02;  9.9999998E-03; -2.8999999E-01;1652;  0.0000000E+00;  0.0000000E+00;  0.0000000E+00;  1.0039648E+03;  1.0000000E-01;  3.2847466E+03;0;  0.0000000E+00;  0.0000000E+00;  0.0000000E+00;0; -1.5207299E-02;  4.0000000E+04;  0.0000000E+00;  0.0000000E+00;  4.0000000E+04;  0.0000000E+00;  4.0000000E+04; -1.3109379E-02;  0.0000000E+00; -2.0979203E-03;  9.8192230E+02;
 -2.0000000E-02;  9.9999998E-03; -2.8000000E-01;1653;  0.0000000E+00;  0.0000000E+00;  0.0000000E+00;  1.0044945E+03;  1.0000000E-01;  3.7236477E+03;0;  0.0000000E+00;  0.0000000E+00;  0.0000000E+00;0; -1.7230166E-02;  4.0000000E+04;  0.0000000E+00;  0.0000000E+00;  4.0000000E+04;  0.0000000E+00;  4.0000000E+04; -1.5320823E-02;  0.0000000E+00; -1.9093443E-03;  3.8765524E+02;
 -9.9999998E-03;  9.9999998E-03; -4.4000000E-01;1728;  0.0000000E+00;  0.0000000E+00;  0.0000000E+00;  1.0000000E+03;  1.0000000E-01;  0.0000000E+00;0;  0.0000000E+00;  0.0000000E+00;  0.0000000E+00;0; -2.6005968E-05;  4.0000000E+04;  0.0000000E+00;  0.0000000E+00;  4.0000000E+04;  0.0000000E+00;  4.0000000E+04; -9.2748214E-06;  0.0000000E+00; -1.6731146E-05;  4.5990898E+01;
 -9.9999998E-03;  9.9999998E-03; -4.3000001E-01;1729;  0.0000000E+00;  0.0000000E+00;  0.0000000E+00;  1.0000000E+03;  1.0000000E-01;  0.0000000E+00;0;  0.0000000E+00;  0.0000000E+00;  0.0000000E+00;0; -8.3321764E-05;  4.0000000E+04;  0.0000000E+00;  0.0000000E+00;  4.0000000E+04;  0.0000000E+00;  4.0000000E+04; -3.1818843E-05;  0.0000000E+00; -5.1502924E-05;  1.3072256E+02;
 -9.9999998E-03;  9.9999998E-03; -4.1999999E-01;1730;  0.0000000E+00;  0.0000000E+00;  0.0000000E+00;  1.0000550E+03;  1.0000000E-01;  4.5529575E+01;0;  0.0000000E+00;  0.0000000E+00;  0.0000000E+00;0; -2.0068372E-04;  4.0000000E+04;  0.0000000E+00;  0.0000000E+00;  4.0000000E+04;  0.0000000E+00;  4.0000000E+04; -8.2585218E-05;  0.0000000E+00; -1.1809849E-04;  2.8002609E+02;
 -9.9999998E-03;  9.9999998E-03; -4.1000000E-01;1731;  0.0000000E+00;  0.0000000E+00;  0.0000000E+00;  1.0001279E+03;  1.0000000E-01;  1.0597231E+02;0;  0.0000000E+00;  0.0000000E+00;  0.0000000E+00;0; -4.0288677E-04;  4.0000000E+04;  0.0000000E+00;  0.0000000E+00;  4.0000000E+04;  0.0000000E+00;  4.0000000E+04; -1.7999437E-04;  0.0000000E+00; -2.2289240E-04;  4.9680960E+02;
 -9.9999998E-03;  9.9999998E-03; -4.0000001E-01;1732;  0.0000000E+00;  0.0000000E+00;  0.0000000E+00;  1.0002086E+03;  1.0000000E-01;  1.7283463E+02;0;  0.0000000E+00;  0.0000000E+00;  0.0000000E+00;0; -7.1559555E-04;  4.0000000E+04;  0.0000000E+00;  0.0000000E+00;  4.0000000E+04;  0.0000000E+00;  4.0000000E+04; -3.4810667E-04;  0.0000000E+00; -3.6748889E-04;  7.7173578E+02;
 -9.9999998E-03;  9.9999998E-03; -3.8999999E-01;1733;  0.0000000E+00;  0.0000000E+00;  0.0000000E+00;  1.0003453E+03;  1.0000000E-01;  2.8601660E+02;0;  0.0000000E+00;  0.0000000E+00;  0.0000000E+00;0; -1.1675397E-03;  4.0000000E+04;  0.0000000E+00;  0.0000000E+00;  4.0000000E+04;  0.0000000E+00;  4.0000000E+04; -6.1698980E-04;  0.0000000E+00; -5.5054988E-04;  1.0887661E+03;
 -9.9999998E-03;  9.9999998E-03; -3.8000000E-01;1734;  0.0000000E+00;  0.0000000E+00;  0.0000000E+00;  1.0005149E+03;  1.0000000E-01;  4.2655585E+02;0;  0.0000000E+00;  0.0000000E+00;  0.0000000E+00;0; -1.7921173E-03;  4.0000000E+04;  0.0000000E+00;  0.0000000E+00;  4.0000000E+04;  0.0000000E+00;  4.0000000E+04; -1.0225056E-03;  0.0000000E+00; -7.6961174E-04;  1.4298396E+03;
 -9.9999998E-03;  9.9999998E-03; -3.7000000E-01;1735;  0.0000000E+00;  0.0000000E+00;  0.0000000E+00;  1.0007504E+03;  1.0000000E-01;  6.2171082E+02;0;  0.0000000E+00;  0.0000000E+00;  0.0000000E+00;0; -2.6266002E-03;  4.0000000E+04;  0.0000000E+00;  0.0000000E+00;  4.0000000E+04;  0.0000000E+00;  4.0000000E+04; -1.6050667E-03;  0.0000000E+00; -1.0215334E-03;  1.7761997E+03;
 -9.9999998E-03;  9.9999998E-03; -3.6000001E-01;1736;  0.0000000E+00;  0.0000000E+00;  0.0000000E+00;  1.0010511E+03;  1.0000000E-01;  8.7088898E+02;0;  0.0000000E+00;  0.0000000E+00;  0.0000000E+00;0; -3.7086420E-03;  4.0000000E+04;  0.0000000E+00;  0.0000000E+00;  4.0000000E+04;  0.0000000E+00;  4.0000000E+04; -2.4070358E-03;  0.0000000E+00; -1.3016061E-03;  2.1071052E+03;
 -9.9999998E-03;  9.9999998E-03; -3.4999999E-01;1737;  0.0000000E+00;  0.0000000E+00;  0.0000000E+00;  1.0014274E+03;  1.0000000E-01;  1.1825839E+03;0;  0.0000000E+00;  0.0000000E+00;  0.0000000E+00;0; -5.0702370E-03;  4.0000000E+04;  0.0000000E+00;  0.0000000E+00;  4.0000000E+04;  0.0000000E+00;  4.0000000E+04; -3.4684325E-03;  0.0000000E+00; -1.6018044E-03;  2.3972715E+03;
 -9.9999998E-03;  9.9999998E-03; -3.4000000E-01;1738;  0.0000000E+00;  0.0000000E+00;  0.0000000E+00;  1.0018810E+03;  1.0000000E-01;  1.5583757E+03;0;  0.0000000E+00;  0.0000000E+00;  0.0000000E+00;0; -6.7298142E-03;  4.0000000E+04;  0.0000000E+00;  0.0000000E+00;  4.0000000E+04;  0.0000000E+00;  4.0000000E+04; -4.8212227E-03;  0.0000000E+00; -1.9085917E-03;  2.6139236E+03;
 -9.9999998E-03;  9.9999998E-03; -3.3000001E-01;1739;  0.0000000E+00;  0.0000000E+00;  0.0000000E+00;  1.0024020E+03;  1.0000000E-01;  1.9899684E+03;0;  0.0000000E+00;  0.0000000E+00;  0.0000000E+00;0; -8.6834282E-03;  4.0000000E+04;  0.0000000E+00;  0.0000000E+00;  4.0000000E+04;  0.0000000E+00;  4.0000000E+04; -6.4826477E-03;  0.0000000E+00; -2.2007802E-03;  2.7149385E+03;
 -9.9999998E-03;  9.9999998E-03; -3.1999999E-01;1740;  0.0000000E+00;  0.0000000E+00;  0.0000000E+00;  1.0029933E+03;  1.0000000E-01;  2.4799299E+03;0;  0.0000000E+00;  0.0000000E+00;  0.0000000E+00;0; -1.0897150E-02;  4.0000000E+04;  0.0000000E+00;  0.0000000E+00;  4.0000000E+04;  0.0000000E+00;  4.0000000E+04; -8.4487302E-03;  0.0000000E+00; -2.4484203E-03;  2.6495603E+03;
 -9.9999998E-03;  9.9999998E-03; -3.1000000E-01;1741;  0.0000000E+00;  0.0000000E+00;  0.0000000E+00;  1.0036324E+03;  1.0000000E-01;  3.0093965E+03;0;  0.0000000E+00;  0.0000000E+00;  0.0000000E+00;0; -1.3303958E-02;  4.0000000E+04;  0.0000000E+00;  0.0000000E+00;  4.0000000E+04;  0.0000000E+00;  4.0000000E+04; -1.0689449E-02;  0.0000000E+00; -2.6145098E-03;  2.3660723E+03;
 -9.9999998E-03;  9.9999998E-03; -3.0000001E-01;1742;  0.0000000E+00;  0.0000000E+00;  0.0000000E+00;  1.0042927E+03;  1.0000000E-01;  3.5564426E+03;0;  0.0000000E+00;  0.0000000E+00;  0.0000000E+00;0; -1.5810370E-02;  4.0000000E+04;  0.0000000E+00;  0.0000000E+00;  4.0000000E+04;  0.0000000E+00;  4.0000000E+04; -1.3148369E-02;  0.0000000E+00; -2.6620021E-03;  1.8324464E+03;
 -9.9999998E-03;  9.9999998E-03; -2.8999999E-01;1743;  0.0000000E+00;  0.0000000E+00;  0.0000000E+00;  1.0049531E+03;  1.0000000E-01;  4.1035874E+03;0;  0.0000000E+00;  0.0000000E+00;  0.0000000E+00;0; -1.8318085E-02;  4.0000000E+04;  0.0000000E+00;  0.0000000E+00;  4.0000000E+04;  0.0000000E+00;  4.0000000E+04; -1.5751189E-02;  0.0000000E+00; -2.5668957E-03;  1.0778778E+03;
 -9.9999998E-03;  9.9999998E-03; -2.8000000E-01;1744;  0.0000000E+00;  0.0000000E+00;  0.0000000E+00;  1.0056094E+03;  1.0000000E-01;  4.6472759E+03;0;  0.0000000E+00;  0.0000000E+00;  0.0000000E+00;0; -2.0756278E-02;  4.0000000E+04;  0.0000000E+00;  0.0000000E+00;  4.0000000E+04;  0.0000000E+00;  4.0000000E+04; -1.8422738E-02;  0.0000000E+00; -2.3335407E-03;  4.3750638E+02;
  0.0000000E+00;  9.9999998E-03; -4.4000000E-01;1819;  0.0000000E+00;  0.0000000E+00;  0.0000000E+00;  1.0000000E+03;  1.0000000E-01;  0.0000000E+00;0;  0.0000000E+00;  0.0000000E+00;  0.0000000E+00;0; -3.3287535E-05;  4.0000000E+04;  0.0000000E+00;  0.0000000E+00;  4.0000000E+04;  0.0000000E+00;  4.0000000E+04; -1.1621868E-05;  0.0000000E+00; -2.1665666E-05;  5.5283047E+01;
  0.0000000E+00;  9.9999998E-03; -4.3000001E-01;1820;  0.0000000E+00;  0.0000000E+00;  0.0000000E+00;  1.0000084E+03;  1.0000000E-01;  6.9133849E+00;0;  0.0000000E+00;  0.0000000E+00;  0.0000000E+00;0; -1.0304920E-04;  4.0000000E+04;  0.0000000E+00;  0.0000000E+00;  4.0000000E+04;  0.0000000E+00;  4.0000000E+04; -3.8631068E-05;  0.0000000E+00; -6.4418135E-05;  1.5037450E+02;
  0.0000000E+00;  9.9999998E-03; -4.1999999E-01;1821;  0.0000000E+00;  0.0000000E+00;  0.0000000E+00;  1.0000707E+03;  1.0000000E-01;  5.8566246E+01;0;  0.0000000E+00;  0.0000000E+00;  0.0000000E+00;0; -2.4325549E-04;  4.0000000E+04;  0.0000000E+00;  0.0000000E+00;  4.0000000E+04;  0.0000000E+00;  4.0000000E+04; -9.8276425E-05;  0.0000000E+00; -1.4497907E-04;  3.1442865E+02;
  0.0000000E+00;  9.9999998E-03; -4.1000000E-01;1822;  0.0000000E+00;  0.0000000E+00;  0.0000000E+00;  1.0001492E+03;  1.0000000E-01;  1.2355206E+02;0;  0.0000000E+00;  0.0000000E+00;  0.0000000E+00;0; -4.8191031E-04;  4.0000000E+04;  0.0000000E+00;  0.0000000E+00;  4.0000000E+04;  0.0000000E+00;  4.0000000E+04; -2.1132734E-04;  0.0000000E+00; -2.7058297E-04;  5.5015167E+02;
  0.0000000E+00;  9.9999998E-03; -4.0000001E-01;1823;  0.0000000E+00;  0.0000000E+00;  0.0000000E+00;  1.0002610E+03;  1.0000000E-01;  2.1619142E+02;0;  0.0000000E+00;  0.0000000E+00;  0.0000000E+00;0; -8.4785384E-04;  4.0000000E+04;  0.0000000E+00;  0.0000000E+00;  4.0000000E+04;  0.0000000E+00;  4.0000000E+04; -4.0500140E-04;  0.0000000E+00; -4.4285241E-04;  8.4750995E+02;
  0.0000000E+00;  9.9999998E-03; -3.8999999E-01;1824;  0.0000000E+00;  0.0000000E+00;  0.0000000E+00;  1.0004199E+03;  1.0000000E-01;  3.4784201E+02;0;  0.0000000E+00;  0.0000000E+00;  0.0000000E+00;0; -1.3735318E-03;  4.0000000E+04;  0.0000000E+00;  0.0000000E+00;  4.0000000E+04;  0.0000000E+00;  4.0000000E+04; -7.1354647E-04;  0.0000000E+00; -6.5998529E-04;  1.1892728E+03;
  0.0000000E+00;  9.9999998E-03; -3.8000000E-01;1825;  0.0000000E+00;  0.0000000E+00;  0.0000000E+00;  1.0006390E+03;  1.0000000E-01;  5.2936774E+02;0;  0.0000000E+00;  0.0000000E+00;  0.0000000E+00;0; -2.0970993E-03;  4.0000000E+04;  0.0000000E+00;  0.0000000E+00;  4.0000000E+04;  0.0000000E+00;  4.0000000E+04; -1.1781501E-03;  0.0000000E+00; -9.1894926E-04;  1.5560128E+03;
  0.0000000E+00;  9.9999998E-03; -3.7000000E-01;1826;  0.0000000E+00;  0.0000000E+00;  0.0000000E+00;  1.0009182E+03;  1.0000000E-01;  7.6076862E+02;0;  0.0000000E+00;  0.0000000E+00;  0.0000000E+00;0; -3.0616908E-03;  4.0000000E+04;  0.0000000E+00;  0.0000000E+00;  4.0000000E+04;  0.0000000E+00;  4.0000000E+04; -1.8456464E-03;  0.0000000E+00; -1.2160443E-03;  1.9277013E+03;
  0.0000000E+00;  9.9999998E-03; -3.6000001E-01;1827;  0.0000000E+00;  0.0000000E+00;  0.0000000E+00;  1.0012841E+03;  1.0000000E-01;  1.0638711E+03;0;  0.0000000E+00;  0.0000000E+00;  0.0000000E+00;0; -4.3115425E-03;  4.0000000E+04;  0.0000000E+00;  0.0000000E+00;  4.0000000E+04;  0.0000000E+00;  4.0000000E+04; -2.7656548E-03;  0.0000000E+00; -1.5458876E-03;  2.2824548E+03;
  0.0000000E+00;  9.9999998E-03; -3.4999999E-01;1828;  0.0000000E+00;  0.0000000E+00;  0.0000000E+00;  1.0017298E+03;  1.0000000E-01;  1.4331447E+03;0;  0.0000000E+00;  0.0000000E+00;  0.0000000E+00;0; -5.8851261E-03;  4.0000000E+04;  0.0000000E+00;  0.0000000E+00;  4.0000000E+04;  0.0000000E+00;  4.0000000E+04; -3.9857561E-03;  0.0000000E+00; -1.8993698E-03;  2.5938625E+03;
  0.0000000E+00;  9.9999998E-03; -3.4000000E-01;1829;  0.0000000E+00;  0.0000000E+00;  0.0000000E+00;  1.0022704E+03;  1.0000000E-01;  1.8810332E+03;0;  0.0000000E+00;  0.0000000E+00;  0.0000000E+00;0; -7.8059891E-03;  4.0000000E+04;  0.0000000E+00;  0.0000000E+00;  4.0000000E+04;  0.0000000E+00;  4.0000000E+04; -5.5449526E-03;  0.0000000E+00; -2.2610368E-03;  2.8276082E+03;
  0.0000000E+00;  9.9999998E-03; -3.3000001E-01;1830;  0.0000000E+00;  0.0000000E+00;  0.0000000E+00;  1.0029032E+03;  1.0000000E-01;  2.4052654E+03;0;  0.0000000E+00;  0.0000000E+00;  0.0000000E+00;0; -1.0072362E-02;  4.0000000E+04;  0.0000000E+00;  0.0000000E+00;  4.0000000E+04;  0.0000000E+00;  4.0000000E+04; -7.4659237E-03;  0.0000000E+00; -2.6064378E-03;  2.9388655E+03;
  0.0000000E+00;  9.9999998E-03; -3.1999999E-01;1831;  0.0000000E+00;  0.0000000E+00;  0.0000000E+00;  1.0036188E+03;  1.0000000E-01;  2.9980386E+03;0;  0.0000000E+00;  0.0000000E+00;  0.0000000E+00;0; -1.2647487E-02;  4.0000000E+04;  0.0000000E+00;  0.0000000E+00;  4.0000000E+04;  0.0000000E+00;  4.0000000E+04; -9.7470507E-03;  0.0000000E+00; -2.9004365E-03;  2.8715493E+03;
  0.0000000E+00;  9.9999998E-03; -3.1000000E-01;1832;  0.0000000E+00;  0.0000000E+00;  0.0000000E+00;  1.0043918E+03;  1.0000000E-01;  3.6385144E+03;0;  0.0000000E+00;  0.0000000E+00;  0.0000000E+00;0; -1.5454226E-02;  4.0000000E+04;  0.0000000E+00;  0.0000000E+00;  4.0000000E+04;  0.0000000E+00;  4.0000000E+04; -1.2355820E-02;  0.0000000E+00; -3.0984061E-03;  2.5638513E+03;
  0.0000000E+00;  9.9999998E-03; -3.0000001E-01;1833;  0.0000000E+00;  0.0000000E+00;  0.0000000E+00;  1.0051941E+03;  1.0000000E-01;  4.3031870E+03;0;  0.0000000E+00;  0.0000000E+00;  0.0000000E+00;0; -1.8379431E-02;  4.0000000E+04;  0.0000000E+00;  0.0000000E+00;  4.0000000E+04;  0.0000000E+00;  4.0000000E+04; -1.5225518E-02;  0.0000000E+00; -3.1539125E-03;  1.9704241E+03;
  9.9999998E-03;  9.9999998E-03; -4.4000000E-01;1851;  0.0000000E+00;  0.0000000E+00;  0.0000000E+00;  1.0000000E+03;  1.0000000E-01;  0.0000000E+00;0;  0.0000000E+00;  0.0000000E+00;  0.0000000E+00;0; -3.9772138E-05;  4.0000000E+04;  0.0000000E+00;  0.0000000E+00;  4.0000000E+04;  0.0000000E+00;  4.0000000E+04; -1.3454054E-05;  0.0000000E+00; -2.6318083E-05;  6.0377243E+01;
  9.9999998E-03;  9.9999998E-03; -4.3000001E-01;1852;  0.0000000E+00;  0.0000000E+00;  0.0000000E+00;  1.0000317E+03;  1.0000000E-01;  2.6270863E+01;0;  0.0000000E+00;  0.0000000E+00;  0.0000000E+00;0; -1.2076936E-04;  4.0000000E+04;  0.0000000E+00;  0.0000000E+00;  4.0000000E+04;  0.0000000E+00;  4.0000000E+04; -4.3919652E-05;  0.0000000E+00; -7.6849712E-05;  1.6027786E+02;
  9.9999998E-03;  9.9999998E-03; -4.1999999E-01;1853;  0.0000000E+00;  0.0000000E+00;  0.0000000E+00;  1.0000889E+03;  1.0000000E-01;  7.3676926E+01;0;  0.0000000E+00;  0.0000000E+00;  0.0000000E+00;0; -2.8172391E-04;  4.0000000E+04;  0.0000000E+00;  0.0000000E+00;  4.0000000E+04;  0.0000000E+00;  4.0000000E+04; -1.1041203E-04;  0.0000000E+00; -1.7131188E-04;  3.3174527E+02;
  9.9999998E-03;  9.9999998E-03; -4.1000000E-01;1854;  0.0000000E+00;  0.0000000E+00;  0.0000000E+00;  1.0001796E+03;  1.0000000E-01;  1.4883530E+02;0;  0.0000000E+00;  0.0000000E+00;  0.0000000E+00;0; -5.5342761E-04;  4.0000000E+04;  0.0000000E+00;  0.0000000E+00;  4.0000000E+04;  0.0000000E+00;  4.0000000E+04; -2.3561686E-04;  0.0000000E+00; -3.1781074E-04;  5.7854578E+02;
  9.9999998E-03;  9.9999998E-03; -4.0000001E-01;1855;  0.0000000E+00;  0.0000000E+00;  0.0000000E+00;  1.0003094E+03;  1.0000000E-01;  2.5638782E+02;0;  0.0000000E+00;  0.0000000E+00;  0.0000000E+00;0; -9.6732378E-04;  4.0000000E+04;  0.0000000E+00;  0.0000000E+00;  4.0000000E+04;  0.0000000E+00;  4.0000000E+04; -4.4948875E-04;  0.0000000E+00; -5.1783503E-04;  8.9077386E+02;
  9.9999998E-03;  9.9999998E-03; -3.8999999E-01;1856;  0.0000000E+00;  0.0000000E+00;  0.0000000E+00;  1.0004975E+03;  1.0000000E-01;  4.1213651E+02;0;  0.0000000E+00;  0.0000000E+00;  0.0000000E+00;0; -1.5589346E-03;  4.0000000E+04;  0.0000000E+00;  0.0000000E+00;  4.0000000E+04;  0.0000000E+00;  4.0000000E+04; -7.9003873E-04;  0.0000000E+00; -7.6889584E-04;  1.2501910E+03;
  9.9999998E-03;  9.9999998E-03; -3.8000000E-01;1857;  0.0000000E+00;  0.0000000E+00;  0.0000000E+00;  1.0007543E+03;  1.0000000E-01;  6.2496997E+02;0;  0.0000000E+00;  0.0000000E+00;  0.0000000E+00;0; -2.3705168E-03;  4.0000000E+04;  0.0000000E+00;  0.0000000E+00;  4.0000000E+04;  0.0000000E+00;  4.0000000E+04; -1.3033245E-03;  0.0000000E+00; -1.0671924E-03;  1.6356613E+03;
  9.9999998E-03;  9.9999998E-03; -3.7000000E-01;1858;  0.0000000E+00;  0.0000000E+00;  0.0000000E+00;  1.0010806E+03;  1.0000000E-01;  8.9528333E+02;0;  0.0000000E+00;  0.0000000E+00;  0.0000000E+00;0; -3.4504081E-03;  4.0000000E+04;  0.0000000E+00;  0.0000000E+00;  4.0000000E+04;  0.0000000E+00;  4.0000000E+04; -2.0420884E-03;  0.0000000E+00; -1.4083198E-03;  2.0253331E+03;
  9.9999998E-03;  9.9999998E-03; -3.6000001E-01;1859;  0.0000000E+00;  0.0000000E+00;  0.0000000E+00;  1.0015051E+03;  1.0000000E-01;  1.2469771E+03;0;  0.0000000E+00;  0.0000000E+00;  0.0000000E+00;0; -4.8487335E-03;  4.0000000E+04;  0.0000000E+00;  0.0000000E+00;  4.0000000E+04;  0.0000000E+00;  4.0000000E+04; -3.0626333E-03;  0.0000000E+00; -1.7861003E-03;  2.3957397E+03;
  9.9999998E-03;  9.9999998E-03; -3.4999999E-01;1860;  0.0000000E+00;  0.0000000E+00;  0.0000000E+00;  1.0020214E+03;  1.0000000E-01;  1.6747180E+03;0;  0.0000000E+00;  0.0000000E+00;  0.0000000E+00;0; -6.6097556E-03;  4.0000000E+04;  0.0000000E+00;  0.0000000E+00;  4.0000000E+04;  0.0000000E+00;  4.0000000E+04; -4.4195349E-03;  0.0000000E+00; -2.1902204E-03;  2.7191323E+03;
  9.9999998E-03;  9.9999998E-03; -3.4000000E-01;1861;  0.0000000E+00;  0.0000000E+00;  0.0000000E+00;  1.0026542E+03;  1.0000000E-01;  2.1989502E+03;0;  0.0000000E+00;  0.0000000E+00;  0.0000000E+00;0; -8.7615410E-03;  4.0000000E+04;  0.0000000E+00;  0.0000000E+00;  4.0000000E+04;  0.0000000E+00;  4.0000000E+04; -6.1583268E-03;  0.0000000E+00; -2.6032145E-03;  2.9599817E+03;
  9.9999998E-03;  9.9999998E-03; -3.3000001E-01;1862;  0.0000000E+00;  0.0000000E+00;  0.0000000E+00;  1.0033962E+03;  1.0000000E-01;  2.8136489E+03;0;  0.0000000E+00;  0.0000000E+00;  0.0000000E+00;0; -1.1304110E-02;  4.0000000E+04;  0.0000000E+00;  0.0000000E+00;  4.0000000E+04;  0.0000000E+00;  4.0000000E+04; -8.3067361E-03;  0.0000000E+00; -2.9973744E-03;  3.0718840E+03;
  9.9999998E-03;  9.9999998E-03; -3.1999999E-01;1863;  0.0000000E+00;  0.0000000E+00;  0.0000000E+00;  1.0042296E+03;  1.0000000E-01;  3.5040984E+03;0;  0.0000000E+00;  0.0000000E+00;  0.0000000E+00;0; -1.4198036E-02;  4.0000000E+04;  0.0000000E+00;  0.0000000E+00;  4.0000000E+04;  0.0000000E+00;  4.0000000E+04; -1.0865473E-02;  0.0000000E+00; -3.3325630E-03;  2.9958584E+03;
  9.9999998E-03;  9.9999998E-03; -3.1000000E-01;1864;  0.0000000E+00;  0.0000000E+00;  0.0000000E+00;  1.0051370E+03;  1.0000000E-01;  4.2558794E+03;0;  0.0000000E+00;  0.0000000E+00;  0.0000000E+00;0; -1.7357020E-02;  4.0000000E+04;  0.0000000E+00;  0.0000000E+00;  4.0000000E+04;  0.0000000E+00;  4.0000000E+04; -1.3800076E-02;  0.0000000E+00; -3.5569442E-03;  2.6635750E+03;
  2.0000000E-02;  9.9999998E-03; -4.4000000E-01;1881;  0.0000000E+00;  0.0000000E+00;  0.0000000E+00;  1.0000000E+03;  1.0000000E-01;  0.0000000E+00;0;  0.0000000E+00;  0.0000000E+00;  0.0000000E+00;0; -4.4905282E-05;  4.0000000E+04;  0.0000000E+00;  0.0000000E+00;  4.0000000E+04;  0.0000000E+00;  4.0000000E+04; -1.4473113E-05;  0.0000000E+00; -3.0432171E-05;  6.0010929E+01;
  2.0000000E-02;  9.9999998E-03; -4.3000001E-01;1882;  0.0000000E+00;  0.0000000E+00;  0.0000000E+00;  1.0000461E+03;  1.0000000E-01;  3.8221142E+01;0;  0.0000000E+00;  0.0000000E+00;  0.0000000E+00;0; -1.3524157E-04;  4.0000000E+04;  0.0000000E+00;  0.0000000E+00;  4.0000000E+04;  0.0000000E+00;  4.0000000E+04; -4.6898032E-05;  0.0000000E+00; -8.8343542E-05;  1.5885175E+02;
  2.0000000E-02;  9.9999998E-03; -4.1999999E-01;1883;  0.0000000E+00;  0.0000000E+00;  0.0000000E+00;  1.0001116E+03;  1.0000000E-01;  9.2441833E+01;0;  0.0000000E+00;  0.0000000E+00;  0.0000000E+00;0; -3.1364051E-04;  4.0000000E+04;  0.0000000E+00;  0.0000000E+00;  4.0000000E+04;  0.0000000E+00;  4.0000000E+04; -1.1737989E-04;  0.0000000E+00; -1.9626062E-04;  3.3099933E+02;
  2.0000000E-02;  9.9999998E-03; -4.1000000E-01;1884;  0.0000000E+00;  0.0000000E+00;  0.0000000E+00;  1.0002067E+03;  1.0000000E-01;  1.7125441E+02;0;  0.0000000E+00;  0.0000000E+00;  0.0000000E+00;0; -6.1306753E-04;  4.0000000E+04;  0.0000000E+00;  0.0000000E+00;  4.0000000E+04;  0.0000000E+00;  4.0000000E+04; -2.5004725E-04;  0.0000000E+00; -3.6302026E-04;  5.8262836E+02;
  2.0000000E-02;  9.9999998E-03; -4.0000001E-01;1885;  0.0000000E+00;  0.0000000E+00;  0.0000000E+00;  1.0003660E+03;  1.0000000E-01;  3.0320129E+02;0;  0.0000000E+00;  0.0000000E+00;  0.0000000E+00;0; -1.0668512E-03;  4.0000000E+04;  0.0000000E+00;  0.0000000E+00;  4.0000000E+04;  0.0000000E+00;  4.0000000E+04; -4.7711004E-04;  0.0000000E+00; -5.8974122E-04;  9.0455133E+02;
  2.0000000E-02;  9.9999998E-03; -3.8999999E-01;1886;  0.0000000E+00;  0.0000000E+00;  0.0000000E+00;  1.0005767E+03;  1.0000000E-01;  4.7771487E+02;0;  0.0000000E+00;  0.0000000E+00;  0.0000000E+00;0; -1.7128470E-03;  4.0000000E+04;  0.0000000E+00;  0.0000000E+00;  4.0000000E+04;  0.0000000E+00;  4.0000000E+04; -8.3978468E-04;  0.0000000E+00; -8.7306241E-04;  1.2772236E+03;
  2.0000000E-02;  9.9999998E-03; -3.8000000E-01;1887;  0.0000000E+00;  0.0000000E+00;  0.0000000E+00;  1.0008651E+03;  1.0000000E-01;  7.1672046E+02;0;  0.0000000E+00;  0.0000000E+00;  0.0000000E+00;0; -2.5966032E-03;  4.0000000E+04;  0.0000000E+00;  0.0000000E+00;  4.0000000E+04;  0.0000000E+00;  4.0000000E+04; -1.3883001E-03;  0.0000000E+00; -1.2083030E-03;  1.6769729E+03;
  2.0000000E-02;  9.9999998E-03; -3.7000000E-01;1888;  0.0000000E+00;  0.0000000E+00;  0.0000000E+00;  1.0012319E+03;  1.0000000E-01;  1.0206131E+03;0;  0.0000000E+00;  0.0000000E+00;  0.0000000E+00;0; -3.7706911E-03;  4.0000000E+04;  0.0000000E+00;  0.0000000E+00;  4.0000000E+04;  0.0000000E+00;  4.0000000E+04; -2.1804543E-03;  0.0000000E+00; -1.5902368E-03;  2.0792000E+03;
  2.0000000E-02;  9.9999998E-03; -3.6000001E-01;1889;  0.0000000E+00;  0.0000000E+00;  0.0000000E+00;  1.0017068E+03;  1.0000000E-01;  1.4140835E+03;0;  0.0000000E+00;  0.0000000E+00;  0.0000000E+00;0; -5.2899830E-03;  4.0000000E+04;  0.0000000E+00;  0.0000000E+00;  4.0000000E+04;  0.0000000E+00;  4.0000000E+04; -3.2782501E-03;  0.0000000E+00; -2.0117331E-03;  2.4579172E+03;
  2.0000000E-02;  9.9999998E-03; -3.4999999E-01;1890;  0.0000000E+00;  0.0000000E+00;  0.0000000E+00;  1.0022931E+03;  1.0000000E-01;  1.8997981E+03;0;  0.0000000E+00;  0.0000000E+00;  0.0000000E+00;0; -7.2032637E-03;  4.0000000E+04;  0.0000000E+00;  0.0000000E+00;  4.0000000E+04;  0.0000000E+00;  4.0000000E+04; -4.7421735E-03;  0.0000000E+00; -2.4610902E-03;  2.7833694E+03;
  2.0000000E-02;  9.9999998E-03; -3.4000000E-01;1891;  0.0000000E+00;  0.0000000E+00;  0.0000000E+00;  1.0030084E+03;  1.0000000E-01;  2.4923740E+03;0;  0.0000000E+00;  0.0000000E+00;  0.0000000E+00;0; -9.5418915E-03;  4.0000000E+04;  0.0000000E+00;  0.0000000E+00;  4.0000000E+04;  0.0000000E+00;  4.0000000E+04; -6.6232071E-03;  0.0000000E+00; -2.9186849E-03;  3.0185991E+03;
  2.0000000E-02;  9.9999998E-03; -3.3000001E-01;1892;  0.0000000E+00;  0.0000000E+00;  0.0000000E+00;  1.0038433E+03;  1.0000000E-01;  3.1841074E+03;0;  0.0000000E+00;  0.0000000E+00;  0.0000000E+00;0; -1.2306735E-02;  4.0000000E+04;  0.0000000E+00;  0.0000000E+00;  4.0000000E+04;  0.0000000E+00;  4.0000000E+04; -8.9532603E-03;  0.0000000E+00; -3.3534744E-03;  3.1162305E+03;
  2.0000000E-02;  9.9999998E-03; -3.1999999E-01;1893;  0.0000000E+00;  0.0000000E+00;  0.0000000E+00;  1.0047878E+03;  1.0000000E-01;  3.9666038E+03;0;  0.0000000E+00;  0.0000000E+00;  0.0000000E+00;0; -1.5455423E-02;  4.0000000E+04;  0.0000000E+00;  0.0000000E+00;  4.0000000E+04;  0.0000000E+00;  4.0000000E+04; -1.1734847E-02;  0.0000000E+00; -3.7205764E-03;  3.0166702E+03;
  2.0000000E-02;  9.9999998E-03; -3.1000000E-01;1894;  0.0000000E+00;  0.0000000E+00;  0.0000000E+00;  1.0058083E+03;  1.0000000E-01;  4.8121108E+03;0;  0.0000000E+00;  0.0000000E+00;  0.0000000E+00;0; -1.8894088E-02;  4.0000000E+04;  0.0000000E+00;  0.0000000E+00;  4.0000000E+04;  0.0000000E+00;  4.0000000E+04; -1.4932047E-02;  0.0000000E+00; -3.9620399E-03;  2.6511382E+03;
  2.9999999E-02;  9.9999998E-03; -4.4000000E-01;1911;  0.0000000E+00;  0.0000000E+00;  0.0000000E+00;  1.0000000E+03;  1.0000000E-01;  0.0000000E+00;0;  0.0000000E+00;  0.0000000E+00;  0.0000000E+00;0; -4.8451213E-05;  4.0000000E+04;  0.0000000E+00;  0.0000000E+00;  4.0000000E+04;  0.0000000E+00;  4.0000000E+04; -1.4498544E-05;  0.0000000E+00; -3.3952670E-05;  5.4132484E+01;
  2.9999999E-02;  9.9999998E-03; -4.3000001E-01;1912;  0.0000000E+00;  0.0000000E+00;  0.0000000E+00;  1.0000506E+03;  1.0000000E-01;  4.1875359E+01;0;  0.0000000E+00;  0.0000000E+00;  0.0000000E+00;0; -1.4580980E-04;  4.0000000E+04;  0.0000000E+00;  0.0000000E+00;  4.0000000E+04;  0.0000000E+00;  4.0000000E+04; -4.7088492E-05;  0.0000000E+00; -9.8721306E-05;  1.4726636E+02;
  2.9999999E-02;  9.9999998E-03; -4.1999999E-01;1913;  0.0000000E+00;  0.0000000E+00;  0.0000000E+00;  1.0001301E+03;  1.0000000E-01;  1.0775004E+02;0;  0.0000000E+00;  0.0000000E+00;  0.0000000E+00;0; -3.3749425E-04;  4.0000000E+04;  0.0000000E+00;  0.0000000E+00;  4.0000000E+04;  0.0000000E+00;  4.0000000E+04; -1.1827399E-04;  0.0000000E+00; -2.1922025E-04;  3.1600540E+02;
  2.9999999E-02;  9.9999998E-03; -4.1000000E-01;1914;  0.0000000E+00;  0.0000000E+00;  0.0000000E+00;  1.0002402E+03;  1.0000000E-01;  1.9900671E+02;0;  0.0000000E+00;  0.0000000E+00;  0.0000000E+00;0; -6.5792294E-04;  4.0000000E+04;  0.0000000E+00;  0.0000000E+00;  4.0000000E+04;  0.0000000E+00;  4.0000000E+04; -2.5318220E-04;  0.0000000E+00; -4.0474071E-04;  5.7006104E+02;
  2.9999999E-02;  9.9999998E-03; -4.0000001E-01;1915;  0.0000000E+00;  0.0000000E+00;  0.0000000E+00;  1.0004078E+03;  1.0000000E-01;  3.3786697E+02;0;  0.0000000E+00;  0.0000000E+00;  0.0000000E+00;0; -1.1416341E-03;  4.0000000E+04;  0.0000000E+00;  0.0000000E+00;  4.0000000E+04;  0.0000000E+00;  4.0000000E+04; -4.8576889E-04;  0.0000000E+00; -6.5586524E-04;  9.0101544E+02;
  2.9999999E-02;  9.9999998E-03; -3.8999999E-01;1916;  0.0000000E+00;  0.0000000E+00;  0.0000000E+00;  1.0006427E+03;  1.0000000E-01;  5.3242938E+02;0;  0.0000000E+00;  0.0000000E+00;  0.0000000E+00;0; -1.8281217E-03;  4.0000000E+04;  0.0000000E+00;  0.0000000E+00;  4.0000000E+04;  0.0000000E+00;  4.0000000E+04; -8.5977791E-04;  0.0000000E+00; -9.6834387E-04;  1.2871305E+03;
  2.9999999E-02;  9.9999998E-03; -3.8000000E-01;1917;  0.0000000E+00;  0.0000000E+00;  0.0000000E+00;  1.0009564E+03;  1.0000000E-01;  7.9237268E+02;0;  0.0000000E+00;  0.0000000E+00;  0.0000000E+00;0; -2.7653154E-03;  4.0000000E+04;  0.0000000E+00;  0.0000000E+00;  4.0000000E+04;  0.0000000E+00;  4.0000000E+04; -1.4287427E-03;  0.0000000E+00; -1.3365727E-03;  1.7010214E+03;
  2.9999999E-02;  9.9999998E-03; -3.7000000E-01;1918;  0.0000000E+00;  0.0000000E+00;  0.0000000E+00;  1.0013626E+03;  1.0000000E-01;  1.1288569E+03;0;  0.0000000E+00;  0.0000000E+00;  0.0000000E+00;0; -4.0088599E-03;  4.0000000E+04;  0.0000000E+00;  0.0000000E+00;  4.0000000E+04;  0.0000000E+00;  4.0000000E+04; -2.2544595E-03;  0.0000000E+00; -1.7544004E-03;  2.1141094E+03;
  2.9999999E-02;  9.9999998E-03; -3.6000001E-01;1919;  0.0000000E+00;  0.0000000E+00;  0.0000000E+00;  1.0018746E+03;  1.0000000E-01;  1.5530425E+03;0;  0.0000000E+00;  0.0000000E+00;  0.0000000E+00;0; -5.6170067E-03;  4.0000000E+04;  0.0000000E+00;  0.0000000E+00;  4.0000000E+04;  0.0000000E+00;  4.0000000E+04; -3.4034357E-03;  0.0000000E+00; -2.2135708E-03;  2.4969045E+03;
  2.9999999E-02;  9.9999998E-03; -3.4999999E-01;1920;  0.0000000E+00;  0.0000000E+00;  0.0000000E+00;  1.0025251E+03;  1.0000000E-01;  2.0919902E+03;0;  0.0000000E+00;  0.0000000E+00;  0.0000000E+00;0; -7.6416088E-03;  4.0000000E+04;  0.0000000E+00;  0.0000000E+00;  4.0000000E+04;  0.0000000E+00;  4.0000000E+04; -4.9407613E-03;  0.0000000E+00; -2.7008476E-03;  2.8167275E+03;
  2.9999999E-02;  9.9999998E-03; -3.4000000E-01;1921;  0.0000000E+00;  0.0000000E+00;  0.0000000E+00;  1.0033090E+03;  1.0000000E-01;  2.7414534E+03;0;  0.0000000E+00;  0.0000000E+00;  0.0000000E+00;0; -1.0115935E-02;  4.0000000E+04;  0.0000000E+00;  0.0000000E+00;  4.0000000E+04;  0.0000000E+00;  4.0000000E+04; -6.9215628E-03;  0.0000000E+00; -3.1943724E-03;  3.0347317E+03;
  2.9999999E-02;  9.9999998E-03; -3.3000001E-01;1922;  0.0000000E+00;  0.0000000E+00;  0.0000000E+00;  1.0042284E+03;  1.0000000E-01;  3.5031108E+03;0;  0.0000000E+00;  0.0000000E+00;  0.0000000E+00;0; -1.3040660E-02;  4.0000000E+04;  0.0000000E+00;  0.0000000E+00;  4.0000000E+04;  0.0000000E+00;  4.0000000E+04; -9.3807196E-03;  0.0000000E+00; -3.6599408E-03;  3.1031436E+03;
  2.9999999E-02;  9.9999998E-03; -3.1999999E-01;1923;  0.0000000E+00;  0.0000000E+00;  0.0000000E+00;  1.0052609E+03;  1.0000000E-01;  4.3584941E+03;0;  0.0000000E+00;  0.0000000E+00;  0.0000000E+00;0; -1.6370639E-02;  4.0000000E+04;  0.0000000E+00;  0.0000000E+00;  4.0000000E+04;  0.0000000E+00;  4.0000000E+04; -1.2322063E-02;  0.0000000E+00; -4.0485770E-03;  2.9646831E+03;
  2.9999999E-02;  9.9999998E-03; -3.1000000E-01;1924;  0.0000000E+00;  0.0000000E+00;  0.0000000E+00;  1.0063773E+03;  1.0000000E-01;  5.2834062E+03;0;  0.0000000E+00;  0.0000000E+00;  0.0000000E+00;0; -2.0007286E-02;  4.0000000E+04;  0.0000000E+00;  0.0000000E+00;  4.0000000E+04;  0.0000000E+00;  4.0000000E+04; -1.5709089E-02;  0.0000000E+00; -4.2981976E-03;  2.5589304E+03;
  3.9999999E-02;  9.9999998E-03; -4.4000000E-01;1941;  0.0000000E+00;  0.0000000E+00;  0.0000000E+00;  1.0000000E+03;  1.0000000E-01;  0.0000000E+00;0;  0.0000000E+00;  0.0000000E+00;  0.0000000E+00;0; -5.0509749E-05;  4.0000000E+04;  0.0000000E+00;  0.0000000E+00;  4.0000000E+04;  0.0000000E+00;  4.0000000E+04; -1.3512149E-05;  0.0000000E+00; -3.6997601E-05;  4.4236191E+01;
  3.9999999E-02;  9.9999998E-03; -4.3000001E-01;1942;  0.0000000E+00;  0.0000000E+00;  0.0000000E+00;  1.0000569E+03;  1.0000000E-01;  4.7109779E+01;0;  0.0000000E+00;  0.0000000E+00;  0.0000000E+00;0; -1.5243408E-04;  4.0000000E+04;  0.0000000E+00;  0.0000000E+00;  4.0000000E+04;  0.0000000E+00;  4.0000000E+04; -4.4468790E-05;  0.0000000E+00; -1.0796529E-04;  1.2987091E+02;
  3.9999999E-02;  9.9999998E-03; -4.1999999E-01;1943;  0.0000000E+00;  0.0000000E+00;  0.0000000E+00;  1.0001376E+03;  1.0000000E-01;  1.1407085E+02;0;  0.0000000E+00;  0.0000000E+00;  0.0000000E+00;0; -3.5281325E-04;  4.0000000E+04;  0.0000000E+00;  0.0000000E+00;  4.0000000E+04;  0.0000000E+00;  4.0000000E+04; -1.1318186E-04;  0.0000000E+00; -2.3963138E-04;  2.9564487E+02;
  3.9999999E-02;  9.9999998E-03; -4.1000000E-01;1944;  0.0000000E+00;  0.0000000E+00;  0.0000000E+00;  1.0002625E+03;  1.0000000E-01;  2.1747533E+02;0;  0.0000000E+00;  0.0000000E+00;  0.0000000E+00;0; -6.8688940E-04;  4.0000000E+04;  0.0000000E+00;  0.0000000E+00;  4.0000000E+04;  0.0000000E+00;  4.0000000E+04; -2.4538624E-04;  0.0000000E+00; -4.4150313E-04;  5.5536041E+02;
  3.9999999E-02;  9.9999998E-03; -4.0000001E-01;1945;  0.0000000E+00;  0.0000000E+00;  0.0000000E+00;  1.0004459E+03;  1.0000000E-01;  3.6947104E+02;0;  0.0000000E+00;  0.0000000E+00;  0.0000000E+00;0; -1.1899188E-03;  4.0000000E+04;  0.0000000E+00;  0.0000000E+00;  4.0000000E+04;  0.0000000E+00;  4.0000000E+04; -4.7624417E-04;  0.0000000E+00; -7.1367464E-04;  9.0053436E+02;
  3.9999999E-02;  9.9999998E-03; -3.8999999E-01;1946;  0.0000000E+00;  0.0000000E+00;  0.0000000E+00;  1.0006914E+03;  1.0000000E-01;  5.7282330E+02;0;  0.0000000E+00;  0.0000000E+00;  0.0000000E+00;0; -1.9023875E-03;  4.0000000E+04;  0.0000000E+00;  0.0000000E+00;  4.0000000E+04;  0.0000000E+00;  4.0000000E+04; -8.5131638E-04;  0.0000000E+00; -1.0510711E-03;  1.3058485E+03;
  3.9999999E-02;  9.9999998E-03; -3.8000000E-01;1947;  0.0000000E+00;  0.0000000E+00;  0.0000000E+00;  1.0010237E+03;  1.0000000E-01;  8.4817352E+02;0;  0.0000000E+00;  0.0000000E+00;  0.0000000E+00;0; -2.8737206E-03;  4.0000000E+04;  0.0000000E+00;  0.0000000E+00;  4.0000000E+04;  0.0000000E+00;  4.0000000E+04; -1.4265986E-03;  0.0000000E+00; -1.4471220E-03;  1.7390209E+03;
  3.9999999E-02;  9.9999998E-03; -3.7000000E-01;1948;  0.0000000E+00;  0.0000000E+00;  0.0000000E+00;  1.0014613E+03;  1.0000000E-01;  1.2106324E+03;0;  0.0000000E+00;  0.0000000E+00;  0.0000000E+00;0; -4.1615502E-03;  4.0000000E+04;  0.0000000E+00;  0.0000000E+00;  4.0000000E+04;  0.0000000E+00;  4.0000000E+04; -2.2669353E-03;  0.0000000E+00; -1.8946150E-03;  2.1664958E+03;
  3.9999999E-02;  9.9999998E-03; -3.6000001E-01;1949;  0.0000000E+00;  0.0000000E+00;  0.0000000E+00;  1.0020209E+03;  1.0000000E-01;  1.6743230E+03;0;  0.0000000E+00;  0.0000000E+00;  0.0000000E+00;0; -5.8262809E-03;  4.0000000E+04;  0.0000000E+00;  0.0000000E+00;  4.0000000E+04;  0.0000000E+00;  4.0000000E+04; -3.4421633E-03;  0.0000000E+00; -2.3841176E-03;  2.5542891E+03;
  3.9999999E-02;  9.9999998E-03; -3.4999999E-01;1950;  0.0000000E+00;  0.0000000E+00;  0.0000000E+00;  1.0027146E+03;  1.0000000E-01;  2.2490227E+03;0;  0.0000000E+00;  0.0000000E+00;  0.0000000E+00;0; -7.9215318E-03;  4.0000000E+04;  0.0000000E+00;  0.0000000E+00;  4.0000000E+04;  0.0000000E+00;  4.0000000E+04; -5.0206510E-03;  0.0000000E+00; -2.9008810E-03;  2.8660337E+03;
  3.9999999E-02;  9.9999998E-03; -3.4000000E-01;1951;  0.0000000E+00;  0.0000000E+00;  0.0000000E+00;  1.0035542E+03;  1.0000000E-01;  2.9446082E+03;0;  0.0000000E+00;  0.0000000E+00;  0.0000000E+00;0; -1.0481142E-02;  4.0000000E+04;  0.0000000E+00;  0.0000000E+00;  4.0000000E+04;  0.0000000E+00;  4.0000000E+04; -7.0601595E-03;  0.0000000E+00; -3.4209825E-03;  3.0605686E+03;
  3.9999999E-02;  9.9999998E-03; -3.3000001E-01;1952;  0.0000000E+00;  0.0000000E+00;  0.0000000E+00;  1.0045342E+03;  1.0000000E-01;  3.7565356E+03;0;  0.0000000E+00;  0.0000000E+00;  0.0000000E+00;0; -1.3504689E-02;  4.0000000E+04;  0.0000000E+00;  0.0000000E+00;  4.0000000E+04;  0.0000000E+00;  4.0000000E+04; -9.5971972E-03;  0.0000000E+00; -3.9074915E-03;  3.0903816E+03;
  3.9999999E-02;  9.9999998E-03; -3.1999999E-01;1953;  0.0000000E+00;  0.0000000E+00;  0.0000000E+00;  1.0056347E+03;  1.0000000E-01;  4.6682139E+03;0;  0.0000000E+00;  0.0000000E+00;  0.0000000E+00;0; -1.6944284E-02;  4.0000000E+04;  0.0000000E+00;  0.0000000E+00;  4.0000000E+04;  0.0000000E+00;  4.0000000E+04; -1.2636013E-02;  0.0000000E+00; -4.3082703E-03;  2.9035242E+03;
  3.9999999E-02;  9.9999998E-03; -3.1000000E-01;1954;  0.0000000E+00;  0.0000000E+00;  0.0000000E+00;  1.0068243E+03;  1.0000000E-01;  5.6537661E+03;0;  0.0000000E+00;  0.0000000E+00;  0.0000000E+00;0; -2.0697962E-02;  4.0000000E+04;  0.0000000E+00;  0.0000000E+00;  4.0000000E+04;  0.0000000E+00;  4.0000000E+04; -1.6139301E-02;  0.0000000E+00; -4.5586610E-03;  2.4547275E+03;
  5.0000001E-02;  9.9999998E-03; -4.4000000E-01;1971;  0.0000000E+00;  0.0000000E+00;  0.0000000E+00;  1.0000000E+03;  1.0000000E-01;  0.0000000E+00;0;  0.0000000E+00;  0.0000000E+00;  0.0000000E+00;0; -5.1425017E-05;  4.0000000E+04;  0.0000000E+00;  0.0000000E+00;  4.0000000E+04;  0.0000000E+00;  4.0000000E+04; -1.1680640E-05;  0.0000000E+00; -3.9744376E-05;  3.3374733E+01;
  5.0000001E-02;  9.9999998E-03; -4.3000001E-01;1972;  0.0000000E+00;  0.0000000E+00;  0.0000000E+00;  1.0000646E+03;  1.0000000E-01;  5.3529350E+01;0;  0.0000000E+00;  0.0000000E+00;  0.0000000E+00;0; -1.5556488E-04;  4.0000000E+04;  0.0000000E+00;  0.0000000E+00;  4.0000000E+04;  0.0000000E+00;  4.0000000E+04; -3.9545223E-05;  0.0000000E+00; -1.1601966E-04;  1.1391009E+02;
  5.0000001E-02;  9.9999998E-03; -4.1999999E-01;1973;  0.0000000E+00;  0.0000000E+00;  0.0000000E+00;  1.0001482E+03;  1.0000000E-01;  1.2276196E+02;0;  0.0000000E+00;  0.0000000E+00;  0.0000000E+00;0; -3.6014876E-04;  4.0000000E+04;  0.0000000E+00;  0.0000000E+00;  4.0000000E+04;  0.0000000E+00;  4.0000000E+04; -1.0328077E-04;  0.0000000E+00; -2.5686799E-04;  2.8292453E+02;
  5.0000001E-02;  9.9999998E-03; -4.1000000E-01;1974;  0.0000000E+00;  0.0000000E+00;  0.0000000E+00;  1.0002679E+03;  1.0000000E-01;  2.2201842E+02;0;  0.0000000E+00;  0.0000000E+00;  0.0000000E+00;0; -7.0085254E-04;  4.0000000E+04;  0.0000000E+00;  0.0000000E+00;  4.0000000E+04;  0.0000000E+00;  4.0000000E+04; -2.2886677E-04;  0.0000000E+00; -4.7198575E-04;  5.5770337E+02;
  5.0000001E-02;  9.9999998E-03; -4.0000001E-01;1975;  0.0000000E+00;  0.0000000E+00;  0.0000000E+00;  1.0004637E+03;  1.0000000E-01;  3.8418668E+02;0;  0.0000000E+00;  0.0000000E+00;  0.0000000E+00;0; -1.2132656E-03;  4.0000000E+04;  0.0000000E+00;  0.0000000E+00;  4.0000000E+04;  0.0000000E+00;  4.0000000E+04; -4.5218412E-04;  0.0000000E+00; -7.6108152E-04;  9.2808319E+02;
  5.0000001E-02;  9.9999998E-03; -3.8999999E-01;1976;  0.0000000E+00;  0.0000000E+00;  0.0000000E+00;  1.0007242E+03;  1.0000000E-01;  5.9998303E+02;0;  0.0000000E+00;  0.0000000E+00;  0.0000000E+00;0; -1.9383514E-03;  4.0000000E+04;  0.0000000E+00;  0.0000000E+00;  4.0000000E+04;  0.0000000E+00;  4.0000000E+04; -8.2013808E-04;  0.0000000E+00; -1.1182133E-03;  1.3638701E+03;
  5.0000001E-02;  9.9999998E-03; -3.8000000E-01;1977;  0.0000000E+00;  0.0000000E+00;  0.0000000E+00;  1.0010788E+03;  1.0000000E-01;  8.9380188E+02;0;  0.0000000E+00;  0.0000000E+00;  0.0000000E+00;0; -2.9264595E-03;  4.0000000E+04;  0.0000000E+00;  0.0000000E+00;  4.0000000E+04;  0.0000000E+00;  4.0000000E+04; -1.3906551E-03;  0.0000000E+00; -1.5358046E-03;  1.8269219E+03;
  5.0000001E-02;  9.9999998E-03; -3.7000000E-01;1978;  0.0000000E+00;  0.0000000E+00;  0.0000000E+00;  1.0015349E+03;  1.0000000E-01;  1.2716677E+03;0;  0.0000000E+00;  0.0000000E+00;  0.0000000E+00;0; -4.2365766E-03;  4.0000000E+04;  0.0000000E+00;  0.0000000E+00;  4.0000000E+04;  0.0000000E+00;  4.0000000E+04; -2.2309467E-03;  0.0000000E+00; -2.0056299E-03;  2.2780256E+03;
  5.0000001E-02;  9.9999998E-03; -3.6000001E-01;1979;  0.0000000E+00;  0.0000000E+00;  0.0000000E+00;  1.0021223E+03;  1.0000000E-01;  1.7582712E+03;0;  0.0000000E+00;  0.0000000E+00;  0.0000000E+00;0; -5.9303618E-03;  4.0000000E+04;  0.0000000E+00;  0.0000000E+00;  4.0000000E+04;  0.0000000E+00;  4.0000000E+04; -3.4131878E-03;  0.0000000E+00; -2.5171740E-03;  2.6779414E+03;
  5.0000001E-02;  9.9999998E-03; -3.4999999E-01;1980;  0.0000000E+00;  0.0000000E+00;  0.0000000E+00;  1.0028538E+03;  1.0000000E-01;  2.3642788E+03;0;  0.0000000E+00;  0.0000000E+00;  0.0000000E+00;0; -8.0619985E-03;  4.0000000E+04;  0.0000000E+00;  0.0000000E+00;  4.0000000E+04;  0.0000000E+00;  4.0000000E+04; -5.0076018E-03;  0.0000000E+00; -3.0543967E-03;  2.9860139E+03;
  5.0000001E-02;  9.9999998E-03; -3.4000000E-01;1981;  0.0000000E+00;  0.0000000E+00;  0.0000000E+00;  1.0037310E+03;  1.0000000E-01;  3.0910730E+03;0;  0.0000000E+00;  0.0000000E+00;  0.0000000E+00;0; -1.0664679E-02;  4.0000000E+04;  0.0000000E+00;  0.0000000E+00;  4.0000000E+04;  0.0000000E+00;  4.0000000E+04; -7.0729791E-03;  0.0000000E+00; -3.5917005E-03;  3.1583303E+03;
  5.0000001E-02;  9.9999998E-03; -3.3000001E-01;1982;  0.0000000E+00;  0.0000000E+00;  0.0000000E+00;  1.0047577E+03;  1.0000000E-01;  3.9416169E+03;0;  0.0000000E+00;  0.0000000E+00;  0.0000000E+00;0; -1.3735810E-02;  4.0000000E+04;  0.0000000E+00;  0.0000000E+00;  4.0000000E+04;  0.0000000E+00;  4.0000000E+04; -9.6457889E-03;  0.0000000E+00; -4.0900218E-03;  3.1477925E+03;
  5.0000001E-02;  9.9999998E-03; -3.1999999E-01;1983;  0.0000000E+00;  0.0000000E+00;  0.0000000E+00;  1.0059112E+03;  1.0000000E-01;  4.8973428E+03;0;  0.0000000E+00;  0.0000000E+00;  0.0000000E+00;0; -1.7224113E-02;  4.0000000E+04;  0.0000000E+00;  0.0000000E+00;  4.0000000E+04;  0.0000000E+00;  4.0000000E+04; -1.2729179E-02;  0.0000000E+00; -4.4949339E-03;  2.9087698E+03;
  5.0000001E-02;  9.9999998E-03; -3.1000000E-01;1984;  0.0000000E+00;  0.0000000E+00;  0.0000000E+00;  1.0071451E+03;  1.0000000E-01;  5.9195361E+03;0;  0.0000000E+00;  0.0000000E+00;  0.0000000E+00;0; -2.1024169E-02;  4.0000000E+04;  0.0000000E+00;  0.0000000E+00;  4.0000000E+04;  0.0000000E+00;  4.0000000E+04; -1.6284194E-02;  0.0000000E+00; -4.7399756E-03;  2.4124373E+03;
  5.9999999E-02;  9.9999998E-03; -4.4000000E-01;2001;  0.0000000E+00;  0.0000000E+00;  0.0000000E+00;  1.0000000E+03;  1.0000000E-01;  0.0000000E+00;0;  0.0000000E+00;  0.0000000E+00;  0.0000000E+00;0; -5.1607545E-05;  4.0000000E+04;  0.0000000E+00;  0.0000000E+00;  4.0000000E+04;  0.0000000E+00;  4.0000000E+04; -9.3419385E-06;  0.0000000E+00; -4.2265608E-05;  2.5726711E+01;
  5.9999999E-02;  9.9999998E-03; -4.3000001E-01;2002;  0.0000000E+00;  0.0000000E+00;  0.0000000E+00;  1.0000660E+03;  1.0000000E-01;  5.4615738E+01;0;  0.0000000E+00;  0.0000000E+00;  0.0000000E+00;0; -1.5596839E-04;  4.0000000E+04;  0.0000000E+00;  0.0000000E+00;  4.0000000E+04;  0.0000000E+00;  4.0000000E+04; -3.3302247E-05;  0.0000000E+00; -1.2266614E-04;  1.0837596E+02;
  5.9999999E-02;  9.9999998E-03; -4.1999999E-01;2003;  0.0000000E+00;  0.0000000E+00;  0.0000000E+00;  1.0001510E+03;  1.0000000E-01;  1.2513226E+02;0;  0.0000000E+00;  0.0000000E+00;  0.0000000E+00;0; -3.6101986E-04;  4.0000000E+04;  0.0000000E+00;  0.0000000E+00;  4.0000000E+04;  0.0000000E+00;  4.0000000E+04; -9.0671601E-05;  0.0000000E+00; -2.7034828E-04;  2.9242984E+02;
  5.9999999E-02;  9.9999998E-03; -4.1000000E-01;2004;  0.0000000E+00;  0.0000000E+00;  0.0000000E+00;  1.0002739E+03;  1.0000000E-01;  2.2695654E+02;0;  0.0000000E+00;  0.0000000E+00;  0.0000000E+00;0; -7.0262712E-04;  4.0000000E+04;  0.0000000E+00;  0.0000000E+00;  4.0000000E+04;  0.0000000E+00;  4.0000000E+04; -2.0743962E-04;  0.0000000E+00; -4.9518753E-04;  5.9689569E+02;
  5.9999999E-02;  9.9999998E-03; -4.0000001E-01;2005;  0.0000000E+00;  0.0000000E+00;  0.0000000E+00;  1.0004787E+03;  1.0000000E-01;  3.9663077E+02;0;  0.0000000E+00;  0.0000000E+00;  0.0000000E+00;0; -1.2164928E-03;  4.0000000E+04;  0.0000000E+00;  0.0000000E+00;  4.0000000E+04;  0.0000000E+00;  4.0000000E+04; -4.2011743E-04;  0.0000000E+00; -7.9637539E-04;  1.0081813E+03;
  5.9999999E-02;  9.9999998E-03; -3.8999999E-01;2006;  0.0000000E+00;  0.0000000E+00;  0.0000000E+00;  1.0007511E+03;  1.0000000E-01;  6.2230341E+02;0;  0.0000000E+00;  0.0000000E+00;  0.0000000E+00;0; -1.9440566E-03;  4.0000000E+04;  0.0000000E+00;  0.0000000E+00;  4.0000000E+04;  0.0000000E+00;  4.0000000E+04; -7.7694294E-04;  0.0000000E+00; -1.1671137E-03;  1.4901733E+03;
  5.9999999E-02;  9.9999998E-03; -3.8000000E-01;2007;  0.0000000E+00;  0.0000000E+00;  0.0000000E+00;  1.0011178E+03;  1.0000000E-01;  9.2609729E+02;0;  0.0000000E+00;  0.0000000E+00;  0.0000000E+00;0; -2.9365933E-03;  4.0000000E+04;  0.0000000E+00;  0.0000000E+00;  4.0000000E+04;  0.0000000E+00;  4.0000000E+04; -1.3376639E-03;  0.0000000E+00; -1.5989294E-03;  1.9982289E+03;
  5.9999999E-02;  9.9999998E-03; -3.7000000E-01;2008;  0.0000000E+00;  0.0000000E+00;  0.0000000E+00;  1.0015857E+03;  1.0000000E-01;  1.3137406E+03;0;  0.0000000E+00;  0.0000000E+00;  0.0000000E+00;0; -4.2540981E-03;  4.0000000E+04;  0.0000000E+00;  0.0000000E+00;  4.0000000E+04;  0.0000000E+00;  4.0000000E+04; -2.1713278E-03;  0.0000000E+00; -2.0827705E-03;  2.4869700E+03;
  5.9999999E-02;  9.9999998E-03; -3.6000001E-01;2009;  0.0000000E+00;  0.0000000E+00;  0.0000000E+00;  1.0021917E+03;  1.0000000E-01;  1.8157511E+03;0;  0.0000000E+00;  0.0000000E+00;  0.0000000E+00;0; -5.9588198E-03;  4.0000000E+04;  0.0000000E+00;  0.0000000E+00;  4.0000000E+04;  0.0000000E+00;  4.0000000E+04; -3.3515317E-03;  0.0000000E+00; -2.6072881E-03;  2.9117163E+03;
  5.9999999E-02;  9.9999998E-03; -3.4999999E-01;2010;  0.0000000E+00;  0.0000000E+00;  0.0000000E+00;  1.0029441E+03;  1.0000000E-01;  2.4391409E+03;0;  0.0000000E+00;  0.0000000E+00;  0.0000000E+00;0; -8.1044938E-03;  4.0000000E+04;  0.0000000E+00;  0.0000000E+00;  4.0000000E+04;  0.0000000E+00;  4.0000000E+04; -4.9490044E-03;  0.0000000E+00; -3.1554899E-03;  3.2268679E+03;
  5.9999999E-02;  9.9999998E-03; -3.4000000E-01;2011;  0.0000000E+00;  0.0000000E+00;  0.0000000E+00;  1.0038560E+03;  1.0000000E-01;  3.1945764E+03;0;  0.0000000E+00;  0.0000000E+00;  0.0000000E+00;0; -1.0722389E-02;  4.0000000E+04;  0.0000000E+00;  0.0000000E+00;  4.0000000E+04;  0.0000000E+00;  4.0000000E+04; -7.0217792E-03;  0.0000000E+00; -3.7006091E-03;  3.3845244E+03;
  5.9999999E-02;  9.9999998E-03; -3.3000001E-01;2012;  0.0000000E+00;  0.0000000E+00;  0.0000000E+00;  1.0049131E+03;  1.0000000E-01;  4.0704033E+03;0;  0.0000000E+00;  0.0000000E+00;  0.0000000E+00;0; -1.3806484E-02;  4.0000000E+04;  0.0000000E+00;  0.0000000E+00;  4.0000000E+04;  0.0000000E+00;  4.0000000E+04; -9.6043218E-03;  0.0000000E+00; -4.2021619E-03;  3.3359675E+03;
  5.9999999E-02;  9.9999998E-03; -3.1999999E-01;2013;  0.0000000E+00;  0.0000000E+00;  0.0000000E+00;  1.0060955E+03;  1.0000000E-01;  5.0500298E+03;0;  0.0000000E+00;  0.0000000E+00;  0.0000000E+00;0; -1.7300989E-02;  4.0000000E+04;  0.0000000E+00;  0.0000000E+00;  4.0000000E+04;  0.0000000E+00;  4.0000000E+04; -1.2696863E-02;  0.0000000E+00; -4.6041263E-03;  3.0385613E+03;
  5.9999999E-02;  9.9999998E-03; -3.1000000E-01;2014;  0.0000000E+00;  0.0000000E+00;  0.0000000E+00;  1.0073546E+03;  1.0000000E-01;  6.0931611E+03;0;  0.0000000E+00;  0.0000000E+00;  0.0000000E+00;0; -2.1095965E-02;  4.0000000E+04;  0.0000000E+00;  0.0000000E+00;  4.0000000E+04;  0.0000000E+00;  4.0000000E+04; -1.6257370E-02;  0.0000000E+00; -4.8385942E-03;  2.4745242E+03;
  7.0000000E-02;  9.9999998E-03; -4.4000000E-01;2031;  0.0000000E+00;  0.0000000E+00;  0.0000000E+00;  1.0000000E+03;  1.0000000E-01;  0.0000000E+00;0;  0.0000000E+00;  0.0000000E+00;  0.0000000E+00;0; -5.1372503E-05;  4.0000000E+04;  0.0000000E+00;  0.0000000E+00;  4.0000000E+04;  0.0000000E+00;  4.0000000E+04; -6.9352886E-06;  0.0000000E+00; -4.4437213E-05;  2.5785608E+01;
  7.0000000E-02;  9.9999998E-03; -4.3000001E-01;2032;  0.0000000E+00;  0.0000000E+00;  0.0000000E+00;  1.0000672E+03;  1.0000000E-01;  5.5702129E+01;0;  0.0000000E+00;  0.0000000E+00;  0.0000000E+00;0; -1.5457816E-04;  4.0000000E+04;  0.0000000E+00;  0.0000000E+00;  4.0000000E+04;  0.0000000E+00;  4.0000000E+04; -2.6954842E-05;  0.0000000E+00; -1.2762331E-04;  1.2193706E+02;
  7.0000000E-02;  9.9999998E-03; -4.1999999E-01;2033;  0.0000000E+00;  0.0000000E+00;  0.0000000E+00;  1.0001518E+03;  1.0000000E-01;  1.2572484E+02;0;  0.0000000E+00;  0.0000000E+00;  0.0000000E+00;0; -3.5756355E-04;  4.0000000E+04;  0.0000000E+00;  0.0000000E+00;  4.0000000E+04;  0.0000000E+00;  4.0000000E+04; -7.7904064E-05;  0.0000000E+00; -2.7965949E-04;  3.3672775E+02;
  7.0000000E-02;  9.9999998E-03; -4.1000000E-01;2034;  0.0000000E+00;  0.0000000E+00;  0.0000000E+00;  1.0002791E+03;  1.0000000E-01;  2.3120334E+02;0;  0.0000000E+00;  0.0000000E+00;  0.0000000E+00;0; -6.9626578E-04;  4.0000000E+04;  0.0000000E+00;  0.0000000E+00;  4.0000000E+04;  0.0000000E+00;  4.0000000E+04; -1.8602615E-04;  0.0000000E+00; -5.1023962E-04;  6.8873932E+02;
  7.0000000E-02;  9.9999998E-03; -4.0000001E-01;2035;  0.0000000E+00;  0.0000000E+00;  0.0000000E+00;  1.0004803E+03;  1.0000000E-01;  3.9791467E+02;0;  0.0000000E+00;  0.0000000E+00;  0.0000000E+00;0; -1.2069448E-03;  4.0000000E+04;  0.0000000E+00;  0.0000000E+00;  4.0000000E+04;  0.0000000E+00;  4.0000000E+04; -3.8898006E-04;  0.0000000E+00; -8.1796478E-04;  1.1594415E+03;
  7.0000000E-02;  9.9999998E-03; -3.8999999E-01;2036;  0.0000000E+00;  0.0000000E+00;  0.0000000E+00;  1.0007587E+03;  1.0000000E-01;  6.2852545E+02;0;  0.0000000E+00;  0.0000000E+00;  0.0000000E+00;0; -1.9320936E-03;  4.0000000E+04;  0.0000000E+00;  0.0000000E+00;  4.0000000E+04;  0.0000000E+00;  4.0000000E+04; -7.3674548E-04;  0.0000000E+00; -1.1953481E-03;  1.7057583E+03;
  7.0000000E-02;  9.9999998E-03; -3.8000000E-01;2037;  0.0000000E+00;  0.0000000E+00;  0.0000000E+00;  1.0011287E+03;  1.0000000E-01;  9.3508466E+02;0;  0.0000000E+00;  0.0000000E+00;  0.0000000E+00;0; -2.9241084E-03;  4.0000000E+04;  0.0000000E+00;  0.0000000E+00;  4.0000000E+04;  0.0000000E+00;  4.0000000E+04; -1.2908748E-03;  0.0000000E+00; -1.6332336E-03;  2.2761548E+03;
  7.0000000E-02;  9.9999998E-03; -3.7000000E-01;2038;  0.0000000E+00;  0.0000000E+00;  0.0000000E+00;  1.0016123E+03;  1.0000000E-01;  1.3357646E+03;0;  0.0000000E+00;  0.0000000E+00;  0.0000000E+00;0; -4.2437469E-03;  4.0000000E+04;  0.0000000E+00;  0.0000000E+00;  4.0000000E+04;  0.0000000E+00;  4.0000000E+04; -2.1218134E-03;  0.0000000E+00; -2.1219335E-03;  2.8192207E+03;
  7.0000000E-02;  9.9999998E-03; -3.6000001E-01;2039;  0.0000000E+00;  0.0000000E+00;  0.0000000E+00;  1.0022385E+03;  1.0000000E-01;  1.8545648E+03;0;  0.0000000E+00;  0.0000000E+00;  0.0000000E+00;0; -5.9533063E-03;  4.0000000E+04;  0.0000000E+00;  0.0000000E+00;  4.0000000E+04;  0.0000000E+00;  4.0000000E+04; -3.3037646E-03;  0.0000000E+00; -2.6495419E-03;  3.2846992E+03;
  7.0000000E-02;  9.9999998E-03; -3.4999999E-01;2040;  0.0000000E+00;  0.0000000E+00;  0.0000000E+00;  1.0030105E+03;  1.0000000E-01;  2.4941516E+03;0;  0.0000000E+00;  0.0000000E+00;  0.0000000E+00;0; -8.1054028E-03;  4.0000000E+04;  0.0000000E+00;  0.0000000E+00;  4.0000000E+04;  0.0000000E+00;  4.0000000E+04; -4.9068322E-03;  0.0000000E+00; -3.1985710E-03;  3.6209712E+03;
  7.0000000E-02;  9.9999998E-03; -3.4000000E-01;2041;  0.0000000E+00;  0.0000000E+00;  0.0000000E+00;  1.0039387E+03;  1.0000000E-01;  3.2631177E+03;0;  0.0000000E+00;  0.0000000E+00;  0.0000000E+00;0; -1.0728517E-02;  4.0000000E+04;  0.0000000E+00;  0.0000000E+00;  4.0000000E+04;  0.0000000E+00;  4.0000000E+04; -6.9867843E-03;  0.0000000E+00; -3.7417326E-03;  3.7730745E+03;
  7.0000000E-02;  9.9999998E-03; -3.3000001E-01;2042;  0.0000000E+00;  0.0000000E+00;  0.0000000E+00;  1.0050219E+03;  1.0000000E-01;  4.1605737E+03;0;  0.0000000E+00;  0.0000000E+00;  0.0000000E+00;0; -1.3811899E-02;  4.0000000E+04;  0.0000000E+00;  0.0000000E+00;  4.0000000E+04;  0.0000000E+00;  4.0000000E+04; -9.5740249E-03;  0.0000000E+00; -4.2378744E-03;  3.6849358E+03;
  7.0000000E-02;  9.9999998E-03; -3.1999999E-01;2043;  0.0000000E+00;  0.0000000E+00;  0.0000000E+00;  1.0062228E+03;  1.0000000E-01;  5.1555083E+03;0;  0.0000000E+00;  0.0000000E+00;  0.0000000E+00;0; -1.7293733E-02;  4.0000000E+04;  0.0000000E+00;  0.0000000E+00;  4.0000000E+04;  0.0000000E+00;  4.0000000E+04; -1.2663609E-02;  0.0000000E+00; -4.6301242E-03;  3.3087190E+03;
  7.0000000E-02;  9.9999998E-03; -3.1000000E-01;2044;  0.0000000E+00;  0.0000000E+00;  0.0000000E+00;  1.0074905E+03;  1.0000000E-01;  6.2057505E+03;0;  0.0000000E+00;  0.0000000E+00;  0.0000000E+00;0; -2.1057867E-02;  4.0000000E+04;  0.0000000E+00;  0.0000000E+00;  4.0000000E+04;  0.0000000E+00;  4.0000000E+04; -1.6208457E-02;  0.0000000E+00; -4.8494088E-03;  2.6259949E+03;
  7.9999998E-02;  9.9999998E-03; -4.4000000E-01;2061;  0.0000000E+00;  0.0000000E+00;  0.0000000E+00;  1.0000000E+03;  1.0000000E-01;  0.0000000E+00;0;  0.0000000E+00;  0.0000000E+00;  0.0000000E+00;0; -5.0916846E-05;  4.0000000E+04;  0.0000000E+00;  0.0000000E+00;  4.0000000E+04;  0.0000000E+00;  4.0000000E+04; -4.8895254E-06;  0.0000000E+00; -4.6027319E-05;  3.7171993E+01;
  7.9999998E-02;  9.9999998E-03; -4.3000001E-01;2062;  0.0000000E+00;  0.0000000E+00;  0.0000000E+00;  1.0000687E+03;  1.0000000E-01;  5.6887280E+01;0;  0.0000000E+00;  0.0000000E+00;  0.0000000E+00;0; -1.5233147E-04;  4.0000000E+04;  0.0000000E+00;  0.0000000E+00;  4.0000000E+04;  0.0000000E+00;  4.0000000E+04; -2.1656602E-05;  0.0000000E+00; -1.3067487E-04;  1.6040569E+02;
  7.9999998E-02;  9.9999998E-03; -4.1999999E-01;2063;  0.0000000E+00;  0.0000000E+00;  0.0000000E+00;  1.0001441E+03;  1.0000000E-01;  1.1940403E+02;0;  0.0000000E+00;  0.0000000E+00;  0.0000000E+00;0; -3.5203289E-04;  4.0000000E+04;  0.0000000E+00;  0.0000000E+00;  4.0000000E+04;  0.0000000E+00;  4.0000000E+04; -6.7678331E-05;  0.0000000E+00; -2.8435455E-04;  4.2304843E+02;
  7.9999998E-02;  9.9999998E-03; -4.1000000E-01;2064;  0.0000000E+00;  0.0000000E+00;  0.0000000E+00;  1.0002772E+03;  1.0000000E-01;  2.2972189E+02;0;  0.0000000E+00;  0.0000000E+00;  0.0000000E+00;0; -6.8654469E-04;  4.0000000E+04;  0.0000000E+00;  0.0000000E+00;  4.0000000E+04;  0.0000000E+00;  4.0000000E+04; -1.7033113E-04;  0.0000000E+00; -5.1621359E-04;  8.4122302E+02;
  7.9999998E-02;  9.9999998E-03; -4.0000001E-01;2065;  0.0000000E+00;  0.0000000E+00;  0.0000000E+00;  1.0004844E+03;  1.0000000E-01;  4.0137137E+02;0;  0.0000000E+00;  0.0000000E+00;  0.0000000E+00;0; -1.1936093E-03;  4.0000000E+04;  0.0000000E+00;  0.0000000E+00;  4.0000000E+04;  0.0000000E+00;  4.0000000E+04; -3.6924734E-04;  0.0000000E+00; -8.2436204E-04;  1.3897828E+03;
  7.9999998E-02;  9.9999998E-03; -3.8999999E-01;2066;  0.0000000E+00;  0.0000000E+00;  0.0000000E+00;  1.0007585E+03;  1.0000000E-01;  6.2842670E+02;0;  0.0000000E+00;  0.0000000E+00;  0.0000000E+00;0; -1.9174151E-03;  4.0000000E+04;  0.0000000E+00;  0.0000000E+00;  4.0000000E+04;  0.0000000E+00;  4.0000000E+04; -7.1659143E-04;  0.0000000E+00; -1.2008236E-03;  2.0180294E+03;
  7.9999998E-02;  9.9999998E-03; -3.8000000E-01;2067;  0.0000000E+00;  0.0000000E+00;  0.0000000E+00;  1.0011370E+03;  1.0000000E-01;  9.4199805E+02;0;  0.0000000E+00;  0.0000000E+00;  0.0000000E+00;0; -2.9118070E-03;  4.0000000E+04;  0.0000000E+00;  0.0000000E+00;  4.0000000E+04;  0.0000000E+00;  4.0000000E+04; -1.2758481E-03;  0.0000000E+00; -1.6359589E-03;  2.6676892E+03;
  7.9999998E-02;  9.9999998E-03; -3.7000000E-01;2068;  0.0000000E+00;  0.0000000E+00;  0.0000000E+00;  1.0016345E+03;  1.0000000E-01;  1.3541345E+03;0;  0.0000000E+00;  0.0000000E+00;  0.0000000E+00;0; -4.2384099E-03;  4.0000000E+04;  0.0000000E+00;  0.0000000E+00;  4.0000000E+04;  0.0000000E+00;  4.0000000E+04; -2.1187470E-03;  0.0000000E+00; -2.1196632E-03;  3.2814924E+03;
  7.9999998E-02;  9.9999998E-03; -3.6000001E-01;2069;  0.0000000E+00;  0.0000000E+00;  0.0000000E+00;  1.0022698E+03;  1.0000000E-01;  1.8804407E+03;0;  0.0000000E+00;  0.0000000E+00;  0.0000000E+00;0; -5.9594256E-03;  4.0000000E+04;  0.0000000E+00;  0.0000000E+00;  4.0000000E+04;  0.0000000E+00;  4.0000000E+04; -3.3196602E-03;  0.0000000E+00; -2.6397654E-03;  3.8032886E+03;
  7.9999998E-02;  9.9999998E-03; -3.4999999E-01;2070;  0.0000000E+00;  0.0000000E+00;  0.0000000E+00;  1.0030604E+03;  1.0000000E-01;  2.5354346E+03;0;  0.0000000E+00;  0.0000000E+00;  0.0000000E+00;0; -8.1258845E-03;  4.0000000E+04;  0.0000000E+00;  0.0000000E+00;  4.0000000E+04;  0.0000000E+00;  4.0000000E+04; -4.9471823E-03;  0.0000000E+00; -3.1787024E-03;  4.1738892E+03;
  7.9999998E-02;  9.9999998E-03; -3.4000000E-01;2071;  0.0000000E+00;  0.0000000E+00;  0.0000000E+00;  1.0040125E+03;  1.0000000E-01;  3.3242517E+03;0;  0.0000000E+00;  0.0000000E+00;  0.0000000E+00;0; -1.0762771E-02;  4.0000000E+04;  0.0000000E+00;  0.0000000E+00;  4.0000000E+04;  0.0000000E+00;  4.0000000E+04; -7.0534400E-03;  0.0000000E+00; -3.7093307E-03;  4.3275786E+03;
  7.9999998E-02;  9.9999998E-03; -3.3000001E-01;2072;  0.0000000E+00;  0.0000000E+00;  0.0000000E+00;  1.0051112E+03;  1.0000000E-01;  4.2345469E+03;0;  0.0000000E+00;  0.0000000E+00;  0.0000000E+00;0; -1.3853652E-02;  4.0000000E+04;  0.0000000E+00;  0.0000000E+00;  4.0000000E+04;  0.0000000E+00;  4.0000000E+04; -9.6628862E-03;  0.0000000E+00; -4.1907663E-03;  4.1950781E+03;
  7.9999998E-02;  9.9999998E-03; -3.1999999E-01;2073;  0.0000000E+00;  0.0000000E+00;  0.0000000E+00;  1.0063246E+03;  1.0000000E-01;  5.2397529E+03;0;  0.0000000E+00;  0.0000000E+00;  0.0000000E+00;0; -1.7329002E-02;  4.0000000E+04;  0.0000000E+00;  0.0000000E+00;  4.0000000E+04;  0.0000000E+00;  4.0000000E+04; -1.2762839E-02;  0.0000000E+00; -4.5661633E-03;  3.7165562E+03;
  7.9999998E-02;  9.9999998E-03; -3.1000000E-01;2074;  0.0000000E+00;  0.0000000E+00;  0.0000000E+00;  1.0075942E+03;  1.0000000E-01;  6.2916738E+03;0;  0.0000000E+00;  0.0000000E+00;  0.0000000E+00;0; -2.1064382E-02;  4.0000000E+04;  0.0000000E+00;  0.0000000E+00;  4.0000000E+04;  0.0000000E+00;  4.0000000E+04; -1.6298469E-02;  0.0000000E+00; -4.7659129E-03;  2.8658772E+03;
  9.0000004E-02;  9.9999998E-03; -4.4000000E-01;2091;  0.0000000E+00;  0.0000000E+00;  0.0000000E+00;  1.0000000E+03;  1.0000000E-01;  0.0000000E+00;0;  0.0000000E+00;  0.0000000E+00;  0.0000000E+00;0; -5.0359060E-05;  4.0000000E+04;  0.0000000E+00;  0.0000000E+00;  4.0000000E+04;  0.0000000E+00;  4.0000000E+04; -3.5298967E-06;  0.0000000E+00; -4.6829162E-05;  6.1374165E+01;
  9.0000004E-02;  9.9999998E-03; -4.3000001E-01;2092;  0.0000000E+00;  0.0000000E+00;  0.0000000E+00;  1.0000709E+03;  1.0000000E-01;  5.8763771E+01;0;  0.0000000E+00;  0.0000000E+00;  0.0000000E+00;0; -1.4995356E-04;  4.0000000E+04;  0.0000000E+00;  0.0000000E+00;  4.0000000E+04;  0.0000000E+00;  4.0000000E+04; -1.8468560E-05;  0.0000000E+00; -1.3148499E-04;  2.2500861E+02;
  9.0000004E-02;  9.9999998E-03; -4.1999999E-01;2093;  0.0000000E+00;  0.0000000E+00;  0.0000000E+00;  1.0001380E+03;  1.0000000E-01;  1.1436713E+02;0;  0.0000000E+00;  0.0000000E+00;  0.0000000E+00;0; -3.4670776E-04;  4.0000000E+04;  0.0000000E+00;  0.0000000E+00;  4.0000000E+04;  0.0000000E+00;  4.0000000E+04; -6.2925887E-05;  0.0000000E+00; -2.8378188E-04;  5.5146008E+02;
  9.0000004E-02;  9.9999998E-03; -4.1000000E-01;2094;  0.0000000E+00;  0.0000000E+00;  0.0000000E+00;  1.0002674E+03;  1.0000000E-01;  2.2152460E+02;0;  0.0000000E+00;  0.0000000E+00;  0.0000000E+00;0; -6.7867094E-04;  4.0000000E+04;  0.0000000E+00;  0.0000000E+00;  4.0000000E+04;  0.0000000E+00;  4.0000000E+04; -1.6652777E-04;  0.0000000E+00; -5.1214319E-04;  1.0520854E+03;
  9.0000004E-02;  9.9999998E-03; -4.0000001E-01;2095;  0.0000000E+00;  0.0000000E+00;  0.0000000E+00;  1.0004785E+03;  1.0000000E-01;  3.9643323E+02;0;  0.0000000E+00;  0.0000000E+00;  0.0000000E+00;0; -1.1858753E-03;  4.0000000E+04;  0.0000000E+00;  0.0000000E+00;  4.0000000E+04;  0.0000000E+00;  4.0000000E+04; -3.7161616E-04;  0.0000000E+00; -8.1425911E-04;  1.6937429E+03;
  9.0000004E-02;  9.9999998E-03; -3.8999999E-01;2096;  0.0000000E+00;  0.0000000E+00;  0.0000000E+00;  1.0007556E+03;  1.0000000E-01;  6.2605640E+02;0;  0.0000000E+00;  0.0000000E+00;  0.0000000E+00;0; -1.9149679E-03;  4.0000000E+04;  0.0000000E+00;  0.0000000E+00;  4.0000000E+04;  0.0000000E+00;  4.0000000E+04; -7.3309522E-04;  0.0000000E+00; -1.1818727E-03;  2.4180273E+03;
  9.0000004E-02;  9.9999998E-03; -3.8000000E-01;2097;  0.0000000E+00;  0.0000000E+00;  0.0000000E+00;  1.0011462E+03;  1.0000000E-01;  9.4960278E+02;0;  0.0000000E+00;  0.0000000E+00;  0.0000000E+00;0; -2.9219864E-03;  4.0000000E+04;  0.0000000E+00;  0.0000000E+00;  4.0000000E+04;  0.0000000E+00;  4.0000000E+04; -1.3168874E-03;  0.0000000E+00; -1.6050990E-03;  3.1604988E+03;
  9.0000004E-02;  9.9999998E-03; -3.7000000E-01;2098;  0.0000000E+00;  0.0000000E+00;  0.0000000E+00;  1.0016516E+03;  1.0000000E-01;  1.3682576E+03;0;  0.0000000E+00;  0.0000000E+00;  0.0000000E+00;0; -4.2700004E-03;  4.0000000E+04;  0.0000000E+00;  0.0000000E+00;  4.0000000E+04;  0.0000000E+00;  4.0000000E+04; -2.1963711E-03;  0.0000000E+00; -2.0736291E-03;  3.8586001E+03;
  9.0000004E-02;  9.9999998E-03; -3.6000001E-01;2099;  0.0000000E+00;  0.0000000E+00;  0.0000000E+00;  1.0023064E+03;  1.0000000E-01;  1.9107607E+03;0;  0.0000000E+00;  0.0000000E+00;  0.0000000E+00;0; -6.0212878E-03;  4.0000000E+04;  0.0000000E+00;  0.0000000E+00;  4.0000000E+04;  0.0000000E+00;  4.0000000E+04; -3.4460423E-03;  0.0000000E+00; -2.5752455E-03;  4.4505205E+03;
  9.0000004E-02;  9.9999998E-03; -3.4999999E-01;2100;  0.0000000E+00;  0.0000000E+00;  0.0000000E+00;  1.0031218E+03;  1.0000000E-01;  2.5863960E+03;0;  0.0000000E+00;  0.0000000E+00;  0.0000000E+00;0; -8.2249558E-03;  4.0000000E+04;  0.0000000E+00;  0.0000000E+00;  4.0000000E+04;  0.0000000E+00;  4.0000000E+04; -5.1323031E-03;  0.0000000E+00; -3.0926524E-03;  4.8701328E+03;
  9.0000004E-02;  9.9999998E-03; -3.4000000E-01;2101;  0.0000000E+00;  0.0000000E+00;  0.0000000E+00;  1.0040983E+03;  1.0000000E-01;  3.3953608E+03;0;  0.0000000E+00;  0.0000000E+00;  0.0000000E+00;0; -1.0901591E-02;  4.0000000E+04;  0.0000000E+00;  0.0000000E+00;  4.0000000E+04;  0.0000000E+00;  4.0000000E+04; -7.3021781E-03;  0.0000000E+00; -3.5994127E-03;  5.0444961E+03;
  9.0000004E-02;  9.9999998E-03; -3.3000001E-01;2102;  0.0000000E+00;  0.0000000E+00;  0.0000000E+00;  1.0052193E+03;  1.0000000E-01;  4.3241245E+03;0;  0.0000000E+00;  0.0000000E+00;  0.0000000E+00;0; -1.4027875E-02;  4.0000000E+04;  0.0000000E+00;  0.0000000E+00;  4.0000000E+04;  0.0000000E+00;  4.0000000E+04; -9.9720554E-03;  0.0000000E+00; -4.0558195E-03;  4.8995410E+03;
  9.0000004E-02;  9.9999998E-03; -3.1999999E-01;2103;  0.0000000E+00;  0.0000000E+00;  0.0000000E+00;  1.0064477E+03;  1.0000000E-01;  5.3417749E+03;0;  0.0000000E+00;  0.0000000E+00;  0.0000000E+00;0; -1.7525252E-02;  4.0000000E+04;  0.0000000E+00;  0.0000000E+00;  4.0000000E+04;  0.0000000E+00;  4.0000000E+04; -1.3118905E-02;  0.0000000E+00; -4.4063479E-03;  4.3805298E+03;
  9.0000004E-02;  9.9999998E-03; -3.1000000E-01;2104;  0.0000000E+00;  0.0000000E+00;  0.0000000E+00;  1.0077183E+03;  1.0000000E-01;  6.3943872E+03;0;  0.0000000E+00;  0.0000000E+00;  0.0000000E+00;0; -2.1258950E-02;  4.0000000E+04;  0.0000000E+00;  0.0000000E+00;  4.0000000E+04;  0.0000000E+00;  4.0000000E+04; -1.6676828E-02;  0.0000000E+00; -4.5821229E-03;  3.4942524E+03;
  1.0000000E-01;  9.9999998E-03; -4.4000000E-01;2121;  0.0000000E+00;  0.0000000E+00;  0.0000000E+00;  1.0000000E+03;  1.0000000E-01;  0.0000000E+00;0;  0.0000000E+00;  0.0000000E+00;  0.0000000E+00;0; -4.9771617E-05;  4.0000000E+04;  0.0000000E+00;  0.0000000E+00;  4.0000000E+04;  0.0000000E+00;  4.0000000E+04; -3.1015027E-06;  0.0000000E+00; -4.6670113E-05;  9.7696594E+01;
  1.0000000E-01;  9.9999998E-03; -4.3000001E-01;2122;  0.0000000E+00;  0.0000000E+00;  0.0000000E+00;  1.0000734E+03;  1.0000000E-01;  6.0837784E+01;0;  0.0000000E+00;  0.0000000E+00;  0.0000000E+00;0; -1.4814537E-04;  4.0000000E+04;  0.0000000E+00;  0.0000000E+00;  4.0000000E+04;  0.0000000E+00;  4.0000000E+04; -1.8594692E-05;  0.0000000E+00; -1.2955068E-04;  3.1309088E+02;
  1.0000000E-01;  9.9999998E-03; -4.1999999E-01;2123;  0.0000000E+00;  0.0000000E+00;  0.0000000E+00;  1.0001300E+03;  1.0000000E-01;  1.0775004E+02;0;  0.0000000E+00;  0.0000000E+00;  0.0000000E+00;0; -3.4404299E-04;  4.0000000E+04;  0.0000000E+00;  0.0000000E+00;  4.0000000E+04;  0.0000000E+00;  4.0000000E+04; -6.6828303E-05;  0.0000000E+00; -2.7721468E-04;  7.1590619E+02;
  1.0000000E-01;  9.9999998E-03; -4.1000000E-01;2124;  0.0000000E+00;  0.0000000E+00;  0.0000000E+00;  1.0002574E+03;  1.0000000E-01;  2.1332730E+02;0;  0.0000000E+00;  0.0000000E+00;  0.0000000E+00;0; -6.7777623E-04;  4.0000000E+04;  0.0000000E+00;  0.0000000E+00;  4.0000000E+04;  0.0000000E+00;  4.0000000E+04; -1.8063076E-04;  0.0000000E+00; -4.9714546E-04;  1.3103387E+03;
  1.0000000E-01;  9.9999998E-03; -4.0000001E-01;2125;  0.0000000E+00;  0.0000000E+00;  0.0000000E+00;  1.0004742E+03;  1.0000000E-01;  3.9287778E+02;0;  0.0000000E+00;  0.0000000E+00;  0.0000000E+00;0; -1.1925511E-03;  4.0000000E+04;  0.0000000E+00;  0.0000000E+00;  4.0000000E+04;  0.0000000E+00;  4.0000000E+04; -4.0584273E-04;  0.0000000E+00; -7.8670844E-04;  2.0540151E+03;
  1.0000000E-01;  9.9999998E-03; -3.8999999E-01;2126;  0.0000000E+00;  0.0000000E+00;  0.0000000E+00;  1.0007590E+03;  1.0000000E-01;  6.2882172E+02;0;  0.0000000E+00;  0.0000000E+00;  0.0000000E+00;0; -1.9386236E-03;  4.0000000E+04;  0.0000000E+00;  0.0000000E+00;  4.0000000E+04;  0.0000000E+00;  4.0000000E+04; -8.0099783E-04;  0.0000000E+00; -1.1376258E-03;  2.8812605E+03;
  1.0000000E-01;  9.9999998E-03; -3.8000000E-01;2127;  0.0000000E+00;  0.0000000E+00;  0.0000000E+00;  1.0011624E+03;  1.0000000E-01;  9.6303448E+02;0;  0.0000000E+00;  0.0000000E+00;  0.0000000E+00;0; -2.9754033E-03;  4.0000000E+04;  0.0000000E+00;  0.0000000E+00;  4.0000000E+04;  0.0000000E+00;  4.0000000E+04; -1.4354130E-03;  0.0000000E+00; -1.5399902E-03;  3.7233770E+03;
  1.0000000E-01;  9.9999998E-03; -3.7000000E-01;2128;  0.0000000E+00;  0.0000000E+00;  0.0000000E+00;  1.0016879E+03;  1.0000000E-01;  1.3983802E+03;0;  0.0000000E+00;  0.0000000E+00;  0.0000000E+00;0; -4.3682717E-03;  4.0000000E+04;  0.0000000E+00;  0.0000000E+00;  4.0000000E+04;  0.0000000E+00;  4.0000000E+04; -2.3848235E-03;  0.0000000E+00; -1.9834479E-03;  4.5161211E+03;
  1.0000000E-01;  9.9999998E-03; -3.6000001E-01;2129;  0.0000000E+00;  0.0000000E+00;  0.0000000E+00;  1.0023710E+03;  1.0000000E-01;  1.9643889E+03;0;  0.0000000E+00;  0.0000000E+00;  0.0000000E+00;0; -6.1798729E-03;  4.0000000E+04;  0.0000000E+00;  0.0000000E+00;  4.0000000E+04;  0.0000000E+00;  4.0000000E+04; -3.7240104E-03;  0.0000000E+00; -2.4558627E-03;  5.1985854E+03;
  1.0000000E-01;  9.9999998E-03; -3.4999999E-01;2130;  0.0000000E+00;  0.0000000E+00;  0.0000000E+00;  1.0032175E+03;  1.0000000E-01;  2.6656035E+03;0;  0.0000000E+00;  0.0000000E+00;  0.0000000E+00;0; -8.4568597E-03;  4.0000000E+04;  0.0000000E+00;  0.0000000E+00;  4.0000000E+04;  0.0000000E+00;  4.0000000E+04; -5.5164536E-03;  0.0000000E+00; -2.9404066E-03;  5.7110186E+03;
  1.0000000E-01;  9.9999998E-03; -3.4000000E-01;2131;  0.0000000E+00;  0.0000000E+00;  0.0000000E+00;  1.0042267E+03;  1.0000000E-01;  3.5017280E+03;0;  0.0000000E+00;  0.0000000E+00;  0.0000000E+00;0; -1.1214107E-02;  4.0000000E+04;  0.0000000E+00;  0.0000000E+00;  4.0000000E+04;  0.0000000E+00;  4.0000000E+04; -7.8023463E-03;  0.0000000E+00; -3.4117606E-03;  5.9983535E+03;
  1.0000000E-01;  9.9999998E-03; -3.3000001E-01;2132;  0.0000000E+00;  0.0000000E+00;  0.0000000E+00;  1.0053775E+03;  1.0000000E-01;  4.4551826E+03;0;  0.0000000E+00;  0.0000000E+00;  0.0000000E+00;0; -1.4419593E-02;  4.0000000E+04;  0.0000000E+00;  0.0000000E+00;  4.0000000E+04;  0.0000000E+00;  4.0000000E+04; -1.0587411E-02;  0.0000000E+00; -3.8321821E-03;  6.0230566E+03;
  1.0000000E-01;  9.9999998E-03; -3.1999999E-01;2133;  0.0000000E+00;  0.0000000E+00;  0.0000000E+00;  1.0066260E+03;  1.0000000E-01;  5.4895239E+03;0;  0.0000000E+00;  0.0000000E+00;  0.0000000E+00;0; -1.7984003E-02;  4.0000000E+04;  0.0000000E+00;  0.0000000E+00;  4.0000000E+04;  0.0000000E+00;  4.0000000E+04; -1.3835094E-02;  0.0000000E+00; -4.1489094E-03;  5.7893613E+03;
  1.0000000E-01;  9.9999998E-03; -3.1000000E-01;2134;  0.0000000E+00;  0.0000000E+00;  0.0000000E+00;  1.0079045E+03;  1.0000000E-01;  6.5487529E+03;0;  0.0000000E+00;  0.0000000E+00;  0.0000000E+00;0; -2.1760708E-02;  4.0000000E+04;  0.0000000E+00;  0.0000000E+00;  4.0000000E+04;  0.0000000E+00;  4.0000000E+04; -1.7464796E-02;  0.0000000E+00; -4.2959116E-03;  5.3783394E+03;
  1.1000000E-01;  9.9999998E-03; -4.4000000E-01;2151;  0.0000000E+00;  0.0000000E+00;  0.0000000E+00;  1.0000000E+03;  1.0000000E-01;  0.0000000E+00;0;  0.0000000E+00;  0.0000000E+00;  0.0000000E+00;0; -4.9281505E-05;  4.0000000E+04;  0.0000000E+00;  0.0000000E+00;  4.0000000E+04;  0.0000000E+00;  4.0000000E+04; -3.9842407E-06;  0.0000000E+00; -4.5297264E-05;  1.4557895E+02;
  1.1000000E-01;  9.9999998E-03; -4.3000001E-01;2152;  0.0000000E+00;  0.0000000E+00;  0.0000000E+00;  1.0000651E+03;  1.0000000E-01;  5.3924400E+01;0;  0.0000000E+00;  0.0000000E+00;  0.0000000E+00;0; -1.4788363E-04;  4.0000000E+04;  0.0000000E+00;  0.0000000E+00;  4.0000000E+04;  0.0000000E+00;  4.0000000E+04; -2.3512979E-05;  0.0000000E+00; -1.2437065E-04;  4.2314120E+02;
  1.1000000E-01;  9.9999998E-03; -4.1999999E-01;2153;  0.0000000E+00;  0.0000000E+00;  0.0000000E+00;  1.0001285E+03;  1.0000000E-01;  1.0646613E+02;0;  0.0000000E+00;  0.0000000E+00;  0.0000000E+00;0; -3.4648593E-04;  4.0000000E+04;  0.0000000E+00;  0.0000000E+00;  4.0000000E+04;  0.0000000E+00;  4.0000000E+04; -8.2515136E-05;  0.0000000E+00; -2.6397078E-04;  9.1210645E+02;
  1.1000000E-01;  9.9999998E-03; -4.1000000E-01;2154;  0.0000000E+00;  0.0000000E+00;  0.0000000E+00;  1.0002579E+03;  1.0000000E-01;  2.1362358E+02;0;  0.0000000E+00;  0.0000000E+00;  0.0000000E+00;0; -6.8853184E-04;  4.0000000E+04;  0.0000000E+00;  0.0000000E+00;  4.0000000E+04;  0.0000000E+00;  4.0000000E+04; -2.1792574E-04;  0.0000000E+00; -4.7060612E-04;  1.6054619E+03;
  1.1000000E-01;  9.9999998E-03; -4.0000001E-01;2155;  0.0000000E+00;  0.0000000E+00;  0.0000000E+00;  1.0004757E+03;  1.0000000E-01;  3.9416168E+02;0;  0.0000000E+00;  0.0000000E+00;  0.0000000E+00;0; -1.2216645E-03;  4.0000000E+04;  0.0000000E+00;  0.0000000E+00;  4.0000000E+04;  0.0000000E+00;  4.0000000E+04; -4.8018008E-04;  0.0000000E+00; -7.4148440E-04;  2.4493853E+03;
  1.1000000E-01;  9.9999998E-03; -3.8999999E-01;2156;  0.0000000E+00;  0.0000000E+00;  0.0000000E+00;  1.0007778E+03;  1.0000000E-01;  6.4432745E+02;0;  0.0000000E+00;  0.0000000E+00;  0.0000000E+00;0; -2.0012783E-03;  4.0000000E+04;  0.0000000E+00;  0.0000000E+00;  4.0000000E+04;  0.0000000E+00;  4.0000000E+04; -9.3275047E-04;  0.0000000E+00; -1.0685279E-03;  3.3727087E+03;
  1.1000000E-01;  9.9999998E-03; -3.8000000E-01;2157;  0.0000000E+00;  0.0000000E+00;  0.0000000E+00;  1.0011943E+03;  1.0000000E-01;  9.8940411E+02;0;  0.0000000E+00;  0.0000000E+00;  0.0000000E+00;0; -3.0915802E-03;  4.0000000E+04;  0.0000000E+00;  0.0000000E+00;  4.0000000E+04;  0.0000000E+00;  4.0000000E+04; -1.6496090E-03;  0.0000000E+00; -1.4419712E-03;  4.3099487E+03;
  1.1000000E-01;  9.9999998E-03; -3.7000000E-01;2158;  0.0000000E+00;  0.0000000E+00;  0.0000000E+00;  1.0017550E+03;  1.0000000E-01;  1.4539835E+03;0;  0.0000000E+00;  0.0000000E+00;  0.0000000E+00;0; -4.5612068E-03;  4.0000000E+04;  0.0000000E+00;  0.0000000E+00;  4.0000000E+04;  0.0000000E+00;  4.0000000E+04; -2.7097119E-03;  0.0000000E+00; -1.8514949E-03;  5.2108428E+03;
  1.1000000E-01;  9.9999998E-03; -3.6000001E-01;2159;  0.0000000E+00;  0.0000000E+00;  0.0000000E+00;  1.0024750E+03;  1.0000000E-01;  2.0505100E+03;0;  0.0000000E+00;  0.0000000E+00;  0.0000000E+00;0; -6.4732675E-03;  4.0000000E+04;  0.0000000E+00;  0.0000000E+00;  4.0000000E+04;  0.0000000E+00;  4.0000000E+04; -4.1881632E-03;  0.0000000E+00; -2.2851040E-03;  6.0434888E+03;
  1.1000000E-01;  9.9999998E-03; -3.4999999E-01;2160;  0.0000000E+00;  0.0000000E+00;  0.0000000E+00;  1.0033668E+03;  1.0000000E-01;  2.7892544E+03;0;  0.0000000E+00;  0.0000000E+00;  0.0000000E+00;0; -8.8709537E-03;  4.0000000E+04;  0.0000000E+00;  0.0000000E+00;  4.0000000E+04;  0.0000000E+00;  4.0000000E+04; -6.1444156E-03;  0.0000000E+00; -2.7265383E-03;  6.7986206E+03;
  1.1000000E-01;  9.9999998E-03; -3.4000000E-01;2161;  0.0000000E+00;  0.0000000E+00;  0.0000000E+00;  1.0044198E+03;  1.0000000E-01;  3.6617236E+03;0;  0.0000000E+00;  0.0000000E+00;  0.0000000E+00;0; -1.1761312E-02;  4.0000000E+04;  0.0000000E+00;  0.0000000E+00;  4.0000000E+04;  0.0000000E+00;  4.0000000E+04; -8.6094607E-03;  0.0000000E+00; -3.1518519E-03;  7.4935400E+03;
  1.1000000E-01;  9.9999998E-03; -3.3000001E-01;2162;  0.0000000E+00;  0.0000000E+00;  0.0000000E+00;  1.0056171E+03;  1.0000000E-01;  4.6536953E+03;0;  0.0000000E+00;  0.0000000E+00;  0.0000000E+00;0; -1.5100766E-02;  4.0000000E+04;  0.0000000E+00;  0.0000000E+00;  4.0000000E+04;  0.0000000E+00;  4.0000000E+04; -1.1574912E-02;  0.0000000E+00; -3.5258536E-03;  8.1626626E+03;
  1.1000000E-01;  9.9999998E-03; -3.1999999E-01;2163;  0.0000000E+00;  0.0000000E+00;  0.0000000E+00;  1.0068979E+03;  1.0000000E-01;  5.7148013E+03;0;  0.0000000E+00;  0.0000000E+00;  0.0000000E+00;0; -1.8786389E-02;  4.0000000E+04;  0.0000000E+00;  0.0000000E+00;  4.0000000E+04;  0.0000000E+00;  4.0000000E+04; -1.4986602E-02;  0.0000000E+00; -3.7997868E-03;  8.8213877E+03;
  1.1000000E-01;  9.9999998E-03; -3.1000000E-01;2164;  0.0000000E+00;  0.0000000E+00;  0.0000000E+00;  1.0081935E+03;  1.0000000E-01;  6.7881538E+03;0;  0.0000000E+00;  0.0000000E+00;  0.0000000E+00;0; -2.2657996E-02;  4.0000000E+04;  0.0000000E+00;  0.0000000E+00;  4.0000000E+04;  0.0000000E+00;  4.0000000E+04; -1.8744942E-02;  0.0000000E+00; -3.9130542E-03;  9.4214932E+03;
  1.2000000E-01;  9.9999998E-03; -4.4000000E-01;2181;  0.0000000E+00;  0.0000000E+00;  0.0000000E+00;  1.0000000E+03;  1.0000000E-01;  0.0000000E+00;0;  0.0000000E+00;  0.0000000E+00;  0.0000000E+00;0; -4.9321741E-05;  4.0000000E+04;  0.0000000E+00;  0.0000000E+00;  4.0000000E+04;  0.0000000E+00;  4.0000000E+04; -6.8517616E-06;  0.0000000E+00; -4.2469979E-05;  2.1144623E+02;
  1.2000000E-01;  9.9999998E-03; -4.3000001E-01;2182;  0.0000000E+00;  0.0000000E+00;  0.0000000E+00;  1.0000621E+03;  1.0000000E-01;  5.1455334E+01;0;  0.0000000E+00;  0.0000000E+00;  0.0000000E+00;0; -1.5037469E-04;  4.0000000E+04;  0.0000000E+00;  0.0000000E+00;  4.0000000E+04;  0.0000000E+00;  4.0000000E+04; -3.4785833E-05;  0.0000000E+00; -1.1558886E-04;  5.6959711E+02;
  1.2000000E-01;  9.9999998E-03; -4.1999999E-01;2183;  0.0000000E+00;  0.0000000E+00;  0.0000000E+00;  1.0001284E+03;  1.0000000E-01;  1.0636736E+02;0;  0.0000000E+00;  0.0000000E+00;  0.0000000E+00;0; -3.5636823E-04;  4.0000000E+04;  0.0000000E+00;  0.0000000E+00;  4.0000000E+04;  0.0000000E+00;  4.0000000E+04; -1.1268937E-04;  0.0000000E+00; -2.4367886E-04;  1.1598838E+03;
  1.2000000E-01;  9.9999998E-03; -4.1000000E-01;2184;  0.0000000E+00;  0.0000000E+00;  0.0000000E+00;  1.0002698E+03;  1.0000000E-01;  2.2359862E+02;0;  0.0000000E+00;  0.0000000E+00;  0.0000000E+00;0; -7.1522722E-04;  4.0000000E+04;  0.0000000E+00;  0.0000000E+00;  4.0000000E+04;  0.0000000E+00;  4.0000000E+04; -2.8265073E-04;  0.0000000E+00; -4.3257646E-04;  1.9522200E+03;
  1.2000000E-01;  9.9999998E-03; -4.0000001E-01;2185;  0.0000000E+00;  0.0000000E+00;  0.0000000E+00;  1.0004886E+03;  1.0000000E-01;  4.0482806E+02;0;  0.0000000E+00;  0.0000000E+00;  0.0000000E+00;0; -1.2807257E-03;  4.0000000E+04;  0.0000000E+00;  0.0000000E+00;  4.0000000E+04;  0.0000000E+00;  4.0000000E+04; -6.0118060E-04;  0.0000000E+00; -6.7954516E-04;  2.8748376E+03;
  1.2000000E-01;  9.9999998E-03; -3.8999999E-01;2186;  0.0000000E+00;  0.0000000E+00;  0.0000000E+00;  1.0008083E+03;  1.0000000E-01;  6.6970947E+02;0;  0.0000000E+00;  0.0000000E+00;  0.0000000E+00;0; -2.1151542E-03;  4.0000000E+04;  0.0000000E+00;  0.0000000E+00;  4.0000000E+04;  0.0000000E+00;  4.0000000E+04; -1.1383304E-03;  0.0000000E+00; -9.7682385E-04;  3.8576489E+03;
  1.2000000E-01;  9.9999998E-03; -3.8000000E-01;2187;  0.0000000E+00;  0.0000000E+00;  0.0000000E+00;  1.0012572E+03;  1.0000000E-01;  1.0415508E+03;0;  0.0000000E+00;  0.0000000E+00;  0.0000000E+00;0; -3.2890199E-03;  4.0000000E+04;  0.0000000E+00;  0.0000000E+00;  4.0000000E+04;  0.0000000E+00;  4.0000000E+04; -1.9741675E-03;  0.0000000E+00; -1.3148524E-03;  4.8648457E+03;
  1.2000000E-01;  9.9999998E-03; -3.7000000E-01;2188;  0.0000000E+00;  0.0000000E+00;  0.0000000E+00;  1.0018646E+03;  1.0000000E-01;  1.5448452E+03;0;  0.0000000E+00;  0.0000000E+00;  0.0000000E+00;0; -4.8750411E-03;  4.0000000E+04;  0.0000000E+00;  0.0000000E+00;  4.0000000E+04;  0.0000000E+00;  4.0000000E+04; -3.1916569E-03;  0.0000000E+00; -1.6833842E-03;  5.9119644E+03;
  1.2000000E-01;  9.9999998E-03; -3.6000001E-01;2189;  0.0000000E+00;  0.0000000E+00;  0.0000000E+00;  1.0026348E+03;  1.0000000E-01;  2.1828518E+03;0;  0.0000000E+00;  0.0000000E+00;  0.0000000E+00;0; -6.9364673E-03;  4.0000000E+04;  0.0000000E+00;  0.0000000E+00;  4.0000000E+04;  0.0000000E+00;  4.0000000E+04; -4.8658559E-03;  0.0000000E+00; -2.0706116E-03;  7.0717769E+03;
  1.2000000E-01;  9.9999998E-03; -3.4999999E-01;2190;  0.0000000E+00;  0.0000000E+00;  0.0000000E+00;  1.0035884E+03;  1.0000000E-01;  2.9729529E+03;0;  0.0000000E+00;  0.0000000E+00;  0.0000000E+00;0; -9.5111765E-03;  4.0000000E+04;  0.0000000E+00;  0.0000000E+00;  4.0000000E+04;  0.0000000E+00;  4.0000000E+04; -7.0502562E-03;  0.0000000E+00; -2.4609198E-03;  8.4584717E+03;
  1.2000000E-01;  9.9999998E-03; -3.4000000E-01;2191;  0.0000000E+00;  0.0000000E+00;  0.0000000E+00;  1.0047083E+03;  1.0000000E-01;  3.9007292E+03;0;  0.0000000E+00;  0.0000000E+00;  0.0000000E+00;0; -1.2595071E-02;  4.0000000E+04;  0.0000000E+00;  0.0000000E+00;  4.0000000E+04;  0.0000000E+00;  4.0000000E+04; -9.7631840E-03;  0.0000000E+00; -2.8318870E-03;  1.0170058E+04;
  1.2000000E-01;  9.9999998E-03; -3.3000001E-01;2192;  0.0000000E+00;  0.0000000E+00;  0.0000000E+00;  1.0059614E+03;  1.0000000E-01;  4.9389219E+03;0;  0.0000000E+00;  0.0000000E+00;  0.0000000E+00;0; -1.6128564E-02;  4.0000000E+04;  0.0000000E+00;  0.0000000E+00;  4.0000000E+04;  0.0000000E+00;  4.0000000E+04; -1.2977357E-02;  0.0000000E+00; -3.1512079E-03;  1.2194732E+04;
  1.2000000E-01;  9.9999998E-03; -3.1999999E-01;2193;  0.0000000E+00;  0.0000000E+00;  0.0000000E+00;  1.0072889E+03;  1.0000000E-01;  6.0387427E+03;0;  0.0000000E+00;  0.0000000E+00;  0.0000000E+00;0; -1.9990752E-02;  4.0000000E+04;  0.0000000E+00;  0.0000000E+00;  4.0000000E+04;  0.0000000E+00;  4.0000000E+04; -1.6615720E-02;  0.0000000E+00; -3.3750311E-03;  1.4335695E+04;
  1.2000000E-01;  9.9999998E-03; -3.1000000E-01;2194;  0.0000000E+00;  0.0000000E+00;  0.0000000E+00;  1.0086088E+03;  1.0000000E-01;  7.1322427E+03;0;  0.0000000E+00;  0.0000000E+00;  0.0000000E+00;0; -2.4005063E-02;  4.0000000E+04;  0.0000000E+00;  0.0000000E+00;  4.0000000E+04;  0.0000000E+00;  4.0000000E+04; -2.0554710E-02;  0.0000000E+00; -3.4503529E-03;  1.6216427E+04;
  1.3000000E-01;  9.9999998E-03; -4.4000000E-01;2211;  0.0000000E+00;  0.0000000E+00;  0.0000000E+00;  1.0000000E+03;  1.0000000E-01;  0.0000000E+00;0;  0.0000000E+00;  0.0000000E+00;  0.0000000E+00;0; -5.0564879E-05;  4.0000000E+04;  0.0000000E+00;  0.0000000E+00;  4.0000000E+04;  0.0000000E+00;  4.0000000E+04; -1.2471099E-05;  0.0000000E+00; -3.8093782E-05;  3.2185611E+02;
  1.3000000E-01;  9.9999998E-03; -4.3000001E-01;2212;  0.0000000E+00;  0.0000000E+00;  0.0000000E+00;  1.0000629E+03;  1.0000000E-01;  5.2146675E+01;0;  0.0000000E+00;  0.0000000E+00;  0.0000000E+00;0; -1.5685376E-04;  4.0000000E+04;  0.0000000E+00;  0.0000000E+00;  4.0000000E+04;  0.0000000E+00;  4.0000000E+04; -5.3787342E-05;  0.0000000E+00; -1.0306641E-04;  8.1091046E+02;
  1.3000000E-01;  9.9999998E-03; -4.1999999E-01;2213;  0.0000000E+00;  0.0000000E+00;  0.0000000E+00;  1.0001295E+03;  1.0000000E-01;  1.0725623E+02;0;  0.0000000E+00;  0.0000000E+00;  0.0000000E+00;0; -3.7591945E-04;  4.0000000E+04;  0.0000000E+00;  0.0000000E+00;  4.0000000E+04;  0.0000000E+00;  4.0000000E+04; -1.5927340E-04;  0.0000000E+00; -2.1664605E-04;  1.5470278E+03;
  1.3000000E-01;  9.9999998E-03; -4.1000000E-01;2214;  0.0000000E+00;  0.0000000E+00;  0.0000000E+00;  1.0002899E+03;  1.0000000E-01;  2.4009198E+02;0;  0.0000000E+00;  0.0000000E+00;  0.0000000E+00;0; -7.6188461E-04;  4.0000000E+04;  0.0000000E+00;  0.0000000E+00;  4.0000000E+04;  0.0000000E+00;  4.0000000E+04; -3.7766629E-04;  0.0000000E+00; -3.8421832E-04;  2.4423027E+03;
  1.3000000E-01;  9.9999998E-03; -4.0000001E-01;2215;  0.0000000E+00;  0.0000000E+00;  0.0000000E+00;  1.0005211E+03;  1.0000000E-01;  4.3169150E+02;0;  0.0000000E+00;  0.0000000E+00;  0.0000000E+00;0; -1.3766303E-03;  4.0000000E+04;  0.0000000E+00;  0.0000000E+00;  4.0000000E+04;  0.0000000E+00;  4.0000000E+04; -7.7321415E-04;  0.0000000E+00; -6.0341612E-04;  3.3850803E+03;
  1.3000000E-01;  9.9999998E-03; -3.8999999E-01;2216;  0.0000000E+00;  0.0000000E+00;  0.0000000E+00;  1.0008682E+03;  1.0000000E-01;  7.1928827E+02;0;  0.0000000E+00;  0.0000000E+00;  0.0000000E+00;0; -2.2912219E-03;  4.0000000E+04;  0.0000000E+00;  0.0000000E+00;  4.0000000E+04;  0.0000000E+00;  4.0000000E+04; -1.4243966E-03;  0.0000000E+00; -8.6682517E-04;  4.3231548E+03;
  1.3000000E-01;  9.9999998E-03; -3.8000000E-01;2217;  0.0000000E+00;  0.0000000E+00;  0.0000000E+00;  1.0013649E+03;  1.0000000E-01;  1.1308323E+03;0;  0.0000000E+00;  0.0000000E+00;  0.0000000E+00;0; -3.5839407E-03;  4.0000000E+04;  0.0000000E+00;  0.0000000E+00;  4.0000000E+04;  0.0000000E+00;  4.0000000E+04; -2.4188864E-03;  0.0000000E+00; -1.1650543E-03;  5.3312300E+03;
  1.3000000E-01;  9.9999998E-03; -3.7000000E-01;2218;  0.0000000E+00;  0.0000000E+00;  0.0000000E+00;  1.0020214E+03;  1.0000000E-01;  1.6747180E+03;0;  0.0000000E+00;  0.0000000E+00;  0.0000000E+00;0; -5.3321458E-03;  4.0000000E+04;  0.0000000E+00;  0.0000000E+00;  4.0000000E+04;  0.0000000E+00;  4.0000000E+04; -3.8441916E-03;  0.0000000E+00; -1.4879542E-03;  6.6368267E+03;
  1.3000000E-01;  9.9999998E-03; -3.6000001E-01;2219;  0.0000000E+00;  0.0000000E+00;  0.0000000E+00;  1.0028688E+03;  1.0000000E-01;  2.3767229E+03;0;  0.0000000E+00;  0.0000000E+00;  0.0000000E+00;0; -7.5982343E-03;  4.0000000E+04;  0.0000000E+00;  0.0000000E+00;  4.0000000E+04;  0.0000000E+00;  4.0000000E+04; -5.7742484E-03;  0.0000000E+00; -1.8239862E-03;  8.5506445E+03;
  1.3000000E-01;  9.9999998E-03; -3.4999999E-01;2220;  0.0000000E+00;  0.0000000E+00;  0.0000000E+00;  1.0038989E+03;  1.0000000E-01;  3.2301309E+03;0;  0.0000000E+00;  0.0000000E+00;  0.0000000E+00;0; -1.0411930E-02;  4.0000000E+04;  0.0000000E+00;  0.0000000E+00;  4.0000000E+04;  0.0000000E+00;  4.0000000E+04; -8.2536088E-03;  0.0000000E+00; -2.1583212E-03;  1.1296543E+04;
  1.3000000E-01;  9.9999998E-03; -3.4000000E-01;2221;  0.0000000E+00;  0.0000000E+00;  0.0000000E+00;  1.0050988E+03;  1.0000000E-01;  4.2241768E+03;0;  0.0000000E+00;  0.0000000E+00;  0.0000000E+00;0; -1.3753056E-02;  4.0000000E+04;  0.0000000E+00;  0.0000000E+00;  4.0000000E+04;  0.0000000E+00;  4.0000000E+04; -1.1282849E-02;  0.0000000E+00; -2.4702067E-03;  1.4863543E+04;
  1.3000000E-01;  9.9999998E-03; -3.3000001E-01;2222;  0.0000000E+00;  0.0000000E+00;  0.0000000E+00;  1.0064247E+03;  1.0000000E-01;  5.3227139E+03;0;  0.0000000E+00;  0.0000000E+00;  0.0000000E+00;0; -1.7539904E-02;  4.0000000E+04;  0.0000000E+00;  0.0000000E+00;  4.0000000E+04;  0.0000000E+00;  4.0000000E+04; -1.4809447E-02;  0.0000000E+00; -2.7304571E-03;  1.8956500E+04;
  1.3000000E-01;  9.9999998E-03; -3.1999999E-01;2223;  0.0000000E+00;  0.0000000E+00;  0.0000000E+00;  1.0078093E+03;  1.0000000E-01;  6.4698418E+03;0;  0.0000000E+00;  0.0000000E+00;  0.0000000E+00;0; -2.1627344E-02;  4.0000000E+04;  0.0000000E+00;  0.0000000E+00;  4.0000000E+04;  0.0000000E+00;  4.0000000E+04; -1.8726800E-02;  0.0000000E+00; -2.9005439E-03;  2.3009617E+04;
  1.3000000E-01;  9.9999998E-03; -3.1000000E-01;2224;  0.0000000E+00;  0.0000000E+00;  0.0000000E+00;  1.0091633E+03;  1.0000000E-01;  7.5915879E+03;0;  0.0000000E+00;  0.0000000E+00;  0.0000000E+00;0; -2.5818462E-02;  4.0000000E+04;  0.0000000E+00;  0.0000000E+00;  4.0000000E+04;  0.0000000E+00;  4.0000000E+04; -2.2882370E-02;  0.0000000E+00; -2.9360915E-03;  2.6270102E+04;
  1.4000000E-01;  9.9999998E-03; -4.4000000E-01;2241;  0.0000000E+00;  0.0000000E+00;  0.0000000E+00;  1.0000000E+03;  1.0000000E-01;  0.0000000E+00;0;  0.0000000E+00;  0.0000000E+00;  0.0000000E+00;0; -5.3619704E-05;  4.0000000E+04;  0.0000000E+00;  0.0000000E+00;  4.0000000E+04;  0.0000000E+00;  4.0000000E+04; -2.1422115E-05;  0.0000000E+00; -3.2197589E-05;  5.3411414E+02;
  1.4000000E-01;  9.9999998E-03; -4.3000001E-01;2242;  0.0000000E+00;  0.0000000E+00;  0.0000000E+00;  1.0000658E+03;  1.0000000E-01;  5.4516975E+01;0;  0.0000000E+00;  0.0000000E+00;  0.0000000E+00;0; -1.6838899E-04;  4.0000000E+04;  0.0000000E+00;  0.0000000E+00;  4.0000000E+04;  0.0000000E+00;  4.0000000E+04; -8.1249265E-05;  0.0000000E+00; -8.7139721E-05;  1.2719672E+03;
  1.4000000E-01;  9.9999998E-03; -4.1999999E-01;2243;  0.0000000E+00;  0.0000000E+00;  0.0000000E+00;  1.0001382E+03;  1.0000000E-01;  1.1446590E+02;0;  0.0000000E+00;  0.0000000E+00;  0.0000000E+00;0; -4.0705316E-04;  4.0000000E+04;  0.0000000E+00;  0.0000000E+00;  4.0000000E+04;  0.0000000E+00;  4.0000000E+04; -2.2303073E-04;  0.0000000E+00; -1.8402244E-04;  2.2692524E+03;
  1.4000000E-01;  9.9999998E-03; -4.1000000E-01;2244;  0.0000000E+00;  0.0000000E+00;  0.0000000E+00;  1.0003114E+03;  1.0000000E-01;  2.5796802E+02;0;  0.0000000E+00;  0.0000000E+00;  0.0000000E+00;0; -8.3176896E-04;  4.0000000E+04;  0.0000000E+00;  0.0000000E+00;  4.0000000E+04;  0.0000000E+00;  4.0000000E+04; -5.0364411E-04;  0.0000000E+00; -3.2812488E-04;  3.3057971E+03;
  1.4000000E-01;  9.9999998E-03; -4.0000001E-01;2245;  0.0000000E+00;  0.0000000E+00;  0.0000000E+00;  1.0005641E+03;  1.0000000E-01;  4.6734482E+02;0;  0.0000000E+00;  0.0000000E+00;  0.0000000E+00;0; -1.5144704E-03;  4.0000000E+04;  0.0000000E+00;  0.0000000E+00;  4.0000000E+04;  0.0000000E+00;  4.0000000E+04; -9.9701341E-04;  0.0000000E+00; -5.1745703E-04;  4.1641045E+03;
  1.4000000E-01;  9.9999998E-03; -3.8999999E-01;2246;  0.0000000E+00;  0.0000000E+00;  0.0000000E+00;  1.0009600E+03;  1.0000000E-01;  7.9533551E+02;0;  0.0000000E+00;  0.0000000E+00;  0.0000000E+00;0; -2.5368608E-03;  4.0000000E+04;  0.0000000E+00;  0.0000000E+00;  4.0000000E+04;  0.0000000E+00;  4.0000000E+04; -1.7918677E-03;  0.0000000E+00; -7.4499310E-04;  4.8188193E+03;
  1.4000000E-01;  9.9999998E-03; -3.8000000E-01;2247;  0.0000000E+00;  0.0000000E+00;  0.0000000E+00;  1.0015083E+03;  1.0000000E-01;  1.2496437E+03;0;  0.0000000E+00;  0.0000000E+00;  0.0000000E+00;0; -3.9863321E-03;  4.0000000E+04;  0.0000000E+00;  0.0000000E+00;  4.0000000E+04;  0.0000000E+00;  4.0000000E+04; -2.9848611E-03;  0.0000000E+00; -1.0014711E-03;  5.6585103E+03;
  1.4000000E-01;  9.9999998E-03; -3.7000000E-01;2248;  0.0000000E+00;  0.0000000E+00;  0.0000000E+00;  1.0022396E+03;  1.0000000E-01;  1.8554537E+03;0;  0.0000000E+00;  0.0000000E+00;  0.0000000E+00;0; -5.9450450E-03;  4.0000000E+04;  0.0000000E+00;  0.0000000E+00;  4.0000000E+04;  0.0000000E+00;  4.0000000E+04; -4.6681920E-03;  0.0000000E+00; -1.2768530E-03;  7.4973936E+03;
  1.4000000E-01;  9.9999998E-03; -3.6000001E-01;2249;  0.0000000E+00;  0.0000000E+00;  0.0000000E+00;  1.0031709E+03;  1.0000000E-01;  2.6269875E+03;0;  0.0000000E+00;  0.0000000E+00;  0.0000000E+00;0; -8.4728859E-03;  4.0000000E+04;  0.0000000E+00;  0.0000000E+00;  4.0000000E+04;  0.0000000E+00;  4.0000000E+04; -6.9128932E-03;  0.0000000E+00; -1.5599933E-03;  1.0957628E+04;
  1.4000000E-01;  9.9999998E-03; -3.4999999E-01;2250;  0.0000000E+00;  0.0000000E+00;  0.0000000E+00;  1.0042957E+03;  1.0000000E-01;  3.5589116E+03;0;  0.0000000E+00;  0.0000000E+00;  0.0000000E+00;0; -1.1587418E-02;  4.0000000E+04;  0.0000000E+00;  0.0000000E+00;  4.0000000E+04;  0.0000000E+00;  4.0000000E+04; -9.7503969E-03;  0.0000000E+00; -1.8370211E-03;  1.6043927E+04;
  1.4000000E-01;  9.9999998E-03; -3.4000000E-01;2251;  0.0000000E+00;  0.0000000E+00;  0.0000000E+00;  1.0055951E+03;  1.0000000E-01;  4.6354243E+03;0;  0.0000000E+00;  0.0000000E+00;  0.0000000E+00;0; -1.5246306E-02;  4.0000000E+04;  0.0000000E+00;  0.0000000E+00;  4.0000000E+04;  0.0000000E+00;  4.0000000E+04; -1.3157187E-02;  0.0000000E+00; -2.0891188E-03;  2.2345346E+04;
  1.4000000E-01;  9.9999998E-03; -3.3000001E-01;2252;  0.0000000E+00;  0.0000000E+00;  0.0000000E+00;  1.0070057E+03;  1.0000000E-01;  5.8040825E+03;0;  0.0000000E+00;  0.0000000E+00;  0.0000000E+00;0; -1.9338366E-02;  4.0000000E+04;  0.0000000E+00;  0.0000000E+00;  4.0000000E+04;  0.0000000E+00;  4.0000000E+04; -1.7047809E-02;  0.0000000E+00; -2.2905560E-03;  2.9144986E+04;
  1.4000000E-01;  9.9999998E-03; -3.1999999E-01;2253;  0.0000000E+00;  0.0000000E+00;  0.0000000E+00;  1.0084538E+03;  1.0000000E-01;  7.0038511E+03;0;  0.0000000E+00;  0.0000000E+00;  0.0000000E+00;0; -2.3687039E-02;  4.0000000E+04;  0.0000000E+00;  0.0000000E+00;  4.0000000E+04;  0.0000000E+00;  4.0000000E+04; -2.1278733E-02;  0.0000000E+00; -2.4083050E-03;  3.5431699E+04;
  1.4000000E-01;  9.9999998E-03; -3.1000000E-01;2254;  0.0000000E+00;  0.0000000E+00;  0.0000000E+00;  1.0098419E+03;  1.0000000E-01;  8.1537446E+03;0;  0.0000000E+00;  0.0000000E+00;  0.0000000E+00;0; -2.8069336E-02;  4.0000000E+04;  0.0000000E+00;  0.0000000E+00;  4.0000000E+04;  0.0000000E+00;  4.0000000E+04; -2.5663136E-02;  0.0000000E+00; -2.4062011E-03;  4.0027453E+04;
  1.5000001E-01;  9.9999998E-03; -4.4000000E-01;2271;  0.0000000E+00;  0.0000000E+00;  0.0000000E+00;  1.0000000E+03;  1.0000000E-01;  0.0000000E+00;0;  0.0000000E+00;  0.0000000E+00;  0.0000000E+00;0; -5.8765065E-05;  4.0000000E+04;  0.0000000E+00;  0.0000000E+00;  4.0000000E+04;  0.0000000E+00;  4.0000000E+04; -3.3822202E-05;  0.0000000E+00; -2.4942865E-05;  9.3336414E+02;
  1.5000001E-01;  9.9999998E-03; -4.3000001E-01;2272;  0.0000000E+00;  0.0000000E+00;  0.0000000E+00;  1.0000737E+03;  1.0000000E-01;  6.1035313E+01;0;  0.0000000E+00;  0.0000000E+00;  0.0000000E+00;0; -1.8548769E-04;  4.0000000E+04;  0.0000000E+00;  0.0000000E+00;  4.0000000E+04;  0.0000000E+00;  4.0000000E+04; -1.1681229E-04;  0.0000000E+00; -6.8675399E-05;  2.1284849E+03;
  1.5000001E-01;  9.9999998E-03; -4.1999999E-01;2273;  0.0000000E+00;  0.0000000E+00;  0.0000000E+00;  1.0001498E+03;  1.0000000E-01;  1.2404588E+02;0;  0.0000000E+00;  0.0000000E+00;  0.0000000E+00;0; -4.5062246E-04;  4.0000000E+04;  0.0000000E+00;  0.0000000E+00;  4.0000000E+04;  0.0000000E+00;  4.0000000E+04; -3.0263513E-04;  0.0000000E+00; -1.4798735E-04;  3.6022693E+03;
  1.5000001E-01;  9.9999998E-03; -4.1000000E-01;2274;  0.0000000E+00;  0.0000000E+00;  0.0000000E+00;  1.0003359E+03;  1.0000000E-01;  2.7831311E+02;0;  0.0000000E+00;  0.0000000E+00;  0.0000000E+00;0; -9.2584966E-04;  4.0000000E+04;  0.0000000E+00;  0.0000000E+00;  4.0000000E+04;  0.0000000E+00;  4.0000000E+04; -6.5755524E-04;  0.0000000E+00; -2.6829442E-04;  4.8933955E+03;
  1.5000001E-01;  9.9999998E-03; -4.0000001E-01;2275;  0.0000000E+00;  0.0000000E+00;  0.0000000E+00;  1.0006395E+03;  1.0000000E-01;  5.2986157E+02;0;  0.0000000E+00;  0.0000000E+00;  0.0000000E+00;0; -1.6947091E-03;  4.0000000E+04;  0.0000000E+00;  0.0000000E+00;  4.0000000E+04;  0.0000000E+00;  4.0000000E+04; -1.2667999E-03;  0.0000000E+00; -4.2790920E-04;  5.5574355E+03;
  1.5000001E-01;  9.9999998E-03; -3.8999999E-01;2276;  0.0000000E+00;  0.0000000E+00;  0.0000000E+00;  1.0010703E+03;  1.0000000E-01;  8.8669098E+02;0;  0.0000000E+00;  0.0000000E+00;  0.0000000E+00;0; -2.8510760E-03;  4.0000000E+04;  0.0000000E+00;  0.0000000E+00;  4.0000000E+04;  0.0000000E+00;  4.0000000E+04; -2.2311145E-03;  0.0000000E+00; -6.1996147E-04;  5.5173706E+03;
  1.5000001E-01;  9.9999998E-03; -3.8000000E-01;2277;  0.0000000E+00;  0.0000000E+00;  0.0000000E+00;  1.0016846E+03;  1.0000000E-01;  1.3957136E+03;0;  0.0000000E+00;  0.0000000E+00;  0.0000000E+00;0; -4.4924924E-03;  4.0000000E+04;  0.0000000E+00;  0.0000000E+00;  4.0000000E+04;  0.0000000E+00;  4.0000000E+04; -3.6571927E-03;  0.0000000E+00; -8.3529955E-04;  5.8085757E+03;
  1.5000001E-01;  9.9999998E-03; -3.7000000E-01;2278;  0.0000000E+00;  0.0000000E+00;  0.0000000E+00;  1.0025079E+03;  1.0000000E-01;  2.0777683E+03;0;  0.0000000E+00;  0.0000000E+00;  0.0000000E+00;0; -6.7056776E-03;  4.0000000E+04;  0.0000000E+00;  0.0000000E+00;  4.0000000E+04;  0.0000000E+00;  4.0000000E+04; -5.6415987E-03;  0.0000000E+00; -1.0640788E-03;  8.7214453E+03;
  1.5000001E-01;  9.9999998E-03; -3.6000001E-01;2279;  0.0000000E+00;  0.0000000E+00;  0.0000000E+00;  1.0035391E+03;  1.0000000E-01;  2.9320652E+03;0;  0.0000000E+00;  0.0000000E+00;  0.0000000E+00;0; -9.5458291E-03;  4.0000000E+04;  0.0000000E+00;  0.0000000E+00;  4.0000000E+04;  0.0000000E+00;  4.0000000E+04; -8.2502114E-03;  0.0000000E+00; -1.2956174E-03;  1.4826182E+04;
  1.5000001E-01;  9.9999998E-03; -3.4999999E-01;2280;  0.0000000E+00;  0.0000000E+00;  0.0000000E+00;  1.0047783E+03;  1.0000000E-01;  3.9587029E+03;0;  0.0000000E+00;  0.0000000E+00;  0.0000000E+00;0; -1.3013845E-02;  4.0000000E+04;  0.0000000E+00;  0.0000000E+00;  4.0000000E+04;  0.0000000E+00;  4.0000000E+04; -1.1496705E-02;  0.0000000E+00; -1.5171407E-03;  2.3297264E+04;
  1.5000001E-01;  9.9999998E-03; -3.4000000E-01;2281;  0.0000000E+00;  0.0000000E+00;  0.0000000E+00;  1.0061779E+03;  1.0000000E-01;  5.1182749E+03;0;  0.0000000E+00;  0.0000000E+00;  0.0000000E+00;0; -1.7038906E-02;  4.0000000E+04;  0.0000000E+00;  0.0000000E+00;  4.0000000E+04;  0.0000000E+00;  4.0000000E+04; -1.5326832E-02;  0.0000000E+00; -1.7120740E-03;  3.3198746E+04;
  1.5000001E-01;  9.9999998E-03; -3.3000001E-01;2282;  0.0000000E+00;  0.0000000E+00;  0.0000000E+00;  1.0076782E+03;  1.0000000E-01;  6.3613018E+03;0;  0.0000000E+00;  0.0000000E+00;  0.0000000E+00;0; -2.1473151E-02;  4.0000000E+04;  0.0000000E+00;  0.0000000E+00;  4.0000000E+04;  0.0000000E+00;  4.0000000E+04; -1.9614544E-02;  0.0000000E+00; -1.8586068E-03;  4.3314609E+04;
  1.5000001E-01;  9.9999998E-03; -3.1999999E-01;2283;  0.0000000E+00;  0.0000000E+00;  0.0000000E+00;  1.0091862E+03;  1.0000000E-01;  7.6105503E+03;0;  0.0000000E+00;  0.0000000E+00;  0.0000000E+00;0; -2.6101872E-02;  4.0000000E+04;  0.0000000E+00;  0.0000000E+00;  4.0000000E+04;  0.0000000E+00;  4.0000000E+04; -2.4172282E-02;  0.0000000E+00; -1.9295909E-03;  5.2075191E+04;
  1.5000001E-01;  9.9999998E-03; -3.1000000E-01;2284;  0.0000000E+00;  0.0000000E+00;  0.0000000E+00;  1.0105997E+03;  1.0000000E-01;  8.7816777E+03;0;  0.0000000E+00;  0.0000000E+00;  0.0000000E+00;0; -3.0670276E-02;  4.0000000E+04;  0.0000000E+00;  0.0000000E+00;  4.0000000E+04;  0.0000000E+00;  4.0000000E+04; -2.8774155E-02;  0.0000000E+00; -1.8961213E-03;  5.7793004E+04;
  1.6000000E-01;  9.9999998E-03; -4.4000000E-01;2301;  0.0000000E+00;  0.0000000E+00;  0.0000000E+00;  1.0000000E+03;  1.0000000E-01;  0.0000000E+00;0;  0.0000000E+00;  0.0000000E+00;  0.0000000E+00;0; -6.5692715E-05;  4.0000000E+04;  0.0000000E+00;  0.0000000E+00;  4.0000000E+04;  0.0000000E+00;  4.0000000E+04; -4.9063623E-05;  0.0000000E+00; -1.6629094E-05;  1.6272155E+03;
  1.6000000E-01;  9.9999998E-03; -4.3000001E-01;2302;  0.0000000E+00;  0.0000000E+00;  0.0000000E+00;  1.0000867E+03;  1.0000000E-01;  7.1800438E+01;0;  0.0000000E+00;  0.0000000E+00;  0.0000000E+00;0; -2.0754560E-04;  4.0000000E+04;  0.0000000E+00;  0.0000000E+00;  4.0000000E+04;  0.0000000E+00;  4.0000000E+04; -1.5851391E-04;  0.0000000E+00; -4.9031692E-05;  3.5800293E+03;
  1.6000000E-01;  9.9999998E-03; -4.1999999E-01;2303;  0.0000000E+00;  0.0000000E+00;  0.0000000E+00;  1.0001723E+03;  1.0000000E-01;  1.4271201E+02;0;  0.0000000E+00;  0.0000000E+00;  0.0000000E+00;0; -5.0517212E-04;  4.0000000E+04;  0.0000000E+00;  0.0000000E+00;  4.0000000E+04;  0.0000000E+00;  4.0000000E+04; -3.9348914E-04;  0.0000000E+00; -1.1168300E-04;  5.8302944E+03;
  1.6000000E-01;  9.9999998E-03; -4.1000000E-01;2304;  0.0000000E+00;  0.0000000E+00;  0.0000000E+00;  1.0003958E+03;  1.0000000E-01;  3.2789197E+02;0;  0.0000000E+00;  0.0000000E+00;  0.0000000E+00;0; -1.0404323E-03;  4.0000000E+04;  0.0000000E+00;  0.0000000E+00;  4.0000000E+04;  0.0000000E+00;  4.0000000E+04; -8.3027437E-04;  0.0000000E+00; -2.1015789E-04;  7.5517061E+03;
  1.6000000E-01;  9.9999998E-03; -4.0000001E-01;2305;  0.0000000E+00;  0.0000000E+00;  0.0000000E+00;  1.0007225E+03;  1.0000000E-01;  5.9860034E+02;0;  0.0000000E+00;  0.0000000E+00;  0.0000000E+00;0; -1.9090996E-03;  4.0000000E+04;  0.0000000E+00;  0.0000000E+00;  4.0000000E+04;  0.0000000E+00;  4.0000000E+04; -1.5663527E-03;  0.0000000E+00; -3.4274696E-04;  7.9520928E+03;
  1.6000000E-01;  9.9999998E-03; -3.8999999E-01;2306;  0.0000000E+00;  0.0000000E+00;  0.0000000E+00;  1.0012092E+03;  1.0000000E-01;  1.0017495E+03;0;  0.0000000E+00;  0.0000000E+00;  0.0000000E+00;0; -3.2179735E-03;  4.0000000E+04;  0.0000000E+00;  0.0000000E+00;  4.0000000E+04;  0.0000000E+00;  4.0000000E+04; -2.7155413E-03;  0.0000000E+00; -5.0243229E-04;  6.7316709E+03;
  1.6000000E-01;  9.9999998E-03; -3.8000000E-01;2307;  0.0000000E+00;  0.0000000E+00;  0.0000000E+00;  1.0018970E+03;  1.0000000E-01;  1.5716099E+03;0;  0.0000000E+00;  0.0000000E+00;  0.0000000E+00;0; -5.0752601E-03;  4.0000000E+04;  0.0000000E+00;  0.0000000E+00;  4.0000000E+04;  0.0000000E+00;  4.0000000E+04; -4.3952451E-03;  0.0000000E+00; -6.8001484E-04;  5.7611191E+03;
  1.6000000E-01;  9.9999998E-03; -3.7000000E-01;2308;  0.0000000E+00;  0.0000000E+00;  0.0000000E+00;  1.0027972E+03;  1.0000000E-01;  2.3174653E+03;0;  0.0000000E+00;  0.0000000E+00;  0.0000000E+00;0; -7.5718584E-03;  4.0000000E+04;  0.0000000E+00;  0.0000000E+00;  4.0000000E+04;  0.0000000E+00;  4.0000000E+04; -6.7060455E-03;  0.0000000E+00; -8.6581311E-04;  1.0566488E+04;
  1.6000000E-01;  9.9999998E-03; -3.6000001E-01;2309;  0.0000000E+00;  0.0000000E+00;  0.0000000E+00;  1.0039415E+03;  1.0000000E-01;  3.2654878E+03;0;  0.0000000E+00;  0.0000000E+00;  0.0000000E+00;0; -1.0756223E-02;  4.0000000E+04;  0.0000000E+00;  0.0000000E+00;  4.0000000E+04;  0.0000000E+00;  4.0000000E+04; -9.7065866E-03;  0.0000000E+00; -1.0496363E-03;  2.0468756E+04;
  1.6000000E-01;  9.9999998E-03; -3.4999999E-01;2310;  0.0000000E+00;  0.0000000E+00;  0.0000000E+00;  1.0052909E+03;  1.0000000E-01;  4.3833823E+03;0;  0.0000000E+00;  0.0000000E+00;  0.0000000E+00;0; -1.4608809E-02;  4.0000000E+04;  0.0000000E+00;  0.0000000E+00;  4.0000000E+04;  0.0000000E+00;  4.0000000E+04; -1.3388996E-02;  0.0000000E+00; -1.2198125E-03;  3.3325508E+04;
  1.6000000E-01;  9.9999998E-03; -3.4000000E-01;2311;  0.0000000E+00;  0.0000000E+00;  0.0000000E+00;  1.0067976E+03;  1.0000000E-01;  5.6316431E+03;0;  0.0000000E+00;  0.0000000E+00;  0.0000000E+00;0; -1.9025294E-02;  4.0000000E+04;  0.0000000E+00;  0.0000000E+00;  4.0000000E+04;  0.0000000E+00;  4.0000000E+04; -1.7663250E-02;  0.0000000E+00; -1.3620435E-03;  4.7683473E+04;
  1.6000000E-01;  9.9999998E-03; -3.3000001E-01;2312;  0.0000000E+00;  0.0000000E+00;  0.0000000E+00;  1.0083865E+03;  1.0000000E-01;  6.9480503E+03;0;  0.0000000E+00;  0.0000000E+00;  0.0000000E+00;0; -2.3816079E-02;  4.0000000E+04;  0.0000000E+00;  0.0000000E+00;  4.0000000E+04;  0.0000000E+00;  4.0000000E+04; -2.2357397E-02;  0.0000000E+00; -1.4586822E-03;  6.1708984E+04;
  1.6000000E-01;  9.9999998E-03; -3.1999999E-01;2313;  0.0000000E+00;  0.0000000E+00;  0.0000000E+00;  1.0099499E+03;  1.0000000E-01;  8.2433223E+03;0;  0.0000000E+00;  0.0000000E+00;  0.0000000E+00;0; -2.8724113E-02;  4.0000000E+04;  0.0000000E+00;  0.0000000E+00;  4.0000000E+04;  0.0000000E+00;  4.0000000E+04; -2.7235061E-02;  0.0000000E+00; -1.4890532E-03;  7.3120422E+04;
  1.6000000E-01;  9.9999998E-03; -3.1000000E-01;2314;  0.0000000E+00;  0.0000000E+00;  0.0000000E+00;  1.0113703E+03;  1.0000000E-01;  9.4200791E+03;0;  0.0000000E+00;  0.0000000E+00;  0.0000000E+00;0; -3.3459611E-02;  4.0000000E+04;  0.0000000E+00;  0.0000000E+00;  4.0000000E+04;  0.0000000E+00;  4.0000000E+04; -3.2027960E-02;  0.0000000E+00; -1.4316532E-03;  7.9614523E+04;
  1.7000000E-01;  9.9999998E-03; -4.4000000E-01;2331;  0.0000000E+00;  0.0000000E+00;  0.0000000E+00;  1.0000000E+03;  1.0000000E-01;  0.0000000E+00;0;  0.0000000E+00;  0.0000000E+00;  0.0000000E+00;0; -7.3361443E-05;  4.0000000E+04;  0.0000000E+00;  0.0000000E+00;  4.0000000E+04;  0.0000000E+00;  4.0000000E+04; -6.5633591E-05;  0.0000000E+00; -7.7278528E-06;  2.7388057E+03;
  1.7000000E-01;  9.9999998E-03; -4.3000001E-01;2332;  0.0000000E+00;  0.0000000E+00;  0.0000000E+00;  1.0000942E+03;  1.0000000E-01;  7.8022484E+01;0;  0.0000000E+00;  0.0000000E+00;  0.0000000E+00;0; -2.3246219E-04;  4.0000000E+04;  0.0000000E+00;  0.0000000E+00;  4.0000000E+04;  0.0000000E+00;  4.0000000E+04; -2.0238507E-04;  0.0000000E+00; -3.0077126E-05;  5.8246128E+03;
  1.7000000E-01;  9.9999998E-03; -4.1999999E-01;2333;  0.0000000E+00;  0.0000000E+00;  0.0000000E+00;  1.0002109E+03;  1.0000000E-01;  1.7471111E+02;0;  0.0000000E+00;  0.0000000E+00;  0.0000000E+00;0; -5.6611694E-04;  4.0000000E+04;  0.0000000E+00;  0.0000000E+00;  4.0000000E+04;  0.0000000E+00;  4.0000000E+04; -4.8691023E-04;  0.0000000E+00; -7.9206693E-05;  9.1858467E+03;
  1.7000000E-01;  9.9999998E-03; -4.1000000E-01;2334;  0.0000000E+00;  0.0000000E+00;  0.0000000E+00;  1.0004457E+03;  1.0000000E-01;  3.6927350E+02;0;  0.0000000E+00;  0.0000000E+00;  0.0000000E+00;0; -1.1655998E-03;  4.0000000E+04;  0.0000000E+00;  0.0000000E+00;  4.0000000E+04;  0.0000000E+00;  4.0000000E+04; -1.0050368E-03;  0.0000000E+00; -1.6056305E-04;  1.1505037E+04;
  1.7000000E-01;  9.9999998E-03; -4.0000001E-01;2335;  0.0000000E+00;  0.0000000E+00;  0.0000000E+00;  1.0007997E+03;  1.0000000E-01;  6.6249976E+02;0;  0.0000000E+00;  0.0000000E+00;  0.0000000E+00;0; -2.1380831E-03;  4.0000000E+04;  0.0000000E+00;  0.0000000E+00;  4.0000000E+04;  0.0000000E+00;  4.0000000E+04; -1.8663156E-03;  0.0000000E+00; -2.7176758E-04;  1.1573747E+04;
  1.7000000E-01;  9.9999998E-03; -3.8999999E-01;2336;  0.0000000E+00;  0.0000000E+00;  0.0000000E+00;  1.0013443E+03;  1.0000000E-01;  1.1137463E+03;0;  0.0000000E+00;  0.0000000E+00;  0.0000000E+00;0; -3.6028568E-03;  4.0000000E+04;  0.0000000E+00;  0.0000000E+00;  4.0000000E+04;  0.0000000E+00;  4.0000000E+04; -3.1976779E-03;  0.0000000E+00; -4.0517896E-04;  8.7668662E+03;
  1.7000000E-01;  9.9999998E-03; -3.8000000E-01;2337;  0.0000000E+00;  0.0000000E+00;  0.0000000E+00;  1.0020977E+03;  1.0000000E-01;  1.7379261E+03;0;  0.0000000E+00;  0.0000000E+00;  0.0000000E+00;0; -5.6786509E-03;  4.0000000E+04;  0.0000000E+00;  0.0000000E+00;  4.0000000E+04;  0.0000000E+00;  4.0000000E+04; -5.1273159E-03;  0.0000000E+00; -5.5133482E-04;  5.5218081E+03;
  1.7000000E-01;  9.9999998E-03; -3.7000000E-01;2338;  0.0000000E+00;  0.0000000E+00;  0.0000000E+00;  1.0030923E+03;  1.0000000E-01;  2.5619028E+03;0;  0.0000000E+00;  0.0000000E+00;  0.0000000E+00;0; -8.4603094E-03;  4.0000000E+04;  0.0000000E+00;  0.0000000E+00;  4.0000000E+04;  0.0000000E+00;  4.0000000E+04; -7.7597080E-03;  0.0000000E+00; -7.0060120E-04;  1.3118917E+04;
  1.7000000E-01;  9.9999998E-03; -3.6000001E-01;2339;  0.0000000E+00;  0.0000000E+00;  0.0000000E+00;  1.0043258E+03;  1.0000000E-01;  3.5837998E+03;0;  0.0000000E+00;  0.0000000E+00;  0.0000000E+00;0; -1.1988853E-02;  4.0000000E+04;  0.0000000E+00;  0.0000000E+00;  4.0000000E+04;  0.0000000E+00;  4.0000000E+04; -1.1145750E-02;  0.0000000E+00; -8.4310287E-04;  2.7766211E+04;
  1.7000000E-01;  9.9999998E-03; -3.4999999E-01;2340;  0.0000000E+00;  0.0000000E+00;  0.0000000E+00;  1.0057750E+03;  1.0000000E-01;  4.7844575E+03;0;  0.0000000E+00;  0.0000000E+00;  0.0000000E+00;0; -1.6222993E-02;  4.0000000E+04;  0.0000000E+00;  0.0000000E+00;  4.0000000E+04;  0.0000000E+00;  4.0000000E+04; -1.5255009E-02;  0.0000000E+00; -9.6798380E-04;  4.5864090E+04;
  1.7000000E-01;  9.9999998E-03; -3.4000000E-01;2341;  0.0000000E+00;  0.0000000E+00;  0.0000000E+00;  1.0073822E+03;  1.0000000E-01;  6.1159751E+03;0;  0.0000000E+00;  0.0000000E+00;  0.0000000E+00;0; -2.1023046E-02;  4.0000000E+04;  0.0000000E+00;  0.0000000E+00;  4.0000000E+04;  0.0000000E+00;  4.0000000E+04; -1.9960262E-02;  0.0000000E+00; -1.0627845E-03;  6.5434945E+04;
  1.7000000E-01;  9.9999998E-03; -3.3000001E-01;2342;  0.0000000E+00;  0.0000000E+00;  0.0000000E+00;  1.0090447E+03;  1.0000000E-01;  7.4933188E+03;0;  0.0000000E+00;  0.0000000E+00;  0.0000000E+00;0; -2.6155824E-02;  4.0000000E+04;  0.0000000E+00;  0.0000000E+00;  4.0000000E+04;  0.0000000E+00;  4.0000000E+04; -2.5042273E-02;  0.0000000E+00; -1.1135516E-03;  8.3897617E+04;
  1.7000000E-01;  9.9999998E-03; -3.1999999E-01;2343;  0.0000000E+00;  0.0000000E+00;  0.0000000E+00;  1.0106465E+03;  1.0000000E-01;  8.8204912E+03;0;  0.0000000E+00;  0.0000000E+00;  0.0000000E+00;0; -3.1321306E-02;  4.0000000E+04;  0.0000000E+00;  0.0000000E+00;  4.0000000E+04;  0.0000000E+00;  4.0000000E+04; -3.0215286E-02;  0.0000000E+00; -1.1060188E-03;  9.8106961E+04;
  1.7000000E-01;  9.9999998E-03; -3.1000000E-01;2344;  0.0000000E+00;  0.0000000E+00;  0.0000000E+00;  1.0120643E+03;  1.0000000E-01;  9.9950752E+03;0;  0.0000000E+00;  0.0000000E+00;  0.0000000E+00;0; -3.6195952E-02;  4.0000000E+04;  0.0000000E+00;  0.0000000E+00;  4.0000000E+04;  0.0000000E+00;  4.0000000E+04; -3.5168324E-02;  0.0000000E+00; -1.0276295E-03;  1.0502238E+05;
  1.8000001E-01;  9.9999998E-03; -4.4000000E-01;2361;  0.0000000E+00;  0.0000000E+00;  0.0000000E+00;  1.0000000E+03;  1.0000000E-01;  0.0000000E+00;0;  0.0000000E+00;  0.0000000E+00;  0.0000000E+00;0; -8.0261518E-05;  4.0000000E+04;  0.0000000E+00;  0.0000000E+00;  4.0000000E+04;  0.0000000E+00;  4.0000000E+04; -8.1199338E-05;  0.0000000E+00;  9.3781972E-07;  4.3774902E+03;
  1.8000001E-01;  9.9999998E-03; -4.3000001E-01;2362;  0.0000000E+00;  0.0000000E+00;  0.0000000E+00;  1.0000967E+03;  1.0000000E-01;  8.0096497E+01;0;  0.0000000E+00;  0.0000000E+00;  0.0000000E+00;0; -2.5726805E-04;  4.0000000E+04;  0.0000000E+00;  0.0000000E+00;  4.0000000E+04;  0.0000000E+00;  4.0000000E+04; -2.4277429E-04;  0.0000000E+00; -1.4493757E-05;  8.9960615E+03;
  1.8000001E-01;  9.9999998E-03; -4.1999999E-01;2363;  0.0000000E+00;  0.0000000E+00;  0.0000000E+00;  1.0002386E+03;  1.0000000E-01;  1.9772281E+02;0;  0.0000000E+00;  0.0000000E+00;  0.0000000E+00;0; -6.2705902E-04;  4.0000000E+04;  0.0000000E+00;  0.0000000E+00;  4.0000000E+04;  0.0000000E+00;  4.0000000E+04; -5.7108223E-04;  0.0000000E+00; -5.5976769E-05;  1.3757037E+04;
  1.8000001E-01;  9.9999998E-03; -4.1000000E-01;2364;  0.0000000E+00;  0.0000000E+00;  0.0000000E+00;  1.0004960E+03;  1.0000000E-01;  4.1095135E+02;0;  0.0000000E+00;  0.0000000E+00;  0.0000000E+00;0; -1.2877885E-03;  4.0000000E+04;  0.0000000E+00;  0.0000000E+00;  4.0000000E+04;  0.0000000E+00;  4.0000000E+04; -1.1596854E-03;  0.0000000E+00; -1.2810311E-04;  1.6752820E+04;
  1.8000001E-01;  9.9999998E-03; -4.0000001E-01;2365;  0.0000000E+00;  0.0000000E+00;  0.0000000E+00;  1.0008794E+03;  1.0000000E-01;  7.2857196E+02;0;  0.0000000E+00;  0.0000000E+00;  0.0000000E+00;0; -2.3554431E-03;  4.0000000E+04;  0.0000000E+00;  0.0000000E+00;  4.0000000E+04;  0.0000000E+00;  4.0000000E+04; -2.1286027E-03;  0.0000000E+00; -2.2684042E-04;  1.6364626E+04;
  1.8000001E-01;  9.9999998E-03; -3.8999999E-01;2366;  0.0000000E+00;  0.0000000E+00;  0.0000000E+00;  1.0014644E+03;  1.0000000E-01;  1.2132002E+03;0;  0.0000000E+00;  0.0000000E+00;  0.0000000E+00;0; -3.9599878E-03;  4.0000000E+04;  0.0000000E+00;  0.0000000E+00;  4.0000000E+04;  0.0000000E+00;  4.0000000E+04; -3.6166857E-03;  0.0000000E+00; -3.4330186E-04;  1.1683431E+04;
  1.8000001E-01;  9.9999998E-03; -3.8000000E-01;2367;  0.0000000E+00;  0.0000000E+00;  0.0000000E+00;  1.0022681E+03;  1.0000000E-01;  1.8790580E+03;0;  0.0000000E+00;  0.0000000E+00;  0.0000000E+00;0; -6.2298584E-03;  4.0000000E+04;  0.0000000E+00;  0.0000000E+00;  4.0000000E+04;  0.0000000E+00;  4.0000000E+04; -5.7623615E-03;  0.0000000E+00; -4.6749687E-04;  5.1419707E+03;
  1.8000001E-01;  9.9999998E-03; -3.7000000E-01;2368;  0.0000000E+00;  0.0000000E+00;  0.0000000E+00;  1.0033256E+03;  1.0000000E-01;  2.7551814E+03;0;  0.0000000E+00;  0.0000000E+00;  0.0000000E+00;0; -9.2640119E-03;  4.0000000E+04;  0.0000000E+00;  0.0000000E+00;  4.0000000E+04;  0.0000000E+00;  4.0000000E+04; -8.6743198E-03;  0.0000000E+00; -5.8969209E-04;  1.6149091E+04;
  1.8000001E-01;  9.9999998E-03; -3.6000001E-01;2369;  0.0000000E+00;  0.0000000E+00;  0.0000000E+00;  1.0046329E+03;  1.0000000E-01;  3.8383113E+03;0;  0.0000000E+00;  0.0000000E+00;  0.0000000E+00;0; -1.3097315E-02;  4.0000000E+04;  0.0000000E+00;  0.0000000E+00;  4.0000000E+04;  0.0000000E+00;  4.0000000E+04; -1.2397212E-02;  0.0000000E+00; -7.0010289E-04;  3.6074145E+04;
  1.8000001E-01;  9.9999998E-03; -3.4999999E-01;2370;  0.0000000E+00;  0.0000000E+00;  0.0000000E+00;  1.0061631E+03;  1.0000000E-01;  5.1060283E+03;0;  0.0000000E+00;  0.0000000E+00;  0.0000000E+00;0; -1.7668942E-02;  4.0000000E+04;  0.0000000E+00;  0.0000000E+00;  4.0000000E+04;  0.0000000E+00;  4.0000000E+04; -1.6880760E-02;  0.0000000E+00; -7.8818237E-04;  5.9907590E+04;
  1.8000001E-01;  9.9999998E-03; -3.4000000E-01;2371;  0.0000000E+00;  0.0000000E+00;  0.0000000E+00;  1.0078387E+03;  1.0000000E-01;  6.4942358E+03;0;  0.0000000E+00;  0.0000000E+00;  0.0000000E+00;0; -2.2806538E-02;  4.0000000E+04;  0.0000000E+00;  0.0000000E+00;  4.0000000E+04;  0.0000000E+00;  4.0000000E+04; -2.1964107E-02;  0.0000000E+00; -8.4243214E-04;  8.5135344E+04;
  1.8000001E-01;  9.9999998E-03; -3.3000001E-01;2372;  0.0000000E+00;  0.0000000E+00;  0.0000000E+00;  1.0095568E+03;  1.0000000E-01;  7.9176030E+03;0;  0.0000000E+00;  0.0000000E+00;  0.0000000E+00;0; -2.8235583E-02;  4.0000000E+04;  0.0000000E+00;  0.0000000E+00;  4.0000000E+04;  0.0000000E+00;  4.0000000E+04; -2.7384266E-02;  0.0000000E+00; -8.5131614E-04;  1.0836364E+05;
  1.8000001E-01;  9.9999998E-03; -3.1999999E-01;2373;  0.0000000E+00;  0.0000000E+00;  0.0000000E+00;  1.0111838E+03;  1.0000000E-01;  9.2655156E+03;0;  0.0000000E+00;  0.0000000E+00;  0.0000000E+00;0; -3.3615034E-02;  4.0000000E+04;  0.0000000E+00;  0.0000000E+00;  4.0000000E+04;  0.0000000E+00;  4.0000000E+04; -3.2809295E-02;  0.0000000E+00; -8.0573943E-04;  1.2549009E+05;
  1.8000001E-01;  9.9999998E-03; -3.1000000E-01;2374;  0.0000000E+00;  0.0000000E+00;  0.0000000E+00;  1.0125889E+03;  1.0000000E-01;  1.0429631E+04;0;  0.0000000E+00;  0.0000000E+00;  0.0000000E+00;0; -3.8591668E-02;  4.0000000E+04;  0.0000000E+00;  0.0000000E+00;  4.0000000E+04;  0.0000000E+00;  4.0000000E+04; -3.7888784E-02;  0.0000000E+00; -7.0288271E-04;  1.3262183E+05;
  1.9000000E-01;  9.9999998E-03; -4.4000000E-01;2391;  0.0000000E+00;  0.0000000E+00;  0.0000000E+00;  1.0000082E+03;  1.0000000E-01;  6.8146219E+00;0;  0.0000000E+00;  0.0000000E+00;  0.0000000E+00;0; -8.5570522E-05;  4.0000000E+04;  0.0000000E+00;  0.0000000E+00;  4.0000000E+04;  0.0000000E+00;  4.0000000E+04; -9.3259390E-05;  0.0000000E+00;  7.6888682E-06;  6.5857686E+03;
  1.9000000E-01;  9.9999998E-03; -4.3000001E-01;2392;  0.0000000E+00;  0.0000000E+00;  0.0000000E+00;  1.0001141E+03;  1.0000000E-01;  9.4515846E+01;0;  0.0000000E+00;  0.0000000E+00;  0.0000000E+00;0; -2.8068086E-04;  4.0000000E+04;  0.0000000E+00;  0.0000000E+00;  4.0000000E+04;  0.0000000E+00;  4.0000000E+04; -2.7412505E-04;  0.0000000E+00; -6.5558061E-06;  1.3076879E+04;
  1.9000000E-01;  9.9999998E-03; -4.1999999E-01;2393;  0.0000000E+00;  0.0000000E+00;  0.0000000E+00;  1.0002753E+03;  1.0000000E-01;  2.2814169E+02;0;  0.0000000E+00;  0.0000000E+00;  0.0000000E+00;0; -6.8480126E-04;  4.0000000E+04;  0.0000000E+00;  0.0000000E+00;  4.0000000E+04;  0.0000000E+00;  4.0000000E+04; -6.3517224E-04;  0.0000000E+00; -4.9628998E-05;  1.9390846E+04;
  1.9000000E-01;  9.9999998E-03; -4.1000000E-01;2394;  0.0000000E+00;  0.0000000E+00;  0.0000000E+00;  1.0005439E+03;  1.0000000E-01;  4.5065393E+02;0;  0.0000000E+00;  0.0000000E+00;  0.0000000E+00;0; -1.3989428E-03;  4.0000000E+04;  0.0000000E+00;  0.0000000E+00;  4.0000000E+04;  0.0000000E+00;  4.0000000E+04; -1.2749983E-03;  0.0000000E+00; -1.2394451E-04;  2.3001266E+04;
  1.9000000E-01;  9.9999998E-03; -4.0000001E-01;2395;  0.0000000E+00;  0.0000000E+00;  0.0000000E+00;  1.0009475E+03;  1.0000000E-01;  7.8496545E+02;0;  0.0000000E+00;  0.0000000E+00;  0.0000000E+00;0; -2.5440415E-03;  4.0000000E+04;  0.0000000E+00;  0.0000000E+00;  4.0000000E+04;  0.0000000E+00;  4.0000000E+04; -2.3214987E-03;  0.0000000E+00; -2.2254285E-04;  2.1969346E+04;
  1.9000000E-01;  9.9999998E-03; -3.8999999E-01;2396;  0.0000000E+00;  0.0000000E+00;  0.0000000E+00;  1.0015524E+03;  1.0000000E-01;  1.2861858E+03;0;  0.0000000E+00;  0.0000000E+00;  0.0000000E+00;0; -4.2578005E-03;  4.0000000E+04;  0.0000000E+00;  0.0000000E+00;  4.0000000E+04;  0.0000000E+00;  4.0000000E+04; -3.9231675E-03;  0.0000000E+00; -3.3463317E-04;  1.5239788E+04;
  1.9000000E-01;  9.9999998E-03; -3.8000000E-01;2397;  0.0000000E+00;  0.0000000E+00;  0.0000000E+00;  1.0023917E+03;  1.0000000E-01;  1.9814749E+03;0;  0.0000000E+00;  0.0000000E+00;  0.0000000E+00;0; -6.6766334E-03;  4.0000000E+04;  0.0000000E+00;  0.0000000E+00;  4.0000000E+04;  0.0000000E+00;  4.0000000E+04; -6.2271222E-03;  0.0000000E+00; -4.4951102E-04;  4.7493545E+03;
  1.9000000E-01;  9.9999998E-03; -3.7000000E-01;2398;  0.0000000E+00;  0.0000000E+00;  0.0000000E+00;  1.0034821E+03;  1.0000000E-01;  2.8848567E+03;0;  0.0000000E+00;  0.0000000E+00;  0.0000000E+00;0; -9.9037206E-03;  4.0000000E+04;  0.0000000E+00;  0.0000000E+00;  4.0000000E+04;  0.0000000E+00;  4.0000000E+04; -9.3464013E-03;  0.0000000E+00; -5.5731909E-04;  1.9177992E+04;
  1.9000000E-01;  9.9999998E-03; -3.6000001E-01;2399;  0.0000000E+00;  0.0000000E+00;  0.0000000E+00;  1.0048292E+03;  1.0000000E-01;  4.0008745E+03;0;  0.0000000E+00;  0.0000000E+00;  0.0000000E+00;0; -1.3970262E-02;  4.0000000E+04;  0.0000000E+00;  0.0000000E+00;  4.0000000E+04;  0.0000000E+00;  4.0000000E+04; -1.3322039E-02;  0.0000000E+00; -6.4822379E-04;  4.4319121E+04;
  1.9000000E-01;  9.9999998E-03; -3.4999999E-01;2400;  0.0000000E+00;  0.0000000E+00;  0.0000000E+00;  1.0063995E+03;  1.0000000E-01;  5.3018745E+03;0;  0.0000000E+00;  0.0000000E+00;  0.0000000E+00;0; -1.8800909E-02;  4.0000000E+04;  0.0000000E+00;  0.0000000E+00;  4.0000000E+04;  0.0000000E+00;  4.0000000E+04; -1.8089352E-02;  0.0000000E+00; -7.1155571E-04;  7.3760391E+04;
  1.9000000E-01;  9.9999998E-03; -3.4000000E-01;2401;  0.0000000E+00;  0.0000000E+00;  0.0000000E+00;  1.0081135E+03;  1.0000000E-01;  6.7218838E+03;0;  0.0000000E+00;  0.0000000E+00;  0.0000000E+00;0; -2.4197355E-02;  4.0000000E+04;  0.0000000E+00;  0.0000000E+00;  4.0000000E+04;  0.0000000E+00;  4.0000000E+04; -2.3461511E-02;  0.0000000E+00; -7.3584414E-04;  1.0450549E+05;
  1.9000000E-01;  9.9999998E-03; -3.3000001E-01;2402;  0.0000000E+00;  0.0000000E+00;  0.0000000E+00;  1.0098519E+03;  1.0000000E-01;  8.1621396E+03;0;  0.0000000E+00;  0.0000000E+00;  0.0000000E+00;0; -2.9850356E-02;  4.0000000E+04;  0.0000000E+00;  0.0000000E+00;  4.0000000E+04;  0.0000000E+00;  4.0000000E+04; -2.9139917E-02;  0.0000000E+00; -7.1043882E-04;  1.3241473E+05;
  1.9000000E-01;  9.9999998E-03; -3.1999999E-01;2403;  0.0000000E+00;  0.0000000E+00;  0.0000000E+00;  1.0114834E+03;  1.0000000E-01;  9.5138047E+03;0;  0.0000000E+00;  0.0000000E+00;  0.0000000E+00;0; -3.5382487E-02;  4.0000000E+04;  0.0000000E+00;  0.0000000E+00;  4.0000000E+04;  0.0000000E+00;  4.0000000E+04; -3.4753025E-02;  0.0000000E+00; -6.2946399E-04;  1.5245552E+05;
  1.9000000E-01;  9.9999998E-03; -3.1000000E-01;2404;  0.0000000E+00;  0.0000000E+00;  0.0000000E+00;  1.0128604E+03;  1.0000000E-01;  1.0654612E+04;0;  0.0000000E+00;  0.0000000E+00;  0.0000000E+00;0; -4.0414818E-02;  4.0000000E+04;  0.0000000E+00;  0.0000000E+00;  4.0000000E+04;  0.0000000E+00;  4.0000000E+04; -3.9916277E-02;  0.0000000E+00; -4.9853971E-04;  1.5982302E+05;
  2.0000000E-01;  9.9999998E-03; -4.4000000E-01;2420;  0.0000000E+00;  0.0000000E+00;  0.0000000E+00;  1.0000304E+03;  1.0000000E-01;  2.5184473E+01;0;  0.0000000E+00;  0.0000000E+00;  0.0000000E+00;0; -9.1304370E-05;  4.0000000E+04;  0.0000000E+00;  0.0000000E+00;  4.0000000E+04;  0.0000000E+00;  4.0000000E+04; -1.0041376E-04;  0.0000000E+00;  9.1093907E-06;  9.3025039E+03;
  2.0000000E-01;  9.9999998E-03; -4.3000001E-01;2421;  0.0000000E+00;  0.0000000E+00;  0.0000000E+00;  1.0001296E+03;  1.0000000E-01;  1.0735499E+02;0;  0.0000000E+00;  0.0000000E+00;  0.0000000E+00;0; -3.0723782E-04;  4.0000000E+04;  0.0000000E+00;  0.0000000E+00;  4.0000000E+04;  0.0000000E+00;  4.0000000E+04; -2.9393769E-04;  0.0000000E+00; -1.3300136E-05;  1.7874504E+04;
  2.0000000E-01;  9.9999998E-03; -4.1999999E-01;2422;  0.0000000E+00;  0.0000000E+00;  0.0000000E+00;  1.0002957E+03;  1.0000000E-01;  2.4493135E+02;0;  0.0000000E+00;  0.0000000E+00;  0.0000000E+00;0; -7.4662140E-04;  4.0000000E+04;  0.0000000E+00;  0.0000000E+00;  4.0000000E+04;  0.0000000E+00;  4.0000000E+04; -6.7538331E-04;  0.0000000E+00; -7.1238101E-05;  2.5723188E+04;
  2.0000000E-01;  9.9999998E-03; -4.1000000E-01;2423;  0.0000000E+00;  0.0000000E+00;  0.0000000E+00;  1.0005771E+03;  1.0000000E-01;  4.7810992E+02;0;  0.0000000E+00;  0.0000000E+00;  0.0000000E+00;0; -1.5088500E-03;  4.0000000E+04;  0.0000000E+00;  0.0000000E+00;  4.0000000E+04;  0.0000000E+00;  4.0000000E+04; -1.3459459E-03;  0.0000000E+00; -1.6290417E-04;  2.9757451E+04;
  2.0000000E-01;  9.9999998E-03; -4.0000001E-01;2424;  0.0000000E+00;  0.0000000E+00;  0.0000000E+00;  1.0010042E+03;  1.0000000E-01;  8.3197644E+02;0;  0.0000000E+00;  0.0000000E+00;  0.0000000E+00;0; -2.7157806E-03;  4.0000000E+04;  0.0000000E+00;  0.0000000E+00;  4.0000000E+04;  0.0000000E+00;  4.0000000E+04; -2.4388435E-03;  0.0000000E+00; -2.7693718E-04;  2.7873025E+04;
  2.0000000E-01;  9.9999998E-03; -3.8999999E-01;2425;  0.0000000E+00;  0.0000000E+00;  0.0000000E+00;  1.0016221E+03;  1.0000000E-01;  1.3438633E+03;0;  0.0000000E+00;  0.0000000E+00;  0.0000000E+00;0; -4.5094970E-03;  4.0000000E+04;  0.0000000E+00;  0.0000000E+00;  4.0000000E+04;  0.0000000E+00;  4.0000000E+04; -4.1093905E-03;  0.0000000E+00; -4.0010660E-04;  1.9043404E+04;
  2.0000000E-01;  9.9999998E-03; -3.8000000E-01;2426;  0.0000000E+00;  0.0000000E+00;  0.0000000E+00;  1.0024615E+03;  1.0000000E-01;  2.0393497E+03;0;  0.0000000E+00;  0.0000000E+00;  0.0000000E+00;0; -7.0319283E-03;  4.0000000E+04;  0.0000000E+00;  0.0000000E+00;  4.0000000E+04;  0.0000000E+00;  4.0000000E+04; -6.5108687E-03;  0.0000000E+00; -5.2105973E-04;  4.5518628E+03;
  2.0000000E-01;  9.9999998E-03; -3.7000000E-01;2427;  0.0000000E+00;  0.0000000E+00;  0.0000000E+00;  1.0035636E+03;  1.0000000E-01;  2.9524104E+03;0;  0.0000000E+00;  0.0000000E+00;  0.0000000E+00;0; -1.0389538E-02;  4.0000000E+04;  0.0000000E+00;  0.0000000E+00;  4.0000000E+04;  0.0000000E+00;  4.0000000E+04; -9.7594680E-03;  0.0000000E+00; -6.3007069E-04;  2.1713213E+04;
  2.0000000E-01;  9.9999998E-03; -3.6000001E-01;2428;  0.0000000E+00;  0.0000000E+00;  0.0000000E+00;  1.0049186E+03;  1.0000000E-01;  4.0750452E+03;0;  0.0000000E+00;  0.0000000E+00;  0.0000000E+00;0; -1.4611538E-02;  4.0000000E+04;  0.0000000E+00;  0.0000000E+00;  4.0000000E+04;  0.0000000E+00;  4.0000000E+04; -1.3894113E-02;  0.0000000E+00; -7.1742560E-04;  5.1378840E+04;
  2.0000000E-01;  9.9999998E-03; -3.4999999E-01;2429;  0.0000000E+00;  0.0000000E+00;  0.0000000E+00;  1.0064934E+03;  1.0000000E-01;  5.3796997E+03;0;  0.0000000E+00;  0.0000000E+00;  0.0000000E+00;0; -1.9613050E-02;  4.0000000E+04;  0.0000000E+00;  0.0000000E+00;  4.0000000E+04;  0.0000000E+00;  4.0000000E+04; -1.8840844E-02;  0.0000000E+00; -7.7220547E-04;  8.5570148E+04;
  2.0000000E-01;  9.9999998E-03; -3.4000000E-01;2430;  0.0000000E+00;  0.0000000E+00;  0.0000000E+00;  1.0082008E+03;  1.0000000E-01;  6.7941782E+03;0;  0.0000000E+00;  0.0000000E+00;  0.0000000E+00;0; -2.5177697E-02;  4.0000000E+04;  0.0000000E+00;  0.0000000E+00;  4.0000000E+04;  0.0000000E+00;  4.0000000E+04; -2.4395382E-02;  0.0000000E+00; -7.8231440E-04;  1.2094216E+05;
  2.0000000E-01;  9.9999998E-03; -3.3000001E-01;2431;  0.0000000E+00;  0.0000000E+00;  0.0000000E+00;  1.0099282E+03;  1.0000000E-01;  8.2252490E+03;0;  0.0000000E+00;  0.0000000E+00;  0.0000000E+00;0; -3.0970994E-02;  4.0000000E+04;  0.0000000E+00;  0.0000000E+00;  4.0000000E+04;  0.0000000E+00;  4.0000000E+04; -3.0234564E-02;  0.0000000E+00; -7.3642941E-04;  1.5280294E+05;
  2.0000000E-01;  9.9999998E-03; -3.1999999E-01;2432;  0.0000000E+00;  0.0000000E+00;  0.0000000E+00;  1.0115336E+03;  1.0000000E-01;  9.5553838E+03;0;  0.0000000E+00;  0.0000000E+00;  0.0000000E+00;0; -3.6587760E-02;  4.0000000E+04;  0.0000000E+00;  0.0000000E+00;  4.0000000E+04;  0.0000000E+00;  4.0000000E+04; -3.5958692E-02;  0.0000000E+00; -6.2906742E-04;  1.7540239E+05;
  2.0000000E-01;  9.9999998E-03; -3.1000000E-01;2433;  0.0000000E+00;  0.0000000E+00;  0.0000000E+00;  1.0128691E+03;  1.0000000E-01;  1.0661822E+04;0;  0.0000000E+00;  0.0000000E+00;  0.0000000E+00;0; -4.1627612E-02;  4.0000000E+04;  0.0000000E+00;  0.0000000E+00;  4.0000000E+04;  0.0000000E+00;  4.0000000E+04; -4.1158162E-02;  0.0000000E+00; -4.6944944E-04;  1.8315753E+05;
 -1.9000000E-01;  9.9999998E-03; -2.7000001E-01;107;  0.0000000E+00;  0.0000000E+00;  0.0000000E+00;  1.0000000E+03;  1.0000000E-01;  0.0000000E+00;0;  0.0000000E+00;  0.0000000E+00;  0.0000000E+00;0;  0.0000000E+00;  4.0000000E+04;  0.0000000E+00;  0.0000000E+00;  4.0000000E+04;  0.0000000E+00;  4.0000000E+04;  0.0000000E+00;  0.0000000E+00;  0.0000000E+00;  0.0000000E+00;
 -1.9000000E-01;  9.9999998E-03; -2.5999999E-01;108;  0.0000000E+00;  0.0000000E+00;  0.0000000E+00;  1.0000000E+03;  1.0000000E-01;  0.0000000E+00;0;  0.0000000E+00;  0.0000000E+00;  0.0000000E+00;0;  0.0000000E+00;  4.0000000E+04;  0.0000000E+00;  0.0000000E+00;  4.0000000E+04;  0.0000000E+00;  4.0000000E+04;  0.0000000E+00;  0.0000000E+00;  0.0000000E+00;  0.0000000E+00;
 -1.9000000E-01;  9.9999998E-03; -2.5000000E-01;109;  0.0000000E+00;  0.0000000E+00;  0.0000000E+00;  1.0000000E+03;  1.0000000E-01;  0.0000000E+00;0;  0.0000000E+00;  0.0000000E+00;  0.0000000E+00;0;  0.0000000E+00;  4.0000000E+04;  0.0000000E+00;  0.0000000E+00;  4.0000000E+04;  0.0000000E+00;  4.0000000E+04;  0.0000000E+00;  0.0000000E+00;  0.0000000E+00;  0.0000000E+00;
 -1.9000000E-01;  9.9999998E-03; -2.3999999E-01;110;  0.0000000E+00;  0.0000000E+00;  0.0000000E+00;  1.0000000E+03;  1.0000000E-01;  0.0000000E+00;0;  0.0000000E+00;  0.0000000E+00;  0.0000000E+00;0;  0.0000000E+00;  4.0000000E+04;  0.0000000E+00;  0.0000000E+00;  4.0000000E+04;  0.0000000E+00;  4.0000000E+04;  0.0000000E+00;  0.0000000E+00;  0.0000000E+00;  0.0000000E+00;
 -1.9000000E-01;  9.9999998E-03; -2.3000000E-01;111;  0.0000000E+00;  0.0000000E+00;  0.0000000E+00;  1.0000000E+03;  1.0000000E-01;  0.0000000E+00;0;  0.0000000E+00;  0.0000000E+00;  0.0000000E+00;0;  0.0000000E+00;  4.0000000E+04;  0.0000000E+00;  0.0000000E+00;  4.0000000E+04;  0.0000000E+00;  4.0000000E+04;  0.0000000E+00;  0.0000000E+00;  0.0000000E+00;  0.0000000E+00;
 -1.9000000E-01;  9.9999998E-03; -2.2000000E-01;112;  0.0000000E+00;  0.0000000E+00;  0.0000000E+00;  1.0000000E+03;  1.0000000E-01;  0.0000000E+00;0;  0.0000000E+00;  0.0000000E+00;  0.0000000E+00;0;  0.0000000E+00;  4.0000000E+04;  0.0000000E+00;  0.0000000E+00;  4.0000000E+04;  0.0000000E+00;  4.0000000E+04;  0.0000000E+00;  0.0000000E+00;  0.0000000E+00;  0.0000000E+00;
 -1.9000000E-01;  9.9999998E-03; -2.0999999E-01;113;  0.0000000E+00;  0.0000000E+00;  0.0000000E+00;  1.0000000E+03;  1.0000000E-01;  0.0000000E+00;0;  0.0000000E+00;  0.0000000E+00;  0.0000000E+00;0;  0.0000000E+00;  4.0000000E+04;  0.0000000E+00;  0.0000000E+00;  4.0000000E+04;  0.0000000E+00;  4.0000000E+04;  0.0000000E+00;  0.0000000E+00;  0.0000000E+00;  0.0000000E+00;
 -1.9000000E-01;  9.9999998E-03; -2.0000000E-01;114;  0.0000000E+00;  0.0000000E+00;  0.0000000E+00;  1.0000000E+03;  1.0000000E-01;  0.0000000E+00;0;  0.0000000E+00;  0.0000000E+00;  0.0000000E+00;0;  0.0000000E+00;  4.0000000E+04;  0.0000000E+00;  0.0000000E+00;  4.0000000E+04;  0.0000000E+00;  4.0000000E+04;  0.0000000E+00;  0.0000000E+00;  0.0000000E+00;  0.0000000E+00;
 -1.9000000E-01;  9.9999998E-03; -1.9000000E-01;115;  0.0000000E+00;  0.0000000E+00;  0.0000000E+00;  1.0000000E+03;  1.0000000E-01;  0.0000000E+00;0;  0.0000000E+00;  0.0000000E+00;  0.0000000E+00;0;  0.0000000E+00;  4.0000000E+04;  0.0000000E+00;  0.0000000E+00;  4.0000000E+04;  0.0000000E+00;  4.0000000E+04;  0.0000000E+00;  0.0000000E+00;  0.0000000E+00;  0.0000000E+00;
 -1.9000000E-01;  9.9999998E-03; -1.8000001E-01;116;  0.0000000E+00;  0.0000000E+00;  0.0000000E+00;  1.0000000E+03;  1.0000000E-01;  0.0000000E+00;0;  0.0000000E+00;  0.0000000E+00;  0.0000000E+00;0;  0.0000000E+00;  4.0000000E+04;  0.0000000E+00;  0.0000000E+00;  4.0000000E+04;  0.0000000E+00;  4.0000000E+04;  0.0000000E+00;  0.0000000E+00;  0.0000000E+00;  0.0000000E+00;
 -1.9000000E-01;  9.9999998E-03; -1.7000000E-01;117;  0.0000000E+00;  0.0000000E+00;  0.0000000E+00;  1.0000000E+03;  1.0000000E-01;  0.0000000E+00;0;  0.0000000E+00;  0.0000000E+00;  0.0000000E+00;0;  0.0000000E+00;  4.0000000E+04;  0.0000000E+00;  0.0000000E+00;  4.0000000E+04;  0.0000000E+00;  4.0000000E+04;  0.0000000E+00;  0.0000000E+00;  0.0000000E+00;  0.0000000E+00;
 -1.9000000E-01;  9.9999998E-03; -1.6000000E-01;118;  0.0000000E+00;  0.0000000E+00;  0.0000000E+00;  1.0000000E+03;  1.0000000E-01;  0.0000000E+00;0;  0.0000000E+00;  0.0000000E+00;  0.0000000E+00;0;  0.0000000E+00;  4.0000000E+04;  0.0000000E+00;  0.0000000E+00;  4.0000000E+04;  0.0000000E+00;  4.0000000E+04;  0.0000000E+00;  0.0000000E+00;  0.0000000E+00;  0.0000000E+00;
 -1.9000000E-01;  9.9999998E-03; -1.5000001E-01;119;  0.0000000E+00;  0.0000000E+00;  0.0000000E+00;  1.0000000E+03;  1.0000000E-01;  0.0000000E+00;0;  0.0000000E+00;  0.0000000E+00;  0.0000000E+00;0;  0.0000000E+00;  4.0000000E+04;  0.0000000E+00;  0.0000000E+00;  4.0000000E+04;  0.0000000E+00;  4.0000000E+04;  0.0000000E+00;  0.0000000E+00;  0.0000000E+00;  0.0000000E+00;
 -1.9000000E-01;  9.9999998E-03; -1.4000000E-01;120;  0.0000000E+00;  0.0000000E+00;  0.0000000E+00;  1.0000000E+03;  1.0000000E-01;  0.0000000E+00;0;  0.0000000E+00;  0.0000000E+00;  0.0000000E+00;0;  0.0000000E+00;  4.0000000E+04;  0.0000000E+00;  0.0000000E+00;  4.0000000E+04;  0.0000000E+00;  4.0000000E+04;  0.0000000E+00;  0.0000000E+00;  0.0000000E+00;  0.0000000E+00;
 -1.9000000E-01;  9.9999998E-03; -1.3000000E-01;121;  0.0000000E+00;  0.0000000E+00;  0.0000000E+00;  1.0000000E+03;  1.0000000E-01;  0.0000000E+00;0;  0.0000000E+00;  0.0000000E+00;  0.0000000E+00;0;  0.0000000E+00;  4.0000000E+04;  0.0000000E+00;  0.0000000E+00;  4.0000000E+04;  0.0000000E+00;  4.0000000E+04;  0.0000000E+00;  0.0000000E+00;  0.0000000E+00;  0.0000000E+00;
 -1.9000000E-01;  9.9999998E-03; -1.2000000E-01;122;  0.0000000E+00;  0.0000000E+00;  0.0000000E+00;  1.0000000E+03;  1.0000000E-01;  0.0000000E+00;0;  0.0000000E+00;  0.0000000E+00;  0.0000000E+00;0;  0.0000000E+00;  4.0000000E+04;  0.0000000E+00;  0.0000000E+00;  4.0000000E+04;  0.0000000E+00;  4.0000000E+04;  0.0000000E+00;  0.0000000E+00;  0.0000000E+00;  0.0000000E+00;
 -1.9000000E-01;  9.9999998E-03; -1.1000000E-01;123;  0.0000000E+00;  0.0000000E+00;  0.0000000E+00;  1.0000000E+03;  1.0000000E-01;  0.0000000E+00;0;  0.0000000E+00;  0.0000000E+00;  0.0000000E+00;0;  0.0000000E+00;  4.0000000E+04;  0.0000000E+00;  0.0000000E+00;  4.0000000E+04;  0.0000000E+00;  4.0000000E+04;  0.0000000E+00;  0.0000000E+00;  0.0000000E+00;  0.0000000E+00;
 -1.8000001E-01;  9.9999998E-03; -2.7000001E-01;198;  0.0000000E+00;  0.0000000E+00;  0.0000000E+00;  1.0000000E+03;  1.0000000E-01;  0.0000000E+00;0;  0.0000000E+00;  0.0000000E+00;  0.0000000E+00;0;  0.0000000E+00;  4.0000000E+04;  0.0000000E+00;  0.0000000E+00;  4.0000000E+04;  0.0000000E+00;  4.0000000E+04;  0.0000000E+00;  0.0000000E+00;  0.0000000E+00;  0.0000000E+00;
 -1.8000001E-01;  9.9999998E-03; -2.5999999E-01;199;  0.0000000E+00;  0.0000000E+00;  0.0000000E+00;  1.0000000E+03;  1.0000000E-01;  0.0000000E+00;0;  0.0000000E+00;  0.0000000E+00;  0.0000000E+00;0;  0.0000000E+00;  4.0000000E+04;  0.0000000E+00;  0.0000000E+00;  4.0000000E+04;  0.0000000E+00;  4.0000000E+04;  0.0000000E+00;  0.0000000E+00;  0.0000000E+00;  0.0000000E+00;
 -1.8000001E-01;  9.9999998E-03; -2.5000000E-01;200;  0.0000000E+00;  0.0000000E+00;  0.0000000E+00;  1.0000000E+03;  1.0000000E-01;  0.0000000E+00;0;  0.0000000E+00;  0.0000000E+00;  0.0000000E+00;0;  0.0000000E+00;  4.0000000E+04;  0.0000000E+00;  0.0000000E+00;  4.0000000E+04;  0.0000000E+00;  4.0000000E+04;  0.0000000E+00;  0.0000000E+00;  0.0000000E+00;  0.0000000E+00;
 -1.8000001E-01;  9.9999998E-03; -2.3999999E-01;201;  0.0000000E+00;  0.0000000E+00;  0.0000000E+00;  1.0000000E+03;  1.0000000E-01;  0.0000000E+00;0;  0.0000000E+00;  0.0000000E+00;  0.0000000E+00;0;  0.0000000E+00;  4.0000000E+04;  0.0000000E+00;  0.0000000E+00;  4.0000000E+04;  0.0000000E+00;  4.0000000E+04;  0.0000000E+00;  0.0000000E+00;  0.0000000E+00;  0.0000000E+00;
 -1.8000001E-01;  9.9999998E-03; -2.3000000E-01;202;  0.0000000E+00;  0.0000000E+00;  0.0000000E+00;  1.0000000E+03;  1.0000000E-01;  0.0000000E+00;0;  0.0000000E+00;  0.0000000E+00;  0.0000000E+00;0;  0.0000000E+00;  4.0000000E+04;  0.0000000E+00;  0.0000000E+00;  4.0000000E+04;  0.0000000E+00;  4.0000000E+04;  0.0000000E+00;  0.0000000E+00;  0.0000000E+00;  0.0000000E+00;
 -1.8000001E-01;  9.9999998E-03; -2.2000000E-01;203;  0.0000000E+00;  0.0000000E+00;  0.0000000E+00;  1.0000000E+03;  1.0000000E-01;  0.0000000E+00;0;  0.0000000E+00;  0.0000000E+00;  0.0000000E+00;0;  0.0000000E+00;  4.0000000E+04;  0.0000000E+00;  0.0000000E+00;  4.0000000E+04;  0.0000000E+00;  4.0000000E+04;  0.0000000E+00;  0.0000000E+00;  0.0000000E+00;  0.0000000E+00;
 -1.8000001E-01;  9.9999998E-03; -2.0999999E-01;204;  0.0000000E+00;  0.0000000E+00;  0.0000000E+00;  1.0000000E+03;  1.0000000E-01;  0.0000000E+00;0;  0.0000000E+00;  0.0000000E+00;  0.0000000E+00;0;  0.0000000E+00;  4.0000000E+04;  0.0000000E+00;  0.0000000E+00;  4.0000000E+04;  0.0000000E+00;  4.0000000E+04;  0.0000000E+00;  0.0000000E+00;  0.0000000E+00;  0.0000000E+00;
 -1.8000001E-01;  9.9999998E-03; -2.0000000E-01;205;  0.0000000E+00;  0.0000000E+00;  0.0000000E+00;  1.0000000E+03;  1.0000000E-01;  0.0000000E+00;0;  0.0000000E+00;  0.0000000E+00;  0.0000000E+00;0;  0.0000000E+00;  4.0000000E+04;  0.0000000E+00;  0.0000000E+00;  4.0000000E+04;  0.0000000E+00;  4.0000000E+04;  0.0000000E+00;  0.0000000E+00;  0.0000000E+00;  0.0000000E+00;
 -1.8000001E-01;  9.9999998E-03; -1.9000000E-01;206;  0.0000000E+00;  0.0000000E+00;  0.0000000E+00;  1.0000000E+03;  1.0000000E-01;  0.0000000E+00;0;  0.0000000E+00;  0.0000000E+00;  0.0000000E+00;0;  0.0000000E+00;  4.0000000E+04;  0.0000000E+00;  0.0000000E+00;  4.0000000E+04;  0.0000000E+00;  4.0000000E+04;  0.0000000E+00;  0.0000000E+00;  0.0000000E+00;  0.0000000E+00;
 -1.8000001E-01;  9.9999998E-03; -1.8000001E-01;207;  0.0000000E+00;  0.0000000E+00;  0.0000000E+00;  1.0000000E+03;  1.0000000E-01;  0.0000000E+00;0;  0.0000000E+00;  0.0000000E+00;  0.0000000E+00;0;  0.0000000E+00;  4.0000000E+04;  0.0000000E+00;  0.0000000E+00;  4.0000000E+04;  0.0000000E+00;  4.0000000E+04;  0.0000000E+00;  0.0000000E+00;  0.0000000E+00;  0.0000000E+00;
 -1.8000001E-01;  9.9999998E-03; -1.7000000E-01;208;  0.0000000E+00;  0.0000000E+00;  0.0000000E+00;  1.0000000E+03;  1.0000000E-01;  0.0000000E+00;0;  0.0000000E+00;  0.0000000E+00;  0.0000000E+00;0;  0.0000000E+00;  4.0000000E+04;  0.0000000E+00;  0.0000000E+00;  4.0000000E+04;  0.0000000E+00;  4.0000000E+04;  0.0000000E+00;  0.0000000E+00;  0.0000000E+00;  0.0000000E+00;
 -1.8000001E-01;  9.9999998E-03; -1.6000000E-01;209;  0.0000000E+00;  0.0000000E+00;  0.0000000E+00;  1.0000000E+03;  1.0000000E-01;  0.0000000E+00;0;  0.0000000E+00;  0.0000000E+00;  0.0000000E+00;0;  0.0000000E+00;  4.0000000E+04;  0.0000000E+00;  0.0000000E+00;  4.0000000E+04;  0.0000000E+00;  4.0000000E+04;  0.0000000E+00;  0.0000000E+00;  0.0000000E+00;  0.0000000E+00;
 -1.8000001E-01;  9.9999998E-03; -1.5000001E-01;210;  0.0000000E+00;  0.0000000E+00;  0.0000000E+00;  1.0000000E+03;  1.0000000E-01;  0.0000000E+00;0;  0.0000000E+00;  0.0000000E+00;  0.0000000E+00;0;  0.0000000E+00;  4.0000000E+04;  0.0000000E+00;  0.0000000E+00;  4.0000000E+04;  0.0000000E+00;  4.0000000E+04;  0.0000000E+00;  0.0000000E+00;  0.0000000E+00;  0.0000000E+00;
 -1.8000001E-01;  9.9999998E-03; -1.4000000E-01;211;  0.0000000E+00;  0.0000000E+00;  0.0000000E+00;  1.0000000E+03;  1.0000000E-01;  0.0000000E+00;0;  0.0000000E+00;  0.0000000E+00;  0.0000000E+00;0;  0.0000000E+00;  4.0000000E+04;  0.0000000E+00;  0.0000000E+00;  4.0000000E+04;  0.0000000E+00;  4.0000000E+04;  0.0000000E+00;  0.0000000E+00;  0.0000000E+00;  0.0000000E+00;
 -1.8000001E-01;  9.9999998E-03; -1.3000000E-01;212;  0.0000000E+00;  0.0000000E+00;  0.0000000E+00;  1.0000000E+03;  1.0000000E-01;  0.0000000E+00;0;  0.0000000E+00;  0.0000000E+00;  0.0000000E+00;0;  0.0000000E+00;  4.0000000E+04;  0.0000000E+00;  0.0000000E+00;  4.0000000E+04;  0.0000000E+00;  4.0000000E+04;  0.0000000E+00;  0.0000000E+00;  0.0000000E+00;  0.0000000E+00;
 -1.8000001E-01;  9.9999998E-03; -1.2000000E-01;213;  0.0000000E+00;  0.0000000E+00;  0.0000000E+00;  1.0000000E+03;  1.0000000E-01;  0.0000000E+00;0;  0.0000000E+00;  0.0000000E+00;  0.0000000E+00;0;  0.0000000E+00;  4.0000000E+04;  0.0000000E+00;  0.0000000E+00;  4.0000000E+04;  0.0000000E+00;  4.0000000E+04;  0.0000000E+00;  0.0000000E+00;  0.0000000E+00;  0.0000000E+00;
 -1.8000001E-01;  9.9999998E-03; -1.1000000E-01;214;  0.0000000E+00;  0.0000000E+00;  0.0000000E+00;  1.0000000E+03;  1.0000000E-01;  0.0000000E+00;0;  0.0000000E+00;  0.0000000E+00;  0.0000000E+00;0;  0.0000000E+00;  4.0000000E+04;  0.0000000E+00;  0.0000000E+00;  4.0000000E+04;  0.0000000E+00;  4.0000000E+04;  0.0000000E+00;  0.0000000E+00;  0.0000000E+00;  0.0000000E+00;
 -1.7000000E-01;  9.9999998E-03; -2.7000001E-01;289;  0.0000000E+00;  0.0000000E+00;  0.0000000E+00;  1.0000000E+03;  1.0000000E-01;  0.0000000E+00;0;  0.0000000E+00;  0.0000000E+00;  0.0000000E+00;0;  0.0000000E+00;  4.0000000E+04;  0.0000000E+00;  0.0000000E+00;  4.0000000E+04;  0.0000000E+00;  4.0000000E+04;  0.0000000E+00;  0.0000000E+00;  0.0000000E+00;  9.0627929E-11;
 -1.7000000E-01;  9.9999998E-03; -2.5999999E-01;290;  0.0000000E+00;  0.0000000E+00;  0.0000000E+00;  1.0000000E+03;  1.0000000E-01;  0.0000000E+00;0;  0.0000000E+00;  0.0000000E+00;  0.0000000E+00;0;  0.0000000E+00;  4.0000000E+04;  0.0000000E+00;  0.0000000E+00;  4.0000000E+04;  0.0000000E+00;  4.0000000E+04;  0.0000000E+00;  0.0000000E+00;  0.0000000E+00;  2.4658295E-10;
 -1.7000000E-01;  9.9999998E-03; -2.5000000E-01;291;  0.0000000E+00;  0.0000000E+00;  0.0000000E+00;  1.0000000E+03;  1.0000000E-01;  0.0000000E+00;0;  0.0000000E+00;  0.0000000E+00;  0.0000000E+00;0;  0.0000000E+00;  4.0000000E+04;  0.0000000E+00;  0.0000000E+00;  4.0000000E+04;  0.0000000E+00;  4.0000000E+04;  0.0000000E+00;  0.0000000E+00;  0.0000000E+00;  4.6683907E-10;
 -1.7000000E-01;  9.9999998E-03; -2.3999999E-01;292;  0.0000000E+00;  0.0000000E+00;  0.0000000E+00;  1.0000000E+03;  1.0000000E-01;  0.0000000E+00;0;  0.0000000E+00;  0.0000000E+00;  0.0000000E+00;0;  0.0000000E+00;  4.0000000E+04;  0.0000000E+00;  0.0000000E+00;  4.0000000E+04;  0.0000000E+00;  4.0000000E+04;  0.0000000E+00;  0.0000000E+00;  0.0000000E+00;  7.1558121E-10;
 -1.7000000E-01;  9.9999998E-03; -2.3000000E-01;293;  0.0000000E+00;  0.0000000E+00;  0.0000000E+00;  1.0000000E+03;  1.0000000E-01;  0.0000000E+00;0;  0.0000000E+00;  0.0000000E+00;  0.0000000E+00;0;  0.0000000E+00;  4.0000000E+04;  0.0000000E+00;  0.0000000E+00;  4.0000000E+04;  0.0000000E+00;  4.0000000E+04;  0.0000000E+00;  0.0000000E+00;  0.0000000E+00;  9.6112662E-10;
 -1.7000000E-01;  9.9999998E-03; -2.2000000E-01;294;  0.0000000E+00;  0.0000000E+00;  0.0000000E+00;  1.0000000E+03;  1.0000000E-01;  0.0000000E+00;0;  0.0000000E+00;  0.0000000E+00;  0.0000000E+00;0;  0.0000000E+00;  4.0000000E+04;  0.0000000E+00;  0.0000000E+00;  4.0000000E+04;  0.0000000E+00;  4.0000000E+04;  0.0000000E+00;  0.0000000E+00;  0.0000000E+00;  1.1699183E-09;
 -1.7000000E-01;  9.9999998E-03; -2.0999999E-01;295;  0.0000000E+00;  0.0000000E+00;  0.0000000E+00;  1.0000000E+03;  1.0000000E-01;  0.0000000E+00;0;  0.0000000E+00;  0.0000000E+00;  0.0000000E+00;0;  0.0000000E+00;  4.0000000E+04;  0.0000000E+00;  0.0000000E+00;  4.0000000E+04;  0.0000000E+00;  4.0000000E+04;  0.0000000E+00;  0.0000000E+00;  0.0000000E+00;  1.3086691E-09;
 -1.7000000E-01;  9.9999998E-03; -2.0000000E-01;296;  0.0000000E+00;  0.0000000E+00;  0.0000000E+00;  1.0000000E+03;  1.0000000E-01;  0.0000000E+00;0;  0.0000000E+00;  0.0000000E+00;  0.0000000E+00;0;  0.0000000E+00;  4.0000000E+04;  0.0000000E+00;  0.0000000E+00;  4.0000000E+04;  0.0000000E+00;  4.0000000E+04;  0.0000000E+00;  0.0000000E+00;  0.0000000E+00;  1.3572687E-09;
 -1.7000000E-01;  9.9999998E-03; -1.9000000E-01;297;  0.0000000E+00;  0.0000000E+00;  0.0000000E+00;  1.0000000E+03;  1.0000000E-01;  0.0000000E+00;0;  0.0000000E+00;  0.0000000E+00;  0.0000000E+00;0;  0.0000000E+00;  4.0000000E+04;  0.0000000E+00;  0.0000000E+00;  4.0000000E+04;  0.0000000E+00;  4.0000000E+04;  0.0000000E+00;  0.0000000E+00;  0.0000000E+00;  1.3804570E-09;
 -1.7000000E-01;  9.9999998E-03; -1.8000001E-01;298;  0.0000000E+00;  0.0000000E+00;  0.0000000E+00;  1.0000000E+03;  1.0000000E-01;  0.0000000E+00;0;  0.0000000E+00;  0.0000000E+00;  0.0000000E+00;0;  0.0000000E+00;  4.0000000E+04;  0.0000000E+00;  0.0000000E+00;  4.0000000E+04;  0.0000000E+00;  4.0000000E+04;  0.0000000E+00;  0.0000000E+00;  0.0000000E+00;  1.4541069E-09;
 -1.7000000E-01;  9.9999998E-03; -1.7000000E-01;299;  0.0000000E+00;  0.0000000E+00;  0.0000000E+00;  1.0000000E+03;  1.0000000E-01;  0.0000000E+00;0;  0.0000000E+00;  0.0000000E+00;  0.0000000E+00;0;  0.0000000E+00;  4.0000000E+04;  0.0000000E+00;  0.0000000E+00;  4.0000000E+04;  0.0000000E+00;  4.0000000E+04;  0.0000000E+00;  0.0000000E+00;  0.0000000E+00;  1.5733465E-09;
 -1.7000000E-01;  9.9999998E-03; -1.6000000E-01;300;  0.0000000E+00;  0.0000000E+00;  0.0000000E+00;  1.0000000E+03;  1.0000000E-01;  0.0000000E+00;0;  0.0000000E+00;  0.0000000E+00;  0.0000000E+00;0;  0.0000000E+00;  4.0000000E+04;  0.0000000E+00;  0.0000000E+00;  4.0000000E+04;  0.0000000E+00;  4.0000000E+04;  0.0000000E+00;  0.0000000E+00;  0.0000000E+00;  1.7068523E-09;
 -1.7000000E-01;  9.9999998E-03; -1.5000001E-01;301;  0.0000000E+00;  0.0000000E+00;  0.0000000E+00;  1.0000000E+03;  1.0000000E-01;  0.0000000E+00;0;  0.0000000E+00;  0.0000000E+00;  0.0000000E+00;0;  0.0000000E+00;  4.0000000E+04;  0.0000000E+00;  0.0000000E+00;  4.0000000E+04;  0.0000000E+00;  4.0000000E+04;  0.0000000E+00;  0.0000000E+00;  0.0000000E+00;  1.8278684E-09;
 -1.7000000E-01;  9.9999998E-03; -1.4000000E-01;302;  0.0000000E+00;  0.0000000E+00;  0.0000000E+00;  1.0000000E+03;  1.0000000E-01;  0.0000000E+00;0;  0.0000000E+00;  0.0000000E+00;  0.0000000E+00;0;  0.0000000E+00;  4.0000000E+04;  0.0000000E+00;  0.0000000E+00;  4.0000000E+04;  0.0000000E+00;  4.0000000E+04;  0.0000000E+00;  0.0000000E+00;  0.0000000E+00;  1.9071082E-09;
 -1.7000000E-01;  9.9999998E-03; -1.3000000E-01;303;  0.0000000E+00;  0.0000000E+00;  0.0000000E+00;  1.0000000E+03;  1.0000000E-01;  0.0000000E+00;0;  0.0000000E+00;  0.0000000E+00;  0.0000000E+00;0;  0.0000000E+00;  4.0000000E+04;  0.0000000E+00;  0.0000000E+00;  4.0000000E+04;  0.0000000E+00;  4.0000000E+04;  0.0000000E+00;  0.0000000E+00;  0.0000000E+00;  1.9297872E-09;
 -1.7000000E-01;  9.9999998E-03; -1.2000000E-01;304;  0.0000000E+00;  0.0000000E+00;  0.0000000E+00;  1.0000000E+03;  1.0000000E-01;  0.0000000E+00;0;  0.0000000E+00;  0.0000000E+00;  0.0000000E+00;0;  0.0000000E+00;  4.0000000E+04;  0.0000000E+00;  0.0000000E+00;  4.0000000E+04;  0.0000000E+00;  4.0000000E+04;  0.0000000E+00;  0.0000000E+00;  0.0000000E+00;  1.9547151E-09;
 -1.7000000E-01;  9.9999998E-03; -1.1000000E-01;305;  0.0000000E+00;  0.0000000E+00;  0.0000000E+00;  1.0000000E+03;  1.0000000E-01;  0.0000000E+00;0;  0.0000000E+00;  0.0000000E+00;  0.0000000E+00;0;  0.0000000E+00;  4.0000000E+04;  0.0000000E+00;  0.0000000E+00;  4.0000000E+04;  0.0000000E+00;  4.0000000E+04;  0.0000000E+00;  0.0000000E+00;  0.0000000E+00;  1.9624904E-09;
 -1.6000000E-01;  9.9999998E-03; -2.7000001E-01;380;  0.0000000E+00;  0.0000000E+00;  0.0000000E+00;  1.0000000E+03;  1.0000000E-01;  0.0000000E+00;0;  0.0000000E+00;  0.0000000E+00;  0.0000000E+00;0; -3.9771038E-07;  4.0000000E+04;  0.0000000E+00;  0.0000000E+00;  4.0000000E+04;  0.0000000E+00;  4.0000000E+04; -3.9832653E-07;  0.0000000E+00;  6.1614963E-10;  4.0123004E-02;
 -1.6000000E-01;  9.9999998E-03; -2.5999999E-01;381;  0.0000000E+00;  0.0000000E+00;  0.0000000E+00;  1.0000000E+03;  1.0000000E-01;  0.0000000E+00;0;  0.0000000E+00;  0.0000000E+00;  0.0000000E+00;0; -3.3188201E-07;  4.0000000E+04;  0.0000000E+00;  0.0000000E+00;  4.0000000E+04;  0.0000000E+00;  4.0000000E+04; -3.4450005E-07;  0.0000000E+00;  1.2618052E-08;  1.0452879E-01;
 -1.6000000E-01;  9.9999998E-03; -2.5000000E-01;382;  0.0000000E+00;  0.0000000E+00;  0.0000000E+00;  1.0000000E+03;  1.0000000E-01;  0.0000000E+00;0;  0.0000000E+00;  0.0000000E+00;  0.0000000E+00;0; -2.5595554E-07;  4.0000000E+04;  0.0000000E+00;  0.0000000E+00;  4.0000000E+04;  0.0000000E+00;  4.0000000E+04; -2.7304793E-07;  0.0000000E+00;  1.7092386E-08;  1.5355612E-01;
 -1.6000000E-01;  9.9999998E-03; -2.3999999E-01;383;  0.0000000E+00;  0.0000000E+00;  0.0000000E+00;  1.0000000E+03;  1.0000000E-01;  0.0000000E+00;0;  0.0000000E+00;  0.0000000E+00;  0.0000000E+00;0; -2.0176236E-07;  4.0000000E+04;  0.0000000E+00;  0.0000000E+00;  4.0000000E+04;  0.0000000E+00;  4.0000000E+04; -2.1788794E-07;  0.0000000E+00;  1.6125576E-08;  1.8493862E-01;
 -1.6000000E-01;  9.9999998E-03; -2.3000000E-01;384;  0.0000000E+00;  0.0000000E+00;  0.0000000E+00;  1.0000000E+03;  1.0000000E-01;  0.0000000E+00;0;  0.0000000E+00;  0.0000000E+00;  0.0000000E+00;0; -1.8079334E-07;  4.0000000E+04;  0.0000000E+00;  0.0000000E+00;  4.0000000E+04;  0.0000000E+00;  4.0000000E+04; -1.9480592E-07;  0.0000000E+00;  1.4012589E-08;  2.0710312E-01;
 -1.6000000E-01;  9.9999998E-03; -2.2000000E-01;385;  0.0000000E+00;  0.0000000E+00;  0.0000000E+00;  1.0000000E+03;  1.0000000E-01;  0.0000000E+00;0;  0.0000000E+00;  0.0000000E+00;  0.0000000E+00;0; -1.8342182E-07;  4.0000000E+04;  0.0000000E+00;  0.0000000E+00;  4.0000000E+04;  0.0000000E+00;  4.0000000E+04; -1.9504786E-07;  0.0000000E+00;  1.1626039E-08;  2.2517793E-01;
 -1.6000000E-01;  9.9999998E-03; -2.0999999E-01;386;  0.0000000E+00;  0.0000000E+00;  0.0000000E+00;  1.0000000E+03;  1.0000000E-01;  0.0000000E+00;0;  0.0000000E+00;  0.0000000E+00;  0.0000000E+00;0; -1.9861791E-07;  4.0000000E+04;  0.0000000E+00;  0.0000000E+00;  4.0000000E+04;  0.0000000E+00;  4.0000000E+04; -2.0788852E-07;  0.0000000E+00;  9.2706109E-09;  2.4148555E-01;
 -1.6000000E-01;  9.9999998E-03; -2.0000000E-01;387;  0.0000000E+00;  0.0000000E+00;  0.0000000E+00;  1.0000000E+03;  1.0000000E-01;  0.0000000E+00;0;  0.0000000E+00;  0.0000000E+00;  0.0000000E+00;0; -2.1795813E-07;  4.0000000E+04;  0.0000000E+00;  0.0000000E+00;  4.0000000E+04;  0.0000000E+00;  4.0000000E+04; -2.2512684E-07;  0.0000000E+00;  7.1687154E-09;  2.5621799E-01;
 -1.6000000E-01;  9.9999998E-03; -1.9000000E-01;388;  0.0000000E+00;  0.0000000E+00;  0.0000000E+00;  1.0000000E+03;  1.0000000E-01;  0.0000000E+00;0;  0.0000000E+00;  0.0000000E+00;  0.0000000E+00;0; -2.3628652E-07;  4.0000000E+04;  0.0000000E+00;  0.0000000E+00;  4.0000000E+04;  0.0000000E+00;  4.0000000E+04; -2.4172985E-07;  0.0000000E+00;  5.4433267E-09;  2.6849210E-01;
 -1.6000000E-01;  9.9999998E-03; -1.8000001E-01;389;  0.0000000E+00;  0.0000000E+00;  0.0000000E+00;  1.0000000E+03;  1.0000000E-01;  0.0000000E+00;0;  0.0000000E+00;  0.0000000E+00;  0.0000000E+00;0; -2.5114565E-07;  4.0000000E+04;  0.0000000E+00;  0.0000000E+00;  4.0000000E+04;  0.0000000E+00;  4.0000000E+04; -2.5525722E-07;  0.0000000E+00;  4.1115817E-09;  2.7745092E-01;
 -1.6000000E-01;  9.9999998E-03; -1.7000000E-01;390;  0.0000000E+00;  0.0000000E+00;  0.0000000E+00;  1.0000000E+03;  1.0000000E-01;  0.0000000E+00;0;  0.0000000E+00;  0.0000000E+00;  0.0000000E+00;0; -2.6179498E-07;  4.0000000E+04;  0.0000000E+00;  0.0000000E+00;  4.0000000E+04;  0.0000000E+00;  4.0000000E+04; -2.6491222E-07;  0.0000000E+00;  3.1172289E-09;  2.8273526E-01;
 -1.6000000E-01;  9.9999998E-03; -1.6000000E-01;391;  0.0000000E+00;  0.0000000E+00;  0.0000000E+00;  1.0000000E+03;  1.0000000E-01;  0.0000000E+00;0;  0.0000000E+00;  0.0000000E+00;  0.0000000E+00;0; -2.6841346E-07;  4.0000000E+04;  0.0000000E+00;  0.0000000E+00;  4.0000000E+04;  0.0000000E+00;  4.0000000E+04; -2.7079528E-07;  0.0000000E+00;  2.3818303E-09;  2.8450719E-01;
 -1.6000000E-01;  9.9999998E-03; -1.5000001E-01;392;  0.0000000E+00;  0.0000000E+00;  0.0000000E+00;  1.0000000E+03;  1.0000000E-01;  0.0000000E+00;0;  0.0000000E+00;  0.0000000E+00;  0.0000000E+00;0; -2.7168591E-07;  4.0000000E+04;  0.0000000E+00;  0.0000000E+00;  4.0000000E+04;  0.0000000E+00;  4.0000000E+04; -2.7352175E-07;  0.0000000E+00;  1.8358512E-09;  2.8331131E-01;
 -1.6000000E-01;  9.9999998E-03; -1.4000000E-01;393;  0.0000000E+00;  0.0000000E+00;  0.0000000E+00;  1.0000000E+03;  1.0000000E-01;  0.0000000E+00;0;  0.0000000E+00;  0.0000000E+00;  0.0000000E+00;0; -2.7260688E-07;  4.0000000E+04;  0.0000000E+00;  0.0000000E+00;  4.0000000E+04;  0.0000000E+00;  4.0000000E+04; -2.7403243E-07;  0.0000000E+00;  1.4255611E-09;  2.7988765E-01;
 -1.6000000E-01;  9.9999998E-03; -1.3000000E-01;394;  0.0000000E+00;  0.0000000E+00;  0.0000000E+00;  1.0000000E+03;  1.0000000E-01;  0.0000000E+00;0;  0.0000000E+00;  0.0000000E+00;  0.0000000E+00;0; -2.7233904E-07;  4.0000000E+04;  0.0000000E+00;  0.0000000E+00;  4.0000000E+04;  0.0000000E+00;  4.0000000E+04; -2.7345109E-07;  0.0000000E+00;  1.1120628E-09;  2.7506617E-01;
 -1.6000000E-01;  9.9999998E-03; -1.2000000E-01;395;  0.0000000E+00;  0.0000000E+00;  0.0000000E+00;  1.0000000E+03;  1.0000000E-01;  0.0000000E+00;0;  0.0000000E+00;  0.0000000E+00;  0.0000000E+00;0; -2.7204513E-07;  4.0000000E+04;  0.0000000E+00;  0.0000000E+00;  4.0000000E+04;  0.0000000E+00;  4.0000000E+04; -2.7291259E-07;  0.0000000E+00;  8.6745505E-10;  2.6973218E-01;
 -1.6000000E-01;  9.9999998E-03; -1.1000000E-01;396;  0.0000000E+00;  0.0000000E+00;  0.0000000E+00;  1.0000000E+03;  1.0000000E-01;  0.0000000E+00;0;  0.0000000E+00;  0.0000000E+00;  0.0000000E+00;0; -2.7271625E-07;  4.0000000E+04;  0.0000000E+00;  0.0000000E+00;  4.0000000E+04;  0.0000000E+00;  4.0000000E+04; -2.7338834E-07;  0.0000000E+00;  6.7209305E-10;  2.6475498E-01;
 -1.5000001E-01;  9.9999998E-03; -2.7000001E-01;471;  0.0000000E+00;  0.0000000E+00;  0.0000000E+00;  1.0000000E+03;  1.0000000E-01;  0.0000000E+00;0;  0.0000000E+00;  0.0000000E+00;  0.0000000E+00;0; -5.1453962E-06;  4.0000000E+04;  0.0000000E+00;  0.0000000E+00;  4.0000000E+04;  0.0000000E+00;  4.0000000E+04; -4.9141427E-06;  0.0000000E+00; -2.3125375E-07;  3.5086870E-01;
 -1.5000001E-01;  9.9999998E-03; -2.5999999E-01;472;  0.0000000E+00;  0.0000000E+00;  0.0000000E+00;  1.0000000E+03;  1.0000000E-01;  0.0000000E+00;0;  0.0000000E+00;  0.0000000E+00;  0.0000000E+00;0; -4.9111068E-06;  4.0000000E+04;  0.0000000E+00;  0.0000000E+00;  4.0000000E+04;  0.0000000E+00;  4.0000000E+04; -4.8649954E-06;  0.0000000E+00; -4.6111378E-08;  1.1814892E+00;
 -1.5000001E-01;  9.9999998E-03; -2.5000000E-01;473;  0.0000000E+00;  0.0000000E+00;  0.0000000E+00;  1.0000000E+03;  1.0000000E-01;  0.0000000E+00;0;  0.0000000E+00;  0.0000000E+00;  0.0000000E+00;0; -4.5745960E-06;  4.0000000E+04;  0.0000000E+00;  0.0000000E+00;  4.0000000E+04;  0.0000000E+00;  4.0000000E+04; -4.6877285E-06;  0.0000000E+00;  1.1313233E-07;  1.9648998E+00;
 -1.5000001E-01;  9.9999998E-03; -2.3999999E-01;474;  0.0000000E+00;  0.0000000E+00;  0.0000000E+00;  1.0000000E+03;  1.0000000E-01;  0.0000000E+00;0;  0.0000000E+00;  0.0000000E+00;  0.0000000E+00;0; -4.3025680E-06;  4.0000000E+04;  0.0000000E+00;  0.0000000E+00;  4.0000000E+04;  0.0000000E+00;  4.0000000E+04; -4.5230458E-06;  0.0000000E+00;  2.2047807E-07;  2.6087012E+00;
 -1.5000001E-01;  9.9999998E-03; -2.3000000E-01;475;  0.0000000E+00;  0.0000000E+00;  0.0000000E+00;  1.0000000E+03;  1.0000000E-01;  0.0000000E+00;0;  0.0000000E+00;  0.0000000E+00;  0.0000000E+00;0; -4.2118581E-06;  4.0000000E+04;  0.0000000E+00;  0.0000000E+00;  4.0000000E+04;  0.0000000E+00;  4.0000000E+04; -4.4818239E-06;  0.0000000E+00;  2.6996554E-07;  3.0761659E+00;
 -1.5000001E-01;  9.9999998E-03; -2.2000000E-01;476;  0.0000000E+00;  0.0000000E+00;  0.0000000E+00;  1.0000000E+03;  1.0000000E-01;  0.0000000E+00;0;  0.0000000E+00;  0.0000000E+00;  0.0000000E+00;0; -4.3577343E-06;  4.0000000E+04;  0.0000000E+00;  0.0000000E+00;  4.0000000E+04;  0.0000000E+00;  4.0000000E+04; -4.6359692E-06;  0.0000000E+00;  2.7823501E-07;  3.3963223E+00;
 -1.5000001E-01;  9.9999998E-03; -2.0999999E-01;477;  0.0000000E+00;  0.0000000E+00;  0.0000000E+00;  1.0000000E+03;  1.0000000E-01;  0.0000000E+00;0;  0.0000000E+00;  0.0000000E+00;  0.0000000E+00;0; -4.7166282E-06;  4.0000000E+04;  0.0000000E+00;  0.0000000E+00;  4.0000000E+04;  0.0000000E+00;  4.0000000E+04; -4.9855671E-06;  0.0000000E+00;  2.6893883E-07;  3.6315138E+00;
 -1.5000001E-01;  9.9999998E-03; -2.0000000E-01;478;  0.0000000E+00;  0.0000000E+00;  0.0000000E+00;  1.0000000E+03;  1.0000000E-01;  0.0000000E+00;0;  0.0000000E+00;  0.0000000E+00;  0.0000000E+00;0; -5.2005071E-06;  4.0000000E+04;  0.0000000E+00;  0.0000000E+00;  4.0000000E+04;  0.0000000E+00;  4.0000000E+04; -5.4502430E-06;  0.0000000E+00;  2.4973568E-07;  3.8172534E+00;
 -1.5000001E-01;  9.9999998E-03; -1.9000000E-01;479;  0.0000000E+00;  0.0000000E+00;  0.0000000E+00;  1.0000000E+03;  1.0000000E-01;  0.0000000E+00;0;  0.0000000E+00;  0.0000000E+00;  0.0000000E+00;0; -5.7189877E-06;  4.0000000E+04;  0.0000000E+00;  0.0000000E+00;  4.0000000E+04;  0.0000000E+00;  4.0000000E+04; -5.9429399E-06;  0.0000000E+00;  2.2395207E-07;  3.9647799E+00;
 -1.5000001E-01;  9.9999998E-03; -1.8000001E-01;480;  0.0000000E+00;  0.0000000E+00;  0.0000000E+00;  1.0000000E+03;  1.0000000E-01;  0.0000000E+00;0;  0.0000000E+00;  0.0000000E+00;  0.0000000E+00;0; -6.2021772E-06;  4.0000000E+04;  0.0000000E+00;  0.0000000E+00;  4.0000000E+04;  0.0000000E+00;  4.0000000E+04; -6.3972948E-06;  0.0000000E+00;  1.9511731E-07;  4.0734782E+00;
 -1.5000001E-01;  9.9999998E-03; -1.7000000E-01;481;  0.0000000E+00;  0.0000000E+00;  0.0000000E+00;  1.0000000E+03;  1.0000000E-01;  0.0000000E+00;0;  0.0000000E+00;  0.0000000E+00;  0.0000000E+00;0; -6.6063858E-06;  4.0000000E+04;  0.0000000E+00;  0.0000000E+00;  4.0000000E+04;  0.0000000E+00;  4.0000000E+04; -6.7725873E-06;  0.0000000E+00;  1.6620145E-07;  4.1389675E+00;
 -1.5000001E-01;  9.9999998E-03; -1.6000000E-01;482;  0.0000000E+00;  0.0000000E+00;  0.0000000E+00;  1.0000000E+03;  1.0000000E-01;  0.0000000E+00;0;  0.0000000E+00;  0.0000000E+00;  0.0000000E+00;0; -6.9136399E-06;  4.0000000E+04;  0.0000000E+00;  0.0000000E+00;  4.0000000E+04;  0.0000000E+00;  4.0000000E+04; -7.0528445E-06;  0.0000000E+00;  1.3920473E-07;  4.1594515E+00;
 -1.5000001E-01;  9.9999998E-03; -1.5000001E-01;483;  0.0000000E+00;  0.0000000E+00;  0.0000000E+00;  1.0000000E+03;  1.0000000E-01;  0.0000000E+00;0;  0.0000000E+00;  0.0000000E+00;  0.0000000E+00;0; -7.1268464E-06;  4.0000000E+04;  0.0000000E+00;  0.0000000E+00;  4.0000000E+04;  0.0000000E+00;  4.0000000E+04; -7.2419671E-06;  0.0000000E+00;  1.1512076E-07;  4.1381006E+00;
 -1.5000001E-01;  9.9999998E-03; -1.4000000E-01;484;  0.0000000E+00;  0.0000000E+00;  0.0000000E+00;  1.0000000E+03;  1.0000000E-01;  0.0000000E+00;0;  0.0000000E+00;  0.0000000E+00;  0.0000000E+00;0; -7.2630369E-06;  4.0000000E+04;  0.0000000E+00;  0.0000000E+00;  4.0000000E+04;  0.0000000E+00;  4.0000000E+04; -7.3572701E-06;  0.0000000E+00;  9.4233208E-08;  4.0832138E+00;
 -1.5000001E-01;  9.9999998E-03; -1.3000000E-01;485;  0.0000000E+00;  0.0000000E+00;  0.0000000E+00;  1.0000000E+03;  1.0000000E-01;  0.0000000E+00;0;  0.0000000E+00;  0.0000000E+00;  0.0000000E+00;0; -7.3468282E-06;  4.0000000E+04;  0.0000000E+00;  0.0000000E+00;  4.0000000E+04;  0.0000000E+00;  4.0000000E+04; -7.4232885E-06;  0.0000000E+00;  7.6460303E-08;  4.0071797E+00;
 -1.5000001E-01;  9.9999998E-03; -1.2000000E-01;486;  0.0000000E+00;  0.0000000E+00;  0.0000000E+00;  1.0000000E+03;  1.0000000E-01;  0.0000000E+00;0;  0.0000000E+00;  0.0000000E+00;  0.0000000E+00;0; -7.4046688E-06;  4.0000000E+04;  0.0000000E+00;  0.0000000E+00;  4.0000000E+04;  0.0000000E+00;  4.0000000E+04; -7.4662544E-06;  0.0000000E+00;  6.1585745E-08;  3.9246745E+00;
 -1.5000001E-01;  9.9999998E-03; -1.1000000E-01;487;  0.0000000E+00;  0.0000000E+00;  0.0000000E+00;  1.0000000E+03;  1.0000000E-01;  0.0000000E+00;0;  0.0000000E+00;  0.0000000E+00;  0.0000000E+00;0; -7.4602767E-06;  4.0000000E+04;  0.0000000E+00;  0.0000000E+00;  4.0000000E+04;  0.0000000E+00;  4.0000000E+04; -7.5097114E-06;  0.0000000E+00;  4.9434476E-08;  3.8501029E+00;
 -1.4000000E-01;  9.9999998E-03; -2.7000001E-01;562;  0.0000000E+00;  0.0000000E+00;  0.0000000E+00;  1.0000000E+03;  1.0000000E-01;  0.0000000E+00;0;  0.0000000E+00;  0.0000000E+00;  0.0000000E+00;0; -2.6604846E-05;  4.0000000E+04;  0.0000000E+00;  0.0000000E+00;  4.0000000E+04;  0.0000000E+00;  4.0000000E+04; -2.4943634E-05;  0.0000000E+00; -1.6612122E-06;  1.5634925E+00;
 -1.4000000E-01;  9.9999998E-03; -2.5999999E-01;563;  0.0000000E+00;  0.0000000E+00;  0.0000000E+00;  1.0000000E+03;  1.0000000E-01;  0.0000000E+00;0;  0.0000000E+00;  0.0000000E+00;  0.0000000E+00;0; -2.6907377E-05;  4.0000000E+04;  0.0000000E+00;  0.0000000E+00;  4.0000000E+04;  0.0000000E+00;  4.0000000E+04; -2.6102063E-05;  0.0000000E+00; -8.0531350E-07;  5.3418937E+00;
 -1.4000000E-01;  9.9999998E-03; -2.5000000E-01;564;  0.0000000E+00;  0.0000000E+00;  0.0000000E+00;  1.0000000E+03;  1.0000000E-01;  0.0000000E+00;0;  0.0000000E+00;  0.0000000E+00;  0.0000000E+00;0; -2.6820544E-05;  4.0000000E+04;  0.0000000E+00;  0.0000000E+00;  4.0000000E+04;  0.0000000E+00;  4.0000000E+04; -2.6850445E-05;  0.0000000E+00;  2.9901244E-08;  8.9829082E+00;
 -1.4000000E-01;  9.9999998E-03; -2.3999999E-01;565;  0.0000000E+00;  0.0000000E+00;  0.0000000E+00;  1.0000000E+03;  1.0000000E-01;  0.0000000E+00;0;  0.0000000E+00;  0.0000000E+00;  0.0000000E+00;0; -2.6820791E-05;  4.0000000E+04;  0.0000000E+00;  0.0000000E+00;  4.0000000E+04;  0.0000000E+00;  4.0000000E+04; -2.7548751E-05;  0.0000000E+00;  7.2795905E-07;  1.2109398E+01;
 -1.4000000E-01;  9.9999998E-03; -2.3000000E-01;566;  0.0000000E+00;  0.0000000E+00;  0.0000000E+00;  1.0000000E+03;  1.0000000E-01;  0.0000000E+00;0;  0.0000000E+00;  0.0000000E+00;  0.0000000E+00;0; -2.7298001E-05;  4.0000000E+04;  0.0000000E+00;  0.0000000E+00;  4.0000000E+04;  0.0000000E+00;  4.0000000E+04; -2.8519989E-05;  0.0000000E+00;  1.2219873E-06;  1.4521557E+01;
 -1.4000000E-01;  9.9999998E-03; -2.2000000E-01;567;  0.0000000E+00;  0.0000000E+00;  0.0000000E+00;  1.0000000E+03;  1.0000000E-01;  0.0000000E+00;0;  0.0000000E+00;  0.0000000E+00;  0.0000000E+00;0; -2.8469938E-05;  4.0000000E+04;  0.0000000E+00;  0.0000000E+00;  4.0000000E+04;  0.0000000E+00;  4.0000000E+04; -2.9973684E-05;  0.0000000E+00;  1.5037465E-06;  1.6211130E+01;
 -1.4000000E-01;  9.9999998E-03; -2.0999999E-01;568;  0.0000000E+00;  0.0000000E+00;  0.0000000E+00;  1.0000000E+03;  1.0000000E-01;  0.0000000E+00;0;  0.0000000E+00;  0.0000000E+00;  0.0000000E+00;0; -3.0325862E-05;  4.0000000E+04;  0.0000000E+00;  0.0000000E+00;  4.0000000E+04;  0.0000000E+00;  4.0000000E+04; -3.1933465E-05;  0.0000000E+00;  1.6076023E-06;  1.7294628E+01;
 -1.4000000E-01;  9.9999998E-03; -2.0000000E-01;569;  0.0000000E+00;  0.0000000E+00;  0.0000000E+00;  1.0000000E+03;  1.0000000E-01;  0.0000000E+00;0;  0.0000000E+00;  0.0000000E+00;  0.0000000E+00;0; -3.2690969E-05;  4.0000000E+04;  0.0000000E+00;  0.0000000E+00;  4.0000000E+04;  0.0000000E+00;  4.0000000E+04; -3.4288638E-05;  0.0000000E+00;  1.5976702E-06;  1.7968365E+01;
 -1.4000000E-01;  9.9999998E-03; -1.9000000E-01;570;  0.0000000E+00;  0.0000000E+00;  0.0000000E+00;  1.0000000E+03;  1.0000000E-01;  0.0000000E+00;0;  0.0000000E+00;  0.0000000E+00;  0.0000000E+00;0; -3.5284411E-05;  4.0000000E+04;  0.0000000E+00;  0.0000000E+00;  4.0000000E+04;  0.0000000E+00;  4.0000000E+04; -3.6808746E-05;  0.0000000E+00;  1.5243353E-06;  1.8401592E+01;
 -1.4000000E-01;  9.9999998E-03; -1.8000001E-01;571;  0.0000000E+00;  0.0000000E+00;  0.0000000E+00;  1.0000000E+03;  1.0000000E-01;  0.0000000E+00;0;  0.0000000E+00;  0.0000000E+00;  0.0000000E+00;0; -3.7812424E-05;  4.0000000E+04;  0.0000000E+00;  0.0000000E+00;  4.0000000E+04;  0.0000000E+00;  4.0000000E+04; -3.9218146E-05;  0.0000000E+00;  1.4057240E-06;  1.8662098E+01;
 -1.4000000E-01;  9.9999998E-03; -1.7000000E-01;572;  0.0000000E+00;  0.0000000E+00;  0.0000000E+00;  1.0000000E+03;  1.0000000E-01;  0.0000000E+00;0;  0.0000000E+00;  0.0000000E+00;  0.0000000E+00;0; -4.0056984E-05;  4.0000000E+04;  0.0000000E+00;  0.0000000E+00;  4.0000000E+04;  0.0000000E+00;  4.0000000E+04; -4.1316067E-05;  0.0000000E+00;  1.2590841E-06;  1.8767738E+01;
 -1.4000000E-01;  9.9999998E-03; -1.6000000E-01;573;  0.0000000E+00;  0.0000000E+00;  0.0000000E+00;  1.0000000E+03;  1.0000000E-01;  0.0000000E+00;0;  0.0000000E+00;  0.0000000E+00;  0.0000000E+00;0; -4.1895437E-05;  4.0000000E+04;  0.0000000E+00;  0.0000000E+00;  4.0000000E+04;  0.0000000E+00;  4.0000000E+04; -4.2996006E-05;  0.0000000E+00;  1.1005677E-06;  1.8719873E+01;
 -1.4000000E-01;  9.9999998E-03; -1.5000001E-01;574;  0.0000000E+00;  0.0000000E+00;  0.0000000E+00;  1.0000000E+03;  1.0000000E-01;  0.0000000E+00;0;  0.0000000E+00;  0.0000000E+00;  0.0000000E+00;0; -4.3297863E-05;  4.0000000E+04;  0.0000000E+00;  0.0000000E+00;  4.0000000E+04;  0.0000000E+00;  4.0000000E+04; -4.4240838E-05;  0.0000000E+00;  9.4297673E-07;  1.8528555E+01;
 -1.4000000E-01;  9.9999998E-03; -1.4000000E-01;575;  0.0000000E+00;  0.0000000E+00;  0.0000000E+00;  1.0000000E+03;  1.0000000E-01;  0.0000000E+00;0;  0.0000000E+00;  0.0000000E+00;  0.0000000E+00;0; -4.4309068E-05;  4.0000000E+04;  0.0000000E+00;  0.0000000E+00;  4.0000000E+04;  0.0000000E+00;  4.0000000E+04; -4.5104047E-05;  0.0000000E+00;  7.9497977E-07;  1.8224066E+01;
 -1.4000000E-01;  9.9999998E-03; -1.3000000E-01;576;  0.0000000E+00;  0.0000000E+00;  0.0000000E+00;  1.0000000E+03;  1.0000000E-01;  0.0000000E+00;0;  0.0000000E+00;  0.0000000E+00;  0.0000000E+00;0; -4.5022152E-05;  4.0000000E+04;  0.0000000E+00;  0.0000000E+00;  4.0000000E+04;  0.0000000E+00;  4.0000000E+04; -4.5683868E-05;  0.0000000E+00;  6.6171521E-07;  1.7856222E+01;
 -1.4000000E-01;  9.9999998E-03; -1.2000000E-01;577;  0.0000000E+00;  0.0000000E+00;  0.0000000E+00;  1.0000000E+03;  1.0000000E-01;  0.0000000E+00;0;  0.0000000E+00;  0.0000000E+00;  0.0000000E+00;0; -4.5550096E-05;  4.0000000E+04;  0.0000000E+00;  0.0000000E+00;  4.0000000E+04;  0.0000000E+00;  4.0000000E+04; -4.6096240E-05;  0.0000000E+00;  5.4614515E-07;  1.7485296E+01;
 -1.4000000E-01;  9.9999998E-03; -1.1000000E-01;578;  0.0000000E+00;  0.0000000E+00;  0.0000000E+00;  1.0000000E+03;  1.0000000E-01;  0.0000000E+00;0;  0.0000000E+00;  0.0000000E+00;  0.0000000E+00;0; -4.6001893E-05;  4.0000000E+04;  0.0000000E+00;  0.0000000E+00;  4.0000000E+04;  0.0000000E+00;  4.0000000E+04; -4.6452231E-05;  0.0000000E+00;  4.5033741E-07;  1.7169998E+01;
 -1.3000000E-01;  9.9999998E-03; -2.7000001E-01;653;  0.0000000E+00;  0.0000000E+00;  0.0000000E+00;  1.0000000E+03;  1.0000000E-01;  0.0000000E+00;0;  0.0000000E+00;  0.0000000E+00;  0.0000000E+00;0; -8.8650166E-05;  4.0000000E+04;  0.0000000E+00;  0.0000000E+00;  4.0000000E+04;  0.0000000E+00;  4.0000000E+04; -8.2414808E-05;  0.0000000E+00; -6.2353593E-06;  4.7395930E+00;
 -1.3000000E-01;  9.9999998E-03; -2.5999999E-01;654;  0.0000000E+00;  0.0000000E+00;  0.0000000E+00;  1.0000023E+03;  1.0000000E-01;  1.8764901E+00;0;  0.0000000E+00;  0.0000000E+00;  0.0000000E+00;0; -9.2579743E-05;  4.0000000E+04;  0.0000000E+00;  0.0000000E+00;  4.0000000E+04;  0.0000000E+00;  4.0000000E+04; -8.8902190E-05;  0.0000000E+00; -3.6775537E-06;  1.5839528E+01;
 -1.3000000E-01;  9.9999998E-03; -2.5000000E-01;655;  0.0000000E+00;  0.0000000E+00;  0.0000000E+00;  1.0000066E+03;  1.0000000E-01;  5.4319453E+00;0;  0.0000000E+00;  0.0000000E+00;  0.0000000E+00;0; -9.5498617E-05;  4.0000000E+04;  0.0000000E+00;  0.0000000E+00;  4.0000000E+04;  0.0000000E+00;  4.0000000E+04; -9.4455485E-05;  0.0000000E+00; -1.0431320E-06;  2.6542669E+01;
 -1.3000000E-01;  9.9999998E-03; -2.3999999E-01;656;  0.0000000E+00;  0.0000000E+00;  0.0000000E+00;  1.0000064E+03;  1.0000000E-01;  5.3331823E+00;0;  0.0000000E+00;  0.0000000E+00;  0.0000000E+00;0; -9.8332734E-05;  4.0000000E+04;  0.0000000E+00;  0.0000000E+00;  4.0000000E+04;  0.0000000E+00;  4.0000000E+04; -9.9679099E-05;  0.0000000E+00;  1.3463654E-06;  3.5814400E+01;
 -1.3000000E-01;  9.9999998E-03; -2.3000000E-01;657;  0.0000000E+00;  0.0000000E+00;  0.0000000E+00;  1.0000078E+03;  1.0000000E-01;  6.4195714E+00;0;  0.0000000E+00;  0.0000000E+00;  0.0000000E+00;0; -1.0190962E-04;  4.0000000E+04;  0.0000000E+00;  0.0000000E+00;  4.0000000E+04;  0.0000000E+00;  4.0000000E+04; -1.0516914E-04;  0.0000000E+00;  3.2595169E-06;  4.3034756E+01;
 -1.3000000E-01;  9.9999998E-03; -2.2000000E-01;658;  0.0000000E+00;  0.0000000E+00;  0.0000000E+00;  1.0000148E+03;  1.0000000E-01;  1.2246567E+01;0;  0.0000000E+00;  0.0000000E+00;  0.0000000E+00;0; -1.0676990E-04;  4.0000000E+04;  0.0000000E+00;  0.0000000E+00;  4.0000000E+04;  0.0000000E+00;  4.0000000E+04; -1.1136045E-04;  0.0000000E+00;  4.5905504E-06;  4.8063427E+01;
 -1.3000000E-01;  9.9999998E-03; -2.0999999E-01;659;  0.0000000E+00;  0.0000000E+00;  0.0000000E+00;  1.0000168E+03;  1.0000000E-01;  1.3925532E+01;0;  0.0000000E+00;  0.0000000E+00;  0.0000000E+00;0; -1.1302187E-04;  4.0000000E+04;  0.0000000E+00;  0.0000000E+00;  4.0000000E+04;  0.0000000E+00;  4.0000000E+04; -1.1837365E-04;  0.0000000E+00;  5.3517779E-06;  5.1144089E+01;
 -1.3000000E-01;  9.9999998E-03; -2.0000000E-01;660;  0.0000000E+00;  0.0000000E+00;  0.0000000E+00;  1.0000192E+03;  1.0000000E-01;  1.5900784E+01;0;  0.0000000E+00;  0.0000000E+00;  0.0000000E+00;0; -1.2037465E-04;  4.0000000E+04;  0.0000000E+00;  0.0000000E+00;  4.0000000E+04;  0.0000000E+00;  4.0000000E+04; -1.2601526E-04;  0.0000000E+00;  5.6406107E-06;  5.2738815E+01;
 -1.3000000E-01;  9.9999998E-03; -1.9000000E-01;661;  0.0000000E+00;  0.0000000E+00;  0.0000000E+00;  1.0000222E+03;  1.0000000E-01;  1.8369850E+01;0;  0.0000000E+00;  0.0000000E+00;  0.0000000E+00;0; -1.2826348E-04;  4.0000000E+04;  0.0000000E+00;  0.0000000E+00;  4.0000000E+04;  0.0000000E+00;  4.0000000E+04; -1.3385560E-04;  0.0000000E+00;  5.5921314E-06;  5.3342705E+01;
 -1.3000000E-01;  9.9999998E-03; -1.8000001E-01;662;  0.0000000E+00;  0.0000000E+00;  0.0000000E+00;  1.0000242E+03;  1.0000000E-01;  2.0048815E+01;0;  0.0000000E+00;  0.0000000E+00;  0.0000000E+00;0; -1.3604829E-04;  4.0000000E+04;  0.0000000E+00;  0.0000000E+00;  4.0000000E+04;  0.0000000E+00;  4.0000000E+04; -1.4138386E-04;  0.0000000E+00;  5.3355798E-06;  5.3370995E+01;
 -1.3000000E-01;  9.9999998E-03; -1.7000000E-01;663;  0.0000000E+00;  0.0000000E+00;  0.0000000E+00;  1.0000256E+03;  1.0000000E-01;  2.1233967E+01;0;  0.0000000E+00;  0.0000000E+00;  0.0000000E+00;0; -1.4316077E-04;  4.0000000E+04;  0.0000000E+00;  0.0000000E+00;  4.0000000E+04;  0.0000000E+00;  4.0000000E+04; -1.4809695E-04;  0.0000000E+00;  4.9361911E-06;  5.3022705E+01;
 -1.3000000E-01;  9.9999998E-03; -1.6000000E-01;664;  0.0000000E+00;  0.0000000E+00;  0.0000000E+00;  1.0000266E+03;  1.0000000E-01;  2.2024069E+01;0;  0.0000000E+00;  0.0000000E+00;  0.0000000E+00;0; -1.4923286E-04;  4.0000000E+04;  0.0000000E+00;  0.0000000E+00;  4.0000000E+04;  0.0000000E+00;  4.0000000E+04; -1.5367936E-04;  0.0000000E+00;  4.4465050E-06;  5.2376980E+01;
 -1.3000000E-01;  9.9999998E-03; -1.5000001E-01;665;  0.0000000E+00;  0.0000000E+00;  0.0000000E+00;  1.0000271E+03;  1.0000000E-01;  2.2419119E+01;0;  0.0000000E+00;  0.0000000E+00;  0.0000000E+00;0; -1.5412063E-04;  4.0000000E+04;  0.0000000E+00;  0.0000000E+00;  4.0000000E+04;  0.0000000E+00;  4.0000000E+04; -1.5803639E-04;  0.0000000E+00;  3.9157553E-06;  5.1484631E+01;
 -1.3000000E-01;  9.9999998E-03; -1.4000000E-01;666;  0.0000000E+00;  0.0000000E+00;  0.0000000E+00;  1.0000283E+03;  1.0000000E-01;  2.3406746E+01;0;  0.0000000E+00;  0.0000000E+00;  0.0000000E+00;0; -1.5787869E-04;  4.0000000E+04;  0.0000000E+00;  0.0000000E+00;  4.0000000E+04;  0.0000000E+00;  4.0000000E+04; -1.6126347E-04;  0.0000000E+00;  3.3847743E-06;  5.0419941E+01;
 -1.3000000E-01;  9.9999998E-03; -1.3000000E-01;667;  0.0000000E+00;  0.0000000E+00;  0.0000000E+00;  1.0000285E+03;  1.0000000E-01;  2.3604271E+01;0;  0.0000000E+00;  0.0000000E+00;  0.0000000E+00;0; -1.6070649E-04;  4.0000000E+04;  0.0000000E+00;  0.0000000E+00;  4.0000000E+04;  0.0000000E+00;  4.0000000E+04; -1.6359102E-04;  0.0000000E+00;  2.8845238E-06;  4.9297199E+01;
 -1.3000000E-01;  9.9999998E-03; -1.2000000E-01;668;  0.0000000E+00;  0.0000000E+00;  0.0000000E+00;  1.0000282E+03;  1.0000000E-01;  2.3406746E+01;0;  0.0000000E+00;  0.0000000E+00;  0.0000000E+00;0; -1.6287953E-04;  4.0000000E+04;  0.0000000E+00;  0.0000000E+00;  4.0000000E+04;  0.0000000E+00;  4.0000000E+04; -1.6531709E-04;  0.0000000E+00;  2.4375565E-06;  4.8256027E+01;
 -1.3000000E-01;  9.9999998E-03; -1.1000000E-01;669;  0.0000000E+00;  0.0000000E+00;  0.0000000E+00;  1.0000276E+03;  1.0000000E-01;  2.2912931E+01;0;  0.0000000E+00;  0.0000000E+00;  0.0000000E+00;0; -1.6468442E-04;  4.0000000E+04;  0.0000000E+00;  0.0000000E+00;  4.0000000E+04;  0.0000000E+00;  4.0000000E+04; -1.6674516E-04;  0.0000000E+00;  2.0607472E-06;  4.7432919E+01;
 -1.2000000E-01;  9.9999998E-03; -2.7000001E-01;744;  0.0000000E+00;  0.0000000E+00;  0.0000000E+00;  1.0000247E+03;  1.0000000E-01;  2.0443867E+01;0;  0.0000000E+00;  0.0000000E+00;  0.0000000E+00;0; -2.2766191E-04;  4.0000000E+04;  0.0000000E+00;  0.0000000E+00;  4.0000000E+04;  0.0000000E+00;  4.0000000E+04; -2.1065086E-04;  0.0000000E+00; -1.7011049E-05;  1.1405339E+01;
 -1.2000000E-01;  9.9999998E-03; -2.5999999E-01;745;  0.0000000E+00;  0.0000000E+00;  0.0000000E+00;  1.0000195E+03;  1.0000000E-01;  1.6098310E+01;0;  0.0000000E+00;  0.0000000E+00;  0.0000000E+00;0; -2.4224953E-04;  4.0000000E+04;  0.0000000E+00;  0.0000000E+00;  4.0000000E+04;  0.0000000E+00;  4.0000000E+04; -2.3123506E-04;  0.0000000E+00; -1.1014470E-05;  3.6715336E+01;
 -1.2000000E-01;  9.9999998E-03; -2.5000000E-01;746;  0.0000000E+00;  0.0000000E+00;  0.0000000E+00;  1.0000235E+03;  1.0000000E-01;  1.9456240E+01;0;  0.0000000E+00;  0.0000000E+00;  0.0000000E+00;0; -2.5473116E-04;  4.0000000E+04;  0.0000000E+00;  0.0000000E+00;  4.0000000E+04;  0.0000000E+00;  4.0000000E+04; -2.5007987E-04;  0.0000000E+00; -4.6512769E-06;  6.1030781E+01;
 -1.2000000E-01;  9.9999998E-03; -2.3999999E-01;747;  0.0000000E+00;  0.0000000E+00;  0.0000000E+00;  1.0000269E+03;  1.0000000E-01;  2.2221594E+01;0;  0.0000000E+00;  0.0000000E+00;  0.0000000E+00;0; -2.6656041E-04;  4.0000000E+04;  0.0000000E+00;  0.0000000E+00;  4.0000000E+04;  0.0000000E+00;  4.0000000E+04; -2.6794311E-04;  0.0000000E+00;  1.3826913E-06;  8.2111542E+01;
 -1.2000000E-01;  9.9999998E-03; -2.3000000E-01;748;  0.0000000E+00;  0.0000000E+00;  0.0000000E+00;  1.0000310E+03;  1.0000000E-01;  2.5678286E+01;0;  0.0000000E+00;  0.0000000E+00;  0.0000000E+00;0; -2.7911476E-04;  4.0000000E+04;  0.0000000E+00;  0.0000000E+00;  4.0000000E+04;  0.0000000E+00;  4.0000000E+04; -2.8564304E-04;  0.0000000E+00;  6.5282661E-06;  9.8524399E+01;
 -1.2000000E-01;  9.9999998E-03; -2.2000000E-01;749;  0.0000000E+00;  0.0000000E+00;  0.0000000E+00;  1.0000410E+03;  1.0000000E-01;  3.3974346E+01;0;  0.0000000E+00;  0.0000000E+00;  0.0000000E+00;0; -2.9337814E-04;  4.0000000E+04;  0.0000000E+00;  0.0000000E+00;  4.0000000E+04;  0.0000000E+00;  4.0000000E+04; -3.0382481E-04;  0.0000000E+00;  1.0446683E-05;  1.0979854E+02;
 -1.2000000E-01;  9.9999998E-03; -2.0999999E-01;750;  0.0000000E+00;  0.0000000E+00;  0.0000000E+00;  1.0000439E+03;  1.0000000E-01;  3.6344650E+01;0;  0.0000000E+00;  0.0000000E+00;  0.0000000E+00;0; -3.0968411E-04;  4.0000000E+04;  0.0000000E+00;  0.0000000E+00;  4.0000000E+04;  0.0000000E+00;  4.0000000E+04; -3.2272501E-04;  0.0000000E+00;  1.3040894E-05;  1.1633570E+02;
 -1.2000000E-01;  9.9999998E-03; -2.0000000E-01;751;  0.0000000E+00;  0.0000000E+00;  0.0000000E+00;  1.0000474E+03;  1.0000000E-01;  3.9307529E+01;0;  0.0000000E+00;  0.0000000E+00;  0.0000000E+00;0; -3.2769077E-04;  4.0000000E+04;  0.0000000E+00;  0.0000000E+00;  4.0000000E+04;  0.0000000E+00;  4.0000000E+04; -3.4211209E-04;  0.0000000E+00;  1.4421313E-05;  1.1911304E+02;
 -1.2000000E-01;  9.9999998E-03; -1.9000000E-01;752;  0.0000000E+00;  0.0000000E+00;  0.0000000E+00;  1.0000543E+03;  1.0000000E-01;  4.4937000E+01;0;  0.0000000E+00;  0.0000000E+00;  0.0000000E+00;0; -3.4650674E-04;  4.0000000E+04;  0.0000000E+00;  0.0000000E+00;  4.0000000E+04;  0.0000000E+00;  4.0000000E+04; -3.6132836E-04;  0.0000000E+00;  1.4821627E-05;  1.1928593E+02;
 -1.2000000E-01;  9.9999998E-03; -1.8000001E-01;753;  0.0000000E+00;  0.0000000E+00;  0.0000000E+00;  1.0000614E+03;  1.0000000E-01;  5.0862759E+01;0;  0.0000000E+00;  0.0000000E+00;  0.0000000E+00;0; -3.6499125E-04;  4.0000000E+04;  0.0000000E+00;  0.0000000E+00;  4.0000000E+04;  0.0000000E+00;  4.0000000E+04; -3.7950353E-04;  0.0000000E+00;  1.4512289E-05;  1.1787870E+02;
 -1.2000000E-01;  9.9999998E-03; -1.7000000E-01;754;  0.0000000E+00;  0.0000000E+00;  0.0000000E+00;  1.0000712E+03;  1.0000000E-01;  5.8961296E+01;0;  0.0000000E+00;  0.0000000E+00;  0.0000000E+00;0; -3.8208271E-04;  4.0000000E+04;  0.0000000E+00;  0.0000000E+00;  4.0000000E+04;  0.0000000E+00;  4.0000000E+04; -3.9582691E-04;  0.0000000E+00;  1.3744209E-05;  1.1566806E+02;
 -1.2000000E-01;  9.9999998E-03; -1.6000000E-01;755;  0.0000000E+00;  0.0000000E+00;  0.0000000E+00;  1.0000796E+03;  1.0000000E-01;  6.5973442E+01;0;  0.0000000E+00;  0.0000000E+00;  0.0000000E+00;0; -3.9701379E-04;  4.0000000E+04;  0.0000000E+00;  0.0000000E+00;  4.0000000E+04;  0.0000000E+00;  4.0000000E+04; -4.0968327E-04;  0.0000000E+00;  1.2669469E-05;  1.1305989E+02;
 -1.2000000E-01;  9.9999998E-03; -1.5000001E-01;756;  0.0000000E+00;  0.0000000E+00;  0.0000000E+00;  1.0000903E+03;  1.0000000E-01;  7.4862083E+01;0;  0.0000000E+00;  0.0000000E+00;  0.0000000E+00;0; -4.0942369E-04;  4.0000000E+04;  0.0000000E+00;  0.0000000E+00;  4.0000000E+04;  0.0000000E+00;  4.0000000E+04; -4.2083487E-04;  0.0000000E+00;  1.1411175E-05;  1.1025758E+02;
 -1.2000000E-01;  9.9999998E-03; -1.4000000E-01;757;  0.0000000E+00;  0.0000000E+00;  0.0000000E+00;  1.0000942E+03;  1.0000000E-01;  7.8022484E+01;0;  0.0000000E+00;  0.0000000E+00;  0.0000000E+00;0; -4.1934010E-04;  4.0000000E+04;  0.0000000E+00;  0.0000000E+00;  4.0000000E+04;  0.0000000E+00;  4.0000000E+04; -4.2942338E-04;  0.0000000E+00;  1.0083290E-05;  1.0742355E+02;
 -1.2000000E-01;  9.9999998E-03; -1.3000000E-01;758;  0.0000000E+00;  0.0000000E+00;  0.0000000E+00;  1.0000935E+03;  1.0000000E-01;  7.7429909E+01;0;  0.0000000E+00;  0.0000000E+00;  0.0000000E+00;0; -4.2709327E-04;  4.0000000E+04;  0.0000000E+00;  0.0000000E+00;  4.0000000E+04;  0.0000000E+00;  4.0000000E+04; -4.3587640E-04;  0.0000000E+00;  8.7831359E-06;  1.0475123E+02;
 -1.2000000E-01;  9.9999998E-03; -1.2000000E-01;759;  0.0000000E+00;  0.0000000E+00;  0.0000000E+00;  1.0000923E+03;  1.0000000E-01;  7.6442284E+01;0;  0.0000000E+00;  0.0000000E+00;  0.0000000E+00;0; -4.3319643E-04;  4.0000000E+04;  0.0000000E+00;  0.0000000E+00;  4.0000000E+04;  0.0000000E+00;  4.0000000E+04; -4.4078619E-04;  0.0000000E+00;  7.5897651E-06;  1.0246958E+02;
 -1.2000000E-01;  9.9999998E-03; -1.1000000E-01;760;  0.0000000E+00;  0.0000000E+00;  0.0000000E+00;  1.0000908E+03;  1.0000000E-01;  7.5158371E+01;0;  0.0000000E+00;  0.0000000E+00;  0.0000000E+00;0; -4.3822007E-04;  4.0000000E+04;  0.0000000E+00;  0.0000000E+00;  4.0000000E+04;  0.0000000E+00;  4.0000000E+04; -4.4478610E-04;  0.0000000E+00;  6.5660242E-06;  1.0080353E+02;
 -1.1000000E-01;  9.9999998E-03; -2.7000001E-01;835;  0.0000000E+00;  0.0000000E+00;  0.0000000E+00;  1.0000635E+03;  1.0000000E-01;  5.2640488E+01;0;  0.0000000E+00;  0.0000000E+00;  0.0000000E+00;0; -4.9294764E-04;  4.0000000E+04;  0.0000000E+00;  0.0000000E+00;  4.0000000E+04;  0.0000000E+00;  4.0000000E+04; -4.5473009E-04;  0.0000000E+00; -3.8217579E-05;  2.3762386E+01;
 -1.1000000E-01;  9.9999998E-03; -2.5999999E-01;836;  0.0000000E+00;  0.0000000E+00;  0.0000000E+00;  1.0000718E+03;  1.0000000E-01;  5.9455109E+01;0;  0.0000000E+00;  0.0000000E+00;  0.0000000E+00;0; -5.3054426E-04;  4.0000000E+04;  0.0000000E+00;  0.0000000E+00;  4.0000000E+04;  0.0000000E+00;  4.0000000E+04; -5.0435564E-04;  0.0000000E+00; -2.6188594E-05;  7.2611160E+01;
 -1.1000000E-01;  9.9999998E-03; -2.5000000E-01;837;  0.0000000E+00;  0.0000000E+00;  0.0000000E+00;  1.0000757E+03;  1.0000000E-01;  6.2714275E+01;0;  0.0000000E+00;  0.0000000E+00;  0.0000000E+00;0; -5.6429778E-04;  4.0000000E+04;  0.0000000E+00;  0.0000000E+00;  4.0000000E+04;  0.0000000E+00;  4.0000000E+04; -5.5111299E-04;  0.0000000E+00; -1.3184771E-05;  1.1936970E+02;
 -1.1000000E-01;  9.9999998E-03; -2.3999999E-01;838;  0.0000000E+00;  0.0000000E+00;  0.0000000E+00;  1.0000778E+03;  1.0000000E-01;  6.4492004E+01;0;  0.0000000E+00;  0.0000000E+00;  0.0000000E+00;0; -5.9620244E-04;  4.0000000E+04;  0.0000000E+00;  0.0000000E+00;  4.0000000E+04;  0.0000000E+00;  4.0000000E+04; -5.9569540E-04;  0.0000000E+00; -5.0702664E-07;  1.5983368E+02;
 -1.1000000E-01;  9.9999998E-03; -2.3000000E-01;839;  0.0000000E+00;  0.0000000E+00;  0.0000000E+00;  1.0000969E+03;  1.0000000E-01;  8.0294022E+01;0;  0.0000000E+00;  0.0000000E+00;  0.0000000E+00;0; -6.2823686E-04;  4.0000000E+04;  0.0000000E+00;  0.0000000E+00;  4.0000000E+04;  0.0000000E+00;  4.0000000E+04; -6.3896889E-04;  0.0000000E+00;  1.0732045E-05;  1.9125258E+02;
 -1.1000000E-01;  9.9999998E-03; -2.2000000E-01;840;  0.0000000E+00;  0.0000000E+00;  0.0000000E+00;  1.0001044E+03;  1.0000000E-01;  8.6516075E+01;0;  0.0000000E+00;  0.0000000E+00;  0.0000000E+00;0; -6.6189951E-04;  4.0000000E+04;  0.0000000E+00;  0.0000000E+00;  4.0000000E+04;  0.0000000E+00;  4.0000000E+04; -6.8166450E-04;  0.0000000E+00;  1.9764992E-05;  2.1255194E+02;
 -1.1000000E-01;  9.9999998E-03; -2.0999999E-01;841;  0.0000000E+00;  0.0000000E+00;  0.0000000E+00;  1.0001235E+03;  1.0000000E-01;  1.0231809E+02;0;  0.0000000E+00;  0.0000000E+00;  0.0000000E+00;0; -6.9781783E-04;  4.0000000E+04;  0.0000000E+00;  0.0000000E+00;  4.0000000E+04;  0.0000000E+00;  4.0000000E+04; -7.2405819E-04;  0.0000000E+00;  2.6240388E-05;  2.2425911E+02;
 -1.1000000E-01;  9.9999998E-03; -2.0000000E-01;842;  0.0000000E+00;  0.0000000E+00;  0.0000000E+00;  1.0001357E+03;  1.0000000E-01;  1.1249065E+02;0;  0.0000000E+00;  0.0000000E+00;  0.0000000E+00;0; -7.3564705E-04;  4.0000000E+04;  0.0000000E+00;  0.0000000E+00;  4.0000000E+04;  0.0000000E+00;  4.0000000E+04; -7.6585205E-04;  0.0000000E+00;  3.0205021E-05;  2.2810631E+02;
 -1.1000000E-01;  9.9999998E-03; -1.9000000E-01;843;  0.0000000E+00;  0.0000000E+00;  0.0000000E+00;  1.0001566E+03;  1.0000000E-01;  1.2967534E+02;0;  0.0000000E+00;  0.0000000E+00;  0.0000000E+00;0; -7.7418197E-04;  4.0000000E+04;  0.0000000E+00;  0.0000000E+00;  4.0000000E+04;  0.0000000E+00;  4.0000000E+04; -8.0618024E-04;  0.0000000E+00;  3.1998265E-05;  2.2638992E+02;
 -1.1000000E-01;  9.9999998E-03; -1.8000001E-01;844;  0.0000000E+00;  0.0000000E+00;  0.0000000E+00;  1.0001666E+03;  1.0000000E-01;  1.3807018E+02;0;  0.0000000E+00;  0.0000000E+00;  0.0000000E+00;0; -8.1171724E-04;  4.0000000E+04;  0.0000000E+00;  0.0000000E+00;  4.0000000E+04;  0.0000000E+00;  4.0000000E+04; -8.4381673E-04;  0.0000000E+00;  3.2099480E-05;  2.2133180E+02;
 -1.1000000E-01;  9.9999998E-03; -1.7000000E-01;845;  0.0000000E+00;  0.0000000E+00;  0.0000000E+00;  1.0001845E+03;  1.0000000E-01;  1.5288457E+02;0;  0.0000000E+00;  0.0000000E+00;  0.0000000E+00;0; -8.4653223E-04;  4.0000000E+04;  0.0000000E+00;  0.0000000E+00;  4.0000000E+04;  0.0000000E+00;  4.0000000E+04; -8.7752723E-04;  0.0000000E+00;  3.0994997E-05;  2.1467291E+02;
 -1.1000000E-01;  9.9999998E-03; -1.6000000E-01;846;  0.0000000E+00;  0.0000000E+00;  0.0000000E+00;  1.0001925E+03;  1.0000000E-01;  1.5950166E+02;0;  0.0000000E+00;  0.0000000E+00;  0.0000000E+00;0; -8.7731762E-04;  4.0000000E+04;  0.0000000E+00;  0.0000000E+00;  4.0000000E+04;  0.0000000E+00;  4.0000000E+04; -9.0642553E-04;  0.0000000E+00;  2.9107900E-05;  2.0761792E+02;
 -1.1000000E-01;  9.9999998E-03; -1.5000001E-01;847;  0.0000000E+00;  0.0000000E+00;  0.0000000E+00;  1.0001992E+03;  1.0000000E-01;  1.6503236E+02;0;  0.0000000E+00;  0.0000000E+00;  0.0000000E+00;0; -9.0339367E-04;  4.0000000E+04;  0.0000000E+00;  0.0000000E+00;  4.0000000E+04;  0.0000000E+00;  4.0000000E+04; -9.3011296E-04;  0.0000000E+00;  2.6719290E-05;  2.0078499E+02;
 -1.1000000E-01;  9.9999998E-03; -1.4000000E-01;848;  0.0000000E+00;  0.0000000E+00;  0.0000000E+00;  1.0002074E+03;  1.0000000E-01;  1.7184698E+02;0;  0.0000000E+00;  0.0000000E+00;  0.0000000E+00;0; -9.2472893E-04;  4.0000000E+04;  0.0000000E+00;  0.0000000E+00;  4.0000000E+04;  0.0000000E+00;  4.0000000E+04; -9.4880146E-04;  0.0000000E+00;  2.4072537E-05;  1.9451479E+02;
 -1.1000000E-01;  9.9999998E-03; -1.3000000E-01;849;  0.0000000E+00;  0.0000000E+00;  0.0000000E+00;  1.0002211E+03;  1.0000000E-01;  1.8310593E+02;0;  0.0000000E+00;  0.0000000E+00;  0.0000000E+00;0; -9.4181305E-04;  4.0000000E+04;  0.0000000E+00;  0.0000000E+00;  4.0000000E+04;  0.0000000E+00;  4.0000000E+04; -9.6320413E-04;  0.0000000E+00;  2.1391083E-05;  1.8908321E+02;
 -1.1000000E-01;  9.9999998E-03; -1.2000000E-01;850;  0.0000000E+00;  0.0000000E+00;  0.0000000E+00;  1.0002241E+03;  1.0000000E-01;  1.8567377E+02;0;  0.0000000E+00;  0.0000000E+00;  0.0000000E+00;0; -9.5547840E-04;  4.0000000E+04;  0.0000000E+00;  0.0000000E+00;  4.0000000E+04;  0.0000000E+00;  4.0000000E+04; -9.7434752E-04;  0.0000000E+00;  1.8869128E-05;  1.8477881E+02;
 -1.1000000E-01;  9.9999998E-03; -1.1000000E-01;851;  0.0000000E+00;  0.0000000E+00;  0.0000000E+00;  1.0002227E+03;  1.0000000E-01;  1.8448862E+02;0;  0.0000000E+00;  0.0000000E+00;  0.0000000E+00;0; -9.6669747E-04;  4.0000000E+04;  0.0000000E+00;  0.0000000E+00;  4.0000000E+04;  0.0000000E+00;  4.0000000E+04; -9.8336593E-04;  0.0000000E+00;  1.6668444E-05;  1.8188353E+02;
 -1.0000000E-01;  9.9999998E-03; -2.7000001E-01;926;  0.0000000E+00;  0.0000000E+00;  0.0000000E+00;  1.0001534E+03;  1.0000000E-01;  1.2710751E+02;0;  0.0000000E+00;  0.0000000E+00;  0.0000000E+00;0; -9.4694761E-04;  4.0000000E+04;  0.0000000E+00;  0.0000000E+00;  4.0000000E+04;  0.0000000E+00;  4.0000000E+04; -8.7172567E-04;  0.0000000E+00; -7.5221935E-05;  4.4989025E+01;
 -1.0000000E-01;  9.9999998E-03; -2.5999999E-01;927;  0.0000000E+00;  0.0000000E+00;  0.0000000E+00;  1.0001655E+03;  1.0000000E-01;  1.3718130E+02;0;  0.0000000E+00;  0.0000000E+00;  0.0000000E+00;0; -1.0264805E-03;  4.0000000E+04;  0.0000000E+00;  0.0000000E+00;  4.0000000E+04;  0.0000000E+00;  4.0000000E+04; -9.7290101E-04;  0.0000000E+00; -5.3579421E-05;  1.2871312E+02;
 -1.0000000E-01;  9.9999998E-03; -2.5000000E-01;928;  0.0000000E+00;  0.0000000E+00;  0.0000000E+00;  1.0001882E+03;  1.0000000E-01;  1.5594621E+02;0;  0.0000000E+00;  0.0000000E+00;  0.0000000E+00;0; -1.0995669E-03;  4.0000000E+04;  0.0000000E+00;  0.0000000E+00;  4.0000000E+04;  0.0000000E+00;  4.0000000E+04; -1.0696710E-03;  0.0000000E+00; -2.9895960E-05;  2.0870155E+02;
 -1.0000000E-01;  9.9999998E-03; -2.3999999E-01;929;  0.0000000E+00;  0.0000000E+00;  0.0000000E+00;  1.0001913E+03;  1.0000000E-01;  1.5851404E+02;0;  0.0000000E+00;  0.0000000E+00;  0.0000000E+00;0; -1.1686943E-03;  4.0000000E+04;  0.0000000E+00;  0.0000000E+00;  4.0000000E+04;  0.0000000E+00;  4.0000000E+04; -1.1623157E-03;  0.0000000E+00; -6.3786724E-06;  2.7768884E+02;
 -1.0000000E-01;  9.9999998E-03; -2.3000000E-01;930;  0.0000000E+00;  0.0000000E+00;  0.0000000E+00;  1.0002220E+03;  1.0000000E-01;  1.8389603E+02;0;  0.0000000E+00;  0.0000000E+00;  0.0000000E+00;0; -1.2364415E-03;  4.0000000E+04;  0.0000000E+00;  0.0000000E+00;  4.0000000E+04;  0.0000000E+00;  4.0000000E+04; -1.2514567E-03;  0.0000000E+00;  1.5015144E-05;  3.3101968E+02;
 -1.0000000E-01;  9.9999998E-03; -2.2000000E-01;931;  0.0000000E+00;  0.0000000E+00;  0.0000000E+00;  1.0002377E+03;  1.0000000E-01;  1.9693271E+02;0;  0.0000000E+00;  0.0000000E+00;  0.0000000E+00;0; -1.3048390E-03;  4.0000000E+04;  0.0000000E+00;  0.0000000E+00;  4.0000000E+04;  0.0000000E+00;  4.0000000E+04; -1.3376753E-03;  0.0000000E+00;  3.2836240E-05;  3.6671848E+02;
 -1.0000000E-01;  9.9999998E-03; -2.0999999E-01;932;  0.0000000E+00;  0.0000000E+00;  0.0000000E+00;  1.0002631E+03;  1.0000000E-01;  2.1796915E+02;0;  0.0000000E+00;  0.0000000E+00;  0.0000000E+00;0; -1.3748232E-03;  4.0000000E+04;  0.0000000E+00;  0.0000000E+00;  4.0000000E+04;  0.0000000E+00;  4.0000000E+04; -1.4211079E-03;  0.0000000E+00;  4.6284757E-05;  3.8540884E+02;
 -1.0000000E-01;  9.9999998E-03; -2.0000000E-01;933;  0.0000000E+00;  0.0000000E+00;  0.0000000E+00;  1.0002861E+03;  1.0000000E-01;  2.3703033E+02;0;  0.0000000E+00;  0.0000000E+00;  0.0000000E+00;0; -1.4460685E-03;  4.0000000E+04;  0.0000000E+00;  0.0000000E+00;  4.0000000E+04;  0.0000000E+00;  4.0000000E+04; -1.5012916E-03;  0.0000000E+00;  5.5223147E-05;  3.8980853E+02;
 -1.0000000E-01;  9.9999998E-03; -1.9000000E-01;934;  0.0000000E+00;  0.0000000E+00;  0.0000000E+00;  1.0003149E+03;  1.0000000E-01;  2.6083212E+02;0;  0.0000000E+00;  0.0000000E+00;  0.0000000E+00;0; -1.5170506E-03;  4.0000000E+04;  0.0000000E+00;  0.0000000E+00;  4.0000000E+04;  0.0000000E+00;  4.0000000E+04; -1.5771101E-03;  0.0000000E+00;  6.0059643E-05;  3.8385614E+02;
 -1.0000000E-01;  9.9999998E-03; -1.8000001E-01;935;  0.0000000E+00;  0.0000000E+00;  0.0000000E+00;  1.0003505E+03;  1.0000000E-01;  2.9036215E+02;0;  0.0000000E+00;  0.0000000E+00;  0.0000000E+00;0; -1.5854759E-03;  4.0000000E+04;  0.0000000E+00;  0.0000000E+00;  4.0000000E+04;  0.0000000E+00;  4.0000000E+04; -1.6470156E-03;  0.0000000E+00;  6.1539649E-05;  3.7169778E+02;
 -1.0000000E-01;  9.9999998E-03; -1.7000000E-01;936;  0.0000000E+00;  0.0000000E+00;  0.0000000E+00;  1.0003759E+03;  1.0000000E-01;  3.1139859E+02;0;  0.0000000E+00;  0.0000000E+00;  0.0000000E+00;0; -1.6488839E-03;  4.0000000E+04;  0.0000000E+00;  0.0000000E+00;  4.0000000E+04;  0.0000000E+00;  4.0000000E+04; -1.7093916E-03;  0.0000000E+00;  6.0507649E-05;  3.5680060E+02;
 -1.0000000E-01;  9.9999998E-03; -1.6000000E-01;937;  0.0000000E+00;  0.0000000E+00;  0.0000000E+00;  1.0003934E+03;  1.0000000E-01;  3.2591672E+02;0;  0.0000000E+00;  0.0000000E+00;  0.0000000E+00;0; -1.7052831E-03;  4.0000000E+04;  0.0000000E+00;  0.0000000E+00;  4.0000000E+04;  0.0000000E+00;  4.0000000E+04; -1.7630245E-03;  0.0000000E+00;  5.7741428E-05;  3.4160724E+02;
 -1.0000000E-01;  9.9999998E-03; -1.5000001E-01;938;  0.0000000E+00;  0.0000000E+00;  0.0000000E+00;  1.0004171E+03;  1.0000000E-01;  3.4547171E+02;0;  0.0000000E+00;  0.0000000E+00;  0.0000000E+00;0; -1.7535712E-03;  4.0000000E+04;  0.0000000E+00;  0.0000000E+00;  4.0000000E+04;  0.0000000E+00;  4.0000000E+04; -1.8074515E-03;  0.0000000E+00;  5.3880329E-05;  3.2760474E+02;
 -1.0000000E-01;  9.9999998E-03; -1.4000000E-01;939;  0.0000000E+00;  0.0000000E+00;  0.0000000E+00;  1.0004272E+03;  1.0000000E-01;  3.5396530E+02;0;  0.0000000E+00;  0.0000000E+00;  0.0000000E+00;0; -1.7936452E-03;  4.0000000E+04;  0.0000000E+00;  0.0000000E+00;  4.0000000E+04;  0.0000000E+00;  4.0000000E+04; -1.8430327E-03;  0.0000000E+00;  4.9387505E-05;  3.1548428E+02;
 -1.0000000E-01;  9.9999998E-03; -1.3000000E-01;940;  0.0000000E+00;  0.0000000E+00;  0.0000000E+00;  1.0004339E+03;  1.0000000E-01;  3.5949600E+02;0;  0.0000000E+00;  0.0000000E+00;  0.0000000E+00;0; -1.8262152E-03;  4.0000000E+04;  0.0000000E+00;  0.0000000E+00;  4.0000000E+04;  0.0000000E+00;  4.0000000E+04; -1.8709024E-03;  0.0000000E+00;  4.4687131E-05;  3.0561343E+02;
 -1.0000000E-01;  9.9999998E-03; -1.2000000E-01;941;  0.0000000E+00;  0.0000000E+00;  0.0000000E+00;  1.0004353E+03;  1.0000000E-01;  3.6068115E+02;0;  0.0000000E+00;  0.0000000E+00;  0.0000000E+00;0; -1.8525466E-03;  4.0000000E+04;  0.0000000E+00;  0.0000000E+00;  4.0000000E+04;  0.0000000E+00;  4.0000000E+04; -1.8927110E-03;  0.0000000E+00;  4.0164454E-05;  2.9826627E+02;
 -1.0000000E-01;  9.9999998E-03; -1.1000000E-01;942;  0.0000000E+00;  0.0000000E+00;  0.0000000E+00;  1.0004368E+03;  1.0000000E-01;  3.6186630E+02;0;  0.0000000E+00;  0.0000000E+00;  0.0000000E+00;0; -1.8741547E-03;  4.0000000E+04;  0.0000000E+00;  0.0000000E+00;  4.0000000E+04;  0.0000000E+00;  4.0000000E+04; -1.9103066E-03;  0.0000000E+00;  3.6152003E-05;  2.9370197E+02;
 -9.0000004E-02;  9.9999998E-03; -2.7000001E-01;1017;  0.0000000E+00;  0.0000000E+00;  0.0000000E+00;  1.0003083E+03;  1.0000000E-01;  2.5549895E+02;0;  0.0000000E+00;  0.0000000E+00;  0.0000000E+00;0; -1.6644436E-03;  4.0000000E+04;  0.0000000E+00;  0.0000000E+00;  4.0000000E+04;  0.0000000E+00;  4.0000000E+04; -1.5301065E-03;  0.0000000E+00; -1.3433717E-04;  7.9342445E+01;
 -9.0000004E-02;  9.9999998E-03; -2.5999999E-01;1018;  0.0000000E+00;  0.0000000E+00;  0.0000000E+00;  1.0003311E+03;  1.0000000E-01;  2.7436261E+02;0;  0.0000000E+00;  0.0000000E+00;  0.0000000E+00;0; -1.8124997E-03;  4.0000000E+04;  0.0000000E+00;  0.0000000E+00;  4.0000000E+04;  0.0000000E+00;  4.0000000E+04; -1.7140806E-03;  0.0000000E+00; -9.8419143E-05;  2.1060710E+02;
 -9.0000004E-02;  9.9999998E-03; -2.5000000E-01;1019;  0.0000000E+00;  0.0000000E+00;  0.0000000E+00;  1.0003568E+03;  1.0000000E-01;  2.9559659E+02;0;  0.0000000E+00;  0.0000000E+00;  0.0000000E+00;0; -1.9503456E-03;  4.0000000E+04;  0.0000000E+00;  0.0000000E+00;  4.0000000E+04;  0.0000000E+00;  4.0000000E+04; -1.8915494E-03;  0.0000000E+00; -5.8796119E-05;  3.3599405E+02;
 -9.0000004E-02;  9.9999998E-03; -2.3999999E-01;1020;  0.0000000E+00;  0.0000000E+00;  0.0000000E+00;  1.0003943E+03;  1.0000000E-01;  3.2670682E+02;0;  0.0000000E+00;  0.0000000E+00;  0.0000000E+00;0; -2.0808647E-03;  4.0000000E+04;  0.0000000E+00;  0.0000000E+00;  4.0000000E+04;  0.0000000E+00;  4.0000000E+04; -2.0619035E-03;  0.0000000E+00; -1.8961262E-05;  4.4361664E+02;
 -9.0000004E-02;  9.9999998E-03; -2.3000000E-01;1021;  0.0000000E+00;  0.0000000E+00;  0.0000000E+00;  1.0004326E+03;  1.0000000E-01;  3.5840961E+02;0;  0.0000000E+00;  0.0000000E+00;  0.0000000E+00;0; -2.2071851E-03;  4.0000000E+04;  0.0000000E+00;  0.0000000E+00;  4.0000000E+04;  0.0000000E+00;  4.0000000E+04; -2.2251103E-03;  0.0000000E+00;  1.7925222E-05;  5.2628052E+02;
 -9.0000004E-02;  9.9999998E-03; -2.2000000E-01;1022;  0.0000000E+00;  0.0000000E+00;  0.0000000E+00;  1.0004752E+03;  1.0000000E-01;  3.9366788E+02;0;  0.0000000E+00;  0.0000000E+00;  0.0000000E+00;0; -2.3318261E-03;  4.0000000E+04;  0.0000000E+00;  0.0000000E+00;  4.0000000E+04;  0.0000000E+00;  4.0000000E+04; -2.3812545E-03;  0.0000000E+00;  4.9428290E-05;  5.8084631E+02;
 -9.0000004E-02;  9.9999998E-03; -2.0999999E-01;1023;  0.0000000E+00;  0.0000000E+00;  0.0000000E+00;  1.0005118E+03;  1.0000000E-01;  4.2398801E+02;0;  0.0000000E+00;  0.0000000E+00;  0.0000000E+00;0; -2.4560113E-03;  4.0000000E+04;  0.0000000E+00;  0.0000000E+00;  4.0000000E+04;  0.0000000E+00;  4.0000000E+04; -2.5300789E-03;  0.0000000E+00;  7.4067517E-05;  6.0809308E+02;
 -9.0000004E-02;  9.9999998E-03; -2.0000000E-01;1024;  0.0000000E+00;  0.0000000E+00;  0.0000000E+00;  1.0005596E+03;  1.0000000E-01;  4.6359183E+02;0;  0.0000000E+00;  0.0000000E+00;  0.0000000E+00;0; -2.5793852E-03;  4.0000000E+04;  0.0000000E+00;  0.0000000E+00;  4.0000000E+04;  0.0000000E+00;  4.0000000E+04; -2.6707563E-03;  0.0000000E+00;  9.1371119E-05;  6.1202454E+02;
 -9.0000004E-02;  9.9999998E-03; -1.9000000E-01;1025;  0.0000000E+00;  0.0000000E+00;  0.0000000E+00;  1.0006133E+03;  1.0000000E-01;  5.0813379E+02;0;  0.0000000E+00;  0.0000000E+00;  0.0000000E+00;0; -2.7000878E-03;  4.0000000E+04;  0.0000000E+00;  0.0000000E+00;  4.0000000E+04;  0.0000000E+00;  4.0000000E+04; -2.8018397E-03;  0.0000000E+00;  1.0175199E-04;  5.9872522E+02;
 -9.0000004E-02;  9.9999998E-03; -1.8000001E-01;1026;  0.0000000E+00;  0.0000000E+00;  0.0000000E+00;  1.0006576E+03;  1.0000000E-01;  5.4477472E+02;0;  0.0000000E+00;  0.0000000E+00;  0.0000000E+00;0; -2.8152021E-03;  4.0000000E+04;  0.0000000E+00;  0.0000000E+00;  4.0000000E+04;  0.0000000E+00;  4.0000000E+04; -2.9214500E-03;  0.0000000E+00;  1.0624790E-04;  5.7497455E+02;
 -9.0000004E-02;  9.9999998E-03; -1.7000000E-01;1027;  0.0000000E+00;  0.0000000E+00;  0.0000000E+00;  1.0006967E+03;  1.0000000E-01;  5.7716888E+02;0;  0.0000000E+00;  0.0000000E+00;  0.0000000E+00;0; -2.9214970E-03;  4.0000000E+04;  0.0000000E+00;  0.0000000E+00;  4.0000000E+04;  0.0000000E+00;  4.0000000E+04; -3.0276806E-03;  0.0000000E+00;  1.0618369E-04;  5.4684833E+02;
 -9.0000004E-02;  9.9999998E-03; -1.6000000E-01;1028;  0.0000000E+00;  0.0000000E+00;  0.0000000E+00;  1.0007325E+03;  1.0000000E-01;  6.0689642E+02;0;  0.0000000E+00;  0.0000000E+00;  0.0000000E+00;0; -3.0162307E-03;  4.0000000E+04;  0.0000000E+00;  0.0000000E+00;  4.0000000E+04;  0.0000000E+00;  4.0000000E+04; -3.1190871E-03;  0.0000000E+00;  1.0285641E-04;  5.1877948E+02;
 -9.0000004E-02;  9.9999998E-03; -1.5000001E-01;1029;  0.0000000E+00;  0.0000000E+00;  0.0000000E+00;  1.0007640E+03;  1.0000000E-01;  6.3296973E+02;0;  0.0000000E+00;  0.0000000E+00;  0.0000000E+00;0; -3.0978192E-03;  4.0000000E+04;  0.0000000E+00;  0.0000000E+00;  4.0000000E+04;  0.0000000E+00;  4.0000000E+04; -3.1952071E-03;  0.0000000E+00;  9.7387849E-05;  4.9350943E+02;
 -9.0000004E-02;  9.9999998E-03; -1.4000000E-01;1030;  0.0000000E+00;  0.0000000E+00;  0.0000000E+00;  1.0007856E+03;  1.0000000E-01;  6.5084576E+02;0;  0.0000000E+00;  0.0000000E+00;  0.0000000E+00;0; -3.1660730E-03;  4.0000000E+04;  0.0000000E+00;  0.0000000E+00;  4.0000000E+04;  0.0000000E+00;  4.0000000E+04; -3.2567342E-03;  0.0000000E+00;  9.0661189E-05;  4.7239578E+02;
 -9.0000004E-02;  9.9999998E-03; -1.3000000E-01;1031;  0.0000000E+00;  0.0000000E+00;  0.0000000E+00;  1.0008033E+03;  1.0000000E-01;  6.6546265E+02;0;  0.0000000E+00;  0.0000000E+00;  0.0000000E+00;0; -3.2220418E-03;  4.0000000E+04;  0.0000000E+00;  0.0000000E+00;  4.0000000E+04;  0.0000000E+00;  4.0000000E+04; -3.3054310E-03;  0.0000000E+00;  8.3389299E-05;  4.5592001E+02;
 -9.0000004E-02;  9.9999998E-03; -1.2000000E-01;1032;  0.0000000E+00;  0.0000000E+00;  0.0000000E+00;  1.0008083E+03;  1.0000000E-01;  6.6970947E+02;0;  0.0000000E+00;  0.0000000E+00;  0.0000000E+00;0; -3.2675846E-03;  4.0000000E+04;  0.0000000E+00;  0.0000000E+00;  4.0000000E+04;  0.0000000E+00;  4.0000000E+04; -3.3438189E-03;  0.0000000E+00;  7.6234246E-05;  4.4425323E+02;
 -9.0000004E-02;  9.9999998E-03; -1.1000000E-01;1033;  0.0000000E+00;  0.0000000E+00;  0.0000000E+00;  1.0008069E+03;  1.0000000E-01;  6.6852429E+02;0;  0.0000000E+00;  0.0000000E+00;  0.0000000E+00;0; -3.3049621E-03;  4.0000000E+04;  0.0000000E+00;  0.0000000E+00;  4.0000000E+04;  0.0000000E+00;  4.0000000E+04; -3.3747447E-03;  0.0000000E+00;  6.9782604E-05;  4.3749518E+02;
 -7.9999998E-02;  9.9999998E-03; -2.7000001E-01;1108;  0.0000000E+00;  0.0000000E+00;  0.0000000E+00;  1.0005398E+03;  1.0000000E-01;  4.4719724E+02;0;  0.0000000E+00;  0.0000000E+00;  0.0000000E+00;0; -2.7291318E-03;  4.0000000E+04;  0.0000000E+00;  0.0000000E+00;  4.0000000E+04;  0.0000000E+00;  4.0000000E+04; -2.5066866E-03;  0.0000000E+00; -2.2244513E-04;  1.3169296E+02;
 -7.9999998E-02;  9.9999998E-03; -2.5999999E-01;1109;  0.0000000E+00;  0.0000000E+00;  0.0000000E+00;  1.0005910E+03;  1.0000000E-01;  4.8966516E+02;0;  0.0000000E+00;  0.0000000E+00;  0.0000000E+00;0; -2.9806313E-03;  4.0000000E+04;  0.0000000E+00;  0.0000000E+00;  4.0000000E+04;  0.0000000E+00;  4.0000000E+04; -2.8141637E-03;  0.0000000E+00; -1.6646773E-04;  3.2379852E+02;
 -7.9999998E-02;  9.9999998E-03; -2.5000000E-01;1110;  0.0000000E+00;  0.0000000E+00;  0.0000000E+00;  1.0006470E+03;  1.0000000E-01;  5.3598486E+02;0;  0.0000000E+00;  0.0000000E+00;  0.0000000E+00;0; -3.2166196E-03;  4.0000000E+04;  0.0000000E+00;  0.0000000E+00;  4.0000000E+04;  0.0000000E+00;  4.0000000E+04; -3.1122190E-03;  0.0000000E+00; -1.0440066E-04;  5.0733344E+02;
 -7.9999998E-02;  9.9999998E-03; -2.3999999E-01;1111;  0.0000000E+00;  0.0000000E+00;  0.0000000E+00;  1.0007057E+03;  1.0000000E-01;  5.8467480E+02;0;  0.0000000E+00;  0.0000000E+00;  0.0000000E+00;0; -3.4402511E-03;  4.0000000E+04;  0.0000000E+00;  0.0000000E+00;  4.0000000E+04;  0.0000000E+00;  4.0000000E+04; -3.3987623E-03;  0.0000000E+00; -4.1488740E-05;  6.6384186E+02;
 -7.9999998E-02;  9.9999998E-03; -2.3000000E-01;1112;  0.0000000E+00;  0.0000000E+00;  0.0000000E+00;  1.0007730E+03;  1.0000000E-01;  6.4037695E+02;0;  0.0000000E+00;  0.0000000E+00;  0.0000000E+00;0; -3.6551161E-03;  4.0000000E+04;  0.0000000E+00;  0.0000000E+00;  4.0000000E+04;  0.0000000E+00;  4.0000000E+04; -3.6725993E-03;  0.0000000E+00;  1.7483238E-05;  7.8293506E+02;
 -7.9999998E-02;  9.9999998E-03; -2.2000000E-01;1113;  0.0000000E+00;  0.0000000E+00;  0.0000000E+00;  1.0008369E+03;  1.0000000E-01;  6.9341248E+02;0;  0.0000000E+00;  0.0000000E+00;  0.0000000E+00;0; -3.8641328E-03;  4.0000000E+04;  0.0000000E+00;  0.0000000E+00;  4.0000000E+04;  0.0000000E+00;  4.0000000E+04; -3.9328816E-03;  0.0000000E+00;  6.8748923E-05;  8.6021857E+02;
 -7.9999998E-02;  9.9999998E-03; -2.0999999E-01;1114;  0.0000000E+00;  0.0000000E+00;  0.0000000E+00;  1.0009100E+03;  1.0000000E-01;  7.5385522E+02;0;  0.0000000E+00;  0.0000000E+00;  0.0000000E+00;0; -4.0687011E-03;  4.0000000E+04;  0.0000000E+00;  0.0000000E+00;  4.0000000E+04;  0.0000000E+00;  4.0000000E+04; -4.1785943E-03;  0.0000000E+00;  1.0989334E-04;  8.9684131E+02;
 -7.9999998E-02;  9.9999998E-03; -2.0000000E-01;1115;  0.0000000E+00;  0.0000000E+00;  0.0000000E+00;  1.0009822E+03;  1.0000000E-01;  8.1380414E+02;0;  0.0000000E+00;  0.0000000E+00;  0.0000000E+00;0; -4.2683519E-03;  4.0000000E+04;  0.0000000E+00;  0.0000000E+00;  4.0000000E+04;  0.0000000E+00;  4.0000000E+04; -4.4083018E-03;  0.0000000E+00;  1.3994973E-04;  8.9853931E+02;
 -7.9999998E-02;  9.9999998E-03; -1.9000000E-01;1116;  0.0000000E+00;  0.0000000E+00;  0.0000000E+00;  1.0010598E+03;  1.0000000E-01;  8.7799988E+02;0;  0.0000000E+00;  0.0000000E+00;  0.0000000E+00;0; -4.4608032E-03;  4.0000000E+04;  0.0000000E+00;  0.0000000E+00;  4.0000000E+04;  0.0000000E+00;  4.0000000E+04; -4.6200678E-03;  0.0000000E+00;  1.5926469E-04;  8.7410583E+02;
 -7.9999998E-02;  9.9999998E-03; -1.8000001E-01;1117;  0.0000000E+00;  0.0000000E+00;  0.0000000E+00;  1.0011313E+03;  1.0000000E-01;  9.3725745E+02;0;  0.0000000E+00;  0.0000000E+00;  0.0000000E+00;0; -4.6424922E-03;  4.0000000E+04;  0.0000000E+00;  0.0000000E+00;  4.0000000E+04;  0.0000000E+00;  4.0000000E+04; -4.8116744E-03;  0.0000000E+00;  1.6918224E-04;  8.3357562E+02;
 -7.9999998E-02;  9.9999998E-03; -1.7000000E-01;1118;  0.0000000E+00;  0.0000000E+00;  0.0000000E+00;  1.0011971E+03;  1.0000000E-01;  9.9177441E+02;0;  0.0000000E+00;  0.0000000E+00;  0.0000000E+00;0; -4.8093935E-03;  4.0000000E+04;  0.0000000E+00;  0.0000000E+00;  4.0000000E+04;  0.0000000E+00;  4.0000000E+04; -4.9809990E-03;  0.0000000E+00;  1.7160535E-04;  7.8640198E+02;
 -7.9999998E-02;  9.9999998E-03; -1.6000000E-01;1119;  0.0000000E+00;  0.0000000E+00;  0.0000000E+00;  1.0012552E+03;  1.0000000E-01;  1.0398718E+03;0;  0.0000000E+00;  0.0000000E+00;  0.0000000E+00;0; -4.9580289E-03;  4.0000000E+04;  0.0000000E+00;  0.0000000E+00;  4.0000000E+04;  0.0000000E+00;  4.0000000E+04; -5.1265657E-03;  0.0000000E+00;  1.6853692E-04;  7.3990942E+02;
 -7.9999998E-02;  9.9999998E-03; -1.5000001E-01;1120;  0.0000000E+00;  0.0000000E+00;  0.0000000E+00;  1.0013041E+03;  1.0000000E-01;  1.0803645E+03;0;  0.0000000E+00;  0.0000000E+00;  0.0000000E+00;0; -5.0863386E-03;  4.0000000E+04;  0.0000000E+00;  0.0000000E+00;  4.0000000E+04;  0.0000000E+00;  4.0000000E+04; -5.2480856E-03;  0.0000000E+00;  1.6174719E-04;  6.9860852E+02;
 -7.9999998E-02;  9.9999998E-03; -1.4000000E-01;1121;  0.0000000E+00;  0.0000000E+00;  0.0000000E+00;  1.0013349E+03;  1.0000000E-01;  1.1059440E+03;0;  0.0000000E+00;  0.0000000E+00;  0.0000000E+00;0; -5.1941290E-03;  4.0000000E+04;  0.0000000E+00;  0.0000000E+00;  4.0000000E+04;  0.0000000E+00;  4.0000000E+04; -5.3468389E-03;  0.0000000E+00;  1.5270994E-04;  6.6478656E+02;
 -7.9999998E-02;  9.9999998E-03; -1.3000000E-01;1122;  0.0000000E+00;  0.0000000E+00;  0.0000000E+00;  1.0013633E+03;  1.0000000E-01;  1.1294496E+03;0;  0.0000000E+00;  0.0000000E+00;  0.0000000E+00;0; -5.2829343E-03;  4.0000000E+04;  0.0000000E+00;  0.0000000E+00;  4.0000000E+04;  0.0000000E+00;  4.0000000E+04; -5.4255091E-03;  0.0000000E+00;  1.4257464E-04;  6.3913391E+02;
 -7.9999998E-02;  9.9999998E-03; -1.2000000E-01;1123;  0.0000000E+00;  0.0000000E+00;  0.0000000E+00;  1.0013738E+03;  1.0000000E-01;  1.1382394E+03;0;  0.0000000E+00;  0.0000000E+00;  0.0000000E+00;0; -5.3554564E-03;  4.0000000E+04;  0.0000000E+00;  0.0000000E+00;  4.0000000E+04;  0.0000000E+00;  4.0000000E+04; -5.4878220E-03;  0.0000000E+00;  1.3236541E-04;  6.2160742E+02;
 -7.9999998E-02;  9.9999998E-03; -1.1000000E-01;1124;  0.0000000E+00;  0.0000000E+00;  0.0000000E+00;  1.0013747E+03;  1.0000000E-01;  1.1389308E+03;0;  0.0000000E+00;  0.0000000E+00;  0.0000000E+00;0; -5.4149595E-03;  4.0000000E+04;  0.0000000E+00;  0.0000000E+00;  4.0000000E+04;  0.0000000E+00;  4.0000000E+04; -5.5379667E-03;  0.0000000E+00;  1.2300734E-04;  6.1199353E+02;
 -7.0000000E-02;  9.9999998E-03; -2.7000001E-01;1199;  0.0000000E+00;  0.0000000E+00;  0.0000000E+00;  1.0008925E+03;  1.0000000E-01;  7.3933710E+02;0;  0.0000000E+00;  0.0000000E+00;  0.0000000E+00;0; -4.2255870E-03;  4.0000000E+04;  0.0000000E+00;  0.0000000E+00;  4.0000000E+04;  0.0000000E+00;  4.0000000E+04; -3.8791732E-03;  0.0000000E+00; -3.4641399E-04;  2.0634413E+02;
 -7.0000000E-02;  9.9999998E-03; -2.5999999E-01;1200;  0.0000000E+00;  0.0000000E+00;  0.0000000E+00;  1.0009817E+03;  1.0000000E-01;  8.1331030E+02;0;  0.0000000E+00;  0.0000000E+00;  0.0000000E+00;0; -4.6235528E-03;  4.0000000E+04;  0.0000000E+00;  0.0000000E+00;  4.0000000E+04;  0.0000000E+00;  4.0000000E+04; -4.3600593E-03;  0.0000000E+00; -2.6349374E-04;  4.7272552E+02;
 -7.0000000E-02;  9.9999998E-03; -2.5000000E-01;1201;  0.0000000E+00;  0.0000000E+00;  0.0000000E+00;  1.0010748E+03;  1.0000000E-01;  8.9044397E+02;0;  0.0000000E+00;  0.0000000E+00;  0.0000000E+00;0; -4.9987435E-03;  4.0000000E+04;  0.0000000E+00;  0.0000000E+00;  4.0000000E+04;  0.0000000E+00;  4.0000000E+04; -4.8274463E-03;  0.0000000E+00; -1.7129711E-04;  7.2678473E+02;
 -7.0000000E-02;  9.9999998E-03; -2.3999999E-01;1202;  0.0000000E+00;  0.0000000E+00;  0.0000000E+00;  1.0011750E+03;  1.0000000E-01;  9.7350336E+02;0;  0.0000000E+00;  0.0000000E+00;  0.0000000E+00;0; -5.3544529E-03;  4.0000000E+04;  0.0000000E+00;  0.0000000E+00;  4.0000000E+04;  0.0000000E+00;  4.0000000E+04; -5.2770781E-03;  0.0000000E+00; -7.7374978E-05;  9.4149023E+02;
 -7.0000000E-02;  9.9999998E-03; -2.3000000E-01;1203;  0.0000000E+00;  0.0000000E+00;  0.0000000E+00;  1.0012763E+03;  1.0000000E-01;  1.0573528E+03;0;  0.0000000E+00;  0.0000000E+00;  0.0000000E+00;0; -5.6946143E-03;  4.0000000E+04;  0.0000000E+00;  0.0000000E+00;  4.0000000E+04;  0.0000000E+00;  4.0000000E+04; -5.7060001E-03;  0.0000000E+00;  1.1385752E-05;  1.1027452E+03;
 -7.0000000E-02;  9.9999998E-03; -2.2000000E-01;1204;  0.0000000E+00;  0.0000000E+00;  0.0000000E+00;  1.0013813E+03;  1.0000000E-01;  1.1444614E+03;0;  0.0000000E+00;  0.0000000E+00;  0.0000000E+00;0; -6.0224179E-03;  4.0000000E+04;  0.0000000E+00;  0.0000000E+00;  4.0000000E+04;  0.0000000E+00;  4.0000000E+04; -6.1119357E-03;  0.0000000E+00;  8.9517664E-05;  1.2050211E+03;
 -7.0000000E-02;  9.9999998E-03; -2.0999999E-01;1205;  0.0000000E+00;  0.0000000E+00;  0.0000000E+00;  1.0014952E+03;  1.0000000E-01;  1.2387798E+03;0;  0.0000000E+00;  0.0000000E+00;  0.0000000E+00;0; -6.3392557E-03;  4.0000000E+04;  0.0000000E+00;  0.0000000E+00;  4.0000000E+04;  0.0000000E+00;  4.0000000E+04; -6.4926716E-03;  0.0000000E+00;  1.5341565E-04;  1.2503923E+03;
 -7.0000000E-02;  9.9999998E-03; -2.0000000E-01;1206;  0.0000000E+00;  0.0000000E+00;  0.0000000E+00;  1.0016075E+03;  1.0000000E-01;  1.3318142E+03;0;  0.0000000E+00;  0.0000000E+00;  0.0000000E+00;0; -6.6443607E-03;  4.0000000E+04;  0.0000000E+00;  0.0000000E+00;  4.0000000E+04;  0.0000000E+00;  4.0000000E+04; -6.8458309E-03;  0.0000000E+00;  2.0147034E-04;  1.2469709E+03;
 -7.0000000E-02;  9.9999998E-03; -1.9000000E-01;1207;  0.0000000E+00;  0.0000000E+00;  0.0000000E+00;  1.0017214E+03;  1.0000000E-01;  1.4261324E+03;0;  0.0000000E+00;  0.0000000E+00;  0.0000000E+00;0; -6.9349213E-03;  4.0000000E+04;  0.0000000E+00;  0.0000000E+00;  4.0000000E+04;  0.0000000E+00;  4.0000000E+04; -7.1688299E-03;  0.0000000E+00;  2.3390869E-04;  1.2068955E+03;
 -7.0000000E-02;  9.9999998E-03; -1.8000001E-01;1208;  0.0000000E+00;  0.0000000E+00;  0.0000000E+00;  1.0018281E+03;  1.0000000E-01;  1.5145250E+03;0;  0.0000000E+00;  0.0000000E+00;  0.0000000E+00;0; -7.2066258E-03;  4.0000000E+04;  0.0000000E+00;  0.0000000E+00;  4.0000000E+04;  0.0000000E+00;  4.0000000E+04; -7.4590291E-03;  0.0000000E+00;  2.5240341E-04;  1.1440685E+03;
 -7.0000000E-02;  9.9999998E-03; -1.7000000E-01;1209;  0.0000000E+00;  0.0000000E+00;  0.0000000E+00;  1.0019262E+03;  1.0000000E-01;  1.5958068E+03;0;  0.0000000E+00;  0.0000000E+00;  0.0000000E+00;0; -7.4547213E-03;  4.0000000E+04;  0.0000000E+00;  0.0000000E+00;  4.0000000E+04;  0.0000000E+00;  4.0000000E+04; -7.7142464E-03;  0.0000000E+00;  2.5952514E-04;  1.0718479E+03;
 -7.0000000E-02;  9.9999998E-03; -1.6000000E-01;1210;  0.0000000E+00;  0.0000000E+00;  0.0000000E+00;  1.0020152E+03;  1.0000000E-01;  1.6695824E+03;0;  0.0000000E+00;  0.0000000E+00;  0.0000000E+00;0; -7.6750731E-03;  4.0000000E+04;  0.0000000E+00;  0.0000000E+00;  4.0000000E+04;  0.0000000E+00;  4.0000000E+04; -7.9332143E-03;  0.0000000E+00;  2.5814128E-04;  1.0010872E+03;
 -7.0000000E-02;  9.9999998E-03; -1.5000001E-01;1211;  0.0000000E+00;  0.0000000E+00;  0.0000000E+00;  1.0020805E+03;  1.0000000E-01;  1.7237043E+03;0;  0.0000000E+00;  0.0000000E+00;  0.0000000E+00;0; -7.8652585E-03;  4.0000000E+04;  0.0000000E+00;  0.0000000E+00;  4.0000000E+04;  0.0000000E+00;  4.0000000E+04; -8.1161493E-03;  0.0000000E+00;  2.5089059E-04;  9.3877899E+02;
 -7.0000000E-02;  9.9999998E-03; -1.4000000E-01;1212;  0.0000000E+00;  0.0000000E+00;  0.0000000E+00;  1.0021340E+03;  1.0000000E-01;  1.7680487E+03;0;  0.0000000E+00;  0.0000000E+00;  0.0000000E+00;0; -8.0252336E-03;  4.0000000E+04;  0.0000000E+00;  0.0000000E+00;  4.0000000E+04;  0.0000000E+00;  4.0000000E+04; -8.2651954E-03;  0.0000000E+00;  2.3996146E-04;  8.8829718E+02;
 -7.0000000E-02;  9.9999998E-03; -1.3000000E-01;1213;  0.0000000E+00;  0.0000000E+00;  0.0000000E+00;  1.0021733E+03;  1.0000000E-01;  1.8005416E+03;0;  0.0000000E+00;  0.0000000E+00;  0.0000000E+00;0; -8.1572579E-03;  4.0000000E+04;  0.0000000E+00;  0.0000000E+00;  4.0000000E+04;  0.0000000E+00;  4.0000000E+04; -8.3843796E-03;  0.0000000E+00;  2.2712127E-04;  8.5065045E+02;
 -7.0000000E-02;  9.9999998E-03; -1.2000000E-01;1214;  0.0000000E+00;  0.0000000E+00;  0.0000000E+00;  1.0021888E+03;  1.0000000E-01;  1.8133809E+03;0;  0.0000000E+00;  0.0000000E+00;  0.0000000E+00;0; -8.2652047E-03;  4.0000000E+04;  0.0000000E+00;  0.0000000E+00;  4.0000000E+04;  0.0000000E+00;  4.0000000E+04; -8.4790420E-03;  0.0000000E+00;  2.1383716E-04;  8.2549634E+02;
 -7.0000000E-02;  9.9999998E-03; -1.1000000E-01;1215;  0.0000000E+00;  0.0000000E+00;  0.0000000E+00;  1.0021979E+03;  1.0000000E-01;  1.8209856E+03;0;  0.0000000E+00;  0.0000000E+00;  0.0000000E+00;0; -8.3537037E-03;  4.0000000E+04;  0.0000000E+00;  0.0000000E+00;  4.0000000E+04;  0.0000000E+00;  4.0000000E+04; -8.5551478E-03;  0.0000000E+00;  2.0144459E-04;  8.1215021E+02;
 -5.9999999E-02;  9.9999998E-03; -2.7000001E-01;1290;  0.0000000E+00;  0.0000000E+00;  0.0000000E+00;  1.0013851E+03;  1.0000000E-01;  1.1475231E+03;0;  0.0000000E+00;  0.0000000E+00;  0.0000000E+00;0; -6.2251817E-03;  4.0000000E+04;  0.0000000E+00;  0.0000000E+00;  4.0000000E+04;  0.0000000E+00;  4.0000000E+04; -5.7128724E-03;  0.0000000E+00; -5.1230949E-04;  3.0544626E+02;
 -5.9999999E-02;  9.9999998E-03; -2.5999999E-01;1291;  0.0000000E+00;  0.0000000E+00;  0.0000000E+00;  1.0015328E+03;  1.0000000E-01;  1.2698900E+03;0;  0.0000000E+00;  0.0000000E+00;  0.0000000E+00;0; -6.8190079E-03;  4.0000000E+04;  0.0000000E+00;  0.0000000E+00;  4.0000000E+04;  0.0000000E+00;  4.0000000E+04; -6.4244494E-03;  0.0000000E+00; -3.9455862E-04;  6.5934314E+02;
 -5.9999999E-02;  9.9999998E-03; -2.5000000E-01;1292;  0.0000000E+00;  0.0000000E+00;  0.0000000E+00;  1.0016780E+03;  1.0000000E-01;  1.3901829E+03;0;  0.0000000E+00;  0.0000000E+00;  0.0000000E+00;0; -7.3803961E-03;  4.0000000E+04;  0.0000000E+00;  0.0000000E+00;  4.0000000E+04;  0.0000000E+00;  4.0000000E+04; -7.1168626E-03;  0.0000000E+00; -2.6353364E-04;  9.9489142E+02;
 -5.9999999E-02;  9.9999998E-03; -2.3999999E-01;1293;  0.0000000E+00;  0.0000000E+00;  0.0000000E+00;  1.0018281E+03;  1.0000000E-01;  1.5145250E+03;0;  0.0000000E+00;  0.0000000E+00;  0.0000000E+00;0; -7.9126898E-03;  4.0000000E+04;  0.0000000E+00;  0.0000000E+00;  4.0000000E+04;  0.0000000E+00;  4.0000000E+04; -7.7829589E-03;  0.0000000E+00; -1.2973066E-04;  1.2749287E+03;
 -5.9999999E-02;  9.9999998E-03; -2.3000000E-01;1294;  0.0000000E+00;  0.0000000E+00;  0.0000000E+00;  1.0019834E+03;  1.0000000E-01;  1.6432128E+03;0;  0.0000000E+00;  0.0000000E+00;  0.0000000E+00;0; -8.4200734E-03;  4.0000000E+04;  0.0000000E+00;  0.0000000E+00;  4.0000000E+04;  0.0000000E+00;  4.0000000E+04; -8.4174192E-03;  0.0000000E+00; -2.6543582E-06;  1.4814358E+03;
 -5.9999999E-02;  9.9999998E-03; -2.2000000E-01;1295;  0.0000000E+00;  0.0000000E+00;  0.0000000E+00;  1.0021454E+03;  1.0000000E-01;  1.7774312E+03;0;  0.0000000E+00;  0.0000000E+00;  0.0000000E+00;0; -8.9057712E-03;  4.0000000E+04;  0.0000000E+00;  0.0000000E+00;  4.0000000E+04;  0.0000000E+00;  4.0000000E+04; -9.0159271E-03;  0.0000000E+00;  1.1015588E-04;  1.6083169E+03;
 -5.9999999E-02;  9.9999998E-03; -2.0999999E-01;1296;  0.0000000E+00;  0.0000000E+00;  0.0000000E+00;  1.0023092E+03;  1.0000000E-01;  1.9131311E+03;0;  0.0000000E+00;  0.0000000E+00;  0.0000000E+00;0; -9.3709426E-03;  4.0000000E+04;  0.0000000E+00;  0.0000000E+00;  4.0000000E+04;  0.0000000E+00;  4.0000000E+04; -9.5746182E-03;  0.0000000E+00;  2.0367549E-04;  1.6594709E+03;
 -5.9999999E-02;  9.9999998E-03; -2.0000000E-01;1297;  0.0000000E+00;  0.0000000E+00;  0.0000000E+00;  1.0024734E+03;  1.0000000E-01;  2.0492261E+03;0;  0.0000000E+00;  0.0000000E+00;  0.0000000E+00;0; -9.8142624E-03;  4.0000000E+04;  0.0000000E+00;  0.0000000E+00;  4.0000000E+04;  0.0000000E+00;  4.0000000E+04; -1.0089809E-02;  0.0000000E+00;  2.7554692E-04;  1.6463882E+03;
 -5.9999999E-02;  9.9999998E-03; -1.9000000E-01;1298;  0.0000000E+00;  0.0000000E+00;  0.0000000E+00;  1.0026343E+03;  1.0000000E-01;  2.1824568E+03;0;  0.0000000E+00;  0.0000000E+00;  0.0000000E+00;0; -1.0232191E-02;  4.0000000E+04;  0.0000000E+00;  0.0000000E+00;  4.0000000E+04;  0.0000000E+00;  4.0000000E+04; -1.0558055E-02;  0.0000000E+00;  3.2586404E-04;  1.5853715E+03;
 -5.9999999E-02;  9.9999998E-03; -1.8000001E-01;1299;  0.0000000E+00;  0.0000000E+00;  0.0000000E+00;  1.0027885E+03;  1.0000000E-01;  2.3101570E+03;0;  0.0000000E+00;  0.0000000E+00;  0.0000000E+00;0; -1.0619593E-02;  4.0000000E+04;  0.0000000E+00;  0.0000000E+00;  4.0000000E+04;  0.0000000E+00;  4.0000000E+04; -1.0976277E-02;  0.0000000E+00;  3.5668458E-04;  1.4946802E+03;
 -5.9999999E-02;  9.9999998E-03; -1.7000000E-01;1300;  0.0000000E+00;  0.0000000E+00;  0.0000000E+00;  1.0029272E+03;  1.0000000E-01;  2.4252153E+03;0;  0.0000000E+00;  0.0000000E+00;  0.0000000E+00;0; -1.0971032E-02;  4.0000000E+04;  0.0000000E+00;  0.0000000E+00;  4.0000000E+04;  0.0000000E+00;  4.0000000E+04; -1.1342383E-02;  0.0000000E+00;  3.7135044E-04;  1.3918969E+03;
 -5.9999999E-02;  9.9999998E-03; -1.6000000E-01;1301;  0.0000000E+00;  0.0000000E+00;  0.0000000E+00;  1.0030505E+03;  1.0000000E-01;  2.5273359E+03;0;  0.0000000E+00;  0.0000000E+00;  0.0000000E+00;0; -1.1281877E-02;  4.0000000E+04;  0.0000000E+00;  0.0000000E+00;  4.0000000E+04;  0.0000000E+00;  4.0000000E+04; -1.1655607E-02;  0.0000000E+00;  3.7373076E-04;  1.2916321E+03;
 -5.9999999E-02;  9.9999998E-03; -1.5000001E-01;1302;  0.0000000E+00;  0.0000000E+00;  0.0000000E+00;  1.0031509E+03;  1.0000000E-01;  2.6104941E+03;0;  0.0000000E+00;  0.0000000E+00;  0.0000000E+00;0; -1.1549595E-02;  4.0000000E+04;  0.0000000E+00;  0.0000000E+00;  4.0000000E+04;  0.0000000E+00;  4.0000000E+04; -1.1917116E-02;  0.0000000E+00;  3.6752113E-04;  1.2037367E+03;
 -5.9999999E-02;  9.9999998E-03; -1.4000000E-01;1303;  0.0000000E+00;  0.0000000E+00;  0.0000000E+00;  1.0032266E+03;  1.0000000E-01;  2.6732083E+03;0;  0.0000000E+00;  0.0000000E+00;  0.0000000E+00;0; -1.1774568E-02;  4.0000000E+04;  0.0000000E+00;  0.0000000E+00;  4.0000000E+04;  0.0000000E+00;  4.0000000E+04; -1.2130361E-02;  0.0000000E+00;  3.5579273E-04;  1.1329929E+03;
 -5.9999999E-02;  9.9999998E-03; -1.3000000E-01;1304;  0.0000000E+00;  0.0000000E+00;  0.0000000E+00;  1.0032764E+03;  1.0000000E-01;  2.7144912E+03;0;  0.0000000E+00;  0.0000000E+00;  0.0000000E+00;0; -1.1960153E-02;  4.0000000E+04;  0.0000000E+00;  0.0000000E+00;  4.0000000E+04;  0.0000000E+00;  4.0000000E+04; -1.2301185E-02;  0.0000000E+00;  3.4103141E-04;  1.0806351E+03;
 -5.9999999E-02;  9.9999998E-03; -1.2000000E-01;1305;  0.0000000E+00;  0.0000000E+00;  0.0000000E+00;  1.0033077E+03;  1.0000000E-01;  2.7403669E+03;0;  0.0000000E+00;  0.0000000E+00;  0.0000000E+00;0; -1.2111769E-02;  4.0000000E+04;  0.0000000E+00;  0.0000000E+00;  4.0000000E+04;  0.0000000E+00;  4.0000000E+04; -1.2437006E-02;  0.0000000E+00;  3.2523624E-04;  1.0459644E+03;
 -5.9999999E-02;  9.9999998E-03; -1.1000000E-01;1306;  0.0000000E+00;  0.0000000E+00;  0.0000000E+00;  1.0033226E+03;  1.0000000E-01;  2.7527122E+03;0;  0.0000000E+00;  0.0000000E+00;  0.0000000E+00;0; -1.2235899E-02;  4.0000000E+04;  0.0000000E+00;  0.0000000E+00;  4.0000000E+04;  0.0000000E+00;  4.0000000E+04; -1.2546098E-02;  0.0000000E+00;  3.1019887E-04;  1.0277308E+03;
 -5.0000001E-02;  9.9999998E-03; -2.7000001E-01;1381;  0.0000000E+00;  0.0000000E+00;  0.0000000E+00;  1.0020469E+03;  1.0000000E-01;  1.6958533E+03;0;  0.0000000E+00;  0.0000000E+00;  0.0000000E+00;0; -8.7665087E-03;  4.0000000E+04;  0.0000000E+00;  0.0000000E+00;  4.0000000E+04;  0.0000000E+00;  4.0000000E+04; -8.0420999E-03;  0.0000000E+00; -7.2440854E-04;  4.2788043E+02;
 -5.0000001E-02;  9.9999998E-03; -2.5999999E-01;1382;  0.0000000E+00;  0.0000000E+00;  0.0000000E+00;  1.0022596E+03;  1.0000000E-01;  1.8720458E+03;0;  0.0000000E+00;  0.0000000E+00;  0.0000000E+00;0; -9.6082557E-03;  4.0000000E+04;  0.0000000E+00;  0.0000000E+00;  4.0000000E+04;  0.0000000E+00;  4.0000000E+04; -9.0451203E-03;  0.0000000E+00; -5.6313572E-04;  8.8181561E+02;
 -5.0000001E-02;  9.9999998E-03; -2.5000000E-01;1383;  0.0000000E+00;  0.0000000E+00;  0.0000000E+00;  1.0024780E+03;  1.0000000E-01;  2.0529790E+03;0;  0.0000000E+00;  0.0000000E+00;  0.0000000E+00;0; -1.0405176E-02;  4.0000000E+04;  0.0000000E+00;  0.0000000E+00;  4.0000000E+04;  0.0000000E+00;  4.0000000E+04; -1.0021296E-02;  0.0000000E+00; -3.8388043E-04;  1.3072463E+03;
 -5.0000001E-02;  9.9999998E-03; -2.3999999E-01;1384;  0.0000000E+00;  0.0000000E+00;  0.0000000E+00;  1.0026949E+03;  1.0000000E-01;  2.2327271E+03;0;  0.0000000E+00;  0.0000000E+00;  0.0000000E+00;0; -1.1160690E-02;  4.0000000E+04;  0.0000000E+00;  0.0000000E+00;  4.0000000E+04;  0.0000000E+00;  4.0000000E+04; -1.0959907E-02;  0.0000000E+00; -2.0078385E-04;  1.6561765E+03;
 -5.0000001E-02;  9.9999998E-03; -2.3000000E-01;1385;  0.0000000E+00;  0.0000000E+00;  0.0000000E+00;  1.0029200E+03;  1.0000000E-01;  2.4191909E+03;0;  0.0000000E+00;  0.0000000E+00;  0.0000000E+00;0; -1.1879079E-02;  4.0000000E+04;  0.0000000E+00;  0.0000000E+00;  4.0000000E+04;  0.0000000E+00;  4.0000000E+04; -1.1852589E-02;  0.0000000E+00; -2.6490472E-05;  1.9069780E+03;
 -5.0000001E-02;  9.9999998E-03; -2.2000000E-01;1386;  0.0000000E+00;  0.0000000E+00;  0.0000000E+00;  1.0031497E+03;  1.0000000E-01;  2.6095063E+03;0;  0.0000000E+00;  0.0000000E+00;  0.0000000E+00;0; -1.2563420E-02;  4.0000000E+04;  0.0000000E+00;  0.0000000E+00;  4.0000000E+04;  0.0000000E+00;  4.0000000E+04; -1.2692467E-02;  0.0000000E+00;  1.2904752E-04;  2.0541318E+03;
 -5.0000001E-02;  9.9999998E-03; -2.0999999E-01;1387;  0.0000000E+00;  0.0000000E+00;  0.0000000E+00;  1.0033788E+03;  1.0000000E-01;  2.7992295E+03;0;  0.0000000E+00;  0.0000000E+00;  0.0000000E+00;0; -1.3214278E-02;  4.0000000E+04;  0.0000000E+00;  0.0000000E+00;  4.0000000E+04;  0.0000000E+00;  4.0000000E+04; -1.3473488E-02;  0.0000000E+00;  2.5921050E-04;  2.1048567E+03;
 -5.0000001E-02;  9.9999998E-03; -2.0000000E-01;1388;  0.0000000E+00;  0.0000000E+00;  0.0000000E+00;  1.0036097E+03;  1.0000000E-01;  2.9906313E+03;0;  0.0000000E+00;  0.0000000E+00;  0.0000000E+00;0; -1.3829434E-02;  4.0000000E+04;  0.0000000E+00;  0.0000000E+00;  4.0000000E+04;  0.0000000E+00;  4.0000000E+04; -1.4190286E-02;  0.0000000E+00;  3.6085243E-04;  2.0753745E+03;
 -5.0000001E-02;  9.9999998E-03; -1.9000000E-01;1389;  0.0000000E+00;  0.0000000E+00;  0.0000000E+00;  1.0038342E+03;  1.0000000E-01;  3.1766016E+03;0;  0.0000000E+00;  0.0000000E+00;  0.0000000E+00;0; -1.4404351E-02;  4.0000000E+04;  0.0000000E+00;  0.0000000E+00;  4.0000000E+04;  0.0000000E+00;  4.0000000E+04; -1.4838344E-02;  0.0000000E+00;  4.3399390E-04;  1.9871312E+03;
 -5.0000001E-02;  9.9999998E-03; -1.8000001E-01;1390;  0.0000000E+00;  0.0000000E+00;  0.0000000E+00;  1.0040439E+03;  1.0000000E-01;  3.3503250E+03;0;  0.0000000E+00;  0.0000000E+00;  0.0000000E+00;0; -1.4933017E-02;  4.0000000E+04;  0.0000000E+00;  0.0000000E+00;  4.0000000E+04;  0.0000000E+00;  4.0000000E+04; -1.5414208E-02;  0.0000000E+00;  4.8119068E-04;  1.8632534E+03;
 -5.0000001E-02;  9.9999998E-03; -1.7000000E-01;1391;  0.0000000E+00;  0.0000000E+00;  0.0000000E+00;  1.0042346E+03;  1.0000000E-01;  3.5082463E+03;0;  0.0000000E+00;  0.0000000E+00;  0.0000000E+00;0; -1.5409336E-02;  4.0000000E+04;  0.0000000E+00;  0.0000000E+00;  4.0000000E+04;  0.0000000E+00;  4.0000000E+04; -1.5916023E-02;  0.0000000E+00;  5.0668704E-04;  1.7255566E+03;
 -5.0000001E-02;  9.9999998E-03; -1.6000000E-01;1392;  0.0000000E+00;  0.0000000E+00;  0.0000000E+00;  1.0044012E+03;  1.0000000E-01;  3.6463167E+03;0;  0.0000000E+00;  0.0000000E+00;  0.0000000E+00;0; -1.5828462E-02;  4.0000000E+04;  0.0000000E+00;  0.0000000E+00;  4.0000000E+04;  0.0000000E+00;  4.0000000E+04; -1.6343953E-02;  0.0000000E+00;  5.1548996E-04;  1.5921101E+03;
 -5.0000001E-02;  9.9999998E-03; -1.5000001E-01;1393;  0.0000000E+00;  0.0000000E+00;  0.0000000E+00;  1.0045357E+03;  1.0000000E-01;  3.7577209E+03;0;  0.0000000E+00;  0.0000000E+00;  0.0000000E+00;0; -1.6188111E-02;  4.0000000E+04;  0.0000000E+00;  0.0000000E+00;  4.0000000E+04;  0.0000000E+00;  4.0000000E+04; -1.6700597E-02;  0.0000000E+00;  5.1248726E-04;  1.4754783E+03;
 -5.0000001E-02;  9.9999998E-03; -1.4000000E-01;1394;  0.0000000E+00;  0.0000000E+00;  0.0000000E+00;  1.0046397E+03;  1.0000000E-01;  3.8439407E+03;0;  0.0000000E+00;  0.0000000E+00;  0.0000000E+00;0; -1.6489511E-02;  4.0000000E+04;  0.0000000E+00;  0.0000000E+00;  4.0000000E+04;  0.0000000E+00;  4.0000000E+04; -1.6991306E-02;  0.0000000E+00;  5.0179492E-04;  1.3819076E+03;
 -5.0000001E-02;  9.9999998E-03; -1.3000000E-01;1395;  0.0000000E+00;  0.0000000E+00;  0.0000000E+00;  1.0047154E+03;  1.0000000E-01;  3.9066550E+03;0;  0.0000000E+00;  0.0000000E+00;  0.0000000E+00;0; -1.6737526E-02;  4.0000000E+04;  0.0000000E+00;  0.0000000E+00;  4.0000000E+04;  0.0000000E+00;  4.0000000E+04; -1.7224180E-02;  0.0000000E+00;  4.8665269E-04;  1.3126978E+03;
 -5.0000001E-02;  9.9999998E-03; -1.2000000E-01;1396;  0.0000000E+00;  0.0000000E+00;  0.0000000E+00;  1.0047606E+03;  1.0000000E-01;  3.9440859E+03;0;  0.0000000E+00;  0.0000000E+00;  0.0000000E+00;0; -1.6939711E-02;  4.0000000E+04;  0.0000000E+00;  0.0000000E+00;  4.0000000E+04;  0.0000000E+00;  4.0000000E+04; -1.7409364E-02;  0.0000000E+00;  4.6965276E-04;  1.2667185E+03;
 -5.0000001E-02;  9.9999998E-03; -1.1000000E-01;1397;  0.0000000E+00;  0.0000000E+00;  0.0000000E+00;  1.0047863E+03;  1.0000000E-01;  3.9653201E+03;0;  0.0000000E+00;  0.0000000E+00;  0.0000000E+00;0; -1.7104806E-02;  4.0000000E+04;  0.0000000E+00;  0.0000000E+00;  4.0000000E+04;  0.0000000E+00;  4.0000000E+04; -1.7557841E-02;  0.0000000E+00;  4.5303477E-04;  1.2421306E+03;
 -3.9999999E-02;  9.9999998E-03; -2.7000001E-01;1472;  0.0000000E+00;  0.0000000E+00;  0.0000000E+00;  1.0028785E+03;  1.0000000E-01;  2.3848215E+03;0;  0.0000000E+00;  0.0000000E+00;  0.0000000E+00;0; -1.1834995E-02;  4.0000000E+04;  0.0000000E+00;  0.0000000E+00;  4.0000000E+04;  0.0000000E+00;  4.0000000E+04; -1.0850950E-02;  0.0000000E+00; -9.8404486E-04;  5.6972913E+02;
 -3.9999999E-02;  9.9999998E-03; -2.5999999E-01;1473;  0.0000000E+00;  0.0000000E+00;  0.0000000E+00;  1.0031780E+03;  1.0000000E-01;  2.6329131E+03;0;  0.0000000E+00;  0.0000000E+00;  0.0000000E+00;0; -1.2973937E-02;  4.0000000E+04;  0.0000000E+00;  0.0000000E+00;  4.0000000E+04;  0.0000000E+00;  4.0000000E+04; -1.2203806E-02;  0.0000000E+00; -7.7013136E-04;  1.1342930E+03;
 -3.9999999E-02;  9.9999998E-03; -2.5000000E-01;1474;  0.0000000E+00;  0.0000000E+00;  0.0000000E+00;  1.0034796E+03;  1.0000000E-01;  2.8827827E+03;0;  0.0000000E+00;  0.0000000E+00;  0.0000000E+00;0; -1.4052887E-02;  4.0000000E+04;  0.0000000E+00;  0.0000000E+00;  4.0000000E+04;  0.0000000E+00;  4.0000000E+04; -1.3519828E-02;  0.0000000E+00; -5.3305901E-04;  1.6538746E+03;
 -3.9999999E-02;  9.9999998E-03; -2.3999999E-01;1475;  0.0000000E+00;  0.0000000E+00;  0.0000000E+00;  1.0037834E+03;  1.0000000E-01;  3.1345286E+03;0;  0.0000000E+00;  0.0000000E+00;  0.0000000E+00;0; -1.5075435E-02;  4.0000000E+04;  0.0000000E+00;  0.0000000E+00;  4.0000000E+04;  0.0000000E+00;  4.0000000E+04; -1.4784121E-02;  0.0000000E+00; -2.9131392E-04;  2.0700581E+03;
 -3.9999999E-02;  9.9999998E-03; -2.3000000E-01;1476;  0.0000000E+00;  0.0000000E+00;  0.0000000E+00;  1.0040934E+03;  1.0000000E-01;  3.3913115E+03;0;  0.0000000E+00;  0.0000000E+00;  0.0000000E+00;0; -1.6045878E-02;  4.0000000E+04;  0.0000000E+00;  0.0000000E+00;  4.0000000E+04;  0.0000000E+00;  4.0000000E+04; -1.5984720E-02;  0.0000000E+00; -6.1158069E-05;  2.3586746E+03;
 -3.9999999E-02;  9.9999998E-03; -2.2000000E-01;1477;  0.0000000E+00;  0.0000000E+00;  0.0000000E+00;  1.0044056E+03;  1.0000000E-01;  3.6499709E+03;0;  0.0000000E+00;  0.0000000E+00;  0.0000000E+00;0; -1.6966823E-02;  4.0000000E+04;  0.0000000E+00;  0.0000000E+00;  4.0000000E+04;  0.0000000E+00;  4.0000000E+04; -1.7111588E-02;  0.0000000E+00;  1.4476411E-04;  2.5166697E+03;
 -3.9999999E-02;  9.9999998E-03; -2.0999999E-01;1478;  0.0000000E+00;  0.0000000E+00;  0.0000000E+00;  1.0047181E+03;  1.0000000E-01;  3.9088276E+03;0;  0.0000000E+00;  0.0000000E+00;  0.0000000E+00;0; -1.7837914E-02;  4.0000000E+04;  0.0000000E+00;  0.0000000E+00;  4.0000000E+04;  0.0000000E+00;  4.0000000E+04; -1.8156052E-02;  0.0000000E+00;  3.1813799E-04;  2.5566418E+03;
 -3.9999999E-02;  9.9999998E-03; -2.0000000E-01;1479;  0.0000000E+00;  0.0000000E+00;  0.0000000E+00;  1.0050259E+03;  1.0000000E-01;  4.1639316E+03;0;  0.0000000E+00;  0.0000000E+00;  0.0000000E+00;0; -1.8655635E-02;  4.0000000E+04;  0.0000000E+00;  0.0000000E+00;  4.0000000E+04;  0.0000000E+00;  4.0000000E+04; -1.9110713E-02;  0.0000000E+00;  4.5507753E-04;  2.5014062E+03;
 -3.9999999E-02;  9.9999998E-03; -1.9000000E-01;1480;  0.0000000E+00;  0.0000000E+00;  0.0000000E+00;  1.0053219E+03;  1.0000000E-01;  4.4090605E+03;0;  0.0000000E+00;  0.0000000E+00;  0.0000000E+00;0; -1.9414119E-02;  4.0000000E+04;  0.0000000E+00;  0.0000000E+00;  4.0000000E+04;  0.0000000E+00;  4.0000000E+04; -1.9969799E-02;  0.0000000E+00;  5.5567984E-04;  2.3787122E+03;
 -3.9999999E-02;  9.9999998E-03; -1.8000001E-01;1481;  0.0000000E+00;  0.0000000E+00;  0.0000000E+00;  1.0056010E+03;  1.0000000E-01;  4.6403628E+03;0;  0.0000000E+00;  0.0000000E+00;  0.0000000E+00;0; -2.0106411E-02;  4.0000000E+04;  0.0000000E+00;  0.0000000E+00;  4.0000000E+04;  0.0000000E+00;  4.0000000E+04; -2.0729600E-02;  0.0000000E+00;  6.2318856E-04;  2.2169109E+03;
 -3.9999999E-02;  9.9999998E-03; -1.7000000E-01;1482;  0.0000000E+00;  0.0000000E+00;  0.0000000E+00;  1.0058518E+03;  1.0000000E-01;  4.8481592E+03;0;  0.0000000E+00;  0.0000000E+00;  0.0000000E+00;0; -2.0725794E-02;  4.0000000E+04;  0.0000000E+00;  0.0000000E+00;  4.0000000E+04;  0.0000000E+00;  4.0000000E+04; -2.1388730E-02;  0.0000000E+00;  6.6293526E-04;  2.0417056E+03;
 -3.9999999E-02;  9.9999998E-03; -1.6000000E-01;1483;  0.0000000E+00;  0.0000000E+00;  0.0000000E+00;  1.0060670E+03;  1.0000000E-01;  5.0264258E+03;0;  0.0000000E+00;  0.0000000E+00;  0.0000000E+00;0; -2.1267567E-02;  4.0000000E+04;  0.0000000E+00;  0.0000000E+00;  4.0000000E+04;  0.0000000E+00;  4.0000000E+04; -2.1948773E-02;  0.0000000E+00;  6.8120577E-04;  1.8738751E+03;
 -3.9999999E-02;  9.9999998E-03; -1.5000001E-01;1484;  0.0000000E+00;  0.0000000E+00;  0.0000000E+00;  1.0062467E+03;  1.0000000E-01;  5.1752612E+03;0;  0.0000000E+00;  0.0000000E+00;  0.0000000E+00;0; -2.1730106E-02;  4.0000000E+04;  0.0000000E+00;  0.0000000E+00;  4.0000000E+04;  0.0000000E+00;  4.0000000E+04; -2.2414282E-02;  0.0000000E+00;  6.8417605E-04;  1.7277668E+03;
 -3.9999999E-02;  9.9999998E-03; -1.4000000E-01;1485;  0.0000000E+00;  0.0000000E+00;  0.0000000E+00;  1.0063870E+03;  1.0000000E-01;  5.2915049E+03;0;  0.0000000E+00;  0.0000000E+00;  0.0000000E+00;0; -2.2116031E-02;  4.0000000E+04;  0.0000000E+00;  0.0000000E+00;  4.0000000E+04;  0.0000000E+00;  4.0000000E+04; -2.2793116E-02;  0.0000000E+00;  6.7708513E-04;  1.6106549E+03;
 -3.9999999E-02;  9.9999998E-03; -1.3000000E-01;1486;  0.0000000E+00;  0.0000000E+00;  0.0000000E+00;  1.0064904E+03;  1.0000000E-01;  5.3772305E+03;0;  0.0000000E+00;  0.0000000E+00;  0.0000000E+00;0; -2.2432322E-02;  4.0000000E+04;  0.0000000E+00;  0.0000000E+00;  4.0000000E+04;  0.0000000E+00;  4.0000000E+04; -2.3096260E-02;  0.0000000E+00;  6.6393876E-04;  1.5236526E+03;
 -3.9999999E-02;  9.9999998E-03; -1.2000000E-01;1487;  0.0000000E+00;  0.0000000E+00;  0.0000000E+00;  1.0065537E+03;  1.0000000E-01;  5.4296738E+03;0;  0.0000000E+00;  0.0000000E+00;  0.0000000E+00;0; -2.2689197E-02;  4.0000000E+04;  0.0000000E+00;  0.0000000E+00;  4.0000000E+04;  0.0000000E+00;  4.0000000E+04; -2.3337070E-02;  0.0000000E+00;  6.4787344E-04;  1.4650424E+03;
 -3.9999999E-02;  9.9999998E-03; -1.1000000E-01;1488;  0.0000000E+00;  0.0000000E+00;  0.0000000E+00;  1.0065843E+03;  1.0000000E-01;  5.4549570E+03;0;  0.0000000E+00;  0.0000000E+00;  0.0000000E+00;0; -2.2898234E-02;  4.0000000E+04;  0.0000000E+00;  0.0000000E+00;  4.0000000E+04;  0.0000000E+00;  4.0000000E+04; -2.3529755E-02;  0.0000000E+00;  6.3152029E-04;  1.4324492E+03;
 -2.9999999E-02;  9.9999998E-03; -2.7000001E-01;1563;  0.0000000E+00;  0.0000000E+00;  0.0000000E+00;  1.0038788E+03;  1.0000000E-01;  3.2135388E+03;0;  0.0000000E+00;  0.0000000E+00;  0.0000000E+00;0; -1.5350211E-02;  4.0000000E+04;  0.0000000E+00;  0.0000000E+00;  4.0000000E+04;  0.0000000E+00;  4.0000000E+04; -1.4061904E-02;  0.0000000E+00; -1.2883076E-03;  7.2675415E+02;
 -2.9999999E-02;  9.9999998E-03; -2.5999999E-01;1564;  0.0000000E+00;  0.0000000E+00;  0.0000000E+00;  1.0042815E+03;  1.0000000E-01;  3.5471589E+03;0;  0.0000000E+00;  0.0000000E+00;  0.0000000E+00;0; -1.6826946E-02;  4.0000000E+04;  0.0000000E+00;  0.0000000E+00;  4.0000000E+04;  0.0000000E+00;  4.0000000E+04; -1.5814044E-02;  0.0000000E+00; -1.0129034E-03;  1.4080618E+03;
 -2.9999999E-02;  9.9999998E-03; -2.5000000E-01;1565;  0.0000000E+00;  0.0000000E+00;  0.0000000E+00;  1.0046793E+03;  1.0000000E-01;  3.8766311E+03;0;  0.0000000E+00;  0.0000000E+00;  0.0000000E+00;0; -1.8226137E-02;  4.0000000E+04;  0.0000000E+00;  0.0000000E+00;  4.0000000E+04;  0.0000000E+00;  4.0000000E+04; -1.7517060E-02;  0.0000000E+00; -7.0907682E-04;  2.0197465E+03;
 -2.9999999E-02;  9.9999998E-03; -2.3999999E-01;1566;  0.0000000E+00;  0.0000000E+00;  0.0000000E+00;  1.0050813E+03;  1.0000000E-01;  4.2097573E+03;0;  0.0000000E+00;  0.0000000E+00;  0.0000000E+00;0; -1.9551639E-02;  4.0000000E+04;  0.0000000E+00;  0.0000000E+00;  4.0000000E+04;  0.0000000E+00;  4.0000000E+04; -1.9151391E-02;  0.0000000E+00; -4.0024781E-04;  2.4944890E+03;
 -2.9999999E-02;  9.9999998E-03; -2.3000000E-01;1567;  0.0000000E+00;  0.0000000E+00;  0.0000000E+00;  1.0054888E+03;  1.0000000E-01;  4.5473281E+03;0;  0.0000000E+00;  0.0000000E+00;  0.0000000E+00;0; -2.0807564E-02;  4.0000000E+04;  0.0000000E+00;  0.0000000E+00;  4.0000000E+04;  0.0000000E+00;  4.0000000E+04; -2.0700891E-02;  0.0000000E+00; -1.0667434E-04;  2.8075774E+03;
 -2.9999999E-02;  9.9999998E-03; -2.2000000E-01;1568;  0.0000000E+00;  0.0000000E+00;  0.0000000E+00;  1.0058933E+03;  1.0000000E-01;  4.8825288E+03;0;  0.0000000E+00;  0.0000000E+00;  0.0000000E+00;0; -2.1995744E-02;  4.0000000E+04;  0.0000000E+00;  0.0000000E+00;  4.0000000E+04;  0.0000000E+00;  4.0000000E+04; -2.2151858E-02;  0.0000000E+00;  1.5611308E-04;  2.9610828E+03;
 -2.9999999E-02;  9.9999998E-03; -2.0999999E-01;1569;  0.0000000E+00;  0.0000000E+00;  0.0000000E+00;  1.0062993E+03;  1.0000000E-01;  5.2188154E+03;0;  0.0000000E+00;  0.0000000E+00;  0.0000000E+00;0; -2.3114465E-02;  4.0000000E+04;  0.0000000E+00;  0.0000000E+00;  4.0000000E+04;  0.0000000E+00;  4.0000000E+04; -2.3492556E-02;  0.0000000E+00;  3.7809141E-04;  2.9756560E+03;
 -2.9999999E-02;  9.9999998E-03; -2.0000000E-01;1570;  0.0000000E+00;  0.0000000E+00;  0.0000000E+00;  1.0066967E+03;  1.0000000E-01;  5.5480898E+03;0;  0.0000000E+00;  0.0000000E+00;  0.0000000E+00;0; -2.4158549E-02;  4.0000000E+04;  0.0000000E+00;  0.0000000E+00;  4.0000000E+04;  0.0000000E+00;  4.0000000E+04; -2.4713326E-02;  0.0000000E+00;  5.5477733E-04;  2.8828147E+03;
 -2.9999999E-02;  9.9999998E-03; -1.9000000E-01;1571;  0.0000000E+00;  0.0000000E+00;  0.0000000E+00;  1.0070769E+03;  1.0000000E-01;  5.8630439E+03;0;  0.0000000E+00;  0.0000000E+00;  0.0000000E+00;0; -2.5120586E-02;  4.0000000E+04;  0.0000000E+00;  0.0000000E+00;  4.0000000E+04;  0.0000000E+00;  4.0000000E+04; -2.5807178E-02;  0.0000000E+00;  6.8659114E-04;  2.7178618E+03;
 -2.9999999E-02;  9.9999998E-03; -1.8000001E-01;1572;  0.0000000E+00;  0.0000000E+00;  0.0000000E+00;  1.0074312E+03;  1.0000000E-01;  6.1565664E+03;0;  0.0000000E+00;  0.0000000E+00;  0.0000000E+00;0; -2.5992414E-02;  4.0000000E+04;  0.0000000E+00;  0.0000000E+00;  4.0000000E+04;  0.0000000E+00;  4.0000000E+04; -2.6770167E-02;  0.0000000E+00;  7.7775272E-04;  2.5144653E+03;
 -2.9999999E-02;  9.9999998E-03; -1.7000000E-01;1573;  0.0000000E+00;  0.0000000E+00;  0.0000000E+00;  1.0077500E+03;  1.0000000E-01;  6.4207568E+03;0;  0.0000000E+00;  0.0000000E+00;  0.0000000E+00;0; -2.6766943E-02;  4.0000000E+04;  0.0000000E+00;  0.0000000E+00;  4.0000000E+04;  0.0000000E+00;  4.0000000E+04; -2.7601866E-02;  0.0000000E+00;  8.3492359E-04;  2.3015249E+03;
 -2.9999999E-02;  9.9999998E-03; -1.6000000E-01;1574;  0.0000000E+00;  0.0000000E+00;  0.0000000E+00;  1.0080228E+03;  1.0000000E-01;  6.6467256E+03;0;  0.0000000E+00;  0.0000000E+00;  0.0000000E+00;0; -2.7439930E-02;  4.0000000E+04;  0.0000000E+00;  0.0000000E+00;  4.0000000E+04;  0.0000000E+00;  4.0000000E+04; -2.8305752E-02;  0.0000000E+00;  8.6582184E-04;  2.1011492E+03;
 -2.9999999E-02;  9.9999998E-03; -1.5000001E-01;1575;  0.0000000E+00;  0.0000000E+00;  0.0000000E+00;  1.0082548E+03;  1.0000000E-01;  6.8389175E+03;0;  0.0000000E+00;  0.0000000E+00;  0.0000000E+00;0; -2.8011054E-02;  4.0000000E+04;  0.0000000E+00;  0.0000000E+00;  4.0000000E+04;  0.0000000E+00;  4.0000000E+04; -2.8889023E-02;  0.0000000E+00;  8.7796838E-04;  1.9280068E+03;
 -2.9999999E-02;  9.9999998E-03; -1.4000000E-01;1576;  0.0000000E+00;  0.0000000E+00;  0.0000000E+00;  1.0084362E+03;  1.0000000E-01;  6.9892344E+03;0;  0.0000000E+00;  0.0000000E+00;  0.0000000E+00;0; -2.8484929E-02;  4.0000000E+04;  0.0000000E+00;  0.0000000E+00;  4.0000000E+04;  0.0000000E+00;  4.0000000E+04; -2.9362638E-02;  0.0000000E+00;  8.7770878E-04;  1.7893136E+03;
 -2.9999999E-02;  9.9999998E-03; -1.3000000E-01;1577;  0.0000000E+00;  0.0000000E+00;  0.0000000E+00;  1.0085618E+03;  1.0000000E-01;  7.0933301E+03;0;  0.0000000E+00;  0.0000000E+00;  0.0000000E+00;0; -2.8871285E-02;  4.0000000E+04;  0.0000000E+00;  0.0000000E+00;  4.0000000E+04;  0.0000000E+00;  4.0000000E+04; -2.9741039E-02;  0.0000000E+00;  8.6975523E-04;  1.6855243E+03;
 -2.9999999E-02;  9.9999998E-03; -1.2000000E-01;1578;  0.0000000E+00;  0.0000000E+00;  0.0000000E+00;  1.0086387E+03;  1.0000000E-01;  7.1569336E+03;0;  0.0000000E+00;  0.0000000E+00;  0.0000000E+00;0; -2.9183596E-02;  4.0000000E+04;  0.0000000E+00;  0.0000000E+00;  4.0000000E+04;  0.0000000E+00;  4.0000000E+04; -3.0041229E-02;  0.0000000E+00;  8.5763255E-04;  1.6140581E+03;
 -2.9999999E-02;  9.9999998E-03; -1.1000000E-01;1579;  0.0000000E+00;  0.0000000E+00;  0.0000000E+00;  1.0086702E+03;  1.0000000E-01;  7.1831055E+03;0;  0.0000000E+00;  0.0000000E+00;  0.0000000E+00;0; -2.9436678E-02;  4.0000000E+04;  0.0000000E+00;  0.0000000E+00;  4.0000000E+04;  0.0000000E+00;  4.0000000E+04; -3.0280899E-02;  0.0000000E+00;  8.4422244E-04;  1.5720781E+03;
 -2.0000000E-02;  9.9999998E-03; -2.7000001E-01;1654;  0.0000000E+00;  0.0000000E+00;  0.0000000E+00;  1.0050164E+03;  1.0000000E-01;  4.1559316E+03;0;  0.0000000E+00;  0.0000000E+00;  0.0000000E+00;0; -1.9168427E-02;  4.0000000E+04;  0.0000000E+00;  0.0000000E+00;  4.0000000E+04;  0.0000000E+00;  4.0000000E+04; -1.7539689E-02;  0.0000000E+00; -1.6287382E-03;  8.9764929E+02;
 -2.0000000E-02;  9.9999998E-03; -2.5999999E-01;1655;  0.0000000E+00;  0.0000000E+00;  0.0000000E+00;  1.0055311E+03;  1.0000000E-01;  4.5823892E+03;0;  0.0000000E+00;  0.0000000E+00;  0.0000000E+00;0; -2.1010751E-02;  4.0000000E+04;  0.0000000E+00;  0.0000000E+00;  4.0000000E+04;  0.0000000E+00;  4.0000000E+04; -1.9726308E-02;  0.0000000E+00; -1.2844434E-03;  1.6931792E+03;
 -2.0000000E-02;  9.9999998E-03; -2.5000000E-01;1656;  0.0000000E+00;  0.0000000E+00;  0.0000000E+00;  1.0060422E+03;  1.0000000E-01;  5.0058833E+03;0;  0.0000000E+00;  0.0000000E+00;  0.0000000E+00;0; -2.2756483E-02;  4.0000000E+04;  0.0000000E+00;  0.0000000E+00;  4.0000000E+04;  0.0000000E+00;  4.0000000E+04; -2.1849679E-02;  0.0000000E+00; -9.0680498E-04;  2.3856919E+03;
 -2.0000000E-02;  9.9999998E-03; -2.3999999E-01;1657;  0.0000000E+00;  0.0000000E+00;  0.0000000E+00;  1.0065505E+03;  1.0000000E-01;  5.4270068E+03;0;  0.0000000E+00;  0.0000000E+00;  0.0000000E+00;0; -2.4409389E-02;  4.0000000E+04;  0.0000000E+00;  0.0000000E+00;  4.0000000E+04;  0.0000000E+00;  4.0000000E+04; -2.3884861E-02;  0.0000000E+00; -5.2452763E-04;  2.9014485E+03;
 -2.0000000E-02;  9.9999998E-03; -2.3000000E-01;1658;  0.0000000E+00;  0.0000000E+00;  0.0000000E+00;  1.0070630E+03;  1.0000000E-01;  5.8515874E+03;0;  0.0000000E+00;  0.0000000E+00;  0.0000000E+00;0; -2.5973156E-02;  4.0000000E+04;  0.0000000E+00;  0.0000000E+00;  4.0000000E+04;  0.0000000E+00;  4.0000000E+04; -2.5811048E-02;  0.0000000E+00; -1.6210871E-04;  3.2181223E+03;
 -2.0000000E-02;  9.9999998E-03; -2.2000000E-01;1659;  0.0000000E+00;  0.0000000E+00;  0.0000000E+00;  1.0075726E+03;  1.0000000E-01;  6.2737979E+03;0;  0.0000000E+00;  0.0000000E+00;  0.0000000E+00;0; -2.7448414E-02;  4.0000000E+04;  0.0000000E+00;  0.0000000E+00;  4.0000000E+04;  0.0000000E+00;  4.0000000E+04; -2.7610345E-02;  0.0000000E+00;  1.6193114E-04;  3.3460840E+03;
 -2.0000000E-02;  9.9999998E-03; -2.0999999E-01;1660;  0.0000000E+00;  0.0000000E+00;  0.0000000E+00;  1.0080797E+03;  1.0000000E-01;  6.6939341E+03;0;  0.0000000E+00;  0.0000000E+00;  0.0000000E+00;0; -2.8831743E-02;  4.0000000E+04;  0.0000000E+00;  0.0000000E+00;  4.0000000E+04;  0.0000000E+00;  4.0000000E+04; -2.9267672E-02;  0.0000000E+00;  4.3593001E-04;  3.3170586E+03;
 -2.0000000E-02;  9.9999998E-03; -2.0000000E-01;1661;  0.0000000E+00;  0.0000000E+00;  0.0000000E+00;  1.0085703E+03;  1.0000000E-01;  7.1003423E+03;0;  0.0000000E+00;  0.0000000E+00;  0.0000000E+00;0; -3.0116066E-02;  4.0000000E+04;  0.0000000E+00;  0.0000000E+00;  4.0000000E+04;  0.0000000E+00;  4.0000000E+04; -3.0771108E-02;  0.0000000E+00;  6.5504183E-04;  3.1733267E+03;
 -2.0000000E-02;  9.9999998E-03; -1.9000000E-01;1662;  0.0000000E+00;  0.0000000E+00;  0.0000000E+00;  1.0090409E+03;  1.0000000E-01;  7.4902573E+03;0;  0.0000000E+00;  0.0000000E+00;  0.0000000E+00;0; -3.1292208E-02;  4.0000000E+04;  0.0000000E+00;  0.0000000E+00;  4.0000000E+04;  0.0000000E+00;  4.0000000E+04; -3.2112561E-02;  0.0000000E+00;  8.2035206E-04;  2.9585659E+03;
 -2.0000000E-02;  9.9999998E-03; -1.8000001E-01;1663;  0.0000000E+00;  0.0000000E+00;  0.0000000E+00;  1.0094740E+03;  1.0000000E-01;  7.8490620E+03;0;  0.0000000E+00;  0.0000000E+00;  0.0000000E+00;0; -3.2350920E-02;  4.0000000E+04;  0.0000000E+00;  0.0000000E+00;  4.0000000E+04;  0.0000000E+00;  4.0000000E+04; -3.3288341E-02;  0.0000000E+00;  9.3742006E-04;  2.7117205E+03;
 -2.0000000E-02;  9.9999998E-03; -1.7000000E-01;1664;  0.0000000E+00;  0.0000000E+00;  0.0000000E+00;  1.0098635E+03;  1.0000000E-01;  8.1717197E+03;0;  0.0000000E+00;  0.0000000E+00;  0.0000000E+00;0; -3.3284992E-02;  4.0000000E+04;  0.0000000E+00;  0.0000000E+00;  4.0000000E+04;  0.0000000E+00;  4.0000000E+04; -3.4299530E-02;  0.0000000E+00;  1.0145369E-03;  2.4636658E+03;
 -2.0000000E-02;  9.9999998E-03; -1.6000000E-01;1665;  0.0000000E+00;  0.0000000E+00;  0.0000000E+00;  1.0102076E+03;  1.0000000E-01;  8.4567480E+03;0;  0.0000000E+00;  0.0000000E+00;  0.0000000E+00;0; -3.4090940E-02;  4.0000000E+04;  0.0000000E+00;  0.0000000E+00;  4.0000000E+04;  0.0000000E+00;  4.0000000E+04; -3.5151973E-02;  0.0000000E+00;  1.0610336E-03;  2.2361238E+03;
 -2.0000000E-02;  9.9999998E-03; -1.5000001E-01;1666;  0.0000000E+00;  0.0000000E+00;  0.0000000E+00;  1.0104893E+03;  1.0000000E-01;  8.6902236E+03;0;  0.0000000E+00;  0.0000000E+00;  0.0000000E+00;0; -3.4770370E-02;  4.0000000E+04;  0.0000000E+00;  0.0000000E+00;  4.0000000E+04;  0.0000000E+00;  4.0000000E+04; -3.5856154E-02;  0.0000000E+00;  1.0857860E-03;  2.0422238E+03;
 -2.0000000E-02;  9.9999998E-03; -1.4000000E-01;1667;  0.0000000E+00;  0.0000000E+00;  0.0000000E+00;  1.0107034E+03;  1.0000000E-01;  8.8676006E+03;0;  0.0000000E+00;  0.0000000E+00;  0.0000000E+00;0; -3.5330597E-02;  4.0000000E+04;  0.0000000E+00;  0.0000000E+00;  4.0000000E+04;  0.0000000E+00;  4.0000000E+04; -3.6426734E-02;  0.0000000E+00;  1.0961370E-03;  1.8874061E+03;
 -2.0000000E-02;  9.9999998E-03; -1.3000000E-01;1668;  0.0000000E+00;  0.0000000E+00;  0.0000000E+00;  1.0108500E+03;  1.0000000E-01;  8.9890791E+03;0;  0.0000000E+00;  0.0000000E+00;  0.0000000E+00;0; -3.5784382E-02;  4.0000000E+04;  0.0000000E+00;  0.0000000E+00;  4.0000000E+04;  0.0000000E+00;  4.0000000E+04; -3.6881711E-02;  0.0000000E+00;  1.0973273E-03;  1.7705804E+03;
 -2.0000000E-02;  9.9999998E-03; -1.2000000E-01;1669;  0.0000000E+00;  0.0000000E+00;  0.0000000E+00;  1.0109354E+03;  1.0000000E-01;  9.0596943E+03;0;  0.0000000E+00;  0.0000000E+00;  0.0000000E+00;0; -3.6149133E-02;  4.0000000E+04;  0.0000000E+00;  0.0000000E+00;  4.0000000E+04;  0.0000000E+00;  4.0000000E+04; -3.7242126E-02;  0.0000000E+00;  1.0929940E-03;  1.6877557E+03;
 -2.0000000E-02;  9.9999998E-03; -1.1000000E-01;1670;  0.0000000E+00;  0.0000000E+00;  0.0000000E+00;  1.0109666E+03;  1.0000000E-01;  9.0855703E+03;0;  0.0000000E+00;  0.0000000E+00;  0.0000000E+00;0; -3.6443371E-02;  4.0000000E+04;  0.0000000E+00;  0.0000000E+00;  4.0000000E+04;  0.0000000E+00;  4.0000000E+04; -3.7529394E-02;  0.0000000E+00;  1.0860240E-03;  1.6357362E+03;
 -9.9999998E-03;  9.9999998E-03; -2.7000001E-01;1745;  0.0000000E+00;  0.0000000E+00;  0.0000000E+00;  1.0062540E+03;  1.0000000E-01;  5.1812856E+03;0;  0.0000000E+00;  0.0000000E+00;  0.0000000E+00;0; -2.3092132E-02;  4.0000000E+04;  0.0000000E+00;  0.0000000E+00;  4.0000000E+04;  0.0000000E+00;  4.0000000E+04; -2.1101741E-02;  0.0000000E+00; -1.9903912E-03;  1.0844816E+03;
 -9.9999998E-03;  9.9999998E-03; -2.5999999E-01;1746;  0.0000000E+00;  0.0000000E+00;  0.0000000E+00;  1.0068886E+03;  1.0000000E-01;  5.7070977E+03;0;  0.0000000E+00;  0.0000000E+00;  0.0000000E+00;0; -2.5313435E-02;  4.0000000E+04;  0.0000000E+00;  0.0000000E+00;  4.0000000E+04;  0.0000000E+00;  4.0000000E+04; -2.3740426E-02;  0.0000000E+00; -1.5730101E-03;  1.9779272E+03;
 -9.9999998E-03;  9.9999998E-03; -2.5000000E-01;1747;  0.0000000E+00;  0.0000000E+00;  0.0000000E+00;  1.0075137E+03;  1.0000000E-01;  6.2250093E+03;0;  0.0000000E+00;  0.0000000E+00;  0.0000000E+00;0; -2.7418470E-02;  4.0000000E+04;  0.0000000E+00;  0.0000000E+00;  4.0000000E+04;  0.0000000E+00;  4.0000000E+04; -2.6300542E-02;  0.0000000E+00; -1.1179284E-03;  2.7278186E+03;
 -9.9999998E-03;  9.9999998E-03; -2.3999999E-01;1748;  0.0000000E+00;  0.0000000E+00;  0.0000000E+00;  1.0081370E+03;  1.0000000E-01;  6.7413403E+03;0;  0.0000000E+00;  0.0000000E+00;  0.0000000E+00;0; -2.9410083E-02;  4.0000000E+04;  0.0000000E+00;  0.0000000E+00;  4.0000000E+04;  0.0000000E+00;  4.0000000E+04; -2.8750824E-02;  0.0000000E+00; -6.5925863E-04;  3.2572209E+03;
 -9.9999998E-03;  9.9999998E-03; -2.3000000E-01;1749;  0.0000000E+00;  0.0000000E+00;  0.0000000E+00;  1.0087587E+03;  1.0000000E-01;  7.2563872E+03;0;  0.0000000E+00;  0.0000000E+00;  0.0000000E+00;0; -3.1290751E-02;  4.0000000E+04;  0.0000000E+00;  0.0000000E+00;  4.0000000E+04;  0.0000000E+00;  4.0000000E+04; -3.1064885E-02;  0.0000000E+00; -2.2586640E-04;  3.5497183E+03;
 -9.9999998E-03;  9.9999998E-03; -2.2000000E-01;1750;  0.0000000E+00;  0.0000000E+00;  0.0000000E+00;  1.0093752E+03;  1.0000000E-01;  7.7671875E+03;0;  0.0000000E+00;  0.0000000E+00;  0.0000000E+00;0; -3.3059787E-02;  4.0000000E+04;  0.0000000E+00;  0.0000000E+00;  4.0000000E+04;  0.0000000E+00;  4.0000000E+04; -3.3220500E-02;  0.0000000E+00;  1.6071241E-04;  3.6273127E+03;
 -9.9999998E-03;  9.9999998E-03; -2.0999999E-01;1751;  0.0000000E+00;  0.0000000E+00;  0.0000000E+00;  1.0099816E+03;  1.0000000E-01;  8.2695938E+03;0;  0.0000000E+00;  0.0000000E+00;  0.0000000E+00;0; -3.4711935E-02;  4.0000000E+04;  0.0000000E+00;  0.0000000E+00;  4.0000000E+04;  0.0000000E+00;  4.0000000E+04; -3.5199266E-02;  0.0000000E+00;  4.8733017E-04;  3.5352803E+03;
 -9.9999998E-03;  9.9999998E-03; -2.0000000E-01;1752;  0.0000000E+00;  0.0000000E+00;  0.0000000E+00;  1.0105718E+03;  1.0000000E-01;  8.7585674E+03;0;  0.0000000E+00;  0.0000000E+00;  0.0000000E+00;0; -3.6238298E-02;  4.0000000E+04;  0.0000000E+00;  0.0000000E+00;  4.0000000E+04;  0.0000000E+00;  4.0000000E+04; -3.6987390E-02;  0.0000000E+00;  7.4909232E-04;  3.3279985E+03;
 -9.9999998E-03;  9.9999998E-03; -1.9000000E-01;1753;  0.0000000E+00;  0.0000000E+00;  0.0000000E+00;  1.0111320E+03;  1.0000000E-01;  9.2226523E+03;0;  0.0000000E+00;  0.0000000E+00;  0.0000000E+00;0; -3.7628122E-02;  4.0000000E+04;  0.0000000E+00;  0.0000000E+00;  4.0000000E+04;  0.0000000E+00;  4.0000000E+04; -3.8576283E-02;  0.0000000E+00;  9.4816089E-04;  3.0579517E+03;
 -9.9999998E-03;  9.9999998E-03; -1.8000001E-01;1754;  0.0000000E+00;  0.0000000E+00;  0.0000000E+00;  1.0116509E+03;  1.0000000E-01;  9.6525664E+03;0;  0.0000000E+00;  0.0000000E+00;  0.0000000E+00;0; -3.8871154E-02;  4.0000000E+04;  0.0000000E+00;  0.0000000E+00;  4.0000000E+04;  0.0000000E+00;  4.0000000E+04; -3.9963014E-02;  0.0000000E+00;  1.0918585E-03;  2.7686533E+03;
 -9.9999998E-03;  9.9999998E-03; -1.7000000E-01;1755;  0.0000000E+00;  0.0000000E+00;  0.0000000E+00;  1.0121162E+03;  1.0000000E-01;  1.0038037E+04;0;  0.0000000E+00;  0.0000000E+00;  0.0000000E+00;0; -3.9960414E-02;  4.0000000E+04;  0.0000000E+00;  0.0000000E+00;  4.0000000E+04;  0.0000000E+00;  4.0000000E+04; -4.1150872E-02;  0.0000000E+00;  1.1904563E-03;  2.4915566E+03;
 -9.9999998E-03;  9.9999998E-03; -1.6000000E-01;1756;  0.0000000E+00;  0.0000000E+00;  0.0000000E+00;  1.0125157E+03;  1.0000000E-01;  1.0369090E+04;0;  0.0000000E+00;  0.0000000E+00;  0.0000000E+00;0; -4.0893689E-02;  4.0000000E+04;  0.0000000E+00;  0.0000000E+00;  4.0000000E+04;  0.0000000E+00;  4.0000000E+04; -4.2148754E-02;  0.0000000E+00;  1.2550643E-03;  2.2461792E+03;
 -9.9999998E-03;  9.9999998E-03; -1.5000001E-01;1757;  0.0000000E+00;  0.0000000E+00;  0.0000000E+00;  1.0128384E+03;  1.0000000E-01;  1.0636341E+04;0;  0.0000000E+00;  0.0000000E+00;  0.0000000E+00;0; -4.1674737E-02;  4.0000000E+04;  0.0000000E+00;  0.0000000E+00;  4.0000000E+04;  0.0000000E+00;  4.0000000E+04; -4.2970624E-02;  0.0000000E+00;  1.2958886E-03;  2.0418743E+03;
 -9.9999998E-03;  9.9999998E-03; -1.4000000E-01;1758;  0.0000000E+00;  0.0000000E+00;  0.0000000E+00;  1.0130768E+03;  1.0000000E-01;  1.0833965E+04;0;  0.0000000E+00;  0.0000000E+00;  0.0000000E+00;0; -4.2314086E-02;  4.0000000E+04;  0.0000000E+00;  0.0000000E+00;  4.0000000E+04;  0.0000000E+00;  4.0000000E+04; -4.3635126E-02;  0.0000000E+00;  1.3210410E-03;  1.8802601E+03;
 -9.9999998E-03;  9.9999998E-03; -1.3000000E-01;1759;  0.0000000E+00;  0.0000000E+00;  0.0000000E+00;  1.0132372E+03;  1.0000000E-01;  1.0966801E+04;0;  0.0000000E+00;  0.0000000E+00;  0.0000000E+00;0; -4.2828344E-02;  4.0000000E+04;  0.0000000E+00;  0.0000000E+00;  4.0000000E+04;  0.0000000E+00;  4.0000000E+04; -4.4164322E-02;  0.0000000E+00;  1.3359766E-03;  1.7572678E+03;
 -9.9999998E-03;  9.9999998E-03; -1.2000000E-01;1760;  0.0000000E+00;  0.0000000E+00;  0.0000000E+00;  1.0133237E+03;  1.0000000E-01;  1.1038404E+04;0;  0.0000000E+00;  0.0000000E+00;  0.0000000E+00;0; -4.3238774E-02;  4.0000000E+04;  0.0000000E+00;  0.0000000E+00;  4.0000000E+04;  0.0000000E+00;  4.0000000E+04; -4.4582821E-02;  0.0000000E+00;  1.3440456E-03;  1.6667533E+03;
 -9.9999998E-03;  9.9999998E-03; -1.1000000E-01;1761;  0.0000000E+00;  0.0000000E+00;  0.0000000E+00;  1.0133441E+03;  1.0000000E-01;  1.1055391E+04;0;  0.0000000E+00;  0.0000000E+00;  0.0000000E+00;0; -4.3568131E-02;  4.0000000E+04;  0.0000000E+00;  0.0000000E+00;  4.0000000E+04;  0.0000000E+00;  4.0000000E+04; -4.4915888E-02;  0.0000000E+00;  1.3477590E-03;  1.6049785E+03;
 -1.9000000E-01;  9.9999998E-03; -1.0000000E-01;124;  0.0000000E+00;  0.0000000E+00;  0.0000000E+00;  1.0000000E+03;  1.0000000E-01;  0.0000000E+00;0;  0.0000000E+00;  0.0000000E+00;  0.0000000E+00;0;  0.0000000E+00;  4.0000000E+04;  0.0000000E+00;  0.0000000E+00;  4.0000000E+04;  0.0000000E+00;  4.0000000E+04;  0.0000000E+00;  0.0000000E+00;  0.0000000E+00;  0.0000000E+00;
 -1.9000000E-01;  9.9999998E-03; -9.0000004E-02;125;  0.0000000E+00;  0.0000000E+00;  0.0000000E+00;  1.0000000E+03;  1.0000000E-01;  0.0000000E+00;0;  0.0000000E+00;  0.0000000E+00;  0.0000000E+00;0;  0.0000000E+00;  4.0000000E+04;  0.0000000E+00;  0.0000000E+00;  4.0000000E+04;  0.0000000E+00;  4.0000000E+04;  0.0000000E+00;  0.0000000E+00;  0.0000000E+00;  0.0000000E+00;
 -1.9000000E-01;  9.9999998E-03; -7.9999998E-02;126;  0.0000000E+00;  0.0000000E+00;  0.0000000E+00;  1.0000000E+03;  1.0000000E-01;  0.0000000E+00;0;  0.0000000E+00;  0.0000000E+00;  0.0000000E+00;0;  0.0000000E+00;  4.0000000E+04;  0.0000000E+00;  0.0000000E+00;  4.0000000E+04;  0.0000000E+00;  4.0000000E+04;  0.0000000E+00;  0.0000000E+00;  0.0000000E+00;  0.0000000E+00;
 -1.9000000E-01;  9.9999998E-03; -7.0000000E-02;127;  0.0000000E+00;  0.0000000E+00;  0.0000000E+00;  1.0000000E+03;  1.0000000E-01;  0.0000000E+00;0;  0.0000000E+00;  0.0000000E+00;  0.0000000E+00;0;  0.0000000E+00;  4.0000000E+04;  0.0000000E+00;  0.0000000E+00;  4.0000000E+04;  0.0000000E+00;  4.0000000E+04;  0.0000000E+00;  0.0000000E+00;  0.0000000E+00;  0.0000000E+00;
 -1.9000000E-01;  9.9999998E-03; -5.9999999E-02;128;  0.0000000E+00;  0.0000000E+00;  0.0000000E+00;  1.0000000E+03;  1.0000000E-01;  0.0000000E+00;0;  0.0000000E+00;  0.0000000E+00;  0.0000000E+00;0;  0.0000000E+00;  4.0000000E+04;  0.0000000E+00;  0.0000000E+00;  4.0000000E+04;  0.0000000E+00;  4.0000000E+04;  0.0000000E+00;  0.0000000E+00;  0.0000000E+00;  0.0000000E+00;
 -1.9000000E-01;  9.9999998E-03; -5.0000001E-02;129;  0.0000000E+00;  0.0000000E+00;  0.0000000E+00;  1.0000000E+03;  1.0000000E-01;  0.0000000E+00;0;  0.0000000E+00;  0.0000000E+00;  0.0000000E+00;0;  0.0000000E+00;  4.0000000E+04;  0.0000000E+00;  0.0000000E+00;  4.0000000E+04;  0.0000000E+00;  4.0000000E+04;  0.0000000E+00;  0.0000000E+00;  0.0000000E+00;  0.0000000E+00;
 -1.9000000E-01;  9.9999998E-03; -3.9999999E-02;130;  0.0000000E+00;  0.0000000E+00;  0.0000000E+00;  1.0000000E+03;  1.0000000E-01;  0.0000000E+00;0;  0.0000000E+00;  0.0000000E+00;  0.0000000E+00;0;  0.0000000E+00;  4.0000000E+04;  0.0000000E+00;  0.0000000E+00;  4.0000000E+04;  0.0000000E+00;  4.0000000E+04;  0.0000000E+00;  0.0000000E+00;  0.0000000E+00;  0.0000000E+00;
 -1.9000000E-01;  9.9999998E-03; -2.9999999E-02;131;  0.0000000E+00;  0.0000000E+00;  0.0000000E+00;  1.0000000E+03;  1.0000000E-01;  0.0000000E+00;0;  0.0000000E+00;  0.0000000E+00;  0.0000000E+00;0;  0.0000000E+00;  4.0000000E+04;  0.0000000E+00;  0.0000000E+00;  4.0000000E+04;  0.0000000E+00;  4.0000000E+04;  0.0000000E+00;  0.0000000E+00;  0.0000000E+00;  0.0000000E+00;
 -1.9000000E-01;  9.9999998E-03; -2.0000000E-02;132;  0.0000000E+00;  0.0000000E+00;  0.0000000E+00;  1.0000000E+03;  1.0000000E-01;  0.0000000E+00;0;  0.0000000E+00;  0.0000000E+00;  0.0000000E+00;0;  0.0000000E+00;  4.0000000E+04;  0.0000000E+00;  0.0000000E+00;  4.0000000E+04;  0.0000000E+00;  4.0000000E+04;  0.0000000E+00;  0.0000000E+00;  0.0000000E+00;  0.0000000E+00;
 -1.9000000E-01;  9.9999998E-03; -9.9999998E-03;133;  0.0000000E+00;  0.0000000E+00;  0.0000000E+00;  1.0000000E+03;  1.0000000E-01;  0.0000000E+00;0;  0.0000000E+00;  0.0000000E+00;  0.0000000E+00;0;  0.0000000E+00;  4.0000000E+04;  0.0000000E+00;  0.0000000E+00;  4.0000000E+04;  0.0000000E+00;  4.0000000E+04;  0.0000000E+00;  0.0000000E+00;  0.0000000E+00;  0.0000000E+00;
 -1.9000000E-01;  9.9999998E-03;  0.0000000E+00;134;  0.0000000E+00;  0.0000000E+00;  0.0000000E+00;  1.0000000E+03;  1.0000000E-01;  0.0000000E+00;0;  0.0000000E+00;  0.0000000E+00;  0.0000000E+00;0;  0.0000000E+00;  4.0000000E+04;  0.0000000E+00;  0.0000000E+00;  4.0000000E+04;  0.0000000E+00;  4.0000000E+04;  0.0000000E+00;  0.0000000E+00;  0.0000000E+00;  0.0000000E+00;
 -1.9000000E-01;  9.9999998E-03;  9.9999998E-03;135;  0.0000000E+00;  0.0000000E+00;  0.0000000E+00;  1.0000000E+03;  1.0000000E-01;  0.0000000E+00;0;  0.0000000E+00;  0.0000000E+00;  0.0000000E+00;0;  0.0000000E+00;  4.0000000E+04;  0.0000000E+00;  0.0000000E+00;  4.0000000E+04;  0.0000000E+00;  4.0000000E+04;  0.0000000E+00;  0.0000000E+00;  0.0000000E+00;  0.0000000E+00;
 -1.9000000E-01;  9.9999998E-03;  2.0000000E-02;136;  0.0000000E+00;  0.0000000E+00;  0.0000000E+00;  1.0000000E+03;  1.0000000E-01;  0.0000000E+00;0;  0.0000000E+00;  0.0000000E+00;  0.0000000E+00;0;  0.0000000E+00;  4.0000000E+04;  0.0000000E+00;  0.0000000E+00;  4.0000000E+04;  0.0000000E+00;  4.0000000E+04;  0.0000000E+00;  0.0000000E+00;  0.0000000E+00;  0.0000000E+00;
 -1.9000000E-01;  9.9999998E-03;  2.9999999E-02;137;  0.0000000E+00;  0.0000000E+00;  0.0000000E+00;  1.0000000E+03;  1.0000000E-01;  0.0000000E+00;0;  0.0000000E+00;  0.0000000E+00;  0.0000000E+00;0;  0.0000000E+00;  4.0000000E+04;  0.0000000E+00;  0.0000000E+00;  4.0000000E+04;  0.0000000E+00;  4.0000000E+04;  0.0000000E+00;  0.0000000E+00;  0.0000000E+00;  0.0000000E+00;
 -1.9000000E-01;  9.9999998E-03;  3.9999999E-02;138;  0.0000000E+00;  0.0000000E+00;  0.0000000E+00;  1.0000000E+03;  1.0000000E-01;  0.0000000E+00;0;  0.0000000E+00;  0.0000000E+00;  0.0000000E+00;0;  0.0000000E+00;  4.0000000E+04;  0.0000000E+00;  0.0000000E+00;  4.0000000E+04;  0.0000000E+00;  4.0000000E+04;  0.0000000E+00;  0.0000000E+00;  0.0000000E+00;  0.0000000E+00;
 -1.9000000E-01;  9.9999998E-03;  5.0000001E-02;139;  0.0000000E+00;  0.0000000E+00;  0.0000000E+00;  1.0000000E+03;  1.0000000E-01;  0.0000000E+00;0;  0.0000000E+00;  0.0000000E+00;  0.0000000E+00;0;  0.0000000E+00;  4.0000000E+04;  0.0000000E+00;  0.0000000E+00;  4.0000000E+04;  0.0000000E+00;  4.0000000E+04;  0.0000000E+00;  0.0000000E+00;  0.0000000E+00;  0.0000000E+00;
 -1.9000000E-01;  9.9999998E-03;  5.9999999E-02;140;  0.0000000E+00;  0.0000000E+00;  0.0000000E+00;  1.0000000E+03;  1.0000000E-01;  0.0000000E+00;0;  0.0000000E+00;  0.0000000E+00;  0.0000000E+00;0;  0.0000000E+00;  4.0000000E+04;  0.0000000E+00;  0.0000000E+00;  4.0000000E+04;  0.0000000E+00;  4.0000000E+04;  0.0000000E+00;  0.0000000E+00;  0.0000000E+00;  0.0000000E+00;
 -1.8000001E-01;  9.9999998E-03; -1.0000000E-01;215;  0.0000000E+00;  0.0000000E+00;  0.0000000E+00;  1.0000000E+03;  1.0000000E-01;  0.0000000E+00;0;  0.0000000E+00;  0.0000000E+00;  0.0000000E+00;0;  0.0000000E+00;  4.0000000E+04;  0.0000000E+00;  0.0000000E+00;  4.0000000E+04;  0.0000000E+00;  4.0000000E+04;  0.0000000E+00;  0.0000000E+00;  0.0000000E+00;  0.0000000E+00;
 -1.8000001E-01;  9.9999998E-03; -9.0000004E-02;216;  0.0000000E+00;  0.0000000E+00;  0.0000000E+00;  1.0000000E+03;  1.0000000E-01;  0.0000000E+00;0;  0.0000000E+00;  0.0000000E+00;  0.0000000E+00;0;  0.0000000E+00;  4.0000000E+04;  0.0000000E+00;  0.0000000E+00;  4.0000000E+04;  0.0000000E+00;  4.0000000E+04;  0.0000000E+00;  0.0000000E+00;  0.0000000E+00;  0.0000000E+00;
 -1.8000001E-01;  9.9999998E-03; -7.9999998E-02;217;  0.0000000E+00;  0.0000000E+00;  0.0000000E+00;  1.0000000E+03;  1.0000000E-01;  0.0000000E+00;0;  0.0000000E+00;  0.0000000E+00;  0.0000000E+00;0;  0.0000000E+00;  4.0000000E+04;  0.0000000E+00;  0.0000000E+00;  4.0000000E+04;  0.0000000E+00;  4.0000000E+04;  0.0000000E+00;  0.0000000E+00;  0.0000000E+00;  0.0000000E+00;
 -1.8000001E-01;  9.9999998E-03; -7.0000000E-02;218;  0.0000000E+00;  0.0000000E+00;  0.0000000E+00;  1.0000000E+03;  1.0000000E-01;  0.0000000E+00;0;  0.0000000E+00;  0.0000000E+00;  0.0000000E+00;0;  0.0000000E+00;  4.0000000E+04;  0.0000000E+00;  0.0000000E+00;  4.0000000E+04;  0.0000000E+00;  4.0000000E+04;  0.0000000E+00;  0.0000000E+00;  0.0000000E+00;  0.0000000E+00;
 -1.8000001E-01;  9.9999998E-03; -5.9999999E-02;219;  0.0000000E+00;  0.0000000E+00;  0.0000000E+00;  1.0000000E+03;  1.0000000E-01;  0.0000000E+00;0;  0.0000000E+00;  0.0000000E+00;  0.0000000E+00;0;  0.0000000E+00;  4.0000000E+04;  0.0000000E+00;  0.0000000E+00;  4.0000000E+04;  0.0000000E+00;  4.0000000E+04;  0.0000000E+00;  0.0000000E+00;  0.0000000E+00;  0.0000000E+00;
 -1.8000001E-01;  9.9999998E-03; -5.0000001E-02;220;  0.0000000E+00;  0.0000000E+00;  0.0000000E+00;  1.0000000E+03;  1.0000000E-01;  0.0000000E+00;0;  0.0000000E+00;  0.0000000E+00;  0.0000000E+00;0;  0.0000000E+00;  4.0000000E+04;  0.0000000E+00;  0.0000000E+00;  4.0000000E+04;  0.0000000E+00;  4.0000000E+04;  0.0000000E+00;  0.0000000E+00;  0.0000000E+00;  0.0000000E+00;
 -1.8000001E-01;  9.9999998E-03; -3.9999999E-02;221;  0.0000000E+00;  0.0000000E+00;  0.0000000E+00;  1.0000000E+03;  1.0000000E-01;  0.0000000E+00;0;  0.0000000E+00;  0.0000000E+00;  0.0000000E+00;0;  0.0000000E+00;  4.0000000E+04;  0.0000000E+00;  0.0000000E+00;  4.0000000E+04;  0.0000000E+00;  4.0000000E+04;  0.0000000E+00;  0.0000000E+00;  0.0000000E+00;  0.0000000E+00;
 -1.8000001E-01;  9.9999998E-03; -2.9999999E-02;222;  0.0000000E+00;  0.0000000E+00;  0.0000000E+00;  1.0000000E+03;  1.0000000E-01;  0.0000000E+00;0;  0.0000000E+00;  0.0000000E+00;  0.0000000E+00;0;  0.0000000E+00;  4.0000000E+04;  0.0000000E+00;  0.0000000E+00;  4.0000000E+04;  0.0000000E+00;  4.0000000E+04;  0.0000000E+00;  0.0000000E+00;  0.0000000E+00;  0.0000000E+00;
 -1.8000001E-01;  9.9999998E-03; -2.0000000E-02;223;  0.0000000E+00;  0.0000000E+00;  0.0000000E+00;  1.0000000E+03;  1.0000000E-01;  0.0000000E+00;0;  0.0000000E+00;  0.0000000E+00;  0.0000000E+00;0;  0.0000000E+00;  4.0000000E+04;  0.0000000E+00;  0.0000000E+00;  4.0000000E+04;  0.0000000E+00;  4.0000000E+04;  0.0000000E+00;  0.0000000E+00;  0.0000000E+00;  0.0000000E+00;
 -1.8000001E-01;  9.9999998E-03; -9.9999998E-03;224;  0.0000000E+00;  0.0000000E+00;  0.0000000E+00;  1.0000000E+03;  1.0000000E-01;  0.0000000E+00;0;  0.0000000E+00;  0.0000000E+00;  0.0000000E+00;0;  0.0000000E+00;  4.0000000E+04;  0.0000000E+00;  0.0000000E+00;  4.0000000E+04;  0.0000000E+00;  4.0000000E+04;  0.0000000E+00;  0.0000000E+00;  0.0000000E+00;  0.0000000E+00;
 -1.8000001E-01;  9.9999998E-03;  0.0000000E+00;225;  0.0000000E+00;  0.0000000E+00;  0.0000000E+00;  1.0000000E+03;  1.0000000E-01;  0.0000000E+00;0;  0.0000000E+00;  0.0000000E+00;  0.0000000E+00;0;  0.0000000E+00;  4.0000000E+04;  0.0000000E+00;  0.0000000E+00;  4.0000000E+04;  0.0000000E+00;  4.0000000E+04;  0.0000000E+00;  0.0000000E+00;  0.0000000E+00;  0.0000000E+00;
 -1.8000001E-01;  9.9999998E-03;  9.9999998E-03;226;  0.0000000E+00;  0.0000000E+00;  0.0000000E+00;  1.0000000E+03;  1.0000000E-01;  0.0000000E+00;0;  0.0000000E+00;  0.0000000E+00;  0.0000000E+00;0;  0.0000000E+00;  4.0000000E+04;  0.0000000E+00;  0.0000000E+00;  4.0000000E+04;  0.0000000E+00;  4.0000000E+04;  0.0000000E+00;  0.0000000E+00;  0.0000000E+00;  0.0000000E+00;
 -1.8000001E-01;  9.9999998E-03;  2.0000000E-02;227;  0.0000000E+00;  0.0000000E+00;  0.0000000E+00;  1.0000000E+03;  1.0000000E-01;  0.0000000E+00;0;  0.0000000E+00;  0.0000000E+00;  0.0000000E+00;0;  0.0000000E+00;  4.0000000E+04;  0.0000000E+00;  0.0000000E+00;  4.0000000E+04;  0.0000000E+00;  4.0000000E+04;  0.0000000E+00;  0.0000000E+00;  0.0000000E+00;  0.0000000E+00;
 -1.8000001E-01;  9.9999998E-03;  2.9999999E-02;228;  0.0000000E+00;  0.0000000E+00;  0.0000000E+00;  1.0000000E+03;  1.0000000E-01;  0.0000000E+00;0;  0.0000000E+00;  0.0000000E+00;  0.0000000E+00;0;  0.0000000E+00;  4.0000000E+04;  0.0000000E+00;  0.0000000E+00;  4.0000000E+04;  0.0000000E+00;  4.0000000E+04;  0.0000000E+00;  0.0000000E+00;  0.0000000E+00;  0.0000000E+00;
 -1.8000001E-01;  9.9999998E-03;  3.9999999E-02;229;  0.0000000E+00;  0.0000000E+00;  0.0000000E+00;  1.0000000E+03;  1.0000000E-01;  0.0000000E+00;0;  0.0000000E+00;  0.0000000E+00;  0.0000000E+00;0;  0.0000000E+00;  4.0000000E+04;  0.0000000E+00;  0.0000000E+00;  4.0000000E+04;  0.0000000E+00;  4.0000000E+04;  0.0000000E+00;  0.0000000E+00;  0.0000000E+00;  0.0000000E+00;
 -1.8000001E-01;  9.9999998E-03;  5.0000001E-02;230;  0.0000000E+00;  0.0000000E+00;  0.0000000E+00;  1.0000000E+03;  1.0000000E-01;  0.0000000E+00;0;  0.0000000E+00;  0.0000000E+00;  0.0000000E+00;0;  0.0000000E+00;  4.0000000E+04;  0.0000000E+00;  0.0000000E+00;  4.0000000E+04;  0.0000000E+00;  4.0000000E+04;  0.0000000E+00;  0.0000000E+00;  0.0000000E+00;  0.0000000E+00;
 -1.8000001E-01;  9.9999998E-03;  5.9999999E-02;231;  0.0000000E+00;  0.0000000E+00;  0.0000000E+00;  1.0000000E+03;  1.0000000E-01;  0.0000000E+00;0;  0.0000000E+00;  0.0000000E+00;  0.0000000E+00;0;  0.0000000E+00;  4.0000000E+04;  0.0000000E+00;  0.0000000E+00;  4.0000000E+04;  0.0000000E+00;  4.0000000E+04;  0.0000000E+00;  0.0000000E+00;  0.0000000E+00;  0.0000000E+00;
 -1.7000000E-01;  9.9999998E-03; -1.0000000E-01;306;  0.0000000E+00;  0.0000000E+00;  0.0000000E+00;  1.0000000E+03;  1.0000000E-01;  0.0000000E+00;0;  0.0000000E+00;  0.0000000E+00;  0.0000000E+00;0;  0.0000000E+00;  4.0000000E+04;  0.0000000E+00;  0.0000000E+00;  4.0000000E+04;  0.0000000E+00;  4.0000000E+04;  0.0000000E+00;  0.0000000E+00;  0.0000000E+00;  1.9801023E-09;
 -1.7000000E-01;  9.9999998E-03; -9.0000004E-02;307;  0.0000000E+00;  0.0000000E+00;  0.0000000E+00;  1.0000000E+03;  1.0000000E-01;  0.0000000E+00;0;  0.0000000E+00;  0.0000000E+00;  0.0000000E+00;0;  0.0000000E+00;  4.0000000E+04;  0.0000000E+00;  0.0000000E+00;  4.0000000E+04;  0.0000000E+00;  4.0000000E+04;  0.0000000E+00;  0.0000000E+00;  0.0000000E+00;  1.9974504E-09;
 -1.7000000E-01;  9.9999998E-03; -7.9999998E-02;308;  0.0000000E+00;  0.0000000E+00;  0.0000000E+00;  1.0000000E+03;  1.0000000E-01;  0.0000000E+00;0;  0.0000000E+00;  0.0000000E+00;  0.0000000E+00;0;  0.0000000E+00;  4.0000000E+04;  0.0000000E+00;  0.0000000E+00;  4.0000000E+04;  0.0000000E+00;  4.0000000E+04;  0.0000000E+00;  0.0000000E+00;  0.0000000E+00;  2.0288866E-09;
 -1.7000000E-01;  9.9999998E-03; -7.0000000E-02;309;  0.0000000E+00;  0.0000000E+00;  0.0000000E+00;  1.0000000E+03;  1.0000000E-01;  0.0000000E+00;0;  0.0000000E+00;  0.0000000E+00;  0.0000000E+00;0;  0.0000000E+00;  4.0000000E+04;  0.0000000E+00;  0.0000000E+00;  4.0000000E+04;  0.0000000E+00;  4.0000000E+04;  0.0000000E+00;  0.0000000E+00;  0.0000000E+00;  2.0664868E-09;
 -1.7000000E-01;  9.9999998E-03; -5.9999999E-02;310;  0.0000000E+00;  0.0000000E+00;  0.0000000E+00;  1.0000000E+03;  1.0000000E-01;  0.0000000E+00;0;  0.0000000E+00;  0.0000000E+00;  0.0000000E+00;0;  0.0000000E+00;  4.0000000E+04;  0.0000000E+00;  0.0000000E+00;  4.0000000E+04;  0.0000000E+00;  4.0000000E+04;  0.0000000E+00;  0.0000000E+00;  0.0000000E+00;  2.0963358E-09;
 -1.7000000E-01;  9.9999998E-03; -5.0000001E-02;311;  0.0000000E+00;  0.0000000E+00;  0.0000000E+00;  1.0000000E+03;  1.0000000E-01;  0.0000000E+00;0;  0.0000000E+00;  0.0000000E+00;  0.0000000E+00;0;  0.0000000E+00;  4.0000000E+04;  0.0000000E+00;  0.0000000E+00;  4.0000000E+04;  0.0000000E+00;  4.0000000E+04;  0.0000000E+00;  0.0000000E+00;  0.0000000E+00;  2.0985100E-09;
 -1.7000000E-01;  9.9999998E-03; -3.9999999E-02;312;  0.0000000E+00;  0.0000000E+00;  0.0000000E+00;  1.0000000E+03;  1.0000000E-01;  0.0000000E+00;0;  0.0000000E+00;  0.0000000E+00;  0.0000000E+00;0;  0.0000000E+00;  4.0000000E+04;  0.0000000E+00;  0.0000000E+00;  4.0000000E+04;  0.0000000E+00;  4.0000000E+04;  0.0000000E+00;  0.0000000E+00;  0.0000000E+00;  2.0709305E-09;
 -1.7000000E-01;  9.9999998E-03; -2.9999999E-02;313;  0.0000000E+00;  0.0000000E+00;  0.0000000E+00;  1.0000000E+03;  1.0000000E-01;  0.0000000E+00;0;  0.0000000E+00;  0.0000000E+00;  0.0000000E+00;0;  0.0000000E+00;  4.0000000E+04;  0.0000000E+00;  0.0000000E+00;  4.0000000E+04;  0.0000000E+00;  4.0000000E+04;  0.0000000E+00;  0.0000000E+00;  0.0000000E+00;  2.0022204E-09;
 -1.7000000E-01;  9.9999998E-03; -2.0000000E-02;314;  0.0000000E+00;  0.0000000E+00;  0.0000000E+00;  1.0000000E+03;  1.0000000E-01;  0.0000000E+00;0;  0.0000000E+00;  0.0000000E+00;  0.0000000E+00;0;  0.0000000E+00;  4.0000000E+04;  0.0000000E+00;  0.0000000E+00;  4.0000000E+04;  0.0000000E+00;  4.0000000E+04;  0.0000000E+00;  0.0000000E+00;  0.0000000E+00;  1.8807096E-09;
 -1.7000000E-01;  9.9999998E-03; -9.9999998E-03;315;  0.0000000E+00;  0.0000000E+00;  0.0000000E+00;  1.0000000E+03;  1.0000000E-01;  0.0000000E+00;0;  0.0000000E+00;  0.0000000E+00;  0.0000000E+00;0;  0.0000000E+00;  4.0000000E+04;  0.0000000E+00;  0.0000000E+00;  4.0000000E+04;  0.0000000E+00;  4.0000000E+04;  0.0000000E+00;  0.0000000E+00;  0.0000000E+00;  1.7538491E-09;
 -1.7000000E-01;  9.9999998E-03;  0.0000000E+00;316;  0.0000000E+00;  0.0000000E+00;  0.0000000E+00;  1.0000000E+03;  1.0000000E-01;  0.0000000E+00;0;  0.0000000E+00;  0.0000000E+00;  0.0000000E+00;0;  0.0000000E+00;  4.0000000E+04;  0.0000000E+00;  0.0000000E+00;  4.0000000E+04;  0.0000000E+00;  4.0000000E+04;  0.0000000E+00;  0.0000000E+00;  0.0000000E+00;  1.6940426E-09;
 -1.7000000E-01;  9.9999998E-03;  9.9999998E-03;317;  0.0000000E+00;  0.0000000E+00;  0.0000000E+00;  1.0000000E+03;  1.0000000E-01;  0.0000000E+00;0;  0.0000000E+00;  0.0000000E+00;  0.0000000E+00;0;  0.0000000E+00;  4.0000000E+04;  0.0000000E+00;  0.0000000E+00;  4.0000000E+04;  0.0000000E+00;  4.0000000E+04;  0.0000000E+00;  0.0000000E+00;  0.0000000E+00;  1.7541210E-09;
 -1.7000000E-01;  9.9999998E-03;  2.0000000E-02;318;  0.0000000E+00;  0.0000000E+00;  0.0000000E+00;  1.0000000E+03;  1.0000000E-01;  0.0000000E+00;0;  0.0000000E+00;  0.0000000E+00;  0.0000000E+00;0;  0.0000000E+00;  4.0000000E+04;  0.0000000E+00;  0.0000000E+00;  4.0000000E+04;  0.0000000E+00;  4.0000000E+04;  0.0000000E+00;  0.0000000E+00;  0.0000000E+00;  1.8806892E-09;
 -1.7000000E-01;  9.9999998E-03;  2.9999999E-02;319;  0.0000000E+00;  0.0000000E+00;  0.0000000E+00;  1.0000000E+03;  1.0000000E-01;  0.0000000E+00;0;  0.0000000E+00;  0.0000000E+00;  0.0000000E+00;0;  0.0000000E+00;  4.0000000E+04;  0.0000000E+00;  0.0000000E+00;  4.0000000E+04;  0.0000000E+00;  4.0000000E+04;  0.0000000E+00;  0.0000000E+00;  0.0000000E+00;  2.0024555E-09;
 -1.7000000E-01;  9.9999998E-03;  3.9999999E-02;320;  0.0000000E+00;  0.0000000E+00;  0.0000000E+00;  1.0000000E+03;  1.0000000E-01;  0.0000000E+00;0;  0.0000000E+00;  0.0000000E+00;  0.0000000E+00;0;  0.0000000E+00;  4.0000000E+04;  0.0000000E+00;  0.0000000E+00;  4.0000000E+04;  0.0000000E+00;  4.0000000E+04;  0.0000000E+00;  0.0000000E+00;  0.0000000E+00;  2.0701814E-09;
 -1.7000000E-01;  9.9999998E-03;  5.0000001E-02;321;  0.0000000E+00;  0.0000000E+00;  0.0000000E+00;  1.0000000E+03;  1.0000000E-01;  0.0000000E+00;0;  0.0000000E+00;  0.0000000E+00;  0.0000000E+00;0;  0.0000000E+00;  4.0000000E+04;  0.0000000E+00;  0.0000000E+00;  4.0000000E+04;  0.0000000E+00;  4.0000000E+04;  0.0000000E+00;  0.0000000E+00;  0.0000000E+00;  2.0988598E-09;
 -1.7000000E-01;  9.9999998E-03;  5.9999999E-02;322;  0.0000000E+00;  0.0000000E+00;  0.0000000E+00;  1.0000000E+03;  1.0000000E-01;  0.0000000E+00;0;  0.0000000E+00;  0.0000000E+00;  0.0000000E+00;0;  0.0000000E+00;  4.0000000E+04;  0.0000000E+00;  0.0000000E+00;  4.0000000E+04;  0.0000000E+00;  4.0000000E+04;  0.0000000E+00;  0.0000000E+00;  0.0000000E+00;  2.0959194E-09;
 -1.6000000E-01;  9.9999998E-03; -1.0000000E-01;397;  0.0000000E+00;  0.0000000E+00;  0.0000000E+00;  1.0000000E+03;  1.0000000E-01;  0.0000000E+00;0;  0.0000000E+00;  0.0000000E+00;  0.0000000E+00;0; -2.7502543E-07;  4.0000000E+04;  0.0000000E+00;  0.0000000E+00;  4.0000000E+04;  0.0000000E+00;  4.0000000E+04; -2.7554228E-07;  0.0000000E+00;  5.1684984E-10;  2.6081166E-01;
 -1.6000000E-01;  9.9999998E-03; -9.0000004E-02;398;  0.0000000E+00;  0.0000000E+00;  0.0000000E+00;  1.0000000E+03;  1.0000000E-01;  0.0000000E+00;0;  0.0000000E+00;  0.0000000E+00;  0.0000000E+00;0; -2.7924884E-07;  4.0000000E+04;  0.0000000E+00;  0.0000000E+00;  4.0000000E+04;  0.0000000E+00;  4.0000000E+04; -2.7965248E-07;  0.0000000E+00;  4.0365716E-10;  2.5823119E-01;
 -1.6000000E-01;  9.9999998E-03; -7.9999998E-02;399;  0.0000000E+00;  0.0000000E+00;  0.0000000E+00;  1.0000000E+03;  1.0000000E-01;  0.0000000E+00;0;  0.0000000E+00;  0.0000000E+00;  0.0000000E+00;0; -2.8527739E-07;  4.0000000E+04;  0.0000000E+00;  0.0000000E+00;  4.0000000E+04;  0.0000000E+00;  4.0000000E+04; -2.8561908E-07;  0.0000000E+00;  3.4167166E-10;  2.5695544E-01;
 -1.6000000E-01;  9.9999998E-03; -7.0000000E-02;400;  0.0000000E+00;  0.0000000E+00;  0.0000000E+00;  1.0000000E+03;  1.0000000E-01;  0.0000000E+00;0;  0.0000000E+00;  0.0000000E+00;  0.0000000E+00;0; -2.9268944E-07;  4.0000000E+04;  0.0000000E+00;  0.0000000E+00;  4.0000000E+04;  0.0000000E+00;  4.0000000E+04; -2.9303058E-07;  0.0000000E+00;  3.4114611E-10;  2.5666785E-01;
 -1.6000000E-01;  9.9999998E-03; -5.9999999E-02;401;  0.0000000E+00;  0.0000000E+00;  0.0000000E+00;  1.0000000E+03;  1.0000000E-01;  0.0000000E+00;0;  0.0000000E+00;  0.0000000E+00;  0.0000000E+00;0; -3.0086358E-07;  4.0000000E+04;  0.0000000E+00;  0.0000000E+00;  4.0000000E+04;  0.0000000E+00;  4.0000000E+04; -3.0127075E-07;  0.0000000E+00;  4.0716200E-10;  2.5694492E-01;
 -1.6000000E-01;  9.9999998E-03; -5.0000001E-02;402;  0.0000000E+00;  0.0000000E+00;  0.0000000E+00;  1.0000000E+03;  1.0000000E-01;  0.0000000E+00;0;  0.0000000E+00;  0.0000000E+00;  0.0000000E+00;0; -3.0910988E-07;  4.0000000E+04;  0.0000000E+00;  0.0000000E+00;  4.0000000E+04;  0.0000000E+00;  4.0000000E+04; -3.0964438E-07;  0.0000000E+00;  5.3450844E-10;  2.5739944E-01;
 -1.6000000E-01;  9.9999998E-03; -3.9999999E-02;403;  0.0000000E+00;  0.0000000E+00;  0.0000000E+00;  1.0000000E+03;  1.0000000E-01;  0.0000000E+00;0;  0.0000000E+00;  0.0000000E+00;  0.0000000E+00;0; -3.1676072E-07;  4.0000000E+04;  0.0000000E+00;  0.0000000E+00;  4.0000000E+04;  0.0000000E+00;  4.0000000E+04; -3.1746646E-07;  0.0000000E+00;  7.0574352E-10;  2.5776276E-01;
 -1.6000000E-01;  9.9999998E-03; -2.9999999E-02;404;  0.0000000E+00;  0.0000000E+00;  0.0000000E+00;  1.0000000E+03;  1.0000000E-01;  0.0000000E+00;0;  0.0000000E+00;  0.0000000E+00;  0.0000000E+00;0; -3.2325249E-07;  4.0000000E+04;  0.0000000E+00;  0.0000000E+00;  4.0000000E+04;  0.0000000E+00;  4.0000000E+04; -3.2414550E-07;  0.0000000E+00;  8.9302155E-10;  2.5792044E-01;
 -1.6000000E-01;  9.9999998E-03; -2.0000000E-02;405;  0.0000000E+00;  0.0000000E+00;  0.0000000E+00;  1.0000000E+03;  1.0000000E-01;  0.0000000E+00;0;  0.0000000E+00;  0.0000000E+00;  0.0000000E+00;0; -3.2816027E-07;  4.0000000E+04;  0.0000000E+00;  0.0000000E+00;  4.0000000E+04;  0.0000000E+00;  4.0000000E+04; -3.2922267E-07;  0.0000000E+00;  1.0623996E-09;  2.5789773E-01;
 -1.6000000E-01;  9.9999998E-03; -9.9999998E-03;406;  0.0000000E+00;  0.0000000E+00;  0.0000000E+00;  1.0000000E+03;  1.0000000E-01;  0.0000000E+00;0;  0.0000000E+00;  0.0000000E+00;  0.0000000E+00;0; -3.3120850E-07;  4.0000000E+04;  0.0000000E+00;  0.0000000E+00;  4.0000000E+04;  0.0000000E+00;  4.0000000E+04; -3.3238916E-07;  0.0000000E+00;  1.1806524E-09;  2.5780228E-01;
 -1.6000000E-01;  9.9999998E-03;  0.0000000E+00;407;  0.0000000E+00;  0.0000000E+00;  0.0000000E+00;  1.0000000E+03;  1.0000000E-01;  0.0000000E+00;0;  0.0000000E+00;  0.0000000E+00;  0.0000000E+00;0; -3.3223827E-07;  4.0000000E+04;  0.0000000E+00;  0.0000000E+00;  4.0000000E+04;  0.0000000E+00;  4.0000000E+04; -3.3346140E-07;  0.0000000E+00;  1.2231236E-09;  2.5775525E-01;
 -1.6000000E-01;  9.9999998E-03;  9.9999998E-03;408;  0.0000000E+00;  0.0000000E+00;  0.0000000E+00;  1.0000000E+03;  1.0000000E-01;  0.0000000E+00;0;  0.0000000E+00;  0.0000000E+00;  0.0000000E+00;0; -3.3120818E-07;  4.0000000E+04;  0.0000000E+00;  0.0000000E+00;  4.0000000E+04;  0.0000000E+00;  4.0000000E+04; -3.3238882E-07;  0.0000000E+00;  1.1806492E-09;  2.5780210E-01;
 -1.6000000E-01;  9.9999998E-03;  2.0000000E-02;409;  0.0000000E+00;  0.0000000E+00;  0.0000000E+00;  1.0000000E+03;  1.0000000E-01;  0.0000000E+00;0;  0.0000000E+00;  0.0000000E+00;  0.0000000E+00;0; -3.2815984E-07;  4.0000000E+04;  0.0000000E+00;  0.0000000E+00;  4.0000000E+04;  0.0000000E+00;  4.0000000E+04; -3.2922225E-07;  0.0000000E+00;  1.0623984E-09;  2.5789759E-01;
 -1.6000000E-01;  9.9999998E-03;  2.9999999E-02;410;  0.0000000E+00;  0.0000000E+00;  0.0000000E+00;  1.0000000E+03;  1.0000000E-01;  0.0000000E+00;0;  0.0000000E+00;  0.0000000E+00;  0.0000000E+00;0; -3.2325170E-07;  4.0000000E+04;  0.0000000E+00;  0.0000000E+00;  4.0000000E+04;  0.0000000E+00;  4.0000000E+04; -3.2414471E-07;  0.0000000E+00;  8.9302288E-10;  2.5792032E-01;
 -1.6000000E-01;  9.9999998E-03;  3.9999999E-02;411;  0.0000000E+00;  0.0000000E+00;  0.0000000E+00;  1.0000000E+03;  1.0000000E-01;  0.0000000E+00;0;  0.0000000E+00;  0.0000000E+00;  0.0000000E+00;0; -3.1675961E-07;  4.0000000E+04;  0.0000000E+00;  0.0000000E+00;  4.0000000E+04;  0.0000000E+00;  4.0000000E+04; -3.1746535E-07;  0.0000000E+00;  7.0573763E-10;  2.5776261E-01;
 -1.6000000E-01;  9.9999998E-03;  5.0000001E-02;412;  0.0000000E+00;  0.0000000E+00;  0.0000000E+00;  1.0000000E+03;  1.0000000E-01;  0.0000000E+00;0;  0.0000000E+00;  0.0000000E+00;  0.0000000E+00;0; -3.0910820E-07;  4.0000000E+04;  0.0000000E+00;  0.0000000E+00;  4.0000000E+04;  0.0000000E+00;  4.0000000E+04; -3.0964270E-07;  0.0000000E+00;  5.3449239E-10;  2.5739920E-01;
 -1.6000000E-01;  9.9999998E-03;  5.9999999E-02;413;  0.0000000E+00;  0.0000000E+00;  0.0000000E+00;  1.0000000E+03;  1.0000000E-01;  0.0000000E+00;0;  0.0000000E+00;  0.0000000E+00;  0.0000000E+00;0; -3.0086130E-07;  4.0000000E+04;  0.0000000E+00;  0.0000000E+00;  4.0000000E+04;  0.0000000E+00;  4.0000000E+04; -3.0126844E-07;  0.0000000E+00;  4.0715278E-10;  2.5694481E-01;
 -1.5000001E-01;  9.9999998E-03; -1.0000000E-01;488;  0.0000000E+00;  0.0000000E+00;  0.0000000E+00;  1.0000000E+03;  1.0000000E-01;  0.0000000E+00;0;  0.0000000E+00;  0.0000000E+00;  0.0000000E+00;0; -7.5312710E-06;  4.0000000E+04;  0.0000000E+00;  0.0000000E+00;  4.0000000E+04;  0.0000000E+00;  4.0000000E+04; -7.5712751E-06;  0.0000000E+00;  4.0003926E-08;  3.7948656E+00;
 -1.5000001E-01;  9.9999998E-03; -9.0000004E-02;489;  0.0000000E+00;  0.0000000E+00;  0.0000000E+00;  1.0000000E+03;  1.0000000E-01;  0.0000000E+00;0;  0.0000000E+00;  0.0000000E+00;  0.0000000E+00;0; -7.6274614E-06;  4.0000000E+04;  0.0000000E+00;  0.0000000E+00;  4.0000000E+04;  0.0000000E+00;  4.0000000E+04; -7.6609476E-06;  0.0000000E+00;  3.3486089E-08;  3.7651308E+00;
 -1.5000001E-01;  9.9999998E-03; -7.9999998E-02;490;  0.0000000E+00;  0.0000000E+00;  0.0000000E+00;  1.0000000E+03;  1.0000000E-01;  0.0000000E+00;0;  0.0000000E+00;  0.0000000E+00;  0.0000000E+00;0; -7.7506247E-06;  4.0000000E+04;  0.0000000E+00;  0.0000000E+00;  4.0000000E+04;  0.0000000E+00;  4.0000000E+04; -7.7808118E-06;  0.0000000E+00;  3.0187213E-08;  3.7607982E+00;
 -1.5000001E-01;  9.9999998E-03; -7.0000000E-02;491;  0.0000000E+00;  0.0000000E+00;  0.0000000E+00;  1.0000000E+03;  1.0000000E-01;  0.0000000E+00;0;  0.0000000E+00;  0.0000000E+00;  0.0000000E+00;0; -7.8957810E-06;  4.0000000E+04;  0.0000000E+00;  0.0000000E+00;  4.0000000E+04;  0.0000000E+00;  4.0000000E+04; -7.9261363E-06;  0.0000000E+00;  3.0355640E-08;  3.7761643E+00;
 -1.5000001E-01;  9.9999998E-03; -5.9999999E-02;492;  0.0000000E+00;  0.0000000E+00;  0.0000000E+00;  1.0000000E+03;  1.0000000E-01;  0.0000000E+00;0;  0.0000000E+00;  0.0000000E+00;  0.0000000E+00;0; -8.0532081E-06;  4.0000000E+04;  0.0000000E+00;  0.0000000E+00;  4.0000000E+04;  0.0000000E+00;  4.0000000E+04; -8.0871705E-06;  0.0000000E+00;  3.3962241E-08;  3.8024273E+00;
 -1.5000001E-01;  9.9999998E-03; -5.0000001E-02;493;  0.0000000E+00;  0.0000000E+00;  0.0000000E+00;  1.0000000E+03;  1.0000000E-01;  0.0000000E+00;0;  0.0000000E+00;  0.0000000E+00;  0.0000000E+00;0; -8.2110191E-06;  4.0000000E+04;  0.0000000E+00;  0.0000000E+00;  4.0000000E+04;  0.0000000E+00;  4.0000000E+04; -8.2515435E-06;  0.0000000E+00;  4.0524178E-08;  3.8307669E+00;
 -1.5000001E-01;  9.9999998E-03; -3.9999999E-02;494;  0.0000000E+00;  0.0000000E+00;  0.0000000E+00;  1.0000000E+03;  1.0000000E-01;  0.0000000E+00;0;  0.0000000E+00;  0.0000000E+00;  0.0000000E+00;0; -8.3572240E-06;  4.0000000E+04;  0.0000000E+00;  0.0000000E+00;  4.0000000E+04;  0.0000000E+00;  4.0000000E+04; -8.4062731E-06;  0.0000000E+00;  4.9049419E-08;  3.8548100E+00;
 -1.5000001E-01;  9.9999998E-03; -2.9999999E-02;495;  0.0000000E+00;  0.0000000E+00;  0.0000000E+00;  1.0000000E+03;  1.0000000E-01;  0.0000000E+00;0;  0.0000000E+00;  0.0000000E+00;  0.0000000E+00;0; -8.4814101E-06;  4.0000000E+04;  0.0000000E+00;  0.0000000E+00;  4.0000000E+04;  0.0000000E+00;  4.0000000E+04; -8.5395404E-06;  0.0000000E+00;  5.8129945E-08;  3.8716831E+00;
 -1.5000001E-01;  9.9999998E-03; -2.0000000E-02;496;  0.0000000E+00;  0.0000000E+00;  0.0000000E+00;  1.0000000E+03;  1.0000000E-01;  0.0000000E+00;0;  0.0000000E+00;  0.0000000E+00;  0.0000000E+00;0; -8.5755210E-06;  4.0000000E+04;  0.0000000E+00;  0.0000000E+00;  4.0000000E+04;  0.0000000E+00;  4.0000000E+04; -8.6416885E-06;  0.0000000E+00;  6.6167679E-08;  3.8815117E+00;
 -1.5000001E-01;  9.9999998E-03; -9.9999998E-03;497;  0.0000000E+00;  0.0000000E+00;  0.0000000E+00;  1.0000000E+03;  1.0000000E-01;  0.0000000E+00;0;  0.0000000E+00;  0.0000000E+00;  0.0000000E+00;0; -8.6340506E-06;  4.0000000E+04;  0.0000000E+00;  0.0000000E+00;  4.0000000E+04;  0.0000000E+00;  4.0000000E+04; -8.7057388E-06;  0.0000000E+00;  7.1688049E-08;  3.8861189E+00;
 -1.5000001E-01;  9.9999998E-03;  0.0000000E+00;498;  0.0000000E+00;  0.0000000E+00;  0.0000000E+00;  1.0000000E+03;  1.0000000E-01;  0.0000000E+00;0;  0.0000000E+00;  0.0000000E+00;  0.0000000E+00;0; -8.6538921E-06;  4.0000000E+04;  0.0000000E+00;  0.0000000E+00;  4.0000000E+04;  0.0000000E+00;  4.0000000E+04; -8.7275448E-06;  0.0000000E+00;  7.3652956E-08;  3.8873854E+00;
 -1.5000001E-01;  9.9999998E-03;  9.9999998E-03;499;  0.0000000E+00;  0.0000000E+00;  0.0000000E+00;  1.0000000E+03;  1.0000000E-01;  0.0000000E+00;0;  0.0000000E+00;  0.0000000E+00;  0.0000000E+00;0; -8.6340433E-06;  4.0000000E+04;  0.0000000E+00;  0.0000000E+00;  4.0000000E+04;  0.0000000E+00;  4.0000000E+04; -8.7057315E-06;  0.0000000E+00;  7.1687985E-08;  3.8861206E+00;
 -1.5000001E-01;  9.9999998E-03;  2.0000000E-02;500;  0.0000000E+00;  0.0000000E+00;  0.0000000E+00;  1.0000000E+03;  1.0000000E-01;  0.0000000E+00;0;  0.0000000E+00;  0.0000000E+00;  0.0000000E+00;0; -8.5755073E-06;  4.0000000E+04;  0.0000000E+00;  0.0000000E+00;  4.0000000E+04;  0.0000000E+00;  4.0000000E+04; -8.6416749E-06;  0.0000000E+00;  6.6167566E-08;  3.8815122E+00;
 -1.5000001E-01;  9.9999998E-03;  2.9999999E-02;501;  0.0000000E+00;  0.0000000E+00;  0.0000000E+00;  1.0000000E+03;  1.0000000E-01;  0.0000000E+00;0;  0.0000000E+00;  0.0000000E+00;  0.0000000E+00;0; -8.4813828E-06;  4.0000000E+04;  0.0000000E+00;  0.0000000E+00;  4.0000000E+04;  0.0000000E+00;  4.0000000E+04; -8.5395122E-06;  0.0000000E+00;  5.8129711E-08;  3.8716831E+00;
 -1.5000001E-01;  9.9999998E-03;  3.9999999E-02;502;  0.0000000E+00;  0.0000000E+00;  0.0000000E+00;  1.0000000E+03;  1.0000000E-01;  0.0000000E+00;0;  0.0000000E+00;  0.0000000E+00;  0.0000000E+00;0; -8.3571949E-06;  4.0000000E+04;  0.0000000E+00;  0.0000000E+00;  4.0000000E+04;  0.0000000E+00;  4.0000000E+04; -8.4062440E-06;  0.0000000E+00;  4.9049167E-08;  3.8548081E+00;
 -1.5000001E-01;  9.9999998E-03;  5.0000001E-02;503;  0.0000000E+00;  0.0000000E+00;  0.0000000E+00;  1.0000000E+03;  1.0000000E-01;  0.0000000E+00;0;  0.0000000E+00;  0.0000000E+00;  0.0000000E+00;0; -8.2109746E-06;  4.0000000E+04;  0.0000000E+00;  0.0000000E+00;  4.0000000E+04;  0.0000000E+00;  4.0000000E+04; -8.2514989E-06;  0.0000000E+00;  4.0524064E-08;  3.8307660E+00;
 -1.5000001E-01;  9.9999998E-03;  5.9999999E-02;504;  0.0000000E+00;  0.0000000E+00;  0.0000000E+00;  1.0000000E+03;  1.0000000E-01;  0.0000000E+00;0;  0.0000000E+00;  0.0000000E+00;  0.0000000E+00;0; -8.0531745E-06;  4.0000000E+04;  0.0000000E+00;  0.0000000E+00;  4.0000000E+04;  0.0000000E+00;  4.0000000E+04; -8.0871368E-06;  0.0000000E+00;  3.3962358E-08;  3.8024259E+00;
 -1.4000000E-01;  9.9999998E-03; -1.0000000E-01;579;  0.0000000E+00;  0.0000000E+00;  0.0000000E+00;  1.0000000E+03;  1.0000000E-01;  0.0000000E+00;0;  0.0000000E+00;  0.0000000E+00;  0.0000000E+00;0; -4.6464615E-05;  4.0000000E+04;  0.0000000E+00;  0.0000000E+00;  4.0000000E+04;  0.0000000E+00;  4.0000000E+04; -4.6840851E-05;  0.0000000E+00;  3.7623758E-07;  1.6955923E+01;
 -1.4000000E-01;  9.9999998E-03; -9.0000004E-02;580;  0.0000000E+00;  0.0000000E+00;  0.0000000E+00;  1.0000000E+03;  1.0000000E-01;  0.0000000E+00;0;  0.0000000E+00;  0.0000000E+00;  0.0000000E+00;0; -4.6993548E-05;  4.0000000E+04;  0.0000000E+00;  0.0000000E+00;  4.0000000E+04;  0.0000000E+00;  4.0000000E+04; -4.7319427E-05;  0.0000000E+00;  3.2587988E-07;  1.6866425E+01;
 -1.4000000E-01;  9.9999998E-03; -7.9999998E-02;581;  0.0000000E+00;  0.0000000E+00;  0.0000000E+00;  1.0000000E+03;  1.0000000E-01;  0.0000000E+00;0;  0.0000000E+00;  0.0000000E+00;  0.0000000E+00;0; -4.7609279E-05;  4.0000000E+04;  0.0000000E+00;  0.0000000E+00;  4.0000000E+04;  0.0000000E+00;  4.0000000E+04; -4.7910311E-05;  0.0000000E+00;  3.0103163E-07;  1.6899715E+01;
 -1.4000000E-01;  9.9999998E-03; -7.0000000E-02;582;  0.0000000E+00;  0.0000000E+00;  0.0000000E+00;  1.0000000E+03;  1.0000000E-01;  0.0000000E+00;0;  0.0000000E+00;  0.0000000E+00;  0.0000000E+00;0; -4.8301245E-05;  4.0000000E+04;  0.0000000E+00;  0.0000000E+00;  4.0000000E+04;  0.0000000E+00;  4.0000000E+04; -4.8603571E-05;  0.0000000E+00;  3.0232812E-07;  1.7031147E+01;
 -1.4000000E-01;  9.9999998E-03; -5.9999999E-02;583;  0.0000000E+00;  0.0000000E+00;  0.0000000E+00;  1.0000000E+03;  1.0000000E-01;  0.0000000E+00;0;  0.0000000E+00;  0.0000000E+00;  0.0000000E+00;0; -4.9035920E-05;  4.0000000E+04;  0.0000000E+00;  0.0000000E+00;  4.0000000E+04;  0.0000000E+00;  4.0000000E+04; -4.9364204E-05;  0.0000000E+00;  3.2828302E-07;  1.7221914E+01;
 -1.4000000E-01;  9.9999998E-03; -5.0000001E-02;584;  0.0000000E+00;  0.0000000E+00;  0.0000000E+00;  1.0000000E+03;  1.0000000E-01;  0.0000000E+00;0;  0.0000000E+00;  0.0000000E+00;  0.0000000E+00;0; -4.9766528E-05;  4.0000000E+04;  0.0000000E+00;  0.0000000E+00;  4.0000000E+04;  0.0000000E+00;  4.0000000E+04; -5.0141043E-05;  0.0000000E+00;  3.7451622E-07;  1.7429806E+01;
 -1.4000000E-01;  9.9999998E-03; -3.9999999E-02;585;  0.0000000E+00;  0.0000000E+00;  0.0000000E+00;  1.0000000E+03;  1.0000000E-01;  0.0000000E+00;0;  0.0000000E+00;  0.0000000E+00;  0.0000000E+00;0; -5.0442952E-05;  4.0000000E+04;  0.0000000E+00;  0.0000000E+00;  4.0000000E+04;  0.0000000E+00;  4.0000000E+04; -5.0876541E-05;  0.0000000E+00;  4.3359063E-07;  1.7619383E+01;
 -1.4000000E-01;  9.9999998E-03; -2.9999999E-02;586;  0.0000000E+00;  0.0000000E+00;  0.0000000E+00;  1.0000000E+03;  1.0000000E-01;  0.0000000E+00;0;  0.0000000E+00;  0.0000000E+00;  0.0000000E+00;0; -5.1018931E-05;  4.0000000E+04;  0.0000000E+00;  0.0000000E+00;  4.0000000E+04;  0.0000000E+00;  4.0000000E+04; -5.1514635E-05;  0.0000000E+00;  4.9570360E-07;  1.7769455E+01;
 -1.4000000E-01;  9.9999998E-03; -2.0000000E-02;587;  0.0000000E+00;  0.0000000E+00;  0.0000000E+00;  1.0000000E+03;  1.0000000E-01;  0.0000000E+00;0;  0.0000000E+00;  0.0000000E+00;  0.0000000E+00;0; -5.1456951E-05;  4.0000000E+04;  0.0000000E+00;  0.0000000E+00;  4.0000000E+04;  0.0000000E+00;  4.0000000E+04; -5.2007123E-05;  0.0000000E+00;  5.5017301E-07;  1.7872696E+01;
 -1.4000000E-01;  9.9999998E-03; -9.9999998E-03;588;  0.0000000E+00;  0.0000000E+00;  0.0000000E+00;  1.0000000E+03;  1.0000000E-01;  0.0000000E+00;0;  0.0000000E+00;  0.0000000E+00;  0.0000000E+00;0; -5.1730211E-05;  4.0000000E+04;  0.0000000E+00;  0.0000000E+00;  4.0000000E+04;  0.0000000E+00;  4.0000000E+04; -5.2317573E-05;  0.0000000E+00;  5.8736094E-07;  1.7931189E+01;
 -1.4000000E-01;  9.9999998E-03;  0.0000000E+00;589;  0.0000000E+00;  0.0000000E+00;  0.0000000E+00;  1.0000000E+03;  1.0000000E-01;  0.0000000E+00;0;  0.0000000E+00;  0.0000000E+00;  0.0000000E+00;0; -5.1822957E-05;  4.0000000E+04;  0.0000000E+00;  0.0000000E+00;  4.0000000E+04;  0.0000000E+00;  4.0000000E+04; -5.2423515E-05;  0.0000000E+00;  6.0055686E-07;  1.7949936E+01;
 -1.4000000E-01;  9.9999998E-03;  9.9999998E-03;590;  0.0000000E+00;  0.0000000E+00;  0.0000000E+00;  1.0000000E+03;  1.0000000E-01;  0.0000000E+00;0;  0.0000000E+00;  0.0000000E+00;  0.0000000E+00;0; -5.1730207E-05;  4.0000000E+04;  0.0000000E+00;  0.0000000E+00;  4.0000000E+04;  0.0000000E+00;  4.0000000E+04; -5.2317566E-05;  0.0000000E+00;  5.8735952E-07;  1.7931198E+01;
 -1.4000000E-01;  9.9999998E-03;  2.0000000E-02;591;  0.0000000E+00;  0.0000000E+00;  0.0000000E+00;  1.0000000E+03;  1.0000000E-01;  0.0000000E+00;0;  0.0000000E+00;  0.0000000E+00;  0.0000000E+00;0; -5.1456864E-05;  4.0000000E+04;  0.0000000E+00;  0.0000000E+00;  4.0000000E+04;  0.0000000E+00;  4.0000000E+04; -5.2007035E-05;  0.0000000E+00;  5.5017045E-07;  1.7872698E+01;
 -1.4000000E-01;  9.9999998E-03;  2.9999999E-02;592;  0.0000000E+00;  0.0000000E+00;  0.0000000E+00;  1.0000000E+03;  1.0000000E-01;  0.0000000E+00;0;  0.0000000E+00;  0.0000000E+00;  0.0000000E+00;0; -5.1018858E-05;  4.0000000E+04;  0.0000000E+00;  0.0000000E+00;  4.0000000E+04;  0.0000000E+00;  4.0000000E+04; -5.1514558E-05;  0.0000000E+00;  4.9570116E-07;  1.7769472E+01;
 -1.4000000E-01;  9.9999998E-03;  3.9999999E-02;593;  0.0000000E+00;  0.0000000E+00;  0.0000000E+00;  1.0000000E+03;  1.0000000E-01;  0.0000000E+00;0;  0.0000000E+00;  0.0000000E+00;  0.0000000E+00;0; -5.0442814E-05;  4.0000000E+04;  0.0000000E+00;  0.0000000E+00;  4.0000000E+04;  0.0000000E+00;  4.0000000E+04; -5.0876402E-05;  0.0000000E+00;  4.3358872E-07;  1.7619394E+01;
 -1.4000000E-01;  9.9999998E-03;  5.0000001E-02;594;  0.0000000E+00;  0.0000000E+00;  0.0000000E+00;  1.0000000E+03;  1.0000000E-01;  0.0000000E+00;0;  0.0000000E+00;  0.0000000E+00;  0.0000000E+00;0; -4.9766360E-05;  4.0000000E+04;  0.0000000E+00;  0.0000000E+00;  4.0000000E+04;  0.0000000E+00;  4.0000000E+04; -5.0140876E-05;  0.0000000E+00;  3.7451548E-07;  1.7429817E+01;
 -1.4000000E-01;  9.9999998E-03;  5.9999999E-02;595;  0.0000000E+00;  0.0000000E+00;  0.0000000E+00;  1.0000000E+03;  1.0000000E-01;  0.0000000E+00;0;  0.0000000E+00;  0.0000000E+00;  0.0000000E+00;0; -4.9035705E-05;  4.0000000E+04;  0.0000000E+00;  0.0000000E+00;  4.0000000E+04;  0.0000000E+00;  4.0000000E+04; -4.9363989E-05;  0.0000000E+00;  3.2828422E-07;  1.7221920E+01;
 -1.3000000E-01;  9.9999998E-03; -1.0000000E-01;670;  0.0000000E+00;  0.0000000E+00;  0.0000000E+00;  1.0000269E+03;  1.0000000E-01;  2.2320356E+01;0;  0.0000000E+00;  0.0000000E+00;  0.0000000E+00;0; -1.6636660E-04;  4.0000000E+04;  0.0000000E+00;  0.0000000E+00;  4.0000000E+04;  0.0000000E+00;  4.0000000E+04; -1.6813414E-04;  0.0000000E+00;  1.7675295E-06;  4.6932083E+01;
 -1.3000000E-01;  9.9999998E-03; -9.0000004E-02;671;  0.0000000E+00;  0.0000000E+00;  0.0000000E+00;  1.0000262E+03;  1.0000000E-01;  2.1727781E+01;0;  0.0000000E+00;  0.0000000E+00;  0.0000000E+00;0; -1.6809690E-04;  4.0000000E+04;  0.0000000E+00;  0.0000000E+00;  4.0000000E+04;  0.0000000E+00;  4.0000000E+04; -1.6966536E-04;  0.0000000E+00;  1.5684617E-06;  4.6803761E+01;
 -1.3000000E-01;  9.9999998E-03; -7.9999998E-02;672;  0.0000000E+00;  0.0000000E+00;  0.0000000E+00;  1.0000253E+03;  1.0000000E-01;  2.0937679E+01;0;  0.0000000E+00;  0.0000000E+00;  0.0000000E+00;0; -1.6995880E-04;  4.0000000E+04;  0.0000000E+00;  0.0000000E+00;  4.0000000E+04;  0.0000000E+00;  4.0000000E+04; -1.7142888E-04;  0.0000000E+00;  1.4700728E-06;  4.7036469E+01;
 -1.3000000E-01;  9.9999998E-03; -7.0000000E-02;673;  0.0000000E+00;  0.0000000E+00;  0.0000000E+00;  1.0000246E+03;  1.0000000E-01;  2.0345104E+01;0;  0.0000000E+00;  0.0000000E+00;  0.0000000E+00;0; -1.7195390E-04;  4.0000000E+04;  0.0000000E+00;  0.0000000E+00;  4.0000000E+04;  0.0000000E+00;  4.0000000E+04; -1.7342657E-04;  0.0000000E+00;  1.4726647E-06;  4.7562607E+01;
 -1.3000000E-01;  9.9999998E-03; -5.9999999E-02;674;  0.0000000E+00;  0.0000000E+00;  0.0000000E+00;  1.0000239E+03;  1.0000000E-01;  1.9851290E+01;0;  0.0000000E+00;  0.0000000E+00;  0.0000000E+00;0; -1.7401780E-04;  4.0000000E+04;  0.0000000E+00;  0.0000000E+00;  4.0000000E+04;  0.0000000E+00;  4.0000000E+04; -1.7558558E-04;  0.0000000E+00;  1.5677865E-06;  4.8277542E+01;
 -1.3000000E-01;  9.9999998E-03; -5.0000001E-02;675;  0.0000000E+00;  0.0000000E+00;  0.0000000E+00;  1.0000235E+03;  1.0000000E-01;  1.9456240E+01;0;  0.0000000E+00;  0.0000000E+00;  0.0000000E+00;0; -1.7604527E-04;  4.0000000E+04;  0.0000000E+00;  0.0000000E+00;  4.0000000E+04;  0.0000000E+00;  4.0000000E+04; -1.7778196E-04;  0.0000000E+00;  1.7366887E-06;  4.9062851E+01;
 -1.3000000E-01;  9.9999998E-03; -3.9999999E-02;676;  0.0000000E+00;  0.0000000E+00;  0.0000000E+00;  1.0000233E+03;  1.0000000E-01;  1.9357477E+01;0;  0.0000000E+00;  0.0000000E+00;  0.0000000E+00;0; -1.7791339E-04;  4.0000000E+04;  0.0000000E+00;  0.0000000E+00;  4.0000000E+04;  0.0000000E+00;  4.0000000E+04; -1.7986409E-04;  0.0000000E+00;  1.9506938E-06;  4.9810516E+01;
 -1.3000000E-01;  9.9999998E-03; -2.9999999E-02;677;  0.0000000E+00;  0.0000000E+00;  0.0000000E+00;  1.0000228E+03;  1.0000000E-01;  1.8863665E+01;0;  0.0000000E+00;  0.0000000E+00;  0.0000000E+00;0; -1.7950321E-04;  4.0000000E+04;  0.0000000E+00;  0.0000000E+00;  4.0000000E+04;  0.0000000E+00;  4.0000000E+04; -1.8167720E-04;  0.0000000E+00;  2.1739827E-06;  5.0439434E+01;
 -1.3000000E-01;  9.9999998E-03; -2.0000000E-02;678;  0.0000000E+00;  0.0000000E+00;  0.0000000E+00;  1.0000228E+03;  1.0000000E-01;  1.8863665E+01;0;  0.0000000E+00;  0.0000000E+00;  0.0000000E+00;0; -1.8071360E-04;  4.0000000E+04;  0.0000000E+00;  0.0000000E+00;  4.0000000E+04;  0.0000000E+00;  4.0000000E+04; -1.8308223E-04;  0.0000000E+00;  2.3686282E-06;  5.0902908E+01;
 -1.3000000E-01;  9.9999998E-03; -9.9999998E-03;679;  0.0000000E+00;  0.0000000E+00;  0.0000000E+00;  1.0000226E+03;  1.0000000E-01;  1.8764902E+01;0;  0.0000000E+00;  0.0000000E+00;  0.0000000E+00;0; -1.8147017E-04;  4.0000000E+04;  0.0000000E+00;  0.0000000E+00;  4.0000000E+04;  0.0000000E+00;  4.0000000E+04; -1.8397116E-04;  0.0000000E+00;  2.5009883E-06;  5.1182526E+01;
 -1.3000000E-01;  9.9999998E-03;  0.0000000E+00;680;  0.0000000E+00;  0.0000000E+00;  0.0000000E+00;  1.0000227E+03;  1.0000000E-01;  1.8764902E+01;0;  0.0000000E+00;  0.0000000E+00;  0.0000000E+00;0; -1.8172708E-04;  4.0000000E+04;  0.0000000E+00;  0.0000000E+00;  4.0000000E+04;  0.0000000E+00;  4.0000000E+04; -1.8427495E-04;  0.0000000E+00;  2.5478632E-06;  5.1275425E+01;
 -1.3000000E-01;  9.9999998E-03;  9.9999998E-03;681;  0.0000000E+00;  0.0000000E+00;  0.0000000E+00;  1.0000226E+03;  1.0000000E-01;  1.8764902E+01;0;  0.0000000E+00;  0.0000000E+00;  0.0000000E+00;0; -1.8147012E-04;  4.0000000E+04;  0.0000000E+00;  0.0000000E+00;  4.0000000E+04;  0.0000000E+00;  4.0000000E+04; -1.8397110E-04;  0.0000000E+00;  2.5009831E-06;  5.1182537E+01;
 -1.3000000E-01;  9.9999998E-03;  2.0000000E-02;682;  0.0000000E+00;  0.0000000E+00;  0.0000000E+00;  1.0000228E+03;  1.0000000E-01;  1.8863665E+01;0;  0.0000000E+00;  0.0000000E+00;  0.0000000E+00;0; -1.8071351E-04;  4.0000000E+04;  0.0000000E+00;  0.0000000E+00;  4.0000000E+04;  0.0000000E+00;  4.0000000E+04; -1.8308213E-04;  0.0000000E+00;  2.3686214E-06;  5.0902939E+01;
 -1.3000000E-01;  9.9999998E-03;  2.9999999E-02;683;  0.0000000E+00;  0.0000000E+00;  0.0000000E+00;  1.0000228E+03;  1.0000000E-01;  1.8863665E+01;0;  0.0000000E+00;  0.0000000E+00;  0.0000000E+00;0; -1.7950298E-04;  4.0000000E+04;  0.0000000E+00;  0.0000000E+00;  4.0000000E+04;  0.0000000E+00;  4.0000000E+04; -1.8167695E-04;  0.0000000E+00;  2.1739727E-06;  5.0439487E+01;
 -1.3000000E-01;  9.9999998E-03;  3.9999999E-02;684;  0.0000000E+00;  0.0000000E+00;  0.0000000E+00;  1.0000233E+03;  1.0000000E-01;  1.9357477E+01;0;  0.0000000E+00;  0.0000000E+00;  0.0000000E+00;0; -1.7791297E-04;  4.0000000E+04;  0.0000000E+00;  0.0000000E+00;  4.0000000E+04;  0.0000000E+00;  4.0000000E+04; -1.7986365E-04;  0.0000000E+00;  1.9506867E-06;  4.9810596E+01;
 -1.3000000E-01;  9.9999998E-03;  5.0000001E-02;685;  0.0000000E+00;  0.0000000E+00;  0.0000000E+00;  1.0000235E+03;  1.0000000E-01;  1.9456240E+01;0;  0.0000000E+00;  0.0000000E+00;  0.0000000E+00;0; -1.7604497E-04;  4.0000000E+04;  0.0000000E+00;  0.0000000E+00;  4.0000000E+04;  0.0000000E+00;  4.0000000E+04; -1.7778165E-04;  0.0000000E+00;  1.7366870E-06;  4.9062939E+01;
 -1.3000000E-01;  9.9999998E-03;  5.9999999E-02;686;  0.0000000E+00;  0.0000000E+00;  0.0000000E+00;  1.0000239E+03;  1.0000000E-01;  1.9851290E+01;0;  0.0000000E+00;  0.0000000E+00;  0.0000000E+00;0; -1.7401738E-04;  4.0000000E+04;  0.0000000E+00;  0.0000000E+00;  4.0000000E+04;  0.0000000E+00;  4.0000000E+04; -1.7558517E-04;  0.0000000E+00;  1.5677895E-06;  4.8277611E+01;
 -1.2000000E-01;  9.9999998E-03; -1.0000000E-01;761;  0.0000000E+00;  0.0000000E+00;  0.0000000E+00;  1.0000890E+03;  1.0000000E-01;  7.3676926E+01;0;  0.0000000E+00;  0.0000000E+00;  0.0000000E+00;0; -4.4267927E-04;  4.0000000E+04;  0.0000000E+00;  0.0000000E+00;  4.0000000E+04;  0.0000000E+00;  4.0000000E+04; -4.4844035E-04;  0.0000000E+00;  5.7610737E-06;  9.9923744E+01;
 -1.2000000E-01;  9.9999998E-03; -9.0000004E-02;762;  0.0000000E+00;  0.0000000E+00;  0.0000000E+00;  1.0000881E+03;  1.0000000E-01;  7.2985588E+01;0;  0.0000000E+00;  0.0000000E+00;  0.0000000E+00;0; -4.4696309E-04;  4.0000000E+04;  0.0000000E+00;  0.0000000E+00;  4.0000000E+04;  0.0000000E+00;  4.0000000E+04; -4.5217384E-04;  0.0000000E+00;  5.2107380E-06;  9.9903015E+01;
 -1.2000000E-01;  9.9999998E-03; -7.9999998E-02;763;  0.0000000E+00;  0.0000000E+00;  0.0000000E+00;  1.0000864E+03;  1.0000000E-01;  7.1504150E+01;0;  0.0000000E+00;  0.0000000E+00;  0.0000000E+00;0; -4.5129348E-04;  4.0000000E+04;  0.0000000E+00;  0.0000000E+00;  4.0000000E+04;  0.0000000E+00;  4.0000000E+04; -4.5622815E-04;  0.0000000E+00;  4.9346754E-06;  1.0070151E+02;
 -1.2000000E-01;  9.9999998E-03; -7.0000000E-02;764;  0.0000000E+00;  0.0000000E+00;  0.0000000E+00;  1.0000827E+03;  1.0000000E-01;  6.8541275E+01;0;  0.0000000E+00;  0.0000000E+00;  0.0000000E+00;0; -4.5572847E-04;  4.0000000E+04;  0.0000000E+00;  0.0000000E+00;  4.0000000E+04;  0.0000000E+00;  4.0000000E+04; -4.6066014E-04;  0.0000000E+00;  4.9316700E-06;  1.0217169E+02;
 -1.2000000E-01;  9.9999998E-03; -5.9999999E-02;765;  0.0000000E+00;  0.0000000E+00;  0.0000000E+00;  1.0000813E+03;  1.0000000E-01;  6.7356117E+01;0;  0.0000000E+00;  0.0000000E+00;  0.0000000E+00;0; -4.6018910E-04;  4.0000000E+04;  0.0000000E+00;  0.0000000E+00;  4.0000000E+04;  0.0000000E+00;  4.0000000E+04; -4.6536437E-04;  0.0000000E+00;  5.1752681E-06;  1.0409187E+02;
 -1.2000000E-01;  9.9999998E-03; -5.0000001E-02;766;  0.0000000E+00;  0.0000000E+00;  0.0000000E+00;  1.0000800E+03;  1.0000000E-01;  6.6269730E+01;0;  0.0000000E+00;  0.0000000E+00;  0.0000000E+00;0; -4.6450060E-04;  4.0000000E+04;  0.0000000E+00;  0.0000000E+00;  4.0000000E+04;  0.0000000E+00;  4.0000000E+04; -4.7011260E-04;  0.0000000E+00;  5.6119943E-06;  1.0620481E+02;
 -1.2000000E-01;  9.9999998E-03; -3.9999999E-02;767;  0.0000000E+00;  0.0000000E+00;  0.0000000E+00;  1.0000787E+03;  1.0000000E-01;  6.5183342E+01;0;  0.0000000E+00;  0.0000000E+00;  0.0000000E+00;0; -4.6844035E-04;  4.0000000E+04;  0.0000000E+00;  0.0000000E+00;  4.0000000E+04;  0.0000000E+00;  4.0000000E+04; -4.7460449E-04;  0.0000000E+00;  6.1641208E-06;  1.0826125E+02;
 -1.2000000E-01;  9.9999998E-03; -2.9999999E-02;768;  0.0000000E+00;  0.0000000E+00;  0.0000000E+00;  1.0000781E+03;  1.0000000E-01;  6.4689529E+01;0;  0.0000000E+00;  0.0000000E+00;  0.0000000E+00;0; -4.7178104E-04;  4.0000000E+04;  0.0000000E+00;  0.0000000E+00;  4.0000000E+04;  0.0000000E+00;  4.0000000E+04; -4.7851889E-04;  0.0000000E+00;  6.7378573E-06;  1.1004896E+02;
 -1.2000000E-01;  9.9999998E-03; -2.0000000E-02;769;  0.0000000E+00;  0.0000000E+00;  0.0000000E+00;  1.0000776E+03;  1.0000000E-01;  6.4294479E+01;0;  0.0000000E+00;  0.0000000E+00;  0.0000000E+00;0; -4.7432209E-04;  4.0000000E+04;  0.0000000E+00;  0.0000000E+00;  4.0000000E+04;  0.0000000E+00;  4.0000000E+04; -4.8155827E-04;  0.0000000E+00;  7.2361681E-06;  1.1141497E+02;
 -1.2000000E-01;  9.9999998E-03; -9.9999998E-03;770;  0.0000000E+00;  0.0000000E+00;  0.0000000E+00;  1.0000773E+03;  1.0000000E-01;  6.4096954E+01;0;  0.0000000E+00;  0.0000000E+00;  0.0000000E+00;0; -4.7590968E-04;  4.0000000E+04;  0.0000000E+00;  0.0000000E+00;  4.0000000E+04;  0.0000000E+00;  4.0000000E+04; -4.8348380E-04;  0.0000000E+00;  7.5741236E-06;  1.1226530E+02;
 -1.2000000E-01;  9.9999998E-03;  0.0000000E+00;771;  0.0000000E+00;  0.0000000E+00;  0.0000000E+00;  1.0000771E+03;  1.0000000E-01;  6.3899426E+01;0;  0.0000000E+00;  0.0000000E+00;  0.0000000E+00;0; -4.7644944E-04;  4.0000000E+04;  0.0000000E+00;  0.0000000E+00;  4.0000000E+04;  0.0000000E+00;  4.0000000E+04; -4.8414309E-04;  0.0000000E+00;  7.6936512E-06;  1.1255301E+02;
 -1.2000000E-01;  9.9999998E-03;  9.9999998E-03;772;  0.0000000E+00;  0.0000000E+00;  0.0000000E+00;  1.0000773E+03;  1.0000000E-01;  6.4096954E+01;0;  0.0000000E+00;  0.0000000E+00;  0.0000000E+00;0; -4.7590953E-04;  4.0000000E+04;  0.0000000E+00;  0.0000000E+00;  4.0000000E+04;  0.0000000E+00;  4.0000000E+04; -4.8348363E-04;  0.0000000E+00;  7.5741095E-06;  1.1226535E+02;
 -1.2000000E-01;  9.9999998E-03;  2.0000000E-02;773;  0.0000000E+00;  0.0000000E+00;  0.0000000E+00;  1.0000776E+03;  1.0000000E-01;  6.4294479E+01;0;  0.0000000E+00;  0.0000000E+00;  0.0000000E+00;0; -4.7432136E-04;  4.0000000E+04;  0.0000000E+00;  0.0000000E+00;  4.0000000E+04;  0.0000000E+00;  4.0000000E+04; -4.8155751E-04;  0.0000000E+00;  7.2361399E-06;  1.1141508E+02;
 -1.2000000E-01;  9.9999998E-03;  2.9999999E-02;774;  0.0000000E+00;  0.0000000E+00;  0.0000000E+00;  1.0000781E+03;  1.0000000E-01;  6.4689529E+01;0;  0.0000000E+00;  0.0000000E+00;  0.0000000E+00;0; -4.7178022E-04;  4.0000000E+04;  0.0000000E+00;  0.0000000E+00;  4.0000000E+04;  0.0000000E+00;  4.0000000E+04; -4.7851805E-04;  0.0000000E+00;  6.7378314E-06;  1.1004905E+02;
 -1.2000000E-01;  9.9999998E-03;  3.9999999E-02;775;  0.0000000E+00;  0.0000000E+00;  0.0000000E+00;  1.0000787E+03;  1.0000000E-01;  6.5183342E+01;0;  0.0000000E+00;  0.0000000E+00;  0.0000000E+00;0; -4.6843966E-04;  4.0000000E+04;  0.0000000E+00;  0.0000000E+00;  4.0000000E+04;  0.0000000E+00;  4.0000000E+04; -4.7460376E-04;  0.0000000E+00;  6.1641008E-06;  1.0826144E+02;
 -1.2000000E-01;  9.9999998E-03;  5.0000001E-02;776;  0.0000000E+00;  0.0000000E+00;  0.0000000E+00;  1.0000800E+03;  1.0000000E-01;  6.6269730E+01;0;  0.0000000E+00;  0.0000000E+00;  0.0000000E+00;0; -4.6449978E-04;  4.0000000E+04;  0.0000000E+00;  0.0000000E+00;  4.0000000E+04;  0.0000000E+00;  4.0000000E+04; -4.7011176E-04;  0.0000000E+00;  5.6119884E-06;  1.0620502E+02;
 -1.2000000E-01;  9.9999998E-03;  5.9999999E-02;777;  0.0000000E+00;  0.0000000E+00;  0.0000000E+00;  1.0000813E+03;  1.0000000E-01;  6.7356117E+01;0;  0.0000000E+00;  0.0000000E+00;  0.0000000E+00;0; -4.6018820E-04;  4.0000000E+04;  0.0000000E+00;  0.0000000E+00;  4.0000000E+04;  0.0000000E+00;  4.0000000E+04; -4.6536347E-04;  0.0000000E+00;  5.1752722E-06;  1.0409212E+02;
 -1.1000000E-01;  9.9999998E-03; -1.0000000E-01;852;  0.0000000E+00;  0.0000000E+00;  0.0000000E+00;  1.0002167E+03;  1.0000000E-01;  1.7955048E+02;0;  0.0000000E+00;  0.0000000E+00;  0.0000000E+00;0; -9.7639044E-04;  4.0000000E+04;  0.0000000E+00;  0.0000000E+00;  4.0000000E+04;  0.0000000E+00;  4.0000000E+04; -9.9130778E-04;  0.0000000E+00;  1.4917317E-05;  1.8060873E+02;
 -1.1000000E-01;  9.9999998E-03; -9.0000004E-02;853;  0.0000000E+00;  0.0000000E+00;  0.0000000E+00;  1.0002117E+03;  1.0000000E-01;  1.7540245E+02;0;  0.0000000E+00;  0.0000000E+00;  0.0000000E+00;0; -9.8528829E-04;  4.0000000E+04;  0.0000000E+00;  0.0000000E+00;  4.0000000E+04;  0.0000000E+00;  4.0000000E+04; -9.9899608E-04;  0.0000000E+00;  1.3707833E-05;  1.8102307E+02;
 -1.1000000E-01;  9.9999998E-03; -7.9999998E-02;854;  0.0000000E+00;  0.0000000E+00;  0.0000000E+00;  1.0002072E+03;  1.0000000E-01;  1.7164946E+02;0;  0.0000000E+00;  0.0000000E+00;  0.0000000E+00;0; -9.9386123E-04;  4.0000000E+04;  0.0000000E+00;  0.0000000E+00;  4.0000000E+04;  0.0000000E+00;  4.0000000E+04; -1.0069506E-03;  0.0000000E+00;  1.3089418E-05;  1.8302014E+02;
 -1.1000000E-01;  9.9999998E-03; -7.0000000E-02;855;  0.0000000E+00;  0.0000000E+00;  0.0000000E+00;  1.0002008E+03;  1.0000000E-01;  1.6631628E+02;0;  0.0000000E+00;  0.0000000E+00;  0.0000000E+00;0; -1.0022976E-03;  4.0000000E+04;  0.0000000E+00;  0.0000000E+00;  4.0000000E+04;  0.0000000E+00;  4.0000000E+04; -1.0153579E-03;  0.0000000E+00;  1.3060315E-05;  1.8632390E+02;
 -1.1000000E-01;  9.9999998E-03; -5.9999999E-02;856;  0.0000000E+00;  0.0000000E+00;  0.0000000E+00;  1.0001959E+03;  1.0000000E-01;  1.6226701E+02;0;  0.0000000E+00;  0.0000000E+00;  0.0000000E+00;0; -1.0105456E-03;  4.0000000E+04;  0.0000000E+00;  0.0000000E+00;  4.0000000E+04;  0.0000000E+00;  4.0000000E+04; -1.0241064E-03;  0.0000000E+00;  1.3560704E-05;  1.9052322E+02;
 -1.1000000E-01;  9.9999998E-03; -5.0000001E-02;857;  0.0000000E+00;  0.0000000E+00;  0.0000000E+00;  1.0001920E+03;  1.0000000E-01;  1.5900784E+02;0;  0.0000000E+00;  0.0000000E+00;  0.0000000E+00;0; -1.0183752E-03;  4.0000000E+04;  0.0000000E+00;  0.0000000E+00;  4.0000000E+04;  0.0000000E+00;  4.0000000E+04; -1.0328474E-03;  0.0000000E+00;  1.4472287E-05;  1.9513512E+02;
 -1.1000000E-01;  9.9999998E-03; -3.9999999E-02;858;  0.0000000E+00;  0.0000000E+00;  0.0000000E+00;  1.0001892E+03;  1.0000000E-01;  1.5673631E+02;0;  0.0000000E+00;  0.0000000E+00;  0.0000000E+00;0; -1.0254517E-03;  4.0000000E+04;  0.0000000E+00;  0.0000000E+00;  4.0000000E+04;  0.0000000E+00;  4.0000000E+04; -1.0410785E-03;  0.0000000E+00;  1.5626805E-05;  1.9966885E+02;
 -1.1000000E-01;  9.9999998E-03; -2.9999999E-02;859;  0.0000000E+00;  0.0000000E+00;  0.0000000E+00;  1.0001856E+03;  1.0000000E-01;  1.5377342E+02;0;  0.0000000E+00;  0.0000000E+00;  0.0000000E+00;0; -1.0314165E-03;  4.0000000E+04;  0.0000000E+00;  0.0000000E+00;  4.0000000E+04;  0.0000000E+00;  4.0000000E+04; -1.0482414E-03;  0.0000000E+00;  1.6824963E-05;  2.0367749E+02;
 -1.1000000E-01;  9.9999998E-03; -2.0000000E-02;860;  0.0000000E+00;  0.0000000E+00;  0.0000000E+00;  1.0001843E+03;  1.0000000E-01;  1.5268704E+02;0;  0.0000000E+00;  0.0000000E+00;  0.0000000E+00;0; -1.0359404E-03;  4.0000000E+04;  0.0000000E+00;  0.0000000E+00;  4.0000000E+04;  0.0000000E+00;  4.0000000E+04; -1.0538039E-03;  0.0000000E+00;  1.7863607E-05;  2.0679965E+02;
 -1.1000000E-01;  9.9999998E-03; -9.9999998E-03;861;  0.0000000E+00;  0.0000000E+00;  0.0000000E+00;  1.0001837E+03;  1.0000000E-01;  1.5219322E+02;0;  0.0000000E+00;  0.0000000E+00;  0.0000000E+00;0; -1.0387624E-03;  4.0000000E+04;  0.0000000E+00;  0.0000000E+00;  4.0000000E+04;  0.0000000E+00;  4.0000000E+04; -1.0573294E-03;  0.0000000E+00;  1.8566943E-05;  2.0877518E+02;
 -1.1000000E-01;  9.9999998E-03;  0.0000000E+00;862;  0.0000000E+00;  0.0000000E+00;  0.0000000E+00;  1.0001834E+03;  1.0000000E-01;  1.5199570E+02;0;  0.0000000E+00;  0.0000000E+00;  0.0000000E+00;0; -1.0397211E-03;  4.0000000E+04;  0.0000000E+00;  0.0000000E+00;  4.0000000E+04;  0.0000000E+00;  4.0000000E+04; -1.0585366E-03;  0.0000000E+00;  1.8815490E-05;  2.0944928E+02;
 -1.1000000E-01;  9.9999998E-03;  9.9999998E-03;863;  0.0000000E+00;  0.0000000E+00;  0.0000000E+00;  1.0001837E+03;  1.0000000E-01;  1.5219322E+02;0;  0.0000000E+00;  0.0000000E+00;  0.0000000E+00;0; -1.0387616E-03;  4.0000000E+04;  0.0000000E+00;  0.0000000E+00;  4.0000000E+04;  0.0000000E+00;  4.0000000E+04; -1.0573285E-03;  0.0000000E+00;  1.8566914E-05;  2.0877527E+02;
 -1.1000000E-01;  9.9999998E-03;  2.0000000E-02;864;  0.0000000E+00;  0.0000000E+00;  0.0000000E+00;  1.0001843E+03;  1.0000000E-01;  1.5268704E+02;0;  0.0000000E+00;  0.0000000E+00;  0.0000000E+00;0; -1.0359392E-03;  4.0000000E+04;  0.0000000E+00;  0.0000000E+00;  4.0000000E+04;  0.0000000E+00;  4.0000000E+04; -1.0538028E-03;  0.0000000E+00;  1.7863571E-05;  2.0679988E+02;
 -1.1000000E-01;  9.9999998E-03;  2.9999999E-02;865;  0.0000000E+00;  0.0000000E+00;  0.0000000E+00;  1.0001856E+03;  1.0000000E-01;  1.5377342E+02;0;  0.0000000E+00;  0.0000000E+00;  0.0000000E+00;0; -1.0314157E-03;  4.0000000E+04;  0.0000000E+00;  0.0000000E+00;  4.0000000E+04;  0.0000000E+00;  4.0000000E+04; -1.0482406E-03;  0.0000000E+00;  1.6824908E-05;  2.0367790E+02;
 -1.1000000E-01;  9.9999998E-03;  3.9999999E-02;866;  0.0000000E+00;  0.0000000E+00;  0.0000000E+00;  1.0001892E+03;  1.0000000E-01;  1.5673631E+02;0;  0.0000000E+00;  0.0000000E+00;  0.0000000E+00;0; -1.0254515E-03;  4.0000000E+04;  0.0000000E+00;  0.0000000E+00;  4.0000000E+04;  0.0000000E+00;  4.0000000E+04; -1.0410782E-03;  0.0000000E+00;  1.5626776E-05;  1.9966920E+02;
 -1.1000000E-01;  9.9999998E-03;  5.0000001E-02;867;  0.0000000E+00;  0.0000000E+00;  0.0000000E+00;  1.0001920E+03;  1.0000000E-01;  1.5900784E+02;0;  0.0000000E+00;  0.0000000E+00;  0.0000000E+00;0; -1.0183741E-03;  4.0000000E+04;  0.0000000E+00;  0.0000000E+00;  4.0000000E+04;  0.0000000E+00;  4.0000000E+04; -1.0328464E-03;  0.0000000E+00;  1.4472273E-05;  1.9513556E+02;
 -1.1000000E-01;  9.9999998E-03;  5.9999999E-02;868;  0.0000000E+00;  0.0000000E+00;  0.0000000E+00;  1.0001959E+03;  1.0000000E-01;  1.6226701E+02;0;  0.0000000E+00;  0.0000000E+00;  0.0000000E+00;0; -1.0105453E-03;  4.0000000E+04;  0.0000000E+00;  0.0000000E+00;  4.0000000E+04;  0.0000000E+00;  4.0000000E+04; -1.0241061E-03;  0.0000000E+00;  1.3560727E-05;  1.9052394E+02;
 -1.0000000E-01;  9.9999998E-03; -1.0000000E-01;943;  0.0000000E+00;  0.0000000E+00;  0.0000000E+00;  1.0004342E+03;  1.0000000E-01;  3.5969354E+02;0;  0.0000000E+00;  0.0000000E+00;  0.0000000E+00;0; -1.8925252E-03;  4.0000000E+04;  0.0000000E+00;  0.0000000E+00;  4.0000000E+04;  0.0000000E+00;  4.0000000E+04; -1.9254448E-03;  0.0000000E+00;  3.2919539E-05;  2.9209964E+02;
 -1.0000000E-01;  9.9999998E-03; -9.0000004E-02;944;  0.0000000E+00;  0.0000000E+00;  0.0000000E+00;  1.0004276E+03;  1.0000000E-01;  3.5426160E+02;0;  0.0000000E+00;  0.0000000E+00;  0.0000000E+00;0; -1.9088888E-03;  4.0000000E+04;  0.0000000E+00;  0.0000000E+00;  4.0000000E+04;  0.0000000E+00;  4.0000000E+04; -1.9395513E-03;  0.0000000E+00;  3.0662490E-05;  2.9347220E+02;
 -1.0000000E-01;  9.9999998E-03; -7.9999998E-02;945;  0.0000000E+00;  0.0000000E+00;  0.0000000E+00;  1.0004178E+03;  1.0000000E-01;  3.4616306E+02;0;  0.0000000E+00;  0.0000000E+00;  0.0000000E+00;0; -1.9240947E-03;  4.0000000E+04;  0.0000000E+00;  0.0000000E+00;  4.0000000E+04;  0.0000000E+00;  4.0000000E+04; -1.9535827E-03;  0.0000000E+00;  2.9487950E-05;  2.9758954E+02;
 -1.0000000E-01;  9.9999998E-03; -7.0000000E-02;946;  0.0000000E+00;  0.0000000E+00;  0.0000000E+00;  1.0004103E+03;  1.0000000E-01;  3.3994101E+02;0;  0.0000000E+00;  0.0000000E+00;  0.0000000E+00;0; -1.9385718E-03;  4.0000000E+04;  0.0000000E+00;  0.0000000E+00;  4.0000000E+04;  0.0000000E+00;  4.0000000E+04; -1.9679717E-03;  0.0000000E+00;  2.9399853E-05;  3.0397702E+02;
 -1.0000000E-01;  9.9999998E-03; -5.9999999E-02;947;  0.0000000E+00;  0.0000000E+00;  0.0000000E+00;  1.0004021E+03;  1.0000000E-01;  3.3312637E+02;0;  0.0000000E+00;  0.0000000E+00;  0.0000000E+00;0; -1.9523592E-03;  4.0000000E+04;  0.0000000E+00;  0.0000000E+00;  4.0000000E+04;  0.0000000E+00;  4.0000000E+04; -1.9826484E-03;  0.0000000E+00;  3.0289128E-05;  3.1194244E+02;
 -1.0000000E-01;  9.9999998E-03; -5.0000001E-02;948;  0.0000000E+00;  0.0000000E+00;  0.0000000E+00;  1.0003959E+03;  1.0000000E-01;  3.2799072E+02;0;  0.0000000E+00;  0.0000000E+00;  0.0000000E+00;0; -1.9652033E-03;  4.0000000E+04;  0.0000000E+00;  0.0000000E+00;  4.0000000E+04;  0.0000000E+00;  4.0000000E+04; -1.9971393E-03;  0.0000000E+00;  3.1935866E-05;  3.2066235E+02;
 -1.0000000E-01;  9.9999998E-03; -3.9999999E-02;949;  0.0000000E+00;  0.0000000E+00;  0.0000000E+00;  1.0003903E+03;  1.0000000E-01;  3.2334888E+02;0;  0.0000000E+00;  0.0000000E+00;  0.0000000E+00;0; -1.9766744E-03;  4.0000000E+04;  0.0000000E+00;  0.0000000E+00;  4.0000000E+04;  0.0000000E+00;  4.0000000E+04; -2.0107033E-03;  0.0000000E+00;  3.4028784E-05;  3.2927011E+02;
 -1.0000000E-01;  9.9999998E-03; -2.9999999E-02;950;  0.0000000E+00;  0.0000000E+00;  0.0000000E+00;  1.0003857E+03;  1.0000000E-01;  3.1959589E+02;0;  0.0000000E+00;  0.0000000E+00;  0.0000000E+00;0; -1.9862698E-03;  4.0000000E+04;  0.0000000E+00;  0.0000000E+00;  4.0000000E+04;  0.0000000E+00;  4.0000000E+04; -2.0224717E-03;  0.0000000E+00;  3.6201804E-05;  3.3694067E+02;
 -1.0000000E-01;  9.9999998E-03; -2.0000000E-02;951;  0.0000000E+00;  0.0000000E+00;  0.0000000E+00;  1.0003832E+03;  1.0000000E-01;  3.1752188E+02;0;  0.0000000E+00;  0.0000000E+00;  0.0000000E+00;0; -1.9935139E-03;  4.0000000E+04;  0.0000000E+00;  0.0000000E+00;  4.0000000E+04;  0.0000000E+00;  4.0000000E+04; -2.0315985E-03;  0.0000000E+00;  3.8084600E-05;  3.4296848E+02;
 -1.0000000E-01;  9.9999998E-03; -9.9999998E-03;952;  0.0000000E+00;  0.0000000E+00;  0.0000000E+00;  1.0003815E+03;  1.0000000E-01;  3.1613922E+02;0;  0.0000000E+00;  0.0000000E+00;  0.0000000E+00;0; -1.9980229E-03;  4.0000000E+04;  0.0000000E+00;  0.0000000E+00;  4.0000000E+04;  0.0000000E+00;  4.0000000E+04; -2.0373815E-03;  0.0000000E+00;  3.9358660E-05;  3.4680981E+02;
 -1.0000000E-01;  9.9999998E-03;  0.0000000E+00;953;  0.0000000E+00;  0.0000000E+00;  0.0000000E+00;  1.0003809E+03;  1.0000000E-01;  3.1554663E+02;0;  0.0000000E+00;  0.0000000E+00;  0.0000000E+00;0; -1.9995549E-03;  4.0000000E+04;  0.0000000E+00;  0.0000000E+00;  4.0000000E+04;  0.0000000E+00;  4.0000000E+04; -2.0393636E-03;  0.0000000E+00;  3.9808700E-05;  3.4812970E+02;
 -1.0000000E-01;  9.9999998E-03;  9.9999998E-03;954;  0.0000000E+00;  0.0000000E+00;  0.0000000E+00;  1.0003815E+03;  1.0000000E-01;  3.1613922E+02;0;  0.0000000E+00;  0.0000000E+00;  0.0000000E+00;0; -1.9980208E-03;  4.0000000E+04;  0.0000000E+00;  0.0000000E+00;  4.0000000E+04;  0.0000000E+00;  4.0000000E+04; -2.0373794E-03;  0.0000000E+00;  3.9358598E-05;  3.4681003E+02;
 -1.0000000E-01;  9.9999998E-03;  2.0000000E-02;955;  0.0000000E+00;  0.0000000E+00;  0.0000000E+00;  1.0003832E+03;  1.0000000E-01;  3.1752188E+02;0;  0.0000000E+00;  0.0000000E+00;  0.0000000E+00;0; -1.9935109E-03;  4.0000000E+04;  0.0000000E+00;  0.0000000E+00;  4.0000000E+04;  0.0000000E+00;  4.0000000E+04; -2.0315954E-03;  0.0000000E+00;  3.8084549E-05;  3.4296878E+02;
 -1.0000000E-01;  9.9999998E-03;  2.9999999E-02;956;  0.0000000E+00;  0.0000000E+00;  0.0000000E+00;  1.0003857E+03;  1.0000000E-01;  3.1959589E+02;0;  0.0000000E+00;  0.0000000E+00;  0.0000000E+00;0; -1.9862680E-03;  4.0000000E+04;  0.0000000E+00;  0.0000000E+00;  4.0000000E+04;  0.0000000E+00;  4.0000000E+04; -2.0224696E-03;  0.0000000E+00;  3.6201771E-05;  3.3694131E+02;
 -1.0000000E-01;  9.9999998E-03;  3.9999999E-02;957;  0.0000000E+00;  0.0000000E+00;  0.0000000E+00;  1.0003903E+03;  1.0000000E-01;  3.2334888E+02;0;  0.0000000E+00;  0.0000000E+00;  0.0000000E+00;0; -1.9766716E-03;  4.0000000E+04;  0.0000000E+00;  0.0000000E+00;  4.0000000E+04;  0.0000000E+00;  4.0000000E+04; -2.0107003E-03;  0.0000000E+00;  3.4028733E-05;  3.2927106E+02;
 -1.0000000E-01;  9.9999998E-03;  5.0000001E-02;958;  0.0000000E+00;  0.0000000E+00;  0.0000000E+00;  1.0003959E+03;  1.0000000E-01;  3.2799072E+02;0;  0.0000000E+00;  0.0000000E+00;  0.0000000E+00;0; -1.9652010E-03;  4.0000000E+04;  0.0000000E+00;  0.0000000E+00;  4.0000000E+04;  0.0000000E+00;  4.0000000E+04; -1.9971367E-03;  0.0000000E+00;  3.1935859E-05;  3.2066324E+02;
 -1.0000000E-01;  9.9999998E-03;  5.9999999E-02;959;  0.0000000E+00;  0.0000000E+00;  0.0000000E+00;  1.0004021E+03;  1.0000000E-01;  3.3312637E+02;0;  0.0000000E+00;  0.0000000E+00;  0.0000000E+00;0; -1.9523569E-03;  4.0000000E+04;  0.0000000E+00;  0.0000000E+00;  4.0000000E+04;  0.0000000E+00;  4.0000000E+04; -1.9826461E-03;  0.0000000E+00;  3.0289151E-05;  3.1194354E+02;
 -9.0000004E-02;  9.9999998E-03; -1.0000000E-01;1034;  0.0000000E+00;  0.0000000E+00;  0.0000000E+00;  1.0008040E+03;  1.0000000E-01;  6.6605524E+02;0;  0.0000000E+00;  0.0000000E+00;  0.0000000E+00;0; -3.3364266E-03;  4.0000000E+04;  0.0000000E+00;  0.0000000E+00;  4.0000000E+04;  0.0000000E+00;  4.0000000E+04; -3.4009474E-03;  0.0000000E+00;  6.4520827E-05;  4.3568817E+02;
 -9.0000004E-02;  9.9999998E-03; -9.0000004E-02;1035;  0.0000000E+00;  0.0000000E+00;  0.0000000E+00;  1.0007973E+03;  1.0000000E-01;  6.6052454E+02;0;  0.0000000E+00;  0.0000000E+00;  0.0000000E+00;0; -3.3638966E-03;  4.0000000E+04;  0.0000000E+00;  0.0000000E+00;  4.0000000E+04;  0.0000000E+00;  4.0000000E+04; -3.4247057E-03;  0.0000000E+00;  6.0809092E-05;  4.3869293E+02;
 -9.0000004E-02;  9.9999998E-03; -7.9999998E-02;1036;  0.0000000E+00;  0.0000000E+00;  0.0000000E+00;  1.0007867E+03;  1.0000000E-01;  6.5183344E+02;0;  0.0000000E+00;  0.0000000E+00;  0.0000000E+00;0; -3.3887646E-03;  4.0000000E+04;  0.0000000E+00;  0.0000000E+00;  4.0000000E+04;  0.0000000E+00;  4.0000000E+04; -3.4476172E-03;  0.0000000E+00;  5.8852547E-05;  4.4609177E+02;
 -9.0000004E-02;  9.9999998E-03; -7.0000000E-02;1037;  0.0000000E+00;  0.0000000E+00;  0.0000000E+00;  1.0007758E+03;  1.0000000E-01;  6.4274725E+02;0;  0.0000000E+00;  0.0000000E+00;  0.0000000E+00;0; -3.4118202E-03;  4.0000000E+04;  0.0000000E+00;  0.0000000E+00;  4.0000000E+04;  0.0000000E+00;  4.0000000E+04; -3.4704963E-03;  0.0000000E+00;  5.8676011E-05;  4.5712271E+02;
 -9.0000004E-02;  9.9999998E-03; -5.9999999E-02;1038;  0.0000000E+00;  0.0000000E+00;  0.0000000E+00;  1.0007661E+03;  1.0000000E-01;  6.3464874E+02;0;  0.0000000E+00;  0.0000000E+00;  0.0000000E+00;0; -3.4332846E-03;  4.0000000E+04;  0.0000000E+00;  0.0000000E+00;  4.0000000E+04;  0.0000000E+00;  4.0000000E+04; -3.4933940E-03;  0.0000000E+00;  6.0109396E-05;  4.7070395E+02;
 -9.0000004E-02;  9.9999998E-03; -5.0000001E-02;1039;  0.0000000E+00;  0.0000000E+00;  0.0000000E+00;  1.0007551E+03;  1.0000000E-01;  6.2556256E+02;0;  0.0000000E+00;  0.0000000E+00;  0.0000000E+00;0; -3.4529432E-03;  4.0000000E+04;  0.0000000E+00;  0.0000000E+00;  4.0000000E+04;  0.0000000E+00;  4.0000000E+04; -3.5157371E-03;  0.0000000E+00;  6.2793952E-05;  4.8552921E+02;
 -9.0000004E-02;  9.9999998E-03; -3.9999999E-02;1040;  0.0000000E+00;  0.0000000E+00;  0.0000000E+00;  1.0007466E+03;  1.0000000E-01;  6.1855042E+02;0;  0.0000000E+00;  0.0000000E+00;  0.0000000E+00;0; -3.4702842E-03;  4.0000000E+04;  0.0000000E+00;  0.0000000E+00;  4.0000000E+04;  0.0000000E+00;  4.0000000E+04; -3.5365012E-03;  0.0000000E+00;  6.6216962E-05;  5.0018384E+02;
 -9.0000004E-02;  9.9999998E-03; -2.9999999E-02;1041;  0.0000000E+00;  0.0000000E+00;  0.0000000E+00;  1.0007399E+03;  1.0000000E-01;  6.1301971E+02;0;  0.0000000E+00;  0.0000000E+00;  0.0000000E+00;0; -3.4846708E-03;  4.0000000E+04;  0.0000000E+00;  0.0000000E+00;  4.0000000E+04;  0.0000000E+00;  4.0000000E+04; -3.5544459E-03;  0.0000000E+00;  6.9775102E-05;  5.1329456E+02;
 -9.0000004E-02;  9.9999998E-03; -2.0000000E-02;1042;  0.0000000E+00;  0.0000000E+00;  0.0000000E+00;  1.0007355E+03;  1.0000000E-01;  6.0936548E+02;0;  0.0000000E+00;  0.0000000E+00;  0.0000000E+00;0; -3.4954718E-03;  4.0000000E+04;  0.0000000E+00;  0.0000000E+00;  4.0000000E+04;  0.0000000E+00;  4.0000000E+04; -3.5683308E-03;  0.0000000E+00;  7.2859068E-05;  5.2363251E+02;
 -9.0000004E-02;  9.9999998E-03; -9.9999998E-03;1043;  0.0000000E+00;  0.0000000E+00;  0.0000000E+00;  1.0007322E+03;  1.0000000E-01;  6.0660010E+02;0;  0.0000000E+00;  0.0000000E+00;  0.0000000E+00;0; -3.5021794E-03;  4.0000000E+04;  0.0000000E+00;  0.0000000E+00;  4.0000000E+04;  0.0000000E+00;  4.0000000E+04; -3.5771253E-03;  0.0000000E+00;  7.4945878E-05;  5.3024628E+02;
 -9.0000004E-02;  9.9999998E-03;  0.0000000E+00;1044;  0.0000000E+00;  0.0000000E+00;  0.0000000E+00;  1.0007308E+03;  1.0000000E-01;  6.0541498E+02;0;  0.0000000E+00;  0.0000000E+00;  0.0000000E+00;0; -3.5044574E-03;  4.0000000E+04;  0.0000000E+00;  0.0000000E+00;  4.0000000E+04;  0.0000000E+00;  4.0000000E+04; -3.5801404E-03;  0.0000000E+00;  7.5682969E-05;  5.3252087E+02;
 -9.0000004E-02;  9.9999998E-03;  9.9999998E-03;1045;  0.0000000E+00;  0.0000000E+00;  0.0000000E+00;  1.0007322E+03;  1.0000000E-01;  6.0660010E+02;0;  0.0000000E+00;  0.0000000E+00;  0.0000000E+00;0; -3.5021782E-03;  4.0000000E+04;  0.0000000E+00;  0.0000000E+00;  4.0000000E+04;  0.0000000E+00;  4.0000000E+04; -3.5771241E-03;  0.0000000E+00;  7.4945827E-05;  5.3024677E+02;
 -9.0000004E-02;  9.9999998E-03;  2.0000000E-02;1046;  0.0000000E+00;  0.0000000E+00;  0.0000000E+00;  1.0007355E+03;  1.0000000E-01;  6.0936548E+02;0;  0.0000000E+00;  0.0000000E+00;  0.0000000E+00;0; -3.4954709E-03;  4.0000000E+04;  0.0000000E+00;  0.0000000E+00;  4.0000000E+04;  0.0000000E+00;  4.0000000E+04; -3.5683298E-03;  0.0000000E+00;  7.2858951E-05;  5.2363269E+02;
 -9.0000004E-02;  9.9999998E-03;  2.9999999E-02;1047;  0.0000000E+00;  0.0000000E+00;  0.0000000E+00;  1.0007399E+03;  1.0000000E-01;  6.1301971E+02;0;  0.0000000E+00;  0.0000000E+00;  0.0000000E+00;0; -3.4846684E-03;  4.0000000E+04;  0.0000000E+00;  0.0000000E+00;  4.0000000E+04;  0.0000000E+00;  4.0000000E+04; -3.5544434E-03;  0.0000000E+00;  6.9774986E-05;  5.1329596E+02;
 -9.0000004E-02;  9.9999998E-03;  3.9999999E-02;1048;  0.0000000E+00;  0.0000000E+00;  0.0000000E+00;  1.0007466E+03;  1.0000000E-01;  6.1855042E+02;0;  0.0000000E+00;  0.0000000E+00;  0.0000000E+00;0; -3.4702807E-03;  4.0000000E+04;  0.0000000E+00;  0.0000000E+00;  4.0000000E+04;  0.0000000E+00;  4.0000000E+04; -3.5364975E-03;  0.0000000E+00;  6.6216904E-05;  5.0018509E+02;
 -9.0000004E-02;  9.9999998E-03;  5.0000001E-02;1049;  0.0000000E+00;  0.0000000E+00;  0.0000000E+00;  1.0007551E+03;  1.0000000E-01;  6.2556256E+02;0;  0.0000000E+00;  0.0000000E+00;  0.0000000E+00;0; -3.4529392E-03;  4.0000000E+04;  0.0000000E+00;  0.0000000E+00;  4.0000000E+04;  0.0000000E+00;  4.0000000E+04; -3.5157332E-03;  0.0000000E+00;  6.2793981E-05;  4.8553043E+02;
 -9.0000004E-02;  9.9999998E-03;  5.9999999E-02;1050;  0.0000000E+00;  0.0000000E+00;  0.0000000E+00;  1.0007661E+03;  1.0000000E-01;  6.3464874E+02;0;  0.0000000E+00;  0.0000000E+00;  0.0000000E+00;0; -3.4332830E-03;  4.0000000E+04;  0.0000000E+00;  0.0000000E+00;  4.0000000E+04;  0.0000000E+00;  4.0000000E+04; -3.4933924E-03;  0.0000000E+00;  6.0109462E-05;  4.7070432E+02;
 -7.9999998E-02;  9.9999998E-03; -1.0000000E-01;1125;  0.0000000E+00;  0.0000000E+00;  0.0000000E+00;  1.0013672E+03;  1.0000000E-01;  1.1327087E+03;0;  0.0000000E+00;  0.0000000E+00;  0.0000000E+00;0; -5.4647257E-03;  4.0000000E+04;  0.0000000E+00;  0.0000000E+00;  4.0000000E+04;  0.0000000E+00;  4.0000000E+04; -5.5800094E-03;  0.0000000E+00;  1.1528362E-04;  6.1005121E+02;
 -7.9999998E-02;  9.9999998E-03; -9.0000004E-02;1126;  0.0000000E+00;  0.0000000E+00;  0.0000000E+00;  1.0013582E+03;  1.0000000E-01;  1.1252028E+03;0;  0.0000000E+00;  0.0000000E+00;  0.0000000E+00;0; -5.5076010E-03;  4.0000000E+04;  0.0000000E+00;  0.0000000E+00;  4.0000000E+04;  0.0000000E+00;  4.0000000E+04; -5.6173890E-03;  0.0000000E+00;  1.0978802E-04;  6.1540076E+02;
 -7.9999998E-02;  9.9999998E-03; -7.9999998E-02;1127;  0.0000000E+00;  0.0000000E+00;  0.0000000E+00;  1.0013459E+03;  1.0000000E-01;  1.1151289E+03;0;  0.0000000E+00;  0.0000000E+00;  0.0000000E+00;0; -5.5457032E-03;  4.0000000E+04;  0.0000000E+00;  0.0000000E+00;  4.0000000E+04;  0.0000000E+00;  4.0000000E+04; -5.6525781E-03;  0.0000000E+00;  1.0687506E-04;  6.2734497E+02;
 -7.9999998E-02;  9.9999998E-03; -7.0000000E-02;1128;  0.0000000E+00;  0.0000000E+00;  0.0000000E+00;  1.0013317E+03;  1.0000000E-01;  1.1032775E+03;0;  0.0000000E+00;  0.0000000E+00;  0.0000000E+00;0; -5.5803331E-03;  4.0000000E+04;  0.0000000E+00;  0.0000000E+00;  4.0000000E+04;  0.0000000E+00;  4.0000000E+04; -5.6869509E-03;  0.0000000E+00;  1.0661762E-04;  6.4475043E+02;
 -7.9999998E-02;  9.9999998E-03; -5.9999999E-02;1129;  0.0000000E+00;  0.0000000E+00;  0.0000000E+00;  1.0013168E+03;  1.0000000E-01;  1.0909321E+03;0;  0.0000000E+00;  0.0000000E+00;  0.0000000E+00;0; -5.6119822E-03;  4.0000000E+04;  0.0000000E+00;  0.0000000E+00;  4.0000000E+04;  0.0000000E+00;  4.0000000E+04; -5.7207649E-03;  0.0000000E+00;  1.0878274E-04;  6.6602063E+02;
 -7.9999998E-02;  9.9999998E-03; -5.0000001E-02;1130;  0.0000000E+00;  0.0000000E+00;  0.0000000E+00;  1.0013024E+03;  1.0000000E-01;  1.0790806E+03;0;  0.0000000E+00;  0.0000000E+00;  0.0000000E+00;0; -5.6405449E-03;  4.0000000E+04;  0.0000000E+00;  0.0000000E+00;  4.0000000E+04;  0.0000000E+00;  4.0000000E+04; -5.7533863E-03;  0.0000000E+00;  1.1284154E-04;  6.8920984E+02;
 -7.9999998E-02;  9.9999998E-03; -3.9999999E-02;1131;  0.0000000E+00;  0.0000000E+00;  0.0000000E+00;  1.0012908E+03;  1.0000000E-01;  1.0694019E+03;0;  0.0000000E+00;  0.0000000E+00;  0.0000000E+00;0; -5.6654573E-03;  4.0000000E+04;  0.0000000E+00;  0.0000000E+00;  4.0000000E+04;  0.0000000E+00;  4.0000000E+04; -5.7834811E-03;  0.0000000E+00;  1.1802387E-04;  7.1215692E+02;
 -7.9999998E-02;  9.9999998E-03; -2.9999999E-02;1132;  0.0000000E+00;  0.0000000E+00;  0.0000000E+00;  1.0012816E+03;  1.0000000E-01;  1.0616984E+03;0;  0.0000000E+00;  0.0000000E+00;  0.0000000E+00;0; -5.6859562E-03;  4.0000000E+04;  0.0000000E+00;  0.0000000E+00;  4.0000000E+04;  0.0000000E+00;  4.0000000E+04; -5.8093718E-03;  0.0000000E+00;  1.2341584E-04;  7.3272656E+02;
 -7.9999998E-02;  9.9999998E-03; -2.0000000E-02;1133;  0.0000000E+00;  0.0000000E+00;  0.0000000E+00;  1.0012737E+03;  1.0000000E-01;  1.0552788E+03;0;  0.0000000E+00;  0.0000000E+00;  0.0000000E+00;0; -5.7012709E-03;  4.0000000E+04;  0.0000000E+00;  0.0000000E+00;  4.0000000E+04;  0.0000000E+00;  4.0000000E+04; -5.8293631E-03;  0.0000000E+00;  1.2809226E-04;  7.4898499E+02;
 -7.9999998E-02;  9.9999998E-03; -9.9999998E-03;1134;  0.0000000E+00;  0.0000000E+00;  0.0000000E+00;  1.0012695E+03;  1.0000000E-01;  1.0517234E+03;0;  0.0000000E+00;  0.0000000E+00;  0.0000000E+00;0; -5.7107424E-03;  4.0000000E+04;  0.0000000E+00;  0.0000000E+00;  4.0000000E+04;  0.0000000E+00;  4.0000000E+04; -5.8420002E-03;  0.0000000E+00;  1.3125777E-04;  7.5939655E+02;
 -7.9999998E-02;  9.9999998E-03;  0.0000000E+00;1135;  0.0000000E+00;  0.0000000E+00;  0.0000000E+00;  1.0012681E+03;  1.0000000E-01;  1.0505382E+03;0;  0.0000000E+00;  0.0000000E+00;  0.0000000E+00;0; -5.7139522E-03;  4.0000000E+04;  0.0000000E+00;  0.0000000E+00;  4.0000000E+04;  0.0000000E+00;  4.0000000E+04; -5.8463281E-03;  0.0000000E+00;  1.3237602E-04;  7.6298328E+02;
 -7.9999998E-02;  9.9999998E-03;  9.9999998E-03;1136;  0.0000000E+00;  0.0000000E+00;  0.0000000E+00;  1.0012695E+03;  1.0000000E-01;  1.0517234E+03;0;  0.0000000E+00;  0.0000000E+00;  0.0000000E+00;0; -5.7107415E-03;  4.0000000E+04;  0.0000000E+00;  0.0000000E+00;  4.0000000E+04;  0.0000000E+00;  4.0000000E+04; -5.8419993E-03;  0.0000000E+00;  1.3125777E-04;  7.5939709E+02;
 -7.9999998E-02;  9.9999998E-03;  2.0000000E-02;1137;  0.0000000E+00;  0.0000000E+00;  0.0000000E+00;  1.0012737E+03;  1.0000000E-01;  1.0552788E+03;0;  0.0000000E+00;  0.0000000E+00;  0.0000000E+00;0; -5.7012676E-03;  4.0000000E+04;  0.0000000E+00;  0.0000000E+00;  4.0000000E+04;  0.0000000E+00;  4.0000000E+04; -5.8293599E-03;  0.0000000E+00;  1.2809219E-04;  7.4898663E+02;
 -7.9999998E-02;  9.9999998E-03;  2.9999999E-02;1138;  0.0000000E+00;  0.0000000E+00;  0.0000000E+00;  1.0012816E+03;  1.0000000E-01;  1.0616984E+03;0;  0.0000000E+00;  0.0000000E+00;  0.0000000E+00;0; -5.6859544E-03;  4.0000000E+04;  0.0000000E+00;  0.0000000E+00;  4.0000000E+04;  0.0000000E+00;  4.0000000E+04; -5.8093700E-03;  0.0000000E+00;  1.2341578E-04;  7.3272833E+02;
 -7.9999998E-02;  9.9999998E-03;  3.9999999E-02;1139;  0.0000000E+00;  0.0000000E+00;  0.0000000E+00;  1.0012908E+03;  1.0000000E-01;  1.0694019E+03;0;  0.0000000E+00;  0.0000000E+00;  0.0000000E+00;0; -5.6654508E-03;  4.0000000E+04;  0.0000000E+00;  0.0000000E+00;  4.0000000E+04;  0.0000000E+00;  4.0000000E+04; -5.7834745E-03;  0.0000000E+00;  1.1802376E-04;  7.1215771E+02;
 -7.9999998E-02;  9.9999998E-03;  5.0000001E-02;1140;  0.0000000E+00;  0.0000000E+00;  0.0000000E+00;  1.0013024E+03;  1.0000000E-01;  1.0790806E+03;0;  0.0000000E+00;  0.0000000E+00;  0.0000000E+00;0; -5.6405435E-03;  4.0000000E+04;  0.0000000E+00;  0.0000000E+00;  4.0000000E+04;  0.0000000E+00;  4.0000000E+04; -5.7533849E-03;  0.0000000E+00;  1.1284152E-04;  6.8921130E+02;
 -7.9999998E-02;  9.9999998E-03;  5.9999999E-02;1141;  0.0000000E+00;  0.0000000E+00;  0.0000000E+00;  1.0013168E+03;  1.0000000E-01;  1.0909321E+03;0;  0.0000000E+00;  0.0000000E+00;  0.0000000E+00;0; -5.6119780E-03;  4.0000000E+04;  0.0000000E+00;  0.0000000E+00;  4.0000000E+04;  0.0000000E+00;  4.0000000E+04; -5.7207607E-03;  0.0000000E+00;  1.0878269E-04;  6.6602380E+02;
 -7.0000000E-02;  9.9999998E-03; -1.0000000E-01;1216;  0.0000000E+00;  0.0000000E+00;  0.0000000E+00;  1.0021945E+03;  1.0000000E-01;  1.8180227E+03;0;  0.0000000E+00;  0.0000000E+00;  0.0000000E+00;0; -8.4273862E-03;  4.0000000E+04;  0.0000000E+00;  0.0000000E+00;  4.0000000E+04;  0.0000000E+00;  4.0000000E+04; -8.6184824E-03;  0.0000000E+00;  1.9109587E-04;  8.0995044E+02;
 -7.0000000E-02;  9.9999998E-03; -9.0000004E-02;1217;  0.0000000E+00;  0.0000000E+00;  0.0000000E+00;  1.0021805E+03;  1.0000000E-01;  1.8064674E+03;0;  0.0000000E+00;  0.0000000E+00;  0.0000000E+00;0; -8.4903007E-03;  4.0000000E+04;  0.0000000E+00;  0.0000000E+00;  4.0000000E+04;  0.0000000E+00;  4.0000000E+04; -8.6739883E-03;  0.0000000E+00;  1.8368743E-04;  8.1818292E+02;
 -7.0000000E-02;  9.9999998E-03; -7.9999998E-02;1218;  0.0000000E+00;  0.0000000E+00;  0.0000000E+00;  1.0021614E+03;  1.0000000E-01;  1.7906654E+03;0;  0.0000000E+00;  0.0000000E+00;  0.0000000E+00;0; -8.5455114E-03;  4.0000000E+04;  0.0000000E+00;  0.0000000E+00;  4.0000000E+04;  0.0000000E+00;  4.0000000E+04; -8.7252930E-03;  0.0000000E+00;  1.7978146E-04;  8.3580804E+02;
 -7.0000000E-02;  9.9999998E-03; -7.0000000E-02;1219;  0.0000000E+00;  0.0000000E+00;  0.0000000E+00;  1.0021396E+03;  1.0000000E-01;  1.7725918E+03;0;  0.0000000E+00;  0.0000000E+00;  0.0000000E+00;0; -8.5949767E-03;  4.0000000E+04;  0.0000000E+00;  0.0000000E+00;  4.0000000E+04;  0.0000000E+00;  4.0000000E+04; -8.7745152E-03;  0.0000000E+00;  1.7953807E-04;  8.6124634E+02;
 -7.0000000E-02;  9.9999998E-03; -5.9999999E-02;1220;  0.0000000E+00;  0.0000000E+00;  0.0000000E+00;  1.0021201E+03;  1.0000000E-01;  1.7564935E+03;0;  0.0000000E+00;  0.0000000E+00;  0.0000000E+00;0; -8.6395750E-03;  4.0000000E+04;  0.0000000E+00;  0.0000000E+00;  4.0000000E+04;  0.0000000E+00;  4.0000000E+04; -8.8222502E-03;  0.0000000E+00;  1.8267492E-04;  8.9227515E+02;
 -7.0000000E-02;  9.9999998E-03; -5.0000001E-02;1221;  0.0000000E+00;  0.0000000E+00;  0.0000000E+00;  1.0021010E+03;  1.0000000E-01;  1.7406915E+03;0;  0.0000000E+00;  0.0000000E+00;  0.0000000E+00;0; -8.6793434E-03;  4.0000000E+04;  0.0000000E+00;  0.0000000E+00;  4.0000000E+04;  0.0000000E+00;  4.0000000E+04; -8.8678189E-03;  0.0000000E+00;  1.8847539E-04;  9.2613013E+02;
 -7.0000000E-02;  9.9999998E-03; -3.9999999E-02;1222;  0.0000000E+00;  0.0000000E+00;  0.0000000E+00;  1.0020830E+03;  1.0000000E-01;  1.7257783E+03;0;  0.0000000E+00;  0.0000000E+00;  0.0000000E+00;0; -8.7136962E-03;  4.0000000E+04;  0.0000000E+00;  0.0000000E+00;  4.0000000E+04;  0.0000000E+00;  4.0000000E+04; -8.9095626E-03;  0.0000000E+00;  1.9586601E-04;  9.5970978E+02;
 -7.0000000E-02;  9.9999998E-03; -2.9999999E-02;1223;  0.0000000E+00;  0.0000000E+00;  0.0000000E+00;  1.0020698E+03;  1.0000000E-01;  1.7147169E+03;0;  0.0000000E+00;  0.0000000E+00;  0.0000000E+00;0; -8.7417578E-03;  4.0000000E+04;  0.0000000E+00;  0.0000000E+00;  4.0000000E+04;  0.0000000E+00;  4.0000000E+04; -8.9453142E-03;  0.0000000E+00;  2.0355615E-04;  9.8987421E+02;
 -7.0000000E-02;  9.9999998E-03; -2.0000000E-02;1224;  0.0000000E+00;  0.0000000E+00;  0.0000000E+00;  1.0020583E+03;  1.0000000E-01;  1.7052357E+03;0;  0.0000000E+00;  0.0000000E+00;  0.0000000E+00;0; -8.7626260E-03;  4.0000000E+04;  0.0000000E+00;  0.0000000E+00;  4.0000000E+04;  0.0000000E+00;  4.0000000E+04; -8.9728544E-03;  0.0000000E+00;  2.1022867E-04;  1.0137579E+03;
 -7.0000000E-02;  9.9999998E-03; -9.9999998E-03;1225;  0.0000000E+00;  0.0000000E+00;  0.0000000E+00;  1.0020522E+03;  1.0000000E-01;  1.7001989E+03;0;  0.0000000E+00;  0.0000000E+00;  0.0000000E+00;0; -8.7754810E-03;  4.0000000E+04;  0.0000000E+00;  0.0000000E+00;  4.0000000E+04;  0.0000000E+00;  4.0000000E+04; -8.9902282E-03;  0.0000000E+00;  2.1474747E-04;  1.0290834E+03;
 -7.0000000E-02;  9.9999998E-03;  0.0000000E+00;1226;  0.0000000E+00;  0.0000000E+00;  0.0000000E+00;  1.0020502E+03;  1.0000000E-01;  1.6986187E+03;0;  0.0000000E+00;  0.0000000E+00;  0.0000000E+00;0; -8.7798303E-03;  4.0000000E+04;  0.0000000E+00;  0.0000000E+00;  4.0000000E+04;  0.0000000E+00;  4.0000000E+04; -8.9961747E-03;  0.0000000E+00;  2.1634415E-04;  1.0343573E+03;
 -7.0000000E-02;  9.9999998E-03;  9.9999998E-03;1227;  0.0000000E+00;  0.0000000E+00;  0.0000000E+00;  1.0020522E+03;  1.0000000E-01;  1.7001989E+03;0;  0.0000000E+00;  0.0000000E+00;  0.0000000E+00;0; -8.7754866E-03;  4.0000000E+04;  0.0000000E+00;  0.0000000E+00;  4.0000000E+04;  0.0000000E+00;  4.0000000E+04; -8.9902338E-03;  0.0000000E+00;  2.1474749E-04;  1.0290839E+03;
 -7.0000000E-02;  9.9999998E-03;  2.0000000E-02;1228;  0.0000000E+00;  0.0000000E+00;  0.0000000E+00;  1.0020583E+03;  1.0000000E-01;  1.7052357E+03;0;  0.0000000E+00;  0.0000000E+00;  0.0000000E+00;0; -8.7626176E-03;  4.0000000E+04;  0.0000000E+00;  0.0000000E+00;  4.0000000E+04;  0.0000000E+00;  4.0000000E+04; -8.9728460E-03;  0.0000000E+00;  2.1022864E-04;  1.0137598E+03;
 -7.0000000E-02;  9.9999998E-03;  2.9999999E-02;1229;  0.0000000E+00;  0.0000000E+00;  0.0000000E+00;  1.0020698E+03;  1.0000000E-01;  1.7147169E+03;0;  0.0000000E+00;  0.0000000E+00;  0.0000000E+00;0; -8.7417532E-03;  4.0000000E+04;  0.0000000E+00;  0.0000000E+00;  4.0000000E+04;  0.0000000E+00;  4.0000000E+04; -8.9453096E-03;  0.0000000E+00;  2.0355605E-04;  9.8987555E+02;
 -7.0000000E-02;  9.9999998E-03;  3.9999999E-02;1230;  0.0000000E+00;  0.0000000E+00;  0.0000000E+00;  1.0020830E+03;  1.0000000E-01;  1.7257783E+03;0;  0.0000000E+00;  0.0000000E+00;  0.0000000E+00;0; -8.7136868E-03;  4.0000000E+04;  0.0000000E+00;  0.0000000E+00;  4.0000000E+04;  0.0000000E+00;  4.0000000E+04; -8.9095533E-03;  0.0000000E+00;  1.9586601E-04;  9.5971045E+02;
 -7.0000000E-02;  9.9999998E-03;  5.0000001E-02;1231;  0.0000000E+00;  0.0000000E+00;  0.0000000E+00;  1.0021010E+03;  1.0000000E-01;  1.7406915E+03;0;  0.0000000E+00;  0.0000000E+00;  0.0000000E+00;0; -8.6793387E-03;  4.0000000E+04;  0.0000000E+00;  0.0000000E+00;  4.0000000E+04;  0.0000000E+00;  4.0000000E+04; -8.8678142E-03;  0.0000000E+00;  1.8847547E-04;  9.2613330E+02;
 -7.0000000E-02;  9.9999998E-03;  5.9999999E-02;1232;  0.0000000E+00;  0.0000000E+00;  0.0000000E+00;  1.0021201E+03;  1.0000000E-01;  1.7564935E+03;0;  0.0000000E+00;  0.0000000E+00;  0.0000000E+00;0; -8.6395787E-03;  4.0000000E+04;  0.0000000E+00;  0.0000000E+00;  4.0000000E+04;  0.0000000E+00;  4.0000000E+04; -8.8222539E-03;  0.0000000E+00;  1.8267523E-04;  8.9227667E+02;
 -5.9999999E-02;  9.9999998E-03; -1.0000000E-01;1307;  0.0000000E+00;  0.0000000E+00;  0.0000000E+00;  1.0033203E+03;  1.0000000E-01;  2.7508357E+03;0;  0.0000000E+00;  0.0000000E+00;  0.0000000E+00;0; -1.2338895E-02;  4.0000000E+04;  0.0000000E+00;  0.0000000E+00;  4.0000000E+04;  0.0000000E+00;  4.0000000E+04; -1.2636387E-02;  0.0000000E+00;  2.9749097E-04;  1.0247578E+03;
 -5.9999999E-02;  9.9999998E-03; -9.0000004E-02;1308;  0.0000000E+00;  0.0000000E+00;  0.0000000E+00;  1.0033062E+03;  1.0000000E-01;  2.7391819E+03;0;  0.0000000E+00;  0.0000000E+00;  0.0000000E+00;0; -1.2426305E-02;  4.0000000E+04;  0.0000000E+00;  0.0000000E+00;  4.0000000E+04;  0.0000000E+00;  4.0000000E+04; -1.2714675E-02;  0.0000000E+00;  2.8837030E-04;  1.0359583E+03;
 -5.9999999E-02;  9.9999998E-03; -7.9999998E-02;1309;  0.0000000E+00;  0.0000000E+00;  0.0000000E+00;  1.0032835E+03;  1.0000000E-01;  2.7203181E+03;0;  0.0000000E+00;  0.0000000E+00;  0.0000000E+00;0; -1.2502365E-02;  4.0000000E+04;  0.0000000E+00;  0.0000000E+00;  4.0000000E+04;  0.0000000E+00;  4.0000000E+04; -1.2786032E-02;  0.0000000E+00;  2.8366657E-04;  1.0599532E+03;
 -5.9999999E-02;  9.9999998E-03; -7.0000000E-02;1310;  0.0000000E+00;  0.0000000E+00;  0.0000000E+00;  1.0032552E+03;  1.0000000E-01;  2.6969114E+03;0;  0.0000000E+00;  0.0000000E+00;  0.0000000E+00;0; -1.2569862E-02;  4.0000000E+04;  0.0000000E+00;  0.0000000E+00;  4.0000000E+04;  0.0000000E+00;  4.0000000E+04; -1.2853541E-02;  0.0000000E+00;  2.8367859E-04;  1.0946810E+03;
 -5.9999999E-02;  9.9999998E-03; -5.9999999E-02;1311;  0.0000000E+00;  0.0000000E+00;  0.0000000E+00;  1.0032269E+03;  1.0000000E-01;  2.6734058E+03;0;  0.0000000E+00;  0.0000000E+00;  0.0000000E+00;0; -1.2630140E-02;  4.0000000E+04;  0.0000000E+00;  0.0000000E+00;  4.0000000E+04;  0.0000000E+00;  4.0000000E+04; -1.2918245E-02;  0.0000000E+00;  2.8810490E-04;  1.1372117E+03;
 -5.9999999E-02;  9.9999998E-03; -5.0000001E-02;1312;  0.0000000E+00;  0.0000000E+00;  0.0000000E+00;  1.0032027E+03;  1.0000000E-01;  2.6533572E+03;0;  0.0000000E+00;  0.0000000E+00;  0.0000000E+00;0; -1.2683413E-02;  4.0000000E+04;  0.0000000E+00;  0.0000000E+00;  4.0000000E+04;  0.0000000E+00;  4.0000000E+04; -1.2979458E-02;  0.0000000E+00;  2.9604553E-04;  1.1838162E+03;
 -5.9999999E-02;  9.9999998E-03; -3.9999999E-02;1313;  0.0000000E+00;  0.0000000E+00;  0.0000000E+00;  1.0031780E+03;  1.0000000E-01;  2.6329131E+03;0;  0.0000000E+00;  0.0000000E+00;  0.0000000E+00;0; -1.2729079E-02;  4.0000000E+04;  0.0000000E+00;  0.0000000E+00;  4.0000000E+04;  0.0000000E+00;  4.0000000E+04; -1.3035175E-02;  0.0000000E+00;  3.0609660E-04;  1.2302134E+03;
 -5.9999999E-02;  9.9999998E-03; -2.9999999E-02;1314;  0.0000000E+00;  0.0000000E+00;  0.0000000E+00;  1.0031587E+03;  1.0000000E-01;  2.6169136E+03;0;  0.0000000E+00;  0.0000000E+00;  0.0000000E+00;0; -1.2766172E-02;  4.0000000E+04;  0.0000000E+00;  0.0000000E+00;  4.0000000E+04;  0.0000000E+00;  4.0000000E+04; -1.3082713E-02;  0.0000000E+00;  3.1654042E-04;  1.2720443E+03;
 -5.9999999E-02;  9.9999998E-03; -2.0000000E-02;1315;  0.0000000E+00;  0.0000000E+00;  0.0000000E+00;  1.0031442E+03;  1.0000000E-01;  2.6048645E+03;0;  0.0000000E+00;  0.0000000E+00;  0.0000000E+00;0; -1.2793635E-02;  4.0000000E+04;  0.0000000E+00;  0.0000000E+00;  4.0000000E+04;  0.0000000E+00;  4.0000000E+04; -1.3119237E-02;  0.0000000E+00;  3.2560172E-04;  1.3052396E+03;
 -5.9999999E-02;  9.9999998E-03; -9.9999998E-03;1316;  0.0000000E+00;  0.0000000E+00;  0.0000000E+00;  1.0031357E+03;  1.0000000E-01;  2.5978525E+03;0;  0.0000000E+00;  0.0000000E+00;  0.0000000E+00;0; -1.2810506E-02;  4.0000000E+04;  0.0000000E+00;  0.0000000E+00;  4.0000000E+04;  0.0000000E+00;  4.0000000E+04; -1.3142247E-02;  0.0000000E+00;  3.3174054E-04;  1.3265663E+03;
 -5.9999999E-02;  9.9999998E-03;  0.0000000E+00;1317;  0.0000000E+00;  0.0000000E+00;  0.0000000E+00;  1.0031330E+03;  1.0000000E-01;  2.5955808E+03;0;  0.0000000E+00;  0.0000000E+00;  0.0000000E+00;0; -1.2816194E-02;  4.0000000E+04;  0.0000000E+00;  0.0000000E+00;  4.0000000E+04;  0.0000000E+00;  4.0000000E+04; -1.3150104E-02;  0.0000000E+00;  3.3390993E-04;  1.3339222E+03;
 -5.9999999E-02;  9.9999998E-03;  9.9999998E-03;1318;  0.0000000E+00;  0.0000000E+00;  0.0000000E+00;  1.0031357E+03;  1.0000000E-01;  2.5978525E+03;0;  0.0000000E+00;  0.0000000E+00;  0.0000000E+00;0; -1.2810508E-02;  4.0000000E+04;  0.0000000E+00;  0.0000000E+00;  4.0000000E+04;  0.0000000E+00;  4.0000000E+04; -1.3142248E-02;  0.0000000E+00;  3.3174027E-04;  1.3265681E+03;
 -5.9999999E-02;  9.9999998E-03;  2.0000000E-02;1319;  0.0000000E+00;  0.0000000E+00;  0.0000000E+00;  1.0031442E+03;  1.0000000E-01;  2.6048645E+03;0;  0.0000000E+00;  0.0000000E+00;  0.0000000E+00;0; -1.2793628E-02;  4.0000000E+04;  0.0000000E+00;  0.0000000E+00;  4.0000000E+04;  0.0000000E+00;  4.0000000E+04; -1.3119229E-02;  0.0000000E+00;  3.2560155E-04;  1.3052411E+03;
 -5.9999999E-02;  9.9999998E-03;  2.9999999E-02;1320;  0.0000000E+00;  0.0000000E+00;  0.0000000E+00;  1.0031587E+03;  1.0000000E-01;  2.6169136E+03;0;  0.0000000E+00;  0.0000000E+00;  0.0000000E+00;0; -1.2766166E-02;  4.0000000E+04;  0.0000000E+00;  0.0000000E+00;  4.0000000E+04;  0.0000000E+00;  4.0000000E+04; -1.3082705E-02;  0.0000000E+00;  3.1654019E-04;  1.2720472E+03;
 -5.9999999E-02;  9.9999998E-03;  3.9999999E-02;1321;  0.0000000E+00;  0.0000000E+00;  0.0000000E+00;  1.0031780E+03;  1.0000000E-01;  2.6329131E+03;0;  0.0000000E+00;  0.0000000E+00;  0.0000000E+00;0; -1.2729072E-02;  4.0000000E+04;  0.0000000E+00;  0.0000000E+00;  4.0000000E+04;  0.0000000E+00;  4.0000000E+04; -1.3035169E-02;  0.0000000E+00;  3.0609689E-04;  1.2302170E+03;
 -5.9999999E-02;  9.9999998E-03;  5.0000001E-02;1322;  0.0000000E+00;  0.0000000E+00;  0.0000000E+00;  1.0032027E+03;  1.0000000E-01;  2.6533572E+03;0;  0.0000000E+00;  0.0000000E+00;  0.0000000E+00;0; -1.2683399E-02;  4.0000000E+04;  0.0000000E+00;  0.0000000E+00;  4.0000000E+04;  0.0000000E+00;  4.0000000E+04; -1.2979444E-02;  0.0000000E+00;  2.9604539E-04;  1.1838202E+03;
 -5.9999999E-02;  9.9999998E-03;  5.9999999E-02;1323;  0.0000000E+00;  0.0000000E+00;  0.0000000E+00;  1.0032269E+03;  1.0000000E-01;  2.6734058E+03;0;  0.0000000E+00;  0.0000000E+00;  0.0000000E+00;0; -1.2630140E-02;  4.0000000E+04;  0.0000000E+00;  0.0000000E+00;  4.0000000E+04;  0.0000000E+00;  4.0000000E+04; -1.2918246E-02;  0.0000000E+00;  2.8810516E-04;  1.1372163E+03;
 -5.0000001E-02;  9.9999998E-03; -1.0000000E-01;1398;  0.0000000E+00;  0.0000000E+00;  0.0000000E+00;  1.0047827E+03;  1.0000000E-01;  3.9623572E+03;0;  0.0000000E+00;  0.0000000E+00;  0.0000000E+00;0; -1.7241361E-02;  4.0000000E+04;  0.0000000E+00;  0.0000000E+00;  4.0000000E+04;  0.0000000E+00;  4.0000000E+04; -1.7680166E-02;  0.0000000E+00;  4.3880526E-04;  1.2372793E+03;
 -5.0000001E-02;  9.9999998E-03; -9.0000004E-02;1399;  0.0000000E+00;  0.0000000E+00;  0.0000000E+00;  1.0047658E+03;  1.0000000E-01;  3.9483328E+03;0;  0.0000000E+00;  0.0000000E+00;  0.0000000E+00;0; -1.7356751E-02;  4.0000000E+04;  0.0000000E+00;  0.0000000E+00;  4.0000000E+04;  0.0000000E+00;  4.0000000E+04; -1.7785370E-02;  0.0000000E+00;  4.2861950E-04;  1.2507946E+03;
 -5.0000001E-02;  9.9999998E-03; -7.9999998E-02;1400;  0.0000000E+00;  0.0000000E+00;  0.0000000E+00;  1.0047351E+03;  1.0000000E-01;  3.9229507E+03;0;  0.0000000E+00;  0.0000000E+00;  0.0000000E+00;0; -1.7456697E-02;  4.0000000E+04;  0.0000000E+00;  0.0000000E+00;  4.0000000E+04;  0.0000000E+00;  4.0000000E+04; -1.7880328E-02;  0.0000000E+00;  4.2363050E-04;  1.2810524E+03;
 -5.0000001E-02;  9.9999998E-03; -7.0000000E-02;1401;  0.0000000E+00;  0.0000000E+00;  0.0000000E+00;  1.0046996E+03;  1.0000000E-01;  3.8935195E+03;0;  0.0000000E+00;  0.0000000E+00;  0.0000000E+00;0; -1.7544858E-02;  4.0000000E+04;  0.0000000E+00;  0.0000000E+00;  4.0000000E+04;  0.0000000E+00;  4.0000000E+04; -1.7969195E-02;  0.0000000E+00;  4.2433699E-04;  1.3255757E+03;
 -5.0000001E-02;  9.9999998E-03; -5.9999999E-02;1402;  0.0000000E+00;  0.0000000E+00;  0.0000000E+00;  1.0046643E+03;  1.0000000E-01;  3.8642859E+03;0;  0.0000000E+00;  0.0000000E+00;  0.0000000E+00;0; -1.7623084E-02;  4.0000000E+04;  0.0000000E+00;  0.0000000E+00;  4.0000000E+04;  0.0000000E+00;  4.0000000E+04; -1.8053556E-02;  0.0000000E+00;  4.3047196E-04;  1.3807067E+03;
 -5.0000001E-02;  9.9999998E-03; -5.0000001E-02;1403;  0.0000000E+00;  0.0000000E+00;  0.0000000E+00;  1.0046281E+03;  1.0000000E-01;  3.8342620E+03;0;  0.0000000E+00;  0.0000000E+00;  0.0000000E+00;0; -1.7691810E-02;  4.0000000E+04;  0.0000000E+00;  0.0000000E+00;  4.0000000E+04;  0.0000000E+00;  4.0000000E+04; -1.8132791E-02;  0.0000000E+00;  4.4098170E-04;  1.4416077E+03;
 -5.0000001E-02;  9.9999998E-03; -3.9999999E-02;1404;  0.0000000E+00;  0.0000000E+00;  0.0000000E+00;  1.0045958E+03;  1.0000000E-01;  3.8074973E+03;0;  0.0000000E+00;  0.0000000E+00;  0.0000000E+00;0; -1.7750423E-02;  4.0000000E+04;  0.0000000E+00;  0.0000000E+00;  4.0000000E+04;  0.0000000E+00;  4.0000000E+04; -1.8204557E-02;  0.0000000E+00;  4.5413303E-04;  1.5026342E+03;
 -5.0000001E-02;  9.9999998E-03; -2.9999999E-02;1405;  0.0000000E+00;  0.0000000E+00;  0.0000000E+00;  1.0045692E+03;  1.0000000E-01;  3.7854731E+03;0;  0.0000000E+00;  0.0000000E+00;  0.0000000E+00;0; -1.7797807E-02;  4.0000000E+04;  0.0000000E+00;  0.0000000E+00;  4.0000000E+04;  0.0000000E+00;  4.0000000E+04; -1.8265558E-02;  0.0000000E+00;  4.6775135E-04;  1.5578929E+03;
 -5.0000001E-02;  9.9999998E-03; -2.0000000E-02;1406;  0.0000000E+00;  0.0000000E+00;  0.0000000E+00;  1.0045515E+03;  1.0000000E-01;  3.7707576E+03;0;  0.0000000E+00;  0.0000000E+00;  0.0000000E+00;0; -1.7832723E-02;  4.0000000E+04;  0.0000000E+00;  0.0000000E+00;  4.0000000E+04;  0.0000000E+00;  4.0000000E+04; -1.8312281E-02;  0.0000000E+00;  4.7955886E-04;  1.6019177E+03;
 -5.0000001E-02;  9.9999998E-03; -9.9999998E-03;1407;  0.0000000E+00;  0.0000000E+00;  0.0000000E+00;  1.0045413E+03;  1.0000000E-01;  3.7623628E+03;0;  0.0000000E+00;  0.0000000E+00;  0.0000000E+00;0; -1.7854160E-02;  4.0000000E+04;  0.0000000E+00;  0.0000000E+00;  4.0000000E+04;  0.0000000E+00;  4.0000000E+04; -1.8341716E-02;  0.0000000E+00;  4.8755755E-04;  1.6302545E+03;
 -5.0000001E-02;  9.9999998E-03;  0.0000000E+00;1408;  0.0000000E+00;  0.0000000E+00;  0.0000000E+00;  1.0045378E+03;  1.0000000E-01;  3.7594985E+03;0;  0.0000000E+00;  0.0000000E+00;  0.0000000E+00;0; -1.7861370E-02;  4.0000000E+04;  0.0000000E+00;  0.0000000E+00;  4.0000000E+04;  0.0000000E+00;  4.0000000E+04; -1.8351754E-02;  0.0000000E+00;  4.9038487E-04;  1.6400350E+03;
 -5.0000001E-02;  9.9999998E-03;  9.9999998E-03;1409;  0.0000000E+00;  0.0000000E+00;  0.0000000E+00;  1.0045413E+03;  1.0000000E-01;  3.7623628E+03;0;  0.0000000E+00;  0.0000000E+00;  0.0000000E+00;0; -1.7854143E-02;  4.0000000E+04;  0.0000000E+00;  0.0000000E+00;  4.0000000E+04;  0.0000000E+00;  4.0000000E+04; -1.8341700E-02;  0.0000000E+00;  4.8755726E-04;  1.6302542E+03;
 -5.0000001E-02;  9.9999998E-03;  2.0000000E-02;1410;  0.0000000E+00;  0.0000000E+00;  0.0000000E+00;  1.0045515E+03;  1.0000000E-01;  3.7707576E+03;0;  0.0000000E+00;  0.0000000E+00;  0.0000000E+00;0; -1.7832724E-02;  4.0000000E+04;  0.0000000E+00;  0.0000000E+00;  4.0000000E+04;  0.0000000E+00;  4.0000000E+04; -1.8312283E-02;  0.0000000E+00;  4.7955845E-04;  1.6019180E+03;
 -5.0000001E-02;  9.9999998E-03;  2.9999999E-02;1411;  0.0000000E+00;  0.0000000E+00;  0.0000000E+00;  1.0045692E+03;  1.0000000E-01;  3.7854731E+03;0;  0.0000000E+00;  0.0000000E+00;  0.0000000E+00;0; -1.7797798E-02;  4.0000000E+04;  0.0000000E+00;  0.0000000E+00;  4.0000000E+04;  0.0000000E+00;  4.0000000E+04; -1.8265549E-02;  0.0000000E+00;  4.6775170E-04;  1.5578984E+03;
 -5.0000001E-02;  9.9999998E-03;  3.9999999E-02;1412;  0.0000000E+00;  0.0000000E+00;  0.0000000E+00;  1.0045958E+03;  1.0000000E-01;  3.8074973E+03;0;  0.0000000E+00;  0.0000000E+00;  0.0000000E+00;0; -1.7750416E-02;  4.0000000E+04;  0.0000000E+00;  0.0000000E+00;  4.0000000E+04;  0.0000000E+00;  4.0000000E+04; -1.8204549E-02;  0.0000000E+00;  4.5413323E-04;  1.5026370E+03;
 -5.0000001E-02;  9.9999998E-03;  5.0000001E-02;1413;  0.0000000E+00;  0.0000000E+00;  0.0000000E+00;  1.0046281E+03;  1.0000000E-01;  3.8342620E+03;0;  0.0000000E+00;  0.0000000E+00;  0.0000000E+00;0; -1.7691795E-02;  4.0000000E+04;  0.0000000E+00;  0.0000000E+00;  4.0000000E+04;  0.0000000E+00;  4.0000000E+04; -1.8132776E-02;  0.0000000E+00;  4.4098197E-04;  1.4416122E+03;
 -5.0000001E-02;  9.9999998E-03;  5.9999999E-02;1414;  0.0000000E+00;  0.0000000E+00;  0.0000000E+00;  1.0046643E+03;  1.0000000E-01;  3.8642859E+03;0;  0.0000000E+00;  0.0000000E+00;  0.0000000E+00;0; -1.7623100E-02;  4.0000000E+04;  0.0000000E+00;  0.0000000E+00;  4.0000000E+04;  0.0000000E+00;  4.0000000E+04; -1.8053573E-02;  0.0000000E+00;  4.3047266E-04;  1.3807103E+03;
 -3.9999999E-02;  9.9999998E-03; -1.0000000E-01;1489;  0.0000000E+00;  0.0000000E+00;  0.0000000E+00;  1.0065814E+03;  1.0000000E-01;  5.4525864E+03;0;  0.0000000E+00;  0.0000000E+00;  0.0000000E+00;0; -2.3070624E-02;  4.0000000E+04;  0.0000000E+00;  0.0000000E+00;  4.0000000E+04;  0.0000000E+00;  4.0000000E+04; -2.3687905E-02;  0.0000000E+00;  6.1728101E-04;  1.4239766E+03;
 -3.9999999E-02;  9.9999998E-03; -9.0000004E-02;1490;  0.0000000E+00;  0.0000000E+00;  0.0000000E+00;  1.0065551E+03;  1.0000000E-01;  5.4307598E+03;0;  0.0000000E+00;  0.0000000E+00;  0.0000000E+00;0; -2.3215927E-02;  4.0000000E+04;  0.0000000E+00;  0.0000000E+00;  4.0000000E+04;  0.0000000E+00;  4.0000000E+04; -2.3823135E-02;  0.0000000E+00;  6.0720713E-04;  1.4382549E+03;
 -3.9999999E-02;  9.9999998E-03; -7.9999998E-02;1491;  0.0000000E+00;  0.0000000E+00;  0.0000000E+00;  1.0065166E+03;  1.0000000E-01;  5.3988599E+03;0;  0.0000000E+00;  0.0000000E+00;  0.0000000E+00;0; -2.3341408E-02;  4.0000000E+04;  0.0000000E+00;  0.0000000E+00;  4.0000000E+04;  0.0000000E+00;  4.0000000E+04; -2.3944227E-02;  0.0000000E+00;  6.0281885E-04;  1.4736624E+03;
 -3.9999999E-02;  9.9999998E-03; -7.0000000E-02;1492;  0.0000000E+00;  0.0000000E+00;  0.0000000E+00;  1.0064726E+03;  1.0000000E-01;  5.3624160E+03;0;  0.0000000E+00;  0.0000000E+00;  0.0000000E+00;0; -2.3451736E-02;  4.0000000E+04;  0.0000000E+00;  0.0000000E+00;  4.0000000E+04;  0.0000000E+00;  4.0000000E+04; -2.4056623E-02;  0.0000000E+00;  6.0488615E-04;  1.5274780E+03;
 -3.9999999E-02;  9.9999998E-03; -5.9999999E-02;1493;  0.0000000E+00;  0.0000000E+00;  0.0000000E+00;  1.0064253E+03;  1.0000000E-01;  5.3232075E+03;0;  0.0000000E+00;  0.0000000E+00;  0.0000000E+00;0; -2.3549313E-02;  4.0000000E+04;  0.0000000E+00;  0.0000000E+00;  4.0000000E+04;  0.0000000E+00;  4.0000000E+04; -2.4162566E-02;  0.0000000E+00;  6.1325333E-04;  1.5953530E+03;
 -3.9999999E-02;  9.9999998E-03; -5.0000001E-02;1494;  0.0000000E+00;  0.0000000E+00;  0.0000000E+00;  1.0063792E+03;  1.0000000E-01;  5.2850850E+03;0;  0.0000000E+00;  0.0000000E+00;  0.0000000E+00;0; -2.3634676E-02;  4.0000000E+04;  0.0000000E+00;  0.0000000E+00;  4.0000000E+04;  0.0000000E+00;  4.0000000E+04; -2.4261452E-02;  0.0000000E+00;  6.2677561E-04;  1.6712900E+03;
 -3.9999999E-02;  9.9999998E-03; -3.9999999E-02;1495;  0.0000000E+00;  0.0000000E+00;  0.0000000E+00;  1.0063394E+03;  1.0000000E-01;  5.2520981E+03;0;  0.0000000E+00;  0.0000000E+00;  0.0000000E+00;0; -2.3707226E-02;  4.0000000E+04;  0.0000000E+00;  0.0000000E+00;  4.0000000E+04;  0.0000000E+00;  4.0000000E+04; -2.4350652E-02;  0.0000000E+00;  6.4342591E-04;  1.7480735E+03;
 -3.9999999E-02;  9.9999998E-03; -2.9999999E-02;1496;  0.0000000E+00;  0.0000000E+00;  0.0000000E+00;  1.0063058E+03;  1.0000000E-01;  5.2242471E+03;0;  0.0000000E+00;  0.0000000E+00;  0.0000000E+00;0; -2.3765650E-02;  4.0000000E+04;  0.0000000E+00;  0.0000000E+00;  4.0000000E+04;  0.0000000E+00;  4.0000000E+04; -2.4426226E-02;  0.0000000E+00;  6.6057523E-04;  1.8180692E+03;
 -3.9999999E-02;  9.9999998E-03; -2.0000000E-02;1497;  0.0000000E+00;  0.0000000E+00;  0.0000000E+00;  1.0062835E+03;  1.0000000E-01;  5.2057788E+03;0;  0.0000000E+00;  0.0000000E+00;  0.0000000E+00;0; -2.3808606E-02;  4.0000000E+04;  0.0000000E+00;  0.0000000E+00;  4.0000000E+04;  0.0000000E+00;  4.0000000E+04; -2.4484023E-02;  0.0000000E+00;  6.7541841E-04;  1.8740846E+03;
 -3.9999999E-02;  9.9999998E-03; -9.9999998E-03;1498;  0.0000000E+00;  0.0000000E+00;  0.0000000E+00;  1.0062692E+03;  1.0000000E-01;  5.1939272E+03;0;  0.0000000E+00;  0.0000000E+00;  0.0000000E+00;0; -2.3834866E-02;  4.0000000E+04;  0.0000000E+00;  0.0000000E+00;  4.0000000E+04;  0.0000000E+00;  4.0000000E+04; -2.4520338E-02;  0.0000000E+00;  6.8547192E-04;  1.9102659E+03;
 -3.9999999E-02;  9.9999998E-03;  0.0000000E+00;1499;  0.0000000E+00;  0.0000000E+00;  0.0000000E+00;  1.0062650E+03;  1.0000000E-01;  5.1904707E+03;0;  0.0000000E+00;  0.0000000E+00;  0.0000000E+00;0; -2.3843694E-02;  4.0000000E+04;  0.0000000E+00;  0.0000000E+00;  4.0000000E+04;  0.0000000E+00;  4.0000000E+04; -2.4532720E-02;  0.0000000E+00;  6.8902521E-04;  1.9227532E+03;
 -3.9999999E-02;  9.9999998E-03;  9.9999998E-03;1500;  0.0000000E+00;  0.0000000E+00;  0.0000000E+00;  1.0062692E+03;  1.0000000E-01;  5.1939272E+03;0;  0.0000000E+00;  0.0000000E+00;  0.0000000E+00;0; -2.3834866E-02;  4.0000000E+04;  0.0000000E+00;  0.0000000E+00;  4.0000000E+04;  0.0000000E+00;  4.0000000E+04; -2.4520338E-02;  0.0000000E+00;  6.8547111E-04;  1.9102660E+03;
 -3.9999999E-02;  9.9999998E-03;  2.0000000E-02;1501;  0.0000000E+00;  0.0000000E+00;  0.0000000E+00;  1.0062835E+03;  1.0000000E-01;  5.2057788E+03;0;  0.0000000E+00;  0.0000000E+00;  0.0000000E+00;0; -2.3808584E-02;  4.0000000E+04;  0.0000000E+00;  0.0000000E+00;  4.0000000E+04;  0.0000000E+00;  4.0000000E+04; -2.4484001E-02;  0.0000000E+00;  6.7541824E-04;  1.8740885E+03;
 -3.9999999E-02;  9.9999998E-03;  2.9999999E-02;1502;  0.0000000E+00;  0.0000000E+00;  0.0000000E+00;  1.0063058E+03;  1.0000000E-01;  5.2242471E+03;0;  0.0000000E+00;  0.0000000E+00;  0.0000000E+00;0; -2.3765646E-02;  4.0000000E+04;  0.0000000E+00;  0.0000000E+00;  4.0000000E+04;  0.0000000E+00;  4.0000000E+04; -2.4426220E-02;  0.0000000E+00;  6.6057494E-04;  1.8180751E+03;
 -3.9999999E-02;  9.9999998E-03;  3.9999999E-02;1503;  0.0000000E+00;  0.0000000E+00;  0.0000000E+00;  1.0063394E+03;  1.0000000E-01;  5.2520981E+03;0;  0.0000000E+00;  0.0000000E+00;  0.0000000E+00;0; -2.3707222E-02;  4.0000000E+04;  0.0000000E+00;  0.0000000E+00;  4.0000000E+04;  0.0000000E+00;  4.0000000E+04; -2.4350649E-02;  0.0000000E+00;  6.4342597E-04;  1.7480814E+03;
 -3.9999999E-02;  9.9999998E-03;  5.0000001E-02;1504;  0.0000000E+00;  0.0000000E+00;  0.0000000E+00;  1.0063792E+03;  1.0000000E-01;  5.2850850E+03;0;  0.0000000E+00;  0.0000000E+00;  0.0000000E+00;0; -2.3634685E-02;  4.0000000E+04;  0.0000000E+00;  0.0000000E+00;  4.0000000E+04;  0.0000000E+00;  4.0000000E+04; -2.4261460E-02;  0.0000000E+00;  6.2677538E-04;  1.6712948E+03;
 -3.9999999E-02;  9.9999998E-03;  5.9999999E-02;1505;  0.0000000E+00;  0.0000000E+00;  0.0000000E+00;  1.0064253E+03;  1.0000000E-01;  5.3232075E+03;0;  0.0000000E+00;  0.0000000E+00;  0.0000000E+00;0; -2.3549307E-02;  4.0000000E+04;  0.0000000E+00;  0.0000000E+00;  4.0000000E+04;  0.0000000E+00;  4.0000000E+04; -2.4162561E-02;  0.0000000E+00;  6.1325368E-04;  1.5953590E+03;
 -2.9999999E-02;  9.9999998E-03; -1.0000000E-01;1580;  0.0000000E+00;  0.0000000E+00;  0.0000000E+00;  1.0086646E+03;  1.0000000E-01;  7.1784639E+03;0;  0.0000000E+00;  0.0000000E+00;  0.0000000E+00;0; -2.9644867E-02;  4.0000000E+04;  0.0000000E+00;  0.0000000E+00;  4.0000000E+04;  0.0000000E+00;  4.0000000E+04; -3.0477071E-02;  0.0000000E+00;  8.3220395E-04;  1.5578198E+03;
 -2.9999999E-02;  9.9999998E-03; -9.0000004E-02;1581;  0.0000000E+00;  0.0000000E+00;  0.0000000E+00;  1.0086342E+03;  1.0000000E-01;  7.1532793E+03;0;  0.0000000E+00;  0.0000000E+00;  0.0000000E+00;0; -2.9820036E-02;  4.0000000E+04;  0.0000000E+00;  0.0000000E+00;  4.0000000E+04;  0.0000000E+00;  4.0000000E+04; -3.0644018E-02;  0.0000000E+00;  8.2398119E-04;  1.5703834E+03;
 -2.9999999E-02;  9.9999998E-03; -7.9999998E-02;1582;  0.0000000E+00;  0.0000000E+00;  0.0000000E+00;  1.0085846E+03;  1.0000000E-01;  7.1121938E+03;0;  0.0000000E+00;  0.0000000E+00;  0.0000000E+00;0; -2.9971084E-02;  4.0000000E+04;  0.0000000E+00;  0.0000000E+00;  4.0000000E+04;  0.0000000E+00;  4.0000000E+04; -3.0792551E-02;  0.0000000E+00;  8.2146801E-04;  1.6085947E+03;
 -2.9999999E-02;  9.9999998E-03; -7.0000000E-02;1583;  0.0000000E+00;  0.0000000E+00;  0.0000000E+00;  1.0085237E+03;  1.0000000E-01;  7.0617261E+03;0;  0.0000000E+00;  0.0000000E+00;  0.0000000E+00;0; -3.0103749E-02;  4.0000000E+04;  0.0000000E+00;  0.0000000E+00;  4.0000000E+04;  0.0000000E+00;  4.0000000E+04; -3.0929528E-02;  0.0000000E+00;  8.2577870E-04;  1.6698650E+03;
 -2.9999999E-02;  9.9999998E-03; -5.9999999E-02;1584;  0.0000000E+00;  0.0000000E+00;  0.0000000E+00;  1.0084615E+03;  1.0000000E-01;  7.0102710E+03;0;  0.0000000E+00;  0.0000000E+00;  0.0000000E+00;0; -3.0220887E-02;  4.0000000E+04;  0.0000000E+00;  0.0000000E+00;  4.0000000E+04;  0.0000000E+00;  4.0000000E+04; -3.1057863E-02;  0.0000000E+00;  8.3697593E-04;  1.7493608E+03;
 -2.9999999E-02;  9.9999998E-03; -5.0000001E-02;1585;  0.0000000E+00;  0.0000000E+00;  0.0000000E+00;  1.0084055E+03;  1.0000000E-01;  6.9637539E+03;0;  0.0000000E+00;  0.0000000E+00;  0.0000000E+00;0; -3.0323107E-02;  4.0000000E+04;  0.0000000E+00;  0.0000000E+00;  4.0000000E+04;  0.0000000E+00;  4.0000000E+04; -3.1177033E-02;  0.0000000E+00;  8.5392577E-04;  1.8399517E+03;
 -2.9999999E-02;  9.9999998E-03; -3.9999999E-02;1586;  0.0000000E+00;  0.0000000E+00;  0.0000000E+00;  1.0083555E+03;  1.0000000E-01;  6.9223721E+03;0;  0.0000000E+00;  0.0000000E+00;  0.0000000E+00;0; -3.0409683E-02;  4.0000000E+04;  0.0000000E+00;  0.0000000E+00;  4.0000000E+04;  0.0000000E+00;  4.0000000E+04; -3.1284064E-02;  0.0000000E+00;  8.7438058E-04;  1.9327129E+03;
 -2.9999999E-02;  9.9999998E-03; -2.9999999E-02;1587;  0.0000000E+00;  0.0000000E+00;  0.0000000E+00;  1.0083154E+03;  1.0000000E-01;  6.8890894E+03;0;  0.0000000E+00;  0.0000000E+00;  0.0000000E+00;0; -3.0479178E-02;  4.0000000E+04;  0.0000000E+00;  0.0000000E+00;  4.0000000E+04;  0.0000000E+00;  4.0000000E+04; -3.1374477E-02;  0.0000000E+00;  8.9529948E-04;  2.0180250E+03;
 -2.9999999E-02;  9.9999998E-03; -2.0000000E-02;1588;  0.0000000E+00;  0.0000000E+00;  0.0000000E+00;  1.0082869E+03;  1.0000000E-01;  6.8654849E+03;0;  0.0000000E+00;  0.0000000E+00;  0.0000000E+00;0; -3.0530147E-02;  4.0000000E+04;  0.0000000E+00;  0.0000000E+00;  4.0000000E+04;  0.0000000E+00;  4.0000000E+04; -3.1443510E-02;  0.0000000E+00;  9.1336347E-04;  2.0866914E+03;
 -2.9999999E-02;  9.9999998E-03; -9.9999998E-03;1589;  0.0000000E+00;  0.0000000E+00;  0.0000000E+00;  1.0082697E+03;  1.0000000E-01;  6.8512632E+03;0;  0.0000000E+00;  0.0000000E+00;  0.0000000E+00;0; -3.0561268E-02;  4.0000000E+04;  0.0000000E+00;  0.0000000E+00;  4.0000000E+04;  0.0000000E+00;  4.0000000E+04; -3.1486858E-02;  0.0000000E+00;  9.2559011E-04;  2.1312083E+03;
 -2.9999999E-02;  9.9999998E-03;  0.0000000E+00;1590;  0.0000000E+00;  0.0000000E+00;  0.0000000E+00;  1.0082640E+03;  1.0000000E-01;  6.8465225E+03;0;  0.0000000E+00;  0.0000000E+00;  0.0000000E+00;0; -3.0571738E-02;  4.0000000E+04;  0.0000000E+00;  0.0000000E+00;  4.0000000E+04;  0.0000000E+00;  4.0000000E+04; -3.1501651E-02;  0.0000000E+00;  9.2991273E-04;  2.1466143E+03;
 -2.9999999E-02;  9.9999998E-03;  9.9999998E-03;1591;  0.0000000E+00;  0.0000000E+00;  0.0000000E+00;  1.0082697E+03;  1.0000000E-01;  6.8512632E+03;0;  0.0000000E+00;  0.0000000E+00;  0.0000000E+00;0; -3.0561268E-02;  4.0000000E+04;  0.0000000E+00;  0.0000000E+00;  4.0000000E+04;  0.0000000E+00;  4.0000000E+04; -3.1486858E-02;  0.0000000E+00;  9.2559011E-04;  2.1312095E+03;
 -2.9999999E-02;  9.9999998E-03;  2.0000000E-02;1592;  0.0000000E+00;  0.0000000E+00;  0.0000000E+00;  1.0082869E+03;  1.0000000E-01;  6.8654849E+03;0;  0.0000000E+00;  0.0000000E+00;  0.0000000E+00;0; -3.0530147E-02;  4.0000000E+04;  0.0000000E+00;  0.0000000E+00;  4.0000000E+04;  0.0000000E+00;  4.0000000E+04; -3.1443510E-02;  0.0000000E+00;  9.1336266E-04;  2.0866956E+03;
 -2.9999999E-02;  9.9999998E-03;  2.9999999E-02;1593;  0.0000000E+00;  0.0000000E+00;  0.0000000E+00;  1.0083154E+03;  1.0000000E-01;  6.8890894E+03;0;  0.0000000E+00;  0.0000000E+00;  0.0000000E+00;0; -3.0479178E-02;  4.0000000E+04;  0.0000000E+00;  0.0000000E+00;  4.0000000E+04;  0.0000000E+00;  4.0000000E+04; -3.1374477E-02;  0.0000000E+00;  8.9529948E-04;  2.0180305E+03;
 -2.9999999E-02;  9.9999998E-03;  3.9999999E-02;1594;  0.0000000E+00;  0.0000000E+00;  0.0000000E+00;  1.0083555E+03;  1.0000000E-01;  6.9223721E+03;0;  0.0000000E+00;  0.0000000E+00;  0.0000000E+00;0; -3.0409664E-02;  4.0000000E+04;  0.0000000E+00;  0.0000000E+00;  4.0000000E+04;  0.0000000E+00;  4.0000000E+04; -3.1284045E-02;  0.0000000E+00;  8.7438076E-04;  1.9327195E+03;
 -2.9999999E-02;  9.9999998E-03;  5.0000001E-02;1595;  0.0000000E+00;  0.0000000E+00;  0.0000000E+00;  1.0084055E+03;  1.0000000E-01;  6.9637539E+03;0;  0.0000000E+00;  0.0000000E+00;  0.0000000E+00;0; -3.0323092E-02;  4.0000000E+04;  0.0000000E+00;  0.0000000E+00;  4.0000000E+04;  0.0000000E+00;  4.0000000E+04; -3.1177018E-02;  0.0000000E+00;  8.5392606E-04;  1.8399635E+03;
 -2.9999999E-02;  9.9999998E-03;  5.9999999E-02;1596;  0.0000000E+00;  0.0000000E+00;  0.0000000E+00;  1.0084615E+03;  1.0000000E-01;  7.0102710E+03;0;  0.0000000E+00;  0.0000000E+00;  0.0000000E+00;0; -3.0220896E-02;  4.0000000E+04;  0.0000000E+00;  0.0000000E+00;  4.0000000E+04;  0.0000000E+00;  4.0000000E+04; -3.1057874E-02;  0.0000000E+00;  8.3697709E-04;  1.7493613E+03;
 -2.0000000E-02;  9.9999998E-03; -1.0000000E-01;1671;  0.0000000E+00;  0.0000000E+00;  0.0000000E+00;  1.0109507E+03;  1.0000000E-01;  9.0724346E+03;0;  0.0000000E+00;  0.0000000E+00;  0.0000000E+00;0; -3.6684595E-02;  4.0000000E+04;  0.0000000E+00;  0.0000000E+00;  4.0000000E+04;  0.0000000E+00;  4.0000000E+04; -3.7763763E-02;  0.0000000E+00;  1.0791692E-03;  1.6132933E+03;
 -2.0000000E-02;  9.9999998E-03; -9.0000004E-02;1672;  0.0000000E+00;  0.0000000E+00;  0.0000000E+00;  1.0109045E+03;  1.0000000E-01;  9.0341152E+03;0;  0.0000000E+00;  0.0000000E+00;  0.0000000E+00;0; -3.6887415E-02;  4.0000000E+04;  0.0000000E+00;  0.0000000E+00;  4.0000000E+04;  0.0000000E+00;  4.0000000E+04; -3.7962493E-02;  0.0000000E+00;  1.0750780E-03;  1.6206591E+03;
 -2.0000000E-02;  9.9999998E-03; -7.9999998E-02;1673;  0.0000000E+00;  0.0000000E+00;  0.0000000E+00;  1.0108387E+03;  1.0000000E-01;  8.9796963E+03;0;  0.0000000E+00;  0.0000000E+00;  0.0000000E+00;0; -3.7062280E-02;  4.0000000E+04;  0.0000000E+00;  0.0000000E+00;  4.0000000E+04;  0.0000000E+00;  4.0000000E+04; -3.8138337E-02;  0.0000000E+00;  1.0760583E-03;  1.6578986E+03;
 -2.0000000E-02;  9.9999998E-03; -7.0000000E-02;1674;  0.0000000E+00;  0.0000000E+00;  0.0000000E+00;  1.0107639E+03;  1.0000000E-01;  8.9176738E+03;0;  0.0000000E+00;  0.0000000E+00;  0.0000000E+00;0; -3.7215855E-02;  4.0000000E+04;  0.0000000E+00;  0.0000000E+00;  4.0000000E+04;  0.0000000E+00;  4.0000000E+04; -3.8299508E-02;  0.0000000E+00;  1.0836528E-03;  1.7231323E+03;
 -2.0000000E-02;  9.9999998E-03; -5.9999999E-02;1675;  0.0000000E+00;  0.0000000E+00;  0.0000000E+00;  1.0106870E+03;  1.0000000E-01;  8.8539717E+03;0;  0.0000000E+00;  0.0000000E+00;  0.0000000E+00;0; -3.7351310E-02;  4.0000000E+04;  0.0000000E+00;  0.0000000E+00;  4.0000000E+04;  0.0000000E+00;  4.0000000E+04; -3.8449585E-02;  0.0000000E+00;  1.0982753E-03;  1.8114747E+03;
 -2.0000000E-02;  9.9999998E-03; -5.0000001E-02;1676;  0.0000000E+00;  0.0000000E+00;  0.0000000E+00;  1.0106187E+03;  1.0000000E-01;  8.7973809E+03;0;  0.0000000E+00;  0.0000000E+00;  0.0000000E+00;0; -3.7469316E-02;  4.0000000E+04;  0.0000000E+00;  0.0000000E+00;  4.0000000E+04;  0.0000000E+00;  4.0000000E+04; -3.8588263E-02;  0.0000000E+00;  1.1189459E-03;  1.9148185E+03;
 -2.0000000E-02;  9.9999998E-03; -3.9999999E-02;1677;  0.0000000E+00;  0.0000000E+00;  0.0000000E+00;  1.0105573E+03;  1.0000000E-01;  8.7465176E+03;0;  0.0000000E+00;  0.0000000E+00;  0.0000000E+00;0; -3.7568968E-02;  4.0000000E+04;  0.0000000E+00;  0.0000000E+00;  4.0000000E+04;  0.0000000E+00;  4.0000000E+04; -3.8712297E-02;  0.0000000E+00;  1.1433280E-03;  2.0225170E+03;
 -2.0000000E-02;  9.9999998E-03; -2.9999999E-02;1678;  0.0000000E+00;  0.0000000E+00;  0.0000000E+00;  1.0105096E+03;  1.0000000E-01;  8.7070127E+03;0;  0.0000000E+00;  0.0000000E+00;  0.0000000E+00;0; -3.7648760E-02;  4.0000000E+04;  0.0000000E+00;  0.0000000E+00;  4.0000000E+04;  0.0000000E+00;  4.0000000E+04; -3.8816813E-02;  0.0000000E+00;  1.1680535E-03;  2.1227520E+03;
 -2.0000000E-02;  9.9999998E-03; -2.0000000E-02;1679;  0.0000000E+00;  0.0000000E+00;  0.0000000E+00;  1.0104748E+03;  1.0000000E-01;  8.6781738E+03;0;  0.0000000E+00;  0.0000000E+00;  0.0000000E+00;0; -3.7707049E-02;  4.0000000E+04;  0.0000000E+00;  0.0000000E+00;  4.0000000E+04;  0.0000000E+00;  4.0000000E+04; -3.8896393E-02;  0.0000000E+00;  1.1893454E-03;  2.2040725E+03;
 -2.0000000E-02;  9.9999998E-03; -9.9999998E-03;1680;  0.0000000E+00;  0.0000000E+00;  0.0000000E+00;  1.0104547E+03;  1.0000000E-01;  8.6614834E+03;0;  0.0000000E+00;  0.0000000E+00;  0.0000000E+00;0; -3.7742518E-02;  4.0000000E+04;  0.0000000E+00;  0.0000000E+00;  4.0000000E+04;  0.0000000E+00;  4.0000000E+04; -3.8946263E-02;  0.0000000E+00;  1.2037465E-03;  2.2570435E+03;
 -2.0000000E-02;  9.9999998E-03;  0.0000000E+00;1681;  0.0000000E+00;  0.0000000E+00;  0.0000000E+00;  1.0104473E+03;  1.0000000E-01;  8.6554590E+03;0;  0.0000000E+00;  0.0000000E+00;  0.0000000E+00;0; -3.7754439E-02;  4.0000000E+04;  0.0000000E+00;  0.0000000E+00;  4.0000000E+04;  0.0000000E+00;  4.0000000E+04; -3.8963277E-02;  0.0000000E+00;  1.2088375E-03;  2.2754163E+03;
 -2.0000000E-02;  9.9999998E-03;  9.9999998E-03;1682;  0.0000000E+00;  0.0000000E+00;  0.0000000E+00;  1.0104547E+03;  1.0000000E-01;  8.6614834E+03;0;  0.0000000E+00;  0.0000000E+00;  0.0000000E+00;0; -3.7742529E-02;  4.0000000E+04;  0.0000000E+00;  0.0000000E+00;  4.0000000E+04;  0.0000000E+00;  4.0000000E+04; -3.8946275E-02;  0.0000000E+00;  1.2037465E-03;  2.2570464E+03;
 -2.0000000E-02;  9.9999998E-03;  2.0000000E-02;1683;  0.0000000E+00;  0.0000000E+00;  0.0000000E+00;  1.0104748E+03;  1.0000000E-01;  8.6781738E+03;0;  0.0000000E+00;  0.0000000E+00;  0.0000000E+00;0; -3.7707023E-02;  4.0000000E+04;  0.0000000E+00;  0.0000000E+00;  4.0000000E+04;  0.0000000E+00;  4.0000000E+04; -3.8896367E-02;  0.0000000E+00;  1.1893444E-03;  2.2040771E+03;
 -2.0000000E-02;  9.9999998E-03;  2.9999999E-02;1684;  0.0000000E+00;  0.0000000E+00;  0.0000000E+00;  1.0105095E+03;  1.0000000E-01;  8.7069141E+03;0;  0.0000000E+00;  0.0000000E+00;  0.0000000E+00;0; -3.7648760E-02;  4.0000000E+04;  0.0000000E+00;  0.0000000E+00;  4.0000000E+04;  0.0000000E+00;  4.0000000E+04; -3.8816813E-02;  0.0000000E+00;  1.1680522E-03;  2.1227620E+03;
 -2.0000000E-02;  9.9999998E-03;  3.9999999E-02;1685;  0.0000000E+00;  0.0000000E+00;  0.0000000E+00;  1.0105572E+03;  1.0000000E-01;  8.7464189E+03;0;  0.0000000E+00;  0.0000000E+00;  0.0000000E+00;0; -3.7568934E-02;  4.0000000E+04;  0.0000000E+00;  0.0000000E+00;  4.0000000E+04;  0.0000000E+00;  4.0000000E+04; -3.8712259E-02;  0.0000000E+00;  1.1433256E-03;  2.0225214E+03;
 -2.0000000E-02;  9.9999998E-03;  5.0000001E-02;1686;  0.0000000E+00;  0.0000000E+00;  0.0000000E+00;  1.0106187E+03;  1.0000000E-01;  8.7973809E+03;0;  0.0000000E+00;  0.0000000E+00;  0.0000000E+00;0; -3.7469290E-02;  4.0000000E+04;  0.0000000E+00;  0.0000000E+00;  4.0000000E+04;  0.0000000E+00;  4.0000000E+04; -3.8588237E-02;  0.0000000E+00;  1.1189460E-03;  1.9148242E+03;
 -2.0000000E-02;  9.9999998E-03;  5.9999999E-02;1687;  0.0000000E+00;  0.0000000E+00;  0.0000000E+00;  1.0106870E+03;  1.0000000E-01;  8.8539717E+03;0;  0.0000000E+00;  0.0000000E+00;  0.0000000E+00;0; -3.7351314E-02;  4.0000000E+04;  0.0000000E+00;  0.0000000E+00;  4.0000000E+04;  0.0000000E+00;  4.0000000E+04; -3.8449589E-02;  0.0000000E+00;  1.0982760E-03;  1.8114808E+03;
 -9.9999998E-03;  9.9999998E-03; -1.0000000E-01;1762;  0.0000000E+00;  0.0000000E+00;  0.0000000E+00;  1.0133149E+03;  1.0000000E-01;  1.1031096E+04;0;  0.0000000E+00;  0.0000000E+00;  0.0000000E+00;0; -4.3837268E-02;  4.0000000E+04;  0.0000000E+00;  0.0000000E+00;  4.0000000E+04;  0.0000000E+00;  4.0000000E+04; -4.5186918E-02;  0.0000000E+00;  1.3496490E-03;  1.5718276E+03;
 -9.9999998E-03;  9.9999998E-03; -9.0000004E-02;1763;  0.0000000E+00;  0.0000000E+00;  0.0000000E+00;  1.0132503E+03;  1.0000000E-01;  1.0977665E+04;0;  0.0000000E+00;  0.0000000E+00;  0.0000000E+00;0; -4.4063151E-02;  4.0000000E+04;  0.0000000E+00;  0.0000000E+00;  4.0000000E+04;  0.0000000E+00;  4.0000000E+04; -4.5415595E-02;  0.0000000E+00;  1.3524436E-03;  1.5694880E+03;
 -9.9999998E-03;  9.9999998E-03; -7.9999998E-02;1764;  0.0000000E+00;  0.0000000E+00;  0.0000000E+00;  1.0131677E+03;  1.0000000E-01;  1.0909124E+04;0;  0.0000000E+00;  0.0000000E+00;  0.0000000E+00;0; -4.4257991E-02;  4.0000000E+04;  0.0000000E+00;  0.0000000E+00;  4.0000000E+04;  0.0000000E+00;  4.0000000E+04; -4.5616776E-02;  0.0000000E+00;  1.3587859E-03;  1.6002085E+03;
 -9.9999998E-03;  9.9999998E-03; -7.0000000E-02;1765;  0.0000000E+00;  0.0000000E+00;  0.0000000E+00;  1.0130725E+03;  1.0000000E-01;  1.0830311E+04;0;  0.0000000E+00;  0.0000000E+00;  0.0000000E+00;0; -4.4429161E-02;  4.0000000E+04;  0.0000000E+00;  0.0000000E+00;  4.0000000E+04;  0.0000000E+00;  4.0000000E+04; -4.5799907E-02;  0.0000000E+00;  1.3707470E-03;  1.6638508E+03;
 -9.9999998E-03;  9.9999998E-03; -5.9999999E-02;1766;  0.0000000E+00;  0.0000000E+00;  0.0000000E+00;  1.0129786E+03;  1.0000000E-01;  1.0752486E+04;0;  0.0000000E+00;  0.0000000E+00;  0.0000000E+00;0; -4.4580095E-02;  4.0000000E+04;  0.0000000E+00;  0.0000000E+00;  4.0000000E+04;  0.0000000E+00;  4.0000000E+04; -4.5969345E-02;  0.0000000E+00;  1.3892496E-03;  1.7561816E+03;
 -9.9999998E-03;  9.9999998E-03; -5.0000001E-02;1767;  0.0000000E+00;  0.0000000E+00;  0.0000000E+00;  1.0128934E+03;  1.0000000E-01;  1.0681871E+04;0;  0.0000000E+00;  0.0000000E+00;  0.0000000E+00;0; -4.4711366E-02;  4.0000000E+04;  0.0000000E+00;  0.0000000E+00;  4.0000000E+04;  0.0000000E+00;  4.0000000E+04; -4.6125036E-02;  0.0000000E+00;  1.4136685E-03;  1.8685066E+03;
 -9.9999998E-03;  9.9999998E-03; -3.9999999E-02;1768;  0.0000000E+00;  0.0000000E+00;  0.0000000E+00;  1.0128228E+03;  1.0000000E-01;  1.0623403E+04;0;  0.0000000E+00;  0.0000000E+00;  0.0000000E+00;0; -4.4821929E-02;  4.0000000E+04;  0.0000000E+00;  0.0000000E+00;  4.0000000E+04;  0.0000000E+00;  4.0000000E+04; -4.6263684E-02;  0.0000000E+00;  1.4417561E-03;  1.9885569E+03;
 -9.9999998E-03;  9.9999998E-03; -2.9999999E-02;1769;  0.0000000E+00;  0.0000000E+00;  0.0000000E+00;  1.0127672E+03;  1.0000000E-01;  1.0577380E+04;0;  0.0000000E+00;  0.0000000E+00;  0.0000000E+00;0; -4.4910032E-02;  4.0000000E+04;  0.0000000E+00;  0.0000000E+00;  4.0000000E+04;  0.0000000E+00;  4.0000000E+04; -4.6380021E-02;  0.0000000E+00;  1.4699879E-03;  2.1021738E+03;
 -9.9999998E-03;  9.9999998E-03; -2.0000000E-02;1770;  0.0000000E+00;  0.0000000E+00;  0.0000000E+00;  1.0127261E+03;  1.0000000E-01;  1.0543405E+04;0;  0.0000000E+00;  0.0000000E+00;  0.0000000E+00;0; -4.4974193E-02;  4.0000000E+04;  0.0000000E+00;  0.0000000E+00;  4.0000000E+04;  0.0000000E+00;  4.0000000E+04; -4.6468418E-02;  0.0000000E+00;  1.4942262E-03;  2.1953599E+03;
 -9.9999998E-03;  9.9999998E-03; -9.9999998E-03;1771;  0.0000000E+00;  0.0000000E+00;  0.0000000E+00;  1.0127018E+03;  1.0000000E-01;  1.0523159E+04;0;  0.0000000E+00;  0.0000000E+00;  0.0000000E+00;0; -4.5013092E-02;  4.0000000E+04;  0.0000000E+00;  0.0000000E+00;  4.0000000E+04;  0.0000000E+00;  4.0000000E+04; -4.6523698E-02;  0.0000000E+00;  1.5106070E-03;  2.2564695E+03;
 -9.9999998E-03;  9.9999998E-03;  0.0000000E+00;1772;  0.0000000E+00;  0.0000000E+00;  0.0000000E+00;  1.0126943E+03;  1.0000000E-01;  1.0516938E+04;0;  0.0000000E+00;  0.0000000E+00;  0.0000000E+00;0; -4.5026165E-02;  4.0000000E+04;  0.0000000E+00;  0.0000000E+00;  4.0000000E+04;  0.0000000E+00;  4.0000000E+04; -4.6542559E-02;  0.0000000E+00;  1.5163956E-03;  2.2777314E+03;
 -9.9999998E-03;  9.9999998E-03;  9.9999998E-03;1773;  0.0000000E+00;  0.0000000E+00;  0.0000000E+00;  1.0127017E+03;  1.0000000E-01;  1.0523159E+04;0;  0.0000000E+00;  0.0000000E+00;  0.0000000E+00;0; -4.5013081E-02;  4.0000000E+04;  0.0000000E+00;  0.0000000E+00;  4.0000000E+04;  0.0000000E+00;  4.0000000E+04; -4.6523690E-02;  0.0000000E+00;  1.5106072E-03;  2.2564753E+03;
 -9.9999998E-03;  9.9999998E-03;  2.0000000E-02;1774;  0.0000000E+00;  0.0000000E+00;  0.0000000E+00;  1.0127261E+03;  1.0000000E-01;  1.0543405E+04;0;  0.0000000E+00;  0.0000000E+00;  0.0000000E+00;0; -4.4974208E-02;  4.0000000E+04;  0.0000000E+00;  0.0000000E+00;  4.0000000E+04;  0.0000000E+00;  4.0000000E+04; -4.6468433E-02;  0.0000000E+00;  1.4942242E-03;  2.1953687E+03;
 -9.9999998E-03;  9.9999998E-03;  2.9999999E-02;1775;  0.0000000E+00;  0.0000000E+00;  0.0000000E+00;  1.0127672E+03;  1.0000000E-01;  1.0577380E+04;0;  0.0000000E+00;  0.0000000E+00;  0.0000000E+00;0; -4.4910043E-02;  4.0000000E+04;  0.0000000E+00;  0.0000000E+00;  4.0000000E+04;  0.0000000E+00;  4.0000000E+04; -4.6380032E-02;  0.0000000E+00;  1.4699867E-03;  2.1021841E+03;
 -9.9999998E-03;  9.9999998E-03;  3.9999999E-02;1776;  0.0000000E+00;  0.0000000E+00;  0.0000000E+00;  1.0128228E+03;  1.0000000E-01;  1.0623403E+04;0;  0.0000000E+00;  0.0000000E+00;  0.0000000E+00;0; -4.4821892E-02;  4.0000000E+04;  0.0000000E+00;  0.0000000E+00;  4.0000000E+04;  0.0000000E+00;  4.0000000E+04; -4.6263650E-02;  0.0000000E+00;  1.4417565E-03;  1.9885680E+03;
 -9.9999998E-03;  9.9999998E-03;  5.0000001E-02;1777;  0.0000000E+00;  0.0000000E+00;  0.0000000E+00;  1.0128934E+03;  1.0000000E-01;  1.0681871E+04;0;  0.0000000E+00;  0.0000000E+00;  0.0000000E+00;0; -4.4711366E-02;  4.0000000E+04;  0.0000000E+00;  0.0000000E+00;  4.0000000E+04;  0.0000000E+00;  4.0000000E+04; -4.6125036E-02;  0.0000000E+00;  1.4136685E-03;  1.8685150E+03;
 -9.9999998E-03;  9.9999998E-03;  5.9999999E-02;1778;  0.0000000E+00;  0.0000000E+00;  0.0000000E+00;  1.0129786E+03;  1.0000000E-01;  1.0752486E+04;0;  0.0000000E+00;  0.0000000E+00;  0.0000000E+00;0; -4.4580121E-02;  4.0000000E+04;  0.0000000E+00;  0.0000000E+00;  4.0000000E+04;  0.0000000E+00;  4.0000000E+04; -4.5969371E-02;  0.0000000E+00;  1.3892496E-03;  1.7561904E+03;
 -1.9000000E-01;  9.9999998E-03;  7.0000000E-02;141;  0.0000000E+00;  0.0000000E+00;  0.0000000E+00;  1.0000000E+03;  1.0000000E-01;  0.0000000E+00;0;  0.0000000E+00;  0.0000000E+00;  0.0000000E+00;0;  0.0000000E+00;  4.0000000E+04;  0.0000000E+00;  0.0000000E+00;  4.0000000E+04;  0.0000000E+00;  4.0000000E+04;  0.0000000E+00;  0.0000000E+00;  0.0000000E+00;  0.0000000E+00;
 -1.9000000E-01;  9.9999998E-03;  7.9999998E-02;142;  0.0000000E+00;  0.0000000E+00;  0.0000000E+00;  1.0000000E+03;  1.0000000E-01;  0.0000000E+00;0;  0.0000000E+00;  0.0000000E+00;  0.0000000E+00;0;  0.0000000E+00;  4.0000000E+04;  0.0000000E+00;  0.0000000E+00;  4.0000000E+04;  0.0000000E+00;  4.0000000E+04;  0.0000000E+00;  0.0000000E+00;  0.0000000E+00;  0.0000000E+00;
 -1.9000000E-01;  9.9999998E-03;  9.0000004E-02;143;  0.0000000E+00;  0.0000000E+00;  0.0000000E+00;  1.0000000E+03;  1.0000000E-01;  0.0000000E+00;0;  0.0000000E+00;  0.0000000E+00;  0.0000000E+00;0;  0.0000000E+00;  4.0000000E+04;  0.0000000E+00;  0.0000000E+00;  4.0000000E+04;  0.0000000E+00;  4.0000000E+04;  0.0000000E+00;  0.0000000E+00;  0.0000000E+00;  0.0000000E+00;
 -1.9000000E-01;  9.9999998E-03;  1.0000000E-01;144;  0.0000000E+00;  0.0000000E+00;  0.0000000E+00;  1.0000000E+03;  1.0000000E-01;  0.0000000E+00;0;  0.0000000E+00;  0.0000000E+00;  0.0000000E+00;0;  0.0000000E+00;  4.0000000E+04;  0.0000000E+00;  0.0000000E+00;  4.0000000E+04;  0.0000000E+00;  4.0000000E+04;  0.0000000E+00;  0.0000000E+00;  0.0000000E+00;  0.0000000E+00;
 -1.9000000E-01;  9.9999998E-03;  1.1000000E-01;145;  0.0000000E+00;  0.0000000E+00;  0.0000000E+00;  1.0000000E+03;  1.0000000E-01;  0.0000000E+00;0;  0.0000000E+00;  0.0000000E+00;  0.0000000E+00;0;  0.0000000E+00;  4.0000000E+04;  0.0000000E+00;  0.0000000E+00;  4.0000000E+04;  0.0000000E+00;  4.0000000E+04;  0.0000000E+00;  0.0000000E+00;  0.0000000E+00;  0.0000000E+00;
 -1.9000000E-01;  9.9999998E-03;  1.2000000E-01;146;  0.0000000E+00;  0.0000000E+00;  0.0000000E+00;  1.0000000E+03;  1.0000000E-01;  0.0000000E+00;0;  0.0000000E+00;  0.0000000E+00;  0.0000000E+00;0;  0.0000000E+00;  4.0000000E+04;  0.0000000E+00;  0.0000000E+00;  4.0000000E+04;  0.0000000E+00;  4.0000000E+04;  0.0000000E+00;  0.0000000E+00;  0.0000000E+00;  0.0000000E+00;
 -1.9000000E-01;  9.9999998E-03;  1.3000000E-01;147;  0.0000000E+00;  0.0000000E+00;  0.0000000E+00;  1.0000000E+03;  1.0000000E-01;  0.0000000E+00;0;  0.0000000E+00;  0.0000000E+00;  0.0000000E+00;0;  0.0000000E+00;  4.0000000E+04;  0.0000000E+00;  0.0000000E+00;  4.0000000E+04;  0.0000000E+00;  4.0000000E+04;  0.0000000E+00;  0.0000000E+00;  0.0000000E+00;  0.0000000E+00;
 -1.9000000E-01;  9.9999998E-03;  1.4000000E-01;148;  0.0000000E+00;  0.0000000E+00;  0.0000000E+00;  1.0000000E+03;  1.0000000E-01;  0.0000000E+00;0;  0.0000000E+00;  0.0000000E+00;  0.0000000E+00;0;  0.0000000E+00;  4.0000000E+04;  0.0000000E+00;  0.0000000E+00;  4.0000000E+04;  0.0000000E+00;  4.0000000E+04;  0.0000000E+00;  0.0000000E+00;  0.0000000E+00;  0.0000000E+00;
 -1.9000000E-01;  9.9999998E-03;  1.5000001E-01;149;  0.0000000E+00;  0.0000000E+00;  0.0000000E+00;  1.0000000E+03;  1.0000000E-01;  0.0000000E+00;0;  0.0000000E+00;  0.0000000E+00;  0.0000000E+00;0;  0.0000000E+00;  4.0000000E+04;  0.0000000E+00;  0.0000000E+00;  4.0000000E+04;  0.0000000E+00;  4.0000000E+04;  0.0000000E+00;  0.0000000E+00;  0.0000000E+00;  0.0000000E+00;
 -1.9000000E-01;  9.9999998E-03;  1.6000000E-01;150;  0.0000000E+00;  0.0000000E+00;  0.0000000E+00;  1.0000000E+03;  1.0000000E-01;  0.0000000E+00;0;  0.0000000E+00;  0.0000000E+00;  0.0000000E+00;0;  0.0000000E+00;  4.0000000E+04;  0.0000000E+00;  0.0000000E+00;  4.0000000E+04;  0.0000000E+00;  4.0000000E+04;  0.0000000E+00;  0.0000000E+00;  0.0000000E+00;  0.0000000E+00;
 -1.9000000E-01;  9.9999998E-03;  1.7000000E-01;151;  0.0000000E+00;  0.0000000E+00;  0.0000000E+00;  1.0000000E+03;  1.0000000E-01;  0.0000000E+00;0;  0.0000000E+00;  0.0000000E+00;  0.0000000E+00;0;  0.0000000E+00;  4.0000000E+04;  0.0000000E+00;  0.0000000E+00;  4.0000000E+04;  0.0000000E+00;  4.0000000E+04;  0.0000000E+00;  0.0000000E+00;  0.0000000E+00;  0.0000000E+00;
 -1.9000000E-01;  9.9999998E-03;  1.8000001E-01;152;  0.0000000E+00;  0.0000000E+00;  0.0000000E+00;  1.0000000E+03;  1.0000000E-01;  0.0000000E+00;0;  0.0000000E+00;  0.0000000E+00;  0.0000000E+00;0;  0.0000000E+00;  4.0000000E+04;  0.0000000E+00;  0.0000000E+00;  4.0000000E+04;  0.0000000E+00;  4.0000000E+04;  0.0000000E+00;  0.0000000E+00;  0.0000000E+00;  0.0000000E+00;
 -1.9000000E-01;  9.9999998E-03;  1.9000000E-01;153;  0.0000000E+00;  0.0000000E+00;  0.0000000E+00;  1.0000000E+03;  1.0000000E-01;  0.0000000E+00;0;  0.0000000E+00;  0.0000000E+00;  0.0000000E+00;0;  0.0000000E+00;  4.0000000E+04;  0.0000000E+00;  0.0000000E+00;  4.0000000E+04;  0.0000000E+00;  4.0000000E+04;  0.0000000E+00;  0.0000000E+00;  0.0000000E+00;  0.0000000E+00;
 -1.9000000E-01;  9.9999998E-03;  2.0000000E-01;154;  0.0000000E+00;  0.0000000E+00;  0.0000000E+00;  1.0000000E+03;  1.0000000E-01;  0.0000000E+00;0;  0.0000000E+00;  0.0000000E+00;  0.0000000E+00;0;  0.0000000E+00;  4.0000000E+04;  0.0000000E+00;  0.0000000E+00;  4.0000000E+04;  0.0000000E+00;  4.0000000E+04;  0.0000000E+00;  0.0000000E+00;  0.0000000E+00;  0.0000000E+00;
 -1.9000000E-01;  9.9999998E-03;  2.0999999E-01;155;  0.0000000E+00;  0.0000000E+00;  0.0000000E+00;  1.0000000E+03;  1.0000000E-01;  0.0000000E+00;0;  0.0000000E+00;  0.0000000E+00;  0.0000000E+00;0;  0.0000000E+00;  4.0000000E+04;  0.0000000E+00;  0.0000000E+00;  4.0000000E+04;  0.0000000E+00;  4.0000000E+04;  0.0000000E+00;  0.0000000E+00;  0.0000000E+00;  0.0000000E+00;
 -1.9000000E-01;  9.9999998E-03;  2.2000000E-01;156;  0.0000000E+00;  0.0000000E+00;  0.0000000E+00;  1.0000000E+03;  1.0000000E-01;  0.0000000E+00;0;  0.0000000E+00;  0.0000000E+00;  0.0000000E+00;0;  0.0000000E+00;  4.0000000E+04;  0.0000000E+00;  0.0000000E+00;  4.0000000E+04;  0.0000000E+00;  4.0000000E+04;  0.0000000E+00;  0.0000000E+00;  0.0000000E+00;  0.0000000E+00;
 -1.9000000E-01;  9.9999998E-03;  2.3000000E-01;157;  0.0000000E+00;  0.0000000E+00;  0.0000000E+00;  1.0000000E+03;  1.0000000E-01;  0.0000000E+00;0;  0.0000000E+00;  0.0000000E+00;  0.0000000E+00;0;  0.0000000E+00;  4.0000000E+04;  0.0000000E+00;  0.0000000E+00;  4.0000000E+04;  0.0000000E+00;  4.0000000E+04;  0.0000000E+00;  0.0000000E+00;  0.0000000E+00;  0.0000000E+00;
 -1.8000001E-01;  9.9999998E-03;  7.0000000E-02;232;  0.0000000E+00;  0.0000000E+00;  0.0000000E+00;  1.0000000E+03;  1.0000000E-01;  0.0000000E+00;0;  0.0000000E+00;  0.0000000E+00;  0.0000000E+00;0;  0.0000000E+00;  4.0000000E+04;  0.0000000E+00;  0.0000000E+00;  4.0000000E+04;  0.0000000E+00;  4.0000000E+04;  0.0000000E+00;  0.0000000E+00;  0.0000000E+00;  0.0000000E+00;
 -1.8000001E-01;  9.9999998E-03;  7.9999998E-02;233;  0.0000000E+00;  0.0000000E+00;  0.0000000E+00;  1.0000000E+03;  1.0000000E-01;  0.0000000E+00;0;  0.0000000E+00;  0.0000000E+00;  0.0000000E+00;0;  0.0000000E+00;  4.0000000E+04;  0.0000000E+00;  0.0000000E+00;  4.0000000E+04;  0.0000000E+00;  4.0000000E+04;  0.0000000E+00;  0.0000000E+00;  0.0000000E+00;  0.0000000E+00;
 -1.8000001E-01;  9.9999998E-03;  9.0000004E-02;234;  0.0000000E+00;  0.0000000E+00;  0.0000000E+00;  1.0000000E+03;  1.0000000E-01;  0.0000000E+00;0;  0.0000000E+00;  0.0000000E+00;  0.0000000E+00;0;  0.0000000E+00;  4.0000000E+04;  0.0000000E+00;  0.0000000E+00;  4.0000000E+04;  0.0000000E+00;  4.0000000E+04;  0.0000000E+00;  0.0000000E+00;  0.0000000E+00;  0.0000000E+00;
 -1.8000001E-01;  9.9999998E-03;  1.0000000E-01;235;  0.0000000E+00;  0.0000000E+00;  0.0000000E+00;  1.0000000E+03;  1.0000000E-01;  0.0000000E+00;0;  0.0000000E+00;  0.0000000E+00;  0.0000000E+00;0;  0.0000000E+00;  4.0000000E+04;  0.0000000E+00;  0.0000000E+00;  4.0000000E+04;  0.0000000E+00;  4.0000000E+04;  0.0000000E+00;  0.0000000E+00;  0.0000000E+00;  0.0000000E+00;
 -1.8000001E-01;  9.9999998E-03;  1.1000000E-01;236;  0.0000000E+00;  0.0000000E+00;  0.0000000E+00;  1.0000000E+03;  1.0000000E-01;  0.0000000E+00;0;  0.0000000E+00;  0.0000000E+00;  0.0000000E+00;0;  0.0000000E+00;  4.0000000E+04;  0.0000000E+00;  0.0000000E+00;  4.0000000E+04;  0.0000000E+00;  4.0000000E+04;  0.0000000E+00;  0.0000000E+00;  0.0000000E+00;  0.0000000E+00;
 -1.8000001E-01;  9.9999998E-03;  1.2000000E-01;237;  0.0000000E+00;  0.0000000E+00;  0.0000000E+00;  1.0000000E+03;  1.0000000E-01;  0.0000000E+00;0;  0.0000000E+00;  0.0000000E+00;  0.0000000E+00;0;  0.0000000E+00;  4.0000000E+04;  0.0000000E+00;  0.0000000E+00;  4.0000000E+04;  0.0000000E+00;  4.0000000E+04;  0.0000000E+00;  0.0000000E+00;  0.0000000E+00;  0.0000000E+00;
 -1.8000001E-01;  9.9999998E-03;  1.3000000E-01;238;  0.0000000E+00;  0.0000000E+00;  0.0000000E+00;  1.0000000E+03;  1.0000000E-01;  0.0000000E+00;0;  0.0000000E+00;  0.0000000E+00;  0.0000000E+00;0;  0.0000000E+00;  4.0000000E+04;  0.0000000E+00;  0.0000000E+00;  4.0000000E+04;  0.0000000E+00;  4.0000000E+04;  0.0000000E+00;  0.0000000E+00;  0.0000000E+00;  0.0000000E+00;
 -1.8000001E-01;  9.9999998E-03;  1.4000000E-01;239;  0.0000000E+00;  0.0000000E+00;  0.0000000E+00;  1.0000000E+03;  1.0000000E-01;  0.0000000E+00;0;  0.0000000E+00;  0.0000000E+00;  0.0000000E+00;0;  0.0000000E+00;  4.0000000E+04;  0.0000000E+00;  0.0000000E+00;  4.0000000E+04;  0.0000000E+00;  4.0000000E+04;  0.0000000E+00;  0.0000000E+00;  0.0000000E+00;  0.0000000E+00;
 -1.8000001E-01;  9.9999998E-03;  1.5000001E-01;240;  0.0000000E+00;  0.0000000E+00;  0.0000000E+00;  1.0000000E+03;  1.0000000E-01;  0.0000000E+00;0;  0.0000000E+00;  0.0000000E+00;  0.0000000E+00;0;  0.0000000E+00;  4.0000000E+04;  0.0000000E+00;  0.0000000E+00;  4.0000000E+04;  0.0000000E+00;  4.0000000E+04;  0.0000000E+00;  0.0000000E+00;  0.0000000E+00;  0.0000000E+00;
 -1.8000001E-01;  9.9999998E-03;  1.6000000E-01;241;  0.0000000E+00;  0.0000000E+00;  0.0000000E+00;  1.0000000E+03;  1.0000000E-01;  0.0000000E+00;0;  0.0000000E+00;  0.0000000E+00;  0.0000000E+00;0;  0.0000000E+00;  4.0000000E+04;  0.0000000E+00;  0.0000000E+00;  4.0000000E+04;  0.0000000E+00;  4.0000000E+04;  0.0000000E+00;  0.0000000E+00;  0.0000000E+00;  0.0000000E+00;
 -1.8000001E-01;  9.9999998E-03;  1.7000000E-01;242;  0.0000000E+00;  0.0000000E+00;  0.0000000E+00;  1.0000000E+03;  1.0000000E-01;  0.0000000E+00;0;  0.0000000E+00;  0.0000000E+00;  0.0000000E+00;0;  0.0000000E+00;  4.0000000E+04;  0.0000000E+00;  0.0000000E+00;  4.0000000E+04;  0.0000000E+00;  4.0000000E+04;  0.0000000E+00;  0.0000000E+00;  0.0000000E+00;  0.0000000E+00;
 -1.8000001E-01;  9.9999998E-03;  1.8000001E-01;243;  0.0000000E+00;  0.0000000E+00;  0.0000000E+00;  1.0000000E+03;  1.0000000E-01;  0.0000000E+00;0;  0.0000000E+00;  0.0000000E+00;  0.0000000E+00;0;  0.0000000E+00;  4.0000000E+04;  0.0000000E+00;  0.0000000E+00;  4.0000000E+04;  0.0000000E+00;  4.0000000E+04;  0.0000000E+00;  0.0000000E+00;  0.0000000E+00;  0.0000000E+00;
 -1.8000001E-01;  9.9999998E-03;  1.9000000E-01;244;  0.0000000E+00;  0.0000000E+00;  0.0000000E+00;  1.0000000E+03;  1.0000000E-01;  0.0000000E+00;0;  0.0000000E+00;  0.0000000E+00;  0.0000000E+00;0;  0.0000000E+00;  4.0000000E+04;  0.0000000E+00;  0.0000000E+00;  4.0000000E+04;  0.0000000E+00;  4.0000000E+04;  0.0000000E+00;  0.0000000E+00;  0.0000000E+00;  0.0000000E+00;
 -1.8000001E-01;  9.9999998E-03;  2.0000000E-01;245;  0.0000000E+00;  0.0000000E+00;  0.0000000E+00;  1.0000000E+03;  1.0000000E-01;  0.0000000E+00;0;  0.0000000E+00;  0.0000000E+00;  0.0000000E+00;0;  0.0000000E+00;  4.0000000E+04;  0.0000000E+00;  0.0000000E+00;  4.0000000E+04;  0.0000000E+00;  4.0000000E+04;  0.0000000E+00;  0.0000000E+00;  0.0000000E+00;  0.0000000E+00;
 -1.8000001E-01;  9.9999998E-03;  2.0999999E-01;246;  0.0000000E+00;  0.0000000E+00;  0.0000000E+00;  1.0000000E+03;  1.0000000E-01;  0.0000000E+00;0;  0.0000000E+00;  0.0000000E+00;  0.0000000E+00;0;  0.0000000E+00;  4.0000000E+04;  0.0000000E+00;  0.0000000E+00;  4.0000000E+04;  0.0000000E+00;  4.0000000E+04;  0.0000000E+00;  0.0000000E+00;  0.0000000E+00;  0.0000000E+00;
 -1.8000001E-01;  9.9999998E-03;  2.2000000E-01;247;  0.0000000E+00;  0.0000000E+00;  0.0000000E+00;  1.0000000E+03;  1.0000000E-01;  0.0000000E+00;0;  0.0000000E+00;  0.0000000E+00;  0.0000000E+00;0;  0.0000000E+00;  4.0000000E+04;  0.0000000E+00;  0.0000000E+00;  4.0000000E+04;  0.0000000E+00;  4.0000000E+04;  0.0000000E+00;  0.0000000E+00;  0.0000000E+00;  0.0000000E+00;
 -1.8000001E-01;  9.9999998E-03;  2.3000000E-01;248;  0.0000000E+00;  0.0000000E+00;  0.0000000E+00;  1.0000000E+03;  1.0000000E-01;  0.0000000E+00;0;  0.0000000E+00;  0.0000000E+00;  0.0000000E+00;0;  0.0000000E+00;  4.0000000E+04;  0.0000000E+00;  0.0000000E+00;  4.0000000E+04;  0.0000000E+00;  4.0000000E+04;  0.0000000E+00;  0.0000000E+00;  0.0000000E+00;  0.0000000E+00;
 -1.7000000E-01;  9.9999998E-03;  7.0000000E-02;323;  0.0000000E+00;  0.0000000E+00;  0.0000000E+00;  1.0000000E+03;  1.0000000E-01;  0.0000000E+00;0;  0.0000000E+00;  0.0000000E+00;  0.0000000E+00;0;  0.0000000E+00;  4.0000000E+04;  0.0000000E+00;  0.0000000E+00;  4.0000000E+04;  0.0000000E+00;  4.0000000E+04;  0.0000000E+00;  0.0000000E+00;  0.0000000E+00;  2.0677076E-09;
 -1.7000000E-01;  9.9999998E-03;  7.9999998E-02;324;  0.0000000E+00;  0.0000000E+00;  0.0000000E+00;  1.0000000E+03;  1.0000000E-01;  0.0000000E+00;0;  0.0000000E+00;  0.0000000E+00;  0.0000000E+00;0;  0.0000000E+00;  4.0000000E+04;  0.0000000E+00;  0.0000000E+00;  4.0000000E+04;  0.0000000E+00;  4.0000000E+04;  0.0000000E+00;  0.0000000E+00;  0.0000000E+00;  2.0276110E-09;
 -1.7000000E-01;  9.9999998E-03;  9.0000004E-02;325;  0.0000000E+00;  0.0000000E+00;  0.0000000E+00;  1.0000000E+03;  1.0000000E-01;  0.0000000E+00;0;  0.0000000E+00;  0.0000000E+00;  0.0000000E+00;0;  0.0000000E+00;  4.0000000E+04;  0.0000000E+00;  0.0000000E+00;  4.0000000E+04;  0.0000000E+00;  4.0000000E+04;  0.0000000E+00;  0.0000000E+00;  0.0000000E+00;  1.9964661E-09;
 -1.7000000E-01;  9.9999998E-03;  1.0000000E-01;326;  0.0000000E+00;  0.0000000E+00;  0.0000000E+00;  1.0000000E+03;  1.0000000E-01;  0.0000000E+00;0;  0.0000000E+00;  0.0000000E+00;  0.0000000E+00;0;  0.0000000E+00;  4.0000000E+04;  0.0000000E+00;  0.0000000E+00;  4.0000000E+04;  0.0000000E+00;  4.0000000E+04;  0.0000000E+00;  0.0000000E+00;  0.0000000E+00;  1.9806543E-09;
 -1.7000000E-01;  9.9999998E-03;  1.1000000E-01;327;  0.0000000E+00;  0.0000000E+00;  0.0000000E+00;  1.0000000E+03;  1.0000000E-01;  0.0000000E+00;0;  0.0000000E+00;  0.0000000E+00;  0.0000000E+00;0;  0.0000000E+00;  4.0000000E+04;  0.0000000E+00;  0.0000000E+00;  4.0000000E+04;  0.0000000E+00;  4.0000000E+04;  0.0000000E+00;  0.0000000E+00;  0.0000000E+00;  1.9613826E-09;
 -1.7000000E-01;  9.9999998E-03;  1.2000000E-01;328;  0.0000000E+00;  0.0000000E+00;  0.0000000E+00;  1.0000000E+03;  1.0000000E-01;  0.0000000E+00;0;  0.0000000E+00;  0.0000000E+00;  0.0000000E+00;0;  0.0000000E+00;  4.0000000E+04;  0.0000000E+00;  0.0000000E+00;  4.0000000E+04;  0.0000000E+00;  4.0000000E+04;  0.0000000E+00;  0.0000000E+00;  0.0000000E+00;  1.9547131E-09;
 -1.7000000E-01;  9.9999998E-03;  1.3000000E-01;329;  0.0000000E+00;  0.0000000E+00;  0.0000000E+00;  1.0000000E+03;  1.0000000E-01;  0.0000000E+00;0;  0.0000000E+00;  0.0000000E+00;  0.0000000E+00;0;  0.0000000E+00;  4.0000000E+04;  0.0000000E+00;  0.0000000E+00;  4.0000000E+04;  0.0000000E+00;  4.0000000E+04;  0.0000000E+00;  0.0000000E+00;  0.0000000E+00;  1.9304123E-09;
 -1.7000000E-01;  9.9999998E-03;  1.4000000E-01;330;  0.0000000E+00;  0.0000000E+00;  0.0000000E+00;  1.0000000E+03;  1.0000000E-01;  0.0000000E+00;0;  0.0000000E+00;  0.0000000E+00;  0.0000000E+00;0;  0.0000000E+00;  4.0000000E+04;  0.0000000E+00;  0.0000000E+00;  4.0000000E+04;  0.0000000E+00;  4.0000000E+04;  0.0000000E+00;  0.0000000E+00;  0.0000000E+00;  1.9071280E-09;
 -1.7000000E-01;  9.9999998E-03;  1.5000001E-01;331;  0.0000000E+00;  0.0000000E+00;  0.0000000E+00;  1.0000000E+03;  1.0000000E-01;  0.0000000E+00;0;  0.0000000E+00;  0.0000000E+00;  0.0000000E+00;0;  0.0000000E+00;  4.0000000E+04;  0.0000000E+00;  0.0000000E+00;  4.0000000E+04;  0.0000000E+00;  4.0000000E+04;  0.0000000E+00;  0.0000000E+00;  0.0000000E+00;  1.8279691E-09;
 -1.7000000E-01;  9.9999998E-03;  1.6000000E-01;332;  0.0000000E+00;  0.0000000E+00;  0.0000000E+00;  1.0000000E+03;  1.0000000E-01;  0.0000000E+00;0;  0.0000000E+00;  0.0000000E+00;  0.0000000E+00;0;  0.0000000E+00;  4.0000000E+04;  0.0000000E+00;  0.0000000E+00;  4.0000000E+04;  0.0000000E+00;  4.0000000E+04;  0.0000000E+00;  0.0000000E+00;  0.0000000E+00;  1.7068014E-09;
 -1.7000000E-01;  9.9999998E-03;  1.7000000E-01;333;  0.0000000E+00;  0.0000000E+00;  0.0000000E+00;  1.0000000E+03;  1.0000000E-01;  0.0000000E+00;0;  0.0000000E+00;  0.0000000E+00;  0.0000000E+00;0;  0.0000000E+00;  4.0000000E+04;  0.0000000E+00;  0.0000000E+00;  4.0000000E+04;  0.0000000E+00;  4.0000000E+04;  0.0000000E+00;  0.0000000E+00;  0.0000000E+00;  1.5737418E-09;
 -1.7000000E-01;  9.9999998E-03;  1.8000001E-01;334;  0.0000000E+00;  0.0000000E+00;  0.0000000E+00;  1.0000000E+03;  1.0000000E-01;  0.0000000E+00;0;  0.0000000E+00;  0.0000000E+00;  0.0000000E+00;0;  0.0000000E+00;  4.0000000E+04;  0.0000000E+00;  0.0000000E+00;  4.0000000E+04;  0.0000000E+00;  4.0000000E+04;  0.0000000E+00;  0.0000000E+00;  0.0000000E+00;  1.4536757E-09;
 -1.7000000E-01;  9.9999998E-03;  1.9000000E-01;335;  0.0000000E+00;  0.0000000E+00;  0.0000000E+00;  1.0000000E+03;  1.0000000E-01;  0.0000000E+00;0;  0.0000000E+00;  0.0000000E+00;  0.0000000E+00;0;  0.0000000E+00;  4.0000000E+04;  0.0000000E+00;  0.0000000E+00;  4.0000000E+04;  0.0000000E+00;  4.0000000E+04;  0.0000000E+00;  0.0000000E+00;  0.0000000E+00;  1.3804979E-09;
 -1.7000000E-01;  9.9999998E-03;  2.0000000E-01;336;  0.0000000E+00;  0.0000000E+00;  0.0000000E+00;  1.0000000E+03;  1.0000000E-01;  0.0000000E+00;0;  0.0000000E+00;  0.0000000E+00;  0.0000000E+00;0;  0.0000000E+00;  4.0000000E+04;  0.0000000E+00;  0.0000000E+00;  4.0000000E+04;  0.0000000E+00;  4.0000000E+04;  0.0000000E+00;  0.0000000E+00;  0.0000000E+00;  1.3572699E-09;
 -1.7000000E-01;  9.9999998E-03;  2.0999999E-01;337;  0.0000000E+00;  0.0000000E+00;  0.0000000E+00;  1.0000000E+03;  1.0000000E-01;  0.0000000E+00;0;  0.0000000E+00;  0.0000000E+00;  0.0000000E+00;0;  0.0000000E+00;  4.0000000E+04;  0.0000000E+00;  0.0000000E+00;  4.0000000E+04;  0.0000000E+00;  4.0000000E+04;  0.0000000E+00;  0.0000000E+00;  0.0000000E+00;  1.3090043E-09;
 -1.7000000E-01;  9.9999998E-03;  2.2000000E-01;338;  0.0000000E+00;  0.0000000E+00;  0.0000000E+00;  1.0000000E+03;  1.0000000E-01;  0.0000000E+00;0;  0.0000000E+00;  0.0000000E+00;  0.0000000E+00;0;  0.0000000E+00;  4.0000000E+04;  0.0000000E+00;  0.0000000E+00;  4.0000000E+04;  0.0000000E+00;  4.0000000E+04;  0.0000000E+00;  0.0000000E+00;  0.0000000E+00;  1.1702984E-09;
 -1.7000000E-01;  9.9999998E-03;  2.3000000E-01;339;  0.0000000E+00;  0.0000000E+00;  0.0000000E+00;  1.0000000E+03;  1.0000000E-01;  0.0000000E+00;0;  0.0000000E+00;  0.0000000E+00;  0.0000000E+00;0;  0.0000000E+00;  4.0000000E+04;  0.0000000E+00;  0.0000000E+00;  4.0000000E+04;  0.0000000E+00;  4.0000000E+04;  0.0000000E+00;  0.0000000E+00;  0.0000000E+00;  9.6134622E-10;
 -1.6000000E-01;  9.9999998E-03;  7.0000000E-02;414;  0.0000000E+00;  0.0000000E+00;  0.0000000E+00;  1.0000000E+03;  1.0000000E-01;  0.0000000E+00;0;  0.0000000E+00;  0.0000000E+00;  0.0000000E+00;0; -2.9268645E-07;  4.0000000E+04;  0.0000000E+00;  0.0000000E+00;  4.0000000E+04;  0.0000000E+00;  4.0000000E+04; -2.9302760E-07;  0.0000000E+00;  3.4114875E-10;  2.5666764E-01;
 -1.6000000E-01;  9.9999998E-03;  7.9999998E-02;415;  0.0000000E+00;  0.0000000E+00;  0.0000000E+00;  1.0000000E+03;  1.0000000E-01;  0.0000000E+00;0;  0.0000000E+00;  0.0000000E+00;  0.0000000E+00;0; -2.8527555E-07;  4.0000000E+04;  0.0000000E+00;  0.0000000E+00;  4.0000000E+04;  0.0000000E+00;  4.0000000E+04; -2.8561723E-07;  0.0000000E+00;  3.4169514E-10;  2.5695533E-01;
 -1.6000000E-01;  9.9999998E-03;  9.0000004E-02;416;  0.0000000E+00;  0.0000000E+00;  0.0000000E+00;  1.0000000E+03;  1.0000000E-01;  0.0000000E+00;0;  0.0000000E+00;  0.0000000E+00;  0.0000000E+00;0; -2.7924787E-07;  4.0000000E+04;  0.0000000E+00;  0.0000000E+00;  4.0000000E+04;  0.0000000E+00;  4.0000000E+04; -2.7965157E-07;  0.0000000E+00;  4.0368822E-10;  2.5823125E-01;
 -1.6000000E-01;  9.9999998E-03;  1.0000000E-01;417;  0.0000000E+00;  0.0000000E+00;  0.0000000E+00;  1.0000000E+03;  1.0000000E-01;  0.0000000E+00;0;  0.0000000E+00;  0.0000000E+00;  0.0000000E+00;0; -2.7502477E-07;  4.0000000E+04;  0.0000000E+00;  0.0000000E+00;  4.0000000E+04;  0.0000000E+00;  4.0000000E+04; -2.7554165E-07;  0.0000000E+00;  5.1686949E-10;  2.6081178E-01;
 -1.6000000E-01;  9.9999998E-03;  1.1000000E-01;418;  0.0000000E+00;  0.0000000E+00;  0.0000000E+00;  1.0000000E+03;  1.0000000E-01;  0.0000000E+00;0;  0.0000000E+00;  0.0000000E+00;  0.0000000E+00;0; -2.7271696E-07;  4.0000000E+04;  0.0000000E+00;  0.0000000E+00;  4.0000000E+04;  0.0000000E+00;  4.0000000E+04; -2.7338905E-07;  0.0000000E+00;  6.7209355E-10;  2.6475501E-01;
 -1.6000000E-01;  9.9999998E-03;  1.2000000E-01;419;  0.0000000E+00;  0.0000000E+00;  0.0000000E+00;  1.0000000E+03;  1.0000000E-01;  0.0000000E+00;0;  0.0000000E+00;  0.0000000E+00;  0.0000000E+00;0; -2.7204771E-07;  4.0000000E+04;  0.0000000E+00;  0.0000000E+00;  4.0000000E+04;  0.0000000E+00;  4.0000000E+04; -2.7291517E-07;  0.0000000E+00;  8.6744922E-10;  2.6973227E-01;
 -1.6000000E-01;  9.9999998E-03;  1.3000000E-01;420;  0.0000000E+00;  0.0000000E+00;  0.0000000E+00;  1.0000000E+03;  1.0000000E-01;  0.0000000E+00;0;  0.0000000E+00;  0.0000000E+00;  0.0000000E+00;0; -2.7234168E-07;  4.0000000E+04;  0.0000000E+00;  0.0000000E+00;  4.0000000E+04;  0.0000000E+00;  4.0000000E+04; -2.7345374E-07;  0.0000000E+00;  1.1120427E-09;  2.7506614E-01;
 -1.6000000E-01;  9.9999998E-03;  1.4000000E-01;421;  0.0000000E+00;  0.0000000E+00;  0.0000000E+00;  1.0000000E+03;  1.0000000E-01;  0.0000000E+00;0;  0.0000000E+00;  0.0000000E+00;  0.0000000E+00;0; -2.7260967E-07;  4.0000000E+04;  0.0000000E+00;  0.0000000E+00;  4.0000000E+04;  0.0000000E+00;  4.0000000E+04; -2.7403522E-07;  0.0000000E+00;  1.4255593E-09;  2.7988759E-01;
 -1.6000000E-01;  9.9999998E-03;  1.5000001E-01;422;  0.0000000E+00;  0.0000000E+00;  0.0000000E+00;  1.0000000E+03;  1.0000000E-01;  0.0000000E+00;0;  0.0000000E+00;  0.0000000E+00;  0.0000000E+00;0; -2.7168880E-07;  4.0000000E+04;  0.0000000E+00;  0.0000000E+00;  4.0000000E+04;  0.0000000E+00;  4.0000000E+04; -2.7352465E-07;  0.0000000E+00;  1.8358577E-09;  2.8331143E-01;
 -1.6000000E-01;  9.9999998E-03;  1.6000000E-01;423;  0.0000000E+00;  0.0000000E+00;  0.0000000E+00;  1.0000000E+03;  1.0000000E-01;  0.0000000E+00;0;  0.0000000E+00;  0.0000000E+00;  0.0000000E+00;0; -2.6841582E-07;  4.0000000E+04;  0.0000000E+00;  0.0000000E+00;  4.0000000E+04;  0.0000000E+00;  4.0000000E+04; -2.7079764E-07;  0.0000000E+00;  2.3818290E-09;  2.8450727E-01;
 -1.6000000E-01;  9.9999998E-03;  1.7000000E-01;424;  0.0000000E+00;  0.0000000E+00;  0.0000000E+00;  1.0000000E+03;  1.0000000E-01;  0.0000000E+00;0;  0.0000000E+00;  0.0000000E+00;  0.0000000E+00;0; -2.6179706E-07;  4.0000000E+04;  0.0000000E+00;  0.0000000E+00;  4.0000000E+04;  0.0000000E+00;  4.0000000E+04; -2.6491429E-07;  0.0000000E+00;  3.1172260E-09;  2.8273520E-01;
 -1.6000000E-01;  9.9999998E-03;  1.8000001E-01;425;  0.0000000E+00;  0.0000000E+00;  0.0000000E+00;  1.0000000E+03;  1.0000000E-01;  0.0000000E+00;0;  0.0000000E+00;  0.0000000E+00;  0.0000000E+00;0; -2.5114721E-07;  4.0000000E+04;  0.0000000E+00;  0.0000000E+00;  4.0000000E+04;  0.0000000E+00;  4.0000000E+04; -2.5525878E-07;  0.0000000E+00;  4.1115817E-09;  2.7745101E-01;
 -1.6000000E-01;  9.9999998E-03;  1.9000000E-01;426;  0.0000000E+00;  0.0000000E+00;  0.0000000E+00;  1.0000000E+03;  1.0000000E-01;  0.0000000E+00;0;  0.0000000E+00;  0.0000000E+00;  0.0000000E+00;0; -2.3628795E-07;  4.0000000E+04;  0.0000000E+00;  0.0000000E+00;  4.0000000E+04;  0.0000000E+00;  4.0000000E+04; -2.4173127E-07;  0.0000000E+00;  5.4433325E-09;  2.6849213E-01;
 -1.6000000E-01;  9.9999998E-03;  2.0000000E-01;427;  0.0000000E+00;  0.0000000E+00;  0.0000000E+00;  1.0000000E+03;  1.0000000E-01;  0.0000000E+00;0;  0.0000000E+00;  0.0000000E+00;  0.0000000E+00;0; -2.1795996E-07;  4.0000000E+04;  0.0000000E+00;  0.0000000E+00;  4.0000000E+04;  0.0000000E+00;  4.0000000E+04; -2.2512869E-07;  0.0000000E+00;  7.1687158E-09;  2.5621796E-01;
 -1.6000000E-01;  9.9999998E-03;  2.0999999E-01;428;  0.0000000E+00;  0.0000000E+00;  0.0000000E+00;  1.0000000E+03;  1.0000000E-01;  0.0000000E+00;0;  0.0000000E+00;  0.0000000E+00;  0.0000000E+00;0; -1.9862031E-07;  4.0000000E+04;  0.0000000E+00;  0.0000000E+00;  4.0000000E+04;  0.0000000E+00;  4.0000000E+04; -2.0789089E-07;  0.0000000E+00;  9.2705807E-09;  2.4148571E-01;
 -1.6000000E-01;  9.9999998E-03;  2.2000000E-01;429;  0.0000000E+00;  0.0000000E+00;  0.0000000E+00;  1.0000000E+03;  1.0000000E-01;  0.0000000E+00;0;  0.0000000E+00;  0.0000000E+00;  0.0000000E+00;0; -1.8342442E-07;  4.0000000E+04;  0.0000000E+00;  0.0000000E+00;  4.0000000E+04;  0.0000000E+00;  4.0000000E+04; -1.9505040E-07;  0.0000000E+00;  1.1625983E-08;  2.2517787E-01;
 -1.6000000E-01;  9.9999998E-03;  2.3000000E-01;430;  0.0000000E+00;  0.0000000E+00;  0.0000000E+00;  1.0000000E+03;  1.0000000E-01;  0.0000000E+00;0;  0.0000000E+00;  0.0000000E+00;  0.0000000E+00;0; -1.8079618E-07;  4.0000000E+04;  0.0000000E+00;  0.0000000E+00;  4.0000000E+04;  0.0000000E+00;  4.0000000E+04; -1.9480871E-07;  0.0000000E+00;  1.4012529E-08;  2.0710291E-01;
 -1.5000001E-01;  9.9999998E-03;  7.0000000E-02;505;  0.0000000E+00;  0.0000000E+00;  0.0000000E+00;  1.0000000E+03;  1.0000000E-01;  0.0000000E+00;0;  0.0000000E+00;  0.0000000E+00;  0.0000000E+00;0; -7.8957391E-06;  4.0000000E+04;  0.0000000E+00;  0.0000000E+00;  4.0000000E+04;  0.0000000E+00;  4.0000000E+04; -7.9260953E-06;  0.0000000E+00;  3.0355991E-08;  3.7761652E+00;
 -1.5000001E-01;  9.9999998E-03;  7.9999998E-02;506;  0.0000000E+00;  0.0000000E+00;  0.0000000E+00;  1.0000000E+03;  1.0000000E-01;  0.0000000E+00;0;  0.0000000E+00;  0.0000000E+00;  0.0000000E+00;0; -7.7505883E-06;  4.0000000E+04;  0.0000000E+00;  0.0000000E+00;  4.0000000E+04;  0.0000000E+00;  4.0000000E+04; -7.7807763E-06;  0.0000000E+00;  3.0187703E-08;  3.7607992E+00;
 -1.5000001E-01;  9.9999998E-03;  9.0000004E-02;507;  0.0000000E+00;  0.0000000E+00;  0.0000000E+00;  1.0000000E+03;  1.0000000E-01;  0.0000000E+00;0;  0.0000000E+00;  0.0000000E+00;  0.0000000E+00;0; -7.6274346E-06;  4.0000000E+04;  0.0000000E+00;  0.0000000E+00;  4.0000000E+04;  0.0000000E+00;  4.0000000E+04; -7.6609213E-06;  0.0000000E+00;  3.3486543E-08;  3.7651315E+00;
 -1.5000001E-01;  9.9999998E-03;  1.0000000E-01;508;  0.0000000E+00;  0.0000000E+00;  0.0000000E+00;  1.0000000E+03;  1.0000000E-01;  0.0000000E+00;0;  0.0000000E+00;  0.0000000E+00;  0.0000000E+00;0; -7.5312564E-06;  4.0000000E+04;  0.0000000E+00;  0.0000000E+00;  4.0000000E+04;  0.0000000E+00;  4.0000000E+04; -7.5712605E-06;  0.0000000E+00;  4.0004263E-08;  3.7948635E+00;
 -1.5000001E-01;  9.9999998E-03;  1.1000000E-01;509;  0.0000000E+00;  0.0000000E+00;  0.0000000E+00;  1.0000000E+03;  1.0000000E-01;  0.0000000E+00;0;  0.0000000E+00;  0.0000000E+00;  0.0000000E+00;0; -7.4602831E-06;  4.0000000E+04;  0.0000000E+00;  0.0000000E+00;  4.0000000E+04;  0.0000000E+00;  4.0000000E+04; -7.5097178E-06;  0.0000000E+00;  4.9434636E-08;  3.8501067E+00;
 -1.5000001E-01;  9.9999998E-03;  1.2000000E-01;510;  0.0000000E+00;  0.0000000E+00;  0.0000000E+00;  1.0000000E+03;  1.0000000E-01;  0.0000000E+00;0;  0.0000000E+00;  0.0000000E+00;  0.0000000E+00;0; -7.4046952E-06;  4.0000000E+04;  0.0000000E+00;  0.0000000E+00;  4.0000000E+04;  0.0000000E+00;  4.0000000E+04; -7.4662807E-06;  0.0000000E+00;  6.1585745E-08;  3.9246738E+00;
 -1.5000001E-01;  9.9999998E-03;  1.3000000E-01;511;  0.0000000E+00;  0.0000000E+00;  0.0000000E+00;  1.0000000E+03;  1.0000000E-01;  0.0000000E+00;0;  0.0000000E+00;  0.0000000E+00;  0.0000000E+00;0; -7.3468696E-06;  4.0000000E+04;  0.0000000E+00;  0.0000000E+00;  4.0000000E+04;  0.0000000E+00;  4.0000000E+04; -7.4233299E-06;  0.0000000E+00;  7.6460459E-08;  4.0071783E+00;
 -1.5000001E-01;  9.9999998E-03;  1.4000000E-01;512;  0.0000000E+00;  0.0000000E+00;  0.0000000E+00;  1.0000000E+03;  1.0000000E-01;  0.0000000E+00;0;  0.0000000E+00;  0.0000000E+00;  0.0000000E+00;0; -7.2630896E-06;  4.0000000E+04;  0.0000000E+00;  0.0000000E+00;  4.0000000E+04;  0.0000000E+00;  4.0000000E+04; -7.3573228E-06;  0.0000000E+00;  9.4233350E-08;  4.0832095E+00;
 -1.5000001E-01;  9.9999998E-03;  1.5000001E-01;513;  0.0000000E+00;  0.0000000E+00;  0.0000000E+00;  1.0000000E+03;  1.0000000E-01;  0.0000000E+00;0;  0.0000000E+00;  0.0000000E+00;  0.0000000E+00;0; -7.1269019E-06;  4.0000000E+04;  0.0000000E+00;  0.0000000E+00;  4.0000000E+04;  0.0000000E+00;  4.0000000E+04; -7.2420230E-06;  0.0000000E+00;  1.1512109E-07;  4.1380978E+00;
 -1.5000001E-01;  9.9999998E-03;  1.6000000E-01;514;  0.0000000E+00;  0.0000000E+00;  0.0000000E+00;  1.0000000E+03;  1.0000000E-01;  0.0000000E+00;0;  0.0000000E+00;  0.0000000E+00;  0.0000000E+00;0; -6.9136963E-06;  4.0000000E+04;  0.0000000E+00;  0.0000000E+00;  4.0000000E+04;  0.0000000E+00;  4.0000000E+04; -7.0529013E-06;  0.0000000E+00;  1.3920518E-07;  4.1594481E+00;
 -1.5000001E-01;  9.9999998E-03;  1.7000000E-01;515;  0.0000000E+00;  0.0000000E+00;  0.0000000E+00;  1.0000000E+03;  1.0000000E-01;  0.0000000E+00;0;  0.0000000E+00;  0.0000000E+00;  0.0000000E+00;0; -6.6064367E-06;  4.0000000E+04;  0.0000000E+00;  0.0000000E+00;  4.0000000E+04;  0.0000000E+00;  4.0000000E+04; -6.7726382E-06;  0.0000000E+00;  1.6620170E-07;  4.1389670E+00;
 -1.5000001E-01;  9.9999998E-03;  1.8000001E-01;516;  0.0000000E+00;  0.0000000E+00;  0.0000000E+00;  1.0000000E+03;  1.0000000E-01;  0.0000000E+00;0;  0.0000000E+00;  0.0000000E+00;  0.0000000E+00;0; -6.2022295E-06;  4.0000000E+04;  0.0000000E+00;  0.0000000E+00;  4.0000000E+04;  0.0000000E+00;  4.0000000E+04; -6.3973471E-06;  0.0000000E+00;  1.9511734E-07;  4.0734792E+00;
 -1.5000001E-01;  9.9999998E-03;  1.9000000E-01;517;  0.0000000E+00;  0.0000000E+00;  0.0000000E+00;  1.0000000E+03;  1.0000000E-01;  0.0000000E+00;0;  0.0000000E+00;  0.0000000E+00;  0.0000000E+00;0; -5.7190341E-06;  4.0000000E+04;  0.0000000E+00;  0.0000000E+00;  4.0000000E+04;  0.0000000E+00;  4.0000000E+04; -5.9429858E-06;  0.0000000E+00;  2.2395187E-07;  3.9647841E+00;
 -1.5000001E-01;  9.9999998E-03;  2.0000000E-01;518;  0.0000000E+00;  0.0000000E+00;  0.0000000E+00;  1.0000000E+03;  1.0000000E-01;  0.0000000E+00;0;  0.0000000E+00;  0.0000000E+00;  0.0000000E+00;0; -5.2005475E-06;  4.0000000E+04;  0.0000000E+00;  0.0000000E+00;  4.0000000E+04;  0.0000000E+00;  4.0000000E+04; -5.4502830E-06;  0.0000000E+00;  2.4973539E-07;  3.8172536E+00;
 -1.5000001E-01;  9.9999998E-03;  2.0999999E-01;519;  0.0000000E+00;  0.0000000E+00;  0.0000000E+00;  1.0000000E+03;  1.0000000E-01;  0.0000000E+00;0;  0.0000000E+00;  0.0000000E+00;  0.0000000E+00;0; -4.7166727E-06;  4.0000000E+04;  0.0000000E+00;  0.0000000E+00;  4.0000000E+04;  0.0000000E+00;  4.0000000E+04; -4.9856108E-06;  0.0000000E+00;  2.6893801E-07;  3.6315138E+00;
 -1.5000001E-01;  9.9999998E-03;  2.2000000E-01;520;  0.0000000E+00;  0.0000000E+00;  0.0000000E+00;  1.0000000E+03;  1.0000000E-01;  0.0000000E+00;0;  0.0000000E+00;  0.0000000E+00;  0.0000000E+00;0; -4.3577697E-06;  4.0000000E+04;  0.0000000E+00;  0.0000000E+00;  4.0000000E+04;  0.0000000E+00;  4.0000000E+04; -4.6360042E-06;  0.0000000E+00;  2.7823447E-07;  3.3963206E+00;
 -1.5000001E-01;  9.9999998E-03;  2.3000000E-01;521;  0.0000000E+00;  0.0000000E+00;  0.0000000E+00;  1.0000000E+03;  1.0000000E-01;  0.0000000E+00;0;  0.0000000E+00;  0.0000000E+00;  0.0000000E+00;0; -4.2118972E-06;  4.0000000E+04;  0.0000000E+00;  0.0000000E+00;  4.0000000E+04;  0.0000000E+00;  4.0000000E+04; -4.4818621E-06;  0.0000000E+00;  2.6996494E-07;  3.0761623E+00;
 -1.4000000E-01;  9.9999998E-03;  7.0000000E-02;596;  0.0000000E+00;  0.0000000E+00;  0.0000000E+00;  1.0000000E+03;  1.0000000E-01;  0.0000000E+00;0;  0.0000000E+00;  0.0000000E+00;  0.0000000E+00;0; -4.8301074E-05;  4.0000000E+04;  0.0000000E+00;  0.0000000E+00;  4.0000000E+04;  0.0000000E+00;  4.0000000E+04; -4.8603404E-05;  0.0000000E+00;  3.0233068E-07;  1.7031153E+01;
 -1.4000000E-01;  9.9999998E-03;  7.9999998E-02;597;  0.0000000E+00;  0.0000000E+00;  0.0000000E+00;  1.0000000E+03;  1.0000000E-01;  0.0000000E+00;0;  0.0000000E+00;  0.0000000E+00;  0.0000000E+00;0; -4.7609130E-05;  4.0000000E+04;  0.0000000E+00;  0.0000000E+00;  4.0000000E+04;  0.0000000E+00;  4.0000000E+04; -4.7910165E-05;  0.0000000E+00;  3.0103499E-07;  1.6899715E+01;
 -1.4000000E-01;  9.9999998E-03;  9.0000004E-02;598;  0.0000000E+00;  0.0000000E+00;  0.0000000E+00;  1.0000000E+03;  1.0000000E-01;  0.0000000E+00;0;  0.0000000E+00;  0.0000000E+00;  0.0000000E+00;0; -4.6993489E-05;  4.0000000E+04;  0.0000000E+00;  0.0000000E+00;  4.0000000E+04;  0.0000000E+00;  4.0000000E+04; -4.7319372E-05;  0.0000000E+00;  3.2588363E-07;  1.6866434E+01;
 -1.4000000E-01;  9.9999998E-03;  1.0000000E-01;599;  0.0000000E+00;  0.0000000E+00;  0.0000000E+00;  1.0000000E+03;  1.0000000E-01;  0.0000000E+00;0;  0.0000000E+00;  0.0000000E+00;  0.0000000E+00;0; -4.6464622E-05;  4.0000000E+04;  0.0000000E+00;  0.0000000E+00;  4.0000000E+04;  0.0000000E+00;  4.0000000E+04; -4.6840862E-05;  0.0000000E+00;  3.7624133E-07;  1.6955912E+01;
 -1.4000000E-01;  9.9999998E-03;  1.1000000E-01;600;  0.0000000E+00;  0.0000000E+00;  0.0000000E+00;  1.0000000E+03;  1.0000000E-01;  0.0000000E+00;0;  0.0000000E+00;  0.0000000E+00;  0.0000000E+00;0; -4.6001951E-05;  4.0000000E+04;  0.0000000E+00;  0.0000000E+00;  4.0000000E+04;  0.0000000E+00;  4.0000000E+04; -4.6452293E-05;  0.0000000E+00;  4.5034079E-07;  1.7169994E+01;
 -1.4000000E-01;  9.9999998E-03;  1.2000000E-01;601;  0.0000000E+00;  0.0000000E+00;  0.0000000E+00;  1.0000000E+03;  1.0000000E-01;  0.0000000E+00;0;  0.0000000E+00;  0.0000000E+00;  0.0000000E+00;0; -4.5550209E-05;  4.0000000E+04;  0.0000000E+00;  0.0000000E+00;  4.0000000E+04;  0.0000000E+00;  4.0000000E+04; -4.6096357E-05;  0.0000000E+00;  5.4614770E-07;  1.7485285E+01;
 -1.4000000E-01;  9.9999998E-03;  1.3000000E-01;602;  0.0000000E+00;  0.0000000E+00;  0.0000000E+00;  1.0000000E+03;  1.0000000E-01;  0.0000000E+00;0;  0.0000000E+00;  0.0000000E+00;  0.0000000E+00;0; -4.5022309E-05;  4.0000000E+04;  0.0000000E+00;  0.0000000E+00;  4.0000000E+04;  0.0000000E+00;  4.0000000E+04; -4.5684024E-05;  0.0000000E+00;  6.6171719E-07;  1.7856207E+01;
 -1.4000000E-01;  9.9999998E-03;  1.4000000E-01;603;  0.0000000E+00;  0.0000000E+00;  0.0000000E+00;  1.0000000E+03;  1.0000000E-01;  0.0000000E+00;0;  0.0000000E+00;  0.0000000E+00;  0.0000000E+00;0; -4.4309305E-05;  4.0000000E+04;  0.0000000E+00;  0.0000000E+00;  4.0000000E+04;  0.0000000E+00;  4.0000000E+04; -4.5104287E-05;  0.0000000E+00;  7.9498085E-07;  1.8224035E+01;
 -1.4000000E-01;  9.9999998E-03;  1.5000001E-01;604;  0.0000000E+00;  0.0000000E+00;  0.0000000E+00;  1.0000000E+03;  1.0000000E-01;  0.0000000E+00;0;  0.0000000E+00;  0.0000000E+00;  0.0000000E+00;0; -4.3298107E-05;  4.0000000E+04;  0.0000000E+00;  0.0000000E+00;  4.0000000E+04;  0.0000000E+00;  4.0000000E+04; -4.4241086E-05;  0.0000000E+00;  9.4297877E-07;  1.8528530E+01;
 -1.4000000E-01;  9.9999998E-03;  1.6000000E-01;605;  0.0000000E+00;  0.0000000E+00;  0.0000000E+00;  1.0000000E+03;  1.0000000E-01;  0.0000000E+00;0;  0.0000000E+00;  0.0000000E+00;  0.0000000E+00;0; -4.1895670E-05;  4.0000000E+04;  0.0000000E+00;  0.0000000E+00;  4.0000000E+04;  0.0000000E+00;  4.0000000E+04; -4.2996242E-05;  0.0000000E+00;  1.1005716E-06;  1.8719854E+01;
 -1.4000000E-01;  9.9999998E-03;  1.7000000E-01;606;  0.0000000E+00;  0.0000000E+00;  0.0000000E+00;  1.0000000E+03;  1.0000000E-01;  0.0000000E+00;0;  0.0000000E+00;  0.0000000E+00;  0.0000000E+00;0; -4.0057221E-05;  4.0000000E+04;  0.0000000E+00;  0.0000000E+00;  4.0000000E+04;  0.0000000E+00;  4.0000000E+04; -4.1316307E-05;  0.0000000E+00;  1.2590867E-06;  1.8767727E+01;
 -1.4000000E-01;  9.9999998E-03;  1.8000001E-01;607;  0.0000000E+00;  0.0000000E+00;  0.0000000E+00;  1.0000000E+03;  1.0000000E-01;  0.0000000E+00;0;  0.0000000E+00;  0.0000000E+00;  0.0000000E+00;0; -3.7812675E-05;  4.0000000E+04;  0.0000000E+00;  0.0000000E+00;  4.0000000E+04;  0.0000000E+00;  4.0000000E+04; -3.9218401E-05;  0.0000000E+00;  1.4057269E-06;  1.8662102E+01;
 -1.4000000E-01;  9.9999998E-03;  1.9000000E-01;608;  0.0000000E+00;  0.0000000E+00;  0.0000000E+00;  1.0000000E+03;  1.0000000E-01;  0.0000000E+00;0;  0.0000000E+00;  0.0000000E+00;  0.0000000E+00;0; -3.5284651E-05;  4.0000000E+04;  0.0000000E+00;  0.0000000E+00;  4.0000000E+04;  0.0000000E+00;  4.0000000E+04; -3.6808986E-05;  0.0000000E+00;  1.5243361E-06;  1.8401613E+01;
 -1.4000000E-01;  9.9999998E-03;  2.0000000E-01;609;  0.0000000E+00;  0.0000000E+00;  0.0000000E+00;  1.0000000E+03;  1.0000000E-01;  0.0000000E+00;0;  0.0000000E+00;  0.0000000E+00;  0.0000000E+00;0; -3.2691223E-05;  4.0000000E+04;  0.0000000E+00;  0.0000000E+00;  4.0000000E+04;  0.0000000E+00;  4.0000000E+04; -3.4288892E-05;  0.0000000E+00;  1.5976700E-06;  1.7968384E+01;
 -1.4000000E-01;  9.9999998E-03;  2.0999999E-01;610;  0.0000000E+00;  0.0000000E+00;  0.0000000E+00;  1.0000000E+03;  1.0000000E-01;  0.0000000E+00;0;  0.0000000E+00;  0.0000000E+00;  0.0000000E+00;0; -3.0326086E-05;  4.0000000E+04;  0.0000000E+00;  0.0000000E+00;  4.0000000E+04;  0.0000000E+00;  4.0000000E+04; -3.1933687E-05;  0.0000000E+00;  1.6076017E-06;  1.7294645E+01;
 -1.4000000E-01;  9.9999998E-03;  2.2000000E-01;611;  0.0000000E+00;  0.0000000E+00;  0.0000000E+00;  1.0000000E+03;  1.0000000E-01;  0.0000000E+00;0;  0.0000000E+00;  0.0000000E+00;  0.0000000E+00;0; -2.8470155E-05;  4.0000000E+04;  0.0000000E+00;  0.0000000E+00;  4.0000000E+04;  0.0000000E+00;  4.0000000E+04; -2.9973899E-05;  0.0000000E+00;  1.5037441E-06;  1.6211126E+01;
 -1.4000000E-01;  9.9999998E-03;  2.3000000E-01;612;  0.0000000E+00;  0.0000000E+00;  0.0000000E+00;  1.0000000E+03;  1.0000000E-01;  0.0000000E+00;0;  0.0000000E+00;  0.0000000E+00;  0.0000000E+00;0; -2.7298198E-05;  4.0000000E+04;  0.0000000E+00;  0.0000000E+00;  4.0000000E+04;  0.0000000E+00;  4.0000000E+04; -2.8520184E-05;  0.0000000E+00;  1.2219865E-06;  1.4521548E+01;
 -1.3000000E-01;  9.9999998E-03;  7.0000000E-02;687;  0.0000000E+00;  0.0000000E+00;  0.0000000E+00;  1.0000246E+03;  1.0000000E-01;  2.0345104E+01;0;  0.0000000E+00;  0.0000000E+00;  0.0000000E+00;0; -1.7195349E-04;  4.0000000E+04;  0.0000000E+00;  0.0000000E+00;  4.0000000E+04;  0.0000000E+00;  4.0000000E+04; -1.7342616E-04;  0.0000000E+00;  1.4726722E-06;  4.7562656E+01;
 -1.3000000E-01;  9.9999998E-03;  7.9999998E-02;688;  0.0000000E+00;  0.0000000E+00;  0.0000000E+00;  1.0000253E+03;  1.0000000E-01;  2.0937679E+01;0;  0.0000000E+00;  0.0000000E+00;  0.0000000E+00;0; -1.6995848E-04;  4.0000000E+04;  0.0000000E+00;  0.0000000E+00;  4.0000000E+04;  0.0000000E+00;  4.0000000E+04; -1.7142856E-04;  0.0000000E+00;  1.4700850E-06;  4.7036488E+01;
 -1.3000000E-01;  9.9999998E-03;  9.0000004E-02;689;  0.0000000E+00;  0.0000000E+00;  0.0000000E+00;  1.0000262E+03;  1.0000000E-01;  2.1727781E+01;0;  0.0000000E+00;  0.0000000E+00;  0.0000000E+00;0; -1.6809659E-04;  4.0000000E+04;  0.0000000E+00;  0.0000000E+00;  4.0000000E+04;  0.0000000E+00;  4.0000000E+04; -1.6966507E-04;  0.0000000E+00;  1.5684748E-06;  4.6803806E+01;
 -1.3000000E-01;  9.9999998E-03;  1.0000000E-01;690;  0.0000000E+00;  0.0000000E+00;  0.0000000E+00;  1.0000269E+03;  1.0000000E-01;  2.2320356E+01;0;  0.0000000E+00;  0.0000000E+00;  0.0000000E+00;0; -1.6636653E-04;  4.0000000E+04;  0.0000000E+00;  0.0000000E+00;  4.0000000E+04;  0.0000000E+00;  4.0000000E+04; -1.6813408E-04;  0.0000000E+00;  1.7675428E-06;  4.6932083E+01;
 -1.3000000E-01;  9.9999998E-03;  1.1000000E-01;691;  0.0000000E+00;  0.0000000E+00;  0.0000000E+00;  1.0000276E+03;  1.0000000E-01;  2.2912931E+01;0;  0.0000000E+00;  0.0000000E+00;  0.0000000E+00;0; -1.6468446E-04;  4.0000000E+04;  0.0000000E+00;  0.0000000E+00;  4.0000000E+04;  0.0000000E+00;  4.0000000E+04; -1.6674522E-04;  0.0000000E+00;  2.0607604E-06;  4.7432861E+01;
 -1.3000000E-01;  9.9999998E-03;  1.2000000E-01;692;  0.0000000E+00;  0.0000000E+00;  0.0000000E+00;  1.0000282E+03;  1.0000000E-01;  2.3406746E+01;0;  0.0000000E+00;  0.0000000E+00;  0.0000000E+00;0; -1.6287976E-04;  4.0000000E+04;  0.0000000E+00;  0.0000000E+00;  4.0000000E+04;  0.0000000E+00;  4.0000000E+04; -1.6531732E-04;  0.0000000E+00;  2.4375690E-06;  4.8255909E+01;
 -1.3000000E-01;  9.9999998E-03;  1.3000000E-01;693;  0.0000000E+00;  0.0000000E+00;  0.0000000E+00;  1.0000285E+03;  1.0000000E-01;  2.3604271E+01;0;  0.0000000E+00;  0.0000000E+00;  0.0000000E+00;0; -1.6070687E-04;  4.0000000E+04;  0.0000000E+00;  0.0000000E+00;  4.0000000E+04;  0.0000000E+00;  4.0000000E+04; -1.6359141E-04;  0.0000000E+00;  2.8845350E-06;  4.9297127E+01;
 -1.3000000E-01;  9.9999998E-03;  1.4000000E-01;694;  0.0000000E+00;  0.0000000E+00;  0.0000000E+00;  1.0000283E+03;  1.0000000E-01;  2.3406746E+01;0;  0.0000000E+00;  0.0000000E+00;  0.0000000E+00;0; -1.5787935E-04;  4.0000000E+04;  0.0000000E+00;  0.0000000E+00;  4.0000000E+04;  0.0000000E+00;  4.0000000E+04; -1.6126412E-04;  0.0000000E+00;  3.3847807E-06;  5.0419872E+01;
 -1.3000000E-01;  9.9999998E-03;  1.5000001E-01;695;  0.0000000E+00;  0.0000000E+00;  0.0000000E+00;  1.0000271E+03;  1.0000000E-01;  2.2419119E+01;0;  0.0000000E+00;  0.0000000E+00;  0.0000000E+00;0; -1.5412126E-04;  4.0000000E+04;  0.0000000E+00;  0.0000000E+00;  4.0000000E+04;  0.0000000E+00;  4.0000000E+04; -1.5803702E-04;  0.0000000E+00;  3.9157617E-06;  5.1484585E+01;
 -1.3000000E-01;  9.9999998E-03;  1.6000000E-01;696;  0.0000000E+00;  0.0000000E+00;  0.0000000E+00;  1.0000266E+03;  1.0000000E-01;  2.2024069E+01;0;  0.0000000E+00;  0.0000000E+00;  0.0000000E+00;0; -1.4923350E-04;  4.0000000E+04;  0.0000000E+00;  0.0000000E+00;  4.0000000E+04;  0.0000000E+00;  4.0000000E+04; -1.5368001E-04;  0.0000000E+00;  4.4465132E-06;  5.2376957E+01;
 -1.3000000E-01;  9.9999998E-03;  1.7000000E-01;697;  0.0000000E+00;  0.0000000E+00;  0.0000000E+00;  1.0000256E+03;  1.0000000E-01;  2.1233967E+01;0;  0.0000000E+00;  0.0000000E+00;  0.0000000E+00;0; -1.4316151E-04;  4.0000000E+04;  0.0000000E+00;  0.0000000E+00;  4.0000000E+04;  0.0000000E+00;  4.0000000E+04; -1.4809771E-04;  0.0000000E+00;  4.9362038E-06;  5.3022709E+01;
 -1.3000000E-01;  9.9999998E-03;  1.8000001E-01;698;  0.0000000E+00;  0.0000000E+00;  0.0000000E+00;  1.0000242E+03;  1.0000000E-01;  2.0048815E+01;0;  0.0000000E+00;  0.0000000E+00;  0.0000000E+00;0; -1.3604891E-04;  4.0000000E+04;  0.0000000E+00;  0.0000000E+00;  4.0000000E+04;  0.0000000E+00;  4.0000000E+04; -1.4138450E-04;  0.0000000E+00;  5.3355870E-06;  5.3371048E+01;
 -1.3000000E-01;  9.9999998E-03;  1.9000000E-01;699;  0.0000000E+00;  0.0000000E+00;  0.0000000E+00;  1.0000222E+03;  1.0000000E-01;  1.8369850E+01;0;  0.0000000E+00;  0.0000000E+00;  0.0000000E+00;0; -1.2826420E-04;  4.0000000E+04;  0.0000000E+00;  0.0000000E+00;  4.0000000E+04;  0.0000000E+00;  4.0000000E+04; -1.3385635E-04;  0.0000000E+00;  5.5921359E-06;  5.3342770E+01;
 -1.3000000E-01;  9.9999998E-03;  2.0000000E-01;700;  0.0000000E+00;  0.0000000E+00;  0.0000000E+00;  1.0000192E+03;  1.0000000E-01;  1.5900784E+01;0;  0.0000000E+00;  0.0000000E+00;  0.0000000E+00;0; -1.2037535E-04;  4.0000000E+04;  0.0000000E+00;  0.0000000E+00;  4.0000000E+04;  0.0000000E+00;  4.0000000E+04; -1.2601596E-04;  0.0000000E+00;  5.6406152E-06;  5.2738888E+01;
 -1.3000000E-01;  9.9999998E-03;  2.0999999E-01;701;  0.0000000E+00;  0.0000000E+00;  0.0000000E+00;  1.0000168E+03;  1.0000000E-01;  1.3925532E+01;0;  0.0000000E+00;  0.0000000E+00;  0.0000000E+00;0; -1.1302252E-04;  4.0000000E+04;  0.0000000E+00;  0.0000000E+00;  4.0000000E+04;  0.0000000E+00;  4.0000000E+04; -1.1837430E-04;  0.0000000E+00;  5.3517829E-06;  5.1144180E+01;
 -1.3000000E-01;  9.9999998E-03;  2.2000000E-01;702;  0.0000000E+00;  0.0000000E+00;  0.0000000E+00;  1.0000148E+03;  1.0000000E-01;  1.2246567E+01;0;  0.0000000E+00;  0.0000000E+00;  0.0000000E+00;0; -1.0677052E-04;  4.0000000E+04;  0.0000000E+00;  0.0000000E+00;  4.0000000E+04;  0.0000000E+00;  4.0000000E+04; -1.1136108E-04;  0.0000000E+00;  4.5905558E-06;  4.8063461E+01;
 -1.3000000E-01;  9.9999998E-03;  2.3000000E-01;703;  0.0000000E+00;  0.0000000E+00;  0.0000000E+00;  1.0000078E+03;  1.0000000E-01;  6.4195714E+00;0;  0.0000000E+00;  0.0000000E+00;  0.0000000E+00;0; -1.0191021E-04;  4.0000000E+04;  0.0000000E+00;  0.0000000E+00;  4.0000000E+04;  0.0000000E+00;  4.0000000E+04; -1.0516973E-04;  0.0000000E+00;  3.2595181E-06;  4.3034752E+01;
 -1.2000000E-01;  9.9999998E-03;  7.0000000E-02;778;  0.0000000E+00;  0.0000000E+00;  0.0000000E+00;  1.0000827E+03;  1.0000000E-01;  6.8541275E+01;0;  0.0000000E+00;  0.0000000E+00;  0.0000000E+00;0; -4.5572812E-04;  4.0000000E+04;  0.0000000E+00;  0.0000000E+00;  4.0000000E+04;  0.0000000E+00;  4.0000000E+04; -4.6065982E-04;  0.0000000E+00;  4.9316909E-06;  1.0217180E+02;
 -1.2000000E-01;  9.9999998E-03;  7.9999998E-02;779;  0.0000000E+00;  0.0000000E+00;  0.0000000E+00;  1.0000864E+03;  1.0000000E-01;  7.1504150E+01;0;  0.0000000E+00;  0.0000000E+00;  0.0000000E+00;0; -4.5129284E-04;  4.0000000E+04;  0.0000000E+00;  0.0000000E+00;  4.0000000E+04;  0.0000000E+00;  4.0000000E+04; -4.5622754E-04;  0.0000000E+00;  4.9347041E-06;  1.0070149E+02;
 -1.2000000E-01;  9.9999998E-03;  9.0000004E-02;780;  0.0000000E+00;  0.0000000E+00;  0.0000000E+00;  1.0000881E+03;  1.0000000E-01;  7.2985588E+01;0;  0.0000000E+00;  0.0000000E+00;  0.0000000E+00;0; -4.4696277E-04;  4.0000000E+04;  0.0000000E+00;  0.0000000E+00;  4.0000000E+04;  0.0000000E+00;  4.0000000E+04; -4.5217355E-04;  0.0000000E+00;  5.2107789E-06;  9.9903046E+01;
 -1.2000000E-01;  9.9999998E-03;  1.0000000E-01;781;  0.0000000E+00;  0.0000000E+00;  0.0000000E+00;  1.0000890E+03;  1.0000000E-01;  7.3676926E+01;0;  0.0000000E+00;  0.0000000E+00;  0.0000000E+00;0; -4.4267956E-04;  4.0000000E+04;  0.0000000E+00;  0.0000000E+00;  4.0000000E+04;  0.0000000E+00;  4.0000000E+04; -4.4844067E-04;  0.0000000E+00;  5.7611114E-06;  9.9923622E+01;
 -1.2000000E-01;  9.9999998E-03;  1.1000000E-01;782;  0.0000000E+00;  0.0000000E+00;  0.0000000E+00;  1.0000908E+03;  1.0000000E-01;  7.5158371E+01;0;  0.0000000E+00;  0.0000000E+00;  0.0000000E+00;0; -4.3822013E-04;  4.0000000E+04;  0.0000000E+00;  0.0000000E+00;  4.0000000E+04;  0.0000000E+00;  4.0000000E+04; -4.4478619E-04;  0.0000000E+00;  6.5660597E-06;  1.0080335E+02;
 -1.2000000E-01;  9.9999998E-03;  1.2000000E-01;783;  0.0000000E+00;  0.0000000E+00;  0.0000000E+00;  1.0000923E+03;  1.0000000E-01;  7.6442284E+01;0;  0.0000000E+00;  0.0000000E+00;  0.0000000E+00;0; -4.3319707E-04;  4.0000000E+04;  0.0000000E+00;  0.0000000E+00;  4.0000000E+04;  0.0000000E+00;  4.0000000E+04; -4.4078685E-04;  0.0000000E+00;  7.5897915E-06;  1.0246941E+02;
 -1.2000000E-01;  9.9999998E-03;  1.3000000E-01;784;  0.0000000E+00;  0.0000000E+00;  0.0000000E+00;  1.0000935E+03;  1.0000000E-01;  7.7429909E+01;0;  0.0000000E+00;  0.0000000E+00;  0.0000000E+00;0; -4.2709400E-04;  4.0000000E+04;  0.0000000E+00;  0.0000000E+00;  4.0000000E+04;  0.0000000E+00;  4.0000000E+04; -4.3587715E-04;  0.0000000E+00;  8.7831640E-06;  1.0475102E+02;
 -1.2000000E-01;  9.9999998E-03;  1.4000000E-01;785;  0.0000000E+00;  0.0000000E+00;  0.0000000E+00;  1.0000942E+03;  1.0000000E-01;  7.8022484E+01;0;  0.0000000E+00;  0.0000000E+00;  0.0000000E+00;0; -4.1934123E-04;  4.0000000E+04;  0.0000000E+00;  0.0000000E+00;  4.0000000E+04;  0.0000000E+00;  4.0000000E+04; -4.2942454E-04;  0.0000000E+00;  1.0083316E-05;  1.0742332E+02;
 -1.2000000E-01;  9.9999998E-03;  1.5000001E-01;786;  0.0000000E+00;  0.0000000E+00;  0.0000000E+00;  1.0000903E+03;  1.0000000E-01;  7.4862083E+01;0;  0.0000000E+00;  0.0000000E+00;  0.0000000E+00;0; -4.0942480E-04;  4.0000000E+04;  0.0000000E+00;  0.0000000E+00;  4.0000000E+04;  0.0000000E+00;  4.0000000E+04; -4.2083600E-04;  0.0000000E+00;  1.1411205E-05;  1.1025748E+02;
 -1.2000000E-01;  9.9999998E-03;  1.6000000E-01;787;  0.0000000E+00;  0.0000000E+00;  0.0000000E+00;  1.0000796E+03;  1.0000000E-01;  6.5973442E+01;0;  0.0000000E+00;  0.0000000E+00;  0.0000000E+00;0; -3.9701504E-04;  4.0000000E+04;  0.0000000E+00;  0.0000000E+00;  4.0000000E+04;  0.0000000E+00;  4.0000000E+04; -4.0968455E-04;  0.0000000E+00;  1.2669499E-05;  1.1305978E+02;
 -1.2000000E-01;  9.9999998E-03;  1.7000000E-01;788;  0.0000000E+00;  0.0000000E+00;  0.0000000E+00;  1.0000712E+03;  1.0000000E-01;  5.8961296E+01;0;  0.0000000E+00;  0.0000000E+00;  0.0000000E+00;0; -3.8208425E-04;  4.0000000E+04;  0.0000000E+00;  0.0000000E+00;  4.0000000E+04;  0.0000000E+00;  4.0000000E+04; -3.9582848E-04;  0.0000000E+00;  1.3744228E-05;  1.1566817E+02;
 -1.2000000E-01;  9.9999998E-03;  1.8000001E-01;789;  0.0000000E+00;  0.0000000E+00;  0.0000000E+00;  1.0000614E+03;  1.0000000E-01;  5.0862759E+01;0;  0.0000000E+00;  0.0000000E+00;  0.0000000E+00;0; -3.6499297E-04;  4.0000000E+04;  0.0000000E+00;  0.0000000E+00;  4.0000000E+04;  0.0000000E+00;  4.0000000E+04; -3.7950528E-04;  0.0000000E+00;  1.4512310E-05;  1.1787882E+02;
 -1.2000000E-01;  9.9999998E-03;  1.9000000E-01;790;  0.0000000E+00;  0.0000000E+00;  0.0000000E+00;  1.0000543E+03;  1.0000000E-01;  4.4937000E+01;0;  0.0000000E+00;  0.0000000E+00;  0.0000000E+00;0; -3.4650843E-04;  4.0000000E+04;  0.0000000E+00;  0.0000000E+00;  4.0000000E+04;  0.0000000E+00;  4.0000000E+04; -3.6133008E-04;  0.0000000E+00;  1.4821648E-05;  1.1928589E+02;
 -1.2000000E-01;  9.9999998E-03;  2.0000000E-01;791;  0.0000000E+00;  0.0000000E+00;  0.0000000E+00;  1.0000474E+03;  1.0000000E-01;  3.9307529E+01;0;  0.0000000E+00;  0.0000000E+00;  0.0000000E+00;0; -3.2769260E-04;  4.0000000E+04;  0.0000000E+00;  0.0000000E+00;  4.0000000E+04;  0.0000000E+00;  4.0000000E+04; -3.4211393E-04;  0.0000000E+00;  1.4421338E-05;  1.1911318E+02;
 -1.2000000E-01;  9.9999998E-03;  2.0999999E-01;792;  0.0000000E+00;  0.0000000E+00;  0.0000000E+00;  1.0000439E+03;  1.0000000E-01;  3.6344650E+01;0;  0.0000000E+00;  0.0000000E+00;  0.0000000E+00;0; -3.0968594E-04;  4.0000000E+04;  0.0000000E+00;  0.0000000E+00;  4.0000000E+04;  0.0000000E+00;  4.0000000E+04; -3.2272685E-04;  0.0000000E+00;  1.3040916E-05;  1.1633591E+02;
 -1.2000000E-01;  9.9999998E-03;  2.2000000E-01;793;  0.0000000E+00;  0.0000000E+00;  0.0000000E+00;  1.0000410E+03;  1.0000000E-01;  3.3974346E+01;0;  0.0000000E+00;  0.0000000E+00;  0.0000000E+00;0; -2.9337977E-04;  4.0000000E+04;  0.0000000E+00;  0.0000000E+00;  4.0000000E+04;  0.0000000E+00;  4.0000000E+04; -3.0382644E-04;  0.0000000E+00;  1.0446689E-05;  1.0979865E+02;
 -1.2000000E-01;  9.9999998E-03;  2.3000000E-01;794;  0.0000000E+00;  0.0000000E+00;  0.0000000E+00;  1.0000310E+03;  1.0000000E-01;  2.5678286E+01;0;  0.0000000E+00;  0.0000000E+00;  0.0000000E+00;0; -2.7911604E-04;  4.0000000E+04;  0.0000000E+00;  0.0000000E+00;  4.0000000E+04;  0.0000000E+00;  4.0000000E+04; -2.8564432E-04;  0.0000000E+00;  6.5282784E-06;  9.8524414E+01;
 -1.1000000E-01;  9.9999998E-03;  7.0000000E-02;869;  0.0000000E+00;  0.0000000E+00;  0.0000000E+00;  1.0002008E+03;  1.0000000E-01;  1.6631628E+02;0;  0.0000000E+00;  0.0000000E+00;  0.0000000E+00;0; -1.0022969E-03;  4.0000000E+04;  0.0000000E+00;  0.0000000E+00;  4.0000000E+04;  0.0000000E+00;  4.0000000E+04; -1.0153573E-03;  0.0000000E+00;  1.3060356E-05;  1.8632420E+02;
 -1.1000000E-01;  9.9999998E-03;  7.9999998E-02;870;  0.0000000E+00;  0.0000000E+00;  0.0000000E+00;  1.0002072E+03;  1.0000000E-01;  1.7164946E+02;0;  0.0000000E+00;  0.0000000E+00;  0.0000000E+00;0; -9.9386077E-04;  4.0000000E+04;  0.0000000E+00;  0.0000000E+00;  4.0000000E+04;  0.0000000E+00;  4.0000000E+04; -1.0069503E-03;  0.0000000E+00;  1.3089494E-05;  1.8302045E+02;
 -1.1000000E-01;  9.9999998E-03;  9.0000004E-02;871;  0.0000000E+00;  0.0000000E+00;  0.0000000E+00;  1.0002117E+03;  1.0000000E-01;  1.7540245E+02;0;  0.0000000E+00;  0.0000000E+00;  0.0000000E+00;0; -9.8528760E-04;  4.0000000E+04;  0.0000000E+00;  0.0000000E+00;  4.0000000E+04;  0.0000000E+00;  4.0000000E+04; -9.9899550E-04;  0.0000000E+00;  1.3707924E-05;  1.8102295E+02;
 -1.1000000E-01;  9.9999998E-03;  1.0000000E-01;872;  0.0000000E+00;  0.0000000E+00;  0.0000000E+00;  1.0002167E+03;  1.0000000E-01;  1.7955048E+02;0;  0.0000000E+00;  0.0000000E+00;  0.0000000E+00;0; -9.7638957E-04;  4.0000000E+04;  0.0000000E+00;  0.0000000E+00;  4.0000000E+04;  0.0000000E+00;  4.0000000E+04; -9.9130697E-04;  0.0000000E+00;  1.4917418E-05;  1.8060838E+02;
 -1.1000000E-01;  9.9999998E-03;  1.1000000E-01;873;  0.0000000E+00;  0.0000000E+00;  0.0000000E+00;  1.0002227E+03;  1.0000000E-01;  1.8448862E+02;0;  0.0000000E+00;  0.0000000E+00;  0.0000000E+00;0; -9.6669822E-04;  4.0000000E+04;  0.0000000E+00;  0.0000000E+00;  4.0000000E+04;  0.0000000E+00;  4.0000000E+04; -9.8336674E-04;  0.0000000E+00;  1.6668533E-05;  1.8188318E+02;
 -1.1000000E-01;  9.9999998E-03;  1.2000000E-01;874;  0.0000000E+00;  0.0000000E+00;  0.0000000E+00;  1.0002241E+03;  1.0000000E-01;  1.8567377E+02;0;  0.0000000E+00;  0.0000000E+00;  0.0000000E+00;0; -9.5547887E-04;  4.0000000E+04;  0.0000000E+00;  0.0000000E+00;  4.0000000E+04;  0.0000000E+00;  4.0000000E+04; -9.7434805E-04;  0.0000000E+00;  1.8869207E-05;  1.8477843E+02;
 -1.1000000E-01;  9.9999998E-03;  1.3000000E-01;875;  0.0000000E+00;  0.0000000E+00;  0.0000000E+00;  1.0002211E+03;  1.0000000E-01;  1.8310593E+02;0;  0.0000000E+00;  0.0000000E+00;  0.0000000E+00;0; -9.4181387E-04;  4.0000000E+04;  0.0000000E+00;  0.0000000E+00;  4.0000000E+04;  0.0000000E+00;  4.0000000E+04; -9.6320501E-04;  0.0000000E+00;  2.1391161E-05;  1.8908263E+02;
 -1.1000000E-01;  9.9999998E-03;  1.4000000E-01;876;  0.0000000E+00;  0.0000000E+00;  0.0000000E+00;  1.0002074E+03;  1.0000000E-01;  1.7184698E+02;0;  0.0000000E+00;  0.0000000E+00;  0.0000000E+00;0; -9.2472974E-04;  4.0000000E+04;  0.0000000E+00;  0.0000000E+00;  4.0000000E+04;  0.0000000E+00;  4.0000000E+04; -9.4880234E-04;  0.0000000E+00;  2.4072599E-05;  1.9451439E+02;
 -1.1000000E-01;  9.9999998E-03;  1.5000001E-01;877;  0.0000000E+00;  0.0000000E+00;  0.0000000E+00;  1.0001992E+03;  1.0000000E-01;  1.6503236E+02;0;  0.0000000E+00;  0.0000000E+00;  0.0000000E+00;0; -9.0339553E-04;  4.0000000E+04;  0.0000000E+00;  0.0000000E+00;  4.0000000E+04;  0.0000000E+00;  4.0000000E+04; -9.3011488E-04;  0.0000000E+00;  2.6719354E-05;  2.0078455E+02;
 -1.1000000E-01;  9.9999998E-03;  1.6000000E-01;878;  0.0000000E+00;  0.0000000E+00;  0.0000000E+00;  1.0001925E+03;  1.0000000E-01;  1.5950166E+02;0;  0.0000000E+00;  0.0000000E+00;  0.0000000E+00;0; -8.7731972E-04;  4.0000000E+04;  0.0000000E+00;  0.0000000E+00;  4.0000000E+04;  0.0000000E+00;  4.0000000E+04; -9.0642768E-04;  0.0000000E+00;  2.9107990E-05;  2.0761784E+02;
 -1.1000000E-01;  9.9999998E-03;  1.7000000E-01;879;  0.0000000E+00;  0.0000000E+00;  0.0000000E+00;  1.0001845E+03;  1.0000000E-01;  1.5288457E+02;0;  0.0000000E+00;  0.0000000E+00;  0.0000000E+00;0; -8.4653514E-04;  4.0000000E+04;  0.0000000E+00;  0.0000000E+00;  4.0000000E+04;  0.0000000E+00;  4.0000000E+04; -8.7753020E-04;  0.0000000E+00;  3.0995070E-05;  2.1467291E+02;
 -1.1000000E-01;  9.9999998E-03;  1.8000001E-01;880;  0.0000000E+00;  0.0000000E+00;  0.0000000E+00;  1.0001666E+03;  1.0000000E-01;  1.3807018E+02;0;  0.0000000E+00;  0.0000000E+00;  0.0000000E+00;0; -8.1172033E-04;  4.0000000E+04;  0.0000000E+00;  0.0000000E+00;  4.0000000E+04;  0.0000000E+00;  4.0000000E+04; -8.4381987E-04;  0.0000000E+00;  3.2099553E-05;  2.2133186E+02;
 -1.1000000E-01;  9.9999998E-03;  1.9000000E-01;881;  0.0000000E+00;  0.0000000E+00;  0.0000000E+00;  1.0001566E+03;  1.0000000E-01;  1.2967534E+02;0;  0.0000000E+00;  0.0000000E+00;  0.0000000E+00;0; -7.7418471E-04;  4.0000000E+04;  0.0000000E+00;  0.0000000E+00;  4.0000000E+04;  0.0000000E+00;  4.0000000E+04; -8.0618303E-04;  0.0000000E+00;  3.1998330E-05;  2.2639018E+02;
 -1.1000000E-01;  9.9999998E-03;  2.0000000E-01;882;  0.0000000E+00;  0.0000000E+00;  0.0000000E+00;  1.0001357E+03;  1.0000000E-01;  1.1249065E+02;0;  0.0000000E+00;  0.0000000E+00;  0.0000000E+00;0; -7.3565042E-04;  4.0000000E+04;  0.0000000E+00;  0.0000000E+00;  4.0000000E+04;  0.0000000E+00;  4.0000000E+04; -7.6585554E-04;  0.0000000E+00;  3.0205090E-05;  2.2810660E+02;
 -1.1000000E-01;  9.9999998E-03;  2.0999999E-01;883;  0.0000000E+00;  0.0000000E+00;  0.0000000E+00;  1.0001235E+03;  1.0000000E-01;  1.0231809E+02;0;  0.0000000E+00;  0.0000000E+00;  0.0000000E+00;0; -6.9782074E-04;  4.0000000E+04;  0.0000000E+00;  0.0000000E+00;  4.0000000E+04;  0.0000000E+00;  4.0000000E+04; -7.2406116E-04;  0.0000000E+00;  2.6240446E-05;  2.2425941E+02;
 -1.1000000E-01;  9.9999998E-03;  2.2000000E-01;884;  0.0000000E+00;  0.0000000E+00;  0.0000000E+00;  1.0001044E+03;  1.0000000E-01;  8.6516075E+01;0;  0.0000000E+00;  0.0000000E+00;  0.0000000E+00;0; -6.6190196E-04;  4.0000000E+04;  0.0000000E+00;  0.0000000E+00;  4.0000000E+04;  0.0000000E+00;  4.0000000E+04; -6.8166701E-04;  0.0000000E+00;  1.9765055E-05;  2.1255222E+02;
 -1.1000000E-01;  9.9999998E-03;  2.3000000E-01;885;  0.0000000E+00;  0.0000000E+00;  0.0000000E+00;  1.0000969E+03;  1.0000000E-01;  8.0294022E+01;0;  0.0000000E+00;  0.0000000E+00;  0.0000000E+00;0; -6.2823936E-04;  4.0000000E+04;  0.0000000E+00;  0.0000000E+00;  4.0000000E+04;  0.0000000E+00;  4.0000000E+04; -6.3897145E-04;  0.0000000E+00;  1.0732115E-05;  1.9125273E+02;
 -1.0000000E-01;  9.9999998E-03;  7.0000000E-02;960;  0.0000000E+00;  0.0000000E+00;  0.0000000E+00;  1.0004103E+03;  1.0000000E-01;  3.3994101E+02;0;  0.0000000E+00;  0.0000000E+00;  0.0000000E+00;0; -1.9385703E-03;  4.0000000E+04;  0.0000000E+00;  0.0000000E+00;  4.0000000E+04;  0.0000000E+00;  4.0000000E+04; -1.9679703E-03;  0.0000000E+00;  2.9399940E-05;  3.0397754E+02;
 -1.0000000E-01;  9.9999998E-03;  7.9999998E-02;961;  0.0000000E+00;  0.0000000E+00;  0.0000000E+00;  1.0004178E+03;  1.0000000E-01;  3.4616306E+02;0;  0.0000000E+00;  0.0000000E+00;  0.0000000E+00;0; -1.9240939E-03;  4.0000000E+04;  0.0000000E+00;  0.0000000E+00;  4.0000000E+04;  0.0000000E+00;  4.0000000E+04; -1.9535820E-03;  0.0000000E+00;  2.9488074E-05;  2.9759048E+02;
 -1.0000000E-01;  9.9999998E-03;  9.0000004E-02;962;  0.0000000E+00;  0.0000000E+00;  0.0000000E+00;  1.0004276E+03;  1.0000000E-01;  3.5426160E+02;0;  0.0000000E+00;  0.0000000E+00;  0.0000000E+00;0; -1.9088873E-03;  4.0000000E+04;  0.0000000E+00;  0.0000000E+00;  4.0000000E+04;  0.0000000E+00;  4.0000000E+04; -1.9395499E-03;  0.0000000E+00;  3.0662639E-05;  2.9347238E+02;
 -1.0000000E-01;  9.9999998E-03;  1.0000000E-01;963;  0.0000000E+00;  0.0000000E+00;  0.0000000E+00;  1.0004342E+03;  1.0000000E-01;  3.5969354E+02;0;  0.0000000E+00;  0.0000000E+00;  0.0000000E+00;0; -1.8925237E-03;  4.0000000E+04;  0.0000000E+00;  0.0000000E+00;  4.0000000E+04;  0.0000000E+00;  4.0000000E+04; -1.9254434E-03;  0.0000000E+00;  3.2919696E-05;  2.9209958E+02;
 -1.0000000E-01;  9.9999998E-03;  1.1000000E-01;964;  0.0000000E+00;  0.0000000E+00;  0.0000000E+00;  1.0004368E+03;  1.0000000E-01;  3.6186630E+02;0;  0.0000000E+00;  0.0000000E+00;  0.0000000E+00;0; -1.8741546E-03;  4.0000000E+04;  0.0000000E+00;  0.0000000E+00;  4.0000000E+04;  0.0000000E+00;  4.0000000E+04; -1.9103067E-03;  0.0000000E+00;  3.6152156E-05;  2.9370154E+02;
 -1.0000000E-01;  9.9999998E-03;  1.2000000E-01;965;  0.0000000E+00;  0.0000000E+00;  0.0000000E+00;  1.0004353E+03;  1.0000000E-01;  3.6068115E+02;0;  0.0000000E+00;  0.0000000E+00;  0.0000000E+00;0; -1.8525483E-03;  4.0000000E+04;  0.0000000E+00;  0.0000000E+00;  4.0000000E+04;  0.0000000E+00;  4.0000000E+04; -1.8927130E-03;  0.0000000E+00;  4.0164628E-05;  2.9826584E+02;
 -1.0000000E-01;  9.9999998E-03;  1.3000000E-01;966;  0.0000000E+00;  0.0000000E+00;  0.0000000E+00;  1.0004339E+03;  1.0000000E-01;  3.5949600E+02;0;  0.0000000E+00;  0.0000000E+00;  0.0000000E+00;0; -1.8262169E-03;  4.0000000E+04;  0.0000000E+00;  0.0000000E+00;  4.0000000E+04;  0.0000000E+00;  4.0000000E+04; -1.8709042E-03;  0.0000000E+00;  4.4687284E-05;  3.0561261E+02;
 -1.0000000E-01;  9.9999998E-03;  1.4000000E-01;967;  0.0000000E+00;  0.0000000E+00;  0.0000000E+00;  1.0004272E+03;  1.0000000E-01;  3.5396530E+02;0;  0.0000000E+00;  0.0000000E+00;  0.0000000E+00;0; -1.7936477E-03;  4.0000000E+04;  0.0000000E+00;  0.0000000E+00;  4.0000000E+04;  0.0000000E+00;  4.0000000E+04; -1.8430353E-03;  0.0000000E+00;  4.9387629E-05;  3.1548386E+02;
 -1.0000000E-01;  9.9999998E-03;  1.5000001E-01;968;  0.0000000E+00;  0.0000000E+00;  0.0000000E+00;  1.0004171E+03;  1.0000000E-01;  3.4547171E+02;0;  0.0000000E+00;  0.0000000E+00;  0.0000000E+00;0; -1.7535747E-03;  4.0000000E+04;  0.0000000E+00;  0.0000000E+00;  4.0000000E+04;  0.0000000E+00;  4.0000000E+04; -1.8074552E-03;  0.0000000E+00;  5.3880500E-05;  3.2760446E+02;
 -1.0000000E-01;  9.9999998E-03;  1.6000000E-01;969;  0.0000000E+00;  0.0000000E+00;  0.0000000E+00;  1.0003934E+03;  1.0000000E-01;  3.2591672E+02;0;  0.0000000E+00;  0.0000000E+00;  0.0000000E+00;0; -1.7052863E-03;  4.0000000E+04;  0.0000000E+00;  0.0000000E+00;  4.0000000E+04;  0.0000000E+00;  4.0000000E+04; -1.7630279E-03;  0.0000000E+00;  5.7741585E-05;  3.4160675E+02;
 -1.0000000E-01;  9.9999998E-03;  1.7000000E-01;970;  0.0000000E+00;  0.0000000E+00;  0.0000000E+00;  1.0003759E+03;  1.0000000E-01;  3.1139859E+02;0;  0.0000000E+00;  0.0000000E+00;  0.0000000E+00;0; -1.6488885E-03;  4.0000000E+04;  0.0000000E+00;  0.0000000E+00;  4.0000000E+04;  0.0000000E+00;  4.0000000E+04; -1.7093963E-03;  0.0000000E+00;  6.0507798E-05;  3.5680063E+02;
 -1.0000000E-01;  9.9999998E-03;  1.8000001E-01;971;  0.0000000E+00;  0.0000000E+00;  0.0000000E+00;  1.0003505E+03;  1.0000000E-01;  2.9036215E+02;0;  0.0000000E+00;  0.0000000E+00;  0.0000000E+00;0; -1.5854799E-03;  4.0000000E+04;  0.0000000E+00;  0.0000000E+00;  4.0000000E+04;  0.0000000E+00;  4.0000000E+04; -1.6470198E-03;  0.0000000E+00;  6.1539802E-05;  3.7169806E+02;
 -1.0000000E-01;  9.9999998E-03;  1.9000000E-01;972;  0.0000000E+00;  0.0000000E+00;  0.0000000E+00;  1.0003149E+03;  1.0000000E-01;  2.6083212E+02;0;  0.0000000E+00;  0.0000000E+00;  0.0000000E+00;0; -1.5170556E-03;  4.0000000E+04;  0.0000000E+00;  0.0000000E+00;  4.0000000E+04;  0.0000000E+00;  4.0000000E+04; -1.5771154E-03;  0.0000000E+00;  6.0059810E-05;  3.8385574E+02;
 -1.0000000E-01;  9.9999998E-03;  2.0000000E-01;973;  0.0000000E+00;  0.0000000E+00;  0.0000000E+00;  1.0002861E+03;  1.0000000E-01;  2.3703033E+02;0;  0.0000000E+00;  0.0000000E+00;  0.0000000E+00;0; -1.4460721E-03;  4.0000000E+04;  0.0000000E+00;  0.0000000E+00;  4.0000000E+04;  0.0000000E+00;  4.0000000E+04; -1.5012955E-03;  0.0000000E+00;  5.5223336E-05;  3.8980896E+02;
 -1.0000000E-01;  9.9999998E-03;  2.0999999E-01;974;  0.0000000E+00;  0.0000000E+00;  0.0000000E+00;  1.0002631E+03;  1.0000000E-01;  2.1796915E+02;0;  0.0000000E+00;  0.0000000E+00;  0.0000000E+00;0; -1.3748269E-03;  4.0000000E+04;  0.0000000E+00;  0.0000000E+00;  4.0000000E+04;  0.0000000E+00;  4.0000000E+04; -1.4211118E-03;  0.0000000E+00;  4.6284888E-05;  3.8540936E+02;
 -1.0000000E-01;  9.9999998E-03;  2.2000000E-01;975;  0.0000000E+00;  0.0000000E+00;  0.0000000E+00;  1.0002377E+03;  1.0000000E-01;  1.9693271E+02;0;  0.0000000E+00;  0.0000000E+00;  0.0000000E+00;0; -1.3048436E-03;  4.0000000E+04;  0.0000000E+00;  0.0000000E+00;  4.0000000E+04;  0.0000000E+00;  4.0000000E+04; -1.3376799E-03;  0.0000000E+00;  3.2836375E-05;  3.6671909E+02;
 -1.0000000E-01;  9.9999998E-03;  2.3000000E-01;976;  0.0000000E+00;  0.0000000E+00;  0.0000000E+00;  1.0002220E+03;  1.0000000E-01;  1.8389603E+02;0;  0.0000000E+00;  0.0000000E+00;  0.0000000E+00;0; -1.2364454E-03;  4.0000000E+04;  0.0000000E+00;  0.0000000E+00;  4.0000000E+04;  0.0000000E+00;  4.0000000E+04; -1.2514606E-03;  0.0000000E+00;  1.5015285E-05;  3.3102026E+02;
 -9.0000004E-02;  9.9999998E-03;  7.0000000E-02;1051;  0.0000000E+00;  0.0000000E+00;  0.0000000E+00;  1.0007758E+03;  1.0000000E-01;  6.4274725E+02;0;  0.0000000E+00;  0.0000000E+00;  0.0000000E+00;0; -3.4118188E-03;  4.0000000E+04;  0.0000000E+00;  0.0000000E+00;  4.0000000E+04;  0.0000000E+00;  4.0000000E+04; -3.4704949E-03;  0.0000000E+00;  5.8676153E-05;  4.5712381E+02;
 -9.0000004E-02;  9.9999998E-03;  7.9999998E-02;1052;  0.0000000E+00;  0.0000000E+00;  0.0000000E+00;  1.0007867E+03;  1.0000000E-01;  6.5183344E+02;0;  0.0000000E+00;  0.0000000E+00;  0.0000000E+00;0; -3.3887641E-03;  4.0000000E+04;  0.0000000E+00;  0.0000000E+00;  4.0000000E+04;  0.0000000E+00;  4.0000000E+04; -3.4476169E-03;  0.0000000E+00;  5.8852744E-05;  4.4609265E+02;
 -9.0000004E-02;  9.9999998E-03;  9.0000004E-02;1053;  0.0000000E+00;  0.0000000E+00;  0.0000000E+00;  1.0007973E+03;  1.0000000E-01;  6.6052454E+02;0;  0.0000000E+00;  0.0000000E+00;  0.0000000E+00;0; -3.3638969E-03;  4.0000000E+04;  0.0000000E+00;  0.0000000E+00;  4.0000000E+04;  0.0000000E+00;  4.0000000E+04; -3.4247062E-03;  0.0000000E+00;  6.0809329E-05;  4.3869351E+02;
 -9.0000004E-02;  9.9999998E-03;  1.0000000E-01;1054;  0.0000000E+00;  0.0000000E+00;  0.0000000E+00;  1.0008040E+03;  1.0000000E-01;  6.6605524E+02;0;  0.0000000E+00;  0.0000000E+00;  0.0000000E+00;0; -3.3364273E-03;  4.0000000E+04;  0.0000000E+00;  0.0000000E+00;  4.0000000E+04;  0.0000000E+00;  4.0000000E+04; -3.4009484E-03;  0.0000000E+00;  6.4521118E-05;  4.3568857E+02;
 -9.0000004E-02;  9.9999998E-03;  1.1000000E-01;1055;  0.0000000E+00;  0.0000000E+00;  0.0000000E+00;  1.0008069E+03;  1.0000000E-01;  6.6852429E+02;0;  0.0000000E+00;  0.0000000E+00;  0.0000000E+00;0; -3.3049651E-03;  4.0000000E+04;  0.0000000E+00;  0.0000000E+00;  4.0000000E+04;  0.0000000E+00;  4.0000000E+04; -3.3747479E-03;  0.0000000E+00;  6.9782909E-05;  4.3749490E+02;
 -9.0000004E-02;  9.9999998E-03;  1.2000000E-01;1056;  0.0000000E+00;  0.0000000E+00;  0.0000000E+00;  1.0008083E+03;  1.0000000E-01;  6.6970947E+02;0;  0.0000000E+00;  0.0000000E+00;  0.0000000E+00;0; -3.2675902E-03;  4.0000000E+04;  0.0000000E+00;  0.0000000E+00;  4.0000000E+04;  0.0000000E+00;  4.0000000E+04; -3.3438248E-03;  0.0000000E+00;  7.6234588E-05;  4.4425189E+02;
 -9.0000004E-02;  9.9999998E-03;  1.3000000E-01;1057;  0.0000000E+00;  0.0000000E+00;  0.0000000E+00;  1.0008033E+03;  1.0000000E-01;  6.6546265E+02;0;  0.0000000E+00;  0.0000000E+00;  0.0000000E+00;0; -3.2220443E-03;  4.0000000E+04;  0.0000000E+00;  0.0000000E+00;  4.0000000E+04;  0.0000000E+00;  4.0000000E+04; -3.3054340E-03;  0.0000000E+00;  8.3389605E-05;  4.5591907E+02;
 -9.0000004E-02;  9.9999998E-03;  1.4000000E-01;1058;  0.0000000E+00;  0.0000000E+00;  0.0000000E+00;  1.0007856E+03;  1.0000000E-01;  6.5084576E+02;0;  0.0000000E+00;  0.0000000E+00;  0.0000000E+00;0; -3.1660772E-03;  4.0000000E+04;  0.0000000E+00;  0.0000000E+00;  4.0000000E+04;  0.0000000E+00;  4.0000000E+04; -3.2567387E-03;  0.0000000E+00;  9.0661510E-05;  4.7239502E+02;
 -9.0000004E-02;  9.9999998E-03;  1.5000001E-01;1059;  0.0000000E+00;  0.0000000E+00;  0.0000000E+00;  1.0007640E+03;  1.0000000E-01;  6.3296973E+02;0;  0.0000000E+00;  0.0000000E+00;  0.0000000E+00;0; -3.0978229E-03;  4.0000000E+04;  0.0000000E+00;  0.0000000E+00;  4.0000000E+04;  0.0000000E+00;  4.0000000E+04; -3.1952108E-03;  0.0000000E+00;  9.7388045E-05;  4.9350848E+02;
 -9.0000004E-02;  9.9999998E-03;  1.6000000E-01;1060;  0.0000000E+00;  0.0000000E+00;  0.0000000E+00;  1.0007325E+03;  1.0000000E-01;  6.0689642E+02;0;  0.0000000E+00;  0.0000000E+00;  0.0000000E+00;0; -3.0162381E-03;  4.0000000E+04;  0.0000000E+00;  0.0000000E+00;  4.0000000E+04;  0.0000000E+00;  4.0000000E+04; -3.1190948E-03;  0.0000000E+00;  1.0285670E-04;  5.1877899E+02;
 -9.0000004E-02;  9.9999998E-03;  1.7000000E-01;1061;  0.0000000E+00;  0.0000000E+00;  0.0000000E+00;  1.0006967E+03;  1.0000000E-01;  5.7716888E+02;0;  0.0000000E+00;  0.0000000E+00;  0.0000000E+00;0; -2.9215037E-03;  4.0000000E+04;  0.0000000E+00;  0.0000000E+00;  4.0000000E+04;  0.0000000E+00;  4.0000000E+04; -3.0276878E-03;  0.0000000E+00;  1.0618402E-04;  5.4684784E+02;
 -9.0000004E-02;  9.9999998E-03;  1.8000001E-01;1062;  0.0000000E+00;  0.0000000E+00;  0.0000000E+00;  1.0006576E+03;  1.0000000E-01;  5.4477472E+02;0;  0.0000000E+00;  0.0000000E+00;  0.0000000E+00;0; -2.8152093E-03;  4.0000000E+04;  0.0000000E+00;  0.0000000E+00;  4.0000000E+04;  0.0000000E+00;  4.0000000E+04; -2.9214574E-03;  0.0000000E+00;  1.0624815E-04;  5.7497491E+02;
 -9.0000004E-02;  9.9999998E-03;  1.9000000E-01;1063;  0.0000000E+00;  0.0000000E+00;  0.0000000E+00;  1.0006133E+03;  1.0000000E-01;  5.0813379E+02;0;  0.0000000E+00;  0.0000000E+00;  0.0000000E+00;0; -2.7000953E-03;  4.0000000E+04;  0.0000000E+00;  0.0000000E+00;  4.0000000E+04;  0.0000000E+00;  4.0000000E+04; -2.8018476E-03;  0.0000000E+00;  1.0175228E-04;  5.9872552E+02;
 -9.0000004E-02;  9.9999998E-03;  2.0000000E-01;1064;  0.0000000E+00;  0.0000000E+00;  0.0000000E+00;  1.0005596E+03;  1.0000000E-01;  4.6359183E+02;0;  0.0000000E+00;  0.0000000E+00;  0.0000000E+00;0; -2.5793919E-03;  4.0000000E+04;  0.0000000E+00;  0.0000000E+00;  4.0000000E+04;  0.0000000E+00;  4.0000000E+04; -2.6707633E-03;  0.0000000E+00;  9.1371396E-05;  6.1202527E+02;
 -9.0000004E-02;  9.9999998E-03;  2.0999999E-01;1065;  0.0000000E+00;  0.0000000E+00;  0.0000000E+00;  1.0005118E+03;  1.0000000E-01;  4.2398801E+02;0;  0.0000000E+00;  0.0000000E+00;  0.0000000E+00;0; -2.4560185E-03;  4.0000000E+04;  0.0000000E+00;  0.0000000E+00;  4.0000000E+04;  0.0000000E+00;  4.0000000E+04; -2.5300863E-03;  0.0000000E+00;  7.4067830E-05;  6.0809381E+02;
 -9.0000004E-02;  9.9999998E-03;  2.2000000E-01;1066;  0.0000000E+00;  0.0000000E+00;  0.0000000E+00;  1.0004752E+03;  1.0000000E-01;  3.9366788E+02;0;  0.0000000E+00;  0.0000000E+00;  0.0000000E+00;0; -2.3318329E-03;  4.0000000E+04;  0.0000000E+00;  0.0000000E+00;  4.0000000E+04;  0.0000000E+00;  4.0000000E+04; -2.3812614E-03;  0.0000000E+00;  4.9428592E-05;  5.8084662E+02;
 -9.0000004E-02;  9.9999998E-03;  2.3000000E-01;1067;  0.0000000E+00;  0.0000000E+00;  0.0000000E+00;  1.0004326E+03;  1.0000000E-01;  3.5840961E+02;0;  0.0000000E+00;  0.0000000E+00;  0.0000000E+00;0; -2.2071910E-03;  4.0000000E+04;  0.0000000E+00;  0.0000000E+00;  4.0000000E+04;  0.0000000E+00;  4.0000000E+04; -2.2251166E-03;  0.0000000E+00;  1.7925558E-05;  5.2628088E+02;
 -7.9999998E-02;  9.9999998E-03;  7.0000000E-02;1142;  0.0000000E+00;  0.0000000E+00;  0.0000000E+00;  1.0013317E+03;  1.0000000E-01;  1.1032775E+03;0;  0.0000000E+00;  0.0000000E+00;  0.0000000E+00;0; -5.5803247E-03;  4.0000000E+04;  0.0000000E+00;  0.0000000E+00;  4.0000000E+04;  0.0000000E+00;  4.0000000E+04; -5.6869425E-03;  0.0000000E+00;  1.0661784E-04;  6.4475165E+02;
 -7.9999998E-02;  9.9999998E-03;  7.9999998E-02;1143;  0.0000000E+00;  0.0000000E+00;  0.0000000E+00;  1.0013459E+03;  1.0000000E-01;  1.1151289E+03;0;  0.0000000E+00;  0.0000000E+00;  0.0000000E+00;0; -5.5457000E-03;  4.0000000E+04;  0.0000000E+00;  0.0000000E+00;  4.0000000E+04;  0.0000000E+00;  4.0000000E+04; -5.6525753E-03;  0.0000000E+00;  1.0687533E-04;  6.2734558E+02;
 -7.9999998E-02;  9.9999998E-03;  9.0000004E-02;1144;  0.0000000E+00;  0.0000000E+00;  0.0000000E+00;  1.0013582E+03;  1.0000000E-01;  1.1252028E+03;0;  0.0000000E+00;  0.0000000E+00;  0.0000000E+00;0; -5.5075986E-03;  4.0000000E+04;  0.0000000E+00;  0.0000000E+00;  4.0000000E+04;  0.0000000E+00;  4.0000000E+04; -5.6173871E-03;  0.0000000E+00;  1.0978848E-04;  6.1540063E+02;
 -7.9999998E-02;  9.9999998E-03;  1.0000000E-01;1145;  0.0000000E+00;  0.0000000E+00;  0.0000000E+00;  1.0013672E+03;  1.0000000E-01;  1.1327087E+03;0;  0.0000000E+00;  0.0000000E+00;  0.0000000E+00;0; -5.4647280E-03;  4.0000000E+04;  0.0000000E+00;  0.0000000E+00;  4.0000000E+04;  0.0000000E+00;  4.0000000E+04; -5.5800122E-03;  0.0000000E+00;  1.1528417E-04;  6.1004987E+02;
 -7.9999998E-02;  9.9999998E-03;  1.1000000E-01;1146;  0.0000000E+00;  0.0000000E+00;  0.0000000E+00;  1.0013747E+03;  1.0000000E-01;  1.1389308E+03;0;  0.0000000E+00;  0.0000000E+00;  0.0000000E+00;0; -5.4149623E-03;  4.0000000E+04;  0.0000000E+00;  0.0000000E+00;  4.0000000E+04;  0.0000000E+00;  4.0000000E+04; -5.5379705E-03;  0.0000000E+00;  1.2300794E-04;  6.1199310E+02;
 -7.9999998E-02;  9.9999998E-03;  1.2000000E-01;1147;  0.0000000E+00;  0.0000000E+00;  0.0000000E+00;  1.0013738E+03;  1.0000000E-01;  1.1382394E+03;0;  0.0000000E+00;  0.0000000E+00;  0.0000000E+00;0; -5.3554596E-03;  4.0000000E+04;  0.0000000E+00;  0.0000000E+00;  4.0000000E+04;  0.0000000E+00;  4.0000000E+04; -5.4878257E-03;  0.0000000E+00;  1.3236594E-04;  6.2160541E+02;
 -7.9999998E-02;  9.9999998E-03;  1.3000000E-01;1148;  0.0000000E+00;  0.0000000E+00;  0.0000000E+00;  1.0013633E+03;  1.0000000E-01;  1.1294496E+03;0;  0.0000000E+00;  0.0000000E+00;  0.0000000E+00;0; -5.2829375E-03;  4.0000000E+04;  0.0000000E+00;  0.0000000E+00;  4.0000000E+04;  0.0000000E+00;  4.0000000E+04; -5.4255128E-03;  0.0000000E+00;  1.4257524E-04;  6.3913361E+02;
 -7.9999998E-02;  9.9999998E-03;  1.4000000E-01;1149;  0.0000000E+00;  0.0000000E+00;  0.0000000E+00;  1.0013349E+03;  1.0000000E-01;  1.1059440E+03;0;  0.0000000E+00;  0.0000000E+00;  0.0000000E+00;0; -5.1941327E-03;  4.0000000E+04;  0.0000000E+00;  0.0000000E+00;  4.0000000E+04;  0.0000000E+00;  4.0000000E+04; -5.3468430E-03;  0.0000000E+00;  1.5271034E-04;  6.6478558E+02;
 -7.9999998E-02;  9.9999998E-03;  1.5000001E-01;1150;  0.0000000E+00;  0.0000000E+00;  0.0000000E+00;  1.0013041E+03;  1.0000000E-01;  1.0803645E+03;0;  0.0000000E+00;  0.0000000E+00;  0.0000000E+00;0; -5.0863447E-03;  4.0000000E+04;  0.0000000E+00;  0.0000000E+00;  4.0000000E+04;  0.0000000E+00;  4.0000000E+04; -5.2480921E-03;  0.0000000E+00;  1.6174751E-04;  6.9860730E+02;
 -7.9999998E-02;  9.9999998E-03;  1.6000000E-01;1151;  0.0000000E+00;  0.0000000E+00;  0.0000000E+00;  1.0012552E+03;  1.0000000E-01;  1.0398718E+03;0;  0.0000000E+00;  0.0000000E+00;  0.0000000E+00;0; -4.9580382E-03;  4.0000000E+04;  0.0000000E+00;  0.0000000E+00;  4.0000000E+04;  0.0000000E+00;  4.0000000E+04; -5.1265755E-03;  0.0000000E+00;  1.6853733E-04;  7.3990839E+02;
 -7.9999998E-02;  9.9999998E-03;  1.7000000E-01;1152;  0.0000000E+00;  0.0000000E+00;  0.0000000E+00;  1.0011971E+03;  1.0000000E-01;  9.9177441E+02;0;  0.0000000E+00;  0.0000000E+00;  0.0000000E+00;0; -4.8094010E-03;  4.0000000E+04;  0.0000000E+00;  0.0000000E+00;  4.0000000E+04;  0.0000000E+00;  4.0000000E+04; -4.9810070E-03;  0.0000000E+00;  1.7160579E-04;  7.8640216E+02;
 -7.9999998E-02;  9.9999998E-03;  1.8000001E-01;1153;  0.0000000E+00;  0.0000000E+00;  0.0000000E+00;  1.0011313E+03;  1.0000000E-01;  9.3725745E+02;0;  0.0000000E+00;  0.0000000E+00;  0.0000000E+00;0; -4.6424977E-03;  4.0000000E+04;  0.0000000E+00;  0.0000000E+00;  4.0000000E+04;  0.0000000E+00;  4.0000000E+04; -4.8116804E-03;  0.0000000E+00;  1.6918282E-04;  8.3357489E+02;
 -7.9999998E-02;  9.9999998E-03;  1.9000000E-01;1154;  0.0000000E+00;  0.0000000E+00;  0.0000000E+00;  1.0010598E+03;  1.0000000E-01;  8.7799988E+02;0;  0.0000000E+00;  0.0000000E+00;  0.0000000E+00;0; -4.4608111E-03;  4.0000000E+04;  0.0000000E+00;  0.0000000E+00;  4.0000000E+04;  0.0000000E+00;  4.0000000E+04; -4.6200766E-03;  0.0000000E+00;  1.5926539E-04;  8.7410675E+02;
 -7.9999998E-02;  9.9999998E-03;  2.0000000E-01;1155;  0.0000000E+00;  0.0000000E+00;  0.0000000E+00;  1.0009822E+03;  1.0000000E-01;  8.1380414E+02;0;  0.0000000E+00;  0.0000000E+00;  0.0000000E+00;0; -4.2683617E-03;  4.0000000E+04;  0.0000000E+00;  0.0000000E+00;  4.0000000E+04;  0.0000000E+00;  4.0000000E+04; -4.4083120E-03;  0.0000000E+00;  1.3995025E-04;  8.9854071E+02;
 -7.9999998E-02;  9.9999998E-03;  2.0999999E-01;1156;  0.0000000E+00;  0.0000000E+00;  0.0000000E+00;  1.0009100E+03;  1.0000000E-01;  7.5385522E+02;0;  0.0000000E+00;  0.0000000E+00;  0.0000000E+00;0; -4.0687057E-03;  4.0000000E+04;  0.0000000E+00;  0.0000000E+00;  4.0000000E+04;  0.0000000E+00;  4.0000000E+04; -4.1785999E-03;  0.0000000E+00;  1.0989398E-04;  8.9684235E+02;
 -7.9999998E-02;  9.9999998E-03;  2.2000000E-01;1157;  0.0000000E+00;  0.0000000E+00;  0.0000000E+00;  1.0008369E+03;  1.0000000E-01;  6.9341248E+02;0;  0.0000000E+00;  0.0000000E+00;  0.0000000E+00;0; -3.8641382E-03;  4.0000000E+04;  0.0000000E+00;  0.0000000E+00;  4.0000000E+04;  0.0000000E+00;  4.0000000E+04; -3.9328877E-03;  0.0000000E+00;  6.8749476E-05;  8.6021954E+02;
 -7.9999998E-02;  9.9999998E-03;  2.3000000E-01;1158;  0.0000000E+00;  0.0000000E+00;  0.0000000E+00;  1.0007730E+03;  1.0000000E-01;  6.4037695E+02;0;  0.0000000E+00;  0.0000000E+00;  0.0000000E+00;0; -3.6551231E-03;  4.0000000E+04;  0.0000000E+00;  0.0000000E+00;  4.0000000E+04;  0.0000000E+00;  4.0000000E+04; -3.6726068E-03;  0.0000000E+00;  1.7483759E-05;  7.8293567E+02;
 -7.0000000E-02;  9.9999998E-03;  7.0000000E-02;1233;  0.0000000E+00;  0.0000000E+00;  0.0000000E+00;  1.0021396E+03;  1.0000000E-01;  1.7725918E+03;0;  0.0000000E+00;  0.0000000E+00;  0.0000000E+00;0; -8.5949758E-03;  4.0000000E+04;  0.0000000E+00;  0.0000000E+00;  4.0000000E+04;  0.0000000E+00;  4.0000000E+04; -8.7745143E-03;  0.0000000E+00;  1.7953862E-04;  8.6124823E+02;
 -7.0000000E-02;  9.9999998E-03;  7.9999998E-02;1234;  0.0000000E+00;  0.0000000E+00;  0.0000000E+00;  1.0021614E+03;  1.0000000E-01;  1.7906654E+03;0;  0.0000000E+00;  0.0000000E+00;  0.0000000E+00;0; -8.5455114E-03;  4.0000000E+04;  0.0000000E+00;  0.0000000E+00;  4.0000000E+04;  0.0000000E+00;  4.0000000E+04; -8.7252930E-03;  0.0000000E+00;  1.7978190E-04;  8.3580927E+02;
 -7.0000000E-02;  9.9999998E-03;  9.0000004E-02;1235;  0.0000000E+00;  0.0000000E+00;  0.0000000E+00;  1.0021805E+03;  1.0000000E-01;  1.8064674E+03;0;  0.0000000E+00;  0.0000000E+00;  0.0000000E+00;0; -8.4902998E-03;  4.0000000E+04;  0.0000000E+00;  0.0000000E+00;  4.0000000E+04;  0.0000000E+00;  4.0000000E+04; -8.6739883E-03;  0.0000000E+00;  1.8368813E-04;  8.1818323E+02;
 -7.0000000E-02;  9.9999998E-03;  1.0000000E-01;1236;  0.0000000E+00;  0.0000000E+00;  0.0000000E+00;  1.0021945E+03;  1.0000000E-01;  1.8180227E+03;0;  0.0000000E+00;  0.0000000E+00;  0.0000000E+00;0; -8.4273852E-03;  4.0000000E+04;  0.0000000E+00;  0.0000000E+00;  4.0000000E+04;  0.0000000E+00;  4.0000000E+04; -8.6184815E-03;  0.0000000E+00;  1.9109652E-04;  8.0995020E+02;
 -7.0000000E-02;  9.9999998E-03;  1.1000000E-01;1237;  0.0000000E+00;  0.0000000E+00;  0.0000000E+00;  1.0021979E+03;  1.0000000E-01;  1.8209856E+03;0;  0.0000000E+00;  0.0000000E+00;  0.0000000E+00;0; -8.3537074E-03;  4.0000000E+04;  0.0000000E+00;  0.0000000E+00;  4.0000000E+04;  0.0000000E+00;  4.0000000E+04; -8.5551525E-03;  0.0000000E+00;  2.0144536E-04;  8.1214874E+02;
 -7.0000000E-02;  9.9999998E-03;  1.2000000E-01;1238;  0.0000000E+00;  0.0000000E+00;  0.0000000E+00;  1.0021888E+03;  1.0000000E-01;  1.8133809E+03;0;  0.0000000E+00;  0.0000000E+00;  0.0000000E+00;0; -8.2652122E-03;  4.0000000E+04;  0.0000000E+00;  0.0000000E+00;  4.0000000E+04;  0.0000000E+00;  4.0000000E+04; -8.4790504E-03;  0.0000000E+00;  2.1383772E-04;  8.2549371E+02;
 -7.0000000E-02;  9.9999998E-03;  1.3000000E-01;1239;  0.0000000E+00;  0.0000000E+00;  0.0000000E+00;  1.0021733E+03;  1.0000000E-01;  1.8005416E+03;0;  0.0000000E+00;  0.0000000E+00;  0.0000000E+00;0; -8.1572654E-03;  4.0000000E+04;  0.0000000E+00;  0.0000000E+00;  4.0000000E+04;  0.0000000E+00;  4.0000000E+04; -8.3843879E-03;  0.0000000E+00;  2.2712222E-04;  8.5064832E+02;
 -7.0000000E-02;  9.9999998E-03;  1.4000000E-01;1240;  0.0000000E+00;  0.0000000E+00;  0.0000000E+00;  1.0021340E+03;  1.0000000E-01;  1.7680487E+03;0;  0.0000000E+00;  0.0000000E+00;  0.0000000E+00;0; -8.0252411E-03;  4.0000000E+04;  0.0000000E+00;  0.0000000E+00;  4.0000000E+04;  0.0000000E+00;  4.0000000E+04; -8.2652038E-03;  0.0000000E+00;  2.3996228E-04;  8.8829572E+02;
 -7.0000000E-02;  9.9999998E-03;  1.5000001E-01;1241;  0.0000000E+00;  0.0000000E+00;  0.0000000E+00;  1.0020805E+03;  1.0000000E-01;  1.7237043E+03;0;  0.0000000E+00;  0.0000000E+00;  0.0000000E+00;0; -7.8652687E-03;  4.0000000E+04;  0.0000000E+00;  0.0000000E+00;  4.0000000E+04;  0.0000000E+00;  4.0000000E+04; -8.1161605E-03;  0.0000000E+00;  2.5089149E-04;  9.3877777E+02;
 -7.0000000E-02;  9.9999998E-03;  1.6000000E-01;1242;  0.0000000E+00;  0.0000000E+00;  0.0000000E+00;  1.0020152E+03;  1.0000000E-01;  1.6695824E+03;0;  0.0000000E+00;  0.0000000E+00;  0.0000000E+00;0; -7.6750810E-03;  4.0000000E+04;  0.0000000E+00;  0.0000000E+00;  4.0000000E+04;  0.0000000E+00;  4.0000000E+04; -7.9332227E-03;  0.0000000E+00;  2.5814184E-04;  1.0010851E+03;
 -7.0000000E-02;  9.9999998E-03;  1.7000000E-01;1243;  0.0000000E+00;  0.0000000E+00;  0.0000000E+00;  1.0019262E+03;  1.0000000E-01;  1.5958068E+03;0;  0.0000000E+00;  0.0000000E+00;  0.0000000E+00;0; -7.4547371E-03;  4.0000000E+04;  0.0000000E+00;  0.0000000E+00;  4.0000000E+04;  0.0000000E+00;  4.0000000E+04; -7.7142627E-03;  0.0000000E+00;  2.5952581E-04;  1.0718481E+03;
 -7.0000000E-02;  9.9999998E-03;  1.8000001E-01;1244;  0.0000000E+00;  0.0000000E+00;  0.0000000E+00;  1.0018281E+03;  1.0000000E-01;  1.5145250E+03;0;  0.0000000E+00;  0.0000000E+00;  0.0000000E+00;0; -7.2066383E-03;  4.0000000E+04;  0.0000000E+00;  0.0000000E+00;  4.0000000E+04;  0.0000000E+00;  4.0000000E+04; -7.4590426E-03;  0.0000000E+00;  2.5240402E-04;  1.1440668E+03;
 -7.0000000E-02;  9.9999998E-03;  1.9000000E-01;1245;  0.0000000E+00;  0.0000000E+00;  0.0000000E+00;  1.0017214E+03;  1.0000000E-01;  1.4261324E+03;0;  0.0000000E+00;  0.0000000E+00;  0.0000000E+00;0; -6.9349329E-03;  4.0000000E+04;  0.0000000E+00;  0.0000000E+00;  4.0000000E+04;  0.0000000E+00;  4.0000000E+04; -7.1688425E-03;  0.0000000E+00;  2.3390960E-04;  1.2068953E+03;
 -7.0000000E-02;  9.9999998E-03;  2.0000000E-01;1246;  0.0000000E+00;  0.0000000E+00;  0.0000000E+00;  1.0016075E+03;  1.0000000E-01;  1.3318142E+03;0;  0.0000000E+00;  0.0000000E+00;  0.0000000E+00;0; -6.6443770E-03;  4.0000000E+04;  0.0000000E+00;  0.0000000E+00;  4.0000000E+04;  0.0000000E+00;  4.0000000E+04; -6.8458482E-03;  0.0000000E+00;  2.0147108E-04;  1.2469712E+03;
 -7.0000000E-02;  9.9999998E-03;  2.0999999E-01;1247;  0.0000000E+00;  0.0000000E+00;  0.0000000E+00;  1.0014952E+03;  1.0000000E-01;  1.2387798E+03;0;  0.0000000E+00;  0.0000000E+00;  0.0000000E+00;0; -6.3392674E-03;  4.0000000E+04;  0.0000000E+00;  0.0000000E+00;  4.0000000E+04;  0.0000000E+00;  4.0000000E+04; -6.4926837E-03;  0.0000000E+00;  1.5341645E-04;  1.2503936E+03;
 -7.0000000E-02;  9.9999998E-03;  2.2000000E-01;1248;  0.0000000E+00;  0.0000000E+00;  0.0000000E+00;  1.0013813E+03;  1.0000000E-01;  1.1444614E+03;0;  0.0000000E+00;  0.0000000E+00;  0.0000000E+00;0; -6.0224328E-03;  4.0000000E+04;  0.0000000E+00;  0.0000000E+00;  4.0000000E+04;  0.0000000E+00;  4.0000000E+04; -6.1119515E-03;  0.0000000E+00;  8.9518588E-05;  1.2050226E+03;
 -7.0000000E-02;  9.9999998E-03;  2.3000000E-01;1249;  0.0000000E+00;  0.0000000E+00;  0.0000000E+00;  1.0012763E+03;  1.0000000E-01;  1.0573528E+03;0;  0.0000000E+00;  0.0000000E+00;  0.0000000E+00;0; -5.6946287E-03;  4.0000000E+04;  0.0000000E+00;  0.0000000E+00;  4.0000000E+04;  0.0000000E+00;  4.0000000E+04; -5.7060155E-03;  0.0000000E+00;  1.1386886E-05;  1.1027451E+03;
 -5.9999999E-02;  9.9999998E-03;  7.0000000E-02;1324;  0.0000000E+00;  0.0000000E+00;  0.0000000E+00;  1.0032552E+03;  1.0000000E-01;  2.6969114E+03;0;  0.0000000E+00;  0.0000000E+00;  0.0000000E+00;0; -1.2569859E-02;  4.0000000E+04;  0.0000000E+00;  0.0000000E+00;  4.0000000E+04;  0.0000000E+00;  4.0000000E+04; -1.2853538E-02;  0.0000000E+00;  2.8367911E-04;  1.0946835E+03;
 -5.9999999E-02;  9.9999998E-03;  7.9999998E-02;1325;  0.0000000E+00;  0.0000000E+00;  0.0000000E+00;  1.0032835E+03;  1.0000000E-01;  2.7203181E+03;0;  0.0000000E+00;  0.0000000E+00;  0.0000000E+00;0; -1.2502370E-02;  4.0000000E+04;  0.0000000E+00;  0.0000000E+00;  4.0000000E+04;  0.0000000E+00;  4.0000000E+04; -1.2786038E-02;  0.0000000E+00;  2.8366753E-04;  1.0599552E+03;
 -5.9999999E-02;  9.9999998E-03;  9.0000004E-02;1326;  0.0000000E+00;  0.0000000E+00;  0.0000000E+00;  1.0033062E+03;  1.0000000E-01;  2.7390830E+03;0;  0.0000000E+00;  0.0000000E+00;  0.0000000E+00;0; -1.2426296E-02;  4.0000000E+04;  0.0000000E+00;  0.0000000E+00;  4.0000000E+04;  0.0000000E+00;  4.0000000E+04; -1.2714668E-02;  0.0000000E+00;  2.8837146E-04;  1.0359590E+03;
 -5.9999999E-02;  9.9999998E-03;  1.0000000E-01;1327;  0.0000000E+00;  0.0000000E+00;  0.0000000E+00;  1.0033203E+03;  1.0000000E-01;  2.7508357E+03;0;  0.0000000E+00;  0.0000000E+00;  0.0000000E+00;0; -1.2338893E-02;  4.0000000E+04;  0.0000000E+00;  0.0000000E+00;  4.0000000E+04;  0.0000000E+00;  4.0000000E+04; -1.2636385E-02;  0.0000000E+00;  2.9749222E-04;  1.0247578E+03;
 -5.9999999E-02;  9.9999998E-03;  1.1000000E-01;1328;  0.0000000E+00;  0.0000000E+00;  0.0000000E+00;  1.0033226E+03;  1.0000000E-01;  2.7527122E+03;0;  0.0000000E+00;  0.0000000E+00;  0.0000000E+00;0; -1.2235912E-02;  4.0000000E+04;  0.0000000E+00;  0.0000000E+00;  4.0000000E+04;  0.0000000E+00;  4.0000000E+04; -1.2546112E-02;  0.0000000E+00;  3.1020024E-04;  1.0277303E+03;
 -5.9999999E-02;  9.9999998E-03;  1.2000000E-01;1329;  0.0000000E+00;  0.0000000E+00;  0.0000000E+00;  1.0033077E+03;  1.0000000E-01;  2.7403669E+03;0;  0.0000000E+00;  0.0000000E+00;  0.0000000E+00;0; -1.2111777E-02;  4.0000000E+04;  0.0000000E+00;  0.0000000E+00;  4.0000000E+04;  0.0000000E+00;  4.0000000E+04; -1.2437014E-02;  0.0000000E+00;  3.2523749E-04;  1.0459635E+03;
 -5.9999999E-02;  9.9999998E-03;  1.3000000E-01;1330;  0.0000000E+00;  0.0000000E+00;  0.0000000E+00;  1.0032764E+03;  1.0000000E-01;  2.7144912E+03;0;  0.0000000E+00;  0.0000000E+00;  0.0000000E+00;0; -1.1960162E-02;  4.0000000E+04;  0.0000000E+00;  0.0000000E+00;  4.0000000E+04;  0.0000000E+00;  4.0000000E+04; -1.2301194E-02;  0.0000000E+00;  3.4103243E-04;  1.0806329E+03;
 -5.9999999E-02;  9.9999998E-03;  1.4000000E-01;1331;  0.0000000E+00;  0.0000000E+00;  0.0000000E+00;  1.0032266E+03;  1.0000000E-01;  2.6732083E+03;0;  0.0000000E+00;  0.0000000E+00;  0.0000000E+00;0; -1.1774575E-02;  4.0000000E+04;  0.0000000E+00;  0.0000000E+00;  4.0000000E+04;  0.0000000E+00;  4.0000000E+04; -1.2130369E-02;  0.0000000E+00;  3.5579377E-04;  1.1329907E+03;
 -5.9999999E-02;  9.9999998E-03;  1.5000001E-01;1332;  0.0000000E+00;  0.0000000E+00;  0.0000000E+00;  1.0031509E+03;  1.0000000E-01;  2.6104941E+03;0;  0.0000000E+00;  0.0000000E+00;  0.0000000E+00;0; -1.1549610E-02;  4.0000000E+04;  0.0000000E+00;  0.0000000E+00;  4.0000000E+04;  0.0000000E+00;  4.0000000E+04; -1.1917132E-02;  0.0000000E+00;  3.6752218E-04;  1.2037355E+03;
 -5.9999999E-02;  9.9999998E-03;  1.6000000E-01;1333;  0.0000000E+00;  0.0000000E+00;  0.0000000E+00;  1.0030506E+03;  1.0000000E-01;  2.5273359E+03;0;  0.0000000E+00;  0.0000000E+00;  0.0000000E+00;0; -1.1281896E-02;  4.0000000E+04;  0.0000000E+00;  0.0000000E+00;  4.0000000E+04;  0.0000000E+00;  4.0000000E+04; -1.1655629E-02;  0.0000000E+00;  3.7373236E-04;  1.2916307E+03;
 -5.9999999E-02;  9.9999998E-03;  1.7000000E-01;1334;  0.0000000E+00;  0.0000000E+00;  0.0000000E+00;  1.0029272E+03;  1.0000000E-01;  2.4252153E+03;0;  0.0000000E+00;  0.0000000E+00;  0.0000000E+00;0; -1.0971052E-02;  4.0000000E+04;  0.0000000E+00;  0.0000000E+00;  4.0000000E+04;  0.0000000E+00;  4.0000000E+04; -1.1342403E-02;  0.0000000E+00;  3.7135140E-04;  1.3918955E+03;
 -5.9999999E-02;  9.9999998E-03;  1.8000001E-01;1335;  0.0000000E+00;  0.0000000E+00;  0.0000000E+00;  1.0027885E+03;  1.0000000E-01;  2.3101570E+03;0;  0.0000000E+00;  0.0000000E+00;  0.0000000E+00;0; -1.0619610E-02;  4.0000000E+04;  0.0000000E+00;  0.0000000E+00;  4.0000000E+04;  0.0000000E+00;  4.0000000E+04; -1.0976296E-02;  0.0000000E+00;  3.5668592E-04;  1.4946794E+03;
 -5.9999999E-02;  9.9999998E-03;  1.9000000E-01;1336;  0.0000000E+00;  0.0000000E+00;  0.0000000E+00;  1.0026343E+03;  1.0000000E-01;  2.1824568E+03;0;  0.0000000E+00;  0.0000000E+00;  0.0000000E+00;0; -1.0232213E-02;  4.0000000E+04;  0.0000000E+00;  0.0000000E+00;  4.0000000E+04;  0.0000000E+00;  4.0000000E+04; -1.0558078E-02;  0.0000000E+00;  3.2586546E-04;  1.5853726E+03;
 -5.9999999E-02;  9.9999998E-03;  2.0000000E-01;1337;  0.0000000E+00;  0.0000000E+00;  0.0000000E+00;  1.0024734E+03;  1.0000000E-01;  2.0492261E+03;0;  0.0000000E+00;  0.0000000E+00;  0.0000000E+00;0; -9.8142819E-03;  4.0000000E+04;  0.0000000E+00;  0.0000000E+00;  4.0000000E+04;  0.0000000E+00;  4.0000000E+04; -1.0089830E-02;  0.0000000E+00;  2.7554843E-04;  1.6463904E+03;
 -5.9999999E-02;  9.9999998E-03;  2.0999999E-01;1338;  0.0000000E+00;  0.0000000E+00;  0.0000000E+00;  1.0023092E+03;  1.0000000E-01;  1.9131311E+03;0;  0.0000000E+00;  0.0000000E+00;  0.0000000E+00;0; -9.3709594E-03;  4.0000000E+04;  0.0000000E+00;  0.0000000E+00;  4.0000000E+04;  0.0000000E+00;  4.0000000E+04; -9.5746359E-03;  0.0000000E+00;  2.0367681E-04;  1.6594729E+03;
 -5.9999999E-02;  9.9999998E-03;  2.2000000E-01;1339;  0.0000000E+00;  0.0000000E+00;  0.0000000E+00;  1.0021454E+03;  1.0000000E-01;  1.7774312E+03;0;  0.0000000E+00;  0.0000000E+00;  0.0000000E+00;0; -8.9057917E-03;  4.0000000E+04;  0.0000000E+00;  0.0000000E+00;  4.0000000E+04;  0.0000000E+00;  4.0000000E+04; -9.0159494E-03;  0.0000000E+00;  1.1015737E-04;  1.6083176E+03;
 -5.9999999E-02;  9.9999998E-03;  2.3000000E-01;1340;  0.0000000E+00;  0.0000000E+00;  0.0000000E+00;  1.0019834E+03;  1.0000000E-01;  1.6432128E+03;0;  0.0000000E+00;  0.0000000E+00;  0.0000000E+00;0; -8.4200865E-03;  4.0000000E+04;  0.0000000E+00;  0.0000000E+00;  4.0000000E+04;  0.0000000E+00;  4.0000000E+04; -8.4174341E-03;  0.0000000E+00; -2.6526045E-06;  1.4814373E+03;
 -5.0000001E-02;  9.9999998E-03;  7.0000000E-02;1415;  0.0000000E+00;  0.0000000E+00;  0.0000000E+00;  1.0046996E+03;  1.0000000E-01;  3.8935195E+03;0;  0.0000000E+00;  0.0000000E+00;  0.0000000E+00;0; -1.7544843E-02;  4.0000000E+04;  0.0000000E+00;  0.0000000E+00;  4.0000000E+04;  0.0000000E+00;  4.0000000E+04; -1.7969182E-02;  0.0000000E+00;  4.2433784E-04;  1.3255791E+03;
 -5.0000001E-02;  9.9999998E-03;  7.9999998E-02;1416;  0.0000000E+00;  0.0000000E+00;  0.0000000E+00;  1.0047351E+03;  1.0000000E-01;  3.9229507E+03;0;  0.0000000E+00;  0.0000000E+00;  0.0000000E+00;0; -1.7456686E-02;  4.0000000E+04;  0.0000000E+00;  0.0000000E+00;  4.0000000E+04;  0.0000000E+00;  4.0000000E+04; -1.7880317E-02;  0.0000000E+00;  4.2363143E-04;  1.2810516E+03;
 -5.0000001E-02;  9.9999998E-03;  9.0000004E-02;1417;  0.0000000E+00;  0.0000000E+00;  0.0000000E+00;  1.0047658E+03;  1.0000000E-01;  3.9483328E+03;0;  0.0000000E+00;  0.0000000E+00;  0.0000000E+00;0; -1.7356751E-02;  4.0000000E+04;  0.0000000E+00;  0.0000000E+00;  4.0000000E+04;  0.0000000E+00;  4.0000000E+04; -1.7785372E-02;  0.0000000E+00;  4.2862052E-04;  1.2507979E+03;
 -5.0000001E-02;  9.9999998E-03;  1.0000000E-01;1418;  0.0000000E+00;  0.0000000E+00;  0.0000000E+00;  1.0047827E+03;  1.0000000E-01;  3.9623572E+03;0;  0.0000000E+00;  0.0000000E+00;  0.0000000E+00;0; -1.7241357E-02;  4.0000000E+04;  0.0000000E+00;  0.0000000E+00;  4.0000000E+04;  0.0000000E+00;  4.0000000E+04; -1.7680164E-02;  0.0000000E+00;  4.3880672E-04;  1.2372780E+03;
 -5.0000001E-02;  9.9999998E-03;  1.1000000E-01;1419;  0.0000000E+00;  0.0000000E+00;  0.0000000E+00;  1.0047863E+03;  1.0000000E-01;  3.9653201E+03;0;  0.0000000E+00;  0.0000000E+00;  0.0000000E+00;0; -1.7104814E-02;  4.0000000E+04;  0.0000000E+00;  0.0000000E+00;  4.0000000E+04;  0.0000000E+00;  4.0000000E+04; -1.7557850E-02;  0.0000000E+00;  4.5303607E-04;  1.2421260E+03;
 -5.0000001E-02;  9.9999998E-03;  1.2000000E-01;1420;  0.0000000E+00;  0.0000000E+00;  0.0000000E+00;  1.0047606E+03;  1.0000000E-01;  3.9440859E+03;0;  0.0000000E+00;  0.0000000E+00;  0.0000000E+00;0; -1.6939728E-02;  4.0000000E+04;  0.0000000E+00;  0.0000000E+00;  4.0000000E+04;  0.0000000E+00;  4.0000000E+04; -1.7409382E-02;  0.0000000E+00;  4.6965404E-04;  1.2667172E+03;
 -5.0000001E-02;  9.9999998E-03;  1.3000000E-01;1421;  0.0000000E+00;  0.0000000E+00;  0.0000000E+00;  1.0047154E+03;  1.0000000E-01;  3.9066550E+03;0;  0.0000000E+00;  0.0000000E+00;  0.0000000E+00;0; -1.6737536E-02;  4.0000000E+04;  0.0000000E+00;  0.0000000E+00;  4.0000000E+04;  0.0000000E+00;  4.0000000E+04; -1.7224191E-02;  0.0000000E+00;  4.8665467E-04;  1.3126932E+03;
 -5.0000001E-02;  9.9999998E-03;  1.4000000E-01;1422;  0.0000000E+00;  0.0000000E+00;  0.0000000E+00;  1.0046397E+03;  1.0000000E-01;  3.8439407E+03;0;  0.0000000E+00;  0.0000000E+00;  0.0000000E+00;0; -1.6489509E-02;  4.0000000E+04;  0.0000000E+00;  0.0000000E+00;  4.0000000E+04;  0.0000000E+00;  4.0000000E+04; -1.6991306E-02;  0.0000000E+00;  5.0179660E-04;  1.3819020E+03;
 -5.0000001E-02;  9.9999998E-03;  1.5000001E-01;1423;  0.0000000E+00;  0.0000000E+00;  0.0000000E+00;  1.0045357E+03;  1.0000000E-01;  3.7577209E+03;0;  0.0000000E+00;  0.0000000E+00;  0.0000000E+00;0; -1.6188132E-02;  4.0000000E+04;  0.0000000E+00;  0.0000000E+00;  4.0000000E+04;  0.0000000E+00;  4.0000000E+04; -1.6700622E-02;  0.0000000E+00;  5.1248935E-04;  1.4754790E+03;
 -5.0000001E-02;  9.9999998E-03;  1.6000000E-01;1424;  0.0000000E+00;  0.0000000E+00;  0.0000000E+00;  1.0044013E+03;  1.0000000E-01;  3.6464153E+03;0;  0.0000000E+00;  0.0000000E+00;  0.0000000E+00;0; -1.5828479E-02;  4.0000000E+04;  0.0000000E+00;  0.0000000E+00;  4.0000000E+04;  0.0000000E+00;  4.0000000E+04; -1.6343972E-02;  0.0000000E+00;  5.1549223E-04;  1.5921075E+03;
 -5.0000001E-02;  9.9999998E-03;  1.7000000E-01;1425;  0.0000000E+00;  0.0000000E+00;  0.0000000E+00;  1.0042346E+03;  1.0000000E-01;  3.5083452E+03;0;  0.0000000E+00;  0.0000000E+00;  0.0000000E+00;0; -1.5409351E-02;  4.0000000E+04;  0.0000000E+00;  0.0000000E+00;  4.0000000E+04;  0.0000000E+00;  4.0000000E+04; -1.5916040E-02;  0.0000000E+00;  5.0668867E-04;  1.7255536E+03;
 -5.0000001E-02;  9.9999998E-03;  1.8000001E-01;1426;  0.0000000E+00;  0.0000000E+00;  0.0000000E+00;  1.0040439E+03;  1.0000000E-01;  3.3503250E+03;0;  0.0000000E+00;  0.0000000E+00;  0.0000000E+00;0; -1.4933035E-02;  4.0000000E+04;  0.0000000E+00;  0.0000000E+00;  4.0000000E+04;  0.0000000E+00;  4.0000000E+04; -1.5414227E-02;  0.0000000E+00;  4.8119231E-04;  1.8632540E+03;
 -5.0000001E-02;  9.9999998E-03;  1.9000000E-01;1427;  0.0000000E+00;  0.0000000E+00;  0.0000000E+00;  1.0038342E+03;  1.0000000E-01;  3.1766016E+03;0;  0.0000000E+00;  0.0000000E+00;  0.0000000E+00;0; -1.4404370E-02;  4.0000000E+04;  0.0000000E+00;  0.0000000E+00;  4.0000000E+04;  0.0000000E+00;  4.0000000E+04; -1.4838367E-02;  0.0000000E+00;  4.3399606E-04;  1.9871317E+03;
 -5.0000001E-02;  9.9999998E-03;  2.0000000E-01;1428;  0.0000000E+00;  0.0000000E+00;  0.0000000E+00;  1.0036097E+03;  1.0000000E-01;  2.9906313E+03;0;  0.0000000E+00;  0.0000000E+00;  0.0000000E+00;0; -1.3829460E-02;  4.0000000E+04;  0.0000000E+00;  0.0000000E+00;  4.0000000E+04;  0.0000000E+00;  4.0000000E+04; -1.4190314E-02;  0.0000000E+00;  3.6085444E-04;  2.0753772E+03;
 -5.0000001E-02;  9.9999998E-03;  2.0999999E-01;1429;  0.0000000E+00;  0.0000000E+00;  0.0000000E+00;  1.0033788E+03;  1.0000000E-01;  2.7992295E+03;0;  0.0000000E+00;  0.0000000E+00;  0.0000000E+00;0; -1.3214297E-02;  4.0000000E+04;  0.0000000E+00;  0.0000000E+00;  4.0000000E+04;  0.0000000E+00;  4.0000000E+04; -1.3473509E-02;  0.0000000E+00;  2.5921263E-04;  2.1048567E+03;
 -5.0000001E-02;  9.9999998E-03;  2.2000000E-01;1430;  0.0000000E+00;  0.0000000E+00;  0.0000000E+00;  1.0031497E+03;  1.0000000E-01;  2.6095063E+03;0;  0.0000000E+00;  0.0000000E+00;  0.0000000E+00;0; -1.2563447E-02;  4.0000000E+04;  0.0000000E+00;  0.0000000E+00;  4.0000000E+04;  0.0000000E+00;  4.0000000E+04; -1.2692497E-02;  0.0000000E+00;  1.2904961E-04;  2.0541340E+03;
 -5.0000001E-02;  9.9999998E-03;  2.3000000E-01;1431;  0.0000000E+00;  0.0000000E+00;  0.0000000E+00;  1.0029200E+03;  1.0000000E-01;  2.4191909E+03;0;  0.0000000E+00;  0.0000000E+00;  0.0000000E+00;0; -1.1879100E-02;  4.0000000E+04;  0.0000000E+00;  0.0000000E+00;  4.0000000E+04;  0.0000000E+00;  4.0000000E+04; -1.1852611E-02;  0.0000000E+00; -2.6488324E-05;  1.9069797E+03;
 -3.9999999E-02;  9.9999998E-03;  7.0000000E-02;1506;  0.0000000E+00;  0.0000000E+00;  0.0000000E+00;  1.0064726E+03;  1.0000000E-01;  5.3624160E+03;0;  0.0000000E+00;  0.0000000E+00;  0.0000000E+00;0; -2.3451732E-02;  4.0000000E+04;  0.0000000E+00;  0.0000000E+00;  4.0000000E+04;  0.0000000E+00;  4.0000000E+04; -2.4056621E-02;  0.0000000E+00;  6.0488761E-04;  1.5274850E+03;
 -3.9999999E-02;  9.9999998E-03;  7.9999998E-02;1507;  0.0000000E+00;  0.0000000E+00;  0.0000000E+00;  1.0065166E+03;  1.0000000E-01;  5.3988599E+03;0;  0.0000000E+00;  0.0000000E+00;  0.0000000E+00;0; -2.3341417E-02;  4.0000000E+04;  0.0000000E+00;  0.0000000E+00;  4.0000000E+04;  0.0000000E+00;  4.0000000E+04; -2.3944238E-02;  0.0000000E+00;  6.0281996E-04;  1.4736669E+03;
 -3.9999999E-02;  9.9999998E-03;  9.0000004E-02;1508;  0.0000000E+00;  0.0000000E+00;  0.0000000E+00;  1.0065551E+03;  1.0000000E-01;  5.4307598E+03;0;  0.0000000E+00;  0.0000000E+00;  0.0000000E+00;0; -2.3215927E-02;  4.0000000E+04;  0.0000000E+00;  0.0000000E+00;  4.0000000E+04;  0.0000000E+00;  4.0000000E+04; -2.3823136E-02;  0.0000000E+00;  6.0720893E-04;  1.4382565E+03;
 -3.9999999E-02;  9.9999998E-03;  1.0000000E-01;1509;  0.0000000E+00;  0.0000000E+00;  0.0000000E+00;  1.0065814E+03;  1.0000000E-01;  5.4525864E+03;0;  0.0000000E+00;  0.0000000E+00;  0.0000000E+00;0; -2.3070617E-02;  4.0000000E+04;  0.0000000E+00;  0.0000000E+00;  4.0000000E+04;  0.0000000E+00;  4.0000000E+04; -2.3687899E-02;  0.0000000E+00;  6.1728264E-04;  1.4239751E+03;
 -3.9999999E-02;  9.9999998E-03;  1.1000000E-01;1510;  0.0000000E+00;  0.0000000E+00;  0.0000000E+00;  1.0065843E+03;  1.0000000E-01;  5.4549570E+03;0;  0.0000000E+00;  0.0000000E+00;  0.0000000E+00;0; -2.2898238E-02;  4.0000000E+04;  0.0000000E+00;  0.0000000E+00;  4.0000000E+04;  0.0000000E+00;  4.0000000E+04; -2.3529761E-02;  0.0000000E+00;  6.3152233E-04;  1.4324451E+03;
 -3.9999999E-02;  9.9999998E-03;  1.2000000E-01;1511;  0.0000000E+00;  0.0000000E+00;  0.0000000E+00;  1.0065537E+03;  1.0000000E-01;  5.4296738E+03;0;  0.0000000E+00;  0.0000000E+00;  0.0000000E+00;0; -2.2689192E-02;  4.0000000E+04;  0.0000000E+00;  0.0000000E+00;  4.0000000E+04;  0.0000000E+00;  4.0000000E+04; -2.3337066E-02;  0.0000000E+00;  6.4787490E-04;  1.4650361E+03;
 -3.9999999E-02;  9.9999998E-03;  1.3000000E-01;1512;  0.0000000E+00;  0.0000000E+00;  0.0000000E+00;  1.0064904E+03;  1.0000000E-01;  5.3772305E+03;0;  0.0000000E+00;  0.0000000E+00;  0.0000000E+00;0; -2.2432324E-02;  4.0000000E+04;  0.0000000E+00;  0.0000000E+00;  4.0000000E+04;  0.0000000E+00;  4.0000000E+04; -2.3096263E-02;  0.0000000E+00;  6.6394033E-04;  1.5236458E+03;
 -3.9999999E-02;  9.9999998E-03;  1.4000000E-01;1513;  0.0000000E+00;  0.0000000E+00;  0.0000000E+00;  1.0063870E+03;  1.0000000E-01;  5.2915049E+03;0;  0.0000000E+00;  0.0000000E+00;  0.0000000E+00;0; -2.2116046E-02;  4.0000000E+04;  0.0000000E+00;  0.0000000E+00;  4.0000000E+04;  0.0000000E+00;  4.0000000E+04; -2.2793133E-02;  0.0000000E+00;  6.7708711E-04;  1.6106498E+03;
 -3.9999999E-02;  9.9999998E-03;  1.5000001E-01;1514;  0.0000000E+00;  0.0000000E+00;  0.0000000E+00;  1.0062467E+03;  1.0000000E-01;  5.1752612E+03;0;  0.0000000E+00;  0.0000000E+00;  0.0000000E+00;0; -2.1730131E-02;  4.0000000E+04;  0.0000000E+00;  0.0000000E+00;  4.0000000E+04;  0.0000000E+00;  4.0000000E+04; -2.2414308E-02;  0.0000000E+00;  6.8417820E-04;  1.7277637E+03;
 -3.9999999E-02;  9.9999998E-03;  1.6000000E-01;1515;  0.0000000E+00;  0.0000000E+00;  0.0000000E+00;  1.0060670E+03;  1.0000000E-01;  5.0264258E+03;0;  0.0000000E+00;  0.0000000E+00;  0.0000000E+00;0; -2.1267587E-02;  4.0000000E+04;  0.0000000E+00;  0.0000000E+00;  4.0000000E+04;  0.0000000E+00;  4.0000000E+04; -2.1948796E-02;  0.0000000E+00;  6.8120816E-04;  1.8738744E+03;
 -3.9999999E-02;  9.9999998E-03;  1.7000000E-01;1516;  0.0000000E+00;  0.0000000E+00;  0.0000000E+00;  1.0058518E+03;  1.0000000E-01;  4.8481592E+03;0;  0.0000000E+00;  0.0000000E+00;  0.0000000E+00;0; -2.0725815E-02;  4.0000000E+04;  0.0000000E+00;  0.0000000E+00;  4.0000000E+04;  0.0000000E+00;  4.0000000E+04; -2.1388752E-02;  0.0000000E+00;  6.6293735E-04;  2.0417094E+03;
 -3.9999999E-02;  9.9999998E-03;  1.8000001E-01;1517;  0.0000000E+00;  0.0000000E+00;  0.0000000E+00;  1.0056010E+03;  1.0000000E-01;  4.6403628E+03;0;  0.0000000E+00;  0.0000000E+00;  0.0000000E+00;0; -2.0106420E-02;  4.0000000E+04;  0.0000000E+00;  0.0000000E+00;  4.0000000E+04;  0.0000000E+00;  4.0000000E+04; -2.0729611E-02;  0.0000000E+00;  6.2319066E-04;  2.2169099E+03;
 -3.9999999E-02;  9.9999998E-03;  1.9000000E-01;1518;  0.0000000E+00;  0.0000000E+00;  0.0000000E+00;  1.0053219E+03;  1.0000000E-01;  4.4090605E+03;0;  0.0000000E+00;  0.0000000E+00;  0.0000000E+00;0; -1.9414155E-02;  4.0000000E+04;  0.0000000E+00;  0.0000000E+00;  4.0000000E+04;  0.0000000E+00;  4.0000000E+04; -1.9969838E-02;  0.0000000E+00;  5.5568211E-04;  2.3787144E+03;
 -3.9999999E-02;  9.9999998E-03;  2.0000000E-01;1519;  0.0000000E+00;  0.0000000E+00;  0.0000000E+00;  1.0050259E+03;  1.0000000E-01;  4.1639316E+03;0;  0.0000000E+00;  0.0000000E+00;  0.0000000E+00;0; -1.8655665E-02;  4.0000000E+04;  0.0000000E+00;  0.0000000E+00;  4.0000000E+04;  0.0000000E+00;  4.0000000E+04; -1.9110747E-02;  0.0000000E+00;  4.5508068E-04;  2.5014097E+03;
 -3.9999999E-02;  9.9999998E-03;  2.0999999E-01;1520;  0.0000000E+00;  0.0000000E+00;  0.0000000E+00;  1.0047181E+03;  1.0000000E-01;  3.9088276E+03;0;  0.0000000E+00;  0.0000000E+00;  0.0000000E+00;0; -1.7837938E-02;  4.0000000E+04;  0.0000000E+00;  0.0000000E+00;  4.0000000E+04;  0.0000000E+00;  4.0000000E+04; -1.8156080E-02;  0.0000000E+00;  3.1814122E-04;  2.5566462E+03;
 -3.9999999E-02;  9.9999998E-03;  2.2000000E-01;1521;  0.0000000E+00;  0.0000000E+00;  0.0000000E+00;  1.0044056E+03;  1.0000000E-01;  3.6499709E+03;0;  0.0000000E+00;  0.0000000E+00;  0.0000000E+00;0; -1.6966855E-02;  4.0000000E+04;  0.0000000E+00;  0.0000000E+00;  4.0000000E+04;  0.0000000E+00;  4.0000000E+04; -1.7111622E-02;  0.0000000E+00;  1.4476696E-04;  2.5166721E+03;
 -3.9999999E-02;  9.9999998E-03;  2.3000000E-01;1522;  0.0000000E+00;  0.0000000E+00;  0.0000000E+00;  1.0040934E+03;  1.0000000E-01;  3.3913115E+03;0;  0.0000000E+00;  0.0000000E+00;  0.0000000E+00;0; -1.6045902E-02;  4.0000000E+04;  0.0000000E+00;  0.0000000E+00;  4.0000000E+04;  0.0000000E+00;  4.0000000E+04; -1.5984748E-02;  0.0000000E+00; -6.1154613E-05;  2.3586768E+03;
 -2.9999999E-02;  9.9999998E-03;  7.0000000E-02;1597;  0.0000000E+00;  0.0000000E+00;  0.0000000E+00;  1.0085237E+03;  1.0000000E-01;  7.0617261E+03;0;  0.0000000E+00;  0.0000000E+00;  0.0000000E+00;0; -3.0103756E-02;  4.0000000E+04;  0.0000000E+00;  0.0000000E+00;  4.0000000E+04;  0.0000000E+00;  4.0000000E+04; -3.0929536E-02;  0.0000000E+00;  8.2577980E-04;  1.6698716E+03;
 -2.9999999E-02;  9.9999998E-03;  7.9999998E-02;1598;  0.0000000E+00;  0.0000000E+00;  0.0000000E+00;  1.0085846E+03;  1.0000000E-01;  7.1121938E+03;0;  0.0000000E+00;  0.0000000E+00;  0.0000000E+00;0; -2.9971113E-02;  4.0000000E+04;  0.0000000E+00;  0.0000000E+00;  4.0000000E+04;  0.0000000E+00;  4.0000000E+04; -3.0792583E-02;  0.0000000E+00;  8.2146906E-04;  1.6085969E+03;
 -2.9999999E-02;  9.9999998E-03;  9.0000004E-02;1599;  0.0000000E+00;  0.0000000E+00;  0.0000000E+00;  1.0086342E+03;  1.0000000E-01;  7.1532793E+03;0;  0.0000000E+00;  0.0000000E+00;  0.0000000E+00;0; -2.9820040E-02;  4.0000000E+04;  0.0000000E+00;  0.0000000E+00;  4.0000000E+04;  0.0000000E+00;  4.0000000E+04; -3.0644022E-02;  0.0000000E+00;  8.2398299E-04;  1.5703862E+03;
 -2.9999999E-02;  9.9999998E-03;  1.0000000E-01;1600;  0.0000000E+00;  0.0000000E+00;  0.0000000E+00;  1.0086646E+03;  1.0000000E-01;  7.1784639E+03;0;  0.0000000E+00;  0.0000000E+00;  0.0000000E+00;0; -2.9644867E-02;  4.0000000E+04;  0.0000000E+00;  0.0000000E+00;  4.0000000E+04;  0.0000000E+00;  4.0000000E+04; -3.0477075E-02;  0.0000000E+00;  8.3220663E-04;  1.5578197E+03;
 -2.9999999E-02;  9.9999998E-03;  1.1000000E-01;1601;  0.0000000E+00;  0.0000000E+00;  0.0000000E+00;  1.0086702E+03;  1.0000000E-01;  7.1831055E+03;0;  0.0000000E+00;  0.0000000E+00;  0.0000000E+00;0; -2.9436689E-02;  4.0000000E+04;  0.0000000E+00;  0.0000000E+00;  4.0000000E+04;  0.0000000E+00;  4.0000000E+04; -3.0280914E-02;  0.0000000E+00;  8.4422471E-04;  1.5720768E+03;
 -2.9999999E-02;  9.9999998E-03;  1.2000000E-01;1602;  0.0000000E+00;  0.0000000E+00;  0.0000000E+00;  1.0086387E+03;  1.0000000E-01;  7.1569336E+03;0;  0.0000000E+00;  0.0000000E+00;  0.0000000E+00;0; -2.9183598E-02;  4.0000000E+04;  0.0000000E+00;  0.0000000E+00;  4.0000000E+04;  0.0000000E+00;  4.0000000E+04; -3.0041233E-02;  0.0000000E+00;  8.5763459E-04;  1.6140520E+03;
 -2.9999999E-02;  9.9999998E-03;  1.3000000E-01;1603;  0.0000000E+00;  0.0000000E+00;  0.0000000E+00;  1.0085618E+03;  1.0000000E-01;  7.0933301E+03;0;  0.0000000E+00;  0.0000000E+00;  0.0000000E+00;0; -2.8871303E-02;  4.0000000E+04;  0.0000000E+00;  0.0000000E+00;  4.0000000E+04;  0.0000000E+00;  4.0000000E+04; -2.9741060E-02;  0.0000000E+00;  8.6975674E-04;  1.6855237E+03;
 -2.9999999E-02;  9.9999998E-03;  1.4000000E-01;1604;  0.0000000E+00;  0.0000000E+00;  0.0000000E+00;  1.0084363E+03;  1.0000000E-01;  6.9893330E+03;0;  0.0000000E+00;  0.0000000E+00;  0.0000000E+00;0; -2.8484954E-02;  4.0000000E+04;  0.0000000E+00;  0.0000000E+00;  4.0000000E+04;  0.0000000E+00;  4.0000000E+04; -2.9362664E-02;  0.0000000E+00;  8.7771058E-04;  1.7893099E+03;
 -2.9999999E-02;  9.9999998E-03;  1.5000001E-01;1605;  0.0000000E+00;  0.0000000E+00;  0.0000000E+00;  1.0082548E+03;  1.0000000E-01;  6.8389175E+03;0;  0.0000000E+00;  0.0000000E+00;  0.0000000E+00;0; -2.8011061E-02;  4.0000000E+04;  0.0000000E+00;  0.0000000E+00;  4.0000000E+04;  0.0000000E+00;  4.0000000E+04; -2.8889030E-02;  0.0000000E+00;  8.7796972E-04;  1.9280037E+03;
 -2.9999999E-02;  9.9999998E-03;  1.6000000E-01;1606;  0.0000000E+00;  0.0000000E+00;  0.0000000E+00;  1.0080228E+03;  1.0000000E-01;  6.6467256E+03;0;  0.0000000E+00;  0.0000000E+00;  0.0000000E+00;0; -2.7439961E-02;  4.0000000E+04;  0.0000000E+00;  0.0000000E+00;  4.0000000E+04;  0.0000000E+00;  4.0000000E+04; -2.8305786E-02;  0.0000000E+00;  8.6582429E-04;  2.1011467E+03;
 -2.9999999E-02;  9.9999998E-03;  1.7000000E-01;1607;  0.0000000E+00;  0.0000000E+00;  0.0000000E+00;  1.0077501E+03;  1.0000000E-01;  6.4207568E+03;0;  0.0000000E+00;  0.0000000E+00;  0.0000000E+00;0; -2.6766950E-02;  4.0000000E+04;  0.0000000E+00;  0.0000000E+00;  4.0000000E+04;  0.0000000E+00;  4.0000000E+04; -2.7601877E-02;  0.0000000E+00;  8.3492632E-04;  2.3015220E+03;
 -2.9999999E-02;  9.9999998E-03;  1.8000001E-01;1608;  0.0000000E+00;  0.0000000E+00;  0.0000000E+00;  1.0074312E+03;  1.0000000E-01;  6.1565664E+03;0;  0.0000000E+00;  0.0000000E+00;  0.0000000E+00;0; -2.5992427E-02;  4.0000000E+04;  0.0000000E+00;  0.0000000E+00;  4.0000000E+04;  0.0000000E+00;  4.0000000E+04; -2.6770182E-02;  0.0000000E+00;  7.7775569E-04;  2.5144702E+03;
 -2.9999999E-02;  9.9999998E-03;  1.9000000E-01;1609;  0.0000000E+00;  0.0000000E+00;  0.0000000E+00;  1.0070769E+03;  1.0000000E-01;  5.8630439E+03;0;  0.0000000E+00;  0.0000000E+00;  0.0000000E+00;0; -2.5120627E-02;  4.0000000E+04;  0.0000000E+00;  0.0000000E+00;  4.0000000E+04;  0.0000000E+00;  4.0000000E+04; -2.5807222E-02;  0.0000000E+00;  6.8659469E-04;  2.7178638E+03;
 -2.9999999E-02;  9.9999998E-03;  2.0000000E-01;1610;  0.0000000E+00;  0.0000000E+00;  0.0000000E+00;  1.0066967E+03;  1.0000000E-01;  5.5480898E+03;0;  0.0000000E+00;  0.0000000E+00;  0.0000000E+00;0; -2.4158580E-02;  4.0000000E+04;  0.0000000E+00;  0.0000000E+00;  4.0000000E+04;  0.0000000E+00;  4.0000000E+04; -2.4713362E-02;  0.0000000E+00;  5.5478152E-04;  2.8828193E+03;
 -2.9999999E-02;  9.9999998E-03;  2.0999999E-01;1611;  0.0000000E+00;  0.0000000E+00;  0.0000000E+00;  1.0062993E+03;  1.0000000E-01;  5.2188154E+03;0;  0.0000000E+00;  0.0000000E+00;  0.0000000E+00;0; -2.3114491E-02;  4.0000000E+04;  0.0000000E+00;  0.0000000E+00;  4.0000000E+04;  0.0000000E+00;  4.0000000E+04; -2.3492586E-02;  0.0000000E+00;  3.7809537E-04;  2.9756570E+03;
 -2.9999999E-02;  9.9999998E-03;  2.2000000E-01;1612;  0.0000000E+00;  0.0000000E+00;  0.0000000E+00;  1.0058933E+03;  1.0000000E-01;  4.8825288E+03;0;  0.0000000E+00;  0.0000000E+00;  0.0000000E+00;0; -2.1995779E-02;  4.0000000E+04;  0.0000000E+00;  0.0000000E+00;  4.0000000E+04;  0.0000000E+00;  4.0000000E+04; -2.2151897E-02;  0.0000000E+00;  1.5611752E-04;  2.9610864E+03;
 -2.9999999E-02;  9.9999998E-03;  2.3000000E-01;1613;  0.0000000E+00;  0.0000000E+00;  0.0000000E+00;  1.0054888E+03;  1.0000000E-01;  4.5473281E+03;0;  0.0000000E+00;  0.0000000E+00;  0.0000000E+00;0; -2.0807598E-02;  4.0000000E+04;  0.0000000E+00;  0.0000000E+00;  4.0000000E+04;  0.0000000E+00;  4.0000000E+04; -2.0700928E-02;  0.0000000E+00; -1.0666938E-04;  2.8075830E+03;
 -2.0000000E-02;  9.9999998E-03;  7.0000000E-02;1688;  0.0000000E+00;  0.0000000E+00;  0.0000000E+00;  1.0107639E+03;  1.0000000E-01;  8.9176738E+03;0;  0.0000000E+00;  0.0000000E+00;  0.0000000E+00;0; -3.7215889E-02;  4.0000000E+04;  0.0000000E+00;  0.0000000E+00;  4.0000000E+04;  0.0000000E+00;  4.0000000E+04; -3.8299542E-02;  0.0000000E+00;  1.0836537E-03;  1.7231324E+03;
 -2.0000000E-02;  9.9999998E-03;  7.9999998E-02;1689;  0.0000000E+00;  0.0000000E+00;  0.0000000E+00;  1.0108387E+03;  1.0000000E-01;  8.9796963E+03;0;  0.0000000E+00;  0.0000000E+00;  0.0000000E+00;0; -3.7062284E-02;  4.0000000E+04;  0.0000000E+00;  0.0000000E+00;  4.0000000E+04;  0.0000000E+00;  4.0000000E+04; -3.8138341E-02;  0.0000000E+00;  1.0760592E-03;  1.6579054E+03;
 -2.0000000E-02;  9.9999998E-03;  9.0000004E-02;1690;  0.0000000E+00;  0.0000000E+00;  0.0000000E+00;  1.0109045E+03;  1.0000000E-01;  9.0341152E+03;0;  0.0000000E+00;  0.0000000E+00;  0.0000000E+00;0; -3.6887433E-02;  4.0000000E+04;  0.0000000E+00;  0.0000000E+00;  4.0000000E+04;  0.0000000E+00;  4.0000000E+04; -3.7962515E-02;  0.0000000E+00;  1.0750802E-03;  1.6206630E+03;
 -2.0000000E-02;  9.9999998E-03;  1.0000000E-01;1691;  0.0000000E+00;  0.0000000E+00;  0.0000000E+00;  1.0109507E+03;  1.0000000E-01;  9.0724346E+03;0;  0.0000000E+00;  0.0000000E+00;  0.0000000E+00;0; -3.6684640E-02;  4.0000000E+04;  0.0000000E+00;  0.0000000E+00;  4.0000000E+04;  0.0000000E+00;  4.0000000E+04; -3.7763808E-02;  0.0000000E+00;  1.0791699E-03;  1.6132960E+03;
 -2.0000000E-02;  9.9999998E-03;  1.1000000E-01;1692;  0.0000000E+00;  0.0000000E+00;  0.0000000E+00;  1.0109666E+03;  1.0000000E-01;  9.0855703E+03;0;  0.0000000E+00;  0.0000000E+00;  0.0000000E+00;0; -3.6443364E-02;  4.0000000E+04;  0.0000000E+00;  0.0000000E+00;  4.0000000E+04;  0.0000000E+00;  4.0000000E+04; -3.7529390E-02;  0.0000000E+00;  1.0860256E-03;  1.6357312E+03;
 -2.0000000E-02;  9.9999998E-03;  1.2000000E-01;1693;  0.0000000E+00;  0.0000000E+00;  0.0000000E+00;  1.0109353E+03;  1.0000000E-01;  9.0596943E+03;0;  0.0000000E+00;  0.0000000E+00;  0.0000000E+00;0; -3.6149088E-02;  4.0000000E+04;  0.0000000E+00;  0.0000000E+00;  4.0000000E+04;  0.0000000E+00;  4.0000000E+04; -3.7242085E-02;  0.0000000E+00;  1.0929960E-03;  1.6877488E+03;
 -2.0000000E-02;  9.9999998E-03;  1.3000000E-01;1694;  0.0000000E+00;  0.0000000E+00;  0.0000000E+00;  1.0108500E+03;  1.0000000E-01;  8.9890791E+03;0;  0.0000000E+00;  0.0000000E+00;  0.0000000E+00;0; -3.5784412E-02;  4.0000000E+04;  0.0000000E+00;  0.0000000E+00;  4.0000000E+04;  0.0000000E+00;  4.0000000E+04; -3.6881741E-02;  0.0000000E+00;  1.0973297E-03;  1.7705740E+03;
 -2.0000000E-02;  9.9999998E-03;  1.4000000E-01;1695;  0.0000000E+00;  0.0000000E+00;  0.0000000E+00;  1.0107034E+03;  1.0000000E-01;  8.8676006E+03;0;  0.0000000E+00;  0.0000000E+00;  0.0000000E+00;0; -3.5330601E-02;  4.0000000E+04;  0.0000000E+00;  0.0000000E+00;  4.0000000E+04;  0.0000000E+00;  4.0000000E+04; -3.6426742E-02;  0.0000000E+00;  1.0961397E-03;  1.8874011E+03;
 -2.0000000E-02;  9.9999998E-03;  1.5000001E-01;1696;  0.0000000E+00;  0.0000000E+00;  0.0000000E+00;  1.0104893E+03;  1.0000000E-01;  8.6902236E+03;0;  0.0000000E+00;  0.0000000E+00;  0.0000000E+00;0; -3.4770444E-02;  4.0000000E+04;  0.0000000E+00;  0.0000000E+00;  4.0000000E+04;  0.0000000E+00;  4.0000000E+04; -3.5856232E-02;  0.0000000E+00;  1.0857893E-03;  2.0422141E+03;
 -2.0000000E-02;  9.9999998E-03;  1.6000000E-01;1697;  0.0000000E+00;  0.0000000E+00;  0.0000000E+00;  1.0102076E+03;  1.0000000E-01;  8.4567480E+03;0;  0.0000000E+00;  0.0000000E+00;  0.0000000E+00;0; -3.4090988E-02;  4.0000000E+04;  0.0000000E+00;  0.0000000E+00;  4.0000000E+04;  0.0000000E+00;  4.0000000E+04; -3.5152026E-02;  0.0000000E+00;  1.0610364E-03;  2.2361155E+03;
 -2.0000000E-02;  9.9999998E-03;  1.7000000E-01;1698;  0.0000000E+00;  0.0000000E+00;  0.0000000E+00;  1.0098635E+03;  1.0000000E-01;  8.1717197E+03;0;  0.0000000E+00;  0.0000000E+00;  0.0000000E+00;0; -3.3284988E-02;  4.0000000E+04;  0.0000000E+00;  0.0000000E+00;  4.0000000E+04;  0.0000000E+00;  4.0000000E+04; -3.4299530E-02;  0.0000000E+00;  1.0145409E-03;  2.4636648E+03;
 -2.0000000E-02;  9.9999998E-03;  1.8000001E-01;1699;  0.0000000E+00;  0.0000000E+00;  0.0000000E+00;  1.0094740E+03;  1.0000000E-01;  7.8490620E+03;0;  0.0000000E+00;  0.0000000E+00;  0.0000000E+00;0; -3.2350942E-02;  4.0000000E+04;  0.0000000E+00;  0.0000000E+00;  4.0000000E+04;  0.0000000E+00;  4.0000000E+04; -3.3288367E-02;  0.0000000E+00;  9.3742297E-04;  2.7117251E+03;
 -2.0000000E-02;  9.9999998E-03;  1.9000000E-01;1700;  0.0000000E+00;  0.0000000E+00;  0.0000000E+00;  1.0090409E+03;  1.0000000E-01;  7.4902573E+03;0;  0.0000000E+00;  0.0000000E+00;  0.0000000E+00;0; -3.1292230E-02;  4.0000000E+04;  0.0000000E+00;  0.0000000E+00;  4.0000000E+04;  0.0000000E+00;  4.0000000E+04; -3.2112587E-02;  0.0000000E+00;  8.2035700E-04;  2.9585730E+03;
 -2.0000000E-02;  9.9999998E-03;  2.0000000E-01;1701;  0.0000000E+00;  0.0000000E+00;  0.0000000E+00;  1.0085703E+03;  1.0000000E-01;  7.1003423E+03;0;  0.0000000E+00;  0.0000000E+00;  0.0000000E+00;0; -3.0116117E-02;  4.0000000E+04;  0.0000000E+00;  0.0000000E+00;  4.0000000E+04;  0.0000000E+00;  4.0000000E+04; -3.0771164E-02;  0.0000000E+00;  6.5504690E-04;  3.1733345E+03;
 -2.0000000E-02;  9.9999998E-03;  2.0999999E-01;1702;  0.0000000E+00;  0.0000000E+00;  0.0000000E+00;  1.0080797E+03;  1.0000000E-01;  6.6939341E+03;0;  0.0000000E+00;  0.0000000E+00;  0.0000000E+00;0; -2.8831763E-02;  4.0000000E+04;  0.0000000E+00;  0.0000000E+00;  4.0000000E+04;  0.0000000E+00;  4.0000000E+04; -2.9267699E-02;  0.0000000E+00;  4.3593522E-04;  3.3170605E+03;
 -2.0000000E-02;  9.9999998E-03;  2.2000000E-01;1703;  0.0000000E+00;  0.0000000E+00;  0.0000000E+00;  1.0075726E+03;  1.0000000E-01;  6.2737979E+03;0;  0.0000000E+00;  0.0000000E+00;  0.0000000E+00;0; -2.7448447E-02;  4.0000000E+04;  0.0000000E+00;  0.0000000E+00;  4.0000000E+04;  0.0000000E+00;  4.0000000E+04; -2.7610384E-02;  0.0000000E+00;  1.6193620E-04;  3.3460916E+03;
 -2.0000000E-02;  9.9999998E-03;  2.3000000E-01;1704;  0.0000000E+00;  0.0000000E+00;  0.0000000E+00;  1.0070630E+03;  1.0000000E-01;  5.8515874E+03;0;  0.0000000E+00;  0.0000000E+00;  0.0000000E+00;0; -2.5973180E-02;  4.0000000E+04;  0.0000000E+00;  0.0000000E+00;  4.0000000E+04;  0.0000000E+00;  4.0000000E+04; -2.5811078E-02;  0.0000000E+00; -1.6210275E-04;  3.2181294E+03;
 -9.9999998E-03;  9.9999998E-03;  7.0000000E-02;1779;  0.0000000E+00;  0.0000000E+00;  0.0000000E+00;  1.0130725E+03;  1.0000000E-01;  1.0830311E+04;0;  0.0000000E+00;  0.0000000E+00;  0.0000000E+00;0; -4.4429161E-02;  4.0000000E+04;  0.0000000E+00;  0.0000000E+00;  4.0000000E+04;  0.0000000E+00;  4.0000000E+04; -4.5799907E-02;  0.0000000E+00;  1.3707480E-03;  1.6638541E+03;
 -9.9999998E-03;  9.9999998E-03;  7.9999998E-02;1780;  0.0000000E+00;  0.0000000E+00;  0.0000000E+00;  1.0131677E+03;  1.0000000E-01;  1.0909124E+04;0;  0.0000000E+00;  0.0000000E+00;  0.0000000E+00;0; -4.4257961E-02;  4.0000000E+04;  0.0000000E+00;  0.0000000E+00;  4.0000000E+04;  0.0000000E+00;  4.0000000E+04; -4.5616750E-02;  0.0000000E+00;  1.3587876E-03;  1.6002156E+03;
 -9.9999998E-03;  9.9999998E-03;  9.0000004E-02;1781;  0.0000000E+00;  0.0000000E+00;  0.0000000E+00;  1.0132504E+03;  1.0000000E-01;  1.0977665E+04;0;  0.0000000E+00;  0.0000000E+00;  0.0000000E+00;0; -4.4063162E-02;  4.0000000E+04;  0.0000000E+00;  0.0000000E+00;  4.0000000E+04;  0.0000000E+00;  4.0000000E+04; -4.5415606E-02;  0.0000000E+00;  1.3524453E-03;  1.5694978E+03;
 -9.9999998E-03;  9.9999998E-03;  1.0000000E-01;1782;  0.0000000E+00;  0.0000000E+00;  0.0000000E+00;  1.0133149E+03;  1.0000000E-01;  1.1031096E+04;0;  0.0000000E+00;  0.0000000E+00;  0.0000000E+00;0; -4.3837249E-02;  4.0000000E+04;  0.0000000E+00;  0.0000000E+00;  4.0000000E+04;  0.0000000E+00;  4.0000000E+04; -4.5186903E-02;  0.0000000E+00;  1.3496527E-03;  1.5718213E+03;
 -9.9999998E-03;  9.9999998E-03;  1.1000000E-01;1783;  0.0000000E+00;  0.0000000E+00;  0.0000000E+00;  1.0133441E+03;  1.0000000E-01;  1.1055391E+04;0;  0.0000000E+00;  0.0000000E+00;  0.0000000E+00;0; -4.3568186E-02;  4.0000000E+04;  0.0000000E+00;  0.0000000E+00;  4.0000000E+04;  0.0000000E+00;  4.0000000E+04; -4.4915948E-02;  0.0000000E+00;  1.3477625E-03;  1.6049762E+03;
 -9.9999998E-03;  9.9999998E-03;  1.2000000E-01;1784;  0.0000000E+00;  0.0000000E+00;  0.0000000E+00;  1.0133237E+03;  1.0000000E-01;  1.1038404E+04;0;  0.0000000E+00;  0.0000000E+00;  0.0000000E+00;0; -4.3238778E-02;  4.0000000E+04;  0.0000000E+00;  0.0000000E+00;  4.0000000E+04;  0.0000000E+00;  4.0000000E+04; -4.4582825E-02;  0.0000000E+00;  1.3440484E-03;  1.6667490E+03;
 -9.9999998E-03;  9.9999998E-03;  1.3000000E-01;1785;  0.0000000E+00;  0.0000000E+00;  0.0000000E+00;  1.0132372E+03;  1.0000000E-01;  1.0966801E+04;0;  0.0000000E+00;  0.0000000E+00;  0.0000000E+00;0; -4.2828362E-02;  4.0000000E+04;  0.0000000E+00;  0.0000000E+00;  4.0000000E+04;  0.0000000E+00;  4.0000000E+04; -4.4164341E-02;  0.0000000E+00;  1.3359792E-03;  1.7572582E+03;
 -9.9999998E-03;  9.9999998E-03;  1.4000000E-01;1786;  0.0000000E+00;  0.0000000E+00;  0.0000000E+00;  1.0130768E+03;  1.0000000E-01;  1.0833965E+04;0;  0.0000000E+00;  0.0000000E+00;  0.0000000E+00;0; -4.2314120E-02;  4.0000000E+04;  0.0000000E+00;  0.0000000E+00;  4.0000000E+04;  0.0000000E+00;  4.0000000E+04; -4.3635163E-02;  0.0000000E+00;  1.3210452E-03;  1.8802488E+03;
 -9.9999998E-03;  9.9999998E-03;  1.5000001E-01;1787;  0.0000000E+00;  0.0000000E+00;  0.0000000E+00;  1.0128384E+03;  1.0000000E-01;  1.0636341E+04;0;  0.0000000E+00;  0.0000000E+00;  0.0000000E+00;0; -4.1674715E-02;  4.0000000E+04;  0.0000000E+00;  0.0000000E+00;  4.0000000E+04;  0.0000000E+00;  4.0000000E+04; -4.2970605E-02;  0.0000000E+00;  1.2958922E-03;  2.0418723E+03;
 -9.9999998E-03;  9.9999998E-03;  1.6000000E-01;1788;  0.0000000E+00;  0.0000000E+00;  0.0000000E+00;  1.0125157E+03;  1.0000000E-01;  1.0369090E+04;0;  0.0000000E+00;  0.0000000E+00;  0.0000000E+00;0; -4.0893696E-02;  4.0000000E+04;  0.0000000E+00;  0.0000000E+00;  4.0000000E+04;  0.0000000E+00;  4.0000000E+04; -4.2148765E-02;  0.0000000E+00;  1.2550673E-03;  2.2461736E+03;
 -9.9999998E-03;  9.9999998E-03;  1.7000000E-01;1789;  0.0000000E+00;  0.0000000E+00;  0.0000000E+00;  1.0121162E+03;  1.0000000E-01;  1.0038037E+04;0;  0.0000000E+00;  0.0000000E+00;  0.0000000E+00;0; -3.9960407E-02;  4.0000000E+04;  0.0000000E+00;  0.0000000E+00;  4.0000000E+04;  0.0000000E+00;  4.0000000E+04; -4.1150868E-02;  0.0000000E+00;  1.1904604E-03;  2.4915515E+03;
 -9.9999998E-03;  9.9999998E-03;  1.8000001E-01;1790;  0.0000000E+00;  0.0000000E+00;  0.0000000E+00;  1.0116509E+03;  1.0000000E-01;  9.6525664E+03;0;  0.0000000E+00;  0.0000000E+00;  0.0000000E+00;0; -3.8871210E-02;  4.0000000E+04;  0.0000000E+00;  0.0000000E+00;  4.0000000E+04;  0.0000000E+00;  4.0000000E+04; -3.9963074E-02;  0.0000000E+00;  1.0918630E-03;  2.7686594E+03;
 -9.9999998E-03;  9.9999998E-03;  1.9000000E-01;1791;  0.0000000E+00;  0.0000000E+00;  0.0000000E+00;  1.0111320E+03;  1.0000000E-01;  9.2226523E+03;0;  0.0000000E+00;  0.0000000E+00;  0.0000000E+00;0; -3.7628170E-02;  4.0000000E+04;  0.0000000E+00;  0.0000000E+00;  4.0000000E+04;  0.0000000E+00;  4.0000000E+04; -3.8576338E-02;  0.0000000E+00;  9.4816776E-04;  3.0579617E+03;
 -9.9999998E-03;  9.9999998E-03;  2.0000000E-01;1792;  0.0000000E+00;  0.0000000E+00;  0.0000000E+00;  1.0105719E+03;  1.0000000E-01;  8.7586660E+03;0;  0.0000000E+00;  0.0000000E+00;  0.0000000E+00;0; -3.6238350E-02;  4.0000000E+04;  0.0000000E+00;  0.0000000E+00;  4.0000000E+04;  0.0000000E+00;  4.0000000E+04; -3.6987450E-02;  0.0000000E+00;  7.4909837E-04;  3.3280054E+03;
 -9.9999998E-03;  9.9999998E-03;  2.0999999E-01;1793;  0.0000000E+00;  0.0000000E+00;  0.0000000E+00;  1.0099816E+03;  1.0000000E-01;  8.2695938E+03;0;  0.0000000E+00;  0.0000000E+00;  0.0000000E+00;0; -3.4711983E-02;  4.0000000E+04;  0.0000000E+00;  0.0000000E+00;  4.0000000E+04;  0.0000000E+00;  4.0000000E+04; -3.5199318E-02;  0.0000000E+00;  4.8733642E-04;  3.5352935E+03;
 -9.9999998E-03;  9.9999998E-03;  2.2000000E-01;1794;  0.0000000E+00;  0.0000000E+00;  0.0000000E+00;  1.0093752E+03;  1.0000000E-01;  7.7671875E+03;0;  0.0000000E+00;  0.0000000E+00;  0.0000000E+00;0; -3.3059821E-02;  4.0000000E+04;  0.0000000E+00;  0.0000000E+00;  4.0000000E+04;  0.0000000E+00;  4.0000000E+04; -3.3220541E-02;  0.0000000E+00;  1.6071962E-04;  3.6273203E+03;
 -9.9999998E-03;  9.9999998E-03;  2.3000000E-01;1795;  0.0000000E+00;  0.0000000E+00;  0.0000000E+00;  1.0087587E+03;  1.0000000E-01;  7.2563872E+03;0;  0.0000000E+00;  0.0000000E+00;  0.0000000E+00;0; -3.1290770E-02;  4.0000000E+04;  0.0000000E+00;  0.0000000E+00;  4.0000000E+04;  0.0000000E+00;  4.0000000E+04; -3.1064911E-02;  0.0000000E+00; -2.2585924E-04;  3.5497263E+03;
 -1.9000000E-01;  9.9999998E-03;  2.3999999E-01;158;  0.0000000E+00;  0.0000000E+00;  0.0000000E+00;  1.0000000E+03;  1.0000000E-01;  0.0000000E+00;0;  0.0000000E+00;  0.0000000E+00;  0.0000000E+00;0;  0.0000000E+00;  4.0000000E+04;  0.0000000E+00;  0.0000000E+00;  4.0000000E+04;  0.0000000E+00;  4.0000000E+04;  0.0000000E+00;  0.0000000E+00;  0.0000000E+00;  0.0000000E+00;
 -1.9000000E-01;  9.9999998E-03;  2.5000000E-01;159;  0.0000000E+00;  0.0000000E+00;  0.0000000E+00;  1.0000000E+03;  1.0000000E-01;  0.0000000E+00;0;  0.0000000E+00;  0.0000000E+00;  0.0000000E+00;0;  0.0000000E+00;  4.0000000E+04;  0.0000000E+00;  0.0000000E+00;  4.0000000E+04;  0.0000000E+00;  4.0000000E+04;  0.0000000E+00;  0.0000000E+00;  0.0000000E+00;  0.0000000E+00;
 -1.9000000E-01;  9.9999998E-03;  2.5999999E-01;160;  0.0000000E+00;  0.0000000E+00;  0.0000000E+00;  1.0000000E+03;  1.0000000E-01;  0.0000000E+00;0;  0.0000000E+00;  0.0000000E+00;  0.0000000E+00;0;  0.0000000E+00;  4.0000000E+04;  0.0000000E+00;  0.0000000E+00;  4.0000000E+04;  0.0000000E+00;  4.0000000E+04;  0.0000000E+00;  0.0000000E+00;  0.0000000E+00;  0.0000000E+00;
 -1.9000000E-01;  9.9999998E-03;  2.7000001E-01;161;  0.0000000E+00;  0.0000000E+00;  0.0000000E+00;  1.0000000E+03;  1.0000000E-01;  0.0000000E+00;0;  0.0000000E+00;  0.0000000E+00;  0.0000000E+00;0;  0.0000000E+00;  4.0000000E+04;  0.0000000E+00;  0.0000000E+00;  4.0000000E+04;  0.0000000E+00;  4.0000000E+04;  0.0000000E+00;  0.0000000E+00;  0.0000000E+00;  0.0000000E+00;
 -1.9000000E-01;  9.9999998E-03;  2.8000000E-01;162;  0.0000000E+00;  0.0000000E+00;  0.0000000E+00;  1.0000000E+03;  1.0000000E-01;  0.0000000E+00;0;  0.0000000E+00;  0.0000000E+00;  0.0000000E+00;0;  0.0000000E+00;  4.0000000E+04;  0.0000000E+00;  0.0000000E+00;  4.0000000E+04;  0.0000000E+00;  4.0000000E+04;  0.0000000E+00;  0.0000000E+00;  0.0000000E+00;  0.0000000E+00;
 -1.9000000E-01;  9.9999998E-03;  2.8999999E-01;163;  0.0000000E+00;  0.0000000E+00;  0.0000000E+00;  1.0000000E+03;  1.0000000E-01;  0.0000000E+00;0;  0.0000000E+00;  0.0000000E+00;  0.0000000E+00;0;  0.0000000E+00;  4.0000000E+04;  0.0000000E+00;  0.0000000E+00;  4.0000000E+04;  0.0000000E+00;  4.0000000E+04;  0.0000000E+00;  0.0000000E+00;  0.0000000E+00;  0.0000000E+00;
 -1.9000000E-01;  9.9999998E-03;  3.0000001E-01;164;  0.0000000E+00;  0.0000000E+00;  0.0000000E+00;  1.0000000E+03;  1.0000000E-01;  0.0000000E+00;0;  0.0000000E+00;  0.0000000E+00;  0.0000000E+00;0;  0.0000000E+00;  4.0000000E+04;  0.0000000E+00;  0.0000000E+00;  4.0000000E+04;  0.0000000E+00;  4.0000000E+04;  0.0000000E+00;  0.0000000E+00;  0.0000000E+00;  0.0000000E+00;
 -1.9000000E-01;  9.9999998E-03;  3.1000000E-01;165;  0.0000000E+00;  0.0000000E+00;  0.0000000E+00;  1.0000000E+03;  1.0000000E-01;  0.0000000E+00;0;  0.0000000E+00;  0.0000000E+00;  0.0000000E+00;0;  0.0000000E+00;  4.0000000E+04;  0.0000000E+00;  0.0000000E+00;  4.0000000E+04;  0.0000000E+00;  4.0000000E+04;  0.0000000E+00;  0.0000000E+00;  0.0000000E+00;  0.0000000E+00;
 -1.9000000E-01;  9.9999998E-03;  3.1999999E-01;166;  0.0000000E+00;  0.0000000E+00;  0.0000000E+00;  1.0000000E+03;  1.0000000E-01;  0.0000000E+00;0;  0.0000000E+00;  0.0000000E+00;  0.0000000E+00;0;  0.0000000E+00;  4.0000000E+04;  0.0000000E+00;  0.0000000E+00;  4.0000000E+04;  0.0000000E+00;  4.0000000E+04;  0.0000000E+00;  0.0000000E+00;  0.0000000E+00;  0.0000000E+00;
 -1.9000000E-01;  9.9999998E-03;  3.3000001E-01;167;  0.0000000E+00;  0.0000000E+00;  0.0000000E+00;  1.0000000E+03;  1.0000000E-01;  0.0000000E+00;0;  0.0000000E+00;  0.0000000E+00;  0.0000000E+00;0;  0.0000000E+00;  4.0000000E+04;  0.0000000E+00;  0.0000000E+00;  4.0000000E+04;  0.0000000E+00;  4.0000000E+04;  0.0000000E+00;  0.0000000E+00;  0.0000000E+00;  0.0000000E+00;
 -1.9000000E-01;  9.9999998E-03;  3.4000000E-01;168;  0.0000000E+00;  0.0000000E+00;  0.0000000E+00;  1.0000000E+03;  1.0000000E-01;  0.0000000E+00;0;  0.0000000E+00;  0.0000000E+00;  0.0000000E+00;0;  0.0000000E+00;  4.0000000E+04;  0.0000000E+00;  0.0000000E+00;  4.0000000E+04;  0.0000000E+00;  4.0000000E+04;  0.0000000E+00;  0.0000000E+00;  0.0000000E+00;  0.0000000E+00;
 -1.9000000E-01;  9.9999998E-03;  3.4999999E-01;169;  0.0000000E+00;  0.0000000E+00;  0.0000000E+00;  1.0000000E+03;  1.0000000E-01;  0.0000000E+00;0;  0.0000000E+00;  0.0000000E+00;  0.0000000E+00;0;  0.0000000E+00;  4.0000000E+04;  0.0000000E+00;  0.0000000E+00;  4.0000000E+04;  0.0000000E+00;  4.0000000E+04;  0.0000000E+00;  0.0000000E+00;  0.0000000E+00;  0.0000000E+00;
 -1.9000000E-01;  9.9999998E-03;  3.6000001E-01;170;  0.0000000E+00;  0.0000000E+00;  0.0000000E+00;  1.0000000E+03;  1.0000000E-01;  0.0000000E+00;0;  0.0000000E+00;  0.0000000E+00;  0.0000000E+00;0;  0.0000000E+00;  4.0000000E+04;  0.0000000E+00;  0.0000000E+00;  4.0000000E+04;  0.0000000E+00;  4.0000000E+04;  0.0000000E+00;  0.0000000E+00;  0.0000000E+00;  0.0000000E+00;
 -1.9000000E-01;  9.9999998E-03;  3.7000000E-01;171;  0.0000000E+00;  0.0000000E+00;  0.0000000E+00;  1.0000000E+03;  1.0000000E-01;  0.0000000E+00;0;  0.0000000E+00;  0.0000000E+00;  0.0000000E+00;0;  0.0000000E+00;  4.0000000E+04;  0.0000000E+00;  0.0000000E+00;  4.0000000E+04;  0.0000000E+00;  4.0000000E+04;  0.0000000E+00;  0.0000000E+00;  0.0000000E+00;  0.0000000E+00;
 -1.9000000E-01;  9.9999998E-03;  3.8000000E-01;172;  0.0000000E+00;  0.0000000E+00;  0.0000000E+00;  1.0000000E+03;  1.0000000E-01;  0.0000000E+00;0;  0.0000000E+00;  0.0000000E+00;  0.0000000E+00;0;  0.0000000E+00;  4.0000000E+04;  0.0000000E+00;  0.0000000E+00;  4.0000000E+04;  0.0000000E+00;  4.0000000E+04;  0.0000000E+00;  0.0000000E+00;  0.0000000E+00;  0.0000000E+00;
 -1.9000000E-01;  9.9999998E-03;  3.8999999E-01;173;  0.0000000E+00;  0.0000000E+00;  0.0000000E+00;  1.0000000E+03;  1.0000000E-01;  0.0000000E+00;0;  0.0000000E+00;  0.0000000E+00;  0.0000000E+00;0;  0.0000000E+00;  4.0000000E+04;  0.0000000E+00;  0.0000000E+00;  4.0000000E+04;  0.0000000E+00;  4.0000000E+04;  0.0000000E+00;  0.0000000E+00;  0.0000000E+00;  0.0000000E+00;
 -1.9000000E-01;  9.9999998E-03;  4.0000001E-01;174;  0.0000000E+00;  0.0000000E+00;  0.0000000E+00;  1.0000000E+03;  1.0000000E-01;  0.0000000E+00;0;  0.0000000E+00;  0.0000000E+00;  0.0000000E+00;0;  0.0000000E+00;  4.0000000E+04;  0.0000000E+00;  0.0000000E+00;  4.0000000E+04;  0.0000000E+00;  4.0000000E+04;  0.0000000E+00;  0.0000000E+00;  0.0000000E+00;  0.0000000E+00;
 -1.8000001E-01;  9.9999998E-03;  2.3999999E-01;249;  0.0000000E+00;  0.0000000E+00;  0.0000000E+00;  1.0000000E+03;  1.0000000E-01;  0.0000000E+00;0;  0.0000000E+00;  0.0000000E+00;  0.0000000E+00;0;  0.0000000E+00;  4.0000000E+04;  0.0000000E+00;  0.0000000E+00;  4.0000000E+04;  0.0000000E+00;  4.0000000E+04;  0.0000000E+00;  0.0000000E+00;  0.0000000E+00;  0.0000000E+00;
 -1.8000001E-01;  9.9999998E-03;  2.5000000E-01;250;  0.0000000E+00;  0.0000000E+00;  0.0000000E+00;  1.0000000E+03;  1.0000000E-01;  0.0000000E+00;0;  0.0000000E+00;  0.0000000E+00;  0.0000000E+00;0;  0.0000000E+00;  4.0000000E+04;  0.0000000E+00;  0.0000000E+00;  4.0000000E+04;  0.0000000E+00;  4.0000000E+04;  0.0000000E+00;  0.0000000E+00;  0.0000000E+00;  0.0000000E+00;
 -1.8000001E-01;  9.9999998E-03;  2.5999999E-01;251;  0.0000000E+00;  0.0000000E+00;  0.0000000E+00;  1.0000000E+03;  1.0000000E-01;  0.0000000E+00;0;  0.0000000E+00;  0.0000000E+00;  0.0000000E+00;0;  0.0000000E+00;  4.0000000E+04;  0.0000000E+00;  0.0000000E+00;  4.0000000E+04;  0.0000000E+00;  4.0000000E+04;  0.0000000E+00;  0.0000000E+00;  0.0000000E+00;  0.0000000E+00;
 -1.8000001E-01;  9.9999998E-03;  2.7000001E-01;252;  0.0000000E+00;  0.0000000E+00;  0.0000000E+00;  1.0000000E+03;  1.0000000E-01;  0.0000000E+00;0;  0.0000000E+00;  0.0000000E+00;  0.0000000E+00;0;  0.0000000E+00;  4.0000000E+04;  0.0000000E+00;  0.0000000E+00;  4.0000000E+04;  0.0000000E+00;  4.0000000E+04;  0.0000000E+00;  0.0000000E+00;  0.0000000E+00;  0.0000000E+00;
 -1.8000001E-01;  9.9999998E-03;  2.8000000E-01;253;  0.0000000E+00;  0.0000000E+00;  0.0000000E+00;  1.0000000E+03;  1.0000000E-01;  0.0000000E+00;0;  0.0000000E+00;  0.0000000E+00;  0.0000000E+00;0;  0.0000000E+00;  4.0000000E+04;  0.0000000E+00;  0.0000000E+00;  4.0000000E+04;  0.0000000E+00;  4.0000000E+04;  0.0000000E+00;  0.0000000E+00;  0.0000000E+00;  0.0000000E+00;
 -1.8000001E-01;  9.9999998E-03;  2.8999999E-01;254;  0.0000000E+00;  0.0000000E+00;  0.0000000E+00;  1.0000000E+03;  1.0000000E-01;  0.0000000E+00;0;  0.0000000E+00;  0.0000000E+00;  0.0000000E+00;0;  0.0000000E+00;  4.0000000E+04;  0.0000000E+00;  0.0000000E+00;  4.0000000E+04;  0.0000000E+00;  4.0000000E+04;  0.0000000E+00;  0.0000000E+00;  0.0000000E+00;  0.0000000E+00;
 -1.8000001E-01;  9.9999998E-03;  3.0000001E-01;255;  0.0000000E+00;  0.0000000E+00;  0.0000000E+00;  1.0000000E+03;  1.0000000E-01;  0.0000000E+00;0;  0.0000000E+00;  0.0000000E+00;  0.0000000E+00;0;  0.0000000E+00;  4.0000000E+04;  0.0000000E+00;  0.0000000E+00;  4.0000000E+04;  0.0000000E+00;  4.0000000E+04;  0.0000000E+00;  0.0000000E+00;  0.0000000E+00;  0.0000000E+00;
 -1.8000001E-01;  9.9999998E-03;  3.1000000E-01;256;  0.0000000E+00;  0.0000000E+00;  0.0000000E+00;  1.0000000E+03;  1.0000000E-01;  0.0000000E+00;0;  0.0000000E+00;  0.0000000E+00;  0.0000000E+00;0;  0.0000000E+00;  4.0000000E+04;  0.0000000E+00;  0.0000000E+00;  4.0000000E+04;  0.0000000E+00;  4.0000000E+04;  0.0000000E+00;  0.0000000E+00;  0.0000000E+00;  0.0000000E+00;
 -1.8000001E-01;  9.9999998E-03;  3.1999999E-01;257;  0.0000000E+00;  0.0000000E+00;  0.0000000E+00;  1.0000000E+03;  1.0000000E-01;  0.0000000E+00;0;  0.0000000E+00;  0.0000000E+00;  0.0000000E+00;0;  0.0000000E+00;  4.0000000E+04;  0.0000000E+00;  0.0000000E+00;  4.0000000E+04;  0.0000000E+00;  4.0000000E+04;  0.0000000E+00;  0.0000000E+00;  0.0000000E+00;  0.0000000E+00;
 -1.8000001E-01;  9.9999998E-03;  3.3000001E-01;258;  0.0000000E+00;  0.0000000E+00;  0.0000000E+00;  1.0000000E+03;  1.0000000E-01;  0.0000000E+00;0;  0.0000000E+00;  0.0000000E+00;  0.0000000E+00;0;  0.0000000E+00;  4.0000000E+04;  0.0000000E+00;  0.0000000E+00;  4.0000000E+04;  0.0000000E+00;  4.0000000E+04;  0.0000000E+00;  0.0000000E+00;  0.0000000E+00;  0.0000000E+00;
 -1.8000001E-01;  9.9999998E-03;  3.4000000E-01;259;  0.0000000E+00;  0.0000000E+00;  0.0000000E+00;  1.0000000E+03;  1.0000000E-01;  0.0000000E+00;0;  0.0000000E+00;  0.0000000E+00;  0.0000000E+00;0;  0.0000000E+00;  4.0000000E+04;  0.0000000E+00;  0.0000000E+00;  4.0000000E+04;  0.0000000E+00;  4.0000000E+04;  0.0000000E+00;  0.0000000E+00;  0.0000000E+00;  0.0000000E+00;
 -1.8000001E-01;  9.9999998E-03;  3.4999999E-01;260;  0.0000000E+00;  0.0000000E+00;  0.0000000E+00;  1.0000000E+03;  1.0000000E-01;  0.0000000E+00;0;  0.0000000E+00;  0.0000000E+00;  0.0000000E+00;0;  0.0000000E+00;  4.0000000E+04;  0.0000000E+00;  0.0000000E+00;  4.0000000E+04;  0.0000000E+00;  4.0000000E+04;  0.0000000E+00;  0.0000000E+00;  0.0000000E+00;  0.0000000E+00;
 -1.8000001E-01;  9.9999998E-03;  3.6000001E-01;261;  0.0000000E+00;  0.0000000E+00;  0.0000000E+00;  1.0000000E+03;  1.0000000E-01;  0.0000000E+00;0;  0.0000000E+00;  0.0000000E+00;  0.0000000E+00;0;  0.0000000E+00;  4.0000000E+04;  0.0000000E+00;  0.0000000E+00;  4.0000000E+04;  0.0000000E+00;  4.0000000E+04;  0.0000000E+00;  0.0000000E+00;  0.0000000E+00;  0.0000000E+00;
 -1.8000001E-01;  9.9999998E-03;  3.7000000E-01;262;  0.0000000E+00;  0.0000000E+00;  0.0000000E+00;  1.0000000E+03;  1.0000000E-01;  0.0000000E+00;0;  0.0000000E+00;  0.0000000E+00;  0.0000000E+00;0;  0.0000000E+00;  4.0000000E+04;  0.0000000E+00;  0.0000000E+00;  4.0000000E+04;  0.0000000E+00;  4.0000000E+04;  0.0000000E+00;  0.0000000E+00;  0.0000000E+00;  0.0000000E+00;
 -1.8000001E-01;  9.9999998E-03;  3.8000000E-01;263;  0.0000000E+00;  0.0000000E+00;  0.0000000E+00;  1.0000000E+03;  1.0000000E-01;  0.0000000E+00;0;  0.0000000E+00;  0.0000000E+00;  0.0000000E+00;0;  0.0000000E+00;  4.0000000E+04;  0.0000000E+00;  0.0000000E+00;  4.0000000E+04;  0.0000000E+00;  4.0000000E+04;  0.0000000E+00;  0.0000000E+00;  0.0000000E+00;  0.0000000E+00;
 -1.8000001E-01;  9.9999998E-03;  3.8999999E-01;264;  0.0000000E+00;  0.0000000E+00;  0.0000000E+00;  1.0000000E+03;  1.0000000E-01;  0.0000000E+00;0;  0.0000000E+00;  0.0000000E+00;  0.0000000E+00;0;  0.0000000E+00;  4.0000000E+04;  0.0000000E+00;  0.0000000E+00;  4.0000000E+04;  0.0000000E+00;  4.0000000E+04;  0.0000000E+00;  0.0000000E+00;  0.0000000E+00;  0.0000000E+00;
 -1.8000001E-01;  9.9999998E-03;  4.0000001E-01;265;  0.0000000E+00;  0.0000000E+00;  0.0000000E+00;  1.0000000E+03;  1.0000000E-01;  0.0000000E+00;0;  0.0000000E+00;  0.0000000E+00;  0.0000000E+00;0;  0.0000000E+00;  4.0000000E+04;  0.0000000E+00;  0.0000000E+00;  4.0000000E+04;  0.0000000E+00;  4.0000000E+04;  0.0000000E+00;  0.0000000E+00;  0.0000000E+00;  0.0000000E+00;
 -1.7000000E-01;  9.9999998E-03;  2.3999999E-01;340;  0.0000000E+00;  0.0000000E+00;  0.0000000E+00;  1.0000000E+03;  1.0000000E-01;  0.0000000E+00;0;  0.0000000E+00;  0.0000000E+00;  0.0000000E+00;0;  0.0000000E+00;  4.0000000E+04;  0.0000000E+00;  0.0000000E+00;  4.0000000E+04;  0.0000000E+00;  4.0000000E+04;  0.0000000E+00;  0.0000000E+00;  0.0000000E+00;  7.1569556E-10;
 -1.7000000E-01;  9.9999998E-03;  2.5000000E-01;341;  0.0000000E+00;  0.0000000E+00;  0.0000000E+00;  1.0000000E+03;  1.0000000E-01;  0.0000000E+00;0;  0.0000000E+00;  0.0000000E+00;  0.0000000E+00;0;  0.0000000E+00;  4.0000000E+04;  0.0000000E+00;  0.0000000E+00;  4.0000000E+04;  0.0000000E+00;  4.0000000E+04;  0.0000000E+00;  0.0000000E+00;  0.0000000E+00;  4.6691867E-10;
 -1.7000000E-01;  9.9999998E-03;  2.5999999E-01;342;  0.0000000E+00;  0.0000000E+00;  0.0000000E+00;  1.0000000E+03;  1.0000000E-01;  0.0000000E+00;0;  0.0000000E+00;  0.0000000E+00;  0.0000000E+00;0;  0.0000000E+00;  4.0000000E+04;  0.0000000E+00;  0.0000000E+00;  4.0000000E+04;  0.0000000E+00;  4.0000000E+04;  0.0000000E+00;  0.0000000E+00;  0.0000000E+00;  2.4656574E-10;
 -1.7000000E-01;  9.9999998E-03;  2.7000001E-01;343;  0.0000000E+00;  0.0000000E+00;  0.0000000E+00;  1.0000000E+03;  1.0000000E-01;  0.0000000E+00;0;  0.0000000E+00;  0.0000000E+00;  0.0000000E+00;0;  0.0000000E+00;  4.0000000E+04;  0.0000000E+00;  0.0000000E+00;  4.0000000E+04;  0.0000000E+00;  4.0000000E+04;  0.0000000E+00;  0.0000000E+00;  0.0000000E+00;  9.0626097E-11;
 -1.7000000E-01;  9.9999998E-03;  2.8000000E-01;344;  0.0000000E+00;  0.0000000E+00;  0.0000000E+00;  1.0000000E+03;  1.0000000E-01;  0.0000000E+00;0;  0.0000000E+00;  0.0000000E+00;  0.0000000E+00;0;  0.0000000E+00;  4.0000000E+04;  0.0000000E+00;  0.0000000E+00;  4.0000000E+04;  0.0000000E+00;  4.0000000E+04;  0.0000000E+00;  0.0000000E+00;  0.0000000E+00;  1.4966250E-11;
 -1.7000000E-01;  9.9999998E-03;  2.8999999E-01;345;  0.0000000E+00;  0.0000000E+00;  0.0000000E+00;  1.0000000E+03;  1.0000000E-01;  0.0000000E+00;0;  0.0000000E+00;  0.0000000E+00;  0.0000000E+00;0;  0.0000000E+00;  4.0000000E+04;  0.0000000E+00;  0.0000000E+00;  4.0000000E+04;  0.0000000E+00;  4.0000000E+04;  0.0000000E+00;  0.0000000E+00;  0.0000000E+00;  6.8908875E-14;
 -1.7000000E-01;  9.9999998E-03;  3.0000001E-01;346;  0.0000000E+00;  0.0000000E+00;  0.0000000E+00;  1.0000000E+03;  1.0000000E-01;  0.0000000E+00;0;  0.0000000E+00;  0.0000000E+00;  0.0000000E+00;0;  0.0000000E+00;  4.0000000E+04;  0.0000000E+00;  0.0000000E+00;  4.0000000E+04;  0.0000000E+00;  4.0000000E+04;  0.0000000E+00;  0.0000000E+00;  0.0000000E+00;  0.0000000E+00;
 -1.7000000E-01;  9.9999998E-03;  3.1000000E-01;347;  0.0000000E+00;  0.0000000E+00;  0.0000000E+00;  1.0000000E+03;  1.0000000E-01;  0.0000000E+00;0;  0.0000000E+00;  0.0000000E+00;  0.0000000E+00;0;  0.0000000E+00;  4.0000000E+04;  0.0000000E+00;  0.0000000E+00;  4.0000000E+04;  0.0000000E+00;  4.0000000E+04;  0.0000000E+00;  0.0000000E+00;  0.0000000E+00;  0.0000000E+00;
 -1.7000000E-01;  9.9999998E-03;  3.1999999E-01;348;  0.0000000E+00;  0.0000000E+00;  0.0000000E+00;  1.0000000E+03;  1.0000000E-01;  0.0000000E+00;0;  0.0000000E+00;  0.0000000E+00;  0.0000000E+00;0;  0.0000000E+00;  4.0000000E+04;  0.0000000E+00;  0.0000000E+00;  4.0000000E+04;  0.0000000E+00;  4.0000000E+04;  0.0000000E+00;  0.0000000E+00;  0.0000000E+00;  0.0000000E+00;
 -1.7000000E-01;  9.9999998E-03;  3.3000001E-01;349;  0.0000000E+00;  0.0000000E+00;  0.0000000E+00;  1.0000000E+03;  1.0000000E-01;  0.0000000E+00;0;  0.0000000E+00;  0.0000000E+00;  0.0000000E+00;0;  0.0000000E+00;  4.0000000E+04;  0.0000000E+00;  0.0000000E+00;  4.0000000E+04;  0.0000000E+00;  4.0000000E+04;  0.0000000E+00;  0.0000000E+00;  0.0000000E+00;  0.0000000E+00;
 -1.7000000E-01;  9.9999998E-03;  3.4000000E-01;350;  0.0000000E+00;  0.0000000E+00;  0.0000000E+00;  1.0000000E+03;  1.0000000E-01;  0.0000000E+00;0;  0.0000000E+00;  0.0000000E+00;  0.0000000E+00;0;  0.0000000E+00;  4.0000000E+04;  0.0000000E+00;  0.0000000E+00;  4.0000000E+04;  0.0000000E+00;  4.0000000E+04;  0.0000000E+00;  0.0000000E+00;  0.0000000E+00;  0.0000000E+00;
 -1.7000000E-01;  9.9999998E-03;  3.4999999E-01;351;  0.0000000E+00;  0.0000000E+00;  0.0000000E+00;  1.0000000E+03;  1.0000000E-01;  0.0000000E+00;0;  0.0000000E+00;  0.0000000E+00;  0.0000000E+00;0;  0.0000000E+00;  4.0000000E+04;  0.0000000E+00;  0.0000000E+00;  4.0000000E+04;  0.0000000E+00;  4.0000000E+04;  0.0000000E+00;  0.0000000E+00;  0.0000000E+00;  0.0000000E+00;
 -1.7000000E-01;  9.9999998E-03;  3.6000001E-01;352;  0.0000000E+00;  0.0000000E+00;  0.0000000E+00;  1.0000000E+03;  1.0000000E-01;  0.0000000E+00;0;  0.0000000E+00;  0.0000000E+00;  0.0000000E+00;0;  0.0000000E+00;  4.0000000E+04;  0.0000000E+00;  0.0000000E+00;  4.0000000E+04;  0.0000000E+00;  4.0000000E+04;  0.0000000E+00;  0.0000000E+00;  0.0000000E+00;  0.0000000E+00;
 -1.7000000E-01;  9.9999998E-03;  3.7000000E-01;353;  0.0000000E+00;  0.0000000E+00;  0.0000000E+00;  1.0000000E+03;  1.0000000E-01;  0.0000000E+00;0;  0.0000000E+00;  0.0000000E+00;  0.0000000E+00;0;  0.0000000E+00;  4.0000000E+04;  0.0000000E+00;  0.0000000E+00;  4.0000000E+04;  0.0000000E+00;  4.0000000E+04;  0.0000000E+00;  0.0000000E+00;  0.0000000E+00;  0.0000000E+00;
 -1.7000000E-01;  9.9999998E-03;  3.8000000E-01;354;  0.0000000E+00;  0.0000000E+00;  0.0000000E+00;  1.0000000E+03;  1.0000000E-01;  0.0000000E+00;0;  0.0000000E+00;  0.0000000E+00;  0.0000000E+00;0;  0.0000000E+00;  4.0000000E+04;  0.0000000E+00;  0.0000000E+00;  4.0000000E+04;  0.0000000E+00;  4.0000000E+04;  0.0000000E+00;  0.0000000E+00;  0.0000000E+00;  0.0000000E+00;
 -1.7000000E-01;  9.9999998E-03;  3.8999999E-01;355;  0.0000000E+00;  0.0000000E+00;  0.0000000E+00;  1.0000000E+03;  1.0000000E-01;  0.0000000E+00;0;  0.0000000E+00;  0.0000000E+00;  0.0000000E+00;0;  0.0000000E+00;  4.0000000E+04;  0.0000000E+00;  0.0000000E+00;  4.0000000E+04;  0.0000000E+00;  4.0000000E+04;  0.0000000E+00;  0.0000000E+00;  0.0000000E+00;  0.0000000E+00;
 -1.7000000E-01;  9.9999998E-03;  4.0000001E-01;356;  0.0000000E+00;  0.0000000E+00;  0.0000000E+00;  1.0000000E+03;  1.0000000E-01;  0.0000000E+00;0;  0.0000000E+00;  0.0000000E+00;  0.0000000E+00;0;  0.0000000E+00;  4.0000000E+04;  0.0000000E+00;  0.0000000E+00;  4.0000000E+04;  0.0000000E+00;  4.0000000E+04;  0.0000000E+00;  0.0000000E+00;  0.0000000E+00;  0.0000000E+00;
 -1.6000000E-01;  9.9999998E-03;  2.3999999E-01;431;  0.0000000E+00;  0.0000000E+00;  0.0000000E+00;  1.0000000E+03;  1.0000000E-01;  0.0000000E+00;0;  0.0000000E+00;  0.0000000E+00;  0.0000000E+00;0; -2.0176488E-07;  4.0000000E+04;  0.0000000E+00;  0.0000000E+00;  4.0000000E+04;  0.0000000E+00;  4.0000000E+04; -2.1789042E-07;  0.0000000E+00;  1.6125536E-08;  1.8493855E-01;
 -1.6000000E-01;  9.9999998E-03;  2.5000000E-01;432;  0.0000000E+00;  0.0000000E+00;  0.0000000E+00;  1.0000000E+03;  1.0000000E-01;  0.0000000E+00;0;  0.0000000E+00;  0.0000000E+00;  0.0000000E+00;0; -2.5595779E-07;  4.0000000E+04;  0.0000000E+00;  0.0000000E+00;  4.0000000E+04;  0.0000000E+00;  4.0000000E+04; -2.7305015E-07;  0.0000000E+00;  1.7092374E-08;  1.5355606E-01;
 -1.6000000E-01;  9.9999998E-03;  2.5999999E-01;433;  0.0000000E+00;  0.0000000E+00;  0.0000000E+00;  1.0000000E+03;  1.0000000E-01;  0.0000000E+00;0;  0.0000000E+00;  0.0000000E+00;  0.0000000E+00;0; -3.3188431E-07;  4.0000000E+04;  0.0000000E+00;  0.0000000E+00;  4.0000000E+04;  0.0000000E+00;  4.0000000E+04; -3.4450238E-07;  0.0000000E+00;  1.2618065E-08;  1.0452877E-01;
 -1.6000000E-01;  9.9999998E-03;  2.7000001E-01;434;  0.0000000E+00;  0.0000000E+00;  0.0000000E+00;  1.0000000E+03;  1.0000000E-01;  0.0000000E+00;0;  0.0000000E+00;  0.0000000E+00;  0.0000000E+00;0; -3.9771243E-07;  4.0000000E+04;  0.0000000E+00;  0.0000000E+00;  4.0000000E+04;  0.0000000E+00;  4.0000000E+04; -3.9832861E-07;  0.0000000E+00;  6.1617200E-10;  4.0122956E-02;
 -1.6000000E-01;  9.9999998E-03;  2.8000000E-01;435;  0.0000000E+00;  0.0000000E+00;  0.0000000E+00;  1.0000000E+03;  1.0000000E-01;  0.0000000E+00;0;  0.0000000E+00;  0.0000000E+00;  0.0000000E+00;0; -4.2098739E-07;  4.0000000E+04;  0.0000000E+00;  0.0000000E+00;  4.0000000E+04;  0.0000000E+00;  4.0000000E+04; -4.0593221E-07;  0.0000000E+00; -1.5055170E-08;  2.3648243E-02;
 -1.6000000E-01;  9.9999998E-03;  2.8999999E-01;436;  0.0000000E+00;  0.0000000E+00;  0.0000000E+00;  1.0000000E+03;  1.0000000E-01;  0.0000000E+00;0;  0.0000000E+00;  0.0000000E+00;  0.0000000E+00;0; -3.8527116E-07;  4.0000000E+04;  0.0000000E+00;  0.0000000E+00;  4.0000000E+04;  0.0000000E+00;  4.0000000E+04; -3.5793946E-07;  0.0000000E+00; -2.7331698E-08;  6.6966787E-02;
 -1.6000000E-01;  9.9999998E-03;  3.0000001E-01;437;  0.0000000E+00;  0.0000000E+00;  0.0000000E+00;  1.0000000E+03;  1.0000000E-01;  0.0000000E+00;0;  0.0000000E+00;  0.0000000E+00;  0.0000000E+00;0; -2.9790968E-07;  4.0000000E+04;  0.0000000E+00;  0.0000000E+00;  4.0000000E+04;  0.0000000E+00;  4.0000000E+04; -2.6717288E-07;  0.0000000E+00; -3.0736803E-08;  7.8912176E-02;
 -1.6000000E-01;  9.9999998E-03;  3.1000000E-01;438;  0.0000000E+00;  0.0000000E+00;  0.0000000E+00;  1.0000000E+03;  1.0000000E-01;  0.0000000E+00;0;  0.0000000E+00;  0.0000000E+00;  0.0000000E+00;0; -1.8668770E-07;  4.0000000E+04;  0.0000000E+00;  0.0000000E+00;  4.0000000E+04;  0.0000000E+00;  4.0000000E+04; -1.6191639E-07;  0.0000000E+00; -2.4771316E-08;  6.3292153E-02;
 -1.6000000E-01;  9.9999998E-03;  3.1999999E-01;439;  0.0000000E+00;  0.0000000E+00;  0.0000000E+00;  1.0000000E+03;  1.0000000E-01;  0.0000000E+00;0;  0.0000000E+00;  0.0000000E+00;  0.0000000E+00;0; -8.6874579E-08;  4.0000000E+04;  0.0000000E+00;  0.0000000E+00;  4.0000000E+04;  0.0000000E+00;  4.0000000E+04; -7.2939898E-08;  0.0000000E+00; -1.3934684E-08;  3.5394639E-02;
 -1.6000000E-01;  9.9999998E-03;  3.3000001E-01;440;  0.0000000E+00;  0.0000000E+00;  0.0000000E+00;  1.0000000E+03;  1.0000000E-01;  0.0000000E+00;0;  0.0000000E+00;  0.0000000E+00;  0.0000000E+00;0; -2.4145036E-08;  4.0000000E+04;  0.0000000E+00;  0.0000000E+00;  4.0000000E+04;  0.0000000E+00;  4.0000000E+04; -1.9600826E-08;  0.0000000E+00; -4.5442108E-09;  1.1973927E-02;
 -1.6000000E-01;  9.9999998E-03;  3.4000000E-01;441;  0.0000000E+00;  0.0000000E+00;  0.0000000E+00;  1.0000000E+03;  1.0000000E-01;  0.0000000E+00;0;  0.0000000E+00;  0.0000000E+00;  0.0000000E+00;0; -1.6025049E-09;  4.0000000E+04;  0.0000000E+00;  0.0000000E+00;  4.0000000E+04;  0.0000000E+00;  4.0000000E+04; -1.2421305E-09;  0.0000000E+00; -3.6037440E-10;  1.3451102E-03;
 -1.6000000E-01;  9.9999998E-03;  3.4999999E-01;442;  0.0000000E+00;  0.0000000E+00;  0.0000000E+00;  1.0000000E+03;  1.0000000E-01;  0.0000000E+00;0;  0.0000000E+00;  0.0000000E+00;  0.0000000E+00;0;  0.0000000E+00;  4.0000000E+04;  0.0000000E+00;  0.0000000E+00;  4.0000000E+04;  0.0000000E+00;  4.0000000E+04;  0.0000000E+00;  0.0000000E+00;  0.0000000E+00;  0.0000000E+00;
 -1.6000000E-01;  9.9999998E-03;  3.6000001E-01;443;  0.0000000E+00;  0.0000000E+00;  0.0000000E+00;  1.0000000E+03;  1.0000000E-01;  0.0000000E+00;0;  0.0000000E+00;  0.0000000E+00;  0.0000000E+00;0;  0.0000000E+00;  4.0000000E+04;  0.0000000E+00;  0.0000000E+00;  4.0000000E+04;  0.0000000E+00;  4.0000000E+04;  0.0000000E+00;  0.0000000E+00;  0.0000000E+00;  0.0000000E+00;
 -1.6000000E-01;  9.9999998E-03;  3.7000000E-01;444;  0.0000000E+00;  0.0000000E+00;  0.0000000E+00;  1.0000000E+03;  1.0000000E-01;  0.0000000E+00;0;  0.0000000E+00;  0.0000000E+00;  0.0000000E+00;0;  0.0000000E+00;  4.0000000E+04;  0.0000000E+00;  0.0000000E+00;  4.0000000E+04;  0.0000000E+00;  4.0000000E+04;  0.0000000E+00;  0.0000000E+00;  0.0000000E+00;  0.0000000E+00;
 -1.6000000E-01;  9.9999998E-03;  3.8000000E-01;445;  0.0000000E+00;  0.0000000E+00;  0.0000000E+00;  1.0000000E+03;  1.0000000E-01;  0.0000000E+00;0;  0.0000000E+00;  0.0000000E+00;  0.0000000E+00;0;  0.0000000E+00;  4.0000000E+04;  0.0000000E+00;  0.0000000E+00;  4.0000000E+04;  0.0000000E+00;  4.0000000E+04;  0.0000000E+00;  0.0000000E+00;  0.0000000E+00;  0.0000000E+00;
 -1.6000000E-01;  9.9999998E-03;  3.8999999E-01;446;  0.0000000E+00;  0.0000000E+00;  0.0000000E+00;  1.0000000E+03;  1.0000000E-01;  0.0000000E+00;0;  0.0000000E+00;  0.0000000E+00;  0.0000000E+00;0;  0.0000000E+00;  4.0000000E+04;  0.0000000E+00;  0.0000000E+00;  4.0000000E+04;  0.0000000E+00;  4.0000000E+04;  0.0000000E+00;  0.0000000E+00;  0.0000000E+00;  0.0000000E+00;
 -1.6000000E-01;  9.9999998E-03;  4.0000001E-01;447;  0.0000000E+00;  0.0000000E+00;  0.0000000E+00;  1.0000000E+03;  1.0000000E-01;  0.0000000E+00;0;  0.0000000E+00;  0.0000000E+00;  0.0000000E+00;0;  0.0000000E+00;  4.0000000E+04;  0.0000000E+00;  0.0000000E+00;  4.0000000E+04;  0.0000000E+00;  4.0000000E+04;  0.0000000E+00;  0.0000000E+00;  0.0000000E+00;  0.0000000E+00;
 -1.5000001E-01;  9.9999998E-03;  2.3999999E-01;522;  0.0000000E+00;  0.0000000E+00;  0.0000000E+00;  1.0000000E+03;  1.0000000E-01;  0.0000000E+00;0;  0.0000000E+00;  0.0000000E+00;  0.0000000E+00;0; -4.3026048E-06;  4.0000000E+04;  0.0000000E+00;  0.0000000E+00;  4.0000000E+04;  0.0000000E+00;  4.0000000E+04; -4.5230827E-06;  0.0000000E+00;  2.2047792E-07;  2.6087012E+00;
 -1.5000001E-01;  9.9999998E-03;  2.5000000E-01;523;  0.0000000E+00;  0.0000000E+00;  0.0000000E+00;  1.0000000E+03;  1.0000000E-01;  0.0000000E+00;0;  0.0000000E+00;  0.0000000E+00;  0.0000000E+00;0; -4.5746278E-06;  4.0000000E+04;  0.0000000E+00;  0.0000000E+00;  4.0000000E+04;  0.0000000E+00;  4.0000000E+04; -4.6877608E-06;  0.0000000E+00;  1.1313281E-07;  1.9648988E+00;
 -1.5000001E-01;  9.9999998E-03;  2.5999999E-01;524;  0.0000000E+00;  0.0000000E+00;  0.0000000E+00;  1.0000000E+03;  1.0000000E-01;  0.0000000E+00;0;  0.0000000E+00;  0.0000000E+00;  0.0000000E+00;0; -4.9111377E-06;  4.0000000E+04;  0.0000000E+00;  0.0000000E+00;  4.0000000E+04;  0.0000000E+00;  4.0000000E+04; -4.8650272E-06;  0.0000000E+00; -4.6110358E-08;  1.1814872E+00;
 -1.5000001E-01;  9.9999998E-03;  2.7000001E-01;525;  0.0000000E+00;  0.0000000E+00;  0.0000000E+00;  1.0000000E+03;  1.0000000E-01;  0.0000000E+00;0;  0.0000000E+00;  0.0000000E+00;  0.0000000E+00;0; -5.1454208E-06;  4.0000000E+04;  0.0000000E+00;  0.0000000E+00;  4.0000000E+04;  0.0000000E+00;  4.0000000E+04; -4.9141681E-06;  0.0000000E+00; -2.3125276E-07;  3.5086647E-01;
 -1.5000001E-01;  9.9999998E-03;  2.8000000E-01;526;  0.0000000E+00;  0.0000000E+00;  0.0000000E+00;  1.0000000E+03;  1.0000000E-01;  0.0000000E+00;0;  0.0000000E+00;  0.0000000E+00;  0.0000000E+00;0; -5.1154943E-06;  4.0000000E+04;  0.0000000E+00;  0.0000000E+00;  4.0000000E+04;  0.0000000E+00;  4.0000000E+04; -4.7131111E-06;  0.0000000E+00; -4.0238322E-07;  3.9848411E-01;
 -1.5000001E-01;  9.9999998E-03;  2.8999999E-01;527;  0.0000000E+00;  0.0000000E+00;  0.0000000E+00;  1.0000000E+03;  1.0000000E-01;  0.0000000E+00;0;  0.0000000E+00;  0.0000000E+00;  0.0000000E+00;0; -4.7282574E-06;  4.0000000E+04;  0.0000000E+00;  0.0000000E+00;  4.0000000E+04;  0.0000000E+00;  4.0000000E+04; -4.2102370E-06;  0.0000000E+00; -5.1802033E-07;  9.3656158E-01;
 -1.5000001E-01;  9.9999998E-03;  3.0000001E-01;528;  0.0000000E+00;  0.0000000E+00;  0.0000000E+00;  1.0000000E+03;  1.0000000E-01;  0.0000000E+00;0;  0.0000000E+00;  0.0000000E+00;  0.0000000E+00;0; -3.9942151E-06;  4.0000000E+04;  0.0000000E+00;  0.0000000E+00;  4.0000000E+04;  0.0000000E+00;  4.0000000E+04; -3.4437173E-06;  0.0000000E+00; -5.5049776E-07;  1.1847035E+00;
 -1.5000001E-01;  9.9999998E-03;  3.1000000E-01;529;  0.0000000E+00;  0.0000000E+00;  0.0000000E+00;  1.0000000E+03;  1.0000000E-01;  0.0000000E+00;0;  0.0000000E+00;  0.0000000E+00;  0.0000000E+00;0; -3.0262709E-06;  4.0000000E+04;  0.0000000E+00;  0.0000000E+00;  4.0000000E+04;  0.0000000E+00;  4.0000000E+04; -2.5291988E-06;  0.0000000E+00; -4.9707211E-07;  1.1444844E+00;
 -1.5000001E-01;  9.9999998E-03;  3.1999999E-01;530;  0.0000000E+00;  0.0000000E+00;  0.0000000E+00;  1.0000000E+03;  1.0000000E-01;  0.0000000E+00;0;  0.0000000E+00;  0.0000000E+00;  0.0000000E+00;0; -2.0033419E-06;  4.0000000E+04;  0.0000000E+00;  0.0000000E+00;  4.0000000E+04;  0.0000000E+00;  4.0000000E+04; -1.6225619E-06;  0.0000000E+00; -3.8078014E-07;  8.9687055E-01;
 -1.5000001E-01;  9.9999998E-03;  3.3000001E-01;531;  0.0000000E+00;  0.0000000E+00;  0.0000000E+00;  1.0000000E+03;  1.0000000E-01;  0.0000000E+00;0;  0.0000000E+00;  0.0000000E+00;  0.0000000E+00;0; -1.1105428E-06;  4.0000000E+04;  0.0000000E+00;  0.0000000E+00;  4.0000000E+04;  0.0000000E+00;  4.0000000E+04; -8.6969408E-07;  0.0000000E+00; -2.4084878E-07;  5.6711406E-01;
 -1.5000001E-01;  9.9999998E-03;  3.4000000E-01;532;  0.0000000E+00;  0.0000000E+00;  0.0000000E+00;  1.0000000E+03;  1.0000000E-01;  0.0000000E+00;0;  0.0000000E+00;  0.0000000E+00;  0.0000000E+00;0; -4.7722347E-07;  4.0000000E+04;  0.0000000E+00;  0.0000000E+00;  4.0000000E+04;  0.0000000E+00;  4.0000000E+04; -3.5954423E-07;  0.0000000E+00; -1.1767925E-07;  2.7471644E-01;
 -1.5000001E-01;  9.9999998E-03;  3.4999999E-01;533;  0.0000000E+00;  0.0000000E+00;  0.0000000E+00;  1.0000000E+03;  1.0000000E-01;  0.0000000E+00;0;  0.0000000E+00;  0.0000000E+00;  0.0000000E+00;0; -1.3524068E-07;  4.0000000E+04;  0.0000000E+00;  0.0000000E+00;  4.0000000E+04;  0.0000000E+00;  4.0000000E+04; -9.7245433E-08;  0.0000000E+00; -3.7995246E-08;  8.9468583E-02;
 -1.5000001E-01;  9.9999998E-03;  3.6000001E-01;534;  0.0000000E+00;  0.0000000E+00;  0.0000000E+00;  1.0000000E+03;  1.0000000E-01;  0.0000000E+00;0;  0.0000000E+00;  0.0000000E+00;  0.0000000E+00;0; -1.5862202E-08;  4.0000000E+04;  0.0000000E+00;  0.0000000E+00;  4.0000000E+04;  0.0000000E+00;  4.0000000E+04; -1.0829075E-08;  0.0000000E+00; -5.0331277E-09;  1.3408256E-02;
 -1.5000001E-01;  9.9999998E-03;  3.7000000E-01;535;  0.0000000E+00;  0.0000000E+00;  0.0000000E+00;  1.0000000E+03;  1.0000000E-01;  0.0000000E+00;0;  0.0000000E+00;  0.0000000E+00;  0.0000000E+00;0;  0.0000000E+00;  4.0000000E+04;  0.0000000E+00;  0.0000000E+00;  4.0000000E+04;  0.0000000E+00;  4.0000000E+04;  0.0000000E+00;  0.0000000E+00;  0.0000000E+00;  3.0836869E-09;
 -1.5000001E-01;  9.9999998E-03;  3.8000000E-01;536;  0.0000000E+00;  0.0000000E+00;  0.0000000E+00;  1.0000000E+03;  1.0000000E-01;  0.0000000E+00;0;  0.0000000E+00;  0.0000000E+00;  0.0000000E+00;0;  0.0000000E+00;  4.0000000E+04;  0.0000000E+00;  0.0000000E+00;  4.0000000E+04;  0.0000000E+00;  4.0000000E+04;  0.0000000E+00;  0.0000000E+00;  0.0000000E+00;  0.0000000E+00;
 -1.5000001E-01;  9.9999998E-03;  3.8999999E-01;537;  0.0000000E+00;  0.0000000E+00;  0.0000000E+00;  1.0000000E+03;  1.0000000E-01;  0.0000000E+00;0;  0.0000000E+00;  0.0000000E+00;  0.0000000E+00;0;  0.0000000E+00;  4.0000000E+04;  0.0000000E+00;  0.0000000E+00;  4.0000000E+04;  0.0000000E+00;  4.0000000E+04;  0.0000000E+00;  0.0000000E+00;  0.0000000E+00;  0.0000000E+00;
 -1.5000001E-01;  9.9999998E-03;  4.0000001E-01;538;  0.0000000E+00;  0.0000000E+00;  0.0000000E+00;  1.0000000E+03;  1.0000000E-01;  0.0000000E+00;0;  0.0000000E+00;  0.0000000E+00;  0.0000000E+00;0;  0.0000000E+00;  4.0000000E+04;  0.0000000E+00;  0.0000000E+00;  4.0000000E+04;  0.0000000E+00;  4.0000000E+04;  0.0000000E+00;  0.0000000E+00;  0.0000000E+00;  0.0000000E+00;
 -1.4000000E-01;  9.9999998E-03;  2.3999999E-01;613;  0.0000000E+00;  0.0000000E+00;  0.0000000E+00;  1.0000000E+03;  1.0000000E-01;  0.0000000E+00;0;  0.0000000E+00;  0.0000000E+00;  0.0000000E+00;0; -2.6820970E-05;  4.0000000E+04;  0.0000000E+00;  0.0000000E+00;  4.0000000E+04;  0.0000000E+00;  4.0000000E+04; -2.7548929E-05;  0.0000000E+00;  7.2795950E-07;  1.2109385E+01;
 -1.4000000E-01;  9.9999998E-03;  2.5000000E-01;614;  0.0000000E+00;  0.0000000E+00;  0.0000000E+00;  1.0000000E+03;  1.0000000E-01;  0.0000000E+00;0;  0.0000000E+00;  0.0000000E+00;  0.0000000E+00;0; -2.6820691E-05;  4.0000000E+04;  0.0000000E+00;  0.0000000E+00;  4.0000000E+04;  0.0000000E+00;  4.0000000E+04; -2.6850594E-05;  0.0000000E+00;  2.9903191E-08;  8.9829006E+00;
 -1.4000000E-01;  9.9999998E-03;  2.5999999E-01;615;  0.0000000E+00;  0.0000000E+00;  0.0000000E+00;  1.0000000E+03;  1.0000000E-01;  0.0000000E+00;0;  0.0000000E+00;  0.0000000E+00;  0.0000000E+00;0; -2.6907497E-05;  4.0000000E+04;  0.0000000E+00;  0.0000000E+00;  4.0000000E+04;  0.0000000E+00;  4.0000000E+04; -2.6102189E-05;  0.0000000E+00; -8.0530884E-07;  5.3418756E+00;
 -1.4000000E-01;  9.9999998E-03;  2.7000001E-01;616;  0.0000000E+00;  0.0000000E+00;  0.0000000E+00;  1.0000000E+03;  1.0000000E-01;  0.0000000E+00;0;  0.0000000E+00;  0.0000000E+00;  0.0000000E+00;0; -2.6604957E-05;  4.0000000E+04;  0.0000000E+00;  0.0000000E+00;  4.0000000E+04;  0.0000000E+00;  4.0000000E+04; -2.4943751E-05;  0.0000000E+00; -1.6612069E-06;  1.5634750E+00;
 -1.4000000E-01;  9.9999998E-03;  2.8000000E-01;617;  0.0000000E+00;  0.0000000E+00;  0.0000000E+00;  1.0000000E+03;  1.0000000E-01;  0.0000000E+00;0;  0.0000000E+00;  0.0000000E+00;  0.0000000E+00;0; -2.5489000E-05;  4.0000000E+04;  0.0000000E+00;  0.0000000E+00;  4.0000000E+04;  0.0000000E+00;  4.0000000E+04; -2.3092089E-05;  0.0000000E+00; -2.3969110E-06;  1.8739260E+00;
 -1.4000000E-01;  9.9999998E-03;  2.8999999E-01;618;  0.0000000E+00;  0.0000000E+00;  0.0000000E+00;  1.0000000E+03;  1.0000000E-01;  0.0000000E+00;0;  0.0000000E+00;  0.0000000E+00;  0.0000000E+00;0; -2.3320728E-05;  4.0000000E+04;  0.0000000E+00;  0.0000000E+00;  4.0000000E+04;  0.0000000E+00;  4.0000000E+04; -2.0437696E-05;  0.0000000E+00; -2.8830325E-06;  4.5019202E+00;
 -1.4000000E-01;  9.9999998E-03;  3.0000001E-01;619;  0.0000000E+00;  0.0000000E+00;  0.0000000E+00;  1.0000000E+03;  1.0000000E-01;  0.0000000E+00;0;  0.0000000E+00;  0.0000000E+00;  0.0000000E+00;0; -2.0119065E-05;  4.0000000E+04;  0.0000000E+00;  0.0000000E+00;  4.0000000E+04;  0.0000000E+00;  4.0000000E+04; -1.7080933E-05;  0.0000000E+00; -3.0381320E-06;  6.0062003E+00;
 -1.4000000E-01;  9.9999998E-03;  3.1000000E-01;620;  0.0000000E+00;  0.0000000E+00;  0.0000000E+00;  1.0000000E+03;  1.0000000E-01;  0.0000000E+00;0;  0.0000000E+00;  0.0000000E+00;  0.0000000E+00;0; -1.6162981E-05;  4.0000000E+04;  0.0000000E+00;  0.0000000E+00;  4.0000000E+04;  0.0000000E+00;  4.0000000E+04; -1.3308365E-05;  0.0000000E+00; -2.8546160E-06;  6.3173642E+00;
 -1.4000000E-01;  9.9999998E-03;  3.1999999E-01;621;  0.0000000E+00;  0.0000000E+00;  0.0000000E+00;  1.0000000E+03;  1.0000000E-01;  0.0000000E+00;0;  0.0000000E+00;  0.0000000E+00;  0.0000000E+00;0; -1.1919083E-05;  4.0000000E+04;  0.0000000E+00;  0.0000000E+00;  4.0000000E+04;  0.0000000E+00;  4.0000000E+04; -9.5195364E-06;  0.0000000E+00; -2.3995465E-06;  5.6273928E+00;
 -1.4000000E-01;  9.9999998E-03;  3.3000001E-01;622;  0.0000000E+00;  0.0000000E+00;  0.0000000E+00;  1.0000000E+03;  1.0000000E-01;  0.0000000E+00;0;  0.0000000E+00;  0.0000000E+00;  0.0000000E+00;0; -7.9139099E-06;  4.0000000E+04;  0.0000000E+00;  0.0000000E+00;  4.0000000E+04;  0.0000000E+00;  4.0000000E+04; -6.1235164E-06;  0.0000000E+00; -1.7903940E-06;  4.3136053E+00;
 -1.4000000E-01;  9.9999998E-03;  3.4000000E-01;623;  0.0000000E+00;  0.0000000E+00;  0.0000000E+00;  1.0000000E+03;  1.0000000E-01;  0.0000000E+00;0;  0.0000000E+00;  0.0000000E+00;  0.0000000E+00;0; -4.5940337E-06;  4.0000000E+04;  0.0000000E+00;  0.0000000E+00;  4.0000000E+04;  0.0000000E+00;  4.0000000E+04; -3.4339569E-06;  0.0000000E+00; -1.1600769E-06;  2.8152726E+00;
 -1.4000000E-01;  9.9999998E-03;  3.4999999E-01;624;  0.0000000E+00;  0.0000000E+00;  0.0000000E+00;  1.0000000E+03;  1.0000000E-01;  0.0000000E+00;0;  0.0000000E+00;  0.0000000E+00;  0.0000000E+00;0; -2.2167194E-06;  4.0000000E+04;  0.0000000E+00;  0.0000000E+00;  4.0000000E+04;  0.0000000E+00;  4.0000000E+04; -1.5931795E-06;  0.0000000E+00; -6.2353990E-07;  1.5068992E+00;
 -1.4000000E-01;  9.9999998E-03;  3.6000001E-01;625;  0.0000000E+00;  0.0000000E+00;  0.0000000E+00;  1.0000000E+03;  1.0000000E-01;  0.0000000E+00;0;  0.0000000E+00;  0.0000000E+00;  0.0000000E+00;0; -8.0251527E-07;  4.0000000E+04;  0.0000000E+00;  0.0000000E+00;  4.0000000E+04;  0.0000000E+00;  4.0000000E+04; -5.5026129E-07;  0.0000000E+00; -2.5225401E-07;  6.0599375E-01;
 -1.4000000E-01;  9.9999998E-03;  3.7000000E-01;626;  0.0000000E+00;  0.0000000E+00;  0.0000000E+00;  1.0000000E+03;  1.0000000E-01;  0.0000000E+00;0;  0.0000000E+00;  0.0000000E+00;  0.0000000E+00;0; -1.6771948E-07;  4.0000000E+04;  0.0000000E+00;  0.0000000E+00;  4.0000000E+04;  0.0000000E+00;  4.0000000E+04; -1.0758959E-07;  0.0000000E+00; -6.0129885E-08;  1.4623661E-01;
 -1.4000000E-01;  9.9999998E-03;  3.8000000E-01;627;  0.0000000E+00;  0.0000000E+00;  0.0000000E+00;  1.0000000E+03;  1.0000000E-01;  0.0000000E+00;0;  0.0000000E+00;  0.0000000E+00;  0.0000000E+00;0; -7.5257001E-09;  4.0000000E+04;  0.0000000E+00;  0.0000000E+00;  4.0000000E+04;  0.0000000E+00;  4.0000000E+04; -4.3440398E-09;  0.0000000E+00; -3.1816603E-09;  9.6869357E-03;
 -1.4000000E-01;  9.9999998E-03;  3.8999999E-01;628;  0.0000000E+00;  0.0000000E+00;  0.0000000E+00;  1.0000000E+03;  1.0000000E-01;  0.0000000E+00;0;  0.0000000E+00;  0.0000000E+00;  0.0000000E+00;0;  0.0000000E+00;  4.0000000E+04;  0.0000000E+00;  0.0000000E+00;  4.0000000E+04;  0.0000000E+00;  4.0000000E+04;  0.0000000E+00;  0.0000000E+00;  0.0000000E+00;  0.0000000E+00;
 -1.4000000E-01;  9.9999998E-03;  4.0000001E-01;629;  0.0000000E+00;  0.0000000E+00;  0.0000000E+00;  1.0000000E+03;  1.0000000E-01;  0.0000000E+00;0;  0.0000000E+00;  0.0000000E+00;  0.0000000E+00;0;  0.0000000E+00;  4.0000000E+04;  0.0000000E+00;  0.0000000E+00;  4.0000000E+04;  0.0000000E+00;  4.0000000E+04;  0.0000000E+00;  0.0000000E+00;  0.0000000E+00;  0.0000000E+00;
 -1.3000000E-01;  9.9999998E-03;  2.3999999E-01;704;  0.0000000E+00;  0.0000000E+00;  0.0000000E+00;  1.0000064E+03;  1.0000000E-01;  5.3331823E+00;0;  0.0000000E+00;  0.0000000E+00;  0.0000000E+00;0; -9.8333170E-05;  4.0000000E+04;  0.0000000E+00;  0.0000000E+00;  4.0000000E+04;  0.0000000E+00;  4.0000000E+04; -9.9679542E-05;  0.0000000E+00;  1.3463697E-06;  3.5814404E+01;
 -1.3000000E-01;  9.9999998E-03;  2.5000000E-01;705;  0.0000000E+00;  0.0000000E+00;  0.0000000E+00;  1.0000066E+03;  1.0000000E-01;  5.4319453E+00;0;  0.0000000E+00;  0.0000000E+00;  0.0000000E+00;0; -9.5499061E-05;  4.0000000E+04;  0.0000000E+00;  0.0000000E+00;  4.0000000E+04;  0.0000000E+00;  4.0000000E+04; -9.4455936E-05;  0.0000000E+00; -1.0431232E-06;  2.6542620E+01;
 -1.3000000E-01;  9.9999998E-03;  2.5999999E-01;706;  0.0000000E+00;  0.0000000E+00;  0.0000000E+00;  1.0000023E+03;  1.0000000E-01;  1.8764901E+00;0;  0.0000000E+00;  0.0000000E+00;  0.0000000E+00;0; -9.2580092E-05;  4.0000000E+04;  0.0000000E+00;  0.0000000E+00;  4.0000000E+04;  0.0000000E+00;  4.0000000E+04; -8.8902554E-05;  0.0000000E+00; -3.6775384E-06;  1.5839498E+01;
 -1.3000000E-01;  9.9999998E-03;  2.7000001E-01;707;  0.0000000E+00;  0.0000000E+00;  0.0000000E+00;  1.0000000E+03;  1.0000000E-01;  0.0000000E+00;0;  0.0000000E+00;  0.0000000E+00;  0.0000000E+00;0; -8.8650479E-05;  4.0000000E+04;  0.0000000E+00;  0.0000000E+00;  4.0000000E+04;  0.0000000E+00;  4.0000000E+04; -8.2415136E-05;  0.0000000E+00; -6.2353429E-06;  4.7395473E+00;
 -1.3000000E-01;  9.9999998E-03;  2.8000000E-01;708;  0.0000000E+00;  0.0000000E+00;  0.0000000E+00;  1.0000000E+03;  1.0000000E-01;  0.0000000E+00;0;  0.0000000E+00;  0.0000000E+00;  0.0000000E+00;0; -8.2933577E-05;  4.0000000E+04;  0.0000000E+00;  0.0000000E+00;  4.0000000E+04;  0.0000000E+00;  4.0000000E+04; -7.4565971E-05;  0.0000000E+00; -8.3676050E-06;  5.5016384E+00;
 -1.3000000E-01;  9.9999998E-03;  2.8999999E-01;709;  0.0000000E+00;  0.0000000E+00;  0.0000000E+00;  1.0000025E+03;  1.0000000E-01;  2.0740154E+00;0;  0.0000000E+00;  0.0000000E+00;  0.0000000E+00;0; -7.5021358E-05;  4.0000000E+04;  0.0000000E+00;  0.0000000E+00;  4.0000000E+04;  0.0000000E+00;  4.0000000E+04; -6.5247958E-05;  0.0000000E+00; -9.7733982E-06;  1.3679619E+01;
 -1.3000000E-01;  9.9999998E-03;  3.0000001E-01;710;  0.0000000E+00;  0.0000000E+00;  0.0000000E+00;  1.0000000E+03;  1.0000000E-01;  0.0000000E+00;0;  0.0000000E+00;  0.0000000E+00;  0.0000000E+00;0; -6.4993059E-05;  4.0000000E+04;  0.0000000E+00;  0.0000000E+00;  4.0000000E+04;  0.0000000E+00;  4.0000000E+04; -5.4723234E-05;  0.0000000E+00; -1.0269827E-05;  1.8923292E+01;
 -1.3000000E-01;  9.9999998E-03;  3.1000000E-01;711;  0.0000000E+00;  0.0000000E+00;  0.0000000E+00;  1.0000000E+03;  1.0000000E-01;  0.0000000E+00;0;  0.0000000E+00;  0.0000000E+00;  0.0000000E+00;0; -5.3422864E-05;  4.0000000E+04;  0.0000000E+00;  0.0000000E+00;  4.0000000E+04;  0.0000000E+00;  4.0000000E+04; -4.3579930E-05;  0.0000000E+00; -9.8429327E-06;  2.0919748E+01;
 -1.3000000E-01;  9.9999998E-03;  3.1999999E-01;712;  0.0000000E+00;  0.0000000E+00;  0.0000000E+00;  1.0000000E+03;  1.0000000E-01;  0.0000000E+00;0;  0.0000000E+00;  0.0000000E+00;  0.0000000E+00;0; -4.1256615E-05;  4.0000000E+04;  0.0000000E+00;  0.0000000E+00;  4.0000000E+04;  0.0000000E+00;  4.0000000E+04; -3.2609449E-05;  0.0000000E+00; -8.6471655E-06;  1.9973680E+01;
 -1.3000000E-01;  9.9999998E-03;  3.3000001E-01;713;  0.0000000E+00;  0.0000000E+00;  0.0000000E+00;  1.0000000E+03;  1.0000000E-01;  0.0000000E+00;0;  0.0000000E+00;  0.0000000E+00;  0.0000000E+00;0; -2.9583636E-05;  4.0000000E+04;  0.0000000E+00;  0.0000000E+00;  4.0000000E+04;  0.0000000E+00;  4.0000000E+04; -2.2632206E-05;  0.0000000E+00; -6.9514294E-06;  1.6869566E+01;
 -1.3000000E-01;  9.9999998E-03;  3.4000000E-01;714;  0.0000000E+00;  0.0000000E+00;  0.0000000E+00;  1.0000000E+03;  1.0000000E-01;  0.0000000E+00;0;  0.0000000E+00;  0.0000000E+00;  0.0000000E+00;0; -1.9383782E-05;  4.0000000E+04;  0.0000000E+00;  0.0000000E+00;  4.0000000E+04;  0.0000000E+00;  4.0000000E+04; -1.4317254E-05;  0.0000000E+00; -5.0665290E-06;  1.2631432E+01;
 -1.3000000E-01;  9.9999998E-03;  3.4999999E-01;715;  0.0000000E+00;  0.0000000E+00;  0.0000000E+00;  1.0000000E+03;  1.0000000E-01;  0.0000000E+00;0;  0.0000000E+00;  0.0000000E+00;  0.0000000E+00;0; -1.1325041E-05;  4.0000000E+04;  0.0000000E+00;  0.0000000E+00;  4.0000000E+04;  0.0000000E+00;  4.0000000E+04; -8.0440932E-06;  0.0000000E+00; -3.2809471E-06;  8.2700901E+00;
 -1.3000000E-01;  9.9999998E-03;  3.6000001E-01;716;  0.0000000E+00;  0.0000000E+00;  0.0000000E+00;  1.0000000E+03;  1.0000000E-01;  0.0000000E+00;0;  0.0000000E+00;  0.0000000E+00;  0.0000000E+00;0; -5.6590479E-06;  4.0000000E+04;  0.0000000E+00;  0.0000000E+00;  4.0000000E+04;  0.0000000E+00;  4.0000000E+04; -3.8438152E-06;  0.0000000E+00; -1.8152327E-06;  4.5749321E+00;
 -1.3000000E-01;  9.9999998E-03;  3.7000000E-01;717;  0.0000000E+00;  0.0000000E+00;  0.0000000E+00;  1.0000000E+03;  1.0000000E-01;  0.0000000E+00;0;  0.0000000E+00;  0.0000000E+00;  0.0000000E+00;0; -2.2343791E-06;  4.0000000E+04;  0.0000000E+00;  0.0000000E+00;  4.0000000E+04;  0.0000000E+00;  4.0000000E+04; -1.4403092E-06;  0.0000000E+00; -7.9406982E-07;  1.9895991E+00;
 -1.3000000E-01;  9.9999998E-03;  3.8000000E-01;718;  0.0000000E+00;  0.0000000E+00;  0.0000000E+00;  1.0000000E+03;  1.0000000E-01;  0.0000000E+00;0;  0.0000000E+00;  0.0000000E+00;  0.0000000E+00;0; -5.8663500E-07;  4.0000000E+04;  0.0000000E+00;  0.0000000E+00;  4.0000000E+04;  0.0000000E+00;  4.0000000E+04; -3.5580172E-07;  0.0000000E+00; -2.3083329E-07;  5.7803941E-01;
 -1.3000000E-01;  9.9999998E-03;  3.8999999E-01;719;  0.0000000E+00;  0.0000000E+00;  0.0000000E+00;  1.0000000E+03;  1.0000000E-01;  0.0000000E+00;0;  0.0000000E+00;  0.0000000E+00;  0.0000000E+00;0; -5.5298127E-08;  4.0000000E+04;  0.0000000E+00;  0.0000000E+00;  4.0000000E+04;  0.0000000E+00;  4.0000000E+04; -3.0308478E-08;  0.0000000E+00; -2.4989649E-08;  6.6067778E-02;
 -1.3000000E-01;  9.9999998E-03;  4.0000001E-01;720;  0.0000000E+00;  0.0000000E+00;  0.0000000E+00;  1.0000000E+03;  1.0000000E-01;  0.0000000E+00;0;  0.0000000E+00;  0.0000000E+00;  0.0000000E+00;0;  0.0000000E+00;  4.0000000E+04;  0.0000000E+00;  0.0000000E+00;  4.0000000E+04;  0.0000000E+00;  4.0000000E+04;  0.0000000E+00;  0.0000000E+00;  0.0000000E+00;  0.0000000E+00;
 -1.2000000E-01;  9.9999998E-03;  2.3999999E-01;795;  0.0000000E+00;  0.0000000E+00;  0.0000000E+00;  1.0000269E+03;  1.0000000E-01;  2.2221594E+01;0;  0.0000000E+00;  0.0000000E+00;  0.0000000E+00;0; -2.6656143E-04;  4.0000000E+04;  0.0000000E+00;  0.0000000E+00;  4.0000000E+04;  0.0000000E+00;  4.0000000E+04; -2.6794415E-04;  0.0000000E+00;  1.3827139E-06;  8.2111549E+01;
 -1.2000000E-01;  9.9999998E-03;  2.5000000E-01;796;  0.0000000E+00;  0.0000000E+00;  0.0000000E+00;  1.0000235E+03;  1.0000000E-01;  1.9456240E+01;0;  0.0000000E+00;  0.0000000E+00;  0.0000000E+00;0; -2.5473218E-04;  4.0000000E+04;  0.0000000E+00;  0.0000000E+00;  4.0000000E+04;  0.0000000E+00;  4.0000000E+04; -2.5008092E-04;  0.0000000E+00; -4.6512441E-06;  6.1030754E+01;
 -1.2000000E-01;  9.9999998E-03;  2.5999999E-01;797;  0.0000000E+00;  0.0000000E+00;  0.0000000E+00;  1.0000195E+03;  1.0000000E-01;  1.6098310E+01;0;  0.0000000E+00;  0.0000000E+00;  0.0000000E+00;0; -2.4225027E-04;  4.0000000E+04;  0.0000000E+00;  0.0000000E+00;  4.0000000E+04;  0.0000000E+00;  4.0000000E+04; -2.3123584E-04;  0.0000000E+00; -1.1014428E-05;  3.6715321E+01;
 -1.2000000E-01;  9.9999998E-03;  2.7000001E-01;798;  0.0000000E+00;  0.0000000E+00;  0.0000000E+00;  1.0000247E+03;  1.0000000E-01;  2.0443867E+01;0;  0.0000000E+00;  0.0000000E+00;  0.0000000E+00;0; -2.2766247E-04;  4.0000000E+04;  0.0000000E+00;  0.0000000E+00;  4.0000000E+04;  0.0000000E+00;  4.0000000E+04; -2.1065147E-04;  0.0000000E+00; -1.7010994E-05;  1.1405243E+01;
 -1.2000000E-01;  9.9999998E-03;  2.8000000E-01;799;  0.0000000E+00;  0.0000000E+00;  0.0000000E+00;  1.0000289E+03;  1.0000000E-01;  2.3999321E+01;0;  0.0000000E+00;  0.0000000E+00;  0.0000000E+00;0; -2.0981638E-04;  4.0000000E+04;  0.0000000E+00;  0.0000000E+00;  4.0000000E+04;  0.0000000E+00;  4.0000000E+04; -1.8788601E-04;  0.0000000E+00; -2.1930382E-05;  1.2339576E+01;
 -1.2000000E-01;  9.9999998E-03;  2.8999999E-01;800;  0.0000000E+00;  0.0000000E+00;  0.0000000E+00;  1.0000233E+03;  1.0000000E-01;  1.9258715E+01;0;  0.0000000E+00;  0.0000000E+00;  0.0000000E+00;0; -1.8818222E-04;  4.0000000E+04;  0.0000000E+00;  0.0000000E+00;  4.0000000E+04;  0.0000000E+00;  4.0000000E+04; -1.6300038E-04;  0.0000000E+00; -2.5181835E-05;  3.1858559E+01;
 -1.2000000E-01;  9.9999998E-03;  3.0000001E-01;801;  0.0000000E+00;  0.0000000E+00;  0.0000000E+00;  1.0000190E+03;  1.0000000E-01;  1.5802022E+01;0;  0.0000000E+00;  0.0000000E+00;  0.0000000E+00;0; -1.6302695E-04;  4.0000000E+04;  0.0000000E+00;  0.0000000E+00;  4.0000000E+04;  0.0000000E+00;  4.0000000E+04; -1.3661238E-04;  0.0000000E+00; -2.6414578E-05;  4.5305241E+01;
 -1.2000000E-01;  9.9999998E-03;  3.1000000E-01;802;  0.0000000E+00;  0.0000000E+00;  0.0000000E+00;  1.0000146E+03;  1.0000000E-01;  1.2049042E+01;0;  0.0000000E+00;  0.0000000E+00;  0.0000000E+00;0; -1.3542842E-04;  4.0000000E+04;  0.0000000E+00;  0.0000000E+00;  4.0000000E+04;  0.0000000E+00;  4.0000000E+04; -1.0981914E-04;  0.0000000E+00; -2.5609268E-05;  5.1806465E+01;
 -1.2000000E-01;  9.9999998E-03;  3.1999999E-01;803;  0.0000000E+00;  0.0000000E+00;  0.0000000E+00;  1.0000133E+03;  1.0000000E-01;  1.1061416E+01;0;  0.0000000E+00;  0.0000000E+00;  0.0000000E+00;0; -1.0708295E-04;  4.0000000E+04;  0.0000000E+00;  0.0000000E+00;  4.0000000E+04;  0.0000000E+00;  4.0000000E+04; -8.4008789E-05;  0.0000000E+00; -2.3074155E-05;  5.1703308E+01;
 -1.2000000E-01;  9.9999998E-03;  3.3000001E-01;804;  0.0000000E+00;  0.0000000E+00;  0.0000000E+00;  1.0000000E+03;  1.0000000E-01;  0.0000000E+00;0;  0.0000000E+00;  0.0000000E+00;  0.0000000E+00;0; -7.9931546E-05;  4.0000000E+04;  0.0000000E+00;  0.0000000E+00;  4.0000000E+04;  0.0000000E+00;  4.0000000E+04; -6.0592356E-05;  0.0000000E+00; -1.9339193E-05;  4.6325912E+01;
 -1.2000000E-01;  9.9999998E-03;  3.4000000E-01;805;  0.0000000E+00;  0.0000000E+00;  0.0000000E+00;  1.0000000E+03;  1.0000000E-01;  0.0000000E+00;0;  0.0000000E+00;  0.0000000E+00;  0.0000000E+00;0; -5.5744978E-05;  4.0000000E+04;  0.0000000E+00;  0.0000000E+00;  4.0000000E+04;  0.0000000E+00;  4.0000000E+04; -4.0727246E-05;  0.0000000E+00; -1.5017734E-05;  3.7569080E+01;
 -1.2000000E-01;  9.9999998E-03;  3.4999999E-01;806;  0.0000000E+00;  0.0000000E+00;  0.0000000E+00;  1.0000000E+03;  1.0000000E-01;  0.0000000E+00;0;  0.0000000E+00;  0.0000000E+00;  0.0000000E+00;0; -3.5795358E-05;  4.0000000E+04;  0.0000000E+00;  0.0000000E+00;  4.0000000E+04;  0.0000000E+00;  4.0000000E+04; -2.5104238E-05;  0.0000000E+00; -1.0691120E-05;  2.7455778E+01;
 -1.2000000E-01;  9.9999998E-03;  3.6000001E-01;807;  0.0000000E+00;  0.0000000E+00;  0.0000000E+00;  1.0000000E+03;  1.0000000E-01;  0.0000000E+00;0;  0.0000000E+00;  0.0000000E+00;  0.0000000E+00;0; -2.0684904E-05;  4.0000000E+04;  0.0000000E+00;  0.0000000E+00;  4.0000000E+04;  0.0000000E+00;  4.0000000E+04; -1.3850632E-05;  0.0000000E+00; -6.8342706E-06;  1.7776785E+01;
 -1.2000000E-01;  9.9999998E-03;  3.7000000E-01;808;  0.0000000E+00;  0.0000000E+00;  0.0000000E+00;  1.0000000E+03;  1.0000000E-01;  0.0000000E+00;0;  0.0000000E+00;  0.0000000E+00;  0.0000000E+00;0; -1.0349821E-05;  4.0000000E+04;  0.0000000E+00;  0.0000000E+00;  4.0000000E+04;  0.0000000E+00;  4.0000000E+04; -6.5737677E-06;  0.0000000E+00; -3.7760533E-06;  9.8429241E+00;
 -1.2000000E-01;  9.9999998E-03;  3.8000000E-01;809;  0.0000000E+00;  0.0000000E+00;  0.0000000E+00;  1.0000000E+03;  1.0000000E-01;  0.0000000E+00;0;  0.0000000E+00;  0.0000000E+00;  0.0000000E+00;0; -4.1787926E-06;  4.0000000E+04;  0.0000000E+00;  0.0000000E+00;  4.0000000E+04;  0.0000000E+00;  4.0000000E+04; -2.5017255E-06;  0.0000000E+00; -1.6770668E-06;  4.3462443E+00;
 -1.2000000E-01;  9.9999998E-03;  3.8999999E-01;810;  0.0000000E+00;  0.0000000E+00;  0.0000000E+00;  1.0000000E+03;  1.0000000E-01;  0.0000000E+00;0;  0.0000000E+00;  0.0000000E+00;  0.0000000E+00;0; -1.1634311E-06;  4.0000000E+04;  0.0000000E+00;  0.0000000E+00;  4.0000000E+04;  0.0000000E+00;  4.0000000E+04; -6.5226482E-07;  0.0000000E+00; -5.1116621E-07;  1.3154768E+00;
 -1.2000000E-01;  9.9999998E-03;  4.0000001E-01;811;  0.0000000E+00;  0.0000000E+00;  0.0000000E+00;  1.0000000E+03;  1.0000000E-01;  0.0000000E+00;0;  0.0000000E+00;  0.0000000E+00;  0.0000000E+00;0; -1.4172861E-07;  4.0000000E+04;  0.0000000E+00;  0.0000000E+00;  4.0000000E+04;  0.0000000E+00;  4.0000000E+04; -7.4274510E-08;  0.0000000E+00; -6.7454103E-08;  1.7909501E-01;
 -1.1000000E-01;  9.9999998E-03;  2.3999999E-01;886;  0.0000000E+00;  0.0000000E+00;  0.0000000E+00;  1.0000778E+03;  1.0000000E-01;  6.4492004E+01;0;  0.0000000E+00;  0.0000000E+00;  0.0000000E+00;0; -5.9620425E-04;  4.0000000E+04;  0.0000000E+00;  0.0000000E+00;  4.0000000E+04;  0.0000000E+00;  4.0000000E+04; -5.9569732E-04;  0.0000000E+00; -5.0695593E-07;  1.5983374E+02;
 -1.1000000E-01;  9.9999998E-03;  2.5000000E-01;887;  0.0000000E+00;  0.0000000E+00;  0.0000000E+00;  1.0000757E+03;  1.0000000E-01;  6.2714275E+01;0;  0.0000000E+00;  0.0000000E+00;  0.0000000E+00;0; -5.6429987E-04;  4.0000000E+04;  0.0000000E+00;  0.0000000E+00;  4.0000000E+04;  0.0000000E+00;  4.0000000E+04; -5.5111520E-04;  0.0000000E+00; -1.3184688E-05;  1.1936953E+02;
 -1.1000000E-01;  9.9999998E-03;  2.5999999E-01;888;  0.0000000E+00;  0.0000000E+00;  0.0000000E+00;  1.0000718E+03;  1.0000000E-01;  5.9455109E+01;0;  0.0000000E+00;  0.0000000E+00;  0.0000000E+00;0; -5.3054612E-04;  4.0000000E+04;  0.0000000E+00;  0.0000000E+00;  4.0000000E+04;  0.0000000E+00;  4.0000000E+04; -5.0435762E-04;  0.0000000E+00; -2.6188498E-05;  7.2611031E+01;
 -1.1000000E-01;  9.9999998E-03;  2.7000001E-01;889;  0.0000000E+00;  0.0000000E+00;  0.0000000E+00;  1.0000635E+03;  1.0000000E-01;  5.2640488E+01;0;  0.0000000E+00;  0.0000000E+00;  0.0000000E+00;0; -4.9294834E-04;  4.0000000E+04;  0.0000000E+00;  0.0000000E+00;  4.0000000E+04;  0.0000000E+00;  4.0000000E+04; -4.5473091E-04;  0.0000000E+00; -3.8217458E-05;  2.3762037E+01;
 -1.1000000E-01;  9.9999998E-03;  2.8000000E-01;890;  0.0000000E+00;  0.0000000E+00;  0.0000000E+00;  1.0000612E+03;  1.0000000E-01;  5.0763996E+01;0;  0.0000000E+00;  0.0000000E+00;  0.0000000E+00;0; -4.5003026E-04;  4.0000000E+04;  0.0000000E+00;  0.0000000E+00;  4.0000000E+04;  0.0000000E+00;  4.0000000E+04; -4.0203909E-04;  0.0000000E+00; -4.7991165E-05;  2.3215675E+01;
 -1.1000000E-01;  9.9999998E-03;  2.8999999E-01;891;  0.0000000E+00;  0.0000000E+00;  0.0000000E+00;  1.0000602E+03;  1.0000000E-01;  4.9875134E+01;0;  0.0000000E+00;  0.0000000E+00;  0.0000000E+00;0; -4.0127340E-04;  4.0000000E+04;  0.0000000E+00;  0.0000000E+00;  4.0000000E+04;  0.0000000E+00;  4.0000000E+04; -3.4680453E-04;  0.0000000E+00; -5.4468866E-05;  6.2306061E+01;
 -1.1000000E-01;  9.9999998E-03;  3.0000001E-01;892;  0.0000000E+00;  0.0000000E+00;  0.0000000E+00;  1.0000566E+03;  1.0000000E-01;  4.6912254E+01;0;  0.0000000E+00;  0.0000000E+00;  0.0000000E+00;0; -3.4735678E-04;  4.0000000E+04;  0.0000000E+00;  0.0000000E+00;  4.0000000E+04;  0.0000000E+00;  4.0000000E+04; -2.9031359E-04;  0.0000000E+00; -5.7043198E-05;  9.0675751E+01;
 -1.1000000E-01;  9.9999998E-03;  3.1000000E-01;893;  0.0000000E+00;  0.0000000E+00;  0.0000000E+00;  1.0000446E+03;  1.0000000E-01;  3.6937225E+01;0;  0.0000000E+00;  0.0000000E+00;  0.0000000E+00;0; -2.9018280E-04;  4.0000000E+04;  0.0000000E+00;  0.0000000E+00;  4.0000000E+04;  0.0000000E+00;  4.0000000E+04; -2.3448802E-04;  0.0000000E+00; -5.5694782E-05;  1.0633352E+02;
 -1.1000000E-01;  9.9999998E-03;  3.1999999E-01;894;  0.0000000E+00;  0.0000000E+00;  0.0000000E+00;  1.0000341E+03;  1.0000000E-01;  2.8246115E+01;0;  0.0000000E+00;  0.0000000E+00;  0.0000000E+00;0; -2.3258792E-04;  4.0000000E+04;  0.0000000E+00;  0.0000000E+00;  4.0000000E+04;  0.0000000E+00;  4.0000000E+04; -1.8160515E-04;  0.0000000E+00; -5.0982762E-05;  1.0947708E+02;
 -1.1000000E-01;  9.9999998E-03;  3.3000001E-01;895;  0.0000000E+00;  0.0000000E+00;  0.0000000E+00;  1.0000227E+03;  1.0000000E-01;  1.8764902E+01;0;  0.0000000E+00;  0.0000000E+00;  0.0000000E+00;0; -1.7776337E-04;  4.0000000E+04;  0.0000000E+00;  0.0000000E+00;  4.0000000E+04;  0.0000000E+00;  4.0000000E+04; -1.3390827E-04;  0.0000000E+00; -4.3855114E-05;  1.0208424E+02;
 -1.1000000E-01;  9.9999998E-03;  3.4000000E-01;896;  0.0000000E+00;  0.0000000E+00;  0.0000000E+00;  1.0000266E+03;  1.0000000E-01;  2.2024069E+01;0;  0.0000000E+00;  0.0000000E+00;  0.0000000E+00;0; -1.2860454E-04;  4.0000000E+04;  0.0000000E+00;  0.0000000E+00;  4.0000000E+04;  0.0000000E+00;  4.0000000E+04; -9.3201561E-05;  0.0000000E+00; -3.5402980E-05;  8.7221367E+01;
 -1.1000000E-01;  9.9999998E-03;  3.4999999E-01;897;  0.0000000E+00;  0.0000000E+00;  0.0000000E+00;  1.0000000E+03;  1.0000000E-01;  0.0000000E+00;0;  0.0000000E+00;  0.0000000E+00;  0.0000000E+00;0; -8.7210050E-05;  4.0000000E+04;  0.0000000E+00;  0.0000000E+00;  4.0000000E+04;  0.0000000E+00;  4.0000000E+04; -6.0546954E-05;  0.0000000E+00; -2.6663098E-05;  6.8323578E+01;
 -1.1000000E-01;  9.9999998E-03;  3.6000001E-01;898;  0.0000000E+00;  0.0000000E+00;  0.0000000E+00;  1.0000000E+03;  1.0000000E-01;  0.0000000E+00;0;  0.0000000E+00;  0.0000000E+00;  0.0000000E+00;0; -5.4632390E-05;  4.0000000E+04;  0.0000000E+00;  0.0000000E+00;  4.0000000E+04;  0.0000000E+00;  4.0000000E+04; -3.6131831E-05;  0.0000000E+00; -1.8500559E-05;  4.8630501E+01;
 -1.1000000E-01;  9.9999998E-03;  3.7000000E-01;899;  0.0000000E+00;  0.0000000E+00;  0.0000000E+00;  1.0000000E+03;  1.0000000E-01;  0.0000000E+00;0;  0.0000000E+00;  0.0000000E+00;  0.0000000E+00;0; -3.0892541E-05;  4.0000000E+04;  0.0000000E+00;  0.0000000E+00;  4.0000000E+04;  0.0000000E+00;  4.0000000E+04; -1.9333680E-05;  0.0000000E+00; -1.1558862E-05;  3.0805824E+01;
 -1.1000000E-01;  9.9999998E-03;  3.8000000E-01;900;  0.0000000E+00;  0.0000000E+00;  0.0000000E+00;  1.0000000E+03;  1.0000000E-01;  0.0000000E+00;0;  0.0000000E+00;  0.0000000E+00;  0.0000000E+00;0; -1.5163603E-05;  4.0000000E+04;  0.0000000E+00;  0.0000000E+00;  4.0000000E+04;  0.0000000E+00;  4.0000000E+04; -8.9210653E-06;  0.0000000E+00; -6.2425379E-06;  1.6695683E+01;
 -1.1000000E-01;  9.9999998E-03;  3.8999999E-01;901;  0.0000000E+00;  0.0000000E+00;  0.0000000E+00;  1.0000000E+03;  1.0000000E-01;  0.0000000E+00;0;  0.0000000E+00;  0.0000000E+00;  0.0000000E+00;0; -5.9989416E-06;  4.0000000E+04;  0.0000000E+00;  0.0000000E+00;  4.0000000E+04;  0.0000000E+00;  4.0000000E+04; -3.3002648E-06;  0.0000000E+00; -2.6986770E-06;  7.1819491E+00;
 -1.1000000E-01;  9.9999998E-03;  4.0000001E-01;902;  0.0000000E+00;  0.0000000E+00;  0.0000000E+00;  1.0000000E+03;  1.0000000E-01;  0.0000000E+00;0;  0.0000000E+00;  0.0000000E+00;  0.0000000E+00;0; -1.6338242E-06;  4.0000000E+04;  0.0000000E+00;  0.0000000E+00;  4.0000000E+04;  0.0000000E+00;  4.0000000E+04; -8.4100043E-07;  0.0000000E+00; -7.9282381E-07;  2.0952575E+00;
 -1.0000000E-01;  9.9999998E-03;  2.3999999E-01;977;  0.0000000E+00;  0.0000000E+00;  0.0000000E+00;  1.0001913E+03;  1.0000000E-01;  1.5851404E+02;0;  0.0000000E+00;  0.0000000E+00;  0.0000000E+00;0; -1.1686983E-03;  4.0000000E+04;  0.0000000E+00;  0.0000000E+00;  4.0000000E+04;  0.0000000E+00;  4.0000000E+04; -1.1623198E-03;  0.0000000E+00; -6.3784832E-06;  2.7768881E+02;
 -1.0000000E-01;  9.9999998E-03;  2.5000000E-01;978;  0.0000000E+00;  0.0000000E+00;  0.0000000E+00;  1.0001882E+03;  1.0000000E-01;  1.5594621E+02;0;  0.0000000E+00;  0.0000000E+00;  0.0000000E+00;0; -1.0995701E-03;  4.0000000E+04;  0.0000000E+00;  0.0000000E+00;  4.0000000E+04;  0.0000000E+00;  4.0000000E+04; -1.0696743E-03;  0.0000000E+00; -2.9895802E-05;  2.0870151E+02;
 -1.0000000E-01;  9.9999998E-03;  2.5999999E-01;979;  0.0000000E+00;  0.0000000E+00;  0.0000000E+00;  1.0001655E+03;  1.0000000E-01;  1.3718130E+02;0;  0.0000000E+00;  0.0000000E+00;  0.0000000E+00;0; -1.0264828E-03;  4.0000000E+04;  0.0000000E+00;  0.0000000E+00;  4.0000000E+04;  0.0000000E+00;  4.0000000E+04; -9.7290351E-04;  0.0000000E+00; -5.3579221E-05;  1.2871283E+02;
 -1.0000000E-01;  9.9999998E-03;  2.7000001E-01;980;  0.0000000E+00;  0.0000000E+00;  0.0000000E+00;  1.0001534E+03;  1.0000000E-01;  1.2710751E+02;0;  0.0000000E+00;  0.0000000E+00;  0.0000000E+00;0; -9.4694976E-04;  4.0000000E+04;  0.0000000E+00;  0.0000000E+00;  4.0000000E+04;  0.0000000E+00;  4.0000000E+04; -8.7172812E-04;  0.0000000E+00; -7.5221644E-05;  4.4988312E+01;
 -1.0000000E-01;  9.9999998E-03;  2.8000000E-01;981;  0.0000000E+00;  0.0000000E+00;  0.0000000E+00;  1.0001396E+03;  1.0000000E-01;  1.1565105E+02;0;  0.0000000E+00;  0.0000000E+00;  0.0000000E+00;0; -8.5929222E-04;  4.0000000E+04;  0.0000000E+00;  0.0000000E+00;  4.0000000E+04;  0.0000000E+00;  4.0000000E+04; -7.6659600E-04;  0.0000000E+00; -9.2696202E-05;  3.8815170E+01;
 -1.0000000E-01;  9.9999998E-03;  2.8999999E-01;982;  0.0000000E+00;  0.0000000E+00;  0.0000000E+00;  1.0001140E+03;  1.0000000E-01;  9.4417084E+01;0;  0.0000000E+00;  0.0000000E+00;  0.0000000E+00;0; -7.6323043E-04;  4.0000000E+04;  0.0000000E+00;  0.0000000E+00;  4.0000000E+04;  0.0000000E+00;  4.0000000E+04; -6.5893237E-04;  0.0000000E+00; -1.0429804E-04;  1.0774902E+02;
 -1.0000000E-01;  9.9999998E-03;  3.0000001E-01;983;  0.0000000E+00;  0.0000000E+00;  0.0000000E+00;  1.0001197E+03;  1.0000000E-01;  9.9157692E+01;0;  0.0000000E+00;  0.0000000E+00;  0.0000000E+00;0; -6.6020095E-04;  4.0000000E+04;  0.0000000E+00;  0.0000000E+00;  4.0000000E+04;  0.0000000E+00;  4.0000000E+04; -5.5115629E-04;  0.0000000E+00; -1.0904468E-04;  1.6000732E+02;
 -1.0000000E-01;  9.9999998E-03;  3.1000000E-01;984;  0.0000000E+00;  0.0000000E+00;  0.0000000E+00;  1.0000873E+03;  1.0000000E-01;  7.2294250E+01;0;  0.0000000E+00;  0.0000000E+00;  0.0000000E+00;0; -5.5340095E-04;  4.0000000E+04;  0.0000000E+00;  0.0000000E+00;  4.0000000E+04;  0.0000000E+00;  4.0000000E+04; -4.4647220E-04;  0.0000000E+00; -1.0692875E-04;  1.9141045E+02;
 -1.0000000E-01;  9.9999998E-03;  3.1999999E-01;985;  0.0000000E+00;  0.0000000E+00;  0.0000000E+00;  1.0000825E+03;  1.0000000E-01;  6.8343742E+01;0;  0.0000000E+00;  0.0000000E+00;  0.0000000E+00;0; -4.4736304E-04;  4.0000000E+04;  0.0000000E+00;  0.0000000E+00;  4.0000000E+04;  0.0000000E+00;  4.0000000E+04; -3.4846444E-04;  0.0000000E+00; -9.8898607E-05;  2.0169266E+02;
 -1.0000000E-01;  9.9999998E-03;  3.3000001E-01;986;  0.0000000E+00;  0.0000000E+00;  0.0000000E+00;  1.0000598E+03;  1.0000000E-01;  4.9480083E+01;0;  0.0000000E+00;  0.0000000E+00;  0.0000000E+00;0; -3.4707983E-04;  4.0000000E+04;  0.0000000E+00;  0.0000000E+00;  4.0000000E+04;  0.0000000E+00;  4.0000000E+04; -2.6054127E-04;  0.0000000E+00; -8.6538566E-05;  1.9354141E+02;
 -1.0000000E-01;  9.9999998E-03;  3.4000000E-01;987;  0.0000000E+00;  0.0000000E+00;  0.0000000E+00;  1.0000380E+03;  1.0000000E-01;  3.1505281E+01;0;  0.0000000E+00;  0.0000000E+00;  0.0000000E+00;0; -2.5702524E-04;  4.0000000E+04;  0.0000000E+00;  0.0000000E+00;  4.0000000E+04;  0.0000000E+00;  4.0000000E+04; -1.8536617E-04;  0.0000000E+00; -7.1659058E-05;  1.7150053E+02;
 -1.0000000E-01;  9.9999998E-03;  3.4999999E-01;988;  0.0000000E+00;  0.0000000E+00;  0.0000000E+00;  1.0000374E+03;  1.0000000E-01;  3.0912706E+01;0;  0.0000000E+00;  0.0000000E+00;  0.0000000E+00;0; -1.8040361E-04;  4.0000000E+04;  0.0000000E+00;  0.0000000E+00;  4.0000000E+04;  0.0000000E+00;  4.0000000E+04; -1.2443386E-04;  0.0000000E+00; -5.5969755E-05;  1.4085616E+02;
 -1.0000000E-01;  9.9999998E-03;  3.6000001E-01;989;  0.0000000E+00;  0.0000000E+00;  0.0000000E+00;  1.0000137E+03;  1.0000000E-01;  1.1357703E+01;0;  0.0000000E+00;  0.0000000E+00;  0.0000000E+00;0; -1.1881039E-04;  4.0000000E+04;  0.0000000E+00;  0.0000000E+00;  4.0000000E+04;  0.0000000E+00;  4.0000000E+04; -7.7910998E-05;  0.0000000E+00; -4.0899398E-05;  1.0676106E+02;
 -1.0000000E-01;  9.9999998E-03;  3.7000000E-01;990;  0.0000000E+00;  0.0000000E+00;  0.0000000E+00;  1.0000000E+03;  1.0000000E-01;  0.0000000E+00;0;  0.0000000E+00;  0.0000000E+00;  0.0000000E+00;0; -7.2283729E-05;  4.0000000E+04;  0.0000000E+00;  0.0000000E+00;  4.0000000E+04;  0.0000000E+00;  4.0000000E+04; -4.4748103E-05;  0.0000000E+00; -2.7535629E-05;  7.3696693E+01;
 -1.0000000E-01;  9.9999998E-03;  3.8000000E-01;991;  0.0000000E+00;  0.0000000E+00;  0.0000000E+00;  1.0000000E+03;  1.0000000E-01;  0.0000000E+00;0;  0.0000000E+00;  0.0000000E+00;  0.0000000E+00;0; -3.9611135E-05;  4.0000000E+04;  0.0000000E+00;  0.0000000E+00;  4.0000000E+04;  0.0000000E+00;  4.0000000E+04; -2.2983348E-05;  0.0000000E+00; -1.6627786E-05;  4.5161217E+01;
 -1.0000000E-01;  9.9999998E-03;  3.8999999E-01;992;  0.0000000E+00;  0.0000000E+00;  0.0000000E+00;  1.0000000E+03;  1.0000000E-01;  0.0000000E+00;0;  0.0000000E+00;  0.0000000E+00;  0.0000000E+00;0; -1.8700674E-05;  4.0000000E+04;  0.0000000E+00;  0.0000000E+00;  4.0000000E+04;  0.0000000E+00;  4.0000000E+04; -1.0110060E-05;  0.0000000E+00; -8.5906122E-06;  2.3455786E+01;
 -1.0000000E-01;  9.9999998E-03;  4.0000001E-01;993;  0.0000000E+00;  0.0000000E+00;  0.0000000E+00;  1.0000000E+03;  1.0000000E-01;  0.0000000E+00;0;  0.0000000E+00;  0.0000000E+00;  0.0000000E+00;0; -6.9976031E-06;  4.0000000E+04;  0.0000000E+00;  0.0000000E+00;  4.0000000E+04;  0.0000000E+00;  4.0000000E+04; -3.5210376E-06;  0.0000000E+00; -3.4765653E-06;  9.4690895E+00;
 -9.0000004E-02;  9.9999998E-03;  2.3999999E-01;1068;  0.0000000E+00;  0.0000000E+00;  0.0000000E+00;  1.0003943E+03;  1.0000000E-01;  3.2670682E+02;0;  0.0000000E+00;  0.0000000E+00;  0.0000000E+00;0; -2.0808701E-03;  4.0000000E+04;  0.0000000E+00;  0.0000000E+00;  4.0000000E+04;  0.0000000E+00;  4.0000000E+04; -2.0619093E-03;  0.0000000E+00; -1.8960898E-05;  4.4361679E+02;
 -9.0000004E-02;  9.9999998E-03;  2.5000000E-01;1069;  0.0000000E+00;  0.0000000E+00;  0.0000000E+00;  1.0003568E+03;  1.0000000E-01;  2.9559659E+02;0;  0.0000000E+00;  0.0000000E+00;  0.0000000E+00;0; -1.9503514E-03;  4.0000000E+04;  0.0000000E+00;  0.0000000E+00;  4.0000000E+04;  0.0000000E+00;  4.0000000E+04; -1.8915557E-03;  0.0000000E+00; -5.8795689E-05;  3.3599371E+02;
 -9.0000004E-02;  9.9999998E-03;  2.5999999E-01;1070;  0.0000000E+00;  0.0000000E+00;  0.0000000E+00;  1.0003311E+03;  1.0000000E-01;  2.7436261E+02;0;  0.0000000E+00;  0.0000000E+00;  0.0000000E+00;0; -1.8125043E-03;  4.0000000E+04;  0.0000000E+00;  0.0000000E+00;  4.0000000E+04;  0.0000000E+00;  4.0000000E+04; -1.7140855E-03;  0.0000000E+00; -9.8418772E-05;  2.1060674E+02;
 -9.0000004E-02;  9.9999998E-03;  2.7000001E-01;1071;  0.0000000E+00;  0.0000000E+00;  0.0000000E+00;  1.0003083E+03;  1.0000000E-01;  2.5549895E+02;0;  0.0000000E+00;  0.0000000E+00;  0.0000000E+00;0; -1.6644477E-03;  4.0000000E+04;  0.0000000E+00;  0.0000000E+00;  4.0000000E+04;  0.0000000E+00;  4.0000000E+04; -1.5301108E-03;  0.0000000E+00; -1.3433683E-04;  7.9342110E+01;
 -9.0000004E-02;  9.9999998E-03;  2.8000000E-01;1072;  0.0000000E+00;  0.0000000E+00;  0.0000000E+00;  1.0002733E+03;  1.0000000E-01;  2.2636397E+02;0;  0.0000000E+00;  0.0000000E+00;  0.0000000E+00;0; -1.5044910E-03;  4.0000000E+04;  0.0000000E+00;  0.0000000E+00;  4.0000000E+04;  0.0000000E+00;  4.0000000E+04; -1.3412731E-03;  0.0000000E+00; -1.6321789E-04;  6.0150620E+01;
 -9.0000004E-02;  9.9999998E-03;  2.8999999E-01;1073;  0.0000000E+00;  0.0000000E+00;  0.0000000E+00;  1.0002413E+03;  1.0000000E-01;  1.9989558E+02;0;  0.0000000E+00;  0.0000000E+00;  0.0000000E+00;0; -1.3329135E-03;  4.0000000E+04;  0.0000000E+00;  0.0000000E+00;  4.0000000E+04;  0.0000000E+00;  4.0000000E+04; -1.1505060E-03;  0.0000000E+00; -1.8240760E-04;  1.7017340E+02;
 -9.0000004E-02;  9.9999998E-03;  3.0000001E-01;1074;  0.0000000E+00;  0.0000000E+00;  0.0000000E+00;  1.0002166E+03;  1.0000000E-01;  1.7945172E+02;0;  0.0000000E+00;  0.0000000E+00;  0.0000000E+00;0; -1.1523957E-03;  4.0000000E+04;  0.0000000E+00;  0.0000000E+00;  4.0000000E+04;  0.0000000E+00;  4.0000000E+04; -9.6200965E-04;  0.0000000E+00; -1.9038613E-04;  2.5721936E+02;
 -9.0000004E-02;  9.9999998E-03;  3.1000000E-01;1075;  0.0000000E+00;  0.0000000E+00;  0.0000000E+00;  1.0001803E+03;  1.0000000E-01;  1.4932912E+02;0;  0.0000000E+00;  0.0000000E+00;  0.0000000E+00;0; -9.6809480E-04;  4.0000000E+04;  0.0000000E+00;  0.0000000E+00;  4.0000000E+04;  0.0000000E+00;  4.0000000E+04; -7.8092091E-04;  0.0000000E+00; -1.8717389E-04;  3.1272003E+02;
 -9.0000004E-02;  9.9999998E-03;  3.1999999E-01;1076;  0.0000000E+00;  0.0000000E+00;  0.0000000E+00;  1.0001473E+03;  1.0000000E-01;  1.2197186E+02;0;  0.0000000E+00;  0.0000000E+00;  0.0000000E+00;0; -7.8701868E-04;  4.0000000E+04;  0.0000000E+00;  0.0000000E+00;  4.0000000E+04;  0.0000000E+00;  4.0000000E+04; -6.1272044E-04;  0.0000000E+00; -1.7429827E-04;  3.3544751E+02;
 -9.0000004E-02;  9.9999998E-03;  3.3000001E-01;1077;  0.0000000E+00;  0.0000000E+00;  0.0000000E+00;  1.0001109E+03;  1.0000000E-01;  9.1849251E+01;0;  0.0000000E+00;  0.0000000E+00;  0.0000000E+00;0; -6.1672274E-04;  4.0000000E+04;  0.0000000E+00;  0.0000000E+00;  4.0000000E+04;  0.0000000E+00;  4.0000000E+04; -4.6244424E-04;  0.0000000E+00; -1.5427850E-04;  3.2881531E+02;
 -9.0000004E-02;  9.9999998E-03;  3.4000000E-01;1078;  0.0000000E+00;  0.0000000E+00;  0.0000000E+00;  1.0000945E+03;  1.0000000E-01;  7.8318771E+01;0;  0.0000000E+00;  0.0000000E+00;  0.0000000E+00;0; -4.6387082E-04;  4.0000000E+04;  0.0000000E+00;  0.0000000E+00;  4.0000000E+04;  0.0000000E+00;  4.0000000E+04; -3.3390149E-04;  0.0000000E+00; -1.2996934E-04;  2.9918643E+02;
 -9.0000004E-02;  9.9999998E-03;  3.4999999E-01;1079;  0.0000000E+00;  0.0000000E+00;  0.0000000E+00;  1.0000566E+03;  1.0000000E-01;  4.6912254E+01;0;  0.0000000E+00;  0.0000000E+00;  0.0000000E+00;0; -3.3314188E-04;  4.0000000E+04;  0.0000000E+00;  0.0000000E+00;  4.0000000E+04;  0.0000000E+00;  4.0000000E+04; -2.2909926E-04;  0.0000000E+00; -1.0404264E-04;  2.5416702E+02;
 -9.0000004E-02;  9.9999998E-03;  3.6000001E-01;1080;  0.0000000E+00;  0.0000000E+00;  0.0000000E+00;  1.0000438E+03;  1.0000000E-01;  3.6245888E+01;0;  0.0000000E+00;  0.0000000E+00;  0.0000000E+00;0; -2.2676931E-04;  4.0000000E+04;  0.0000000E+00;  0.0000000E+00;  4.0000000E+04;  0.0000000E+00;  4.0000000E+04; -1.4805797E-04;  0.0000000E+00; -7.8711339E-05;  2.0131635E+02;
 -9.0000004E-02;  9.9999998E-03;  3.7000000E-01;1081;  0.0000000E+00;  0.0000000E+00;  0.0000000E+00;  1.0000407E+03;  1.0000000E-01;  3.3776821E+01;0;  0.0000000E+00;  0.0000000E+00;  0.0000000E+00;0; -1.4467206E-04;  4.0000000E+04;  0.0000000E+00;  0.0000000E+00;  4.0000000E+04;  0.0000000E+00;  4.0000000E+04; -8.9012436E-05;  0.0000000E+00; -5.5659613E-05;  1.4738841E+02;
 -9.0000004E-02;  9.9999998E-03;  3.8000000E-01;1082;  0.0000000E+00;  0.0000000E+00;  0.0000000E+00;  1.0000000E+03;  1.0000000E-01;  0.0000000E+00;0;  0.0000000E+00;  0.0000000E+00;  0.0000000E+00;0; -8.4963562E-05;  4.0000000E+04;  0.0000000E+00;  0.0000000E+00;  4.0000000E+04;  0.0000000E+00;  4.0000000E+04; -4.8879545E-05;  0.0000000E+00; -3.6084017E-05;  9.7963783E+01;
 -9.0000004E-02;  9.9999998E-03;  3.8999999E-01;1083;  0.0000000E+00;  0.0000000E+00;  0.0000000E+00;  1.0000000E+03;  1.0000000E-01;  0.0000000E+00;0;  0.0000000E+00;  0.0000000E+00;  0.0000000E+00;0; -4.4557364E-05;  4.0000000E+04;  0.0000000E+00;  0.0000000E+00;  4.0000000E+04;  0.0000000E+00;  4.0000000E+04; -2.3807881E-05;  0.0000000E+00; -2.0749483E-05;  5.7241508E+01;
 -9.0000004E-02;  9.9999998E-03;  4.0000001E-01;1084;  0.0000000E+00;  0.0000000E+00;  0.0000000E+00;  1.0000000E+03;  1.0000000E-01;  0.0000000E+00;0;  0.0000000E+00;  0.0000000E+00;  0.0000000E+00;0; -1.9779458E-05;  4.0000000E+04;  0.0000000E+00;  0.0000000E+00;  4.0000000E+04;  0.0000000E+00;  4.0000000E+04; -9.7890361E-06;  0.0000000E+00; -9.9904228E-06;  2.7778107E+01;
 -7.9999998E-02;  9.9999998E-03;  2.3999999E-01;1159;  0.0000000E+00;  0.0000000E+00;  0.0000000E+00;  1.0007057E+03;  1.0000000E-01;  5.8467480E+02;0;  0.0000000E+00;  0.0000000E+00;  0.0000000E+00;0; -3.4402604E-03;  4.0000000E+04;  0.0000000E+00;  0.0000000E+00;  4.0000000E+04;  0.0000000E+00;  4.0000000E+04; -3.3987723E-03;  0.0000000E+00; -4.1488107E-05;  6.6384265E+02;
 -7.9999998E-02;  9.9999998E-03;  2.5000000E-01;1160;  0.0000000E+00;  0.0000000E+00;  0.0000000E+00;  1.0006470E+03;  1.0000000E-01;  5.3598486E+02;0;  0.0000000E+00;  0.0000000E+00;  0.0000000E+00;0; -3.2166250E-03;  4.0000000E+04;  0.0000000E+00;  0.0000000E+00;  4.0000000E+04;  0.0000000E+00;  4.0000000E+04; -3.1122251E-03;  0.0000000E+00; -1.0439996E-04;  5.0733344E+02;
 -7.9999998E-02;  9.9999998E-03;  2.5999999E-01;1161;  0.0000000E+00;  0.0000000E+00;  0.0000000E+00;  1.0005910E+03;  1.0000000E-01;  4.8966516E+02;0;  0.0000000E+00;  0.0000000E+00;  0.0000000E+00;0; -2.9806376E-03;  4.0000000E+04;  0.0000000E+00;  0.0000000E+00;  4.0000000E+04;  0.0000000E+00;  4.0000000E+04; -2.8141704E-03;  0.0000000E+00; -1.6646714E-04;  3.2379797E+02;
 -7.9999998E-02;  9.9999998E-03;  2.7000001E-01;1162;  0.0000000E+00;  0.0000000E+00;  0.0000000E+00;  1.0005398E+03;  1.0000000E-01;  4.4719724E+02;0;  0.0000000E+00;  0.0000000E+00;  0.0000000E+00;0; -2.7291363E-03;  4.0000000E+04;  0.0000000E+00;  0.0000000E+00;  4.0000000E+04;  0.0000000E+00;  4.0000000E+04; -2.5066920E-03;  0.0000000E+00; -2.2244424E-04;  1.3169261E+02;
 -7.9999998E-02;  9.9999998E-03;  2.8000000E-01;1163;  0.0000000E+00;  0.0000000E+00;  0.0000000E+00;  1.0004850E+03;  1.0000000E-01;  4.0176642E+02;0;  0.0000000E+00;  0.0000000E+00;  0.0000000E+00;0; -2.4606588E-03;  4.0000000E+04;  0.0000000E+00;  0.0000000E+00;  4.0000000E+04;  0.0000000E+00;  4.0000000E+04; -2.1933191E-03;  0.0000000E+00; -2.6733970E-04;  8.8985611E+01;
 -7.9999998E-02;  9.9999998E-03;  2.8999999E-01;1164;  0.0000000E+00;  0.0000000E+00;  0.0000000E+00;  1.0004310E+03;  1.0000000E-01;  3.5702695E+02;0;  0.0000000E+00;  0.0000000E+00;  0.0000000E+00;0; -2.1764506E-03;  4.0000000E+04;  0.0000000E+00;  0.0000000E+00;  4.0000000E+04;  0.0000000E+00;  4.0000000E+04; -1.8792795E-03;  0.0000000E+00; -2.9717101E-04;  2.5071545E+02;
 -7.9999998E-02;  9.9999998E-03;  3.0000001E-01;1165;  0.0000000E+00;  0.0000000E+00;  0.0000000E+00;  1.0003708E+03;  1.0000000E-01;  3.0715179E+02;0;  0.0000000E+00;  0.0000000E+00;  0.0000000E+00;0; -1.8810823E-03;  4.0000000E+04;  0.0000000E+00;  0.0000000E+00;  4.0000000E+04;  0.0000000E+00;  4.0000000E+04; -1.5714219E-03;  0.0000000E+00; -3.0966045E-04;  3.8477728E+02;
 -7.9999998E-02;  9.9999998E-03;  3.1000000E-01;1166;  0.0000000E+00;  0.0000000E+00;  0.0000000E+00;  1.0003083E+03;  1.0000000E-01;  2.5549895E+02;0;  0.0000000E+00;  0.0000000E+00;  0.0000000E+00;0; -1.5825705E-03;  4.0000000E+04;  0.0000000E+00;  0.0000000E+00;  4.0000000E+04;  0.0000000E+00;  4.0000000E+04; -1.2777029E-03;  0.0000000E+00; -3.0486763E-04;  4.7404950E+02;
 -7.9999998E-02;  9.9999998E-03;  3.1999999E-01;1167;  0.0000000E+00;  0.0000000E+00;  0.0000000E+00;  1.0002613E+03;  1.0000000E-01;  2.1648770E+02;0;  0.0000000E+00;  0.0000000E+00;  0.0000000E+00;0; -1.2914578E-03;  4.0000000E+04;  0.0000000E+00;  0.0000000E+00;  4.0000000E+04;  0.0000000E+00;  4.0000000E+04; -1.0063102E-03;  0.0000000E+00; -2.8514751E-04;  5.1560010E+02;
 -7.9999998E-02;  9.9999998E-03;  3.3000001E-01;1168;  0.0000000E+00;  0.0000000E+00;  0.0000000E+00;  1.0002123E+03;  1.0000000E-01;  1.7589626E+02;0;  0.0000000E+00;  0.0000000E+00;  0.0000000E+00;0; -1.0189058E-03;  4.0000000E+04;  0.0000000E+00;  0.0000000E+00;  4.0000000E+04;  0.0000000E+00;  4.0000000E+04; -7.6455617E-04;  0.0000000E+00; -2.5434964E-04;  5.1357312E+02;
 -7.9999998E-02;  9.9999998E-03;  3.4000000E-01;1169;  0.0000000E+00;  0.0000000E+00;  0.0000000E+00;  1.0001602E+03;  1.0000000E-01;  1.3273698E+02;0;  0.0000000E+00;  0.0000000E+00;  0.0000000E+00;0; -7.7457953E-04;  4.0000000E+04;  0.0000000E+00;  0.0000000E+00;  4.0000000E+04;  0.0000000E+00;  4.0000000E+04; -5.5777607E-04;  0.0000000E+00; -2.1680347E-04;  4.7652682E+02;
 -7.9999998E-02;  9.9999998E-03;  3.4999999E-01;1170;  0.0000000E+00;  0.0000000E+00;  0.0000000E+00;  1.0001156E+03;  1.0000000E-01;  9.5799759E+01;0;  0.0000000E+00;  0.0000000E+00;  0.0000000E+00;0; -5.6510972E-04;  4.0000000E+04;  0.0000000E+00;  0.0000000E+00;  4.0000000E+04;  0.0000000E+00;  4.0000000E+04; -3.8858977E-04;  0.0000000E+00; -1.7651994E-04;  4.1492999E+02;
 -7.9999998E-02;  9.9999998E-03;  3.6000001E-01;1171;  0.0000000E+00;  0.0000000E+00;  0.0000000E+00;  1.0000746E+03;  1.0000000E-01;  6.1825413E+01;0;  0.0000000E+00;  0.0000000E+00;  0.0000000E+00;0; -3.9347121E-04;  4.0000000E+04;  0.0000000E+00;  0.0000000E+00;  4.0000000E+04;  0.0000000E+00;  4.0000000E+04; -2.5669587E-04;  0.0000000E+00; -1.3677533E-04;  3.3927432E+02;
 -7.9999998E-02;  9.9999998E-03;  3.7000000E-01;1172;  0.0000000E+00;  0.0000000E+00;  0.0000000E+00;  1.0000494E+03;  1.0000000E-01;  4.0986496E+01;0;  0.0000000E+00;  0.0000000E+00;  0.0000000E+00;0; -2.5925276E-04;  4.0000000E+04;  0.0000000E+00;  0.0000000E+00;  4.0000000E+04;  0.0000000E+00;  4.0000000E+04; -1.5922307E-04;  0.0000000E+00; -1.0002968E-04;  2.5902844E+02;
 -7.9999998E-02;  9.9999998E-03;  3.8000000E-01;1173;  0.0000000E+00;  0.0000000E+00;  0.0000000E+00;  1.0000444E+03;  1.0000000E-01;  3.6739700E+01;0;  0.0000000E+00;  0.0000000E+00;  0.0000000E+00;0; -1.5947073E-04;  4.0000000E+04;  0.0000000E+00;  0.0000000E+00;  4.0000000E+04;  0.0000000E+00;  4.0000000E+04; -9.1439499E-05;  0.0000000E+00; -6.8031230E-05;  1.8221565E+02;
 -7.9999998E-02;  9.9999998E-03;  3.8999999E-01;1174;  0.0000000E+00;  0.0000000E+00;  0.0000000E+00;  1.0000000E+03;  1.0000000E-01;  0.0000000E+00;0;  0.0000000E+00;  0.0000000E+00;  0.0000000E+00;0; -8.9532536E-05;  4.0000000E+04;  0.0000000E+00;  0.0000000E+00;  4.0000000E+04;  0.0000000E+00;  4.0000000E+04; -4.7572536E-05;  0.0000000E+00; -4.1960004E-05;  1.1529479E+02;
 -7.9999998E-02;  9.9999998E-03;  4.0000001E-01;1175;  0.0000000E+00;  0.0000000E+00;  0.0000000E+00;  1.0000000E+03;  1.0000000E-01;  0.0000000E+00;0;  0.0000000E+00;  0.0000000E+00;  0.0000000E+00;0; -4.4150664E-05;  4.0000000E+04;  0.0000000E+00;  0.0000000E+00;  4.0000000E+04;  0.0000000E+00;  4.0000000E+04; -2.1650476E-05;  0.0000000E+00; -2.2500188E-05;  6.2954254E+01;
 -7.0000000E-02;  9.9999998E-03;  2.3999999E-01;1250;  0.0000000E+00;  0.0000000E+00;  0.0000000E+00;  1.0011750E+03;  1.0000000E-01;  9.7350336E+02;0;  0.0000000E+00;  0.0000000E+00;  0.0000000E+00;0; -5.3544608E-03;  4.0000000E+04;  0.0000000E+00;  0.0000000E+00;  4.0000000E+04;  0.0000000E+00;  4.0000000E+04; -5.2770870E-03;  0.0000000E+00; -7.7373857E-05;  9.4149072E+02;
 -7.0000000E-02;  9.9999998E-03;  2.5000000E-01;1251;  0.0000000E+00;  0.0000000E+00;  0.0000000E+00;  1.0010748E+03;  1.0000000E-01;  8.9044397E+02;0;  0.0000000E+00;  0.0000000E+00;  0.0000000E+00;0; -4.9987519E-03;  4.0000000E+04;  0.0000000E+00;  0.0000000E+00;  4.0000000E+04;  0.0000000E+00;  4.0000000E+04; -4.8274561E-03;  0.0000000E+00; -1.7129589E-04;  7.2678485E+02;
 -7.0000000E-02;  9.9999998E-03;  2.5999999E-01;1252;  0.0000000E+00;  0.0000000E+00;  0.0000000E+00;  1.0009817E+03;  1.0000000E-01;  8.1331030E+02;0;  0.0000000E+00;  0.0000000E+00;  0.0000000E+00;0; -4.6235626E-03;  4.0000000E+04;  0.0000000E+00;  0.0000000E+00;  4.0000000E+04;  0.0000000E+00;  4.0000000E+04; -4.3600700E-03;  0.0000000E+00; -2.6349263E-04;  4.7272610E+02;
 -7.0000000E-02;  9.9999998E-03;  2.7000001E-01;1253;  0.0000000E+00;  0.0000000E+00;  0.0000000E+00;  1.0008925E+03;  1.0000000E-01;  7.3933710E+02;0;  0.0000000E+00;  0.0000000E+00;  0.0000000E+00;0; -4.2255959E-03;  4.0000000E+04;  0.0000000E+00;  0.0000000E+00;  4.0000000E+04;  0.0000000E+00;  4.0000000E+04; -3.8791830E-03;  0.0000000E+00; -3.4641303E-04;  2.0634196E+02;
 -7.0000000E-02;  9.9999998E-03;  2.8000000E-01;1254;  0.0000000E+00;  0.0000000E+00;  0.0000000E+00;  1.0007986E+03;  1.0000000E-01;  6.6161090E+02;0;  0.0000000E+00;  0.0000000E+00;  0.0000000E+00;0; -3.8038404E-03;  4.0000000E+04;  0.0000000E+00;  0.0000000E+00;  4.0000000E+04;  0.0000000E+00;  4.0000000E+04; -3.3910070E-03;  0.0000000E+00; -4.1283338E-04;  1.2733415E+02;
 -7.0000000E-02;  9.9999998E-03;  2.8999999E-01;1255;  0.0000000E+00;  0.0000000E+00;  0.0000000E+00;  1.0007021E+03;  1.0000000E-01;  5.8171191E+02;0;  0.0000000E+00;  0.0000000E+00;  0.0000000E+00;0; -3.3609844E-03;  4.0000000E+04;  0.0000000E+00;  0.0000000E+00;  4.0000000E+04;  0.0000000E+00;  4.0000000E+04; -2.9040319E-03;  0.0000000E+00; -4.5695249E-04;  3.4940167E+02;
 -7.0000000E-02;  9.9999998E-03;  3.0000001E-01;1256;  0.0000000E+00;  0.0000000E+00;  0.0000000E+00;  1.0006087E+03;  1.0000000E-01;  5.0428204E+02;0;  0.0000000E+00;  0.0000000E+00;  0.0000000E+00;0; -2.9042852E-03;  4.0000000E+04;  0.0000000E+00;  0.0000000E+00;  4.0000000E+04;  0.0000000E+00;  4.0000000E+04; -2.4288576E-03;  0.0000000E+00; -4.7542757E-04;  5.4327667E+02;
 -7.0000000E-02;  9.9999998E-03;  3.1000000E-01;1257;  0.0000000E+00;  0.0000000E+00;  0.0000000E+00;  1.0005129E+03;  1.0000000E-01;  4.2497565E+02;0;  0.0000000E+00;  0.0000000E+00;  0.0000000E+00;0; -2.4457711E-03;  4.0000000E+04;  0.0000000E+00;  0.0000000E+00;  4.0000000E+04;  0.0000000E+00;  4.0000000E+04; -1.9774130E-03;  0.0000000E+00; -4.6835811E-04;  6.7664301E+02;
 -7.0000000E-02;  9.9999998E-03;  3.1999999E-01;1258;  0.0000000E+00;  0.0000000E+00;  0.0000000E+00;  1.0004284E+03;  1.0000000E-01;  3.5495291E+02;0;  0.0000000E+00;  0.0000000E+00;  0.0000000E+00;0; -2.0009524E-03;  4.0000000E+04;  0.0000000E+00;  0.0000000E+00;  4.0000000E+04;  0.0000000E+00;  4.0000000E+04; -1.5617106E-03;  0.0000000E+00; -4.3924182E-04;  7.4387152E+02;
 -7.0000000E-02;  9.9999998E-03;  3.3000001E-01;1259;  0.0000000E+00;  0.0000000E+00;  0.0000000E+00;  1.0003381E+03;  1.0000000E-01;  2.8009085E+02;0;  0.0000000E+00;  0.0000000E+00;  0.0000000E+00;0; -1.5859643E-03;  4.0000000E+04;  0.0000000E+00;  0.0000000E+00;  4.0000000E+04;  0.0000000E+00;  4.0000000E+04; -1.1921922E-03;  0.0000000E+00; -3.9377221E-04;  7.4987366E+02;
 -7.0000000E-02;  9.9999998E-03;  3.4000000E-01;1260;  0.0000000E+00;  0.0000000E+00;  0.0000000E+00;  1.0002669E+03;  1.0000000E-01;  2.2112955E+02;0;  0.0000000E+00;  0.0000000E+00;  0.0000000E+00;0; -1.2145400E-03;  4.0000000E+04;  0.0000000E+00;  0.0000000E+00;  4.0000000E+04;  0.0000000E+00;  4.0000000E+04; -8.7623351E-04;  0.0000000E+00; -3.3830648E-04;  7.0590063E+02;
 -7.0000000E-02;  9.9999998E-03;  3.4999999E-01;1261;  0.0000000E+00;  0.0000000E+00;  0.0000000E+00;  1.0001851E+03;  1.0000000E-01;  1.5327962E+02;0;  0.0000000E+00;  0.0000000E+00;  0.0000000E+00;0; -8.9584058E-04;  4.0000000E+04;  0.0000000E+00;  0.0000000E+00;  4.0000000E+04;  0.0000000E+00;  4.0000000E+04; -6.1717053E-04;  0.0000000E+00; -2.7867008E-04;  6.2590210E+02;
 -7.0000000E-02;  9.9999998E-03;  3.6000001E-01;1262;  0.0000000E+00;  0.0000000E+00;  0.0000000E+00;  1.0001290E+03;  1.0000000E-01;  1.0686118E+02;0;  0.0000000E+00;  0.0000000E+00;  0.0000000E+00;0; -6.3368719E-04;  4.0000000E+04;  0.0000000E+00;  0.0000000E+00;  4.0000000E+04;  0.0000000E+00;  4.0000000E+04; -4.1413808E-04;  0.0000000E+00; -2.1954911E-04;  5.2385101E+02;
 -7.0000000E-02;  9.9999998E-03;  3.7000000E-01;1263;  0.0000000E+00;  0.0000000E+00;  0.0000000E+00;  1.0000962E+03;  1.0000000E-01;  7.9701447E+01;0;  0.0000000E+00;  0.0000000E+00;  0.0000000E+00;0; -4.2703797E-04;  4.0000000E+04;  0.0000000E+00;  0.0000000E+00;  4.0000000E+04;  0.0000000E+00;  4.0000000E+04; -2.6264827E-04;  0.0000000E+00; -1.6438970E-04;  4.1235825E+02;
 -7.0000000E-02;  9.9999998E-03;  3.8000000E-01;1264;  0.0000000E+00;  0.0000000E+00;  0.0000000E+00;  1.0000561E+03;  1.0000000E-01;  4.6517204E+01;0;  0.0000000E+00;  0.0000000E+00;  0.0000000E+00;0; -2.7124895E-04;  4.0000000E+04;  0.0000000E+00;  0.0000000E+00;  4.0000000E+04;  0.0000000E+00;  4.0000000E+04; -1.5565249E-04;  0.0000000E+00; -1.1559645E-04;  3.0218173E+02;
 -7.0000000E-02;  9.9999998E-03;  3.8999999E-01;1265;  0.0000000E+00;  0.0000000E+00;  0.0000000E+00;  1.0000443E+03;  1.0000000E-01;  3.6739700E+01;0;  0.0000000E+00;  0.0000000E+00;  0.0000000E+00;0; -1.5954013E-04;  4.0000000E+04;  0.0000000E+00;  0.0000000E+00;  4.0000000E+04;  0.0000000E+00;  4.0000000E+04; -8.4730200E-05;  0.0000000E+00; -7.4809934E-05;  2.0226648E+02;
 -7.0000000E-02;  9.9999998E-03;  4.0000001E-01;1266;  0.0000000E+00;  0.0000000E+00;  0.0000000E+00;  1.0000000E+03;  1.0000000E-01;  0.0000000E+00;0;  0.0000000E+00;  0.0000000E+00;  0.0000000E+00;0; -8.4344050E-05;  4.0000000E+04;  0.0000000E+00;  0.0000000E+00;  4.0000000E+04;  0.0000000E+00;  4.0000000E+04; -4.1245636E-05;  0.0000000E+00; -4.3098411E-05;  1.1972677E+02;
 -5.9999999E-02;  9.9999998E-03;  2.3999999E-01;1341;  0.0000000E+00;  0.0000000E+00;  0.0000000E+00;  1.0018281E+03;  1.0000000E-01;  1.5145250E+03;0;  0.0000000E+00;  0.0000000E+00;  0.0000000E+00;0; -7.9127066E-03;  4.0000000E+04;  0.0000000E+00;  0.0000000E+00;  4.0000000E+04;  0.0000000E+00;  4.0000000E+04; -7.7829771E-03;  0.0000000E+00; -1.2972906E-04;  1.2749308E+03;
 -5.9999999E-02;  9.9999998E-03;  2.5000000E-01;1342;  0.0000000E+00;  0.0000000E+00;  0.0000000E+00;  1.0016780E+03;  1.0000000E-01;  1.3901829E+03;0;  0.0000000E+00;  0.0000000E+00;  0.0000000E+00;0; -7.3804096E-03;  4.0000000E+04;  0.0000000E+00;  0.0000000E+00;  4.0000000E+04;  0.0000000E+00;  4.0000000E+04; -7.1168775E-03;  0.0000000E+00; -2.6353204E-04;  9.9489282E+02;
 -5.9999999E-02;  9.9999998E-03;  2.5999999E-01;1343;  0.0000000E+00;  0.0000000E+00;  0.0000000E+00;  1.0015328E+03;  1.0000000E-01;  1.2698900E+03;0;  0.0000000E+00;  0.0000000E+00;  0.0000000E+00;0; -6.8190182E-03;  4.0000000E+04;  0.0000000E+00;  0.0000000E+00;  4.0000000E+04;  0.0000000E+00;  4.0000000E+04; -6.4244610E-03;  0.0000000E+00; -3.9455699E-04;  6.5934241E+02;
 -5.9999999E-02;  9.9999998E-03;  2.7000001E-01;1344;  0.0000000E+00;  0.0000000E+00;  0.0000000E+00;  1.0013851E+03;  1.0000000E-01;  1.1475231E+03;0;  0.0000000E+00;  0.0000000E+00;  0.0000000E+00;0; -6.2251911E-03;  4.0000000E+04;  0.0000000E+00;  0.0000000E+00;  4.0000000E+04;  0.0000000E+00;  4.0000000E+04; -5.7128831E-03;  0.0000000E+00; -5.1230774E-04;  3.0544507E+02;
 -5.9999999E-02;  9.9999998E-03;  2.8000000E-01;1345;  0.0000000E+00;  0.0000000E+00;  0.0000000E+00;  1.0012381E+03;  1.0000000E-01;  1.0257488E+03;0;  0.0000000E+00;  0.0000000E+00;  0.0000000E+00;0; -5.5985348E-03;  4.0000000E+04;  0.0000000E+00;  0.0000000E+00;  4.0000000E+04;  0.0000000E+00;  4.0000000E+04; -4.9919039E-03;  0.0000000E+00; -6.0663081E-04;  1.7573277E+02;
 -5.9999999E-02;  9.9999998E-03;  2.8999999E-01;1346;  0.0000000E+00;  0.0000000E+00;  0.0000000E+00;  1.0010939E+03;  1.0000000E-01;  9.0634473E+02;0;  0.0000000E+00;  0.0000000E+00;  0.0000000E+00;0; -4.9436348E-03;  4.0000000E+04;  0.0000000E+00;  0.0000000E+00;  4.0000000E+04;  0.0000000E+00;  4.0000000E+04; -4.2743753E-03;  0.0000000E+00; -6.6925958E-04;  4.6465027E+02;
 -5.9999999E-02;  9.9999998E-03;  3.0000001E-01;1347;  0.0000000E+00;  0.0000000E+00;  0.0000000E+00;  1.0009432E+03;  1.0000000E-01;  7.8140997E+02;0;  0.0000000E+00;  0.0000000E+00;  0.0000000E+00;0; -4.2713284E-03;  4.0000000E+04;  0.0000000E+00;  0.0000000E+00;  4.0000000E+04;  0.0000000E+00;  4.0000000E+04; -3.5759625E-03;  0.0000000E+00; -6.9536583E-04;  7.3096722E+02;
 -5.9999999E-02;  9.9999998E-03;  3.1000000E-01;1348;  0.0000000E+00;  0.0000000E+00;  0.0000000E+00;  1.0008021E+03;  1.0000000E-01;  6.6447504E+02;0;  0.0000000E+00;  0.0000000E+00;  0.0000000E+00;0; -3.5991368E-03;  4.0000000E+04;  0.0000000E+00;  0.0000000E+00;  4.0000000E+04;  0.0000000E+00;  4.0000000E+04; -2.9140736E-03;  0.0000000E+00; -6.8506313E-04;  9.1858057E+02;
 -5.9999999E-02;  9.9999998E-03;  3.1999999E-01;1349;  0.0000000E+00;  0.0000000E+00;  0.0000000E+00;  1.0006558E+03;  1.0000000E-01;  5.4329327E+02;0;  0.0000000E+00;  0.0000000E+00;  0.0000000E+00;0; -2.9493251E-03;  4.0000000E+04;  0.0000000E+00;  0.0000000E+00;  4.0000000E+04;  0.0000000E+00;  4.0000000E+04; -2.3059382E-03;  0.0000000E+00; -6.4338691E-04;  1.0180311E+03;
 -5.9999999E-02;  9.9999998E-03;  3.3000001E-01;1350;  0.0000000E+00;  0.0000000E+00;  0.0000000E+00;  1.0005303E+03;  1.0000000E-01;  4.3939499E+02;0;  0.0000000E+00;  0.0000000E+00;  0.0000000E+00;0; -2.3447890E-03;  4.0000000E+04;  0.0000000E+00;  0.0000000E+00;  4.0000000E+04;  0.0000000E+00;  4.0000000E+04; -1.7662613E-03;  0.0000000E+00; -5.7852763E-04;  1.0351818E+03;
 -5.9999999E-02;  9.9999998E-03;  3.4000000E-01;1351;  0.0000000E+00;  0.0000000E+00;  0.0000000E+00;  1.0004108E+03;  1.0000000E-01;  3.4033606E+02;0;  0.0000000E+00;  0.0000000E+00;  0.0000000E+00;0; -1.8046494E-03;  4.0000000E+04;  0.0000000E+00;  0.0000000E+00;  4.0000000E+04;  0.0000000E+00;  4.0000000E+04; -1.3050815E-03;  0.0000000E+00; -4.9956783E-04;  9.8467633E+02;
 -5.9999999E-02;  9.9999998E-03;  3.4999999E-01;1352;  0.0000000E+00;  0.0000000E+00;  0.0000000E+00;  1.0003083E+03;  1.0000000E-01;  2.5540018E+02;0;  0.0000000E+00;  0.0000000E+00;  0.0000000E+00;0; -1.3412850E-03;  4.0000000E+04;  0.0000000E+00;  0.0000000E+00;  4.0000000E+04;  0.0000000E+00;  4.0000000E+04; -9.2655420E-04;  0.0000000E+00; -4.1473075E-04;  8.8465771E+02;
 -5.9999999E-02;  9.9999998E-03;  3.6000001E-01;1353;  0.0000000E+00;  0.0000000E+00;  0.0000000E+00;  1.0002182E+03;  1.0000000E-01;  1.8073563E+02;0;  0.0000000E+00;  0.0000000E+00;  0.0000000E+00;0; -9.5941563E-04;  4.0000000E+04;  0.0000000E+00;  0.0000000E+00;  4.0000000E+04;  0.0000000E+00;  4.0000000E+04; -6.2889792E-04;  0.0000000E+00; -3.3051771E-04;  7.5318903E+02;
 -5.9999999E-02;  9.9999998E-03;  3.7000000E-01;1354;  0.0000000E+00;  0.0000000E+00;  0.0000000E+00;  1.0001431E+03;  1.0000000E-01;  1.1861393E+02;0;  0.0000000E+00;  0.0000000E+00;  0.0000000E+00;0; -6.5695797E-04;  4.0000000E+04;  0.0000000E+00;  0.0000000E+00;  4.0000000E+04;  0.0000000E+00;  4.0000000E+04; -4.0536048E-04;  0.0000000E+00; -2.5159752E-04;  6.0637164E+02;
 -5.9999999E-02;  9.9999998E-03;  3.8000000E-01;1355;  0.0000000E+00;  0.0000000E+00;  0.0000000E+00;  1.0000936E+03;  1.0000000E-01;  7.7528671E+01;0;  0.0000000E+00;  0.0000000E+00;  0.0000000E+00;0; -4.2689836E-04;  4.0000000E+04;  0.0000000E+00;  0.0000000E+00;  4.0000000E+04;  0.0000000E+00;  4.0000000E+04; -2.4576072E-04;  0.0000000E+00; -1.8113763E-04;  4.5789484E+02;
 -5.9999999E-02;  9.9999998E-03;  3.8999999E-01;1356;  0.0000000E+00;  0.0000000E+00;  0.0000000E+00;  1.0000620E+03;  1.0000000E-01;  5.1356571E+01;0;  0.0000000E+00;  0.0000000E+00;  0.0000000E+00;0; -2.5944095E-04;  4.0000000E+04;  0.0000000E+00;  0.0000000E+00;  4.0000000E+04;  0.0000000E+00;  4.0000000E+04; -1.3817730E-04;  0.0000000E+00; -1.2126363E-04;  3.1928110E+02;
 -5.9999999E-02;  9.9999998E-03;  4.0000001E-01;1357;  0.0000000E+00;  0.0000000E+00;  0.0000000E+00;  1.0000315E+03;  1.0000000E-01;  2.6073338E+01;0;  0.0000000E+00;  0.0000000E+00;  0.0000000E+00;0; -1.4392385E-04;  4.0000000E+04;  0.0000000E+00;  0.0000000E+00;  4.0000000E+04;  0.0000000E+00;  4.0000000E+04; -7.0496935E-05;  0.0000000E+00; -7.3426912E-05;  2.0017699E+02;
 -5.0000001E-02;  9.9999998E-03;  2.3999999E-01;1432;  0.0000000E+00;  0.0000000E+00;  0.0000000E+00;  1.0026949E+03;  1.0000000E-01;  2.2327271E+03;0;  0.0000000E+00;  0.0000000E+00;  0.0000000E+00;0; -1.1160706E-02;  4.0000000E+04;  0.0000000E+00;  0.0000000E+00;  4.0000000E+04;  0.0000000E+00;  4.0000000E+04; -1.0959925E-02;  0.0000000E+00; -2.0078119E-04;  1.6561779E+03;
 -5.0000001E-02;  9.9999998E-03;  2.5000000E-01;1433;  0.0000000E+00;  0.0000000E+00;  0.0000000E+00;  1.0024780E+03;  1.0000000E-01;  2.0529790E+03;0;  0.0000000E+00;  0.0000000E+00;  0.0000000E+00;0; -1.0405200E-02;  4.0000000E+04;  0.0000000E+00;  0.0000000E+00;  4.0000000E+04;  0.0000000E+00;  4.0000000E+04; -1.0021321E-02;  0.0000000E+00; -3.8387784E-04;  1.3072455E+03;
 -5.0000001E-02;  9.9999998E-03;  2.5999999E-01;1434;  0.0000000E+00;  0.0000000E+00;  0.0000000E+00;  1.0022596E+03;  1.0000000E-01;  1.8720458E+03;0;  0.0000000E+00;  0.0000000E+00;  0.0000000E+00;0; -9.6082706E-03;  4.0000000E+04;  0.0000000E+00;  0.0000000E+00;  4.0000000E+04;  0.0000000E+00;  4.0000000E+04; -9.0451371E-03;  0.0000000E+00; -5.6313328E-04;  8.8181647E+02;
 -5.0000001E-02;  9.9999998E-03;  2.7000001E-01;1435;  0.0000000E+00;  0.0000000E+00;  0.0000000E+00;  1.0020469E+03;  1.0000000E-01;  1.6958533E+03;0;  0.0000000E+00;  0.0000000E+00;  0.0000000E+00;0; -8.7665273E-03;  4.0000000E+04;  0.0000000E+00;  0.0000000E+00;  4.0000000E+04;  0.0000000E+00;  4.0000000E+04; -8.0421213E-03;  0.0000000E+00; -7.2440563E-04;  4.2787994E+02;
 -5.0000001E-02;  9.9999998E-03;  2.8000000E-01;1436;  0.0000000E+00;  0.0000000E+00;  0.0000000E+00;  1.0018311E+03;  1.0000000E-01;  1.5169941E+03;0;  0.0000000E+00;  0.0000000E+00;  0.0000000E+00;0; -7.8801969E-03;  4.0000000E+04;  0.0000000E+00;  0.0000000E+00;  4.0000000E+04;  0.0000000E+00;  4.0000000E+04; -7.0264162E-03;  0.0000000E+00; -8.5378089E-04;  2.3144336E+02;
 -5.0000001E-02;  9.9999998E-03;  2.8999999E-01;1437;  0.0000000E+00;  0.0000000E+00;  0.0000000E+00;  1.0016115E+03;  1.0000000E-01;  1.3350734E+03;0;  0.0000000E+00;  0.0000000E+00;  0.0000000E+00;0; -6.9560665E-03;  4.0000000E+04;  0.0000000E+00;  0.0000000E+00;  4.0000000E+04;  0.0000000E+00;  4.0000000E+04; -6.0163722E-03;  0.0000000E+00; -9.3969441E-04;  5.9271613E+02;
 -5.0000001E-02;  9.9999998E-03;  3.0000001E-01;1438;  0.0000000E+00;  0.0000000E+00;  0.0000000E+00;  1.0013972E+03;  1.0000000E-01;  1.1574982E+03;0;  0.0000000E+00;  0.0000000E+00;  0.0000000E+00;0; -6.0094837E-03;  4.0000000E+04;  0.0000000E+00;  0.0000000E+00;  4.0000000E+04;  0.0000000E+00;  4.0000000E+04; -5.0342465E-03;  0.0000000E+00; -9.7523711E-04;  9.4330682E+02;
 -5.0000001E-02;  9.9999998E-03;  3.1000000E-01;1439;  0.0000000E+00;  0.0000000E+00;  0.0000000E+00;  1.0011787E+03;  1.0000000E-01;  9.7656500E+02;0;  0.0000000E+00;  0.0000000E+00;  0.0000000E+00;0; -5.0651808E-03;  4.0000000E+04;  0.0000000E+00;  0.0000000E+00;  4.0000000E+04;  0.0000000E+00;  4.0000000E+04; -4.1047195E-03;  0.0000000E+00; -9.6046139E-04;  1.1941735E+03;
 -5.0000001E-02;  9.9999998E-03;  3.1999999E-01;1440;  0.0000000E+00;  0.0000000E+00;  0.0000000E+00;  1.0009670E+03;  1.0000000E-01;  8.0116254E+02;0;  0.0000000E+00;  0.0000000E+00;  0.0000000E+00;0; -4.1544540E-03;  4.0000000E+04;  0.0000000E+00;  0.0000000E+00;  4.0000000E+04;  0.0000000E+00;  4.0000000E+04; -3.2520178E-03;  0.0000000E+00; -9.0243627E-04;  1.3311136E+03;
 -5.0000001E-02;  9.9999998E-03;  3.3000001E-01;1441;  0.0000000E+00;  0.0000000E+00;  0.0000000E+00;  1.0007751E+03;  1.0000000E-01;  6.4215466E+02;0;  0.0000000E+00;  0.0000000E+00;  0.0000000E+00;0; -3.3091200E-03;  4.0000000E+04;  0.0000000E+00;  0.0000000E+00;  4.0000000E+04;  0.0000000E+00;  4.0000000E+04; -2.4964437E-03;  0.0000000E+00; -8.1267627E-04;  1.3614900E+03;
 -5.0000001E-02;  9.9999998E-03;  3.4000000E-01;1442;  0.0000000E+00;  0.0000000E+00;  0.0000000E+00;  1.0006038E+03;  1.0000000E-01;  5.0023276E+02;0;  0.0000000E+00;  0.0000000E+00;  0.0000000E+00;0; -2.5552500E-03;  4.0000000E+04;  0.0000000E+00;  0.0000000E+00;  4.0000000E+04;  0.0000000E+00;  4.0000000E+04; -1.8514078E-03;  0.0000000E+00; -7.0384215E-04;  1.3042513E+03;
 -5.0000001E-02;  9.9999998E-03;  3.4999999E-01;1443;  0.0000000E+00;  0.0000000E+00;  0.0000000E+00;  1.0004511E+03;  1.0000000E-01;  3.7371783E+02;0;  0.0000000E+00;  0.0000000E+00;  0.0000000E+00;0; -1.9091633E-03;  4.0000000E+04;  0.0000000E+00;  0.0000000E+00;  4.0000000E+04;  0.0000000E+00;  4.0000000E+04; -1.3219251E-03;  0.0000000E+00; -5.8723823E-04;  1.1826714E+03;
 -5.0000001E-02;  9.9999998E-03;  3.6000001E-01;1444;  0.0000000E+00;  0.0000000E+00;  0.0000000E+00;  1.0003262E+03;  1.0000000E-01;  2.7031335E+02;0;  0.0000000E+00;  0.0000000E+00;  0.0000000E+00;0; -1.3764385E-03;  4.0000000E+04;  0.0000000E+00;  0.0000000E+00;  4.0000000E+04;  0.0000000E+00;  4.0000000E+04; -9.0481009E-04;  0.0000000E+00; -4.7162842E-04;  1.0194326E+03;
 -5.0000001E-02;  9.9999998E-03;  3.7000000E-01;1445;  0.0000000E+00;  0.0000000E+00;  0.0000000E+00;  1.0002254E+03;  1.0000000E-01;  1.8676015E+02;0;  0.0000000E+00;  0.0000000E+00;  0.0000000E+00;0; -9.5337478E-04;  4.0000000E+04;  0.0000000E+00;  0.0000000E+00;  4.0000000E+04;  0.0000000E+00;  4.0000000E+04; -5.9022551E-04;  0.0000000E+00; -3.6314927E-04;  8.3439691E+02;
 -5.0000001E-02;  9.9999998E-03;  3.8000000E-01;1446;  0.0000000E+00;  0.0000000E+00;  0.0000000E+00;  1.0001411E+03;  1.0000000E-01;  1.1683620E+02;0;  0.0000000E+00;  0.0000000E+00;  0.0000000E+00;0; -6.2974612E-04;  4.0000000E+04;  0.0000000E+00;  0.0000000E+00;  4.0000000E+04;  0.0000000E+00;  4.0000000E+04; -3.6391680E-04;  0.0000000E+00; -2.6582932E-04;  6.4422577E+02;
 -5.0000001E-02;  9.9999998E-03;  3.8999999E-01;1447;  0.0000000E+00;  0.0000000E+00;  0.0000000E+00;  1.0000916E+03;  1.0000000E-01;  7.5849709E+01;0;  0.0000000E+00;  0.0000000E+00;  0.0000000E+00;0; -3.9180749E-04;  4.0000000E+04;  0.0000000E+00;  0.0000000E+00;  4.0000000E+04;  0.0000000E+00;  4.0000000E+04; -2.0951871E-04;  0.0000000E+00; -1.8228879E-04;  4.6295245E+02;
 -5.0000001E-02;  9.9999998E-03;  4.0000001E-01;1448;  0.0000000E+00;  0.0000000E+00;  0.0000000E+00;  1.0000590E+03;  1.0000000E-01;  4.8887505E+01;0;  0.0000000E+00;  0.0000000E+00;  0.0000000E+00;0; -2.2491178E-04;  4.0000000E+04;  0.0000000E+00;  0.0000000E+00;  4.0000000E+04;  0.0000000E+00;  4.0000000E+04; -1.1057801E-04;  0.0000000E+00; -1.1433378E-04;  3.0268896E+02;
 -3.9999999E-02;  9.9999998E-03;  2.3999999E-01;1523;  0.0000000E+00;  0.0000000E+00;  0.0000000E+00;  1.0037834E+03;  1.0000000E-01;  3.1345286E+03;0;  0.0000000E+00;  0.0000000E+00;  0.0000000E+00;0; -1.5075453E-02;  4.0000000E+04;  0.0000000E+00;  0.0000000E+00;  4.0000000E+04;  0.0000000E+00;  4.0000000E+04; -1.4784142E-02;  0.0000000E+00; -2.9131063E-04;  2.0700574E+03;
 -3.9999999E-02;  9.9999998E-03;  2.5000000E-01;1524;  0.0000000E+00;  0.0000000E+00;  0.0000000E+00;  1.0034796E+03;  1.0000000E-01;  2.8827827E+03;0;  0.0000000E+00;  0.0000000E+00;  0.0000000E+00;0; -1.4052914E-02;  4.0000000E+04;  0.0000000E+00;  0.0000000E+00;  4.0000000E+04;  0.0000000E+00;  4.0000000E+04; -1.3519859E-02;  0.0000000E+00; -5.3305528E-04;  1.6538716E+03;
 -3.9999999E-02;  9.9999998E-03;  2.5999999E-01;1525;  0.0000000E+00;  0.0000000E+00;  0.0000000E+00;  1.0031780E+03;  1.0000000E-01;  2.6329131E+03;0;  0.0000000E+00;  0.0000000E+00;  0.0000000E+00;0; -1.2973959E-02;  4.0000000E+04;  0.0000000E+00;  0.0000000E+00;  4.0000000E+04;  0.0000000E+00;  4.0000000E+04; -1.2203832E-02;  0.0000000E+00; -7.7012688E-04;  1.1342957E+03;
 -3.9999999E-02;  9.9999998E-03;  2.7000001E-01;1526;  0.0000000E+00;  0.0000000E+00;  0.0000000E+00;  1.0028785E+03;  1.0000000E-01;  2.3848215E+03;0;  0.0000000E+00;  0.0000000E+00;  0.0000000E+00;0; -1.1835015E-02;  4.0000000E+04;  0.0000000E+00;  0.0000000E+00;  4.0000000E+04;  0.0000000E+00;  4.0000000E+04; -1.0850974E-02;  0.0000000E+00; -9.8404114E-04;  5.6972754E+02;
 -3.9999999E-02;  9.9999998E-03;  2.8000000E-01;1527;  0.0000000E+00;  0.0000000E+00;  0.0000000E+00;  1.0025779E+03;  1.0000000E-01;  2.1357422E+03;0;  0.0000000E+00;  0.0000000E+00;  0.0000000E+00;0; -1.0636737E-02;  4.0000000E+04;  0.0000000E+00;  0.0000000E+00;  4.0000000E+04;  0.0000000E+00;  4.0000000E+04; -9.4805462E-03;  0.0000000E+00; -1.1561905E-03;  2.8855609E+02;
 -3.9999999E-02;  9.9999998E-03;  2.8999999E-01;1528;  0.0000000E+00;  0.0000000E+00;  0.0000000E+00;  1.0022700E+03;  1.0000000E-01;  1.8806382E+03;0;  0.0000000E+00;  0.0000000E+00;  0.0000000E+00;0; -9.3880761E-03;  4.0000000E+04;  0.0000000E+00;  0.0000000E+00;  4.0000000E+04;  0.0000000E+00;  4.0000000E+04; -8.1174141E-03;  0.0000000E+00; -1.2706621E-03;  7.2745453E+02;
 -3.9999999E-02;  9.9999998E-03;  3.0000001E-01;1529;  0.0000000E+00;  0.0000000E+00;  0.0000000E+00;  1.0019599E+03;  1.0000000E-01;  1.6237566E+03;0;  0.0000000E+00;  0.0000000E+00;  0.0000000E+00;0; -8.1096515E-03;  4.0000000E+04;  0.0000000E+00;  0.0000000E+00;  4.0000000E+04;  0.0000000E+00;  4.0000000E+04; -6.7920359E-03;  0.0000000E+00; -1.3176152E-03;  1.1726857E+03;
 -3.9999999E-02;  9.9999998E-03;  3.1000000E-01;1530;  0.0000000E+00;  0.0000000E+00;  0.0000000E+00;  1.0016544E+03;  1.0000000E-01;  1.3706279E+03;0;  0.0000000E+00;  0.0000000E+00;  0.0000000E+00;0; -6.8353163E-03;  4.0000000E+04;  0.0000000E+00;  0.0000000E+00;  4.0000000E+04;  0.0000000E+00;  4.0000000E+04; -5.5384403E-03;  0.0000000E+00; -1.2968759E-03;  1.4936302E+03;
 -3.9999999E-02;  9.9999998E-03;  3.1999999E-01;1531;  0.0000000E+00;  0.0000000E+00;  0.0000000E+00;  1.0013610E+03;  1.0000000E-01;  1.1275730E+03;0;  0.0000000E+00;  0.0000000E+00;  0.0000000E+00;0; -5.6081209E-03;  4.0000000E+04;  0.0000000E+00;  0.0000000E+00;  4.0000000E+04;  0.0000000E+00;  4.0000000E+04; -4.3899501E-03;  0.0000000E+00; -1.2181707E-03;  1.6710093E+03;
 -3.9999999E-02;  9.9999998E-03;  3.3000001E-01;1532;  0.0000000E+00;  0.0000000E+00;  0.0000000E+00;  1.0010942E+03;  1.0000000E-01;  9.0654224E+02;0;  0.0000000E+00;  0.0000000E+00;  0.0000000E+00;0; -4.4713789E-03;  4.0000000E+04;  0.0000000E+00;  0.0000000E+00;  4.0000000E+04;  0.0000000E+00;  4.0000000E+04; -3.3739943E-03;  0.0000000E+00; -1.0973847E-03;  1.7148054E+03;
 -3.9999999E-02;  9.9999998E-03;  3.4000000E-01;1533;  0.0000000E+00;  0.0000000E+00;  0.0000000E+00;  1.0008456E+03;  1.0000000E-01;  7.0062213E+02;0;  0.0000000E+00;  0.0000000E+00;  0.0000000E+00;0; -3.4597800E-03;  4.0000000E+04;  0.0000000E+00;  0.0000000E+00;  4.0000000E+04;  0.0000000E+00;  4.0000000E+04; -2.5080203E-03;  0.0000000E+00; -9.5175975E-04;  1.6497040E+03;
 -3.9999999E-02;  9.9999998E-03;  3.4999999E-01;1534;  0.0000000E+00;  0.0000000E+00;  0.0000000E+00;  1.0006385E+03;  1.0000000E-01;  5.2907147E+02;0;  0.0000000E+00;  0.0000000E+00;  0.0000000E+00;0; -2.5941816E-03;  4.0000000E+04;  0.0000000E+00;  0.0000000E+00;  4.0000000E+04;  0.0000000E+00;  4.0000000E+04; -1.7977618E-03;  0.0000000E+00; -7.9641980E-04;  1.5050183E+03;
 -3.9999999E-02;  9.9999998E-03;  3.6000001E-01;1535;  0.0000000E+00;  0.0000000E+00;  0.0000000E+00;  1.0004668E+03;  1.0000000E-01;  3.8675449E+02;0;  0.0000000E+00;  0.0000000E+00;  0.0000000E+00;0; -1.8807917E-03;  4.0000000E+04;  0.0000000E+00;  0.0000000E+00;  4.0000000E+04;  0.0000000E+00;  4.0000000E+04; -1.2379530E-03;  0.0000000E+00; -6.4283877E-04;  1.3085203E+03;
 -3.9999999E-02;  9.9999998E-03;  3.7000000E-01;1536;  0.0000000E+00;  0.0000000E+00;  0.0000000E+00;  1.0003282E+03;  1.0000000E-01;  2.7189355E+02;0;  0.0000000E+00;  0.0000000E+00;  0.0000000E+00;0; -1.3135585E-03;  4.0000000E+04;  0.0000000E+00;  0.0000000E+00;  4.0000000E+04;  0.0000000E+00;  4.0000000E+04; -8.1471179E-04;  0.0000000E+00; -4.9884670E-04;  1.0839264E+03;
 -3.9999999E-02;  9.9999998E-03;  3.8000000E-01;1537;  0.0000000E+00;  0.0000000E+00;  0.0000000E+00;  1.0002161E+03;  1.0000000E-01;  1.7905667E+02;0;  0.0000000E+00;  0.0000000E+00;  0.0000000E+00;0; -8.7808986E-04;  4.0000000E+04;  0.0000000E+00;  0.0000000E+00;  4.0000000E+04;  0.0000000E+00;  4.0000000E+04; -5.0867785E-04;  0.0000000E+00; -3.6941201E-04;  8.5069690E+02;
 -3.9999999E-02;  9.9999998E-03;  3.8999999E-01;1538;  0.0000000E+00;  0.0000000E+00;  0.0000000E+00;  1.0001296E+03;  1.0000000E-01;  1.0735499E+02;0;  0.0000000E+00;  0.0000000E+00;  0.0000000E+00;0; -5.5572874E-04;  4.0000000E+04;  0.0000000E+00;  0.0000000E+00;  4.0000000E+04;  0.0000000E+00;  4.0000000E+04; -2.9807878E-04;  0.0000000E+00; -2.5764995E-04;  6.2513763E+02;
 -3.9999999E-02;  9.9999998E-03;  4.0000001E-01;1539;  0.0000000E+00;  0.0000000E+00;  0.0000000E+00;  1.0000756E+03;  1.0000000E-01;  6.2615513E+01;0;  0.0000000E+00;  0.0000000E+00;  0.0000000E+00;0; -3.2697467E-04;  4.0000000E+04;  0.0000000E+00;  0.0000000E+00;  4.0000000E+04;  0.0000000E+00;  4.0000000E+04; -1.6129301E-04;  0.0000000E+00; -1.6568166E-04;  4.2157117E+02;
 -2.9999999E-02;  9.9999998E-03;  2.3999999E-01;1614;  0.0000000E+00;  0.0000000E+00;  0.0000000E+00;  1.0050813E+03;  1.0000000E-01;  4.2097573E+03;0;  0.0000000E+00;  0.0000000E+00;  0.0000000E+00;0; -1.9551657E-02;  4.0000000E+04;  0.0000000E+00;  0.0000000E+00;  4.0000000E+04;  0.0000000E+00;  4.0000000E+04; -1.9151414E-02;  0.0000000E+00; -4.0024321E-04;  2.4944893E+03;
 -2.9999999E-02;  9.9999998E-03;  2.5000000E-01;1615;  0.0000000E+00;  0.0000000E+00;  0.0000000E+00;  1.0046793E+03;  1.0000000E-01;  3.8766311E+03;0;  0.0000000E+00;  0.0000000E+00;  0.0000000E+00;0; -1.8226178E-02;  4.0000000E+04;  0.0000000E+00;  0.0000000E+00;  4.0000000E+04;  0.0000000E+00;  4.0000000E+04; -1.7517107E-02;  0.0000000E+00; -7.0907199E-04;  2.0197500E+03;
 -2.9999999E-02;  9.9999998E-03;  2.5999999E-01;1616;  0.0000000E+00;  0.0000000E+00;  0.0000000E+00;  1.0042815E+03;  1.0000000E-01;  3.5471589E+03;0;  0.0000000E+00;  0.0000000E+00;  0.0000000E+00;0; -1.6826957E-02;  4.0000000E+04;  0.0000000E+00;  0.0000000E+00;  4.0000000E+04;  0.0000000E+00;  4.0000000E+04; -1.5814058E-02;  0.0000000E+00; -1.0128983E-03;  1.4080630E+03;
 -2.9999999E-02;  9.9999998E-03;  2.7000001E-01;1617;  0.0000000E+00;  0.0000000E+00;  0.0000000E+00;  1.0038788E+03;  1.0000000E-01;  3.2135388E+03;0;  0.0000000E+00;  0.0000000E+00;  0.0000000E+00;0; -1.5350228E-02;  4.0000000E+04;  0.0000000E+00;  0.0000000E+00;  4.0000000E+04;  0.0000000E+00;  4.0000000E+04; -1.4061926E-02;  0.0000000E+00; -1.2883027E-03;  7.2675848E+02;
 -2.9999999E-02;  9.9999998E-03;  2.8000000E-01;1618;  0.0000000E+00;  0.0000000E+00;  0.0000000E+00;  1.0034720E+03;  1.0000000E-01;  2.8765605E+03;0;  0.0000000E+00;  0.0000000E+00;  0.0000000E+00;0; -1.3796649E-02;  4.0000000E+04;  0.0000000E+00;  0.0000000E+00;  4.0000000E+04;  0.0000000E+00;  4.0000000E+04; -1.2285545E-02;  0.0000000E+00; -1.5111036E-03;  3.4100470E+02;
 -2.9999999E-02;  9.9999998E-03;  2.8999999E-01;1619;  0.0000000E+00;  0.0000000E+00;  0.0000000E+00;  1.0030623E+03;  1.0000000E-01;  2.5370146E+03;0;  0.0000000E+00;  0.0000000E+00;  0.0000000E+00;0; -1.2176820E-02;  4.0000000E+04;  0.0000000E+00;  0.0000000E+00;  4.0000000E+04;  0.0000000E+00;  4.0000000E+04; -1.0517037E-02;  0.0000000E+00; -1.6597834E-03;  8.6060815E+02;
 -2.9999999E-02;  9.9999998E-03;  3.0000001E-01;1620;  0.0000000E+00;  0.0000000E+00;  0.0000000E+00;  1.0026477E+03;  1.0000000E-01;  2.1936169E+03;0;  0.0000000E+00;  0.0000000E+00;  0.0000000E+00;0; -1.0516858E-02;  4.0000000E+04;  0.0000000E+00;  0.0000000E+00;  4.0000000E+04;  0.0000000E+00;  4.0000000E+04; -8.7965392E-03;  0.0000000E+00; -1.7203185E-03;  1.4082218E+03;
 -2.9999999E-02;  9.9999998E-03;  3.1000000E-01;1621;  0.0000000E+00;  0.0000000E+00;  0.0000000E+00;  1.0022319E+03;  1.0000000E-01;  1.8491329E+03;0;  0.0000000E+00;  0.0000000E+00;  0.0000000E+00;0; -8.8616945E-03;  4.0000000E+04;  0.0000000E+00;  0.0000000E+00;  4.0000000E+04;  0.0000000E+00;  4.0000000E+04; -7.1697193E-03;  0.0000000E+00; -1.6919752E-03;  1.8026827E+03;
 -2.9999999E-02;  9.9999998E-03;  3.1999999E-01;1622;  0.0000000E+00;  0.0000000E+00;  0.0000000E+00;  1.0018384E+03;  1.0000000E-01;  1.5230187E+03;0;  0.0000000E+00;  0.0000000E+00;  0.0000000E+00;0; -7.2693652E-03;  4.0000000E+04;  0.0000000E+00;  0.0000000E+00;  4.0000000E+04;  0.0000000E+00;  4.0000000E+04; -5.6813899E-03;  0.0000000E+00; -1.5879753E-03;  2.0201835E+03;
 -2.9999999E-02;  9.9999998E-03;  3.3000001E-01;1623;  0.0000000E+00;  0.0000000E+00;  0.0000000E+00;  1.0014772E+03;  1.0000000E-01;  1.2238666E+03;0;  0.0000000E+00;  0.0000000E+00;  0.0000000E+00;0; -5.7974700E-03;  4.0000000E+04;  0.0000000E+00;  0.0000000E+00;  4.0000000E+04;  0.0000000E+00;  4.0000000E+04; -4.3676123E-03;  0.0000000E+00; -1.4298577E-03;  2.0753306E+03;
 -2.9999999E-02;  9.9999998E-03;  3.4000000E-01;1624;  0.0000000E+00;  0.0000000E+00;  0.0000000E+00;  1.0011489E+03;  1.0000000E-01;  9.5177557E+02;0;  0.0000000E+00;  0.0000000E+00;  0.0000000E+00;0; -4.4908319E-03;  4.0000000E+04;  0.0000000E+00;  0.0000000E+00;  4.0000000E+04;  0.0000000E+00;  4.0000000E+04; -3.2502864E-03;  0.0000000E+00; -1.2405455E-03;  2.0002098E+03;
 -2.9999999E-02;  9.9999998E-03;  3.4999999E-01;1625;  0.0000000E+00;  0.0000000E+00;  0.0000000E+00;  1.0008741E+03;  1.0000000E-01;  7.2412769E+02;0;  0.0000000E+00;  0.0000000E+00;  0.0000000E+00;0; -3.3751428E-03;  4.0000000E+04;  0.0000000E+00;  0.0000000E+00;  4.0000000E+04;  0.0000000E+00;  4.0000000E+04; -2.3354618E-03;  0.0000000E+00; -1.0396809E-03;  1.8310925E+03;
 -2.9999999E-02;  9.9999998E-03;  3.6000001E-01;1626;  0.0000000E+00;  0.0000000E+00;  0.0000000E+00;  1.0006461E+03;  1.0000000E-01;  5.3529352E+02;0;  0.0000000E+00;  0.0000000E+00;  0.0000000E+00;0; -2.4567044E-03;  4.0000000E+04;  0.0000000E+00;  0.0000000E+00;  4.0000000E+04;  0.0000000E+00;  4.0000000E+04; -1.6148794E-03;  0.0000000E+00; -8.4182498E-04;  1.6010564E+03;
 -2.9999999E-02;  9.9999998E-03;  3.7000000E-01;1627;  0.0000000E+00;  0.0000000E+00;  0.0000000E+00;  1.0004485E+03;  1.0000000E-01;  3.7154504E+02;0;  0.0000000E+00;  0.0000000E+00;  0.0000000E+00;0; -1.7262218E-03;  4.0000000E+04;  0.0000000E+00;  0.0000000E+00;  4.0000000E+04;  0.0000000E+00;  4.0000000E+04; -1.0695613E-03;  0.0000000E+00; -6.5666047E-04;  1.3374508E+03;
 -2.9999999E-02;  9.9999998E-03;  3.8000000E-01;1628;  0.0000000E+00;  0.0000000E+00;  0.0000000E+00;  1.0003140E+03;  1.0000000E-01;  2.6014078E+02;0;  0.0000000E+00;  0.0000000E+00;  0.0000000E+00;0; -1.1641745E-03;  4.0000000E+04;  0.0000000E+00;  0.0000000E+00;  4.0000000E+04;  0.0000000E+00;  4.0000000E+04; -6.7402143E-04;  0.0000000E+00; -4.9015309E-04;  1.0622084E+03;
 -2.9999999E-02;  9.9999998E-03;  3.8999999E-01;1629;  0.0000000E+00;  0.0000000E+00;  0.0000000E+00;  1.0002031E+03;  1.0000000E-01;  1.6819278E+02;0;  0.0000000E+00;  0.0000000E+00;  0.0000000E+00;0; -7.4611348E-04;  4.0000000E+04;  0.0000000E+00;  0.0000000E+00;  4.0000000E+04;  0.0000000E+00;  4.0000000E+04; -4.0019967E-04;  0.0000000E+00; -3.4591378E-04;  7.9348590E+02;
 -2.9999999E-02;  9.9999998E-03;  4.0000001E-01;1630;  0.0000000E+00;  0.0000000E+00;  0.0000000E+00;  1.0001212E+03;  1.0000000E-01;  1.0034284E+02;0;  0.0000000E+00;  0.0000000E+00;  0.0000000E+00;0; -4.4696016E-04;  4.0000000E+04;  0.0000000E+00;  0.0000000E+00;  4.0000000E+04;  0.0000000E+00;  4.0000000E+04; -2.2060404E-04;  0.0000000E+00; -2.2635613E-04;  5.4742963E+02;
 -2.0000000E-02;  9.9999998E-03;  2.3999999E-01;1705;  0.0000000E+00;  0.0000000E+00;  0.0000000E+00;  1.0065505E+03;  1.0000000E-01;  5.4270068E+03;0;  0.0000000E+00;  0.0000000E+00;  0.0000000E+00;0; -2.4409425E-02;  4.0000000E+04;  0.0000000E+00;  0.0000000E+00;  4.0000000E+04;  0.0000000E+00;  4.0000000E+04; -2.3884904E-02;  0.0000000E+00; -5.2452070E-04;  2.9014543E+03;
 -2.0000000E-02;  9.9999998E-03;  2.5000000E-01;1706;  0.0000000E+00;  0.0000000E+00;  0.0000000E+00;  1.0060422E+03;  1.0000000E-01;  5.0058833E+03;0;  0.0000000E+00;  0.0000000E+00;  0.0000000E+00;0; -2.2756513E-02;  4.0000000E+04;  0.0000000E+00;  0.0000000E+00;  4.0000000E+04;  0.0000000E+00;  4.0000000E+04; -2.1849714E-02;  0.0000000E+00; -9.0679806E-04;  2.3856985E+03;
 -2.0000000E-02;  9.9999998E-03;  2.5999999E-01;1707;  0.0000000E+00;  0.0000000E+00;  0.0000000E+00;  1.0055311E+03;  1.0000000E-01;  4.5823892E+03;0;  0.0000000E+00;  0.0000000E+00;  0.0000000E+00;0; -2.1010783E-02;  4.0000000E+04;  0.0000000E+00;  0.0000000E+00;  4.0000000E+04;  0.0000000E+00;  4.0000000E+04; -1.9726345E-02;  0.0000000E+00; -1.2844370E-03;  1.6931881E+03;
 -2.0000000E-02;  9.9999998E-03;  2.7000001E-01;1708;  0.0000000E+00;  0.0000000E+00;  0.0000000E+00;  1.0050164E+03;  1.0000000E-01;  4.1559316E+03;0;  0.0000000E+00;  0.0000000E+00;  0.0000000E+00;0; -1.9168457E-02;  4.0000000E+04;  0.0000000E+00;  0.0000000E+00;  4.0000000E+04;  0.0000000E+00;  4.0000000E+04; -1.7539725E-02;  0.0000000E+00; -1.6287329E-03;  8.9765698E+02;
 -2.0000000E-02;  9.9999998E-03;  2.8000000E-01;1709;  0.0000000E+00;  0.0000000E+00;  0.0000000E+00;  1.0044945E+03;  1.0000000E-01;  3.7236477E+03;0;  0.0000000E+00;  0.0000000E+00;  0.0000000E+00;0; -1.7230188E-02;  4.0000000E+04;  0.0000000E+00;  0.0000000E+00;  4.0000000E+04;  0.0000000E+00;  4.0000000E+04; -1.5320850E-02;  0.0000000E+00; -1.9093391E-03;  3.8764240E+02;
 -2.0000000E-02;  9.9999998E-03;  2.8999999E-01;1710;  0.0000000E+00;  0.0000000E+00;  0.0000000E+00;  1.0039648E+03;  1.0000000E-01;  3.2847466E+03;0;  0.0000000E+00;  0.0000000E+00;  0.0000000E+00;0; -1.5207326E-02;  4.0000000E+04;  0.0000000E+00;  0.0000000E+00;  4.0000000E+04;  0.0000000E+00;  4.0000000E+04; -1.3109412E-02;  0.0000000E+00; -2.0979135E-03;  9.8192761E+02;
 -2.0000000E-02;  9.9999998E-03;  3.0000001E-01;1711;  0.0000000E+00;  0.0000000E+00;  0.0000000E+00;  1.0034284E+03;  1.0000000E-01;  2.8404136E+03;0;  0.0000000E+00;  0.0000000E+00;  0.0000000E+00;0; -1.3130594E-02;  4.0000000E+04;  0.0000000E+00;  0.0000000E+00;  4.0000000E+04;  0.0000000E+00;  4.0000000E+04; -1.0956169E-02;  0.0000000E+00; -2.1744245E-03;  1.6350459E+03;
 -2.0000000E-02;  9.9999998E-03;  3.1000000E-01;1712;  0.0000000E+00;  0.0000000E+00;  0.0000000E+00;  1.0028984E+03;  1.0000000E-01;  2.4013147E+03;0;  0.0000000E+00;  0.0000000E+00;  0.0000000E+00;0; -1.1057754E-02;  4.0000000E+04;  0.0000000E+00;  0.0000000E+00;  4.0000000E+04;  0.0000000E+00;  4.0000000E+04; -8.9208232E-03;  0.0000000E+00; -2.1369308E-03;  2.1019434E+03;
 -2.0000000E-02;  9.9999998E-03;  3.1999999E-01;1713;  0.0000000E+00;  0.0000000E+00;  0.0000000E+00;  1.0023915E+03;  1.0000000E-01;  1.9812773E+03;0;  0.0000000E+00;  0.0000000E+00;  0.0000000E+00;0; -9.0653030E-03;  4.0000000E+04;  0.0000000E+00;  0.0000000E+00;  4.0000000E+04;  0.0000000E+00;  4.0000000E+04; -7.0619937E-03;  0.0000000E+00; -2.0033095E-03;  2.3556548E+03;
 -2.0000000E-02;  9.9999998E-03;  3.3000001E-01;1714;  0.0000000E+00;  0.0000000E+00;  0.0000000E+00;  1.0019199E+03;  1.0000000E-01;  1.5905723E+03;0;  0.0000000E+00;  0.0000000E+00;  0.0000000E+00;0; -7.2278660E-03;  4.0000000E+04;  0.0000000E+00;  0.0000000E+00;  4.0000000E+04;  0.0000000E+00;  4.0000000E+04; -5.4256390E-03;  0.0000000E+00; -1.8022272E-03;  2.4180825E+03;
 -2.0000000E-02;  9.9999998E-03;  3.4000000E-01;1715;  0.0000000E+00;  0.0000000E+00;  0.0000000E+00;  1.0014968E+03;  1.0000000E-01;  1.2400637E+03;0;  0.0000000E+00;  0.0000000E+00;  0.0000000E+00;0; -5.6013698E-03;  4.0000000E+04;  0.0000000E+00;  0.0000000E+00;  4.0000000E+04;  0.0000000E+00;  4.0000000E+04; -4.0380745E-03;  0.0000000E+00; -1.5632953E-03;  2.3305002E+03;
 -2.0000000E-02;  9.9999998E-03;  3.4999999E-01;1716;  0.0000000E+00;  0.0000000E+00;  0.0000000E+00;  1.0011368E+03;  1.0000000E-01;  9.4189929E+02;0;  0.0000000E+00;  0.0000000E+00;  0.0000000E+00;0; -4.2160475E-03;  4.0000000E+04;  0.0000000E+00;  0.0000000E+00;  4.0000000E+04;  0.0000000E+00;  4.0000000E+04; -2.9048424E-03;  0.0000000E+00; -1.3112050E-03;  2.1366396E+03;
 -2.0000000E-02;  9.9999998E-03;  3.6000001E-01;1717;  0.0000000E+00;  0.0000000E+00;  0.0000000E+00;  1.0008353E+03;  1.0000000E-01;  6.9202979E+02;0;  0.0000000E+00;  0.0000000E+00;  0.0000000E+00;0; -3.0774744E-03;  4.0000000E+04;  0.0000000E+00;  0.0000000E+00;  4.0000000E+04;  0.0000000E+00;  4.0000000E+04; -2.0136586E-03;  0.0000000E+00; -1.0638157E-03;  1.8745646E+03;
 -2.0000000E-02;  9.9999998E-03;  3.7000000E-01;1718;  0.0000000E+00;  0.0000000E+00;  0.0000000E+00;  1.0005969E+03;  1.0000000E-01;  4.9450455E+02;0;  0.0000000E+00;  0.0000000E+00;  0.0000000E+00;0; -2.1721704E-03;  4.0000000E+04;  0.0000000E+00;  0.0000000E+00;  4.0000000E+04;  0.0000000E+00;  4.0000000E+04; -1.3394306E-03;  0.0000000E+00; -8.3273981E-04;  1.5747137E+03;
 -2.0000000E-02;  9.9999998E-03;  3.8000000E-01;1719;  0.0000000E+00;  0.0000000E+00;  0.0000000E+00;  1.0003995E+03;  1.0000000E-01;  3.3105237E+02;0;  0.0000000E+00;  0.0000000E+00;  0.0000000E+00;0; -1.4746361E-03;  4.0000000E+04;  0.0000000E+00;  0.0000000E+00;  4.0000000E+04;  0.0000000E+00;  4.0000000E+04; -8.4967213E-04;  0.0000000E+00; -6.2496407E-04;  1.2610061E+03;
 -2.0000000E-02;  9.9999998E-03;  3.8999999E-01;1720;  0.0000000E+00;  0.0000000E+00;  0.0000000E+00;  1.0002597E+03;  1.0000000E-01;  2.1520380E+02;0;  0.0000000E+00;  0.0000000E+00;  0.0000000E+00;0; -9.5397519E-04;  4.0000000E+04;  0.0000000E+00;  0.0000000E+00;  4.0000000E+04;  0.0000000E+00;  4.0000000E+04; -5.0935510E-04;  0.0000000E+00; -4.4462009E-04;  9.5301349E+02;
 -2.0000000E-02;  9.9999998E-03;  4.0000001E-01;1721;  0.0000000E+00;  0.0000000E+00;  0.0000000E+00;  1.0001523E+03;  1.0000000E-01;  1.2621865E+02;0;  0.0000000E+00;  0.0000000E+00;  0.0000000E+00;0; -5.7906634E-04;  4.0000000E+04;  0.0000000E+00;  0.0000000E+00;  4.0000000E+04;  0.0000000E+00;  4.0000000E+04; -2.8462909E-04;  0.0000000E+00; -2.9443725E-04;  6.6830945E+02;
 -9.9999998E-03;  9.9999998E-03;  2.3999999E-01;1796;  0.0000000E+00;  0.0000000E+00;  0.0000000E+00;  1.0081370E+03;  1.0000000E-01;  6.7413403E+03;0;  0.0000000E+00;  0.0000000E+00;  0.0000000E+00;0; -2.9410101E-02;  4.0000000E+04;  0.0000000E+00;  0.0000000E+00;  4.0000000E+04;  0.0000000E+00;  4.0000000E+04; -2.8750852E-02;  0.0000000E+00; -6.5924914E-04;  3.2572256E+03;
 -9.9999998E-03;  9.9999998E-03;  2.5000000E-01;1797;  0.0000000E+00;  0.0000000E+00;  0.0000000E+00;  1.0075137E+03;  1.0000000E-01;  6.2250093E+03;0;  0.0000000E+00;  0.0000000E+00;  0.0000000E+00;0; -2.7418504E-02;  4.0000000E+04;  0.0000000E+00;  0.0000000E+00;  4.0000000E+04;  0.0000000E+00;  4.0000000E+04; -2.6300583E-02;  0.0000000E+00; -1.1179200E-03;  2.7278271E+03;
 -9.9999998E-03;  9.9999998E-03;  2.5999999E-01;1798;  0.0000000E+00;  0.0000000E+00;  0.0000000E+00;  1.0068886E+03;  1.0000000E-01;  5.7070977E+03;0;  0.0000000E+00;  0.0000000E+00;  0.0000000E+00;0; -2.5313467E-02;  4.0000000E+04;  0.0000000E+00;  0.0000000E+00;  4.0000000E+04;  0.0000000E+00;  4.0000000E+04; -2.3740463E-02;  0.0000000E+00; -1.5730029E-03;  1.9779458E+03;
 -9.9999998E-03;  9.9999998E-03;  2.7000001E-01;1799;  0.0000000E+00;  0.0000000E+00;  0.0000000E+00;  1.0062540E+03;  1.0000000E-01;  5.1812856E+03;0;  0.0000000E+00;  0.0000000E+00;  0.0000000E+00;0; -2.3092166E-02;  4.0000000E+04;  0.0000000E+00;  0.0000000E+00;  4.0000000E+04;  0.0000000E+00;  4.0000000E+04; -2.1101780E-02;  0.0000000E+00; -1.9903847E-03;  1.0844894E+03;
 -9.9999998E-03;  9.9999998E-03;  2.8000000E-01;1800;  0.0000000E+00;  0.0000000E+00;  0.0000000E+00;  1.0056094E+03;  1.0000000E-01;  4.6472759E+03;0;  0.0000000E+00;  0.0000000E+00;  0.0000000E+00;0; -2.0756315E-02;  4.0000000E+04;  0.0000000E+00;  0.0000000E+00;  4.0000000E+04;  0.0000000E+00;  4.0000000E+04; -1.8422781E-02;  0.0000000E+00; -2.3335349E-03;  4.3747018E+02;
 -9.9999998E-03;  9.9999998E-03;  2.8999999E-01;1801;  0.0000000E+00;  0.0000000E+00;  0.0000000E+00;  1.0049531E+03;  1.0000000E-01;  4.1035874E+03;0;  0.0000000E+00;  0.0000000E+00;  0.0000000E+00;0; -1.8318109E-02;  4.0000000E+04;  0.0000000E+00;  0.0000000E+00;  4.0000000E+04;  0.0000000E+00;  4.0000000E+04; -1.5751222E-02;  0.0000000E+00; -2.5668864E-03;  1.0778796E+03;
 -9.9999998E-03;  9.9999998E-03;  3.0000001E-01;1802;  0.0000000E+00;  0.0000000E+00;  0.0000000E+00;  1.0042927E+03;  1.0000000E-01;  3.5564426E+03;0;  0.0000000E+00;  0.0000000E+00;  0.0000000E+00;0; -1.5810370E-02;  4.0000000E+04;  0.0000000E+00;  0.0000000E+00;  4.0000000E+04;  0.0000000E+00;  4.0000000E+04; -1.3148377E-02;  0.0000000E+00; -2.6619937E-03;  1.8324481E+03;
 -9.9999998E-03;  9.9999998E-03;  3.1000000E-01;1803;  0.0000000E+00;  0.0000000E+00;  0.0000000E+00;  1.0036324E+03;  1.0000000E-01;  3.0093965E+03;0;  0.0000000E+00;  0.0000000E+00;  0.0000000E+00;0; -1.3303973E-02;  4.0000000E+04;  0.0000000E+00;  0.0000000E+00;  4.0000000E+04;  0.0000000E+00;  4.0000000E+04; -1.0689468E-02;  0.0000000E+00; -2.6145047E-03;  2.3660776E+03;
 -9.9999998E-03;  9.9999998E-03;  3.1999999E-01;1804;  0.0000000E+00;  0.0000000E+00;  0.0000000E+00;  1.0029933E+03;  1.0000000E-01;  2.4799299E+03;0;  0.0000000E+00;  0.0000000E+00;  0.0000000E+00;0; -1.0897169E-02;  4.0000000E+04;  0.0000000E+00;  0.0000000E+00;  4.0000000E+04;  0.0000000E+00;  4.0000000E+04; -8.4487526E-03;  0.0000000E+00; -2.4484165E-03;  2.6495652E+03;
 -9.9999998E-03;  9.9999998E-03;  3.3000001E-01;1805;  0.0000000E+00;  0.0000000E+00;  0.0000000E+00;  1.0024020E+03;  1.0000000E-01;  1.9899684E+03;0;  0.0000000E+00;  0.0000000E+00;  0.0000000E+00;0; -8.6834338E-03;  4.0000000E+04;  0.0000000E+00;  0.0000000E+00;  4.0000000E+04;  0.0000000E+00;  4.0000000E+04; -6.4826580E-03;  0.0000000E+00; -2.2007760E-03;  2.7149336E+03;
 -9.9999998E-03;  9.9999998E-03;  3.4000000E-01;1806;  0.0000000E+00;  0.0000000E+00;  0.0000000E+00;  1.0018810E+03;  1.0000000E-01;  1.5583757E+03;0;  0.0000000E+00;  0.0000000E+00;  0.0000000E+00;0; -6.7298170E-03;  4.0000000E+04;  0.0000000E+00;  0.0000000E+00;  4.0000000E+04;  0.0000000E+00;  4.0000000E+04; -4.8212293E-03;  0.0000000E+00; -1.9085878E-03;  2.6139326E+03;
 -9.9999998E-03;  9.9999998E-03;  3.4999999E-01;1807;  0.0000000E+00;  0.0000000E+00;  0.0000000E+00;  1.0014274E+03;  1.0000000E-01;  1.1825839E+03;0;  0.0000000E+00;  0.0000000E+00;  0.0000000E+00;0; -5.0702407E-03;  4.0000000E+04;  0.0000000E+00;  0.0000000E+00;  4.0000000E+04;  0.0000000E+00;  4.0000000E+04; -3.4684397E-03;  0.0000000E+00; -1.6018010E-03;  2.3972739E+03;
 -9.9999998E-03;  9.9999998E-03;  3.6000001E-01;1808;  0.0000000E+00;  0.0000000E+00;  0.0000000E+00;  1.0010511E+03;  1.0000000E-01;  8.7088898E+02;0;  0.0000000E+00;  0.0000000E+00;  0.0000000E+00;0; -3.7086462E-03;  4.0000000E+04;  0.0000000E+00;  0.0000000E+00;  4.0000000E+04;  0.0000000E+00;  4.0000000E+04; -2.4070421E-03;  0.0000000E+00; -1.3016040E-03;  2.1071050E+03;
 -9.9999998E-03;  9.9999998E-03;  3.7000000E-01;1809;  0.0000000E+00;  0.0000000E+00;  0.0000000E+00;  1.0007504E+03;  1.0000000E-01;  6.2171082E+02;0;  0.0000000E+00;  0.0000000E+00;  0.0000000E+00;0; -2.6266025E-03;  4.0000000E+04;  0.0000000E+00;  0.0000000E+00;  4.0000000E+04;  0.0000000E+00;  4.0000000E+04; -1.6050700E-03;  0.0000000E+00; -1.0215325E-03;  1.7762001E+03;
 -9.9999998E-03;  9.9999998E-03;  3.8000000E-01;1810;  0.0000000E+00;  0.0000000E+00;  0.0000000E+00;  1.0005149E+03;  1.0000000E-01;  4.2655585E+02;0;  0.0000000E+00;  0.0000000E+00;  0.0000000E+00;0; -1.7921180E-03;  4.0000000E+04;  0.0000000E+00;  0.0000000E+00;  4.0000000E+04;  0.0000000E+00;  4.0000000E+04; -1.0225074E-03;  0.0000000E+00; -7.6961057E-04;  1.4298390E+03;
 -9.9999998E-03;  9.9999998E-03;  3.8999999E-01;1811;  0.0000000E+00;  0.0000000E+00;  0.0000000E+00;  1.0003453E+03;  1.0000000E-01;  2.8601660E+02;0;  0.0000000E+00;  0.0000000E+00;  0.0000000E+00;0; -1.1675400E-03;  4.0000000E+04;  0.0000000E+00;  0.0000000E+00;  4.0000000E+04;  0.0000000E+00;  4.0000000E+04; -6.1699084E-04;  0.0000000E+00; -5.5054913E-04;  1.0887640E+03;
 -9.9999998E-03;  9.9999998E-03;  4.0000001E-01;1812;  0.0000000E+00;  0.0000000E+00;  0.0000000E+00;  1.0002086E+03;  1.0000000E-01;  1.7283463E+02;0;  0.0000000E+00;  0.0000000E+00;  0.0000000E+00;0; -7.1559614E-04;  4.0000000E+04;  0.0000000E+00;  0.0000000E+00;  4.0000000E+04;  0.0000000E+00;  4.0000000E+04; -3.4810728E-04;  0.0000000E+00; -3.6748883E-04;  7.7173560E+02;
  0.0000000E+00;  9.9999998E-03;  3.0000001E-01;1834;  0.0000000E+00;  0.0000000E+00;  0.0000000E+00;  1.0051941E+03;  1.0000000E-01;  4.3031870E+03;0;  0.0000000E+00;  0.0000000E+00;  0.0000000E+00;0; -1.8379439E-02;  4.0000000E+04;  0.0000000E+00;  0.0000000E+00;  4.0000000E+04;  0.0000000E+00;  4.0000000E+04; -1.5225537E-02;  0.0000000E+00; -3.1539018E-03;  1.9704327E+03;
  0.0000000E+00;  9.9999998E-03;  3.1000000E-01;1835;  0.0000000E+00;  0.0000000E+00;  0.0000000E+00;  1.0043918E+03;  1.0000000E-01;  3.6385144E+03;0;  0.0000000E+00;  0.0000000E+00;  0.0000000E+00;0; -1.5454237E-02;  4.0000000E+04;  0.0000000E+00;  0.0000000E+00;  4.0000000E+04;  0.0000000E+00;  4.0000000E+04; -1.2355838E-02;  0.0000000E+00; -3.0983991E-03;  2.5638635E+03;
  0.0000000E+00;  9.9999998E-03;  3.1999999E-01;1836;  0.0000000E+00;  0.0000000E+00;  0.0000000E+00;  1.0036188E+03;  1.0000000E-01;  2.9980386E+03;0;  0.0000000E+00;  0.0000000E+00;  0.0000000E+00;0; -1.2647499E-02;  4.0000000E+04;  0.0000000E+00;  0.0000000E+00;  4.0000000E+04;  0.0000000E+00;  4.0000000E+04; -9.7470693E-03;  0.0000000E+00; -2.9004300E-03;  2.8715540E+03;
  0.0000000E+00;  9.9999998E-03;  3.3000001E-01;1837;  0.0000000E+00;  0.0000000E+00;  0.0000000E+00;  1.0029032E+03;  1.0000000E-01;  2.4052654E+03;0;  0.0000000E+00;  0.0000000E+00;  0.0000000E+00;0; -1.0072367E-02;  4.0000000E+04;  0.0000000E+00;  0.0000000E+00;  4.0000000E+04;  0.0000000E+00;  4.0000000E+04; -7.4659358E-03;  0.0000000E+00; -2.6064320E-03;  2.9388601E+03;
  0.0000000E+00;  9.9999998E-03;  3.4000000E-01;1838;  0.0000000E+00;  0.0000000E+00;  0.0000000E+00;  1.0022704E+03;  1.0000000E-01;  1.8810332E+03;0;  0.0000000E+00;  0.0000000E+00;  0.0000000E+00;0; -7.8059956E-03;  4.0000000E+04;  0.0000000E+00;  0.0000000E+00;  4.0000000E+04;  0.0000000E+00;  4.0000000E+04; -5.5449642E-03;  0.0000000E+00; -2.2610312E-03;  2.8275957E+03;
  0.0000000E+00;  9.9999998E-03;  3.4999999E-01;1839;  0.0000000E+00;  0.0000000E+00;  0.0000000E+00;  1.0017298E+03;  1.0000000E-01;  1.4331447E+03;0;  0.0000000E+00;  0.0000000E+00;  0.0000000E+00;0; -5.8851279E-03;  4.0000000E+04;  0.0000000E+00;  0.0000000E+00;  4.0000000E+04;  0.0000000E+00;  4.0000000E+04; -3.9857626E-03;  0.0000000E+00; -1.8993656E-03;  2.5938606E+03;
  0.0000000E+00;  9.9999998E-03;  3.6000001E-01;1840;  0.0000000E+00;  0.0000000E+00;  0.0000000E+00;  1.0012841E+03;  1.0000000E-01;  1.0638711E+03;0;  0.0000000E+00;  0.0000000E+00;  0.0000000E+00;0; -4.3115448E-03;  4.0000000E+04;  0.0000000E+00;  0.0000000E+00;  4.0000000E+04;  0.0000000E+00;  4.0000000E+04; -2.7656590E-03;  0.0000000E+00; -1.5458859E-03;  2.2824492E+03;
  0.0000000E+00;  9.9999998E-03;  3.7000000E-01;1841;  0.0000000E+00;  0.0000000E+00;  0.0000000E+00;  1.0009182E+03;  1.0000000E-01;  7.6076862E+02;0;  0.0000000E+00;  0.0000000E+00;  0.0000000E+00;0; -3.0616927E-03;  4.0000000E+04;  0.0000000E+00;  0.0000000E+00;  4.0000000E+04;  0.0000000E+00;  4.0000000E+04; -1.8456506E-03;  0.0000000E+00; -1.2160422E-03;  1.9276987E+03;
  0.0000000E+00;  9.9999998E-03;  3.8000000E-01;1842;  0.0000000E+00;  0.0000000E+00;  0.0000000E+00;  1.0006390E+03;  1.0000000E-01;  5.2936774E+02;0;  0.0000000E+00;  0.0000000E+00;  0.0000000E+00;0; -2.0971000E-03;  4.0000000E+04;  0.0000000E+00;  0.0000000E+00;  4.0000000E+04;  0.0000000E+00;  4.0000000E+04; -1.1781522E-03;  0.0000000E+00; -9.1894792E-04;  1.5560149E+03;
  0.0000000E+00;  9.9999998E-03;  3.8999999E-01;1843;  0.0000000E+00;  0.0000000E+00;  0.0000000E+00;  1.0004199E+03;  1.0000000E-01;  3.4784201E+02;0;  0.0000000E+00;  0.0000000E+00;  0.0000000E+00;0; -1.3735329E-03;  4.0000000E+04;  0.0000000E+00;  0.0000000E+00;  4.0000000E+04;  0.0000000E+00;  4.0000000E+04; -7.1354816E-04;  0.0000000E+00; -6.5998477E-04;  1.1892740E+03;
  0.0000000E+00;  9.9999998E-03;  4.0000001E-01;1844;  0.0000000E+00;  0.0000000E+00;  0.0000000E+00;  1.0002610E+03;  1.0000000E-01;  2.1619142E+02;0;  0.0000000E+00;  0.0000000E+00;  0.0000000E+00;0; -8.4785395E-04;  4.0000000E+04;  0.0000000E+00;  0.0000000E+00;  4.0000000E+04;  0.0000000E+00;  4.0000000E+04; -4.0500236E-04;  0.0000000E+00; -4.4285163E-04;  8.4750928E+02;
  9.9999998E-03;  9.9999998E-03;  3.1000000E-01;1865;  0.0000000E+00;  0.0000000E+00;  0.0000000E+00;  1.0051370E+03;  1.0000000E-01;  4.2558794E+03;0;  0.0000000E+00;  0.0000000E+00;  0.0000000E+00;0; -1.7357036E-02;  4.0000000E+04;  0.0000000E+00;  0.0000000E+00;  4.0000000E+04;  0.0000000E+00;  4.0000000E+04; -1.3800100E-02;  0.0000000E+00; -3.5569356E-03;  2.6635940E+03;
  9.9999998E-03;  9.9999998E-03;  3.1999999E-01;1866;  0.0000000E+00;  0.0000000E+00;  0.0000000E+00;  1.0042296E+03;  1.0000000E-01;  3.5040984E+03;0;  0.0000000E+00;  0.0000000E+00;  0.0000000E+00;0; -1.4198048E-02;  4.0000000E+04;  0.0000000E+00;  0.0000000E+00;  4.0000000E+04;  0.0000000E+00;  4.0000000E+04; -1.0865491E-02;  0.0000000E+00; -3.3325576E-03;  2.9958604E+03;
  9.9999998E-03;  9.9999998E-03;  3.3000001E-01;1867;  0.0000000E+00;  0.0000000E+00;  0.0000000E+00;  1.0033962E+03;  1.0000000E-01;  2.8136489E+03;0;  0.0000000E+00;  0.0000000E+00;  0.0000000E+00;0; -1.1304120E-02;  4.0000000E+04;  0.0000000E+00;  0.0000000E+00;  4.0000000E+04;  0.0000000E+00;  4.0000000E+04; -8.3067510E-03;  0.0000000E+00; -2.9973688E-03;  3.0718918E+03;
  9.9999998E-03;  9.9999998E-03;  3.4000000E-01;1868;  0.0000000E+00;  0.0000000E+00;  0.0000000E+00;  1.0026542E+03;  1.0000000E-01;  2.1989502E+03;0;  0.0000000E+00;  0.0000000E+00;  0.0000000E+00;0; -8.7615466E-03;  4.0000000E+04;  0.0000000E+00;  0.0000000E+00;  4.0000000E+04;  0.0000000E+00;  4.0000000E+04; -6.1583379E-03;  0.0000000E+00; -2.6032089E-03;  2.9599858E+03;
  9.9999998E-03;  9.9999998E-03;  3.4999999E-01;1869;  0.0000000E+00;  0.0000000E+00;  0.0000000E+00;  1.0020214E+03;  1.0000000E-01;  1.6747180E+03;0;  0.0000000E+00;  0.0000000E+00;  0.0000000E+00;0; -6.6097584E-03;  4.0000000E+04;  0.0000000E+00;  0.0000000E+00;  4.0000000E+04;  0.0000000E+00;  4.0000000E+04; -4.4195433E-03;  0.0000000E+00; -2.1902148E-03;  2.7191243E+03;
  9.9999998E-03;  9.9999998E-03;  3.6000001E-01;1870;  0.0000000E+00;  0.0000000E+00;  0.0000000E+00;  1.0015051E+03;  1.0000000E-01;  1.2469771E+03;0;  0.0000000E+00;  0.0000000E+00;  0.0000000E+00;0; -4.8487382E-03;  4.0000000E+04;  0.0000000E+00;  0.0000000E+00;  4.0000000E+04;  0.0000000E+00;  4.0000000E+04; -3.0626401E-03;  0.0000000E+00; -1.7860982E-03;  2.3957324E+03;
  9.9999998E-03;  9.9999998E-03;  3.7000000E-01;1871;  0.0000000E+00;  0.0000000E+00;  0.0000000E+00;  1.0010806E+03;  1.0000000E-01;  8.9528333E+02;0;  0.0000000E+00;  0.0000000E+00;  0.0000000E+00;0; -3.4504104E-03;  4.0000000E+04;  0.0000000E+00;  0.0000000E+00;  4.0000000E+04;  0.0000000E+00;  4.0000000E+04; -2.0420922E-03;  0.0000000E+00; -1.4083183E-03;  2.0253315E+03;
  9.9999998E-03;  9.9999998E-03;  3.8000000E-01;1872;  0.0000000E+00;  0.0000000E+00;  0.0000000E+00;  1.0007543E+03;  1.0000000E-01;  6.2496997E+02;0;  0.0000000E+00;  0.0000000E+00;  0.0000000E+00;0; -2.3705182E-03;  4.0000000E+04;  0.0000000E+00;  0.0000000E+00;  4.0000000E+04;  0.0000000E+00;  4.0000000E+04; -1.3033270E-03;  0.0000000E+00; -1.0671911E-03;  1.6356610E+03;
  9.9999998E-03;  9.9999998E-03;  3.8999999E-01;1873;  0.0000000E+00;  0.0000000E+00;  0.0000000E+00;  1.0004975E+03;  1.0000000E-01;  4.1213651E+02;0;  0.0000000E+00;  0.0000000E+00;  0.0000000E+00;0; -1.5589355E-03;  4.0000000E+04;  0.0000000E+00;  0.0000000E+00;  4.0000000E+04;  0.0000000E+00;  4.0000000E+04; -7.9004053E-04;  0.0000000E+00; -7.6889491E-04;  1.2501926E+03;
  9.9999998E-03;  9.9999998E-03;  4.0000001E-01;1874;  0.0000000E+00;  0.0000000E+00;  0.0000000E+00;  1.0003094E+03;  1.0000000E-01;  2.5638782E+02;0;  0.0000000E+00;  0.0000000E+00;  0.0000000E+00;0; -9.6732384E-04;  4.0000000E+04;  0.0000000E+00;  0.0000000E+00;  4.0000000E+04;  0.0000000E+00;  4.0000000E+04; -4.4948963E-04;  0.0000000E+00; -5.1783421E-04;  8.9077319E+02;
  2.0000000E-02;  9.9999998E-03;  3.1000000E-01;1895;  0.0000000E+00;  0.0000000E+00;  0.0000000E+00;  1.0058083E+03;  1.0000000E-01;  4.8121108E+03;0;  0.0000000E+00;  0.0000000E+00;  0.0000000E+00;0; -1.8894099E-02;  4.0000000E+04;  0.0000000E+00;  0.0000000E+00;  4.0000000E+04;  0.0000000E+00;  4.0000000E+04; -1.4932067E-02;  0.0000000E+00; -3.9620311E-03;  2.6511533E+03;
  2.0000000E-02;  9.9999998E-03;  3.1999999E-01;1896;  0.0000000E+00;  0.0000000E+00;  0.0000000E+00;  1.0047878E+03;  1.0000000E-01;  3.9666038E+03;0;  0.0000000E+00;  0.0000000E+00;  0.0000000E+00;0; -1.5455439E-02;  4.0000000E+04;  0.0000000E+00;  0.0000000E+00;  4.0000000E+04;  0.0000000E+00;  4.0000000E+04; -1.1734870E-02;  0.0000000E+00; -3.7205683E-03;  3.0166765E+03;
  2.0000000E-02;  9.9999998E-03;  3.3000001E-01;1897;  0.0000000E+00;  0.0000000E+00;  0.0000000E+00;  1.0038433E+03;  1.0000000E-01;  3.1841074E+03;0;  0.0000000E+00;  0.0000000E+00;  0.0000000E+00;0; -1.2306744E-02;  4.0000000E+04;  0.0000000E+00;  0.0000000E+00;  4.0000000E+04;  0.0000000E+00;  4.0000000E+04; -8.9532752E-03;  0.0000000E+00; -3.3534688E-03;  3.1162385E+03;
  2.0000000E-02;  9.9999998E-03;  3.4000000E-01;1898;  0.0000000E+00;  0.0000000E+00;  0.0000000E+00;  1.0030084E+03;  1.0000000E-01;  2.4923740E+03;0;  0.0000000E+00;  0.0000000E+00;  0.0000000E+00;0; -9.5418971E-03;  4.0000000E+04;  0.0000000E+00;  0.0000000E+00;  4.0000000E+04;  0.0000000E+00;  4.0000000E+04; -6.6232202E-03;  0.0000000E+00; -2.9186772E-03;  3.0185996E+03;
  2.0000000E-02;  9.9999998E-03;  3.4999999E-01;1899;  0.0000000E+00;  0.0000000E+00;  0.0000000E+00;  1.0022931E+03;  1.0000000E-01;  1.8997981E+03;0;  0.0000000E+00;  0.0000000E+00;  0.0000000E+00;0; -7.2032679E-03;  4.0000000E+04;  0.0000000E+00;  0.0000000E+00;  4.0000000E+04;  0.0000000E+00;  4.0000000E+04; -4.7421819E-03;  0.0000000E+00; -2.4610863E-03;  2.7833538E+03;
  2.0000000E-02;  9.9999998E-03;  3.6000001E-01;1900;  0.0000000E+00;  0.0000000E+00;  0.0000000E+00;  1.0017068E+03;  1.0000000E-01;  1.4140835E+03;0;  0.0000000E+00;  0.0000000E+00;  0.0000000E+00;0; -5.2899886E-03;  4.0000000E+04;  0.0000000E+00;  0.0000000E+00;  4.0000000E+04;  0.0000000E+00;  4.0000000E+04; -3.2782583E-03;  0.0000000E+00; -2.0117303E-03;  2.4579150E+03;
  2.0000000E-02;  9.9999998E-03;  3.7000000E-01;1901;  0.0000000E+00;  0.0000000E+00;  0.0000000E+00;  1.0012319E+03;  1.0000000E-01;  1.0206131E+03;0;  0.0000000E+00;  0.0000000E+00;  0.0000000E+00;0; -3.7706941E-03;  4.0000000E+04;  0.0000000E+00;  0.0000000E+00;  4.0000000E+04;  0.0000000E+00;  4.0000000E+04; -2.1804590E-03;  0.0000000E+00; -1.5902353E-03;  2.0791982E+03;
  2.0000000E-02;  9.9999998E-03;  3.8000000E-01;1902;  0.0000000E+00;  0.0000000E+00;  0.0000000E+00;  1.0008651E+03;  1.0000000E-01;  7.1672046E+02;0;  0.0000000E+00;  0.0000000E+00;  0.0000000E+00;0; -2.5966046E-03;  4.0000000E+04;  0.0000000E+00;  0.0000000E+00;  4.0000000E+04;  0.0000000E+00;  4.0000000E+04; -1.3883024E-03;  0.0000000E+00; -1.2083021E-03;  1.6769758E+03;
  2.0000000E-02;  9.9999998E-03;  3.8999999E-01;1903;  0.0000000E+00;  0.0000000E+00;  0.0000000E+00;  1.0005767E+03;  1.0000000E-01;  4.7771487E+02;0;  0.0000000E+00;  0.0000000E+00;  0.0000000E+00;0; -1.7128480E-03;  4.0000000E+04;  0.0000000E+00;  0.0000000E+00;  4.0000000E+04;  0.0000000E+00;  4.0000000E+04; -8.3978649E-04;  0.0000000E+00; -8.7306154E-04;  1.2772261E+03;
  2.0000000E-02;  9.9999998E-03;  4.0000001E-01;1904;  0.0000000E+00;  0.0000000E+00;  0.0000000E+00;  1.0003660E+03;  1.0000000E-01;  3.0320129E+02;0;  0.0000000E+00;  0.0000000E+00;  0.0000000E+00;0; -1.0668513E-03;  4.0000000E+04;  0.0000000E+00;  0.0000000E+00;  4.0000000E+04;  0.0000000E+00;  4.0000000E+04; -4.7711082E-04;  0.0000000E+00; -5.8974046E-04;  9.0454980E+02;
  2.9999999E-02;  9.9999998E-03;  3.1000000E-01;1925;  0.0000000E+00;  0.0000000E+00;  0.0000000E+00;  1.0063773E+03;  1.0000000E-01;  5.2834062E+03;0;  0.0000000E+00;  0.0000000E+00;  0.0000000E+00;0; -2.0007301E-02;  4.0000000E+04;  0.0000000E+00;  0.0000000E+00;  4.0000000E+04;  0.0000000E+00;  4.0000000E+04; -1.5709117E-02;  0.0000000E+00; -4.2981845E-03;  2.5589260E+03;
  2.9999999E-02;  9.9999998E-03;  3.1999999E-01;1926;  0.0000000E+00;  0.0000000E+00;  0.0000000E+00;  1.0052609E+03;  1.0000000E-01;  4.3584941E+03;0;  0.0000000E+00;  0.0000000E+00;  0.0000000E+00;0; -1.6370650E-02;  4.0000000E+04;  0.0000000E+00;  0.0000000E+00;  4.0000000E+04;  0.0000000E+00;  4.0000000E+04; -1.2322082E-02;  0.0000000E+00; -4.0485682E-03;  2.9646882E+03;
  2.9999999E-02;  9.9999998E-03;  3.3000001E-01;1927;  0.0000000E+00;  0.0000000E+00;  0.0000000E+00;  1.0042284E+03;  1.0000000E-01;  3.5031108E+03;0;  0.0000000E+00;  0.0000000E+00;  0.0000000E+00;0; -1.3040667E-02;  4.0000000E+04;  0.0000000E+00;  0.0000000E+00;  4.0000000E+04;  0.0000000E+00;  4.0000000E+04; -9.3807345E-03;  0.0000000E+00; -3.6599333E-03;  3.1031418E+03;
  2.9999999E-02;  9.9999998E-03;  3.4000000E-01;1928;  0.0000000E+00;  0.0000000E+00;  0.0000000E+00;  1.0033090E+03;  1.0000000E-01;  2.7414534E+03;0;  0.0000000E+00;  0.0000000E+00;  0.0000000E+00;0; -1.0115938E-02;  4.0000000E+04;  0.0000000E+00;  0.0000000E+00;  4.0000000E+04;  0.0000000E+00;  4.0000000E+04; -6.9215721E-03;  0.0000000E+00; -3.1943661E-03;  3.0347273E+03;
  2.9999999E-02;  9.9999998E-03;  3.4999999E-01;1929;  0.0000000E+00;  0.0000000E+00;  0.0000000E+00;  1.0025251E+03;  1.0000000E-01;  2.0919902E+03;0;  0.0000000E+00;  0.0000000E+00;  0.0000000E+00;0; -7.6416163E-03;  4.0000000E+04;  0.0000000E+00;  0.0000000E+00;  4.0000000E+04;  0.0000000E+00;  4.0000000E+04; -4.9407734E-03;  0.0000000E+00; -2.7008427E-03;  2.8167280E+03;
  2.9999999E-02;  9.9999998E-03;  3.6000001E-01;1930;  0.0000000E+00;  0.0000000E+00;  0.0000000E+00;  1.0018746E+03;  1.0000000E-01;  1.5530425E+03;0;  0.0000000E+00;  0.0000000E+00;  0.0000000E+00;0; -5.6170109E-03;  4.0000000E+04;  0.0000000E+00;  0.0000000E+00;  4.0000000E+04;  0.0000000E+00;  4.0000000E+04; -3.4034431E-03;  0.0000000E+00; -2.2135677E-03;  2.4969006E+03;
  2.9999999E-02;  9.9999998E-03;  3.7000000E-01;1931;  0.0000000E+00;  0.0000000E+00;  0.0000000E+00;  1.0013626E+03;  1.0000000E-01;  1.1288569E+03;0;  0.0000000E+00;  0.0000000E+00;  0.0000000E+00;0; -4.0088622E-03;  4.0000000E+04;  0.0000000E+00;  0.0000000E+00;  4.0000000E+04;  0.0000000E+00;  4.0000000E+04; -2.2544635E-03;  0.0000000E+00; -1.7543989E-03;  2.1141040E+03;
  2.9999999E-02;  9.9999998E-03;  3.8000000E-01;1932;  0.0000000E+00;  0.0000000E+00;  0.0000000E+00;  1.0009564E+03;  1.0000000E-01;  7.9237268E+02;0;  0.0000000E+00;  0.0000000E+00;  0.0000000E+00;0; -2.7653165E-03;  4.0000000E+04;  0.0000000E+00;  0.0000000E+00;  4.0000000E+04;  0.0000000E+00;  4.0000000E+04; -1.4287455E-03;  0.0000000E+00; -1.3365709E-03;  1.7010236E+03;
  2.9999999E-02;  9.9999998E-03;  3.8999999E-01;1933;  0.0000000E+00;  0.0000000E+00;  0.0000000E+00;  1.0006427E+03;  1.0000000E-01;  5.3242938E+02;0;  0.0000000E+00;  0.0000000E+00;  0.0000000E+00;0; -1.8281224E-03;  4.0000000E+04;  0.0000000E+00;  0.0000000E+00;  4.0000000E+04;  0.0000000E+00;  4.0000000E+04; -8.5977989E-04;  0.0000000E+00; -9.6834247E-04;  1.2871283E+03;
  2.9999999E-02;  9.9999998E-03;  4.0000001E-01;1934;  0.0000000E+00;  0.0000000E+00;  0.0000000E+00;  1.0004078E+03;  1.0000000E-01;  3.3786697E+02;0;  0.0000000E+00;  0.0000000E+00;  0.0000000E+00;0; -1.1416342E-03;  4.0000000E+04;  0.0000000E+00;  0.0000000E+00;  4.0000000E+04;  0.0000000E+00;  4.0000000E+04; -4.8576979E-04;  0.0000000E+00; -6.5586442E-04;  9.0101666E+02;
  3.9999999E-02;  9.9999998E-03;  3.1000000E-01;1955;  0.0000000E+00;  0.0000000E+00;  0.0000000E+00;  1.0068243E+03;  1.0000000E-01;  5.6537661E+03;0;  0.0000000E+00;  0.0000000E+00;  0.0000000E+00;0; -2.0697979E-02;  4.0000000E+04;  0.0000000E+00;  0.0000000E+00;  4.0000000E+04;  0.0000000E+00;  4.0000000E+04; -1.6139328E-02;  0.0000000E+00; -4.5586503E-03;  2.4547412E+03;
  3.9999999E-02;  9.9999998E-03;  3.1999999E-01;1956;  0.0000000E+00;  0.0000000E+00;  0.0000000E+00;  1.0056347E+03;  1.0000000E-01;  4.6682139E+03;0;  0.0000000E+00;  0.0000000E+00;  0.0000000E+00;0; -1.6944297E-02;  4.0000000E+04;  0.0000000E+00;  0.0000000E+00;  4.0000000E+04;  0.0000000E+00;  4.0000000E+04; -1.2636036E-02;  0.0000000E+00; -4.3082614E-03;  2.9035442E+03;
  3.9999999E-02;  9.9999998E-03;  3.3000001E-01;1957;  0.0000000E+00;  0.0000000E+00;  0.0000000E+00;  1.0045342E+03;  1.0000000E-01;  3.7565356E+03;0;  0.0000000E+00;  0.0000000E+00;  0.0000000E+00;0; -1.3504691E-02;  4.0000000E+04;  0.0000000E+00;  0.0000000E+00;  4.0000000E+04;  0.0000000E+00;  4.0000000E+04; -9.5972093E-03;  0.0000000E+00; -3.9074826E-03;  3.0903811E+03;
  3.9999999E-02;  9.9999998E-03;  3.4000000E-01;1958;  0.0000000E+00;  0.0000000E+00;  0.0000000E+00;  1.0035542E+03;  1.0000000E-01;  2.9446082E+03;0;  0.0000000E+00;  0.0000000E+00;  0.0000000E+00;0; -1.0481146E-02;  4.0000000E+04;  0.0000000E+00;  0.0000000E+00;  4.0000000E+04;  0.0000000E+00;  4.0000000E+04; -7.0601692E-03;  0.0000000E+00; -3.4209769E-03;  3.0605625E+03;
  3.9999999E-02;  9.9999998E-03;  3.4999999E-01;1959;  0.0000000E+00;  0.0000000E+00;  0.0000000E+00;  1.0027146E+03;  1.0000000E-01;  2.2490227E+03;0;  0.0000000E+00;  0.0000000E+00;  0.0000000E+00;0; -7.9215365E-03;  4.0000000E+04;  0.0000000E+00;  0.0000000E+00;  4.0000000E+04;  0.0000000E+00;  4.0000000E+04; -5.0206590E-03;  0.0000000E+00; -2.9008775E-03;  2.8660325E+03;
  3.9999999E-02;  9.9999998E-03;  3.6000001E-01;1960;  0.0000000E+00;  0.0000000E+00;  0.0000000E+00;  1.0020209E+03;  1.0000000E-01;  1.6743230E+03;0;  0.0000000E+00;  0.0000000E+00;  0.0000000E+00;0; -5.8262870E-03;  4.0000000E+04;  0.0000000E+00;  0.0000000E+00;  4.0000000E+04;  0.0000000E+00;  4.0000000E+04; -3.4421713E-03;  0.0000000E+00; -2.3841155E-03;  2.5542876E+03;
  3.9999999E-02;  9.9999998E-03;  3.7000000E-01;1961;  0.0000000E+00;  0.0000000E+00;  0.0000000E+00;  1.0014613E+03;  1.0000000E-01;  1.2106324E+03;0;  0.0000000E+00;  0.0000000E+00;  0.0000000E+00;0; -4.1615516E-03;  4.0000000E+04;  0.0000000E+00;  0.0000000E+00;  4.0000000E+04;  0.0000000E+00;  4.0000000E+04; -2.2669390E-03;  0.0000000E+00; -1.8946124E-03;  2.1664983E+03;
  3.9999999E-02;  9.9999998E-03;  3.8000000E-01;1962;  0.0000000E+00;  0.0000000E+00;  0.0000000E+00;  1.0010237E+03;  1.0000000E-01;  8.4817352E+02;0;  0.0000000E+00;  0.0000000E+00;  0.0000000E+00;0; -2.8737225E-03;  4.0000000E+04;  0.0000000E+00;  0.0000000E+00;  4.0000000E+04;  0.0000000E+00;  4.0000000E+04; -1.4266022E-03;  0.0000000E+00; -1.4471202E-03;  1.7390187E+03;
  3.9999999E-02;  9.9999998E-03;  3.8999999E-01;1963;  0.0000000E+00;  0.0000000E+00;  0.0000000E+00;  1.0006914E+03;  1.0000000E-01;  5.7282330E+02;0;  0.0000000E+00;  0.0000000E+00;  0.0000000E+00;0; -1.9023889E-03;  4.0000000E+04;  0.0000000E+00;  0.0000000E+00;  4.0000000E+04;  0.0000000E+00;  4.0000000E+04; -8.5131853E-04;  0.0000000E+00; -1.0510704E-03;  1.3058491E+03;
  3.9999999E-02;  9.9999998E-03;  4.0000001E-01;1964;  0.0000000E+00;  0.0000000E+00;  0.0000000E+00;  1.0004459E+03;  1.0000000E-01;  3.6947104E+02;0;  0.0000000E+00;  0.0000000E+00;  0.0000000E+00;0; -1.1899197E-03;  4.0000000E+04;  0.0000000E+00;  0.0000000E+00;  4.0000000E+04;  0.0000000E+00;  4.0000000E+04; -4.7624516E-04;  0.0000000E+00; -7.1367447E-04;  9.0053333E+02;
  5.0000001E-02;  9.9999998E-03;  3.1000000E-01;1985;  0.0000000E+00;  0.0000000E+00;  0.0000000E+00;  1.0071451E+03;  1.0000000E-01;  5.9195361E+03;0;  0.0000000E+00;  0.0000000E+00;  0.0000000E+00;0; -2.1024182E-02;  4.0000000E+04;  0.0000000E+00;  0.0000000E+00;  4.0000000E+04;  0.0000000E+00;  4.0000000E+04; -1.6284220E-02;  0.0000000E+00; -4.7399630E-03;  2.4124302E+03;
  5.0000001E-02;  9.9999998E-03;  3.1999999E-01;1986;  0.0000000E+00;  0.0000000E+00;  0.0000000E+00;  1.0059112E+03;  1.0000000E-01;  4.8973428E+03;0;  0.0000000E+00;  0.0000000E+00;  0.0000000E+00;0; -1.7224126E-02;  4.0000000E+04;  0.0000000E+00;  0.0000000E+00;  4.0000000E+04;  0.0000000E+00;  4.0000000E+04; -1.2729201E-02;  0.0000000E+00; -4.4949250E-03;  2.9087529E+03;
  5.0000001E-02;  9.9999998E-03;  3.3000001E-01;1987;  0.0000000E+00;  0.0000000E+00;  0.0000000E+00;  1.0047577E+03;  1.0000000E-01;  3.9416169E+03;0;  0.0000000E+00;  0.0000000E+00;  0.0000000E+00;0; -1.3735820E-02;  4.0000000E+04;  0.0000000E+00;  0.0000000E+00;  4.0000000E+04;  0.0000000E+00;  4.0000000E+04; -9.6458020E-03;  0.0000000E+00; -4.0900181E-03;  3.1477939E+03;
  5.0000001E-02;  9.9999998E-03;  3.4000000E-01;1988;  0.0000000E+00;  0.0000000E+00;  0.0000000E+00;  1.0037310E+03;  1.0000000E-01;  3.0910730E+03;0;  0.0000000E+00;  0.0000000E+00;  0.0000000E+00;0; -1.0664685E-02;  4.0000000E+04;  0.0000000E+00;  0.0000000E+00;  4.0000000E+04;  0.0000000E+00;  4.0000000E+04; -7.0729922E-03;  0.0000000E+00; -3.5916925E-03;  3.1583298E+03;
  5.0000001E-02;  9.9999998E-03;  3.4999999E-01;1989;  0.0000000E+00;  0.0000000E+00;  0.0000000E+00;  1.0028538E+03;  1.0000000E-01;  2.3642788E+03;0;  0.0000000E+00;  0.0000000E+00;  0.0000000E+00;0; -8.0620041E-03;  4.0000000E+04;  0.0000000E+00;  0.0000000E+00;  4.0000000E+04;  0.0000000E+00;  4.0000000E+04; -5.0076111E-03;  0.0000000E+00; -3.0543930E-03;  2.9860088E+03;
  5.0000001E-02;  9.9999998E-03;  3.6000001E-01;1990;  0.0000000E+00;  0.0000000E+00;  0.0000000E+00;  1.0021223E+03;  1.0000000E-01;  1.7582712E+03;0;  0.0000000E+00;  0.0000000E+00;  0.0000000E+00;0; -5.9303623E-03;  4.0000000E+04;  0.0000000E+00;  0.0000000E+00;  4.0000000E+04;  0.0000000E+00;  4.0000000E+04; -3.4131918E-03;  0.0000000E+00; -2.5171703E-03;  2.6779365E+03;
  5.0000001E-02;  9.9999998E-03;  3.7000000E-01;1991;  0.0000000E+00;  0.0000000E+00;  0.0000000E+00;  1.0015349E+03;  1.0000000E-01;  1.2716677E+03;0;  0.0000000E+00;  0.0000000E+00;  0.0000000E+00;0; -4.2365761E-03;  4.0000000E+04;  0.0000000E+00;  0.0000000E+00;  4.0000000E+04;  0.0000000E+00;  4.0000000E+04; -2.2309492E-03;  0.0000000E+00; -2.0056271E-03;  2.2780217E+03;
  5.0000001E-02;  9.9999998E-03;  3.8000000E-01;1992;  0.0000000E+00;  0.0000000E+00;  0.0000000E+00;  1.0010788E+03;  1.0000000E-01;  8.9380188E+02;0;  0.0000000E+00;  0.0000000E+00;  0.0000000E+00;0; -2.9264614E-03;  4.0000000E+04;  0.0000000E+00;  0.0000000E+00;  4.0000000E+04;  0.0000000E+00;  4.0000000E+04; -1.3906579E-03;  0.0000000E+00; -1.5358037E-03;  1.8269236E+03;
  5.0000001E-02;  9.9999998E-03;  3.8999999E-01;1993;  0.0000000E+00;  0.0000000E+00;  0.0000000E+00;  1.0007242E+03;  1.0000000E-01;  5.9998303E+02;0;  0.0000000E+00;  0.0000000E+00;  0.0000000E+00;0; -1.9383526E-03;  4.0000000E+04;  0.0000000E+00;  0.0000000E+00;  4.0000000E+04;  0.0000000E+00;  4.0000000E+04; -8.2013948E-04;  0.0000000E+00; -1.1182131E-03;  1.3638688E+03;
  5.0000001E-02;  9.9999998E-03;  4.0000001E-01;1994;  0.0000000E+00;  0.0000000E+00;  0.0000000E+00;  1.0004637E+03;  1.0000000E-01;  3.8418668E+02;0;  0.0000000E+00;  0.0000000E+00;  0.0000000E+00;0; -1.2132663E-03;  4.0000000E+04;  0.0000000E+00;  0.0000000E+00;  4.0000000E+04;  0.0000000E+00;  4.0000000E+04; -4.5218482E-04;  0.0000000E+00; -7.6108146E-04;  9.2808142E+02;
  5.9999999E-02;  9.9999998E-03;  3.1000000E-01;2015;  0.0000000E+00;  0.0000000E+00;  0.0000000E+00;  1.0073547E+03;  1.0000000E-01;  6.0931611E+03;0;  0.0000000E+00;  0.0000000E+00;  0.0000000E+00;0; -2.1095978E-02;  4.0000000E+04;  0.0000000E+00;  0.0000000E+00;  4.0000000E+04;  0.0000000E+00;  4.0000000E+04; -1.6257394E-02;  0.0000000E+00; -4.8385835E-03;  2.4745127E+03;
  5.9999999E-02;  9.9999998E-03;  3.1999999E-01;2016;  0.0000000E+00;  0.0000000E+00;  0.0000000E+00;  1.0060955E+03;  1.0000000E-01;  5.0500298E+03;0;  0.0000000E+00;  0.0000000E+00;  0.0000000E+00;0; -1.7301004E-02;  4.0000000E+04;  0.0000000E+00;  0.0000000E+00;  4.0000000E+04;  0.0000000E+00;  4.0000000E+04; -1.2696886E-02;  0.0000000E+00; -4.6041184E-03;  3.0385679E+03;
  5.9999999E-02;  9.9999998E-03;  3.3000001E-01;2017;  0.0000000E+00;  0.0000000E+00;  0.0000000E+00;  1.0049131E+03;  1.0000000E-01;  4.0704033E+03;0;  0.0000000E+00;  0.0000000E+00;  0.0000000E+00;0; -1.3806494E-02;  4.0000000E+04;  0.0000000E+00;  0.0000000E+00;  4.0000000E+04;  0.0000000E+00;  4.0000000E+04; -9.6043376E-03;  0.0000000E+00; -4.2021563E-03;  3.3359766E+03;
  5.9999999E-02;  9.9999998E-03;  3.4000000E-01;2018;  0.0000000E+00;  0.0000000E+00;  0.0000000E+00;  1.0038559E+03;  1.0000000E-01;  3.1945764E+03;0;  0.0000000E+00;  0.0000000E+00;  0.0000000E+00;0; -1.0722390E-02;  4.0000000E+04;  0.0000000E+00;  0.0000000E+00;  4.0000000E+04;  0.0000000E+00;  4.0000000E+04; -7.0217876E-03;  0.0000000E+00; -3.7006028E-03;  3.3845220E+03;
  5.9999999E-02;  9.9999998E-03;  3.4999999E-01;2019;  0.0000000E+00;  0.0000000E+00;  0.0000000E+00;  1.0029441E+03;  1.0000000E-01;  2.4391409E+03;0;  0.0000000E+00;  0.0000000E+00;  0.0000000E+00;0; -8.1044966E-03;  4.0000000E+04;  0.0000000E+00;  0.0000000E+00;  4.0000000E+04;  0.0000000E+00;  4.0000000E+04; -4.9490081E-03;  0.0000000E+00; -3.1554883E-03;  3.2268691E+03;
  5.9999999E-02;  9.9999998E-03;  3.6000001E-01;2020;  0.0000000E+00;  0.0000000E+00;  0.0000000E+00;  1.0021917E+03;  1.0000000E-01;  1.8157511E+03;0;  0.0000000E+00;  0.0000000E+00;  0.0000000E+00;0; -5.9588216E-03;  4.0000000E+04;  0.0000000E+00;  0.0000000E+00;  4.0000000E+04;  0.0000000E+00;  4.0000000E+04; -3.3515366E-03;  0.0000000E+00; -2.6072853E-03;  2.9117156E+03;
  5.9999999E-02;  9.9999998E-03;  3.7000000E-01;2021;  0.0000000E+00;  0.0000000E+00;  0.0000000E+00;  1.0015858E+03;  1.0000000E-01;  1.3137406E+03;0;  0.0000000E+00;  0.0000000E+00;  0.0000000E+00;0; -4.2540976E-03;  4.0000000E+04;  0.0000000E+00;  0.0000000E+00;  4.0000000E+04;  0.0000000E+00;  4.0000000E+04; -2.1713292E-03;  0.0000000E+00; -2.0827684E-03;  2.4869741E+03;
  5.9999999E-02;  9.9999998E-03;  3.8000000E-01;2022;  0.0000000E+00;  0.0000000E+00;  0.0000000E+00;  1.0011178E+03;  1.0000000E-01;  9.2609729E+02;0;  0.0000000E+00;  0.0000000E+00;  0.0000000E+00;0; -2.9365942E-03;  4.0000000E+04;  0.0000000E+00;  0.0000000E+00;  4.0000000E+04;  0.0000000E+00;  4.0000000E+04; -1.3376655E-03;  0.0000000E+00; -1.5989287E-03;  1.9982279E+03;
  5.9999999E-02;  9.9999998E-03;  3.8999999E-01;2023;  0.0000000E+00;  0.0000000E+00;  0.0000000E+00;  1.0007511E+03;  1.0000000E-01;  6.2230341E+02;0;  0.0000000E+00;  0.0000000E+00;  0.0000000E+00;0; -1.9440562E-03;  4.0000000E+04;  0.0000000E+00;  0.0000000E+00;  4.0000000E+04;  0.0000000E+00;  4.0000000E+04; -7.7694358E-04;  0.0000000E+00; -1.1671127E-03;  1.4901748E+03;
  5.9999999E-02;  9.9999998E-03;  4.0000001E-01;2024;  0.0000000E+00;  0.0000000E+00;  0.0000000E+00;  1.0004787E+03;  1.0000000E-01;  3.9663077E+02;0;  0.0000000E+00;  0.0000000E+00;  0.0000000E+00;0; -1.2164931E-03;  4.0000000E+04;  0.0000000E+00;  0.0000000E+00;  4.0000000E+04;  0.0000000E+00;  4.0000000E+04; -4.2011810E-04;  0.0000000E+00; -7.9637504E-04;  1.0081840E+03;
  7.0000000E-02;  9.9999998E-03;  3.1000000E-01;2045;  0.0000000E+00;  0.0000000E+00;  0.0000000E+00;  1.0074905E+03;  1.0000000E-01;  6.2057505E+03;0;  0.0000000E+00;  0.0000000E+00;  0.0000000E+00;0; -2.1057870E-02;  4.0000000E+04;  0.0000000E+00;  0.0000000E+00;  4.0000000E+04;  0.0000000E+00;  4.0000000E+04; -1.6208477E-02;  0.0000000E+00; -4.8493929E-03;  2.6259861E+03;
  7.0000000E-02;  9.9999998E-03;  3.1999999E-01;2046;  0.0000000E+00;  0.0000000E+00;  0.0000000E+00;  1.0062228E+03;  1.0000000E-01;  5.1555083E+03;0;  0.0000000E+00;  0.0000000E+00;  0.0000000E+00;0; -1.7293736E-02;  4.0000000E+04;  0.0000000E+00;  0.0000000E+00;  4.0000000E+04;  0.0000000E+00;  4.0000000E+04; -1.2663621E-02;  0.0000000E+00; -4.6301149E-03;  3.3087024E+03;
  7.0000000E-02;  9.9999998E-03;  3.3000001E-01;2047;  0.0000000E+00;  0.0000000E+00;  0.0000000E+00;  1.0050219E+03;  1.0000000E-01;  4.1604751E+03;0;  0.0000000E+00;  0.0000000E+00;  0.0000000E+00;0; -1.3811912E-02;  4.0000000E+04;  0.0000000E+00;  0.0000000E+00;  4.0000000E+04;  0.0000000E+00;  4.0000000E+04; -9.5740426E-03;  0.0000000E+00; -4.2378693E-03;  3.6849346E+03;
  7.0000000E-02;  9.9999998E-03;  3.4000000E-01;2048;  0.0000000E+00;  0.0000000E+00;  0.0000000E+00;  1.0039387E+03;  1.0000000E-01;  3.2631177E+03;0;  0.0000000E+00;  0.0000000E+00;  0.0000000E+00;0; -1.0728521E-02;  4.0000000E+04;  0.0000000E+00;  0.0000000E+00;  4.0000000E+04;  0.0000000E+00;  4.0000000E+04; -6.9867941E-03;  0.0000000E+00; -3.7417270E-03;  3.7730828E+03;
  7.0000000E-02;  9.9999998E-03;  3.4999999E-01;2049;  0.0000000E+00;  0.0000000E+00;  0.0000000E+00;  1.0030105E+03;  1.0000000E-01;  2.4941516E+03;0;  0.0000000E+00;  0.0000000E+00;  0.0000000E+00;0; -8.1054028E-03;  4.0000000E+04;  0.0000000E+00;  0.0000000E+00;  4.0000000E+04;  0.0000000E+00;  4.0000000E+04; -4.9068336E-03;  0.0000000E+00; -3.1985696E-03;  3.6209753E+03;
  7.0000000E-02;  9.9999998E-03;  3.6000001E-01;2050;  0.0000000E+00;  0.0000000E+00;  0.0000000E+00;  1.0022385E+03;  1.0000000E-01;  1.8545648E+03;0;  0.0000000E+00;  0.0000000E+00;  0.0000000E+00;0; -5.9533101E-03;  4.0000000E+04;  0.0000000E+00;  0.0000000E+00;  4.0000000E+04;  0.0000000E+00;  4.0000000E+04; -3.3037709E-03;  0.0000000E+00; -2.6495394E-03;  3.2846934E+03;
  7.0000000E-02;  9.9999998E-03;  3.7000000E-01;2051;  0.0000000E+00;  0.0000000E+00;  0.0000000E+00;  1.0016123E+03;  1.0000000E-01;  1.3357646E+03;0;  0.0000000E+00;  0.0000000E+00;  0.0000000E+00;0; -4.2437473E-03;  4.0000000E+04;  0.0000000E+00;  0.0000000E+00;  4.0000000E+04;  0.0000000E+00;  4.0000000E+04; -2.1218162E-03;  0.0000000E+00; -2.1219314E-03;  2.8192197E+03;
  7.0000000E-02;  9.9999998E-03;  3.8000000E-01;2052;  0.0000000E+00;  0.0000000E+00;  0.0000000E+00;  1.0011287E+03;  1.0000000E-01;  9.3508466E+02;0;  0.0000000E+00;  0.0000000E+00;  0.0000000E+00;0; -2.9241086E-03;  4.0000000E+04;  0.0000000E+00;  0.0000000E+00;  4.0000000E+04;  0.0000000E+00;  4.0000000E+04; -1.2908761E-03;  0.0000000E+00; -1.6332326E-03;  2.2761536E+03;
  7.0000000E-02;  9.9999998E-03;  3.8999999E-01;2053;  0.0000000E+00;  0.0000000E+00;  0.0000000E+00;  1.0007587E+03;  1.0000000E-01;  6.2852545E+02;0;  0.0000000E+00;  0.0000000E+00;  0.0000000E+00;0; -1.9320941E-03;  4.0000000E+04;  0.0000000E+00;  0.0000000E+00;  4.0000000E+04;  0.0000000E+00;  4.0000000E+04; -7.3674630E-04;  0.0000000E+00; -1.1953479E-03;  1.7057618E+03;
  7.0000000E-02;  9.9999998E-03;  4.0000001E-01;2054;  0.0000000E+00;  0.0000000E+00;  0.0000000E+00;  1.0004803E+03;  1.0000000E-01;  3.9791467E+02;0;  0.0000000E+00;  0.0000000E+00;  0.0000000E+00;0; -1.2069452E-03;  4.0000000E+04;  0.0000000E+00;  0.0000000E+00;  4.0000000E+04;  0.0000000E+00;  4.0000000E+04; -3.8898058E-04;  0.0000000E+00; -8.1796455E-04;  1.1594421E+03;
  7.9999998E-02;  9.9999998E-03;  3.1000000E-01;2075;  0.0000000E+00;  0.0000000E+00;  0.0000000E+00;  1.0075942E+03;  1.0000000E-01;  6.2916738E+03;0;  0.0000000E+00;  0.0000000E+00;  0.0000000E+00;0; -2.1064386E-02;  4.0000000E+04;  0.0000000E+00;  0.0000000E+00;  4.0000000E+04;  0.0000000E+00;  4.0000000E+04; -1.6298486E-02;  0.0000000E+00; -4.7658994E-03;  2.8658940E+03;
  7.9999998E-02;  9.9999998E-03;  3.1999999E-01;2076;  0.0000000E+00;  0.0000000E+00;  0.0000000E+00;  1.0063246E+03;  1.0000000E-01;  5.2397529E+03;0;  0.0000000E+00;  0.0000000E+00;  0.0000000E+00;0; -1.7329000E-02;  4.0000000E+04;  0.0000000E+00;  0.0000000E+00;  4.0000000E+04;  0.0000000E+00;  4.0000000E+04; -1.2762847E-02;  0.0000000E+00; -4.5661526E-03;  3.7165566E+03;
  7.9999998E-02;  9.9999998E-03;  3.3000001E-01;2077;  0.0000000E+00;  0.0000000E+00;  0.0000000E+00;  1.0051112E+03;  1.0000000E-01;  4.2345469E+03;0;  0.0000000E+00;  0.0000000E+00;  0.0000000E+00;0; -1.3853657E-02;  4.0000000E+04;  0.0000000E+00;  0.0000000E+00;  4.0000000E+04;  0.0000000E+00;  4.0000000E+04; -9.6629001E-03;  0.0000000E+00; -4.1907569E-03;  4.1950957E+03;
  7.9999998E-02;  9.9999998E-03;  3.4000000E-01;2078;  0.0000000E+00;  0.0000000E+00;  0.0000000E+00;  1.0040125E+03;  1.0000000E-01;  3.3242517E+03;0;  0.0000000E+00;  0.0000000E+00;  0.0000000E+00;0; -1.0762769E-02;  4.0000000E+04;  0.0000000E+00;  0.0000000E+00;  4.0000000E+04;  0.0000000E+00;  4.0000000E+04; -7.0534428E-03;  0.0000000E+00; -3.7093258E-03;  4.3275796E+03;
  7.9999998E-02;  9.9999998E-03;  3.4999999E-01;2079;  0.0000000E+00;  0.0000000E+00;  0.0000000E+00;  1.0030604E+03;  1.0000000E-01;  2.5354346E+03;0;  0.0000000E+00;  0.0000000E+00;  0.0000000E+00;0; -8.1258854E-03;  4.0000000E+04;  0.0000000E+00;  0.0000000E+00;  4.0000000E+04;  0.0000000E+00;  4.0000000E+04; -4.9471860E-03;  0.0000000E+00; -3.1786992E-03;  4.1738950E+03;
  7.9999998E-02;  9.9999998E-03;  3.6000001E-01;2080;  0.0000000E+00;  0.0000000E+00;  0.0000000E+00;  1.0022698E+03;  1.0000000E-01;  1.8804407E+03;0;  0.0000000E+00;  0.0000000E+00;  0.0000000E+00;0; -5.9594261E-03;  4.0000000E+04;  0.0000000E+00;  0.0000000E+00;  4.0000000E+04;  0.0000000E+00;  4.0000000E+04; -3.3196639E-03;  0.0000000E+00; -2.6397621E-03;  3.8032976E+03;
  7.9999998E-02;  9.9999998E-03;  3.7000000E-01;2081;  0.0000000E+00;  0.0000000E+00;  0.0000000E+00;  1.0016345E+03;  1.0000000E-01;  1.3541345E+03;0;  0.0000000E+00;  0.0000000E+00;  0.0000000E+00;0; -4.2384113E-03;  4.0000000E+04;  0.0000000E+00;  0.0000000E+00;  4.0000000E+04;  0.0000000E+00;  4.0000000E+04; -2.1187488E-03;  0.0000000E+00; -2.1196625E-03;  3.2814971E+03;
  7.9999998E-02;  9.9999998E-03;  3.8000000E-01;2082;  0.0000000E+00;  0.0000000E+00;  0.0000000E+00;  1.0011370E+03;  1.0000000E-01;  9.4199805E+02;0;  0.0000000E+00;  0.0000000E+00;  0.0000000E+00;0; -2.9118061E-03;  4.0000000E+04;  0.0000000E+00;  0.0000000E+00;  4.0000000E+04;  0.0000000E+00;  4.0000000E+04; -1.2758489E-03;  0.0000000E+00; -1.6359573E-03;  2.6676914E+03;
  7.9999998E-02;  9.9999998E-03;  3.8999999E-01;2083;  0.0000000E+00;  0.0000000E+00;  0.0000000E+00;  1.0007585E+03;  1.0000000E-01;  6.2842670E+02;0;  0.0000000E+00;  0.0000000E+00;  0.0000000E+00;0; -1.9174148E-03;  4.0000000E+04;  0.0000000E+00;  0.0000000E+00;  4.0000000E+04;  0.0000000E+00;  4.0000000E+04; -7.1659178E-04;  0.0000000E+00; -1.2008231E-03;  2.0180250E+03;
  7.9999998E-02;  9.9999998E-03;  4.0000001E-01;2084;  0.0000000E+00;  0.0000000E+00;  0.0000000E+00;  1.0004844E+03;  1.0000000E-01;  4.0137137E+02;0;  0.0000000E+00;  0.0000000E+00;  0.0000000E+00;0; -1.1936098E-03;  4.0000000E+04;  0.0000000E+00;  0.0000000E+00;  4.0000000E+04;  0.0000000E+00;  4.0000000E+04; -3.6924746E-04;  0.0000000E+00; -8.2436239E-04;  1.3897832E+03;
  9.0000004E-02;  9.9999998E-03;  3.1000000E-01;2105;  0.0000000E+00;  0.0000000E+00;  0.0000000E+00;  1.0077183E+03;  1.0000000E-01;  6.3943872E+03;0;  0.0000000E+00;  0.0000000E+00;  0.0000000E+00;0; -2.1258965E-02;  4.0000000E+04;  0.0000000E+00;  0.0000000E+00;  4.0000000E+04;  0.0000000E+00;  4.0000000E+04; -1.6676851E-02;  0.0000000E+00; -4.5821136E-03;  3.4942329E+03;
  9.0000004E-02;  9.9999998E-03;  3.1999999E-01;2106;  0.0000000E+00;  0.0000000E+00;  0.0000000E+00;  1.0064477E+03;  1.0000000E-01;  5.3417749E+03;0;  0.0000000E+00;  0.0000000E+00;  0.0000000E+00;0; -1.7525259E-02;  4.0000000E+04;  0.0000000E+00;  0.0000000E+00;  4.0000000E+04;  0.0000000E+00;  4.0000000E+04; -1.3118918E-02;  0.0000000E+00; -4.4063409E-03;  4.3805308E+03;
  9.0000004E-02;  9.9999998E-03;  3.3000001E-01;2107;  0.0000000E+00;  0.0000000E+00;  0.0000000E+00;  1.0052193E+03;  1.0000000E-01;  4.3241245E+03;0;  0.0000000E+00;  0.0000000E+00;  0.0000000E+00;0; -1.4027873E-02;  4.0000000E+04;  0.0000000E+00;  0.0000000E+00;  4.0000000E+04;  0.0000000E+00;  4.0000000E+04; -9.9720620E-03;  0.0000000E+00; -4.0558116E-03;  4.8995386E+03;
  9.0000004E-02;  9.9999998E-03;  3.4000000E-01;2108;  0.0000000E+00;  0.0000000E+00;  0.0000000E+00;  1.0040983E+03;  1.0000000E-01;  3.3953608E+03;0;  0.0000000E+00;  0.0000000E+00;  0.0000000E+00;0; -1.0901590E-02;  4.0000000E+04;  0.0000000E+00;  0.0000000E+00;  4.0000000E+04;  0.0000000E+00;  4.0000000E+04; -7.3021837E-03;  0.0000000E+00; -3.5994065E-03;  5.0444893E+03;
  9.0000004E-02;  9.9999998E-03;  3.4999999E-01;2109;  0.0000000E+00;  0.0000000E+00;  0.0000000E+00;  1.0031218E+03;  1.0000000E-01;  2.5863960E+03;0;  0.0000000E+00;  0.0000000E+00;  0.0000000E+00;0; -8.2249558E-03;  4.0000000E+04;  0.0000000E+00;  0.0000000E+00;  4.0000000E+04;  0.0000000E+00;  4.0000000E+04; -5.1323068E-03;  0.0000000E+00; -3.0926487E-03;  4.8701553E+03;
  9.0000004E-02;  9.9999998E-03;  3.6000001E-01;2110;  0.0000000E+00;  0.0000000E+00;  0.0000000E+00;  1.0023064E+03;  1.0000000E-01;  1.9107607E+03;0;  0.0000000E+00;  0.0000000E+00;  0.0000000E+00;0; -6.0212864E-03;  4.0000000E+04;  0.0000000E+00;  0.0000000E+00;  4.0000000E+04;  0.0000000E+00;  4.0000000E+04; -3.4460432E-03;  0.0000000E+00; -2.5752431E-03;  4.4505254E+03;
  9.0000004E-02;  9.9999998E-03;  3.7000000E-01;2111;  0.0000000E+00;  0.0000000E+00;  0.0000000E+00;  1.0016516E+03;  1.0000000E-01;  1.3682576E+03;0;  0.0000000E+00;  0.0000000E+00;  0.0000000E+00;0; -4.2700004E-03;  4.0000000E+04;  0.0000000E+00;  0.0000000E+00;  4.0000000E+04;  0.0000000E+00;  4.0000000E+04; -2.1963716E-03;  0.0000000E+00; -2.0736288E-03;  3.8586108E+03;
  9.0000004E-02;  9.9999998E-03;  3.8000000E-01;2112;  0.0000000E+00;  0.0000000E+00;  0.0000000E+00;  1.0011462E+03;  1.0000000E-01;  9.4960278E+02;0;  0.0000000E+00;  0.0000000E+00;  0.0000000E+00;0; -2.9219864E-03;  4.0000000E+04;  0.0000000E+00;  0.0000000E+00;  4.0000000E+04;  0.0000000E+00;  4.0000000E+04; -1.3168877E-03;  0.0000000E+00; -1.6050988E-03;  3.1604988E+03;
  9.0000004E-02;  9.9999998E-03;  3.8999999E-01;2113;  0.0000000E+00;  0.0000000E+00;  0.0000000E+00;  1.0007556E+03;  1.0000000E-01;  6.2605640E+02;0;  0.0000000E+00;  0.0000000E+00;  0.0000000E+00;0; -1.9149669E-03;  4.0000000E+04;  0.0000000E+00;  0.0000000E+00;  4.0000000E+04;  0.0000000E+00;  4.0000000E+04; -7.3309452E-04;  0.0000000E+00; -1.1818723E-03;  2.4180305E+03;
  9.0000004E-02;  9.9999998E-03;  4.0000001E-01;2114;  0.0000000E+00;  0.0000000E+00;  0.0000000E+00;  1.0004785E+03;  1.0000000E-01;  3.9643323E+02;0;  0.0000000E+00;  0.0000000E+00;  0.0000000E+00;0; -1.1858752E-03;  4.0000000E+04;  0.0000000E+00;  0.0000000E+00;  4.0000000E+04;  0.0000000E+00;  4.0000000E+04; -3.7161639E-04;  0.0000000E+00; -8.1425876E-04;  1.6937433E+03;
  1.0000000E-01;  9.9999998E-03;  3.1000000E-01;2135;  0.0000000E+00;  0.0000000E+00;  0.0000000E+00;  1.0079045E+03;  1.0000000E-01;  6.5487529E+03;0;  0.0000000E+00;  0.0000000E+00;  0.0000000E+00;0; -2.1760723E-02;  4.0000000E+04;  0.0000000E+00;  0.0000000E+00;  4.0000000E+04;  0.0000000E+00;  4.0000000E+04; -1.7464822E-02;  0.0000000E+00; -4.2959005E-03;  5.3783359E+03;
  1.0000000E-01;  9.9999998E-03;  3.1999999E-01;2136;  0.0000000E+00;  0.0000000E+00;  0.0000000E+00;  1.0066260E+03;  1.0000000E-01;  5.4895239E+03;0;  0.0000000E+00;  0.0000000E+00;  0.0000000E+00;0; -1.7984012E-02;  4.0000000E+04;  0.0000000E+00;  0.0000000E+00;  4.0000000E+04;  0.0000000E+00;  4.0000000E+04; -1.3835109E-02;  0.0000000E+00; -4.1489033E-03;  5.7893564E+03;
  1.0000000E-01;  9.9999998E-03;  3.3000001E-01;2137;  0.0000000E+00;  0.0000000E+00;  0.0000000E+00;  1.0053775E+03;  1.0000000E-01;  4.4551826E+03;0;  0.0000000E+00;  0.0000000E+00;  0.0000000E+00;0; -1.4419600E-02;  4.0000000E+04;  0.0000000E+00;  0.0000000E+00;  4.0000000E+04;  0.0000000E+00;  4.0000000E+04; -1.0587424E-02;  0.0000000E+00; -3.8321763E-03;  6.0230630E+03;
  1.0000000E-01;  9.9999998E-03;  3.4000000E-01;2138;  0.0000000E+00;  0.0000000E+00;  0.0000000E+00;  1.0042266E+03;  1.0000000E-01;  3.5016294E+03;0;  0.0000000E+00;  0.0000000E+00;  0.0000000E+00;0; -1.1214111E-02;  4.0000000E+04;  0.0000000E+00;  0.0000000E+00;  4.0000000E+04;  0.0000000E+00;  4.0000000E+04; -7.8023542E-03;  0.0000000E+00; -3.4117566E-03;  5.9983726E+03;
  1.0000000E-01;  9.9999998E-03;  3.4999999E-01;2139;  0.0000000E+00;  0.0000000E+00;  0.0000000E+00;  1.0032175E+03;  1.0000000E-01;  2.6656035E+03;0;  0.0000000E+00;  0.0000000E+00;  0.0000000E+00;0; -8.4568597E-03;  4.0000000E+04;  0.0000000E+00;  0.0000000E+00;  4.0000000E+04;  0.0000000E+00;  4.0000000E+04; -5.5164569E-03;  0.0000000E+00; -2.9404026E-03;  5.7110278E+03;
  1.0000000E-01;  9.9999998E-03;  3.6000001E-01;2140;  0.0000000E+00;  0.0000000E+00;  0.0000000E+00;  1.0023711E+03;  1.0000000E-01;  1.9643889E+03;0;  0.0000000E+00;  0.0000000E+00;  0.0000000E+00;0; -6.1798724E-03;  4.0000000E+04;  0.0000000E+00;  0.0000000E+00;  4.0000000E+04;  0.0000000E+00;  4.0000000E+04; -3.7240128E-03;  0.0000000E+00; -2.4558597E-03;  5.1985952E+03;
  1.0000000E-01;  9.9999998E-03;  3.7000000E-01;2141;  0.0000000E+00;  0.0000000E+00;  0.0000000E+00;  1.0016879E+03;  1.0000000E-01;  1.3983802E+03;0;  0.0000000E+00;  0.0000000E+00;  0.0000000E+00;0; -4.3682707E-03;  4.0000000E+04;  0.0000000E+00;  0.0000000E+00;  4.0000000E+04;  0.0000000E+00;  4.0000000E+04; -2.3848247E-03;  0.0000000E+00; -1.9834463E-03;  4.5161270E+03;
  1.0000000E-01;  9.9999998E-03;  3.8000000E-01;2142;  0.0000000E+00;  0.0000000E+00;  0.0000000E+00;  1.0011624E+03;  1.0000000E-01;  9.6303448E+02;0;  0.0000000E+00;  0.0000000E+00;  0.0000000E+00;0; -2.9754019E-03;  4.0000000E+04;  0.0000000E+00;  0.0000000E+00;  4.0000000E+04;  0.0000000E+00;  4.0000000E+04; -1.4354134E-03;  0.0000000E+00; -1.5399886E-03;  3.7233765E+03;
  1.0000000E-01;  9.9999998E-03;  3.8999999E-01;2143;  0.0000000E+00;  0.0000000E+00;  0.0000000E+00;  1.0007590E+03;  1.0000000E-01;  6.2882172E+02;0;  0.0000000E+00;  0.0000000E+00;  0.0000000E+00;0; -1.9386231E-03;  4.0000000E+04;  0.0000000E+00;  0.0000000E+00;  4.0000000E+04;  0.0000000E+00;  4.0000000E+04; -8.0099766E-04;  0.0000000E+00; -1.1376254E-03;  2.8812637E+03;
  1.0000000E-01;  9.9999998E-03;  4.0000001E-01;2144;  0.0000000E+00;  0.0000000E+00;  0.0000000E+00;  1.0004742E+03;  1.0000000E-01;  3.9287778E+02;0;  0.0000000E+00;  0.0000000E+00;  0.0000000E+00;0; -1.1925512E-03;  4.0000000E+04;  0.0000000E+00;  0.0000000E+00;  4.0000000E+04;  0.0000000E+00;  4.0000000E+04; -4.0584261E-04;  0.0000000E+00; -7.8670861E-04;  2.0540168E+03;
  1.1000000E-01;  9.9999998E-03;  3.1000000E-01;2165;  0.0000000E+00;  0.0000000E+00;  0.0000000E+00;  1.0081935E+03;  1.0000000E-01;  6.7881538E+03;0;  0.0000000E+00;  0.0000000E+00;  0.0000000E+00;0; -2.2657994E-02;  4.0000000E+04;  0.0000000E+00;  0.0000000E+00;  4.0000000E+04;  0.0000000E+00;  4.0000000E+04; -1.8744953E-02;  0.0000000E+00; -3.9130421E-03;  9.4215020E+03;
  1.1000000E-01;  9.9999998E-03;  3.1999999E-01;2166;  0.0000000E+00;  0.0000000E+00;  0.0000000E+00;  1.0068979E+03;  1.0000000E-01;  5.7148013E+03;0;  0.0000000E+00;  0.0000000E+00;  0.0000000E+00;0; -1.8786402E-02;  4.0000000E+04;  0.0000000E+00;  0.0000000E+00;  4.0000000E+04;  0.0000000E+00;  4.0000000E+04; -1.4986621E-02;  0.0000000E+00; -3.7997814E-03;  8.8214072E+03;
  1.1000000E-01;  9.9999998E-03;  3.3000001E-01;2167;  0.0000000E+00;  0.0000000E+00;  0.0000000E+00;  1.0056171E+03;  1.0000000E-01;  4.6536953E+03;0;  0.0000000E+00;  0.0000000E+00;  0.0000000E+00;0; -1.5100770E-02;  4.0000000E+04;  0.0000000E+00;  0.0000000E+00;  4.0000000E+04;  0.0000000E+00;  4.0000000E+04; -1.1574925E-02;  0.0000000E+00; -3.5258443E-03;  8.1626553E+03;
  1.1000000E-01;  9.9999998E-03;  3.4000000E-01;2168;  0.0000000E+00;  0.0000000E+00;  0.0000000E+00;  1.0044198E+03;  1.0000000E-01;  3.6617236E+03;0;  0.0000000E+00;  0.0000000E+00;  0.0000000E+00;0; -1.1761313E-02;  4.0000000E+04;  0.0000000E+00;  0.0000000E+00;  4.0000000E+04;  0.0000000E+00;  4.0000000E+04; -8.6094644E-03;  0.0000000E+00; -3.1518487E-03;  7.4935518E+03;
  1.1000000E-01;  9.9999998E-03;  3.4999999E-01;2169;  0.0000000E+00;  0.0000000E+00;  0.0000000E+00;  1.0033668E+03;  1.0000000E-01;  2.7892544E+03;0;  0.0000000E+00;  0.0000000E+00;  0.0000000E+00;0; -8.8709546E-03;  4.0000000E+04;  0.0000000E+00;  0.0000000E+00;  4.0000000E+04;  0.0000000E+00;  4.0000000E+04; -6.1444188E-03;  0.0000000E+00; -2.7265358E-03;  6.7986323E+03;
  1.1000000E-01;  9.9999998E-03;  3.6000001E-01;2170;  0.0000000E+00;  0.0000000E+00;  0.0000000E+00;  1.0024750E+03;  1.0000000E-01;  2.0505100E+03;0;  0.0000000E+00;  0.0000000E+00;  0.0000000E+00;0; -6.4732684E-03;  4.0000000E+04;  0.0000000E+00;  0.0000000E+00;  4.0000000E+04;  0.0000000E+00;  4.0000000E+04; -4.1881669E-03;  0.0000000E+00; -2.2851017E-03;  6.0434951E+03;
  1.1000000E-01;  9.9999998E-03;  3.7000000E-01;2171;  0.0000000E+00;  0.0000000E+00;  0.0000000E+00;  1.0017550E+03;  1.0000000E-01;  1.4539835E+03;0;  0.0000000E+00;  0.0000000E+00;  0.0000000E+00;0; -4.5612054E-03;  4.0000000E+04;  0.0000000E+00;  0.0000000E+00;  4.0000000E+04;  0.0000000E+00;  4.0000000E+04; -2.7097117E-03;  0.0000000E+00; -1.8514937E-03;  5.2108477E+03;
  1.1000000E-01;  9.9999998E-03;  3.8000000E-01;2172;  0.0000000E+00;  0.0000000E+00;  0.0000000E+00;  1.0011943E+03;  1.0000000E-01;  9.8940411E+02;0;  0.0000000E+00;  0.0000000E+00;  0.0000000E+00;0; -3.0915788E-03;  4.0000000E+04;  0.0000000E+00;  0.0000000E+00;  4.0000000E+04;  0.0000000E+00;  4.0000000E+04; -1.6496098E-03;  0.0000000E+00; -1.4419692E-03;  4.3099541E+03;
  1.1000000E-01;  9.9999998E-03;  3.8999999E-01;2173;  0.0000000E+00;  0.0000000E+00;  0.0000000E+00;  1.0007778E+03;  1.0000000E-01;  6.4432745E+02;0;  0.0000000E+00;  0.0000000E+00;  0.0000000E+00;0; -2.0012783E-03;  4.0000000E+04;  0.0000000E+00;  0.0000000E+00;  4.0000000E+04;  0.0000000E+00;  4.0000000E+04; -9.3275035E-04;  0.0000000E+00; -1.0685280E-03;  3.3727148E+03;
  1.1000000E-01;  9.9999998E-03;  4.0000001E-01;2174;  0.0000000E+00;  0.0000000E+00;  0.0000000E+00;  1.0004757E+03;  1.0000000E-01;  3.9416168E+02;0;  0.0000000E+00;  0.0000000E+00;  0.0000000E+00;0; -1.2216641E-03;  4.0000000E+04;  0.0000000E+00;  0.0000000E+00;  4.0000000E+04;  0.0000000E+00;  4.0000000E+04; -4.8017962E-04;  0.0000000E+00; -7.4148452E-04;  2.4493853E+03;
  1.2000000E-01;  9.9999998E-03;  3.1000000E-01;2195;  0.0000000E+00;  0.0000000E+00;  0.0000000E+00;  1.0086088E+03;  1.0000000E-01;  7.1322427E+03;0;  0.0000000E+00;  0.0000000E+00;  0.0000000E+00;0; -2.4005078E-02;  4.0000000E+04;  0.0000000E+00;  0.0000000E+00;  4.0000000E+04;  0.0000000E+00;  4.0000000E+04; -2.0554738E-02;  0.0000000E+00; -3.4503394E-03;  1.6216402E+04;
  1.2000000E-01;  9.9999998E-03;  3.1999999E-01;2196;  0.0000000E+00;  0.0000000E+00;  0.0000000E+00;  1.0072889E+03;  1.0000000E-01;  6.0387427E+03;0;  0.0000000E+00;  0.0000000E+00;  0.0000000E+00;0; -1.9990759E-02;  4.0000000E+04;  0.0000000E+00;  0.0000000E+00;  4.0000000E+04;  0.0000000E+00;  4.0000000E+04; -1.6615737E-02;  0.0000000E+00; -3.3750220E-03;  1.4335704E+04;
  1.2000000E-01;  9.9999998E-03;  3.3000001E-01;2197;  0.0000000E+00;  0.0000000E+00;  0.0000000E+00;  1.0059614E+03;  1.0000000E-01;  4.9389219E+03;0;  0.0000000E+00;  0.0000000E+00;  0.0000000E+00;0; -1.6128581E-02;  4.0000000E+04;  0.0000000E+00;  0.0000000E+00;  4.0000000E+04;  0.0000000E+00;  4.0000000E+04; -1.2977381E-02;  0.0000000E+00; -3.1512000E-03;  1.2194714E+04;
  1.2000000E-01;  9.9999998E-03;  3.4000000E-01;2198;  0.0000000E+00;  0.0000000E+00;  0.0000000E+00;  1.0047083E+03;  1.0000000E-01;  3.9007292E+03;0;  0.0000000E+00;  0.0000000E+00;  0.0000000E+00;0; -1.2595076E-02;  4.0000000E+04;  0.0000000E+00;  0.0000000E+00;  4.0000000E+04;  0.0000000E+00;  4.0000000E+04; -9.7631933E-03;  0.0000000E+00; -2.8318823E-03;  1.0170074E+04;
  1.2000000E-01;  9.9999998E-03;  3.4999999E-01;2199;  0.0000000E+00;  0.0000000E+00;  0.0000000E+00;  1.0035884E+03;  1.0000000E-01;  2.9729529E+03;0;  0.0000000E+00;  0.0000000E+00;  0.0000000E+00;0; -9.5111812E-03;  4.0000000E+04;  0.0000000E+00;  0.0000000E+00;  4.0000000E+04;  0.0000000E+00;  4.0000000E+04; -7.0502646E-03;  0.0000000E+00; -2.4609165E-03;  8.4584844E+03;
  1.2000000E-01;  9.9999998E-03;  3.6000001E-01;2200;  0.0000000E+00;  0.0000000E+00;  0.0000000E+00;  1.0026348E+03;  1.0000000E-01;  2.1828518E+03;0;  0.0000000E+00;  0.0000000E+00;  0.0000000E+00;0; -6.9364673E-03;  4.0000000E+04;  0.0000000E+00;  0.0000000E+00;  4.0000000E+04;  0.0000000E+00;  4.0000000E+04; -4.8658592E-03;  0.0000000E+00; -2.0706083E-03;  7.0717881E+03;
  1.2000000E-01;  9.9999998E-03;  3.7000000E-01;2201;  0.0000000E+00;  0.0000000E+00;  0.0000000E+00;  1.0018646E+03;  1.0000000E-01;  1.5448452E+03;0;  0.0000000E+00;  0.0000000E+00;  0.0000000E+00;0; -4.8750415E-03;  4.0000000E+04;  0.0000000E+00;  0.0000000E+00;  4.0000000E+04;  0.0000000E+00;  4.0000000E+04; -3.1916585E-03;  0.0000000E+00; -1.6833831E-03;  5.9119727E+03;
  1.2000000E-01;  9.9999998E-03;  3.8000000E-01;2202;  0.0000000E+00;  0.0000000E+00;  0.0000000E+00;  1.0012572E+03;  1.0000000E-01;  1.0415508E+03;0;  0.0000000E+00;  0.0000000E+00;  0.0000000E+00;0; -3.2890216E-03;  4.0000000E+04;  0.0000000E+00;  0.0000000E+00;  4.0000000E+04;  0.0000000E+00;  4.0000000E+04; -1.9741696E-03;  0.0000000E+00; -1.3148518E-03;  4.8648467E+03;
  1.2000000E-01;  9.9999998E-03;  3.8999999E-01;2203;  0.0000000E+00;  0.0000000E+00;  0.0000000E+00;  1.0008083E+03;  1.0000000E-01;  6.6970947E+02;0;  0.0000000E+00;  0.0000000E+00;  0.0000000E+00;0; -2.1151553E-03;  4.0000000E+04;  0.0000000E+00;  0.0000000E+00;  4.0000000E+04;  0.0000000E+00;  4.0000000E+04; -1.1383316E-03;  0.0000000E+00; -9.7682374E-04;  3.8576526E+03;
  1.2000000E-01;  9.9999998E-03;  4.0000001E-01;2204;  0.0000000E+00;  0.0000000E+00;  0.0000000E+00;  1.0004886E+03;  1.0000000E-01;  4.0482806E+02;0;  0.0000000E+00;  0.0000000E+00;  0.0000000E+00;0; -1.2807257E-03;  4.0000000E+04;  0.0000000E+00;  0.0000000E+00;  4.0000000E+04;  0.0000000E+00;  4.0000000E+04; -6.0118065E-04;  0.0000000E+00; -6.7954510E-04;  2.8748389E+03;
  1.3000000E-01;  9.9999998E-03;  3.1000000E-01;2225;  0.0000000E+00;  0.0000000E+00;  0.0000000E+00;  1.0091633E+03;  1.0000000E-01;  7.5915879E+03;0;  0.0000000E+00;  0.0000000E+00;  0.0000000E+00;0; -2.5818475E-02;  4.0000000E+04;  0.0000000E+00;  0.0000000E+00;  4.0000000E+04;  0.0000000E+00;  4.0000000E+04; -2.2882396E-02;  0.0000000E+00; -2.9360782E-03;  2.6270088E+04;
  1.3000000E-01;  9.9999998E-03;  3.1999999E-01;2226;  0.0000000E+00;  0.0000000E+00;  0.0000000E+00;  1.0078093E+03;  1.0000000E-01;  6.4698418E+03;0;  0.0000000E+00;  0.0000000E+00;  0.0000000E+00;0; -2.1627350E-02;  4.0000000E+04;  0.0000000E+00;  0.0000000E+00;  4.0000000E+04;  0.0000000E+00;  4.0000000E+04; -1.8726818E-02;  0.0000000E+00; -2.9005322E-03;  2.3009543E+04;
  1.3000000E-01;  9.9999998E-03;  3.3000001E-01;2227;  0.0000000E+00;  0.0000000E+00;  0.0000000E+00;  1.0064247E+03;  1.0000000E-01;  5.3227139E+03;0;  0.0000000E+00;  0.0000000E+00;  0.0000000E+00;0; -1.7539913E-02;  4.0000000E+04;  0.0000000E+00;  0.0000000E+00;  4.0000000E+04;  0.0000000E+00;  4.0000000E+04; -1.4809465E-02;  0.0000000E+00; -2.7304483E-03;  1.8956457E+04;
  1.3000000E-01;  9.9999998E-03;  3.4000000E-01;2228;  0.0000000E+00;  0.0000000E+00;  0.0000000E+00;  1.0050988E+03;  1.0000000E-01;  4.2241768E+03;0;  0.0000000E+00;  0.0000000E+00;  0.0000000E+00;0; -1.3753058E-02;  4.0000000E+04;  0.0000000E+00;  0.0000000E+00;  4.0000000E+04;  0.0000000E+00;  4.0000000E+04; -1.1282858E-02;  0.0000000E+00; -2.4702004E-03;  1.4863578E+04;
  1.3000000E-01;  9.9999998E-03;  3.4999999E-01;2229;  0.0000000E+00;  0.0000000E+00;  0.0000000E+00;  1.0038989E+03;  1.0000000E-01;  3.2301309E+03;0;  0.0000000E+00;  0.0000000E+00;  0.0000000E+00;0; -1.0411933E-02;  4.0000000E+04;  0.0000000E+00;  0.0000000E+00;  4.0000000E+04;  0.0000000E+00;  4.0000000E+04; -8.2536172E-03;  0.0000000E+00; -2.1583161E-03;  1.1296561E+04;
  1.3000000E-01;  9.9999998E-03;  3.6000001E-01;2230;  0.0000000E+00;  0.0000000E+00;  0.0000000E+00;  1.0028688E+03;  1.0000000E-01;  2.3767229E+03;0;  0.0000000E+00;  0.0000000E+00;  0.0000000E+00;0; -7.5982362E-03;  4.0000000E+04;  0.0000000E+00;  0.0000000E+00;  4.0000000E+04;  0.0000000E+00;  4.0000000E+04; -5.7742540E-03;  0.0000000E+00; -1.8239821E-03;  8.5506572E+03;
  1.3000000E-01;  9.9999998E-03;  3.7000000E-01;2231;  0.0000000E+00;  0.0000000E+00;  0.0000000E+00;  1.0020214E+03;  1.0000000E-01;  1.6747180E+03;0;  0.0000000E+00;  0.0000000E+00;  0.0000000E+00;0; -5.3321468E-03;  4.0000000E+04;  0.0000000E+00;  0.0000000E+00;  4.0000000E+04;  0.0000000E+00;  4.0000000E+04; -3.8441960E-03;  0.0000000E+00; -1.4879510E-03;  6.6368276E+03;
  1.3000000E-01;  9.9999998E-03;  3.8000000E-01;2232;  0.0000000E+00;  0.0000000E+00;  0.0000000E+00;  1.0013649E+03;  1.0000000E-01;  1.1308323E+03;0;  0.0000000E+00;  0.0000000E+00;  0.0000000E+00;0; -3.5839409E-03;  4.0000000E+04;  0.0000000E+00;  0.0000000E+00;  4.0000000E+04;  0.0000000E+00;  4.0000000E+04; -2.4188887E-03;  0.0000000E+00; -1.1650522E-03;  5.3312305E+03;
  1.3000000E-01;  9.9999998E-03;  3.8999999E-01;2233;  0.0000000E+00;  0.0000000E+00;  0.0000000E+00;  1.0008682E+03;  1.0000000E-01;  7.1928827E+02;0;  0.0000000E+00;  0.0000000E+00;  0.0000000E+00;0; -2.2912216E-03;  4.0000000E+04;  0.0000000E+00;  0.0000000E+00;  4.0000000E+04;  0.0000000E+00;  4.0000000E+04; -1.4243972E-03;  0.0000000E+00; -8.6682447E-04;  4.3231562E+03;
  1.3000000E-01;  9.9999998E-03;  4.0000001E-01;2234;  0.0000000E+00;  0.0000000E+00;  0.0000000E+00;  1.0005211E+03;  1.0000000E-01;  4.3169150E+02;0;  0.0000000E+00;  0.0000000E+00;  0.0000000E+00;0; -1.3766303E-03;  4.0000000E+04;  0.0000000E+00;  0.0000000E+00;  4.0000000E+04;  0.0000000E+00;  4.0000000E+04; -7.7321450E-04;  0.0000000E+00; -6.0341583E-04;  3.3850820E+03;
  1.4000000E-01;  9.9999998E-03;  3.1000000E-01;2255;  0.0000000E+00;  0.0000000E+00;  0.0000000E+00;  1.0098419E+03;  1.0000000E-01;  8.1537446E+03;0;  0.0000000E+00;  0.0000000E+00;  0.0000000E+00;0; -2.8069345E-02;  4.0000000E+04;  0.0000000E+00;  0.0000000E+00;  4.0000000E+04;  0.0000000E+00;  4.0000000E+04; -2.5663158E-02;  0.0000000E+00; -2.4061869E-03;  4.0027395E+04;
  1.4000000E-01;  9.9999998E-03;  3.1999999E-01;2256;  0.0000000E+00;  0.0000000E+00;  0.0000000E+00;  1.0084538E+03;  1.0000000E-01;  7.0038511E+03;0;  0.0000000E+00;  0.0000000E+00;  0.0000000E+00;0; -2.3687050E-02;  4.0000000E+04;  0.0000000E+00;  0.0000000E+00;  4.0000000E+04;  0.0000000E+00;  4.0000000E+04; -2.1278758E-02;  0.0000000E+00; -2.4082926E-03;  3.5431645E+04;
  1.4000000E-01;  9.9999998E-03;  3.3000001E-01;2257;  0.0000000E+00;  0.0000000E+00;  0.0000000E+00;  1.0070057E+03;  1.0000000E-01;  5.8040825E+03;0;  0.0000000E+00;  0.0000000E+00;  0.0000000E+00;0; -1.9338382E-02;  4.0000000E+04;  0.0000000E+00;  0.0000000E+00;  4.0000000E+04;  0.0000000E+00;  4.0000000E+04; -1.7047837E-02;  0.0000000E+00; -2.2905453E-03;  2.9144920E+04;
  1.4000000E-01;  9.9999998E-03;  3.4000000E-01;2258;  0.0000000E+00;  0.0000000E+00;  0.0000000E+00;  1.0055951E+03;  1.0000000E-01;  4.6354243E+03;0;  0.0000000E+00;  0.0000000E+00;  0.0000000E+00;0; -1.5246324E-02;  4.0000000E+04;  0.0000000E+00;  0.0000000E+00;  4.0000000E+04;  0.0000000E+00;  4.0000000E+04; -1.3157211E-02;  0.0000000E+00; -2.0891125E-03;  2.2345369E+04;
  1.4000000E-01;  9.9999998E-03;  3.4999999E-01;2259;  0.0000000E+00;  0.0000000E+00;  0.0000000E+00;  1.0042957E+03;  1.0000000E-01;  3.5589116E+03;0;  0.0000000E+00;  0.0000000E+00;  0.0000000E+00;0; -1.1587415E-02;  4.0000000E+04;  0.0000000E+00;  0.0000000E+00;  4.0000000E+04;  0.0000000E+00;  4.0000000E+04; -9.7504016E-03;  0.0000000E+00; -1.8370138E-03;  1.6043948E+04;
  1.4000000E-01;  9.9999998E-03;  3.6000001E-01;2260;  0.0000000E+00;  0.0000000E+00;  0.0000000E+00;  1.0031709E+03;  1.0000000E-01;  2.6269875E+03;0;  0.0000000E+00;  0.0000000E+00;  0.0000000E+00;0; -8.4728869E-03;  4.0000000E+04;  0.0000000E+00;  0.0000000E+00;  4.0000000E+04;  0.0000000E+00;  4.0000000E+04; -6.9128987E-03;  0.0000000E+00; -1.5599884E-03;  1.0957638E+04;
  1.4000000E-01;  9.9999998E-03;  3.7000000E-01;2261;  0.0000000E+00;  0.0000000E+00;  0.0000000E+00;  1.0022396E+03;  1.0000000E-01;  1.8554537E+03;0;  0.0000000E+00;  0.0000000E+00;  0.0000000E+00;0; -5.9450464E-03;  4.0000000E+04;  0.0000000E+00;  0.0000000E+00;  4.0000000E+04;  0.0000000E+00;  4.0000000E+04; -4.6681976E-03;  0.0000000E+00; -1.2768487E-03;  7.4974077E+03;
  1.4000000E-01;  9.9999998E-03;  3.8000000E-01;2262;  0.0000000E+00;  0.0000000E+00;  0.0000000E+00;  1.0015083E+03;  1.0000000E-01;  1.2496437E+03;0;  0.0000000E+00;  0.0000000E+00;  0.0000000E+00;0; -3.9863358E-03;  4.0000000E+04;  0.0000000E+00;  0.0000000E+00;  4.0000000E+04;  0.0000000E+00;  4.0000000E+04; -2.9848674E-03;  0.0000000E+00; -1.0014683E-03;  5.6585063E+03;
  1.4000000E-01;  9.9999998E-03;  3.8999999E-01;2263;  0.0000000E+00;  0.0000000E+00;  0.0000000E+00;  1.0009600E+03;  1.0000000E-01;  7.9533551E+02;0;  0.0000000E+00;  0.0000000E+00;  0.0000000E+00;0; -2.5368608E-03;  4.0000000E+04;  0.0000000E+00;  0.0000000E+00;  4.0000000E+04;  0.0000000E+00;  4.0000000E+04; -1.7918695E-03;  0.0000000E+00; -7.4499124E-04;  4.8188223E+03;
  1.4000000E-01;  9.9999998E-03;  4.0000001E-01;2264;  0.0000000E+00;  0.0000000E+00;  0.0000000E+00;  1.0005641E+03;  1.0000000E-01;  4.6734482E+02;0;  0.0000000E+00;  0.0000000E+00;  0.0000000E+00;0; -1.5144709E-03;  4.0000000E+04;  0.0000000E+00;  0.0000000E+00;  4.0000000E+04;  0.0000000E+00;  4.0000000E+04; -9.9701493E-04;  0.0000000E+00; -5.1745604E-04;  4.1641084E+03;
  1.5000001E-01;  9.9999998E-03;  3.1000000E-01;2285;  0.0000000E+00;  0.0000000E+00;  0.0000000E+00;  1.0105997E+03;  1.0000000E-01;  8.7816777E+03;0;  0.0000000E+00;  0.0000000E+00;  0.0000000E+00;0; -3.0670302E-02;  4.0000000E+04;  0.0000000E+00;  0.0000000E+00;  4.0000000E+04;  0.0000000E+00;  4.0000000E+04; -2.8774196E-02;  0.0000000E+00; -1.8961056E-03;  5.7792926E+04;
  1.5000001E-01;  9.9999998E-03;  3.1999999E-01;2286;  0.0000000E+00;  0.0000000E+00;  0.0000000E+00;  1.0091862E+03;  1.0000000E-01;  7.6105503E+03;0;  0.0000000E+00;  0.0000000E+00;  0.0000000E+00;0; -2.6101876E-02;  4.0000000E+04;  0.0000000E+00;  0.0000000E+00;  4.0000000E+04;  0.0000000E+00;  4.0000000E+04; -2.4172299E-02;  0.0000000E+00; -1.9295770E-03;  5.2075105E+04;
  1.5000001E-01;  9.9999998E-03;  3.3000001E-01;2287;  0.0000000E+00;  0.0000000E+00;  0.0000000E+00;  1.0076782E+03;  1.0000000E-01;  6.3613018E+03;0;  0.0000000E+00;  0.0000000E+00;  0.0000000E+00;0; -2.1473153E-02;  4.0000000E+04;  0.0000000E+00;  0.0000000E+00;  4.0000000E+04;  0.0000000E+00;  4.0000000E+04; -1.9614559E-02;  0.0000000E+00; -1.8585942E-03;  4.3314621E+04;
  1.5000001E-01;  9.9999998E-03;  3.4000000E-01;2288;  0.0000000E+00;  0.0000000E+00;  0.0000000E+00;  1.0061780E+03;  1.0000000E-01;  5.1183735E+03;0;  0.0000000E+00;  0.0000000E+00;  0.0000000E+00;0; -1.7038921E-02;  4.0000000E+04;  0.0000000E+00;  0.0000000E+00;  4.0000000E+04;  0.0000000E+00;  4.0000000E+04; -1.5326856E-02;  0.0000000E+00; -1.7120654E-03;  3.3198723E+04;
  1.5000001E-01;  9.9999998E-03;  3.4999999E-01;2289;  0.0000000E+00;  0.0000000E+00;  0.0000000E+00;  1.0047783E+03;  1.0000000E-01;  3.9587029E+03;0;  0.0000000E+00;  0.0000000E+00;  0.0000000E+00;0; -1.3013848E-02;  4.0000000E+04;  0.0000000E+00;  0.0000000E+00;  4.0000000E+04;  0.0000000E+00;  4.0000000E+04; -1.1496716E-02;  0.0000000E+00; -1.5171317E-03;  2.3297246E+04;
  1.5000001E-01;  9.9999998E-03;  3.6000001E-01;2290;  0.0000000E+00;  0.0000000E+00;  0.0000000E+00;  1.0035391E+03;  1.0000000E-01;  2.9320652E+03;0;  0.0000000E+00;  0.0000000E+00;  0.0000000E+00;0; -9.5458347E-03;  4.0000000E+04;  0.0000000E+00;  0.0000000E+00;  4.0000000E+04;  0.0000000E+00;  4.0000000E+04; -8.2502244E-03;  0.0000000E+00; -1.2956108E-03;  1.4826218E+04;
  1.5000001E-01;  9.9999998E-03;  3.7000000E-01;2291;  0.0000000E+00;  0.0000000E+00;  0.0000000E+00;  1.0025079E+03;  1.0000000E-01;  2.0777683E+03;0;  0.0000000E+00;  0.0000000E+00;  0.0000000E+00;0; -6.7056795E-03;  4.0000000E+04;  0.0000000E+00;  0.0000000E+00;  4.0000000E+04;  0.0000000E+00;  4.0000000E+04; -5.6416057E-03;  0.0000000E+00; -1.0640739E-03;  8.7214551E+03;
  1.5000001E-01;  9.9999998E-03;  3.8000000E-01;2292;  0.0000000E+00;  0.0000000E+00;  0.0000000E+00;  1.0016846E+03;  1.0000000E-01;  1.3957136E+03;0;  0.0000000E+00;  0.0000000E+00;  0.0000000E+00;0; -4.4924943E-03;  4.0000000E+04;  0.0000000E+00;  0.0000000E+00;  4.0000000E+04;  0.0000000E+00;  4.0000000E+04; -3.6571983E-03;  0.0000000E+00; -8.3529623E-04;  5.8085752E+03;
  1.5000001E-01;  9.9999998E-03;  3.8999999E-01;2293;  0.0000000E+00;  0.0000000E+00;  0.0000000E+00;  1.0010703E+03;  1.0000000E-01;  8.8669098E+02;0;  0.0000000E+00;  0.0000000E+00;  0.0000000E+00;0; -2.8510767E-03;  4.0000000E+04;  0.0000000E+00;  0.0000000E+00;  4.0000000E+04;  0.0000000E+00;  4.0000000E+04; -2.2311176E-03;  0.0000000E+00; -6.1995914E-04;  5.5173784E+03;
  1.5000001E-01;  9.9999998E-03;  4.0000001E-01;2294;  0.0000000E+00;  0.0000000E+00;  0.0000000E+00;  1.0006395E+03;  1.0000000E-01;  5.2986157E+02;0;  0.0000000E+00;  0.0000000E+00;  0.0000000E+00;0; -1.6947095E-03;  4.0000000E+04;  0.0000000E+00;  0.0000000E+00;  4.0000000E+04;  0.0000000E+00;  4.0000000E+04; -1.2668014E-03;  0.0000000E+00; -4.2790812E-04;  5.5574336E+03;
  1.6000000E-01;  9.9999998E-03;  3.1000000E-01;2315;  0.0000000E+00;  0.0000000E+00;  0.0000000E+00;  1.0113703E+03;  1.0000000E-01;  9.4200791E+03;0;  0.0000000E+00;  0.0000000E+00;  0.0000000E+00;0; -3.3459596E-02;  4.0000000E+04;  0.0000000E+00;  0.0000000E+00;  4.0000000E+04;  0.0000000E+00;  4.0000000E+04; -3.2027964E-02;  0.0000000E+00; -1.4316327E-03;  7.9614398E+04;
  1.6000000E-01;  9.9999998E-03;  3.1999999E-01;2316;  0.0000000E+00;  0.0000000E+00;  0.0000000E+00;  1.0099498E+03;  1.0000000E-01;  8.2432236E+03;0;  0.0000000E+00;  0.0000000E+00;  0.0000000E+00;0; -2.8724125E-02;  4.0000000E+04;  0.0000000E+00;  0.0000000E+00;  4.0000000E+04;  0.0000000E+00;  4.0000000E+04; -2.7235091E-02;  0.0000000E+00; -1.4890347E-03;  7.3120328E+04;
  1.6000000E-01;  9.9999998E-03;  3.3000001E-01;2317;  0.0000000E+00;  0.0000000E+00;  0.0000000E+00;  1.0083865E+03;  1.0000000E-01;  6.9480503E+03;0;  0.0000000E+00;  0.0000000E+00;  0.0000000E+00;0; -2.3816090E-02;  4.0000000E+04;  0.0000000E+00;  0.0000000E+00;  4.0000000E+04;  0.0000000E+00;  4.0000000E+04; -2.2357423E-02;  0.0000000E+00; -1.4586666E-03;  6.1709105E+04;
  1.6000000E-01;  9.9999998E-03;  3.4000000E-01;2318;  0.0000000E+00;  0.0000000E+00;  0.0000000E+00;  1.0067977E+03;  1.0000000E-01;  5.6317422E+03;0;  0.0000000E+00;  0.0000000E+00;  0.0000000E+00;0; -1.9025318E-02;  4.0000000E+04;  0.0000000E+00;  0.0000000E+00;  4.0000000E+04;  0.0000000E+00;  4.0000000E+04; -1.7663289E-02;  0.0000000E+00; -1.3620304E-03;  4.7683551E+04;
  1.6000000E-01;  9.9999998E-03;  3.4999999E-01;2319;  0.0000000E+00;  0.0000000E+00;  0.0000000E+00;  1.0052909E+03;  1.0000000E-01;  4.3833823E+03;0;  0.0000000E+00;  0.0000000E+00;  0.0000000E+00;0; -1.4608815E-02;  4.0000000E+04;  0.0000000E+00;  0.0000000E+00;  4.0000000E+04;  0.0000000E+00;  4.0000000E+04; -1.3389014E-02;  0.0000000E+00; -1.2198015E-03;  3.3325496E+04;
  1.6000000E-01;  9.9999998E-03;  3.6000001E-01;2320;  0.0000000E+00;  0.0000000E+00;  0.0000000E+00;  1.0039415E+03;  1.0000000E-01;  3.2654878E+03;0;  0.0000000E+00;  0.0000000E+00;  0.0000000E+00;0; -1.0756227E-02;  4.0000000E+04;  0.0000000E+00;  0.0000000E+00;  4.0000000E+04;  0.0000000E+00;  4.0000000E+04; -9.7065987E-03;  0.0000000E+00; -1.0496282E-03;  2.0468758E+04;
  1.6000000E-01;  9.9999998E-03;  3.7000000E-01;2321;  0.0000000E+00;  0.0000000E+00;  0.0000000E+00;  1.0027972E+03;  1.0000000E-01;  2.3174653E+03;0;  0.0000000E+00;  0.0000000E+00;  0.0000000E+00;0; -7.5718616E-03;  4.0000000E+04;  0.0000000E+00;  0.0000000E+00;  4.0000000E+04;  0.0000000E+00;  4.0000000E+04; -6.7060553E-03;  0.0000000E+00; -8.6580648E-04;  1.0566500E+04;
  1.6000000E-01;  9.9999998E-03;  3.8000000E-01;2322;  0.0000000E+00;  0.0000000E+00;  0.0000000E+00;  1.0018970E+03;  1.0000000E-01;  1.5716099E+03;0;  0.0000000E+00;  0.0000000E+00;  0.0000000E+00;0; -5.0752610E-03;  4.0000000E+04;  0.0000000E+00;  0.0000000E+00;  4.0000000E+04;  0.0000000E+00;  4.0000000E+04; -4.3952507E-03;  0.0000000E+00; -6.8001007E-04;  5.7611123E+03;
  1.6000000E-01;  9.9999998E-03;  3.8999999E-01;2323;  0.0000000E+00;  0.0000000E+00;  0.0000000E+00;  1.0012092E+03;  1.0000000E-01;  1.0017495E+03;0;  0.0000000E+00;  0.0000000E+00;  0.0000000E+00;0; -3.2179747E-03;  4.0000000E+04;  0.0000000E+00;  0.0000000E+00;  4.0000000E+04;  0.0000000E+00;  4.0000000E+04; -2.7155452E-03;  0.0000000E+00; -5.0242944E-04;  6.7316719E+03;
  1.6000000E-01;  9.9999998E-03;  4.0000001E-01;2324;  0.0000000E+00;  0.0000000E+00;  0.0000000E+00;  1.0007225E+03;  1.0000000E-01;  5.9860034E+02;0;  0.0000000E+00;  0.0000000E+00;  0.0000000E+00;0; -1.9091003E-03;  4.0000000E+04;  0.0000000E+00;  0.0000000E+00;  4.0000000E+04;  0.0000000E+00;  4.0000000E+04; -1.5663552E-03;  0.0000000E+00; -3.4274507E-04;  7.9521025E+03;
  1.7000000E-01;  9.9999998E-03;  3.1000000E-01;2345;  0.0000000E+00;  0.0000000E+00;  0.0000000E+00;  1.0120644E+03;  1.0000000E-01;  9.9950752E+03;0;  0.0000000E+00;  0.0000000E+00;  0.0000000E+00;0; -3.6196020E-02;  4.0000000E+04;  0.0000000E+00;  0.0000000E+00;  4.0000000E+04;  0.0000000E+00;  4.0000000E+04; -3.5168413E-02;  0.0000000E+00; -1.0276054E-03;  1.0502257E+05;
  1.7000000E-01;  9.9999998E-03;  3.1999999E-01;2346;  0.0000000E+00;  0.0000000E+00;  0.0000000E+00;  1.0106465E+03;  1.0000000E-01;  8.8203926E+03;0;  0.0000000E+00;  0.0000000E+00;  0.0000000E+00;0; -3.1321347E-02;  4.0000000E+04;  0.0000000E+00;  0.0000000E+00;  4.0000000E+04;  0.0000000E+00;  4.0000000E+04; -3.0215347E-02;  0.0000000E+00; -1.1059982E-03;  9.8107039E+04;
  1.7000000E-01;  9.9999998E-03;  3.3000001E-01;2347;  0.0000000E+00;  0.0000000E+00;  0.0000000E+00;  1.0090447E+03;  1.0000000E-01;  7.4933188E+03;0;  0.0000000E+00;  0.0000000E+00;  0.0000000E+00;0; -2.6155844E-02;  4.0000000E+04;  0.0000000E+00;  0.0000000E+00;  4.0000000E+04;  0.0000000E+00;  4.0000000E+04; -2.5042312E-02;  0.0000000E+00; -1.1135329E-03;  8.3897766E+04;
  1.7000000E-01;  9.9999998E-03;  3.4000000E-01;2348;  0.0000000E+00;  0.0000000E+00;  0.0000000E+00;  1.0073822E+03;  1.0000000E-01;  6.1159751E+03;0;  0.0000000E+00;  0.0000000E+00;  0.0000000E+00;0; -2.1023063E-02;  4.0000000E+04;  0.0000000E+00;  0.0000000E+00;  4.0000000E+04;  0.0000000E+00;  4.0000000E+04; -1.9960295E-02;  0.0000000E+00; -1.0627683E-03;  6.5435008E+04;
  1.7000000E-01;  9.9999998E-03;  3.4999999E-01;2349;  0.0000000E+00;  0.0000000E+00;  0.0000000E+00;  1.0057750E+03;  1.0000000E-01;  4.7844575E+03;0;  0.0000000E+00;  0.0000000E+00;  0.0000000E+00;0; -1.6223008E-02;  4.0000000E+04;  0.0000000E+00;  0.0000000E+00;  4.0000000E+04;  0.0000000E+00;  4.0000000E+04; -1.5255037E-02;  0.0000000E+00; -9.6797134E-04;  4.5864082E+04;
  1.7000000E-01;  9.9999998E-03;  3.6000001E-01;2350;  0.0000000E+00;  0.0000000E+00;  0.0000000E+00;  1.0043258E+03;  1.0000000E-01;  3.5837998E+03;0;  0.0000000E+00;  0.0000000E+00;  0.0000000E+00;0; -1.1988859E-02;  4.0000000E+04;  0.0000000E+00;  0.0000000E+00;  4.0000000E+04;  0.0000000E+00;  4.0000000E+04; -1.1145766E-02;  0.0000000E+00; -8.4309239E-04;  2.7766193E+04;
  1.7000000E-01;  9.9999998E-03;  3.7000000E-01;2351;  0.0000000E+00;  0.0000000E+00;  0.0000000E+00;  1.0030923E+03;  1.0000000E-01;  2.5619028E+03;0;  0.0000000E+00;  0.0000000E+00;  0.0000000E+00;0; -8.4603168E-03;  4.0000000E+04;  0.0000000E+00;  0.0000000E+00;  4.0000000E+04;  0.0000000E+00;  4.0000000E+04; -7.7597243E-03;  0.0000000E+00; -7.0059235E-04;  1.3118937E+04;
  1.7000000E-01;  9.9999998E-03;  3.8000000E-01;2352;  0.0000000E+00;  0.0000000E+00;  0.0000000E+00;  1.0020977E+03;  1.0000000E-01;  1.7379261E+03;0;  0.0000000E+00;  0.0000000E+00;  0.0000000E+00;0; -5.6786505E-03;  4.0000000E+04;  0.0000000E+00;  0.0000000E+00;  4.0000000E+04;  0.0000000E+00;  4.0000000E+04; -5.1273219E-03;  0.0000000E+00; -5.5132847E-04;  5.5218037E+03;
  1.7000000E-01;  9.9999998E-03;  3.8999999E-01;2353;  0.0000000E+00;  0.0000000E+00;  0.0000000E+00;  1.0013443E+03;  1.0000000E-01;  1.1137463E+03;0;  0.0000000E+00;  0.0000000E+00;  0.0000000E+00;0; -3.6028577E-03;  4.0000000E+04;  0.0000000E+00;  0.0000000E+00;  4.0000000E+04;  0.0000000E+00;  4.0000000E+04; -3.1976830E-03;  0.0000000E+00; -4.0517465E-04;  8.7668447E+03;
  1.7000000E-01;  9.9999998E-03;  4.0000001E-01;2354;  0.0000000E+00;  0.0000000E+00;  0.0000000E+00;  1.0007997E+03;  1.0000000E-01;  6.6249976E+02;0;  0.0000000E+00;  0.0000000E+00;  0.0000000E+00;0; -2.1380843E-03;  4.0000000E+04;  0.0000000E+00;  0.0000000E+00;  4.0000000E+04;  0.0000000E+00;  4.0000000E+04; -1.8663194E-03;  0.0000000E+00; -2.7176487E-04;  1.1573741E+04;
  1.8000001E-01;  9.9999998E-03;  3.1000000E-01;2375;  0.0000000E+00;  0.0000000E+00;  0.0000000E+00;  1.0125889E+03;  1.0000000E-01;  1.0429631E+04;0;  0.0000000E+00;  0.0000000E+00;  0.0000000E+00;0; -3.8591709E-02;  4.0000000E+04;  0.0000000E+00;  0.0000000E+00;  4.0000000E+04;  0.0000000E+00;  4.0000000E+04; -3.7888855E-02;  0.0000000E+00; -7.0285500E-04;  1.3262180E+05;
  1.8000001E-01;  9.9999998E-03;  3.1999999E-01;2376;  0.0000000E+00;  0.0000000E+00;  0.0000000E+00;  1.0111838E+03;  1.0000000E-01;  9.2656143E+03;0;  0.0000000E+00;  0.0000000E+00;  0.0000000E+00;0; -3.3615071E-02;  4.0000000E+04;  0.0000000E+00;  0.0000000E+00;  4.0000000E+04;  0.0000000E+00;  4.0000000E+04; -3.2809358E-02;  0.0000000E+00; -8.0571440E-04;  1.2549017E+05;
  1.8000001E-01;  9.9999998E-03;  3.3000001E-01;2377;  0.0000000E+00;  0.0000000E+00;  0.0000000E+00;  1.0095568E+03;  1.0000000E-01;  7.9176030E+03;0;  0.0000000E+00;  0.0000000E+00;  0.0000000E+00;0; -2.8235584E-02;  4.0000000E+04;  0.0000000E+00;  0.0000000E+00;  4.0000000E+04;  0.0000000E+00;  4.0000000E+04; -2.7384290E-02;  0.0000000E+00; -8.5129443E-04;  1.0836350E+05;
  1.8000001E-01;  9.9999998E-03;  3.4000000E-01;2378;  0.0000000E+00;  0.0000000E+00;  0.0000000E+00;  1.0078387E+03;  1.0000000E-01;  6.4942358E+03;0;  0.0000000E+00;  0.0000000E+00;  0.0000000E+00;0; -2.2806535E-02;  4.0000000E+04;  0.0000000E+00;  0.0000000E+00;  4.0000000E+04;  0.0000000E+00;  4.0000000E+04; -2.1964122E-02;  0.0000000E+00; -8.4241381E-04;  8.5135305E+04;
  1.8000001E-01;  9.9999998E-03;  3.4999999E-01;2379;  0.0000000E+00;  0.0000000E+00;  0.0000000E+00;  1.0061631E+03;  1.0000000E-01;  5.1060283E+03;0;  0.0000000E+00;  0.0000000E+00;  0.0000000E+00;0; -1.7668953E-02;  4.0000000E+04;  0.0000000E+00;  0.0000000E+00;  4.0000000E+04;  0.0000000E+00;  4.0000000E+04; -1.6880786E-02;  0.0000000E+00; -7.8816689E-04;  5.9907590E+04;
  1.8000001E-01;  9.9999998E-03;  3.6000001E-01;2380;  0.0000000E+00;  0.0000000E+00;  0.0000000E+00;  1.0046329E+03;  1.0000000E-01;  3.8383113E+03;0;  0.0000000E+00;  0.0000000E+00;  0.0000000E+00;0; -1.3097325E-02;  4.0000000E+04;  0.0000000E+00;  0.0000000E+00;  4.0000000E+04;  0.0000000E+00;  4.0000000E+04; -1.2397235E-02;  0.0000000E+00; -7.0008991E-04;  3.6074141E+04;
  1.8000001E-01;  9.9999998E-03;  3.7000000E-01;2381;  0.0000000E+00;  0.0000000E+00;  0.0000000E+00;  1.0033256E+03;  1.0000000E-01;  2.7551814E+03;0;  0.0000000E+00;  0.0000000E+00;  0.0000000E+00;0; -9.2640212E-03;  4.0000000E+04;  0.0000000E+00;  0.0000000E+00;  4.0000000E+04;  0.0000000E+00;  4.0000000E+04; -8.6743385E-03;  0.0000000E+00; -5.8968231E-04;  1.6149058E+04;
  1.8000001E-01;  9.9999998E-03;  3.8000000E-01;2382;  0.0000000E+00;  0.0000000E+00;  0.0000000E+00;  1.0022680E+03;  1.0000000E-01;  1.8789592E+03;0;  0.0000000E+00;  0.0000000E+00;  0.0000000E+00;0; -6.2298593E-03;  4.0000000E+04;  0.0000000E+00;  0.0000000E+00;  4.0000000E+04;  0.0000000E+00;  4.0000000E+04; -5.7623703E-03;  0.0000000E+00; -4.6748912E-04;  5.1419834E+03;
  1.8000001E-01;  9.9999998E-03;  3.8999999E-01;2383;  0.0000000E+00;  0.0000000E+00;  0.0000000E+00;  1.0014644E+03;  1.0000000E-01;  1.2132002E+03;0;  0.0000000E+00;  0.0000000E+00;  0.0000000E+00;0; -3.9599873E-03;  4.0000000E+04;  0.0000000E+00;  0.0000000E+00;  4.0000000E+04;  0.0000000E+00;  4.0000000E+04; -3.6166916E-03;  0.0000000E+00; -3.4329583E-04;  1.1683408E+04;
  1.8000001E-01;  9.9999998E-03;  4.0000001E-01;2384;  0.0000000E+00;  0.0000000E+00;  0.0000000E+00;  1.0008794E+03;  1.0000000E-01;  7.2857196E+02;0;  0.0000000E+00;  0.0000000E+00;  0.0000000E+00;0; -2.3554428E-03;  4.0000000E+04;  0.0000000E+00;  0.0000000E+00;  4.0000000E+04;  0.0000000E+00;  4.0000000E+04; -2.1286064E-03;  0.0000000E+00; -2.2683654E-04;  1.6364612E+04;
  1.9000000E-01;  9.9999998E-03;  3.1000000E-01;2405;  0.0000000E+00;  0.0000000E+00;  0.0000000E+00;  1.0128604E+03;  1.0000000E-01;  1.0654514E+04;0;  0.0000000E+00;  0.0000000E+00;  0.0000000E+00;0; -4.0414833E-02;  4.0000000E+04;  0.0000000E+00;  0.0000000E+00;  4.0000000E+04;  0.0000000E+00;  4.0000000E+04; -3.9916325E-02;  0.0000000E+00; -4.9850839E-04;  1.5982289E+05;
  1.9000000E-01;  9.9999998E-03;  3.1999999E-01;2406;  0.0000000E+00;  0.0000000E+00;  0.0000000E+00;  1.0114835E+03;  1.0000000E-01;  9.5138047E+03;0;  0.0000000E+00;  0.0000000E+00;  0.0000000E+00;0; -3.5382543E-02;  4.0000000E+04;  0.0000000E+00;  0.0000000E+00;  4.0000000E+04;  0.0000000E+00;  4.0000000E+04; -3.4753107E-02;  0.0000000E+00; -6.2943617E-04;  1.5245552E+05;
  1.9000000E-01;  9.9999998E-03;  3.3000001E-01;2407;  0.0000000E+00;  0.0000000E+00;  0.0000000E+00;  1.0098519E+03;  1.0000000E-01;  8.1621396E+03;0;  0.0000000E+00;  0.0000000E+00;  0.0000000E+00;0; -2.9850341E-02;  4.0000000E+04;  0.0000000E+00;  0.0000000E+00;  4.0000000E+04;  0.0000000E+00;  4.0000000E+04; -2.9139929E-02;  0.0000000E+00; -7.1041362E-04;  1.3241459E+05;
  1.9000000E-01;  9.9999998E-03;  3.4000000E-01;2408;  0.0000000E+00;  0.0000000E+00;  0.0000000E+00;  1.0081135E+03;  1.0000000E-01;  6.7218838E+03;0;  0.0000000E+00;  0.0000000E+00;  0.0000000E+00;0; -2.4197385E-02;  4.0000000E+04;  0.0000000E+00;  0.0000000E+00;  4.0000000E+04;  0.0000000E+00;  4.0000000E+04; -2.3461562E-02;  0.0000000E+00; -7.3582307E-04;  1.0450552E+05;
  1.9000000E-01;  9.9999998E-03;  3.4999999E-01;2409;  0.0000000E+00;  0.0000000E+00;  0.0000000E+00;  1.0063995E+03;  1.0000000E-01;  5.3018745E+03;0;  0.0000000E+00;  0.0000000E+00;  0.0000000E+00;0; -1.8800922E-02;  4.0000000E+04;  0.0000000E+00;  0.0000000E+00;  4.0000000E+04;  0.0000000E+00;  4.0000000E+04; -1.8089384E-02;  0.0000000E+00; -7.1153697E-04;  7.3760398E+04;
  1.9000000E-01;  9.9999998E-03;  3.6000001E-01;2410;  0.0000000E+00;  0.0000000E+00;  0.0000000E+00;  1.0048292E+03;  1.0000000E-01;  4.0008745E+03;0;  0.0000000E+00;  0.0000000E+00;  0.0000000E+00;0; -1.3970271E-02;  4.0000000E+04;  0.0000000E+00;  0.0000000E+00;  4.0000000E+04;  0.0000000E+00;  4.0000000E+04; -1.3322062E-02;  0.0000000E+00; -6.4820895E-04;  4.4319035E+04;
  1.9000000E-01;  9.9999998E-03;  3.7000000E-01;2411;  0.0000000E+00;  0.0000000E+00;  0.0000000E+00;  1.0034821E+03;  1.0000000E-01;  2.8848567E+03;0;  0.0000000E+00;  0.0000000E+00;  0.0000000E+00;0; -9.9037224E-03;  4.0000000E+04;  0.0000000E+00;  0.0000000E+00;  4.0000000E+04;  0.0000000E+00;  4.0000000E+04; -9.3464153E-03;  0.0000000E+00; -5.5730675E-04;  1.9178014E+04;
  1.9000000E-01;  9.9999998E-03;  3.8000000E-01;2412;  0.0000000E+00;  0.0000000E+00;  0.0000000E+00;  1.0023917E+03;  1.0000000E-01;  1.9814749E+03;0;  0.0000000E+00;  0.0000000E+00;  0.0000000E+00;0; -6.6766376E-03;  4.0000000E+04;  0.0000000E+00;  0.0000000E+00;  4.0000000E+04;  0.0000000E+00;  4.0000000E+04; -6.2271361E-03;  0.0000000E+00; -4.4950162E-04;  4.7493608E+03;
  1.9000000E-01;  9.9999998E-03;  3.8999999E-01;2413;  0.0000000E+00;  0.0000000E+00;  0.0000000E+00;  1.0015524E+03;  1.0000000E-01;  1.2861858E+03;0;  0.0000000E+00;  0.0000000E+00;  0.0000000E+00;0; -4.2578010E-03;  4.0000000E+04;  0.0000000E+00;  0.0000000E+00;  4.0000000E+04;  0.0000000E+00;  4.0000000E+04; -3.9231749E-03;  0.0000000E+00; -3.3462612E-04;  1.5239742E+04;
  1.9000000E-01;  9.9999998E-03;  4.0000001E-01;2414;  0.0000000E+00;  0.0000000E+00;  0.0000000E+00;  1.0009475E+03;  1.0000000E-01;  7.8496545E+02;0;  0.0000000E+00;  0.0000000E+00;  0.0000000E+00;0; -2.5440413E-03;  4.0000000E+04;  0.0000000E+00;  0.0000000E+00;  4.0000000E+04;  0.0000000E+00;  4.0000000E+04; -2.3215031E-03;  0.0000000E+00; -2.2253803E-04;  2.1969324E+04;
  2.0000000E-01;  9.9999998E-03;  3.1000000E-01;2434;  0.0000000E+00;  0.0000000E+00;  0.0000000E+00;  1.0128691E+03;  1.0000000E-01;  1.0661822E+04;0;  0.0000000E+00;  0.0000000E+00;  0.0000000E+00;0; -4.1627657E-02;  4.0000000E+04;  0.0000000E+00;  0.0000000E+00;  4.0000000E+04;  0.0000000E+00;  4.0000000E+04; -4.1158244E-02;  0.0000000E+00; -4.6941411E-04;  1.8315697E+05;
  2.0000000E-01;  9.9999998E-03;  3.1999999E-01;2435;  0.0000000E+00;  0.0000000E+00;  0.0000000E+00;  1.0115337E+03;  1.0000000E-01;  9.5554824E+03;0;  0.0000000E+00;  0.0000000E+00;  0.0000000E+00;0; -3.6587793E-02;  4.0000000E+04;  0.0000000E+00;  0.0000000E+00;  4.0000000E+04;  0.0000000E+00;  4.0000000E+04; -3.5958759E-02;  0.0000000E+00; -6.2903506E-04;  1.7540252E+05;
  2.0000000E-01;  9.9999998E-03;  3.3000001E-01;2436;  0.0000000E+00;  0.0000000E+00;  0.0000000E+00;  1.0099282E+03;  1.0000000E-01;  8.2252490E+03;0;  0.0000000E+00;  0.0000000E+00;  0.0000000E+00;0; -3.0971037E-02;  4.0000000E+04;  0.0000000E+00;  0.0000000E+00;  4.0000000E+04;  0.0000000E+00;  4.0000000E+04; -3.0234637E-02;  0.0000000E+00; -7.3640078E-04;  1.5280348E+05;
  2.0000000E-01;  9.9999998E-03;  3.4000000E-01;2437;  0.0000000E+00;  0.0000000E+00;  0.0000000E+00;  1.0082009E+03;  1.0000000E-01;  6.7942769E+03;0;  0.0000000E+00;  0.0000000E+00;  0.0000000E+00;0; -2.5177704E-02;  4.0000000E+04;  0.0000000E+00;  0.0000000E+00;  4.0000000E+04;  0.0000000E+00;  4.0000000E+04; -2.4395414E-02;  0.0000000E+00; -7.8229036E-04;  1.2094256E+05;
  2.0000000E-01;  9.9999998E-03;  3.4999999E-01;2438;  0.0000000E+00;  0.0000000E+00;  0.0000000E+00;  1.0064933E+03;  1.0000000E-01;  5.3796011E+03;0;  0.0000000E+00;  0.0000000E+00;  0.0000000E+00;0; -1.9613050E-02;  4.0000000E+04;  0.0000000E+00;  0.0000000E+00;  4.0000000E+04;  0.0000000E+00;  4.0000000E+04; -1.8840864E-02;  0.0000000E+00; -7.7218533E-04;  8.5569906E+04;
  2.0000000E-01;  9.9999998E-03;  3.6000001E-01;2439;  0.0000000E+00;  0.0000000E+00;  0.0000000E+00;  1.0049186E+03;  1.0000000E-01;  4.0750452E+03;0;  0.0000000E+00;  0.0000000E+00;  0.0000000E+00;0; -1.4611540E-02;  4.0000000E+04;  0.0000000E+00;  0.0000000E+00;  4.0000000E+04;  0.0000000E+00;  4.0000000E+04; -1.3894132E-02;  0.0000000E+00; -7.1740837E-04;  5.1378754E+04;
  2.0000000E-01;  9.9999998E-03;  3.7000000E-01;2440;  0.0000000E+00;  0.0000000E+00;  0.0000000E+00;  1.0035635E+03;  1.0000000E-01;  2.9523115E+03;0;  0.0000000E+00;  0.0000000E+00;  0.0000000E+00;0; -1.0389540E-02;  4.0000000E+04;  0.0000000E+00;  0.0000000E+00;  4.0000000E+04;  0.0000000E+00;  4.0000000E+04; -9.7594839E-03;  0.0000000E+00; -6.3005625E-04;  2.1713170E+04;
  2.0000000E-01;  9.9999998E-03;  3.8000000E-01;2441;  0.0000000E+00;  0.0000000E+00;  0.0000000E+00;  1.0024615E+03;  1.0000000E-01;  2.0393497E+03;0;  0.0000000E+00;  0.0000000E+00;  0.0000000E+00;0; -7.0319315E-03;  4.0000000E+04;  0.0000000E+00;  0.0000000E+00;  4.0000000E+04;  0.0000000E+00;  4.0000000E+04; -6.5108831E-03;  0.0000000E+00; -5.2104861E-04;  4.5518579E+03;
  2.0000000E-01;  9.9999998E-03;  3.8999999E-01;2442;  0.0000000E+00;  0.0000000E+00;  0.0000000E+00;  1.0016221E+03;  1.0000000E-01;  1.3438633E+03;0;  0.0000000E+00;  0.0000000E+00;  0.0000000E+00;0; -4.5094942E-03;  4.0000000E+04;  0.0000000E+00;  0.0000000E+00;  4.0000000E+04;  0.0000000E+00;  4.0000000E+04; -4.1093961E-03;  0.0000000E+00; -4.0009819E-04;  1.9043346E+04;
  2.0000000E-01;  9.9999998E-03;  4.0000001E-01;2443;  0.0000000E+00;  0.0000000E+00;  0.0000000E+00;  1.0010042E+03;  1.0000000E-01;  8.3197644E+02;0;  0.0000000E+00;  0.0000000E+00;  0.0000000E+00;0; -2.7157785E-03;  4.0000000E+04;  0.0000000E+00;  0.0000000E+00;  4.0000000E+04;  0.0000000E+00;  4.0000000E+04; -2.4388472E-03;  0.0000000E+00; -2.7693136E-04;  2.7873037E+04;
 -1.9000000E-01;  9.9999998E-03;  4.1000000E-01;175;  0.0000000E+00;  0.0000000E+00;  0.0000000E+00;  1.0000000E+03;  1.0000000E-01;  0.0000000E+00;0;  0.0000000E+00;  0.0000000E+00;  0.0000000E+00;0;  0.0000000E+00;  4.0000000E+04;  0.0000000E+00;  0.0000000E+00;  4.0000000E+04;  0.0000000E+00;  4.0000000E+04;  0.0000000E+00;  0.0000000E+00;  0.0000000E+00;  0.0000000E+00;
 -1.9000000E-01;  9.9999998E-03;  4.1999999E-01;176;  0.0000000E+00;  0.0000000E+00;  0.0000000E+00;  1.0000000E+03;  1.0000000E-01;  0.0000000E+00;0;  0.0000000E+00;  0.0000000E+00;  0.0000000E+00;0;  0.0000000E+00;  4.0000000E+04;  0.0000000E+00;  0.0000000E+00;  4.0000000E+04;  0.0000000E+00;  4.0000000E+04;  0.0000000E+00;  0.0000000E+00;  0.0000000E+00;  0.0000000E+00;
 -1.9000000E-01;  9.9999998E-03;  4.3000001E-01;177;  0.0000000E+00;  0.0000000E+00;  0.0000000E+00;  1.0000000E+03;  1.0000000E-01;  0.0000000E+00;0;  0.0000000E+00;  0.0000000E+00;  0.0000000E+00;0;  0.0000000E+00;  4.0000000E+04;  0.0000000E+00;  0.0000000E+00;  4.0000000E+04;  0.0000000E+00;  4.0000000E+04;  0.0000000E+00;  0.0000000E+00;  0.0000000E+00;  0.0000000E+00;
 -1.9000000E-01;  9.9999998E-03;  4.4000000E-01;178;  0.0000000E+00;  0.0000000E+00;  0.0000000E+00;  1.0000000E+03;  1.0000000E-01;  0.0000000E+00;0;  0.0000000E+00;  0.0000000E+00;  0.0000000E+00;0;  0.0000000E+00;  4.0000000E+04;  0.0000000E+00;  0.0000000E+00;  4.0000000E+04;  0.0000000E+00;  4.0000000E+04;  0.0000000E+00;  0.0000000E+00;  0.0000000E+00;  0.0000000E+00;
 -1.9000000E-01;  9.9999998E-03;  4.4999999E-01;179;  0.0000000E+00;  0.0000000E+00;  0.0000000E+00;  1.0000000E+03;  1.0000000E-01;  0.0000000E+00;0;  0.0000000E+00;  0.0000000E+00;  0.0000000E+00;0;  0.0000000E+00;  4.0000000E+04;  0.0000000E+00;  0.0000000E+00;  4.0000000E+04;  0.0000000E+00;  4.0000000E+04;  0.0000000E+00;  0.0000000E+00;  0.0000000E+00;  0.0000000E+00;
 -1.8000001E-01;  9.9999998E-03;  4.1000000E-01;266;  0.0000000E+00;  0.0000000E+00;  0.0000000E+00;  1.0000000E+03;  1.0000000E-01;  0.0000000E+00;0;  0.0000000E+00;  0.0000000E+00;  0.0000000E+00;0;  0.0000000E+00;  4.0000000E+04;  0.0000000E+00;  0.0000000E+00;  4.0000000E+04;  0.0000000E+00;  4.0000000E+04;  0.0000000E+00;  0.0000000E+00;  0.0000000E+00;  0.0000000E+00;
 -1.8000001E-01;  9.9999998E-03;  4.1999999E-01;267;  0.0000000E+00;  0.0000000E+00;  0.0000000E+00;  1.0000000E+03;  1.0000000E-01;  0.0000000E+00;0;  0.0000000E+00;  0.0000000E+00;  0.0000000E+00;0;  0.0000000E+00;  4.0000000E+04;  0.0000000E+00;  0.0000000E+00;  4.0000000E+04;  0.0000000E+00;  4.0000000E+04;  0.0000000E+00;  0.0000000E+00;  0.0000000E+00;  0.0000000E+00;
 -1.8000001E-01;  9.9999998E-03;  4.3000001E-01;268;  0.0000000E+00;  0.0000000E+00;  0.0000000E+00;  1.0000000E+03;  1.0000000E-01;  0.0000000E+00;0;  0.0000000E+00;  0.0000000E+00;  0.0000000E+00;0;  0.0000000E+00;  4.0000000E+04;  0.0000000E+00;  0.0000000E+00;  4.0000000E+04;  0.0000000E+00;  4.0000000E+04;  0.0000000E+00;  0.0000000E+00;  0.0000000E+00;  0.0000000E+00;
 -1.8000001E-01;  9.9999998E-03;  4.4000000E-01;269;  0.0000000E+00;  0.0000000E+00;  0.0000000E+00;  1.0000000E+03;  1.0000000E-01;  0.0000000E+00;0;  0.0000000E+00;  0.0000000E+00;  0.0000000E+00;0;  0.0000000E+00;  4.0000000E+04;  0.0000000E+00;  0.0000000E+00;  4.0000000E+04;  0.0000000E+00;  4.0000000E+04;  0.0000000E+00;  0.0000000E+00;  0.0000000E+00;  0.0000000E+00;
 -1.8000001E-01;  9.9999998E-03;  4.4999999E-01;270;  0.0000000E+00;  0.0000000E+00;  0.0000000E+00;  1.0000000E+03;  1.0000000E-01;  0.0000000E+00;0;  0.0000000E+00;  0.0000000E+00;  0.0000000E+00;0;  0.0000000E+00;  4.0000000E+04;  0.0000000E+00;  0.0000000E+00;  4.0000000E+04;  0.0000000E+00;  4.0000000E+04;  0.0000000E+00;  0.0000000E+00;  0.0000000E+00;  0.0000000E+00;
 -1.7000000E-01;  9.9999998E-03;  4.1000000E-01;357;  0.0000000E+00;  0.0000000E+00;  0.0000000E+00;  1.0000000E+03;  1.0000000E-01;  0.0000000E+00;0;  0.0000000E+00;  0.0000000E+00;  0.0000000E+00;0;  0.0000000E+00;  4.0000000E+04;  0.0000000E+00;  0.0000000E+00;  4.0000000E+04;  0.0000000E+00;  4.0000000E+04;  0.0000000E+00;  0.0000000E+00;  0.0000000E+00;  0.0000000E+00;
 -1.7000000E-01;  9.9999998E-03;  4.1999999E-01;358;  0.0000000E+00;  0.0000000E+00;  0.0000000E+00;  1.0000000E+03;  1.0000000E-01;  0.0000000E+00;0;  0.0000000E+00;  0.0000000E+00;  0.0000000E+00;0;  0.0000000E+00;  4.0000000E+04;  0.0000000E+00;  0.0000000E+00;  4.0000000E+04;  0.0000000E+00;  4.0000000E+04;  0.0000000E+00;  0.0000000E+00;  0.0000000E+00;  0.0000000E+00;
 -1.7000000E-01;  9.9999998E-03;  4.3000001E-01;359;  0.0000000E+00;  0.0000000E+00;  0.0000000E+00;  1.0000000E+03;  1.0000000E-01;  0.0000000E+00;0;  0.0000000E+00;  0.0000000E+00;  0.0000000E+00;0;  0.0000000E+00;  4.0000000E+04;  0.0000000E+00;  0.0000000E+00;  4.0000000E+04;  0.0000000E+00;  4.0000000E+04;  0.0000000E+00;  0.0000000E+00;  0.0000000E+00;  0.0000000E+00;
 -1.7000000E-01;  9.9999998E-03;  4.4000000E-01;360;  0.0000000E+00;  0.0000000E+00;  0.0000000E+00;  1.0000000E+03;  1.0000000E-01;  0.0000000E+00;0;  0.0000000E+00;  0.0000000E+00;  0.0000000E+00;0;  0.0000000E+00;  4.0000000E+04;  0.0000000E+00;  0.0000000E+00;  4.0000000E+04;  0.0000000E+00;  4.0000000E+04;  0.0000000E+00;  0.0000000E+00;  0.0000000E+00;  0.0000000E+00;
 -1.7000000E-01;  9.9999998E-03;  4.4999999E-01;361;  0.0000000E+00;  0.0000000E+00;  0.0000000E+00;  1.0000000E+03;  1.0000000E-01;  0.0000000E+00;0;  0.0000000E+00;  0.0000000E+00;  0.0000000E+00;0;  0.0000000E+00;  4.0000000E+04;  0.0000000E+00;  0.0000000E+00;  4.0000000E+04;  0.0000000E+00;  4.0000000E+04;  0.0000000E+00;  0.0000000E+00;  0.0000000E+00;  0.0000000E+00;
 -1.6000000E-01;  9.9999998E-03;  4.1000000E-01;448;  0.0000000E+00;  0.0000000E+00;  0.0000000E+00;  1.0000000E+03;  1.0000000E-01;  0.0000000E+00;0;  0.0000000E+00;  0.0000000E+00;  0.0000000E+00;0;  0.0000000E+00;  4.0000000E+04;  0.0000000E+00;  0.0000000E+00;  4.0000000E+04;  0.0000000E+00;  4.0000000E+04;  0.0000000E+00;  0.0000000E+00;  0.0000000E+00;  0.0000000E+00;
 -1.6000000E-01;  9.9999998E-03;  4.1999999E-01;449;  0.0000000E+00;  0.0000000E+00;  0.0000000E+00;  1.0000000E+03;  1.0000000E-01;  0.0000000E+00;0;  0.0000000E+00;  0.0000000E+00;  0.0000000E+00;0;  0.0000000E+00;  4.0000000E+04;  0.0000000E+00;  0.0000000E+00;  4.0000000E+04;  0.0000000E+00;  4.0000000E+04;  0.0000000E+00;  0.0000000E+00;  0.0000000E+00;  0.0000000E+00;
 -1.6000000E-01;  9.9999998E-03;  4.3000001E-01;450;  0.0000000E+00;  0.0000000E+00;  0.0000000E+00;  1.0000000E+03;  1.0000000E-01;  0.0000000E+00;0;  0.0000000E+00;  0.0000000E+00;  0.0000000E+00;0;  0.0000000E+00;  4.0000000E+04;  0.0000000E+00;  0.0000000E+00;  4.0000000E+04;  0.0000000E+00;  4.0000000E+04;  0.0000000E+00;  0.0000000E+00;  0.0000000E+00;  0.0000000E+00;
 -1.6000000E-01;  9.9999998E-03;  4.4000000E-01;451;  0.0000000E+00;  0.0000000E+00;  0.0000000E+00;  1.0000000E+03;  1.0000000E-01;  0.0000000E+00;0;  0.0000000E+00;  0.0000000E+00;  0.0000000E+00;0;  0.0000000E+00;  4.0000000E+04;  0.0000000E+00;  0.0000000E+00;  4.0000000E+04;  0.0000000E+00;  4.0000000E+04;  0.0000000E+00;  0.0000000E+00;  0.0000000E+00;  0.0000000E+00;
 -1.6000000E-01;  9.9999998E-03;  4.4999999E-01;452;  0.0000000E+00;  0.0000000E+00;  0.0000000E+00;  1.0000000E+03;  1.0000000E-01;  0.0000000E+00;0;  0.0000000E+00;  0.0000000E+00;  0.0000000E+00;0;  0.0000000E+00;  4.0000000E+04;  0.0000000E+00;  0.0000000E+00;  4.0000000E+04;  0.0000000E+00;  4.0000000E+04;  0.0000000E+00;  0.0000000E+00;  0.0000000E+00;  0.0000000E+00;
 -1.5000001E-01;  9.9999998E-03;  4.1000000E-01;539;  0.0000000E+00;  0.0000000E+00;  0.0000000E+00;  1.0000000E+03;  1.0000000E-01;  0.0000000E+00;0;  0.0000000E+00;  0.0000000E+00;  0.0000000E+00;0;  0.0000000E+00;  4.0000000E+04;  0.0000000E+00;  0.0000000E+00;  4.0000000E+04;  0.0000000E+00;  4.0000000E+04;  0.0000000E+00;  0.0000000E+00;  0.0000000E+00;  0.0000000E+00;
 -1.5000001E-01;  9.9999998E-03;  4.1999999E-01;540;  0.0000000E+00;  0.0000000E+00;  0.0000000E+00;  1.0000000E+03;  1.0000000E-01;  0.0000000E+00;0;  0.0000000E+00;  0.0000000E+00;  0.0000000E+00;0;  0.0000000E+00;  4.0000000E+04;  0.0000000E+00;  0.0000000E+00;  4.0000000E+04;  0.0000000E+00;  4.0000000E+04;  0.0000000E+00;  0.0000000E+00;  0.0000000E+00;  0.0000000E+00;
 -1.5000001E-01;  9.9999998E-03;  4.3000001E-01;541;  0.0000000E+00;  0.0000000E+00;  0.0000000E+00;  1.0000000E+03;  1.0000000E-01;  0.0000000E+00;0;  0.0000000E+00;  0.0000000E+00;  0.0000000E+00;0;  0.0000000E+00;  4.0000000E+04;  0.0000000E+00;  0.0000000E+00;  4.0000000E+04;  0.0000000E+00;  4.0000000E+04;  0.0000000E+00;  0.0000000E+00;  0.0000000E+00;  0.0000000E+00;
 -1.5000001E-01;  9.9999998E-03;  4.4000000E-01;542;  0.0000000E+00;  0.0000000E+00;  0.0000000E+00;  1.0000000E+03;  1.0000000E-01;  0.0000000E+00;0;  0.0000000E+00;  0.0000000E+00;  0.0000000E+00;0;  0.0000000E+00;  4.0000000E+04;  0.0000000E+00;  0.0000000E+00;  4.0000000E+04;  0.0000000E+00;  4.0000000E+04;  0.0000000E+00;  0.0000000E+00;  0.0000000E+00;  0.0000000E+00;
 -1.5000001E-01;  9.9999998E-03;  4.4999999E-01;543;  0.0000000E+00;  0.0000000E+00;  0.0000000E+00;  1.0000000E+03;  1.0000000E-01;  0.0000000E+00;0;  0.0000000E+00;  0.0000000E+00;  0.0000000E+00;0;  0.0000000E+00;  4.0000000E+04;  0.0000000E+00;  0.0000000E+00;  4.0000000E+04;  0.0000000E+00;  4.0000000E+04;  0.0000000E+00;  0.0000000E+00;  0.0000000E+00;  0.0000000E+00;
 -1.4000000E-01;  9.9999998E-03;  4.1000000E-01;630;  0.0000000E+00;  0.0000000E+00;  0.0000000E+00;  1.0000000E+03;  1.0000000E-01;  0.0000000E+00;0;  0.0000000E+00;  0.0000000E+00;  0.0000000E+00;0;  0.0000000E+00;  4.0000000E+04;  0.0000000E+00;  0.0000000E+00;  4.0000000E+04;  0.0000000E+00;  4.0000000E+04;  0.0000000E+00;  0.0000000E+00;  0.0000000E+00;  0.0000000E+00;
 -1.4000000E-01;  9.9999998E-03;  4.1999999E-01;631;  0.0000000E+00;  0.0000000E+00;  0.0000000E+00;  1.0000000E+03;  1.0000000E-01;  0.0000000E+00;0;  0.0000000E+00;  0.0000000E+00;  0.0000000E+00;0;  0.0000000E+00;  4.0000000E+04;  0.0000000E+00;  0.0000000E+00;  4.0000000E+04;  0.0000000E+00;  4.0000000E+04;  0.0000000E+00;  0.0000000E+00;  0.0000000E+00;  0.0000000E+00;
 -1.4000000E-01;  9.9999998E-03;  4.3000001E-01;632;  0.0000000E+00;  0.0000000E+00;  0.0000000E+00;  1.0000000E+03;  1.0000000E-01;  0.0000000E+00;0;  0.0000000E+00;  0.0000000E+00;  0.0000000E+00;0;  0.0000000E+00;  4.0000000E+04;  0.0000000E+00;  0.0000000E+00;  4.0000000E+04;  0.0000000E+00;  4.0000000E+04;  0.0000000E+00;  0.0000000E+00;  0.0000000E+00;  0.0000000E+00;
 -1.4000000E-01;  9.9999998E-03;  4.4000000E-01;633;  0.0000000E+00;  0.0000000E+00;  0.0000000E+00;  1.0000000E+03;  1.0000000E-01;  0.0000000E+00;0;  0.0000000E+00;  0.0000000E+00;  0.0000000E+00;0;  0.0000000E+00;  4.0000000E+04;  0.0000000E+00;  0.0000000E+00;  4.0000000E+04;  0.0000000E+00;  4.0000000E+04;  0.0000000E+00;  0.0000000E+00;  0.0000000E+00;  0.0000000E+00;
 -1.4000000E-01;  9.9999998E-03;  4.4999999E-01;634;  0.0000000E+00;  0.0000000E+00;  0.0000000E+00;  1.0000000E+03;  1.0000000E-01;  0.0000000E+00;0;  0.0000000E+00;  0.0000000E+00;  0.0000000E+00;0;  0.0000000E+00;  4.0000000E+04;  0.0000000E+00;  0.0000000E+00;  4.0000000E+04;  0.0000000E+00;  4.0000000E+04;  0.0000000E+00;  0.0000000E+00;  0.0000000E+00;  0.0000000E+00;
 -1.3000000E-01;  9.9999998E-03;  4.1000000E-01;721;  0.0000000E+00;  0.0000000E+00;  0.0000000E+00;  1.0000000E+03;  1.0000000E-01;  0.0000000E+00;0;  0.0000000E+00;  0.0000000E+00;  0.0000000E+00;0;  0.0000000E+00;  4.0000000E+04;  0.0000000E+00;  0.0000000E+00;  4.0000000E+04;  0.0000000E+00;  4.0000000E+04;  0.0000000E+00;  0.0000000E+00;  0.0000000E+00;  0.0000000E+00;
 -1.3000000E-01;  9.9999998E-03;  4.1999999E-01;722;  0.0000000E+00;  0.0000000E+00;  0.0000000E+00;  1.0000000E+03;  1.0000000E-01;  0.0000000E+00;0;  0.0000000E+00;  0.0000000E+00;  0.0000000E+00;0;  0.0000000E+00;  4.0000000E+04;  0.0000000E+00;  0.0000000E+00;  4.0000000E+04;  0.0000000E+00;  4.0000000E+04;  0.0000000E+00;  0.0000000E+00;  0.0000000E+00;  0.0000000E+00;
 -1.3000000E-01;  9.9999998E-03;  4.3000001E-01;723;  0.0000000E+00;  0.0000000E+00;  0.0000000E+00;  1.0000000E+03;  1.0000000E-01;  0.0000000E+00;0;  0.0000000E+00;  0.0000000E+00;  0.0000000E+00;0;  0.0000000E+00;  4.0000000E+04;  0.0000000E+00;  0.0000000E+00;  4.0000000E+04;  0.0000000E+00;  4.0000000E+04;  0.0000000E+00;  0.0000000E+00;  0.0000000E+00;  0.0000000E+00;
 -1.3000000E-01;  9.9999998E-03;  4.4000000E-01;724;  0.0000000E+00;  0.0000000E+00;  0.0000000E+00;  1.0000000E+03;  1.0000000E-01;  0.0000000E+00;0;  0.0000000E+00;  0.0000000E+00;  0.0000000E+00;0;  0.0000000E+00;  4.0000000E+04;  0.0000000E+00;  0.0000000E+00;  4.0000000E+04;  0.0000000E+00;  4.0000000E+04;  0.0000000E+00;  0.0000000E+00;  0.0000000E+00;  0.0000000E+00;
 -1.3000000E-01;  9.9999998E-03;  4.4999999E-01;725;  0.0000000E+00;  0.0000000E+00;  0.0000000E+00;  1.0000000E+03;  1.0000000E-01;  0.0000000E+00;0;  0.0000000E+00;  0.0000000E+00;  0.0000000E+00;0;  0.0000000E+00;  4.0000000E+04;  0.0000000E+00;  0.0000000E+00;  4.0000000E+04;  0.0000000E+00;  4.0000000E+04;  0.0000000E+00;  0.0000000E+00;  0.0000000E+00;  0.0000000E+00;
 -1.2000000E-01;  9.9999998E-03;  4.1000000E-01;812;  0.0000000E+00;  0.0000000E+00;  0.0000000E+00;  1.0000000E+03;  1.0000000E-01;  0.0000000E+00;0;  0.0000000E+00;  0.0000000E+00;  0.0000000E+00;0;  0.0000000E+00;  4.0000000E+04;  0.0000000E+00;  0.0000000E+00;  4.0000000E+04;  0.0000000E+00;  4.0000000E+04;  0.0000000E+00;  0.0000000E+00;  0.0000000E+00;  3.0553776E-06;
 -1.2000000E-01;  9.9999998E-03;  4.1999999E-01;813;  0.0000000E+00;  0.0000000E+00;  0.0000000E+00;  1.0000000E+03;  1.0000000E-01;  0.0000000E+00;0;  0.0000000E+00;  0.0000000E+00;  0.0000000E+00;0;  0.0000000E+00;  4.0000000E+04;  0.0000000E+00;  0.0000000E+00;  4.0000000E+04;  0.0000000E+00;  4.0000000E+04;  0.0000000E+00;  0.0000000E+00;  0.0000000E+00;  0.0000000E+00;
 -1.2000000E-01;  9.9999998E-03;  4.3000001E-01;814;  0.0000000E+00;  0.0000000E+00;  0.0000000E+00;  1.0000000E+03;  1.0000000E-01;  0.0000000E+00;0;  0.0000000E+00;  0.0000000E+00;  0.0000000E+00;0;  0.0000000E+00;  4.0000000E+04;  0.0000000E+00;  0.0000000E+00;  4.0000000E+04;  0.0000000E+00;  4.0000000E+04;  0.0000000E+00;  0.0000000E+00;  0.0000000E+00;  0.0000000E+00;
 -1.2000000E-01;  9.9999998E-03;  4.4000000E-01;815;  0.0000000E+00;  0.0000000E+00;  0.0000000E+00;  1.0000000E+03;  1.0000000E-01;  0.0000000E+00;0;  0.0000000E+00;  0.0000000E+00;  0.0000000E+00;0;  0.0000000E+00;  4.0000000E+04;  0.0000000E+00;  0.0000000E+00;  4.0000000E+04;  0.0000000E+00;  4.0000000E+04;  0.0000000E+00;  0.0000000E+00;  0.0000000E+00;  0.0000000E+00;
 -1.2000000E-01;  9.9999998E-03;  4.4999999E-01;816;  0.0000000E+00;  0.0000000E+00;  0.0000000E+00;  1.0000000E+03;  1.0000000E-01;  0.0000000E+00;0;  0.0000000E+00;  0.0000000E+00;  0.0000000E+00;0;  0.0000000E+00;  4.0000000E+04;  0.0000000E+00;  0.0000000E+00;  4.0000000E+04;  0.0000000E+00;  4.0000000E+04;  0.0000000E+00;  0.0000000E+00;  0.0000000E+00;  0.0000000E+00;
 -1.1000000E-01;  9.9999998E-03;  4.1000000E-01;903;  0.0000000E+00;  0.0000000E+00;  0.0000000E+00;  1.0000000E+03;  1.0000000E-01;  0.0000000E+00;0;  0.0000000E+00;  0.0000000E+00;  0.0000000E+00;0; -1.9281043E-07;  4.0000000E+04;  0.0000000E+00;  0.0000000E+00;  4.0000000E+04;  0.0000000E+00;  4.0000000E+04; -9.4401841E-08;  0.0000000E+00; -9.8408591E-08;  2.6959774E-01;
 -1.1000000E-01;  9.9999998E-03;  4.1999999E-01;904;  0.0000000E+00;  0.0000000E+00;  0.0000000E+00;  1.0000000E+03;  1.0000000E-01;  0.0000000E+00;0;  0.0000000E+00;  0.0000000E+00;  0.0000000E+00;0;  0.0000000E+00;  4.0000000E+04;  0.0000000E+00;  0.0000000E+00;  4.0000000E+04;  0.0000000E+00;  4.0000000E+04;  0.0000000E+00;  0.0000000E+00;  0.0000000E+00;  2.4097315E-06;
 -1.1000000E-01;  9.9999998E-03;  4.3000001E-01;905;  0.0000000E+00;  0.0000000E+00;  0.0000000E+00;  1.0000000E+03;  1.0000000E-01;  0.0000000E+00;0;  0.0000000E+00;  0.0000000E+00;  0.0000000E+00;0;  0.0000000E+00;  4.0000000E+04;  0.0000000E+00;  0.0000000E+00;  4.0000000E+04;  0.0000000E+00;  4.0000000E+04;  0.0000000E+00;  0.0000000E+00;  0.0000000E+00;  0.0000000E+00;
 -1.1000000E-01;  9.9999998E-03;  4.4000000E-01;906;  0.0000000E+00;  0.0000000E+00;  0.0000000E+00;  1.0000000E+03;  1.0000000E-01;  0.0000000E+00;0;  0.0000000E+00;  0.0000000E+00;  0.0000000E+00;0;  0.0000000E+00;  4.0000000E+04;  0.0000000E+00;  0.0000000E+00;  4.0000000E+04;  0.0000000E+00;  4.0000000E+04;  0.0000000E+00;  0.0000000E+00;  0.0000000E+00;  0.0000000E+00;
 -1.1000000E-01;  9.9999998E-03;  4.4999999E-01;907;  0.0000000E+00;  0.0000000E+00;  0.0000000E+00;  1.0000000E+03;  1.0000000E-01;  0.0000000E+00;0;  0.0000000E+00;  0.0000000E+00;  0.0000000E+00;0;  0.0000000E+00;  4.0000000E+04;  0.0000000E+00;  0.0000000E+00;  4.0000000E+04;  0.0000000E+00;  4.0000000E+04;  0.0000000E+00;  0.0000000E+00;  0.0000000E+00;  0.0000000E+00;
 -1.0000000E-01;  9.9999998E-03;  4.1000000E-01;994;  0.0000000E+00;  0.0000000E+00;  0.0000000E+00;  1.0000000E+03;  1.0000000E-01;  0.0000000E+00;0;  0.0000000E+00;  0.0000000E+00;  0.0000000E+00;0; -1.7255945E-06;  4.0000000E+04;  0.0000000E+00;  0.0000000E+00;  4.0000000E+04;  0.0000000E+00;  4.0000000E+04; -8.1562479E-07;  0.0000000E+00; -9.0996969E-07;  2.4754453E+00;
 -1.0000000E-01;  9.9999998E-03;  4.1999999E-01;995;  0.0000000E+00;  0.0000000E+00;  0.0000000E+00;  1.0000000E+03;  1.0000000E-01;  0.0000000E+00;0;  0.0000000E+00;  0.0000000E+00;  0.0000000E+00;0; -1.5812273E-07;  4.0000000E+04;  0.0000000E+00;  0.0000000E+00;  4.0000000E+04;  0.0000000E+00;  4.0000000E+04; -7.3247648E-08;  0.0000000E+00; -8.4875076E-08;  2.4730299E-01;
 -1.0000000E-01;  9.9999998E-03;  4.3000001E-01;996;  0.0000000E+00;  0.0000000E+00;  0.0000000E+00;  1.0000000E+03;  1.0000000E-01;  0.0000000E+00;0;  0.0000000E+00;  0.0000000E+00;  0.0000000E+00;0;  0.0000000E+00;  4.0000000E+04;  0.0000000E+00;  0.0000000E+00;  4.0000000E+04;  0.0000000E+00;  4.0000000E+04;  0.0000000E+00;  0.0000000E+00;  0.0000000E+00;  0.0000000E+00;
 -1.0000000E-01;  9.9999998E-03;  4.4000000E-01;997;  0.0000000E+00;  0.0000000E+00;  0.0000000E+00;  1.0000000E+03;  1.0000000E-01;  0.0000000E+00;0;  0.0000000E+00;  0.0000000E+00;  0.0000000E+00;0;  0.0000000E+00;  4.0000000E+04;  0.0000000E+00;  0.0000000E+00;  4.0000000E+04;  0.0000000E+00;  4.0000000E+04;  0.0000000E+00;  0.0000000E+00;  0.0000000E+00;  0.0000000E+00;
 -1.0000000E-01;  9.9999998E-03;  4.4999999E-01;998;  0.0000000E+00;  0.0000000E+00;  0.0000000E+00;  1.0000000E+03;  1.0000000E-01;  0.0000000E+00;0;  0.0000000E+00;  0.0000000E+00;  0.0000000E+00;0;  0.0000000E+00;  4.0000000E+04;  0.0000000E+00;  0.0000000E+00;  4.0000000E+04;  0.0000000E+00;  4.0000000E+04;  0.0000000E+00;  0.0000000E+00;  0.0000000E+00;  0.0000000E+00;
 -9.0000004E-02;  9.9999998E-03;  4.1000000E-01;1085;  0.0000000E+00;  0.0000000E+00;  0.0000000E+00;  1.0000000E+03;  1.0000000E-01;  0.0000000E+00;0;  0.0000000E+00;  0.0000000E+00;  0.0000000E+00;0; -6.6990560E-06;  4.0000000E+04;  0.0000000E+00;  0.0000000E+00;  4.0000000E+04;  0.0000000E+00;  4.0000000E+04; -3.0877543E-06;  0.0000000E+00; -3.6113017E-06;  1.0063208E+01;
 -9.0000004E-02;  9.9999998E-03;  4.1999999E-01;1086;  0.0000000E+00;  0.0000000E+00;  0.0000000E+00;  1.0000000E+03;  1.0000000E-01;  0.0000000E+00;0;  0.0000000E+00;  0.0000000E+00;  0.0000000E+00;0; -1.3632718E-06;  4.0000000E+04;  0.0000000E+00;  0.0000000E+00;  4.0000000E+04;  0.0000000E+00;  4.0000000E+04; -5.9831012E-07;  0.0000000E+00; -7.6496178E-07;  2.1538429E+00;
 -9.0000004E-02;  9.9999998E-03;  4.3000001E-01;1087;  0.0000000E+00;  0.0000000E+00;  0.0000000E+00;  1.0000000E+03;  1.0000000E-01;  0.0000000E+00;0;  0.0000000E+00;  0.0000000E+00;  0.0000000E+00;0; -7.0356080E-08;  4.0000000E+04;  0.0000000E+00;  0.0000000E+00;  4.0000000E+04;  0.0000000E+00;  4.0000000E+04; -3.2299578E-08;  0.0000000E+00; -3.8056506E-08;  1.2388581E-01;
 -9.0000004E-02;  9.9999998E-03;  4.4000000E-01;1088;  0.0000000E+00;  0.0000000E+00;  0.0000000E+00;  1.0000000E+03;  1.0000000E-01;  0.0000000E+00;0;  0.0000000E+00;  0.0000000E+00;  0.0000000E+00;0;  0.0000000E+00;  4.0000000E+04;  0.0000000E+00;  0.0000000E+00;  4.0000000E+04;  0.0000000E+00;  4.0000000E+04;  0.0000000E+00;  0.0000000E+00;  0.0000000E+00;  0.0000000E+00;
 -9.0000004E-02;  9.9999998E-03;  4.4999999E-01;1089;  0.0000000E+00;  0.0000000E+00;  0.0000000E+00;  1.0000000E+03;  1.0000000E-01;  0.0000000E+00;0;  0.0000000E+00;  0.0000000E+00;  0.0000000E+00;0;  0.0000000E+00;  4.0000000E+04;  0.0000000E+00;  0.0000000E+00;  4.0000000E+04;  0.0000000E+00;  4.0000000E+04;  0.0000000E+00;  0.0000000E+00;  0.0000000E+00;  0.0000000E+00;
 -7.9999998E-02;  9.9999998E-03;  4.1000000E-01;1176;  0.0000000E+00;  0.0000000E+00;  0.0000000E+00;  1.0000000E+03;  1.0000000E-01;  0.0000000E+00;0;  0.0000000E+00;  0.0000000E+00;  0.0000000E+00;0; -1.7840284E-05;  4.0000000E+04;  0.0000000E+00;  0.0000000E+00;  4.0000000E+04;  0.0000000E+00;  4.0000000E+04; -8.0976824E-06;  0.0000000E+00; -9.7426009E-06;  2.7584589E+01;
 -7.9999998E-02;  9.9999998E-03;  4.1999999E-01;1177;  0.0000000E+00;  0.0000000E+00;  0.0000000E+00;  1.0000000E+03;  1.0000000E-01;  0.0000000E+00;0;  0.0000000E+00;  0.0000000E+00;  0.0000000E+00;0; -5.1445536E-06;  4.0000000E+04;  0.0000000E+00;  0.0000000E+00;  4.0000000E+04;  0.0000000E+00;  4.0000000E+04; -2.1944481E-06;  0.0000000E+00; -2.9501055E-06;  8.4357929E+00;
 -7.9999998E-02;  9.9999998E-03;  4.3000001E-01;1178;  0.0000000E+00;  0.0000000E+00;  0.0000000E+00;  1.0000000E+03;  1.0000000E-01;  0.0000000E+00;0;  0.0000000E+00;  0.0000000E+00;  0.0000000E+00;0; -7.4986326E-07;  4.0000000E+04;  0.0000000E+00;  0.0000000E+00;  4.0000000E+04;  0.0000000E+00;  4.0000000E+04; -3.1248143E-07;  0.0000000E+00; -4.3738183E-07;  1.2918826E+00;
 -7.9999998E-02;  9.9999998E-03;  4.4000000E-01;1179;  0.0000000E+00;  0.0000000E+00;  0.0000000E+00;  1.0000000E+03;  1.0000000E-01;  0.0000000E+00;0;  0.0000000E+00;  0.0000000E+00;  0.0000000E+00;0; -1.1340651E-08;  4.0000000E+04;  0.0000000E+00;  0.0000000E+00;  4.0000000E+04;  0.0000000E+00;  4.0000000E+04; -5.1704738E-09;  0.0000000E+00; -6.1701773E-09;  2.2339206E-02;
 -7.9999998E-02;  9.9999998E-03;  4.4999999E-01;1180;  0.0000000E+00;  0.0000000E+00;  0.0000000E+00;  1.0000000E+03;  1.0000000E-01;  0.0000000E+00;0;  0.0000000E+00;  0.0000000E+00;  0.0000000E+00;0;  0.0000000E+00;  4.0000000E+04;  0.0000000E+00;  0.0000000E+00;  4.0000000E+04;  0.0000000E+00;  4.0000000E+04;  0.0000000E+00;  0.0000000E+00;  0.0000000E+00;  0.0000000E+00;
 -7.0000000E-02;  9.9999998E-03;  4.1000000E-01;1267;  0.0000000E+00;  0.0000000E+00;  0.0000000E+00;  1.0000000E+03;  1.0000000E-01;  0.0000000E+00;0;  0.0000000E+00;  0.0000000E+00;  0.0000000E+00;0; -3.8065300E-05;  4.0000000E+04;  0.0000000E+00;  0.0000000E+00;  4.0000000E+04;  0.0000000E+00;  4.0000000E+04; -1.7158305E-05;  0.0000000E+00; -2.0906993E-05;  5.9342342E+01;
 -7.0000000E-02;  9.9999998E-03;  4.1999999E-01;1268;  0.0000000E+00;  0.0000000E+00;  0.0000000E+00;  1.0000000E+03;  1.0000000E-01;  0.0000000E+00;0;  0.0000000E+00;  0.0000000E+00;  0.0000000E+00;0; -1.3341602E-05;  4.0000000E+04;  0.0000000E+00;  0.0000000E+00;  4.0000000E+04;  0.0000000E+00;  4.0000000E+04; -5.6070626E-06;  0.0000000E+00; -7.7345394E-06;  2.2354584E+01;
 -7.0000000E-02;  9.9999998E-03;  4.3000001E-01;1269;  0.0000000E+00;  0.0000000E+00;  0.0000000E+00;  1.0000000E+03;  1.0000000E-01;  0.0000000E+00;0;  0.0000000E+00;  0.0000000E+00;  0.0000000E+00;0; -2.9726598E-06;  4.0000000E+04;  0.0000000E+00;  0.0000000E+00;  4.0000000E+04;  0.0000000E+00;  4.0000000E+04; -1.1973464E-06;  0.0000000E+00; -1.7753134E-06;  5.2516155E+00;
 -7.0000000E-02;  9.9999998E-03;  4.4000000E-01;1270;  0.0000000E+00;  0.0000000E+00;  0.0000000E+00;  1.0000000E+03;  1.0000000E-01;  0.0000000E+00;0;  0.0000000E+00;  0.0000000E+00;  0.0000000E+00;0; -2.3235563E-07;  4.0000000E+04;  0.0000000E+00;  0.0000000E+00;  4.0000000E+04;  0.0000000E+00;  4.0000000E+04; -9.5752583E-08;  0.0000000E+00; -1.3660305E-07;  4.4020969E-01;
 -7.0000000E-02;  9.9999998E-03;  4.4999999E-01;1271;  0.0000000E+00;  0.0000000E+00;  0.0000000E+00;  1.0000000E+03;  1.0000000E-01;  0.0000000E+00;0;  0.0000000E+00;  0.0000000E+00;  0.0000000E+00;0;  0.0000000E+00;  4.0000000E+04;  0.0000000E+00;  0.0000000E+00;  4.0000000E+04;  0.0000000E+00;  4.0000000E+04;  0.0000000E+00;  0.0000000E+00;  0.0000000E+00;  8.6631813E-12;
 -5.9999999E-02;  9.9999998E-03;  4.1000000E-01;1358;  0.0000000E+00;  0.0000000E+00;  0.0000000E+00;  1.0000000E+03;  1.0000000E-01;  0.0000000E+00;0;  0.0000000E+00;  0.0000000E+00;  0.0000000E+00;0; -6.9947513E-05;  4.0000000E+04;  0.0000000E+00;  0.0000000E+00;  4.0000000E+04;  0.0000000E+00;  4.0000000E+04; -3.1497366E-05;  0.0000000E+00; -3.8450147E-05;  1.0802228E+02;
 -5.9999999E-02;  9.9999998E-03;  4.1999999E-01;1359;  0.0000000E+00;  0.0000000E+00;  0.0000000E+00;  1.0000000E+03;  1.0000000E-01;  0.0000000E+00;0;  0.0000000E+00;  0.0000000E+00;  0.0000000E+00;0; -2.7725368E-05;  4.0000000E+04;  0.0000000E+00;  0.0000000E+00;  4.0000000E+04;  0.0000000E+00;  4.0000000E+04; -1.1576453E-05;  0.0000000E+00; -1.6148915E-05;  4.6611679E+01;
 -5.9999999E-02;  9.9999998E-03;  4.3000001E-01;1360;  0.0000000E+00;  0.0000000E+00;  0.0000000E+00;  1.0000000E+03;  1.0000000E-01;  0.0000000E+00;0;  0.0000000E+00;  0.0000000E+00;  0.0000000E+00;0; -7.8153525E-06;  4.0000000E+04;  0.0000000E+00;  0.0000000E+00;  4.0000000E+04;  0.0000000E+00;  4.0000000E+04; -3.0899607E-06;  0.0000000E+00; -4.7253920E-06;  1.4028269E+01;
 -5.9999999E-02;  9.9999998E-03;  4.4000000E-01;1361;  0.0000000E+00;  0.0000000E+00;  0.0000000E+00;  1.0000000E+03;  1.0000000E-01;  0.0000000E+00;0;  0.0000000E+00;  0.0000000E+00;  0.0000000E+00;0; -1.1284199E-06;  4.0000000E+04;  0.0000000E+00;  0.0000000E+00;  4.0000000E+04;  0.0000000E+00;  4.0000000E+04; -4.3923535E-07;  0.0000000E+00; -6.8918450E-07;  2.1456759E+00;
 -5.9999999E-02;  9.9999998E-03;  4.4999999E-01;1362;  0.0000000E+00;  0.0000000E+00;  0.0000000E+00;  1.0000000E+03;  1.0000000E-01;  0.0000000E+00;0;  0.0000000E+00;  0.0000000E+00;  0.0000000E+00;0; -2.3471079E-08;  4.0000000E+04;  0.0000000E+00;  0.0000000E+00;  4.0000000E+04;  0.0000000E+00;  4.0000000E+04; -9.4739567E-09;  0.0000000E+00; -1.3997123E-08;  4.8927370E-02;
 -5.0000001E-02;  9.9999998E-03;  4.1000000E-01;1449;  0.0000000E+00;  0.0000000E+00;  0.0000000E+00;  1.0000088E+03;  1.0000000E-01;  7.3084354E+00;0;  0.0000000E+00;  0.0000000E+00;  0.0000000E+00;0; -1.1508993E-04;  4.0000000E+04;  0.0000000E+00;  0.0000000E+00;  4.0000000E+04;  0.0000000E+00;  4.0000000E+04; -5.1945321E-05;  0.0000000E+00; -6.3144609E-05;  1.7357320E+02;
 -5.0000001E-02;  9.9999998E-03;  4.1999999E-01;1450;  0.0000000E+00;  0.0000000E+00;  0.0000000E+00;  1.0000000E+03;  1.0000000E-01;  0.0000000E+00;0;  0.0000000E+00;  0.0000000E+00;  0.0000000E+00;0; -4.9541337E-05;  4.0000000E+04;  0.0000000E+00;  0.0000000E+00;  4.0000000E+04;  0.0000000E+00;  4.0000000E+04; -2.0659636E-05;  0.0000000E+00; -2.8881701E-05;  8.2248940E+01;
 -5.0000001E-02;  9.9999998E-03;  4.3000001E-01;1451;  0.0000000E+00;  0.0000000E+00;  0.0000000E+00;  1.0000000E+03;  1.0000000E-01;  0.0000000E+00;0;  0.0000000E+00;  0.0000000E+00;  0.0000000E+00;0; -1.6167360E-05;  4.0000000E+04;  0.0000000E+00;  0.0000000E+00;  4.0000000E+04;  0.0000000E+00;  4.0000000E+04; -6.3333537E-06;  0.0000000E+00; -9.8340070E-06;  2.9035524E+01;
 -5.0000001E-02;  9.9999998E-03;  4.4000000E-01;1452;  0.0000000E+00;  0.0000000E+00;  0.0000000E+00;  1.0000000E+03;  1.0000000E-01;  0.0000000E+00;0;  0.0000000E+00;  0.0000000E+00;  0.0000000E+00;0; -3.2087012E-06;  4.0000000E+04;  0.0000000E+00;  0.0000000E+00;  4.0000000E+04;  0.0000000E+00;  4.0000000E+04; -1.2142818E-06;  0.0000000E+00; -1.9944193E-06;  6.1638322E+00;
 -5.0000001E-02;  9.9999998E-03;  4.4999999E-01;1453;  0.0000000E+00;  0.0000000E+00;  0.0000000E+00;  1.0000000E+03;  1.0000000E-01;  0.0000000E+00;0;  0.0000000E+00;  0.0000000E+00;  0.0000000E+00;0; -2.0020518E-07;  4.0000000E+04;  0.0000000E+00;  0.0000000E+00;  4.0000000E+04;  0.0000000E+00;  4.0000000E+04; -7.6454825E-08;  0.0000000E+00; -1.2375035E-07;  4.1738871E-01;
 -3.9999999E-02;  9.9999998E-03;  4.1000000E-01;1540;  0.0000000E+00;  0.0000000E+00;  0.0000000E+00;  1.0000480E+03;  1.0000000E-01;  3.9801342E+01;0;  0.0000000E+00;  0.0000000E+00;  0.0000000E+00;0; -1.7356481E-04;  4.0000000E+04;  0.0000000E+00;  0.0000000E+00;  4.0000000E+04;  0.0000000E+00;  4.0000000E+04; -7.8561956E-05;  0.0000000E+00; -9.5002855E-05;  2.5268736E+02;
 -3.9999999E-02;  9.9999998E-03;  4.1999999E-01;1541;  0.0000000E+00;  0.0000000E+00;  0.0000000E+00;  1.0000000E+03;  1.0000000E-01;  0.0000000E+00;0;  0.0000000E+00;  0.0000000E+00;  0.0000000E+00;0; -7.9115249E-05;  4.0000000E+04;  0.0000000E+00;  0.0000000E+00;  4.0000000E+04;  0.0000000E+00;  4.0000000E+04; -3.3017597E-05;  0.0000000E+00; -4.6097652E-05;  1.2800262E+02;
 -3.9999999E-02;  9.9999998E-03;  4.3000001E-01;1542;  0.0000000E+00;  0.0000000E+00;  0.0000000E+00;  1.0000000E+03;  1.0000000E-01;  0.0000000E+00;0;  0.0000000E+00;  0.0000000E+00;  0.0000000E+00;0; -2.8452512E-05;  4.0000000E+04;  0.0000000E+00;  0.0000000E+00;  4.0000000E+04;  0.0000000E+00;  4.0000000E+04; -1.1093775E-05;  0.0000000E+00; -1.7358736E-05;  5.0399010E+01;
 -3.9999999E-02;  9.9999998E-03;  4.4000000E-01;1543;  0.0000000E+00;  0.0000000E+00;  0.0000000E+00;  1.0000000E+03;  1.0000000E-01;  0.0000000E+00;0;  0.0000000E+00;  0.0000000E+00;  0.0000000E+00;0; -6.8390791E-06;  4.0000000E+04;  0.0000000E+00;  0.0000000E+00;  4.0000000E+04;  0.0000000E+00;  4.0000000E+04; -2.5437132E-06;  0.0000000E+00; -4.2953661E-06;  1.3138032E+01;
 -3.9999999E-02;  9.9999998E-03;  4.4999999E-01;1544;  0.0000000E+00;  0.0000000E+00;  0.0000000E+00;  1.0000000E+03;  1.0000000E-01;  0.0000000E+00;0;  0.0000000E+00;  0.0000000E+00;  0.0000000E+00;0; -7.1482731E-07;  4.0000000E+04;  0.0000000E+00;  0.0000000E+00;  4.0000000E+04;  0.0000000E+00;  4.0000000E+04; -2.6064521E-07;  0.0000000E+00; -4.5418210E-07;  1.5017633E+00;
 -2.9999999E-02;  9.9999998E-03;  4.1000000E-01;1631;  0.0000000E+00;  0.0000000E+00;  0.0000000E+00;  1.0000668E+03;  1.0000000E-01;  5.5307079E+01;0;  0.0000000E+00;  0.0000000E+00;  0.0000000E+00;0; -2.4359392E-04;  4.0000000E+04;  0.0000000E+00;  0.0000000E+00;  4.0000000E+04;  0.0000000E+00;  4.0000000E+04; -1.1033766E-04;  0.0000000E+00; -1.3325627E-04;  3.3893637E+02;
 -2.9999999E-02;  9.9999998E-03;  4.1999999E-01;1632;  0.0000000E+00;  0.0000000E+00;  0.0000000E+00;  1.0000106E+03;  1.0000000E-01;  8.7898750E+00;0;  0.0000000E+00;  0.0000000E+00;  0.0000000E+00;0; -1.1561588E-04;  4.0000000E+04;  0.0000000E+00;  0.0000000E+00;  4.0000000E+04;  0.0000000E+00;  4.0000000E+04; -4.8235641E-05;  0.0000000E+00; -6.7380235E-05;  1.8018652E+02;
 -2.9999999E-02;  9.9999998E-03;  4.3000001E-01;1633;  0.0000000E+00;  0.0000000E+00;  0.0000000E+00;  1.0000000E+03;  1.0000000E-01;  0.0000000E+00;0;  0.0000000E+00;  0.0000000E+00;  0.0000000E+00;0; -4.4442197E-05;  4.0000000E+04;  0.0000000E+00;  0.0000000E+00;  4.0000000E+04;  0.0000000E+00;  4.0000000E+04; -1.7259617E-05;  0.0000000E+00; -2.7182579E-05;  7.6633446E+01;
 -2.9999999E-02;  9.9999998E-03;  4.4000000E-01;1634;  0.0000000E+00;  0.0000000E+00;  0.0000000E+00;  1.0000000E+03;  1.0000000E-01;  0.0000000E+00;0;  0.0000000E+00;  0.0000000E+00;  0.0000000E+00;0; -1.2093668E-05;  4.0000000E+04;  0.0000000E+00;  0.0000000E+00;  4.0000000E+04;  0.0000000E+00;  4.0000000E+04; -4.4380486E-06;  0.0000000E+00; -7.6556198E-06;  2.2930319E+01;
 -2.9999999E-02;  9.9999998E-03;  4.4999999E-01;1635;  0.0000000E+00;  0.0000000E+00;  0.0000000E+00;  1.0000000E+03;  1.0000000E-01;  0.0000000E+00;0;  0.0000000E+00;  0.0000000E+00;  0.0000000E+00;0; -1.6972979E-06;  4.0000000E+04;  0.0000000E+00;  0.0000000E+00;  4.0000000E+04;  0.0000000E+00;  4.0000000E+04; -5.9614752E-07;  0.0000000E+00; -1.1011504E-06;  3.5723286E+00;
 -2.0000000E-02;  9.9999998E-03;  4.1000000E-01;1722;  0.0000000E+00;  0.0000000E+00;  0.0000000E+00;  1.0000828E+03;  1.0000000E-01;  6.8541275E+01;0;  0.0000000E+00;  0.0000000E+00;  0.0000000E+00;0; -3.2163609E-04;  4.0000000E+04;  0.0000000E+00;  0.0000000E+00;  4.0000000E+04;  0.0000000E+00;  4.0000000E+04; -1.4514910E-04;  0.0000000E+00; -1.7648701E-04;  4.2354276E+02;
 -2.0000000E-02;  9.9999998E-03;  4.1999999E-01;1723;  0.0000000E+00;  0.0000000E+00;  0.0000000E+00;  1.0000462E+03;  1.0000000E-01;  3.8319904E+01;0;  0.0000000E+00;  0.0000000E+00;  0.0000000E+00;0; -1.5707250E-04;  4.0000000E+04;  0.0000000E+00;  0.0000000E+00;  4.0000000E+04;  0.0000000E+00;  4.0000000E+04; -6.5275541E-05;  0.0000000E+00; -9.1796966E-05;  2.3311401E+02;
 -2.0000000E-02;  9.9999998E-03;  4.3000001E-01;1724;  0.0000000E+00;  0.0000000E+00;  0.0000000E+00;  1.0000000E+03;  1.0000000E-01;  0.0000000E+00;0;  0.0000000E+00;  0.0000000E+00;  0.0000000E+00;0; -6.3216336E-05;  4.0000000E+04;  0.0000000E+00;  0.0000000E+00;  4.0000000E+04;  0.0000000E+00;  4.0000000E+04; -2.4401706E-05;  0.0000000E+00; -3.8814629E-05;  1.0474178E+02;
 -2.0000000E-02;  9.9999998E-03;  4.4000000E-01;1725;  0.0000000E+00;  0.0000000E+00;  0.0000000E+00;  1.0000000E+03;  1.0000000E-01;  0.0000000E+00;0;  0.0000000E+00;  0.0000000E+00;  0.0000000E+00;0; -1.8683300E-05;  4.0000000E+04;  0.0000000E+00;  0.0000000E+00;  4.0000000E+04;  0.0000000E+00;  4.0000000E+04; -6.7672950E-06;  0.0000000E+00; -1.1916005E-05;  3.4485313E+01;
 -2.0000000E-02;  9.9999998E-03;  4.4999999E-01;1726;  0.0000000E+00;  0.0000000E+00;  0.0000000E+00;  1.0000000E+03;  1.0000000E-01;  0.0000000E+00;0;  0.0000000E+00;  0.0000000E+00;  0.0000000E+00;0; -3.1433246E-06;  4.0000000E+04;  0.0000000E+00;  0.0000000E+00;  4.0000000E+04;  0.0000000E+00;  4.0000000E+04; -1.0691863E-06;  0.0000000E+00; -2.0741384E-06;  6.5555878E+00;
 -9.9999998E-03;  9.9999998E-03;  4.1000000E-01;1813;  0.0000000E+00;  0.0000000E+00;  0.0000000E+00;  1.0001279E+03;  1.0000000E-01;  1.0597231E+02;0;  0.0000000E+00;  0.0000000E+00;  0.0000000E+00;0; -4.0288665E-04;  4.0000000E+04;  0.0000000E+00;  0.0000000E+00;  4.0000000E+04;  0.0000000E+00;  4.0000000E+04; -1.7999459E-04;  0.0000000E+00; -2.2289208E-04;  4.9681018E+02;
 -9.9999998E-03;  9.9999998E-03;  4.1999999E-01;1814;  0.0000000E+00;  0.0000000E+00;  0.0000000E+00;  1.0000550E+03;  1.0000000E-01;  4.5529575E+01;0;  0.0000000E+00;  0.0000000E+00;  0.0000000E+00;0; -2.0068382E-04;  4.0000000E+04;  0.0000000E+00;  0.0000000E+00;  4.0000000E+04;  0.0000000E+00;  4.0000000E+04; -8.2585429E-05;  0.0000000E+00; -1.1809839E-04;  2.8002554E+02;
 -9.9999998E-03;  9.9999998E-03;  4.3000001E-01;1815;  0.0000000E+00;  0.0000000E+00;  0.0000000E+00;  1.0000000E+03;  1.0000000E-01;  0.0000000E+00;0;  0.0000000E+00;  0.0000000E+00;  0.0000000E+00;0; -8.3321771E-05;  4.0000000E+04;  0.0000000E+00;  0.0000000E+00;  4.0000000E+04;  0.0000000E+00;  4.0000000E+04; -3.1818901E-05;  0.0000000E+00; -5.1502870E-05;  1.3072266E+02;
 -9.9999998E-03;  9.9999998E-03;  4.4000000E-01;1816;  0.0000000E+00;  0.0000000E+00;  0.0000000E+00;  1.0000000E+03;  1.0000000E-01;  0.0000000E+00;0;  0.0000000E+00;  0.0000000E+00;  0.0000000E+00;0; -2.6005968E-05;  4.0000000E+04;  0.0000000E+00;  0.0000000E+00;  4.0000000E+04;  0.0000000E+00;  4.0000000E+04; -9.2748360E-06;  0.0000000E+00; -1.6731132E-05;  4.5990917E+01;
 -9.9999998E-03;  9.9999998E-03;  4.4999999E-01;1817;  0.0000000E+00;  0.0000000E+00;  0.0000000E+00;  1.0000000E+03;  1.0000000E-01;  0.0000000E+00;0;  0.0000000E+00;  0.0000000E+00;  0.0000000E+00;0; -4.9039868E-06;  4.0000000E+04;  0.0000000E+00;  0.0000000E+00;  4.0000000E+04;  0.0000000E+00;  4.0000000E+04; -1.6174628E-06;  0.0000000E+00; -3.2865241E-06;  9.9800758E+00;
  0.0000000E+00;  9.9999998E-03;  4.1000000E-01;1845;  0.0000000E+00;  0.0000000E+00;  0.0000000E+00;  1.0001492E+03;  1.0000000E-01;  1.2355206E+02;0;  0.0000000E+00;  0.0000000E+00;  0.0000000E+00;0; -4.8191068E-04;  4.0000000E+04;  0.0000000E+00;  0.0000000E+00;  4.0000000E+04;  0.0000000E+00;  4.0000000E+04; -2.1132780E-04;  0.0000000E+00; -2.7058288E-04;  5.5015063E+02;
  0.0000000E+00;  9.9999998E-03;  4.1999999E-01;1846;  0.0000000E+00;  0.0000000E+00;  0.0000000E+00;  1.0000707E+03;  1.0000000E-01;  5.8566246E+01;0;  0.0000000E+00;  0.0000000E+00;  0.0000000E+00;0; -2.4325566E-04;  4.0000000E+04;  0.0000000E+00;  0.0000000E+00;  4.0000000E+04;  0.0000000E+00;  4.0000000E+04; -9.8276643E-05;  0.0000000E+00; -1.4497903E-04;  3.1442850E+02;
  0.0000000E+00;  9.9999998E-03;  4.3000001E-01;1847;  0.0000000E+00;  0.0000000E+00;  0.0000000E+00;  1.0000084E+03;  1.0000000E-01;  6.9133849E+00;0;  0.0000000E+00;  0.0000000E+00;  0.0000000E+00;0; -1.0304916E-04;  4.0000000E+04;  0.0000000E+00;  0.0000000E+00;  4.0000000E+04;  0.0000000E+00;  4.0000000E+04; -3.8631129E-05;  0.0000000E+00; -6.4418033E-05;  1.5037456E+02;
  0.0000000E+00;  9.9999998E-03;  4.4000000E-01;1848;  0.0000000E+00;  0.0000000E+00;  0.0000000E+00;  1.0000000E+03;  1.0000000E-01;  0.0000000E+00;0;  0.0000000E+00;  0.0000000E+00;  0.0000000E+00;0; -3.3287542E-05;  4.0000000E+04;  0.0000000E+00;  0.0000000E+00;  4.0000000E+04;  0.0000000E+00;  4.0000000E+04; -1.1621896E-05;  0.0000000E+00; -2.1665646E-05;  5.5283146E+01;
  0.0000000E+00;  9.9999998E-03;  4.4999999E-01;1849;  0.0000000E+00;  0.0000000E+00;  0.0000000E+00;  1.0000000E+03;  1.0000000E-01;  0.0000000E+00;0;  0.0000000E+00;  0.0000000E+00;  0.0000000E+00;0; -6.7311425E-06;  4.0000000E+04;  0.0000000E+00;  0.0000000E+00;  4.0000000E+04;  0.0000000E+00;  4.0000000E+04; -2.1470173E-06;  0.0000000E+00; -4.5841252E-06;  1.3094622E+01;
  9.9999998E-03;  9.9999998E-03;  4.1000000E-01;1875;  0.0000000E+00;  0.0000000E+00;  0.0000000E+00;  1.0001796E+03;  1.0000000E-01;  1.4883530E+02;0;  0.0000000E+00;  0.0000000E+00;  0.0000000E+00;0; -5.5342796E-04;  4.0000000E+04;  0.0000000E+00;  0.0000000E+00;  4.0000000E+04;  0.0000000E+00;  4.0000000E+04; -2.3561735E-04;  0.0000000E+00; -3.1781063E-04;  5.7854779E+02;
  9.9999998E-03;  9.9999998E-03;  4.1999999E-01;1876;  0.0000000E+00;  0.0000000E+00;  0.0000000E+00;  1.0000889E+03;  1.0000000E-01;  7.3676926E+01;0;  0.0000000E+00;  0.0000000E+00;  0.0000000E+00;0; -2.8172391E-04;  4.0000000E+04;  0.0000000E+00;  0.0000000E+00;  4.0000000E+04;  0.0000000E+00;  4.0000000E+04; -1.1041220E-04;  0.0000000E+00; -1.7131171E-04;  3.3174515E+02;
  9.9999998E-03;  9.9999998E-03;  4.3000001E-01;1877;  0.0000000E+00;  0.0000000E+00;  0.0000000E+00;  1.0000317E+03;  1.0000000E-01;  2.6270863E+01;0;  0.0000000E+00;  0.0000000E+00;  0.0000000E+00;0; -1.2076933E-04;  4.0000000E+04;  0.0000000E+00;  0.0000000E+00;  4.0000000E+04;  0.0000000E+00;  4.0000000E+04; -4.3919721E-05;  0.0000000E+00; -7.6849610E-05;  1.6027814E+02;
  9.9999998E-03;  9.9999998E-03;  4.4000000E-01;1878;  0.0000000E+00;  0.0000000E+00;  0.0000000E+00;  1.0000000E+03;  1.0000000E-01;  0.0000000E+00;0;  0.0000000E+00;  0.0000000E+00;  0.0000000E+00;0; -3.9772134E-05;  4.0000000E+04;  0.0000000E+00;  0.0000000E+00;  4.0000000E+04;  0.0000000E+00;  4.0000000E+04; -1.3454082E-05;  0.0000000E+00; -2.6318052E-05;  6.0377281E+01;
  9.9999998E-03;  9.9999998E-03;  4.4999999E-01;1879;  0.0000000E+00;  0.0000000E+00;  0.0000000E+00;  1.0000000E+03;  1.0000000E-01;  0.0000000E+00;0;  0.0000000E+00;  0.0000000E+00;  0.0000000E+00;0; -8.3570903E-06;  4.0000000E+04;  0.0000000E+00;  0.0000000E+00;  4.0000000E+04;  0.0000000E+00;  4.0000000E+04; -2.5592267E-06;  0.0000000E+00; -5.7978637E-06;  1.5090704E+01;
  2.0000000E-02;  9.9999998E-03;  4.1000000E-01;1905;  0.0000000E+00;  0.0000000E+00;  0.0000000E+00;  1.0002067E+03;  1.0000000E-01;  1.7125441E+02;0;  0.0000000E+00;  0.0000000E+00;  0.0000000E+00;0; -6.1306771E-04;  4.0000000E+04;  0.0000000E+00;  0.0000000E+00;  4.0000000E+04;  0.0000000E+00;  4.0000000E+04; -2.5004760E-04;  0.0000000E+00; -3.6302011E-04;  5.8262866E+02;
  2.0000000E-02;  9.9999998E-03;  4.1999999E-01;1906;  0.0000000E+00;  0.0000000E+00;  0.0000000E+00;  1.0001116E+03;  1.0000000E-01;  9.2441833E+01;0;  0.0000000E+00;  0.0000000E+00;  0.0000000E+00;0; -3.1364051E-04;  4.0000000E+04;  0.0000000E+00;  0.0000000E+00;  4.0000000E+04;  0.0000000E+00;  4.0000000E+04; -1.1738009E-04;  0.0000000E+00; -1.9626043E-04;  3.3099918E+02;
  2.0000000E-02;  9.9999998E-03;  4.3000001E-01;1907;  0.0000000E+00;  0.0000000E+00;  0.0000000E+00;  1.0000461E+03;  1.0000000E-01;  3.8221142E+01;0;  0.0000000E+00;  0.0000000E+00;  0.0000000E+00;0; -1.3524159E-04;  4.0000000E+04;  0.0000000E+00;  0.0000000E+00;  4.0000000E+04;  0.0000000E+00;  4.0000000E+04; -4.6898120E-05;  0.0000000E+00; -8.8343462E-05;  1.5885182E+02;
  2.0000000E-02;  9.9999998E-03;  4.4000000E-01;1908;  0.0000000E+00;  0.0000000E+00;  0.0000000E+00;  1.0000000E+03;  1.0000000E-01;  0.0000000E+00;0;  0.0000000E+00;  0.0000000E+00;  0.0000000E+00;0; -4.4905290E-05;  4.0000000E+04;  0.0000000E+00;  0.0000000E+00;  4.0000000E+04;  0.0000000E+00;  4.0000000E+04; -1.4473140E-05;  0.0000000E+00; -3.0432147E-05;  6.0011120E+01;
  2.0000000E-02;  9.9999998E-03;  4.4999999E-01;1909;  0.0000000E+00;  0.0000000E+00;  0.0000000E+00;  1.0000000E+03;  1.0000000E-01;  0.0000000E+00;0;  0.0000000E+00;  0.0000000E+00;  0.0000000E+00;0; -9.5807518E-06;  4.0000000E+04;  0.0000000E+00;  0.0000000E+00;  4.0000000E+04;  0.0000000E+00;  4.0000000E+04; -2.7781448E-06;  0.0000000E+00; -6.8026065E-06;  1.5351546E+01;
  2.9999999E-02;  9.9999998E-03;  4.1000000E-01;1935;  0.0000000E+00;  0.0000000E+00;  0.0000000E+00;  1.0002402E+03;  1.0000000E-01;  1.9900671E+02;0;  0.0000000E+00;  0.0000000E+00;  0.0000000E+00;0; -6.5792305E-04;  4.0000000E+04;  0.0000000E+00;  0.0000000E+00;  4.0000000E+04;  0.0000000E+00;  4.0000000E+04; -2.5318269E-04;  0.0000000E+00; -4.0474036E-04;  5.7006079E+02;
  2.9999999E-02;  9.9999998E-03;  4.1999999E-01;1936;  0.0000000E+00;  0.0000000E+00;  0.0000000E+00;  1.0001301E+03;  1.0000000E-01;  1.0775004E+02;0;  0.0000000E+00;  0.0000000E+00;  0.0000000E+00;0; -3.3749430E-04;  4.0000000E+04;  0.0000000E+00;  0.0000000E+00;  4.0000000E+04;  0.0000000E+00;  4.0000000E+04; -1.1827424E-04;  0.0000000E+00; -2.1922005E-04;  3.1600534E+02;
  2.9999999E-02;  9.9999998E-03;  4.3000001E-01;1937;  0.0000000E+00;  0.0000000E+00;  0.0000000E+00;  1.0000506E+03;  1.0000000E-01;  4.1875359E+01;0;  0.0000000E+00;  0.0000000E+00;  0.0000000E+00;0; -1.4580984E-04;  4.0000000E+04;  0.0000000E+00;  0.0000000E+00;  4.0000000E+04;  0.0000000E+00;  4.0000000E+04; -4.7088593E-05;  0.0000000E+00; -9.8721248E-05;  1.4726683E+02;
  2.9999999E-02;  9.9999998E-03;  4.4000000E-01;1938;  0.0000000E+00;  0.0000000E+00;  0.0000000E+00;  1.0000000E+03;  1.0000000E-01;  0.0000000E+00;0;  0.0000000E+00;  0.0000000E+00;  0.0000000E+00;0; -4.8451198E-05;  4.0000000E+04;  0.0000000E+00;  0.0000000E+00;  4.0000000E+04;  0.0000000E+00;  4.0000000E+04; -1.4498573E-05;  0.0000000E+00; -3.3952623E-05;  5.4132660E+01;
  2.9999999E-02;  9.9999998E-03;  4.4999999E-01;1939;  0.0000000E+00;  0.0000000E+00;  0.0000000E+00;  1.0000000E+03;  1.0000000E-01;  0.0000000E+00;0;  0.0000000E+00;  0.0000000E+00;  0.0000000E+00;0; -1.0329328E-05;  4.0000000E+04;  0.0000000E+00;  0.0000000E+00;  4.0000000E+04;  0.0000000E+00;  4.0000000E+04; -2.7685523E-06;  0.0000000E+00; -7.5607759E-06;  1.3656628E+01;
  3.9999999E-02;  9.9999998E-03;  4.1000000E-01;1965;  0.0000000E+00;  0.0000000E+00;  0.0000000E+00;  1.0002625E+03;  1.0000000E-01;  2.1747533E+02;0;  0.0000000E+00;  0.0000000E+00;  0.0000000E+00;0; -6.8688940E-04;  4.0000000E+04;  0.0000000E+00;  0.0000000E+00;  4.0000000E+04;  0.0000000E+00;  4.0000000E+04; -2.4538659E-04;  0.0000000E+00; -4.4150278E-04;  5.5536078E+02;
  3.9999999E-02;  9.9999998E-03;  4.1999999E-01;1966;  0.0000000E+00;  0.0000000E+00;  0.0000000E+00;  1.0001376E+03;  1.0000000E-01;  1.1407085E+02;0;  0.0000000E+00;  0.0000000E+00;  0.0000000E+00;0; -3.5281328E-04;  4.0000000E+04;  0.0000000E+00;  0.0000000E+00;  4.0000000E+04;  0.0000000E+00;  4.0000000E+04; -1.1318203E-04;  0.0000000E+00; -2.3963126E-04;  2.9564481E+02;
  3.9999999E-02;  9.9999998E-03;  4.3000001E-01;1967;  0.0000000E+00;  0.0000000E+00;  0.0000000E+00;  1.0000569E+03;  1.0000000E-01;  4.7109779E+01;0;  0.0000000E+00;  0.0000000E+00;  0.0000000E+00;0; -1.5243409E-04;  4.0000000E+04;  0.0000000E+00;  0.0000000E+00;  4.0000000E+04;  0.0000000E+00;  4.0000000E+04; -4.4468878E-05;  0.0000000E+00; -1.0796521E-04;  1.2987086E+02;
  3.9999999E-02;  9.9999998E-03;  4.4000000E-01;1968;  0.0000000E+00;  0.0000000E+00;  0.0000000E+00;  1.0000000E+03;  1.0000000E-01;  0.0000000E+00;0;  0.0000000E+00;  0.0000000E+00;  0.0000000E+00;0; -5.0509745E-05;  4.0000000E+04;  0.0000000E+00;  0.0000000E+00;  4.0000000E+04;  0.0000000E+00;  4.0000000E+04; -1.3512177E-05;  0.0000000E+00; -3.6997568E-05;  4.4236423E+01;
  3.9999999E-02;  9.9999998E-03;  4.4999999E-01;1969;  0.0000000E+00;  0.0000000E+00;  0.0000000E+00;  1.0000000E+03;  1.0000000E-01;  0.0000000E+00;0;  0.0000000E+00;  0.0000000E+00;  0.0000000E+00;0; -1.0671595E-05;  4.0000000E+04;  0.0000000E+00;  0.0000000E+00;  4.0000000E+04;  0.0000000E+00;  4.0000000E+04; -2.5390784E-06;  0.0000000E+00; -8.1325170E-06;  1.0304694E+01;
  5.0000001E-02;  9.9999998E-03;  4.1000000E-01;1995;  0.0000000E+00;  0.0000000E+00;  0.0000000E+00;  1.0002679E+03;  1.0000000E-01;  2.2201842E+02;0;  0.0000000E+00;  0.0000000E+00;  0.0000000E+00;0; -7.0085295E-04;  4.0000000E+04;  0.0000000E+00;  0.0000000E+00;  4.0000000E+04;  0.0000000E+00;  4.0000000E+04; -2.2886733E-04;  0.0000000E+00; -4.7198564E-04;  5.5770441E+02;
  5.0000001E-02;  9.9999998E-03;  4.1999999E-01;1996;  0.0000000E+00;  0.0000000E+00;  0.0000000E+00;  1.0001482E+03;  1.0000000E-01;  1.2276196E+02;0;  0.0000000E+00;  0.0000000E+00;  0.0000000E+00;0; -3.6014858E-04;  4.0000000E+04;  0.0000000E+00;  0.0000000E+00;  4.0000000E+04;  0.0000000E+00;  4.0000000E+04; -1.0328100E-04;  0.0000000E+00; -2.5686758E-04;  2.8292380E+02;
  5.0000001E-02;  9.9999998E-03;  4.3000001E-01;1997;  0.0000000E+00;  0.0000000E+00;  0.0000000E+00;  1.0000646E+03;  1.0000000E-01;  5.3529350E+01;0;  0.0000000E+00;  0.0000000E+00;  0.0000000E+00;0; -1.5556489E-04;  4.0000000E+04;  0.0000000E+00;  0.0000000E+00;  4.0000000E+04;  0.0000000E+00;  4.0000000E+04; -3.9545303E-05;  0.0000000E+00; -1.1601960E-04;  1.1391040E+02;
  5.0000001E-02;  9.9999998E-03;  4.4000000E-01;1998;  0.0000000E+00;  0.0000000E+00;  0.0000000E+00;  1.0000000E+03;  1.0000000E-01;  0.0000000E+00;0;  0.0000000E+00;  0.0000000E+00;  0.0000000E+00;0; -5.1425013E-05;  4.0000000E+04;  0.0000000E+00;  0.0000000E+00;  4.0000000E+04;  0.0000000E+00;  4.0000000E+04; -1.1680660E-05;  0.0000000E+00; -3.9744351E-05;  3.3374882E+01;
  5.0000001E-02;  9.9999998E-03;  4.4999999E-01;1999;  0.0000000E+00;  0.0000000E+00;  0.0000000E+00;  1.0000000E+03;  1.0000000E-01;  0.0000000E+00;0;  0.0000000E+00;  0.0000000E+00;  0.0000000E+00;0; -1.0774940E-05;  4.0000000E+04;  0.0000000E+00;  0.0000000E+00;  4.0000000E+04;  0.0000000E+00;  4.0000000E+04; -2.1338424E-06;  0.0000000E+00; -8.6410982E-06;  6.1385798E+00;
  5.9999999E-02;  9.9999998E-03;  4.1000000E-01;2025;  0.0000000E+00;  0.0000000E+00;  0.0000000E+00;  1.0002739E+03;  1.0000000E-01;  2.2695654E+02;0;  0.0000000E+00;  0.0000000E+00;  0.0000000E+00;0; -7.0262741E-04;  4.0000000E+04;  0.0000000E+00;  0.0000000E+00;  4.0000000E+04;  0.0000000E+00;  4.0000000E+04; -2.0743988E-04;  0.0000000E+00; -4.9518753E-04;  5.9689600E+02;
  5.9999999E-02;  9.9999998E-03;  4.1999999E-01;2026;  0.0000000E+00;  0.0000000E+00;  0.0000000E+00;  1.0001510E+03;  1.0000000E-01;  1.2513226E+02;0;  0.0000000E+00;  0.0000000E+00;  0.0000000E+00;0; -3.6101983E-04;  4.0000000E+04;  0.0000000E+00;  0.0000000E+00;  4.0000000E+04;  0.0000000E+00;  4.0000000E+04; -9.0671732E-05;  0.0000000E+00; -2.7034810E-04;  2.9242950E+02;
  5.9999999E-02;  9.9999998E-03;  4.3000001E-01;2027;  0.0000000E+00;  0.0000000E+00;  0.0000000E+00;  1.0000660E+03;  1.0000000E-01;  5.4615738E+01;0;  0.0000000E+00;  0.0000000E+00;  0.0000000E+00;0; -1.5596836E-04;  4.0000000E+04;  0.0000000E+00;  0.0000000E+00;  4.0000000E+04;  0.0000000E+00;  4.0000000E+04; -3.3302298E-05;  0.0000000E+00; -1.2266607E-04;  1.0837581E+02;
  5.9999999E-02;  9.9999998E-03;  4.4000000E-01;2028;  0.0000000E+00;  0.0000000E+00;  0.0000000E+00;  1.0000000E+03;  1.0000000E-01;  0.0000000E+00;0;  0.0000000E+00;  0.0000000E+00;  0.0000000E+00;0; -5.1607545E-05;  4.0000000E+04;  0.0000000E+00;  0.0000000E+00;  4.0000000E+04;  0.0000000E+00;  4.0000000E+04; -9.3419567E-06;  0.0000000E+00; -4.2265587E-05;  2.5726921E+01;
  5.9999999E-02;  9.9999998E-03;  4.4999999E-01;2029;  0.0000000E+00;  0.0000000E+00;  0.0000000E+00;  1.0000000E+03;  1.0000000E-01;  0.0000000E+00;0;  0.0000000E+00;  0.0000000E+00;  0.0000000E+00;0; -1.0818083E-05;  4.0000000E+04;  0.0000000E+00;  0.0000000E+00;  4.0000000E+04;  0.0000000E+00;  4.0000000E+04; -1.6220383E-06;  0.0000000E+00; -9.1960446E-06;  2.4336865E+00;
  7.0000000E-02;  9.9999998E-03;  4.1000000E-01;2055;  0.0000000E+00;  0.0000000E+00;  0.0000000E+00;  1.0002791E+03;  1.0000000E-01;  2.3120334E+02;0;  0.0000000E+00;  0.0000000E+00;  0.0000000E+00;0; -6.9626543E-04;  4.0000000E+04;  0.0000000E+00;  0.0000000E+00;  4.0000000E+04;  0.0000000E+00;  4.0000000E+04; -1.8602617E-04;  0.0000000E+00; -5.1023928E-04;  6.8873712E+02;
  7.0000000E-02;  9.9999998E-03;  4.1999999E-01;2056;  0.0000000E+00;  0.0000000E+00;  0.0000000E+00;  1.0001518E+03;  1.0000000E-01;  1.2572484E+02;0;  0.0000000E+00;  0.0000000E+00;  0.0000000E+00;0; -3.5756367E-04;  4.0000000E+04;  0.0000000E+00;  0.0000000E+00;  4.0000000E+04;  0.0000000E+00;  4.0000000E+04; -7.7904151E-05;  0.0000000E+00; -2.7965952E-04;  3.3672736E+02;
  7.0000000E-02;  9.9999998E-03;  4.3000001E-01;2057;  0.0000000E+00;  0.0000000E+00;  0.0000000E+00;  1.0000672E+03;  1.0000000E-01;  5.5702129E+01;0;  0.0000000E+00;  0.0000000E+00;  0.0000000E+00;0; -1.5457810E-04;  4.0000000E+04;  0.0000000E+00;  0.0000000E+00;  4.0000000E+04;  0.0000000E+00;  4.0000000E+04; -2.6954864E-05;  0.0000000E+00; -1.2762324E-04;  1.2193748E+02;
  7.0000000E-02;  9.9999998E-03;  4.4000000E-01;2058;  0.0000000E+00;  0.0000000E+00;  0.0000000E+00;  1.0000000E+03;  1.0000000E-01;  0.0000000E+00;0;  0.0000000E+00;  0.0000000E+00;  0.0000000E+00;0; -5.1372499E-05;  4.0000000E+04;  0.0000000E+00;  0.0000000E+00;  4.0000000E+04;  0.0000000E+00;  4.0000000E+04; -6.9352946E-06;  0.0000000E+00; -4.4437205E-05;  2.5785744E+01;
  7.0000000E-02;  9.9999998E-03;  4.4999999E-01;2059;  0.0000000E+00;  0.0000000E+00;  0.0000000E+00;  1.0000000E+03;  1.0000000E-01;  0.0000000E+00;0;  0.0000000E+00;  0.0000000E+00;  0.0000000E+00;0; -1.0905758E-05;  4.0000000E+04;  0.0000000E+00;  0.0000000E+00;  4.0000000E+04;  0.0000000E+00;  4.0000000E+04; -1.0845151E-06;  0.0000000E+00; -9.8212431E-06;  6.9805002E-01;
  7.9999998E-02;  9.9999998E-03;  4.1000000E-01;2085;  0.0000000E+00;  0.0000000E+00;  0.0000000E+00;  1.0002772E+03;  1.0000000E-01;  2.2972189E+02;0;  0.0000000E+00;  0.0000000E+00;  0.0000000E+00;0; -6.8654487E-04;  4.0000000E+04;  0.0000000E+00;  0.0000000E+00;  4.0000000E+04;  0.0000000E+00;  4.0000000E+04; -1.7033103E-04;  0.0000000E+00; -5.1621383E-04;  8.4122540E+02;
  7.9999998E-02;  9.9999998E-03;  4.1999999E-01;2086;  0.0000000E+00;  0.0000000E+00;  0.0000000E+00;  1.0001441E+03;  1.0000000E-01;  1.1940403E+02;0;  0.0000000E+00;  0.0000000E+00;  0.0000000E+00;0; -3.5203312E-04;  4.0000000E+04;  0.0000000E+00;  0.0000000E+00;  4.0000000E+04;  0.0000000E+00;  4.0000000E+04; -6.7678353E-05;  0.0000000E+00; -2.8435476E-04;  4.2304791E+02;
  7.9999998E-02;  9.9999998E-03;  4.3000001E-01;2087;  0.0000000E+00;  0.0000000E+00;  0.0000000E+00;  1.0000687E+03;  1.0000000E-01;  5.6887280E+01;0;  0.0000000E+00;  0.0000000E+00;  0.0000000E+00;0; -1.5233150E-04;  4.0000000E+04;  0.0000000E+00;  0.0000000E+00;  4.0000000E+04;  0.0000000E+00;  4.0000000E+04; -2.1656593E-05;  0.0000000E+00; -1.3067490E-04;  1.6040569E+02;
  7.9999998E-02;  9.9999998E-03;  4.4000000E-01;2088;  0.0000000E+00;  0.0000000E+00;  0.0000000E+00;  1.0000000E+03;  1.0000000E-01;  0.0000000E+00;0;  0.0000000E+00;  0.0000000E+00;  0.0000000E+00;0; -5.0916842E-05;  4.0000000E+04;  0.0000000E+00;  0.0000000E+00;  4.0000000E+04;  0.0000000E+00;  4.0000000E+04; -4.8895186E-06;  0.0000000E+00; -4.6027322E-05;  3.7172165E+01;
  7.9999998E-02;  9.9999998E-03;  4.4999999E-01;2089;  0.0000000E+00;  0.0000000E+00;  0.0000000E+00;  1.0000000E+03;  1.0000000E-01;  0.0000000E+00;0;  0.0000000E+00;  0.0000000E+00;  0.0000000E+00;0; -1.1031898E-05;  4.0000000E+04;  0.0000000E+00;  0.0000000E+00;  4.0000000E+04;  0.0000000E+00;  4.0000000E+04; -5.9590332E-07;  0.0000000E+00; -1.0435994E-05;  2.0942976E+00;
  9.0000004E-02;  9.9999998E-03;  4.1000000E-01;2115;  0.0000000E+00;  0.0000000E+00;  0.0000000E+00;  1.0002674E+03;  1.0000000E-01;  2.2152460E+02;0;  0.0000000E+00;  0.0000000E+00;  0.0000000E+00;0; -6.7867135E-04;  4.0000000E+04;  0.0000000E+00;  0.0000000E+00;  4.0000000E+04;  0.0000000E+00;  4.0000000E+04; -1.6652759E-04;  0.0000000E+00; -5.1214377E-04;  1.0520873E+03;
  9.0000004E-02;  9.9999998E-03;  4.1999999E-01;2116;  0.0000000E+00;  0.0000000E+00;  0.0000000E+00;  1.0001380E+03;  1.0000000E-01;  1.1436713E+02;0;  0.0000000E+00;  0.0000000E+00;  0.0000000E+00;0; -3.4670785E-04;  4.0000000E+04;  0.0000000E+00;  0.0000000E+00;  4.0000000E+04;  0.0000000E+00;  4.0000000E+04; -6.2925807E-05;  0.0000000E+00; -2.8378205E-04;  5.5145966E+02;
  9.0000004E-02;  9.9999998E-03;  4.3000001E-01;2117;  0.0000000E+00;  0.0000000E+00;  0.0000000E+00;  1.0000709E+03;  1.0000000E-01;  5.8763771E+01;0;  0.0000000E+00;  0.0000000E+00;  0.0000000E+00;0; -1.4995362E-04;  4.0000000E+04;  0.0000000E+00;  0.0000000E+00;  4.0000000E+04;  0.0000000E+00;  4.0000000E+04; -1.8468512E-05;  0.0000000E+00; -1.3148510E-04;  2.2500885E+02;
  9.0000004E-02;  9.9999998E-03;  4.4000000E-01;2118;  0.0000000E+00;  0.0000000E+00;  0.0000000E+00;  1.0000000E+03;  1.0000000E-01;  0.0000000E+00;0;  0.0000000E+00;  0.0000000E+00;  0.0000000E+00;0; -5.0359078E-05;  4.0000000E+04;  0.0000000E+00;  0.0000000E+00;  4.0000000E+04;  0.0000000E+00;  4.0000000E+04; -3.5298769E-06;  0.0000000E+00; -4.6829202E-05;  6.1374237E+01;
  9.0000004E-02;  9.9999998E-03;  4.4999999E-01;2119;  0.0000000E+00;  0.0000000E+00;  0.0000000E+00;  1.0000000E+03;  1.0000000E-01;  0.0000000E+00;0;  0.0000000E+00;  0.0000000E+00;  0.0000000E+00;0; -1.1097014E-05;  4.0000000E+04;  0.0000000E+00;  0.0000000E+00;  4.0000000E+04;  0.0000000E+00;  4.0000000E+04; -2.2694195E-07;  0.0000000E+00; -1.0870072E-05;  7.4943967E+00;
  1.0000000E-01;  9.9999998E-03;  4.1000000E-01;2145;  0.0000000E+00;  0.0000000E+00;  0.0000000E+00;  1.0002574E+03;  1.0000000E-01;  2.1332730E+02;0;  0.0000000E+00;  0.0000000E+00;  0.0000000E+00;0; -6.7777652E-04;  4.0000000E+04;  0.0000000E+00;  0.0000000E+00;  4.0000000E+04;  0.0000000E+00;  4.0000000E+04; -1.8063055E-04;  0.0000000E+00; -4.9714599E-04;  1.3103385E+03;
  1.0000000E-01;  9.9999998E-03;  4.1999999E-01;2146;  0.0000000E+00;  0.0000000E+00;  0.0000000E+00;  1.0001300E+03;  1.0000000E-01;  1.0775004E+02;0;  0.0000000E+00;  0.0000000E+00;  0.0000000E+00;0; -3.4404331E-04;  4.0000000E+04;  0.0000000E+00;  0.0000000E+00;  4.0000000E+04;  0.0000000E+00;  4.0000000E+04; -6.6828208E-05;  0.0000000E+00; -2.7721509E-04;  7.1590613E+02;
  1.0000000E-01;  9.9999998E-03;  4.3000001E-01;2147;  0.0000000E+00;  0.0000000E+00;  0.0000000E+00;  1.0000734E+03;  1.0000000E-01;  6.0837784E+01;0;  0.0000000E+00;  0.0000000E+00;  0.0000000E+00;0; -1.4814542E-04;  4.0000000E+04;  0.0000000E+00;  0.0000000E+00;  4.0000000E+04;  0.0000000E+00;  4.0000000E+04; -1.8594592E-05;  0.0000000E+00; -1.2955083E-04;  3.1309201E+02;
  1.0000000E-01;  9.9999998E-03;  4.4000000E-01;2148;  0.0000000E+00;  0.0000000E+00;  0.0000000E+00;  1.0000000E+03;  1.0000000E-01;  0.0000000E+00;0;  0.0000000E+00;  0.0000000E+00;  0.0000000E+00;0; -4.9771668E-05;  4.0000000E+04;  0.0000000E+00;  0.0000000E+00;  4.0000000E+04;  0.0000000E+00;  4.0000000E+04; -3.1014704E-06;  0.0000000E+00; -4.6670197E-05;  9.7696678E+01;
  1.0000000E-01;  9.9999998E-03;  4.4999999E-01;2149;  0.0000000E+00;  0.0000000E+00;  0.0000000E+00;  1.0000000E+03;  1.0000000E-01;  0.0000000E+00;0;  0.0000000E+00;  0.0000000E+00;  0.0000000E+00;0; -1.1022199E-05;  4.0000000E+04;  0.0000000E+00;  0.0000000E+00;  4.0000000E+04;  0.0000000E+00;  4.0000000E+04; -5.3186980E-08;  0.0000000E+00; -1.0969012E-05;  1.7014952E+01;
  1.1000000E-01;  9.9999998E-03;  4.1000000E-01;2175;  0.0000000E+00;  0.0000000E+00;  0.0000000E+00;  1.0002579E+03;  1.0000000E-01;  2.1362358E+02;0;  0.0000000E+00;  0.0000000E+00;  0.0000000E+00;0; -6.8853202E-04;  4.0000000E+04;  0.0000000E+00;  0.0000000E+00;  4.0000000E+04;  0.0000000E+00;  4.0000000E+04; -2.1792538E-04;  0.0000000E+00; -4.7060661E-04;  1.6054614E+03;
  1.1000000E-01;  9.9999998E-03;  4.1999999E-01;2176;  0.0000000E+00;  0.0000000E+00;  0.0000000E+00;  1.0001285E+03;  1.0000000E-01;  1.0646613E+02;0;  0.0000000E+00;  0.0000000E+00;  0.0000000E+00;0; -3.4648611E-04;  4.0000000E+04;  0.0000000E+00;  0.0000000E+00;  4.0000000E+04;  0.0000000E+00;  4.0000000E+04; -8.2515035E-05;  0.0000000E+00; -2.6397107E-04;  9.1210724E+02;
  1.1000000E-01;  9.9999998E-03;  4.3000001E-01;2177;  0.0000000E+00;  0.0000000E+00;  0.0000000E+00;  1.0000651E+03;  1.0000000E-01;  5.3924400E+01;0;  0.0000000E+00;  0.0000000E+00;  0.0000000E+00;0; -1.4788377E-04;  4.0000000E+04;  0.0000000E+00;  0.0000000E+00;  4.0000000E+04;  0.0000000E+00;  4.0000000E+04; -2.3512865E-05;  0.0000000E+00; -1.2437090E-04;  4.2314224E+02;
  1.1000000E-01;  9.9999998E-03;  4.4000000E-01;2178;  0.0000000E+00;  0.0000000E+00;  0.0000000E+00;  1.0000000E+03;  1.0000000E-01;  0.0000000E+00;0;  0.0000000E+00;  0.0000000E+00;  0.0000000E+00;0; -4.9281589E-05;  4.0000000E+04;  0.0000000E+00;  0.0000000E+00;  4.0000000E+04;  0.0000000E+00;  4.0000000E+04; -3.9842034E-06;  0.0000000E+00; -4.5297384E-05;  1.4557904E+02;
  1.1000000E-01;  9.9999998E-03;  4.4999999E-01;2179;  0.0000000E+00;  0.0000000E+00;  0.0000000E+00;  1.0000000E+03;  1.0000000E-01;  0.0000000E+00;0;  0.0000000E+00;  0.0000000E+00;  0.0000000E+00;0; -1.0834273E-05;  4.0000000E+04;  0.0000000E+00;  0.0000000E+00;  4.0000000E+04;  0.0000000E+00;  4.0000000E+04; -1.2055975E-07;  0.0000000E+00; -1.0713713E-05;  3.0572247E+01;
  1.2000000E-01;  9.9999998E-03;  4.1000000E-01;2205;  0.0000000E+00;  0.0000000E+00;  0.0000000E+00;  1.0002698E+03;  1.0000000E-01;  2.2359862E+02;0;  0.0000000E+00;  0.0000000E+00;  0.0000000E+00;0; -7.1522727E-04;  4.0000000E+04;  0.0000000E+00;  0.0000000E+00;  4.0000000E+04;  0.0000000E+00;  4.0000000E+04; -2.8265070E-04;  0.0000000E+00; -4.3257658E-04;  1.9522222E+03;
  1.2000000E-01;  9.9999998E-03;  4.1999999E-01;2206;  0.0000000E+00;  0.0000000E+00;  0.0000000E+00;  1.0001284E+03;  1.0000000E-01;  1.0636736E+02;0;  0.0000000E+00;  0.0000000E+00;  0.0000000E+00;0; -3.5636823E-04;  4.0000000E+04;  0.0000000E+00;  0.0000000E+00;  4.0000000E+04;  0.0000000E+00;  4.0000000E+04; -1.1268917E-04;  0.0000000E+00; -2.4367905E-04;  1.1598859E+03;
  1.2000000E-01;  9.9999998E-03;  4.3000001E-01;2207;  0.0000000E+00;  0.0000000E+00;  0.0000000E+00;  1.0000621E+03;  1.0000000E-01;  5.1455334E+01;0;  0.0000000E+00;  0.0000000E+00;  0.0000000E+00;0; -1.5037481E-04;  4.0000000E+04;  0.0000000E+00;  0.0000000E+00;  4.0000000E+04;  0.0000000E+00;  4.0000000E+04; -3.4785731E-05;  0.0000000E+00; -1.1558907E-04;  5.6959808E+02;
  1.2000000E-01;  9.9999998E-03;  4.4000000E-01;2208;  0.0000000E+00;  0.0000000E+00;  0.0000000E+00;  1.0000000E+03;  1.0000000E-01;  0.0000000E+00;0;  0.0000000E+00;  0.0000000E+00;  0.0000000E+00;0; -4.9321839E-05;  4.0000000E+04;  0.0000000E+00;  0.0000000E+00;  4.0000000E+04;  0.0000000E+00;  4.0000000E+04; -6.8517261E-06;  0.0000000E+00; -4.2470114E-05;  2.1144646E+02;
  1.2000000E-01;  9.9999998E-03;  4.4999999E-01;2209;  0.0000000E+00;  0.0000000E+00;  0.0000000E+00;  1.0000000E+03;  1.0000000E-01;  0.0000000E+00;0;  0.0000000E+00;  0.0000000E+00;  0.0000000E+00;0; -1.0602772E-05;  4.0000000E+04;  0.0000000E+00;  0.0000000E+00;  4.0000000E+04;  0.0000000E+00;  4.0000000E+04; -4.9487818E-07;  0.0000000E+00; -1.0107894E-05;  4.9786400E+01;
  1.3000000E-01;  9.9999998E-03;  4.1000000E-01;2235;  0.0000000E+00;  0.0000000E+00;  0.0000000E+00;  1.0002899E+03;  1.0000000E-01;  2.4009198E+02;0;  0.0000000E+00;  0.0000000E+00;  0.0000000E+00;0; -7.6188485E-04;  4.0000000E+04;  0.0000000E+00;  0.0000000E+00;  4.0000000E+04;  0.0000000E+00;  4.0000000E+04; -3.7766641E-04;  0.0000000E+00; -3.8421844E-04;  2.4423093E+03;
  1.3000000E-01;  9.9999998E-03;  4.1999999E-01;2236;  0.0000000E+00;  0.0000000E+00;  0.0000000E+00;  1.0001295E+03;  1.0000000E-01;  1.0725623E+02;0;  0.0000000E+00;  0.0000000E+00;  0.0000000E+00;0; -3.7591963E-04;  4.0000000E+04;  0.0000000E+00;  0.0000000E+00;  4.0000000E+04;  0.0000000E+00;  4.0000000E+04; -1.5927345E-04;  0.0000000E+00; -2.1664618E-04;  1.5470314E+03;
  1.3000000E-01;  9.9999998E-03;  4.3000001E-01;2237;  0.0000000E+00;  0.0000000E+00;  0.0000000E+00;  1.0000629E+03;  1.0000000E-01;  5.2146675E+01;0;  0.0000000E+00;  0.0000000E+00;  0.0000000E+00;0; -1.5685403E-04;  4.0000000E+04;  0.0000000E+00;  0.0000000E+00;  4.0000000E+04;  0.0000000E+00;  4.0000000E+04; -5.3787382E-05;  0.0000000E+00; -1.0306665E-04;  8.1091296E+02;
  1.3000000E-01;  9.9999998E-03;  4.4000000E-01;2238;  0.0000000E+00;  0.0000000E+00;  0.0000000E+00;  1.0000000E+03;  1.0000000E-01;  0.0000000E+00;0;  0.0000000E+00;  0.0000000E+00;  0.0000000E+00;0; -5.0565017E-05;  4.0000000E+04;  0.0000000E+00;  0.0000000E+00;  4.0000000E+04;  0.0000000E+00;  4.0000000E+04; -1.2471090E-05;  0.0000000E+00; -3.8093927E-05;  3.2185681E+02;
  1.3000000E-01;  9.9999998E-03;  4.4999999E-01;2239;  0.0000000E+00;  0.0000000E+00;  0.0000000E+00;  1.0000000E+03;  1.0000000E-01;  0.0000000E+00;0;  0.0000000E+00;  0.0000000E+00;  0.0000000E+00;0; -1.0491643E-05;  4.0000000E+04;  0.0000000E+00;  0.0000000E+00;  4.0000000E+04;  0.0000000E+00;  4.0000000E+04; -1.3603222E-06;  0.0000000E+00; -9.1313213E-06;  8.1403893E+01;
  1.4000000E-01;  9.9999998E-03;  4.1000000E-01;2265;  0.0000000E+00;  0.0000000E+00;  0.0000000E+00;  1.0003114E+03;  1.0000000E-01;  2.5796802E+02;0;  0.0000000E+00;  0.0000000E+00;  0.0000000E+00;0; -8.3176885E-04;  4.0000000E+04;  0.0000000E+00;  0.0000000E+00;  4.0000000E+04;  0.0000000E+00;  4.0000000E+04; -5.0364423E-04;  0.0000000E+00; -3.2812465E-04;  3.3058118E+03;
  1.4000000E-01;  9.9999998E-03;  4.1999999E-01;2266;  0.0000000E+00;  0.0000000E+00;  0.0000000E+00;  1.0001382E+03;  1.0000000E-01;  1.1446590E+02;0;  0.0000000E+00;  0.0000000E+00;  0.0000000E+00;0; -4.0705333E-04;  4.0000000E+04;  0.0000000E+00;  0.0000000E+00;  4.0000000E+04;  0.0000000E+00;  4.0000000E+04; -2.2303080E-04;  0.0000000E+00; -1.8402254E-04;  2.2692622E+03;
  1.4000000E-01;  9.9999998E-03;  4.3000001E-01;2267;  0.0000000E+00;  0.0000000E+00;  0.0000000E+00;  1.0000658E+03;  1.0000000E-01;  5.4516975E+01;0;  0.0000000E+00;  0.0000000E+00;  0.0000000E+00;0; -1.6838915E-04;  4.0000000E+04;  0.0000000E+00;  0.0000000E+00;  4.0000000E+04;  0.0000000E+00;  4.0000000E+04; -8.1249309E-05;  0.0000000E+00; -8.7139844E-05;  1.2719713E+03;
  1.4000000E-01;  9.9999998E-03;  4.4000000E-01;2268;  0.0000000E+00;  0.0000000E+00;  0.0000000E+00;  1.0000000E+03;  1.0000000E-01;  0.0000000E+00;0;  0.0000000E+00;  0.0000000E+00;  0.0000000E+00;0; -5.3619846E-05;  4.0000000E+04;  0.0000000E+00;  0.0000000E+00;  4.0000000E+04;  0.0000000E+00;  4.0000000E+04; -2.1422129E-05;  0.0000000E+00; -3.2197717E-05;  5.3411560E+02;
  1.4000000E-01;  9.9999998E-03;  4.4999999E-01;2269;  0.0000000E+00;  0.0000000E+00;  0.0000000E+00;  1.0000000E+03;  1.0000000E-01;  0.0000000E+00;0;  0.0000000E+00;  0.0000000E+00;  0.0000000E+00;0; -1.0785828E-05;  4.0000000E+04;  0.0000000E+00;  0.0000000E+00;  4.0000000E+04;  0.0000000E+00;  4.0000000E+04; -3.0032886E-06;  0.0000000E+00; -7.7825389E-06;  1.4100758E+02;
  1.5000001E-01;  9.9999998E-03;  4.1000000E-01;2295;  0.0000000E+00;  0.0000000E+00;  0.0000000E+00;  1.0003359E+03;  1.0000000E-01;  2.7831311E+02;0;  0.0000000E+00;  0.0000000E+00;  0.0000000E+00;0; -9.2585047E-04;  4.0000000E+04;  0.0000000E+00;  0.0000000E+00;  4.0000000E+04;  0.0000000E+00;  4.0000000E+04; -6.5755658E-04;  0.0000000E+00; -2.6829392E-04;  4.8934150E+03;
  1.5000001E-01;  9.9999998E-03;  4.1999999E-01;2296;  0.0000000E+00;  0.0000000E+00;  0.0000000E+00;  1.0001498E+03;  1.0000000E-01;  1.2404588E+02;0;  0.0000000E+00;  0.0000000E+00;  0.0000000E+00;0; -4.5062267E-04;  4.0000000E+04;  0.0000000E+00;  0.0000000E+00;  4.0000000E+04;  0.0000000E+00;  4.0000000E+04; -3.0263557E-04;  0.0000000E+00; -1.4798710E-04;  3.6022820E+03;
  1.5000001E-01;  9.9999998E-03;  4.3000001E-01;2297;  0.0000000E+00;  0.0000000E+00;  0.0000000E+00;  1.0000737E+03;  1.0000000E-01;  6.1035313E+01;0;  0.0000000E+00;  0.0000000E+00;  0.0000000E+00;0; -1.8548782E-04;  4.0000000E+04;  0.0000000E+00;  0.0000000E+00;  4.0000000E+04;  0.0000000E+00;  4.0000000E+04; -1.1681243E-04;  0.0000000E+00; -6.8675385E-05;  2.1284902E+03;
  1.5000001E-01;  9.9999998E-03;  4.4000000E-01;2298;  0.0000000E+00;  0.0000000E+00;  0.0000000E+00;  1.0000000E+03;  1.0000000E-01;  0.0000000E+00;0;  0.0000000E+00;  0.0000000E+00;  0.0000000E+00;0; -5.8765167E-05;  4.0000000E+04;  0.0000000E+00;  0.0000000E+00;  4.0000000E+04;  0.0000000E+00;  4.0000000E+04; -3.3822227E-05;  0.0000000E+00; -2.4942939E-05;  9.3336743E+02;
  1.5000001E-01;  9.9999998E-03;  4.4999999E-01;2299;  0.0000000E+00;  0.0000000E+00;  0.0000000E+00;  1.0000000E+03;  1.0000000E-01;  0.0000000E+00;0;  0.0000000E+00;  0.0000000E+00;  0.0000000E+00;0; -1.1676122E-05;  4.0000000E+04;  0.0000000E+00;  0.0000000E+00;  4.0000000E+04;  0.0000000E+00;  4.0000000E+04; -5.6344088E-06;  0.0000000E+00; -6.0417133E-06;  2.5478334E+02;
  1.6000000E-01;  9.9999998E-03;  4.1000000E-01;2325;  0.0000000E+00;  0.0000000E+00;  0.0000000E+00;  1.0003958E+03;  1.0000000E-01;  3.2789197E+02;0;  0.0000000E+00;  0.0000000E+00;  0.0000000E+00;0; -1.0404326E-03;  4.0000000E+04;  0.0000000E+00;  0.0000000E+00;  4.0000000E+04;  0.0000000E+00;  4.0000000E+04; -8.3027594E-04;  0.0000000E+00; -2.1015668E-04;  7.5517256E+03;
  1.6000000E-01;  9.9999998E-03;  4.1999999E-01;2326;  0.0000000E+00;  0.0000000E+00;  0.0000000E+00;  1.0001723E+03;  1.0000000E-01;  1.4271201E+02;0;  0.0000000E+00;  0.0000000E+00;  0.0000000E+00;0; -5.0517236E-04;  4.0000000E+04;  0.0000000E+00;  0.0000000E+00;  4.0000000E+04;  0.0000000E+00;  4.0000000E+04; -3.9348993E-04;  0.0000000E+00; -1.1168241E-04;  5.8303174E+03;
  1.6000000E-01;  9.9999998E-03;  4.3000001E-01;2327;  0.0000000E+00;  0.0000000E+00;  0.0000000E+00;  1.0000867E+03;  1.0000000E-01;  7.1800438E+01;0;  0.0000000E+00;  0.0000000E+00;  0.0000000E+00;0; -2.0754561E-04;  4.0000000E+04;  0.0000000E+00;  0.0000000E+00;  4.0000000E+04;  0.0000000E+00;  4.0000000E+04; -1.5851410E-04;  0.0000000E+00; -4.9031521E-05;  3.5800439E+03;
  1.6000000E-01;  9.9999998E-03;  4.4000000E-01;2328;  0.0000000E+00;  0.0000000E+00;  0.0000000E+00;  1.0000000E+03;  1.0000000E-01;  0.0000000E+00;0;  0.0000000E+00;  0.0000000E+00;  0.0000000E+00;0; -6.5692773E-05;  4.0000000E+04;  0.0000000E+00;  0.0000000E+00;  4.0000000E+04;  0.0000000E+00;  4.0000000E+04; -4.9063699E-05;  0.0000000E+00; -1.6629076E-05;  1.6272224E+03;
  1.6000000E-01;  9.9999998E-03;  4.4999999E-01;2329;  0.0000000E+00;  0.0000000E+00;  0.0000000E+00;  1.0000000E+03;  1.0000000E-01;  0.0000000E+00;0;  0.0000000E+00;  0.0000000E+00;  0.0000000E+00;0; -1.3063940E-05;  4.0000000E+04;  0.0000000E+00;  0.0000000E+00;  4.0000000E+04;  0.0000000E+00;  4.0000000E+04; -9.2165146E-06;  0.0000000E+00; -3.8474250E-06;  4.6024222E+02;
  1.7000000E-01;  9.9999998E-03;  4.1000000E-01;2355;  0.0000000E+00;  0.0000000E+00;  0.0000000E+00;  1.0004457E+03;  1.0000000E-01;  3.6927350E+02;0;  0.0000000E+00;  0.0000000E+00;  0.0000000E+00;0; -1.1656003E-03;  4.0000000E+04;  0.0000000E+00;  0.0000000E+00;  4.0000000E+04;  0.0000000E+00;  4.0000000E+04; -1.0050390E-03;  0.0000000E+00; -1.6056135E-04;  1.1505065E+04;
  1.7000000E-01;  9.9999998E-03;  4.1999999E-01;2356;  0.0000000E+00;  0.0000000E+00;  0.0000000E+00;  1.0002109E+03;  1.0000000E-01;  1.7471111E+02;0;  0.0000000E+00;  0.0000000E+00;  0.0000000E+00;0; -5.6611688E-04;  4.0000000E+04;  0.0000000E+00;  0.0000000E+00;  4.0000000E+04;  0.0000000E+00;  4.0000000E+04; -4.8691113E-04;  0.0000000E+00; -7.9205733E-05;  9.1858594E+03;
  1.7000000E-01;  9.9999998E-03;  4.3000001E-01;2357;  0.0000000E+00;  0.0000000E+00;  0.0000000E+00;  1.0000942E+03;  1.0000000E-01;  7.8022484E+01;0;  0.0000000E+00;  0.0000000E+00;  0.0000000E+00;0; -2.3246233E-04;  4.0000000E+04;  0.0000000E+00;  0.0000000E+00;  4.0000000E+04;  0.0000000E+00;  4.0000000E+04; -2.0238562E-04;  0.0000000E+00; -3.0076721E-05;  5.8246392E+03;
  1.7000000E-01;  9.9999998E-03;  4.4000000E-01;2358;  0.0000000E+00;  0.0000000E+00;  0.0000000E+00;  1.0000000E+03;  1.0000000E-01;  0.0000000E+00;0;  0.0000000E+00;  0.0000000E+00;  0.0000000E+00;0; -7.3361422E-05;  4.0000000E+04;  0.0000000E+00;  0.0000000E+00;  4.0000000E+04;  0.0000000E+00;  4.0000000E+04; -6.5633685E-05;  0.0000000E+00; -7.7277346E-06;  2.7388142E+03;
  1.7000000E-01;  9.9999998E-03;  4.4999999E-01;2359;  0.0000000E+00;  0.0000000E+00;  0.0000000E+00;  1.0000000E+03;  1.0000000E-01;  0.0000000E+00;0;  0.0000000E+00;  0.0000000E+00;  0.0000000E+00;0; -1.4494584E-05;  4.0000000E+04;  0.0000000E+00;  0.0000000E+00;  4.0000000E+04;  0.0000000E+00;  4.0000000E+04; -1.3361823E-05;  0.0000000E+00; -1.1327606E-06;  8.0533588E+02;
  1.8000001E-01;  9.9999998E-03;  4.1000000E-01;2385;  0.0000000E+00;  0.0000000E+00;  0.0000000E+00;  1.0004960E+03;  1.0000000E-01;  4.1095135E+02;0;  0.0000000E+00;  0.0000000E+00;  0.0000000E+00;0; -1.2877889E-03;  4.0000000E+04;  0.0000000E+00;  0.0000000E+00;  4.0000000E+04;  0.0000000E+00;  4.0000000E+04; -1.1596882E-03;  0.0000000E+00; -1.2810064E-04;  1.6752803E+04;
  1.8000001E-01;  9.9999998E-03;  4.1999999E-01;2386;  0.0000000E+00;  0.0000000E+00;  0.0000000E+00;  1.0002386E+03;  1.0000000E-01;  1.9772281E+02;0;  0.0000000E+00;  0.0000000E+00;  0.0000000E+00;0; -6.2705891E-04;  4.0000000E+04;  0.0000000E+00;  0.0000000E+00;  4.0000000E+04;  0.0000000E+00;  4.0000000E+04; -5.7108351E-04;  0.0000000E+00; -5.5975412E-05;  1.3757038E+04;
  1.8000001E-01;  9.9999998E-03;  4.3000001E-01;2387;  0.0000000E+00;  0.0000000E+00;  0.0000000E+00;  1.0000967E+03;  1.0000000E-01;  8.0096497E+01;0;  0.0000000E+00;  0.0000000E+00;  0.0000000E+00;0; -2.5726808E-04;  4.0000000E+04;  0.0000000E+00;  0.0000000E+00;  4.0000000E+04;  0.0000000E+00;  4.0000000E+04; -2.4277497E-04;  0.0000000E+00; -1.4493108E-05;  8.9960879E+03;
  1.8000001E-01;  9.9999998E-03;  4.4000000E-01;2388;  0.0000000E+00;  0.0000000E+00;  0.0000000E+00;  1.0000000E+03;  1.0000000E-01;  0.0000000E+00;0;  0.0000000E+00;  0.0000000E+00;  0.0000000E+00;0; -8.0261358E-05;  4.0000000E+04;  0.0000000E+00;  0.0000000E+00;  4.0000000E+04;  0.0000000E+00;  4.0000000E+04; -8.1199440E-05;  0.0000000E+00;  9.3808154E-07;  4.3774961E+03;
  1.8000001E-01;  9.9999998E-03;  4.4999999E-01;2389;  0.0000000E+00;  0.0000000E+00;  0.0000000E+00;  1.0000000E+03;  1.0000000E-01;  0.0000000E+00;0;  0.0000000E+00;  0.0000000E+00;  0.0000000E+00;0; -1.5241649E-05;  4.0000000E+04;  0.0000000E+00;  0.0000000E+00;  4.0000000E+04;  0.0000000E+00;  4.0000000E+04; -1.7331102E-05;  0.0000000E+00;  2.0894536E-06;  1.3394927E+03;
  1.9000000E-01;  9.9999998E-03;  4.1000000E-01;2415;  0.0000000E+00;  0.0000000E+00;  0.0000000E+00;  1.0005439E+03;  1.0000000E-01;  4.5065393E+02;0;  0.0000000E+00;  0.0000000E+00;  0.0000000E+00;0; -1.3989424E-03;  4.0000000E+04;  0.0000000E+00;  0.0000000E+00;  4.0000000E+04;  0.0000000E+00;  4.0000000E+04; -1.2750011E-03;  0.0000000E+00; -1.2394134E-04;  2.3001246E+04;
  1.9000000E-01;  9.9999998E-03;  4.1999999E-01;2416;  0.0000000E+00;  0.0000000E+00;  0.0000000E+00;  1.0002753E+03;  1.0000000E-01;  2.2814169E+02;0;  0.0000000E+00;  0.0000000E+00;  0.0000000E+00;0; -6.8480085E-04;  4.0000000E+04;  0.0000000E+00;  0.0000000E+00;  4.0000000E+04;  0.0000000E+00;  4.0000000E+04; -6.3517364E-04;  0.0000000E+00; -4.9627197E-05;  1.9390869E+04;
  1.9000000E-01;  9.9999998E-03;  4.3000001E-01;2417;  0.0000000E+00;  0.0000000E+00;  0.0000000E+00;  1.0001141E+03;  1.0000000E-01;  9.4515846E+01;0;  0.0000000E+00;  0.0000000E+00;  0.0000000E+00;0; -2.8068066E-04;  4.0000000E+04;  0.0000000E+00;  0.0000000E+00;  4.0000000E+04;  0.0000000E+00;  4.0000000E+04; -2.7412578E-04;  0.0000000E+00; -6.5548938E-06;  1.3076903E+04;
  1.9000000E-01;  9.9999998E-03;  4.4000000E-01;2418;  0.0000000E+00;  0.0000000E+00;  0.0000000E+00;  1.0000082E+03;  1.0000000E-01;  6.8146219E+00;0;  0.0000000E+00;  0.0000000E+00;  0.0000000E+00;0; -8.5570340E-05;  4.0000000E+04;  0.0000000E+00;  0.0000000E+00;  4.0000000E+04;  0.0000000E+00;  4.0000000E+04; -9.3259587E-05;  0.0000000E+00;  7.6892502E-06;  6.5857837E+03;
  1.9000000E-01;  9.9999998E-03;  4.4999999E-01;2419;  0.0000000E+00;  0.0000000E+00;  0.0000000E+00;  1.0000000E+03;  1.0000000E-01;  0.0000000E+00;0;  0.0000000E+00;  0.0000000E+00;  0.0000000E+00;0; -1.4730200E-05;  4.0000000E+04;  0.0000000E+00;  0.0000000E+00;  4.0000000E+04;  0.0000000E+00;  4.0000000E+04; -2.0233903E-05;  0.0000000E+00;  5.5037031E-06;  2.0929221E+03;
  2.0000000E-01;  9.9999998E-03;  4.1000000E-01;2444;  0.0000000E+00;  0.0000000E+00;  0.0000000E+00;  1.0005771E+03;  1.0000000E-01;  4.7810992E+02;0;  0.0000000E+00;  0.0000000E+00;  0.0000000E+00;0; -1.5088492E-03;  4.0000000E+04;  0.0000000E+00;  0.0000000E+00;  4.0000000E+04;  0.0000000E+00;  4.0000000E+04; -1.3459490E-03;  0.0000000E+00; -1.6290025E-04;  2.9757516E+04;
  2.0000000E-01;  9.9999998E-03;  4.1999999E-01;2445;  0.0000000E+00;  0.0000000E+00;  0.0000000E+00;  1.0002957E+03;  1.0000000E-01;  2.4493135E+02;0;  0.0000000E+00;  0.0000000E+00;  0.0000000E+00;0; -7.4662088E-04;  4.0000000E+04;  0.0000000E+00;  0.0000000E+00;  4.0000000E+04;  0.0000000E+00;  4.0000000E+04; -6.7538500E-04;  0.0000000E+00; -7.1235881E-05;  2.5723236E+04;
  2.0000000E-01;  9.9999998E-03;  4.3000001E-01;2446;  0.0000000E+00;  0.0000000E+00;  0.0000000E+00;  1.0001296E+03;  1.0000000E-01;  1.0735499E+02;0;  0.0000000E+00;  0.0000000E+00;  0.0000000E+00;0; -3.0723721E-04;  4.0000000E+04;  0.0000000E+00;  0.0000000E+00;  4.0000000E+04;  0.0000000E+00;  4.0000000E+04; -2.9393824E-04;  0.0000000E+00; -1.3298963E-05;  1.7874576E+04;
  2.0000000E-01;  9.9999998E-03;  4.4000000E-01;2447;  0.0000000E+00;  0.0000000E+00;  0.0000000E+00;  1.0000304E+03;  1.0000000E-01;  2.5184473E+01;0;  0.0000000E+00;  0.0000000E+00;  0.0000000E+00;0; -9.1304028E-05;  4.0000000E+04;  0.0000000E+00;  0.0000000E+00;  4.0000000E+04;  0.0000000E+00;  4.0000000E+04; -1.0041390E-04;  0.0000000E+00;  9.1098718E-06;  9.3025098E+03;
 -2.0000000E-01;  9.9999998E-03; -4.4000000E-01;0;  0.0000000E+00;  0.0000000E+00;  0.0000000E+00;  1.0000000E+03;  1.0000000E-01;  0.0000000E+00;0;  0.0000000E+00;  0.0000000E+00;  0.0000000E+00;0;  0.0000000E+00;  4.0000000E+04;  0.0000000E+00;  0.0000000E+00;  4.0000000E+04;  0.0000000E+00;  4.0000000E+04;  0.0000000E+00;  0.0000000E+00;  0.0000000E+00;  0.0000000E+00;
 -2.0000000E-01;  9.9999998E-03; -4.3000001E-01;1;  0.0000000E+00;  0.0000000E+00;  0.0000000E+00;  1.0000000E+03;  1.0000000E-01;  0.0000000E+00;0;  0.0000000E+00;  0.0000000E+00;  0.0000000E+00;0;  0.0000000E+00;  4.0000000E+04;  0.0000000E+00;  0.0000000E+00;  4.0000000E+04;  0.0000000E+00;  4.0000000E+04;  0.0000000E+00;  0.0000000E+00;  0.0000000E+00;  0.0000000E+00;
 -2.0000000E-01;  9.9999998E-03; -4.1999999E-01;2;  0.0000000E+00;  0.0000000E+00;  0.0000000E+00;  1.0000000E+03;  1.0000000E-01;  0.0000000E+00;0;  0.0000000E+00;  0.0000000E+00;  0.0000000E+00;0;  0.0000000E+00;  4.0000000E+04;  0.0000000E+00;  0.0000000E+00;  4.0000000E+04;  0.0000000E+00;  4.0000000E+04;  0.0000000E+00;  0.0000000E+00;  0.0000000E+00;  0.0000000E+00;
 -2.0000000E-01;  9.9999998E-03; -4.1000000E-01;3;  0.0000000E+00;  0.0000000E+00;  0.0000000E+00;  1.0000000E+03;  1.0000000E-01;  0.0000000E+00;0;  0.0000000E+00;  0.0000000E+00;  0.0000000E+00;0;  0.0000000E+00;  4.0000000E+04;  0.0000000E+00;  0.0000000E+00;  4.0000000E+04;  0.0000000E+00;  4.0000000E+04;  0.0000000E+00;  0.0000000E+00;  0.0000000E+00;  0.0000000E+00;
 -2.0000000E-01;  9.9999998E-03; -4.0000001E-01;4;  0.0000000E+00;  0.0000000E+00;  0.0000000E+00;  1.0000000E+03;  1.0000000E-01;  0.0000000E+00;0;  0.0000000E+00;  0.0000000E+00;  0.0000000E+00;0;  0.0000000E+00;  4.0000000E+04;  0.0000000E+00;  0.0000000E+00;  4.0000000E+04;  0.0000000E+00;  4.0000000E+04;  0.0000000E+00;  0.0000000E+00;  0.0000000E+00;  0.0000000E+00;
 -2.0000000E-01;  9.9999998E-03; -3.8999999E-01;5;  0.0000000E+00;  0.0000000E+00;  0.0000000E+00;  1.0000000E+03;  1.0000000E-01;  0.0000000E+00;0;  0.0000000E+00;  0.0000000E+00;  0.0000000E+00;0;  0.0000000E+00;  4.0000000E+04;  0.0000000E+00;  0.0000000E+00;  4.0000000E+04;  0.0000000E+00;  4.0000000E+04;  0.0000000E+00;  0.0000000E+00;  0.0000000E+00;  0.0000000E+00;
 -2.0000000E-01;  9.9999998E-03; -3.8000000E-01;6;  0.0000000E+00;  0.0000000E+00;  0.0000000E+00;  1.0000000E+03;  1.0000000E-01;  0.0000000E+00;0;  0.0000000E+00;  0.0000000E+00;  0.0000000E+00;0;  0.0000000E+00;  4.0000000E+04;  0.0000000E+00;  0.0000000E+00;  4.0000000E+04;  0.0000000E+00;  4.0000000E+04;  0.0000000E+00;  0.0000000E+00;  0.0000000E+00;  0.0000000E+00;
 -2.0000000E-01;  9.9999998E-03; -3.7000000E-01;7;  0.0000000E+00;  0.0000000E+00;  0.0000000E+00;  1.0000000E+03;  1.0000000E-01;  0.0000000E+00;0;  0.0000000E+00;  0.0000000E+00;  0.0000000E+00;0;  0.0000000E+00;  4.0000000E+04;  0.0000000E+00;  0.0000000E+00;  4.0000000E+04;  0.0000000E+00;  4.0000000E+04;  0.0000000E+00;  0.0000000E+00;  0.0000000E+00;  0.0000000E+00;
 -2.0000000E-01;  9.9999998E-03; -3.6000001E-01;8;  0.0000000E+00;  0.0000000E+00;  0.0000000E+00;  1.0000000E+03;  1.0000000E-01;  0.0000000E+00;0;  0.0000000E+00;  0.0000000E+00;  0.0000000E+00;0;  0.0000000E+00;  4.0000000E+04;  0.0000000E+00;  0.0000000E+00;  4.0000000E+04;  0.0000000E+00;  4.0000000E+04;  0.0000000E+00;  0.0000000E+00;  0.0000000E+00;  0.0000000E+00;
 -2.0000000E-01;  9.9999998E-03; -3.4999999E-01;9;  0.0000000E+00;  0.0000000E+00;  0.0000000E+00;  1.0000000E+03;  1.0000000E-01;  0.0000000E+00;0;  0.0000000E+00;  0.0000000E+00;  0.0000000E+00;0;  0.0000000E+00;  4.0000000E+04;  0.0000000E+00;  0.0000000E+00;  4.0000000E+04;  0.0000000E+00;  4.0000000E+04;  0.0000000E+00;  0.0000000E+00;  0.0000000E+00;  0.0000000E+00;
 -2.0000000E-01;  9.9999998E-03; -3.4000000E-01;10;  0.0000000E+00;  0.0000000E+00;  0.0000000E+00;  1.0000000E+03;  1.0000000E-01;  0.0000000E+00;0;  0.0000000E+00;  0.0000000E+00;  0.0000000E+00;0;  0.0000000E+00;  4.0000000E+04;  0.0000000E+00;  0.0000000E+00;  4.0000000E+04;  0.0000000E+00;  4.0000000E+04;  0.0000000E+00;  0.0000000E+00;  0.0000000E+00;  0.0000000E+00;
 -2.0000000E-01;  9.9999998E-03; -3.3000001E-01;11;  0.0000000E+00;  0.0000000E+00;  0.0000000E+00;  1.0000000E+03;  1.0000000E-01;  0.0000000E+00;0;  0.0000000E+00;  0.0000000E+00;  0.0000000E+00;0;  0.0000000E+00;  4.0000000E+04;  0.0000000E+00;  0.0000000E+00;  4.0000000E+04;  0.0000000E+00;  4.0000000E+04;  0.0000000E+00;  0.0000000E+00;  0.0000000E+00;  0.0000000E+00;
 -2.0000000E-01;  9.9999998E-03; -3.1999999E-01;12;  0.0000000E+00;  0.0000000E+00;  0.0000000E+00;  1.0000000E+03;  1.0000000E-01;  0.0000000E+00;0;  0.0000000E+00;  0.0000000E+00;  0.0000000E+00;0;  0.0000000E+00;  4.0000000E+04;  0.0000000E+00;  0.0000000E+00;  4.0000000E+04;  0.0000000E+00;  4.0000000E+04;  0.0000000E+00;  0.0000000E+00;  0.0000000E+00;  0.0000000E+00;
 -2.0000000E-01;  9.9999998E-03; -3.1000000E-01;13;  0.0000000E+00;  0.0000000E+00;  0.0000000E+00;  1.0000000E+03;  1.0000000E-01;  0.0000000E+00;0;  0.0000000E+00;  0.0000000E+00;  0.0000000E+00;0;  0.0000000E+00;  4.0000000E+04;  0.0000000E+00;  0.0000000E+00;  4.0000000E+04;  0.0000000E+00;  4.0000000E+04;  0.0000000E+00;  0.0000000E+00;  0.0000000E+00;  0.0000000E+00;
 -2.0000000E-01;  9.9999998E-03; -3.0000001E-01;14;  0.0000000E+00;  0.0000000E+00;  0.0000000E+00;  1.0000000E+03;  1.0000000E-01;  0.0000000E+00;0;  0.0000000E+00;  0.0000000E+00;  0.0000000E+00;0;  0.0000000E+00;  4.0000000E+04;  0.0000000E+00;  0.0000000E+00;  4.0000000E+04;  0.0000000E+00;  4.0000000E+04;  0.0000000E+00;  0.0000000E+00;  0.0000000E+00;  0.0000000E+00;
 -2.0000000E-01;  9.9999998E-03; -2.8999999E-01;15;  0.0000000E+00;  0.0000000E+00;  0.0000000E+00;  1.0000000E+03;  1.0000000E-01;  0.0000000E+00;0;  0.0000000E+00;  0.0000000E+00;  0.0000000E+00;0;  0.0000000E+00;  4.0000000E+04;  0.0000000E+00;  0.0000000E+00;  4.0000000E+04;  0.0000000E+00;  4.0000000E+04;  0.0000000E+00;  0.0000000E+00;  0.0000000E+00;  0.0000000E+00;
 -2.0000000E-01;  9.9999998E-03; -2.8000000E-01;16;  0.0000000E+00;  0.0000000E+00;  0.0000000E+00;  1.0000000E+03;  1.0000000E-01;  0.0000000E+00;0;  0.0000000E+00;  0.0000000E+00;  0.0000000E+00;0;  0.0000000E+00;  4.0000000E+04;  0.0000000E+00;  0.0000000E+00;  4.0000000E+04;  0.0000000E+00;  4.0000000E+04;  0.0000000E+00;  0.0000000E+00;  0.0000000E+00;  0.0000000E+00;
 -2.0000000E-01;  9.9999998E-03; -2.7000001E-01;17;  0.0000000E+00;  0.0000000E+00;  0.0000000E+00;  1.0000000E+03;  1.0000000E-01;  0.0000000E+00;0;  0.0000000E+00;  0.0000000E+00;  0.0000000E+00;0;  0.0000000E+00;  4.0000000E+04;  0.0000000E+00;  0.0000000E+00;  4.0000000E+04;  0.0000000E+00;  4.0000000E+04;  0.0000000E+00;  0.0000000E+00;  0.0000000E+00;  0.0000000E+00;
 -2.0000000E-01;  9.9999998E-03; -2.5999999E-01;18;  0.0000000E+00;  0.0000000E+00;  0.0000000E+00;  1.0000000E+03;  1.0000000E-01;  0.0000000E+00;0;  0.0000000E+00;  0.0000000E+00;  0.0000000E+00;0;  0.0000000E+00;  4.0000000E+04;  0.0000000E+00;  0.0000000E+00;  4.0000000E+04;  0.0000000E+00;  4.0000000E+04;  0.0000000E+00;  0.0000000E+00;  0.0000000E+00;  0.0000000E+00;
 -2.0000000E-01;  9.9999998E-03; -2.5000000E-01;19;  0.0000000E+00;  0.0000000E+00;  0.0000000E+00;  1.0000000E+03;  1.0000000E-01;  0.0000000E+00;0;  0.0000000E+00;  0.0000000E+00;  0.0000000E+00;0;  0.0000000E+00;  4.0000000E+04;  0.0000000E+00;  0.0000000E+00;  4.0000000E+04;  0.0000000E+00;  4.0000000E+04;  0.0000000E+00;  0.0000000E+00;  0.0000000E+00;  0.0000000E+00;
 -2.0000000E-01;  9.9999998E-03; -2.3999999E-01;20;  0.0000000E+00;  0.0000000E+00;  0.0000000E+00;  1.0000000E+03;  1.0000000E-01;  0.0000000E+00;0;  0.0000000E+00;  0.0000000E+00;  0.0000000E+00;0;  0.0000000E+00;  4.0000000E+04;  0.0000000E+00;  0.0000000E+00;  4.0000000E+04;  0.0000000E+00;  4.0000000E+04;  0.0000000E+00;  0.0000000E+00;  0.0000000E+00;  0.0000000E+00;
 -2.0000000E-01;  9.9999998E-03; -2.3000000E-01;21;  0.0000000E+00;  0.0000000E+00;  0.0000000E+00;  1.0000000E+03;  1.0000000E-01;  0.0000000E+00;0;  0.0000000E+00;  0.0000000E+00;  0.0000000E+00;0;  0.0000000E+00;  4.0000000E+04;  0.0000000E+00;  0.0000000E+00;  4.0000000E+04;  0.0000000E+00;  4.0000000E+04;  0.0000000E+00;  0.0000000E+00;  0.0000000E+00;  0.0000000E+00;
 -2.0000000E-01;  9.9999998E-03; -2.2000000E-01;22;  0.0000000E+00;  0.0000000E+00;  0.0000000E+00;  1.0000000E+03;  1.0000000E-01;  0.0000000E+00;0;  0.0000000E+00;  0.0000000E+00;  0.0000000E+00;0;  0.0000000E+00;  4.0000000E+04;  0.0000000E+00;  0.0000000E+00;  4.0000000E+04;  0.0000000E+00;  4.0000000E+04;  0.0000000E+00;  0.0000000E+00;  0.0000000E+00;  0.0000000E+00;
 -2.0000000E-01;  9.9999998E-03; -2.0999999E-01;23;  0.0000000E+00;  0.0000000E+00;  0.0000000E+00;  1.0000000E+03;  1.0000000E-01;  0.0000000E+00;0;  0.0000000E+00;  0.0000000E+00;  0.0000000E+00;0;  0.0000000E+00;  4.0000000E+04;  0.0000000E+00;  0.0000000E+00;  4.0000000E+04;  0.0000000E+00;  4.0000000E+04;  0.0000000E+00;  0.0000000E+00;  0.0000000E+00;  0.0000000E+00;
 -2.0000000E-01;  9.9999998E-03; -2.0000000E-01;24;  0.0000000E+00;  0.0000000E+00;  0.0000000E+00;  1.0000000E+03;  1.0000000E-01;  0.0000000E+00;0;  0.0000000E+00;  0.0000000E+00;  0.0000000E+00;0;  0.0000000E+00;  4.0000000E+04;  0.0000000E+00;  0.0000000E+00;  4.0000000E+04;  0.0000000E+00;  4.0000000E+04;  0.0000000E+00;  0.0000000E+00;  0.0000000E+00;  0.0000000E+00;
 -2.0000000E-01;  9.9999998E-03; -1.9000000E-01;25;  0.0000000E+00;  0.0000000E+00;  0.0000000E+00;  1.0000000E+03;  1.0000000E-01;  0.0000000E+00;0;  0.0000000E+00;  0.0000000E+00;  0.0000000E+00;0;  0.0000000E+00;  4.0000000E+04;  0.0000000E+00;  0.0000000E+00;  4.0000000E+04;  0.0000000E+00;  4.0000000E+04;  0.0000000E+00;  0.0000000E+00;  0.0000000E+00;  0.0000000E+00;
 -2.0000000E-01;  9.9999998E-03; -1.8000001E-01;26;  0.0000000E+00;  0.0000000E+00;  0.0000000E+00;  1.0000000E+03;  1.0000000E-01;  0.0000000E+00;0;  0.0000000E+00;  0.0000000E+00;  0.0000000E+00;0;  0.0000000E+00;  4.0000000E+04;  0.0000000E+00;  0.0000000E+00;  4.0000000E+04;  0.0000000E+00;  4.0000000E+04;  0.0000000E+00;  0.0000000E+00;  0.0000000E+00;  0.0000000E+00;
 -2.0000000E-01;  9.9999998E-03; -1.7000000E-01;27;  0.0000000E+00;  0.0000000E+00;  0.0000000E+00;  1.0000000E+03;  1.0000000E-01;  0.0000000E+00;0;  0.0000000E+00;  0.0000000E+00;  0.0000000E+00;0;  0.0000000E+00;  4.0000000E+04;  0.0000000E+00;  0.0000000E+00;  4.0000000E+04;  0.0000000E+00;  4.0000000E+04;  0.0000000E+00;  0.0000000E+00;  0.0000000E+00;  0.0000000E+00;
 -2.0000000E-01;  9.9999998E-03; -1.6000000E-01;28;  0.0000000E+00;  0.0000000E+00;  0.0000000E+00;  1.0000000E+03;  1.0000000E-01;  0.0000000E+00;0;  0.0000000E+00;  0.0000000E+00;  0.0000000E+00;0;  0.0000000E+00;  4.0000000E+04;  0.0000000E+00;  0.0000000E+00;  4.0000000E+04;  0.0000000E+00;  4.0000000E+04;  0.0000000E+00;  0.0000000E+00;  0.0000000E+00;  0.0000000E+00;
 -2.0000000E-01;  9.9999998E-03; -1.5000001E-01;29;  0.0000000E+00;  0.0000000E+00;  0.0000000E+00;  1.0000000E+03;  1.0000000E-01;  0.0000000E+00;0;  0.0000000E+00;  0.0000000E+00;  0.0000000E+00;0;  0.0000000E+00;  4.0000000E+04;  0.0000000E+00;  0.0000000E+00;  4.0000000E+04;  0.0000000E+00;  4.0000000E+04;  0.0000000E+00;  0.0000000E+00;  0.0000000E+00;  0.0000000E+00;
 -2.0000000E-01;  9.9999998E-03; -1.4000000E-01;30;  0.0000000E+00;  0.0000000E+00;  0.0000000E+00;  1.0000000E+03;  1.0000000E-01;  0.0000000E+00;0;  0.0000000E+00;  0.0000000E+00;  0.0000000E+00;0;  0.0000000E+00;  4.0000000E+04;  0.0000000E+00;  0.0000000E+00;  4.0000000E+04;  0.0000000E+00;  4.0000000E+04;  0.0000000E+00;  0.0000000E+00;  0.0000000E+00;  0.0000000E+00;
 -2.0000000E-01;  9.9999998E-03; -1.3000000E-01;31;  0.0000000E+00;  0.0000000E+00;  0.0000000E+00;  1.0000000E+03;  1.0000000E-01;  0.0000000E+00;0;  0.0000000E+00;  0.0000000E+00;  0.0000000E+00;0;  0.0000000E+00;  4.0000000E+04;  0.0000000E+00;  0.0000000E+00;  4.0000000E+04;  0.0000000E+00;  4.0000000E+04;  0.0000000E+00;  0.0000000E+00;  0.0000000E+00;  0.0000000E+00;
 -2.0000000E-01;  9.9999998E-03; -1.2000000E-01;32;  0.0000000E+00;  0.0000000E+00;  0.0000000E+00;  1.0000000E+03;  1.0000000E-01;  0.0000000E+00;0;  0.0000000E+00;  0.0000000E+00;  0.0000000E+00;0;  0.0000000E+00;  4.0000000E+04;  0.0000000E+00;  0.0000000E+00;  4.0000000E+04;  0.0000000E+00;  4.0000000E+04;  0.0000000E+00;  0.0000000E+00;  0.0000000E+00;  0.0000000E+00;
 -2.0000000E-01;  9.9999998E-03; -1.1000000E-01;33;  0.0000000E+00;  0.0000000E+00;  0.0000000E+00;  1.0000000E+03;  1.0000000E-01;  0.0000000E+00;0;  0.0000000E+00;  0.0000000E+00;  0.0000000E+00;0;  0.0000000E+00;  4.0000000E+04;  0.0000000E+00;  0.0000000E+00;  4.0000000E+04;  0.0000000E+00;  4.0000000E+04;  0.0000000E+00;  0.0000000E+00;  0.0000000E+00;  0.0000000E+00;
 -2.0000000E-01;  9.9999998E-03; -1.0000000E-01;34;  0.0000000E+00;  0.0000000E+00;  0.0000000E+00;  1.0000000E+03;  1.0000000E-01;  0.0000000E+00;0;  0.0000000E+00;  0.0000000E+00;  0.0000000E+00;0;  0.0000000E+00;  4.0000000E+04;  0.0000000E+00;  0.0000000E+00;  4.0000000E+04;  0.0000000E+00;  4.0000000E+04;  0.0000000E+00;  0.0000000E+00;  0.0000000E+00;  0.0000000E+00;
 -2.0000000E-01;  9.9999998E-03; -9.0000004E-02;35;  0.0000000E+00;  0.0000000E+00;  0.0000000E+00;  1.0000000E+03;  1.0000000E-01;  0.0000000E+00;0;  0.0000000E+00;  0.0000000E+00;  0.0000000E+00;0;  0.0000000E+00;  4.0000000E+04;  0.0000000E+00;  0.0000000E+00;  4.0000000E+04;  0.0000000E+00;  4.0000000E+04;  0.0000000E+00;  0.0000000E+00;  0.0000000E+00;  0.0000000E+00;
 -2.0000000E-01;  9.9999998E-03; -7.9999998E-02;36;  0.0000000E+00;  0.0000000E+00;  0.0000000E+00;  1.0000000E+03;  1.0000000E-01;  0.0000000E+00;0;  0.0000000E+00;  0.0000000E+00;  0.0000000E+00;0;  0.0000000E+00;  4.0000000E+04;  0.0000000E+00;  0.0000000E+00;  4.0000000E+04;  0.0000000E+00;  4.0000000E+04;  0.0000000E+00;  0.0000000E+00;  0.0000000E+00;  0.0000000E+00;
 -2.0000000E-01;  9.9999998E-03; -7.0000000E-02;37;  0.0000000E+00;  0.0000000E+00;  0.0000000E+00;  1.0000000E+03;  1.0000000E-01;  0.0000000E+00;0;  0.0000000E+00;  0.0000000E+00;  0.0000000E+00;0;  0.0000000E+00;  4.0000000E+04;  0.0000000E+00;  0.0000000E+00;  4.0000000E+04;  0.0000000E+00;  4.0000000E+04;  0.0000000E+00;  0.0000000E+00;  0.0000000E+00;  0.0000000E+00;
 -2.0000000E-01;  9.9999998E-03; -5.9999999E-02;38;  0.0000000E+00;  0.0000000E+00;  0.0000000E+00;  1.0000000E+03;  1.0000000E-01;  0.0000000E+00;0;  0.0000000E+00;  0.0000000E+00;  0.0000000E+00;0;  0.0000000E+00;  4.0000000E+04;  0.0000000E+00;  0.0000000E+00;  4.0000000E+04;  0.0000000E+00;  4.0000000E+04;  0.0000000E+00;  0.0000000E+00;  0.0000000E+00;  0.0000000E+00;
 -2.0000000E-01;  9.9999998E-03; -5.0000001E-02;39;  0.0000000E+00;  0.0000000E+00;  0.0000000E+00;  1.0000000E+03;  1.0000000E-01;  0.0000000E+00;0;  0.0000000E+00;  0.0000000E+00;  0.0000000E+00;0;  0.0000000E+00;  4.0000000E+04;  0.0000000E+00;  0.0000000E+00;  4.0000000E+04;  0.0000000E+00;  4.0000000E+04;  0.0000000E+00;  0.0000000E+00;  0.0000000E+00;  0.0000000E+00;
 -2.0000000E-01;  9.9999998E-03; -3.9999999E-02;40;  0.0000000E+00;  0.0000000E+00;  0.0000000E+00;  1.0000000E+03;  1.0000000E-01;  0.0000000E+00;0;  0.0000000E+00;  0.0000000E+00;  0.0000000E+00;0;  0.0000000E+00;  4.0000000E+04;  0.0000000E+00;  0.0000000E+00;  4.0000000E+04;  0.0000000E+00;  4.0000000E+04;  0.0000000E+00;  0.0000000E+00;  0.0000000E+00;  0.0000000E+00;
 -2.0000000E-01;  9.9999998E-03; -2.9999999E-02;41;  0.0000000E+00;  0.0000000E+00;  0.0000000E+00;  1.0000000E+03;  1.0000000E-01;  0.0000000E+00;0;  0.0000000E+00;  0.0000000E+00;  0.0000000E+00;0;  0.0000000E+00;  4.0000000E+04;  0.0000000E+00;  0.0000000E+00;  4.0000000E+04;  0.0000000E+00;  4.0000000E+04;  0.0000000E+00;  0.0000000E+00;  0.0000000E+00;  0.0000000E+00;
 -2.0000000E-01;  9.9999998E-03; -2.0000000E-02;42;  0.0000000E+00;  0.0000000E+00;  0.0000000E+00;  1.0000000E+03;  1.0000000E-01;  0.0000000E+00;0;  0.0000000E+00;  0.0000000E+00;  0.0000000E+00;0;  0.0000000E+00;  4.0000000E+04;  0.0000000E+00;  0.0000000E+00;  4.0000000E+04;  0.0000000E+00;  4.0000000E+04;  0.0000000E+00;  0.0000000E+00;  0.0000000E+00;  0.0000000E+00;
 -2.0000000E-01;  9.9999998E-03; -9.9999998E-03;43;  0.0000000E+00;  0.0000000E+00;  0.0000000E+00;  1.0000000E+03;  1.0000000E-01;  0.0000000E+00;0;  0.0000000E+00;  0.0000000E+00;  0.0000000E+00;0;  0.0000000E+00;  4.0000000E+04;  0.0000000E+00;  0.0000000E+00;  4.0000000E+04;  0.0000000E+00;  4.0000000E+04;  0.0000000E+00;  0.0000000E+00;  0.0000000E+00;  0.0000000E+00;
 -2.0000000E-01;  9.9999998E-03;  0.0000000E+00;44;  0.0000000E+00;  0.0000000E+00;  0.0000000E+00;  1.0000000E+03;  1.0000000E-01;  0.0000000E+00;0;  0.0000000E+00;  0.0000000E+00;  0.0000000E+00;0;  0.0000000E+00;  4.0000000E+04;  0.0000000E+00;  0.0000000E+00;  4.0000000E+04;  0.0000000E+00;  4.0000000E+04;  0.0000000E+00;  0.0000000E+00;  0.0000000E+00;  0.0000000E+00;
 -2.0000000E-01;  9.9999998E-03;  9.9999998E-03;45;  0.0000000E+00;  0.0000000E+00;  0.0000000E+00;  1.0000000E+03;  1.0000000E-01;  0.0000000E+00;0;  0.0000000E+00;  0.0000000E+00;  0.0000000E+00;0;  0.0000000E+00;  4.0000000E+04;  0.0000000E+00;  0.0000000E+00;  4.0000000E+04;  0.0000000E+00;  4.0000000E+04;  0.0000000E+00;  0.0000000E+00;  0.0000000E+00;  0.0000000E+00;
 -2.0000000E-01;  9.9999998E-03;  2.0000000E-02;46;  0.0000000E+00;  0.0000000E+00;  0.0000000E+00;  1.0000000E+03;  1.0000000E-01;  0.0000000E+00;0;  0.0000000E+00;  0.0000000E+00;  0.0000000E+00;0;  0.0000000E+00;  4.0000000E+04;  0.0000000E+00;  0.0000000E+00;  4.0000000E+04;  0.0000000E+00;  4.0000000E+04;  0.0000000E+00;  0.0000000E+00;  0.0000000E+00;  0.0000000E+00;
 -2.0000000E-01;  9.9999998E-03;  2.9999999E-02;47;  0.0000000E+00;  0.0000000E+00;  0.0000000E+00;  1.0000000E+03;  1.0000000E-01;  0.0000000E+00;0;  0.0000000E+00;  0.0000000E+00;  0.0000000E+00;0;  0.0000000E+00;  4.0000000E+04;  0.0000000E+00;  0.0000000E+00;  4.0000000E+04;  0.0000000E+00;  4.0000000E+04;  0.0000000E+00;  0.0000000E+00;  0.0000000E+00;  0.0000000E+00;
 -2.0000000E-01;  9.9999998E-03;  3.9999999E-02;48;  0.0000000E+00;  0.0000000E+00;  0.0000000E+00;  1.0000000E+03;  1.0000000E-01;  0.0000000E+00;0;  0.0000000E+00;  0.0000000E+00;  0.0000000E+00;0;  0.0000000E+00;  4.0000000E+04;  0.0000000E+00;  0.0000000E+00;  4.0000000E+04;  0.0000000E+00;  4.0000000E+04;  0.0000000E+00;  0.0000000E+00;  0.0000000E+00;  0.0000000E+00;
 -2.0000000E-01;  9.9999998E-03;  5.0000001E-02;49;  0.0000000E+00;  0.0000000E+00;  0.0000000E+00;  1.0000000E+03;  1.0000000E-01;  0.0000000E+00;0;  0.0000000E+00;  0.0000000E+00;  0.0000000E+00;0;  0.0000000E+00;  4.0000000E+04;  0.0000000E+00;  0.0000000E+00;  4.0000000E+04;  0.0000000E+00;  4.0000000E+04;  0.0000000E+00;  0.0000000E+00;  0.0000000E+00;  0.0000000E+00;
 -2.0000000E-01;  9.9999998E-03;  5.9999999E-02;50;  0.0000000E+00;  0.0000000E+00;  0.0000000E+00;  1.0000000E+03;  1.0000000E-01;  0.0000000E+00;0;  0.0000000E+00;  0.0000000E+00;  0.0000000E+00;0;  0.0000000E+00;  4.0000000E+04;  0.0000000E+00;  0.0000000E+00;  4.0000000E+04;  0.0000000E+00;  4.0000000E+04;  0.0000000E+00;  0.0000000E+00;  0.0000000E+00;  0.0000000E+00;
 -2.0000000E-01;  9.9999998E-03;  7.0000000E-02;51;  0.0000000E+00;  0.0000000E+00;  0.0000000E+00;  1.0000000E+03;  1.0000000E-01;  0.0000000E+00;0;  0.0000000E+00;  0.0000000E+00;  0.0000000E+00;0;  0.0000000E+00;  4.0000000E+04;  0.0000000E+00;  0.0000000E+00;  4.0000000E+04;  0.0000000E+00;  4.0000000E+04;  0.0000000E+00;  0.0000000E+00;  0.0000000E+00;  0.0000000E+00;
 -2.0000000E-01;  9.9999998E-03;  7.9999998E-02;52;  0.0000000E+00;  0.0000000E+00;  0.0000000E+00;  1.0000000E+03;  1.0000000E-01;  0.0000000E+00;0;  0.0000000E+00;  0.0000000E+00;  0.0000000E+00;0;  0.0000000E+00;  4.0000000E+04;  0.0000000E+00;  0.0000000E+00;  4.0000000E+04;  0.0000000E+00;  4.0000000E+04;  0.0000000E+00;  0.0000000E+00;  0.0000000E+00;  0.0000000E+00;
 -2.0000000E-01;  9.9999998E-03;  9.0000004E-02;53;  0.0000000E+00;  0.0000000E+00;  0.0000000E+00;  1.0000000E+03;  1.0000000E-01;  0.0000000E+00;0;  0.0000000E+00;  0.0000000E+00;  0.0000000E+00;0;  0.0000000E+00;  4.0000000E+04;  0.0000000E+00;  0.0000000E+00;  4.0000000E+04;  0.0000000E+00;  4.0000000E+04;  0.0000000E+00;  0.0000000E+00;  0.0000000E+00;  0.0000000E+00;
 -2.0000000E-01;  9.9999998E-03;  1.0000000E-01;54;  0.0000000E+00;  0.0000000E+00;  0.0000000E+00;  1.0000000E+03;  1.0000000E-01;  0.0000000E+00;0;  0.0000000E+00;  0.0000000E+00;  0.0000000E+00;0;  0.0000000E+00;  4.0000000E+04;  0.0000000E+00;  0.0000000E+00;  4.0000000E+04;  0.0000000E+00;  4.0000000E+04;  0.0000000E+00;  0.0000000E+00;  0.0000000E+00;  0.0000000E+00;
 -2.0000000E-01;  9.9999998E-03;  1.1000000E-01;55;  0.0000000E+00;  0.0000000E+00;  0.0000000E+00;  1.0000000E+03;  1.0000000E-01;  0.0000000E+00;0;  0.0000000E+00;  0.0000000E+00;  0.0000000E+00;0;  0.0000000E+00;  4.0000000E+04;  0.0000000E+00;  0.0000000E+00;  4.0000000E+04;  0.0000000E+00;  4.0000000E+04;  0.0000000E+00;  0.0000000E+00;  0.0000000E+00;  0.0000000E+00;
 -2.0000000E-01;  9.9999998E-03;  1.2000000E-01;56;  0.0000000E+00;  0.0000000E+00;  0.0000000E+00;  1.0000000E+03;  1.0000000E-01;  0.0000000E+00;0;  0.0000000E+00;  0.0000000E+00;  0.0000000E+00;0;  0.0000000E+00;  4.0000000E+04;  0.0000000E+00;  0.0000000E+00;  4.0000000E+04;  0.0000000E+00;  4.0000000E+04;  0.0000000E+00;  0.0000000E+00;  0.0000000E+00;  0.0000000E+00;
 -2.0000000E-01;  9.9999998E-03;  1.3000000E-01;57;  0.0000000E+00;  0.0000000E+00;  0.0000000E+00;  1.0000000E+03;  1.0000000E-01;  0.0000000E+00;0;  0.0000000E+00;  0.0000000E+00;  0.0000000E+00;0;  0.0000000E+00;  4.0000000E+04;  0.0000000E+00;  0.0000000E+00;  4.0000000E+04;  0.0000000E+00;  4.0000000E+04;  0.0000000E+00;  0.0000000E+00;  0.0000000E+00;  0.0000000E+00;
 -2.0000000E-01;  9.9999998E-03;  1.4000000E-01;58;  0.0000000E+00;  0.0000000E+00;  0.0000000E+00;  1.0000000E+03;  1.0000000E-01;  0.0000000E+00;0;  0.0000000E+00;  0.0000000E+00;  0.0000000E+00;0;  0.0000000E+00;  4.0000000E+04;  0.0000000E+00;  0.0000000E+00;  4.0000000E+04;  0.0000000E+00;  4.0000000E+04;  0.0000000E+00;  0.0000000E+00;  0.0000000E+00;  0.0000000E+00;
 -2.0000000E-01;  9.9999998E-03;  1.5000001E-01;59;  0.0000000E+00;  0.0000000E+00;  0.0000000E+00;  1.0000000E+03;  1.0000000E-01;  0.0000000E+00;0;  0.0000000E+00;  0.0000000E+00;  0.0000000E+00;0;  0.0000000E+00;  4.0000000E+04;  0.0000000E+00;  0.0000000E+00;  4.0000000E+04;  0.0000000E+00;  4.0000000E+04;  0.0000000E+00;  0.0000000E+00;  0.0000000E+00;  0.0000000E+00;
 -2.0000000E-01;  9.9999998E-03;  1.6000000E-01;60;  0.0000000E+00;  0.0000000E+00;  0.0000000E+00;  1.0000000E+03;  1.0000000E-01;  0.0000000E+00;0;  0.0000000E+00;  0.0000000E+00;  0.0000000E+00;0;  0.0000000E+00;  4.0000000E+04;  0.0000000E+00;  0.0000000E+00;  4.0000000E+04;  0.0000000E+00;  4.0000000E+04;  0.0000000E+00;  0.0000000E+00;  0.0000000E+00;  0.0000000E+00;
 -2.0000000E-01;  9.9999998E-03;  1.7000000E-01;61;  0.0000000E+00;  0.0000000E+00;  0.0000000E+00;  1.0000000E+03;  1.0000000E-01;  0.0000000E+00;0;  0.0000000E+00;  0.0000000E+00;  0.0000000E+00;0;  0.0000000E+00;  4.0000000E+04;  0.0000000E+00;  0.0000000E+00;  4.0000000E+04;  0.0000000E+00;  4.0000000E+04;  0.0000000E+00;  0.0000000E+00;  0.0000000E+00;  0.0000000E+00;
 -2.0000000E-01;  9.9999998E-03;  1.8000001E-01;62;  0.0000000E+00;  0.0000000E+00;  0.0000000E+00;  1.0000000E+03;  1.0000000E-01;  0.0000000E+00;0;  0.0000000E+00;  0.0000000E+00;  0.0000000E+00;0;  0.0000000E+00;  4.0000000E+04;  0.0000000E+00;  0.0000000E+00;  4.0000000E+04;  0.0000000E+00;  4.0000000E+04;  0.0000000E+00;  0.0000000E+00;  0.0000000E+00;  0.0000000E+00;
 -2.0000000E-01;  9.9999998E-03;  1.9000000E-01;63;  0.0000000E+00;  0.0000000E+00;  0.0000000E+00;  1.0000000E+03;  1.0000000E-01;  0.0000000E+00;0;  0.0000000E+00;  0.0000000E+00;  0.0000000E+00;0;  0.0000000E+00;  4.0000000E+04;  0.0000000E+00;  0.0000000E+00;  4.0000000E+04;  0.0000000E+00;  4.0000000E+04;  0.0000000E+00;  0.0000000E+00;  0.0000000E+00;  0.0000000E+00;
 -2.0000000E-01;  9.9999998E-03;  2.0000000E-01;64;  0.0000000E+00;  0.0000000E+00;  0.0000000E+00;  1.0000000E+03;  1.0000000E-01;  0.0000000E+00;0;  0.0000000E+00;  0.0000000E+00;  0.0000000E+00;0;  0.0000000E+00;  4.0000000E+04;  0.0000000E+00;  0.0000000E+00;  4.0000000E+04;  0.0000000E+00;  4.0000000E+04;  0.0000000E+00;  0.0000000E+00;  0.0000000E+00;  0.0000000E+00;
 -2.0000000E-01;  9.9999998E-03;  2.0999999E-01;65;  0.0000000E+00;  0.0000000E+00;  0.0000000E+00;  1.0000000E+03;  1.0000000E-01;  0.0000000E+00;0;  0.0000000E+00;  0.0000000E+00;  0.0000000E+00;0;  0.0000000E+00;  4.0000000E+04;  0.0000000E+00;  0.0000000E+00;  4.0000000E+04;  0.0000000E+00;  4.0000000E+04;  0.0000000E+00;  0.0000000E+00;  0.0000000E+00;  0.0000000E+00;
 -2.0000000E-01;  9.9999998E-03;  2.2000000E-01;66;  0.0000000E+00;  0.0000000E+00;  0.0000000E+00;  1.0000000E+03;  1.0000000E-01;  0.0000000E+00;0;  0.0000000E+00;  0.0000000E+00;  0.0000000E+00;0;  0.0000000E+00;  4.0000000E+04;  0.0000000E+00;  0.0000000E+00;  4.0000000E+04;  0.0000000E+00;  4.0000000E+04;  0.0000000E+00;  0.0000000E+00;  0.0000000E+00;  0.0000000E+00;
 -2.0000000E-01;  9.9999998E-03;  2.3000000E-01;67;  0.0000000E+00;  0.0000000E+00;  0.0000000E+00;  1.0000000E+03;  1.0000000E-01;  0.0000000E+00;0;  0.0000000E+00;  0.0000000E+00;  0.0000000E+00;0;  0.0000000E+00;  4.0000000E+04;  0.0000000E+00;  0.0000000E+00;  4.0000000E+04;  0.0000000E+00;  4.0000000E+04;  0.0000000E+00;  0.0000000E+00;  0.0000000E+00;  0.0000000E+00;
 -2.0000000E-01;  9.9999998E-03;  2.3999999E-01;68;  0.0000000E+00;  0.0000000E+00;  0.0000000E+00;  1.0000000E+03;  1.0000000E-01;  0.0000000E+00;0;  0.0000000E+00;  0.0000000E+00;  0.0000000E+00;0;  0.0000000E+00;  4.0000000E+04;  0.0000000E+00;  0.0000000E+00;  4.0000000E+04;  0.0000000E+00;  4.0000000E+04;  0.0000000E+00;  0.0000000E+00;  0.0000000E+00;  0.0000000E+00;
 -2.0000000E-01;  9.9999998E-03;  2.5000000E-01;69;  0.0000000E+00;  0.0000000E+00;  0.0000000E+00;  1.0000000E+03;  1.0000000E-01;  0.0000000E+00;0;  0.0000000E+00;  0.0000000E+00;  0.0000000E+00;0;  0.0000000E+00;  4.0000000E+04;  0.0000000E+00;  0.0000000E+00;  4.0000000E+04;  0.0000000E+00;  4.0000000E+04;  0.0000000E+00;  0.0000000E+00;  0.0000000E+00;  0.0000000E+00;
 -2.0000000E-01;  9.9999998E-03;  2.5999999E-01;70;  0.0000000E+00;  0.0000000E+00;  0.0000000E+00;  1.0000000E+03;  1.0000000E-01;  0.0000000E+00;0;  0.0000000E+00;  0.0000000E+00;  0.0000000E+00;0;  0.0000000E+00;  4.0000000E+04;  0.0000000E+00;  0.0000000E+00;  4.0000000E+04;  0.0000000E+00;  4.0000000E+04;  0.0000000E+00;  0.0000000E+00;  0.0000000E+00;  0.0000000E+00;
 -2.0000000E-01;  9.9999998E-03;  2.7000001E-01;71;  0.0000000E+00;  0.0000000E+00;  0.0000000E+00;  1.0000000E+03;  1.0000000E-01;  0.0000000E+00;0;  0.0000000E+00;  0.0000000E+00;  0.0000000E+00;0;  0.0000000E+00;  4.0000000E+04;  0.0000000E+00;  0.0000000E+00;  4.0000000E+04;  0.0000000E+00;  4.0000000E+04;  0.0000000E+00;  0.0000000E+00;  0.0000000E+00;  0.0000000E+00;
 -2.0000000E-01;  9.9999998E-03;  2.8000000E-01;72;  0.0000000E+00;  0.0000000E+00;  0.0000000E+00;  1.0000000E+03;  1.0000000E-01;  0.0000000E+00;0;  0.0000000E+00;  0.0000000E+00;  0.0000000E+00;0;  0.0000000E+00;  4.0000000E+04;  0.0000000E+00;  0.0000000E+00;  4.0000000E+04;  0.0000000E+00;  4.0000000E+04;  0.0000000E+00;  0.0000000E+00;  0.0000000E+00;  0.0000000E+00;
 -2.0000000E-01;  9.9999998E-03;  2.8999999E-01;73;  0.0000000E+00;  0.0000000E+00;  0.0000000E+00;  1.0000000E+03;  1.0000000E-01;  0.0000000E+00;0;  0.0000000E+00;  0.0000000E+00;  0.0000000E+00;0;  0.0000000E+00;  4.0000000E+04;  0.0000000E+00;  0.0000000E+00;  4.0000000E+04;  0.0000000E+00;  4.0000000E+04;  0.0000000E+00;  0.0000000E+00;  0.0000000E+00;  0.0000000E+00;
 -2.0000000E-01;  9.9999998E-03;  3.0000001E-01;74;  0.0000000E+00;  0.0000000E+00;  0.0000000E+00;  1.0000000E+03;  1.0000000E-01;  0.0000000E+00;0;  0.0000000E+00;  0.0000000E+00;  0.0000000E+00;0;  0.0000000E+00;  4.0000000E+04;  0.0000000E+00;  0.0000000E+00;  4.0000000E+04;  0.0000000E+00;  4.0000000E+04;  0.0000000E+00;  0.0000000E+00;  0.0000000E+00;  0.0000000E+00;
 -2.0000000E-01;  9.9999998E-03;  3.1000000E-01;75;  0.0000000E+00;  0.0000000E+00;  0.0000000E+00;  1.0000000E+03;  1.0000000E-01;  0.0000000E+00;0;  0.0000000E+00;  0.0000000E+00;  0.0000000E+00;0;  0.0000000E+00;  4.0000000E+04;  0.0000000E+00;  0.0000000E+00;  4.0000000E+04;  0.0000000E+00;  4.0000000E+04;  0.0000000E+00;  0.0000000E+00;  0.0000000E+00;  0.0000000E+00;
 -2.0000000E-01;  9.9999998E-03;  3.1999999E-01;76;  0.0000000E+00;  0.0000000E+00;  0.0000000E+00;  1.0000000E+03;  1.0000000E-01;  0.0000000E+00;0;  0.0000000E+00;  0.0000000E+00;  0.0000000E+00;0;  0.0000000E+00;  4.0000000E+04;  0.0000000E+00;  0.0000000E+00;  4.0000000E+04;  0.0000000E+00;  4.0000000E+04;  0.0000000E+00;  0.0000000E+00;  0.0000000E+00;  0.0000000E+00;
 -2.0000000E-01;  9.9999998E-03;  3.3000001E-01;77;  0.0000000E+00;  0.0000000E+00;  0.0000000E+00;  1.0000000E+03;  1.0000000E-01;  0.0000000E+00;0;  0.0000000E+00;  0.0000000E+00;  0.0000000E+00;0;  0.0000000E+00;  4.0000000E+04;  0.0000000E+00;  0.0000000E+00;  4.0000000E+04;  0.0000000E+00;  4.0000000E+04;  0.0000000E+00;  0.0000000E+00;  0.0000000E+00;  0.0000000E+00;
 -2.0000000E-01;  9.9999998E-03;  3.4000000E-01;78;  0.0000000E+00;  0.0000000E+00;  0.0000000E+00;  1.0000000E+03;  1.0000000E-01;  0.0000000E+00;0;  0.0000000E+00;  0.0000000E+00;  0.0000000E+00;0;  0.0000000E+00;  4.0000000E+04;  0.0000000E+00;  0.0000000E+00;  4.0000000E+04;  0.0000000E+00;  4.0000000E+04;  0.0000000E+00;  0.0000000E+00;  0.0000000E+00;  0.0000000E+00;
 -2.0000000E-01;  9.9999998E-03;  3.4999999E-01;79;  0.0000000E+00;  0.0000000E+00;  0.0000000E+00;  1.0000000E+03;  1.0000000E-01;  0.0000000E+00;0;  0.0000000E+00;  0.0000000E+00;  0.0000000E+00;0;  0.0000000E+00;  4.0000000E+04;  0.0000000E+00;  0.0000000E+00;  4.0000000E+04;  0.0000000E+00;  4.0000000E+04;  0.0000000E+00;  0.0000000E+00;  0.0000000E+00;  0.0000000E+00;
 -2.0000000E-01;  9.9999998E-03;  3.6000001E-01;80;  0.0000000E+00;  0.0000000E+00;  0.0000000E+00;  1.0000000E+03;  1.0000000E-01;  0.0000000E+00;0;  0.0000000E+00;  0.0000000E+00;  0.0000000E+00;0;  0.0000000E+00;  4.0000000E+04;  0.0000000E+00;  0.0000000E+00;  4.0000000E+04;  0.0000000E+00;  4.0000000E+04;  0.0000000E+00;  0.0000000E+00;  0.0000000E+00;  0.0000000E+00;
 -2.0000000E-01;  9.9999998E-03;  3.7000000E-01;81;  0.0000000E+00;  0.0000000E+00;  0.0000000E+00;  1.0000000E+03;  1.0000000E-01;  0.0000000E+00;0;  0.0000000E+00;  0.0000000E+00;  0.0000000E+00;0;  0.0000000E+00;  4.0000000E+04;  0.0000000E+00;  0.0000000E+00;  4.0000000E+04;  0.0000000E+00;  4.0000000E+04;  0.0000000E+00;  0.0000000E+00;  0.0000000E+00;  0.0000000E+00;
 -2.0000000E-01;  9.9999998E-03;  3.8000000E-01;82;  0.0000000E+00;  0.0000000E+00;  0.0000000E+00;  1.0000000E+03;  1.0000000E-01;  0.0000000E+00;0;  0.0000000E+00;  0.0000000E+00;  0.0000000E+00;0;  0.0000000E+00;  4.0000000E+04;  0.0000000E+00;  0.0000000E+00;  4.0000000E+04;  0.0000000E+00;  4.0000000E+04;  0.0000000E+00;  0.0000000E+00;  0.0000000E+00;  0.0000000E+00;
 -2.0000000E-01;  9.9999998E-03;  3.8999999E-01;83;  0.0000000E+00;  0.0000000E+00;  0.0000000E+00;  1.0000000E+03;  1.0000000E-01;  0.0000000E+00;0;  0.0000000E+00;  0.0000000E+00;  0.0000000E+00;0;  0.0000000E+00;  4.0000000E+04;  0.0000000E+00;  0.0000000E+00;  4.0000000E+04;  0.0000000E+00;  4.0000000E+04;  0.0000000E+00;  0.0000000E+00;  0.0000000E+00;  0.0000000E+00;
 -2.0000000E-01;  9.9999998E-03;  4.0000001E-01;84;  0.0000000E+00;  0.0000000E+00;  0.0000000E+00;  1.0000000E+03;  1.0000000E-01;  0.0000000E+00;0;  0.0000000E+00;  0.0000000E+00;  0.0000000E+00;0;  0.0000000E+00;  4.0000000E+04;  0.0000000E+00;  0.0000000E+00;  4.0000000E+04;  0.0000000E+00;  4.0000000E+04;  0.0000000E+00;  0.0000000E+00;  0.0000000E+00;  0.0000000E+00;
 -2.0000000E-01;  9.9999998E-03;  4.1000000E-01;85;  0.0000000E+00;  0.0000000E+00;  0.0000000E+00;  1.0000000E+03;  1.0000000E-01;  0.0000000E+00;0;  0.0000000E+00;  0.0000000E+00;  0.0000000E+00;0;  0.0000000E+00;  4.0000000E+04;  0.0000000E+00;  0.0000000E+00;  4.0000000E+04;  0.0000000E+00;  4.0000000E+04;  0.0000000E+00;  0.0000000E+00;  0.0000000E+00;  0.0000000E+00;
 -2.0000000E-01;  9.9999998E-03;  4.1999999E-01;86;  0.0000000E+00;  0.0000000E+00;  0.0000000E+00;  1.0000000E+03;  1.0000000E-01;  0.0000000E+00;0;  0.0000000E+00;  0.0000000E+00;  0.0000000E+00;0;  0.0000000E+00;  4.0000000E+04;  0.0000000E+00;  0.0000000E+00;  4.0000000E+04;  0.0000000E+00;  4.0000000E+04;  0.0000000E+00;  0.0000000E+00;  0.0000000E+00;  0.0000000E+00;
 -2.0000000E-01;  9.9999998E-03;  4.3000001E-01;87;  0.0000000E+00;  0.0000000E+00;  0.0000000E+00;  1.0000000E+03;  1.0000000E-01;  0.0000000E+00;0;  0.0000000E+00;  0.0000000E+00;  0.0000000E+00;0;  0.0000000E+00;  4.0000000E+04;  0.0000000E+00;  0.0000000E+00;  4.0000000E+04;  0.0000000E+00;  4.0000000E+04;  0.0000000E+00;  0.0000000E+00;  0.0000000E+00;  0.0000000E+00;
 -2.0000000E-01;  9.9999998E-03;  4.4000000E-01;88;  0.0000000E+00;  0.0000000E+00;  0.0000000E+00;  1.0000000E+03;  1.0000000E-01;  0.0000000E+00;0;  0.0000000E+00;  0.0000000E+00;  0.0000000E+00;0;  0.0000000E+00;  4.0000000E+04;  0.0000000E+00;  0.0000000E+00;  4.0000000E+04;  0.0000000E+00;  4.0000000E+04;  0.0000000E+00;  0.0000000E+00;  0.0000000E+00;  0.0000000E+00;
  2.1846697E-04;  9.9999998E-03; -2.8985393E-01;2448; -6.3367537E-04;  0.0000000E+00; -8.0302352E-04;  9.9524762E+02;  1.0000000E-01; -3.9372712E+03;3;  1.6065825E+01;  0.0000000E+00;  2.7662582E+01;0; -2.1440921E-02;  3.9629039E+04;  0.0000000E+00; -3.2054648E-01;  4.0000000E+04;  0.0000000E+00;  3.9988430E+04; -1.8330021E-02;  0.0000000E+00; -3.1109005E-03;  1.1381355E+03;
  5.6328037E-04;  9.9999998E-03; -2.7981961E-01;2449; -5.0111255E-04;  0.0000000E+00; -8.4102736E-04;  9.9415497E+02;  1.0000000E-01; -4.8424805E+03;3;  2.5263113E+01;  0.0000000E+00;  2.7186672E+01;0; -2.4420511E-02;  3.9535664E+04;  0.0000000E+00; -3.6498040E-01;  4.0000000E+04;  0.0000000E+00;  3.9996141E+04; -2.1567794E-02;  0.0000000E+00; -2.8527181E-03;  5.1860107E+02;
  9.9357562E-03;  9.9999998E-03; -2.9979450E-01;2507; -1.0225712E-03;  0.0000000E+00; -6.5124320E-04;  9.9657812E+02;  1.0000000E-01; -2.8349814E+03;3;  3.4676392E+00;  0.0000000E+00;  2.7266508E+01;0; -2.0689981E-02;  3.9741523E+04;  0.0000000E+00; -3.5434362E-01;  4.0000000E+04;  0.0000000E+00;  3.9982109E+04; -1.7044531E-02;  0.0000000E+00; -3.6454494E-03;  2.0139479E+03;
  1.0205305E-02;  9.9999998E-03; -2.8977376E-01;2508; -9.4470585E-04;  0.0000000E+00; -6.6904858E-04;  9.9574518E+02;  1.0000000E-01; -3.5250361E+03;3;  8.4365311E+00;  0.0000000E+00;  2.6499332E+01;0; -2.4042502E-02;  3.9668141E+04;  0.0000000E+00; -3.9237788E-01;  4.0000000E+04;  0.0000000E+00;  3.9989582E+04; -2.0523988E-02;  0.0000000E+00; -3.5185146E-03;  1.1046112E+03;
  1.0544074E-02;  9.9999998E-03; -2.7977806E-01;2509; -8.8745984E-04;  0.0000000E+00; -7.0214673E-04;  9.9483972E+02;  1.0000000E-01; -4.2751875E+03;3;  1.5611228E+01;  0.0000000E+00;  2.4916075E+01;0; -2.7342677E-02;  3.9587754E+04;  0.0000000E+00; -4.3128979E-01;  4.0000000E+04;  0.0000000E+00;  3.9998367E+04; -2.4130214E-02;  0.0000000E+00; -3.2124631E-03;  6.5004822E+02;
  1.9875312E-02;  9.9999998E-03; -2.9979986E-01;2568; -1.3385657E-03;  0.0000000E+00; -5.4737652E-04;  9.9707019E+02;  1.0000000E-01; -2.4272893E+03;3; -1.9053487E+00;  0.0000000E+00;  2.4532446E+01;0; -2.2479337E-02;  3.9779090E+04;  0.0000000E+00; -4.4040859E-01;  4.0000000E+04;  0.0000000E+00;  3.9983473E+04; -1.8451152E-02;  0.0000000E+00; -4.0281834E-03;  1.9161957E+03;
  2.0136304E-02;  9.9999998E-03; -2.8981027E-01;2569; -1.3319101E-03;  0.0000000E+00; -5.6909077E-04;  9.9642731E+02;  1.0000000E-01; -2.9599163E+03;3;  1.2308477E+00;  0.0000000E+00;  2.2417723E+01;0; -2.6092408E-02;  3.9719559E+04;  0.0000000E+00; -4.7306845E-01;  4.0000000E+04;  0.0000000E+00;  3.9991367E+04; -2.2217944E-02;  0.0000000E+00; -3.8744640E-03;  9.9712982E+02;
  2.0481290E-02;  9.9999998E-03; -2.7982759E-01;2570; -1.3452269E-03;  0.0000000E+00; -6.0548866E-04;  9.9573975E+02;  1.0000000E-01; -3.5295298E+03;3;  5.9218297E+00;  0.0000000E+00;  1.9753597E+01;0; -2.9650189E-02;  3.9656512E+04;  0.0000000E+00; -5.0382453E-01;  4.0000000E+04;  0.0000000E+00;  4.0001223E+04; -2.6123375E-02;  0.0000000E+00; -3.5268134E-03;  8.5920673E+02;
  2.9795602E-02;  9.9999998E-03; -2.9987305E-01;2629; -1.6951472E-03;  0.0000000E+00; -4.5781108E-04;  9.9760815E+02;  1.0000000E-01; -1.9816229E+03;3; -5.7506361E+00;  0.0000000E+00;  1.9718773E+01;0; -2.3751076E-02;  3.9819820E+04;  0.0000000E+00; -5.2966797E-01;  4.0000000E+04;  0.0000000E+00;  3.9985727E+04; -1.9407498E-02;  0.0000000E+00; -4.3435777E-03;  1.7679539E+03;
  3.0057184E-02;  9.9999998E-03; -2.8988510E-01;2630; -1.7581235E-03;  0.0000000E+00; -4.8346727E-04;  9.9716455E+02;  1.0000000E-01; -2.3491187E+03;3; -4.2365408E+00;  0.0000000E+00;  1.6201353E+01;0; -2.7551886E-02;  3.9775801E+04;  0.0000000E+00; -5.5380368E-01;  4.0000000E+04;  0.0000000E+00;  3.9993758E+04; -2.3386395E-02;  0.0000000E+00; -4.1654920E-03;  9.3083362E+02;
  3.0414741E-02;  9.9999998E-03; -2.7989689E-01;2631; -1.8382908E-03;  0.0000000E+00; -5.3079432E-04;  9.9671759E+02;  1.0000000E-01; -2.7194292E+03;3; -1.8889276E+00;  0.0000000E+00;  1.2482939E+01;0; -3.1286862E-02;  3.9731086E+04;  0.0000000E+00; -5.6848150E-01;  4.0000000E+04;  0.0000000E+00;  4.0003301E+04; -2.7507415E-02;  0.0000000E+00; -3.7794462E-03;  1.0708188E+03;
  3.9732862E-02;  9.9999998E-03; -2.9995146E-01;2690; -2.0549376E-03;  0.0000000E+00; -3.8857170E-04;  9.9810547E+02;  1.0000000E-01; -1.5695852E+03;3; -7.7716718E+00;  0.0000000E+00;  1.3942204E+01;0; -2.4537507E-02;  3.9856980E+04;  0.0000000E+00; -6.1645305E-01;  4.0000000E+04;  0.0000000E+00;  3.9987445E+04; -1.9951954E-02;  0.0000000E+00; -4.5855539E-03;  1.6511318E+03;
  4.0002495E-02;  9.9999998E-03; -2.8994831E-01;2691; -2.1810075E-03;  0.0000000E+00; -4.1958722E-04;  9.9785486E+02;  1.0000000E-01; -1.7772336E+03;3; -7.3740659E+00;  0.0000000E+00;  8.9858856E+00;0; -2.8447852E-02;  3.9828527E+04;  0.0000000E+00; -6.2360835E-01;  4.0000000E+04;  0.0000000E+00;  3.9995828E+04; -2.4065286E-02;  0.0000000E+00; -4.3825656E-03;  9.3299152E+02;
  4.0371813E-02;  9.9999998E-03; -2.7994666E-01;2692; -2.3220107E-03;  0.0000000E+00; -4.7980814E-04;  9.9762915E+02;  1.0000000E-01; -1.9641914E+03;3; -6.7028856E+00;  0.0000000E+00;  4.3130722E+00;0; -3.2272976E-02;  3.9801719E+04;  0.0000000E+00; -6.0710734E-01;  4.0000000E+04;  0.0000000E+00;  4.0005277E+04; -2.8314225E-02;  0.0000000E+00; -3.9587501E-03;  1.2256675E+03;
  4.9704939E-02;  9.9999998E-03; -3.0000168E-01;2751; -2.3845327E-03;  0.0000000E+00; -3.5272172E-04;  9.9849371E+02;  1.0000000E-01; -1.2479153E+03;3; -8.1152496E+00;  0.0000000E+00;  8.5011177E+00;0; -2.4917560E-02;  3.9886641E+04;  0.0000000E+00; -6.9683063E-01;  4.0000000E+04;  0.0000000E+00;  3.9988613E+04; -2.0168968E-02;  0.0000000E+00; -4.7485922E-03;  1.6131780E+03;
  4.9978018E-02;  9.9999998E-03; -2.8999087E-01;2752; -2.5644074E-03;  0.0000000E+00; -3.9158561E-04;  9.9840692E+02;  1.0000000E-01; -1.3198146E+03;3; -8.2559566E+00;  0.0000000E+00;  2.1603038E+00;0; -2.8856996E-02;  3.9871055E+04;  0.0000000E+00; -6.7396593E-01;  4.0000000E+04;  0.0000000E+00;  3.9997473E+04; -2.4338840E-02;  0.0000000E+00; -4.5181569E-03;  9.7023657E+02;
  5.0352342E-02;  9.9999998E-03; -2.7997681E-01;2753; -2.7580913E-03;  0.0000000E+00; -4.6618652E-04;  9.9838080E+02;  1.0000000E-01; -1.3414929E+03;3; -8.5416012E+00;  0.0000000E+00; -3.4839559E+00;0; -3.2691199E-02;  3.9860348E+04;  0.0000000E+00; -6.0632265E-01;  4.0000000E+04;  0.0000000E+00;  4.0007281E+04; -2.8634995E-02;  0.0000000E+00; -4.0562032E-03;  1.2983041E+03;
  5.9706353E-02;  9.9999998E-03; -3.0003408E-01;2812; -2.6588482E-03;  0.0000000E+00; -3.5692201E-04;  9.9872198E+02;  1.0000000E-01; -1.0588342E+03;3; -7.2357869E+00;  0.0000000E+00;  4.5500455E+00;0; -2.5013003E-02;  3.9904586E+04;  0.0000000E+00; -7.4179548E-01;  4.0000000E+04;  0.0000000E+00;  3.9988867E+04; -2.0186596E-02;  0.0000000E+00; -4.8264088E-03;  1.6510391E+03;
  5.9983689E-02;  9.9999998E-03; -2.9001218E-01;2813; -2.8884194E-03;  0.0000000E+00; -4.0585865E-04;  9.9877075E+02;  1.0000000E-01; -1.0183909E+03;3; -7.5041256E+00;  0.0000000E+00; -3.2147880E+00;0; -2.8921075E-02;  3.9899754E+04;  0.0000000E+00; -6.7499727E-01;  4.0000000E+04;  0.0000000E+00;  3.9997934E+04; -2.4355687E-02;  0.0000000E+00; -4.5653884E-03;  9.6660736E+02;
  6.0350239E-02;  9.9999998E-03; -2.7999568E-01;2814; -3.1353703E-03;  0.0000000E+00; -4.9006584E-04;  9.9889771E+02;  1.0000000E-01; -9.1320874E+02;3; -8.1316738E+00;  0.0000000E+00; -9.8144035E+00;0; -3.2696638E-02;  3.9901684E+04;  0.0000000E+00; -5.4094893E-01;  4.0000000E+04;  0.0000000E+00;  4.0006711E+04; -2.8630611E-02;  0.0000000E+00; -4.0660268E-03;  1.2659170E+03;
  6.9736592E-02;  9.9999998E-03; -3.0005586E-01;2873; -2.8614355E-03;  0.0000000E+00; -4.0634518E-04;  9.9877600E+02;  1.0000000E-01; -1.0140454E+03;3; -5.7729163E+00;  0.0000000E+00;  2.7602503E+00;0; -2.5001941E-02;  3.9909809E+04;  0.0000000E+00; -6.5380120E-01;  4.0000000E+04;  0.0000000E+00;  3.9987594E+04; -2.0190468E-02;  0.0000000E+00; -4.8114737E-03;  1.7037802E+03;
  7.0018724E-02;  9.9999998E-03; -2.9001746E-01;2874; -3.1491881E-03;  0.0000000E+00; -4.6081646E-04;  9.9891827E+02;  1.0000000E-01; -8.9617218E+02;3; -5.9337883E+00;  0.0000000E+00; -6.4723454E+00;0; -2.8841030E-02;  3.9912199E+04;  0.0000000E+00; -5.2848113E-01;  4.0000000E+04;  0.0000000E+00;  3.9997398E+04; -2.4322996E-02;  0.0000000E+00; -4.5180330E-03;  7.8024261E+02;
  7.0368126E-02;  9.9999998E-03; -2.8000531E-01;2875; -3.4341258E-03;  0.0000000E+00; -5.5891153E-04;  9.9916248E+02;  1.0000000E-01; -6.9385693E+02;3; -6.4581285E+00;  0.0000000E+00; -1.4209314E+01;0; -3.2512963E-02;  3.9923164E+04;  0.0000000E+00; -3.2568842E-01;  4.0000000E+04;  0.0000000E+00;  4.0007551E+04; -2.8529074E-02;  0.0000000E+00; -3.9838869E-03;  1.0888809E+03;
  7.9798400E-02;  9.9999998E-03; -3.0006751E-01;2934; -2.9757165E-03;  0.0000000E+00; -5.0908828E-04;  9.9865521E+02;  1.0000000E-01; -1.1141414E+03;3; -4.3005772E+00;  0.0000000E+00;  3.3486707E+00;0; -2.5093094E-02;  3.9903234E+04;  0.0000000E+00; -2.4716662E-01;  4.0000000E+04;  0.0000000E+00;  3.9984984E+04; -2.0399529E-02;  0.0000000E+00; -4.6935650E-03;  1.7987196E+03;
  8.0082648E-02;  9.9999998E-03; -2.9001334E-01;2935; -3.3176693E-03;  0.0000000E+00; -5.6668418E-04;  9.9885760E+02;  1.0000000E-01; -9.4644238E+02;3; -4.2275071E+00;  0.0000000E+00; -7.4840035E+00;0; -2.8849125E-02;  3.9909312E+04;  0.0000000E+00; -4.8541956E-02;  4.0000000E+04;  0.0000000E+00;  3.9996156E+04; -2.4480712E-02;  0.0000000E+00; -4.3684142E-03;  4.2654547E+02;
  8.0410965E-02;  9.9999998E-03; -2.8000641E-01;2936; -3.6492306E-03;  0.0000000E+00; -6.7326147E-04;  9.9918024E+02;  1.0000000E-01; -6.7914130E+02;3; -4.4767585E+00;  0.0000000E+00; -1.6595121E+01;0; -3.2397237E-02;  3.9925258E+04;  0.0000000E+00;  2.0636998E-01;  4.0000000E+04;  0.0000000E+00;  4.0006707E+04; -2.8590979E-02;  0.0000000E+00; -3.8062576E-03;  9.7506653E+02;
  8.9895345E-02;  9.9999998E-03; -3.0006379E-01;2995; -2.9893655E-03;  0.0000000E+00; -6.4321654E-04;  9.9838293E+02;  1.0000000E-01; -1.3397152E+03;3; -3.1636536E+00;  0.0000000E+00;  6.1738582E+00;0; -2.5491254E-02;  3.9885480E+04;  0.0000000E+00;  7.4419022E-01;  4.0000000E+04;  0.0000000E+00;  3.9980688E+04; -2.1030342E-02;  0.0000000E+00; -4.4609127E-03;  2.5101379E+03;
  9.0173572E-02;  9.9999998E-03; -2.8999645E-01;2996; -3.4029349E-03;  0.0000000E+00; -6.9650647E-04;  9.9861365E+02;  1.0000000E-01; -1.1485601E+03;3; -2.9078765E+00;  0.0000000E+00; -6.4576364E+00;0; -2.9178586E-02;  3.9892656E+04;  0.0000000E+00;  1.0255792E+00;  4.0000000E+04;  0.0000000E+00;  3.9993219E+04; -2.5069343E-02;  0.0000000E+00; -4.1092420E-03;  1.6391508E+03;
  9.0474874E-02;  9.9999998E-03; -2.7999750E-01;2997; -3.7937229E-03;  0.0000000E+00; -8.0483948E-04;  9.9898041E+02;  1.0000000E-01; -8.4471686E+02;3; -2.8504560E+00;  0.0000000E+00; -1.7182566E+01;0; -3.2603376E-02;  3.9910773E+04;  0.0000000E+00;  1.2888069E+00;  4.0000000E+04;  0.0000000E+00;  4.0006023E+04; -2.9071936E-02;  0.0000000E+00; -3.5314388E-03;  2.0383850E+03;
  1.0003378E-01;  9.9999998E-03; -3.0002949E-01;3056; -2.9108268E-03;  0.0000000E+00; -7.6591742E-04;  9.9797766E+02;  1.0000000E-01; -1.6754587E+03;3; -2.4699183E+00;  0.0000000E+00;  1.0748586E+01;0; -2.6368098E-02;  3.9858617E+04;  0.0000000E+00;  2.6378620E+00;  4.0000000E+04;  0.0000000E+00;  3.9975617E+04; -2.2265621E-02;  0.0000000E+00; -4.1024778E-03;  4.7595029E+03;
  1.0029430E-01;  9.9999998E-03; -2.8995073E-01;3057; -3.4383391E-03;  0.0000000E+00; -7.9590065E-04;  9.9822028E+02;  1.0000000E-01; -1.4744768E+03;3; -2.1339879E+00;  0.0000000E+00; -3.9750092E+00;0; -3.0037619E-02;  3.9864664E+04;  0.0000000E+00;  2.9944088E+00;  4.0000000E+04;  0.0000000E+00;  3.9991000E+04; -2.6301157E-02;  0.0000000E+00; -3.7364620E-03;  4.4246260E+03;
  1.0055988E-01;  9.9999998E-03; -2.7996209E-01;3058; -3.9106924E-03;  0.0000000E+00; -8.9800329E-04;  9.9861707E+02;  1.0000000E-01; -1.1457454E+03;3; -1.8241351E+00;  0.0000000E+00; -1.6544834E+01;0; -3.3356719E-02;  3.9882801E+04;  0.0000000E+00;  3.1823525E+00;  4.0000000E+04;  0.0000000E+00;  4.0005457E+04; -3.0195646E-02;  0.0000000E+00; -3.1610711E-03;  4.6476719E+03;
  1.1022145E-01;  9.9999998E-03; -2.9992932E-01;3117; -2.7978881E-03;  0.0000000E+00; -8.0673868E-04;  9.9744623E+02;  1.0000000E-01; -2.1157427E+03;3; -2.0532689E+00;  0.0000000E+00;  1.5895936E+01;0; -2.7872754E-02;  3.9821820E+04;  0.0000000E+00;  5.7749538E+00;  4.0000000E+04;  0.0000000E+00;  3.9971258E+04; -2.4251658E-02;  0.0000000E+00; -3.6210963E-03;  8.9683398E+03;
  1.1044501E-01;  9.9999998E-03; -2.8984743E-01;3118; -3.4913574E-03;  0.0000000E+00; -7.9111860E-04;  9.9771271E+02;  1.0000000E-01; -1.8949587E+03;3; -1.6518736E+00;  0.0000000E+00; -1.2510673E+00;0; -3.1614728E-02;  3.9826387E+04;  0.0000000E+00;  6.1619315E+00;  4.0000000E+04;  0.0000000E+00;  3.9989199E+04; -2.8352255E-02;  0.0000000E+00; -3.2624744E-03;  8.9479219E+03;
  1.1065929E-01;  9.9999998E-03; -2.7988049E-01;3119; -4.0727165E-03;  0.0000000E+00; -8.7678275E-04;  9.9813690E+02;  1.0000000E-01; -1.5435613E+03;3; -1.1644373E+00;  0.0000000E+00; -1.5555011E+01;0; -3.4848448E-02;  3.9844891E+04;  0.0000000E+00;  6.1275768E+00;  4.0000000E+04;  0.0000000E+00;  4.0006055E+04; -3.2135949E-02;  0.0000000E+00; -2.7124991E-03;  8.8811113E+03;
  1.2041396E-01;  9.9999998E-03; -2.9976872E-01;3178; -2.7555309E-03;  0.0000000E+00; -6.9647597E-04;  9.9682520E+02;  1.0000000E-01; -2.6302466E+03;3; -1.3089497E+00;  0.0000000E+00;  1.9431240E+01;0; -3.0167475E-02;  3.9774453E+04;  0.0000000E+00;  1.0533685E+01;  4.0000000E+04;  0.0000000E+00;  3.9970590E+04; -2.7103726E-02;  0.0000000E+00; -3.0637486E-03;  1.5558084E+04;
  1.2054927E-01;  9.9999998E-03; -2.8971824E-01;3179; -3.6433358E-03;  0.0000000E+00; -6.1972527E-04;  9.9716052E+02;  1.0000000E-01; -2.3524766E+03;3; -7.1992069E-01;  0.0000000E+00;  7.2401375E-02;0; -3.4078397E-02;  3.9781820E+04;  0.0000000E+00;  1.0821818E+01;  4.0000000E+04;  0.0000000E+00;  3.9990816E+04; -3.1331118E-02;  0.0000000E+00; -2.7472787E-03;  1.5646267E+04;
  1.2070247E-01;  9.9999998E-03; -2.7977458E-01;3180; -4.3436778E-03;  0.0000000E+00; -6.9244782E-04;  9.9762952E+02;  1.0000000E-01; -1.9638950E+03;3; -2.2132275E-01;  0.0000000E+00; -1.5514057E+01;0; -3.7225924E-02;  3.9801527E+04;  0.0000000E+00;  1.0310019E+01;  4.0000000E+04;  0.0000000E+00;  4.0009988E+04; -3.4985725E-02;  0.0000000E+00; -2.2401982E-03;  1.4967602E+04;
  1.3052028E-01;  9.9999998E-03; -2.9961872E-01;3239; -2.8823828E-03;  0.0000000E+00; -4.1391171E-04;  9.9622351E+02;  1.0000000E-01; -3.1287510E+03;3;  1.1687552E+00;  0.0000000E+00;  1.9165361E+01;0; -3.3483438E-02;  3.9722500E+04;  0.0000000E+00;  1.7333265E+01;  4.0000000E+04;  0.0000000E+00;  3.9976500E+04; -3.0939085E-02;  0.0000000E+00; -2.5443528E-03;  2.5170539E+04;
  1.3057527E-01;  9.9999998E-03; -2.8958544E-01;3240; -3.9593787E-03;  0.0000000E+00; -2.8602057E-04;  9.9667371E+02;  1.0000000E-01; -2.7557739E+03;3;  1.9678873E+00;  0.0000000E+00; -2.3084970E+00;0; -3.7647080E-02;  3.9736422E+04;  0.0000000E+00;  1.7265245E+01;  4.0000000E+04;  0.0000000E+00;  3.9999242E+04; -3.5350136E-02;  0.0000000E+00; -2.2969418E-03;  2.4985174E+04;
  1.3068408E-01;  9.9999998E-03; -2.7966073E-01;3241; -4.7504744E-03;  0.0000000E+00; -3.7499468E-04;  9.9718365E+02;  1.0000000E-01; -2.3332673E+03;3;  2.0292938E+00;  0.0000000E+00; -1.8149677E+01;0; -4.0622897E-02;  3.9759016E+04;  0.0000000E+00;  1.5853490E+01;  4.0000000E+04;  0.0000000E+00;  4.0018160E+04; -3.8799684E-02;  0.0000000E+00; -1.8232148E-03;  2.3112359E+04;
  1.4057669E-01;  9.9999998E-03; -2.9947960E-01;3300; -3.2025704E-03;  0.0000000E+00; -8.5019165E-05;  9.9571954E+02;  1.0000000E-01; -3.5462700E+03;3;  7.9295406E+00;  0.0000000E+00;  1.2341756E+01;0; -3.8107850E-02;  3.9668746E+04;  0.0000000E+00;  2.6661844E+01;  4.0000000E+04;  0.0000000E+00;  3.9992383E+04; -3.5958886E-02;  0.0000000E+00; -2.1489621E-03;  3.8546172E+04;
  1.4056048E-01;  9.9999998E-03; -2.8946269E-01;3301; -4.4109961E-03;  0.0000000E+00;  3.4200304E-05;  9.9633466E+02;  1.0000000E-01; -3.0366548E+03;3;  8.2603378E+00;  0.0000000E+00; -1.0622360E+01;0; -4.2434294E-02;  3.9694473E+04;  0.0000000E+00;  2.5782537E+01;  4.0000000E+04;  0.0000000E+00;  4.0015375E+04; -4.0480446E-02;  0.0000000E+00; -1.9538486E-03;  3.7445094E+04;
  1.4064932E-01;  9.9999998E-03; -2.7954924E-01;3302; -5.2893492E-03;  0.0000000E+00; -5.8063015E-05;  9.9687463E+02;  1.0000000E-01; -2.5893096E+03;3;  6.7659521E+00;  0.0000000E+00; -2.5088331E+01;0; -4.5108121E-02;  3.9720289E+04;  0.0000000E+00;  2.2821590E+01;  4.0000000E+04;  0.0000000E+00;  4.0033148E+04; -4.3604545E-02;  0.0000000E+00; -1.5035769E-03;  3.3458008E+04;
  1.5061969E-01;  9.9999998E-03; -2.9942948E-01;3361; -3.5654600E-03;  0.0000000E+00; -6.2517378E-05;  9.9528754E+02;  1.0000000E-01; -3.9041858E+03;3;  2.1349764E+01;  0.0000000E+00;  1.7528260E+00;0; -4.3638192E-02;  3.9613547E+04;  0.0000000E+00;  3.8372295E+01;  4.0000000E+04;  0.0000000E+00;  4.0014828E+04; -4.2013753E-02;  0.0000000E+00; -1.6244377E-03;  5.5513832E+04;
  1.5054272E-01;  9.9999998E-03; -2.8940573E-01;3362; -4.9653109E-03;  0.0000000E+00;  1.3858221E-04;  9.9615607E+02;  1.0000000E-01; -3.1846013E+03;3;  1.9803688E+01;  0.0000000E+00; -2.3345531E+01;0; -4.8304759E-02;  3.9657422E+04;  0.0000000E+00;  3.6305157E+01;  4.0000000E+04;  0.0000000E+00;  4.0039445E+04; -4.6715334E-02;  0.0000000E+00; -1.5894265E-03;  5.2950594E+04;
  1.5063651E-01;  9.9999998E-03; -2.7948543E-01;3363; -5.9692208E-03;  0.0000000E+00;  1.2215972E-04;  9.9670697E+02;  1.0000000E-01; -2.7282192E+03;3;  1.4917160E+01;  0.0000000E+00; -3.5388271E+01;0; -5.0629146E-02;  3.9686219E+04;  0.0000000E+00;  3.0960625E+01;  4.0000000E+04;  0.0000000E+00;  4.0053836E+04; -4.9395632E-02;  0.0000000E+00; -1.2335137E-03;  4.5658031E+04;
  1.6075294E-01;  9.9999998E-03; -2.9957032E-01;3422; -3.6675793E-03;  0.0000000E+00; -6.1908690E-04;  9.9446216E+02;  1.0000000E-01; -4.5880186E+03;3;  3.9202332E+01;  0.0000000E+00;  3.2348700E+00;0; -4.8307318E-02;  3.9537117E+04;  0.0000000E+00;  4.9171646E+01;  4.0000000E+04;  0.0000000E+00;  4.0025555E+04; -4.8117597E-02;  0.0000000E+00; -1.8972298E-04;  7.1230125E+04;
  1.6060926E-01;  9.9999998E-03; -2.8948992E-01;3423; -5.4647527E-03;  0.0000000E+00; -2.1273961E-04;  9.9583881E+02;  1.0000000E-01; -3.4474580E+03;3;  3.5422852E+01;  0.0000000E+00; -3.0215363E+01;0; -5.4319158E-02;  3.9613684E+04;  0.0000000E+00;  4.6878239E+01;  4.0000000E+04;  0.0000000E+00;  4.0057805E+04; -5.3673342E-02;  0.0000000E+00; -6.4581604E-04;  6.8585125E+04;
  1.6072640E-01;  9.9999998E-03; -2.7951366E-01;3424; -6.7068785E-03;  0.0000000E+00; -2.8552977E-06;  9.9648303E+02;  1.0000000E-01; -2.9137449E+03;3;  2.5931688E+01;  0.0000000E+00; -4.3665314E+01;0; -5.6695409E-02;  3.9648488E+04;  0.0000000E+00;  3.8891590E+01;  4.0000000E+04;  0.0000000E+00;  4.0073648E+04; -5.5988889E-02;  0.0000000E+00; -7.0652162E-04;  5.7673258E+04;
  1.7114757E-01;  9.9999998E-03; -2.9987520E-01;3483; -3.6792720E-03;  0.0000000E+00; -8.5393019E-04;  9.9219012E+02;  1.0000000E-01; -6.4703354E+03;3;  4.9758083E+01;  0.0000000E+00;  3.9819118E+01;0; -5.2884638E-02;  3.9380223E+04;  0.0000000E+00;  5.0057373E+01;  4.0000000E+04;  0.0000000E+00;  4.0000309E+04; -5.4087665E-02;  0.0000000E+00;  1.2030280E-03;  7.2824352E+04;
  1.7088260E-01;  9.9999998E-03; -2.8972262E-01;3484; -5.7764547E-03;  0.0000000E+00; -7.4356009E-04;  9.9472162E+02;  1.0000000E-01; -4.3730615E+03;3;  4.7761475E+01;  0.0000000E+00; -1.4728572E+01;0; -5.9542168E-02;  3.9531043E+04;  0.0000000E+00;  5.1700653E+01;  4.0000000E+04;  0.0000000E+00;  4.0049613E+04; -6.0606465E-02;  0.0000000E+00;  1.0642968E-03;  7.5963000E+04;
  1.7095627E-01;  9.9999998E-03; -2.7967346E-01;3485; -7.3590861E-03;  0.0000000E+00; -3.7299917E-04;  9.9585693E+02;  1.0000000E-01; -3.4324460E+03;3;  3.5175667E+01;  0.0000000E+00; -3.9124527E+01;0; -6.2432278E-02;  3.9595383E+04;  0.0000000E+00;  4.3083973E+01;  4.0000000E+04;  0.0000000E+00;  4.0076043E+04; -6.2816486E-02;  0.0000000E+00;  3.8420921E-04;  6.4249871E+04;
  1.8172352E-01;  9.9999998E-03; -3.0001163E-01;3544; -5.1504029E-03;  0.0000000E+00;  4.5159826E-04;  9.8894153E+02;  1.0000000E-01; -9.1617158E+03;3;  4.8935696E+01;  0.0000000E+00;  7.7648903E+01;0; -6.8067402E-02;  3.9138961E+04;  0.0000000E+00;  3.7865910E+01;  4.0000000E+04;  0.0000000E+00;  3.9981707E+04; -6.6071644E-02;  0.0000000E+00; -1.9957591E-03;  5.5645688E+04;
  1.8135983E-01;  9.9999998E-03; -2.8994894E-01;3545; -6.3429591E-03;  0.0000000E+00; -3.9889524E-04;  9.9260950E+02;  1.0000000E-01; -6.1228887E+03;3;  4.7875740E+01;  0.0000000E+00;  2.1070322E+01;0; -6.7199558E-02;  3.9391539E+04;  0.0000000E+00;  4.4662754E+01;  4.0000000E+04;  0.0000000E+00;  4.0019480E+04; -6.8111613E-02;  0.0000000E+00;  9.1205700E-04;  6.6498094E+04;
  1.8127544E-01;  9.9999998E-03; -2.7989888E-01;3546; -7.9285009E-03;  0.0000000E+00; -3.7139171E-04;  9.9471686E+02;  1.0000000E-01; -4.3769624E+03;3;  3.5842953E+01;  0.0000000E+00; -1.6428638E+01;0; -6.8333738E-02;  3.9528773E+04;  0.0000000E+00;  3.9857201E+01;  4.0000000E+04;  0.0000000E+00;  4.0050598E+04; -6.9232672E-02;  0.0000000E+00;  8.9893234E-04;  6.0016344E+04;
  1.9217914E-01;  9.9999998E-03; -2.9989555E-01;3605; -7.9212869E-03;  0.0000000E+00;  9.6725969E-04;  9.8687579E+02;  1.0000000E-01; -1.0873174E+04;3;  5.0952618E+01;  0.0000000E+00;  5.4291153E+01;0; -8.9209944E-02;  3.8921715E+04;  0.0000000E+00;  2.2165483E+01;  4.0000000E+04;  0.0000000E+00;  4.0033262E+04; -8.4602758E-02;  0.0000000E+00; -4.6071848E-03;  3.2469764E+04;
  1.9180255E-01;  9.9999998E-03; -2.9000136E-01;3606; -7.6433071E-03;  0.0000000E+00;  3.8215140E-04;  9.9083752E+02;  1.0000000E-01; -7.5909458E+03;3;  3.9426880E+01;  0.0000000E+00;  3.5363167E+01;0; -7.9115279E-02;  3.9253793E+04;  0.0000000E+00;  2.9609854E+01;  4.0000000E+04;  0.0000000E+00;  4.0014645E+04; -7.7371508E-02;  0.0000000E+00; -1.7437690E-03;  4.5146965E+04;
  1.9148070E-01;  9.9999998E-03; -2.8004909E-01;3607; -8.4615601E-03;  0.0000000E+00;  2.6022903E-05;  9.9387024E+02;  1.0000000E-01; -5.0783750E+03;3;  2.8031141E+01;  0.0000000E+00;  6.8912687E+00;0; -7.4617021E-02;  3.9491695E+04;  0.0000000E+00;  3.2238533E+01;  4.0000000E+04;  0.0000000E+00;  4.0019418E+04; -7.4521564E-02;  0.0000000E+00; -9.5453201E-05;  4.9308055E+04;
  2.0208094E-01;  9.9999998E-03; -2.9991913E-01;3666; -9.0460638E-03;  0.0000000E+00;  4.5080559E-04;  9.8749646E+02;  1.0000000E-01; -1.0358966E+04;3;  4.1738911E+01;  0.0000000E+00;  3.5939041E+01;0; -9.6474335E-02;  3.8943945E+04;  0.0000000E+00;  1.6294704E+01;  4.0000000E+04;  0.0000000E+00;  4.0058277E+04; -9.3594715E-02;  0.0000000E+00; -2.8796208E-03;  2.3346705E+04;
  2.0189358E-01;  9.9999998E-03; -2.9001325E-01;3667; -8.7604653E-03;  0.0000000E+00;  5.3251430E-04;  9.9071417E+02;  1.0000000E-01; -7.6931157E+03;3;  2.6742802E+01;  0.0000000E+00;  2.9198837E+01;0; -8.7339610E-02;  3.9233438E+04;  0.0000000E+00;  1.8558794E+01;  4.0000000E+04;  0.0000000E+00;  4.0024367E+04; -8.4360644E-02;  0.0000000E+00; -2.9789652E-03;  2.8432363E+04;
  2.0150028E-01;  9.9999998E-03; -2.8010660E-01;3668; -8.9099025E-03;  0.0000000E+00;  2.9864124E-04;  9.9386731E+02;  1.0000000E-01; -5.0807944E+03;3;  1.7182539E+01;  0.0000000E+00;  1.8143862E+01;0; -7.9369985E-02;  3.9509824E+04;  0.0000000E+00;  2.6254486E+01;  4.0000000E+04;  0.0000000E+00;  4.0000070E+04; -7.7994227E-02;  0.0000000E+00; -1.3757551E-03;  4.0519125E+04;
  2.1187249E-01;  9.9999998E-03; -2.9999134E-01;3727; -8.9621870E-03;  0.0000000E+00;  5.2946107E-04;  9.8894769E+02;  1.0000000E-01; -9.1566299E+03;3;  1.8961039E+01;  0.0000000E+00;  3.9511429E+01;0; -9.7762071E-02;  3.9074539E+04;  0.0000000E+00;  1.3340250E+01;  4.0000000E+04;  0.0000000E+00;  4.0040551E+04; -9.3485579E-02;  0.0000000E+00; -4.2764912E-03;  1.7137391E+04;
  2.1176608E-01;  9.9999998E-03; -2.9003885E-01;3728; -9.1554821E-03;  0.0000000E+00;  4.8081620E-04;  9.9170306E+02;  1.0000000E-01; -6.8738301E+03;3;  1.1158343E+01;  0.0000000E+00;  2.6671238E+01;0; -8.9801848E-02;  3.9316258E+04;  0.0000000E+00;  1.4700893E+01;  4.0000000E+04;  0.0000000E+00;  4.0018855E+04; -8.6331099E-02;  0.0000000E+00; -3.4707494E-03;  2.1737488E+04;
  2.1147417E-01;  9.9999998E-03; -2.8010526E-01;3729; -9.3914093E-03;  0.0000000E+00;  3.8512622E-04;  9.9436371E+02;  1.0000000E-01; -4.6695469E+03;3;  6.1589403E+00;  0.0000000E+00;  1.8148663E+01;0; -8.2157522E-02;  3.9555309E+04;  0.0000000E+00;  2.1876543E+01;  4.0000000E+04;  0.0000000E+00;  3.9994328E+04; -7.9851925E-02;  0.0000000E+00; -2.3056008E-03;  3.3685852E+04;
  2.2175801E-01;  9.9999998E-03; -3.0000800E-01;3788; -9.0953903E-03;  0.0000000E+00;  2.3261133E-04;  9.9055371E+02;  1.0000000E-01; -7.8260503E+03;3; -5.6088704E-01;  0.0000000E+00;  3.5404602E+01;0; -9.4921350E-02;  3.9209875E+04;  0.0000000E+00;  1.0274022E+01;  4.0000000E+04;  0.0000000E+00;  4.0033016E+04; -9.2010081E-02;  0.0000000E+00; -2.9112734E-03;  1.2375532E+04;
  2.2167999E-01;  9.9999998E-03; -2.9003966E-01;3789; -9.5582409E-03;  0.0000000E+00;  2.1878377E-04;  9.9287689E+02;  1.0000000E-01; -5.9013638E+03;3; -3.5762770E+00;  0.0000000E+00;  2.1756569E+01;0; -8.8630676E-02;  3.9412793E+04;  0.0000000E+00;  1.1423059E+01;  4.0000000E+04;  0.0000000E+00;  4.0016594E+04; -8.6301655E-02;  0.0000000E+00; -2.3290208E-03;  1.6450766E+04;
  2.2147535E-01;  9.9999998E-03; -2.8007969E-01;3790; -1.0005408E-02;  0.0000000E+00;  2.1338007E-04;  9.9504340E+02;  1.0000000E-01; -4.1064517E+03;3; -4.2594662E+00;  0.0000000E+00;  1.2272407E+01;0; -8.2232922E-02;  3.9606461E+04;  0.0000000E+00;  1.7033302E+01;  4.0000000E+04;  0.0000000E+00;  3.9999004E+04; -8.0488086E-02;  0.0000000E+00; -1.7448366E-03;  2.6150707E+04;
  2.3168953E-01;  9.9999998E-03; -3.0000484E-01;3849; -9.4912732E-03;  0.0000000E+00; -2.4276218E-04;  9.9221326E+02;  1.0000000E-01; -6.4511758E+03;3; -1.5323985E+01;  0.0000000E+00;  2.7249495E+01;0; -8.9055441E-02;  3.9347246E+04;  0.0000000E+00;  6.8049250E+00;  4.0000000E+04;  0.0000000E+00;  4.0029445E+04; -9.0039238E-02;  0.0000000E+00;  9.8379748E-04;  8.3725117E+03;
  2.3162144E-01;  9.9999998E-03; -2.9002789E-01;3850; -1.0088666E-02;  0.0000000E+00; -2.1452180E-04;  9.9413037E+02;  1.0000000E-01; -4.8628750E+03;3; -1.4966898E+01;  0.0000000E+00;  1.5172738E+01;0; -8.4110402E-02;  3.9514766E+04;  0.0000000E+00;  8.1209307E+00;  4.0000000E+04;  0.0000000E+00;  4.0016516E+04; -8.5139945E-02;  0.0000000E+00;  1.0295426E-03;  1.1868058E+04;
  2.3145925E-01;  9.9999998E-03; -2.8005284E-01;3851; -1.0650822E-02;  0.0000000E+00; -1.3618245E-04;  9.9586377E+02;  1.0000000E-01; -3.4267673E+03;3; -1.2465461E+01;  0.0000000E+00;  6.2337723E+00;0; -7.9233445E-02;  3.9669090E+04;  0.0000000E+00;  1.2913366E+01;  4.0000000E+04;  0.0000000E+00;  4.0003953E+04; -7.9852507E-02;  0.0000000E+00;  6.1906228E-04;  1.9945406E+04;
  2.4163057E-01;  9.9999998E-03; -2.9999912E-01;3910; -1.0083564E-02;  0.0000000E+00; -6.4865442E-04;  9.9383789E+02;  1.0000000E-01; -5.1051890E+03;3; -2.4855524E+01;  0.0000000E+00;  1.9185001E+01;0; -8.2346499E-02;  3.9482844E+04;  0.0000000E+00;  3.8191035E+00;  4.0000000E+04;  0.0000000E+00;  4.0025801E+04; -8.7664291E-02;  0.0000000E+00;  5.3177960E-03;  5.5602847E+03;
  2.4155699E-01;  9.9999998E-03; -2.9001603E-01;3911; -1.0700040E-02;  0.0000000E+00; -6.1316317E-04;  9.9538855E+02;  1.0000000E-01; -3.8204846E+03;3; -2.1973404E+01;  0.0000000E+00;  9.7001410E+00;0; -7.8001082E-02;  3.9619371E+04;  0.0000000E+00;  5.8705077E+00;  4.0000000E+04;  0.0000000E+00;  4.0015094E+04; -8.3076850E-02;  0.0000000E+00;  5.0757639E-03;  9.0925010E+03;
  2.4142699E-01;  9.9999998E-03; -2.8003028E-01;3912; -1.1360504E-02;  0.0000000E+00; -4.9861596E-04;  9.9670935E+02;  1.0000000E-01; -2.7262439E+03;3; -1.7571890E+01;  0.0000000E+00;  1.6572883E+00;0; -7.4483857E-02;  3.9735445E+04;  0.0000000E+00;  9.5451813E+00;  4.0000000E+04;  0.0000000E+00;  4.0007480E+04; -7.8335807E-02;  0.0000000E+00;  3.8519474E-03;  1.5045454E+04;
  2.5156131E-01;  9.9999998E-03; -2.9999554E-01;3971; -1.0787016E-02;  0.0000000E+00; -8.7798433E-04;  9.9534851E+02;  1.0000000E-01; -3.8536687E+03;3; -2.9277695E+01;  0.0000000E+00;  1.2770231E+01;0; -7.6469652E-02;  3.9611277E+04;  0.0000000E+00;  2.2027960E+00;  4.0000000E+04;  0.0000000E+00;  4.0019953E+04; -8.4784478E-02;  0.0000000E+00;  8.3148275E-03;  4.1648398E+03;
  2.5148293E-01;  9.9999998E-03; -2.9000637E-01;3972; -1.1433049E-02;  0.0000000E+00; -8.7010005E-04;  9.9654132E+02;  1.0000000E-01; -2.8654497E+03;3; -2.4778889E+01;  0.0000000E+00;  5.3831558E+00;0; -7.2246812E-02;  3.9716691E+04;  0.0000000E+00;  4.6050301E+00;  4.0000000E+04;  0.0000000E+00;  4.0012980E+04; -8.0527820E-02;  0.0000000E+00;  8.2810065E-03;  7.6416670E+03;
  2.5137520E-01;  9.9999998E-03; -2.8001317E-01;3973; -1.2135425E-02;  0.0000000E+00; -7.6723722E-04;  9.9748645E+02;  1.0000000E-01; -2.0824102E+03;3; -1.9401171E+01;  0.0000000E+00; -1.1898315E+00;0; -6.9412448E-02;  3.9798457E+04;  0.0000000E+00;  7.1878996E+00;  4.0000000E+04;  0.0000000E+00;  4.0009305E+04; -7.6191701E-02;  0.0000000E+00;  6.7792563E-03;  1.1623204E+04;
  2.6147723E-01;  9.9999998E-03; -2.9999295E-01;4032; -1.1630239E-02;  0.0000000E+00; -9.4530964E-04;  9.9666211E+02;  1.0000000E-01; -2.7654033E+03;3; -2.9424486E+01;  0.0000000E+00;  7.6342740E+00;0; -7.2220132E-02;  3.9725258E+04;  0.0000000E+00;  1.6999797E+00;  4.0000000E+04;  0.0000000E+00;  4.0014621E+04; -8.1626043E-02;  0.0000000E+00;  9.4059082E-03;  3.7084651E+03;
  2.6139811E-01;  9.9999998E-03; -2.8999868E-01;4033; -1.2299490E-02;  0.0000000E+00; -9.6219848E-04;  9.9751697E+02;  1.0000000E-01; -2.0571270E+03;3; -2.4149942E+01;  0.0000000E+00;  2.1091592E+00;0; -6.7935362E-02;  3.9800066E+04;  0.0000000E+00;  3.9010608E+00;  4.0000000E+04;  0.0000000E+00;  4.0010387E+04; -7.7648543E-02;  0.0000000E+00;  9.7131794E-03;  6.7796099E+03;
  2.6131019E-01;  9.9999998E-03; -2.8000045E-01;4034; -1.2978196E-02;  0.0000000E+00; -9.0325740E-04;  9.9812726E+02;  1.0000000E-01; -1.5515117E+03;3; -1.8524788E+01;  0.0000000E+00; -2.6864624E+00;0; -6.5050766E-02;  3.9851797E+04;  0.0000000E+00;  5.4001946E+00;  4.0000000E+04;  0.0000000E+00;  4.0009820E+04; -7.3599756E-02;  0.0000000E+00;  8.5489927E-03;  8.9577930E+03;
  2.7137548E-01;  9.9999998E-03; -2.9999071E-01;4093; -1.2608414E-02;  0.0000000E+00; -9.2301524E-04;  9.9772986E+02;  1.0000000E-01; -1.8807863E+03;3; -2.6453533E+01;  0.0000000E+00;  3.7680466E+00;0; -6.8996921E-02;  3.9819281E+04;  0.0000000E+00;  1.6772321E+00;  4.0000000E+04;  0.0000000E+00;  4.0009785E+04; -7.8159958E-02;  0.0000000E+00;  9.1630379E-03;  3.6518313E+03;
  2.7129823E-01;  9.9999998E-03; -2.8999284E-01;4094; -1.3237308E-02;  0.0000000E+00; -9.5012441E-04;  9.9827502E+02;  1.0000000E-01; -1.4290953E+03;3; -2.1056341E+01;  0.0000000E+00;  5.3603211E-03;0; -6.4670205E-02;  3.9866117E+04;  0.0000000E+00;  3.5132861E+00;  4.0000000E+04;  0.0000000E+00;  4.0008137E+04; -7.4365616E-02;  0.0000000E+00;  9.6954117E-03;  6.1384844E+03;
  2.7123499E-01;  9.9999998E-03; -2.7999148E-01;4095; -1.3837788E-02;  0.0000000E+00; -9.3267061E-04;  9.9859735E+02;  1.0000000E-01; -1.1620906E+03;3; -1.5756905E+01;  0.0000000E+00; -3.0968654E+00;0; -6.1540507E-02;  3.9891586E+04;  0.0000000E+00;  4.0277081E+00;  4.0000000E+04;  0.0000000E+00;  4.0009688E+04; -7.0610553E-02;  0.0000000E+00;  9.0700444E-03;  6.8052314E+03;
  2.8125775E-01;  9.9999998E-03; -2.9998893E-01;4154; -1.3676804E-02;  0.0000000E+00; -8.5072144E-04;  9.9851678E+02;  1.0000000E-01; -1.2288048E+03;3; -2.1473566E+01;  0.0000000E+00;  1.2946678E+00;0; -6.6219300E-02;  3.9889996E+04;  0.0000000E+00;  1.4857521E+00;  4.0000000E+04;  0.0000000E+00;  4.0006160E+04; -7.4267581E-02;  0.0000000E+00;  8.0482792E-03;  3.1891570E+03;
  2.8120169E-01;  9.9999998E-03; -2.8998855E-01;4155; -1.4204822E-02;  0.0000000E+00; -8.8999618E-04;  9.9877844E+02;  1.0000000E-01; -1.0120208E+03;3; -1.6513660E+01;  0.0000000E+00; -1.0158781E+00;0; -6.1835118E-02;  3.9910520E+04;  0.0000000E+00;  2.6472185E+00;  4.0000000E+04;  0.0000000E+00;  4.0006656E+04; -7.0697382E-02;  0.0000000E+00;  8.8622635E-03;  4.6859736E+03;
  2.8116012E-01;  9.9999998E-03; -2.7998561E-01;4156; -1.4666357E-02;  0.0000000E+00; -8.9530268E-04;  9.9888068E+02;  1.0000000E-01; -9.2733179E+02;3; -1.1998621E+01;  0.0000000E+00; -2.7173958E+00;0; -5.8652088E-02;  3.9916035E+04;  0.0000000E+00;  2.8215096E+00;  4.0000000E+04;  0.0000000E+00;  4.0009227E+04; -6.7308597E-02;  0.0000000E+00;  8.6565102E-03;  4.8653779E+03;
  2.9117748E-01;  9.9999998E-03; -2.9998723E-01;4215; -1.4776370E-02;  0.0000000E+00; -7.6995592E-04;  9.9896313E+02;  1.0000000E-01; -8.5903741E+02;3; -1.5492826E+01;  0.0000000E+00;  6.5666400E-02;0; -6.3166343E-02;  3.9930480E+04;  0.0000000E+00; -1.6619766E-01;  4.0000000E+04;  0.0000000E+00;  4.0004215E+04; -6.9913045E-02;  0.0000000E+00;  6.7467028E-03;  7.6521674E+02;
  2.9114169E-01;  9.9999998E-03; -2.8998566E-01;4216; -1.5123183E-02;  0.0000000E+00; -8.0991135E-04;  9.9902448E+02;  1.0000000E-01; -8.0822406E+02;3; -1.1489495E+01;  0.0000000E+00; -1.1342497E+00;0; -5.9047066E-02;  3.9932504E+04;  0.0000000E+00;  9.7519058E-01;  4.0000000E+04;  0.0000000E+00;  4.0005961E+04; -6.6696234E-02;  0.0000000E+00;  7.6491702E-03;  2.1254033E+03;
  2.9110473E-01;  9.9999998E-03; -2.7998227E-01;4217; -1.5431507E-02;  0.0000000E+00; -8.2952552E-04;  9.9899359E+02;  1.0000000E-01; -8.3380359E+02;3; -8.0689068E+00;  0.0000000E+00; -1.9151324E+00;0; -5.6048669E-02;  3.9925969E+04;  0.0000000E+00;  1.5031250E+00;  4.0000000E+04;  0.0000000E+00;  4.0008863E+04; -6.3826174E-02;  0.0000000E+00;  7.7775042E-03;  2.8532007E+03;
  3.0118293E-01;  9.9999998E-03; -2.9998612E-01;4276; -1.5730947E-02;  0.0000000E+00; -6.9105375E-04;  9.9912604E+02;  1.0000000E-01; -7.2407831E+02;3; -9.6587620E+00;  0.0000000E+00; -1.3123102E-01;0; -5.9607264E-02;  3.9945082E+04;  0.0000000E+00; -2.4485524E+00;  4.0000000E+04;  0.0000000E+00;  4.0003473E+04; -6.5149628E-02;  0.0000000E+00;  5.5423626E-03;  3.0494233E+03;
  3.0114558E-01;  9.9999998E-03; -2.8998432E-01;4277; -1.5917342E-02;  0.0000000E+00; -7.3130016E-04;  9.9908789E+02;  1.0000000E-01; -7.5568231E+02;3; -6.8795500E+00;  0.0000000E+00; -6.7607713E-01;0; -5.6057554E-02;  3.9937914E+04;  0.0000000E+00; -8.7812918E-01;  4.0000000E+04;  0.0000000E+00;  4.0005473E+04; -6.2544391E-02;  0.0000000E+00;  6.4868354E-03;  1.1667709E+03;
  3.0110732E-01;  9.9999998E-03; -2.7998111E-01;4278; -1.6117832E-02;  0.0000000E+00; -7.5824809E-04;  9.9898883E+02;  1.0000000E-01; -8.3775409E+02;3; -4.5858202E+00;  0.0000000E+00; -9.8416549E-01;0; -5.3499673E-02;  3.9925715E+04;  0.0000000E+00;  3.4782272E-02;  4.0000000E+04;  0.0000000E+00;  4.0008555E+04; -6.0316488E-02;  0.0000000E+00;  6.8168142E-03;  1.1882672E+03;
  3.1125414E-01;  9.9999998E-03; -2.9998609E-01;4337; -1.6466267E-02;  0.0000000E+00; -6.0522754E-04;  9.9914258E+02;  1.0000000E-01; -7.1035028E+02;3; -4.9199400E+00;  0.0000000E+00;  1.8956628E-01;0; -5.6015659E-02;  3.9946035E+04;  0.0000000E+00; -3.4984162E+00;  4.0000000E+04;  0.0000000E+00;  4.0003367E+04; -6.0395271E-02;  0.0000000E+00;  4.3796124E-03;  4.7270913E+03;
  3.1119642E-01;  9.9999998E-03; -2.8998446E-01;4338; -1.6572280E-02;  0.0000000E+00; -6.4608332E-04;  9.9905627E+02;  1.0000000E-01; -7.8185443E+02;3; -3.2524123E+00;  0.0000000E+00; -4.2520523E-02;0; -5.3191740E-02;  3.9935016E+04;  0.0000000E+00; -1.8264226E+00;  4.0000000E+04;  0.0000000E+00;  4.0005551E+04; -5.8527809E-02;  0.0000000E+00;  5.3360690E-03;  2.5070359E+03;
  3.1114450E-01;  9.9999998E-03; -2.7998191E-01;4339; -1.6716659E-02;  0.0000000E+00; -6.7872764E-04;  9.9893774E+02;  1.0000000E-01; -8.8007385E+02;3; -1.9089761E+00;  0.0000000E+00; -1.4428522E-01;0; -5.1131546E-02;  3.9921035E+04;  0.0000000E+00; -7.5203460E-01;  4.0000000E+04;  0.0000000E+00;  4.0008297E+04; -5.6949429E-02;  0.0000000E+00;  5.8178832E-03;  1.4317466E+03;
  3.2119426E-01;  9.9999998E-03; -2.7998430E-01;4400; -1.7243009E-02;  0.0000000E+00; -5.8886240E-04;  9.9889099E+02;  1.0000000E-01; -9.1878882E+02;3; -1.0394357E-01;  0.0000000E+00;  4.7015911E-01;0; -4.9048100E-02;  3.9916332E+04;  0.0000000E+00; -8.1158346E-01;  4.0000000E+04;  0.0000000E+00;  4.0007801E+04; -5.3857110E-02;  0.0000000E+00;  4.8090098E-03;  1.5051515E+03;
  3.2122973E-01;  9.9999998E-03; -2.8998604E-01;4399; -1.7115174E-02;  0.0000000E+00; -5.5209215E-04;  9.9901001E+02;  1.0000000E-01; -8.2017432E+02;3; -7.8158301E-01;  0.0000000E+00;  5.0812960E-01;0; -5.0666377E-02;  3.9930008E+04;  0.0000000E+00; -1.5917834E+00;  4.0000000E+04;  0.0000000E+00;  4.0005375E+04; -5.4893412E-02;  0.0000000E+00;  4.2270347E-03;  2.2848862E+03;
  3.2126483E-01;  9.9999998E-03; -2.9998732E-01;4398; -1.7027171E-02;  0.0000000E+00; -5.1017932E-04;  9.9912250E+02;  1.0000000E-01; -7.2699176E+02;3; -1.6490841E+00;  0.0000000E+00;  6.0715955E-01;0; -5.2841347E-02;  3.9942820E+04;  0.0000000E+00; -2.6418192E+00;  4.0000000E+04;  0.0000000E+00;  4.0003262E+04; -5.6114946E-02;  0.0000000E+00;  3.2735977E-03;  3.6521589E+03;
  3.3124438E-01;  9.9999998E-03; -2.9998919E-01;4459; -1.7484896E-02;  0.0000000E+00; -4.0745462E-04;  9.9906097E+02;  1.0000000E-01; -7.7795331E+02;3;  3.3757347E-01;  0.0000000E+00;  9.3341845E-01;0; -5.0201125E-02;  3.9935266E+04;  0.0000000E+00; -1.5459231E+00;  4.0000000E+04;  0.0000000E+00;  4.0003566E+04; -5.2481897E-02;  0.0000000E+00;  2.2807699E-03;  2.2036650E+03;
  3.3122888E-01;  9.9999998E-03; -2.8998855E-01;4460; -1.7579461E-02;  0.0000000E+00; -4.5076897E-04;  9.9895978E+02;  1.0000000E-01; -8.6180280E+02;3;  6.9293982E-01;  0.0000000E+00;  8.8267332E-01;0; -4.8528582E-02;  3.9923891E+04;  0.0000000E+00; -9.3853021E-01;  4.0000000E+04;  0.0000000E+00;  4.0005398E+04; -5.1746622E-02;  0.0000000E+00;  3.2180382E-03;  1.4940754E+03;
  3.3121574E-01;  9.9999998E-03; -2.7998772E-01;4461; -1.7710878E-02;  0.0000000E+00; -4.9095339E-04;  9.9886548E+02;  1.0000000E-01; -9.3992401E+02;3;  9.5716584E-01;  0.0000000E+00;  8.6132371E-01;0; -4.7243338E-02;  3.9913020E+04;  0.0000000E+00; -4.3578735E-01;  4.0000000E+04;  0.0000000E+00;  4.0007125E+04; -5.1111266E-02;  0.0000000E+00;  3.8679277E-03;  1.1576782E+03;
  3.4121192E-01;  9.9999998E-03; -2.9999140E-01;4520; -1.7870169E-02;  0.0000000E+00; -2.9920146E-04;  9.9897498E+02;  1.0000000E-01; -8.4921057E+02;3;  1.3691680E+00;  0.0000000E+00;  1.1372988E+00;0; -4.8047256E-02;  3.9925004E+04;  0.0000000E+00; -7.5766975E-01;  4.0000000E+04;  0.0000000E+00;  4.0004449E+04; -4.9496945E-02;  0.0000000E+00;  1.4496886E-03;  1.2288300E+03;
  3.4121880E-01;  9.9999998E-03; -2.8999147E-01;4521; -1.7989008E-02;  0.0000000E+00; -3.4318119E-04;  9.9890869E+02;  1.0000000E-01; -9.0412256E+02;3;  1.4504539E+00;  0.0000000E+00;  1.1016979E+00;0; -4.6734821E-02;  3.9916918E+04;  0.0000000E+00; -4.0068981E-01;  4.0000000E+04;  0.0000000E+00;  4.0005605E+04; -4.9080126E-02;  0.0000000E+00;  2.3453061E-03;  9.6589490E+02;
  3.4124196E-01;  9.9999998E-03; -2.7999160E-01;4522; -1.8136250E-02;  0.0000000E+00; -3.8411620E-04;  9.9884882E+02;  1.0000000E-01; -9.5375079E+02;3;  1.4995588E+00;  0.0000000E+00;  1.0773847E+00;0; -4.5707274E-02;  3.9910145E+04;  0.0000000E+00; -8.1192710E-02;  4.0000000E+04;  0.0000000E+00;  4.0006941E+04; -4.8707359E-02;  0.0000000E+00;  3.0000845E-03;  9.7160455E+02;
  3.5116753E-01;  9.9999998E-03; -2.9999360E-01;4581; -1.8214099E-02;  0.0000000E+00; -1.8488409E-04;  9.9887085E+02;  1.0000000E-01; -9.3547974E+02;3;  1.8134803E+00;  0.0000000E+00;  1.2563764E+00;0; -4.6298645E-02;  3.9912961E+04;  0.0000000E+00; -3.4351322E-01;  4.0000000E+04;  0.0000000E+00;  4.0005508E+04; -4.7069274E-02;  0.0000000E+00;  7.7062962E-04;  9.1347711E+02;
  3.5120347E-01;  9.9999998E-03; -2.8999442E-01;4582; -1.8365253E-02;  0.0000000E+00; -2.2915943E-04;  9.9884686E+02;  1.0000000E-01; -9.5533099E+02;3;  1.7803011E+00;  0.0000000E+00;  1.2234465E+00;0; -4.5223791E-02;  3.9909164E+04;  0.0000000E+00; -1.0787256E-01;  4.0000000E+04;  0.0000000E+00;  4.0006230E+04; -4.6835460E-02;  0.0000000E+00;  1.6116698E-03;  8.8154340E+02;
  3.5126272E-01;  9.9999998E-03; -2.7999541E-01;4583; -1.8532889E-02;  0.0000000E+00; -2.7008040E-04;  9.9883441E+02;  1.0000000E-01; -9.6565167E+02;3;  1.7402668E+00;  0.0000000E+00;  1.1955216E+00;0; -4.4377752E-02;  3.9906844E+04;  0.0000000E+00;  1.0586907E-01;  4.0000000E+04;  0.0000000E+00;  4.0007039E+04; -4.6618801E-02;  0.0000000E+00;  2.2410476E-03;  9.7442871E+02;
  3.6112878E-01;  9.9999998E-03; -2.9999563E-01;4642; -1.8547464E-02;  0.0000000E+00; -6.4346976E-05;  9.9875446E+02;  1.0000000E-01; -1.0319214E+03;3;  1.9813067E+00;  0.0000000E+00;  1.3366894E+00;0; -4.4840623E-02;  3.9899508E+04;  0.0000000E+00; -2.0217913E-01;  4.0000000E+04;  0.0000000E+00;  4.0006750E+04; -4.5070373E-02;  0.0000000E+00;  2.2975140E-04;  9.9328040E+02;
  3.6119220E-01;  9.9999998E-03; -2.8999698E-01;4643; -1.8728688E-02;  0.0000000E+00; -1.0888375E-04;  9.9876801E+02;  1.0000000E-01; -1.0206625E+03;3;  1.9169266E+00;  0.0000000E+00;  1.3024228E+00;0; -4.3922346E-02;  3.9899875E+04;  0.0000000E+00; -2.8289629E-02;  4.0000000E+04;  0.0000000E+00;  4.0007152E+04; -4.4933900E-02;  0.0000000E+00;  1.0115533E-03;  9.8653278E+02;
  3.6126679E-01;  9.9999998E-03; -2.7999866E-01;4644; -1.8914450E-02;  0.0000000E+00; -1.4991224E-04;  9.9880090E+02;  1.0000000E-01; -9.9345337E+02;3;  1.8534861E+00;  0.0000000E+00;  1.2717233E+00;0; -4.3206200E-02;  3.9901508E+04;  0.0000000E+00;  1.2713654E-01;  4.0000000E+04;  0.0000000E+00;  4.0007148E+04; -4.4807009E-02;  0.0000000E+00;  1.6008102E-03;  1.0228768E+03;
  3.7111372E-01;  9.9999998E-03; -2.9999709E-01;4703; -1.8892871E-02;  0.0000000E+00;  6.2206469E-05;  9.9861554E+02;  1.0000000E-01; -1.1469799E+03;3;  2.0690444E+00;  0.0000000E+00;  1.4077029E+00;0; -4.3573577E-02;  3.9884617E+04;  0.0000000E+00; -1.8950649E-01;  4.0000000E+04;  0.0000000E+00;  4.0008285E+04; -4.3392438E-02;  0.0000000E+00; -1.8113959E-04;  1.1923506E+03;
  3.7118605E-01;  9.9999998E-03; -2.8999889E-01;4704; -1.9094732E-02;  0.0000000E+00;  1.7295908E-05;  9.9866693E+02;  1.0000000E-01; -1.1044132E+03;3;  2.0020826E+00;  0.0000000E+00;  1.3713598E+00;0; -4.2775139E-02;  3.9888285E+04;  0.0000000E+00; -5.4614309E-02;  4.0000000E+04;  0.0000000E+00;  4.0008332E+04; -4.3311935E-02;  0.0000000E+00;  5.3679658E-04;  1.1439552E+03;
  3.7125915E-01;  9.9999998E-03; -2.8000095E-01;4705; -1.9292479E-02;  0.0000000E+00; -2.3868932E-05;  9.9873322E+02;  1.0000000E-01; -1.0495012E+03;3;  1.9373939E+00;  0.0000000E+00;  1.3383288E+00;0; -4.2163588E-02;  3.9893641E+04;  0.0000000E+00;  6.6792965E-02;  4.0000000E+04;  0.0000000E+00;  4.0007988E+04; -4.3238342E-02;  0.0000000E+00;  1.0747528E-03;  1.1161884E+03;
  3.8113421E-01;  9.9999998E-03; -2.9999802E-01;4764; -1.9262120E-02;  0.0000000E+00;  1.9454524E-04;  9.9846246E+02;  1.0000000E-01; -1.2738406E+03;3;  2.1503191E+00;  0.0000000E+00;  1.4784732E+00;0; -4.2450648E-02;  3.9868758E+04;  0.0000000E+00; -1.9974054E-01;  4.0000000E+04;  0.0000000E+00;  4.0010156E+04; -4.1973401E-02;  0.0000000E+00; -4.7724519E-04;  1.4206832E+03;
  3.8120347E-01;  9.9999998E-03; -2.9000002E-01;4765; -1.9473083E-02;  0.0000000E+00;  1.4939300E-04;  9.9853967E+02;  1.0000000E-01; -1.2098423E+03;3;  2.0839500E+00;  0.0000000E+00;  1.4406040E+00;0; -4.1753478E-02;  3.9875113E+04;  0.0000000E+00; -1.0150125E-01;  4.0000000E+04;  0.0000000E+00;  4.0009613E+04; -4.1928411E-02;  0.0000000E+00;  1.7493166E-04;  1.3454918E+03;
  3.8126576E-01;  9.9999998E-03; -2.8000227E-01;4766; -1.9675633E-02;  0.0000000E+00;  1.0834323E-04;  9.9863324E+02;  1.0000000E-01; -1.1323136E+03;3;  2.0198073E+00;  0.0000000E+00;  1.4048135E+00;0; -4.1240107E-02;  3.9882914E+04;  0.0000000E+00; -1.0032069E-02;  4.0000000E+04;  0.0000000E+00;  4.0009219E+04; -4.1887872E-02;  0.0000000E+00;  6.4776628E-04;  1.2705754E+03;
  3.9118204E-01;  9.9999998E-03; -2.9999849E-01;4825; -1.9658450E-02;  0.0000000E+00;  3.3373036E-04;  9.9830908E+02;  1.0000000E-01; -1.4008986E+03;3;  2.2312553E+00;  0.0000000E+00;  1.5481299E+00;0; -4.1466240E-02;  3.9853105E+04;  0.0000000E+00; -1.9388311E-01;  4.0000000E+04;  0.0000000E+00;  4.0011762E+04; -4.0770821E-02;  0.0000000E+00; -6.9542008E-04;  1.6451323E+03;
  3.9124402E-01;  9.9999998E-03; -2.9000056E-01;4826; -1.9868067E-02;  0.0000000E+00;  2.8769212E-04;  9.9840369E+02;  1.0000000E-01; -1.3225304E+03;3;  2.1656799E+00;  0.0000000E+00;  1.5087759E+00;0; -4.0843196E-02;  3.9860871E+04;  0.0000000E+00; -1.3275702E-01;  4.0000000E+04;  0.0000000E+00;  4.0011168E+04; -4.0745724E-02;  0.0000000E+00; -9.7471857E-05;  1.5597712E+03;
  3.9129448E-01;  9.9999998E-03; -2.8000271E-01;4827; -2.0069038E-02;  0.0000000E+00;  2.4696300E-04;  9.9851038E+02;  1.0000000E-01; -1.2341378E+03;3;  2.1022575E+00;  0.0000000E+00;  1.4715794E+00;0; -4.0418550E-02;  3.9870125E+04;  0.0000000E+00; -7.3519126E-02;  4.0000000E+04;  0.0000000E+00;  4.0010891E+04; -4.0722892E-02;  0.0000000E+00;  3.0434167E-04;  1.4696106E+03;
  4.0122843E-01;  9.9999998E-03; -2.9999864E-01;4886; -2.0079242E-02;  0.0000000E+00;  4.7976314E-04;  9.9817010E+02;  1.0000000E-01; -1.5160558E+03;3;  2.3120856E+00;  0.0000000E+00;  1.6175786E+00;0; -4.0583894E-02;  3.9839457E+04;  0.0000000E+00; -1.7806806E-01;  4.0000000E+04;  0.0000000E+00;  4.0013438E+04; -3.9724905E-02;  0.0000000E+00; -8.5898855E-04;  1.8490950E+03;
  4.0127987E-01;  9.9999998E-03; -2.9000068E-01;4887; -2.0279082E-02;  0.0000000E+00;  4.3439391E-04;  9.9827448E+02;  1.0000000E-01; -1.4295891E+03;3;  2.2474163E+00;  0.0000000E+00;  1.5782303E+00;0; -4.0045302E-02;  3.9848113E+04;  0.0000000E+00; -1.4814466E-01;  4.0000000E+04;  0.0000000E+00;  4.0012812E+04; -3.9709426E-02;  0.0000000E+00; -3.3587747E-04;  1.7613232E+03;
  4.0131742E-01;  9.9999998E-03; -2.8000265E-01;4888; -2.0473341E-02;  0.0000000E+00;  3.9418106E-04;  9.9838831E+02;  1.0000000E-01; -1.3352708E+03;3;  2.1847107E+00;  0.0000000E+00;  1.5382900E+00;0; -3.9700903E-02;  3.9857883E+04;  0.0000000E+00; -1.1619453E-01;  4.0000000E+04;  0.0000000E+00;  4.0012152E+04; -3.9694633E-02;  0.0000000E+00; -6.2708118E-06;  1.6681666E+03;
  4.1126436E-01;  9.9999998E-03; -2.9999885E-01;4947; -2.0517243E-02;  0.0000000E+00;  6.3510076E-04;  9.9807037E+02;  1.0000000E-01; -1.5986707E+03;3;  2.3930707E+00;  0.0000000E+00;  1.6859251E+00;0; -3.9796580E-02;  3.9829426E+04;  0.0000000E+00; -1.6093393E-01;  4.0000000E+04;  0.0000000E+00;  4.0014617E+04; -3.8764361E-02;  0.0000000E+00; -1.0322179E-03;  1.9987795E+03;
  4.1131318E-01;  9.9999998E-03; -2.9000071E-01;4948; -2.0702096E-02;  0.0000000E+00;  5.9059775E-04;  9.9817322E+02;  1.0000000E-01; -1.5134386E+03;3;  2.3295674E+00;  0.0000000E+00;  1.6458594E+00;0; -3.9331853E-02;  3.9838070E+04;  0.0000000E+00; -1.6247033E-01;  4.0000000E+04;  0.0000000E+00;  4.0014090E+04; -3.8752273E-02;  0.0000000E+00; -5.7957886E-04;  1.9224956E+03;
  4.1134840E-01;  9.9999998E-03; -2.8000242E-01;4949; -2.0886730E-02;  0.0000000E+00;  5.5047614E-04;  9.9828705E+02;  1.0000000E-01; -1.4191697E+03;3;  2.2677631E+00;  0.0000000E+00;  1.6050756E+00;0; -3.9045937E-02;  3.9848008E+04;  0.0000000E+00; -1.5391591E-01;  4.0000000E+04;  0.0000000E+00;  4.0013297E+04; -3.8740583E-02;  0.0000000E+00; -3.0535363E-04;  1.8373644E+03;
  4.2130119E-01;  9.9999998E-03; -2.9999930E-01;5008; -2.0961825E-02;  0.0000000E+00;  7.9997402E-04;  9.9802661E+02;  1.0000000E-01; -1.6349166E+03;3;  2.4744251E+00;  0.0000000E+00;  1.7533785E+00;0; -3.9053638E-02;  3.9825004E+04;  0.0000000E+00; -1.1243771E-01;  4.0000000E+04;  0.0000000E+00;  4.0015141E+04; -3.7820939E-02;  0.0000000E+00; -1.2326969E-03;  2.0684124E+03;
  4.2135692E-01;  9.9999998E-03; -2.9000100E-01;5009; -2.1129679E-02;  0.0000000E+00;  7.5640465E-04;  9.9812451E+02;  1.0000000E-01; -1.5537831E+03;3;  2.4122429E+00;  0.0000000E+00;  1.7124518E+00;0; -3.8653839E-02;  3.9833219E+04;  0.0000000E+00; -1.5697986E-01;  4.0000000E+04;  0.0000000E+00;  4.0014719E+04; -3.7810661E-02;  0.0000000E+00; -8.4317836E-04;  2.0067671E+03;
  4.2139620E-01;  9.9999998E-03; -2.8000247E-01;5010; -2.1303611E-02;  0.0000000E+00;  7.1700505E-04;  9.9823486E+02;  1.0000000E-01; -1.4623783E+03;3;  2.3515961E+00;  0.0000000E+00;  1.6722083E+00;0; -3.8427189E-02;  3.9842605E+04;  0.0000000E+00; -1.7921130E-01;  4.0000000E+04;  0.0000000E+00;  4.0013988E+04; -3.7801776E-02;  0.0000000E+00; -6.2541134E-04;  1.9336349E+03;
  4.3135461E-01;  9.9999998E-03; -3.0000019E-01;5069; -2.1400243E-02;  0.0000000E+00;  9.7438355E-04;  9.9805261E+02;  1.0000000E-01; -1.6133864E+03;3;  2.5563514E+00;  0.0000000E+00;  1.8206403E+00;0; -3.8314141E-02;  3.9826840E+04;  0.0000000E+00; -1.3676773E-02;  4.0000000E+04;  0.0000000E+00;  4.0014914E+04; -3.6842078E-02;  0.0000000E+00; -1.4720616E-03;  2.0434114E+03;
  4.3141305E-01;  9.9999998E-03; -2.9000175E-01;5070; -2.1551639E-02;  0.0000000E+00;  9.3181006E-04;  9.9814368E+02;  1.0000000E-01; -1.5379316E+03;3;  2.4955113E+00;  0.0000000E+00;  1.7781868E+00;0; -3.7979461E-02;  3.9834672E+04;  0.0000000E+00; -1.1104356E-01;  4.0000000E+04;  0.0000000E+00;  4.0014648E+04; -3.6836091E-02;  0.0000000E+00; -1.1433690E-03;  1.9911870E+03;
  4.3145391E-01;  9.9999998E-03; -2.8000301E-01;5071; -2.1715401E-02;  0.0000000E+00;  8.9277182E-04;  9.9824304E+02;  1.0000000E-01; -1.4556130E+03;3;  2.4360662E+00;  0.0000000E+00;  1.7369399E+00;0; -3.7803520E-02;  3.9843238E+04;  0.0000000E+00; -1.7130987E-01;  4.0000000E+04;  0.0000000E+00;  4.0014340E+04; -3.6833212E-02;  0.0000000E+00; -9.7030844E-04;  1.9380100E+03;
  4.4143218E-01;  9.9999998E-03; -3.0000162E-01;5130; -2.1819353E-02;  0.0000000E+00;  1.1575784E-03;  9.9815033E+02;  1.0000000E-01; -1.5324010E+03;3;  2.6388791E+00;  0.0000000E+00;  1.8859586E+00;0; -3.7550818E-02;  3.9835809E+04;  0.0000000E+00;  1.1484654E-01;  4.0000000E+04;  0.0000000E+00;  4.0014219E+04; -3.5797905E-02;  0.0000000E+00; -1.7529124E-03;  1.9334769E+03;
  4.4148716E-01;  9.9999998E-03; -2.9000306E-01;5131; -2.1957453E-02;  0.0000000E+00;  1.1157107E-03;  9.9823138E+02;  1.0000000E-01; -1.4652424E+03;3;  2.5793262E+00;  0.0000000E+00;  1.8434526E+00;0; -3.7277814E-02;  3.9842539E+04;  0.0000000E+00; -3.2622006E-02;  4.0000000E+04;  0.0000000E+00;  4.0013812E+04; -3.5800420E-02;  0.0000000E+00; -1.4773952E-03;  1.8804429E+03;
  4.4152427E-01;  9.9999998E-03; -2.8000423E-01;5132; -2.2113197E-02;  0.0000000E+00;  1.0768948E-03;  9.9832355E+02;  1.0000000E-01; -1.3888989E+03;3;  2.5210457E+00;  0.0000000E+00;  1.8022221E+00;0; -3.7151191E-02;  3.9850461E+04;  0.0000000E+00; -1.3059963E-01;  4.0000000E+04;  0.0000000E+00;  4.0013559E+04; -3.5808314E-02;  0.0000000E+00; -1.3428776E-03;  1.8340315E+03;
  4.5153564E-01;  9.9999998E-03; -3.0000353E-01;5191; -2.2208087E-02;  0.0000000E+00;  1.3476047E-03;  9.9830701E+02;  1.0000000E-01; -1.4026268E+03;3;  2.7219827E+00;  0.0000000E+00;  1.9501660E+00;0; -3.6742341E-02;  3.9850273E+04;  0.0000000E+00;  2.4357401E-01;  4.0000000E+04;  0.0000000E+00;  4.0012523E+04; -3.4683511E-02;  0.0000000E+00; -2.0588296E-03;  1.7640973E+03;
  4.5158190E-01;  9.9999998E-03; -2.9000491E-01;5192; -2.2338051E-02;  0.0000000E+00;  1.3063630E-03;  9.9837952E+02;  1.0000000E-01; -1.3425298E+03;3;  2.6635699E+00;  0.0000000E+00;  1.9085979E+00;0; -3.6532905E-02;  3.9856121E+04;  0.0000000E+00;  5.9354126E-02;  4.0000000E+04;  0.0000000E+00;  4.0012406E+04; -3.4698427E-02;  0.0000000E+00; -1.8344787E-03;  1.6927012E+03;
  4.5160994E-01;  9.9999998E-03; -2.8000605E-01;5193; -2.2489181E-02;  0.0000000E+00;  1.2675083E-03;  9.9845758E+02;  1.0000000E-01; -1.2778896E+03;3;  2.6063545E+00;  0.0000000E+00;  1.8669231E+00;0; -3.6454905E-02;  3.9862949E+04;  0.0000000E+00; -6.9019623E-02;  4.0000000E+04;  0.0000000E+00;  4.0012227E+04; -3.4721274E-02;  0.0000000E+00; -1.7336298E-03;  1.6526533E+03;
  4.6159989E-01;  9.9999998E-03; -3.0000564E-01;5252; -2.2557573E-02;  0.0000000E+00;  1.5415150E-03;  9.9848828E+02;  1.0000000E-01; -1.2524089E+03;3;  2.8050432E+00;  0.0000000E+00;  2.0158794E+00;0; -3.5894547E-02;  3.9867082E+04;  0.0000000E+00;  3.5126990E-01;  4.0000000E+04;  0.0000000E+00;  4.0010871E+04; -3.3522904E-02;  0.0000000E+00; -2.3716411E-03;  1.5808796E+03;
  4.6164039E-01;  9.9999998E-03; -2.9000705E-01;5253; -2.2685776E-02;  0.0000000E+00;  1.5012537E-03;  9.9855420E+02;  1.0000000E-01; -1.1978425E+03;3;  2.7476995E+00;  0.0000000E+00;  1.9723564E+00;0; -3.5757605E-02;  3.9872508E+04;  0.0000000E+00;  1.5125151E-01;  4.0000000E+04;  0.0000000E+00;  4.0010848E+04; -3.3551756E-02;  0.0000000E+00; -2.2058487E-03;  1.4795560E+03;
  4.6166593E-01;  9.9999998E-03; -2.8000826E-01;5254; -2.2836711E-02;  0.0000000E+00;  1.4628457E-03;  9.9862457E+02;  1.0000000E-01; -1.1395232E+03;3;  2.6915770E+00;  0.0000000E+00;  1.9311526E+00;0; -3.5734553E-02;  3.9878164E+04;  0.0000000E+00;  3.9371075E-03;  4.0000000E+04;  0.0000000E+00;  4.0010324E+04; -3.3590741E-02;  0.0000000E+00; -2.1438121E-03;  1.4256359E+03;
  4.7157657E-01;  9.9999998E-03; -3.0000761E-01;5313; -2.2865612E-02;  0.0000000E+00;  1.7365167E-03;  9.9865253E+02;  1.0000000E-01; -1.1163634E+03;3;  2.8876081E+00;  0.0000000E+00;  2.0787020E+00;0; -3.5033531E-02;  3.9882230E+04;  0.0000000E+00;  3.9345714E-01;  4.0000000E+04;  0.0000000E+00;  4.0009434E+04; -3.2352943E-02;  0.0000000E+00; -2.6805904E-03;  1.4094427E+03;
  4.7161248E-01;  9.9999998E-03; -2.9000905E-01;5314; -2.2998068E-02;  0.0000000E+00;  1.6978184E-03;  9.9871143E+02;  1.0000000E-01; -1.0675747E+03;3;  2.8312395E+00;  0.0000000E+00;  2.0351660E+00;0; -3.4978423E-02;  3.9887070E+04;  0.0000000E+00;  2.0829432E-01;  4.0000000E+04;  0.0000000E+00;  4.0009184E+04; -3.2395460E-02;  0.0000000E+00; -2.5829624E-03;  1.2944305E+03;
  4.7163996E-01;  9.9999998E-03; -2.8001040E-01;5315; -2.3152852E-02;  0.0000000E+00;  1.6604891E-03;  9.9877527E+02;  1.0000000E-01; -1.0146873E+03;3;  2.7762287E+00;  0.0000000E+00;  1.9952095E+00;0; -3.5016436E-02;  3.9892098E+04;  0.0000000E+00;  6.3448839E-02;  4.0000000E+04;  0.0000000E+00;  4.0009023E+04; -3.2449499E-02;  0.0000000E+00; -2.5669376E-03;  1.2245602E+03;
  4.8150554E-01;  9.9999998E-03; -3.0000916E-01;5374; -2.3138003E-02;  0.0000000E+00;  1.9323551E-03;  9.9876593E+02;  1.0000147E-01; -1.0223907E+03;3;  2.9698746E+00;  0.0000000E+00;  2.1437716E+00;0; -3.4184746E-02;  3.9891547E+04;  0.0000000E+00;  3.4272489E-01;  4.0000000E+04;  0.0000000E+00;  4.0008480E+04; -3.1204255E-02;  0.0000000E+00; -2.9804907E-03;  1.2550137E+03;
  4.8153538E-01;  9.9999998E-03; -2.9001066E-01;5375; -2.3279428E-02;  0.0000000E+00;  1.8951192E-03;  9.9881982E+02;  1.0000147E-01; -9.7775006E+02;3;  2.9143679E+00;  0.0000000E+00;  2.0982635E+00;0; -3.4212485E-02;  3.9896242E+04;  0.0000000E+00;  1.9961157E-01;  4.0000000E+04;  0.0000000E+00;  4.0008273E+04; -3.1258322E-02;  0.0000000E+00; -2.9541624E-03;  1.1581218E+03;
  4.8155877E-01;  9.9999998E-03; -2.8001216E-01;5376; -2.3440888E-02;  0.0000000E+00;  1.8587940E-03;  9.9888031E+02;  1.0000148E-01; -9.2762799E+02;3;  2.8603606E+00;  0.0000000E+00;  2.0588300E+00;0; -3.4313992E-02;  3.9901078E+04;  0.0000000E+00;  8.0330238E-02;  4.0000000E+04;  0.0000000E+00;  4.0007895E+04; -3.1325061E-02;  0.0000000E+00; -2.9889296E-03;  1.0849138E+03;
  4.9150121E-01;  9.9999998E-03; -2.8001314E-01;5437; -2.3708439E-02;  0.0000000E+00;  2.0590103E-03;  9.9889563E+02;  1.0000204E-01; -9.1493701E+02;3;  2.9444675E+00;  0.0000000E+00;  2.1223140E+00;0; -3.3657108E-02;  3.9902270E+04;  0.0000000E+00;  4.3248735E-02;  4.0000000E+04;  0.0000000E+00;  4.0007688E+04; -3.0235864E-02;  0.0000000E+00; -3.4212437E-03;  1.0627964E+03;
  4.9147832E-01;  9.9999998E-03; -2.9001153E-01;5436; -2.3538524E-02;  0.0000000E+00;  2.0939312E-03;  9.9883679E+02;  1.0000199E-01; -9.6367639E+02;3;  2.9974649E+00;  0.0000000E+00;  2.1618953E+00;0; -3.3488452E-02;  3.9897234E+04;  0.0000000E+00;  1.2117588E-01;  4.0000000E+04;  0.0000000E+00;  4.0008082E+04; -3.0161994E-02;  0.0000000E+00; -3.3264575E-03;  1.1252201E+03;
  4.9145648E-01;  9.9999998E-03; -3.0000997E-01;5435; -2.3385296E-02;  0.0000000E+00;  2.1295275E-03;  9.9878009E+02;  1.0000207E-01; -1.0106874E+03;3;  3.0521569E+00;  0.0000000E+00;  2.2055943E+00;0; -3.3378463E-02;  3.9892609E+04;  0.0000000E+00;  2.0780900E-01;  4.0000000E+04;  0.0000000E+00;  4.0008391E+04; -3.0100245E-02;  0.0000000E+00; -3.2782180E-03;  1.1931442E+03;
  5.0153971E-01;  9.9999998E-03; -3.0001011E-01;5496; -2.3621770E-02;  0.0000000E+00;  2.3297220E-03;  9.9870941E+02;  1.0000388E-01; -1.0692042E+03;3;  3.1352174E+00;  0.0000000E+00;  2.2689631E+00;0; -3.2632567E-02;  3.9884871E+04;  0.0000000E+00;  5.9866771E-02;  4.0000000E+04;  0.0000000E+00;  4.0009277E+04; -2.9051781E-02;  0.0000000E+00; -3.5807858E-03;  1.2730442E+03;
  5.0154674E-01;  9.9999998E-03; -2.9001173E-01;5497; -2.3787308E-02;  0.0000000E+00;  2.2964634E-03;  9.9876953E+02;  1.0000371E-01; -1.0194279E+03;3;  3.0812564E+00;  0.0000000E+00;  2.2241249E+00;0; -3.2839488E-02;  3.9889773E+04;  0.0000000E+00;  1.5397280E-02;  4.0000000E+04;  0.0000000E+00;  4.0008844E+04; -2.9115915E-02;  0.0000000E+00; -3.7235713E-03;  1.2158704E+03;
  5.0155789E-01;  9.9999998E-03; -2.8001341E-01;5498; -2.3965636E-02;  0.0000000E+00;  2.2628314E-03;  9.9883105E+02;  1.0000388E-01; -9.6846637E+02;3;  3.0291393E+00;  0.0000000E+00;  2.1854041E+00;0; -3.3071645E-02;  3.9895137E+04;  0.0000000E+00; -2.6054421E-02;  4.0000000E+04;  0.0000000E+00;  4.0008551E+04; -2.9191162E-02;  0.0000000E+00; -3.8804808E-03;  1.1535297E+03;
  5.1150280E-01;  9.9999998E-03; -3.0000967E-01;5557; -2.3854425E-02;  0.0000000E+00;  2.5275892E-03;  9.9856445E+02;  1.0000626E-01; -1.1892996E+03;3;  3.2171876E+00;  0.0000000E+00;  2.3321645E+00;0; -3.1980526E-02;  3.9869660E+04;  0.0000000E+00; -3.3439092E-02;  4.0000000E+04;  0.0000000E+00;  4.0010875E+04; -2.8090820E-02;  0.0000000E+00; -3.8897055E-03;  1.4846378E+03;
  5.1149654E-01;  9.9999998E-03; -2.9001129E-01;5558; -2.4030475E-02;  0.0000000E+00;  2.4966185E-03;  9.9862634E+02;  1.0000617E-01; -1.1380417E+03;3;  3.1638107E+00;  0.0000000E+00;  2.2870572E+00;0; -3.2277569E-02;  3.9874883E+04;  0.0000000E+00; -5.4977767E-02;  4.0000000E+04;  0.0000000E+00;  4.0010352E+04; -2.8149962E-02;  0.0000000E+00; -4.1276072E-03;  1.4252504E+03;
  5.1150167E-01;  9.9999998E-03; -2.8001300E-01;5559; -2.4215883E-02;  0.0000000E+00;  2.4648020E-03;  9.9869434E+02;  1.0000617E-01; -1.0816978E+03;3;  3.1126070E+00;  0.0000000E+00;  2.2477856E+00;0; -3.2575242E-02;  3.9880836E+04;  0.0000000E+00; -7.4626237E-02;  4.0000000E+04;  0.0000000E+00;  4.0009891E+04; -2.8218102E-02;  0.0000000E+00; -4.3571424E-03;  1.3489180E+03;
  5.2146429E-01;  9.9999998E-03; -3.0000892E-01;5618; -2.4095185E-02;  0.0000000E+00;  2.7239891E-03;  9.9837799E+02;  1.0001039E-01; -1.3438137E+03;3;  3.2988236E+00;  0.0000000E+00;  2.3930879E+00;0; -3.1392463E-02;  3.9848926E+04;  0.0000000E+00; -8.0009073E-02;  4.0000000E+04;  0.0000000E+00;  4.0012723E+04; -2.7191168E-02;  0.0000000E+00; -4.2012939E-03;  1.7558928E+03;
  5.2145207E-01;  9.9999998E-03; -2.9001048E-01;5619; -2.4278725E-02;  0.0000000E+00;  2.6961204E-03;  9.9844177E+02;  1.0001048E-01; -1.2909757E+03;3;  3.2461059E+00;  0.0000000E+00;  2.3485727E+00;0; -3.1785343E-02;  3.9854562E+04;  0.0000000E+00; -9.0919308E-02;  4.0000000E+04;  0.0000000E+00;  4.0012363E+04; -2.7237024E-02;  0.0000000E+00; -4.5483182E-03;  1.6915104E+03;
  5.2145517E-01;  9.9999998E-03; -2.8001207E-01;5620; -2.4468964E-02;  0.0000000E+00;  2.6663605E-03;  9.9851123E+02;  1.0001054E-01; -1.2333971E+03;3;  3.1957545E+00;  0.0000000E+00;  2.3104599E+00;0; -3.2145858E-02;  3.9860754E+04;  0.0000000E+00; -1.0290386E-01;  4.0000000E+04;  0.0000000E+00;  4.0011668E+04; -2.7289571E-02;  0.0000000E+00; -4.8562866E-03;  1.6084401E+03;
  5.3147262E-01;  9.9999998E-03; -3.0000830E-01;5679; -2.4349293E-02;  0.0000000E+00;  2.9195417E-03;  9.9819958E+02;  1.0001730E-01; -1.4916121E+03;3;  3.3803704E+00;  0.0000000E+00;  2.4544220E+00;0; -3.0841852E-02;  3.9827207E+04;  0.0000000E+00; -7.8117229E-02;  4.0000000E+04;  0.0000000E+00;  4.0014723E+04; -2.6315512E-02;  0.0000000E+00; -4.5263390E-03;  2.0096738E+03;
  5.3145325E-01;  9.9999998E-03; -2.9000968E-01;5680; -2.4536546E-02;  0.0000000E+00;  2.8949997E-03;  9.9826099E+02;  1.0001743E-01; -1.4407493E+03;3;  3.3281560E+00;  0.0000000E+00;  2.4097927E+00;0; -3.1334396E-02;  3.9832324E+04;  0.0000000E+00; -8.3214715E-02;  4.0000000E+04;  0.0000000E+00;  4.0014324E+04; -2.6341038E-02;  0.0000000E+00; -4.9933577E-03;  1.9469813E+03;
  5.3145117E-01;  9.9999998E-03; -2.8001109E-01;5681; -2.4728855E-02;  0.0000000E+00;  2.8666826E-03;  9.9833374E+02;  1.0001760E-01; -1.3804547E+03;3;  3.2786088E+00;  0.0000000E+00;  2.3733315E+00;0; -3.1745102E-02;  3.9839012E+04;  0.0000000E+00; -1.0019207E-01;  4.0000000E+04;  0.0000000E+00;  4.0013520E+04; -2.6371116E-02;  0.0000000E+00; -5.3739874E-03;  1.8583809E+03;
  5.4152322E-01;  9.9999998E-03; -3.0000842E-01;5740; -2.4615712E-02;  0.0000000E+00;  3.1129364E-03;  9.9809723E+02;  1.0002959E-01; -1.5763998E+03;3;  3.4616656E+00;  0.0000000E+00;  2.5168016E+00;0; -3.0277971E-02;  3.9807711E+04;  0.0000000E+00; -5.5303499E-02;  4.0000000E+04;  0.0000000E+00;  4.0015664E+04; -2.5413953E-02;  0.0000000E+00; -4.8640193E-03;  2.1548237E+03;
  5.4149467E-01;  9.9999998E-03; -2.9000944E-01;5741; -2.4802979E-02;  0.0000000E+00;  3.0918496E-03;  9.9814771E+02;  1.0002951E-01; -1.5345737E+03;3;  3.4098079E+00;  0.0000000E+00;  2.4719348E+00;0; -3.0872736E-02;  3.9812391E+04;  0.0000000E+00; -4.3593500E-02;  4.0000000E+04;  0.0000000E+00;  4.0015418E+04; -2.5413889E-02;  0.0000000E+00; -5.4588458E-03;  2.1071951E+03;
  5.4148585E-01;  9.9999998E-03; -2.8001055E-01;5742; -2.4994807E-02;  0.0000000E+00;  3.0652005E-03;  9.9821753E+02;  1.0002955E-01; -1.4767483E+03;3;  3.3608558E+00;  0.0000000E+00;  2.4351308E+00;0; -3.1340059E-02;  3.9818676E+04;  0.0000000E+00; -6.7648791E-02;  4.0000000E+04;  0.0000000E+00;  4.0014766E+04; -2.5416518E-02;  0.0000000E+00; -5.9235399E-03;  2.0221666E+03;
  5.5160338E-01;  9.9999998E-03; -3.0000964E-01;5801; -2.4889508E-02;  0.0000000E+00;  3.3031055E-03;  9.9810181E+02;  1.0004847E-01; -1.5725974E+03;3;  3.5422556E+00;  0.0000000E+00;  2.5783181E+00;0; -2.9649945E-02;  3.9792859E+04;  0.0000000E+00; -4.8317358E-02;  4.0000000E+04;  0.0000000E+00;  4.0015590E+04; -2.4424909E-02;  0.0000000E+00; -5.2250358E-03;  2.1523748E+03;
  5.5157137E-01;  9.9999998E-03; -2.9001021E-01;5802; -2.5073800E-02;  0.0000000E+00;  3.2860434E-03;  9.9814294E+02;  1.0004845E-01; -1.5385243E+03;3;  3.4905732E+00;  0.0000000E+00;  2.5333478E+00;0; -3.0358234E-02;  3.9796320E+04;  0.0000000E+00; -9.6599814E-03;  4.0000000E+04;  0.0000000E+00;  4.0015258E+04; -2.4396399E-02;  0.0000000E+00; -5.9618349E-03;  2.1185115E+03;
  5.5155987E-01;  9.9999998E-03; -2.8001091E-01;5803; -2.5263147E-02;  0.0000000E+00;  3.2608844E-03;  9.9820685E+02;  1.0004848E-01; -1.4855875E+03;3;  3.4421988E+00;  0.0000000E+00;  2.4975657E+00;0; -3.0879000E-02;  3.9801816E+04;  0.0000000E+00; -3.3925701E-02;  4.0000000E+04;  0.0000000E+00;  4.0014730E+04; -2.4369201E-02;  0.0000000E+00; -6.5097990E-03;  2.0423253E+03;
  5.6170732E-01;  9.9999998E-03; -3.0001232E-01;5862; -2.5164841E-02;  0.0000000E+00;  3.4895362E-03;  9.9822845E+02;  1.0007981E-01; -1.4677114E+03;3;  3.6217787E+00;  0.0000000E+00;  2.6388259E+00;0; -2.8910609E-02;  3.9779746E+04;  0.0000000E+00; -1.0837103E-01;  4.0000000E+04;  0.0000000E+00;  4.0014125E+04; -2.3279741E-02;  0.0000000E+00; -5.6308680E-03;  1.9836995E+03;
  5.6168193E-01;  9.9999998E-03; -2.9001230E-01;5863; -2.5343522E-02;  0.0000000E+00;  3.4763841E-03;  9.9825653E+02;  1.0007969E-01; -1.4444529E+03;3;  3.5701277E+00;  0.0000000E+00;  2.5945694E+00;0; -2.9732708E-02;  3.9781516E+04;  0.0000000E+00; -5.1352303E-02;  4.0000000E+04;  0.0000000E+00;  4.0014098E+04; -2.3223767E-02;  0.0000000E+00; -6.5089418E-03;  1.9673275E+03;
  5.6167489E-01;  9.9999998E-03; -2.8001231E-01;5864; -2.5528720E-02;  0.0000000E+00;  3.4519290E-03;  9.9830670E+02;  1.0007984E-01; -1.4028738E+03;3;  3.5220640E+00;  0.0000000E+00;  2.5607004E+00;0; -3.0299542E-02;  3.9785918E+04;  0.0000000E+00; -6.1534025E-02;  4.0000000E+04;  0.0000000E+00;  4.0013543E+04; -2.3168299E-02;  0.0000000E+00; -7.1312436E-03;  1.9140002E+03;
  5.7181621E-01;  9.9999998E-03; -3.0001652E-01;5923; -2.5435882E-02;  0.0000000E+00;  3.6703588E-03;  9.9844543E+02;  1.0013096E-01; -1.2879141E+03;3;  3.6997006E+00;  0.0000000E+00;  2.7001262E+00;0; -2.7997220E-02;  3.9758469E+04;  0.0000000E+00; -2.5435036E-01;  4.0000000E+04;  0.0000000E+00;  4.0011637E+04; -2.1913454E-02;  0.0000000E+00; -6.0837665E-03;  1.7138179E+03;
  5.7180786E-01;  9.9999998E-03; -2.9001570E-01;5924; -2.5606509E-02;  0.0000000E+00;  3.6606281E-03;  9.9846033E+02;  1.0013096E-01; -1.2755687E+03;3;  3.6477997E+00;  0.0000000E+00;  2.6560690E+00;0; -2.8934186E-02;  3.9759277E+04;  0.0000000E+00; -2.0449831E-01;  4.0000000E+04;  0.0000000E+00;  4.0011461E+04; -2.1835532E-02;  0.0000000E+00; -7.0986543E-03;  1.7104238E+03;
  5.7181484E-01;  9.9999998E-03; -2.8001490E-01;5925; -2.5786167E-02;  0.0000000E+00;  3.6364563E-03;  9.9849890E+02;  1.0013135E-01; -1.2436190E+03;3;  3.5999503E+00;  0.0000000E+00;  2.6251101E+00;0; -2.9546632E-02;  3.9762715E+04;  0.0000000E+00; -1.9340092E-01;  4.0000000E+04;  0.0000000E+00;  4.0011316E+04; -2.1757578E-02;  0.0000000E+00; -7.7890535E-03;  1.6763800E+03;
  5.8190536E-01;  9.9999998E-03; -3.0002201E-01;5984; -2.5696591E-02;  0.0000000E+00;  3.8438865E-03;  9.9866669E+02;  1.0021381E-01; -1.1046106E+03;3;  3.7754924E+00;  0.0000000E+00;  2.7611074E+00;0; -2.6868243E-02;  3.9713500E+04;  0.0000000E+00; -4.3489110E-01;  4.0000000E+04;  0.0000000E+00;  4.0008781E+04; -2.0276152E-02;  0.0000000E+00; -6.5920921E-03;  1.5027756E+03;
  5.8192074E-01;  9.9999998E-03; -2.9002023E-01;5985; -2.5857033E-02;  0.0000000E+00;  3.8372572E-03;  9.9867279E+02;  1.0021405E-01; -1.0995737E+03;3;  3.7229719E+00;  0.0000000E+00;  2.7177382E+00;0; -2.7928770E-02;  3.9713434E+04;  0.0000000E+00; -4.1316754E-01;  4.0000000E+04;  0.0000000E+00;  4.0008941E+04; -2.0186860E-02;  0.0000000E+00; -7.7419085E-03;  1.5124597E+03;
  5.8194643E-01;  9.9999998E-03; -2.8001836E-01;5986; -2.6029948E-02;  0.0000000E+00;  3.8126432E-03;  9.9870416E+02;  1.0021434E-01; -1.0735992E+03;3;  3.6749957E+00;  0.0000000E+00;  2.6884420E+00;0; -2.8588422E-02;  3.9715980E+04;  0.0000000E+00; -3.7818396E-01;  4.0000000E+04;  0.0000000E+00;  4.0008926E+04; -2.0097319E-02;  0.0000000E+00; -8.4911017E-03;  1.4796537E+03;
  5.9196651E-01;  9.9999998E-03; -3.0002862E-01;6045; -2.5942262E-02;  0.0000000E+00;  4.0093185E-03;  9.9879883E+02;  1.0034749E-01; -9.9513226E+02;3;  3.8482928E+00;  0.0000000E+00;  2.8227336E+00;0; -2.5514979E-02;  3.9620973E+04;  0.0000000E+00; -5.9197193E-01;  4.0000000E+04;  0.0000000E+00;  4.0006770E+04; -1.8340167E-02;  0.0000000E+00; -7.1748132E-03;  1.4716385E+03;
  5.9199446E-01;  9.9999998E-03; -2.9002571E-01;6046; -2.6090294E-02;  0.0000000E+00;  4.0046303E-03;  9.9879926E+02;  1.0034800E-01; -9.9478662E+02;3;  3.7950444E+00;  0.0000000E+00;  2.7788389E+00;0; -2.6702613E-02;  3.9620191E+04;  0.0000000E+00; -5.3912306E-01;  4.0000000E+04;  0.0000000E+00;  4.0006914E+04; -1.8257543E-02;  0.0000000E+00; -8.4450701E-03;  1.4576532E+03;
  5.9202754E-01;  9.9999998E-03; -2.8002244E-01;6047; -2.6255213E-02;  0.0000000E+00;  3.9791735E-03;  9.9882489E+02;  1.0034849E-01; -9.7355261E+02;3;  3.7465436E+00;  0.0000000E+00;  2.7525315E+00;0; -2.7421039E-02;  3.9621891E+04;  0.0000000E+00; -4.5462877E-01;  4.0000000E+04;  0.0000000E+00;  4.0006988E+04; -1.8174412E-02;  0.0000000E+00; -9.2466259E-03;  1.3943468E+03;
  6.0194868E-01;  9.9999998E-03; -3.0003637E-01;6106; -2.6163388E-02;  0.0000000E+00;  4.1651656E-03;  9.9874249E+02;  1.0056060E-01; -1.0417976E+03;3;  3.9189150E+00;  0.0000000E+00;  2.8844836E+00;0; -2.3967240E-02;  3.9451145E+04;  0.0000000E+00; -2.4984543E-01;  4.0000000E+04;  0.0000000E+00;  4.0006371E+04; -1.6122371E-02;  0.0000000E+00; -7.8448700E-03;  1.3995143E+03;
  6.0198569E-01;  9.9999998E-03; -2.9003221E-01;6107; -2.6300848E-02;  0.0000000E+00;  4.1620261E-03;  9.9875342E+02;  1.0056145E-01; -1.0327609E+03;3;  3.8616586E+00;  0.0000000E+00;  2.8418744E+00;0; -2.5291387E-02;  3.9450730E+04;  0.0000000E+00; -2.7445194E-01;  4.0000000E+04;  0.0000000E+00;  4.0006168E+04; -1.6065188E-02;  0.0000000E+00; -9.2262002E-03;  1.4147626E+03;
  6.0202372E-01;  9.9999998E-03; -2.8002724E-01;6108; -2.6458720E-02;  0.0000000E+00;  4.1352636E-03;  9.9877881E+02;  1.0056195E-01; -1.0117244E+03;3;  3.8133194E+00;  0.0000000E+00;  2.8179593E+00;0; -2.6073623E-02;  3.9452102E+04;  0.0000000E+00; -2.4100582E-01;  4.0000000E+04;  0.0000000E+00;  4.0006363E+04; -1.6007569E-02;  0.0000000E+00; -1.0066054E-02;  1.3896152E+03;
  6.1187875E-01;  9.9999998E-03; -3.0004603E-01;6167; -2.6366828E-02;  0.0000000E+00;  4.3112719E-03;  9.9850153E+02;  1.0089329E-01; -1.2414463E+03;3;  3.9821188E+00;  0.0000000E+00;  2.9471955E+00;0; -2.2273758E-02;  3.9173992E+04;  0.0000000E+00;  3.6975509E-01;  4.0000000E+04;  0.0000000E+00;  4.0007168E+04; -1.3658432E-02;  0.0000000E+00; -8.6153261E-03;  1.8397292E+03;
  6.1192644E-01;  9.9999998E-03; -2.9004049E-01;6168; -2.6493438E-02;  0.0000000E+00;  4.3093110E-03;  9.9852393E+02;  1.0089496E-01; -1.2228789E+03;3;  3.9273207E+00;  0.0000000E+00;  2.9085374E+00;0; -2.3740161E-02;  3.9174332E+04;  0.0000000E+00;  1.8798439E-01;  4.0000000E+04;  0.0000000E+00;  4.0006852E+04; -1.3645476E-02;  0.0000000E+00; -1.0094686E-02;  1.7610173E+03;
  6.1197037E-01;  9.9999998E-03; -2.8003368E-01;6169; -2.6643394E-02;  0.0000000E+00;  4.2815008E-03;  9.9856006E+02;  1.0089624E-01; -1.1929539E+03;3;  3.8752797E+00;  0.0000000E+00;  2.8847141E+00;0; -2.4597649E-02;  3.9175684E+04;  0.0000000E+00;  1.1366539E-01;  4.0000000E+04;  0.0000000E+00;  4.0006551E+04; -1.3633577E-02;  0.0000000E+00; -1.0964071E-02;  1.7061696E+03;
  6.2177485E-01;  9.9999998E-03; -3.0005899E-01;6228; -2.6560776E-02;  0.0000000E+00;  4.4466490E-03;  9.9816003E+02;  1.0139926E-01; -1.5244012E+03;3;  4.0415721E+00;  0.0000000E+00;  3.0150719E+00;0; -2.0505425E-02;  3.8759543E+04;  0.0000000E+00;  8.3289504E-01;  4.0000000E+04;  0.0000000E+00;  4.0007797E+04; -1.1022510E-02;  0.0000000E+00; -9.4829137E-03;  2.5984873E+03;
  6.2183106E-01;  9.9999998E-03; -2.9005224E-01;6229; -2.6673198E-02;  0.0000000E+00;  4.4459933E-03;  9.9820825E+02;  1.0140163E-01; -1.4844518E+03;3;  3.9818628E+00;  0.0000000E+00;  2.9743078E+00;0; -2.2130445E-02;  3.8760832E+04;  0.0000000E+00;  5.5521530E-01;  4.0000000E+04;  0.0000000E+00;  4.0007188E+04; -1.1072557E-02;  0.0000000E+00; -1.1057887E-02;  2.3723174E+03;
  6.2187970E-01;  9.9999998E-03; -2.8004366E-01;6230; -2.6813474E-02;  0.0000000E+00;  4.4162180E-03;  9.9826038E+02;  1.0140407E-01; -1.4412430E+03;3;  3.9333265E+00;  0.0000000E+00;  2.9548233E+00;0; -2.3049351E-02;  3.8763133E+04;  0.0000000E+00;  4.1087937E-01;  4.0000000E+04;  0.0000000E+00;  4.0006641E+04; -1.1126403E-02;  0.0000000E+00; -1.1922947E-02;  2.2329009E+03;
  6.3161951E-01;  9.9999998E-03; -3.0007726E-01;6289; -2.6751056E-02;  0.0000000E+00;  4.5691184E-03;  9.9788190E+02;  1.0213719E-01; -1.7548145E+03;3;  4.0921750E+00;  0.0000000E+00;  3.0855191E+00;0; -1.8768782E-02;  3.8182965E+04;  0.0000000E+00;  6.7642695E-01;  4.0000000E+04;  0.0000000E+00;  4.0006250E+04; -8.3388854E-03;  0.0000000E+00; -1.0429896E-02;  2.9224214E+03;
  6.3168484E-01;  9.9999998E-03; -2.9006949E-01;6290; -2.6842671E-02;  0.0000000E+00;  4.5703426E-03;  9.9795953E+02;  1.0214166E-01; -1.6904706E+03;3;  4.0397639E+00;  0.0000000E+00;  3.0483496E+00;0; -2.0558957E-02;  3.8185469E+04;  0.0000000E+00;  4.5747900E-01;  4.0000000E+04;  0.0000000E+00;  4.0005336E+04; -8.4652063E-03;  0.0000000E+00; -1.2093751E-02;  2.7051968E+03;
  6.3173878E-01;  9.9999998E-03; -2.8005955E-01;6291; -2.6970761E-02;  0.0000000E+00;  4.5378152E-03;  9.9803491E+02;  1.0214505E-01; -1.6280526E+03;3;  3.9817047E+00;  0.0000000E+00;  3.0287559E+00;0; -2.1524552E-02;  3.8189160E+04;  0.0000000E+00;  3.8367331E-01;  4.0000000E+04;  0.0000000E+00;  4.0004180E+04; -8.6012874E-03;  0.0000000E+00; -1.2923265E-02;  2.5509387E+03;
  6.4144963E-01;  9.9999998E-03; -3.0010274E-01;6350; -2.6925551E-02;  0.0000000E+00;  4.6761921E-03;  9.9783923E+02;  1.0316130E-01; -1.7901715E+03;3;  4.1361289E+00;  0.0000000E+00;  3.1575208E+00;0; -1.7178237E-02;  3.7430234E+04;  0.0000000E+00; -9.1298157E-01;  4.0000000E+04;  0.0000000E+00;  4.0000488E+04; -5.7566501E-03;  0.0000000E+00; -1.1421587E-02;  3.1830364E+03;
  6.4151752E-01;  9.9999998E-03; -2.9009426E-01;6351; -2.6994167E-02;  0.0000000E+00;  4.6813940E-03;  9.9794366E+02;  1.0316780E-01; -1.7036554E+03;3;  4.0811138E+00;  0.0000000E+00;  3.1229374E+00;0; -1.9160083E-02;  3.7433520E+04;  0.0000000E+00; -7.4069762E-01;  4.0000000E+04;  0.0000000E+00;  3.9998949E+04; -5.9659458E-03;  0.0000000E+00; -1.3194136E-02;  2.9022327E+03;
  6.4157259E-01;  9.9999998E-03; -2.8008363E-01;6352; -2.7108310E-02;  0.0000000E+00;  4.6465234E-03;  9.9804712E+02;  1.0317304E-01; -1.6179294E+03;3;  4.0358195E+00;  0.0000000E+00;  3.1062872E+00;0; -2.0163056E-02;  3.7438086E+04;  0.0000000E+00; -4.2696303E-01;  4.0000000E+04;  0.0000000E+00;  3.9997441E+04; -6.1958786E-03;  0.0000000E+00; -1.3967176E-02;  2.5616589E+03;
  6.5133548E-01;  9.9999998E-03; -3.0013594E-01;6411; -2.7025651E-02;  0.0000000E+00;  4.7681364E-03;  9.9806134E+02;  1.0450064E-01; -1.6061272E+03;3;  4.1932840E+00;  0.0000000E+00;  3.2400167E+00;0; -1.5908506E-02;  3.6499570E+04;  0.0000000E+00; -4.3203497E+00;  4.0000000E+04;  0.0000000E+00;  3.9989738E+04; -3.4417212E-03;  0.0000000E+00; -1.2466785E-02;  7.1739507E+03;
  6.5139019E-01;  9.9999998E-03; -2.9012704E-01;6412; -2.7090667E-02;  0.0000000E+00;  4.7781714E-03;  9.9818457E+02;  1.0450911E-01; -1.5040560E+03;3;  4.1390009E+00;  0.0000000E+00;  3.2084317E+00;0; -1.8074457E-02;  3.6502727E+04;  0.0000000E+00; -3.4052994E+00;  4.0000000E+04;  0.0000000E+00;  3.9987594E+04; -3.7337402E-03;  0.0000000E+00; -1.4340717E-02;  5.7855347E+03;
  6.5143466E-01;  9.9999998E-03; -2.8011629E-01;6413; -2.7201235E-02;  0.0000000E+00;  4.7410303E-03;  9.9830878E+02;  1.0451498E-01; -1.4011454E+03;3;  4.0885935E+00;  0.0000000E+00;  3.1873362E+00;0; -1.9092921E-02;  3.6508266E+04;  0.0000000E+00; -2.3202116E+00;  4.0000000E+04;  0.0000000E+00;  3.9985746E+04; -4.0624184E-03;  0.0000000E+00; -1.5030503E-02;  4.1833130E+03;
  6.6139221E-01;  9.9999998E-03; -3.0017582E-01;6472; -2.6954783E-02;  0.0000000E+00;  4.8610712E-03;  9.9839136E+02;  1.0615193E-01; -1.3327522E+03;3;  4.2871165E+00;  0.0000000E+00;  3.3602064E+00;0; -1.5399605E-02;  3.5402059E+04;  0.0000000E+00; -8.8652687E+00;  4.0000000E+04;  0.0000000E+00;  3.9975410E+04; -1.5528700E-03;  0.0000000E+00; -1.3846735E-02;  1.4256275E+04;
  6.6142237E-01;  9.9999998E-03; -2.9016656E-01;6473; -2.7075037E-02;  0.0000000E+00;  4.8650177E-03;  9.9851538E+02;  1.0616234E-01; -1.2299897E+03;3;  4.2260957E+00;  0.0000000E+00;  3.3193347E+00;0; -1.7529456E-02;  3.5404148E+04;  0.0000000E+00; -7.0525465E+00;  4.0000000E+04;  0.0000000E+00;  3.9973309E+04; -1.9247741E-03;  0.0000000E+00; -1.5604681E-02;  1.1406754E+04;
  6.6145217E-01;  9.9999998E-03; -2.8015614E-01;6474; -2.7209630E-02;  0.0000000E+00;  4.8235641E-03;  9.9865137E+02;  1.0616936E-01; -1.1173015E+03;3;  4.1674218E+00;  0.0000000E+00;  3.2896721E+00;0; -1.8487487E-02;  3.5410098E+04;  0.0000000E+00; -4.9663720E+00;  4.0000000E+04;  0.0000000E+00;  3.9971004E+04; -2.3481851E-03;  0.0000000E+00; -1.6139302E-02;  8.1204399E+03;
  6.7171341E-01;  9.9999998E-03; -3.0022073E-01;6533; -2.6675763E-02;  0.0000000E+00;  4.9673328E-03;  9.9858771E+02;  1.0809884E-01; -1.1700408E+03;3;  4.3999276E+00;  0.0000000E+00;  3.5214262E+00;0; -1.6075062E-02;  3.4157934E+04;  0.0000000E+00; -1.2685081E+01;  4.0000000E+04;  0.0000000E+00;  3.9960371E+04; -2.6262671E-04;  0.0000000E+00; -1.5812434E-02;  2.0865494E+04;
  6.7167509E-01;  9.9999998E-03; -2.9021093E-01;6534; -2.6917150E-02;  0.0000000E+00;  4.9534580E-03;  9.9870300E+02;  1.0810918E-01; -1.0745374E+03;3;  4.3436022E+00;  0.0000000E+00;  3.4606521E+00;0; -1.7911002E-02;  3.4159082E+04;  0.0000000E+00; -1.0440578E+01;  4.0000000E+04;  0.0000000E+00;  3.9958348E+04; -7.1358093E-04;  0.0000000E+00; -1.7197421E-02;  1.7263844E+04;
  6.7165619E-01;  9.9999998E-03; -2.8020069E-01;6535; -2.7119732E-02;  0.0000000E+00;  4.8985607E-03;  9.9883478E+02;  1.0811486E-01; -9.6535529E+02;3;  4.2757220E+00;  0.0000000E+00;  3.4210682E+00;0; -1.8585732E-02;  3.4164855E+04;  0.0000000E+00; -7.5971141E+00;  4.0000000E+04;  0.0000000E+00;  3.9955562E+04; -1.2225772E-03;  0.0000000E+00; -1.7363155E-02;  1.2655330E+04;
  6.8235397E-01;  9.9999998E-03; -3.0027097E-01;6594; -2.6161779E-02;  0.0000000E+00;  5.0465707E-03;  9.9856177E+02;  1.1036925E-01; -1.1915710E+03;3;  4.2234592E+00;  0.0000000E+00;  3.8982155E+00;0; -1.7384470E-02;  3.2774273E+04;  0.0000000E+00; -1.4316854E+01;  4.0000000E+04;  0.0000000E+00;  3.9944664E+04;  2.4237898E-04;  0.0000000E+00; -1.7626848E-02;  2.4426311E+04;
  6.8220794E-01;  9.9999998E-03; -2.9025981E-01;6595; -2.6598057E-02;  0.0000000E+00;  5.0113001E-03;  9.9865948E+02;  1.1036934E-01; -1.1105857E+03;3;  4.3764300E+00;  0.0000000E+00;  3.7173357E+00;0; -1.8851938E-02;  3.2779535E+04;  0.0000000E+00; -1.2500104E+01;  4.0000000E+04;  0.0000000E+00;  3.9943223E+04; -2.6546651E-04;  0.0000000E+00; -1.8586472E-02;  2.1459736E+04;
  6.8208432E-01;  9.9999998E-03; -2.8024906E-01;6596; -2.6918143E-02;  0.0000000E+00;  4.9451035E-03;  9.9877838E+02;  1.1036328E-01; -1.0120700E+03;3;  4.3678408E+00;  0.0000000E+00;  3.6471028E+00;0; -1.9218700E-02;  3.2791117E+04;  0.0000000E+00; -9.6333790E+00;  4.0000000E+04;  0.0000000E+00;  3.9940750E+04; -8.2743930E-04;  0.0000000E+00; -1.8391261E-02;  1.6665354E+04;
  6.9416183E-01;  9.9999998E-03; -3.0033040E-01;6655; -2.5770091E-02;  0.0000000E+00;  4.9830447E-03;  9.9846564E+02;  1.1312354E-01; -1.2711736E+03;3;  4.0081429E+00;  0.0000000E+00;  4.3143783E+00;0; -1.7879475E-02;  3.1207326E+04;  0.0000000E+00; -1.0030609E+01;  4.0000000E+04;  0.0000000E+00;  3.9926895E+04; -3.8015484E-04;  0.0000000E+00; -1.7499320E-02;  1.8271588E+04;
  6.9392562E-01;  9.9999998E-03; -2.9031718E-01;6656; -2.6235720E-02;  0.0000000E+00;  4.9450346E-03;  9.9849585E+02;  1.1310323E-01; -1.2461375E+03;3;  4.2061005E+00;  0.0000000E+00;  4.1282811E+00;0; -1.9162308E-02;  3.1218566E+04;  0.0000000E+00; -9.4851255E+00;  4.0000000E+04;  0.0000000E+00;  3.9926270E+04; -8.1401668E-04;  0.0000000E+00; -1.8348292E-02;  1.7396090E+04;
  6.9365901E-01;  9.9999998E-03; -2.8030464E-01;6657; -2.6610514E-02;  0.0000000E+00;  4.8747631E-03;  9.9855792E+02;  1.1306655E-01; -1.1947314E+03;3;  4.3160000E+00;  0.0000000E+00;  4.0146489E+00;0; -1.9344799E-02;  3.1241463E+04;  0.0000000E+00; -7.9137230E+00;  4.0000000E+04;  0.0000000E+00;  3.9924805E+04; -1.3133786E-03;  0.0000000E+00; -1.8031420E-02;  1.4636153E+04;
  7.0655382E-01;  9.9999998E-03; -3.0040154E-01;6716; -2.5441630E-02;  0.0000000E+00;  4.8110113E-03;  9.9869666E+02;  1.1638054E-01; -1.0797717E+03;3;  3.8644285E+00;  0.0000000E+00;  4.6293445E+00;0; -1.8201277E-02;  2.9521410E+04;  0.0000000E+00; -7.5821185E+00;  4.0000000E+04;  0.0000000E+00;  3.9903098E+04; -1.9819634E-03;  0.0000000E+00; -1.6219314E-02;  1.5129484E+04;
  7.0637506E-01;  9.9999998E-03; -2.9038680E-01;6717; -2.5944570E-02;  0.0000000E+00;  4.7860653E-03;  9.9866870E+02;  1.1636343E-01; -1.1029315E+03;3;  4.0532284E+00;  0.0000000E+00;  4.4842367E+00;0; -1.9479301E-02;  2.9526354E+04;  0.0000000E+00; -7.1707315E+00;  4.0000000E+04;  0.0000000E+00;  3.9903445E+04; -2.2527359E-03;  0.0000000E+00; -1.7226566E-02;  1.4426661E+04;
  7.0614183E-01;  9.9999998E-03; -2.8037262E-01;6718; -2.6315017E-02;  0.0000000E+00;  4.6964083E-03;  9.9864172E+02;  1.1632180E-01; -1.1253013E+03;3;  4.1796832E+00;  0.0000000E+00;  4.3946033E+00;0; -1.9170994E-02;  2.9544189E+04;  0.0000000E+00; -5.9393954E+00;  4.0000000E+04;  0.0000000E+00;  3.9903102E+04; -2.5732832E-03;  0.0000000E+00; -1.6597711E-02;  1.2113433E+04;
  7.1799409E-01;  9.9999998E-03; -3.0047169E-01;6777; -2.5268110E-02;  0.0000000E+00;  4.5937034E-03;  9.9883441E+02;  1.1970387E-01; -9.6565149E+02;3;  3.7762263E+00;  0.0000000E+00;  4.8278904E+00;0; -1.8095383E-02;  2.7932262E+04;  0.0000000E+00; -9.1257315E+00;  4.0000000E+04;  0.0000000E+00;  3.9881520E+04; -3.3581457E-03;  0.0000000E+00; -1.4737237E-02;  1.8844293E+04;
  7.1800905E-01;  9.9999998E-03; -2.9045662E-01;6778; -2.5819162E-02;  0.0000000E+00;  4.5919889E-03;  9.9882428E+02;  1.1973148E-01; -9.7404633E+02;3;  3.9626932E+00;  0.0000000E+00;  4.7085037E+00;0; -1.9530676E-02;  2.7917211E+04;  0.0000000E+00; -8.2990665E+00;  4.0000000E+04;  0.0000000E+00;  3.9881484E+04; -3.4083896E-03;  0.0000000E+00; -1.6122287E-02;  1.7328182E+04;
  7.1799493E-01;  9.9999998E-03; -2.8044227E-01;6779; -2.6192781E-02;  0.0000000E+00;  4.4953087E-03;  9.9878839E+02;  1.1974011E-01; -1.0037739E+03;3;  4.0851178E+00;  0.0000000E+00;  4.6523643E+00;0; -1.8880626E-02;  2.7910027E+04;  0.0000000E+00; -6.6192245E+00;  4.0000000E+04;  0.0000000E+00;  3.9881215E+04; -3.4977803E-03;  0.0000000E+00; -1.5382846E-02;  1.4081047E+04;
  7.2923046E-01;  9.9999998E-03; -3.0053866E-01;6838; -2.5477534E-02;  0.0000000E+00;  4.3802750E-03;  9.9841083E+02;  1.2316226E-01; -1.3166042E+03;3;  3.7330256E+00;  0.0000000E+00;  4.9068351E+00;0; -1.7247582E-02;  2.6377402E+04;  0.0000000E+00; -7.9321256E+00;  4.0000000E+04;  0.0000000E+00;  3.9866711E+04; -3.1054425E-03;  0.0000000E+00; -1.4142139E-02;  1.7137629E+04;
  7.2931999E-01;  9.9999998E-03; -2.9052243E-01;6839; -2.5979765E-02;  0.0000000E+00;  4.4034147E-03;  9.9843811E+02;  1.2320507E-01; -1.2939875E+03;3;  3.9269331E+00;  0.0000000E+00;  4.8067355E+00;0; -1.8734297E-02;  2.6359229E+04;  0.0000000E+00; -7.4263391E+00;  4.0000000E+04;  0.0000000E+00;  3.9866223E+04; -2.8305091E-03;  0.0000000E+00; -1.5903788E-02;  1.6163531E+04;
  7.2937930E-01;  9.9999998E-03; -2.8050649E-01;6840; -2.6304575E-02;  0.0000000E+00;  4.3091783E-03;  9.9842621E+02;  1.2323152E-01; -1.3038639E+03;3;  4.0515971E+00;  0.0000000E+00;  4.7952266E+00;0; -1.7708018E-02;  2.6346742E+04;  0.0000000E+00; -6.0816422E+00;  4.0000000E+04;  0.0000000E+00;  3.9866035E+04; -2.6091051E-03;  0.0000000E+00; -1.5098914E-02;  1.3472702E+04;
  7.4131888E-01;  9.9999998E-03; -3.0060795E-01;6899; -2.5981784E-02;  0.0000000E+00;  4.1608168E-03;  9.9741187E+02;  1.2707587E-01; -2.1442346E+03;3;  3.7118449E+00;  0.0000000E+00;  4.8833709E+00;0; -1.3886985E-02;  2.4738936E+04;  0.0000000E+00; -1.1141607E+00;  4.0000000E+04;  0.0000000E+00;  3.9857316E+04;  1.0155551E-03;  0.0000000E+00; -1.4902540E-02;  4.1875752E+03;
  7.4138504E-01;  9.9999998E-03; -2.9058930E-01;6900; -2.6350461E-02;  0.0000000E+00;  4.2041391E-03;  9.9747375E+02;  1.2709706E-01; -2.0929275E+03;3;  3.9139986E+00;  0.0000000E+00;  4.8389659E+00;0; -1.5284364E-02;  2.4732797E+04;  0.0000000E+00; -2.0942731E+00;  4.0000000E+04;  0.0000000E+00;  3.9856363E+04;  1.6174235E-03;  0.0000000E+00; -1.6901787E-02;  5.8599585E+03;
  7.4141377E-01;  9.9999998E-03; -2.8057048E-01;6901; -2.6581159E-02;  0.0000000E+00;  4.1095163E-03;  9.9751495E+02;  1.2710489E-01; -2.0588049E+03;3;  4.0570507E+00;  0.0000000E+00;  4.8436065E+00;0; -1.3793278E-02;  2.4731119E+04;  0.0000000E+00; -2.3672104E+00;  4.0000000E+04;  0.0000000E+00;  3.9856012E+04;  2.1211596E-03;  0.0000000E+00; -1.5914438E-02;  6.3759204E+03;
  7.5382507E-01;  9.9999998E-03; -3.0068058E-01;6960; -2.6466489E-02;  0.0000000E+00;  3.9006637E-03;  9.9627979E+02;  1.3126996E-01; -3.0821335E+03;3;  3.6894441E+00;  0.0000000E+00;  4.8160081E+00;0; -4.9436176E-03;  2.3139424E+04;  0.0000000E+00;  7.8573313E+00;  4.0000000E+04;  0.0000000E+00;  3.9848348E+04;  1.1853485E-02;  0.0000000E+00; -1.6797103E-02;  1.8472199E+04;
  7.5394726E-01;  9.9999998E-03; -2.9065993E-01;6961; -2.6755949E-02;  0.0000000E+00;  3.9570848E-03;  9.9638342E+02;  1.3130464E-01; -2.9962593E+03;3;  3.9076777E+00;  0.0000000E+00;  4.8042917E+00;0; -6.3452497E-03;  2.3131631E+04;  0.0000000E+00;  4.8270135E+00;  4.0000000E+04;  0.0000000E+00;  3.9846879E+04;  1.2698051E-02;  0.0000000E+00; -1.9043300E-02;  1.1856789E+04;
  7.5404269E-01;  9.9999998E-03; -2.8063843E-01;6962; -2.6911313E-02;  0.0000000E+00;  3.8585593E-03;  9.9649438E+02;  1.3132791E-01; -2.9043113E+03;3;  4.0407767E+00;  0.0000000E+00;  4.8784027E+00;0; -4.4369968E-03;  2.3128160E+04;  0.0000000E+00;  2.5342965E+00;  4.0000000E+04;  0.0000000E+00;  3.9846254E+04;  1.3410802E-02;  0.0000000E+00; -1.7847799E-02;  7.1104219E+03;
  7.6800489E-01;  9.9999998E-03; -3.0077112E-01;7021; -2.6905783E-02;  0.0000000E+00;  3.5311838E-03;  9.9601489E+02;  1.3613868E-01; -3.3015837E+03;3;  3.6326540E+00;  0.0000000E+00;  4.6420574E+00;0;  1.4416162E-02;  2.1511207E+04;  0.0000000E+00;  1.1362298E+01;  4.0000000E+04;  0.0000000E+00;  3.9827449E+04;  3.4680124E-02;  0.0000000E+00; -2.0263962E-02;  3.0102182E+04;
  7.6798332E-01;  9.9999998E-03; -2.9074761E-01;7022; -2.7162662E-02;  0.0000000E+00;  3.5989827E-03;  9.9612134E+02;  1.3614008E-01; -3.2133887E+03;3;  3.8581510E+00;  0.0000000E+00;  4.7088828E+00;0;  1.2390479E-02;  2.1515379E+04;  0.0000000E+00;  7.7549868E+00;  4.0000000E+04;  0.0000000E+00;  3.9826434E+04;  3.5115387E-02;  0.0000000E+00; -2.2724908E-02;  2.1159551E+04;
  7.6795137E-01;  9.9999998E-03; -2.8072339E-01;7023; -2.7272800E-02;  0.0000000E+00;  3.5038914E-03;  9.9627222E+02;  1.3612975E-01; -3.0884045E+03;3;  4.0190072E+00;  0.0000000E+00;  4.8227944E+00;0;  1.4011199E-02;  2.1525162E+04;  0.0000000E+00;  4.7188940E+00;  4.0000000E+04;  0.0000000E+00;  3.9825547E+04;  3.5417650E-02;  0.0000000E+00; -2.1406451E-02;  1.3598932E+04;
  7.8365833E-01;  9.9999998E-03; -3.0088210E-01;7082; -2.7494138E-02;  0.0000000E+00;  3.0417901E-03;  9.9687958E+02;  1.4183947E-01; -2.5852090E+03;3;  3.5466189E+00;  0.0000000E+00;  4.3008914E+00;0;  4.8329145E-02;  1.9856418E+04;  0.0000000E+00;  7.8730702E+00;  4.0000000E+04;  0.0000000E+00;  3.9791199E+04;  7.4727759E-02;  0.0000000E+00; -2.6398614E-02;  2.6682912E+04;
  7.8337866E-01;  9.9999998E-03; -2.9085556E-01;7083; -2.7656604E-02;  0.0000000E+00;  3.0988981E-03;  9.9698969E+02;  1.4175479E-01; -2.4940017E+03;3;  3.7718108E+00;  0.0000000E+00;  4.4640870E+00;0;  4.4694789E-02;  1.9884674E+04;  0.0000000E+00;  5.3440466E+00;  4.0000000E+04;  0.0000000E+00;  3.9790809E+04;  7.3438346E-02;  0.0000000E+00; -2.8743556E-02;  1.8919250E+04;
  7.8307438E-01;  9.9999998E-03; -2.8082886E-01;7084; -2.7690453E-02;  0.0000000E+00;  3.0061142E-03;  9.9712585E+02;  1.4165220E-01; -2.3811655E+03;3;  3.9903209E+00;  0.0000000E+00;  4.5838804E+00;0;  4.4817008E-02;  1.9918945E+04;  0.0000000E+00;  3.2536907E+00;  4.0000000E+04;  0.0000000E+00;  3.9790895E+04;  7.2045296E-02;  0.0000000E+00; -2.7228286E-02;  1.2331858E+04;
  7.9901963E-01;  9.9999998E-03; -3.0099085E-01;7143; -2.8029252E-02;  0.0000000E+00;  2.4223167E-03;  9.9750287E+02;  1.4782649E-01; -2.0688286E+03;3;  3.4080920E+00;  0.0000000E+00;  3.8423645E+00;0;  9.4479293E-02;  1.8302473E+04;  0.0000000E+00;  7.0326033E+00;  4.0000000E+04;  0.0000000E+00;  3.9757504E+04;  1.2827614E-01;  0.0000000E+00; -3.3796843E-02;  2.7638117E+04;
  7.9893148E-01;  9.9999998E-03; -2.9096520E-01;7144; -2.8134417E-02;  0.0000000E+00;  2.4275682E-03;  9.9778369E+02;  1.4780945E-01; -1.8361439E+03;3;  3.6992841E+00;  0.0000000E+00;  4.0067816E+00;0;  8.9648843E-02;  1.8316676E+04;  0.0000000E+00;  3.9566102E+00;  4.0000000E+04;  0.0000000E+00;  3.9754852E+04;  1.2580608E-01;  0.0000000E+00; -3.6157232E-02;  1.7498729E+04;
  7.9869533E-01;  9.9999998E-03; -2.8093928E-01;7145; -2.8085023E-02;  0.0000000E+00;  2.3005544E-03;  9.9803955E+02;  1.4771856E-01; -1.6241995E+03;3;  3.9249599E+00;  0.0000000E+00;  4.1446385E+00;0;  8.8288128E-02;  1.8349061E+04;  0.0000000E+00;  1.8889861E+00;  4.0000000E+04;  0.0000000E+00;  3.9753504E+04;  1.2275141E-01;  0.0000000E+00; -3.4463275E-02;  1.0033320E+04;
  8.1323195E-01;  9.9999998E-03; -3.0108207E-01;7204; -2.8611656E-02;  0.0000000E+00;  1.7700881E-03;  9.9730963E+02;  1.5358791E-01; -2.2289219E+03;3;  3.2959883E+00;  0.0000000E+00;  3.4443486E+00;0;  1.4349997E-01;  1.6947508E+04;  0.0000000E+00;  5.7173858E+00;  4.0000000E+04;  0.0000000E+00;  3.9734203E+04;  1.8544823E-01;  0.0000000E+00; -4.1948255E-02;  2.1616307E+04;
  8.1315005E-01;  9.9999998E-03; -2.9105487E-01;7205; -2.8528441E-02;  0.0000000E+00;  1.6894982E-03;  9.9766412E+02;  1.5355936E-01; -1.9352516E+03;3;  3.5732484E+00;  0.0000000E+00;  3.5656004E+00;0;  1.3708329E-01;  1.6964902E+04;  0.0000000E+00;  3.5646548E+00;  4.0000000E+04;  0.0000000E+00;  3.9730586E+04;  1.8086049E-01;  0.0000000E+00; -4.3777198E-02;  1.4341836E+04;
  8.1298989E-01;  9.9999998E-03; -2.8102836E-01;7206; -2.8359167E-02;  0.0000000E+00;  1.5094534E-03;  9.9795709E+02;  1.5350109E-01; -1.6924934E+03;3;  3.8733454E+00;  0.0000000E+00;  3.6688528E+00;0;  1.3394386E-01;  1.6988068E+04;  0.0000000E+00;  2.1944640E+00;  4.0000000E+04;  0.0000000E+00;  3.9728320E+04;  1.7586437E-01;  0.0000000E+00; -4.1920509E-02;  9.3662500E+03;
  8.2657814E-01;  9.9999998E-03; -2.8110412E-01;7267; -2.8569046E-02;  0.0000000E+00;  6.1256165E-04;  9.9708759E+02;  1.5926766E-01; -2.4128667E+03;3;  3.7658556E+00;  0.0000000E+00;  3.1663704E+00;0;  1.7613955E-01;  1.5760280E+04;  0.0000000E+00;  2.0669975E+00;  4.0000000E+04;  0.0000000E+00;  3.9711270E+04;  2.2448228E-01;  0.0000000E+00; -4.8342735E-02;  6.7711982E+03;
  8.2674176E-01;  9.9999998E-03; -2.9113251E-01;7266; -2.8873157E-02;  0.0000000E+00;  8.3474390E-04;  9.9672369E+02;  1.5933076E-01; -2.7143394E+03;3;  3.4587700E+00;  0.0000000E+00;  3.0498409E+00;0;  1.8176116E-01;  1.5736412E+04;  0.0000000E+00;  2.7016022E+00;  4.0000000E+04;  0.0000000E+00;  3.9715465E+04;  2.3181051E-01;  0.0000000E+00; -5.0049353E-02;  8.5861475E+03;
  8.2689816E-01;  9.9999998E-03; -3.0116251E-01;7265; -2.9178875E-02;  0.0000000E+00;  1.0036728E-03;  9.9632129E+02;  1.5939461E-01; -3.0477615E+03;3;  3.0519428E+00;  0.0000000E+00;  2.9258673E+00;0;  1.9001019E-01;  1.5712536E+04;  0.0000000E+00;  3.7156832E+00;  4.0000000E+04;  0.0000000E+00;  3.9719957E+04;  2.3875922E-01;  0.0000000E+00; -4.8749033E-02;  1.1506159E+04;
  8.4277862E-01;  9.9999998E-03; -3.0125448E-01;7326; -2.8559767E-02;  0.0000000E+00;  5.2010080E-05;  9.9549622E+02;  1.6614172E-01; -3.7312954E+03;3;  3.7629902E-01;  0.0000000E+00;  2.5043361E+00;0;  2.2969213E-01;  1.4460926E+04;  0.0000000E+00;  3.7253255E-01;  4.0000000E+04;  0.0000000E+00;  3.9699258E+04;  2.8450748E-01;  0.0000000E+00; -5.4815352E-02;  8.6755713E+03;
  8.4266788E-01;  9.9999998E-03; -2.9122227E-01;7327; -2.8851597E-02;  0.0000000E+00; -3.2442127E-04;  9.9592175E+02;  1.6607633E-01; -3.3787627E+03;3;  2.8561246E+00;  0.0000000E+00;  2.5964658E+00;0;  2.2162488E-01;  1.4482142E+04;  0.0000000E+00;  6.6418338E-01;  4.0000000E+04;  0.0000000E+00;  3.9693031E+04;  2.7567393E-01;  0.0000000E+00; -5.4049049E-02;  6.6140122E+03;
  8.4243995E-01;  9.9999998E-03; -2.8119200E-01;7328; -2.8417112E-02;  0.0000000E+00; -6.2381331E-04;  9.9630835E+02;  1.6597450E-01; -3.0584761E+03;3;  3.3692386E+00;  0.0000000E+00;  2.7186112E+00;0;  2.1346387E-01;  1.4510415E+04;  0.0000000E+00;  1.1525254E+00;  4.0000000E+04;  0.0000000E+00;  3.9686066E+04;  2.6582912E-01;  0.0000000E+00; -5.2365236E-02;  4.5846558E+03;
  8.5911673E-01;  9.9999998E-03; -2.8130275E-01;7389; -9.8032756E-03;  0.0000000E+00; -3.5230501E-03;  9.9613007E+02;  1.7360236E-01; -3.2061736E+03;3;  1.8059440E+00;  0.0000000E+00;  2.8134334E+00;0;  2.5590971E-01;  1.3295810E+04;  0.0000000E+00; -2.8916872E-01;  4.0000000E+04;  0.0000000E+00;  3.9641293E+04;  2.8423998E-01;  0.0000000E+00; -2.8330263E-02;  7.8765928E+03;
  8.5913384E-01;  9.9999998E-03; -2.9133379E-01;7388; -6.9976673E-03;  0.0000000E+00; -2.5643015E-03;  9.9574597E+02;  1.7363393E-01; -3.5243862E+03;3;  1.1049098E+00;  0.0000000E+00;  2.7896984E+00;0;  2.6090071E-01;  1.3282281E+04;  0.0000000E+00; -1.5051397E+00;  4.0000000E+04;  0.0000000E+00;  3.9648883E+04;  2.9678079E-01;  0.0000000E+00; -3.5880089E-02;  1.4324417E+04;
  8.5906237E-01;  9.9999998E-03; -3.0136824E-01;7387; -2.4898620E-03;  0.0000000E+00; -1.8637917E-03;  9.9533392E+02;  1.7362770E-01; -3.8657585E+03;3;  5.9194165E-01;  0.0000000E+00;  2.7008348E+00;0;  2.6878324E-01;  1.3275438E+04;  0.0000000E+00; -2.7880528E+00;  4.0000000E+04;  0.0000000E+00;  3.9655184E+04;  3.0851299E-01;  0.0000000E+00; -3.9729733E-02;  2.0642160E+04;
  8.7779450E-01;  9.9999998E-03; -2.8142706E-01;7450;  7.5659021E-03;  0.0000000E+00; -6.3108667E-03;  9.9661487E+02;  1.8255009E-01; -2.8045049E+03;3; -8.3206332E-01;  0.0000000E+00;  2.7268498E+00;0;  2.6218626E-01;  1.2076751E+04;  0.0000000E+00; -1.1888995E+00;  4.0000000E+04;  0.0000000E+00;  3.9586086E+04;  2.5826234E-01;  0.0000000E+00;  3.9239335E-03;  1.0834834E+04;
  8.7761956E-01;  9.9999998E-03; -2.9146042E-01;7449;  9.9104382E-03;  0.0000000E+00; -4.8493822E-03;  9.9627594E+02;  1.8250047E-01; -3.0852861E+03;3; -2.0696599E+00;  0.0000000E+00;  2.4940801E+00;0;  2.6386613E-01;  1.2077485E+04;  0.0000000E+00; -2.4525673E+00;  4.0000000E+04;  0.0000000E+00;  3.9592684E+04;  2.7138636E-01;  0.0000000E+00; -7.5202170E-03;  1.8026988E+04;
  8.7733048E-01;  9.9999998E-03; -3.0149740E-01;7448;  1.3041390E-02;  0.0000000E+00; -3.8050653E-03;  9.9591223E+02;  1.8238738E-01; -3.3866101E+03;3; -3.3899488E+00;  0.0000000E+00;  2.3896997E+00;0;  2.6843959E-01;  1.2086810E+04;  0.0000000E+00; -4.0645857E+00;  4.0000000E+04;  0.0000000E+00;  3.9599012E+04;  2.8388408E-01;  0.0000000E+00; -1.5444491E-02;  2.5913643E+04;
  8.9626944E-01;  9.9999998E-03; -3.0162022E-01;7509;  1.7924475E-02;  0.0000000E+00; -3.8391633E-03;  9.9690216E+02;  1.9193977E-01; -2.5664854E+03;3; -5.9721751E+00;  0.0000000E+00;  1.6064727E+00;0;  2.0075613E-01;  1.0965031E+04;  0.0000000E+00; -5.6371689E+00;  4.0000000E+04;  0.0000000E+00;  3.9549949E+04;  2.0788266E-01;  0.0000000E+00; -7.1265264E-03;  3.3359059E+04;
  8.9661348E-01;  9.9999998E-03; -2.9157716E-01;7510;  1.4420887E-02;  0.0000000E+00; -4.7739404E-03;  9.9719232E+02;  1.9208141E-01; -2.3260979E+03;3; -4.8185778E+00;  0.0000000E+00;  1.7682558E+00;0;  1.9621386E-01;  1.0951449E+04;  0.0000000E+00; -3.7733769E+00;  4.0000000E+04;  0.0000000E+00;  3.9546242E+04;  1.9613561E-01;  0.0000000E+00;  7.8246623E-05;  2.3546184E+04;
  8.9677012E-01;  9.9999998E-03; -2.8153703E-01;7511;  1.1612233E-02;  0.0000000E+00; -5.9662107E-03;  9.9749237E+02;  1.9212113E-01; -2.0775134E+03;3; -3.5054395E+00;  0.0000000E+00;  1.8952068E+00;0;  1.9307949E-01;  1.0949902E+04;  0.0000000E+00; -2.3093150E+00;  4.0000000E+04;  0.0000000E+00;  3.9543332E+04;  1.8479195E-01;  0.0000000E+00;  8.2875378E-03;  1.4913625E+04;
  9.1670978E-01;  9.9999998E-03; -3.0172789E-01;7570;  1.7785538E-02;  0.0000000E+00; -2.0906201E-03;  9.9631964E+02;  2.0257641E-01; -3.0490825E+03;3; -7.5141602E+00;  0.0000000E+00; -2.5105208E-01;0;  9.8063909E-02;  9.8433721E+03;  0.0000000E+00; -2.6005228E+00;  4.0000000E+04;  0.0000000E+00;  3.9525539E+04;  1.0584798E-01;  0.0000000E+00; -7.7840667E-03;  1.5796079E+04;
  9.1702133E-01;  9.9999998E-03; -2.9167801E-01;7571;  1.4420517E-02;  0.0000000E+00; -2.7200421E-03;  9.9661194E+02;  2.0268722E-01; -2.8069177E+03;3; -6.3268342E+00;  0.0000000E+00; -2.2875803E-04;0;  9.5940523E-02;  9.8347129E+03;  0.0000000E+00; -2.0353954E+00;  4.0000000E+04;  0.0000000E+00;  3.9523516E+04;  9.8455898E-02;  0.0000000E+00; -2.5153735E-03;  1.1880344E+04;
  9.1713560E-01;  9.9999998E-03; -2.8162926E-01;7572;  1.1577172E-02;  0.0000000E+00; -3.6366915E-03;  9.9696381E+02;  2.0269175E-01; -2.5154214E+03;3; -4.8405986E+00;  0.0000000E+00;  1.6950132E-01;0;  9.6762188E-02;  9.8370186E+03;  0.0000000E+00; -1.5548609E+00;  4.0000000E+04;  0.0000000E+00;  3.9523395E+04;  9.1590703E-02;  0.0000000E+00;  5.1714825E-03;  8.3810615E+03;
  9.3938613E-01;  9.9999998E-03; -3.0182907E-01;7631;  1.5044473E-02;  0.0000000E+00;  1.0568433E-03;  9.9365302E+02;  2.1476723E-01; -5.2583301E+03;3; -8.6197424E+00;  0.0000000E+00; -3.3536203E+00;0;  1.1415318E-02;  8.7107197E+03;  0.0000000E+00;  3.0521746E+00;  4.0000000E+04;  0.0000000E+00;  3.9522676E+04;  1.9184690E-02;  0.0000000E+00; -7.7693718E-03;  2.7468523E+04;
  9.3936408E-01;  9.9999998E-03; -2.9177150E-01;7632;  1.2230900E-02;  0.0000000E+00;  6.0181349E-04;  9.9415393E+02;  2.1469562E-01; -4.8433325E+03;3; -7.1176090E+00;  0.0000000E+00; -3.0750895E+00;0;  1.6647959E-02;  8.7221035E+03;  0.0000000E+00;  1.3309864E+00;  4.0000000E+04;  0.0000000E+00;  3.9520469E+04;  1.8167110E-02;  0.0000000E+00; -1.5191507E-03;  1.7474879E+04;
  9.3925655E-01;  9.9999998E-03; -2.8171328E-01;7633;  9.7081577E-03;  0.0000000E+00; -2.4299265E-05;  9.9473083E+02;  2.1457185E-01; -4.3653745E+03;3; -5.5964894E+00;  0.0000000E+00; -2.7245624E+00;0;  2.3083182E-02;  8.7384814E+03;  0.0000000E+00;  2.0623302E-02;  4.0000000E+04;  0.0000000E+00;  3.9520773E+04;  1.6711956E-02;  0.0000000E+00;  6.3712266E-03;  9.9625938E+03;
  9.6425343E-01;  9.9999998E-03; -3.0194950E-01;7692;  1.1444230E-02;  0.0000000E+00;  5.0850618E-03;  9.9089026E+02;  2.2861713E-01; -7.5471611E+03;3; -9.8410301E+00;  0.0000000E+00; -7.2557840E+00;0;  4.7584614E-03;  7.6431221E+03;  0.0000000E+00;  4.3103619E+00;  4.0000000E+04;  0.0000000E+00;  3.9512918E+04;  4.4120662E-03;  0.0000000E+00;  3.4639516E-04;  6.1747617E+04;
  9.6371627E-01;  9.9999998E-03; -2.9188165E-01;7693;  8.8932915E-03;  0.0000000E+00;  4.6162480E-03;  9.9152649E+02;  2.2825849E-01; -7.0200713E+03;3; -8.2361479E+00;  0.0000000E+00; -6.8820486E+00;0;  1.6917517E-02;  7.6737197E+03;  0.0000000E+00;  2.2004049E+00;  4.0000000E+04;  0.0000000E+00;  3.9512477E+04;  5.1051020E-03;  0.0000000E+00;  1.1812415E-02;  4.2669949E+04;
  9.6320015E-01;  9.9999998E-03; -2.8181309E-01;7694;  6.7245862E-03;  0.0000000E+00;  4.1229897E-03;  9.9224426E+02;  2.2789997E-01; -6.4254282E+03;3; -6.5595331E+00;  0.0000000E+00; -6.4435215E+00;0;  2.7772970E-02;  7.7055347E+03;  0.0000000E+00;  3.3672628E-01;  4.0000000E+04;  0.0000000E+00;  3.9512871E+04;  5.0999457E-03;  0.0000000E+00;  2.2673024E-02;  2.4987207E+04;
  9.8958284E-01;  9.9999998E-03; -3.0210814E-01;7753;  6.5674391E-03;  0.0000000E+00;  9.3421405E-03;  9.9086285E+02;  2.4293359E-01; -7.5698379E+03;3; -1.1227324E+01;  0.0000000E+00; -1.1234069E+01;0;  1.1727065E-01;  6.7732822E+03;  0.0000000E+00;  2.1612847E+00;  4.0000000E+04;  0.0000000E+00;  3.9464277E+04;  9.4809376E-02;  0.0000000E+00;  2.2461273E-02;  7.1781633E+04;
  9.8878008E-01;  9.9999998E-03; -2.9203275E-01;7754;  4.4169347E-03;  0.0000000E+00;  8.4769921E-03;  9.9152612E+02;  2.4239218E-01; -7.0203325E+03;3; -9.6376209E+00;  0.0000000E+00; -1.0874324E+01;0;  1.3864590E-01;  6.8086909E+03;  0.0000000E+00;  5.4949427E-01;  4.0000000E+04;  0.0000000E+00;  3.9465172E+04;  9.0177268E-02;  0.0000000E+00;  4.8468634E-02;  4.9317836E+04;
  9.8799777E-01;  9.9999998E-03; -2.8195661E-01;7755;  2.7526736E-03;  0.0000000E+00;  7.7991853E-03;  9.9219281E+02;  2.4186453E-01; -6.4680122E+03;3; -8.0395803E+00;  0.0000000E+00; -1.0400274E+01;0;  1.5349877E-01;  6.8443179E+03;  0.0000000E+00; -7.7624893E-01;  4.0000000E+04;  0.0000000E+00;  3.9467254E+04;  8.5228890E-02;  0.0000000E+00;  6.8269871E-02;  2.8284717E+04;
  1.0132086E+00;  9.9999998E-03; -2.8214723E-01;7816; -1.0464194E-03;  0.0000000E+00;  1.0832975E-02;  9.9562885E+02;  2.5531688E-01; -3.6213459E+03;3; -8.9830675E+00;  0.0000000E+00; -1.2762462E+01;0;  3.9120713E-01;  6.1953813E+03;  0.0000000E+00; -2.0341415E+00;  4.0000000E+04;  0.0000000E+00;  3.9377605E+04;  2.3556522E-01;  0.0000000E+00;  1.5564191E-01;  1.8610967E+04;
  1.0140431E+00;  9.9999998E-03; -2.9222327E-01;7815;  5.7710138E-05;  0.0000000E+00;  1.2407647E-02;  9.9501355E+02;  2.5585422E-01; -4.1310967E+03;3; -1.0603651E+01;  0.0000000E+00; -1.3407594E+01;0;  3.6143294E-01;  6.1651982E+03;  0.0000000E+00; -1.5046268E+00;  4.0000000E+04;  0.0000000E+00;  3.9373949E+04;  2.4691133E-01;  0.0000000E+00;  1.1452162E-01;  3.4925836E+04;
  1.0148832E+00;  9.9999998E-03; -3.0229953E-01;7814;  1.5200132E-03;  0.0000000E+00;  1.3560505E-02;  9.9436951E+02;  2.5641844E-01; -4.6646484E+03;3; -1.2358634E+01;  0.0000000E+00; -1.3768196E+01;0;  3.3069360E-01;  6.1345044E+03;  0.0000000E+00; -5.7785583E-01;  4.0000000E+04;  0.0000000E+00;  3.9374340E+04;  2.5797206E-01;  0.0000000E+00;  7.2721548E-02;  5.2708359E+04;
  1.0380170E+00;  9.9999998E-03; -2.8233245E-01;7877;  7.1146683E-04;  0.0000000E+00;  9.8382011E-03;  1.0002081E+03;  2.6565081E-01;  1.7233513E+02;3; -1.0934022E+01;  0.0000000E+00; -1.2432779E+01;0;  7.1992099E-01;  5.7876523E+03;  0.0000000E+00; -2.5474262E+00;  4.0000000E+04;  0.0000000E+00;  3.9286461E+04;  3.7239328E-01;  0.0000000E+00;  3.4752774E-01;  5.7896050E+03;
  1.0385153E+00;  9.9999998E-03; -2.9240042E-01;7876;  1.4062553E-03;  0.0000000E+00;  1.3681609E-02;  9.9948969E+02;  2.6593557E-01; -4.2278882E+02;3; -1.1824345E+01;  0.0000000E+00; -1.3660615E+01;0;  6.5285122E-01;  5.7703174E+03;  0.0000000E+00; -2.4379435E+00;  4.0000000E+04;  0.0000000E+00;  3.9284039E+04;  3.8387030E-01;  0.0000000E+00;  2.6898089E-01;  1.1757154E+04;
  1.0391921E+00;  9.9999998E-03; -3.0247024E-01;7875;  3.3552563E-03;  0.0000000E+00;  1.6103884E-02;  9.9882050E+02;  2.6632419E-01; -9.7717413E+02;3; -1.2933132E+01;  0.0000000E+00; -1.4923064E+01;0;  5.8898437E-01;  5.7494810E+03;  0.0000000E+00; -1.9256178E+00;  4.0000000E+04;  0.0000000E+00;  3.9291137E+04;  3.9471394E-01;  0.0000000E+00;  1.9427046E-01;  1.8931000E+04;
  1.0641969E+00;  9.9999998E-03; -2.8245452E-01;7938;  4.3037005E-02;  0.0000000E+00;  9.8569393E-03;  1.0010923E+03;  2.7109191E-01;  9.0491785E+02;3;  3.7786118E+01;  0.0000000E+00; -1.6849525E+01;0;  1.0186110E+00;  5.5710059E+03;  0.0000000E+00; -2.0449657E+00;  4.0000000E+04;  0.0000000E+00;  3.9257973E+04;  4.2241651E-01;  0.0000000E+00;  5.9619445E-01;  4.2128232E+03;
  1.0642564E+00;  9.9999998E-03; -2.9252040E-01;7937;  4.9725991E-02;  0.0000000E+00;  1.5075125E-02;  1.0003719E+03;  2.7119592E-01;  3.0812436E+02;3;  3.7735340E+01;  0.0000000E+00; -1.7038050E+01;0;  9.2557502E-01;  5.5623560E+03;  0.0000000E+00; -1.4956797E+00;  4.0000000E+04;  0.0000000E+00;  3.9254484E+04;  4.2815503E-01;  0.0000000E+00;  4.9741995E-01;  7.0185918E+03;
  1.0642711E+00;  9.9999998E-03; -3.0258623E-01;7936;  5.4263808E-02;  0.0000000E+00;  1.7605539E-02;  9.9967371E+02;  2.7132651E-01; -2.7030014E+02;3;  3.6565243E+01;  0.0000000E+00; -1.7304497E+01;0;  8.3928907E-01;  5.5529634E+03;  0.0000000E+00; -5.7604527E-01;  4.0000000E+04;  0.0000000E+00;  3.9263336E+04;  4.3342656E-01;  0.0000000E+00;  4.0586248E-01;  1.1533178E+04;
  1.0901551E+00;  9.9999998E-03; -2.8250253E-01;7999;  5.6323119E-02;  0.0000000E+00;  2.8200941E-02;  9.9823590E+02;  2.7126795E-01; -1.4614335E+03;3;  6.0600769E+01;  0.0000000E+00; -1.5032776E+01;0;  1.0555918E+00;  5.5255869E+03;  0.0000000E+00; -1.9511566E+00;  4.0000000E+04;  0.0000000E+00;  3.9299734E+04;  4.3463331E-01;  0.0000000E+00;  6.2095845E-01;  5.2736006E+03;
  1.0900581E+00;  9.9999998E-03; -2.9257581E-01;7998;  6.4017802E-02;  0.0000000E+00;  3.1667218E-02;  9.9764380E+02;  2.7132910E-01; -1.9519032E+03;3;  6.1730976E+01;  0.0000000E+00; -1.5568532E+01;0;  9.5290625E-01;  5.5207271E+03;  0.0000000E+00; -9.0408128E-01;  4.0000000E+04;  0.0000000E+00;  3.9291637E+04;  4.2045295E-01;  0.0000000E+00;  5.3245330E-01;  1.1361022E+04;
  1.0897299E+00;  9.9999998E-03; -3.0264816E-01;7997;  7.1495146E-02;  0.0000000E+00;  3.2365710E-02;  9.9719037E+02;  2.7139151E-01; -2.3275698E+03;3;  6.2095562E+01;  0.0000000E+00; -1.5371287E+01;0;  8.6307347E-01;  5.5175527E+03;  0.0000000E+00; -9.0406731E-02;  4.0000000E+04;  0.0000000E+00;  3.9292094E+04;  4.1067237E-01;  0.0000000E+00;  4.5240110E-01;  1.4365634E+04;
  1.1171999E+00;  9.9999998E-03; -2.8253216E-01;8060;  5.4033648E-02;  0.0000000E+00;  4.9636751E-02;  9.9491669E+02;  2.6801208E-01; -4.2109810E+03;3;  6.3120380E+01;  0.0000000E+00; -1.3514668E+01;0;  1.2840989E+00;  5.6126152E+03;  0.0000000E+00; -3.6422527E+00;  4.0000000E+04;  0.0000000E+00;  3.9360520E+04;  7.0738548E-01;  0.0000000E+00;  5.7671338E-01;  1.1146044E+04;
  1.1172439E+00;  9.9999998E-03; -2.9261357E-01;8059;  6.1554730E-02;  0.0000000E+00;  5.0936848E-02;  9.9411450E+02;  2.6806739E-01; -4.8754829E+03;3;  6.4756256E+01;  0.0000000E+00; -1.2959108E+01;0;  1.1747988E+00;  5.6060947E+03;  0.0000000E+00; -2.8809209E+00;  4.0000000E+04;  0.0000000E+00;  3.9348719E+04;  6.5151900E-01;  0.0000000E+00;  5.2327985E-01;  1.0782091E+04;
  1.1170942E+00;  9.9999998E-03; -3.0269283E-01;8058;  6.9154188E-02;  0.0000000E+00;  5.2110445E-02;  9.9343042E+02;  2.6812810E-01; -5.4421724E+03;3;  6.6659904E+01;  0.0000000E+00; -1.4872340E+01;0;  1.0356741E+00;  5.6010547E+03;  0.0000000E+00; -2.0158925E+00;  4.0000000E+04;  0.0000000E+00;  3.9342566E+04;  6.0088611E-01;  0.0000000E+00;  4.3478802E-01;  1.3387906E+04;
  1.1471208E+00;  9.9999998E-03; -2.8256255E-01;8121;  4.6646040E-02;  0.0000000E+00;  8.0012903E-02;  9.9093994E+02;  2.6216051E-01; -7.5048379E+03;3;  6.2897038E+01;  0.0000000E+00; -1.8444681E+01;0;  2.0833790E+00;  5.8068936E+03;  0.0000000E+00; -5.4831858E+00;  4.0000000E+04;  0.0000000E+00;  3.9435977E+04;  1.8318835E+00;  0.0000000E+00;  2.5149539E-01;  2.1911098E+04;
  1.1475606E+00;  9.9999998E-03; -2.9265332E-01;8120;  5.1384374E-02;  0.0000000E+00;  6.7422397E-02;  9.8978912E+02;  2.6218313E-01; -8.4580723E+03;3;  6.5409325E+01;  0.0000000E+00;  7.7893890E-02;0;  2.1772842E+00;  5.7981567E+03;  0.0000000E+00; -5.5851936E+00;  4.0000000E+04;  0.0000000E+00;  3.9420043E+04;  1.7456988E+00;  0.0000000E+00;  4.3158549E-01;  1.8723168E+04;
  1.1482596E+00;  9.9999998E-03; -3.0274919E-01;8119;  5.6512054E-02;  0.0000000E+00;  7.3725574E-02;  9.8838397E+02;  2.6219046E-01; -9.6220205E+03;3;  7.0560684E+01;  0.0000000E+00;  1.1170511E+01;0;  1.9741330E+00;  5.7889668E+03;  0.0000000E+00; -4.6748042E+00;  4.0000000E+04;  0.0000000E+00;  3.9396797E+04;  1.6866394E+00;  0.0000000E+00;  2.8749353E-01;  1.9170668E+04;
  1.0126203E+00;  9.9999998E-03; -2.7207717E-01;7817; -2.2299676E-03;  0.0000000E+00;  1.0324236E-02;  9.9627087E+02;  2.5492564E-01; -3.0894231E+03;3; -7.3155742E+00;  0.0000000E+00; -1.3206105E+01;0;  3.9490241E-01;  6.2199941E+03;  0.0000000E+00; -2.0536332E+00;  4.0000000E+04;  0.0000000E+00;  3.9378219E+04;  2.2549206E-01;  0.0000000E+00;  1.6941035E-01;  7.3180435E+03;
  1.0377684E+00;  9.9999998E-03; -2.7226543E-01;7878;  1.3159224E-03;  0.0000000E+00;  5.6298370E-03;  1.0010442E+03;  2.6548207E-01;  8.6503357E+02;3; -9.7708015E+00;  0.0000000E+00; -1.2591630E+01;0;  7.5614524E-01;  5.8009453E+03;  0.0000000E+00; -2.2768595E+00;  4.0000000E+04;  0.0000000E+00;  3.9296340E+04;  3.6094850E-01;  0.0000000E+00;  3.9519674E-01;  2.0039481E+03;
  1.0639793E+00;  9.9999998E-03; -2.7238643E-01;7939;  3.5227232E-02;  0.0000000E+00;  4.1892868E-03;  1.0019141E+03;  2.7098495E-01;  1.5856558E+03;3;  3.6447811E+01;  0.0000000E+00; -1.9091639E+01;0;  1.0575684E+00;  5.5806475E+03;  0.0000000E+00; -2.2831676E+00;  4.0000000E+04;  0.0000000E+00;  3.9271871E+04;  4.1732144E-01;  0.0000000E+00;  6.4024699E-01;  2.3425186E+03;
  1.0899832E+00;  9.9999998E-03; -2.7242291E-01;8000;  4.9159348E-02;  0.0000000E+00;  2.6669960E-02;  9.9902643E+02;  2.7119771E-01; -8.0653650E+02;3;  5.4811470E+01;  0.0000000E+00; -2.3325190E+01;0;  1.0789461E+00;  5.5326187E+03;  0.0000000E+00; -2.7586963E+00;  4.0000000E+04;  0.0000000E+00;  3.9317293E+04;  4.5397621E-01;  0.0000000E+00;  6.2496984E-01;  5.2078569E+03;
  1.1171583E+00;  9.9999998E-03; -2.7244484E-01;8061;  5.0279625E-02;  0.0000000E+00;  6.7432202E-02;  9.9571051E+02;  2.6795155E-01; -3.5533918E+03;3;  5.9357811E+01;  0.0000000E+00; -2.8483311E+01;0;  1.1254847E+00;  5.6192329E+03;  0.0000000E+00; -3.9420743E+00;  4.0000000E+04;  0.0000000E+00;  3.9377289E+04;  7.7674973E-01;  0.0000000E+00;  3.4873503E-01;  1.4565576E+04;
  1.1470299E+00;  9.9999998E-03; -2.7249339E-01;8122;  4.5614321E-02;  0.0000000E+00;  1.0493227E-01;  9.9157239E+02;  2.6211554E-01; -6.9809424E+03;3;  5.8370720E+01;  0.0000000E+00; -1.3401333E+01;0;  1.9132711E+00;  5.8149053E+03;  0.0000000E+00; -4.7089305E+00;  4.0000000E+04;  0.0000000E+00;  3.9425898E+04;  1.9534086E+00;  0.0000000E+00; -4.0137559E-02;  2.1694131E+04;
  1.1764039E+00;  9.9999998E-03; -2.7258721E-01;8183;  3.2862645E-02;  0.0000000E+00;  1.2417901E-01;  9.8826746E+02;  2.5436896E-01; -9.7176162E+03;3;  6.0411175E+01;  0.0000000E+00;  2.6945434E+00;0;  3.6794348E+00;  6.1330054E+03;  0.0000000E+00; -5.1933246E+00;  4.0000000E+04;  0.0000000E+00;  3.9427648E+04;  4.1675882E+00;  0.0000000E+00; -4.8815352E-01;  2.1925518E+04;
  1.1769271E+00;  9.9999998E-03; -2.8263292E-01;8182;  3.4078185E-02;  0.0000000E+00;  1.1295038E-01;  9.8775604E+02;  2.5432575E-01; -1.0141225E+04;3;  6.4126312E+01;  0.0000000E+00; -7.9161801E+00;0;  3.6534300E+00;  6.1259595E+03;  0.0000000E+00; -7.2728543E+00;  4.0000000E+04;  0.0000000E+00;  3.9465367E+04;  4.0733085E+00;  0.0000000E+00; -4.1987851E-01;  2.5940084E+04;
  1.1776710E+00;  9.9999998E-03; -2.9269710E-01;8181;  3.4230772E-02;  0.0000000E+00;  8.7955520E-02;  9.8694604E+02;  2.5426269E-01; -1.0812059E+04;3;  6.8808632E+01;  0.0000000E+00; -2.1193213E+01;0;  3.9381723E+00;  6.1193784E+03;  0.0000000E+00; -8.6311388E+00;  4.0000000E+04;  0.0000000E+00;  3.9486367E+04;  4.0169787E+00;  0.0000000E+00; -7.8806333E-02;  2.7091578E+04;
  1.1788089E+00;  9.9999998E-03; -3.0278108E-01;8180;  2.8349165E-02;  0.0000000E+00;  5.9823394E-02;  9.8579938E+02;  2.5417259E-01; -1.1761748E+04;3;  6.9045097E+01;  0.0000000E+00; -2.3971918E+01;0;  4.4008574E+00;  6.1142002E+03;  0.0000000E+00; -9.1034679E+00;  4.0000000E+04;  0.0000000E+00;  3.9482543E+04;  4.0187569E+00;  0.0000000E+00;  3.8210076E-01;  2.6394453E+04;
  1.2042292E+00;  9.9999998E-03; -2.8275865E-01;8243;  9.2460468E-02;  0.0000000E+00;  1.2030303E-01;  9.8785419E+02;  2.4524730E-01; -1.0058568E+04;3; -1.2906088E+02;  0.0000000E+00;  2.4965864E+01;0;  5.5570035E+00;  6.5990610E+03;  0.0000000E+00; -8.8126497E+00;  4.0000000E+04;  0.0000000E+00;  3.9391316E+04;  6.5618124E+00;  0.0000000E+00; -1.0048090E+00;  2.2557686E+04;
  1.2050414E+00;  9.9999998E-03; -2.9280162E-01;8242;  6.0556229E-02;  0.0000000E+00;  1.1583212E-01;  9.8720184E+02;  2.4508734E-01; -1.0598731E+04;3; -1.3423340E+02;  0.0000000E+00;  1.8966383E+01;0;  5.5799522E+00;  6.5963877E+03;  0.0000000E+00; -1.0893418E+01;  4.0000000E+04;  0.0000000E+00;  3.9431406E+04;  6.5929885E+00;  0.0000000E+00; -1.0130361E+00;  2.5077588E+04;
  1.2062050E+00;  9.9999998E-03; -3.0285943E-01;8241;  3.8504571E-02;  0.0000000E+00;  1.0987881E-01;  9.8643616E+02;  2.4488901E-01; -1.1232797E+04;3; -1.0162969E+02;  0.0000000E+00;  6.7934928E+00;0;  5.7153687E+00;  6.5971787E+03;  0.0000000E+00; -1.1812231E+01;  4.0000000E+04;  0.0000000E+00;  3.9459949E+04;  6.6648726E+00;  0.0000000E+00; -9.4950372E-01;  2.5195537E+04;
  1.2288989E+00;  9.9999998E-03; -2.8285456E-01;8304;  3.4320870E-01;  0.0000000E+00;  7.3994733E-02;  9.9100452E+02;  2.3521337E-01; -7.4482808E+03;3; -1.9436351E+02;  0.0000000E+00;  4.9899895E+01;0;  7.0520940E+00;  7.2319795E+03;  0.0000000E+00; -9.3443937E+00;  4.0000000E+04;  0.0000000E+00;  3.9289812E+04;  7.9943943E+00;  0.0000000E+00; -9.4230050E-01;  2.7037510E+04;
  1.2292682E+00;  9.9999998E-03; -2.9289532E-01;8303;  3.0327258E-01;  0.0000000E+00;  7.7411272E-02;  9.9017676E+02;  2.3513371E-01; -8.1336665E+03;3; -2.0264169E+02;  0.0000000E+00;  4.6273132E+01;0;  7.0429301E+00;  7.2231230E+03;  0.0000000E+00; -1.1222637E+01;  4.0000000E+04;  0.0000000E+00;  3.9325059E+04;  8.0570011E+00;  0.0000000E+00; -1.0140710E+00;  2.9017201E+04;
  1.2300372E+00;  9.9999998E-03; -3.0294925E-01;8302;  2.7619722E-01;  0.0000000E+00;  7.8661397E-02;  9.8940698E+02;  2.3501663E-01; -8.7709482E+03;3; -2.1064714E+02;  0.0000000E+00;  4.3303764E+01;0;  7.1062241E+00;  7.2196934E+03;  0.0000000E+00; -1.1901916E+01;  4.0000000E+04;  0.0000000E+00;  3.9355918E+04;  8.1280327E+00;  0.0000000E+00; -1.0218087E+00;  2.8109123E+04;
  1.2508106E+00;  9.9999998E-03; -2.8287423E-01;8365;  6.2552720E-01;  0.0000000E+00;  1.5718710E-02;  9.9549268E+02;  2.2498244E-01; -3.7312249E+03;3; -2.0130281E+02;  0.0000000E+00;  5.7222557E+01;0;  7.4344282E+00;  7.9823726E+03;  0.0000000E+00; -8.8972750E+00;  4.0000000E+04;  0.0000000E+00;  3.9218359E+04;  8.1076555E+00;  0.0000000E+00; -6.7322719E-01;  3.1082377E+04;
  1.2513472E+00;  9.9999998E-03; -2.9292393E-01;8364;  5.9959143E-01;  0.0000000E+00;  2.3293406E-02;  9.9478583E+02;  2.2487040E-01; -4.3163408E+03;3; -2.0980595E+02;  0.0000000E+00;  5.5134331E+01;0;  7.4339418E+00;  7.9784048E+03;  0.0000000E+00; -1.0415649E+01;  4.0000000E+04;  0.0000000E+00;  3.9242969E+04;  8.1970415E+00;  0.0000000E+00; -7.6309955E-01;  3.3893836E+04;
  1.2523140E+00;  9.9999998E-03; -3.0298322E-01;8363;  5.8600891E-01;  0.0000000E+00;  2.7958747E-02;  9.9416650E+02;  2.2469169E-01; -4.8289912E+03;3; -2.1700180E+02;  0.0000000E+00;  5.3388081E+01;0;  7.4623170E+00;  7.9822739E+03;  0.0000000E+00; -1.0776390E+01;  4.0000000E+04;  0.0000000E+00;  3.9268680E+04;  8.2649956E+00;  0.0000000E+00; -8.0267859E-01;  3.4139398E+04;
  1.2718904E+00;  9.9999998E-03; -2.8282446E-01;8426;  8.8818371E-01;  0.0000000E+00; -4.2475544E-02;  9.9995410E+02;  2.1445002E-01; -3.7981861E+01;3; -1.5854906E+02;  0.0000000E+00;  5.4567680E+01;0;  6.9014888E+00;  8.8638506E+03;  0.0000000E+00; -8.7341204E+00;  4.0000000E+04;  0.0000000E+00;  3.9183195E+04;  7.2253165E+00;  0.0000000E+00; -3.2382765E-01;  3.2540109E+04;
  1.2728391E+00;  9.9999998E-03; -2.9288635E-01;8425;  8.8053566E-01;  0.0000000E+00; -3.3861749E-02;  9.9937964E+02;  2.1422046E-01; -5.1338831E+02;3; -1.6297182E+02;  0.0000000E+00;  5.4602188E+01;0;  6.8992262E+00;  8.8738896E+03;  0.0000000E+00; -9.4505243E+00;  4.0000000E+04;  0.0000000E+00;  3.9196441E+04;  7.2969317E+00;  0.0000000E+00; -3.9770567E-01;  3.3437441E+04;
  1.2741890E+00;  9.9999998E-03; -3.0295262E-01;8424;  8.8136834E-01;  0.0000000E+00; -2.8268322E-02;  9.9882135E+02;  2.1390438E-01; -9.7535638E+02;3; -1.6600578E+02;  0.0000000E+00;  5.5054131E+01;0;  6.8877225E+00;  8.8922705E+03;  0.0000000E+00; -8.3713694E+00;  4.0000000E+04;  0.0000000E+00;  3.9216434E+04;  7.3284636E+00;  0.0000000E+00; -4.4074112E-01;  2.9351975E+04;
  1.2923300E+00;  9.9999998E-03; -2.8271693E-01;8487;  1.0713632E+00;  0.0000000E+00; -8.9357175E-02;  1.0032921E+03;  2.0386003E-01;  2.7233628E+03;3; -9.3007545E+01;  0.0000000E+00;  4.2632957E+01;0;  5.7452230E+00;  9.8672227E+03;  0.0000000E+00; -9.7898159E+00;  4.0000000E+04;  0.0000000E+00;  3.9186832E+04;  5.7566800E+00;  0.0000000E+00; -1.1457148E-02;  3.4007922E+04;
  1.2935232E+00;  9.9999998E-03; -2.9279083E-01;8486;  1.0716215E+00;  0.0000000E+00; -8.1675589E-02;  1.0026864E+03;  2.0354746E-01;  2.2222380E+03;3; -9.4788872E+01;  0.0000000E+00;  4.3882145E+01;0;  5.7491121E+00;  9.8890605E+03;  0.0000000E+00; -9.0230331E+00;  4.0000000E+04;  0.0000000E+00;  3.9192402E+04;  5.7993646E+00;  0.0000000E+00; -5.0252367E-02;  3.0844314E+04;
  1.2951149E+00;  9.9999998E-03; -3.0286360E-01;8485;  1.0772675E+00;  0.0000000E+00; -7.6914780E-02;  1.0019590E+03;  2.0313971E-01;  1.6205425E+03;3; -9.5492172E+01;  0.0000000E+00;  4.5424320E+01;0;  5.7224469E+00;  9.9187119E+03;  0.0000000E+00; -4.8328242E+00;  4.0000000E+04;  0.0000000E+00;  3.9208773E+04;  5.7949710E+00;  0.0000000E+00; -7.2523870E-02;  1.9500568E+04;
  1.3116345E+00;  9.9999998E-03; -2.8258464E-01;8548;  1.1675987E+00;  0.0000000E+00; -1.1652862E-01;  1.0052399E+03;  1.9380914E-01;  4.3325732E+03;3; -2.9889545E+01;  0.0000000E+00;  2.5903412E+01;0;  4.3332539E+00;  1.0949011E+04;  0.0000000E+00; -1.1268101E+01;  4.0000000E+04;  0.0000000E+00;  3.9212824E+04;  4.1700573E+00;  0.0000000E+00;  1.6319643E-01;  3.7059930E+04;
  1.3130488E+00;  9.9999998E-03; -2.9266739E-01;8547;  1.1708225E+00;  0.0000000E+00; -1.1088413E-01;  1.0045076E+03;  1.9342233E-01;  3.7269229E+03;3; -3.1333776E+01;  0.0000000E+00;  2.7358667E+01;0;  4.3415260E+00;  1.0982465E+04;  0.0000000E+00; -8.8048534E+00;  4.0000000E+04;  0.0000000E+00;  3.9215473E+04;  4.1859970E+00;  0.0000000E+00;  1.5552881E-01;  2.9362523E+04;
  1.3147202E+00;  9.9999998E-03; -3.0274472E-01;8546;  1.1774025E+00;  0.0000000E+00; -1.0759286E-01;  1.0034718E+03;  1.9298805E-01;  2.8703704E+03;3; -3.1989874E+01;  0.0000000E+00;  2.8426979E+01;0;  4.3252754E+00;  1.1015855E+04;  0.0000000E+00; -1.7617661E-01;  4.0000000E+04;  0.0000000E+00;  3.9231344E+04;  4.1693907E+00;  0.0000000E+00;  1.5588494E-01;  1.4857563E+04;
  1.3299261E+00;  9.9999998E-03; -2.8245682E-01;8609;  1.2017921E+00;  0.0000000E+00; -1.2647662E-01;  1.0058477E+03;  1.8439402E-01;  4.8320366E+03;3;  1.0198262E+01;  0.0000000E+00;  1.0338431E+01;0;  2.9821537E+00;  1.2101028E+04;  0.0000000E+00; -1.4365773E+01;  4.0000000E+04;  0.0000000E+00;  3.9243941E+04;  2.7657986E+00;  0.0000000E+00;  2.1635500E-01;  4.6121488E+04;
  1.3314286E+00;  9.9999998E-03; -2.9254505E-01;8608;  1.2072067E+00;  0.0000000E+00; -1.2225228E-01;  1.0048797E+03;  1.8399160E-01;  4.0319409E+03;3;  8.2001390E+00;  0.0000000E+00;  1.1375623E+01;0;  2.9871674E+00;  1.2138169E+04;  0.0000000E+00; -1.0141373E+01;  4.0000000E+04;  0.0000000E+00;  3.9247316E+04;  2.7720909E+00;  0.0000000E+00;  2.1507634E-01;  3.3313215E+04;
  1.3330545E+00;  9.9999998E-03; -3.0262494E-01;8607;  1.2150370E+00;  0.0000000E+00; -1.2011151E-01;  1.0034215E+03;  1.8359570E-01;  2.8269202E+03;3;  6.6404338E+00;  0.0000000E+00;  1.2126383E+01;0;  2.9859877E+00;  1.2164554E+04;  0.0000000E+00;  4.3384471E+00;  4.0000000E+04;  0.0000000E+00;  3.9265609E+04;  2.7619181E+00;  0.0000000E+00;  2.2406967E-01;  1.7128080E+04;
  1.2035587E+00;  9.9999998E-03; -2.7272359E-01;8244;  1.2427133E-01;  0.0000000E+00;  1.2074373E-01;  9.8843634E+02;  2.4538265E-01; -9.5764922E+03;3; -1.2560043E+02;  0.0000000E+00;  2.9230932E+01;0;  5.6627245E+00;  6.6027686E+03;  0.0000000E+00; -5.8021464E+00;  4.0000000E+04;  0.0000000E+00;  3.9353508E+04;  6.5595670E+00;  0.0000000E+00; -8.9684242E-01;  1.6585014E+04;
  1.2284576E+00;  9.9999998E-03; -2.7281725E-01;8305;  3.8062331E-01;  0.0000000E+00;  6.7767419E-02;  9.9183704E+02;  2.3534401E-01; -6.7589951E+03;3; -1.8686920E+02;  0.0000000E+00;  5.3580669E+01;0;  7.1260309E+00;  7.2370938E+03;  0.0000000E+00; -6.2442322E+00;  4.0000000E+04;  0.0000000E+00;  3.9265641E+04;  7.9337330E+00;  0.0000000E+00; -8.0770183E-01;  1.9573383E+04;
  1.2504138E+00;  9.9999998E-03; -2.7282506E-01;8366;  6.5449166E-01;  0.0000000E+00;  5.2035931E-03;  9.9634821E+02;  2.2508657E-01; -3.0230364E+03;3; -1.9257982E+02;  0.0000000E+00;  5.8853844E+01;0;  7.4563208E+00;  7.9874658E+03;  0.0000000E+00; -6.3368845E+00;  4.0000000E+04;  0.0000000E+00;  3.9208820E+04;  8.0063877E+00;  0.0000000E+00; -5.5006683E-01;  2.4487371E+04;
  1.2710878E+00;  9.9999998E-03; -2.7275866E-01;8427;  8.9803821E-01;  0.0000000E+00; -5.3539839E-02;  1.0006500E+03;  2.1465796E-01;  5.3796838E+02;3; -1.5388664E+02;  0.0000000E+00;  5.4376846E+01;0;  6.8878345E+00;  8.8557246E+03;  0.0000000E+00; -6.7617297E+00;  4.0000000E+04;  0.0000000E+00;  3.9186703E+04;  7.1304288E+00;  0.0000000E+00; -2.4259441E-01;  2.7327391E+04;
  1.2914506E+00;  9.9999998E-03; -2.7263296E-01;8488;  1.0749307E+00;  0.0000000E+00; -9.9028751E-02;  1.0039537E+03;  2.0409429E-01;  3.2707419E+03;3; -8.9999046E+01;  0.0000000E+00;  4.0983253E+01;0;  5.6914964E+00;  9.8521982E+03;  0.0000000E+00; -8.5074081E+00;  4.0000000E+04;  0.0000000E+00;  3.9199148E+04;  5.6730084E+00;  0.0000000E+00;  1.8487925E-02;  3.0580504E+04;
  1.3106194E+00;  9.9999998E-03; -2.7248779E-01;8549;  1.1675800E+00;  0.0000000E+00; -1.2372971E-01;  1.0058526E+03;  1.9409800E-01;  4.8392495E+03;3; -2.7141035E+01;  0.0000000E+00;  2.3473101E+01;0;  4.2682247E+00;  1.0923093E+04;  0.0000000E+00; -1.0404169E+01;  4.0000000E+04;  0.0000000E+00;  3.9227742E+04;  4.1081576E+00;  0.0000000E+00;  1.6006729E-01;  3.4821738E+04;
  1.3289512E+00;  9.9999998E-03; -2.7235213E-01;8610;  1.1979324E+00;  0.0000000E+00; -1.3119711E-01;  1.0064193E+03;  1.8468384E-01;  5.3045659E+03;3;  1.3931842E+01;  0.0000000E+00;  9.2626476E+00;0;  2.9142118E+00;  1.2069130E+04;  0.0000000E+00; -1.3496785E+01;  4.0000000E+04;  0.0000000E+00;  3.9257180E+04;  2.7123282E+00;  0.0000000E+00;  2.0188354E-01;  4.4125371E+04;
  1.3472359E+00;  9.9999998E-03; -2.8234929E-01;8670;  1.2099131E+00;  0.0000000E+00; -1.2439140E-01;  1.0053909E+03;  1.7569765E-01;  4.4511294E+03;3;  2.3135572E+01;  0.0000000E+00;  6.4105266E-01;0;  1.8702055E+00;  1.3312167E+04;  0.0000000E+00; -1.9152386E+01;  4.0000000E+04;  0.0000000E+00;  3.9270895E+04;  1.6788918E+00;  0.0000000E+00;  1.9131374E-01;  5.8546328E+04;
  1.3489059E+00;  9.9999998E-03; -2.9243806E-01;8669;  1.2171590E+00;  0.0000000E+00; -1.2138268E-01;  1.0039767E+03;  1.7527840E-01;  3.2831924E+03;3;  2.1151361E+01;  0.0000000E+00;  1.0740294E+00;0;  1.8612454E+00;  1.3348991E+04;  0.0000000E+00; -1.3282531E+01;  4.0000000E+04;  0.0000000E+00;  3.9279238E+04;  1.6758285E+00;  0.0000000E+00;  1.8541695E-01;  4.1784570E+04;
  1.3504549E+00;  9.9999998E-03; -3.0251816E-01;8668;  1.2270967E+00;  0.0000000E+00; -1.2046614E-01;  1.0019749E+03;  1.7495517E-01;  1.6302931E+03;3;  2.0044748E+01;  0.0000000E+00;  1.3286015E+00;0;  1.8749381E+00;  1.3357397E+04;  0.0000000E+00;  9.4403791E+00;  4.0000000E+04;  0.0000000E+00;  3.9302152E+04;  1.6758858E+00;  0.0000000E+00;  1.9905229E-01;  2.3479643E+04;
  1.3633423E+00;  9.9999998E-03; -2.8227213E-01;8731;  1.2108754E+00;  0.0000000E+00; -1.1699363E-01;  1.0044127E+03;  1.6789332E-01;  3.6400742E+03;3;  2.7321756E+01;  0.0000000E+00; -4.5298815E+00;0;  1.0701939E+00;  1.4550360E+04;  0.0000000E+00; -2.2847786E+01;  4.0000000E+04;  0.0000000E+00;  3.9290191E+04;  9.2131132E-01;  0.0000000E+00;  1.4888260E-01;  6.3788371E+04;
  1.3651586E+00;  9.9999998E-03; -2.9235888E-01;8730;  1.2190800E+00;  0.0000000E+00; -1.1456636E-01;  1.0023716E+03;  1.6747940E-01;  1.9562003E+03;3;  2.6763699E+01;  0.0000000E+00; -4.7166157E+00;0;  1.0466133E+00;  1.4577832E+04;  0.0000000E+00; -1.5675591E+01;  4.0000000E+04;  0.0000000E+00;  3.9305121E+04;  9.1623306E-01;  0.0000000E+00;  1.3038024E-01;  4.5573961E+04;
  1.3663775E+00;  9.9999998E-03; -3.0244052E-01;8729;  1.2304547E+00;  0.0000000E+00; -1.1484782E-01;  1.0000680E+03;  1.6730461E-01;  5.6041401E+01;3;  2.7034348E+01;  0.0000000E+00; -5.4363127E+00;0;  1.0829126E+00;  1.4554505E+04;  0.0000000E+00;  1.6456730E+01;  4.0000000E+04;  0.0000000E+00;  3.9330305E+04;  9.3619984E-01;  0.0000000E+00;  1.4671274E-01;  3.6128477E+04;
  1.3786294E+00;  9.9999998E-03; -2.8222182E-01;8792;  1.2097032E+00;  0.0000000E+00; -1.0782412E-01;  1.0031625E+03;  1.6092718E-01;  2.6059324E+03;3;  2.8986202E+01;  0.0000000E+00; -6.9458432E+00;0;  5.3225070E-01;  1.5801692E+04;  0.0000000E+00; -2.3400230E+01;  4.0000000E+04;  0.0000000E+00;  3.9303492E+04;  4.1951481E-01;  0.0000000E+00;  1.1273589E-01;  5.7626066E+04;
  1.3804063E+00;  9.9999998E-03; -2.9230791E-01;8791;  1.2179588E+00;  0.0000000E+00; -1.0560840E-01;  1.0005218E+03;  1.6057287E-01;  4.2988852E+02;3;  2.9070732E+01;  0.0000000E+00; -7.2828941E+00;0;  5.0042677E-01;  1.5807854E+04;  0.0000000E+00; -1.4374204E+01;  4.0000000E+04;  0.0000000E+00;  3.9323020E+04;  4.2117530E-01;  0.0000000E+00;  7.9251483E-02;  3.8303840E+04;
  1.3809619E+00;  9.9999998E-03; -3.0239609E-01;8790;  1.2296233E+00;  0.0000000E+00; -1.0666820E-01;  9.9866541E+02;  1.6058844E-01; -1.0995192E+03;3;  3.0950224E+01;  0.0000000E+00; -9.4855757E+00;0;  5.5159438E-01;  1.5755913E+04;  0.0000000E+00;  2.6297222E+01;  4.0000000E+04;  0.0000000E+00;  3.9343230E+04;  4.6203548E-01;  0.0000000E+00;  8.9558877E-02;  5.4645246E+04;
  1.3932678E+00;  9.9999998E-03; -2.8219658E-01;8853;  1.2079685E+00;  0.0000000E+00; -9.8705068E-02;  1.0018589E+03;  1.5479027E-01;  1.5296804E+03;3;  3.0432894E+01;  0.0000000E+00; -8.1732416E+00;0;  1.9430479E-01;  1.7037938E+04;  0.0000000E+00; -2.0383169E+01;  4.0000000E+04;  0.0000000E+00;  3.9311906E+04;  1.0277110E-01;  0.0000000E+00;  9.1533691E-02;  4.3831754E+04;
  1.3945075E+00;  9.9999998E-03; -3.0238572E-01;8851;  1.2267870E+00;  0.0000000E+00; -9.7750433E-02;  9.9843982E+02;  1.5471496E-01; -1.2837291E+03;3;  3.2357754E+01;  0.0000000E+00; -1.0755466E+01;0;  2.0511860E-01;  1.6962859E+04;  0.0000000E+00;  3.5578796E+01;  4.0000000E+04;  0.0000000E+00;  3.9335629E+04;  1.6716583E-01;  0.0000000E+00;  3.7952766E-02;  6.9636547E+04;
  1.3947743E+00;  9.9999998E-03; -2.9228497E-01;8852;  1.2160740E+00;  0.0000000E+00; -9.6768953E-02;  9.9892914E+02;  1.5453023E-01; -8.8110223E+02;3;  3.0108784E+01;  0.0000000E+00; -8.3605375E+00;0;  1.6242848E-01;  1.7018547E+04;  0.0000000E+00; -8.4710131E+00;  4.0000000E+04;  0.0000000E+00;  3.9331633E+04;  1.1525029E-01;  0.0000000E+00;  4.7178194E-02;  2.2056436E+04;
  1.4075735E+00;  9.9999998E-03; -2.8219306E-01;8913;  1.2056191E+00;  0.0000000E+00; -8.9902192E-02;  1.0001575E+03;  1.4934310E-01;  1.2938483E+02;3;  3.1429726E+01;  0.0000000E+00; -8.5280943E+00;0; -1.0102928E-02;  1.8245553E+04;  0.0000000E+00; -1.6654247E+01;  4.0000000E+04;  0.0000000E+00;  3.9317973E+04; -9.0075985E-02;  0.0000000E+00;  7.9973057E-02;  3.1089889E+04;
  1.4086142E+00;  9.9999998E-03; -2.9228568E-01;8912;  1.2136604E+00;  0.0000000E+00; -8.8453658E-02;  9.9739960E+02;  1.4920105E-01; -2.1362876E+03;3;  3.1386723E+01;  0.0000000E+00; -9.0075741E+00;0; -3.8404223E-02;  1.8202955E+04;  0.0000000E+00;  7.3073435E-01;  4.0000000E+04;  0.0000000E+00;  3.9333629E+04; -6.8029583E-02;  0.0000000E+00;  2.9625360E-02;  2.5832839E+03;
  1.4214277E+00;  9.9999998E-03; -2.8221467E-01;8972;  1.2027222E+00;  0.0000000E+00; -8.1761867E-02;  9.9832037E+02;  1.4453176E-01; -1.3773828E+03;3;  3.2500481E+01;  0.0000000E+00; -8.9279528E+00;0; -1.2605964E-01;  1.9416061E+04;  0.0000000E+00; -1.1852332E+01;  4.0000000E+04;  0.0000000E+00;  3.9317434E+04; -2.0152746E-01;  0.0000000E+00;  7.5467825E-02;  1.8823764E+04;
  1.4218707E+00;  9.9999998E-03; -2.9231414E-01;8971;  1.2106348E+00;  0.0000000E+00; -8.0725364E-02;  9.9635736E+02;  1.4450777E-01; -2.9869888E+03;3;  3.2273403E+01;  0.0000000E+00; -9.3254251E+00;0; -1.5290318E-01;  1.9364885E+04;  0.0000000E+00;  1.1834356E+01;  4.0000000E+04;  0.0000000E+00;  3.9323066E+04; -1.7255262E-01;  0.0000000E+00;  1.9649427E-02;  1.7407914E+04;
  1.4345589E+00;  9.9999998E-03; -2.9237041E-01;9030;  1.2071222E+00;  0.0000000E+00; -7.3782496E-02;  9.9633752E+02;  1.4036357E-01; -2.9969231E+03;3;  3.3512848E+01;  0.0000000E+00; -9.6490173E+00;0; -2.1542722E-01;  2.0524049E+04;  0.0000000E+00;  2.1926817E+01;  4.0000000E+04;  0.0000000E+00;  3.9298020E+04; -2.3219419E-01;  0.0000000E+00;  1.6766960E-02;  3.1992359E+04;
  1.4347457E+00;  9.9999998E-03; -2.8226352E-01;9031;  1.1992860E+00;  0.0000000E+00; -7.4264169E-02;  9.9684753E+02;  1.4030270E-01; -2.5795310E+03;3;  3.4015247E+01;  0.0000000E+00; -9.3178806E+00;0; -1.9235963E-01;  2.0552324E+04;  0.0000000E+00; -5.1682653E+00;  4.0000000E+04;  0.0000000E+00;  3.9306773E+04; -2.6616672E-01;  0.0000000E+00;  7.3807083E-02;  5.9877241E+03;
  1.4468802E+00;  9.9999998E-03; -2.9245207E-01;9089;  1.2031676E+00;  0.0000000E+00; -6.7536123E-02;  9.9728290E+02;  1.3668275E-01; -2.2178708E+03;3;  3.5033379E+01;  0.0000000E+00; -9.8197832E+00;0; -2.4671413E-01;  2.1688789E+04;  0.0000000E+00;  2.7597668E+01;  4.0000000E+04;  0.0000000E+00;  3.9260773E+04; -2.6630774E-01;  0.0000000E+00;  1.9593608E-02;  3.6202023E+04;
  1.4475486E+00;  9.9999998E-03; -2.8233948E-01;9090;  1.1953877E+00;  0.0000000E+00; -6.7607224E-02;  9.9618262E+02;  1.3659087E-01; -3.1155591E+03;3;  3.5495625E+01;  0.0000000E+00; -9.5147419E+00;0; -2.2709334E-01;  2.1667469E+04;  0.0000000E+00;  2.8242464E+00;  4.0000000E+04;  0.0000000E+00;  3.9284559E+04; -3.0429393E-01;  0.0000000E+00;  7.7200584E-02;  6.1172554E+03;
  1.4599617E+00;  9.9999998E-03; -2.8244087E-01;9148;  1.1911684E+00;  0.0000000E+00; -6.1737169E-02;  9.9639386E+02;  1.3332769E-01; -2.9343838E+03;3;  3.6920410E+01;  0.0000000E+00; -9.6164665E+00;0; -2.4149778E-01;  2.2764328E+04;  0.0000000E+00;  9.6999273E+00;  4.0000000E+04;  0.0000000E+00;  3.9251219E+04; -3.2690281E-01;  0.0000000E+00;  8.5405014E-02;  1.2835618E+04;
  1.4721053E+00;  9.9999998E-03; -2.8256637E-01;9205;  1.1866935E+00;  0.0000000E+00; -5.6344945E-02;  9.9730750E+02;  1.3046122E-01; -2.1833523E+03;3;  3.8326832E+01;  0.0000000E+00; -9.6768103E+00;0; -2.4461898E-01;  2.3835742E+04;  0.0000000E+00;  1.3038784E+01;  4.0000000E+04;  0.0000000E+00;  3.9207043E+04; -3.3892703E-01;  0.0000000E+00;  9.4308048E-02;  1.1914046E+04;
  1.4840983E+00;  9.9999998E-03; -2.8271094E-01;9262;  1.1820853E+00;  0.0000000E+00; -5.1179383E-02;  9.9853876E+02;  1.2794667E-01; -1.1801276E+03;3;  3.9779739E+01;  0.0000000E+00; -9.8806620E+00;0; -2.4090183E-01;  2.4863055E+04;  0.0000000E+00;  1.2694546E+01;  4.0000000E+04;  0.0000000E+00;  3.9157633E+04; -3.4174594E-01;  0.0000000E+00;  1.0084412E-01;  6.2815493E+03;
  1.4966965E+00;  9.9999998E-03; -2.7277702E-01;9319;  1.1698596E+00;  0.0000000E+00; -4.6414152E-02;  9.9802954E+02;  1.2571160E-01; -1.5833258E+03;3;  4.1667953E+01;  0.0000000E+00; -9.9558487E+00;0; -2.0826200E-01;  2.5749176E+04;  0.0000000E+00;  5.3224692E+00;  4.0000000E+04;  0.0000000E+00;  3.9136879E+04; -3.8418809E-01;  0.0000000E+00;  1.7592609E-01;  2.6641489E+03;
  1.4847637E+00;  9.9999998E-03; -2.7260661E-01;9263;  1.1747438E+00;  0.0000000E+00; -5.1567826E-02;  9.9696149E+02;  1.2790284E-01; -2.4533264E+03;3;  4.0163128E+01;  0.0000000E+00; -9.4856033E+00;0; -2.1022566E-01;  2.4794320E+04;  0.0000000E+00;  6.5330486E+00;  4.0000000E+04;  0.0000000E+00;  3.9189023E+04; -3.8405922E-01;  0.0000000E+00;  1.7383356E-01;  9.4853311E+03;
  1.4726988E+00;  9.9999998E-03; -2.7245316E-01;9206;  1.1795017E+00;  0.0000000E+00; -5.6807905E-02;  9.9612653E+02;  1.3041458E-01; -3.1403938E+03;3;  3.8748932E+01;  0.0000000E+00; -9.3747797E+00;0; -2.0905641E-01;  2.3782637E+04;  0.0000000E+00;  5.5297880E+00;  4.0000000E+04;  0.0000000E+00;  3.9237324E+04; -3.7534240E-01;  0.0000000E+00;  1.6628599E-01;  1.3379146E+04;
  1.4603928E+00;  9.9999998E-03; -2.7232283E-01;9149;  1.1839771E+00;  0.0000000E+00; -6.2388688E-02;  9.9592194E+02;  1.3328895E-01; -3.3180413E+03;3;  3.7377289E+01;  0.0000000E+00; -9.3864250E+00;0; -2.0202842E-01;  2.2735943E+04;  0.0000000E+00;  2.1135032E+00;  4.0000000E+04;  0.0000000E+00;  3.9276996E+04; -3.5863811E-01;  0.0000000E+00;  1.5660968E-01;  1.1460823E+04;
  1.4477502E+00;  9.9999998E-03; -2.7221933E-01;9091;  1.1881548E+00;  0.0000000E+00; -6.8626739E-02;  9.9643744E+02;  1.3657661E-01; -2.9074668E+03;3;  3.5989902E+01;  0.0000000E+00; -9.2713099E+00;0; -1.8321398E-01;  2.1659383E+04;  0.0000000E+00; -2.3563070E+00;  4.0000000E+04;  0.0000000E+00;  3.9305180E+04; -3.3205158E-01;  0.0000000E+00;  1.4883760E-01;  5.0784272E+03;
  1.4347224E+00;  9.9999998E-03; -2.7214381E-01;9032;  1.1919665E+00;  0.0000000E+00; -7.5476900E-02;  9.9752679E+02;  1.4032757E-01; -2.0237380E+03;3;  3.4551697E+01;  0.0000000E+00; -9.0857697E+00;0; -1.4902732E-01;  2.0548908E+04;  0.0000000E+00; -7.0936146E+00;  4.0000000E+04;  0.0000000E+00;  3.9322316E+04; -2.9080272E-01;  0.0000000E+00;  1.4177540E-01;  4.6120688E+03;
  1.4212341E+00;  9.9999998E-03; -2.7209651E-01;8973;  1.1953334E+00;  0.0000000E+00; -8.2945004E-02;  9.9906134E+02;  1.4460185E-01; -7.6978094E+02;3;  3.3065491E+01;  0.0000000E+00; -8.7528524E+00;0; -8.9053378E-02;  1.9403473E+04;  0.0000000E+00; -1.1239341E+01;  4.0000000E+04;  0.0000000E+00;  3.9328617E+04; -2.2438234E-01;  0.0000000E+00;  1.3532896E-01;  1.5398777E+04;
  1.3463584E+00;  9.9999998E-03; -2.7224091E-01;8671;  1.2038599E+00;  0.0000000E+00; -1.2790346E-01;  1.0059745E+03;  1.7597240E-01;  4.9332524E+03;3;  2.5478073E+01;  0.0000000E+00; -1.5951157E-02;0;  1.8239225E+00;  1.3276774E+04;  0.0000000E+00; -1.7811102E+01;  4.0000000E+04;  0.0000000E+00;  3.9281258E+04;  1.6323597E+00;  0.0000000E+00;  1.9156282E-01;  5.5809152E+04;
  1.3626375E+00;  9.9999998E-03; -2.7216035E-01;8732;  1.2039256E+00;  0.0000000E+00; -1.1950025E-01;  1.0049874E+03;  1.6812426E-01;  4.1143462E+03;3;  2.8535086E+01;  0.0000000E+00; -4.9957519E+00;0;  1.0454538E+00;  1.4515512E+04;  0.0000000E+00; -2.1109505E+01;  4.0000000E+04;  0.0000000E+00;  3.9299590E+04;  8.8030362E-01;  0.0000000E+00;  1.6515023E-01;  6.0782520E+04;
  1.4072767E+00;  9.9999998E-03; -2.7207598E-01;8914;  1.1981419E+00;  0.0000000E+00; -9.1107555E-02;  1.0007509E+03;  1.4945088E-01;  6.1697559E+02;3;  3.1605553E+01;  0.0000000E+00; -8.2413960E+00;0;  1.7717957E-02;  1.8221623E+04;  0.0000000E+00; -1.4975124E+01;  4.0000000E+04;  0.0000000E+00;  3.9327812E+04; -1.1363454E-01;  0.0000000E+00;  1.3135250E-01;  2.7254912E+04;
  1.3781021E+00;  9.9999998E-03; -2.7210653E-01;8793;  1.2024466E+00;  0.0000000E+00; -1.0979582E-01;  1.0036946E+03;  1.6110125E-01;  3.0445579E+03;3;  3.0046761E+01;  0.0000000E+00; -7.2191825E+00;0;  5.3084487E-01;  1.5770185E+04;  0.0000000E+00; -2.1685915E+01;  4.0000000E+04;  0.0000000E+00;  3.9313828E+04;  3.8545340E-01;  0.0000000E+00;  1.4539146E-01;  5.4895781E+04;
  1.3928649E+00;  9.9999998E-03; -2.7207956E-01;8854;  1.2005126E+00;  0.0000000E+00; -1.0020613E-01;  1.0023655E+03;  1.5492405E-01;  1.9466853E+03;3;  3.1006994E+01;  0.0000000E+00; -8.0158768E+00;0;  2.1018177E-01;  1.7009104E+04;  0.0000000E+00; -1.8474039E+01;  4.0000000E+04;  0.0000000E+00;  3.9322840E+04;  7.5427458E-02;  0.0000000E+00;  1.3475432E-01;  4.0200000E+04;
  1.5085087E+00;  9.9999998E-03; -2.7296245E-01;9374;  1.1648561E+00;  0.0000000E+00; -4.0936362E-02;  9.9916565E+02;  1.2380379E-01; -6.6667279E+02;3;  4.3274700E+01;  0.0000000E+00; -1.0858379E+01;0; -2.0929658E-01;  2.6639975E+04;  0.0000000E+00;  5.3941131E+00;  4.0000000E+04;  0.0000000E+00;  3.9080066E+04; -3.7530053E-01;  0.0000000E+00;  1.6600394E-01;  6.5630464E+03;
  9.5563877E-04;  9.9999998E-03; -2.6981127E-01;2450; -3.8773098E-04;  0.0000000E+00; -8.8181469E-04;  9.9299133E+02;  1.0000000E-01; -5.8065518E+03;3;  3.6361347E+01;  0.0000000E+00;  2.6189098E+01;0; -2.7322296E-02;  3.9436977E+04;  0.0000000E+00; -4.1488558E-01;  4.0000000E+04;  0.0000000E+00;  4.0004270E+04; -2.4856182E-02;  0.0000000E+00; -2.4661142E-03;  1.2830072E+03;
  1.3646530E-03;  9.9999998E-03; -2.5982544E-01;2451; -3.0105872E-04;  0.0000000E+00; -9.1646530E-04;  9.9178564E+02;  1.0000000E-01; -6.8054370E+03;3;  4.8266155E+01;  0.0000000E+00;  2.4907515E+01;0; -3.0119022E-02;  3.9336605E+04;  0.0000000E+00; -4.7089291E-01;  4.0000000E+04;  0.0000000E+00;  4.0010992E+04; -2.8130177E-02;  0.0000000E+00; -1.9888449E-03;  2.2498545E+03;
  1.7565571E-03;  9.9999998E-03; -2.4985301E-01;2452; -2.5311575E-04;  0.0000000E+00; -9.3536178E-04;  9.9058844E+02;  1.0000000E-01; -7.7973105E+03;3;  5.9716171E+01;  0.0000000E+00;  2.3317503E+01;0; -3.2788131E-02;  3.9238395E+04;  0.0000000E+00; -5.2882326E-01;  4.0000000E+04;  0.0000000E+00;  4.0017863E+04; -3.1328093E-02;  0.0000000E+00; -1.4600384E-03;  3.0224973E+03;
  2.1170145E-03;  9.9999998E-03; -2.3988193E-01;2453; -2.5178297E-04;  0.0000000E+00; -9.3098561E-04;  9.8942999E+02;  1.0000000E-01; -8.7570361E+03;3;  6.9748291E+01;  0.0000000E+00;  2.1333044E+01;0; -3.5316870E-02;  3.9146344E+04;  0.0000000E+00; -5.8074331E-01;  4.0000000E+04;  0.0000000E+00;  4.0019875E+04; -3.4398794E-02;  0.0000000E+00; -9.1807445E-04;  3.5045898E+03;
  2.4437201E-03;  9.9999998E-03; -2.2990796E-01;2454; -2.9581421E-04;  0.0000000E+00; -9.0052432E-04;  9.8835547E+02;  1.0000000E-01; -9.6472822E+03;3;  7.7651207E+01;  0.0000000E+00;  1.8861786E+01;0; -3.7697189E-02;  3.9063227E+04;  0.0000000E+00; -6.1717421E-01;  4.0000000E+04;  0.0000000E+00;  4.0021203E+04; -3.7299443E-02;  0.0000000E+00; -3.9774511E-04;  3.6853357E+03;
  2.7276755E-03;  9.9999998E-03; -2.1992980E-01;2455; -3.7448184E-04;  0.0000000E+00; -8.4670406E-04;  9.8739484E+02;  1.0000000E-01; -1.0443161E+04;3;  8.3189110E+01;  0.0000000E+00;  1.5985089E+01;0; -3.9917674E-02;  3.8990883E+04;  0.0000000E+00; -6.2994844E-01;  4.0000000E+04;  0.0000000E+00;  4.0019957E+04; -3.9990902E-02;  0.0000000E+00;  7.3228963E-05;  3.6082571E+03;
  2.9618368E-03;  9.9999998E-03; -2.0994788E-01;2456; -4.7132780E-04;  0.0000000E+00; -7.7743229E-04;  9.8656897E+02;  1.0000000E-01; -1.1127340E+04;3;  8.6476227E+01;  0.0000000E+00;  1.2938461E+01;0; -4.1966204E-02;  3.8929953E+04;  0.0000000E+00; -6.1486018E-01;  4.0000000E+04;  0.0000000E+00;  4.0017375E+04; -4.2442560E-02;  0.0000000E+00;  4.7635729E-04;  3.3465146E+03;
  3.1458139E-03;  9.9999998E-03; -1.9996233E-01;2457; -5.7161570E-04;  0.0000000E+00; -7.0133602E-04;  9.8588190E+02;  1.0000000E-01; -1.1696558E+04;3;  8.7934250E+01;  0.0000000E+00;  1.0009208E+01;0; -4.3832093E-02;  3.8880746E+04;  0.0000000E+00; -5.7268900E-01;  4.0000000E+04;  0.0000000E+00;  4.0013891E+04; -4.4635814E-02;  0.0000000E+00;  8.0371869E-04;  2.9801697E+03;
  3.2848238E-03;  9.9999998E-03; -1.8997382E-01;2458; -6.6329521E-04;  0.0000000E+00; -6.2295573E-04;  9.8534387E+02;  1.0000000E-01; -1.2142323E+04;3;  8.7967674E+01;  0.0000000E+00;  7.4602275E+00;0; -4.5506794E-02;  3.8842496E+04;  0.0000000E+00; -5.0863218E-01;  4.0000000E+04;  0.0000000E+00;  4.0009984E+04; -4.6563983E-02;  0.0000000E+00;  1.0571892E-03;  2.5803755E+03;
  3.3848102E-03;  9.9999998E-03; -1.7998287E-01;2459; -7.3973509E-04;  0.0000000E+00; -5.4741040E-04;  9.8493713E+02;  1.0000000E-01; -1.2479302E+04;3;  8.7153114E+01;  0.0000000E+00;  5.3799057E+00;0; -4.6983283E-02;  3.8814109E+04;  0.0000000E+00; -4.3062216E-01;  4.0000000E+04;  0.0000000E+00;  4.0006312E+04; -4.8228908E-02;  0.0000000E+00;  1.2456259E-03;  2.1998110E+03;
  3.4541499E-03;  9.9999998E-03; -1.6998921E-01;2460; -7.9648086E-04;  0.0000000E+00; -4.7883415E-04;  9.8465131E+02;  1.0000000E-01; -1.2716085E+04;3;  8.5850891E+01;  0.0000000E+00;  3.7773042E+00;0; -4.8260536E-02;  3.8794320E+04;  0.0000000E+00; -3.4736761E-01;  4.0000000E+04;  0.0000000E+00;  4.0003875E+04; -4.9642462E-02;  0.0000000E+00;  1.3819247E-03;  1.8699070E+03;
  3.5001684E-03;  9.9999998E-03; -1.5999292E-01;2461; -8.3325536E-04;  0.0000000E+00; -4.1790109E-04;  9.8446405E+02;  1.0000000E-01; -1.2871241E+04;3;  8.4376259E+01;  0.0000000E+00;  2.5686846E+00;0; -4.9342088E-02;  3.8781785E+04;  0.0000000E+00; -2.6665100E-01;  4.0000000E+04;  0.0000000E+00;  4.0001562E+04; -5.0822016E-02;  0.0000000E+00;  1.4799277E-03;  1.6039514E+03;
  3.5297577E-03;  9.9999998E-03; -1.4999467E-01;2462; -8.5260998E-04;  0.0000000E+00; -3.6558713E-04;  9.8435205E+02;  1.0000000E-01; -1.2964028E+04;3;  8.2929077E+01;  0.0000000E+00;  1.6357285E+00;0; -5.0238110E-02;  3.8774324E+04;  0.0000000E+00; -1.9428639E-01;  4.0000000E+04;  0.0000000E+00;  4.0000996E+04; -5.1789947E-02;  0.0000000E+00;  1.5518349E-03;  1.4014296E+03;
  3.5478703E-03;  9.9999998E-03; -1.3999563E-01;2463; -8.5889915E-04;  0.0000000E+00; -3.2213691E-04;  9.8429749E+02;  1.0000000E-01; -1.3009212E+04;3;  8.1581314E+01;  0.0000000E+00;  8.8703275E-01;0; -5.0964393E-02;  3.8771031E+04;  0.0000000E+00; -1.3382371E-01;  4.0000000E+04;  0.0000000E+00;  3.9999539E+04; -5.2571125E-02;  0.0000000E+00;  1.6067324E-03;  1.2528046E+03;
  3.5574257E-03;  9.9999998E-03; -1.2999547E-01;2464; -8.5762638E-04;  0.0000000E+00; -2.8624802E-04;  9.8427930E+02;  1.0000000E-01; -1.3024323E+04;3;  8.0387558E+01;  0.0000000E+00;  2.6918846E-01;0; -5.1542316E-02;  3.8770074E+04;  0.0000000E+00; -8.6729906E-02;  4.0000000E+04;  0.0000000E+00;  3.9999035E+04; -5.3192340E-02;  0.0000000E+00;  1.6500226E-03;  1.1440253E+03;
  3.5604681E-03;  9.9999998E-03; -1.1999243E-01;2465; -8.5406221E-04;  0.0000000E+00; -2.5667282E-04;  9.8427954E+02;  1.0000000E-01; -1.3024125E+04;3;  7.9371826E+01;  0.0000000E+00; -2.2940542E-01;0; -5.1997717E-02;  3.8770820E+04;  0.0000000E+00; -5.2862573E-02;  4.0000000E+04;  0.0000000E+00;  3.9997930E+04; -5.3681877E-02;  0.0000000E+00;  1.6841593E-03;  1.0618610E+03;
  3.5586597E-03;  9.9999998E-03; -1.0998683E-01;2466; -8.5261709E-04;  0.0000000E+00; -2.3258320E-04;  9.8429041E+02;  1.0000000E-01; -1.3015089E+04;3;  7.8521484E+01;  0.0000000E+00; -6.2235737E-01;0; -5.2357689E-02;  3.8771887E+04;  0.0000000E+00; -3.0493006E-02;  4.0000000E+04;  0.0000000E+00;  3.9996953E+04; -5.4068260E-02;  0.0000000E+00;  1.7105715E-03;  9.9962970E+02;
  1.0939154E-02;  9.9999998E-03; -2.6979557E-01;2510; -8.5422088E-04;  0.0000000E+00; -7.3494279E-04;  9.9387988E+02;  1.0000000E-01; -5.0704243E+03;3;  2.4216972E+01;  0.0000000E+00;  2.3084562E+01;0; -3.0551478E-02;  3.9504523E+04;  0.0000000E+00; -4.8088267E-01;  4.0000000E+04;  0.0000000E+00;  4.0006840E+04; -2.7787214E-02;  0.0000000E+00; -2.7642648E-03;  1.5584885E+03;
  1.1341483E-02;  9.9999998E-03; -2.5982922E-01;2511; -8.5334328E-04;  0.0000000E+00; -7.5865764E-04;  9.9290680E+02;  1.0000000E-01; -5.8765747E+03;3;  3.3107689E+01;  0.0000000E+00;  2.1293797E+01;0; -3.3628467E-02;  3.9421301E+04;  0.0000000E+00; -5.4543293E-01;  4.0000000E+04;  0.0000000E+00;  4.0013965E+04; -3.1411026E-02;  0.0000000E+00; -2.2174423E-03;  2.5397468E+03;
  1.1709311E-02;  9.9999998E-03; -2.4987273E-01;2512; -8.8905939E-04;  0.0000000E+00; -7.6939061E-04;  9.9193964E+02;  1.0000000E-01; -6.6778359E+03;3;  4.1221924E+01;  0.0000000E+00;  1.9616514E+01;0; -3.6545321E-02;  3.9341594E+04;  0.0000000E+00; -6.2086082E-01;  4.0000000E+04;  0.0000000E+00;  4.0019789E+04; -3.4927085E-02;  0.0000000E+00; -1.6182379E-03;  3.2718850E+03;
  1.2035602E-02;  9.9999998E-03; -2.3991334E-01;2513; -9.6214633E-04;  0.0000000E+00; -7.6558365E-04;  9.9102039E+02;  1.0000000E-01; -7.4394438E+03;3;  4.7589653E+01;  0.0000000E+00;  1.7854313E+01;0; -3.9291408E-02;  3.9268238E+04;  0.0000000E+00; -6.9593376E-01;  4.0000000E+04;  0.0000000E+00;  4.0022598E+04; -3.8279925E-02;  0.0000000E+00; -1.0114841E-03;  3.6709326E+03;
  1.2323479E-02;  9.9999998E-03; -2.2994584E-01;2514; -1.0680422E-03;  0.0000000E+00; -7.4843928E-04;  9.9017957E+02;  1.0000000E-01; -8.1360664E+03;3;  5.1732861E+01;  0.0000000E+00;  1.5835293E+01;0; -4.1860849E-02;  3.9203211E+04;  0.0000000E+00; -7.5569081E-01;  4.0000000E+04;  0.0000000E+00;  4.0022715E+04; -4.1424569E-02;  0.0000000E+00; -4.3628097E-04;  3.7434539E+03;
  1.2565132E-02;  9.9999998E-03; -2.1997090E-01;2515; -1.1967868E-03;  0.0000000E+00; -7.2014716E-04;  9.8944000E+02;  1.0000000E-01; -8.7487402E+03;3;  5.3678116E+01;  0.0000000E+00;  1.3529039E+01;0; -4.4243000E-02;  3.9148293E+04;  0.0000000E+00; -7.8632665E-01;  4.0000000E+04;  0.0000000E+00;  4.0020453E+04; -4.4320919E-02;  0.0000000E+00;  7.7917357E-05;  3.5550474E+03;
  1.2756796E-02;  9.9999998E-03; -2.0998861E-01;2516; -1.3354061E-03;  0.0000000E+00; -6.8369170E-04;  9.8880914E+02;  1.0000000E-01; -9.2713926E+03;3;  5.3832020E+01;  0.0000000E+00;  1.1072286E+01;0; -4.6427995E-02;  3.9103211E+04;  0.0000000E+00; -7.7965832E-01;  4.0000000E+04;  0.0000000E+00;  4.0016992E+04; -4.6941537E-02;  0.0000000E+00;  5.1354396E-04;  3.1956292E+03;
  1.2901855E-02;  9.9999998E-03; -2.0000000E-01;2517; -1.4709850E-03;  0.0000000E+00; -6.4032228E-04;  9.8830786E+02;  1.0000000E-01; -9.6867383E+03;3;  5.2621937E+01;  0.0000000E+00;  8.6725636E+00;0; -4.8407577E-02;  3.9068012E+04;  0.0000000E+00; -7.3492205E-01;  4.0000000E+04;  0.0000000E+00;  4.0012500E+04; -4.9272701E-02;  0.0000000E+00;  8.6512323E-04;  2.7565327E+03;
  1.3006636E-02;  9.9999998E-03; -1.9000681E-01;2518; -1.5921782E-03;  0.0000000E+00; -5.9200986E-04;  9.8792596E+02;  1.0000000E-01; -1.0003124E+04;3;  5.0645004E+01;  0.0000000E+00;  6.5355000E+00;0; -5.0175227E-02;  3.9042008E+04;  0.0000000E+00; -6.5814918E-01;  4.0000000E+04;  0.0000000E+00;  4.0008445E+04; -5.1312596E-02;  0.0000000E+00;  1.1373681E-03;  2.3128564E+03;
  1.3077765E-02;  9.9999998E-03; -1.8001013E-01;2519; -1.6905139E-03;  0.0000000E+00; -5.4255873E-04;  9.8765588E+02;  1.0000000E-01; -1.0226871E+04;3;  4.8349789E+01;  0.0000000E+00;  4.7628212E+00;0; -5.1727034E-02;  3.9023945E+04;  0.0000000E+00; -5.5989730E-01;  4.0000000E+04;  0.0000000E+00;  4.0005121E+04; -5.3069163E-02;  0.0000000E+00;  1.3421302E-03;  1.9147158E+03;
  1.3123230E-02;  9.9999998E-03; -1.7001067E-01;2520; -1.7619127E-03;  0.0000000E+00; -4.9369159E-04;  9.8748016E+02;  1.0000000E-01; -1.0372447E+04;3;  4.6073555E+01;  0.0000000E+00;  3.3686137E+00;0; -5.3063754E-02;  3.9012434E+04;  0.0000000E+00; -4.5236734E-01;  4.0000000E+04;  0.0000000E+00;  4.0002324E+04; -5.4558665E-02;  0.0000000E+00;  1.4949101E-03;  1.5882351E+03;
  1.3150493E-02;  9.9999998E-03; -1.6000992E-01;2521; -1.8064308E-03;  0.0000000E+00; -4.4738885E-04;  9.8738080E+02;  1.0000000E-01; -1.0454766E+04;3;  4.3998962E+01;  0.0000000E+00;  2.2943819E+00;0; -5.4191500E-02;  3.9006195E+04;  0.0000000E+00; -3.4680471E-01;  4.0000000E+04;  0.0000000E+00;  4.0001406E+04; -5.5802736E-02;  0.0000000E+00;  1.6112380E-03;  1.3404163E+03;
  1.3166221E-02;  9.9999998E-03; -1.5000932E-01;2522; -1.8279273E-03;  0.0000000E+00; -4.0473550E-04;  9.8733997E+02;  1.0000000E-01; -1.0488592E+04;3;  4.2182072E+01;  0.0000000E+00;  1.4576840E+00;0; -5.5122513E-02;  3.9003895E+04;  0.0000000E+00; -2.5181884E-01;  4.0000000E+04;  0.0000000E+00;  3.9999695E+04; -5.6826551E-02;  0.0000000E+00;  1.7040357E-03;  1.1642336E+03;
  1.3174102E-02;  9.9999998E-03; -1.4000826E-01;2523; -1.8324336E-03;  0.0000000E+00; -3.6671184E-04;  9.8733594E+02;  1.0000000E-01; -1.0491950E+04;3;  4.0642807E+01;  0.0000000E+00;  7.8458548E-01;0; -5.5874523E-02;  3.9004266E+04;  0.0000000E+00; -1.7270485E-01;  4.0000000E+04;  0.0000000E+00;  3.9999047E+04; -5.7656586E-02;  0.0000000E+00;  1.7820616E-03;  1.0431365E+03;
  1.3176804E-02;  9.9999998E-03; -1.3000597E-01;2524; -1.8271601E-03;  0.0000000E+00; -3.3311432E-04;  9.8734973E+02;  1.0000000E-01; -1.0480494E+04;3;  3.9361374E+01;  0.0000000E+00;  2.3548506E-01;0; -5.6471102E-02;  3.9005594E+04;  0.0000000E+00; -1.1160767E-01;  4.0000000E+04;  0.0000000E+00;  3.9999262E+04; -5.8320656E-02;  0.0000000E+00;  1.8495538E-03;  9.5624744E+02;
  1.3176235E-02;  9.9999998E-03; -1.2000204E-01;2525; -1.8190995E-03;  0.0000000E+00; -3.0340045E-04;  9.8737335E+02;  1.0000000E-01; -1.0460938E+04;3;  3.8259193E+01;  0.0000000E+00; -2.0235622E-01;0; -5.6940094E-02;  3.9007688E+04;  0.0000000E+00; -6.8156958E-02;  4.0000000E+04;  0.0000000E+00;  3.9998430E+04; -5.8847368E-02;  0.0000000E+00;  1.9072740E-03;  8.8445508E+02;
  1.3173636E-02;  9.9999998E-03; -1.0999642E-01;2526; -1.8138937E-03;  0.0000000E+00; -2.7745974E-04;  9.8739325E+02;  1.0000000E-01; -1.0444445E+04;3;  3.7345715E+01;  0.0000000E+00; -5.3874564E-01;0; -5.7310410E-02;  3.9009629E+04;  0.0000000E+00; -3.9807245E-02;  4.0000000E+04;  0.0000000E+00;  3.9998340E+04; -5.9265435E-02;  0.0000000E+00;  1.9550240E-03;  8.1835217E+02;
  2.0877507E-02;  9.9999998E-03; -2.6985189E-01;2571; -1.3859334E-03;  0.0000000E+00; -6.4292137E-04;  9.9503705E+02;  1.0000000E-01; -4.1117354E+03;3;  1.1352001E+01;  0.0000000E+00;  1.7264427E+01;0; -3.3095315E-02;  3.9592777E+04;  0.0000000E+00; -5.4779816E-01;  4.0000000E+04;  0.0000000E+00;  4.0009855E+04; -3.0070685E-02;  0.0000000E+00; -3.0246312E-03;  1.8274723E+03;
  2.1265237E-02;  9.9999998E-03; -2.5989202E-01;2572; -1.4614266E-03;  0.0000000E+00; -6.7141670E-04;  9.9433014E+02;  1.0000000E-01; -4.6973486E+03;3;  1.6641485E+01;  0.0000000E+00;  1.5385405E+01;0; -3.6378298E-02;  3.9530914E+04;  0.0000000E+00; -6.1263138E-01;  4.0000000E+04;  0.0000000E+00;  4.0016969E+04; -3.3960968E-02;  0.0000000E+00; -2.4173285E-03;  2.7605208E+03;
  2.1606941E-02;  9.9999998E-03; -2.4993980E-01;2573; -1.5741306E-03;  0.0000000E+00; -6.8830454E-04;  9.9364417E+02;  1.0000000E-01; -5.2656782E+03;3;  2.0855913E+01;  0.0000000E+00;  1.4090012E+01;0; -3.9471451E-02;  3.9473211E+04;  0.0000000E+00; -6.9492990E-01;  4.0000000E+04;  0.0000000E+00;  4.0021551E+04; -3.7713572E-02;  0.0000000E+00; -1.7578788E-03;  3.4020730E+03;
  2.1902429E-02;  9.9999998E-03; -2.3997994E-01;2574; -1.7235175E-03;  0.0000000E+00; -6.9279713E-04;  9.9299957E+02;  1.0000000E-01; -5.7997373E+03;3;  2.3333729E+01;  0.0000000E+00;  1.3068253E+01;0; -4.2366248E-02;  3.9421867E+04;  0.0000000E+00; -7.8142607E-01;  4.0000000E+04;  0.0000000E+00;  4.0022855E+04; -4.1269645E-02;  0.0000000E+00; -1.0966014E-03;  3.6819307E+03;
  2.2155989E-02;  9.9999998E-03; -2.3000717E-01;2575; -1.9034974E-03;  0.0000000E+00; -6.8634114E-04;  9.9242377E+02;  1.0000000E-01; -6.2767607E+03;3;  2.3810255E+01;  0.0000000E+00;  1.1947610E+01;0; -4.5057081E-02;  3.9378266E+04;  0.0000000E+00; -8.5342020E-01;  4.0000000E+04;  0.0000000E+00;  4.0022438E+04; -4.4580806E-02;  0.0000000E+00; -4.7627365E-04;  3.6252190E+03;
  2.2360858E-02;  9.9999998E-03; -2.2002287E-01;2576; -2.1018202E-03;  0.0000000E+00; -6.7107030E-04;  9.9192938E+02;  1.0000000E-01; -6.6863296E+03;3;  2.2524242E+01;  0.0000000E+00;  1.0549813E+01;0; -4.7535907E-02;  3.9343281E+04;  0.0000000E+00; -8.9326435E-01;  4.0000000E+04;  0.0000000E+00;  4.0018879E+04; -4.7608044E-02;  0.0000000E+00;  7.2137627E-05;  3.3184985E+03;
  2.2515601E-02;  9.9999998E-03; -2.1002927E-01;2577; -2.3033121E-03;  0.0000000E+00; -6.4918597E-04;  9.9152582E+02;  1.0000000E-01; -7.0206904E+03;3;  1.9964596E+01;  0.0000000E+00;  8.8994188E+00;0; -4.9796164E-02;  3.9316457E+04;  0.0000000E+00; -8.9005768E-01;  4.0000000E+04;  0.0000000E+00;  4.0015078E+04; -5.0327986E-02;  0.0000000E+00;  5.3182163E-04;  2.8702246E+03;
  2.2626160E-02;  9.9999998E-03; -2.0002919E-01;2578; -2.4930642E-03;  0.0000000E+00; -6.2147528E-04;  9.9122241E+02;  1.0000000E-01; -7.2720410E+03;3;  1.6665152E+01;  0.0000000E+00;  7.1605697E+00;0; -5.1833142E-02;  3.9296984E+04;  0.0000000E+00; -8.4195352E-01;  4.0000000E+04;  0.0000000E+00;  4.0010746E+04; -5.2732915E-02;  0.0000000E+00;  8.9977350E-04;  2.3808303E+03;
  2.2699099E-02;  9.9999998E-03; -1.9002533E-01;2579; -2.6577397E-03;  0.0000000E+00; -5.9056852E-04;  9.9101105E+02;  1.0000000E-01; -7.4471968E+03;3;  1.3182343E+01;  0.0000000E+00;  5.5181451E+00;0; -5.3643405E-02;  3.9284277E+04;  0.0000000E+00; -7.5551826E-01;  4.0000000E+04;  0.0000000E+00;  4.0006121E+04; -5.4827500E-02;  0.0000000E+00;  1.1840954E-03;  1.9238826E+03;
  2.2742266E-02;  9.9999998E-03; -1.8001966E-01;2580; -2.7885670E-03;  0.0000000E+00; -5.5771670E-04;  9.9088531E+02;  1.0000000E-01; -7.5513418E+03;3;  9.8852825E+00;  0.0000000E+00;  4.0969281E+00;0; -5.5225927E-02;  3.9277203E+04;  0.0000000E+00; -6.4305699E-01;  4.0000000E+04;  0.0000000E+00;  4.0003438E+04; -5.6626145E-02;  0.0000000E+00;  1.4002172E-03;  1.5397273E+03;
  2.2764677E-02;  9.9999998E-03; -1.7001428E-01;2581; -2.8819549E-03;  0.0000000E+00; -5.2379101E-04;  9.9082983E+02;  1.0000000E-01; -7.5973159E+03;3;  7.0056467E+00;  0.0000000E+00;  2.9376340E+00;0; -5.6583866E-02;  3.9274496E+04;  0.0000000E+00; -5.1905930E-01;  4.0000000E+04;  0.0000000E+00;  4.0002328E+04; -5.8150377E-02;  0.0000000E+00;  1.5665112E-03;  1.2422742E+03;
  2.2774056E-02;  9.9999998E-03; -1.6001026E-01;2582; -2.9394221E-03;  0.0000000E+00; -4.8892823E-04;  9.9082220E+02;  1.0000000E-01; -7.6036367E+03;3;  4.6482482E+00;  0.0000000E+00;  2.0179470E+00;0; -5.7725281E-02;  3.9274820E+04;  0.0000000E+00; -3.9704877E-01;  4.0000000E+04;  0.0000000E+00;  4.0000703E+04; -5.9425648E-02;  0.0000000E+00;  1.7003677E-03;  1.0305686E+03;
  2.2776179E-02;  9.9999998E-03; -1.5000726E-01;2583; -2.9666498E-03;  0.0000000E+00; -4.5389662E-04;  9.9085199E+02;  1.0000000E-01; -7.5789463E+03;3;  2.7364268E+00;  0.0000000E+00;  1.2866644E+00;0; -5.8663972E-02;  3.9277414E+04;  0.0000000E+00; -2.8746456E-01;  4.0000000E+04;  0.0000000E+00;  4.0000348E+04; -6.0479239E-02;  0.0000000E+00;  1.8152685E-03;  8.9532697E+02;
  2.2774518E-02;  9.9999998E-03; -1.4000453E-01;2584; -2.9718701E-03;  0.0000000E+00; -4.1941935E-04;  9.9089740E+02;  1.0000000E-01; -7.5413174E+03;3;  1.2155467E+00;  0.0000000E+00;  6.9808775E-01;0; -5.9419304E-02;  3.9281031E+04;  0.0000000E+00; -1.9671445E-01;  4.0000000E+04;  0.0000000E+00;  3.9999391E+04; -6.1338551E-02;  0.0000000E+00;  1.9192491E-03;  8.1707617E+02;
  2.2771275E-02;  9.9999998E-03; -1.3000162E-01;2585; -2.9644044E-03;  0.0000000E+00; -3.8582023E-04;  9.9094397E+02;  1.0000000E-01; -7.5027510E+03;3; -1.0421014E-02;  0.0000000E+00;  2.2576630E-01;0; -6.0016204E-02;  3.9284793E+04;  0.0000000E+00; -1.2727524E-01;  4.0000000E+04;  0.0000000E+00;  3.9999973E+04; -6.2030993E-02;  0.0000000E+00;  2.0147888E-03;  7.6660529E+02;
  2.2767946E-02;  9.9999998E-03; -1.1999827E-01;2586; -2.9531345E-03;  0.0000000E+00; -3.5320478E-04;  9.9098334E+02;  1.0000000E-01; -7.4701099E+03;3; -1.0453056E+00;  0.0000000E+00; -1.4148679E-01;0; -6.0484219E-02;  3.9288184E+04;  0.0000000E+00; -7.8415684E-02;  4.0000000E+04;  0.0000000E+00;  3.9999621E+04; -6.2584586E-02;  0.0000000E+00;  2.1003669E-03;  7.1533429E+02;
  2.2765335E-02;  9.9999998E-03; -1.0999473E-01;2587; -2.9451319E-03;  0.0000000E+00; -3.2241788E-04;  9.9101239E+02;  1.0000000E-01; -7.4460610E+03;3; -1.9541936E+00;  0.0000000E+00; -4.1506290E-01;0; -6.0853180E-02;  3.9291008E+04;  0.0000000E+00; -4.6842270E-02;  4.0000000E+04;  0.0000000E+00;  3.9998926E+04; -6.3026771E-02;  0.0000000E+00;  2.1735921E-03;  6.4931244E+02;
  3.0812180E-02;  9.9999998E-03; -2.6991537E-01;2632; -1.9496075E-03;  0.0000000E+00; -5.7748676E-04;  9.9627502E+02;  1.0000000E-01; -3.0860854E+03;3;  6.8880677E-01;  0.0000000E+00;  9.5071850E+00;0; -3.4883931E-02;  3.9688484E+04;  0.0000000E+00; -5.9352016E-01;  4.0000000E+04;  0.0000000E+00;  4.0011609E+04; -3.1655855E-02;  0.0000000E+00; -3.2280777E-03;  2.0176440E+03;
  3.1187657E-02;  9.9999998E-03; -2.5995010E-01;2633; -2.0982854E-03;  0.0000000E+00; -6.1499863E-04;  9.9584882E+02;  1.0000000E-01; -3.4391621E+03;3;  2.7472839E+00;  0.0000000E+00;  7.7486281E+00;0; -3.8290717E-02;  3.9649270E+04;  0.0000000E+00; -6.4098966E-01;  4.0000000E+04;  0.0000000E+00;  4.0018848E+04; -3.5723578E-02;  0.0000000E+00; -2.5671392E-03;  2.8587134E+03;
  3.1507555E-02;  9.9999998E-03; -2.4999285E-01;2634; -2.2861329E-03;  0.0000000E+00; -6.3930970E-04;  9.9545007E+02;  1.0000000E-01; -3.7695229E+03;3;  3.6173599E+00;  0.0000000E+00;  7.0893250E+00;0; -4.1481186E-02;  3.9614691E+04;  0.0000000E+00; -7.1015376E-01;  4.0000000E+04;  0.0000000E+00;  4.0022609E+04; -3.9624892E-02;  0.0000000E+00; -1.8562945E-03;  3.3746370E+03;
  3.1773619E-02;  9.9999998E-03; -2.4002649E-01;2635; -2.5106785E-03;  0.0000000E+00; -6.5044023E-04;  9.9509241E+02;  1.0000000E-01; -4.0658604E+03;3;  2.8790188E+00;  0.0000000E+00;  7.0315752E+00;0; -4.4448461E-02;  3.9586734E+04;  0.0000000E+00; -7.8836322E-01;  4.0000000E+04;  0.0000000E+00;  4.0023461E+04; -4.3297213E-02;  0.0000000E+00; -1.1512495E-03;  3.5122776E+03;
  3.1992953E-02;  9.9999998E-03; -2.3004434E-01;2636; -2.7636886E-03;  0.0000000E+00; -6.5047829E-04;  9.9478430E+02;  1.0000000E-01; -4.3211123E+03;3;  5.2886826E-01;  0.0000000E+00;  7.0309892E+00;0; -4.7189683E-02;  3.9565301E+04;  0.0000000E+00; -8.5622036E-01;  4.0000000E+04;  0.0000000E+00;  4.0021180E+04; -4.6691552E-02;  0.0000000E+00; -4.9813080E-04;  3.3175225E+03;
  3.2161910E-02;  9.9999998E-03; -2.2004879E-01;2637; -3.0306641E-03;  0.0000000E+00; -6.4217619E-04;  9.9453583E+02;  1.0000000E-01; -4.5269829E+03;3; -3.0905166E+00;  0.0000000E+00;  6.7387705E+00;0; -4.9700696E-02;  3.9550668E+04;  0.0000000E+00; -8.9485639E-01;  4.0000000E+04;  0.0000000E+00;  4.0017141E+04; -4.9771883E-02;  0.0000000E+00;  7.1187620E-05;  2.8996809E+03;
  3.2281235E-02;  9.9999998E-03; -2.1004426E-01;2638; -3.2938267E-03;  0.0000000E+00; -6.2754174E-04;  9.9435724E+02;  1.0000000E-01; -4.6749297E+03;3; -7.4672694E+00;  0.0000000E+00;  6.0762696E+00;0; -5.1978637E-02;  3.9541723E+04;  0.0000000E+00; -8.9210260E-01;  4.0000000E+04;  0.0000000E+00;  4.0012246E+04; -5.2520245E-02;  0.0000000E+00;  5.4160791E-04;  2.3865408E+03;
  3.2358401E-02;  9.9999998E-03; -2.0003487E-01;2639; -3.5359883E-03;  0.0000000E+00; -6.0900941E-04;  9.9424323E+02;  1.0000000E-01; -4.7693960E+03;3; -1.2012583E+01;  0.0000000E+00;  5.1629753E+00;0; -5.4021843E-02;  3.9537770E+04;  0.0000000E+00; -8.4504831E-01;  4.0000000E+04;  0.0000000E+00;  4.0008031E+04; -5.4935586E-02;  0.0000000E+00;  9.1374118E-04;  1.8871252E+03;
  3.2401361E-02;  9.9999998E-03; -1.9002372E-01;2640; -3.7430122E-03;  0.0000000E+00; -5.8805232E-04;  9.9419891E+02;  1.0000000E-01; -4.8060864E+03;3; -1.6315750E+01;  0.0000000E+00;  4.1668692E+00;0; -5.5829789E-02;  3.9538211E+04;  0.0000000E+00; -7.5956792E-01;  4.0000000E+04;  0.0000000E+00;  4.0003922E+04; -5.7029888E-02;  0.0000000E+00;  1.2000997E-03;  1.4675505E+03;
  3.2419980E-02;  9.9999998E-03; -1.8001369E-01;2641; -3.9052560E-03;  0.0000000E+00; -5.6739809E-04;  9.9421045E+02;  1.0000000E-01; -4.7965557E+03;3; -2.0047289E+01;  0.0000000E+00;  3.2196016E+00;0; -5.7404377E-02;  3.9541574E+04;  0.0000000E+00; -6.4752847E-01;  4.0000000E+04;  0.0000000E+00;  4.0001648E+04; -5.8824450E-02;  0.0000000E+00;  1.4200726E-03;  1.1448730E+03;
  3.2422218E-02;  9.9999998E-03; -1.7000614E-01;2642; -4.0199156E-03;  0.0000000E+00; -5.4664188E-04;  9.9426099E+02;  1.0000000E-01; -4.7546802E+03;3; -2.3057850E+01;  0.0000000E+00;  2.3856292E+00;0; -5.8750160E-02;  3.9547078E+04;  0.0000000E+00; -5.2334261E-01;  4.0000000E+04;  0.0000000E+00;  3.9999793E+04; -6.0345180E-02;  0.0000000E+00;  1.5950185E-03;  9.0560992E+02;
  3.2415539E-02;  9.9999998E-03; -1.6000119E-01;2643; -4.0903715E-03;  0.0000000E+00; -5.2331371E-04;  9.9433942E+02;  1.0000000E-01; -4.6896943E+03;3; -2.5389114E+01;  0.0000000E+00;  1.6786360E+00;0; -5.9876543E-02;  3.9553512E+04;  0.0000000E+00; -4.0074494E-01;  4.0000000E+04;  0.0000000E+00;  3.9999672E+04; -6.1620526E-02;  0.0000000E+00;  1.7439836E-03;  7.3880481E+02;
  3.2405071E-02;  9.9999998E-03; -1.4999817E-01;2644; -4.1240249E-03;  0.0000000E+00; -4.9697491E-04;  9.9442535E+02;  1.0000000E-01; -4.6184868E+03;3; -2.7124365E+01;  0.0000000E+00;  1.0869433E+00;0; -6.0798168E-02;  3.9560406E+04;  0.0000000E+00; -2.9052666E-01;  4.0000000E+04;  0.0000000E+00;  4.0000055E+04; -6.2678866E-02;  0.0000000E+00;  1.8806969E-03;  6.4728040E+02;
  3.2394107E-02;  9.9999998E-03; -1.3999638E-01;2645; -4.1312003E-03;  0.0000000E+00; -4.6719093E-04;  9.9451227E+02;  1.0000000E-01; -4.5464888E+03;3; -2.8454155E+01;  0.0000000E+00;  6.0054421E-01;0; -6.1535779E-02;  3.9566473E+04;  0.0000000E+00; -1.9940132E-01;  4.0000000E+04;  0.0000000E+00;  4.0000414E+04; -6.3547812E-02;  0.0000000E+00;  2.0120342E-03;  6.2085156E+02;
  3.2385029E-02;  9.9999998E-03; -1.2999517E-01;2646; -4.1229823E-03;  0.0000000E+00; -4.3415045E-04;  9.9458398E+02;  1.0000000E-01; -4.4870830E+03;3; -2.9499226E+01;  0.0000000E+00;  2.1345934E-01;0; -6.2115718E-02;  3.9571902E+04;  0.0000000E+00; -1.2999755E-01;  4.0000000E+04;  0.0000000E+00;  4.0001332E+04; -6.4253911E-02;  0.0000000E+00;  2.1381939E-03;  6.1868774E+02;
  3.2379068E-02;  9.9999998E-03; -1.1999435E-01;2647; -4.1097710E-03;  0.0000000E+00; -3.9851706E-04;  9.9463568E+02;  1.0000000E-01; -4.4442202E+03;3; -3.0393467E+01;  0.0000000E+00; -8.0905370E-02;0; -6.2568560E-02;  3.9575945E+04;  0.0000000E+00; -8.1402138E-02;  4.0000000E+04;  0.0000000E+00;  4.0001344E+04; -6.4823337E-02;  0.0000000E+00;  2.2547736E-03;  5.9591791E+02;
  3.2376174E-02;  9.9999998E-03; -1.0999407E-01;2648; -4.0998487E-03;  0.0000000E+00; -3.6226213E-04;  9.9466693E+02;  1.0000000E-01; -4.4183442E+03;3; -3.1215475E+01;  0.0000000E+00; -2.9439121E-01;0; -6.2925138E-02;  3.9579109E+04;  0.0000000E+00; -5.0048217E-02;  4.0000000E+04;  0.0000000E+00;  4.0000859E+04; -6.5281831E-02;  0.0000000E+00;  2.3566904E-03;  5.3203217E+02;
  4.0763456E-02;  9.9999998E-03; -2.6995865E-01;2693; -2.4956092E-03;  0.0000000E+00; -5.4000271E-04;  9.9743573E+02;  1.0000000E-01; -2.1244338E+03;3; -6.2252011E+00;  0.0000000E+00;  9.6114308E-01;0; -3.5932537E-02;  3.9779273E+04;  0.0000000E+00; -5.9156299E-01;  4.0000000E+04;  0.0000000E+00;  4.0013895E+04; -3.2570973E-02;  0.0000000E+00; -3.3615641E-03;  2.1083640E+03;
  4.1122198E-02;  9.9999998E-03; -2.5998750E-01;2694; -2.7094481E-03;  0.0000000E+00; -5.8706535E-04;  9.9727673E+02;  1.0000000E-01; -2.2561831E+03;3; -6.4868402E+00;  0.0000000E+00; -5.7765800E-01;0; -3.9377004E-02;  3.9761633E+04;  0.0000000E+00; -5.9565920E-01;  4.0000000E+04;  0.0000000E+00;  4.0019855E+04; -3.6723699E-02;  0.0000000E+00; -2.6533031E-03;  2.8357917E+03;
  4.1418549E-02;  9.9999998E-03; -2.5002274E-01;2695; -2.9650498E-03;  0.0000000E+00; -6.1708741E-04;  9.9714758E+02;  1.0000000E-01; -2.3631924E+03;3; -7.9181118E+00;  0.0000000E+00; -4.8484895E-01;0; -4.2584021E-02;  3.9749656E+04;  0.0000000E+00; -6.2475073E-01;  4.0000000E+04;  0.0000000E+00;  4.0022371E+04; -4.0683843E-02;  0.0000000E+00; -1.9001786E-03;  3.2104985E+03;
  4.1655909E-02;  9.9999998E-03; -2.4004766E-01;2696; -3.2570732E-03;  0.0000000E+00; -6.3131726E-04;  9.9704401E+02;  1.0000000E-01; -2.4489678E+03;3; -1.0677340E+01;  0.0000000E+00;  5.5765432E-01;0; -4.5549668E-02;  3.9743195E+04;  0.0000000E+00; -6.7075706E-01;  4.0000000E+04;  0.0000000E+00;  4.0022738E+04; -4.4386558E-02;  0.0000000E+00; -1.1631104E-03;  3.1969436E+03;
  4.1842341E-02;  9.9999998E-03; -2.3005638E-01;2697; -3.5759297E-03;  0.0000000E+00; -6.3014118E-04;  9.9698248E+02;  1.0000000E-01; -2.4999788E+03;3; -1.4689885E+01;  0.0000000E+00;  1.7726880E+00;0; -4.8273966E-02;  3.9742254E+04;  0.0000000E+00; -7.1734792E-01;  4.0000000E+04;  0.0000000E+00;  4.0019574E+04; -4.7782786E-02;  0.0000000E+00; -4.9117958E-04;  2.8624722E+03;
  4.1977160E-02;  9.9999998E-03; -2.2005270E-01;2698; -3.9057895E-03;  0.0000000E+00; -6.1454350E-04;  9.9696136E+02;  1.0000000E-01; -2.5174597E+03;3; -1.9539110E+01;  0.0000000E+00;  2.6767793E+00;0; -5.0756618E-02;  3.9746172E+04;  0.0000000E+00; -7.4692470E-01;  4.0000000E+04;  0.0000000E+00;  4.0014762E+04; -5.0840363E-02;  0.0000000E+00;  8.3744351E-05;  2.3404583E+03;
  4.2064071E-02;  9.9999998E-03; -2.1004142E-01;2699; -4.2235297E-03;  0.0000000E+00; -5.9625099E-04;  9.9697870E+02;  1.0000000E-01; -2.5030896E+03;3; -2.4673731E+01;  0.0000000E+00;  3.0811350E+00;0; -5.2999426E-02;  3.9753688E+04;  0.0000000E+00; -7.4691415E-01;  4.0000000E+04;  0.0000000E+00;  4.0009285E+04; -5.3548984E-02;  0.0000000E+00;  5.4955995E-04;  1.7822729E+03;
  4.2112086E-02;  9.9999998E-03; -2.0002663E-01;2700; -4.5092660E-03;  0.0000000E+00; -5.8296020E-04;  9.9703772E+02;  1.0000000E-01; -2.4542021E+03;3; -2.9614458E+01;  0.0000000E+00;  3.0421097E+00;0; -5.5003531E-02;  3.9763898E+04;  0.0000000E+00; -7.1246624E-01;  4.0000000E+04;  0.0000000E+00;  4.0005430E+04; -5.5915356E-02;  0.0000000E+00;  9.1182441E-04;  1.3158890E+03;
  4.2131208E-02;  9.9999998E-03; -1.9001262E-01;2701; -4.7487002E-03;  0.0000000E+00; -5.7602575E-04;  9.9713397E+02;  1.0000000E-01; -2.3744514E+03;3; -3.3989872E+01;  0.0000000E+00;  2.7224824E+00;0; -5.6770310E-02;  3.9775621E+04;  0.0000000E+00; -6.4627045E-01;  4.0000000E+04;  0.0000000E+00;  4.0001207E+04; -5.7958752E-02;  0.0000000E+00;  1.1884421E-03;  1.0024562E+03;
  4.2129587E-02;  9.9999998E-03; -1.8000133E-01;2702; -4.9346760E-03;  0.0000000E+00; -5.7170523E-04;  9.9725726E+02;  1.0000000E-01; -2.2722815E+03;3; -3.7590309E+01;  0.0000000E+00;  2.2738328E+00;0; -5.8302473E-02;  3.9787855E+04;  0.0000000E+00; -5.5668789E-01;  4.0000000E+04;  0.0000000E+00;  3.9999402E+04; -5.9705820E-02;  0.0000000E+00;  1.4033458E-03;  8.0743732E+02;
  4.2114757E-02;  9.9999998E-03; -1.6999342E-01;2703; -5.0657438E-03;  0.0000000E+00; -5.6617579E-04;  9.9739618E+02;  1.0000000E-01; -2.1572229E+03;3; -4.0363506E+01;  0.0000000E+00;  1.7860476E+00;0; -5.9606154E-02;  3.9799602E+04;  0.0000000E+00; -4.5486423E-01;  4.0000000E+04;  0.0000000E+00;  3.9998891E+04; -6.1186951E-02;  0.0000000E+00;  1.5807971E-03;  6.5426367E+02;
  4.2093635E-02;  9.9999998E-03; -1.5998912E-01;2704; -5.1465016E-03;  0.0000000E+00; -5.5525301E-04;  9.9753619E+02;  1.0000000E-01; -2.0412262E+03;3; -4.2377792E+01;  0.0000000E+00;  1.3072932E+00;0; -6.0691595E-02;  3.9810730E+04;  0.0000000E+00; -3.5220328E-01;  4.0000000E+04;  0.0000000E+00;  3.9999781E+04; -6.2432703E-02;  0.0000000E+00;  1.7411057E-03;  5.1986200E+02;
  4.2071547E-02;  9.9999998E-03; -1.4998817E-01;2705; -5.1857894E-03;  0.0000000E+00; -5.3714891E-04;  9.9766779E+02;  1.0000000E-01; -1.9321923E+03;3; -4.3803577E+01;  0.0000000E+00;  8.6631858E-01;0; -6.1574452E-02;  3.9820477E+04;  0.0000000E+00; -2.5827169E-01;  4.0000000E+04;  0.0000000E+00;  4.0000285E+04; -6.3472278E-02;  0.0000000E+00;  1.8978270E-03;  4.5348520E+02;
  4.2051975E-02;  9.9999998E-03; -1.3998902E-01;2706; -5.1952647E-03;  0.0000000E+00; -5.1127723E-04;  9.9778278E+02;  1.0000000E-01; -1.8369357E+03;3; -4.4837334E+01;  0.0000000E+00;  4.8859498E-01;0; -6.2276281E-02;  3.9828289E+04;  0.0000000E+00; -1.7956625E-01;  4.0000000E+04;  0.0000000E+00;  4.0002426E+04; -6.4332627E-02;  0.0000000E+00;  2.0563463E-03;  4.8464758E+02;
  4.2037405E-02;  9.9999998E-03; -1.2999135E-01;2707; -5.1872325E-03;  0.0000000E+00; -4.7815297E-04;  9.9786829E+02;  1.0000000E-01; -1.7660735E+03;3; -4.5631157E+01;  0.0000000E+00;  1.8861011E-01;0; -6.2824726E-02;  3.9834441E+04;  0.0000000E+00; -1.1907104E-01;  4.0000000E+04;  0.0000000E+00;  4.0002602E+04; -6.5038815E-02;  0.0000000E+00;  2.2140897E-03;  5.4397351E+02;
  4.2028677E-02;  9.9999998E-03; -1.1999456E-01;2708; -5.1731374E-03;  0.0000000E+00; -4.3924036E-04;  9.9792468E+02;  1.0000000E-01; -1.7193588E+03;3; -4.6339382E+01;  0.0000000E+00; -3.6619302E-02;0; -6.3251138E-02;  3.9838574E+04;  0.0000000E+00; -7.6323099E-02;  4.0000000E+04;  0.0000000E+00;  4.0003738E+04; -6.5614492E-02;  0.0000000E+00;  2.3633570E-03;  5.5613605E+02;
  4.2025030E-02;  9.9999998E-03; -1.0999774E-01;2709; -5.1621236E-03;  0.0000000E+00; -3.9704243E-04;  9.9795270E+02;  1.0000000E-01; -1.6961495E+03;3; -4.7033413E+01;  0.0000000E+00; -1.9665025E-01;0; -6.3586690E-02;  3.9841234E+04;  0.0000000E+00; -4.8331499E-02;  4.0000000E+04;  0.0000000E+00;  4.0002965E+04; -6.6082641E-02;  0.0000000E+00;  2.4959506E-03;  4.9487494E+02;
  5.0731666E-02;  9.9999998E-03; -2.6998359E-01;2754; -2.9878935E-03;  0.0000000E+00; -5.3800462E-04;  9.9840314E+02;  1.0000000E-01; -1.3229750E+03;3; -9.2771482E+00;  0.0000000E+00; -7.1684084E+00;0; -3.6333524E-02;  3.9855555E+04;  0.0000000E+00; -5.2398092E-01;  4.0000000E+04;  0.0000000E+00;  4.0014340E+04; -3.2917194E-02;  0.0000000E+00; -3.4163287E-03;  2.1109504E+03;
  5.1067449E-02;  9.9999998E-03; -2.6000905E-01;2755; -3.2588812E-03;  0.0000000E+00; -5.9043441E-04;  9.9847021E+02;  1.0000000E-01; -1.2674209E+03;3; -1.0808053E+01;  0.0000000E+00; -8.4184675E+00;0; -3.9738979E-02;  3.9856816E+04;  0.0000000E+00; -4.5487553E-01;  4.0000000E+04;  0.0000000E+00;  4.0020016E+04; -3.7071299E-02;  0.0000000E+00; -2.6676813E-03;  2.7344629E+03;
  5.1338293E-02;  9.9999998E-03; -2.5003681E-01;2756; -3.5731259E-03;  0.0000000E+00; -6.1791204E-04;  9.9856915E+02;  1.0000000E-01; -1.1854480E+03;3; -1.3388887E+01;  0.0000000E+00; -7.5685658E+00;0; -4.2891201E-02;  3.9863875E+04;  0.0000000E+00; -4.1513401E-01;  4.0000000E+04;  0.0000000E+00;  4.0022430E+04; -4.1008726E-02;  0.0000000E+00; -1.8824753E-03;  2.9808914E+03;
  5.1546615E-02;  9.9999998E-03; -2.4005410E-01;2757; -3.9262343E-03;  0.0000000E+00; -6.1721238E-04;  9.9869098E+02;  1.0000000E-01; -1.0845126E+03;3; -1.7058680E+01;  0.0000000E+00; -5.4675579E+00;0; -4.5788430E-02;  3.9876082E+04;  0.0000000E+00; -4.0636432E-01;  4.0000000E+04;  0.0000000E+00;  4.0021453E+04; -4.4661783E-02;  0.0000000E+00; -1.1266483E-03;  2.8279265E+03;
  5.1702335E-02;  9.9999998E-03; -2.3005611E-01;2758; -4.3020505E-03;  0.0000000E+00; -5.9818872E-04;  9.9883295E+02;  1.0000000E-01; -9.6688623E+02;3; -2.1595076E+01;  0.0000000E+00; -3.0830781E+00;0; -4.8435073E-02;  3.9892762E+04;  0.0000000E+00; -4.1870636E-01;  4.0000000E+04;  0.0000000E+00;  4.0017219E+04; -4.7983941E-02;  0.0000000E+00; -4.5113114E-04;  2.3590667E+03;
  5.1807567E-02;  9.9999998E-03; -2.2004674E-01;2759; -4.6786661E-03;  0.0000000E+00; -5.7421724E-04;  9.9898914E+02;  1.0000000E-01; -8.3745782E+02;3; -2.6575108E+01;  0.0000000E+00; -1.0702260E+00;0; -5.0836656E-02;  3.9911973E+04;  0.0000000E+00; -4.3736655E-01;  4.0000000E+04;  0.0000000E+00;  4.0012285E+04; -5.0950240E-02;  0.0000000E+00;  1.1358532E-04;  1.7258792E+03;
  5.1868699E-02;  9.9999998E-03; -2.1003051E-01;2760; -5.0331755E-03;  0.0000000E+00; -5.5828178E-04;  9.9916803E+02;  1.0000000E-01; -6.8926447E+02;3; -3.1567709E+01;  0.0000000E+00;  2.9474130E-01;0; -5.2997869E-02;  3.9932824E+04;  0.0000000E+00; -4.4886607E-01;  4.0000000E+04;  0.0000000E+00;  4.0006613E+04; -5.3557441E-02;  0.0000000E+00;  5.5957300E-04;  1.1084874E+03;
  5.1896397E-02;  9.9999998E-03; -2.0001327E-01;2761; -5.3463788E-03;  0.0000000E+00; -5.5589521E-04;  9.9935938E+02;  1.0000000E-01; -5.3075043E+02;3; -3.6141838E+01;  0.0000000E+00;  1.0544603E+00;0; -5.4921553E-02;  3.9953832E+04;  0.0000000E+00; -4.4425857E-01;  4.0000000E+04;  0.0000000E+00;  4.0001641E+04; -5.5819631E-02;  0.0000000E+00;  8.9807919E-04;  7.0055371E+02;
  5.1898815E-02;  9.9999998E-03; -1.8999834E-01;2762; -5.6075016E-03;  0.0000000E+00; -5.6139787E-04;  9.9956097E+02;  1.0000000E-01; -3.6374280E+02;3; -4.0042267E+01;  0.0000000E+00;  1.3670576E+00;0; -5.6609642E-02;  3.9974039E+04;  0.0000000E+00; -4.2002407E-01;  4.0000000E+04;  0.0000000E+00;  3.9998926E+04; -5.7762571E-02;  0.0000000E+00;  1.1529276E-03;  6.0612506E+02;
  5.1882260E-02;  9.9999998E-03; -1.7998718E-01;2763; -5.8087697E-03;  0.0000000E+00; -5.7203299E-04;  9.9976337E+02;  1.0000000E-01; -1.9604384E+02;3; -4.3126263E+01;  0.0000000E+00;  1.3847364E+00;0; -5.8066618E-02;  3.9992500E+04;  0.0000000E+00; -3.7755859E-01;  4.0000000E+04;  0.0000000E+00;  3.9997230E+04; -5.9419688E-02;  0.0000000E+00;  1.3530698E-03;  6.1479352E+02;
  5.1854152E-02;  9.9999998E-03; -1.6998048E-01;2764; -5.9508486E-03;  0.0000000E+00; -5.8054115E-04;  9.9996216E+02;  1.0000000E-01; -3.1357138E+01;3; -4.5414761E+01;  0.0000000E+00;  1.2205979E+00;0; -5.9299819E-02;  4.0008941E+04;  0.0000000E+00; -3.2158467E-01;  4.0000000E+04;  0.0000000E+00;  3.9997082E+04; -6.0825627E-02;  0.0000000E+00;  1.5258096E-03;  5.3901880E+02;
  5.1821552E-02;  9.9999998E-03; -1.5997910E-01;2765; -6.0393214E-03;  0.0000000E+00; -5.8176747E-04;  1.0001423E+03;  1.0000000E-01;  1.1782383E+02;3; -4.6993282E+01;  0.0000000E+00;  9.5434010E-01;0; -6.0320694E-02;  4.0022543E+04;  0.0000000E+00; -2.5885904E-01;  4.0000000E+04;  0.0000000E+00;  3.9999219E+04; -6.2013164E-02;  0.0000000E+00;  1.6924699E-03;  3.8731128E+02;
  5.1789910E-02;  9.9999998E-03; -1.4998135E-01;2766; -6.0836338E-03;  0.0000000E+00; -5.7247130E-04;  1.0002980E+03;  1.0000000E-01;  2.4690660E+02;3; -4.8039936E+01;  0.0000000E+00;  6.5203458E-01;0; -6.1145917E-02;  4.0033309E+04;  0.0000000E+00; -1.9667850E-01;  4.0000000E+04;  0.0000000E+00;  4.0002086E+04; -6.3011944E-02;  0.0000000E+00;  1.8660274E-03;  3.1158130E+02;
  5.1762927E-02;  9.9999998E-03; -1.3998629E-01;2767; -6.0958695E-03;  0.0000000E+00; -5.5065757E-04;  1.0004183E+03;  1.0000000E-01;  3.4655811E+02;3; -4.8733253E+01;  0.0000000E+00;  3.7400216E-01;0; -6.1797466E-02;  4.0041512E+04;  0.0000000E+00; -1.4132574E-01;  4.0000000E+04;  0.0000000E+00;  4.0002914E+04; -6.3847423E-02;  0.0000000E+00;  2.0499551E-03;  4.2656357E+02;
  5.1743209E-02;  9.9999998E-03; -1.2999330E-01;2768; -6.0890773E-03;  0.0000000E+00; -5.1733048E-04;  1.0005058E+03;  1.0000000E-01;  4.1904987E+02;3; -4.9275040E+01;  0.0000000E+00;  1.5305370E-01;0; -6.2303606E-02;  4.0047125E+04;  0.0000000E+00; -9.6798681E-02;  4.0000000E+04;  0.0000000E+00;  4.0005055E+04; -6.4542226E-02;  0.0000000E+00;  2.2386198E-03;  5.6440222E+02;
  5.1731136E-02;  9.9999998E-03; -1.2000082E-01;2769; -6.0751699E-03;  0.0000000E+00; -4.7456654E-04;  1.0005541E+03;  1.0000000E-01;  4.5904874E+02;3; -4.9776638E+01;  0.0000000E+00; -1.1058837E-02;0; -6.2696077E-02;  4.0050941E+04;  0.0000000E+00; -6.3994117E-02;  4.0000000E+04;  0.0000000E+00;  4.0005555E+04; -6.5116800E-02;  0.0000000E+00;  2.4207223E-03;  6.1463220E+02;
  5.1725622E-02;  9.9999998E-03; -1.1000716E-01;2770; -6.0639544E-03;  0.0000000E+00; -4.2624227E-04;  1.0005704E+03;  1.0000000E-01;  4.7257922E+02;3; -5.0317333E+01;  0.0000000E+00; -1.2609403E-01;0; -6.3005850E-02;  4.0052750E+04;  0.0000000E+00; -4.1499209E-02;  4.0000000E+04;  0.0000000E+00;  4.0004980E+04; -6.5590508E-02;  0.0000000E+00;  2.5846618E-03;  5.5453418E+02;
  6.0711917E-02;  9.9999998E-03; -2.7000099E-01;2815; -3.4102625E-03;  0.0000000E+00; -5.7039160E-04;  9.9909851E+02;  1.0000000E-01; -7.4684308E+02;3; -9.2944736E+00;  0.0000000E+00; -1.3940706E+01;0; -3.6258101E-02;  3.9910848E+04;  0.0000000E+00; -3.7493235E-01;  4.0000000E+04;  0.0000000E+00;  4.0015477E+04; -3.2869853E-02;  0.0000000E+00; -3.3882498E-03;  2.0580549E+03;
  6.1020203E-02;  9.9999998E-03; -2.6002467E-01;2816; -3.7300952E-03;  0.0000000E+00; -6.2070502E-04;  9.9934546E+02;  1.0000000E-01; -5.4225629E+02;3; -1.1210898E+01;  0.0000000E+00; -1.5004655E+01;0; -3.9564181E-02;  3.9927188E+04;  0.0000000E+00; -2.1408831E-01;  4.0000000E+04;  0.0000000E+00;  4.0020141E+04; -3.6955982E-02;  0.0000000E+00; -2.6081977E-03;  2.6344568E+03;
  6.1263986E-02;  9.9999998E-03; -2.5004646E-01;2817; -4.0948321E-03;  0.0000000E+00; -6.3315063E-04;  9.9962238E+02;  1.0000000E-01; -3.1283066E+02;3; -1.4006686E+01;  0.0000000E+00; -1.3498278E+01;0; -4.2604111E-02;  3.9949379E+04;  0.0000000E+00; -8.7160885E-02;  4.0000000E+04;  0.0000000E+00;  4.0022336E+04; -4.0800728E-02;  0.0000000E+00; -1.8033846E-03;  2.8079746E+03;
  6.1445501E-02;  9.9999998E-03; -2.4005800E-01;2818; -4.4932240E-03;  0.0000000E+00; -6.1393675E-04;  9.9991425E+02;  1.0000000E-01; -7.1059715E+01;3; -1.7625494E+01;  0.0000000E+00; -1.0501655E+01;0; -4.5379460E-02;  3.9976051E+04;  0.0000000E+00; -9.3762316E-03;  4.0000000E+04;  0.0000000E+00;  4.0020293E+04; -4.4336166E-02;  0.0000000E+00; -1.0432925E-03;  2.5658015E+03;
  6.1574899E-02;  9.9999998E-03; -2.3005456E-01;2819; -4.9066129E-03;  0.0000000E+00; -5.7893374E-04;  1.0002079E+03;  1.0000000E-01;  1.7224203E+02;3; -2.1815485E+01;  0.0000000E+00; -7.1418753E+00;0; -4.7899455E-02;  4.0005742E+04;  0.0000000E+00;  1.8013027E-02;  4.0000000E+04;  0.0000000E+00;  4.0016004E+04; -4.7520056E-02;  0.0000000E+00; -3.7939992E-04;  2.0005205E+03;
  6.1657712E-02;  9.9999998E-03; -2.2003941E-01;2820; -5.3141220E-03;  0.0000000E+00; -5.4529094E-04;  1.0004998E+03;  1.0000000E-01;  4.1411176E+02;3; -2.6225285E+01;  0.0000000E+00; -4.2070856E+00;0; -5.0173607E-02;  4.0036398E+04;  0.0000000E+00;  5.0893715E-03;  4.0000000E+04;  0.0000000E+00;  4.0010043E+04; -5.0333828E-02;  0.0000000E+00;  1.6021990E-04;  1.2663940E+03;
  6.1701883E-02;  9.9999998E-03; -2.1001929E-01;2821; -5.6907176E-03;  0.0000000E+00; -5.2893657E-04;  1.0007870E+03;  1.0000000E-01;  6.5203094E+02;3; -3.0471691E+01;  0.0000000E+00; -2.0289338E+00;0; -5.2209534E-02;  4.0066523E+04;  0.0000000E+00; -3.1567127E-02;  4.0000000E+04;  0.0000000E+00;  4.0005035E+04; -5.2781954E-02;  0.0000000E+00;  5.7242147E-04;  5.3113641E+02;
  6.1717093E-02;  9.9999998E-03; -2.0000035E-01;2822; -6.0207490E-03;  0.0000000E+00; -5.3096429E-04;  1.0010649E+03;  1.0000000E-01;  8.8224664E+02;3; -3.4247883E+01;  0.0000000E+00; -5.9863436E-01;0; -5.4012369E-02;  4.0094863E+04;  0.0000000E+00; -7.5643785E-02;  4.0000000E+04;  0.0000000E+00;  4.0000238E+04; -5.4886833E-02;  0.0000000E+00;  8.7446382E-04;  1.2609519E+02;
  6.1708599E-02;  9.9999998E-03; -1.8998495E-01;2823; -6.2929741E-03;  0.0000000E+00; -5.4666382E-04;  1.0013300E+03;  1.0000000E-01;  1.1017960E+03;3; -3.7367336E+01;  0.0000000E+00;  2.3485732E-01;0; -5.5586748E-02;  4.0120316E+04;  0.0000000E+00; -1.1439674E-01;  4.0000000E+04;  0.0000000E+00;  3.9996988E+04; -5.6683108E-02;  0.0000000E+00;  1.0963591E-03;  4.8065027E+02;
  6.1682131E-02;  9.9999998E-03; -1.7997460E-01;2824; -6.5030665E-03;  0.0000000E+00; -5.6774309E-04;  1.0015748E+03;  1.0000000E-01;  1.3046544E+03;3; -3.9757698E+01;  0.0000000E+00;  6.3597560E-01;0; -5.6938373E-02;  4.0142188E+04;  0.0000000E+00; -1.3945962E-01;  4.0000000E+04;  0.0000000E+00;  3.9996633E+04; -5.8210485E-02;  0.0000000E+00;  1.2721110E-03;  6.1472272E+02;
  6.1645113E-02;  9.9999998E-03; -1.6997096E-01;2825; -6.6520162E-03;  0.0000000E+00; -5.8749790E-04;  1.0017983E+03;  1.0000000E-01;  1.4898344E+03;3; -4.1464363E+01;  0.0000000E+00;  7.3791897E-01;0; -5.8075730E-02;  4.0160012E+04;  0.0000000E+00; -1.4713381E-01;  4.0000000E+04;  0.0000000E+00;  3.9996949E+04; -5.9508137E-02;  0.0000000E+00;  1.4324074E-03;  5.2534607E+02;
  6.1604928E-02;  9.9999998E-03; -1.5997303E-01;2826; -6.7462870E-03;  0.0000000E+00; -5.9887365E-04;  1.0019859E+03;  1.0000000E-01;  1.6452867E+03;3; -4.2570595E+01;  0.0000000E+00;  6.4717561E-01;0; -5.9011605E-02;  4.0173867E+04;  0.0000000E+00; -1.3835670E-01;  4.0000000E+04;  0.0000000E+00;  4.0000188E+04; -6.0611237E-02;  0.0000000E+00;  1.5996309E-03;  2.9197784E+02;
  6.1566658E-02;  9.9999998E-03; -1.4997926E-01;2827; -6.7955167E-03;  0.0000000E+00; -5.9718906E-04;  1.0021423E+03;  1.0000000E-01;  1.7748634E+03;3; -4.3256775E+01;  0.0000000E+00;  4.6264794E-01;0; -5.9763763E-02;  4.0184145E+04;  0.0000000E+00; -1.1789874E-01;  4.0000000E+04;  0.0000000E+00;  4.0002273E+04; -6.1549552E-02;  0.0000000E+00;  1.7857894E-03;  2.1245149E+02;
  6.1534274E-02;  9.9999998E-03; -1.3998878E-01;2828; -6.8117189E-03;  0.0000000E+00; -5.8083184E-04;  1.0022544E+03;  1.0000000E-01;  1.8677003E+03;3; -4.3669518E+01;  0.0000000E+00;  2.6921508E-01;0; -6.0354460E-02;  4.0191016E+04;  0.0000000E+00; -9.2362814E-02;  4.0000000E+04;  0.0000000E+00;  4.0005324E+04; -6.2346533E-02;  0.0000000E+00;  1.9920724E-03;  4.7607892E+02;
  6.1510209E-02;  9.9999998E-03; -1.3000064E-01;2829; -6.8077403E-03;  0.0000000E+00; -5.4882548E-04;  1.0023293E+03;  1.0000000E-01;  1.9298220E+03;3; -4.3991608E+01;  0.0000000E+00;  1.1384673E-01;0; -6.0812019E-02;  4.0195477E+04;  0.0000000E+00; -6.7585714E-02;  4.0000000E+04;  0.0000000E+00;  4.0007012E+04; -6.3021556E-02;  0.0000000E+00;  2.2095363E-03;  6.9507257E+02;
  6.1494820E-02;  9.9999998E-03; -1.2001249E-01;2830; -6.7956415E-03;  0.0000000E+00; -5.0285488E-04;  1.0023647E+03;  1.0000000E-01;  1.9590557E+03;3; -4.4327156E+01;  0.0000000E+00; -4.8146909E-04;0; -6.1167825E-02;  4.0197758E+04;  0.0000000E+00; -4.6696644E-02;  4.0000000E+04;  0.0000000E+00;  4.0007949E+04; -6.3591018E-02;  0.0000000E+00;  2.4231928E-03;  7.7873419E+02;
  6.1487623E-02;  9.9999998E-03; -1.1002122E-01;2831; -6.7855576E-03;  0.0000000E+00; -4.4843680E-04;  1.0023693E+03;  1.0000000E-01;  1.9629075E+03;3; -4.4737709E+01;  0.0000000E+00; -7.9397805E-02;0; -6.1451368E-02;  4.0198637E+04;  0.0000000E+00; -3.0677602E-02;  4.0000000E+04;  0.0000000E+00;  4.0007445E+04; -6.4069256E-02;  0.0000000E+00;  2.6178865E-03;  7.1638354E+02;
  7.0702396E-02;  9.9999998E-03; -2.7001867E-01;2876; -3.7518099E-03;  0.0000000E+00; -6.4255885E-04;  9.9949017E+02;  1.0000000E-01; -4.2235843E+02;3; -7.5208969E+00;  0.0000000E+00; -1.8917370E+01;0; -3.5946906E-02;  3.9942551E+04;  0.0000000E+00; -8.4278062E-02;  4.0000000E+04;  0.0000000E+00;  4.0016059E+04; -3.2670159E-02;  0.0000000E+00; -3.2767486E-03;  2.0056779E+03;
  7.0980981E-02;  9.9999998E-03; -2.6004344E-01;2877; -4.1124485E-03;  0.0000000E+00; -6.8530248E-04;  9.9987164E+02;  1.0000000E-01; -1.0631798E+02;3; -9.2311726E+00;  0.0000000E+00; -2.0010202E+01;0; -3.9108966E-02;  3.9969480E+04;  0.0000000E+00;  1.5324019E-01;  4.0000000E+04;  0.0000000E+00;  4.0021375E+04; -3.6631249E-02;  0.0000000E+00; -2.4777153E-03;  2.6428376E+03;
  7.1197301E-02;  9.9999998E-03; -2.5006229E-01;2878; -4.5143357E-03;  0.0000000E+00; -6.8088179E-04;  1.0002778E+03;  1.0000000E-01;  2.3021571E+02;3; -1.1633412E+01;  0.0000000E+00; -1.8070435E+01;0; -4.1992005E-02;  4.0002234E+04;  0.0000000E+00;  3.5023990E-01;  4.0000000E+04;  0.0000000E+00;  4.0022355E+04; -4.0323768E-02;  0.0000000E+00; -1.6682381E-03;  2.8386660E+03;
  7.1356110E-02;  9.9999998E-03; -2.4006791E-01;2879; -4.9453243E-03;  0.0000000E+00; -6.3927268E-04;  1.0006837E+03;  1.0000000E-01;  5.6640375E+02;3; -1.4634195E+01;  0.0000000E+00; -1.4371261E+01;0; -4.4602700E-02;  4.0038922E+04;  0.0000000E+00;  4.8168162E-01;  4.0000000E+04;  0.0000000E+00;  4.0020562E+04; -4.3683141E-02;  0.0000000E+00; -9.1955846E-04;  2.5999746E+03;
  7.1465969E-02;  9.9999998E-03; -2.3005790E-01;2880; -5.3868061E-03;  0.0000000E+00; -5.8024412E-04;  1.0010784E+03;  1.0000000E-01;  8.9350562E+02;3; -1.8021971E+01;  0.0000000E+00; -1.0235714E+01;0; -4.6955053E-02;  4.0077297E+04;  0.0000000E+00;  5.3619146E-01;  4.0000000E+04;  0.0000000E+00;  4.0015773E+04; -4.6672393E-02;  0.0000000E+00; -2.8266164E-04;  2.0383319E+03;
  7.1534120E-02;  9.9999998E-03; -2.2003670E-01;2881; -5.8128443E-03;  0.0000000E+00; -5.3150760E-04;  1.0014507E+03;  1.0000000E-01;  1.2019413E+03;3; -2.1492905E+01;  0.0000000E+00; -6.5686998E+00;0; -4.9062874E-02;  4.0115008E+04;  0.0000000E+00;  5.1714337E-01;  4.0000000E+04;  0.0000000E+00;  4.0010285E+04; -4.9280699E-02;  0.0000000E+00;  2.1782378E-04;  1.3328209E+03;
  7.1568362E-02;  9.9999998E-03; -2.1001230E-01;2882; -6.2018163E-03;  0.0000000E+00; -5.0785148E-04;  1.0017972E+03;  1.0000000E-01;  1.4889456E+03;3; -2.4752598E+01;  0.0000000E+00; -3.7620280E+00;0; -5.0936654E-02;  4.0150496E+04;  0.0000000E+00;  4.4119292E-01;  4.0000000E+04;  0.0000000E+00;  4.0004066E+04; -5.1520452E-02;  0.0000000E+00;  5.8379822E-04;  7.1959174E+02;
  7.1576044E-02;  9.9999998E-03; -1.9999044E-01;2883; -6.5385387E-03;  0.0000000E+00; -5.1054591E-04;  1.0021148E+03;  1.0000000E-01;  1.7520492E+03;3; -2.7579947E+01;  0.0000000E+00; -1.8287467E+00;0; -5.2584924E-02;  4.0182336E+04;  0.0000000E+00;  3.3324721E-01;  4.0000000E+04;  0.0000000E+00;  3.9999441E+04; -5.3423636E-02;  0.0000000E+00;  8.3871343E-04;  5.4654230E+02;
  7.1561359E-02;  9.9999998E-03; -1.8997438E-01;2884; -6.8158763E-03;  0.0000000E+00; -5.3013966E-04;  1.0024006E+03;  1.0000000E-01;  1.9887832E+03;3; -2.9857441E+01;  0.0000000E+00; -6.1208802E-01;0; -5.4015473E-02;  4.0209535E+04;  0.0000000E+00;  2.1838540E-01;  4.0000000E+04;  0.0000000E+00;  3.9996816E+04; -5.5033892E-02;  0.0000000E+00;  1.0184194E-03;  6.9487689E+02;
  7.1529612E-02;  9.9999998E-03; -1.7996542E-01;2885; -7.0298552E-03;  0.0000000E+00; -5.5830623E-04;  1.0026520E+03;  1.0000000E-01;  2.1971724E+03;3; -3.1554218E+01;  0.0000000E+00;  6.5696411E-02;0; -5.5236537E-02;  4.0231492E+04;  0.0000000E+00;  1.1574155E-01;  4.0000000E+04;  0.0000000E+00;  3.9996758E+04; -5.6398287E-02;  0.0000000E+00;  1.1617510E-03;  7.1826569E+02;
  7.1489021E-02;  9.9999998E-03; -1.6996470E-01;2886; -7.1833162E-03;  0.0000000E+00; -5.8583339E-04;  1.0028632E+03;  1.0000000E-01;  2.3720811E+03;3; -3.2707447E+01;  0.0000000E+00;  3.5908943E-01;0; -5.6257967E-02;  4.0248547E+04;  0.0000000E+00;  3.7388273E-02;  4.0000000E+04;  0.0000000E+00;  3.9997422E+04; -5.7560526E-02;  0.0000000E+00;  1.3025601E-03;  5.3131213E+02;
  7.1445629E-02;  9.9999998E-03; -1.5997005E-01;2887; -7.2826836E-03;  0.0000000E+00; -6.0489750E-04;  1.0030413E+03;  1.0000000E-01;  2.5196323E+03;3; -3.3427197E+01;  0.0000000E+00;  3.9758909E-01;0; -5.7093885E-02;  4.0260520E+04;  0.0000000E+00; -1.2262996E-02;  4.0000000E+04;  0.0000000E+00;  4.0000566E+04; -5.8558397E-02;  0.0000000E+00;  1.4645117E-03;  1.8106879E+02;
  7.1404763E-02;  9.9999998E-03; -1.4997989E-01;2888; -7.3374398E-03;  0.0000000E+00; -6.1005331E-04;  1.0031772E+03;  1.0000000E-01;  2.6322219E+03;3; -3.3824692E+01;  0.0000000E+00;  3.0336064E-01;0; -5.7762727E-02;  4.0268445E+04;  0.0000000E+00; -3.6032554E-02;  4.0000000E+04;  0.0000000E+00;  4.0004023E+04; -5.9421308E-02;  0.0000000E+00;  1.6585803E-03;  2.5315582E+02;
  7.1370214E-02;  9.9999998E-03; -1.3999386E-01;2889; -7.3591187E-03;  0.0000000E+00; -5.9806980E-04;  1.0032648E+03;  1.0000000E-01;  2.7048125E+03;3; -3.4029327E+01;  0.0000000E+00;  1.7870371E-01;0; -5.8287188E-02;  4.0273000E+04;  0.0000000E+00; -4.1507266E-02;  4.0000000E+04;  0.0000000E+00;  4.0007055E+04; -6.0170494E-02;  0.0000000E+00;  1.8833060E-03;  6.5137177E+02;
  7.1344115E-02;  9.9999998E-03; -1.3001056E-01;2890; -7.3600826E-03;  0.0000000E+00; -5.6794682E-04;  1.0033173E+03;  1.0000000E-01;  2.7482681E+03;3; -3.4194202E+01;  0.0000000E+00;  7.6247804E-02;0; -5.8694806E-02;  4.0275109E+04;  0.0000000E+00; -3.6839843E-02;  4.0000000E+04;  0.0000000E+00;  4.0009277E+04; -6.0821138E-02;  0.0000000E+00;  2.1263328E-03;  9.3118988E+02;
  7.1327008E-02;  9.9999998E-03; -1.2002599E-01;2891; -7.3518385E-03;  0.0000000E+00; -5.2125013E-04;  1.0033276E+03;  1.0000000E-01;  2.7568604E+03;3; -3.4390991E+01;  0.0000000E+00;  3.5362566E-04;0; -5.9015483E-02;  4.0275609E+04;  0.0000000E+00; -2.7962187E-02;  4.0000000E+04;  0.0000000E+00;  4.0010535E+04; -6.1384559E-02;  0.0000000E+00;  2.3690751E-03;  1.0395284E+03;
  7.1318053E-02;  9.9999998E-03; -1.1003688E-01;2892; -7.3444052E-03;  0.0000000E+00; -4.6181399E-04;  1.0033171E+03;  1.0000000E-01;  2.7481692E+03;3; -3.4685040E+01;  0.0000000E+00; -5.1311586E-02;0; -5.9276495E-02;  4.0274980E+04;  0.0000000E+00; -1.8545775E-02;  4.0000000E+04;  0.0000000E+00;  4.0010180E+04; -6.1869323E-02;  0.0000000E+00;  2.5928272E-03;  9.7213666E+02;
  8.0710113E-02;  9.9999998E-03; -2.7003324E-01;2937; -4.0078573E-03;  0.0000000E+00; -7.5766788E-04;  9.9959460E+02;  1.0000000E-01; -3.3584235E+02;3; -5.1767206E+00;  0.0000000E+00; -2.2133028E+01;0; -3.5677109E-02;  3.9950957E+04;  0.0000000E+00;  4.7842470E-01;  4.0000000E+04;  0.0000000E+00;  4.0016191E+04; -3.2594375E-02;  0.0000000E+00; -3.0827331E-03;  2.1577246E+03;
  8.0955751E-02;  9.9999998E-03; -2.6006448E-01;2938; -4.4054515E-03;  0.0000000E+00; -7.8955927E-04;  1.0000641E+03;  1.0000000E-01;  5.3134300E+01;3; -6.3895812E+00;  0.0000000E+00; -2.3473799E+01;0; -3.8664620E-02;  3.9984566E+04;  0.0000000E+00;  7.2880912E-01;  4.0000000E+04;  0.0000000E+00;  4.0022312E+04; -3.6382765E-02;  0.0000000E+00; -2.2818556E-03;  2.9326047E+03;
  8.1143491E-02;  9.9999998E-03; -2.5008464E-01;2939; -4.8403260E-03;  0.0000000E+00; -7.6290383E-04;  1.0005514E+03;  1.0000000E-01;  4.5677719E+02;3; -8.1265135E+00;  0.0000000E+00; -2.1311066E+01;0; -4.1357309E-02;  4.0023988E+04;  0.0000000E+00;  9.2547184E-01;  4.0000000E+04;  0.0000000E+00;  4.0023219E+04; -3.9870750E-02;  0.0000000E+00; -1.4865585E-03;  3.2104778E+03;
  8.1283309E-02;  9.9999998E-03; -2.4008600E-01;2940; -5.2988981E-03;  0.0000000E+00; -6.9255760E-04;  1.0010304E+03;  1.0000000E-01;  8.5370422E+02;3; -1.0307645E+01;  0.0000000E+00; -1.7122131E+01;0; -4.3768696E-02;  4.0066270E+04;  0.0000000E+00;  1.0465734E+00;  4.0000000E+04;  0.0000000E+00;  4.0021520E+04; -4.3001361E-02;  0.0000000E+00; -7.6733623E-04;  3.0242344E+03;
  8.1379585E-02;  9.9999998E-03; -2.3006997E-01;2941; -5.7604164E-03;  0.0000000E+00; -6.0428883E-04;  1.0014743E+03;  1.0000000E-01;  1.2213976E+03;3; -1.2742740E+01;  0.0000000E+00; -1.2390638E+01;0; -4.5919266E-02;  4.0109047E+04;  0.0000000E+00;  1.0796095E+00;  4.0000000E+04;  0.0000000E+00;  4.0017176E+04; -4.5745969E-02;  0.0000000E+00; -1.7329818E-04;  2.5092993E+03;
  8.1439219E-02;  9.9999998E-03; -2.2004223E-01;2942; -6.2000286E-03;  0.0000000E+00; -5.3049572E-04;  1.0018811E+03;  1.0000000E-01;  1.5584745E+03;3; -1.5215686E+01;  0.0000000E+00; -8.1747589E+00;0; -4.7828641E-02;  4.0150039E+04;  0.0000000E+00;  1.0242388E+00;  4.0000000E+04;  0.0000000E+00;  4.0010629E+04; -4.8103418E-02;  0.0000000E+00;  2.7477840E-04;  1.8676301E+03;
  8.1468530E-02;  9.9999998E-03; -2.1001062E-01;2943; -6.5945289E-03;  0.0000000E+00; -4.9313274E-04;  1.0022401E+03;  1.0000000E-01;  1.8558488E+03;3; -1.7499216E+01;  0.0000000E+00; -4.9134679E+00;0; -4.9512252E-02;  4.0187145E+04;  0.0000000E+00;  8.9432198E-01;  4.0000000E+04;  0.0000000E+00;  4.0004477E+04; -5.0096422E-02;  0.0000000E+00;  5.8416906E-04;  1.3277233E+03;
  8.1472166E-02;  9.9999998E-03; -1.9998471E-01;2944; -6.9339583E-03;  0.0000000E+00; -4.8953906E-04;  1.0025582E+03;  1.0000000E-01;  2.1194463E+03;3; -1.9452635E+01;  0.0000000E+00; -2.6373687E+00;0; -5.0981291E-02;  4.0219004E+04;  0.0000000E+00;  7.1664524E-01;  4.0000000E+04;  0.0000000E+00;  3.9999730E+04; -5.1765174E-02;  0.0000000E+00;  7.8388315E-04;  1.0549766E+03;
  8.1455380E-02;  9.9999998E-03; -1.8996751E-01;2945; -7.2110202E-03;  0.0000000E+00; -5.0990551E-04;  1.0028295E+03;  1.0000000E-01;  2.3442300E+03;3; -2.0988817E+01;  0.0000000E+00; -1.1749895E+00;0; -5.2246634E-02;  4.0245035E+04;  0.0000000E+00;  5.2443105E-01;  4.0000000E+04;  0.0000000E+00;  3.9997324E+04; -5.3161800E-02;  0.0000000E+00;  9.1516541E-04;  9.6409863E+02;
  8.1422620E-02;  9.9999998E-03; -1.7995965E-01;2946; -7.4269474E-03;  0.0000000E+00; -5.3995167E-04;  1.0030551E+03;  1.0000000E-01;  2.5310889E+03;3; -2.2103807E+01;  0.0000000E+00; -3.2462606E-01;0; -5.3319957E-02;  4.0264676E+04;  0.0000000E+00;  3.4713462E-01;  4.0000000E+04;  0.0000000E+00;  3.9996996E+04; -5.4340806E-02;  0.0000000E+00;  1.0208479E-03;  8.2304004E+02;
  8.1381872E-02;  9.9999998E-03; -1.6996068E-01;2947; -7.5836023E-03;  0.0000000E+00; -5.7126809E-04;  1.0032341E+03;  1.0000000E-01;  2.6793315E+03;3; -2.2830769E+01;  0.0000000E+00;  8.6532198E-02;0; -5.4213427E-02;  4.0278543E+04;  0.0000000E+00;  2.0317614E-01;  4.0000000E+04;  0.0000000E+00;  3.9998660E+04; -5.5350751E-02;  0.0000000E+00;  1.1373252E-03;  5.2560791E+02;
  8.1339724E-02;  9.9999998E-03; -1.5996796E-01;2948; -7.6879244E-03;  0.0000000E+00; -5.9526489E-04;  1.0033732E+03;  1.0000000E-01;  2.7946863E+03;3; -2.3249121E+01;  0.0000000E+00;  2.0942774E-01;0; -5.4941803E-02;  4.0287203E+04;  0.0000000E+00;  1.0031871E-01;  4.0000000E+04;  0.0000000E+00;  4.0002059E+04; -5.6231067E-02;  0.0000000E+00;  1.2892623E-03;  1.4643558E+02;
  8.1300877E-02;  9.9999998E-03; -1.4998047E-01;2949; -7.7490122E-03;  0.0000000E+00; -6.0594338E-04;  1.0034673E+03;  1.0000000E-01;  2.8726101E+03;3; -2.3443071E+01;  0.0000000E+00;  1.7956577E-01;0; -5.5523850E-02;  4.0291570E+04;  0.0000000E+00;  3.6648490E-02;  4.0000000E+04;  0.0000000E+00;  4.0006160E+04; -5.7010695E-02;  0.0000000E+00;  1.4868454E-03;  4.6819470E+02;
  8.1269443E-02;  9.9999998E-03; -1.3999851E-01;2950; -7.7777933E-03;  0.0000000E+00; -5.9839553E-04;  1.0035227E+03;  1.0000000E-01;  2.9185347E+03;3; -2.3520844E+01;  0.0000000E+00;  1.0632633E-01;0; -5.5981960E-02;  4.0292629E+04;  0.0000000E+00;  3.3465261E-03;  4.0000000E+04;  0.0000000E+00;  4.0010652E+04; -5.7707813E-02;  0.0000000E+00;  1.7258516E-03;  9.2408673E+02;
  8.1246026E-02;  9.9999998E-03; -1.3001898E-01;2951; -7.7856174E-03;  0.0000000E+00; -5.7154236E-04;  1.0035410E+03;  1.0000000E-01;  2.9336455E+03;3; -2.3579918E+01;  0.0000000E+00;  4.3000042E-02;0; -5.6342866E-02;  4.0291793E+04;  0.0000000E+00; -9.9732345E-03;  4.0000000E+04;  0.0000000E+00;  4.0012957E+04; -5.8333471E-02;  0.0000000E+00;  1.9906054E-03;  1.2460150E+03;
  8.1230983E-02;  9.9999998E-03; -1.2003724E-01;2952; -7.7833408E-03;  0.0000000E+00; -5.2573526E-04;  1.0035311E+03;  1.0000000E-01;  2.9254482E+03;3; -2.3691927E+01;  0.0000000E+00; -4.0216260E-03;0; -5.6633841E-02;  4.0290273E+04;  0.0000000E+00; -1.2022042E-02;  4.0000000E+04;  0.0000000E+00;  4.0013359E+04; -5.8892947E-02;  0.0000000E+00;  2.2591057E-03;  1.3726724E+03;
  8.1222169E-02;  9.9999998E-03; -1.1004986E-01;2953; -7.7804439E-03;  0.0000000E+00; -4.6436963E-04;  1.0035007E+03;  1.0000000E-01;  2.9002637E+03;3; -2.3884003E+01;  0.0000000E+00; -3.5724360E-02;0; -5.6879222E-02;  4.0288375E+04;  0.0000000E+00; -8.8870134E-03;  4.0000000E+04;  0.0000000E+00;  4.0012938E+04; -5.9388518E-02;  0.0000000E+00;  2.5092957E-03;  1.3002634E+03;
  9.0734996E-02;  9.9999998E-03; -2.7003828E-01;2998; -4.2030662E-03;  0.0000000E+00; -8.8359282E-04;  9.9945312E+02;  1.0000000E-01; -4.5307361E+02;3; -3.1341259E+00;  0.0000000E+00; -2.3822742E+01;0; -3.5720307E-02;  3.9939488E+04;  0.0000000E+00;  1.5020381E+00;  4.0000000E+04;  0.0000000E+00;  4.0016547E+04; -3.2910027E-02;  0.0000000E+00; -2.8102794E-03;  3.0368469E+03;
  9.0948485E-02;  9.9999998E-03; -2.6007760E-01;2999; -4.6421844E-03;  0.0000000E+00; -9.0110418E-04;  9.9997650E+02;  1.0000000E-01; -1.9456240E+01;3; -3.8013527E+00;  0.0000000E+00; -2.5632200E+01;0; -3.8515426E-02;  3.9976621E+04;  0.0000000E+00;  1.6454061E+00;  4.0000000E+04;  0.0000000E+00;  4.0023504E+04; -3.6485706E-02;  0.0000000E+00; -2.0297209E-03;  3.7832649E+03;
  9.1109619E-02;  9.9999998E-03; -2.5010055E-01;3000; -5.1077949E-03;  0.0000000E+00; -8.5348153E-04;  1.0005115E+03;  1.0000000E-01;  4.2379050E+02;3; -4.8559599E+00;  0.0000000E+00; -2.3452282E+01;0; -4.0993556E-02;  4.0018906E+04;  0.0000000E+00;  1.7120939E+00;  4.0000000E+04;  0.0000000E+00;  4.0025859E+04; -3.9722536E-02;  0.0000000E+00; -1.2710209E-03;  4.0426335E+03;
  9.1231257E-02;  9.9999998E-03; -2.4010056E-01;3001; -5.5907932E-03;  0.0000000E+00; -7.5352419E-04;  1.0010172E+03;  1.0000000E-01;  8.4274158E+02;3; -6.2276421E+00;  0.0000000E+00; -1.8920916E+01;0; -4.3178007E-02;  4.0063742E+04;  0.0000000E+00;  1.7046041E+00;  4.0000000E+04;  0.0000000E+00;  4.0024121E+04; -4.2576104E-02;  0.0000000E+00; -6.0190365E-04;  3.8212542E+03;
  9.1317393E-02;  9.9999998E-03; -2.3008227E-01;3002; -6.0697650E-03;  0.0000000E+00; -6.3261314E-04;  1.0014761E+03;  1.0000000E-01;  1.2229778E+03;3; -7.7896299E+00;  0.0000000E+00; -1.3760375E+01;0; -4.5098018E-02;  4.0107652E+04;  0.0000000E+00;  1.6250135E+00;  4.0000000E+04;  0.0000000E+00;  4.0019695E+04; -4.5030423E-02;  0.0000000E+00; -6.7594345E-05;  3.2542478E+03;
  9.1373973E-02;  9.9999998E-03; -2.2005181E-01;3003; -6.5190331E-03;  0.0000000E+00; -5.2885746E-04;  1.0018809E+03;  1.0000000E-01;  1.5582769E+03;3; -9.3819704E+00;  0.0000000E+00; -9.1487799E+00;0; -4.6782371E-02;  4.0148645E+04;  0.0000000E+00;  1.4766403E+00;  4.0000000E+04;  0.0000000E+00;  4.0012816E+04; -4.7098078E-02;  0.0000000E+00;  3.1570700E-04;  2.5445750E+03;
  9.1400392E-02;  9.9999998E-03; -2.1001598E-01;3004; -6.9171265E-03;  0.0000000E+00; -4.7146392E-04;  1.0022250E+03;  1.0000000E-01;  1.8434047E+03;3; -1.0856877E+01;  0.0000000E+00; -5.5826354E+00;0; -4.8253559E-02;  4.0184410E+04;  0.0000000E+00;  1.2685965E+00;  4.0000000E+04;  0.0000000E+00;  4.0005949E+04; -4.8813850E-02;  0.0000000E+00;  5.6029088E-04;  1.9014299E+03;
  9.1403536E-02;  9.9999998E-03; -1.9998376E-01;3005; -7.2530466E-03;  0.0000000E+00; -4.6188093E-04;  1.0025102E+03;  1.0000000E-01;  2.0796448E+03;3; -1.2103845E+01;  0.0000000E+00; -3.0941057E+00;0; -4.9527198E-02;  4.0214102E+04;  0.0000000E+00;  1.0208430E+00;  4.0000000E+04;  0.0000000E+00;  4.0001496E+04; -5.0227270E-02;  0.0000000E+00;  7.0007064E-04;  1.4570586E+03;
  9.1385692E-02;  9.9999998E-03; -1.8996426E-01;3006; -7.5288299E-03;  0.0000000E+00; -4.7783958E-04;  1.0027350E+03;  1.0000000E-01;  2.2659111E+03;3; -1.3070114E+01;  0.0000000E+00; -1.4956757E+00;0; -5.0616287E-02;  4.0236367E+04;  0.0000000E+00;  7.6271898E-01;  4.0000000E+04;  0.0000000E+00;  3.9998582E+04; -5.1396504E-02;  0.0000000E+00;  7.8021613E-04;  1.1741659E+03;
  9.1353253E-02;  9.9999998E-03; -1.7995612E-01;3007; -7.7437190E-03;  0.0000000E+00; -5.0797634E-04;  1.0029107E+03;  1.0000000E-01;  2.4114873E+03;3; -1.3756422E+01;  0.0000000E+00; -5.6140214E-01;0; -5.1534325E-02;  4.0252133E+04;  0.0000000E+00;  5.2515328E-01;  4.0000000E+04;  0.0000000E+00;  3.9998539E+04; -5.2380931E-02;  0.0000000E+00;  8.4660744E-04;  8.9567926E+02;
  9.1314636E-02;  9.9999998E-03; -1.6995728E-01;3008; -7.9025710E-03;  0.0000000E+00; -5.4045068E-04;  1.0030394E+03;  1.0000000E-01;  2.5180522E+03;3; -1.4187122E+01;  0.0000000E+00; -9.1370553E-02;0; -5.2296281E-02;  4.0261234E+04;  0.0000000E+00;  3.3024365E-01;  4.0000000E+04;  0.0000000E+00;  4.0000156E+04; -5.3233389E-02;  0.0000000E+00;  9.3710748E-04;  5.3282709E+02;
  9.1276579E-02;  9.9999998E-03; -1.5996470E-01;3009; -8.0116559E-03;  0.0000000E+00; -5.6706270E-04;  1.0031221E+03;  1.0000000E-01;  2.5865935E+03;3; -1.4408253E+01;  0.0000000E+00;  7.8545757E-02;0; -5.2917637E-02;  4.0265406E+04;  0.0000000E+00;  1.8650739E-01;  4.0000000E+04;  0.0000000E+00;  4.0003801E+04; -5.3994257E-02;  0.0000000E+00;  1.0766207E-03;  3.3429913E+02;
  9.1244400E-02;  9.9999998E-03; -1.4997883E-01;3010; -8.0796788E-03;  0.0000000E+00; -5.8139628E-04;  1.0031718E+03;  1.0000000E-01;  2.6277776E+03;3; -1.4490263E+01;  0.0000000E+00;  9.0257406E-02;0; -5.3416390E-02;  4.0265289E+04;  0.0000000E+00;  9.1772176E-02;  4.0000000E+04;  0.0000000E+00;  4.0008488E+04; -5.4690842E-02;  0.0000000E+00;  1.2744501E-03;  7.5412488E+02;
  9.1220900E-02;  9.9999998E-03; -1.4000008E-01;3011; -8.1166588E-03;  0.0000000E+00; -5.7840778E-04;  1.0031866E+03;  1.0000000E-01;  2.6401228E+03;3; -1.4501131E+01;  0.0000000E+00;  5.2222490E-02;0; -5.3814344E-02;  4.0262730E+04;  0.0000000E+00;  3.6467563E-02;  4.0000000E+04;  0.0000000E+00;  4.0012402E+04; -5.5338364E-02;  0.0000000E+00;  1.5240217E-03;  1.2468812E+03;
  9.1206633E-02;  9.9999998E-03; -1.3002351E-01;3012; -8.1330789E-03;  0.0000000E+00; -5.5573316E-04;  1.0031722E+03;  1.0000000E-01;  2.6281726E+03;3; -1.4508354E+01;  0.0000000E+00;  1.6783714E-02;0; -5.4136224E-02;  4.0259074E+04;  0.0000000E+00;  8.4944526E-03;  4.0000000E+04;  0.0000000E+00;  4.0015238E+04; -5.5942819E-02;  0.0000000E+00;  1.8065928E-03;  1.6009797E+03;
  9.1199465E-02;  9.9999998E-03; -1.2004406E-01;3013; -8.1389574E-03;  0.0000000E+00; -5.1292375E-04;  1.0031375E+03;  1.0000000E-01;  2.5993340E+03;3; -1.4560592E+01;  0.0000000E+00; -9.6080601E-03;0; -5.4406255E-02;  4.0255434E+04;  0.0000000E+00; -2.9259643E-03;  4.0000000E+04;  0.0000000E+00;  4.0016371E+04; -5.6503281E-02;  0.0000000E+00;  2.0970274E-03;  1.7437452E+03;
  9.1196895E-02;  9.9999998E-03; -1.1005714E-01;3014; -8.1426259E-03;  0.0000000E+00; -4.5312871E-04;  1.0030930E+03;  1.0000000E-01;  2.5624954E+03;3; -1.4676780E+01;  0.0000000E+00; -2.7676281E-02;0; -5.4644901E-02;  4.0252371E+04;  0.0000000E+00; -5.5253468E-03;  4.0000000E+04;  0.0000000E+00;  4.0015285E+04; -5.7015236E-02;  0.0000000E+00;  2.3703363E-03;  1.6698094E+03;
  1.0078494E-01;  9.9999998E-03; -2.7001455E-01;3059; -4.3828874E-03;  0.0000000E+00; -9.7200583E-04;  9.9912115E+02;  1.0000000E-01; -7.2812756E+02;3; -1.7578290E+00;  0.0000000E+00; -2.4421986E+01;0; -3.6310207E-02;  3.9912496E+04;  0.0000000E+00;  3.1947117E+00;  4.0000000E+04;  0.0000000E+00;  4.0018168E+04; -3.3845253E-02;  0.0000000E+00; -2.4649554E-03;  5.1452646E+03;
  1.0096779E-01;  9.9999998E-03; -2.6006404E-01;3060; -4.8708953E-03;  0.0000000E+00; -9.7624661E-04;  9.9967755E+02;  1.0000000E-01; -2.6715292E+02;3; -1.9781382E+00;  0.0000000E+00; -2.6852427E+01;0; -3.8899641E-02;  3.9950840E+04;  0.0000000E+00;  3.0534377E+00;  4.0000000E+04;  0.0000000E+00;  4.0025816E+04; -3.7168395E-02;  0.0000000E+00; -1.7312469E-03;  5.4906436E+03;
  1.0110959E-01;  9.9999998E-03; -2.5008962E-01;3061; -5.3718970E-03;  0.0000000E+00; -9.0673863E-04;  1.0002361E+03;  1.0000000E-01;  1.9564879E+02;3; -2.4786301E+00;  0.0000000E+00; -2.4775290E+01;0; -4.1143201E-02;  3.9994254E+04;  0.0000000E+00;  2.8069136E+00;  4.0000000E+04;  0.0000000E+00;  4.0029617E+04; -4.0107802E-02;  0.0000000E+00; -1.0354011E-03;  5.4452251E+03;
  1.0121324E-01;  9.9999998E-03; -2.4009116E-01;3062; -5.8779982E-03;  0.0000000E+00; -7.7826623E-04;  1.0007513E+03;  1.0000000E-01;  6.2250092E+02;3; -3.2061136E+00;  0.0000000E+00; -2.0039682E+01;0; -4.3075837E-02;  4.0039164E+04;  0.0000000E+00;  2.5063457E+00;  4.0000000E+04;  0.0000000E+00;  4.0027977E+04; -4.2636324E-02;  0.0000000E+00; -4.3951254E-04;  4.9718643E+03;
  1.0128725E-01;  9.9999998E-03; -2.3007609E-01;3063; -6.3695707E-03;  0.0000000E+00; -6.3008128E-04;  1.0012044E+03;  1.0000000E-01;  9.9779895E+02;3; -4.0786524E+00;  0.0000000E+00; -1.4573889E+01;0; -4.4739921E-02;  4.0082527E+04;  0.0000000E+00;  2.1873188E+00;  4.0000000E+04;  0.0000000E+00;  4.0022723E+04; -4.4757638E-02;  0.0000000E+00;  1.7718878E-05;  4.1785732E+03;
  1.0133608E-01;  9.9999998E-03; -2.2005071E-01;3064; -6.8209358E-03;  0.0000000E+00; -5.0585833E-04;  1.0015813E+03;  1.0000000E-01;  1.3100864E+03;3; -4.9910517E+00;  0.0000000E+00; -9.6734495E+00;0; -4.6176203E-02;  4.0121309E+04;  0.0000000E+00;  1.8648719E+00;  4.0000000E+04;  0.0000000E+00;  4.0015867E+04; -4.6501484E-02;  0.0000000E+00;  3.2528111E-04;  3.2550210E+03;
  1.0136508E-01;  9.9999998E-03; -2.1001855E-01;3065; -7.2150794E-03;  0.0000000E+00; -4.3563489E-04;  1.0018839E+03;  1.0000000E-01;  1.5607460E+03;3; -5.8480988E+00;  0.0000000E+00; -5.9040136E+00;0; -4.7416832E-02;  4.0154266E+04;  0.0000000E+00;  1.5415277E+00;  4.0000000E+04;  0.0000000E+00;  4.0009516E+04; -4.7916308E-02;  0.0000000E+00;  4.9947668E-04;  2.4019697E+03;
  1.0136656E-01;  9.9999998E-03; -1.9998653E-01;3066; -7.5464398E-03;  0.0000000E+00; -4.1767792E-04;  1.0021181E+03;  1.0000000E-01;  1.7548146E+03;3; -6.5829396E+00;  0.0000000E+00; -3.2978852E+00;0; -4.8483893E-02;  4.0179605E+04;  0.0000000E+00;  1.2201105E+00;  4.0000000E+04;  0.0000000E+00;  4.0003637E+04; -4.9061470E-02;  0.0000000E+00;  5.7757471E-04;  1.7561578E+03;
  1.0134765E-01;  9.9999998E-03; -1.8996377E-01;3067; -7.8174649E-03;  0.0000000E+00; -4.3007173E-04;  1.0022848E+03;  1.0000000E-01;  1.8928848E+03;3; -7.1552320E+00;  0.0000000E+00; -1.6417236E+00;0; -4.9392547E-02;  4.0197453E+04;  0.0000000E+00;  9.1209644E-01;  4.0000000E+04;  0.0000000E+00;  4.0000145E+04; -5.0000031E-02;  0.0000000E+00;  6.0748163E-04;  1.3121849E+03;
  1.0131624E-01;  9.9999998E-03; -1.7995441E-01;3068; -8.0305720E-03;  0.0000000E+00; -4.5766542E-04;  1.0023956E+03;  1.0000000E-01;  1.9847340E+03;3; -7.5557694E+00;  0.0000000E+00; -6.8133205E-01;0; -5.0156258E-02;  4.0207965E+04;  0.0000000E+00;  6.3621801E-01;  4.0000000E+04;  0.0000000E+00;  4.0000117E+04; -5.0792743E-02;  0.0000000E+00;  6.3648581E-04;  9.4206482E+02;
  1.0128023E-01;  9.9999998E-03; -1.6995347E-01;3069; -8.1903972E-03;  0.0000000E+00; -4.8994180E-04;  1.0024610E+03;  1.0000000E-01;  2.0388560E+03;3; -7.7980008E+00;  0.0000000E+00; -1.9400366E-01;0; -5.0790425E-02;  4.0212102E+04;  0.0000000E+00;  4.0991566E-01;  4.0000000E+04;  0.0000000E+00;  4.0001715E+04; -5.1493142E-02;  0.0000000E+00;  7.0271717E-04;  5.8497150E+02;
  1.0124656E-01;  9.9999998E-03; -1.5995869E-01;3070; -8.3035780E-03;  0.0000000E+00; -5.1835721E-04;  1.0024907E+03;  1.0000000E-01;  2.0634478E+03;3; -7.9127431E+00;  0.0000000E+00; -3.0832642E-03;0; -5.1311754E-02;  4.0211027E+04;  0.0000000E+00;  2.4075489E-01;  4.0000000E+04;  0.0000000E+00;  4.0005359E+04; -5.2142091E-02;  0.0000000E+00;  8.3033560E-04;  5.7394672E+02;
  1.0122152E-01;  9.9999998E-03; -1.4997371E-01;3071; -8.3784601E-03;  0.0000000E+00; -5.3614541E-04;  1.0024862E+03;  1.0000000E-01;  2.0597937E+03;3; -7.9397311E+00;  0.0000000E+00;  3.2429699E-02;0; -5.1737212E-02;  4.0206520E+04;  0.0000000E+00;  1.2555860E-01;  4.0000000E+04;  0.0000000E+00;  4.0010422E+04; -5.2764334E-02;  0.0000000E+00;  1.0271218E-03;  1.0481055E+03;
  1.0120752E-01;  9.9999998E-03; -1.3999693E-01;3072; -8.4242923E-03;  0.0000000E+00; -5.3805107E-04;  1.0024593E+03;  1.0000000E-01;  2.0374733E+03;3; -7.9281445E+00;  0.0000000E+00;  1.6612643E-02;0; -5.2086640E-02;  4.0200328E+04;  0.0000000E+00;  5.4811262E-02;  4.0000000E+04;  0.0000000E+00;  4.0014754E+04; -5.3371344E-02;  0.0000000E+00;  1.2847051E-03;  1.5718386E+03;
  1.0120337E-01;  9.9999998E-03; -1.3002224E-01;3073; -8.4506609E-03;  0.0000000E+00; -5.2047602E-04;  1.0024183E+03;  1.0000000E-01;  2.0034989E+03;3; -7.9203334E+00;  0.0000000E+00; -1.1082827E-03;0; -5.2381989E-02;  4.0193945E+04;  0.0000000E+00;  1.5696874E-02;  4.0000000E+04;  0.0000000E+00;  4.0017383E+04; -5.3963766E-02;  0.0000000E+00;  1.5817756E-03;  1.9539465E+03;
  1.0120602E-01;  9.9999998E-03; -1.2004286E-01;3074; -8.4663425E-03;  0.0000000E+00; -4.8246540E-04;  1.0023679E+03;  1.0000000E-01;  1.9618210E+03;3; -7.9439611E+00;  0.0000000E+00; -1.4521278E-02;0; -5.2643601E-02;  4.0188535E+04;  0.0000000E+00; -3.4107955E-03;  4.0000000E+04;  0.0000000E+00;  4.0018656E+04; -5.4534025E-02;  0.0000000E+00;  1.8904236E-03;  2.1140764E+03;
  1.0121317E-01;  9.9999998E-03; -1.1005297E-01;3075; -8.4784925E-03;  0.0000000E+00; -4.2772587E-04;  1.0023151E+03;  1.0000000E-01;  1.9179705E+03;3; -8.0084667E+00;  0.0000000E+00; -2.3600541E-02;0; -5.2886523E-02;  4.0185027E+04;  0.0000000E+00; -1.0930183E-02;  4.0000000E+04;  0.0000000E+00;  4.0018176E+04; -5.5069763E-02;  0.0000000E+00;  2.1832415E-03;  2.0447156E+03;
  1.1084741E-01;  9.9999998E-03; -2.6994890E-01;3120; -4.6193250E-03;  0.0000000E+00; -9.4562734E-04;  9.9867456E+02;  1.0000000E-01; -1.0980924E+03;3; -9.1078585E-01;  0.0000000E+00; -2.4589687E+01;0; -3.7628692E-02;  3.9874926E+04;  0.0000000E+00;  5.7298737E+00;  4.0000000E+04;  0.0000000E+00;  4.0020480E+04; -3.5562828E-02;  0.0000000E+00; -2.0658639E-03;  8.6779629E+03;
  1.1100759E-01;  9.9999998E-03; -2.6000825E-01;3121; -5.1555294E-03;  0.0000000E+00; -9.4768975E-04;  9.9925586E+02;  1.0000000E-01; -6.1652576E+02;3; -8.9332616E-01;  0.0000000E+00; -2.7598297E+01;0; -3.9988026E-02;  3.9913633E+04;  0.0000000E+00;  5.0723405E+00;  4.0000000E+04;  0.0000000E+00;  4.0030184E+04; -3.8583945E-02;  0.0000000E+00; -1.4040819E-03;  8.2396172E+03;
  1.1114146E-01;  9.9999998E-03; -2.5003925E-01;3122; -5.6854943E-03;  0.0000000E+00; -8.7378977E-04;  9.9982690E+02;  1.0000000E-01; -1.4340335E+02;3; -1.0628598E+00;  0.0000000E+00; -2.5658741E+01;0; -4.1967124E-02;  3.9957305E+04;  0.0000000E+00;  4.2891006E+00;  4.0000000E+04;  0.0000000E+00;  4.0034105E+04; -4.1171242E-02;  0.0000000E+00; -7.9588313E-04;  7.5065977E+03;
  1.1124473E-01;  9.9999998E-03; -2.4004567E-01;3123; -6.2078116E-03;  0.0000000E+00; -7.3334307E-04;  1.0003429E+03;  1.0000000E-01;  2.8404135E+02;3; -1.3713688E+00;  0.0000000E+00; -2.0775988E+01;0; -4.3618672E-02;  4.0001672E+04;  0.0000000E+00;  3.5042849E+00;  4.0000000E+04;  0.0000000E+00;  4.0033477E+04; -4.3323562E-02;  0.0000000E+00; -2.9511075E-04;  6.4836724E+03;
  1.1131295E-01;  9.9999998E-03; -2.3003586E-01;3124; -6.7032608E-03;  0.0000000E+00; -5.7426287E-04;  1.0007815E+03;  1.0000000E-01;  6.4748785E+02;3; -1.7731384E+00;  0.0000000E+00; -1.5066875E+01;0; -4.4999417E-02;  4.0043551E+04;  0.0000000E+00;  2.8010037E+00;  4.0000000E+04;  0.0000000E+00;  4.0027711E+04; -4.5068525E-02;  0.0000000E+00;  6.9107744E-05;  5.2606006E+03;
  1.1135655E-01;  9.9999998E-03; -2.2001812E-01;3125; -7.1497797E-03;  0.0000000E+00; -4.4343300E-04;  1.0011238E+03;  1.0000000E-01;  9.3103540E+02;3; -2.2134037E+00;  0.0000000E+00; -9.9370575E+00;0; -4.6165314E-02;  4.0079867E+04;  0.0000000E+00;  2.2108741E+00;  4.0000000E+04;  0.0000000E+00;  4.0020414E+04; -4.6457145E-02;  0.0000000E+00;  2.9183121E-04;  3.9912910E+03;
  1.1137256E-01;  9.9999998E-03; -2.0999838E-01;3126; -7.5341016E-03;  0.0000000E+00; -3.7021132E-04;  1.0013744E+03;  1.0000000E-01;  1.1386345E+03;3; -2.6458850E+00;  0.0000000E+00; -6.0157681E+00;0; -4.7159936E-02;  4.0109203E+04;  0.0000000E+00;  1.7252160E+00;  4.0000000E+04;  0.0000000E+00;  4.0012664E+04; -4.7552545E-02;  0.0000000E+00;  3.9260738E-04;  2.8532815E+03;
  1.1136670E-01;  9.9999998E-03; -1.9997902E-01;3127; -7.8552226E-03;  0.0000000E+00; -3.5071827E-04;  1.0015480E+03;  1.0000000E-01;  1.2825316E+03;3; -3.0297084E+00;  0.0000000E+00; -3.3463295E+00;0; -4.8012227E-02;  4.0130207E+04;  0.0000000E+00;  1.3193650E+00;  4.0000000E+04;  0.0000000E+00;  4.0005965E+04; -4.8422638E-02;  0.0000000E+00;  4.1041244E-04;  1.9818240E+03;
  1.1134639E-01;  9.9999998E-03; -1.8996078E-01;3128; -8.1188707E-03;  0.0000000E+00; -3.6157522E-04;  1.0016496E+03;  1.0000000E-01;  1.3666774E+03;3; -3.3386381E+00;  0.0000000E+00; -1.6783439E+00;0; -4.8739519E-02;  4.0143047E+04;  0.0000000E+00;  9.7324246E-01;  4.0000000E+04;  0.0000000E+00;  4.0002211E+04; -4.9133439E-02;  0.0000000E+00;  3.9391994E-04;  1.3928916E+03;
  1.1131394E-01;  9.9999998E-03; -1.7995049E-01;3129; -8.3281491E-03;  0.0000000E+00; -3.8865310E-04;  1.0016955E+03;  1.0000000E-01;  1.4047010E+03;3; -3.5596001E+00;  0.0000000E+00; -7.2508919E-01;0; -4.9354188E-02;  4.0148285E+04;  0.0000000E+00;  6.8017304E-01;  4.0000000E+04;  0.0000000E+00;  4.0001293E+04; -4.9744628E-02;  0.0000000E+00;  3.9044151E-04;  9.7011969E+02;
  1.1127964E-01;  9.9999998E-03; -1.6994694E-01;3130; -8.4878756E-03;  0.0000000E+00; -4.2170341E-04;  1.0016980E+03;  1.0000000E-01;  1.4067750E+03;3; -3.6915865E+00;  0.0000000E+00; -2.4208014E-01;0; -4.9869575E-02;  4.0147070E+04;  0.0000000E+00;  4.4264340E-01;  4.0000000E+04;  0.0000000E+00;  4.0002863E+04; -5.0306540E-02;  0.0000000E+00;  4.3696573E-04;  6.6672021E+02;
  1.1125111E-01;  9.9999998E-03; -1.5994853E-01;3131; -8.6047808E-03;  0.0000000E+00; -4.5205347E-04;  1.0016693E+03;  1.0000000E-01;  1.3829733E+03;3; -3.7494621E+00;  0.0000000E+00; -4.6693411E-02;0; -5.0301660E-02;  4.0141180E+04;  0.0000000E+00;  2.6300582E-01;  4.0000000E+04;  0.0000000E+00;  4.0006480E+04; -5.0857428E-02;  0.0000000E+00;  5.5576756E-04;  7.8757166E+02;
  1.1123652E-01;  9.9999998E-03; -1.4996292E-01;3132; -8.6866990E-03;  0.0000000E+00; -4.7345023E-04;  1.0016196E+03;  1.0000000E-01;  1.3417892E+03;3; -3.7589953E+00;  0.0000000E+00; -1.1548589E-04;0; -5.0666526E-02;  4.0132773E+04;  0.0000000E+00;  1.3769794E-01;  4.0000000E+04;  0.0000000E+00;  4.0011152E+04; -5.1418938E-02;  0.0000000E+00;  7.5240998E-04;  1.3029050E+03;
  1.1123853E-01;  9.9999998E-03; -1.3998601E-01;3133; -8.7423353E-03;  0.0000000E+00; -4.8064883E-04;  1.0015604E+03;  1.0000000E-01;  1.2928030E+03;3; -3.7477965E+00;  0.0000000E+00; -3.9695357E-03;0; -5.0980613E-02;  4.0123469E+04;  0.0000000E+00;  5.7660662E-02;  4.0000000E+04;  0.0000000E+00;  4.0016566E+04; -5.1997449E-02;  0.0000000E+00;  1.0168364E-03;  1.8555360E+03;
  1.1125568E-01;  9.9999998E-03; -1.3000844E-01;3134; -8.7802280E-03;  0.0000000E+00; -4.6855985E-04;  1.0014983E+03;  1.0000000E-01;  1.2413477E+03;3; -3.7385135E+00;  0.0000000E+00; -1.1110078E-02;0; -5.1261954E-02;  4.0114922E+04;  0.0000000E+00;  1.0851732E-02;  4.0000000E+04;  0.0000000E+00;  4.0019266E+04; -5.2587781E-02;  0.0000000E+00;  1.3258265E-03;  2.2650591E+03;
  1.1129179E-01;  9.9999998E-03; -1.2002254E-01;3135; -8.8081714E-03;  0.0000000E+00; -4.3682489E-04;  1.0014344E+03;  1.0000000E-01;  1.1884109E+03;3; -3.7430050E+00;  0.0000000E+00; -1.6267510E-02;0; -5.1525701E-02;  4.0108500E+04;  0.0000000E+00; -1.3927728E-02;  4.0000000E+04;  0.0000000E+00;  4.0020246E+04; -5.3174708E-02;  0.0000000E+00;  1.6490065E-03;  2.4456616E+03;
  1.1138245E-01;  9.9999998E-03; -1.1001890E-01;3136; -8.8335378E-03;  0.0000000E+00; -3.8849146E-04;  1.0013792E+03;  1.0000000E-01;  1.1425850E+03;3; -3.7557364E+00;  0.0000000E+00; -1.9821135E-02;0; -5.1778939E-02;  4.0104242E+04;  0.0000000E+00; -2.4944695E-02;  4.0000000E+04;  0.0000000E+00;  4.0020324E+04; -5.3735230E-02;  0.0000000E+00;  1.9562913E-03;  2.3871333E+03;
  1.2085624E-01;  9.9999998E-03; -2.6985806E-01;3181; -4.9605039E-03;  0.0000000E+00; -7.6776301E-04;  9.9819281E+02;  1.0000000E-01; -1.4972416E+03;3; -6.7837000E-02;  0.0000000E+00; -2.5182627E+01;0; -3.9787374E-02;  3.9832727E+04;  0.0000000E+00;  9.2036362E+00;  4.0000000E+04;  0.0000000E+00;  4.0025164E+04; -3.8130589E-02;  0.0000000E+00; -1.6567851E-03;  1.3703295E+04;
  1.2101239E-01;  9.9999998E-03; -2.5992545E-01;3182; -5.5377795E-03;  0.0000000E+00; -7.8456535E-04;  9.9879437E+02;  1.0000000E-01; -9.9883594E+02;3; -1.3911954E-01;  0.0000000E+00; -2.8461733E+01;0; -4.1862637E-02;  3.9872160E+04;  0.0000000E+00;  7.7433677E+00;  4.0000000E+04;  0.0000000E+00;  4.0035348E+04; -4.0781517E-02;  0.0000000E+00; -1.0811202E-03;  1.2067390E+04;
  1.2115669E-01;  9.9999998E-03; -2.4996610E-01;3183; -6.0903872E-03;  0.0000000E+00; -7.2232989E-04;  9.9937671E+02;  1.0000000E-01; -5.1638043E+02;3; -2.9286593E-01;  0.0000000E+00; -2.6470322E+01;0; -4.3526903E-02;  3.9915855E+04;  0.0000000E+00;  6.1758885E+00;  4.0000000E+04;  0.0000000E+00;  4.0039473E+04; -4.2949658E-02;  0.0000000E+00; -5.7724374E-04;  1.0235310E+04;
  1.2127900E-01;  9.9999998E-03; -2.3998140E-01;3184; -6.6190688E-03;  0.0000000E+00; -5.9327891E-04;  9.9989270E+02;  1.0000000E-01; -8.8886375E+01;3; -4.5648438E-01;  0.0000000E+00; -2.1378510E+01;0; -4.4855572E-02;  3.9959891E+04;  0.0000000E+00;  4.7143736E+00;  4.0000000E+04;  0.0000000E+00;  4.0038613E+04; -4.4669475E-02;  0.0000000E+00; -1.8609513E-04;  8.3382939E+03;
  1.2137177E-01;  9.9999998E-03; -2.2998103E-01;3185; -7.1052816E-03;  0.0000000E+00; -4.4924024E-04;  1.0003159E+03;  1.0000000E-01;  2.6172098E+02;3; -6.1492622E-01;  0.0000000E+00; -1.5413143E+01;0; -4.5920733E-02;  4.0000672E+04;  0.0000000E+00;  3.4901273E+00;  4.0000000E+04;  0.0000000E+00;  4.0033012E+04; -4.5996092E-02;  0.0000000E+00;  7.5358432E-05;  6.4715190E+03;
  1.2142117E-01;  9.9999998E-03; -2.1997169E-01;3186; -7.5353729E-03;  0.0000000E+00; -3.3544758E-04;  1.0006304E+03;  1.0000000E-01;  5.2225684E+02;3; -7.7226806E-01;  0.0000000E+00; -1.0074249E+01;0; -4.6792343E-02;  4.0035273E+04;  0.0000000E+00;  2.5451350E+00;  4.0000000E+04;  0.0000000E+00;  4.0024953E+04; -4.7001265E-02;  0.0000000E+00;  2.0892272E-04;  4.7402373E+03;
  1.2144312E-01;  9.9999998E-03; -2.0996013E-01;3187; -7.9013342E-03;  0.0000000E+00; -2.7873807E-04;  1.0008406E+03;  1.0000000E-01;  6.9647412E+02;3; -9.2625970E-01;  0.0000000E+00; -6.0358524E+00;0; -4.7526971E-02;  4.0061484E+04;  0.0000000E+00;  1.8502626E+00;  4.0000000E+04;  0.0000000E+00;  4.0015695E+04; -4.7763683E-02;  0.0000000E+00;  2.3671347E-04;  3.2644309E+03;
  1.2144805E-01;  9.9999998E-03; -1.9994979E-01;3188; -8.2102148E-03;  0.0000000E+00; -2.6376257E-04;  1.0009521E+03;  1.0000000E-01;  7.8881720E+02;3; -1.0730046E+00;  0.0000000E+00; -3.3199437E+00;0; -4.8159499E-02;  4.0078539E+04;  0.0000000E+00;  1.3432543E+00;  4.0000000E+04;  0.0000000E+00;  4.0008324E+04; -4.8357282E-02;  0.0000000E+00;  1.9778163E-04;  2.1513489E+03;
  1.2143067E-01;  9.9999998E-03; -1.8993972E-01;3189; -8.4646568E-03;  0.0000000E+00; -2.7681838E-04;  1.0009920E+03;  1.0000000E-01;  8.2190271E+02;3; -1.2064226E+00;  0.0000000E+00; -1.6595759E+00;0; -4.8706550E-02;  4.0086734E+04;  0.0000000E+00;  9.6247959E-01;  4.0000000E+04;  0.0000000E+00;  4.0003312E+04; -4.8847347E-02;  0.0000000E+00;  1.4079749E-04;  1.4234911E+03;
  1.2140039E-01;  9.9999998E-03; -1.7993066E-01;3190; -8.6686509E-03;  0.0000000E+00; -3.0564450E-04;  1.0009759E+03;  1.0000000E-01;  8.0847095E+02;3; -1.3116692E+00;  0.0000000E+00; -7.2634685E-01;0; -4.9178749E-02;  4.0087145E+04;  0.0000000E+00;  6.6596919E-01;  4.0000000E+04;  0.0000000E+00;  4.0002180E+04; -4.9290296E-02;  0.0000000E+00;  1.1154694E-04;  9.6744641E+02;
  1.2137630E-01;  9.9999998E-03; -1.6992173E-01;3191; -8.8276528E-03;  0.0000000E+00; -3.4100379E-04;  1.0009231E+03;  1.0000000E-01;  7.6471912E+02;3; -1.3778461E+00;  0.0000000E+00; -2.5676927E-01;0; -4.9586244E-02;  4.0081488E+04;  0.0000000E+00;  4.3298191E-01;  4.0000000E+04;  0.0000000E+00;  4.0003668E+04; -4.9730785E-02;  0.0000000E+00;  1.4453946E-04;  7.2246387E+02;
  1.2137639E-01;  9.9999998E-03; -1.5991610E-01;3192; -8.9487759E-03;  0.0000000E+00; -3.7422424E-04;  1.0008464E+03;  1.0000000E-01;  7.0121472E+02;3; -1.4059845E+00;  0.0000000E+00; -6.4696126E-02;0; -4.9941413E-02;  4.0071223E+04;  0.0000000E+00;  2.5577766E-01;  4.0000000E+04;  0.0000000E+00;  4.0007594E+04; -5.0200339E-02;  0.0000000E+00;  2.5892476E-04;  9.2818683E+02;
  1.2142210E-01;  9.9999998E-03; -1.4992513E-01;3193; -9.0400809E-03;  0.0000000E+00; -3.9912446E-04;  1.0007581E+03;  1.0000000E-01;  6.2813037E+02;3; -1.4059983E+00;  0.0000000E+00; -1.4688618E-02;0; -5.0257985E-02;  4.0059332E+04;  0.0000000E+00;  1.2934688E-01;  4.0000000E+04;  0.0000000E+00;  4.0012824E+04; -5.0715122E-02;  0.0000000E+00;  4.5713858E-04;  1.4789227E+03;
  1.2151701E-01;  9.9999998E-03; -1.3994141E-01;3194; -9.1096740E-03;  0.0000000E+00; -4.1077641E-04;  1.0006662E+03;  1.0000000E-01;  5.5188562E+02;3; -1.3913772E+00;  0.0000000E+00; -1.2180963E-02;0; -5.0549418E-02;  4.0047402E+04;  0.0000000E+00;  4.5856491E-02;  4.0000000E+04;  0.0000000E+00;  4.0016535E+04; -5.1276524E-02;  0.0000000E+00;  7.2710734E-04;  2.0604338E+03;
  1.2165421E-01;  9.9999998E-03; -1.2995334E-01;3195; -9.1648931E-03;  0.0000000E+00; -4.0462395E-04;  1.0005826E+03;  1.0000000E-01;  4.8275177E+02;3; -1.3740371E+00;  0.0000000E+00; -1.3938544E-02;0; -5.0828889E-02;  4.0037094E+04;  0.0000000E+00; -4.7221007E-03;  4.0000000E+04;  0.0000000E+00;  4.0020496E+04; -5.1873218E-02;  0.0000000E+00;  1.0443295E-03;  2.4968052E+03;
  1.2178411E-01;  9.9999998E-03; -1.1995611E-01;3196; -9.2101078E-03;  0.0000000E+00; -3.7920545E-04;  1.0005141E+03;  1.0000000E-01;  4.2596326E+02;3; -1.3672523E+00;  0.0000000E+00; -1.4943614E-02;0; -5.1107820E-02;  4.0029770E+04;  0.0000000E+00; -3.2240458E-02;  4.0000000E+04;  0.0000000E+00;  4.0021848E+04; -5.2485902E-02;  0.0000000E+00;  1.3780805E-03;  2.6980874E+03;
  1.2186220E-01;  9.9999998E-03; -1.0995437E-01;3197; -9.2481850E-03;  0.0000000E+00; -3.3911725E-04;  1.0004651E+03;  1.0000000E-01;  3.8527304E+02;3; -1.3785880E+00;  0.0000000E+00; -1.5059940E-02;0; -5.1390383E-02;  4.0026051E+04;  0.0000000E+00; -4.4276960E-02;  4.0000000E+04;  0.0000000E+00;  4.0021535E+04; -5.3088769E-02;  0.0000000E+00;  1.6983877E-03;  2.6533379E+03;
  1.3082898E-01;  9.9999998E-03; -2.6975277E-01;3242; -5.4255626E-03;  0.0000000E+00; -4.7668919E-04;  9.9776398E+02;  1.0000000E-01; -1.8524908E+03;3;  1.4965786E+00;  0.0000000E+00; -2.7486284E+01;0; -4.2858101E-02;  3.9791281E+04;  0.0000000E+00;  1.3614909E+01;  4.0000000E+04;  0.0000000E+00;  4.0032781E+04; -4.1564852E-02;  0.0000000E+00; -1.2932485E-03;  2.0215686E+04;
  1.3098837E-01;  9.9999998E-03; -2.5983429E-01;3243; -6.0394388E-03;  0.0000000E+00; -5.1330327E-04;  9.9837708E+02;  1.0000000E-01; -1.3445546E+03;3;  8.1057876E-01;  0.0000000E+00; -3.0148745E+01;0; -4.4544473E-02;  3.9831488E+04;  0.0000000E+00;  1.0994224E+01;  4.0000000E+04;  0.0000000E+00;  4.0042949E+04; -4.3739565E-02;  0.0000000E+00; -8.0490694E-04;  1.6863467E+04;
  1.3114862E-01;  9.9999998E-03; -2.4988864E-01;3244; -6.6033695E-03;  0.0000000E+00; -4.7546174E-04;  9.9896918E+02;  1.0000000E-01; -8.5400055E+02;3;  2.6377758E-01;  0.0000000E+00; -2.7598946E+01;0; -4.5802813E-02;  3.9876531E+04;  0.0000000E+00;  8.3881836E+00;  4.0000000E+04;  0.0000000E+00;  4.0047016E+04; -4.5394771E-02;  0.0000000E+00; -4.0804059E-04;  1.3516810E+04;
  1.3128826E-01;  9.9999998E-03; -2.3991857E-01;3245; -7.1179536E-03;  0.0000000E+00; -3.8555660E-04;  9.9948962E+02;  1.0000000E-01; -4.2285223E+02;3; -6.0540184E-02;  0.0000000E+00; -2.2057924E+01;0; -4.6734784E-02;  3.9921746E+04;  0.0000000E+00;  6.0843973E+00;  4.0000000E+04;  0.0000000E+00;  4.0044555E+04; -4.6607681E-02;  0.0000000E+00; -1.2710353E-04;  1.0439748E+04;
  1.3139684E-01;  9.9999998E-03; -2.2993255E-01;3246; -7.5801392E-03;  0.0000000E+00; -2.8059751E-04;  9.9991052E+02;  1.0000000E-01; -7.4121361E+01;3; -1.9997132E-01;  0.0000000E+00; -1.5746215E+01;0; -4.7435645E-02;  3.9962855E+04;  0.0000000E+00;  4.2399158E+00;  4.0000000E+04;  0.0000000E+00;  4.0038125E+04; -4.7467355E-02;  0.0000000E+00;  3.1710137E-05;  7.7391138E+03;
  1.3147184E-01;  9.9999998E-03; -2.1993674E-01;3247; -7.9836426E-03;  0.0000000E+00; -2.0567801E-04;  1.0002068E+03;  1.0000000E-01;  1.7135318E+02;3; -2.2776592E-01;  0.0000000E+00; -1.0184191E+01;0; -4.7986768E-02;  3.9996469E+04;  0.0000000E+00;  2.8816764E+00;  4.0000000E+04;  0.0000000E+00;  4.0028473E+04; -4.8065454E-02;  0.0000000E+00;  7.8683719E-05;  5.4482837E+03;
  1.3151546E-01;  9.9999998E-03; -2.0993552E-01;3248; -8.3307913E-03;  0.0000000E+00; -1.6995831E-04;  1.0003842E+03;  1.0000000E-01;  3.1831198E+02;3; -2.1377730E-01;  0.0000000E+00; -6.0293741E+00;0; -4.8450198E-02;  4.0021000E+04;  0.0000000E+00;  1.9444658E+00;  4.0000000E+04;  0.0000000E+00;  4.0018340E+04; -4.8487980E-02;  0.0000000E+00;  3.7780774E-05;  3.6011023E+03;
  1.3153490E-01;  9.9999998E-03; -1.9993100E-01;3249; -8.6252214E-03;  0.0000000E+00; -1.6453577E-04;  1.0004544E+03;  1.0000000E-01;  3.7648318E+02;3; -2.0547605E-01;  0.0000000E+00; -3.2790082E+00;0; -4.8860889E-02;  4.0035184E+04;  0.0000000E+00;  1.3199569E+00;  4.0000000E+04;  0.0000000E+00;  4.0010301E+04; -4.8809726E-02;  0.0000000E+00; -5.1161405E-05;  2.2450183E+03;
  1.3153777E-01;  9.9999998E-03; -1.8992078E-01;3250; -8.8699274E-03;  0.0000000E+00; -1.8294835E-04;  1.0004449E+03;  1.0000000E-01;  3.6858215E+02;3; -2.1939720E-01;  0.0000000E+00; -1.6266227E+00;0; -4.9233519E-02;  4.0040031E+04;  0.0000000E+00;  9.0049440E-01;  4.0000000E+04;  0.0000000E+00;  4.0004457E+04; -4.9092386E-02;  0.0000000E+00; -1.4113120E-04;  1.3860337E+03;
  1.3154057E-01;  9.9999998E-03; -1.7990601E-01;3251; -9.0690367E-03;  0.0000000E+00; -2.1625197E-04;  1.0003793E+03;  1.0000000E-01;  3.1426273E+02;3; -2.4640901E-01;  0.0000000E+00; -7.1315354E-01;0; -4.9574245E-02;  4.0036434E+04;  0.0000000E+00;  6.0502124E-01;  4.0000000E+04;  0.0000000E+00;  4.0002754E+04; -4.9385212E-02;  0.0000000E+00; -1.8903264E-04;  9.0260779E+02;
  1.3156341E-01;  9.9999998E-03; -1.6988654E-01;3252; -9.2287818E-03;  0.0000000E+00; -2.5506242E-04;  1.0002801E+03;  1.0000000E-01;  2.3209221E+02;3; -2.7167091E-01;  0.0000000E+00; -2.5655463E-01;0; -4.9888086E-02;  4.0027062E+04;  0.0000000E+00;  3.8593453E-01;  4.0000000E+04;  0.0000000E+00;  4.0003664E+04; -4.9724746E-02;  0.0000000E+00; -1.6333976E-04;  6.9808575E+02;
  1.3163044E-01;  9.9999998E-03; -1.5986721E-01;3253; -9.3566608E-03;  0.0000000E+00; -2.9180307E-04;  1.0001660E+03;  1.0000000E-01;  1.3757635E+02;3; -2.8542474E-01;  0.0000000E+00; -6.8082161E-02;0; -5.0182801E-02;  4.0014121E+04;  0.0000000E+00;  2.2125159E-01;  4.0000000E+04;  0.0000000E+00;  4.0007652E+04; -5.0134510E-02;  0.0000000E+00; -4.8291571E-05;  9.6144696E+02;
  1.3175069E-01;  9.9999998E-03; -1.4986070E-01;3254; -9.4601037E-03;  0.0000000E+00; -3.2067808E-04;  1.0000518E+03;  1.0000000E-01;  4.2961746E+01;3; -2.8815725E-01;  0.0000000E+00; -1.6936509E-02;0; -5.0468221E-02;  3.9999801E+04;  0.0000000E+00;  1.0182147E-01;  4.0000000E+04;  0.0000000E+00;  4.0012430E+04; -5.0623897E-02;  0.0000000E+00;  1.5567466E-04;  1.5434231E+03;
  1.3184805E-01;  9.9999998E-03; -1.3987030E-01;3255; -9.5428443E-03;  0.0000000E+00; -3.3776838E-04;  9.9994763E+02;  1.0000000E-01; -4.3406181E+01;3; -2.8998017E-01;  0.0000000E+00; -1.2050363E-02;0; -5.0750893E-02;  3.9986461E+04;  0.0000000E+00;  2.1389829E-02;  4.0000000E+04;  0.0000000E+00;  4.0017145E+04; -5.1186599E-02;  0.0000000E+00;  4.3570786E-04;  2.1503005E+03;
  1.3187122E-01;  9.9999998E-03; -1.2990056E-01;3256; -9.6085155E-03;  0.0000000E+00; -3.3895278E-04;  9.9986420E+02;  1.0000000E-01; -1.1249065E+02;3; -2.9767963E-01;  0.0000000E+00; -1.1541675E-02;0; -5.1036116E-02;  3.9975789E+04;  0.0000000E+00; -2.7338186E-02;  4.0000000E+04;  0.0000000E+00;  4.0020430E+04; -5.1802039E-02;  0.0000000E+00;  7.6592196E-04;  2.6123804E+03;
  1.3185784E-01;  9.9999998E-03; -1.1992881E-01;3257; -9.6633192E-03;  0.0000000E+00; -3.2197326E-04;  9.9979919E+02;  1.0000000E-01; -1.6636566E+02;3; -3.1057176E-01;  0.0000000E+00; -1.0605603E-02;0; -5.1330958E-02;  3.9968797E+04;  0.0000000E+00; -5.2552879E-02;  4.0000000E+04;  0.0000000E+00;  4.0022160E+04; -5.2443478E-02;  0.0000000E+00;  1.1125208E-03;  2.8362827E+03;
  1.3183093E-01;  9.9999998E-03; -1.0994732E-01;3258; -9.7113820E-03;  0.0000000E+00; -2.9004947E-04;  9.9975403E+02;  1.0000000E-01; -2.0379671E+02;3; -3.2745421E-01;  0.0000000E+00; -9.3906783E-03;0; -5.1635064E-02;  3.9965105E+04;  0.0000000E+00; -6.1483465E-02;  4.0000000E+04;  0.0000000E+00;  4.0022340E+04; -5.3078916E-02;  0.0000000E+00;  1.4438513E-03;  2.8080486E+03;
  1.4080128E-01;  9.9999998E-03; -2.6965463E-01;3303; -6.0317130E-03;  0.0000000E+00; -1.5266107E-04;  9.9744867E+02;  1.0000000E-01; -2.1137180E+03;3;  4.5031080E+00;  0.0000000E+00; -3.2270596E+01;0; -4.6873342E-02;  3.9753852E+04;  0.0000000E+00;  1.8839251E+01;  4.0000000E+04;  0.0000000E+00;  4.0045875E+04; -4.5845684E-02;  0.0000000E+00; -1.0276597E-03;  2.8055928E+04;
  1.4098579E-01;  9.9999998E-03; -2.5974587E-01;3304; -6.6643157E-03;  0.0000000E+00; -2.1013603E-04;  9.9805499E+02;  1.0000000E-01; -1.6114113E+03;3;  2.4235339E+00;  0.0000000E+00; -3.3116932E+01;0; -4.8003878E-02;  3.9796020E+04;  0.0000000E+00;  1.4622512E+01;  4.0000000E+04;  0.0000000E+00;  4.0053641E+04; -4.7392245E-02;  0.0000000E+00; -6.1163265E-04;  2.2350611E+04;
  1.4115240E-01;  9.9999998E-03; -2.4982215E-01;3305; -7.2126617E-03;  0.0000000E+00; -2.1104148E-04;  9.9865930E+02;  1.0000000E-01; -1.1107340E+03;3;  9.5114988E-01;  0.0000000E+00; -2.9206299E+01;0; -4.8705168E-02;  3.9843891E+04;  0.0000000E+00;  1.0731605E+01;  4.0000000E+04;  0.0000000E+00;  4.0054777E+04; -4.8398182E-02;  0.0000000E+00; -3.0698586E-04;  1.7073350E+04;
  1.4128967E-01;  9.9999998E-03; -2.3987506E-01;3306; -7.6972554E-03;  0.0000000E+00; -1.6552150E-04;  9.9919855E+02;  1.0000000E-01; -6.6398120E+02;3;  1.4303313E-01;  0.0000000E+00; -2.2834229E+01;0; -4.9134646E-02;  3.9892070E+04;  0.0000000E+00;  7.4833565E+00;  4.0000000E+04;  0.0000000E+00;  4.0050266E+04; -4.9008369E-02;  0.0000000E+00; -1.2627660E-04;  1.2582313E+04;
  1.4140075E-01;  9.9999998E-03; -2.2990492E-01;3307; -8.1243822E-03;  0.0000000E+00; -1.0957792E-04;  9.9962390E+02;  1.0000000E-01; -3.1159613E+02;3; -1.6528027E-01;  0.0000000E+00; -1.6061378E+01;0; -4.9404345E-02;  3.9935246E+04;  0.0000000E+00;  4.9850039E+00;  4.0000000E+04;  0.0000000E+00;  4.0041723E+04; -4.9344428E-02;  0.0000000E+00; -5.9917395E-05;  8.9276348E+03;
  1.4148659E-01;  9.9999998E-03; -2.1992017E-01;3308; -8.4988177E-03;  0.0000000E+00; -6.8551068E-05;  9.9991907E+02;  1.0000000E-01; -6.7059830E+01;3; -1.7941616E-01;  0.0000000E+00; -1.0268968E+01;0; -4.9599890E-02;  3.9969863E+04;  0.0000000E+00;  3.2040014E+00;  4.0000000E+04;  0.0000000E+00;  4.0030836E+04; -4.9508601E-02;  0.0000000E+00; -9.1288777E-05;  6.0281392E+03;
  1.4154328E-01;  9.9999998E-03; -2.0992774E-01;3309; -8.8242246E-03;  0.0000000E+00; -5.1278817E-05;  1.0000791E+03;  1.0000000E-01;  6.5578392E+01;3; -7.1475163E-02;  0.0000000E+00; -6.0130010E+00;0; -4.9776334E-02;  3.9993809E+04;  0.0000000E+00;  2.0173194E+00;  4.0000000E+04;  0.0000000E+00;  4.0019992E+04; -4.9584638E-02;  0.0000000E+00; -1.9169744E-04;  3.8029487E+03;
  1.4157774E-01;  9.9999998E-03; -1.9992688E-01;3310; -9.1023184E-03;  0.0000000E+00; -5.9020087E-05;  1.0001252E+03;  1.0000000E-01;  1.0370077E+02;3;  4.4114452E-02;  0.0000000E+00; -3.2417152E+00;0; -4.9961798E-02;  4.0006652E+04;  0.0000000E+00;  1.2667465E+00;  4.0000000E+04;  0.0000000E+00;  4.0010484E+04; -4.9640976E-02;  0.0000000E+00; -3.2082223E-04;  2.2204221E+03;
  1.4161277E-01;  9.9999998E-03; -1.8991101E-01;3311; -9.3366783E-03;  0.0000000E+00; -8.6885193E-05;  1.0000857E+03;  1.0000000E-01;  7.1010338E+01;3;  1.1730698E-01;  0.0000000E+00; -1.6004803E+00;0; -5.0166126E-02;  4.0009227E+04;  0.0000000E+00;  8.0147952E-01;  4.0000000E+04;  0.0000000E+00;  4.0004164E+04; -4.9731530E-02;  0.0000000E+00; -4.3459501E-04;  1.2508198E+03;
  1.4167370E-01;  9.9999998E-03; -1.7987674E-01;3312; -9.5325010E-03;  0.0000000E+00; -1.2706760E-04;  9.9998853E+02;  1.0000000E-01; -9.5305948E+00;3;  1.4464779E-01;  0.0000000E+00; -7.0134288E-01;0; -5.0388247E-02;  4.0003371E+04;  0.0000000E+00;  5.0537717E-01;  4.0000000E+04;  0.0000000E+00;  4.0001527E+04; -4.9895056E-02;  0.0000000E+00; -4.9318996E-04;  7.4979883E+02;
  1.4175600E-01;  9.9999998E-03; -1.6983084E-01;3313; -9.6950931E-03;  0.0000000E+00; -1.7146519E-04;  9.9986072E+02;  1.0000000E-01; -1.1540414E+02;3;  1.4420548E-01;  0.0000000E+00; -2.5248873E-01;0; -5.0622586E-02;  3.9991664E+04;  0.0000000E+00;  3.0431986E-01;  4.0000000E+04;  0.0000000E+00;  4.0002531E+04; -5.0155289E-02;  0.0000000E+00; -4.6729844E-04;  5.6000452E+02;
  1.4181536E-01;  9.9999998E-03; -1.5981218E-01;3314; -9.8283812E-03;  0.0000000E+00; -2.1344227E-04;  9.9972614E+02;  1.0000000E-01; -2.2690717E+02;3;  1.3367786E-01;  0.0000000E+00; -6.5614335E-02;0; -5.0863586E-02;  3.9976934E+04;  0.0000000E+00;  1.5998818E-01;  4.0000000E+04;  0.0000000E+00;  4.0006875E+04; -5.0520428E-02;  0.0000000E+00; -3.4315878E-04;  8.6679413E+02;
  1.4183830E-01;  9.9999998E-03; -1.4983168E-01;3315; -9.9381860E-03;  0.0000000E+00; -2.4824409E-04;  9.9959894E+02;  1.0000000E-01; -3.3228690E+02;3;  1.2185195E-01;  0.0000000E+00; -1.3324929E-02;0; -5.1114280E-02;  3.9961293E+04;  0.0000000E+00;  5.6730684E-02;  4.0000000E+04;  0.0000000E+00;  4.0011266E+04; -5.0988935E-02;  0.0000000E+00; -1.2534465E-04;  1.4838341E+03;
  1.4183410E-01;  9.9999998E-03; -1.3986543E-01;3316; -1.0030893E-02;  0.0000000E+00; -2.7166866E-04;  9.9948212E+02;  1.0000000E-01; -4.2907428E+02;3;  1.1002724E-01;  0.0000000E+00; -7.3247128E-03;0; -5.1381186E-02;  3.9946840E+04;  0.0000000E+00; -1.1756674E-02;  4.0000000E+04;  0.0000000E+00;  4.0016469E+04; -5.1549025E-02;  0.0000000E+00;  1.6784009E-04;  2.1158887E+03;
  1.4181451E-01;  9.9999998E-03; -1.2989894E-01;3317; -1.0111507E-02;  0.0000000E+00; -2.7935384E-04;  9.9938489E+02;  1.0000000E-01; -5.0961520E+02;3;  9.7614810E-02;  0.0000000E+00; -5.7275058E-03;0; -5.1668350E-02;  3.9934863E+04;  0.0000000E+00; -5.1089130E-02;  4.0000000E+04;  0.0000000E+00;  4.0020281E+04; -5.2176502E-02;  0.0000000E+00;  5.0815276E-04;  2.5963303E+03;
  1.4178416E-01;  9.9999998E-03; -1.1992518E-01;3318; -1.0182968E-02;  0.0000000E+00; -2.6932030E-04;  9.9930469E+02;  1.0000000E-01; -5.7603308E+02;3;  8.4652014E-02;  0.0000000E+00; -4.4076447E-03;0; -5.1976051E-02;  3.9926219E+04;  0.0000000E+00; -6.8356238E-02;  4.0000000E+04;  0.0000000E+00;  4.0021762E+04; -5.2838314E-02;  0.0000000E+00;  8.6226466E-04;  2.8340706E+03;
  1.4174600E-01;  9.9999998E-03; -1.0994095E-01;3319; -1.0246798E-02;  0.0000000E+00; -2.4450975E-04;  9.9924091E+02;  1.0000000E-01; -6.2887109E+02;3;  7.1169607E-02;  0.0000000E+00; -2.9946265E-03;0; -5.2298479E-02;  3.9921203E+04;  0.0000000E+00; -7.0614971E-02;  4.0000000E+04;  0.0000000E+00;  4.0021793E+04; -5.3497631E-02;  0.0000000E+00;  1.1991507E-03;  2.8160759E+03;
  1.5166380E-01;  9.9999998E-03; -1.0992873E-01;3380; -1.0851750E-02;  0.0000000E+00; -2.0565563E-04;  9.9892657E+02;  1.0000000E-01; -8.8930817E+02;3;  1.7856367E-01;  0.0000000E+00;  4.5328615E-03;0; -5.3166393E-02;  3.9894586E+04;  0.0000000E+00; -7.0088752E-02;  4.0000000E+04;  0.0000000E+00;  4.0020176E+04; -5.4143965E-02;  0.0000000E+00;  9.7757264E-04;  2.6603667E+03;
  1.5170465E-01;  9.9999998E-03; -1.1991794E-01;3379; -1.0769792E-02;  0.0000000E+00; -2.2487393E-04;  9.9901257E+02;  1.0000000E-01; -8.1805096E+02;3;  1.9139951E-01;  0.0000000E+00;  3.3298337E-03;0; -5.2831471E-02;  3.9901668E+04;  0.0000000E+00; -7.6767072E-02;  4.0000000E+04;  0.0000000E+00;  4.0020504E+04; -5.3471137E-02;  0.0000000E+00;  6.3966407E-04;  2.6740579E+03;
  1.5173848E-01;  9.9999998E-03; -1.2989652E-01;3378; -1.0678813E-02;  0.0000000E+00; -2.2980147E-04;  9.9912061E+02;  1.0000000E-01; -7.2857196E+02;3;  2.0456928E-01;  0.0000000E+00;  1.7743942E-03;0; -5.2515641E-02;  3.9912328E+04;  0.0000000E+00; -7.2441481E-02;  4.0000000E+04;  0.0000000E+00;  4.0018672E+04; -5.2797221E-02;  0.0000000E+00;  2.8158142E-04;  2.4333892E+03;
  1.5176363E-01;  9.9999998E-03; -1.3986826E-01;3377; -1.0579170E-02;  0.0000000E+00; -2.1735909E-04;  9.9923944E+02;  1.0000000E-01; -6.3010565E+02;3;  2.1790698E-01;  0.0000000E+00;  2.2972052E-04;0; -5.2228075E-02;  3.9926195E+04;  0.0000000E+00; -5.0224766E-02;  4.0000000E+04;  0.0000000E+00;  4.0014707E+04; -5.2161533E-02;  0.0000000E+00; -6.6540437E-05;  1.9489304E+03;
  1.5178089E-01;  9.9999998E-03; -1.4983864E-01;3376; -1.0470055E-02;  0.0000000E+00; -1.8936000E-04;  9.9937384E+02;  1.0000000E-01; -5.1875073E+02;3;  2.3130991E-01;  0.0000000E+00; -6.3242242E-03;0; -5.1973663E-02;  3.9942383E+04;  0.0000000E+00; -3.3955106E-03;  4.0000000E+04;  0.0000000E+00;  4.0010453E+04; -5.1602058E-02;  0.0000000E+00; -3.7160699E-04;  1.3063491E+03;
  1.5179075E-01;  9.9999998E-03; -1.5981849E-01;3375; -1.0348859E-02;  0.0000000E+00; -1.4920795E-04;  9.9952057E+02;  1.0000000E-01; -3.9722333E+02;3;  2.4389729E-01;  0.0000000E+00; -6.1250579E-02;0; -5.1753353E-02;  3.9959809E+04;  0.0000000E+00;  7.3533431E-02;  4.0000000E+04;  0.0000000E+00;  4.0004926E+04; -5.1149245E-02;  0.0000000E+00; -6.0410949E-04;  6.5865881E+02;
  1.5178697E-01;  9.9999998E-03; -1.6982684E-01;3374; -1.0210804E-02;  0.0000000E+00; -1.0079062E-04;  9.9967169E+02;  1.0000000E-01; -2.7199231E+02;3;  2.4931209E-01;  0.0000000E+00; -2.5012779E-01;0; -5.1566467E-02;  3.9976031E+04;  0.0000000E+00;  1.8989314E-01;  4.0000000E+04;  0.0000000E+00;  4.0001098E+04; -5.0823577E-02;  0.0000000E+00; -7.4288849E-04;  3.1385532E+02;
  1.5175031E-01;  9.9999998E-03; -1.7986196E-01;3373; -1.0049351E-02;  0.0000000E+00; -4.9107693E-05;  9.9981152E+02;  1.0000000E-01; -1.5614374E+02;3;  2.2920395E-01;  0.0000000E+00; -6.9433051E-01;0; -5.1415689E-02;  3.9989266E+04;  0.0000000E+00;  3.7075031E-01;  4.0000000E+04;  0.0000000E+00;  4.0000156E+04; -5.0636709E-02;  0.0000000E+00; -7.7898224E-04;  5.3061115E+02;
  1.5167943E-01;  9.9999998E-03; -1.8990451E-01;3372; -9.8585682E-03;  0.0000000E+00; -6.9902825E-07;  9.9992407E+02;  1.0000000E-01; -6.2911800E+01;3;  1.5552631E-01;  0.0000000E+00; -1.5803757E+00;0; -5.1311497E-02;  3.9996250E+04;  0.0000000E+00;  6.7094558E-01;  4.0000000E+04;  0.0000000E+00;  4.0002441E+04; -5.0590917E-02;  0.0000000E+00; -7.2058046E-04;  1.0114852E+03;
  1.5160593E-01;  9.9999998E-03; -1.9993694E-01;3371; -9.6347146E-03;  0.0000000E+00;  3.7172300E-05;  9.9997675E+02;  1.0000000E-01; -1.9258715E+01;3;  7.6966952E-03;  0.0000000E+00; -3.2001932E+00;0; -5.1272828E-02;  3.9994566E+04;  0.0000000E+00;  1.1863781E+00;  4.0000000E+04;  0.0000000E+00;  4.0009035E+04; -5.0679088E-02;  0.0000000E+00; -5.9374137E-04;  2.0449534E+03;
  1.5153626E-01;  9.9999998E-03; -2.0994359E-01;3370; -9.3746642E-03;  0.0000000E+00;  5.8106085E-05;  9.9994049E+02;  1.0000000E-01; -4.9282558E+01;3; -1.9658916E-01;  0.0000000E+00; -5.9539208E+00;0; -5.1315159E-02;  3.9982141E+04;  0.0000000E+00;  2.0592237E+00;  4.0000000E+04;  0.0000000E+00;  4.0019043E+04; -5.0878961E-02;  0.0000000E+00; -4.3619698E-04;  3.8074475E+03;
  1.5083343E-01;  9.9999998E-03; -2.6958853E-01;3364; -6.7595067E-03;  0.0000000E+00;  5.9403192E-05;  9.9723035E+02;  1.0000000E-01; -2.2946018E+03;3;  9.3951130E+00;  0.0000000E+00; -3.9077721E+01;0; -5.1723491E-02;  3.9720348E+04;  0.0000000E+00;  2.4471130E+01;  4.0000000E+04;  0.0000000E+00;  4.0062340E+04; -5.0898265E-02;  0.0000000E+00; -8.2522794E-04;  3.6654945E+04;
  1.5103024E-01;  9.9999998E-03; -2.5969705E-01;3365; -7.3875934E-03;  0.0000000E+00;  7.7067625E-06;  9.9783380E+02;  1.0000000E-01; -1.7946653E+03;3;  4.8518777E+00;  0.0000000E+00; -3.6799881E+01;0; -5.2085351E-02;  3.9766770E+04;  0.0000000E+00;  1.8217955E+01;  4.0000000E+04;  0.0000000E+00;  4.0064473E+04; -5.1599417E-02;  0.0000000E+00; -4.8593536E-04;  2.7907746E+04;
  1.5118937E-01;  9.9999998E-03; -2.4979295E-01;3366; -7.9059117E-03;  0.0000000E+00; -9.9616109E-06;  9.9845941E+02;  1.0000000E-01; -1.2763590E+03;3;  1.8789122E+00;  0.0000000E+00; -3.0868614E+01;0; -5.2065264E-02;  3.9820809E+04;  0.0000000E+00;  1.2896170E+01;  4.0000000E+04;  0.0000000E+00;  4.0061547E+04; -5.1797651E-02;  0.0000000E+00; -2.6761333E-04;  2.0417328E+04;
  1.5131408E-01;  9.9999998E-03; -2.3986520E-01;3367; -8.3489707E-03;  0.0000000E+00;  6.0381108E-06;  9.9902466E+02;  1.0000000E-01; -8.0807593E+02;3;  3.0667177E-01;  0.0000000E+00; -2.3420269E+01;0; -5.1878888E-02;  3.9873852E+04;  0.0000000E+00;  8.7124739E+00;  4.0000000E+04;  0.0000000E+00;  4.0054098E+04; -5.1702697E-02;  0.0000000E+00; -1.7619035E-04;  1.4439957E+04;
  1.5140547E-01;  9.9999998E-03; -2.2991115E-01;3368; -8.7355450E-03;  0.0000000E+00;  3.5344452E-05;  9.9947363E+02;  1.0000000E-01; -4.3608643E+02;3; -3.0145106E-01;  0.0000000E+00; -1.6183197E+01;0; -5.1646978E-02;  3.9920637E+04;  0.0000000E+00;  5.6223888E+00;  4.0000000E+04;  0.0000000E+00;  4.0043551E+04; -5.1454652E-02;  0.0000000E+00; -1.9232642E-04;  9.8410332E+03;
  1.5147318E-01;  9.9999998E-03; -2.1993512E-01;3369; -9.0757674E-03;  0.0000000E+00;  5.6602003E-05;  9.9977917E+02;  1.0000000E-01; -1.8295779E+02;3; -3.6503050E-01;  0.0000000E+00; -1.0233288E+01;0; -5.1444646E-02;  3.9957512E+04;  0.0000000E+00;  3.4705408E+00;  4.0000000E+04;  0.0000000E+00;  4.0030973E+04; -5.1155090E-02;  0.0000000E+00; -2.8955442E-04;  6.3671567E+03;
  1.6094925E-01;  9.9999998E-03; -2.6959944E-01;3425; -7.5625507E-03;  0.0000000E+00;  6.4029184E-05;  9.9701605E+02;  1.0000000E-01; -2.4721277E+03;3;  1.5620091E+01;  0.0000000E+00; -4.4679592E+01;0; -5.7062987E-02;  3.9687422E+04;  0.0000000E+00;  2.9445082E+01;  4.0000000E+04;  0.0000000E+00;  4.0077938E+04; -5.6523360E-02;  0.0000000E+00; -5.3962821E-04;  4.4400484E+04;
  1.6115546E-01;  9.9999998E-03; -2.5971475E-01;3426; -8.1826188E-03;  0.0000000E+00;  7.7334989E-05;  9.9764276E+02;  1.0000000E-01; -1.9529324E+03;3;  7.6841784E+00;  0.0000000E+00; -3.9237858E+01;0; -5.6516115E-02;  3.9742371E+04;  0.0000000E+00;  2.1020203E+01;  4.0000000E+04;  0.0000000E+00;  4.0073648E+04; -5.6161303E-02;  0.0000000E+00; -3.5481094E-04;  3.2347869E+04;
  1.6130124E-01;  9.9999998E-03; -2.4982013E-01;3427; -8.6643742E-03;  0.0000000E+00;  8.6876382E-05;  9.9831848E+02;  1.0000000E-01; -1.3930964E+03;3;  2.8316467E+00;  0.0000000E+00; -3.1438248E+01;0; -5.5650536E-02;  3.9805559E+04;  0.0000000E+00;  1.4415519E+01;  4.0000000E+04;  0.0000000E+00;  4.0065207E+04; -5.5396084E-02;  0.0000000E+00; -2.5445272E-04;  2.2781100E+04;
  1.6137107E-01;  9.9999998E-03; -2.3990157E-01;3428; -9.0584140E-03;  0.0000000E+00;  1.0833336E-04;  9.9894763E+02;  1.0000000E-01; -8.7187659E+02;3;  3.7540206E-01;  0.0000000E+00; -2.3239378E+01;0; -5.4750733E-02;  3.9867281E+04;  0.0000000E+00;  9.5413475E+00;  4.0000000E+04;  0.0000000E+00;  4.0054098E+04; -5.4491438E-02;  0.0000000E+00; -2.5929595E-04;  1.5598919E+04;
  1.6140793E-01;  9.9999998E-03; -2.2995505E-01;3429; -9.3969228E-03;  0.0000000E+00;  1.3292639E-04;  9.9943842E+02;  1.0000000E-01; -4.6527078E+02;3; -5.5482322E-01;  0.0000000E+00; -1.5834027E+01;0; -5.3955842E-02;  3.9919203E+04;  0.0000000E+00;  6.0490828E+00;  4.0000000E+04;  0.0000000E+00;  4.0041922E+04; -5.3605929E-02;  0.0000000E+00; -3.4991224E-04;  1.0279448E+04;
  1.6143858E-01;  9.9999998E-03; -2.1997982E-01;3430; -9.6969046E-03;  0.0000000E+00;  1.4634457E-04;  9.9976489E+02;  1.0000000E-01; -1.9475992E+02;3; -6.6185123E-01;  0.0000000E+00; -9.9578457E+00;0; -5.3322628E-02;  3.9958160E+04;  0.0000000E+00;  3.6380265E+00;  4.0000000E+04;  0.0000000E+00;  4.0028957E+04; -5.2823596E-02;  0.0000000E+00; -4.9903424E-04;  6.3804980E+03;
  1.6149879E-01;  9.9999998E-03; -2.0998125E-01;3431; -9.9653853E-03;  0.0000000E+00;  1.3797950E-04;  9.9993622E+02;  1.0000000E-01; -5.2838013E+01;3; -4.2407909E-01;  0.0000000E+00; -5.7967024E+00;0; -5.2871831E-02;  3.9983496E+04;  0.0000000E+00;  2.0540576E+00;  4.0000000E+04;  0.0000000E+00;  4.0016422E+04; -5.2195117E-02;  0.0000000E+00; -6.7671214E-04;  3.5894631E+03;
  1.6160300E-01;  9.9999998E-03; -1.9995897E-01;3432; -1.0205264E-02;  0.0000000E+00;  1.0659697E-04;  9.9997614E+02;  1.0000000E-01; -1.9752527E+01;3; -1.2542228E-01;  0.0000000E+00; -3.1304278E+00;0; -5.2596759E-02;  3.9996066E+04;  0.0000000E+00;  1.0756805E+00;  4.0000000E+04;  0.0000000E+00;  4.0006180E+04; -5.1748164E-02;  0.0000000E+00; -8.4859587E-04;  1.7317977E+03;
  1.6170578E-01;  9.9999998E-03; -1.8992575E-01;3433; -1.0416747E-02;  0.0000000E+00;  5.9454174E-05;  9.9992114E+02;  1.0000000E-01; -6.5331482E+01;3;  1.0068054E-01;  0.0000000E+00; -1.5563290E+00;0; -5.2468888E-02;  3.9997477E+04;  0.0000000E+00;  5.1073897E-01;  4.0000000E+04;  0.0000000E+00;  3.9999742E+04; -5.1492929E-02;  0.0000000E+00; -9.7595912E-04;  7.3380988E+02;
  1.6174574E-01;  9.9999998E-03; -1.7988747E-01;3434; -1.0600426E-02;  0.0000000E+00;  3.6278300E-06;  9.9980688E+02;  1.0000000E-01; -1.5999547E+02;3;  2.2387715E-01;  0.0000000E+00; -6.8852508E-01;0; -5.2452993E-02;  3.9989852E+04;  0.0000000E+00;  2.0483895E-01;  4.0000000E+04;  0.0000000E+00;  3.9997117E+04; -5.1428914E-02;  0.0000000E+00; -1.0240773E-03;  4.2758865E+02;
  1.6175574E-01;  9.9999998E-03; -1.6985190E-01;3435; -1.0763117E-02;  0.0000000E+00; -5.3342552E-05;  9.9965851E+02;  1.0000000E-01; -2.8290558E+02;3;  2.6756918E-01;  0.0000000E+00; -2.4649429E-01;0; -5.2524537E-02;  3.9975660E+04;  0.0000000E+00;  4.6742354E-02;  4.0000000E+04;  0.0000000E+00;  3.9998551E+04; -5.1551975E-02;  0.0000000E+00; -9.7256032E-04;  1.5142416E+02;
  1.6174631E-01;  9.9999998E-03; -1.5983996E-01;3436; -1.0910248E-02;  0.0000000E+00; -1.0523045E-04;  9.9949298E+02;  1.0000000E-01; -4.2003751E+02;3;  2.6964322E-01;  0.0000000E+00; -5.4982394E-02;0; -5.2662048E-02;  3.9957898E+04;  0.0000000E+00; -3.4115262E-02;  4.0000000E+04;  0.0000000E+00;  4.0002383E+04; -5.1845074E-02;  0.0000000E+00; -8.1697613E-04;  3.7106232E+02;
  1.6173282E-01;  9.9999998E-03; -1.4985649E-01;3437; -1.1046790E-02;  0.0000000E+00; -1.4787729E-04;  9.9933063E+02;  1.0000000E-01; -5.5455225E+02;3;  2.5771061E-01;  0.0000000E+00;  2.2475931E-03;0; -5.2853018E-02;  3.9939145E+04;  0.0000000E+00; -7.4842587E-02;  4.0000000E+04;  0.0000000E+00;  4.0007840E+04; -5.2283574E-02;  0.0000000E+00; -5.6944357E-04;  1.0286353E+03;
  1.6171983E-01;  9.9999998E-03; -1.3988422E-01;3438; -1.1175723E-02;  0.0000000E+00; -1.7791614E-04;  9.9917407E+02;  1.0000000E-01; -6.8427692E+02;3;  2.4354181E-01;  0.0000000E+00;  9.4091268E-03;0; -5.3091742E-02;  3.9920980E+04;  0.0000000E+00; -9.1037363E-02;  4.0000000E+04;  0.0000000E+00;  4.0012379E+04; -5.2837804E-02;  0.0000000E+00; -2.5393968E-04;  1.6620835E+03;
  1.6170415E-01;  9.9999998E-03; -1.2991297E-01;3439; -1.1297520E-02;  0.0000000E+00; -1.9265157E-04;  9.9902582E+02;  1.0000000E-01; -8.0708826E+02;3;  2.2956334E-01;  0.0000000E+00;  1.0948819E-02;0; -5.3373452E-02;  3.9904984E+04;  0.0000000E+00; -8.9987993E-02;  4.0000000E+04;  0.0000000E+00;  4.0016141E+04; -5.3472087E-02;  0.0000000E+00;  9.8635261E-05;  2.1357041E+03;
  1.6167961E-01;  9.9999998E-03; -1.1993622E-01;3440; -1.1410664E-02;  0.0000000E+00; -1.9075490E-04;  9.9889368E+02;  1.0000000E-01; -9.1656665E+02;3;  2.1588111E-01;  0.0000000E+00;  1.2348156E-02;0; -5.3689543E-02;  3.9892434E+04;  0.0000000E+00; -7.8441814E-02;  4.0000000E+04;  0.0000000E+00;  4.0018637E+04; -5.4145399E-02;  0.0000000E+00;  4.5585650E-04;  2.3704968E+03;
  1.6164526E-01;  9.9999998E-03; -1.0995017E-01;3441; -1.1512823E-02;  0.0000000E+00; -1.7529572E-04;  9.9878442E+02;  1.0000000E-01; -1.0070826E+03;3;  2.0272526E-01;  0.0000000E+00;  1.3337826E-02;0; -5.4027520E-02;  3.9883176E+04;  0.0000000E+00; -6.2623344E-02;  4.0000000E+04;  0.0000000E+00;  4.0018340E+04; -5.4816633E-02;  0.0000000E+00;  7.8911497E-04;  2.3584539E+03;
  1.7115620E-01;  9.9999998E-03; -2.6972303E-01;3486; -8.3541628E-03;  0.0000000E+00; -1.0602672E-04;  9.9660944E+02;  1.0000000E-01; -2.8090071E+03;3;  2.0477301E+01;  0.0000000E+00; -4.2530529E+01;0; -6.2337194E-02;  3.9652402E+04;  0.0000000E+00;  3.1694582E+01;  4.0000000E+04;  0.0000000E+00;  4.0079824E+04; -6.2325422E-02;  0.0000000E+00; -1.1773198E-05;  4.8088711E+04;
  1.7132886E-01;  9.9999998E-03; -2.5982469E-01;3487; -8.9894775E-03;  0.0000000E+00;  3.5415800E-05;  9.9738037E+02;  1.0000000E-01; -2.1703091E+03;3;  9.5064240E+00;  0.0000000E+00; -3.6850815E+01;0; -6.0913719E-02;  3.9723258E+04;  0.0000000E+00;  2.1966610E+01;  4.0000000E+04;  0.0000000E+00;  4.0071434E+04; -6.0751848E-02;  0.0000000E+00; -1.6187223E-04;  3.3906875E+04;
  1.7141454E-01;  9.9999998E-03; -2.4992509E-01;3488; -9.4393799E-03;  0.0000000E+00;  1.0487884E-04;  9.9818341E+02;  1.0000000E-01; -1.5049945E+03;3;  3.1310132E+00;  0.0000000E+00; -2.9085886E+01;0; -5.9154332E-02;  3.9800129E+04;  0.0000000E+00;  1.4851460E+01;  4.0000000E+04;  0.0000000E+00;  4.0059230E+04; -5.8912471E-02;  0.0000000E+00; -2.4186226E-04;  2.3317760E+04;
  1.7141534E-01;  9.9999998E-03; -2.3999415E-01;3489; -9.7904354E-03;  0.0000000E+00;  1.5030772E-04;  9.9891412E+02;  1.0000000E-01; -8.9962891E+02;3;  8.8051319E-02;  0.0000000E+00; -2.1509453E+01;0; -5.7504643E-02;  3.9871082E+04;  0.0000000E+00;  9.8143110E+00;  4.0000000E+04;  0.0000000E+00;  4.0047441E+04; -5.7150047E-02;  0.0000000E+00; -3.5459531E-04;  1.5705184E+04;
  1.7138804E-01;  9.9999998E-03; -2.3003362E-01;3490; -1.0081225E-02;  0.0000000E+00;  1.8109124E-04;  9.9946490E+02;  1.0000000E-01; -4.4329611E+02;3; -9.8487329E-01;  0.0000000E+00; -1.4744685E+01;0; -5.6122717E-02;  3.9927699E+04;  0.0000000E+00;  6.2177024E+00;  4.0000000E+04;  0.0000000E+00;  4.0034430E+04; -5.5611078E-02;  0.0000000E+00; -5.1163835E-04;  1.0141799E+04;
  1.7138597E-01;  9.9999998E-03; -2.2004631E-01;3491; -1.0337511E-02;  0.0000000E+00;  1.9111317E-04;  9.9982031E+02;  1.0000000E-01; -1.4888467E+02;3; -1.0423539E+00;  0.0000000E+00; -9.3508043E+00;0; -5.5048991E-02;  3.9967973E+04;  0.0000000E+00;  3.6912849E+00;  4.0000000E+04;  0.0000000E+00;  4.0022309E+04; -5.4351464E-02;  0.0000000E+00; -6.9752743E-04;  6.0759888E+03;
  1.7144519E-01;  9.9999998E-03; -2.1003079E-01;3492; -1.0571646E-02;  0.0000000E+00;  1.7523926E-04;  1.0000034E+03;  1.0000000E-01;  2.7653539E+00;3; -6.8962908E-01;  0.0000000E+00; -5.5037708E+00;0; -5.4274194E-02;  3.9993395E+04;  0.0000000E+00;  1.9978688E+00;  4.0000000E+04;  0.0000000E+00;  4.0010941E+04; -5.3383701E-02;  0.0000000E+00; -8.9049444E-04;  3.2093174E+03;
  1.7156336E-01;  9.9999998E-03; -1.9999130E-01;3493; -1.0788099E-02;  0.0000000E+00;  1.3714327E-04;  1.0000566E+03;  1.0000000E-01;  4.6912254E+01;3; -2.7693275E-01;  0.0000000E+00; -3.0090945E+00;0; -5.3764712E-02;  4.0005406E+04;  0.0000000E+00;  9.3724513E-01;  4.0000000E+04;  0.0000000E+00;  4.0001664E+04; -5.2702572E-02;  0.0000000E+00; -1.0621416E-03;  1.3793671E+03;
  1.7167307E-01;  9.9999998E-03; -1.8995515E-01;3494; -1.0985617E-02;  0.0000000E+00;  8.4506188E-05;  1.0000087E+03;  1.0000000E-01;  7.2096725E+00;3;  3.5086289E-02;  0.0000000E+00; -1.5113708E+00;0; -5.3470973E-02;  4.0006746E+04;  0.0000000E+00;  3.2853144E-01;  4.0000000E+04;  0.0000000E+00;  3.9996461E+04; -5.2292887E-02;  0.0000000E+00; -1.1780848E-03;  6.6377777E+02;
  1.7173667E-01;  9.9999998E-03; -1.7992619E-01;3495; -1.1165885E-02;  0.0000000E+00;  2.5787182E-05;  9.9989722E+02;  1.0000000E-01; -8.5133392E+01;3;  2.1072204E-01;  0.0000000E+00; -6.7193860E-01;0; -5.3343419E-02;  3.9998559E+04;  0.0000000E+00;  1.8191719E-02;  4.0000000E+04;  0.0000000E+00;  3.9994586E+04; -5.2134205E-02;  0.0000000E+00; -1.2092130E-03;  6.8783850E+02;
  1.7175183E-01;  9.9999998E-03; -1.6989975E-01;3496; -1.1333063E-02;  0.0000000E+00; -3.1874257E-05;  9.9974512E+02;  1.0000000E-01; -2.1115453E+02;3;  2.7985916E-01;  0.0000000E+00; -2.3710959E-01;0; -5.3339358E-02;  3.9983902E+04;  0.0000000E+00; -1.1372046E-01;  4.0000000E+04;  0.0000000E+00;  3.9995812E+04; -5.2200764E-02;  0.0000000E+00; -1.1385949E-03;  5.0341940E+02;
  1.7174792E-01;  9.9999998E-03; -1.5989940E-01;3497; -1.1492198E-02;  0.0000000E+00; -8.3282190E-05;  9.9957330E+02;  1.0000000E-01; -3.5352087E+02;3;  2.9054427E-01;  0.0000000E+00; -4.5917954E-02;0; -5.3426892E-02;  3.9965258E+04;  0.0000000E+00; -1.5250881E-01;  4.0000000E+04;  0.0000000E+00;  4.0000047E+04; -5.2461341E-02;  0.0000000E+00; -9.6554874E-04;  2.1802809E+02;
  1.7174366E-01;  9.9999998E-03; -1.4992031E-01;3498; -1.1646943E-02;  0.0000000E+00; -1.2494459E-04;  9.9939417E+02;  1.0000000E-01; -5.0191174E+02;3;  2.7970302E-01;  0.0000000E+00;  1.2575982E-02;0; -5.3584430E-02;  3.9945414E+04;  0.0000000E+00; -1.4956805E-01;  4.0000000E+04;  0.0000000E+00;  4.0005012E+04; -5.2879725E-02;  0.0000000E+00; -7.0470566E-04;  7.0693744E+02;
  1.7173827E-01;  9.9999998E-03; -1.3994962E-01;3499; -1.1797903E-02;  0.0000000E+00; -1.5415005E-04;  9.9921582E+02;  1.0000000E-01; -6.4966064E+02;3;  2.6487195E-01;  0.0000000E+00;  2.0309905E-02;0; -5.3799462E-02;  3.9925965E+04;  0.0000000E+00; -1.2938040E-01;  4.0000000E+04;  0.0000000E+00;  4.0009613E+04; -5.3417336E-02;  0.0000000E+00; -3.8212404E-04;  1.2971774E+03;
  1.7172560E-01;  9.9999998E-03; -1.2997772E-01;3500; -1.1943161E-02;  0.0000000E+00; -1.6878186E-04;  9.9905298E+02;  1.0000000E-01; -7.8457037E+02;3;  2.5017413E-01;  0.0000000E+00;  2.1821996E-02;0; -5.4064058E-02;  3.9908848E+04;  0.0000000E+00; -1.0244475E-01;  4.0000000E+04;  0.0000000E+00;  4.0013172E+04; -5.4034453E-02;  0.0000000E+00; -2.9605182E-05;  1.7399929E+03;
  1.7169873E-01;  9.9999998E-03; -1.2000000E-01;3501; -1.2078991E-02;  0.0000000E+00; -1.6772203E-04;  9.9890015E+02;  1.0000000E-01; -9.1118408E+02;3;  2.3599432E-01;  0.0000000E+00;  2.2943946E-02;0; -5.4367632E-02;  3.9894512E+04;  0.0000000E+00; -7.5315796E-02;  4.0000000E+04;  0.0000000E+00;  4.0014609E+04; -5.4688942E-02;  0.0000000E+00;  3.2130827E-04;  1.9560189E+03;
  1.7165515E-01;  9.9999998E-03; -1.1001422E-01;3502; -1.2201083E-02;  0.0000000E+00; -1.5420398E-04;  9.9876923E+02;  1.0000000E-01; -1.0196749E+03;3;  2.2242001E-01;  0.0000000E+00;  2.3515493E-02;0; -5.4695372E-02;  3.9883688E+04;  0.0000000E+00; -5.2581515E-02;  4.0000000E+04;  0.0000000E+00;  4.0014723E+04; -5.5339362E-02;  0.0000000E+00;  6.4399035E-04;  1.9380400E+03;
  1.8133768E-01;  9.9999998E-03; -2.6992479E-01;3547; -9.0285810E-03;  0.0000000E+00; -1.3284323E-04;  9.9603796E+02;  1.0000000E-01; -3.2824751E+03;3;  2.0203508E+01;  0.0000000E+00; -2.8476225E+01;0; -6.7329831E-02;  3.9628164E+04;  0.0000000E+00;  2.9976667E+01;  4.0000000E+04;  0.0000000E+00;  4.0058094E+04; -6.7630813E-02;  0.0000000E+00;  3.0098407E-04;  4.5697617E+04;
  1.8140614E-01;  9.9999998E-03; -2.5999936E-01;3548; -9.7166020E-03;  0.0000000E+00;  4.5309131E-05;  9.9711029E+02;  1.0000000E-01; -2.3940557E+03;3;  8.5394516E+00;  0.0000000E+00; -2.7673109E+01;0; -6.4978793E-02;  3.9722012E+04;  0.0000000E+00;  2.0961082E+01;  4.0000000E+04;  0.0000000E+00;  4.0050625E+04; -6.4888783E-02;  0.0000000E+00; -9.0007627E-05;  3.2237252E+04;
  1.8142024E-01;  9.9999998E-03; -2.5007832E-01;3549; -1.0172306E-02;  0.0000000E+00;  1.3813649E-04;  9.9806891E+02;  1.0000000E-01; -1.5998560E+03;3;  2.0183976E+00;  0.0000000E+00; -2.3047216E+01;0; -6.2333733E-02;  3.9810074E+04;  0.0000000E+00;  1.4341281E+01;  4.0000000E+04;  0.0000000E+00;  4.0040027E+04; -6.2031135E-02;  0.0000000E+00; -3.0259692E-04;  2.2136914E+04;
  1.8138248E-01;  9.9999998E-03; -2.4012320E-01;3550; -1.0495745E-02;  0.0000000E+00;  1.7015055E-04;  9.9888806E+02;  1.0000000E-01; -9.2120850E+02;3; -8.4662575E-01;  0.0000000E+00; -1.7926386E+01;0; -5.9920363E-02;  3.9884754E+04;  0.0000000E+00;  9.6284323E+00;  4.0000000E+04;  0.0000000E+00;  4.0031156E+04; -5.9458464E-02;  0.0000000E+00; -4.6189703E-04;  1.4898856E+04;
  1.8132636E-01;  9.9999998E-03; -2.3013580E-01;3551; -1.0747356E-02;  0.0000000E+00;  1.8773579E-04;  9.9949329E+02;  1.0000000E-01; -4.1979059E+02;3; -1.6739453E+00;  0.0000000E+00; -1.2819820E+01;0; -5.7962626E-02;  3.9941848E+04;  0.0000000E+00;  6.1785269E+00;  4.0000000E+04;  0.0000000E+00;  4.0022730E+04; -5.7310700E-02;  0.0000000E+00; -6.5192545E-04;  9.5683867E+03;
  1.8131141E-01;  9.9999998E-03; -2.2012392E-01;3552; -1.0963770E-02;  0.0000000E+00;  1.8936218E-04;  9.9987134E+02;  1.0000000E-01; -1.0661427E+02;3; -1.5061562E+00;  0.0000000E+00; -8.3892546E+00;0; -5.6468125E-02;  3.9981016E+04;  0.0000000E+00;  3.6564858E+00;  4.0000000E+04;  0.0000000E+00;  4.0013062E+04; -5.5611812E-02;  0.0000000E+00; -8.5631263E-04;  5.6122256E+03;
  1.8137929E-01;  9.9999998E-03; -2.1008080E-01;3553; -1.1165439E-02;  0.0000000E+00;  1.6786458E-04;  1.0000703E+03;  1.0000000E-01;  5.8171196E+01;3; -9.6967691E-01;  0.0000000E+00; -5.0703197E+00;0; -5.5387180E-02;  4.0004719E+04;  0.0000000E+00;  1.9060464E+00;  4.0000000E+04;  0.0000000E+00;  4.0004152E+04; -5.4336198E-02;  0.0000000E+00; -1.0509818E-03;  2.8360371E+03;
  1.8149242E-01;  9.9999998E-03; -2.0002687E-01;3554; -1.1358018E-02;  0.0000000E+00;  1.2792561E-04;  1.0001332E+03;  1.0000000E-01;  1.1041663E+02;3; -4.2392409E-01;  0.0000000E+00; -2.8222528E+00;0; -5.4655887E-02;  4.0015934E+04;  0.0000000E+00;  7.8646624E-01;  4.0000000E+04;  0.0000000E+00;  3.9997082E+04; -5.3445227E-02;  0.0000000E+00; -1.2106604E-03;  1.2105818E+03;
  1.8159325E-01;  9.9999998E-03; -1.8998434E-01;3555; -1.1541929E-02;  0.0000000E+00;  7.5891854E-05;  1.0000981E+03;  1.0000000E-01;  8.1281654E+01;3; -2.4587572E-02;  0.0000000E+00; -1.4323984E+00;0; -5.4204978E-02;  4.0016535E+04;  0.0000000E+00;  1.4339963E-01;  4.0000000E+04;  0.0000000E+00;  3.9992367E+04; -5.2898634E-02;  0.0000000E+00; -1.3063427E-03;  9.6032593E+02;
  1.8167140E-01;  9.9999998E-03; -1.7995560E-01;3556; -1.1719854E-02;  0.0000000E+00;  1.9490748E-05;  9.9999420E+02;  1.0000000E-01; -4.7899880E+00;3;  2.0105259E-01;  0.0000000E+00; -6.3512862E-01;0; -5.3969655E-02;  4.0008199E+04;  0.0000000E+00; -1.6704473E-01;  4.0000000E+04;  0.0000000E+00;  3.9991430E+04; -5.2655097E-02;  0.0000000E+00; -1.3145590E-03;  1.0940333E+03;
  1.8170969E-01;  9.9999998E-03; -1.6994649E-01;3557; -1.1893931E-02;  0.0000000E+00; -3.4594632E-05;  9.9984442E+02;  1.0000000E-01; -1.2888524E+02;3;  2.9375219E-01;  0.0000000E+00; -2.1679352E-01;0; -5.3891681E-02;  3.9993668E+04;  0.0000000E+00; -2.6918933E-01;  4.0000000E+04;  0.0000000E+00;  3.9993379E+04; -5.2668929E-02;  0.0000000E+00; -1.2227520E-03;  9.0463379E+02;
  1.8172315E-01;  9.9999998E-03; -1.5995717E-01;3558; -1.2067258E-02;  0.0000000E+00; -8.1969440E-05;  9.9967004E+02;  1.0000000E-01; -2.7337497E+02;3;  3.1259078E-01;  0.0000000E+00; -3.1640172E-02;0; -5.3926341E-02;  3.9974824E+04;  0.0000000E+00; -2.6230535E-01;  4.0000000E+04;  0.0000000E+00;  3.9997230E+04; -5.2893154E-02;  0.0000000E+00; -1.0331852E-03;  4.8666394E+02;
  1.8172547E-01;  9.9999998E-03; -1.4998209E-01;3559; -1.2241285E-02;  0.0000000E+00; -1.1965694E-04;  9.9948694E+02;  1.0000000E-01; -4.2507440E+02;3;  3.0302340E-01;  0.0000000E+00;  2.5620615E-02;0; -5.4043248E-02;  3.9954703E+04;  0.0000000E+00; -2.1296710E-01;  4.0000000E+04;  0.0000000E+00;  4.0001836E+04; -5.3280801E-02;  0.0000000E+00; -7.6244865E-04;  4.2238550E+02;
  1.8171600E-01;  9.9999998E-03; -1.4001097E-01;3560; -1.2414377E-02;  0.0000000E+00; -1.4547078E-04;  9.9930377E+02;  1.0000000E-01; -5.7682318E+02;3;  2.8754178E-01;  0.0000000E+00;  3.3286154E-02;0; -5.4224871E-02;  3.9935121E+04;  0.0000000E+00; -1.5590321E-01;  4.0000000E+04;  0.0000000E+00;  4.0006160E+04; -5.3786896E-02;  0.0000000E+00; -4.3797554E-04;  8.8537170E+02;
  1.8169388E-01;  9.9999998E-03; -1.3003637E-01;3561; -1.2582626E-02;  0.0000000E+00; -1.5741999E-04;  9.9913165E+02;  1.0000000E-01; -7.1938708E+02;3;  2.7225199E-01;  0.0000000E+00;  3.4505632E-02;0; -5.4460604E-02;  3.9917598E+04;  0.0000000E+00; -1.0508280E-01;  4.0000000E+04;  0.0000000E+00;  4.0009609E+04; -5.4368719E-02;  0.0000000E+00; -9.1882677E-05;  1.2702039E+03;
  1.8166131E-01;  9.9999998E-03; -1.2005494E-01;3562; -1.2740708E-02;  0.0000000E+00; -1.5499334E-04;  9.9897198E+02;  1.0000000E-01; -8.5167963E+02;3;  2.5757647E-01;  0.0000000E+00;  3.5200585E-02;0; -5.4739013E-02;  3.9902938E+04;  0.0000000E+00; -6.5997571E-02;  4.0000000E+04;  0.0000000E+00;  4.0010758E+04; -5.4984637E-02;  0.0000000E+00;  2.4562501E-04;  1.4511165E+03;
  1.8162012E-01;  9.9999998E-03; -1.1006670E-01;3563; -1.2882925E-02;  0.0000000E+00; -1.4124127E-04;  9.9883240E+02;  1.0000000E-01; -9.6733069E+02;3;  2.4367875E-01;  0.0000000E+00;  3.5443295E-02;0; -5.5044871E-02;  3.9891555E+04;  0.0000000E+00; -4.0436681E-02;  4.0000000E+04;  0.0000000E+00;  4.0010574E+04; -5.5595186E-02;  0.0000000E+00;  5.5031350E-04;  1.4179894E+03;
  1.9136587E-01;  9.9999998E-03; -2.7008170E-01;3608; -9.5425332E-03;  0.0000000E+00;  8.3772778E-05;  9.9575433E+02;  1.0000000E-01; -3.5174314E+03;3;  1.4918659E+01;  0.0000000E+00; -1.0972119E+01;0; -7.1923137E-02;  3.9638043E+04;  0.0000000E+00;  2.6713100E+01;  4.0000000E+04;  0.0000000E+00;  4.0024742E+04; -7.1745701E-02;  0.0000000E+00; -1.7743750E-04;  4.0935258E+04;
  1.9135113E-01;  9.9999998E-03; -2.6014072E-01;3609; -1.0330928E-02;  0.0000000E+00;  2.3543827E-04;  9.9701416E+02;  1.0000000E-01; -2.4737078E+03;3;  4.8948026E+00;  0.0000000E+00; -1.5736949E+01;0; -6.8697535E-02;  3.9744836E+04;  0.0000000E+00;  1.9353418E+01;  4.0000000E+04;  0.0000000E+00;  4.0020121E+04; -6.8154596E-02;  0.0000000E+00; -5.4294191E-04;  2.9632566E+04;
  1.9132818E-01;  9.9999998E-03; -2.5020784E-01;3610; -1.0813485E-02;  0.0000000E+00;  2.6917562E-04;  9.9801959E+02;  1.0000000E-01; -1.6407438E+03;3; -4.7837433E-01;  0.0000000E+00; -1.5188220E+01;0; -6.5093137E-02;  3.9833461E+04;  0.0000000E+00;  1.3538918E+01;  4.0000000E+04;  0.0000000E+00;  4.0012500E+04; -6.4479180E-02;  0.0000000E+00; -6.1395398E-04;  2.0579646E+04;
  1.9127887E-01;  9.9999998E-03; -2.4024038E-01;3611; -1.1131750E-02;  0.0000000E+00;  2.3374548E-04;  9.9885229E+02;  1.0000000E-01; -9.5083728E+02;3; -2.4179194E+00;  0.0000000E+00; -1.3229581E+01;0; -6.1890930E-02;  3.9904746E+04;  0.0000000E+00;  9.2911692E+00;  4.0000000E+04;  0.0000000E+00;  4.0008285E+04; -6.1243895E-02;  0.0000000E+00; -6.4703374E-04;  1.3987665E+04;
  1.9122577E-01;  9.9999998E-03; -2.3023146E-01;3612; -1.1361007E-02;  0.0000000E+00;  1.9827616E-04;  9.9947870E+02;  1.0000000E-01; -4.3188901E+02;3; -2.5891149E+00;  0.0000000E+00; -1.0357161E+01;0; -5.9368808E-02;  3.9957359E+04;  0.0000000E+00;  6.0586543E+00;  4.0000000E+04;  0.0000000E+00;  4.0005535E+04; -5.8592819E-02;  0.0000000E+00; -7.7599077E-04;  9.0371084E+03;
  1.9122618E-01;  9.9999998E-03; -2.2018978E-01;3613; -1.1550640E-02;  0.0000000E+00;  1.7172121E-04;  9.9987360E+02;  1.0000000E-01; -1.0473778E+02;3; -2.0067024E+00;  0.0000000E+00; -7.2245817E+00;0; -5.7487700E-02;  3.9992016E+04;  0.0000000E+00;  3.5818632E+00;  4.0000000E+04;  0.0000000E+00;  4.0002066E+04; -5.6529034E-02;  0.0000000E+00; -9.5866673E-04;  5.2928765E+03;
  1.9130774E-01;  9.9999998E-03; -2.1011798E-01;3614; -1.1726690E-02;  0.0000000E+00;  1.3882680E-04;  1.0000872E+03;  1.0000000E-01;  7.2195488E+01;3; -1.2265146E+00;  0.0000000E+00; -4.5487857E+00;0; -5.6134254E-02;  4.0012656E+04;  0.0000000E+00;  1.8036807E+00;  4.0000000E+04;  0.0000000E+00;  3.9997168E+04; -5.4997582E-02;  0.0000000E+00; -1.1366736E-03;  2.6806499E+03;
  1.9140267E-01;  9.9999998E-03; -2.0005718E-01;3615; -1.1898411E-02;  0.0000000E+00;  9.6344280E-05;  1.0001575E+03;  1.0000000E-01;  1.3046544E+02;3; -5.4269922E-01;  0.0000000E+00; -2.5825596E+00;0; -5.5208661E-02;  4.0022023E+04;  0.0000000E+00;  6.4725572E-01;  4.0000000E+04;  0.0000000E+00;  3.9992168E+04; -5.3934686E-02;  0.0000000E+00; -1.2739758E-03;  1.3785594E+03;
  1.9149441E-01;  9.9999998E-03; -1.9000947E-01;3616; -1.2071390E-02;  0.0000000E+00;  4.5665714E-05;  1.0001304E+03;  1.0000000E-01;  1.0804633E+02;3; -6.4722240E-02;  0.0000000E+00; -1.3192308E+00;0; -5.4618903E-02;  4.0021617E+04;  0.0000000E+00; -1.6296623E-02;  4.0000000E+04;  0.0000000E+00;  3.9989238E+04; -5.3275332E-02;  0.0000000E+00; -1.3435689E-03;  1.3609260E+03;
  1.9156972E-01;  9.9999998E-03; -1.7998536E-01;3617; -1.2248039E-02;  0.0000000E+00; -6.5827708E-06;  1.0000361E+03;  1.0000000E-01;  2.9925079E+01;3;  2.0131125E-01;  0.0000000E+00; -5.7731181E-01;0; -5.4283589E-02;  4.0013238E+04;  0.0000000E+00; -3.1876856E-01;  4.0000000E+04;  0.0000000E+00;  3.9988805E+04; -5.2957334E-02;  0.0000000E+00; -1.3262554E-03;  1.4643312E+03;
  1.9161731E-01;  9.9999998E-03; -1.6998762E-01;3618; -1.2429733E-02;  0.0000000E+00; -5.5243065E-05;  9.9989465E+02;  1.0000000E-01; -8.7256790E+01;3;  3.1187811E-01;  0.0000000E+00; -1.8493834E-01;0; -5.4132354E-02;  3.9998809E+04;  0.0000000E+00; -3.8783506E-01;  4.0000000E+04;  0.0000000E+00;  3.9990895E+04; -5.2918665E-02;  0.0000000E+00; -1.2136893E-03;  1.2405486E+03;
  1.9164348E-01;  9.9999998E-03; -1.6000582E-01;3619; -1.2617790E-02;  0.0000000E+00; -9.6705517E-05;  9.9973187E+02;  1.0000000E-01; -2.2211717E+02;3;  3.3661905E-01;  0.0000000E+00; -1.1703730E-02;0; -5.4110263E-02;  3.9981180E+04;  0.0000000E+00; -3.3586711E-01;  4.0000000E+04;  0.0000000E+00;  3.9995070E+04; -5.3099368E-02;  0.0000000E+00; -1.0108950E-03;  7.8626306E+02;
  1.9165306E-01;  9.9999998E-03; -1.5003078E-01;3620; -1.2811335E-02;  0.0000000E+00; -1.2845732E-04;  9.9955585E+02;  1.0000000E-01; -3.6798959E+02;3;  3.2782400E-01;  0.0000000E+00;  4.1268490E-02;0; -5.4179799E-02;  3.9962219E+04;  0.0000000E+00; -2.4370603E-01;  4.0000000E+04;  0.0000000E+00;  3.9999219E+04; -5.3443827E-02;  0.0000000E+00; -7.3597039E-04;  3.5386102E+02;
  1.9164935E-01;  9.9999998E-03; -1.4005540E-01;3621; -1.3006710E-02;  0.0000000E+00; -1.4872440E-04;  9.9937756E+02;  1.0000000E-01; -5.1568915E+02;3;  3.1174836E-01;  0.0000000E+00;  4.8340108E-02;0; -5.4318998E-02;  3.9943520E+04;  0.0000000E+00; -1.5559517E-01;  4.0000000E+04;  0.0000000E+00;  4.0002816E+04; -5.3902086E-02;  0.0000000E+00; -4.1691304E-04;  4.7249042E+02;
  1.9163413E-01;  9.9999998E-03; -1.3007492E-01;3622; -1.3197913E-02;  0.0000000E+00; -1.5602596E-04;  9.9921277E+02;  1.0000000E-01; -6.5222845E+02;3;  2.9591134E-01;  0.0000000E+00;  4.9184565E-02;0; -5.4515559E-02;  3.9927039E+04;  0.0000000E+00; -8.7890267E-02;  4.0000000E+04;  0.0000000E+00;  4.0005719E+04; -5.4430194E-02;  0.0000000E+00; -8.5366104E-05;  7.6659601E+02;
  1.9161311E-01;  9.9999998E-03; -1.2008791E-01;3623; -1.3377962E-02;  0.0000000E+00; -1.4950262E-04;  9.9906134E+02;  1.0000000E-01; -7.7765704E+02;3;  2.8077626E-01;  0.0000000E+00;  4.9650162E-02;0; -5.4757562E-02;  3.9913699E+04;  0.0000000E+00; -4.3655381E-02;  4.0000000E+04;  0.0000000E+00;  4.0006406E+04; -5.4987915E-02;  0.0000000E+00;  2.3035432E-04;  8.9956091E+02;
  1.9159469E-01;  9.9999998E-03; -1.1009511E-01;3624; -1.3540098E-02;  0.0000000E+00; -1.3181126E-04;  9.9893237E+02;  1.0000000E-01; -8.8451819E+02;3;  2.6666757E-01;  0.0000000E+00;  4.9368337E-02;0; -5.5029452E-02;  3.9903520E+04;  0.0000000E+00; -2.0848332E-02;  4.0000000E+04;  0.0000000E+00;  4.0005992E+04; -5.5538423E-02;  0.0000000E+00;  5.0897186E-04;  8.4505627E+02;
  2.0128904E-01;  9.9999998E-03; -2.7014318E-01;3669; -9.9541331E-03;  0.0000000E+00;  2.9805809E-04;  9.9593323E+02;  1.0000000E-01; -3.3692380E+03;3;  7.9489689E+00;  0.0000000E+00;  2.2864904E-01;0; -7.5454995E-02;  3.9676953E+04;  0.0000000E+00;  2.4617592E+01;  4.0000000E+04;  0.0000000E+00;  3.9999652E+04; -7.4386708E-02;  0.0000000E+00; -1.0682881E-03;  3.7891852E+04;
  2.0122871E-01;  9.9999998E-03; -2.6019245E-01;3670; -1.0835027E-02;  0.0000000E+00;  4.3275062E-04;  9.9718573E+02;  1.0000000E-01; -2.3315884E+03;3;  4.0615222E-01;  0.0000000E+00; -7.5381069E+00;0; -7.1600504E-02;  3.9782711E+04;  0.0000000E+00;  1.8518049E+01;  4.0000000E+04;  0.0000000E+00;  3.9995871E+04; -7.0290014E-02;  0.0000000E+00; -1.3104889E-03;  2.8396195E+04;
  2.0119359E-01;  9.9999998E-03; -2.5025627E-01;3671; -1.1362564E-02;  0.0000000E+00;  4.3971441E-04;  9.9808630E+02;  1.0000000E-01; -1.5854366E+03;3; -3.3663392E+00;  0.0000000E+00; -9.2283888E+00;0; -6.7255795E-02;  3.9862883E+04;  0.0000000E+00;  1.3127445E+01;  4.0000000E+04;  0.0000000E+00;  3.9988895E+04; -6.6090360E-02;  0.0000000E+00; -1.1654318E-03;  1.9999484E+04;
  2.0114870E-01;  9.9999998E-03; -2.4029139E-01;3672; -1.1687987E-02;  0.0000000E+00;  3.3699567E-04;  9.9883466E+02;  1.0000000E-01; -9.6545416E+02;3; -4.1531539E+00;  0.0000000E+00; -9.2885542E+00;0; -6.3334897E-02;  3.9924594E+04;  0.0000000E+00;  9.0969992E+00;  4.0000000E+04;  0.0000000E+00;  3.9987230E+04; -6.2403500E-02;  0.0000000E+00; -9.3140063E-04;  1.3761369E+04;
  2.0111886E-01;  9.9999998E-03; -2.3027477E-01;3673; -1.1910548E-02;  0.0000000E+00;  2.3127132E-04;  9.9942291E+02;  1.0000000E-01; -4.7810992E+02;3; -3.5050538E+00;  0.0000000E+00; -8.1638908E+00;0; -6.0291167E-02;  3.9968570E+04;  0.0000000E+00;  5.9538403E+00;  4.0000000E+04;  0.0000000E+00;  3.9990023E+04; -5.9402227E-02;  0.0000000E+00; -8.8894059E-04;  8.9504443E+03;
  2.0114630E-01;  9.9999998E-03; -2.2021246E-01;3674; -1.2084551E-02;  0.0000000E+00;  1.5893899E-04;  9.9981238E+02;  1.0000000E-01; -1.5545239E+02;3; -2.4348390E+00;  0.0000000E+00; -6.1520629E+00;0; -5.8071032E-02;  3.9996605E+04;  0.0000000E+00;  3.4950347E+00;  4.0000000E+04;  0.0000000E+00;  3.9991852E+04; -5.7078429E-02;  0.0000000E+00; -9.9260407E-04;  5.2708320E+03;
  2.0122586E-01;  9.9999998E-03; -2.1013115E-01;3675; -1.2242835E-02;  0.0000000E+00;  1.0593028E-04;  1.0000218E+03;  1.0000000E-01;  1.8073563E+01;3; -1.4094859E+00;  0.0000000E+00; -4.0187349E+00;0; -5.6495629E-02;  4.0012934E+04;  0.0000000E+00;  1.7109584E+00;  4.0000000E+04;  0.0000000E+00;  3.9991277E+04; -5.5365045E-02;  0.0000000E+00; -1.1305829E-03;  2.7722410E+03;
  2.0130242E-01;  9.9999998E-03; -2.0007391E-01;3676; -1.2400630E-02;  0.0000000E+00;  5.6155008E-05;  1.0000870E+03;  1.0000000E-01;  7.2096725E+01;3; -6.0751885E-01;  0.0000000E+00; -2.3114121E+00;0; -5.5416271E-02;  4.0019949E+04;  0.0000000E+00;  5.4322565E-01;  4.0000000E+04;  0.0000000E+00;  3.9988086E+04; -5.4179780E-02;  0.0000000E+00; -1.2364892E-03;  1.6867845E+03;
  2.0139016E-01;  9.9999998E-03; -1.9002815E-01;3677; -1.2567591E-02;  0.0000000E+00;  4.2748406E-06;  1.0000715E+03;  1.0000000E-01;  5.9257584E+01;3; -7.3528551E-02;  0.0000000E+00; -1.1779190E+00;0; -5.4713514E-02;  4.0018293E+04;  0.0000000E+00; -1.2010009E-01;  4.0000000E+04;  0.0000000E+00;  3.9987051E+04; -5.3436249E-02;  0.0000000E+00; -1.2772650E-03;  1.6711583E+03;
  2.0146321E-01;  9.9999998E-03; -1.8001470E-01;3678; -1.2745739E-02;  0.0000000E+00; -4.5219651E-05;  9.9998669E+02;  1.0000000E-01; -1.1012034E+01;3;  2.1658872E-01;  0.0000000E+00; -4.9976212E-01;0; -5.4292101E-02;  4.0010191E+04;  0.0000000E+00; -4.0234694E-01;  4.0000000E+04;  0.0000000E+00;  3.9987195E+04; -5.3056475E-02;  0.0000000E+00; -1.2356272E-03;  1.7055133E+03;
  2.0151770E-01;  9.9999998E-03; -1.7002490E-01;3679; -1.2936338E-02;  0.0000000E+00; -8.8726774E-05;  9.9986224E+02;  1.0000000E-01; -1.1412023E+02;3;  3.3618516E-01;  0.0000000E+00; -1.4140676E-01;0; -5.4071575E-02;  3.9997305E+04;  0.0000000E+00; -4.3596101E-01;  4.0000000E+04;  0.0000000E+00;  3.9989637E+04; -5.2965481E-02;  0.0000000E+00; -1.1060953E-03;  1.4464463E+03;
  2.0155528E-01;  9.9999998E-03; -1.6004515E-01;3680; -1.3139334E-02;  0.0000000E+00; -1.2350758E-04;  9.9971692E+02;  1.0000000E-01; -2.3451189E+02;3;  3.6327985E-01;  0.0000000E+00;  1.4233433E-02;0; -5.3990375E-02;  3.9981535E+04;  0.0000000E+00; -3.4459305E-01;  4.0000000E+04;  0.0000000E+00;  3.9993203E+04; -5.3094409E-02;  0.0000000E+00; -8.9596520E-04;  9.9026105E+02;
  2.0157538E-01;  9.9999998E-03; -1.5006730E-01;3681; -1.3351865E-02;  0.0000000E+00; -1.4763525E-04;  9.9956476E+02;  1.0000000E-01; -3.6058240E+02;3;  3.5436106E-01;  0.0000000E+00;  6.0207181E-02;0; -5.4006428E-02;  3.9964730E+04;  0.0000000E+00; -2.2025916E-01;  4.0000000E+04;  0.0000000E+00;  3.9996633E+04; -5.3381830E-02;  0.0000000E+00; -6.2459859E-04;  4.9785184E+02;
  2.0158353E-01;  9.9999998E-03; -1.4008594E-01;3682; -1.3568443E-02;  0.0000000E+00; -1.5981580E-04;  9.9941217E+02;  1.0000000E-01; -4.8699857E+02;3;  3.3766529E-01;  0.0000000E+00;  6.6143647E-02;0; -5.4094940E-02;  3.9948871E+04;  0.0000000E+00; -1.1356002E-01;  4.0000000E+04;  0.0000000E+00;  3.9999551E+04; -5.3775098E-02;  0.0000000E+00; -3.1984411E-04;  1.6123242E+02;
  2.0158790E-01;  9.9999998E-03; -1.3009806E-01;3683; -1.3781479E-02;  0.0000000E+00; -1.5848438E-04;  9.9927020E+02;  1.0000000E-01; -6.0462488E+02;3;  3.2126546E-01;  0.0000000E+00;  6.6916876E-02;0; -5.4242425E-02;  3.9935391E+04;  0.0000000E+00; -4.0701646E-02;  4.0000000E+04;  0.0000000E+00;  4.0002008E+04; -5.4230399E-02;  0.0000000E+00; -1.2026378E-05;  2.7939771E+02;
  2.0159848E-01;  9.9999998E-03; -1.2010383E-01;3684; -1.3982299E-02;  0.0000000E+00; -1.4383125E-04;  9.9915332E+02;  1.0000000E-01; -7.0146167E+02;3;  3.0594429E-01;  0.0000000E+00;  6.6552617E-02;0; -5.4437142E-02;  3.9924895E+04;  0.0000000E+00; -7.5095560E-04;  4.0000000E+04;  0.0000000E+00;  4.0002520E+04; -5.4710131E-02;  0.0000000E+00;  2.7298837E-04;  3.6102484E+02;
  2.0161928E-01;  9.9999998E-03; -1.1010413E-01;3685; -1.4162169E-02;  0.0000000E+00; -1.2066525E-04;  9.9906122E+02;  1.0000000E-01; -7.7775580E+02;3;  2.9184985E-01;  0.0000000E+00;  6.4776540E-02;0; -5.4664206E-02;  3.9917977E+04;  0.0000000E+00;  1.2978383E-02;  4.0000000E+04;  0.0000000E+00;  4.0001664E+04; -5.5181522E-02;  0.0000000E+00;  5.1731610E-04;  2.8389261E+02;
  2.1120086E-01;  9.9999998E-03; -2.7014339E-01;3730; -1.0327762E-02;  0.0000000E+00;  4.0639075E-04;  9.9638037E+02;  1.0000000E-01; -2.9987793E+03;3;  1.0016782E+00;  0.0000000E+00;  3.9710751E+00;0; -7.7499278E-02;  3.9725551E+04;  0.0000000E+00;  2.3604292E+01;  4.0000000E+04;  0.0000000E+00;  3.9987543E+04; -7.5588956E-02;  0.0000000E+00; -1.9103218E-03;  3.6263578E+04;
  2.1110326E-01;  9.9999998E-03; -2.6017794E-01;3731; -1.1279203E-02;  0.0000000E+00;  5.3445389E-04;  9.9753772E+02;  1.0000000E-01; -2.0399423E+03;3; -3.6510372E+00;  0.0000000E+00; -4.6703806E+00;0; -7.3313951E-02;  3.9823168E+04;  0.0000000E+00;  1.8510809E+01;  4.0000000E+04;  0.0000000E+00;  3.9984453E+04; -7.1289934E-02;  0.0000000E+00; -2.0240145E-03;  2.8345303E+04;
  2.1107103E-01;  9.9999998E-03; -2.5023046E-01;3732; -1.1853616E-02;  0.0000000E+00;  5.5598188E-04;  9.9826666E+02;  1.0000000E-01; -1.4360581E+03;3; -5.7436213E+00;  0.0000000E+00; -6.9317932E+00;0; -6.8585269E-02;  3.9889027E+04;  0.0000000E+00;  1.3093360E+01;  4.0000000E+04;  0.0000000E+00;  3.9977379E+04; -6.6852286E-02;  0.0000000E+00; -1.7329834E-03;  2.0036834E+04;
  2.1104328E-01;  9.9999998E-03; -2.4026650E-01;3733; -1.2184040E-02;  0.0000000E+00;  4.2020009E-04;  9.9885730E+02;  1.0000000E-01; -9.4668927E+02;3; -5.4996381E+00;  0.0000000E+00; -7.3883710E+00;0; -6.4143643E-02;  3.9937914E+04;  0.0000000E+00;  8.9855890E+00;  4.0000000E+04;  0.0000000E+00;  3.9976195E+04; -6.2932730E-02;  0.0000000E+00; -1.2109145E-03;  1.3803891E+04;
  2.1103895E-01;  9.9999998E-03; -2.3024818E-01;3734; -1.2402272E-02;  0.0000000E+00;  2.5404323E-04;  9.9935449E+02;  1.0000000E-01; -5.3479968E+02;3; -4.1472921E+00;  0.0000000E+00; -6.9130640E+00;0; -6.0684279E-02;  3.9971551E+04;  0.0000000E+00;  5.8194895E+00;  4.0000000E+04;  0.0000000E+00;  3.9981047E+04; -5.9747905E-02;  0.0000000E+00; -9.3637349E-04;  8.9639375E+03;
  2.1108826E-01;  9.9999998E-03; -2.2017866E-01;3735; -1.2568519E-02;  0.0000000E+00;  1.3816767E-04;  9.9969714E+02;  1.0000000E-01; -2.5090648E+02;3; -2.6744523E+00;  0.0000000E+00; -5.4175706E+00;0; -5.8214024E-02;  3.9992336E+04;  0.0000000E+00;  3.3729453E+00;  4.0000000E+04;  0.0000000E+00;  3.9986820E+04; -5.7286702E-02;  0.0000000E+00; -9.2732097E-04;  5.2611440E+03;
  2.1114945E-01;  9.9999998E-03; -2.1011353E-01;3736; -1.2716183E-02;  0.0000000E+00;  6.5996581E-05;  9.9987360E+02;  1.0000000E-01; -1.0473778E+02;3; -1.4778301E+00;  0.0000000E+00; -3.5504427E+00;0; -5.6492947E-02;  4.0004266E+04;  0.0000000E+00;  1.6260457E+00;  4.0000000E+04;  0.0000000E+00;  3.9987605E+04; -5.5478860E-02;  0.0000000E+00; -1.0140892E-03;  2.8787180E+03;
  2.1121772E-01;  9.9999998E-03; -2.0006697E-01;3737; -1.2868201E-02;  0.0000000E+00;  6.8097347E-06;  9.9993304E+02;  1.0000000E-01; -5.5455223E+01;3; -6.0236657E-01;  0.0000000E+00; -2.0362043E+00;0; -5.5311706E-02;  4.0008480E+04;  0.0000000E+00;  4.8662719E-01;  4.0000000E+04;  0.0000000E+00;  3.9986004E+04; -5.4225698E-02;  0.0000000E+00; -1.0860076E-03;  1.8766838E+03;
  2.1130091E-01;  9.9999998E-03; -1.9003758E-01;3738; -1.3034201E-02;  0.0000000E+00; -4.7174814E-05;  9.9990808E+02;  1.0000000E-01; -7.6145996E+01;3; -4.4460371E-02;  0.0000000E+00; -1.0148512E+00;0; -5.4529767E-02;  4.0006039E+04;  0.0000000E+00; -1.4504857E-01;  4.0000000E+04;  0.0000000E+00;  3.9985605E+04; -5.3429160E-02;  0.0000000E+00; -1.1006077E-03;  1.8029993E+03;
  2.1137011E-01;  9.9999998E-03; -1.8003939E-01;3739; -1.3216481E-02;  0.0000000E+00; -9.4296978E-05;  9.9983856E+02;  1.0000000E-01; -1.3372461E+02;3;  2.4956602E-01;  0.0000000E+00; -4.0582141E-01;0; -5.4040868E-02;  3.9998605E+04;  0.0000000E+00; -3.9072630E-01;  4.0000000E+04;  0.0000000E+00;  3.9986418E+04; -5.3000748E-02;  0.0000000E+00; -1.0401203E-03;  1.7643824E+03;
  2.1142815E-01;  9.9999998E-03; -1.7005688E-01;3740; -1.3416882E-02;  0.0000000E+00; -1.3173561E-04;  9.9974231E+02;  1.0000000E-01; -2.1347545E+02;3;  3.6770070E-01;  0.0000000E+00; -8.8212356E-02;0; -5.3758454E-02;  3.9987605E+04;  0.0000000E+00; -3.8857201E-01;  4.0000000E+04;  0.0000000E+00;  3.9988777E+04; -5.2857734E-02;  0.0000000E+00; -9.0071757E-04;  1.4830000E+03;
  2.1147309E-01;  9.9999998E-03; -1.6007917E-01;3741; -1.3634209E-02;  0.0000000E+00; -1.5788591E-04;  9.9962811E+02;  1.0000000E-01; -3.0809006E+02;3;  3.9301825E-01;  0.0000000E+00;  4.5579001E-02;0; -5.3618550E-02;  3.9974992E+04;  0.0000000E+00; -2.6937595E-01;  4.0000000E+04;  0.0000000E+00;  3.9991852E+04; -5.2926876E-02;  0.0000000E+00; -6.9167599E-04;  1.0600829E+03;
  2.1150975E-01;  9.9999998E-03; -1.5009815E-01;3742; -1.3864454E-02;  0.0000000E+00; -1.7185483E-04;  9.9951422E+02;  1.0000000E-01; -4.0245776E+02;3;  3.8295138E-01;  0.0000000E+00;  8.2930446E-02;0; -5.3577133E-02;  3.9962273E+04;  0.0000000E+00; -1.3049266E-01;  4.0000000E+04;  0.0000000E+00;  3.9994809E+04; -5.3143956E-02;  0.0000000E+00; -4.3317580E-04;  6.3570581E+02;
  2.1154644E-01;  9.9999998E-03; -1.4010815E-01;3743; -1.4100814E-02;  0.0000000E+00; -1.7222065E-04;  9.9940619E+02;  1.0000000E-01; -4.9193671E+02;3;  3.6548579E-01;  0.0000000E+00;  8.7343380E-02;0; -5.3608242E-02;  3.9950867E+04;  0.0000000E+00; -2.3330914E-02;  4.0000000E+04;  0.0000000E+00;  3.9997172E+04; -5.3455867E-02;  0.0000000E+00; -1.5237553E-04;  3.0937979E+02;
  2.1159120E-01;  9.9999998E-03; -1.3010649E-01;3744; -1.4333659E-02;  0.0000000E+00; -1.5881179E-04;  9.9931689E+02;  1.0000000E-01; -5.6595929E+02;3;  3.4883890E-01;  0.0000000E+00;  8.6967073E-02;0; -5.3698823E-02;  3.9942117E+04;  0.0000000E+00;  3.9667983E-02;  4.0000000E+04;  0.0000000E+00;  3.9998273E+04; -5.3821098E-02;  0.0000000E+00;  1.2227580E-04;  1.4501060E+02;
  2.1165393E-01;  9.9999998E-03; -1.2009501E-01;3745; -1.4552142E-02;  0.0000000E+00; -1.3482579E-04;  9.9925244E+02;  1.0000000E-01; -6.1934052E+02;3;  3.3364025E-01;  0.0000000E+00;  8.4800683E-02;0; -5.3838219E-02;  3.9936473E+04;  0.0000000E+00;  6.4881124E-02;  4.0000000E+04;  0.0000000E+00;  3.9998598E+04; -5.4206051E-02;  0.0000000E+00;  3.6783001E-04;  1.3907834E+02;
  2.1174291E-01;  9.9999998E-03; -1.1007302E-01;3746; -1.4746431E-02;  0.0000000E+00; -1.0729750E-04;  9.9921735E+02;  1.0000000E-01; -6.4842609E+02;3;  3.1991449E-01;  0.0000000E+00;  8.0847800E-02;0; -5.4012563E-02;  3.9934301E+04;  0.0000000E+00;  6.3690297E-02;  4.0000000E+04;  0.0000000E+00;  3.9998199E+04; -5.4582857E-02;  0.0000000E+00;  5.7029224E-04;  2.2792653E+02;
  2.2120805E-01;  9.9999998E-03; -2.7011007E-01;3791; -1.0832988E-02;  0.0000000E+00;  3.2201991E-04;  9.9680878E+02;  1.0000000E-01; -2.6438757E+03;3; -5.4579639E+00;  0.0000000E+00;  2.0027950E+00;0; -7.7713303E-02;  3.9759914E+04;  0.0000000E+00;  2.0604286E+01;  4.0000000E+04;  0.0000000E+00;  3.9989230E+04; -7.5805888E-02;  0.0000000E+00; -1.9074156E-03;  3.1588350E+04;
  2.2106034E-01;  9.9999998E-03; -2.6013669E-01;3792; -1.1737864E-02;  0.0000000E+00;  5.1521620E-04;  9.9785541E+02;  1.0000000E-01; -1.7767399E+03;3; -7.1201406E+00;  0.0000000E+00; -4.8046017E+00;0; -7.3697940E-02;  3.9850672E+04;  0.0000000E+00;  1.7491392E+01;  4.0000000E+04;  0.0000000E+00;  3.9983707E+04; -7.1341909E-02;  0.0000000E+00; -2.3560319E-03;  2.6677924E+04;
  2.2101752E-01;  9.9999998E-03; -2.5017154E-01;3793; -1.2318891E-02;  0.0000000E+00;  5.5417756E-04;  9.9844580E+02;  1.0000000E-01; -1.2876179E+03;3; -7.3919268E+00;  0.0000000E+00; -6.8466811E+00;0; -6.8855725E-02;  3.9904496E+04;  0.0000000E+00;  1.2553670E+01;  4.0000000E+04;  0.0000000E+00;  3.9978043E+04; -6.6864379E-02;  0.0000000E+00; -1.9913495E-03;  1.9154387E+04;
  2.2100253E-01;  9.9999998E-03; -2.4019518E-01;3794; -1.2647768E-02;  0.0000000E+00;  4.1703178E-04;  9.9888873E+02;  1.0000000E-01; -9.2066534E+02;3; -6.1947298E+00;  0.0000000E+00; -6.9773130E+00;0; -6.4186618E-02;  3.9940793E+04;  0.0000000E+00;  8.5505962E+00;  4.0000000E+04;  0.0000000E+00;  3.9976043E+04; -6.2911496E-02;  0.0000000E+00; -1.2751208E-03;  1.3141153E+04;
  2.2101852E-01;  9.9999998E-03; -2.3016851E-01;3795; -1.2858709E-02;  0.0000000E+00;  2.1849191E-04;  9.9927747E+02;  1.0000000E-01; -5.9860034E+02;3; -4.3440461E+00;  0.0000000E+00; -6.3649569E+00;0; -6.0507640E-02;  3.9964562E+04;  0.0000000E+00;  5.4710321E+00;  4.0000000E+04;  0.0000000E+00;  3.9982438E+04; -5.9699643E-02;  0.0000000E+00; -8.0799730E-04;  8.4340693E+03;
  2.2105230E-01;  9.9999998E-03; -2.2011517E-01;3796; -1.3017416E-02;  0.0000000E+00;  9.2937982E-05;  9.9953430E+02;  1.0000000E-01; -3.8581625E+02;3; -2.6794918E+00;  0.0000000E+00; -4.7990036E+00;0; -5.7951398E-02;  3.9979203E+04;  0.0000000E+00;  3.1687675E+00;  4.0000000E+04;  0.0000000E+00;  3.9986762E+04; -5.7224594E-02;  0.0000000E+00; -7.2680559E-04;  4.9814077E+03;
  2.2109616E-01;  9.9999998E-03; -2.1007420E-01;3797; -1.3161565E-02;  0.0000000E+00;  1.4424298E-05;  9.9965253E+02;  1.0000000E-01; -2.8789310E+02;3; -1.4096878E+00;  0.0000000E+00; -3.0629387E+00;0; -5.6180790E-02;  3.9986832E+04;  0.0000000E+00;  1.5309556E+00;  4.0000000E+04;  0.0000000E+00;  3.9987012E+04; -5.5406179E-02;  0.0000000E+00; -7.7460933E-04;  2.7967812E+03;
  2.2116734E-01;  9.9999998E-03; -2.0004411E-01;3798; -1.3313759E-02;  0.0000000E+00; -5.0289676E-05;  9.9968555E+02;  1.0000000E-01; -2.6053583E+02;3; -5.1992720E-01;  0.0000000E+00; -1.7160692E+00;0; -5.4956198E-02;  3.9988656E+04;  0.0000000E+00;  4.7783083E-01;  4.0000000E+04;  0.0000000E+00;  3.9986133E+04; -5.4137152E-02;  0.0000000E+00; -8.1904721E-04;  1.8583265E+03;
  2.2125125E-01;  9.9999998E-03; -1.9003500E-01;3799; -1.3482736E-02;  0.0000000E+00; -1.0519728E-04;  9.9966345E+02;  1.0000000E-01; -2.7880692E+02;3;  2.3667475E-02;  0.0000000E+00; -8.1968784E-01;0; -5.4132149E-02;  3.9985703E+04;  0.0000000E+00; -8.2158938E-02;  4.0000000E+04;  0.0000000E+00;  3.9986262E+04; -5.3317003E-02;  0.0000000E+00; -8.1514701E-04;  1.7280565E+03;
  2.2132395E-01;  9.9999998E-03; -1.8004964E-01;3800; -1.3671785E-02;  0.0000000E+00; -1.4840753E-04;  9.9961420E+02;  1.0000000E-01; -3.1964529E+02;3;  3.0031386E-01;  0.0000000E+00; -2.9308036E-01;0; -5.3596944E-02;  3.9979949E+04;  0.0000000E+00; -2.7437380E-01;  4.0000000E+04;  0.0000000E+00;  3.9987059E+04; -5.2852437E-02;  0.0000000E+00; -7.4450497E-04;  1.6275447E+03;
  2.2138312E-01;  9.9999998E-03; -1.7007469E-01;3801; -1.3882228E-02;  0.0000000E+00; -1.7810504E-04;  9.9955164E+02;  1.0000000E-01; -3.7144629E+02;3;  4.0653390E-01;  0.0000000E+00; -2.5392268E-02;0; -5.3263541E-02;  3.9972000E+04;  0.0000000E+00; -2.4021840E-01;  4.0000000E+04;  0.0000000E+00;  3.9989188E+04; -5.2658789E-02;  0.0000000E+00; -6.0475129E-04;  1.3506597E+03;
  2.2143401E-01;  9.9999998E-03; -1.6009882E-01;3802; -1.4112549E-02;  0.0000000E+00; -1.9387589E-04;  9.9948901E+02;  1.0000000E-01; -4.2334604E+02;3;  4.2607698E-01;  0.0000000E+00;  8.1835210E-02;0; -5.3068303E-02;  3.9963629E+04;  0.0000000E+00; -1.1068624E-01;  4.0000000E+04;  0.0000000E+00;  3.9991727E+04; -5.2661508E-02;  0.0000000E+00; -4.0679253E-04;  1.0035723E+03;
  2.2149718E-01;  9.9999998E-03; -1.5011135E-01;3803; -1.4358642E-02;  0.0000000E+00; -1.9477106E-04;  9.9942792E+02;  1.0000000E-01; -4.7396191E+02;3;  4.1396320E-01;  0.0000000E+00;  1.0908680E-01;0; -5.2967981E-02;  3.9956391E+04;  0.0000000E+00;  1.9931844E-02;  4.0000000E+04;  0.0000000E+00;  3.9993984E+04; -5.2796908E-02;  0.0000000E+00; -1.7107402E-04;  7.1089404E+02;
  2.2158881E-01;  9.9999998E-03; -1.4010271E-01;3804; -1.4612608E-02;  0.0000000E+00; -1.8049242E-04;  9.9938556E+02;  1.0000000E-01; -5.0907202E+02;3;  3.9623490E-01;  0.0000000E+00;  1.1052472E-01;0; -5.2937645E-02;  3.9951082E+04;  0.0000000E+00;  1.0654733E-01;  4.0000000E+04;  0.0000000E+00;  3.9995266E+04; -5.3013969E-02;  0.0000000E+00;  7.6322940E-05;  5.3457092E+02;
  2.2171402E-01;  9.9999998E-03; -1.3006860E-01;3805; -1.4862563E-02;  0.0000000E+00; -1.5407609E-04;  9.9936639E+02;  1.0000000E-01; -5.2492340E+02;3;  3.7965304E-01;  0.0000000E+00;  1.0832149E-01;0; -5.2966043E-02;  3.9948309E+04;  0.0000000E+00;  1.4432991E-01;  4.0000000E+04;  0.0000000E+00;  3.9996289E+04; -5.3275157E-02;  0.0000000E+00;  3.0911175E-04;  4.7103540E+02;
  2.2184290E-01;  9.9999998E-03; -1.2003192E-01;3806; -1.5093351E-02;  0.0000000E+00; -1.2301758E-04;  9.9936707E+02;  1.0000000E-01; -5.2438025E+02;3;  3.6466864E-01;  0.0000000E+00;  1.0398182E-01;0; -5.3047314E-02;  3.9948898E+04;  0.0000000E+00;  1.4544214E-01;  4.0000000E+04;  0.0000000E+00;  3.9995797E+04; -5.3553913E-02;  0.0000000E+00;  5.0660031E-04;  4.9511536E+02;
  2.2193047E-01;  9.9999998E-03; -1.1000814E-01;3807; -1.5292004E-02;  0.0000000E+00; -9.3982591E-05;  9.9939435E+02;  1.0000000E-01; -5.0176358E+02;3;  3.5109740E-01;  0.0000000E+00;  9.7613245E-02;0; -5.3173952E-02;  3.9951852E+04;  0.0000000E+00;  1.2496726E-01;  4.0000000E+04;  0.0000000E+00;  3.9995082E+04; -5.3832877E-02;  0.0000000E+00;  6.5892749E-04;  6.0128345E+02;
  2.3124655E-01;  9.9999998E-03; -2.7007058E-01;3852; -1.1453588E-02;  0.0000000E+00;  5.3438369E-05;  9.9725842E+02;  1.0000000E-01; -2.2713433E+03;3; -1.0593832E+01;  0.0000000E+00; -1.8755232E+00;0; -7.5698040E-02;  3.9790105E+04;  0.0000000E+00;  1.6235205E+01;  4.0000000E+04;  0.0000000E+00;  3.9997184E+04; -7.5180285E-02;  0.0000000E+00; -5.1775452E-04;  2.4946695E+04;
  2.3110199E-01;  9.9999998E-03; -2.6008704E-01;3853; -1.2267915E-02;  0.0000000E+00;  3.4365020E-04;  9.9810638E+02;  1.0000000E-01; -1.5688445E+03;3; -9.5909185E+00;  0.0000000E+00; -6.4119148E+00;0; -7.2514087E-02;  3.9864934E+04;  0.0000000E+00;  1.4573234E+01;  4.0000000E+04;  0.0000000E+00;  3.9991277E+04; -7.0673376E-02;  0.0000000E+00; -1.8407111E-03;  2.2202934E+04;
  2.3104015E-01;  9.9999998E-03; -2.5010532E-01;3854; -1.2794781E-02;  0.0000000E+00;  4.1454044E-04;  9.9857904E+02;  1.0000000E-01; -1.1772506E+03;3; -8.2111921E+00;  0.0000000E+00; -7.5127854E+00;0; -6.7936845E-02;  3.9908219E+04;  0.0000000E+00;  1.0925725E+01;  4.0000000E+04;  0.0000000E+00;  3.9985422E+04; -6.6287264E-02;  0.0000000E+00; -1.6495835E-03;  1.6581047E+04;
  2.3102781E-01;  9.9999998E-03; -2.4010627E-01;3855; -1.3105017E-02;  0.0000000E+00;  2.8712107E-04;  9.9891858E+02;  1.0000000E-01; -8.9592529E+02;3; -6.2021885E+00;  0.0000000E+00; -7.1666956E+00;0; -6.3357174E-02;  3.9934223E+04;  0.0000000E+00;  7.5128179E+00;  4.0000000E+04;  0.0000000E+00;  3.9985711E+04; -6.2461071E-02;  0.0000000E+00; -8.9610519E-04;  1.1396458E+04;
  2.3102272E-01;  9.9999998E-03; -2.3008174E-01;3856; -1.3301734E-02;  0.0000000E+00;  1.3226857E-04;  9.9918109E+02;  1.0000000E-01; -6.7844995E+02;3; -4.1460485E+00;  0.0000000E+00; -5.9024305E+00;0; -5.9834387E-02;  3.9950637E+04;  0.0000000E+00;  4.8771620E+00;  4.0000000E+04;  0.0000000E+00;  3.9988773E+04; -5.9363339E-02;  0.0000000E+00; -4.7104672E-04;  7.3970298E+03;
  2.3103376E-01;  9.9999998E-03; -2.2005023E-01;3857; -1.3453851E-02;  0.0000000E+00;  2.8081451E-05;  9.9933203E+02;  1.0000000E-01; -5.5341644E+02;3; -2.4603956E+00;  0.0000000E+00; -4.1489658E+00;0; -5.7365768E-02;  3.9959605E+04;  0.0000000E+00;  2.8530006E+00;  4.0000000E+04;  0.0000000E+00;  3.9989836E+04; -5.6978200E-02;  0.0000000E+00; -3.8756730E-04;  4.4177944E+03;
  2.3108457E-01;  9.9999998E-03; -2.1002452E-01;3858; -1.3599195E-02;  0.0000000E+00; -4.8342270E-05;  9.9938538E+02;  1.0000000E-01; -5.0922015E+02;3; -1.2072865E+00;  0.0000000E+00; -2.5472279E+00;0; -5.5632155E-02;  3.9962879E+04;  0.0000000E+00;  1.4057205E+00;  4.0000000E+04;  0.0000000E+00;  3.9988957E+04; -5.5217214E-02;  0.0000000E+00; -4.1494111E-04;  2.4807632E+03;
  2.3116417E-01;  9.9999998E-03; -2.0001264E-01;3859; -1.3754773E-02;  0.0000000E+00; -1.1293170E-04;  9.9939203E+02;  1.0000000E-01; -5.0368945E+02;3; -3.6715126E-01;  0.0000000E+00; -1.3663530E+00;0; -5.4422140E-02;  3.9962848E+04;  0.0000000E+00;  5.0820655E-01;  4.0000000E+04;  0.0000000E+00;  3.9987980E+04; -5.3977475E-02;  0.0000000E+00; -4.4466625E-04;  1.6436396E+03;
  2.3124374E-01;  9.9999998E-03; -1.9002308E-01;3860; -1.3928379E-02;  0.0000000E+00; -1.6548859E-04;  9.9937512E+02;  1.0000000E-01; -5.1771375E+02;3;  1.2559865E-01;  0.0000000E+00; -6.0473454E-01;0; -5.3593483E-02;  3.9960801E+04;  0.0000000E+00;  6.0431205E-02;  4.0000000E+04;  0.0000000E+00;  3.9987578E+04; -5.3159755E-02;  0.0000000E+00; -4.3372877E-04;  1.4776864E+03;
  2.3132116E-01;  9.9999998E-03; -1.8004696E-01;3861; -1.4125079E-02;  0.0000000E+00; -2.0208035E-04;  9.9935529E+02;  1.0000000E-01; -5.3415771E+02;3;  3.6598179E-01;  0.0000000E+00; -1.6995133E-01;0; -5.3034492E-02;  3.9957152E+04;  0.0000000E+00; -6.7032479E-02;  4.0000000E+04;  0.0000000E+00;  3.9988852E+04; -5.2670848E-02;  0.0000000E+00; -3.6364363E-04;  1.3378075E+03;
  2.3139834E-01;  9.9999998E-03; -1.7007329E-01;3862; -1.4345489E-02;  0.0000000E+00; -2.2286874E-04;  9.9934125E+02;  1.0000000E-01; -5.4576233E+02;3;  4.5186791E-01;  0.0000000E+00;  4.2315625E-02;0; -5.2661303E-02;  3.9953715E+04;  0.0000000E+00; -1.0954638E-02;  4.0000000E+04;  0.0000000E+00;  3.9990746E+04; -5.2427988E-02;  0.0000000E+00; -2.3331327E-04;  1.1036720E+03;
  2.3148467E-01;  9.9999998E-03; -1.6008939E-01;3863; -1.4588341E-02;  0.0000000E+00; -2.2612547E-04;  9.9933655E+02;  1.0000000E-01; -5.4966345E+02;3;  4.6273503E-01;  0.0000000E+00;  1.2148729E-01;0; -5.2415036E-02;  3.9950836E+04;  0.0000000E+00;  1.0694672E-01;  4.0000000E+04;  0.0000000E+00;  3.9992680E+04; -5.2359406E-02;  0.0000000E+00; -5.5629975E-05;  8.8065851E+02;
  2.3159517E-01;  9.9999998E-03; -1.5008128E-01;3864; -1.4848415E-02;  0.0000000E+00; -2.1079456E-04;  9.9934875E+02;  1.0000000E-01; -5.3954028E+02;3;  4.4824415E-01;  0.0000000E+00;  1.3773879E-01;0; -5.2257352E-02;  3.9949898E+04;  0.0000000E+00;  2.0493747E-01;  4.0000000E+04;  0.0000000E+00;  3.9994219E+04; -5.2405324E-02;  0.0000000E+00;  1.4797099E-04;  7.4413947E+02;
  2.3174347E-01;  9.9999998E-03; -1.4004792E-01;3865; -1.5114926E-02;  0.0000000E+00; -1.8190230E-04;  9.9938037E+02;  1.0000000E-01; -5.1336823E+02;3;  4.3029281E-01;  0.0000000E+00;  1.3568874E-01;0; -5.2168138E-02;  3.9951531E+04;  0.0000000E+00;  2.5121000E-01;  4.0000000E+04;  0.0000000E+00;  3.9994836E+04; -5.2520238E-02;  0.0000000E+00;  3.5210102E-04;  6.8201770E+02;
  2.3187664E-01;  9.9999998E-03; -1.3001409E-01;3866; -1.5371102E-02;  0.0000000E+00; -1.4555485E-04;  9.9943542E+02;  1.0000000E-01; -4.6773987E+02;3;  4.1361180E-01;  0.0000000E+00;  1.3126189E-01;0; -5.2143794E-02;  3.9955770E+04;  0.0000000E+00;  2.5093064E-01;  4.0000000E+04;  0.0000000E+00;  3.9994852E+04; -5.2675609E-02;  0.0000000E+00;  5.3181365E-04;  6.6701642E+02;
  2.3195334E-01;  9.9999998E-03; -1.1999276E-01;3867; -1.5601171E-02;  0.0000000E+00; -1.1036362E-04;  9.9950519E+02;  1.0000000E-01; -4.0996371E+02;3;  3.9853752E-01;  0.0000000E+00;  1.2432365E-01;0; -5.2182484E-02;  3.9961859E+04;  0.0000000E+00;  2.2208986E-01;  4.0000000E+04;  0.0000000E+00;  3.9994473E+04; -5.2854426E-02;  0.0000000E+00;  6.7194132E-04;  7.0543048E+02;
  2.3198067E-01;  9.9999998E-03; -1.0998251E-01;3868; -1.5795695E-02;  0.0000000E+00; -8.2690349E-05;  9.9958472E+02;  1.0000000E-01; -3.4403964E+02;3;  3.8487601E-01;  0.0000000E+00;  1.1401369E-01;0; -5.2274372E-02;  3.9969590E+04;  0.0000000E+00;  1.8152881E-01;  4.0000000E+04;  0.0000000E+00;  3.9993539E+04; -5.3043757E-02;  0.0000000E+00;  7.6938263E-04;  8.1257751E+02;
  2.4127927E-01;  9.9999998E-03; -2.7003786E-01;3913; -1.2150492E-02;  0.0000000E+00; -2.7524057E-04;  9.9771033E+02;  1.0000000E-01; -1.8969340E+03;3; -1.3728828E+01;  0.0000000E+00; -4.7776675E+00;0; -7.2027333E-02;  3.9821031E+04;  0.0000000E+00;  1.1591413E+01;  4.0000000E+04;  0.0000000E+00;  4.0004230E+04; -7.3849782E-02;  0.0000000E+00;  1.8224529E-03;  1.8026078E+04;
  2.4118496E-01;  9.9999998E-03; -2.6004350E-01;3914; -1.2864470E-02;  0.0000000E+00;  7.2467163E-05;  9.9830682E+02;  1.0000000E-01; -1.4027751E+03;3; -1.0788695E+01;  0.0000000E+00; -7.6478820E+00;0; -6.9909379E-02;  3.9872945E+04;  0.0000000E+00;  1.0386703E+01;  4.0000000E+04;  0.0000000E+00;  4.0000766E+04; -6.9452077E-02;  0.0000000E+00; -4.5730057E-04;  1.5961331E+04;
  2.4111396E-01;  9.9999998E-03; -2.5004813E-01;3915; -1.3302758E-02;  0.0000000E+00;  1.8216083E-04;  9.9865863E+02;  1.0000000E-01; -1.1112772E+03;3; -8.2239370E+00;  0.0000000E+00; -7.7651601E+00;0; -6.5981075E-02;  3.9904797E+04;  0.0000000E+00;  8.3556843E+00;  4.0000000E+04;  0.0000000E+00;  3.9996188E+04; -6.5285042E-02;  0.0000000E+00; -6.9602951E-04;  1.2682802E+04;
  2.4106076E-01;  9.9999998E-03; -2.4003769E-01;3916; -1.3569948E-02;  0.0000000E+00;  1.0541079E-04;  9.9890851E+02;  1.0000000E-01; -9.0427075E+02;3; -5.7692094E+00;  0.0000000E+00; -6.7978730E+00;0; -6.1908465E-02;  3.9923430E+04;  0.0000000E+00;  6.1462164E+00;  4.0000000E+04;  0.0000000E+00;  3.9996035E+04; -6.1714448E-02;  0.0000000E+00; -1.9401655E-04;  9.2463906E+03;
  2.4102873E-01;  9.9999998E-03; -2.3001504E-01;3917; -1.3752786E-02;  0.0000000E+00;  1.7524844E-05;  9.9905164E+02;  1.0000000E-01; -7.8570618E+02;3; -3.6680310E+00;  0.0000000E+00; -5.1649723E+00;0; -5.8795299E-02;  3.9932625E+04;  0.0000000E+00;  4.1001225E+00;  4.0000000E+04;  0.0000000E+00;  3.9996168E+04; -5.8837924E-02;  0.0000000E+00;  4.2626067E-05;  6.1394233E+03;
  2.4104586E-01;  9.9999998E-03; -2.1998961E-01;3918; -1.3901493E-02;  0.0000000E+00; -5.5376149E-05;  9.9910632E+02;  1.0000000E-01; -7.4037415E+02;3; -2.0483940E+00;  0.0000000E+00; -3.4330995E+00;0; -5.6539007E-02;  3.9935773E+04;  0.0000000E+00;  2.4191675E+00;  4.0000000E+04;  0.0000000E+00;  3.9995480E+04; -5.6616221E-02;  0.0000000E+00;  7.7214107E-05;  3.6459031E+03;
  2.4110076E-01;  9.9999998E-03; -2.0997730E-01;3919; -1.4047851E-02;  0.0000000E+00; -1.1799353E-04;  9.9910138E+02;  1.0000000E-01; -7.4447278E+02;3; -9.0241665E-01;  0.0000000E+00; -1.9994043E+00;0; -5.4925472E-02;  3.9936180E+04;  0.0000000E+00;  1.2567084E+00;  4.0000000E+04;  0.0000000E+00;  3.9993098E+04; -5.4967161E-02;  0.0000000E+00;  4.1690997E-05;  2.0415195E+03;
  2.4117289E-01;  9.9999998E-03; -1.9998562E-01;3920; -1.4206658E-02;  0.0000000E+00; -1.7565588E-04;  9.9908923E+02;  1.0000000E-01; -7.5454657E+02;3; -1.6555496E-01;  0.0000000E+00; -1.0007384E+00;0; -5.3782471E-02;  3.9935574E+04;  0.0000000E+00;  5.7212275E-01;  4.0000000E+04;  0.0000000E+00;  3.9991254E+04; -5.3793270E-02;  0.0000000E+00;  1.0799127E-05;  1.3486951E+03;
  2.4126196E-01;  9.9999998E-03; -1.9000655E-01;3921; -1.4386123E-02;  0.0000000E+00; -2.2200138E-04;  9.9908612E+02;  1.0000000E-01; -7.5711438E+02;3;  2.4995740E-01;  0.0000000E+00; -3.8340348E-01;0; -5.2980416E-02;  3.9934785E+04;  0.0000000E+00;  2.5891393E-01;  4.0000000E+04;  0.0000000E+00;  3.9990621E+04; -5.2998401E-02;  0.0000000E+00;  1.7984483E-05;  1.1481897E+03;
  2.4136490E-01;  9.9999998E-03; -1.8003084E-01;3922; -1.4590563E-02;  0.0000000E+00; -2.5053037E-04;  9.9910992E+02;  1.0000000E-01; -7.3741125E+02;3;  4.4098371E-01;  0.0000000E+00; -4.4047471E-02;0; -5.2416775E-02;  3.9934824E+04;  0.0000000E+00;  1.9501181E-01;  4.0000000E+04;  0.0000000E+00;  3.9991898E+04; -5.2495204E-02;  0.0000000E+00;  7.8430348E-05;  1.0044563E+03;
  2.4148893E-01;  9.9999998E-03; -1.7004639E-01;3923; -1.4821245E-02;  0.0000000E+00; -2.5931266E-04;  9.9915283E+02;  1.0000000E-01; -7.0185669E+02;3;  5.0170290E-01;  0.0000000E+00;  1.1196089E-01;0; -5.2015174E-02;  3.9936312E+04;  0.0000000E+00;  2.5596359E-01;  4.0000000E+04;  0.0000000E+00;  3.9992949E+04; -5.2206114E-02;  0.0000000E+00;  1.9093834E-04;  8.6774219E+02;
  2.4163266E-01;  9.9999998E-03; -1.6004322E-01;3924; -1.5075318E-02;  0.0000000E+00; -2.4712997E-04;  9.9921832E+02;  1.0000000E-01; -6.4758661E+02;3;  5.0296080E-01;  0.0000000E+00;  1.6288048E-01;0; -5.1725224E-02;  3.9939844E+04;  0.0000000E+00;  3.3871919E-01;  4.0000000E+04;  0.0000000E+00;  3.9994484E+04; -5.2065145E-02;  0.0000000E+00;  3.3992040E-04;  7.9589404E+02;
  2.4177852E-01;  9.9999998E-03; -1.5002161E-01;3925; -1.5343519E-02;  0.0000000E+00; -2.1734546E-04;  9.9930695E+02;  1.0000000E-01; -5.7420599E+02;3;  4.8602635E-01;  0.0000000E+00;  1.6873108E-01;0; -5.1519237E-02;  3.9946043E+04;  0.0000000E+00;  3.8267139E-01;  4.0000000E+04;  0.0000000E+00;  3.9995238E+04; -5.2020799E-02;  0.0000000E+00;  5.0156150E-04;  7.6607104E+02;
  2.4188899E-01;  9.9999998E-03; -1.4000042E-01;3926; -1.5610878E-02;  0.0000000E+00; -1.7711874E-04;  9.9941553E+02;  1.0000000E-01; -4.8423322E+02;3;  4.6765417E-01;  0.0000000E+00;  1.6315749E-01;0; -5.1387437E-02;  3.9954434E+04;  0.0000000E+00;  3.7495747E-01;  4.0000000E+04;  0.0000000E+00;  3.9995750E+04; -5.2038174E-02;  0.0000000E+00;  6.5073906E-04;  7.3902716E+02;
  2.4194534E-01;  9.9999998E-03; -1.2998897E-01;3927; -1.5862241E-02;  0.0000000E+00; -1.3443704E-04;  9.9953357E+02;  1.0000000E-01; -3.8640881E+02;3;  4.5063138E-01;  0.0000000E+00;  1.5607993E-01;0; -5.1327627E-02;  3.9964383E+04;  0.0000000E+00;  3.3208919E-01;  4.0000000E+04;  0.0000000E+00;  3.9995176E+04; -5.2097015E-02;  0.0000000E+00;  7.6938816E-04;  7.2715802E+02;
  2.4195978E-01;  9.9999998E-03; -1.1998260E-01;3928; -1.6085327E-02;  0.0000000E+00; -9.8263823E-05;  9.9965308E+02;  1.0000000E-01; -2.8739929E+02;3;  4.3528455E-01;  0.0000000E+00;  1.4641048E-01;0; -5.1335853E-02;  3.9974961E+04;  0.0000000E+00;  2.7465096E-01;  4.0000000E+04;  0.0000000E+00;  3.9994379E+04; -5.2184995E-02;  0.0000000E+00;  8.4914122E-04;  7.6731665E+02;
  2.4193630E-01;  9.9999998E-03; -1.0998335E-01;3929; -1.6271660E-02;  0.0000000E+00; -7.3695053E-05;  9.9976367E+02;  1.0000000E-01; -1.9579694E+02;3;  4.2135841E-01;  0.0000000E+00;  1.3296226E-01;0; -5.1403478E-02;  3.9985207E+04;  0.0000000E+00;  2.1771483E-01;  4.0000000E+04;  0.0000000E+00;  3.9993266E+04; -5.2294414E-02;  0.0000000E+00;  8.9093694E-04;  8.7726263E+02;
  2.5128582E-01;  9.9999998E-03; -2.7001411E-01;3974; -1.2881616E-02;  0.0000000E+00; -5.5186724E-04;  9.9812976E+02;  1.0000000E-01; -1.5494376E+03;3; -1.4591825E+01;  0.0000000E+00; -5.9442205E+00;0; -6.7719862E-02;  3.9851777E+04;  0.0000000E+00;  7.7218904E+00;  4.0000000E+04;  0.0000000E+00;  4.0008875E+04; -7.1950629E-02;  0.0000000E+00;  4.2307680E-03;  1.2306484E+04;
  2.5122982E-01;  9.9999998E-03; -2.6001284E-01;3975; -1.3472031E-02;  0.0000000E+00; -2.1339323E-04;  9.9849707E+02;  1.0000000E-01; -1.2451500E+03;3; -1.0680781E+01;  0.0000000E+00; -7.5553679E+00;0; -6.6411048E-02;  3.9882812E+04;  0.0000000E+00;  6.8832712E+00;  4.0000000E+04;  0.0000000E+00;  4.0007348E+04; -6.7793980E-02;  0.0000000E+00;  1.3829302E-03;  1.0792178E+04;
  2.5115052E-01;  9.9999998E-03; -2.5000989E-01;3976; -1.3829833E-02;  0.0000000E+00; -4.6999292E-05;  9.9871619E+02;  1.0000000E-01; -1.0636243E+03;3; -7.5735993E+00;  0.0000000E+00; -7.0446105E+00;0; -6.3510008E-02;  3.9901879E+04;  0.0000000E+00;  6.0600677E+00;  4.0000000E+04;  0.0000000E+00;  4.0004367E+04; -6.3988701E-02;  0.0000000E+00;  4.7869084E-04;  9.2797881E+03;
  2.5107408E-01;  9.9999998E-03; -2.3999383E-01;3977; -1.4060438E-02;  0.0000000E+00; -6.8272457E-05;  9.9885028E+02;  1.0000000E-01; -9.5251630E+02;3; -4.9929047E+00;  0.0000000E+00; -5.7997665E+00;0; -6.0148850E-02;  3.9911117E+04;  0.0000000E+00;  4.7398105E+00;  4.0000000E+04;  0.0000000E+00;  4.0003898E+04; -6.0774099E-02;  0.0000000E+00;  6.2524917E-04;  7.1711099E+03;
  2.5104442E-01;  9.9999998E-03; -2.2996572E-01;3978; -1.4229377E-02;  0.0000000E+00; -1.1660054E-04;  9.9890607E+02;  1.0000000E-01; -9.0629535E+02;3; -2.9712176E+00;  0.0000000E+00; -4.2078753E+00;0; -5.7495516E-02;  3.9913098E+04;  0.0000000E+00;  3.2024834E+00;  4.0000000E+04;  0.0000000E+00;  4.0004184E+04; -5.8186159E-02;  0.0000000E+00;  6.9064094E-04;  4.8403696E+03;
  2.5106919E-01;  9.9999998E-03; -2.1994291E-01;3979; -1.4374881E-02;  0.0000000E+00; -1.5164142E-04;  9.9888458E+02;  1.0000000E-01; -9.2412201E+02;3; -1.5189208E+00;  0.0000000E+00; -2.6476734E+00;0; -5.5553161E-02;  3.9911645E+04;  0.0000000E+00;  1.9385742E+00;  4.0000000E+04;  0.0000000E+00;  4.0001652E+04; -5.6181315E-02;  0.0000000E+00;  6.2815449E-04;  2.9189888E+03;
  2.5112051E-01;  9.9999998E-03; -2.0994604E-01;3980; -1.4521786E-02;  0.0000000E+00; -1.8981015E-04;  9.9883423E+02;  1.0000000E-01; -9.6579987E+02;3; -5.4415214E-01;  0.0000000E+00; -1.4366114E+00;0; -5.4128125E-02;  3.9910332E+04;  0.0000000E+00;  1.1113689E+00;  4.0000000E+04;  0.0000000E+00;  3.9997141E+04; -5.4683547E-02;  0.0000000E+00;  5.5542029E-04;  1.6777354E+03;
  2.5120956E-01;  9.9999998E-03; -1.9996332E-01;3981; -1.4684371E-02;  0.0000000E+00; -2.3632337E-04;  9.9881824E+02;  1.0000000E-01; -9.7908344E+02;3;  6.0266078E-02;  0.0000000E+00; -6.4177877E-01;0; -5.3087652E-02;  3.9910090E+04;  0.0000000E+00;  6.5600884E-01;  4.0000000E+04;  0.0000000E+00;  3.9994891E+04; -5.3599872E-02;  0.0000000E+00;  5.1221979E-04;  1.1105485E+03;
  2.5132686E-01;  9.9999998E-03; -1.8998535E-01;3982; -1.4869774E-02;  0.0000000E+00; -2.7195271E-04;  9.9884753E+02;  1.0000000E-01; -9.5478778E+02;3;  3.8329008E-01;  0.0000000E+00; -1.7044421E-01;0; -5.2336656E-02;  3.9911859E+04;  0.0000000E+00;  4.7650713E-01;  4.0000000E+04;  0.0000000E+00;  3.9994402E+04; -5.2843791E-02;  0.0000000E+00;  5.0713524E-04;  9.1437378E+02;
  2.5147015E-01;  9.9999998E-03; -1.8000150E-01;3983; -1.5081621E-02;  0.0000000E+00; -2.8823881E-04;  9.9892108E+02;  1.0000000E-01; -8.9385126E+02;3;  5.2001691E-01;  0.0000000E+00;  7.5218461E-02;0; -5.1785175E-02;  3.9916363E+04;  0.0000000E+00;  4.6049580E-01;  4.0000000E+04;  0.0000000E+00;  3.9995148E+04; -5.2335802E-02;  0.0000000E+00;  5.5062788E-04;  8.3642926E+02;
  2.5163248E-01;  9.9999998E-03; -1.7000467E-01;3984; -1.5319731E-02;  0.0000000E+00; -2.8237404E-04;  9.9903149E+02;  1.0000000E-01; -8.0239703E+02;3;  5.5442917E-01;  0.0000000E+00;  1.7852415E-01;0; -5.1369116E-02;  3.9923766E+04;  0.0000000E+00;  5.0408834E-01;  4.0000000E+04;  0.0000000E+00;  3.9996168E+04; -5.2006491E-02;  0.0000000E+00;  6.3737441E-04;  8.2459430E+02;
  2.5179297E-01;  9.9999998E-03; -1.5999517E-01;3985; -1.5578493E-02;  0.0000000E+00; -2.5579942E-04;  9.9916644E+02;  1.0000000E-01; -6.9059778E+02;3;  5.4642296E-01;  0.0000000E+00;  2.0437041E-01;0; -5.1050741E-02;  3.9933859E+04;  0.0000000E+00;  5.3150046E-01;  4.0000000E+04;  0.0000000E+00;  3.9997168E+04; -5.1799245E-02;  0.0000000E+00;  7.4850291E-04;  8.2585211E+02;
  2.5191212E-01;  9.9999998E-03; -1.4998366E-01;3986; -1.5845569E-02;  0.0000000E+00; -2.1488940E-04;  9.9932910E+02;  1.0000000E-01; -5.5583612E+02;3;  5.2725768E-01;  0.0000000E+00;  2.0158722E-01;0; -5.0813701E-02;  3.9946379E+04;  0.0000000E+00;  5.1027685E-01;  4.0000000E+04;  0.0000000E+00;  3.9997129E+04; -5.1673032E-02;  0.0000000E+00;  8.5933233E-04;  7.8933636E+02;
  2.5196317E-01;  9.9999998E-03; -1.3997823E-01;3987; -1.6106382E-02;  0.0000000E+00; -1.6760570E-04;  9.9949554E+02;  1.0000000E-01; -4.1791409E+02;3;  5.0831473E-01;  0.0000000E+00;  1.9296807E-01;0; -5.0654363E-02;  3.9960137E+04;  0.0000000E+00;  4.4819653E-01;  4.0000000E+04;  0.0000000E+00;  3.9997031E+04; -5.1603355E-02;  0.0000000E+00;  9.4899023E-04;  7.2445374E+02;
  2.5196001E-01;  9.9999998E-03; -1.2998003E-01;3988; -1.6347868E-02;  0.0000000E+00; -1.2244836E-04;  9.9965613E+02;  1.0000000E-01; -2.8488083E+02;3;  4.9106172E-01;  0.0000000E+00;  1.8210961E-01;0; -5.0571598E-02;  3.9974168E+04;  0.0000000E+00;  3.6818486E-01;  4.0000000E+04;  0.0000000E+00;  3.9996289E+04; -5.1577300E-02;  0.0000000E+00;  1.0057032E-03;  6.8309497E+02;
  2.5191495E-01;  9.9999998E-03; -1.1998473E-01;3989; -1.6559163E-02;  0.0000000E+00; -8.7338041E-05;  9.9979962E+02;  1.0000000E-01; -1.6601999E+02;3;  4.7503090E-01;  0.0000000E+00;  1.6979459E-01;0; -5.0562430E-02;  3.9987000E+04;  0.0000000E+00;  2.8931919E-01;  4.0000000E+04;  0.0000000E+00;  3.9995152E+04; -5.1588014E-02;  0.0000000E+00;  1.0255842E-03;  7.1693726E+02;
  2.5185475E-01;  9.9999998E-03; -1.0999085E-01;3990; -1.6734436E-02;  0.0000000E+00; -6.6333487E-05;  9.9991376E+02;  1.0000000E-01; -7.1454773E+01;3;  4.6055618E-01;  0.0000000E+00;  1.5506603E-01;0; -5.0617795E-02;  3.9997598E+04;  0.0000000E+00;  2.2266717E-01;  4.0000000E+04;  0.0000000E+00;  3.9993801E+04; -5.1631410E-02;  0.0000000E+00;  1.0136147E-03;  8.3438519E+02;
  2.6125717E-01;  9.9999998E-03; -2.6999769E-01;4035; -1.3615151E-02;  0.0000000E+00; -7.3663227E-04;  9.9848566E+02;  1.0000000E-01; -1.2545818E+03;3; -1.3526358E+01;  0.0000000E+00; -5.7485237E+00;0; -6.3523814E-02;  3.9879711E+04;  0.0000000E+00;  5.1682100E+00;  4.0000000E+04;  0.0000000E+00;  4.0011586E+04; -6.9623426E-02;  0.0000000E+00;  6.0996148E-03;  8.4989951E+03;
  2.6121759E-01;  9.9999998E-03; -2.5999248E-01;4036; -1.4082323E-02;  0.0000000E+00; -4.5694594E-04;  9.9866571E+02;  1.0000000E-01; -1.1054502E+03;3; -9.4764223E+00;  0.0000000E+00; -6.4915514E+00;0; -6.2639862E-02;  3.9892980E+04;  0.0000000E+00;  4.6485047E+00;  4.0000000E+04;  0.0000000E+00;  4.0011715E+04; -6.5844722E-02;  0.0000000E+00;  3.2048586E-03;  7.5151074E+03;
  2.6114270E-01;  9.9999998E-03; -2.4998453E-01;4037; -1.4379637E-02;  0.0000000E+00; -2.6193840E-04;  9.9874561E+02;  1.0000000E-01; -1.0392299E+03;3; -6.3584542E+00;  0.0000000E+00; -5.7553115E+00;0; -6.0751356E-02;  3.9898984E+04;  0.0000000E+00;  4.3013334E+00;  4.0000000E+04;  0.0000000E+00;  4.0010199E+04; -6.2496960E-02;  0.0000000E+00;  1.7456047E-03;  6.7524956E+03;
  2.6107386E-01;  9.9999998E-03; -2.3996407E-01;4038; -1.4581271E-02;  0.0000000E+00; -2.4336744E-04;  9.9877423E+02;  1.0000000E-01; -1.0155269E+03;3; -3.9372025E+00;  0.0000000E+00; -4.5287533E+00;0; -5.8159091E-02;  3.9898762E+04;  0.0000000E+00;  3.4247408E+00;  4.0000000E+04;  0.0000000E+00;  4.0010141E+04; -5.9694078E-02;  0.0000000E+00;  1.5349878E-03;  5.3794102E+03;
  2.6106265E-01;  9.9999998E-03; -2.2993276E-01;4039; -1.4737799E-02;  0.0000000E+00; -2.5342964E-04;  9.9875537E+02;  1.0000000E-01; -1.0311313E+03;3; -2.1531336E+00;  0.0000000E+00; -3.1316998E+00;0; -5.6047358E-02;  3.9894434E+04;  0.0000000E+00;  2.3270533E+00;  4.0000000E+04;  0.0000000E+00;  4.0010727E+04; -5.7436928E-02;  0.0000000E+00;  1.3895704E-03;  3.7958628E+03;
  2.6109424E-01;  9.9999998E-03; -2.1991861E-01;4040; -1.4880749E-02;  0.0000000E+00; -2.4016733E-04;  9.9867230E+02;  1.0000000E-01; -1.0999689E+03;3; -9.4916600E-01;  0.0000000E+00; -1.8367110E+00;0; -5.4494798E-02;  3.9890277E+04;  0.0000000E+00;  1.4924759E+00;  4.0000000E+04;  0.0000000E+00;  4.0006746E+04; -5.5682998E-02;  0.0000000E+00;  1.1882008E-03;  2.4278269E+03;
  2.6117072E-01;  9.9999998E-03; -2.0992866E-01;4041; -1.5029836E-02;  0.0000000E+00; -2.5713511E-04;  9.9861017E+02;  1.0000000E-01; -1.1514736E+03;3; -1.7211252E-01;  0.0000000E+00; -9.0004146E-01;0; -5.3281289E-02;  3.9888215E+04;  0.0000000E+00;  9.8512471E-01;  4.0000000E+04;  0.0000000E+00;  4.0001625E+04; -5.4358553E-02;  0.0000000E+00;  1.0772633E-03;  1.5037925E+03;
  2.6128832E-01;  9.9999998E-03; -1.9994900E-01;4042; -1.5196487E-02;  0.0000000E+00; -2.8906221E-04;  9.9861188E+02;  1.0000000E-01; -1.1500415E+03;3;  2.8640953E-01;  0.0000000E+00; -3.1205818E-01;0; -5.2366260E-02;  3.9889676E+04;  0.0000000E+00;  7.4364781E-01;  4.0000000E+04;  0.0000000E+00;  3.9999008E+04; -5.3382166E-02;  0.0000000E+00;  1.0159048E-03;  1.0950563E+03;
  2.6143488E-01;  9.9999998E-03; -1.8996683E-01;4043; -1.5386706E-02;  0.0000000E+00; -3.1133607E-04;  9.9868628E+02;  1.0000000E-01; -1.0884137E+03;3;  5.1341587E-01;  0.0000000E+00;  2.2691136E-02;0; -5.1682919E-02;  3.9895367E+04;  0.0000000E+00;  6.7219371E-01;  4.0000000E+04;  0.0000000E+00;  3.9998539E+04; -5.2677102E-02;  0.0000000E+00;  9.9418196E-04;  9.7971313E+02;
  2.6159787E-01;  9.9999998E-03; -1.7997593E-01;4044; -1.5602742E-02;  0.0000000E+00; -3.1356630E-04;  9.9881805E+02;  1.0000000E-01; -9.7923157E+02;3;  5.9730929E-01;  0.0000000E+00;  1.8382497E-01;0; -5.1158682E-02;  3.9904961E+04;  0.0000000E+00;  6.7635208E-01;  4.0000000E+04;  0.0000000E+00;  3.9998867E+04; -5.2174196E-02;  0.0000000E+00;  1.0155155E-03;  9.7584601E+02;
  2.6175880E-01;  9.9999998E-03; -1.6997544E-01;4045; -1.5842583E-02;  0.0000000E+00; -2.9390323E-04;  9.9899231E+02;  1.0000000E-01; -8.3484058E+02;3;  6.0853529E-01;  0.0000000E+00;  2.4076144E-01;0; -5.0743911E-02;  3.9918211E+04;  0.0000000E+00;  6.8110031E-01;  4.0000000E+04;  0.0000000E+00;  3.9999352E+04; -5.1814385E-02;  0.0000000E+00;  1.0704743E-03;  9.7883191E+02;
  2.6189122E-01;  9.9999998E-03; -1.5997097E-01;4046; -1.6098596E-02;  0.0000000E+00; -2.5572890E-04;  9.9919800E+02;  1.0000000E-01; -6.6442566E+02;3;  5.9263712E-01;  0.0000000E+00;  2.4708070E-01;0; -5.0414152E-02;  3.9934117E+04;  0.0000000E+00;  6.4409494E-01;  4.0000000E+04;  0.0000000E+00;  3.9999500E+04; -5.1552393E-02;  0.0000000E+00;  1.1382401E-03;  9.2419104E+02;
  2.6196876E-01;  9.9999998E-03; -1.4996998E-01;4047; -1.6358260E-02;  0.0000000E+00; -2.0641222E-04;  9.9940839E+02;  1.0000000E-01; -4.9015897E+02;3;  5.7209694E-01;  0.0000000E+00;  2.3685768E-01;0; -5.0162517E-02;  3.9951512E+04;  0.0000000E+00;  5.6185472E-01;  4.0000000E+04;  0.0000000E+00;  3.9999223E+04; -5.1358510E-02;  0.0000000E+00;  1.1959940E-03;  8.0536957E+02;
  2.6197916E-01;  9.9999998E-03; -1.3997421E-01;4048; -1.6607929E-02;  0.0000000E+00; -1.5520613E-04;  9.9960956E+02;  1.0000000E-01; -3.2349701E+02;3;  5.5253959E-01;  0.0000000E+00;  2.2531362E-01;0; -4.9990535E-02;  3.9968785E+04;  0.0000000E+00;  4.5659110E-01;  4.0000000E+04;  0.0000000E+00;  3.9998574E+04; -5.1217884E-02;  0.0000000E+00;  1.2273503E-03;  6.6544135E+02;
  2.6193637E-01;  9.9999998E-03; -1.2998162E-01;4049; -1.6835675E-02;  0.0000000E+00; -1.1069133E-04;  9.9978949E+02;  1.0000000E-01; -1.7441483E+02;3;  5.3492492E-01;  0.0000000E+00;  2.1099718E-01;0; -4.9899165E-02;  3.9984355E+04;  0.0000000E+00;  3.5140306E-01;  4.0000000E+04;  0.0000000E+00;  3.9997703E+04; -5.1124193E-02;  0.0000000E+00;  1.2250271E-03;  5.7393457E+02;
  2.6186728E-01;  9.9999998E-03; -1.1999033E-01;4050; -1.7033389E-02;  0.0000000E+00; -7.8099620E-05;  9.9992670E+02;  1.0000000E-01; -6.0739021E+01;3;  5.1853889E-01;  0.0000000E+00;  1.9454376E-01;0; -4.9885299E-02;  3.9997277E+04;  0.0000000E+00;  2.6138183E-01;  4.0000000E+04;  0.0000000E+00;  3.9996168E+04; -5.1074568E-02;  0.0000000E+00;  1.1892682E-03;  5.9820703E+02;
  2.6178479E-01;  9.9999998E-03; -1.0999773E-01;4051; -1.7196057E-02;  0.0000000E+00; -6.0593520E-05;  1.0000218E+03;  1.0000000E-01;  1.8073563E+01;3;  5.0320327E-01;  0.0000000E+00;  1.7854246E-01;0; -4.9941864E-02;  4.0006684E+04;  0.0000000E+00;  1.9276345E-01;  4.0000000E+04;  0.0000000E+00;  3.9994883E+04; -5.1069643E-02;  0.0000000E+00;  1.1277806E-03;  7.2832269E+02;
  2.7120018E-01;  9.9999998E-03; -2.6998684E-01;4096; -1.4338598E-02;  0.0000000E+00; -8.1968022E-04;  9.9874023E+02;  1.0000000E-01; -1.0436742E+03;3; -1.1185674E+01;  0.0000000E+00; -4.7802968E+00;0; -5.9948675E-02;  3.9900473E+04;  0.0000000E+00;  3.6443453E+00;  4.0000000E+04;  0.0000000E+00;  4.0012410E+04; -6.7004271E-02;  0.0000000E+00;  7.0555964E-03;  6.1644438E+03;
  2.7116552E-01;  9.9999998E-03; -2.5997946E-01;4097; -1.4700739E-02;  0.0000000E+00; -6.2010874E-04;  9.9877014E+02;  1.0000000E-01; -1.0189341E+03;3; -7.5513453E+00;  0.0000000E+00; -4.9797063E+00;0; -5.9156578E-02;  3.9899926E+04;  0.0000000E+00;  3.2984898E+00;  4.0000000E+04;  0.0000000E+00;  4.0014078E+04; -6.3712053E-02;  0.0000000E+00;  4.5554740E-03;  5.5526206E+03;
  2.7111250E-01;  9.9999998E-03; -2.4996823E-01;4098; -1.4949084E-02;  0.0000000E+00; -4.5542989E-04;  9.9873688E+02;  1.0000000E-01; -1.0464889E+03;3; -4.8028655E+00;  0.0000000E+00; -4.2383199E+00;0; -5.7881434E-02;  3.9894543E+04;  0.0000000E+00;  2.9346478E+00;  4.0000000E+04;  0.0000000E+00;  4.0014016E+04; -6.0864612E-02;  0.0000000E+00;  2.9831789E-03;  4.9118848E+03;
  2.7107683E-01;  9.9999998E-03; -2.3994583E-01;4099; -1.5127545E-02;  0.0000000E+00; -4.1406287E-04;  9.9868561E+02;  1.0000000E-01; -1.0889569E+03;3; -2.7547908E+00;  0.0000000E+00; -3.1770976E+00;0; -5.6038834E-02;  3.9886676E+04;  0.0000000E+00;  2.2645307E+00;  4.0000000E+04;  0.0000000E+00;  4.0015266E+04; -5.8496650E-02;  0.0000000E+00;  2.4578178E-03;  4.0146929E+03;
  2.7109483E-01;  9.9999998E-03; -2.2991779E-01;4100; -1.5277129E-02;  0.0000000E+00; -3.7004674E-04;  9.9860760E+02;  1.0000000E-01; -1.1535970E+03;3; -1.3205929E+00;  0.0000000E+00; -2.0532694E+00;0; -5.4563012E-02;  3.9878688E+04;  0.0000000E+00;  1.5727729E+00;  4.0000000E+04;  0.0000000E+00;  4.0015176E+04; -5.6590214E-02;  0.0000000E+00;  2.0272031E-03;  3.1162419E+03;
  2.7115935E-01;  9.9999998E-03; -2.1991238E-01;4101; -1.5421174E-02;  0.0000000E+00; -3.1379875E-04;  9.9850336E+02;  1.0000000E-01; -1.2399650E+03;3; -3.9504692E-01;  0.0000000E+00; -1.0856044E+00;0; -5.3403061E-02;  3.9873402E+04;  0.0000000E+00;  1.1181602E+00;  4.0000000E+04;  0.0000000E+00;  4.0009762E+04; -5.5100273E-02;  0.0000000E+00;  1.6972111E-03;  2.1601589E+03;
  2.7126622E-01;  9.9999998E-03; -2.0992750E-01;4102; -1.5573182E-02;  0.0000000E+00; -3.1309534E-04;  9.9844977E+02;  1.0000000E-01; -1.2843588E+03;3;  1.7691146E-01;  0.0000000E+00; -4.2324221E-01;0; -5.2404687E-02;  3.9872805E+04;  0.0000000E+00;  8.9240575E-01;  4.0000000E+04;  0.0000000E+00;  4.0005023E+04; -5.3960454E-02;  0.0000000E+00;  1.5557657E-03;  1.5150765E+03;
  2.7140319E-01;  9.9999998E-03; -1.9994637E-01;4103; -1.5742866E-02;  0.0000000E+00; -3.3288056E-04;  9.9849445E+02;  1.0000000E-01; -1.2473228E+03;3;  4.9216935E-01;  0.0000000E+00; -2.6140954E-02;0; -5.1621843E-02;  3.9877188E+04;  0.0000000E+00;  8.1763768E-01;  4.0000000E+04;  0.0000000E+00;  4.0002441E+04; -5.3100929E-02;  0.0000000E+00;  1.4790858E-03;  1.2764841E+03;
  2.7155519E-01;  9.9999998E-03; -1.8995968E-01;4104; -1.5935406E-02;  0.0000000E+00; -3.4118473E-04;  9.9862225E+02;  1.0000000E-01; -1.1414492E+03;3;  6.3174558E-01;  0.0000000E+00;  1.8626493E-01;0; -5.1016871E-02;  3.9886977E+04;  0.0000000E+00;  8.0973762E-01;  4.0000000E+04;  0.0000000E+00;  4.0001965E+04; -5.2456394E-02;  0.0000000E+00;  1.4395233E-03;  1.2320288E+03;
  2.7170438E-01;  9.9999998E-03; -1.7996559E-01;4105; -1.6151538E-02;  0.0000000E+00; -3.2871985E-04;  9.9881281E+02;  1.0000000E-01; -9.8357715E+02;3;  6.7048949E-01;  0.0000000E+00;  2.7674598E-01;0; -5.0532158E-02;  3.9901734E+04;  0.0000000E+00;  8.0268794E-01;  4.0000000E+04;  0.0000000E+00;  4.0002094E+04; -5.1968902E-02;  0.0000000E+00;  1.4367421E-03;  1.2171582E+03;
  2.7183279E-01;  9.9999998E-03; -1.6996595E-01;4106; -1.6387708E-02;  0.0000000E+00; -2.9573496E-04;  9.9904193E+02;  1.0000000E-01; -7.9375531E+02;3;  6.6331565E-01;  0.0000000E+00;  2.9803684E-01;0; -5.0133251E-02;  3.9919809E+04;  0.0000000E+00;  7.5578111E-01;  4.0000000E+04;  0.0000000E+00;  4.0002309E+04; -5.1591635E-02;  0.0000000E+00;  1.4583833E-03;  1.1469827E+03;
  2.7192196E-01;  9.9999998E-03; -1.5996692E-01;4107; -1.6635427E-02;  0.0000000E+00; -2.4797028E-04;  9.9929028E+02;  1.0000000E-01; -5.8798340E+02;3;  6.4229906E-01;  0.0000000E+00;  2.8985518E-01;0; -4.9808234E-02;  3.9940051E+04;  0.0000000E+00;  6.5963793E-01;  4.0000000E+04;  0.0000000E+00;  4.0001836E+04; -5.1291306E-02;  0.0000000E+00;  1.4830714E-03;  9.9740833E+02;
  2.7196100E-01;  9.9999998E-03; -1.4997265E-01;4108; -1.6882967E-02;  0.0000000E+00; -1.9454969E-04;  9.9953271E+02;  1.0000000E-01; -3.8714954E+02;3;  6.2040740E-01;  0.0000000E+00;  2.7667561E-01;0; -4.9558893E-02;  3.9960297E+04;  0.0000000E+00;  5.3257394E-01;  4.0000000E+04;  0.0000000E+00;  4.0001238E+04; -5.1049452E-02;  0.0000000E+00;  1.4905609E-03;  7.9151886E+02;
  2.7194771E-01;  9.9999998E-03; -1.3998175E-01;4109; -1.7117949E-02;  0.0000000E+00; -1.4348548E-04;  9.9974426E+02;  1.0000000E-01; -2.1189525E+02;3;  6.0051978E-01;  0.0000000E+00;  2.6108894E-01;0; -4.9390782E-02;  3.9979090E+04;  0.0000000E+00;  4.0157813E-01;  4.0000000E+04;  0.0000000E+00;  4.0000227E+04; -5.0859276E-02;  0.0000000E+00;  1.4684937E-03;  5.7690454E+02;
  2.7189103E-01;  9.9999998E-03; -1.2999086E-01;4110; -1.7330045E-02;  0.0000000E+00; -1.0145963E-04;  9.9991254E+02;  1.0000000E-01; -7.2442398E+01;3;  5.8231640E-01;  0.0000000E+00;  2.4356253E-01;0; -4.9306151E-02;  3.9994367E+04;  0.0000000E+00;  2.8581259E-01;  4.0000000E+04;  0.0000000E+00;  3.9998902E+04; -5.0719455E-02;  0.0000000E+00;  1.4133035E-03;  4.3020697E+02;
  2.7181277E-01;  9.9999998E-03; -1.1999829E-01;4111; -1.7512999E-02;  0.0000000E+00; -7.2113158E-05;  1.0000311E+03;  1.0000000E-01;  2.5777048E+01;3;  5.6562203E-01;  0.0000000E+00;  2.2175556E-01;0; -4.9302794E-02;  4.0005527E+04;  0.0000000E+00;  1.9553000E-01;  4.0000000E+04;  0.0000000E+00;  3.9997281E+04; -5.0631151E-02;  0.0000000E+00;  1.3283578E-03;  4.5169614E+02;
  2.7173266E-01;  9.9999998E-03; -1.1000415E-01;4112; -1.7663788E-02;  0.0000000E+00; -5.7068617E-05;  1.0000884E+03;  1.0000000E-01;  7.3183113E+01;3;  5.4906523E-01;  0.0000000E+00;  2.0571698E-01;0; -4.9373791E-02;  4.0012035E+04;  0.0000000E+00;  1.3248222E-01;  4.0000000E+04;  0.0000000E+00;  3.9995629E+04; -5.0597750E-02;  0.0000000E+00;  1.2239582E-03;  6.0297772E+02;
  2.8113148E-01;  9.9999998E-03; -2.6998025E-01;4157; -1.5037650E-02;  0.0000000E+00; -8.3295797E-04;  9.9887311E+02;  1.0000000E-01; -9.3360321E+02;3; -8.2564774E+00;  0.0000000E+00; -3.4937625E+00;0; -5.6952201E-02;  3.9911527E+04;  0.0000000E+00;  2.5711648E+00;  4.0000000E+04;  0.0000000E+00;  4.0012395E+04; -6.4199604E-02;  0.0000000E+00;  7.2474042E-03;  4.4992988E+03;
  2.8111053E-01;  9.9999998E-03; -2.5997216E-01;4158; -1.5320422E-02;  0.0000000E+00; -7.0336234E-04;  9.9879596E+02;  1.0000000E-01; -9.9750262E+02;3; -5.3393459E+00;  0.0000000E+00; -3.3878682E+00;0; -5.6169037E-02;  3.9901141E+04;  0.0000000E+00;  2.1929381E+00;  4.0000000E+04;  0.0000000E+00;  4.0015016E+04; -6.1456043E-02;  0.0000000E+00;  5.2870065E-03;  4.0097629E+03;
  2.8109774E-01;  9.9999998E-03; -2.4995972E-01;4159; -1.5530100E-02;  0.0000000E+00; -5.8592670E-04;  9.9868561E+02;  1.0000000E-01; -1.0889569E+03;3; -3.1636446E+00;  0.0000000E+00; -2.7401819E+00;0; -5.5251803E-02;  3.9888383E+04;  0.0000000E+00;  1.7598913E+00;  4.0000000E+04;  0.0000000E+00;  4.0016438E+04; -5.9118725E-02;  0.0000000E+00;  3.8669216E-03;  3.5042781E+03;
  2.8111577E-01;  9.9999998E-03; -2.3993817E-01;4160; -1.5694525E-02;  0.0000000E+00; -5.3653016E-04;  9.9859113E+02;  1.0000000E-01; -1.1672262E+03;3; -1.5976371E+00;  0.0000000E+00; -1.9144608E+00;0; -5.4026533E-02;  3.9876430E+04;  0.0000000E+00;  1.3059242E+00;  4.0000000E+04;  0.0000000E+00;  4.0018305E+04; -5.7184566E-02;  0.0000000E+00;  3.1580334E-03;  3.1376880E+03;
  2.8117839E-01;  9.9999998E-03; -2.2991648E-01;4161; -1.5842563E-02;  0.0000000E+00; -4.5668375E-04;  9.9849200E+02;  1.0000000E-01; -1.2493474E+03;3; -5.5044258E-01;  0.0000000E+00; -1.1044567E+00;0; -5.3098179E-02;  3.9867375E+04;  0.0000000E+00;  9.9098676E-01;  4.0000000E+04;  0.0000000E+00;  4.0017121E+04; -5.5625845E-02;  0.0000000E+00;  2.5276644E-03;  2.7349983E+03;
  2.8126499E-01;  9.9999998E-03; -2.1991959E-01;4162; -1.5989006E-02;  0.0000000E+00; -3.7447378E-04;  9.9839221E+02;  1.0000000E-01; -1.3320117E+03;3;  9.8753884E-02;  0.0000000E+00; -4.5521069E-01;0; -5.2283332E-02;  3.9863234E+04;  0.0000000E+00;  8.6205494E-01;  4.0000000E+04;  0.0000000E+00;  4.0011477E+04; -5.4399475E-02;  0.0000000E+00;  2.1161425E-03;  2.0332821E+03;
  2.8138405E-01;  9.9999998E-03; -2.0993631E-01;4163; -1.6143998E-02;  0.0000000E+00; -3.6321630E-04;  9.9838080E+02;  1.0000000E-01; -1.3414929E+03;3;  4.7776324E-01;  0.0000000E+00; -3.5436135E-02;0; -5.1489003E-02;  3.9865172E+04;  0.0000000E+00;  8.4032232E-01;  4.0000000E+04;  0.0000000E+00;  4.0007000E+04; -5.3445574E-02;  0.0000000E+00;  1.9565690E-03;  1.6081508E+03;
  2.8151879E-01;  9.9999998E-03; -1.9995311E-01;4164; -1.6315905E-02;  0.0000000E+00; -3.6921556E-04;  9.9847400E+02;  1.0000000E-01; -1.2642605E+03;3;  6.6599971E-01;  0.0000000E+00;  2.0549847E-01;0; -5.0841782E-02;  3.9873461E+04;  0.0000000E+00;  8.5957533E-01;  4.0000000E+04;  0.0000000E+00;  4.0005188E+04; -5.2706633E-02;  0.0000000E+00;  1.8648518E-03;  1.4812230E+03;
  2.8165221E-01;  9.9999998E-03; -1.8996474E-01;4165; -1.6508335E-02;  0.0000000E+00; -3.6246763E-04;  9.9865472E+02;  1.0000000E-01; -1.1145364E+03;3;  7.3410428E-01;  0.0000000E+00;  3.1996232E-01;0; -5.0320629E-02;  3.9887418E+04;  0.0000000E+00;  8.6436290E-01;  4.0000000E+04;  0.0000000E+00;  4.0004855E+04; -5.2129623E-02;  0.0000000E+00;  1.8089947E-03;  1.4443097E+03;
  2.8176922E-01;  9.9999998E-03; -1.7996953E-01;4166; -1.6721187E-02;  0.0000000E+00; -3.3545148E-04;  9.9889001E+02;  1.0000000E-01; -9.1957892E+02;3;  7.3927242E-01;  0.0000000E+00;  3.5579991E-01;0; -4.9884364E-02;  3.9906105E+04;  0.0000000E+00;  8.2168162E-01;  4.0000000E+04;  0.0000000E+00;  4.0004746E+04; -5.1668789E-02;  0.0000000E+00;  1.7844245E-03;  1.3719004E+03;
  2.8185076E-01;  9.9999998E-03; -1.6997167E-01;4167; -1.6949344E-02;  0.0000000E+00; -2.9202498E-04;  9.9915729E+02;  1.0000000E-01; -6.9815308E+02;3;  7.1966314E-01;  0.0000000E+00;  3.5381216E-01;0; -4.9514100E-02;  3.9927840E+04;  0.0000000E+00;  7.2338080E-01;  4.0000000E+04;  0.0000000E+00;  4.0004559E+04; -5.1290039E-02;  0.0000000E+00;  1.7759404E-03;  1.2181241E+03;
  2.8189686E-01;  9.9999998E-03; -1.5997636E-01;4168; -1.7184861E-02;  0.0000000E+00; -2.3941918E-04;  9.9942828E+02;  1.0000000E-01; -4.7366562E+02;3;  6.9551212E-01;  0.0000000E+00;  3.3694375E-01;0; -4.9209505E-02;  3.9950402E+04;  0.0000000E+00;  5.8504194E-01;  4.0000000E+04;  0.0000000E+00;  4.0003723E+04; -5.0971832E-02;  0.0000000E+00;  1.7623258E-03;  9.9225757E+02;
  2.8190681E-01;  9.9999998E-03; -1.4998534E-01;4169; -1.7417220E-02;  0.0000000E+00; -1.8466682E-04;  9.9967542E+02;  1.0000000E-01; -2.6893066E+02;3;  6.7314100E-01;  0.0000000E+00;  3.1827864E-01;0; -4.8979510E-02;  3.9971738E+04;  0.0000000E+00;  4.3511239E-01;  4.0000000E+04;  0.0000000E+00;  4.0002719E+04; -5.0705455E-02;  0.0000000E+00;  1.7259441E-03;  7.2695551E+02;
  2.8188005E-01;  9.9999998E-03; -1.3999471E-01;4170; -1.7635591E-02;  0.0000000E+00; -1.3479030E-04;  9.9988025E+02;  1.0000000E-01; -9.9207069E+01;3;  6.5239674E-01;  0.0000000E+00;  2.9989821E-01;0; -4.8832025E-02;  3.9989863E+04;  0.0000000E+00;  2.9705244E-01;  4.0000000E+04;  0.0000000E+00;  4.0001375E+04; -5.0490018E-02;  0.0000000E+00;  1.6579930E-03;  4.5944489E+02;
  2.8182533E-01;  9.9999998E-03; -1.3000196E-01;4171; -1.7831499E-02;  0.0000000E+00; -9.5806834E-05;  1.0000231E+03;  1.0000000E-01;  1.9159952E+01;3;  6.3342577E-01;  0.0000000E+00;  2.7916986E-01;0; -4.8769344E-02;  4.0003258E+04;  0.0000000E+00;  1.8491302E-01;  4.0000000E+04;  0.0000000E+00;  3.9999613E+04; -5.0327577E-02;  0.0000000E+00;  1.5582348E-03;  2.6849158E+02;
  2.8175762E-01;  9.9999998E-03; -1.2000669E-01;4172; -1.8000551E-02;  0.0000000E+00; -6.9453563E-05;  1.0001024E+03;  1.0000000E-01;  8.4837105E+01;3;  6.1594772E-01;  0.0000000E+00;  2.5386184E-01;0; -4.8790365E-02;  4.0011504E+04;  0.0000000E+00;  1.0425147E-01;  4.0000000E+04;  0.0000000E+00;  3.9997820E+04; -5.0223019E-02;  0.0000000E+00;  1.4326546E-03;  3.2007602E+02;
  2.8168994E-01;  9.9999998E-03; -1.1000939E-01;4173; -1.8140858E-02;  0.0000000E+00; -5.6353521E-05;  1.0001160E+03;  1.0000000E-01;  9.6096046E+01;3;  5.9835732E-01;  0.0000000E+00;  2.3467210E-01;0; -4.8888773E-02;  4.0014375E+04;  0.0000000E+00;  5.3300727E-02;  4.0000000E+04;  0.0000000E+00;  3.9996031E+04; -5.0182234E-02;  0.0000000E+00;  1.2934615E-03;  5.0111746E+02;
  2.9108143E-01;  9.9999998E-03; -2.6997697E-01;4218; -1.5701005E-02;  0.0000000E+00; -8.0325274E-04;  9.9889569E+02;  1.0000000E-01; -9.1488770E+02;3; -5.3187613E+00;  0.0000000E+00; -2.1679516E+00;0; -5.4385640E-02;  3.9913625E+04;  0.0000000E+00;  1.4864933E+00;  4.0000000E+04;  0.0000000E+00;  4.0012074E+04; -6.1302204E-02;  0.0000000E+00;  6.9165649E-03;  2.9369451E+03;
  2.9109740E-01;  9.9999998E-03; -2.5996920E-01;4219; -1.5926849E-02;  0.0000000E+00; -7.2750892E-04;  9.9875452E+02;  1.0000000E-01; -1.0318721E+03;3; -3.2047880E+00;  0.0000000E+00; -1.9521323E+00;0; -5.3626057E-02;  3.9897598E+04;  0.0000000E+00;  1.0820972E+00;  4.0000000E+04;  0.0000000E+00;  4.0015020E+04; -5.9118681E-02;  0.0000000E+00;  5.4926230E-03;  2.6605312E+03;
  2.9115111E-01;  9.9999998E-03; -2.4995759E-01;4220; -1.6112313E-02;  0.0000000E+00; -6.4879435E-04;  9.9861261E+02;  1.0000000E-01; -1.1494490E+03;3; -1.6586999E+00;  0.0000000E+00; -1.4455235E+00;0; -5.2972209E-02;  3.9881977E+04;  0.0000000E+00;  7.4078357E-01;  4.0000000E+04;  0.0000000E+00;  4.0016906E+04; -5.7273518E-02;  0.0000000E+00;  4.3013082E-03;  2.5641313E+03;
  2.9120982E-01;  9.9999998E-03; -2.3993972E-01;4221; -1.6270293E-02;  0.0000000E+00; -5.9763913E-04;  9.9851245E+02;  1.0000000E-01; -1.2324095E+03;3; -5.8972579E-01;  0.0000000E+00; -8.6813009E-01;0; -5.2222691E-02;  3.9869789E+04;  0.0000000E+00;  6.4393306E-01;  4.0000000E+04;  0.0000000E+00;  4.0018996E+04; -5.5754654E-02;  0.0000000E+00;  3.5319633E-03;  2.6866265E+03;
  2.9128012E-01;  9.9999998E-03; -2.2992584E-01;4222; -1.6420061E-02;  0.0000000E+00; -5.0393393E-04;  9.9842743E+02;  1.0000000E-01; -1.3028274E+03;3;  9.6593834E-02;  0.0000000E+00; -3.5835338E-01;0; -5.1698342E-02;  3.9862480E+04;  0.0000000E+00;  6.6554320E-01;  4.0000000E+04;  0.0000000E+00;  4.0017129E+04; -5.4528069E-02;  0.0000000E+00;  2.8297261E-03;  2.5005161E+03;
  2.9137465E-01;  9.9999998E-03; -2.1993282E-01;4223; -1.6570846E-02;  0.0000000E+00; -4.2316940E-04;  9.9836841E+02;  1.0000000E-01; -1.3517643E+03;3;  5.0175357E-01;  0.0000000E+00;  2.3902871E-02;0; -5.1132318E-02;  3.9861133E+04;  0.0000000E+00;  7.3674929E-01;  4.0000000E+04;  0.0000000E+00;  4.0012148E+04; -5.3550329E-02;  0.0000000E+00;  2.4180119E-03;  1.9808097E+03;
  2.9148665E-01;  9.9999998E-03; -2.0994984E-01;4224; -1.6729347E-02;  0.0000000E+00; -4.0425587E-04;  9.9840601E+02;  1.0000000E-01; -1.3206046E+03;3;  7.1691662E-01;  0.0000000E+00;  2.5864360E-01;0; -5.0525900E-02;  3.9866293E+04;  0.0000000E+00;  8.1214011E-01;  4.0000000E+04;  0.0000000E+00;  4.0008727E+04; -5.2774325E-02;  0.0000000E+00;  2.2484264E-03;  1.6895275E+03;
  2.9160216E-01;  9.9999998E-03; -1.9996598E-01;4225; -1.6902851E-02;  0.0000000E+00; -3.9647429E-04;  9.9854822E+02;  1.0000000E-01; -1.2027808E+03;3;  8.0653751E-01;  0.0000000E+00;  3.7859383E-01;0; -5.0009008E-02;  3.9878070E+04;  0.0000000E+00;  8.5045266E-01;  4.0000000E+04;  0.0000000E+00;  4.0007039E+04; -5.2154414E-02;  0.0000000E+00;  2.1454049E-03;  1.5951656E+03;
  2.9170990E-01;  9.9999998E-03; -1.8997599E-01;4226; -1.7094046E-02;  0.0000000E+00; -3.7550242E-04;  9.9876709E+02;  1.0000000E-01; -1.0214526E+03;3;  8.2243913E-01;  0.0000000E+00;  4.2466480E-01;0; -4.9571171E-02;  3.9895543E+04;  0.0000000E+00;  8.2742244E-01;  4.0000000E+04;  0.0000000E+00;  4.0006719E+04; -5.1649429E-02;  0.0000000E+00;  2.0782566E-03;  1.5231868E+03;
  2.9178512E-01;  9.9999998E-03; -1.7998175E-01;4227; -1.7300928E-02;  0.0000000E+00; -3.3787073E-04;  9.9903271E+02;  1.0000000E-01; -8.0136005E+02;3;  8.0538350E-01;  0.0000000E+00;  4.2691347E-01;0; -4.9189623E-02;  3.9916996E+04;  0.0000000E+00;  7.3956150E-01;  4.0000000E+04;  0.0000000E+00;  4.0006516E+04; -5.1227164E-02;  0.0000000E+00;  2.0375410E-03;  1.3831377E+03;
  2.9182315E-01;  9.9999998E-03; -1.6998531E-01;4228; -1.7518742E-02;  0.0000000E+00; -2.8762882E-04;  9.9931567E+02;  1.0000000E-01; -5.6694690E+02;3;  7.7874643E-01;  0.0000000E+00;  4.1042858E-01;0; -4.8859667E-02;  3.9940184E+04;  0.0000000E+00;  6.0248208E-01;  4.0000000E+04;  0.0000000E+00;  4.0005902E+04; -5.0864868E-02;  0.0000000E+00;  2.0052008E-03;  1.1664675E+03;
  2.9183540E-01;  9.9999998E-03; -1.5999198E-01;4229; -1.7740117E-02;  0.0000000E+00; -2.3214219E-04;  9.9958850E+02;  1.0000000E-01; -3.4092862E+02;3;  7.5304085E-01;  0.0000000E+00;  3.8678437E-01;0; -4.8590358E-02;  3.9963121E+04;  0.0000000E+00;  4.4461060E-01;  4.0000000E+04;  0.0000000E+00;  4.0004879E+04; -5.0551087E-02;  0.0000000E+00;  1.9607295E-03;  8.9682452E+02;
  2.9182526E-01;  9.9999998E-03; -1.5000094E-01;4230; -1.7955817E-02;  0.0000000E+00; -1.7800198E-04;  9.9982166E+02;  1.0000000E-01; -1.4774890E+02;3;  7.3003453E-01;  0.0000000E+00;  3.6326635E-01;0; -4.8395179E-02;  3.9983676E+04;  0.0000000E+00;  2.9297405E-01;  4.0000000E+04;  0.0000000E+00;  4.0003320E+04; -5.0284270E-02;  0.0000000E+00;  1.8890925E-03;  6.0309967E+02;
  2.9179147E-01;  9.9999998E-03; -1.4000870E-01;4231; -1.8157052E-02;  0.0000000E+00; -1.3051461E-04;  9.9999664E+02;  1.0000000E-01; -2.7653539E+00;3;  7.0864880E-01;  0.0000000E+00;  3.4070945E-01;0; -4.8282728E-02;  3.9999941E+04;  0.0000000E+00;  1.6426630E-01;  4.0000000E+04;  0.0000000E+00;  4.0001793E+04; -5.0067410E-02;  0.0000000E+00;  1.7846818E-03;  3.1008890E+02;
  2.9174119E-01;  9.9999998E-03; -1.3001315E-01;4232; -1.8337429E-02;  0.0000000E+00; -9.4543546E-05;  1.0001078E+03;  1.0000000E-01;  8.9380188E+01;3;  6.8858266E-01;  0.0000000E+00;  3.1768358E-01;0; -4.8255339E-02;  4.0010504E+04;  0.0000000E+00;  6.7590378E-02;  4.0000000E+04;  0.0000000E+00;  3.9999738E+04; -4.9905427E-02;  0.0000000E+00;  1.6500872E-03;  1.0402129E+02;
  2.9168519E-01;  9.9999998E-03; -1.2001467E-01;4233; -1.8494047E-02;  0.0000000E+00; -7.0549533E-05;  1.0001410E+03;  1.0000000E-01;  1.1683620E+02;3;  6.6982102E-01;  0.0000000E+00;  2.8822801E-01;0; -4.8312131E-02;  4.0015332E+04;  0.0000000E+00;  4.5032874E-03;  4.0000000E+04;  0.0000000E+00;  3.9997906E+04; -4.9805693E-02;  0.0000000E+00;  1.4935605E-03;  2.6788373E+02;
  2.9163134E-01;  9.9999998E-03; -1.1001438E-01;4234; -1.8626025E-02;  0.0000000E+00; -5.9000959E-05;  1.0001099E+03;  1.0000000E-01;  9.1059151E+01;3;  6.5184629E-01;  0.0000000E+00;  2.6600355E-01;0; -4.8447490E-02;  4.0014281E+04;  0.0000000E+00; -2.9260732E-02;  4.0000000E+04;  0.0000000E+00;  3.9996488E+04; -4.9776249E-02;  0.0000000E+00;  1.3287585E-03;  4.5778766E+02;
  3.0108786E-01;  9.9999998E-03; -2.6997650E-01;4279; -1.6317938E-02;  0.0000000E+00; -7.5099431E-04;  9.9885321E+02;  1.0000000E-01; -9.5009656E+02;3; -2.7823660E+00;  0.0000000E+00; -1.0028269E+00;0; -5.2089471E-02;  3.9909891E+04;  0.0000000E+00;  3.5967848E-01;  4.0000000E+04;  0.0000000E+00;  4.0011719E+04; -5.8399860E-02;  0.0000000E+00;  6.3103880E-03;  1.7020857E+03;
  3.0111775E-01;  9.9999998E-03; -2.5997007E-01;4280; -1.6505970E-02;  0.0000000E+00; -7.0809381E-04;  9.9870245E+02;  1.0000000E-01; -1.0749819E+03;3; -1.4223613E+00;  0.0000000E+00; -7.9164207E-01;0; -5.1459979E-02;  3.9893414E+04;  0.0000000E+00;  3.2097501E-01;  4.0000000E+04;  0.0000000E+00;  4.0014328E+04; -5.6756608E-02;  0.0000000E+00;  5.2966299E-03;  1.9879064E+03;
  3.0120394E-01;  9.9999998E-03; -2.4996085E-01;4281; -1.6678462E-02;  0.0000000E+00; -6.5829034E-04;  9.9856964E+02;  1.0000000E-01; -1.1850035E+03;3; -4.4817322E-01;  0.0000000E+00; -4.5875388E-01;0; -5.1016513E-02;  3.9878668E+04;  0.0000000E+00;  2.7522016E-01;  4.0000000E+04;  0.0000000E+00;  4.0016504E+04; -5.5367634E-02;  0.0000000E+00;  4.3511204E-03;  2.2282239E+03;
  3.0128935E-01;  9.9999998E-03; -2.3994793E-01;4282; -1.6838485E-02;  0.0000000E+00; -6.0847151E-04;  9.9848596E+02;  1.0000000E-01; -1.2543348E+03;3;  1.9882095E-01;  0.0000000E+00; -1.1009302E-01;0; -5.0615847E-02;  3.9868703E+04;  0.0000000E+00;  3.9439189E-01;  4.0000000E+04;  0.0000000E+00;  4.0017910E+04; -5.4222394E-02;  0.0000000E+00;  3.6065483E-03;  2.4342930E+03;
  3.0137187E-01;  9.9999998E-03; -2.2994038E-01;4283; -1.6994305E-02;  0.0000000E+00; -5.2418862E-04;  9.9843542E+02;  1.0000000E-01; -1.2962102E+03;3;  5.9084231E-01;  0.0000000E+00;  1.7397553E-01;0; -5.0332908E-02;  3.9864336E+04;  0.0000000E+00;  5.5756176E-01;  4.0000000E+04;  0.0000000E+00;  4.0016016E+04; -5.3290498E-02;  0.0000000E+00;  2.9575913E-03;  2.2964463E+03;
  3.0146149E-01;  9.9999998E-03; -2.1995001E-01;4284; -1.7151518E-02;  0.0000000E+00; -4.5344603E-04;  9.9842572E+02;  1.0000000E-01; -1.3042594E+03;3;  8.0331516E-01;  0.0000000E+00;  3.6020845E-01;0; -4.9956534E-02;  3.9866379E+04;  0.0000000E+00;  6.9470167E-01;  4.0000000E+04;  0.0000000E+00;  4.0011973E+04; -5.2536145E-02;  0.0000000E+00;  2.5796094E-03;  1.9019414E+03;
  3.0155781E-01;  9.9999998E-03; -2.0996696E-01;4285; -1.7314924E-02;  0.0000000E+00; -4.3003171E-04;  9.9851215E+02;  1.0000000E-01; -1.2326565E+03;3;  8.9608866E-01;  0.0000000E+00;  4.6789840E-01;0; -4.9510837E-02;  3.9875043E+04;  0.0000000E+00;  7.7331179E-01;  4.0000000E+04;  0.0000000E+00;  4.0008895E+04; -5.1922295E-02;  0.0000000E+00;  2.4114584E-03;  1.6795415E+03;
  3.0165005E-01;  9.9999998E-03; -1.9998121E-01;4286; -1.7490109E-02;  0.0000000E+00; -4.1265678E-04;  9.9869373E+02;  1.0000000E-01; -1.0822410E+03;3;  9.1702175E-01;  0.0000000E+00;  5.0926828E-01;0; -4.9108967E-02;  3.9889688E+04;  0.0000000E+00;  7.7790815E-01;  4.0000000E+04;  0.0000000E+00;  4.0008129E+04; -5.1415034E-02;  0.0000000E+00;  2.3060655E-03;  1.5761783E+03;
  3.0172172E-01;  9.9999998E-03; -1.8999028E-01;4287; -1.7678920E-02;  0.0000000E+00; -3.8149150E-04;  9.9893890E+02;  1.0000000E-01; -8.7908624E+02;3;  9.0029466E-01;  0.0000000E+00;  5.1295376E-01;0; -4.8751473E-02;  3.9909234E+04;  0.0000000E+00;  7.0863593E-01;  4.0000000E+04;  0.0000000E+00;  4.0007527E+04; -5.0985686E-02;  0.0000000E+00;  2.2342135E-03;  1.4520995E+03;
  3.0175984E-01;  9.9999998E-03; -1.7999667E-01;4288; -1.7878991E-02;  0.0000000E+00; -3.3634988E-04;  9.9921747E+02;  1.0000000E-01; -6.4832733E+02;3;  8.7093091E-01;  0.0000000E+00;  4.9549940E-01;0; -4.8429415E-02;  3.9931645E+04;  0.0000000E+00;  5.8210135E-01;  4.0000000E+04;  0.0000000E+00;  4.0006996E+04; -5.0613206E-02;  0.0000000E+00;  2.1837906E-03;  1.2582531E+03;
  3.0176702E-01;  9.9999998E-03; -1.7000100E-01;4289; -1.8085744E-02;  0.0000000E+00; -2.8239333E-04;  9.9949365E+02;  1.0000000E-01; -4.1949432E+02;3;  8.4147215E-01;  0.0000000E+00;  4.6947277E-01;0; -4.8149686E-02;  3.9955098E+04;  0.0000000E+00;  4.2645490E-01;  4.0000000E+04;  0.0000000E+00;  4.0006109E+04; -5.0284784E-02;  0.0000000E+00;  2.1350970E-03;  1.0075034E+03;
  3.0175579E-01;  9.9999998E-03; -1.6000727E-01;4290; -1.8292546E-02;  0.0000000E+00; -2.2683658E-04;  9.9974603E+02;  1.0000000E-01; -2.1041380E+02;3;  8.1476718E-01;  0.0000000E+00;  4.4069386E-01;0; -4.7928300E-02;  3.9976930E+04;  0.0000000E+00;  2.7065590E-01;  4.0000000E+04;  0.0000000E+00;  4.0004910E+04; -4.9996711E-02;  0.0000000E+00;  2.0684125E-03;  7.2368823E+02;
  3.0173171E-01;  9.9999998E-03; -1.5001479E-01;4291; -1.8491752E-02;  0.0000000E+00; -1.7498065E-04;  9.9995233E+02;  1.0000000E-01; -3.9505054E+01;3;  7.9075396E-01;  0.0000000E+00;  4.1368681E-01;0; -4.7780100E-02;  3.9995230E+04;  0.0000000E+00;  1.3364410E-01;  4.0000000E+04;  0.0000000E+00;  4.0002930E+04; -4.9751330E-02;  0.0000000E+00;  1.9712287E-03;  4.2831638E+02;
  3.0169618E-01;  9.9999998E-03; -1.4001992E-01;4292; -1.8676961E-02;  0.0000000E+00; -1.3104899E-04;  1.0000909E+03;  1.0000000E-01;  7.5257133E+01;3;  7.6875418E-01;  0.0000000E+00;  3.8529137E-01;0; -4.7713041E-02;  4.0008375E+04;  0.0000000E+00;  2.6471682E-02;  4.0000000E+04;  0.0000000E+00;  4.0001105E+04; -4.9553785E-02;  0.0000000E+00;  1.8407460E-03;  1.4216051E+02;
  3.0165511E-01;  9.9999998E-03; -1.3002130E-01;4293; -1.8843852E-02;  0.0000000E+00; -9.7702505E-05;  1.0001583E+03;  1.0000000E-01;  1.3115678E+02;3;  7.4724787E-01;  0.0000000E+00;  3.5970315E-01;0; -4.7729690E-02;  4.0015953E+04;  0.0000000E+00; -4.6303246E-02;  4.0000000E+04;  0.0000000E+00;  3.9999211E+04; -4.9411528E-02;  0.0000000E+00;  1.6818389E-03;  1.2126798E+02;
  3.0161536E-01;  9.9999998E-03; -1.2002006E-01;4294; -1.8990787E-02;  0.0000000E+00; -7.5731958E-05;  1.0001537E+03;  1.0000000E-01;  1.2730504E+02;3;  7.2760338E-01;  0.0000000E+00;  3.2889736E-01;0; -4.7828972E-02;  4.0017457E+04;  0.0000000E+00; -8.6395383E-02;  4.0000000E+04;  0.0000000E+00;  3.9997707E+04; -4.9333602E-02;  0.0000000E+00;  1.5046295E-03;  3.2983884E+02;
  3.0158266E-01;  9.9999998E-03; -1.1001735E-01;4295; -1.9117557E-02;  0.0000000E+00; -6.5825690E-05;  1.0000865E+03;  1.0000000E-01;  7.1701675E+01;3;  7.0953625E-01;  0.0000000E+00;  3.0097857E-01;0; -4.8005570E-02;  4.0013078E+04;  0.0000000E+00; -9.9839516E-02;  4.0000000E+04;  0.0000000E+00;  3.9996414E+04; -4.9329236E-02;  0.0000000E+00;  1.3236648E-03;  4.7492191E+02;
  3.1111994E-01;  9.9999998E-03; -2.6997843E-01;4340; -1.6880715E-02;  0.0000000E+00; -6.8485225E-04;  9.9880316E+02;  1.0000000E-01; -9.9157690E+02;3; -8.7018299E-01;  0.0000000E+00; -1.1098240E-01;0; -5.0015260E-02;  3.9905879E+04;  0.0000000E+00; -2.0455407E-01;  4.0000000E+04;  0.0000000E+00;  4.0010605E+04; -5.5595234E-02;  0.0000000E+00;  5.5799759E-03;  1.4629658E+03;
  3.1115815E-01;  9.9999998E-03; -2.5997385E-01;4341; -1.7051507E-02;  0.0000000E+00; -6.6127523E-04;  9.9867090E+02;  1.0000000E-01; -1.1011541E+03;3; -1.0493551E-01;  0.0000000E+00;  3.3709683E-02;0; -4.9568105E-02;  3.9891270E+04;  0.0000000E+00;  2.1893866E-02;  4.0000000E+04;  0.0000000E+00;  4.0013195E+04; -5.4427937E-02;  0.0000000E+00;  4.8598316E-03;  1.7545719E+03;
  3.1126976E-01;  9.9999998E-03; -2.4996769E-01;4342; -1.7222345E-02;  0.0000000E+00; -6.2802760E-04;  9.9857001E+02;  1.0000000E-01; -1.1847073E+03;3;  4.2418659E-01;  0.0000000E+00;  2.2303593E-01;0; -4.9315900E-02;  3.9879691E+04;  0.0000000E+00;  1.6978489E-01;  4.0000000E+04;  0.0000000E+00;  4.0014898E+04; -5.3430431E-02;  0.0000000E+00;  4.1145291E-03;  1.9973893E+03;
  3.1137994E-01;  9.9999998E-03; -2.3996012E-01;4343; -1.7389130E-02;  0.0000000E+00; -5.8578484E-04;  9.9852075E+02;  1.0000000E-01; -1.2255455E+03;3;  7.5540709E-01;  0.0000000E+00;  3.9173377E-01;0; -4.9133867E-02;  3.9873219E+04;  0.0000000E+00;  3.7023205E-01;  4.0000000E+04;  0.0000000E+00;  4.0015730E+04; -5.2600641E-02;  0.0000000E+00;  3.4667721E-03;  2.1522485E+03;
  3.1146163E-01;  9.9999998E-03; -2.2995855E-01;4344; -1.7553648E-02;  0.0000000E+00; -5.1470380E-04;  9.9850848E+02;  1.0000000E-01; -1.2356687E+03;3;  9.3495023E-01;  0.0000000E+00;  5.1980203E-01;0; -4.9010150E-02;  3.9872582E+04;  0.0000000E+00;  5.5467486E-01;  4.0000000E+04;  0.0000000E+00;  4.0013984E+04; -5.1918965E-02;  0.0000000E+00;  2.9088140E-03;  2.0258512E+03;
  3.1153500E-01;  9.9999998E-03; -2.1997051E-01;4345; -1.7718248E-02;  0.0000000E+00; -4.6175008E-04;  9.9855127E+02;  1.0000000E-01; -1.2002623E+03;3;  1.0130379E+00;  0.0000000E+00;  5.8370864E-01;0; -4.8758626E-02;  3.9878074E+04;  0.0000000E+00;  6.6718274E-01;  4.0000000E+04;  0.0000000E+00;  4.0010578E+04; -5.1356100E-02;  0.0000000E+00;  2.5974717E-03;  1.7233473E+03;
  3.1160527E-01;  9.9999998E-03; -2.0998590E-01;4346; -1.7887106E-02;  0.0000000E+00; -4.3927797E-04;  9.9868060E+02;  1.0000000E-01; -1.0931049E+03;3;  1.0270386E+00;  0.0000000E+00;  6.1271280E-01;0; -4.8440795E-02;  3.9889516E+04;  0.0000000E+00;  6.9654083E-01;  4.0000000E+04;  0.0000000E+00;  4.0008586E+04; -5.0884996E-02;  0.0000000E+00;  2.4442014E-03;  1.5465223E+03;
  3.1166288E-01;  9.9999998E-03; -1.9999754E-01;4347; -1.8064052E-02;  0.0000000E+00; -4.1582625E-04;  9.9888812E+02;  1.0000000E-01; -9.2115912E+02;3;  1.0065277E+00;  0.0000000E+00;  6.1139274E-01;0; -4.8139341E-02;  3.9906039E+04;  0.0000000E+00;  6.4678991E-01;  4.0000000E+04;  0.0000000E+00;  4.0007809E+04; -5.0482716E-02;  0.0000000E+00;  2.3433764E-03;  1.4208939E+03;
  3.1169724E-01;  9.9999998E-03; -1.9000529E-01;4348; -1.8250236E-02;  0.0000000E+00; -3.7849598E-04;  9.9913953E+02;  1.0000000E-01; -7.1286871E+02;3;  9.7365302E-01;  0.0000000E+00;  5.9069085E-01;0; -4.7858164E-02;  3.9926375E+04;  0.0000000E+00;  5.3463495E-01;  4.0000000E+04;  0.0000000E+00;  4.0007246E+04; -5.0131101E-02;  0.0000000E+00;  2.2729379E-03;  1.2547726E+03;
  3.1170788E-01;  9.9999998E-03; -1.8001053E-01;4349; -1.8443704E-02;  0.0000000E+00; -3.2987533E-04;  9.9940710E+02;  1.0000000E-01; -4.9119598E+02;3;  9.3911308E-01;  0.0000000E+00;  5.6420547E-01;0; -4.7598720E-02;  3.9948426E+04;  0.0000000E+00;  3.8712382E-01;  4.0000000E+04;  0.0000000E+00;  4.0006629E+04; -4.9817830E-02;  0.0000000E+00;  2.2191110E-03;  1.0335295E+03;
  3.1169686E-01;  9.9999998E-03; -1.7001417E-01;4350; -1.8639823E-02;  0.0000000E+00; -2.7606293E-04;  9.9966510E+02;  1.0000000E-01; -2.7747363E+02;3;  9.0882140E-01;  0.0000000E+00;  5.3151697E-01;0; -4.7376961E-02;  3.9970176E+04;  0.0000000E+00;  2.3347804E-01;  4.0000000E+04;  0.0000000E+00;  4.0005320E+04; -4.9538247E-02;  0.0000000E+00;  2.1612849E-03;  7.7524451E+02;
  3.1167164E-01;  9.9999998E-03; -1.6001911E-01;4351; -1.8832946E-02;  0.0000000E+00; -2.2279256E-04;  9.9988690E+02;  1.0000000E-01; -9.3676361E+01;3;  8.8107079E-01;  0.0000000E+00;  4.9829745E-01;0; -4.7212072E-02;  3.9989691E+04;  0.0000000E+00;  9.4636805E-02;  4.0000000E+04;  0.0000000E+00;  4.0003852E+04; -4.9293019E-02;  0.0000000E+00;  2.0809453E-03;  5.0089087E+02;
  3.1163985E-01;  9.9999998E-03; -1.5002422E-01;4352; -1.9017406E-02;  0.0000000E+00; -1.7478794E-04;  1.0000518E+03;  1.0000000E-01;  4.2862984E+01;3;  8.5555834E-01;  0.0000000E+00;  4.6736544E-01;0; -4.7117963E-02;  4.0005008E+04;  0.0000000E+00; -1.7167667E-02;  4.0000000E+04;  0.0000000E+00;  4.0001867E+04; -4.9085937E-02;  0.0000000E+00;  1.9679756E-03;  2.4047417E+02;
  3.1160772E-01;  9.9999998E-03; -1.4002596E-01;4353; -1.9189062E-02;  0.0000000E+00; -1.3478157E-04;  1.0001522E+03;  1.0000000E-01;  1.2602113E+02;3;  8.3236676E-01;  0.0000000E+00;  4.3442649E-01;0; -4.7101848E-02;  4.0015016E+04;  0.0000000E+00; -9.5549010E-02;  4.0000000E+04;  0.0000000E+00;  4.0000047E+04; -4.8923567E-02;  0.0000000E+00;  1.8217199E-03;  1.3676411E+02;
  3.1157982E-01;  9.9999998E-03; -1.3002369E-01;4354; -1.9345563E-02;  0.0000000E+00; -1.0445548E-04;  1.0001843E+03;  1.0000000E-01;  1.5268704E+02;3;  8.0945766E-01;  0.0000000E+00;  4.0700287E-01;0; -4.7165938E-02;  4.0019496E+04;  0.0000000E+00; -1.3994548E-01;  4.0000000E+04;  0.0000000E+00;  3.9998238E+04; -4.8814807E-02;  0.0000000E+00;  1.6488691E-03;  2.9734412E+02;
  3.1156218E-01;  9.9999998E-03; -1.2001870E-01;4355; -1.9486163E-02;  0.0000000E+00; -8.4654494E-05;  1.0001536E+03;  1.0000000E-01;  1.2730504E+02;3;  7.8978950E-01;  0.0000000E+00;  3.7459943E-01;0; -4.7309089E-02;  4.0018145E+04;  0.0000000E+00; -1.5473886E-01;  4.0000000E+04;  0.0000000E+00;  3.9997176E+04; -4.8769962E-02;  0.0000000E+00;  1.4608721E-03;  4.4246024E+02;
  3.1156248E-01;  9.9999998E-03; -1.1001071E-01;4356; -1.9611573E-02;  0.0000000E+00; -7.5690055E-05;  1.0000653E+03;  1.0000000E-01;  5.4121925E+01;3;  7.7153325E-01;  0.0000000E+00;  3.4047651E-01;0; -4.7525700E-02;  4.0011977E+04;  0.0000000E+00; -1.4729762E-01;  4.0000000E+04;  0.0000000E+00;  3.9996199E+04; -4.8798259E-02;  0.0000000E+00;  1.2725607E-03;  5.2102881E+02;
  3.2161790E-01;  9.9999998E-03; -1.0999648E-01;4417; -2.0104581E-02;  0.0000000E+00; -8.6431173E-05;  1.0000590E+03;  1.0000000E-01;  4.8887505E+01;3;  8.3766484E-01;  0.0000000E+00;  3.8853294E-01;0; -4.6982002E-02;  4.0012086E+04;  0.0000000E+00; -1.6694260E-01;  4.0000000E+04;  0.0000000E+00;  3.9996082E+04; -4.8152216E-02;  0.0000000E+00;  1.1702125E-03;  5.6491150E+02;
  3.2157171E-01;  9.9999998E-03; -1.2000927E-01;4416; -1.9976687E-02;  0.0000000E+00; -9.5144824E-05;  1.0001495E+03;  1.0000000E-01;  1.2384835E+02;3;  8.5650992E-01;  0.0000000E+00;  4.2387420E-01;0; -4.6731818E-02;  4.0019070E+04;  0.0000000E+00; -1.9297759E-01;  4.0000000E+04;  0.0000000E+00;  3.9996426E+04; -4.8090171E-02;  0.0000000E+00;  1.3583535E-03;  5.5247491E+02;
  3.2154673E-01;  9.9999998E-03; -1.3002092E-01;4415; -1.9838102E-02;  0.0000000E+00; -1.1246072E-04;  1.0001984E+03;  1.0000000E-01;  1.6443979E+02;3;  8.7674975E-01;  0.0000000E+00;  4.5714661E-01;0; -4.6549466E-02;  4.0022020E+04;  0.0000000E+00; -2.0232210E-01;  4.0000000E+04;  0.0000000E+00;  3.9997426E+04; -4.8098132E-02;  0.0000000E+00;  1.5486652E-03;  4.6864920E+02;
  3.2154757E-01;  9.9999998E-03; -1.4002763E-01;4414; -1.9688057E-02;  0.0000000E+00; -1.3903060E-04;  1.0001937E+03;  1.0000000E-01;  1.6048929E+02;3;  8.9946389E-01;  0.0000000E+00;  4.9096975E-01;0; -4.6440154E-02;  4.0019883E+04;  0.0000000E+00; -1.8666141E-01;  4.0000000E+04;  0.0000000E+00;  3.9998586E+04; -4.8166446E-02;  0.0000000E+00;  1.7262923E-03;  3.2900720E+02;
  3.2156524E-01;  9.9999998E-03; -1.5002942E-01;4413; -1.9526152E-02;  0.0000000E+00; -1.7460842E-04;  1.0001265E+03;  1.0000000E-01;  1.0478716E+02;3;  9.2448348E-01;  0.0000000E+00;  5.2468127E-01;0; -4.6405584E-02;  4.0012855E+04;  0.0000000E+00; -1.3944286E-01;  4.0000000E+04;  0.0000000E+00;  4.0000375E+04; -4.8284683E-02;  0.0000000E+00;  1.8790993E-03;  2.0219344E+02;
  3.2159251E-01;  9.9999998E-03; -1.6002694E-01;4412; -1.9353287E-02;  0.0000000E+00; -2.1759748E-04;  9.9999866E+02;  1.0000000E-01; -1.1357703E+00;3;  9.5090950E-01;  0.0000000E+00;  5.6097662E-01;0; -4.6444118E-02;  4.0000715E+04;  0.0000000E+00; -5.7789586E-02;  4.0000000E+04;  0.0000000E+00;  4.0002266E+04; -4.8443299E-02;  0.0000000E+00;  1.9991824E-03;  2.8528326E+02;
  3.2162175E-01;  9.9999998E-03; -1.7002286E-01;4411; -1.9171739E-02;  0.0000000E+00; -2.6598593E-04;  9.9981647E+02;  1.0000000E-01; -1.5204509E+02;3;  9.7940373E-01;  0.0000000E+00;  5.9889477E-01;0; -4.6549454E-02;  3.9984430E+04;  0.0000000E+00;  5.6027088E-02;  4.0000000E+04;  0.0000000E+00;  4.0004023E+04; -4.8635058E-02;  0.0000000E+00;  2.0856056E-03;  5.1183539E+02;
  3.2164443E-01;  9.9999998E-03; -1.8001980E-01;4410; -1.8985102E-02;  0.0000000E+00; -3.1658192E-04;  9.9959607E+02;  1.0000000E-01; -3.3465720E+02;3;  1.0113082E+00;  0.0000000E+00;  6.3524044E-01;0; -4.6708837E-02;  3.9965160E+04;  0.0000000E+00;  1.9395027E-01;  4.0000000E+04;  0.0000000E+00;  4.0005168E+04; -4.8855390E-02;  0.0000000E+00;  2.1465546E-03;  7.5745319E+02;
  3.2165661E-01;  9.9999998E-03; -1.9001716E-01;4409; -1.8797718E-02;  0.0000000E+00; -3.6485022E-04;  9.9934924E+02;  1.0000000E-01; -5.3914526E+02;3;  1.0472047E+00;  0.0000000E+00;  6.6916198E-01;0; -4.6903037E-02;  3.9944629E+04;  0.0000000E+00;  3.4242445E-01;  4.0000000E+04;  0.0000000E+00;  4.0006125E+04; -4.9101986E-02;  0.0000000E+00;  2.1989492E-03;  9.8250092E+02;
  3.2165623E-01;  9.9999998E-03; -2.0001286E-01;4408; -1.8613782E-02;  0.0000000E+00; -4.0400095E-04;  9.9910309E+02;  1.0000000E-01; -7.4309009E+02;3;  1.0864824E+00;  0.0000000E+00;  6.9965845E-01;0; -4.7112390E-02;  3.9924926E+04;  0.0000000E+00;  4.7958156E-01;  4.0000000E+04;  0.0000000E+00;  4.0007207E+04; -4.9375463E-02;  0.0000000E+00;  2.2630729E-03;  1.1640375E+03;
  3.2164598E-01;  9.9999998E-03; -2.1000499E-01;4407; -1.8435372E-02;  0.0000000E+00; -4.2978319E-04;  9.9888971E+02;  1.0000000E-01; -9.1987524E+02;3;  1.1261418E+00;  0.0000000E+00;  7.2359467E-01;0; -4.7326617E-02;  3.9907551E+04;  0.0000000E+00;  5.7724398E-01;  4.0000000E+04;  0.0000000E+00;  4.0007121E+04; -4.9680427E-02;  0.0000000E+00;  2.3538102E-03;  1.2985272E+03;
  3.2161725E-01;  9.9999998E-03; -2.1999097E-01;4406; -1.8261475E-02;  0.0000000E+00; -4.4774226E-04;  9.9872894E+02;  1.0000000E-01; -1.0530566E+03;3;  1.1541883E+00;  0.0000000E+00;  7.3883599E-01;0; -4.7544044E-02;  3.9894312E+04;  0.0000000E+00;  6.1019230E-01;  4.0000000E+04;  0.0000000E+00;  4.0008531E+04; -5.0027952E-02;  0.0000000E+00;  2.4839090E-03;  1.4592845E+03;
  3.2156754E-01;  9.9999998E-03; -2.2997683E-01;4405; -1.8088773E-02;  0.0000000E+00; -4.8709949E-04;  9.9864423E+02;  1.0000000E-01; -1.1232275E+03;3;  1.1567156E+00;  0.0000000E+00;  7.3044682E-01;0; -4.7697056E-02;  3.9886129E+04;  0.0000000E+00;  5.6242478E-01;  4.0000000E+04;  0.0000000E+00;  4.0011309E+04; -5.0433133E-02;  0.0000000E+00;  2.7360755E-03;  1.7220068E+03;
  3.2149252E-01;  9.9999998E-03; -2.3997362E-01;4404; -1.7914737E-02;  0.0000000E+00; -5.4104987E-04;  9.9861212E+02;  1.0000000E-01; -1.1498440E+03;3;  1.1099396E+00;  0.0000000E+00;  7.0129097E-01;0; -4.7726836E-02;  3.9882930E+04;  0.0000000E+00;  4.3068668E-01;  4.0000000E+04;  0.0000000E+00;  4.0012871E+04; -5.0913762E-02;  0.0000000E+00;  3.1869258E-03;  1.8524971E+03;
  3.2138118E-01;  9.9999998E-03; -2.4997663E-01;4403; -1.7739477E-02;  0.0000000E+00; -5.7044416E-04;  9.9862024E+02;  1.0000000E-01; -1.1431282E+03;3;  9.8742479E-01;  0.0000000E+00;  6.4250809E-01;0; -4.7792748E-02;  3.9885215E+04;  0.0000000E+00;  2.3299298E-01;  4.0000000E+04;  0.0000000E+00;  4.0012961E+04; -5.1489100E-02;  0.0000000E+00;  3.6963534E-03;  1.7412173E+03;
  3.2125348E-01;  9.9999998E-03; -2.5997958E-01;4402; -1.7564179E-02;  0.0000000E+00; -5.9375970E-04;  9.9867902E+02;  1.0000000E-01; -1.0943888E+03;3;  7.5958216E-01;  0.0000000E+00;  5.6438959E-01;0; -4.7890995E-02;  3.9892531E+04;  0.0000000E+00;  2.5564772E-03;  4.0000000E+04;  0.0000000E+00;  4.0011809E+04; -5.2172188E-02;  0.0000000E+00;  4.2811926E-03;  1.5637358E+03;
  3.2118767E-01;  9.9999998E-03; -2.6998213E-01;4401; -1.7396010E-02;  0.0000000E+00; -6.0479122E-04;  9.9877826E+02;  1.0000000E-01; -1.0121689E+03;3;  4.0169054E-01;  0.0000000E+00;  4.9777472E-01;0; -4.8178002E-02;  3.9903492E+04;  0.0000000E+00; -3.0551666E-01;  4.0000000E+04;  0.0000000E+00;  4.0009922E+04; -5.2959360E-02;  0.0000000E+00;  4.7813589E-03;  1.3886846E+03;
  3.3123982E-01;  9.9999998E-03; -2.6998693E-01;4462; -1.7867571E-02;  0.0000000E+00; -5.1209825E-04;  9.9878625E+02;  1.0000000E-01; -1.0055518E+03;3;  1.1419984E+00;  0.0000000E+00;  8.5904181E-01;0; -4.6583567E-02;  3.9903688E+04;  0.0000000E+00; -6.3300572E-02;  4.0000000E+04;  0.0000000E+00;  4.0008855E+04; -5.0547644E-02;  0.0000000E+00;  3.9640791E-03;  1.2099749E+03;
  3.3132803E-01;  9.9999998E-03; -2.5998640E-01;4463; -1.8041030E-02;  0.0000000E+00; -5.0928321E-04;  9.9873297E+02;  1.0000000E-01; -1.0496987E+03;3;  1.2554793E+00;  0.0000000E+00;  8.7050837E-01;0; -4.6413690E-02;  3.9897164E+04;  0.0000000E+00;  1.9756296E-01;  4.0000000E+04;  0.0000000E+00;  4.0009957E+04; -5.0041247E-02;  0.0000000E+00;  3.6275554E-03;  1.3797638E+03;
  3.3145675E-01;  9.9999998E-03; -2.4998641E-01;4464; -1.8223515E-02;  0.0000000E+00; -4.9255561E-04;  9.9871625E+02;  1.0000000E-01; -1.0635748E+03;3;  1.3092394E+00;  0.0000000E+00;  8.8121217E-01;0; -4.6419568E-02;  3.9894441E+04;  0.0000000E+00;  3.8146770E-01;  4.0000000E+04;  0.0000000E+00;  4.0010195E+04; -4.9592841E-02;  0.0000000E+00;  3.1732745E-03;  1.5054490E+03;
  3.3156168E-01;  9.9999998E-03; -2.3998760E-01;4465; -1.8407743E-02;  0.0000000E+00; -4.7306504E-04;  9.9874921E+02;  1.0000000E-01; -1.0362670E+03;3;  1.3168535E+00;  0.0000000E+00;  8.8348752E-01;0; -4.6420150E-02;  3.9896176E+04;  0.0000000E+00;  4.9894142E-01;  4.0000000E+04;  0.0000000E+00;  4.0010117E+04; -4.9207948E-02;  0.0000000E+00;  2.7877970E-03;  1.5392271E+03;
  3.3162585E-01;  9.9999998E-03; -2.2999403E-01;4466; -1.8590750E-02;  0.0000000E+00; -4.3980952E-04;  9.9881781E+02;  1.0000000E-01; -9.7942908E+02;3;  1.2950596E+00;  0.0000000E+00;  8.6487550E-01;0; -4.6421774E-02;  3.9902281E+04;  0.0000000E+00;  5.4490095E-01;  4.0000000E+04;  0.0000000E+00;  4.0008637E+04; -4.8880115E-02;  0.0000000E+00;  2.4583414E-03;  1.3960919E+03;
  3.3166099E-01;  9.9999998E-03; -2.2000740E-01;4467; -1.8771581E-02;  0.0000000E+00; -4.1602080E-04;  9.9893677E+02;  1.0000000E-01; -8.8086395E+02;3;  1.2557225E+00;  0.0000000E+00;  8.4288257E-01;0; -4.6331432E-02;  3.9912676E+04;  0.0000000E+00;  5.1972556E-01;  4.0000000E+04;  0.0000000E+00;  4.0006461E+04; -4.8597667E-02;  0.0000000E+00;  2.2662350E-03;  1.1714855E+03;
  3.3167544E-01;  9.9999998E-03; -2.1001785E-01;4468; -1.8951654E-02;  0.0000000E+00; -4.0166109E-04;  9.9911011E+02;  1.0000000E-01; -7.3726312E+02;3;  1.2098233E+00;  0.0000000E+00;  8.1705528E-01;0; -4.6193909E-02;  3.9926918E+04;  0.0000000E+00;  4.3505681E-01;  4.0000000E+04;  0.0000000E+00;  4.0005848E+04; -4.8350185E-02;  0.0000000E+00;  2.1562749E-03;  1.0211182E+03;
  3.3166718E-01;  9.9999998E-03; -2.0002231E-01;4469; -1.9132927E-02;  0.0000000E+00; -3.7583688E-04;  9.9932269E+02;  1.0000000E-01; -5.6111993E+02;3;  1.1655380E+00;  0.0000000E+00;  7.8445745E-01;0; -4.6053283E-02;  3.9943828E+04;  0.0000000E+00;  3.1022909E-01;  4.0000000E+04;  0.0000000E+00;  4.0005590E+04; -4.8130557E-02;  0.0000000E+00;  2.0772729E-03;  8.7638965E+02;
  3.3163604E-01;  9.9999998E-03; -1.9002295E-01;4470; -1.9315200E-02;  0.0000000E+00; -3.3784236E-04;  9.9954071E+02;  1.0000000E-01; -3.8053244E+02;3;  1.1236461E+00;  0.0000000E+00;  7.4893391E-01;0; -4.5912474E-02;  3.9962012E+04;  0.0000000E+00;  1.6900952E-01;  4.0000000E+04;  0.0000000E+00;  4.0004902E+04; -4.7934465E-02;  0.0000000E+00;  2.0219923E-03;  6.9274377E+02;
  3.3159578E-01;  9.9999998E-03; -1.8002364E-01;4471; -1.9496882E-02;  0.0000000E+00; -2.9378652E-04;  9.9975098E+02;  1.0000000E-01; -2.0631516E+02;3;  1.0870247E+00;  0.0000000E+00;  7.0880705E-01;0; -4.5784038E-02;  3.9980008E+04;  0.0000000E+00;  3.2724902E-02;  4.0000000E+04;  0.0000000E+00;  4.0003516E+04; -4.7758654E-02;  0.0000000E+00;  1.9746157E-03;  4.7737817E+02;
  3.3156136E-01;  9.9999998E-03; -1.7002629E-01;4472; -1.9675704E-02;  0.0000000E+00; -2.4888053E-04;  9.9994025E+02;  1.0000000E-01; -4.9480083E+01;3;  1.0543600E+00;  0.0000000E+00;  6.6787255E-01;0; -4.5687102E-02;  3.9996262E+04;  0.0000000E+00; -8.3452910E-02;  4.0000000E+04;  0.0000000E+00;  4.0002062E+04; -4.7602151E-02;  0.0000000E+00;  1.9150506E-03;  2.8383484E+02;
  3.3153683E-01;  9.9999998E-03; -1.6002971E-01;4473; -1.9848648E-02;  0.0000000E+00; -2.0704181E-04;  1.0000813E+03;  1.0000000E-01;  6.7356117E+01;3;  1.0244311E+00;  0.0000000E+00;  6.2800848E-01;0; -4.5639459E-02;  4.0009559E+04;  0.0000000E+00; -1.6943881E-01;  4.0000000E+04;  0.0000000E+00;  4.0000391E+04; -4.7467738E-02;  0.0000000E+00;  1.8282777E-03;  2.4449121E+02;
  3.3153030E-01;  9.9999998E-03; -1.5003057E-01;4474; -2.0013846E-02;  0.0000000E+00; -1.7033936E-04;  1.0001771E+03;  1.0000000E-01;  1.4676128E+02;3;  9.9687630E-01;  0.0000000E+00;  5.8740538E-01;0; -4.5652684E-02;  4.0018930E+04;  0.0000000E+00; -2.2082032E-01;  4.0000000E+04;  0.0000000E+00;  3.9998523E+04; -4.7360398E-02;  0.0000000E+00;  1.7077137E-03;  3.7636823E+02;
  3.3154911E-01;  9.9999998E-03; -1.4002551E-01;4475; -2.0170426E-02;  0.0000000E+00; -1.4027384E-04;  1.0002200E+03;  1.0000000E-01;  1.8231583E+02;3;  9.7187650E-01;  0.0000000E+00;  5.4867071E-01;0; -4.5732271E-02;  4.0023867E+04;  0.0000000E+00; -2.3887001E-01;  4.0000000E+04;  0.0000000E+00;  3.9997043E+04; -4.7287662E-02;  0.0000000E+00;  1.5553910E-03;  5.1974164E+02;
  3.3159536E-01;  9.9999998E-03; -1.3001262E-01;4476; -2.0318408E-02;  0.0000000E+00; -1.1800868E-04;  1.0002143E+03;  1.0000000E-01;  1.7757523E+02;3;  9.4881707E-01;  0.0000000E+00;  5.1070118E-01;0; -4.5879740E-02;  4.0024453E+04;  0.0000000E+00; -2.2925642E-01;  4.0000000E+04;  0.0000000E+00;  3.9996047E+04; -4.7259741E-02;  0.0000000E+00;  1.3800011E-03;  6.1306934E+02;
  3.3165619E-01;  9.9999998E-03; -1.1999461E-01;4477; -2.0457901E-02;  0.0000000E+00; -1.0327323E-04;  1.0001685E+03;  1.0000000E-01;  1.3965038E+02;3;  9.2788231E-01;  0.0000000E+00;  4.7442204E-01;0; -4.6093941E-02;  4.0021172E+04;  0.0000000E+00; -2.0016398E-01;  4.0000000E+04;  0.0000000E+00;  3.9995457E+04; -4.7288239E-02;  0.0000000E+00;  1.1942990E-03;  6.3777264E+02;
  3.3171403E-01;  9.9999998E-03; -1.0998330E-01;4478; -2.0589372E-02;  0.0000000E+00; -9.4993695E-05;  1.0000923E+03;  1.0000000E-01;  7.6541046E+01;3;  9.0863407E-01;  0.0000000E+00;  4.3771237E-01;0; -4.6369758E-02;  4.0014746E+04;  0.0000000E+00; -1.6038236E-01;  4.0000000E+04;  0.0000000E+00;  3.9995625E+04; -4.7382537E-02;  0.0000000E+00;  1.0127800E-03;  5.9114709E+02;
  3.4129843E-01;  9.9999998E-03; -2.6999214E-01;4523; -1.8304076E-02;  0.0000000E+00; -4.0974413E-04;  9.9881763E+02;  1.0000000E-01; -9.7957721E+02;3;  1.5181684E+00;  0.0000000E+00;  1.0559005E+00;0; -4.5177765E-02;  3.9905312E+04;  0.0000000E+00;  1.7142986E-01;  4.0000000E+04;  0.0000000E+00;  4.0008023E+04; -4.8367076E-02;  0.0000000E+00;  3.1893118E-03;  1.1177888E+03;
  3.4139523E-01;  9.9999998E-03; -2.5999328E-01;4524; -1.8486129E-02;  0.0000000E+00; -4.1305681E-04;  9.9880927E+02;  1.0000000E-01; -9.8649060E+02;3;  1.5109087E+00;  0.0000000E+00;  1.0367945E+00;0; -4.5083351E-02;  3.9903270E+04;  0.0000000E+00;  3.5055175E-01;  4.0000000E+04;  0.0000000E+00;  4.0008387E+04; -4.8054069E-02;  0.0000000E+00;  2.9707174E-03;  1.2532250E+03;
  3.4151447E-01;  9.9999998E-03; -2.4999587E-01;4525; -1.8676404E-02;  0.0000000E+00; -3.9853901E-04;  9.9883545E+02;  1.0000000E-01; -9.6481219E+02;3;  1.4828285E+00;  0.0000000E+00;  1.0154459E+00;0; -4.5172833E-02;  3.9904887E+04;  0.0000000E+00;  4.5859942E-01;  4.0000000E+04;  0.0000000E+00;  4.0008195E+04; -4.7769863E-02;  0.0000000E+00;  2.5970300E-03;  1.2849908E+03;
  3.4160578E-01;  9.9999998E-03; -2.4000077E-01;4526; -1.8868612E-02;  0.0000000E+00; -3.8139144E-04;  9.9889325E+02;  1.0000000E-01; -9.1691235E+02;3;  1.4404182E+00;  0.0000000E+00;  9.9276137E-01;0; -4.5230594E-02;  3.9910156E+04;  0.0000000E+00;  5.0012106E-01;  4.0000000E+04;  0.0000000E+00;  4.0007211E+04; -4.7521222E-02;  0.0000000E+00;  2.2906286E-03;  1.2119274E+03;
  3.4165096E-01;  9.9999998E-03; -2.3001073E-01;4527; -1.9058915E-02;  0.0000000E+00; -3.6433124E-04;  9.9899158E+02;  1.0000000E-01; -8.3548254E+02;3;  1.3914337E+00;  0.0000000E+00;  9.6262854E-01;0; -4.5233943E-02;  3.9918773E+04;  0.0000000E+00;  4.8079225E-01;  4.0000000E+04;  0.0000000E+00;  4.0005285E+04; -4.7307048E-02;  0.0000000E+00;  2.0731036E-03;  1.0212871E+03;
  3.4166494E-01;  9.9999998E-03; -2.2002287E-01;4528; -1.9246100E-02;  0.0000000E+00; -3.5875017E-04;  9.9912982E+02;  1.0000000E-01; -7.2091791E+02;3;  1.3404745E+00;  0.0000000E+00;  9.3287832E-01;0; -4.5168258E-02;  3.9930535E+04;  0.0000000E+00;  4.0915313E-01;  4.0000000E+04;  0.0000000E+00;  4.0004164E+04; -4.7120910E-02;  0.0000000E+00;  1.9526500E-03;  8.3960321E+02;
  3.4166372E-01;  9.9999998E-03; -2.1002811E-01;4529; -1.9431291E-02;  0.0000000E+00; -3.5199479E-04;  9.9931439E+02;  1.0000000E-01; -5.6803333E+02;3;  1.2913772E+00;  0.0000000E+00;  9.0227461E-01;0; -4.5087602E-02;  3.9944652E+04;  0.0000000E+00;  2.9955262E-01;  4.0000000E+04;  0.0000000E+00;  4.0004332E+04; -4.6956725E-02;  0.0000000E+00;  1.8691231E-03;  7.2969940E+02;
  3.4165257E-01;  9.9999998E-03; -2.0002723E-01;4530; -1.9615548E-02;  0.0000000E+00; -3.2911691E-04;  9.9951239E+02;  1.0000000E-01; -4.0398859E+02;3;  1.2461905E+00;  0.0000000E+00;  8.6612588E-01;0; -4.5008138E-02;  3.9960621E+04;  0.0000000E+00;  1.7018627E-01;  4.0000000E+04;  0.0000000E+00;  4.0004180E+04; -4.6811327E-02;  0.0000000E+00;  1.8031881E-03;  6.0188928E+02;
  3.4163135E-01;  9.9999998E-03; -1.9002575E-01;4531; -1.9798238E-02;  0.0000000E+00; -2.9525903E-04;  9.9970514E+02;  1.0000000E-01; -2.4428938E+02;3;  1.2050735E+00;  0.0000000E+00;  8.2633644E-01;0; -4.4926278E-02;  3.9976648E+04;  0.0000000E+00;  3.8432565E-02;  4.0000000E+04;  0.0000000E+00;  4.0003219E+04; -4.6683032E-02;  0.0000000E+00;  1.7567544E-03;  4.1953619E+02;
  3.4160164E-01;  9.9999998E-03; -1.8002565E-01;4532; -1.9977389E-02;  0.0000000E+00; -2.5806797E-04;  9.9987854E+02;  1.0000000E-01; -1.0063913E+02;3;  1.1671814E+00;  0.0000000E+00;  7.8328174E-01;0; -4.4855852E-02;  3.9992254E+04;  0.0000000E+00; -8.0060244E-02;  4.0000000E+04;  0.0000000E+00;  4.0001680E+04; -4.6570882E-02;  0.0000000E+00;  1.7150310E-03;  2.4795343E+02;
  3.4157714E-01;  9.9999998E-03; -1.7002648E-01;4533; -2.0151457E-02;  0.0000000E+00; -2.2116810E-04;  1.0000278E+03;  1.0000000E-01;  2.3011694E+01;3;  1.1333429E+00;  0.0000000E+00;  7.3849595E-01;0; -4.4815134E-02;  4.0005586E+04;  0.0000000E+00; -1.7267942E-01;  4.0000000E+04;  0.0000000E+00;  4.0000023E+04; -4.6474051E-02;  0.0000000E+00;  1.6589150E-03;  2.4936719E+02;
  3.4157562E-01;  9.9999998E-03; -1.6002606E-01;4534; -2.0319607E-02;  0.0000000E+00; -1.8692452E-04;  1.0001395E+03;  1.0000000E-01;  1.1555228E+02;3;  1.1025759E+00;  0.0000000E+00;  6.9669807E-01;0; -4.4818785E-02;  4.0016160E+04;  0.0000000E+00; -2.3207681E-01;  4.0000000E+04;  0.0000000E+00;  3.9998359E+04; -4.6393711E-02;  0.0000000E+00;  1.5749255E-03;  4.0455463E+02;
  3.4160635E-01;  9.9999998E-03; -1.5002067E-01;4535; -2.0481188E-02;  0.0000000E+00; -1.5744954E-04;  1.0002101E+03;  1.0000000E-01;  1.7411853E+02;3;  1.0745356E+00;  0.0000000E+00;  6.5323037E-01;0; -4.4876460E-02;  4.0023441E+04;  0.0000000E+00; -2.5689337E-01;  4.0000000E+04;  0.0000000E+00;  3.9996715E+04; -4.6334311E-02;  0.0000000E+00;  1.4578528E-03;  5.6188275E+02;
  3.4166494E-01;  9.9999998E-03; -1.4000790E-01;4536; -2.0636003E-02;  0.0000000E+00; -1.3373012E-04;  1.0002416E+03;  1.0000000E-01;  2.0019186E+02;3;  1.0491061E+00;  0.0000000E+00;  6.1030000E-01;0; -4.4993836E-02;  4.0027113E+04;  0.0000000E+00; -2.5118864E-01;  4.0000000E+04;  0.0000000E+00;  3.9995605E+04; -4.6304606E-02;  0.0000000E+00;  1.3107701E-03;  6.7161230E+02;
  3.4172714E-01;  9.9999998E-03; -1.2999187E-01;4537; -2.0783687E-02;  0.0000000E+00; -1.1616517E-04;  1.0002385E+03;  1.0000000E-01;  1.9752528E+02;3;  1.0255743E+00;  0.0000000E+00;  5.6940776E-01;0; -4.5172933E-02;  4.0027262E+04;  0.0000000E+00; -2.2266404E-01;  4.0000000E+04;  0.0000000E+00;  3.9995145E+04; -4.6316311E-02;  0.0000000E+00;  1.1433760E-03;  7.1544910E+02;
  3.4177050E-01;  9.9999998E-03; -1.1997931E-01;4538; -2.0924397E-02;  0.0000000E+00; -1.0431339E-04;  1.0002058E+03;  1.0000000E-01;  1.7046431E+02;3;  1.0036796E+00;  0.0000000E+00;  5.2886331E-01;0; -4.5412045E-02;  4.0024586E+04;  0.0000000E+00; -1.8045741E-01;  4.0000000E+04;  0.0000000E+00;  3.9995016E+04; -4.6380382E-02;  0.0000000E+00;  9.6833560E-04;  6.8873596E+02;
  3.4179464E-01;  9.9999998E-03; -1.0997420E-01;4539; -2.1059474E-02;  0.0000000E+00; -9.6797921E-05;  1.0001490E+03;  1.0000000E-01;  1.2345330E+02;3;  9.8389506E-01;  0.0000000E+00;  4.8917326E-01;0; -4.5704544E-02;  4.0019453E+04;  0.0000000E+00; -1.3323259E-01;  4.0000000E+04;  0.0000000E+00;  3.9995605E+04; -4.6502843E-02;  0.0000000E+00;  7.9829857E-04;  5.9708868E+02;
  3.5133481E-01;  9.9999998E-03; -2.6999694E-01;4584; -1.8713726E-02;  0.0000000E+00; -2.9839759E-04;  9.9884467E+02;  1.0000000E-01; -9.5715814E+02;3;  1.6937141E+00;  0.0000000E+00;  1.1683117E+00;0; -4.3941177E-02;  3.9906301E+04;  0.0000000E+00;  2.7359313E-01;  4.0000000E+04;  0.0000000E+00;  4.0007363E+04; -4.6418052E-02;  0.0000000E+00;  2.4768759E-03;  1.0859946E+03;
  3.5142714E-01;  9.9999998E-03; -2.5999936E-01;4585; -1.8904477E-02;  0.0000000E+00; -3.0701456E-04;  9.9887964E+02;  1.0000000E-01; -9.2822064E+02;3;  1.6416209E+00;  0.0000000E+00;  1.1375015E+00;0; -4.3886375E-02;  3.9908789E+04;  0.0000000E+00;  3.8556221E-01;  4.0000000E+04;  0.0000000E+00;  4.0007445E+04; -4.6229683E-02;  0.0000000E+00;  2.3433066E-03;  1.1400123E+03;
  3.5153127E-01;  9.9999998E-03; -2.5000373E-01;4586; -1.9101283E-02;  0.0000000E+00; -2.9423795E-04;  9.9894214E+02;  1.0000000E-01; -8.7641968E+02;3;  1.5868597E+00;  0.0000000E+00;  1.1039183E+00;0; -4.4030283E-02;  3.9913996E+04;  0.0000000E+00;  4.3890262E-01;  4.0000000E+04;  0.0000000E+00;  4.0006348E+04; -4.6055023E-02;  0.0000000E+00;  2.0247384E-03;  1.0779758E+03;
  3.5160851E-01;  9.9999998E-03; -2.4001145E-01;4587; -1.9299293E-02;  0.0000000E+00; -2.7802985E-04;  9.9902686E+02;  1.0000000E-01; -8.0624878E+02;3;  1.5309598E+00;  0.0000000E+00;  1.0734543E+00;0; -4.4129174E-02;  3.9921914E+04;  0.0000000E+00;  4.3738100E-01;  4.0000000E+04;  0.0000000E+00;  4.0004773E+04; -4.5900550E-02;  0.0000000E+00;  1.7713739E-03;  9.1198682E+02;
  3.5164112E-01;  9.9999998E-03; -2.3002371E-01;4588; -1.9495031E-02;  0.0000000E+00; -2.7149374E-04;  9.9913892E+02;  1.0000000E-01; -7.1341193E+02;3;  1.4761134E+00;  0.0000000E+00;  1.0414224E+00;0; -4.4134866E-02;  3.9932645E+04;  0.0000000E+00;  3.8867095E-01;  4.0000000E+04;  0.0000000E+00;  4.0002766E+04; -4.5768779E-02;  0.0000000E+00;  1.6339141E-03;  6.9685168E+02;
  3.5164562E-01;  9.9999998E-03; -2.2003435E-01;4589; -1.9687204E-02;  0.0000000E+00; -2.8001130E-04;  9.9928876E+02;  1.0000000E-01; -5.8926727E+02;3;  1.4231312E+00;  0.0000000E+00;  1.0159211E+00;0; -4.4084311E-02;  3.9944930E+04;  0.0000000E+00;  3.0292150E-01;  4.0000000E+04;  0.0000000E+00;  4.0002191E+04; -4.5656428E-02;  0.0000000E+00;  1.5721162E-03;  5.4961652E+02;
  3.5163477E-01;  9.9999998E-03; -2.1003526E-01;4590; -1.9876426E-02;  0.0000000E+00; -2.8047050E-04;  9.9947278E+02;  1.0000000E-01; -4.3677777E+02;3;  1.3737543E+00;  0.0000000E+00;  9.8435616E-01;0; -4.4047907E-02;  3.9958727E+04;  0.0000000E+00;  1.9316629E-01;  4.0000000E+04;  0.0000000E+00;  4.0002793E+04; -4.5560807E-02;  0.0000000E+00;  1.5128988E-03;  4.7202429E+02;
  3.5161585E-01;  9.9999998E-03; -2.0003028E-01;4591; -2.0062957E-02;  0.0000000E+00; -2.6231114E-04;  9.9965314E+02;  1.0000000E-01; -2.8734988E+02;3;  1.3279986E+00;  0.0000000E+00;  9.4628525E-01;0; -4.4019811E-02;  3.9973320E+04;  0.0000000E+00;  7.3227495E-02;  4.0000000E+04;  0.0000000E+00;  4.0002594E+04; -4.5479815E-02;  0.0000000E+00;  1.4600059E-03;  3.6087967E+02;
  3.5159567E-01;  9.9999998E-03; -1.9002551E-01;4592; -2.0245865E-02;  0.0000000E+00; -2.3543440E-04;  9.9981738E+02;  1.0000000E-01; -1.5130437E+02;3;  1.2872175E+00;  0.0000000E+00;  9.0195578E-01;0; -4.3989085E-02;  3.9987406E+04;  0.0000000E+00; -4.2320892E-02;  4.0000000E+04;  0.0000000E+00;  4.0001516E+04; -4.5411348E-02;  0.0000000E+00;  1.4222636E-03;  2.0415982E+02;
  3.5158333E-01;  9.9999998E-03; -1.8002246E-01;4593; -2.0424157E-02;  0.0000000E+00; -2.0619269E-04;  9.9996265E+02;  1.0000000E-01; -3.0962088E+01;3;  1.2495048E+00;  0.0000000E+00;  8.5962158E-01;0; -4.3968625E-02;  4.0000562E+04;  0.0000000E+00; -1.4001894E-01;  4.0000000E+04;  0.0000000E+00;  3.9999895E+04; -4.5353893E-02;  0.0000000E+00;  1.3852692E-03;  2.0442377E+02;
  3.5158828E-01;  9.9999998E-03; -1.7001912E-01;4594; -2.0596670E-02;  0.0000000E+00; -1.7845344E-04;  1.0000843E+03;  1.0000000E-01;  6.9825188E+01;3;  1.2148155E+00;  0.0000000E+00;  8.1557959E-01;0; -4.3975018E-02;  4.0011805E+04;  0.0000000E+00; -2.0970149E-01;  4.0000000E+04;  0.0000000E+00;  3.9998133E+04; -4.5307271E-02;  0.0000000E+00;  1.3322541E-03;  3.8493741E+02;
  3.5161424E-01;  9.9999998E-03; -1.6001199E-01;4595; -2.0762978E-02;  0.0000000E+00; -1.5316698E-04;  1.0001701E+03;  1.0000000E-01;  1.4093428E+02;3;  1.1840910E+00;  0.0000000E+00;  7.6776272E-01;0; -4.4021741E-02;  4.0020230E+04;  0.0000000E+00; -2.4634461E-01;  4.0000000E+04;  0.0000000E+00;  3.9996664E+04; -4.5273747E-02;  0.0000000E+00;  1.2520063E-03;  5.6491998E+02;
  3.5165557E-01;  9.9999998E-03; -1.4999995E-01;4596; -2.0922882E-02;  0.0000000E+00; -1.3167478E-04;  1.0002304E+03;  1.0000000E-01;  1.9090819E+02;3;  1.1554484E+00;  0.0000000E+00;  7.2175926E-01;0; -4.4117730E-02;  4.0026254E+04;  0.0000000E+00; -2.5074098E-01;  4.0000000E+04;  0.0000000E+00;  3.9995391E+04; -4.5258820E-02;  0.0000000E+00;  1.1410910E-03;  6.9897931E+02;
  3.5169840E-01;  9.9999998E-03; -1.3998722E-01;4597; -2.1076472E-02;  0.0000000E+00; -1.1470109E-04;  1.0002590E+03;  1.0000000E-01;  2.1461122E+02;3;  1.1290642E+00;  0.0000000E+00;  6.7620951E-01;0; -4.4267271E-02;  4.0029262E+04;  0.0000000E+00; -2.2868855E-01;  4.0000000E+04;  0.0000000E+00;  3.9994570E+04; -4.5270663E-02;  0.0000000E+00;  1.0033912E-03;  7.6958789E+02;
  3.5172912E-01;  9.9999998E-03; -1.2997946E-01;4598; -2.1224359E-02;  0.0000000E+00; -1.0230087E-04;  1.0002622E+03;  1.0000000E-01;  2.1727780E+02;3;  1.1047634E+00;  0.0000000E+00;  6.3139248E-01;0; -4.4470429E-02;  4.0029688E+04;  0.0000000E+00; -1.8894151E-01;  4.0000000E+04;  0.0000000E+00;  3.9994578E+04; -4.5318492E-02;  0.0000000E+00;  8.4806071E-04;  7.7099811E+02;
  3.5174793E-01;  9.9999998E-03; -1.1997610E-01;4599; -2.1367939E-02;  0.0000000E+00; -9.3692470E-05;  1.0002477E+03;  1.0000000E-01;  2.0522876E+02;3;  1.0833987E+00;  0.0000000E+00;  5.8530468E-01;0; -4.4723209E-02;  4.0028016E+04;  0.0000000E+00; -1.4083907E-01;  4.0000000E+04;  0.0000000E+00;  3.9994656E+04; -4.5409258E-02;  0.0000000E+00;  6.8605115E-04;  7.0684937E+02;
  3.5175848E-01;  9.9999998E-03; -1.0997549E-01;4600; -2.1508675E-02;  0.0000000E+00; -8.7604232E-05;  1.0002138E+03;  1.0000000E-01;  1.7718018E+02;3;  1.0634575E+00;  0.0000000E+00;  5.4011536E-01;0; -4.5018733E-02;  4.0024629E+04;  0.0000000E+00; -9.2493095E-02;  4.0000000E+04;  0.0000000E+00;  3.9995484E+04; -4.5546979E-02;  0.0000000E+00;  5.2824774E-04;  5.8848065E+02;
  3.6134002E-01;  9.9999998E-03; -2.7000090E-01;4645; -1.9106308E-02;  0.0000000E+00; -1.7952219E-04;  9.9885217E+02;  1.0000000E-01; -9.5093610E+02;3;  1.7911090E+00;  0.0000000E+00;  1.2456948E+00;0; -4.2847447E-02;  3.9905262E+04;  0.0000000E+00;  2.4802132E-01;  4.0000000E+04;  0.0000000E+00;  4.0007047E+04; -4.4689801E-02;  0.0000000E+00;  1.8423552E-03;  1.0522617E+03;
  3.6141908E-01;  9.9999998E-03; -2.6000401E-01;4646; -1.9303631E-02;  0.0000000E+00; -1.9324385E-04;  9.9892010E+02;  1.0000000E-01; -8.9469073E+02;3;  1.7305132E+00;  0.0000000E+00;  1.2140080E+00;0; -4.2809665E-02;  3.9911273E+04;  0.0000000E+00;  3.2574117E-01;  4.0000000E+04;  0.0000000E+00;  4.0006672E+04; -4.4579890E-02;  0.0000000E+00;  1.7702243E-03;  1.0367228E+03;
  3.6150423E-01;  9.9999998E-03; -2.5000927E-01;4647; -1.9504508E-02;  0.0000000E+00; -1.8343782E-04;  9.9901227E+02;  1.0000000E-01; -8.1829785E+02;3;  1.6715754E+00;  0.0000000E+00;  1.1805122E+00;0; -4.2985264E-02;  3.9919445E+04;  0.0000000E+00;  3.5704839E-01;  4.0000000E+04;  0.0000000E+00;  4.0005523E+04; -4.4477869E-02;  0.0000000E+00;  1.4926032E-03;  9.0983545E+02;
  3.6156666E-01;  9.9999998E-03; -2.4001822E-01;4648; -1.9705560E-02;  0.0000000E+00; -1.6789132E-04;  9.9911304E+02;  1.0000000E-01; -7.3484344E+02;3;  1.6143765E+00;  0.0000000E+00;  1.1465951E+00;0; -4.3121614E-02;  3.9929516E+04;  0.0000000E+00;  3.4494707E-01;  4.0000000E+04;  0.0000000E+00;  4.0003379E+04; -4.4389475E-02;  0.0000000E+00;  1.2678619E-03;  6.9274994E+02;
  3.6159509E-01;  9.9999998E-03; -2.3003098E-01;4649; -1.9904319E-02;  0.0000000E+00; -1.6881661E-04;  9.9923969E+02;  1.0000000E-01; -6.2990808E+02;3;  1.5595468E+00;  0.0000000E+00;  1.1176693E+00;0; -4.3135393E-02;  3.9941184E+04;  0.0000000E+00;  2.9543623E-01;  4.0000000E+04;  0.0000000E+00;  4.0001266E+04; -4.4317551E-02;  0.0000000E+00;  1.1821568E-03;  4.8091867E+02;
  3.6160085E-01;  9.9999998E-03; -2.2003952E-01;4650; -2.0100037E-02;  0.0000000E+00; -1.8428343E-04;  9.9939490E+02;  1.0000000E-01; -5.0131915E+02;3;  1.5067199E+00;  0.0000000E+00;  1.0937057E+00;0; -4.3108311E-02;  3.9953953E+04;  0.0000000E+00;  2.1687137E-01;  4.0000000E+04;  0.0000000E+00;  4.0001141E+04; -4.4260748E-02;  0.0000000E+00;  1.1524354E-03;  3.6052429E+02;
  3.6159110E-01;  9.9999998E-03; -2.1003787E-01;4651; -2.0292433E-02;  0.0000000E+00; -1.8850435E-04;  9.9956958E+02;  1.0000000E-01; -3.5658252E+02;3;  1.4571244E+00;  0.0000000E+00;  1.0637912E+00;0; -4.3109182E-02;  3.9967309E+04;  0.0000000E+00;  1.2036072E-01;  4.0000000E+04;  0.0000000E+00;  4.0001590E+04; -4.4217996E-02;  0.0000000E+00;  1.1088147E-03;  2.9077231E+02;
  3.6157525E-01;  9.9999998E-03; -2.0003083E-01;4652; -2.0481136E-02;  0.0000000E+00; -1.7594382E-04;  9.9972943E+02;  1.0000000E-01; -2.2414182E+02;3;  1.4118866E+00;  0.0000000E+00;  1.0236036E+00;0; -4.3120425E-02;  3.9980500E+04;  0.0000000E+00;  1.8505882E-02;  4.0000000E+04;  0.0000000E+00;  4.0001383E+04; -4.4187211E-02;  0.0000000E+00;  1.0667850E-03;  1.8254189E+02;
  3.6156470E-01;  9.9999998E-03; -1.9002371E-01;4653; -2.0665055E-02;  0.0000000E+00; -1.5685709E-04;  9.9987329E+02;  1.0000000E-01; -1.0498469E+02;3;  1.3708224E+00;  0.0000000E+00;  9.7986501E-01;0; -4.3130826E-02;  3.9992984E+04;  0.0000000E+00; -7.5940087E-02;  4.0000000E+04;  0.0000000E+00;  4.0000059E+04; -4.4166047E-02;  0.0000000E+00;  1.0352202E-03;  1.1382117E+02;
  3.6156639E-01;  9.9999998E-03; -1.8001680E-01;4654; -2.0843357E-02;  0.0000000E+00; -1.3687742E-04;  9.9999805E+02;  1.0000000E-01; -1.6295836E+00;3;  1.3337750E+00;  0.0000000E+00;  9.3366325E-01;0; -4.3152191E-02;  4.0004344E+04;  0.0000000E+00; -1.5172715E-01;  4.0000000E+04;  0.0000000E+00;  3.9998504E+04; -4.4153221E-02;  0.0000000E+00;  1.0010320E-03;  2.9627411E+02;
  3.6158368E-01;  9.9999998E-03; -1.7000827E-01;4655; -2.1015471E-02;  0.0000000E+00; -1.1827997E-04;  1.0000936E+03;  1.0000000E-01;  7.7528671E+01;3;  1.3000051E+00;  0.0000000E+00;  8.8708752E-01;0; -4.3198831E-02;  4.0013871E+04;  0.0000000E+00; -2.0075388E-01;  4.0000000E+04;  0.0000000E+00;  3.9996887E+04; -4.4148855E-02;  0.0000000E+00;  9.5002435E-04;  5.0023944E+02;
  3.6161602E-01;  9.9999998E-03; -1.5999697E-01;4656; -2.1181375E-02;  0.0000000E+00; -1.0228125E-04;  1.0001737E+03;  1.0000000E-01;  1.4389717E+02;3;  1.2684844E+00;  0.0000000E+00;  8.4095037E-01;0; -4.3281700E-02;  4.0021145E+04;  0.0000000E+00; -2.1964392E-01;  4.0000000E+04;  0.0000000E+00;  3.9995352E+04; -4.4155031E-02;  0.0000000E+00;  8.7333121E-04;  6.6511896E+02;
  3.6165157E-01;  9.9999998E-03; -1.4998601E-01;4657; -2.1341296E-02;  0.0000000E+00; -8.9248126E-05;  1.0002255E+03;  1.0000000E-01;  1.8685892E+02;3;  1.2393061E+00;  0.0000000E+00;  7.9358262E-01;0; -4.3407843E-02;  4.0026480E+04;  0.0000000E+00; -2.1039613E-01;  4.0000000E+04;  0.0000000E+00;  3.9994480E+04; -4.4176754E-02;  0.0000000E+00;  7.6891150E-04;  7.7024896E+02;
  3.6167765E-01;  9.9999998E-03; -1.3997985E-01;4658; -2.1495879E-02;  0.0000000E+00; -7.9440746E-05;  1.0002599E+03;  1.0000000E-01;  2.1530255E+02;3;  1.2128296E+00;  0.0000000E+00;  7.4490112E-01;0; -4.3579739E-02;  4.0029344E+04;  0.0000000E+00; -1.7952202E-01;  4.0000000E+04;  0.0000000E+00;  3.9994039E+04; -4.4220548E-02;  0.0000000E+00;  6.4080936E-04;  8.0762463E+02;
  3.6169544E-01;  9.9999998E-03; -1.2997772E-01;4659; -2.1646624E-02;  0.0000000E+00; -7.2496892E-05;  1.0002729E+03;  1.0000000E-01;  2.2616644E+02;3;  1.1886714E+00;  0.0000000E+00;  6.9447005E-01;0; -4.3795429E-02;  4.0030500E+04;  0.0000000E+00; -1.3594109E-01;  4.0000000E+04;  0.0000000E+00;  3.9994070E+04; -4.4292301E-02;  0.0000000E+00;  4.9687113E-04;  7.8014813E+02;
  3.6170816E-01;  9.9999998E-03; -1.1997791E-01;4660; -2.1795092E-02;  0.0000000E+00; -6.7351873E-05;  1.0002745E+03;  1.0000000E-01;  2.2735159E+02;3;  1.1665027E+00;  0.0000000E+00;  6.4640552E-01;0; -4.4050004E-02;  4.0029738E+04;  0.0000000E+00; -8.8592686E-02;  4.0000000E+04;  0.0000000E+00;  3.9994820E+04; -4.4396661E-02;  0.0000000E+00;  3.4665555E-04;  6.9716809E+02;
  3.6171705E-01;  9.9999998E-03; -1.0997950E-01;4661; -2.1942286E-02;  0.0000000E+00; -6.3191583E-05;  1.0002656E+03;  1.0000000E-01;  2.2004315E+02;3;  1.1469609E+00;  0.0000000E+00;  5.9684277E-01;0; -4.4336800E-02;  4.0028000E+04;  0.0000000E+00; -4.4670254E-02;  4.0000000E+04;  0.0000000E+00;  3.9995652E+04; -4.4536278E-02;  0.0000000E+00;  1.9947971E-04;  5.7293463E+02;
  3.7132370E-01;  9.9999998E-03; -2.7000359E-01;4706; -1.9491132E-02;  0.0000000E+00; -5.3933840E-05;  9.9881885E+02;  1.0000000E-01; -9.7854022E+02;3;  1.8747128E+00;  0.0000000E+00;  1.3107204E+00;0; -4.1881770E-02;  3.9900438E+04;  0.0000000E+00;  1.6358441E-01;  4.0000000E+04;  0.0000000E+00;  4.0007625E+04; -4.3172330E-02;  0.0000000E+00;  1.2905584E-03;  1.0701886E+03;
  3.7138519E-01;  9.9999998E-03; -2.6000699E-01;4707; -1.9691801E-02;  0.0000000E+00; -7.2655646E-05;  9.9891852E+02;  1.0000000E-01; -8.9597467E+02;3;  1.8137622E+00;  0.0000000E+00;  1.2860218E+00;0; -4.1851822E-02;  3.9909250E+04;  0.0000000E+00;  2.2809887E-01;  4.0000000E+04;  0.0000000E+00;  4.0006828E+04; -4.3112781E-02;  0.0000000E+00;  1.2609569E-03;  9.9612140E+02;
  3.7144873E-01;  9.9999998E-03; -2.5001207E-01;4708; -1.9893873E-02;  0.0000000E+00; -6.9369620E-05;  9.9903052E+02;  1.0000000E-01; -8.0318713E+02;3;  1.7551609E+00;  0.0000000E+00;  1.2520387E+00;0; -4.2032622E-02;  3.9919652E+04;  0.0000000E+00;  2.5597849E-01;  4.0000000E+04;  0.0000000E+00;  4.0005434E+04; -4.3060042E-02;  0.0000000E+00;  1.0274198E-03;  8.4002161E+02;
  3.7149984E-01;  9.9999998E-03; -2.4002062E-01;4709; -2.0095564E-02;  0.0000000E+00; -5.6162626E-05;  9.9914868E+02;  1.0000000E-01; -7.0531342E+02;3;  1.6984626E+00;  0.0000000E+00;  1.2183692E+00;0; -4.2203378E-02;  3.9931113E+04;  0.0000000E+00;  2.4821077E-01;  4.0000000E+04;  0.0000000E+00;  4.0003203E+04; -4.3017432E-02;  0.0000000E+00;  8.1405579E-04;  5.9210144E+02;
  3.7152898E-01;  9.9999998E-03; -2.3003210E-01;4710; -2.0295443E-02;  0.0000000E+00; -5.7857000E-05;  9.9927997E+02;  1.0000000E-01; -5.9652637E+02;3;  1.6438144E+00;  0.0000000E+00;  1.1909568E+00;0; -4.2252362E-02;  3.9943484E+04;  0.0000000E+00;  2.1004008E-01;  4.0000000E+04;  0.0000000E+00;  4.0001277E+04; -4.2987589E-02;  0.0000000E+00;  7.3522847E-04;  3.6963528E+02;
  3.7154222E-01;  9.9999998E-03; -2.2003871E-01;4711; -2.0493023E-02;  0.0000000E+00; -7.4075957E-05;  9.9943689E+02;  1.0000000E-01; -4.6650531E+02;3;  1.5913992E+00;  0.0000000E+00;  1.1672727E+00;0; -4.2256910E-02;  3.9956285E+04;  0.0000000E+00;  1.4899750E-01;  4.0000000E+04;  0.0000000E+00;  4.0000871E+04; -4.2970359E-02;  0.0000000E+00;  7.1344984E-04;  2.6515509E+02;
  3.7154764E-01;  9.9999998E-03; -2.1003570E-01;4712; -2.0687876E-02;  0.0000000E+00; -7.9448582E-05;  9.9959912E+02;  1.0000000E-01; -3.3213876E+02;3;  1.5427876E+00;  0.0000000E+00;  1.1373174E+00;0; -4.2288352E-02;  3.9969406E+04;  0.0000000E+00;  7.4530758E-02;  4.0000000E+04;  0.0000000E+00;  4.0001320E+04; -4.2964693E-02;  0.0000000E+00;  6.7634269E-04;  2.0415862E+02;
  3.7155089E-01;  9.9999998E-03; -2.0002693E-01;4713; -2.0878689E-02;  0.0000000E+00; -7.2263516E-05;  9.9974683E+02;  1.0000000E-01; -2.0977185E+02;3;  1.4986017E+00;  0.0000000E+00;  1.0956614E+00;0; -4.2328820E-02;  3.9981594E+04;  0.0000000E+00; -3.0045020E-03;  4.0000000E+04;  0.0000000E+00;  4.0000598E+04; -4.2969309E-02;  0.0000000E+00;  6.4048759E-04;  9.5418488E+01;
  3.7155861E-01;  9.9999998E-03; -1.9001667E-01;4714; -2.1064118E-02;  0.0000000E+00; -6.0749539E-05;  9.9987457E+02;  1.0000000E-01; -1.0389829E+02;3;  1.4579953E+00;  0.0000000E+00;  1.0508863E+00;0; -4.2371541E-02;  3.9993145E+04;  0.0000000E+00; -7.3198423E-02;  4.0000000E+04;  0.0000000E+00;  3.9999285E+04; -4.2982388E-02;  0.0000000E+00;  6.1084755E-04;  1.3700954E+02;
  3.7157416E-01;  9.9999998E-03; -1.8000570E-01;4715; -2.1243284E-02;  0.0000000E+00; -4.9665810E-05;  9.9998108E+02;  1.0000000E-01; -1.5653878E+01;3;  1.4210306E+00;  0.0000000E+00;  1.0050831E+00;0; -4.2426888E-02;  4.0003168E+04;  0.0000000E+00; -1.2696435E-01;  4.0000000E+04;  0.0000000E+00;  3.9997777E+04; -4.3002851E-02;  0.0000000E+00;  5.7596428E-04;  3.4940753E+02;
  3.7159693E-01;  9.9999998E-03; -1.6999403E-01;4716; -2.1416010E-02;  0.0000000E+00; -4.0305124E-05;  1.0000667E+03;  1.0000000E-01;  5.5208317E+01;3;  1.3873791E+00;  0.0000000E+00;  9.5722771E-01;0; -4.2506393E-02;  4.0011957E+04;  0.0000000E+00; -1.5792988E-01;  4.0000000E+04;  0.0000000E+00;  3.9996246E+04; -4.3030623E-02;  0.0000000E+00;  5.2423129E-04;  5.4615045E+02;
  3.7162080E-01;  9.9999998E-03; -1.5998444E-01;4717; -2.1582527E-02;  0.0000000E+00; -3.3123481E-05;  1.0001393E+03;  1.0000000E-01;  1.1545352E+02;3;  1.3560736E+00;  0.0000000E+00;  9.0845186E-01;0; -4.2618260E-02;  4.0018629E+04;  0.0000000E+00; -1.6378736E-01;  4.0000000E+04;  0.0000000E+00;  3.9995020E+04; -4.3067340E-02;  0.0000000E+00;  4.4907889E-04;  6.9286792E+02;
  3.7164059E-01;  9.9999998E-03; -1.4997968E-01;4718; -2.1743705E-02;  0.0000000E+00; -2.8140350E-05;  1.0001949E+03;  1.0000000E-01;  1.6147691E+02;3;  1.3271502E+00;  0.0000000E+00;  8.5962093E-01;0; -4.2766787E-02;  4.0023652E+04;  0.0000000E+00; -1.4688475E-01;  4.0000000E+04;  0.0000000E+00;  3.9994355E+04; -4.3116026E-02;  0.0000000E+00;  3.4923808E-04;  7.7477448E+02;
  3.7165585E-01;  9.9999998E-03; -1.3997875E-01;4719; -2.1901000E-02;  0.0000000E+00; -2.5086474E-05;  1.0002281E+03;  1.0000000E-01;  1.8893292E+02;3;  1.3003167E+00;  0.0000000E+00;  8.1120878E-01;0; -4.2952236E-02;  4.0026711E+04;  0.0000000E+00; -1.1360151E-01;  4.0000000E+04;  0.0000000E+00;  3.9994031E+04; -4.3180373E-02;  0.0000000E+00;  2.2813707E-04;  7.9215948E+02;
  3.7166750E-01;  9.9999998E-03; -1.2998009E-01;4720; -2.2055894E-02;  0.0000000E+00; -2.3455623E-05;  1.0002534E+03;  1.0000000E-01;  2.0987061E+02;3;  1.2761548E+00;  0.0000000E+00;  7.6082796E-01;0; -4.3171432E-02;  4.0028422E+04;  0.0000000E+00; -7.2332203E-02;  4.0000000E+04;  0.0000000E+00;  3.9994109E+04; -4.3264151E-02;  0.0000000E+00;  9.2718961E-05;  7.5360742E+02;
  3.7167743E-01;  9.9999998E-03; -1.1998269E-01;4721; -2.2209626E-02;  0.0000000E+00; -2.2336750E-05;  1.0002679E+03;  1.0000000E-01;  2.2191965E+02;3;  1.2546344E+00;  0.0000000E+00;  7.0859611E-01;0; -4.3419093E-02;  4.0028836E+04;  0.0000000E+00; -3.1051230E-02;  4.0000000E+04;  0.0000000E+00;  3.9994734E+04; -4.3370288E-02;  0.0000000E+00; -4.8805854E-05;  6.7130084E+02;
  3.7168488E-01;  9.9999998E-03; -1.0998582E-01;4722; -2.2362791E-02;  0.0000000E+00; -2.0943529E-05;  1.0002772E+03;  1.0000000E-01;  2.2972189E+02;3;  1.2358987E+00;  0.0000000E+00;  6.5437686E-01;0; -4.3688525E-02;  4.0028555E+04;  0.0000000E+00;  4.3130000E-03;  4.0000000E+04;  0.0000000E+00;  3.9995785E+04; -4.3499842E-02;  0.0000000E+00; -1.8868323E-04;  5.5988800E+02;
  3.8131383E-01;  9.9999998E-03; -2.7000493E-01;4767; -1.9876214E-02;  0.0000000E+00;  7.7251687E-05;  9.9874048E+02;  1.0000000E-01; -1.0434767E+03;3;  1.9575667E+00;  0.0000000E+00;  1.3737690E+00;0; -4.1022383E-02;  3.9891926E+04;  0.0000000E+00;  6.7229211E-02;  4.0000000E+04;  0.0000000E+00;  4.0008676E+04; -4.1853566E-02;  0.0000000E+00;  8.3118322E-04;  1.1780394E+03;
  3.8135254E-01;  9.9999998E-03; -2.6000810E-01;4768; -2.0076880E-02;  0.0000000E+00;  5.4990702E-05;  9.9886115E+02;  1.0000000E-01; -9.4352887E+02;3;  1.8971130E+00;  0.0000000E+00;  1.3517262E+00;0; -4.1016418E-02;  3.9902555E+04;  0.0000000E+00;  1.2325382E-01;  4.0000000E+04;  0.0000000E+00;  4.0007684E+04; -4.1825820E-02;  0.0000000E+00;  8.0940180E-04;  1.0668518E+03;
  3.8139915E-01;  9.9999998E-03; -2.5001231E-01;4769; -2.0278107E-02;  0.0000000E+00;  4.9408631E-05;  9.9899280E+02;  1.0000000E-01; -8.3444556E+02;3;  1.8387461E+00;  0.0000000E+00;  1.3239567E+00;0; -4.1181758E-02;  3.9914336E+04;  0.0000000E+00;  1.5101226E-01;  4.0000000E+04;  0.0000000E+00;  4.0006262E+04; -4.1803852E-02;  0.0000000E+00;  6.2209211E-04;  9.0420654E+02;
  3.8144761E-01;  9.9999998E-03; -2.4001874E-01;4770; -2.0478969E-02;  0.0000000E+00;  5.7341051E-05;  9.9912408E+02;  1.0000000E-01; -7.2565851E+02;3;  1.7825727E+00;  0.0000000E+00;  1.2892445E+00;0; -4.1376237E-02;  3.9926684E+04;  0.0000000E+00;  1.5196213E-01;  4.0000000E+04;  0.0000000E+00;  4.0004453E+04; -4.1790023E-02;  0.0000000E+00;  4.1378793E-04;  6.6644745E+02;
  3.8148499E-01;  9.9999998E-03; -2.3002738E-01;4771; -2.0678615E-02;  0.0000000E+00;  5.8509446E-05;  9.9926068E+02;  1.0000000E-01; -6.1252588E+02;3;  1.7288013E+00;  0.0000000E+00;  1.2580774E+00;0; -4.1478369E-02;  3.9939734E+04;  0.0000000E+00;  1.3077167E-01;  4.0000000E+04;  0.0000000E+00;  4.0002531E+04; -4.1787200E-02;  0.0000000E+00;  3.0882994E-04;  4.2216248E+02;
  3.8151133E-01;  9.9999998E-03; -2.2003157E-01;4772; -2.0876864E-02;  0.0000000E+00;  4.7278390E-05;  9.9941559E+02;  1.0000000E-01; -4.8418384E+02;3;  1.6776241E+00;  0.0000000E+00;  1.2354550E+00;0; -4.1525342E-02;  3.9952680E+04;  0.0000000E+00;  9.2826881E-02;  4.0000000E+04;  0.0000000E+00;  4.0001773E+04; -4.1795824E-02;  0.0000000E+00;  2.7048314E-04;  3.0921030E+02;
  3.8153237E-01;  9.9999998E-03; -2.1002682E-01;4773; -2.1072870E-02;  0.0000000E+00;  4.2411608E-05;  9.9956940E+02;  1.0000000E-01; -3.5673065E+02;3;  1.6305246E+00;  0.0000000E+00;  1.2033602E+00;0; -4.1584376E-02;  3.9965488E+04;  0.0000000E+00;  4.4885390E-02;  4.0000000E+04;  0.0000000E+00;  4.0001574E+04; -4.1815355E-02;  0.0000000E+00;  2.3097821E-04;  2.4655495E+02;
  3.8155124E-01;  9.9999998E-03; -2.0001650E-01;4774; -2.1264859E-02;  0.0000000E+00;  4.5753233E-05;  9.9970380E+02;  1.0000000E-01; -2.4537578E+02;3;  1.5870173E+00;  0.0000000E+00;  1.1642321E+00;0; -4.1649427E-02;  3.9977395E+04;  0.0000000E+00; -5.3429003E-03;  4.0000000E+04;  0.0000000E+00;  4.0000625E+04; -4.1844394E-02;  0.0000000E+00;  1.9496641E-04;  1.1470169E+02;
  3.8157028E-01;  9.9999998E-03; -1.9000457E-01;4775; -2.1451227E-02;  0.0000000E+00;  5.0434774E-05;  9.9981927E+02;  1.0000000E-01; -1.4972417E+02;3;  1.5476832E+00;  0.0000000E+00;  1.1173496E+00;0; -4.1719139E-02;  3.9988219E+04;  0.0000000E+00; -4.9966369E-02;  4.0000000E+04;  0.0000000E+00;  3.9999121E+04; -4.1881632E-02;  0.0000000E+00;  1.6249315E-04;  1.1643874E+02;
  3.8159060E-01;  9.9999998E-03; -1.7999329E-01;4776; -2.1631259E-02;  0.0000000E+00;  5.3296957E-05;  9.9991663E+02;  1.0000000E-01; -6.9084465E+01;3;  1.5110495E+00;  0.0000000E+00;  1.0685346E+00;0; -4.1802838E-02;  3.9997855E+04;  0.0000000E+00; -8.2066126E-02;  4.0000000E+04;  0.0000000E+00;  3.9997508E+04; -4.1925691E-02;  0.0000000E+00;  1.2285166E-04;  3.3378430E+02;
  3.8160941E-01;  9.9999998E-03; -1.6998471E-01;4777; -2.1804949E-02;  0.0000000E+00;  5.4075106E-05;  1.0000048E+03;  1.0000000E-01;  3.9505055E+00;3;  1.4772047E+00;  0.0000000E+00;  1.0184669E+00;0; -4.1909229E-02;  4.0005980E+04;  0.0000000E+00; -9.6907921E-02;  4.0000000E+04;  0.0000000E+00;  3.9995973E+04; -4.1975945E-02;  0.0000000E+00;  6.6717315E-05;  5.2437573E+02;
  3.8162291E-01;  9.9999998E-03; -1.5998039E-01;4778; -2.1972977E-02;  0.0000000E+00;  5.3246426E-05;  1.0000707E+03;  1.0000000E-01;  5.8566246E+01;3;  1.4459555E+00;  0.0000000E+00;  9.6855509E-01;0; -4.2043652E-02;  4.0012633E+04;  0.0000000E+00; -9.3006194E-02;  4.0000000E+04;  0.0000000E+00;  3.9994891E+04; -4.2032883E-02;  0.0000000E+00; -1.0771421E-05;  6.5736182E+02;
  3.8163346E-01;  9.9999998E-03; -1.4997986E-01;4779; -2.2136694E-02;  0.0000000E+00;  5.1228784E-05;  1.0001238E+03;  1.0000000E-01;  1.0251562E+02;3;  1.4173511E+00;  0.0000000E+00;  9.1985947E-01;0; -4.2207811E-02;  4.0017449E+04;  0.0000000E+00; -7.2638892E-02;  4.0000000E+04;  0.0000000E+00;  3.9994180E+04; -4.2097405E-02;  0.0000000E+00; -1.1040769E-04;  7.2697156E+02;
  3.8164392E-01;  9.9999998E-03; -1.3998193E-01;4780; -2.2297630E-02;  0.0000000E+00;  4.8382291E-05;  1.0001668E+03;  1.0000000E-01;  1.3816893E+02;3;  1.3912380E+00;  0.0000000E+00;  8.7313497E-01;0; -4.2400181E-02;  4.0020969E+04;  0.0000000E+00; -4.1442554E-02;  4.0000000E+04;  0.0000000E+00;  3.9994391E+04; -4.2171087E-02;  0.0000000E+00; -2.2909553E-04;  7.4004285E+02;
  3.8165313E-01;  9.9999998E-03; -1.2998550E-01;4781; -2.2457009E-02;  0.0000000E+00;  4.5242516E-05;  1.0002001E+03;  1.0000000E-01;  1.6582246E+02;3;  1.3676468E+00;  0.0000000E+00;  8.2614726E-01;0; -4.2616747E-02;  4.0023070E+04;  0.0000000E+00; -6.6557052E-03;  4.0000000E+04;  0.0000000E+00;  3.9994500E+04; -4.2256024E-02;  0.0000000E+00; -3.6072396E-04;  7.0771088E+02;
  3.8166028E-01;  9.9999998E-03; -1.1998974E-01;4782; -2.2615600E-02;  0.0000000E+00;  4.2358839E-05;  1.0002249E+03;  1.0000000E-01;  1.8626634E+02;3;  1.3470908E+00;  0.0000000E+00;  7.7385890E-01;0; -4.2851783E-02;  4.0024414E+04;  0.0000000E+00;  2.5205554E-02;  4.0000000E+04;  0.0000000E+00;  3.9995047E+04; -4.2353433E-02;  0.0000000E+00; -4.9835118E-04;  6.4239398E+02;
  3.8166609E-01;  9.9999998E-03; -1.0999384E-01;4783; -2.2773631E-02;  0.0000000E+00;  4.0243514E-05;  1.0002446E+03;  1.0000000E-01;  2.0266093E+02;3;  1.3294142E+00;  0.0000000E+00;  7.1557057E-01;0; -4.3099012E-02;  4.0025477E+04;  0.0000000E+00;  4.9741141E-02;  4.0000000E+04;  0.0000000E+00;  3.9995750E+04; -4.2463213E-02;  0.0000000E+00; -6.3579780E-04;  5.5715320E+02;
  3.9132711E-01;  9.9999998E-03; -2.7000520E-01;4828; -2.0267472E-02;  0.0000000E+00;  2.1635638E-04;  9.9863342E+02;  1.0000000E-01; -1.1321654E+03;3;  2.0406566E+00;  0.0000000E+00;  1.4387223E+00;0; -4.0276088E-02;  3.9880762E+04;  0.0000000E+00; -1.8737882E-02;  4.0000000E+04;  0.0000000E+00;  4.0009891E+04; -4.0705364E-02;  0.0000000E+00;  4.2927495E-04;  1.3496461E+03;
  3.9135283E-01;  9.9999998E-03; -2.6000780E-01;4829; -2.0465806E-02;  0.0000000E+00;  1.9114481E-04;  9.9876398E+02;  1.0000000E-01; -1.0240204E+03;3;  1.9808366E+00;  0.0000000E+00;  1.4115218E+00;0; -4.0294517E-02;  3.9892465E+04;  0.0000000E+00;  2.4561480E-02;  4.0000000E+04;  0.0000000E+00;  4.0009129E+04; -4.0694159E-02;  0.0000000E+00;  3.9964032E-04;  1.2265444E+03;
  3.9138991E-01;  9.9999998E-03; -2.5001067E-01;4830; -2.0664740E-02;  0.0000000E+00;  1.7670455E-04;  9.9891028E+02;  1.0000000E-01; -9.0278918E+02;3;  1.9231380E+00;  0.0000000E+00;  1.3887160E+00;0; -4.0440012E-02;  3.9905051E+04;  0.0000000E+00;  5.0421584E-02;  4.0000000E+04;  0.0000000E+00;  4.0007668E+04; -4.0689219E-02;  0.0000000E+00;  2.4920833E-04;  1.0810333E+03;
  3.9143479E-01;  9.9999998E-03; -2.4001361E-01;4831; -2.0863619E-02;  0.0000000E+00;  1.7311955E-04;  9.9905450E+02;  1.0000000E-01; -7.8333582E+02;3;  1.8676999E+00;  0.0000000E+00;  1.3597748E+00;0; -4.0626191E-02;  3.9918371E+04;  0.0000000E+00;  6.0021877E-02;  4.0000000E+04;  0.0000000E+00;  4.0006543E+04; -4.0692624E-02;  0.0000000E+00;  6.6434099E-05;  9.1943988E+02;
  3.9147422E-01;  9.9999998E-03; -2.3001769E-01;4832; -2.1061899E-02;  0.0000000E+00;  1.7737664E-04;  9.9920032E+02;  1.0000000E-01; -6.6249976E+02;3;  1.8152272E+00;  0.0000000E+00;  1.3208705E+00;0; -4.0791556E-02;  3.9931461E+04;  0.0000000E+00;  5.5972617E-02;  4.0000000E+04;  0.0000000E+00;  4.0005066E+04; -4.0706798E-02;  0.0000000E+00; -8.4758321E-05;  7.0131305E+02;
  3.9150566E-01;  9.9999998E-03; -2.2001897E-01;4833; -2.1259446E-02;  0.0000000E+00;  1.7549837E-04;  9.9934869E+02;  1.0000000E-01; -5.3958966E+02;3;  1.7658858E+00;  0.0000000E+00;  1.2872669E+00;0; -4.0896293E-02;  3.9944730E+04;  0.0000000E+00;  4.1149355E-02;  4.0000000E+04;  0.0000000E+00;  4.0003770E+04; -4.0732428E-02;  0.0000000E+00; -1.6386480E-04;  5.3610895E+02;
  3.9153266E-01;  9.9999998E-03; -2.1001384E-01;4834; -2.1455150E-02;  0.0000000E+00;  1.7403130E-04;  9.9948859E+02;  1.0000000E-01; -4.2369168E+02;3;  1.7201549E+00;  0.0000000E+00;  1.2496240E+00;0; -4.0986024E-02;  3.9957180E+04;  0.0000000E+00;  1.9716544E-02;  4.0000000E+04;  0.0000000E+00;  4.0002840E+04; -4.0768716E-02;  0.0000000E+00; -2.1730858E-04;  3.9764252E+02;
  3.9155683E-01;  9.9999998E-03; -2.0000492E-01;4835; -2.1646999E-02;  0.0000000E+00;  1.7389248E-04;  9.9961523E+02;  1.0000000E-01; -3.1875638E+02;3;  1.6780499E+00;  0.0000000E+00;  1.2052779E+00;0; -4.1073564E-02;  3.9968957E+04;  0.0000000E+00; -3.2975499E-03;  4.0000000E+04;  0.0000000E+00;  4.0001422E+04; -4.0814344E-02;  0.0000000E+00; -2.5922031E-04;  2.0311612E+02;
  3.9157832E-01;  9.9999998E-03; -1.8999584E-01;4836; -2.1833472E-02;  0.0000000E+00;  1.7212873E-04;  9.9972540E+02;  1.0000000E-01; -2.2749973E+02;3;  1.6390065E+00;  0.0000000E+00;  1.1609734E+00;0; -4.1166905E-02;  3.9979621E+04;  0.0000000E+00; -2.2644060E-02;  4.0000000E+04;  0.0000000E+00;  3.9999602E+04; -4.0867709E-02;  0.0000000E+00; -2.9919847E-04;  4.9795246E+01;
  3.9159587E-01;  9.9999998E-03; -1.7998879E-01;4837; -2.2013988E-02;  0.0000000E+00;  1.6798313E-04;  9.9982025E+02;  1.0000000E-01; -1.4893405E+02;3;  1.6029451E+00;  0.0000000E+00;  1.1183556E+00;0; -4.1275226E-02;  3.9989113E+04;  0.0000000E+00; -3.3757314E-02;  4.0000000E+04;  0.0000000E+00;  3.9997727E+04; -4.0927067E-02;  0.0000000E+00; -3.4815783E-04;  2.6997913E+02;
  3.9160973E-01;  9.9999998E-03; -1.6998474E-01;4838; -2.2188904E-02;  0.0000000E+00;  1.6209610E-04;  9.9990302E+02;  1.0000000E-01; -8.0343399E+01;3;  1.5693172E+00;  0.0000000E+00;  1.0757172E+00;0; -4.1404448E-02;  3.9996961E+04;  0.0000000E+00; -3.3627708E-02;  4.0000000E+04;  0.0000000E+00;  3.9996461E+04; -4.0991008E-02;  0.0000000E+00; -4.1344130E-04;  4.5399728E+02;
  3.9162102E-01;  9.9999998E-03; -1.5998387E-01;4839; -2.2359192E-02;  0.0000000E+00;  1.5514705E-04;  9.9997485E+02;  1.0000000E-01; -2.0838915E+01;3;  1.5386441E+00;  0.0000000E+00;  1.0299177E+00;0; -4.1556980E-02;  4.0003660E+04;  0.0000000E+00; -2.1630183E-02;  4.0000000E+04;  0.0000000E+00;  3.9995289E+04; -4.1058403E-02;  0.0000000E+00; -4.9857801E-04;  5.7984149E+02;
  3.9162907E-01;  9.9999998E-03; -1.4998561E-01;4840; -2.2526024E-02;  0.0000000E+00;  1.4756493E-04;  1.0000278E+03;  1.0000000E-01;  2.3011694E+01;3;  1.5108409E+00;  0.0000000E+00;  9.8103249E-01;0; -4.1732654E-02;  4.0008570E+04;  0.0000000E+00;  9.2357637E-05;  4.0000000E+04;  0.0000000E+00;  3.9994934E+04; -4.1129064E-02;  0.0000000E+00; -6.0359132E-04;  6.4946808E+02;
  3.9163679E-01;  9.9999998E-03; -1.3998923E-01;4841; -2.2690700E-02;  0.0000000E+00;  1.3962232E-04;  1.0000744E+03;  1.0000000E-01;  6.1627884E+01;3;  1.4859613E+00;  0.0000000E+00;  9.2953777E-01;0; -4.1928697E-02;  4.0012391E+04;  0.0000000E+00;  2.6998147E-02;  4.0000000E+04;  0.0000000E+00;  3.9994742E+04; -4.1203119E-02;  0.0000000E+00; -7.2557939E-04;  6.7228680E+02;
  3.9164549E-01;  9.9999998E-03; -1.2999381E-01;4842; -2.2854170E-02;  0.0000000E+00;  1.3174828E-04;  1.0001104E+03;  1.0000000E-01;  9.1454193E+01;3;  1.4639899E+00;  0.0000000E+00;  8.7468743E-01;0; -4.2139791E-02;  4.0015172E+04;  0.0000000E+00;  5.3490888E-02;  4.0000000E+04;  0.0000000E+00;  3.9994797E+04; -4.1280396E-02;  0.0000000E+00; -8.5939572E-04;  6.5925079E+02;
  3.9165309E-01;  9.9999998E-03; -1.1999843E-01;4843; -2.3016764E-02;  0.0000000E+00;  1.2439274E-04;  1.0001422E+03;  1.0000000E-01;  1.1772506E+02;3;  1.4450991E+00;  0.0000000E+00;  8.1562895E-01;0; -4.2360011E-02;  4.0017246E+04;  0.0000000E+00;  7.4840046E-02;  4.0000000E+04;  0.0000000E+00;  3.9995133E+04; -4.1360743E-02;  0.0000000E+00; -9.9926838E-04;  6.2131793E+02;
  3.9165846E-01;  9.9999998E-03; -1.1000218E-01;4844; -2.3178203E-02;  0.0000000E+00;  1.1783990E-04;  1.0001703E+03;  1.0000000E-01;  1.4103304E+02;3;  1.4291310E+00;  0.0000000E+00;  7.5290209E-01;0; -4.2583562E-02;  4.0018793E+04;  0.0000000E+00;  8.8301688E-02;  4.0000000E+04;  0.0000000E+00;  3.9995930E+04; -4.1443381E-02;  0.0000000E+00; -1.1401800E-03;  5.6886420E+02;
  4.0134248E-01;  9.9999998E-03; -2.7000475E-01;4889; -2.0666685E-02;  0.0000000E+00;  3.6309214E-04;  9.9851581E+02;  1.0000000E-01; -1.2296442E+03;3;  2.1239419E+00;  0.0000000E+00;  1.5020131E+00;0; -3.9612368E-02;  3.9868930E+04;  0.0000000E+00; -8.4649220E-02;  4.0000000E+04;  0.0000000E+00;  4.0011375E+04; -3.9684240E-02;  0.0000000E+00;  7.1873597E-05;  1.5468467E+03;
  4.0136340E-01;  9.9999998E-03; -2.6000679E-01;4890; -2.0860935E-02;  0.0000000E+00;  3.3737614E-04;  9.9865430E+02;  1.0000000E-01; -1.1148820E+03;3;  2.0652485E+00;  0.0000000E+00;  1.4709911E+00;0; -3.9671805E-02;  3.9881191E+04;  0.0000000E+00; -5.7684802E-02;  4.0000000E+04;  0.0000000E+00;  4.0010438E+04; -3.9680425E-02;  0.0000000E+00;  8.6189793E-06;  1.4166096E+03;
  4.0139356E-01;  9.9999998E-03; -2.5000820E-01;4891; -2.1056501E-02;  0.0000000E+00;  3.1514277E-04;  9.9880554E+02;  1.0000000E-01; -9.8960156E+02;3;  2.0085874E+00;  0.0000000E+00;  1.4475734E+00;0; -3.9799463E-02;  3.9894016E+04;  0.0000000E+00; -3.8014777E-02;  4.0000000E+04;  0.0000000E+00;  4.0009531E+04; -3.9684482E-02;  0.0000000E+00; -1.1497925E-04;  1.3038224E+03;
  4.0143239E-01;  9.9999998E-03; -2.4000758E-01;4892; -2.1252776E-02;  0.0000000E+00;  2.9879069E-04;  9.9896289E+02;  1.0000000E-01; -8.5923486E+02;3;  1.9539783E+00;  0.0000000E+00;  1.4239057E+00;0; -3.9965305E-02;  3.9907414E+04;  0.0000000E+00; -2.4194272E-02;  4.0000000E+04;  0.0000000E+00;  4.0009160E+04; -3.9698012E-02;  0.0000000E+00; -2.6729217E-04;  1.2317135E+03;
  4.0147057E-01;  9.9999998E-03; -2.3000759E-01;4893; -2.1449165E-02;  0.0000000E+00;  3.0773069E-04;  9.9911047E+02;  1.0000000E-01; -7.3696674E+02;3;  1.9034420E+00;  0.0000000E+00;  1.3811152E+00;0; -4.0195711E-02;  3.9920570E+04;  0.0000000E+00; -1.5479803E-02;  4.0000000E+04;  0.0000000E+00;  4.0007617E+04; -3.9722733E-02;  0.0000000E+00; -4.7297601E-04;  1.0353735E+03;
  4.0150204E-01;  9.9999998E-03; -2.2000851E-01;4894; -2.1645134E-02;  0.0000000E+00;  3.1614921E-04;  9.9924689E+02;  1.0000000E-01; -6.2393292E+02;3;  1.8554308E+00;  0.0000000E+00;  1.3392223E+00;0; -4.0356413E-02;  3.9933734E+04;  0.0000000E+00; -1.1153758E-02;  4.0000000E+04;  0.0000000E+00;  4.0005574E+04; -3.9759263E-02;  0.0000000E+00; -5.9714774E-04;  7.7071826E+02;
  4.0152800E-01;  9.9999998E-03; -2.1000622E-01;4895; -2.1839378E-02;  0.0000000E+00;  3.1584158E-04;  9.9937738E+02;  1.0000000E-01; -5.1583722E+02;3;  1.8106760E+00;  0.0000000E+00;  1.2998483E+00;0; -4.0471263E-02;  3.9946289E+04;  0.0000000E+00; -9.4549591E-03;  4.0000000E+04;  0.0000000E+00;  4.0004008E+04; -3.9806787E-02;  0.0000000E+00; -6.6447788E-04;  5.3326630E+02;
  4.0155026E-01;  9.9999998E-03; -2.0000163E-01;4896; -2.2030098E-02;  0.0000000E+00;  3.1138677E-04;  9.9949725E+02;  1.0000000E-01; -4.1653140E+02;3;  1.7692208E+00;  0.0000000E+00;  1.2605691E+00;0; -4.0579014E-02;  3.9958012E+04;  0.0000000E+00; -7.9621514E-03;  4.0000000E+04;  0.0000000E+00;  4.0001926E+04; -3.9863341E-02;  0.0000000E+00; -7.1567361E-04;  2.8765164E+02;
  4.0156901E-01;  9.9999998E-03; -1.8999703E-01;4897; -2.2216050E-02;  0.0000000E+00;  3.0360886E-04;  9.9960754E+02;  1.0000000E-01; -3.2512659E+02;3;  1.7307863E+00;  0.0000000E+00;  1.2199733E+00;0; -4.0694840E-02;  3.9968562E+04;  0.0000000E+00; -4.0675760E-03;  4.0000000E+04;  0.0000000E+00;  4.0000016E+04; -3.9926965E-02;  0.0000000E+00; -7.6787669E-04;  3.9502575E+01;
  4.0158433E-01;  9.9999998E-03; -1.7999381E-01;4898; -2.2396944E-02;  0.0000000E+00;  2.9349726E-04;  9.9970123E+02;  1.0000000E-01; -2.4749916E+02;3;  1.6954198E+00;  0.0000000E+00;  1.1769485E+00;0; -4.0826276E-02;  3.9978172E+04;  0.0000000E+00;  4.3808850E-03;  4.0000000E+04;  0.0000000E+00;  3.9998234E+04; -3.9995294E-02;  0.0000000E+00; -8.3098299E-04;  1.8372357E+02;
  4.0159723E-01;  9.9999998E-03; -1.6999263E-01;4899; -2.2573240E-02;  0.0000000E+00;  2.8201201E-04;  9.9978302E+02;  1.0000000E-01; -1.7974799E+02;3;  1.6630890E+00;  0.0000000E+00;  1.1307117E+00;0; -4.0976353E-02;  3.9986152E+04;  0.0000000E+00;  1.8521503E-02;  4.0000000E+04;  0.0000000E+00;  3.9996945E+04; -4.0065903E-02;  0.0000000E+00; -9.1045047E-04;  3.6031268E+02;
  4.0160856E-01;  9.9999998E-03; -1.5999356E-01;4900; -2.2745823E-02;  0.0000000E+00;  2.6972563E-04;  9.9985803E+02;  1.0000000E-01; -1.1762630E+02;3;  1.6339880E+00;  0.0000000E+00;  1.0807331E+00;0; -4.1145552E-02;  3.9992742E+04;  0.0000000E+00;  3.7977491E-02;  4.0000000E+04;  0.0000000E+00;  3.9995984E+04; -4.0136933E-02;  0.0000000E+00; -1.0086179E-03;  4.8610550E+02;
  4.0161991E-01;  9.9999998E-03; -1.4999628E-01;4901; -2.2915743E-02;  0.0000000E+00;  2.5699812E-04;  9.9991492E+02;  1.0000000E-01; -7.0467140E+01;3;  1.6079109E+00;  0.0000000E+00;  1.0279204E+00;0; -4.1331805E-02;  3.9997953E+04;  0.0000000E+00;  6.0698658E-02;  4.0000000E+04;  0.0000000E+00;  3.9995352E+04; -4.0206678E-02;  0.0000000E+00; -1.1251264E-03;  5.6570129E+02;
  4.0162978E-01;  9.9999998E-03; -1.4000008E-01;4902; -2.3083782E-02;  0.0000000E+00;  2.4403437E-04;  9.9996082E+02;  1.0000000E-01; -3.2443523E+01;3;  1.5848832E+00;  0.0000000E+00;  9.7248441E-01;0; -4.1531004E-02;  4.0002203E+04;  0.0000000E+00;  8.3281524E-02;  4.0000000E+04;  0.0000000E+00;  3.9995477E+04; -4.0274065E-02;  0.0000000E+00; -1.2569381E-03;  6.0757043E+02;
  4.0163943E-01;  9.9999998E-03; -1.3000412E-01;4903; -2.3250489E-02;  0.0000000E+00;  2.3122718E-04;  1.0000015E+03;  1.0000000E-01;  1.2839142E+00;3;  1.5648921E+00;  0.0000000E+00;  9.1377032E-01;0; -4.1737068E-02;  4.0005434E+04;  0.0000000E+00;  1.0192617E-01;  4.0000000E+04;  0.0000000E+00;  3.9995199E+04; -4.0337522E-02;  0.0000000E+00; -1.3995486E-03;  6.2064941E+02;
  4.0164903E-01;  9.9999998E-03; -1.2000768E-01;4904; -2.3415849E-02;  0.0000000E+00;  2.1885270E-04;  1.0000324E+03;  1.0000000E-01;  2.6863436E+01;3;  1.5477686E+00;  0.0000000E+00;  8.5236543E-01;0; -4.1943885E-02;  4.0008016E+04;  0.0000000E+00;  1.1379449E-01;  4.0000000E+04;  0.0000000E+00;  3.9995254E+04; -4.0395621E-02;  0.0000000E+00; -1.5482638E-03;  6.1390143E+02;
  4.0165561E-01;  9.9999998E-03; -1.1001016E-01;4905; -2.3579124E-02;  0.0000000E+00;  2.0700622E-04;  1.0000589E+03;  1.0000000E-01;  4.8788738E+01;3;  1.5333668E+00;  0.0000000E+00;  7.8810501E-01;0; -4.2146094E-02;  4.0009977E+04;  0.0000000E+00;  1.1773074E-01;  4.0000000E+04;  0.0000000E+00;  3.9995535E+04; -4.0447190E-02;  0.0000000E+00; -1.6989021E-03;  5.9525049E+02;
  4.1137132E-01;  9.9999998E-03; -2.7000409E-01;4950; -2.1073213E-02;  0.0000000E+00;  5.1988021E-04;  9.9841388E+02;  1.0000000E-01; -1.3140862E+03;3;  2.2078214E+00;  0.0000000E+00;  1.5680788E+00;0; -3.9013620E-02;  3.9859277E+04;  0.0000000E+00; -1.4075363E-01;  4.0000000E+04;  0.0000000E+00;  4.0012461E+04; -3.8733419E-02;  0.0000000E+00; -2.8020079E-04;  1.7219976E+03;
  4.1138920E-01;  9.9999998E-03; -2.6000553E-01;4951; -2.1262297E-02;  0.0000000E+00;  4.9459067E-04;  9.9855188E+02;  1.0000000E-01; -1.1997191E+03;3;  2.1499765E+00;  0.0000000E+00;  1.5355798E+00;0; -3.9115071E-02;  3.9871094E+04;  0.0000000E+00; -1.2751724E-01;  4.0000000E+04;  0.0000000E+00;  4.0011777E+04; -3.8733941E-02;  0.0000000E+00; -3.8112901E-04;  1.5955635E+03;
  4.1141030E-01;  9.9999998E-03; -2.5000587E-01;4952; -2.1453859E-02;  0.0000000E+00;  4.6849129E-04;  9.9870270E+02;  1.0000000E-01; -1.0747843E+03;3;  2.0945466E+00;  0.0000000E+00;  1.5087904E+00;0; -3.9245144E-02;  3.9883652E+04;  0.0000000E+00; -1.1447503E-01;  4.0000000E+04;  0.0000000E+00;  4.0011000E+04; -3.8744088E-02;  0.0000000E+00; -5.0105358E-04;  1.5029983E+03;
  4.1143847E-01;  9.9999998E-03; -2.4000297E-01;4953; -2.1647196E-02;  0.0000000E+00;  4.4598142E-04;  9.9886023E+02;  1.0000000E-01; -9.4426953E+02;3;  2.0416322E+00;  0.0000000E+00;  1.4813515E+00;0; -3.9411850E-02;  3.9896746E+04;  0.0000000E+00; -9.9718548E-02;  4.0000000E+04;  0.0000000E+00;  4.0010805E+04; -3.8765043E-02;  0.0000000E+00; -6.4680842E-04;  1.4786989E+03;
  4.1146839E-01;  9.9999998E-03; -2.3000187E-01;4954; -2.1841327E-02;  0.0000000E+00;  4.5990769E-04;  9.9900342E+02;  1.0000000E-01; -8.2565558E+02;3;  1.9918175E+00;  0.0000000E+00;  1.4427178E+00;0; -3.9689038E-02;  3.9909980E+04;  0.0000000E+00; -8.3133861E-02;  4.0000000E+04;  0.0000000E+00;  4.0009348E+04; -3.8797885E-02;  0.0000000E+00; -8.9115300E-04;  1.2510900E+03;
  4.1149458E-01;  9.9999998E-03; -2.2000535E-01;4955; -2.2035204E-02;  0.0000000E+00;  4.7261151E-04;  9.9912756E+02;  1.0000000E-01; -7.2279431E+02;3;  1.9449505E+00;  0.0000000E+00;  1.4018573E+00;0; -3.9880440E-02;  3.9922734E+04;  0.0000000E+00; -6.5144099E-02;  4.0000000E+04;  0.0000000E+00;  4.0006422E+04; -3.8842719E-02;  0.0000000E+00; -1.0377206E-03;  8.8730884E+02;
  4.1151667E-01;  9.9999998E-03; -2.1000752E-01;4956; -2.2227494E-02;  0.0000000E+00;  4.6854845E-04;  9.9925140E+02;  1.0000000E-01; -6.2017993E+02;3;  1.9011747E+00;  0.0000000E+00;  1.3637110E+00;0; -4.0009927E-02;  3.9935027E+04;  0.0000000E+00; -4.5709345E-02;  4.0000000E+04;  0.0000000E+00;  4.0004176E+04; -3.8898330E-02;  0.0000000E+00; -1.1115960E-03;  5.9140173E+02;
  4.1153550E-01;  9.9999998E-03; -2.0000701E-01;4957; -2.2416735E-02;  0.0000000E+00;  4.5769487E-04;  9.9936969E+02;  1.0000000E-01; -5.2220740E+02;3;  1.8605844E+00;  0.0000000E+00;  1.3248514E+00;0; -4.0136050E-02;  3.9946684E+04;  0.0000000E+00; -2.4517452E-02;  4.0000000E+04;  0.0000000E+00;  4.0002352E+04; -3.8962640E-02;  0.0000000E+00; -1.1734092E-03;  3.4112692E+02;
  4.1155204E-01;  9.9999998E-03; -1.9000573E-01;4958; -2.2602061E-02;  0.0000000E+00;  4.4395318E-04;  9.9947754E+02;  1.0000000E-01; -4.3282724E+02;3;  1.8232517E+00;  0.0000000E+00;  1.2835635E+00;0; -4.0274464E-02;  3.9957293E+04;  0.0000000E+00; -1.2503690E-03;  4.0000000E+04;  0.0000000E+00;  4.0000668E+04; -3.9032940E-02;  0.0000000E+00; -1.2415232E-03;  1.0954182E+02;
  4.1156712E-01;  9.9999998E-03; -1.8000497E-01;4959; -2.2783358E-02;  0.0000000E+00;  4.2842460E-04;  9.9957507E+02;  1.0000000E-01; -3.5203940E+02;3;  1.7891256E+00;  0.0000000E+00;  1.2394128E+00;0; -4.0429123E-02;  3.9966605E+04;  0.0000000E+00;  2.4039743E-02;  4.0000000E+04;  0.0000000E+00;  3.9999020E+04; -3.9106175E-02;  0.0000000E+00; -1.3229460E-03;  9.8537651E+01;
  4.1158086E-01;  9.9999998E-03; -1.7000529E-01;4960; -2.2961020E-02;  0.0000000E+00;  4.1188489E-04;  9.9965790E+02;  1.0000000E-01; -2.8344876E+02;3;  1.7583426E+00;  0.0000000E+00;  1.1901139E+00;0; -4.0600836E-02;  3.9974824E+04;  0.0000000E+00;  5.0679859E-02;  4.0000000E+04;  0.0000000E+00;  3.9997695E+04; -3.9179545E-02;  0.0000000E+00; -1.4212929E-03;  2.6767258E+02;
  4.1159454E-01;  9.9999998E-03; -1.6000685E-01;4961; -2.3135755E-02;  0.0000000E+00;  3.9471133E-04;  9.9973077E+02;  1.0000000E-01; -2.2305540E+02;3;  1.7308367E+00;  0.0000000E+00;  1.1379645E+00;0; -4.0787671E-02;  3.9981668E+04;  0.0000000E+00;  7.7223308E-02;  4.0000000E+04;  0.0000000E+00;  3.9996855E+04; -3.9249785E-02;  0.0000000E+00; -1.5378848E-03;  3.9828394E+02;
  4.1160804E-01;  9.9999998E-03; -1.5000935E-01;4962; -2.3308232E-02;  0.0000000E+00;  3.7716134E-04;  9.9979425E+02;  1.0000000E-01; -1.7046429E+02;3;  1.7066315E+00;  0.0000000E+00;  1.0823121E+00;0; -4.0986270E-02;  3.9987363E+04;  0.0000000E+00;  1.0156573E-01;  4.0000000E+04;  0.0000000E+00;  3.9996016E+04; -3.9314523E-02;  0.0000000E+00; -1.6717478E-03;  4.9285132E+02;
  4.1162187E-01;  9.9999998E-03; -1.4001222E-01;4963; -2.3478927E-02;  0.0000000E+00;  3.5933743E-04;  9.9984369E+02;  1.0000000E-01; -1.2947781E+02;3;  1.6855966E+00;  0.0000000E+00;  1.0237192E+00;0; -4.1190986E-02;  3.9991617E+04;  0.0000000E+00;  1.2129136E-01;  4.0000000E+04;  0.0000000E+00;  3.9995703E+04; -3.9371122E-02;  0.0000000E+00; -1.8198648E-03;  5.5697522E+02;
  4.1163430E-01;  9.9999998E-03; -1.3001484E-01;4964; -2.3647858E-02;  0.0000000E+00;  3.4141209E-04;  9.9988220E+02;  1.0000000E-01; -9.7577477E+01;3;  1.6674908E+00;  0.0000000E+00;  9.6236289E-01;0; -4.1395254E-02;  3.9995285E+04;  0.0000000E+00;  1.3422276E-01;  4.0000000E+04;  0.0000000E+00;  3.9995406E+04; -3.9417315E-02;  0.0000000E+00; -1.9779389E-03;  5.9725098E+02;
  4.1164452E-01;  9.9999998E-03; -1.2001667E-01;4965; -2.3814591E-02;  0.0000000E+00;  3.2358052E-04;  9.9991333E+02;  1.0000000E-01; -7.1800430E+01;3;  1.6523098E+00;  0.0000000E+00;  8.9809757E-01;0; -4.1593112E-02;  3.9997883E+04;  0.0000000E+00;  1.3918886E-01;  4.0000000E+04;  0.0000000E+00;  3.9995219E+04; -3.9451256E-02;  0.0000000E+00; -2.1418554E-03;  6.2077905E+02;
  4.1165280E-01;  9.9999998E-03; -1.1001736E-01;4966; -2.3978211E-02;  0.0000000E+00;  3.0579822E-04;  9.9993506E+02;  1.0000000E-01; -5.3825634E+01;3;  1.6396025E+00;  0.0000000E+00;  8.3140278E-01;0; -4.1779596E-02;  4.0000129E+04;  0.0000000E+00;  1.3638368E-01;  4.0000000E+04;  0.0000000E+00;  3.9995270E+04; -3.9471392E-02;  0.0000000E+00; -2.3082059E-03;  6.3400128E+02;
  4.2142275E-01;  9.9999998E-03; -2.7000374E-01;5011; -2.1482818E-02;  0.0000000E+00;  6.8705651E-04;  9.9835217E+02;  1.0000000E-01; -1.3651958E+03;3;  2.2927036E+00;  0.0000000E+00;  1.6342614E+00;0; -3.8444050E-02;  3.9853051E+04;  0.0000000E+00; -1.8702075E-01;  4.0000000E+04;  0.0000000E+00;  4.0013426E+04; -3.7798196E-02;  0.0000000E+00; -6.4585282E-04;  1.8366292E+03;
  4.2144030E-01;  9.9999998E-03; -2.6000473E-01;5012; -2.1666687E-02;  0.0000000E+00;  6.6270586E-04;  9.9848590E+02;  1.0000000E-01; -1.2543842E+03;3;  2.2358551E+00;  0.0000000E+00;  1.6011450E+00;0; -3.8586214E-02;  3.9864422E+04;  0.0000000E+00; -1.8614052E-01;  4.0000000E+04;  0.0000000E+00;  4.0012434E+04; -3.7803780E-02;  0.0000000E+00; -7.8243343E-04;  1.7157340E+03;
  4.2145270E-01;  9.9999998E-03; -2.5000435E-01;5013; -2.1854375E-02;  0.0000000E+00;  6.3665630E-04;  9.9862482E+02;  1.0000000E-01; -1.1393257E+03;3;  2.1814783E+00;  0.0000000E+00;  1.5714804E+00;0; -3.8740356E-02;  3.9876344E+04;  0.0000000E+00; -1.7853445E-01;  4.0000000E+04;  0.0000000E+00;  4.0012016E+04; -3.7820663E-02;  0.0000000E+00; -9.1969309E-04;  1.6352778E+03;
  4.2146733E-01;  9.9999998E-03; -2.4000056E-01;5014; -2.2044873E-02;  0.0000000E+00;  6.1125675E-04;  9.9877954E+02;  1.0000000E-01; -1.0111318E+03;3;  2.1297777E+00;  0.0000000E+00;  1.5431398E+00;0; -3.8912185E-02;  3.9888801E+04;  0.0000000E+00; -1.6411069E-01;  4.0000000E+04;  0.0000000E+00;  4.0011988E+04; -3.7849654E-02;  0.0000000E+00; -1.0625317E-03;  1.6188270E+03;
  4.2148435E-01;  9.9999998E-03; -2.2999994E-01;5015; -2.2236692E-02;  0.0000000E+00;  6.2772859E-04;  9.9890936E+02;  1.0000000E-01; -9.0357928E+02;3;  2.0810781E+00;  0.0000000E+00;  1.5054927E+00;0; -3.9217725E-02;  3.9901336E+04;  0.0000000E+00; -1.4351214E-01;  4.0000000E+04;  0.0000000E+00;  4.0010000E+04; -3.7890952E-02;  0.0000000E+00; -1.3267729E-03;  1.3479940E+03;
  4.2150101E-01;  9.9999998E-03; -2.2000679E-01;5016; -2.2428367E-02;  0.0000000E+00;  6.3936930E-04;  9.9901843E+02;  1.0000000E-01; -8.1321149E+02;3;  2.0353310E+00;  0.0000000E+00;  1.4664104E+00;0; -3.9423823E-02;  3.9913520E+04;  0.0000000E+00; -1.1748382E-01;  4.0000000E+04;  0.0000000E+00;  4.0006422E+04; -3.7943970E-02;  0.0000000E+00; -1.4798527E-03;  9.1538928E+02;
  4.2151681E-01;  9.9999998E-03; -2.1001326E-01;5017; -2.2618713E-02;  0.0000000E+00;  6.2846992E-04;  9.9914093E+02;  1.0000000E-01; -7.1173291E+02;3;  1.9926344E+00;  0.0000000E+00;  1.4293123E+00;0; -3.9564751E-02;  3.9925523E+04;  0.0000000E+00; -8.6719632E-02;  4.0000000E+04;  0.0000000E+00;  4.0004191E+04; -3.8007252E-02;  0.0000000E+00; -1.5574993E-03;  5.9836060E+02;
  4.2153192E-01;  9.9999998E-03; -2.0001616E-01;5018; -2.2806672E-02;  0.0000000E+00;  6.1078661E-04;  9.9925616E+02;  1.0000000E-01; -6.1622943E+02;3;  1.9532925E+00;  0.0000000E+00;  1.3902951E+00;0; -3.9710950E-02;  3.9936852E+04;  0.0000000E+00; -5.2131142E-02;  4.0000000E+04;  0.0000000E+00;  4.0002281E+04; -3.8078327E-02;  0.0000000E+00; -1.6326221E-03;  3.6730670E+02;
  4.2154631E-01;  9.9999998E-03; -1.9001727E-01;5019; -2.2991631E-02;  0.0000000E+00;  5.9126911E-04;  9.9936688E+02;  1.0000000E-01; -5.2452832E+02;3;  1.9173443E+00;  0.0000000E+00;  1.3479965E+00;0; -3.9874073E-02;  3.9947180E+04;  0.0000000E+00; -1.4986943E-02;  4.0000000E+04;  0.0000000E+00;  4.0000879E+04; -3.8154081E-02;  0.0000000E+00; -1.7199926E-03;  1.6322549E+02;
  4.2156026E-01;  9.9999998E-03; -1.8001790E-01;5020; -2.3173491E-02;  0.0000000E+00;  5.7077082E-04;  9.9946185E+02;  1.0000000E-01; -4.4586389E+02;3;  1.8849162E+00;  0.0000000E+00;  1.3008049E+00;0; -4.0054392E-02;  3.9956758E+04;  0.0000000E+00;  2.2964204E-02;  4.0000000E+04;  0.0000000E+00;  3.9999578E+04; -3.8230922E-02;  0.0000000E+00; -1.8234713E-03;  3.6174763E+01;
  4.2157423E-01;  9.9999998E-03; -1.7001878E-01;5021; -2.3352515E-02;  0.0000000E+00;  5.4953067E-04;  9.9955194E+02;  1.0000000E-01; -3.7119934E+02;3;  1.8559219E+00;  0.0000000E+00;  1.2499489E+00;0; -4.0249933E-02;  3.9964945E+04;  0.0000000E+00;  5.9540953E-02;  4.0000000E+04;  0.0000000E+00;  3.9998316E+04; -3.8304932E-02;  0.0000000E+00; -1.9450008E-03;  1.9230896E+02;
  4.2158839E-01;  9.9999998E-03; -1.6002014E-01;5022; -2.3529099E-02;  0.0000000E+00;  5.2778056E-04;  9.9962476E+02;  1.0000000E-01; -3.1090475E+02;3;  1.8303994E+00;  0.0000000E+00;  1.1953667E+00;0; -4.0457580E-02;  3.9972160E+04;  0.0000000E+00;  9.2321254E-02;  4.0000000E+04;  0.0000000E+00;  3.9997324E+04; -3.8372628E-02;  0.0000000E+00; -2.0849502E-03;  3.2910837E+02;
  4.2160261E-01;  9.9999998E-03; -1.5002188E-01;5023; -2.3703551E-02;  0.0000000E+00;  5.0549593E-04;  9.9969049E+02;  1.0000000E-01; -2.5643716E+02;3;  1.8081769E+00;  0.0000000E+00;  1.1374993E+00;0; -4.0672000E-02;  3.9977988E+04;  0.0000000E+00;  1.1902067E-01;  4.0000000E+04;  0.0000000E+00;  3.9996648E+04; -3.8430259E-02;  0.0000000E+00; -2.2417421E-03;  4.3885950E+02;
  4.2161694E-01;  9.9999998E-03; -1.4002347E-01;5024; -2.3875959E-02;  0.0000000E+00;  4.8266511E-04;  9.9974011E+02;  1.0000000E-01; -2.1530254E+02;3;  1.7892276E+00;  0.0000000E+00;  1.0764318E+00;0; -4.0886741E-02;  3.9982719E+04;  0.0000000E+00;  1.3787664E-01;  4.0000000E+04;  0.0000000E+00;  3.9995938E+04; -3.8474713E-02;  0.0000000E+00; -2.4120286E-03;  5.2388293E+02;
  4.2163137E-01;  9.9999998E-03; -1.3002451E-01;5025; -2.4046039E-02;  0.0000000E+00;  4.5933487E-04;  9.9977850E+02;  1.0000000E-01; -1.8350098E+02;3;  1.7732387E+00;  0.0000000E+00;  1.0123537E+00;0; -4.1094691E-02;  3.9986438E+04;  0.0000000E+00;  1.4794026E-01;  4.0000000E+04;  0.0000000E+00;  3.9995484E+04; -3.8503025E-02;  0.0000000E+00; -2.5916654E-03;  5.8893781E+02;
  4.2164424E-01;  9.9999998E-03; -1.2002463E-01;5026; -2.4213020E-02;  0.0000000E+00;  4.3555090E-04;  9.9980811E+02;  1.0000000E-01; -1.5895845E+02;3;  1.7600220E+00;  0.0000000E+00;  9.4539350E-01;0; -4.1290056E-02;  3.9989184E+04;  0.0000000E+00;  1.4930202E-01;  4.0000000E+04;  0.0000000E+00;  3.9995086E+04; -3.8513239E-02;  0.0000000E+00; -2.7768170E-03;  6.3993286E+02;
  4.2165425E-01;  9.9999998E-03; -1.1002363E-01;5027; -2.4375737E-02;  0.0000000E+00;  4.1117732E-04;  9.9982391E+02;  1.0000000E-01; -1.4587241E+02;3;  1.7492172E+00;  0.0000000E+00;  8.7571812E-01;0; -4.1468523E-02;  3.9990992E+04;  0.0000000E+00;  1.4303499E-01;  4.0000000E+04;  0.0000000E+00;  3.9994562E+04; -3.8504284E-02;  0.0000000E+00; -2.9642405E-03;  6.8163306E+02;
  4.3148145E-01;  9.9999998E-03; -2.7000403E-01;5072; -2.1887910E-02;  0.0000000E+00;  8.6278765E-04;  9.9835309E+02;  1.0000000E-01; -1.3644551E+03;3;  2.3782737E+00;  0.0000000E+00;  1.7000999E+00;0; -3.7857659E-02;  3.9852734E+04;  0.0000000E+00; -2.0461434E-01;  4.0000000E+04;  0.0000000E+00;  4.0013531E+04; -3.6837101E-02;  0.0000000E+00; -1.0205570E-03;  1.8555261E+03;
  4.3149933E-01;  9.9999998E-03; -2.6000473E-01;5073; -2.2067314E-02;  0.0000000E+00;  8.4044057E-04;  9.9847369E+02;  1.0000000E-01; -1.2645073E+03;3;  2.3225398E+00;  0.0000000E+00;  1.6668501E+00;0; -3.8049661E-02;  3.9863184E+04;  0.0000000E+00; -2.1934716E-01;  4.0000000E+04;  0.0000000E+00;  4.0012664E+04; -3.6850974E-02;  0.0000000E+00; -1.1986871E-03;  1.7466044E+03;
  4.3150711E-01;  9.9999998E-03; -2.5000414E-01;5074; -2.2251997E-02;  0.0000000E+00;  8.1580668E-04;  9.9859979E+02;  1.0000000E-01; -1.1600659E+03;3;  2.2692165E+00;  0.0000000E+00;  1.6358845E+00;0; -3.8234066E-02;  3.9874055E+04;  0.0000000E+00; -2.2041492E-01;  4.0000000E+04;  0.0000000E+00;  4.0012137E+04; -3.6877248E-02;  0.0000000E+00; -1.3568178E-03;  1.6654419E+03;
  4.3151379E-01;  9.9999998E-03; -2.4000031E-01;5075; -2.2440471E-02;  0.0000000E+00;  7.8900415E-04;  9.9874286E+02;  1.0000000E-01; -1.0415013E+03;3;  2.2187357E+00;  0.0000000E+00;  1.6066284E+00;0; -3.8414177E-02;  3.9885441E+04;  0.0000000E+00; -2.1011509E-01;  4.0000000E+04;  0.0000000E+00;  4.0012070E+04; -3.6916148E-02;  0.0000000E+00; -1.4980274E-03;  1.6423533E+03;
  4.3152341E-01;  9.9999998E-03; -2.3000030E-01;5076; -2.2630699E-02;  0.0000000E+00;  8.0245966E-04;  9.9885931E+02;  1.0000000E-01; -9.4505963E+02;3;  2.1712070E+00;  0.0000000E+00;  1.5699344E+00;0; -3.8726758E-02;  3.9897070E+04;  0.0000000E+00; -1.9009720E-01;  4.0000000E+04;  0.0000000E+00;  4.0009789E+04; -3.6967307E-02;  0.0000000E+00; -1.7594504E-03;  1.3548467E+03;
  4.3153235E-01;  9.9999998E-03; -2.2000942E-01;5077; -2.2820741E-02;  0.0000000E+00;  8.0957048E-04;  9.9895648E+02;  1.0000000E-01; -8.6451868E+02;3;  2.1267149E+00;  0.0000000E+00;  1.5328009E+00;0; -3.8944665E-02;  3.9908711E+04;  0.0000000E+00; -1.6178641E-01;  4.0000000E+04;  0.0000000E+00;  4.0006270E+04; -3.7029888E-02;  0.0000000E+00; -1.9147772E-03;  8.9783875E+02;
  4.3154120E-01;  9.9999998E-03; -2.1001886E-01;5078; -2.3009691E-02;  0.0000000E+00;  7.9247594E-04;  9.9906653E+02;  1.0000000E-01; -7.7336078E+02;3;  2.0854108E+00;  0.0000000E+00;  1.4955134E+00;0; -3.9103590E-02;  3.9919859E+04;  0.0000000E+00; -1.2635672E-01;  4.0000000E+04;  0.0000000E+00;  4.0003750E+04; -3.7101850E-02;  0.0000000E+00; -2.0017407E-03;  5.8178455E+02;
  4.3155080E-01;  9.9999998E-03; -2.0002441E-01;5079; -2.3196941E-02;  0.0000000E+00;  7.6864962E-04;  9.9917737E+02;  1.0000000E-01; -6.8151154E+02;3;  2.0475779E+00;  0.0000000E+00;  1.4557660E+00;0; -3.9274361E-02;  3.9930730E+04;  0.0000000E+00; -8.5312508E-02;  4.0000000E+04;  0.0000000E+00;  4.0002180E+04; -3.7180346E-02;  0.0000000E+00; -2.0940157E-03;  3.7201068E+02;
  4.3156105E-01;  9.9999998E-03; -1.9002722E-01;5080; -2.3382040E-02;  0.0000000E+00;  7.4379530E-04;  9.9928717E+02;  1.0000000E-01; -5.9055115E+02;3;  2.0133667E+00;  0.0000000E+00;  1.4110479E+00;0; -3.9465670E-02;  3.9940758E+04;  0.0000000E+00; -4.0765278E-02;  4.0000000E+04;  0.0000000E+00;  4.0001105E+04; -3.7261784E-02;  0.0000000E+00; -2.2038843E-03;  1.9193372E+02;
  4.3157157E-01;  9.9999998E-03; -1.8002875E-01;5081; -2.3564795E-02;  0.0000000E+00;  7.1858638E-04;  9.9938867E+02;  1.0000000E-01; -5.0645477E+02;3;  1.9828705E+00;  0.0000000E+00;  1.3623815E+00;0; -3.9674781E-02;  3.9950176E+04;  0.0000000E+00;  4.5031360E-03;  4.0000000E+04;  0.0000000E+00;  3.9999855E+04; -3.7342004E-02;  0.0000000E+00; -2.3327752E-03;  2.4771385E+01;
  4.3158290E-01;  9.9999998E-03; -1.7002977E-01;5082; -2.3745239E-02;  0.0000000E+00;  6.9293199E-04;  9.9947632E+02;  1.0000000E-01; -4.3386423E+02;3;  1.9559913E+00;  0.0000000E+00;  1.3096938E+00;0; -3.9897881E-02;  3.9958352E+04;  0.0000000E+00;  4.7302675E-02;  4.0000000E+04;  0.0000000E+00;  3.9998586E+04; -3.7416518E-02;  0.0000000E+00; -2.4813630E-03;  1.4115469E+02;
  4.3159527E-01;  9.9999998E-03; -1.6003068E-01;5083; -2.3923444E-02;  0.0000000E+00;  6.6666160E-04;  9.9955225E+02;  1.0000000E-01; -3.7095245E+02;3;  1.9326482E+00;  0.0000000E+00;  1.2531970E+00;0; -4.0130172E-02;  3.9965410E+04;  0.0000000E+00;  8.4489137E-02;  4.0000000E+04;  0.0000000E+00;  3.9997660E+04; -3.7480988E-02;  0.0000000E+00; -2.6491829E-03;  2.8385330E+02;
  4.3160880E-01;  9.9999998E-03; -1.5003155E-01;5084; -2.4099385E-02;  0.0000000E+00;  6.3958555E-04;  9.9961560E+02;  1.0000000E-01; -3.1846011E+02;3;  1.9126503E+00;  0.0000000E+00;  1.1930887E+00;0; -4.0365182E-02;  3.9971395E+04;  0.0000000E+00;  1.1354800E-01;  4.0000000E+04;  0.0000000E+00;  3.9996641E+04; -3.7531205E-02;  0.0000000E+00; -2.8339759E-03;  4.0655191E+02;
  4.3162379E-01;  9.9999998E-03; -1.4003205E-01;5085; -2.4272818E-02;  0.0000000E+00;  6.1151612E-04;  9.9966376E+02;  1.0000000E-01; -2.7856000E+02;3;  1.8959749E+00;  0.0000000E+00;  1.1296413E+00;0; -4.0595450E-02;  3.9976281E+04;  0.0000000E+00;  1.3304603E-01;  4.0000000E+04;  0.0000000E+00;  3.9996016E+04; -3.7563570E-02;  0.0000000E+00; -3.0318792E-03;  5.0928683E+02;
  4.3163940E-01;  9.9999998E-03; -1.3003184E-01;5086; -2.4443155E-02;  0.0000000E+00;  5.8235409E-04;  9.9970215E+02;  1.0000000E-01; -2.4675844E+02;3;  1.8821864E+00;  0.0000000E+00;  1.0630226E+00;0; -4.0813643E-02;  3.9980203E+04;  0.0000000E+00;  1.4281788E-01;  4.0000000E+04;  0.0000000E+00;  3.9995344E+04; -3.7575182E-02;  0.0000000E+00; -3.2384631E-03;  5.9546368E+02;
  4.3165466E-01;  9.9999998E-03; -1.2003075E-01;5087; -2.4609448E-02;  0.0000000E+00;  5.5204792E-04;  9.9972919E+02;  1.0000000E-01; -2.2433931E+02;3;  1.8710704E+00;  0.0000000E+00;  9.9341530E-01;0; -4.1014228E-02;  3.9982941E+04;  0.0000000E+00;  1.4366360E-01;  4.0000000E+04;  0.0000000E+00;  3.9994574E+04; -3.7564285E-02;  0.0000000E+00; -3.4499441E-03;  6.6968878E+02;
  4.3166760E-01;  9.9999998E-03; -1.1002870E-01;5088; -2.4770409E-02;  0.0000000E+00;  5.2038906E-04;  9.9973938E+02;  1.0000000E-01; -2.1589511E+02;3;  1.8622129E+00;  0.0000000E+00;  9.2102367E-01;0; -4.1193374E-02;  3.9984602E+04;  0.0000000E+00;  1.3708602E-01;  4.0000000E+04;  0.0000000E+00;  3.9994184E+04; -3.7530355E-02;  0.0000000E+00; -3.6630172E-03;  7.3504602E+02;
  4.4154757E-01;  9.9999998E-03; -2.7000517E-01;5133; -2.2280622E-02;  0.0000000E+00;  1.0460332E-03;  9.9842279E+02;  1.0000000E-01; -1.3066790E+03;3;  2.4643562E+00;  0.0000000E+00;  1.7658234E+00;0; -3.7233572E-02;  3.9858680E+04;  0.0000000E+00; -1.9064139E-01;  4.0000000E+04;  0.0000000E+00;  4.0012867E+04; -3.5824396E-02;  0.0000000E+00; -1.4091762E-03;  1.7675687E+03;
  4.4156268E-01;  9.9999998E-03; -2.6000577E-01;5134; -2.2456888E-02;  0.0000000E+00;  1.0261913E-03;  9.9852576E+02;  1.0000000E-01; -1.2213975E+03;3;  2.4097254E+00;  0.0000000E+00;  1.7317683E+00;0; -3.7481014E-02;  3.9868117E+04;  0.0000000E+00; -2.2304673E-01;  4.0000000E+04;  0.0000000E+00;  4.0012086E+04; -3.5851009E-02;  0.0000000E+00; -1.6300031E-03;  1.6705671E+03;
  4.4156778E-01;  9.9999998E-03; -2.5000554E-01;5135; -2.2639783E-02;  0.0000000E+00;  1.0053642E-03;  9.9863678E+02;  1.0000000E-01; -1.1294000E+03;3;  2.3575797E+00;  0.0000000E+00;  1.7004586E+00;0; -3.7710581E-02;  3.9877730E+04;  0.0000000E+00; -2.3541380E-01;  4.0000000E+04;  0.0000000E+00;  4.0011270E+04; -3.5890128E-02;  0.0000000E+00; -1.8204508E-03;  1.5723833E+03;
  4.4156978E-01;  9.9999998E-03; -2.4000245E-01;5136; -2.2827296E-02;  0.0000000E+00;  9.7740721E-04;  9.9876013E+02;  1.0000000E-01; -1.0272301E+03;3;  2.3083155E+00;  0.0000000E+00;  1.6708353E+00;0; -3.7895452E-02;  3.9887910E+04;  0.0000000E+00; -2.3240262E-01;  4.0000000E+04;  0.0000000E+00;  4.0011012E+04; -3.5941746E-02;  0.0000000E+00; -1.9537050E-03;  1.5337690E+03;
  4.4157478E-01;  9.9999998E-03; -2.3000267E-01;5137; -2.3016922E-02;  0.0000000E+00;  9.8090200E-04;  9.9886597E+02;  1.0000000E-01; -9.3952893E+02;3;  2.2620625E+00;  0.0000000E+00;  1.6359056E+00;0; -3.8190648E-02;  3.9898320E+04;  0.0000000E+00; -2.1697475E-01;  4.0000000E+04;  0.0000000E+00;  4.0009062E+04; -3.6004961E-02;  0.0000000E+00; -2.1856884E-03;  1.2700314E+03;
  4.4157949E-01;  9.9999998E-03; -2.2001159E-01;5138; -2.3206437E-02;  0.0000000E+00;  9.7970571E-04;  9.9895593E+02;  1.0000000E-01; -8.6501251E+02;3;  2.2190151E+00;  0.0000000E+00;  1.5990008E+00;0; -3.8418904E-02;  3.9908824E+04;  0.0000000E+00; -1.9136517E-01;  4.0000000E+04;  0.0000000E+00;  4.0005910E+04; -3.6078662E-02;  0.0000000E+00; -2.3402409E-03;  8.4944391E+02;
  4.4158319E-01;  9.9999998E-03; -2.1002170E-01;5139; -2.3395058E-02;  0.0000000E+00;  9.5784909E-04;  9.9905066E+02;  1.0000000E-01; -7.8649622E+02;3;  2.1793895E+00;  0.0000000E+00;  1.5619639E+00;0; -3.8604718E-02;  3.9919051E+04;  0.0000000E+00; -1.5717302E-01;  4.0000000E+04;  0.0000000E+00;  4.0003484E+04; -3.6160678E-02;  0.0000000E+00; -2.4440389E-03;  5.5312421E+02;
  4.4158706E-01;  9.9999998E-03; -2.0002857E-01;5140; -2.3582526E-02;  0.0000000E+00;  9.2908402E-04;  9.9916034E+02;  1.0000000E-01; -6.9563458E+02;3;  2.1434286E+00;  0.0000000E+00;  1.5200847E+00;0; -3.8805671E-02;  3.9929113E+04;  0.0000000E+00; -1.1614574E-01;  4.0000000E+04;  0.0000000E+00;  4.0001895E+04; -3.6247522E-02;  0.0000000E+00; -2.5581478E-03;  3.5869370E+02;
  4.4159156E-01;  9.9999998E-03; -1.9003247E-01;5141; -2.3768503E-02;  0.0000000E+00;  8.9983165E-04;  9.9926141E+02;  1.0000000E-01; -6.1188391E+02;3;  2.1112885E+00;  0.0000000E+00;  1.4741004E+00;0; -3.9029174E-02;  3.9938797E+04;  0.0000000E+00; -7.0686691E-02;  4.0000000E+04;  0.0000000E+00;  4.0000781E+04; -3.6335338E-02;  0.0000000E+00; -2.6938363E-03;  1.9423547E+02;
  4.4159731E-01;  9.9999998E-03; -1.8003452E-01;5142; -2.3952672E-02;  0.0000000E+00;  8.7035395E-04;  9.9936029E+02;  1.0000000E-01; -5.3000964E+02;3;  2.0829687E+00;  0.0000000E+00;  1.4239522E+00;0; -3.9270502E-02;  3.9947754E+04;  0.0000000E+00; -2.3949821E-02;  4.0000000E+04;  0.0000000E+00;  3.9999504E+04; -3.6419194E-02;  0.0000000E+00; -2.8513060E-03;  3.9196171E+01;
  4.4160503E-01;  9.9999998E-03; -1.7003568E-01;5143; -2.4134785E-02;  0.0000000E+00;  8.4040250E-04;  9.9944489E+02;  1.0000000E-01; -4.5988818E+02;3;  2.0583613E+00;  0.0000000E+00;  1.3695995E+00;0; -3.9524745E-02;  3.9955711E+04;  0.0000000E+00;  2.0461977E-02;  4.0000000E+04;  0.0000000E+00;  3.9998539E+04; -3.6494229E-02;  0.0000000E+00; -3.0305146E-03;  1.2629696E+02;
  4.4161507E-01;  9.9999998E-03; -1.6003641E-01;5144; -2.4314575E-02;  0.0000000E+00;  8.0956554E-04;  9.9951886E+02;  1.0000000E-01; -3.9860599E+02;3;  2.0374548E+00;  0.0000000E+00;  1.3111960E+00;0; -3.9785814E-02;  3.9962777E+04;  0.0000000E+00;  5.9077043E-02;  4.0000000E+04;  0.0000000E+00;  3.9997699E+04; -3.6555551E-02;  0.0000000E+00; -3.2302642E-03;  2.7147192E+02;
  4.4162747E-01;  9.9999998E-03; -1.5003684E-01;5145; -2.4491698E-02;  0.0000000E+00;  7.7747018E-04;  9.9958514E+02;  1.0000000E-01; -3.4369397E+02;3;  2.0199523E+00;  0.0000000E+00;  1.2489871E+00;0; -4.0046275E-02;  3.9969004E+04;  0.0000000E+00;  8.9264974E-02;  4.0000000E+04;  0.0000000E+00;  3.9996684E+04; -3.6598776E-02;  0.0000000E+00; -3.4474989E-03;  4.0250446E+02;
  4.4164193E-01;  9.9999998E-03; -1.4003666E-01;5146; -2.4665626E-02;  0.0000000E+00;  7.4377202E-04;  9.9963312E+02;  1.0000000E-01; -3.0394199E+02;3;  2.0056741E+00;  0.0000000E+00;  1.1832429E+00;0; -4.0297918E-02;  3.9973977E+04;  0.0000000E+00;  1.0978407E-01;  4.0000000E+04;  0.0000000E+00;  3.9995703E+04; -3.6620360E-02;  0.0000000E+00; -3.6775596E-03;  5.1767944E+02;
  4.4165745E-01;  9.9999998E-03; -1.3003576E-01;5147; -2.4835562E-02;  0.0000000E+00;  7.0825330E-04;  9.9966718E+02;  1.0000000E-01; -2.7574527E+02;3;  1.9942871E+00;  0.0000000E+00;  1.1141363E+00;0; -4.0533096E-02;  3.9977918E+04;  0.0000000E+00;  1.2079205E-01;  4.0000000E+04;  0.0000000E+00;  3.9995113E+04; -3.6617607E-02;  0.0000000E+00; -3.9154869E-03;  6.1909741E+02;
  4.4167295E-01;  9.9999998E-03; -1.2003417E-01;5148; -2.5000459E-02;  0.0000000E+00;  6.7079946E-04;  9.9968970E+02;  1.0000000E-01; -2.5707913E+02;3;  1.9855056E+00;  0.0000000E+00;  1.0418224E+00;0; -4.0746816E-02;  3.9980328E+04;  0.0000000E+00;  1.2332413E-01;  4.0000000E+04;  0.0000000E+00;  3.9994316E+04; -3.6589578E-02;  0.0000000E+00; -4.1572377E-03;  7.0990826E+02;
  4.4168594E-01;  9.9999998E-03; -1.1003177E-01;5149; -2.5159037E-02;  0.0000000E+00;  6.3118606E-04;  9.9969849E+02;  1.0000000E-01; -2.4982008E+02;3;  1.9788704E+00;  0.0000000E+00;  9.6639031E-01;0; -4.0935662E-02;  3.9981730E+04;  0.0000000E+00;  1.1889163E-01;  4.0000000E+04;  0.0000000E+00;  3.9993559E+04; -3.6536463E-02;  0.0000000E+00; -4.3991981E-03;  7.9121045E+02;
  4.5162401E-01;  9.9999998E-03; -2.7000701E-01;5194; -2.2653984E-02;  0.0000000E+00;  1.2366527E-03;  9.9854700E+02;  1.0000000E-01; -1.2037683E+03;3;  2.5507665E+00;  0.0000000E+00;  1.8308369E+00;0; -3.6578037E-02;  3.9870395E+04;  0.0000000E+00; -1.5299007E-01;  4.0000000E+04;  0.0000000E+00;  4.0011578E+04; -3.4753826E-02;  0.0000000E+00; -1.8242121E-03;  1.5921735E+03;
  4.5163193E-01;  9.9999998E-03; -2.6000783E-01;5195; -2.2828884E-02;  0.0000000E+00;  1.2187200E-03;  9.9863458E+02;  1.0000000E-01; -1.1312272E+03;3;  2.4973142E+00;  0.0000000E+00;  1.7974067E+00;0; -3.6874216E-02;  3.9878102E+04;  0.0000000E+00; -2.0256495E-01;  4.0000000E+04;  0.0000000E+00;  4.0010707E+04; -3.4797017E-02;  0.0000000E+00; -2.0772005E-03;  1.4990398E+03;
  4.5163462E-01;  9.9999998E-03; -2.5000829E-01;5196; -2.3011381E-02;  0.0000000E+00;  1.2023599E-03;  9.9872455E+02;  1.0000000E-01; -1.0567108E+03;3;  2.4463615E+00;  0.0000000E+00;  1.7664757E+00;0; -3.7152868E-02;  3.9886516E+04;  0.0000000E+00; -2.2655208E-01;  4.0000000E+04;  0.0000000E+00;  4.0009797E+04; -3.4851912E-02;  0.0000000E+00; -2.3009561E-03;  1.3812661E+03;
  4.5163515E-01;  9.9999998E-03; -2.4000664E-01;5197; -2.3199147E-02;  0.0000000E+00;  1.1734001E-03;  9.9882581E+02;  1.0000000E-01; -9.7281189E+02;3;  2.3983667E+00;  0.0000000E+00;  1.7350711E+00;0; -3.7341636E-02;  3.9895309E+04;  0.0000000E+00; -2.3155504E-01;  4.0000000E+04;  0.0000000E+00;  4.0009340E+04; -3.4918267E-02;  0.0000000E+00; -2.4233682E-03;  1.3125983E+03;
  4.5163611E-01;  9.9999998E-03; -2.3000669E-01;5198; -2.3389345E-02;  0.0000000E+00;  1.1616837E-03;  9.9892566E+02;  1.0000000E-01; -8.9004883E+02;3;  2.3536143E+00;  0.0000000E+00;  1.7021034E+00;0; -3.7602313E-02;  3.9904547E+04;  0.0000000E+00; -2.2223741E-01;  4.0000000E+04;  0.0000000E+00;  4.0007910E+04; -3.4995306E-02;  0.0000000E+00; -2.6070052E-03;  1.1046145E+03;
  4.5163554E-01;  9.9999998E-03; -2.2001271E-01;5199; -2.3579573E-02;  0.0000000E+00;  1.1497394E-03;  9.9900482E+02;  1.0000000E-01; -8.2447046E+02;3;  2.3122177E+00;  0.0000000E+00;  1.6663674E+00;0; -3.7841648E-02;  3.9913836E+04;  0.0000000E+00; -2.0195410E-01;  4.0000000E+04;  0.0000000E+00;  4.0005133E+04; -3.5081621E-02;  0.0000000E+00; -2.7600252E-03;  7.7692377E+02;
  4.5163286E-01;  9.9999998E-03; -2.1002081E-01;5200; -2.3769096E-02;  0.0000000E+00;  1.1232942E-03;  9.9909644E+02;  1.0000000E-01; -7.4857135E+02;3;  2.2745130E+00;  0.0000000E+00;  1.6273642E+00;0; -3.8060378E-02;  3.9923316E+04;  0.0000000E+00; -1.7285909E-01;  4.0000000E+04;  0.0000000E+00;  4.0003008E+04; -3.5174571E-02;  0.0000000E+00; -2.8858068E-03;  5.1484192E+02;
  4.5163044E-01;  9.9999998E-03; -2.0002715E-01;5201; -2.3957882E-02;  0.0000000E+00;  1.0913557E-03;  9.9919336E+02;  1.0000000E-01; -6.6827734E+02;3;  2.2406929E+00;  0.0000000E+00;  1.5844531E+00;0; -3.8296834E-02;  3.9932496E+04;  0.0000000E+00; -1.3676783E-01;  4.0000000E+04;  0.0000000E+00;  4.0001594E+04; -3.5270352E-02;  0.0000000E+00; -3.0264801E-03;  3.2980743E+02;
  4.5162937E-01;  9.9999998E-03; -1.9003120E-01;5202; -2.4145629E-02;  0.0000000E+00;  1.0584260E-03;  9.9928979E+02;  1.0000000E-01; -5.8837836E+02;3;  2.2108750E+00;  0.0000000E+00;  1.5372900E+00;0; -3.8555395E-02;  3.9941355E+04;  0.0000000E+00; -9.5928244E-02;  4.0000000E+04;  0.0000000E+00;  4.0000445E+04; -3.5364442E-02;  0.0000000E+00; -3.1909538E-03;  1.7748656E+02;
  4.5163018E-01;  9.9999998E-03; -1.8003368E-01;5203; -2.4331827E-02;  0.0000000E+00;  1.0250441E-03;  9.9937958E+02;  1.0000000E-01; -5.1401013E+02;3;  2.1850228E+00;  0.0000000E+00;  1.4857386E+00;0; -3.8831521E-02;  3.9949879E+04;  0.0000000E+00; -5.3280227E-02;  4.0000000E+04;  0.0000000E+00;  3.9999484E+04; -3.5451699E-02;  0.0000000E+00; -3.3798222E-03;  8.0464821E+01;
  4.5163324E-01;  9.9999998E-03; -1.7003515E-01;5204; -2.4515901E-02;  0.0000000E+00;  9.9079078E-04;  9.9946552E+02;  1.0000000E-01; -4.4280225E+02;3;  2.1630158E+00;  0.0000000E+00;  1.4297597E+00;0; -3.9119780E-02;  3.9957527E+04;  0.0000000E+00; -1.2219307E-02;  4.0000000E+04;  0.0000000E+00;  3.9997992E+04; -3.5527095E-02;  0.0000000E+00; -3.5926837E-03;  1.7136472E+02;
  4.5163894E-01;  9.9999998E-03; -1.6003594E-01;5205; -2.4697278E-02;  0.0000000E+00;  9.5519121E-04;  9.9953485E+02;  1.0000000E-01; -3.8537180E+02;3;  2.1447742E+00;  0.0000000E+00;  1.3694886E+00;0; -3.9413165E-02;  3.9964473E+04;  0.0000000E+00;  2.3979248E-02;  4.0000000E+04;  0.0000000E+00;  3.9997199E+04; -3.5585500E-02;  0.0000000E+00; -3.8276636E-03;  3.0718579E+02;
  4.5164737E-01;  9.9999998E-03; -1.5003623E-01;5206; -2.4875339E-02;  0.0000000E+00;  9.1770466E-04;  9.9959692E+02;  1.0000000E-01; -3.3391644E+02;3;  2.1299465E+00;  0.0000000E+00;  1.3051789E+00;0; -3.9703365E-02;  3.9970402E+04;  0.0000000E+00;  5.2877299E-02;  4.0000000E+04;  0.0000000E+00;  3.9996344E+04; -3.5622578E-02;  0.0000000E+00; -4.0807859E-03;  4.3722351E+02;
  4.5165831E-01;  9.9999998E-03; -1.4003600E-01;5207; -2.5049355E-02;  0.0000000E+00;  8.7787362E-04;  9.9964600E+02;  1.0000000E-01; -2.9327563E+02;3;  2.1183424E+00;  0.0000000E+00;  1.2370956E+00;0; -3.9981559E-02;  3.9975426E+04;  0.0000000E+00;  7.3393025E-02;  4.0000000E+04;  0.0000000E+00;  3.9995500E+04; -3.5635158E-02;  0.0000000E+00; -4.3463991E-03;  5.5563336E+02;
  4.5167053E-01;  9.9999998E-03; -1.3003518E-01;5208; -2.5218416E-02;  0.0000000E+00;  8.3540910E-04;  9.9967853E+02;  1.0000000E-01; -2.6631345E+02;3;  2.1095738E+00;  0.0000000E+00;  1.1654347E+00;0; -4.0240031E-02;  3.9979246E+04;  0.0000000E+00;  8.5745782E-02;  4.0000000E+04;  0.0000000E+00;  3.9994586E+04; -3.5621226E-02;  0.0000000E+00; -4.6188058E-03;  6.6266870E+02;
  4.5168257E-01;  9.9999998E-03; -1.2003352E-01;5209; -2.5381479E-02;  0.0000000E+00;  7.9017068E-04;  9.9969965E+02;  1.0000000E-01; -2.4883244E+02;3;  2.1033006E+00;  0.0000000E+00;  1.0903018E+00;0; -4.0474061E-02;  3.9981758E+04;  0.0000000E+00;  9.0850569E-02;  4.0000000E+04;  0.0000000E+00;  3.9993828E+04; -3.5580616E-02;  0.0000000E+00; -4.8934459E-03;  7.5994598E+02;
  4.5169407E-01;  9.9999998E-03; -1.1003070E-01;5210; -2.5537437E-02;  0.0000000E+00;  7.4198586E-04;  9.9970551E+02;  1.0000000E-01; -2.4399309E+02;3;  2.0990613E+00;  0.0000000E+00;  1.0118543E+00;0; -4.0680543E-02;  3.9982711E+04;  0.0000000E+00;  8.9923188E-02;  4.0000000E+04;  0.0000000E+00;  3.9993094E+04; -3.5514135E-02;  0.0000000E+00; -5.1664058E-03;  8.4694574E+02;
  4.6168080E-01;  9.9999998E-03; -2.7000937E-01;5255; -2.3002176E-02;  0.0000000E+00;  1.4324617E-03;  9.9869769E+02;  1.0000000E-01; -1.0789324E+03;3;  2.6372149E+00;  0.0000000E+00;  1.8962672E+00;0; -3.5900056E-02;  3.9884508E+04;  0.0000000E+00; -9.8676622E-02;  4.0000000E+04;  0.0000000E+00;  4.0009930E+04; -3.3640392E-02;  0.0000000E+00; -2.2596654E-03;  1.3718417E+03;
  4.6169016E-01;  9.9999998E-03; -2.6001048E-01;5256; -2.3178089E-02;  0.0000000E+00;  1.4147316E-03;  9.9877216E+02;  1.0000000E-01; -1.0172551E+03;3;  2.5849566E+00;  0.0000000E+00;  1.8635557E+00;0; -3.6225427E-02;  3.9891402E+04;  0.0000000E+00; -1.6342029E-01;  4.0000000E+04;  0.0000000E+00;  4.0009168E+04; -3.3700660E-02;  0.0000000E+00; -2.5247680E-03;  1.2787523E+03;
  4.6169409E-01;  9.9999998E-03; -2.5001180E-01;5257; -2.3361731E-02;  0.0000000E+00;  1.4013157E-03;  9.9884576E+02;  1.0000000E-01; -9.5626917E+02;3;  2.5353870E+00;  0.0000000E+00;  1.8324939E+00;0; -3.6545068E-02;  3.9898512E+04;  0.0000000E+00; -1.9801611E-01;  4.0000000E+04;  0.0000000E+00;  4.0008055E+04; -3.3771858E-02;  0.0000000E+00; -2.7732106E-03;  1.1376501E+03;
  4.6169552E-01;  9.9999998E-03; -2.4001238E-01;5258; -2.3550922E-02;  0.0000000E+00;  1.3735235E-03;  9.9893103E+02;  1.0000000E-01; -8.8560449E+02;3;  2.4888871E+00;  0.0000000E+00;  1.8015180E+00;0; -3.6751762E-02;  3.9906160E+04;  0.0000000E+00; -2.1018456E-01;  4.0000000E+04;  0.0000000E+00;  4.0006980E+04; -3.3853412E-02;  0.0000000E+00; -2.8983501E-03;  1.0140102E+03;
  4.6169537E-01;  9.9999998E-03; -2.3001239E-01;5259; -2.3742920E-02;  0.0000000E+00;  1.3462030E-03;  9.9901605E+02;  1.0000000E-01; -8.1518677E+02;3;  2.4457843E+00;  0.0000000E+00;  1.7682765E+00;0; -3.6977302E-02;  3.9914383E+04;  0.0000000E+00; -2.0661809E-01;  4.0000000E+04;  0.0000000E+00;  4.0005969E+04; -3.3944298E-02;  0.0000000E+00; -3.0330038E-03;  8.7066486E+02;
  4.6169132E-01;  9.9999998E-03; -2.2001439E-01;5260; -2.3935236E-02;  0.0000000E+00;  1.3202971E-03;  9.9910004E+02;  1.0000000E-01; -7.4560846E+02;3;  2.4063044E+00;  0.0000000E+00;  1.7322612E+00;0; -3.7222065E-02;  3.9922617E+04;  0.0000000E+00; -1.9212471E-01;  4.0000000E+04;  0.0000000E+00;  4.0004395E+04; -3.4042794E-02;  0.0000000E+00; -3.1792719E-03;  6.6208295E+02;
  4.6168381E-01;  9.9999998E-03; -2.1001779E-01;5261; -2.4127036E-02;  0.0000000E+00;  1.2893421E-03;  9.9918829E+02;  1.0000000E-01; -6.7247473E+02;3;  2.3708293E+00;  0.0000000E+00;  1.6927102E+00;0; -3.7476450E-02;  3.9931195E+04;  0.0000000E+00; -1.6970778E-01;  4.0000000E+04;  0.0000000E+00;  4.0002508E+04; -3.4145944E-02;  0.0000000E+00; -3.3305048E-03;  4.5681180E+02;
  4.6167436E-01;  9.9999998E-03; -2.0002118E-01;5262; -2.4318233E-02;  0.0000000E+00;  1.2551456E-03;  9.9927466E+02;  1.0000000E-01; -6.0092120E+02;3;  2.3393724E+00;  0.0000000E+00;  1.6489083E+00;0; -3.7750855E-02;  3.9939809E+04;  0.0000000E+00; -1.4138575E-01;  4.0000000E+04;  0.0000000E+00;  4.0001188E+04; -3.4249753E-02;  0.0000000E+00; -3.5011019E-03;  2.8404208E+02;
  4.6166530E-01;  9.9999998E-03; -1.9002387E-01;5263; -2.4508510E-02;  0.0000000E+00;  1.2192463E-03;  9.9936121E+02;  1.0000000E-01; -5.2921954E+02;3;  2.3121078E+00;  0.0000000E+00;  1.6006730E+00;0; -3.8046073E-02;  3.9948188E+04;  0.0000000E+00; -1.0905875E-01;  4.0000000E+04;  0.0000000E+00;  3.9999816E+04; -3.4349300E-02;  0.0000000E+00; -3.6967725E-03;  1.5783743E+02;
  4.6165749E-01;  9.9999998E-03; -1.8002586E-01;5264; -2.4697172E-02;  0.0000000E+00;  1.1820901E-03;  9.9944476E+02;  1.0000000E-01; -4.5998697E+02;3;  2.2889750E+00;  0.0000000E+00;  1.5477459E+00;0; -3.8358506E-02;  3.9955859E+04;  0.0000000E+00; -7.5013749E-02;  4.0000000E+04;  0.0000000E+00;  3.9998746E+04; -3.4439374E-02;  0.0000000E+00; -3.9191330E-03;  1.5655995E+02;
  4.6165201E-01;  9.9999998E-03; -1.7002745E-01;5265; -2.4883386E-02;  0.0000000E+00;  1.1434393E-03;  9.9952026E+02;  1.0000000E-01; -3.9747021E+02;3;  2.2697997E+00;  0.0000000E+00;  1.4901416E+00;0; -3.8682450E-02;  3.9963301E+04;  0.0000000E+00; -4.1877579E-02;  4.0000000E+04;  0.0000000E+00;  3.9997797E+04; -3.4514572E-02;  0.0000000E+00; -4.1678781E-03;  2.6528082E+02;
  4.6165001E-01;  9.9999998E-03; -1.6002864E-01;5266; -2.5066337E-02;  0.0000000E+00;  1.1027649E-03;  9.9958795E+02;  1.0000000E-01; -3.4137305E+02;3;  2.2544096E+00;  0.0000000E+00;  1.4279929E+00;0; -3.9010413E-02;  3.9969734E+04;  0.0000000E+00; -1.2183191E-02;  4.0000000E+04;  0.0000000E+00;  3.9996398E+04; -3.4569919E-02;  0.0000000E+00; -4.4404920E-03;  3.9141553E+02;
  4.6165171E-01;  9.9999998E-03; -1.5002933E-01;5267; -2.5245180E-02;  0.0000000E+00;  1.0594567E-03;  9.9964587E+02;  1.0000000E-01; -2.9337439E+02;3;  2.2425284E+00;  0.0000000E+00;  1.3615574E+00;0; -3.9333411E-02;  3.9975348E+04;  0.0000000E+00;  1.2202159E-02;  4.0000000E+04;  0.0000000E+00;  3.9995766E+04; -3.4601495E-02;  0.0000000E+00; -4.7319154E-03;  5.1261798E+02;
  4.6165690E-01;  9.9999998E-03; -1.4002958E-01;5268; -2.5419069E-02;  0.0000000E+00;  1.0129748E-03;  9.9969342E+02;  1.0000000E-01; -2.5401749E+02;3;  2.2337542E+00;  0.0000000E+00;  1.2911091E+00;0; -3.9642107E-02;  3.9979965E+04;  0.0000000E+00;  3.0478494E-02;  4.0000000E+04;  0.0000000E+00;  3.9994836E+04; -3.4606736E-02;  0.0000000E+00; -5.0353706E-03;  6.2410211E+02;
  4.6166447E-01;  9.9999998E-03; -1.3002905E-01;5269; -2.5587073E-02;  0.0000000E+00;  9.6300617E-04;  9.9972791E+02;  1.0000000E-01; -2.2542570E+02;3;  2.2278867E+00;  0.0000000E+00;  1.2168347E+00;0; -3.9928690E-02;  3.9983660E+04;  0.0000000E+00;  4.2839158E-02;  4.0000000E+04;  0.0000000E+00;  3.9994078E+04; -3.4584414E-02;  0.0000000E+00; -5.3442754E-03;  7.2578168E+02;
  4.6167368E-01;  9.9999998E-03; -1.2002756E-01;5270; -2.5748255E-02;  0.0000000E+00;  9.0944272E-04;  9.9974475E+02;  1.0000000E-01; -2.1145079E+02;3;  2.2243364E+00;  0.0000000E+00;  1.1388534E+00;0; -4.0188514E-02;  3.9985902E+04;  0.0000000E+00;  4.9950603E-02;  4.0000000E+04;  0.0000000E+00;  3.9993402E+04; -3.4535054E-02;  0.0000000E+00; -5.6534614E-03;  8.1812085E+02;
  4.6168429E-01;  9.9999998E-03; -1.1002494E-01;5271; -2.5901664E-02;  0.0000000E+00;  8.5218268E-04;  9.9974890E+02;  1.0000000E-01; -2.0804349E+02;3;  2.2227812E+00;  0.0000000E+00;  1.0573434E+00;0; -4.0418759E-02;  3.9986965E+04;  0.0000000E+00;  5.2604415E-02;  4.0000000E+04;  0.0000000E+00;  3.9992645E+04; -3.4460291E-02;  0.0000000E+00; -5.9584668E-03;  8.9982562E+02;
  4.7166160E-01;  9.9999998E-03; -2.7001169E-01;5316; -2.3321874E-02;  0.0000000E+00;  1.6296166E-03;  9.9883771E+02;  1.0000000E-01; -9.6293567E+02;3;  2.7230694E+00;  0.0000000E+00;  1.9600360E+00;0; -3.5210572E-02;  3.9897742E+04;  0.0000000E+00; -4.3704629E-02;  4.0000000E+04;  0.0000000E+00;  4.0008387E+04; -3.2514490E-02;  0.0000000E+00; -2.6960825E-03;  1.1658666E+03;
  4.7167519E-01;  9.9999998E-03; -2.6001307E-01;5317; -2.3500783E-02;  0.0000000E+00;  1.6088421E-03;  9.9889984E+02;  1.0000000E-01; -9.1148035E+02;3;  2.6721220E+00;  0.0000000E+00;  1.9288279E+00;0; -3.5534285E-02;  3.9903832E+04;  0.0000000E+00; -1.1501358E-01;  4.0000000E+04;  0.0000000E+00;  4.0007773E+04; -3.2590300E-02;  0.0000000E+00; -2.9439845E-03;  1.0770869E+03;
  4.7168398E-01;  9.9999998E-03; -2.5001514E-01;5318; -2.3686994E-02;  0.0000000E+00;  1.5951473E-03;  9.9896661E+02;  1.0000000E-01; -8.5612384E+02;3;  2.6240146E+00;  0.0000000E+00;  1.8985745E+00;0; -3.5880022E-02;  3.9910297E+04;  0.0000000E+00; -1.5532577E-01;  4.0000000E+04;  0.0000000E+00;  4.0006449E+04; -3.2675963E-02;  0.0000000E+00; -3.2040586E-03;  9.1594751E+02;
  4.7169253E-01;  9.9999998E-03; -2.4001805E-01;5319; -2.3878729E-02;  0.0000000E+00;  1.5734647E-03;  9.9903265E+02;  1.0000000E-01; -8.0140936E+02;3;  2.5792062E+00;  0.0000000E+00;  1.8677471E+00;0; -3.6138900E-02;  3.9917387E+04;  0.0000000E+00; -1.7203780E-01;  4.0000000E+04;  0.0000000E+00;  4.0004828E+04; -3.2770250E-02;  0.0000000E+00; -3.3686487E-03;  7.2282269E+02;
  4.7169921E-01;  9.9999998E-03; -2.3001957E-01;5320; -2.4073629E-02;  0.0000000E+00;  1.5344878E-03;  9.9911377E+02;  1.0000000E-01; -7.3420142E+02;3;  2.5380228E+00;  0.0000000E+00;  1.8344251E+00;0; -3.6341384E-02;  3.9924777E+04;  0.0000000E+00; -1.7272909E-01;  4.0000000E+04;  0.0000000E+00;  4.0003918E+04; -3.2872017E-02;  0.0000000E+00; -3.4693668E-03;  5.9383057E+02;
  4.7170025E-01;  9.9999998E-03; -2.2001846E-01;5321; -2.4269274E-02;  0.0000000E+00;  1.4945591E-03;  9.9920117E+02;  1.0000000E-01; -6.6180841E+02;3;  2.5008082E+00;  0.0000000E+00;  1.7981824E+00;0; -3.6586907E-02;  3.9932672E+04;  0.0000000E+00; -1.6316542E-01;  4.0000000E+04;  0.0000000E+00;  4.0003027E+04; -3.2979593E-02;  0.0000000E+00; -3.6073125E-03;  4.9354080E+02;
  4.7169521E-01;  9.9999998E-03; -2.1001685E-01;5322; -2.4464609E-02;  0.0000000E+00;  1.4579883E-03;  9.9928851E+02;  1.0000000E-01; -5.8946478E+02;3;  2.4677553E+00;  0.0000000E+00;  1.7579024E+00;0; -3.6872320E-02;  3.9940738E+04;  0.0000000E+00; -1.4730653E-01;  4.0000000E+04;  0.0000000E+00;  4.0001871E+04; -3.3089865E-02;  0.0000000E+00; -3.7824563E-03;  3.5670151E+02;
  4.7168520E-01;  9.9999998E-03; -2.0001601E-01;5323; -2.4659328E-02;  0.0000000E+00;  1.4210662E-03;  9.9937213E+02;  1.0000000E-01; -5.2018280E+02;3;  2.4389756E+00;  0.0000000E+00;  1.7134097E+00;0; -3.7182361E-02;  3.9948719E+04;  0.0000000E+00; -1.2760867E-01;  4.0000000E+04;  0.0000000E+00;  4.0000504E+04; -3.3198610E-02;  0.0000000E+00; -3.9837523E-03;  2.1268318E+02;
  4.7167271E-01;  9.9999998E-03; -1.9001582E-01;5324; -2.4852943E-02;  0.0000000E+00;  1.3822232E-03;  9.9945410E+02;  1.0000000E-01; -4.5228348E+02;3;  2.4145753E+00;  0.0000000E+00;  1.6641423E+00;0; -3.7512939E-02;  3.9956531E+04;  0.0000000E+00; -1.0573367E-01;  4.0000000E+04;  0.0000000E+00;  3.9999082E+04; -3.3300754E-02;  0.0000000E+00; -4.2121857E-03;  1.6068434E+02;
  4.7165993E-01;  9.9999998E-03; -1.8001616E-01;5325; -2.5044588E-02;  0.0000000E+00;  1.3413408E-03;  9.9953107E+02;  1.0000000E-01; -3.8848282E+02;3;  2.3944705E+00;  0.0000000E+00;  1.6099409E+00;0; -3.7860740E-02;  3.9964145E+04;  0.0000000E+00; -8.3172604E-02;  4.0000000E+04;  0.0000000E+00;  3.9997637E+04; -3.3390917E-02;  0.0000000E+00; -4.4698217E-03;  2.5418610E+02;
  4.7164932E-01;  9.9999998E-03; -1.7001688E-01;5326; -2.5233261E-02;  0.0000000E+00;  1.2981700E-03;  9.9959973E+02;  1.0000000E-01; -3.3159552E+02;3;  2.3784282E+00;  0.0000000E+00;  1.5507481E+00;0; -3.8220122E-02;  3.9970910E+04;  0.0000000E+00; -6.1426174E-02;  4.0000000E+04;  0.0000000E+00;  3.9996719E+04; -3.3463795E-02;  0.0000000E+00; -4.7563277E-03;  3.8254935E+02;
  4.7164196E-01;  9.9999998E-03; -1.6001789E-01;5327; -2.5417913E-02;  0.0000000E+00;  1.2521606E-03;  9.9966522E+02;  1.0000000E-01; -2.7737485E+02;3;  2.3662212E+00;  0.0000000E+00;  1.4867376E+00;0; -3.8583290E-02;  3.9977098E+04;  0.0000000E+00; -4.1857768E-02;  4.0000000E+04;  0.0000000E+00;  3.9995895E+04; -3.3514891E-02;  0.0000000E+00; -5.0683985E-03;  5.0563251E+02;
  4.7163826E-01;  9.9999998E-03; -1.5001908E-01;5328; -2.5597554E-02;  0.0000000E+00;  1.2026510E-03;  9.9971887E+02;  1.0000000E-01; -2.3293167E+02;3;  2.3575985E+00;  0.0000000E+00;  1.4181677E+00;0; -3.8940459E-02;  3.9982344E+04;  0.0000000E+00; -2.5405245E-02;  4.0000000E+04;  0.0000000E+00;  3.9994840E+04; -3.3540700E-02;  0.0000000E+00; -5.3997585E-03;  6.1690698E+02;
  4.7163823E-01;  9.9999998E-03; -1.4002007E-01;5329; -2.5771271E-02;  0.0000000E+00;  1.1490593E-03;  9.9976227E+02;  1.0000000E-01; -1.9693269E+02;3;  2.3520396E+00;  0.0000000E+00;  1.3453214E+00;0; -3.9281845E-02;  3.9986594E+04;  0.0000000E+00; -1.2351594E-02;  4.0000000E+04;  0.0000000E+00;  3.9994141E+04; -3.3539478E-02;  0.0000000E+00; -5.7423674E-03;  7.1608331E+02;
  4.7164148E-01;  9.9999998E-03; -1.3002047E-01;5330; -2.5938205E-02;  0.0000000E+00;  1.0910971E-03;  9.9979468E+02;  1.0000000E-01; -1.7011864E+02;3;  2.3492279E+00;  0.0000000E+00;  1.2684026E+00;0; -3.9599415E-02;  3.9989832E+04;  0.0000000E+00; -2.3920089E-03;  4.0000000E+04;  0.0000000E+00;  3.9993383E+04; -3.3510789E-02;  0.0000000E+00; -6.0886266E-03;  8.0441571E+02;
  4.7164789E-01;  9.9999998E-03; -1.2001984E-01;5331; -2.6097562E-02;  0.0000000E+00;  1.0287318E-03;  9.9981305E+02;  1.0000000E-01; -1.5490919E+02;3;  2.3487182E+00;  0.0000000E+00;  1.1875379E+00;0; -3.9888572E-02;  3.9992098E+04;  0.0000000E+00;  4.9290820E-03;  4.0000000E+04;  0.0000000E+00;  3.9992898E+04; -3.3455867E-02;  0.0000000E+00; -6.4327046E-03;  8.8273108E+02;
  4.7165704E-01;  9.9999998E-03; -1.1001811E-01;5332; -2.6248587E-02;  0.0000000E+00;  9.6196914E-04;  9.9981891E+02;  1.0000000E-01; -1.5002043E+02;3;  2.3500967E+00;  0.0000000E+00;  1.1028990E+00;0; -4.0146768E-02;  3.9993004E+04;  0.0000000E+00;  1.0015747E-02;  4.0000000E+04;  0.0000000E+00;  3.9992312E+04; -3.3377301E-02;  0.0000000E+00; -6.7694653E-03;  9.5000073E+02;
  4.8165658E-01;  9.9999998E-03; -1.1001351E-01;5393; -2.6577601E-02;  0.0000000E+00;  1.0723640E-03;  9.9990515E+02;  1.0000146E-01; -7.8565674E+01;3;  2.4814565E+00;  0.0000000E+00;  1.1488075E+00;0; -3.9863944E-02;  3.9999273E+04;  0.0000000E+00; -3.4271490E-02;  4.0000000E+04;  0.0000000E+00;  3.9991984E+04; -3.2266919E-02;  0.0000000E+00; -7.5970264E-03;  1.0000701E+03;
  4.8164871E-01;  9.9999998E-03; -1.2001434E-01;5392; -2.6428739E-02;  0.0000000E+00;  1.1489956E-03;  9.9989709E+02;  1.0000150E-01; -8.5232147E+01;3;  2.4769413E+00;  0.0000000E+00;  1.2366368E+00;0; -3.9575770E-02;  3.9998516E+04;  0.0000000E+00; -3.9792195E-02;  4.0000000E+04;  0.0000000E+00;  3.9992285E+04; -3.2346036E-02;  0.0000000E+00; -7.2297323E-03;  9.5237915E+02;
  4.8164451E-01;  9.9999998E-03; -1.3001417E-01;5391; -2.6271071E-02;  0.0000000E+00;  1.2205828E-03;  9.9988104E+02;  1.0000146E-01; -9.8565109E+01;3;  2.4740419E+00;  0.0000000E+00;  1.3204455E+00;0; -3.9255608E-02;  3.9996219E+04;  0.0000000E+00; -4.4837486E-02;  4.0000000E+04;  0.0000000E+00;  3.9992816E+04; -3.2404117E-02;  0.0000000E+00; -6.8514915E-03;  8.9247589E+02;
  4.8164326E-01;  9.9999998E-03; -1.4001317E-01;5390; -2.6105113E-02;  0.0000000E+00;  1.2869629E-03;  9.9984802E+02;  1.0000150E-01; -1.2592236E+02;3;  2.4734435E+00;  0.0000000E+00;  1.4000500E+00;0; -3.8905930E-02;  3.9993566E+04;  0.0000000E+00; -4.9554117E-02;  4.0000000E+04;  0.0000000E+00;  3.9993156E+04; -3.2437965E-02;  0.0000000E+00; -6.4679650E-03;  8.2002411E+02;
  4.8164421E-01;  9.9999998E-03; -1.5001184E-01;5389; -2.5931483E-02;  0.0000000E+00;  1.3480524E-03;  9.9980676E+02;  1.0000141E-01; -1.6009422E+02;3;  2.4754534E+00;  0.0000000E+00;  1.4752986E+00;0; -3.8531616E-02;  3.9989531E+04;  0.0000000E+00; -5.4402377E-02;  4.0000000E+04;  0.0000000E+00;  3.9993988E+04; -3.2445900E-02;  0.0000000E+00; -6.0857162E-03;  7.3291724E+02;
  4.8164657E-01;  9.9999998E-03; -1.6001074E-01;5388; -2.5750928E-02;  0.0000000E+00;  1.4040635E-03;  9.9975739E+02;  1.0000144E-01; -2.0098195E+02;3;  2.4805236E+00;  0.0000000E+00;  1.5459788E+00;0; -3.8140729E-02;  3.9984641E+04;  0.0000000E+00; -6.0043599E-02;  4.0000000E+04;  0.0000000E+00;  3.9994797E+04; -3.2427344E-02;  0.0000000E+00; -5.7133865E-03;  6.2822595E+02;
  4.8164985E-01;  9.9999998E-03; -1.7001024E-01;5387; -2.5564361E-02;  0.0000000E+00;  1.4555689E-03;  9.9969580E+02;  1.0000145E-01; -2.5204224E+02;3;  2.4891055E+00;  0.0000000E+00;  1.6117846E+00;0; -3.7743736E-02;  3.9978566E+04;  0.0000000E+00; -6.7014091E-02;  4.0000000E+04;  0.0000000E+00;  3.9995746E+04; -3.2383315E-02;  0.0000000E+00; -5.3604203E-03;  5.0342380E+02;
  4.8165318E-01;  9.9999998E-03; -1.8001078E-01;5386; -2.5372859E-02;  0.0000000E+00;  1.5032768E-03;  9.9962799E+02;  1.0000140E-01; -3.0818878E+02;3;  2.5015914E+00;  0.0000000E+00;  1.6724589E+00;0; -3.7351009E-02;  3.9972176E+04;  0.0000000E+00; -7.5592533E-02;  4.0000000E+04;  0.0000000E+00;  3.9996977E+04; -3.2316539E-02;  0.0000000E+00; -5.0344677E-03;  3.5902646E+02;
  4.8165581E-01;  9.9999998E-03; -1.9001269E-01;5385; -2.5177626E-02;  0.0000000E+00;  1.5477779E-03;  9.9955493E+02;  1.0000148E-01; -3.6873029E+02;3;  2.5182598E+00;  0.0000000E+00;  1.7278361E+00;0; -3.6970861E-02;  3.9964871E+04;  0.0000000E+00; -8.5770890E-02;  4.0000000E+04;  0.0000000E+00;  3.9998340E+04; -3.2231010E-02;  0.0000000E+00; -4.7398498E-03;  2.0910251E+02;
  4.8165676E-01;  9.9999998E-03; -2.0001635E-01;5384; -2.4979891E-02;  0.0000000E+00;  1.5896246E-03;  9.9947321E+02;  1.0000140E-01; -4.3643207E+02;3;  2.5393710E+00;  0.0000000E+00;  1.7780192E+00;0; -3.6608782E-02;  3.9956891E+04;  0.0000000E+00; -9.7218603E-02;  4.0000000E+04;  0.0000000E+00;  3.9999672E+04; -3.2131452E-02;  0.0000000E+00; -4.4773291E-03;  1.3560706E+02;
  4.8165345E-01;  9.9999998E-03; -2.1002123E-01;5383; -2.4780735E-02;  0.0000000E+00;  1.6301734E-03;  9.9938348E+02;  1.0000147E-01; -5.1075095E+02;3;  2.5650666E+00;  0.0000000E+00;  1.8231395E+00;0; -3.6268856E-02;  3.9948789E+04;  0.0000000E+00; -1.0912936E-01;  4.0000000E+04;  0.0000000E+00;  4.0000859E+04; -3.2023162E-02;  0.0000000E+00; -4.2456943E-03;  2.1348816E+02;
  4.8164585E-01;  9.9999998E-03; -2.2002605E-01;5382; -2.4581028E-02;  0.0000000E+00;  1.6737394E-03;  9.9928998E+02;  1.0000146E-01; -5.8823022E+02;3;  2.5953779E+00;  0.0000000E+00;  1.8637598E+00;0; -3.5961282E-02;  3.9940762E+04;  0.0000000E+00; -1.1995158E-01;  4.0000000E+04;  0.0000000E+00;  4.0001328E+04; -3.1910907E-02;  0.0000000E+00; -4.0503740E-03;  2.8133221E+02;
  4.8163548E-01;  9.9999998E-03; -2.3002768E-01;5381; -2.4381502E-02;  0.0000000E+00;  1.7264046E-03;  9.9919513E+02;  1.0000141E-01; -6.6679590E+02;3;  2.6301818E+00;  0.0000000E+00;  1.9001209E+00;0; -3.5719872E-02;  3.9932898E+04;  0.0000000E+00; -1.2702799E-01;  4.0000000E+04;  0.0000000E+00;  4.0001539E+04; -3.1798732E-02;  0.0000000E+00; -3.9211400E-03;  3.1537952E+02;
  4.8162270E-01;  9.9999998E-03; -2.4002306E-01;5380; -2.4183335E-02;  0.0000000E+00;  1.7698358E-03;  9.9911829E+02;  1.0000148E-01; -7.3049780E+02;3;  2.6692412E+00;  0.0000000E+00;  1.9329592E+00;0; -3.5515875E-02;  3.9925312E+04;  0.0000000E+00; -1.2621796E-01;  4.0000000E+04;  0.0000000E+00;  4.0003129E+04; -3.1689964E-02;  0.0000000E+00; -3.8259123E-03;  4.8186627E+02;
  4.8160774E-01;  9.9999998E-03; -2.5001776E-01;5379; -2.3988405E-02;  0.0000000E+00;  1.7815059E-03;  9.9906451E+02;  1.0000146E-01; -7.7503973E+02;3;  2.7122281E+00;  0.0000000E+00;  1.9635913E+00;0; -3.5174243E-02;  3.9918398E+04;  0.0000000E+00; -1.1150517E-01;  4.0000000E+04;  0.0000000E+00;  4.0005445E+04; -3.1586893E-02;  0.0000000E+00; -3.5873484E-03;  7.6203461E+02;
  4.8159370E-01;  9.9999998E-03; -2.6001531E-01;5378; -2.3798523E-02;  0.0000000E+00;  1.7992029E-03;  9.9900153E+02;  1.0000148E-01; -8.2723578E+02;3;  2.7587767E+00;  0.0000000E+00;  1.9935206E+00;0; -3.4819067E-02;  3.9912074E+04;  0.0000000E+00; -7.5586930E-02;  4.0000000E+04;  0.0000000E+00;  4.0006695E+04; -3.1490669E-02;  0.0000000E+00; -3.3283986E-03;  9.2594861E+02;
  4.8157924E-01;  9.9999998E-03; -2.7001372E-01;5377; -2.3615249E-02;  0.0000000E+00;  1.8265685E-03;  9.9894183E+02;  1.0000148E-01; -8.7666650E+02;3;  2.8083291E+00;  0.0000000E+00;  2.0240524E+00;0; -3.4527533E-02;  3.9906227E+04;  0.0000000E+00; -1.2197116E-02;  4.0000000E+04;  0.0000000E+00;  4.0007258E+04; -3.1402819E-02;  0.0000000E+00; -3.1247125E-03;  1.0138430E+03;
  4.9171728E-01;  9.9999998E-03; -1.0999916E-01;5454; -2.6889361E-02;  0.0000000E+00;  1.1841026E-03;  9.9996674E+02;  1.0000202E-01; -2.7554773E+01;3;  2.6175964E+00;  0.0000000E+00;  1.1951582E+00;0; -3.9571498E-02;  4.0004418E+04;  0.0000000E+00; -7.6309577E-02;  4.0000000E+04;  0.0000000E+00;  3.9991520E+04; -3.1133162E-02;  0.0000000E+00; -8.4383357E-03;  1.0516722E+03;
  4.9170560E-01;  9.9999998E-03; -1.1999951E-01;5453; -2.6742343E-02;  0.0000000E+00;  1.2708456E-03;  9.9995721E+02;  1.0000196E-01; -3.5455784E+01;3;  2.6094172E+00;  0.0000000E+00;  1.2862215E+00;0; -3.9253533E-02;  4.0003527E+04;  0.0000000E+00; -7.9975374E-02;  4.0000000E+04;  0.0000000E+00;  3.9991934E+04; -3.1211030E-02;  0.0000000E+00; -8.0425022E-03;  1.0237734E+03;
  4.9169907E-01;  9.9999998E-03; -1.2999915E-01;5452; -2.6586160E-02;  0.0000000E+00;  1.3519562E-03;  9.9994031E+02;  1.0000198E-01; -4.9430698E+01;3;  2.6028616E+00;  0.0000000E+00;  1.3730260E+00;0; -3.8902771E-02;  4.0001457E+04;  0.0000000E+00; -8.0269203E-02;  4.0000000E+04;  0.0000000E+00;  3.9992266E+04; -3.1271037E-02;  0.0000000E+00; -7.6317331E-03;  9.8143677E+02;
  4.9169713E-01;  9.9999998E-03; -1.3999827E-01;5451; -2.6421145E-02;  0.0000000E+00;  1.4271108E-03;  9.9991339E+02;  1.0000201E-01; -7.1751053E+01;3;  2.5984180E+00;  0.0000000E+00;  1.4553678E+00;0; -3.8521975E-02;  3.9998855E+04;  0.0000000E+00; -7.7310123E-02;  4.0000000E+04;  0.0000000E+00;  3.9992508E+04; -3.1309728E-02;  0.0000000E+00; -7.2122477E-03;  9.2240240E+02;
  4.9169877E-01;  9.9999998E-03; -1.4999734E-01;5450; -2.6247745E-02;  0.0000000E+00;  1.4960958E-03;  9.9987097E+02;  1.0000207E-01; -1.0691055E+02;3;  2.5964818E+00;  0.0000000E+00;  1.5330764E+00;0; -3.8115785E-02;  3.9995316E+04;  0.0000000E+00; -7.1790829E-02;  4.0000000E+04;  0.0000000E+00;  3.9993137E+04; -3.1324454E-02;  0.0000000E+00; -6.7913295E-03;  8.4296619E+02;
  4.9170297E-01;  9.9999998E-03; -1.5999697E-01;5449; -2.6066611E-02;  0.0000000E+00;  1.5590425E-03;  9.9982574E+02;  1.0000201E-01; -1.4439096E+02;3;  2.5976415E+00;  0.0000000E+00;  1.6059074E+00;0; -3.7692659E-02;  3.9990562E+04;  0.0000000E+00; -6.4998433E-02;  4.0000000E+04;  0.0000000E+00;  3.9993816E+04; -3.1313986E-02;  0.0000000E+00; -6.3786749E-03;  7.3844611E+02;
  4.9170804E-01;  9.9999998E-03; -1.6999786E-01;5448; -2.5878599E-02;  0.0000000E+00;  1.6164900E-03;  9.9976569E+02;  1.0000210E-01; -1.9411795E+02;3;  2.6023240E+00;  0.0000000E+00;  1.6735588E+00;0; -3.7263736E-02;  3.9984969E+04;  0.0000000E+00; -5.8552384E-02;  4.0000000E+04;  0.0000000E+00;  3.9995129E+04; -3.1278573E-02;  0.0000000E+00; -5.9851636E-03;  6.0404407E+02;
  4.9171221E-01;  9.9999998E-03; -1.8000036E-01;5447; -2.5684802E-02;  0.0000000E+00;  1.6691281E-03;  9.9970142E+02;  1.0000210E-01; -2.4735101E+02;3;  2.6109278E+00;  0.0000000E+00;  1.7357512E+00;0; -3.6840130E-02;  3.9978145E+04;  0.0000000E+00; -5.4162469E-02;  4.0000000E+04;  0.0000000E+00;  3.9996250E+04; -3.1220252E-02;  0.0000000E+00; -5.6198793E-03;  4.3773978E+02;
  4.9171236E-01;  9.9999998E-03; -1.9000489E-01;5446; -2.5486426E-02;  0.0000000E+00;  1.7175681E-03;  9.9962262E+02;  1.0000215E-01; -3.1263312E+02;3;  2.6239402E+00;  0.0000000E+00;  1.7923468E+00;0; -3.6430530E-02;  3.9970555E+04;  0.0000000E+00; -5.3279106E-02;  4.0000000E+04;  0.0000000E+00;  3.9997812E+04; -3.1142350E-02;  0.0000000E+00; -5.2881814E-03;  2.4779698E+02;
  4.9170566E-01;  9.9999998E-03; -2.0001118E-01;5445; -2.5284786E-02;  0.0000000E+00;  1.7622244E-03;  9.9953790E+02;  1.0000205E-01; -3.8285333E+02;3;  2.6414912E+00;  0.0000000E+00;  1.8433822E+00;0; -3.6040545E-02;  3.9962246E+04;  0.0000000E+00; -5.6699980E-02;  4.0000000E+04;  0.0000000E+00;  3.9999410E+04; -3.1049445E-02;  0.0000000E+00; -4.9910992E-03;  8.5687286E+01;
  4.9169400E-01;  9.9999998E-03; -2.1001929E-01;5444; -2.5081296E-02;  0.0000000E+00;  1.8048406E-03;  9.9944379E+02;  1.0000203E-01; -4.6082645E+02;3;  2.6638486E+00;  0.0000000E+00;  1.8890517E+00;0; -3.5673019E-02;  3.9953559E+04;  0.0000000E+00; -6.4210244E-02;  4.0000000E+04;  0.0000000E+00;  4.0000648E+04; -3.0945918E-02;  0.0000000E+00; -4.7271024E-03;  1.5012218E+02;
  4.9167743E-01;  9.9999998E-03; -2.2002767E-01;5443; -2.4877187E-02;  0.0000000E+00;  1.8519781E-03;  9.9934015E+02;  1.0000205E-01; -5.4665118E+02;3;  2.6911659E+00;  0.0000000E+00;  1.9299499E+00;0; -3.5340425E-02;  3.9944809E+04;  0.0000000E+00; -7.4370243E-02;  4.0000000E+04;  0.0000000E+00;  4.0000809E+04; -3.0836491E-02;  0.0000000E+00; -4.5039337E-03;  1.9965837E+02;
  4.9165633E-01;  9.9999998E-03; -2.3003083E-01;5442; -2.4673633E-02;  0.0000000E+00;  1.9120843E-03;  9.9922717E+02;  1.0000207E-01; -6.4027814E+02;3;  2.7233098E+00;  0.0000000E+00;  1.9663672E+00;0; -3.5087869E-02;  3.9936027E+04;  0.0000000E+00; -8.4313743E-02;  4.0000000E+04;  0.0000000E+00;  4.0000766E+04; -3.0725315E-02;  0.0000000E+00; -4.3625520E-03;  2.0651976E+02;
  4.9163002E-01;  9.9999998E-03; -2.4002510E-01;5441; -2.4471821E-02;  0.0000000E+00;  1.9568168E-03;  9.9914911E+02;  1.0000210E-01; -7.0496765E+02;3;  2.7599931E+00;  0.0000000E+00;  1.9992166E+00;0; -3.4859970E-02;  3.9927969E+04;  0.0000000E+00; -8.9733005E-02;  4.0000000E+04;  0.0000000E+00;  4.0002496E+04; -3.0615930E-02;  0.0000000E+00; -4.2440402E-03;  4.0881644E+02;
  4.9159479E-01;  9.9999998E-03; -2.5001901E-01;5440; -2.4272872E-02;  0.0000000E+00;  1.9661391E-03;  9.9909229E+02;  1.0000207E-01; -7.5202808E+02;3;  2.8008792E+00;  0.0000000E+00;  2.0295358E+00;0; -3.4469545E-02;  3.9920566E+04;  0.0000000E+00; -8.4560230E-02;  4.0000000E+04;  0.0000000E+00;  4.0005148E+04; -3.0511269E-02;  0.0000000E+00; -3.9582741E-03;  7.3351227E+02;
  4.9155813E-01;  9.9999998E-03; -2.6001659E-01;5439; -2.4078192E-02;  0.0000000E+00;  1.9923619E-03;  9.9902155E+02;  1.0000200E-01; -8.1064368E+02;3;  2.8455935E+00;  0.0000000E+00;  2.0588808E+00;0; -3.4144908E-02;  3.9913809E+04;  0.0000000E+00; -6.2698111E-02;  4.0000000E+04;  0.0000000E+00;  4.0006531E+04; -3.0412339E-02;  0.0000000E+00; -3.7325704E-03;  8.9287701E+02;
  4.9152768E-01;  9.9999998E-03; -2.7001485E-01;5438; -2.3889370E-02;  0.0000000E+00;  2.0260294E-03;  9.9895819E+02;  1.0000207E-01; -8.6313605E+02;3;  2.8936658E+00;  0.0000000E+00;  2.0888426E+00;0; -3.3891398E-02;  3.9907746E+04;  0.0000000E+00; -1.9786635E-02;  4.0000000E+04;  0.0000000E+00;  4.0007223E+04; -3.0319948E-02;  0.0000000E+00; -3.5714521E-03;  9.8527417E+02;
  5.0157362E-01;  9.9999998E-03; -2.7001527E-01;5499; -2.4152720E-02;  0.0000000E+00;  2.2292188E-03;  9.9889868E+02;  1.0000364E-01; -9.1241858E+02;3;  2.9794819E+00;  0.0000000E+00;  2.1526222E+00;0; -3.3327546E-02;  3.9901355E+04;  0.0000000E+00; -5.8363635E-02;  4.0000000E+04;  0.0000000E+00;  4.0007750E+04; -2.9275779E-02;  0.0000000E+00; -4.0517673E-03;  1.0634749E+03;
  5.0159794E-01;  9.9999998E-03; -2.6001716E-01;5500; -2.4346409E-02;  0.0000000E+00;  2.1912523E-03;  9.9897064E+02;  1.0000370E-01; -8.5281531E+02;3;  2.9328380E+00;  0.0000000E+00;  2.1238387E+00;0; -3.3557035E-02;  3.9908070E+04;  0.0000000E+00; -7.5912237E-02;  4.0000000E+04;  0.0000000E+00;  4.0006965E+04; -2.9367492E-02;  0.0000000E+00; -4.1895416E-03;  9.5432452E+02;
  5.0162435E-01;  9.9999998E-03; -2.5001952E-01;5501; -2.4544951E-02;  0.0000000E+00;  2.1568669E-03;  9.9904968E+02;  1.0000373E-01; -7.8733569E+02;3;  2.8897374E+00;  0.0000000E+00;  2.0958464E+00;0; -3.3844288E-02;  3.9915723E+04;  0.0000000E+00; -7.6626278E-02;  4.0000000E+04;  0.0000000E+00;  4.0005512E+04; -2.9465135E-02;  0.0000000E+00; -4.3791519E-03;  7.9408539E+02;
  5.0164437E-01;  9.9999998E-03; -2.4002525E-01;5502; -2.4746986E-02;  0.0000000E+00;  2.1393076E-03;  9.9912469E+02;  1.0000383E-01; -7.2516461E+02;3;  2.8507767E+00;  0.0000000E+00;  2.0657945E+00;0; -3.4224249E-02;  3.9924199E+04;  0.0000000E+00; -6.5024786E-02;  4.0000000E+04;  0.0000000E+00;  4.0003062E+04; -2.9567895E-02;  0.0000000E+00; -4.6563554E-03;  4.6940884E+02;
  5.0165969E-01;  9.9999998E-03; -2.3002996E-01;5503; -2.4951754E-02;  0.0000000E+00;  2.0901354E-03;  9.9921881E+02;  1.0000373E-01; -6.4719153E+02;3;  2.8163991E+00;  0.0000000E+00;  2.0329878E+00;0; -3.4470581E-02;  3.9933527E+04;  0.0000000E+00; -4.7938157E-02;  4.0000000E+04;  0.0000000E+00;  4.0001605E+04; -2.9673614E-02;  0.0000000E+00; -4.7969664E-03;  2.6270709E+02;
  5.0167471E-01;  9.9999998E-03; -2.2002590E-01;5504; -2.5158640E-02;  0.0000000E+00;  2.0297130E-03;  9.9934021E+02;  1.0000384E-01; -5.4660181E+02;3;  2.7870283E+00;  0.0000000E+00;  1.9962744E+00;0; -3.4752045E-02;  3.9943246E+04;  0.0000000E+00; -3.1057764E-02;  4.0000000E+04;  0.0000000E+00;  4.0001383E+04; -2.9779157E-02;  0.0000000E+00; -4.9728868E-03;  2.4363297E+02;
  5.0168687E-01;  9.9999998E-03; -2.1001729E-01;5505; -2.5366351E-02;  0.0000000E+00;  1.9815830E-03;  9.9945764E+02;  1.0000365E-01; -4.4932059E+02;3;  2.7628517E+00;  0.0000000E+00;  1.9551105E+00;0; -3.5108268E-02;  3.9953332E+04;  0.0000000E+00; -1.8194532E-02;  4.0000000E+04;  0.0000000E+00;  4.0000996E+04; -2.9881217E-02;  0.0000000E+00; -5.2270498E-03;  1.5748848E+02;
  5.0169605E-01;  9.9999998E-03; -2.0000872E-01;5506; -2.5573323E-02;  0.0000000E+00;  1.9367518E-03;  9.9956281E+02;  1.0000372E-01; -3.6221194E+02;3;  2.7439694E+00;  0.0000000E+00;  1.9087524E+00;0; -3.5497557E-02;  3.9962793E+04;  0.0000000E+00; -1.2086728E-02;  4.0000000E+04;  0.0000000E+00;  3.9999598E+04; -2.9975684E-02;  0.0000000E+00; -5.5218730E-03;  3.5730312E+01;
  5.0170243E-01;  9.9999998E-03; -1.9000159E-01;5507; -2.5778009E-02;  0.0000000E+00;  1.8888874E-03;  9.9965491E+02;  1.0000368E-01; -2.8591782E+02;3;  2.7302029E+00;  0.0000000E+00;  1.8568610E+00;0; -3.5910267E-02;  3.9972020E+04;  0.0000000E+00; -1.3932663E-02;  4.0000000E+04;  0.0000000E+00;  3.9997625E+04; -3.0058106E-02;  0.0000000E+00; -5.8521596E-03;  2.6185352E+02;
  5.0170588E-01;  9.9999998E-03; -1.7999586E-01;5508; -2.5978900E-02;  0.0000000E+00;  1.8363299E-03;  9.9973566E+02;  1.0000376E-01; -2.1900613E+02;3;  2.7213705E+00;  0.0000000E+00;  1.7991213E+00;0; -3.6344334E-02;  3.9980332E+04;  0.0000000E+00; -2.3443522E-02;  4.0000000E+04;  0.0000000E+00;  3.9996004E+04; -3.0124269E-02;  0.0000000E+00; -6.2200655E-03;  4.8151755E+02;
  5.0170571E-01;  9.9999998E-03; -1.6999173E-01;5509; -2.6174519E-02;  0.0000000E+00;  1.7785702E-03;  9.9980658E+02;  1.0000373E-01; -1.6024237E+02;3;  2.7169330E+00;  0.0000000E+00;  1.7354447E+00;0; -3.6794491E-02;  3.9987340E+04;  0.0000000E+00; -3.8950961E-02;  4.0000000E+04;  0.0000000E+00;  3.9994465E+04; -3.0170718E-02;  0.0000000E+00; -6.6237720E-03;  6.6961908E+02;
  5.0170422E-01;  9.9999998E-03; -1.5998931E-01;5510; -2.6363587E-02;  0.0000000E+00;  1.7150199E-03;  9.9986389E+02;  1.0000366E-01; -1.1278693E+02;3;  2.7166014E+00;  0.0000000E+00;  1.6659858E+00;0; -3.7251331E-02;  3.9993172E+04;  0.0000000E+00; -5.7784829E-02;  4.0000000E+04;  0.0000000E+00;  3.9993543E+04; -3.0194765E-02;  0.0000000E+00; -7.0565674E-03;  8.1891016E+02;
  5.0170320E-01;  9.9999998E-03; -1.4998838E-01;5511; -2.6545027E-02;  0.0000000E+00;  1.6449575E-03;  9.9991351E+02;  1.0000379E-01; -7.1652290E+01;3;  2.7197602E+00;  0.0000000E+00;  1.5910188E+00;0; -3.7703242E-02;  3.9997707E+04;  0.0000000E+00; -7.6876335E-02;  4.0000000E+04;  0.0000000E+00;  3.9992312E+04; -3.0195499E-02;  0.0000000E+00; -7.5077428E-03;  9.3077527E+02;
  5.0170404E-01;  9.9999998E-03; -1.3998841E-01;5512; -2.6718009E-02;  0.0000000E+00;  1.5678820E-03;  9.9994989E+02;  1.0000389E-01; -4.1529686E+01;3;  2.7259297E+00;  0.0000000E+00;  1.5108550E+00;0; -3.8138248E-02;  4.0001082E+04;  0.0000000E+00; -9.3424238E-02;  4.0000000E+04;  0.0000000E+00;  3.9991910E+04; -3.0173369E-02;  0.0000000E+00; -7.9648783E-03;  1.0101500E+03;
  5.0170743E-01;  9.9999998E-03; -1.2998880E-01;5513; -2.6881969E-02;  0.0000000E+00;  1.4837550E-03;  9.9997278E+02;  1.0000376E-01; -2.2567261E+01;3;  2.7345917E+00;  0.0000000E+00;  1.4257567E+00;0; -3.8547631E-02;  4.0003512E+04;  0.0000000E+00; -1.0535414E-01;  4.0000000E+04;  0.0000000E+00;  3.9991527E+04; -3.0130478E-02;  0.0000000E+00; -8.4171537E-03;  1.0625571E+03;
  5.0171393E-01;  9.9999998E-03; -1.1998913E-01;5514; -2.7036594E-02;  0.0000000E+00;  1.3929427E-03;  9.9998932E+02;  1.0000389E-01; -8.8392553E+00;3;  2.7451239E+00;  0.0000000E+00;  1.3359085E+00;0; -3.8926631E-02;  4.0005031E+04;  0.0000000E+00; -1.1155288E-01;  4.0000000E+04;  0.0000000E+00;  3.9991316E+04; -3.0069953E-02;  0.0000000E+00; -8.8566784E-03;  1.0930087E+03;
  5.0172371E-01;  9.9999998E-03; -1.0998911E-01;5515; -2.7181732E-02;  0.0000000E+00;  1.2959486E-03;  1.0000008E+03;  1.0000384E-01;  6.9133842E-01;3;  2.7570288E+00;  0.0000000E+00;  1.2415433E+00;0; -3.9272349E-02;  4.0005840E+04;  0.0000000E+00; -1.1170474E-01;  4.0000000E+04;  0.0000000E+00;  3.9991180E+04; -2.9995654E-02;  0.0000000E+00; -9.2766946E-03;  1.1057961E+03;
  5.1151735E-01;  9.9999998E-03; -2.7001485E-01;5560; -2.4408167E-02;  0.0000000E+00;  2.4312686E-03;  9.9876605E+02;  1.0000632E-01; -1.0222920E+03;3;  3.0640972E+00;  0.0000000E+00;  2.2168074E+00;0; -3.2850273E-02;  3.9887582E+04;  0.0000000E+00; -8.7328598E-02;  4.0000000E+04;  0.0000000E+00;  4.0009191E+04; -2.8293800E-02;  0.0000000E+00; -4.5564743E-03;  1.2446536E+03;
  5.1154798E-01;  9.9999998E-03; -2.6001677E-01;5561; -2.4606034E-02;  0.0000000E+00;  2.3889937E-03;  9.9884857E+02;  1.0000619E-01; -9.5394824E+02;3;  3.0189769E+00;  0.0000000E+00;  2.1886697E+00;0; -3.3044323E-02;  3.9895270E+04;  0.0000000E+00; -8.7782025E-02;  4.0000000E+04;  0.0000000E+00;  4.0008266E+04; -2.8375130E-02;  0.0000000E+00; -4.6691936E-03;  1.1183464E+03;
  5.1157659E-01;  9.9999998E-03; -2.5001913E-01;5562; -2.4807969E-02;  0.0000000E+00;  2.3487490E-03;  9.9894208E+02;  1.0000618E-01; -8.7646899E+02;3;  2.9777138E+00;  0.0000000E+00;  2.1612353E+00;0; -3.3298779E-02;  3.9904141E+04;  0.0000000E+00; -7.2297223E-02;  4.0000000E+04;  0.0000000E+00;  4.0006672E+04; -2.8462075E-02;  0.0000000E+00; -4.8367050E-03;  9.4420587E+02;
  5.1159978E-01;  9.9999998E-03; -2.4002431E-01;5563; -2.5013046E-02;  0.0000000E+00;  2.3237136E-03;  9.9903259E+02;  1.0000615E-01; -8.0145874E+02;3;  2.9409268E+00;  0.0000000E+00;  2.1319094E+00;0; -3.3655573E-02;  3.9913898E+04;  0.0000000E+00; -4.7274709E-02;  4.0000000E+04;  0.0000000E+00;  4.0004453E+04; -2.8553292E-02;  0.0000000E+00; -5.1022819E-03;  6.2858673E+02;
  5.1161849E-01;  9.9999998E-03; -2.3002800E-01;5564; -2.5220765E-02;  0.0000000E+00;  2.2703125E-03;  9.9914594E+02;  1.0000625E-01; -7.0758490E+02;3;  2.9091752E+00;  0.0000000E+00;  2.0993359E+00;0; -3.3907212E-02;  3.9924438E+04;  0.0000000E+00; -1.9796954E-02;  4.0000000E+04;  0.0000000E+00;  4.0002750E+04; -2.8646573E-02;  0.0000000E+00; -5.2606389E-03;  4.2826346E+02;
  5.1163435E-01;  9.9999998E-03; -2.2002466E-01;5565; -2.5430635E-02;  0.0000000E+00;  2.2106562E-03;  9.9928174E+02;  1.0000622E-01; -5.9504486E+02;3;  2.8828440E+00;  0.0000000E+00;  2.0627217E+00;0; -3.4208663E-02;  3.9935680E+04;  0.0000000E+00;  4.5745433E-03;  4.0000000E+04;  0.0000000E+00;  4.0002367E+04; -2.8739013E-02;  0.0000000E+00; -5.4696496E-03;  3.6523123E+02;
  5.1164782E-01;  9.9999998E-03; -2.1001759E-01;5566; -2.5641328E-02;  0.0000000E+00;  2.1610847E-03;  9.9941272E+02;  1.0000617E-01; -4.8655411E+02;3;  2.8621316E+00;  0.0000000E+00;  2.0212288E+00;0; -3.4578275E-02;  3.9946879E+04;  0.0000000E+00;  2.1772915E-02;  4.0000000E+04;  0.0000000E+00;  4.0001477E+04; -2.8827081E-02;  0.0000000E+00; -5.7511954E-03;  2.3770493E+02;
  5.1165831E-01;  9.9999998E-03; -2.0000984E-01;5567; -2.5850987E-02;  0.0000000E+00;  2.1132827E-03;  9.9952625E+02;  1.0000618E-01; -3.9248270E+02;3;  2.8470676E+00;  0.0000000E+00;  1.9744581E+00;0; -3.4981247E-02;  3.9957859E+04;  0.0000000E+00;  2.9025748E-02;  4.0000000E+04;  0.0000000E+00;  3.9999809E+04; -2.8906833E-02;  0.0000000E+00; -6.0744127E-03;  4.8051762E+01;
  5.1166612E-01;  9.9999998E-03; -1.9000268E-01;5568; -2.6057847E-02;  0.0000000E+00;  2.0614946E-03;  9.9963263E+02;  1.0000610E-01; -3.0433704E+02;3;  2.8374887E+00;  0.0000000E+00;  1.9217525E+00;0; -3.5410345E-02;  3.9967992E+04;  0.0000000E+00;  2.5086595E-02;  4.0000000E+04;  0.0000000E+00;  3.9998008E+04; -2.8974187E-02;  0.0000000E+00; -6.4361580E-03;  2.3555574E+02;
  5.1167184E-01;  9.9999998E-03; -1.7999643E-01;5569; -2.6260318E-02;  0.0000000E+00;  2.0043436E-03;  9.9972308E+02;  1.0000620E-01; -2.2942560E+02;3;  2.8330350E+00;  0.0000000E+00;  1.8628658E+00;0; -3.5863750E-02;  3.9977047E+04;  0.0000000E+00;  1.0397036E-02;  4.0000000E+04;  0.0000000E+00;  3.9995918E+04; -2.9025296E-02;  0.0000000E+00; -6.8384558E-03;  4.7671689E+02;
  5.1167548E-01;  9.9999998E-03; -1.6999140E-01;5570; -2.6456909E-02;  0.0000000E+00;  1.9411498E-03;  9.9979590E+02;  1.0000616E-01; -1.6908162E+02;3;  2.8332303E+00;  0.0000000E+00;  1.7977165E+00;0; -3.6335658E-02;  3.9984605E+04;  0.0000000E+00; -1.2894273E-02;  4.0000000E+04;  0.0000000E+00;  3.9994391E+04; -2.9057221E-02;  0.0000000E+00; -7.2784373E-03;  6.8806079E+02;
  5.1167721E-01;  9.9999998E-03; -1.5998787E-01;5571; -2.6646301E-02;  0.0000000E+00;  1.8711956E-03;  9.9985449E+02;  1.0000635E-01; -1.2053979E+02;3;  2.8376098E+00;  0.0000000E+00;  1.7264242E+00;0; -3.6816247E-02;  3.9990445E+04;  0.0000000E+00; -4.1266650E-02;  4.0000000E+04;  0.0000000E+00;  3.9993066E+04; -2.9068455E-02;  0.0000000E+00; -7.7477912E-03;  8.5824786E+02;
  5.1167870E-01;  9.9999998E-03; -1.4998585E-01;5572; -2.6827447E-02;  0.0000000E+00;  1.7937549E-03;  9.9990021E+02;  1.0000607E-01; -8.2664322E+01;3;  2.8454795E+00;  0.0000000E+00;  1.6492860E+00;0; -3.7292786E-02;  3.9995191E+04;  0.0000000E+00; -7.0565224E-02;  4.0000000E+04;  0.0000000E+00;  3.9992156E+04; -2.9058684E-02;  0.0000000E+00; -8.2341032E-03;  9.8595514E+02;
  5.1168084E-01;  9.9999998E-03; -1.3998500E-01;5573; -2.6999565E-02;  0.0000000E+00;  1.7083632E-03;  9.9993066E+02;  1.0000619E-01; -5.7430470E+01;3;  2.8563447E+00;  0.0000000E+00;  1.5666397E+00;0; -3.7752774E-02;  3.9998113E+04;  0.0000000E+00; -9.6914209E-02;  4.0000000E+04;  0.0000000E+00;  3.9991469E+04; -2.9029312E-02;  0.0000000E+00; -8.7234611E-03;  1.0745476E+03;
  5.1168418E-01;  9.9999998E-03; -1.2998490E-01;5574; -2.7162191E-02;  0.0000000E+00;  1.6150950E-03;  9.9995001E+02;  1.0000630E-01; -4.1430923E+01;3;  2.8694808E+00;  0.0000000E+00;  1.4787529E+00;0; -3.8186986E-02;  4.0000047E+04;  0.0000000E+00; -1.1747130E-01;  4.0000000E+04;  0.0000000E+00;  3.9991016E+04; -2.8982947E-02;  0.0000000E+00; -9.2040403E-03;  1.1294261E+03;
  5.1168877E-01;  9.9999998E-03; -1.1998518E-01;5575; -2.7315134E-02;  0.0000000E+00;  1.5144873E-03;  9.9996198E+02;  1.0000610E-01; -3.1505280E+01;3;  2.8843386E+00;  0.0000000E+00;  1.3858447E+00;0; -3.8590640E-02;  4.0001293E+04;  0.0000000E+00; -1.3062492E-01;  4.0000000E+04;  0.0000000E+00;  3.9991008E+04; -2.8923178E-02;  0.0000000E+00; -9.6674599E-03;  1.1565514E+03;
  5.1169455E-01;  9.9999998E-03; -1.0998571E-01;5576; -2.7458377E-02;  0.0000000E+00;  1.4072357E-03;  9.9996765E+02;  1.0000629E-01; -2.6814054E+01;3;  2.9003770E+00;  0.0000000E+00;  1.2881620E+00;0; -3.8960654E-02;  4.0001656E+04;  0.0000000E+00; -1.3573094E-01;  4.0000000E+04;  0.0000000E+00;  3.9990848E+04; -2.8853966E-02;  0.0000000E+00; -1.0106688E-02;  1.1622528E+03;
  5.2147615E-01;  9.9999998E-03; -2.7001387E-01;5621; -2.4664784E-02;  0.0000000E+00;  2.6322673E-03;  9.9859253E+02;  1.0001041E-01; -1.1660410E+03;3;  3.1484358E+00;  0.0000000E+00;  2.2802069E+00;0; -3.2425985E-02;  3.9868352E+04;  0.0000000E+00; -1.1037493E-01;  4.0000000E+04;  0.0000000E+00;  4.0010723E+04; -2.7347781E-02;  0.0000000E+00; -5.0782054E-03;  1.4865968E+03;
  5.2151138E-01;  9.9999998E-03; -2.6001576E-01;5622; -2.4865381E-02;  0.0000000E+00;  2.5859734E-03;  9.9868719E+02;  1.0001060E-01; -1.0876235E+03;3;  3.1048052E+00;  0.0000000E+00;  2.2539098E+00;0; -3.2582697E-02;  3.9876973E+04;  0.0000000E+00; -1.0320312E-01;  4.0000000E+04;  0.0000000E+00;  4.0009711E+04; -2.7410803E-02;  0.0000000E+00; -5.1718918E-03;  1.3453223E+03;
  5.2154219E-01;  9.9999998E-03; -2.5001794E-01;5623; -2.5069652E-02;  0.0000000E+00;  2.5398869E-03;  9.9879474E+02;  1.0001060E-01; -9.9853961E+02;3;  3.0654278E+00;  0.0000000E+00;  2.2269499E+00;0; -3.2798626E-02;  3.9886770E+04;  0.0000000E+00; -7.7030793E-02;  4.0000000E+04;  0.0000000E+00;  4.0008422E+04; -2.7479226E-02;  0.0000000E+00; -5.3193993E-03;  1.1649858E+03;
  5.2156538E-01;  9.9999998E-03; -2.4002226E-01;5624; -2.5276929E-02;  0.0000000E+00;  2.5061648E-03;  9.9890326E+02;  1.0001048E-01; -9.0861621E+02;3;  3.0309300E+00;  0.0000000E+00;  2.1984723E+00;0; -3.3120807E-02;  3.9897812E+04;  0.0000000E+00; -4.1417662E-02;  4.0000000E+04;  0.0000000E+00;  4.0006375E+04; -2.7551759E-02;  0.0000000E+00; -5.5690473E-03;  8.7371655E+02;
  5.2158213E-01;  9.9999998E-03; -2.3002553E-01;5625; -2.5486827E-02;  0.0000000E+00;  2.4520955E-03;  9.9903284E+02;  1.0001051E-01; -8.0126123E+02;3;  3.0019312E+00;  0.0000000E+00;  2.1662829E+00;0; -3.3384226E-02;  3.9909762E+04;  0.0000000E+00; -4.7804764E-03;  4.0000000E+04;  0.0000000E+00;  4.0004582E+04; -2.7626280E-02;  0.0000000E+00; -5.7579447E-03;  6.6058844E+02;
  5.2159572E-01;  9.9999998E-03; -2.2002427E-01;5626; -2.5698872E-02;  0.0000000E+00;  2.3945421E-03;  9.9917511E+02;  1.0001040E-01; -6.8338800E+02;3;  2.9787915E+00;  0.0000000E+00;  2.1296761E+00;0; -3.3699378E-02;  3.9922348E+04;  0.0000000E+00;  2.6884757E-02;  4.0000000E+04;  0.0000000E+00;  4.0003469E+04; -2.7699769E-02;  0.0000000E+00; -5.9996103E-03;  5.3116968E+02;
  5.2160698E-01;  9.9999998E-03; -2.1002033E-01;5627; -2.5911547E-02;  0.0000000E+00;  2.3425091E-03;  9.9931812E+02;  1.0001054E-01; -5.6492224E+02;3;  2.9618032E+00;  0.0000000E+00;  2.0881178E+00;0; -3.4072474E-02;  3.9934828E+04;  0.0000000E+00;  4.9414158E-02;  4.0000000E+04;  0.0000000E+00;  4.0002371E+04; -2.7768785E-02;  0.0000000E+00; -6.3036880E-03;  3.5795178E+02;
  5.2161622E-01;  9.9999998E-03; -2.0001492E-01;5628; -2.6122812E-02;  0.0000000E+00;  2.2904291E-03;  9.9944623E+02;  1.0001054E-01; -4.5880182E+02;3;  2.9508717E+00;  0.0000000E+00;  2.0407207E+00;0; -3.4481417E-02;  3.9946969E+04;  0.0000000E+00;  5.9920654E-02;  4.0000000E+04;  0.0000000E+00;  4.0000348E+04; -2.7829599E-02;  0.0000000E+00; -6.6518197E-03;  1.4301822E+02;
  5.2162367E-01;  9.9999998E-03; -1.9000904E-01;5629; -2.6330784E-02;  0.0000000E+00;  2.2340070E-03;  9.9956250E+02;  1.0001057E-01; -3.6245886E+02;3;  2.9458385E+00;  0.0000000E+00;  1.9872353E+00;0; -3.4920949E-02;  3.9958035E+04;  0.0000000E+00;  5.7038397E-02;  4.0000000E+04;  0.0000000E+00;  3.9998441E+04; -2.7878469E-02;  0.0000000E+00; -7.0424806E-03;  1.7540834E+02;
  5.2162963E-01;  9.9999998E-03; -1.8000327E-01;5630; -2.6533805E-02;  0.0000000E+00;  2.1716810E-03;  9.9965906E+02;  1.0001040E-01; -2.8246112E+02;3;  2.9462070E+00;  0.0000000E+00;  1.9272140E+00;0; -3.5388533E-02;  3.9967965E+04;  0.0000000E+00;  4.1129734E-02;  4.0000000E+04;  0.0000000E+00;  3.9996316E+04; -2.7912114E-02;  0.0000000E+00; -7.4764206E-03;  4.2373679E+02;
  5.2163422E-01;  9.9999998E-03; -1.6999830E-01;5631; -2.6730398E-02;  0.0000000E+00;  2.1025448E-03;  9.9973920E+02;  1.0001042E-01; -2.1609264E+02;3;  2.9514501E+00;  0.0000000E+00;  1.8605601E+00;0; -3.5877697E-02;  3.9976016E+04;  0.0000000E+00;  1.4455238E-02;  4.0000000E+04;  0.0000000E+00;  3.9994590E+04; -2.7928364E-02;  0.0000000E+00; -7.9493336E-03;  6.5731543E+02;
  5.2163750E-01;  9.9999998E-03; -1.5999439E-01;5632; -2.6919285E-02;  0.0000000E+00;  2.0258010E-03;  9.9979919E+02;  1.0001034E-01; -1.6636565E+02;3;  2.9608879E+00;  0.0000000E+00;  1.7874089E+00;0; -3.6377482E-02;  3.9982145E+04;  0.0000000E+00; -1.9062348E-02;  4.0000000E+04;  0.0000000E+00;  3.9992977E+04; -2.7926179E-02;  0.0000000E+00; -8.4513025E-03;  8.5295251E+02;
  5.2163976E-01;  9.9999998E-03; -1.4999160E-01;5633; -2.7099447E-02;  0.0000000E+00;  1.9406719E-03;  9.9983966E+02;  1.0001054E-01; -1.3283574E+02;3;  2.9738584E+00;  0.0000000E+00;  1.7080661E+00;0; -3.6874365E-02;  3.9986637E+04;  0.0000000E+00; -5.4598972E-02;  4.0000000E+04;  0.0000000E+00;  3.9991844E+04; -2.7906222E-02;  0.0000000E+00; -8.9681419E-03;  1.0041123E+03;
  5.2164185E-01;  9.9999998E-03; -1.3998990E-01;5634; -2.7270202E-02;  0.0000000E+00;  1.8467393E-03;  9.9986523E+02;  1.0001052E-01; -1.1165115E+02;3;  2.9897120E+00;  0.0000000E+00;  1.6228894E+00;0; -3.7354961E-02;  3.9989270E+04;  0.0000000E+00; -8.7559499E-02;  4.0000000E+04;  0.0000000E+00;  3.9991105E+04; -2.7870411E-02;  0.0000000E+00; -9.4845518E-03;  1.1110164E+03;
  5.2164423E-01;  9.9999998E-03; -1.2998919E-01;5635; -2.7431188E-02;  0.0000000E+00;  1.7442037E-03;  9.9987683E+02;  1.0001041E-01; -1.0202180E+02;3;  3.0077763E+00;  0.0000000E+00;  1.5321778E+00;0; -3.7809670E-02;  3.9990668E+04;  0.0000000E+00; -1.1458705E-01;  4.0000000E+04;  0.0000000E+00;  3.9990684E+04; -2.7821727E-02;  0.0000000E+00; -9.9879438E-03;  1.1778855E+03;
  5.2164668E-01;  9.9999998E-03; -1.1998929E-01;5636; -2.7582331E-02;  0.0000000E+00;  1.6337899E-03;  9.9987909E+02;  1.0001054E-01; -1.0019469E+02;3;  3.0272672E+00;  0.0000000E+00;  1.4361796E+00;0; -3.8233515E-02;  3.9991070E+04;  0.0000000E+00; -1.3365988E-01;  4.0000000E+04;  0.0000000E+00;  3.9990434E+04; -2.7763868E-02;  0.0000000E+00; -1.0469648E-02;  1.2112072E+03;
  5.2164918E-01;  9.9999998E-03; -1.0999001E-01;5637; -2.7723748E-02;  0.0000000E+00;  1.5163920E-03;  9.9987714E+02;  1.0001040E-01; -1.0177489E+02;3;  3.0476646E+00;  0.0000000E+00;  1.3351742E+00;0; -3.8623486E-02;  3.9990766E+04;  0.0000000E+00; -1.4376420E-01;  4.0000000E+04;  0.0000000E+00;  3.9990340E+04; -2.7700806E-02;  0.0000000E+00; -1.0922680E-02;  1.2189019E+03;
  5.3147191E-01;  9.9999998E-03; -2.7001271E-01;5682; -2.4926100E-02;  0.0000000E+00;  2.8316218E-03;  9.9841895E+02;  1.0001741E-01; -1.3098888E+03;3;  3.2323933E+00;  0.0000000E+00;  2.3444088E+00;0; -3.2024659E-02;  3.9846715E+04;  0.0000000E+00; -1.1800513E-01;  4.0000000E+04;  0.0000000E+00;  4.0012664E+04; -2.6405171E-02;  0.0000000E+00; -5.6194905E-03;  1.7321721E+03;
  5.3150725E-01;  9.9999998E-03; -2.6001438E-01;5683; -2.5127869E-02;  0.0000000E+00;  2.7817371E-03;  9.9852148E+02;  1.0001738E-01; -1.2249036E+03;3;  3.1902626E+00;  0.0000000E+00;  2.3193471E+00;0; -3.2147065E-02;  3.9856398E+04;  0.0000000E+00; -1.1528638E-01;  4.0000000E+04;  0.0000000E+00;  4.0011492E+04; -2.6443362E-02;  0.0000000E+00; -5.7037016E-03;  1.5860496E+03;
  5.3153467E-01;  9.9999998E-03; -2.5001636E-01;5684; -2.5333287E-02;  0.0000000E+00;  2.7315395E-03;  9.9863916E+02;  1.0001735E-01; -1.1274248E+03;3;  3.1527438E+00;  0.0000000E+00;  2.2933376E+00;0; -3.2331757E-02;  3.9866934E+04;  0.0000000E+00; -8.6379200E-02;  4.0000000E+04;  0.0000000E+00;  4.0010246E+04; -2.6487134E-02;  0.0000000E+00; -5.8446219E-03;  1.4022498E+03;
  5.3155142E-01;  9.9999998E-03; -2.4001996E-01;5685; -2.5541846E-02;  0.0000000E+00;  2.6896570E-03;  9.9876459E+02;  1.0001748E-01; -1.0235266E+03;3;  3.1205935E+00;  0.0000000E+00;  2.2651720E+00;0; -3.2613553E-02;  3.9878855E+04;  0.0000000E+00; -4.5463435E-02;  4.0000000E+04;  0.0000000E+00;  4.0008098E+04; -2.6535589E-02;  0.0000000E+00; -6.0779653E-03;  1.1341229E+03;
  5.3156072E-01;  9.9999998E-03; -2.3002380E-01;5686; -2.5753142E-02;  0.0000000E+00;  2.6369202E-03;  9.9890356E+02;  1.0001731E-01; -9.0836932E+02;3;  3.0944748E+00;  0.0000000E+00;  2.2336824E+00;0; -3.2885909E-02;  3.9891695E+04;  0.0000000E+00; -3.2540483E-03;  4.0000000E+04;  0.0000000E+00;  4.0006223E+04; -2.6586425E-02;  0.0000000E+00; -6.2994855E-03;  8.8830457E+02;
  5.3156680E-01;  9.9999998E-03; -2.2002643E-01;5687; -2.5966501E-02;  0.0000000E+00;  2.5804820E-03;  9.9905182E+02;  1.0001730E-01; -7.8555798E+02;3;  3.0748384E+00;  0.0000000E+00;  2.1972055E+00;0; -3.3202551E-02;  3.9905270E+04;  0.0000000E+00;  3.3716138E-02;  4.0000000E+04;  0.0000000E+00;  4.0004699E+04; -2.6636692E-02;  0.0000000E+00; -6.5658614E-03;  6.7767511E+02;
  5.3157181E-01;  9.9999998E-03; -2.1002685E-01;5688; -2.6180204E-02;  0.0000000E+00;  2.5240774E-03;  9.9920093E+02;  1.0001735E-01; -6.6200592E+02;3;  3.0618267E+00;  0.0000000E+00;  2.1555681E+00;0; -3.3568982E-02;  3.9918723E+04;  0.0000000E+00;  6.1106443E-02;  4.0000000E+04;  0.0000000E+00;  4.0002980E+04; -2.6683101E-02;  0.0000000E+00; -6.8858806E-03;  4.7115039E+02;
  5.3157693E-01;  9.9999998E-03; -2.0002453E-01;5689; -2.6392115E-02;  0.0000000E+00;  2.4661552E-03;  9.9934186E+02;  1.0001750E-01; -5.4526849E+02;3;  3.0553861E+00;  0.0000000E+00;  2.1078138E+00;0; -3.3976968E-02;  3.9931715E+04;  0.0000000E+00;  7.5946890E-02;  4.0000000E+04;  0.0000000E+00;  4.0001363E+04; -2.6722204E-02;  0.0000000E+00; -7.2547644E-03;  2.4992932E+02;
  5.3158218E-01;  9.9999998E-03; -1.9002052E-01;5690; -2.6600277E-02;  0.0000000E+00;  2.4041228E-03;  9.9946527E+02;  1.0001754E-01; -4.4299979E+02;3;  3.0552292E+00;  0.0000000E+00;  2.0535216E+00;0; -3.4421798E-02;  3.9943477E+04;  0.0000000E+00;  7.6710477E-02;  4.0000000E+04;  0.0000000E+00;  3.9999094E+04; -2.6750728E-02;  0.0000000E+00; -7.6710689E-03;  1.1843140E+02;
  5.3158724E-01;  9.9999998E-03; -1.8001589E-01;5691; -2.6802996E-02;  0.0000000E+00;  2.3358993E-03;  9.9956915E+02;  1.0001744E-01; -3.5692816E+02;3;  3.0608370E+00;  0.0000000E+00;  1.9923220E+00;0; -3.4899153E-02;  3.9953707E+04;  0.0000000E+00;  6.3519508E-02;  4.0000000E+04;  0.0000000E+00;  3.9997016E+04; -2.6766077E-02;  0.0000000E+00; -8.1330761E-03;  3.3397745E+02;
  5.3159183E-01;  9.9999998E-03; -1.7001139E-01;5692; -2.6998788E-02;  0.0000000E+00;  2.2602687E-03;  9.9964966E+02;  1.0001736E-01; -2.9026337E+02;3;  3.0715485E+00;  0.0000000E+00;  1.9241223E+00;0; -3.5401274E-02;  3.9962285E+04;  0.0000000E+00;  3.8425148E-02;  4.0000000E+04;  0.0000000E+00;  3.9994934E+04; -2.6766561E-02;  0.0000000E+00; -8.6347116E-03;  5.8537531E+02;
  5.3159583E-01;  9.9999998E-03; -1.6000737E-01;5693; -2.7186437E-02;  0.0000000E+00;  2.1762648E-03;  9.9970569E+02;  1.0001750E-01; -2.4384494E+02;3;  3.0865893E+00;  0.0000000E+00;  1.8490611E+00;0; -3.5916176E-02;  3.9968398E+04;  0.0000000E+00;  5.2747456E-03;  4.0000000E+04;  0.0000000E+00;  3.9993234E+04; -2.6751827E-02;  0.0000000E+00; -9.1643492E-03;  8.0855011E+02;
  5.3159928E-01;  9.9999998E-03; -1.5000413E-01;5694; -2.7365031E-02;  0.0000000E+00;  2.0830971E-03;  9.9974194E+02;  1.0001726E-01; -2.1377171E+02;3;  3.1051576E+00;  0.0000000E+00;  1.7674650E+00;0; -3.6429118E-02;  3.9972504E+04;  0.0000000E+00; -3.1012425E-02;  4.0000000E+04;  0.0000000E+00;  3.9991828E+04; -2.6722930E-02;  0.0000000E+00; -9.7061889E-03;  9.8862286E+02;
  5.3160197E-01;  9.9999998E-03; -1.4000192E-01;5695; -2.7533993E-02;  0.0000000E+00;  1.9804006E-03;  9.9975757E+02;  1.0001726E-01; -2.0083382E+02;3;  3.1264005E+00;  0.0000000E+00;  1.6797088E+00;0; -3.6926012E-02;  3.9974633E+04;  0.0000000E+00; -6.5722808E-02;  4.0000000E+04;  0.0000000E+00;  3.9990766E+04; -2.6682308E-02;  0.0000000E+00; -1.0243705E-02;  1.1209955E+03;
  5.3160405E-01;  9.9999998E-03; -1.3000068E-01;5696; -2.7693082E-02;  0.0000000E+00;  1.8685068E-03;  9.9975641E+02;  1.0001732E-01; -2.0182144E+02;3;  3.1496637E+00;  0.0000000E+00;  1.5861382E+00;0; -3.7396695E-02;  3.9975188E+04;  0.0000000E+00; -9.5425203E-02;  4.0000000E+04;  0.0000000E+00;  3.9990078E+04; -2.6632980E-02;  0.0000000E+00; -1.0763715E-02;  1.2077577E+03;
  5.3160536E-01;  9.9999998E-03; -1.2000021E-01;5697; -2.7842356E-02;  0.0000000E+00;  1.7483360E-03;  9.9974615E+02;  1.0001743E-01; -2.1031502E+02;3;  3.1741247E+00;  0.0000000E+00;  1.4870222E+00;0; -3.7836310E-02;  3.9974719E+04;  0.0000000E+00; -1.1794582E-01;  4.0000000E+04;  0.0000000E+00;  3.9989891E+04; -2.6578657E-02;  0.0000000E+00; -1.1257651E-02;  1.2556083E+03;
  5.3160602E-01;  9.9999998E-03; -1.1000047E-01;5698; -2.7982047E-02;  0.0000000E+00;  1.6209858E-03;  9.9973157E+02;  1.0001746E-01; -2.2241345E+02;3;  3.1992965E+00;  0.0000000E+00;  1.3826646E+00;0; -3.8241558E-02;  3.9973453E+04;  0.0000000E+00; -1.3198374E-01;  4.0000000E+04;  0.0000000E+00;  3.9989660E+04; -2.6522905E-02;  0.0000000E+00; -1.1718654E-02;  1.2736351E+03;
  5.4150462E-01;  9.9999998E-03; -2.7001187E-01;5743; -2.5191650E-02;  0.0000000E+00;  3.0287618E-03;  9.9830347E+02;  1.0002949E-01; -1.4055404E+03;3;  3.3156681E+00;  0.0000000E+00;  2.4079499E+00;0; -3.1612620E-02;  3.9826707E+04;  0.0000000E+00; -1.0586406E-01;  4.0000000E+04;  0.0000000E+00;  4.0013820E+04; -2.5421480E-02;  0.0000000E+00; -6.1911386E-03;  1.8988967E+03;
  5.4153711E-01;  9.9999998E-03; -2.6001334E-01;5744; -2.5393283E-02;  0.0000000E+00;  2.9756434E-03;  9.9841217E+02;  1.0002950E-01; -1.3154689E+03;3;  3.2749794E+00;  0.0000000E+00;  2.3851690E+00;0; -3.1701833E-02;  3.9836250E+04;  0.0000000E+00; -1.1761980E-01;  4.0000000E+04;  0.0000000E+00;  4.0012562E+04; -2.5430398E-02;  0.0000000E+00; -6.2714349E-03;  1.7530104E+03;
  5.4155886E-01;  9.9999998E-03; -2.5001520E-01;5745; -2.5598964E-02;  0.0000000E+00;  2.9221640E-03;  9.9853473E+02;  1.0002951E-01; -1.2139409E+03;3;  3.2394176E+00;  0.0000000E+00;  2.3608818E+00;0; -3.1857394E-02;  3.9847426E+04;  0.0000000E+00; -9.4286598E-02;  4.0000000E+04;  0.0000000E+00;  4.0011402E+04; -2.5445500E-02;  0.0000000E+00; -6.4118914E-03;  1.5725681E+03;
  5.4156464E-01;  9.9999998E-03; -2.4001834E-01;5746; -2.5808098E-02;  0.0000000E+00;  2.8729760E-03;  9.9866998E+02;  1.0002956E-01; -1.1018947E+03;3;  3.2097158E+00;  0.0000000E+00;  2.3332374E+00;0; -3.2097276E-02;  3.9859875E+04;  0.0000000E+00; -5.4614026E-02;  4.0000000E+04;  0.0000000E+00;  4.0009488E+04; -2.5466545E-02;  0.0000000E+00; -6.6307317E-03;  1.3301378E+03;
  5.4156137E-01;  9.9999998E-03; -2.3002365E-01;5747; -2.6020186E-02;  0.0000000E+00;  2.8220264E-03;  9.9881012E+02;  1.0002951E-01; -9.8579919E+02;3;  3.1866667E+00;  0.0000000E+00;  2.3018055E+00;0; -3.2373264E-02;  3.9872969E+04;  0.0000000E+00; -1.2153303E-02;  4.0000000E+04;  0.0000000E+00;  4.0007309E+04; -2.5491135E-02;  0.0000000E+00; -6.8821306E-03;  1.0465206E+03;
  5.4155529E-01;  9.9999998E-03; -2.2003108E-01;5748; -2.6234237E-02;  0.0000000E+00;  2.7651305E-03;  9.9895642E+02;  1.0002942E-01; -8.6456805E+02;3;  3.1707025E+00;  0.0000000E+00;  2.2658331E+00;0; -3.2681584E-02;  3.9886738E+04;  0.0000000E+00;  2.6328964E-02;  4.0000000E+04;  0.0000000E+00;  4.0005148E+04; -2.5516324E-02;  0.0000000E+00; -7.1652620E-03;  7.6559198E+02;
  5.4155052E-01;  9.9999998E-03; -2.1003634E-01;5749; -2.6448281E-02;  0.0000000E+00;  2.7022627E-03;  9.9911053E+02;  1.0002949E-01; -7.3691736E+02;3;  3.1620107E+00;  0.0000000E+00;  2.2239473E+00;0; -3.3034191E-02;  3.9900609E+04;  0.0000000E+00;  5.6554195E-02;  4.0000000E+04;  0.0000000E+00;  4.0003445E+04; -2.5538901E-02;  0.0000000E+00; -7.4952911E-03;  5.4904755E+02;
  5.4154885E-01;  9.9999998E-03; -2.0003723E-01;5750; -2.6660161E-02;  0.0000000E+00;  2.6374240E-03;  9.9925543E+02;  1.0002949E-01; -6.1687140E+02;3;  3.1605022E+00;  0.0000000E+00;  2.1757944E+00;0; -3.3437200E-02;  3.9913738E+04;  0.0000000E+00;  7.5522102E-02;  4.0000000E+04;  0.0000000E+00;  4.0001980E+04; -2.5555857E-02;  0.0000000E+00; -7.8813443E-03;  3.4569220E+02;
  5.4155016E-01;  9.9999998E-03; -1.9003519E-01;5751; -2.6867898E-02;  0.0000000E+00;  2.5689099E-03;  9.9938330E+02;  1.0002939E-01; -5.1089908E+02;3;  3.1657484E+00;  0.0000000E+00;  2.1207054E+00;0; -3.3884000E-02;  3.9925742E+04;  0.0000000E+00;  8.1512943E-02;  4.0000000E+04;  0.0000000E+00;  3.9999926E+04; -2.5564386E-02;  0.0000000E+00; -8.3196135E-03;  1.3888982E+02;
  5.4155391E-01;  9.9999998E-03; -1.8003176E-01;5752; -2.7069738E-02;  0.0000000E+00;  2.4940949E-03;  9.9948938E+02;  1.0002954E-01; -4.2304974E+02;3;  3.1770575E+00;  0.0000000E+00;  2.0582910E+00;0; -3.4367926E-02;  3.9935957E+04;  0.0000000E+00;  7.4355818E-02;  4.0000000E+04;  0.0000000E+00;  3.9997930E+04; -2.5562460E-02;  0.0000000E+00; -8.8054677E-03;  2.2911116E+02;
  5.4155892E-01;  9.9999998E-03; -1.7002781E-01;5753; -2.7264174E-02;  0.0000000E+00;  2.4113404E-03;  9.9956439E+02;  1.0002955E-01; -3.6087866E+02;3;  3.1937137E+00;  0.0000000E+00;  1.9884923E+00;0; -3.4879845E-02;  3.9944387E+04;  0.0000000E+00;  5.5684566E-02;  4.0000000E+04;  0.0000000E+00;  3.9995570E+04; -2.5549011E-02;  0.0000000E+00; -9.3308333E-03;  4.9013516E+02;
  5.4156423E-01;  9.9999998E-03; -1.6002397E-01;5754; -2.7450070E-02;  0.0000000E+00;  2.3195187E-03;  9.9961548E+02;  1.0002933E-01; -3.1855887E+02;3;  3.2147915E+00;  0.0000000E+00;  1.9114515E+00;0; -3.5406534E-02;  3.9950277E+04;  0.0000000E+00;  2.8813804E-02;  4.0000000E+04;  0.0000000E+00;  3.9993574E+04; -2.5524171E-02;  0.0000000E+00; -9.8823616E-03;  7.3990344E+02;
  5.4156917E-01;  9.9999998E-03; -1.5002064E-01;5755; -2.7626647E-02;  0.0000000E+00;  2.2178809E-03;  9.9964001E+02;  1.0002962E-01; -2.9826315E+02;3;  3.2393298E+00;  0.0000000E+00;  1.8275129E+00;0; -3.5932131E-02;  3.9954203E+04;  0.0000000E+00; -1.9402937E-03;  4.0000000E+04;  0.0000000E+00;  3.9991875E+04; -2.5489287E-02;  0.0000000E+00; -1.0442843E-02;  9.5080865E+02;
  5.4157329E-01;  9.9999998E-03; -1.4001812E-01;5756; -2.7793508E-02;  0.0000000E+00;  2.1061536E-03;  9.9964844E+02;  1.0002943E-01; -2.9125101E+02;3;  3.2664514E+00;  0.0000000E+00;  1.7371167E+00;0; -3.6441546E-02;  3.9955672E+04;  0.0000000E+00; -3.2484069E-02;  4.0000000E+04;  0.0000000E+00;  3.9990621E+04; -2.5446756E-02;  0.0000000E+00; -1.0994789E-02;  1.1123389E+03;
  5.4157633E-01;  9.9999998E-03; -1.3001652E-01;5757; -2.7950535E-02;  0.0000000E+00;  1.9848216E-03;  9.9963428E+02;  1.0002955E-01; -3.0300375E+02;3;  3.2953529E+00;  0.0000000E+00;  1.6406302E+00;0; -3.6924414E-02;  3.9955348E+04;  0.0000000E+00; -5.9903663E-02;  4.0000000E+04;  0.0000000E+00;  3.9989871E+04; -2.5399597E-02;  0.0000000E+00; -1.1524816E-02;  1.2239315E+03;
  5.4157776E-01;  9.9999998E-03; -1.2001569E-01;5758; -2.8097922E-02;  0.0000000E+00;  1.8549990E-03;  9.9960791E+02;  1.0002952E-01; -3.2483029E+02;3;  3.3252935E+00;  0.0000000E+00;  1.5383476E+00;0; -3.7375640E-02;  3.9953723E+04;  0.0000000E+00; -8.2260281E-02;  4.0000000E+04;  0.0000000E+00;  3.9989316E+04; -2.5351081E-02;  0.0000000E+00; -1.2024560E-02;  1.2918408E+03;
  5.4157752E-01;  9.9999998E-03; -1.1001547E-01;5759; -2.8236013E-02;  0.0000000E+00;  1.7179834E-03;  9.9957306E+02;  1.0002936E-01; -3.5371835E+02;3;  3.3554709E+00;  0.0000000E+00;  1.4306229E+00;0; -3.7792087E-02;  3.9951023E+04;  0.0000000E+00; -9.8174475E-02;  4.0000000E+04;  0.0000000E+00;  3.9989102E+04; -2.5304487E-02;  0.0000000E+00; -1.2487601E-02;  1.3257783E+03;
  5.5157930E-01;  9.9999998E-03; -2.7001181E-01;5804; -2.5458232E-02;  0.0000000E+00;  3.2222753E-03;  9.9828918E+02;  1.0004872E-01; -1.4173918E+03;3;  3.3979733E+00;  0.0000000E+00;  2.4727886E+00;0; -3.1135406E-02;  3.9809395E+04;  0.0000000E+00; -9.0206936E-02;  4.0000000E+04;  0.0000000E+00;  4.0013844E+04; -2.4343167E-02;  0.0000000E+00; -6.7922398E-03;  1.9299043E+03;
  5.5160743E-01;  9.9999998E-03; -2.6001292E-01;5805; -2.5658749E-02;  0.0000000E+00;  3.1664781E-03;  9.9839441E+02;  1.0004855E-01; -1.3301844E+03;3;  3.3586497E+00;  0.0000000E+00;  2.4513903E+00;0; -3.1199621E-02;  3.9818812E+04;  0.0000000E+00; -1.1438047E-01;  4.0000000E+04;  0.0000000E+00;  4.0012879E+04; -2.4321588E-02;  0.0000000E+00; -6.8780337E-03;  1.7969589E+03;
  5.5162084E-01;  9.9999998E-03; -2.5001466E-01;5806; -2.5864096E-02;  0.0000000E+00;  3.1101082E-03;  9.9851660E+02;  1.0004877E-01; -1.2289528E+03;3;  3.3250027E+00;  0.0000000E+00;  2.4283686E+00;0; -3.1328082E-02;  3.9829832E+04;  0.0000000E+00; -9.7746149E-02;  4.0000000E+04;  0.0000000E+00;  4.0011492E+04; -2.4307434E-02;  0.0000000E+00; -7.0206472E-03;  1.6250959E+03;
  5.5161226E-01;  9.9999998E-03; -2.4001743E-01;5807; -2.6073365E-02;  0.0000000E+00;  3.0532109E-03;  9.9865314E+02;  1.0004855E-01; -1.1158696E+03;3;  3.2979124E+00;  0.0000000E+00;  2.4019716E+00;0; -3.1521767E-02;  3.9841961E+04;  0.0000000E+00; -6.2861040E-02;  4.0000000E+04;  0.0000000E+00;  4.0010113E+04; -2.4301199E-02;  0.0000000E+00; -7.2205672E-03;  1.4197921E+03;
  5.5159152E-01;  9.9999998E-03; -2.3002443E-01;5808; -2.6285904E-02;  0.0000000E+00;  3.0033663E-03;  9.9878625E+02;  1.0004845E-01; -1.0055518E+03;3;  3.2781270E+00;  0.0000000E+00;  2.3714087E+00;0; -3.1797446E-02;  3.9854719E+04;  0.0000000E+00; -2.5106112E-02;  4.0000000E+04;  0.0000000E+00;  4.0007688E+04; -2.4300426E-02;  0.0000000E+00; -7.4970219E-03;  1.1090667E+03;
  5.5157018E-01;  9.9999998E-03; -2.2003645E-01;5809; -2.6500350E-02;  0.0000000E+00;  2.9441386E-03;  9.9892413E+02;  1.0004871E-01; -8.9133276E+02;3;  3.2661929E+00;  0.0000000E+00;  2.3354743E+00;0; -3.2092486E-02;  3.9868070E+04;  0.0000000E+00;  1.0017602E-02;  4.0000000E+04;  0.0000000E+00;  4.0005281E+04; -2.4301872E-02;  0.0000000E+00; -7.7906144E-03;  7.8374829E+02;
  5.5155295E-01;  9.9999998E-03; -2.1004622E-01;5810; -2.6714405E-02;  0.0000000E+00;  2.8738717E-03;  9.9907397E+02;  1.0004860E-01; -7.6718811E+02;3;  3.2621932E+00;  0.0000000E+00;  2.2935071E+00;0; -3.2429941E-02;  3.9881363E+04;  0.0000000E+00;  3.9593365E-02;  4.0000000E+04;  0.0000000E+00;  4.0003746E+04; -2.4302609E-02;  0.0000000E+00; -8.1273308E-03;  5.7825165E+02;
  5.5154186E-01;  9.9999998E-03; -2.0005016E-01;5811; -2.6925920E-02;  0.0000000E+00;  2.8012458E-03;  9.9921832E+02;  1.0004871E-01; -6.4758655E+02;3;  3.2660143E+00;  0.0000000E+00;  2.2448986E+00;0; -3.2827020E-02;  3.9894137E+04;  0.0000000E+00;  6.0959402E-02;  4.0000000E+04;  0.0000000E+00;  4.0002387E+04; -2.4300000E-02;  0.0000000E+00; -8.5270209E-03;  4.0967249E+02;
  5.5153745E-01;  9.9999998E-03; -1.9004974E-01;5812; -2.7132913E-02;  0.0000000E+00;  2.7254513E-03;  9.9934460E+02;  1.0004846E-01; -5.4299695E+02;3;  3.2771339E+00;  0.0000000E+00;  2.1888993E+00;0; -3.3274867E-02;  3.9905945E+04;  0.0000000E+00;  7.2330222E-02;  4.0000000E+04;  0.0000000E+00;  4.0000625E+04; -2.4291750E-02;  0.0000000E+00; -8.9831185E-03;  2.0564247E+02;
  5.5153811E-01;  9.9999998E-03; -1.8004723E-01;5813; -2.7333513E-02;  0.0000000E+00;  2.6432720E-03;  9.9944159E+02;  1.0004858E-01; -4.6265353E+02;3;  3.2947488E+00;  0.0000000E+00;  2.1251934E+00;0; -3.3764303E-02;  3.9915738E+04;  0.0000000E+00;  7.3258191E-02;  4.0000000E+04;  0.0000000E+00;  3.9998668E+04; -2.4276478E-02;  0.0000000E+00; -9.4878227E-03;  1.3897733E+02;
  5.5154240E-01;  9.9999998E-03; -1.7004380E-01;5814; -2.7526269E-02;  0.0000000E+00;  2.5525808E-03;  9.9951312E+02;  1.0004850E-01; -4.0334659E+02;3;  3.3178725E+00;  0.0000000E+00;  2.0536685E+00;0; -3.4284584E-02;  3.9923547E+04;  0.0000000E+00;  6.4839803E-02;  4.0000000E+04;  0.0000000E+00;  3.9996062E+04; -2.4253525E-02;  0.0000000E+00; -1.0031059E-02;  3.9598837E+02;
  5.5154866E-01;  9.9999998E-03; -1.6004017E-01;5815; -2.7710101E-02;  0.0000000E+00;  2.4522659E-03;  9.9955573E+02;  1.0004857E-01; -3.6808832E+02;3;  3.3454309E+00;  0.0000000E+00;  1.9745117E+00;0; -3.4821287E-02;  3.9929211E+04;  0.0000000E+00;  4.9483046E-02;  4.0000000E+04;  0.0000000E+00;  3.9994008E+04; -2.4223337E-02;  0.0000000E+00; -1.0597949E-02;  6.6843610E+02;
  5.5155528E-01;  9.9999998E-03; -1.5003692E-01;5816; -2.7884396E-02;  0.0000000E+00;  2.3416497E-03;  9.9957178E+02;  1.0004828E-01; -3.5475537E+02;3;  3.3764789E+00;  0.0000000E+00;  1.8881137E+00;0; -3.5357423E-02;  3.9932336E+04;  0.0000000E+00;  3.0242069E-02;  4.0000000E+04;  0.0000000E+00;  3.9992125E+04; -2.4187310E-02;  0.0000000E+00; -1.1170112E-02;  9.0799573E+02;
  5.5156147E-01;  9.9999998E-03; -1.4003432E-01;5817; -2.8048960E-02;  0.0000000E+00;  2.2206039E-03;  9.9956671E+02;  1.0004857E-01; -3.5895279E+02;3;  3.4099367E+00;  0.0000000E+00;  1.7949638E+00;0; -3.5877042E-02;  3.9932980E+04;  0.0000000E+00;  9.8320497E-03;  4.0000000E+04;  0.0000000E+00;  3.9990680E+04; -2.4147542E-02;  0.0000000E+00; -1.1729501E-02;  1.0982017E+03;
  5.5156654E-01;  9.9999998E-03; -1.3003254E-01;5818; -2.8203866E-02;  0.0000000E+00;  2.0897815E-03;  9.9953528E+02;  1.0004845E-01; -3.8502612E+02;3;  3.4448681E+00;  0.0000000E+00;  1.6954902E+00;0; -3.6369428E-02;  3.9931875E+04;  0.0000000E+00; -9.9577112E-03;  4.0000000E+04;  0.0000000E+00;  3.9989582E+04; -2.4106616E-02;  0.0000000E+00; -1.2262814E-02;  1.2353431E+03;
  5.5156970E-01;  9.9999998E-03; -1.2003151E-01;5819; -2.8349463E-02;  0.0000000E+00;  1.9504935E-03;  9.9949304E+02;  1.0004851E-01; -4.1998810E+02;3;  3.4804957E+00;  0.0000000E+00;  1.5900134E+00;0; -3.6829341E-02;  3.9928938E+04;  0.0000000E+00; -2.7912995E-02;  4.0000000E+04;  0.0000000E+00;  3.9988699E+04; -2.4067217E-02;  0.0000000E+00; -1.2762124E-02;  1.3249143E+03;
  5.5157089E-01;  9.9999998E-03; -1.1003087E-01;5820; -2.8486196E-02;  0.0000000E+00;  1.8042244E-03;  9.9944397E+02;  1.0004858E-01; -4.6067828E+02;3;  3.5160961E+00;  0.0000000E+00;  1.4788939E+00;0; -3.7253730E-02;  3.9925133E+04;  0.0000000E+00; -4.2917050E-02;  4.0000000E+04;  0.0000000E+00;  3.9988324E+04; -2.4032008E-02;  0.0000000E+00; -1.3221724E-02;  1.3766227E+03;
  5.6169975E-01;  9.9999998E-03; -2.7001262E-01;5865; -2.5721082E-02;  0.0000000E+00;  3.4104714E-03;  9.9838293E+02;  1.0007987E-01; -1.3397151E+03;3;  3.4787028E+00;  0.0000000E+00;  2.5375044E+00;0; -3.0536892E-02;  3.9792785E+04;  0.0000000E+00; -1.1428033E-01;  4.0000000E+04;  0.0000000E+00;  4.0012719E+04; -2.3113146E-02;  0.0000000E+00; -7.4237455E-03;  1.8198837E+03;
  5.6172556E-01;  9.9999998E-03; -2.6001328E-01;5866; -2.5919933E-02;  0.0000000E+00;  3.3528432E-03;  9.9848346E+02;  1.0007985E-01; -1.2564088E+03;3;  3.4407244E+00;  0.0000000E+00;  2.5184236E+00;0; -3.0588478E-02;  3.9801586E+04;  0.0000000E+00; -1.2824880E-01;  4.0000000E+04;  0.0000000E+00;  4.0011855E+04; -2.3063926E-02;  0.0000000E+00; -7.5245514E-03;  1.6984701E+03;
  5.6172538E-01;  9.9999998E-03; -2.5001484E-01;5867; -2.6124503E-02;  0.0000000E+00;  3.2951699E-03;  9.9859814E+02;  1.0007981E-01; -1.1613992E+03;3;  3.4090533E+00;  0.0000000E+00;  2.4970210E+00;0; -3.0703528E-02;  3.9811941E+04;  0.0000000E+00; -1.0194796E-01;  4.0000000E+04;  0.0000000E+00;  4.0010727E+04; -2.3024900E-02;  0.0000000E+00; -7.6786275E-03;  1.5334700E+03;
  5.6169915E-01;  9.9999998E-03; -2.4001722E-01;5868; -2.6333630E-02;  0.0000000E+00;  3.2301929E-03;  9.9872711E+02;  1.0007977E-01; -1.0545874E+03;3;  3.3846123E+00;  0.0000000E+00;  2.4718335E+00;0; -3.0847747E-02;  3.9823047E+04;  0.0000000E+00; -6.6764563E-02;  4.0000000E+04;  0.0000000E+00;  4.0009391E+04; -2.2996150E-02;  0.0000000E+00; -7.8515969E-03;  1.3694871E+03;
  5.6166142E-01;  9.9999998E-03; -2.3002516E-01;5869; -2.6546568E-02;  0.0000000E+00;  3.1771038E-03;  9.9885034E+02;  1.0007978E-01; -9.5246680E+02;3;  3.3684103E+00;  0.0000000E+00;  2.4418027E+00;0; -3.1108633E-02;  3.9834891E+04;  0.0000000E+00; -3.5263874E-02;  4.0000000E+04;  0.0000000E+00;  4.0007082E+04; -2.2974906E-02;  0.0000000E+00; -8.1337271E-03;  1.0669049E+03;
  5.6162471E-01;  9.9999998E-03; -2.2004014E-01;5870; -2.6761416E-02;  0.0000000E+00;  3.1135441E-03;  9.9897412E+02;  1.0008001E-01; -8.4990179E+02;3;  3.3608241E+00;  0.0000000E+00;  2.4064181E+00;0; -3.1390414E-02;  3.9847324E+04;  0.0000000E+00; -7.4106404E-03;  4.0000000E+04;  0.0000000E+00;  4.0004742E+04; -2.2957876E-02;  0.0000000E+00; -8.4325382E-03;  7.3605994E+02;
  5.6159341E-01;  9.9999998E-03; -2.1005324E-01;5871; -2.6975485E-02;  0.0000000E+00;  3.0355873E-03;  9.9911517E+02;  1.0007975E-01; -7.3306561E+02;3;  3.3620496E+00;  0.0000000E+00;  2.3643301E+00;0; -3.1716965E-02;  3.9859535E+04;  0.0000000E+00;  1.7446354E-02;  4.0000000E+04;  0.0000000E+00;  4.0003363E+04; -2.2942742E-02;  0.0000000E+00; -8.7742247E-03;  5.5519482E+02;
  5.6157058E-01;  9.9999998E-03; -2.0005949E-01;5872; -2.7186587E-02;  0.0000000E+00;  2.9548688E-03;  9.9925055E+02;  1.0007975E-01; -6.2092065E+02;3;  3.3717265E+00;  0.0000000E+00;  2.3151617E+00;0; -3.2111391E-02;  3.9871148E+04;  0.0000000E+00;  3.8087327E-02;  4.0000000E+04;  0.0000000E+00;  4.0002309E+04; -2.2927061E-02;  0.0000000E+00; -9.1843316E-03;  4.2733984E+02;
  5.6155688E-01;  9.9999998E-03; -1.9006033E-01;5873; -2.7392676E-02;  0.0000000E+00;  2.8711134E-03;  9.9936420E+02;  1.0007992E-01; -5.2675049E+02;3;  3.3892741E+00;  0.0000000E+00;  2.2581513E+00;0; -3.2562651E-02;  3.9881633E+04;  0.0000000E+00;  5.3285535E-02;  4.0000000E+04;  0.0000000E+00;  4.0000992E+04; -2.2909148E-02;  0.0000000E+00; -9.6535040E-03;  2.4821080E+02;
  5.6155080E-01;  9.9999998E-03; -1.8005836E-01;5874; -2.7591871E-02;  0.0000000E+00;  2.7805923E-03;  9.9945276E+02;  1.0007997E-01; -4.5336987E+02;3;  3.4137414E+00;  0.0000000E+00;  2.1929915E+00;0; -3.3059247E-02;  3.9890641E+04;  0.0000000E+00;  6.2504478E-02;  4.0000000E+04;  0.0000000E+00;  3.9998922E+04; -2.2887962E-02;  0.0000000E+00; -1.0171287E-02;  8.9051239E+01;
  5.6155121E-01;  9.9999998E-03; -1.7005508E-01;5875; -2.7782716E-02;  0.0000000E+00;  2.6810842E-03;  9.9951141E+02;  1.0007987E-01; -4.0477866E+02;3;  3.4439173E+00;  0.0000000E+00;  2.1195583E+00;0; -3.3589013E-02;  3.9897574E+04;  0.0000000E+00;  6.6271126E-02;  4.0000000E+04;  0.0000000E+00;  3.9996582E+04; -2.2863131E-02;  0.0000000E+00; -1.0725883E-02;  3.2845526E+02;
  5.6155652E-01;  9.9999998E-03; -1.6005130E-01;5876; -2.7964316E-02;  0.0000000E+00;  2.5715176E-03;  9.9954456E+02;  1.0007964E-01; -3.7732263E+02;3;  3.4786286E+00;  0.0000000E+00;  2.0380962E+00;0; -3.4136225E-02;  3.9902293E+04;  0.0000000E+00;  6.5796904E-02;  4.0000000E+04;  0.0000000E+00;  3.9994324E+04; -2.2835085E-02;  0.0000000E+00; -1.1301139E-02;  6.1727057E+02;
  5.6156534E-01;  9.9999998E-03; -1.5004769E-01;5877; -2.8136248E-02;  0.0000000E+00;  2.4514082E-03;  9.9954865E+02;  1.0007985E-01; -3.7391531E+02;3;  3.5166340E+00;  0.0000000E+00;  1.9490663E+00;0; -3.4682747E-02;  3.9904930E+04;  0.0000000E+00;  6.2392339E-02;  4.0000000E+04;  0.0000000E+00;  3.9992164E+04; -2.2804821E-02;  0.0000000E+00; -1.1877926E-02;  8.7939948E+02;
  5.6157547E-01;  9.9999998E-03; -1.4004479E-01;5878; -2.8298540E-02;  0.0000000E+00;  2.3208032E-03;  9.9953223E+02;  1.0007970E-01; -3.8754456E+02;3;  3.5568080E+00;  0.0000000E+00;  1.8530256E+00;0; -3.5211969E-02;  3.9904949E+04;  0.0000000E+00;  5.6878027E-02;  4.0000000E+04;  0.0000000E+00;  3.9990312E+04; -2.2774002E-02;  0.0000000E+00; -1.2437968E-02;  1.0933319E+03;
  5.6158483E-01;  9.9999998E-03; -1.3004278E-01;5879; -2.8451459E-02;  0.0000000E+00;  2.1805333E-03;  9.9949420E+02;  1.0007964E-01; -4.1904984E+02;3;  3.5981462E+00;  0.0000000E+00;  1.7504528E+00;0; -3.5712890E-02;  3.9903184E+04;  0.0000000E+00;  4.9419217E-02;  4.0000000E+04;  0.0000000E+00;  3.9989266E+04; -2.2744579E-02;  0.0000000E+00; -1.2968309E-02;  1.2525392E+03;
  5.6159234E-01;  9.9999998E-03; -1.2004144E-01;5880; -2.8595472E-02;  0.0000000E+00;  2.0320911E-03;  9.9943921E+02;  1.0007966E-01; -4.6462881E+02;3;  3.6399016E+00;  0.0000000E+00;  1.6417166E+00;0; -3.6180321E-02;  3.9899598E+04;  0.0000000E+00;  3.9980091E-02;  4.0000000E+04;  0.0000000E+00;  3.9988219E+04; -2.2718612E-02;  0.0000000E+00; -1.3461709E-02;  1.3609789E+03;
  5.6159770E-01;  9.9999998E-03; -1.1004031E-01;5881; -2.8731119E-02;  0.0000000E+00;  1.8771189E-03;  9.9937262E+02;  1.0007960E-01; -5.1978772E+02;3;  3.6812387E+00;  0.0000000E+00;  1.5271989E+00;0; -3.6611203E-02;  3.9895020E+04;  0.0000000E+00;  2.9011210E-02;  4.0000000E+04;  0.0000000E+00;  3.9987434E+04; -2.2697942E-02;  0.0000000E+00; -1.3913261E-02;  1.4279437E+03;
  5.7184720E-01;  9.9999998E-03; -2.7001435E-01;5926; -2.5974883E-02;  0.0000000E+00;  3.5918895E-03;  9.9856702E+02;  1.0013127E-01; -1.1871763E+03;3;  3.5571330E+00;  0.0000000E+00;  2.6045730E+00;0; -2.9770298E-02;  3.9768633E+04;  0.0000000E+00; -2.0658349E-01;  4.0000000E+04;  0.0000000E+00;  4.0010859E+04; -2.1680428E-02;  0.0000000E+00; -8.0898702E-03;  1.6032100E+03;
  5.7187039E-01;  9.9999998E-03; -2.6001421E-01;5927; -2.6171494E-02;  0.0000000E+00;  3.5329715E-03;  9.9865674E+02;  1.0013119E-01; -1.1128573E+03;3;  3.5203950E+00;  0.0000000E+00;  2.5869977E+00;0; -2.9822651E-02;  3.9776344E+04;  0.0000000E+00; -1.7391761E-01;  4.0000000E+04;  0.0000000E+00;  4.0010129E+04; -2.1611609E-02;  0.0000000E+00; -8.2110437E-03;  1.4922395E+03;
  5.7185954E-01;  9.9999998E-03; -2.5001535E-01;5928; -2.6375096E-02;  0.0000000E+00;  3.4761836E-03;  9.9875836E+02;  1.0013124E-01; -1.0286622E+03;3;  3.4907186E+00;  0.0000000E+00;  2.5670443E+00;0; -2.9942855E-02;  3.9785500E+04;  0.0000000E+00; -1.1463616E-01;  4.0000000E+04;  0.0000000E+00;  4.0008734E+04; -2.1556253E-02;  0.0000000E+00; -8.3866017E-03;  1.3225978E+03;
  5.7182264E-01;  9.9999998E-03; -2.4001704E-01;5929; -2.6584037E-02;  0.0000000E+00;  3.4015730E-03;  9.9887756E+02;  1.0013139E-01; -9.2989954E+02;3;  3.4692771E+00;  0.0000000E+00;  2.5431314E+00;0; -3.0029092E-02;  3.9795348E+04;  0.0000000E+00; -6.8132989E-02;  4.0000000E+04;  0.0000000E+00;  4.0007852E+04; -2.1513717E-02;  0.0000000E+00; -8.5153747E-03;  1.1992722E+03;
  5.7177335E-01;  9.9999998E-03; -2.3002358E-01;5930; -2.6797263E-02;  0.0000000E+00;  3.3383907E-03;  9.9898883E+02;  1.0013141E-01; -8.3775403E+02;3;  3.4568682E+00;  0.0000000E+00;  2.5136857E+00;0; -3.0256763E-02;  3.9805867E+04;  0.0000000E+00; -3.8984150E-02;  4.0000000E+04;  0.0000000E+00;  4.0006121E+04; -2.1481315E-02;  0.0000000E+00; -8.7754494E-03;  9.6751202E+02;
  5.7172322E-01;  9.9999998E-03; -2.2003846E-01;5931; -2.7012706E-02;  0.0000000E+00;  3.2690736E-03;  9.9909973E+02;  1.0013144E-01; -7.4585541E+02;3;  3.4541194E+00;  0.0000000E+00;  2.4783938E+00;0; -3.0533550E-02;  3.9816629E+04;  0.0000000E+00; -1.9126922E-02;  4.0000000E+04;  0.0000000E+00;  4.0003832E+04; -2.1456040E-02;  0.0000000E+00; -9.0775099E-03;  6.6635614E+02;
  5.7167816E-01;  9.9999998E-03; -2.1005286E-01;5932; -2.7227078E-02;  0.0000000E+00;  3.1848850E-03;  9.9922137E+02;  1.0013153E-01; -6.4506812E+02;3;  3.4610755E+00;  0.0000000E+00;  2.4363818E+00;0; -3.0860892E-02;  3.9827500E+04;  0.0000000E+00; -2.1224378E-03;  4.0000000E+04;  0.0000000E+00;  4.0002508E+04; -2.1435671E-02;  0.0000000E+00; -9.4252210E-03;  5.0226459E+02;
  5.7164234E-01;  9.9999998E-03; -2.0006037E-01;5933; -2.7437957E-02;  0.0000000E+00;  3.0961644E-03;  9.9934210E+02;  1.0013146E-01; -5.4507098E+02;3;  3.4772468E+00;  0.0000000E+00;  2.3865192E+00;0; -3.1260207E-02;  3.9837734E+04;  0.0000000E+00;  1.4155077E-02;  4.0000000E+04;  0.0000000E+00;  4.0001938E+04; -2.1418065E-02;  0.0000000E+00; -9.8421434E-03;  3.9906415E+02;
  5.7161707E-01;  9.9999998E-03; -1.9006197E-01;5934; -2.7643194E-02;  0.0000000E+00;  3.0036371E-03;  9.9944409E+02;  1.0013139E-01; -4.6057953E+02;3;  3.5019333E+00;  0.0000000E+00;  2.3283594E+00;0; -3.1720705E-02;  3.9846875E+04;  0.0000000E+00;  3.0103683E-02;  4.0000000E+04;  0.0000000E+00;  4.0000719E+04; -2.1401696E-02;  0.0000000E+00; -1.0319008E-02;  2.3986394E+02;
  5.7160228E-01;  9.9999998E-03; -1.8006030E-01;5935; -2.7840916E-02;  0.0000000E+00;  2.9038433E-03;  9.9951593E+02;  1.0013138E-01; -4.0102567E+02;3;  3.5338988E+00;  0.0000000E+00;  2.2615056E+00;0; -3.2229453E-02;  3.9854535E+04;  0.0000000E+00;  4.5652732E-02;  4.0000000E+04;  0.0000000E+00;  3.9998625E+04; -2.1385759E-02;  0.0000000E+00; -1.0843695E-02;  6.2693512E+01;
  5.7159680E-01;  9.9999998E-03; -1.7005695E-01;5936; -2.8029811E-02;  0.0000000E+00;  2.7945898E-03;  9.9956427E+02;  1.0013123E-01; -3.6097742E+02;3;  3.5718434E+00;  0.0000000E+00;  2.1858907E+00;0; -3.2772772E-02;  3.9860410E+04;  0.0000000E+00;  6.0896181E-02;  4.0000000E+04;  0.0000000E+00;  3.9996375E+04; -2.1369876E-02;  0.0000000E+00; -1.1402894E-02;  3.0882266E+02;
  5.7159960E-01;  9.9999998E-03; -1.6005285E-01;5937; -2.8209116E-02;  0.0000000E+00;  2.6750765E-03;  9.9958191E+02;  1.0013103E-01; -3.4636053E+02;3;  3.6141491E+00;  0.0000000E+00;  2.1018975E+00;0; -3.3333715E-02;  3.9864227E+04;  0.0000000E+00;  7.5772777E-02;  4.0000000E+04;  0.0000000E+00;  3.9994094E+04; -2.1354219E-02;  0.0000000E+00; -1.1979496E-02;  6.0661444E+02;
  5.7160878E-01;  9.9999998E-03; -1.5004888E-01;5938; -2.8378721E-02;  0.0000000E+00;  2.5450473E-03;  9.9957990E+02;  1.0013118E-01; -3.4803952E+02;3;  3.6596038E+00;  0.0000000E+00;  2.0100250E+00;0; -3.3893220E-02;  3.9865902E+04;  0.0000000E+00;  8.9658849E-02;  4.0000000E+04;  0.0000000E+00;  3.9991852E+04; -2.1339247E-02;  0.0000000E+00; -1.2553972E-02;  8.8150439E+02;
  5.7162231E-01;  9.9999998E-03; -1.4004563E-01;5939; -2.8538814E-02;  0.0000000E+00;  2.4047822E-03;  9.9955188E+02;  1.0013114E-01; -3.7124872E+02;3;  3.7069356E+00;  0.0000000E+00;  1.9109066E+00;0; -3.4434102E-02;  3.9865719E+04;  0.0000000E+00;  1.0130136E-01;  4.0000000E+04;  0.0000000E+00;  3.9989996E+04; -2.1325765E-02;  0.0000000E+00; -1.3108336E-02;  1.1099684E+03;
  5.7163835E-01;  9.9999998E-03; -1.3004313E-01;5940; -2.8689941E-02;  0.0000000E+00;  2.2552900E-03;  9.9950586E+02;  1.0013101E-01; -4.0937109E+02;3;  3.7551303E+00;  0.0000000E+00;  1.8051138E+00;0; -3.4945063E-02;  3.9863727E+04;  0.0000000E+00;  1.0900199E-01;  4.0000000E+04;  0.0000000E+00;  3.9988578E+04; -2.1314697E-02;  0.0000000E+00; -1.3630368E-02;  1.2832262E+03;
  5.7165438E-01;  9.9999998E-03; -1.2004121E-01;5941; -2.8832711E-02;  0.0000000E+00;  2.0982032E-03;  9.9944708E+02;  1.0013115E-01; -4.5806110E+02;3;  3.8033290E+00;  0.0000000E+00;  1.6930816E+00;0; -3.5420939E-02;  3.9859934E+04;  0.0000000E+00;  1.1116493E-01;  4.0000000E+04;  0.0000000E+00;  3.9987562E+04; -2.1307269E-02;  0.0000000E+00; -1.4113668E-02;  1.4035560E+03;
  5.7166874E-01;  9.9999998E-03; -1.1003925E-01;5942; -2.8967712E-02;  0.0000000E+00;  1.9352710E-03;  9.9937903E+02;  1.0013121E-01; -5.1445453E+02;3;  3.8507552E+00;  0.0000000E+00;  1.5751592E+00;0; -3.5858795E-02;  3.9855090E+04;  0.0000000E+00;  1.0712488E-01;  4.0000000E+04;  0.0000000E+00;  3.9986938E+04; -2.1304725E-02;  0.0000000E+00; -1.4554068E-02;  1.4794800E+03;
  5.8198667E-01;  9.9999998E-03; -2.7001655E-01;5987; -2.6214199E-02;  0.0000000E+00;  3.7650813E-03;  9.9876215E+02;  1.0021430E-01; -1.0255511E+03;3;  3.6326094E+00;  0.0000000E+00;  2.6705403E+00;0; -2.8809767E-02;  3.9720789E+04;  0.0000000E+00; -3.2917336E-01;  4.0000000E+04;  0.0000000E+00;  4.0008234E+04; -2.0010186E-02;  0.0000000E+00; -8.7995818E-03;  1.4060009E+03;
  5.8201098E-01;  9.9999998E-03; -2.6001504E-01;5988; -2.6408160E-02;  0.0000000E+00;  3.7042079E-03;  9.9884174E+02;  1.0021447E-01; -9.5957770E+02;3;  3.5970247E+00;  0.0000000E+00;  2.6552479E+00;0; -2.8862547E-02;  3.9727312E+04;  0.0000000E+00; -2.3481904E-01;  4.0000000E+04;  0.0000000E+00;  4.0007734E+04; -1.9934054E-02;  0.0000000E+00; -8.9284936E-03;  1.2848109E+03;
  5.8200222E-01;  9.9999998E-03; -2.5001481E-01;5989; -2.6610540E-02;  0.0000000E+00;  3.6459169E-03;  9.9892755E+02;  1.0021477E-01; -8.8851801E+02;3;  3.5693228E+00;  0.0000000E+00;  2.6370757E+00;0; -2.8976858E-02;  3.9735184E+04;  0.0000000E+00; -1.3568549E-01;  4.0000000E+04;  0.0000000E+00;  4.0006602E+04; -1.9873999E-02;  0.0000000E+00; -9.1028577E-03;  1.1139584E+03;
  5.8196115E-01;  9.9999998E-03; -2.4001461E-01;5990; -2.6818974E-02;  0.0000000E+00;  3.5622073E-03;  9.9903424E+02;  1.0021478E-01; -8.0012549E+02;3;  3.5509233E+00;  0.0000000E+00;  2.6147425E+00;0; -2.9018674E-02;  3.9743777E+04;  0.0000000E+00; -6.8676583E-02;  4.0000000E+04;  0.0000000E+00;  4.0006238E+04; -1.9831045E-02;  0.0000000E+00; -9.1876304E-03;  1.0272197E+03;
  5.8190298E-01;  9.9999998E-03; -2.3001780E-01;5991; -2.7032405E-02;  0.0000000E+00;  3.4873823E-03;  9.9913715E+02;  1.0021497E-01; -7.1484393E+02;3;  3.5426028E+00;  0.0000000E+00;  2.5864930E+00;0; -2.9218651E-02;  3.9752875E+04;  0.0000000E+00; -3.6333781E-02;  4.0000000E+04;  0.0000000E+00;  4.0004906E+04; -1.9802224E-02;  0.0000000E+00; -9.4164275E-03;  8.7109998E+02;
  5.8184260E-01;  9.9999998E-03; -2.2003040E-01;5992; -2.7248736E-02;  0.0000000E+00;  3.4128209E-03;  9.9923096E+02;  1.0021490E-01; -6.3711774E+02;3;  3.5452096E+00;  0.0000000E+00;  2.5515382E+00;0; -2.9502966E-02;  3.9762258E+04;  0.0000000E+00; -2.2949746E-02;  4.0000000E+04;  0.0000000E+00;  4.0002699E+04; -1.9783841E-02;  0.0000000E+00; -9.7191250E-03;  5.8874591E+02;
  5.8178675E-01;  9.9999998E-03; -2.1004501E-01;5993; -2.7463777E-02;  0.0000000E+00;  3.3224563E-03;  9.9933173E+02;  1.0021475E-01; -5.5366333E+02;3;  3.5586486E+00;  0.0000000E+00;  2.5091422E+00;0; -2.9841669E-02;  3.9771586E+04;  0.0000000E+00; -1.4905788E-02;  4.0000000E+04;  0.0000000E+00;  4.0001320E+04; -1.9773852E-02;  0.0000000E+00; -1.0067817E-02;  4.0952319E+02;
  5.8173960E-01;  9.9999998E-03; -2.0005384E-01;5994; -2.7674651E-02;  0.0000000E+00;  3.2248504E-03;  9.9943304E+02;  1.0021470E-01; -4.6971509E+02;3;  3.5821142E+00;  0.0000000E+00;  2.4584179E+00;0; -3.0255130E-02;  3.9780125E+04;  0.0000000E+00; -5.6256074E-03;  4.0000000E+04;  0.0000000E+00;  4.0000648E+04; -1.9770123E-02;  0.0000000E+00; -1.0485006E-02;  3.0313541E+02;
  5.8170360E-01;  9.9999998E-03; -1.9005667E-01;5995; -2.7879095E-02;  0.0000000E+00;  3.1221956E-03;  9.9951611E+02;  1.0021468E-01; -4.0087753E+02;3;  3.6148765E+00;  0.0000000E+00;  2.3988507E+00;0; -3.0733947E-02;  3.9787727E+04;  0.0000000E+00;  7.6710824E-03;  4.0000000E+04;  0.0000000E+00;  3.9999535E+04; -1.9771062E-02;  0.0000000E+00; -1.0962885E-02;  1.5368976E+02;
  5.8167952E-01;  9.9999998E-03; -1.8005589E-01;5996; -2.8075337E-02;  0.0000000E+00;  3.0117878E-03;  9.9957635E+02;  1.0021465E-01; -3.5100238E+02;3;  3.6551833E+00;  0.0000000E+00;  2.3300395E+00;0; -3.1263389E-02;  3.9794184E+04;  0.0000000E+00;  2.5953399E-02;  4.0000000E+04;  0.0000000E+00;  3.9997629E+04; -1.9775648E-02;  0.0000000E+00; -1.1487743E-02;  8.0571045E+01;
  5.8166713E-01;  9.9999998E-03; -1.7005320E-01;5997; -2.8262231E-02;  0.0000000E+00;  2.8918993E-03;  9.9960864E+02;  1.0021455E-01; -3.2423773E+02;3;  3.7015193E+00;  0.0000000E+00;  2.2520356E+00;0; -3.1827882E-02;  3.9798984E+04;  0.0000000E+00;  4.9236409E-02;  4.0000000E+04;  0.0000000E+00;  3.9995488E+04; -1.9783081E-02;  0.0000000E+00; -1.2044801E-02;  3.5735339E+02;
  5.8166522E-01;  9.9999998E-03; -1.6004953E-01;5998; -2.8439291E-02;  0.0000000E+00;  2.7618988E-03;  9.9961926E+02;  1.0021445E-01; -3.1544785E+02;3;  3.7521203E+00;  0.0000000E+00;  2.1651850E+00;0; -3.2409288E-02;  3.9802070E+04;  0.0000000E+00;  7.6507948E-02;  4.0000000E+04;  0.0000000E+00;  3.9993180E+04; -1.9793155E-02;  0.0000000E+00; -1.2616135E-02;  6.5129901E+02;
  5.8167243E-01;  9.9999998E-03; -1.5004572E-01;5999; -2.8606595E-02;  0.0000000E+00;  2.6217925E-03;  9.9960736E+02;  1.0021443E-01; -3.2527472E+02;3;  3.8054154E+00;  0.0000000E+00;  2.0702286E+00;0; -3.2987740E-02;  3.9803473E+04;  0.0000000E+00;  1.0552256E-01;  4.0000000E+04;  0.0000000E+00;  3.9991141E+04; -1.9805523E-02;  0.0000000E+00; -1.3182217E-02;  9.2497437E+02;
  5.8168691E-01;  9.9999998E-03; -1.4004233E-01;6000; -2.8764678E-02;  0.0000000E+00;  2.4720596E-03;  9.9957928E+02;  1.0021447E-01; -3.4853333E+02;3;  3.8602266E+00;  0.0000000E+00;  1.9678934E+00;0; -3.3545550E-02;  3.9803012E+04;  0.0000000E+00;  1.3313919E-01;  4.0000000E+04;  0.0000000E+00;  3.9989160E+04; -1.9819837E-02;  0.0000000E+00; -1.3725714E-02;  1.1545519E+03;
  5.8170676E-01;  9.9999998E-03; -1.3003939E-01;6001; -2.8914260E-02;  0.0000000E+00;  2.3138595E-03;  9.9953723E+02;  1.0021418E-01; -3.8339655E+02;3;  3.9153323E+00;  0.0000000E+00;  1.8588786E+00;0; -3.4071371E-02;  3.9801148E+04;  0.0000000E+00;  1.5590480E-01;  4.0000000E+04;  0.0000000E+00;  3.9987871E+04; -1.9835981E-02;  0.0000000E+00; -1.4235389E-02;  1.3294706E+03;
  5.8173066E-01;  9.9999998E-03; -1.2003647E-01;6002; -2.9056063E-02;  0.0000000E+00;  2.1489065E-03;  9.9948132E+02;  1.0021426E-01; -4.2971622E+02;3;  3.9700959E+00;  0.0000000E+00;  1.7435271E+00;0; -3.4559906E-02;  3.9797828E+04;  0.0000000E+00;  1.7067325E-01;  4.0000000E+04;  0.0000000E+00;  3.9986672E+04; -1.9854024E-02;  0.0000000E+00; -1.4705883E-02;  1.4506525E+03;
  5.8175611E-01;  9.9999998E-03; -1.1003331E-01;6003; -2.9190760E-02;  0.0000000E+00;  1.9789930E-03;  9.9942120E+02;  1.0021417E-01; -4.7954196E+02;3;  4.0238819E+00;  0.0000000E+00;  1.6222579E+00;0; -3.5008159E-02;  3.9793734E+04;  0.0000000E+00;  1.7546208E-01;  4.0000000E+04;  0.0000000E+00;  3.9986098E+04; -1.9874359E-02;  0.0000000E+00; -1.5133800E-02;  1.5258239E+03;
  5.9206802E-01;  9.9999998E-03; -2.7001885E-01;6048; -2.6434153E-02;  0.0000000E+00;  3.9283927E-03;  9.9887366E+02;  1.0034879E-01; -9.3315875E+02;3;  3.7040889E+00;  0.0000000E+00;  2.7373726E+00;0; -2.7648989E-02;  3.9625859E+04;  0.0000000E+00; -3.5535979E-01;  4.0000000E+04;  0.0000000E+00;  4.0006621E+04; -1.8095164E-02;  0.0000000E+00; -9.5538264E-03;  1.3027686E+03;
  5.9209496E-01;  9.9999998E-03; -2.6001525E-01;6049; -2.6625067E-02;  0.0000000E+00;  3.8657344E-03;  9.9894305E+02;  1.0034929E-01; -8.7567889E+02;3;  3.6693499E+00;  0.0000000E+00;  2.7244179E+00;0; -2.7709171E-02;  3.9631598E+04;  0.0000000E+00; -2.3493207E-01;  4.0000000E+04;  0.0000000E+00;  4.0006066E+04; -1.8028377E-02;  0.0000000E+00; -9.6807936E-03;  1.1756138E+03;
  5.9208930E-01;  9.9999998E-03; -2.5001255E-01;6050; -2.6825810E-02;  0.0000000E+00;  3.8055561E-03;  9.9901581E+02;  1.0034923E-01; -8.1538428E+02;3;  3.6434348E+00;  0.0000000E+00;  2.7080491E+00;0; -2.7819252E-02;  3.9638344E+04;  0.0000000E+00; -1.2240911E-01;  4.0000000E+04;  0.0000000E+00;  4.0004809E+04; -1.7980943E-02;  0.0000000E+00; -9.8383091E-03;  1.0031059E+03;
  5.9205073E-01;  9.9999998E-03; -2.4000931E-01;6051; -2.7033573E-02;  0.0000000E+00;  3.7155978E-03;  9.9911072E+02;  1.0034949E-01; -7.3676923E+02;3;  3.6282918E+00;  0.0000000E+00;  2.6870775E+00;0; -2.7834103E-02;  3.9645652E+04;  0.0000000E+00; -5.1916990E-02;  4.0000000E+04;  0.0000000E+00;  4.0004434E+04; -1.7954739E-02;  0.0000000E+00; -9.8793628E-03;  9.2596478E+02;
  5.9199148E-01;  9.9999998E-03; -2.3000917E-01;6052; -2.7247095E-02;  0.0000000E+00;  3.6340046E-03;  9.9919751E+02;  1.0034961E-01; -6.6487006E+02;3;  3.6246760E+00;  0.0000000E+00;  2.6591365E+00;0; -2.8022800E-02;  3.9653551E+04;  0.0000000E+00; -2.3889542E-02;  4.0000000E+04;  0.0000000E+00;  4.0003277E+04; -1.7947296E-02;  0.0000000E+00; -1.0075504E-02;  7.7004199E+02;
  5.9192771E-01;  9.9999998E-03; -2.2002135E-01;6053; -2.7464544E-02;  0.0000000E+00;  3.5538999E-03;  9.9927087E+02;  1.0034963E-01; -6.0408167E+02;3;  3.6335096E+00;  0.0000000E+00;  2.6243687E+00;0; -2.8313488E-02;  3.9662004E+04;  0.0000000E+00; -1.9736324E-02;  4.0000000E+04;  0.0000000E+00;  4.0000375E+04; -1.7954495E-02;  0.0000000E+00; -1.0358993E-02;  4.2289371E+02;
  5.9186739E-01;  9.9999998E-03; -2.1003862E-01;6054; -2.7680513E-02;  0.0000000E+00;  3.4531467E-03;  9.9935516E+02;  1.0034940E-01; -5.3425647E+02;3;  3.6539042E+00;  0.0000000E+00;  2.5815890E+00;0; -2.8662734E-02;  3.9669891E+04;  0.0000000E+00; -2.2125656E-02;  4.0000000E+04;  0.0000000E+00;  3.9998664E+04; -1.7974142E-02;  0.0000000E+00; -1.0688593E-02;  1.8866582E+02;
  5.9181464E-01;  9.9999998E-03; -2.0005050E-01;6055; -2.7891129E-02;  0.0000000E+00;  3.3425605E-03;  9.9943909E+02;  1.0034940E-01; -4.6472757E+02;3;  3.6862848E+00;  0.0000000E+00;  2.5297294E+00;0; -2.9097371E-02;  3.9677539E+04;  0.0000000E+00; -2.1610523E-02;  4.0000000E+04;  0.0000000E+00;  3.9997941E+04; -1.8004067E-02;  0.0000000E+00; -1.1093304E-02;  8.2639954E+01;
  5.9177214E-01;  9.9999998E-03; -1.9005544E-01;6056; -2.8094588E-02;  0.0000000E+00;  3.2269065E-03;  9.9951263E+02;  1.0034945E-01; -4.0379102E+02;3;  3.7275927E+00;  0.0000000E+00;  2.4685421E+00;0; -2.9605515E-02;  3.9684094E+04;  0.0000000E+00; -1.3752542E-02;  4.0000000E+04;  0.0000000E+00;  3.9996969E+04; -1.8041879E-02;  0.0000000E+00; -1.1563635E-02;  4.9888634E+01;
  5.9174138E-01;  9.9999998E-03; -1.8005607E-01;6057; -2.8289212E-02;  0.0000000E+00;  3.1044183E-03;  9.9955890E+02;  1.0034906E-01; -3.6542172E+02;3;  3.7777185E+00;  0.0000000E+00;  2.3972323E+00;0; -3.0167658E-02;  3.9689328E+04;  0.0000000E+00;  3.1827567E-03;  4.0000000E+04;  0.0000000E+00;  3.9995391E+04; -1.8085755E-02;  0.0000000E+00; -1.2081902E-02;  2.3805925E+02;
  5.9172332E-01;  9.9999998E-03; -1.7005408E-01;6058; -2.8474109E-02;  0.0000000E+00;  2.9731779E-03;  9.9958209E+02;  1.0034908E-01; -3.4621240E+02;3;  3.8329802E+00;  0.0000000E+00;  2.3166013E+00;0; -3.0764900E-02;  3.9693398E+04;  0.0000000E+00;  2.9352810E-02;  4.0000000E+04;  0.0000000E+00;  3.9993699E+04; -1.8134110E-02;  0.0000000E+00; -1.2630790E-02;  4.8724255E+02;
  5.9171748E-01;  9.9999998E-03; -1.6005045E-01;6059; -2.8648969E-02;  0.0000000E+00;  2.8325431E-03;  9.9958655E+02;  1.0034893E-01; -3.4255820E+02;3;  3.8927095E+00;  0.0000000E+00;  2.2265403E+00;0; -3.1377204E-02;  3.9696027E+04;  0.0000000E+00;  6.3334979E-02;  4.0000000E+04;  0.0000000E+00;  3.9991406E+04; -1.8185658E-02;  0.0000000E+00; -1.3191546E-02;  7.5712408E+02;
  5.9172297E-01;  9.9999998E-03; -1.5004607E-01;6060; -2.8814236E-02;  0.0000000E+00;  2.6826332E-03;  9.9957800E+02;  1.0034863E-01; -3.4961972E+02;3;  3.9542124E+00;  0.0000000E+00;  2.1284235E+00;0; -3.1984024E-02;  3.9697371E+04;  0.0000000E+00;  1.0198794E-01;  4.0000000E+04;  0.0000000E+00;  3.9989449E+04; -1.8239060E-02;  0.0000000E+00; -1.3744964E-02;  1.0118598E+03;
  5.9173888E-01;  9.9999998E-03; -1.4004135E-01;6061; -2.8970631E-02;  0.0000000E+00;  2.5240572E-03;  9.9955615E+02;  1.0034855E-01; -3.6774265E+02;3;  4.0162926E+00;  0.0000000E+00;  2.0230052E+00;0; -3.2567531E-02;  3.9697332E+04;  0.0000000E+00;  1.4097847E-01;  4.0000000E+04;  0.0000000E+00;  3.9987742E+04; -1.8292870E-02;  0.0000000E+00; -1.4274659E-02;  1.2258978E+03;
  5.9176373E-01;  9.9999998E-03; -1.3003635E-01;6062; -2.9119020E-02;  0.0000000E+00;  2.3580296E-03;  9.9952509E+02;  1.0034847E-01; -3.9347034E+02;3;  4.0785513E+00;  0.0000000E+00;  1.9107298E+00;0; -3.3116113E-02;  3.9696312E+04;  0.0000000E+00;  1.7562243E-01;  4.0000000E+04;  0.0000000E+00;  3.9986391E+04; -1.8345689E-02;  0.0000000E+00; -1.4770425E-02;  1.3871107E+03;
  5.9179610E-01;  9.9999998E-03; -1.2003110E-01;6063; -2.9260257E-02;  0.0000000E+00;  2.1863140E-03;  9.9948584E+02;  1.0034828E-01; -4.2596323E+02;3;  4.1398206E+00;  0.0000000E+00;  1.7924461E+00;0; -3.3624612E-02;  3.9694164E+04;  0.0000000E+00;  2.0152466E-01;  4.0000000E+04;  0.0000000E+00;  3.9985672E+04; -1.8396787E-02;  0.0000000E+00; -1.5227824E-02;  1.4954202E+03;
  5.9183264E-01;  9.9999998E-03; -1.1002596E-01;6064; -2.9394928E-02;  0.0000000E+00;  2.0106372E-03;  9.9944006E+02;  1.0034831E-01; -4.6388809E+02;3;  4.2000847E+00;  0.0000000E+00;  1.6679740E+00;0; -3.4089908E-02;  3.9691277E+04;  0.0000000E+00;  2.1550442E-01;  4.0000000E+04;  0.0000000E+00;  3.9985074E+04; -1.8445758E-02;  0.0000000E+00; -1.5644150E-02;  1.5580787E+03;
  6.0206360E-01;  9.9999998E-03; -2.7002138E-01;6109; -2.6632676E-02;  0.0000000E+00;  4.0810709E-03;  9.9882275E+02;  1.0056274E-01; -9.7533038E+02;3;  3.7707651E+00;  0.0000000E+00;  2.8046205E+00;0; -2.6311988E-02;  3.9455332E+04;  0.0000000E+00; -1.8146783E-01;  4.0000000E+04;  0.0000000E+00;  4.0005980E+04; -1.5955798E-02;  0.0000000E+00; -1.0356190E-02;  1.3372050E+03;
  6.0209221E-01;  9.9999998E-03; -2.6001483E-01;6110; -2.6820214E-02;  0.0000000E+00;  4.0166220E-03;  9.9888403E+02;  1.0056362E-01; -9.2456635E+02;3;  3.7362967E+00;  0.0000000E+00;  2.7934644E+00;0; -2.6382914E-02;  3.9460125E+04;  0.0000000E+00; -1.0677432E-01;  4.0000000E+04;  0.0000000E+00;  4.0005352E+04; -1.5918517E-02;  0.0000000E+00; -1.0464396E-02;  1.2442462E+03;
  6.0209101E-01;  9.9999998E-03; -2.5000849E-01;6111; -2.7018994E-02;  0.0000000E+00;  3.9536892E-03;  9.9895142E+02;  1.0056366E-01; -8.6871613E+02;3;  3.7128072E+00;  0.0000000E+00;  2.7787921E+00;0; -2.6484326E-02;  3.9466047E+04;  0.0000000E+00; -3.6845963E-02;  4.0000000E+04;  0.0000000E+00;  4.0004062E+04; -1.5903890E-02;  0.0000000E+00; -1.0580434E-02;  1.0813978E+03;
  6.0205781E-01;  9.9999998E-03; -2.4000078E-01;6112; -2.7225444E-02;  0.0000000E+00;  3.8603642E-03;  9.9903577E+02;  1.0056426E-01; -7.9884155E+02;3;  3.6998289E+00;  0.0000000E+00;  2.7585166E+00;0; -2.6490163E-02;  3.9473070E+04;  0.0000000E+00;  4.1951868E-04;  4.0000000E+04;  0.0000000E+00;  4.0003555E+04; -1.5915122E-02;  0.0000000E+00; -1.0575042E-02;  9.8707318E+02;
  6.0200459E-01;  9.9999998E-03; -2.2999744E-01;6113; -2.7439134E-02;  0.0000000E+00;  3.7779671E-03;  9.9910596E+02;  1.0056435E-01; -7.4071973E+02;3;  3.7027638E+00;  0.0000000E+00;  2.7313917E+00;0; -2.6687069E-02;  3.9480410E+04;  0.0000000E+00;  3.7030133E-03;  4.0000000E+04;  0.0000000E+00;  4.0001645E+04; -1.5949646E-02;  0.0000000E+00; -1.0737423E-02;  7.3216315E+02;
  6.0194504E-01;  9.9999998E-03; -2.2001092E-01;6114; -2.7657170E-02;  0.0000000E+00;  3.6924845E-03;  9.9915466E+02;  1.0056438E-01; -7.0032581E+02;3;  3.7179718E+00;  0.0000000E+00;  2.6962929E+00;0; -2.6983514E-02;  3.9488082E+04;  0.0000000E+00; -1.0501814E-02;  4.0000000E+04;  0.0000000E+00;  3.9997457E+04; -1.6003916E-02;  0.0000000E+00; -1.0979597E-02;  2.2220650E+02;
  6.0188705E-01;  9.9999998E-03; -2.1003261E-01;6115; -2.7873211E-02;  0.0000000E+00;  3.5773208E-03;  9.9922015E+02;  1.0056417E-01; -6.4610516E+02;3;  3.7462118E+00;  0.0000000E+00;  2.6527352E+00;0; -2.7343612E-02;  3.9495789E+04;  0.0000000E+00; -2.7129229E-02;  4.0000000E+04;  0.0000000E+00;  3.9994746E+04; -1.6075561E-02;  0.0000000E+00; -1.1268050E-02;  1.2269423E+02;
  6.0183442E-01;  9.9999998E-03; -2.0004858E-01;6116; -2.8083503E-02;  0.0000000E+00;  3.4497730E-03;  9.9929633E+02;  1.0056413E-01; -5.8299579E+02;3;  3.7879231E+00;  0.0000000E+00;  2.5995655E+00;0; -2.7807876E-02;  3.9502734E+04;  0.0000000E+00; -3.7496392E-02;  4.0000000E+04;  0.0000000E+00;  3.9993828E+04; -1.6161667E-02;  0.0000000E+00; -1.1646210E-02;  2.4704449E+02;
  6.0179102E-01;  9.9999998E-03; -1.9005612E-01;6117; -2.8285593E-02;  0.0000000E+00;  3.3187896E-03;  9.9936658E+02;  1.0056392E-01; -5.2477527E+02;3;  3.8401389E+00;  0.0000000E+00;  2.5358367E+00;0; -2.8359085E-02;  3.9509016E+04;  0.0000000E+00; -3.7631348E-02;  4.0000000E+04;  0.0000000E+00;  3.9993184E+04; -1.6258657E-02;  0.0000000E+00; -1.2100428E-02;  3.3700458E+02;
  6.0175896E-01;  9.9999998E-03; -1.8005766E-01;6118; -2.8478496E-02;  0.0000000E+00;  3.1830608E-03;  9.9941400E+02;  1.0056404E-01; -4.8546771E+02;3;  3.9007716E+00;  0.0000000E+00;  2.4617705E+00;0; -2.8968986E-02;  3.9513973E+04;  0.0000000E+00; -2.6054613E-02;  4.0000000E+04;  0.0000000E+00;  3.9992070E+04; -1.6362980E-02;  0.0000000E+00; -1.2606007E-02;  4.8280484E+02;
  6.0174030E-01;  9.9999998E-03; -1.7005533E-01;6119; -2.8661177E-02;  0.0000000E+00;  3.0401782E-03;  9.9944067E+02;  1.0056351E-01; -4.6339426E+02;3;  3.9670234E+00;  0.0000000E+00;  2.3778739E+00;0; -2.9613648E-02;  3.9517707E+04;  0.0000000E+00; -2.8353306E-03;  4.0000000E+04;  0.0000000E+00;  3.9990367E+04; -1.6471561E-02;  0.0000000E+00; -1.3142086E-02;  6.8668719E+02;
  6.0173601E-01;  9.9999998E-03; -1.6005027E-01;6120; -2.8833928E-02;  0.0000000E+00;  2.8892616E-03;  9.9944922E+02;  1.0056325E-01; -4.5633273E+02;3;  4.0357552E+00;  0.0000000E+00;  2.2846704E+00;0; -3.0270614E-02;  3.9520566E+04;  0.0000000E+00;  3.0610913E-02;  4.0000000E+04;  0.0000000E+00;  3.9988641E+04; -1.6581599E-02;  0.0000000E+00; -1.3689014E-02;  9.1639124E+02;
  6.0174590E-01;  9.9999998E-03; -1.5004340E-01;6121; -2.8997373E-02;  0.0000000E+00;  2.7302632E-03;  9.9944800E+02;  1.0056295E-01; -4.5732037E+02;3;  4.1061797E+00;  0.0000000E+00;  2.1831434E+00;0; -3.0918390E-02;  3.9522344E+04;  0.0000000E+00;  7.1144260E-02;  4.0000000E+04;  0.0000000E+00;  3.9986660E+04; -1.6690422E-02;  0.0000000E+00; -1.4227967E-02;  1.1356787E+03;
  6.0176861E-01;  9.9999998E-03; -1.4003587E-01;6122; -2.9152397E-02;  0.0000000E+00;  2.5638216E-03;  9.9943768E+02;  1.0056274E-01; -4.6586334E+02;3;  4.1761146E+00;  0.0000000E+00;  2.0746071E+00;0; -3.1539220E-02;  3.9523195E+04;  0.0000000E+00;  1.1427844E-01;  4.0000000E+04;  0.0000000E+00;  3.9985344E+04; -1.6795723E-02;  0.0000000E+00; -1.4743498E-02;  1.3175898E+03;
  6.0180080E-01;  9.9999998E-03; -1.3002880E-01;6123; -2.9300073E-02;  0.0000000E+00;  2.3912890E-03;  9.9942468E+02;  1.0056226E-01; -4.7662845E+02;3;  4.2445025E+00;  0.0000000E+00;  1.9602137E+00;0; -3.2121666E-02;  3.9523559E+04;  0.0000000E+00;  1.5506487E-01;  4.0000000E+04;  0.0000000E+00;  3.9984449E+04; -1.6895387E-02;  0.0000000E+00; -1.5226278E-02;  1.4493553E+03;
  6.0183847E-01;  9.9999998E-03; -1.2002300E-01;6124; -2.9441014E-02;  0.0000000E+00;  2.2142350E-03;  9.9940674E+02;  1.0056242E-01; -4.9149225E+02;3;  4.3123169E+00;  0.0000000E+00;  1.8391588E+00;0; -3.2660589E-02;  3.9523113E+04;  0.0000000E+00;  1.8856706E-01;  4.0000000E+04;  0.0000000E+00;  3.9983574E+04; -1.6988087E-02;  0.0000000E+00; -1.5672501E-02;  1.5306611E+03;
  6.0187763E-01;  9.9999998E-03; -1.1001876E-01;6125; -2.9575862E-02;  0.0000000E+00;  2.0342746E-03;  9.9939160E+02;  1.0056213E-01; -5.0403510E+02;3;  4.3787351E+00;  0.0000000E+00;  1.7120696E+00;0; -3.3153050E-02;  3.9522457E+04;  0.0000000E+00;  2.1077947E-01;  4.0000000E+04;  0.0000000E+00;  3.9983578E+04; -1.7073011E-02;  0.0000000E+00; -1.6080039E-02;  1.5691986E+03;
  6.1201119E-01;  9.9999998E-03; -2.7002528E-01;6170; -2.6811803E-02;  0.0000000E+00;  4.2229220E-03;  9.9860803E+02;  1.0089727E-01; -1.1532019E+03;3;  3.8320079E+00;  0.0000000E+00;  2.8741632E+00;0; -2.4834761E-02;  3.9178797E+04;  0.0000000E+00;  9.0005599E-02;  4.0000000E+04;  0.0000000E+00;  4.0006191E+04; -1.3630247E-02;  0.0000000E+00; -1.1204515E-02;  1.6510667E+03;
  6.1203837E-01;  9.9999998E-03; -2.6001519E-01;6171; -2.6995296E-02;  0.0000000E+00;  4.1520773E-03;  9.9867108E+02;  1.0089819E-01; -1.1010059E+03;3;  3.7974398E+00;  0.0000000E+00;  2.8644602E+00;0; -2.4876183E-02;  3.9183359E+04;  0.0000000E+00;  9.0530537E-02;  4.0000000E+04;  0.0000000E+00;  4.0005598E+04; -1.3645162E-02;  0.0000000E+00; -1.1231021E-02;  1.5613611E+03;
  6.1203933E-01;  9.9999998E-03; -2.5000387E-01;6172; -2.7191162E-02;  0.0000000E+00;  4.0816558E-03;  9.9873486E+02;  1.0089882E-01; -1.0481184E+03;3;  3.7747083E+00;  0.0000000E+00;  2.8502393E+00;0; -2.4949998E-02;  3.9188949E+04;  0.0000000E+00;  9.2526659E-02;  4.0000000E+04;  0.0000000E+00;  4.0004293E+04; -1.3686484E-02;  0.0000000E+00; -1.1263515E-02;  1.4047872E+03;
  6.1201406E-01;  9.9999998E-03; -2.3998959E-01;6173; -2.7395461E-02;  0.0000000E+00;  3.9825793E-03;  9.9881927E+02;  1.0089970E-01; -9.7819446E+02;3;  3.7690797E+00;  0.0000000E+00;  2.8300164E+00;0; -2.4956264E-02;  3.9195848E+04;  0.0000000E+00;  7.5338036E-02;  4.0000000E+04;  0.0000000E+00;  4.0003391E+04; -1.3757681E-02;  0.0000000E+00; -1.1198582E-02;  1.2876887E+03;
  6.1196995E-01;  9.9999998E-03; -2.2997965E-01;6174; -2.7607480E-02;  0.0000000E+00;  3.8996667E-03;  9.9888391E+02;  1.0089993E-01; -9.2466516E+02;3;  3.7760842E+00;  0.0000000E+00;  2.8022714E+00;0; -2.5185831E-02;  3.9203289E+04;  0.0000000E+00;  4.0969964E-02;  4.0000000E+04;  0.0000000E+00;  4.0000668E+04; -1.3857860E-02;  0.0000000E+00; -1.1327971E-02;  9.2805939E+02;
  6.1191928E-01;  9.9999998E-03; -2.1999088E-01;6175; -2.7825501E-02;  0.0000000E+00;  3.8133934E-03;  9.9891162E+02;  1.0089993E-01; -9.0170282E+02;3;  3.8003070E+00;  0.0000000E+00;  2.7663529E+00;0; -2.5518175E-02;  3.9211180E+04;  0.0000000E+00;  1.1001035E-03;  4.0000000E+04;  0.0000000E+00;  3.9994816E+04; -1.3983009E-02;  0.0000000E+00; -1.1535166E-02;  2.0814500E+02;
  6.1186880E-01;  9.9999998E-03; -2.1001494E-01;6176; -2.8041182E-02;  0.0000000E+00;  3.6871028E-03;  9.9896521E+02;  1.0090019E-01; -8.5730902E+02;3;  3.8376791E+00;  0.0000000E+00;  2.7213044E+00;0; -2.5910130E-02;  3.9219277E+04;  0.0000000E+00; -3.3646356E-02;  4.0000000E+04;  0.0000000E+00;  3.9990703E+04; -1.4130813E-02;  0.0000000E+00; -1.1779317E-02;  3.1806860E+02;
  6.1182183E-01;  9.9999998E-03; -2.0003442E-01;6177; -2.8249893E-02;  0.0000000E+00;  3.5437599E-03;  9.9903937E+02;  1.0089987E-01; -7.9587866E+02;3;  3.8877378E+00;  0.0000000E+00;  2.6659770E+00;0; -2.6421554E-02;  3.9226840E+04;  0.0000000E+00; -5.7377506E-02;  4.0000000E+04;  0.0000000E+00;  3.9989148E+04; -1.4297583E-02;  0.0000000E+00; -1.2123971E-02;  5.3098596E+02;
  6.1178195E-01;  9.9999998E-03; -1.9004428E-01;6178; -2.8450415E-02;  0.0000000E+00;  3.3979134E-03;  9.9910950E+02;  1.0089956E-01; -7.3775684E+02;3;  3.9532697E+00;  0.0000000E+00;  2.5997961E+00;0; -2.7033351E-02;  3.9233270E+04;  0.0000000E+00; -6.8099976E-02;  4.0000000E+04;  0.0000000E+00;  3.9988352E+04; -1.4477607E-02;  0.0000000E+00; -1.2555744E-02;  6.3579926E+02;
  6.1175239E-01;  9.9999998E-03; -1.8004695E-01;6179; -2.8640917E-02;  0.0000000E+00;  3.2492322E-03;  9.9916553E+02;  1.0089894E-01; -6.9133844E+02;3;  4.0256634E+00;  0.0000000E+00;  2.5217619E+00;0; -2.7709223E-02;  3.9238797E+04;  0.0000000E+00; -6.5740660E-02;  4.0000000E+04;  0.0000000E+00;  3.9987387E+04; -1.4665326E-02;  0.0000000E+00; -1.3043898E-02;  7.6052069E+02;
  6.1173576E-01;  9.9999998E-03; -1.7004478E-01;6180; -2.8821267E-02;  0.0000000E+00;  3.0954545E-03;  9.9919733E+02;  1.0089874E-01; -6.6501819E+02;3;  4.1032519E+00;  0.0000000E+00;  2.4344711E+00;0; -2.8419226E-02;  3.9243223E+04;  0.0000000E+00; -5.1156435E-02;  4.0000000E+04;  0.0000000E+00;  3.9985988E+04; -1.4855098E-02;  0.0000000E+00; -1.3564128E-02;  9.2664404E+02;
  6.1173308E-01;  9.9999998E-03; -1.6003978E-01;6181; -2.8991545E-02;  0.0000000E+00;  2.9351257E-03;  9.9921674E+02;  1.0089814E-01; -6.4891986E+02;3;  4.1836696E+00;  0.0000000E+00;  2.3372185E+00;0; -2.9138003E-02;  3.9246633E+04;  0.0000000E+00; -2.5742762E-02;  4.0000000E+04;  0.0000000E+00;  3.9984543E+04; -1.5042298E-02;  0.0000000E+00; -1.4095704E-02;  1.1121029E+03;
  6.1174387E-01;  9.9999998E-03; -1.5003376E-01;6182; -2.9153274E-02;  0.0000000E+00;  2.7684250E-03;  9.9922821E+02;  1.0089783E-01; -6.3938928E+02;3;  4.2619891E+00;  0.0000000E+00;  2.2333286E+00;0; -2.9843021E-02;  3.9249262E+04;  0.0000000E+00;  8.1927292E-03;  4.0000000E+04;  0.0000000E+00;  3.9983082E+04; -1.5222824E-02;  0.0000000E+00; -1.4620196E-02;  1.2855848E+03;
  6.1176574E-01;  9.9999998E-03; -1.4002825E-01;6183; -2.9307179E-02;  0.0000000E+00;  2.5956663E-03;  9.9923895E+02;  1.0089713E-01; -6.3050061E+02;3;  4.3395033E+00;  0.0000000E+00;  2.1219463E+00;0; -3.0516468E-02;  3.9251633E+04;  0.0000000E+00;  4.7191333E-02;  4.0000000E+04;  0.0000000E+00;  3.9982160E+04; -1.5393471E-02;  0.0000000E+00; -1.5122996E-02;  1.4229172E+03;
  6.1179513E-01;  9.9999998E-03; -1.3002428E-01;6184; -2.9454380E-02;  0.0000000E+00;  2.4183132E-03;  9.9924579E+02;  1.0089687E-01; -6.2487115E+02;3;  4.4137511E+00;  0.0000000E+00;  2.0060606E+00;0; -3.1147148E-02;  3.9253293E+04;  0.0000000E+00;  8.7167844E-02;  4.0000000E+04;  0.0000000E+00;  3.9981520E+04; -1.5551472E-02;  0.0000000E+00; -1.5595676E-02;  1.5128048E+03;
  6.1182857E-01;  9.9999998E-03; -1.2002202E-01;6185; -2.9595416E-02;  0.0000000E+00;  2.2376971E-03;  9.9925574E+02;  1.0089651E-01; -6.1662451E+02;3;  4.4867768E+00;  0.0000000E+00;  1.8837954E+00;0; -3.1729788E-02;  3.9254648E+04;  0.0000000E+00;  1.2356586E-01;  4.0000000E+04;  0.0000000E+00;  3.9981129E+04; -1.5694832E-02;  0.0000000E+00; -1.6034953E-02;  1.5557474E+03;
  6.1186308E-01;  9.9999998E-03; -1.1002105E-01;6186; -2.9730547E-02;  0.0000000E+00;  2.0550739E-03;  9.9925995E+02;  1.0089607E-01; -6.1311841E+02;3;  4.5593324E+00;  0.0000000E+00;  1.7545575E+00;0; -3.2261372E-02;  3.9255777E+04;  0.0000000E+00;  1.5211397E-01;  4.0000000E+04;  0.0000000E+00;  3.9981191E+04; -1.5822340E-02;  0.0000000E+00; -1.6439034E-02;  1.5605481E+03;
  6.2192327E-01;  9.9999998E-03; -2.7003279E-01;6231; -2.6974922E-02;  0.0000000E+00;  4.3526986E-03;  9.9831952E+02;  1.0140579E-01; -1.3922568E+03;3;  3.8900766E+00;  0.0000000E+00;  2.9451532E+00;0; -2.3277372E-02;  3.8766738E+04;  0.0000000E+00;  3.2877275E-01;  4.0000000E+04;  0.0000000E+00;  4.0005906E+04; -1.1192502E-02;  0.0000000E+00; -1.2084869E-02;  2.1215300E+03;
  6.2195092E-01;  9.9999998E-03; -2.6001924E-01;6232; -2.7153198E-02;  0.0000000E+00;  4.2736335E-03;  9.9838934E+02;  1.0140748E-01; -1.3343820E+03;3;  3.8559127E+00;  0.0000000E+00;  2.9355173E+00;0; -2.3270458E-02;  3.8771496E+04;  0.0000000E+00;  2.7297032E-01;  4.0000000E+04;  0.0000000E+00;  4.0005074E+04; -1.1281610E-02;  0.0000000E+00; -1.1988848E-02;  1.9935306E+03;
  6.2195671E-01;  9.9999998E-03; -2.5000295E-01;6233; -2.7344696E-02;  0.0000000E+00;  4.1906615E-03;  9.9846594E+02;  1.0140868E-01; -1.2709269E+03;3;  3.8369522E+00;  0.0000000E+00;  2.9211769E+00;0; -2.3286048E-02;  3.8777660E+04;  0.0000000E+00;  2.1626794E-01;  4.0000000E+04;  0.0000000E+00;  4.0003715E+04; -1.1401366E-02;  0.0000000E+00; -1.1884683E-02;  1.8098063E+03;
  6.2194061E-01;  9.9999998E-03; -2.3998119E-01;6234; -2.7545046E-02;  0.0000000E+00;  4.0797680E-03;  9.9856085E+02;  1.0140960E-01; -1.1923119E+03;3;  3.8328826E+00;  0.0000000E+00;  2.9011915E+00;0; -2.3280593E-02;  3.8785191E+04;  0.0000000E+00;  1.5009224E-01;  4.0000000E+04;  0.0000000E+00;  4.0003113E+04; -1.1556232E-02;  0.0000000E+00; -1.1724360E-02;  1.6855167E+03;
  6.2190759E-01;  9.9999998E-03; -2.2996177E-01;6235; -2.7755028E-02;  0.0000000E+00;  3.9928504E-03;  9.9863452E+02;  1.0141005E-01; -1.1312766E+03;3;  3.8482773E+00;  0.0000000E+00;  2.8714221E+00;0; -2.3557402E-02;  3.8793637E+04;  0.0000000E+00;  7.8799747E-02;  4.0000000E+04;  0.0000000E+00;  3.9999738E+04; -1.1745886E-02;  0.0000000E+00; -1.1811516E-02;  1.2701146E+03;
  6.2186706E-01;  9.9999998E-03; -2.1996605E-01;6236; -2.7971132E-02;  0.0000000E+00;  3.9077313E-03;  9.9866217E+02;  1.0141039E-01; -1.1083636E+03;3;  3.8763523E+00;  0.0000000E+00;  2.8331826E+00;0; -2.3957495E-02;  3.8802422E+04;  0.0000000E+00;  1.1468520E-02;  4.0000000E+04;  0.0000000E+00;  3.9992496E+04; -1.1967093E-02;  0.0000000E+00; -1.1990403E-02;  3.6753293E+02;
  6.2182611E-01;  9.9999998E-03; -2.0998855E-01;6237; -2.8184380E-02;  0.0000000E+00;  3.7766765E-03;  9.9870715E+02;  1.0141014E-01; -1.0710807E+03;3;  3.9292891E+00;  0.0000000E+00;  2.7851720E+00;0; -2.4412984E-02;  3.8811453E+04;  0.0000000E+00; -4.3699674E-02;  4.0000000E+04;  0.0000000E+00;  3.9986832E+04; -1.2216292E-02;  0.0000000E+00; -1.2196692E-02;  3.7865546E+02;
  6.2178630E-01;  9.9999998E-03; -2.0001021E-01;6238; -2.8390696E-02;  0.0000000E+00;  3.6222606E-03;  9.9877960E+02;  1.0140969E-01; -1.0110825E+03;3;  3.9914253E+00;  0.0000000E+00;  2.7279346E+00;0; -2.4994668E-02;  3.8820066E+04;  0.0000000E+00; -8.3259821E-02;  4.0000000E+04;  0.0000000E+00;  3.9983934E+04; -1.2488443E-02;  0.0000000E+00; -1.2506225E-02;  7.4154260E+02;
  6.2175101E-01;  9.9999998E-03; -1.9002339E-01;6239; -2.8587583E-02;  0.0000000E+00;  3.4639293E-03;  9.9885675E+02;  1.0140939E-01; -9.4718304E+02;3;  4.0662971E+00;  0.0000000E+00;  2.6577029E+00;0; -2.5687497E-02;  3.8827660E+04;  0.0000000E+00; -1.0719577E-01;  4.0000000E+04;  0.0000000E+00;  3.9982652E+04; -1.2775878E-02;  0.0000000E+00; -1.2911618E-02;  9.0989539E+02;
  6.2172282E-01;  9.9999998E-03; -1.8002933E-01;6240; -2.8775061E-02;  0.0000000E+00;  3.3043888E-03;  9.9892383E+02;  1.0140860E-01; -8.9157965E+02;3;  4.1561418E+00;  0.0000000E+00;  2.5752950E+00;0; -2.6449289E-02;  3.8834395E+04;  0.0000000E+00; -1.1746742E-01;  4.0000000E+04;  0.0000000E+00;  3.9981789E+04; -1.3069656E-02;  0.0000000E+00; -1.3379632E-02;  1.0395057E+03;
  6.2170482E-01;  9.9999998E-03; -1.7003052E-01;6241; -2.8952798E-02;  0.0000000E+00;  3.1416472E-03;  9.9896893E+02;  1.0140774E-01; -8.5419800E+02;3;  4.2396684E+00;  0.0000000E+00;  2.4868841E+00;0; -2.7244344E-02;  3.8839879E+04;  0.0000000E+00; -1.1634361E-01;  4.0000000E+04;  0.0000000E+00;  3.9980480E+04; -1.3361325E-02;  0.0000000E+00; -1.3883018E-02;  1.1785638E+03;
  6.2169850E-01;  9.9999998E-03; -1.6002917E-01;6242; -2.9120672E-02;  0.0000000E+00;  2.9739079E-03;  9.9900525E+02;  1.0140680E-01; -8.2412476E+02;3;  4.3330994E+00;  0.0000000E+00;  2.3853502E+00;0; -2.8043849E-02;  3.8844348E+04;  0.0000000E+00; -1.0544621E-01;  4.0000000E+04;  0.0000000E+00;  3.9979406E+04; -1.3643615E-02;  0.0000000E+00; -1.4400234E-02;  1.3216736E+03;
  6.2170362E-01;  9.9999998E-03; -1.5002713E-01;6243; -2.9280601E-02;  0.0000000E+00;  2.8012160E-03;  9.9903302E+02;  1.0140602E-01; -8.0111310E+02;3;  4.4204450E+00;  0.0000000E+00;  2.2792311E+00;0; -2.8823987E-02;  3.8848105E+04;  0.0000000E+00; -8.5786209E-02;  4.0000000E+04;  0.0000000E+00;  3.9978332E+04; -1.3910862E-02;  0.0000000E+00; -1.4913126E-02;  1.4475950E+03;
  6.2171865E-01;  9.9999998E-03; -1.4002572E-01;6244; -2.9433819E-02;  0.0000000E+00;  2.6240582E-03;  9.9905908E+02;  1.0140539E-01; -7.7953345E+02;3;  4.5056992E+00;  0.0000000E+00;  2.1653166E+00;0; -2.9566560E-02;  3.8851660E+04;  0.0000000E+00; -5.8666848E-02;  4.0000000E+04;  0.0000000E+00;  3.9977727E+04; -1.4158680E-02;  0.0000000E+00; -1.5407879E-02;  1.5372678E+03;
  6.2174106E-01;  9.9999998E-03; -1.3002516E-01;6245; -2.9581465E-02;  0.0000000E+00;  2.4439585E-03;  9.9908746E+02;  1.0140461E-01; -7.5602795E+02;3;  4.5848508E+00;  0.0000000E+00;  2.0492258E+00;0; -3.0260317E-02;  3.8854918E+04;  0.0000000E+00; -2.6247177E-02;  4.0000000E+04;  0.0000000E+00;  3.9977328E+04; -1.4383807E-02;  0.0000000E+00; -1.5876511E-02;  1.5811307E+03;
  6.2176764E-01;  9.9999998E-03; -1.2002536E-01;6246; -2.9723305E-02;  0.0000000E+00;  2.2616775E-03;  9.9911554E+02;  1.0140344E-01; -7.3276935E+02;3;  4.6626415E+00;  0.0000000E+00;  1.9270504E+00;0; -3.0900113E-02;  3.8857902E+04;  0.0000000E+00;  8.1453435E-03;  4.0000000E+04;  0.0000000E+00;  3.9977508E+04; -1.4584279E-02;  0.0000000E+00; -1.6315835E-02;  1.5806849E+03;
  6.2179512E-01;  9.9999998E-03; -1.1002614E-01;6247; -2.9859310E-02;  0.0000000E+00;  2.0779446E-03;  9.9914661E+02;  1.0140334E-01; -7.0704169E+02;3;  4.7416019E+00;  0.0000000E+00;  1.7959751E+00;0; -3.1482801E-02;  3.8860879E+04;  0.0000000E+00;  4.0574808E-02;  4.0000000E+04;  0.0000000E+00;  3.9977793E+04; -1.4758973E-02;  0.0000000E+00; -1.6723828E-02;  1.5461023E+03;
  6.3178605E-01;  9.9999998E-03; -2.7004683E-01;6292; -2.7123004E-02;  0.0000000E+00;  4.4687693E-03;  9.9811188E+02;  1.0214782E-01; -1.5642520E+03;3;  3.9394934E+00;  0.0000000E+00;  3.0191584E+00;0; -2.1730568E-02;  3.8193383E+04;  0.0000000E+00;  3.6144131E-01;  4.0000000E+04;  0.0000000E+00;  4.0003312E+04; -8.7555768E-03;  0.0000000E+00; -1.2974992E-02;  2.4148889E+03;
  6.3181895E-01;  9.9999998E-03; -2.6003093E-01;6293; -2.7293969E-02;  0.0000000E+00;  4.3812222E-03;  9.9820264E+02;  1.0215039E-01; -1.4890936E+03;3;  3.9107378E+00;  0.0000000E+00;  3.0096598E+00;0; -2.1665636E-02;  3.8199387E+04;  0.0000000E+00;  3.3370036E-01;  4.0000000E+04;  0.0000000E+00;  4.0001805E+04; -8.9381151E-03;  0.0000000E+00; -1.2727520E-02;  2.2448030E+03;
  6.3183403E-01;  9.9999998E-03; -2.5001115E-01;6294; -2.7480502E-02;  0.0000000E+00;  4.2839861E-03;  9.9829803E+02;  1.0215224E-01; -1.4100341E+03;3;  3.8910050E+00;  0.0000000E+00;  2.9937088E+00;0; -2.1607790E-02;  3.8206512E+04;  0.0000000E+00;  2.7827638E-01;  4.0000000E+04;  0.0000000E+00;  4.0000371E+04; -9.1563277E-03;  0.0000000E+00; -1.2451462E-02;  2.0346592E+03;
  6.3183171E-01;  9.9999998E-03; -2.3998411E-01;6295; -2.7675290E-02;  0.0000000E+00;  4.1588410E-03;  9.9841669E+02;  1.0215345E-01; -1.3117653E+03;3;  3.8925326E+00;  0.0000000E+00;  2.9703846E+00;0; -2.1583019E-02;  3.8215410E+04;  0.0000000E+00;  1.9825192E-01;  4.0000000E+04;  0.0000000E+00;  3.9999480E+04; -9.4155548E-03;  0.0000000E+00; -1.2167464E-02;  1.8936719E+03;
  6.3181257E-01;  9.9999998E-03; -2.2995752E-01;6296; -2.7880788E-02;  0.0000000E+00;  4.0645869E-03;  9.9851294E+02;  1.0215431E-01; -1.2320144E+03;3;  3.9213874E+00;  0.0000000E+00;  2.9382331E+00;0; -2.1907736E-02;  3.8225387E+04;  0.0000000E+00;  1.0728417E-01;  4.0000000E+04;  0.0000000E+00;  3.9996074E+04; -9.7167408E-03;  0.0000000E+00; -1.2190996E-02;  1.4428116E+03;
  6.3178408E-01;  9.9999998E-03; -2.1995389E-01;6297; -2.8093588E-02;  0.0000000E+00;  3.9769863E-03;  9.9855695E+02;  1.0215443E-01; -1.1955216E+03;3;  3.9626565E+00;  0.0000000E+00;  2.8950284E+00;0; -2.2385720E-02;  3.8236109E+04;  0.0000000E+00;  1.9376678E-02;  4.0000000E+04;  0.0000000E+00;  3.9988250E+04; -1.0056510E-02;  0.0000000E+00; -1.2329211E-02;  4.5590128E+02;
  6.3175428E-01;  9.9999998E-03; -2.0997168E-01;6298; -2.8301759E-02;  0.0000000E+00;  3.8431245E-03;  9.9860779E+02;  1.0215411E-01; -1.1533994E+03;3;  4.0231581E+00;  0.0000000E+00;  2.8420227E+00;0; -2.2928067E-02;  3.8246785E+04;  0.0000000E+00; -5.5205040E-02;  4.0000000E+04;  0.0000000E+00;  3.9981219E+04; -1.0429815E-02;  0.0000000E+00; -1.2498250E-02;  4.3329617E+02;
  6.3172323E-01;  9.9999998E-03; -1.9999340E-01;6299; -2.8502189E-02;  0.0000000E+00;  3.6822229E-03;  9.9868738E+02;  1.0215338E-01; -1.0874753E+03;3;  4.1017675E+00;  0.0000000E+00;  2.7804081E+00;0; -2.3602981E-02;  3.8256977E+04;  0.0000000E+00; -1.1225151E-01;  4.0000000E+04;  0.0000000E+00;  3.9977418E+04; -1.0829370E-02;  0.0000000E+00; -1.2773612E-02;  9.2304852E+02;
  6.3169342E-01;  9.9999998E-03; -1.9000924E-01;6300; -2.8695233E-02;  0.0000000E+00;  3.5159250E-03;  9.9878217E+02;  1.0215213E-01; -1.0089590E+03;3;  4.1900096E+00;  0.0000000E+00;  2.7068858E+00;0; -2.4396624E-02;  3.8266273E+04;  0.0000000E+00; -1.5196969E-01;  4.0000000E+04;  0.0000000E+00;  3.9975906E+04; -1.1244325E-02;  0.0000000E+00; -1.3152300E-02;  1.1541393E+03;
  6.3166767E-01;  9.9999998E-03; -1.8001862E-01;6301; -2.8879033E-02;  0.0000000E+00;  3.3490527E-03;  9.9886133E+02;  1.0215112E-01; -9.4338068E+02;3;  4.2823863E+00;  0.0000000E+00;  2.6226017E+00;0; -2.5263168E-02;  3.8274434E+04;  0.0000000E+00; -1.7782621E-01;  4.0000000E+04;  0.0000000E+00;  3.9974766E+04; -1.1662609E-02;  0.0000000E+00; -1.3600560E-02;  1.2923755E+03;
  6.3164878E-01;  9.9999998E-03; -1.7002352E-01;6302; -2.9053727E-02;  0.0000000E+00;  3.1803600E-03;  9.9892938E+02;  1.0214944E-01; -8.8698718E+02;3;  4.3813481E+00;  0.0000000E+00;  2.5304298E+00;0; -2.6161648E-02;  3.8281027E+04;  0.0000000E+00; -1.9363181E-01;  4.0000000E+04;  0.0000000E+00;  3.9973715E+04; -1.2072129E-02;  0.0000000E+00; -1.4089518E-02;  1.4092792E+03;
  6.3163918E-01;  9.9999998E-03; -1.6002581E-01;6303; -2.9220019E-02;  0.0000000E+00;  3.0080883E-03;  9.9897949E+02;  1.0214797E-01; -8.4545752E+02;3;  4.4845881E+00;  0.0000000E+00;  2.4284177E+00;0; -2.7059481E-02;  3.8286770E+04;  0.0000000E+00; -2.0152622E-01;  4.0000000E+04;  0.0000000E+00;  3.9973141E+04; -1.2462650E-02;  0.0000000E+00; -1.4596830E-02;  1.5168744E+03;
  6.3163972E-01;  9.9999998E-03; -1.5002702E-01;6304; -2.9379083E-02;  0.0000000E+00;  2.8319003E-03;  9.9902313E+02;  1.0214671E-01; -8.0931036E+02;3;  4.5836067E+00;  0.0000000E+00;  2.3187809E+00;0; -2.7931118E-02;  3.8291902E+04;  0.0000000E+00; -2.0125861E-01;  4.0000000E+04;  0.0000000E+00;  3.9972461E+04; -1.2826644E-02;  0.0000000E+00; -1.5104474E-02;  1.6035693E+03;
  6.3164985E-01;  9.9999998E-03; -1.4002797E-01;6305; -2.9533055E-02;  0.0000000E+00;  2.6528768E-03;  9.9906158E+02;  1.0214566E-01; -7.7745941E+02;3;  4.6725702E+00;  0.0000000E+00;  2.2077985E+00;0; -2.8757770E-02;  3.8296840E+04;  0.0000000E+00; -1.9144343E-01;  4.0000000E+04;  0.0000000E+00;  3.9972027E+04; -1.3158978E-02;  0.0000000E+00; -1.5598791E-02;  1.6540955E+03;
  6.3166898E-01;  9.9999998E-03; -1.3002887E-01;6306; -2.9682532E-02;  0.0000000E+00;  2.4723520E-03;  9.9910516E+02;  1.0214410E-01; -7.4136169E+02;3;  4.7576356E+00;  0.0000000E+00;  2.0908291E+00;0; -2.9528115E-02;  3.8301312E+04;  0.0000000E+00; -1.7161214E-01;  4.0000000E+04;  0.0000000E+00;  3.9972020E+04; -1.3456325E-02;  0.0000000E+00; -1.6071791E-02;  1.6593923E+03;
  6.3169616E-01;  9.9999998E-03; -1.2002947E-01;6307; -2.9826419E-02;  0.0000000E+00;  2.2904256E-03;  9.9914978E+02;  1.0214268E-01; -7.0437506E+02;3;  4.8410506E+00;  0.0000000E+00;  1.9689819E+00;0; -3.0236794E-02;  3.8305676E+04;  0.0000000E+00; -1.4325534E-01;  4.0000000E+04;  0.0000000E+00;  3.9972363E+04; -1.3716947E-02;  0.0000000E+00; -1.6519846E-02;  1.6207157E+03;
  6.3172978E-01;  9.9999998E-03; -1.1002932E-01;6308; -2.9964183E-02;  0.0000000E+00;  2.1071259E-03;  9.9920306E+02;  1.0214174E-01; -6.6022821E+02;3;  4.9263182E+00;  0.0000000E+00;  1.8372722E+00;0; -3.0880909E-02;  3.8310395E+04;  0.0000000E+00; -1.0951850E-01;  4.0000000E+04;  0.0000000E+00;  3.9972898E+04; -1.3940416E-02;  0.0000000E+00; -1.6940493E-02;  1.5491281E+03;
  6.4162213E-01;  9.9999998E-03; -2.7007025E-01;6353; -2.7249975E-02;  0.0000000E+00;  4.5713717E-03;  9.9815094E+02;  1.0317664E-01; -1.5319072E+03;3;  3.9904253E+00;  0.0000000E+00;  3.0956397E+00;0; -2.0321447E-02;  3.7443824E+04;  0.0000000E+00; -1.1707330E-01;  4.0000000E+04;  0.0000000E+00;  3.9995723E+04; -6.4523565E-03;  0.0000000E+00; -1.3869092E-02;  2.2853293E+03;
  6.4166176E-01;  9.9999998E-03; -2.6005375E-01;6354; -2.7411029E-02;  0.0000000E+00;  4.4737514E-03;  9.9826489E+02;  1.0317994E-01; -1.4374901E+03;3;  3.9616199E+00;  0.0000000E+00;  3.0826828E+00;0; -2.0168552E-02;  3.7451043E+04;  0.0000000E+00;  9.3875833E-02;  4.0000000E+04;  0.0000000E+00;  3.9994023E+04; -6.7433999E-03;  0.0000000E+00; -1.3425152E-02;  2.0544597E+03;
  6.4168859E-01;  9.9999998E-03; -2.5003320E-01;6355; -2.7589161E-02;  0.0000000E+00;  4.3594926E-03;  9.9838770E+02;  1.0318225E-01; -1.3357646E+03;3;  3.9504216E+00;  0.0000000E+00;  3.0664492E+00;0; -2.0010013E-02;  3.7460230E+04;  0.0000000E+00;  1.8241470E-01;  4.0000000E+04;  0.0000000E+00;  3.9992285E+04; -7.0761405E-03;  0.0000000E+00; -1.2933872E-02;  1.8331941E+03;
  6.4170253E-01;  9.9999998E-03; -2.4000560E-01;6356; -2.7777750E-02;  0.0000000E+00;  4.2229490E-03;  9.9853198E+02;  1.0318413E-01; -1.2162124E+03;3;  3.9576428E+00;  0.0000000E+00;  3.0378458E+00;0; -1.9980496E-02;  3.7470770E+04;  0.0000000E+00;  1.7433064E-01;  4.0000000E+04;  0.0000000E+00;  3.9991105E+04; -7.4560898E-03;  0.0000000E+00; -1.2524405E-02;  1.6663337E+03;
  6.4170122E-01;  9.9999998E-03; -2.2997786E-01;6357; -2.7976794E-02;  0.0000000E+00;  4.1174628E-03;  9.9865796E+02;  1.0318504E-01; -1.1118698E+03;3;  3.9923403E+00;  0.0000000E+00;  2.9993412E+00;0; -2.0342130E-02;  3.7482793E+04;  0.0000000E+00;  1.0936253E-01;  4.0000000E+04;  0.0000000E+00;  3.9987410E+04; -7.8855669E-03;  0.0000000E+00; -1.2456563E-02;  1.2036538E+03;
  6.4168894E-01;  9.9999998E-03; -2.1996842E-01;6358; -2.8182359E-02;  0.0000000E+00;  4.0182485E-03;  9.9874231E+02;  1.0318518E-01; -1.0419951E+03;3;  4.0531578E+00;  0.0000000E+00;  2.9519815E+00;0; -2.0890199E-02;  3.7495508E+04;  0.0000000E+00;  2.2396378E-02;  4.0000000E+04;  0.0000000E+00;  3.9980145E+04; -8.3610117E-03;  0.0000000E+00; -1.2529188E-02;  2.8956805E+02;
  6.4167333E-01;  9.9999998E-03; -2.0997900E-01;6359; -2.8382590E-02;  0.0000000E+00;  3.8805106E-03;  9.9882056E+02;  1.0318411E-01; -9.7715747E+02;3;  4.1235356E+00;  0.0000000E+00;  2.8954515E+00;0; -2.1536814E-02;  3.7507957E+04;  0.0000000E+00; -6.3203663E-02;  4.0000000E+04;  0.0000000E+00;  3.9973406E+04; -8.8748606E-03;  0.0000000E+00; -1.2661953E-02;  5.7152875E+02;
  6.4165437E-01;  9.9999998E-03; -1.9999632E-01;6360; -2.8575784E-02;  0.0000000E+00;  3.7178115E-03;  9.9892273E+02;  1.0318274E-01; -8.9251788E+02;3;  4.2125883E+00;  0.0000000E+00;  2.8285136E+00;0; -2.2326466E-02;  3.7520102E+04;  0.0000000E+00; -1.3549729E-01;  4.0000000E+04;  0.0000000E+00;  3.9969523E+04; -9.4168093E-03;  0.0000000E+00; -1.2909656E-02;  1.0859198E+03;
  6.4163566E-01;  9.9999998E-03; -1.9001161E-01;6361; -2.8764239E-02;  0.0000000E+00;  3.5499639E-03;  9.9903375E+02;  1.0318115E-01; -8.0052051E+02;3;  4.3163872E+00;  0.0000000E+00;  2.7501900E+00;0; -2.3239259E-02;  3.7531117E+04;  0.0000000E+00; -1.9186625E-01;  4.0000000E+04;  0.0000000E+00;  3.9967543E+04; -9.9724177E-03;  0.0000000E+00; -1.3266841E-02;  1.3415006E+03;
  6.4162385E-01;  9.9999998E-03; -1.8002144E-01;6362; -2.8946737E-02;  0.0000000E+00;  3.3819790E-03;  9.9913367E+02;  1.0317864E-01; -7.1775745E+02;3;  4.4257259E+00;  0.0000000E+00;  2.6654892E+00;0; -2.4225637E-02;  3.7540914E+04;  0.0000000E+00; -2.3483112E-01;  4.0000000E+04;  0.0000000E+00;  3.9966688E+04; -1.0525398E-02;  0.0000000E+00; -1.3700240E-02;  1.4784541E+03;
  6.4162767E-01;  9.9999998E-03; -1.7002420E-01;6363; -2.9121531E-02;  0.0000000E+00;  3.2120382E-03;  9.9921448E+02;  1.0317668E-01; -6.5079639E+02;3;  4.5328140E+00;  0.0000000E+00;  2.5699222E+00;0; -2.5241040E-02;  3.7549125E+04;  0.0000000E+00; -2.6904657E-01;  4.0000000E+04;  0.0000000E+00;  3.9966098E+04; -1.1060067E-02;  0.0000000E+00; -1.4180974E-02;  1.5772474E+03;
  6.4164543E-01;  9.9999998E-03; -1.6002123E-01;6364; -2.9288722E-02;  0.0000000E+00;  3.0390222E-03;  9.9928076E+02;  1.0317381E-01; -5.9588434E+02;3;  4.6401734E+00;  0.0000000E+00;  2.4679804E+00;0; -2.6250497E-02;  3.7556246E+04;  0.0000000E+00; -2.9718590E-01;  4.0000000E+04;  0.0000000E+00;  3.9965656E+04; -1.1564014E-02;  0.0000000E+00; -1.4686481E-02;  1.6629027E+03;
  6.4166903E-01;  9.9999998E-03; -1.5001687E-01;6365; -2.9449455E-02;  0.0000000E+00;  2.8626248E-03;  9.9933423E+02;  1.0317156E-01; -5.5158929E+02;3;  4.7516570E+00;  0.0000000E+00;  2.3555260E+00;0; -2.7226720E-02;  3.7562570E+04;  0.0000000E+00; -3.1820560E-01;  4.0000000E+04;  0.0000000E+00;  3.9965270E+04; -1.2028471E-02;  0.0000000E+00; -1.5198250E-02;  1.7282047E+03;
  6.4169544E-01;  9.9999998E-03; -1.4001311E-01;6366; -2.9606683E-02;  0.0000000E+00;  2.6848614E-03;  9.9938245E+02;  1.0316910E-01; -5.1163980E+02;3;  4.8458791E+00;  0.0000000E+00;  2.2463107E+00;0; -2.8150059E-02;  3.7568059E+04;  0.0000000E+00; -3.2827911E-01;  4.0000000E+04;  0.0000000E+00;  3.9965027E+04; -1.2447801E-02;  0.0000000E+00; -1.5702257E-02;  1.7581157E+03;
  6.4172429E-01;  9.9999998E-03; -1.3001011E-01;6367; -2.9760147E-02;  0.0000000E+00;  2.5067350E-03;  9.9942957E+02;  1.0316669E-01; -4.7257919E+02;3;  4.9326634E+00;  0.0000000E+00;  2.1353102E+00;0; -2.9008742E-02;  3.7573434E+04;  0.0000000E+00; -3.2407913E-01;  4.0000000E+04;  0.0000000E+00;  3.9965125E+04; -1.2819042E-02;  0.0000000E+00; -1.6189700E-02;  1.7425929E+03;
  6.4175498E-01;  9.9999998E-03; -1.2000787E-01;6368; -2.9907363E-02;  0.0000000E+00;  2.3270333E-03;  9.9948444E+02;  1.0316452E-01; -4.2714838E+02;3;  5.0241046E+00;  0.0000000E+00;  2.0115354E+00;0; -2.9797085E-02;  3.7578449E+04;  0.0000000E+00; -3.0484718E-01;  4.0000000E+04;  0.0000000E+00;  3.9965785E+04; -1.3141148E-02;  0.0000000E+00; -1.6655937E-02;  1.6812430E+03;
  6.4178574E-01;  9.9999998E-03; -1.1000646E-01;6369; -3.0047562E-02;  0.0000000E+00;  2.1455283E-03;  9.9953802E+02;  1.0316254E-01; -3.8275458E+02;3;  5.1164064E+00;  0.0000000E+00;  1.8794532E+00;0; -3.0512169E-02;  3.7583941E+04;  0.0000000E+00; -2.7250087E-01;  4.0000000E+04;  0.0000000E+00;  3.9966465E+04; -1.3414644E-02;  0.0000000E+00; -1.7097525E-02;  1.5841575E+03;
  6.5172935E-01;  9.9999998E-03; -1.0999782E-01;6430; -3.0110177E-02;  0.0000000E+00;  2.1940973E-03;  1.0000446E+03;  1.0449031E-01;  3.6937222E+01;3;  5.3084645E+00;  0.0000000E+00;  1.9230958E+00;0; -3.0416394E-02;  3.6670969E+04;  0.0000000E+00; -4.1451225E-01;  4.0000000E+04;  0.0000000E+00;  3.9958273E+04; -1.3219204E-02;  0.0000000E+00; -1.7197190E-02;  1.6366158E+03;
  6.5171105E-01;  9.9999998E-03; -1.1999909E-01;6429; -2.9966809E-02;  0.0000000E+00;  2.3730155E-03;  1.0000000E+03;  1.0449348E-01;  0.0000000E+00;3;  5.2070365E+00;  0.0000000E+00;  2.0581973E+00;0; -2.9627394E-02;  3.6665871E+04;  0.0000000E+00; -4.4224036E-01;  4.0000000E+04;  0.0000000E+00;  3.9957410E+04; -1.2899539E-02;  0.0000000E+00; -1.6727854E-02;  1.7388757E+03;
  6.5169543E-01;  9.9999998E-03; -1.3000116E-01;6428; -2.9815111E-02;  0.0000000E+00;  2.5487572E-03;  9.9996375E+02;  1.0449724E-01; -3.0023838E+01;3;  5.1108885E+00;  0.0000000E+00;  2.1775758E+00;0; -2.8754914E-02;  3.6661191E+04;  0.0000000E+00; -4.4993490E-01;  4.0000000E+04;  0.0000000E+00;  3.9957027E+04; -1.2519725E-02;  0.0000000E+00; -1.6235190E-02;  1.8002783E+03;
  6.5168387E-01;  9.9999998E-03; -1.4000404E-01;6427; -2.9655920E-02;  0.0000000E+00;  2.7219094E-03;  9.9992731E+02;  1.0450092E-01; -6.0245201E+01;3;  5.0183620E+00;  0.0000000E+00;  2.2864392E+00;0; -2.7801558E-02;  3.6655910E+04;  0.0000000E+00; -4.3723336E-01;  4.0000000E+04;  0.0000000E+00;  3.9956773E+04; -1.2077759E-02;  0.0000000E+00; -1.5723800E-02;  1.8134177E+03;
  6.5167731E-01;  9.9999998E-03; -1.5000753E-01;6426; -2.9492136E-02;  0.0000000E+00;  2.8944323E-03;  9.9988995E+02;  1.0450477E-01; -9.1157906E+01;3;  4.9200959E+00;  0.0000000E+00;  2.3945148E+00;0; -2.6773337E-02;  3.6650305E+04;  0.0000000E+00; -4.0721646E-01;  4.0000000E+04;  0.0000000E+00;  3.9956934E+04; -1.1573431E-02;  0.0000000E+00; -1.5199906E-02;  1.7818502E+03;
  6.5167654E-01;  9.9999998E-03; -1.6001113E-01;6425; -2.9325537E-02;  0.0000000E+00;  3.0663449E-03;  9.9983881E+02;  1.0450931E-01; -1.3352707E+02;3;  4.8119292E+00;  0.0000000E+00;  2.4993789E+00;0; -2.5682352E-02;  3.6643656E+04;  0.0000000E+00; -3.6583021E-01;  4.0000000E+04;  0.0000000E+00;  3.9956977E+04; -1.1008703E-02;  0.0000000E+00; -1.4673650E-02;  1.7165914E+03;
  6.5147805E-01;  9.9999998E-03; -2.7010348E-01;6414; -2.7334785E-02;  0.0000000E+00;  4.6597994E-03;  9.9844202E+02;  1.0452000E-01; -1.2907781E+03;3;  4.0458827E+00;  0.0000000E+00;  3.1762285E+00;0; -1.9176241E-02;  3.6515672E+04;  0.0000000E+00; -1.3224722E+00;  4.0000000E+04;  0.0000000E+00;  3.9983324E+04; -4.4281268E-03;  0.0000000E+00; -1.4748115E-02;  2.7690645E+03;
  6.5168089E-01;  9.9999998E-03; -1.7001440E-01;6424; -2.9152960E-02;  0.0000000E+00;  3.2349790E-03;  9.9977283E+02;  1.0451332E-01; -1.8819218E+02;3;  4.6958981E+00;  0.0000000E+00;  2.6030138E+00;0; -2.4549061E-02;  3.6635930E+04;  0.0000000E+00; -3.1855789E-01;  4.0000000E+04;  0.0000000E+00;  3.9957434E+04; -1.0389006E-02;  0.0000000E+00; -1.4160056E-02;  1.6285994E+03;
  6.5152240E-01;  9.9999998E-03; -2.6008835E-01;6415; -2.7485747E-02;  0.0000000E+00;  4.5524114E-03;  9.9857739E+02;  1.0452384E-01; -1.1785837E+03;3;  4.0204711E+00;  0.0000000E+00;  3.1595705E+00;0; -1.8911419E-02;  3.6524738E+04;  0.0000000E+00; -5.8367735E-01;  4.0000000E+04;  0.0000000E+00;  3.9981215E+04; -4.8349886E-03;  0.0000000E+00; -1.4076431E-02;  1.7928590E+03;
  6.5168869E-01;  9.9999998E-03; -1.8001643E-01;6423; -2.8973706E-02;  0.0000000E+00;  3.4001551E-03;  9.9968762E+02;  1.0451690E-01; -2.5880746E+02;3;  4.5733085E+00;  0.0000000E+00;  2.7047119E+00;0; -2.3403047E-02;  3.6626816E+04;  0.0000000E+00; -2.6675373E-01;  4.0000000E+04;  0.0000000E+00;  3.9958234E+04; -9.7250091E-03;  0.0000000E+00; -1.3678038E-02;  1.5199852E+03;
  6.5156513E-01;  9.9999998E-03; -2.5007027E-01;6416; -2.7653849E-02;  0.0000000E+00;  4.4213370E-03;  9.9873151E+02;  1.0452656E-01; -1.0509331E+03;3;  4.0180283E+00;  0.0000000E+00;  3.1382582E+00;0; -1.8632030E-02;  3.6535328E+04;  0.0000000E+00; -1.4751957E-01;  4.0000000E+04;  0.0000000E+00;  3.9978922E+04; -5.2898214E-03;  0.0000000E+00; -1.3342209E-02;  1.2530681E+03;
  6.5169656E-01;  9.9999998E-03; -1.9001646E-01;6422; -2.8788881E-02;  0.0000000E+00;  3.5627445E-03;  9.9957806E+02;  1.0452082E-01; -3.4957031E+02;3;  4.4478221E+00;  0.0000000E+00;  2.7970219E+00;0; -2.2282436E-02;  3.6616066E+04;  0.0000000E+00; -2.0746182E-01;  4.0000000E+04;  0.0000000E+00;  3.9959156E+04; -9.0324460E-03;  0.0000000E+00; -1.3249991E-02;  1.3736924E+03;
  6.5169740E-01;  9.9999998E-03; -2.0001511E-01;6421; -2.8600328E-02;  0.0000000E+00;  3.7240351E-03;  9.9945026E+02;  1.0452387E-01; -4.5544385E+02;3;  4.3310080E+00;  0.0000000E+00;  2.8771019E+00;0; -2.1233648E-02;  3.6603469E+04;  0.0000000E+00; -1.3716869E-01;  4.0000000E+04;  0.0000000E+00;  3.9960691E+04; -8.3307754E-03;  0.0000000E+00; -1.2902874E-02;  1.1458759E+03;
  6.5160096E-01;  9.9999998E-03; -2.4004798E-01;6417; -2.7832976E-02;  0.0000000E+00;  4.2777779E-03;  9.9889618E+02;  1.0452791E-01; -9.1449249E+02;3;  4.0348444E+00;  0.0000000E+00;  3.1015983E+00;0; -1.8602006E-02;  3.6547680E+04;  0.0000000E+00;  4.1631442E-02;  4.0000000E+04;  0.0000000E+00;  3.9976914E+04; -5.7988167E-03;  0.0000000E+00; -1.2803190E-02;  9.5303644E+02;
  6.5168130E-01;  9.9999998E-03; -2.1001561E-01;6420; -2.8410528E-02;  0.0000000E+00;  3.8846224E-03;  9.9931079E+02;  1.0452623E-01; -5.7099609E+02;3;  4.2313495E+00;  0.0000000E+00;  2.9490705E+00;0; -2.0312004E-02;  3.6589973E+04;  0.0000000E+00; -5.6548256E-02;  4.0000000E+04;  0.0000000E+00;  3.9963266E+04; -7.6410184E-03;  0.0000000E+00; -1.2670984E-02;  7.8671027E+02;
  6.5162838E-01;  9.9999998E-03; -2.3002850E-01;6418; -2.8023411E-02;  0.0000000E+00;  4.1611069E-03;  9.9904651E+02;  1.0452833E-01; -7.8995282E+02;3;  4.0760174E+00;  0.0000000E+00;  3.0651481E+00;0; -1.8983303E-02;  3.6561441E+04;  0.0000000E+00;  7.2752751E-02;  4.0000000E+04;  0.0000000E+00;  3.9972750E+04; -6.3641518E-03;  0.0000000E+00; -1.2619151E-02;  4.4354889E+02;
  6.5165085E-01;  9.9999998E-03; -2.2001925E-01;6419; -2.8218081E-02;  0.0000000E+00;  4.0358934E-03;  9.9917639E+02;  1.0452799E-01; -6.8235095E+02;3;  4.1472960E+00;  0.0000000E+00;  3.0133131E+00;0; -1.9564595E-02;  3.6575535E+04;  0.0000000E+00;  2.2776837E-02;  4.0000000E+04;  0.0000000E+00;  3.9967500E+04; -6.9816220E-03;  0.0000000E+00; -1.2582974E-02;  2.5216925E+02;
  6.6170663E-01;  9.9999998E-03; -1.0998769E-01;6491; -3.0164195E-02;  0.0000000E+00;  2.2517573E-03;  1.0004471E+03;  1.0611613E-01;  3.7045859E+02;3;  5.5065222E+00;  0.0000000E+00;  1.9693952E+00;0; -3.0584969E-02;  3.5579926E+04;  0.0000000E+00; -5.0119662E-01;  4.0000000E+04;  0.0000000E+00;  3.9948254E+04; -1.3335399E-02;  0.0000000E+00; -1.7249569E-02;  1.6694180E+03;
  6.6169327E-01;  9.9999998E-03; -1.1999095E-01;6490; -3.0016730E-02;  0.0000000E+00;  2.4278422E-03;  1.0004412E+03;  1.0612210E-01;  3.6552048E+02;3;  5.3950567E+00;  0.0000000E+00;  2.1070240E+00;0; -2.9723251E-02;  3.5576258E+04;  0.0000000E+00; -5.2016276E-01;  4.0000000E+04;  0.0000000E+00;  3.9947648E+04; -1.2975484E-02;  0.0000000E+00; -1.6747767E-02;  1.7541045E+03;
  6.6168213E-01;  9.9999998E-03; -1.2999555E-01;6489; -2.9859228E-02;  0.0000000E+00;  2.5987034E-03;  1.0004412E+03;  1.0612801E-01;  3.6552048E+02;3;  5.2874193E+00;  0.0000000E+00;  2.2311866E+00;0; -2.8767483E-02;  3.5572512E+04;  0.0000000E+00; -5.1392323E-01;  4.0000000E+04;  0.0000000E+00;  3.9947090E+04; -1.2545720E-02;  0.0000000E+00; -1.6221764E-02;  1.7919287E+03;
  6.6167378E-01;  9.9999998E-03; -1.4000133E-01;6488; -2.9692693E-02;  0.0000000E+00;  2.7653459E-03;  1.0004394E+03;  1.0613424E-01;  3.6403903E+02;3;  5.1875477E+00;  0.0000000E+00;  2.3374448E+00;0; -2.7720189E-02;  3.5568543E+04;  0.0000000E+00; -4.8394141E-01;  4.0000000E+04;  0.0000000E+00;  3.9947160E+04; -1.2042690E-02;  0.0000000E+00; -1.5677499E-02;  1.7789930E+03;
  6.6166902E-01;  9.9999998E-03; -1.5000808E-01;6487; -2.9518824E-02;  0.0000000E+00;  2.9287639E-03;  1.0004281E+03;  1.0614074E-01;  3.5465659E+02;3;  5.0919542E+00;  0.0000000E+00;  2.4311922E+00;0; -2.6587602E-02;  3.5563562E+04;  0.0000000E+00; -4.3558329E-01;  4.0000000E+04;  0.0000000E+00;  3.9947207E+04; -1.1464568E-02;  0.0000000E+00; -1.5123033E-02;  1.7225355E+03;
  6.6166830E-01;  9.9999998E-03; -1.6001566E-01;6486; -2.9341312E-02;  0.0000000E+00;  3.0913630E-03;  1.0003960E+03;  1.0614753E-01;  3.2808945E+02;3;  4.9799700E+00;  0.0000000E+00;  2.5374846E+00;0; -2.5382806E-02;  3.5557586E+04;  0.0000000E+00; -3.7660566E-01;  4.0000000E+04;  0.0000000E+00;  3.9947496E+04; -1.0812417E-02;  0.0000000E+00; -1.4570388E-02;  1.6355461E+03;
  6.6167170E-01;  9.9999998E-03; -1.7002392E-01;6485; -2.9158320E-02;  0.0000000E+00;  3.2509146E-03;  1.0003470E+03;  1.0615339E-01;  2.8749799E+02;3;  4.8576107E+00;  0.0000000E+00;  2.6420815E+00;0; -2.4127539E-02;  3.5549781E+04;  0.0000000E+00; -3.1303507E-01;  4.0000000E+04;  0.0000000E+00;  3.9948051E+04; -1.0091209E-02;  0.0000000E+00; -1.4036330E-02;  1.5283362E+03;
  6.6167921E-01;  9.9999998E-03; -1.8003222E-01;6484; -2.8968398E-02;  0.0000000E+00;  3.4055370E-03;  1.0002706E+03;  1.0615946E-01;  2.2419116E+02;3;  4.7260323E+00;  0.0000000E+00;  2.7452800E+00;0; -2.2852585E-02;  3.5540371E+04;  0.0000000E+00; -2.4615353E-01;  4.0000000E+04;  0.0000000E+00;  3.9948793E+04; -9.3119200E-03;  0.0000000E+00; -1.3540664E-02;  1.4024967E+03;
  6.6168958E-01;  9.9999998E-03; -1.9004127E-01;6483; -2.8772514E-02;  0.0000000E+00;  3.5555903E-03;  1.0001616E+03;  1.0616510E-01;  1.3382335E+02;3;  4.5942392E+00;  0.0000000E+00;  2.8408258E+00;0; -2.1596570E-02;  3.5529020E+04;  0.0000000E+00; -1.7407501E-01;  4.0000000E+04;  0.0000000E+00;  3.9949754E+04; -8.4916549E-03;  0.0000000E+00; -1.3104915E-02;  1.2514012E+03;
  6.6170007E-01;  9.9999998E-03; -2.0005237E-01;6482; -2.8573744E-02;  0.0000000E+00;  3.7029383E-03;  1.0000218E+03;  1.0617015E-01;  1.8073561E+01;3;  4.4649906E+00;  0.0000000E+00;  2.9294333E+00;0; -2.0404406E-02;  3.5516000E+04;  0.0000000E+00; -9.6207097E-02;  4.0000000E+04;  0.0000000E+00;  3.9950969E+04; -7.6519907E-03;  0.0000000E+00; -1.2752416E-02;  1.0697649E+03;
  6.6170746E-01;  9.9999998E-03; -2.1006675E-01;6481; -2.8376976E-02;  0.0000000E+00;  3.8523201E-03;  9.9985541E+02;  1.0617392E-01; -1.1979906E+02;3;  4.3401890E+00;  0.0000000E+00;  3.0214820E+00;0; -1.9330082E-02;  3.5501008E+04;  0.0000000E+00; -1.9585757E-02;  4.0000000E+04;  0.0000000E+00;  3.9952227E+04; -6.8168654E-03;  0.0000000E+00; -1.2513218E-02;  8.7444226E+02;
  6.6170853E-01;  9.9999998E-03; -2.2008362E-01;6480; -2.8184850E-02;  0.0000000E+00;  4.0112897E-03;  9.9966260E+02;  1.0617704E-01; -2.7954761E+02;3;  4.2519431E+00;  0.0000000E+00;  3.0782616E+00;0; -1.8451566E-02;  3.5485266E+04;  0.0000000E+00;  3.3359967E-02;  4.0000000E+04;  0.0000000E+00;  3.9953316E+04; -6.0092513E-03;  0.0000000E+00; -1.2442315E-02;  6.9922656E+02;
  6.6169941E-01;  9.9999998E-03; -2.3009710E-01;6479; -2.8000375E-02;  0.0000000E+00;  4.1808849E-03;  9.9946606E+02;  1.0617916E-01; -4.4235779E+02;3;  4.1726222E+00;  0.0000000E+00;  3.1359572E+00;0; -1.7866366E-02;  3.5469492E+04;  0.0000000E+00;  1.4722881E-02;  4.0000000E+04;  0.0000000E+00;  3.9955406E+04; -5.2482011E-03;  0.0000000E+00; -1.2618165E-02;  4.4747070E+02;
  6.6167688E-01;  9.9999998E-03; -2.4010587E-01;6478; -2.7822502E-02;  0.0000000E+00;  4.3265927E-03;  9.9929138E+02;  1.0617968E-01; -5.8709442E+02;3;  4.1152864E+00;  0.0000000E+00;  3.1904597E+00;0; -1.7542545E-02;  3.5454441E+04;  0.0000000E+00; -1.6084211E-01;  4.0000000E+04;  0.0000000E+00;  3.9959332E+04; -4.5458181E-03;  0.0000000E+00; -1.2996728E-02;  3.3564371E+02;
  6.6162914E-01;  9.9999998E-03; -2.5011867E-01;6477; -2.7653391E-02;  0.0000000E+00;  4.4740178E-03;  9.9911316E+02;  1.0617909E-01; -7.3474457E+02;3;  4.1068592E+00;  0.0000000E+00;  3.2154951E+00;0; -1.7596258E-02;  3.5440617E+04;  0.0000000E+00; -6.2966716E-01;  4.0000000E+04;  0.0000000E+00;  3.9962551E+04; -3.9083171E-03;  0.0000000E+00; -1.3687941E-02;  1.1927855E+03;
  6.6148692E-01;  9.9999998E-03; -2.7014461E-01;6475; -2.7347438E-02;  0.0000000E+00;  4.7352323E-03;  9.9880078E+02;  1.0617355E-01; -9.9355200E+02;3;  4.1236200E+00;  0.0000000E+00;  3.2657168E+00;0; -1.8436424E-02;  3.5418969E+04;  0.0000000E+00; -3.0546904E+00;  4.0000000E+04;  0.0000000E+00;  3.9968160E+04; -2.8186380E-03;  0.0000000E+00; -1.5617786E-02;  5.0977461E+03;
  6.6155159E-01;  9.9999998E-03; -2.6013231E-01;6476; -2.7495187E-02;  0.0000000E+00;  4.6247384E-03;  9.9895380E+02;  1.0617708E-01; -8.6674078E+02;3;  4.1085658E+00;  0.0000000E+00;  3.2500317E+00;0; -1.8071100E-02;  3.5429254E+04;  0.0000000E+00; -1.5677897E+00;  4.0000000E+04;  0.0000000E+00;  3.9965297E+04; -3.3359346E-03;  0.0000000E+00; -1.4735165E-02;  2.7211125E+03;
  6.7163724E-01;  9.9999998E-03; -2.7019036E-01;6536; -2.7284417E-02;  0.0000000E+00;  4.8024347E-03;  9.9898669E+02;  1.0811607E-01; -8.3948230E+02;3;  4.2302127E+00;  0.0000000E+00;  3.3877876E+00;0; -1.8306201E-02;  3.4175773E+04;  0.0000000E+00; -4.9169855E+00;  4.0000000E+04;  0.0000000E+00;  3.9952641E+04; -1.7830926E-03;  0.0000000E+00; -1.6523108E-02;  8.2779902E+03;
  6.7163140E-01;  9.9999998E-03; -2.6018074E-01;6537; -2.7433990E-02;  0.0000000E+00;  4.6724025E-03;  9.9914966E+02;  1.0811608E-01; -7.0447382E+02;3;  4.2005715E+00;  0.0000000E+00;  3.3609986E+00;0; -1.7616384E-02;  3.4188984E+04;  0.0000000E+00; -2.7839849E+00;  4.0000000E+04;  0.0000000E+00;  3.9949160E+04; -2.3974462E-03;  0.0000000E+00; -1.5218938E-02;  4.7625776E+03;
  6.7165309E-01;  9.9999998E-03; -2.5017127E-01;6538; -2.7574321E-02;  0.0000000E+00;  4.4850209E-03;  9.9933197E+02;  1.0811627E-01; -5.5346576E+02;3;  4.1760564E+00;  0.0000000E+00;  3.3454473E+00;0; -1.6803212E-02;  3.4202363E+04;  0.0000000E+00; -1.3262922E+00;  4.0000000E+04;  0.0000000E+00;  3.9946398E+04; -3.0699745E-03;  0.0000000E+00; -1.3733237E-02;  2.3468479E+03;
  6.7168164E-01;  9.9999998E-03; -2.4016528E-01;6539; -2.7726678E-02;  0.0000000E+00;  4.3118247E-03;  9.9951416E+02;  1.0811513E-01; -4.0250708E+02;3;  4.2011414E+00;  0.0000000E+00;  3.3009574E+00;0; -1.6640943E-02;  3.4216398E+04;  0.0000000E+00; -4.9093428E-01;  4.0000000E+04;  0.0000000E+00;  3.9942848E+04; -3.8118707E-03;  0.0000000E+00; -1.2829071E-02;  1.0654542E+03;
  6.7170662E-01;  9.9999998E-03; -2.3016362E-01;6540; -2.7898492E-02;  0.0000000E+00;  4.1378085E-03;  9.9970129E+02;  1.0811218E-01; -2.4744975E+02;3;  4.2508669E+00;  0.0000000E+00;  3.2608144E+00;0; -1.6945645E-02;  3.4232113E+04;  0.0000000E+00; -9.2476994E-02;  4.0000000E+04;  0.0000000E+00;  3.9939602E+04; -4.6251342E-03;  0.0000000E+00; -1.2320512E-02;  9.2366168E+02;
  6.7172372E-01;  9.9999998E-03; -2.2014801E-01;6541; -2.8082147E-02;  0.0000000E+00;  3.9418694E-03;  9.9993445E+02;  1.0810775E-01; -5.4319443E+01;3;  4.3223653E+00;  0.0000000E+00;  3.2032912E+00;0; -1.7596895E-02;  3.4248418E+04;  0.0000000E+00;  4.5896072E-02;  4.0000000E+04;  0.0000000E+00;  3.9940484E+04; -5.5019194E-03;  0.0000000E+00; -1.2094975E-02;  8.1249109E+02;
  6.7173588E-01;  9.9999998E-03; -2.1011817E-01;6542; -2.8291829E-02;  0.0000000E+00;  3.7867699E-03;  1.0001561E+03;  1.0810217E-01;  1.2937904E+02;3;  4.4370546E+00;  0.0000000E+00;  3.1215944E+00;0; -1.8626021E-02;  3.4264527E+04;  0.0000000E+00;  5.1059507E-02;  4.0000000E+04;  0.0000000E+00;  3.9941594E+04; -6.4314348E-03;  0.0000000E+00; -1.2194587E-02;  6.7311139E+02;
  6.7174292E-01;  9.9999998E-03; -2.0008798E-01;6543; -2.8515482E-02;  0.0000000E+00;  3.6594726E-03;  1.0003338E+03;  1.0809516E-01;  2.7653534E+02;3;  4.5873299E+00;  0.0000000E+00;  3.0150402E+00;0; -1.9856330E-02;  3.4279676E+04;  0.0000000E+00; -1.9266721E-03;  4.0000000E+04;  0.0000000E+00;  3.9941453E+04; -7.3879007E-03;  0.0000000E+00; -1.2468430E-02;  7.2268164E+02;
  6.7174399E-01;  9.9999998E-03; -1.9006340E-01;6544; -2.8739195E-02;  0.0000000E+00;  3.5340742E-03;  1.0004622E+03;  1.0808740E-01;  3.8290268E+02;3;  4.7473340E+00;  0.0000000E+00;  2.8980997E+00;0; -2.1186961E-02;  3.4293125E+04;  0.0000000E+00; -7.5094029E-02;  4.0000000E+04;  0.0000000E+00;  3.9940516E+04; -8.3415685E-03;  0.0000000E+00; -1.2845392E-02;  8.8686853E+02;
  6.7174083E-01;  9.9999998E-03; -1.8004425E-01;6545; -2.8956471E-02;  0.0000000E+00;  3.4026559E-03;  1.0005551E+03;  1.0807878E-01;  4.5983878E+02;3;  4.8873353E+00;  0.0000000E+00;  2.7915812E+00;0; -2.2569621E-02;  3.4304355E+04;  0.0000000E+00; -1.5231217E-01;  4.0000000E+04;  0.0000000E+00;  3.9939156E+04; -9.2652347E-03;  0.0000000E+00; -1.3304386E-02;  1.0723750E+03;
  6.7173547E-01;  9.9999998E-03; -1.7002924E-01;6546; -2.9164406E-02;  0.0000000E+00;  3.2638642E-03;  1.0006089E+03;  1.0807087E-01;  5.0447949E+02;3;  5.0175390E+00;  0.0000000E+00;  2.6898575E+00;0; -2.3963589E-02;  3.4313531E+04;  0.0000000E+00; -2.2908375E-01;  4.0000000E+04;  0.0000000E+00;  3.9938109E+04; -1.0135908E-02;  0.0000000E+00; -1.3827681E-02;  1.2432134E+03;
  6.7172998E-01;  9.9999998E-03; -1.6001685E-01;6547; -2.9362777E-02;  0.0000000E+00;  3.1177793E-03;  1.0006306E+03;  1.0806111E-01;  5.2245428E+02;3;  5.1462612E+00;  0.0000000E+00;  2.5813587E+00;0; -2.5331505E-02;  3.4320402E+04;  0.0000000E+00; -3.0476126E-01;  4.0000000E+04;  0.0000000E+00;  3.9937441E+04; -1.0936622E-02;  0.0000000E+00; -1.4394883E-02;  1.3936823E+03;
  6.7172545E-01;  9.9999998E-03; -1.5000603E-01;6548; -2.9554354E-02;  0.0000000E+00;  2.9675949E-03;  1.0006198E+03;  1.0805163E-01;  5.1346686E+02;3;  5.2545018E+00;  0.0000000E+00;  2.4905436E+00;0; -2.6642019E-02;  3.4325398E+04;  0.0000000E+00; -3.7738380E-01;  4.0000000E+04;  0.0000000E+00;  3.9936797E+04; -1.1657106E-02;  0.0000000E+00; -1.4984913E-02;  1.5228822E+03;
  6.7172199E-01;  9.9999998E-03; -1.3999641E-01;6549; -2.9738581E-02;  0.0000000E+00;  2.8132848E-03;  1.0005887E+03;  1.0804205E-01;  4.8778860E+02;3;  5.3608088E+00;  0.0000000E+00;  2.3938451E+00;0; -2.7871691E-02;  3.4328672E+04;  0.0000000E+00; -4.4102383E-01;  4.0000000E+04;  0.0000000E+00;  3.9936195E+04; -1.2292958E-02;  0.0000000E+00; -1.5578733E-02;  1.6230212E+03;
  6.7171919E-01;  9.9999998E-03; -1.2998812E-01;6550; -2.9913737E-02;  0.0000000E+00;  2.6539373E-03;  1.0005363E+03;  1.0803253E-01;  4.4433304E+02;3;  5.4705315E+00;  0.0000000E+00;  2.2871044E+00;0; -2.9006558E-02;  3.4330957E+04;  0.0000000E+00; -4.8713356E-01;  4.0000000E+04;  0.0000000E+00;  3.9935965E+04; -1.2844622E-02;  0.0000000E+00; -1.6161935E-02;  1.6806512E+03;
  6.7171729E-01;  9.9999998E-03; -1.1998166E-01;6551; -3.0077837E-02;  0.0000000E+00;  2.4877496E-03;  1.0004852E+03;  1.0802379E-01;  4.0196387E+02;3;  5.5885181E+00;  0.0000000E+00;  2.1611505E+00;0; -3.0039674E-02;  3.4332770E+04;  0.0000000E+00; -5.0880384E-01;  4.0000000E+04;  0.0000000E+00;  3.9936148E+04; -1.3315162E-02;  0.0000000E+00; -1.6724512E-02;  1.6856615E+03;
  6.7171609E-01;  9.9999998E-03; -1.0997743E-01;6552; -3.0230299E-02;  0.0000000E+00;  2.3143261E-03;  1.0004370E+03;  1.0801467E-01;  3.6206378E+02;3;  5.7105808E+00;  0.0000000E+00;  2.0213110E+00;0; -3.0968763E-02;  3.4334531E+04;  0.0000000E+00; -5.0292164E-01;  4.0000000E+04;  0.0000000E+00;  3.9936594E+04; -1.3709483E-02;  0.0000000E+00; -1.7259281E-02;  1.6389297E+03;
  6.8198448E-01;  9.9999998E-03; -2.7023908E-01;6597; -2.7135035E-02;  0.0000000E+00;  4.8240959E-03;  9.9891583E+02;  1.1035354E-01; -8.9819666E+02;3;  4.2987895E+00;  0.0000000E+00;  3.5932255E+00;0; -1.8446330E-02;  3.2806805E+04;  0.0000000E+00; -6.5435038E+00;  4.0000000E+04;  0.0000000E+00;  3.9937992E+04; -1.4344052E-03;  0.0000000E+00; -1.7011926E-02;  1.1443683E+04;
  6.8190634E-01;  9.9999998E-03; -2.6023060E-01;6598; -2.7282946E-02;  0.0000000E+00;  4.6505304E-03;  9.9907239E+02;  1.1034176E-01; -7.6852136E+02;3;  4.2540593E+00;  0.0000000E+00;  3.5607123E+00;0; -1.7194718E-02;  3.2825195E+04;  0.0000000E+00; -3.9220192E+00;  4.0000000E+04;  0.0000000E+00;  3.9934559E+04; -2.0901079E-03;  0.0000000E+00; -1.5104610E-02;  6.9785454E+03;
  6.8187863E-01;  9.9999998E-03; -2.5022271E-01;6599; -2.7391015E-02;  0.0000000E+00;  4.4008549E-03;  9.9924359E+02;  1.1033082E-01; -6.2664886E+02;3;  4.1892767E+00;  0.0000000E+00;  3.5872939E+00;0; -1.5908100E-02;  3.2843133E+04;  0.0000000E+00; -2.0135479E+00;  4.0000000E+04;  0.0000000E+00;  3.9932453E+04; -2.8034963E-03;  0.0000000E+00; -1.3104604E-02;  3.7089570E+03;
  6.8190652E-01;  9.9999998E-03; -2.4022053E-01;6600; -2.7551692E-02;  0.0000000E+00;  4.2207986E-03;  9.9940375E+02;  1.1032353E-01; -4.9396127E+02;3;  4.2034988E+00;  0.0000000E+00;  3.5373604E+00;0; -1.5828043E-02;  3.2858379E+04;  0.0000000E+00; -8.2093799E-01;  4.0000000E+04;  0.0000000E+00;  3.9929121E+04; -3.6079260E-03;  0.0000000E+00; -1.2220116E-02;  1.7067883E+03;
  6.8192440E-01;  9.9999998E-03; -2.3022293E-01;6601; -2.7735068E-02;  0.0000000E+00;  4.0365933E-03;  9.9958362E+02;  1.1031590E-01; -3.4497784E+02;3;  4.2578540E+00;  0.0000000E+00;  3.4696951E+00;0; -1.6225114E-02;  3.2874344E+04;  0.0000000E+00; -2.0051578E-01;  4.0000000E+04;  0.0000000E+00;  3.9926645E+04; -4.4902675E-03;  0.0000000E+00; -1.1734846E-02;  9.5142590E+02;
  6.8192428E-01;  9.9999998E-03; -2.2020380E-01;6602; -2.7935930E-02;  0.0000000E+00;  3.8284434E-03;  9.9982825E+02;  1.1030684E-01; -1.4231694E+02;3;  4.3252254E+00;  0.0000000E+00;  3.4277468E+00;0; -1.6980700E-02;  3.2891547E+04;  0.0000000E+00;  7.0945218E-02;  4.0000000E+04;  0.0000000E+00;  3.9929477E+04; -5.4400195E-03;  0.0000000E+00; -1.1540681E-02;  4.7040128E+02;
  6.8191397E-01;  9.9999998E-03; -2.1016309E-01;6603; -2.8191980E-02;  0.0000000E+00;  3.6960007E-03;  1.0000604E+03;  1.1029662E-01;  5.0072651E+01;3;  4.4790368E+00;  0.0000000E+00;  3.3021464E+00;0; -1.8183891E-02;  3.2908293E+04;  0.0000000E+00;  1.5388913E-01;  4.0000000E+04;  0.0000000E+00;  3.9932047E+04; -6.4539737E-03;  0.0000000E+00; -1.1729917E-02;  1.9444978E+02;
  6.8189967E-01;  9.9999998E-03; -2.0012239E-01;6604; -2.8466912E-02;  0.0000000E+00;  3.6054226E-03;  1.0002299E+03;  1.1028607E-01;  1.9051311E+02;3;  4.6833901E+00;  0.0000000E+00;  3.1411736E+00;0; -1.9566441E-02;  3.2924070E+04;  0.0000000E+00;  1.4376223E-01;  4.0000000E+04;  0.0000000E+00;  3.9932402E+04; -7.4936827E-03;  0.0000000E+00; -1.2072759E-02;  2.1282387E+02;
  6.8188244E-01;  9.9999998E-03; -1.9009048E-01;6605; -2.8730411E-02;  0.0000000E+00;  3.5112328E-03;  1.0003454E+03;  1.1027415E-01;  2.8611533E+02;3;  4.8697500E+00;  0.0000000E+00;  2.9936178E+00;0; -2.1015109E-02;  3.2938055E+04;  0.0000000E+00;  9.0909682E-02;  4.0000000E+04;  0.0000000E+00;  3.9930828E+04; -8.5205492E-03;  0.0000000E+00; -1.2494560E-02;  3.5912158E+02;
  6.8186432E-01;  9.9999998E-03; -1.8006624E-01;6606; -2.8974917E-02;  0.0000000E+00;  3.4017172E-03;  1.0004144E+03;  1.1026178E-01;  3.4329889E+02;3;  5.0282946E+00;  0.0000000E+00;  2.8601260E+00;0; -2.2498533E-02;  3.2949812E+04;  0.0000000E+00;  1.9559905E-02;  4.0000000E+04;  0.0000000E+00;  3.9929230E+04; -9.5064566E-03;  0.0000000E+00; -1.2992076E-02;  5.8158838E+02;
  6.8184632E-01;  9.9999998E-03; -1.7004783E-01;6607; -2.9202942E-02;  0.0000000E+00;  3.2790892E-03;  1.0004410E+03;  1.1024835E-01;  3.6542172E+02;3;  5.1784348E+00;  0.0000000E+00;  2.7447436E+00;0; -2.3987373E-02;  3.2958848E+04;  0.0000000E+00; -5.9470195E-02;  4.0000000E+04;  0.0000000E+00;  3.9927617E+04; -1.0431114E-02;  0.0000000E+00; -1.3556260E-02;  8.0367889E+02;
  6.8182945E-01;  9.9999998E-03; -1.6003323E-01;6608; -2.9417837E-02;  0.0000000E+00;  3.1468328E-03;  1.0004247E+03;  1.1023516E-01;  3.5179248E+02;3;  5.3018727E+00;  0.0000000E+00;  2.6467268E+00;0; -2.5447067E-02;  3.2965570E+04;  0.0000000E+00; -1.4131162E-01;  4.0000000E+04;  0.0000000E+00;  3.9926039E+04; -1.1279363E-02;  0.0000000E+00; -1.4167703E-02;  1.0066724E+03;
  6.8181407E-01;  9.9999998E-03; -1.5002008E-01;6609; -2.9622432E-02;  0.0000000E+00;  3.0074632E-03;  1.0003670E+03;  1.1022166E-01;  3.0409012E+02;3;  5.4190259E+00;  0.0000000E+00;  2.5590355E+00;0; -2.6845966E-02;  3.2969469E+04;  0.0000000E+00; -2.2220932E-01;  4.0000000E+04;  0.0000000E+00;  3.9925031E+04; -1.2042684E-02;  0.0000000E+00; -1.4803280E-02;  1.1882318E+03;
  6.8179929E-01;  9.9999998E-03; -1.4000782E-01;6610; -2.9817743E-02;  0.0000000E+00;  2.8621077E-03;  1.0002778E+03;  1.1020774E-01;  2.3021568E+02;3;  5.5372005E+00;  0.0000000E+00;  2.4590747E+00;0; -2.8159410E-02;  3.2971555E+04;  0.0000000E+00; -2.9638246E-01;  4.0000000E+04;  0.0000000E+00;  3.9924121E+04; -1.2718146E-02;  0.0000000E+00; -1.5441265E-02;  1.3416658E+03;
  6.8178463E-01;  9.9999998E-03; -1.2999703E-01;6611; -3.0001771E-02;  0.0000000E+00;  2.7088036E-03;  1.0001675E+03;  1.1019445E-01;  1.3876149E+02;3;  5.6576710E+00;  0.0000000E+00;  2.3510673E+00;0; -2.9371228E-02;  3.2971992E+04;  0.0000000E+00; -3.5569543E-01;  4.0000000E+04;  0.0000000E+00;  3.9923551E+04; -1.3306539E-02;  0.0000000E+00; -1.6064690E-02;  1.4537883E+03;
  6.8176991E-01;  9.9999998E-03; -1.1998829E-01;6612; -3.0173039E-02;  0.0000000E+00;  2.5463779E-03;  1.0000462E+03;  1.1018089E-01;  3.8319897E+01;3;  5.7877755E+00;  0.0000000E+00;  2.2215817E+00;0; -3.0473895E-02;  3.2971730E+04;  0.0000000E+00; -3.9284980E-01;  4.0000000E+04;  0.0000000E+00;  3.9923238E+04; -1.3811924E-02;  0.0000000E+00; -1.6661972E-02;  1.5134473E+03;
  6.8175477E-01;  9.9999998E-03; -1.0998210E-01;6613; -3.0331079E-02;  0.0000000E+00;  2.3747259E-03;  9.9992871E+02;  1.1016810E-01; -5.9060051E+01;3;  5.9214430E+00;  0.0000000E+00;  2.0781424E+00;0; -3.1464707E-02;  3.2971266E+04;  0.0000000E+00; -4.0380046E-01;  4.0000000E+04;  0.0000000E+00;  3.9923348E+04; -1.4239618E-02;  0.0000000E+00; -1.7225089E-02;  1.5200636E+03;
  6.9338924E-01;  9.9999998E-03; -2.7029324E-01;6658; -2.6872236E-02;  0.0000000E+00;  4.7323867E-03;  9.9864240E+02;  1.1302149E-01; -1.1247582E+03;3;  4.3039312E+00;  0.0000000E+00;  3.9543009E+00;0; -1.8187584E-02;  3.1271773E+04;  0.0000000E+00; -5.7846127E+00;  4.0000000E+04;  0.0000000E+00;  3.9922816E+04; -1.8657678E-03;  0.0000000E+00; -1.6321817E-02;  1.0839138E+04;
  6.9316679E-01;  9.9999998E-03; -2.6028326E-01;6659; -2.7026188E-02;  0.0000000E+00;  4.5001837E-03;  9.9874866E+02;  1.1297819E-01; -1.0367113E+03;3;  4.2298536E+00;  0.0000000E+00;  3.9220371E+00;0; -1.6334295E-02;  3.1302273E+04;  0.0000000E+00; -3.6590891E+00;  4.0000000E+04;  0.0000000E+00;  3.9920879E+04; -2.4690367E-03;  0.0000000E+00; -1.3865259E-02;  7.0263813E+03;
  6.9301093E-01;  9.9999998E-03; -2.5027370E-01;6660; -2.7121481E-02;  0.0000000E+00;  4.1947723E-03;  9.9888623E+02;  1.1294331E-01; -9.2273920E+02;3;  4.1365709E+00;  0.0000000E+00;  3.9533031E+00;0; -1.4774936E-02;  3.1329223E+04;  0.0000000E+00; -1.9648445E+00;  4.0000000E+04;  0.0000000E+00;  3.9920070E+04; -3.1369014E-03;  0.0000000E+00; -1.1638035E-02;  3.9766931E+03;
  6.9289553E-01;  9.9999998E-03; -2.4027070E-01;6661; -2.7312210E-02;  0.0000000E+00;  4.0252735E-03;  9.9903088E+02;  1.1291521E-01; -8.0289075E+02;3;  4.1441112E+00;  0.0000000E+00;  3.8996248E+00;0; -1.4964983E-02;  3.1353621E+04;  0.0000000E+00; -8.3904922E-01;  4.0000000E+04;  0.0000000E+00;  3.9917809E+04; -3.9212205E-03;  0.0000000E+00; -1.1043763E-02;  1.8988873E+03;
  6.9279915E-01;  9.9999998E-03; -2.3027609E-01;6662; -2.7558131E-02;  0.0000000E+00;  3.8892631E-03;  9.9918097E+02;  1.1288901E-01; -6.7854858E+02;3;  4.2247128E+00;  0.0000000E+00;  3.7917459E+00;0; -1.5697595E-02;  3.1377338E+04;  0.0000000E+00; -1.8152067E-01;  4.0000000E+04;  0.0000000E+00;  3.9914988E+04; -4.8027798E-03;  0.0000000E+00; -1.0894815E-02;  7.0398212E+02;
  6.9271410E-01;  9.9999998E-03; -2.2026627E-01;6663; -2.7828963E-02;  0.0000000E+00;  3.7256910E-03;  9.9939502E+02;  1.1286337E-01; -5.0122031E+02;3;  4.3172765E+00;  0.0000000E+00;  3.7137916E+00;0; -1.6649067E-02;  3.1400385E+04;  0.0000000E+00;  1.5748872E-01;  4.0000000E+04;  0.0000000E+00;  3.9916855E+04; -5.7590166E-03;  0.0000000E+00; -1.0890052E-02;  3.4685398E+01;
  6.9264543E-01;  9.9999998E-03; -2.1022783E-01;6664; -2.8145511E-02;  0.0000000E+00;  3.6226958E-03;  9.9961200E+02;  1.1284046E-01; -3.2147235E+02;3;  4.4927726E+00;  0.0000000E+00;  3.5474627E+00;0; -1.7955583E-02;  3.1421635E+04;  0.0000000E+00;  3.0176321E-01;  4.0000000E+04;  0.0000000E+00;  3.9920336E+04; -6.7810658E-03;  0.0000000E+00; -1.1174518E-02;  4.7648996E+02;
  6.9259518E-01;  9.9999998E-03; -2.0018421E-01;6665; -2.8476214E-02;  0.0000000E+00;  3.5659829E-03;  9.9977203E+02;  1.1282057E-01; -1.8888351E+02;3;  4.7418780E+00;  0.0000000E+00;  3.3269644E+00;0; -1.9419994E-02;  3.1440203E+04;  0.0000000E+00;  3.3678886E-01;  4.0000000E+04;  0.0000000E+00;  3.9920902E+04; -7.8311646E-03;  0.0000000E+00; -1.1588829E-02;  5.8495056E+02;
  6.9255817E-01;  9.9999998E-03; -1.9014992E-01;6666; -2.8779548E-02;  0.0000000E+00;  3.4984243E-03;  9.9986719E+02;  1.1280186E-01; -1.1002156E+02;3;  4.9704971E+00;  0.0000000E+00;  3.1163456E+00;0; -2.0930007E-02;  3.1455799E+04;  0.0000000E+00;  3.1325352E-01;  4.0000000E+04;  0.0000000E+00;  3.9919426E+04; -8.8652503E-03;  0.0000000E+00; -1.2064758E-02;  4.5616611E+02;
  6.9252902E-01;  9.9999998E-03; -1.8012550E-01;6667; -2.9051220E-02;  0.0000000E+00;  3.4079310E-03;  9.9991107E+02;  1.1278380E-01; -7.3676918E+01;3;  5.1786709E+00;  0.0000000E+00;  2.9462156E+00;0; -2.2470288E-02;  3.1468211E+04;  0.0000000E+00;  2.5840643E-01;  4.0000000E+04;  0.0000000E+00;  3.9917418E+04; -9.8574255E-03;  0.0000000E+00; -1.2612862E-02;  3.4102518E+02;
  6.9250458E-01;  9.9999998E-03; -1.7010745E-01;6668; -2.9297359E-02;  0.0000000E+00;  3.2968209E-03;  9.9990063E+02;  1.1276562E-01; -8.2318649E+01;3;  5.3337569E+00;  0.0000000E+00;  2.8145695E+00;0; -2.4018826E-02;  3.1477336E+04;  0.0000000E+00;  1.8690157E-01;  4.0000000E+04;  0.0000000E+00;  3.9915367E+04; -1.0789659E-02;  0.0000000E+00; -1.3229167E-02;  4.0575644E+02;
  6.9248343E-01;  9.9999998E-03; -1.6009296E-01;6669; -2.9526588E-02;  0.0000000E+00;  3.1747422E-03;  9.9984253E+02;  1.1274809E-01; -1.3046542E+02;3;  5.4596553E+00;  0.0000000E+00;  2.7446680E+00;0; -2.5544567E-02;  3.1483285E+04;  0.0000000E+00;  1.0750309E-01;  4.0000000E+04;  0.0000000E+00;  3.9913461E+04; -1.1650999E-02;  0.0000000E+00; -1.3893568E-02;  5.8874469E+02;
  6.9246531E-01;  9.9999998E-03; -1.5007988E-01;6670; -2.9744769E-02;  0.0000000E+00;  3.0444525E-03;  9.9973810E+02;  1.1273090E-01; -2.1698149E+02;3;  5.5953498E+00;  0.0000000E+00;  2.6342475E+00;0; -2.7015176E-02;  3.1486053E+04;  0.0000000E+00;  2.6256554E-02;  4.0000000E+04;  0.0000000E+00;  3.9911660E+04; -1.2435474E-02;  0.0000000E+00; -1.4579701E-02;  7.9615283E+02;
  6.9244862E-01;  9.9999998E-03; -1.4006704E-01;6671; -2.9951161E-02;  0.0000000E+00;  2.9053579E-03;  9.9958893E+02;  1.1271386E-01; -3.4058292E+02;3;  5.7217131E+00;  0.0000000E+00;  2.5406544E+00;0; -2.8401747E-02;  3.1486139E+04;  0.0000000E+00; -5.1342551E-02;  4.0000000E+04;  0.0000000E+00;  3.9910391E+04; -1.3139234E-02;  0.0000000E+00; -1.5262513E-02;  9.9054773E+02;
  6.9243068E-01;  9.9999998E-03; -1.3005470E-01;6672; -3.0144278E-02;  0.0000000E+00;  2.7564522E-03;  9.9941455E+02;  1.1269723E-01; -4.8502325E+02;3;  5.8569007E+00;  0.0000000E+00;  2.4288259E+00;0; -2.9685978E-02;  3.1484512E+04;  0.0000000E+00; -1.1874798E-01;  4.0000000E+04;  0.0000000E+00;  3.9909125E+04; -1.3763309E-02;  0.0000000E+00; -1.5922667E-02;  1.1507765E+03;
  6.9240898E-01;  9.9999998E-03; -1.2004345E-01;6673; -3.0323064E-02;  0.0000000E+00;  2.5964142E-03;  9.9921936E+02;  1.1267979E-01; -6.4674707E+02;3;  6.0009661E+00;  0.0000000E+00;  2.2938466E+00;0; -3.0858222E-02;  3.1481889E+04;  0.0000000E+00; -1.6962366E-01;  4.0000000E+04;  0.0000000E+00;  3.9908410E+04; -1.4310782E-02;  0.0000000E+00; -1.6547440E-02;  1.2641388E+03;
  6.9238198E-01;  9.9999998E-03; -1.1003388E-01;6674; -3.0486856E-02;  0.0000000E+00;  2.4254113E-03;  9.9903406E+02;  1.1266281E-01; -8.0027356E+02;3;  6.1480126E+00;  0.0000000E+00;  2.1478662E+00;0; -3.1914495E-02;  3.1479539E+04;  0.0000000E+00; -1.9990329E-01;  4.0000000E+04;  0.0000000E+00;  3.9908102E+04; -1.4785670E-02;  0.0000000E+00; -1.7128825E-02;  1.3295278E+03;
  7.0586270E-01;  9.9999998E-03; -2.7035937E-01;6719; -2.6586257E-02;  0.0000000E+00;  4.5248610E-03;  9.9862714E+02;  1.1626185E-01; -1.1373997E+03;3;  4.2283897E+00;  0.0000000E+00;  4.3459115E+00;0; -1.7544255E-02;  2.9572623E+04;  0.0000000E+00; -4.3109531E+00;  4.0000000E+04;  0.0000000E+00;  3.9902707E+04; -2.9541084E-03;  0.0000000E+00; -1.4590146E-02;  9.0027129E+03;
  7.0555872E-01;  9.9999998E-03; -2.6034665E-01;6720; -2.6748668E-02;  0.0000000E+00;  4.2346581E-03;  9.9864185E+02;  1.1619013E-01; -1.1252025E+03;3;  4.1579318E+00;  0.0000000E+00;  4.3480768E+00;0; -1.5144462E-02;  2.9608775E+04;  0.0000000E+00; -2.7174673E+00;  4.0000000E+04;  0.0000000E+00;  3.9902906E+04; -3.3931776E-03;  0.0000000E+00; -1.1751284E-02;  5.9422251E+03;
  7.0530742E-01;  9.9999998E-03; -2.5033313E-01;6721; -2.6878666E-02;  0.0000000E+00;  3.9073220E-03;  9.9870441E+02;  1.1612611E-01; -1.0733522E+03;3;  4.0853281E+00;  0.0000000E+00;  4.3945565E+00;0; -1.3603020E-02;  2.9642885E+04;  0.0000000E+00; -1.4038155E+00;  4.0000000E+04;  0.0000000E+00;  3.9904535E+04; -3.9167865E-03;  0.0000000E+00; -9.6862335E-03;  3.4618574E+03;
  7.0512688E-01;  9.9999998E-03; -2.4032542E-01;6722; -2.7112583E-02;  0.0000000E+00;  3.7589520E-03;  9.9877606E+02;  1.1607354E-01; -1.0139958E+03;3;  4.1001234E+00;  0.0000000E+00;  4.3168039E+00;0; -1.4082303E-02;  2.9672346E+04;  0.0000000E+00; -4.8159239E-01;  4.0000000E+04;  0.0000000E+00;  3.9904191E+04; -4.5660208E-03;  0.0000000E+00; -9.5162829E-03;  1.7251261E+03;
  7.0496827E-01;  9.9999998E-03; -2.3033668E-01;6723; -2.7461668E-02;  0.0000000E+00;  3.7454281E-03;  9.9882831E+02;  1.1602541E-01; -9.7073773E+02;3;  4.2089529E+00;  0.0000000E+00;  4.1440334E+00;0; -1.5325736E-02;  2.9701229E+04;  0.0000000E+00;  7.2910331E-02;  4.0000000E+04;  0.0000000E+00;  3.9900285E+04; -5.3377929E-03;  0.0000000E+00; -9.9879429E-03;  4.7666385E+02;
  7.0483106E-01;  9.9999998E-03; -2.2036186E-01;6724; -2.7832618E-02;  0.0000000E+00;  3.6964505E-03;  9.9891223E+02;  1.1598013E-01; -9.0120886E+02;3;  4.3498783E+00;  0.0000000E+00;  3.9799142E+00;0; -1.6471775E-02;  2.9729123E+04;  0.0000000E+00;  3.7526658E-01;  4.0000000E+04;  0.0000000E+00;  3.9897445E+04; -6.1903624E-03;  0.0000000E+00; -1.0281413E-02;  2.7684711E+02;
  7.0470643E-01;  9.9999998E-03; -2.1036275E-01;6725; -2.8193846E-02;  0.0000000E+00;  3.6090370E-03;  9.9907465E+02;  1.1593700E-01; -7.6664484E+02;3;  4.5332637E+00;  0.0000000E+00;  3.7979624E+00;0; -1.7680269E-02;  2.9756199E+04;  0.0000000E+00;  5.1829749E-01;  4.0000000E+04;  0.0000000E+00;  3.9899945E+04; -7.0977849E-03;  0.0000000E+00; -1.0582484E-02;  6.0103143E+02;
  7.0461446E-01;  9.9999998E-03; -2.0033897E-01;6726; -2.8561071E-02;  0.0000000E+00;  3.5539554E-03;  9.9923151E+02;  1.1590143E-01; -6.3667322E+02;3;  4.7937775E+00;  0.0000000E+00;  3.5507598E+00;0; -1.9069981E-02;  2.9779328E+04;  0.0000000E+00;  5.6874406E-01;  4.0000000E+04;  0.0000000E+00;  3.9902449E+04; -8.0453064E-03;  0.0000000E+00; -1.1024674E-02;  8.5565875E+02;
  7.0455265E-01;  9.9999998E-03; -1.9031225E-01;6727; -2.8900359E-02;  0.0000000E+00;  3.4991682E-03;  9.9932489E+02;  1.1587207E-01; -5.5929272E+02;3;  5.0856977E+00;  0.0000000E+00;  3.2863975E+00;0; -2.0550139E-02;  2.9797814E+04;  0.0000000E+00;  5.6542188E-01;  4.0000000E+04;  0.0000000E+00;  3.9902727E+04; -8.9966049E-03;  0.0000000E+00; -1.1553535E-02;  9.0423151E+02;
  7.0450693E-01;  9.9999998E-03; -1.8029198E-01;6728; -2.9194992E-02;  0.0000000E+00;  3.4163923E-03;  9.9936340E+02;  1.1584578E-01; -5.2739240E+02;3;  5.3255606E+00;  0.0000000E+00;  3.0799150E+00;0; -2.2083938E-02;  2.9812648E+04;  0.0000000E+00;  5.2996683E-01;  4.0000000E+04;  0.0000000E+00;  3.9901656E+04; -9.9237766E-03;  0.0000000E+00; -1.2160162E-02;  8.0990918E+02;
  7.0447862E-01;  9.9999998E-03; -1.7027780E-01;6729; -2.9456494E-02;  0.0000000E+00;  3.3097141E-03;  9.9934650E+02;  1.1582267E-01; -5.4141669E+02;3;  5.5003858E+00;  0.0000000E+00;  2.9340813E+00;0; -2.3650134E-02;  2.9822705E+04;  0.0000000E+00;  4.7515371E-01;  4.0000000E+04;  0.0000000E+00;  3.9899805E+04; -1.0813479E-02;  0.0000000E+00; -1.2836655E-02;  6.8969092E+02;
  7.0446432E-01;  9.9999998E-03; -1.6026761E-01;6730; -2.9702919E-02;  0.0000000E+00;  3.1929214E-03;  9.9926001E+02;  1.1580241E-01; -6.1306897E+02;3;  5.6551967E+00;  0.0000000E+00;  2.8272829E+00;0; -2.5217740E-02;  2.9828006E+04;  0.0000000E+00;  4.0990365E-01;  4.0000000E+04;  0.0000000E+00;  3.9897656E+04; -1.1659780E-02;  0.0000000E+00; -1.3557960E-02;  6.4277118E+02;
  7.0446241E-01;  9.9999998E-03; -1.5025848E-01;6731; -2.9935276E-02;  0.0000000E+00;  3.0677505E-03;  9.9911963E+02;  1.1578504E-01; -7.2936194E+02;3;  5.7945619E+00;  0.0000000E+00;  2.7408113E+00;0; -2.6747115E-02;  2.9828525E+04;  0.0000000E+00;  3.4102234E-01;  4.0000000E+04;  0.0000000E+00;  3.9895457E+04; -1.2454288E-02;  0.0000000E+00; -1.4292827E-02;  7.1293500E+02;
  7.0447141E-01;  9.9999998E-03; -1.4024822E-01;6732; -3.0153712E-02;  0.0000000E+00;  2.9323776E-03;  9.9892578E+02;  1.1577030E-01; -8.8994995E+02;3;  5.9297051E+00;  0.0000000E+00;  2.6489577E+00;0; -2.8205313E-02;  2.9824896E+04;  0.0000000E+00;  2.7295321E-01;  4.0000000E+04;  0.0000000E+00;  3.9893641E+04; -1.3192725E-02;  0.0000000E+00; -1.5012587E-02;  8.5272327E+02;
  7.0448595E-01;  9.9999998E-03; -1.3023633E-01;6733; -3.0356448E-02;  0.0000000E+00;  2.7846247E-03;  9.9869495E+02;  1.1575778E-01; -1.0812037E+03;3;  6.0811992E+00;  0.0000000E+00;  2.5248609E+00;0; -2.9569721E-02;  2.9818049E+04;  0.0000000E+00;  2.0902742E-01;  4.0000000E+04;  0.0000000E+00;  3.9891789E+04; -1.3873897E-02;  0.0000000E+00; -1.5695823E-02;  9.9955273E+02;
  7.0450115E-01;  9.9999998E-03; -1.2022280E-01;6734; -3.0543070E-02;  0.0000000E+00;  2.6245383E-03;  9.9844580E+02;  1.1574624E-01; -1.2876176E+03;3;  6.2417889E+00;  0.0000000E+00;  2.3889868E+00;0; -3.0827578E-02;  2.9809354E+04;  0.0000000E+00;  1.5260135E-01;  4.0000000E+04;  0.0000000E+00;  3.9890582E+04; -1.4498075E-02;  0.0000000E+00; -1.6329503E-02;  1.1221342E+03;
  7.0451164E-01;  9.9999998E-03; -1.1020829E-01;6735; -3.0713465E-02;  0.0000000E+00;  2.4524585E-03;  9.9818878E+02;  1.1573510E-01; -1.5005498E+03;3;  6.4033327E+00;  0.0000000E+00;  2.2366076E+00;0; -3.1972442E-02;  2.9800379E+04;  0.0000000E+00;  1.0607768E-01;  4.0000000E+04;  0.0000000E+00;  3.9889594E+04; -1.5065666E-02;  0.0000000E+00; -1.6906776E-02;  1.2127469E+03;
  7.1795166E-01;  9.9999998E-03; -2.7042854E-01;6780; -2.6461221E-02;  0.0000000E+00;  4.2955191E-03;  9.9874341E+02;  1.1973206E-01; -1.0410568E+03;3;  4.1528554E+00;  0.0000000E+00;  4.6341043E+00;0; -1.6711079E-02;  2.7910371E+04;  0.0000000E+00; -4.5815945E+00;  4.0000000E+04;  0.0000000E+00;  3.9881512E+04; -3.6465640E-03;  0.0000000E+00; -1.3064514E-02;  1.0075811E+04;
  7.1787483E-01;  9.9999998E-03; -2.6041427E-01;6781; -2.6647869E-02;  0.0000000E+00;  3.9835582E-03;  9.9872150E+02;  1.1970442E-01; -1.0592290E+03;3;  4.1098943E+00;  0.0000000E+00;  4.7005038E+00;0; -1.3994950E-02;  2.7920080E+04;  0.0000000E+00; -2.6955433E+00;  4.0000000E+04;  0.0000000E+00;  3.9883254E+04; -3.8646928E-03;  0.0000000E+00; -1.0130257E-02;  6.3400771E+03;
  7.1771622E-01;  9.9999998E-03; -2.5039807E-01;6782; -2.6836546E-02;  0.0000000E+00;  3.7047439E-03;  9.9872162E+02;  1.1964690E-01; -1.0591302E+03;3;  4.1011972E+00;  0.0000000E+00;  4.6783776E+00;0; -1.2745755E-02;  2.7944707E+04;  0.0000000E+00; -1.2807647E+00;  4.0000000E+04;  0.0000000E+00;  3.9886453E+04; -4.1772309E-03;  0.0000000E+00; -8.5685244E-03;  3.6045872E+03;
  7.1757329E-01;  9.9999998E-03; -2.4038619E-01;6783; -2.7092287E-02;  0.0000000E+00;  3.5719632E-03;  9.9874213E+02;  1.1959382E-01; -1.0421432E+03;3;  4.1285210E+00;  0.0000000E+00;  4.6391401E+00;0; -1.3120567E-02;  2.7969117E+04;  0.0000000E+00; -3.4961542E-01;  4.0000000E+04;  0.0000000E+00;  3.9887566E+04; -4.5993808E-03;  0.0000000E+00; -8.5211862E-03;  1.9406638E+03;
  7.1745461E-01;  9.9999998E-03; -2.3039374E-01;6784; -2.7482416E-02;  0.0000000E+00;  3.6045942E-03;  9.9875543E+02;  1.1954912E-01; -1.0310817E+03;3;  4.2176065E+00;  0.0000000E+00;  4.4670725E+00;0; -1.4332263E-02;  2.7991463E+04;  0.0000000E+00;  2.0588487E-01;  4.0000000E+04;  0.0000000E+00;  3.9884070E+04; -5.1449649E-03;  0.0000000E+00; -9.1872979E-03;  8.4797528E+02;
  7.1734768E-01;  9.9999998E-03; -2.2043248E-01;6785; -2.7934652E-02;  0.0000000E+00;  3.6576211E-03;  9.9877814E+02;  1.1950796E-01; -1.0122675E+03;3;  4.3944573E+00;  0.0000000E+00;  4.2088280E+00;0; -1.5496185E-02;  2.8014133E+04;  0.0000000E+00;  5.1105982E-01;  4.0000000E+04;  0.0000000E+00;  3.9879086E+04; -5.7877251E-03;  0.0000000E+00; -9.7084604E-03;  3.9591949E+02;
  7.1725255E-01;  9.9999998E-03; -2.1046746E-01;6786; -2.8337542E-02;  0.0000000E+00;  3.6103972E-03;  9.9888245E+02;  1.1946791E-01; -9.2585016E+02;3;  4.6068172E+00;  0.0000000E+00;  3.9954185E+00;0; -1.6521528E-02;  2.8036832E+04;  0.0000000E+00;  6.6298413E-01;  4.0000000E+04;  0.0000000E+00;  3.9878949E+04; -6.4866282E-03;  0.0000000E+00; -1.0034900E-02;  7.6093707E+02;
  7.1716726E-01;  9.9999998E-03; -2.0047078E-01;6787; -2.8730737E-02;  0.0000000E+00;  3.5588960E-03;  9.9903345E+02;  1.1942969E-01; -8.0076727E+02;3;  4.8922167E+00;  0.0000000E+00;  3.7279451E+00;0; -1.7725896E-02;  2.8059066E+04;  0.0000000E+00;  7.2627300E-01;  4.0000000E+04;  0.0000000E+00;  3.9882070E+04; -7.2444333E-03;  0.0000000E+00; -1.0481463E-02;  1.0412543E+03;
  7.1710169E-01;  9.9999998E-03; -1.9045611E-01;6788; -2.9087879E-02;  0.0000000E+00;  3.5003799E-03;  9.9915045E+02;  1.1939494E-01; -7.0383179E+02;3;  5.2315269E+00;  0.0000000E+00;  3.4286766E+00;0; -1.9082867E-02;  2.8078779E+04;  0.0000000E+00;  7.3930889E-01;  4.0000000E+04;  0.0000000E+00;  3.9883664E+04; -8.0417022E-03;  0.0000000E+00; -1.1041165E-02;  1.1954614E+03;
  7.1706569E-01;  9.9999998E-03; -1.8043713E-01;6789; -2.9395189E-02;  0.0000000E+00;  3.4112798E-03;  9.9920697E+02;  1.1936641E-01; -6.5701831E+02;3;  5.4977126E+00;  0.0000000E+00;  3.2124395E+00;0; -2.0552235E-02;  2.8094107E+04;  0.0000000E+00;  7.2348446E-01;  4.0000000E+04;  0.0000000E+00;  3.9883133E+04; -8.8592945E-03;  0.0000000E+00; -1.1692940E-02;  1.1844530E+03;
  7.1705890E-01;  9.9999998E-03; -1.7042051E-01;6790; -2.9677324E-02;  0.0000000E+00;  3.3061386E-03;  9.9920374E+02;  1.1934421E-01; -6.5968488E+02;3;  5.6818538E+00;  0.0000000E+00;  3.0674894E+00;0; -2.2108387E-02;  2.8103762E+04;  0.0000000E+00;  6.9088137E-01;  4.0000000E+04;  0.0000000E+00;  3.9881277E+04; -9.6910130E-03;  0.0000000E+00; -1.2417375E-02;  1.0948495E+03;
  7.1707773E-01;  9.9999998E-03; -1.6040738E-01;6791; -2.9940143E-02;  0.0000000E+00;  3.1895328E-03;  9.9913116E+02;  1.1932784E-01; -7.1983136E+02;3;  5.8425040E+00;  0.0000000E+00;  2.9716337E+00;0; -2.3705550E-02;  2.8107656E+04;  0.0000000E+00;  6.4986557E-01;  4.0000000E+04;  0.0000000E+00;  3.9878867E+04; -1.0527050E-02;  0.0000000E+00; -1.3178499E-02;  1.0328146E+03;
  7.1711767E-01;  9.9999998E-03; -1.5039718E-01;6792; -3.0185618E-02;  0.0000000E+00;  3.0627586E-03;  9.9899774E+02;  1.1931631E-01; -8.3034668E+02;3;  5.9944081E+00;  0.0000000E+00;  2.8675525E+00;0; -2.5297539E-02;  2.8105648E+04;  0.0000000E+00;  6.0651088E-01;  4.0000000E+04;  0.0000000E+00;  3.9876297E+04; -1.1358460E-02;  0.0000000E+00; -1.3939079E-02;  1.0580983E+03;
  7.1717477E-01;  9.9999998E-03; -1.4038678E-01;6793; -3.0413810E-02;  0.0000000E+00;  2.9239778E-03;  9.9880347E+02;  1.1931024E-01; -9.9128040E+02;3;  6.1575875E+00;  0.0000000E+00;  2.7591352E+00;0; -2.6844744E-02;  2.8098410E+04;  0.0000000E+00;  5.6333590E-01;  4.0000000E+04;  0.0000000E+00;  3.9873926E+04; -1.2178009E-02;  0.0000000E+00; -1.4666733E-02;  1.1522233E+03;
  7.1724254E-01;  9.9999998E-03; -1.3037398E-01;6794; -3.0624231E-02;  0.0000000E+00;  2.7718570E-03;  9.9857098E+02;  1.1930790E-01; -1.1839169E+03;3;  6.3236289E+00;  0.0000000E+00;  2.6278026E+00;0; -2.8318200E-02;  2.8086912E+04;  0.0000000E+00;  5.1940429E-01;  4.0000000E+04;  0.0000000E+00;  3.9871945E+04; -1.2979588E-02;  0.0000000E+00; -1.5338613E-02;  1.2612332E+03;
  7.1731251E-01;  9.9999998E-03; -1.2035863E-01;6795; -3.0816555E-02;  0.0000000E+00;  2.6069081E-03;  9.9831384E+02;  1.1930835E-01; -1.3969479E+03;3;  6.5050187E+00;  0.0000000E+00;  2.4848230E+00;0; -2.9700510E-02;  2.8073031E+04;  0.0000000E+00;  4.7305563E-01;  4.0000000E+04;  0.0000000E+00;  3.9870238E+04; -1.3757800E-02;  0.0000000E+00; -1.5942710E-02;  1.3495405E+03;
  7.1737695E-01;  9.9999998E-03; -1.1034082E-01;6796; -3.0991953E-02;  0.0000000E+00;  2.4305556E-03;  9.9804578E+02;  1.1930906E-01; -1.6190156E+03;3;  6.6858783E+00;  0.0000000E+00;  2.3280308E+00;0; -3.0981380E-02;  2.8058262E+04;  0.0000000E+00;  4.2305174E-01;  4.0000000E+04;  0.0000000E+00;  3.9869109E+04; -1.4506442E-02;  0.0000000E+00; -1.6474938E-02;  1.4059436E+03;
  7.2942686E-01;  9.9999998E-03; -2.7049068E-01;6841; -2.6540739E-02;  0.0000000E+00;  4.0957201E-03;  9.9840863E+02;  1.2324625E-01; -1.3184314E+03;3;  4.1312232E+00;  0.0000000E+00;  4.7986169E+00;0; -1.4976562E-02;  2.6338152E+04;  0.0000000E+00; -4.3484945E+00;  4.0000000E+04;  0.0000000E+00;  3.9866707E+04; -2.4592674E-03;  0.0000000E+00; -1.2517295E-02;  9.9756006E+03;
  7.2948271E-01;  9.9999998E-03; -2.6047331E-01;6842; -2.6730433E-02;  0.0000000E+00;  3.7945572E-03;  9.9841040E+02;  1.2325569E-01; -1.3169500E+03;3;  4.1459417E+00;  0.0000000E+00;  4.8361874E+00;0; -1.2025971E-02;  2.6332732E+04;  0.0000000E+00; -2.6837177E+00;  4.0000000E+04;  0.0000000E+00;  3.9869004E+04; -2.3921269E-03;  0.0000000E+00; -9.6338438E-03;  6.6516528E+03;
  7.2952962E-01;  9.9999998E-03; -2.5045350E-01;6843; -2.6930772E-02;  0.0000000E+00;  3.5451371E-03;  9.9843866E+02;  1.2325759E-01; -1.2935432E+03;3;  4.1748395E+00;  0.0000000E+00;  4.8427935E+00;0; -1.0613447E-02;  2.6331818E+04;  0.0000000E+00; -1.3548269E+00;  4.0000000E+04;  0.0000000E+00;  3.9872023E+04; -2.4264459E-03;  0.0000000E+00; -8.1870016E-03;  4.1713262E+03;
  7.2956043E-01;  9.9999998E-03; -2.4043362E-01;6844; -2.7200624E-02;  0.0000000E+00;  3.4199222E-03;  9.9849176E+02;  1.2325648E-01; -1.2495444E+03;3;  4.2141285E+00;  0.0000000E+00;  4.7847471E+00;0; -1.0643694E-02;  2.6334201E+04;  0.0000000E+00; -4.3749344E-01;  4.0000000E+04;  0.0000000E+00;  3.9873832E+04; -2.5754964E-03;  0.0000000E+00; -8.0681974E-03;  2.7616199E+03;
  7.2957122E-01;  9.9999998E-03; -2.3042756E-01;6845; -2.7633090E-02;  0.0000000E+00;  3.5010607E-03;  9.9853052E+02;  1.2324951E-01; -1.2174465E+03;3;  4.2736077E+00;  0.0000000E+00;  4.6695690E+00;0; -1.1652453E-02;  2.6340646E+04;  0.0000000E+00;  1.3319206E-01;  4.0000000E+04;  0.0000000E+00;  3.9871223E+04; -2.8550385E-03;  0.0000000E+00; -8.7974146E-03;  1.8591306E+03;
  7.2955191E-01;  9.9999998E-03; -2.2045720E-01;6846; -2.8144658E-02;  0.0000000E+00;  3.6468219E-03;  9.9855975E+02;  1.2323256E-01; -1.1932003E+03;3;  4.4660096E+00;  0.0000000E+00;  4.3809552E+00;0; -1.2668177E-02;  2.6353010E+04;  0.0000000E+00;  4.6064398E-01;  4.0000000E+04;  0.0000000E+00;  3.9864609E+04; -3.2519242E-03;  0.0000000E+00; -9.4162524E-03;  9.6774286E+02;
  7.2951061E-01;  9.9999998E-03; -2.1049896E-01;6847; -2.8578719E-02;  0.0000000E+00;  3.6430825E-03;  9.9866040E+02;  1.2320580E-01; -1.1098447E+03;3;  4.7406049E+00;  0.0000000E+00;  4.0937977E+00;0; -1.3431171E-02;  2.6370174E+04;  0.0000000E+00;  6.3275689E-01;  4.0000000E+04;  0.0000000E+00;  3.9861719E+04; -3.7355206E-03;  0.0000000E+00; -9.6956501E-03;  8.3505139E+02;
  7.2944242E-01;  9.9999998E-03; -2.0052236E-01;6848; -2.8975381E-02;  0.0000000E+00;  3.5868888E-03;  9.9880988E+02;  1.2316874E-01; -9.8599646E+02;3;  5.0655065E+00;  0.0000000E+00;  3.8021717E+00;0; -1.4391849E-02;  2.6391918E+04;  0.0000000E+00;  7.1280706E-01;  4.0000000E+04;  0.0000000E+00;  3.9862277E+04; -4.3178718E-03;  0.0000000E+00; -1.0073978E-02;  1.0548363E+03;
  7.2934890E-01;  9.9999998E-03; -1.9052023E-01;6849; -2.9328952E-02;  0.0000000E+00;  3.5039005E-03;  9.9895465E+02;  1.2312239E-01; -8.6604926E+02;3;  5.4332199E+00;  0.0000000E+00;  3.4865818E+00;0; -1.5604888E-02;  2.6417342E+04;  0.0000000E+00;  7.4139053E-01;  4.0000000E+04;  0.0000000E+00;  3.9863246E+04; -5.0018998E-03;  0.0000000E+00; -1.0602988E-02;  1.2097965E+03;
  7.2926396E-01;  9.9999998E-03; -1.8050723E-01;6850; -2.9648082E-02;  0.0000000E+00;  3.4028641E-03;  9.9905334E+02;  1.2307657E-01; -7.8427380E+02;3;  5.6698279E+00;  0.0000000E+00;  3.3191972E+00;0; -1.7032081E-02;  2.6441434E+04;  0.0000000E+00;  7.4295861E-01;  4.0000000E+04;  0.0000000E+00;  3.9862711E+04; -5.7780566E-03;  0.0000000E+00; -1.1254025E-02;  1.2246649E+03;
  7.2920740E-01;  9.9999998E-03; -1.7048836E-01;6851; -2.9942248E-02;  0.0000000E+00;  3.2895198E-03;  9.9908868E+02;  1.2303524E-01; -7.5499072E+02;3;  5.8670192E+00;  0.0000000E+00;  3.1931481E+00;0; -1.8619712E-02;  2.6460605E+04;  0.0000000E+00;  7.3206669E-01;  4.0000000E+04;  0.0000000E+00;  3.9860891E+04; -6.6364468E-03;  0.0000000E+00; -1.1983265E-02;  1.1834652E+03;
  7.2919112E-01;  9.9999998E-03; -1.6046743E-01;6852; -3.0214375E-02;  0.0000000E+00;  3.1645498E-03;  9.9905902E+02;  1.2300454E-01; -7.7958258E+02;3;  6.0378871E+00;  0.0000000E+00;  3.0870903E+00;0; -2.0303722E-02;  2.6472414E+04;  0.0000000E+00;  7.1789849E-01;  4.0000000E+04;  0.0000000E+00;  3.9858270E+04; -7.5623109E-03;  0.0000000E+00; -1.2741411E-02;  1.1933533E+03;
  7.2921330E-01;  9.9999998E-03; -1.5044767E-01;6853; -3.0466238E-02;  0.0000000E+00;  3.0276428E-03;  9.9897015E+02;  1.2298506E-01; -8.5321014E+02;3;  6.2054176E+00;  0.0000000E+00;  2.9694560E+00;0; -2.2026170E-02;  2.6476664E+04;  0.0000000E+00;  7.0579892E-01;  4.0000000E+04;  0.0000000E+00;  3.9855703E+04; -8.5425526E-03;  0.0000000E+00; -1.3483617E-02;  1.2970641E+03;
  7.2926509E-01;  9.9999998E-03; -1.4042807E-01;6854; -3.0697960E-02;  0.0000000E+00;  2.8779120E-03;  9.9882373E+02;  1.2297354E-01; -9.7453998E+02;3;  6.3948956E+00;  0.0000000E+00;  2.8455982E+00;0; -2.3738906E-02;  2.6474215E+04;  0.0000000E+00;  6.9613087E-01;  4.0000000E+04;  0.0000000E+00;  3.9853230E+04; -9.5649408E-03;  0.0000000E+00; -1.4173965E-02;  1.4528016E+03;
  7.2933519E-01;  9.9999998E-03; -1.3040763E-01;6855; -3.0911408E-02;  0.0000000E+00;  2.7155518E-03;  9.9863556E+02;  1.2296849E-01; -1.1304368E+03;3;  6.5769606E+00;  0.0000000E+00;  2.7058098E+00;0; -2.5406029E-02;  2.6466623E+04;  0.0000000E+00;  6.8385267E-01;  4.0000000E+04;  0.0000000E+00;  3.9851430E+04; -1.0616519E-02;  0.0000000E+00; -1.4789510E-02;  1.5982052E+03;
  7.2941107E-01;  9.9999998E-03; -1.2038486E-01;6856; -3.1105714E-02;  0.0000000E+00;  2.5421008E-03;  9.9841797E+02;  1.2296769E-01; -1.3106785E+03;3;  6.7678323E+00;  0.0000000E+00;  2.5588217E+00;0; -2.7003568E-02;  2.6455885E+04;  0.0000000E+00;  6.6175711E-01;  4.0000000E+04;  0.0000000E+00;  3.9849828E+04; -1.1682817E-02;  0.0000000E+00; -1.5320752E-02;  1.6952797E+03;
  7.2948253E-01;  9.9999998E-03; -1.1036014E-01;6857; -3.1282324E-02;  0.0000000E+00;  2.3590694E-03;  9.9819415E+02;  1.2296795E-01; -1.4961052E+03;3;  6.9673047E+00;  0.0000000E+00;  2.3978446E+00;0; -2.8515082E-02;  2.6443824E+04;  0.0000000E+00;  6.2396204E-01;  4.0000000E+04;  0.0000000E+00;  3.9848918E+04; -1.2747201E-02;  0.0000000E+00; -1.5767882E-02;  1.7314181E+03;
  7.4140507E-01;  9.9999998E-03; -2.7055040E-01;6902; -2.6756238E-02;  0.0000000E+00;  3.8893719E-03;  9.9755347E+02;  1.2709929E-01; -2.0269047E+03;3;  4.1355662E+00;  0.0000000E+00;  4.8986278E+00;0; -1.0481359E-02;  2.4734213E+04;  0.0000000E+00; -2.0878356E+00;  4.0000000E+04;  0.0000000E+00;  3.9856836E+04;  2.5104184E-03;  0.0000000E+00; -1.2991777E-02;  5.9062637E+03;
  7.4143320E-01;  9.9999998E-03; -2.6052725E-01;6903; -2.6913567E-02;  0.0000000E+00;  3.5857388E-03;  9.9762445E+02;  1.2709917E-01; -1.9680916E+03;3;  4.1890459E+00;  0.0000000E+00;  4.9524179E+00;0; -7.0409095E-03;  2.4735844E+04;  0.0000000E+00; -1.5372311E+00;  4.0000000E+04;  0.0000000E+00;  3.9859223E+04;  2.8146524E-03;  0.0000000E+00; -9.8555619E-03;  5.0811680E+03;
  7.4147278E-01;  9.9999998E-03; -2.5049889E-01;6904; -2.7107343E-02;  0.0000000E+00;  3.3499743E-03;  9.9771564E+02;  1.2709978E-01; -1.8925382E+03;3;  4.2517838E+00;  0.0000000E+00;  4.9304709E+00;0; -5.3036194E-03;  2.4738975E+04;  0.0000000E+00; -9.2087072E-01;  4.0000000E+04;  0.0000000E+00;  3.9862230E+04;  3.0051803E-03;  0.0000000E+00; -8.3087999E-03;  4.3864185E+03;
  7.4150240E-01;  9.9999998E-03; -2.4046336E-01;6905; -2.7387384E-02;  0.0000000E+00;  3.2395869E-03;  9.9783075E+02;  1.2709661E-01; -1.7971830E+03;3;  4.3061719E+00;  0.0000000E+00;  4.8840466E+00;0; -5.0118025E-03;  2.4745404E+04;  0.0000000E+00; -3.8099641E-01;  4.0000000E+04;  0.0000000E+00;  3.9864832E+04;  3.0596007E-03;  0.0000000E+00; -8.0714030E-03;  4.0392363E+03;
  7.4153340E-01;  9.9999998E-03; -2.3043181E-01;6906; -2.7875062E-02;  0.0000000E+00;  3.3998769E-03;  9.9793091E+02;  1.2709397E-01; -1.7142223E+03;3;  4.3377900E+00;  0.0000000E+00;  4.8128653E+00;0; -5.9058936E-03;  2.4752932E+04;  0.0000000E+00;  2.3159578E-02;  4.0000000E+04;  0.0000000E+00;  3.9863250E+04;  2.9727106E-03;  0.0000000E+00; -8.8786045E-03;  3.5240066E+03;
  7.4155307E-01;  9.9999998E-03; -2.2043183E-01;6907; -2.8425671E-02;  0.0000000E+00;  3.6338272E-03;  9.9799475E+02;  1.2708713E-01; -1.6612856E+03;3;  4.5624566E+00;  0.0000000E+00;  4.4968085E+00;0; -6.7315651E-03;  2.4763756E+04;  0.0000000E+00;  2.9146367E-01;  4.0000000E+04;  0.0000000E+00;  3.9855188E+04;  2.7416777E-03;  0.0000000E+00; -9.4732428E-03;  2.4317446E+03;
  7.4154615E-01;  9.9999998E-03; -2.1045740E-01;6908; -2.8882930E-02;  0.0000000E+00;  3.6808716E-03;  9.9809009E+02;  1.2706958E-01; -1.5823250E+03;3;  4.9132800E+00;  0.0000000E+00;  4.1203685E+00;0; -7.2512049E-03;  2.4779303E+04;  0.0000000E+00;  4.5227194E-01;  4.0000000E+04;  0.0000000E+00;  3.9847887E+04;  2.3638159E-03;  0.0000000E+00; -9.6150208E-03;  1.5169381E+03;
  7.4152517E-01;  9.9999998E-03; -2.0048818E-01;6909; -2.9270628E-02;  0.0000000E+00;  3.6123665E-03;  9.9824200E+02;  1.2704642E-01; -1.4564520E+03;3;  5.3370848E+00;  0.0000000E+00;  3.7437224E+00;0; -7.9862010E-03;  2.4797850E+04;  0.0000000E+00;  5.3707707E-01;  4.0000000E+04;  0.0000000E+00;  3.9844023E+04;  1.8365167E-03;  0.0000000E+00; -9.8227179E-03;  1.0812666E+03;
  7.4147844E-01;  9.9999998E-03; -1.9050604E-01;6910; -2.9622409E-02;  0.0000000E+00;  3.5058891E-03;  9.9840649E+02;  1.2701201E-01; -1.3202090E+03;3;  5.6252499E+00;  0.0000000E+00;  3.5390437E+00;0; -9.0935137E-03;  2.4820145E+04;  0.0000000E+00;  5.7362503E-01;  4.0000000E+04;  0.0000000E+00;  3.9841844E+04;  1.1341247E-03;  0.0000000E+00; -1.0227638E-02;  9.3670441E+02;
  7.4141604E-01;  9.9999998E-03; -1.8050648E-01;6911; -2.9947536E-02;  0.0000000E+00;  3.3854244E-03;  9.9855139E+02;  1.2696826E-01; -1.2001631E+03;3;  5.8574061E+00;  0.0000000E+00;  3.3851080E+00;0; -1.0541256E-02;  2.4844381E+04;  0.0000000E+00;  5.8490258E-01;  4.0000000E+04;  0.0000000E+00;  3.9839996E+04;  2.5024512E-04;  0.0000000E+00; -1.0791501E-02;  8.7053052E+02;
  7.4137580E-01;  9.9999998E-03; -1.7050190E-01;6912; -3.0246103E-02;  0.0000000E+00;  3.2538620E-03;  9.9865692E+02;  1.2692876E-01; -1.1127087E+03;3;  6.0630136E+00;  0.0000000E+00;  3.2784424E+00;0; -1.2239767E-02;  2.4865211E+04;  0.0000000E+00;  5.8848464E-01;  4.0000000E+04;  0.0000000E+00;  3.9837824E+04; -7.9506065E-04;  0.0000000E+00; -1.1444706E-02;  8.7934540E+02;
  7.4135703E-01;  9.9999998E-03; -1.6049246E-01;6913; -3.0520897E-02;  0.0000000E+00;  3.1121895E-03;  9.9869897E+02;  1.2689398E-01; -1.0778949E+03;3;  6.2500110E+00;  0.0000000E+00;  3.1679757E+00;0; -1.4121626E-02;  2.4881430E+04;  0.0000000E+00;  5.9686911E-01;  4.0000000E+04;  0.0000000E+00;  3.9835211E+04; -1.9961877E-03;  0.0000000E+00; -1.2125438E-02;  1.0266493E+03;
  7.4136108E-01;  9.9999998E-03; -1.5047830E-01;6914; -3.0772684E-02;  0.0000000E+00;  2.9584172E-03;  9.9868744E+02;  1.2686396E-01; -1.0874255E+03;3;  6.4304519E+00;  0.0000000E+00;  3.0412948E+00;0; -1.6114376E-02;  2.4892564E+04;  0.0000000E+00;  6.1585224E-01;  4.0000000E+04;  0.0000000E+00;  3.9832812E+04; -3.3333306E-03;  0.0000000E+00; -1.2781045E-02;  1.2730833E+03;
  7.4139065E-01;  9.9999998E-03; -1.4045849E-01;6915; -3.1002814E-02;  0.0000000E+00;  2.7928951E-03;  9.9862201E+02;  1.2684186E-01; -1.1416462E+03;3;  6.6317277E+00;  0.0000000E+00;  2.9071147E+00;0; -1.8150587E-02;  2.4897842E+04;  0.0000000E+00;  6.4346534E-01;  4.0000000E+04;  0.0000000E+00;  3.9830812E+04; -4.7784168E-03;  0.0000000E+00; -1.3372171E-02;  1.5343448E+03;
  7.4144232E-01;  9.9999998E-03; -1.3043211E-01;6916; -3.1213660E-02;  0.0000000E+00;  2.6160611E-03;  9.9851422E+02;  1.2682652E-01; -1.2309276E+03;3;  6.8399434E+00;  0.0000000E+00;  2.7561111E+00;0; -2.0178465E-02;  2.4897730E+04;  0.0000000E+00;  6.7060643E-01;  4.0000000E+04;  0.0000000E+00;  3.9829469E+04; -6.3023604E-03;  0.0000000E+00; -1.3876105E-02;  1.7493107E+03;
  7.4150819E-01;  9.9999998E-03; -1.2040187E-01;6917; -3.1405546E-02;  0.0000000E+00;  2.4313037E-03;  9.9838367E+02;  1.2681894E-01; -1.3391221E+03;3;  7.0382652E+00;  0.0000000E+00;  2.6138229E+00;0; -2.2160610E-02;  2.4893453E+04;  0.0000000E+00;  6.8447113E-01;  4.0000000E+04;  0.0000000E+00;  3.9828586E+04; -7.8746993E-03;  0.0000000E+00; -1.4285911E-02;  1.8851498E+03;
  7.4157971E-01;  9.9999998E-03; -1.1036988E-01;6918; -3.1580392E-02;  0.0000000E+00;  2.2404864E-03;  9.9824536E+02;  1.2681650E-01; -1.4536866E+03;3;  7.2710891E+00;  0.0000000E+00;  2.4512403E+00;0; -2.4069563E-02;  2.4886547E+04;  0.0000000E+00;  6.7404872E-01;  4.0000000E+04;  0.0000000E+00;  3.9828031E+04; -9.4636092E-03;  0.0000000E+00; -1.4605954E-02;  1.9294690E+03;
  7.5413245E-01;  9.9999998E-03; -2.7061477E-01;6963; -2.7033387E-02;  0.0000000E+00;  3.6262535E-03;  9.9662744E+02;  1.3134730E-01; -2.7940923E+03;3;  4.1505227E+00;  0.0000000E+00;  4.9602914E+00;0; -5.2499212E-04;  2.3127061E+04;  0.0000000E+00;  9.9785346E-01;  4.0000000E+04;  0.0000000E+00;  3.9846395E+04;  1.4009617E-02;  0.0000000E+00; -1.4534609E-02;  4.7272671E+03;
  7.5432569E-01;  9.9999998E-03; -2.6058671E-01;6964; -2.7159031E-02;  0.0000000E+00;  3.3124851E-03;  9.9680450E+02;  1.3139151E-01; -2.6474299E+03;3;  4.2449040E+00;  0.0000000E+00;  4.9912810E+00;0;  3.5526147E-03;  2.3118836E+04;  0.0000000E+00;  1.0591354E-01;  4.0000000E+04;  0.0000000E+00;  3.9847961E+04;  1.4602052E-02;  0.0000000E+00; -1.1049437E-02;  4.4896343E+03;
  7.5456488E-01;  9.9999998E-03; -2.5055197E-01;6965; -2.7355038E-02;  0.0000000E+00;  3.1191648E-03;  9.9699927E+02;  1.3144511E-01; -2.4860520E+03;3;  4.3346171E+00;  0.0000000E+00;  4.9688864E+00;0;  5.5834735E-03;  2.3109031E+04;  0.0000000E+00; -2.3272152E-01;  4.0000000E+04;  0.0000000E+00;  3.9849672E+04;  1.5099583E-02;  0.0000000E+00; -9.5161097E-03;  4.8420776E+03;
  7.5469983E-01;  9.9999998E-03; -2.4050710E-01;6966; -2.7698068E-02;  0.0000000E+00;  3.1207444E-03;  9.9719141E+02;  1.3146858E-01; -2.3268467E+03;3;  4.3502402E+00;  0.0000000E+00;  4.9906068E+00;0;  5.9011905E-03;  2.3110676E+04;  0.0000000E+00; -2.1768013E-01;  4.0000000E+04;  0.0000000E+00;  3.9850602E+04;  1.5305099E-02;  0.0000000E+00; -9.4039086E-03;  4.9723276E+03;
  7.5470269E-01;  9.9999998E-03; -2.3045856E-01;6967; -2.8231684E-02;  0.0000000E+00;  3.3753118E-03;  9.9734631E+02;  1.3145687E-01; -2.1985046E+03;3;  4.4164701E+00;  0.0000000E+00;  4.9166193E+00;0;  5.1935585E-03;  2.3124721E+04;  0.0000000E+00; -7.1178511E-02;  4.0000000E+04;  0.0000000E+00;  3.9847902E+04;  1.5172303E-02;  0.0000000E+00; -9.9787442E-03;  4.5490615E+03;
  7.5465357E-01;  9.9999998E-03; -2.2043028E-01;6968; -2.8788112E-02;  0.0000000E+00;  3.6369995E-03;  9.9745270E+02;  1.3142803E-01; -2.1104084E+03;3;  4.6993618E+00;  0.0000000E+00;  4.5465813E+00;0;  4.6705194E-03;  2.3145549E+04;  0.0000000E+00;  8.6561278E-02;  4.0000000E+04;  0.0000000E+00;  3.9839047E+04;  1.4780090E-02;  0.0000000E+00; -1.0109571E-02;  3.3939600E+03;
  7.5457549E-01;  9.9999998E-03; -2.1042563E-01;6969; -2.9238502E-02;  0.0000000E+00;  3.6800546E-03;  9.9756616E+02;  1.3138728E-01; -2.0163865E+03;3;  5.1441627E+00;  0.0000000E+00;  4.0911932E+00;0;  4.3157022E-03;  2.3171021E+04;  0.0000000E+00;  2.0583674E-01;  4.0000000E+04;  0.0000000E+00;  3.9829828E+04;  1.4140741E-02;  0.0000000E+00; -9.8250387E-03;  2.1532874E+03;
  7.5447661E-01;  9.9999998E-03; -2.0043673E-01;6970; -2.9621199E-02;  0.0000000E+00;  3.5971873E-03;  9.9771161E+02;  1.3133949E-01; -1.8958961E+03;3;  5.5309248E+00;  0.0000000E+00;  3.7789996E+00;0;  3.5574343E-03;  2.3199646E+04;  0.0000000E+00;  2.7442095E-01;  4.0000000E+04;  0.0000000E+00;  3.9822699E+04;  1.3250642E-02;  0.0000000E+00; -9.6932072E-03;  1.1949395E+03;
  7.5435722E-01;  9.9999998E-03; -1.9045243E-01;6971; -2.9969444E-02;  0.0000000E+00;  3.4732937E-03;  9.9788330E+02;  1.3128249E-01; -1.7536285E+03;3;  5.8026752E+00;  0.0000000E+00;  3.6052885E+00;0;  2.2646161E-03;  2.3230369E+04;  0.0000000E+00;  3.0104330E-01;  4.0000000E+04;  0.0000000E+00;  3.9817891E+04;  1.2097829E-02;  0.0000000E+00; -9.8332129E-03;  5.4404376E+02;
  7.5423276E-01;  9.9999998E-03; -1.8046227E-01;6972; -3.0288409E-02;  0.0000000E+00;  3.3318817E-03;  9.9804187E+02;  1.3122162E-01; -1.6222743E+03;3;  6.0456114E+00;  0.0000000E+00;  3.4501107E+00;0;  5.1061064E-04;  2.3261074E+04;  0.0000000E+00;  3.0447719E-01;  4.0000000E+04;  0.0000000E+00;  3.9814598E+04;  1.0687720E-02;  0.0000000E+00; -1.0177109E-02;  1.6746375E+02;
  7.5412774E-01;  9.9999998E-03; -1.7046860E-01;6973; -3.0579699E-02;  0.0000000E+00;  3.1780691E-03;  9.9817535E+02;  1.3116391E-01; -1.5116602E+03;3;  6.2839103E+00;  0.0000000E+00;  3.3224924E+00;0; -1.5964760E-03;  2.3288535E+04;  0.0000000E+00;  3.0564150E-01;  4.0000000E+04;  0.0000000E+00;  3.9811945E+04;  9.0394998E-03;  0.0000000E+00; -1.0635976E-02;  4.2145026E+02;
  7.5406116E-01;  9.9999998E-03; -1.6046971E-01;6974; -3.0847572E-02;  0.0000000E+00;  3.0152190E-03;  9.9827002E+02;  1.3111445E-01; -1.4332427E+03;3;  6.4826155E+00;  0.0000000E+00;  3.2261457E+00;0; -3.9563044E-03;  2.3310488E+04;  0.0000000E+00;  3.2110921E-01;  4.0000000E+04;  0.0000000E+00;  3.9809590E+04;  7.1758186E-03;  0.0000000E+00; -1.1132123E-02;  7.9432269E+02;
  7.5407344E-01;  9.9999998E-03; -1.5046279E-01;6975; -3.1092906E-02;  0.0000000E+00;  2.8410568E-03;  9.9833289E+02;  1.3108554E-01; -1.3811948E+03;3;  6.6869745E+00;  0.0000000E+00;  3.0908945E+00;0; -6.4504766E-03;  2.3322918E+04;  0.0000000E+00;  3.5793296E-01;  4.0000000E+04;  0.0000000E+00;  3.9807523E+04;  5.1494227E-03;  0.0000000E+00; -1.1599899E-02;  1.1436647E+03;
  7.5414944E-01;  9.9999998E-03; -1.4045006E-01;6976; -3.1316340E-02;  0.0000000E+00;  2.6548824E-03;  9.9836792E+02;  1.3107625E-01; -1.3521586E+03;3;  6.9106035E+00;  0.0000000E+00;  2.9379003E+00;0; -9.0183783E-03;  2.3327049E+04;  0.0000000E+00;  4.1343525E-01;  4.0000000E+04;  0.0000000E+00;  3.9806051E+04;  2.9783018E-03;  0.0000000E+00; -1.1996680E-02;  1.4417858E+03;
  7.5424898E-01;  9.9999998E-03; -1.3043329E-01;6977; -3.1521615E-02;  0.0000000E+00;  2.4607007E-03;  9.9837543E+02;  1.3107230E-01; -1.3459365E+03;3;  7.1389751E+00;  0.0000000E+00;  2.8036978E+00;0; -1.1627644E-02;  2.3326707E+04;  0.0000000E+00;  4.7601962E-01;  4.0000000E+04;  0.0000000E+00;  3.9805348E+04;  6.7744893E-04;  0.0000000E+00; -1.2305093E-02;  1.6702482E+03;
  7.5436121E-01;  9.9999998E-03; -1.2041368E-01;6978; -3.1710152E-02;  0.0000000E+00;  2.2628079E-03;  9.9836005E+02;  1.3107395E-01; -1.3586769E+03;3;  7.3415956E+00;  0.0000000E+00;  2.6487381E+00;0; -1.4228395E-02;  2.3322963E+04;  0.0000000E+00;  5.2807510E-01;  4.0000000E+04;  0.0000000E+00;  3.9805266E+04; -1.7058412E-03;  0.0000000E+00; -1.2522554E-02;  1.8139368E+03;
  7.5447357E-01;  9.9999998E-03; -1.1038990E-01;6979; -3.1880837E-02;  0.0000000E+00;  2.0636038E-03;  9.9833929E+02;  1.3107868E-01; -1.3758617E+03;3;  7.5887599E+00;  0.0000000E+00;  2.4740131E+00;0; -1.6781066E-02;  2.3317447E+04;  0.0000000E+00;  5.5359542E-01;  4.0000000E+04;  0.0000000E+00;  3.9805633E+04; -4.1218447E-03;  0.0000000E+00; -1.2659221E-02;  1.8616158E+03;
  7.6795828E-01;  9.9999998E-03; -2.7069709E-01;7024; -2.7348679E-02;  0.0000000E+00;  3.2615713E-03;  9.9645929E+02;  1.3612583E-01; -2.9333967E+03;3;  4.1693821E+00;  0.0000000E+00;  4.9179654E+00;0;  1.8053195E-02;  2.1534354E+04;  0.0000000E+00;  2.3767095E+00;  4.0000000E+04;  0.0000000E+00;  3.9825840E+04;  3.5679668E-02;  0.0000000E+00; -1.7626474E-02;  8.0903486E+03;
  7.6816165E-01;  9.9999998E-03; -2.6066747E-01;7025; -2.7442118E-02;  0.0000000E+00;  2.9581520E-03;  9.9672919E+02;  1.3617751E-01; -2.7097983E+03;3;  4.3079801E+00;  0.0000000E+00;  4.9370136E+00;0;  2.2318017E-02;  2.1529795E+04;  0.0000000E+00;  7.4372369E-01;  4.0000000E+04;  0.0000000E+00;  3.9826547E+04;  3.6161691E-02;  0.0000000E+00; -1.3843673E-02;  5.2991875E+03;
  7.6844609E-01;  9.9999998E-03; -2.5063434E-01;7026; -2.7681036E-02;  0.0000000E+00;  2.9034633E-03;  9.9701221E+02;  1.3625185E-01; -2.4753359E+03;3;  4.3460965E+00;  0.0000000E+00;  4.9992223E+00;0;  2.3877714E-02;  2.1519928E+04;  0.0000000E+00; -6.2608011E-02;  4.0000000E+04;  0.0000000E+00;  3.9825293E+04;  3.6606029E-02;  0.0000000E+00; -1.2728315E-02;  4.7421079E+03;
  7.6860243E-01;  9.9999998E-03; -2.4059367E-01;7027; -2.8117090E-02;  0.0000000E+00;  3.0911975E-03;  9.9724249E+02;  1.3629137E-01; -2.2845266E+03;3;  4.3714008E+00;  0.0000000E+00;  5.0629716E+00;0;  2.3925442E-02;  2.1520424E+04;  0.0000000E+00; -2.7698985E-01;  4.0000000E+04;  0.0000000E+00;  3.9823074E+04;  3.6582794E-02;  0.0000000E+00; -1.2657353E-02;  4.5911406E+03;
  7.6859790E-01;  9.9999998E-03; -2.3054241E-01;7028; -2.8642870E-02;  0.0000000E+00;  3.3329532E-03;  9.9743573E+02;  1.3628122E-01; -2.1244324E+03;3;  4.4881663E+00;  0.0000000E+00;  4.9598889E+00;0;  2.3823030E-02;  2.1535438E+04;  0.0000000E+00; -2.2764687E-01;  4.0000000E+04;  0.0000000E+00;  3.9819871E+04;  3.5989646E-02;  0.0000000E+00; -1.2166616E-02;  4.2056206E+03;
  7.6851451E-01;  9.9999998E-03; -2.2048862E-01;7029; -2.9161889E-02;  0.0000000E+00;  3.5121564E-03;  9.9759235E+02;  1.3624436E-01; -1.9947078E+03;3;  4.7907610E+00;  0.0000000E+00;  4.6474524E+00;0;  2.3670416E-02;  2.1559088E+04;  0.0000000E+00; -1.1037301E-01;  4.0000000E+04;  0.0000000E+00;  3.9813918E+04;  3.4946430E-02;  0.0000000E+00; -1.1276015E-02;  3.4094841E+03;
  7.6837581E-01;  9.9999998E-03; -2.1044575E-01;7030; -2.9616870E-02;  0.0000000E+00;  3.5529851E-03;  9.9772290E+02;  1.3618807E-01; -1.8865134E+03;3;  5.2526855E+00;  0.0000000E+00;  4.2291331E+00;0;  2.3145128E-02;  2.1588941E+04;  0.0000000E+00; -1.4528528E-02;  4.0000000E+04;  0.0000000E+00;  3.9805805E+04;  3.3473071E-02;  0.0000000E+00; -1.0327944E-02;  2.3296797E+03;
  7.6823604E-01;  9.9999998E-03; -2.0042109E-01;7031; -2.9998582E-02;  0.0000000E+00;  3.4761738E-03;  9.9785193E+02;  1.3612954E-01; -1.7796523E+03;3;  5.6602812E+00;  0.0000000E+00;  3.9063907E+00;0;  2.2010364E-02;  2.1619594E+04;  0.0000000E+00;  3.0265030E-02;  4.0000000E+04;  0.0000000E+00;  3.9797598E+04;  3.1653292E-02;  0.0000000E+00; -9.6429298E-03;  1.3001318E+03;
  7.6810050E-01;  9.9999998E-03; -1.9041207E-01;7032; -3.0336030E-02;  0.0000000E+00;  3.3463680E-03;  9.9799646E+02;  1.3606837E-01; -1.6599027E+03;3;  5.9666238E+00;  0.0000000E+00;  3.7139904E+00;0;  2.0197000E-02;  2.1650102E+04;  0.0000000E+00;  2.7923500E-02;  4.0000000E+04;  0.0000000E+00;  3.9790992E+04;  2.9495310E-02;  0.0000000E+00; -9.2983106E-03;  6.6224182E+02;
  7.6797831E-01;  9.9999998E-03; -1.8040352E-01;7033; -3.0641383E-02;  0.0000000E+00;  3.1925254E-03;  9.9814203E+02;  1.3600737E-01; -1.5393136E+03;3;  6.2376337E+00;  0.0000000E+00;  3.5688338E+00;0;  1.7795775E-02;  2.1678805E+04;  0.0000000E+00; -7.3772558E-04;  4.0000000E+04;  0.0000000E+00;  3.9786453E+04;  2.7010141E-02;  0.0000000E+00; -9.2143659E-03;  7.0930157E+02;
  7.6789600E-01;  9.9999998E-03; -1.7039189E-01;7034; -3.0920824E-02;  0.0000000E+00;  3.0215972E-03;  9.9827454E+02;  1.3595594E-01; -1.4294896E+03;3;  6.4968143E+00;  0.0000000E+00;  3.4237156E+00;0;  1.4952416E-02;  2.1702816E+04;  0.0000000E+00; -2.9097404E-02;  4.0000000E+04;  0.0000000E+00;  3.9782926E+04;  2.4238013E-02;  0.0000000E+00; -9.2855971E-03;  1.0094852E+03;
  7.6788199E-01;  9.9999998E-03; -1.6037108E-01;7035; -3.1175038E-02;  0.0000000E+00;  2.8343676E-03;  9.9839600E+02;  1.3592215E-01; -1.3288999E+03;3;  6.7170353E+00;  0.0000000E+00;  3.2679777E+00;0;  1.1800950E-02;  2.1719078E+04;  0.0000000E+00; -3.5125457E-02;  4.0000000E+04;  0.0000000E+00;  3.9780766E+04;  2.1219140E-02;  0.0000000E+00; -9.4181895E-03;  1.2602731E+03;
  7.6787746E-01;  9.9999998E-03; -1.5034814E-01;7036; -3.1403132E-02;  0.0000000E+00;  2.6376864E-03;  9.9848151E+02;  1.3588914E-01; -1.2580377E+03;3;  6.9397531E+00;  0.0000000E+00;  3.1529589E+00;0;  8.3601810E-03;  2.1732623E+04;  0.0000000E+00; -6.6889240E-03;  4.0000000E+04;  0.0000000E+00;  3.9779211E+04;  1.7913127E-02;  0.0000000E+00; -9.5529463E-03;  1.4205242E+03;
  7.6787990E-01;  9.9999998E-03; -1.4032125E-01;7037; -3.1611241E-02;  0.0000000E+00;  2.4365224E-03;  9.9854132E+02;  1.3585576E-01; -1.2085083E+03;3;  7.1673288E+00;  0.0000000E+00;  3.0220962E+00;0;  4.7289329E-03;  2.1743732E+04;  0.0000000E+00;  5.4535460E-02;  4.0000000E+04;  0.0000000E+00;  3.9778691E+04;  1.4379003E-02;  0.0000000E+00; -9.6500702E-03;  1.5011307E+03;
  7.6790965E-01;  9.9999998E-03; -1.3029079E-01;7038; -3.1802963E-02;  0.0000000E+00;  2.2296659E-03;  9.9858490E+02;  1.3582963E-01; -1.1723612E+03;3;  7.4611840E+00;  0.0000000E+00;  2.8597283E+00;0;  1.0255435E-03;  2.1750756E+04;  0.0000000E+00;  1.3435233E-01;  4.0000000E+04;  0.0000000E+00;  3.9779070E+04;  1.0712611E-02;  0.0000000E+00; -9.6870679E-03;  1.5268502E+03;
  7.6805216E-01;  9.9999998E-03; -1.2025574E-01;7039; -3.1985018E-02;  0.0000000E+00;  2.0189222E-03;  9.9866321E+02;  1.3584030E-01; -1.1075236E+03;3;  7.6922994E+00;  0.0000000E+00;  2.6655066E+00;0; -2.5886525E-03;  2.1746166E+04;  0.0000000E+00;  2.1020170E-01;  4.0000000E+04;  0.0000000E+00;  3.9780113E+04;  7.0513026E-03;  0.0000000E+00; -9.6399551E-03;  1.5113876E+03;
  7.6824909E-01;  9.9999998E-03; -1.1021666E-01;7040; -3.2151926E-02;  0.0000000E+00;  1.8113883E-03;  9.9874951E+02;  1.3587174E-01; -1.0360194E+03;3;  7.9831967E+00;  0.0000000E+00;  2.4743872E+00;0; -6.1203167E-03;  2.1735330E+04;  0.0000000E+00;  2.6393521E-01;  4.0000000E+04;  0.0000000E+00;  3.9781473E+04;  3.4094639E-03;  0.0000000E+00; -9.5297806E-03;  1.4537981E+03;
  7.8279704E-01;  9.9999998E-03; -2.7080098E-01;7085; -2.7684962E-02;  0.0000000E+00;  2.7474505E-03;  9.9728931E+02;  1.4155322E-01; -2.2457620E+03;3;  4.1753688E+00;  0.0000000E+00;  4.7111673E+00;0;  4.7978003E-02;  1.9953451E+04;  0.0000000E+00;  1.6051116E+00;  4.0000000E+04;  0.0000000E+00;  3.9791859E+04;  7.0662104E-02;  0.0000000E+00; -2.2684101E-02;  7.3186255E+03;
  7.8289735E-01;  9.9999998E-03; -2.6077390E-01;7086; -2.7760323E-02;  0.0000000E+00;  2.5085988E-03;  9.9759100E+02;  1.4157403E-01; -1.9957939E+03;3;  4.3335729E+00;  0.0000000E+00;  4.7549286E+00;0;  5.1240735E-02;  1.9960506E+04;  0.0000000E+00;  2.3587991E-01;  4.0000000E+04;  0.0000000E+00;  3.9791570E+04;  7.0169292E-02;  0.0000000E+00; -1.8928556E-02;  4.1435981E+03;
  7.8313887E-01;  9.9999998E-03; -2.5075048E-01;7087; -2.8120873E-02;  0.0000000E+00;  2.7581735E-03;  9.9788751E+02;  1.4163868E-01; -1.7501714E+03;3;  4.3449931E+00;  0.0000000E+00;  4.9407001E+00;0;  5.0856516E-02;  1.9957412E+04;  0.0000000E+00; -3.7335747E-01;  4.0000000E+04;  0.0000000E+00;  3.9786801E+04;  6.9832973E-02;  0.0000000E+00; -1.8976456E-02;  3.2400366E+03;
  7.8330487E-01;  9.9999998E-03; -2.4072729E-01;7088; -2.8615192E-02;  0.0000000E+00;  3.0672224E-03;  9.9812964E+02;  1.4168164E-01; -1.5495353E+03;3;  4.4237461E+00;  0.0000000E+00;  4.9899635E+00;0;  5.0982431E-02;  1.9959832E+04;  0.0000000E+00; -4.5674494E-01;  4.0000000E+04;  0.0000000E+00;  3.9781055E+04;  6.8946712E-02;  0.0000000E+00; -1.7964281E-02;  2.8005022E+03;
  7.8327525E-01;  9.9999998E-03; -2.3069040E-01;7089; -2.9057477E-02;  0.0000000E+00;  3.1503092E-03;  9.9834680E+02;  1.4166144E-01; -1.3696393E+03;3;  4.5491481E+00;  0.0000000E+00;  4.9477544E+00;0;  5.1713094E-02;  1.9978211E+04;  0.0000000E+00; -3.3476087E-01;  4.0000000E+04;  0.0000000E+00;  3.9778488E+04;  6.7117773E-02;  0.0000000E+00; -1.5404681E-02;  2.5016724E+03;
  7.8312480E-01;  9.9999998E-03; -2.2062562E-01;7090; -2.9483197E-02;  0.0000000E+00;  3.1524990E-03;  9.9856006E+02;  1.4160043E-01; -1.1929530E+03;3;  4.7726789E+00;  0.0000000E+00;  4.8246799E+00;0;  5.1586367E-02;  2.0007289E+04;  0.0000000E+00; -1.9743544E-01;  4.0000000E+04;  0.0000000E+00;  3.9778027E+04;  6.4534567E-02;  0.0000000E+00; -1.2948200E-02;  2.3203179E+03;
  7.8290921E-01;  9.9999998E-03; -2.1055129E-01;7091; -2.9913334E-02;  0.0000000E+00;  3.1736149E-03;  9.9871063E+02;  1.4151695E-01; -1.0682159E+03;3;  5.1418872E+00;  0.0000000E+00;  4.5393882E+00;0;  5.0306324E-02;  2.0042330E+04;  0.0000000E+00; -1.1442821E-01;  4.0000000E+04;  0.0000000E+00;  3.9774473E+04;  6.1339445E-02;  0.0000000E+00; -1.1033121E-02;  1.8081851E+03;
  7.8269362E-01;  9.9999998E-03; -2.0049357E-01;7092; -3.0295594E-02;  0.0000000E+00;  3.1331584E-03;  9.9881641E+02;  1.4143313E-01; -9.8056415E+02;3;  5.5456357E+00;  0.0000000E+00;  4.2546239E+00;0;  4.8143398E-02;  2.0077418E+04;  0.0000000E+00; -1.0221764E-01;  4.0000000E+04;  0.0000000E+00;  3.9767938E+04;  5.7680722E-02;  0.0000000E+00; -9.5373252E-03;  1.1502073E+03;
  7.8252113E-01;  9.9999998E-03; -1.9045301E-01;7093; -3.0624429E-02;  0.0000000E+00;  3.0265937E-03;  9.9891675E+02;  1.4136027E-01; -8.9745544E+02;3;  5.9020844E+00;  0.0000000E+00;  4.0400352E+00;0;  4.5212843E-02;  2.0108250E+04;  0.0000000E+00; -1.4794843E-01;  4.0000000E+04;  0.0000000E+00;  3.9761309E+04;  5.3655367E-02;  0.0000000E+00; -8.4425267E-03;  1.0757983E+03;
  7.8240758E-01;  9.9999998E-03; -1.8041146E-01;7094; -3.0915905E-02;  0.0000000E+00;  2.8820729E-03;  9.9902319E+02;  1.4130555E-01; -8.0926044E+02;3;  6.2529140E+00;  0.0000000E+00;  3.8745341E+00;0;  4.1632384E-02;  2.0132834E+04;  0.0000000E+00; -2.2433843E-01;  4.0000000E+04;  0.0000000E+00;  3.9756184E+04;  4.9302440E-02;  0.0000000E+00; -7.6700547E-03;  1.4880936E+03;
  7.8236276E-01;  9.9999998E-03; -1.7036860E-01;7095; -3.1177688E-02;  0.0000000E+00;  2.7085182E-03;  9.9913110E+02;  1.4127007E-01; -7.1988031E+02;3;  6.5504541E+00;  0.0000000E+00;  3.6767280E+00;0;  3.7545495E-02;  2.0150070E+04;  0.0000000E+00; -3.0003518E-01;  4.0000000E+04;  0.0000000E+00;  3.9752383E+04;  4.4655159E-02;  0.0000000E+00; -7.1096630E-03;  1.8862319E+03;
  7.8236377E-01;  9.9999998E-03; -1.6032933E-01;7096; -3.1408582E-02;  0.0000000E+00;  2.5152210E-03;  9.9922534E+02;  1.4124726E-01; -6.4180853E+02;3;  6.8188748E+00;  0.0000000E+00;  3.4857476E+00;0;  3.3038635E-02;  2.0161594E+04;  0.0000000E+00; -3.4877124E-01;  4.0000000E+04;  0.0000000E+00;  3.9750109E+04;  3.9708104E-02;  0.0000000E+00; -6.6694692E-03;  2.1191626E+03;
  7.8239328E-01;  9.9999998E-03; -1.5029268E-01;7097; -3.1614475E-02;  0.0000000E+00;  2.3066110E-03;  9.9930450E+02;  1.4123185E-01; -5.7618079E+02;3;  7.1188226E+00;  0.0000000E+00;  3.3004777E+00;0;  2.8203208E-02;  2.0168680E+04;  0.0000000E+00; -3.5622761E-01;  4.0000000E+04;  0.0000000E+00;  3.9749410E+04;  3.4488861E-02;  0.0000000E+00; -6.2856530E-03;  2.1585657E+03;
  7.8243738E-01;  9.9999998E-03; -1.4024997E-01;7098; -3.1802382E-02;  0.0000000E+00;  2.0896788E-03;  9.9937189E+02;  1.4121765E-01; -5.2037994E+02;3;  7.4095459E+00;  0.0000000E+00;  3.1145220E+00;0;  2.3130059E-02;  2.0172697E+04;  0.0000000E+00; -3.2241055E-01;  4.0000000E+04;  0.0000000E+00;  3.9749719E+04;  2.9053535E-02;  0.0000000E+00; -5.9234751E-03;  2.0256215E+03;
  7.8248984E-01;  9.9999998E-03; -1.3020164E-01;7099; -3.1980325E-02;  0.0000000E+00;  1.8736731E-03;  9.9942950E+02;  1.4120556E-01; -4.7262827E+02;3;  7.7513614E+00;  0.0000000E+00;  2.9649205E+00;0;  1.7926814E-02;  2.0174562E+04;  0.0000000E+00; -2.5928578E-01;  4.0000000E+04;  0.0000000E+00;  3.9751461E+04;  2.3497315E-02;  0.0000000E+00; -5.5705011E-03;  1.7626461E+03;
  7.8254527E-01;  9.9999998E-03; -1.2015229E-01;7100; -3.2154620E-02;  0.0000000E+00;  1.6649443E-03;  9.9948859E+02;  1.4119275E-01; -4.2369141E+02;3;  8.0126362E+00;  0.0000000E+00;  2.7724545E+00;0;  1.2699310E-02;  2.0175279E+04;  0.0000000E+00; -1.8499516E-01;  4.0000000E+04;  0.0000000E+00;  3.9753770E+04;  1.7928662E-02;  0.0000000E+00; -5.2293525E-03;  1.4254967E+03;
  7.8258562E-01;  9.9999998E-03; -1.1010560E-01;7101; -3.2321092E-02;  0.0000000E+00;  1.4685456E-03;  9.9955164E+02;  1.4117579E-01; -3.7144601E+02;3;  8.3532076E+00;  0.0000000E+00;  2.5693834E+00;0;  7.5302352E-03;  2.0176523E+04;  0.0000000E+00; -1.1688941E-01;  4.0000000E+04;  0.0000000E+00;  3.9756219E+04;  1.2448397E-02;  0.0000000E+00; -4.9181613E-03;  1.0782209E+03;
  7.9841179E-01;  9.9999998E-03; -2.7091342E-01;7146; -2.7999176E-02;  0.0000000E+00;  2.0514436E-03;  9.9828412E+02;  1.4760318E-01; -1.4215881E+03;3;  4.2167168E+00;  0.0000000E+00;  4.2706981E+00;0;  8.9596517E-02;  1.8387609E+04;  0.0000000E+00;  6.0466540E-01;  4.0000000E+04;  0.0000000E+00;  3.9753504E+04;  1.1945572E-01;  0.0000000E+00; -2.9859202E-02;  5.1410771E+03;
  7.9837710E-01;  9.9999998E-03; -2.6089117E-01;7147; -2.8116336E-02;  0.0000000E+00;  2.0164053E-03;  9.9857867E+02;  1.4757507E-01; -1.1775459E+03;3;  4.3197479E+00;  0.0000000E+00;  4.4543166E+00;0;  8.9622825E-02;  1.8407086E+04;  0.0000000E+00; -2.3041858E-01;  4.0000000E+04;  0.0000000E+00;  3.9751176E+04;  1.1686031E-01;  0.0000000E+00; -2.7237479E-02;  2.3952112E+03;
  7.9844129E-01;  9.9999998E-03; -2.5087827E-01;7148; -2.8535489E-02;  0.0000000E+00;  2.4745907E-03;  9.9883331E+02;  1.4758663E-01; -9.6658905E+02;3;  4.3440394E+00;  0.0000000E+00;  4.6837831E+00;0;  8.7113172E-02;  1.8418426E+04;  0.0000000E+00; -4.9690723E-01;  4.0000000E+04;  0.0000000E+00;  3.9743562E+04;  1.1428840E-01;  0.0000000E+00; -2.7175231E-02;  1.4781487E+03;
  7.9841632E-01;  9.9999998E-03; -2.4087548E-01;7149; -2.8994020E-02;  0.0000000E+00;  2.7707352E-03;  9.9903247E+02;  1.4756992E-01; -8.0155682E+02;3;  4.4205585E+00;  0.0000000E+00;  4.8277311E+00;0;  8.6829573E-02;  1.8436018E+04;  0.0000000E+00; -4.3494385E-01;  4.0000000E+04;  0.0000000E+00;  3.9734840E+04;  1.1093803E-01;  0.0000000E+00; -2.4108458E-02;  1.1657323E+03;
  7.9830950E-01;  9.9999998E-03; -2.3088004E-01;7150; -2.9368510E-02;  0.0000000E+00;  2.7747722E-03;  9.9921521E+02;  1.4752582E-01; -6.5020325E+02;3;  4.5540032E+00;  0.0000000E+00;  4.8300653E+00;0;  8.7232858E-02;  1.8459816E+04;  0.0000000E+00; -2.9059371E-01;  4.0000000E+04;  0.0000000E+00;  3.9728348E+04;  1.0675037E-01;  0.0000000E+00; -1.9517509E-02;  1.2980511E+03;
  7.9808915E-01;  9.9999998E-03; -2.2085956E-01;7151; -2.9643221E-02;  0.0000000E+00;  2.6006056E-03;  9.9944092E+02;  1.4744078E-01; -4.6319635E+02;3;  4.7319160E+00;  0.0000000E+00;  4.8038359E+00;0;  8.6442441E-02;  1.8493086E+04;  0.0000000E+00; -1.7717345E-01;  4.0000000E+04;  0.0000000E+00;  3.9729465E+04;  1.0161369E-01;  0.0000000E+00; -1.5171247E-02;  1.1465287E+03;
  7.9777128E-01;  9.9999998E-03; -2.1079953E-01;7152; -2.9950216E-02;  0.0000000E+00;  2.4868674E-03;  9.9965533E+02;  1.4732142E-01; -2.8557190E+02;3;  4.9780245E+00;  0.0000000E+00;  4.7472777E+00;0;  8.3820671E-02;  1.8534002E+04;  0.0000000E+00; -1.3567904E-01;  4.0000000E+04;  0.0000000E+00;  3.9732465E+04;  9.5632739E-02;  0.0000000E+00; -1.1812072E-02;  9.4408691E+02;
  7.9741436E-01;  9.9999998E-03; -2.0072588E-01;7153; -3.0277882E-02;  0.0000000E+00;  2.4264762E-03;  9.9978436E+02;  1.4718838E-01; -1.7866145E+02;3;  5.2653213E+00;  0.0000000E+00;  4.6470633E+00;0;  7.9823256E-02;  1.8577574E+04;  0.0000000E+00; -1.6509056E-01;  4.0000000E+04;  0.0000000E+00;  3.9732234E+04;  8.9017034E-02;  0.0000000E+00; -9.1937752E-03;  1.0572236E+03;
  7.9709047E-01;  9.9999998E-03; -1.9065513E-01;7154; -3.0582590E-02;  0.0000000E+00;  2.3471992E-03;  9.9986469E+02;  1.4706442E-01; -1.1209550E+02;3;  5.5658541E+00;  0.0000000E+00;  4.5144486E+00;0;  7.4884079E-02;  1.8617592E+04;  0.0000000E+00; -2.4739608E-01;  4.0000000E+04;  0.0000000E+00;  3.9729379E+04;  8.1991844E-02;  0.0000000E+00; -7.1077677E-03;  1.4477435E+03;
  7.9683864E-01;  9.9999998E-03; -1.8058074E-01;7155; -3.0848457E-02;  0.0000000E+00;  2.2315781E-03;  9.9991614E+02;  1.4696394E-01; -6.9479454E+01;3;  5.8888106E+00;  0.0000000E+00;  4.3701124E+00;0;  6.9252580E-02;  1.8650582E+04;  0.0000000E+00; -3.5801286E-01;  4.0000000E+04;  0.0000000E+00;  3.9725848E+04;  7.4686050E-02;  0.0000000E+00; -5.4334672E-03;  1.9509313E+03;
  7.9668337E-01;  9.9999998E-03; -1.7051013E-01;7156; -3.1080808E-02;  0.0000000E+00;  2.0808689E-03;  9.9995319E+02;  1.4689316E-01; -3.8764301E+01;3;  6.2142582E+00;  0.0000000E+00;  4.1932268E+00;0;  6.3139014E-02;  1.8673783E+04;  0.0000000E+00; -4.6891281E-01;  4.0000000E+04;  0.0000000E+00;  3.9722895E+04;  6.7197882E-02;  0.0000000E+00; -4.0588705E-03;  2.4020081E+03;
  7.9662341E-01;  9.9999998E-03; -1.6044487E-01;7157; -3.1286277E-02;  0.0000000E+00;  1.9039606E-03;  9.9997522E+02;  1.4685601E-01; -2.0542610E+01;3;  6.5904098E+00;  0.0000000E+00;  4.0234714E+00;0;  5.6687329E-02;  1.8686918E+04;  0.0000000E+00; -5.5566680E-01;  4.0000000E+04;  0.0000000E+00;  3.9721008E+04;  5.9574746E-02;  0.0000000E+00; -2.8874162E-03;  2.6816953E+03;
  7.9663837E-01;  9.9999998E-03; -1.5038666E-01;7158; -3.1480692E-02;  0.0000000E+00;  1.7065195E-03;  9.9999426E+02;  1.4684173E-01; -4.7406025E+00;3;  6.9669061E+00;  0.0000000E+00;  3.8818300E+00;0;  4.9989797E-02;  1.8691332E+04;  0.0000000E+00; -6.0372186E-01;  4.0000000E+04;  0.0000000E+00;  3.9720707E+04;  5.1847082E-02;  0.0000000E+00; -1.8572828E-03;  2.7417554E+03;
  7.9669565E-01;  9.9999998E-03; -1.4033578E-01;7159; -3.1666137E-02;  0.0000000E+00;  1.5013841E-03;  1.0000071E+03;  1.4684117E-01;  5.9257531E+00;3;  7.3109417E+00;  0.0000000E+00;  3.6645386E+00;0;  4.3109331E-02;  1.8690273E+04;  0.0000000E+00; -6.1073035E-01;  4.0000000E+04;  0.0000000E+00;  3.9721730E+04;  4.4053223E-02;  0.0000000E+00; -9.4389060E-04;  2.5929705E+03;
  7.9675812E-01;  9.9999998E-03; -1.3028470E-01;7160; -3.1856462E-02;  0.0000000E+00;  1.3042026E-03;  1.0000065E+03;  1.4684059E-01;  5.3331776E+00;3;  7.7078099E+00;  0.0000000E+00;  3.4465685E+00;0;  3.6111534E-02;  1.8686982E+04;  0.0000000E+00; -5.8360273E-01;  4.0000000E+04;  0.0000000E+00;  3.9724016E+04;  3.6260165E-02;  0.0000000E+00; -1.4863325E-04;  2.2831021E+03;
  7.9679221E-01;  9.9999998E-03; -1.2022474E-01;7161; -3.2055143E-02;  0.0000000E+00;  1.1259430E-03;  1.0000016E+03;  1.4682902E-01;  1.3826756E+00;3;  8.1295605E+00;  0.0000000E+00;  3.1923654E+00;0;  2.9080067E-02;  1.8684945E+04;  0.0000000E+00; -5.3358668E-01;  4.0000000E+04;  0.0000000E+00;  3.9727031E+04;  2.8565498E-02;  0.0000000E+00;  5.1456888E-04;  1.8772555E+03;
  7.9678476E-01;  9.9999998E-03; -1.1017266E-01;7162; -3.2266140E-02;  0.0000000E+00;  9.6938049E-04;  9.9998499E+02;  1.4680086E-01; -1.2444081E+01;3;  8.5596247E+00;  0.0000000E+00;  2.9095604E+00;0;  2.2143116E-02;  1.8685904E+04;  0.0000000E+00; -4.7257912E-01;  4.0000000E+04;  0.0000000E+00;  3.9730277E+04;  2.1113126E-02;  0.0000000E+00;  1.0299914E-03;  1.4606010E+03;
  8.1285685E-01;  9.9999998E-03; -2.7100372E-01;7207; -2.8211502E-02;  0.0000000E+00;  1.3247343E-03;  9.9823279E+02;  1.5345527E-01; -1.4641051E+03;3;  4.1429510E+00;  0.0000000E+00;  3.8333509E+00;0;  1.3248253E-01;  1.7008621E+04;  0.0000000E+00;  1.1947687E+00;  4.0000000E+04;  0.0000000E+00;  3.9726238E+04;  1.7077239E-01;  0.0000000E+00; -3.8289852E-02;  5.6514609E+03;
  8.1302094E-01;  9.9999998E-03; -2.6098704E-01;7208; -2.8332599E-02;  0.0000000E+00;  1.4954545E-03;  9.9852911E+02;  1.5351753E-01; -1.2185814E+03;3;  4.2774086E+00;  0.0000000E+00;  4.0511756E+00;0;  1.2932740E-01;  1.7007707E+04;  0.0000000E+00;  4.2540056E-01;  4.0000000E+04;  0.0000000E+00;  3.9719664E+04;  1.6639771E-01;  0.0000000E+00; -3.7070308E-02;  2.6806785E+03;
  8.1319201E-01;  9.9999998E-03; -2.5098082E-01;7209; -2.8630048E-02;  0.0000000E+00;  1.7727114E-03;  9.9879547E+02;  1.5357992E-01; -9.9794586E+02;3;  4.3469524E+00;  0.0000000E+00;  4.2698455E+00;0;  1.2721506E-01;  1.7007979E+04;  0.0000000E+00;  1.0698032E-01;  4.0000000E+04;  0.0000000E+00;  3.9709496E+04;  1.6147530E-01;  0.0000000E+00; -3.4260236E-02;  7.7506586E+02;
  8.1314296E-01;  9.9999998E-03; -2.4098416E-01;7210; -2.8846612E-02;  0.0000000E+00;  1.7710407E-03;  9.9902136E+02;  1.5356342E-01; -8.1079089E+02;3;  4.4677472E+00;  0.0000000E+00;  4.3543563E+00;0;  1.2681252E-01;  1.7025262E+04;  0.0000000E+00;  2.8447200E-02;  4.0000000E+04;  0.0000000E+00;  3.9700621E+04;  1.5515287E-01;  0.0000000E+00; -2.8340362E-02;  7.0074774E+02;
  8.1297171E-01;  9.9999998E-03; -2.3100342E-01;7211; -2.8996401E-02;  0.0000000E+00;  1.6270640E-03;  9.9922498E+02;  1.5350179E-01; -6.4210455E+02;3;  4.6427813E+00;  0.0000000E+00;  4.3861456E+00;0;  1.2560886E-01;  1.7051666E+04;  0.0000000E+00; -7.8950723E-04;  4.0000000E+04;  0.0000000E+00;  3.9693055E+04;  1.4775603E-01;  0.0000000E+00; -2.2147160E-02;  1.6726775E+03;
  8.1270558E-01;  9.9999998E-03; -2.2100650E-01;7212; -2.9063901E-02;  0.0000000E+00;  1.3451684E-03;  9.9948322E+02;  1.5340520E-01; -4.2813556E+02;3;  4.8635354E+00;  0.0000000E+00;  4.3855219E+00;0;  1.2285183E-01;  1.7085535E+04;  0.0000000E+00; -4.1984331E-02;  4.0000000E+04;  0.0000000E+00;  3.9694090E+04;  1.3936390E-01;  0.0000000E+00; -1.6512066E-02;  1.6602930E+03;
  8.1235701E-01;  9.9999998E-03; -2.1098343E-01;7213; -2.9191816E-02;  0.0000000E+00;  1.1616000E-03;  9.9972839E+02;  1.5327969E-01; -2.2503041E+02;3;  5.0748773E+00;  0.0000000E+00;  4.3822927E+00;0;  1.1808057E-01;  1.7125127E+04;  0.0000000E+00; -1.1135015E-01;  4.0000000E+04;  0.0000000E+00;  3.9697781E+04;  1.3008560E-01;  0.0000000E+00; -1.2005032E-02;  1.3268512E+03;
  8.1195682E-01;  9.9999998E-03; -2.0094380E-01;7214; -2.9394340E-02;  0.0000000E+00;  1.0642029E-03;  9.9989899E+02;  1.5313540E-01; -8.3701241E+01;3;  5.3583598E+00;  0.0000000E+00;  4.3808084E+00;0;  1.1181988E-01;  1.7167551E+04;  0.0000000E+00; -2.0605151E-01;  4.0000000E+04;  0.0000000E+00;  3.9699938E+04;  1.2011144E-01;  0.0000000E+00; -8.2915546E-03;  1.2575525E+03;
  8.1154448E-01;  9.9999998E-03; -1.9088958E-01;7215; -2.9622337E-02;  0.0000000E+00;  9.8080910E-04;  9.9999188E+02;  1.5298584E-01; -6.7158518E+00;3;  5.6799212E+00;  0.0000000E+00;  4.3586087E+00;0;  1.0450487E-01;  1.7209588E+04;  0.0000000E+00; -3.1848177E-01;  4.0000000E+04;  0.0000000E+00;  3.9699988E+04;  1.0965525E-01;  0.0000000E+00; -5.1503764E-03;  1.4808389E+03;
  8.1117356E-01;  9.9999998E-03; -1.8080857E-01;7216; -2.9836884E-02;  0.0000000E+00;  8.7382767E-04;  1.0000211E+03;  1.5284875E-01;  1.7480967E+01;3;  6.0536895E+00;  0.0000000E+00;  4.3139672E+00;0;  9.6459970E-02;  1.7246943E+04;  0.0000000E+00; -4.3894744E-01;  4.0000000E+04;  0.0000000E+00;  3.9698746E+04;  9.8932020E-02;  0.0000000E+00; -2.4720524E-03;  1.8606965E+03;
  8.1087238E-01;  9.9999998E-03; -1.7071667E-01;7217; -3.0030431E-02;  0.0000000E+00;  7.3886284E-04;  1.0000025E+03;  1.5273291E-01;  2.0740130E+00;3;  6.4525166E+00;  0.0000000E+00;  4.2007308E+00;0;  8.7946638E-02;  1.7277330E+04;  0.0000000E+00; -5.5600071E-01;  4.0000000E+04;  0.0000000E+00;  3.9696805E+04;  8.8123299E-02;  0.0000000E+00; -1.7666105E-04;  2.2892227E+03;
  8.1068534E-01;  9.9999998E-03; -1.6062145E-01;7218; -3.0218372E-02;  0.0000000E+00;  5.8163295E-04;  9.9995892E+02;  1.5265664E-01; -3.4023689E+01;3;  6.8895230E+00;  0.0000000E+00;  4.0618067E+00;0;  7.9210386E-02;  1.7296891E+04;  0.0000000E+00; -6.5692884E-01;  4.0000000E+04;  0.0000000E+00;  3.9695340E+04;  7.7393629E-02;  0.0000000E+00;  1.8167598E-03;  2.6242646E+03;
  8.1062794E-01;  9.9999998E-03; -1.5053304E-01;7219; -3.0417707E-02;  0.0000000E+00;  4.1696927E-04;  9.9990540E+02;  1.5262416E-01; -7.8368065E+01;3;  7.4051757E+00;  0.0000000E+00;  3.8996203E+00;0;  7.0402846E-02;  1.7304203E+04;  0.0000000E+00; -7.3170626E-01;  4.0000000E+04;  0.0000000E+00;  3.9695055E+04;  6.6840068E-02;  0.0000000E+00;  3.5627785E-03;  2.7796809E+03;
  8.1067789E-01;  9.9999998E-03; -1.4045455E-01;7220; -3.0656504E-02;  0.0000000E+00;  2.5909444E-04;  9.9985742E+02;  1.5262903E-01; -1.1811998E+02;3;  7.9005389E+00;  0.0000000E+00;  3.7655501E+00;0;  6.1583735E-02;  1.7301311E+04;  0.0000000E+00; -7.7573764E-01;  4.0000000E+04;  0.0000000E+00;  3.9696273E+04;  5.6505140E-02;  0.0000000E+00;  5.0785961E-03;  2.7464106E+03;
  8.1076735E-01;  9.9999998E-03; -1.3038619E-01;7221; -3.0940134E-02;  0.0000000E+00;  1.2217536E-04;  9.9980585E+02;  1.5264326E-01; -1.6083478E+02;3;  8.3104172E+00;  0.0000000E+00;  3.6388185E+00;0;  5.2766390E-02;  1.7294484E+04;  0.0000000E+00; -7.8874719E-01;  4.0000000E+04;  0.0000000E+00;  3.9698793E+04;  4.6420857E-02;  0.0000000E+00;  6.3455310E-03;  2.5718354E+03;
  8.1084859E-01;  9.9999998E-03; -1.2032909E-01;7222; -3.1270184E-02;  0.0000000E+00;  2.0895426E-05;  9.9974976E+02;  1.5264978E-01; -2.0730255E+02;3;  8.7536364E+00;  0.0000000E+00;  3.5175552E+00;0;  4.4024047E-02;  1.7288139E+04;  0.0000000E+00; -7.7274102E-01;  4.0000000E+04;  0.0000000E+00;  3.9701934E+04;  3.6676582E-02;  0.0000000E+00;  7.3474641E-03;  2.3270618E+03;
  8.1093305E-01;  9.9999998E-03; -1.1029359E-01;7223; -3.1635832E-02;  0.0000000E+00; -4.3010183E-05;  9.9969635E+02;  1.5265469E-01; -2.5154816E+02;3;  9.0885372E+00;  0.0000000E+00;  3.3112864E+00;0;  3.5501722E-02;  1.7281479E+04;  0.0000000E+00; -7.3180562E-01;  4.0000000E+04;  0.0000000E+00;  3.9704957E+04;  2.7409865E-02;  0.0000000E+00;  8.0918586E-03;  2.0773650E+03;
  8.2554543E-01;  9.9999998E-03; -1.3040277E-01;7282; -2.9008422E-02;  0.0000000E+00; -1.9425688E-03;  9.9925714E+02;  1.5894723E-01; -6.1543854E+02;3;  1.0511115E+01;  0.0000000E+00;  2.6174088E+00;0;  6.5733291E-02;  1.5943085E+04;  0.0000000E+00; -8.7348282E-01;  4.0000000E+04;  0.0000000E+00;  3.9674258E+04;  5.1784854E-02;  0.0000000E+00;  1.3948439E-02;  2.4714958E+03;
  8.2559520E-01;  9.9999998E-03; -1.2034540E-01;7283; -2.9645493E-02;  0.0000000E+00; -1.9039037E-03;  9.9915851E+02;  1.5894783E-01; -6.9716455E+02;3;  1.0944882E+01;  0.0000000E+00;  2.3462806E+00;0;  5.5402633E-02;  1.5939354E+04;  0.0000000E+00; -8.8957238E-01;  4.0000000E+04;  0.0000000E+00;  3.9677152E+04;  4.0194660E-02;  0.0000000E+00;  1.5207972E-02;  2.4767268E+03;
  8.2558674E-01;  9.9999998E-03; -1.4049147E-01;7281; -2.8438836E-02;  0.0000000E+00; -1.9081783E-03;  9.9936359E+02;  1.5897886E-01; -5.2724365E+02;3;  1.0092105E+01;  0.0000000E+00;  2.8078678E+00;0;  7.6348364E-02;  1.5939922E+04;  0.0000000E+00; -8.2995695E-01;  4.0000000E+04;  0.0000000E+00;  3.9671812E+04;  6.4054795E-02;  0.0000000E+00;  1.2293570E-02;  2.4197373E+03;
  8.2565117E-01;  9.9999998E-03; -1.5059461E-01;7280; -2.7966974E-02;  0.0000000E+00; -1.8240924E-03;  9.9946246E+02;  1.5901160E-01; -4.4532013E+02;3;  9.4998417E+00;  0.0000000E+00;  2.9454734E+00;0;  8.7086521E-02;  1.5934648E+04;  0.0000000E+00; -7.6792824E-01;  4.0000000E+04;  0.0000000E+00;  3.9670680E+04;  7.6899201E-02;  0.0000000E+00;  1.0187322E-02;  2.2847351E+03;
  8.2570696E-01;  9.9999998E-03; -1.6069356E-01;7279; -2.7613619E-02;  0.0000000E+00; -1.7019700E-03;  9.9953381E+02;  1.5903653E-01; -3.8621078E+02;3;  8.8385248E+00;  0.0000000E+00;  3.1016839E+00;0;  9.7806647E-02;  1.5928875E+04;  0.0000000E+00; -6.9496500E-01;  4.0000000E+04;  0.0000000E+00;  3.9671059E+04;  9.0181187E-02;  0.0000000E+00;  7.6254597E-03;  2.0321290E+03;
  8.2575381E-01;  9.9999998E-03; -1.1032323E-01;7284; -3.0343473E-02;  0.0000000E+00; -1.7807795E-03;  9.9907263E+02;  1.5898904E-01; -7.6832288E+02;3;  1.1305677E+01;  0.0000000E+00;  2.1307304E+00;0;  4.5451224E-02;  1.5927438E+04;  0.0000000E+00; -8.7251240E-01;  4.0000000E+04;  0.0000000E+00;  3.9679387E+04;  2.9343536E-02;  0.0000000E+00;  1.6107690E-02;  2.4395100E+03;
  8.2580292E-01;  9.9999998E-03; -1.7077844E-01;7278; -2.7351290E-02;  0.0000000E+00; -1.5596767E-03;  9.9958685E+02;  1.5906896E-01; -3.4226147E+02;3;  8.1684132E+00;  0.0000000E+00;  3.2225375E+00;0;  1.0844517E-01;  1.5918969E+04;  0.0000000E+00; -6.1474788E-01;  4.0000000E+04;  0.0000000E+00;  3.9672762E+04;  1.0378341E-01;  0.0000000E+00;  4.6617510E-03;  1.6683510E+03;
  8.2595265E-01;  9.9999998E-03; -1.8085197E-01;7277; -2.7173860E-02;  0.0000000E+00; -1.4087923E-03;  9.9958942E+02;  1.5911849E-01; -3.4013806E+02;3;  7.5694537E+00;  0.0000000E+00;  3.3596199E+00;0;  1.1888920E-01;  1.5903859E+04;  0.0000000E+00; -5.2414697E-01;  4.0000000E+04;  0.0000000E+00;  3.9675020E+04;  1.1756687E-01;  0.0000000E+00;  1.3223266E-03;  1.2399261E+03;
  8.2616717E-01;  9.9999998E-03; -1.9091490E-01;7276; -2.7056014E-02;  0.0000000E+00; -1.2631739E-03;  9.9953876E+02;  1.5918867E-01; -3.8211212E+02;3;  6.9735637E+00;  0.0000000E+00;  3.4428275E+00;0;  1.2898065E-01;  1.5882511E+04;  0.0000000E+00; -4.1344222E-01;  4.0000000E+04;  0.0000000E+00;  3.9676945E+04;  1.3137147E-01;  0.0000000E+00; -2.3908180E-03;  8.0733521E+02;
  8.2645923E-01;  9.9999998E-03; -2.0095059E-01;7275; -2.7001014E-02;  0.0000000E+00; -1.1325218E-03;  9.9942584E+02;  1.5928806E-01; -4.7568961E+02;3;  6.3540511E+00;  0.0000000E+00;  3.5012090E+00;0;  1.3852376E-01;  1.5853557E+04;  0.0000000E+00; -2.7076483E-01;  4.0000000E+04;  0.0000000E+00;  3.9678398E+04;  1.4501299E-01;  0.0000000E+00; -6.4892364E-03;  3.6567221E+02;
  8.2650292E-01;  9.9999998E-03; -2.7107978E-01;7268; -2.8336728E-02;  0.0000000E+00;  5.4588215E-04;  9.9742719E+02;  1.5924133E-01; -2.1315417E+03;3;  4.0207915E+00;  0.0000000E+00;  3.3325634E+00;0;  1.7047679E-01;  1.5777425E+04;  0.0000000E+00;  1.6152020E+00;  4.0000000E+04;  0.0000000E+00;  3.9705227E+04;  2.1699040E-01;  0.0000000E+00; -4.6513610E-02;  5.3458359E+03;
  9.8733175E-01;  9.9999998E-03; -2.7188393E-01;7756;  1.2521482E-03;  0.0000000E+00;  8.5906349E-03;  9.9281097E+02;  2.4140832E-01; -5.9558882E+03;3; -6.1941643E+00;  0.0000000E+00; -1.0380469E+01;0;  1.4458984E-01;  6.8767959E+03;  0.0000000E+00; -1.4275280E+00;  4.0000000E+04;  0.0000000E+00;  3.9464258E+04;  8.0467932E-02;  0.0000000E+00;  6.4121902E-02;  1.4172887E+04;
  9.6269405E-01;  9.9999998E-03; -2.7174294E-01;7695;  4.6219127E-03;  0.0000000E+00;  3.8678974E-03;  9.9295862E+02;  2.2754714E-01; -5.8335996E+03;3; -4.8659616E+00;  0.0000000E+00; -5.8958840E+00;0;  3.2156631E-02;  7.7376348E+03;  0.0000000E+00; -7.6932579E-01;  4.0000000E+04;  0.0000000E+00;  3.9512930E+04;  4.4809766E-03;  0.0000000E+00;  2.7675655E-02;  1.4053749E+04;
  9.3895316E-01;  9.9999998E-03; -2.7165151E-01;7634;  7.2613857E-03;  0.0000000E+00; -8.5661822E-04;  9.9535236E+02;  2.1434073E-01; -3.8504792E+03;3; -4.0888309E+00;  0.0000000E+00; -2.2821543E+00;0;  2.8988276E-02;  8.7637773E+03;  0.0000000E+00; -6.8133038E-01;  4.0000000E+04;  0.0000000E+00;  3.9524680E+04;  1.4976313E-02;  0.0000000E+00;  1.4011962E-02;  7.1974014E+03;
  8.2662994E-01;  9.9999998E-03; -2.6106459E-01;7269; -2.8331408E-02;  0.0000000E+00;  7.4610824E-04;  9.9771454E+02;  1.5929127E-01; -1.8934747E+03;3;  4.2160692E+00;  0.0000000E+00;  3.5072389E+00;0;  1.6457708E-01;  1.5779508E+04;  0.0000000E+00;  1.2618423E+00;  4.0000000E+04;  0.0000000E+00;  3.9695020E+04;  2.0951512E-01;  0.0000000E+00; -4.4938039E-02;  3.9066877E+03;
  8.2683975E-01;  9.9999998E-03; -2.5105560E-01;7270; -2.8182728E-02;  0.0000000E+00;  5.4963818E-04;  9.9801550E+02;  1.5937358E-01; -1.6440994E+03;3;  4.4176860E+00;  0.0000000E+00;  3.5846634E+00;0;  1.6359615E-01;  1.5776200E+04;  0.0000000E+00;  9.7148257E-01;  4.0000000E+04;  0.0000000E+00;  3.9685391E+04;  2.0149454E-01;  0.0000000E+00; -3.7898384E-02;  2.8346238E+03;
  8.2673478E-01;  9.9999998E-03; -2.1097894E-01;7274; -2.7027495E-02;  0.0000000E+00; -9.8441553E-04;  9.9924139E+02;  1.5937988E-01; -6.2847522E+02;3;  5.8408403E+00;  0.0000000E+00;  3.5759432E+00;0;  1.4717868E-01;  1.5824506E+04;  0.0000000E+00; -8.3944321E-02;  4.0000000E+04;  0.0000000E+00;  3.9679508E+04;  1.5820935E-01;  0.0000000E+00; -1.1030670E-02;  3.0412082E+02;
  8.2695138E-01;  9.9999998E-03; -2.4104874E-01;7271; -2.7851045E-02;  0.0000000E+00;  8.8718509E-05;  9.9832733E+02;  1.5942051E-01; -1.3857861E+03;3;  4.6526623E+00;  0.0000000E+00;  3.6368749E+00;0;  1.6286640E-01;  1.5779324E+04;  0.0000000E+00;  7.0287973E-01;  4.0000000E+04;  0.0000000E+00;  3.9678992E+04;  1.9233173E-01;  0.0000000E+00; -2.9465331E-02;  2.1548501E+03;
  8.2694399E-01;  9.9999998E-03; -2.2101411E-01;7273; -2.7161013E-02;  0.0000000E+00; -7.5940747E-04;  9.9897540E+02;  1.5944397E-01; -8.4886371E+02;3;  5.4171252E+00;  0.0000000E+00;  3.5841491E+00;0;  1.5454766E-01;  1.5799612E+04;  0.0000000E+00;  1.5101346E-01;  4.0000000E+04;  0.0000000E+00;  3.9678535E+04;  1.7069396E-01;  0.0000000E+00; -1.6146297E-02;  8.7830969E+02;
  8.2700431E-01;  9.9999998E-03; -2.3104492E-01;7272; -2.7501907E-02;  0.0000000E+00; -3.5321957E-04;  9.9863513E+02;  1.5945144E-01; -1.1307812E+03;3;  4.9870458E+00;  0.0000000E+00;  3.6087537E+00;0;  1.5982889E-01;  1.5785545E+04;  0.0000000E+00;  4.2305920E-01;  4.0000000E+04;  0.0000000E+00;  3.9675586E+04;  1.8210064E-01;  0.0000000E+00; -2.2271749E-02;  1.5897205E+03;
  8.4223366E-01;  9.9999998E-03; -2.7116722E-01;7329; -2.7935399E-02;  0.0000000E+00; -7.5310218E-04;  9.9665088E+02;  1.6589199E-01; -2.7746821E+03;3;  3.6909096E+00;  0.0000000E+00;  2.8101330E+00;0;  2.0463637E-01;  1.4536429E+04;  0.0000000E+00;  1.5762428E+00;  4.0000000E+04;  0.0000000E+00;  3.9676812E+04;  2.5517696E-01;  0.0000000E+00; -5.0540600E-02;  3.9465479E+03;
  8.4214592E-01;  9.9999998E-03; -1.1055675E-01;7345; -2.8989516E-02;  0.0000000E+00; -3.6807247E-03;  9.9873883E+02;  1.6609991E-01; -1.0448575E+03;3;  1.3524232E+01;  0.0000000E+00;  5.1865673E-01;0;  4.8946563E-02;  1.4602801E+04;  0.0000000E+00; -8.8288885E-01;  4.0000000E+04;  0.0000000E+00;  3.9652840E+04;  2.4412766E-02;  0.0000000E+00;  2.4533797E-02;  2.3938640E+03;
  8.4231430E-01;  9.9999998E-03; -2.6115155E-01;7330; -2.7321905E-02;  0.0000000E+00; -1.0208061E-03;  9.9696680E+02;  1.6592348E-01; -2.5129617E+03;3;  3.8931201E+00;  0.0000000E+00;  2.8581161E+00;0;  1.9911532E-01;  1.4542275E+04;  0.0000000E+00;  1.7207843E+00;  4.0000000E+04;  0.0000000E+00;  3.9664660E+04;  2.4416657E-01;  0.0000000E+00; -4.5051243E-02;  4.3219463E+03;
  8.4209508E-01;  9.9999998E-03; -1.2056593E-01;7344; -2.7866181E-02;  0.0000000E+00; -4.1088848E-03;  9.9878937E+02;  1.6610283E-01; -1.0029822E+03;3;  1.3411726E+01;  0.0000000E+00;  5.5025530E-01;0;  5.9892900E-02;  1.4601920E+04;  0.0000000E+00; -8.8643003E-01;  4.0000000E+04;  0.0000000E+00;  3.9651133E+04;  3.6198452E-02;  0.0000000E+00;  2.3694450E-02;  2.2462622E+03;
  8.4243649E-01;  9.9999998E-03; -2.5113338E-01;7331; -2.5729289E-02;  0.0000000E+00; -2.1277273E-03;  9.9734955E+02;  1.6597581E-01; -2.1958352E+03;3;  4.0916557E+00;  0.0000000E+00;  2.9457476E+00;0;  1.9974901E-01;  1.4544688E+04;  0.0000000E+00;  1.5189813E+00;  4.0000000E+04;  0.0000000E+00;  3.9658531E+04;  2.3252465E-01;  0.0000000E+00; -3.2775644E-02;  4.4525693E+03;
  8.4240371E-01;  9.9999998E-03; -2.4111222E-01;7332; -2.3844922E-02;  0.0000000E+00; -3.2403120E-03;  9.9774768E+02;  1.6597667E-01; -1.8660181E+03;3;  4.6688900E+00;  0.0000000E+00;  2.8996303E+00;0;  1.9646774E-01;  1.4555740E+04;  0.0000000E+00;  1.1144845E+00;  4.0000000E+04;  0.0000000E+00;  3.9656082E+04;  2.1978649E-01;  0.0000000E+00; -2.3318756E-02;  3.8619136E+03;
  8.4192771E-01;  9.9999998E-03; -1.3058920E-01;7343; -2.6759325E-02;  0.0000000E+00; -4.4509387E-03;  9.9884192E+02;  1.6605876E-01; -9.5942798E+02;3;  1.3229455E+01;  0.0000000E+00;  7.4552602E-01;0;  7.1229644E-02;  1.4609311E+04;  0.0000000E+00; -8.5603750E-01;  4.0000000E+04;  0.0000000E+00;  3.9649141E+04;  4.9017075E-02;  0.0000000E+00;  2.2212567E-02;  1.9965844E+03;
  8.4113175E-01;  9.9999998E-03; -1.7072742E-01;7339; -2.3018060E-02;  0.0000000E+00; -4.9616075E-03;  9.9903925E+02;  1.6575202E-01; -7.9597614E+02;3;  1.1044716E+01;  0.0000000E+00;  1.7440672E+00;0;  1.1874317E-01;  1.4655206E+04;  0.0000000E+00; -6.8902618E-01;  4.0000000E+04;  0.0000000E+00;  3.9649945E+04;  1.0872753E-01;  0.0000000E+00;  1.0015639E-02;  9.0233990E+02;
  8.4114021E-01;  9.9999998E-03; -1.6069993E-01;7340; -2.3811053E-02;  0.0000000E+00; -4.9236277E-03;  9.9900006E+02;  1.6576836E-01; -8.2841956E+02;3;  1.1705952E+01;  0.0000000E+00;  1.4422677E+00;0;  1.0664900E-01;  1.4655799E+04;  0.0000000E+00; -7.1517318E-01;  4.0000000E+04;  0.0000000E+00;  3.9648254E+04;  9.2806198E-02;  0.0000000E+00;  1.3842809E-02;  1.1765980E+03;
  8.4132218E-01;  9.9999998E-03; -1.5066600E-01;7341; -2.4695676E-02;  0.0000000E+00; -4.8389928E-03;  9.9894781E+02;  1.6584438E-01; -8.7172693E+02;3;  1.2401066E+01;  0.0000000E+00;  1.1636939E+00;0;  9.4688676E-02;  1.4644826E+04;  0.0000000E+00; -7.5422227E-01;  4.0000000E+04;  0.0000000E+00;  3.9647543E+04;  7.7469543E-02;  0.0000000E+00;  1.7219134E-02;  1.4412169E+03;
  8.4161574E-01;  9.9999998E-03; -1.4062360E-01;7342; -2.5684262E-02;  0.0000000E+00; -4.6870010E-03;  9.9888849E+02;  1.6595395E-01; -9.2086127E+02;3;  1.2961233E+01;  0.0000000E+00;  9.1456920E-01;0;  8.2862504E-02;  1.4627111E+04;  0.0000000E+00; -8.0586171E-01;  4.0000000E+04;  0.0000000E+00;  3.9648055E+04;  6.2827416E-02;  0.0000000E+00;  2.0035088E-02;  1.7145658E+03;
  8.4230411E-01;  9.9999998E-03; -2.3109166E-01;7333; -2.2416554E-02;  0.0000000E+00; -3.9934963E-03;  9.9811499E+02;  1.6596627E-01; -1.5616815E+03;3;  5.5417967E+00;  0.0000000E+00;  2.7596359E+00;0;  1.8869801E-01;  1.4568174E+04;  0.0000000E+00;  6.3558400E-01;  4.0000000E+04;  0.0000000E+00;  3.9654660E+04;  2.0590977E-01;  0.0000000E+00; -1.7211759E-02;  2.8407808E+03;
  8.4126800E-01;  9.9999998E-03; -1.8075576E-01;7338; -2.2329006E-02;  0.0000000E+00; -4.9762335E-03;  9.9905023E+02;  1.6578287E-01; -7.8684058E+02;3;  1.0178756E+01;  0.0000000E+00;  2.0586782E+00;0;  1.3095117E-01;  1.4644717E+04;  0.0000000E+00; -6.5757275E-01;  4.0000000E+04;  0.0000000E+00;  3.9652566E+04;  1.2511621E-01;  0.0000000E+00;  5.8349455E-03;  6.2918085E+02;
  8.4214097E-01;  9.9999998E-03; -2.2100298E-01;7334; -2.1371724E-02;  0.0000000E+00; -4.6449467E-03;  9.9855328E+02;  1.6594751E-01; -1.1985813E+03;3;  6.5110483E+00;  0.0000000E+00;  2.7009587E+00;0;  1.7891213E-01;  1.4581810E+04;  0.0000000E+00;  1.8202771E-01;  4.0000000E+04;  0.0000000E+00;  3.9663766E+04;  1.9091904E-01;  0.0000000E+00; -1.2006904E-02;  2.2829709E+03;
  8.4148532E-01;  9.9999998E-03; -1.9079338E-01;7337; -2.1782193E-02;  0.0000000E+00; -4.9527637E-03;  9.9902350E+02;  1.6583627E-01; -8.0901276E+02;3;  9.3533058E+00;  0.0000000E+00;  2.3077598E+00;0;  1.4319441E-01;  1.4628837E+04;  0.0000000E+00; -5.8701861E-01;  4.0000000E+04;  0.0000000E+00;  3.9656176E+04;  1.4178976E-01;  0.0000000E+00;  1.4046369E-03;  5.8558130E+02;
  8.4172308E-01;  9.9999998E-03; -2.0083302E-01;7336; -2.1394534E-02;  0.0000000E+00; -4.9073538E-03;  9.9895709E+02;  1.6588798E-01; -8.6402344E+02;3;  8.4692478E+00;  0.0000000E+00;  2.5171554E+00;0;  1.5534751E-01;  1.4611892E+04;  0.0000000E+00; -4.3911606E-01;  4.0000000E+04;  0.0000000E+00;  3.9661523E+04;  1.5848681E-01;  0.0000000E+00; -3.1392982E-03;  1.1288982E+03;
  8.4193897E-01;  9.9999998E-03; -2.1089837E-01;7335; -2.1167394E-02;  0.0000000E+00; -4.8480160E-03;  9.9882849E+02;  1.6592231E-01; -9.7058813E+02;3;  7.5032282E+00;  0.0000000E+00;  2.5991161E+00;0;  1.6734330E-01;  1.4596583E+04;  0.0000000E+00; -1.8429983E-01;  4.0000000E+04;  0.0000000E+00;  3.9666125E+04;  1.7496593E-01;  0.0000000E+00; -7.6226331E-03;  1.9056824E+03;
  8.6033875E-01;  9.9999998E-03; -1.1074378E-01;7406; -2.8126040E-02;  0.0000000E+00; -5.2281772E-03;  9.9917792E+02;  1.7433594E-01; -6.8106555E+02;3;  1.5241945E+01;  0.0000000E+00; -8.3092439E-01;0;  4.1072965E-02;  1.3285642E+04;  0.0000000E+00; -7.9059017E-01;  4.0000000E+04;  0.0000000E+00;  3.9624992E+04;  9.5662978E-03;  0.0000000E+00;  3.1506669E-02;  2.0664336E+03;
  8.6030799E-01;  9.9999998E-03; -1.2078921E-01;7405; -2.6676979E-02;  0.0000000E+00; -5.8811880E-03;  9.9919104E+02;  1.7432036E-01; -6.7020172E+02;3;  1.5122470E+01;  0.0000000E+00; -8.5481310E-01;0;  5.2043796E-02;  1.3284626E+04;  0.0000000E+00; -7.9880852E-01;  4.0000000E+04;  0.0000000E+00;  3.9623762E+04;  2.1172924E-02;  0.0000000E+00;  3.0870872E-02;  1.8091364E+03;
  8.6011761E-01;  9.9999998E-03; -1.3083063E-01;7404; -2.5160030E-02;  0.0000000E+00; -6.5334011E-03;  9.9921674E+02;  1.7424037E-01; -6.4891840E+02;3;  1.4898458E+01;  0.0000000E+00; -7.6304829E-01;0;  6.3531108E-02;  1.3293989E+04;  0.0000000E+00; -7.8168154E-01;  4.0000000E+04;  0.0000000E+00;  3.9622277E+04;  3.4070492E-02;  0.0000000E+00;  2.9460616E-02;  1.4176262E+03;
  8.5993791E-01;  9.9999998E-03; -1.4088541E-01;7403; -2.3571886E-02;  0.0000000E+00; -7.1810121E-03;  9.9925427E+02;  1.7416176E-01; -6.1780823E+02;3;  1.4599989E+01;  0.0000000E+00; -6.3284737E-01;0;  7.5369671E-02;  1.3303519E+04;  0.0000000E+00; -7.6040357E-01;  4.0000000E+04;  0.0000000E+00;  3.9621387E+04;  4.8124056E-02;  0.0000000E+00;  2.7245617E-02;  1.0074165E+03;
  8.5980850E-01;  9.9999998E-03; -1.5093128E-01;7402; -2.1929922E-02;  0.0000000E+00; -7.8291874E-03;  9.9930078E+02;  1.7409930E-01; -5.7929089E+02;3;  1.4165394E+01;  0.0000000E+00; -4.4075516E-01;0;  8.7462097E-02;  1.3310839E+04;  0.0000000E+00; -7.5986338E-01;  4.0000000E+04;  0.0000000E+00;  3.9620949E+04;  6.3268125E-02;  0.0000000E+00;  2.4193969E-02;  6.9481512E+02;
  8.5974348E-01;  9.9999998E-03; -1.6096306E-01;7401; -2.0256389E-02;  0.0000000E+00; -8.4551517E-03;  9.9934241E+02;  1.7405508E-01; -5.4482281E+02;3;  1.3653686E+01;  0.0000000E+00; -2.0115463E-01;0;  9.9808395E-02;  1.3314804E+04;  0.0000000E+00; -7.9751825E-01;  4.0000000E+04;  0.0000000E+00;  3.9621418E+04;  7.9452075E-02;  0.0000000E+00;  2.0356324E-02;  5.6717584E+02;
  8.5973448E-01;  9.9999998E-03; -1.7098054E-01;7400; -1.8481934E-02;  0.0000000E+00; -9.1049699E-03;  9.9936053E+02;  1.7402804E-01; -5.2976154E+02;3;  1.3028541E+01;  0.0000000E+00;  3.4073811E-02;0;  1.1252518E-01;  1.3315761E+04;  0.0000000E+00; -8.7122095E-01;  4.0000000E+04;  0.0000000E+00;  3.9622277E+04;  9.6620202E-02;  0.0000000E+00;  1.5904978E-02;  6.3968152E+02;
  8.5973281E-01;  9.9999998E-03; -1.8099181E-01;7399; -1.6664237E-02;  0.0000000E+00; -9.7420570E-03;  9.9933972E+02;  1.7399713E-01; -5.4704498E+02;3;  1.2288710E+01;  0.0000000E+00;  3.0019873E-01;0;  1.2581643E-01;  1.3316626E+04;  0.0000000E+00; -9.5347625E-01;  4.0000000E+04;  0.0000000E+00;  3.9623652E+04;  1.1468298E-01;  0.0000000E+00;  1.1133450E-02;  8.2794592E+02;
  8.5969341E-01;  9.9999998E-03; -1.9100837E-01;7398; -1.4769413E-02;  0.0000000E+00; -1.0332425E-02;  9.9926367E+02;  1.7393865E-01; -6.1005542E+02;3;  1.1451389E+01;  0.0000000E+00;  7.4218273E-01;0;  1.3997163E-01;  1.3320033E+04;  0.0000000E+00; -9.9663240E-01;  4.0000000E+04;  0.0000000E+00;  3.9625148E+04;  1.3350974E-01;  0.0000000E+00;  6.4618913E-03;  1.0035128E+03;
  8.5954511E-01;  9.9999998E-03; -2.0102404E-01;7397; -1.2925123E-02;  0.0000000E+00; -1.0760096E-02;  9.9913312E+02;  1.7383802E-01; -7.1820026E+02;3;  1.0515944E+01;  0.0000000E+00;  1.1781219E+00;0;  1.5525933E-01;  1.3329206E+04;  0.0000000E+00; -9.3744493E-01;  4.0000000E+04;  0.0000000E+00;  3.9627496E+04;  1.5286301E-01;  0.0000000E+00;  2.3963195E-03;  1.0940389E+03;
  8.5934794E-01;  9.9999998E-03; -2.1105006E-01;7396; -1.1217454E-02;  0.0000000E+00; -1.1009703E-02;  9.9895245E+02;  1.7371981E-01; -8.6787469E+02;3;  9.4842911E+00;  0.0000000E+00;  1.5529747E+00;0;  1.7186134E-01;  1.3340225E+04;  0.0000000E+00; -7.2931159E-01;  4.0000000E+04;  0.0000000E+00;  3.9630254E+04;  1.7233834E-01;  0.0000000E+00; -4.7699988E-04;  1.2380562E+03;
  8.5914928E-01;  9.9999998E-03; -2.2110848E-01;7395; -9.7237257E-03;  0.0000000E+00; -1.0990520E-02;  9.9866168E+02;  1.7360167E-01; -1.1087562E+03;3;  8.4957962E+00;  0.0000000E+00;  1.8565059E+00;0;  1.8987036E-01;  1.3350047E+04;  0.0000000E+00; -3.5880253E-01;  4.0000000E+04;  0.0000000E+00;  3.9629672E+04;  1.9156647E-01;  0.0000000E+00; -1.6961152E-03;  1.4433798E+03;
  8.5897261E-01;  9.9999998E-03; -2.3115802E-01;7394; -8.6886846E-03;  0.0000000E+00; -1.0579355E-02;  9.9829437E+02;  1.7350204E-01; -1.4130927E+03;3;  7.6509666E+00;  0.0000000E+00;  2.0289972E+00;0;  2.0872700E-01;  1.3356827E+04;  0.0000000E+00;  1.3710104E-01;  4.0000000E+04;  0.0000000E+00;  3.9627398E+04;  2.1004747E-01;  0.0000000E+00; -1.3204658E-03;  2.2090259E+03;
  8.5881847E-01;  9.9999998E-03; -2.4119011E-01;7393; -8.1345523E-03;  0.0000000E+00; -9.8245256E-03;  9.9789252E+02;  1.7342499E-01; -1.7460208E+03;3;  6.6970167E+00;  0.0000000E+00;  2.1531129E+00;0;  2.2768015E-01;  1.3360397E+04;  0.0000000E+00;  6.6336381E-01;  4.0000000E+04;  0.0000000E+00;  3.9627258E+04;  2.2750285E-01;  0.0000000E+00;  1.7730090E-04;  3.1149509E+03;
  8.5873061E-01;  9.9999998E-03; -2.5122511E-01;7392; -8.7076072E-03;  0.0000000E+00; -8.3746305E-03;  9.9741614E+02;  1.7338832E-01; -2.1406753E+03;3;  5.3991919E+00;  0.0000000E+00;  2.3582714E+00;0;  2.4243975E-01;  1.3357432E+04;  0.0000000E+00;  1.0447232E+00;  4.0000000E+04;  0.0000000E+00;  3.9625008E+04;  2.4344204E-01;  0.0000000E+00; -1.0022998E-03;  3.1642383E+03;
  8.5870767E-01;  9.9999998E-03; -2.6125482E-01;7391; -1.0449450E-02;  0.0000000E+00; -6.2148278E-03;  9.9691779E+02;  1.7338814E-01; -2.5535515E+03;3;  4.0168033E+00;  0.0000000E+00;  2.5984743E+00;0;  2.4722356E-01;  1.3348263E+04;  0.0000000E+00;  1.0525075E+00;  4.0000000E+04;  0.0000000E+00;  3.9624434E+04;  2.5767967E-01;  0.0000000E+00; -1.0456109E-02;  1.6163597E+03;
  8.5889375E-01;  9.9999998E-03; -2.7127650E-01;7390; -1.0974840E-02;  0.0000000E+00; -4.6426812E-03;  9.9650873E+02;  1.7348425E-01; -2.8924548E+03;3;  2.7901697E+00;  0.0000000E+00;  2.7419071E+00;0;  2.5094819E-01;  1.3323592E+04;  0.0000000E+00;  5.6266057E-01;  4.0000000E+04;  0.0000000E+00;  3.9632336E+04;  2.7117822E-01;  0.0000000E+00; -2.0230040E-02;  2.6650540E+03;
  8.7778664E-01;  9.9999998E-03; -1.1073852E-01;7467; -2.8231107E-02;  0.0000000E+00; -5.7621370E-03;  9.9939087E+02;  1.8275701E-01; -5.0467557E+02;3;  1.6025955E+01;  0.0000000E+00; -1.7135342E+00;0;  2.2107217E-02;  1.2107522E+04;  0.0000000E+00; -6.3570380E-01;  4.0000000E+04;  0.0000000E+00;  3.9599234E+04; -1.1877929E-02;  0.0000000E+00;  3.3985145E-02;  1.9848895E+03;
  8.7788022E-01;  9.9999998E-03; -1.2079153E-01;7466; -2.6626665E-02;  0.0000000E+00; -6.5681026E-03;  9.9940619E+02;  1.8278803E-01; -4.9193521E+02;3;  1.5829277E+01;  0.0000000E+00; -1.6877705E+00;0;  3.2035295E-02;  1.2099305E+04;  0.0000000E+00; -6.5974081E-01;  4.0000000E+04;  0.0000000E+00;  3.9597922E+04; -1.6731092E-03;  0.0000000E+00;  3.3708405E-02;  1.7516602E+03;
  8.7788957E-01;  9.9999998E-03; -1.3084769E-01;7465; -2.4904363E-02;  0.0000000E+00; -7.4093533E-03;  9.9944818E+02;  1.8277930E-01; -4.5717087E+02;3;  1.5522815E+01;  0.0000000E+00; -1.5738198E+00;0;  4.2361766E-02;  1.2097735E+04;  0.0000000E+00; -6.6881913E-01;  4.0000000E+04;  0.0000000E+00;  3.9596078E+04;  9.7039882E-03;  0.0000000E+00;  3.2657776E-02;  1.4249904E+03;
  8.7782711E-01;  9.9999998E-03; -1.4090410E-01;7464; -2.3067504E-02;  0.0000000E+00; -8.2492940E-03;  9.9951978E+02;  1.8273473E-01; -3.9786411E+02;3;  1.5073483E+01;  0.0000000E+00; -1.2628125E+00;0;  5.3043418E-02;  1.2101956E+04;  0.0000000E+00; -6.8328506E-01;  4.0000000E+04;  0.0000000E+00;  3.9594465E+04;  2.2311252E-02;  0.0000000E+00;  3.0732164E-02;  1.1346023E+03;
  8.7772334E-01;  9.9999998E-03; -1.5095437E-01;7463; -2.1141600E-02;  0.0000000E+00; -9.0623526E-03;  9.9960773E+02;  1.8266577E-01; -3.2497748E+02;3;  1.4383954E+01;  0.0000000E+00; -9.4274449E-01;0;  6.4029135E-02;  1.2109975E+04;  0.0000000E+00; -7.2578567E-01;  4.0000000E+04;  0.0000000E+00;  3.9593512E+04;  3.6161415E-02;  0.0000000E+00;  2.7867720E-02;  9.6890155E+02;
  8.7762076E-01;  9.9999998E-03; -1.6099176E-01;7462; -1.9113917E-02;  0.0000000E+00; -9.8624928E-03;  9.9969434E+02;  1.8259475E-01; -2.5322664E+02;3;  1.3645835E+01;  0.0000000E+00; -5.6894207E-01;0;  7.5322583E-02;  1.2118644E+04;  0.0000000E+00; -8.1137788E-01;  4.0000000E+04;  0.0000000E+00;  3.9593461E+04;  5.1212393E-02;  0.0000000E+00;  2.4110194E-02;  9.0965283E+02;
  8.7757951E-01;  9.9999998E-03; -1.7101611E-01;7461; -1.6966173E-02;  0.0000000E+00; -1.0663209E-02;  9.9975873E+02;  1.8255013E-01; -1.9989497E+02;3;  1.2712329E+01;  0.0000000E+00; -1.3967694E-01;0;  8.6995415E-02;  1.2123972E+04;  0.0000000E+00; -9.3782318E-01;  4.0000000E+04;  0.0000000E+00;  3.9593719E+04;  6.7321852E-02;  0.0000000E+00;  1.9673564E-02;  9.4696570E+02;
  8.7759000E-01;  9.9999998E-03; -1.8103217E-01;7460; -1.4689556E-02;  0.0000000E+00; -1.1438212E-02;  9.9978760E+02;  1.8252689E-01; -1.7599449E+02;3;  1.1656338E+01;  0.0000000E+00;  3.6254326E-01;0;  9.9325486E-02;  1.2126172E+04;  0.0000000E+00; -1.0790614E+00;  4.0000000E+04;  0.0000000E+00;  3.9594137E+04;  8.4397517E-02;  0.0000000E+00;  1.4927970E-02;  1.1317449E+03;
  8.7760770E-01;  9.9999998E-03; -1.9104932E-01;7459; -1.2286294E-02;  0.0000000E+00; -1.2169857E-02;  9.9975726E+02;  1.8250249E-01; -2.0108012E+02;3;  1.0474456E+01;  0.0000000E+00;  9.5444822E-01;0;  1.1274977E-01;  1.2127872E+04;  0.0000000E+00; -1.1902997E+00;  4.0000000E+04;  0.0000000E+00;  3.9595211E+04;  1.0236384E-01;  0.0000000E+00;  1.0385930E-02;  1.4090016E+03;
  8.7761068E-01;  9.9999998E-03; -2.0107478E-01;7458; -9.7683528E-03;  0.0000000E+00; -1.2763936E-02;  9.9967059E+02;  1.8246707E-01; -2.7292972E+02;3;  9.1829481E+00;  0.0000000E+00;  1.5470535E+00;0;  1.2772115E-01;  1.2130085E+04;  0.0000000E+00; -1.2214339E+00;  4.0000000E+04;  0.0000000E+00;  3.9596613E+04;  1.2104879E-01;  0.0000000E+00;  6.6723563E-03;  1.6322628E+03;
  8.7758601E-01;  9.9999998E-03; -2.1110752E-01;7457; -7.2003566E-03;  0.0000000E+00; -1.3173727E-02;  9.9951813E+02;  1.8241636E-01; -3.9919739E+02;3;  7.7780814E+00;  0.0000000E+00;  2.1248288E+00;0;  1.4469367E-01;  1.2133104E+04;  0.0000000E+00; -1.1340835E+00;  4.0000000E+04;  0.0000000E+00;  3.9598852E+04;  1.4019035E-01;  0.0000000E+00;  4.5033237E-03;  1.7589407E+03;
  8.7753612E-01;  9.9999998E-03; -2.2117080E-01;7456; -4.6375277E-03;  0.0000000E+00; -1.3341974E-02;  9.9926093E+02;  1.8235387E-01; -6.1232654E+02;3;  6.2505183E+00;  0.0000000E+00;  2.5756478E+00;0;  1.6409682E-01;  1.2136447E+04;  0.0000000E+00; -9.1589975E-01;  4.0000000E+04;  0.0000000E+00;  3.9598227E+04;  1.5951292E-01;  0.0000000E+00;  4.5838999E-03;  1.4921381E+03;
  8.7741792E-01;  9.9999998E-03; -2.3124237E-01;7455; -2.1275107E-03;  0.0000000E+00; -1.3154192E-02;  9.9887421E+02;  1.8226784E-01; -9.3271155E+02;3;  4.9330487E+00;  0.0000000E+00;  2.7024801E+00;0;  1.8599495E-01;  1.2142571E+04;  0.0000000E+00; -5.8624399E-01;  4.0000000E+04;  0.0000000E+00;  3.9592734E+04;  1.7877534E-01;  0.0000000E+00;  7.2196126E-03;  7.6006152E+02;
  8.7721395E-01;  9.9999998E-03; -2.4128267E-01;7454;  3.1374118E-04;  0.0000000E+00; -1.2774421E-02;  9.9847876E+02;  1.8215841E-01; -1.2603063E+03;3;  3.5904381E+00;  0.0000000E+00;  2.8460405E+00;0;  2.1070889E-01;  1.2151836E+04;  0.0000000E+00; -2.1564166E-01;  4.0000000E+04;  0.0000000E+00;  3.9591137E+04;  1.9769533E-01;  0.0000000E+00;  1.3013558E-02;  7.9004749E+02;
  8.7705362E-01;  9.9999998E-03; -2.5132075E-01;7453;  2.6101372E-03;  0.0000000E+00; -1.2025951E-02;  9.9802271E+02;  1.8208942E-01; -1.6381709E+03;3;  2.2885535E+00;  0.0000000E+00;  2.9194672E+00;0;  2.3638791E-01;  1.2155856E+04;  0.0000000E+00;  1.8230207E-02;  4.0000000E+04;  0.0000000E+00;  3.9588637E+04;  2.1569000E-01;  0.0000000E+00;  2.0697908E-02;  2.5073883E+02;
  8.7730759E-01;  9.9999998E-03; -2.6136401E-01;7452;  4.3755579E-03;  0.0000000E+00; -1.0246926E-02;  9.9745245E+02;  1.8223637E-01; -2.1106006E+03;3;  1.5158962E+00;  0.0000000E+00;  2.6763077E+00;0;  2.5291634E-01;  1.2130529E+04;  0.0000000E+00; -9.2015453E-02;  4.0000000E+04;  0.0000000E+00;  3.9581547E+04;  2.3121884E-01;  0.0000000E+00;  2.1697497E-02;  2.0954482E+03;
  8.7772208E-01;  9.9999998E-03; -2.7139673E-01;7451;  5.8505912E-03;  0.0000000E+00; -8.1597278E-03;  9.9697894E+02;  1.8247607E-01; -2.5028845E+03;3;  4.9379551E-01;  0.0000000E+00;  2.7031696E+00;0;  2.5978991E-01;  1.2092671E+04;  0.0000000E+00; -4.5676562E-01;  4.0000000E+04;  0.0000000E+00;  3.9581195E+04;  2.4484032E-01;  0.0000000E+00;  1.4949589E-02;  5.5817612E+03;
  8.9657301E-01;  9.9999998E-03; -2.7149770E-01;7512;  9.1515817E-03;  0.0000000E+00; -7.4514179E-03;  9.9786029E+02;  1.9198583E-01; -1.7726836E+03;3; -2.4678390E+00;  0.0000000E+00;  2.2713485E+00;0;  1.9004911E-01;  1.0968822E+04;  0.0000000E+00; -1.3690307E+00;  4.0000000E+04;  0.0000000E+00;  3.9543262E+04;  1.7421348E-01;  0.0000000E+00;  1.5835626E-02;  8.5239307E+03;
  8.9611381E-01;  9.9999998E-03; -2.6145273E-01;7513;  6.7138970E-03;  0.0000000E+00; -9.0926467E-03;  9.9834222E+02;  1.9172807E-01; -1.3734373E+03;3; -1.2590559E+00;  0.0000000E+00;  2.6486371E+00;0;  1.8338896E-01;  1.1002108E+04;  0.0000000E+00; -7.6304567E-01;  4.0000000E+04;  0.0000000E+00;  3.9549816E+04;  1.6359878E-01;  0.0000000E+00;  1.9790186E-02;  3.8740771E+03;
  8.9558429E-01;  9.9999998E-03; -2.5139701E-01;7514;  4.1303779E-03;  0.0000000E+00; -1.0266662E-02;  9.9888110E+02;  1.9142881E-01; -9.2698248E+02;3;  2.8641376E-01;  0.0000000E+00;  2.7434492E+00;0;  1.6853565E-01;  1.1038901E+04;  0.0000000E+00; -4.3046942E-01;  4.0000000E+04;  0.0000000E+00;  3.9560062E+04;  1.5197867E-01;  0.0000000E+00;  1.6556980E-02;  1.2974875E+03;
  8.9562058E-01;  9.9999998E-03; -2.4135017E-01;7515;  1.3807521E-03;  0.0000000E+00; -1.0559505E-02;  9.9920886E+02;  1.9141375E-01; -6.5543567E+02;3;  1.8481486E+00;  0.0000000E+00;  2.6530678E+00;0;  1.4658283E-01;  1.1040608E+04;  0.0000000E+00; -4.2997253E-01;  4.0000000E+04;  0.0000000E+00;  3.9561965E+04;  1.3709880E-01;  0.0000000E+00;  9.4840229E-03;  1.1729214E+03;
  8.9583504E-01;  9.9999998E-03; -2.3129040E-01;7516; -1.4468174E-03;  0.0000000E+00; -1.0706658E-02;  9.9947955E+02;  1.9150501E-01; -4.3119598E+02;3;  3.4297278E+00;  0.0000000E+00;  2.5205123E+00;0;  1.2635992E-01;  1.1029718E+04;  0.0000000E+00; -6.6161913E-01;  4.0000000E+04;  0.0000000E+00;  3.9565016E+04;  1.2089317E-01;  0.0000000E+00;  5.4667536E-03;  1.5937531E+03;
  8.9597362E-01;  9.9999998E-03; -2.2118813E-01;7517; -4.3183155E-03;  0.0000000E+00; -1.0784274E-02;  9.9974316E+02;  1.9157621E-01; -2.1278326E+02;3;  5.0814500E+00;  0.0000000E+00;  2.2825844E+00;0;  1.0882790E-01;  1.1021701E+04;  0.0000000E+00; -9.3286771E-01;  4.0000000E+04;  0.0000000E+00;  3.9572379E+04;  1.0450014E-01;  0.0000000E+00;  4.3277512E-03;  2.5579360E+03;
  8.9601594E-01;  9.9999998E-03; -2.1110244E-01;7518; -7.1649016E-03;  0.0000000E+00; -1.0620889E-02;  9.9984705E+02;  1.9160688E-01; -1.2671197E+02;3;  6.7111840E+00;  0.0000000E+00;  1.9260916E+00;0;  9.3499549E-02;  1.1017951E+04;  0.0000000E+00; -1.1345670E+00;  4.0000000E+04;  0.0000000E+00;  3.9572254E+04;  8.8296913E-02;  0.0000000E+00;  5.2026371E-03;  2.6632317E+03;
  8.9603573E-01;  9.9999998E-03; -2.0105579E-01;7519; -9.9156033E-03;  0.0000000E+00; -1.0332876E-02;  9.9984473E+02;  1.9162902E-01; -1.2863783E+02;3;  8.3280258E+00;  0.0000000E+00;  1.4538224E+00;0;  8.0117337E-02;  1.1014425E+04;  0.0000000E+00; -1.2302642E+00;  4.0000000E+04;  0.0000000E+00;  3.9568508E+04;  7.2336145E-02;  0.0000000E+00;  7.7811945E-03;  2.3194102E+03;
  8.9604509E-01;  9.9999998E-03; -1.9102757E-01;7520; -1.2547950E-02;  0.0000000E+00; -1.0003121E-02;  9.9978741E+02;  1.9164397E-01; -1.7614247E+02;3;  9.8281937E+00;  0.0000000E+00;  9.5192367E-01;0;  6.8270519E-02;  1.1010492E+04;  0.0000000E+00; -1.2195885E+00;  4.0000000E+04;  0.0000000E+00;  3.9565605E+04;  5.6803886E-02;  0.0000000E+00;  1.1466636E-02;  1.9667766E+03;
  8.9606410E-01;  9.9999998E-03; -1.8101528E-01;7521; -1.5062699E-02;  0.0000000E+00; -9.6389214E-03;  9.9968298E+02;  1.9166495E-01; -2.6265820E+02;3;  1.1170107E+01;  0.0000000E+00;  5.1004976E-01;0;  5.7527594E-02;  1.1005249E+04;  0.0000000E+00; -1.1291640E+00;  4.0000000E+04;  0.0000000E+00;  3.9564281E+04;  4.1870721E-02;  0.0000000E+00;  1.5656874E-02;  1.6756650E+03;
  8.9610434E-01;  9.9999998E-03; -1.7099774E-01;7522; -1.7442638E-02;  0.0000000E+00; -9.1954181E-03;  9.9954242E+02;  1.9169791E-01; -3.7909891E+02;3;  1.2335886E+01;  0.0000000E+00; -1.7669801E-02;0;  4.7537815E-02;  1.0998407E+04;  0.0000000E+00; -9.9854898E-01;  4.0000000E+04;  0.0000000E+00;  3.9563961E+04;  2.7678667E-02;  0.0000000E+00;  1.9859148E-02;  1.5826245E+03;
  8.9612210E-01;  9.9999998E-03; -1.6094899E-01;7523; -1.9695023E-02;  0.0000000E+00; -8.6512761E-03;  9.9936896E+02;  1.9172558E-01; -5.2279797E+02;3;  1.3381465E+01;  0.0000000E+00; -5.3084952E-01;0;  3.8112123E-02;  1.0992284E+04;  0.0000000E+00; -8.6466616E-01;  4.0000000E+04;  0.0000000E+00;  3.9564777E+04;  1.4422831E-02;  0.0000000E+00;  2.3689291E-02;  1.6990511E+03;
  8.9621717E-01;  9.9999998E-03; -1.5088755E-01;7524; -2.1838874E-02;  0.0000000E+00; -7.9599377E-03;  9.9919659E+02;  1.9179334E-01; -6.6560822E+02;3;  1.4313528E+01;  0.0000000E+00; -1.0602061E+00;0;  2.8813325E-02;  1.0982401E+04;  0.0000000E+00; -7.5098896E-01;  4.0000000E+04;  0.0000000E+00;  3.9565844E+04;  1.9958776E-03;  0.0000000E+00;  2.6817447E-02;  1.9236465E+03;
  8.9637244E-01;  9.9999998E-03; -1.4081468E-01;7525; -2.3865666E-02;  0.0000000E+00; -7.1953745E-03;  9.9904529E+02;  1.9188800E-01; -7.9093750E+02;3;  1.5105585E+01;  0.0000000E+00; -1.4873245E+00;0;  1.9530661E-02;  1.0970458E+04;  0.0000000E+00; -6.6320026E-01;  4.0000000E+04;  0.0000000E+00;  3.9567680E+04; -9.5299734E-03;  0.0000000E+00;  2.9060636E-02;  2.1977581E+03;
  8.9653492E-01;  9.9999998E-03; -1.3073820E-01;7526; -2.5783753E-02;  0.0000000E+00; -6.4030853E-03;  9.9892981E+02;  1.9198358E-01; -8.8663812E+02;3;  1.5720501E+01;  0.0000000E+00; -1.7771426E+00;0;  1.0308882E-02;  1.0959674E+04;  0.0000000E+00; -5.9539217E-01;  4.0000000E+04;  0.0000000E+00;  3.9569715E+04; -2.0081252E-02;  0.0000000E+00;  3.0390134E-02;  2.4863359E+03;
  8.9665771E-01;  9.9999998E-03; -1.2067287E-01;7527; -2.7588181E-02;  0.0000000E+00; -5.6215809E-03;  9.9885254E+02;  1.9206013E-01; -9.5063599E+02;3;  1.6167164E+01;  0.0000000E+00; -1.9164200E+00;0;  1.2524370E-03;  1.0952783E+04;  0.0000000E+00; -5.3663492E-01;  4.0000000E+04;  0.0000000E+00;  3.9571684E+04; -2.9629948E-02;  0.0000000E+00;  3.0882385E-02;  2.7421523E+03;
  8.9669490E-01;  9.9999998E-03; -1.1062840E-01;7528; -2.9262222E-02;  0.0000000E+00; -4.8787268E-03;  9.9882068E+02;  1.9209641E-01; -9.7705487E+02;3;  1.6433683E+01;  0.0000000E+00; -1.9261492E+00;0; -7.5180344E-03;  1.0952042E+04;  0.0000000E+00; -4.7649634E-01;  4.0000000E+04;  0.0000000E+00;  3.9573109E+04; -3.8176417E-02;  0.0000000E+00;  3.0658383E-02;  2.9043303E+03;
  9.1693193E-01;  9.9999998E-03; -2.7157840E-01;7573;  8.9348182E-03;  0.0000000E+00; -4.7383890E-03;  9.9739709E+02;  2.0253225E-01; -2.1564707E+03;3; -3.3338087E+00;  0.0000000E+00;  3.7748885E-01;0;  9.7003073E-02;  9.8560820E+03;  0.0000000E+00; -1.1622618E+00;  4.0000000E+04;  0.0000000E+00;  3.9527199E+04;  8.5402019E-02;  0.0000000E+00;  1.1601052E-02;  5.6248208E+03;
  9.1654474E-01;  9.9999998E-03; -2.6152039E-01;7574;  6.3496199E-03;  0.0000000E+00; -5.8389795E-03;  9.9789673E+02;  2.0228085E-01; -1.7425093E+03;3; -1.9332234E+00;  0.0000000E+00;  7.0896542E-01;0;  9.3266025E-02;  9.8837988E+03;  0.0000000E+00; -8.4742951E-01;  4.0000000E+04;  0.0000000E+00;  3.9535945E+04;  7.9047196E-02;  0.0000000E+00;  1.4218829E-02;  4.0809604E+03;
  9.1616464E-01;  9.9999998E-03; -2.5145784E-01;7575;  3.6178054E-03;  0.0000000E+00; -6.4005693E-03;  9.9833026E+02;  2.0202462E-01; -1.3833608E+03;3; -3.1341454E-01;  0.0000000E+00;  7.7224088E-01;0;  8.2340889E-02;  9.9101152E+03;  0.0000000E+00; -6.6456616E-01;  4.0000000E+04;  0.0000000E+00;  3.9541750E+04;  7.1638539E-02;  0.0000000E+00;  1.0702347E-02;  3.7361738E+03;
  9.1613805E-01;  9.9999998E-03; -2.4141176E-01;7576;  6.9066021E-04;  0.0000000E+00; -6.1613647E-03;  9.9852155E+02;  2.0195246E-01; -1.2248477E+03;3;  1.4439400E+00;  0.0000000E+00;  6.7787153E-01;0;  6.6770002E-02;  9.9157217E+03;  0.0000000E+00; -6.3283664E-01;  4.0000000E+04;  0.0000000E+00;  3.9536203E+04;  6.2078580E-02;  0.0000000E+00;  4.6914234E-03;  2.8088567E+03;
  9.1627592E-01;  9.9999998E-03; -2.3135138E-01;7577; -2.2733612E-03;  0.0000000E+00; -6.0779001E-03;  9.9866803E+02;  2.0198020E-01; -1.1035184E+03;3;  3.2224424E+00;  0.0000000E+00;  4.6718723E-01;0;  5.4073099E-02;  9.9102637E+03;  0.0000000E+00; -7.2423905E-01;  4.0000000E+04;  0.0000000E+00;  3.9534734E+04;  5.1367190E-02;  0.0000000E+00;  2.7059095E-03;  2.6333752E+03;
  9.1626906E-01;  9.9999998E-03; -2.2123356E-01;7578; -5.2328683E-03;  0.0000000E+00; -6.1331894E-03;  9.9886224E+02;  2.0195583E-01; -9.4258557E+02;3;  4.9180460E+00;  0.0000000E+00;  3.2016388E-01;0;  4.3626588E-02;  9.9107217E+03;  0.0000000E+00; -8.6189890E-01;  4.0000000E+04;  0.0000000E+00;  3.9541844E+04;  4.0630043E-02;  0.0000000E+00;  2.9965460E-03;  3.5371309E+03;
  9.1612303E-01;  9.9999998E-03; -2.1113485E-01;7579; -8.1621204E-03;  0.0000000E+00; -6.0276566E-03;  9.9889606E+02;  2.0187397E-01; -9.1458655E+02;3;  6.6208739E+00;  0.0000000E+00;  1.0006747E-01;0;  3.4268674E-02;  9.9168848E+03;  0.0000000E+00; -9.8574424E-01;  4.0000000E+04;  0.0000000E+00;  3.9541000E+04;  2.9990599E-02;  0.0000000E+00;  4.2780745E-03;  3.4385703E+03;
  9.1582477E-01;  9.9999998E-03; -2.0107773E-01;7580; -1.0995775E-02;  0.0000000E+00; -5.9301294E-03;  9.9880408E+02;  2.0172681E-01; -9.9078156E+02;3;  8.2608585E+00;  0.0000000E+00; -1.8552679E-01;0;  2.6165003E-02;  9.9282100E+03;  0.0000000E+00; -1.0676529E+00;  4.0000000E+04;  0.0000000E+00;  3.9537078E+04;  1.9610777E-02;  0.0000000E+00;  6.5542255E-03;  2.8927922E+03;
  9.1544366E-01;  9.9999998E-03; -1.9102757E-01;7581; -1.3670714E-02;  0.0000000E+00; -5.8488823E-03;  9.9866156E+02;  2.0154971E-01; -1.1088517E+03;3;  9.7662745E+00;  0.0000000E+00; -3.7565038E-01;0;  1.8866520E-02;  9.9415752E+03;  0.0000000E+00; -1.1018125E+00;  4.0000000E+04;  0.0000000E+00;  3.9534727E+04;  9.4177211E-03;  0.0000000E+00;  9.4487993E-03;  2.5511455E+03;
  9.1519254E-01;  9.9999998E-03; -1.8098547E-01;7582; -1.6228851E-02;  0.0000000E+00; -5.7513653E-03;  9.9847473E+02;  2.0143981E-01; -1.2636613E+03;3;  1.1143725E+01;  0.0000000E+00; -5.5971617E-01;0;  1.1697180E-02;  9.9477227E+03;  0.0000000E+00; -1.0865289E+00;  4.0000000E+04;  0.0000000E+00;  3.9533895E+04; -8.7745133E-04;  0.0000000E+00;  1.2574631E-02;  2.4075117E+03;
  9.1508269E-01;  9.9999998E-03; -1.7093705E-01;7583; -1.8683923E-02;  0.0000000E+00; -5.6133368E-03;  9.9826135E+02;  2.0140369E-01; -1.4404454E+03;3;  1.2407359E+01;  0.0000000E+00; -7.6544130E-01;0;  4.5092460E-03;  9.9464668E+03;  0.0000000E+00; -1.0280174E+00;  4.0000000E+04;  0.0000000E+00;  3.9534773E+04; -1.1078148E-02;  0.0000000E+00;  1.5587394E-02;  2.4777517E+03;
  9.1509765E-01;  9.9999998E-03; -1.6087587E-01;7584; -2.1031324E-02;  0.0000000E+00; -5.4014153E-03;  9.9803601E+02;  2.0143300E-01; -1.6271058E+03;3;  1.3500448E+01;  0.0000000E+00; -1.1017228E+00;0; -2.7835239E-03;  9.9390020E+03;  0.0000000E+00; -9.3809754E-01;  4.0000000E+04;  0.0000000E+00;  3.9536562E+04; -2.0978393E-02;  0.0000000E+00;  1.8194869E-02;  2.7371538E+03;
  9.1521823E-01;  9.9999998E-03; -1.5080498E-01;7585; -2.3247378E-02;  0.0000000E+00; -5.0439863E-03;  9.9780981E+02;  2.0151728E-01; -1.8145070E+03;3;  1.4458086E+01;  0.0000000E+00; -1.4264665E+00;0; -1.0267509E-02;  9.9267109E+03;  0.0000000E+00; -8.2751429E-01;  4.0000000E+04;  0.0000000E+00;  3.9539098E+04; -3.0431975E-02;  0.0000000E+00;  2.0164466E-02;  3.1385762E+03;
  9.1541982E-01;  9.9999998E-03; -1.4073013E-01;7586; -2.5342019E-02;  0.0000000E+00; -4.5968299E-03;  9.9761017E+02;  2.0164600E-01; -1.9799336E+03;3;  1.5285933E+01;  0.0000000E+00; -1.7246673E+00;0; -1.7991271E-02;  9.9113125E+03;  0.0000000E+00; -7.0539135E-01;  4.0000000E+04;  0.0000000E+00;  3.9541859E+04; -3.9356075E-02;  0.0000000E+00;  2.1364804E-02;  3.6110916E+03;
  9.1565371E-01;  9.9999998E-03; -1.3065606E-01;7587; -2.7324039E-02;  0.0000000E+00; -4.0822984E-03;  9.9744586E+02;  2.0179217E-01; -2.1160278E+03;3;  1.5950402E+01;  0.0000000E+00; -1.9424503E+00;0; -2.5897443E-02;  9.8955977E+03;  0.0000000E+00; -5.8046240E-01;  4.0000000E+04;  0.0000000E+00;  3.9544480E+04; -4.7678530E-02;  0.0000000E+00;  2.1781087E-02;  4.0652659E+03;
  9.1586882E-01;  9.9999998E-03; -1.2058973E-01;7588; -2.9179608E-02;  0.0000000E+00; -3.5439047E-03;  9.9732196E+02;  2.0192818E-01; -2.2186909E+03;3;  1.6427568E+01;  0.0000000E+00; -2.0182104E+00;0; -3.3865936E-02;  9.8823838E+03;  0.0000000E+00; -4.6116617E-01;  4.0000000E+04;  0.0000000E+00;  3.9546520E+04; -5.5349436E-02;  0.0000000E+00;  2.1483500E-02;  4.4107334E+03;
  9.1602212E-01;  9.9999998E-03; -1.1053909E-01;7589; -3.0900231E-02;  0.0000000E+00; -3.0090322E-03;  9.9724445E+02;  2.0203334E-01; -2.2829355E+03;3;  1.6778599E+01;  0.0000000E+00; -1.9948654E+00;0; -4.1766122E-02;  9.8739600E+03;  0.0000000E+00; -3.5426387E-01;  4.0000000E+04;  0.0000000E+00;  3.9547633E+04; -6.2346842E-02;  0.0000000E+00;  2.0580722E-02;  4.5793916E+03;
  9.3849474E-01;  9.9999998E-03; -2.6158381E-01;7635;  4.7426093E-03;  0.0000000E+00; -1.4768080E-03;  9.9593896E+02;  2.1403374E-01; -3.3644727E+03;3; -2.4782548E+00;  0.0000000E+00; -2.0410404E+00;0;  2.8439585E-02;  8.7947256E+03;  0.0000000E+00; -8.9275885E-01;  4.0000000E+04;  0.0000000E+00;  3.9528980E+04;  1.2749743E-02;  0.0000000E+00;  1.5689842E-02;  7.3852163E+03;
  9.3820018E-01;  9.9999998E-03; -2.5152448E-01;7636;  1.9795420E-03;  0.0000000E+00; -1.1157250E-03;  9.9633417E+02;  2.1380779E-01; -3.0370273E+03;3; -5.8625221E-01;  0.0000000E+00; -2.0729907E+00;0;  1.8496884E-02;  8.8170117E+03;  0.0000000E+00; -8.5315567E-01;  4.0000000E+04;  0.0000000E+00;  3.9523023E+04;  9.3748802E-03;  0.0000000E+00;  9.1220038E-03;  6.6127539E+03;
  9.3842393E-01;  9.9999998E-03; -2.4149148E-01;7637; -9.4605080E-04;  0.0000000E+00; -3.7199230E-04;  9.9649713E+02;  2.1385609E-01; -2.9020200E+03;3;  1.3809439E+00;  0.0000000E+00; -2.4424205E+00;0;  8.4820352E-03;  8.8140273E+03;  0.0000000E+00; -6.6615021E-01;  4.0000000E+04;  0.0000000E+00;  3.9505254E+04;  4.3867039E-03;  0.0000000E+00;  4.0953318E-03;  4.3155298E+03;
  9.3848807E-01;  9.9999998E-03; -2.3143487E-01;7638; -3.8793420E-03;  0.0000000E+00; -3.1835597E-04;  9.9670959E+02;  2.1382396E-01; -2.7260261E+03;3;  3.1974943E+00;  0.0000000E+00; -2.5642292E+00;0;  2.9743300E-03;  8.8164111E+03;  0.0000000E+00; -4.8024103E-01;  4.0000000E+04;  0.0000000E+00;  3.9499082E+04; -9.3346281E-04;  0.0000000E+00;  3.9077927E-03;  3.4782212E+03;
  9.3828601E-01;  9.9999998E-03; -2.2130606E-01;7639; -6.7962469E-03;  0.0000000E+00; -5.1689218E-04;  9.9699066E+02;  2.1366897E-01; -2.4931455E+03;3;  4.9319129E+00;  0.0000000E+00; -2.5112426E+00;0; -2.1176459E-03;  8.8289229E+03;  0.0000000E+00; -3.7442073E-01;  4.0000000E+04;  0.0000000E+00;  3.9506168E+04; -6.4963847E-03;  0.0000000E+00;  4.3787388E-03;  4.4137197E+03;
  9.3790084E-01;  9.9999998E-03; -2.1118201E-01;7640; -9.6840365E-03;  0.0000000E+00; -6.0792291E-04;  9.9708710E+02;  2.1344215E-01; -2.4132473E+03;3;  6.6580720E+00;  0.0000000E+00; -2.5636542E+00;0; -7.7909543E-03;  8.8473799E+03;  0.0000000E+00; -3.6492455E-01;  4.0000000E+04;  0.0000000E+00;  3.9506656E+04; -1.2380281E-02;  0.0000000E+00;  4.5893271E-03;  4.5205776E+03;
  9.3746251E-01;  9.9999998E-03; -2.0111002E-01;7641; -1.2497834E-02;  0.0000000E+00; -7.0093409E-04;  9.9702496E+02;  2.1320266E-01; -2.4647517E+03;3;  8.3065519E+00;  0.0000000E+00; -2.5867181E+00;0; -1.3610332E-02;  8.8657754E+03;  0.0000000E+00; -4.3573442E-01;  4.0000000E+04;  0.0000000E+00;  3.9502281E+04; -1.8629231E-02;  0.0000000E+00;  5.0188983E-03;  3.9771511E+03;
  9.3705016E-01;  9.9999998E-03; -1.9105345E-01;7642; -1.5188721E-02;  0.0000000E+00; -8.1584707E-04;  9.9690295E+02;  2.1298723E-01; -2.5658347E+03;3;  9.8471270E+00;  0.0000000E+00; -2.5634718E+00;0; -1.9575628E-02;  8.8809258E+03;  0.0000000E+00; -5.5824023E-01;  4.0000000E+04;  0.0000000E+00;  3.9499922E+04; -2.5220221E-02;  0.0000000E+00;  5.6445929E-03;  3.5808655E+03;
  9.3676203E-01;  9.9999998E-03; -1.8100281E-01;7643; -1.7784910E-02;  0.0000000E+00; -9.0656092E-04;  9.9674414E+02;  2.1284807E-01; -2.6973857E+03;3;  1.1254222E+01;  0.0000000E+00; -2.5333948E+00;0; -2.5794666E-02;  8.8891123E+03;  0.0000000E+00; -6.9189811E-01;  4.0000000E+04;  0.0000000E+00;  3.9499836E+04; -3.2122746E-02;  0.0000000E+00;  6.3280794E-03;  3.4365222E+03;
  9.3662220E-01;  9.9999998E-03; -1.7095347E-01;7644; -2.0300373E-02;  0.0000000E+00; -9.5676427E-04;  9.9656207E+02;  2.1279155E-01; -2.8482444E+03;3;  1.2546716E+01;  0.0000000E+00; -2.5139318E+00;0; -3.2301705E-02;  8.8898545E+03;  0.0000000E+00; -7.9879737E-01;  4.0000000E+04;  0.0000000E+00;  3.9501684E+04; -3.9220862E-02;  0.0000000E+00;  6.9191558E-03;  3.5667698E+03;
  9.3660671E-01;  9.9999998E-03; -1.6090359E-01;7645; -2.2727611E-02;  0.0000000E+00; -9.6254353E-04;  9.9636664E+02;  2.1280506E-01; -3.0101646E+03;3;  1.3722506E+01;  0.0000000E+00; -2.5206335E+00;0; -3.9098166E-02;  8.8845605E+03;  0.0000000E+00; -8.4826404E-01;  4.0000000E+04;  0.0000000E+00;  3.9504777E+04; -4.6373155E-02;  0.0000000E+00;  7.2749904E-03;  3.9397568E+03;
  9.3670440E-01;  9.9999998E-03; -1.5085407E-01;7646; -2.5040984E-02;  0.0000000E+00; -9.0701535E-04;  9.9617529E+02;  2.1288584E-01; -3.1686775E+03;3;  1.4735887E+01;  0.0000000E+00; -2.5868518E+00;0; -4.6210773E-02;  8.8742236E+03;  0.0000000E+00; -8.2435799E-01;  4.0000000E+04;  0.0000000E+00;  3.9508492E+04; -5.3469591E-02;  0.0000000E+00;  7.2588162E-03;  4.4854370E+03;
  9.3692207E-01;  9.9999998E-03; -1.4080846E-01;7647; -2.7247768E-02;  0.0000000E+00; -7.8272610E-04;  9.9599359E+02;  2.1303260E-01; -3.3191907E+03;3;  1.5616714E+01;  0.0000000E+00; -2.6453931E+00;0; -5.3679824E-02;  8.8588271E+03;  0.0000000E+00; -7.3065650E-01;  4.0000000E+04;  0.0000000E+00;  3.9512715E+04; -6.0433149E-02;  0.0000000E+00;  6.7533241E-03;  5.1244531E+03;
  9.3724519E-01;  9.9999998E-03; -1.3077410E-01;7648; -2.9341072E-02;  0.0000000E+00; -6.0083199E-04;  9.9583301E+02;  2.1323842E-01; -3.4522722E+03;3;  1.6316032E+01;  0.0000000E+00; -2.6590261E+00;0; -6.1483853E-02;  8.8395605E+03;  0.0000000E+00; -5.8770895E-01;  4.0000000E+04;  0.0000000E+00;  3.9516332E+04; -6.7183420E-02;  0.0000000E+00;  5.6995694E-03;  5.7577021E+03;
  9.3759775E-01;  9.9999998E-03; -1.2075102E-01;7649; -3.1308454E-02;  0.0000000E+00; -3.9309930E-04;  9.9570056E+02;  2.1346070E-01; -3.5619966E+03;3;  1.6858187E+01;  0.0000000E+00; -2.6072433E+00;0; -6.9492884E-02;  8.8199463E+03;  0.0000000E+00; -4.2547503E-01;  4.0000000E+04;  0.0000000E+00;  3.9518672E+04; -7.3629312E-02;  0.0000000E+00;  4.1364268E-03;  6.2638169E+03;
  9.3789995E-01;  9.9999998E-03; -1.1073856E-01;7650; -3.3127770E-02;  0.0000000E+00; -1.9806529E-04;  9.9560541E+02;  2.1365644E-01; -3.6408086E+03;3;  1.7240789E+01;  0.0000000E+00; -2.4380286E+00;0; -7.7539936E-02;  8.8038105E+03;  0.0000000E+00; -2.7381617E-01;  4.0000000E+04;  0.0000000E+00;  3.9519402E+04; -7.9691857E-02;  0.0000000E+00;  2.1519247E-03;  6.5279185E+03;
  9.6212316E-01;  9.9999998E-03; -2.6167423E-01;7696;  2.3256696E-03;  0.0000000E+00;  4.2385408E-03;  9.9357098E+02;  2.2715797E-01; -5.3262617E+03;3; -3.0127633E+00;  0.0000000E+00; -5.6037455E+00;0;  2.7014403E-02;  7.7719053E+03;  0.0000000E+00; -1.0698906E+00;  4.0000000E+04;  0.0000000E+00;  3.9507254E+04;  3.1672462E-03;  0.0000000E+00;  2.3847157E-02;  1.0384764E+04;
  9.6189070E-01;  9.9999998E-03; -2.5162882E-01;7697; -2.9205132E-04;  0.0000000E+00;  5.3446488E-03;  9.9401123E+02;  2.2695294E-01; -4.9615361E+03;3; -8.7026131E-01;  0.0000000E+00; -5.7612996E+00;0;  1.7811030E-02;  7.7933755E+03;  0.0000000E+00; -8.1474483E-01;  4.0000000E+04;  0.0000000E+00;  3.9485543E+04;  1.6015067E-03;  0.0000000E+00;  1.6209524E-02;  7.6077324E+03;
  9.6217757E-01;  9.9999998E-03; -2.4160902E-01;7698; -3.1154586E-03;  0.0000000E+00;  5.8795633E-03;  9.9436548E+02;  2.2702849E-01; -4.6680654E+03;3;  1.0891466E+00;  0.0000000E+00; -5.8949518E+00;0;  1.5093488E-02;  7.7938711E+03;  0.0000000E+00; -1.9722641E-01;  4.0000000E+04;  0.0000000E+00;  3.9459445E+04; -7.3850177E-05;  0.0000000E+00;  1.5167338E-02;  4.1931714E+03;
  9.6223730E-01;  9.9999998E-03; -2.3155236E-01;7699; -5.9262514E-03;  0.0000000E+00;  5.6452225E-03;  9.9481830E+02;  2.2698697E-01; -4.2929194E+03;3;  3.0071440E+00;  0.0000000E+00; -5.9170074E+00;0;  1.2865698E-02;  7.8008184E+03;  0.0000000E+00;  4.1987810E-01;  4.0000000E+04;  0.0000000E+00;  3.9453359E+04; -2.8645936E-03;  0.0000000E+00;  1.5730292E-02;  4.3566787E+03;
  9.6192515E-01;  9.9999998E-03; -2.2142047E-01;7700; -8.7377708E-03;  0.0000000E+00;  5.2844463E-03;  9.9527063E+02;  2.2675911E-01; -3.9181692E+03;3;  4.7573705E+00;  0.0000000E+00; -5.7637429E+00;0;  7.0488742E-03;  7.8193975E+03;  0.0000000E+00;  8.2983702E-01;  4.0000000E+04;  0.0000000E+00;  3.9461398E+04; -6.9860853E-03;  0.0000000E+00;  1.4034959E-02;  6.6841816E+03;
  9.6127278E-01;  9.9999998E-03; -2.1128294E-01;7701; -1.1525624E-02;  0.0000000E+00;  5.0069820E-03;  9.9546362E+02;  2.2636878E-01; -3.7582744E+03;3;  6.4995656E+00;  0.0000000E+00; -5.5706258E+00;0; -1.5772376E-03;  7.8482622E+03;  0.0000000E+00;  9.5807809E-01;  4.0000000E+04;  0.0000000E+00;  3.9463941E+04; -1.2302413E-02;  0.0000000E+00;  1.0725175E-02;  7.8728403E+03;
  9.6054864E-01;  9.9999998E-03; -2.0118192E-01;7702; -1.4251037E-02;  0.0000000E+00;  4.7291555E-03;  9.9550433E+02;  2.2595732E-01; -3.7245476E+03;3;  8.1536732E+00;  0.0000000E+00; -5.3192277E+00;0; -1.1273051E-02;  7.8779468E+03;  0.0000000E+00;  8.4976298E-01;  4.0000000E+04;  0.0000000E+00;  3.9461879E+04; -1.8338926E-02;  0.0000000E+00;  7.0658759E-03;  7.9298838E+03;
  9.5994478E-01;  9.9999998E-03; -1.9109827E-01;7703; -1.6926296E-02;  0.0000000E+00;  4.4593224E-03;  9.9548065E+02;  2.2562334E-01; -3.7441521E+03;3;  9.7068605E+00;  0.0000000E+00; -5.0804925E+00;0; -2.1337859E-02;  7.9012622E+03;  0.0000000E+00;  5.6908834E-01;  4.0000000E+04;  0.0000000E+00;  3.9460469E+04; -2.4792502E-02;  0.0000000E+00;  3.4546417E-03;  7.3070420E+03;
  9.5950705E-01;  9.9999998E-03; -1.8103071E-01;7704; -1.9549383E-02;  0.0000000E+00;  4.2178244E-03;  9.9540698E+02;  2.2539316E-01; -3.8051870E+03;3;  1.1143499E+01;  0.0000000E+00; -4.8396707E+00;0; -3.1573419E-02;  7.9163193E+03;  0.0000000E+00;  1.9027446E-01;  4.0000000E+04;  0.0000000E+00;  3.9461570E+04; -3.1561777E-02;  0.0000000E+00; -1.1642118E-05;  6.3362280E+03;
  9.5926404E-01;  9.9999998E-03; -1.7097160E-01;7705; -2.2115117E-02;  0.0000000E+00;  4.0148916E-03;  9.9529651E+02;  2.2528115E-01; -3.8966897E+03;3;  1.2491985E+01;  0.0000000E+00; -4.6184196E+00;0; -4.1899435E-02;  7.9222114E+03;  0.0000000E+00; -1.9544557E-01;  4.0000000E+04;  0.0000000E+00;  3.9464691E+04; -3.8561847E-02;  0.0000000E+00; -3.3375870E-03;  5.5320776E+03;
  9.5920378E-01;  9.9999998E-03; -1.6092031E-01;7706; -2.4608165E-02;  0.0000000E+00;  3.8483820E-03;  9.9515796E+02;  2.2527687E-01; -4.0115000E+03;3;  1.3707440E+01;  0.0000000E+00; -4.3973331E+00;0; -5.2305065E-02;  7.9198237E+03;  0.0000000E+00; -5.0372887E-01;  4.0000000E+04;  0.0000000E+00;  3.9468816E+04; -4.5737680E-02;  0.0000000E+00; -6.5673841E-03;  5.3089937E+03;
  9.5928890E-01;  9.9999998E-03; -1.5087591E-01;7707; -2.7012594E-02;  0.0000000E+00;  3.7060180E-03;  9.9501093E+02;  2.2535716E-01; -4.1333223E+03;3;  1.4795506E+01;  0.0000000E+00; -4.1708703E+00;0; -6.2768221E-02;  7.9111230E+03;  0.0000000E+00; -6.8121445E-01;  4.0000000E+04;  0.0000000E+00;  3.9473969E+04; -5.3022288E-02;  0.0000000E+00; -9.7459331E-03;  5.6592100E+03;
  9.5948237E-01;  9.9999998E-03; -1.4084472E-01;7708; -2.9324031E-02;  0.0000000E+00;  3.5767872E-03;  9.9486224E+02;  2.2549985E-01; -4.2564780E+03;3;  1.5789381E+01;  0.0000000E+00; -3.9643748E+00;0; -7.3229492E-02;  7.8981587E+03;  0.0000000E+00; -7.1528774E-01;  4.0000000E+04;  0.0000000E+00;  3.9479215E+04; -6.0311310E-02;  0.0000000E+00; -1.2918184E-02;  6.2929321E+03;
  9.5976633E-01;  9.9999998E-03; -1.3082863E-01;7709; -3.1544209E-02;  0.0000000E+00;  3.4600804E-03;  9.9473145E+02;  2.2569373E-01; -4.3648687E+03;3;  1.6697784E+01;  0.0000000E+00; -3.8108160E+00;0; -8.3640806E-02;  7.8821123E+03;  0.0000000E+00; -6.2974328E-01;  4.0000000E+04;  0.0000000E+00;  3.9483383E+04; -6.7475192E-02;  0.0000000E+00; -1.6165612E-02;  6.9728467E+03;
  9.6007270E-01;  9.9999998E-03; -1.2082068E-01;7710; -3.3657912E-02;  0.0000000E+00;  3.3462252E-03;  9.9462708E+02;  2.2589833E-01; -4.4513345E+03;3;  1.7403568E+01;  0.0000000E+00; -3.6660659E+00;0; -9.3945287E-02;  7.8659727E+03;  0.0000000E+00; -4.7172362E-01;  4.0000000E+04;  0.0000000E+00;  3.9486043E+04; -7.4415080E-02;  0.0000000E+00; -1.9530207E-02;  7.5437451E+03;
  9.6033263E-01;  9.9999998E-03; -1.1080820E-01;7711; -3.5635039E-02;  0.0000000E+00;  3.2171065E-03;  9.9453107E+02;  2.2607292E-01; -4.5308374E+03;3;  1.7945398E+01;  0.0000000E+00; -3.5001957E+00;0; -1.0405630E-01;  7.8525820E+03;  0.0000000E+00; -2.9461473E-01;  4.0000000E+04;  0.0000000E+00;  3.9486773E+04; -8.1036299E-02;  0.0000000E+00; -2.3020001E-02;  7.8747271E+03;
  9.8658508E-01;  9.9999998E-03; -2.6182151E-01;7757; -6.6284178E-04;  0.0000000E+00;  1.0393191E-02;  9.9329150E+02;  2.4090473E-01; -5.5577827E+03;3; -3.7539830E+00;  0.0000000E+00; -9.9911366E+00;0;  1.2502493E-01;  6.9123193E+03;  0.0000000E+00; -1.2828293E+00;  4.0000000E+04;  0.0000000E+00;  3.9450020E+04;  7.5096898E-02;  0.0000000E+00;  4.9928036E-02;  8.7139287E+03;
  9.8623824E-01;  9.9999998E-03; -2.5178522E-01;7758; -3.1064488E-03;  0.0000000E+00;  1.1532383E-02;  9.9376318E+02;  2.4062198E-01; -5.1669849E+03;3; -1.4578713E+00;  0.0000000E+00; -9.8417778E+00;0;  1.1642808E-01;  6.9365498E+03;  0.0000000E+00; -5.8988595E-01;  4.0000000E+04;  0.0000000E+00;  3.9423797E+04;  7.1007818E-02;  0.0000000E+00;  4.5420263E-02;  5.4994551E+03;
  9.8617589E-01;  9.9999998E-03; -2.4175794E-01;7759; -5.6535364E-03;  0.0000000E+00;  1.1705912E-02;  9.9431213E+02;  2.4049699E-01; -4.7122397E+03;3;  4.8026031E-01;  0.0000000E+00; -9.5522308E+00;0;  1.1282577E-01;  6.9513301E+03;  0.0000000E+00;  3.6174515E-01;  4.0000000E+04;  0.0000000E+00;  3.9403770E+04;  6.7132615E-02;  0.0000000E+00;  4.5693155E-02;  2.6512988E+03;
  9.8586041E-01;  9.9999998E-03; -2.3168696E-01;7760; -8.1959842E-03;  0.0000000E+00;  1.1261958E-02;  9.9489929E+02;  2.4024333E-01; -4.2257915E+03;3;  2.3054686E+00;  0.0000000E+00; -9.3284483E+00;0;  1.0422297E-01;  6.9715806E+03;  0.0000000E+00;  1.2033986E+00;  4.0000000E+04;  0.0000000E+00;  3.9404617E+04;  6.1071318E-02;  0.0000000E+00;  4.3151651E-02;  5.0765918E+03;
  9.8531961E-01;  9.9999998E-03; -2.2157660E-01;7761; -1.0760264E-02;  0.0000000E+00;  1.0885119E-02;  9.9536359E+02;  2.3988591E-01; -3.8411179E+03;3;  4.1433892E+00;  0.0000000E+00; -9.0330963E+00;0;  8.9135990E-02;  6.9963618E+03;  0.0000000E+00;  1.7796959E+00;  4.0000000E+04;  0.0000000E+00;  3.9411027E+04;  5.3056721E-02;  0.0000000E+00;  3.6079273E-02;  8.5638418E+03;
  9.8459524E-01;  9.9999998E-03; -2.1148820E-01;7762; -1.3362809E-02;  0.0000000E+00;  1.0588755E-02;  9.9556287E+02;  2.3946118E-01; -3.6760388E+03;3;  5.8980460E+00;  0.0000000E+00; -8.6476498E+00;0;  7.0127591E-02;  7.0242617E+03;  0.0000000E+00;  2.0219390E+00;  4.0000000E+04;  0.0000000E+00;  3.9411855E+04;  4.3463700E-02;  0.0000000E+00;  2.6663894E-02;  1.0767582E+04;
  9.8391461E-01;  9.9999998E-03; -2.0143244E-01;7763; -1.5990186E-02;  0.0000000E+00;  1.0285494E-02;  9.9564270E+02;  2.3907937E-01; -3.6098699E+03;3;  7.5878439E+00;  0.0000000E+00; -8.2530241E+00;0;  4.9856424E-02;  7.0486748E+03;  0.0000000E+00;  1.9478706E+00;  4.0000000E+04;  0.0000000E+00;  3.9411539E+04;  3.3256501E-02;  0.0000000E+00;  1.6599923E-02;  1.1585388E+04;
  9.8319644E-01;  9.9999998E-03; -1.9135843E-01;7764; -1.8613998E-02;  0.0000000E+00;  9.9355653E-03;  9.9565082E+02;  2.3868617E-01; -3.6031545E+03;3;  9.2354050E+00;  0.0000000E+00; -7.8302536E+00;0;  2.8684929E-02;  7.0724858E+03;  0.0000000E+00;  1.5929106E+00;  4.0000000E+04;  0.0000000E+00;  3.9414477E+04;  2.2237130E-02;  0.0000000E+00;  6.4477995E-03;  1.1073626E+04;
  9.8253655E-01;  9.9999998E-03; -1.8126582E-01;7765; -2.1228395E-02;  0.0000000E+00;  9.5693152E-03;  9.9557794E+02;  2.3833677E-01; -3.6635474E+03;3;  1.0757315E+01;  0.0000000E+00; -7.4303937E+00;0;  7.5399084E-03;  7.0926562E+03;  0.0000000E+00;  1.0531222E+00;  4.0000000E+04;  0.0000000E+00;  3.9418602E+04;  1.0849248E-02;  0.0000000E+00; -3.3093393E-03;  9.5971416E+03;
  9.8204643E-01;  9.9999998E-03; -1.7116514E-01;7766; -2.3814650E-02;  0.0000000E+00;  9.2148976E-03;  9.9545612E+02;  2.3809414E-01; -3.7644819E+03;3;  1.2196101E+01;  0.0000000E+00; -7.0305643E+00;0; -1.2906062E-02;  7.1056362E+03;  0.0000000E+00;  4.5227560E-01;  4.0000000E+04;  0.0000000E+00;  3.9423660E+04; -4.7453443E-04;  0.0000000E+00; -1.2431528E-02;  7.8544912E+03;
  9.8175645E-01;  9.9999998E-03; -1.6106752E-01;7767; -2.6356539E-02;  0.0000000E+00;  8.8763759E-03;  9.9529810E+02;  2.3796906E-01; -3.8953901E+03;3;  1.3535289E+01;  0.0000000E+00; -6.6392555E+00;0; -3.2413114E-02;  7.1107305E+03;  0.0000000E+00; -8.7754451E-02;  4.0000000E+04;  0.0000000E+00;  3.9429352E+04; -1.1573283E-02;  0.0000000E+00; -2.0839831E-02;  6.6305728E+03;
  9.8166913E-01;  9.9999998E-03; -1.5097943E-01;7768; -2.8840514E-02;  0.0000000E+00;  8.5509624E-03;  9.9513019E+02;  2.3796058E-01; -4.0344954E+03;3;  1.4764667E+01;  0.0000000E+00; -6.2758451E+00;0; -5.0881952E-02;  7.1081963E+03;  0.0000000E+00; -4.7873425E-01;  4.0000000E+04;  0.0000000E+00;  3.9435535E+04; -2.2338983E-02;  0.0000000E+00; -2.8542971E-02;  6.3495068E+03;
  9.8179239E-01;  9.9999998E-03; -1.4090210E-01;7769; -3.1256620E-02;  0.0000000E+00;  8.2382355E-03;  9.9497437E+02;  2.3807466E-01; -4.1635762E+03;3;  1.5896729E+01;  0.0000000E+00; -5.9476757E+00;0; -6.8279386E-02;  7.0982778E+03;  0.0000000E+00; -6.8519419E-01;  4.0000000E+04;  0.0000000E+00;  3.9441543E+04; -3.2627475E-02;  0.0000000E+00; -3.5651915E-02;  6.7616528E+03;
  9.8211920E-01;  9.9999998E-03; -1.3083027E-01;7770; -3.3609498E-02;  0.0000000E+00;  7.9351906E-03;  9.9484271E+02;  2.3829982E-01; -4.2726577E+03;3;  1.7255287E+01;  0.0000000E+00; -5.7570033E+00;0; -8.4674582E-02;  7.0817544E+03;  0.0000000E+00; -7.2238666E-01;  4.0000000E+04;  0.0000000E+00;  3.9446367E+04; -4.2307667E-02;  0.0000000E+00; -4.2366918E-02;  7.4024883E+03;
  9.8253441E-01;  9.9999998E-03; -1.2077134E-01;7771; -3.5944413E-02;  0.0000000E+00;  7.6437220E-03;  9.9472998E+02;  2.3857141E-01; -4.3660356E+03;3;  1.8147081E+01;  0.0000000E+00; -5.5622797E+00;0; -1.0019498E-01;  7.0628848E+03;  0.0000000E+00; -6.3904619E-01;  4.0000000E+04;  0.0000000E+00;  3.9449598E+04; -5.1408518E-02;  0.0000000E+00; -4.8786465E-02;  7.9850332E+03;
  9.8297334E-01;  9.9999998E-03; -1.1073071E-01;7772; -3.8138937E-02;  0.0000000E+00;  7.3255319E-03;  9.9462952E+02;  2.3884819E-01; -4.4492910E+03;3;  1.8747774E+01;  0.0000000E+00; -5.2915831E+00;0; -1.1484186E-01;  7.0439683E+03;  0.0000000E+00; -4.9700066E-01;  4.0000000E+04;  0.0000000E+00;  3.9450387E+04; -5.9813991E-02;  0.0000000E+00; -5.5027865E-02;  8.3501377E+03;
  1.0069424E+00;  9.9999998E-03; -1.4088467E-01;7830; -3.2710698E-02;  0.0000000E+00;  1.4452885E-02;  9.9750159E+02;  2.5193855E-01; -2.0698247E+03;3;  1.6483614E+01;  0.0000000E+00; -8.9076357E+00;0; -2.8109610E-02;  6.3821055E+03;  0.0000000E+00; -6.0761404E-01;  4.0000000E+04;  0.0000000E+00;  3.9398664E+04;  3.9435111E-02;  0.0000000E+00; -6.7544721E-02;  6.7461875E+03;
  1.0069283E+00;  9.9999998E-03; -1.5101565E-01;7829; -3.0196168E-02;  0.0000000E+00;  1.4956097E-02;  9.9782208E+02;  2.5187165E-01; -1.8043068E+03;3;  1.4688324E+01;  0.0000000E+00; -9.0726881E+00;0; -1.0001883E-03;  6.3902729E+03;  0.0000000E+00; -3.5920084E-01;  4.0000000E+04;  0.0000000E+00;  3.9392738E+04;  5.3031411E-02;  0.0000000E+00; -5.4031599E-02;  6.5420620E+03;
  1.0070188E+00;  9.9999998E-03; -1.3076760E-01;7831; -3.5264637E-02;  0.0000000E+00;  1.3960270E-02;  9.9720483E+02;  2.5202149E-01; -2.3156892E+03;3;  1.7922047E+01;  0.0000000E+00; -8.6194525E+00;0; -5.2527554E-02;  6.3726724E+03;  0.0000000E+00; -7.2457159E-01;  4.0000000E+04;  0.0000000E+00;  3.9404125E+04;  2.6981363E-02;  0.0000000E+00; -7.9508916E-02;  7.2492163E+03;
  1.0069726E+00;  9.9999998E-03; -1.6114028E-01;7828; -2.7687123E-02;  0.0000000E+00;  1.5388134E-02;  9.9814465E+02;  2.5182378E-01; -1.5371100E+03;3;  1.3068927E+01;  0.0000000E+00; -9.5253096E+00;0;  2.8663892E-02;  6.3967358E+03;  0.0000000E+00;  2.2212127E-02;  4.0000000E+04;  0.0000000E+00;  3.9386758E+04;  6.7527726E-02;  0.0000000E+00; -3.8863834E-02;  6.9896685E+03;
  1.0073003E+00;  9.9999998E-03; -1.2068341E-01;7832; -3.7761901E-02;  0.0000000E+00;  1.3455243E-02;  9.9697156E+02;  2.5220260E-01; -2.5089631E+03;3;  1.8948969E+01;  0.0000000E+00; -8.1579466E+00;0; -7.4013963E-02;  6.3585781E+03;  0.0000000E+00; -7.3541433E-01;  4.0000000E+04;  0.0000000E+00;  3.9407602E+04;  1.6491942E-02;  0.0000000E+00; -9.0505905E-02;  7.7238608E+03;
  1.0071692E+00;  9.9999998E-03; -1.7124666E-01;7827; -2.5177969E-02;  0.0000000E+00;  1.5771538E-02;  9.9846051E+02;  2.5185257E-01; -1.2753942E+03;3;  1.1488838E+01;  0.0000000E+00; -9.9886427E+00;0;  6.0857549E-02;  6.3983872E+03;  0.0000000E+00;  4.9981299E-01;  4.0000000E+04;  0.0000000E+00;  3.9382141E+04;  8.3061792E-02;  0.0000000E+00; -2.2204241E-02;  8.1191299E+03;
  1.0076154E+00;  9.9999998E-03; -1.8135193E-01;7826; -2.2654492E-02;  0.0000000E+00;  1.6132962E-02;  9.9876099E+02;  2.5202361E-01; -1.0264680E+03;3;  9.9026241E+00;  0.0000000E+00; -1.0519800E+01;0;  9.5663406E-02;  6.3922129E+03;  0.0000000E+00;  9.9624085E-01;  4.0000000E+04;  0.0000000E+00;  3.9378035E+04;  9.9824689E-02;  0.0000000E+00; -4.1612824E-03;  9.4840508E+03;
  1.0078832E+00;  9.9999998E-03; -1.1064310E-01;7833; -4.0169265E-02;  0.0000000E+00;  1.2934702E-02;  9.9680438E+02;  2.5254282E-01; -2.6474746E+03;3;  1.9679701E+01;  0.0000000E+00; -7.6467123E+00;0; -9.2581801E-02;  6.3375327E+03;  0.0000000E+00; -6.7913204E-01;  4.0000000E+04;  0.0000000E+00;  3.9408625E+04;  8.5985754E-03;  0.0000000E+00; -1.0118037E-01;  7.9692271E+03;
  1.0081148E+00;  9.9999998E-03; -1.9143841E-01;7825; -2.0124609E-02;  0.0000000E+00;  1.6411221E-02;  9.9898029E+02;  2.5222933E-01; -8.4479785E+02;3;  8.2662411E+00;  0.0000000E+00; -1.1060951E+01;0;  1.3177374E-01;  6.3829009E+03;  0.0000000E+00;  1.4202238E+00;  4.0000000E+04;  0.0000000E+00;  3.9375254E+04;  1.1670576E-01;  0.0000000E+00;  1.5067983E-02;  1.0493745E+04;
  1.0086817E+00;  9.9999998E-03; -2.0151877E-01;7824; -1.7609736E-02;  0.0000000E+00;  1.6586360E-02;  9.9909320E+02;  2.5248718E-01; -7.5127142E+02;3;  6.5858750E+00;  0.0000000E+00; -1.1679962E+01;0;  1.6860969E-01;  6.3697681E+03;  0.0000000E+00;  1.6851211E+00;  4.0000000E+04;  0.0000000E+00;  3.9373887E+04;  1.3349600E-01;  0.0000000E+00;  3.5113696E-02;  1.0667365E+04;
  1.0093210E+00;  9.9999998E-03; -2.1159746E-01;7823; -1.5137810E-02;  0.0000000E+00;  1.6591342E-02;  9.9911176E+02;  2.5280374E-01; -7.3586469E+02;3;  4.8710728E+00;  0.0000000E+00; -1.2433218E+01;0;  2.0552108E-01;  6.3525068E+03;  0.0000000E+00;  1.7267113E+00;  4.0000000E+04;  0.0000000E+00;  3.9374211E+04;  1.4997348E-01;  0.0000000E+00;  5.5547591E-02;  9.7868672E+03;
  1.0099968E+00;  9.9999998E-03; -2.2170243E-01;7822; -1.2707814E-02;  0.0000000E+00;  1.6317211E-02;  9.9896851E+02;  2.5316739E-01; -8.5457458E+02;3;  3.0681694E+00;  0.0000000E+00; -1.3425932E+01;0;  2.4176592E-01;  6.3319424E+03;  0.0000000E+00;  1.5095410E+00;  4.0000000E+04;  0.0000000E+00;  3.9372508E+04;  1.6581538E-01;  0.0000000E+00;  7.5950533E-02;  7.7921250E+03;
  1.0106953E+00;  9.9999998E-03; -2.3182786E-01;7821; -1.0373569E-02;  0.0000000E+00;  1.5973728E-02;  9.9858435E+02;  2.5357816E-01; -1.1728300E+03;3;  1.1828240E+00;  0.0000000E+00; -1.4453032E+01;0;  2.7607888E-01;  6.3083560E+03;  0.0000000E+00;  1.0258663E+00;  4.0000000E+04;  0.0000000E+00;  3.9363043E+04;  1.8082877E-01;  0.0000000E+00;  9.5250130E-02;  4.6928086E+03;
  1.0112367E+00;  9.9999998E-03; -2.4193001E-01;7820; -8.1690196E-03;  0.0000000E+00;  1.6088331E-02;  9.9795392E+02;  2.5393599E-01; -1.6951245E+03;3; -8.4186286E-01;  0.0000000E+00; -1.4955137E+01;0;  3.0305961E-01;  6.2862275E+03;  0.0000000E+00;  2.9971635E-01;  4.0000000E+04;  0.0000000E+00;  3.9350531E+04;  1.9393060E-01;  0.0000000E+00;  1.0912900E-01;  1.2515261E+03;
  1.0116066E+00;  9.9999998E-03; -2.5198069E-01;7819; -6.1260751E-03;  0.0000000E+00;  1.5796451E-02;  9.9732227E+02;  2.5422099E-01; -2.2184065E+03;3; -2.9080975E+00;  0.0000000E+00; -1.5544180E+01;0;  3.2263643E-01;  6.2665308E+03;  0.0000000E+00; -5.9787196E-01;  4.0000000E+04;  0.0000000E+00;  3.9353262E+04;  2.0494083E-01;  0.0000000E+00;  1.1769561E-01;  1.8420833E+03;
  1.0120146E+00;  9.9999998E-03; -2.6201904E-01;7818; -4.1147429E-03;  0.0000000E+00;  1.3177569E-02;  9.9680035E+02;  2.5452572E-01; -2.6507793E+03;3; -4.6271787E+00;  0.0000000E+00; -1.6430029E+01;0;  3.5418326E-01;  6.2453589E+03;  0.0000000E+00; -1.4776834E+00;  4.0000000E+04;  0.0000000E+00;  3.9369113E+04;  2.1506406E-01;  0.0000000E+00;  1.3911918E-01;  3.5415208E+03;
  1.0352187E+00;  9.9999998E-03; -1.1072110E-01;7894; -4.1348197E-02;  0.0000000E+00;  2.1183513E-02;  9.9959283E+02;  2.6489532E-01; -3.3731314E+02;3;  2.0264969E+01;  0.0000000E+00; -1.0094557E+01;0;  4.2795524E-02;  5.8023618E+03;  0.0000000E+00; -4.8307055E-01;  4.0000000E+04;  0.0000000E+00;  3.9362289E+04;  2.1261461E-01;  0.0000000E+00; -1.6981909E-01;  6.5462544E+03;
  1.0347773E+00;  9.9999998E-03; -1.6114761E-01;7889; -2.7353982E-02;  0.0000000E+00;  2.4801170E-02;  1.0024078E+03;  2.6445457E-01;  1.9947450E+03;3;  1.5077204E+01;  0.0000000E+00; -1.3490636E+01;0;  1.5736479E-01;  5.8586089E+03;  0.0000000E+00; -4.5850110E-01;  4.0000000E+04;  0.0000000E+00;  3.9348777E+04;  2.2541030E-01;  0.0000000E+00; -6.8045519E-02;  6.0490093E+03;
  1.0349896E+00;  9.9999998E-03; -1.5106671E-01;7890; -3.0285669E-02;  0.0000000E+00;  2.4448154E-02;  1.0017972E+03;  2.6463771E-01;  1.4888986E+03;3;  1.6769514E+01;  0.0000000E+00; -1.3073559E+01;0;  1.2651804E-01;  5.8442949E+03;  0.0000000E+00; -5.2735060E-01;  4.0000000E+04;  0.0000000E+00;  3.9351824E+04;  2.2042394E-01;  0.0000000E+00; -9.3905903E-02;  6.0257183E+03;
  1.0347202E+00;  9.9999998E-03; -1.7125271E-01;7888; -2.4526345E-02;  0.0000000E+00;  2.5200985E-02;  1.0030078E+03;  2.6431897E-01;  2.4918018E+03;3;  1.2584524E+01;  0.0000000E+00; -1.2938585E+01;0;  1.9368340E-01;  5.8696973E+03;  0.0000000E+00; -3.5541016E-01;  4.0000000E+04;  0.0000000E+00;  3.9346809E+04;  2.3345332E-01;  0.0000000E+00; -3.9769918E-02;  6.2425420E+03;
  1.0353408E+00;  9.9999998E-03; -1.4099410E-01;7891; -3.3217527E-02;  0.0000000E+00;  2.4002027E-02;  1.0011992E+03;  2.6485953E-01;  9.9342194E+02;3;  1.8029882E+01;  0.0000000E+00; -1.2512426E+01;0;  1.0143876E-01;  5.8276748E+03;  0.0000000E+00; -5.5471921E-01;  4.0000000E+04;  0.0000000E+00;  3.9355098E+04;  2.1875140E-01;  0.0000000E+00; -1.1731264E-01;  6.1592354E+03;
  1.0355433E+00;  9.9999998E-03; -1.2081736E-01;7893; -3.8761321E-02;  0.0000000E+00;  2.2407142E-02;  1.0000946E+03;  2.6501799E-01;  7.8415039E+01;3;  1.9729717E+01;  0.0000000E+00; -1.1104753E+01;0;  6.1079964E-02;  5.8049536E+03;  0.0000000E+00; -5.1959264E-01;  4.0000000E+04;  0.0000000E+00;  3.9360852E+04;  2.1640655E-01;  0.0000000E+00; -1.5532659E-01;  6.5040493E+03;
  1.0346667E+00;  9.9999998E-03; -1.8137027E-01;7887; -2.1907317E-02;  0.0000000E+00;  2.5573026E-02;  1.0035306E+03;  2.6418075E-01;  2.9249614E+03;3;  1.0397076E+01;  0.0000000E+00; -1.3234118E+01;0;  2.3384029E-01;  5.8792910E+03;  0.0000000E+00; -2.3226283E-01;  4.0000000E+04;  0.0000000E+00;  3.9346184E+04;  2.4307470E-01;  0.0000000E+00; -9.2344163E-03;  6.5067227E+03;
  1.0346005E+00;  9.9999998E-03; -1.9149932E-01;7886; -1.9386766E-02;  0.0000000E+00;  2.5681501E-02;  1.0039152E+03;  2.6404980E-01;  3.2435598E+03;3;  8.4346399E+00;  0.0000000E+00; -1.3950725E+01;0;  2.7686727E-01;  5.8869253E+03;  0.0000000E+00; -1.1047113E-01;  4.0000000E+04;  0.0000000E+00;  3.9346777E+04;  2.5390172E-01;  0.0000000E+00;  2.2965563E-02;  6.6866250E+03;
  1.0355843E+00;  9.9999998E-03; -1.3091023E-01;7892; -3.6052547E-02;  0.0000000E+00;  2.3332683E-02;  1.0006295E+03;  2.6500759E-01;  5.2154889E+02;3;  1.8826458E+01;  0.0000000E+00; -1.1987202E+01;0;  8.0308497E-02;  5.8134375E+03;  0.0000000E+00; -5.4723841E-01;  4.0000000E+04;  0.0000000E+00;  3.9358367E+04;  2.1818957E-01;  0.0000000E+00; -1.3788107E-01;  6.3506245E+03;
  1.0347285E+00;  9.9999998E-03; -2.0162626E-01;7885; -1.6929731E-02;  0.0000000E+00;  2.5457313E-02;  1.0041641E+03;  2.6402631E-01;  3.4497693E+03;3;  6.4115992E+00;  0.0000000E+00; -1.5029997E+01;0;  3.2303533E-01;  5.8886650E+03;  0.0000000E+00; -3.1000411E-02;  4.0000000E+04;  0.0000000E+00;  3.9347203E+04;  2.6670286E-01;  0.0000000E+00;  5.6332469E-02;  6.6067080E+03;
  1.0349844E+00;  9.9999998E-03; -2.1172766E-01;7884; -1.4580498E-02;  0.0000000E+00;  2.4612650E-02;  1.0042527E+03;  2.6408374E-01;  3.5231472E+03;3;  4.3485684E+00;  0.0000000E+00; -1.6625711E+01;0;  3.7120390E-01;  5.8854492E+03;  0.0000000E+00; -1.8080289E-02;  4.0000000E+04;  0.0000000E+00;  3.9347953E+04;  2.8048545E-01;  0.0000000E+00;  9.0718441E-02;  6.2869463E+03;
  1.0354596E+00;  9.9999998E-03; -2.2182430E-01;7883; -1.2429198E-02;  0.0000000E+00;  2.2494681E-02;  1.0041977E+03;  2.6425985E-01;  3.4776187E+03;3;  2.2935617E+00;  0.0000000E+00; -1.9264818E+01;0;  4.2293066E-01;  5.8757642E+03;  0.0000000E+00; -1.0323811E-01;  4.0000000E+04;  0.0000000E+00;  3.9348312E+04;  2.9526991E-01;  0.0000000E+00;  1.2766074E-01;  5.7405591E+03;
  1.0360814E+00;  9.9999998E-03; -2.3195408E-01;7882; -9.7198812E-03;  0.0000000E+00;  1.7898055E-02;  1.0038690E+03;  2.6452702E-01;  3.2052390E+03;3;  1.6965147E+00;  0.0000000E+00; -2.4467669E+01;0;  4.8364165E-01;  5.8610435E+03;  0.0000000E+00; -3.0633852E-01;  4.0000000E+04;  0.0000000E+00;  3.9339219E+04;  3.1027868E-01;  0.0000000E+00;  1.7336297E-01;  4.2415718E+03;
  1.0366914E+00;  9.9999998E-03; -2.4208000E-01;7881; -6.0893893E-03;  0.0000000E+00;  1.2488041E-02;  1.0032241E+03;  2.6482314E-01;  2.6709492E+03;3;  1.2561955E+00;  0.0000000E+00; -2.5732576E+01;0;  5.5653691E-01;  5.8444819E+03;  0.0000000E+00; -6.4438879E-01;  4.0000000E+04;  0.0000000E+00;  3.9318598E+04;  3.2447803E-01;  0.0000000E+00;  2.3205887E-01;  1.7477350E+03;
  1.0372554E+00;  9.9999998E-03; -2.5215349E-01;7880; -2.4419746E-03;  0.0000000E+00;  8.1990445E-03;  1.0025511E+03;  2.6512378E-01;  2.1134517E+03;3; -1.7218428E+00;  0.0000000E+00; -2.1695259E+01;0;  6.3711166E-01;  5.8275884E+03;  0.0000000E+00; -1.1330361E+00;  4.0000000E+04;  0.0000000E+00;  3.9305906E+04;  3.3776945E-01;  0.0000000E+00;  2.9934219E-01;  8.9860284E+02;
  1.0376141E+00;  9.9999998E-03; -2.6220614E-01;7879;  8.1418006E-04;  0.0000000E+00;  4.9128789E-03;  1.0018572E+03;  2.6534662E-01;  1.5385728E+03;3; -6.3492217E+00;  0.0000000E+00; -1.5985520E+01;0;  7.1900868E-01;  5.8129937E+03;  0.0000000E+00; -1.7352936E+00;  4.0000000E+04;  0.0000000E+00;  3.9302492E+04;  3.4971491E-01;  0.0000000E+00;  3.6929378E-01;  1.0512219E+03;
  1.0629741E+00;  9.9999998E-03; -2.5226477E-01;7941;  2.8899813E-02;  0.0000000E+00;  1.9426825E-02;  1.0035371E+03;  2.7064595E-01;  2.9302458E+03;3;  3.1735750E+01;  0.0000000E+00; -4.3482086E+01;0;  7.9547393E-01;  5.6051846E+03;  0.0000000E+00; -2.0513933E+00;  4.0000000E+04;  0.0000000E+00;  3.9292516E+04;  4.1402540E-01;  0.0000000E+00;  3.8144857E-01;  4.6282861E+02;
  1.0624770E+00;  9.9999998E-03; -2.4219620E-01;7942;  2.4461234E-02;  0.0000000E+00;  3.1734232E-02;  1.0042684E+03;  2.7047488E-01;  3.5361267E+03;3;  3.0907190E+01;  0.0000000E+00; -3.4333206E+01;0;  6.8386376E-01;  5.6165771E+03;  0.0000000E+00; -1.8355004E+00;  4.0000000E+04;  0.0000000E+00;  3.9305293E+04;  4.1435814E-01;  0.0000000E+00;  2.6950559E-01;  1.7957474E+03;
  1.0620601E+00;  9.9999998E-03; -2.3209235E-01;7943;  1.9432945E-02;  0.0000000E+00;  3.9862268E-02;  1.0048735E+03;  2.7034667E-01;  4.0374236E+03;3;  2.9767729E+01;  0.0000000E+00; -2.3585747E+01;0;  6.1856985E-01;  5.6254326E+03;  0.0000000E+00; -1.6624473E+00;  4.0000000E+04;  0.0000000E+00;  3.9322988E+04;  4.1676185E-01;  0.0000000E+00;  2.0180798E-01;  4.2756582E+03;
  1.0635724E+00;  9.9999998E-03; -2.6232222E-01;7940;  2.9974639E-02;  0.0000000E+00;  3.8329998E-03;  1.0027438E+03;  2.7083746E-01;  2.2730110E+03;3;  3.3393806E+01;  0.0000000E+00; -2.8409046E+01;0;  9.8677981E-01;  5.5919858E+03;  0.0000000E+00; -2.2507174E+00;  4.0000000E+04;  0.0000000E+00;  3.9284512E+04;  4.1445774E-01;  0.0000000E+00;  5.7232207E-01;  1.5467152E+03;
  1.0617212E+00;  9.9999998E-03; -2.2201194E-01;7944;  1.4634168E-02;  0.0000000E+00;  4.4555619E-02;  1.0051133E+03;  2.7026960E-01;  4.2360264E+03;3;  2.9308735E+01;  0.0000000E+00; -1.7007700E+01;0;  5.7373142E-01;  5.6311602E+03;  0.0000000E+00; -1.5226012E+00;  4.0000000E+04;  0.0000000E+00;  3.9328344E+04;  4.2181227E-01;  0.0000000E+00;  1.5191916E-01;  5.4035283E+03;
  1.0615482E+00;  9.9999998E-03; -2.1198332E-01;7945;  9.1222823E-03;  0.0000000E+00;  4.6011347E-02;  1.0050248E+03;  2.7025691E-01;  4.1627485E+03;3;  2.9164480E+01;  0.0000000E+00; -1.5066257E+01;0;  5.3809130E-01;  5.6322852E+03;  0.0000000E+00; -1.3959523E+00;  4.0000000E+04;  0.0000000E+00;  3.9326984E+04;  4.3034822E-01;  0.0000000E+00;  1.0774310E-01;  5.9440713E+03;
  1.0615150E+00;  9.9999998E-03; -2.0194830E-01;7946;  3.0513597E-03;  0.0000000E+00;  4.6154201E-02;  1.0047242E+03;  2.7029330E-01;  3.9136812E+03;3;  2.8873989E+01;  0.0000000E+00; -1.4717599E+01;0;  5.0621927E-01;  5.6289810E+03;  0.0000000E+00; -1.2601702E+00;  4.0000000E+04;  0.0000000E+00;  3.9327859E+04;  4.4315359E-01;  0.0000000E+00;  6.3065693E-02;  6.7187427E+03;
  1.0615842E+00;  9.9999998E-03; -1.9188172E-01;7947; -3.1564659E-03;  0.0000000E+00;  4.5849729E-02;  1.0041906E+03;  2.7038121E-01;  3.4716399E+03;3;  2.7752768E+01;  0.0000000E+00; -1.4156408E+01;0;  4.7858402E-01;  5.6216191E+03;  0.0000000E+00; -1.1120538E+00;  4.0000000E+04;  0.0000000E+00;  3.9328695E+04;  4.6077532E-01;  0.0000000E+00;  1.7808696E-02;  7.4131909E+03;
  1.0617630E+00;  9.9999998E-03; -1.8179275E-01;7948; -9.1011440E-03;  0.0000000E+00;  4.5275841E-02;  1.0034372E+03;  2.7051559E-01;  2.8474890E+03;3;  2.6827675E+01;  0.0000000E+00; -1.4066549E+01;0;  4.5693666E-01;  5.6105400E+03;  0.0000000E+00; -9.6115226E-01;  4.0000000E+04;  0.0000000E+00;  3.9328141E+04;  4.8388496E-01;  0.0000000E+00; -2.6948299E-02;  7.7633237E+03;
  1.0622045E+00;  9.9999998E-03; -1.7169833E-01;7949; -1.4620765E-02;  0.0000000E+00;  4.4621952E-02;  1.0024933E+03;  2.7071238E-01;  2.0656213E+03;3;  2.5680717E+01;  0.0000000E+00; -1.3580117E+01;0;  4.4469756E-01;  5.5949727E+03;  0.0000000E+00; -8.1802922E-01;  4.0000000E+04;  0.0000000E+00;  3.9326070E+04;  5.1515675E-01;  0.0000000E+00; -7.0459194E-02;  7.7181421E+03;
  1.0629212E+00;  9.9999998E-03; -1.6160232E-01;7950; -1.9622998E-02;  0.0000000E+00;  4.3881364E-02;  1.0014240E+03;  2.7095392E-01;  1.1796632E+03;3;  2.5244120E+01;  0.0000000E+00; -1.2964300E+01;0;  4.4411454E-01;  5.5757451E+03;  0.0000000E+00; -6.8912089E-01;  4.0000000E+04;  0.0000000E+00;  3.9323957E+04;  5.5623901E-01;  0.0000000E+00; -1.1212447E-01;  7.2870098E+03;
  1.0646216E+00;  9.9999998E-03; -1.1097445E-01;7955; -4.0473443E-02;  0.0000000E+00;  3.4611456E-02;  9.9684808E+02;  2.7155024E-01; -2.6111560E+03;3;  2.2076479E+01;  0.0000000E+00; -9.6593113E+00;0;  5.1556051E-01;  5.4999907E+03;  0.0000000E+00; -1.5643269E-01;  4.0000000E+04;  0.0000000E+00;  3.9318336E+04;  7.7920234E-01;  0.0000000E+00; -2.6364180E-01;  4.2094551E+03;
  1.0636010E+00;  9.9999998E-03; -1.5148304E-01;7951; -2.4399206E-02;  0.0000000E+00;  4.2786792E-02;  1.0003265E+03;  2.7117580E-01;  2.7049777E+02;3;  2.4646818E+01;  0.0000000E+00; -1.2432200E+01;0;  4.5185867E-01;  5.5563950E+03;  0.0000000E+00; -5.7534742E-01;  4.0000000E+04;  0.0000000E+00;  3.9321965E+04;  6.0262072E-01;  0.0000000E+00; -1.5076205E-01;  6.5284863E+03;
  1.0641603E+00;  9.9999998E-03; -1.4135374E-01;7952; -2.8866677E-02;  0.0000000E+00;  4.1329741E-02;  9.9928009E+02;  2.7135155E-01; -5.9639850E+02;3;  2.4244650E+01;  0.0000000E+00; -1.1846025E+01;0;  4.6594560E-01;  5.5382754E+03;  0.0000000E+00; -4.7240025E-01;  4.0000000E+04;  0.0000000E+00;  3.9320547E+04;  6.5137959E-01;  0.0000000E+00; -1.8543397E-01;  5.6678809E+03;
  1.0647062E+00;  9.9999998E-03; -1.2109675E-01;7954; -3.6956277E-02;  0.0000000E+00;  3.7226863E-02;  9.9751764E+02;  2.7154183E-01; -2.0564824E+03;3;  2.2917629E+01;  0.0000000E+00; -1.0435535E+01;0;  5.0115347E-01;  5.5095498E+03;  0.0000000E+00; -2.6583627E-01;  4.0000000E+04;  0.0000000E+00;  3.9319215E+04;  7.4287742E-01;  0.0000000E+00; -2.4172392E-01;  4.4822036E+03;
  1.0645336E+00;  9.9999998E-03; -1.3122453E-01;7953; -3.3094734E-02;  0.0000000E+00;  3.9462503E-02;  9.9833350E+02;  2.7147526E-01; -1.3805846E+03;3;  2.3442770E+01;  0.0000000E+00; -1.1175330E+01;0;  4.8332107E-01;  5.5225137E+03;  0.0000000E+00; -3.7165162E-01;  4.0000000E+04;  0.0000000E+00;  3.9319676E+04;  6.9902343E-01;  0.0000000E+00; -2.1570234E-01;  4.9478403E+03;
  1.0893016E+00;  9.9999998E-03; -2.5228596E-01;8002;  4.6128560E-02;  0.0000000E+00;  6.6079147E-02;  1.0004243E+03;  2.7099550E-01;  3.5147122E+02;3;  4.9234325E+01;  0.0000000E+00; -2.1433632E+01;0;  7.4943542E-01;  5.5504199E+03;  0.0000000E+00; -2.8877215E+00;  4.0000000E+04;  0.0000000E+00;  3.9325363E+04;  5.1605505E-01;  0.0000000E+00;  2.3338035E-01;  6.7010220E+03;
  1.0897706E+00;  9.9999998E-03; -2.6234606E-01;8001;  4.8983175E-02;  0.0000000E+00;  5.0865814E-02;  9.9976752E+02;  2.7111277E-01; -1.9257335E+02;3;  5.1748959E+01;  0.0000000E+00; -3.4358829E+01;0;  8.3370614E-01;  5.5404424E+03;  0.0000000E+00; -3.0555642E+00;  4.0000000E+04;  0.0000000E+00;  3.9328582E+04;  4.8392019E-01;  0.0000000E+00;  3.4978595E-01;  7.6933135E+03;
  1.0888755E+00;  9.9999998E-03; -2.4221659E-01;8003;  4.1906260E-02;  0.0000000E+00;  7.2071560E-02;  1.0009815E+03;  2.7088180E-01;  8.1305536E+02;3;  4.7303619E+01;  0.0000000E+00; -1.5866353E+01;0;  7.4903530E-01;  5.5589404E+03;  0.0000000E+00; -2.4914026E+00;  4.0000000E+04;  0.0000000E+00;  3.9326816E+04;  5.5384123E-01;  0.0000000E+00;  1.9519405E-01;  5.7291597E+03;
  1.0885267E+00;  9.9999998E-03; -2.3212868E-01;8004;  3.7014306E-02;  0.0000000E+00;  7.4580580E-02;  1.0013200E+03;  2.7079719E-01;  1.0935219E+03;3;  4.5588757E+01;  0.0000000E+00; -1.4534332E+01;0;  7.6368630E-01;  5.5646250E+03;  0.0000000E+00; -2.0502031E+00;  4.0000000E+04;  0.0000000E+00;  3.9331301E+04;  5.9923339E-01;  0.0000000E+00;  1.6445293E-01;  6.7940938E+03;
  1.0883309E+00;  9.9999998E-03; -2.2205308E-01;8005;  3.1596873E-02;  0.0000000E+00;  7.5560845E-02;  1.0012620E+03;  2.7076206E-01;  1.0455267E+03;3;  4.3485603E+01;  0.0000000E+00; -1.4284803E+01;0;  7.8136349E-01;  5.5664014E+03;  0.0000000E+00; -1.6384369E+00;  4.0000000E+04;  0.0000000E+00;  3.9330020E+04;  6.5424037E-01;  0.0000000E+00;  1.2712315E-01;  8.4034219E+03;
  1.0882820E+00;  9.9999998E-03; -2.1203150E-01;8006;  2.5771515E-02;  0.0000000E+00;  7.5508408E-02;  1.0008328E+03;  2.7076241E-01;  6.8990747E+02;3;  4.1292862E+01;  0.0000000E+00; -1.4175956E+01;0;  8.0296183E-01;  5.5643042E+03;  0.0000000E+00; -1.2681667E+00;  4.0000000E+04;  0.0000000E+00;  3.9322832E+04;  7.1990120E-01;  0.0000000E+00;  8.3060600E-02;  9.9312002E+03;
  1.0883687E+00;  9.9999998E-03; -2.0201974E-01;8007;  1.9613719E-02;  0.0000000E+00;  7.4816138E-02;  1.0001752E+03;  2.7078956E-01;  1.4517090E+02;3;  3.9224525E+01;  0.0000000E+00; -1.4056057E+01;0;  8.3127773E-01;  5.5586743E+03;  0.0000000E+00; -9.3335980E-01;  4.0000000E+04;  0.0000000E+00;  3.9318051E+04;  7.9736149E-01;  0.0000000E+00;  3.3916235E-02;  1.1516173E+04;
  1.0887370E+00;  9.9999998E-03; -1.9198094E-01;8008;  1.3077082E-02;  0.0000000E+00;  7.3846847E-02;  9.9926111E+02;  2.7084997E-01; -6.1213702E+02;3;  3.7447598E+01;  0.0000000E+00; -1.3290299E+01;0;  8.7247676E-01;  5.5491646E+03;  0.0000000E+00; -6.4220828E-01;  4.0000000E+04;  0.0000000E+00;  3.9314645E+04;  8.9099294E-01;  0.0000000E+00; -1.8516168E-02;  1.2622642E+04;
  1.0892707E+00;  9.9999998E-03; -1.8191801E-01;8009;  6.2708892E-03;  0.0000000E+00;  7.2495267E-02;  9.9814703E+02;  2.7093613E-01; -1.5350574E+03;3;  3.5362881E+01;  0.0000000E+00; -1.3059132E+01;0;  9.2770964E-01;  5.5366440E+03;  0.0000000E+00; -4.1691485E-01;  4.0000000E+04;  0.0000000E+00;  3.9310266E+04;  9.9977595E-01;  0.0000000E+00; -7.2066315E-02;  1.2842559E+04;
  1.0899649E+00;  9.9999998E-03; -1.7182858E-01;8010; -4.9738208E-04;  0.0000000E+00;  7.0895717E-02;  9.9688788E+02;  2.7104184E-01; -2.5781616E+03;3;  3.3255569E+01;  0.0000000E+00; -1.2698659E+01;0;  9.9905097E-01;  5.5219180E+03;  0.0000000E+00; -2.7541569E-01;  4.0000000E+04;  0.0000000E+00;  3.9304961E+04;  1.1240965E+00;  0.0000000E+00; -1.2504552E-01;  1.2032156E+04;
  1.0907713E+00;  9.9999998E-03; -1.6170689E-01;8011; -7.0373993E-03;  0.0000000E+00;  6.8964280E-02;  9.9557544E+02;  2.7114645E-01; -3.6654072E+03;3;  3.0998108E+01;  0.0000000E+00; -1.2681974E+01;0;  1.0864469E+00;  5.5061240E+03;  0.0000000E+00; -2.1961559E-01;  4.0000000E+04;  0.0000000E+00;  3.9299559E+04;  1.2623152E+00;  0.0000000E+00; -1.7586830E-01;  1.0275117E+04;
  1.0915288E+00;  9.9999998E-03; -1.5155965E-01;8012; -1.3334610E-02;  0.0000000E+00;  6.6625498E-02;  9.9430389E+02;  2.7124020E-01; -4.7187788E+03;3;  2.8212652E+01;  0.0000000E+00; -1.2102399E+01;0;  1.1842119E+00;  5.4902969E+03;  0.0000000E+00; -2.2682200E-01;  4.0000000E+04;  0.0000000E+00;  3.9295113E+04;  1.4070102E+00;  0.0000000E+00; -2.2279835E-01;  7.9118325E+03;
  1.0926327E+00;  9.9999998E-03; -1.1104864E-01;8016; -3.4610216E-02;  0.0000000E+00;  5.2295681E-02;  9.9074994E+02;  2.7148464E-01; -7.6629141E+03;3;  2.1787052E+01;  0.0000000E+00; -1.0490532E+01;0;  1.5484157E+00;  5.4391646E+03;  0.0000000E+00; -8.7450705E-02;  4.0000000E+04;  0.0000000E+00;  3.9289027E+04;  1.9072216E+00;  0.0000000E+00; -3.5880584E-01;  1.9795952E+03;
  1.0921174E+00;  9.9999998E-03; -1.4140634E-01;8013; -1.9299736E-02;  0.0000000E+00;  6.3738108E-02;  9.9317596E+02;  2.7132425E-01; -5.6531494E+03;3;  2.6434267E+01;  0.0000000E+00; -1.1634659E+01;0;  1.2849622E+00;  5.4752368E+03;  0.0000000E+00; -2.5291243E-01;  4.0000000E+04;  0.0000000E+00;  3.9292434E+04;  1.5495243E+00;  0.0000000E+00; -2.6456207E-01;  5.4844565E+03;
  1.0926840E+00;  9.9999998E-03; -1.2114488E-01;8015; -3.0102670E-02;  0.0000000E+00;  5.6459330E-02;  9.9140363E+02;  2.7144796E-01; -7.1213892E+03;3;  2.2948128E+01;  0.0000000E+00; -1.1148698E+01;0;  1.4723059E+00;  5.4493496E+03;  0.0000000E+00; -1.9604656E-01;  4.0000000E+04;  0.0000000E+00;  3.9290371E+04;  1.8044183E+00;  0.0000000E+00; -3.3211243E-01;  2.4252998E+03;
  1.0924957E+00;  9.9999998E-03; -1.3126266E-01;8014; -2.4928061E-02;  0.0000000E+00;  6.0267005E-02;  9.9220703E+02;  2.7139401E-01; -6.4558291E+03;3;  2.4847134E+01;  0.0000000E+00; -1.1372203E+01;0;  1.3823460E+00;  5.4614863E+03;  0.0000000E+00; -2.5175938E-01;  4.0000000E+04;  0.0000000E+00;  3.9290922E+04;  1.6831895E+00;  0.0000000E+00; -3.0084345E-01;  3.5435779E+03;
  1.1161207E+00;  9.9999998E-03; -2.4224477E-01;8064;  4.3767929E-02;  0.0000000E+00;  1.0075796E-01;  9.9707233E+02;  2.6768771E-01; -2.4252537E+03;3;  5.0097401E+01;  0.0000000E+00; -1.0959349E+01;0;  1.1368595E+00;  5.6423364E+03;  0.0000000E+00; -2.3729353E+00;  4.0000000E+04;  0.0000000E+00;  3.9347141E+04;  1.0370326E+00;  0.0000000E+00;  9.9826880E-02;  9.1128398E+03;
  1.1165684E+00;  9.9999998E-03; -2.5231400E-01;8063;  4.7362782E-02;  0.0000000E+00;  9.7495995E-02;  9.9673883E+02;  2.6778495E-01; -2.7015110E+03;3;  5.1741703E+01;  0.0000000E+00; -1.2408046E+01;0;  1.0522847E+00;  5.6352676E+03;  0.0000000E+00; -3.1403611E+00;  4.0000000E+04;  0.0000000E+00;  3.9357012E+04;  9.4126970E-01;  0.0000000E+00;  1.1101500E-01;  1.1884464E+04;
  1.1158047E+00;  9.9999998E-03; -2.3215723E-01;8065;  3.9119709E-02;  0.0000000E+00;  1.0143943E-01;  9.9714703E+02;  2.6760107E-01; -2.3633867E+03;3;  4.7312412E+01;  0.0000000E+00; -1.0817946E+01;0;  1.2329689E+00;  5.6464077E+03;  0.0000000E+00; -1.6540190E+00;  4.0000000E+04;  0.0000000E+00;  3.9342359E+04;  1.1504595E+00;  0.0000000E+00;  8.2509369E-02;  8.5293496E+03;
  1.1156316E+00;  9.9999998E-03; -2.2207277E-01;8066;  3.4328490E-02;  0.0000000E+00;  1.0139658E-01;  9.9685522E+02;  2.6755559E-01; -2.6051326E+03;3;  4.5015621E+01;  0.0000000E+00; -1.0952215E+01;0;  1.3347858E+00;  5.6468086E+03;  0.0000000E+00; -1.0501373E+00;  4.0000000E+04;  0.0000000E+00;  3.9334691E+04;  1.2838898E+00;  0.0000000E+00;  5.0896026E-02;  9.4507764E+03;
  1.1170985E+00;  9.9999998E-03; -2.6237753E-01;8062;  4.9321011E-02;  0.0000000E+00;  8.9063704E-02;  9.9618488E+02;  2.6787791E-01; -3.1604092E+03;3;  5.3583363E+01;  0.0000000E+00; -1.5493128E+01;0;  1.0101759E+00;  5.6261621E+03;  0.0000000E+00; -3.7554379E+00;  4.0000000E+04;  0.0000000E+00;  3.9370176E+04;  8.5928047E-01;  0.0000000E+00;  1.5089548E-01;  1.4529172E+04;
  1.1155937E+00;  9.9999998E-03; -2.1203913E-01;8067;  2.9330226E-02;  0.0000000E+00;  1.0072046E-01;  9.9620367E+02;  2.6754221E-01; -3.1448630E+03;3;  4.2921661E+01;  0.0000000E+00; -1.0905538E+01;0;  1.4465190E+00;  5.6435835E+03;  0.0000000E+00; -5.6750846E-01;  4.0000000E+04;  0.0000000E+00;  3.9321293E+04;  1.4373159E+00;  0.0000000E+00;  9.2031052E-03;  1.0764571E+04;
  1.1157186E+00;  9.9999998E-03; -2.0202398E-01;8068;  2.3946602E-02;  0.0000000E+00;  9.9474914E-02;  9.9534412E+02;  2.6754740E-01; -3.8569150E+03;3;  4.1043610E+01;  0.0000000E+00; -1.0545695E+01;0;  1.5732200E+00;  5.6373564E+03;  0.0000000E+00; -1.9317330E-01;  4.0000000E+04;  0.0000000E+00;  3.9310266E+04;  1.6124161E+00;  0.0000000E+00; -3.9196145E-02;  1.2258839E+04;
  1.1200919E+00;  9.9999998E-03; -1.1104559E-01;8077; -4.3629571E-03;  0.0000000E+00;  7.2659492E-02;  9.8786920E+02;  2.6783702E-01; -1.0049001E+04;3; -3.3287945E+01;  0.0000000E+00; -1.3560731E+01;0;  3.2053957E+00;  5.5537358E+03;  0.0000000E+00; -1.0922717E-01;  4.0000000E+04;  0.0000000E+00;  3.9266441E+04;  3.6382420E+00;  0.0000000E+00; -4.3284625E-01;  6.6734583E+02;
  1.1161271E+00;  9.9999998E-03; -1.9197832E-01;8069;  1.7945679E-02;  0.0000000E+00;  9.7793840E-02;  9.9432574E+02;  2.6755342E-01; -4.7005029E+03;3;  3.8611027E+01;  0.0000000E+00; -1.0472916E+01;0;  1.7230603E+00;  5.6291465E+03;  0.0000000E+00;  7.3876403E-02;  4.0000000E+04;  0.0000000E+00;  3.9301652E+04;  1.8151559E+00;  0.0000000E+00; -9.2095561E-02;  1.3176263E+04;
  1.1166937E+00;  9.9999998E-03; -1.8188573E-01;8070;  1.1568887E-02;  0.0000000E+00;  9.5759630E-02;  9.9319684E+02;  2.6757064E-01; -5.6356802E+03;3;  3.5529072E+01;  0.0000000E+00; -1.0834542E+01;0;  1.8934021E+00;  5.6195195E+03;  0.0000000E+00;  2.2259843E-01;  4.0000000E+04;  0.0000000E+00;  3.9293520E+04;  2.0401347E+00;  0.0000000E+00; -1.4673263E-01;  1.3040494E+04;
  1.1204165E+00;  9.9999998E-03; -1.2111042E-01;8076; -2.0070791E-03;  0.0000000E+00;  7.7763528E-02;  9.8822406E+02;  2.6775506E-01; -9.7550117E+03;3; -2.4999140E+01;  0.0000000E+00; -1.3032935E+01;0;  3.0813563E+00;  5.5622124E+03;  0.0000000E+00; -1.7976262E-01;  4.0000000E+04;  0.0000000E+00;  3.9267578E+04;  3.4881372E+00;  0.0000000E+00; -4.0678087E-01;  7.2809204E+02;
  1.1174041E+00;  9.9999998E-03; -1.7174973E-01;8071;  5.2348799E-03;  0.0000000E+00;  9.3462251E-02;  9.9204706E+02;  2.6759264E-01; -6.5881357E+03;3;  3.0356773E+01;  0.0000000E+00; -1.1012424E+01;0;  2.0837412E+00;  5.6090957E+03;  0.0000000E+00;  2.4746320E-01;  4.0000000E+04;  0.0000000E+00;  3.9285027E+04;  2.2845867E+00;  0.0000000E+00; -2.0084549E-01;  1.1731116E+04;
  1.1182215E+00;  9.9999998E-03; -1.6158979E-01;8072; -3.8690184E-04;  0.0000000E+00;  9.0933613E-02;  9.9096216E+02;  2.6761484E-01; -7.4868677E+03;3;  2.3816956E+01;  0.0000000E+00; -1.1591050E+01;0;  2.2907910E+00;  5.5986255E+03;  0.0000000E+00;  1.6755407E-01;  4.0000000E+04;  0.0000000E+00;  3.9277789E+04;  2.5430963E+00;  0.0000000E+00; -2.5230524E-01;  9.4552637E+03;
  1.1203085E+00;  9.9999998E-03; -1.3119109E-01;8075; -3.7145535E-03;  0.0000000E+00;  8.1891239E-02;  9.8867346E+02;  2.6769710E-01; -9.3827705E+03;3; -1.2829402E+01;  0.0000000E+00; -1.3209681E+01;0;  2.9173672E+00;  5.5707070E+03;  0.0000000E+00; -1.8062560E-01;  4.0000000E+04;  0.0000000E+00;  3.9268582E+04;  3.2936859E+00;  0.0000000E+00; -3.7631878E-01;  1.8884783E+03;
  1.1190715E+00;  9.9999998E-03; -1.5143169E-01;8073; -4.1306196E-03;  0.0000000E+00;  8.8241398E-02;  9.9001581E+02;  2.6763541E-01; -8.2707969E+03;3;  1.4854040E+01;  0.0000000E+00; -1.1546256E+01;0;  2.5075185E+00;  5.5887148E+03;  0.0000000E+00;  3.0556167E-02;  4.0000000E+04;  0.0000000E+00;  3.9272680E+04;  2.8068225E+00;  0.0000000E+00; -2.9930407E-01;  6.6801294E+03;
  1.1197830E+00;  9.9999998E-03; -1.4129560E-01;8074; -5.3241109E-03;  0.0000000E+00;  8.5251324E-02;  9.8925806E+02;  2.6766208E-01; -8.8985010E+03;3;  2.2117176E+00;  0.0000000E+00; -1.2577904E+01;0;  2.7192864E+00;  5.5793633E+03;  0.0000000E+00; -1.0266585E-01;  4.0000000E+04;  0.0000000E+00;  3.9269742E+04;  3.0598924E+00;  0.0000000E+00; -3.4060597E-01;  3.9927070E+03;
  1.1439278E+00;  9.9999998E-03; -2.4234457E-01;8125;  3.9053876E-02;  0.0000000E+00;  1.2128964E-01;  9.9281927E+02;  2.6211533E-01; -5.9481558E+03;3;  5.0298462E+01;  0.0000000E+00; -5.8132849E+00;0;  2.1841116E+00;  5.8337432E+03;  0.0000000E+00; -1.4073802E+00;  4.0000000E+04;  0.0000000E+00;  3.9343910E+04;  2.2497098E+00;  0.0000000E+00; -6.5598130E-02;  9.3695234E+03;
  1.1436834E+00;  9.9999998E-03; -2.3225971E-01;8126;  3.5231262E-02;  0.0000000E+00;  1.2065291E-01;  9.9288416E+02;  2.6206684E-01; -5.8943911E+03;3;  4.9350094E+01;  0.0000000E+00; -3.9033005E+00;0;  2.3674791E+00;  5.8359941E+03;  0.0000000E+00; -6.7969686E-01;  4.0000000E+04;  0.0000000E+00;  3.9337207E+04;  2.4316010E+00;  0.0000000E+00; -6.4121954E-02;  7.7127935E+03;
  1.1447631E+00;  9.9999998E-03; -2.5240189E-01;8124;  4.2299803E-02;  0.0000000E+00;  1.2063678E-01;  9.9252350E+02;  2.6212475E-01; -6.1931333E+03;3;  5.3484455E+01;  0.0000000E+00; -7.0927963E+00;0;  2.0355878E+00;  5.8297271E+03;  0.0000000E+00; -2.3906124E+00;  4.0000000E+04;  0.0000000E+00;  3.9361359E+04;  2.1224780E+00;  0.0000000E+00; -8.6890243E-02;  1.2885877E+04;
  1.1435549E+00;  9.9999998E-03; -2.2215796E-01;8127;  3.0593507E-02;  0.0000000E+00;  1.1919022E-01;  9.9270990E+02;  2.6203403E-01; -6.0387607E+03;3;  4.8006718E+01;  0.0000000E+00; -3.3252411E+00;0;  2.5608313E+00;  5.8362437E+03;  0.0000000E+00; -1.5374289E-01;  4.0000000E+04;  0.0000000E+00;  3.9329625E+04;  2.6409492E+00;  0.0000000E+00; -8.0117859E-02;  6.8752339E+03;
  1.1435422E+00;  9.9999998E-03; -2.1207716E-01;8128;  2.5220079E-02;  0.0000000E+00;  1.1739040E-01;  9.9226245E+02;  2.6201975E-01; -6.4094072E+03;3;  4.5549919E+01;  0.0000000E+00; -3.3304269E+00;0;  2.7666893E+00;  5.8345786E+03;  0.0000000E+00;  2.1582220E-01;  4.0000000E+04;  0.0000000E+00;  3.9316586E+04;  2.8761969E+00;  0.0000000E+00; -1.0950767E-01;  6.2395557E+03;
  1.1463354E+00;  9.9999998E-03; -2.6244155E-01;8123;  4.4304986E-02;  0.0000000E+00;  1.1618859E-01;  9.9203693E+02;  2.6209447E-01; -6.5961416E+03;3;  5.6916012E+01;  0.0000000E+00; -7.7146931E+00;0;  1.9539061E+00;  5.8226719E+03;  0.0000000E+00; -3.5949349E+00;  4.0000000E+04;  0.0000000E+00;  3.9396672E+04;  2.0556557E+00;  0.0000000E+00; -1.0174964E-01;  1.8285244E+04;
  1.1436677E+00;  9.9999998E-03; -2.0201498E-01;8129;  1.9820282E-02;  0.0000000E+00;  1.1557020E-01;  9.9165295E+02;  2.6201612E-01; -6.9142476E+03;3;  3.9764198E+01;  0.0000000E+00; -4.2078233E+00;0;  2.9889030E+00;  5.8312759E+03;  0.0000000E+00;  4.6512851E-01;  4.0000000E+04;  0.0000000E+00;  3.9302238E+04;  3.1365829E+00;  0.0000000E+00; -1.4767988E-01;  6.1831245E+03;
  1.1476129E+00;  9.9999998E-03; -1.1113705E-01;8138;  1.2795904E-01;  0.0000000E+00;  8.3899118E-02;  9.8898535E+02;  2.6213062E-01; -9.1238633E+03;3; -1.1197754E+02;  0.0000000E+00;  2.6313198E-01;0;  5.1633983E+00;  5.8073853E+03;  0.0000000E+00;  4.7487397E-02;  4.0000000E+04;  0.0000000E+00;  3.9240445E+04;  5.6196618E+00;  0.0000000E+00; -4.5626348E-01;  4.4301055E+03;
  1.1439192E+00;  9.9999998E-03; -1.9193272E-01;8130;  1.8022928E-02;  0.0000000E+00;  1.1420193E-01;  9.9098254E+02;  2.6202220E-01; -7.4695957E+03;3;  1.1471512E+01;  0.0000000E+00; -7.9287343E+00;0;  3.2278836E+00;  5.8269175E+03;  0.0000000E+00;  6.1386168E-01;  4.0000000E+04;  0.0000000E+00;  3.9289309E+04;  3.4188068E+00;  0.0000000E+00; -1.9092311E-01;  6.4320469E+03;
  1.1443076E+00;  9.9999998E-03; -1.8181227E-01;8131;  2.3326004E-02;  0.0000000E+00;  1.1297866E-01;  9.9031287E+02;  2.6203060E-01; -8.0242974E+03;3; -1.2166210E+01;  0.0000000E+00; -8.4343033E+00;0;  3.4828479E+00;  5.8222993E+03;  0.0000000E+00;  6.7000699E-01;  4.0000000E+04;  0.0000000E+00;  3.9277320E+04;  3.7187874E+00;  0.0000000E+00; -2.3593956E-01;  6.4026328E+03;
  1.1478854E+00;  9.9999998E-03; -1.2118469E-01;8137;  1.1832947E-01;  0.0000000E+00;  8.9418903E-02;  9.8895203E+02;  2.6203659E-01; -9.1514580E+03;3; -1.0313638E+02;  0.0000000E+00;  1.3951398E-01;0;  5.0102062E+00;  5.8113936E+03;  0.0000000E+00;  8.2744941E-02;  4.0000000E+04;  0.0000000E+00;  3.9242824E+04;  5.4470878E+00;  0.0000000E+00; -4.3688163E-01;  4.0891672E+03;
  1.1448982E+00;  9.9999998E-03; -1.7166384E-01;8132;  3.1592771E-02;  0.0000000E+00;  1.1098240E-01;  9.8971405E+02;  2.6203004E-01; -8.5203389E+03;3; -3.1262508E+01;  0.0000000E+00; -7.3133545E+00;0;  3.7542260E+00;  5.8184497E+03;  0.0000000E+00;  6.4077997E-01;  4.0000000E+04;  0.0000000E+00;  3.9266516E+04;  4.0344958E+00;  0.0000000E+00; -2.8026980E-01;  5.8696655E+03;
  1.1478500E+00;  9.9999998E-03; -1.3123919E-01;8136;  1.0302947E-01;  0.0000000E+00;  9.4532177E-02;  9.8890558E+02;  2.6197416E-01; -9.1899688E+03;3; -9.3569885E+01;  0.0000000E+00; -3.2858187E-01;0;  4.8215003E+00;  5.8140522E+03;  0.0000000E+00;  1.5903071E-01;  4.0000000E+04;  0.0000000E+00;  3.9244461E+04;  5.2364774E+00;  0.0000000E+00; -4.1497719E-01;  3.7966431E+03;
  1.1456972E+00;  9.9999998E-03; -1.6151643E-01;8133;  4.3604407E-02;  0.0000000E+00;  1.0813443E-01;  9.8925171E+02;  2.6200986E-01; -8.9032598E+03;3; -4.9909134E+01;  0.0000000E+00; -5.6729383E+00;0;  4.0380993E+00;  5.8160894E+03;  0.0000000E+00;  5.4482490E-01;  4.0000000E+04;  0.0000000E+00;  3.9257461E+04;  4.3598599E+00;  0.0000000E+00; -3.2176045E-01;  4.9677695E+03;
  1.1465628E+00;  9.9999998E-03; -1.5139870E-01;8134;  6.0851194E-02;  0.0000000E+00;  1.0436941E-01;  9.8898346E+02;  2.6198447E-01; -9.1254688E+03;3; -6.7754128E+01;  0.0000000E+00; -3.5257111E+00;0;  4.3201952E+00;  5.8150649E+03;  0.0000000E+00;  4.1115347E-01;  4.0000000E+04;  0.0000000E+00;  3.9250879E+04;  4.6785541E+00;  0.0000000E+00; -3.5835904E-01;  4.1018164E+03;
  1.1473256E+00;  9.9999998E-03; -1.4130990E-01;8135;  8.1901759E-02;  0.0000000E+00;  9.9633463E-02;  9.8888586E+02;  2.6196852E-01; -9.2062744E+03;3; -8.2064308E+01;  0.0000000E+00; -1.6240801E+00;0;  4.5852652E+00;  5.8146733E+03;  0.0000000E+00;  2.7308643E-01;  4.0000000E+04;  0.0000000E+00;  3.9247043E+04;  4.9744983E+00;  0.0000000E+00; -3.8923323E-01;  3.6971819E+03;
  1.1713271E+00;  9.9999998E-03; -2.1213962E-01;8189;  6.2837437E-02;  0.0000000E+00;  1.2062218E-01;  9.9017529E+02;  2.5492364E-01; -8.1375913E+03;3; -5.6980347E+01;  0.0000000E+00;  8.9707470E+00;0;  4.6848416E+00;  6.1368394E+03;  0.0000000E+00;  1.5579150E+00;  4.0000000E+04;  0.0000000E+00;  3.9307441E+04;  4.9284072E+00;  0.0000000E+00; -2.4356534E-01;  3.5091997E+03;
  1.1714877E+00;  9.9999998E-03; -2.0203540E-01;8190;  9.2792690E-02;  0.0000000E+00;  1.1801203E-01;  9.9017487E+02;  2.5493285E-01; -8.1379321E+03;3; -6.8149338E+01;  0.0000000E+00;  1.0929276E+01;0;  4.9216232E+00;  6.1394312E+03;  0.0000000E+00;  1.6132122E+00;  4.0000000E+04;  0.0000000E+00;  3.9291543E+04;  5.1811409E+00;  0.0000000E+00; -2.5951773E-01;  1.5504615E+03;
  1.1712955E+00;  9.9999998E-03; -2.2225833E-01;8188;  3.1305347E-02;  0.0000000E+00;  1.2227678E-01;  9.9004773E+02;  2.5491306E-01; -8.2432422E+03;3; -3.5447918E+01;  0.0000000E+00;  9.3678465E+00;0;  4.4572668E+00;  6.1340767E+03;  0.0000000E+00;  1.3604317E+00;  4.0000000E+04;  0.0000000E+00;  3.9319297E+04;  4.6933413E+00;  0.0000000E+00; -2.3607425E-01;  5.0935039E+03;
  1.1713976E+00;  9.9999998E-03; -2.3238084E-01;8187;  2.5388399E-02;  0.0000000E+00;  1.2387850E-01;  9.8970831E+02;  2.5489873E-01; -8.5243975E+03;3;  4.5844193E+01;  0.0000000E+00;  1.0083156E+01;0;  4.2322712E+00;  6.1313047E+03;  0.0000000E+00;  9.2881894E-01;  4.0000000E+04;  0.0000000E+00;  3.9323785E+04;  4.4752464E+00;  0.0000000E+00; -2.4297544E-01;  5.9779224E+03;
  1.1717886E+00;  9.9999998E-03; -1.9193025E-01;8191;  1.2094131E-01;  0.0000000E+00;  1.1470489E-01;  9.9016040E+02;  2.5493383E-01; -8.1499194E+03;3; -7.9346878E+01;  0.0000000E+00;  1.2160731E+01;0;  5.1651096E+00;  6.1424155E+03;  0.0000000E+00;  1.5846314E+00;  4.0000000E+04;  0.0000000E+00;  3.9275020E+04;  5.4463744E+00;  0.0000000E+00; -2.8126502E-01;  9.6937421E+02;
  1.1721944E+00;  9.9999998E-03; -1.8181452E-01;8192;  1.4798623E-01;  0.0000000E+00;  1.1100020E-01;  9.9018915E+02;  2.5492722E-01; -8.1261113E+03;3; -9.1915787E+01;  0.0000000E+00;  1.3729385E+01;0;  5.4093423E+00;  6.1461450E+03;  0.0000000E+00;  1.5016942E+00;  4.0000000E+04;  0.0000000E+00;  3.9259504E+04;  5.7148929E+00;  0.0000000E+00; -3.0555052E-01;  2.6903582E+03;
  1.1718726E+00;  9.9999998E-03; -2.4246983E-01;8186;  2.8073844E-02;  0.0000000E+00;  1.2604377E-01;  9.8922668E+02;  2.5484824E-01; -8.9232852E+03;3;  5.3684772E+01;  0.0000000E+00;  1.1037787E+01;0;  4.0273194E+00;  6.1296880E+03;  0.0000000E+00;  1.5197118E-01;  4.0000000E+04;  0.0000000E+00;  3.9328840E+04;  4.3020110E+00;  0.0000000E+00; -2.7469164E-01;  7.2818149E+03;
  1.1726761E+00;  9.9999998E-03; -1.7169070E-01;8193;  1.7527689E-01;  0.0000000E+00;  1.0685401E-01;  9.9030902E+02;  2.5490913E-01; -8.0268159E+03;3; -1.0484400E+02;  0.0000000E+00;  1.4459458E+01;0;  5.6485715E+00;  6.1510771E+03;  0.0000000E+00;  1.3760439E+00;  4.0000000E+04;  0.0000000E+00;  3.9245820E+04;  5.9779840E+00;  0.0000000E+00; -3.2941240E-01;  4.3462183E+03;
  1.1731243E+00;  9.9999998E-03; -2.5252190E-01;8185;  3.0378195E-02;  0.0000000E+00;  1.2790534E-01;  9.8877209E+02;  2.5470227E-01; -9.2997812E+03;3;  5.7434090E+01;  0.0000000E+00;  1.1206939E+01;0;  3.8741236E+00;  6.1311177E+03;  0.0000000E+00; -1.0842948E+00;  4.0000000E+04;  0.0000000E+00;  3.9346348E+04;  4.2139201E+00;  0.0000000E+00; -3.3979660E-01;  1.0341217E+04;
  1.1733768E+00;  9.9999998E-03; -1.6158567E-01;8194;  2.0707841E-01;  0.0000000E+00;  1.0149702E-01;  9.9058081E+02;  2.5485301E-01; -7.8016724E+03;3; -1.1699253E+02;  0.0000000E+00;  1.5435911E+01;0;  5.8870754E+00;  6.1587231E+03;  0.0000000E+00;  1.2197293E+00;  4.0000000E+04;  0.0000000E+00;  3.9234574E+04;  6.2374744E+00;  0.0000000E+00; -3.5039917E-01;  5.7580845E+03;
  1.1742083E+00;  9.9999998E-03; -1.1127167E-01;8199;  3.3183971E-01;  0.0000000E+00;  7.3589027E-02;  9.9247205E+02;  2.5497004E-01; -6.2351768E+03;3; -1.5601375E+02;  0.0000000E+00;  1.4007949E+01;0;  6.7086096E+00;  6.1795078E+03;  0.0000000E+00;  2.4135973E-01;  4.0000000E+04;  0.0000000E+00;  3.9209188E+04;  7.1122189E+00;  0.0000000E+00; -4.0360922E-01;  9.2662783E+03;
  1.1741048E+00;  9.9999998E-03; -1.5150620E-01;8195;  2.4124852E-01;  0.0000000E+00;  9.5325671E-02;  9.9097961E+02;  2.5479323E-01; -7.4713242E+03;3; -1.2685566E+02;  0.0000000E+00;  1.6099068E+01;0;  6.1100950E+00;  6.1673745E+03;  0.0000000E+00;  1.0345412E+00;  4.0000000E+04;  0.0000000E+00;  3.9226059E+04;  6.4770513E+00;  0.0000000E+00; -3.6695629E-01;  6.8669141E+03;
  1.1744859E+00;  9.9999998E-03; -1.2132596E-01;8198;  3.1545341E-01;  0.0000000E+00;  7.8963690E-02;  9.9218066E+02;  2.5487298E-01; -6.4765342E+03;3; -1.4922638E+02;  0.0000000E+00;  1.5205551E+01;0;  6.5929132E+00;  6.1796318E+03;  0.0000000E+00;  4.0958178E-01;  4.0000000E+04;  0.0000000E+00;  3.9213121E+04;  6.9897470E+00;  0.0000000E+00; -3.9683387E-01;  8.7451035E+03;
  1.1747206E+00;  9.9999998E-03; -1.3137630E-01;8197;  2.9744175E-01;  0.0000000E+00;  8.4046200E-02;  9.9184558E+02;  2.5478977E-01; -6.7540293E+03;3; -1.4209993E+02;  0.0000000E+00;  1.5955245E+01;0;  6.4632287E+00;  6.1788462E+03;  0.0000000E+00;  6.1006814E-01;  4.0000000E+04;  0.0000000E+00;  3.9216250E+04;  6.8519826E+00;  0.0000000E+00; -3.8875368E-01;  8.2650977E+03;
  1.1746333E+00;  9.9999998E-03; -1.4143580E-01;8196;  2.7311966E-01;  0.0000000E+00;  8.9301988E-02;  9.9143439E+02;  2.5475985E-01; -7.0946265E+03;3; -1.3486597E+02;  0.0000000E+00;  1.6335749E+01;0;  6.3053355E+00;  6.1749648E+03;  0.0000000E+00;  8.2627237E-01;  4.0000000E+04;  0.0000000E+00;  3.9220457E+04;  6.6845593E+00;  0.0000000E+00; -3.7922388E-01;  7.6826284E+03;
  1.1752433E+00;  9.9999998E-03; -2.6254714E-01;8184;  3.1683899E-02;  0.0000000E+00;  1.2742835E-01;  9.8859821E+02;  2.5447202E-01; -9.4437148E+03;3;  5.8333939E+01;  0.0000000E+00;  8.4502249E+00;0;  3.7963474E+00;  6.1355239E+03;  0.0000000E+00; -2.9108720E+00;  4.0000000E+04;  0.0000000E+00;  3.9388531E+04;  4.2226372E+00;  0.0000000E+00; -4.2628971E-01;  1.6351553E+04;
  1.1978183E+00;  9.9999998E-03; -2.0209749E-01;8251;  2.9127973E-01;  0.0000000E+00;  9.4482325E-02;  9.9236890E+02;  2.4659298E-01; -6.3199517E+03;3; -1.3391885E+02;  0.0000000E+00;  3.8108349E+01;0;  6.5697107E+00;  6.5900952E+03;  0.0000000E+00;  2.1916327E+00;  4.0000000E+04;  0.0000000E+00;  3.9277387E+04;  6.8915062E+00;  0.0000000E+00; -3.2179528E-01;  1.3276912E+03;
  1.1980028E+00;  9.9999998E-03; -1.9200936E-01;8252;  3.3068907E-01;  0.0000000E+00;  8.9621499E-02;  9.9287506E+02;  2.4660292E-01; -5.9007520E+03;3; -1.3806767E+02;  0.0000000E+00;  3.8166290E+01;0;  6.6974535E+00;  6.5990703E+03;  0.0000000E+00;  1.9389288E+00;  4.0000000E+04;  0.0000000E+00;  3.9259383E+04;  7.0150738E+00;  0.0000000E+00; -3.1762049E-01;  3.6895796E+03;
  1.1978452E+00;  9.9999998E-03; -2.1220984E-01;8250;  2.5293124E-01;  0.0000000E+00;  9.8568276E-02;  9.9187030E+02;  2.4654506E-01; -6.7328765E+03;3; -1.3052074E+02;  0.0000000E+00;  3.8033215E+01;0;  6.4405661E+00;  6.5833921E+03;  0.0000000E+00;  2.3718019E+00;  4.0000000E+04;  0.0000000E+00;  3.9293590E+04;  6.7734885E+00;  0.0000000E+00; -3.3292240E-01;  1.0274354E+03;
  1.1983384E+00;  9.9999998E-03; -1.8192792E-01;8253;  3.7095568E-01;  0.0000000E+00;  8.4070958E-02;  9.9342926E+02;  2.4658519E-01; -5.4417607E+03;3; -1.4247124E+02;  0.0000000E+00;  3.8428509E+01;0;  6.8185444E+00;  6.6098516E+03;  0.0000000E+00;  1.6719184E+00;  4.0000000E+04;  0.0000000E+00;  3.9242457E+04;  7.1350842E+00;  0.0000000E+00; -3.1653956E-01;  5.9432285E+03;
  1.1987573E+00;  9.9999998E-03; -1.7184517E-01;8254;  4.1108745E-01;  0.0000000E+00;  7.8039631E-02;  9.9401831E+02;  2.4654353E-01; -4.9538921E+03;3; -1.4649200E+02;  0.0000000E+00;  3.8260357E+01;0;  6.9286790E+00;  6.6220225E+03;  0.0000000E+00;  1.4184994E+00;  4.0000000E+04;  0.0000000E+00;  3.9227203E+04;  7.2442966E+00;  0.0000000E+00; -3.1561762E-01;  7.9510181E+03;
  1.1980530E+00;  9.9999998E-03; -2.2235399E-01;8249;  2.1296863E-01;  0.0000000E+00;  1.0204648E-01;  9.9126282E+02;  2.4647179E-01; -7.2359800E+03;3; -1.2808685E+02;  0.0000000E+00;  3.7757355E+01;0;  6.3118081E+00;  6.5784004E+03;  0.0000000E+00;  2.3747802E+00;  4.0000000E+04;  0.0000000E+00;  3.9302629E+04;  6.6673374E+00;  0.0000000E+00; -3.5552940E-01;  2.2363748E+03;
  1.1991113E+00;  9.9999998E-03; -1.6175705E-01;8255;  4.4843537E-01;  0.0000000E+00;  7.2136983E-02;  9.9462402E+02;  2.4650563E-01; -4.4522549E+03;3; -1.5017987E+02;  0.0000000E+00;  3.7881268E+01;0;  7.0233555E+00;  6.6336465E+03;  0.0000000E+00;  1.1896800E+00;  4.0000000E+04;  0.0000000E+00;  3.9214602E+04;  7.3365502E+00;  0.0000000E+00; -3.1319475E-01;  9.6296885E+03;
  1.1994555E+00;  9.9999998E-03; -1.5167974E-01;8256;  4.8399270E-01;  0.0000000E+00;  6.6328973E-02;  9.9523810E+02;  2.4646083E-01; -3.9436594E+03;3; -1.5358511E+02;  0.0000000E+00;  3.7268867E+01;0;  7.1047554E+00;  6.6454097E+03;  0.0000000E+00;  9.7836798E-01;  4.0000000E+04;  0.0000000E+00;  3.9204457E+04;  7.4130044E+00;  0.0000000E+00; -3.0824906E-01;  1.0961293E+04;
  1.1998057E+00;  9.9999998E-03; -1.4161091E-01;8257;  5.1788616E-01;  0.0000000E+00;  6.0567379E-02;  9.9586066E+02;  2.4641018E-01; -3.4281055E+03;3; -1.5628325E+02;  0.0000000E+00;  3.6294930E+01;0;  7.1736465E+00;  6.6572764E+03;  0.0000000E+00;  7.7706498E-01;  4.0000000E+04;  0.0000000E+00;  3.9196691E+04;  7.4742475E+00;  0.0000000E+00; -3.0060121E-01;  1.1979516E+04;
  1.1984891E+00;  9.9999998E-03; -2.3249461E-01;8248;  1.7262147E-01;  0.0000000E+00;  1.0497203E-01;  9.9048608E+02;  2.4636105E-01; -7.8792158E+03;3; -1.2635568E+02;  0.0000000E+00;  3.7154690E+01;0;  6.1877608E+00;  6.5762222E+03;  0.0000000E+00;  2.0473983E+00;  4.0000000E+04;  0.0000000E+00;  3.9301957E+04;  6.5825939E+00;  0.0000000E+00; -3.9483327E-01;  2.0898137E+03;
  1.1999245E+00;  9.9999998E-03; -1.3155028E-01;8258;  5.4573774E-01;  0.0000000E+00;  5.5633664E-02;  9.9639252E+02;  2.4640842E-01; -2.9876382E+03;3; -1.5909169E+02;  0.0000000E+00;  3.4976410E+01;0;  7.2286429E+00;  6.6653535E+03;  0.0000000E+00;  5.8877254E-01;  4.0000000E+04;  0.0000000E+00;  3.9191062E+04;  7.5205536E+00;  0.0000000E+00; -2.9191062E-01;  1.2757062E+04;
  1.1999656E+00;  9.9999998E-03; -1.2147514E-01;8259;  5.7057613E-01;  0.0000000E+00;  5.0957453E-02;  9.9685376E+02;  2.4642909E-01; -2.6056184E+03;3; -1.6158389E+02;  0.0000000E+00;  3.3424873E+01;0;  7.2739625E+00;  6.6715625E+03;  0.0000000E+00;  4.2139480E-01;  4.0000000E+04;  0.0000000E+00;  3.9185359E+04;  7.5561719E+00;  0.0000000E+00; -2.8220940E-01;  1.3451330E+04;
  1.1999758E+00;  9.9999998E-03; -1.1138426E-01;8260;  5.9327382E-01;  0.0000000E+00;  4.6407945E-02;  9.9723077E+02;  2.4646628E-01; -2.2933982E+03;3; -1.6357993E+02;  0.0000000E+00;  3.1661367E+01;0;  7.3111758E+00;  6.6764229E+03;  0.0000000E+00;  2.8492370E-01;  4.0000000E+04;  0.0000000E+00;  3.9179488E+04;  7.5827751E+00;  0.0000000E+00; -2.7159911E-01;  1.4179267E+04;
  1.1992795E+00;  9.9999998E-03; -2.4258523E-01;8247;  1.4000340E-01;  0.0000000E+00;  1.0764438E-01;  9.8973157E+02;  2.4619000E-01; -8.5040674E+03;3; -1.2473067E+02;  0.0000000E+00;  3.6120239E+01;0;  6.0722275E+00;  6.5780894E+03;  0.0000000E+00;  1.2150443E+00;  4.0000000E+04;  0.0000000E+00;  3.9302016E+04;  6.5302854E+00;  0.0000000E+00; -4.5805785E-01;  1.9981298E+03;
  1.2005140E+00;  9.9999998E-03; -2.5264400E-01;8246;  1.2459019E-01;  0.0000000E+00;  1.1142971E-01;  9.8912225E+02;  2.4594218E-01; -9.0085947E+03;3; -1.2329543E+02;  0.0000000E+00;  3.4462276E+01;0;  5.9544010E+00;  6.5848755E+03;  0.0000000E+00; -2.9646954E-01;  4.0000000E+04;  0.0000000E+00;  3.9308770E+04;  6.5155120E+00;  0.0000000E+00; -5.6111079E-01;  4.1970381E+03;
  1.2023427E+00;  9.9999998E-03; -2.6268345E-01;8245;  1.3527153E-01;  0.0000000E+00;  1.1724748E-01;  9.8886700E+02;  2.4560031E-01; -9.2199180E+03;3; -1.2379144E+02;  0.0000000E+00;  3.2220539E+01;0;  5.8179264E+00;  6.5984058E+03;  0.0000000E+00; -2.6711760E+00;  4.0000000E+04;  0.0000000E+00;  3.9328629E+04;  6.5454721E+00;  0.0000000E+00; -7.2754556E-01;  9.4371445E+03;
  1.2223786E+00;  9.9999998E-03; -1.9205903E-01;8313;  5.9182608E-01;  0.0000000E+00;  2.6396230E-02;  9.9744586E+02;  2.3705186E-01; -2.1149321E+03;3; -1.6236823E+02;  0.0000000E+00;  5.6168079E+01;0;  7.2559958E+00;  7.2071851E+03;  0.0000000E+00;  9.6845883E-01;  4.0000000E+04;  0.0000000E+00;  3.9247504E+04;  7.5387497E+00;  0.0000000E+00; -2.8275412E-01;  6.8827495E+03;
  1.2223219E+00;  9.9999998E-03; -2.0213114E-01;8312;  5.5187887E-01;  0.0000000E+00;  3.1008715E-02;  9.9675775E+02;  2.3702687E-01; -2.6847422E+03;3; -1.6622440E+02;  0.0000000E+00;  5.7003632E+01;0;  7.2783771E+00;  7.1961934E+03;  0.0000000E+00;  1.3377942E+00;  4.0000000E+04;  0.0000000E+00;  3.9264629E+04;  7.5818257E+00;  0.0000000E+00; -3.0344847E-01;  4.4383115E+03;
  1.2226521E+00;  9.9999998E-03; -1.8200029E-01;8314;  6.3334513E-01;  0.0000000E+00;  2.1087693E-02;  9.9817053E+02;  2.3702149E-01; -1.5148647E+03;3; -1.5832579E+02;  0.0000000E+00;  5.5279575E+01;0;  7.2244153E+00;  7.2217012E+03;  0.0000000E+00;  6.5424204E-01;  4.0000000E+04;  0.0000000E+00;  3.9231188E+04;  7.4861550E+00;  0.0000000E+00; -2.6173964E-01;  9.2519414E+03;
  1.2225499E+00;  9.9999998E-03; -2.1224004E-01;8311;  5.1459700E-01;  0.0000000E+00;  3.4756400E-02;  9.9610638E+02;  2.3693222E-01; -3.2240933E+03;3; -1.6983307E+02;  0.0000000E+00;  5.7663467E+01;0;  7.2944102E+00;  7.1900708E+03;  0.0000000E+00;  1.6787871E+00;  4.0000000E+04;  0.0000000E+00;  3.9279656E+04;  7.6202235E+00;  0.0000000E+00; -3.2581347E-01;  2.7840579E+03;
  1.2229728E+00;  9.9999998E-03; -1.7193492E-01;8315;  6.7306668E-01;  0.0000000E+00;  1.5689822E-02;  9.9887189E+02;  2.3697419E-01; -9.3414697E+02;3; -1.5439790E+02;  0.0000000E+00;  5.4339199E+01;0;  7.1838865E+00;  7.2365493E+03;  0.0000000E+00;  4.4042072E-01;  4.0000000E+04;  0.0000000E+00;  3.9216051E+04;  7.4233041E+00;  0.0000000E+00; -2.3941749E-01;  1.1317543E+04;
  1.2231985E+00;  9.9999998E-03; -1.6184641E-01;8316;  7.0834529E-01;  0.0000000E+00;  1.0806311E-02;  9.9950604E+02;  2.3694296E-01; -4.0900629E+02;3; -1.5097623E+02;  0.0000000E+00;  5.3465714E+01;0;  7.1377673E+00;  7.2490659E+03;  0.0000000E+00;  3.3831775E-01;  4.0000000E+04;  0.0000000E+00;  3.9202711E+04;  7.3535995E+00;  0.0000000E+00; -2.1583244E-01;  1.3013295E+04;
  1.2230271E+00;  9.9999998E-03; -2.2238749E-01;8310;  4.7841954E-01;  0.0000000E+00;  3.8011555E-02;  9.9539398E+02;  2.3677431E-01; -3.8139749E+03;3; -1.7363324E+02;  0.0000000E+00;  5.8014030E+01;0;  7.3071737E+00;  7.1884102E+03;  0.0000000E+00;  1.8645210E+00;  4.0000000E+04;  0.0000000E+00;  3.9286320E+04;  7.6596770E+00;  0.0000000E+00; -3.5250333E-01;  3.0100430E+03;
  1.2234713E+00;  9.9999998E-03; -1.5173732E-01;8317;  7.4135816E-01;  0.0000000E+00;  5.9773270E-03;  1.0001086E+03;  2.3688932E-01;  8.9924919E+01;3; -1.4753163E+02;  0.0000000E+00;  5.2335918E+01;0;  7.0852842E+00;  7.2621846E+03;  0.0000000E+00;  3.2094640E-01;  4.0000000E+04;  0.0000000E+00;  3.9191508E+04;  7.2757502E+00;  0.0000000E+00; -1.9046575E-01;  1.4351245E+04;
  1.2238158E+00;  9.9999998E-03; -1.4163396E-01;8318;  7.7236331E-01;  0.0000000E+00;  1.2783259E-03;  1.0006776E+03;  2.3681013E-01;  5.6106677E+02;3; -1.4380107E+02;  0.0000000E+00;  5.0989742E+01;0;  7.0259657E+00;  7.2761968E+03;  0.0000000E+00;  3.5455018E-01;  4.0000000E+04;  0.0000000E+00;  3.9182516E+04;  7.1895590E+00;  0.0000000E+00; -1.6359313E-01;  1.5384278E+04;
  1.2236975E+00;  9.9999998E-03; -2.3253524E-01;8309;  4.4252053E-01;  0.0000000E+00;  4.1337304E-02;  9.9455750E+02;  2.3657531E-01; -4.5066025E+03;3; -1.7765973E+02;  0.0000000E+00;  5.8080009E+01;0;  7.3170114E+00;  7.1906450E+03;  0.0000000E+00;  1.7176551E+00;  4.0000000E+04;  0.0000000E+00;  3.9281297E+04;  7.7040482E+00;  0.0000000E+00; -3.8703668E-01;  3.6703286E+03;
  1.2240891E+00;  9.9999998E-03; -1.3154809E-01;8319;  7.9947567E-01;  0.0000000E+00; -2.7904843E-03;  1.0011611E+03;  2.3674875E-01;  9.6143176E+02;3; -1.4028806E+02;  0.0000000E+00;  4.9704174E+01;0;  6.9643183E+00;  7.2879463E+03;  0.0000000E+00;  4.1284072E-01;  4.0000000E+04;  0.0000000E+00;  3.9175473E+04;  7.1009769E+00;  0.0000000E+00; -1.3665861E-01;  1.6209158E+04;
  1.2242680E+00;  9.9999998E-03; -1.2146023E-01;8320;  8.2295388E-01;  0.0000000E+00; -6.2307594E-03;  1.0015353E+03;  2.3671247E-01;  1.2712794E+03;3; -1.3701619E+02;  0.0000000E+00;  4.8396599E+01;0;  6.9030509E+00;  7.2969180E+03;  0.0000000E+00;  4.7706035E-01;  4.0000000E+04;  0.0000000E+00;  3.9169047E+04;  7.0131931E+00;  0.0000000E+00; -1.1014219E-01;  1.6947875E+04;
  1.2243495E+00;  9.9999998E-03; -1.1137578E-01;8321;  8.4323174E-01;  0.0000000E+00; -9.1076028E-03;  1.0018038E+03;  2.3671074E-01;  1.4935724E+03;3; -1.3394812E+02;  0.0000000E+00;  4.7297962E+01;0;  6.8445220E+00;  7.3028223E+03;  0.0000000E+00;  5.3298473E-01;  4.0000000E+04;  0.0000000E+00;  3.9162945E+04;  6.9288154E+00;  0.0000000E+00; -8.4293500E-02;  1.7677238E+04;
  1.2245700E+00;  9.9999998E-03; -2.4263811E-01;8308;  4.1168913E-01;  0.0000000E+00;  4.5391571E-02;  9.9372321E+02;  2.3633318E-01; -5.1973872E+03;3; -1.8105765E+02;  0.0000000E+00;  5.7848785E+01;0;  7.3180022E+00;  7.1967671E+03;  0.0000000E+00;  1.0243109E+00;  4.0000000E+04;  0.0000000E+00;  3.9272945E+04;  7.7538323E+00;  0.0000000E+00; -4.3583006E-01;  3.6386372E+03;
  1.2257217E+00;  9.9999998E-03; -2.5271246E-01;8307;  3.9418879E-01;  0.0000000E+00;  5.1406737E-02;  9.9298450E+02;  2.3603334E-01; -5.8090337E+03;3; -1.8288667E+02;  0.0000000E+00;  5.7223675E+01;0;  7.2926912E+00;  7.2078896E+03;  0.0000000E+00; -4.4338879E-01;  4.0000000E+04;  0.0000000E+00;  3.9264781E+04;  7.8079209E+00;  0.0000000E+00; -5.1522994E-01;  4.6906738E+03;
  1.2272712E+00;  9.9999998E-03; -2.6277030E-01;8306;  3.9309400E-01;  0.0000000E+00;  5.9741415E-02;  9.9244806E+02;  2.3564216E-01; -6.2531406E+03;3; -1.8317586E+02;  0.0000000E+00;  5.5966419E+01;0;  7.2214808E+00;  7.2264507E+03;  0.0000000E+00; -2.9119437E+00;  4.0000000E+04;  0.0000000E+00;  3.9260480E+04;  7.8697019E+00;  0.0000000E+00; -6.4822084E-01;  1.0219626E+04;
  1.2451211E+00;  9.9999998E-03; -2.0213491E-01;8373;  8.0228293E-01;  0.0000000E+00; -3.3104442E-02;  1.0012957E+03;  2.2663321E-01;  1.0726616E+03;3; -1.5043306E+02;  0.0000000E+00;  5.4316471E+01;0;  6.9480925E+00;  7.9445322E+03;  0.0000000E+00;  5.4644164E-02;  4.0000000E+04;  0.0000000E+00;  3.9253426E+04;  7.1837749E+00;  0.0000000E+00; -2.3568262E-01;  7.8453267E+03;
  1.2451580E+00;  9.9999998E-03; -1.9207010E-01;8374;  8.3345276E-01;  0.0000000E+00; -3.6519986E-02;  1.0019454E+03;  2.2665699E-01;  1.6105215E+03;3; -1.4139145E+02;  0.0000000E+00;  5.3345833E+01;0;  6.8117776E+00;  7.9556196E+03;  0.0000000E+00; -2.6116246E-01;  4.0000000E+04;  0.0000000E+00;  3.9239301E+04;  7.0128298E+00;  0.0000000E+00; -2.0105235E-01;  1.0055942E+04;
  1.2453763E+00;  9.9999998E-03; -2.1221521E-01;8372;  7.7347851E-01;  0.0000000E+00; -3.0423567E-02;  1.0007047E+03;  2.2652897E-01;  5.8335492E+02;3; -1.5894069E+02;  0.0000000E+00;  5.5276382E+01;0;  7.0709596E+00;  7.9396030E+03;  0.0000000E+00;  3.9773086E-01;  4.0000000E+04;  0.0000000E+00;  3.9267004E+04;  7.3366499E+00;  0.0000000E+00; -2.6569045E-01;  5.8623330E+03;
  1.2454103E+00;  9.9999998E-03; -1.8199785E-01;8375;  8.6581731E-01;  0.0000000E+00; -4.0562596E-02;  1.0026246E+03;  2.2662033E-01;  2.1728508E+03;3; -1.3222319E+02;  0.0000000E+00;  5.2076759E+01;0;  6.6634507E+00;  7.9706890E+03;  0.0000000E+00; -4.5628682E-01;  4.0000000E+04;  0.0000000E+00;  3.9225277E+04;  6.8256583E+00;  0.0000000E+00; -1.6220747E-01;  1.2106712E+04;
  1.2458845E+00;  9.9999998E-03; -2.2233430E-01;8371;  7.4601090E-01;  0.0000000E+00; -2.8162563E-02;  1.0001051E+03;  2.2635739E-01;  8.7043839E+01;3; -1.6729839E+02;  0.0000000E+00;  5.6134174E+01;0;  7.1842356E+00;  7.9401880E+03;  0.0000000E+00;  6.3381386E-01;  4.0000000E+04;  0.0000000E+00;  3.9274359E+04;  7.4751196E+00;  0.0000000E+00; -2.9088414E-01;  4.9842759E+03;
  1.2457356E+00;  9.9999998E-03; -1.7190190E-01;8376;  8.9689100E-01;  0.0000000E+00; -4.4587024E-02;  1.0032636E+03;  2.2656560E-01;  2.7018179E+03;3; -1.2315746E+02;  0.0000000E+00;  5.0601917E+01;0;  6.5095501E+00;  7.9860254E+03;  0.0000000E+00; -4.8661137E-01;  4.0000000E+04;  0.0000000E+00;  3.9212113E+04;  6.6297255E+00;  0.0000000E+00; -1.2017556E-01;  1.3857782E+04;
  1.2460406E+00;  9.9999998E-03; -1.6178200E-01;8377;  9.2515057E-01;  0.0000000E+00; -4.8278160E-02;  1.0038239E+03;  2.2651039E-01;  3.1656470E+03;3; -1.1442932E+02;  0.0000000E+00;  4.9244049E+01;0;  6.3562760E+00;  7.9998179E+03;  0.0000000E+00; -3.5888624E-01;  4.0000000E+04;  0.0000000E+00;  3.9199734E+04;  6.4326968E+00;  0.0000000E+00; -7.6420873E-02;  1.5268040E+04;
  1.2466255E+00;  9.9999998E-03; -2.3247160E-01;8370;  7.1983063E-01;  0.0000000E+00; -2.5572421E-02;  9.9943976E+02;  2.2612137E-01; -4.6378586E+02;3; -1.7483766E+02;  0.0000000E+00;  5.6998142E+01;0;  7.2891135E+00;  7.9468281E+03;  0.0000000E+00;  5.8348411E-01;  4.0000000E+04;  0.0000000E+00;  3.9270129E+04;  7.6010046E+00;  0.0000000E+00; -3.1189087E-01;  5.5555947E+03;
  1.2463320E+00;  9.9999998E-03; -1.5164895E-01;8378;  9.5060784E-01;  0.0000000E+00; -5.1654026E-02;  1.0043116E+03;  2.2644393E-01;  3.5694705E+03;3; -1.0611333E+02;  0.0000000E+00;  4.7981831E+01;0;  6.2051668E+00;  8.0128467E+03;  0.0000000E+00; -1.1526585E-01;  4.0000000E+04;  0.0000000E+00;  3.9189426E+04;  6.2375035E+00;  0.0000000E+00; -3.2336812E-02;  1.6339289E+04;
  1.2466439E+00;  9.9999998E-03; -1.4152403E-01;8379;  9.7367996E-01;  0.0000000E+00; -5.4785941E-02;  1.0047256E+03;  2.2635932E-01;  3.9121040E+03;3; -9.7951187E+01;  0.0000000E+00;  4.7194305E+01;0;  6.0555964E+00;  8.0257646E+03;  0.0000000E+00;  1.8395008E-01;  4.0000000E+04;  0.0000000E+00;  3.9181641E+04;  6.0447211E+00;  0.0000000E+00;  1.0875184E-02;  1.7126090E+04;
  1.2475033E+00;  9.9999998E-03; -2.4258795E-01;8369;  6.9667196E-01;  0.0000000E+00; -2.1476710E-02;  9.9871851E+02;  2.2585946E-01; -1.0608892E+03;3; -1.8061008E+02;  0.0000000E+00;  5.8170284E+01;0;  7.3824654E+00;  7.9567378E+03;  0.0000000E+00;  2.5082255E-02;  4.0000000E+04;  0.0000000E+00;  3.9257707E+04;  7.7161450E+00;  0.0000000E+00; -3.3367947E-01;  6.9336313E+03;
  1.2469662E+00;  9.9999998E-03; -1.3143200E-01;8380;  9.9441928E-01;  0.0000000E+00; -5.7673950E-02;  1.0050776E+03;  2.2626354E-01;  4.2035151E+03;3; -8.9930252E+01;  0.0000000E+00;  4.6147697E+01;0;  5.9090738E+00;  8.0381196E+03;  0.0000000E+00;  4.8232946E-01;  4.0000000E+04;  0.0000000E+00;  3.9175742E+04;  5.8568015E+00;  0.0000000E+00;  5.2272081E-02;  1.7726744E+04;
  1.2485247E+00;  9.9999998E-03; -2.5268275E-01;8368;  6.8090832E-01;  0.0000000E+00; -1.5034684E-02;  9.9796771E+02;  2.2557221E-01; -1.6824022E+03;3; -1.8451016E+02;  0.0000000E+00;  5.8603630E+01;0;  7.4493847E+00;  7.9694150E+03;  0.0000000E+00; -1.2755573E+00;  4.0000000E+04;  0.0000000E+00;  3.9239930E+04;  7.8186393E+00;  0.0000000E+00; -3.6925483E-01;  9.9528262E+03;
  1.2472733E+00;  9.9999998E-03; -1.2134951E-01;8381;  1.0129381E+00;  0.0000000E+00; -6.0349528E-02;  1.0053366E+03;  2.2616807E-01;  4.4179487E+03;3; -8.2117500E+01;  0.0000000E+00;  4.5646507E+01;0;  5.7677975E+00;  8.0492319E+03;  0.0000000E+00;  7.3860294E-01;  4.0000000E+04;  0.0000000E+00;  3.9171266E+04;  5.6762424E+00;  0.0000000E+00;  9.1555119E-02;  1.8233109E+04;
  1.2474885E+00;  9.9999998E-03; -1.1125522E-01;8382;  1.0290160E+00;  0.0000000E+00; -6.2656686E-02;  1.0055013E+03;  2.2610700E-01;  4.5543237E+03;3; -7.4816261E+01;  0.0000000E+00;  4.4145695E+01;0;  5.6374846E+00;  8.0569224E+03;  0.0000000E+00;  9.2266786E-01;  4.0000000E+04;  0.0000000E+00;  3.9167617E+04;  5.5094213E+00;  0.0000000E+00;  1.2806338E-01;  1.8695012E+04;
  1.2495731E+00;  9.9999998E-03; -2.6276258E-01;8367;  6.6964161E-01;  0.0000000E+00; -5.7925922E-03;  9.9717670E+02;  2.2530058E-01; -2.3372061E+03;3; -1.8755571E+02;  0.0000000E+00;  5.9101383E+01;0;  7.4737530E+00;  7.9812822E+03;  0.0000000E+00; -3.4711235E+00;  4.0000000E+04;  0.0000000E+00;  3.9219707E+04;  7.9126253E+00;  0.0000000E+00; -4.3887228E-01;  1.6093816E+04;
  1.2669053E+00;  9.9999998E-03; -1.9201595E-01;8435;  1.0138329E+00;  0.0000000E+00; -8.7698601E-02;  1.0053259E+03;  2.1587454E-01;  4.4079214E+03;3; -9.0961975E+01;  0.0000000E+00;  4.5074963E+01;0;  5.6785793E+00;  8.8297178E+03;  0.0000000E+00; -6.8027866E-01;  4.0000000E+04;  0.0000000E+00;  3.9237195E+04;  5.7632284E+00;  0.0000000E+00; -8.4649250E-02;  1.2253838E+04;
  1.2668722E+00;  9.9999998E-03; -2.0209394E-01;8434;  9.9496675E-01;  0.0000000E+00; -8.5395522E-02;  1.0048099E+03;  2.1584110E-01;  3.9809148E+03;3; -1.0156110E+02;  0.0000000E+00;  4.5982006E+01;0;  5.8749175E+00;  8.8216572E+03;  0.0000000E+00; -5.1632893E-01;  4.0000000E+04;  0.0000000E+00;  3.9246723E+04;  6.0057840E+00;  0.0000000E+00; -1.3086635E-01;  1.0748548E+04;
  1.2670352E+00;  9.9999998E-03; -2.1216582E-01;8433;  9.7717977E-01;  0.0000000E+00; -8.3559394E-02;  1.0043336E+03;  2.1576017E-01;  3.5866519E+03;3; -1.1191634E+02;  0.0000000E+00;  4.6474216E+01;0;  6.0606155E+00;  8.8174346E+03;  0.0000000E+00; -3.3332512E-01;  4.0000000E+04;  0.0000000E+00;  3.9256023E+04;  6.2285953E+00;  0.0000000E+00; -1.6797990E-01;  9.3217705E+03;
  1.2671232E+00;  9.9999998E-03; -1.8192172E-01;8436;  1.0332532E+00;  0.0000000E+00; -9.0179309E-02;  1.0058446E+03;  2.1585838E-01;  4.8371841E+03;3; -7.9641273E+01;  0.0000000E+00;  4.4034176E+01;0;  5.4731112E+00;  8.8414521E+03;  0.0000000E+00; -7.3026800E-01;  4.0000000E+04;  0.0000000E+00;  3.9226887E+04;  5.5047174E+00;  0.0000000E+00; -3.1606022E-02;  1.3671999E+04;
  1.2674402E+00;  9.9999998E-03; -2.2224924E-01;8432;  9.6088976E-01;  0.0000000E+00; -8.1943616E-02;  1.0039060E+03;  2.1561955E-01;  3.2327322E+03;3; -1.2133221E+02;  0.0000000E+00;  4.7261944E+01;0;  6.2334566E+00;  8.8186445E+03;  0.0000000E+00; -2.6747274E-01;  4.0000000E+04;  0.0000000E+00;  3.9262715E+04;  6.4267192E+00;  0.0000000E+00; -1.9326273E-01;  8.2943301E+03;
  1.2675152E+00;  9.9999998E-03; -1.7181154E-01;8437;  1.0523645E+00;  0.0000000E+00; -9.2954412E-02;  1.0063419E+03;  2.1578543E-01;  5.2487686E+03;3; -6.7911331E+01;  0.0000000E+00;  4.3514679E+01;0;  5.2609653E+00;  8.8570254E+03;  0.0000000E+00; -6.2638181E-01;  4.0000000E+04;  0.0000000E+00;  3.9216594E+04;  5.2347445E+00;  0.0000000E+00;  2.6220813E-02;  1.4881620E+04;
  1.2679663E+00;  9.9999998E-03; -2.3235570E-01;8431;  9.4493032E-01;  0.0000000E+00; -8.0189228E-02;  1.0034418E+03;  2.1546359E-01;  2.8485225E+03;3; -1.3065733E+02;  0.0000000E+00;  4.8243393E+01;0;  6.4025354E+00;  8.8218105E+03;  0.0000000E+00; -4.8333791E-01;  4.0000000E+04;  0.0000000E+00;  3.9262977E+04;  6.6065478E+00;  0.0000000E+00; -2.0401227E-01;  8.3080459E+03;
  1.2679774E+00;  9.9999998E-03; -1.6168062E-01;8438;  1.0699875E+00;  0.0000000E+00; -9.5862553E-02;  1.0067874E+03;  2.1567823E-01;  5.6174248E+03;3; -5.6168659E+01;  0.0000000E+00;  4.2804127E+01;0;  5.0503831E+00;  8.8739473E+03;  0.0000000E+00; -3.8650846E-01;  4.0000000E+04;  0.0000000E+00;  3.9207574E+04;  4.9645767E+00;  0.0000000E+00;  8.5806273E-02;  1.5808741E+04;
  1.2685155E+00;  9.9999998E-03; -2.4247302E-01;8430;  9.2850119E-01;  0.0000000E+00; -7.7388413E-02;  1.0028610E+03;  2.1532530E-01;  2.3678286E+03;3; -1.3976866E+02;  0.0000000E+00;  4.9564411E+01;0;  6.5730238E+00;  8.8242812E+03;  0.0000000E+00; -1.1431795E+00;  4.0000000E+04;  0.0000000E+00;  3.9252570E+04;  6.7725463E+00;  0.0000000E+00; -1.9952264E-01;  1.0029683E+04;
  1.2683793E+00;  9.9999998E-03; -1.5153314E-01;8439;  1.0852058E+00;  0.0000000E+00; -9.8425083E-02;  1.0071629E+03;  2.1556978E-01;  5.9281680E+03;3; -4.4902191E+01;  0.0000000E+00;  4.0452251E+01;0;  4.8511295E+00;  8.8886855E+03;  0.0000000E+00; -6.5215342E-02;  4.0000000E+04;  0.0000000E+00;  3.9200492E+04;  4.7075634E+00;  0.0000000E+00;  1.4356624E-01;  1.6441330E+04;
  1.2691118E+00;  9.9999998E-03; -2.5258374E-01;8429;  9.1230130E-01;  0.0000000E+00; -7.2466753E-02;  1.0021548E+03;  2.1518630E-01;  1.7833530E+03;3; -1.4766237E+02;  0.0000000E+00;  5.1433487E+01;0;  6.7350507E+00;  8.8272246E+03;  0.0000000E+00; -2.3783939E+00;  4.0000000E+04;  0.0000000E+00;  3.9232461E+04;  6.9221082E+00;  0.0000000E+00; -1.8705748E-01;  1.3849895E+04;
  1.2685642E+00;  9.9999998E-03; -1.4139104E-01;8440;  1.0975311E+00;  0.0000000E+00; -9.9198967E-02;  1.0074427E+03;  2.1552081E-01;  6.1597046E+03;3; -3.4939030E+01;  0.0000000E+00;  3.1090517E+01;0;  4.6745605E+00;  8.8964795E+03;  0.0000000E+00;  2.7655905E-01;  4.0000000E+04;  0.0000000E+00;  3.9195867E+04;  4.4787197E+00;  0.0000000E+00;  1.9584084E-01;  1.6822533E+04;
  1.2686526E+00;  9.9999998E-03; -1.3127846E-01;8441;  1.1079184E+00;  0.0000000E+00; -9.5920756E-02;  1.0076322E+03;  2.1549176E-01;  6.3165645E+03;3; -2.5760490E+01;  0.0000000E+00;  1.3369820E+01;0;  4.5132294E+00;  8.9009395E+03;  0.0000000E+00;  5.8875555E-01;  4.0000000E+04;  0.0000000E+00;  3.9193500E+04;  4.2709966E+00;  0.0000000E+00;  2.4223302E-01;  1.7021570E+04;
  1.2687863E+00;  9.9999998E-03; -1.2119117E-01;8442;  1.1169722E+00;  0.0000000E+00; -8.8531636E-02;  1.0077552E+03;  2.1543860E-01;  6.4183672E+03;3; -1.6476761E+01;  0.0000000E+00;  2.6789060E+00;0;  4.3578129E+00;  8.9060781E+03;  0.0000000E+00;  8.3326381E-01;  4.0000000E+04;  0.0000000E+00;  3.9192547E+04;  4.0741711E+00;  0.0000000E+00;  2.8364173E-01;  1.7099344E+04;
  1.2700596E+00;  9.9999998E-03; -2.6267907E-01;8428;  9.0298468E-01;  0.0000000E+00; -6.4368628E-02;  1.0014061E+03;  2.1493252E-01;  1.1636606E+03;3; -1.5124777E+02;  0.0000000E+00;  5.2990070E+01;0;  6.8429780E+00;  8.8406719E+03;  0.0000000E+00; -4.3443260E+00;  4.0000000E+04;  0.0000000E+00;  3.9207574E+04;  7.0359259E+00;  0.0000000E+00; -1.9294773E-01;  1.9984859E+04;
  1.2689548E+00;  9.9999998E-03; -1.1109903E-01;8443;  1.1246080E+00;  0.0000000E+00; -7.9923190E-02;  1.0078090E+03;  2.1537457E-01;  6.4628447E+03;3; -7.3352509E+00;  0.0000000E+00; -1.3317215E-01;0;  4.2091026E+00;  8.9114795E+03;  0.0000000E+00;  9.8480517E-01;  4.0000000E+04;  0.0000000E+00;  3.9192824E+04;  3.8888781E+00;  0.0000000E+00;  3.2022449E-01;  1.7095359E+04;
  1.2872187E+00;  9.9999998E-03; -2.0201106E-01;8495;  1.1081543E+00;  0.0000000E+00; -1.2009568E-01;  1.0065766E+03;  2.0534717E-01;  5.4411104E+03;3; -4.1720615E+01;  0.0000000E+00;  3.4196503E+01;0;  4.5036821E+00;  9.7807207E+03;  0.0000000E+00; -3.4817377E-01;  4.0000000E+04;  0.0000000E+00;  3.9248168E+04;  4.5126200E+00;  0.0000000E+00; -8.9378329E-03;  1.2062258E+04;
  1.2873622E+00;  9.9999998E-03; -1.9192803E-01;8496;  1.1158032E+00;  0.0000000E+00; -1.2175198E-01;  1.0069247E+03;  2.0533931E-01;  5.7290825E+03;3; -3.0845903E+01;  0.0000000E+00;  3.3464413E+01;0;  4.2952414E+00;  9.7898271E+03;  0.0000000E+00; -3.3462459E-01;  4.0000000E+04;  0.0000000E+00;  3.9243250E+04;  4.2497473E+00;  0.0000000E+00;  4.5493994E-02;  1.2787788E+04;
  1.2873282E+00;  9.9999998E-03; -2.1207209E-01;8494;  1.1012988E+00;  0.0000000E+00; -1.1860710E-01;  1.0062759E+03;  2.0528388E-01;  5.1922646E+03;3; -5.1172794E+01;  0.0000000E+00;  3.4264519E+01;0;  4.7003894E+00;  9.7787422E+03;  0.0000000E+00; -4.0556332E-01;  4.0000000E+04;  0.0000000E+00;  3.9253270E+04;  4.7522411E+00;  0.0000000E+00; -5.1851857E-02;  1.1357698E+04;
  1.2877553E+00;  9.9999998E-03; -1.8182626E-01;8497;  1.1234200E+00;  0.0000000E+00; -1.2373369E-01;  1.0072924E+03;  2.0525290E-01;  6.0331953E+03;3; -1.9057735E+01;  0.0000000E+00;  3.2178925E+01;0;  4.0775690E+00;  9.8060420E+03;  0.0000000E+00; -2.7717939E-01;  4.0000000E+04;  0.0000000E+00;  3.9237000E+04;  3.9693525E+00;  0.0000000E+00;  1.0821636E-01;  1.3519367E+04;
  1.2876656E+00;  9.9999998E-03; -2.2212961E-01;8493;  1.0955347E+00;  0.0000000E+00; -1.1755099E-01;  1.0060541E+03;  2.0515974E-01;  5.0087852E+03;3; -6.0002579E+01;  0.0000000E+00;  3.4396835E+01;0;  4.8870697E+00;  9.7827119E+03;  0.0000000E+00; -6.4381087E-01;  4.0000000E+04;  0.0000000E+00;  3.9259211E+04;  4.9664655E+00;  0.0000000E+00; -7.9395577E-02;  1.0728969E+04;
  1.2882367E+00;  9.9999998E-03; -2.3220696E-01;8492;  1.0911338E+00;  0.0000000E+00; -1.1644004E-01;  1.0058694E+03;  2.0497639E-01;  4.8558584E+03;3; -6.7334663E+01;  0.0000000E+00;  3.4905201E+01;0;  5.0642624E+00;  9.7930518E+03;  0.0000000E+00; -1.2301414E+00;  4.0000000E+04;  0.0000000E+00;  3.9263594E+04;  5.1517844E+00;  0.0000000E+00; -8.7522008E-02;  1.0758128E+04;
  1.2883811E+00;  9.9999998E-03; -1.7171232E-01;8498;  1.1302768E+00;  0.0000000E+00; -1.2512237E-01;  1.0076624E+03;  2.0508176E-01;  6.3391455E+03;3; -6.7422037E+00;  0.0000000E+00;  2.6007299E+01;0;  3.8543050E+00;  9.8294092E+03;  0.0000000E+00; -1.4528345E-01;  4.0000000E+04;  0.0000000E+00;  3.9231281E+04;  3.6785967E+00;  0.0000000E+00;  1.7570826E-01;  1.4137917E+04;
  1.2889469E+00;  9.9999998E-03; -2.4231176E-01;8491;  1.0872200E+00;  0.0000000E+00; -1.1509125E-01;  1.0056154E+03;  2.0476829E-01;  4.6457188E+03;3; -7.4485603E+01;  0.0000000E+00;  3.5706085E+01;0;  5.2411766E+00;  9.8062412E+03;  0.0000000E+00; -2.3213241E+00;  4.0000000E+04;  0.0000000E+00;  3.9259789E+04;  5.3130980E+00;  0.0000000E+00; -7.1921304E-02;  1.2674423E+04;
  1.2889956E+00;  9.9999998E-03; -1.6158861E-01;8499;  1.1354747E+00;  0.0000000E+00; -1.2207272E-01;  1.0079903E+03;  2.0489867E-01;  6.6103740E+03;3;  3.7472079E+00;  0.0000000E+00;  7.8514547E+00;0;  3.6432765E+00;  9.8522549E+03;  0.0000000E+00;  3.9573662E-02;  4.0000000E+04;  0.0000000E+00;  3.9226523E+04;  3.4005113E+00;  0.0000000E+00;  2.4276513E-01;  1.4557114E+04;
  1.2893275E+00;  9.9999998E-03; -1.5145653E-01;8500;  1.1390445E+00;  0.0000000E+00; -1.1286478E-01;  1.0082531E+03;  2.0479988E-01;  6.8277886E+03;3;  1.1456429E+01;  0.0000000E+00; -1.4363117E+00;0;  3.4611702E+00;  9.8652803E+03;  0.0000000E+00;  2.3699319E-01;  4.0000000E+04;  0.0000000E+00;  3.9223895E+04;  3.1574984E+00;  0.0000000E+00;  3.0367181E-01;  1.4752812E+04;
  1.2896805E+00;  9.9999998E-03; -2.5242525E-01;8490;  1.0825801E+00;  0.0000000E+00; -1.1264490E-01;  1.0052100E+03;  2.0457341E-01;  4.3101372E+03;3; -8.1754494E+01;  0.0000000E+00;  3.6994534E+01;0;  5.4239430E+00;  9.8186914E+03;  0.0000000E+00; -3.9888515E+00;  4.0000000E+04;  0.0000000E+00;  3.9245625E+04;  5.4573970E+00;  0.0000000E+00; -3.3454139E-02;  1.7019883E+04;
  1.2893829E+00;  9.9999998E-03; -1.2108374E-01;8503;  1.1452018E+00;  0.0000000E+00; -8.3413027E-02;  1.0085820E+03;  2.0474537E-01;  7.0998779E+03;3;  2.3362688E+01;  0.0000000E+00; -4.7570524E+00;0;  3.0243597E+00;  9.8684121E+03;  0.0000000E+00;  6.5623939E-01;  4.0000000E+04;  0.0000000E+00;  3.9227316E+04;  2.5895801E+00;  0.0000000E+00;  4.3477961E-01;  1.4106962E+04;
  1.2894295E+00;  9.9999998E-03; -1.3118435E-01;8502;  1.1435229E+00;  0.0000000E+00; -9.2633240E-02;  1.0085538E+03;  2.0474686E-01;  7.0764976E+03;3;  2.0559374E+01;  0.0000000E+00; -4.2835269E+00;0;  3.1576488E+00;  9.8706357E+03;  0.0000000E+00;  5.6205887E-01;  4.0000000E+04;  0.0000000E+00;  3.9224703E+04;  2.7582743E+00;  0.0000000E+00;  3.9937440E-01;  1.4475347E+04;
  1.2894382E+00;  9.9999998E-03; -1.4131798E-01;8501;  1.1415751E+00;  0.0000000E+00; -1.0250824E-01;  1.0084407E+03;  2.0475793E-01;  6.9830029E+03;3;  1.6752249E+01;  0.0000000E+00; -3.5393023E+00;0;  3.3017101E+00;  9.8703643E+03;  0.0000000E+00;  4.1768703E-01;  4.0000000E+04;  0.0000000E+00;  3.9223293E+04;  2.9457695E+00;  0.0000000E+00;  3.5594055E-01;  1.4713527E+04;
  1.2893951E+00;  9.9999998E-03; -1.1098891E-01;8504;  1.1466817E+00;  0.0000000E+00; -7.4673325E-02;  1.0085433E+03;  2.0472500E-01;  7.0678242E+03;3;  2.5422251E+01;  0.0000000E+00; -5.2492080E+00;0;  2.8960869E+00;  9.8669170E+03;  0.0000000E+00;  6.9152552E-01;  4.0000000E+04;  0.0000000E+00;  3.9231176E+04;  2.4325683E+00;  0.0000000E+00;  4.6351862E-01;  1.3654986E+04;
  1.2905540E+00;  9.9999998E-03; -2.6253393E-01;8489;  1.0784998E+00;  0.0000000E+00; -1.0783113E-01;  1.0046492E+03;  2.0433587E-01;  3.8462495E+03;3; -8.7771667E+01;  0.0000000E+00;  3.8076073E+01;0;  5.5853906E+00;  9.8354424E+03;  0.0000000E+00; -6.2259927E+00;  4.0000000E+04;  0.0000000E+00;  3.9223637E+04;  5.5743928E+00;  0.0000000E+00;  1.0997661E-02;  2.3611623E+04;
  1.3068885E+00;  9.9999998E-03; -2.1195513E-01;8555;  1.1554437E+00;  0.0000000E+00; -1.3460724E-01;  1.0066382E+03;  1.9518782E-01;  5.4894043E+03;3;  5.9121246E+00;  0.0000000E+00;  1.9126026E+01;0;  3.3207037E+00;  1.0823387E+04;  0.0000000E+00; -2.3924613E-01;  4.0000000E+04;  0.0000000E+00;  3.9259539E+04;  3.2588584E+00;  0.0000000E+00;  6.1845295E-02;  1.1771863E+04;
  1.3071730E+00;  9.9999998E-03; -2.2199489E-01;8554;  1.1574650E+00;  0.0000000E+00; -1.3390565E-01;  1.0066332E+03;  1.9509597E-01;  5.4852207E+03;3; -1.0663061E-01;  0.0000000E+00;  2.0093561E+01;0;  3.4831774E+00;  1.0829473E+04;  0.0000000E+00; -7.8721893E-01;  4.0000000E+04;  0.0000000E+00;  3.9264234E+04;  3.4542079E+00;  0.0000000E+00;  2.8969552E-02;  1.1710614E+04;
  1.3069135E+00;  9.9999998E-03; -2.0189799E-01;8556;  1.1536477E+00;  0.0000000E+00; -1.3540649E-01;  1.0067510E+03;  1.9518064E-01;  5.5826572E+03;3;  1.2210612E+01;  0.0000000E+00;  1.7832724E+01;0;  3.1462789E+00;  1.0828646E+04;  0.0000000E+00;  5.3382389E-02;  4.0000000E+04;  0.0000000E+00;  3.9258629E+04;  3.0363715E+00;  0.0000000E+00;  1.0990729E-01;  1.1752614E+04;
  1.3076844E+00;  9.9999998E-03; -2.3205285E-01;8553;  1.1600436E+00;  0.0000000E+00; -1.3333221E-01;  1.0067125E+03;  1.9493762E-01;  5.5507949E+03;3; -5.7064071E+00;  0.0000000E+00;  2.0184744E+01;0;  3.6398170E+00;  1.0843275E+04;  0.0000000E+00; -1.7508285E+00;  4.0000000E+04;  0.0000000E+00;  3.9271070E+04;  3.6243649E+00;  0.0000000E+00;  1.5452237E-02;  1.2254977E+04;
  1.3071915E+00;  9.9999998E-03; -1.9181348E-01;8557;  1.1518091E+00;  0.0000000E+00; -1.3575518E-01;  1.0069383E+03;  1.9509642E-01;  5.7375801E+03;3;  1.7967916E+01;  0.0000000E+00;  1.4531275E+01;0;  2.9652796E+00;  1.0842710E+04;  0.0000000E+00;  2.1630935E-01;  4.0000000E+04;  0.0000000E+00;  3.9257875E+04;  2.7965531E+00;  0.0000000E+00;  1.6872633E-01;  1.1777422E+04;
  1.3083694E+00;  9.9999998E-03; -2.4214727E-01;8552;  1.1630697E+00;  0.0000000E+00; -1.3268235E-01;  1.0067458E+03;  1.9473381E-01;  5.5781899E+03;3; -1.0591579E+01;  0.0000000E+00;  2.0728523E+01;0;  3.7963328E+00;  1.0862355E+04;  0.0000000E+00; -3.2969995E+00;  4.0000000E+04;  0.0000000E+00;  3.9272801E+04;  3.7702019E+00;  0.0000000E+00;  2.6130883E-02;  1.5015653E+04;
  1.3076209E+00;  9.9999998E-03; -1.8170764E-01;8558;  1.1501231E+00;  0.0000000E+00; -1.3330150E-01;  1.0071593E+03;  1.9496784E-01;  5.9202734E+03;3;  2.1317356E+01;  0.0000000E+00;  3.4860837E+00;0;  2.7861505E+00;  1.0861889E+04;  0.0000000E+00;  3.2880896E-01;  4.0000000E+04;  0.0000000E+00;  3.9256258E+04;  2.5523686E+00;  0.0000000E+00;  2.3378171E-01;  1.1909463E+04;
  1.3091017E+00;  9.9999998E-03; -2.5226027E-01;8551;  1.1658207E+00;  0.0000000E+00; -1.3156283E-01;  1.0066444E+03;  1.9453080E-01;  5.4941875E+03;3; -1.5786173E+01;  0.0000000E+00;  2.1187822E+01;0;  3.9622698E+00;  1.0882062E+04;  0.0000000E+00; -5.4740100E+00;  4.0000000E+04;  0.0000000E+00;  3.9265730E+04;  3.8989444E+00;  0.0000000E+00;  6.3325480E-02;  2.0534459E+04;
  1.3081087E+00;  9.9999998E-03; -1.7159517E-01;8559;  1.1490778E+00;  0.0000000E+00; -1.2539817E-01;  1.0073943E+03;  1.9481492E-01;  6.1144863E+03;3;  2.3180820E+01;  0.0000000E+00; -3.7962217E+00;0;  2.6158113E+00;  1.0883241E+04;  0.0000000E+00;  4.2574641E-01;  4.0000000E+04;  0.0000000E+00;  3.9254516E+04;  2.3151584E+00;  0.0000000E+00;  3.0065286E-01;  1.2055193E+04;
  1.3085760E+00;  9.9999998E-03; -1.6148584E-01;8560;  1.1485081E+00;  0.0000000E+00; -1.1509207E-01;  1.0076147E+03;  1.9465631E-01;  6.2966699E+03;3;  2.4838528E+01;  0.0000000E+00; -6.3013968E+00;0;  2.4577692E+00;  1.0904124E+04;  0.0000000E+00;  5.0255698E-01;  4.0000000E+04;  0.0000000E+00;  3.9253625E+04;  2.0933604E+00;  0.0000000E+00;  3.6440876E-01;  1.2084010E+04;
  1.3098203E+00;  9.9999998E-03; -2.6237664E-01;8550;  1.1675169E+00;  0.0000000E+00; -1.2896210E-01;  1.0063534E+03;  1.9432916E-01;  5.2534614E+03;3; -2.1457750E+01;  0.0000000E+00;  2.2265280E+01;0;  4.1322289E+00;  1.0901258E+04;  0.0000000E+00; -8.0518303E+00;  4.0000000E+04;  0.0000000E+00;  3.9249727E+04;  4.0142026E+00;  0.0000000E+00;  1.1802634E-01;  2.7883736E+04;
  1.3089907E+00;  9.9999998E-03; -1.5136988E-01;8561;  1.1481690E+00;  0.0000000E+00; -1.0482581E-01;  1.0078051E+03;  1.9450130E-01;  6.4540176E+03;3;  2.6531853E+01;  0.0000000E+00; -7.0202456E+00;0;  2.3112185E+00;  1.0922652E+04;  0.0000000E+00;  5.3821808E-01;  4.0000000E+04;  0.0000000E+00;  3.9254680E+04;  1.8902581E+00;  0.0000000E+00;  4.2096043E-01;  1.1904497E+04;
  1.3091011E+00;  9.9999998E-03; -1.1090745E-01;8565;  1.1486832E+00;  0.0000000E+00; -7.0038602E-02;  1.0078345E+03;  1.9442204E-01;  6.4783447E+03;3;  3.1089390E+01;  0.0000000E+00; -8.0827885E+00;0;  1.8629358E+00;  1.0916017E+04;  0.0000000E+00;  3.1401575E-01;  4.0000000E+04;  0.0000000E+00;  3.9274195E+04;  1.3126379E+00;  0.0000000E+00;  5.5029786E-01;  9.3951191E+03;
  1.3092270E+00;  9.9999998E-03; -1.2100425E-01;8564;  1.1482974E+00;  0.0000000E+00; -7.8080013E-02;  1.0079500E+03;  1.9438142E-01;  6.5738389E+03;3;  3.0234127E+01;  0.0000000E+00; -7.7419090E+00;0;  1.9592054E+00;  1.0927108E+04;  0.0000000E+00;  3.9503020E-01;  4.0000000E+04;  0.0000000E+00;  3.9267949E+04;  1.4280533E+00;  0.0000000E+00;  5.3115213E-01;  1.0176512E+04;
  1.3092682E+00;  9.9999998E-03; -1.4124756E-01;8562;  1.1480347E+00;  0.0000000E+00; -9.5254719E-02;  1.0079320E+03;  1.9438796E-01;  6.5588477E+03;3;  2.7885853E+01;  0.0000000E+00; -7.2760978E+00;0;  2.1785345E+00;  1.0934338E+04;  0.0000000E+00;  5.2356696E-01;  4.0000000E+04;  0.0000000E+00;  3.9257844E+04;  1.7107748E+00;  0.0000000E+00;  4.6775973E-01;  1.1494003E+04;
  1.3093181E+00;  9.9999998E-03; -1.3112725E-01;8563;  1.1480960E+00;  0.0000000E+00; -8.6414315E-02;  1.0079844E+03;  1.9435689E-01;  6.6022104E+03;3;  2.9185690E+01;  0.0000000E+00; -7.3778334E+00;0;  2.0628610E+00;  1.0934677E+04;  0.0000000E+00;  4.6964791E-01;  4.0000000E+04;  0.0000000E+00;  3.9262418E+04;  1.5587630E+00;  0.0000000E+00;  5.0409806E-01;  1.0899095E+04;
  1.3260242E+00;  9.9999998E-03; -2.2185205E-01;8615;  1.1706614E+00;  0.0000000E+00; -1.3476694E-01;  1.0060630E+03;  1.8552275E-01;  5.0107769E+03;3;  2.4956558E+01;  0.0000000E+00;  5.9336624E+00;0;  2.2694800E+00;  1.1958752E+04;  0.0000000E+00; -8.7537211E-01;  4.0000000E+04;  0.0000000E+00;  3.9278312E+04;  2.1530824E+00;  0.0000000E+00;  1.1639757E-01;  1.1203751E+04;
  1.3264958E+00;  9.9999998E-03; -2.3191626E-01;8614;  1.1761224E+00;  0.0000000E+00; -1.3537954E-01;  1.0063273E+03;  1.8540035E-01;  5.2291025E+03;3;  2.3536299E+01;  0.0000000E+00;  6.0825944E+00;0;  2.3860893E+00;  1.1974990E+04;  0.0000000E+00; -2.2305617E+00;  4.0000000E+04;  0.0000000E+00;  3.9283332E+04;  2.2903800E+00;  0.0000000E+00;  9.5709369E-02;  1.3170474E+04;
  1.3257370E+00;  9.9999998E-03; -2.1180725E-01;8616;  1.1655451E+00;  0.0000000E+00; -1.3434686E-01;  1.0058884E+03;  1.8559192E-01;  4.8664976E+03;3;  2.6464777E+01;  0.0000000E+00;  5.1073141E+00;0;  2.1537457E+00;  1.1949884E+04;  0.0000000E+00; -5.7462722E-02;  4.0000000E+04;  0.0000000E+00;  3.9275770E+04;  1.9996282E+00;  0.0000000E+00;  1.5411739E-01;  1.0528197E+04;
  1.3256549E+00;  9.9999998E-03; -2.0175892E-01;8617;  1.1607738E+00;  0.0000000E+00; -1.3361304E-01;  1.0058318E+03;  1.8560132E-01;  4.8197153E+03;3;  2.7875795E+01;  0.0000000E+00;  3.8245864E+00;0;  2.0363469E+00;  1.1949557E+04;  0.0000000E+00;  4.0456641E-01;  4.0000000E+04;  0.0000000E+00;  3.9276574E+04;  1.8325628E+00;  0.0000000E+00;  2.0378415E-01;  1.0104905E+04;
  1.3270991E+00;  9.9999998E-03; -2.4200846E-01;8613;  1.1819823E+00;  0.0000000E+00; -1.3590997E-01;  1.0065767E+03;  1.8523952E-01;  5.4350781E+03;3;  2.2124462E+01;  0.0000000E+00;  6.6453934E+00;0;  2.5086353E+00;  1.1996352E+04;  0.0000000E+00; -4.3239007E+00;  4.0000000E+04;  0.0000000E+00;  3.9286355E+04;  2.4117339E+00;  0.0000000E+00;  9.6901499E-02;  1.7973031E+04;
  1.3257879E+00;  9.9999998E-03; -1.9168940E-01;8618;  1.1565943E+00;  0.0000000E+00; -1.3092174E-01;  1.0058746E+03;  1.8554400E-01;  4.8550601E+03;3;  2.8025007E+01;  0.0000000E+00; -1.2646378E+00;0;  1.9170885E+00;  1.1958493E+04;  0.0000000E+00;  6.4689147E-01;  4.0000000E+04;  0.0000000E+00;  3.9278598E+04;  1.6558852E+00;  0.0000000E+00;  2.6120332E-01;  9.7479688E+03;
  1.3277140E+00;  9.9999998E-03; -2.5211796E-01;8612;  1.1879171E+00;  0.0000000E+00; -1.3592397E-01;  1.0067385E+03;  1.8507351E-01;  5.5686338E+03;3;  2.0673492E+01;  0.0000000E+00;  7.8266644E+00;0;  2.6451292E+00;  1.2018945E+04;  0.0000000E+00; -7.2002945E+00;  4.0000000E+04;  0.0000000E+00;  3.9284324E+04;  2.5227823E+00;  0.0000000E+00;  1.2234691E-01;  2.5917623E+04;
  1.3282862E+00;  9.9999998E-03; -2.6223573E-01;8611;  1.1934468E+00;  0.0000000E+00; -1.3450354E-01;  1.0067120E+03;  1.8490072E-01;  5.5465449E+03;3;  1.7765451E+01;  0.0000000E+00;  8.8029852E+00;0;  2.7900796E+00;  1.2041993E+04;  0.0000000E+00; -1.0530433E+01;  4.0000000E+04;  0.0000000E+00;  3.9274258E+04;  2.6262140E+00;  0.0000000E+00;  1.6386548E-01;  3.5621484E+04;
  1.3261479E+00;  9.9999998E-03; -1.8159720E-01;8619;  1.1535848E+00;  0.0000000E+00; -1.2401486E-01;  1.0059686E+03;  1.8540980E-01;  4.9326284E+03;3;  2.8020243E+01;  0.0000000E+00; -6.6106753E+00;0;  1.7968431E+00;  1.1977695E+04;  0.0000000E+00;  7.6238817E-01;  4.0000000E+04;  0.0000000E+00;  3.9280383E+04;  1.4739454E+00;  0.0000000E+00;  3.2289773E-01;  9.4902158E+03;
  1.3266413E+00;  9.9999998E-03; -1.7149058E-01;8620;  1.1513523E+00;  0.0000000E+00; -1.1477634E-01;  1.0061004E+03;  1.8523021E-01;  5.0414980E+03;3;  2.8814262E+01;  0.0000000E+00; -8.6699705E+00;0;  1.6805680E+00;  1.2002860E+04;  0.0000000E+00;  8.0029684E-01;  4.0000000E+04;  0.0000000E+00;  3.9281766E+04;  1.2959230E+00;  0.0000000E+00;  3.8464504E-01;  9.2828770E+03;
  1.3271673E+00;  9.9999998E-03; -1.6138446E-01;8621;  1.1495808E+00;  0.0000000E+00; -1.0534716E-01;  1.0062389E+03;  1.8503509E-01;  5.1558730E+03;3;  2.9694237E+01;  0.0000000E+00; -9.0163774E+00;0;  1.5710719E+00;  1.2028854E+04;  0.0000000E+00;  7.7773166E-01;  4.0000000E+04;  0.0000000E+00;  3.9283922E+04;  1.1295711E+00;  0.0000000E+00;  4.4150075E-01;  9.0147861E+03;
  1.3278664E+00;  9.9999998E-03; -1.1087582E-01;8626;  1.1463499E+00;  0.0000000E+00; -6.5714322E-02;  1.0061635E+03;  1.8480979E-01;  5.0933789E+03;3;  3.2984226E+01;  0.0000000E+00; -9.9901276E+00;0;  1.1522273E+00;  1.2034178E+04;  0.0000000E+00;  3.8253520E-02;  4.0000000E+04;  0.0000000E+00;  3.9313801E+04;  5.6622225E-01;  0.0000000E+00;  5.8600503E-01;  5.2938931E+03;
  1.3280011E+00;  9.9999998E-03; -1.2094330E-01;8625;  1.1463540E+00;  0.0000000E+00; -7.3047474E-02;  1.0063364E+03;  1.8474379E-01;  5.2361943E+03;3;  3.2423168E+01;  0.0000000E+00; -9.9545202E+00;0;  1.2213485E+00;  1.2051568E+04;  0.0000000E+00;  1.8594000E-01;  4.0000000E+04;  0.0000000E+00;  3.9305938E+04;  6.4633101E-01;  0.0000000E+00;  5.7501745E-01;  6.2608516E+03;
  1.3276545E+00;  9.9999998E-03; -1.5127578E-01;8622;  1.1481960E+00;  0.0000000E+00; -9.6544184E-02;  1.0063597E+03;  1.8485491E-01;  5.2555718E+03;3;  3.0445484E+01;  0.0000000E+00; -9.0404654E+00;0;  1.4688883E+00;  1.2051785E+04;  0.0000000E+00;  6.9116688E-01;  4.0000000E+04;  0.0000000E+00;  3.9287324E+04;  9.7892040E-01;  0.0000000E+00;  4.8996785E-01;  8.5845635E+03;
  1.3280607E+00;  9.9999998E-03; -1.3104053E-01;8624;  1.1466075E+00;  0.0000000E+00; -8.0584347E-02;  1.0064283E+03;  1.8470943E-01;  5.3122334E+03;3;  3.1831430E+01;  0.0000000E+00; -9.6585903E+00;0;  1.2954564E+00;  1.2062968E+04;  0.0000000E+00;  3.6310443E-01;  4.0000000E+04;  0.0000000E+00;  3.9298695E+04;  7.3925751E-01;  0.0000000E+00;  5.5619889E-01;  7.1740386E+03;
  1.3279591E+00;  9.9999998E-03; -1.4115880E-01;8623;  1.1472048E+00;  0.0000000E+00; -8.8370927E-02;  1.0064297E+03;  1.8474187E-01;  5.3133379E+03;3;  3.1183292E+01;  0.0000000E+00; -9.2820339E+00;0;  1.3773105E+00;  1.2063723E+04;  0.0000000E+00;  5.4360497E-01;  4.0000000E+04;  0.0000000E+00;  3.9292371E+04;  8.4912342E-01;  0.0000000E+00;  5.2818704E-01;  7.9659482E+03;
  1.3434607E+00;  9.9999998E-03; -2.0165481E-01;8678;  1.1604146E+00;  0.0000000E+00; -1.2519141E-01;  1.0043763E+03;  1.7675079E-01;  3.6140762E+03;3;  3.0703384E+01;  0.0000000E+00; -3.7684133E+00;0;  1.2399933E+00;  1.3133194E+04;  0.0000000E+00;  7.1084785E-01;  4.0000000E+04;  0.0000000E+00;  3.9296500E+04;  9.7326601E-01;  0.0000000E+00;  2.6672736E-01;  7.9298398E+03;
  1.3435719E+00;  9.9999998E-03; -2.1168894E-01;8677;  1.1657765E+00;  0.0000000E+00; -1.2704217E-01;  1.0045780E+03;  1.7675558E-01;  3.7806282E+03;3;  3.0477190E+01;  0.0000000E+00; -1.6535946E+00;0;  1.3088543E+00;  1.3135479E+04;  0.0000000E+00;  1.9927035E-01;  4.0000000E+04;  0.0000000E+00;  3.9294352E+04;  1.0901128E+00;  0.0000000E+00;  2.1874152E-01;  8.5213018E+03;
  1.3436025E+00;  9.9999998E-03; -1.9160025E-01;8679;  1.1559966E+00;  0.0000000E+00; -1.2048234E-01;  1.0042885E+03;  1.7667048E-01;  3.5415955E+03;3;  3.0622709E+01;  0.0000000E+00; -7.1524644E+00;0;  1.1691060E+00;  1.3142854E+04;  0.0000000E+00;  9.3544418E-01;  4.0000000E+04;  0.0000000E+00;  3.9301238E+04;  8.4924573E-01;  0.0000000E+00;  3.1986034E-01;  7.3319863E+03;
  1.3439236E+00;  9.9999998E-03; -2.2172987E-01;8676;  1.1715798E+00;  0.0000000E+00; -1.2789476E-01;  1.0048965E+03;  1.7669055E-01;  4.0436079E+03;3;  2.9941330E+01;  0.0000000E+00; -1.1535302E+00;0;  1.3757985E+00;  1.3148620E+04;  0.0000000E+00; -7.7789265E-01;  4.0000000E+04;  0.0000000E+00;  3.9295930E+04;  1.1967642E+00;  0.0000000E+00;  1.7903428E-01;  9.6611602E+03;
  1.3439423E+00;  9.9999998E-03; -1.8152384E-01;8680;  1.1524820E+00;  0.0000000E+00; -1.1308807E-01;  1.0042788E+03;  1.7653397E-01;  3.5334651E+03;3;  3.0617350E+01;  0.0000000E+00; -9.4393291E+00;0;  1.0993608E+00;  1.3161900E+04;  0.0000000E+00;  9.8519534E-01;  4.0000000E+04;  0.0000000E+00;  3.9305785E+04;  7.2403401E-01;  0.0000000E+00;  3.7532678E-01;  6.7971616E+03;
  1.3444546E+00;  9.9999998E-03; -2.3180251E-01;8675;  1.1777989E+00;  0.0000000E+00; -1.2849410E-01;  1.0052666E+03;  1.7657457E-01;  4.3490674E+03;3;  2.9526758E+01;  0.0000000E+00; -1.1135702E+00;0;  1.4438607E+00;  1.3170097E+04;  0.0000000E+00; -2.5043886E+00;  4.0000000E+04;  0.0000000E+00;  3.9298938E+04;  1.2927866E+00;  0.0000000E+00;  1.5107405E-01;  1.3200924E+04;
  1.3450371E+00;  9.9999998E-03; -2.4189886E-01;8674;  1.1842401E+00;  0.0000000E+00; -1.2912022E-01;  1.0056206E+03;  1.7643704E-01;  4.6413091E+03;3;  2.8808237E+01;  0.0000000E+00; -1.8612783E+00;0;  1.5204326E+00;  1.3195078E+04;  0.0000000E+00; -5.2963991E+00;  4.0000000E+04;  0.0000000E+00;  3.9300473E+04;  1.3816582E+00;  0.0000000E+00;  1.3877444E-01;  2.0704322E+04;
  1.3444030E+00;  9.9999998E-03; -1.7142700E-01;8681;  1.1496216E+00;  0.0000000E+00; -1.0487682E-01;  1.0043253E+03;  1.7636535E-01;  3.5717791E+03;3;  3.1092636E+01;  0.0000000E+00; -1.0308846E+01;0;  1.0325046E+00;  1.3186311E+04;  0.0000000E+00;  9.3297064E-01;  4.0000000E+04;  0.0000000E+00;  3.9309367E+04;  6.0333413E-01;  0.0000000E+00;  4.2917037E-01;  6.3389268E+03;
  1.3455504E+00;  9.9999998E-03; -2.5200552E-01;8673;  1.1908511E+00;  0.0000000E+00; -1.2964730E-01;  1.0059263E+03;  1.7629884E-01;  4.8936816E+03;3;  2.7937662E+01;  0.0000000E+00; -1.8993955E+00;0;  1.6132698E+00;  1.3220512E+04;  0.0000000E+00; -9.2508984E+00;  4.0000000E+04;  0.0000000E+00;  3.9300496E+04;  1.4679273E+00;  0.0000000E+00;  1.4534253E-01;  3.2116922E+04;
  1.3448843E+00;  9.9999998E-03; -1.6131070E-01;8682;  1.1473178E+00;  0.0000000E+00; -9.6835665E-02;  1.0043940E+03;  1.7619570E-01;  3.6284951E+03;3;  3.1560806E+01;  0.0000000E+00; -1.0593976E+01;0;  9.6936119E-01;  1.3210762E+04;  0.0000000E+00;  8.1933314E-01;  4.0000000E+04;  0.0000000E+00;  3.9312730E+04;  4.9197781E-01;  0.0000000E+00;  4.7738340E-01;  5.8931777E+03;
  1.3459444E+00;  9.9999998E-03; -2.6212171E-01;8672;  1.1974643E+00;  0.0000000E+00; -1.2966603E-01;  1.0060843E+03;  1.7615147E-01;  5.0240122E+03;3;  2.7048082E+01;  0.0000000E+00; -1.2607032E+00;0;  1.7233243E+00;  1.3247121E+04;  0.0000000E+00; -1.3870562E+01;  4.0000000E+04;  0.0000000E+00;  3.9294824E+04;  1.5539101E+00;  0.0000000E+00;  1.6941421E-01;  4.5312789E+04;
  1.3452755E+00;  9.9999998E-03; -1.5118743E-01;8683;  1.1455163E+00;  0.0000000E+00; -8.9244969E-02;  1.0044595E+03;  1.7606440E-01;  3.6824680E+03;3;  3.2040573E+01;  0.0000000E+00; -1.0971272E+01;0;  9.1066945E-01;  1.3228513E+04;  0.0000000E+00;  6.5906250E-01;  4.0000000E+04;  0.0000000E+00;  3.9316871E+04;  3.9350426E-01;  0.0000000E+00;  5.1716518E-01;  5.3674844E+03;
  1.3455253E+00;  9.9999998E-03; -1.4106743E-01;8684;  1.1442145E+00;  0.0000000E+00; -8.2014561E-02;  1.0044937E+03;  1.7599165E-01;  3.7105754E+03;3;  3.2518368E+01;  0.0000000E+00; -1.1449746E+01;0;  8.5579860E-01;  1.3235885E+04;  0.0000000E+00;  4.5770603E-01;  4.0000000E+04;  0.0000000E+00;  3.9322367E+04;  3.0851182E-01;  0.0000000E+00;  5.4728675E-01;  4.6980928E+03;
  1.3455905E+00;  9.9999998E-03; -1.1084614E-01;8687;  1.1424148E+00;  0.0000000E+00; -6.1397217E-02;  1.0041084E+03;  1.7606047E-01;  3.3925154E+03;3;  3.4370842E+01;  0.0000000E+00; -1.2010456E+01;0;  7.0471185E-01;  1.3200785E+04;  0.0000000E+00; -1.2548655E-01;  4.0000000E+04;  0.0000000E+00;  3.9345461E+04;  1.1995213E-01;  0.0000000E+00;  5.8475971E-01;  2.0435631E+03;
  1.3456323E+00;  9.9999998E-03; -1.3097142E-01;8685;  1.1433191E+00;  0.0000000E+00; -7.5001746E-02;  1.0044574E+03;  1.7597872E-01;  3.6806316E+03;3;  3.2991489E+01;  0.0000000E+00; -1.1888080E+01;0;  8.0384022E-01;  1.3231955E+04;  0.0000000E+00;  2.3742718E-01;  4.0000000E+04;  0.0000000E+00;  3.9329184E+04;  2.3595171E-01;  0.0000000E+00;  5.6788850E-01;  3.8840989E+03;
  1.3456380E+00;  9.9999998E-03; -1.2090179E-01;8686;  1.1427569E+00;  0.0000000E+00; -6.8125203E-02;  1.0043231E+03;  1.7600866E-01;  3.5696929E+03;3;  3.3696468E+01;  0.0000000E+00; -1.2085773E+01;0;  7.5372106E-01;  1.3219102E+04;  0.0000000E+00;  3.4232117E-02;  4.0000000E+04;  0.0000000E+00;  3.9336844E+04;  1.7374820E-01;  0.0000000E+00;  5.7997286E-01;  2.9709460E+03;
  1.3607202E+00;  9.9999998E-03; -2.0153844E-01;8739;  1.1583126E+00;  0.0000000E+00; -1.1487850E-01;  1.0028632E+03;  1.6862088E-01;  2.3622688E+03;3;  3.2415745E+01;  0.0000000E+00; -6.7150679E+00;0;  7.0713311E-01;  1.4378791E+04;  0.0000000E+00;  9.5154315E-01;  4.0000000E+04;  0.0000000E+00;  3.9317906E+04;  4.0463638E-01;  0.0000000E+00;  3.0249673E-01;  5.4532856E+03;
  1.3606796E+00;  9.9999998E-03; -1.9149779E-01;8740;  1.1534870E+00;  0.0000000E+00; -1.1027093E-01;  1.0026714E+03;  1.6859354E-01;  2.2041211E+03;3;  3.1997408E+01;  0.0000000E+00; -9.7226744E+00;0;  6.7808723E-01;  1.4377882E+04;  0.0000000E+00;  1.0993500E+00;  4.0000000E+04;  0.0000000E+00;  3.9322742E+04;  3.2899716E-01;  0.0000000E+00;  3.4909007E-01;  4.9144248E+03;
  1.3610092E+00;  9.9999998E-03; -2.1157078E-01;8738;  1.1640279E+00;  0.0000000E+00; -1.1689688E-01;  1.0031421E+03;  1.6858369E-01;  2.5923711E+03;3;  3.1952564E+01;  0.0000000E+00; -4.9449959E+00;0;  7.3459232E-01;  1.4391171E+04;  0.0000000E+00;  4.5113897E-01;  4.0000000E+04;  0.0000000E+00;  3.9315273E+04;  4.7560513E-01;  0.0000000E+00;  2.5898719E-01;  5.9079087E+03;
  1.3608719E+00;  9.9999998E-03; -1.8143857E-01;8741;  1.1496017E+00;  0.0000000E+00; -1.0360896E-01;  1.0025649E+03;  1.6850807E-01;  2.1161670E+03;3;  3.2132053E+01;  0.0000000E+00; -1.1438636E+01;0;  6.4834964E-01;  1.4388269E+04;  0.0000000E+00;  1.0491157E+00;  4.0000000E+04;  0.0000000E+00;  3.9328395E+04;  2.5157014E-01;  0.0000000E+00;  3.9677954E-01;  4.2678066E+03;
  1.3615013E+00;  9.9999998E-03; -2.2161886E-01;8737;  1.1700875E+00;  0.0000000E+00; -1.1791751E-01;  1.0035012E+03;  1.6849414E-01;  2.8885200E+03;3;  3.1407627E+01;  0.0000000E+00; -4.6698732E+00;0;  7.6178664E-01;  1.4412461E+04;  0.0000000E+00; -6.9543296E-01;  4.0000000E+04;  0.0000000E+00;  3.9316613E+04;  5.4086262E-01;  0.0000000E+00;  2.2092402E-01;  7.4672139E+03;
  1.3612231E+00;  9.9999998E-03; -1.7135632E-01;8742;  1.1464156E+00;  0.0000000E+00; -9.6378230E-02;  1.0025185E+03;  1.6838554E-01;  2.0778623E+03;3;  3.2496105E+01;  0.0000000E+00; -1.2315269E+01;0;  6.1850584E-01;  1.4405830E+04;  0.0000000E+00;  8.9439142E-01;  4.0000000E+04;  0.0000000E+00;  3.9332898E+04;  1.7620972E-01;  0.0000000E+00;  4.4229612E-01;  3.6341602E+03;
  1.3620583E+00;  9.9999998E-03; -2.3170346E-01;8736;  1.1765418E+00;  0.0000000E+00; -1.1850099E-01;  1.0038476E+03;  1.6838610E-01;  3.1742119E+03;3;  3.1153570E+01;  0.0000000E+00; -5.0730286E+00;0;  7.9281151E-01;  1.4436605E+04;  0.0000000E+00; -2.9547069E+00;  4.0000000E+04;  0.0000000E+00;  3.9317855E+04;  6.0266203E-01;  0.0000000E+00;  1.9014950E-01;  1.2894518E+04;
  1.3615972E+00;  9.9999998E-03; -1.6124472E-01;8743;  1.1438372E+00;  0.0000000E+00; -8.9220501E-02;  1.0025189E+03;  1.6826972E-01;  2.0781089E+03;3;  3.2573666E+01;  0.0000000E+00; -1.2966795E+01;0;  5.8922434E-01;  1.4423075E+04;  0.0000000E+00;  6.9959587E-01;  4.0000000E+04;  0.0000000E+00;  3.9336738E+04;  1.0681259E-01;  0.0000000E+00;  4.8241177E-01;  3.0672478E+03;
  1.3624614E+00;  9.9999998E-03; -2.4180807E-01;8735;  1.1832423E+00;  0.0000000E+00; -1.1905462E-01;  1.0041862E+03;  1.6831398E-01;  3.4534260E+03;3;  3.0788456E+01;  0.0000000E+00; -5.2113395E+00;0;  8.3570385E-01;  1.4455355E+04;  0.0000000E+00; -6.6489630E+00;  4.0000000E+04;  0.0000000E+00;  3.9317512E+04;  6.6685349E-01;  0.0000000E+00;  1.6885039E-01;  2.3147223E+04;
  1.3626221E+00;  9.9999998E-03; -2.6203719E-01;8733;  1.1970228E+00;  0.0000000E+00; -1.2032289E-01;  1.0048650E+03;  1.6822132E-01;  4.0133525E+03;3;  2.9584370E+01;  0.0000000E+00; -5.3224649E+00;0;  9.7351944E-01;  1.4488880E+04;  0.0000000E+00; -1.6995302E+01;  4.0000000E+04;  0.0000000E+00;  3.9312289E+04;  8.0981427E-01;  0.0000000E+00;  1.6370516E-01;  5.1368473E+04;
  1.3626492E+00;  9.9999998E-03; -2.5191915E-01;8734;  1.1900842E+00;  0.0000000E+00; -1.1975306E-01;  1.0045325E+03;  1.6827126E-01;  3.7391675E+03;3;  3.0193621E+01;  0.0000000E+00; -5.5736494E+00;0;  8.9557838E-01;  1.4470299E+04;  0.0000000E+00; -1.1656073E+01;  4.0000000E+04;  0.0000000E+00;  3.9316746E+04;  7.3565942E-01;  0.0000000E+00;  1.5991898E-01;  3.7220164E+04;
  1.3618654E+00;  9.9999998E-03; -1.5111172E-01;8744;  1.1418613E+00;  0.0000000E+00; -8.2314722E-02;  1.0025377E+03;  1.6820070E-01;  2.0936128E+03;3;  3.2972668E+01;  0.0000000E+00; -1.3504245E+01;0;  5.6072634E-01;  1.4432190E+04;  0.0000000E+00;  4.9693283E-01;  4.0000000E+04;  0.0000000E+00;  3.9340664E+04;  4.5826539E-02;  0.0000000E+00;  5.1489979E-01;  2.5279331E+03;
  1.3620551E+00;  9.9999998E-03; -1.4099927E-01;8745;  1.1403444E+00;  0.0000000E+00; -7.5671479E-02;  1.0025331E+03;  1.6816826E-01;  2.0897522E+03;3;  3.3599506E+01;  0.0000000E+00; -1.3779327E+01;0;  5.3108650E-01;  1.4433693E+04;  0.0000000E+00;  2.9061386E-01;  4.0000000E+04;  0.0000000E+00;  3.9345656E+04; -7.4779275E-03;  0.0000000E+00;  5.3856444E-01;  1.9351194E+03;
  1.3622112E+00;  9.9999998E-03; -1.3091002E-01;8746;  1.1391622E+00;  0.0000000E+00; -6.9225796E-02;  1.0024606E+03;  1.6815507E-01;  2.0299380E+03;3;  3.4258728E+01;  0.0000000E+00; -1.3837422E+01;0;  4.9917781E-01;  1.4429553E+04;  0.0000000E+00;  8.7234892E-02;  4.0000000E+04;  0.0000000E+00;  3.9352055E+04; -5.4264553E-02;  0.0000000E+00;  5.5344236E-01;  1.3289641E+03;
  1.3623459E+00;  9.9999998E-03; -1.2083995E-01;8747;  1.1382685E+00;  0.0000000E+00; -6.2918738E-02;  1.0023046E+03;  1.6815342E-01;  1.9012865E+03;3;  3.4708923E+01;  0.0000000E+00; -1.3769096E+01;0;  4.6520725E-01;  1.4420677E+04;  0.0000000E+00; -8.8945895E-02;  4.0000000E+04;  0.0000000E+00;  3.9359883E+04; -9.5183752E-02;  0.0000000E+00;  5.6039101E-01;  1.0540078E+03;
  1.3624452E+00;  9.9999998E-03; -1.1078436E-01;8748;  1.1375991E+00;  0.0000000E+00; -5.6754746E-02;  1.0020580E+03;  1.6816665E-01;  1.6978019E+03;3;  3.5058853E+01;  0.0000000E+00; -1.3441184E+01;0;  4.3002927E-01;  1.4407001E+04;  0.0000000E+00; -2.1769510E-01;  4.0000000E+04;  0.0000000E+00;  3.9368480E+04; -1.3057037E-01;  0.0000000E+00;  5.6059963E-01;  1.5376069E+03;
  1.3769417E+00;  9.9999998E-03; -1.9140889E-01;8801;  1.1502624E+00;  0.0000000E+00; -1.0066763E-01;  1.0013302E+03;  1.6139150E-01;  1.0962910E+03;3;  3.3383892E+01;  0.0000000E+00; -1.1865347E+01;0;  3.7688994E-01;  1.5638729E+04;  0.0000000E+00;  1.1742828E+00;  4.0000000E+04;  0.0000000E+00;  3.9340180E+04;  1.9939197E-02;  0.0000000E+00;  3.5695076E-01;  3.0135637E+03;
  1.3769904E+00;  9.9999998E-03; -1.8136427E-01;8802;  1.1459836E+00;  0.0000000E+00; -9.4911575E-02;  1.0011219E+03;  1.6135345E-01;  9.2465729E+02;3;  3.3226688E+01;  0.0000000E+00; -1.3579111E+01;0;  3.7123451E-01;  1.5638491E+04;  0.0000000E+00;  1.0188643E+00;  4.0000000E+04;  0.0000000E+00;  3.9345906E+04; -2.5763113E-02;  0.0000000E+00;  3.9699763E-01;  2.3107844E+03;
  1.3771385E+00;  9.9999998E-03; -2.0143864E-01;8800;  1.1555086E+00;  0.0000000E+00; -1.0459882E-01;  1.0016005E+03;  1.6137703E-01;  1.3189869E+03;3;  3.3426064E+01;  0.0000000E+00; -9.0942307E+00;0;  3.8114348E-01;  1.5649944E+04;  0.0000000E+00;  1.1458222E+00;  4.0000000E+04;  0.0000000E+00;  3.9335527E+04;  6.3805960E-02;  0.0000000E+00;  3.1733751E-01;  3.3607422E+03;
  1.3771871E+00;  9.9999998E-03; -1.7129539E-01;8803;  1.1425650E+00;  0.0000000E+00; -8.8414505E-02;  1.0009810E+03;  1.6129030E-01;  8.0842401E+02;3;  3.3385345E+01;  0.0000000E+00; -1.4530951E+01;0;  3.6429951E-01;  1.5644551E+04;  0.0000000E+00;  7.7250034E-01;  4.0000000E+04;  0.0000000E+00;  3.9350801E+04; -7.0652902E-02;  0.0000000E+00;  4.3495241E-01;  1.4785287E+03;
  1.3775810E+00;  9.9999998E-03; -2.1147257E-01;8799;  1.1614389E+00;  0.0000000E+00; -1.0665119E-01;  1.0019252E+03;  1.6130766E-01;  1.5865404E+03;3;  3.3266281E+01;  0.0000000E+00; -7.4397292E+00;0;  3.8426012E-01;  1.5671183E+04;  0.0000000E+00;  7.3902214E-01;  4.0000000E+04;  0.0000000E+00;  3.9334121E+04;  1.0436349E-01;  0.0000000E+00;  2.7989662E-01;  3.2915879E+03;
  1.3774099E+00;  9.9999998E-03; -1.6119514E-01;8804;  1.1398038E+00;  0.0000000E+00; -8.1895031E-02;  1.0008878E+03;  1.6123766E-01;  7.3168506E+02;3;  3.3747978E+01;  0.0000000E+00; -1.5136435E+01;0;  3.5576999E-01;  1.5649995E+04;  0.0000000E+00;  5.0719923E-01;  4.0000000E+04;  0.0000000E+00;  3.9354824E+04; -1.1245291E-01;  0.0000000E+00;  4.6822292E-01;  6.8392743E+02;
  1.3776102E+00;  9.9999998E-03; -1.5107234E-01;8805;  1.1375723E+00;  0.0000000E+00; -7.5559966E-02;  1.0008273E+03;  1.6120450E-01;  6.8176874E+02;3;  3.4147335E+01;  0.0000000E+00; -1.5538586E+01;0;  3.4450233E-01;  1.5652055E+04;  0.0000000E+00;  2.7245992E-01;  4.0000000E+04;  0.0000000E+00;  3.9358328E+04; -1.5028663E-01;  0.0000000E+00;  4.9478897E-01;  2.3032185E+02;
  1.3778273E+00;  9.9999998E-03; -1.4094928E-01;8806;  1.1357501E+00;  0.0000000E+00; -6.9394760E-02;  1.0007609E+03;  1.6117674E-01;  6.2703961E+02;3;  3.4661522E+01;  0.0000000E+00; -1.5840949E+01;0;  3.2904309E-01;  1.5652653E+04;  0.0000000E+00;  7.8929961E-02;  4.0000000E+04;  0.0000000E+00;  3.9362867E+04; -1.8434201E-01;  0.0000000E+00;  5.1338512E-01;  7.9387628E+02;
  1.3781769E+00;  9.9999998E-03; -2.2153945E-01;8798;  1.1678303E+00;  0.0000000E+00; -1.0753590E-01;  1.0022034E+03;  1.6120189E-01;  1.8156432E+03;3;  3.2797394E+01;  0.0000000E+00; -6.9023376E+00;0;  3.8762873E-01;  1.5697675E+04;  0.0000000E+00; -4.9917784E-01;  4.0000000E+04;  0.0000000E+00;  3.9334719E+04;  1.4189826E-01;  0.0000000E+00;  2.4573047E-01;  4.8937051E+03;
  1.3780679E+00;  9.9999998E-03; -1.3084570E-01;8807;  1.1343067E+00;  0.0000000E+00; -6.3343033E-02;  1.0006595E+03;  1.6114604E-01;  5.4352869E+02;3;  3.4929039E+01;  0.0000000E+00; -1.5803268E+01;0;  3.0922142E-01;  1.5651488E+04;  0.0000000E+00; -8.0105029E-02;  4.0000000E+04;  0.0000000E+00;  3.9368656E+04; -2.1462616E-01;  0.0000000E+00;  5.2384758E-01;  1.5267965E+03;
  1.3784511E+00;  9.9999998E-03; -2.6197845E-01;8794;  1.1952616E+00;  0.0000000E+00; -1.1001877E-01;  1.0032758E+03;  1.6110969E-01;  2.6993875E+03;3;  3.0755373E+01;  0.0000000E+00; -7.3249478E+00;0;  4.8941794E-01;  1.5748010E+04;  0.0000000E+00; -1.8747728E+01;  4.0000000E+04;  0.0000000E+00;  3.9328758E+04;  3.2875308E-01;  0.0000000E+00;  1.6066486E-01;  4.9821398E+04;
  1.3782973E+00;  9.9999998E-03; -1.2076699E-01;8808;  1.1331505E+00;  0.0000000E+00; -5.7451744E-02;  1.0004827E+03;  1.6112366E-01;  3.9774216E+02;3;  3.5390240E+01;  0.0000000E+00; -1.5505322E+01;0;  2.8595883E-01;  1.5646622E+04;  0.0000000E+00; -1.9692425E-01;  4.0000000E+04;  0.0000000E+00;  3.9375660E+04; -2.4105339E-01;  0.0000000E+00;  5.2701223E-01;  2.3632439E+03;
  1.3787374E+00;  9.9999998E-03; -2.3163734E-01;8797;  1.1744630E+00;  0.0000000E+00; -1.0805401E-01;  1.0023734E+03;  1.6110173E-01;  1.9556355E+03;3;  3.2040627E+01;  0.0000000E+00; -6.7490911E+00;0;  3.9508837E-01;  1.5721313E+04;  0.0000000E+00; -3.2863297E+00;  4.0000000E+04;  0.0000000E+00;  3.9333848E+04;  1.7908733E-01;  0.0000000E+00;  2.1600103E-01;  1.1663970E+04;
  1.3789012E+00;  9.9999998E-03; -2.5185603E-01;8795;  1.1881983E+00;  0.0000000E+00; -1.0919576E-01;  1.0028045E+03;  1.6106908E-01;  2.3108982E+03;3;  3.1094755E+01;  0.0000000E+00; -7.1173730E+00;0;  4.4295442E-01;  1.5739266E+04;  0.0000000E+00; -1.3821321E+01;  4.0000000E+04;  0.0000000E+00;  3.9334039E+04;  2.7064452E-01;  0.0000000E+00;  1.7230992E-01;  3.8478789E+04;
  1.3784881E+00;  9.9999998E-03; -1.1070285E-01;8809;  1.1322304E+00;  0.0000000E+00; -5.1735744E-02;  1.0002414E+03;  1.6111298E-01;  1.9891714E+02;3;  3.5764153E+01;  0.0000000E+00; -1.5016756E+01;0;  2.6029184E-01;  1.5636991E+04;  0.0000000E+00; -2.6357815E-01;  4.0000000E+04;  0.0000000E+00;  3.9383785E+04; -2.6378569E-01;  0.0000000E+00;  5.2407753E-01;  3.2935305E+03;
  1.3790020E+00;  9.9999998E-03; -2.4174294E-01;8796;  1.1812667E+00;  0.0000000E+00; -1.0849557E-01;  1.0025338E+03;  1.6105725E-01;  2.0878066E+03;3;  3.1488371E+01;  0.0000000E+00; -6.8435774E+00;0;  4.1208613E-01;  1.5733783E+04;  0.0000000E+00; -7.9440250E+00;  4.0000000E+04;  0.0000000E+00;  3.9334117E+04;  2.2114533E-01;  0.0000000E+00;  1.9094078E-01;  2.3622215E+04;
  1.3924422E+00;  9.9999998E-03; -1.8131518E-01;8863;  1.1419228E+00;  0.0000000E+00; -8.6498618E-02;  1.0000722E+03;  1.5499875E-01;  5.9453747E+01;3;  3.4518959E+01;  0.0000000E+00; -1.5628730E+01;0;  2.0331472E-01;  1.6903477E+04;  0.0000000E+00;  9.3298966E-01;  4.0000000E+04;  0.0000000E+00;  3.9357098E+04; -1.8163505E-01;  0.0000000E+00;  3.8494977E-01;  1.6322723E+03;
  1.3924829E+00;  9.9999998E-03; -1.7125604E-01;8864;  1.1381891E+00;  0.0000000E+00; -8.0776945E-02;  9.9981628E+02;  1.5498686E-01; -1.5118459E+02;3;  3.4542904E+01;  0.0000000E+00; -1.6809881E+01;0;  2.0792951E-01;  1.6895756E+04;  0.0000000E+00;  6.0759687E-01;  4.0000000E+04;  0.0000000E+00;  3.9362602E+04; -2.0827644E-01;  0.0000000E+00;  4.1620594E-01;  1.2727878E+03;
  1.3925712E+00;  9.9999998E-03; -1.9135496E-01;8862;  1.1465720E+00;  0.0000000E+00; -9.1314904E-02;  1.0003629E+03;  1.5498522E-01;  2.9863843E+02;3;  3.4771492E+01;  0.0000000E+00; -1.3652914E+01;0;  1.9647907E-01;  1.6917596E+04;  0.0000000E+00;  1.2070454E+00;  4.0000000E+04;  0.0000000E+00;  3.9350980E+04; -1.5551822E-01;  0.0000000E+00;  3.5199729E-01;  2.2347051E+03;
  1.3926123E+00;  9.9999998E-03; -1.6116764E-01;8865;  1.1351730E+00;  0.0000000E+00; -7.4721925E-02;  9.9960236E+02;  1.5497024E-01; -3.2723535E+02;3;  3.4763401E+01;  0.0000000E+00; -1.7505976E+01;0;  2.0940407E-01;  1.6891082E+04;  0.0000000E+00;  2.8857470E-01;  4.0000000E+04;  0.0000000E+00;  3.9366777E+04; -2.3414178E-01;  0.0000000E+00;  4.4354585E-01;  1.4935037E+03;
  1.3928044E+00;  9.9999998E-03; -1.5104796E-01;8866;  1.1326889E+00;  0.0000000E+00; -6.8709493E-02;  9.9942615E+02;  1.5494636E-01; -4.7227734E+02;3;  3.5070568E+01;  0.0000000E+00; -1.7640419E+01;0;  2.0656574E-01;  1.6888828E+04;  0.0000000E+00;  3.1448070E-02;  4.0000000E+04;  0.0000000E+00;  3.9370535E+04; -2.5849158E-01;  0.0000000E+00;  4.6505731E-01;  2.0474459E+03;
  1.3929113E+00;  9.9999998E-03; -2.0138896E-01;8861;  1.1521542E+00;  0.0000000E+00; -9.4540104E-02;  1.0006684E+03;  1.5493715E-01;  5.5006873E+02;3;  3.4797771E+01;  0.0000000E+00; -1.1418605E+01;0;  1.8822773E-01;  1.6938641E+04;  0.0000000E+00;  1.3564994E+00;  4.0000000E+04;  0.0000000E+00;  3.9345957E+04; -1.3106798E-01;  0.0000000E+00;  3.1929570E-01;  2.6395334E+03;
  1.3930490E+00;  9.9999998E-03; -1.4091539E-01;8867;  1.1306375E+00;  0.0000000E+00; -6.2875055E-02;  9.9927844E+02;  1.5491776E-01; -5.9381500E+02;3;  3.5382637E+01;  0.0000000E+00; -1.7662855E+01;0;  1.9868216E-01;  1.6888373E+04;  0.0000000E+00; -1.4258732E-01;  4.0000000E+04;  0.0000000E+00;  3.9374391E+04; -2.8080761E-01;  0.0000000E+00;  4.7948977E-01;  2.6661987E+03;
  1.3933234E+00;  9.9999998E-03; -1.3079992E-01;8868;  1.1289177E+00;  0.0000000E+00; -5.7212062E-02;  9.9913177E+02;  1.5488559E-01; -7.1446161E+02;3;  3.5728832E+01;  0.0000000E+00; -1.7484262E+01;0;  1.8588009E-01;  1.6887715E+04;  0.0000000E+00; -2.4526696E-01;  4.0000000E+04;  0.0000000E+00;  3.9379465E+04; -3.0070299E-01;  0.0000000E+00;  4.8658308E-01;  3.3230923E+03;
  1.3934426E+00;  9.9999998E-03; -2.1143775E-01;8860;  1.1583843E+00;  0.0000000E+00; -9.6343637E-02;  1.0009110E+03;  1.5485713E-01;  7.4967053E+02;3;  3.4433674E+01;  0.0000000E+00; -9.6742897E+00;0;  1.7933153E-01;  1.6963896E+04;  0.0000000E+00;  1.1404736E+00;  4.0000000E+04;  0.0000000E+00;  3.9343434E+04; -1.0881294E-01;  0.0000000E+00;  2.8814447E-01;  2.2807864E+03;
  1.3935940E+00;  9.9999998E-03; -1.2071170E-01;8869;  1.1275022E+00;  0.0000000E+00; -5.1718574E-02;  9.9894751E+02;  1.5485640E-01; -8.6610065E+02;3;  3.6031128E+01;  0.0000000E+00; -1.7037512E+01;0;  1.6898912E-01;  1.6884844E+04;  0.0000000E+00; -2.8780276E-01;  4.0000000E+04;  0.0000000E+00;  3.9385520E+04; -3.1805751E-01;  0.0000000E+00;  4.8704663E-01;  4.0552397E+03;
  1.3933643E+00;  9.9999998E-03; -2.6194844E-01;8855;  1.1931199E+00;  0.0000000E+00; -1.0020427E-01;  1.0017390E+03;  1.5489314E-01;  1.4309775E+03;3;  3.1121634E+01;  0.0000000E+00; -7.9046369E+00;0;  1.9830799E-01;  1.6986189E+04;  0.0000000E+00; -1.6646791E+01;  4.0000000E+04;  0.0000000E+00;  3.9340023E+04;  3.5659112E-02;  0.0000000E+00;  1.6264889E-01;  3.8139977E+04;
  1.3938348E+00;  9.9999998E-03; -1.1063986E-01;8870;  1.1263462E+00;  0.0000000E+00; -4.6403125E-02;  9.9872632E+02;  1.5483688E-01; -1.0480947E+03;3;  3.6336727E+01;  0.0000000E+00; -1.6353985E+01;0;  1.4904463E-01;  1.6878344E+04;  0.0000000E+00; -2.7714962E-01;  4.0000000E+04;  0.0000000E+00;  3.9392637E+04; -3.3296892E-01;  0.0000000E+00;  4.8201355E-01;  4.8850820E+03;
  1.3940502E+00;  9.9999998E-03; -2.2151636E-01;8859;  1.1650140E+00;  0.0000000E+00; -9.7222611E-02;  1.0009928E+03;  1.5476611E-01;  8.1691638E+02;3;  3.3886177E+01;  0.0000000E+00; -8.7581024E+00;0;  1.7106438E-01;  1.6986434E+04;  0.0000000E+00; -7.7475786E-02;  4.0000000E+04;  0.0000000E+00;  3.9341910E+04; -8.8010013E-02;  0.0000000E+00;  2.5907439E-01;  2.2431650E+03;
  1.3941033E+00;  9.9999998E-03; -2.5182247E-01;8856;  1.1859401E+00;  0.0000000E+00; -9.9221028E-02;  1.0010976E+03;  1.5480056E-01;  9.0313501E+02;3;  3.1744184E+01;  0.0000000E+00; -7.8254476E+00;0;  1.7870267E-01;  1.6982889E+04;  0.0000000E+00; -1.3429299E+01;  4.0000000E+04;  0.0000000E+00;  3.9346539E+04; -4.9802740E-03;  0.0000000E+00;  1.8368295E-01;  3.2252396E+04;
  1.3944912E+00;  9.9999998E-03; -2.3161049E-01;8858;  1.1719024E+00;  0.0000000E+00; -9.7783707E-02;  1.0009090E+03;  1.5471193E-01;  7.4792371E+02;3;  3.3317768E+01;  0.0000000E+00; -8.3567057E+00;0;  1.6624779E-01;  1.6996656E+04;  0.0000000E+00; -3.1373515E+00;  4.0000000E+04;  0.0000000E+00;  3.9341613E+04; -6.5930590E-02;  0.0000000E+00;  2.3217838E-01;  8.7886953E+03;
  1.3945342E+00;  9.9999998E-03; -2.4170984E-01;8857;  1.1788970E+00;  0.0000000E+00; -9.8348632E-02;  1.0008625E+03;  1.5472449E-01;  7.0966614E+02;3;  3.2569084E+01;  0.0000000E+00; -8.1266689E+00;0;  1.6777256E-01;  1.6992307E+04;  0.0000000E+00; -8.1227150E+00;  4.0000000E+04;  0.0000000E+00;  3.9344602E+04; -3.9058346E-02;  0.0000000E+00;  2.0683090E-01;  2.0297463E+04;
  1.4072710E+00;  9.9999998E-03; -1.8129054E-01;8923;  1.1374909E+00;  0.0000000E+00; -7.8159064E-02;  9.9940173E+02;  1.4940125E-01; -4.9155328E+02;3;  3.5975731E+01;  0.0000000E+00; -1.7477598E+01;0;  9.8038554E-02;  1.8163965E+04;  0.0000000E+00;  8.4445405E-01;  4.0000000E+04;  0.0000000E+00;  3.9361473E+04; -2.6931724E-01;  0.0000000E+00;  3.6735579E-01;  2.3540154E+03;
  1.4072503E+00;  9.9999998E-03; -1.7124103E-01;8924;  1.1333997E+00;  0.0000000E+00; -7.3059440E-02;  9.9903168E+02;  1.4940852E-01; -7.9563568E+02;3;  3.5809818E+01;  0.0000000E+00; -1.8804161E+01;0;  1.0666502E-01;  1.8147262E+04;  0.0000000E+00;  4.3221614E-01;  4.0000000E+04;  0.0000000E+00;  3.9367871E+04; -2.8567910E-01;  0.0000000E+00;  3.9234412E-01;  2.6061558E+03;
  1.4073560E+00;  9.9999998E-03; -1.6116644E-01;8925;  1.1300677E+00;  0.0000000E+00; -6.7490079E-02;  9.9869031E+02;  1.4939998E-01; -1.0760972E+03;3;  3.5777180E+01;  0.0000000E+00; -1.9374662E+01;0;  1.1175379E-01;  1.8135900E+04;  0.0000000E+00;  7.4005075E-02;  4.0000000E+04;  0.0000000E+00;  3.9373270E+04; -3.0242017E-01;  0.0000000E+00;  4.1417396E-01;  3.2092058E+03;
  1.4075432E+00;  9.9999998E-03; -1.5105486E-01;8926;  1.1273282E+00;  0.0000000E+00; -6.1822720E-02;  9.9837915E+02;  1.4937803E-01; -1.3317087E+03;3;  3.5905918E+01;  0.0000000E+00; -1.9591835E+01;0;  1.1238560E-01;  1.8129240E+04;  0.0000000E+00; -1.9264551E-01;  4.0000000E+04;  0.0000000E+00;  3.9377398E+04; -3.1873938E-01;  0.0000000E+00;  4.3112499E-01;  3.8544536E+03;
  1.4074687E+00;  9.9999998E-03; -1.9133095E-01;8922;  1.1425416E+00;  0.0000000E+00; -8.2093090E-02;  9.9976135E+02;  1.4936851E-01; -1.9608762E+02;3;  3.6147038E+01;  0.0000000E+00; -1.5313720E+01;0;  8.6865604E-02;  1.8186561E+04;  0.0000000E+00;  1.3117137E+00;  4.0000000E+04;  0.0000000E+00;  3.9354527E+04; -2.5416130E-01;  0.0000000E+00;  3.4102690E-01;  2.8230930E+03;
  1.4077892E+00;  9.9999998E-03; -1.4092354E-01;8927;  1.1250329E+00;  0.0000000E+00; -5.6269728E-02;  9.9812982E+02;  1.4935091E-01; -1.5365140E+03;3;  3.6083733E+01;  0.0000000E+00; -1.9360977E+01;0;  1.0800675E-01;  1.8125844E+04;  0.0000000E+00; -3.3939111E-01;  4.0000000E+04;  0.0000000E+00;  3.9381301E+04; -3.3396590E-01;  0.0000000E+00;  4.4197264E-01;  4.4428726E+03;
  1.4080647E+00;  9.9999998E-03; -1.3080132E-01;8928;  1.1231093E+00;  0.0000000E+00; -5.0929036E-02;  9.9791010E+02;  1.4932062E-01; -1.7170116E+03;3;  3.6276112E+01;  0.0000000E+00; -1.8863159E+01;0;  9.8750800E-02;  1.8123627E+04;  0.0000000E+00; -3.8324919E-01;  4.0000000E+04;  0.0000000E+00;  3.9385484E+04; -3.4759709E-01;  0.0000000E+00;  4.4634789E-01;  5.0054971E+03;
  1.4078662E+00;  9.9999998E-03; -2.0137163E-01;8921;  1.1484178E+00;  0.0000000E+00; -8.4737457E-02;  1.0000396E+03;  1.4930888E-01;  3.2516434E+01;3;  3.6072781E+01;  0.0000000E+00; -1.3247380E+01;0;  7.4077398E-02;  1.8212512E+04;  0.0000000E+00;  1.8111849E+00;  4.0000000E+04;  0.0000000E+00;  3.9348930E+04; -2.4079990E-01;  0.0000000E+00;  3.1487730E-01;  3.8609429E+03;
  1.4077827E+00;  9.9999998E-03; -2.6194456E-01;8915;  1.1906885E+00;  0.0000000E+00; -9.1003269E-02;  1.0001071E+03;  1.4942110E-01;  8.7951988E+01;3;  3.2312347E+01;  0.0000000E+00; -8.4158182E+00;0;  2.6294440E-02;  1.8196109E+04;  0.0000000E+00; -1.2906071E+01;  4.0000000E+04;  0.0000000E+00;  3.9345668E+04; -1.4130966E-01;  0.0000000E+00;  1.6760410E-01;  2.4608596E+04;
  1.4083476E+00;  9.9999998E-03; -1.2070154E-01;8929;  1.1214929E+00;  0.0000000E+00; -4.5802683E-02;  9.9771564E+02;  1.4929390E-01; -1.8766836E+03;3;  3.6467216E+01;  0.0000000E+00; -1.8208891E+01;0;  8.5297883E-02;  1.8121119E+04;  0.0000000E+00; -3.5240924E-01;  4.0000000E+04;  0.0000000E+00;  3.9390648E+04; -3.5945511E-01;  0.0000000E+00;  4.4475299E-01;  5.6087378E+03;
  1.4086177E+00;  9.9999998E-03; -1.1061338E-01;8930;  1.1201469E+00;  0.0000000E+00; -4.0882763E-02;  9.9751068E+02;  1.4926843E-01; -2.0450143E+03;3;  3.6601093E+01;  0.0000000E+00; -1.7291933E+01;0;  6.8615586E-02;  1.8117164E+04;  0.0000000E+00; -2.6768324E-01;  4.0000000E+04;  0.0000000E+00;  3.9396676E+04; -3.6957836E-01;  0.0000000E+00;  4.3819395E-01;  6.2986030E+03;
  1.4084123E+00;  9.9999998E-03; -2.1143135E-01;8920;  1.1548916E+00;  0.0000000E+00; -8.6352766E-02;  1.0001327E+03;  1.4923431E-01;  1.0900101E+02;3;  3.5743950E+01;  0.0000000E+00; -1.1671492E+01;0;  6.0638502E-02;  1.8236195E+04;  0.0000000E+00;  2.0480578E+00;  4.0000000E+04;  0.0000000E+00;  3.9345207E+04; -2.2915848E-01;  0.0000000E+00;  2.8979698E-01;  4.5684590E+03;
  1.4085349E+00;  9.9999998E-03; -2.5181529E-01;8916;  1.1833405E+00;  0.0000000E+00; -9.0044528E-02;  9.9949689E+02;  1.4932197E-01; -4.1332590E+02;3;  3.3114655E+01;  0.0000000E+00; -8.7530899E+00;0;  2.6911229E-02;  1.8195678E+04;  0.0000000E+00; -1.0309929E+01;  4.0000000E+04;  0.0000000E+00;  3.9353688E+04; -1.6760442E-01;  0.0000000E+00;  1.9451565E-01;  2.0413459E+04;
  1.4089495E+00;  9.9999998E-03; -2.2151136E-01;8919;  1.1617568E+00;  0.0000000E+00; -8.7324992E-02;  9.9995935E+02;  1.4917126E-01; -3.3393391E+01;3;  3.5215607E+01;  0.0000000E+00; -1.0634032E+01;0;  4.7732309E-02;  1.8247750E+04;  0.0000000E+00;  1.2243696E+00;  4.0000000E+04;  0.0000000E+00;  3.9343363E+04; -2.1815570E-01;  0.0000000E+00;  2.6588801E-01;  3.1654932E+03;
  1.4091073E+00;  9.9999998E-03; -2.4169771E-01;8917;  1.1760765E+00;  0.0000000E+00; -8.8981666E-02;  9.9936005E+02;  1.4921308E-01; -5.2571515E+02;3;  3.3876263E+01;  0.0000000E+00; -9.2193718E+00;0;  2.9735625E-02;  1.8217799E+04;  0.0000000E+00; -6.0433793E+00;  4.0000000E+04;  0.0000000E+00;  3.9352367E+04; -1.8932110E-01;  0.0000000E+00;  2.1905673E-01;  1.1709139E+04;
  1.4092535E+00;  9.9999998E-03; -2.3159778E-01;8918;  1.1688563E+00;  0.0000000E+00; -8.8078395E-02;  9.9960583E+02;  1.4915454E-01; -3.2378598E+02;3;  3.4564930E+01;  0.0000000E+00; -9.8237610E+00;0;  3.6812186E-02;  1.8240881E+04;  0.0000000E+00; -1.5863141E+00;  4.0000000E+04;  0.0000000E+00;  3.9346586E+04; -2.0575280E-01;  0.0000000E+00;  2.4256499E-01;  2.5025286E+03;
  1.4217215E+00;  9.9999998E-03; -2.6196131E-01;8974;  1.1878158E+00;  0.0000000E+00; -8.2994998E-02;  9.9850208E+02;  1.4457582E-01; -1.2283428E+03;3;  3.3759315E+01;  0.0000000E+00; -8.9357700E+00;0; -6.6721097E-02;  1.9376387E+04;  0.0000000E+00; -8.2917767E+00;  4.0000000E+04;  0.0000000E+00;  3.9350430E+04; -2.4624608E-01;  0.0000000E+00;  1.7952499E-01;  1.0769248E+04;
  1.4215783E+00;  9.9999998E-03; -1.7126048E-01;8983;  1.1282786E+00;  0.0000000E+00; -6.5287061E-02;  9.9857880E+02;  1.4448541E-01; -1.1654625E+03;3;  3.6978493E+01;  0.0000000E+00; -2.0195776E+01;0;  3.6099553E-02;  1.9385480E+04;  0.0000000E+00;  3.1219339E-01;  4.0000000E+04;  0.0000000E+00;  3.9365816E+04; -3.3117193E-01;  0.0000000E+00;  3.6727148E-01;  3.6884695E+03;
  1.4216295E+00;  9.9999998E-03; -1.8129548E-01;8982;  1.1327884E+00;  0.0000000E+00; -6.9575235E-02;  9.9902942E+02;  1.4446993E-01; -7.9593378E+02;3;  3.7323147E+01;  0.0000000E+00; -1.8759857E+01;0;  2.7049243E-02;  1.9409109E+04;  0.0000000E+00;  8.7375540E-01;  4.0000000E+04;  0.0000000E+00;  3.9358023E+04; -3.2121390E-01;  0.0000000E+00;  3.4826314E-01;  3.2886511E+03;
  1.4216623E+00;  9.9999998E-03; -1.6120493E-01;8984;  1.1246427E+00;  0.0000000E+00; -6.0217131E-02;  9.9812408E+02;  1.4448105E-01; -1.5383384E+03;3;  3.6663879E+01;  0.0000000E+00; -2.0991682E+01;0;  4.1715056E-02;  1.9367453E+04;  0.0000000E+00; -9.2271641E-02;  4.0000000E+04;  0.0000000E+00;  3.9373066E+04; -3.4210932E-01;  0.0000000E+00;  3.8382438E-01;  4.5255884E+03;
  1.4218496E+00;  9.9999998E-03; -1.9132520E-01;8981;  1.1381618E+00;  0.0000000E+00; -7.2855011E-02;  9.9939691E+02;  1.4443195E-01; -4.9453384E+02;3;  3.7565735E+01;  0.0000000E+00; -1.6854784E+01;0;  1.5448749E-02;  1.9436135E+04;  0.0000000E+00;  1.6885480E+00;  4.0000000E+04;  0.0000000E+00;  3.9350430E+04; -3.1281006E-01;  0.0000000E+00;  3.2825881E-01;  4.2172744E+03;
  1.4218366E+00;  9.9999998E-03; -1.5111145E-01;8985;  1.1216482E+00;  0.0000000E+00; -5.4915778E-02;  9.9768939E+02;  1.4446236E-01; -1.8947557E+03;3;  3.6563206E+01;  0.0000000E+00; -2.1032810E+01;0;  4.3166190E-02;  1.9355051E+04;  0.0000000E+00; -3.6295879E-01;  4.0000000E+04;  0.0000000E+00;  3.9378426E+04; -3.5327694E-01;  0.0000000E+00;  3.9644313E-01;  5.3221812E+03;
  1.4224390E+00;  9.9999998E-03; -2.5182542E-01;8975;  1.1803007E+00;  0.0000000E+00; -8.2013346E-02;  9.9799292E+02;  1.4448953E-01; -1.6456754E+03;3;  3.4505611E+01;  0.0000000E+00; -9.3801622E+00;0; -5.6024626E-02;  1.9375340E+04;  0.0000000E+00; -5.5328193E+00;  4.0000000E+04;  0.0000000E+00;  3.9362238E+04; -2.6492566E-01;  0.0000000E+00;  2.0890103E-01;  7.0178081E+03;
  1.4222382E+00;  9.9999998E-03; -2.0136108E-01;8980;  1.1442772E+00;  0.0000000E+00; -7.5129613E-02;  9.9959705E+02;  1.4437820E-01; -3.3038657E+02;3;  3.7492081E+01;  0.0000000E+00; -1.5092029E+01;0;  2.1358430E-03;  1.9460951E+04;  0.0000000E+00;  2.7882264E+00;  4.0000000E+04;  0.0000000E+00;  3.9345137E+04; -3.0617371E-01;  0.0000000E+00;  3.0830956E-01;  6.5565020E+03;
  1.4220693E+00;  9.9999998E-03; -1.4099032E-01;8986;  1.1191516E+00;  0.0000000E+00; -4.9689092E-02;  9.9732019E+02;  1.4443715E-01; -2.1974204E+03;3;  3.6557961E+01;  0.0000000E+00; -2.0680445E+01;0;  4.0022165E-02;  1.9347260E+04;  0.0000000E+00; -4.8544055E-01;  4.0000000E+04;  0.0000000E+00;  3.9383148E+04; -3.6394024E-01;  0.0000000E+00;  4.0396240E-01;  5.9702417E+03;
  1.4223453E+00;  9.9999998E-03; -1.3086194E-01;8987;  1.1170555E+00;  0.0000000E+00; -4.4664133E-02;  9.9701874E+02;  1.4440687E-01; -2.4444785E+03;3;  3.6559574E+01;  0.0000000E+00; -1.9980848E+01;0;  3.2327056E-02;  1.9342957E+04;  0.0000000E+00; -4.7666284E-01;  4.0000000E+04;  0.0000000E+00;  3.9387266E+04; -3.7353531E-01;  0.0000000E+00;  4.0586236E-01;  6.5144082E+03;
  1.4227167E+00;  9.9999998E-03; -2.1141832E-01;8979;  1.1509439E+00;  0.0000000E+00; -7.6717392E-02;  9.9950873E+02;  1.4432342E-01; -4.0278799E+02;3;  3.7141659E+01;  0.0000000E+00; -1.3592027E+01;0; -1.1947542E-02;  1.9474889E+04;  0.0000000E+00;  3.8087702E+00;  4.0000000E+04;  0.0000000E+00;  3.9343609E+04; -3.0088818E-01;  0.0000000E+00;  2.8894064E-01;  9.1890918E+03;
  1.4230386E+00;  9.9999998E-03; -2.4169804E-01;8976;  1.1728131E+00;  0.0000000E+00; -8.0634587E-02;  9.9801593E+02;  1.4438520E-01; -1.6266609E+03;3;  3.5260658E+01;  0.0000000E+00; -1.0285722E+01;0; -4.7756359E-02;  1.9403732E+04;  0.0000000E+00; -1.8943812E+00;  4.0000000E+04;  0.0000000E+00;  3.9361734E+04; -2.7928859E-01;  0.0000000E+00;  2.3153223E-01;  3.0052024E+03;
  1.4231408E+00;  9.9999998E-03; -2.2149549E-01;8978;  1.1580200E+00;  0.0000000E+00; -7.8020811E-02;  9.9908167E+02;  1.4428985E-01; -7.5289362E+02;3;  3.6644531E+01;  0.0000000E+00; -1.2400363E+01;0; -2.5633991E-02;  1.9469672E+04;  0.0000000E+00;  3.7640724E+00;  4.0000000E+04;  0.0000000E+00;  3.9346344E+04; -2.9587227E-01;  0.0000000E+00;  2.7023828E-01;  1.0002724E+04;
  1.4226409E+00;  9.9999998E-03; -1.2074135E-01;8988;  1.1152968E+00;  0.0000000E+00; -3.9870381E-02;  9.9677563E+02;  1.4437552E-01; -2.6437117E+03;3;  3.6594521E+01;  0.0000000E+00; -1.9013546E+01;0;  2.0670593E-02;  1.9340535E+04;  0.0000000E+00; -3.8463026E-01;  4.0000000E+04;  0.0000000E+00;  3.9391508E+04; -3.8176569E-01;  0.0000000E+00;  4.0243629E-01;  7.0352100E+03;
  1.4233038E+00;  9.9999998E-03; -2.3158640E-01;8977;  1.1653523E+00;  0.0000000E+00; -7.9246394E-02;  9.9847345E+02;  1.4430578E-01; -1.2515007E+03;3;  3.5992447E+01;  0.0000000E+00; -1.1226869E+01;0; -3.7941694E-02;  1.9442896E+04;  0.0000000E+00;  1.6790439E+00;  4.0000000E+04;  0.0000000E+00;  3.9354359E+04; -2.8933591E-01;  0.0000000E+00;  2.5139421E-01;  7.0384756E+03;
  1.4229171E+00;  9.9999998E-03; -1.1064123E-01;8989;  1.1138331E+00;  0.0000000E+00; -3.5352647E-02;  9.9657013E+02;  1.4435081E-01; -2.8120986E+03;3;  3.6569420E+01;  0.0000000E+00; -1.7789726E+01;0;  6.0484409E-03;  1.9337656E+04;  0.0000000E+00; -2.4421182E-01;  4.0000000E+04;  0.0000000E+00;  3.9396215E+04; -3.8857052E-01;  0.0000000E+00;  3.9461896E-01;  7.5949258E+03;
  1.4355109E+00;  9.9999998E-03; -1.7129163E-01;9042;  1.1230310E+00;  0.0000000E+00; -5.7230752E-02;  9.9837347E+02;  1.4015493E-01; -1.3307415E+03;3;  3.8010899E+01;  0.0000000E+00; -2.1170601E+01;0; -1.7637312E-02;  2.0596479E+04;  0.0000000E+00;  3.7804335E-01;  4.0000000E+04;  0.0000000E+00;  3.9355934E+04; -3.6080962E-01;  0.0000000E+00;  3.4317231E-01;  4.3424312E+03;
  1.4355829E+00;  9.9999998E-03; -1.6126065E-01;9043;  1.1190526E+00;  0.0000000E+00; -5.2871954E-02;  9.9783722E+02;  1.4015275E-01; -1.7694058E+03;3;  3.7498180E+01;  0.0000000E+00; -2.1923878E+01;0; -1.2840033E-02;  2.0572631E+04;  0.0000000E+00; -1.4081749E-01;  4.0000000E+04;  0.0000000E+00;  3.9365059E+04; -3.6735123E-01;  0.0000000E+00;  3.5451120E-01;  5.3243120E+03;
  1.4352198E+00;  9.9999998E-03; -2.6200536E-01;9033;  1.1844656E+00;  0.0000000E+00; -7.5756833E-02;  9.9699316E+02;  1.4029944E-01; -2.4601189E+03;3;  3.5207550E+01;  0.0000000E+00; -9.2759142E+00;0; -1.1726575E-01;  2.0519215E+04;  0.0000000E+00; -3.4625688E+00;  4.0000000E+04;  0.0000000E+00;  3.9348820E+04; -3.1122956E-01;  0.0000000E+00;  1.9396381E-01;  3.9411206E+03;
  1.4355646E+00;  9.9999998E-03; -1.8130629E-01;9041;  1.1278350E+00;  0.0000000E+00; -6.0890306E-02;  9.9884131E+02;  1.4013918E-01; -9.4797748E+02;3;  3.8506020E+01;  0.0000000E+00; -1.9782047E+01;0; -2.5561154E-02;  2.0623955E+04;  0.0000000E+00;  1.2442374E+00;  4.0000000E+04;  0.0000000E+00;  3.9346629E+04; -3.5553661E-01;  0.0000000E+00;  3.2997546E-01;  4.3324634E+03;
  1.4357457E+00;  9.9999998E-03; -1.5119512E-01;9044;  1.1158223E+00;  0.0000000E+00; -4.8042152E-02;  9.9730627E+02;  1.4013733E-01; -2.2037297E+03;3;  3.7043831E+01;  0.0000000E+00; -2.2122982E+01;0; -1.1747539E-02;  2.0554148E+04;  0.0000000E+00; -4.4036403E-01;  4.0000000E+04;  0.0000000E+00;  3.9372684E+04; -3.7453166E-01;  0.0000000E+00;  3.6278412E-01;  6.3353066E+03;
  1.4357753E+00;  9.9999998E-03; -1.9131875E-01;9040;  1.1334431E+00;  0.0000000E+00; -6.3688427E-02;  9.9917139E+02;  1.4010337E-01; -6.7789453E+02;3;  3.8834324E+01;  0.0000000E+00; -1.8121511E+01;0; -3.5985380E-02;  2.0650762E+04;  0.0000000E+00;  2.6627309E+00;  4.0000000E+04;  0.0000000E+00;  3.9339480E+04; -3.5193220E-01;  0.0000000E+00;  3.1594682E-01;  6.6023306E+03;
  1.4359690E+00;  9.9999998E-03; -1.4108774E-01;9045;  1.1131582E+00;  0.0000000E+00; -4.3177556E-02;  9.9682709E+02;  1.4011264E-01; -2.5956738E+03;3;  3.6792286E+01;  0.0000000E+00; -2.1597109E+01;0; -1.4686435E-02;  2.0541145E+04;  0.0000000E+00; -5.5749893E-01;  4.0000000E+04;  0.0000000E+00;  3.9378570E+04; -3.8163042E-01;  0.0000000E+00;  3.6694399E-01;  7.1429595E+03;
  1.4359463E+00;  9.9999998E-03; -2.5186297E-01;9034;  1.1767861E+00;  0.0000000E+00; -7.4706897E-02;  9.9647607E+02;  1.4022039E-01; -2.8828372E+03;3;  3.5961567E+01;  0.0000000E+00; -9.9536791E+00;0; -1.0247138E-01;  2.0513898E+04;  0.0000000E+00; -4.9638024E-01;  4.0000000E+04;  0.0000000E+00;  3.9365332E+04; -3.2720512E-01;  0.0000000E+00;  2.2473374E-01;  8.5581943E+03;
  1.4361277E+00;  9.9999998E-03; -2.0134702E-01;9039;  1.1397104E+00;  0.0000000E+00; -6.5756954E-02;  9.9923822E+02;  1.4005867E-01; -6.2319098E+02;3;  3.8846397E+01;  0.0000000E+00; -1.6727232E+01;0; -4.8264146E-02;  2.0669029E+04;  0.0000000E+00;  4.6711059E+00;  4.0000000E+04;  0.0000000E+00;  3.9337094E+04; -3.4997076E-01;  0.0000000E+00;  3.0170661E-01;  1.0911768E+04;
  1.4362299E+00;  9.9999998E-03; -1.3095888E-01;9046;  1.1109403E+00;  0.0000000E+00; -3.8509175E-02;  9.9641846E+02;  1.4008334E-01; -2.9297852E+03;3;  3.6589931E+01;  0.0000000E+00; -2.0684416E+01;0; -2.1590829E-02;  2.0532760E+04;  0.0000000E+00; -5.1984316E-01;  4.0000000E+04;  0.0000000E+00;  3.9383391E+04; -3.8800308E-01;  0.0000000E+00;  3.6641225E-01;  7.7640845E+03;
  1.4365427E+00;  9.9999998E-03; -2.1140423E-01;9038;  1.1465386E+00;  0.0000000E+00; -6.7559481E-02;  9.9891254E+02;  1.4001888E-01; -8.8954199E+02;3;  3.8623470E+01;  0.0000000E+00; -1.5287470E+01;0; -6.1288536E-02;  2.0669189E+04;  0.0000000E+00;  6.7117662E+00;  4.0000000E+04;  0.0000000E+00;  3.9340344E+04; -3.4905735E-01;  0.0000000E+00;  2.8776881E-01;  1.5817194E+04;
  1.4365038E+00;  9.9999998E-03; -1.2083332E-01;9047;  1.1091000E+00;  0.0000000E+00; -3.4097943E-02;  9.9610999E+02;  1.4005511E-01; -3.1819949E+03;3;  3.6431797E+01;  0.0000000E+00; -1.9442213E+01;0; -3.1950355E-02;  2.0527521E+04;  0.0000000E+00; -3.8675430E-01;  4.0000000E+04;  0.0000000E+00;  3.9387488E+04; -3.9324713E-01;  0.0000000E+00;  3.6129677E-01;  8.2781982E+03;
  1.4365983E+00;  9.9999998E-03; -2.4172546E-01;9035;  1.1690607E+00;  0.0000000E+00; -7.2962090E-02;  9.9657190E+02;  1.4012320E-01; -2.8040879E+03;3;  3.6742477E+01;  0.0000000E+00; -1.1204888E+01;0; -9.3833700E-02;  2.0544434E+04;  0.0000000E+00;  2.7117407E+00;  4.0000000E+04;  0.0000000E+00;  3.9367414E+04; -3.3836296E-01;  0.0000000E+00;  2.4452926E-01;  1.3113198E+04;
  1.4367616E+00;  9.9999998E-03; -1.1072096E-01;9048;  1.1075859E+00;  0.0000000E+00; -2.9995564E-02;  9.9587897E+02;  1.4003284E-01; -3.3707600E+03;3;  3.6222805E+01;  0.0000000E+00; -1.7882278E+01;0; -4.4936419E-02;  2.0523684E+04;  0.0000000E+00; -2.1586531E-01;  4.0000000E+04;  0.0000000E+00;  3.9391418E+04; -3.9726117E-01;  0.0000000E+00;  3.5232475E-01;  8.7550332E+03;
  1.4368820E+00;  9.9999998E-03; -2.2148982E-01;9037;  1.1537987E+00;  0.0000000E+00; -6.9321327E-02;  9.9818420E+02;  1.4000659E-01; -1.4851893E+03;3;  3.8141342E+01;  0.0000000E+00; -1.4022741E+01;0; -7.3763072E-02;  2.0644295E+04;  0.0000000E+00;  7.4658327E+00;  4.0000000E+04;  0.0000000E+00;  3.9348949E+04; -3.4798893E-01;  0.0000000E+00;  2.7422586E-01;  1.8726150E+04;
  1.4369448E+00;  9.9999998E-03; -2.3159821E-01;9036;  1.1613636E+00;  0.0000000E+00; -7.1119241E-02;  9.9726093E+02;  1.4004019E-01; -2.2403354E+03;3;  3.7494507E+01;  0.0000000E+00; -1.2443735E+01;0; -8.4633291E-02;  2.0596982E+04;  0.0000000E+00;  5.8635564E+00;  4.0000000E+04;  0.0000000E+00;  3.9360172E+04; -3.4499145E-01;  0.0000000E+00;  2.6035815E-01;  1.7442850E+04;
  1.4483014E+00;  9.9999998E-03; -2.6208109E-01;9092;  1.1806780E+00;  0.0000000E+00; -6.8877302E-02;  9.9571075E+02;  1.3654214E-01; -3.5001104E+03;3;  3.6633156E+01;  0.0000000E+00; -9.5592651E+00;0; -1.4819945E-01;  2.1620361E+04;  0.0000000E+00;  1.2708954E+00;  4.0000000E+04;  0.0000000E+00;  3.9335402E+04; -3.5398820E-01;  0.0000000E+00;  2.0578875E-01;  1.3736605E+04;
  1.4490598E+00;  9.9999998E-03; -2.5193512E-01;9093;  1.1728561E+00;  0.0000000E+00; -6.7787863E-02;  9.9501709E+02;  1.3647008E-01; -4.0654258E+03;3;  3.7426674E+01;  0.0000000E+00; -1.0447579E+01;0; -1.3159479E-01;  2.1603184E+04;  0.0000000E+00;  4.4454007E+00;  4.0000000E+04;  0.0000000E+00;  3.9357500E+04; -3.7057275E-01;  0.0000000E+00;  2.3897795E-01;  1.9486102E+04;
  1.4491333E+00;  9.9999998E-03; -1.8130182E-01;9100;  1.1226728E+00;  0.0000000E+00; -5.2243147E-02;  9.9873981E+02;  1.3633667E-01; -1.0281687E+03;3;  3.9550137E+01;  0.0000000E+00; -2.0616676E+01;0; -6.8013132E-02;  2.1796287E+04;  0.0000000E+00;  2.2688172E+00;  4.0000000E+04;  0.0000000E+00;  3.9327332E+04; -3.8131770E-01;  0.0000000E+00;  3.1330457E-01;  6.2134644E+03;
  1.4491049E+00;  9.9999998E-03; -1.7130731E-01;9101;  1.1176546E+00;  0.0000000E+00; -4.9113568E-02;  9.9830225E+02;  1.3634886E-01; -1.3851649E+03;3;  3.8859337E+01;  0.0000000E+00; -2.1813669E+01;0; -6.1502159E-02;  2.1769555E+04;  0.0000000E+00;  8.3467096E-01;  4.0000000E+04;  0.0000000E+00;  3.9336820E+04; -3.8241893E-01;  0.0000000E+00;  3.2091677E-01;  4.8203413E+03;
  1.4497596E+00;  9.9999998E-03; -2.4178958E-01;9094;  1.1649009E+00;  0.0000000E+00; -6.5811992E-02;  9.9507092E+02;  1.3638312E-01; -4.0208777E+03;3;  3.8267292E+01;  0.0000000E+00; -1.2046301E+01;0; -1.2414905E-01;  2.1629121E+04;  0.0000000E+00;  7.6131306E+00;  4.0000000E+04;  0.0000000E+00;  3.9364035E+04; -3.8141659E-01;  0.0000000E+00;  2.5726753E-01;  2.4071549E+04;
  1.4492942E+00;  9.9999998E-03; -1.9130220E-01;9099;  1.1284142E+00;  0.0000000E+00; -5.4702707E-02;  9.9897321E+02;  1.3631348E-01; -8.3770612E+02;3;  3.9950069E+01;  0.0000000E+00; -1.9366341E+01;0; -7.6992363E-02;  2.1816414E+04;  0.0000000E+00;  4.6370201E+00;  4.0000000E+04;  0.0000000E+00;  3.9323078E+04; -3.8180220E-01;  0.0000000E+00;  3.0480984E-01;  1.0630746E+04;
  1.4491847E+00;  9.9999998E-03; -1.6130102E-01;9102;  1.1134453E+00;  0.0000000E+00; -4.5352243E-02;  9.9774872E+02;  1.3634592E-01; -1.8367064E+03;3;  3.8079842E+01;  0.0000000E+00; -2.2515661E+01;0; -5.7831228E-02;  2.1742611E+04;  0.0000000E+00;  4.0643051E-02;  4.0000000E+04;  0.0000000E+00;  3.9347668E+04; -3.8489959E-01;  0.0000000E+00;  3.2706836E-01;  5.5582300E+03;
  1.4495736E+00;  9.9999998E-03; -2.0133309E-01;9098;  1.1348006E+00;  0.0000000E+00; -5.6886312E-02;  9.9886499E+02;  1.3628422E-01; -9.2590668E+02;3;  4.0110519E+01;  0.0000000E+00; -1.8162218E+01;0; -8.7713718E-02;  2.1821672E+04;  0.0000000E+00;  7.9014192E+00;  4.0000000E+04;  0.0000000E+00;  3.9326148E+04; -3.8365299E-01;  0.0000000E+00;  2.9593927E-01;  1.7371420E+04;
  1.4493394E+00;  9.9999998E-03; -1.5126486E-01;9103;  1.1099987E+00;  0.0000000E+00; -4.1174009E-02;  9.9715466E+02;  1.3633375E-01; -2.3213079E+03;3;  3.7414581E+01;  0.0000000E+00; -2.2655973E+01;0; -5.7360530E-02;  2.1718348E+04;  0.0000000E+00; -3.7218413E-01;  4.0000000E+04;  0.0000000E+00;  3.9357844E+04; -3.8826805E-01;  0.0000000E+00;  3.3090752E-01;  6.7606016E+03;
  1.4499156E+00;  9.9999998E-03; -2.1140884E-01;9097;  1.1417539E+00;  0.0000000E+00; -5.9061974E-02;  9.9827911E+02;  1.3626289E-01; -1.4037759E+03;3;  4.0048199E+01;  0.0000000E+00; -1.6698860E+01;0; -9.8929554E-02;  2.1803010E+04;  0.0000000E+00;  1.1136665E+01;  4.0000000E+04;  0.0000000E+00;  3.9334875E+04; -3.8612786E-01;  0.0000000E+00;  2.8719831E-01;  2.4582898E+04;
  1.4501663E+00;  9.9999998E-03; -2.3165017E-01;9095;  1.1569439E+00;  0.0000000E+00; -6.3491352E-02;  9.9593060E+02;  1.3630566E-01; -3.3192893E+03;3;  3.9071003E+01;  0.0000000E+00; -1.3574625E+01;0; -1.1791188E-01;  2.1689719E+04;  0.0000000E+00;  1.0929533E+01;  4.0000000E+04;  0.0000000E+00;  3.9357957E+04; -3.8684827E-01;  0.0000000E+00;  2.6893640E-01;  2.8228895E+04;
  1.4495395E+00;  9.9999998E-03; -1.4118586E-01;9104;  1.1071924E+00;  0.0000000E+00; -3.6793515E-02;  9.9658655E+02;  1.3631220E-01; -2.7846460E+03;3;  3.6846535E+01;  0.0000000E+00; -2.2147333E+01;0; -6.0291767E-02;  2.1698346E+04;  0.0000000E+00; -5.3396773E-01;  4.0000000E+04;  0.0000000E+00;  3.9366113E+04; -3.9188346E-01;  0.0000000E+00;  3.3159170E-01;  7.8037646E+03;
  1.4501805E+00;  9.9999998E-03; -2.2152030E-01;9096;  1.1491807E+00;  0.0000000E+00; -6.1259281E-02;  9.9718317E+02;  1.3626470E-01; -2.2976255E+03;3;  3.9666229E+01;  0.0000000E+00; -1.5399856E+01;0; -1.0933256E-01;  2.1756098E+04;  0.0000000E+00;  1.2522445E+01;  4.0000000E+04;  0.0000000E+00;  3.9346379E+04; -3.8782603E-01;  0.0000000E+00;  2.7849346E-01;  2.8965211E+04;
  1.4497633E+00;  9.9999998E-03; -1.3107194E-01;9105;  1.1049041E+00;  0.0000000E+00; -3.2551322E-02;  9.9608142E+02;  1.3628936E-01; -3.1965793E+03;3;  3.6414181E+01;  0.0000000E+00; -2.0977835E+01;0; -6.6554636E-02;  2.1682941E+04;  0.0000000E+00; -5.0868011E-01;  4.0000000E+04;  0.0000000E+00;  3.9372348E+04; -3.9511847E-01;  0.0000000E+00;  3.2856384E-01;  8.6013574E+03;
  1.4499944E+00;  9.9999998E-03; -1.2094776E-01;9106;  1.1030329E+00;  0.0000000E+00; -2.8571511E-02;  9.9568304E+02;  1.3626859E-01; -3.5213376E+03;3;  3.5979614E+01;  0.0000000E+00; -1.9484550E+01;0; -7.5735718E-02;  2.1671979E+04;  0.0000000E+00; -3.6752442E-01;  4.0000000E+04;  0.0000000E+00;  3.9377363E+04; -3.9750439E-01;  0.0000000E+00;  3.2176867E-01;  9.2073965E+03;
  1.4502243E+00;  9.9999998E-03; -1.1081935E-01;9107;  1.1015179E+00;  0.0000000E+00; -2.4891220E-02;  9.9539771E+02;  1.3624957E-01; -3.7539324E+03;3;  3.5616966E+01;  0.0000000E+00; -1.8000210E+01;0; -8.7198526E-02;  2.1664895E+04;  0.0000000E+00; -1.9123249E-01;  4.0000000E+04;  0.0000000E+00;  3.9380980E+04; -3.9883739E-01;  0.0000000E+00;  3.1163886E-01;  9.6843730E+03;
  1.4609879E+00;  9.9999998E-03; -2.6218739E-01;9150;  1.1765765E+00;  0.0000000E+00; -6.2597528E-02;  9.9489508E+02;  1.3325422E-01; -4.1528252E+03;3;  3.8049175E+01;  0.0000000E+00; -9.7602053E+00;0; -1.6599131E-01;  2.2680686E+04;  0.0000000E+00;  5.8402891E+00;  4.0000000E+04;  0.0000000E+00;  3.9310426E+04; -3.8357511E-01;  0.0000000E+00;  2.1758381E-01;  2.1827611E+04;
  1.4617494E+00;  9.9999998E-03; -2.5204027E-01;9151;  1.1686962E+00;  0.0000000E+00; -6.1577734E-02;  9.9393048E+02;  1.3319430E-01; -4.9365532E+03;3;  3.8902027E+01;  0.0000000E+00; -1.0883357E+01;0; -1.4830825E-01;  2.2644299E+04;  0.0000000E+00;  1.0060869E+01;  4.0000000E+04;  0.0000000E+00;  3.9339000E+04; -4.0258864E-01;  0.0000000E+00;  2.5428039E-01;  2.9989402E+04;
  1.4623771E+00;  9.9999998E-03; -1.8126985E-01;9158;  1.1173344E+00;  0.0000000E+00; -4.3740600E-02;  9.9863855E+02;  1.3301063E-01; -1.1071067E+03;3;  4.0334614E+01;  0.0000000E+00; -2.1134811E+01;0; -1.0430843E-01;  2.2911701E+04;  0.0000000E+00;  4.3253255E+00;  4.0000000E+04;  0.0000000E+00;  3.9302531E+04; -4.0236691E-01;  0.0000000E+00;  2.9805848E-01;  9.8289707E+03;
  1.4623923E+00;  9.9999998E-03; -1.7128797E-01;9159;  1.1122218E+00;  0.0000000E+00; -4.1052103E-02;  9.9827490E+02;  1.3301310E-01; -1.4028173E+03;3;  3.9498581E+01;  0.0000000E+00; -2.2108444E+01;0; -9.8844707E-02;  2.2890959E+04;  0.0000000E+00;  1.9631789E+00;  4.0000000E+04;  0.0000000E+00;  3.9309145E+04; -3.9931005E-01;  0.0000000E+00;  3.0046535E-01;  6.0522930E+03;
  1.4624707E+00;  9.9999998E-03; -1.9127347E-01;9157;  1.1231353E+00;  0.0000000E+00; -4.6167113E-02;  9.9873383E+02;  1.3299878E-01; -1.0296252E+03;3;  4.0925781E+01;  0.0000000E+00; -2.0290087E+01;0; -1.1209339E-01;  2.2920018E+04;  0.0000000E+00;  8.0270166E+00;  4.0000000E+04;  0.0000000E+00;  3.9304359E+04; -4.0681463E-01;  0.0000000E+00;  2.9472125E-01;  1.6776693E+04;
  1.4624805E+00;  9.9999998E-03; -2.4188973E-01;9152;  1.1604668E+00;  0.0000000E+00; -5.9198279E-02;  9.9376825E+02;  1.3311957E-01; -5.0674600E+03;3;  3.9852276E+01;  0.0000000E+00; -1.2855206E+01;0; -1.4587232E-01;  2.2656051E+04;  0.0000000E+00;  1.3568057E+01;  4.0000000E+04;  0.0000000E+00;  3.9351211E+04; -4.1521487E-01;  0.0000000E+00;  2.6934254E-01;  3.5275055E+04;
  1.4624910E+00;  9.9999998E-03; -1.6130395E-01;9160;  1.1078578E+00;  0.0000000E+00; -3.7890825E-02;  9.9776251E+02;  1.3301009E-01; -1.8194646E+03;3;  3.8537865E+01;  0.0000000E+00; -2.2754810E+01;0; -9.6023470E-02;  2.2864213E+04;  0.0000000E+00;  6.2503898E-01;  4.0000000E+04;  0.0000000E+00;  3.9320047E+04; -3.9762613E-01;  0.0000000E+00;  3.0160266E-01;  5.4787256E+03;
  1.4626722E+00;  9.9999998E-03; -2.0132938E-01;9156;  1.1295877E+00;  0.0000000E+00; -4.8630163E-02;  9.9841199E+02;  1.3298704E-01; -1.2912380E+03;3;  4.1266384E+01;  0.0000000E+00; -1.9251759E+01;0; -1.2131813E-01;  2.2907283E+04;  0.0000000E+00;  1.2793994E+01;  4.0000000E+04;  0.0000000E+00;  3.9314145E+04; -4.1224933E-01;  0.0000000E+00;  2.9093120E-01;  2.6027105E+04;
  1.4626384E+00;  9.9999998E-03; -1.5129955E-01;9161;  1.1042712E+00;  0.0000000E+00; -3.4346309E-02;  9.9716193E+02;  1.3299972E-01; -2.3077422E+03;3;  3.7569366E+01;  0.0000000E+00; -2.2825420E+01;0; -9.5978588E-02;  2.2836045E+04;  0.0000000E+00; -7.2878547E-02;  4.0000000E+04;  0.0000000E+00;  3.9332230E+04; -3.9699844E-01;  0.0000000E+00;  3.0101985E-01;  6.5431162E+03;
  1.4629343E+00;  9.9999998E-03; -2.1144514E-01;9155;  1.1366541E+00;  0.0000000E+00; -5.1216949E-02;  9.9748663E+02;  1.3298182E-01; -2.0435304E+03;3;  4.1394199E+01;  0.0000000E+00; -1.7764305E+01;0; -1.3051465E-01;  2.2865561E+04;  0.0000000E+00;  1.7120911E+01;  4.0000000E+04;  0.0000000E+00;  3.9326887E+04; -4.1768789E-01;  0.0000000E+00;  2.8717324E-01;  3.5028305E+04;
  1.4629787E+00;  9.9999998E-03; -2.3174022E-01;9153;  1.1522477E+00;  0.0000000E+00; -5.6498531E-02;  9.9456677E+02;  1.3304704E-01; -4.4175234E+03;3;  4.0634834E+01;  0.0000000E+00; -1.4464440E+01;0; -1.4349458E-01;  2.2714477E+04;  0.0000000E+00;  1.6905054E+01;  4.0000000E+04;  0.0000000E+00;  3.9348590E+04; -4.2117393E-01;  0.0000000E+00;  2.7767935E-01;  3.9117145E+04;
  1.4631051E+00;  9.9999998E-03; -2.2159141E-01;9154;  1.1442418E+00;  0.0000000E+00; -5.3786699E-02;  9.9602808E+02;  1.3299878E-01; -3.2293125E+03;3;  4.1151653E+01;  0.0000000E+00; -1.6461304E+01;0; -1.3852906E-01;  2.2795189E+04;  0.0000000E+00;  1.8721746E+01;  4.0000000E+04;  0.0000000E+00;  3.9338430E+04; -4.2140377E-01;  0.0000000E+00;  2.8287470E-01;  3.9892250E+04;
  1.4628097E+00;  9.9999998E-03; -1.4125955E-01;9162;  1.1013708E+00;  0.0000000E+00; -3.0568458E-02;  9.9655127E+02;  1.3298602E-01; -2.8041526E+03;3;  3.6762806E+01;  0.0000000E+00; -2.2198641E+01;0; -9.8779768E-02;  2.2809207E+04;  0.0000000E+00; -3.8270578E-01;  4.0000000E+04;  0.0000000E+00;  3.9342918E+04; -3.9693111E-01;  0.0000000E+00;  2.9815134E-01;  7.8052729E+03;
  1.4629853E+00;  9.9999998E-03; -1.3117704E-01;9163;  1.0990440E+00;  0.0000000E+00; -2.6849737E-02;  9.9597406E+02;  1.3297141E-01; -3.2733250E+03;3;  3.5983704E+01;  0.0000000E+00; -2.0943493E+01;0; -1.0432318E-01;  2.2785553E+04;  0.0000000E+00; -4.3815970E-01;  4.0000000E+04;  0.0000000E+00;  3.9351719E+04; -3.9686963E-01;  0.0000000E+00;  2.9254645E-01;  8.8534229E+03;
  1.4631566E+00;  9.9999998E-03; -1.2106409E-01;9164;  1.0971930E+00;  0.0000000E+00; -2.3329170E-02;  9.9548798E+02;  1.3295960E-01; -3.6683613E+03;3;  3.5390579E+01;  0.0000000E+00; -1.9615593E+01;0; -1.1226457E-01;  2.2766225E+04;  0.0000000E+00; -3.3720157E-01;  4.0000000E+04;  0.0000000E+00;  3.9358324E+04; -3.9631632E-01;  0.0000000E+00;  2.8405175E-01;  9.6502266E+03;
  1.4633429E+00;  9.9999998E-03; -1.1093587E-01;9165;  1.0957054E+00;  0.0000000E+00; -2.0042684E-02;  9.9511871E+02;  1.3294598E-01; -3.9683669E+03;3;  3.4919147E+01;  0.0000000E+00; -1.8072149E+01;0; -1.2213123E-01;  2.2752955E+04;  0.0000000E+00; -1.8014082E-01;  4.0000000E+04;  0.0000000E+00;  3.9363297E+04; -3.9495465E-01;  0.0000000E+00;  2.7282342E-01;  1.0236257E+04;
  1.4733292E+00;  9.9999998E-03; -2.6232210E-01;9207;  1.1722041E+00;  0.0000000E+00; -5.7052393E-02;  9.9474347E+02;  1.3038109E-01; -4.2608608E+03;3;  3.9451466E+01;  0.0000000E+00; -9.8434324E+00;0; -1.7274478E-01;  2.3706037E+04;  0.0000000E+00;  9.6574631E+00;  4.0000000E+04;  0.0000000E+00;  3.9274602E+04; -4.0425295E-01;  0.0000000E+00;  2.3150817E-01;  2.6459758E+04;
  1.4741052E+00;  9.9999998E-03; -2.5217679E-01;9208;  1.1643184E+00;  0.0000000E+00; -5.6010399E-02;  9.9331427E+02;  1.3033360E-01; -5.4180073E+03;3;  4.0380768E+01;  0.0000000E+00; -1.1241895E+01;0; -1.5657201E-01;  2.3639172E+04;  0.0000000E+00;  1.5194692E+01;  4.0000000E+04;  0.0000000E+00;  3.9309168E+04; -4.2701599E-01;  0.0000000E+00;  2.7044398E-01;  3.7508957E+04;
  1.4748734E+00;  9.9999998E-03; -2.4202506E-01;9209;  1.1558870E+00;  0.0000000E+00; -5.3296089E-02;  9.9269299E+02;  1.3027199E-01; -5.9200015E+03;3;  4.1369656E+01;  0.0000000E+00; -1.3501721E+01;0; -1.6046590E-01;  2.3623865E+04;  0.0000000E+00;  1.9395422E+01;  4.0000000E+04;  0.0000000E+00;  3.9328234E+04; -4.4287339E-01;  0.0000000E+00;  2.8240749E-01;  4.4303047E+04;
  1.4753169E+00;  9.9999998E-03; -1.8120973E-01;9215;  1.1118634E+00;  0.0000000E+00; -3.5684235E-02;  9.9844781E+02;  1.3010769E-01; -1.2573563E+03;3;  4.0985542E+01;  0.0000000E+00; -2.1527451E+01;0; -1.3670394E-01;  2.3956486E+04;  0.0000000E+00;  7.8411841E+00;  4.0000000E+04;  0.0000000E+00;  3.9275855E+04; -4.2032114E-01;  0.0000000E+00;  2.8361720E-01;  1.5625872E+04;
  1.4753342E+00;  9.9999998E-03; -1.9124368E-01;9214;  1.1176660E+00;  0.0000000E+00; -3.8276572E-02;  9.9838513E+02;  1.3010779E-01; -1.3081433E+03;3;  4.1740398E+01;  0.0000000E+00; -2.0921612E+01;0; -1.4375305E-01;  2.3948273E+04;  0.0000000E+00;  1.3237098E+01;  4.0000000E+04;  0.0000000E+00;  3.9286586E+04; -4.2883551E-01;  0.0000000E+00;  2.8508246E-01;  2.5213783E+04;
  1.4753798E+00;  9.9999998E-03; -1.7122692E-01;9216;  1.1067588E+00;  0.0000000E+00; -3.3262745E-02;  9.9820624E+02;  1.3010511E-01; -1.4530204E+03;3;  3.9967560E+01;  0.0000000E+00; -2.2178596E+01;0; -1.3163358E-01;  2.3945955E+04;  0.0000000E+00;  4.1235662E+00;  4.0000000E+04;  0.0000000E+00;  3.9274863E+04; -4.1294718E-01;  0.0000000E+00;  2.8131360E-01;  9.1804385E+03;
  1.4754602E+00;  9.9999998E-03; -2.3186937E-01;9210;  1.1473590E+00;  0.0000000E+00; -5.0071996E-02;  9.9320844E+02;  1.3020761E-01; -5.5013828E+03;3;  4.2150749E+01;  0.0000000E+00; -1.5297867E+01;0; -1.6488853E-01;  2.3667951E+04;  0.0000000E+00;  2.3056601E+01;  4.0000000E+04;  0.0000000E+00;  3.9330566E+04; -4.5077893E-01;  0.0000000E+00;  2.8589040E-01;  4.8635406E+04;
  1.4754516E+00;  9.9999998E-03; -2.0135888E-01;9213;  1.1241735E+00;  0.0000000E+00; -4.1094176E-02;  9.9778644E+02;  1.3011234E-01; -1.7930336E+03;3;  4.2314571E+01;  0.0000000E+00; -1.9912802E+01;0; -1.5169379E-01;  2.3913314E+04;  0.0000000E+00;  1.9569786E+01;  4.0000000E+04;  0.0000000E+00;  3.9301980E+04; -4.3785641E-01;  0.0000000E+00;  2.8616261E-01;  3.6665762E+04;
  1.4754961E+00;  9.9999998E-03; -1.6126102E-01;9217;  1.1023611E+00;  0.0000000E+00; -3.0602435E-02;  9.9777692E+02;  1.3009988E-01; -1.8007325E+03;3;  3.8864376E+01;  0.0000000E+00; -2.2534178E+01;0; -1.2907326E-01;  2.3923697E+04;  0.0000000E+00;  1.8661281E+00;  4.0000000E+04;  0.0000000E+00;  3.9282816E+04; -4.0690348E-01;  0.0000000E+00;  2.7783021E-01;  6.0751992E+03;
  1.4756317E+00;  9.9999998E-03; -2.1153417E-01;9212;  1.1313704E+00;  0.0000000E+00; -4.4029884E-02;  9.9645636E+02;  1.3012484E-01; -2.8702683E+03;3;  4.2619881E+01;  0.0000000E+00; -1.8504671E+01;0; -1.5894577E-01;  2.3846088E+04;  0.0000000E+00;  2.4525244E+01;  4.0000000E+04;  0.0000000E+00;  3.9312965E+04; -4.4602501E-01;  0.0000000E+00;  2.8707924E-01;  4.6382492E+04;
  1.4757034E+00;  9.9999998E-03; -2.2170956E-01;9211;  1.1391430E+00;  0.0000000E+00; -4.6921007E-02;  9.9468335E+02;  1.3015530E-01; -4.3063159E+03;3;  4.2546860E+01;  0.0000000E+00; -1.7231236E+01;0; -1.6429290E-01;  2.3754166E+04;  0.0000000E+00;  2.5599339E+01;  4.0000000E+04;  0.0000000E+00;  3.9322176E+04; -4.5115858E-01;  0.0000000E+00;  2.8686568E-01;  5.0366492E+04;
  1.4756401E+00;  9.9999998E-03; -1.5128756E-01;9218;  1.0986993E+00;  0.0000000E+00; -2.7694363E-02;  9.9723059E+02;  1.3009256E-01; -2.2431699E+03;3;  3.7630737E+01;  0.0000000E+00; -2.2436750E+01;0; -1.2902772E-01;  2.3894832E+04;  0.0000000E+00;  6.0766935E-01;  4.0000000E+04;  0.0000000E+00;  3.9295031E+04; -4.0206605E-01;  0.0000000E+00;  2.7303833E-01;  5.9500723E+03;
  1.4757891E+00;  9.9999998E-03; -1.4128719E-01;9219;  1.0957592E+00;  0.0000000E+00; -2.4574177E-02;  9.9662433E+02;  1.3008420E-01; -2.7340781E+03;3;  3.6479362E+01;  0.0000000E+00; -2.1920624E+01;0; -1.3142726E-01;  2.3863592E+04;  0.0000000E+00; -2.8320789E-02;  4.0000000E+04;  0.0000000E+00;  3.9307785E+04; -3.9810297E-01;  0.0000000E+00;  2.6667571E-01;  7.1243135E+03;
  1.4759325E+00;  9.9999998E-03; -1.3124490E-01;9220;  1.0934308E+00;  0.0000000E+00; -2.1395430E-02;  9.9601898E+02;  1.3007598E-01; -3.2242202E+03;3;  3.5497334E+01;  0.0000000E+00; -2.0827101E+01;0; -1.3609996E-01;  2.3833309E+04;  0.0000000E+00; -2.7631950E-01;  4.0000000E+04;  0.0000000E+00;  3.9319293E+04; -3.9455026E-01;  0.0000000E+00;  2.5845030E-01;  8.4010908E+03;
  1.4760758E+00;  9.9999998E-03; -1.2115776E-01;9221;  1.0916021E+00;  0.0000000E+00; -1.8338723E-02;  9.9546228E+02;  1.3006741E-01; -3.6749263E+03;3;  3.4676769E+01;  0.0000000E+00; -1.9453772E+01;0; -1.4274049E-01;  2.3806887E+04;  0.0000000E+00; -2.8974411E-01;  4.0000000E+04;  0.0000000E+00;  3.9328781E+04; -3.9089933E-01;  0.0000000E+00;  2.4815884E-01;  9.4571611E+03;
  1.4762222E+00;  9.9999998E-03; -1.1104108E-01;9222;  1.0901704E+00;  0.0000000E+00; -1.5475515E-02;  9.9501093E+02;  1.3005905E-01; -4.0402927E+03;3;  3.3941090E+01;  0.0000000E+00; -1.7672947E+01;0; -1.5088674E-01;  2.3786217E+04;  0.0000000E+00; -1.9209364E-01;  4.0000000E+04;  0.0000000E+00;  3.9335695E+04; -3.8675207E-01;  0.0000000E+00;  2.3586532E-01;  1.0253931E+04;
  1.4854083E+00;  9.9999998E-03; -2.6248381E-01;9264;  1.1675204E+00;  0.0000000E+00; -5.1748924E-02;  9.9524805E+02;  1.2787047E-01; -3.8358589E+03;3;  4.0853889E+01;  0.0000000E+00; -9.9627705E+00;0; -1.7628780E-01;  2.4699143E+04;  0.0000000E+00;  1.1265925E+01;  4.0000000E+04;  0.0000000E+00;  3.9227387E+04; -4.1749245E-01;  0.0000000E+00;  2.4120465E-01;  2.5749316E+04;
  1.4861937E+00;  9.9999998E-03; -2.5234455E-01;9265;  1.1596968E+00;  0.0000000E+00; -5.0666396E-02;  9.9322974E+02;  1.2783475E-01; -5.4634170E+03;3;  4.1840973E+01;  0.0000000E+00; -1.1513597E+01;0; -1.6221550E-01;  2.4594568E+04;  0.0000000E+00;  1.8550686E+01;  4.0000000E+04;  0.0000000E+00;  3.9266594E+04; -4.4466123E-01;  0.0000000E+00;  2.8244573E-01;  4.0459980E+04;
  1.4869872E+00;  9.9999998E-03; -2.4219550E-01;9266;  1.1511576E+00;  0.0000000E+00; -4.7812264E-02;  9.9196436E+02;  1.2778717E-01; -6.4826074E+03;3;  4.2863644E+01;  0.0000000E+00; -1.4033941E+01;0; -1.7132646E-01;  2.4540182E+04;  0.0000000E+00;  2.4173973E+01;  4.0000000E+04;  0.0000000E+00;  3.9292551E+04; -4.6484470E-01;  0.0000000E+00;  2.9351825E-01;  5.0004773E+04;
  1.4876500E+00;  9.9999998E-03; -2.3204005E-01;9267;  1.1424044E+00;  0.0000000E+00; -4.4213194E-02;  9.9193689E+02;  1.2773229E-01; -6.5031157E+03;3;  4.3584362E+01;  0.0000000E+00; -1.5927985E+01;0; -1.8297771E-01;  2.4555514E+04;  0.0000000E+00;  2.8575031E+01;  4.0000000E+04;  0.0000000E+00;  3.9300824E+04; -4.7591147E-01;  0.0000000E+00;  2.9293376E-01;  5.5733789E+04;
  1.4880320E+00;  9.9999998E-03; -2.2187641E-01;9268;  1.1339426E+00;  0.0000000E+00; -4.0589303E-02;  9.9314392E+02;  1.2768109E-01; -5.5287798E+03;3;  4.3878204E+01;  0.0000000E+00; -1.7802633E+01;0; -1.8833384E-01;  2.4631996E+04;  0.0000000E+00;  3.2004940E+01;  4.0000000E+04;  0.0000000E+00;  3.9295590E+04; -4.7763553E-01;  0.0000000E+00;  2.8930169E-01;  5.8699254E+04;
  1.4880677E+00;  9.9999998E-03; -2.1168999E-01;9269;  1.1260022E+00;  0.0000000E+00; -3.7372902E-02;  9.9508618E+02;  1.2764370E-01; -3.9624629E+03;3;  4.3792770E+01;  0.0000000E+00; -1.9042938E+01;0; -1.8621308E-01;  2.4737801E+04;  0.0000000E+00;  3.2501259E+01;  4.0000000E+04;  0.0000000E+00;  3.9287887E+04; -4.7181875E-01;  0.0000000E+00;  2.8560567E-01;  5.7004688E+04;
  1.4879299E+00;  9.9999998E-03; -2.0146632E-01;9270;  1.1186998E+00;  0.0000000E+00; -3.4300320E-02;  9.9688092E+02;  1.2761883E-01; -2.5153176E+03;3;  4.3264706E+01;  0.0000000E+00; -2.0215918E+01;0; -1.8037775E-01;  2.4830836E+04;  0.0000000E+00;  2.8157339E+01;  4.0000000E+04;  0.0000000E+00;  3.9282762E+04; -4.6120158E-01;  0.0000000E+00;  2.8082383E-01;  4.8502082E+04;
  1.4878514E+00;  9.9999998E-03; -1.9126748E-01;9271;  1.1121421E+00;  0.0000000E+00; -3.1221692E-02;  9.9788257E+02;  1.2760311E-01; -1.7076456E+03;3;  4.2484974E+01;  0.0000000E+00; -2.1086578E+01;0; -1.7332202E-01;  2.4889920E+04;  0.0000000E+00;  2.0681080E+01;  4.0000000E+04;  0.0000000E+00;  3.9268633E+04; -4.4856718E-01;  0.0000000E+00;  2.7524516E-01;  3.5854527E+04;
  1.4879071E+00;  9.9999998E-03; -1.8116488E-01;9272;  1.1063590E+00;  0.0000000E+00; -2.8390191E-02;  9.9815906E+02;  1.2759089E-01; -1.4846223E+03;3;  4.1508354E+01;  0.0000000E+00; -2.1627777E+01;0; -1.6655305E-01;  2.4917711E+04;  0.0000000E+00;  1.3313824E+01;  4.0000000E+04;  0.0000000E+00;  3.9249617E+04; -4.3587467E-01;  0.0000000E+00;  2.6932162E-01;  2.3717646E+04;
  1.4880466E+00;  9.9999998E-03; -1.7115048E-01;9273;  1.1013079E+00;  0.0000000E+00; -2.5970975E-02;  9.9804279E+02;  1.2758023E-01; -1.5783170E+03;3;  4.0277504E+01;  0.0000000E+00; -2.1743755E+01;0; -1.6130680E-01;  2.4922096E+04;  0.0000000E+00;  7.7572908E+00;  4.0000000E+04;  0.0000000E+00;  3.9238520E+04; -4.2408693E-01;  0.0000000E+00;  2.6278013E-01;  1.4551414E+04;
  1.4882159E+00;  9.9999998E-03; -1.6118355E-01;9274;  1.0969723E+00;  0.0000000E+00; -2.3718033E-02;  9.9772766E+02;  1.2757197E-01; -1.8323171E+03;3;  3.8914017E+01;  0.0000000E+00; -2.1915941E+01;0; -1.5835369E-01;  2.4909824E+04;  0.0000000E+00;  4.1116462E+00;  4.0000000E+04;  0.0000000E+00;  3.9238715E+04; -4.1358036E-01;  0.0000000E+00;  2.5522667E-01;  8.6779990E+03;
  1.4883872E+00;  9.9999998E-03; -1.5122801E-01;9275;  1.0933259E+00;  0.0000000E+00; -2.1336192E-02;  9.9727490E+02;  1.2756388E-01; -2.1972495E+03;3;  3.7506191E+01;  0.0000000E+00; -2.1701002E+01;0; -1.5779103E-01;  2.4886143E+04;  0.0000000E+00;  1.9126551E+00;  4.0000000E+04;  0.0000000E+00;  3.9247309E+04; -4.0441450E-01;  0.0000000E+00;  2.4662347E-01;  6.0060537E+03;
  1.4885470E+00;  9.9999998E-03; -1.4125806E-01;9276;  1.0903816E+00;  0.0000000E+00; -1.8850837E-02;  9.9673199E+02;  1.2755679E-01; -2.6348047E+03;3;  3.6128155E+01;  0.0000000E+00; -2.1319807E+01;0; -1.5941645E-01;  2.4855582E+04;  0.0000000E+00;  6.8069166E-01;  4.0000000E+04;  0.0000000E+00;  3.9260023E+04; -3.9640281E-01;  0.0000000E+00;  2.3698635E-01;  6.0765571E+03;
  1.4886838E+00;  9.9999998E-03; -1.3125315E-01;9277;  1.0880687E+00;  0.0000000E+00; -1.6219622E-02;  9.9614532E+02;  1.2755093E-01; -3.1076516E+03;3;  3.4850132E+01;  0.0000000E+00; -2.0322866E+01;0; -1.6293848E-01;  2.4822238E+04;  0.0000000E+00;  6.3703015E-02;  4.0000000E+04;  0.0000000E+00;  3.9273824E+04; -3.8916239E-01;  0.0000000E+00;  2.2622392E-01;  7.2804468E+03;
  1.4888008E+00;  9.9999998E-03; -1.2120173E-01;9278;  1.0862997E+00;  0.0000000E+00; -1.3649888E-02;  9.9556750E+02;  1.2754525E-01; -3.5733162E+03;3;  3.3751717E+01;  0.0000000E+00; -1.8910772E+01;0; -1.6799557E-01;  2.4789775E+04;  0.0000000E+00; -1.7685321E-01;  4.0000000E+04;  0.0000000E+00;  3.9286074E+04; -3.8220966E-01;  0.0000000E+00;  2.1421409E-01;  8.5583633E+03;
  1.4889040E+00;  9.9999998E-03; -1.1111276E-01;9279;  1.0849606E+00;  0.0000000E+00; -1.1238603E-02;  9.9505267E+02;  1.2754284E-01; -3.9881711E+03;3;  3.2808918E+01;  0.0000000E+00; -1.7106825E+01;0; -1.7415202E-01;  2.4761094E+04;  0.0000000E+00; -2.0695576E-01;  4.0000000E+04;  0.0000000E+00;  3.9295746E+04; -3.7510887E-01;  0.0000000E+00;  2.0095685E-01;  9.6164785E+03;
  1.4972982E+00;  9.9999998E-03; -2.6266822E-01;9320;  1.1626071E+00;  0.0000000E+00; -4.6486337E-02;  9.9632758E+02;  1.2568226E-01; -2.9501094E+03;3;  4.2333584E+01;  0.0000000E+00; -1.0420474E+01;0; -1.7950708E-01;  2.5656549E+04;  0.0000000E+00;  9.5764742E+00;  4.0000000E+04;  0.0000000E+00;  3.9171266E+04; -4.2302442E-01;  0.0000000E+00;  2.4351734E-01;  1.8715291E+04;
  1.4980462E+00;  9.9999998E-03; -2.5253895E-01;9321;  1.1548892E+00;  0.0000000E+00; -4.5496717E-02;  9.9389905E+02;  1.2565707E-01; -4.8993599E+03;3;  4.3331787E+01;  0.0000000E+00; -1.2010392E+01;0; -1.6635561E-01;  2.5521859E+04;  0.0000000E+00;  1.9469328E+01;  4.0000000E+04;  0.0000000E+00;  3.9212312E+04; -4.5497179E-01;  0.0000000E+00;  2.8861618E-01;  3.8321574E+04;
  1.4988509E+00;  9.9999998E-03; -2.4239698E-01;9322;  1.1463307E+00;  0.0000000E+00; -4.2635050E-02;  9.9185242E+02;  1.2562424E-01; -6.5405557E+03;3;  4.4283974E+01;  0.0000000E+00; -1.4268530E+01;0; -1.7959565E-01;  2.5418369E+04;  0.0000000E+00;  2.7290411E+01;  4.0000000E+04;  0.0000000E+00;  3.9244117E+04; -4.8030531E-01;  0.0000000E+00;  3.0070966E-01;  5.1631703E+04;
  1.4995716E+00;  9.9999998E-03; -2.3224637E-01;9323;  1.1374277E+00;  0.0000000E+00; -3.8870368E-02;  9.9102960E+02;  1.2558059E-01; -7.1987017E+03;3;  4.4967075E+01;  0.0000000E+00; -1.6352129E+01;0; -1.9810659E-01;  2.5388863E+04;  0.0000000E+00;  3.2994190E+01;  4.0000000E+04;  0.0000000E+00;  3.9258574E+04; -4.9580348E-01;  0.0000000E+00;  2.9769689E-01;  5.9739105E+04;
  1.5000811E+00;  9.9999998E-03; -2.2208434E-01;9324;  1.1287115E+00;  0.0000000E+00; -3.4815520E-02;  9.9164740E+02;  1.2553403E-01; -6.7013589E+03;3;  4.5143661E+01;  0.0000000E+00; -1.8178911E+01;0; -2.1108413E-01;  2.5436775E+04;  0.0000000E+00;  3.7449108E+01;  4.0000000E+04;  0.0000000E+00;  3.9258340E+04; -5.0030041E-01;  0.0000000E+00;  2.8921628E-01;  6.4335953E+04;
  1.5001998E+00;  9.9999998E-03; -2.0166123E-01;9326;  1.1132350E+00;  0.0000000E+00; -2.8168179E-02;  9.9555927E+02;  1.2546104E-01; -3.5626453E+03;3;  4.4182407E+01;  0.0000000E+00; -2.0304062E+01;0; -2.0865053E-01;  2.5654273E+04;  0.0000000E+00;  3.7498615E+01;  4.0000000E+04;  0.0000000E+00;  3.9250746E+04; -4.8255721E-01;  0.0000000E+00;  2.7390668E-01;  5.9625941E+04;
  1.5002706E+00;  9.9999998E-03; -2.1190040E-01;9325;  1.1206262E+00;  0.0000000E+00; -3.1324733E-02;  9.9341022E+02;  1.2549223E-01; -5.2865811E+03;3;  4.4890823E+01;  0.0000000E+00; -1.9213688E+01;0; -2.1286848E-01;  2.5539996E+04;  0.0000000E+00;  3.9785225E+01;  4.0000000E+04;  0.0000000E+00;  3.9251906E+04; -4.9487653E-01;  0.0000000E+00;  2.8200805E-01;  6.5124305E+04;
  1.5001230E+00;  9.9999998E-03; -1.9138640E-01;9327;  1.1066457E+00;  0.0000000E+00; -2.5075179E-02;  9.9710846E+02;  1.2543507E-01; -2.3198682E+03;3;  4.3163197E+01;  0.0000000E+00; -2.0913046E+01;0; -2.0191947E-01;  2.5739879E+04;  0.0000000E+00;  3.0205050E+01;  4.0000000E+04;  0.0000000E+00;  3.9245734E+04; -4.6654877E-01;  0.0000000E+00;  2.6462930E-01;  4.7775543E+04;
  1.5002123E+00;  9.9999998E-03; -1.8118206E-01;9328;  1.1008838E+00;  0.0000000E+00; -2.2013305E-02;  9.9772229E+02;  1.2541401E-01; -1.8273376E+03;3;  4.1929863E+01;  0.0000000E+00; -2.1284637E+01;0; -1.9510075E-01;  2.5789260E+04;  0.0000000E+00;  2.1110727E+01;  4.0000000E+04;  0.0000000E+00;  3.9225785E+04; -4.4963893E-01;  0.0000000E+00;  2.5453818E-01;  3.3896559E+04;
  1.5004342E+00;  9.9999998E-03; -1.7109625E-01;9329;  1.0959204E+00;  0.0000000E+00; -1.9489976E-02;  9.9775165E+02;  1.2539479E-01; -1.8035793E+03;3;  4.0447659E+01;  0.0000000E+00; -2.1181152E+01;0; -1.8914278E-01;  2.5811514E+04;  0.0000000E+00;  1.3325121E+01;  4.0000000E+04;  0.0000000E+00;  3.9203586E+04; -4.3336132E-01;  0.0000000E+00;  2.4421854E-01;  2.2065555E+04;
  1.5006830E+00;  9.9999998E-03; -1.6109605E-01;9330;  1.0917046E+00;  0.0000000E+00; -1.7422818E-02;  9.9754718E+02;  1.2538016E-01; -1.9673545E+03;3;  3.8879047E+01;  0.0000000E+00; -2.1122885E+01;0; -1.8514071E-01;  2.5813873E+04;  0.0000000E+00;  7.7837386E+00;  4.0000000E+04;  0.0000000E+00;  3.9192094E+04; -4.1834605E-01;  0.0000000E+00;  2.3320533E-01;  1.3555168E+04;
  1.5009072E+00;  9.9999998E-03; -1.5113643E-01;9331;  1.0881518E+00;  0.0000000E+00; -1.5425557E-02;  9.9722095E+02;  1.2536968E-01; -2.2288252E+03;3;  3.7283848E+01;  0.0000000E+00; -2.0914043E+01;0; -1.8341565E-01;  2.5800762E+04;  0.0000000E+00;  4.1841311E+00;  4.0000000E+04;  0.0000000E+00;  3.9192691E+04; -4.0481672E-01;  0.0000000E+00;  2.2140107E-01;  8.1587461E+03;
  1.5010937E+00;  9.9999998E-03; -1.4118129E-01;9332;  1.0852627E+00;  0.0000000E+00; -1.3443926E-02;  9.9678412E+02;  1.2536184E-01; -2.5789519E+03;3;  3.5647610E+01;  0.0000000E+00; -2.0301361E+01;0; -1.8368514E-01;  2.5776176E+04;  0.0000000E+00;  1.9924406E+00;  4.0000000E+04;  0.0000000E+00;  3.9201797E+04; -3.9266956E-01;  0.0000000E+00;  2.0898442E-01;  5.7309209E+03;
  1.5012368E+00;  9.9999998E-03; -1.3120517E-01;9333;  1.0830052E+00;  0.0000000E+00; -1.1378396E-02;  9.9628278E+02;  1.2535922E-01; -2.9807920E+03;3;  3.4130741E+01;  0.0000000E+00; -1.9426758E+01;0; -1.8557146E-01;  2.5744344E+04;  0.0000000E+00;  7.4630290E-01;  4.0000000E+04;  0.0000000E+00;  3.9215375E+04; -3.8158530E-01;  0.0000000E+00;  1.9601384E-01;  5.8624102E+03;
  1.5013416E+00;  9.9999998E-03; -1.2119093E-01;9334;  1.0813160E+00;  0.0000000E+00; -9.3122795E-03;  9.9572998E+02;  1.2535585E-01; -3.4238843E+03;3;  3.2729778E+01;  0.0000000E+00; -1.8054466E+01;0; -1.8863584E-01;  2.5709307E+04;  0.0000000E+00;  1.0805649E-01;  4.0000000E+04;  0.0000000E+00;  3.9229566E+04; -3.7111440E-01;  0.0000000E+00;  1.8247856E-01;  7.0543662E+03;
  1.5014142E+00;  9.9999998E-03; -1.1113999E-01;9335;  1.0800983E+00;  0.0000000E+00; -7.3517547E-03;  9.9519904E+02;  1.2535633E-01; -3.8494988E+03;3;  3.1548548E+01;  0.0000000E+00; -1.6326849E+01;0; -1.9242443E-01;  2.5674932E+04;  0.0000000E+00; -1.5701379E-01;  4.0000000E+04;  0.0000000E+00;  3.9242453E+04; -3.6080155E-01;  0.0000000E+00;  1.6837712E-01;  8.3154355E+03;
  1.5090878E+00;  9.9999998E-03; -2.6286849E-01;9375;  1.1574346E+00;  0.0000000E+00; -4.1202631E-02;  9.9763007E+02;  1.2378138E-01; -1.8931041E+03;3;  4.3893974E+01;  0.0000000E+00; -1.1106875E+01;0; -1.8277128E-01;  2.6557482E+04;  0.0000000E+00;  4.9551759E+00;  4.0000000E+04;  0.0000000E+00;  3.9111426E+04; -4.2052588E-01;  0.0000000E+00;  2.3775460E-01;  6.8256738E+03;
  1.5097421E+00;  9.9999998E-03; -2.5275478E-01;9376;  1.1497923E+00;  0.0000000E+00; -4.0195409E-02;  9.9523077E+02;  1.2376186E-01; -3.8083389E+03;3;  4.4852688E+01;  0.0000000E+00; -1.2677679E+01;0; -1.7339870E-01;  2.6419592E+04;  0.0000000E+00;  1.6294922E+01;  4.0000000E+04;  0.0000000E+00;  3.9148605E+04; -4.5773903E-01;  0.0000000E+00;  2.8434032E-01;  2.9649977E+04;
  1.5105139E+00;  9.9999998E-03; -2.4262501E-01;9377;  1.1413621E+00;  0.0000000E+00; -3.7509657E-02;  9.9251166E+02;  1.2374129E-01; -5.9772451E+03;3;  4.5728622E+01;  0.0000000E+00; -1.4721830E+01;0; -1.8837166E-01;  2.6271244E+04;  0.0000000E+00;  2.7485884E+01;  4.0000000E+04;  0.0000000E+00;  3.9182797E+04; -4.8838344E-01;  0.0000000E+00;  3.0001178E-01;  4.7912289E+04;
  1.5112579E+00;  9.9999998E-03; -2.3248371E-01;9378;  1.1324009E+00;  0.0000000E+00; -3.3728499E-02;  9.9076752E+02;  1.2371267E-01; -7.3664819E+03;3;  4.6328953E+01;  0.0000000E+00; -1.6657406E+01;0; -2.1292540E-01;  2.6185854E+04;  0.0000000E+00;  3.5631760E+01;  4.0000000E+04;  0.0000000E+00;  3.9202996E+04; -5.0944006E-01;  0.0000000E+00;  2.9651466E-01;  5.9715895E+04;
  1.5118603E+00;  9.9999998E-03; -2.2232985E-01;9379;  1.1235352E+00;  0.0000000E+00; -2.9532531E-02;  9.9050446E+02;  1.2367574E-01; -7.5739639E+03;3;  4.6353626E+01;  0.0000000E+00; -1.8274567E+01;0; -2.3276001E-01;  2.6186523E+04;  0.0000000E+00;  4.1574436E+01;  4.0000000E+04;  0.0000000E+00;  3.9208039E+04; -5.1807159E-01;  0.0000000E+00;  2.8531158E-01;  6.6730141E+04;
  1.5122029E+00;  9.9999998E-03; -1.9163100E-01;9382;  1.1012816E+00;  0.0000000E+00; -1.9718975E-02;  9.9589661E+02;  1.2356941E-01; -3.2724197E+03;3;  4.3765873E+01;  0.0000000E+00; -2.0367836E+01;0; -2.3047984E-01;  2.6493969E+04;  0.0000000E+00;  4.0867558E+01;  4.0000000E+04;  0.0000000E+00;  3.9206125E+04; -4.8299408E-01;  0.0000000E+00;  2.5251424E-01;  5.9144355E+04;
  1.5122455E+00;  9.9999998E-03; -1.8132289E-01;9383;  1.0955442E+00;  0.0000000E+00; -1.6673107E-02;  9.9706909E+02;  1.2354238E-01; -2.3372800E+03;3;  4.2293053E+01;  0.0000000E+00; -2.0683285E+01;0; -2.2309825E-01;  2.6568615E+04;  0.0000000E+00;  3.1392054E+01;  4.0000000E+04;  0.0000000E+00;  3.9196660E+04; -4.6211296E-01;  0.0000000E+00;  2.3901471E-01;  4.5526090E+04;
  1.5122179E+00;  9.9999998E-03; -2.1215573E-01;9380;  1.1152874E+00;  0.0000000E+00; -2.5748624E-02;  9.9168225E+02;  1.2363563E-01; -6.6332456E+03;3;  4.5912651E+01;  0.0000000E+00; -1.9209394E+01;0; -2.4001107E-01;  2.6263105E+04;  0.0000000E+00;  4.5495941E+01;  4.0000000E+04;  0.0000000E+00;  3.9203574E+04; -5.1453304E-01;  0.0000000E+00;  2.7452198E-01;  6.9718422E+04;
  1.5122794E+00;  9.9999998E-03; -2.0193361E-01;9381;  1.1078902E+00;  0.0000000E+00; -2.2607088E-02;  9.9379871E+02;  1.2359881E-01; -4.9452168E+03;3;  4.5008030E+01;  0.0000000E+00; -1.9973640E+01;0; -2.3732606E-01;  2.6382219E+04;  0.0000000E+00;  4.5953995E+01;  4.0000000E+04;  0.0000000E+00;  3.9201785E+04; -5.0156873E-01;  0.0000000E+00;  2.6424268E-01;  6.7791328E+04;
  1.5124881E+00;  9.9999998E-03; -1.7112952E-01;9384;  1.0906788E+00;  0.0000000E+00; -1.3992412E-02;  9.9736914E+02;  1.2351923E-01; -2.0977253E+03;3;  4.0564968E+01;  0.0000000E+00; -2.0434671E+01;0; -2.1601254E-01;  2.6608762E+04;  0.0000000E+00;  2.1391720E+01;  4.0000000E+04;  0.0000000E+00;  3.9170633E+04; -4.4136518E-01;  0.0000000E+00;  2.2535264E-01;  3.1609975E+04;
  1.5128137E+00;  9.9999998E-03; -1.6106074E-01;9385;  1.0865983E+00;  0.0000000E+00; -1.1893063E-02;  9.9728046E+02;  1.2350032E-01; -2.1680620E+03;3;  3.8774906E+01;  0.0000000E+00; -2.0092417E+01;0; -2.1038632E-01;  2.6626865E+04;  0.0000000E+00;  1.3446438E+01;  4.0000000E+04;  0.0000000E+00;  3.9146902E+04; -4.2188051E-01;  0.0000000E+00;  2.1149419E-01;  2.0490469E+04;
  1.5131201E+00;  9.9999998E-03; -1.5106419E-01;9386;  1.0831944E+00;  0.0000000E+00; -1.0131020E-02;  9.9704535E+02;  1.2348404E-01; -2.3551282E+03;3;  3.6938412E+01;  0.0000000E+00; -1.9752512E+01;0; -2.0678444E-01;  2.6628115E+04;  0.0000000E+00;  7.9038062E+00;  4.0000000E+04;  0.0000000E+00;  3.9135754E+04; -4.0400055E-01;  0.0000000E+00;  1.9721611E-01;  1.2627120E+04;
  1.5133715E+00;  9.9999998E-03; -1.4109679E-01;9387;  1.0804219E+00;  0.0000000E+00; -8.5117435E-03;  9.9673834E+02;  1.2347409E-01; -2.5994961E+03;3;  3.5079601E+01;  0.0000000E+00; -1.9013952E+01;0; -2.0502804E-01;  2.6615016E+04;  0.0000000E+00;  4.2845325E+00;  4.0000000E+04;  0.0000000E+00;  3.9137203E+04; -3.8767400E-01;  0.0000000E+00;  1.8264596E-01;  7.6010659E+03;
  1.5135596E+00;  9.9999998E-03; -1.3112789E-01;9388;  1.0782666E+00;  0.0000000E+00; -6.9293696E-03;  9.9634967E+02;  1.2346777E-01; -2.9089202E+03;3;  3.3300240E+01;  0.0000000E+00; -1.8134541E+01;0; -2.0467490E-01;  2.6590686E+04;  0.0000000E+00;  2.0432220E+00;  4.0000000E+04;  0.0000000E+00;  3.9146766E+04; -3.7261009E-01;  0.0000000E+00;  1.6793519E-01;  5.2754077E+03;
  1.5136915E+00;  9.9999998E-03; -1.2113807E-01;9389;  1.0766754E+00;  0.0000000E+00; -5.3546443E-03;  9.9589447E+02;  1.2346531E-01; -3.2714312E+03;3;  3.1647638E+01;  0.0000000E+00; -1.6791595E+01;0; -2.0521751E-01;  2.6559119E+04;  0.0000000E+00;  7.4833125E-01;  4.0000000E+04;  0.0000000E+00;  3.9160426E+04; -3.5838541E-01;  0.0000000E+00;  1.5316790E-01;  5.3772798E+03;
  1.5137779E+00;  9.9999998E-03; -1.1111868E-01;9390;  1.0755832E+00;  0.0000000E+00; -3.8601900E-03;  9.9539307E+02;  1.2346371E-01; -3.6708350E+03;3;  3.0207390E+01;  0.0000000E+00; -1.5093605E+01;0; -2.0615663E-01;  2.6524248E+04;  0.0000000E+00;  7.7058017E-02;  4.0000000E+04;  0.0000000E+00;  3.9174941E+04; -3.4451342E-01;  0.0000000E+00;  1.3835679E-01;  6.5180391E+03;
  1.5208074E+00;  9.9999998E-03; -2.6308009E-01;9429;  1.1520396E+00;  0.0000000E+00; -3.5155263E-02;  9.9878729E+02;  1.2213153E-01; -9.6238507E+02;3;  4.5602707E+01;  0.0000000E+00; -1.2365153E+01;0; -1.9726564E-01;  2.7382400E+04;  0.0000000E+00;  1.9326704E+00;  4.0000000E+04;  0.0000000E+00;  3.9048578E+04; -4.0953049E-01;  0.0000000E+00;  2.1226485E-01;  3.7463120E+03;
  1.5213550E+00;  9.9999998E-03; -2.5298563E-01;9430;  1.1444100E+00;  0.0000000E+00; -3.4394123E-02;  9.9689703E+02;  1.2211724E-01; -2.4616230E+03;3;  4.6379631E+01;  0.0000000E+00; -1.3499097E+01;0; -1.8860576E-01;  2.7271766E+04;  0.0000000E+00;  9.0135155E+00;  4.0000000E+04;  0.0000000E+00;  3.9078727E+04; -4.5242289E-01;  0.0000000E+00;  2.6381713E-01;  1.5460505E+04;
  1.5220295E+00;  9.9999998E-03; -2.4287182E-01;9431;  1.1361774E+00;  0.0000000E+00; -3.2258797E-02;  9.9402563E+02;  1.2210517E-01; -4.7375913E+03;3;  4.7159870E+01;  0.0000000E+00; -1.5146587E+01;0; -2.0010558E-01;  2.7106482E+04;  0.0000000E+00;  2.3459719E+01;  4.0000000E+04;  0.0000000E+00;  3.9111488E+04; -4.8844379E-01;  0.0000000E+00;  2.8833821E-01;  3.8192438E+04;
  1.5227587E+00;  9.9999998E-03; -2.3274350E-01;9432;  1.1272972E+00;  0.0000000E+00; -2.8723739E-02;  9.9140924E+02;  1.2209060E-01; -6.8093101E+03;3;  4.7635326E+01;  0.0000000E+00; -1.6821999E+01;0; -2.2790951E-01;  2.6964938E+04;  0.0000000E+00;  3.5173119E+01;  4.0000000E+04;  0.0000000E+00;  3.9135363E+04; -5.1561135E-01;  0.0000000E+00;  2.8770185E-01;  5.4606152E+04;
  1.5234166E+00;  9.9999998E-03; -2.2260252E-01;9433;  1.1183780E+00;  0.0000000E+00; -2.4501769E-02;  9.9007251E+02;  1.2206687E-01; -7.8656440E+03;3;  4.7532887E+01;  0.0000000E+00; -1.8258280E+01;0; -2.5480703E-01;  2.6903014E+04;  0.0000000E+00;  4.3413734E+01;  4.0000000E+04;  0.0000000E+00;  3.9144789E+04; -5.2976000E-01;  0.0000000E+00;  2.7495298E-01;  6.4871258E+04;
  1.5239080E+00;  9.9999998E-03; -2.1244277E-01;9434;  1.1100754E+00;  0.0000000E+00; -2.0707700E-02;  9.9028198E+02;  1.2203410E-01; -7.6972773E+03;3;  4.6881660E+01;  0.0000000E+00; -1.8919329E+01;0; -2.6694536E-01;  2.6930086E+04;  0.0000000E+00;  4.9058784E+01;  4.0000000E+04;  0.0000000E+00;  3.9143074E+04; -5.2954429E-01;  0.0000000E+00;  2.6259893E-01;  7.0363805E+04;
  1.5241188E+00;  9.9999998E-03; -1.8161799E-01;9437;  1.0904073E+00;  0.0000000E+00; -1.2226701E-02;  9.9602753E+02;  1.2193821E-01; -3.1460332E+03;3;  4.2620029E+01;  0.0000000E+00; -1.9782207E+01;0; -2.5128767E-01;  2.7255041E+04;  0.0000000E+00;  4.3238567E+01;  4.0000000E+04;  0.0000000E+00;  3.9149594E+04; -4.7366482E-01;  0.0000000E+00;  2.2237715E-01;  5.6805711E+04;
  1.5241530E+00;  9.9999998E-03; -2.0224811E-01;9435;  1.1026403E+00;  0.0000000E+00; -1.7511938E-02;  9.9184631E+02;  1.2199895E-01; -6.4572373E+03;3;  4.5757484E+01;  0.0000000E+00; -1.9413271E+01;0; -2.6712629E-01;  2.7026295E+04;  0.0000000E+00;  5.1912563E+01;  4.0000000E+04;  0.0000000E+00;  3.9138730E+04; -5.1755607E-01;  0.0000000E+00;  2.5042978E-01;  7.1430445E+04;
  1.5241531E+00;  9.9999998E-03; -1.9197445E-01;9436;  1.0961033E+00;  0.0000000E+00; -1.4870660E-02;  9.9412048E+02;  1.2196578E-01; -4.6562383E+03;3;  4.4372959E+01;  0.0000000E+00; -1.9647539E+01;0; -2.6009816E-01;  2.7151203E+04;  0.0000000E+00;  5.0479767E+01;  4.0000000E+04;  0.0000000E+00;  3.9144180E+04; -4.9764729E-01;  0.0000000E+00;  2.3754914E-01;  6.7245672E+04;
  1.5242754E+00;  9.9999998E-03; -1.7130217E-01;9438;  1.0856270E+00;  0.0000000E+00; -9.5392782E-03;  9.9686169E+02;  1.2191410E-01; -2.4851619E+03;3;  4.0648300E+01;  0.0000000E+00; -1.9441599E+01;0; -2.4265939E-01;  2.7318012E+04;  0.0000000E+00;  3.2333565E+01;  4.0000000E+04;  0.0000000E+00;  3.9133648E+04; -4.4873482E-01;  0.0000000E+00;  2.0607543E-01;  4.2735371E+04;
  1.5246228E+00;  9.9999998E-03; -1.6112015E-01;9439;  1.0816811E+00;  0.0000000E+00; -7.3039732E-03;  9.9695050E+02;  1.2189004E-01; -2.4143032E+03;3;  3.8586617E+01;  0.0000000E+00; -1.8910042E+01;0; -2.3495941E-01;  2.7351131E+04;  0.0000000E+00;  2.1834927E+01;  4.0000000E+04;  0.0000000E+00;  3.9104441E+04; -4.2483872E-01;  0.0000000E+00;  1.8987931E-01;  2.9452924E+04;
  1.5250213E+00;  9.9999998E-03; -1.5105015E-01;9440;  1.0784444E+00;  0.0000000E+00; -5.5969348E-03;  9.9678918E+02;  1.2187027E-01; -2.5414006E+03;3;  3.6502155E+01;  0.0000000E+00; -1.8294201E+01;0; -2.2883363E-01;  2.7366350E+04;  0.0000000E+00;  1.3756550E+01;  4.0000000E+04;  0.0000000E+00;  3.9081281E+04; -4.0261471E-01;  0.0000000E+00;  1.7378108E-01;  1.9141770E+04;
  1.5253751E+00;  9.9999998E-03; -1.4103891E-01;9441;  1.0758400E+00;  0.0000000E+00; -4.2092414E-03;  9.9657806E+02;  1.2185570E-01; -2.7078906E+03;3;  3.4392166E+01;  0.0000000E+00; -1.7515921E+01;0; -2.2432405E-01;  2.7367486E+04;  0.0000000E+00;  8.1196318E+00;  4.0000000E+04;  0.0000000E+00;  3.9071043E+04; -3.8204861E-01;  0.0000000E+00;  1.5772456E-01;  1.1836776E+04;
  1.5256510E+00;  9.9999998E-03; -1.3104942E-01;9442;  1.0738277E+00;  0.0000000E+00; -2.9852830E-03;  9.9631244E+02;  1.2184491E-01; -2.9175493E+03;3;  3.2377243E+01;  0.0000000E+00; -1.6412548E+01;0; -2.2101602E-01;  2.7355689E+04;  0.0000000E+00;  4.3869419E+00;  4.0000000E+04;  0.0000000E+00;  3.9072805E+04; -3.6286694E-01;  0.0000000E+00;  1.4185092E-01;  7.0699604E+03;
  1.5258467E+00;  9.9999998E-03; -1.2106177E-01;9443;  1.0723729E+00;  0.0000000E+00; -1.8613518E-03;  9.9596771E+02;  1.2183781E-01; -3.1899116E+03;3;  3.0513798E+01;  0.0000000E+00; -1.5071087E+01;0; -2.1835577E-01;  2.7333320E+04;  0.0000000E+00;  2.0485728E+00;  4.0000000E+04;  0.0000000E+00;  3.9082367E+04; -3.4464753E-01;  0.0000000E+00;  1.2629175E-01;  4.7390996E+03;
  1.5259731E+00;  9.9999998E-03; -1.1106288E-01;9444;  1.0714177E+00;  0.0000000E+00; -8.2757277E-04;  9.9556940E+02;  1.2183556E-01; -3.5046987E+03;3;  2.8862450E+01;  0.0000000E+00; -1.3329611E+01;0; -2.1580528E-01;  2.7303371E+04;  0.0000000E+00;  6.9117755E-01;  4.0000000E+04;  0.0000000E+00;  3.9095703E+04; -3.2688785E-01;  0.0000000E+00;  1.1108257E-01;  4.7171035E+03;
  1.5323830E+00;  9.9999998E-03; -2.6330248E-01;9482;  1.1465569E+00;  0.0000000E+00; -2.8357780E-02;  1.0001594E+03;  1.2070537E-01;  1.2553284E+02;3;  4.7328205E+01;  0.0000000E+00; -1.3542694E+01;0; -2.2253890E-01;  2.8153416E+04;  0.0000000E+00;  6.2197514E+00;  4.0000000E+04;  0.0000000E+00;  3.8978324E+04; -3.8983670E-01;  0.0000000E+00;  1.6729780E-01;  6.5762109E+03;
  1.5329424E+00;  9.9999998E-03; -2.5322443E-01;9483;  1.1387233E+00;  0.0000000E+00; -2.8026853E-02;  9.9836096E+02;  1.2069727E-01; -1.2904054E+03;3;  4.7989902E+01;  0.0000000E+00; -1.4394272E+01;0; -2.1325675E-01;  2.8047533E+04;  0.0000000E+00;  1.8756435E+00;  4.0000000E+04;  0.0000000E+00;  3.9006516E+04; -4.3919036E-01;  0.0000000E+00;  2.2593361E-01;  1.4588063E+03;
  1.5334853E+00;  9.9999998E-03; -2.4313022E-01;9484;  1.1306058E+00;  0.0000000E+00; -2.6252212E-02;  9.9600592E+02;  1.2068801E-01; -3.1433860E+03;3;  4.8608795E+01;  0.0000000E+00; -1.5795105E+01;0; -2.2445667E-01;  2.7907666E+04;  0.0000000E+00;  1.4178941E+01;  4.0000000E+04;  0.0000000E+00;  3.9033273E+04; -4.8099065E-01;  0.0000000E+00;  2.5653398E-01;  2.2639479E+04;
  1.5341356E+00;  9.9999998E-03; -2.3301910E-01;9485;  1.1219608E+00;  0.0000000E+00; -2.3211040E-02;  9.9299506E+02;  1.2068238E-01; -5.5103535E+03;3;  4.8887691E+01;  0.0000000E+00; -1.6995251E+01;0; -2.5099939E-01;  2.7736135E+04;  0.0000000E+00;  2.9794699E+01;  4.0000000E+04;  0.0000000E+00;  3.9056457E+04; -5.1394600E-01;  0.0000000E+00;  2.6294661E-01;  4.3433348E+04;
  1.5347950E+00;  9.9999998E-03; -2.2289404E-01;9486;  1.1132071E+00;  0.0000000E+00; -1.9445999E-02;  9.9063098E+02;  1.2067156E-01; -7.3665537E+03;3;  4.8623222E+01;  0.0000000E+00; -1.8009321E+01;0; -2.7930290E-01;  2.7611256E+04;  0.0000000E+00;  4.1730183E+01;  4.0000000E+04;  0.0000000E+00;  3.9068359E+04; -5.3397840E-01;  0.0000000E+00;  2.5467551E-01;  5.7950184E+04;
  1.5353630E+00;  9.9999998E-03; -2.1275273E-01;9487;  1.1049535E+00;  0.0000000E+00; -1.5852526E-02;  9.8967175E+02;  1.2065098E-01; -8.1174116E+03;3;  4.7778500E+01;  0.0000000E+00; -1.8362442E+01;0; -2.9536560E-01;  2.7572377E+04;  0.0000000E+00;  4.9983482E+01;  4.0000000E+04;  0.0000000E+00;  3.9068617E+04; -5.3858727E-01;  0.0000000E+00;  2.4322167E-01;  6.6766828E+04;
  1.5359544E+00;  9.9999998E-03; -1.7164432E-01;9491;  1.0807819E+00;  0.0000000E+00; -5.9980294E-03;  9.9600092E+02;  1.2053891E-01; -3.1417217E+03;3;  4.0767311E+01;  0.0000000E+00; -1.8127941E+01;0; -2.6970693E-01;  2.7941246E+04;  0.0000000E+00;  4.5277576E+01;  4.0000000E+04;  0.0000000E+00;  3.9078863E+04; -4.5591336E-01;  0.0000000E+00;  1.8620643E-01;  5.3723504E+04;
  1.5357662E+00;  9.9999998E-03; -2.0258375E-01;9488;  1.0975512E+00;  0.0000000E+00; -1.2862051E-02;  9.9023889E+02;  1.2062329E-01; -7.6694160E+03;3;  4.6494255E+01;  0.0000000E+00; -1.8704210E+01;0; -2.9771739E-01;  2.7617531E+04;  0.0000000E+00;  5.5100574E+01;  4.0000000E+04;  0.0000000E+00;  3.9063688E+04; -5.2924114E-01;  0.0000000E+00;  2.3152375E-01;  7.0723234E+04;
  1.5359222E+00;  9.9999998E-03; -1.8203659E-01;9490;  1.0854928E+00;  0.0000000E+00; -8.2811574E-03;  9.9434277E+02;  1.2056304E-01; -4.4444697E+03;3;  4.2922871E+01;  0.0000000E+00; -1.8518991E+01;0; -2.8061828E-01;  2.7847855E+04;  0.0000000E+00;  5.4057423E+01;  4.0000000E+04;  0.0000000E+00;  3.9074535E+04; -4.8413160E-01;  0.0000000E+00;  2.0351332E-01;  6.4800785E+04;
  1.5359347E+00;  9.9999998E-03; -1.9236131E-01;9489;  1.0910887E+00;  0.0000000E+00; -1.0424495E-02;  9.9204010E+02;  1.2059211E-01; -6.2534248E+03;3;  4.4908813E+01;  0.0000000E+00; -1.8729254E+01;0; -2.9116204E-01;  2.7724523E+04;  0.0000000E+00;  5.7010780E+01;  4.0000000E+04;  0.0000000E+00;  3.9063039E+04; -5.0972772E-01;  0.0000000E+00;  2.1856567E-01;  7.0350609E+04;
  1.5362091E+00;  9.9999998E-03; -1.6132146E-01;9492;  1.0769501E+00;  0.0000000E+00; -3.7481254E-03;  9.9656030E+02;  1.2051436E-01; -2.7017571E+03;3;  3.8436623E+01;  0.0000000E+00; -1.7490547E+01;0; -2.5950778E-01;  2.7994010E+04;  0.0000000E+00;  3.3497036E+01;  4.0000000E+04;  0.0000000E+00;  3.9059746E+04; -4.2782724E-01;  0.0000000E+00;  1.6831948E-01;  4.0079633E+04;
  1.5366458E+00;  9.9999998E-03; -1.5113130E-01;9493;  1.0738897E+00;  0.0000000E+00; -1.9723673E-03;  9.9651721E+02;  1.2049197E-01; -2.7346780E+03;3;  3.6078171E+01;  0.0000000E+00; -1.6616934E+01;0; -2.5033867E-01;  2.8020832E+04;  0.0000000E+00;  2.2625820E+01;  4.0000000E+04;  0.0000000E+00;  3.9030801E+04; -4.0122899E-01;  0.0000000E+00;  1.5089034E-01;  2.7667389E+04;
  1.5371094E+00;  9.9999998E-03; -1.4104094E-01;9494;  1.0714825E+00;  0.0000000E+00; -6.6825456E-04;  9.9633459E+02;  1.2047131E-01; -2.8770891E+03;3;  3.3728233E+01;  0.0000000E+00; -1.5551226E+01;0; -2.4239343E-01;  2.8034354E+04;  0.0000000E+00;  1.4303295E+01;  4.0000000E+04;  0.0000000E+00;  3.9008859E+04; -3.7633350E-01;  0.0000000E+00;  1.3394007E-01;  1.8072797E+04;
  1.5375054E+00;  9.9999998E-03; -1.3100387E-01;9495;  1.0696595E+00;  0.0000000E+00;  3.1068106E-04;  9.9613562E+02;  1.2045547E-01; -3.0324111E+03;3;  3.1477602E+01;  0.0000000E+00; -1.4467446E+01;0; -2.3537920E-01;  2.8036574E+04;  0.0000000E+00;  8.4328947E+00;  4.0000000E+04;  0.0000000E+00;  3.8998938E+04; -3.5288018E-01;  0.0000000E+00;  1.1750098E-01;  1.1199734E+04;
  1.5378059E+00;  9.9999998E-03; -1.2099263E-01;9496;  1.0683744E+00;  0.0000000E+00;  1.0775321E-03;  9.9591180E+02;  1.2044423E-01; -3.2073176E+03;3;  2.9335339E+01;  0.0000000E+00; -1.3234317E+01;0; -2.2876403E-01;  2.8027496E+04;  0.0000000E+00;  4.5019083E+00;  4.0000000E+04;  0.0000000E+00;  3.8999867E+04; -3.3041617E-01;  0.0000000E+00;  1.0165215E-01;  6.6181719E+03;
  1.5380077E+00;  9.9999998E-03; -1.1099038E-01;9497;  1.0675832E+00;  0.0000000E+00;  1.7254568E-03;  9.9563330E+02;  1.2043858E-01; -3.4252673E+03;3;  2.7458754E+01;  0.0000000E+00; -1.2053557E+01;0; -2.2200811E-01;  2.8007961E+04;  0.0000000E+00;  2.0214145E+00;  4.0000000E+04;  0.0000000E+00;  3.9008434E+04; -3.0843246E-01;  0.0000000E+00;  8.6424358E-02;  4.2044712E+03;
  1.5444484E+00;  9.9999998E-03; -2.5346830E-01;9535;  1.1328346E+00;  0.0000000E+00; -2.0721158E-02;  9.9969293E+02;  1.1947253E-01; -2.3966591E+02;3;  4.9593418E+01;  0.0000000E+00; -1.5189967E+01;0; -2.5354290E-01;  2.8753143E+04;  0.0000000E+00;  3.6045275E+00;  4.0000000E+04;  0.0000000E+00;  3.8929184E+04; -4.1857520E-01;  0.0000000E+00;  1.6503231E-01;  4.3632158E+03;
  1.5449414E+00;  9.9999998E-03; -2.4339241E-01;9536;  1.1247061E+00;  0.0000000E+00; -1.9480146E-02;  9.9784039E+02;  1.1946772E-01; -1.6847974E+03;3;  5.0034050E+01;  0.0000000E+00; -1.6144627E+01;0; -2.6227671E-01;  2.8640873E+04;  0.0000000E+00;  3.4269865E+00;  4.0000000E+04;  0.0000000E+00;  3.8951984E+04; -4.6602213E-01;  0.0000000E+00;  2.0374542E-01;  6.2000288E+03;
  1.5454656E+00;  9.9999998E-03; -2.3330016E-01;9537;  1.1163323E+00;  0.0000000E+00; -1.7108329E-02;  9.9521973E+02;  1.1946431E-01; -3.7277131E+03;3;  5.0100647E+01;  0.0000000E+00; -1.6959572E+01;0; -2.8460830E-01;  2.8486541E+04;  0.0000000E+00;  1.8409035E+01;  4.0000000E+04;  0.0000000E+00;  3.8970930E+04; -5.0436020E-01;  0.0000000E+00;  2.1975191E-01;  2.6619863E+04;
  1.5460634E+00;  9.9999998E-03; -2.2319302E-01;9538;  1.1079074E+00;  0.0000000E+00; -1.4057343E-02;  9.9229962E+02;  1.1946257E-01; -6.0018521E+03;3;  4.9658298E+01;  0.0000000E+00; -1.7622587E+01;0; -3.0987078E-01;  2.8323080E+04;  0.0000000E+00;  3.4570026E+01;  4.0000000E+04;  0.0000000E+00;  3.8982109E+04; -5.3003675E-01;  0.0000000E+00;  2.2016598E-01;  4.5214797E+04;
  1.5466484E+00;  9.9999998E-03; -2.1307172E-01;9539;  1.0999038E+00;  0.0000000E+00; -1.1014768E-02;  9.9021356E+02;  1.1945527E-01; -7.6240396E+03;3;  4.8644981E+01;  0.0000000E+00; -1.7698009E+01;0; -3.2600036E-01;  2.8216449E+04;  0.0000000E+00;  4.6811371E+01;  4.0000000E+04;  0.0000000E+00;  3.8982609E+04; -5.4013813E-01;  0.0000000E+00;  2.1413776E-01;  5.8122520E+04;
  1.5471375E+00;  9.9999998E-03; -2.0292839E-01;9540;  1.0926387E+00;  0.0000000E+00; -8.5017020E-03;  9.8955182E+02;  1.1943851E-01; -8.1362129E+03;3;  4.7197857E+01;  0.0000000E+00; -1.7675955E+01;0; -3.2893488E-01;  2.8194609E+04;  0.0000000E+00;  5.5269371E+01;  4.0000000E+04;  0.0000000E+00;  3.8977027E+04; -5.3515369E-01;  0.0000000E+00;  2.0621881E-01;  6.5852055E+04;
  1.5474718E+00;  9.9999998E-03; -1.9274633E-01;9541;  1.0862361E+00;  0.0000000E+00; -6.3836481E-03;  9.9033191E+02;  1.1941296E-01; -7.5266499E+03;3;  4.5362648E+01;  0.0000000E+00; -1.7445028E+01;0; -3.2306570E-01;  2.8250574E+04;  0.0000000E+00;  6.0198082E+01;  4.0000000E+04;  0.0000000E+00;  3.8972219E+04; -5.1810390E-01;  0.0000000E+00;  1.9503818E-01;  6.8882547E+04;
  1.5476147E+00;  9.9999998E-03; -1.8249106E-01;9542;  1.0807548E+00;  0.0000000E+00; -4.6150209E-03;  9.9221741E+02;  1.1938576E-01; -6.0580244E+03;3;  4.3236603E+01;  0.0000000E+00; -1.7123192E+01;0; -3.1157547E-01;  2.8358369E+04;  0.0000000E+00;  6.1248535E+01;  4.0000000E+04;  0.0000000E+00;  3.8977516E+04; -4.9273640E-01;  0.0000000E+00;  1.8116094E-01;  6.7542758E+04;
  1.5476396E+00;  9.9999998E-03; -1.7211993E-01;9543;  1.0761564E+00;  0.0000000E+00; -2.9330570E-03;  9.9439905E+02;  1.1935931E-01; -4.3597183E+03;3;  4.0890469E+01;  0.0000000E+00; -1.6649256E+01;0; -2.9795492E-01;  2.8473594E+04;  0.0000000E+00;  5.7171322E+01;  4.0000000E+04;  0.0000000E+00;  3.8993816E+04; -4.6273118E-01;  0.0000000E+00;  1.6477627E-01;  6.1427043E+04;
  1.5477563E+00;  9.9999998E-03; -1.6169760E-01;9544;  1.0724173E+00;  0.0000000E+00; -1.0615392E-03;  9.9580585E+02;  1.1933610E-01; -3.2643621E+03;3;  3.8332417E+01;  0.0000000E+00; -1.5884584E+01;0; -2.8460157E-01;  2.8556088E+04;  0.0000000E+00;  4.7444363E+01;  4.0000000E+04;  0.0000000E+00;  3.8997867E+04; -4.3121776E-01;  0.0000000E+00;  1.4661618E-01;  5.0577996E+04;
  1.5481020E+00;  9.9999998E-03; -1.5135688E-01;9545;  1.0695062E+00;  0.0000000E+00;  6.8186742E-04;  9.9619708E+02;  1.1931419E-01; -2.9589800E+03;3;  3.5701122E+01;  0.0000000E+00; -1.4851469E+01;0; -2.7189890E-01;  2.8599854E+04;  0.0000000E+00;  3.5087219E+01;  4.0000000E+04;  0.0000000E+00;  3.8978934E+04; -4.0036967E-01;  0.0000000E+00;  1.2847078E-01;  3.7771109E+04;
  1.5486079E+00;  9.9999998E-03; -1.4114372E-01;9546;  1.0673037E+00;  0.0000000E+00;  1.9980748E-03;  9.9607520E+02;  1.1929207E-01; -3.0525017E+03;3;  3.3143337E+01;  0.0000000E+00; -1.3869672E+01;0; -2.5996178E-01;  2.8622307E+04;  0.0000000E+00;  2.3801142E+01;  4.0000000E+04;  0.0000000E+00;  3.8951312E+04; -3.7104270E-01;  0.0000000E+00;  1.1108092E-01;  2.6219428E+04;
  1.5491283E+00;  9.9999998E-03; -1.3102785E-01;9547;  1.0657041E+00;  0.0000000E+00;  2.8823565E-03;  9.9587573E+02;  1.1927214E-01; -3.2062244E+03;3;  3.0707197E+01;  0.0000000E+00; -1.2896209E+01;0; -2.4857384E-01;  2.8635023E+04;  0.0000000E+00;  1.5074483E+01;  4.0000000E+04;  0.0000000E+00;  3.8929484E+04; -3.4313723E-01;  0.0000000E+00;  9.4563387E-02;  1.7209676E+04;
  1.5495646E+00;  9.9999998E-03; -1.2096933E-01;9548;  1.0646337E+00;  0.0000000E+00;  3.4890573E-03;  9.9571704E+02;  1.1925784E-01; -3.3283164E+03;3;  2.8438438E+01;  0.0000000E+00; -1.1984540E+01;0; -2.3729977E-01;  2.8639461E+04;  0.0000000E+00;  8.8460197E+00;  4.0000000E+04;  0.0000000E+00;  3.8918652E+04; -3.1619304E-01;  0.0000000E+00;  7.8893267E-02;  1.0677850E+04;
  1.5498842E+00;  9.9999998E-03; -1.1094090E-01;9549;  1.0640391E+00;  0.0000000E+00;  3.9020700E-03;  9.9553693E+02;  1.1924581E-01; -3.4673293E+03;3;  2.6356037E+01;  0.0000000E+00; -1.0939981E+01;0; -2.2559702E-01;  2.8634066E+04;  0.0000000E+00;  4.6413116E+00;  4.0000000E+04;  0.0000000E+00;  3.8917902E+04; -2.8966695E-01;  0.0000000E+00;  6.4069934E-02;  6.2417910E+03;
  1.5563712E+00;  9.9999998E-03; -2.4365374E-01;9586;  1.1187224E+00;  0.0000000E+00; -1.2265730E-02;  9.9927667E+02;  1.1841989E-01; -5.5863586E+02;3;  5.1337444E+01;  0.0000000E+00; -1.5966460E+01;0; -3.0814284E-01;  2.9293053E+04;  0.0000000E+00;  1.8880798E+00;  4.0000000E+04;  0.0000000E+00;  3.8866719E+04; -4.4299659E-01;  0.0000000E+00;  1.3485375E-01;  2.8813333E+03;
  1.5568191E+00;  9.9999998E-03; -2.3357850E-01;9587;  1.1104879E+00;  0.0000000E+00; -1.0498540E-02;  9.9735089E+02;  1.1841811E-01; -2.0451650E+03;3;  5.1212418E+01;  0.0000000E+00; -1.6521126E+01;0; -3.2787532E-01;  2.9176041E+04;  0.0000000E+00;  4.5860882E+00;  4.0000000E+04;  0.0000000E+00;  3.8883168E+04; -4.8669827E-01;  0.0000000E+00;  1.5882295E-01;  8.7809434E+03;
  1.5573046E+00;  9.9999998E-03; -2.2348909E-01;9588;  1.1024833E+00;  0.0000000E+00; -8.3106151E-03;  9.9469458E+02;  1.1841845E-01; -4.0939648E+03;3;  5.0528416E+01;  0.0000000E+00; -1.6653015E+01;0; -3.4684858E-01;  2.9022990E+04;  0.0000000E+00;  2.0776047E+01;  4.0000000E+04;  0.0000000E+00;  3.8891582E+04; -5.1731199E-01;  0.0000000E+00;  1.7046341E-01;  2.7307953E+04;
  1.5578394E+00;  9.9999998E-03; -2.1338695E-01;9589;  1.0948678E+00;  0.0000000E+00; -6.1685047E-03;  9.9195575E+02;  1.1841943E-01; -6.2042407E+03;3;  4.9364834E+01;  0.0000000E+00; -1.6582994E+01;0; -3.5831815E-01;  2.8873762E+04;  0.0000000E+00;  3.7639854E+01;  4.0000000E+04;  0.0000000E+00;  3.8890449E+04; -5.3310227E-01;  0.0000000E+00;  1.7478414E-01;  4.4113344E+04;
  1.5583507E+00;  9.9999998E-03; -2.0326814E-01;9590;  1.0878326E+00;  0.0000000E+00; -4.2462214E-03;  9.9011328E+02;  1.1841401E-01; -7.6215508E+03;3;  4.7782791E+01;  0.0000000E+00; -1.6317156E+01;0; -3.6095881E-01;  2.8783414E+04;  0.0000000E+00;  5.0792469E+01;  4.0000000E+04;  0.0000000E+00;  3.8882188E+04; -5.3397870E-01;  0.0000000E+00;  1.7301987E-01;  5.6132742E+04;
  1.5587823E+00;  9.9999998E-03; -1.9311969E-01;9591;  1.0815597E+00;  0.0000000E+00; -2.6376743E-03;  9.8962720E+02;  1.1840137E-01; -7.9929268E+03;3;  4.5791828E+01;  0.0000000E+00; -1.5900717E+01;0; -3.5516432E-01;  2.8770064E+04;  0.0000000E+00;  5.9675911E+01;  4.0000000E+04;  0.0000000E+00;  3.8873598E+04; -5.2140969E-01;  0.0000000E+00;  1.6624537E-01;  6.3144758E+04;
  1.5590930E+00;  9.9999998E-03; -1.8292037E-01;9592;  1.0761721E+00;  0.0000000E+00; -1.2659547E-03;  9.9044678E+02;  1.1837902E-01; -7.3591357E+03;3;  4.3528843E+01;  0.0000000E+00; -1.5397201E+01;0; -3.4333950E-01;  2.8825340E+04;  0.0000000E+00;  6.4328865E+01;  4.0000000E+04;  0.0000000E+00;  3.8871645E+04; -4.9834713E-01;  0.0000000E+00;  1.5500762E-01;  6.5457188E+04;
  1.5592610E+00;  9.9999998E-03; -1.7263067E-01;9593;  1.0716928E+00;  0.0000000E+00; -8.6322056E-05;  9.9224670E+02;  1.1835407E-01; -5.9716528E+03;3;  4.1011715E+01;  0.0000000E+00; -1.4847139E+01;0; -3.2768774E-01;  2.8925014E+04;  0.0000000E+00;  6.4725716E+01;  4.0000000E+04;  0.0000000E+00;  3.8883086E+04; -4.6839929E-01;  0.0000000E+00;  1.4071156E-01;  6.3630422E+04;
  1.5593598E+00;  9.9999998E-03; -1.6222322E-01;9594;  1.0680723E+00;  0.0000000E+00;  1.1703268E-03;  9.9422968E+02;  1.1832973E-01; -4.4439146E+03;3;  3.8319012E+01;  0.0000000E+00; -1.4122799E+01;0; -3.1088591E-01;  2.9029162E+04;  0.0000000E+00;  5.9918571E+01;  4.0000000E+04;  0.0000000E+00;  3.8902695E+04; -4.3488836E-01;  0.0000000E+00;  1.2400246E-01;  5.7523426E+04;
  1.5595646E+00;  9.9999998E-03; -1.5177737E-01;9595;  1.0652862E+00;  0.0000000E+00;  2.5903911E-03;  9.9545300E+02;  1.1830873E-01; -3.5010918E+03;3;  3.5497204E+01;  0.0000000E+00; -1.3301658E+01;0; -2.9422590E-01;  2.9102215E+04;  0.0000000E+00;  4.9676971E+01;  4.0000000E+04;  0.0000000E+00;  3.8907371E+04; -4.0045220E-01;  0.0000000E+00;  1.0622630E-01;  4.7373867E+04;
  1.5599762E+00;  9.9999998E-03; -1.4141449E-01;9596;  1.0632706E+00;  0.0000000E+00;  3.8746276E-03;  9.9575299E+02;  1.1828829E-01; -3.2687876E+03;3;  3.2699100E+01;  0.0000000E+00; -1.2366970E+01;0; -2.7781636E-01;  2.9140311E+04;  0.0000000E+00;  3.6965057E+01;  4.0000000E+04;  0.0000000E+00;  3.8890137E+04; -3.6675704E-01;  0.0000000E+00;  8.8940673E-02;  3.5606727E+04;
  1.5605336E+00;  9.9999998E-03; -1.3117617E-01;9597;  1.0618979E+00;  0.0000000E+00;  4.7803293E-03;  9.9558563E+02;  1.1826681E-01; -3.3957410E+03;3;  3.0030743E+01;  0.0000000E+00; -1.1778523E+01;0; -2.6150498E-01;  2.9159512E+04;  0.0000000E+00;  2.5241323E+01;  4.0000000E+04;  0.0000000E+00;  3.8863535E+04; -3.3424121E-01;  0.0000000E+00;  7.2736241E-02;  2.4901758E+04;
  1.5610964E+00;  9.9999998E-03; -1.2103694E-01;9598;  1.0610659E+00;  0.0000000E+00;  5.3732917E-03;  9.9538208E+02;  1.1824912E-01; -3.5503389E+03;3;  2.7495823E+01;  0.0000000E+00; -1.1020803E+01;0; -2.4493721E-01;  2.9171828E+04;  0.0000000E+00;  1.6028778E+01;  4.0000000E+04;  0.0000000E+00;  3.8841473E+04; -3.0257323E-01;  0.0000000E+00;  5.7636019E-02;  1.6431010E+04;
  1.5615573E+00;  9.9999998E-03; -1.1095868E-01;9599;  1.0607109E+00;  0.0000000E+00;  5.6894436E-03;  9.9523578E+02;  1.1823332E-01; -3.6611096E+03;3;  2.5105827E+01;  0.0000000E+00; -1.0267288E+01;0; -2.2759520E-01;  2.9179135E+04;  0.0000000E+00;  9.3820190E+00;  4.0000000E+04;  0.0000000E+00;  3.8829047E+04; -2.7122235E-01;  0.0000000E+00;  4.3627154E-02;  1.0223474E+04;
  1.5681788E+00;  9.9999998E-03; -2.3385158E-01;9635;  1.1047984E+00;  0.0000000E+00; -4.0365229E-03;  9.9892603E+02;  1.1752615E-01; -8.1963470E+02;3;  5.2169617E+01;  0.0000000E+00; -1.5281811E+01;0; -3.6893699E-01;  2.9780760E+04;  0.0000000E+00;  6.9846320E-01;  4.0000000E+04;  0.0000000E+00;  3.8790715E+04; -4.5939729E-01;  0.0000000E+00;  9.0460293E-02;  2.7090842E+03;
  1.5685862E+00;  9.9999998E-03; -2.2377734E-01;9636;  1.0970745E+00;  0.0000000E+00; -2.5879920E-03;  9.9698682E+02;  1.1752480E-01; -2.2986311E+03;3;  5.1331921E+01;  0.0000000E+00; -1.5318707E+01;0; -3.8429204E-01;  2.9666439E+04;  0.0000000E+00;  4.5468435E+00;  4.0000000E+04;  0.0000000E+00;  3.8798539E+04; -4.9513206E-01;  0.0000000E+00;  1.1084002E-01;  9.1242607E+03;
  1.5690233E+00;  9.9999998E-03; -2.1369028E-01;9637;  1.0897917E+00;  0.0000000E+00; -1.2078587E-03;  9.9446259E+02;  1.1752744E-01; -4.2222231E+03;3;  5.0039471E+01;  0.0000000E+00; -1.5100780E+01;0; -3.9275616E-01;  2.9523783E+04;  0.0000000E+00;  2.1518097E+01;  4.0000000E+04;  0.0000000E+00;  3.8797059E+04; -5.1726240E-01;  0.0000000E+00;  1.2450623E-01;  2.5717248E+04;
  1.5694971E+00;  9.9999998E-03; -2.0359127E-01;9638;  1.0830522E+00;  0.0000000E+00;  5.4803633E-05;  9.9191821E+02;  1.1752959E-01; -6.1591235E+03;3;  4.8306908E+01;  0.0000000E+00; -1.4686679E+01;0; -3.9417511E-01;  2.9389287E+04;  0.0000000E+00;  3.9453594E+01;  4.0000000E+04;  0.0000000E+00;  3.8785805E+04; -5.2484941E-01;  0.0000000E+00;  1.3067432E-01;  4.1246750E+04;
  1.5699537E+00;  9.9999998E-03; -1.9347322E-01;9639;  1.0770164E+00;  0.0000000E+00;  1.0813021E-03;  9.9021338E+02;  1.1752655E-01; -7.4546206E+03;3;  4.6187160E+01;  0.0000000E+00; -1.4098798E+01;0; -3.8783038E-01;  2.9308432E+04;  0.0000000E+00;  5.3598927E+01;  4.0000000E+04;  0.0000000E+00;  3.8770660E+04; -5.1822251E-01;  0.0000000E+00;  1.3039213E-01;  5.2557977E+04;
  1.5703522E+00;  9.9999998E-03; -1.8331859E-01;9640;  1.0717694E+00;  0.0000000E+00;  1.9050954E-03;  9.8976477E+02;  1.1751653E-01; -7.7929312E+03;3;  4.3776566E+01;  0.0000000E+00; -1.3461927E+01;0; -3.7532055E-01;  2.9295957E+04;  0.0000000E+00;  6.2937504E+01;  4.0000000E+04;  0.0000000E+00;  3.8760340E+04; -4.9954033E-01;  0.0000000E+00;  1.2421978E-01;  5.9018672E+04;
  1.5706644E+00;  9.9999998E-03; -1.7310129E-01;9641;  1.0673907E+00;  0.0000000E+00;  2.6280796E-03;  9.9050482E+02;  1.1749656E-01; -7.2269697E+03;3;  4.1130825E+01;  0.0000000E+00; -1.2821607E+01;0; -3.5842746E-01;  2.9344510E+04;  0.0000000E+00;  6.7465958E+01;  4.0000000E+04;  0.0000000E+00;  3.8761609E+04; -4.7171876E-01;  0.0000000E+00;  1.1329129E-01;  6.0926668E+04;
  1.5708822E+00;  9.9999998E-03; -1.6278417E-01;9642;  1.0638913E+00;  0.0000000E+00;  3.3262367E-03;  9.9211694E+02;  1.1747372E-01; -5.9984995E+03;3;  3.8374641E+01;  0.0000000E+00; -1.2327916E+01;0; -3.3878690E-01;  2.9431795E+04;  0.0000000E+00;  6.7342636E+01;  4.0000000E+04;  0.0000000E+00;  3.8777129E+04; -4.3805110E-01;  0.0000000E+00;  9.9264190E-02;  5.8889180E+04;
  1.5710677E+00;  9.9999998E-03; -1.5235762E-01;9643;  1.0612282E+00;  0.0000000E+00;  4.1606929E-03;  9.9386200E+02;  1.1745218E-01; -4.6696694E+03;3;  3.5465076E+01;  0.0000000E+00; -1.1783029E+01;0; -3.1799287E-01;  2.9523113E+04;  0.0000000E+00;  6.2012665E+01;  4.0000000E+04;  0.0000000E+00;  3.8797719E+04; -4.0142936E-01;  0.0000000E+00;  8.3436482E-02;  5.3049250E+04;
  1.5713490E+00;  9.9999998E-03; -1.4190108E-01;9644;  1.0593568E+00;  0.0000000E+00;  5.1589431E-03;  9.9493701E+02;  1.1743180E-01; -3.8506023E+03;3;  3.2478958E+01;  0.0000000E+00; -1.1172015E+01;0; -2.9683149E-01;  2.9588125E+04;  0.0000000E+00;  5.1628403E+01;  4.0000000E+04;  0.0000000E+00;  3.8803465E+04; -3.6399791E-01;  0.0000000E+00;  6.7166410E-02;  4.3871895E+04;
  1.5717977E+00;  9.9999998E-03; -1.3152003E-01;9645;  1.0581980E+00;  0.0000000E+00;  6.0442262E-03;  9.9520422E+02;  1.1741299E-01; -3.6455459E+03;3;  2.9532455E+01;  0.0000000E+00; -1.0757418E+01;0; -2.7515692E-01;  2.9622594E+04;  0.0000000E+00;  3.8860031E+01;  4.0000000E+04;  0.0000000E+00;  3.8788715E+04; -3.2691857E-01;  0.0000000E+00;  5.1761653E-02;  3.3317160E+04;
  1.5723702E+00;  9.9999998E-03; -1.2125869E-01;9646;  1.0576217E+00;  0.0000000E+00;  6.6909175E-03;  9.9504047E+02;  1.1739602E-01; -3.7675771E+03;3;  2.6663157E+01;  0.0000000E+00; -1.0260778E+01;0; -2.5279883E-01;  2.9639465E+04;  0.0000000E+00;  2.6825220E+01;  4.0000000E+04;  0.0000000E+00;  3.8764312E+04; -2.9039830E-01;  0.0000000E+00;  3.7599467E-02;  2.3539111E+04;
  1.5729409E+00;  9.9999998E-03; -1.1109634E-01;9647;  1.0575374E+00;  0.0000000E+00;  7.0368294E-03;  9.9483453E+02;  1.1738013E-01; -3.9214773E+03;3;  2.3928516E+01;  0.0000000E+00; -9.7166367E+00;0; -2.2931263E-01;  2.9651080E+04;  0.0000000E+00;  1.7172756E+01;  4.0000000E+04;  0.0000000E+00;  3.8742207E+04; -2.5404790E-01;  0.0000000E+00;  2.4735268E-02;  1.5661752E+04;
  1.5793864E+00;  9.9999998E-03; -2.3411359E-01;9682;  1.0993570E+00;  0.0000000E+00;  1.7956774E-03;  1.0010751E+03;  1.1676026E-01;  8.1004224E+02;3;  5.3206612E+01;  0.0000000E+00; -1.3614435E+01;0; -4.0127367E-01;  3.0370516E+04;  0.0000000E+00;  1.8222843E+01;  4.0000000E+04;  0.0000000E+00;  3.8691625E+04; -4.2506996E-01;  0.0000000E+00;  2.3796299E-02;  3.1238770E+03;
  1.5798866E+00;  9.9999998E-03; -2.2405729E-01;9683;  1.0916992E+00;  0.0000000E+00;  2.8776200E-03;  9.9865710E+02;  1.1676773E-01; -1.0111474E+03;3;  5.2098953E+01;  0.0000000E+00; -1.3407443E+01;0; -4.1883853E-01;  3.0226207E+04;  0.0000000E+00; -2.0441173E-01;  4.0000000E+04;  0.0000000E+00;  3.8698898E+04; -4.6546203E-01;  0.0000000E+00;  4.6623498E-02;  2.9746240E+03;
  1.5802596E+00;  9.9999998E-03; -2.1398382E-01;9684;  1.0846996E+00;  0.0000000E+00;  3.7429954E-03;  9.9677887E+02;  1.1676807E-01; -2.4242944E+03;3;  5.0579994E+01;  0.0000000E+00; -1.3008714E+01;0; -4.2718202E-01;  3.0118084E+04;  0.0000000E+00;  3.5660038E+00;  4.0000000E+04;  0.0000000E+00;  3.8698965E+04; -4.9317330E-01;  0.0000000E+00;  6.5991290E-02;  8.1230630E+03;
  1.5806501E+00;  9.9999998E-03; -2.0389850E-01;9685;  1.0783044E+00;  0.0000000E+00;  4.3594930E-03;  9.9442297E+02;  1.1677083E-01; -4.1953398E+03;3;  4.8677082E+01;  0.0000000E+00; -1.2439153E+01;0; -4.2701980E-01;  2.9989734E+04;  0.0000000E+00;  2.0919046E+01;  4.0000000E+04;  0.0000000E+00;  3.8687773E+04; -5.0723785E-01;  0.0000000E+00;  8.0218054E-02;  2.2761332E+04;
  1.5810728E+00;  9.9999998E-03; -1.9380128E-01;9686;  1.0725477E+00;  0.0000000E+00;  4.7901119E-03;  9.9205560E+02;  1.1677358E-01; -5.9730752E+03;3;  4.6469975E+01;  0.0000000E+00; -1.1832817E+01;0; -4.2010635E-01;  2.9868680E+04;  0.0000000E+00;  3.9794189E+01;  4.0000000E+04;  0.0000000E+00;  3.8667906E+04; -5.0749499E-01;  0.0000000E+00;  8.7388650E-02;  3.7046555E+04;
  1.5814877E+00;  9.9999998E-03; -1.8368194E-01;9687;  1.0675151E+00;  0.0000000E+00;  5.0732549E-03;  9.9044641E+02;  1.1677236E-01; -7.1792588E+03;3;  4.3994431E+01;  0.0000000E+00; -1.1233894E+01;0; -4.0723988E-01;  2.9794686E+04;  0.0000000E+00;  5.4810463E+01;  4.0000000E+04;  0.0000000E+00;  3.8647703E+04; -4.9479675E-01;  0.0000000E+00;  8.7556861E-02;  4.7594949E+04;
  1.5818642E+00;  9.9999998E-03; -1.7351912E-01;9688;  1.0632775E+00;  0.0000000E+00;  5.2834824E-03;  9.8997540E+02;  1.1676286E-01; -7.5296499E+03;3;  4.1336464E+01;  0.0000000E+00; -1.0793079E+01;0; -3.8949621E-01;  2.9781020E+04;  0.0000000E+00;  6.4577698E+01;  4.0000000E+04;  0.0000000E+00;  3.8636359E+04; -4.7120523E-01;  0.0000000E+00;  8.1709042E-02;  5.3580312E+04;
  1.5821878E+00;  9.9999998E-03; -1.6328457E-01;9689;  1.0598776E+00;  0.0000000E+00;  5.5032745E-03;  9.9059644E+02;  1.1674690E-01; -7.0603208E+03;3;  3.8477062E+01;  0.0000000E+00; -1.0343838E+01;0; -3.6796981E-01;  2.9820074E+04;  0.0000000E+00;  6.9048958E+01;  4.0000000E+04;  0.0000000E+00;  3.8639855E+04; -4.3949336E-01;  0.0000000E+00;  7.1523562E-02;  5.5245406E+04;
  1.5824627E+00;  9.9999998E-03; -1.5294975E-01;9690;  1.0573161E+00;  0.0000000E+00;  5.8083530E-03;  9.9193701E+02;  1.1672606E-01; -6.0516646E+03;3;  3.5507343E+01;  0.0000000E+00; -1.0127349E+01;0; -3.4381431E-01;  2.9890973E+04;  0.0000000E+00;  6.8528625E+01;  4.0000000E+04;  0.0000000E+00;  3.8657336E+04; -4.0253893E-01;  0.0000000E+00;  5.8724619E-02;  5.3205973E+04;
  1.5827324E+00;  9.9999998E-03; -1.4252289E-01;9691;  1.0555674E+00;  0.0000000E+00;  6.2897522E-03;  9.9338452E+02;  1.1670821E-01; -4.9635508E+03;3;  3.2417965E+01;  0.0000000E+00; -9.7793255E+00;0; -3.1793928E-01;  2.9966477E+04;  0.0000000E+00;  6.2905323E+01;  4.0000000E+04;  0.0000000E+00;  3.8676910E+04; -3.6272860E-01;  0.0000000E+00;  4.4789314E-02;  4.7838723E+04;
  1.5830662E+00;  9.9999998E-03; -1.3207307E-01;9692;  1.0545852E+00;  0.0000000E+00;  6.8938197E-03;  9.9434711E+02;  1.1669201E-01; -4.2395552E+03;3;  2.9206963E+01;  0.0000000E+00; -9.5998888E+00;0; -2.9070440E-01;  3.0024025E+04;  0.0000000E+00;  5.2777443E+01;  4.0000000E+04;  0.0000000E+00;  3.8682797E+04; -3.2175371E-01;  0.0000000E+00;  3.1049309E-02;  3.9825043E+04;
  1.5835093E+00;  9.9999998E-03; -1.2168252E-01;9693;  1.0542526E+00;  0.0000000E+00;  7.4839471E-03;  9.9463849E+02;  1.1667489E-01; -4.0187388E+03;3;  2.6021624E+01;  0.0000000E+00; -9.3956299E+00;0; -2.6222733E-01;  3.0057447E+04;  0.0000000E+00;  4.0417294E+01;  4.0000000E+04;  0.0000000E+00;  3.8671281E+04; -2.8056738E-01;  0.0000000E+00;  1.8340053E-02;  3.0681715E+04;
  1.5840442E+00;  9.9999998E-03; -1.1139710E-01;9694;  1.0544556E+00;  0.0000000E+00;  7.8842323E-03;  9.9451190E+02;  1.1666103E-01; -4.1108179E+03;3;  2.2890039E+01;  0.0000000E+00; -9.1304417E+00;0; -2.3230052E-01;  3.0073104E+04;  0.0000000E+00;  2.8431440E+01;  4.0000000E+04;  0.0000000E+00;  3.8650410E+04; -2.3929812E-01;  0.0000000E+00;  6.9975988E-03;  2.2015393E+04;
  1.5910504E+00;  9.9999998E-03; -2.2431907E-01;9729;  1.0866404E+00;  0.0000000E+00;  7.7600242E-03;  1.0008237E+03;  1.1611886E-01;  6.1128735E+02;3;  5.2793007E+01;  0.0000000E+00; -1.0682773E+01;0; -4.4476879E-01;  3.0771049E+04;  0.0000000E+00;  2.0225309E+01;  4.0000000E+04;  0.0000000E+00;  3.8595070E+04; -4.2952222E-01;  0.0000000E+00; -1.5246558E-02;  4.5371460E+03;
  1.5915126E+00;  9.9999998E-03; -2.1426494E-01;9730;  1.0797982E+00;  0.0000000E+00;  8.1356019E-03;  9.9846454E+02;  1.1612758E-01; -1.1387350E+03;3;  5.1060108E+01;  0.0000000E+00; -1.0156040E+01;0; -4.5310879E-01;  3.0633654E+04;  0.0000000E+00; -6.5077090E-01;  4.0000000E+04;  0.0000000E+00;  3.8593258E+04; -4.6132976E-01;  0.0000000E+00;  8.2209576E-03;  3.1473860E+03;
  1.5918576E+00;  9.9999998E-03; -2.0419027E-01;9731;  1.0736721E+00;  0.0000000E+00;  8.2382774E-03;  9.9669238E+02;  1.1612935E-01; -2.4518293E+03;3;  4.9024094E+01;  0.0000000E+00; -9.5980234E+00;0; -4.5328021E-01;  3.0535010E+04;  0.0000000E+00;  1.8757851E+00;  4.0000000E+04;  0.0000000E+00;  3.8586059E+04; -4.8115465E-01;  0.0000000E+00;  2.7874433E-02;  6.4471152E+03;
  1.5922110E+00;  9.9999998E-03; -1.9410300E-01;9732;  1.0681913E+00;  0.0000000E+00;  8.1435693E-03;  9.9455444E+02;  1.1613213E-01; -4.0345869E+03;3;  4.6775398E+01;  0.0000000E+00; -9.1231813E+00;0; -4.4707140E-01;  3.0422287E+04;  0.0000000E+00;  1.8782110E+01;  4.0000000E+04;  0.0000000E+00;  3.8567793E+04; -4.8839992E-01;  0.0000000E+00;  4.1328520E-02;  1.8824238E+04;
  1.5925916E+00;  9.9999998E-03; -1.8400250E-01;9733;  1.0633583E+00;  0.0000000E+00;  7.9956958E-03;  9.9239062E+02;  1.1613468E-01; -5.6347632E+03;3;  4.4319897E+01;  0.0000000E+00; -8.7701750E+00;0; -4.3603137E-01;  3.0316332E+04;  0.0000000E+00;  3.8012680E+01;  4.0000000E+04;  0.0000000E+00;  3.8541547E+04; -4.8307124E-01;  0.0000000E+00;  4.7039859E-02;  3.1593727E+04;
  1.5929750E+00;  9.9999998E-03; -1.7387728E-01;9734;  1.0592728E+00;  0.0000000E+00;  7.8417482E-03;  9.9088159E+02;  1.1613442E-01; -6.7486035E+03;3;  4.1658367E+01;  0.0000000E+00; -8.5183649E+00;0; -4.1967645E-01;  3.0248814E+04;  0.0000000E+00;  5.3418621E+01;  4.0000000E+04;  0.0000000E+00;  3.8516859E+04; -4.6565995E-01;  0.0000000E+00;  4.5983497E-02;  4.1127223E+04;
  1.5933398E+00;  9.9999998E-03; -1.6370390E-01;9735;  1.0559915E+00;  0.0000000E+00;  7.7118105E-03;  9.9036316E+02;  1.1612656E-01; -7.1285972E+03;3;  3.8788422E+01;  0.0000000E+00; -8.3604956E+00;0; -3.9809385E-01;  3.0232057E+04;  0.0000000E+00;  6.3381794E+01;  4.0000000E+04;  0.0000000E+00;  3.8504336E+04; -4.3804955E-01;  0.0000000E+00;  3.9955705E-02;  4.6560270E+04;
  1.5936767E+00;  9.9999998E-03; -1.5345652E-01;9736;  1.0535421E+00;  0.0000000E+00;  7.6301144E-03;  9.9079504E+02;  1.1611465E-01; -6.8059170E+03;3;  3.5697250E+01;  0.0000000E+00; -8.2185822E+00;0; -3.7188336E-01;  3.0259688E+04;  0.0000000E+00;  6.7935120E+01;  4.0000000E+04;  0.0000000E+00;  3.8507941E+04; -4.0275091E-01;  0.0000000E+00;  3.0867551E-02;  4.8144496E+04;
  1.5939918E+00;  9.9999998E-03; -1.4312001E-01;9737;  1.0519184E+00;  0.0000000E+00;  7.6480703E-03;  9.9182904E+02;  1.1609796E-01; -6.0386909E+03;3;  3.2466934E+01;  0.0000000E+00; -8.1198044E+00;0; -3.4207246E-01;  3.0314225E+04;  0.0000000E+00;  6.7380676E+01;  4.0000000E+04;  0.0000000E+00;  3.8523156E+04; -3.6232111E-01;  0.0000000E+00;  2.0248653E-02;  4.6389438E+04;
  1.5943085E+00;  9.9999998E-03; -1.3270900E-01;9738;  1.0510805E+00;  0.0000000E+00;  7.8082071E-03;  9.9297620E+02;  1.1608171E-01; -5.1885605E+03;3;  2.9077305E+01;  0.0000000E+00; -8.0688152E+00;0; -3.0956843E-01;  3.0375016E+04;  0.0000000E+00;  6.2009850E+01;  4.0000000E+04;  0.0000000E+00;  3.8539469E+04; -3.1886849E-01;  0.0000000E+00;  9.3000513E-03;  4.1822492E+04;
  1.5946611E+00;  9.9999998E-03; -1.2227455E-01;9739;  1.0509424E+00;  0.0000000E+00;  8.0542788E-03;  9.9381396E+02;  1.1606755E-01; -4.5673682E+03;3;  2.5608490E+01;  0.0000000E+00; -8.1029186E+00;0; -2.7489367E-01;  3.0425221E+04;  0.0000000E+00;  5.2692196E+01;  4.0000000E+04;  0.0000000E+00;  3.8545527E+04; -2.7387553E-01;  0.0000000E+00; -1.0181455E-03;  3.5184805E+04;
  1.5950724E+00;  9.9999998E-03; -1.1187995E-01;9740;  1.0514106E+00;  0.0000000E+00;  8.3186347E-03;  9.9413190E+02;  1.1605254E-01; -4.3300757E+03;3;  2.2134310E+01;  0.0000000E+00; -8.1257992E+00;0; -2.3834400E-01;  3.0456863E+04;  0.0000000E+00;  4.1247574E+01;  4.0000000E+04;  0.0000000E+00;  3.8538031E+04; -2.2812483E-01;  0.0000000E+00; -1.0219177E-02;  2.7588709E+04;
  1.6026356E+00;  9.9999998E-03; -2.1451950E-01;9774;  1.0752603E+00;  0.0000000E+00;  1.1808036E-02;  1.0006396E+03;  1.1557915E-01;  4.6664749E+02;3;  5.1569656E+01;  0.0000000E+00; -6.9603510E+00;0; -4.6812576E-01;  3.1137527E+04;  0.0000000E+00;  2.3925709E+01;  4.0000000E+04;  0.0000000E+00;  3.8485988E+04; -4.2384070E-01;  0.0000000E+00; -4.4285059E-02;  6.0011431E+03;
  1.6030713E+00;  9.9999998E-03; -2.0446554E-01;9775;  1.0693456E+00;  0.0000000E+00;  1.1459123E-02;  9.9833136E+02;  1.1558718E-01; -1.2166824E+03;3;  4.9496029E+01;  0.0000000E+00; -6.5315862E+00;0; -4.6821997E-01;  3.1007982E+04;  0.0000000E+00; -2.4466541E-01;  4.0000000E+04;  0.0000000E+00;  3.8475301E+04; -4.4712582E-01;  0.0000000E+00; -2.1094130E-02;  3.1720215E+03;
  1.6033994E+00;  9.9999998E-03; -1.9438542E-01;9776;  1.0640391E+00;  0.0000000E+00;  1.0972619E-02;  9.9671350E+02;  1.1559165E-01; -2.3951165E+03;3;  4.7275269E+01;  0.0000000E+00; -6.2724862E+00;0; -4.6485791E-01;  3.0919879E+04;  0.0000000E+00; -4.7231999E-01;  4.0000000E+04;  0.0000000E+00;  3.8462809E+04; -4.6096233E-01;  0.0000000E+00; -3.8955812E-03;  4.5553945E+03;
  1.6037242E+00;  9.9999998E-03; -1.8428913E-01;9777;  1.0593543E+00;  0.0000000E+00;  1.0460669E-02;  9.9485913E+02;  1.1559440E-01; -3.7446404E+03;3;  4.4849812E+01;  0.0000000E+00; -6.1063652E+00;0; -4.5762855E-01;  3.0826146E+04;  0.0000000E+00;  1.4639843E+01;  4.0000000E+04;  0.0000000E+00;  3.8439914E+04; -4.6363828E-01;  0.0000000E+00;  6.0097394E-03;  1.4074851E+04;
  1.6040725E+00;  9.9999998E-03; -1.7417786E-01;9778;  1.0553890E+00;  0.0000000E+00;  9.9856229E-03;  9.9295111E+02;  1.1559427E-01; -5.1317031E+03;3;  4.2182522E+01;  0.0000000E+00; -6.0212650E+00;0; -4.4494203E-01;  3.0737227E+04;  0.0000000E+00;  3.3142574E+01;  4.0000000E+04;  0.0000000E+00;  3.8409738E+04; -4.5396826E-01;  0.0000000E+00;  9.0262285E-03;  2.4884775E+04;
  1.6044332E+00;  9.9999998E-03; -1.6404098E-01;9779;  1.0522201E+00;  0.0000000E+00;  9.5422780E-03;  9.9154266E+02;  1.1559524E-01; -6.1536025E+03;3;  3.9260181E+01;  0.0000000E+00; -6.0140514E+00;0; -4.2558494E-01;  3.0676221E+04;  0.0000000E+00;  4.8327068E+01;  4.0000000E+04;  0.0000000E+00;  3.8382066E+04; -4.3250018E-01;  0.0000000E+00;  6.9152368E-03;  3.3166770E+04;
  1.6047881E+00;  9.9999998E-03; -1.5385786E-01;9780;  1.0498835E+00;  0.0000000E+00;  9.1459779E-03;  9.9094958E+02;  1.1559045E-01; -6.5814487E+03;3;  3.6109303E+01;  0.0000000E+00; -5.9972019E+00;0; -3.9963883E-01;  3.0656104E+04;  0.0000000E+00;  5.8329006E+01;  4.0000000E+04;  0.0000000E+00;  3.8366125E+04; -4.0111560E-01;  0.0000000E+00;  1.4767754E-03;  3.8038480E+04;
  1.6051289E+00;  9.9999998E-03; -1.4360696E-01;9781;  1.0483755E+00;  0.0000000E+00;  8.8296263E-03;  9.9115118E+02;  1.1558069E-01; -6.4313574E+03;3;  3.2705563E+01;  0.0000000E+00; -6.0707684E+00;0; -3.6803302E-01;  3.0672781E+04;  0.0000000E+00;  6.3141396E+01;  4.0000000E+04;  0.0000000E+00;  3.8365906E+04; -3.6224794E-01;  0.0000000E+00; -5.7850680E-03;  3.9672691E+04;
  1.6054589E+00;  9.9999998E-03; -1.3327880E-01;9782;  1.0476723E+00;  0.0000000E+00;  8.6335475E-03;  9.9188257E+02;  1.1556772E-01; -5.8967305E+03;3;  2.9134041E+01;  0.0000000E+00; -6.0746942E+00;0; -3.3182621E-01;  3.0712547E+04;  0.0000000E+00;  6.3120693E+01;  4.0000000E+04;  0.0000000E+00;  3.8376305E+04; -3.1821102E-01;  0.0000000E+00; -1.3615204E-02;  3.8510930E+04;
  1.6057893E+00;  9.9999998E-03; -1.2288587E-01;9783;  1.0477117E+00;  0.0000000E+00;  8.5507575E-03;  9.9276001E+02;  1.1555408E-01; -5.2565786E+03;3;  2.5370022E+01;  0.0000000E+00; -6.1541653E+00;0; -2.9197356E-01;  3.0760121E+04;  0.0000000E+00;  5.8731731E+01;  4.0000000E+04;  0.0000000E+00;  3.8389008E+04; -2.7090788E-01;  0.0000000E+00; -2.1065680E-02;  3.5058695E+04;
  1.6061358E+00;  9.9999998E-03; -1.1246730E-01;9784;  1.0484024E+00;  0.0000000E+00;  8.5261418E-03;  9.9343512E+02;  1.1554111E-01; -4.7637671E+03;3;  2.1588808E+01;  0.0000000E+00; -6.0731130E+00;0; -2.4924885E-01;  3.0801238E+04;  0.0000000E+00;  5.0791183E+01;  4.0000000E+04;  0.0000000E+00;  3.8394965E+04; -2.2176361E-01;  0.0000000E+00; -2.7485237E-02;  2.9928180E+04;
  1.6141517E+00;  9.9999998E-03; -2.0470460E-01;9817;  1.0652025E+00;  0.0000000E+00;  1.4141188E-02;  1.0005649E+03;  1.1512607E-01;  4.0455011E+02;3;  5.0214291E+01;  0.0000000E+00; -3.6201081E+00;0; -4.7726962E-01;  3.1476416E+04;  0.0000000E+00;  3.0230785E+01;  4.0000000E+04;  0.0000000E+00;  3.8366762E+04; -4.1107807E-01;  0.0000000E+00; -6.6191554E-02;  7.8297798E+03;
  1.6145772E+00;  9.9999998E-03; -1.9464850E-01;9818;  1.0600940E+00;  0.0000000E+00;  1.3345211E-02;  9.9825562E+02;  1.1513656E-01; -1.2482528E+03;3;  4.7926403E+01;  0.0000000E+00; -3.2806094E+00;0; -4.7497272E-01;  3.1351715E+04;  0.0000000E+00;  1.8889691E+00;  4.0000000E+04;  0.0000000E+00;  3.8346750E+04; -4.2816454E-01;  0.0000000E+00; -4.6808183E-02;  3.0374263E+03;
  1.6148968E+00;  9.9999998E-03; -1.8455666E-01;9819;  1.0555443E+00;  0.0000000E+00;  1.2550167E-02;  9.9681470E+02;  1.1513960E-01; -2.2781128E+03;3;  4.5485470E+01;  0.0000000E+00; -3.1292939E+00;0; -4.7167957E-01;  3.1276850E+04;  0.0000000E+00; -3.0028796E+00;  4.0000000E+04;  0.0000000E+00;  3.8330680E+04; -4.3741018E-01;  0.0000000E+00; -3.4269404E-02;  3.1793818E+03;
  1.6152049E+00;  9.9999998E-03; -1.7444414E-01;9820;  1.0516909E+00;  0.0000000E+00;  1.1792030E-02;  9.9527295E+02;  1.1514081E-01; -3.3789487E+03;3;  4.2815502E+01;  0.0000000E+00; -3.1073420E+00;0; -4.6368805E-01;  3.1202697E+04;  0.0000000E+00;  8.3109531E+00;  4.0000000E+04;  0.0000000E+00;  3.8306145E+04; -4.3561161E-01;  0.0000000E+00; -2.8076446E-02;  8.8700195E+03;
  1.6155300E+00;  9.9999998E-03; -1.6431487E-01;9821;  1.0486238E+00;  0.0000000E+00;  1.1032677E-02;  9.9368054E+02;  1.1514208E-01; -4.5146724E+03;3;  3.9872387E+01;  0.0000000E+00; -3.1547084E+00;0; -4.4821146E-01;  3.1131754E+04;  0.0000000E+00;  2.4655453E+01;  4.0000000E+04;  0.0000000E+00;  3.8274531E+04; -4.2171502E-01;  0.0000000E+00; -2.6496429E-02;  1.7269676E+04;
  1.6158683E+00;  9.9999998E-03; -1.5416001E-01;9822;  1.0463678E+00;  0.0000000E+00;  1.0300295E-02;  9.9242188E+02;  1.1514083E-01; -5.4107046E+03;3;  3.6642925E+01;  0.0000000E+00; -3.2590971E+00;0; -4.2485067E-01;  3.1080480E+04;  0.0000000E+00;  3.9156395E+01;  4.0000000E+04;  0.0000000E+00;  3.8245062E+04; -3.9662766E-01;  0.0000000E+00; -2.8223010E-02;  2.4242906E+04;
  1.6162090E+00;  9.9999998E-03; -1.4396401E-01;9823;  1.0449442E+00;  0.0000000E+00;  9.6416185E-03;  9.9177057E+02;  1.1513831E-01; -5.8722485E+03;3;  3.3139671E+01;  0.0000000E+00; -3.3904829E+00;0; -3.9397162E-01;  3.1058428E+04;  0.0000000E+00;  4.9242817E+01;  4.0000000E+04;  0.0000000E+00;  3.8225828E+04; -3.6200199E-01;  0.0000000E+00; -3.1969640E-02;  2.8655932E+04;
  1.6165445E+00;  9.9999998E-03; -1.3370873E-01;9824;  1.0443367E+00;  0.0000000E+00;  9.0874778E-03;  9.9174603E+02;  1.1513123E-01; -5.8863306E+03;3;  2.9289274E+01;  0.0000000E+00; -3.5864182E+00;0; -3.5647601E-01;  3.1064641E+04;  0.0000000E+00;  5.4638653E+01;  4.0000000E+04;  0.0000000E+00;  3.8220578E+04; -3.1994694E-01;  0.0000000E+00; -3.6529053E-02;  3.0498639E+04;
  1.6168755E+00;  9.9999998E-03; -1.2338661E-01;9825;  1.0445083E+00;  0.0000000E+00;  8.6616529E-03;  9.9216681E+02;  1.1512209E-01; -5.5830010E+03;3;  2.5308134E+01;  0.0000000E+00; -3.5118432E+00;0; -3.1349838E-01;  3.1089525E+04;  0.0000000E+00;  5.5615868E+01;  4.0000000E+04;  0.0000000E+00;  3.8225578E+04; -2.7262372E-01;  0.0000000E+00; -4.0874675E-02;  3.0072662E+04;
  1.6172053E+00;  9.9999998E-03; -1.1301105E-01;9826;  1.0453905E+00;  0.0000000E+00;  8.3470996E-03;  9.9272986E+02;  1.1511233E-01; -5.1787202E+03;3;  2.1173281E+01;  0.0000000E+00; -3.3138773E+00;0; -2.6622355E-01;  3.1121480E+04;  0.0000000E+00;  5.2584373E+01;  4.0000000E+04;  0.0000000E+00;  3.8232949E+04; -2.2189140E-01;  0.0000000E+00; -4.4332139E-02;  2.7763633E+04;
  1.6260333E+00;  9.9999998E-03; -1.8479845E-01;9858;  1.0520039E+00;  0.0000000E+00;  1.4147682E-02;  9.9830011E+02;  1.1476082E-01; -1.1915793E+03;3;  4.6108044E+01;  0.0000000E+00;  4.6685922E-01;0; -4.7779238E-01;  3.1672789E+04;  0.0000000E+00;  7.4949937E+00;  4.0000000E+04;  0.0000000E+00;  3.8210609E+04; -4.0690914E-01;  0.0000000E+00; -7.0883237E-02;  3.0989348E+03;
  1.6263590E+00;  9.9999998E-03; -1.7469186E-01;9859;  1.0483001E+00;  0.0000000E+00;  1.3046406E-02;  9.9696655E+02;  1.1476462E-01; -2.1251047E+03;3;  4.3424755E+01;  0.0000000E+00;  5.5146867E-01;0; -4.7248313E-01;  3.1606525E+04;  0.0000000E+00; -4.1838231E+00;  4.0000000E+04;  0.0000000E+00;  3.8191125E+04; -4.1095930E-01;  0.0000000E+00; -6.1523817E-02;  2.9812124E+03;
  1.6266594E+00;  9.9999998E-03; -1.6455691E-01;9860;  1.0452998E+00;  0.0000000E+00;  1.1999203E-02;  9.9575830E+02;  1.1476486E-01; -2.9698623E+03;3;  4.0468613E+01;  0.0000000E+00;  4.9945155E-01;0; -4.6224046E-01;  3.1550877E+04;  0.0000000E+00;  1.1227005E+00;  4.0000000E+04;  0.0000000E+00;  3.8167887E+04; -4.0513313E-01;  0.0000000E+00; -5.7107329E-02;  4.3381870E+03;
  1.6269664E+00;  9.9999998E-03; -1.5440087E-01;9861;  1.0430839E+00;  0.0000000E+00;  1.0961901E-02;  9.9451868E+02;  1.1476380E-01; -3.8355474E+03;3;  3.7198277E+01;  0.0000000E+00;  3.8194484E-01;0; -4.4401842E-01;  3.1498697E+04;  0.0000000E+00;  1.3870114E+01;  4.0000000E+04;  0.0000000E+00;  3.8139152E+04; -3.8828740E-01;  0.0000000E+00; -5.5731013E-02;  9.9292256E+03;
  1.6272856E+00;  9.9999998E-03; -1.4422140E-01;9862;  1.0416845E+00;  0.0000000E+00;  9.9870609E-03;  9.9344751E+02;  1.1476352E-01; -4.5823550E+03;3;  3.3584091E+01;  0.0000000E+00;  2.6043829E-01;0; -4.1723135E-01;  3.1457160E+04;  0.0000000E+00;  2.6884604E+01;  4.0000000E+04;  0.0000000E+00;  3.8110383E+04; -3.6085007E-01;  0.0000000E+00; -5.6381281E-02;  1.5455620E+04;
  1.6276083E+00;  9.9999998E-03; -1.3400710E-01;9863;  1.0411304E+00;  0.0000000E+00;  9.1085676E-03;  9.9276740E+02;  1.1475953E-01; -5.0548579E+03;3;  2.9619776E+01;  0.0000000E+00;  2.3388752E-01;0; -3.8184106E-01;  3.1435438E+04;  0.0000000E+00;  3.6828636E+01;  4.0000000E+04;  0.0000000E+00;  3.8088414E+04; -3.2399914E-01;  0.0000000E+00; -5.7841919E-02;  1.9364520E+04;
  1.6279315E+00;  9.9999998E-03; -1.2374476E-01;9864;  1.0413859E+00;  0.0000000E+00;  8.3343117E-03;  9.9252814E+02;  1.1475517E-01; -5.2188550E+03;3;  2.5185299E+01;  0.0000000E+00;  1.3180019E-01;0; -3.3885735E-01;  3.1432379E+04;  0.0000000E+00;  4.2754646E+01;  4.0000000E+04;  0.0000000E+00;  3.8076859E+04; -2.7972028E-01;  0.0000000E+00; -5.9137061E-02;  2.1342961E+04;
  1.6282516E+00;  9.9999998E-03; -1.1343086E-01;9865;  1.0424128E+00;  0.0000000E+00;  7.6760598E-03;  9.9262103E+02;  1.1474916E-01; -5.1508418E+03;3;  2.0651876E+01;  0.0000000E+00;  5.7912809E-01;0; -2.8961134E-01;  3.1442982E+04;  0.0000000E+00;  4.4698875E+01;  4.0000000E+04;  0.0000000E+00;  3.8073809E+04; -2.3013984E-01;  0.0000000E+00; -5.9471514E-02;  2.1521502E+04;
  1.6374372E+00;  9.9999998E-03; -1.7489932E-01;9895;  1.0450730E+00;  0.0000000E+00;  1.3686246E-02;  9.9856506E+02;  1.1444489E-01; -9.8361121E+02;3;  4.3969128E+01;  0.0000000E+00;  5.0595498E+00;0; -4.7449866E-01;  3.1978273E+04;  0.0000000E+00;  1.8938120E+01;  4.0000000E+04;  0.0000000E+00;  3.8072328E+04; -3.8563624E-01;  0.0000000E+00; -8.8862412E-02;  4.7372603E+03;
  1.6377798E+00;  9.9999998E-03; -1.6478148E-01;9896;  1.0422751E+00;  0.0000000E+00;  1.2292452E-02;  9.9716412E+02;  1.1445010E-01; -1.9425743E+03;3;  4.0949482E+01;  0.0000000E+00;  5.1961498E+00;0; -4.6597797E-01;  3.1913295E+04;  0.0000000E+00; -9.8413056E-01;  4.0000000E+04;  0.0000000E+00;  3.8046062E+04; -3.8452011E-01;  0.0000000E+00; -8.1457868E-02;  2.9248855E+03;
  1.6380820E+00;  9.9999998E-03; -1.5462518E-01;9897;  1.0401121E+00;  0.0000000E+00;  1.0969310E-02;  9.9616492E+02;  1.1444993E-01; -2.6254116E+03;3;  3.7632217E+01;  0.0000000E+00;  5.2196975E+00;0; -4.5358706E-01;  3.1869895E+04;  0.0000000E+00; -3.8512018E+00;  4.0000000E+04;  0.0000000E+00;  3.8024086E+04; -3.7588501E-01;  0.0000000E+00; -7.7702060E-02;  2.5506309E+03;
  1.6383767E+00;  9.9999998E-03; -1.4444065E-01;9898;  1.0387329E+00;  0.0000000E+00;  9.6994191E-03;  9.9525714E+02;  1.1444908E-01; -3.2448955E+03;3;  3.3921024E+01;  0.0000000E+00;  5.1996675E+00;0; -4.3325353E-01;  3.1834131E+04;  0.0000000E+00;  3.2566547E+00;  4.0000000E+04;  0.0000000E+00;  3.8000039E+04; -3.5738716E-01;  0.0000000E+00; -7.5866379E-02;  4.2527271E+03;
  1.6386777E+00;  9.9999998E-03; -1.3423227E-01;9899;  1.0381788E+00;  0.0000000E+00;  8.5131852E-03;  9.9440143E+02;  1.1444788E-01; -3.8279565E+03;3;  2.9743986E+01;  0.0000000E+00;  5.2565837E+00;0; -4.0377942E-01;  3.1803018E+04;  0.0000000E+00;  1.3346186E+01;  4.0000000E+04;  0.0000000E+00;  3.7973996E+04; -3.2897329E-01;  0.0000000E+00; -7.4806124E-02;  7.8993467E+03;
  1.6389829E+00;  9.9999998E-03; -1.2399772E-01;9900;  1.0384712E+00;  0.0000000E+00;  7.4225441E-03;  9.9372168E+02;  1.1444601E-01; -4.2900625E+03;3;  2.5042627E+01;  0.0000000E+00;  5.5334630E+00;0; -3.6491627E-01;  3.1781729E+04;  0.0000000E+00;  2.2125637E+01;  4.0000000E+04;  0.0000000E+00;  3.7949977E+04; -2.9151613E-01;  0.0000000E+00; -7.3400140E-02;  1.0974094E+04;
  1.6392858E+00;  9.9999998E-03; -1.1372916E-01;9901;  1.0395885E+00;  0.0000000E+00;  6.4013461E-03;  9.9330884E+02;  1.1444320E-01; -4.5692920E+03;3;  1.9788271E+01;  0.0000000E+00;  6.0531030E+00;0; -3.1744909E-01;  3.1772510E+04;  0.0000000E+00;  2.7961384E+01;  4.0000000E+04;  0.0000000E+00;  3.7931934E+04; -2.4662469E-01;  0.0000000E+00; -7.0824414E-02;  1.2809549E+04;
  1.6487807E+00;  9.9999998E-03; -1.6493857E-01;9930;  1.0393224E+00;  0.0000000E+00;  1.1903346E-02;  9.9919196E+02;  1.1418156E-01; -5.4078632E+02;3;  4.1340546E+01;  0.0000000E+00;  1.0894901E+01;0; -4.6446311E-01;  3.2276271E+04;  0.0000000E+00;  3.7790821E+01;  4.0000000E+04;  0.0000000E+00;  3.7939027E+04; -3.6677337E-01;  0.0000000E+00; -9.7689755E-02;  8.4709424E+03;
  1.6491483E+00;  9.9999998E-03; -1.5481816E-01;9931;  1.0374198E+00;  0.0000000E+00;  1.0213740E-02;  9.9748767E+02;  1.1418933E-01; -1.6800039E+03;3;  3.7849701E+01;  0.0000000E+00;  1.1276378E+01;0; -4.5279437E-01;  3.2202387E+04;  0.0000000E+00;  9.6987982E+00;  4.0000000E+04;  0.0000000E+00;  3.7899410E+04; -3.6179245E-01;  0.0000000E+00; -9.1001935E-02;  3.2033315E+03;
  1.6494610E+00;  9.9999998E-03; -1.4464922E-01;9932;  1.0361561E+00;  0.0000000E+00;  8.6416556E-03;  9.9649548E+02;  1.1419220E-01; -2.3418708E+03;3;  3.3978855E+01;  0.0000000E+00;  1.1566456E+01;0; -4.3793231E-01;  3.2161971E+04;  0.0000000E+00; -2.7199550E+00;  4.0000000E+04;  0.0000000E+00;  3.7873613E+04; -3.5084632E-01;  0.0000000E+00; -8.7085977E-02;  2.6300474E+03;
  1.6497539E+00;  9.9999998E-03; -1.3444343E-01;9933;  1.0356208E+00;  0.0000000E+00;  7.1373787E-03;  9.9572626E+02;  1.1419212E-01; -2.8540869E+03;3;  2.9566650E+01;  0.0000000E+00;  1.1905499E+01;0; -4.1612560E-01;  3.2132744E+04;  0.0000000E+00; -3.5699887E+00;  4.0000000E+04;  0.0000000E+00;  3.7851180E+04; -3.3223122E-01;  0.0000000E+00; -8.3894357E-02;  2.1671265E+03;
  1.6500398E+00;  9.9999998E-03; -1.2420806E-01;9934;  1.0359325E+00;  0.0000000E+00;  5.6899996E-03;  9.9506580E+02;  1.1419111E-01; -3.2930540E+03;3;  2.4533895E+01;  0.0000000E+00;  1.2548578E+01;0; -3.8463277E-01;  3.2110244E+04;  0.0000000E+00;  1.4009637E+00;  4.0000000E+04;  0.0000000E+00;  3.7828781E+04; -3.0454126E-01;  0.0000000E+00; -8.0091499E-02;  2.7725505E+03;
  1.6503236E+00;  9.9999998E-03; -1.1394425E-01;9935;  1.0370767E+00;  0.0000000E+00;  4.2773639E-03;  9.9448438E+02;  1.1418871E-01; -3.6788062E+03;3;  1.8714434E+01;  0.0000000E+00;  1.3601825E+01;0; -3.4346926E-01;  3.2092367E+04;  0.0000000E+00;  7.7652917E+00;  4.0000000E+04;  0.0000000E+00;  3.7807797E+04; -2.6868871E-01;  0.0000000E+00; -7.4780539E-02;  4.5241567E+03;
  1.6506016E+00;  9.9999998E-03; -1.0365366E-01;9936;  1.0390662E+00;  0.0000000E+00;  2.8722899E-03;  9.9403680E+02;  1.1418696E-01; -3.9748877E+03;3;  1.2377677E+01;  0.0000000E+00;  1.5726150E+01;0; -2.9307646E-01;  3.2080590E+04;  0.0000000E+00;  1.3001804E+01;  4.0000000E+04;  0.0000000E+00;  3.7789422E+04; -2.2573285E-01;  0.0000000E+00; -6.7343608E-02;  5.9820503E+03;
  1.6604515E+00;  9.9999998E-03; -1.4478725E-01;9963;  1.0338690E+00;  0.0000000E+00;  6.7046396E-03;  9.9812244E+02;  1.1397264E-01; -1.2239243E+03;3;  3.3707531E+01;  0.0000000E+00;  1.9270048E+01;0; -4.3025455E-01;  3.2482152E+04;  0.0000000E+00;  2.9587137E+01;  4.0000000E+04;  0.0000000E+00;  3.7760254E+04; -3.4353304E-01;  0.0000000E+00; -8.6721502E-02;  6.2918120E+03;
  1.6607769E+00;  9.9999998E-03; -1.3461582E-01;9964;  1.0335867E+00;  0.0000000E+00;  4.7575557E-03;  9.9691888E+02;  1.1397606E-01; -2.0070043E+03;3;  2.8979366E+01;  0.0000000E+00;  2.0155329E+01;0; -4.1136619E-01;  3.2437627E+04;  0.0000000E+00;  8.1389112E+00;  4.0000000E+04;  0.0000000E+00;  3.7723730E+04; -3.3071354E-01;  0.0000000E+00; -8.0652654E-02;  2.8341829E+03;
  1.6610682E+00;  9.9999998E-03; -1.2439579E-01;9965;  1.0340095E+00;  0.0000000E+00;  2.9115560E-03;  9.9617096E+02;  1.1397754E-01; -2.4924995E+03;3;  2.3488592E+01;  0.0000000E+00;  2.1170177E+01;0; -3.8711357E-01;  3.2411637E+04;  0.0000000E+00; -1.7173257E+00;  4.0000000E+04;  0.0000000E+00;  3.7699438E+04; -3.1239033E-01;  0.0000000E+00; -7.4723244E-02;  2.2706113E+03;
  1.6613418E+00;  9.9999998E-03; -1.1413818E-01;9966;  1.0352281E+00;  0.0000000E+00;  1.0833634E-03;  9.9561346E+02;  1.1397742E-01; -2.8535735E+03;3;  1.7153414E+01;  0.0000000E+00;  2.2911755E+01;0; -3.5436526E-01;  3.2393197E+04;  0.0000000E+00; -3.7305734E+00;  4.0000000E+04;  0.0000000E+00;  3.7679668E+04; -2.8727978E-01;  0.0000000E+00; -6.7085482E-02;  1.9441941E+03;
  1.6616040E+00;  9.9999998E-03; -1.0384613E-01;9967;  1.0372760E+00;  0.0000000E+00; -7.6070701E-04;  9.9515979E+02;  1.1397646E-01; -3.1467664E+03;3;  9.6861992E+00;  0.0000000E+00;  2.5273155E+01;0; -3.1228772E-01;  3.2378611E+04;  0.0000000E+00; -1.7188821E+00;  4.0000000E+04;  0.0000000E+00;  3.7663590E+04; -2.5503194E-01;  0.0000000E+00; -5.7255764E-02;  1.7087312E+03;
  1.6720213E+00;  9.9999998E-03; -1.2450147E-01;9992;  1.0323758E+00;  0.0000000E+00; -9.6740609E-04;  9.9765454E+02;  1.1379781E-01; -1.4875597E+03;3;  2.2156269E+01;  0.0000000E+00;  3.1580135E+01;0; -3.7129080E-01;  3.2701254E+04;  0.0000000E+00;  2.9607101E+01;  4.0000000E+04;  0.0000000E+00;  3.7588465E+04; -3.1799215E-01;  0.0000000E+00; -5.3298648E-02;  5.9261733E+03;
  1.6723130E+00;  9.9999998E-03; -1.1428044E-01;9993;  1.0338936E+00;  0.0000000E+00; -3.3270370E-03;  9.9674567E+02;  1.1380183E-01; -2.0625645E+03;3;  1.5136397E+01;  0.0000000E+00;  3.3724731E+01;0; -3.4272230E-01;  3.2671713E+04;  0.0000000E+00;  1.1655518E+01;  4.0000000E+04;  0.0000000E+00;  3.7554812E+04; -2.9957673E-01;  0.0000000E+00; -4.3145582E-02;  3.0856255E+03;
  1.6725761E+00;  9.9999998E-03; -1.0401546E-01;9994;  1.0361775E+00;  0.0000000E+00; -5.6042941E-03;  9.9614386E+02;  1.1380409E-01; -2.4423984E+03;3;  6.7396407E+00;  0.0000000E+00;  3.6937737E+01;0; -3.0777836E-01;  3.2653111E+04;  0.0000000E+00;  1.9306566E+00;  4.0000000E+04;  0.0000000E+00;  3.7531625E+04; -2.7630559E-01;  0.0000000E+00; -3.1472757E-02;  2.1340054E+03;
  1.6395839E+00;  9.9999998E-03; -1.0342153E-01;9902;  1.0414701E+00;  0.0000000E+00;  5.4193707E-03;  9.9313635E+02;  1.1444070E-01; -4.6842007E+03;3;  1.4432252E+01;  0.0000000E+00;  7.9084306E+00;0; -2.6305780E-01;  3.1772096E+04;  0.0000000E+00;  3.0622421E+01;  4.0000000E+04;  0.0000000E+00;  3.7920746E+04; -1.9670269E-01;  0.0000000E+00; -6.6355102E-02;  1.3375406E+04;
  1.6285650E+00;  9.9999998E-03; -1.0307473E-01;9866;  1.0441169E+00;  0.0000000E+00;  7.0674927E-03;  9.9285419E+02;  1.1474299E-01; -4.9850854E+03;3;  1.5740822E+01;  0.0000000E+00;  1.4219345E+00;0; -2.3556124E-01;  3.1460324E+04;  0.0000000E+00;  4.3096558E+01;  4.0000000E+04;  0.0000000E+00;  3.8073820E+04; -1.7718859E-01;  0.0000000E+00; -5.8372650E-02;  2.0206340E+04;
  1.6175375E+00;  9.9999998E-03; -1.0261343E-01;9827;  1.0468844E+00;  0.0000000E+00;  8.0706012E-03;  9.9319080E+02;  1.1510330E-01; -4.8475205E+03;3;  1.6874414E+01;  0.0000000E+00; -2.8395035E+00;0; -2.1570848E-01;  3.1150443E+04;  0.0000000E+00;  4.6275738E+01;  4.0000000E+04;  0.0000000E+00;  3.8235734E+04; -1.6922860E-01;  0.0000000E+00; -4.6479881E-02;  2.4052877E+04;
  3.5532147E-03;  9.9999998E-03; -9.9979818E-02;2467; -8.5609895E-04;  0.0000000E+00; -2.1372963E-04;  9.8430347E+02;  1.0000000E-01; -1.3004274E+04;3;  7.7868187E+01;  0.0000000E+00; -9.1928440E-01;0; -5.2646674E-02;  3.8773066E+04;  0.0000000E+00; -1.6990045E-02;  4.0000000E+04;  0.0000000E+00;  3.9996973E+04; -5.4377694E-02;  0.0000000E+00;  1.7310205E-03;  9.5816254E+02;
  3.5452000E-03;  9.9999998E-03; -8.9973241E-02;2468; -8.6579763E-04;  0.0000000E+00; -1.9898253E-04;  9.8431683E+02;  1.0000000E-01; -1.2993213E+04;3;  7.7425827E+01;  0.0000000E+00; -1.1308566E+00;0; -5.2884758E-02;  3.8774297E+04;  0.0000000E+00; -9.5723411E-03;  4.0000000E+04;  0.0000000E+00;  3.9996906E+04; -5.4632779E-02;  0.0000000E+00;  1.7480205E-03;  9.4300110E+02;
  3.5354423E-03;  9.9999998E-03; -7.9968721E-02;2469; -8.8127929E-04;  0.0000000E+00; -1.8749933E-04;  9.8432941E+02;  1.0000000E-01; -1.2982793E+04;3;  7.7219902E+01;  0.0000000E+00; -1.2667150E+00;0; -5.3086359E-02;  3.8775133E+04;  0.0000000E+00; -5.8385287E-03;  4.0000000E+04;  0.0000000E+00;  3.9997258E+04; -5.4850992E-02;  0.0000000E+00;  1.7646312E-03;  9.6090759E+02;
  3.5244517E-03;  9.9999998E-03; -6.9966972E-02;2470; -9.0110657E-04;  0.0000000E+00; -1.7741152E-04;  9.8434033E+02;  1.0000000E-01; -1.2973757E+04;3;  7.7264740E+01;  0.0000000E+00; -1.3328277E+00;0; -5.3260196E-02;  3.8775582E+04;  0.0000000E+00; -4.0342952E-03;  4.0000000E+04;  0.0000000E+00;  3.9997594E+04; -5.5043962E-02;  0.0000000E+00;  1.7837648E-03;  1.0158132E+03;
  3.5126617E-03;  9.9999998E-03; -5.9968010E-02;2471; -9.2316594E-04;  0.0000000E+00; -1.6638917E-04;  9.8435321E+02;  1.0000000E-01; -1.2963090E+04;3;  7.7520996E+01;  0.0000000E+00; -1.3290306E+00;0; -5.3410731E-02;  3.8775719E+04;  0.0000000E+00; -3.0614454E-03;  4.0000000E+04;  0.0000000E+00;  3.9998355E+04; -5.5218078E-02;  0.0000000E+00;  1.8073479E-03;  1.1062242E+03;
  3.5010260E-03;  9.9999998E-03; -4.9971499E-02;2472; -9.4525708E-04;  0.0000000E+00; -1.5227361E-04;  9.8436530E+02;  1.0000000E-01; -1.2953065E+04;3;  7.7961395E+01;  0.0000000E+00; -1.2567452E+00;0; -5.3539414E-02;  3.8775812E+04;  0.0000000E+00; -2.3530605E-03;  4.0000000E+04;  0.0000000E+00;  3.9999105E+04; -5.5375062E-02;  0.0000000E+00;  1.8356491E-03;  1.2240426E+03;
  3.4900671E-03;  9.9999998E-03; -3.9976541E-02;2473; -9.6541917E-04;  0.0000000E+00; -1.3304401E-04;  9.8437708E+02;  1.0000000E-01; -1.2943288E+04;3;  7.8506668E+01;  0.0000000E+00; -1.1148169E+00;0; -5.3646110E-02;  3.8775660E+04;  0.0000000E+00; -1.6905559E-03;  4.0000000E+04;  0.0000000E+00;  4.0000094E+04; -5.5513110E-02;  0.0000000E+00;  1.8670015E-03;  1.3555411E+03;
  3.4805920E-03;  9.9999998E-03; -2.9982423E-02;2474; -9.8221528E-04;  0.0000000E+00; -1.0765546E-04;  9.8439026E+02;  1.0000000E-01; -1.2932375E+04;3;  7.9047295E+01;  0.0000000E+00; -9.0672284E-01;0; -5.3729840E-02;  3.8775496E+04;  0.0000000E+00; -1.0526504E-03;  4.0000000E+04;  0.0000000E+00;  4.0001797E+04; -5.5627916E-02;  0.0000000E+00;  1.8980765E-03;  1.4836259E+03;
  3.4732912E-03;  9.9999998E-03; -1.9988481E-02;2475; -9.9468522E-04;  0.0000000E+00; -7.6146032E-05;  9.8440039E+02;  1.0000000E-01; -1.2923980E+04;3;  7.9517792E+01;  0.0000000E+00; -6.4132673E-01;0; -5.3790119E-02;  3.8775332E+04;  0.0000000E+00; -5.0495367E-04;  4.0000000E+04;  0.0000000E+00;  4.0002734E+04; -5.5714767E-02;  0.0000000E+00;  1.9246474E-03;  1.5907126E+03;
  3.4687233E-03;  9.9999998E-03; -9.9943625E-03;2476; -1.0022728E-03;  0.0000000E+00; -3.9495360E-05;  9.8440387E+02;  1.0000000E-01; -1.2921116E+04;3;  7.9857933E+01;  0.0000000E+00; -3.3232102E-01;0; -5.3826399E-02;  3.8775336E+04;  0.0000000E+00; -1.3227556E-04;  4.0000000E+04;  0.0000000E+00;  4.0002660E+04; -5.5768996E-02;  0.0000000E+00;  1.9425985E-03;  1.6617262E+03;
  3.4671794E-03;  9.9999998E-03;  1.1755791E-10;2477; -1.0048120E-03;  0.0000000E+00;  3.1422115E-10;  9.8440546E+02;  1.0000000E-01; -1.2919783E+04;3;  7.9975616E+01;  0.0000000E+00;  1.3902099E-05;0; -5.3838566E-02;  3.8775309E+04;  0.0000000E+00; -1.7319787E-13;  4.0000000E+04;  0.0000000E+00;  4.0002762E+04; -5.5787511E-02;  0.0000000E+00;  1.9489450E-03;  1.6865758E+03;
  3.4687235E-03;  9.9999998E-03;  9.9943625E-03;2478; -1.0022685E-03;  0.0000000E+00;  3.9493345E-05;  9.8440387E+02;  1.0000000E-01; -1.2921116E+04;3;  7.9858032E+01;  0.0000000E+00;  3.3232731E-01;0; -5.3826369E-02;  3.8775336E+04;  0.0000000E+00; -1.3226266E-04;  4.0000000E+04;  0.0000000E+00;  4.0002660E+04; -5.5768967E-02;  0.0000000E+00;  1.9425983E-03;  1.6617354E+03;
  3.4732923E-03;  9.9999998E-03;  1.9988481E-02;2479; -9.9468487E-04;  0.0000000E+00;  7.6143246E-05;  9.8440039E+02;  1.0000000E-01; -1.2923980E+04;3;  7.9517967E+01;  0.0000000E+00;  6.4133441E-01;0; -5.3790167E-02;  3.8775340E+04;  0.0000000E+00; -5.0494674E-04;  4.0000000E+04;  0.0000000E+00;  4.0002734E+04; -5.5714816E-02;  0.0000000E+00;  1.9246471E-03;  1.5907191E+03;
  3.4805927E-03;  9.9999998E-03;  2.9982423E-02;2480; -9.8220957E-04;  0.0000000E+00;  1.0765321E-04;  9.8439032E+02;  1.0000000E-01; -1.2932325E+04;3;  7.9047012E+01;  0.0000000E+00;  9.0670460E-01;0; -5.3729907E-02;  3.8775500E+04;  0.0000000E+00; -1.0526660E-03;  4.0000000E+04;  0.0000000E+00;  4.0001797E+04; -5.5627983E-02;  0.0000000E+00;  1.8980749E-03;  1.4836328E+03;
  3.4900687E-03;  9.9999998E-03;  3.9976541E-02;2481; -9.6540293E-04;  0.0000000E+00;  1.3303939E-04;  9.8437701E+02;  1.0000000E-01; -1.2943338E+04;3;  7.8507309E+01;  0.0000000E+00;  1.1148013E+00;0; -5.3646125E-02;  3.8775664E+04;  0.0000000E+00; -1.6903876E-03;  4.0000000E+04;  0.0000000E+00;  4.0000094E+04; -5.5513125E-02;  0.0000000E+00;  1.8670002E-03;  1.3555593E+03;
  3.5010274E-03;  9.9999998E-03;  4.9971499E-02;2482; -9.4525551E-04;  0.0000000E+00;  1.5227225E-04;  9.8436530E+02;  1.0000000E-01; -1.2953065E+04;3;  7.7961639E+01;  0.0000000E+00;  1.2567285E+00;0; -5.3539436E-02;  3.8775812E+04;  0.0000000E+00; -2.3531029E-03;  4.0000000E+04;  0.0000000E+00;  3.9999105E+04; -5.5375084E-02;  0.0000000E+00;  1.8356494E-03;  1.2240608E+03;
  3.5126633E-03;  9.9999998E-03;  5.9968010E-02;2483; -9.2315325E-04;  0.0000000E+00;  1.6638092E-04;  9.8435321E+02;  1.0000000E-01; -1.2963090E+04;3;  7.7521111E+01;  0.0000000E+00;  1.3289920E+00;0; -5.3410701E-02;  3.8775707E+04;  0.0000000E+00; -3.0616829E-03;  4.0000000E+04;  0.0000000E+00;  3.9998355E+04; -5.5218048E-02;  0.0000000E+00;  1.8073485E-03;  1.1062389E+03;
  1.3169640E-02;  9.9999998E-03; -9.9990040E-02;2527; -1.8152897E-03;  0.0000000E+00; -2.5550046E-04;  9.8740961E+02;  1.0000000E-01; -1.0430915E+04;3;  3.6597576E+01;  0.0000000E+00; -7.8595334E-01;0; -5.7607900E-02;  3.9011320E+04;  0.0000000E+00; -2.2889575E-02;  4.0000000E+04;  0.0000000E+00;  3.9997727E+04; -5.9601221E-02;  0.0000000E+00;  1.9933209E-03;  7.6009619E+02;
  1.3164465E-02;  9.9999998E-03; -8.9984089E-02;2528; -1.8247553E-03;  0.0000000E+00; -2.3743043E-04;  9.8741931E+02;  1.0000000E-01; -1.0422865E+04;3;  3.6057682E+01;  0.0000000E+00; -9.5660955E-01;0; -5.7853352E-02;  3.9012336E+04;  0.0000000E+00; -1.3660789E-02;  4.0000000E+04;  0.0000000E+00;  3.9997352E+04; -5.9877403E-02;  0.0000000E+00;  2.0240513E-03;  7.1978894E+02;
  1.3158191E-02;  9.9999998E-03; -7.9979770E-02;2529; -1.8420019E-03;  0.0000000E+00; -2.2257181E-04;  9.8742920E+02;  1.0000000E-01; -1.0414668E+04;3;  3.5719532E+01;  0.0000000E+00; -1.0617012E+00;0; -5.8061253E-02;  3.9012922E+04;  0.0000000E+00; -8.9808134E-03;  4.0000000E+04;  0.0000000E+00;  3.9996707E+04; -6.0111549E-02;  0.0000000E+00;  2.0502959E-03;  7.1000745E+02;
  1.3151009E-02;  9.9999998E-03; -6.9977723E-02;2530; -1.8650375E-03;  0.0000000E+00; -2.0933345E-04;  9.8742932E+02;  1.0000000E-01; -1.0414569E+04;3;  3.5688057E+01;  0.0000000E+00; -1.1081091E+00;0; -5.8240667E-02;  3.9012805E+04;  0.0000000E+00; -6.5999655E-03;  4.0000000E+04;  0.0000000E+00;  3.9996828E+04; -6.0316220E-02;  0.0000000E+00;  2.0755513E-03;  7.4030658E+02;
  1.3142929E-02;  9.9999998E-03; -5.9977725E-02;2531; -1.8914039E-03;  0.0000000E+00; -1.9512980E-04;  9.8743005E+02;  1.0000000E-01; -1.0413978E+04;3;  3.5897392E+01;  0.0000000E+00; -1.0970674E+00;0; -5.8395550E-02;  3.9012637E+04;  0.0000000E+00; -5.1567601E-03;  4.0000000E+04;  0.0000000E+00;  3.9997430E+04; -6.0498193E-02;  0.0000000E+00;  2.1026419E-03;  8.1315509E+02;
  1.3134614E-02;  9.9999998E-03; -4.9979720E-02;2532; -1.9183932E-03;  0.0000000E+00; -1.7768623E-04;  9.8743652E+02;  1.0000000E-01; -1.0408595E+04;3;  3.6277676E+01;  0.0000000E+00; -1.0312891E+00;0; -5.8527406E-02;  3.9012008E+04;  0.0000000E+00; -3.9778235E-03;  4.0000000E+04;  0.0000000E+00;  3.9998754E+04; -6.0660176E-02;  0.0000000E+00;  2.1327701E-03;  9.2204187E+02;
  1.3126424E-02;  9.9999998E-03; -3.9982997E-02;2533; -1.9433054E-03;  0.0000000E+00; -1.5482331E-04;  9.8743829E+02;  1.0000000E-01; -1.0407113E+04;3;  3.6828079E+01;  0.0000000E+00; -9.1135514E-01;0; -5.8635976E-02;  3.9011477E+04;  0.0000000E+00; -2.8367706E-03;  4.0000000E+04;  0.0000000E+00;  3.9999852E+04; -6.0801018E-02;  0.0000000E+00;  2.1650409E-03;  1.0525735E+03;
  1.3119049E-02;  9.9999998E-03; -2.9987060E-02;2534; -1.9643984E-03;  0.0000000E+00; -1.2500853E-04;  9.8744635E+02;  1.0000000E-01; -1.0400446E+04;3;  3.7370892E+01;  0.0000000E+00; -7.3912144E-01;0; -5.8720507E-02;  3.9010844E+04;  0.0000000E+00; -1.7489879E-03;  4.0000000E+04;  0.0000000E+00;  4.0001145E+04; -6.0917143E-02;  0.0000000E+00;  2.1966370E-03;  1.1851179E+03;
  1.3113166E-02;  9.9999998E-03; -1.9991400E-02;2535; -1.9802314E-03;  0.0000000E+00; -8.8226399E-05;  9.8745233E+02;  1.0000000E-01; -1.0395509E+04;3;  3.7856426E+01;  0.0000000E+00; -5.2176982E-01;0; -5.8780793E-02;  3.9010320E+04;  0.0000000E+00; -8.3174882E-04;  4.0000000E+04;  0.0000000E+00;  4.0002070E+04; -6.1004356E-02;  0.0000000E+00;  2.2235615E-03;  1.2987931E+03;
  1.3109385E-02;  9.9999998E-03; -9.9957567E-03;2536; -1.9899888E-03;  0.0000000E+00; -4.5729033E-05;  9.8745490E+02;  1.0000000E-01; -1.0393385E+04;3;  3.8198429E+01;  0.0000000E+00; -2.7004287E-01;0; -5.8816973E-02;  3.9010090E+04;  0.0000000E+00; -2.1662087E-04;  4.0000000E+04;  0.0000000E+00;  4.0002922E+04; -6.1058722E-02;  0.0000000E+00;  2.2417479E-03;  1.3753229E+03;
  1.3108072E-02;  9.9999998E-03;  1.5808854E-10;2537; -1.9933195E-03;  0.0000000E+00;  7.3416961E-10;  9.8745764E+02;  1.0000000E-01; -1.0391113E+04;3;  3.8306755E+01;  0.0000000E+00;  1.2437106E-06;0; -5.8828905E-02;  3.9009977E+04;  0.0000000E+00;  2.9638594E-13;  4.0000000E+04;  0.0000000E+00;  4.0003148E+04; -6.1077081E-02;  0.0000000E+00;  2.2481764E-03;  1.4022788E+03;
  1.3109386E-02;  9.9999998E-03;  9.9957567E-03;2538; -1.9899881E-03;  0.0000000E+00;  4.5730078E-05;  9.8745490E+02;  1.0000000E-01; -1.0393385E+04;3;  3.8198456E+01;  0.0000000E+00;  2.7005467E-01;0; -5.8816951E-02;  3.9010094E+04;  0.0000000E+00; -2.1657652E-04;  4.0000000E+04;  0.0000000E+00;  4.0002926E+04; -6.1058700E-02;  0.0000000E+00;  2.2417482E-03;  1.3753306E+03;
  1.3113166E-02;  9.9999998E-03;  1.9991400E-02;2539; -1.9802283E-03;  0.0000000E+00;  8.8228124E-05;  9.8745233E+02;  1.0000000E-01; -1.0395509E+04;3;  3.7856503E+01;  0.0000000E+00;  5.2180421E-01;0; -5.8780815E-02;  3.9010324E+04;  0.0000000E+00; -8.3160639E-04;  4.0000000E+04;  0.0000000E+00;  4.0002070E+04; -6.1004374E-02;  0.0000000E+00;  2.2235583E-03;  1.2987999E+03;
  1.3119050E-02;  9.9999998E-03;  2.9987060E-02;2540; -1.9643968E-03;  0.0000000E+00;  1.2500779E-04;  9.8744635E+02;  1.0000000E-01; -1.0400446E+04;3;  3.7370998E+01;  0.0000000E+00;  7.3915482E-01;0; -5.8720462E-02;  3.9010840E+04;  0.0000000E+00; -1.7488531E-03;  4.0000000E+04;  0.0000000E+00;  4.0001145E+04; -6.0917098E-02;  0.0000000E+00;  2.1966363E-03;  1.1851282E+03;
  1.3126425E-02;  9.9999998E-03;  3.9982997E-02;2541; -1.9433022E-03;  0.0000000E+00;  1.5482346E-04;  9.8743829E+02;  1.0000000E-01; -1.0407113E+04;3;  3.6828152E+01;  0.0000000E+00;  9.1136283E-01;0; -5.8635972E-02;  3.9011477E+04;  0.0000000E+00; -2.8361070E-03;  4.0000000E+04;  0.0000000E+00;  3.9999852E+04; -6.0801014E-02;  0.0000000E+00;  2.1650412E-03;  1.0525776E+03;
  1.3134615E-02;  9.9999998E-03;  4.9979720E-02;2542; -1.9183836E-03;  0.0000000E+00;  1.7767868E-04;  9.8743652E+02;  1.0000000E-01; -1.0408595E+04;3;  3.6277771E+01;  0.0000000E+00;  1.0312680E+00;0; -5.8527414E-02;  3.9012020E+04;  0.0000000E+00; -3.9776121E-03;  4.0000000E+04;  0.0000000E+00;  3.9998754E+04; -6.0660183E-02;  0.0000000E+00;  2.1327708E-03;  9.2205371E+02;
  1.3142930E-02;  9.9999998E-03;  5.9977725E-02;2543; -1.8913944E-03;  0.0000000E+00;  1.9513165E-04;  9.8743005E+02;  1.0000000E-01; -1.0413978E+04;3;  3.5897533E+01;  0.0000000E+00;  1.0971333E+00;0; -5.8395591E-02;  3.9012641E+04;  0.0000000E+00; -5.1575168E-03;  4.0000000E+04;  0.0000000E+00;  3.9997430E+04; -6.0498230E-02;  0.0000000E+00;  2.1026409E-03;  8.1316272E+02;
  2.2763005E-02;  9.9999998E-03; -9.9991649E-02;2588; -2.9448923E-03;  0.0000000E+00; -2.9464482E-04;  9.9102521E+02;  1.0000000E-01; -7.4354438E+03;3; -2.7136712E+00;  0.0000000E+00; -6.0914963E-01;0; -6.1149750E-02;  3.9292559E+04;  0.0000000E+00; -2.8104667E-02;  4.0000000E+04;  0.0000000E+00;  3.9998258E+04; -6.3383020E-02;  0.0000000E+00;  2.2332722E-03;  5.7225348E+02;
  2.2760710E-02;  9.9999998E-03; -8.9989148E-02;2589; -2.9545550E-03;  0.0000000E+00; -2.7059991E-04;  9.9103107E+02;  1.0000000E-01; -7.4306045E+03;3; -3.3376229E+00;  0.0000000E+00; -7.3739260E-01;0; -6.1394915E-02;  3.9293441E+04;  0.0000000E+00; -1.7817719E-02;  4.0000000E+04;  0.0000000E+00;  3.9997781E+04; -6.3675240E-02;  0.0000000E+00;  2.2803233E-03;  5.0015222E+02;
  2.2757825E-02;  9.9999998E-03; -7.9987243E-02;2590; -2.9736683E-03;  0.0000000E+00; -2.5012315E-04;  9.9102747E+02;  1.0000000E-01; -7.4335674E+03;3; -3.7397265E+00;  0.0000000E+00; -8.1144619E-01;0; -6.1603237E-02;  3.9293441E+04;  0.0000000E+00; -1.2407481E-02;  4.0000000E+04;  0.0000000E+00;  3.9998074E+04; -6.3920885E-02;  0.0000000E+00;  2.3176486E-03;  4.5348181E+02;
  2.2754176E-02;  9.9999998E-03; -6.9986120E-02;2591; -3.0001933E-03;  0.0000000E+00; -2.3191527E-04;  9.9101959E+02;  1.0000000E-01; -7.4400859E+03;3; -3.8896277E+00;  0.0000000E+00; -8.3888018E-01;0; -6.1783079E-02;  3.9293164E+04;  0.0000000E+00; -9.3992632E-03;  4.0000000E+04;  0.0000000E+00;  3.9997688E+04; -6.4132378E-02;  0.0000000E+00;  2.3492998E-03;  4.4927402E+02;
  2.2749547E-02;  9.9999998E-03; -5.9985898E-02;2592; -3.0311311E-03;  0.0000000E+00; -2.1363526E-04;  9.9101379E+02;  1.0000000E-01; -7.4449253E+03;3; -3.7983143E+00;  0.0000000E+00; -8.2389361E-01;0; -6.1938383E-02;  3.9292418E+04;  0.0000000E+00; -7.3467675E-03;  4.0000000E+04;  0.0000000E+00;  3.9997953E+04; -6.4317510E-02;  0.0000000E+00;  2.3791252E-03;  4.9541144E+02;
  2.2744279E-02;  9.9999998E-03; -4.9986850E-02;2593; -3.0632142E-03;  0.0000000E+00; -1.9278245E-04;  9.9101337E+02;  1.0000000E-01; -7.4452710E+03;3; -3.5058315E+00;  0.0000000E+00; -7.6912832E-01;0; -6.2069759E-02;  3.9291352E+04;  0.0000000E+00; -5.5781244E-03;  4.0000000E+04;  0.0000000E+00;  3.9998477E+04; -6.4479291E-02;  0.0000000E+00;  2.4095336E-03;  5.8798987E+02;
  2.2738667E-02;  9.9999998E-03; -3.9988689E-02;2594; -3.0932175E-03;  0.0000000E+00; -1.6666179E-04;  9.9101141E+02;  1.0000000E-01; -7.4468511E+03;3; -3.0358160E+00;  0.0000000E+00; -6.7500573E-01;0; -6.2177222E-02;  3.9290398E+04;  0.0000000E+00; -3.8999845E-03;  4.0000000E+04;  0.0000000E+00;  4.0000020E+04; -6.4617977E-02;  0.0000000E+00;  2.4407541E-03;  7.1214685E+02;
  2.2733366E-02;  9.9999998E-03; -2.9991170E-02;2595; -3.1187488E-03;  0.0000000E+00; -1.3387264E-04;  9.9101117E+02;  1.0000000E-01; -7.4470981E+03;3; -2.5091989E+00;  0.0000000E+00; -5.4469752E-01;0; -6.2260382E-02;  3.9289508E+04;  0.0000000E+00; -2.3627987E-03;  4.0000000E+04;  0.0000000E+00;  4.0000605E+04; -6.4731225E-02;  0.0000000E+00;  2.4708428E-03;  8.4567639E+02;
  2.2728961E-02;  9.9999998E-03; -1.9994004E-02;2596; -3.1381366E-03;  0.0000000E+00; -9.4225201E-05;  9.9101544E+02;  1.0000000E-01; -7.4435425E+03;3; -2.0553153E+00;  0.0000000E+00; -3.8331473E-01;0; -6.2319092E-02;  3.9288770E+04;  0.0000000E+00; -1.1091850E-03;  4.0000000E+04;  0.0000000E+00;  4.0001785E+04; -6.4815484E-02;  0.0000000E+00;  2.4963908E-03;  9.6400055E+02;
  2.2726059E-02;  9.9999998E-03; -9.9969786E-03;2597; -3.1501607E-03;  0.0000000E+00; -4.8774746E-05;  9.9101831E+02;  1.0000000E-01; -7.4411724E+03;3; -1.7388854E+00;  0.0000000E+00; -1.9830373E-01;0; -6.2353961E-02;  3.9288508E+04;  0.0000000E+00; -2.8670343E-04;  4.0000000E+04;  0.0000000E+00;  4.0002352E+04; -6.4867616E-02;  0.0000000E+00;  2.5136534E-03;  1.0450841E+03;
  2.2725048E-02;  9.9999998E-03;  1.3708282E-10;2598; -3.1542256E-03;  0.0000000E+00;  5.3029896E-11;  9.9101880E+02;  1.0000000E-01; -7.4407773E+03;3; -1.6221991E+00;  0.0000000E+00;  1.1293447E-05;0; -6.2365629E-02;  3.9288125E+04;  0.0000000E+00; -6.8837595E-14;  4.0000000E+04;  0.0000000E+00;  4.0002809E+04; -6.4885393E-02;  0.0000000E+00;  2.5197652E-03;  1.0738688E+03;
  2.2726059E-02;  9.9999998E-03;  9.9969786E-03;2599; -3.1501597E-03;  0.0000000E+00;  4.8774866E-05;  9.9101831E+02;  1.0000000E-01; -7.4411724E+03;3; -1.7388419E+00;  0.0000000E+00;  1.9832037E-01;0; -6.2354002E-02;  3.9288508E+04;  0.0000000E+00; -2.8667069E-04;  4.0000000E+04;  0.0000000E+00;  4.0002352E+04; -6.4867653E-02;  0.0000000E+00;  2.5136524E-03;  1.0450864E+03;
  2.2728961E-02;  9.9999998E-03;  1.9994006E-02;2600; -3.1381350E-03;  0.0000000E+00;  9.4226620E-05;  9.9101544E+02;  1.0000000E-01; -7.4435425E+03;3; -2.0552642E+00;  0.0000000E+00;  3.8338172E-01;0; -6.2319115E-02;  3.9288770E+04;  0.0000000E+00; -1.1092603E-03;  4.0000000E+04;  0.0000000E+00;  4.0001785E+04; -6.4815506E-02;  0.0000000E+00;  2.4963913E-03;  9.6400781E+02;
  2.2733368E-02;  9.9999998E-03;  2.9991170E-02;2601; -3.1187439E-03;  0.0000000E+00;  1.3387061E-04;  9.9101105E+02;  1.0000000E-01; -7.4471968E+03;3; -2.5083320E+00;  0.0000000E+00;  5.4472530E-01;0; -6.2260434E-02;  3.9289508E+04;  0.0000000E+00; -2.3627509E-03;  4.0000000E+04;  0.0000000E+00;  4.0000605E+04; -6.4731270E-02;  0.0000000E+00;  2.4708377E-03;  8.4569629E+02;
  2.2738667E-02;  9.9999998E-03;  3.9988689E-02;2602; -3.0932154E-03;  0.0000000E+00;  1.6665844E-04;  9.9101141E+02;  1.0000000E-01; -7.4468511E+03;3; -3.0357459E+00;  0.0000000E+00;  6.7497140E-01;0; -6.2177215E-02;  3.9290398E+04;  0.0000000E+00; -3.8998520E-03;  4.0000000E+04;  0.0000000E+00;  4.0000020E+04; -6.4617969E-02;  0.0000000E+00;  2.4407546E-03;  7.1215503E+02;
  2.2744281E-02;  9.9999998E-03;  4.9986850E-02;2603; -3.0632108E-03;  0.0000000E+00;  1.9278028E-04;  9.9101337E+02;  1.0000000E-01; -7.4452710E+03;3; -3.5057299E+00;  0.0000000E+00;  7.6910788E-01;0; -6.2069803E-02;  3.9291359E+04;  0.0000000E+00; -5.5776536E-03;  4.0000000E+04;  0.0000000E+00;  3.9998477E+04; -6.4479336E-02;  0.0000000E+00;  2.4095341E-03;  5.8800092E+02;
  2.2749549E-02;  9.9999998E-03;  5.9985895E-02;2604; -3.0311295E-03;  0.0000000E+00;  2.1362938E-04;  9.9101385E+02;  1.0000000E-01; -7.4448267E+03;3; -3.7986286E+00;  0.0000000E+00;  8.2388020E-01;0; -6.1938353E-02;  3.9292422E+04;  0.0000000E+00; -7.3466790E-03;  4.0000000E+04;  0.0000000E+00;  3.9997953E+04; -6.4317480E-02;  0.0000000E+00;  2.3791266E-03;  4.9541772E+02;
  3.2375246E-02;  9.9999998E-03; -9.9994160E-02;2649; -4.0985905E-03;  0.0000000E+00; -3.2783623E-04;  9.9467609E+02;  1.0000000E-01; -4.4107393E+03;3; -3.1955345E+01;  0.0000000E+00; -4.4081497E-01;0; -6.3212149E-02;  3.9580688E+04;  0.0000000E+00; -3.1315830E-02;  4.0000000E+04;  0.0000000E+00;  3.9999820E+04; -6.5652736E-02;  0.0000000E+00;  2.4405844E-03;  4.3347653E+02;
  3.2375436E-02;  9.9999998E-03; -8.9994445E-02;2650; -4.1085258E-03;  0.0000000E+00; -2.9700861E-04;  9.9466998E+02;  1.0000000E-01; -4.4158257E+03;3; -3.2584484E+01;  0.0000000E+00; -5.3355128E-01;0; -6.3450605E-02;  3.9581340E+04;  0.0000000E+00; -2.0768633E-02;  4.0000000E+04;  0.0000000E+00;  3.9999293E+04; -6.5956630E-02;  0.0000000E+00;  2.5060249E-03;  3.2402695E+02;
  3.2375593E-02;  9.9999998E-03; -7.9994492E-02;2651; -4.1295397E-03;  0.0000000E+00; -2.7041190E-04;  9.9466260E+02;  1.0000000E-01; -4.4219492E+03;3; -3.3085785E+01;  0.0000000E+00; -5.8376950E-01;0; -6.3654296E-02;  3.9581074E+04;  0.0000000E+00; -1.4875221E-02;  4.0000000E+04;  0.0000000E+00;  3.9998355E+04; -6.6209830E-02;  0.0000000E+00;  2.5555314E-03;  2.3364378E+02;
  3.2375172E-02;  9.9999998E-03; -6.9994271E-02;2652; -4.1592773E-03;  0.0000000E+00; -2.4702435E-04;  9.9464862E+02;  1.0000000E-01; -4.4335044E+03;3; -3.3344780E+01;  0.0000000E+00; -5.9889334E-01;0; -6.3831151E-02;  3.9580184E+04;  0.0000000E+00; -1.1270672E-02;  4.0000000E+04;  0.0000000E+00;  3.9997738E+04; -6.6424787E-02;  0.0000000E+00;  2.5936351E-03;  1.8811244E+02;
  3.2373853E-02;  9.9999998E-03; -5.9993964E-02;2653; -4.1943719E-03;  0.0000000E+00; -2.2479842E-04;  9.9463300E+02;  1.0000000E-01; -4.4464424E+03;3; -3.3342609E+01;  0.0000000E+00; -5.8392793E-01;0; -6.3983940E-02;  3.9579020E+04;  0.0000000E+00; -8.6302366E-03;  4.0000000E+04;  0.0000000E+00;  3.9998637E+04; -6.6609263E-02;  0.0000000E+00;  2.6253252E-03;  2.0160114E+02;
  3.2371514E-02;  9.9999998E-03; -4.9993984E-02;2654; -4.2311000E-03;  0.0000000E+00; -2.0084316E-04;  9.9462579E+02;  1.0000000E-01; -4.4524175E+03;3; -3.3138893E+01;  0.0000000E+00; -5.4096317E-01;0; -6.4113073E-02;  3.9577898E+04;  0.0000000E+00; -6.3684657E-03;  4.0000000E+04;  0.0000000E+00;  3.9998641E+04; -6.6767499E-02;  0.0000000E+00;  2.6544239E-03;  2.7331836E+02;
  3.2368369E-02;  9.9999998E-03; -3.9994478E-02;2655; -4.2658160E-03;  0.0000000E+00; -1.7253714E-04;  9.9462286E+02;  1.0000000E-01; -4.4548369E+03;3; -3.2770611E+01;  0.0000000E+00; -4.7221535E-01;0; -6.4217873E-02;  3.9576656E+04;  0.0000000E+00; -4.3314723E-03;  4.0000000E+04;  0.0000000E+00;  3.9999145E+04; -6.6900477E-02;  0.0000000E+00;  2.6826044E-03;  3.8818491E+02;
  3.2365032E-02;  9.9999998E-03; -2.9995449E-02;2656; -4.2955778E-03;  0.0000000E+00; -1.3822586E-04;  9.9462018E+02;  1.0000000E-01; -4.4570591E+03;3; -3.2313271E+01;  0.0000000E+00; -3.8001844E-01;0; -6.4298272E-02;  3.9575762E+04;  0.0000000E+00; -2.5655031E-03;  4.0000000E+04;  0.0000000E+00;  4.0000691E+04; -6.7007437E-02;  0.0000000E+00;  2.7091620E-03;  5.2107739E+02;
  3.2362044E-02;  9.9999998E-03; -1.9996781E-02;2657; -4.3182741E-03;  0.0000000E+00; -9.7071090E-05;  9.9462231E+02;  1.0000000E-01; -4.4553306E+03;3; -3.1902407E+01;  0.0000000E+00; -2.6651835E-01;0; -6.4354569E-02;  3.9574852E+04;  0.0000000E+00; -1.1850029E-03;  4.0000000E+04;  0.0000000E+00;  4.0001180E+04; -6.7086168E-02;  0.0000000E+00;  2.7315991E-03;  6.4323389E+02;
  3.2359984E-02;  9.9999998E-03; -9.9983383E-03;2658; -4.3324134E-03;  0.0000000E+00; -5.0294173E-05;  9.9462482E+02;  1.0000000E-01; -4.4532568E+03;3; -3.1615158E+01;  0.0000000E+00; -1.3785383E-01;0; -6.4387776E-02;  3.9574410E+04;  0.0000000E+00; -3.0331605E-04;  4.0000000E+04;  0.0000000E+00;  4.0002211E+04; -6.7134559E-02;  0.0000000E+00;  2.7467830E-03;  7.2861401E+02;
  3.2359250E-02;  9.9999998E-03;  1.2359373E-10;2659; -4.3372302E-03;  0.0000000E+00; -1.9733848E-10;  9.9462585E+02;  1.0000000E-01; -4.4523677E+03;3; -3.1512121E+01;  0.0000000E+00;  5.4167031E-06;0; -6.4398661E-02;  3.9574078E+04;  0.0000000E+00; -4.8998410E-14;  4.0000000E+04;  0.0000000E+00;  4.0002395E+04; -6.7150831E-02;  0.0000000E+00;  2.7521688E-03;  7.5921558E+02;
  3.2359984E-02;  9.9999998E-03;  9.9983383E-03;2660; -4.3324111E-03;  0.0000000E+00;  5.0294195E-05;  9.9462469E+02;  1.0000000E-01; -4.4533555E+03;3; -3.1614492E+01;  0.0000000E+00;  1.3786107E-01;0; -6.4387769E-02;  3.9574410E+04;  0.0000000E+00; -3.0327207E-04;  4.0000000E+04;  0.0000000E+00;  4.0002211E+04; -6.7134552E-02;  0.0000000E+00;  2.7467825E-03;  7.2861853E+02;
  3.2362044E-02;  9.9999998E-03;  1.9996781E-02;2661; -4.3182750E-03;  0.0000000E+00;  9.7069671E-05;  9.9462244E+02;  1.0000000E-01; -4.4552319E+03;3; -3.1902969E+01;  0.0000000E+00;  2.6655093E-01;0; -6.4354584E-02;  3.9574848E+04;  0.0000000E+00; -1.1848848E-03;  4.0000000E+04;  0.0000000E+00;  4.0001180E+04; -6.7086183E-02;  0.0000000E+00;  2.7315959E-03;  6.4323926E+02;
  3.2365032E-02;  9.9999998E-03;  2.9995449E-02;2662; -4.2955815E-03;  0.0000000E+00;  1.3822343E-04;  9.9462012E+02;  1.0000000E-01; -4.4571084E+03;3; -3.2312935E+01;  0.0000000E+00;  3.8004303E-01;0; -6.4298302E-02;  3.9575758E+04;  0.0000000E+00; -2.5651595E-03;  4.0000000E+04;  0.0000000E+00;  4.0000691E+04; -6.7007460E-02;  0.0000000E+00;  2.7091573E-03;  5.2108380E+02;
  3.2368369E-02;  9.9999998E-03;  3.9994478E-02;2663; -4.2658094E-03;  0.0000000E+00;  1.7253542E-04;  9.9462280E+02;  1.0000000E-01; -4.4548862E+03;3; -3.2770271E+01;  0.0000000E+00;  4.7222188E-01;0; -6.4217903E-02;  3.9576664E+04;  0.0000000E+00; -4.3317829E-03;  4.0000000E+04;  0.0000000E+00;  3.9999141E+04; -6.6900507E-02;  0.0000000E+00;  2.6826018E-03;  3.8819467E+02;
  3.2371514E-02;  9.9999998E-03;  4.9993984E-02;2664; -4.2310958E-03;  0.0000000E+00;  2.0084181E-04;  9.9462579E+02;  1.0000000E-01; -4.4524175E+03;3; -3.3138847E+01;  0.0000000E+00;  5.4098684E-01;0; -6.4113125E-02;  3.9577898E+04;  0.0000000E+00; -6.3684881E-03;  4.0000000E+04;  0.0000000E+00;  3.9998641E+04; -6.6767544E-02;  0.0000000E+00;  2.6544183E-03;  2.7332843E+02;
  3.2373853E-02;  9.9999998E-03;  5.9993964E-02;2665; -4.1943630E-03;  0.0000000E+00;  2.2479417E-04;  9.9463300E+02;  1.0000000E-01; -4.4464424E+03;3; -3.3342499E+01;  0.0000000E+00;  5.8391404E-01;0; -6.3984014E-02;  3.9579020E+04;  0.0000000E+00; -8.6300140E-03;  4.0000000E+04;  0.0000000E+00;  3.9998637E+04; -6.6609338E-02;  0.0000000E+00;  2.6253208E-03;  2.0161385E+02;
  4.2024884E-02;  9.9999998E-03; -1.0000017E-01;2710; -5.1602828E-03;  0.0000000E+00; -3.5506077E-04;  9.9795654E+02;  1.0000000E-01; -1.6929891E+03;3; -4.7715664E+01;  0.0000000E+00; -3.0278561E-01;0; -6.3858032E-02;  3.9842789E+04;  0.0000000E+00; -3.1153562E-02;  4.0000000E+04;  0.0000000E+00;  4.0001555E+04; -6.6463977E-02;  0.0000000E+00;  2.6059421E-03;  3.7219107E+02;
  4.2026952E-02;  9.9999998E-03; -9.0001635E-02;2711; -5.1705753E-03;  0.0000000E+00; -3.1670943E-04;  9.9794397E+02;  1.0000000E-01; -1.7033593E+03;3; -4.8342072E+01;  0.0000000E+00; -3.6722988E-01;0; -6.4085491E-02;  3.9842844E+04;  0.0000000E+00; -2.1008512E-02;  4.0000000E+04;  0.0000000E+00;  4.0000500E+04; -6.6776678E-02;  0.0000000E+00;  2.6911851E-03;  2.2180939E+02;
  4.2029981E-02;  9.9999998E-03; -8.0002002E-02;2712; -5.1929662E-03;  0.0000000E+00; -2.8355618E-04;  9.9791907E+02;  1.0000000E-01; -1.7240006E+03;3; -4.8824772E+01;  0.0000000E+00; -4.0001538E-01;0; -6.4282067E-02;  3.9842402E+04;  0.0000000E+00; -1.4922571E-02;  4.0000000E+04;  0.0000000E+00;  3.9999520E+04; -6.7035668E-02;  0.0000000E+00;  2.7535993E-03;  8.5188400E+01;
  4.2032413E-02;  9.9999998E-03; -7.0001453E-02;2713; -5.2252412E-03;  0.0000000E+00; -2.5511460E-04;  9.9789954E+02;  1.0000000E-01; -1.7401978E+03;3; -4.9145638E+01;  0.0000000E+00; -4.0753439E-01;0; -6.4454146E-02;  3.9841332E+04;  0.0000000E+00; -1.0941642E-02;  4.0000000E+04;  0.0000000E+00;  3.9998719E+04; -6.7252249E-02;  0.0000000E+00;  2.7981056E-03;  1.7045403E+01;
  4.2033713E-02;  9.9999998E-03; -6.0000546E-02;2714; -5.2636834E-03;  0.0000000E+00; -2.2915329E-04;  9.9788416E+02;  1.0000000E-01; -1.7529381E+03;3; -4.9243401E+01;  0.0000000E+00; -3.9413449E-01;0; -6.4603463E-02;  3.9840094E+04;  0.0000000E+00; -7.9990532E-03;  4.0000000E+04;  0.0000000E+00;  3.9998254E+04; -6.7434318E-02;  0.0000000E+00;  2.8308572E-03;  2.9057281E+01;
  4.2033587E-02;  9.9999998E-03; -4.9999684E-02;2715; -5.3041023E-03;  0.0000000E+00; -2.0298705E-04;  9.9787384E+02;  1.0000000E-01; -1.7614811E+03;3; -4.9120609E+01;  0.0000000E+00; -3.6308780E-01;0; -6.4729631E-02;  3.9838938E+04;  0.0000000E+00; -5.6225373E-03;  4.0000000E+04;  0.0000000E+00;  3.9999262E+04; -6.7586921E-02;  0.0000000E+00;  2.8572867E-03;  2.5487282E+01;
  4.2032342E-02;  9.9999998E-03; -3.9999083E-02;2716; -5.3426302E-03;  0.0000000E+00; -1.7376069E-04;  9.9786871E+02;  1.0000000E-01; -1.7657278E+03;3; -4.8829765E+01;  0.0000000E+00; -3.1557515E-01;0; -6.4831547E-02;  3.9837730E+04;  0.0000000E+00; -3.6593659E-03;  4.0000000E+04;  0.0000000E+00;  3.9999719E+04; -6.7712307E-02;  0.0000000E+00;  2.8807600E-03;  1.3033601E+02;
  4.2030573E-02;  9.9999998E-03; -2.9998835E-02;2717; -5.3759106E-03;  0.0000000E+00; -1.3880919E-04;  9.9786871E+02;  1.0000000E-01; -1.7657278E+03;3; -4.8460709E+01;  0.0000000E+00; -2.5267151E-01;0; -6.4908884E-02;  3.9836699E+04;  0.0000000E+00; -2.0912639E-03;  4.0000000E+04;  0.0000000E+00;  4.0001137E+04; -6.7810968E-02;  0.0000000E+00;  2.9020838E-03;  2.6321310E+02;
  4.2028792E-02;  9.9999998E-03; -1.9998930E-02;2718; -5.4014036E-03;  0.0000000E+00; -9.7320481E-05;  9.9787207E+02;  1.0000000E-01; -1.7629625E+03;3; -4.8110725E+01;  0.0000000E+00; -1.7665365E-01;0; -6.4962454E-02;  3.9835988E+04;  0.0000000E+00; -9.4125996E-04;  4.0000000E+04;  0.0000000E+00;  4.0001863E+04; -6.7882419E-02;  0.0000000E+00;  2.9199626E-03;  3.8996442E+02;
  4.2027511E-02;  9.9999998E-03; -9.9993506E-03;2719; -5.4173763E-03;  0.0000000E+00; -5.0237453E-05;  9.9787433E+02;  1.0000000E-01; -1.7610859E+03;3; -4.7856983E+01;  0.0000000E+00; -9.0808995E-02;0; -6.4993784E-02;  3.9835355E+04;  0.0000000E+00; -2.3723776E-04;  4.0000000E+04;  0.0000000E+00;  4.0002582E+04; -6.7925878E-02;  0.0000000E+00;  2.9320910E-03;  4.8017038E+02;
  4.2027038E-02;  9.9999998E-03;  7.3132687E-11;2720; -5.4228134E-03;  0.0000000E+00; -3.9980699E-11;  9.9787732E+02;  1.0000000E-01; -1.7586169E+03;3; -4.7774406E+01;  0.0000000E+00;  1.7117118E-05;0; -6.5004066E-02;  3.9835184E+04;  0.0000000E+00; -6.0725248E-13;  4.0000000E+04;  0.0000000E+00;  4.0002711E+04; -6.7940466E-02;  0.0000000E+00;  2.9364007E-03;  5.1272485E+02;
  4.2027514E-02;  9.9999998E-03;  9.9993506E-03;2721; -5.4173763E-03;  0.0000000E+00;  5.0237366E-05;  9.9787427E+02;  1.0000000E-01; -1.7611354E+03;3; -4.7856712E+01;  0.0000000E+00;  9.0832867E-02;0; -6.4993821E-02;  3.9835352E+04;  0.0000000E+00; -2.3719750E-04;  4.0000000E+04;  0.0000000E+00;  4.0002582E+04; -6.7925915E-02;  0.0000000E+00;  2.9320910E-03;  4.8017444E+02;
  4.2028792E-02;  9.9999998E-03;  1.9998930E-02;2722; -5.4014036E-03;  0.0000000E+00;  9.7319426E-05;  9.9787207E+02;  1.0000000E-01; -1.7629625E+03;3; -4.8110657E+01;  0.0000000E+00;  1.7666663E-01;0; -6.4962506E-02;  3.9835992E+04;  0.0000000E+00; -9.4112114E-04;  4.0000000E+04;  0.0000000E+00;  4.0001863E+04; -6.7882463E-02;  0.0000000E+00;  2.9199594E-03;  3.8996631E+02;
  4.2030577E-02;  9.9999998E-03;  2.9998835E-02;2723; -5.3759092E-03;  0.0000000E+00;  1.3880893E-04;  9.9786871E+02;  1.0000000E-01; -1.7657278E+03;3; -4.8460636E+01;  0.0000000E+00;  2.5269958E-01;0; -6.4908944E-02;  3.9836699E+04;  0.0000000E+00; -2.0911233E-03;  4.0000000E+04;  0.0000000E+00;  4.0001137E+04; -6.7811027E-02;  0.0000000E+00;  2.9020808E-03;  2.6322708E+02;
  4.2032346E-02;  9.9999998E-03;  3.9999083E-02;2724; -5.3426293E-03;  0.0000000E+00;  1.7376029E-04;  9.9786865E+02;  1.0000000E-01; -1.7657772E+03;3; -4.8829437E+01;  0.0000000E+00;  3.1561381E-01;0; -6.4831562E-02;  3.9837730E+04;  0.0000000E+00; -3.6594770E-03;  4.0000000E+04;  0.0000000E+00;  3.9999719E+04; -6.7712322E-02;  0.0000000E+00;  2.8807574E-03;  1.3034299E+02;
  4.2033587E-02;  9.9999998E-03;  4.9999684E-02;2725; -5.3040986E-03;  0.0000000E+00;  2.0298669E-04;  9.9787384E+02;  1.0000000E-01; -1.7614811E+03;3; -4.9120590E+01;  0.0000000E+00;  3.6313105E-01;0; -6.4729676E-02;  3.9838934E+04;  0.0000000E+00; -5.6220656E-03;  4.0000000E+04;  0.0000000E+00;  3.9999266E+04; -6.7586958E-02;  0.0000000E+00;  2.8572844E-03;  2.5499979E+01;
  4.2033713E-02;  9.9999998E-03;  6.0000546E-02;2726; -5.2636801E-03;  0.0000000E+00;  2.2915220E-04;  9.9788416E+02;  1.0000000E-01; -1.7529381E+03;3; -4.9243313E+01;  0.0000000E+00;  3.9416182E-01;0; -6.4603485E-02;  3.9840102E+04;  0.0000000E+00; -7.9991911E-03;  4.0000000E+04;  0.0000000E+00;  3.9998254E+04; -6.7434341E-02;  0.0000000E+00;  2.8308532E-03;  2.9046333E+01;
  5.1725391E-02;  9.9999998E-03; -1.0001089E-01;2771; -6.0619782E-03;  0.0000000E+00; -3.7615147E-04;  1.0005664E+03;  1.0000000E-01;  4.6922128E+02;3; -5.0910038E+01;  0.0000000E+00; -2.0016609E-01;0; -6.3258909E-02;  4.0053527E+04;  0.0000000E+00; -2.6887264E-02;  4.0000000E+04;  0.0000000E+00;  4.0003863E+04; -6.5980509E-02;  0.0000000E+00;  2.7216030E-03;  4.0530835E+02;
  5.1728766E-02;  9.9999998E-03; -9.0012103E-02;2772; -6.0725845E-03;  0.0000000E+00; -3.2979267E-04;  1.0005460E+03;  1.0000000E-01;  4.5233289E+02;3; -5.1484764E+01;  0.0000000E+00; -2.4322298E-01;0; -6.3474260E-02;  4.0053324E+04;  0.0000000E+00; -1.7649163E-02;  4.0000000E+04;  0.0000000E+00;  4.0001859E+04; -6.6301666E-02;  0.0000000E+00;  2.8274045E-03;  2.1216777E+02;
  5.1733211E-02;  9.9999998E-03; -8.0011338E-02;2773; -6.0958876E-03;  0.0000000E+00; -2.8995951E-04;  1.0005160E+03;  1.0000000E-01;  4.2744470E+02;3; -5.1957329E+01;  0.0000000E+00; -2.6354939E-01;0; -6.3663453E-02;  4.0052559E+04;  0.0000000E+00; -1.1757986E-02;  4.0000000E+04;  0.0000000E+00;  4.0000520E+04; -6.6566586E-02;  0.0000000E+00;  2.9031308E-03;  3.0915878E+01;
  5.1737193E-02;  9.9999998E-03; -7.0009187E-02;2774; -6.1296932E-03;  0.0000000E+00; -2.5667340E-04;  1.0004925E+03;  1.0000000E-01;  4.0798846E+02;3; -5.2288776E+01;  0.0000000E+00; -2.6666582E-01;0; -6.3831367E-02;  4.0051715E+04;  0.0000000E+00; -7.8450916E-03;  4.0000000E+04;  0.0000000E+00;  3.9999875E+04; -6.6785365E-02;  0.0000000E+00;  2.9539987E-03;  1.0604620E+02;
  5.1739927E-02;  9.9999998E-03; -6.0006682E-02;2775; -6.1701969E-03;  0.0000000E+00; -2.2778971E-04;  1.0004741E+03;  1.0000000E-01;  3.9277902E+02;3; -5.2417850E+01;  0.0000000E+00; -2.5597435E-01;0; -6.3978247E-02;  4.0050539E+04;  0.0000000E+00; -5.1248558E-03;  4.0000000E+04;  0.0000000E+00;  3.9999086E+04; -6.6965565E-02;  0.0000000E+00;  2.9873208E-03;  1.5686290E+02;
  5.1741213E-02;  9.9999998E-03; -5.0004382E-02;2776; -6.2131565E-03;  0.0000000E+00; -2.0032573E-04;  1.0004653E+03;  1.0000000E-01;  3.8547058E+02;3; -5.2356167E+01;  0.0000000E+00; -2.3416241E-01;0; -6.4102277E-02;  4.0049527E+04;  0.0000000E+00; -3.1948118E-03;  4.0000000E+04;  0.0000000E+00;  3.9999242E+04; -6.7112498E-02;  0.0000000E+00;  3.0102234E-03;  1.2368261E+02;
  5.1741373E-02;  9.9999998E-03; -4.0002499E-02;2777; -6.2543731E-03;  0.0000000E+00; -1.7052227E-04;  1.0004641E+03;  1.0000000E-01;  3.8448294E+02;3; -5.2142578E+01;  0.0000000E+00; -2.0194595E-01;0; -6.4201966E-02;  4.0048488E+04;  0.0000000E+00; -1.8464765E-03;  4.0000000E+04;  0.0000000E+00;  4.0000168E+04; -6.7229874E-02;  0.0000000E+00;  3.0279118E-03;  2.3419685E+01;
  5.1740788E-02;  9.9999998E-03; -3.0001137E-02;2778; -6.2901867E-03;  0.0000000E+00; -1.3588034E-04;  1.0004715E+03;  1.0000000E-01;  3.9060623E+02;3; -5.1860592E+01;  0.0000000E+00; -1.6076165E-01;0; -6.4277001E-02;  4.0048086E+04;  0.0000000E+00; -9.4687194E-04;  4.0000000E+04;  0.0000000E+00;  4.0001637E+04; -6.7319877E-02;  0.0000000E+00;  3.0428770E-03;  1.1249586E+02;
  5.1739935E-02;  9.9999998E-03; -2.0000357E-02;2779; -6.3177408E-03;  0.0000000E+00; -9.5338008E-05;  1.0004794E+03;  1.0000000E-01;  3.9712457E+02;3; -5.1577358E+01;  0.0000000E+00; -1.1218794E-01;0; -6.4328387E-02;  4.0047523E+04;  0.0000000E+00; -3.9055690E-04;  4.0000000E+04;  0.0000000E+00;  4.0002402E+04; -6.7383617E-02;  0.0000000E+00;  3.0552268E-03;  2.4578180E+02;
  5.1739261E-02;  9.9999998E-03; -1.0000049E-02;2780; -6.3350326E-03;  0.0000000E+00; -4.9358034E-05;  1.0004836E+03;  1.0000000E-01;  4.0068002E+02;3; -5.1365540E+01;  0.0000000E+00; -5.7873789E-02;0; -6.4358063E-02;  4.0047207E+04;  0.0000000E+00; -9.2992152E-05;  4.0000000E+04;  0.0000000E+00;  4.0002895E+04; -6.7421705E-02;  0.0000000E+00;  3.0636403E-03;  3.4192419E+02;
  5.1739018E-02;  9.9999998E-03;  5.5765496E-11;2781; -6.3409628E-03;  0.0000000E+00;  2.2444886E-10;  1.0004876E+03;  1.0000000E-01;  4.0393918E+02;3; -5.1296448E+01;  0.0000000E+00;  1.9353536E-05;0; -6.4367741E-02;  4.0047160E+04;  0.0000000E+00; -8.2039930E-13;  4.0000000E+04;  0.0000000E+00;  4.0003496E+04; -6.7434385E-02;  0.0000000E+00;  3.0666459E-03;  3.7684546E+02;
  5.1739261E-02;  9.9999998E-03;  1.0000049E-02;2782; -6.3350340E-03;  0.0000000E+00;  4.9358579E-05;  1.0004836E+03;  1.0000000E-01;  4.0068002E+02;3; -5.1365566E+01;  0.0000000E+00;  5.7906289E-02;0; -6.4358056E-02;  4.0047207E+04;  0.0000000E+00; -9.2924820E-05;  4.0000000E+04;  0.0000000E+00;  4.0002895E+04; -6.7421690E-02;  0.0000000E+00;  3.0636343E-03;  3.4192456E+02;
  5.1739939E-02;  9.9999998E-03;  2.0000357E-02;2783; -6.3177417E-03;  0.0000000E+00;  9.5337702E-05;  1.0004794E+03;  1.0000000E-01;  3.9712457E+02;3; -5.1577309E+01;  0.0000000E+00;  1.1221725E-01;0; -6.4328395E-02;  4.0047523E+04;  0.0000000E+00; -3.9050102E-04;  4.0000000E+04;  0.0000000E+00;  4.0002402E+04; -6.7383617E-02;  0.0000000E+00;  3.0552247E-03;  2.4579015E+02;
  5.1740788E-02;  9.9999998E-03;  3.0001137E-02;2784; -6.2901862E-03;  0.0000000E+00;  1.3587951E-04;  1.0004714E+03;  1.0000000E-01;  3.9060623E+02;3; -5.1860546E+01;  0.0000000E+00;  1.6078036E-01;0; -6.4276978E-02;  4.0048090E+04;  0.0000000E+00; -9.4666367E-04;  4.0000000E+04;  0.0000000E+00;  4.0001637E+04; -6.7319855E-02;  0.0000000E+00;  3.0428742E-03;  1.1250021E+02;
  5.1741373E-02;  9.9999998E-03;  4.0002499E-02;2785; -6.2543745E-03;  0.0000000E+00;  1.7052132E-04;  1.0004641E+03;  1.0000000E-01;  3.8448294E+02;3; -5.2142551E+01;  0.0000000E+00;  2.0198308E-01;0; -6.4202048E-02;  4.0048492E+04;  0.0000000E+00; -1.8461143E-03;  4.0000000E+04;  0.0000000E+00;  4.0000172E+04; -6.7229949E-02;  0.0000000E+00;  3.0279045E-03;  2.3402315E+01;
  5.1741213E-02;  9.9999998E-03;  5.0004382E-02;2786; -6.2131509E-03;  0.0000000E+00;  2.0032367E-04;  1.0004653E+03;  1.0000000E-01;  3.8547058E+02;3; -5.2356194E+01;  0.0000000E+00;  2.3416029E-01;0; -6.4102352E-02;  4.0049527E+04;  0.0000000E+00; -3.1943908E-03;  4.0000000E+04;  0.0000000E+00;  3.9999242E+04; -6.7112572E-02;  0.0000000E+00;  3.0102201E-03;  1.2367492E+02;
  5.1739931E-02;  9.9999998E-03;  6.0006682E-02;2787; -6.1701937E-03;  0.0000000E+00;  2.2778827E-04;  1.0004741E+03;  1.0000000E-01;  3.9277902E+02;3; -5.2417786E+01;  0.0000000E+00;  2.5598237E-01;0; -6.3978307E-02;  4.0050543E+04;  0.0000000E+00; -5.1244036E-03;  4.0000000E+04;  0.0000000E+00;  3.9999086E+04; -6.6965625E-02;  0.0000000E+00;  2.9873196E-03;  1.5685199E+02;
  6.1486665E-02;  9.9999998E-03; -1.0002562E-01;2832; -6.7840815E-03;  0.0000000E+00; -3.9035108E-04;  1.0023505E+03;  1.0000000E-01;  1.9474017E+03;3; -4.5209774E+01;  0.0000000E+00; -1.2937629E-01;0; -6.1687276E-02;  4.0198395E+04;  0.0000000E+00; -1.9175785E-02;  4.0000000E+04;  0.0000000E+00;  4.0006168E+04; -6.4468943E-02;  0.0000000E+00;  2.7816670E-03;  5.3932977E+02;
  6.1489198E-02;  9.9999998E-03; -9.0026200E-02;2833; -6.7949411E-03;  0.0000000E+00; -3.3630952E-04;  1.0023194E+03;  1.0000000E-01;  1.9216246E+03;3; -4.5692043E+01;  0.0000000E+00; -1.5671021E-01;0; -6.1892755E-02;  4.0198074E+04;  0.0000000E+00; -1.1286240E-02;  4.0000000E+04;  0.0000000E+00;  4.0003930E+04; -6.4800918E-02;  0.0000000E+00;  2.9081623E-03;  3.0432706E+02;
  6.1493196E-02;  9.9999998E-03; -8.0023631E-02;2834; -6.8186624E-03;  0.0000000E+00; -2.9028443E-04;  1.0022888E+03;  1.0000000E-01;  1.8962427E+03;3; -4.6120667E+01;  0.0000000E+00; -1.6905135E-01;0; -6.2077381E-02;  4.0197191E+04;  0.0000000E+00; -6.0664290E-03;  4.0000000E+04;  0.0000000E+00;  4.0002711E+04; -6.5074787E-02;  0.0000000E+00;  2.9974049E-03;  7.5577301E+01;
  6.1497305E-02;  9.9999998E-03; -7.0018865E-02;2835; -6.8530920E-03;  0.0000000E+00; -2.5249182E-04;  1.0022634E+03;  1.0000000E-01;  1.8752062E+03;3; -4.6421726E+01;  0.0000000E+00; -1.6925204E-01;0; -6.2243748E-02;  4.0196547E+04;  0.0000000E+00; -2.7544694E-03;  4.0000000E+04;  0.0000000E+00;  4.0000859E+04; -6.5298520E-02;  0.0000000E+00;  3.0547725E-03;  9.3701508E+01;
  6.1500557E-02;  9.9999998E-03; -6.0013514E-02;2836; -6.8945671E-03;  0.0000000E+00; -2.2121945E-04;  1.0022518E+03;  1.0000000E-01;  1.8656262E+03;3; -4.6567963E+01;  0.0000000E+00; -1.6085735E-01;0; -6.2390499E-02;  4.0195770E+04;  0.0000000E+00; -7.9345569E-04;  4.0000000E+04;  0.0000000E+00;  4.0000008E+04; -6.5479159E-02;  0.0000000E+00;  3.0886617E-03;  1.6998654E+02;
  6.1502598E-02;  9.9999998E-03; -5.0008763E-02;2837; -6.9387383E-03;  0.0000000E+00; -1.9298172E-04;  1.0022507E+03;  1.0000000E-01;  1.8647374E+03;3; -4.6548454E+01;  0.0000000E+00; -1.4567406E-01;0; -6.2514529E-02;  4.0195484E+04;  0.0000000E+00;  2.1322431E-04;  4.0000000E+04;  0.0000000E+00;  4.0000344E+04; -6.5622397E-02;  0.0000000E+00;  3.1078649E-03;  1.4875655E+02;
  6.1503436E-02;  9.9999998E-03; -4.0005032E-02;2838; -6.9812979E-03;  0.0000000E+00; -1.6368342E-04;  1.0022584E+03;  1.0000000E-01;  1.8710582E+03;3; -4.6398449E+01;  0.0000000E+00; -1.2465592E-01;0; -6.2613487E-02;  4.0195207E+04;  0.0000000E+00;  5.6468730E-04;  4.0000000E+04;  0.0000000E+00;  4.0001371E+04; -6.5732934E-02;  0.0000000E+00;  3.1194463E-03;  4.9052742E+01;
  6.1503395E-02;  9.9999998E-03; -3.0002523E-02;2839; -7.0184339E-03;  0.0000000E+00; -1.3059625E-04;  1.0022695E+03;  1.0000000E-01;  1.8802432E+03;3; -4.6172501E+01;  0.0000000E+00; -9.8609574E-02;0; -6.2687255E-02;  4.0195199E+04;  0.0000000E+00;  5.1668723E-04;  4.0000000E+04;  0.0000000E+00;  4.0002559E+04; -6.5814927E-02;  0.0000000E+00;  3.1276720E-03;  9.3182808E+01;
  6.1502986E-02;  9.9999998E-03; -2.0001080E-02;2840; -7.0471624E-03;  0.0000000E+00; -9.1775059E-05;  1.0022859E+03;  1.0000000E-01;  1.8937736E+03;3; -4.5956963E+01;  0.0000000E+00; -6.8559401E-02;0; -6.2737241E-02;  4.0195172E+04;  0.0000000E+00;  2.9587612E-04;  4.0000000E+04;  0.0000000E+00;  4.0003629E+04; -6.5871358E-02;  0.0000000E+00;  3.1341196E-03;  2.3541827E+02;
  6.1502580E-02;  9.9999998E-03; -1.0000394E-02;2841; -7.0652789E-03;  0.0000000E+00; -4.7531881E-05;  1.0022979E+03;  1.0000000E-01;  1.9037487E+03;3; -4.5799465E+01;  0.0000000E+00; -3.4872688E-02;0; -6.2765658E-02;  4.0195258E+04;  0.0000000E+00;  8.4198000E-05;  4.0000000E+04;  0.0000000E+00;  4.0004664E+04; -6.5904215E-02;  0.0000000E+00;  3.1385589E-03;  3.3876682E+02;
  6.1502412E-02;  9.9999998E-03;  2.9563837E-11;2842; -7.0714387E-03;  0.0000000E+00;  1.3343877E-10;  1.0023013E+03;  1.0000000E-01;  1.9066128E+03;3; -4.5739555E+01;  0.0000000E+00;  2.1276373E-05;0; -6.2775001E-02;  4.0195129E+04;  0.0000000E+00; -6.2487797E-13;  4.0000000E+04;  0.0000000E+00;  4.0004852E+04; -6.5915167E-02;  0.0000000E+00;  3.1401692E-03;  3.7641971E+02;
  6.1502580E-02;  9.9999998E-03;  1.0000394E-02;2843; -7.0652780E-03;  0.0000000E+00;  4.7532485E-05;  1.0022979E+03;  1.0000000E-01;  1.9037487E+03;3; -4.5799412E+01;  0.0000000E+00;  3.4912597E-02;0; -6.2765725E-02;  4.0195262E+04;  0.0000000E+00;  8.4224754E-05;  4.0000000E+04;  0.0000000E+00;  4.0004664E+04; -6.5904275E-02;  0.0000000E+00;  3.1385531E-03;  3.3876764E+02;
  6.1502986E-02;  9.9999998E-03;  2.0001080E-02;2844; -7.0471601E-03;  0.0000000E+00;  9.1775713E-05;  1.0022859E+03;  1.0000000E-01;  1.8937736E+03;3; -4.5956886E+01;  0.0000000E+00;  6.8594642E-02;0; -6.2737212E-02;  4.0195172E+04;  0.0000000E+00;  2.9606212E-04;  4.0000000E+04;  0.0000000E+00;  4.0003629E+04; -6.5871328E-02;  0.0000000E+00;  3.1341128E-03;  2.3543204E+02;
  6.1503395E-02;  9.9999998E-03;  3.0002523E-02;2845; -7.0184339E-03;  0.0000000E+00;  1.3059669E-04;  1.0022695E+03;  1.0000000E-01;  1.8802432E+03;3; -4.6172470E+01;  0.0000000E+00;  9.8638989E-02;0; -6.2687248E-02;  4.0195199E+04;  0.0000000E+00;  5.1698263E-04;  4.0000000E+04;  0.0000000E+00;  4.0002559E+04; -6.5814920E-02;  0.0000000E+00;  3.1276692E-03;  9.3193443E+01;
  6.1503436E-02;  9.9999998E-03;  4.0005032E-02;2846; -6.9812937E-03;  0.0000000E+00;  1.6368425E-04;  1.0022584E+03;  1.0000000E-01;  1.8710582E+03;3; -4.6398155E+01;  0.0000000E+00;  1.2467098E-01;0; -6.2613539E-02;  4.0195207E+04;  0.0000000E+00;  5.6493393E-04;  4.0000000E+04;  0.0000000E+00;  4.0001371E+04; -6.5732978E-02;  0.0000000E+00;  3.1194373E-03;  4.9043480E+01;
  6.1502598E-02;  9.9999998E-03;  5.0008763E-02;2847; -6.9387420E-03;  0.0000000E+00;  1.9298198E-04;  1.0022507E+03;  1.0000000E-01;  1.8647374E+03;3; -4.6548386E+01;  0.0000000E+00;  1.4571154E-01;0; -6.2514491E-02;  4.0195488E+04;  0.0000000E+00;  2.1355069E-04;  4.0000000E+04;  0.0000000E+00;  4.0000344E+04; -6.5622352E-02;  0.0000000E+00;  3.1078602E-03;  1.4874696E+02;
  6.1500557E-02;  9.9999998E-03;  6.0013514E-02;2848; -6.8945657E-03;  0.0000000E+00;  2.2122047E-04;  1.0022518E+03;  1.0000000E-01;  1.8655275E+03;3; -4.6567924E+01;  0.0000000E+00;  1.6087911E-01;0; -6.2390577E-02;  4.0195773E+04;  0.0000000E+00; -7.9268345E-04;  4.0000000E+04;  0.0000000E+00;  4.0000008E+04; -6.5479234E-02;  0.0000000E+00;  3.0886584E-03;  1.6996729E+02;
  7.1314737E-02;  9.9999998E-03; -1.0004191E-01;2893; -7.3443847E-03;  0.0000000E+00; -3.9663128E-04;  1.0032847E+03;  1.0000000E-01;  2.7213057E+03;3; -3.5043148E+01;  0.0000000E+00; -8.3003283E-02;0; -5.9500117E-02;  4.0274176E+04;  0.0000000E+00; -1.0421694E-02;  4.0000000E+04;  0.0000000E+00;  4.0008605E+04; -6.2282577E-02;  0.0000000E+00;  2.7824608E-03;  7.6847906E+02;
  7.1315005E-02;  9.9999998E-03; -9.0041228E-02;2894; -7.3560136E-03;  0.0000000E+00; -3.3597692E-04;  1.0032497E+03;  1.0000000E-01;  2.6922695E+03;3; -3.5432739E+01;  0.0000000E+00; -1.0016154E-01;0; -5.9700880E-02;  4.0273449E+04;  0.0000000E+00; -4.2617586E-03;  4.0000000E+04;  0.0000000E+00;  4.0006223E+04; -6.2630162E-02;  0.0000000E+00;  2.9292824E-03;  4.9602725E+02;
  7.1317479E-02;  9.9999998E-03; -8.0036066E-02;2895; -7.3799379E-03;  0.0000000E+00; -2.8452944E-04;  1.0032175E+03;  1.0000000E-01;  2.6657024E+03;3; -3.5780613E+01;  0.0000000E+00; -1.0681679E-01;0; -5.9885681E-02;  4.0272777E+04;  0.0000000E+00; -1.2071223E-04;  4.0000000E+04;  0.0000000E+00;  4.0004352E+04; -6.2917829E-02;  0.0000000E+00;  3.0321465E-03;  2.2955923E+02;
  7.1320705E-02;  9.9999998E-03; -7.0028037E-02;2896; -7.4141966E-03;  0.0000000E+00; -2.4353311E-04;  1.0031980E+03;  1.0000000E-01;  2.6495054E+03;3; -3.6035172E+01;  0.0000000E+00; -1.0590318E-01;0; -6.0054619E-02;  4.0272750E+04;  0.0000000E+00;  2.2475526E-03;  4.0000000E+04;  0.0000000E+00;  4.0002664E+04; -6.3151039E-02;  0.0000000E+00;  3.0964219E-03;  3.1604620E+01;
  7.1323663E-02;  9.9999998E-03; -6.0019448E-02;2897; -7.4554253E-03;  0.0000000E+00; -2.1100255E-04;  1.0031951E+03;  1.0000000E-01;  2.6471350E+03;3; -3.6165974E+01;  0.0000000E+00; -9.9213742E-02;0; -6.0204297E-02;  4.0272977E+04;  0.0000000E+00;  3.2203239E-03;  4.0000000E+04;  0.0000000E+00;  4.0001906E+04; -6.3335732E-02;  0.0000000E+00;  3.1314334E-03;  6.2290520E+01;
  7.1325742E-02;  9.9999998E-03; -5.0012093E-02;2898; -7.4994690E-03;  0.0000000E+00; -1.8270555E-04;  1.0032039E+03;  1.0000000E-01;  2.6543447E+03;3; -3.6163330E+01;  0.0000000E+00; -8.8816091E-02;0; -6.0330506E-02;  4.0273508E+04;  0.0000000E+00;  3.2090843E-03;  4.0000000E+04;  0.0000000E+00;  4.0002059E+04; -6.3478030E-02;  0.0000000E+00;  3.1475252E-03;  4.5921089E+01;
  7.1326904E-02;  9.9999998E-03; -4.0006727E-02;2899; -7.5420965E-03;  0.0000000E+00; -1.5497835E-04;  1.0032268E+03;  1.0000000E-01;  2.6733071E+03;3; -3.6065891E+01;  0.0000000E+00; -7.5073309E-02;0; -6.0430493E-02;  4.0274238E+04;  0.0000000E+00;  2.5958589E-03;  4.0000000E+04;  0.0000000E+00;  4.0002328E+04; -6.3584022E-02;  0.0000000E+00;  3.1535286E-03;  5.8798069E+01;
  7.1327306E-02;  9.9999998E-03; -3.0003276E-02;2900; -7.5794421E-03;  0.0000000E+00; -1.2391077E-04;  1.0032508E+03;  1.0000000E-01;  2.6932571E+03;3; -3.5905224E+01;  0.0000000E+00; -5.8753762E-02;0; -6.0504131E-02;  4.0274984E+04;  0.0000000E+00;  1.7127189E-03;  4.0000000E+04;  0.0000000E+00;  4.0004051E+04; -6.3659571E-02;  0.0000000E+00;  3.1554382E-03;  2.1080307E+02;
  7.1327291E-02;  9.9999998E-03; -2.0001356E-02;2901; -7.6084188E-03;  0.0000000E+00; -8.7234410E-05;  1.0032757E+03;  1.0000000E-01;  2.7138984E+03;3; -3.5745186E+01;  0.0000000E+00; -4.0297829E-02;0; -6.0553327E-02;  4.0275598E+04;  0.0000000E+00;  8.4571860E-04;  4.0000000E+04;  0.0000000E+00;  4.0005309E+04; -6.3709602E-02;  0.0000000E+00;  3.1562764E-03;  3.6369348E+02;
  7.1327142E-02;  9.9999998E-03; -1.0000431E-02;2902; -7.6267230E-03;  0.0000000E+00; -4.5223558E-05;  1.0032936E+03;  1.0000000E-01;  2.7287129E+03;3; -3.5628254E+01;  0.0000000E+00; -2.0557964E-02;0; -6.0580969E-02;  4.0276078E+04;  0.0000000E+00;  2.2453532E-04;  4.0000000E+04;  0.0000000E+00;  4.0006387E+04; -6.3737869E-02;  0.0000000E+00;  3.1568985E-03;  4.7495435E+02;
  7.1327060E-02;  9.9999998E-03; -3.0712689E-11;2903; -7.6329950E-03;  0.0000000E+00;  4.5336138E-10;  1.0033005E+03;  1.0000000E-01;  2.7343425E+03;3; -3.5586494E+01;  0.0000000E+00;  9.4865336E-06;0; -6.0589939E-02;  4.0276168E+04;  0.0000000E+00; -4.9716210E-13;  4.0000000E+04;  0.0000000E+00;  4.0006727E+04; -6.3747108E-02;  0.0000000E+00;  3.1571689E-03;  5.1549573E+02;
  7.1327142E-02;  9.9999998E-03;  1.0000431E-02;2904; -7.6267258E-03;  0.0000000E+00;  4.5224344E-05;  1.0032936E+03;  1.0000000E-01;  2.7287129E+03;3; -3.5628342E+01;  0.0000000E+00;  2.0609673E-02;0; -6.0580984E-02;  4.0276082E+04;  0.0000000E+00;  2.2463352E-04;  4.0000000E+04;  0.0000000E+00;  4.0006387E+04; -6.3737884E-02;  0.0000000E+00;  3.1568990E-03;  4.7495999E+02;
  7.1327291E-02;  9.9999998E-03;  2.0001356E-02;2905; -7.6084188E-03;  0.0000000E+00;  8.7236520E-05;  1.0032757E+03;  1.0000000E-01;  2.7138984E+03;3; -3.5745144E+01;  0.0000000E+00;  4.0335596E-02;0; -6.0553346E-02;  4.0275602E+04;  0.0000000E+00;  8.4587024E-04;  4.0000000E+04;  0.0000000E+00;  4.0005312E+04; -6.3709617E-02;  0.0000000E+00;  3.1562718E-03;  3.6370633E+02;
  7.1327306E-02;  9.9999998E-03;  3.0003276E-02;2906; -7.5794468E-03;  0.0000000E+00;  1.2390967E-04;  1.0032509E+03;  1.0000000E-01;  2.6932571E+03;3; -3.5905190E+01;  0.0000000E+00;  5.8783256E-02;0; -6.0504176E-02;  4.0274984E+04;  0.0000000E+00;  1.7130090E-03;  4.0000000E+04;  0.0000000E+00;  4.0004051E+04; -6.3659608E-02;  0.0000000E+00;  3.1554336E-03;  2.1081105E+02;
  7.1326904E-02;  9.9999998E-03;  4.0006727E-02;2907; -7.5420975E-03;  0.0000000E+00;  1.5497852E-04;  1.0032267E+03;  1.0000000E-01;  2.6733071E+03;3; -3.6065651E+01;  0.0000000E+00;  7.5101741E-02;0; -6.0430586E-02;  4.0274238E+04;  0.0000000E+00;  2.5964265E-03;  4.0000000E+04;  0.0000000E+00;  4.0002328E+04; -6.3584112E-02;  0.0000000E+00;  3.1535237E-03;  5.8816128E+01;
  7.1325742E-02;  9.9999998E-03;  5.0012093E-02;2908; -7.4994718E-03;  0.0000000E+00;  1.8270565E-04;  1.0032039E+03;  1.0000000E-01;  2.6543447E+03;3; -3.6163326E+01;  0.0000000E+00;  8.8818945E-02;0; -6.0330544E-02;  4.0273512E+04;  0.0000000E+00;  3.2091441E-03;  4.0000000E+04;  0.0000000E+00;  4.0002059E+04; -6.3478060E-02;  0.0000000E+00;  3.1475169E-03;  4.5914539E+01;
  7.1323656E-02;  9.9999998E-03;  6.0019448E-02;2909; -7.4554300E-03;  0.0000000E+00;  2.1100472E-04;  1.0031952E+03;  1.0000000E-01;  2.6471350E+03;3; -3.6165951E+01;  0.0000000E+00;  9.9228479E-02;0; -6.0204353E-02;  4.0272977E+04;  0.0000000E+00;  3.2200774E-03;  4.0000000E+04;  0.0000000E+00;  4.0001906E+04; -6.3335784E-02;  0.0000000E+00;  3.1314297E-03;  6.2272751E+01;
  8.1217639E-02;  9.9999998E-03; -1.0005480E-01;2954; -7.7834427E-03;  0.0000000E+00; -3.9482152E-04;  1.0034608E+03;  1.0000000E-01;  2.8671782E+03;3; -2.4143429E+01;  0.0000000E+00; -5.5220444E-02;0; -5.7097740E-02;  4.0287043E+04;  0.0000000E+00; -4.2339023E-03;  4.0000000E+04;  0.0000000E+00;  4.0011359E+04; -5.9820794E-02;  0.0000000E+00;  2.7230547E-03;  1.0743832E+03;
  8.1216514E-02;  9.9999998E-03; -9.0052165E-02;2955; -7.7966014E-03;  0.0000000E+00; -3.2945914E-04;  1.0034213E+03;  1.0000000E-01;  2.8344878E+03;3; -2.4428169E+01;  0.0000000E+00; -6.4906731E-02;0; -5.7300337E-02;  4.0286109E+04;  0.0000000E+00; -5.8466953E-06;  4.0000000E+04;  0.0000000E+00;  4.0008738E+04; -6.0189731E-02;  0.0000000E+00;  2.8893948E-03;  7.7194415E+02;
  8.1217825E-02;  9.9999998E-03; -8.0043957E-02;2956; -7.8207972E-03;  0.0000000E+00; -2.7422485E-04;  1.0033970E+03;  1.0000000E-01;  2.8143401E+03;3; -2.4693380E+01;  0.0000000E+00; -6.8070404E-02;0; -5.7490699E-02;  4.0286227E+04;  0.0000000E+00;  2.9555834E-03;  4.0000000E+04;  0.0000000E+00;  4.0006430E+04; -6.0496591E-02;  0.0000000E+00;  3.0058918E-03;  4.7707648E+02;
  8.1220448E-02;  9.9999998E-03; -7.0032440E-02;2957; -7.8545241E-03;  0.0000000E+00; -2.3103501E-04;  1.0033906E+03;  1.0000000E-01;  2.8091057E+03;3; -2.4891325E+01;  0.0000000E+00; -6.6019848E-02;0; -5.7666395E-02;  4.0287055E+04;  0.0000000E+00;  4.4870414E-03;  4.0000000E+04;  0.0000000E+00;  4.0004145E+04; -6.0744125E-02;  0.0000000E+00;  3.0777298E-03;  2.5889520E+02;
  8.1223138E-02;  9.9999998E-03; -6.0020618E-02;2958; -7.8946603E-03;  0.0000000E+00; -1.9779992E-04;  1.0033992E+03;  1.0000000E-01;  2.8161179E+03;3; -2.4991522E+01;  0.0000000E+00; -6.0873847E-02;0; -5.7822134E-02;  4.0288543E+04;  0.0000000E+00;  4.7937753E-03;  4.0000000E+04;  0.0000000E+00;  4.0003707E+04; -6.0937122E-02;  0.0000000E+00;  3.1149860E-03;  1.5653418E+02;
  8.1225410E-02;  9.9999998E-03; -5.0011136E-02;2959; -7.9375105E-03;  0.0000000E+00; -1.7088476E-04;  1.0034271E+03;  1.0000000E-01;  2.8392283E+03;3; -2.5002068E+01;  0.0000000E+00; -5.3501442E-02;0; -5.7952575E-02;  4.0290344E+04;  0.0000000E+00;  4.2447667E-03;  4.0000000E+04;  0.0000000E+00;  4.0003867E+04; -6.1081871E-02;  0.0000000E+00;  3.1292953E-03;  1.7427843E+02;
  8.1227064E-02;  9.9999998E-03; -4.0004928E-02;2960; -7.9790270E-03;  0.0000000E+00; -1.4493617E-04;  1.0034642E+03;  1.0000000E-01;  2.8700422E+03;3; -2.4936913E+01;  0.0000000E+00; -4.4558723E-02;0; -5.8054801E-02;  4.0292367E+04;  0.0000000E+00;  3.2233174E-03;  4.0000000E+04;  0.0000000E+00;  4.0005016E+04; -6.1185867E-02;  0.0000000E+00;  3.1310658E-03;  2.8696585E+02;
  8.1228107E-02;  9.9999998E-03; -3.0001769E-02;2961; -8.0154398E-03;  0.0000000E+00; -1.1599237E-04;  1.0035028E+03;  1.0000000E-01;  2.9020413E+03;3; -2.4828465E+01;  0.0000000E+00; -3.4073371E-02;0; -5.8128893E-02;  4.0294016E+04;  0.0000000E+00;  2.0518627E-03;  4.0000000E+04;  0.0000000E+00;  4.0005883E+04; -6.1256737E-02;  0.0000000E+00;  3.1278422E-03;  4.5043326E+02;
  8.1228644E-02;  9.9999998E-03; -2.0000594E-02;2962; -8.0437576E-03;  0.0000000E+00; -8.1955877E-05;  1.0035353E+03;  1.0000000E-01;  2.9290037E+03;3; -2.4714373E+01;  0.0000000E+00; -2.3309028E-02;0; -5.8177531E-02;  4.0295414E+04;  0.0000000E+00;  9.9404808E-04;  4.0000000E+04;  0.0000000E+00;  4.0007383E+04; -6.1301511E-02;  0.0000000E+00;  3.1239816E-03;  6.1413873E+02;
  8.1228957E-02;  9.9999998E-03; -1.0000257E-02;2963; -8.0617014E-03;  0.0000000E+00; -4.2741085E-05;  1.0035604E+03;  1.0000000E-01;  2.9497437E+03;3; -2.4634193E+01;  0.0000000E+00; -1.1867994E-02;0; -5.8204498E-02;  4.0296285E+04;  0.0000000E+00;  2.6159422E-04;  4.0000000E+04;  0.0000000E+00;  4.0008305E+04; -6.1325863E-02;  0.0000000E+00;  3.1213665E-03;  7.3294385E+02;
  8.1229053E-02;  9.9999998E-03; -1.1211829E-11;2964; -8.0678212E-03;  0.0000000E+00;  4.7695575E-10;  1.0035693E+03;  1.0000000E-01;  2.9570522E+03;3; -2.4604668E+01;  0.0000000E+00;  1.8480205E-05;0; -5.8213130E-02;  4.0296559E+04;  0.0000000E+00;  4.4158609E-13;  4.0000000E+04;  0.0000000E+00;  4.0008949E+04; -6.1333604E-02;  0.0000000E+00;  3.1204748E-03;  7.7612689E+02;
  8.1228957E-02;  9.9999998E-03;  1.0000257E-02;2965; -8.0617024E-03;  0.0000000E+00;  4.2741565E-05;  1.0035604E+03;  1.0000000E-01;  2.9497437E+03;3; -2.4634171E+01;  0.0000000E+00;  1.1913166E-02;0; -5.8204520E-02;  4.0296285E+04;  0.0000000E+00;  2.6176649E-04;  4.0000000E+04;  0.0000000E+00;  4.0008305E+04; -6.1325882E-02;  0.0000000E+00;  3.1213607E-03;  7.3295093E+02;
  8.1228644E-02;  9.9999998E-03;  2.0000594E-02;2966; -8.0437604E-03;  0.0000000E+00;  8.1954771E-05;  1.0035353E+03;  1.0000000E-01;  2.9290037E+03;3; -2.4714380E+01;  0.0000000E+00;  2.3322467E-02;0; -5.8177572E-02;  4.0295414E+04;  0.0000000E+00;  9.9431630E-04;  4.0000000E+04;  0.0000000E+00;  4.0007383E+04; -6.1301548E-02;  0.0000000E+00;  3.1239754E-03;  6.1414728E+02;
  8.1228107E-02;  9.9999998E-03;  3.0001769E-02;2967; -8.0154426E-03;  0.0000000E+00;  1.1599239E-04;  1.0035028E+03;  1.0000000E-01;  2.9020413E+03;3; -2.4828451E+01;  0.0000000E+00;  3.4117524E-02;0; -5.8128949E-02;  4.0294016E+04;  0.0000000E+00;  2.0521944E-03;  4.0000000E+04;  0.0000000E+00;  4.0005883E+04; -6.1256785E-02;  0.0000000E+00;  3.1278341E-03;  4.5044073E+02;
  8.1227064E-02;  9.9999998E-03;  4.0004928E-02;2968; -7.9790326E-03;  0.0000000E+00;  1.4493463E-04;  1.0034644E+03;  1.0000000E-01;  2.8701411E+03;3; -2.4937077E+01;  0.0000000E+00;  4.4506043E-02;0; -5.8054842E-02;  4.0292371E+04;  0.0000000E+00;  3.2235205E-03;  4.0000000E+04;  0.0000000E+00;  4.0005016E+04; -6.1185904E-02;  0.0000000E+00;  3.1310613E-03;  2.8697714E+02;
  8.1225410E-02;  9.9999998E-03;  5.0011136E-02;2969; -7.9375161E-03;  0.0000000E+00;  1.7088908E-04;  1.0034270E+03;  1.0000000E-01;  2.8392283E+03;3; -2.5001898E+01;  0.0000000E+00;  5.3572029E-02;0; -5.7952609E-02;  4.0290336E+04;  0.0000000E+00;  4.2455941E-03;  4.0000000E+04;  0.0000000E+00;  4.0003867E+04; -6.1081894E-02;  0.0000000E+00;  3.1292848E-03;  1.7429810E+02;
  8.1223138E-02;  9.9999998E-03;  6.0020618E-02;2970; -7.8946678E-03;  0.0000000E+00;  1.9780078E-04;  1.0033991E+03;  1.0000000E-01;  2.8161179E+03;3; -2.4991423E+01;  0.0000000E+00;  6.0909078E-02;0; -5.7822134E-02;  4.0288547E+04;  0.0000000E+00;  4.7947126E-03;  4.0000000E+04;  0.0000000E+00;  4.0003707E+04; -6.0937110E-02;  0.0000000E+00;  3.1149748E-03;  1.5654045E+02;
  9.1197312E-02;  9.9999998E-03; -1.0006032E-01;3015; -8.1505226E-03;  0.0000000E+00; -3.8327035E-04;  1.0030502E+03;  1.0000000E-01;  2.5270396E+03;3; -1.4847009E+01;  0.0000000E+00; -3.8575351E-02;0; -5.4866150E-02;  4.0250602E+04;  0.0000000E+00; -4.1966853E-03;  4.0000000E+04;  0.0000000E+00;  4.0013926E+04; -5.7471946E-02;  0.0000000E+00;  2.6057947E-03;  1.4293099E+03;
  9.1200173E-02;  9.9999998E-03; -9.0054423E-02;3016; -8.1663411E-03;  0.0000000E+00; -3.1659688E-04;  1.0030173E+03;  1.0000000E-01;  2.4997812E+03;3; -1.5039376E+01;  0.0000000E+00; -4.3370228E-02;0; -5.5077147E-02;  4.0250246E+04;  0.0000000E+00; -1.7369009E-03;  4.0000000E+04;  0.0000000E+00;  4.0010887E+04; -5.7867471E-02;  0.0000000E+00;  2.7903260E-03;  1.1066925E+03;
  9.1204554E-02;  9.9999998E-03; -8.0041841E-02;3017; -8.1913536E-03;  0.0000000E+00; -2.5919545E-04;  1.0030018E+03;  1.0000000E-01;  2.4869419E+03;3; -1.5217154E+01;  0.0000000E+00; -4.4236422E-02;0; -5.5278122E-02;  4.0251277E+04;  0.0000000E+00;  4.4812274E-04;  4.0000000E+04;  0.0000000E+00;  4.0008500E+04; -5.8198389E-02;  0.0000000E+00;  2.9202679E-03;  7.9364874E+02;
  9.1209389E-02;  9.9999998E-03; -7.0025980E-02;3018; -8.2244864E-03;  0.0000000E+00; -2.1542535E-04;  1.0030063E+03;  1.0000000E-01;  2.4906951E+03;3; -1.5348600E+01;  0.0000000E+00; -4.1771520E-02;0; -5.5464115E-02;  4.0253477E+04;  0.0000000E+00;  1.8329411E-03;  4.0000000E+04;  0.0000000E+00;  4.0006766E+04; -5.8464587E-02;  0.0000000E+00;  3.0004729E-03;  5.6430957E+02;
  9.1213889E-02;  9.9999998E-03; -6.0010698E-02;3019; -8.2631493E-03;  0.0000000E+00; -1.8330388E-04;  1.0030350E+03;  1.0000000E-01;  2.5144968E+03;3; -1.5420670E+01;  0.0000000E+00; -3.7697461E-02;0; -5.5628087E-02;  4.0256367E+04;  0.0000000E+00;  2.3858482E-03;  4.0000000E+04;  0.0000000E+00;  4.0006121E+04; -5.8669571E-02;  0.0000000E+00;  3.0414851E-03;  4.5936884E+02;
  9.1217510E-02;  9.9999998E-03; -4.9999837E-02;3020; -8.3038695E-03;  0.0000000E+00; -1.5779110E-04;  1.0030824E+03;  1.0000000E-01;  2.5537056E+03;3; -1.5432067E+01;  0.0000000E+00; -3.2207947E-02;0; -5.5764016E-02;  4.0259641E+04;  0.0000000E+00;  2.3062271E-03;  4.0000000E+04;  0.0000000E+00;  4.0006066E+04; -5.8819957E-02;  0.0000000E+00;  3.0559401E-03;  4.8171643E+02;
  9.1220170E-02;  9.9999998E-03; -3.9994799E-02;3021; -8.3431825E-03;  0.0000000E+00; -1.3392614E-04;  1.0031376E+03;  1.0000000E-01;  2.5994326E+03;3; -1.5393520E+01;  0.0000000E+00; -2.6283126E-02;0; -5.5868924E-02;  4.0262742E+04;  0.0000000E+00;  1.8461893E-03;  4.0000000E+04;  0.0000000E+00;  4.0007062E+04; -5.8924429E-02;  0.0000000E+00;  3.0555069E-03;  6.0322253E+02;
  9.1221921E-02;  9.9999998E-03; -2.9994326E-02;3022; -8.3776833E-03;  0.0000000E+00; -1.0759791E-04;  1.0031931E+03;  1.0000000E-01;  2.6453572E+03;3; -1.5327415E+01;  0.0000000E+00; -2.0322695E-02;0; -5.5943601E-02;  4.0265855E+04;  0.0000000E+00;  1.2222856E-03;  4.0000000E+04;  0.0000000E+00;  4.0008801E+04; -5.8992606E-02;  0.0000000E+00;  3.0490048E-03;  7.7663623E+02;
  9.1222987E-02;  9.9999998E-03; -1.9996079E-02;3023; -8.4045222E-03;  0.0000000E+00; -7.6063952E-05;  1.0032358E+03;  1.0000000E-01;  2.6808130E+03;3; -1.5255054E+01;  0.0000000E+00; -1.3555136E-02;0; -5.5991657E-02;  4.0267938E+04;  0.0000000E+00;  6.0993253E-04;  4.0000000E+04;  0.0000000E+00;  4.0010379E+04; -5.9033573E-02;  0.0000000E+00;  3.0419151E-03;  9.4903284E+02;
  9.1223657E-02;  9.9999998E-03; -9.9983113E-03;3024; -8.4215151E-03;  0.0000000E+00; -3.9634415E-05;  1.0032670E+03;  1.0000000E-01;  2.7065901E+03;3; -1.5203727E+01;  0.0000000E+00; -6.7365272E-03;0; -5.6017902E-02;  4.0269266E+04;  0.0000000E+00;  1.6356993E-04;  4.0000000E+04;  0.0000000E+00;  4.0010586E+04; -5.9054893E-02;  0.0000000E+00;  3.0369896E-03;  1.0736373E+03;
  9.1223963E-02;  9.9999998E-03;  8.9835757E-11;3025; -8.4273219E-03;  0.0000000E+00; -7.1418405E-10;  1.0032792E+03;  1.0000000E-01;  2.7167627E+03;3; -1.5185902E+01;  0.0000000E+00;  9.2305763E-06;0; -5.6026112E-02;  4.0269852E+04;  0.0000000E+00; -3.8415048E-13;  4.0000000E+04;  0.0000000E+00;  4.0010977E+04; -5.9061386E-02;  0.0000000E+00;  3.0352734E-03;  1.1188514E+03;
  9.1223657E-02;  9.9999998E-03;  9.9983122E-03;3026; -8.4215179E-03;  0.0000000E+00;  3.9635303E-05;  1.0032670E+03;  1.0000000E-01;  2.7065901E+03;3; -1.5203753E+01;  0.0000000E+00;  6.7615826E-03;0; -5.6017876E-02;  4.0269266E+04;  0.0000000E+00;  1.6375608E-04;  4.0000000E+04;  0.0000000E+00;  4.0010586E+04; -5.9054866E-02;  0.0000000E+00;  3.0369889E-03;  1.0736420E+03;
  9.1222987E-02;  9.9999998E-03;  1.9996079E-02;3027; -8.4045231E-03;  0.0000000E+00;  7.6063588E-05;  1.0032358E+03;  1.0000000E-01;  2.6808130E+03;3; -1.5255060E+01;  0.0000000E+00;  1.3554300E-02;0; -5.5991720E-02;  4.0267945E+04;  0.0000000E+00;  6.1031233E-04;  4.0000000E+04;  0.0000000E+00;  4.0010379E+04; -5.9033629E-02;  0.0000000E+00;  3.0419086E-03;  9.4904315E+02;
  9.1221921E-02;  9.9999998E-03;  2.9994326E-02;3028; -8.3776880E-03;  0.0000000E+00;  1.0759952E-04;  1.0031931E+03;  1.0000000E-01;  2.6453572E+03;3; -1.5327448E+01;  0.0000000E+00;  2.0384816E-02;0; -5.5943597E-02;  4.0265852E+04;  0.0000000E+00;  1.2228051E-03;  4.0000000E+04;  0.0000000E+00;  4.0008801E+04; -5.8992594E-02;  0.0000000E+00;  3.0489981E-03;  7.7664728E+02;
  9.1220170E-02;  9.9999998E-03;  3.9994799E-02;3029; -8.3431881E-03;  0.0000000E+00;  1.3392398E-04;  1.0031376E+03;  1.0000000E-01;  2.5994326E+03;3; -1.5393441E+01;  0.0000000E+00;  2.6311785E-02;0; -5.5868905E-02;  4.0262734E+04;  0.0000000E+00;  1.8472829E-03;  4.0000000E+04;  0.0000000E+00;  4.0007062E+04; -5.8924407E-02;  0.0000000E+00;  3.0555013E-03;  6.0323700E+02;
  9.1217510E-02;  9.9999998E-03;  4.9999837E-02;3030; -8.3038742E-03;  0.0000000E+00;  1.5779136E-04;  1.0030824E+03;  1.0000000E-01;  2.5537056E+03;3; -1.5432078E+01;  0.0000000E+00;  3.2198168E-02;0; -5.5764072E-02;  4.0259637E+04;  0.0000000E+00;  2.3061708E-03;  4.0000000E+04;  0.0000000E+00;  4.0006066E+04; -5.8820002E-02;  0.0000000E+00;  3.0559290E-03;  4.8172391E+02;
  9.1213882E-02;  9.9999998E-03;  6.0010698E-02;3031; -8.2631549E-03;  0.0000000E+00;  1.8330070E-04;  1.0030350E+03;  1.0000000E-01;  2.5144968E+03;3; -1.5420692E+01;  0.0000000E+00;  3.7620291E-02;0; -5.5628125E-02;  4.0256367E+04;  0.0000000E+00;  2.3867553E-03;  4.0000000E+04;  0.0000000E+00;  4.0006121E+04; -5.8669601E-02;  0.0000000E+00;  3.0414744E-03;  4.5937039E+02;
  1.0122395E-01;  9.9999998E-03; -1.0005033E-01;3076; -8.4929653E-03;  0.0000000E+00; -3.6131887E-04;  1.0022704E+03;  1.0000000E-01;  1.8810332E+03;3; -8.1063824E+00;  0.0000000E+00; -2.8016692E-02;0; -5.3119775E-02;  4.0183438E+04;  0.0000000E+00; -1.2326904E-02;  4.0000000E+04;  0.0000000E+00;  4.0016051E+04; -5.5557206E-02;  0.0000000E+00;  2.4374297E-03;  1.7988556E+03;
  1.0123713E-01;  9.9999998E-03; -9.0036392E-02;3077; -8.5129766E-03;  0.0000000E+00; -2.9610426E-04;  1.0022484E+03;  1.0000000E-01;  1.8627621E+03;3; -8.2207079E+00;  0.0000000E+00; -3.0290255E-02;0; -5.3346325E-02;  4.0183945E+04;  0.0000000E+00; -1.0899988E-02;  4.0000000E+04;  0.0000000E+00;  4.0013293E+04; -5.5984609E-02;  0.0000000E+00;  2.6382846E-03;  1.4663138E+03;
  1.0125194E-01;  9.9999998E-03; -8.0014095E-02;3078; -8.5396776E-03;  0.0000000E+00; -2.4036440E-04;  1.0022491E+03;  1.0000000E-01;  1.8633547E+03;3; -8.3263617E+00;  0.0000000E+00; -2.9107882E-02;0; -5.3562686E-02;  4.0186113E+04;  0.0000000E+00; -8.4988847E-03;  4.0000000E+04;  0.0000000E+00;  4.0010832E+04; -5.6343749E-02;  0.0000000E+00;  2.7810652E-03;  1.1441266E+03;
  1.0126683E-01;  9.9999998E-03; -6.9988810E-02;3079; -8.5726846E-03;  0.0000000E+00; -1.9829784E-04;  1.0022732E+03;  1.0000000E-01;  1.8833048E+03;3; -8.4043598E+00;  0.0000000E+00; -2.6615275E-02;0; -5.3761661E-02;  4.0189719E+04;  0.0000000E+00; -6.0621323E-03;  4.0000000E+04;  0.0000000E+00;  4.0009223E+04; -5.6631897E-02;  0.0000000E+00;  2.8702337E-03;  9.0984027E+02;
  1.0127924E-01;  9.9999998E-03; -5.9971504E-02;3080; -8.6096795E-03;  0.0000000E+00; -1.6779870E-04;  1.0023209E+03;  1.0000000E-01;  1.9228098E+03;3; -8.4467793E+00;  0.0000000E+00; -2.3497164E-02;0; -5.3934962E-02;  4.0194203E+04;  0.0000000E+00; -3.9925328E-03;  4.0000000E+04;  0.0000000E+00;  4.0008344E+04; -5.6851514E-02;  0.0000000E+00;  2.9165538E-03;  8.0459900E+02;
  1.0128886E-01;  9.9999998E-03; -4.9966216E-02;3081; -8.6478498E-03;  0.0000000E+00; -1.4373512E-04;  1.0023864E+03;  1.0000000E-01;  1.9770305E+03;3; -8.4538240E+00;  0.0000000E+00; -2.0044832E-02;0; -5.4076295E-02;  4.0199133E+04;  0.0000000E+00; -2.4058421E-03;  4.0000000E+04;  0.0000000E+00;  4.0008715E+04; -5.7009649E-02;  0.0000000E+00;  2.9333541E-03;  8.2998212E+02;
  1.0129616E-01;  9.9999998E-03; -3.9968628E-02;3082; -8.6843167E-03;  0.0000000E+00; -1.2213037E-04;  1.0024564E+03;  1.0000000E-01;  2.0350042E+03;3; -8.4313955E+00;  0.0000000E+00; -1.5956774E-02;0; -5.4183275E-02;  4.0203320E+04;  0.0000000E+00; -1.2918215E-03;  4.0000000E+04;  0.0000000E+00;  4.0009500E+04; -5.7116460E-02;  0.0000000E+00;  2.9331855E-03;  9.5624731E+02;
  1.0130133E-01;  9.9999998E-03; -2.9975176E-02;3083; -8.7161148E-03;  0.0000000E+00; -9.8384022E-05;  1.0025242E+03;  1.0000000E-01;  2.0912002E+03;3; -8.3932686E+00;  0.0000000E+00; -1.1884280E-02;0; -5.4257564E-02;  4.0207336E+04;  0.0000000E+00; -5.8810675E-04;  4.0000000E+04;  0.0000000E+00;  4.0011164E+04; -5.7183295E-02;  0.0000000E+00;  2.9257317E-03;  1.1348645E+03;
  1.0130484E-01;  9.9999998E-03; -1.9983578E-02;3084; -8.7407734E-03;  0.0000000E+00; -6.9941612E-05;  1.0025795E+03;  1.0000000E-01;  2.1371248E+03;3; -8.3529091E+00;  0.0000000E+00; -7.9883533E-03;0; -5.4304268E-02;  4.0210176E+04;  0.0000000E+00; -2.0698737E-04;  4.0000000E+04;  0.0000000E+00;  4.0012379E+04; -5.7221577E-02;  0.0000000E+00;  2.9173077E-03;  1.3117096E+03;
  1.0130706E-01;  9.9999998E-03; -9.9924337E-03;3085; -8.7563870E-03;  0.0000000E+00; -3.6521262E-05;  1.0026165E+03;  1.0000000E-01;  2.1676423E+03;3; -8.3233337E+00;  0.0000000E+00; -3.7708271E-03;0; -5.4329198E-02;  4.0212047E+04;  0.0000000E+00; -4.2262625E-05;  4.0000000E+04;  0.0000000E+00;  4.0013316E+04; -5.7240501E-02;  0.0000000E+00;  2.9113016E-03;  1.4391998E+03;
  1.0130775E-01;  9.9999998E-03;  3.6172962E-10;3086; -8.7617123E-03;  0.0000000E+00; -5.2232146E-10;  1.0026286E+03;  1.0000000E-01;  2.1777163E+03;3; -8.3121948E+00;  0.0000000E+00;  5.2931700E-06;0; -5.4336883E-02;  4.0212688E+04;  0.0000000E+00;  7.5250412E-13;  4.0000000E+04;  0.0000000E+00;  4.0013703E+04; -5.7246059E-02;  0.0000000E+00;  2.9091744E-03;  1.4853693E+03;
  1.0130706E-01;  9.9999998E-03;  9.9924346E-03;3087; -8.7563889E-03;  0.0000000E+00;  3.6521484E-05;  1.0026165E+03;  1.0000000E-01;  2.1676423E+03;3; -8.3233366E+00;  0.0000000E+00;  3.7938661E-03;0; -5.4329183E-02;  4.0212047E+04;  0.0000000E+00; -4.2085496E-05;  4.0000000E+04;  0.0000000E+00;  4.0013316E+04; -5.7240479E-02;  0.0000000E+00;  2.9112971E-03;  1.4391992E+03;
  1.0130484E-01;  9.9999998E-03;  1.9983580E-02;3088; -8.7407771E-03;  0.0000000E+00;  6.9939793E-05;  1.0025795E+03;  1.0000000E-01;  2.1371248E+03;3; -8.3529205E+00;  0.0000000E+00;  7.9750745E-03;0; -5.4304328E-02;  4.0210180E+04;  0.0000000E+00; -2.0637506E-04;  4.0000000E+04;  0.0000000E+00;  4.0012379E+04; -5.7221632E-02;  0.0000000E+00;  2.9173037E-03;  1.3117173E+03;
  1.0130133E-01;  9.9999998E-03;  2.9975178E-02;3089; -8.7161213E-03;  0.0000000E+00;  9.8385965E-05;  1.0025242E+03;  1.0000000E-01;  2.0912002E+03;3; -8.3933020E+00;  0.0000000E+00;  1.1957245E-02;0; -5.4257683E-02;  4.0207336E+04;  0.0000000E+00; -5.8761152E-04;  4.0000000E+04;  0.0000000E+00;  4.0011164E+04; -5.7183411E-02;  0.0000000E+00;  2.9257289E-03;  1.1348752E+03;
  1.0129616E-01;  9.9999998E-03;  3.9968628E-02;3090; -8.6843222E-03;  0.0000000E+00;  1.2213034E-04;  1.0024564E+03;  1.0000000E-01;  2.0350042E+03;3; -8.4314432E+00;  0.0000000E+00;  1.5976317E-02;0; -5.4183304E-02;  4.0203316E+04;  0.0000000E+00; -1.2915125E-03;  4.0000000E+04;  0.0000000E+00;  4.0009504E+04; -5.7116482E-02;  0.0000000E+00;  2.9331800E-03;  9.5626520E+02;
  1.0128886E-01;  9.9999998E-03;  4.9966216E-02;3091; -8.6478554E-03;  0.0000000E+00;  1.4373513E-04;  1.0023864E+03;  1.0000000E-01;  1.9770305E+03;3; -8.4538593E+00;  0.0000000E+00;  2.0070342E-02;0; -5.4076418E-02;  4.0199137E+04;  0.0000000E+00; -2.4054660E-03;  4.0000000E+04;  0.0000000E+00;  4.0008715E+04; -5.7009764E-02;  0.0000000E+00;  2.9333476E-03;  8.2999640E+02;
  1.0127924E-01;  9.9999998E-03;  5.9971504E-02;3092; -8.6096851E-03;  0.0000000E+00;  1.6779595E-04;  1.0023208E+03;  1.0000000E-01;  1.9227111E+03;3; -8.4467564E+00;  0.0000000E+00;  2.3472216E-02;0; -5.3935006E-02;  4.0194203E+04;  0.0000000E+00; -3.9917231E-03;  4.0000000E+04;  0.0000000E+00;  4.0008344E+04; -5.6851551E-02;  0.0000000E+00;  2.9165458E-03;  8.0461169E+02;
  1.1154665E-01;  9.9999998E-03; -1.0000160E-01;3137; -8.8615343E-03;  0.0000000E+00; -3.2900335E-04;  1.0013312E+03;  1.0000000E-01;  1.1028824E+03;3; -3.7639632E+00;  0.0000000E+00; -2.0718336E-02;0; -5.2024256E-02;  4.0102504E+04;  0.0000000E+00; -2.7788669E-02;  4.0000000E+04;  0.0000000E+00;  4.0018051E+04; -5.4247275E-02;  0.0000000E+00;  2.2230172E-03;  2.1436382E+03;
  1.1166105E-01;  9.9999998E-03; -8.9981042E-02;3138; -8.8908020E-03;  0.0000000E+00; -2.6895429E-04;  1.0013187E+03;  1.0000000E-01;  1.0925123E+03;3; -3.7967455E+00;  0.0000000E+00; -2.0378338E-02;0; -5.2268211E-02;  4.0103547E+04;  0.0000000E+00; -2.6051372E-02;  4.0000000E+04;  0.0000000E+00;  4.0015824E+04; -5.4704353E-02;  0.0000000E+00;  2.4361436E-03;  1.8082166E+03;
  1.1175218E-01;  9.9999998E-03; -7.9959914E-02;3139; -8.9229811E-03;  0.0000000E+00; -2.1772679E-04;  1.0013294E+03;  1.0000000E-01;  1.1014010E+03;3; -3.8306074E+00;  0.0000000E+00; -1.9115273E-02;0; -5.2501585E-02;  4.0106781E+04;  0.0000000E+00; -2.2036975E-02;  4.0000000E+04;  0.0000000E+00;  4.0013012E+04; -5.5091195E-02;  0.0000000E+00;  2.5896111E-03;  1.4816246E+03;
  1.1180169E-01;  9.9999998E-03; -6.9952250E-02;3140; -8.9573432E-03;  0.0000000E+00; -1.7924790E-04;  1.0013712E+03;  1.0000000E-01;  1.1359679E+03;3; -3.8634055E+00;  0.0000000E+00; -1.7059805E-02;0; -5.2715443E-02;  4.0111852E+04;  0.0000000E+00; -1.7196571E-02;  4.0000000E+04;  0.0000000E+00;  4.0010977E+04; -5.5403244E-02;  0.0000000E+00;  2.6877993E-03;  1.2432223E+03;
  1.1181618E-01;  9.9999998E-03; -5.9952609E-02;3141; -8.9925807E-03;  0.0000000E+00; -1.5069304E-04;  1.0014355E+03;  1.0000000E-01;  1.1892997E+03;3; -3.8875525E+00;  0.0000000E+00; -1.4743514E-02;0; -5.2900188E-02;  4.0117750E+04;  0.0000000E+00; -1.2458780E-02;  4.0000000E+04;  0.0000000E+00;  4.0010211E+04; -5.5641592E-02;  0.0000000E+00;  2.7414036E-03;  1.1340378E+03;
  1.1181429E-01;  9.9999998E-03; -4.9957041E-02;3142; -9.0273069E-03;  0.0000000E+00; -1.2922016E-04;  1.0015159E+03;  1.0000000E-01;  1.2559645E+03;3; -3.8977447E+00;  0.0000000E+00; -1.2090567E-02;0; -5.3048465E-02;  4.0123809E+04;  0.0000000E+00; -8.3494978E-03;  4.0000000E+04;  0.0000000E+00;  4.0010383E+04; -5.5811998E-02;  0.0000000E+00;  2.7635333E-03;  1.1564246E+03;
  1.1180920E-01;  9.9999998E-03; -3.9964411E-02;3143; -9.0597048E-03;  0.0000000E+00; -1.1000736E-04;  1.0015977E+03;  1.0000000E-01;  1.3237157E+03;3; -3.8927214E+00;  0.0000000E+00; -9.6489294E-03;0; -5.3158261E-02;  4.0129387E+04;  0.0000000E+00; -5.0939713E-03;  4.0000000E+04;  0.0000000E+00;  4.0011246E+04; -5.5925094E-02;  0.0000000E+00;  2.7668318E-03;  1.2811034E+03;
  1.1180366E-01;  9.9999998E-03; -2.9973298E-02;3144; -9.0876166E-03;  0.0000000E+00; -8.8744440E-05;  1.0016758E+03;  1.0000000E-01;  1.3884052E+03;3; -3.8790436E+00;  0.0000000E+00; -7.2932001E-03;0; -5.3232558E-02;  4.0133984E+04;  0.0000000E+00; -2.7202123E-03;  4.0000000E+04;  0.0000000E+00;  4.0013066E+04; -5.5993989E-02;  0.0000000E+00;  2.7614322E-03;  1.4592162E+03;
  1.1179895E-01;  9.9999998E-03; -1.9982759E-02;3145; -9.1090864E-03;  0.0000000E+00; -6.3213251E-05;  1.0017415E+03;  1.0000000E-01;  1.4428234E+03;3; -3.8635745E+00;  0.0000000E+00; -4.7584940E-03;0; -5.3277776E-02;  4.0137719E+04;  0.0000000E+00; -1.1523410E-03;  4.0000000E+04;  0.0000000E+00;  4.0014625E+04; -5.6031853E-02;  0.0000000E+00;  2.7540787E-03;  1.6360363E+03;
  1.1179580E-01;  9.9999998E-03; -9.9921552E-03;3146; -9.1226110E-03;  0.0000000E+00; -3.3134089E-05;  1.0017826E+03;  1.0000000E-01;  1.4767977E+03;3; -3.8512666E+00;  0.0000000E+00; -2.2780646E-03;0; -5.3301129E-02;  4.0140062E+04;  0.0000000E+00; -2.7817331E-04;  4.0000000E+04;  0.0000000E+00;  4.0015570E+04; -5.6049686E-02;  0.0000000E+00;  2.7485576E-03;  1.7635851E+03;
  1.1179469E-01;  9.9999998E-03; -1.0266600E-10;3147; -9.1272593E-03;  0.0000000E+00; -3.9887893E-10;  1.0017975E+03;  1.0000000E-01;  1.4891431E+03;3; -3.8468475E+00;  0.0000000E+00;  1.2303117E-05;0; -5.3308286E-02;  4.0140766E+04;  0.0000000E+00;  1.0795984E-12;  4.0000000E+04;  0.0000000E+00;  4.0016137E+04; -5.6054849E-02;  0.0000000E+00;  2.7465629E-03;  1.8097750E+03;
  1.1179581E-01;  9.9999998E-03;  9.9921543E-03;3148; -9.1226129E-03;  0.0000000E+00;  3.3132739E-05;  1.0017826E+03;  1.0000000E-01;  1.4767977E+03;3; -3.8512795E+00;  0.0000000E+00;  2.2621972E-03;0; -5.3301193E-02;  4.0140059E+04;  0.0000000E+00; -2.7787493E-04;  4.0000000E+04;  0.0000000E+00;  4.0015570E+04; -5.6049749E-02;  0.0000000E+00;  2.7485564E-03;  1.7635842E+03;
  1.1179895E-01;  9.9999998E-03;  1.9982759E-02;3149; -9.1090882E-03;  0.0000000E+00;  6.3212065E-05;  1.0017415E+03;  1.0000000E-01;  1.4428234E+03;3; -3.8635876E+00;  0.0000000E+00;  4.7255103E-03;0; -5.3277828E-02;  4.0137715E+04;  0.0000000E+00; -1.1520282E-03;  4.0000000E+04;  0.0000000E+00;  4.0014625E+04; -5.6031898E-02;  0.0000000E+00;  2.7540701E-03;  1.6360469E+03;
  1.1180366E-01;  9.9999998E-03;  2.9973298E-02;3150; -9.0876203E-03;  0.0000000E+00;  8.8742607E-05;  1.0016758E+03;  1.0000000E-01;  1.3884052E+03;3; -3.8790541E+00;  0.0000000E+00;  7.2903908E-03;0; -5.3232595E-02;  4.0133984E+04;  0.0000000E+00; -2.7197744E-03;  4.0000000E+04;  0.0000000E+00;  4.0013066E+04; -5.5994015E-02;  0.0000000E+00;  2.7614196E-03;  1.4592211E+03;
  1.1180920E-01;  9.9999998E-03;  3.9964408E-02;3151; -9.0597086E-03;  0.0000000E+00;  1.1000541E-04;  1.0015977E+03;  1.0000000E-01;  1.3237157E+03;3; -3.8927319E+00;  0.0000000E+00;  9.6252691E-03;0; -5.3158320E-02;  4.0129391E+04;  0.0000000E+00; -5.0929142E-03;  4.0000000E+04;  0.0000000E+00;  4.0011246E+04; -5.5925142E-02;  0.0000000E+00;  2.7668232E-03;  1.2811248E+03;
  1.1181428E-01;  9.9999998E-03;  4.9957041E-02;3152; -9.0273116E-03;  0.0000000E+00;  1.2921591E-04;  1.0015159E+03;  1.0000000E-01;  1.2559645E+03;3; -3.8977425E+00;  0.0000000E+00;  1.2055385E-02;0; -5.3048544E-02;  4.0123805E+04;  0.0000000E+00; -8.3485702E-03;  4.0000000E+04;  0.0000000E+00;  4.0010383E+04; -5.5812068E-02;  0.0000000E+00;  2.7635233E-03;  1.1564421E+03;
  1.1181618E-01;  9.9999998E-03;  5.9952609E-02;3153; -8.9925872E-03;  0.0000000E+00;  1.5069186E-04;  1.0014355E+03;  1.0000000E-01;  1.1892997E+03;3; -3.8876035E+00;  0.0000000E+00;  1.4776045E-02;0; -5.2900173E-02;  4.0117750E+04;  0.0000000E+00; -1.2457318E-02;  4.0000000E+04;  0.0000000E+00;  4.0010211E+04; -5.5641565E-02;  0.0000000E+00;  2.7413925E-03;  1.1340444E+03;
  1.2186024E-01;  9.9999998E-03; -9.9960819E-02;3198; -9.2807030E-03;  0.0000000E+00; -2.9033938E-04;  1.0004432E+03;  1.0000000E-01;  3.6719949E+02;3; -1.4096676E+00;  0.0000000E+00; -1.4728413E-02;0; -5.1673330E-02;  4.0026332E+04;  0.0000000E+00; -4.6224881E-02;  4.0000000E+04;  0.0000000E+00;  4.0019719E+04; -5.3653952E-02;  0.0000000E+00;  1.9806211E-03;  2.4182502E+03;
  1.2184087E-01;  9.9999998E-03; -8.9961335E-02;3199; -9.3123401E-03;  0.0000000E+00; -2.3933535E-04;  1.0004519E+03;  1.0000000E-01;  3.7440915E+02;3; -1.4471002E+00;  0.0000000E+00; -1.2906745E-02;0; -5.1949881E-02;  4.0028875E+04;  0.0000000E+00; -4.2164594E-02;  4.0000000E+04;  0.0000000E+00;  4.0016633E+04; -5.4157697E-02;  0.0000000E+00;  2.2078152E-03;  2.0849663E+03;
  1.2181919E-01;  9.9999998E-03; -7.9958245E-02;3200; -9.3445322E-03;  0.0000000E+00; -1.9432534E-04;  1.0004847E+03;  1.0000000E-01;  4.0156888E+02;3; -1.4825141E+00;  0.0000000E+00; -1.1683010E-02;0; -5.2209735E-02;  4.0034102E+04;  0.0000000E+00; -3.5050124E-02;  4.0000000E+04;  0.0000000E+00;  4.0014664E+04; -5.4583810E-02;  0.0000000E+00;  2.3740751E-03;  1.7551094E+03;
  1.2180008E-01;  9.9999998E-03; -6.9955565E-02;3201; -9.3774060E-03;  0.0000000E+00; -1.5972607E-04;  1.0005400E+03;  1.0000000E-01;  4.4739474E+02;3; -1.5109218E+00;  0.0000000E+00; -1.0327709E-02;0; -5.2441724E-02;  4.0040277E+04;  0.0000000E+00; -2.6991708E-02;  4.0000000E+04;  0.0000000E+00;  4.0012387E+04; -5.4924943E-02;  0.0000000E+00;  2.4832189E-03;  1.5093900E+03;
  1.2178494E-01;  9.9999998E-03; -5.9955280E-02;3202; -9.4102137E-03;  0.0000000E+00; -1.3483452E-04;  1.0006166E+03;  1.0000000E-01;  5.1089914E+02;3; -1.5300772E+00;  0.0000000E+00; -8.7852273E-03;0; -5.2636363E-02;  4.0047289E+04;  0.0000000E+00; -1.9365309E-02;  4.0000000E+04;  0.0000000E+00;  4.0011570E+04; -5.5182133E-02;  0.0000000E+00;  2.5457696E-03;  1.3912590E+03;
  1.2177358E-01;  9.9999998E-03; -4.9957749E-02;3203; -9.4417250E-03;  0.0000000E+00; -1.1610865E-04;  1.0007015E+03;  1.0000000E-01;  5.8111938E+02;3; -1.5393754E+00;  0.0000000E+00; -7.2267838E-03;0; -5.2788079E-02;  4.0053910E+04;  0.0000000E+00; -1.2912037E-02;  4.0000000E+04;  0.0000000E+00;  4.0011984E+04; -5.5363216E-02;  0.0000000E+00;  2.5751353E-03;  1.4047750E+03;
  1.2176543E-01;  9.9999998E-03; -3.9962854E-02;3204; -9.4703455E-03;  0.0000000E+00; -9.8992437E-05;  1.0007918E+03;  1.0000000E-01;  6.5598145E+02;3; -1.5410781E+00;  0.0000000E+00; -5.8188676E-03;0; -5.2897025E-02;  4.0059871E+04;  0.0000000E+00; -7.8853145E-03;  4.0000000E+04;  0.0000000E+00;  4.0012805E+04; -5.5481225E-02;  0.0000000E+00;  2.5842020E-03;  1.5216124E+03;
  1.2175956E-01;  9.9999998E-03; -2.9970344E-02;3205; -9.4945086E-03;  0.0000000E+00; -8.0059370E-05;  1.0008728E+03;  1.0000000E-01;  7.2314001E+02;3; -1.5376101E+00;  0.0000000E+00; -4.2932848E-03;0; -5.2968133E-02;  4.0065059E+04;  0.0000000E+00; -4.2430237E-03;  4.0000000E+04;  0.0000000E+00;  4.0014297E+04; -5.5551320E-02;  0.0000000E+00;  2.5831885E-03;  1.6932501E+03;
  1.2175507E-01;  9.9999998E-03; -1.9979829E-02;3206; -9.5128054E-03;  0.0000000E+00; -5.7063113E-05;  1.0009401E+03;  1.0000000E-01;  7.7884216E+02;3; -1.5326320E+00;  0.0000000E+00; -2.7412404E-03;0; -5.3009458E-02;  4.0068641E+04;  0.0000000E+00; -1.8187953E-03;  4.0000000E+04;  0.0000000E+00;  4.0015664E+04; -5.5588394E-02;  0.0000000E+00;  2.5789351E-03;  1.8650792E+03;
  1.2175237E-01;  9.9999998E-03; -9.9903513E-03;3207; -9.5242467E-03;  0.0000000E+00; -2.9904242E-05;  1.0009818E+03;  1.0000000E-01;  8.1340912E+02;3; -1.5283056E+00;  0.0000000E+00; -1.3341650E-03;0; -5.3029824E-02;  4.0071219E+04;  0.0000000E+00; -4.4376639E-04;  4.0000000E+04;  0.0000000E+00;  4.0016770E+04; -5.5605065E-02;  0.0000000E+00;  2.5752403E-03;  1.9892919E+03;
  1.2175146E-01;  9.9999998E-03; -1.6630135E-10;3208; -9.5281424E-03;  0.0000000E+00; -1.2769631E-09;  1.0009963E+03;  1.0000000E-01;  8.2535938E+02;3; -1.5266908E+00;  0.0000000E+00; -6.6063458E-06;0; -5.3035822E-02;  4.0071965E+04;  0.0000000E+00; -1.2137183E-13;  4.0000000E+04;  0.0000000E+00;  4.0017113E+04; -5.5609681E-02;  0.0000000E+00;  2.5738578E-03;  2.0342842E+03;
  1.2175237E-01;  9.9999998E-03;  9.9903513E-03;3209; -9.5242495E-03;  0.0000000E+00;  2.9904548E-05;  1.0009818E+03;  1.0000000E-01;  8.1340912E+02;3; -1.5283186E+00;  0.0000000E+00;  1.3537423E-03;0; -5.3029843E-02;  4.0071219E+04;  0.0000000E+00; -4.4358472E-04;  4.0000000E+04;  0.0000000E+00;  4.0016770E+04; -5.5605080E-02;  0.0000000E+00;  2.5752392E-03;  1.9892920E+03;
  1.2175507E-01;  9.9999998E-03;  1.9979829E-02;3210; -9.5128091E-03;  0.0000000E+00;  5.7059966E-05;  1.0009401E+03;  1.0000000E-01;  7.7884216E+02;3; -1.5326794E+00;  0.0000000E+00;  2.7455599E-03;0; -5.3009480E-02;  4.0068637E+04;  0.0000000E+00; -1.8182296E-03;  4.0000000E+04;  0.0000000E+00;  4.0015664E+04; -5.5588406E-02;  0.0000000E+00;  2.5789272E-03;  1.8650883E+03;
  1.2175956E-01;  9.9999998E-03;  2.9970344E-02;3211; -9.4945151E-03;  0.0000000E+00;  8.0059981E-05;  1.0008728E+03;  1.0000000E-01;  7.2314001E+02;3; -1.5376508E+00;  0.0000000E+00;  4.3297596E-03;0; -5.2968141E-02;  4.0065059E+04;  0.0000000E+00; -4.2423415E-03;  4.0000000E+04;  0.0000000E+00;  4.0014297E+04; -5.5551320E-02;  0.0000000E+00;  2.5831787E-03;  1.6932656E+03;
  1.2176543E-01;  9.9999998E-03;  3.9962854E-02;3212; -9.4703510E-03;  0.0000000E+00;  9.8990953E-05;  1.0007918E+03;  1.0000000E-01;  6.5598145E+02;3; -1.5410863E+00;  0.0000000E+00;  5.8398708E-03;0; -5.2897029E-02;  4.0059867E+04;  0.0000000E+00; -7.8843189E-03;  4.0000000E+04;  0.0000000E+00;  4.0012805E+04; -5.5481222E-02;  0.0000000E+00;  2.5841931E-03;  1.5216229E+03;
  1.2177358E-01;  9.9999998E-03;  4.9957749E-02;3213; -9.4417306E-03;  0.0000000E+00;  1.1610649E-04;  1.0007014E+03;  1.0000000E-01;  5.8102063E+02;3; -1.5393864E+00;  0.0000000E+00;  7.2647585E-03;0; -5.2788172E-02;  4.0053906E+04;  0.0000000E+00; -1.2910944E-02;  4.0000000E+04;  0.0000000E+00;  4.0011984E+04; -5.5363297E-02;  0.0000000E+00;  2.5751258E-03;  1.4047821E+03;
  1.2178494E-01;  9.9999998E-03;  5.9955280E-02;3214; -9.4102221E-03;  0.0000000E+00;  1.3483419E-04;  1.0006166E+03;  1.0000000E-01;  5.1089914E+02;3; -1.5300833E+00;  0.0000000E+00;  8.7715937E-03;0; -5.2636370E-02;  4.0047289E+04;  0.0000000E+00; -1.9365150E-02;  4.0000000E+04;  0.0000000E+00;  4.0011570E+04; -5.5182125E-02;  0.0000000E+00;  2.5457570E-03;  1.3912716E+03;
  1.3179764E-01;  9.9999998E-03; -9.9955350E-02;3259; -9.7548552E-03;  0.0000000E+00; -2.5031398E-04;  9.9973175E+02;  1.0000000E-01; -2.2221594E+02;3; -3.4700072E-01;  0.0000000E+00; -8.4195081E-03;0; -5.1941734E-02;  3.9965000E+04;  0.0000000E+00; -5.9892740E-02;  4.0000000E+04;  0.0000000E+00;  4.0020629E+04; -5.3676870E-02;  0.0000000E+00;  1.7351347E-03;  2.5811423E+03;
  1.3176173E-01;  9.9999998E-03; -8.9954779E-02;3260; -9.7946990E-03;  0.0000000E+00; -2.0836039E-04;  9.9973590E+02;  1.0000000E-01; -2.1880862E+02;3; -3.6741775E-01;  0.0000000E+00; -7.0640082E-03;0; -5.2239809E-02;  3.9967754E+04;  0.0000000E+00; -5.2263092E-02;  4.0000000E+04;  0.0000000E+00;  4.0018023E+04; -5.4210726E-02;  0.0000000E+00;  1.9709179E-03;  2.2494678E+03;
  1.3172765E-01;  9.9999998E-03; -7.9950541E-02;3261; -9.8318830E-03;  0.0000000E+00; -1.7052647E-04;  9.9976855E+02;  1.0000000E-01; -1.9174767E+02;3; -3.8667083E-01;  0.0000000E+00; -5.5504055E-03;0; -5.2516468E-02;  3.9972520E+04;  0.0000000E+00; -4.1980270E-02;  4.0000000E+04;  0.0000000E+00;  4.0015289E+04; -5.4662332E-02;  0.0000000E+00;  2.1458657E-03;  1.9152380E+03;
  1.3169976E-01;  9.9999998E-03; -6.9946356E-02;3262; -9.8665608E-03;  0.0000000E+00; -1.4097411E-04;  9.9982147E+02;  1.0000000E-01; -1.4789705E+02;3; -4.0268090E-01;  0.0000000E+00; -4.6753236E-03;0; -5.2759286E-02;  3.9978793E+04;  0.0000000E+00; -3.1430285E-02;  4.0000000E+04;  0.0000000E+00;  4.0013324E+04; -5.5023149E-02;  0.0000000E+00;  2.2638619E-03;  1.6602207E+03;
  1.3167830E-01;  9.9999998E-03; -5.9944488E-02;3263; -9.8984996E-03;  0.0000000E+00; -1.1947662E-04;  9.9989447E+02;  1.0000000E-01; -8.7404938E+01;3; -4.1465890E-01;  0.0000000E+00; -4.0222541E-03;0; -5.2958716E-02;  3.9985461E+04;  0.0000000E+00; -2.2058759E-02;  4.0000000E+04;  0.0000000E+00;  4.0012117E+04; -5.5293981E-02;  0.0000000E+00;  2.3352655E-03;  1.5297502E+03;
  1.3166177E-01;  9.9999998E-03; -4.9945805E-02;3264; -9.9272095E-03;  0.0000000E+00; -1.0343731E-04;  9.9997864E+02;  1.0000000E-01; -1.7678513E+01;3; -4.2282251E-01;  0.0000000E+00; -3.3471405E-03;0; -5.3110246E-02;  3.9991953E+04;  0.0000000E+00; -1.4498458E-02;  4.0000000E+04;  0.0000000E+00;  4.0012180E+04; -5.5483423E-02;  0.0000000E+00;  2.3731785E-03;  1.5297487E+03;
  1.3164912E-01;  9.9999998E-03; -3.9950568E-02;3265; -9.9519324E-03;  0.0000000E+00; -8.8822169E-05;  1.0000653E+03;  1.0000000E-01;  5.4121925E+01;3; -4.2749467E-01;  0.0000000E+00; -2.5867857E-03;0; -5.3215288E-02;  3.9998074E+04;  0.0000000E+00; -8.8082599E-03;  4.0000000E+04;  0.0000000E+00;  4.0013375E+04; -5.5605348E-02;  0.0000000E+00;  2.3900589E-03;  1.6332816E+03;
  1.3163941E-01;  9.9999998E-03; -2.9959647E-02;3266; -9.9720247E-03;  0.0000000E+00; -7.2192524E-05;  1.0001467E+03;  1.0000000E-01;  1.2157681E+02;3; -4.2975721E-01;  0.0000000E+00; -2.0298171E-03;0; -5.3280596E-02;  4.0002926E+04;  0.0000000E+00; -4.7546644E-03;  4.0000000E+04;  0.0000000E+00;  4.0014504E+04; -5.5676289E-02;  0.0000000E+00;  2.3956923E-03;  1.7928527E+03;
  1.3163196E-01;  9.9999998E-03; -1.9972360E-02;3267; -9.9868150E-03;  0.0000000E+00; -5.1578532E-05;  1.0002100E+03;  1.0000000E-01;  1.7401978E+02;3; -4.3046942E-01;  0.0000000E+00; -1.3982347E-03;0; -5.3316317E-02;  4.0006523E+04;  0.0000000E+00; -2.0550392E-03;  4.0000000E+04;  0.0000000E+00;  4.0015816E+04; -5.5712823E-02;  0.0000000E+00;  2.3965046E-03;  1.9547112E+03;
  1.3162705E-01;  9.9999998E-03; -9.9865682E-03;3268; -9.9958563E-03;  0.0000000E+00; -2.6990152E-05;  1.0002513E+03;  1.0000000E-01;  2.0819164E+02;3; -4.3058676E-01;  0.0000000E+00; -7.3806185E-04;0; -5.3332593E-02;  4.0008773E+04;  0.0000000E+00; -5.0558738E-04;  4.0000000E+04;  0.0000000E+00;  4.0016898E+04; -5.5728596E-02;  0.0000000E+00;  2.3960022E-03;  2.0721506E+03;
  1.3162525E-01;  9.9999998E-03; -1.8760939E-10;3269; -9.9989027E-03;  0.0000000E+00; -1.1934006E-09;  1.0002645E+03;  1.0000000E-01;  2.1915430E+02;3; -4.3048975E-01;  0.0000000E+00; -1.0354881E-05;0; -5.3337108E-02;  4.0009637E+04;  0.0000000E+00;  1.8228813E-12;  4.0000000E+04;  0.0000000E+00;  4.0017098E+04; -5.5732805E-02;  0.0000000E+00;  2.3956986E-03;  2.1147166E+03;
  1.3162705E-01;  9.9999998E-03;  9.9865673E-03;3270; -9.9958554E-03;  0.0000000E+00;  2.6987997E-05;  1.0002513E+03;  1.0000000E-01;  2.0819164E+02;3; -4.3055263E-01;  0.0000000E+00;  7.2791585E-04;0; -5.3332604E-02;  4.0008773E+04;  0.0000000E+00; -5.0540786E-04;  4.0000000E+04;  0.0000000E+00;  4.0016898E+04; -5.5728603E-02;  0.0000000E+00;  2.3959971E-03;  2.0721541E+03;
  1.3163196E-01;  9.9999998E-03;  1.9972360E-02;3271; -9.9868197E-03;  0.0000000E+00;  5.1578183E-05;  1.0002101E+03;  1.0000000E-01;  1.7401978E+02;3; -4.3047789E-01;  0.0000000E+00;  1.4158778E-03;0; -5.3316303E-02;  4.0006520E+04;  0.0000000E+00; -2.0548555E-03;  4.0000000E+04;  0.0000000E+00;  4.0015816E+04; -5.5712800E-02;  0.0000000E+00;  2.3964993E-03;  1.9547207E+03;
  1.3163941E-01;  9.9999998E-03;  2.9959647E-02;3272; -9.9720294E-03;  0.0000000E+00;  7.2190269E-05;  1.0001467E+03;  1.0000000E-01;  1.2157681E+02;3; -4.2974982E-01;  0.0000000E+00;  2.0511900E-03;0; -5.3280652E-02;  4.0002930E+04;  0.0000000E+00; -4.7541093E-03;  4.0000000E+04;  0.0000000E+00;  4.0014504E+04; -5.5676337E-02;  0.0000000E+00;  2.3956853E-03;  1.7928651E+03;
  1.3164912E-01;  9.9999998E-03;  3.9950568E-02;3273; -9.9519379E-03;  0.0000000E+00;  8.8819965E-05;  1.0000654E+03;  1.0000000E-01;  5.4121925E+01;3; -4.2751211E-01;  0.0000000E+00;  2.5914039E-03;0; -5.3215295E-02;  3.9998074E+04;  0.0000000E+00; -8.8082086E-03;  4.0000000E+04;  0.0000000E+00;  4.0013375E+04; -5.5605344E-02;  0.0000000E+00;  2.3900506E-03;  1.6332972E+03;
  1.3166177E-01;  9.9999998E-03;  4.9945805E-02;3274; -9.9272151E-03;  0.0000000E+00;  1.0343422E-04;  9.9997864E+02;  1.0000000E-01; -1.7678513E+01;3; -4.2281789E-01;  0.0000000E+00;  3.3400171E-03;0; -5.3110234E-02;  3.9991953E+04;  0.0000000E+00; -1.4498352E-02;  4.0000000E+04;  0.0000000E+00;  4.0012180E+04; -5.5483397E-02;  0.0000000E+00;  2.3731641E-03;  1.5297617E+03;
  1.3167830E-01;  9.9999998E-03;  5.9944488E-02;3275; -9.8985070E-03;  0.0000000E+00;  1.1947228E-04;  9.9989441E+02;  1.0000000E-01; -8.7503700E+01;3; -4.1471910E-01;  0.0000000E+00;  4.0295832E-03;0; -5.2958757E-02;  3.9985453E+04;  0.0000000E+00; -2.2058045E-02;  4.0000000E+04;  0.0000000E+00;  4.0012117E+04; -5.5294015E-02;  0.0000000E+00;  2.3352574E-03;  1.5297599E+03;
  1.4170268E-01;  9.9999998E-03; -9.9945799E-02;3320; -1.0303598E-02;  0.0000000E+00; -2.1158230E-04;  9.9920465E+02;  1.0000000E-01; -6.5894434E+02;3;  5.7521597E-02;  0.0000000E+00; -1.7853779E-03;0; -5.2624594E-02;  3.9919672E+04;  0.0000000E+00; -6.3860551E-02;  4.0000000E+04;  0.0000000E+00;  4.0020238E+04; -5.4119516E-02;  0.0000000E+00;  1.4949212E-03;  2.5958425E+03;
  1.4165826E-01;  9.9999998E-03; -8.9942515E-02;3321; -1.0353637E-02;  0.0000000E+00; -1.7793760E-04;  9.9919403E+02;  1.0000000E-01; -6.6773419E+02;3;  4.4217084E-02;  0.0000000E+00; -9.7763550E-04;0; -5.2939676E-02;  3.9921180E+04;  0.0000000E+00; -5.2748919E-02;  4.0000000E+04;  0.0000000E+00;  4.0017367E+04; -5.4674905E-02;  0.0000000E+00;  1.7352280E-03;  2.2662900E+03;
  1.4161743E-01;  9.9999998E-03; -7.9935618E-02;3322; -1.0397151E-02;  0.0000000E+00; -1.4702044E-04;  9.9921161E+02;  1.0000000E-01; -6.5316669E+02;3;  3.1807363E-02;  0.0000000E+00;  1.5158813E-04;0; -5.3228516E-02;  3.9924887E+04;  0.0000000E+00; -4.0597506E-02;  4.0000000E+04;  0.0000000E+00;  4.0014770E+04; -5.5144247E-02;  0.0000000E+00;  1.9157323E-03;  1.9282914E+03;
  1.4158322E-01;  9.9999998E-03; -6.9929846E-02;3323; -1.0434558E-02;  0.0000000E+00; -1.2260744E-04;  9.9925226E+02;  1.0000000E-01; -6.1948865E+02;3;  2.0905856E-02;  0.0000000E+00;  4.2708521E-04;0; -5.3477611E-02;  3.9929973E+04;  0.0000000E+00; -2.9472906E-02;  4.0000000E+04;  0.0000000E+00;  4.0012867E+04; -5.5518389E-02;  0.0000000E+00;  2.0407762E-03;  1.6638647E+03;
  1.4155474E-01;  9.9999998E-03; -5.9928220E-02;3324; -1.0466116E-02;  0.0000000E+00; -1.0512744E-04;  9.9931378E+02;  1.0000000E-01; -5.6852716E+02;3;  1.1571746E-02;  0.0000000E+00;  5.2933866E-04;0; -5.3677276E-02;  3.9935844E+04;  0.0000000E+00; -2.0349296E-02;  4.0000000E+04;  0.0000000E+00;  4.0011617E+04; -5.5797905E-02;  0.0000000E+00;  2.1206276E-03;  1.5197194E+03;
  1.4153048E-01;  9.9999998E-03; -4.9932197E-02;3325; -1.0492078E-02;  0.0000000E+00; -9.2213624E-05;  9.9938733E+02;  1.0000000E-01; -5.0759058E+02;3;  3.9455192E-03;  0.0000000E+00;  4.8233086E-04;0; -5.3824317E-02;  3.9941652E+04;  0.0000000E+00; -1.3387729E-02;  4.0000000E+04;  0.0000000E+00;  4.0011605E+04; -5.5992160E-02;  0.0000000E+00;  2.1678437E-03;  1.5034539E+03;
  1.4151071E-01;  9.9999998E-03; -3.9941028E-02;3326; -1.0512805E-02;  0.0000000E+00; -7.9977210E-05;  9.9946167E+02;  1.0000000E-01; -4.4601208E+02;3; -2.0033708E-03;  0.0000000E+00;  3.3223905E-04;0; -5.3921755E-02;  3.9947039E+04;  0.0000000E+00; -8.2798488E-03;  4.0000000E+04;  0.0000000E+00;  4.0012344E+04; -5.6115821E-02;  0.0000000E+00;  2.1940665E-03;  1.5897360E+03;
  1.4149584E-01;  9.9999998E-03; -2.9953672E-02;3327; -1.0528587E-02;  0.0000000E+00; -6.5540757E-05;  9.9953510E+02;  1.0000000E-01; -3.8517429E+02;3; -6.4737471E-03;  0.0000000E+00;  2.3449965E-04;0; -5.3978682E-02;  3.9951355E+04;  0.0000000E+00; -4.6027987E-03;  4.0000000E+04;  0.0000000E+00;  4.0013660E+04; -5.6186821E-02;  0.0000000E+00;  2.2081404E-03;  1.7327246E+03;
  1.4148539E-01;  9.9999998E-03; -1.9969160E-02;3328; -1.0539699E-02;  0.0000000E+00; -4.7125224E-05;  9.9959137E+02;  1.0000000E-01; -3.3855832E+02;3; -9.5273573E-03;  0.0000000E+00;  1.1474077E-04;0; -5.4006729E-02;  3.9954715E+04;  0.0000000E+00; -2.0531514E-03;  4.0000000E+04;  0.0000000E+00;  4.0014949E+04; -5.6222383E-02;  0.0000000E+00;  2.2156527E-03;  1.8804341E+03;
  1.4147861E-01;  9.9999998E-03; -9.9852793E-03;3329; -1.0546248E-02;  0.0000000E+00; -2.4712353E-05;  9.9963129E+02;  1.0000000E-01; -3.0547284E+02;3; -1.1351727E-02;  0.0000000E+00;  6.1935272E-05;0; -5.4017935E-02;  3.9956863E+04;  0.0000000E+00; -5.1722943E-04;  4.0000000E+04;  0.0000000E+00;  4.0015516E+04; -5.6237385E-02;  0.0000000E+00;  2.2194511E-03;  1.9881564E+03;
  1.4147617E-01;  9.9999998E-03; -2.1389859E-10;3330; -1.0548394E-02;  0.0000000E+00; -1.9094859E-09;  9.9964172E+02;  1.0000000E-01; -2.9683112E+02;3; -1.1883571E-02;  0.0000000E+00; -1.2546797E-05;0; -5.4020457E-02;  3.9957527E+04;  0.0000000E+00;  2.6300945E-13;  4.0000000E+04;  0.0000000E+00;  4.0015910E+04; -5.6241091E-02;  0.0000000E+00;  2.2206330E-03;  2.0272179E+03;
  1.4147861E-01;  9.9999998E-03;  9.9852793E-03;3331; -1.0546250E-02;  0.0000000E+00;  2.4708006E-05;  9.9963129E+02;  1.0000000E-01; -3.0547284E+02;3; -1.1342811E-02;  0.0000000E+00; -7.9733021E-05;0; -5.4017831E-02;  3.9956867E+04;  0.0000000E+00; -5.1707472E-04;  4.0000000E+04;  0.0000000E+00;  4.0015516E+04; -5.6237280E-02;  0.0000000E+00;  2.2194497E-03;  1.9881578E+03;
  1.4148539E-01;  9.9999998E-03;  1.9969160E-02;3332; -1.0539702E-02;  0.0000000E+00;  4.7122070E-05;  9.9959137E+02;  1.0000000E-01; -3.3855832E+02;3; -9.5472774E-03;  0.0000000E+00; -1.3628510E-04;0; -5.4006759E-02;  3.9954715E+04;  0.0000000E+00; -2.0530396E-03;  4.0000000E+04;  0.0000000E+00;  4.0014949E+04; -5.6222405E-02;  0.0000000E+00;  2.2156446E-03;  1.8804393E+03;
  1.4149584E-01;  9.9999998E-03;  2.9953672E-02;3333; -1.0528593E-02;  0.0000000E+00;  6.5538807E-05;  9.9953510E+02;  1.0000000E-01; -3.8517429E+02;3; -6.4735254E-03;  0.0000000E+00; -2.2957815E-04;0; -5.3978667E-02;  3.9951352E+04;  0.0000000E+00; -4.6025971E-03;  4.0000000E+04;  0.0000000E+00;  4.0013660E+04; -5.6186795E-02;  0.0000000E+00;  2.2081297E-03;  1.7327325E+03;
  1.4151071E-01;  9.9999998E-03;  3.9941028E-02;3334; -1.0512811E-02;  0.0000000E+00;  7.9974750E-05;  9.9946173E+02;  1.0000000E-01; -4.4596271E+02;3; -2.0128868E-03;  0.0000000E+00; -3.4920181E-04;0; -5.3921785E-02;  3.9947043E+04;  0.0000000E+00; -8.2795303E-03;  4.0000000E+04;  0.0000000E+00;  4.0012344E+04; -5.6115840E-02;  0.0000000E+00;  2.1940554E-03;  1.5897468E+03;
  1.4153048E-01;  9.9999998E-03;  4.9932197E-02;3335; -1.0492083E-02;  0.0000000E+00;  9.2211274E-05;  9.9938733E+02;  1.0000000E-01; -5.0759058E+02;3;  3.9563291E-03;  0.0000000E+00; -4.5356216E-04;0; -5.3824302E-02;  3.9941648E+04;  0.0000000E+00; -1.3386971E-02;  4.0000000E+04;  0.0000000E+00;  4.0011609E+04; -5.5992134E-02;  0.0000000E+00;  2.1678337E-03;  1.5034581E+03;
  1.4155474E-01;  9.9999998E-03;  5.9928220E-02;3336; -1.0466122E-02;  0.0000000E+00;  1.0512300E-04;  9.9931378E+02;  1.0000000E-01; -5.6852716E+02;3;  1.1574683E-02;  0.0000000E+00; -5.6367955E-04;0; -5.3677361E-02;  3.9935844E+04;  0.0000000E+00; -2.0349909E-02;  4.0000000E+04;  0.0000000E+00;  4.0011617E+04; -5.5797979E-02;  0.0000000E+00;  2.1206182E-03;  1.5197264E+03;
  1.5134002E-01;  9.9999998E-03; -9.9867200E-03;3390; -1.1170231E-02;  0.0000000E+00; -2.3078552E-05;  9.9915308E+02;  1.0000000E-01; -7.0165918E+02;3;  1.0046083E-01;  0.0000000E+00;  9.0796582E-04;0; -5.4863885E-02;  3.9918102E+04;  0.0000000E+00; -6.1673997E-04;  4.0000000E+04;  0.0000000E+00;  4.0013281E+04; -5.6916941E-02;  0.0000000E+00;  2.0530578E-03;  1.7391934E+03;
  1.5133698E-01;  9.9999998E-03; -2.6045660E-10;3391; -1.1171455E-02;  0.0000000E+00; -2.3427709E-09;  9.9916431E+02;  1.0000000E-01; -6.9237549E+02;3;  9.9714458E-02;  0.0000000E+00; -8.0455029E-06;0; -5.4864362E-02;  3.9918711E+04;  0.0000000E+00;  1.0909167E-12;  4.0000000E+04;  0.0000000E+00;  4.0013398E+04; -5.6920424E-02;  0.0000000E+00;  2.0560636E-03;  1.7740309E+03;
  1.5134002E-01;  9.9999998E-03;  9.9867200E-03;3392; -1.1170233E-02;  0.0000000E+00;  2.3074623E-05;  9.9915308E+02;  1.0000000E-01; -7.0165918E+02;3;  1.0045040E-01;  0.0000000E+00; -9.1875758E-04;0; -5.4863855E-02;  3.9918102E+04;  0.0000000E+00; -6.1667140E-04;  4.0000000E+04;  0.0000000E+00;  4.0013281E+04; -5.6916911E-02;  0.0000000E+00;  2.0530543E-03;  1.7391974E+03;
  1.5134864E-01;  9.9999998E-03; -1.9971451E-02;3389; -1.1166312E-02;  0.0000000E+00; -4.3853932E-05;  9.9912115E+02;  1.0000000E-01; -7.2812756E+02;3;  1.0271475E-01;  0.0000000E+00;  1.8321913E-03;0; -5.4858997E-02;  3.9916320E+04;  0.0000000E+00; -2.3444702E-03;  4.0000000E+04;  0.0000000E+00;  4.0012734E+04; -5.6903016E-02;  0.0000000E+00;  2.0440200E-03;  1.6430555E+03;
  1.5134864E-01;  9.9999998E-03;  1.9971451E-02;3393; -1.1166314E-02;  0.0000000E+00;  4.3849886E-05;  9.9912115E+02;  1.0000000E-01; -7.2812756E+02;3;  1.0274144E-01;  0.0000000E+00; -1.8431798E-03;0; -5.4859012E-02;  3.9916320E+04;  0.0000000E+00; -2.3439506E-03;  4.0000000E+04;  0.0000000E+00;  4.0012734E+04; -5.6903027E-02;  0.0000000E+00;  2.0440137E-03;  1.6430629E+03;
  1.5136275E-01;  9.9999998E-03; -2.9956536E-02;3388; -1.1159108E-02;  0.0000000E+00; -6.0617342E-05;  9.9906866E+02;  1.0000000E-01; -7.7158313E+02;3;  1.0640233E-01;  0.0000000E+00;  2.7855183E-03;0; -5.4840140E-02;  3.9913508E+04;  0.0000000E+00; -4.9058879E-03;  4.0000000E+04;  0.0000000E+00;  4.0011355E+04; -5.6868650E-02;  0.0000000E+00;  2.0285102E-03;  1.5117692E+03;
  1.5136275E-01;  9.9999998E-03;  2.9956536E-02;3394; -1.1159114E-02;  0.0000000E+00;  6.0614282E-05;  9.9906866E+02;  1.0000000E-01; -7.7158313E+02;3;  1.0642774E-01;  0.0000000E+00; -2.7802500E-03;0; -5.4840144E-02;  3.9913504E+04;  0.0000000E+00; -4.9056285E-03;  4.0000000E+04;  0.0000000E+00;  4.0011355E+04; -5.6868646E-02;  0.0000000E+00;  2.0285009E-03;  1.5117777E+03;
  1.5138273E-01;  9.9999998E-03; -3.9944097E-02;3387; -1.1147718E-02;  0.0000000E+00; -7.3116520E-05;  9.9901208E+02;  1.0000000E-01; -8.1844598E+02;3;  1.1147628E-01;  0.0000000E+00;  3.6734962E-03;0; -5.4794289E-02;  3.9909711E+04;  0.0000000E+00; -8.0928253E-03;  4.0000000E+04;  0.0000000E+00;  4.0010465E+04; -5.6798991E-02;  0.0000000E+00;  2.0047026E-03;  1.3875404E+03;
  1.5138273E-01;  9.9999998E-03;  3.9944097E-02;3395; -1.1147723E-02;  0.0000000E+00;  7.3113406E-05;  9.9901202E+02;  1.0000000E-01; -8.1849536E+02;3;  1.1148275E-01;  0.0000000E+00; -3.6799510E-03;0; -5.4794312E-02;  3.9909711E+04;  0.0000000E+00; -8.0917357E-03;  4.0000000E+04;  0.0000000E+00;  4.0010465E+04; -5.6799002E-02;  0.0000000E+00;  2.0046916E-03;  1.3875455E+03;
  1.5140885E-01;  9.9999998E-03; -4.9935021E-02;3386; -1.1131046E-02;  0.0000000E+00; -8.2780483E-05;  9.9894794E+02;  1.0000000E-01; -8.7162970E+02;3;  1.1785709E-01;  0.0000000E+00;  4.5711501E-03;0; -5.4707568E-02;  3.9905297E+04;  0.0000000E+00; -1.1989409E-02;  4.0000000E+04;  0.0000000E+00;  4.0009973E+04; -5.6675844E-02;  0.0000000E+00;  1.9682774E-03;  1.3203273E+03;
  1.5140885E-01;  9.9999998E-03;  4.9935017E-02;3396; -1.1131053E-02;  0.0000000E+00;  8.2776016E-05;  9.9894788E+02;  1.0000000E-01; -8.7167908E+02;3;  1.1784297E-01;  0.0000000E+00; -4.6066176E-03;0; -5.4707561E-02;  3.9905297E+04;  0.0000000E+00; -1.1988004E-02;  4.0000000E+04;  0.0000000E+00;  4.0009973E+04; -5.6675829E-02;  0.0000000E+00;  1.9682674E-03;  1.3203341E+03;
  1.5144092E-01;  9.9999998E-03; -5.9929263E-02;3385; -1.1107769E-02;  0.0000000E+00; -9.2814284E-05;  9.9888910E+02;  1.0000000E-01; -9.2036902E+02;3;  1.2541923E-01;  0.0000000E+00;  5.3593852E-03;0; -5.4569416E-02;  3.9900578E+04;  0.0000000E+00; -1.7052026E-02;  4.0000000E+04;  0.0000000E+00;  4.0010129E+04; -5.6481127E-02;  0.0000000E+00;  1.9117127E-03;  1.3539669E+03;
  1.5144092E-01;  9.9999998E-03;  5.9929263E-02;3397; -1.1107776E-02;  0.0000000E+00;  9.2811228E-05;  9.9888910E+02;  1.0000000E-01; -9.2036902E+02;3;  1.2540066E-01;  0.0000000E+00; -5.3465720E-03;0; -5.4569438E-02;  3.9900574E+04;  0.0000000E+00; -1.7051477E-02;  4.0000000E+04;  0.0000000E+00;  4.0010129E+04; -5.6481145E-02;  0.0000000E+00;  1.9117056E-03;  1.3539713E+03;
  1.5147832E-01;  9.9999998E-03; -6.9926694E-02;3384; -1.1076506E-02;  0.0000000E+00; -1.0634035E-04;  9.9884607E+02;  1.0000000E-01; -9.5602234E+02;3;  1.3410595E-01;  0.0000000E+00;  5.9770751E-03;0; -5.4374672E-02;  3.9896098E+04;  0.0000000E+00; -2.3969401E-02;  4.0000000E+04;  0.0000000E+00;  4.0011234E+04; -5.6199219E-02;  0.0000000E+00;  1.8245464E-03;  1.5112939E+03;
  1.5152064E-01;  9.9999998E-03; -7.9926960E-02;3383; -1.1035910E-02;  0.0000000E+00; -1.2548250E-04;  9.9882556E+02;  1.0000000E-01; -9.7300952E+02;3;  1.4386579E-01;  0.0000000E+00;  6.1604283E-03;0; -5.4125387E-02;  3.9892582E+04;  0.0000000E+00; -3.3309061E-02;  4.0000000E+04;  0.0000000E+00;  4.0013715E+04; -5.5820387E-02;  0.0000000E+00;  1.6950011E-03;  1.7826273E+03;
  1.5156697E-01;  9.9999998E-03; -8.9928605E-02;3382; -1.0985081E-02;  0.0000000E+00; -1.5025915E-04;  9.9883185E+02;  1.0000000E-01; -9.6777509E+02;3;  1.5463351E-01;  0.0000000E+00;  5.8788536E-03;0; -5.3830847E-02;  3.9890453E+04;  0.0000000E+00; -4.5058154E-02;  4.0000000E+04;  0.0000000E+00;  4.0016051E+04; -5.5343721E-02;  0.0000000E+00;  1.5128758E-03;  2.1207351E+03;
  1.5161653E-01;  9.9999998E-03; -9.9930361E-02;3381; -1.0923735E-02;  0.0000000E+00; -1.7842944E-04;  9.9886450E+02;  1.0000000E-01; -9.4071411E+02;3;  1.6622214E-01;  0.0000000E+00;  5.5111102E-03;0; -5.3505395E-02;  3.9891020E+04;  0.0000000E+00; -5.8146641E-02;  4.0000000E+04;  0.0000000E+00;  4.0018766E+04; -5.4778233E-02;  0.0000000E+00;  1.2728381E-03;  2.4457820E+03;
  1.6160217E-01;  9.9999998E-03; -9.9956244E-02;3442; -1.1601597E-02;  0.0000000E+00; -1.5241827E-04;  9.9869708E+02;  1.0000000E-01; -1.0794263E+03;3;  1.9026890E-01;  0.0000000E+00;  1.3740013E-02;0; -5.4370146E-02;  3.9877410E+04;  0.0000000E+00; -4.7123257E-02;  4.0000000E+04;  0.0000000E+00;  4.0016207E+04; -5.5448189E-02;  0.0000000E+00;  1.0780423E-03;  2.1505146E+03;
  1.6155411E-01;  9.9999998E-03; -8.9958303E-02;3443; -1.1675494E-02;  0.0000000E+00; -1.2855079E-04;  9.9863721E+02;  1.0000000E-01; -1.1290544E+03;3;  1.7856216E-01;  0.0000000E+00;  1.3784409E-02;0; -5.4697510E-02;  3.9875180E+04;  0.0000000E+00; -3.4555115E-02;  4.0000000E+04;  0.0000000E+00;  4.0013684E+04; -5.6010038E-02;  0.0000000E+00;  1.3125262E-03;  1.8316895E+03;
  1.6150545E-01;  9.9999998E-03; -7.9958983E-02;3444; -1.1734254E-02;  0.0000000E+00; -1.0780129E-04;  9.9860736E+02;  1.0000000E-01; -1.1537946E+03;3;  1.6777121E-01;  0.0000000E+00;  1.3361239E-02;0; -5.4990411E-02;  3.9875289E+04;  0.0000000E+00; -2.5735745E-02;  4.0000000E+04;  0.0000000E+00;  4.0011027E+04; -5.6482408E-02;  0.0000000E+00;  1.4919970E-03;  1.4947769E+03;
  1.6145992E-01;  9.9999998E-03; -6.9959782E-02;3445; -1.1778520E-02;  0.0000000E+00; -9.2804170E-05;  9.9860638E+02;  1.0000000E-01; -1.1545846E+03;3;  1.5791504E-01;  0.0000000E+00;  1.2282141E-02;0; -5.5233706E-02;  3.9877254E+04;  0.0000000E+00; -2.0144666E-02;  4.0000000E+04;  0.0000000E+00;  4.0008848E+04; -5.6856606E-02;  0.0000000E+00;  1.6229001E-03;  1.2178489E+03;
  1.6141964E-01;  9.9999998E-03; -5.9961598E-02;3446; -1.1809925E-02;  0.0000000E+00; -8.3159015E-05;  9.9863501E+02;  1.0000000E-01; -1.1308816E+03;3;  1.4912492E-01;  0.0000000E+00;  1.0808075E-02;0; -5.5418774E-02;  3.9880523E+04;  0.0000000E+00; -1.6541159E-02;  4.0000000E+04;  0.0000000E+00;  4.0007441E+04; -5.7134297E-02;  0.0000000E+00;  1.7155211E-03;  1.0488594E+03;
  1.6138583E-01;  9.9999998E-03; -4.9964815E-02;3447; -1.1830758E-02;  0.0000000E+00; -7.6193159E-05;  9.9867792E+02;  1.0000000E-01; -1.0953270E+03;3;  1.4137794E-01;  0.0000000E+00;  9.2357071E-03;0; -5.5544682E-02;  3.9884156E+04;  0.0000000E+00; -1.3607852E-02;  4.0000000E+04;  0.0000000E+00;  4.0007324E+04; -5.7325460E-02;  0.0000000E+00;  1.7807770E-03;  9.9981079E+02;
  1.6135809E-01;  9.9999998E-03; -3.9969940E-02;3448; -1.1843419E-02;  0.0000000E+00; -6.8605972E-05;  9.9872882E+02;  1.0000000E-01; -1.0531554E+03;3;  1.3483575E-01;  0.0000000E+00;  7.4596955E-03;0; -5.5617943E-02;  3.9887789E+04;  0.0000000E+00; -1.0469491E-02;  4.0000000E+04;  0.0000000E+00;  4.0007641E+04; -5.7445634E-02;  0.0000000E+00;  1.8276919E-03;  1.0499639E+03;
  1.6133654E-01;  9.9999998E-03; -2.9977439E-02;3449; -1.1850302E-02;  0.0000000E+00; -5.7686171E-05;  9.9878088E+02;  1.0000000E-01; -1.0099962E+03;3;  1.2955844E-01;  0.0000000E+00;  5.6436001E-03;0; -5.5651005E-02;  3.9890969E+04;  0.0000000E+00; -6.9462694E-03;  4.0000000E+04;  0.0000000E+00;  4.0008328E+04; -5.7513077E-02;  0.0000000E+00;  1.8620713E-03;  1.1569620E+03;
  1.6132061E-01;  9.9999998E-03; -1.9986501E-02;3450; -1.1853477E-02;  0.0000000E+00; -4.2079642E-05;  9.9882477E+02;  1.0000000E-01; -9.7365149E+02;3;  1.2562181E-01;  0.0000000E+00;  3.7776241E-03;0; -5.5659220E-02;  3.9893410E+04;  0.0000000E+00; -3.5046604E-03;  4.0000000E+04;  0.0000000E+00;  4.0009348E+04; -5.7545781E-02;  0.0000000E+00;  1.8865624E-03;  1.2725109E+03;
  1.6131045E-01;  9.9999998E-03; -9.9950070E-03;3451; -1.1854595E-02;  0.0000000E+00; -2.2230855E-05;  9.9885089E+02;  1.0000000E-01; -9.5202246E+02;3;  1.2325717E-01;  0.0000000E+00;  1.9298192E-03;0; -5.5657193E-02;  3.9895023E+04;  0.0000000E+00; -9.4823749E-04;  4.0000000E+04;  0.0000000E+00;  4.0010137E+04; -5.7558794E-02;  0.0000000E+00;  1.9016004E-03;  1.3569945E+03;
  1.6130669E-01;  9.9999998E-03; -2.6902239E-10;3452; -1.1854813E-02;  0.0000000E+00; -2.1731059E-09;  9.9886078E+02;  1.0000000E-01; -9.4382513E+02;3;  1.2245791E-01;  0.0000000E+00; -4.4433509E-06;0; -5.5655163E-02;  3.9895508E+04;  0.0000000E+00; -4.2260249E-13;  4.0000000E+04;  0.0000000E+00;  4.0010262E+04; -5.7561878E-02;  0.0000000E+00;  1.9067146E-03;  1.3874192E+03;
  1.6131045E-01;  9.9999998E-03;  9.9950060E-03;3453; -1.1854594E-02;  0.0000000E+00;  2.2226328E-05;  9.9885083E+02;  1.0000000E-01; -9.5207184E+02;3;  1.2327605E-01;  0.0000000E+00; -1.9439562E-03;0; -5.5657223E-02;  3.9895023E+04;  0.0000000E+00; -9.4825431E-04;  4.0000000E+04;  0.0000000E+00;  4.0010137E+04; -5.7558820E-02;  0.0000000E+00;  1.9015961E-03;  1.3569998E+03;
  1.6132061E-01;  9.9999998E-03;  1.9986501E-02;3454; -1.1853477E-02;  0.0000000E+00;  4.2075480E-05;  9.9882477E+02;  1.0000000E-01; -9.7365149E+02;3;  1.2560152E-01;  0.0000000E+00; -3.7773980E-03;0; -5.5659223E-02;  3.9893410E+04;  0.0000000E+00; -3.5044916E-03;  4.0000000E+04;  0.0000000E+00;  4.0009348E+04; -5.7545781E-02;  0.0000000E+00;  1.8865570E-03;  1.2725197E+03;
  1.6133654E-01;  9.9999998E-03;  2.9977439E-02;3455; -1.1850307E-02;  0.0000000E+00;  5.7682493E-05;  9.9878088E+02;  1.0000000E-01; -1.0099962E+03;3;  1.2951967E-01;  0.0000000E+00; -5.6442814E-03;0; -5.5651043E-02;  3.9890965E+04;  0.0000000E+00; -6.9463821E-03;  4.0000000E+04;  0.0000000E+00;  4.0008328E+04; -5.7513107E-02;  0.0000000E+00;  1.8620630E-03;  1.1569706E+03;
  1.6135809E-01;  9.9999998E-03;  3.9969940E-02;3456; -1.1843424E-02;  0.0000000E+00;  6.8602611E-05;  9.9872876E+02;  1.0000000E-01; -1.0532048E+03;3;  1.3480590E-01;  0.0000000E+00; -7.4468893E-03;0; -5.5617962E-02;  3.9887789E+04;  0.0000000E+00; -1.0468247E-02;  4.0000000E+04;  0.0000000E+00;  4.0007641E+04; -5.7445645E-02;  0.0000000E+00;  1.8276826E-03;  1.0499663E+03;
  1.6138583E-01;  9.9999998E-03;  4.9964812E-02;3457; -1.1830762E-02;  0.0000000E+00;  7.6188655E-05;  9.9867792E+02;  1.0000000E-01; -1.0953270E+03;3;  1.4138584E-01;  0.0000000E+00; -9.2425356E-03;0; -5.5544633E-02;  3.9884156E+04;  0.0000000E+00; -1.3607834E-02;  4.0000000E+04;  0.0000000E+00;  4.0007324E+04; -5.7325404E-02;  0.0000000E+00;  1.7807699E-03;  9.9982001E+02;
  1.6141964E-01;  9.9999998E-03;  5.9961598E-02;3458; -1.1809931E-02;  0.0000000E+00;  8.3153966E-05;  9.9863501E+02;  1.0000000E-01; -1.1308816E+03;3;  1.4911488E-01;  0.0000000E+00; -1.0810797E-02;0; -5.5418860E-02;  3.9880523E+04;  0.0000000E+00; -1.6539488E-02;  4.0000000E+04;  0.0000000E+00;  4.0007445E+04; -5.7134375E-02;  0.0000000E+00;  1.7155136E-03;  1.0488663E+03;
  1.7160189E-01;  9.9999998E-03; -1.0002144E-01;3503; -1.2306089E-02;  0.0000000E+00; -1.3406240E-04;  9.9866144E+02;  1.0000000E-01; -1.1089563E+03;3;  2.0967513E-01;  0.0000000E+00;  2.3397945E-02;0; -5.5029050E-02;  3.9876547E+04;  0.0000000E+00; -3.6513392E-02;  4.0000000E+04;  0.0000000E+00;  4.0013117E+04; -5.5949714E-02;  0.0000000E+00;  9.2066504E-04;  1.7333507E+03;
  1.7154671E-01;  9.9999998E-03; -9.0024449E-02;3504; -1.2392111E-02;  0.0000000E+00; -1.1282336E-04;  9.9858521E+02;  1.0000000E-01; -1.1721150E+03;3;  1.9775099E-01;  0.0000000E+00;  2.2809058E-02;0; -5.5347297E-02;  3.9872738E+04;  0.0000000E+00; -2.7239082E-02;  4.0000000E+04;  0.0000000E+00;  4.0010191E+04; -5.6491371E-02;  0.0000000E+00;  1.1440743E-03;  1.4207148E+03;
  1.7149495E-01;  9.9999998E-03; -8.0024503E-02;3505; -1.2458566E-02;  0.0000000E+00; -9.5218536E-05;  9.9854407E+02;  1.0000000E-01; -1.2061881E+03;3;  1.8676932E-01;  0.0000000E+00;  2.1378664E-02;0; -5.5629697E-02;  3.9871555E+04;  0.0000000E+00; -2.3291599E-02;  4.0000000E+04;  0.0000000E+00;  4.0007430E+04; -5.6945801E-02;  0.0000000E+00;  1.3161057E-03;  1.0871516E+03;
  1.7145005E-01;  9.9999998E-03; -7.0022002E-02;3506; -1.2506424E-02;  0.0000000E+00; -8.3353800E-05;  9.9852856E+02;  1.0000000E-01; -1.2190767E+03;3;  1.7674614E-01;  0.0000000E+00;  1.9473936E-02;0; -5.5860378E-02;  3.9872574E+04;  0.0000000E+00; -2.2321669E-02;  4.0000000E+04;  0.0000000E+00;  4.0005383E+04; -5.7305057E-02;  0.0000000E+00;  1.4446783E-03;  8.0796185E+02;
  1.7141588E-01;  9.9999998E-03; -6.0017668E-02;3507; -1.2538148E-02;  0.0000000E+00; -7.6531003E-05;  9.9854425E+02;  1.0000000E-01; -1.2060399E+03;3;  1.6773513E-01;  0.0000000E+00;  1.7139129E-02;0; -5.6031141E-02;  3.9875113E+04;  0.0000000E+00; -2.1890283E-02;  4.0000000E+04;  0.0000000E+00;  4.0003895E+04; -5.7571381E-02;  0.0000000E+00;  1.5402399E-03;  6.3184088E+02;
  1.7139930E-01;  9.9999998E-03; -5.0013341E-02;3508; -1.2557410E-02;  0.0000000E+00; -7.1949442E-05;  9.9858344E+02;  1.0000000E-01; -1.1735964E+03;3;  1.5980427E-01;  0.0000000E+00;  1.4573598E-02;0; -5.6141891E-02;  3.9878391E+04;  0.0000000E+00; -2.0193456E-02;  4.0000000E+04;  0.0000000E+00;  4.0003680E+04; -5.7754591E-02;  0.0000000E+00;  1.6126988E-03;  5.7301019E+02;
  1.7140430E-01;  9.9999998E-03; -4.0011670E-02;3509; -1.2568035E-02;  0.0000000E+00; -6.6288951E-05;  9.9863135E+02;  1.0000000E-01; -1.1338938E+03;3;  1.5297702E-01;  0.0000000E+00;  1.1781416E-02;0; -5.6200631E-02;  3.9881805E+04;  0.0000000E+00; -1.6513469E-02;  4.0000000E+04;  0.0000000E+00;  4.0003926E+04; -5.7869982E-02;  0.0000000E+00;  1.6693522E-03;  6.1242987E+02;
  1.7142257E-01;  9.9999998E-03; -3.0012805E-02;3510; -1.2572912E-02;  0.0000000E+00; -5.6660891E-05;  9.9868115E+02;  1.0000000E-01; -1.0926604E+03;3;  1.4753176E-01;  0.0000000E+00;  8.8277478E-03;0; -5.6220967E-02;  3.9884988E+04;  0.0000000E+00; -1.1267187E-02;  4.0000000E+04;  0.0000000E+00;  4.0004910E+04; -5.7935104E-02;  0.0000000E+00;  1.7141348E-03;  7.0831750E+02;
  1.7143784E-01;  9.9999998E-03; -2.0014012E-02;3511; -1.2573997E-02;  0.0000000E+00; -4.1710569E-05;  9.9872144E+02;  1.0000000E-01; -1.0592787E+03;3;  1.4349958E-01;  0.0000000E+00;  5.9782849E-03;0; -5.6219000E-02;  3.9887285E+04;  0.0000000E+00; -5.7445103E-03;  4.0000000E+04;  0.0000000E+00;  4.0005426E+04; -5.7966854E-02;  0.0000000E+00;  1.7478555E-03;  8.1301721E+02;
  1.7143913E-01;  9.9999998E-03; -1.0011718E-02;3512; -1.2573000E-02;  0.0000000E+00; -2.2133408E-05;  9.9874854E+02;  1.0000000E-01; -1.0368102E+03;3;  1.4103501E-01;  0.0000000E+00;  2.9099521E-03;0; -5.6210026E-02;  3.9888785E+04;  0.0000000E+00; -1.5584249E-03;  4.0000000E+04;  0.0000000E+00;  4.0006348E+04; -5.7979345E-02;  0.0000000E+00;  1.7693180E-03;  8.8891406E+02;
  1.7143825E-01;  9.9999998E-03; -1.2919327E-10;3513; -1.2572387E-02;  0.0000000E+00; -2.3329580E-09;  9.9875708E+02;  1.0000000E-01; -1.0297487E+03;3;  1.4015615E-01;  0.0000000E+00; -5.4518077E-06;0; -5.6205697E-02;  3.9889379E+04;  0.0000000E+00;  7.9778193E-13;  4.0000000E+04;  0.0000000E+00;  4.0006539E+04; -5.7982426E-02;  0.0000000E+00;  1.7767295E-03;  9.1586285E+02;
  1.7143913E-01;  9.9999998E-03;  1.0011718E-02;3514; -1.2573002E-02;  0.0000000E+00;  2.2128606E-05;  9.9874860E+02;  1.0000000E-01; -1.0367607E+03;3;  1.4100854E-01;  0.0000000E+00; -2.9196197E-03;0; -5.6210071E-02;  3.9888789E+04;  0.0000000E+00; -1.5584460E-03;  4.0000000E+04;  0.0000000E+00;  4.0006348E+04; -5.7979390E-02;  0.0000000E+00;  1.7693174E-03;  8.8891394E+02;
  1.7143784E-01;  9.9999998E-03;  2.0014012E-02;3515; -1.2574000E-02;  0.0000000E+00;  4.1706448E-05;  9.9872150E+02;  1.0000000E-01; -1.0592292E+03;3;  1.4350998E-01;  0.0000000E+00; -5.9818542E-03;0; -5.6218982E-02;  3.9887285E+04;  0.0000000E+00; -5.7444773E-03;  4.0000000E+04;  0.0000000E+00;  4.0005426E+04; -5.7966832E-02;  0.0000000E+00;  1.7478500E-03;  8.1302203E+02;
  1.7142257E-01;  9.9999998E-03;  3.0012805E-02;3516; -1.2572913E-02;  0.0000000E+00;  5.6656343E-05;  9.9868121E+02;  1.0000000E-01; -1.0926111E+03;3;  1.4755820E-01;  0.0000000E+00; -8.8269133E-03;0; -5.6221064E-02;  3.9884984E+04;  0.0000000E+00; -1.1267796E-02;  4.0000000E+04;  0.0000000E+00;  4.0004910E+04; -5.7935189E-02;  0.0000000E+00;  1.7141261E-03;  7.0832202E+02;
  1.7140430E-01;  9.9999998E-03;  4.0011670E-02;3517; -1.2568038E-02;  0.0000000E+00;  6.6283981E-05;  9.9863116E+02;  1.0000000E-01; -1.1340420E+03;3;  1.5301225E-01;  0.0000000E+00; -1.1784103E-02;0; -5.6200713E-02;  3.9881797E+04;  0.0000000E+00; -1.6513139E-02;  4.0000000E+04;  0.0000000E+00;  4.0003926E+04; -5.7870060E-02;  0.0000000E+00;  1.6693464E-03;  6.1243640E+02;
  1.7139930E-01;  9.9999998E-03;  5.0013341E-02;3518; -1.2557414E-02;  0.0000000E+00;  7.1943978E-05;  9.9858337E+02;  1.0000000E-01; -1.1736459E+03;3;  1.5979847E-01;  0.0000000E+00; -1.4567265E-02;0; -5.6141872E-02;  3.9878387E+04;  0.0000000E+00; -2.0195570E-02;  4.0000000E+04;  0.0000000E+00;  4.0003680E+04; -5.7754565E-02;  0.0000000E+00;  1.6126917E-03;  5.7301532E+02;
  1.7141588E-01;  9.9999998E-03;  6.0017668E-02;3519; -1.2538156E-02;  0.0000000E+00;  7.6526645E-05;  9.9854425E+02;  1.0000000E-01; -1.2060399E+03;3;  1.6771181E-01;  0.0000000E+00; -1.7137213E-02;0; -5.6031194E-02;  3.9875105E+04;  0.0000000E+00; -2.1886721E-02;  4.0000000E+04;  0.0000000E+00;  4.0003895E+04; -5.7571426E-02;  0.0000000E+00;  1.5402328E-03;  6.3184900E+02;
  1.8157652E-01;  9.9999998E-03; -1.0007309E-01;3564; -1.3004781E-02;  0.0000000E+00; -1.2132593E-04;  9.9872089E+02;  1.0000000E-01; -1.0597231E+03;3;  2.3069216E-01;  0.0000000E+00;  3.4637071E-02;0; -5.5358581E-02;  3.9883961E+04;  0.0000000E+00; -2.7335186E-02;  4.0000000E+04;  0.0000000E+00;  4.0008781E+04; -5.6166094E-02;  0.0000000E+00;  8.0751273E-04;  1.2136821E+03;
  1.8154049E-01;  9.9999998E-03; -9.0075359E-02;3565; -1.3103693E-02;  0.0000000E+00; -1.0140209E-04;  9.9863947E+02;  1.0000000E-01; -1.1271780E+03;3;  2.1869053E-01;  0.0000000E+00;  3.3154901E-02;0; -5.5657994E-02;  3.9880023E+04;  0.0000000E+00; -2.3726393E-02;  4.0000000E+04;  0.0000000E+00;  4.0006414E+04; -5.6671221E-02;  0.0000000E+00;  1.0132280E-03;  9.0962469E+02;
  1.8152115E-01;  9.9999998E-03; -8.0073968E-02;3566; -1.3179241E-02;  0.0000000E+00; -8.6035398E-05;  9.9859320E+02;  1.0000000E-01; -1.1654979E+03;3;  2.0765826E-01;  0.0000000E+00;  3.0639771E-02;0; -5.5921864E-02;  3.9878867E+04;  0.0000000E+00; -2.5720067E-02;  4.0000000E+04;  0.0000000E+00;  4.0003535E+04; -5.7093933E-02;  0.0000000E+00;  1.1720707E-03;  5.8601392E+02;
  1.8151967E-01;  9.9999998E-03; -7.0068233E-02;3567; -1.3232676E-02;  0.0000000E+00; -7.6762939E-05;  9.9858899E+02;  1.0000000E-01; -1.1690040E+03;3;  1.9757816E-01;  0.0000000E+00;  2.7625395E-02;0; -5.6133691E-02;  3.9880043E+04;  0.0000000E+00; -2.9300110E-02;  4.0000000E+04;  0.0000000E+00;  4.0001418E+04; -5.7427339E-02;  0.0000000E+00;  1.2936470E-03;  3.1488901E+02;
  1.8153140E-01;  9.9999998E-03; -6.0058843E-02;3568; -1.3266607E-02;  0.0000000E+00; -7.2463372E-05;  9.9860730E+02;  1.0000000E-01; -1.1538439E+03;3;  1.8850707E-01;  0.0000000E+00;  2.3987321E-02;0; -5.6285053E-02;  3.9882816E+04;  0.0000000E+00; -3.1192591E-02;  4.0000000E+04;  0.0000000E+00;  3.9999895E+04; -5.7673879E-02;  0.0000000E+00;  1.3888266E-03;  1.4656070E+02;
  1.8155386E-01;  9.9999998E-03; -5.0048757E-02;3569; -1.3285052E-02;  0.0000000E+00; -7.0032162E-05;  9.9865381E+02;  1.0000000E-01; -1.1152771E+03;3;  1.8036696E-01;  0.0000000E+00;  2.0429697E-02;0; -5.6376219E-02;  3.9886672E+04;  0.0000000E+00; -2.9538320E-02;  4.0000000E+04;  0.0000000E+00;  3.9999688E+04; -5.7842903E-02;  0.0000000E+00;  1.4666859E-03;  9.3675476E+01;
  1.8158340E-01;  9.9999998E-03; -4.0041953E-02;3570; -1.3292409E-02;  0.0000000E+00; -6.5885914E-05;  9.9870746E+02;  1.0000000E-01; -1.0708339E+03;3;  1.7332052E-01;  0.0000000E+00;  1.6548939E-02;0; -5.6416262E-02;  3.9890715E+04;  0.0000000E+00; -2.4150625E-02;  4.0000000E+04;  0.0000000E+00;  3.9999996E+04; -5.7948977E-02;  0.0000000E+00;  1.5327136E-03;  1.3075677E+02;
  1.8161716E-01;  9.9999998E-03; -3.0040853E-02;3571; -1.3293118E-02;  0.0000000E+00; -5.7171306E-05;  9.9876404E+02;  1.0000000E-01; -1.0239711E+03;3;  1.6770075E-01;  0.0000000E+00;  1.2707140E-02;0; -5.6420047E-02;  3.9894480E+04;  0.0000000E+00; -1.6328087E-02;  4.0000000E+04;  0.0000000E+00;  4.0000930E+04; -5.8008395E-02;  0.0000000E+00;  1.5883467E-03;  2.2586896E+02;
  1.8164486E-01;  9.9999998E-03; -2.0040188E-02;3572; -1.3290570E-02;  0.0000000E+00; -4.2506275E-05;  9.9881219E+02;  1.0000000E-01; -9.8407092E+02;3;  1.6345577E-01;  0.0000000E+00;  8.4773917E-03;0; -5.6405395E-02;  3.9897312E+04;  0.0000000E+00; -8.2495380E-03;  4.0000000E+04;  0.0000000E+00;  4.0001859E+04; -5.8037311E-02;  0.0000000E+00;  1.6319159E-03;  3.3021271E+02;
  1.8166240E-01;  9.9999998E-03; -1.0029499E-02;3573; -1.3287690E-02;  0.0000000E+00; -2.2684842E-05;  9.9884015E+02;  1.0000000E-01; -9.6091107E+02;3;  1.6081856E-01;  0.0000000E+00;  4.1294284E-03;0; -5.6388762E-02;  3.9899199E+04;  0.0000000E+00; -2.2269571E-03;  4.0000000E+04;  0.0000000E+00;  4.0002277E+04; -5.8048885E-02;  0.0000000E+00;  1.6601234E-03;  4.0439362E+02;
  1.8167067E-01;  9.9999998E-03; -3.6903404E-11;3574; -1.3286656E-02;  0.0000000E+00; -2.4197144E-09;  9.9885303E+02;  1.0000000E-01; -9.5024475E+02;3;  1.5995704E-01;  0.0000000E+00; -2.0075913E-06;0; -5.6381833E-02;  3.9899762E+04;  0.0000000E+00;  2.8145490E-14;  4.0000000E+04;  0.0000000E+00;  4.0002824E+04; -5.8051754E-02;  0.0000000E+00;  1.6699199E-03;  4.3013239E+02;
  1.8166240E-01;  9.9999998E-03;  1.0029499E-02;3575; -1.3287691E-02;  0.0000000E+00;  2.2679940E-05;  9.9884015E+02;  1.0000000E-01; -9.6091107E+02;3;  1.6082513E-01;  0.0000000E+00; -4.1343756E-03;0; -5.6388836E-02;  3.9899199E+04;  0.0000000E+00; -2.2271685E-03;  4.0000000E+04;  0.0000000E+00;  4.0002277E+04; -5.8048960E-02;  0.0000000E+00;  1.6601220E-03;  4.0439603E+02;
  1.8164486E-01;  9.9999998E-03;  2.0040188E-02;3576; -1.3290571E-02;  0.0000000E+00;  4.2501775E-05;  9.9881219E+02;  1.0000000E-01; -9.8407092E+02;3;  1.6346924E-01;  0.0000000E+00; -8.4795253E-03;0; -5.6405477E-02;  3.9897312E+04;  0.0000000E+00; -8.2497885E-03;  4.0000000E+04;  0.0000000E+00;  4.0001859E+04; -5.8037385E-02;  0.0000000E+00;  1.6319095E-03;  3.3021411E+02;
  1.8161716E-01;  9.9999998E-03;  3.0040853E-02;3577; -1.3293122E-02;  0.0000000E+00;  5.7167032E-05;  9.9876398E+02;  1.0000000E-01; -1.0240204E+03;3;  1.6772594E-01;  0.0000000E+00; -1.2701483E-02;0; -5.6420088E-02;  3.9894484E+04;  0.0000000E+00; -1.6328642E-02;  4.0000000E+04;  0.0000000E+00;  4.0000930E+04; -5.8008429E-02;  0.0000000E+00;  1.5883402E-03;  2.2587981E+02;
  1.8158340E-01;  9.9999998E-03;  4.0041953E-02;3578; -1.3292411E-02;  0.0000000E+00;  6.5880857E-05;  9.9870746E+02;  1.0000000E-01; -1.0708339E+03;3;  1.7339104E-01;  0.0000000E+00; -1.6543977E-02;0; -5.6416243E-02;  3.9890715E+04;  0.0000000E+00; -2.4150474E-02;  4.0000000E+04;  0.0000000E+00;  3.9999996E+04; -5.7948951E-02;  0.0000000E+00;  1.5327065E-03;  1.3076338E+02;
  1.8155386E-01;  9.9999998E-03;  5.0048757E-02;3579; -1.3285057E-02;  0.0000000E+00;  7.0027381E-05;  9.9865381E+02;  1.0000000E-01; -1.1152771E+03;3;  1.8035105E-01;  0.0000000E+00; -2.0413322E-02;0; -5.6376234E-02;  3.9886668E+04;  0.0000000E+00; -2.9539198E-02;  4.0000000E+04;  0.0000000E+00;  3.9999688E+04; -5.7842914E-02;  0.0000000E+00;  1.4666802E-03;  9.3684959E+01;
  1.8153140E-01;  9.9999998E-03;  6.0058843E-02;3580; -1.3266613E-02;  0.0000000E+00;  7.2458468E-05;  9.9860730E+02;  1.0000000E-01; -1.1538439E+03;3;  1.8849814E-01;  0.0000000E+00; -2.3973271E-02;0; -5.6285042E-02;  3.9882816E+04;  0.0000000E+00; -3.1193638E-02;  4.0000000E+04;  0.0000000E+00;  3.9999895E+04; -5.7673864E-02;  0.0000000E+00;  1.3888222E-03;  1.4656534E+02;
  1.9158828E-01;  9.9999998E-03; -1.0009768E-01;3625; -1.3678634E-02;  0.0000000E+00; -1.1011262E-04;  9.9883832E+02;  1.0000000E-01; -9.6244189E+02;3;  2.5367194E-01;  0.0000000E+00;  4.7409594E-02;0; -5.5311516E-02;  3.9897336E+04;  0.0000000E+00; -1.4462950E-02;  4.0000000E+04;  0.0000000E+00;  4.0004043E+04; -5.6050792E-02;  0.0000000E+00;  7.3927757E-04;  6.3971747E+02;
  1.9159712E-01;  9.9999998E-03; -9.0096757E-02;3626; -1.3790006E-02;  0.0000000E+00; -9.0804780E-05;  9.9877625E+02;  1.0000000E-01; -1.0138478E+03;3;  2.4175203E-01;  0.0000000E+00;  4.4592932E-02;0; -5.5581167E-02;  3.9894539E+04;  0.0000000E+00; -1.8306009E-02;  4.0000000E+04;  0.0000000E+00;  4.0001828E+04; -5.6502011E-02;  0.0000000E+00;  9.2084415E-04;  3.4810791E+02;
  1.9161791E-01;  9.9999998E-03; -8.0092780E-02;3627; -1.3873099E-02;  0.0000000E+00; -7.7719298E-05;  9.9874982E+02;  1.0000000E-01; -1.0357732E+03;3;  2.3080143E-01;  0.0000000E+00;  4.0684789E-02;0; -5.5816699E-02;  3.9894863E+04;  0.0000000E+00; -2.6354585E-02;  4.0000000E+04;  0.0000000E+00;  3.9999363E+04; -5.6878079E-02;  0.0000000E+00;  1.0613798E-03;  5.6336472E+01;
  1.9164363E-01;  9.9999998E-03; -7.0085444E-02;3628; -1.3929180E-02;  0.0000000E+00; -7.1797142E-05;  9.9875964E+02;  1.0000000E-01; -1.0276252E+03;3;  2.2067875E-01;  0.0000000E+00;  3.6411181E-02;0; -5.6001946E-02;  3.9897488E+04;  0.0000000E+00; -3.3672269E-02;  4.0000000E+04;  0.0000000E+00;  3.9997344E+04; -5.7174303E-02;  0.0000000E+00;  1.1723571E-03;  2.1647453E+02;
  1.9166833E-01;  9.9999998E-03; -6.0074549E-02;3629; -1.3961784E-02;  0.0000000E+00; -7.0640752E-05;  9.9880188E+02;  1.0000000E-01; -9.9261389E+02;3;  2.1143648E-01;  0.0000000E+00;  3.1721074E-02;0; -5.6128863E-02;  3.9901691E+04;  0.0000000E+00; -3.6985200E-02;  4.0000000E+04;  0.0000000E+00;  3.9996059E+04; -5.7393782E-02;  0.0000000E+00;  1.2649181E-03;  3.6623026E+02;
  1.9169010E-01;  9.9999998E-03; -5.0062757E-02;3630; -1.3975935E-02;  0.0000000E+00; -7.0685448E-05;  9.9886407E+02;  1.0000000E-01; -9.4110919E+02;3;  2.0305590E-01;  0.0000000E+00;  2.6727498E-02;0; -5.6198355E-02;  3.9906770E+04;  0.0000000E+00; -3.5008308E-02;  4.0000000E+04;  0.0000000E+00;  3.9996172E+04; -5.7545312E-02;  0.0000000E+00;  1.3469561E-03;  4.0009760E+02;
  1.9171059E-01;  9.9999998E-03; -4.0052872E-02;3631; -1.3977461E-02;  0.0000000E+00; -6.8034991E-05;  9.9893402E+02;  1.0000000E-01; -8.8313550E+02;3;  1.9577374E-01;  0.0000000E+00;  2.1869568E-02;0; -5.6219820E-02;  3.9911867E+04;  0.0000000E+00; -2.8320976E-02;  4.0000000E+04;  0.0000000E+00;  3.9997062E+04; -5.7641566E-02;  0.0000000E+00;  1.4217445E-03;  3.3542416E+02;
  1.9173749E-01;  9.9999998E-03; -3.0050496E-02;3632; -1.3972433E-02;  0.0000000E+00; -5.9791884E-05;  9.9900146E+02;  1.0000000E-01; -8.2728522E+02;3;  1.8978627E-01;  0.0000000E+00;  1.6940456E-02;0; -5.6208424E-02;  3.9916496E+04;  0.0000000E+00; -1.8921321E-02;  4.0000000E+04;  0.0000000E+00;  3.9998062E+04; -5.7696383E-02;  0.0000000E+00;  1.4879587E-03;  2.1665977E+02;
  1.9176811E-01;  9.9999998E-03; -2.0050071E-02;3633; -1.3965640E-02;  0.0000000E+00; -4.4748693E-05;  9.9906085E+02;  1.0000000E-01; -7.7805206E+02;3;  1.8530247E-01;  0.0000000E+00;  1.1507133E-02;0; -5.6182172E-02;  3.9920246E+04;  0.0000000E+00; -9.4705150E-03;  4.0000000E+04;  0.0000000E+00;  3.9998379E+04; -5.7723440E-02;  0.0000000E+00;  1.5412687E-03;  9.5556396E+01;
  1.9179206E-01;  9.9999998E-03; -1.0037130E-02;3634; -1.3960259E-02;  0.0000000E+00; -2.3913404E-05;  9.9909668E+02;  1.0000000E-01; -7.4837390E+02;3;  1.8252124E-01;  0.0000000E+00;  5.7359347E-03;0; -5.6158300E-02;  3.9922406E+04;  0.0000000E+00; -2.5424764E-03;  4.0000000E+04;  0.0000000E+00;  3.9999551E+04; -5.7734590E-02;  0.0000000E+00;  1.5762897E-03;  1.1496376E+01;
  1.9180238E-01;  9.9999998E-03;  2.6476337E-11;3635; -1.3958333E-02;  0.0000000E+00; -2.6779323E-09;  9.9911267E+02;  1.0000000E-01; -7.3513971E+02;3;  1.8159382E-01;  0.0000000E+00; -7.1986688E-07;0; -5.6148827E-02;  3.9923375E+04;  0.0000000E+00; -8.2181018E-13;  4.0000000E+04;  0.0000000E+00;  3.9999824E+04; -5.7737377E-02;  0.0000000E+00;  1.5885500E-03;  1.8014652E+01;
  1.9179206E-01;  9.9999998E-03;  1.0037131E-02;3636; -1.3960260E-02;  0.0000000E+00;  2.3908335E-05;  9.9909662E+02;  1.0000000E-01; -7.4842328E+02;3;  1.8255842E-01;  0.0000000E+00; -5.7347883E-03;0; -5.6158315E-02;  3.9922406E+04;  0.0000000E+00; -2.5427069E-03;  4.0000000E+04;  0.0000000E+00;  3.9999551E+04; -5.7734601E-02;  0.0000000E+00;  1.5762870E-03;  1.1492553E+01;
  1.9176811E-01;  9.9999998E-03;  2.0050071E-02;3637; -1.3965642E-02;  0.0000000E+00;  4.4743847E-05;  9.9906085E+02;  1.0000000E-01; -7.7805206E+02;3;  1.8533139E-01;  0.0000000E+00; -1.1501636E-02;0; -5.6182146E-02;  3.9920246E+04;  0.0000000E+00; -9.4708642E-03;  4.0000000E+04;  0.0000000E+00;  3.9998379E+04; -5.7723410E-02;  0.0000000E+00;  1.5412637E-03;  9.5552406E+01;
  1.9173749E-01;  9.9999998E-03;  3.0050496E-02;3638; -1.3972435E-02;  0.0000000E+00;  5.9787086E-05;  9.9900146E+02;  1.0000000E-01; -8.2728522E+02;3;  1.8977924E-01;  0.0000000E+00; -1.6929906E-02;0; -5.6208398E-02;  3.9916500E+04;  0.0000000E+00; -1.8921696E-02;  4.0000000E+04;  0.0000000E+00;  3.9998062E+04; -5.7696350E-02;  0.0000000E+00;  1.4879530E-03;  2.1665146E+02;
  1.9171059E-01;  9.9999998E-03;  4.0052872E-02;3639; -1.3977463E-02;  0.0000000E+00;  6.8030415E-05;  9.9893390E+02;  1.0000000E-01; -8.8323425E+02;3;  1.9578972E-01;  0.0000000E+00; -2.1854455E-02;0; -5.6219835E-02;  3.9911863E+04;  0.0000000E+00; -2.8322721E-02;  4.0000000E+04;  0.0000000E+00;  3.9997062E+04; -5.7641573E-02;  0.0000000E+00;  1.4217392E-03;  3.3541397E+02;
  1.9169010E-01;  9.9999998E-03;  5.0062757E-02;3640; -1.3975939E-02;  0.0000000E+00;  7.0680864E-05;  9.9886407E+02;  1.0000000E-01; -9.4110919E+02;3;  2.0311770E-01;  0.0000000E+00; -2.6712509E-02;0; -5.6198351E-02;  3.9906770E+04;  0.0000000E+00; -3.5009738E-02;  4.0000000E+04;  0.0000000E+00;  3.9996172E+04; -5.7545301E-02;  0.0000000E+00;  1.3469514E-03;  4.0008432E+02;
  1.9166833E-01;  9.9999998E-03;  6.0074549E-02;3641; -1.3961788E-02;  0.0000000E+00;  7.0636590E-05;  9.9880194E+02;  1.0000000E-01; -9.9256451E+02;3;  2.1146959E-01;  0.0000000E+00; -3.1703040E-02;0; -5.6128878E-02;  3.9901684E+04;  0.0000000E+00; -3.6986168E-02;  4.0000000E+04;  0.0000000E+00;  3.9996059E+04; -5.7393793E-02;  0.0000000E+00;  1.2649151E-03;  3.6622015E+02;
  2.0165153E-01;  9.9999998E-03; -1.0010082E-01;3686; -1.4313856E-02;  0.0000000E+00; -9.7476433E-05;  9.9900122E+02;  1.0000000E-01; -8.2748279E+02;3;  2.7912554E-01;  0.0000000E+00;  6.0929079E-02;0; -5.4904774E-02;  3.9914684E+04;  0.0000000E+00;  9.4408952E-03;  4.0000000E+04;  0.0000000E+00;  4.0000031E+04; -5.5618443E-02;  0.0000000E+00;  7.1366742E-04;  7.9759750E+01;
  2.0169346E-01;  9.9999998E-03; -9.0094045E-02;3687; -1.4433370E-02;  0.0000000E+00; -8.0203150E-05;  9.9897589E+02;  1.0000000E-01; -8.4846985E+02;3;  2.6733214E-01;  0.0000000E+00;  5.6463175E-02;0; -5.5136722E-02;  3.9914684E+04;  0.0000000E+00; -2.6599762E-03;  4.0000000E+04;  0.0000000E+00;  3.9997609E+04; -5.6002196E-02;  0.0000000E+00;  8.6547260E-04;  1.9540891E+02;
  2.0173912E-01;  9.9999998E-03; -8.0083802E-02;3688; -1.4520088E-02;  0.0000000E+00; -7.0956237E-05;  9.9898407E+02;  1.0000000E-01; -8.4165521E+02;3;  2.5636065E-01;  0.0000000E+00;  5.0742131E-02;0; -5.5339035E-02;  3.9917441E+04;  0.0000000E+00; -1.6331216E-02;  4.0000000E+04;  0.0000000E+00;  3.9995602E+04; -5.6322489E-02;  0.0000000E+00;  9.8345533E-04;  4.7353366E+02;
  2.0178294E-01;  9.9999998E-03; -7.0069343E-02;3689; -1.4576234E-02;  0.0000000E+00; -6.9353722E-05;  9.9902515E+02;  1.0000000E-01; -8.0763147E+02;3;  2.4615031E-01;  0.0000000E+00;  4.5362897E-02;0; -5.5495683E-02;  3.9922191E+04;  0.0000000E+00; -2.6872562E-02;  4.0000000E+04;  0.0000000E+00;  3.9993746E+04; -5.6576360E-02;  0.0000000E+00;  1.0806785E-03;  6.9354431E+02;
  2.0181534E-01;  9.9999998E-03; -6.0050581E-02;3690; -1.4606047E-02;  0.0000000E+00; -7.1683782E-05;  9.9908807E+02;  1.0000000E-01; -7.5553418E+02;3;  2.3669955E-01;  0.0000000E+00;  3.9979160E-02;0; -5.5598877E-02;  3.9928434E+04;  0.0000000E+00; -3.1857051E-02;  4.0000000E+04;  0.0000000E+00;  3.9992820E+04; -5.6767177E-02;  0.0000000E+00;  1.1682976E-03;  8.1055347E+02;
  2.0183247E-01;  9.9999998E-03; -5.0029956E-02;3691; -1.4615303E-02;  0.0000000E+00; -7.4206291E-05;  9.9917279E+02;  1.0000000E-01; -6.8531396E+02;3;  2.2804436E-01;  0.0000000E+00;  3.4553703E-02;0; -5.5649854E-02;  3.9934898E+04;  0.0000000E+00; -3.0878536E-02;  4.0000000E+04;  0.0000000E+00;  3.9992996E+04; -5.6902707E-02;  0.0000000E+00;  1.2528537E-03;  8.0928851E+02;
  2.0184106E-01;  9.9999998E-03; -4.0012475E-02;3692; -1.4610942E-02;  0.0000000E+00; -7.2964802E-05;  9.9925916E+02;  1.0000000E-01; -6.1376044E+02;3;  2.2037436E-01;  0.0000000E+00;  2.8614465E-02;0; -5.5657338E-02;  3.9941141E+04;  0.0000000E+00; -2.5108596E-02;  4.0000000E+04;  0.0000000E+00;  3.9993328E+04; -5.6992564E-02;  0.0000000E+00;  1.3352270E-03;  7.0915601E+02;
  2.0185521E-01;  9.9999998E-03; -3.0006230E-02;3693; -1.4600226E-02;  0.0000000E+00; -6.4868793E-05;  9.9934119E+02;  1.0000000E-01; -5.4581171E+02;3;  2.1417823E-01;  0.0000000E+00;  2.1853879E-02;0; -5.5635396E-02;  3.9946445E+04;  0.0000000E+00; -1.6740691E-02;  4.0000000E+04;  0.0000000E+00;  3.9995047E+04; -5.7046659E-02;  0.0000000E+00;  1.4112621E-03;  5.5737280E+02;
  2.0187353E-01;  9.9999998E-03; -2.0007705E-02;3694; -1.4588650E-02;  0.0000000E+00; -4.8737144E-05;  9.9940576E+02;  1.0000000E-01; -4.9233176E+02;3;  2.0946865E-01;  0.0000000E+00;  1.5281234E-02;0; -5.5601992E-02;  3.9950719E+04;  0.0000000E+00; -8.3396491E-03;  4.0000000E+04;  0.0000000E+00;  3.9996320E+04; -5.7075880E-02;  0.0000000E+00;  1.4738872E-03;  4.0793460E+02;
  2.0188907E-01;  9.9999998E-03; -1.0008436E-02;3695; -1.4580158E-02;  0.0000000E+00; -2.5937008E-05;  9.9945190E+02;  1.0000000E-01; -4.5411063E+02;3;  2.0651230E-01;  0.0000000E+00;  7.9394123E-03;0; -5.5573896E-02;  3.9953242E+04;  0.0000000E+00; -2.2277618E-03;  4.0000000E+04;  0.0000000E+00;  3.9997219E+04; -5.7089325E-02;  0.0000000E+00;  1.5154297E-03;  3.0344705E+02;
  2.0189726E-01;  9.9999998E-03;  1.3416349E-10;3696; -1.4577190E-02;  0.0000000E+00; -2.6401723E-09;  9.9946729E+02;  1.0000000E-01; -4.4132086E+02;3;  2.0547141E-01;  0.0000000E+00;  3.5740522E-06;0; -5.5562876E-02;  3.9954062E+04;  0.0000000E+00; -9.7478004E-13;  4.0000000E+04;  0.0000000E+00;  3.9997465E+04; -5.7092890E-02;  0.0000000E+00;  1.5300144E-03;  2.6677798E+02;
  2.0188907E-01;  9.9999998E-03;  1.0008437E-02;3697; -1.4580159E-02;  0.0000000E+00;  2.5931715E-05;  9.9945190E+02;  1.0000000E-01; -4.5411063E+02;3;  2.0652536E-01;  0.0000000E+00; -7.9318741E-03;0; -5.5573877E-02;  3.9953242E+04;  0.0000000E+00; -2.2281657E-03;  4.0000000E+04;  0.0000000E+00;  3.9997219E+04; -5.7089306E-02;  0.0000000E+00;  1.5154285E-03;  3.0344189E+02;
  2.0187353E-01;  9.9999998E-03;  2.0007707E-02;3698; -1.4588652E-02;  0.0000000E+00;  4.8731999E-05;  9.9940576E+02;  1.0000000E-01; -4.9233176E+02;3;  2.0949197E-01;  0.0000000E+00; -1.5277089E-02;0; -5.5602003E-02;  3.9950719E+04;  0.0000000E+00; -8.3400384E-03;  4.0000000E+04;  0.0000000E+00;  3.9996320E+04; -5.7075884E-02;  0.0000000E+00;  1.4738822E-03;  4.0792685E+02;
  2.0185521E-01;  9.9999998E-03;  3.0006230E-02;3699; -1.4600230E-02;  0.0000000E+00;  6.4863656E-05;  9.9934119E+02;  1.0000000E-01; -5.4581171E+02;3;  2.1419713E-01;  0.0000000E+00; -2.1842709E-02;0; -5.5635400E-02;  3.9946445E+04;  0.0000000E+00; -1.6741386E-02;  4.0000000E+04;  0.0000000E+00;  3.9995047E+04; -5.7046659E-02;  0.0000000E+00;  1.4112591E-03;  5.5735724E+02;
  2.0184104E-01;  9.9999998E-03;  4.0012475E-02;3700; -1.4610944E-02;  0.0000000E+00;  7.2960065E-05;  9.9925922E+02;  1.0000000E-01; -6.1371106E+02;3;  2.2041740E-01;  0.0000000E+00; -2.8596524E-02;0; -5.5657372E-02;  3.9941145E+04;  0.0000000E+00; -2.5108743E-02;  4.0000000E+04;  0.0000000E+00;  3.9993328E+04; -5.6992594E-02;  0.0000000E+00;  1.3352237E-03;  7.0914764E+02;
  2.0183247E-01;  9.9999998E-03;  5.0029956E-02;3701; -1.4615307E-02;  0.0000000E+00;  7.4201744E-05;  9.9917279E+02;  1.0000000E-01; -6.8531396E+02;3;  2.2804342E-01;  0.0000000E+00; -3.4530036E-02;0; -5.5649970E-02;  3.9934902E+04;  0.0000000E+00; -3.0879550E-02;  4.0000000E+04;  0.0000000E+00;  3.9992996E+04; -5.6902818E-02;  0.0000000E+00;  1.2528489E-03;  8.0927893E+02;
  2.0181534E-01;  9.9999998E-03;  6.0050581E-02;3702; -1.4606055E-02;  0.0000000E+00;  7.1679613E-05;  9.9908813E+02;  1.0000000E-01; -7.5548480E+02;3;  2.3671648E-01;  0.0000000E+00; -3.9953485E-02;0; -5.5598881E-02;  3.9928434E+04;  0.0000000E+00; -3.1855192E-02;  4.0000000E+04;  0.0000000E+00;  3.9992824E+04; -5.6767177E-02;  0.0000000E+00;  1.1682954E-03;  8.1054407E+02;
  2.1183555E-01;  9.9999998E-03; -1.0004944E-01;3747; -1.4907594E-02;  0.0000000E+00; -8.5084474E-05;  9.9920844E+02;  1.0000000E-01; -6.5578394E+02;3;  3.0741146E-01;  0.0000000E+00;  7.5182609E-02;0; -5.4205451E-02;  3.9935289E+04;  0.0000000E+00;  4.7979925E-02;  4.0000000E+04;  0.0000000E+00;  3.9995750E+04; -5.4931749E-02;  0.0000000E+00;  7.2629843E-04;  4.1973462E+02;
  2.1190251E-01;  9.9999998E-03; -9.0032302E-02;3748; -1.5030817E-02;  0.0000000E+00; -7.1454626E-05;  9.9922943E+02;  1.0000000E-01; -6.3840167E+02;3;  2.9572594E-01;  0.0000000E+00;  6.8377480E-02;0; -5.4398041E-02;  3.9938875E+04;  0.0000000E+00;  2.7460566E-02;  4.0000000E+04;  0.0000000E+00;  3.9994199E+04; -5.5241279E-02;  0.0000000E+00;  8.4323902E-04;  6.6634436E+02;
  2.1193732E-01;  9.9999998E-03; -8.0019645E-02;3749; -1.5116199E-02;  0.0000000E+00; -6.7294735E-05;  9.9927643E+02;  1.0000000E-01; -5.9948920E+02;3;  2.8459829E-01;  0.0000000E+00;  6.2086232E-02;0; -5.4570142E-02;  3.9944449E+04;  0.0000000E+00;  8.5291388E-03;  4.0000000E+04;  0.0000000E+00;  3.9992203E+04; -5.5505157E-02;  0.0000000E+00;  9.3501370E-04;  9.0436200E+02;
  2.1194269E-01;  9.9999998E-03; -7.0008047E-02;3750; -1.5167478E-02;  0.0000000E+00; -7.0008711E-05;  9.9933917E+02;  1.0000000E-01; -5.4749066E+02;3;  2.7412379E-01;  0.0000000E+00;  5.5854738E-02;0; -5.4705478E-02;  3.9951027E+04;  0.0000000E+00; -5.4830709E-03;  4.0000000E+04;  0.0000000E+00;  3.9990945E+04; -5.5721521E-02;  0.0000000E+00;  1.0160428E-03;  1.0769360E+03;
  2.1192618E-01;  9.9999998E-03; -5.9994053E-02;3751; -1.5190659E-02;  0.0000000E+00; -7.5700300E-05;  9.9942358E+02;  1.0000000E-01; -4.7756674E+02;3;  2.6427627E-01;  0.0000000E+00;  5.0153840E-02;0; -5.4794677E-02;  3.9958227E+04;  0.0000000E+00; -1.3494659E-02;  4.0000000E+04;  0.0000000E+00;  3.9990383E+04; -5.5891678E-02;  0.0000000E+00;  1.0969994E-03;  1.1445007E+03;
  2.1189702E-01;  9.9999998E-03; -4.9978837E-02;3752; -1.5192913E-02;  0.0000000E+00; -8.0399797E-05;  9.9951447E+02;  1.0000000E-01; -4.0226022E+02;3;  2.5517717E-01;  0.0000000E+00;  4.3609958E-02;0; -5.4837197E-02;  3.9965289E+04;  0.0000000E+00; -1.5908889E-02;  4.0000000E+04;  0.0000000E+00;  3.9990660E+04; -5.6019817E-02;  0.0000000E+00;  1.1826197E-03;  1.0952881E+03;
  2.1186906E-01;  9.9999998E-03; -3.9968368E-02;3753; -1.5182155E-02;  0.0000000E+00; -8.0282603E-05;  9.9960974E+02;  1.0000000E-01; -3.2329950E+02;3;  2.4729466E-01;  0.0000000E+00;  3.6318634E-02;0; -5.4839708E-02;  3.9971484E+04;  0.0000000E+00; -1.4047721E-02;  4.0000000E+04;  0.0000000E+00;  3.9992332E+04; -5.6110960E-02;  0.0000000E+00;  1.2712521E-03;  9.5128937E+02;
  2.1185461E-01;  9.9999998E-03; -2.9969355E-02;3754; -1.5165904E-02;  0.0000000E+00; -7.2056398E-05;  9.9969409E+02;  1.0000000E-01; -2.5342493E+02;3;  2.4068180E-01;  0.0000000E+00;  2.8005021E-02;0; -5.4815348E-02;  3.9977023E+04;  0.0000000E+00; -9.7439839E-03;  4.0000000E+04;  0.0000000E+00;  3.9993562E+04; -5.6171332E-02;  0.0000000E+00;  1.3559839E-03;  7.6127502E+02;
  2.1184973E-01;  9.9999998E-03; -1.9977637E-02;3755; -1.5149925E-02;  0.0000000E+00; -5.4386997E-05;  9.9976392E+02;  1.0000000E-01; -1.9559941E+02;3;  2.3578149E-01;  0.0000000E+00;  1.9481955E-02;0; -5.4781072E-02;  3.9981121E+04;  0.0000000E+00; -4.9502724E-03;  4.0000000E+04;  0.0000000E+00;  3.9995047E+04; -5.6208156E-02;  0.0000000E+00;  1.4270829E-03;  5.8014392E+02;
  2.1184801E-01;  9.9999998E-03; -9.9883331E-03;3756; -1.5138475E-02;  0.0000000E+00; -2.9025912E-05;  9.9980652E+02;  1.0000000E-01; -1.6029176E+02;3;  2.3277813E-01;  0.0000000E+00;  1.0807270E-02;0; -5.4753117E-02;  3.9983629E+04;  0.0000000E+00; -1.3338396E-03;  4.0000000E+04;  0.0000000E+00;  3.9996227E+04; -5.6227785E-02;  0.0000000E+00;  1.4746670E-03;  4.5327264E+02;
  2.1184815E-01;  9.9999998E-03;  1.9900849E-10;3757; -1.5134370E-02;  0.0000000E+00; -2.7131541E-09;  9.9982275E+02;  1.0000000E-01; -1.4686005E+02;3;  2.3165175E-01;  0.0000000E+00;  7.9321344E-06;0; -5.4742496E-02;  3.9984398E+04;  0.0000000E+00; -7.0680896E-13;  4.0000000E+04;  0.0000000E+00;  3.9996590E+04; -5.6233913E-02;  0.0000000E+00;  1.4914173E-03;  4.0815826E+02;
  2.1184801E-01;  9.9999998E-03;  9.9883331E-03;3758; -1.5138478E-02;  0.0000000E+00;  2.9020752E-05;  9.9980652E+02;  1.0000000E-01; -1.6029176E+02;3;  2.3277594E-01;  0.0000000E+00; -1.0794014E-02;0; -5.4753117E-02;  3.9983633E+04;  0.0000000E+00; -1.3341302E-03;  4.0000000E+04;  0.0000000E+00;  3.9996227E+04; -5.6227781E-02;  0.0000000E+00;  1.4746650E-03;  4.5326447E+02;
  2.1184973E-01;  9.9999998E-03;  1.9977637E-02;3759; -1.5149925E-02;  0.0000000E+00;  5.4381875E-05;  9.9976392E+02;  1.0000000E-01; -1.9559941E+02;3;  2.3580627E-01;  0.0000000E+00; -1.9467354E-02;0; -5.4781109E-02;  3.9981117E+04;  0.0000000E+00; -4.9510347E-03;  4.0000000E+04;  0.0000000E+00;  3.9995047E+04; -5.6208190E-02;  0.0000000E+00;  1.4270808E-03;  5.8014026E+02;
  2.1185461E-01;  9.9999998E-03;  2.9969357E-02;3760; -1.5165905E-02;  0.0000000E+00;  7.2051182E-05;  9.9969415E+02;  1.0000000E-01; -2.5337555E+02;3;  2.4073817E-01;  0.0000000E+00; -2.7992299E-02;0; -5.4815363E-02;  3.9977023E+04;  0.0000000E+00; -9.7446656E-03;  4.0000000E+04;  0.0000000E+00;  3.9993562E+04; -5.6171343E-02;  0.0000000E+00;  1.3559806E-03;  7.6126758E+02;
  2.1186906E-01;  9.9999998E-03;  3.9968368E-02;3761; -1.5182160E-02;  0.0000000E+00;  8.0277910E-05;  9.9960980E+02;  1.0000000E-01; -3.2325012E+02;3;  2.4731636E-01;  0.0000000E+00; -3.6299843E-02;0; -5.4839700E-02;  3.9971480E+04;  0.0000000E+00; -1.4047964E-02;  4.0000000E+04;  0.0000000E+00;  3.9992332E+04; -5.6110948E-02;  0.0000000E+00;  1.2712486E-03;  9.5128986E+02;
  2.1189702E-01;  9.9999998E-03;  4.9978837E-02;3762; -1.5192916E-02;  0.0000000E+00;  8.0395381E-05;  9.9951453E+02;  1.0000000E-01; -4.0221085E+02;3;  2.5522232E-01;  0.0000000E+00; -4.3592189E-02;0; -5.4837186E-02;  3.9965285E+04;  0.0000000E+00; -1.5910489E-02;  4.0000000E+04;  0.0000000E+00;  3.9990660E+04; -5.6019805E-02;  0.0000000E+00;  1.1826181E-03;  1.0952750E+03;
  2.1192618E-01;  9.9999998E-03;  5.9994053E-02;3763; -1.5190662E-02;  0.0000000E+00;  7.5696182E-05;  9.9942358E+02;  1.0000000E-01; -4.7756674E+02;3;  2.6429179E-01;  0.0000000E+00; -5.0127193E-02;0; -5.4794703E-02;  3.9958227E+04;  0.0000000E+00; -1.3497890E-02;  4.0000000E+04;  0.0000000E+00;  3.9990379E+04; -5.5891700E-02;  0.0000000E+00;  1.0969979E-03;  1.1444907E+03;
  2.2197540E-01;  9.9999998E-03; -9.9995621E-02;3808; -1.5451568E-02;  0.0000000E+00; -7.4857759E-05;  9.9943958E+02;  1.0000000E-01; -4.6428317E+02;3;  3.3842081E-01;  0.0000000E+00;  8.9150704E-02;0; -5.3330034E-02;  3.9957336E+04;  0.0000000E+00;  9.6054077E-02;  4.0000000E+04;  0.0000000E+00;  3.9993445E+04; -5.4098748E-02;  0.0000000E+00;  7.6871231E-04;  7.7989117E+02;
  2.2198389E-01;  9.9999998E-03; -8.9990191E-02;3809; -1.5570450E-02;  0.0000000E+00; -6.5992710E-05;  9.9949683E+02;  1.0000000E-01; -4.1687711E+02;3;  3.2645077E-01;  0.0000000E+00;  8.1567049E-02;0; -5.3495191E-02;  3.9963570E+04;  0.0000000E+00;  6.7469351E-02;  4.0000000E+04;  0.0000000E+00;  3.9991691E+04; -5.4342732E-02;  0.0000000E+00;  8.4754074E-04;  9.9246619E+02;
  2.2196546E-01;  9.9999998E-03; -7.9987384E-02;3810; -1.5650349E-02;  0.0000000E+00; -6.6527296E-05;  9.9956793E+02;  1.0000000E-01; -3.5796518E+02;3;  3.1491247E-01;  0.0000000E+00;  7.4907541E-02;0; -5.3648073E-02;  3.9970957E+04;  0.0000000E+00;  4.3612227E-02;  4.0000000E+04;  0.0000000E+00;  3.9990352E+04; -5.4559339E-02;  0.0000000E+00;  9.1126643E-04;  1.1865350E+03;
  2.2192739E-01;  9.9999998E-03; -6.9982901E-02;3811; -1.5695944E-02;  0.0000000E+00; -7.3096679E-05;  9.9964728E+02;  1.0000000E-01; -2.9223865E+02;3;  3.0412701E-01;  0.0000000E+00;  6.7698710E-02;0; -5.3771470E-02;  3.9978168E+04;  0.0000000E+00;  2.5777515E-02;  4.0000000E+04;  0.0000000E+00;  3.9989172E+04; -5.4746099E-02;  0.0000000E+00;  9.7462867E-04;  1.3113552E+03;
  2.2187614E-01;  9.9999998E-03; -5.9975006E-02;3812; -1.5713649E-02;  0.0000000E+00; -8.1645187E-05;  9.9973315E+02;  1.0000000E-01; -2.2108017E+02;3;  2.9396981E-01;  0.0000000E+00;  6.1418053E-02;0; -5.3855099E-02;  3.9985168E+04;  0.0000000E+00;  1.3579264E-02;  4.0000000E+04;  0.0000000E+00;  3.9989176E+04; -5.4902475E-02;  0.0000000E+00;  1.0473749E-03;  1.3312327E+03;
  2.2181948E-01;  9.9999998E-03; -4.9964726E-02;3813; -1.5710942E-02;  0.0000000E+00; -8.8138091E-05;  9.9982159E+02;  1.0000000E-01; -1.4779829E+02;3;  2.8470957E-01;  0.0000000E+00;  5.4105870E-02;0; -5.3896789E-02;  3.9991688E+04;  0.0000000E+00;  6.0088877E-03;  4.0000000E+04;  0.0000000E+00;  3.9989805E+04; -5.5029228E-02;  0.0000000E+00;  1.1324403E-03;  1.2376139E+03;
  2.2177006E-01;  9.9999998E-03; -3.9959706E-02;3814; -1.5695920E-02;  0.0000000E+00; -8.8582194E-05;  9.9990393E+02;  1.0000000E-01; -7.9602684E+01;3;  2.7646655E-01;  0.0000000E+00;  4.5568086E-02;0; -5.3901762E-02;  3.9997180E+04;  0.0000000E+00;  1.9199712E-03;  4.0000000E+04;  0.0000000E+00;  3.9991594E+04; -5.5127531E-02;  0.0000000E+00;  1.2257713E-03;  1.0550536E+03;
  2.2173695E-01;  9.9999998E-03; -2.9965054E-02;3815; -1.5676117E-02;  0.0000000E+00; -8.0043770E-05;  9.9998267E+02;  1.0000000E-01; -1.4369964E+01;3;  2.6975873E-01;  0.0000000E+00;  3.5853326E-02;0; -5.3881567E-02;  4.0001480E+04;  0.0000000E+00;  1.8858514E-04;  4.0000000E+04;  0.0000000E+00;  3.9993344E+04; -5.5199411E-02;  0.0000000E+00;  1.3178437E-03;  8.3286365E+02;
  2.2171642E-01;  9.9999998E-03; -1.9975802E-02;3816; -1.5657410E-02;  0.0000000E+00; -6.0854047E-05;  1.0000411E+03;  1.0000000E-01;  3.4073109E+01;3;  2.6474065E-01;  0.0000000E+00;  2.4474882E-02;0; -5.3851712E-02;  4.0004660E+04;  0.0000000E+00; -2.1317873E-04;  4.0000000E+04;  0.0000000E+00;  3.9994910E+04; -5.5248093E-02;  0.0000000E+00;  1.3963815E-03;  6.2629401E+02;
  2.2170499E-01;  9.9999998E-03; -9.9878833E-03;3817; -1.5644243E-02;  0.0000000E+00; -3.2778946E-05;  1.0000814E+03;  1.0000000E-01;  6.7454880E+01;3;  2.6148602E-01;  0.0000000E+00;  1.3822419E-02;0; -5.3826906E-02;  4.0006652E+04;  0.0000000E+00; -9.9651588E-05;  4.0000000E+04;  0.0000000E+00;  3.9996133E+04; -5.5276275E-02;  0.0000000E+00;  1.4493684E-03;  4.8245410E+02;
  2.2170198E-01;  9.9999998E-03;  2.1076406E-10;3818; -1.5639570E-02;  0.0000000E+00; -2.4555173E-09;  1.0000925E+03;  1.0000000E-01;  7.6639809E+01;3;  2.6031777E-01;  0.0000000E+00;  1.0713731E-05;0; -5.3817391E-02;  4.0007379E+04;  0.0000000E+00; -4.3081483E-13;  4.0000000E+04;  0.0000000E+00;  3.9996617E+04; -5.5285480E-02;  0.0000000E+00;  1.4680882E-03;  4.3126349E+02;
  2.2170499E-01;  9.9999998E-03;  9.9878833E-03;3819; -1.5644243E-02;  0.0000000E+00;  3.2774013E-05;  1.0000814E+03;  1.0000000E-01;  6.7356117E+01;3;  2.6148638E-01;  0.0000000E+00; -1.3801829E-02;0; -5.3826887E-02;  4.0006652E+04;  0.0000000E+00; -9.9982404E-05;  4.0000000E+04;  0.0000000E+00;  3.9996133E+04; -5.5276256E-02;  0.0000000E+00;  1.4493673E-03;  4.8245065E+02;
  2.2171642E-01;  9.9999998E-03;  1.9975802E-02;3820; -1.5657408E-02;  0.0000000E+00;  6.0848954E-05;  1.0000412E+03;  1.0000000E-01;  3.4171871E+01;3;  2.6475757E-01;  0.0000000E+00; -2.4455680E-02;0; -5.3851739E-02;  4.0004660E+04;  0.0000000E+00; -2.1366739E-04;  4.0000000E+04;  0.0000000E+00;  3.9994910E+04; -5.5248119E-02;  0.0000000E+00;  1.3963786E-03;  6.2629004E+02;
  2.2173695E-01;  9.9999998E-03;  2.9965054E-02;3821; -1.5676117E-02;  0.0000000E+00;  8.0038713E-05;  9.9998267E+02;  1.0000000E-01; -1.4369964E+01;3;  2.6979840E-01;  0.0000000E+00; -3.5831828E-02;0; -5.3881600E-02;  4.0001480E+04;  0.0000000E+00;  1.8840304E-04;  4.0000000E+04;  0.0000000E+00;  3.9993344E+04; -5.5199441E-02;  0.0000000E+00;  1.3178394E-03;  8.3285419E+02;
  2.2177006E-01;  9.9999998E-03;  3.9959706E-02;3822; -1.5695922E-02;  0.0000000E+00;  8.8577588E-05;  9.9990393E+02;  1.0000000E-01; -7.9602684E+01;3;  2.7647480E-01;  0.0000000E+00; -4.5543954E-02;0; -5.3901784E-02;  3.9997180E+04;  0.0000000E+00;  1.9193244E-03;  4.0000000E+04;  0.0000000E+00;  3.9991594E+04; -5.5127554E-02;  0.0000000E+00;  1.2257681E-03;  1.0550376E+03;
  2.2181946E-01;  9.9999998E-03;  4.9964726E-02;3823; -1.5710944E-02;  0.0000000E+00;  8.8133907E-05;  9.9982159E+02;  1.0000000E-01; -1.4779829E+02;3;  2.8472006E-01;  0.0000000E+00; -5.4078389E-02;0; -5.3896856E-02;  3.9991684E+04;  0.0000000E+00;  6.0075759E-03;  4.0000000E+04;  0.0000000E+00;  3.9989812E+04; -5.5029295E-02;  0.0000000E+00;  1.1324388E-03;  1.2376002E+03;
  2.2187614E-01;  9.9999998E-03;  5.9975006E-02;3824; -1.5713651E-02;  0.0000000E+00;  8.1641236E-05;  9.9973309E+02;  1.0000000E-01; -2.2112955E+02;3;  2.9400438E-01;  0.0000000E+00; -6.1386868E-02;0; -5.3855095E-02;  3.9985168E+04;  0.0000000E+00;  1.3579381E-02;  4.0000000E+04;  0.0000000E+00;  3.9989172E+04; -5.4902472E-02;  0.0000000E+00;  1.0473753E-03;  1.3312253E+03;
  2.3197030E-01;  9.9999998E-03; -9.9981152E-02;3869; -1.5949599E-02;  0.0000000E+00; -6.7472232E-05;  9.9966711E+02;  1.0000000E-01; -2.7579468E+02;3;  3.7176585E-01;  0.0000000E+00;  1.0536849E-01;0; -5.2403625E-02;  3.9977648E+04;  0.0000000E+00;  1.4089878E-01;  4.0000000E+04;  0.0000000E+00;  3.9991883E+04; -5.3234611E-02;  0.0000000E+00;  8.3098671E-04;  9.7794885E+02;
  2.3193471E-01;  9.9999998E-03; -8.9984603E-02;3870; -1.6062461E-02;  0.0000000E+00; -6.3016509E-05;  9.9974579E+02;  1.0000000E-01; -2.1061133E+02;3;  3.5940591E-01;  0.0000000E+00;  9.6797042E-02;0; -5.2549686E-02;  3.9985457E+04;  0.0000000E+00;  1.0615779E-01;  4.0000000E+04;  0.0000000E+00;  3.9990574E+04; -5.3420585E-02;  0.0000000E+00;  8.7089709E-04;  1.1641116E+03;
  2.3188390E-01;  9.9999998E-03; -7.9987682E-02;3871; -1.6136795E-02;  0.0000000E+00; -6.7394030E-05;  9.9982098E+02;  1.0000000E-01; -1.4829210E+02;3;  3.4752169E-01;  0.0000000E+00;  8.9303106E-02;0; -5.2691307E-02;  3.9992855E+04;  0.0000000E+00;  7.8812316E-02;  4.0000000E+04;  0.0000000E+00;  3.9989508E+04; -5.3597361E-02;  0.0000000E+00;  9.0605387E-04;  1.3224861E+03;
  2.3182122E-01;  9.9999998E-03; -6.9986530E-02;3872; -1.6177513E-02;  0.0000000E+00; -7.7054377E-05;  9.9989368E+02;  1.0000000E-01; -8.8096275E+01;3;  3.3634579E-01;  0.0000000E+00;  8.1920058E-02;0; -5.2810907E-02;  3.9999473E+04;  0.0000000E+00;  5.7856295E-02;  4.0000000E+04;  0.0000000E+00;  3.9988762E+04; -5.3761985E-02;  0.0000000E+00;  9.5107843E-04;  1.4066841E+03;
  2.3175097E-01;  9.9999998E-03; -5.9980325E-02;3873; -1.6191235E-02;  0.0000000E+00; -8.7813198E-05;  9.9996252E+02;  1.0000000E-01; -3.1060850E+01;3;  3.2602626E-01;  0.0000000E+00;  7.4418910E-02;0; -5.2897234E-02;  4.0005000E+04;  0.0000000E+00;  4.1588668E-02;  4.0000000E+04;  0.0000000E+00;  3.9988820E+04; -5.3911876E-02;  0.0000000E+00;  1.0146440E-03;  1.3858254E+03;
  2.3168066E-01;  9.9999998E-03; -4.9971364E-02;3874; -1.6185582E-02;  0.0000000E+00; -9.5619936E-05;  1.0000262E+03;  1.0000000E-01;  2.1727781E+01;3;  3.1663203E-01;  0.0000000E+00;  6.5764055E-02;0; -5.2946221E-02;  4.0009301E+04;  0.0000000E+00;  2.8646132E-02;  4.0000000E+04;  0.0000000E+00;  3.9989855E+04; -5.4044098E-02;  0.0000000E+00;  1.0978770E-03;  1.2556526E+03;
  2.3162325E-01;  9.9999998E-03; -3.9967436E-02;3875; -1.6168596E-02;  0.0000000E+00; -9.6404299E-05;  1.0000883E+03;  1.0000000E-01;  7.3084351E+01;3;  3.0850667E-01;  0.0000000E+00;  5.6338452E-02;0; -5.2960966E-02;  4.0012691E+04;  0.0000000E+00;  1.8304769E-02;  4.0000000E+04;  0.0000000E+00;  3.9991793E+04; -5.4155428E-02;  0.0000000E+00;  1.1944629E-03;  1.0435306E+03;
  2.3158495E-01;  9.9999998E-03; -2.9972104E-02;3876; -1.6147615E-02;  0.0000000E+00; -8.7250839E-05;  1.0001436E+03;  1.0000000E-01;  1.1900898E+02;3;  3.0163324E-01;  0.0000000E+00;  4.3766517E-02;0; -5.2951135E-02;  4.0015266E+04;  0.0000000E+00;  1.0297417E-02;  4.0000000E+04;  0.0000000E+00;  3.9993613E+04; -5.4243594E-02;  0.0000000E+00;  1.2924598E-03;  7.9876294E+02;
  2.3156199E-01;  9.9999998E-03; -1.9980971E-02;3877; -1.6128268E-02;  0.0000000E+00; -6.6760898E-05;  1.0001875E+03;  1.0000000E-01;  1.5535364E+02;3;  2.9646358E-01;  0.0000000E+00;  3.0480644E-02;0; -5.2930236E-02;  4.0017047E+04;  0.0000000E+00;  4.5723231E-03;  4.0000000E+04;  0.0000000E+00;  3.9995461E+04; -5.4307479E-02;  0.0000000E+00;  1.3772447E-03;  5.7603198E+02;
  2.3154987E-01;  9.9999998E-03; -9.9907247E-03;3878; -1.6114853E-02;  0.0000000E+00; -3.6315894E-05;  1.0002145E+03;  1.0000000E-01;  1.7767398E+02;3;  2.9332981E-01;  0.0000000E+00;  1.8053694E-02;0; -5.2911315E-02;  4.0018016E+04;  0.0000000E+00;  1.1409910E-03;  4.0000000E+04;  0.0000000E+00;  3.9996527E+04; -5.4346167E-02;  0.0000000E+00;  1.4348526E-03;  4.2229868E+02;
  2.3154655E-01;  9.9999998E-03;  1.4855288E-10;3879; -1.6110064E-02;  0.0000000E+00; -2.2838247E-09;  1.0002252E+03;  1.0000000E-01;  1.8656262E+02;3;  2.9214406E-01;  0.0000000E+00;  1.2290900E-05;0; -5.2903932E-02;  4.0018395E+04;  0.0000000E+00; -8.0129116E-13;  4.0000000E+04;  0.0000000E+00;  3.9997008E+04; -5.4359201E-02;  0.0000000E+00;  1.4552688E-03;  3.6771774E+02;
  2.3154987E-01;  9.9999998E-03;  9.9907247E-03;3880; -1.6114853E-02;  0.0000000E+00;  3.6311430E-05;  1.0002145E+03;  1.0000000E-01;  1.7767398E+02;3;  2.9332682E-01;  0.0000000E+00; -1.8027909E-02;0; -5.2911308E-02;  4.0018016E+04;  0.0000000E+00;  1.1408329E-03;  4.0000000E+04;  0.0000000E+00;  3.9996527E+04; -5.4346159E-02;  0.0000000E+00;  1.4348512E-03;  4.2229208E+02;
  2.3156199E-01;  9.9999998E-03;  1.9980971E-02;3881; -1.6128270E-02;  0.0000000E+00;  6.6756344E-05;  1.0001875E+03;  1.0000000E-01;  1.5535364E+02;3;  2.9649362E-01;  0.0000000E+00; -3.0456224E-02;0; -5.2930217E-02;  4.0017047E+04;  0.0000000E+00;  4.5720115E-03;  4.0000000E+04;  0.0000000E+00;  3.9995461E+04; -5.4307461E-02;  0.0000000E+00;  1.3772426E-03;  5.7602679E+02;
  2.3158495E-01;  9.9999998E-03;  2.9972106E-02;3882; -1.6147617E-02;  0.0000000E+00;  8.7246408E-05;  1.0001436E+03;  1.0000000E-01;  1.1900898E+02;3;  3.0162802E-01;  0.0000000E+00; -4.3742549E-02;0; -5.2951161E-02;  4.0015270E+04;  0.0000000E+00;  1.0297181E-02;  4.0000000E+04;  0.0000000E+00;  3.9993613E+04; -5.4243617E-02;  0.0000000E+00;  1.2924569E-03;  7.9875287E+02;
  2.3162325E-01;  9.9999998E-03;  3.9967436E-02;3883; -1.6168602E-02;  0.0000000E+00;  9.6400203E-05;  1.0000883E+03;  1.0000000E-01;  7.3084351E+01;3;  3.0851659E-01;  0.0000000E+00; -5.6309853E-02;0; -5.2960988E-02;  4.0012695E+04;  0.0000000E+00;  1.8304205E-02;  4.0000000E+04;  0.0000000E+00;  3.9991793E+04; -5.4155447E-02;  0.0000000E+00;  1.1944597E-03;  1.0435154E+03;
  2.3168066E-01;  9.9999998E-03;  4.9971364E-02;3884; -1.6185582E-02;  0.0000000E+00;  9.5615782E-05;  1.0000262E+03;  1.0000000E-01;  2.1727781E+01;3;  3.1666178E-01;  0.0000000E+00; -6.5735720E-02;0; -5.2946150E-02;  4.0009301E+04;  0.0000000E+00;  2.8646473E-02;  4.0000000E+04;  0.0000000E+00;  3.9989855E+04; -5.4044027E-02;  0.0000000E+00;  1.0978756E-03;  1.2556445E+03;
  2.3175097E-01;  9.9999998E-03;  5.9980325E-02;3885; -1.6191237E-02;  0.0000000E+00;  8.7809531E-05;  9.9996252E+02;  1.0000000E-01; -3.1060850E+01;3;  3.2605761E-01;  0.0000000E+00; -7.4378595E-02;0; -5.2897178E-02;  4.0005000E+04;  0.0000000E+00;  4.1590512E-02;  4.0000000E+04;  0.0000000E+00;  3.9988820E+04; -5.3911820E-02;  0.0000000E+00;  1.0146437E-03;  1.3858187E+03;
  2.4189049E-01;  9.9999998E-03; -9.9987730E-02;3930; -1.6417779E-02;  0.0000000E+00; -6.2096202E-05;  9.9985840E+02;  1.0000000E-01; -1.1733002E+02;3;  4.0769073E-01;  0.0000000E+00;  1.2310196E-01;0; -5.1515233E-02;  3.9994309E+04;  0.0000000E+00;  1.6934881E-01;  4.0000000E+04;  0.0000000E+00;  3.9991840E+04; -5.2420009E-02;  0.0000000E+00;  9.0477488E-04;  1.0378811E+03;
  2.4183178E-01;  9.9999998E-03; -8.9993827E-02;3931; -1.6523860E-02;  0.0000000E+00; -6.1262363E-05;  9.9993164E+02;  1.0000000E-01; -5.6640373E+01;3;  3.9495841E-01;  0.0000000E+00;  1.1359794E-01;0; -5.1651418E-02;  4.0001809E+04;  0.0000000E+00;  1.3173348E-01;  4.0000000E+04;  0.0000000E+00;  3.9990309E+04; -5.2557971E-02;  0.0000000E+00;  9.0655283E-04;  1.2069846E+03;
  2.4176435E-01;  9.9999998E-03; -7.9997987E-02;3932; -1.6592758E-02;  0.0000000E+00; -6.8637688E-05;  9.9999036E+02;  1.0000000E-01; -7.9997740E+00;3;  3.8276345E-01;  0.0000000E+00;  1.0525242E-01;0; -5.1791292E-02;  4.0007832E+04;  0.0000000E+00;  1.0328759E-01;  4.0000000E+04;  0.0000000E+00;  3.9989246E+04; -5.2705061E-02;  0.0000000E+00;  9.1376883E-04;  1.3372433E+03;
  2.4169077E-01;  9.9999998E-03; -6.9997065E-02;3933; -1.6629683E-02;  0.0000000E+00; -8.0519465E-05;  1.0000354E+03;  1.0000000E-01;  2.9332504E+01;3;  3.7132418E-01;  0.0000000E+00;  9.7029313E-02;0; -5.1916596E-02;  4.0011992E+04;  0.0000000E+00;  8.0996193E-02;  4.0000000E+04;  0.0000000E+00;  3.9989039E+04; -5.2857209E-02;  0.0000000E+00;  9.4061496E-04;  1.3873010E+03;
  2.4161543E-01;  9.9999998E-03; -5.9990760E-02;3934; -1.6641326E-02;  0.0000000E+00; -9.2768736E-05;  1.0000707E+03;  1.0000000E-01;  5.8566246E+01;3;  3.6081058E-01;  0.0000000E+00;  8.8513531E-02;0; -5.2014664E-02;  4.0014527E+04;  0.0000000E+00;  6.2188577E-02;  4.0000000E+04;  0.0000000E+00;  3.9989215E+04; -5.3009205E-02;  0.0000000E+00;  9.9453912E-04;  1.3325945E+03;
  2.4154569E-01;  9.9999998E-03; -4.9981888E-02;3935; -1.6635198E-02;  0.0000000E+00; -1.0139789E-04;  1.0001029E+03;  1.0000000E-01;  8.5232155E+01;3;  3.5139209E-01;  0.0000000E+00;  7.8442365E-02;0; -5.2079607E-02;  4.0015746E+04;  0.0000000E+00;  4.5404650E-02;  4.0000000E+04;  0.0000000E+00;  3.9990773E+04; -5.3154502E-02;  0.0000000E+00;  1.0748943E-03;  1.1742477E+03;
  2.4149157E-01;  9.9999998E-03; -3.9977904E-02;3936; -1.6618865E-02;  0.0000000E+00; -1.0228475E-04;  1.0001278E+03;  1.0000000E-01;  1.0587355E+02;3;  3.4333870E-01;  0.0000000E+00;  6.7597114E-02;0; -5.2112252E-02;  4.0016176E+04;  0.0000000E+00;  3.0413855E-02;  4.0000000E+04;  0.0000000E+00;  3.9992738E+04; -5.3285562E-02;  0.0000000E+00;  1.1733081E-03;  9.4216034E+02;
  2.4145639E-01;  9.9999998E-03; -2.9981101E-02;3937; -1.6599093E-02;  0.0000000E+00; -9.2530798E-05;  1.0001547E+03;  1.0000000E-01;  1.2809514E+02;3;  3.3656594E-01;  0.0000000E+00;  5.3347763E-02;0; -5.2119993E-02;  4.0016258E+04;  0.0000000E+00;  1.7722737E-02;  4.0000000E+04;  0.0000000E+00;  3.9994758E+04; -5.3395666E-02;  0.0000000E+00;  1.2756730E-03;  6.8503845E+02;
  2.4143629E-01;  9.9999998E-03; -1.9987794E-02;3938; -1.6581085E-02;  0.0000000E+00; -7.0896109E-05;  1.0001714E+03;  1.0000000E-01;  1.4202068E+02;3;  3.3152553E-01;  0.0000000E+00;  3.6931004E-02;0; -5.2113723E-02;  4.0016070E+04;  0.0000000E+00;  8.0631590E-03;  4.0000000E+04;  0.0000000E+00;  3.9996676E+04; -5.3479042E-02;  0.0000000E+00;  1.3653177E-03;  4.5574884E+02;
  2.4142803E-01;  9.9999998E-03; -9.9947741E-03;3939; -1.6568776E-02;  0.0000000E+00; -3.8831015E-05;  1.0001839E+03;  1.0000000E-01;  1.5239075E+02;3;  3.2849422E-01;  0.0000000E+00;  2.1666760E-02;0; -5.2104395E-02;  4.0015570E+04;  0.0000000E+00;  2.0414349E-03;  4.0000000E+04;  0.0000000E+00;  3.9997840E+04; -5.3530995E-02;  0.0000000E+00;  1.4265984E-03;  2.9915771E+02;
  2.4142666E-01;  9.9999998E-03;  8.4740978E-11;3940; -1.6564419E-02;  0.0000000E+00; -1.9396509E-09;  1.0001861E+03;  1.0000000E-01;  1.5416847E+02;3;  3.2725960E-01;  0.0000000E+00;  1.4315328E-05;0; -5.2100122E-02;  4.0015559E+04;  0.0000000E+00; -1.4544365E-12;  4.0000000E+04;  0.0000000E+00;  3.9998250E+04; -5.3548492E-02;  0.0000000E+00;  1.4483703E-03;  2.4381343E+02;
  2.4142805E-01;  9.9999998E-03;  9.9947741E-03;3941; -1.6568776E-02;  0.0000000E+00;  3.8826925E-05;  1.0001838E+03;  1.0000000E-01;  1.5229199E+02;3;  3.2850078E-01;  0.0000000E+00; -2.1638419E-02;0; -5.2104391E-02;  4.0015570E+04;  0.0000000E+00;  2.0414584E-03;  4.0000000E+04;  0.0000000E+00;  3.9997840E+04; -5.3530987E-02;  0.0000000E+00;  1.4265960E-03;  2.9915570E+02;
  2.4143629E-01;  9.9999998E-03;  1.9987794E-02;3942; -1.6581085E-02;  0.0000000E+00;  7.0892063E-05;  1.0001714E+03;  1.0000000E-01;  1.4202068E+02;3;  3.3156288E-01;  0.0000000E+00; -3.6903925E-02;0; -5.2113701E-02;  4.0016070E+04;  0.0000000E+00;  8.0633862E-03;  4.0000000E+04;  0.0000000E+00;  3.9996676E+04; -5.3479016E-02;  0.0000000E+00;  1.3653159E-03;  4.5573798E+02;
  2.4145639E-01;  9.9999998E-03;  2.9981101E-02;3943; -1.6599094E-02;  0.0000000E+00;  9.2526978E-05;  1.0001547E+03;  1.0000000E-01;  1.2809514E+02;3;  3.3655101E-01;  0.0000000E+00; -5.3317044E-02;0; -5.2120060E-02;  4.0016258E+04;  0.0000000E+00;  1.7722512E-02;  4.0000000E+04;  0.0000000E+00;  3.9994758E+04; -5.3395730E-02;  0.0000000E+00;  1.2756697E-03;  6.8502734E+02;
  2.4149157E-01;  9.9999998E-03;  3.9977904E-02;3944; -1.6618870E-02;  0.0000000E+00;  1.0228101E-04;  1.0001278E+03;  1.0000000E-01;  1.0587355E+02;3;  3.4332219E-01;  0.0000000E+00; -6.7566715E-02;0; -5.2112404E-02;  4.0016184E+04;  0.0000000E+00;  3.0413268E-02;  4.0000000E+04;  0.0000000E+00;  3.9992742E+04; -5.3285707E-02;  0.0000000E+00;  1.1733040E-03;  9.4215839E+02;
  2.4154569E-01;  9.9999998E-03;  4.9981888E-02;3945; -1.6635202E-02;  0.0000000E+00;  1.0139420E-04;  1.0001030E+03;  1.0000000E-01;  8.5330917E+01;3;  3.5143802E-01;  0.0000000E+00; -7.8399420E-02;0; -5.2079570E-02;  4.0015750E+04;  0.0000000E+00;  4.5406148E-02;  4.0000000E+04;  0.0000000E+00;  3.9990773E+04; -5.3154465E-02;  0.0000000E+00;  1.0748962E-03;  1.1742377E+03;
  2.4161543E-01;  9.9999998E-03;  5.9990756E-02;3946; -1.6641334E-02;  0.0000000E+00;  9.2764800E-05;  1.0000706E+03;  1.0000000E-01;  5.8467484E+01;3;  3.6081633E-01;  0.0000000E+00; -8.8466428E-02;0; -5.2014612E-02;  4.0014527E+04;  0.0000000E+00;  6.2188622E-02;  4.0000000E+04;  0.0000000E+00;  3.9989215E+04; -5.3009152E-02;  0.0000000E+00;  9.9454063E-04;  1.3325901E+03;
  2.5178805E-01;  9.9999998E-03; -9.9997692E-02;3991; -1.6871300E-02;  0.0000000E+00; -5.7807680E-05;  9.9999713E+02;  1.0000000E-01; -2.3703034E+00;3;  4.4651949E-01;  0.0000000E+00;  1.4315426E-01;0; -5.0723575E-02;  4.0006113E+04;  0.0000000E+00;  1.7181943E-01;  4.0000000E+04;  0.0000000E+00;  3.9992227E+04; -5.1705610E-02;  0.0000000E+00;  9.8203321E-04;  9.9705750E+02;
  2.5171709E-01;  9.9999998E-03; -9.0004198E-02;3992; -1.6970154E-02;  0.0000000E+00; -5.9959413E-05;  1.0000444E+03;  1.0000000E-01;  3.6739700E+01;3;  4.3317556E-01;  0.0000000E+00;  1.3289872E-01;0; -5.0861310E-02;  4.0011477E+04;  0.0000000E+00;  1.3519941E-01;  4.0000000E+04;  0.0000000E+00;  3.9990848E+04; -5.1809255E-02;  0.0000000E+00;  9.4794406E-04;  1.1541139E+03;
  2.5164440E-01;  9.9999998E-03; -8.0007702E-02;3993; -1.7034436E-02;  0.0000000E+00; -6.9439775E-05;  1.0000668E+03;  1.0000000E-01;  5.5307079E+01;3;  4.2078650E-01;  0.0000000E+00;  1.2281985E-01;0; -5.1010374E-02;  4.0014328E+04;  0.0000000E+00;  1.0864336E-01;  4.0000000E+04;  0.0000000E+00;  3.9989887E+04; -5.1939365E-02;  0.0000000E+00;  9.2899048E-04;  1.2599241E+03;
  2.5157183E-01;  9.9999998E-03; -7.0006281E-02;3994; -1.7069342E-02;  0.0000000E+00; -8.2725783E-05;  1.0000676E+03;  1.0000000E-01;  5.5998417E+01;3;  4.0912509E-01;  0.0000000E+00;  1.1336818E-01;0; -5.1151976E-02;  4.0014668E+04;  0.0000000E+00;  8.7684207E-02;  4.0000000E+04;  0.0000000E+00;  3.9989785E+04; -5.2090596E-02;  0.0000000E+00;  9.3862030E-04;  1.2796168E+03;
  2.5150383E-01;  9.9999998E-03; -6.0000189E-02;3995; -1.7081426E-02;  0.0000000E+00; -9.5783129E-05;  1.0000580E+03;  1.0000000E-01;  4.8097404E+01;3;  3.9853293E-01;  0.0000000E+00;  1.0414175E-01;0; -5.1272005E-02;  4.0013438E+04;  0.0000000E+00;  6.9089644E-02;  4.0000000E+04;  0.0000000E+00;  3.9990641E+04; -5.2254923E-02;  0.0000000E+00;  9.8291726E-04;  1.1963295E+03;
  2.5145304E-01;  9.9999998E-03; -4.9992111E-02;3996; -1.7078003E-02;  0.0000000E+00; -1.0461274E-04;  1.0000426E+03;  1.0000000E-01;  3.5258263E+01;3;  3.8927728E-01;  0.0000000E+00;  9.3336917E-02;0; -5.1362034E-02;  4.0011117E+04;  0.0000000E+00;  5.1456280E-02;  4.0000000E+04;  0.0000000E+00;  3.9992020E+04; -5.2421570E-02;  0.0000000E+00;  1.0595351E-03;  1.0174197E+03;
  2.5142258E-01;  9.9999998E-03; -3.9987557E-02;3997; -1.7065724E-02;  0.0000000E+00; -1.0533507E-04;  1.0000294E+03;  1.0000000E-01;  2.4394371E+01;3;  3.8151491E-01;  0.0000000E+00;  7.9695582E-02;0; -5.1420957E-02;  4.0007918E+04;  0.0000000E+00;  3.4934033E-02;  4.0000000E+04;  0.0000000E+00;  3.9993836E+04; -5.2579258E-02;  0.0000000E+00;  1.1583003E-03;  7.7500885E+02;
  2.5140935E-01;  9.9999998E-03; -2.9988086E-02;3998; -1.7050356E-02;  0.0000000E+00; -9.5090334E-05;  1.0000165E+03;  1.0000000E-01;  1.3629244E+01;3;  3.7503764E-01;  0.0000000E+00;  6.3676663E-02;0; -5.1452994E-02;  4.0005074E+04;  0.0000000E+00;  2.0523632E-02;  4.0000000E+04;  0.0000000E+00;  3.9995781E+04; -5.2716304E-02;  0.0000000E+00;  1.2633101E-03;  5.1595111E+02;
  2.5140730E-01;  9.9999998E-03; -1.9991966E-02;3999; -1.7036278E-02;  0.0000000E+00; -7.2725539E-05;  1.0000080E+03;  1.0000000E-01;  6.6170969E+00;3;  3.7047827E-01;  0.0000000E+00;  4.3874461E-02;0; -5.1466577E-02;  4.0002441E+04;  0.0000000E+00;  9.3801282E-03;  4.0000000E+04;  0.0000000E+00;  3.9997566E+04; -5.2822787E-02;  0.0000000E+00;  1.3562103E-03;  2.8969333E+02;
  2.5141010E-01;  9.9999998E-03; -9.9965567E-03;4000; -1.7026654E-02;  0.0000000E+00; -3.9890710E-05;  1.0000017E+03;  1.0000000E-01;  1.3826770E+00;3;  3.6760670E-01;  0.0000000E+00;  2.5505587E-02;0; -5.1470328E-02;  4.0000961E+04;  0.0000000E+00;  2.3802221E-03;  4.0000000E+04;  0.0000000E+00;  3.9998820E+04; -5.2890349E-02;  0.0000000E+00;  1.4200206E-03;  1.3698409E+02;
  2.5141269E-01;  9.9999998E-03;  8.3814261E-11;4001; -1.7023262E-02;  0.0000000E+00; -1.5681108E-09;  1.0000005E+03;  1.0000000E-01;  3.9505056E-01;3;  3.6640829E-01;  0.0000000E+00;  1.5201511E-05;0; -5.1470678E-02;  4.0000391E+04;  0.0000000E+00; -6.8124190E-13;  4.0000000E+04;  0.0000000E+00;  3.9999211E+04; -5.2913416E-02;  0.0000000E+00;  1.4427387E-03;  8.3330467E+01;
  2.5141010E-01;  9.9999998E-03;  9.9965567E-03;4002; -1.7026650E-02;  0.0000000E+00;  3.9887371E-05;  1.0000017E+03;  1.0000000E-01;  1.3826770E+00;3;  3.6762759E-01;  0.0000000E+00; -2.5475202E-02;0; -5.1470324E-02;  4.0000961E+04;  0.0000000E+00;  2.3801969E-03;  4.0000000E+04;  0.0000000E+00;  3.9998820E+04; -5.2890345E-02;  0.0000000E+00;  1.4200205E-03;  1.3698215E+02;
  2.5140733E-01;  9.9999998E-03;  1.9991966E-02;4003; -1.7036282E-02;  0.0000000E+00;  7.2722032E-05;  1.0000080E+03;  1.0000000E-01;  6.6170969E+00;3;  3.7048599E-01;  0.0000000E+00; -4.3846425E-02;0; -5.1466584E-02;  4.0002453E+04;  0.0000000E+00;  9.3799867E-03;  4.0000000E+04;  0.0000000E+00;  3.9997570E+04; -5.2822795E-02;  0.0000000E+00;  1.3562094E-03;  2.8968726E+02;
  2.5140935E-01;  9.9999998E-03;  2.9988086E-02;4004; -1.7050359E-02;  0.0000000E+00;  9.5086652E-05;  1.0000164E+03;  1.0000000E-01;  1.3629244E+01;3;  3.7505743E-01;  0.0000000E+00; -6.3647501E-02;0; -5.1453054E-02;  4.0005074E+04;  0.0000000E+00;  2.0524032E-02;  4.0000000E+04;  0.0000000E+00;  3.9995781E+04; -5.2716363E-02;  0.0000000E+00;  1.2633079E-03;  5.1594019E+02;
  2.5142258E-01;  9.9999998E-03;  3.9987557E-02;4005; -1.7065728E-02;  0.0000000E+00;  1.0533170E-04;  1.0000295E+03;  1.0000000E-01;  2.4394371E+01;3;  3.8153183E-01;  0.0000000E+00; -7.9655588E-02;0; -5.1420938E-02;  4.0007926E+04;  0.0000000E+00;  3.4934852E-02;  4.0000000E+04;  0.0000000E+00;  3.9993836E+04; -5.2579239E-02;  0.0000000E+00;  1.1582993E-03;  7.7499683E+02;
  2.5145304E-01;  9.9999998E-03;  4.9992107E-02;4006; -1.7078007E-02;  0.0000000E+00;  1.0460937E-04;  1.0000425E+03;  1.0000000E-01;  3.5159500E+01;3;  3.8930500E-01;  0.0000000E+00; -9.3286477E-02;0; -5.1362012E-02;  4.0011113E+04;  0.0000000E+00;  5.1454987E-02;  4.0000000E+04;  0.0000000E+00;  3.9992020E+04; -5.2421547E-02;  0.0000000E+00;  1.0595361E-03;  1.0174119E+03;
  2.5150383E-01;  9.9999998E-03;  6.0000189E-02;4007; -1.7081432E-02;  0.0000000E+00;  9.5779607E-05;  1.0000581E+03;  1.0000000E-01;  4.8097404E+01;3;  3.9852947E-01;  0.0000000E+00; -1.0408787E-01;0; -5.1271990E-02;  4.0013438E+04;  0.0000000E+00;  6.9087900E-02;  4.0000000E+04;  0.0000000E+00;  3.9990641E+04; -5.2254908E-02;  0.0000000E+00;  9.8291843E-04;  1.1963226E+03;
  2.6170430E-01;  9.9999998E-03; -1.0000445E-01;4052; -1.7323047E-02;  0.0000000E+00; -5.4681710E-05;  1.0000675E+03;  1.0000000E-01;  5.5899654E+01;3;  4.8843950E-01;  0.0000000E+00;  1.6563444E-01;0; -5.0055034E-02;  4.0012375E+04;  0.0000000E+00;  1.4492124E-01;  4.0000000E+04;  0.0000000E+00;  3.9993117E+04; -5.1109977E-02;  0.0000000E+00;  1.0549424E-03;  8.9555463E+02;
  2.6163161E-01;  9.9999998E-03; -9.0009391E-02;4053; -1.7415490E-02;  0.0000000E+00; -5.8846792E-05;  1.0000790E+03;  1.0000000E-01;  6.5479630E+01;3;  4.7460857E-01;  0.0000000E+00;  1.5413140E-01;0; -5.0206717E-02;  4.0014328E+04;  0.0000000E+00;  1.1325762E-01;  4.0000000E+04;  0.0000000E+00;  3.9991992E+04; -5.1195413E-02;  0.0000000E+00;  9.8869600E-04;  1.0401819E+03;
  2.6156947E-01;  9.9999998E-03; -8.0011182E-02;4054; -1.7477116E-02;  0.0000000E+00; -6.9675662E-05;  1.0000527E+03;  1.0000000E-01;  4.3653088E+01;3;  4.6189171E-01;  0.0000000E+00;  1.4329915E-01;0; -5.0376259E-02;  4.0013090E+04;  0.0000000E+00;  9.1843769E-02;  4.0000000E+04;  0.0000000E+00;  3.9991348E+04; -5.1322658E-02;  0.0000000E+00;  9.4639877E-04;  1.1206653E+03;
  2.6151881E-01;  9.9999998E-03; -7.0008136E-02;4055; -1.7513024E-02;  0.0000000E+00; -8.3610001E-05;  1.0000040E+03;  1.0000000E-01;  3.3579297E+00;3;  4.5024204E-01;  0.0000000E+00;  1.3187578E-01;0; -5.0544605E-02;  4.0009070E+04;  0.0000000E+00;  7.5385749E-02;  4.0000000E+04;  0.0000000E+00;  3.9991141E+04; -5.1485058E-02;  0.0000000E+00;  9.4045169E-04;  1.1107490E+03;
  2.6147896E-01;  9.9999998E-03; -6.0001209E-02;4056; -1.7529098E-02;  0.0000000E+00; -9.6755306E-05;  9.9994147E+02;  1.0000000E-01; -4.8492455E+01;3;  4.3990520E-01;  0.0000000E+00;  1.2082256E-01;0; -5.0696425E-02;  4.0003598E+04;  0.0000000E+00;  6.0424916E-02;  4.0000000E+04;  0.0000000E+00;  3.9991684E+04; -5.1671937E-02;  0.0000000E+00;  9.7551098E-04;  1.0025421E+03;
  2.6145199E-01;  9.9999998E-03; -4.9993411E-02;4057; -1.7531490E-02;  0.0000000E+00; -1.0536447E-04;  9.9987823E+02;  1.0000000E-01; -1.0088603E+02;3;  4.3088326E-01;  0.0000000E+00;  1.0796037E-01;0; -5.0821654E-02;  3.9997133E+04;  0.0000000E+00;  4.5615479E-02;  4.0000000E+04;  0.0000000E+00;  3.9993328E+04; -5.1869340E-02;  0.0000000E+00;  1.0476864E-03;  8.0983588E+02;
  2.6143959E-01;  9.9999998E-03; -3.9988670E-02;4058; -1.7525911E-02;  0.0000000E+00; -1.0570379E-04;  9.9982153E+02;  1.0000000E-01; -1.4784767E+02;3;  4.2350170E-01;  0.0000000E+00;  9.1631554E-02;0; -5.0915867E-02;  3.9990531E+04;  0.0000000E+00;  3.1247865E-02;  4.0000000E+04;  0.0000000E+00;  3.9995262E+04; -5.2061163E-02;  0.0000000E+00;  1.1452972E-03;  5.6609906E+02;
  2.6143548E-01;  9.9999998E-03; -2.9988388E-02;4059; -1.7516959E-02;  0.0000000E+00; -9.4993062E-05;  9.9977289E+02;  1.0000000E-01; -1.8814282E+02;3;  4.1756496E-01;  0.0000000E+00;  7.4289396E-02;0; -5.0980553E-02;  3.9984867E+04;  0.0000000E+00;  1.8452240E-02;  4.0000000E+04;  0.0000000E+00;  3.9997137E+04; -5.2231587E-02;  0.0000000E+00;  1.2510327E-03;  3.1530829E+02;
  2.6143366E-01;  9.9999998E-03; -1.9991549E-02;4060; -1.7508041E-02;  0.0000000E+00; -7.2447321E-05;  9.9973663E+02;  1.0000000E-01; -2.1821605E+02;3;  4.1336378E-01;  0.0000000E+00;  5.1142078E-02;0; -5.1020384E-02;  3.9980238E+04;  0.0000000E+00;  8.4549598E-03;  4.0000000E+04;  0.0000000E+00;  3.9998859E+04; -5.2365728E-02;  0.0000000E+00;  1.3453435E-03;  1.0139414E+02;
  2.6143244E-01;  9.9999998E-03; -9.9957697E-03;4061; -1.7501701E-02;  0.0000000E+00; -3.9628201E-05;  9.9971429E+02;  1.0000000E-01; -2.3668466E+02;3;  4.1074872E-01;  0.0000000E+00;  2.9692680E-02;0; -5.1041156E-02;  3.9977309E+04;  0.0000000E+00;  2.1478138E-03;  4.0000000E+04;  0.0000000E+00;  3.9999914E+04; -5.2451514E-02;  0.0000000E+00;  1.4103588E-03;  4.1605656E+01;
  2.6143229E-01;  9.9999998E-03;  2.2324238E-10;4062; -1.7499454E-02;  0.0000000E+00; -1.2502546E-09;  9.9970654E+02;  1.0000000E-01; -2.4310423E+02;3;  4.0969089E-01;  0.0000000E+00;  1.6291318E-05;0; -5.1047489E-02;  3.9976246E+04;  0.0000000E+00; -1.7455402E-12;  4.0000000E+04;  0.0000000E+00;  4.0000391E+04; -5.2481025E-02;  0.0000000E+00;  1.4335359E-03;  9.1140717E+01;
  2.6143244E-01;  9.9999998E-03;  9.9957706E-03;4063; -1.7501703E-02;  0.0000000E+00;  3.9625425E-05;  9.9971429E+02;  1.0000000E-01; -2.3668466E+02;3;  4.1078240E-01;  0.0000000E+00; -2.9662998E-02;0; -5.1041078E-02;  3.9977309E+04;  0.0000000E+00;  2.1478471E-03;  4.0000000E+04;  0.0000000E+00;  3.9999910E+04; -5.2451432E-02;  0.0000000E+00;  1.4103557E-03;  4.1614964E+01;
  2.6143366E-01;  9.9999998E-03;  1.9991549E-02;4064; -1.7508045E-02;  0.0000000E+00;  7.2444484E-05;  9.9973663E+02;  1.0000000E-01; -2.1821605E+02;3;  4.1333458E-01;  0.0000000E+00; -5.1107600E-02;0; -5.1020421E-02;  3.9980238E+04;  0.0000000E+00;  8.4553268E-03;  4.0000000E+04;  0.0000000E+00;  3.9998859E+04; -5.2365765E-02;  0.0000000E+00;  1.3453432E-03;  1.0138618E+02;
  2.6143548E-01;  9.9999998E-03;  2.9988388E-02;4065; -1.7516959E-02;  0.0000000E+00;  9.4990057E-05;  9.9977283E+02;  1.0000000E-01; -1.8819221E+02;3;  4.1753891E-01;  0.0000000E+00; -7.4253820E-02;0; -5.0980572E-02;  3.9984867E+04;  0.0000000E+00;  1.8452525E-02;  4.0000000E+04;  0.0000000E+00;  3.9997137E+04; -5.2231602E-02;  0.0000000E+00;  1.2510305E-03;  3.1529474E+02;
  2.6143959E-01;  9.9999998E-03;  3.9988670E-02;4066; -1.7525917E-02;  0.0000000E+00;  1.0570086E-04;  9.9982153E+02;  1.0000000E-01; -1.4784767E+02;3;  4.2348835E-01;  0.0000000E+00; -9.1583230E-02;0; -5.0915908E-02;  3.9990531E+04;  0.0000000E+00;  3.1247871E-02;  4.0000000E+04;  0.0000000E+00;  3.9995262E+04; -5.2061204E-02;  0.0000000E+00;  1.1452970E-03;  5.6607947E+02;
  2.6145199E-01;  9.9999998E-03;  4.9993411E-02;4067; -1.7531494E-02;  0.0000000E+00;  1.0536136E-04;  9.9987823E+02;  1.0000000E-01; -1.0088603E+02;3;  4.3089291E-01;  0.0000000E+00; -1.0791109E-01;0; -5.0821647E-02;  3.9997133E+04;  0.0000000E+00;  4.5615807E-02;  4.0000000E+04;  0.0000000E+00;  3.9993328E+04; -5.1869337E-02;  0.0000000E+00;  1.0476876E-03;  8.0983472E+02;
  2.6147896E-01;  9.9999998E-03;  6.0001206E-02;4068; -1.7529104E-02;  0.0000000E+00;  9.6752003E-05;  9.9994147E+02;  1.0000000E-01; -4.8492455E+01;3;  4.3992960E-01;  0.0000000E+00; -1.2077182E-01;0; -5.0696455E-02;  4.0003598E+04;  0.0000000E+00;  6.0426358E-02;  4.0000000E+04;  0.0000000E+00;  3.9991684E+04; -5.1671967E-02;  0.0000000E+00;  9.7551337E-04;  1.0025405E+03;
  2.7166075E-01;  9.9999998E-03; -1.0000863E-01;4113; -1.7782418E-02;  0.0000000E+00; -5.3137963E-05;  1.0000920E+03;  1.0000000E-01;  7.6244759E+01;3;  5.3382385E-01;  0.0000000E+00;  1.9058517E-01;0; -4.9506761E-02;  4.0013949E+04;  0.0000000E+00;  9.2743009E-02;  4.0000000E+04;  0.0000000E+00;  3.9993805E+04; -5.0622661E-02;  0.0000000E+00;  1.1158983E-03;  7.7230920E+02;
  2.7160388E-01;  9.9999998E-03; -9.0010718E-02;4114; -1.7870663E-02;  0.0000000E+00; -5.8613434E-05;  1.0000493E+03;  1.0000000E-01;  4.0788971E+01;3;  5.1951396E-01;  0.0000000E+00;  1.7636988E-01;0; -4.9683891E-02;  4.0011793E+04;  0.0000000E+00;  6.9730610E-02;  4.0000000E+04;  0.0000000E+00;  3.9992828E+04; -5.0706394E-02;  0.0000000E+00;  1.0225037E-03;  8.9815918E+02;
  2.7156138E-01;  9.9999998E-03; -8.0009229E-02;4115; -1.7932303E-02;  0.0000000E+00; -6.9969305E-05;  9.9997003E+02;  1.0000000E-01; -2.4838804E+01;3;  5.0659621E-01;  0.0000000E+00;  1.6425747E-01;0; -4.9884982E-02;  4.0005945E+04;  0.0000000E+00;  5.6572583E-02;  4.0000000E+04;  0.0000000E+00;  3.9992332E+04; -5.0845504E-02;  0.0000000E+00;  9.6052192E-04;  9.4830731E+02;
  2.7152675E-01;  9.9999998E-03; -7.0004448E-02;4116; -1.7971773E-02;  0.0000000E+00; -8.3781808E-05;  9.9986987E+02;  1.0000000E-01; -1.0779942E+02;3;  4.9498492E-01;  0.0000000E+00;  1.5160421E-01;0; -5.0090615E-02;  3.9997652E+04;  0.0000000E+00;  4.7682639E-02;  4.0000000E+04;  0.0000000E+00;  3.9992762E+04; -5.1031772E-02;  0.0000000E+00;  9.4115676E-04;  9.0731573E+02;
  2.7149481E-01;  9.9999998E-03; -5.9998427E-02;4117; -1.7994035E-02;  0.0000000E+00; -9.6433709E-05;  9.9976215E+02;  1.0000000E-01; -1.9708084E+02;3;  4.8483744E-01;  0.0000000E+00;  1.3829371E-01;0; -5.0284114E-02;  3.9988172E+04;  0.0000000E+00;  3.9556194E-02;  4.0000000E+04;  0.0000000E+00;  3.9993883E+04; -5.1251758E-02;  0.0000000E+00;  9.6764351E-04;  7.7698364E+02;
  2.7146477E-01;  9.9999998E-03; -4.9993474E-02;4118; -1.8004127E-02;  0.0000000E+00; -1.0427929E-04;  9.9965479E+02;  1.0000000E-01; -2.8601660E+02;3;  4.7618014E-01;  0.0000000E+00;  1.2390071E-01;0; -5.0452795E-02;  3.9977996E+04;  0.0000000E+00;  3.0803079E-02;  4.0000000E+04;  0.0000000E+00;  3.9995406E+04; -5.1487528E-02;  0.0000000E+00;  1.0347336E-03;  5.7674652E+02;
  2.7144119E-01;  9.9999998E-03; -3.9991897E-02;4119; -1.8006759E-02;  0.0000000E+00; -1.0404316E-04;  9.9955670E+02;  1.0000000E-01; -3.6724887E+02;3;  4.6917871E-01;  0.0000000E+00;  1.0475915E-01;0; -5.0589200E-02;  3.9968562E+04;  0.0000000E+00;  2.1610426E-02;  4.0000000E+04;  0.0000000E+00;  3.9997082E+04; -5.1718783E-02;  0.0000000E+00;  1.1295816E-03;  3.4014685E+02;
  2.7142724E-01;  9.9999998E-03; -2.9993560E-02;4120; -1.8005695E-02;  0.0000000E+00; -9.2896182E-05;  9.9947809E+02;  1.0000000E-01; -4.3238284E+02;3;  4.6377602E-01;  0.0000000E+00;  8.3972938E-02;0; -5.0691135E-02;  3.9960293E+04;  0.0000000E+00;  1.2975955E-02;  4.0000000E+04;  0.0000000E+00;  3.9999016E+04; -5.1925108E-02;  0.0000000E+00;  1.2339727E-03;  1.0709925E+02;
  2.7142179E-01;  9.9999998E-03; -1.9996576E-02;4121; -1.8003529E-02;  0.0000000E+00; -7.0518727E-05;  9.9941705E+02;  1.0000000E-01; -4.8294931E+02;3;  4.6011120E-01;  0.0000000E+00;  5.8817737E-02;0; -5.0760008E-02;  3.9953910E+04;  0.0000000E+00;  6.0098302E-03;  4.0000000E+04;  0.0000000E+00;  4.0000426E+04; -5.2087724E-02;  0.0000000E+00;  1.3277149E-03;  8.8492920E+01;
  2.7142161E-01;  9.9999998E-03; -9.9988580E-03;4122; -1.8001819E-02;  0.0000000E+00; -3.8369246E-05;  9.9938086E+02;  1.0000000E-01; -5.1292377E+02;3;  4.5785490E-01;  0.0000000E+00;  3.3855211E-02;0; -5.0799321E-02;  3.9950023E+04;  0.0000000E+00;  1.5356618E-03;  4.0000000E+04;  0.0000000E+00;  4.0001340E+04; -5.2191846E-02;  0.0000000E+00;  1.3925252E-03;  2.1442259E+02;
  2.7142194E-01;  9.9999998E-03;  3.3905484E-10;4123; -1.8001238E-02;  0.0000000E+00; -9.6068187E-10;  9.9936823E+02;  1.0000000E-01; -5.2339258E+02;3;  4.5720658E-01;  0.0000000E+00;  1.4705756E-05;0; -5.0811943E-02;  3.9948703E+04;  0.0000000E+00; -1.1705179E-12;  4.0000000E+04;  0.0000000E+00;  4.0001730E+04; -5.2227601E-02;  0.0000000E+00;  1.4156579E-03;  2.5815408E+02;
  2.7142161E-01;  9.9999998E-03;  9.9988580E-03;4124; -1.8001821E-02;  0.0000000E+00;  3.8367172E-05;  9.9938086E+02;  1.0000000E-01; -5.1292377E+02;3;  4.5783746E-01;  0.0000000E+00; -3.3824529E-02;0; -5.0799288E-02;  3.9950020E+04;  0.0000000E+00;  1.5358021E-03;  4.0000000E+04;  0.0000000E+00;  4.0001340E+04; -5.2191813E-02;  0.0000000E+00;  1.3925252E-03;  2.1442874E+02;
  2.7142179E-01;  9.9999998E-03;  1.9996578E-02;4125; -1.8003531E-02;  0.0000000E+00;  7.0516537E-05;  9.9941705E+02;  1.0000000E-01; -4.8294931E+02;3;  4.6013629E-01;  0.0000000E+00; -5.8782700E-02;0; -5.0760042E-02;  3.9953914E+04;  0.0000000E+00;  6.0103512E-03;  4.0000000E+04;  0.0000000E+00;  4.0000426E+04; -5.2087754E-02;  0.0000000E+00;  1.3277108E-03;  8.8502754E+01;
  2.7142724E-01;  9.9999998E-03;  2.9993560E-02;4126; -1.8005699E-02;  0.0000000E+00;  9.2893715E-05;  9.9947809E+02;  1.0000000E-01; -4.3238284E+02;3;  4.6380246E-01;  0.0000000E+00; -8.3934866E-02;0; -5.0691117E-02;  3.9960293E+04;  0.0000000E+00;  1.2976526E-02;  4.0000000E+04;  0.0000000E+00;  3.9999016E+04; -5.1925085E-02;  0.0000000E+00;  1.2339683E-03;  1.0708309E+02;
  2.7144119E-01;  9.9999998E-03;  3.9991897E-02;4127; -1.8006766E-02;  0.0000000E+00;  1.0404068E-04;  9.9955670E+02;  1.0000000E-01; -3.6724887E+02;3;  4.6914142E-01;  0.0000000E+00; -1.0471132E-01;0; -5.0589222E-02;  3.9968562E+04;  0.0000000E+00;  2.1611122E-02;  4.0000000E+04;  0.0000000E+00;  3.9997082E+04; -5.1718801E-02;  0.0000000E+00;  1.1295795E-03;  3.4012653E+02;
  2.7146477E-01;  9.9999998E-03;  4.9993474E-02;4128; -1.8004132E-02;  0.0000000E+00;  1.0427618E-04;  9.9965479E+02;  1.0000000E-01; -2.8601660E+02;3;  4.7619843E-01;  0.0000000E+00; -1.2384814E-01;0; -5.0452758E-02;  3.9978000E+04;  0.0000000E+00;  3.0803556E-02;  4.0000000E+04;  0.0000000E+00;  3.9995406E+04; -5.1487491E-02;  0.0000000E+00;  1.0347347E-03;  5.7673743E+02;
  2.7149481E-01;  9.9999998E-03;  5.9998427E-02;4129; -1.7994048E-02;  0.0000000E+00;  9.6430558E-05;  9.9976202E+02;  1.0000000E-01; -1.9717961E+02;3;  4.8486173E-01;  0.0000000E+00; -1.3823678E-01;0; -5.0284073E-02;  3.9988168E+04;  0.0000000E+00;  3.9557096E-02;  4.0000000E+04;  0.0000000E+00;  3.9993879E+04; -5.1251721E-02;  0.0000000E+00;  9.6764637E-04;  7.7697845E+02;
  2.8163019E-01;  9.9999998E-03; -1.0001028E-01;4174; -1.8252956E-02;  0.0000000E+00; -5.3940916E-05;  1.0000688E+03;  1.0000000E-01;  5.6986042E+01;3;  5.8297610E-01;  0.0000000E+00;  2.1601641E-01;0; -4.9052820E-02;  4.0012125E+04;  0.0000000E+00;  2.5986878E-02;  4.0000000E+04;  0.0000000E+00;  3.9994832E+04; -5.0210267E-02;  0.0000000E+00;  1.1574462E-03;  6.6124347E+02;
  2.8158078E-01;  9.9999998E-03; -9.0009324E-02;4175; -1.8339144E-02;  0.0000000E+00; -5.9956805E-05;  9.9997791E+02;  1.0000000E-01; -1.8320469E+01;3;  5.6801456E-01;  0.0000000E+00;  2.0132667E-01;0; -4.9265493E-02;  4.0005711E+04;  0.0000000E+00;  1.4688213E-02;  4.0000000E+04;  0.0000000E+00;  3.9993859E+04; -5.0308354E-02;  0.0000000E+00;  1.0428601E-03;  7.5641614E+02;
  2.8154039E-01;  9.9999998E-03; -8.0006786E-02;4176; -1.8402858E-02;  0.0000000E+00; -7.1280447E-05;  9.9985217E+02;  1.0000000E-01; -1.2246568E+02;3;  5.5488491E-01;  0.0000000E+00;  1.8656066E-01;0; -4.9506687E-02;  3.9995980E+04;  0.0000000E+00;  1.2247203E-02;  4.0000000E+04;  0.0000000E+00;  3.9993793E+04; -5.0472222E-02;  0.0000000E+00;  9.6553395E-04;  7.6862335E+02;
  2.8150713E-01;  9.9999998E-03; -7.0003696E-02;4177; -1.8448278E-02;  0.0000000E+00; -8.4293970E-05;  9.9970752E+02;  1.0000000E-01; -2.4231413E+02;3;  5.4328012E-01;  0.0000000E+00;  1.7224826E-01;0; -4.9756147E-02;  3.9983785E+04;  0.0000000E+00;  1.3093699E-02;  4.0000000E+04;  0.0000000E+00;  3.9994172E+04; -5.0691452E-02;  0.0000000E+00;  9.3530404E-04;  6.9415411E+02;
  2.8148198E-01;  9.9999998E-03; -6.0000736E-02;4178; -1.8479697E-02;  0.0000000E+00; -9.5774485E-05;  9.9956189E+02;  1.0000000E-01; -3.6295270E+02;3;  5.3337586E-01;  0.0000000E+00;  1.5682684E-01;0; -4.9995340E-02;  3.9970938E+04;  0.0000000E+00;  1.3745489E-02;  4.0000000E+04;  0.0000000E+00;  3.9995352E+04; -5.0949354E-02;  0.0000000E+00;  9.5401291E-04;  5.4380670E+02;
  2.8147009E-01;  9.9999998E-03; -4.9998123E-02;4179; -1.8501300E-02;  0.0000000E+00; -1.0235624E-04;  9.9942059E+02;  1.0000000E-01; -4.8003580E+02;3;  5.2516621E-01;  0.0000000E+00;  1.3953961E-01;0; -5.0209619E-02;  3.9957996E+04;  0.0000000E+00;  1.2716585E-02;  4.0000000E+04;  0.0000000E+00;  3.9996934E+04; -5.1224928E-02;  0.0000000E+00;  1.0153103E-03;  3.4142078E+02;
  2.8147510E-01;  9.9999998E-03; -3.9996829E-02;4180; -1.8516472E-02;  0.0000000E+00; -1.0100941E-04;  9.9929651E+02;  1.0000000E-01; -5.8284772E+02;3;  5.1912665E-01;  0.0000000E+00;  1.1865703E-01;0; -5.0389010E-02;  3.9946289E+04;  0.0000000E+00;  1.0026301E-02;  4.0000000E+04;  0.0000000E+00;  3.9998523E+04; -5.1494643E-02;  0.0000000E+00;  1.1056327E-03;  1.1929741E+02;
  2.8149027E-01;  9.9999998E-03; -2.9997585E-02;4181; -1.8527254E-02;  0.0000000E+00; -8.9429464E-05;  9.9919037E+02;  1.0000000E-01; -6.7074646E+02;3;  5.1443797E-01;  0.0000000E+00;  9.3783341E-02;0; -5.0528444E-02;  3.9936250E+04;  0.0000000E+00;  6.5038744E-03;  4.0000000E+04;  0.0000000E+00;  4.0000062E+04; -5.1734857E-02;  0.0000000E+00;  1.2064136E-03;  9.1279266E+01;
  2.8150609E-01;  9.9999998E-03; -1.9999733E-02;4182; -1.8534575E-02;  0.0000000E+00; -6.7291920E-05;  9.9911237E+02;  1.0000000E-01; -7.3538660E+02;3;  5.1116204E-01;  0.0000000E+00;  6.5486223E-02;0; -5.0626714E-02;  3.9928770E+04;  0.0000000E+00;  3.1635608E-03;  4.0000000E+04;  0.0000000E+00;  4.0001332E+04; -5.1924117E-02;  0.0000000E+00;  1.2974044E-03;  2.5818832E+02;
  2.8151670E-01;  9.9999998E-03; -1.0001075E-02;4183; -1.8538913E-02;  0.0000000E+00; -3.6323967E-05;  9.9906506E+02;  1.0000000E-01; -7.7459540E+02;3;  5.0965554E-01;  0.0000000E+00;  3.6073841E-02;0; -5.0684717E-02;  3.9924035E+04;  0.0000000E+00;  8.3061203E-04;  4.0000000E+04;  0.0000000E+00;  4.0002340E+04; -5.2045166E-02;  0.0000000E+00;  1.3604517E-03;  3.6473987E+02;
  2.8152052E-01;  9.9999998E-03;  5.0965920E-10;4184; -1.8540449E-02;  0.0000000E+00; -6.4548877E-10;  9.9904767E+02;  1.0000000E-01; -7.8896533E+02;3;  5.0926256E-01;  0.0000000E+00;  1.4564595E-05;0; -5.0703812E-02;  3.9922559E+04;  0.0000000E+00;  3.7198735E-13;  4.0000000E+04;  0.0000000E+00;  4.0002445E+04; -5.2086785E-02;  0.0000000E+00;  1.3829743E-03;  4.0112421E+02;
  2.8151670E-01;  9.9999998E-03;  1.0001075E-02;4185; -1.8538915E-02;  0.0000000E+00;  3.6322417E-05;  9.9906506E+02;  1.0000000E-01; -7.7459540E+02;3;  5.0962955E-01;  0.0000000E+00; -3.6045343E-02;0; -5.0684676E-02;  3.9924043E+04;  0.0000000E+00;  8.3087140E-04;  4.0000000E+04;  0.0000000E+00;  4.0002340E+04; -5.2045126E-02;  0.0000000E+00;  1.3604502E-03;  3.6474301E+02;
  2.8150609E-01;  9.9999998E-03;  1.9999735E-02;4186; -1.8534577E-02;  0.0000000E+00;  6.7290253E-05;  9.9911237E+02;  1.0000000E-01; -7.3538660E+02;3;  5.1118505E-01;  0.0000000E+00; -6.5453388E-02;0; -5.0626755E-02;  3.9928770E+04;  0.0000000E+00;  3.1641279E-03;  4.0000000E+04;  0.0000000E+00;  4.0001332E+04; -5.1924154E-02;  0.0000000E+00;  1.2974006E-03;  2.5819620E+02;
  2.8149027E-01;  9.9999998E-03;  2.9997585E-02;4187; -1.8527262E-02;  0.0000000E+00;  8.9427449E-05;  9.9919031E+02;  1.0000000E-01; -6.7079584E+02;3;  5.1440752E-01;  0.0000000E+00; -9.3742900E-02;0; -5.0528429E-02;  3.9936250E+04;  0.0000000E+00;  6.5049552E-03;  4.0000000E+04;  0.0000000E+00;  4.0000062E+04; -5.1734842E-02;  0.0000000E+00;  1.2064126E-03;  9.1300919E+01;
  2.8147510E-01;  9.9999998E-03;  3.9996829E-02;4188; -1.8516479E-02;  0.0000000E+00;  1.0100727E-04;  9.9929645E+02;  1.0000000E-01; -5.8289709E+02;3;  5.1913738E-01;  0.0000000E+00; -1.1861081E-01;0; -5.0388958E-02;  3.9946289E+04;  0.0000000E+00;  1.0027953E-02;  4.0000000E+04;  0.0000000E+00;  3.9998523E+04; -5.1494591E-02;  0.0000000E+00;  1.1056321E-03;  1.1928466E+02;
  2.8147009E-01;  9.9999998E-03;  4.9998123E-02;4189; -1.8501310E-02;  0.0000000E+00;  1.0235376E-04;  9.9942059E+02;  1.0000000E-01; -4.8003580E+02;3;  5.2516639E-01;  0.0000000E+00; -1.3948745E-01;0; -5.0209586E-02;  3.9957992E+04;  0.0000000E+00;  1.2717818E-02;  4.0000000E+04;  0.0000000E+00;  3.9996934E+04; -5.1224895E-02;  0.0000000E+00;  1.0153099E-03;  3.4140945E+02;
  2.8148198E-01;  9.9999998E-03;  6.0000736E-02;4190; -1.8479709E-02;  0.0000000E+00;  9.5771837E-05;  9.9956189E+02;  1.0000000E-01; -3.6295270E+02;3;  5.3336203E-01;  0.0000000E+00; -1.5676592E-01;0; -4.9995326E-02;  3.9970938E+04;  0.0000000E+00;  1.3746127E-02;  4.0000000E+04;  0.0000000E+00;  3.9995352E+04; -5.0949339E-02;  0.0000000E+00;  9.5401448E-04;  5.4380975E+02;
  2.9158542E-01;  9.9999998E-03; -1.0001291E-01;4235; -1.8734315E-02;  0.0000000E+00; -5.7960893E-05;  1.0000209E+03;  1.0000000E-01;  1.7283463E+01;3;  6.3591886E-01;  0.0000000E+00;  2.4552932E-01;0; -4.8650015E-02;  4.0008457E+04;  0.0000000E+00; -4.0988989E-02;  4.0000000E+04;  0.0000000E+00;  3.9995250E+04; -4.9822893E-02;  0.0000000E+00;  1.1728761E-03;  5.8486401E+02;
  2.9155064E-01;  9.9999998E-03; -9.0010881E-02;4236; -1.8821742E-02;  0.0000000E+00; -6.3830972E-05;  9.9988763E+02;  1.0000000E-01; -9.3083786E+01;3;  6.2050909E-01;  0.0000000E+00;  2.2866164E-01;0; -4.8903141E-02;  3.9998449E+04;  0.0000000E+00; -3.8650654E-02;  4.0000000E+04;  0.0000000E+00;  3.9994906E+04; -4.9946729E-02;  0.0000000E+00;  1.0435893E-03;  6.3349176E+02;
  2.9153091E-01;  9.9999998E-03; -8.0007881E-02;4237; -1.8891461E-02;  0.0000000E+00; -7.4258023E-05;  9.9972992E+02;  1.0000000E-01; -2.2374677E+02;3;  6.0709184E-01;  0.0000000E+00;  2.1155582E-01;0; -4.9186781E-02;  3.9985398E+04;  0.0000000E+00; -2.9300077E-02;  4.0000000E+04;  0.0000000E+00;  3.9995059E+04; -5.0142210E-02;  0.0000000E+00;  9.5543050E-04;  5.9966534E+02;
  2.9153076E-01;  9.9999998E-03; -7.0003271E-02;4238; -1.8947294E-02;  0.0000000E+00; -8.5720327E-05;  9.9955963E+02;  1.0000000E-01; -3.6482919E+02;3;  5.9590757E-01;  0.0000000E+00;  1.9501543E-01;0; -4.9480092E-02;  3.9970781E+04;  0.0000000E+00; -1.8267486E-02;  4.0000000E+04;  0.0000000E+00;  3.9995891E+04; -5.0396863E-02;  0.0000000E+00;  9.1677025E-04;  4.9057071E+02;
  2.9154310E-01;  9.9999998E-03; -5.9998628E-02;4239; -1.8992152E-02;  0.0000000E+00; -9.5283620E-05;  9.9938696E+02;  1.0000000E-01; -5.0788687E+02;3;  5.8642316E-01;  0.0000000E+00;  1.7680857E-01;0; -4.9764071E-02;  3.9955645E+04;  0.0000000E+00; -8.8842306E-03;  4.0000000E+04;  0.0000000E+00;  3.9996906E+04; -5.0692365E-02;  0.0000000E+00;  9.2829322E-04;  3.2404468E+02;
  2.9155526E-01;  9.9999998E-03; -4.9996436E-02;4240; -1.9028023E-02;  0.0000000E+00; -9.9964367E-05;  9.9922644E+02;  1.0000000E-01; -6.4087079E+02;3;  5.7892573E-01;  0.0000000E+00;  1.5667318E-01;0; -5.0022397E-02;  3.9941121E+04;  0.0000000E+00; -2.6110739E-03;  4.0000000E+04;  0.0000000E+00;  3.9998477E+04; -5.1005337E-02;  0.0000000E+00;  9.8294101E-04;  1.2561427E+02;
  2.9156297E-01;  9.9999998E-03; -3.9997082E-02;4241; -1.9056467E-02;  0.0000000E+00; -9.7151860E-05;  9.9908441E+02;  1.0000000E-01; -7.5854645E+02;3;  5.7362634E-01;  0.0000000E+00;  1.3219415E-01;0; -5.0242808E-02;  3.9928203E+04;  0.0000000E+00;  5.3249253E-04;  4.0000000E+04;  0.0000000E+00;  4.0000137E+04; -5.1309735E-02;  0.0000000E+00;  1.0669285E-03;  7.6163330E+01;
  2.9157090E-01;  9.9999998E-03; -2.9999435E-02;4242; -1.9078756E-02;  0.0000000E+00; -8.5051601E-05;  9.9896765E+02;  1.0000000E-01; -8.5528442E+02;3;  5.6969184E-01;  0.0000000E+00;  1.0299263E-01;0; -5.0417729E-02;  3.9917383E+04;  0.0000000E+00;  1.3634133E-03;  4.0000000E+04;  0.0000000E+00;  4.0001348E+04; -5.1579606E-02;  0.0000000E+00;  1.1618786E-03;  2.5521519E+02;
  2.9158151E-01;  9.9999998E-03; -2.0001909E-02;4243; -1.9095266E-02;  0.0000000E+00; -6.3324449E-05;  9.9888110E+02;  1.0000000E-01; -9.2698615E+02;3;  5.6718433E-01;  0.0000000E+00;  7.0164047E-02;0; -5.0543427E-02;  3.9909473E+04;  0.0000000E+00;  9.6321566E-04;  4.0000000E+04;  0.0000000E+00;  4.0002441E+04; -5.1791441E-02;  0.0000000E+00;  1.2480128E-03;  3.9234238E+02;
  2.9159093E-01;  9.9999998E-03; -1.0002760E-02;4244; -1.9105626E-02;  0.0000000E+00; -3.3778764E-05;  9.9882709E+02;  1.0000000E-01; -9.7172559E+02;3;  5.6601858E-01;  0.0000000E+00;  3.7831523E-02;0; -5.0618757E-02;  3.9904613E+04;  0.0000000E+00;  2.9602248E-04;  4.0000000E+04;  0.0000000E+00;  4.0003016E+04; -5.1926553E-02;  0.0000000E+00;  1.3077952E-03;  4.7681555E+02;
  2.9159480E-01;  9.9999998E-03;  6.2171096E-10;4245; -1.9109255E-02;  0.0000000E+00; -5.2684401E-10;  9.9880914E+02;  1.0000000E-01; -9.8658936E+02;3;  5.6629521E-01;  0.0000000E+00;  1.3348250E-05;0; -5.0643854E-02;  3.9902910E+04;  0.0000000E+00;  4.4468572E-14;  4.0000000E+04;  0.0000000E+00;  4.0003199E+04; -5.1973015E-02;  0.0000000E+00;  1.3291595E-03;  5.0507120E+02;
  2.9159093E-01;  9.9999998E-03;  1.0002761E-02;4246; -1.9105628E-02;  0.0000000E+00;  3.3777476E-05;  9.9882709E+02;  1.0000000E-01; -9.7172559E+02;3;  5.6597751E-01;  0.0000000E+00; -3.7801620E-02;0; -5.0618738E-02;  3.9904613E+04;  0.0000000E+00;  2.9640135E-04;  4.0000000E+04;  0.0000000E+00;  4.0003016E+04; -5.1926531E-02;  0.0000000E+00;  1.3077933E-03;  4.7682016E+02;
  2.9158151E-01;  9.9999998E-03;  2.0001911E-02;4247; -1.9095270E-02;  0.0000000E+00;  6.3323059E-05;  9.9888104E+02;  1.0000000E-01; -9.2703552E+02;3;  5.6716174E-01;  0.0000000E+00; -7.0130289E-02;0; -5.0543401E-02;  3.9909473E+04;  0.0000000E+00;  9.6393528E-04;  4.0000000E+04;  0.0000000E+00;  4.0002441E+04; -5.1791411E-02;  0.0000000E+00;  1.2480109E-03;  3.9234689E+02;
  2.9157090E-01;  9.9999998E-03;  2.9999435E-02;4248; -1.9078759E-02;  0.0000000E+00;  8.5050095E-05;  9.9896765E+02;  1.0000000E-01; -8.5528442E+02;3;  5.6972045E-01;  0.0000000E+00; -1.0295520E-01;0; -5.0417718E-02;  3.9917383E+04;  0.0000000E+00;  1.3644928E-03;  4.0000000E+04;  0.0000000E+00;  4.0001348E+04; -5.1579595E-02;  0.0000000E+00;  1.1618769E-03;  2.5522754E+02;
  2.9156297E-01;  9.9999998E-03;  3.9997082E-02;4249; -1.9056475E-02;  0.0000000E+00;  9.7150420E-05;  9.9908441E+02;  1.0000000E-01; -7.5854645E+02;3;  5.7361990E-01;  0.0000000E+00; -1.3214682E-01;0; -5.0242856E-02;  3.9928203E+04;  0.0000000E+00;  5.3382292E-04;  4.0000000E+04;  0.0000000E+00;  4.0000133E+04; -5.1309787E-02;  0.0000000E+00;  1.0669288E-03;  7.6175476E+01;
  2.9155526E-01;  9.9999998E-03;  4.9996436E-02;4250; -1.9028030E-02;  0.0000000E+00;  9.9962504E-05;  9.9922632E+02;  1.0000000E-01; -6.4096954E+02;3;  5.7892227E-01;  0.0000000E+00; -1.5661772E-01;0; -5.0022323E-02;  3.9941121E+04;  0.0000000E+00; -2.6104590E-03;  4.0000000E+04;  0.0000000E+00;  3.9998477E+04; -5.1005267E-02;  0.0000000E+00;  9.8294276E-04;  1.2560796E+02;
  2.9154310E-01;  9.9999998E-03;  5.9998628E-02;4251; -1.8992160E-02;  0.0000000E+00;  9.5281714E-05;  9.9938696E+02;  1.0000000E-01; -5.0788687E+02;3;  5.8642143E-01;  0.0000000E+00; -1.7674582E-01;0; -4.9764086E-02;  3.9955645E+04;  0.0000000E+00; -8.8839568E-03;  4.0000000E+04;  0.0000000E+00;  3.9996906E+04; -5.0692383E-02;  0.0000000E+00;  9.2829624E-04;  3.2403320E+02;
  3.0156332E-01;  9.9999998E-03; -1.0001301E-01;4296; -1.9225812E-02;  0.0000000E+00; -6.5215594E-05;  9.9997040E+02;  1.0000000E-01; -2.4542517E+01;3;  6.9269598E-01;  0.0000000E+00;  2.7814358E-01;0; -4.8248474E-02;  4.0004312E+04;  0.0000000E+00; -9.4562203E-02;  4.0000000E+04;  0.0000000E+00;  3.9995668E+04; -4.9404435E-02;  0.0000000E+00;  1.1559629E-03;  5.4453503E+02;
  3.0156249E-01;  9.9999998E-03; -9.0005755E-02;4297; -1.9318487E-02;  0.0000000E+00; -7.0213609E-05;  9.9981622E+02;  1.0000000E-01; -1.5224261E+02;3;  6.7727458E-01;  0.0000000E+00;  2.5800443E-01;0; -4.8541382E-02;  3.9991938E+04;  0.0000000E+00; -7.8448795E-02;  4.0000000E+04;  0.0000000E+00;  3.9995945E+04; -4.9559522E-02;  0.0000000E+00;  1.0181399E-03;  5.3537146E+02;
  3.0157205E-01;  9.9999998E-03; -7.9998769E-02;4298; -1.9397564E-02;  0.0000000E+00; -7.8834310E-05;  9.9964044E+02;  1.0000000E-01; -2.9786813E+02;3;  6.6371834E-01;  0.0000000E+00;  2.3944134E-01;0; -4.8865024E-02;  3.9977344E+04;  0.0000000E+00; -5.8134820E-02;  4.0000000E+04;  0.0000000E+00;  3.9996262E+04; -4.9788337E-02;  0.0000000E+00;  9.2331338E-04;  4.5322861E+02;
  3.0158356E-01;  9.9999998E-03; -6.9995232E-02;4299; -1.9465325E-02;  0.0000000E+00; -8.7948589E-05;  9.9945593E+02;  1.0000000E-01; -4.5075269E+02;3;  6.5272826E-01;  0.0000000E+00;  2.1934029E-01;0; -4.9198601E-02;  3.9961691E+04;  0.0000000E+00; -3.8470980E-02;  4.0000000E+04;  0.0000000E+00;  3.9997312E+04; -5.0077103E-02;  0.0000000E+00;  8.7850337E-04;  3.1265198E+02;
  3.0160320E-01;  9.9999998E-03; -5.9994429E-02;4300; -1.9524196E-02;  0.0000000E+00; -9.4961644E-05;  9.9927887E+02;  1.0000000E-01; -5.9746460E+02;3;  6.4401364E-01;  0.0000000E+00;  1.9712588E-01;0; -4.9521886E-02;  3.9945840E+04;  0.0000000E+00; -2.2371884E-02;  4.0000000E+04;  0.0000000E+00;  3.9998508E+04; -5.0405215E-02;  0.0000000E+00;  8.8332995E-04;  1.3620123E+02;
  3.0162975E-01;  9.9999998E-03; -4.9995035E-02;4301; -1.9575471E-02;  0.0000000E+00; -9.7260767E-05;  9.9911432E+02;  1.0000000E-01; -7.3375702E+02;3;  6.3723218E-01;  0.0000000E+00;  1.7401978E-01;0; -4.9817454E-02;  3.9931156E+04;  0.0000000E+00; -1.1006328E-02;  4.0000000E+04;  0.0000000E+00;  3.9999996E+04; -5.0747771E-02;  0.0000000E+00;  9.3031558E-04;  5.6796185E+01;
  3.0165675E-01;  9.9999998E-03; -3.9997190E-02;4302; -1.9619271E-02;  0.0000000E+00; -9.2770177E-05;  9.9896979E+02;  1.0000000E-01; -8.5350671E+02;3;  6.3252133E-01;  0.0000000E+00;  1.4457440E-01;0; -5.0071932E-02;  3.9918242E+04;  0.0000000E+00; -4.2011477E-03;  4.0000000E+04;  0.0000000E+00;  4.0001188E+04; -5.1077861E-02;  0.0000000E+00;  1.0059288E-03;  2.3005421E+02;
  3.0167788E-01;  9.9999998E-03; -3.0000137E-02;4303; -1.9654963E-02;  0.0000000E+00; -7.9920515E-05;  9.9885217E+02;  1.0000000E-01; -9.5093610E+02;3;  6.2967122E-01;  0.0000000E+00;  1.1112398E-01;0; -5.0275922E-02;  3.9907816E+04;  0.0000000E+00; -9.5512555E-04;  4.0000000E+04;  0.0000000E+00;  4.0002234E+04; -5.1368527E-02;  0.0000000E+00;  1.0926039E-03;  3.7526578E+02;
  3.0169135E-01;  9.9999998E-03; -2.0002438E-02;4304; -1.9681588E-02;  0.0000000E+00; -5.8645765E-05;  9.9876660E+02;  1.0000000E-01; -1.0218477E+03;3;  6.2773120E-01;  0.0000000E+00;  7.5982347E-02;0; -5.0423943E-02;  3.9899934E+04;  0.0000000E+00;  6.1782477E-05;  4.0000000E+04;  0.0000000E+00;  4.0003098E+04; -5.1595621E-02;  0.0000000E+00;  1.1716791E-03;  4.8021222E+02;
  3.0169871E-01;  9.9999998E-03; -1.0002746E-02;4305; -1.9698177E-02;  0.0000000E+00; -3.0777002E-05;  9.9871368E+02;  1.0000000E-01; -1.0656982E+03;3;  6.2680465E-01;  0.0000000E+00;  4.1457910E-02;0; -5.0513424E-02;  3.9895254E+04;  0.0000000E+00;  9.2480761E-05;  4.0000000E+04;  0.0000000E+00;  4.0003691E+04; -5.1740114E-02;  0.0000000E+00;  1.2266887E-03;  5.4196326E+02;
  3.0170101E-01;  9.9999998E-03;  6.0169114E-10;4306; -1.9703841E-02;  0.0000000E+00; -4.4219692E-10;  9.9869470E+02;  1.0000000E-01; -1.0814015E+03;3;  6.2731481E-01;  0.0000000E+00;  1.0273976E-05;0; -5.0543331E-02;  3.9893664E+04;  0.0000000E+00;  1.0553585E-12;  4.0000000E+04;  0.0000000E+00;  4.0003801E+04; -5.1789694E-02;  0.0000000E+00;  1.2463613E-03;  5.6207355E+02;
  3.0169871E-01;  9.9999998E-03;  1.0002747E-02;4307; -1.9698178E-02;  0.0000000E+00;  3.0776169E-05;  9.9871368E+02;  1.0000000E-01; -1.0656982E+03;3;  6.2677145E-01;  0.0000000E+00; -4.1434810E-02;0; -5.0513405E-02;  3.9895250E+04;  0.0000000E+00;  9.2728929E-05;  4.0000000E+04;  0.0000000E+00;  4.0003691E+04; -5.1740091E-02;  0.0000000E+00;  1.2266870E-03;  5.4197076E+02;
  3.0169135E-01;  9.9999998E-03;  2.0002440E-02;4308; -1.9681590E-02;  0.0000000E+00;  5.8645037E-05;  9.9876660E+02;  1.0000000E-01; -1.0218477E+03;3;  6.2769604E-01;  0.0000000E+00; -7.5952366E-02;0; -5.0424002E-02;  3.9899934E+04;  0.0000000E+00;  6.2356754E-05;  4.0000000E+04;  0.0000000E+00;  4.0003098E+04; -5.1595680E-02;  0.0000000E+00;  1.1716769E-03;  4.8023004E+02;
  3.0167788E-01;  9.9999998E-03;  3.0000137E-02;4309; -1.9654971E-02;  0.0000000E+00;  7.9919635E-05;  9.9885217E+02;  1.0000000E-01; -9.5093610E+02;3;  6.2964231E-01;  0.0000000E+00; -1.1108829E-01;0; -5.0275911E-02;  3.9907816E+04;  0.0000000E+00; -9.5458893E-04;  4.0000000E+04;  0.0000000E+00;  4.0002234E+04; -5.1368512E-02;  0.0000000E+00;  1.0926033E-03;  3.7527899E+02;
  3.0165675E-01;  9.9999998E-03;  3.9997194E-02;4310; -1.9619279E-02;  0.0000000E+00;  9.2769187E-05;  9.9896973E+02;  1.0000000E-01; -8.5355609E+02;3;  6.3250375E-01;  0.0000000E+00; -1.4453356E-01;0; -5.0071854E-02;  3.9918246E+04;  0.0000000E+00; -4.2004059E-03;  4.0000000E+04;  0.0000000E+00;  4.0001188E+04; -5.1077783E-02;  0.0000000E+00;  1.0059280E-03;  2.3006421E+02;
  3.0162975E-01;  9.9999998E-03;  4.9995035E-02;4311; -1.9575480E-02;  0.0000000E+00;  9.7259690E-05;  9.9911420E+02;  1.0000000E-01; -7.3385577E+02;3;  6.3719296E-01;  0.0000000E+00; -1.7397103E-01;0; -4.9817476E-02;  3.9931152E+04;  0.0000000E+00; -1.1005977E-02;  4.0000000E+04;  0.0000000E+00;  3.9999996E+04; -5.0747793E-02;  0.0000000E+00;  9.3031576E-04;  5.6795277E+01;
  3.0160320E-01;  9.9999998E-03;  5.9994433E-02;4312; -1.9524205E-02;  0.0000000E+00;  9.4960218E-05;  9.9927887E+02;  1.0000000E-01; -5.9746460E+02;3;  6.4399993E-01;  0.0000000E+00; -1.9707409E-01;0; -4.9521897E-02;  3.9945836E+04;  0.0000000E+00; -2.2370571E-02;  4.0000000E+04;  0.0000000E+00;  3.9998508E+04; -5.0405230E-02;  0.0000000E+00;  8.8333292E-04;  1.3620116E+02;
  3.1157878E-01;  9.9999998E-03; -1.0000101E-01;4357; -1.9723449E-02;  0.0000000E+00; -7.4506039E-05;  9.9993512E+02;  1.0000000E-01; -5.3776257E+01;3;  7.5390810E-01;  0.0000000E+00;  3.1495690E-01;0; -4.7805443E-02;  4.0001688E+04;  0.0000000E+00; -1.2583861E-01;  4.0000000E+04;  0.0000000E+00;  3.9996027E+04; -4.8905816E-02;  0.0000000E+00;  1.1003744E-03;  5.2467828E+02;
  3.1160799E-01;  9.9999998E-03; -8.9993633E-02;4358; -1.9823857E-02;  0.0000000E+00; -7.8033110E-05;  9.9977710E+02;  1.0000000E-01; -1.8468614E+02;3;  7.3864233E-01;  0.0000000E+00;  2.9087415E-01;0; -4.8132624E-02;  3.9988566E+04;  0.0000000E+00; -9.7843759E-02;  4.0000000E+04;  0.0000000E+00;  3.9996383E+04; -4.9092263E-02;  0.0000000E+00;  9.5963787E-04;  4.5687650E+02;
  3.1164530E-01;  9.9999998E-03; -7.9988830E-02;4359; -1.9914504E-02;  0.0000000E+00; -8.4237334E-05;  9.9960822E+02;  1.0000000E-01; -3.2458340E+02;3;  7.2535306E-01;  0.0000000E+00;  2.6795357E-01;0; -4.8488315E-02;  3.9973855E+04;  0.0000000E+00; -6.9222957E-02;  4.0000000E+04;  0.0000000E+00;  3.9997328E+04; -4.9350061E-02;  0.0000000E+00;  8.6174655E-04;  3.3098422E+02;
  3.1168097E-01;  9.9999998E-03; -6.9987781E-02;4360; -1.9996630E-02;  0.0000000E+00; -9.0429363E-05;  9.9943372E+02;  1.0000000E-01; -4.6917191E+02;3;  7.1476716E-01;  0.0000000E+00;  2.4445745E-01;0; -4.8852183E-02;  3.9958633E+04;  0.0000000E+00; -4.4030607E-02;  4.0000000E+04;  0.0000000E+00;  3.9998336E+04; -4.9664546E-02;  0.0000000E+00;  8.1236393E-04;  1.6832426E+02;
  3.1170872E-01;  9.9999998E-03; -5.9989944E-02;4361; -2.0070838E-02;  0.0000000E+00; -9.4369345E-05;  9.9926593E+02;  1.0000000E-01; -6.0818036E+02;3;  7.0633155E-01;  0.0000000E+00;  2.1952492E-01;0; -4.9204417E-02;  3.9943922E+04;  0.0000000E+00; -2.4489690E-02;  4.0000000E+04;  0.0000000E+00;  3.9999594E+04; -5.0014909E-02;  0.0000000E+00;  8.1049104E-04;  3.9774643E+01;
  3.1172702E-01;  9.9999998E-03; -4.9994513E-02;4362; -2.0137064E-02;  0.0000000E+00; -9.4018818E-05;  9.9911224E+02;  1.0000000E-01; -7.3548535E+02;3;  7.0033050E-01;  0.0000000E+00;  1.8954517E-01;0; -4.9527217E-02;  3.9930199E+04;  0.0000000E+00; -1.1214382E-02;  4.0000000E+04;  0.0000000E+00;  4.0000945E+04; -5.0375916E-02;  0.0000000E+00;  8.4870093E-04;  1.8945624E+02;
  3.1173876E-01;  9.9999998E-03; -3.9999805E-02;4363; -2.0194678E-02;  0.0000000E+00; -8.7544526E-05;  9.9897864E+02;  1.0000000E-01; -8.4619830E+02;3;  6.9644195E-01;  0.0000000E+00;  1.5381023E-01;0; -4.9805988E-02;  3.9918457E+04;  0.0000000E+00; -3.5895382E-03;  4.0000000E+04;  0.0000000E+00;  4.0002168E+04; -5.0720140E-02;  0.0000000E+00;  9.1415399E-04;  3.3338589E+02;
  3.1174648E-01;  9.9999998E-03; -3.0003935E-02;4364; -2.0242339E-02;  0.0000000E+00; -7.3748284E-05;  9.9887250E+02;  1.0000000E-01; -9.3409705E+02;3;  6.9405246E-01;  0.0000000E+00;  1.1766484E-01;0; -5.0030738E-02;  3.9908969E+04;  0.0000000E+00; -2.3883350E-04;  4.0000000E+04;  0.0000000E+00;  4.0002754E+04; -5.1021244E-02;  0.0000000E+00;  9.9050591E-04;  4.4318768E+02;
  3.1175193E-01;  9.9999998E-03; -2.0005666E-02;4365; -2.0278335E-02;  0.0000000E+00; -5.3231495E-05;  9.9879474E+02;  1.0000000E-01; -9.9853967E+02;3;  6.9257122E-01;  0.0000000E+00;  8.1649184E-02;0; -5.0194569E-02;  3.9901781E+04;  0.0000000E+00;  5.1445706E-04;  4.0000000E+04;  0.0000000E+00;  4.0003418E+04; -5.1255185E-02;  0.0000000E+00;  1.0606173E-03;  5.1624432E+02;
  3.1175569E-01;  9.9999998E-03; -1.0004440E-02;4366; -2.0300899E-02;  0.0000000E+00; -2.7614537E-05;  9.9874530E+02;  1.0000000E-01; -1.0394768E+03;3;  6.9219744E-01;  0.0000000E+00;  4.3079708E-02;0; -5.0294016E-02;  3.9897637E+04;  0.0000000E+00;  2.2793496E-04;  4.0000000E+04;  0.0000000E+00;  4.0003504E+04; -5.1403526E-02;  0.0000000E+00;  1.1095096E-03;  5.5617853E+02;
  3.1175733E-01;  9.9999998E-03;  6.5437128E-10;4367; -2.0308601E-02;  0.0000000E+00; -2.1444803E-10;  9.9872791E+02;  1.0000000E-01; -1.0538961E+03;3;  6.9256842E-01;  0.0000000E+00;  8.7386779E-06;0; -5.0327424E-02;  3.9896277E+04;  0.0000000E+00;  5.9517875E-13;  4.0000000E+04;  0.0000000E+00;  4.0003879E+04; -5.1454429E-02;  0.0000000E+00;  1.1270049E-03;  5.6860468E+02;
  3.1175569E-01;  9.9999998E-03;  1.0004441E-02;4368; -2.0300901E-02;  0.0000000E+00;  2.7614011E-05;  9.9874524E+02;  1.0000000E-01; -1.0395261E+03;3;  6.9221681E-01;  0.0000000E+00; -4.3061886E-02;0; -5.0294042E-02;  3.9897637E+04;  0.0000000E+00;  2.2813167E-04;  4.0000000E+04;  0.0000000E+00;  4.0003504E+04; -5.1403549E-02;  0.0000000E+00;  1.1095081E-03;  5.5618317E+02;
  3.1175193E-01;  9.9999998E-03;  2.0005666E-02;4369; -2.0278340E-02;  0.0000000E+00;  5.3231022E-05;  9.9879480E+02;  1.0000000E-01; -9.9849030E+02;3;  6.9252896E-01;  0.0000000E+00; -8.1626065E-02;0; -5.0194584E-02;  3.9901785E+04;  0.0000000E+00;  5.1480101E-04;  4.0000000E+04;  0.0000000E+00;  4.0003418E+04; -5.1255200E-02;  0.0000000E+00;  1.0606155E-03;  5.1624994E+02;
  3.1174648E-01;  9.9999998E-03;  3.0003937E-02;4370; -2.0242345E-02;  0.0000000E+00;  7.3747979E-05;  9.9887250E+02;  1.0000000E-01; -9.3409705E+02;3;  6.9402915E-01;  0.0000000E+00; -1.1763435E-01;0; -5.0030734E-02;  3.9908969E+04;  0.0000000E+00; -2.3861135E-04;  4.0000000E+04;  0.0000000E+00;  4.0002754E+04; -5.1021241E-02;  0.0000000E+00;  9.9050649E-04;  4.4320203E+02;
  3.1173876E-01;  9.9999998E-03;  3.9999805E-02;4371; -2.0194687E-02;  0.0000000E+00;  8.7544518E-05;  9.9897870E+02;  1.0000000E-01; -8.4614893E+02;3;  6.9642580E-01;  0.0000000E+00; -1.5377098E-01;0; -4.9806036E-02;  3.9918457E+04;  0.0000000E+00; -3.5895812E-03;  4.0000000E+04;  0.0000000E+00;  4.0002168E+04; -5.0720189E-02;  0.0000000E+00;  9.1415294E-04;  3.3339725E+02;
  3.1172702E-01;  9.9999998E-03;  4.9994513E-02;4372; -2.0137073E-02;  0.0000000E+00;  9.4018062E-05;  9.9911218E+02;  1.0000000E-01; -7.3553473E+02;3;  7.0027894E-01;  0.0000000E+00; -1.8951301E-01;0; -4.9527191E-02;  3.9930199E+04;  0.0000000E+00; -1.1213678E-02;  4.0000000E+04;  0.0000000E+00;  4.0000945E+04; -5.0375894E-02;  0.0000000E+00;  8.4870262E-04;  1.8946132E+02;
  3.1170872E-01;  9.9999998E-03;  5.9989944E-02;4373; -2.0070849E-02;  0.0000000E+00;  9.4369403E-05;  9.9926599E+02;  1.0000000E-01; -6.0813092E+02;3;  7.0631754E-01;  0.0000000E+00; -2.1947142E-01;0; -4.9204431E-02;  3.9943914E+04;  0.0000000E+00; -2.4489036E-02;  4.0000000E+04;  0.0000000E+00;  3.9999594E+04; -5.0014924E-02;  0.0000000E+00;  8.1049243E-04;  3.9782482E+01;
  3.2182279E-01;  9.9999998E-03; -1.0003448E-02;4427; -2.0904001E-02;  0.0000000E+00; -2.4139745E-05;  9.9891437E+02;  1.0000000E-01; -8.9943134E+02;3;  7.6219630E-01;  0.0000000E+00;  4.6031713E-02;0; -4.9908385E-02;  3.9911855E+04;  0.0000000E+00;  5.9390854E-04;  4.0000000E+04;  0.0000000E+00;  4.0003402E+04; -5.0855260E-02;  0.0000000E+00;  9.4687729E-04;  5.2114722E+02;
  3.2182321E-01;  9.9999998E-03;  5.8074673E-10;4428; -2.0913532E-02;  0.0000000E+00; -1.1326799E-10;  9.9890186E+02;  1.0000000E-01; -9.0980145E+02;3;  7.6263762E-01;  0.0000000E+00;  5.7186717E-06;0; -4.9943361E-02;  3.9910754E+04;  0.0000000E+00;  1.3454102E-12;  4.0000000E+04;  0.0000000E+00;  4.0003539E+04; -5.0905116E-02;  0.0000000E+00;  9.6175272E-04;  5.2693378E+02;
  3.2182279E-01;  9.9999998E-03;  1.0003448E-02;4429; -2.0904003E-02;  0.0000000E+00;  2.4139697E-05;  9.9891437E+02;  1.0000000E-01; -8.9943134E+02;3;  7.6220095E-01;  0.0000000E+00; -4.6018645E-02;0; -4.9908366E-02;  3.9911855E+04;  0.0000000E+00;  5.9397076E-04;  4.0000000E+04;  0.0000000E+00;  4.0003402E+04; -5.0855242E-02;  0.0000000E+00;  9.4687683E-04;  5.2115186E+02;
  3.2182124E-01;  9.9999998E-03; -2.0004824E-02;4426; -2.0875918E-02;  0.0000000E+00; -4.7017449E-05;  9.9895636E+02;  1.0000000E-01; -8.6461749E+02;3;  7.6220578E-01;  0.0000000E+00;  8.7675586E-02;0; -4.9803905E-02;  3.9915316E+04;  0.0000000E+00;  1.9206110E-03;  4.0000000E+04;  0.0000000E+00;  4.0003285E+04; -5.0709289E-02;  0.0000000E+00;  9.0538507E-04;  5.0039557E+02;
  3.2182124E-01;  9.9999998E-03;  2.0004826E-02;4430; -2.0875920E-02;  0.0000000E+00;  4.7017496E-05;  9.9895636E+02;  1.0000000E-01; -8.6461749E+02;3;  7.6221097E-01;  0.0000000E+00; -8.7658435E-02;0; -4.9803898E-02;  3.9915316E+04;  0.0000000E+00;  1.9208452E-03;  4.0000000E+04;  0.0000000E+00;  4.0003285E+04; -5.0709281E-02;  0.0000000E+00;  9.0538413E-04;  5.0039584E+02;
  3.2181716E-01;  9.9999998E-03; -3.0004112E-02;4425; -2.0830905E-02;  0.0000000E+00; -6.6316854E-05;  9.9902362E+02;  1.0000000E-01; -8.0891541E+02;3;  7.6303178E-01;  0.0000000E+00;  1.2569098E-01;0; -4.9632236E-02;  3.9921066E+04;  0.0000000E+00;  2.7126910E-03;  4.0000000E+04;  0.0000000E+00;  4.0003047E+04; -5.0478410E-02;  0.0000000E+00;  8.4617455E-04;  4.5670697E+02;
  3.2181716E-01;  9.9999998E-03;  3.0004112E-02;4431; -2.0830909E-02;  0.0000000E+00;  6.6317225E-05;  9.9902362E+02;  1.0000000E-01; -8.0891541E+02;3;  7.6300812E-01;  0.0000000E+00; -1.2566702E-01;0; -4.9632221E-02;  3.9921062E+04;  0.0000000E+00;  2.7127240E-03;  4.0000000E+04;  0.0000000E+00;  4.0003047E+04; -5.0478395E-02;  0.0000000E+00;  8.4617204E-04;  4.5671622E+02;
  3.2180896E-01;  9.9999998E-03; -4.0001284E-02;4424; -2.0771254E-02;  0.0000000E+00; -8.0550402E-05;  9.9910999E+02;  1.0000000E-01; -7.3736188E+02;3;  7.6507479E-01;  0.0000000E+00;  1.6340630E-01;0; -4.9397554E-02;  3.9928797E+04;  0.0000000E+00;  1.1473688E-03;  4.0000000E+04;  0.0000000E+00;  4.0002438E+04; -5.0179947E-02;  0.0000000E+00;  7.8239315E-04;  3.8157300E+02;
  3.2180896E-01;  9.9999998E-03;  4.0001288E-02;4432; -2.0771261E-02;  0.0000000E+00;  8.0550977E-05;  9.9910992E+02;  1.0000000E-01; -7.3741125E+02;3;  7.6502275E-01;  0.0000000E+00; -1.6337809E-01;0; -4.9397554E-02;  3.9928801E+04;  0.0000000E+00;  1.1467026E-03;  4.0000000E+04;  0.0000000E+00;  4.0002438E+04; -5.0179947E-02;  0.0000000E+00;  7.8239199E-04;  3.8159094E+02;
  3.2179496E-01;  9.9999998E-03; -4.9996745E-02;4423; -2.0699503E-02;  0.0000000E+00; -8.9174937E-05;  9.9922473E+02;  1.0000000E-01; -6.4230280E+02;3;  7.6835972E-01;  0.0000000E+00;  1.9994202E-01;0; -4.9106866E-02;  3.9938848E+04;  0.0000000E+00; -4.7946409E-03;  4.0000000E+04;  0.0000000E+00;  4.0001688E+04; -4.9836084E-02;  0.0000000E+00;  7.2921917E-04;  2.7035245E+02;
  3.2179496E-01;  9.9999998E-03;  4.9996745E-02;4433; -2.0699508E-02;  0.0000000E+00;  8.9175715E-05;  9.9922467E+02;  1.0000000E-01; -6.4235217E+02;3;  7.6831478E-01;  0.0000000E+00; -1.9990908E-01;0; -4.9106903E-02;  3.9938848E+04;  0.0000000E+00; -4.7935382E-03;  4.0000000E+04;  0.0000000E+00;  4.0001691E+04; -4.9836121E-02;  0.0000000E+00;  7.2921818E-04;  2.7036337E+02;
  3.2177618E-01;  9.9999998E-03; -5.9991580E-02;4422; -2.0618150E-02;  0.0000000E+00; -9.2453636E-05;  9.9935779E+02;  1.0000000E-01; -5.3208374E+02;3;  7.7342755E-01;  0.0000000E+00;  2.3918919E-01;0; -4.8770506E-02;  3.9950363E+04;  0.0000000E+00; -1.6908813E-02;  4.0000000E+04;  0.0000000E+00;  4.0000457E+04; -4.9471751E-02;  0.0000000E+00;  7.0124469E-04;  1.2756195E+02;
  3.2177618E-01;  9.9999998E-03;  5.9991580E-02;4434; -2.0618161E-02;  0.0000000E+00;  9.2454415E-05;  9.9935779E+02;  1.0000000E-01; -5.3208374E+02;3;  7.7336001E-01;  0.0000000E+00; -2.3914762E-01;0; -4.8770506E-02;  3.9950363E+04;  0.0000000E+00; -1.6907966E-02;  4.0000000E+04;  0.0000000E+00;  4.0000457E+04; -4.9471751E-02;  0.0000000E+00;  7.0124562E-04;  1.2756923E+02;
  3.2175624E-01;  9.9999998E-03; -6.9986470E-02;4421; -2.0529270E-02;  0.0000000E+00; -9.1819464E-05;  9.9949878E+02;  1.0000000E-01; -4.1524753E+02;3;  7.8132701E-01;  0.0000000E+00;  2.7102062E-01;0; -4.8402380E-02;  3.9963023E+04;  0.0000000E+00; -3.6338024E-02;  4.0000000E+04;  0.0000000E+00;  3.9999270E+04; -4.9112480E-02;  0.0000000E+00;  7.1009941E-04;  6.6725922E+01;
  3.2173377E-01;  9.9999998E-03; -7.9982474E-02;4420; -2.0433879E-02;  0.0000000E+00; -8.8904184E-05;  9.9964838E+02;  1.0000000E-01; -2.9130042E+02;3;  7.9172832E-01;  0.0000000E+00;  2.9993671E-01;0; -4.8019938E-02;  3.9976539E+04;  0.0000000E+00; -6.3190147E-02;  4.0000000E+04;  0.0000000E+00;  3.9998141E+04; -4.8782732E-02;  0.0000000E+00;  7.6279457E-04;  2.3165028E+02;
  3.2170466E-01;  9.9999998E-03; -8.9982331E-02;4419; -2.0331927E-02;  0.0000000E+00; -8.5624277E-05;  9.9979883E+02;  1.0000000E-01; -1.6666196E+02;3;  8.0478185E-01;  0.0000000E+00;  3.2842326E-01;0; -4.7642689E-02;  3.9989797E+04;  0.0000000E+00; -9.6201077E-02;  4.0000000E+04;  0.0000000E+00;  3.9997125E+04; -4.8503503E-02;  0.0000000E+00;  8.6081517E-04;  3.8898337E+02;
  3.2166633E-01;  9.9999998E-03; -9.9987030E-02;4418; -2.0222593E-02;  0.0000000E+00; -8.4149426E-05;  9.9994135E+02;  1.0000000E-01; -4.8591217E+01;3;  8.2022369E-01;  0.0000000E+00;  3.5664934E-01;0; -4.7290564E-02;  4.0002086E+04;  0.0000000E+00; -1.3241117E-01;  4.0000000E+04;  0.0000000E+00;  3.9996211E+04; -4.8290387E-02;  0.0000000E+00;  9.9982263E-04;  5.0659393E+02;
  3.3176148E-01;  9.9999998E-03; -9.9978238E-02;4479; -2.0714017E-02;  0.0000000E+00; -9.1390655E-05;  9.9999072E+02;  1.0000000E-01; -7.7034860E+00;3;  8.9123487E-01;  0.0000000E+00;  4.0267348E-01;0; -4.6697166E-02;  4.0006094E+04;  0.0000000E+00; -1.1766330E-01;  4.0000000E+04;  0.0000000E+00;  3.9996410E+04; -4.7546361E-02;  0.0000000E+00;  8.4919570E-04;  4.8220438E+02;
  3.3179724E-01;  9.9999998E-03; -8.9977294E-02;4480; -2.0833058E-02;  0.0000000E+00; -9.0544781E-05;  9.9987769E+02;  1.0000000E-01; -1.0133047E+02;3;  8.7568772E-01;  0.0000000E+00;  3.6876482E-01;0; -4.7061719E-02;  3.9995719E+04;  0.0000000E+00; -7.7838801E-02;  4.0000000E+04;  0.0000000E+00;  3.9997312E+04; -4.7776788E-02;  0.0000000E+00;  7.1507046E-04;  3.2892429E+02;
  3.3182028E-01;  9.9999998E-03; -7.9979837E-02;4481; -2.0946978E-02;  0.0000000E+00; -9.0697489E-05;  9.9975903E+02;  1.0000000E-01; -1.9964868E+02;3;  8.6306167E-01;  0.0000000E+00;  3.3268312E-01;0; -4.7446258E-02;  3.9984922E+04;  0.0000000E+00; -4.4602741E-02;  4.0000000E+04;  0.0000000E+00;  3.9998742E+04; -4.8064653E-02;  0.0000000E+00;  6.1839318E-04;  1.5489948E+02;
  3.3183253E-01;  9.9999998E-03; -6.9984704E-02;4482; -2.1055620E-02;  0.0000000E+00; -9.0102862E-05;  9.9964252E+02;  1.0000000E-01; -2.9618915E+02;3;  8.5318303E-01;  0.0000000E+00;  2.9512522E-01;0; -4.7832478E-02;  3.9974336E+04;  0.0000000E+00; -1.9728761E-02;  4.0000000E+04;  0.0000000E+00;  4.0000047E+04; -4.8395030E-02;  0.0000000E+00;  5.6255265E-04;  3.9968716E+01;
  3.3183694E-01;  9.9999998E-03; -5.9990782E-02;4483; -2.1157943E-02;  0.0000000E+00; -8.7331166E-05;  9.9953436E+02;  1.0000000E-01; -3.8576688E+02;3;  8.4610742E-01;  0.0000000E+00;  2.5578246E-01;0; -4.8202090E-02;  3.9964055E+04;  0.0000000E+00; -3.4606897E-03;  4.0000000E+04;  0.0000000E+00;  4.0001059E+04; -4.8748106E-02;  0.0000000E+00;  5.4601487E-04;  1.7873540E+02;
  3.3183661E-01;  9.9999998E-03; -4.9996812E-02;4484; -2.1252083E-02;  0.0000000E+00; -8.1202619E-05;  9.9943201E+02;  1.0000000E-01; -4.7055460E+02;3;  8.4115064E-01;  0.0000000E+00;  2.1683638E-01;0; -4.8538972E-02;  3.9955254E+04;  0.0000000E+00;  5.1077828E-03;  4.0000000E+04;  0.0000000E+00;  4.0002086E+04; -4.9101487E-02;  0.0000000E+00;  5.6251645E-04;  2.9541992E+02;
  3.3183455E-01;  9.9999998E-03; -4.0001560E-02;4485; -2.1335419E-02;  0.0000000E+00; -7.1171889E-05;  9.9934912E+02;  1.0000000E-01; -5.3924402E+02;3;  8.3806753E-01;  0.0000000E+00;  1.7705785E-01;0; -4.8829477E-02;  3.9947793E+04;  0.0000000E+00;  7.6900083E-03;  4.0000000E+04;  0.0000000E+00;  4.0002703E+04; -4.9431324E-02;  0.0000000E+00;  6.0184643E-04;  3.7388718E+02;
  3.3183253E-01;  9.9999998E-03; -3.0004345E-02;4486; -2.1404885E-02;  0.0000000E+00; -5.7241286E-05;  9.9928101E+02;  1.0000000E-01; -5.9568683E+02;3;  8.3648837E-01;  0.0000000E+00;  1.3540149E-01;0; -4.9064025E-02;  3.9941820E+04;  0.0000000E+00;  6.4418260E-03;  4.0000000E+04;  0.0000000E+00;  4.0002840E+04; -4.9715430E-02;  0.0000000E+00;  6.5140316E-04;  4.1757614E+02;
  3.3183119E-01;  9.9999998E-03; -2.0004863E-02;4487; -2.1457344E-02;  0.0000000E+00; -3.9923423E-05;  9.9922943E+02;  1.0000000E-01; -6.3840167E+02;3;  8.3613020E-01;  0.0000000E+00;  9.1518126E-02;0; -4.9235497E-02;  3.9937758E+04;  0.0000000E+00;  3.5795348E-03;  4.0000000E+04;  0.0000000E+00;  4.0002945E+04; -4.9933773E-02;  0.0000000E+00;  6.9827639E-04;  4.3601514E+02;
  3.3183047E-01;  9.9999998E-03; -1.0003194E-02;4488; -2.1490060E-02;  0.0000000E+00; -2.0283827E-05;  9.9919843E+02;  1.0000000E-01; -6.6407996E+02;3;  8.3643943E-01;  0.0000000E+00;  4.7937337E-02;0; -4.9339850E-02;  3.9935176E+04;  0.0000000E+00;  1.0067862E-03;  4.0000000E+04;  0.0000000E+00;  4.0002891E+04; -5.0071239E-02;  0.0000000E+00;  7.3138840E-04;  4.4075897E+02;
  3.3183026E-01;  9.9999998E-03;  5.6812949E-10;4489; -2.1501172E-02;  0.0000000E+00;  2.0157372E-10;  9.9918970E+02;  1.0000000E-01; -6.7133905E+02;3;  8.3667147E-01;  0.0000000E+00;  2.5974641E-06;0; -4.9374837E-02;  3.9934375E+04;  0.0000000E+00;  1.2844877E-12;  4.0000000E+04;  0.0000000E+00;  4.0002883E+04; -5.0118133E-02;  0.0000000E+00;  7.4329705E-04;  4.4116534E+02;
  3.3183047E-01;  9.9999998E-03;  1.0003196E-02;4490; -2.1490062E-02;  0.0000000E+00;  2.0284306E-05;  9.9919843E+02;  1.0000000E-01; -6.6407996E+02;3;  8.3644605E-01;  0.0000000E+00; -4.7931429E-02;0; -4.9339835E-02;  3.9935176E+04;  0.0000000E+00;  1.0068147E-03;  4.0000000E+04;  0.0000000E+00;  4.0002891E+04; -5.0071221E-02;  0.0000000E+00;  7.3138764E-04;  4.4076202E+02;
  3.3183119E-01;  9.9999998E-03;  2.0004865E-02;4491; -2.1457348E-02;  0.0000000E+00;  3.9924147E-05;  9.9922937E+02;  1.0000000E-01; -6.3845105E+02;3;  8.3610970E-01;  0.0000000E+00; -9.1508962E-02;0; -4.9235478E-02;  3.9937754E+04;  0.0000000E+00;  3.5793814E-03;  4.0000000E+04;  0.0000000E+00;  4.0002941E+04; -4.9933754E-02;  0.0000000E+00;  6.9827499E-04;  4.3601587E+02;
  3.3183253E-01;  9.9999998E-03;  3.0004347E-02;4492; -2.1404892E-02;  0.0000000E+00;  5.7242367E-05;  9.9928101E+02;  1.0000000E-01; -5.9568683E+02;3;  8.3643538E-01;  0.0000000E+00; -1.3539128E-01;0; -4.9064044E-02;  3.9941824E+04;  0.0000000E+00;  6.4415471E-03;  4.0000000E+04;  0.0000000E+00;  4.0002840E+04; -4.9715444E-02;  0.0000000E+00;  6.5140170E-04;  4.1758209E+02;
  3.3183455E-01;  9.9999998E-03;  4.0001564E-02;4493; -2.1335425E-02;  0.0000000E+00;  7.1173243E-05;  9.9934912E+02;  1.0000000E-01; -5.3924402E+02;3;  8.3803988E-01;  0.0000000E+00; -1.7703651E-01;0; -4.8829541E-02;  3.9947789E+04;  0.0000000E+00;  7.6895952E-03;  4.0000000E+04;  0.0000000E+00;  4.0002711E+04; -4.9431384E-02;  0.0000000E+00;  6.0184480E-04;  3.7389087E+02;
  3.3183661E-01;  9.9999998E-03;  4.9996812E-02;4494; -2.1252090E-02;  0.0000000E+00;  8.1203543E-05;  9.9943201E+02;  1.0000000E-01; -4.7055460E+02;3;  8.4107131E-01;  0.0000000E+00; -2.1682961E-01;0; -4.8538927E-02;  3.9955254E+04;  0.0000000E+00;  5.1074335E-03;  4.0000000E+04;  0.0000000E+00;  4.0002086E+04; -4.9101442E-02;  0.0000000E+00;  5.6251482E-04;  2.9542984E+02;
  3.3183694E-01;  9.9999998E-03;  5.9990786E-02;4495; -2.1157954E-02;  0.0000000E+00;  8.7332883E-05;  9.9953442E+02;  1.0000000E-01; -3.8571750E+02;3;  8.4605008E-01;  0.0000000E+00; -2.5575671E-01;0; -4.8202101E-02;  3.9964055E+04;  0.0000000E+00; -3.4614783E-03;  4.0000000E+04;  0.0000000E+00;  4.0001059E+04; -4.8748117E-02;  0.0000000E+00;  5.4601516E-04;  1.7873660E+02;
  3.4180623E-01;  9.9999998E-03; -9.9973999E-02;4540; -2.1190410E-02;  0.0000000E+00; -9.2316404E-05;  1.0000765E+03;  1.0000000E-01;  6.3405613E+01;3;  9.6655679E-01;  0.0000000E+00;  4.4848359E-01;0; -4.6039861E-02;  4.0012695E+04;  0.0000000E+00; -8.7932415E-02;  4.0000000E+04;  0.0000000E+00;  3.9996570E+04; -4.6684686E-02;  0.0000000E+00;  6.4482482E-04;  4.5528314E+02;
  3.4181151E-01;  9.9999998E-03; -8.9976929E-02;4541; -2.1318154E-02;  0.0000000E+00; -8.9367204E-05;  9.9999866E+02;  1.0000000E-01; -1.1357703E+00;3;  9.5137596E-01;  0.0000000E+00;  4.0762165E-01;0; -4.6404418E-02;  4.0004883E+04;  0.0000000E+00; -4.9207553E-02;  4.0000000E+04;  0.0000000E+00;  3.9997777E+04; -4.6921849E-02;  0.0000000E+00;  5.1743235E-04;  2.8437839E+02;
  3.4181398E-01;  9.9999998E-03; -7.9981804E-02;4542; -2.1442767E-02;  0.0000000E+00; -8.6483888E-05;  9.9991626E+02;  1.0000000E-01; -6.9380753E+01;3;  9.3877500E-01;  0.0000000E+00;  3.6714980E-01;0; -4.6782523E-02;  3.9997020E+04;  0.0000000E+00; -1.9526534E-02;  4.0000000E+04;  0.0000000E+00;  3.9999117E+04; -4.7205109E-02;  0.0000000E+00;  4.2258730E-04;  1.0785272E+02;
  3.4181508E-01;  9.9999998E-03; -6.9987759E-02;4543; -2.1563241E-02;  0.0000000E+00; -8.2705294E-05;  9.9983850E+02;  1.0000000E-01; -1.3382338E+02;3;  9.2963994E-01;  0.0000000E+00;  3.2366386E-01;0; -4.7157668E-02;  3.9989305E+04;  0.0000000E+00;  4.7846744E-04;  4.0000000E+04;  0.0000000E+00;  4.0000465E+04; -4.7520675E-02;  0.0000000E+00;  3.6300608E-04;  5.3470444E+01;
  3.4181598E-01;  9.9999998E-03; -5.9993714E-02;4544; -2.1677682E-02;  0.0000000E+00; -7.7149445E-05;  9.9976263E+02;  1.0000000E-01; -1.9663641E+02;3;  9.2302048E-01;  0.0000000E+00;  2.7962881E-01;0; -4.7513627E-02;  3.9982199E+04;  0.0000000E+00;  1.1520520E-02;  4.0000000E+04;  0.0000000E+00;  4.0001398E+04; -4.7851004E-02;  0.0000000E+00;  3.3737885E-04;  1.8094957E+02;
  3.4181660E-01;  9.9999998E-03; -4.9998987E-02;4545; -2.1783330E-02;  0.0000000E+00; -6.9258465E-05;  9.9969653E+02;  1.0000000E-01; -2.5140030E+02;3;  9.1865981E-01;  0.0000000E+00;  2.3390977E-01;0; -4.7836185E-02;  3.9976254E+04;  0.0000000E+00;  1.5240358E-02;  4.0000000E+04;  0.0000000E+00;  4.0001898E+04; -4.8176710E-02;  0.0000000E+00;  3.4052407E-04;  2.6821472E+02;
  3.4181756E-01;  9.9999998E-03; -4.0002815E-02;4546; -2.1876857E-02;  0.0000000E+00; -5.8815167E-05;  9.9964203E+02;  1.0000000E-01; -2.9658420E+02;3;  9.1599768E-01;  0.0000000E+00;  1.8910998E-01;0; -4.8113465E-02;  3.9971598E+04;  0.0000000E+00;  1.3824409E-02;  4.0000000E+04;  0.0000000E+00;  4.0002469E+04; -4.8477482E-02;  0.0000000E+00;  3.6401488E-04;  3.1599454E+02;
  3.4181875E-01;  9.9999998E-03; -3.0004835E-02;4547; -2.1954633E-02;  0.0000000E+00; -4.6039750E-05;  9.9960083E+02;  1.0000000E-01; -3.3070670E+02;3;  9.1497827E-01;  0.0000000E+00;  1.4351775E-01;0; -4.8336677E-02;  3.9968055E+04;  0.0000000E+00;  9.6401060E-03;  4.0000000E+04;  0.0000000E+00;  4.0002352E+04; -4.8734240E-02;  0.0000000E+00;  3.9756222E-04;  3.3252692E+02;
  3.4181944E-01;  9.9999998E-03; -2.0004906E-02;4548; -2.2013171E-02;  0.0000000E+00; -3.1468018E-05;  9.9957031E+02;  1.0000000E-01; -3.5598993E+02;3;  9.1440076E-01;  0.0000000E+00;  9.7119674E-02;0; -4.8499912E-02;  3.9965629E+04;  0.0000000E+00;  4.8899148E-03;  4.0000000E+04;  0.0000000E+00;  4.0002324E+04; -4.8930645E-02;  0.0000000E+00;  4.3073334E-04;  3.3037595E+02;
  3.4182021E-01;  9.9999998E-03; -1.0002952E-02;4549; -2.2049559E-02;  0.0000000E+00; -1.5864836E-05;  9.9955267E+02;  1.0000000E-01; -3.7060681E+02;3;  9.1505027E-01;  0.0000000E+00;  4.8784710E-02;0; -4.8599180E-02;  3.9964242E+04;  0.0000000E+00;  1.3139446E-03;  4.0000000E+04;  0.0000000E+00;  4.0002215E+04; -4.9053788E-02;  0.0000000E+00;  4.5460876E-04;  3.2249832E+02;
  3.4182033E-01;  9.9999998E-03;  6.1774713E-10;4550; -2.2061901E-02;  0.0000000E+00;  5.4826488E-10;  9.9954620E+02;  1.0000000E-01; -3.7593997E+02;3;  9.1512442E-01;  0.0000000E+00; -1.8349456E-06;0; -4.8632532E-02;  3.9963730E+04;  0.0000000E+00;  1.7038870E-12;  4.0000000E+04;  0.0000000E+00;  4.0002207E+04; -4.9095798E-02;  0.0000000E+00;  4.6326636E-04;  3.1866315E+02;
  3.4182021E-01;  9.9999998E-03;  1.0002953E-02;4551; -2.2049563E-02;  0.0000000E+00;  1.5866022E-05;  9.9955273E+02;  1.0000000E-01; -3.7055743E+02;3;  9.1503352E-01;  0.0000000E+00; -4.8788089E-02;0; -4.8599191E-02;  3.9964238E+04;  0.0000000E+00;  1.3137602E-03;  4.0000000E+04;  0.0000000E+00;  4.0002215E+04; -4.9053799E-02;  0.0000000E+00;  4.5460757E-04;  3.2250623E+02;
  3.4181944E-01;  9.9999998E-03;  2.0004908E-02;4552; -2.2013174E-02;  0.0000000E+00;  3.1469379E-05;  9.9957031E+02;  1.0000000E-01; -3.5598993E+02;3;  9.1436869E-01;  0.0000000E+00; -9.7121097E-02;0; -4.8499983E-02;  3.9965629E+04;  0.0000000E+00;  4.8894342E-03;  4.0000000E+04;  0.0000000E+00;  4.0002324E+04; -4.8930712E-02;  0.0000000E+00;  4.3073107E-04;  3.3037546E+02;
  3.4181875E-01;  9.9999998E-03;  3.0004837E-02;4553; -2.1954635E-02;  0.0000000E+00;  4.6041390E-05;  9.9960089E+02;  1.0000000E-01; -3.3065732E+02;3;  9.1492248E-01;  0.0000000E+00; -1.4351639E-01;0; -4.8336692E-02;  3.9968062E+04;  0.0000000E+00;  9.6397409E-03;  4.0000000E+04;  0.0000000E+00;  4.0002352E+04; -4.8734251E-02;  0.0000000E+00;  3.9756042E-04;  3.3253226E+02;
  3.4181756E-01;  9.9999998E-03;  4.0002815E-02;4554; -2.1876864E-02;  0.0000000E+00;  5.8817423E-05;  9.9964197E+02;  1.0000000E-01; -2.9663358E+02;3;  9.1596681E-01;  0.0000000E+00; -1.8910131E-01;0; -4.8113503E-02;  3.9971598E+04;  0.0000000E+00;  1.3824535E-02;  4.0000000E+04;  0.0000000E+00;  4.0002469E+04; -4.8477516E-02;  0.0000000E+00;  3.6401159E-04;  3.1599429E+02;
  3.4181660E-01;  9.9999998E-03;  4.9998987E-02;4555; -2.1783333E-02;  0.0000000E+00;  6.9261507E-05;  9.9969659E+02;  1.0000000E-01; -2.5135092E+02;3;  9.1860092E-01;  0.0000000E+00; -2.3390646E-01;0; -4.7836132E-02;  3.9976254E+04;  0.0000000E+00;  1.5239619E-02;  4.0000000E+04;  0.0000000E+00;  4.0001895E+04; -4.8176654E-02;  0.0000000E+00;  3.4052110E-04;  2.6822617E+02;
  3.4181598E-01;  9.9999998E-03;  5.9993714E-02;4556; -2.1677688E-02;  0.0000000E+00;  7.7151453E-05;  9.9976263E+02;  1.0000000E-01; -1.9663641E+02;3;  9.2293864E-01;  0.0000000E+00; -2.7961940E-01;0; -4.7513627E-02;  3.9982195E+04;  0.0000000E+00;  1.1519642E-02;  4.0000000E+04;  0.0000000E+00;  4.0001398E+04; -4.7851004E-02;  0.0000000E+00;  3.3737658E-04;  1.8094778E+02;
  3.5176483E-01;  9.9999998E-03; -9.9977106E-02;4601; -2.1647537E-02;  0.0000000E+00; -8.2802602E-05;  1.0001721E+03;  1.0000000E-01;  1.4261325E+02;3;  1.0457186E+00;  0.0000000E+00;  4.9670064E-01;0; -4.5347232E-02;  4.0019895E+04;  0.0000000E+00; -4.9797796E-02;  4.0000000E+04;  0.0000000E+00;  3.9996648E+04; -4.5731720E-02;  0.0000000E+00;  3.8448631E-04;  4.3376785E+02;
  3.5176975E-01;  9.9999998E-03; -8.9980423E-02;4602; -2.1784728E-02;  0.0000000E+00; -7.8359000E-05;  1.0001292E+03;  1.0000000E-01;  1.0695994E+02;3;  1.0311826E+00;  0.0000000E+00;  4.5068356E-01;0; -4.5696612E-02;  4.0014961E+04;  0.0000000E+00; -1.6211072E-02;  4.0000000E+04;  0.0000000E+00;  3.9998043E+04; -4.5959283E-02;  0.0000000E+00;  2.6266847E-04;  2.6433221E+02;
  3.5177428E-01;  9.9999998E-03; -7.9984896E-02;4603; -2.1919541E-02;  0.0000000E+00; -7.3500203E-05;  1.0000807E+03;  1.0000000E-01;  6.6862305E+01;3;  1.0195820E+00;  0.0000000E+00;  4.0268916E-01;0; -4.6053261E-02;  4.0010090E+04;  0.0000000E+00;  6.9735246E-03;  4.0000000E+04;  0.0000000E+00;  3.9999348E+04; -4.6221334E-02;  0.0000000E+00;  1.6807279E-04;  1.0334464E+02;
  3.5177913E-01;  9.9999998E-03; -6.9989860E-02;4604; -2.2050316E-02;  0.0000000E+00; -6.7641158E-05;  1.0000397E+03;  1.0000000E-01;  3.2887959E+01;3;  1.0107447E+00;  0.0000000E+00;  3.5421827E-01;0; -4.6402905E-02;  4.0005293E+04;  0.0000000E+00;  2.0155484E-02;  4.0000000E+04;  0.0000000E+00;  4.0000418E+04; -4.6505850E-02;  0.0000000E+00;  1.0294319E-04;  4.4366497E+01;
  3.5178453E-01;  9.9999998E-03; -5.9994686E-02;4605; -2.2174522E-02;  0.0000000E+00; -6.0527116E-05;  1.0000020E+03;  1.0000000E-01;  1.6789649E+00;3;  1.0048943E+00;  0.0000000E+00;  3.0312002E-01;0; -4.6731722E-02;  4.0001410E+04;  0.0000000E+00;  2.4895174E-02;  4.0000000E+04;  0.0000000E+00;  4.0001027E+04; -4.6798091E-02;  0.0000000E+00;  6.6367953E-05;  1.3789238E+02;
  3.5179028E-01;  9.9999998E-03; -4.9998764E-02;4606; -2.2288918E-02;  0.0000000E+00; -5.2116422E-05;  9.9996832E+02;  1.0000000E-01; -2.6221481E+01;3;  1.0009044E+00;  0.0000000E+00;  2.5254142E-01;0; -4.7027696E-02;  3.9998348E+04;  0.0000000E+00;  2.3424877E-02;  4.0000000E+04;  0.0000000E+00;  4.0001621E+04; -4.7082067E-02;  0.0000000E+00;  5.4371128E-05;  1.9448257E+02;
  3.5179538E-01;  9.9999998E-03; -4.0001869E-02;4607; -2.2389757E-02;  0.0000000E+00; -4.2509630E-05;  9.9994495E+02;  1.0000000E-01; -4.5628338E+01;3;  9.9853820E-01;  0.0000000E+00;  2.0215042E-01;0; -4.7280949E-02;  3.9996297E+04;  0.0000000E+00;  1.8220946E-02;  4.0000000E+04;  0.0000000E+00;  4.0001707E+04; -4.7341436E-02;  0.0000000E+00;  6.0487957E-05;  2.1464359E+02;
  3.5179868E-01;  9.9999998E-03; -3.0003807E-02;4608; -2.2473151E-02;  0.0000000E+00; -3.2123884E-05;  9.9992792E+02;  1.0000000E-01; -5.9702015E+01;3;  9.9742830E-01;  0.0000000E+00;  1.5234871E-01;0; -4.7484506E-02;  3.9994980E+04;  0.0000000E+00;  1.1632114E-02;  4.0000000E+04;  0.0000000E+00;  4.0001793E+04; -4.7561359E-02;  0.0000000E+00;  7.6852841E-05;  2.0877667E+02;
  3.5180023E-01;  9.9999998E-03; -2.0004135E-02;4609; -2.2535585E-02;  0.0000000E+00; -2.1404390E-05;  9.9991461E+02;  1.0000000E-01; -7.0763428E+01;3;  9.9722356E-01;  0.0000000E+00;  1.0184357E-01;0; -4.7632985E-02;  3.9994129E+04;  0.0000000E+00;  5.5925725E-03;  4.0000000E+04;  0.0000000E+00;  4.0001543E+04; -4.7728498E-02;  0.0000000E+00;  9.5513373E-05;  1.9055704E+02;
  3.5180029E-01;  9.9999998E-03; -1.0002732E-02;4610; -2.2574229E-02;  0.0000000E+00; -1.0720702E-05;  9.9991132E+02;  1.0000000E-01; -7.3479401E+01;3;  9.9750817E-01;  0.0000000E+00;  4.9309958E-02;0; -4.7723394E-02;  3.9993883E+04;  0.0000000E+00;  1.4591925E-03;  4.0000000E+04;  0.0000000E+00;  4.0001277E+04; -4.7833133E-02;  0.0000000E+00;  1.0973807E-04;  1.7318242E+02;
  3.5179988E-01;  9.9999998E-03;  6.9907719E-10;4611; -2.2587294E-02;  0.0000000E+00;  9.7664843E-10;  9.9991071E+02;  1.0000000E-01; -7.3973213E+01;3;  9.9790943E-01;  0.0000000E+00; -5.1847574E-06;0; -4.7753751E-02;  3.9993926E+04;  0.0000000E+00;  3.0571325E-13;  4.0000000E+04;  0.0000000E+00;  4.0001242E+04; -4.7868770E-02;  0.0000000E+00;  1.1501832E-04;  1.6623753E+02;
  3.5180029E-01;  9.9999998E-03;  1.0002734E-02;4612; -2.2574233E-02;  0.0000000E+00;  1.0722901E-05;  9.9991132E+02;  1.0000000E-01; -7.3479401E+01;3;  9.9750859E-01;  0.0000000E+00; -4.9319178E-02;0; -4.7723364E-02;  3.9993883E+04;  0.0000000E+00;  1.4590414E-03;  4.0000000E+04;  0.0000000E+00;  4.0001277E+04; -4.7833100E-02;  0.0000000E+00;  1.0973685E-04;  1.7319046E+02;
  3.5180023E-01;  9.9999998E-03;  2.0004136E-02;4613; -2.2535590E-02;  0.0000000E+00;  2.1406802E-05;  9.9991461E+02;  1.0000000E-01; -7.0763428E+01;3;  9.9718630E-01;  0.0000000E+00; -1.0184938E-01;0; -4.7632992E-02;  3.9994129E+04;  0.0000000E+00;  5.5920924E-03;  4.0000000E+04;  0.0000000E+00;  4.0001543E+04; -4.7728505E-02;  0.0000000E+00;  9.5511059E-05;  1.9055989E+02;
  3.5179868E-01;  9.9999998E-03;  3.0003808E-02;4614; -2.2473155E-02;  0.0000000E+00;  3.2126129E-05;  9.9992792E+02;  1.0000000E-01; -5.9702015E+01;3;  9.9738353E-01;  0.0000000E+00; -1.5236318E-01;0; -4.7484480E-02;  3.9994980E+04;  0.0000000E+00;  1.1631336E-02;  4.0000000E+04;  0.0000000E+00;  4.0001793E+04; -4.7561329E-02;  0.0000000E+00;  7.6849727E-05;  2.0877600E+02;
  3.5179538E-01;  9.9999998E-03;  4.0001873E-02;4615; -2.2389762E-02;  0.0000000E+00;  4.2512547E-05;  9.9994501E+02;  1.0000000E-01; -4.5578957E+01;3;  9.9849999E-01;  0.0000000E+00; -2.0213722E-01;0; -4.7280993E-02;  3.9996293E+04;  0.0000000E+00;  1.8219696E-02;  4.0000000E+04;  0.0000000E+00;  4.0001707E+04; -4.7341477E-02;  0.0000000E+00;  6.0484679E-05;  2.1464726E+02;
  3.5179028E-01;  9.9999998E-03;  4.9998764E-02;4616; -2.2288924E-02;  0.0000000E+00;  5.2120100E-05;  9.9996832E+02;  1.0000000E-01; -2.6221481E+01;3;  1.0008794E+00;  0.0000000E+00; -2.5253725E-01;0; -4.7027782E-02;  3.9998344E+04;  0.0000000E+00;  2.3424797E-02;  4.0000000E+04;  0.0000000E+00;  4.0001621E+04; -4.7082148E-02;  0.0000000E+00;  5.4367669E-05;  1.9447865E+02;
  3.5178453E-01;  9.9999998E-03;  5.9994686E-02;4617; -2.2174532E-02;  0.0000000E+00;  6.0530798E-05;  1.0000020E+03;  1.0000000E-01;  1.6789649E+00;3;  1.0048083E+00;  0.0000000E+00; -3.0311087E-01;0; -4.6731815E-02;  4.0001410E+04;  0.0000000E+00;  2.4893660E-02;  4.0000000E+04;  0.0000000E+00;  4.0001031E+04; -4.6798177E-02;  0.0000000E+00;  6.6363988E-05;  1.3789015E+02;
  3.6172315E-01;  9.9999998E-03; -9.9982053E-02;4662; -2.2088628E-02;  0.0000000E+00; -5.9096259E-05;  1.0002490E+03;  1.0000000E-01;  2.0621638E+02;3;  1.1304225E+00;  0.0000000E+00;  5.4584962E-01;0; -4.4646885E-02;  4.0025684E+04;  0.0000000E+00; -8.8828132E-03;  4.0000000E+04;  0.0000000E+00;  3.9996699E+04; -4.4710390E-02;  0.0000000E+00;  6.3506122E-05;  4.2544656E+02;
  3.6172926E-01;  9.9999998E-03; -8.9985311E-02;4663; -2.2233812E-02;  0.0000000E+00; -5.4460510E-05;  1.0002332E+03;  1.0000000E-01;  1.9317972E+02;3;  1.1164376E+00;  0.0000000E+00;  4.9380198E-01;0; -4.4969708E-02;  4.0022941E+04;  0.0000000E+00;  1.6515015E-02;  4.0000000E+04;  0.0000000E+00;  3.9998004E+04; -4.4914786E-02;  0.0000000E+00; -5.4923370E-05;  2.7517972E+02;
  3.6173654E-01;  9.9999998E-03; -7.9988934E-02;4664; -2.2376599E-02;  0.0000000E+00; -4.9009508E-05;  1.0002198E+03;  1.0000000E-01;  1.8211830E+02;3;  1.1054869E+00;  0.0000000E+00;  4.3967804E-01;0; -4.5293819E-02;  4.0020840E+04;  0.0000000E+00;  3.1319790E-02;  4.0000000E+04;  0.0000000E+00;  3.9999129E+04; -4.5142259E-02;  0.0000000E+00; -1.5155906E-04;  1.4332825E+02;
  3.6174503E-01;  9.9999998E-03; -6.9992431E-02;4665; -2.2514831E-02;  0.0000000E+00; -4.2712567E-05;  1.0002078E+03;  1.0000000E-01;  1.7214328E+02;3;  1.0973471E+00;  0.0000000E+00;  3.8444731E-01;0; -4.5607302E-02;  4.0019012E+04;  0.0000000E+00;  3.6809985E-02;  4.0000000E+04;  0.0000000E+00;  4.0000098E+04; -4.5382880E-02;  0.0000000E+00; -2.2442093E-04;  5.9327877E+01;
  3.6175394E-01;  9.9999998E-03; -5.9995402E-02;4666; -2.2645550E-02;  0.0000000E+00; -3.5868088E-05;  1.0002024E+03;  1.0000000E-01;  1.6769896E+02;3;  1.0918398E+00;  0.0000000E+00;  3.2716537E-01;0; -4.5899097E-02;  4.0017895E+04;  0.0000000E+00;  3.5184965E-02;  4.0000000E+04;  0.0000000E+00;  4.0000414E+04; -4.5625243E-02;  0.0000000E+00; -2.7385497E-04;  6.6809097E+01;
  3.6176127E-01;  9.9999998E-03; -4.9998052E-02;4667; -2.2765204E-02;  0.0000000E+00; -2.8665605E-05;  1.0002021E+03;  1.0000000E-01;  1.6740268E+02;3;  1.0879229E+00;  0.0000000E+00;  2.7173829E-01;0; -4.6159789E-02;  4.0017477E+04;  0.0000000E+00;  2.9014409E-02;  4.0000000E+04;  0.0000000E+00;  4.0000625E+04; -4.5857340E-02;  0.0000000E+00; -3.0244829E-04;  8.6308769E+01;
  3.6176574E-01;  9.9999998E-03; -4.0000431E-02;4668; -2.2869911E-02;  0.0000000E+00; -2.1707812E-05;  1.0002008E+03;  1.0000000E-01;  1.6631628E+02;3;  1.0857904E+00;  0.0000000E+00;  2.1497546E-01;0; -4.6381723E-02;  4.0017766E+04;  0.0000000E+00;  2.0785980E-02;  4.0000000E+04;  0.0000000E+00;  4.0000742E+04; -4.6067052E-02;  0.0000000E+00; -3.1467169E-04;  8.0570198E+01;
  3.6176741E-01;  9.9999998E-03; -3.0002208E-02;4669; -2.2955965E-02;  0.0000000E+00; -1.5356864E-05;  1.0002047E+03;  1.0000000E-01;  1.6957545E+02;3;  1.0848372E+00;  0.0000000E+00;  1.5851632E-01;0; -4.6559397E-02;  4.0018250E+04;  0.0000000E+00;  1.2566772E-02;  4.0000000E+04;  0.0000000E+00;  4.0000621E+04; -4.6243347E-02;  0.0000000E+00; -3.1605118E-04;  5.5994011E+01;
  3.6176741E-01;  9.9999998E-03; -2.0002855E-02;4670; -2.3020089E-02;  0.0000000E+00; -9.6957310E-06;  1.0002084E+03;  1.0000000E-01;  1.7263710E+02;3;  1.0841141E+00;  0.0000000E+00;  1.0413420E-01;0; -4.6688810E-02;  4.0018977E+04;  0.0000000E+00;  5.8343848E-03;  4.0000000E+04;  0.0000000E+00;  4.0000254E+04; -4.6376634E-02;  0.0000000E+00; -3.1217534E-04;  2.5096699E+01;
  3.6176616E-01;  9.9999998E-03; -1.0002050E-02;4671; -2.3059634E-02;  0.0000000E+00; -4.7237113E-06;  1.0002149E+03;  1.0000000E-01;  1.7806903E+02;3;  1.0841386E+00;  0.0000000E+00;  5.0216060E-02;0; -4.6767488E-02;  4.0019359E+04;  0.0000000E+00;  1.4927310E-03;  4.0000000E+04;  0.0000000E+00;  4.0000008E+04; -4.6459764E-02;  0.0000000E+00; -3.0772411E-04;  2.1525362E+00;
  3.6176574E-01;  9.9999998E-03;  8.0269719E-10;4672; -2.3073018E-02;  0.0000000E+00;  1.5817424E-09;  1.0002159E+03;  1.0000000E-01;  1.7885915E+02;3;  1.0839721E+00;  0.0000000E+00; -1.0169867E-05;0; -4.6793796E-02;  4.0019590E+04;  0.0000000E+00;  5.9564150E-14;  4.0000000E+04;  0.0000000E+00;  3.9999941E+04; -4.6487916E-02;  0.0000000E+00; -3.0588050E-04;  9.3205843E+00;
  3.6176616E-01;  9.9999998E-03;  1.0002051E-02;4673; -2.3059634E-02;  0.0000000E+00;  4.7268522E-06;  1.0002149E+03;  1.0000000E-01;  1.7806903E+02;3;  1.0841365E+00;  0.0000000E+00; -5.0237242E-02;0; -4.6767499E-02;  4.0019359E+04;  0.0000000E+00;  1.4924951E-03;  4.0000000E+04;  0.0000000E+00;  4.0000012E+04; -4.6459775E-02;  0.0000000E+00; -3.0772566E-04;  2.1512816E+00;
  3.6176741E-01;  9.9999998E-03;  2.0002857E-02;4674; -2.3020092E-02;  0.0000000E+00;  9.6988715E-06;  1.0002084E+03;  1.0000000E-01;  1.7263710E+02;3;  1.0841227E+00;  0.0000000E+00; -1.0415141E-01;0; -4.6688832E-02;  4.0018973E+04;  0.0000000E+00;  5.8338833E-03;  4.0000000E+04;  0.0000000E+00;  4.0000254E+04; -4.6376653E-02;  0.0000000E+00; -3.1217808E-04;  2.5102037E+01;
  3.6176741E-01;  9.9999998E-03;  3.0002210E-02;4675; -2.2955965E-02;  0.0000000E+00;  1.5360192E-05;  1.0002046E+03;  1.0000000E-01;  1.6947668E+02;3;  1.0848180E+00;  0.0000000E+00; -1.5853325E-01;0; -4.6559386E-02;  4.0018246E+04;  0.0000000E+00;  1.2565977E-02;  4.0000000E+04;  0.0000000E+00;  4.0000621E+04; -4.6243329E-02;  0.0000000E+00; -3.1605561E-04;  5.6007515E+01;
  3.6176574E-01;  9.9999998E-03;  4.0000431E-02;4676; -2.2869915E-02;  0.0000000E+00;  2.1711814E-05;  1.0002008E+03;  1.0000000E-01;  1.6631628E+02;3;  1.0857422E+00;  0.0000000E+00; -2.1498783E-01;0; -4.6381764E-02;  4.0017766E+04;  0.0000000E+00;  2.0785924E-02;  4.0000000E+04;  0.0000000E+00;  4.0000742E+04; -4.6067089E-02;  0.0000000E+00; -3.1467600E-04;  8.0567963E+01;
  3.6176127E-01;  9.9999998E-03;  4.9998052E-02;4677; -2.2765208E-02;  0.0000000E+00;  2.8669647E-05;  1.0002021E+03;  1.0000000E-01;  1.6740268E+02;3;  1.0879042E+00;  0.0000000E+00; -2.7173692E-01;0; -4.6159830E-02;  4.0017480E+04;  0.0000000E+00;  2.9013442E-02;  4.0000000E+04;  0.0000000E+00;  4.0000625E+04; -4.5857377E-02;  0.0000000E+00; -3.0245306E-04;  8.6316116E+01;
  3.6175394E-01;  9.9999998E-03;  5.9995402E-02;4678; -2.2645559E-02;  0.0000000E+00;  3.5872807E-05;  1.0002024E+03;  1.0000000E-01;  1.6769896E+02;3;  1.0917542E+00;  0.0000000E+00; -3.2717222E-01;0; -4.5899197E-02;  4.0017891E+04;  0.0000000E+00;  3.5184342E-02;  4.0000000E+04;  0.0000000E+00;  4.0000418E+04; -4.5625336E-02;  0.0000000E+00; -2.7386015E-04;  6.6802689E+01;
  3.7169078E-01;  9.9999998E-03; -9.9988915E-02;4723; -2.2515327E-02;  0.0000000E+00; -1.8717259E-05;  1.0002819E+03;  1.0000000E-01;  2.3347488E+02;3;  1.2201095E+00;  0.0000000E+00;  5.9736764E-01;0; -4.3972008E-02;  4.0027953E+04;  0.0000000E+00;  3.0333271E-02;  4.0000000E+04;  0.0000000E+00;  3.9996781E+04; -4.3651644E-02;  0.0000000E+00; -3.2036370E-04;  4.3560275E+02;
  3.7169695E-01;  9.9999998E-03; -8.9991525E-02;4724; -2.2666411E-02;  0.0000000E+00; -1.5478045E-05;  1.0002898E+03;  1.0000000E-01;  2.4009198E+02;3;  1.2071532E+00;  0.0000000E+00;  5.3846705E-01;0; -4.4260573E-02;  4.0027559E+04;  0.0000000E+00;  4.5910843E-02;  4.0000000E+04;  0.0000000E+00;  3.9997875E+04; -4.3821786E-02;  0.0000000E+00; -4.3878629E-04;  3.1521185E+02;
  3.7170535E-01;  9.9999998E-03; -7.9993650E-02;4725; -2.2814436E-02;  0.0000000E+00; -1.1347627E-05;  1.0003004E+03;  1.0000000E-01;  2.4888185E+02;3;  1.1971045E+00;  0.0000000E+00;  4.7741491E-01;0; -4.4544835E-02;  4.0027520E+04;  0.0000000E+00;  5.1765289E-02;  4.0000000E+04;  0.0000000E+00;  3.9998547E+04; -4.4004332E-02;  0.0000000E+00; -5.4050068E-04;  2.1380209E+02;
  3.7171486E-01;  9.9999998E-03; -6.9995441E-02;4726; -2.2956884E-02;  0.0000000E+00; -6.7834085E-06;  1.0003143E+03;  1.0000000E-01;  2.6043707E+02;3;  1.1895573E+00;  0.0000000E+00;  4.1524211E-01;0; -4.4815622E-02;  4.0027969E+04;  0.0000000E+00;  4.9833179E-02;  4.0000000E+04;  0.0000000E+00;  3.9999191E+04; -4.4192050E-02;  0.0000000E+00; -6.2357221E-04;  1.4168962E+02;
  3.7172270E-01;  9.9999998E-03; -5.9997231E-02;4727; -2.3090564E-02;  0.0000000E+00; -2.3300495E-06;  1.0003300E+03;  1.0000000E-01;  2.7337497E+02;3;  1.1840739E+00;  0.0000000E+00;  3.5312343E-01;0; -4.5064639E-02;  4.0029105E+04;  0.0000000E+00;  4.2633858E-02;  4.0000000E+04;  0.0000000E+00;  3.9999762E+04; -4.4377014E-02;  0.0000000E+00; -6.8762462E-04;  1.0040199E+02;
  3.7172699E-01;  9.9999998E-03; -4.9999181E-02;4728; -2.3211889E-02;  0.0000000E+00;  1.2192799E-06;  1.0003521E+03;  1.0000000E-01;  2.9174484E+02;3;  1.1808674E+00;  0.0000000E+00;  2.8755835E-01;0; -4.5285054E-02;  4.0030684E+04;  0.0000000E+00;  3.2743473E-02;  4.0000000E+04;  0.0000000E+00;  3.9999621E+04; -4.4551160E-02;  0.0000000E+00; -7.3389302E-04;  8.5250328E+01;
  3.7172738E-01;  9.9999998E-03; -4.0000923E-02;4729; -2.3317300E-02;  0.0000000E+00;  3.5084936E-06;  1.0003752E+03;  1.0000000E-01;  3.1090479E+02;3;  1.1780915E+00;  0.0000000E+00;  2.2484386E-01;0; -4.5471516E-02;  4.0032492E+04;  0.0000000E+00;  2.2359787E-02;  4.0000000E+04;  0.0000000E+00;  3.9999578E+04; -4.4706561E-02;  0.0000000E+00; -7.6495629E-04;  9.5253380E+01;
  3.7172556E-01;  9.9999998E-03; -3.0001994E-02;4730; -2.3403410E-02;  0.0000000E+00;  4.3821592E-06;  1.0003911E+03;  1.0000000E-01;  3.2404022E+02;3;  1.1763020E+00;  0.0000000E+00;  1.6495642E-01;0; -4.5619991E-02;  4.0034301E+04;  0.0000000E+00;  1.3092366E-02;  4.0000000E+04;  0.0000000E+00;  3.9999316E+04; -4.4835810E-02;  0.0000000E+00; -7.8418193E-04;  1.2544090E+02;
  3.7172318E-01;  9.9999998E-03; -2.0002160E-02;4731; -2.3467273E-02;  0.0000000E+00;  3.8149615E-06;  1.0004090E+03;  1.0000000E-01;  3.3885461E+02;3;  1.1748827E+00;  0.0000000E+00;  1.0805726E-01;0; -4.5727640E-02;  4.0035934E+04;  0.0000000E+00;  5.9563848E-03;  4.0000000E+04;  0.0000000E+00;  3.9999145E+04; -4.4932660E-02;  0.0000000E+00; -7.9498201E-04;  1.6143132E+02;
  3.7172055E-01;  9.9999998E-03; -1.0001403E-02;4732; -2.3506543E-02;  0.0000000E+00;  2.1739988E-06;  1.0004188E+03;  1.0000000E-01;  3.4695316E+02;3;  1.1741443E+00;  0.0000000E+00;  5.2653056E-02;0; -4.5792982E-02;  4.0036879E+04;  0.0000000E+00;  1.5070112E-03;  4.0000000E+04;  0.0000000E+00;  3.9998797E+04; -4.4992819E-02;  0.0000000E+00; -8.0016116E-04;  1.8927603E+02;
  3.7171924E-01;  9.9999998E-03;  9.2622227E-10;4733; -2.3519788E-02;  0.0000000E+00;  2.1498707E-09;  1.0004231E+03;  1.0000000E-01;  3.5050861E+02;3;  1.1738968E+00;  0.0000000E+00; -1.7126440E-05;0; -4.5814946E-02;  4.0037406E+04;  0.0000000E+00;  1.3025858E-12;  4.0000000E+04;  0.0000000E+00;  3.9998676E+04; -4.5013297E-02;  0.0000000E+00; -8.0164993E-04;  1.9968196E+02;
  3.7172055E-01;  9.9999998E-03;  1.0001405E-02;4734; -2.3506546E-02;  0.0000000E+00; -2.1692390E-06;  1.0004188E+03;  1.0000000E-01;  3.4695316E+02;3;  1.1741467E+00;  0.0000000E+00; -5.2678932E-02;0; -4.5792971E-02;  4.0036879E+04;  0.0000000E+00;  1.5067090E-03;  4.0000000E+04;  0.0000000E+00;  3.9998797E+04; -4.4992808E-02;  0.0000000E+00; -8.0016284E-04;  1.8928157E+02;
  3.7172318E-01;  9.9999998E-03;  2.0002162E-02;4735; -2.3467276E-02;  0.0000000E+00; -3.8100113E-06;  1.0004091E+03;  1.0000000E-01;  3.3885461E+02;3;  1.1748402E+00;  0.0000000E+00; -1.0808511E-01;0; -4.5727678E-02;  4.0035934E+04;  0.0000000E+00;  5.9558707E-03;  4.0000000E+04;  0.0000000E+00;  3.9999145E+04; -4.4932693E-02;  0.0000000E+00; -7.9498382E-04;  1.6143590E+02;
  3.7172556E-01;  9.9999998E-03;  3.0001996E-02;4736; -2.3403412E-02;  0.0000000E+00; -4.3771038E-06;  1.0003911E+03;  1.0000000E-01;  3.2404022E+02;3;  1.1762698E+00;  0.0000000E+00; -1.6497944E-01;0; -4.5619976E-02;  4.0034301E+04;  0.0000000E+00;  1.3091538E-02;  4.0000000E+04;  0.0000000E+00;  3.9999316E+04; -4.4835791E-02;  0.0000000E+00; -7.8418653E-04;  1.2542989E+02;
  3.7172738E-01;  9.9999998E-03;  4.0000923E-02;4737; -2.3317305E-02;  0.0000000E+00; -3.5029293E-06;  1.0003752E+03;  1.0000000E-01;  3.1090479E+02;3;  1.1780756E+00;  0.0000000E+00; -2.2485209E-01;0; -4.5471542E-02;  4.0032492E+04;  0.0000000E+00;  2.2358779E-02;  4.0000000E+04;  0.0000000E+00;  3.9999578E+04; -4.4706579E-02;  0.0000000E+00; -7.6496141E-04;  9.5248901E+01;
  3.7172699E-01;  9.9999998E-03;  4.9999181E-02;4738; -2.3211900E-02;  0.0000000E+00; -1.2132280E-06;  1.0003522E+03;  1.0000000E-01;  2.9174484E+02;3;  1.1808338E+00;  0.0000000E+00; -2.8755999E-01;0; -4.5285150E-02;  4.0030676E+04;  0.0000000E+00;  3.2741845E-02;  4.0000000E+04;  0.0000000E+00;  3.9999621E+04; -4.4551250E-02;  0.0000000E+00; -7.3390023E-04;  8.5248108E+01;
  3.7172270E-01;  9.9999998E-03;  5.9997234E-02;4739; -2.3090569E-02;  0.0000000E+00;  2.3366015E-06;  1.0003300E+03;  1.0000000E-01;  2.7337497E+02;3;  1.1840729E+00;  0.0000000E+00; -3.5310915E-01;0; -4.5064755E-02;  4.0029102E+04;  0.0000000E+00;  4.2633142E-02;  4.0000000E+04;  0.0000000E+00;  3.9999762E+04; -4.4377122E-02;  0.0000000E+00; -6.8763294E-04;  1.0040212E+02;
  3.8167033E-01;  9.9999998E-03; -9.9996850E-02;4784; -2.2930540E-02;  0.0000000E+00;  3.9084087E-05;  1.0002637E+03;  1.0000000E-01;  2.1846295E+02;3;  1.3145750E+00;  0.0000000E+00;  6.5125895E-01;0; -4.3351490E-02;  4.0026180E+04;  0.0000000E+00;  6.4866327E-02;  4.0000000E+04;  0.0000000E+00;  3.9996656E+04; -4.2583652E-02;  0.0000000E+00; -7.6783705E-04;  4.6501804E+02;
  3.8167343E-01;  9.9999998E-03; -8.9998655E-02;4785; -2.3085065E-02;  0.0000000E+00;  3.8844184E-05;  1.0002846E+03;  1.0000000E-01;  2.3574641E+02;3;  1.3031728E+00;  0.0000000E+00;  5.7992303E-01;0; -4.3602094E-02;  4.0027266E+04;  0.0000000E+00;  7.0525467E-02;  4.0000000E+04;  0.0000000E+00;  3.9997238E+04; -4.2711731E-02;  0.0000000E+00; -8.9036184E-04;  3.7806918E+02;
  3.8167810E-01;  9.9999998E-03; -7.9999737E-02;4786; -2.3235332E-02;  0.0000000E+00;  3.9166684E-05;  1.0003074E+03;  1.0000000E-01;  2.5470885E+02;3;  1.2941521E+00;  0.0000000E+00;  5.0735992E-01;0; -4.3843687E-02;  4.0028594E+04;  0.0000000E+00;  6.8128429E-02;  4.0000000E+04;  0.0000000E+00;  3.9997910E+04; -4.2843215E-02;  0.0000000E+00; -1.0004722E-03;  3.0678580E+02;
  3.8168332E-01;  9.9999998E-03; -7.0000775E-02;4787; -2.3378698E-02;  0.0000000E+00;  3.9173156E-05;  1.0003409E+03;  1.0000000E-01;  2.8246115E+02;3;  1.2877202E+00;  0.0000000E+00;  4.3053547E-01;0; -4.4069562E-02;  4.0030602E+04;  0.0000000E+00;  5.9918821E-02;  4.0000000E+04;  0.0000000E+00;  3.9998387E+04; -4.2973384E-02;  0.0000000E+00; -1.0961780E-03;  2.5845618E+02;
  3.8168597E-01;  9.9999998E-03; -6.0002033E-02;4788; -2.3512051E-02;  0.0000000E+00;  3.8249560E-05;  1.0003705E+03;  1.0000000E-01;  3.0695428E+02;3;  1.2825552E+00;  0.0000000E+00;  3.5738009E-01;0; -4.4274371E-02;  4.0032895E+04;  0.0000000E+00;  4.8382692E-02;  4.0000000E+04;  0.0000000E+00;  3.9998621E+04; -4.3097977E-02;  0.0000000E+00; -1.1763945E-03;  2.3708333E+02;
  3.8168469E-01;  9.9999998E-03; -5.0003309E-02;4789; -2.3632098E-02;  0.0000000E+00;  3.5914098E-05;  1.0004004E+03;  1.0000000E-01;  3.3174371E+02;3;  1.2781963E+00;  0.0000000E+00;  2.9036933E-01;0; -4.4453315E-02;  4.0035637E+04;  0.0000000E+00;  3.5774697E-02;  4.0000000E+04;  0.0000000E+00;  3.9998359E+04; -4.3212231E-02;  0.0000000E+00; -1.2410838E-03;  2.4306023E+02;
  3.8168094E-01;  9.9999998E-03; -4.0004116E-02;4790; -2.3735644E-02;  0.0000000E+00;  3.1826541E-05;  1.0004308E+03;  1.0000000E-01;  3.5692816E+02;3;  1.2747022E+00;  0.0000000E+00;  2.2814214E-01;0; -4.4603158E-02;  4.0038324E+04;  0.0000000E+00;  2.3837259E-02;  4.0000000E+04;  0.0000000E+00;  3.9997965E+04; -4.3311987E-02;  0.0000000E+00; -1.2911713E-03;  2.7149286E+02;
  3.8167575E-01;  9.9999998E-03; -3.0004125E-02;4791; -2.3819720E-02;  0.0000000E+00;  2.5993962E-05;  1.0004579E+03;  1.0000000E-01;  3.7934729E+02;3;  1.2719110E+00;  0.0000000E+00;  1.7024933E-01;0; -4.4721562E-02;  4.0040605E+04;  0.0000000E+00;  1.3745892E-02;  4.0000000E+04;  0.0000000E+00;  3.9997609E+04; -4.3393560E-02;  0.0000000E+00; -1.3280017E-03;  3.1231482E+02;
  3.8167021E-01;  9.9999998E-03; -2.0003330E-02;4792; -2.3881745E-02;  0.0000000E+00;  1.8497181E-05;  1.0004780E+03;  1.0000000E-01;  3.9593942E+02;3;  1.2698454E+00;  0.0000000E+00;  1.1500656E-01;0; -4.4807032E-02;  4.0042543E+04;  0.0000000E+00;  6.1983205E-03;  4.0000000E+04;  0.0000000E+00;  3.9997625E+04; -4.3454032E-02;  0.0000000E+00; -1.3530002E-03;  3.5320090E+02;
  3.8166600E-01;  9.9999998E-03; -1.0001831E-02;4793; -2.3919774E-02;  0.0000000E+00;  9.6581280E-06;  1.0004869E+03;  1.0000000E-01;  4.0334662E+02;3;  1.2685653E+00;  0.0000000E+00;  5.8807779E-02;0; -4.4858735E-02;  4.0044062E+04;  0.0000000E+00;  1.5611781E-03;  4.0000000E+04;  0.0000000E+00;  3.9997520E+04; -4.3491300E-02;  0.0000000E+00; -1.3674346E-03;  3.8296848E+02;
  3.8166425E-01;  9.9999998E-03;  1.0422084E-09;4794; -2.3932582E-02;  0.0000000E+00;  3.1767413E-09;  1.0004943E+03;  1.0000000E-01;  4.0956866E+02;3;  1.2681022E+00;  0.0000000E+00; -1.8631745E-05;0; -4.4875983E-02;  4.0044477E+04;  0.0000000E+00;  1.0700346E-12;  4.0000000E+04;  0.0000000E+00;  3.9997352E+04; -4.3503851E-02;  0.0000000E+00; -1.3721340E-03;  3.9382501E+02;
  3.8166600E-01;  9.9999998E-03;  1.0001833E-02;4795; -2.3919776E-02;  0.0000000E+00; -9.6519952E-06;  1.0004868E+03;  1.0000000E-01;  4.0334662E+02;3;  1.2685461E+00;  0.0000000E+00; -5.8838401E-02;0; -4.4858698E-02;  4.0044066E+04;  0.0000000E+00;  1.5609405E-03;  4.0000000E+04;  0.0000000E+00;  3.9997520E+04; -4.3491263E-02;  0.0000000E+00; -1.3674363E-03;  3.8296399E+02;
  3.8167021E-01;  9.9999998E-03;  2.0003332E-02;4796; -2.3881746E-02;  0.0000000E+00; -1.8491535E-05;  1.0004780E+03;  1.0000000E-01;  3.9593942E+02;3;  1.2698308E+00;  0.0000000E+00; -1.1504613E-01;0; -4.4807062E-02;  4.0042543E+04;  0.0000000E+00;  6.1976551E-03;  4.0000000E+04;  0.0000000E+00;  3.9997625E+04; -4.3454055E-02;  0.0000000E+00; -1.3530049E-03;  3.5318860E+02;
  3.8167575E-01;  9.9999998E-03;  3.0004127E-02;4797; -2.3819720E-02;  0.0000000E+00; -2.5987812E-05;  1.0004579E+03;  1.0000000E-01;  3.7934729E+02;3;  1.2719171E+00;  0.0000000E+00; -1.7027703E-01;0; -4.4721574E-02;  4.0040605E+04;  0.0000000E+00;  1.3745319E-02;  4.0000000E+04;  0.0000000E+00;  3.9997609E+04; -4.3393567E-02;  0.0000000E+00; -1.3280060E-03;  3.1232108E+02;
  3.8168094E-01;  9.9999998E-03;  4.0004116E-02;4798; -2.3735650E-02;  0.0000000E+00; -3.1821444E-05;  1.0004307E+03;  1.0000000E-01;  3.5682941E+02;3;  1.2746843E+00;  0.0000000E+00; -2.2816525E-01;0; -4.4603281E-02;  4.0038324E+04;  0.0000000E+00;  2.3835437E-02;  4.0000000E+04;  0.0000000E+00;  3.9997965E+04; -4.3312103E-02;  0.0000000E+00; -1.2911781E-03;  2.7150381E+02;
  3.8168469E-01;  9.9999998E-03;  5.0003309E-02;4799; -2.3632104E-02;  0.0000000E+00; -3.5908579E-05;  1.0004004E+03;  1.0000000E-01;  3.3174371E+02;3;  1.2781565E+00;  0.0000000E+00; -2.9038516E-01;0; -4.4453345E-02;  4.0035629E+04;  0.0000000E+00;  3.5773803E-02;  4.0000000E+04;  0.0000000E+00;  3.9998359E+04; -4.3212254E-02;  0.0000000E+00; -1.2410934E-03;  2.4305717E+02;
  3.8168597E-01;  9.9999998E-03;  6.0002036E-02;4800; -2.3512060E-02;  0.0000000E+00; -3.8243859E-05;  1.0003705E+03;  1.0000000E-01;  3.0695428E+02;3;  1.2825099E+00;  0.0000000E+00; -3.5738078E-01;0; -4.4274382E-02;  4.0032906E+04;  0.0000000E+00;  4.8381984E-02;  4.0000000E+04;  0.0000000E+00;  3.9998621E+04; -4.3097980E-02;  0.0000000E+00; -1.1764038E-03;  2.3709380E+02;
  3.9166108E-01;  9.9999998E-03; -1.0000458E-01;4845; -2.3337521E-02;  0.0000000E+00;  1.1194009E-04;  1.0001970E+03;  1.0000000E-01;  1.6325462E+02;3;  1.4159464E+00;  0.0000000E+00;  6.8627483E-01;0; -4.2804632E-02;  4.0020570E+04;  0.0000000E+00;  9.3101703E-02;  4.0000000E+04;  0.0000000E+00;  3.9996270E+04; -4.1526679E-02;  0.0000000E+00; -1.2779539E-03;  5.1151660E+02;
  3.9166030E-01;  9.9999998E-03; -9.0005569E-02;4846; -2.3493130E-02;  0.0000000E+00;  1.0647703E-04;  1.0002198E+03;  1.0000000E-01;  1.8211829E+02;3;  1.4055980E+00;  0.0000000E+00;  6.1502123E-01;0; -4.3017767E-02;  4.0022242E+04;  0.0000000E+00;  9.0036385E-02;  4.0000000E+04;  0.0000000E+00;  3.9996574E+04; -4.1608628E-02;  0.0000000E+00; -1.4091379E-03;  4.5823389E+02;
  3.9165682E-01;  9.9999998E-03; -8.0005907E-02;4847; -2.3642959E-02;  0.0000000E+00;  1.0102283E-04;  1.0002484E+03;  1.0000000E-01;  2.0582132E+02;3;  1.3967478E+00;  0.0000000E+00;  5.4633695E-01;0; -4.3218117E-02;  4.0024379E+04;  0.0000000E+00;  8.0897108E-02;  4.0000000E+04;  0.0000000E+00;  3.9996797E+04; -4.1687101E-02;  0.0000000E+00; -1.5310155E-03;  4.1694501E+02;
  3.9165258E-01;  9.9999998E-03; -7.0006490E-02;4848; -2.3784520E-02;  0.0000000E+00;  9.4872135E-05;  1.0002817E+03;  1.0000000E-01;  2.3337610E+02;3;  1.3895917E+00;  0.0000000E+00;  4.7771010E-01;0; -4.3401297E-02;  4.0026672E+04;  0.0000000E+00;  6.7893520E-02;  4.0000000E+04;  0.0000000E+00;  3.9997129E+04; -4.1759722E-02;  0.0000000E+00; -1.6415736E-03;  3.9428687E+02;
  3.9164764E-01;  9.9999998E-03; -6.0007263E-02;4849; -2.3915030E-02;  0.0000000E+00;  8.7415974E-05;  1.0003164E+03;  1.0000000E-01;  2.6211603E+02;3;  1.3838269E+00;  0.0000000E+00;  4.0925458E-01;0; -4.3563880E-02;  4.0029422E+04;  0.0000000E+00;  5.3197179E-02;  4.0000000E+04;  0.0000000E+00;  3.9997207E+04; -4.1824639E-02;  0.0000000E+00; -1.7392403E-03;  3.9400662E+02;
  3.9164045E-01;  9.9999998E-03; -5.0007731E-02;4850; -2.4031546E-02;  0.0000000E+00;  7.8152225E-05;  1.0003445E+03;  1.0000000E-01;  2.8542401E+02;3;  1.3791845E+00;  0.0000000E+00;  3.4034160E-01;0; -4.3703582E-02;  4.0032023E+04;  0.0000000E+00;  3.8612630E-02;  4.0000000E+04;  0.0000000E+00;  3.9997055E+04; -4.1880749E-02;  0.0000000E+00; -1.8228317E-03;  4.1527365E+02;
  3.9163139E-01;  9.9999998E-03; -4.0007498E-02;4851; -2.4131279E-02;  0.0000000E+00;  6.6658300E-05;  1.0003724E+03;  1.0000000E-01;  3.0853445E+02;3;  1.3755043E+00;  0.0000000E+00;  2.7142882E-01;0; -4.3818925E-02;  4.0034586E+04;  0.0000000E+00;  2.5457520E-02;  4.0000000E+04;  0.0000000E+00;  3.9996699E+04; -4.1927248E-02;  0.0000000E+00; -1.8916760E-03;  4.5258426E+02;
  3.9162236E-01;  9.9999998E-03; -3.0006453E-02;4852; -2.4211735E-02;  0.0000000E+00;  5.2746895E-05;  1.0003942E+03;  1.0000000E-01;  3.2650925E+02;3;  1.3726283E+00;  0.0000000E+00;  2.0320846E-01;0; -4.3909021E-02;  4.0037012E+04;  0.0000000E+00;  1.4601550E-02;  4.0000000E+04;  0.0000000E+00;  3.9996102E+04; -4.1963551E-02;  0.0000000E+00; -1.9454709E-03;  4.9691098E+02;
  3.9161447E-01;  9.9999998E-03; -2.0004733E-02;4853; -2.4270793E-02;  0.0000000E+00;  3.6573401E-05;  1.0004111E+03;  1.0000000E-01;  3.4063232E+02;3;  1.3705697E+00;  0.0000000E+00;  1.3588862E-01;0; -4.3973494E-02;  4.0038656E+04;  0.0000000E+00;  6.5688109E-03;  4.0000000E+04;  0.0000000E+00;  3.9996008E+04; -4.1989498E-02;  0.0000000E+00; -1.9839974E-03;  5.3818463E+02;
  3.9160898E-01;  9.9999998E-03; -1.0002523E-02;4854; -2.4306882E-02;  0.0000000E+00;  1.8735702E-05;  1.0004223E+03;  1.0000000E-01;  3.4991602E+02;3;  1.3693370E+00;  0.0000000E+00;  6.8135314E-02;0; -4.4012234E-02;  4.0039918E+04;  0.0000000E+00;  1.6530876E-03;  4.0000000E+04;  0.0000000E+00;  3.9995805E+04; -4.2005084E-02;  0.0000000E+00; -2.0071494E-03;  5.6723639E+02;
  3.9160681E-01;  9.9999998E-03;  1.1496740E-09;4855; -2.4319012E-02;  0.0000000E+00;  4.1717243E-09;  1.0004264E+03;  1.0000000E-01;  3.5327393E+02;3;  1.3689142E+00;  0.0000000E+00; -2.4080888E-05;0; -4.4025134E-02;  4.0040191E+04;  0.0000000E+00;  1.4762367E-12;  4.0000000E+04;  0.0000000E+00;  3.9995801E+04; -4.2010278E-02;  0.0000000E+00; -2.0148579E-03;  5.7766888E+02;
  3.9160898E-01;  9.9999998E-03;  1.0002525E-02;4856; -2.4306880E-02;  0.0000000E+00; -1.8727649E-05;  1.0004223E+03;  1.0000000E-01;  3.4991602E+02;3;  1.3693347E+00;  0.0000000E+00; -6.8175189E-02;0; -4.4012252E-02;  4.0039914E+04;  0.0000000E+00;  1.6529767E-03;  4.0000000E+04;  0.0000000E+00;  3.9995805E+04; -4.2005103E-02;  0.0000000E+00; -2.0071506E-03;  5.6723163E+02;
  3.9161447E-01;  9.9999998E-03;  2.0004734E-02;4857; -2.4270793E-02;  0.0000000E+00; -3.6565718E-05;  1.0004112E+03;  1.0000000E-01;  3.4063232E+02;3;  1.3705274E+00;  0.0000000E+00; -1.3592300E-01;0; -4.3973517E-02;  4.0038652E+04;  0.0000000E+00;  6.5683615E-03;  4.0000000E+04;  0.0000000E+00;  3.9996012E+04; -4.1989513E-02;  0.0000000E+00; -1.9840035E-03;  5.3818036E+02;
  3.9162236E-01;  9.9999998E-03;  3.0006455E-02;4858; -2.4211735E-02;  0.0000000E+00; -5.2739470E-05;  1.0003942E+03;  1.0000000E-01;  3.2650925E+02;3;  1.3726012E+00;  0.0000000E+00; -2.0324260E-01;0; -4.3909077E-02;  4.0037012E+04;  0.0000000E+00;  1.4600746E-02;  4.0000000E+04;  0.0000000E+00;  3.9996094E+04; -4.1963600E-02;  0.0000000E+00; -1.9454769E-03;  4.9691663E+02;
  3.9163139E-01;  9.9999998E-03;  4.0007502E-02;4859; -2.4131281E-02;  0.0000000E+00; -6.6650769E-05;  1.0003724E+03;  1.0000000E-01;  3.0853445E+02;3;  1.3754965E+00;  0.0000000E+00; -2.7145082E-01;0; -4.3819010E-02;  4.0034590E+04;  0.0000000E+00;  2.5456717E-02;  4.0000000E+04;  0.0000000E+00;  3.9996699E+04; -4.1927323E-02;  0.0000000E+00; -1.8916870E-03;  4.5258542E+02;
  3.9164045E-01;  9.9999998E-03;  5.0007734E-02;4860; -2.4031553E-02;  0.0000000E+00; -7.8144250E-05;  1.0003445E+03;  1.0000000E-01;  2.8542401E+02;3;  1.3791988E+00;  0.0000000E+00; -3.4036329E-01;0; -4.3703683E-02;  4.0032023E+04;  0.0000000E+00;  3.8611535E-02;  4.0000000E+04;  0.0000000E+00;  3.9997055E+04; -4.1880839E-02;  0.0000000E+00; -1.8228446E-03;  4.1528452E+02;
  3.9164764E-01;  9.9999998E-03;  6.0007267E-02;4861; -2.3915036E-02;  0.0000000E+00; -8.7408116E-05;  1.0003163E+03;  1.0000000E-01;  2.6211603E+02;3;  1.3838365E+00;  0.0000000E+00; -4.0924034E-01;0; -4.3563962E-02;  4.0029422E+04;  0.0000000E+00;  5.3196464E-02;  4.0000000E+04;  0.0000000E+00;  3.9997207E+04; -4.1824710E-02;  0.0000000E+00; -1.7392535E-03;  3.9400565E+02;
  4.0165773E-01;  9.9999998E-03; -1.0001127E-01;4906; -2.3739049E-02;  0.0000000E+00;  1.9555252E-04;  1.0000839E+03;  1.0000000E-01;  6.9430130E+01;3;  1.5214272E+00;  0.0000000E+00;  7.2073376E-01;0; -4.2339161E-02;  4.0011711E+04;  0.0000000E+00;  1.1410292E-01;  4.0000000E+04;  0.0000000E+00;  3.9995648E+04; -4.0491197E-02;  0.0000000E+00; -1.8479645E-03;  5.7200745E+02;
  4.0165421E-01;  9.9999998E-03; -9.0011299E-02;4907; -2.3893829E-02;  0.0000000E+00;  1.8398679E-04;  1.0001106E+03;  1.0000000E-01;  9.1651718E+01;3;  1.5114403E+00;  0.0000000E+00;  6.5232837E-01;0; -4.2519160E-02;  4.0013539E+04;  0.0000000E+00;  1.0429312E-01;  4.0000000E+04;  0.0000000E+00;  3.9995996E+04; -4.0526751E-02;  0.0000000E+00; -1.9924089E-03;  5.5085822E+02;
  4.0164477E-01;  9.9999998E-03; -8.0010913E-02;4908; -2.4041325E-02;  0.0000000E+00;  1.7187817E-04;  1.0001285E+03;  1.0000000E-01;  1.0646612E+02;3;  1.5032531E+00;  0.0000000E+00;  5.8167452E-01;0; -4.2683192E-02;  4.0015473E+04;  0.0000000E+00;  9.0199254E-02;  4.0000000E+04;  0.0000000E+00;  3.9996078E+04; -4.0553629E-02;  0.0000000E+00; -2.1295610E-03;  5.3795111E+02;
  4.0163133E-01;  9.9999998E-03; -7.0010655E-02;4909; -2.4179215E-02;  0.0000000E+00;  1.5853487E-04;  1.0001537E+03;  1.0000000E-01;  1.2730503E+02;3;  1.4964403E+00;  0.0000000E+00;  5.1015151E-01;0; -4.2828962E-02;  4.0017195E+04;  0.0000000E+00;  7.3815554E-02;  4.0000000E+04;  0.0000000E+00;  3.9995859E+04; -4.0571801E-02;  0.0000000E+00; -2.2571606E-03;  5.3810413E+02;
  4.0161660E-01;  9.9999998E-03; -6.0010526E-02;4910; -2.4305100E-02;  0.0000000E+00;  1.4332880E-04;  1.0001768E+03;  1.0000000E-01;  1.4646498E+02;3;  1.4908011E+00;  0.0000000E+00;  4.3809375E-01;0; -4.2955011E-02;  4.0019246E+04;  0.0000000E+00;  5.6927633E-02;  4.0000000E+04;  0.0000000E+00;  3.9995594E+04; -4.0581811E-02;  0.0000000E+00; -2.3731987E-03;  5.5361511E+02;
  4.0160254E-01;  9.9999998E-03; -5.0010100E-02;4911; -2.4416571E-02;  0.0000000E+00;  1.2568504E-04;  1.0001951E+03;  1.0000000E-01;  1.6157567E+02;3;  1.4861609E+00;  0.0000000E+00;  3.6615434E-01;0; -4.3060668E-02;  4.0021332E+04;  0.0000000E+00;  4.0943485E-02;  4.0000000E+04;  0.0000000E+00;  3.9995582E+04; -4.0584937E-02;  0.0000000E+00; -2.4757299E-03;  5.8327917E+02;
  4.0158892E-01;  9.9999998E-03; -4.0009119E-02;4912; -2.4511287E-02;  0.0000000E+00;  1.0528968E-04;  1.0002111E+03;  1.0000000E-01;  1.7490862E+02;3;  1.4824249E+00;  0.0000000E+00;  2.9380417E-01;0; -4.3146133E-02;  4.0022812E+04;  0.0000000E+00;  2.6868885E-02;  4.0000000E+04;  0.0000000E+00;  3.9995074E+04; -4.0583339E-02;  0.0000000E+00; -2.5627953E-03;  6.2245233E+02;
  4.0157643E-01;  9.9999998E-03; -3.0007554E-02;4913; -2.4587197E-02;  0.0000000E+00;  8.2095510E-05;  1.0002247E+03;  1.0000000E-01;  1.8616756E+02;3;  1.4795496E+00;  0.0000000E+00;  2.2079688E-01;0; -4.3211725E-02;  4.0024414E+04;  0.0000000E+00;  1.5381715E-02;  4.0000000E+04;  0.0000000E+00;  3.9994973E+04; -4.0579092E-02;  0.0000000E+00; -2.6326345E-03;  6.6439209E+02;
  4.0156615E-01;  9.9999998E-03; -2.0005401E-02;4914; -2.4642641E-02;  0.0000000E+00;  5.6370340E-05;  1.0002327E+03;  1.0000000E-01;  1.9278465E+02;3;  1.4774942E+00;  0.0000000E+00;  1.4728227E-01;0; -4.3258045E-02;  4.0025543E+04;  0.0000000E+00;  6.9164243E-03;  4.0000000E+04;  0.0000000E+00;  3.9994500E+04; -4.0574316E-02;  0.0000000E+00; -2.6837285E-03;  7.0155493E+02;
  4.0155920E-01;  9.9999998E-03; -1.0002796E-02;4915; -2.4676388E-02;  0.0000000E+00;  2.8709772E-05;  1.0002409E+03;  1.0000000E-01;  1.9959927E+02;3;  1.4762564E+00;  0.0000000E+00;  7.3647365E-02;0; -4.3285690E-02;  4.0026117E+04;  0.0000000E+00;  1.7407015E-03;  4.0000000E+04;  0.0000000E+00;  3.9994402E+04; -4.0570810E-02;  0.0000000E+00; -2.7148796E-03;  7.2711298E+02;
  4.0155664E-01;  9.9999998E-03;  1.2417098E-09;4916; -2.4687719E-02;  0.0000000E+00;  4.9407713E-09;  1.0002417E+03;  1.0000000E-01;  2.0029062E+02;3;  1.4758735E+00;  0.0000000E+00; -2.5417754E-05;0; -4.3294840E-02;  4.0026469E+04;  0.0000000E+00;  7.3038813E-13;  4.0000000E+04;  0.0000000E+00;  3.9994215E+04; -4.0569488E-02;  0.0000000E+00; -2.7253497E-03;  7.3620917E+02;
  4.0155920E-01;  9.9999998E-03;  1.0002798E-02;4917; -2.4676388E-02;  0.0000000E+00; -2.8699877E-05;  1.0002408E+03;  1.0000000E-01;  1.9950052E+02;3;  1.4762734E+00;  0.0000000E+00; -7.3698722E-02;0; -4.3285672E-02;  4.0026113E+04;  0.0000000E+00;  1.7405055E-03;  4.0000000E+04;  0.0000000E+00;  3.9994402E+04; -4.0570784E-02;  0.0000000E+00; -2.7148866E-03;  7.2711401E+02;
  4.0156615E-01;  9.9999998E-03;  2.0005403E-02;4918; -2.4642639E-02;  0.0000000E+00; -5.6360648E-05;  1.0002327E+03;  1.0000000E-01;  1.9278465E+02;3;  1.4775141E+00;  0.0000000E+00; -1.4732487E-01;0; -4.3258104E-02;  4.0025551E+04;  0.0000000E+00;  6.9160694E-03;  4.0000000E+04;  0.0000000E+00;  3.9994500E+04; -4.0574368E-02;  0.0000000E+00; -2.6837350E-03;  7.0155609E+02;
  4.0157643E-01;  9.9999998E-03;  3.0007556E-02;4919; -2.4587201E-02;  0.0000000E+00; -8.2086139E-05;  1.0002247E+03;  1.0000000E-01;  1.8616756E+02;3;  1.4795327E+00;  0.0000000E+00; -2.2082745E-01;0; -4.3211769E-02;  4.0024410E+04;  0.0000000E+00;  1.5380903E-02;  4.0000000E+04;  0.0000000E+00;  3.9994973E+04; -4.0579125E-02;  0.0000000E+00; -2.6326433E-03;  6.6437823E+02;
  4.0158892E-01;  9.9999998E-03;  4.0009119E-02;4920; -2.4511293E-02;  0.0000000E+00; -1.0528022E-04;  1.0002111E+03;  1.0000000E-01;  1.7490862E+02;3;  1.4824036E+00;  0.0000000E+00; -2.9382095E-01;0; -4.3146182E-02;  4.0022812E+04;  0.0000000E+00;  2.6867725E-02;  4.0000000E+04;  0.0000000E+00;  3.9995070E+04; -4.0583376E-02;  0.0000000E+00; -2.5628053E-03;  6.2244177E+02;
  4.0160254E-01;  9.9999998E-03;  5.0010100E-02;4921; -2.4416581E-02;  0.0000000E+00; -1.2567543E-04;  1.0001950E+03;  1.0000000E-01;  1.6157567E+02;3;  1.4861128E+00;  0.0000000E+00; -3.6616027E-01;0; -4.3060724E-02;  4.0021328E+04;  0.0000000E+00;  4.0942676E-02;  4.0000000E+04;  0.0000000E+00;  3.9995582E+04; -4.0584981E-02;  0.0000000E+00; -2.4757409E-03;  5.8326794E+02;
  4.0161660E-01;  9.9999998E-03;  6.0010526E-02;4922; -2.4305107E-02;  0.0000000E+00; -1.4331934E-04;  1.0001768E+03;  1.0000000E-01;  1.4646498E+02;3;  1.4907482E+00;  0.0000000E+00; -4.3809116E-01;0; -4.2955030E-02;  4.0019246E+04;  0.0000000E+00;  5.6927450E-02;  4.0000000E+04;  0.0000000E+00;  3.9995594E+04; -4.0581815E-02;  0.0000000E+00; -2.3732139E-03;  5.5360846E+02;
  4.1165599E-01;  9.9999998E-03; -1.0001688E-01;4967; -2.4137195E-02;  0.0000000E+00;  2.8783429E-04;  9.9995764E+02;  1.0000000E-01; -3.5110115E+01;3;  1.6292285E+00;  0.0000000E+00;  7.6177055E-01;0; -4.1951217E-02;  4.0001672E+04;  0.0000000E+00;  1.2699205E-01;  4.0000000E+04;  0.0000000E+00;  3.9994918E+04; -3.9477393E-02;  0.0000000E+00; -2.4738221E-03;  6.4232367E+02;
  4.1165221E-01;  9.9999998E-03; -9.0015762E-02;4968; -2.4289675E-02;  0.0000000E+00;  2.6917734E-04;  9.9996918E+02;  1.0000000E-01; -2.5530140E+01;3;  1.6205214E+00;  0.0000000E+00;  6.9040656E-01;0; -4.2105503E-02;  4.0002992E+04;  0.0000000E+00;  1.1273702E-01;  4.0000000E+04;  0.0000000E+00;  3.9994945E+04; -3.9469693E-02;  0.0000000E+00; -2.6358119E-03;  6.5025745E+02;
  4.1164240E-01;  9.9999998E-03; -8.0014437E-02;4969; -2.4433631E-02;  0.0000000E+00;  2.4929593E-04;  9.9997852E+02;  1.0000000E-01; -1.7777273E+01;3;  1.6133604E+00;  0.0000000E+00;  6.1741936E-01;0; -4.2240962E-02;  4.0003945E+04;  0.0000000E+00;  9.5503822E-02;  4.0000000E+04;  0.0000000E+00;  3.9994758E+04; -3.9449401E-02;  0.0000000E+00; -2.7915621E-03;  6.6164075E+02;
  4.1162649E-01;  9.9999998E-03; -7.0013136E-02;4970; -2.4566887E-02;  0.0000000E+00;  2.2757340E-04;  9.9998627E+02;  1.0000000E-01; -1.1357702E+01;3;  1.6073098E+00;  0.0000000E+00;  5.4318583E-01;0; -4.2357191E-02;  4.0004762E+04;  0.0000000E+00;  7.7055708E-02;  4.0000000E+04;  0.0000000E+00;  3.9994684E+04; -3.9418802E-02;  0.0000000E+00; -2.9383898E-03;  6.7902655E+02;
  4.1160798E-01;  9.9999998E-03; -6.0011752E-02;4971; -2.4687402E-02;  0.0000000E+00;  2.0344988E-04;  9.9999219E+02;  1.0000000E-01; -6.4689522E+00;3;  1.6022384E+00;  0.0000000E+00;  4.6783400E-01;0; -4.2454470E-02;  4.0005438E+04;  0.0000000E+00;  5.8877073E-02;  4.0000000E+04;  0.0000000E+00;  3.9994535E+04; -3.9380658E-02;  0.0000000E+00; -3.0738129E-03;  7.0348767E+02;
  4.1158897E-01;  9.9999998E-03; -5.0010245E-02;4972; -2.4793178E-02;  0.0000000E+00;  1.7646559E-04;  9.9999231E+02;  1.0000000E-01; -6.3701897E+00;3;  1.5980802E+00;  0.0000000E+00;  3.9135382E-01;0; -4.2533569E-02;  4.0006109E+04;  0.0000000E+00;  4.2097211E-02;  4.0000000E+04;  0.0000000E+00;  3.9994250E+04; -3.9338447E-02;  0.0000000E+00; -3.1951200E-03;  7.3420233E+02;
  4.1157094E-01;  9.9999998E-03; -4.0008612E-02;4973; -2.4882365E-02;  0.0000000E+00;  1.4635113E-04;  9.9999060E+02;  1.0000000E-01; -7.8022480E+00;3;  1.5947335E+00;  0.0000000E+00;  3.1397304E-01;0; -4.2595793E-02;  4.0006211E+04;  0.0000000E+00;  2.7528288E-02;  4.0000000E+04;  0.0000000E+00;  3.9993824E+04; -3.9296303E-02;  0.0000000E+00; -3.2994903E-03;  7.6842230E+02;
  4.1155556E-01;  9.9999998E-03; -3.0006796E-02;4974; -2.4953408E-02;  0.0000000E+00;  1.1312232E-04;  9.9999127E+02;  1.0000000E-01; -7.2096720E+00;3;  1.5921404E+00;  0.0000000E+00;  2.3605737E-01;0; -4.2642403E-02;  4.0006449E+04;  0.0000000E+00;  1.5725959E-02;  4.0000000E+04;  0.0000000E+00;  3.9993656E+04; -3.9258204E-02;  0.0000000E+00; -3.3841988E-03;  8.0221222E+02;
  4.1154337E-01;  9.9999998E-03; -2.0004738E-02;4975; -2.5005048E-02;  0.0000000E+00;  7.7147146E-05;  9.9998730E+02;  1.0000000E-01; -1.0518220E+01;3;  1.5903677E+00;  0.0000000E+00;  1.5767325E-01;0; -4.2674631E-02;  4.0006668E+04;  0.0000000E+00;  7.0630149E-03;  4.0000000E+04;  0.0000000E+00;  3.9993363E+04; -3.9227907E-02;  0.0000000E+00; -3.4467259E-03;  8.3092780E+02;
  4.1153544E-01;  9.9999998E-03; -1.0002439E-02;4976; -2.5036378E-02;  0.0000000E+00;  3.9123825E-05;  9.9998938E+02;  1.0000000E-01; -8.7898741E+00;3;  1.5892845E+00;  0.0000000E+00;  7.8917503E-02;0; -4.2693611E-02;  4.0006695E+04;  0.0000000E+00;  1.7765400E-03;  4.0000000E+04;  0.0000000E+00;  3.9993145E+04; -3.9208528E-02;  0.0000000E+00; -3.4850845E-03;  8.5023615E+02;
  4.1153258E-01;  9.9999998E-03;  1.3209244E-09;4977; -2.5046878E-02;  0.0000000E+00;  5.9059642E-09;  9.9998828E+02;  1.0000000E-01; -9.7281189E+00;3;  1.5889103E+00;  0.0000000E+00; -2.6536076E-05;0; -4.2699885E-02;  4.0006914E+04;  0.0000000E+00; -8.3142403E-14;  4.0000000E+04;  0.0000000E+00;  3.9993160E+04; -3.9201871E-02;  0.0000000E+00; -3.4980134E-03;  8.5704663E+02;
  4.1153544E-01;  9.9999998E-03;  1.0002441E-02;4978; -2.5036378E-02;  0.0000000E+00; -3.9112278E-05;  9.9998932E+02;  1.0000000E-01; -8.8392553E+00;3;  1.5892317E+00;  0.0000000E+00; -7.8968398E-02;0; -4.2693622E-02;  4.0006691E+04;  0.0000000E+00;  1.7764723E-03;  4.0000000E+04;  0.0000000E+00;  3.9993145E+04; -3.9208531E-02;  0.0000000E+00; -3.4850896E-03;  8.5024091E+02;
  4.1154337E-01;  9.9999998E-03;  2.0004740E-02;4979; -2.5005048E-02;  0.0000000E+00; -7.7135650E-05;  9.9998737E+02;  1.0000000E-01; -1.0468839E+01;3;  1.5903275E+00;  0.0000000E+00; -1.5771630E-01;0; -4.2674679E-02;  4.0006664E+04;  0.0000000E+00;  7.0627215E-03;  4.0000000E+04;  0.0000000E+00;  3.9993359E+04; -3.9227948E-02;  0.0000000E+00; -3.4467315E-03;  8.3092334E+02;
  4.1155556E-01;  9.9999998E-03;  3.0006798E-02;4980; -2.4953410E-02;  0.0000000E+00; -1.1311111E-04;  9.9999127E+02;  1.0000000E-01; -7.2096720E+00;3;  1.5921627E+00;  0.0000000E+00; -2.3608826E-01;0; -4.2642437E-02;  4.0006453E+04;  0.0000000E+00;  1.5726019E-02;  4.0000000E+04;  0.0000000E+00;  3.9993656E+04; -3.9258227E-02;  0.0000000E+00; -3.3842102E-03;  8.0221088E+02;
  4.1157094E-01;  9.9999998E-03;  4.0008612E-02;4981; -2.4882369E-02;  0.0000000E+00; -1.4634040E-04;  9.9999060E+02;  1.0000000E-01; -7.8022480E+00;3;  1.5947683E+00;  0.0000000E+00; -3.1399810E-01;0; -4.2595845E-02;  4.0006211E+04;  0.0000000E+00;  2.7527304E-02;  4.0000000E+04;  0.0000000E+00;  3.9993824E+04; -3.9296344E-02;  0.0000000E+00; -3.2995008E-03;  7.6842078E+02;
  4.1158897E-01;  9.9999998E-03;  5.0010249E-02;4982; -2.4793180E-02;  0.0000000E+00; -1.7645516E-04;  9.9999231E+02;  1.0000000E-01; -6.3701897E+00;3;  1.5981132E+00;  0.0000000E+00; -3.9136285E-01;0; -4.2533625E-02;  4.0006113E+04;  0.0000000E+00;  4.2096760E-02;  4.0000000E+04;  0.0000000E+00;  3.9994250E+04; -3.9338492E-02;  0.0000000E+00; -3.1951321E-03;  7.3419623E+02;
  4.1160798E-01;  9.9999998E-03;  6.0011756E-02;4983; -2.4687409E-02;  0.0000000E+00; -2.0343944E-04;  9.9999219E+02;  1.0000000E-01; -6.4689522E+00;3;  1.6022724E+00;  0.0000000E+00; -4.6783534E-01;0; -4.2454500E-02;  4.0005438E+04;  0.0000000E+00;  5.8876526E-02;  4.0000000E+04;  0.0000000E+00;  3.9994535E+04; -3.9380673E-02;  0.0000000E+00; -3.0738255E-03;  7.0349182E+02;
  4.2166057E-01;  9.9999998E-03; -1.0002177E-01;5028; -2.4532666E-02;  0.0000000E+00;  3.8588329E-04;  9.9983405E+02;  1.0000000E-01; -1.3747758E+02;3;  1.7403942E+00;  0.0000000E+00;  8.0373996E-01;0; -4.1627403E-02;  3.9992211E+04;  0.0000000E+00;  1.3082772E-01;  4.0000000E+04;  0.0000000E+00;  3.9994363E+04; -3.8476337E-02;  0.0000000E+00; -3.1510668E-03;  7.1753601E+02;
  4.2166063E-01;  9.9999998E-03; -9.0019494E-02;5029; -2.4681963E-02;  0.0000000E+00;  3.5922512E-04;  9.9983252E+02;  1.0000000E-01; -1.3876149E+02;3;  1.7332805E+00;  0.0000000E+00;  7.2941637E-01;0; -4.1765362E-02;  3.9992660E+04;  0.0000000E+00;  1.1454330E-01;  4.0000000E+04;  0.0000000E+00;  3.9994047E+04; -3.8430981E-02;  0.0000000E+00; -3.3343809E-03;  7.4964697E+02;
  4.2165312E-01;  9.9999998E-03; -8.0017149E-02;5030; -2.4821673E-02;  0.0000000E+00;  3.3066253E-04;  9.9982599E+02;  1.0000000E-01; -1.4414406E+02;3;  1.7273660E+00;  0.0000000E+00;  6.5326393E-01;0; -4.1882291E-02;  3.9992535E+04;  0.0000000E+00;  9.6015729E-02;  4.0000000E+04;  0.0000000E+00;  3.9993688E+04; -3.8371030E-02;  0.0000000E+00; -3.5112610E-03;  7.7914996E+02;
  4.2164063E-01;  9.9999998E-03; -7.0014760E-02;5031; -2.4949966E-02;  0.0000000E+00;  2.9970694E-04;  9.9981610E+02;  1.0000000E-01; -1.5234135E+02;3;  1.7225018E+00;  0.0000000E+00;  5.7531708E-01;0; -4.1979000E-02;  3.9991867E+04;  0.0000000E+00;  7.6855272E-02;  4.0000000E+04;  0.0000000E+00;  3.9993496E+04; -3.8300071E-02;  0.0000000E+00; -3.6789293E-03;  8.0680084E+02;
  4.2162490E-01;  9.9999998E-03; -6.0012318E-02;5032; -2.5065053E-02;  0.0000000E+00;  2.6587429E-04;  9.9980292E+02;  1.0000000E-01; -1.6325462E+02;3;  1.7184960E+00;  0.0000000E+00;  4.9585503E-01;0; -4.2057041E-02;  3.9990984E+04;  0.0000000E+00;  5.8364723E-02;  4.0000000E+04;  0.0000000E+00;  3.9993336E+04; -3.8222685E-02;  0.0000000E+00; -3.8343540E-03;  8.3308142E+02;
  4.2160755E-01;  9.9999998E-03; -5.0009929E-02;5033; -2.5165284E-02;  0.0000000E+00;  2.2879888E-04;  9.9977985E+02;  1.0000000E-01; -1.8241458E+02;3;  1.7151761E+00;  0.0000000E+00;  4.1519231E-01;0; -4.2118352E-02;  3.9989738E+04;  0.0000000E+00;  4.1529816E-02;  4.0000000E+04;  0.0000000E+00;  3.9993020E+04; -3.8144141E-02;  0.0000000E+00; -3.9742095E-03;  8.5809412E+02;
  4.2159012E-01;  9.9999998E-03; -4.0007718E-02;5034; -2.5249209E-02;  0.0000000E+00;  1.8834404E-04;  9.9976233E+02;  1.0000000E-01; -1.9688330E+02;3;  1.7125523E+00;  0.0000000E+00;  3.3347699E-01;0; -4.2164933E-02;  3.9988457E+04;  0.0000000E+00;  2.7053040E-02;  4.0000000E+04;  0.0000000E+00;  3.9992742E+04; -3.8069945E-02;  0.0000000E+00; -4.0949895E-03;  8.8140509E+02;
  4.2157435E-01;  9.9999998E-03; -3.0005660E-02;5035; -2.5315672E-02;  0.0000000E+00;  1.4465161E-04;  9.9974359E+02;  1.0000000E-01; -2.1243842E+02;3;  1.7105688E+00;  0.0000000E+00;  2.5089362E-01;0; -4.2198829E-02;  3.9987480E+04;  0.0000000E+00;  1.5407770E-02;  4.0000000E+04;  0.0000000E+00;  3.9992578E+04; -3.8005542E-02;  0.0000000E+00; -4.1932855E-03;  9.0205750E+02;
  4.2156121E-01;  9.9999998E-03; -2.0003697E-02;5036; -2.5363740E-02;  0.0000000E+00;  9.8169432E-05;  9.9972821E+02;  1.0000000E-01; -2.2517880E+02;3;  1.7091569E+00;  0.0000000E+00;  1.6761236E-01;0; -4.2221747E-02;  3.9986352E+04;  0.0000000E+00;  6.9046044E-03;  4.0000000E+04;  0.0000000E+00;  3.9992457E+04; -3.7955787E-02;  0.0000000E+00; -4.2659617E-03;  9.1862360E+02;
  4.2155302E-01;  9.9999998E-03; -1.0001828E-02;5037; -2.5392834E-02;  0.0000000E+00;  4.9633632E-05;  9.9971649E+02;  1.0000000E-01; -2.3485754E+02;3;  1.7083135E+00;  0.0000000E+00;  8.3896577E-02;0; -4.2234987E-02;  3.9985828E+04;  0.0000000E+00;  1.7342713E-03;  4.0000000E+04;  0.0000000E+00;  3.9992406E+04; -3.7924334E-02;  0.0000000E+00; -4.3106545E-03;  9.2941034E+02;
  4.2155010E-01;  9.9999998E-03;  1.4152254E-09;5038; -2.5402568E-02;  0.0000000E+00;  6.6607448E-09;  9.9971301E+02;  1.0000000E-01; -2.3777104E+02;3;  1.7080156E+00;  0.0000000E+00; -2.7622405E-05;0; -4.2239334E-02;  3.9985648E+04;  0.0000000E+00; -1.7486726E-14;  4.0000000E+04;  0.0000000E+00;  3.9992320E+04; -3.7913602E-02;  0.0000000E+00; -4.3257331E-03;  9.3315979E+02;
  4.2155302E-01;  9.9999998E-03;  1.0001830E-02;5039; -2.5392836E-02;  0.0000000E+00; -4.9620397E-05;  9.9971649E+02;  1.0000000E-01; -2.3485754E+02;3;  1.7083032E+00;  0.0000000E+00; -8.3945513E-02;0; -4.2235032E-02;  3.9985832E+04;  0.0000000E+00;  1.7342228E-03;  4.0000000E+04;  0.0000000E+00;  3.9992410E+04; -3.7924372E-02;  0.0000000E+00; -4.3106596E-03;  9.2940967E+02;
  4.2156121E-01;  9.9999998E-03;  2.0003701E-02;5040; -2.5363740E-02;  0.0000000E+00; -9.8156292E-05;  9.9972815E+02;  1.0000000E-01; -2.2522818E+02;3;  1.7091479E+00;  0.0000000E+00; -1.6765456E-01;0; -4.2221792E-02;  3.9986348E+04;  0.0000000E+00;  6.9043599E-03;  4.0000000E+04;  0.0000000E+00;  3.9992457E+04; -3.7955824E-02;  0.0000000E+00; -4.2659664E-03;  9.1861475E+02;
  4.2157435E-01;  9.9999998E-03;  3.0005662E-02;5041; -2.5315674E-02;  0.0000000E+00; -1.4463901E-04;  9.9974359E+02;  1.0000000E-01; -2.1243842E+02;3;  1.7105998E+00;  0.0000000E+00; -2.5092423E-01;0; -4.2198893E-02;  3.9987480E+04;  0.0000000E+00;  1.5407339E-02;  4.0000000E+04;  0.0000000E+00;  3.9992578E+04; -3.8005594E-02;  0.0000000E+00; -4.1932981E-03;  9.0205170E+02;
  4.2159012E-01;  9.9999998E-03;  4.0007722E-02;5042; -2.5249217E-02;  0.0000000E+00; -1.8833156E-04;  9.9976233E+02;  1.0000000E-01; -1.9688330E+02;3;  1.7125896E+00;  0.0000000E+00; -3.3349940E-01;0; -4.2164993E-02;  3.9988457E+04;  0.0000000E+00;  2.7051665E-02;  4.0000000E+04;  0.0000000E+00;  3.9992746E+04; -3.8069986E-02;  0.0000000E+00; -4.0950058E-03;  8.8139777E+02;
  4.2160755E-01;  9.9999998E-03;  5.0009932E-02;5043; -2.5165290E-02;  0.0000000E+00; -2.2878700E-04;  9.9977991E+02;  1.0000000E-01; -1.8236520E+02;3;  1.7151885E+00;  0.0000000E+00; -4.1520193E-01;0; -4.2118352E-02;  3.9989742E+04;  0.0000000E+00;  4.1529849E-02;  4.0000000E+04;  0.0000000E+00;  3.9993020E+04; -3.8144130E-02;  0.0000000E+00; -3.9742212E-03;  8.5808026E+02;
  4.2162490E-01;  9.9999998E-03;  6.0012322E-02;5044; -2.5065059E-02;  0.0000000E+00; -2.6586256E-04;  9.9980292E+02;  1.0000000E-01; -1.6325462E+02;3;  1.7184775E+00;  0.0000000E+00; -4.9585143E-01;0; -4.2057052E-02;  3.9990977E+04;  0.0000000E+00;  5.8364566E-02;  4.0000000E+04;  0.0000000E+00;  3.9993340E+04; -3.8222682E-02;  0.0000000E+00; -3.8343717E-03;  8.3306995E+02;
  4.3167594E-01;  9.9999998E-03; -1.0002587E-01;5089; -2.4924491E-02;  0.0000000E+00;  4.8704629E-04;  9.9973853E+02;  1.0000000E-01; -2.1663583E+02;3;  1.8553025E+00;  0.0000000E+00;  8.4585035E-01;0; -4.1349366E-02;  3.9985191E+04;  0.0000000E+00;  1.2491141E-01;  4.0000000E+04;  0.0000000E+00;  3.9993734E+04; -3.7474737E-02;  0.0000000E+00; -3.8746309E-03;  7.9253937E+02;
  4.3167904E-01;  9.9999998E-03; -9.0022646E-02;5090; -2.5070041E-02;  0.0000000E+00;  4.5160326E-04;  9.9972675E+02;  1.0000000E-01; -2.2636395E+02;3;  1.8498467E+00;  0.0000000E+00;  7.6833844E-01;0; -4.1481555E-02;  3.9984641E+04;  0.0000000E+00;  1.0900416E-01;  4.0000000E+04;  0.0000000E+00;  3.9993285E+04; -3.7399709E-02;  0.0000000E+00; -4.0818467E-03;  8.4184601E+02;
  4.3167722E-01;  9.9999998E-03; -8.0019228E-02;5091; -2.5205370E-02;  0.0000000E+00;  4.1364867E-04;  9.9970404E+02;  1.0000000E-01; -2.4517824E+02;3;  1.8455646E+00;  0.0000000E+00;  6.8860722E-01;0; -4.1590765E-02;  3.9983520E+04;  0.0000000E+00;  9.1101237E-02;  4.0000000E+04;  0.0000000E+00;  3.9992801E+04; -3.7309088E-02;  0.0000000E+00; -4.2816764E-03;  8.8210620E+02;
  4.3167046E-01;  9.9999998E-03; -7.0015810E-02;5092; -2.5328804E-02;  0.0000000E+00;  3.7277318E-04;  9.9967377E+02;  1.0000000E-01; -2.7026395E+02;3;  1.8422202E+00;  0.0000000E+00;  6.0696274E-01;0; -4.1678645E-02;  3.9981492E+04;  0.0000000E+00;  7.2707415E-02;  4.0000000E+04;  0.0000000E+00;  3.9992586E+04; -3.7207764E-02;  0.0000000E+00; -4.4708820E-03;  9.1285181E+02;
  4.3166009E-01;  9.9999998E-03; -6.0012598E-02;5093; -2.5438823E-02;  0.0000000E+00;  3.2864482E-04;  9.9963824E+02;  1.0000000E-01; -2.9969519E+02;3;  1.8395333E+00;  0.0000000E+00;  5.2359146E-01;0; -4.1747794E-02;  3.9978906E+04;  0.0000000E+00;  5.5049803E-02;  4.0000000E+04;  0.0000000E+00;  3.9992332E+04; -3.7101723E-02;  0.0000000E+00; -4.6460708E-03;  9.3443378E+02;
  4.3164739E-01;  9.9999998E-03; -5.0009727E-02;5094; -2.5534071E-02;  0.0000000E+00;  2.8105979E-04;  9.9960083E+02;  1.0000000E-01; -3.3070667E+02;3;  1.8374379E+00;  0.0000000E+00;  4.3870583E-01;0; -4.1800614E-02;  3.9976293E+04;  0.0000000E+00;  3.9051488E-02;  4.0000000E+04;  0.0000000E+00;  3.9992160E+04; -3.6997091E-02;  0.0000000E+00; -4.8035220E-03;  9.4834546E+02;
  4.3163311E-01;  9.9999998E-03; -4.0007185E-02;5095; -2.5613407E-02;  0.0000000E+00;  2.3001729E-04;  9.9956506E+02;  1.0000000E-01; -3.6033545E+02;3;  1.8357624E+00;  0.0000000E+00;  3.5252362E-01;0; -4.1839831E-02;  3.9973496E+04;  0.0000000E+00;  2.5361428E-02;  4.0000000E+04;  0.0000000E+00;  3.9992008E+04; -3.6900546E-02;  0.0000000E+00; -4.9392842E-03;  9.5648987E+02;
  4.3161938E-01;  9.9999998E-03; -3.0005060E-02;5096; -2.5675939E-02;  0.0000000E+00;  1.7577273E-04;  9.9953418E+02;  1.0000000E-01; -3.8591498E+02;3;  1.8345349E+00;  0.0000000E+00;  2.6528412E-01;0; -4.1867692E-02;  3.9971016E+04;  0.0000000E+00;  1.4405164E-02;  4.0000000E+04;  0.0000000E+00;  3.9991879E+04; -3.6818065E-02;  0.0000000E+00; -5.0496263E-03;  9.6075427E+02;
  4.3160802E-01;  9.9999998E-03; -2.0003216E-02;5097; -2.5721032E-02;  0.0000000E+00;  1.1883062E-04;  9.9951160E+02;  1.0000000E-01; -4.0463049E+02;3;  1.8336387E+00;  0.0000000E+00;  1.7727146E-01;0; -4.1886199E-02;  3.9969008E+04;  0.0000000E+00;  6.4411084E-03;  4.0000000E+04;  0.0000000E+00;  3.9991910E+04; -3.6755040E-02;  0.0000000E+00; -5.1311599E-03;  9.6286987E+02;
  4.3160042E-01;  9.9999998E-03; -1.0001529E-02;5098; -2.5748249E-02;  0.0000000E+00;  5.9932856E-05;  9.9949304E+02;  1.0000000E-01; -4.1998810E+02;3;  1.8331168E+00;  0.0000000E+00;  8.8750161E-02;0; -4.1896682E-02;  3.9967965E+04;  0.0000000E+00;  1.6155951E-03;  4.0000000E+04;  0.0000000E+00;  3.9991887E+04; -3.6715452E-02;  0.0000000E+00; -5.1812301E-03;  9.6373865E+02;
  4.3159804E-01;  9.9999998E-03;  1.5076095E-09;5099; -2.5757356E-02;  0.0000000E+00;  7.4417885E-09;  9.9948547E+02;  1.0000000E-01; -4.2625952E+02;3;  1.8329813E+00;  0.0000000E+00; -2.4475314E-05;0; -4.1900124E-02;  3.9967520E+04;  0.0000000E+00; -3.1700049E-13;  4.0000000E+04;  0.0000000E+00;  3.9991996E+04; -3.6701985E-02;  0.0000000E+00; -5.1981406E-03;  9.6401654E+02;
  4.3160042E-01;  9.9999998E-03;  1.0001532E-02;5100; -2.5748249E-02;  0.0000000E+00; -5.9917984E-05;  9.9949310E+02;  1.0000000E-01; -4.1993872E+02;3;  1.8331263E+00;  0.0000000E+00; -8.8795550E-02;0; -4.1896712E-02;  3.9967965E+04;  0.0000000E+00;  1.6155178E-03;  4.0000000E+04;  0.0000000E+00;  3.9991887E+04; -3.6715474E-02;  0.0000000E+00; -5.1812371E-03;  9.6373047E+02;
  4.3160802E-01;  9.9999998E-03;  2.0003220E-02;5101; -2.5721034E-02;  0.0000000E+00; -1.1881615E-04;  9.9951147E+02;  1.0000000E-01; -4.0472928E+02;3;  1.8336517E+00;  0.0000000E+00; -1.7731585E-01;0; -4.1886184E-02;  3.9969012E+04;  0.0000000E+00;  6.4410549E-03;  4.0000000E+04;  0.0000000E+00;  3.9991910E+04; -3.6755014E-02;  0.0000000E+00; -5.1311706E-03;  9.6286432E+02;
  4.3161938E-01;  9.9999998E-03;  3.0005064E-02;5102; -2.5675943E-02;  0.0000000E+00; -1.7575875E-04;  9.9953418E+02;  1.0000000E-01; -3.8591498E+02;3;  1.8345190E+00;  0.0000000E+00; -2.6531914E-01;0; -4.1867744E-02;  3.9971016E+04;  0.0000000E+00;  1.4405414E-02;  4.0000000E+04;  0.0000000E+00;  3.9991879E+04; -3.6818109E-02;  0.0000000E+00; -5.0496343E-03;  9.6075336E+02;
  4.3163311E-01;  9.9999998E-03;  4.0007189E-02;5103; -2.5613412E-02;  0.0000000E+00; -2.3000328E-04;  9.9956488E+02;  1.0000000E-01; -3.6048361E+02;3;  1.8357424E+00;  0.0000000E+00; -3.5254455E-01;0; -4.1839890E-02;  3.9973496E+04;  0.0000000E+00;  2.5361100E-02;  4.0000000E+04;  0.0000000E+00;  3.9992008E+04; -3.6900591E-02;  0.0000000E+00; -4.9393000E-03;  9.5648016E+02;
  4.3164739E-01;  9.9999998E-03;  5.0009731E-02;5104; -2.5534084E-02;  0.0000000E+00; -2.8104661E-04;  9.9960077E+02;  1.0000000E-01; -3.3075604E+02;3;  1.8374333E+00;  0.0000000E+00; -4.3871322E-01;0; -4.1800663E-02;  3.9976297E+04;  0.0000000E+00;  3.9051395E-02;  4.0000000E+04;  0.0000000E+00;  3.9992168E+04; -3.6997128E-02;  0.0000000E+00; -4.8035332E-03;  9.4834320E+02;
  4.3166009E-01;  9.9999998E-03;  6.0012601E-02;5105; -2.5438834E-02;  0.0000000E+00; -3.2863155E-04;  9.9963824E+02;  1.0000000E-01; -2.9969519E+02;3;  1.8395147E+00;  0.0000000E+00; -5.2358723E-01;0; -4.1747801E-02;  3.9978910E+04;  0.0000000E+00;  5.5048134E-02;  4.0000000E+04;  0.0000000E+00;  3.9992332E+04; -3.7101712E-02;  0.0000000E+00; -4.6460889E-03;  9.3443378E+02;
  4.4169581E-01;  9.9999998E-03; -1.0002839E-01;5150; -2.5309917E-02;  0.0000000E+00;  5.8911613E-04;  9.9969037E+02;  1.0000000E-01; -2.5653595E+02;3;  1.9740276E+00;  0.0000000E+00;  8.8810343E-01;0; -4.1098371E-02;  3.9981891E+04;  0.0000000E+00;  1.0916582E-01;  4.0000000E+04;  0.0000000E+00;  3.9993078E+04; -3.6460221E-02;  0.0000000E+00; -4.6381517E-03;  8.6208459E+02;
  4.4170165E-01;  9.9999998E-03; -9.0024151E-02;5151; -2.5451627E-02;  0.0000000E+00;  5.4426736E-04;  9.9966687E+02;  1.0000000E-01; -2.7599219E+02;3;  1.9705591E+00;  0.0000000E+00;  8.0719614E-01;0; -4.1234940E-02;  3.9980707E+04;  0.0000000E+00;  9.5834501E-02;  4.0000000E+04;  0.0000000E+00;  3.9992520E+04; -3.6364034E-02;  0.0000000E+00; -4.8709074E-03;  9.2027075E+02;
  4.4170323E-01;  9.9999998E-03; -8.0019616E-02;5152; -2.5582673E-02;  0.0000000E+00;  4.9634371E-04;  9.9963708E+02;  1.0000000E-01; -3.0068283E+02;3;  1.9680976E+00;  0.0000000E+00;  7.2388315E-01;0; -4.1346874E-02;  3.9978617E+04;  0.0000000E+00;  8.0456004E-02;  4.0000000E+04;  0.0000000E+00;  3.9992137E+04; -3.6252692E-02;  0.0000000E+00; -5.0941813E-03;  9.6351575E+02;
  4.4170073E-01;  9.9999998E-03; -7.0015281E-02;5153; -2.5701633E-02;  0.0000000E+00;  4.4509827E-04;  9.9959436E+02;  1.0000000E-01; -3.3608923E+02;3;  1.9664614E+00;  0.0000000E+00;  6.3840419E-01;0; -4.1436382E-02;  3.9975641E+04;  0.0000000E+00;  6.4420052E-02;  4.0000000E+04;  0.0000000E+00;  3.9991883E+04; -3.6131844E-02;  0.0000000E+00; -5.3045372E-03;  9.9074408E+02;
  4.4169521E-01;  9.9999998E-03; -6.0011473E-02;5154; -2.5807228E-02;  0.0000000E+00;  3.9037236E-04;  9.9954736E+02;  1.0000000E-01; -3.7500171E+02;3;  1.9653569E+00;  0.0000000E+00;  5.5097139E-01;0; -4.1506313E-02;  3.9972000E+04;  0.0000000E+00;  4.8877995E-02;  4.0000000E+04;  0.0000000E+00;  3.9991820E+04; -3.6007941E-02;  0.0000000E+00; -5.4983706E-03;  1.0028704E+03;
  4.4168767E-01;  9.9999998E-03; -5.0008323E-02;5155; -2.5898332E-02;  0.0000000E+00;  3.3213111E-04;  9.9949548E+02;  1.0000000E-01; -4.1796347E+02;3;  1.9646323E+00;  0.0000000E+00;  4.6181542E-01;0; -4.1559644E-02;  3.9968152E+04;  0.0000000E+00;  3.4713898E-02;  4.0000000E+04;  0.0000000E+00;  3.9991672E+04; -3.5887852E-02;  0.0000000E+00; -5.6717922E-03;  1.0024834E+03;
  4.4167900E-01;  9.9999998E-03; -4.0005833E-02;5156; -2.5974013E-02;  0.0000000E+00;  2.7051629E-04;  9.9944781E+02;  1.0000000E-01; -4.5746851E+02;3;  1.9641086E+00;  0.0000000E+00;  3.7121049E-01;0; -4.1599058E-02;  3.9964473E+04;  0.0000000E+00;  2.2554694E-02;  4.0000000E+04;  0.0000000E+00;  3.9991652E+04; -3.5778280E-02;  0.0000000E+00; -5.8207754E-03;  9.9355011E+02;
  4.4166952E-01;  9.9999998E-03; -3.0003920E-02;5157; -2.6033515E-02;  0.0000000E+00;  2.0587110E-04;  9.9940869E+02;  1.0000000E-01; -4.8991205E+02;3;  1.9638149E+00;  0.0000000E+00;  2.7942529E-01;0; -4.1627068E-02;  3.9961012E+04;  0.0000000E+00;  1.2810688E-02;  4.0000000E+04;  0.0000000E+00;  3.9991828E+04; -3.5685711E-02;  0.0000000E+00; -5.9413570E-03;  9.8059583E+02;
  4.4166148E-01;  9.9999998E-03; -2.0002440E-02;5158; -2.6076354E-02;  0.0000000E+00;  1.3873806E-04;  9.9937274E+02;  1.0000000E-01; -5.1968896E+02;3;  1.9635944E+00;  0.0000000E+00;  1.8676779E-01;0; -4.1645590E-02;  3.9958469E+04;  0.0000000E+00;  5.7270932E-03;  4.0000000E+04;  0.0000000E+00;  3.9991824E+04; -3.5615344E-02;  0.0000000E+00; -6.0302475E-03;  9.6791901E+02;
  4.4165620E-01;  9.9999998E-03; -1.0001173E-02;5159; -2.6102191E-02;  0.0000000E+00;  6.9833739E-05;  9.9935327E+02;  1.0000000E-01; -5.3578729E+02;3;  1.9634370E+00;  0.0000000E+00;  9.3518861E-02;0; -4.1656177E-02;  3.9956707E+04;  0.0000000E+00;  1.4362253E-03;  4.0000000E+04;  0.0000000E+00;  3.9991875E+04; -3.5571441E-02;  0.0000000E+00; -6.0847369E-03;  9.5885107E+02;
  4.4165379E-01;  9.9999998E-03;  1.6076115E-09;5160; -2.6110804E-02;  0.0000000E+00;  8.1763005E-09;  9.9934607E+02;  1.0000000E-01; -5.4176239E+02;3;  1.9634670E+00;  0.0000000E+00; -2.3977776E-05;0; -4.1659579E-02;  3.9956125E+04;  0.0000000E+00; -1.7789732E-12;  4.0000000E+04;  0.0000000E+00;  3.9991961E+04; -3.5556525E-02;  0.0000000E+00; -6.1030537E-03;  9.5557098E+02;
  4.4165620E-01;  9.9999998E-03;  1.0001176E-02;5161; -2.6102191E-02;  0.0000000E+00; -6.9817623E-05;  9.9935327E+02;  1.0000000E-01; -5.3578729E+02;3;  1.9635196E+00;  0.0000000E+00; -9.3561947E-02;0; -4.1656129E-02;  3.9956711E+04;  0.0000000E+00;  1.4362566E-03;  4.0000000E+04;  0.0000000E+00;  3.9991875E+04; -3.5571385E-02;  0.0000000E+00; -6.0847420E-03;  9.5885577E+02;
  4.4166148E-01;  9.9999998E-03;  2.0002443E-02;5162; -2.6076358E-02;  0.0000000E+00; -1.3872214E-04;  9.9937274E+02;  1.0000000E-01; -5.1968896E+02;3;  1.9635731E+00;  0.0000000E+00; -1.8680055E-01;0; -4.1645646E-02;  3.9958465E+04;  0.0000000E+00;  5.7269074E-03;  4.0000000E+04;  0.0000000E+00;  3.9991824E+04; -3.5615392E-02;  0.0000000E+00; -6.0302527E-03;  9.6791895E+02;
  4.4166952E-01;  9.9999998E-03;  3.0003924E-02;5163; -2.6033517E-02;  0.0000000E+00; -2.0585560E-04;  9.9940869E+02;  1.0000000E-01; -4.8991205E+02;3;  1.9638157E+00;  0.0000000E+00; -2.7944842E-01;0; -4.1627076E-02;  3.9961008E+04;  0.0000000E+00;  1.2810448E-02;  4.0000000E+04;  0.0000000E+00;  3.9991828E+04; -3.5685699E-02;  0.0000000E+00; -5.9413747E-03;  9.8058051E+02;
  4.4167900E-01;  9.9999998E-03;  4.0005833E-02;5164; -2.5974022E-02;  0.0000000E+00; -2.7050148E-04;  9.9944775E+02;  1.0000000E-01; -4.5751788E+02;3;  1.9641148E+00;  0.0000000E+00; -3.7122941E-01;0; -4.1599061E-02;  3.9964465E+04;  0.0000000E+00;  2.2553962E-02;  4.0000000E+04;  0.0000000E+00;  3.9991652E+04; -3.5778273E-02;  0.0000000E+00; -5.8207889E-03;  9.9354218E+02;
  4.4168767E-01;  9.9999998E-03;  5.0008323E-02;5165; -2.5898339E-02;  0.0000000E+00; -3.3211670E-04;  9.9949554E+02;  1.0000000E-01; -4.1791406E+02;3;  1.9646376E+00;  0.0000000E+00; -4.6181935E-01;0; -4.1559640E-02;  3.9968152E+04;  0.0000000E+00;  3.4713764E-02;  4.0000000E+04;  0.0000000E+00;  3.9991672E+04; -3.5887830E-02;  0.0000000E+00; -5.6718113E-03;  1.0024714E+03;
  4.4169521E-01;  9.9999998E-03;  6.0011476E-02;5166; -2.5807239E-02;  0.0000000E+00; -3.9035818E-04;  9.9954730E+02;  1.0000000E-01; -3.7505109E+02;3;  1.9653493E+00;  0.0000000E+00; -5.5097461E-01;0; -4.1506384E-02;  3.9972000E+04;  0.0000000E+00;  4.8877895E-02;  4.0000000E+04;  0.0000000E+00;  3.9991816E+04; -3.6007993E-02;  0.0000000E+00; -5.4983911E-03;  1.0028752E+03;
  4.5170423E-01;  9.9999998E-03; -1.0002682E-01;5211; -2.5685078E-02;  0.0000000E+00;  6.9063221E-04;  9.9969196E+02;  1.0000000E-01; -2.5520264E+02;3;  2.0965252E+00;  0.0000000E+00;  9.3034232E-01;0; -4.0858496E-02;  3.9982516E+04;  0.0000000E+00;  8.4280603E-02;  4.0000000E+04;  0.0000000E+00;  3.9992473E+04; -3.5424445E-02;  0.0000000E+00; -5.4340516E-03;  9.2125775E+02;
  4.5171198E-01;  9.9999998E-03; -9.0022109E-02;5212; -2.5823139E-02;  0.0000000E+00;  6.3590542E-04;  9.9966742E+02;  1.0000000E-01; -2.7554773E+02;3;  2.0952718E+00;  0.0000000E+00;  8.4596467E-01;0; -4.1008458E-02;  3.9981133E+04;  0.0000000E+00;  7.5239211E-02;  4.0000000E+04;  0.0000000E+00;  3.9992152E+04; -3.5315584E-02;  0.0000000E+00; -5.6928732E-03;  9.7950873E+02;
  4.5171705E-01;  9.9999998E-03; -8.0017067E-02;5213; -2.5950370E-02;  0.0000000E+00;  5.7765638E-04;  9.9962775E+02;  1.0000000E-01; -3.0838632E+02;3;  2.0948558E+00;  0.0000000E+00;  7.5896579E-01;0; -4.1132085E-02;  3.9978438E+04;  0.0000000E+00;  6.4061582E-02;  4.0000000E+04;  0.0000000E+00;  3.9991555E+04; -3.5192739E-02;  0.0000000E+00; -5.9393463E-03;  1.0188088E+03;
  4.5171976E-01;  9.9999998E-03; -7.0012309E-02;5214; -2.6065571E-02;  0.0000000E+00;  5.1581743E-04;  9.9958246E+02;  1.0000000E-01; -3.4591611E+02;3;  2.0951271E+00;  0.0000000E+00;  6.6959220E-01;0; -4.1231986E-02;  3.9974984E+04;  0.0000000E+00;  5.1905975E-02;  4.0000000E+04;  0.0000000E+00;  3.9991484E+04; -3.5062075E-02;  0.0000000E+00; -6.1699124E-03;  1.0379205E+03;
  4.5172039E-01;  9.9999998E-03; -6.0008228E-02;5215; -2.6167637E-02;  0.0000000E+00;  4.5040488E-04;  9.9952911E+02;  1.0000000E-01; -3.9011240E+02;3;  2.0957778E+00;  0.0000000E+00;  5.7806373E-01;0; -4.1311011E-02;  3.9970832E+04;  0.0000000E+00;  3.9777163E-02;  4.0000000E+04;  0.0000000E+00;  3.9991379E+04; -3.4930166E-02;  0.0000000E+00; -6.3808467E-03;  1.0380779E+03;
  4.5171931E-01;  9.9999998E-03; -5.0005153E-02;5216; -2.6255589E-02;  0.0000000E+00;  3.8155349E-04;  9.9947400E+02;  1.0000000E-01; -4.3579010E+02;3;  2.0966196E+00;  0.0000000E+00;  4.8466149E-01;0; -4.1372079E-02;  3.9966555E+04;  0.0000000E+00;  2.8483875E-02;  4.0000000E+04;  0.0000000E+00;  3.9991480E+04; -3.4803823E-02;  0.0000000E+00; -6.5682563E-03;  1.0228920E+03;
  4.5171714E-01;  9.9999998E-03; -4.0003028E-02;5217; -2.6328620E-02;  0.0000000E+00;  3.0953687E-04;  9.9942267E+02;  1.0000000E-01; -4.7830743E+02;3;  2.0974617E+00;  0.0000000E+00;  3.8966116E-01;0; -4.1418150E-02;  3.9962371E+04;  0.0000000E+00;  1.8630955E-02;  4.0000000E+04;  0.0000000E+00;  3.9991672E+04; -3.4689851E-02;  0.0000000E+00; -6.7282994E-03;  9.9788831E+02;
  4.5171490E-01;  9.9999998E-03; -3.0001702E-02;5218; -2.6386080E-02;  0.0000000E+00;  2.3477364E-04;  9.9938123E+02;  1.0000000E-01; -5.1262744E+02;3;  2.0982277E+00;  0.0000000E+00;  2.9338261E-01;0; -4.1451443E-02;  3.9958625E+04;  0.0000000E+00;  1.0636712E-02;  4.0000000E+04;  0.0000000E+00;  3.9991801E+04; -3.4594126E-02;  0.0000000E+00; -6.8573183E-03;  9.6945276E+02;
  4.5171270E-01;  9.9999998E-03; -2.0000976E-02;5219; -2.6427468E-02;  0.0000000E+00;  1.5780755E-04;  9.9934308E+02;  1.0000000E-01; -5.4423151E+02;3;  2.0987849E+00;  0.0000000E+00;  1.9612186E-01;0; -4.1473795E-02;  3.9955609E+04;  0.0000000E+00;  4.7724256E-03;  4.0000000E+04;  0.0000000E+00;  3.9992074E+04; -3.4521747E-02;  0.0000000E+00; -6.9520483E-03;  9.4382239E+02;
  4.5171094E-01;  9.9999998E-03; -1.0000448E-02;5220; -2.6452422E-02;  0.0000000E+00;  7.9303296E-05;  9.9932056E+02;  1.0000000E-01; -5.6289764E+02;3;  2.0992198E+00;  0.0000000E+00;  9.8216258E-02;0; -4.1486729E-02;  3.9953770E+04;  0.0000000E+00;  1.1993281E-03;  4.0000000E+04;  0.0000000E+00;  3.9992258E+04; -3.4476768E-02;  0.0000000E+00; -7.0099602E-03;  9.2616809E+02;
  4.5171022E-01;  9.9999998E-03;  1.7375208E-09;5221; -2.6460763E-02;  0.0000000E+00;  8.5683300E-09;  9.9931403E+02;  1.0000000E-01; -5.6832959E+02;3;  2.0993156E+00;  0.0000000E+00; -2.4952660E-05;0; -4.1490912E-02;  3.9953086E+04;  0.0000000E+00; -2.3764692E-12;  4.0000000E+04;  0.0000000E+00;  3.9992398E+04; -3.4461480E-02;  0.0000000E+00; -7.0294323E-03;  9.1991180E+02;
  4.5171094E-01;  9.9999998E-03;  1.0000451E-02;5222; -2.6452424E-02;  0.0000000E+00; -7.9286096E-05;  9.9932050E+02;  1.0000000E-01; -5.6294702E+02;3;  2.0991685E+00;  0.0000000E+00; -9.8257840E-02;0; -4.1486707E-02;  3.9953770E+04;  0.0000000E+00;  1.1993551E-03;  4.0000000E+04;  0.0000000E+00;  3.9992258E+04; -3.4476746E-02;  0.0000000E+00; -7.0099612E-03;  9.2616888E+02;
  4.5171270E-01;  9.9999998E-03;  2.0000979E-02;5223; -2.6427468E-02;  0.0000000E+00; -1.5779072E-04;  9.9934308E+02;  1.0000000E-01; -5.4423151E+02;3;  2.0987995E+00;  0.0000000E+00; -1.9616131E-01;0; -4.1473821E-02;  3.9955609E+04;  0.0000000E+00;  4.7724652E-03;  4.0000000E+04;  0.0000000E+00;  3.9992078E+04; -3.4521766E-02;  0.0000000E+00; -6.9520557E-03;  9.4382068E+02;
  4.5171490E-01;  9.9999998E-03;  3.0001704E-02;5224; -2.6386090E-02;  0.0000000E+00; -2.3475659E-04;  9.9938110E+02;  1.0000000E-01; -5.1272620E+02;3;  2.0982604E+00;  0.0000000E+00; -2.9340497E-01;0; -4.1451424E-02;  3.9958633E+04;  0.0000000E+00;  1.0636605E-02;  4.0000000E+04;  0.0000000E+00;  3.9991801E+04; -3.4594096E-02;  0.0000000E+00; -6.8573290E-03;  9.6943933E+02;
  4.5171714E-01;  9.9999998E-03;  4.0003031E-02;5225; -2.6328629E-02;  0.0000000E+00; -3.0952055E-04;  9.9942267E+02;  1.0000000E-01; -4.7830743E+02;3;  2.0974510E+00;  0.0000000E+00; -3.8967881E-01;0; -4.1418158E-02;  3.9962371E+04;  0.0000000E+00;  1.8631909E-02;  4.0000000E+04;  0.0000000E+00;  3.9991668E+04; -3.4689851E-02;  0.0000000E+00; -6.7283064E-03;  9.9788843E+02;
  4.5171931E-01;  9.9999998E-03;  5.0005157E-02;5226; -2.6255602E-02;  0.0000000E+00; -3.8153722E-04;  9.9947406E+02;  1.0000000E-01; -4.3574072E+02;3;  2.0966127E+00;  0.0000000E+00; -4.8466951E-01;0; -4.1372202E-02;  3.9966555E+04;  0.0000000E+00;  2.8484125E-02;  4.0000000E+04;  0.0000000E+00;  3.9991480E+04; -3.4803934E-02;  0.0000000E+00; -6.5682693E-03;  1.0228779E+03;
  4.5172039E-01;  9.9999998E-03;  6.0008232E-02;5227; -2.6167648E-02;  0.0000000E+00; -4.5038885E-04;  9.9952911E+02;  1.0000000E-01; -3.9011240E+02;3;  2.0957999E+00;  0.0000000E+00; -5.7806849E-01;0; -4.1311055E-02;  3.9970832E+04;  0.0000000E+00;  3.9778579E-02;  4.0000000E+04;  0.0000000E+00;  3.9991379E+04; -3.4930199E-02;  0.0000000E+00; -6.3808546E-03;  1.0380864E+03;
  4.6169493E-01;  9.9999998E-03; -1.0002120E-01;5272; -2.6046287E-02;  0.0000000E+00;  7.9111266E-04;  9.9973810E+02;  1.0000000E-01; -2.1698151E+02;3;  2.2227981E+00;  0.0000000E+00;  9.7252071E-01;0; -4.0618666E-02;  3.9986664E+04;  0.0000000E+00;  5.1622633E-02;  4.0000000E+04;  0.0000000E+00;  3.9992078E+04; -3.4363549E-02;  0.0000000E+00; -6.2551182E-03;  9.6774969E+02;
  4.6170545E-01;  9.9999998E-03; -9.0016760E-02;5273; -2.6181132E-02;  0.0000000E+00;  7.2618213E-04;  9.9971210E+02;  1.0000000E-01; -2.3851175E+02;3;  2.2239890E+00;  0.0000000E+00;  8.8461995E-01;0; -4.0788952E-02;  3.9985184E+04;  0.0000000E+00;  4.7828402E-02;  4.0000000E+04;  0.0000000E+00;  3.9991781E+04; -3.4249324E-02;  0.0000000E+00; -6.5396270E-03;  1.0181529E+03;
  4.6171522E-01;  9.9999998E-03; -8.0012105E-02;5274; -2.6305165E-02;  0.0000000E+00;  6.5740483E-04;  9.9967780E+02;  1.0000000E-01; -2.6695538E+02;3;  2.2259126E+00;  0.0000000E+00;  7.9388809E-01;0; -4.0931262E-02;  3.9982734E+04;  0.0000000E+00;  4.2024296E-02;  4.0000000E+04;  0.0000000E+00;  3.9991465E+04; -3.4122974E-02;  0.0000000E+00; -6.8082893E-03;  1.0481193E+03;
  4.6172366E-01;  9.9999998E-03; -7.0007771E-02;5275; -2.6417375E-02;  0.0000000E+00;  5.8488135E-04;  9.9963318E+02;  1.0000000E-01; -3.0389261E+02;3;  2.2283235E+00;  0.0000000E+00;  7.0058382E-01;0; -4.1048206E-02;  3.9979117E+04;  0.0000000E+00;  3.4987193E-02;  4.0000000E+04;  0.0000000E+00;  3.9991242E+04; -3.3990800E-02;  0.0000000E+00; -7.0574074E-03;  1.0565243E+03;
  4.6173096E-01;  9.9999998E-03; -6.0004164E-02;5276; -2.6516801E-02;  0.0000000E+00;  5.0881022E-04;  9.9958191E+02;  1.0000000E-01; -3.4636053E+02;3;  2.2309232E+00;  0.0000000E+00;  6.0496449E-01;0; -4.1142549E-02;  3.9975375E+04;  0.0000000E+00;  2.7448827E-02;  4.0000000E+04;  0.0000000E+00;  3.9991379E+04; -3.3859208E-02;  0.0000000E+00; -7.2833407E-03;  1.0448369E+03;
  4.6173677E-01;  9.9999998E-03; -5.0001550E-02;5277; -2.6602555E-02;  0.0000000E+00;  4.2948188E-04;  9.9953210E+02;  1.0000000E-01; -3.8764334E+02;3;  2.2334492E+00;  0.0000000E+00;  5.0731385E-01;0; -4.1217089E-02;  3.9971031E+04;  0.0000000E+00;  2.0053156E-02;  4.0000000E+04;  0.0000000E+00;  3.9991504E+04; -3.3734649E-02;  0.0000000E+00; -7.4824379E-03;  1.0171342E+03;
  4.6174166E-01;  9.9999998E-03; -3.9999969E-02;5278; -2.6673876E-02;  0.0000000E+00;  3.4728253E-04;  9.9948834E+02;  1.0000000E-01; -4.2388922E+02;3;  2.2357318E+00;  0.0000000E+00;  4.0795207E-01;0; -4.1274495E-02;  3.9966977E+04;  0.0000000E+00;  1.3333627E-02;  4.0000000E+04;  0.0000000E+00;  3.9991789E+04; -3.3623260E-02;  0.0000000E+00; -7.6512354E-03;  9.7964740E+02;
  4.6174523E-01;  9.9999998E-03; -2.9999327E-02;5279; -2.6730072E-02;  0.0000000E+00;  2.6267293E-04;  9.9944281E+02;  1.0000000E-01; -4.6161655E+02;3;  2.2376485E+00;  0.0000000E+00;  3.0719650E-01;0; -4.1316919E-02;  3.9963477E+04;  0.0000000E+00;  7.7105612E-03;  4.0000000E+04;  0.0000000E+00;  3.9992242E+04; -3.3530504E-02;  0.0000000E+00; -7.7864164E-03;  9.3975934E+02;
  4.6174806E-01;  9.9999998E-03; -1.9999314E-02;5280; -2.6770625E-02;  0.0000000E+00;  1.7618977E-04;  9.9941119E+02;  1.0000000E-01; -4.8783801E+02;3;  2.2390964E+00;  0.0000000E+00;  2.0538551E-01;0; -4.1345961E-02;  3.9960598E+04;  0.0000000E+00;  3.4914059E-03;  4.0000000E+04;  0.0000000E+00;  3.9992371E+04; -3.3460733E-02;  0.0000000E+00; -7.8852288E-03;  9.0483698E+02;
  4.6175015E-01;  9.9999998E-03; -9.9996161E-03;5281; -2.6795134E-02;  0.0000000E+00;  8.8424968E-05;  9.9939404E+02;  1.0000000E-01; -5.0201047E+02;3;  2.2400274E+00;  0.0000000E+00;  1.0286120E-01;0; -4.1362923E-02;  3.9959098E+04;  0.0000000E+00;  8.8219246E-04;  4.0000000E+04;  0.0000000E+00;  3.9992648E+04; -3.3417441E-02;  0.0000000E+00; -7.9454826E-03;  8.8117932E+02;
  4.6175098E-01;  9.9999998E-03;  1.8922790E-09;5282; -2.6803337E-02;  0.0000000E+00;  8.8604830E-09;  9.9938617E+02;  1.0000000E-01; -5.0852878E+02;3;  2.2403374E+00;  0.0000000E+00; -2.0396625E-05;0; -4.1368559E-02;  3.9958445E+04;  0.0000000E+00; -1.6559998E-12;  4.0000000E+04;  0.0000000E+00;  3.9992680E+04; -3.3402812E-02;  0.0000000E+00; -7.9657473E-03;  8.7281714E+02;
  4.6175015E-01;  9.9999998E-03;  9.9996198E-03;5283; -2.6795138E-02;  0.0000000E+00; -8.8407287E-05;  9.9939404E+02;  1.0000000E-01; -5.0201047E+02;3;  2.2400393E+00;  0.0000000E+00; -1.0289720E-01;0; -4.1362967E-02;  3.9959098E+04;  0.0000000E+00;  8.8239327E-04;  4.0000000E+04;  0.0000000E+00;  3.9992652E+04; -3.3417478E-02;  0.0000000E+00; -7.9454891E-03;  8.8117542E+02;
  4.6174806E-01;  9.9999998E-03;  1.9999316E-02;5284; -2.6770629E-02;  0.0000000E+00; -1.7617195E-04;  9.9941119E+02;  1.0000000E-01; -4.8783801E+02;3;  2.2391348E+00;  0.0000000E+00; -2.0541526E-01;0; -4.1345991E-02;  3.9960602E+04;  0.0000000E+00;  3.4914284E-03;  4.0000000E+04;  0.0000000E+00;  3.9992367E+04; -3.3460755E-02;  0.0000000E+00; -7.8852363E-03;  9.0484076E+02;
  4.6174523E-01;  9.9999998E-03;  2.9999329E-02;5285; -2.6730077E-02;  0.0000000E+00; -2.6265497E-04;  9.9944287E+02;  1.0000000E-01; -4.6156717E+02;3;  2.2376761E+00;  0.0000000E+00; -3.0721945E-01;0; -4.1316930E-02;  3.9963477E+04;  0.0000000E+00;  7.7111260E-03;  4.0000000E+04;  0.0000000E+00;  3.9992242E+04; -3.3530507E-02;  0.0000000E+00; -7.7864216E-03;  9.3975604E+02;
  4.6174166E-01;  9.9999998E-03;  3.9999969E-02;5286; -2.6673887E-02;  0.0000000E+00; -3.4726507E-04;  9.9948828E+02;  1.0000000E-01; -4.2393860E+02;3;  2.2357187E+00;  0.0000000E+00; -4.0797329E-01;0; -4.1274521E-02;  3.9966973E+04;  0.0000000E+00;  1.3333588E-02;  4.0000000E+04;  0.0000000E+00;  3.9991785E+04; -3.3623278E-02;  0.0000000E+00; -7.6512434E-03;  9.7964490E+02;
  4.6173677E-01;  9.9999998E-03;  5.0001554E-02;5287; -2.6602566E-02;  0.0000000E+00; -4.2946477E-04;  9.9953217E+02;  1.0000000E-01; -3.8759393E+02;3;  2.2334533E+00;  0.0000000E+00; -5.0731999E-01;0; -4.1217171E-02;  3.9971031E+04;  0.0000000E+00;  2.0052485E-02;  4.0000000E+04;  0.0000000E+00;  3.9991508E+04; -3.3734724E-02;  0.0000000E+00; -7.4824463E-03;  1.0171234E+03;
  4.6173096E-01;  9.9999998E-03;  6.0004167E-02;5288; -2.6516814E-02;  0.0000000E+00; -5.0879322E-04;  9.9958179E+02;  1.0000000E-01; -3.4645932E+02;3;  2.2309165E+00;  0.0000000E+00; -6.0496420E-01;0; -4.1142620E-02;  3.9975379E+04;  0.0000000E+00;  2.7448526E-02;  4.0000000E+04;  0.0000000E+00;  3.9991379E+04; -3.3859260E-02;  0.0000000E+00; -7.2833593E-03;  1.0448241E+03;
  4.7166815E-01;  9.9999998E-03; -1.0001535E-01;5333; -2.6390515E-02;  0.0000000E+00;  8.9084776E-04;  9.9981079E+02;  1.0000000E-01; -1.5673630E+02;3;  2.3528798E+00;  0.0000000E+00;  1.0147181E+00;0; -4.0373165E-02;  3.9992863E+04;  0.0000000E+00;  1.3182416E-02;  4.0000000E+04;  0.0000000E+00;  3.9991883E+04; -3.3278849E-02;  0.0000000E+00; -7.0943176E-03;  1.0035224E+03;
  4.7168037E-01;  9.9999998E-03; -9.0011925E-02;5334; -2.6522566E-02;  0.0000000E+00;  8.1547309E-04;  9.9979034E+02;  1.0000000E-01; -1.7367409E+02;3;  2.3567386E+00;  0.0000000E+00;  9.2325151E-01;0; -4.0568367E-02;  3.9991680E+04;  0.0000000E+00;  1.4680211E-02;  4.0000000E+04;  0.0000000E+00;  3.9991617E+04; -3.3165306E-02;  0.0000000E+00; -7.4030613E-03;  1.0400033E+03;
  4.7169280E-01;  9.9999998E-03; -8.0008268E-02;5335; -2.6643926E-02;  0.0000000E+00;  7.3603081E-04;  9.9976172E+02;  1.0000000E-01; -1.9742650E+02;3;  2.3611884E+00;  0.0000000E+00;  8.2873994E-01;0; -4.0733993E-02;  3.9989648E+04;  0.0000000E+00;  1.4734003E-02;  4.0000000E+04;  0.0000000E+00;  3.9991344E+04; -3.3042144E-02;  0.0000000E+00; -7.6918509E-03;  1.0571178E+03;
  4.7170547E-01;  9.9999998E-03; -7.0004806E-02;5336; -2.6753787E-02;  0.0000000E+00;  6.5280002E-04;  9.9972479E+02;  1.0000000E-01; -2.2799353E+02;3;  2.3658378E+00;  0.0000000E+00;  7.3147094E-01;0; -4.0872488E-02;  3.9986758E+04;  0.0000000E+00;  1.3594809E-02;  4.0000000E+04;  0.0000000E+00;  3.9991512E+04; -3.2915365E-02;  0.0000000E+00; -7.9571242E-03;  1.0541134E+03;
  4.7171798E-01;  9.9999998E-03; -6.0001858E-02;5337; -2.6851298E-02;  0.0000000E+00;  5.6614133E-04;  9.9968634E+02;  1.0000000E-01; -2.5984448E+02;3;  2.3705297E+00;  0.0000000E+00;  6.3173270E-01;0; -4.0986307E-02;  3.9983598E+04;  0.0000000E+00;  1.1572807E-02;  4.0000000E+04;  0.0000000E+00;  3.9991484E+04; -3.2790858E-02;  0.0000000E+00; -8.1954505E-03;  1.0325518E+03;
  4.7173008E-01;  9.9999998E-03; -4.9999736E-02;5338; -2.6935631E-02;  0.0000000E+00;  4.7648014E-04;  9.9964691E+02;  1.0000000E-01; -2.9253491E+02;3;  2.3748732E+00;  0.0000000E+00;  5.2983385E-01;0; -4.1077968E-02;  3.9980117E+04;  0.0000000E+00;  9.0217497E-03;  4.0000000E+04;  0.0000000E+00;  3.9991898E+04; -3.2674316E-02;  0.0000000E+00; -8.4036523E-03;  9.9641113E+02;
  4.7174114E-01;  9.9999998E-03; -3.9998520E-02;5339; -2.7005970E-02;  0.0000000E+00;  3.8427772E-04;  9.9961163E+02;  1.0000000E-01; -3.2176865E+02;3;  2.3787131E+00;  0.0000000E+00;  4.2610684E-01;0; -4.1149836E-02;  3.9976934E+04;  0.0000000E+00;  6.3106022E-03;  4.0000000E+04;  0.0000000E+00;  3.9992246E+04; -3.2571115E-02;  0.0000000E+00; -8.5787224E-03;  9.5180835E+02;
  4.7175050E-01;  9.9999998E-03; -2.9998146E-02;5340; -2.7061570E-02;  0.0000000E+00;  2.9002011E-04;  9.9957867E+02;  1.0000000E-01; -3.4907651E+02;3;  2.3818927E+00;  0.0000000E+00;  3.2089388E-01;0; -4.1203842E-02;  3.9974020E+04;  0.0000000E+00;  3.7914717E-03;  4.0000000E+04;  0.0000000E+00;  3.9992406E+04; -3.2485832E-02;  0.0000000E+00; -8.7180100E-03;  9.0618872E+02;
  4.7175765E-01;  9.9999998E-03; -1.9998450E-02;5341; -2.7101789E-02;  0.0000000E+00;  1.9421261E-04;  9.9955396E+02;  1.0000000E-01; -3.6952039E+02;3;  2.3842776E+00;  0.0000000E+00;  2.1455492E-01;0; -4.1241445E-02;  3.9971762E+04;  0.0000000E+00;  1.7633096E-03;  4.0000000E+04;  0.0000000E+00;  3.9992707E+04; -3.2422196E-02;  0.0000000E+00; -8.8192467E-03;  8.6706506E+02;
  4.7176224E-01;  9.9999998E-03; -9.9991728E-03;5342; -2.7126139E-02;  0.0000000E+00;  9.7370474E-05;  9.9954163E+02;  1.0000000E-01; -3.7974231E+02;3;  2.3857067E+00;  0.0000000E+00;  1.0746100E-01;0; -4.1263558E-02;  3.9970484E+04;  0.0000000E+00;  4.5267161E-04;  4.0000000E+04;  0.0000000E+00;  3.9993016E+04; -3.2382820E-02;  0.0000000E+00; -8.8807382E-03;  8.4078711E+02;
  4.7176388E-01;  9.9999998E-03;  2.0467348E-09;5343; -2.7134290E-02;  0.0000000E+00;  9.2575716E-09;  9.9953540E+02;  1.0000000E-01; -3.8492737E+02;3;  2.3862045E+00;  0.0000000E+00; -1.6244689E-05;0; -4.1270927E-02;  3.9969707E+04;  0.0000000E+00; -1.9983177E-12;  4.0000000E+04;  0.0000000E+00;  3.9993172E+04; -3.2369576E-02;  0.0000000E+00; -8.9013511E-03;  8.3158246E+02;
  4.7176224E-01;  9.9999998E-03;  9.9991765E-03;5344; -2.7126137E-02;  0.0000000E+00; -9.7351658E-05;  9.9954156E+02;  1.0000000E-01; -3.7979169E+02;3;  2.3857608E+00;  0.0000000E+00; -1.0749034E-01;0; -4.1263577E-02;  3.9970484E+04;  0.0000000E+00;  4.5287178E-04;  4.0000000E+04;  0.0000000E+00;  3.9993016E+04; -3.2382842E-02;  0.0000000E+00; -8.8807344E-03;  8.4078796E+02;
  4.7175765E-01;  9.9999998E-03;  1.9998454E-02;5345; -2.7101791E-02;  0.0000000E+00; -1.9419417E-04;  9.9955396E+02;  1.0000000E-01; -3.6952039E+02;3;  2.3842523E+00;  0.0000000E+00; -2.1458463E-01;0; -4.1241422E-02;  3.9971762E+04;  0.0000000E+00;  1.7636316E-03;  4.0000000E+04;  0.0000000E+00;  3.9992707E+04; -3.2422166E-02;  0.0000000E+00; -8.8192560E-03;  8.6705981E+02;
  4.7175050E-01;  9.9999998E-03;  2.9998150E-02;5346; -2.7061576E-02;  0.0000000E+00; -2.9000157E-04;  9.9957861E+02;  1.0000000E-01; -3.4912592E+02;3;  2.3818934E+00;  0.0000000E+00; -3.2092169E-01;0; -4.1203842E-02;  3.9974023E+04;  0.0000000E+00;  3.7920985E-03;  4.0000000E+04;  0.0000000E+00;  3.9992406E+04; -3.2485828E-02;  0.0000000E+00; -8.7180147E-03;  9.0618250E+02;
  4.7174114E-01;  9.9999998E-03;  3.9998524E-02;5347; -2.7005982E-02;  0.0000000E+00; -3.8425936E-04;  9.9961157E+02;  1.0000000E-01; -3.2181802E+02;3;  2.3787179E+00;  0.0000000E+00; -4.2612210E-01;0; -4.1149870E-02;  3.9976934E+04;  0.0000000E+00;  6.3108443E-03;  4.0000000E+04;  0.0000000E+00;  3.9992250E+04; -3.2571126E-02;  0.0000000E+00; -8.5787438E-03;  9.5180627E+02;
  4.7173008E-01;  9.9999998E-03;  4.9999740E-02;5348; -2.6935641E-02;  0.0000000E+00; -4.7646218E-04;  9.9964691E+02;  1.0000000E-01; -2.9253491E+02;3;  2.3748660E+00;  0.0000000E+00; -5.2984869E-01;0; -4.1078012E-02;  3.9980117E+04;  0.0000000E+00;  9.0211090E-03;  4.0000000E+04;  0.0000000E+00;  3.9991898E+04; -3.2674346E-02;  0.0000000E+00; -8.4036654E-03;  9.9640002E+02;
  4.7171798E-01;  9.9999998E-03;  6.0001861E-02;5349; -2.6851313E-02;  0.0000000E+00; -5.6612294E-04;  9.9968640E+02;  1.0000000E-01; -2.5979510E+02;3;  2.3705144E+00;  0.0000000E+00; -6.3173455E-01;0; -4.0986344E-02;  3.9983598E+04;  0.0000000E+00;  1.1573162E-02;  4.0000000E+04;  0.0000000E+00;  3.9991484E+04; -3.2790866E-02;  0.0000000E+00; -8.1954785E-03;  1.0325490E+03;
  4.8166835E-01;  9.9999998E-03; -1.0001177E-01;5394; -2.6717158E-02;  0.0000000E+00;  9.9090661E-04;  9.9990179E+02;  1.0000148E-01; -8.1380409E+01;3;  2.4873817E+00;  0.0000000E+00;  1.0572115E+00;0; -4.0119074E-02;  3.9999449E+04;  0.0000000E+00; -2.8370783E-02;  4.0000000E+04;  0.0000000E+00;  3.9991754E+04; -3.2170735E-02;  0.0000000E+00; -7.9483399E-03;  1.0343916E+03;
  4.8168337E-01;  9.9999998E-03; -9.0009421E-02;5395; -2.6846875E-02;  0.0000000E+00;  9.0490311E-04;  9.9989374E+02;  1.0000148E-01; -8.8046883E+01;3;  2.4940732E+00;  0.0000000E+00;  9.6210635E-01;0; -4.0341616E-02;  3.9998855E+04;  0.0000000E+00; -2.2404967E-02;  4.0000000E+04;  0.0000000E+00;  3.9991574E+04; -3.2062352E-02;  0.0000000E+00; -8.2792630E-03;  1.0536204E+03;
  4.8170123E-01;  9.9999998E-03; -8.0006748E-02;5396; -2.6966151E-02;  0.0000000E+00;  8.1471109E-04;  9.9987372E+02;  1.0000142E-01; -1.0463901E+02;3;  2.5012329E+00;  0.0000000E+00;  8.6377531E-01;0; -4.0533084E-02;  3.9997426E+04;  0.0000000E+00; -1.6761361E-02;  4.0000000E+04;  0.0000000E+00;  3.9991539E+04; -3.1947106E-02;  0.0000000E+00; -8.5859774E-03;  1.0566361E+03;
  4.8174116E-01;  9.9999998E-03; -6.0001548E-02;5398; -2.7170571E-02;  0.0000000E+00;  6.2354939E-04;  9.9982843E+02;  1.0000145E-01; -1.4211943E+02;3;  2.5153265E+00;  0.0000000E+00;  6.5862012E-01;0; -4.0830720E-02;  3.9993590E+04;  0.0000000E+00; -7.7493964E-03;  4.0000000E+04;  0.0000000E+00;  3.9991602E+04; -3.1717431E-02;  0.0000000E+00; -9.1132894E-03;  1.0154156E+03;
  4.8174116E-01;  9.9999998E-03;  6.0001552E-02;5410; -2.7170582E-02;  0.0000000E+00; -6.2352972E-04;  9.9982843E+02;  1.0000145E-01; -1.4211943E+02;3;  2.5153611E+00;  0.0000000E+00; -6.5862346E-01;0; -4.0830821E-02;  3.9993586E+04;  0.0000000E+00; -7.7488078E-03;  4.0000000E+04;  0.0000000E+00;  3.9991602E+04; -3.1717509E-02;  0.0000000E+00; -9.1133136E-03;  1.0154128E+03;
  4.8172086E-01;  9.9999998E-03; -7.0004046E-02;5397; -2.7074309E-02;  0.0000000E+00;  7.2076073E-04;  9.9985144E+02;  1.0000142E-01; -1.2305824E+02;3;  2.5084133E+00;  0.0000000E+00;  7.6251185E-01;0; -4.0695369E-02;  3.9995762E+04;  0.0000000E+00; -1.1797944E-02;  4.0000000E+04;  0.0000000E+00;  3.9991520E+04; -3.1830356E-02;  0.0000000E+00; -8.8650119E-03;  1.0433970E+03;
  4.8176128E-01;  9.9999998E-03; -4.9999561E-02;5399; -2.7254105E-02;  0.0000000E+00;  5.2360492E-04;  9.9980652E+02;  1.0000148E-01; -1.6029175E+02;3;  2.5217049E+00;  0.0000000E+00;  5.5244070E-01;0; -4.0941410E-02;  3.9991273E+04;  0.0000000E+00; -4.6960618E-03;  4.0000000E+04;  0.0000000E+00;  3.9992105E+04; -3.1613227E-02;  0.0000000E+00; -9.3281819E-03;  9.7615802E+02;
  4.8176128E-01;  9.9999998E-03;  4.9999565E-02;5409; -2.7254116E-02;  0.0000000E+00; -5.2358554E-04;  9.9980652E+02;  1.0000148E-01; -1.6029175E+02;3;  2.5216825E+00;  0.0000000E+00; -5.5245191E-01;0; -4.0941447E-02;  3.9991266E+04;  0.0000000E+00; -4.6940180E-03;  4.0000000E+04;  0.0000000E+00;  3.9992109E+04; -3.1613249E-02;  0.0000000E+00; -9.3281958E-03;  9.7616296E+02;
  4.8181599E-01;  9.9999998E-03; -9.9991551E-03;5403; -2.7444210E-02;  0.0000000E+00;  1.0640363E-04;  9.9974158E+02;  1.0000148E-01; -2.1411739E+02;3;  2.5371802E+00;  0.0000000E+00;  1.1206813E-01;0; -4.1171197E-02;  3.9985180E+04;  0.0000000E+00; -1.0689197E-04;  4.0000000E+04;  0.0000000E+00;  3.9993344E+04; -3.1358089E-02;  0.0000000E+00; -9.8131085E-03;  8.2332324E+02;
  4.8181850E-01;  9.9999998E-03;  2.1732824E-09;5404; -2.7452391E-02;  0.0000000E+00;  9.7759285E-09;  9.9973804E+02;  1.0000145E-01; -2.1703088E+02;3;  2.5378814E+00;  0.0000000E+00; -1.5416234E-05;0; -4.1180518E-02;  3.9984879E+04;  0.0000000E+00; -1.4965012E-12;  4.0000000E+04;  0.0000000E+00;  3.9993355E+04; -3.1346690E-02;  0.0000000E+00; -9.8338276E-03;  8.1455255E+02;
  4.8181599E-01;  9.9999998E-03;  9.9991597E-03;5405; -2.7444210E-02;  0.0000000E+00; -1.0638403E-04;  9.9974152E+02;  1.0000148E-01; -2.1416676E+02;3;  2.5371900E+00;  0.0000000E+00; -1.1209773E-01;0; -4.1171223E-02;  3.9985184E+04;  0.0000000E+00; -1.0683915E-04;  4.0000000E+04;  0.0000000E+00;  3.9993344E+04; -3.1358112E-02;  0.0000000E+00; -9.8131122E-03;  8.2332233E+02;
  4.8180819E-01;  9.9999998E-03; -1.9998387E-02;5402; -2.7419783E-02;  0.0000000E+00;  2.1238807E-04;  9.9975177E+02;  1.0000151E-01; -2.0567319E+02;3;  2.5351381E+00;  0.0000000E+00;  2.2375184E-01;0; -4.1143306E-02;  3.9986035E+04;  0.0000000E+00; -4.7487853E-04;  4.0000000E+04;  0.0000000E+00;  3.9993195E+04; -3.1392071E-02;  0.0000000E+00; -9.7512342E-03;  8.4839185E+02;
  4.8180819E-01;  9.9999998E-03;  1.9998392E-02;5406; -2.7419791E-02;  0.0000000E+00; -2.1236860E-04;  9.9975177E+02;  1.0000151E-01; -2.0567319E+02;3;  2.5350902E+00;  0.0000000E+00; -2.2377872E-01;0; -4.1143309E-02;  3.9986039E+04;  0.0000000E+00; -4.7453778E-04;  4.0000000E+04;  0.0000000E+00;  3.9993195E+04; -3.1392083E-02;  0.0000000E+00; -9.7512277E-03;  8.4837726E+02;
  4.8179600E-01;  9.9999998E-03; -2.9998017E-02;5401; -2.7379526E-02;  0.0000000E+00;  3.1754634E-04;  9.9976288E+02;  1.0000148E-01; -1.9643887E+02;3;  2.5317500E+00;  0.0000000E+00;  3.3463028E-01;0; -4.1096289E-02;  3.9987438E+04;  0.0000000E+00; -1.2360172E-03;  4.0000000E+04;  0.0000000E+00;  3.9992852E+04; -3.1447377E-02;  0.0000000E+00; -9.6489126E-03;  8.8608118E+02;
  4.8179600E-01;  9.9999998E-03;  2.9998023E-02;5407; -2.7379531E-02;  0.0000000E+00; -3.1752713E-04;  9.9976288E+02;  1.0000148E-01; -1.9643887E+02;3;  2.5317740E+00;  0.0000000E+00; -3.3465487E-01;0; -4.1096326E-02;  3.9987438E+04;  0.0000000E+00; -1.2359333E-03;  4.0000000E+04;  0.0000000E+00;  3.9992852E+04; -3.1447385E-02;  0.0000000E+00; -9.6489415E-03;  8.8606689E+02;
  4.8178002E-01;  9.9999998E-03; -3.9998330E-02;5400; -2.7324041E-02;  0.0000000E+00;  4.2144035E-04;  9.9978076E+02;  1.0000148E-01; -1.8162448E+02;3;  2.5272462E+00;  0.0000000E+00;  4.4432023E-01;0; -4.1029397E-02;  3.9989152E+04;  0.0000000E+00; -2.5767239E-03;  4.0000000E+04;  0.0000000E+00;  3.9992402E+04; -3.1522017E-02;  0.0000000E+00; -9.5073814E-03;  9.3085895E+02;
  4.8178002E-01;  9.9999998E-03;  3.9998338E-02;5408; -2.7324049E-02;  0.0000000E+00; -4.2142087E-04;  9.9978076E+02;  1.0000148E-01; -1.8162448E+02;3;  2.5272329E+00;  0.0000000E+00; -4.4433877E-01;0; -4.1029386E-02;  3.9989148E+04;  0.0000000E+00; -2.5763845E-03;  4.0000000E+04;  0.0000000E+00;  3.9992402E+04; -3.1522002E-02;  0.0000000E+00; -9.5073851E-03;  9.3085480E+02;
  4.9190447E-01;  9.9999998E-03; -9.9981772E-03;5464; -2.7747139E-02;  0.0000000E+00;  1.1567534E-04;  9.9992371E+02;  1.0000206E-01; -6.3208084E+01;3;  2.6945300E+00;  0.0000000E+00;  1.1668710E-01;0; -4.1072272E-02;  3.9999234E+04;  0.0000000E+00; -7.8539550E-04;  4.0000000E+04;  0.0000000E+00;  3.9993211E+04; -3.0339042E-02;  0.0000000E+00; -1.0733230E-02;  8.4220105E+02;
  4.9190700E-01;  9.9999998E-03;  2.2108368E-09;5465; -2.7755370E-02;  0.0000000E+00;  1.0184975E-08;  9.9992505E+02;  1.0000201E-01; -6.2072315E+01;3;  2.6954134E+00;  0.0000000E+00; -1.4134154E-05;0; -4.1083492E-02;  3.9999090E+04;  0.0000000E+00; -1.6576743E-12;  4.0000000E+04;  0.0000000E+00;  3.9993242E+04; -3.0329816E-02;  0.0000000E+00; -1.0753677E-02;  8.3507800E+02;
  4.9190447E-01;  9.9999998E-03;  9.9981818E-03;5466; -2.7747139E-02;  0.0000000E+00; -1.1565501E-04;  9.9992371E+02;  1.0000206E-01; -6.3208084E+01;3;  2.6944952E+00;  0.0000000E+00; -1.1671314E-01;0; -4.1072272E-02;  3.9999238E+04;  0.0000000E+00; -7.8520394E-04;  4.0000000E+04;  0.0000000E+00;  3.9993211E+04; -3.0339036E-02;  0.0000000E+00; -1.0733236E-02;  8.4219604E+02;
  4.9189708E-01;  9.9999998E-03; -1.9996440E-02;5463; -2.7722618E-02;  0.0000000E+00;  2.3101704E-04;  9.9992712E+02;  1.0000205E-01; -6.0393349E+01;3;  2.6918852E+00;  0.0000000E+00;  2.3296565E-01;0; -4.1038465E-02;  3.9999473E+04;  0.0000000E+00; -3.1710828E-03;  4.0000000E+04;  0.0000000E+00;  3.9993125E+04; -3.0366423E-02;  0.0000000E+00; -1.0672042E-02;  8.6264996E+02;
  4.9189708E-01;  9.9999998E-03;  1.9996444E-02;5467; -2.7722621E-02;  0.0000000E+00; -2.3099665E-04;  9.9992700E+02;  1.0000205E-01; -6.0492111E+01;3;  2.6919165E+00;  0.0000000E+00; -2.3299076E-01;0; -4.1038465E-02;  3.9999473E+04;  0.0000000E+00; -3.1707261E-03;  4.0000000E+04;  0.0000000E+00;  3.9993125E+04; -3.0366426E-02;  0.0000000E+00; -1.0672038E-02;  8.6263202E+02;
  4.9188522E-01;  9.9999998E-03; -2.9994927E-02;5462; -2.7682284E-02;  0.0000000E+00;  3.4569675E-04;  9.9992944E+02;  1.0000210E-01; -5.8467476E+01;3;  2.6875687E+00;  0.0000000E+00;  3.4840420E-01;0; -4.0981788E-02;  3.9999973E+04;  0.0000000E+00; -7.2284043E-03;  4.0000000E+04;  0.0000000E+00;  3.9992852E+04; -3.0411344E-02;  0.0000000E+00; -1.0570443E-02;  8.9383374E+02;
  4.9188522E-01;  9.9999998E-03;  2.9994931E-02;5468; -2.7682293E-02;  0.0000000E+00; -3.4567635E-04;  9.9992950E+02;  1.0000210E-01; -5.8418095E+01;3;  2.6875477E+00;  0.0000000E+00; -3.4842607E-01;0; -4.0981822E-02;  3.9999977E+04;  0.0000000E+00; -7.2278907E-03;  4.0000000E+04;  0.0000000E+00;  3.9992848E+04; -3.0411376E-02;  0.0000000E+00; -1.0570447E-02;  8.9383075E+02;
  4.9186903E-01;  9.9999998E-03; -3.9993860E-02;5461; -2.7626850E-02;  0.0000000E+00;  4.5934384E-04;  9.9993219E+02;  1.0000205E-01; -5.6195938E+01;3;  2.6817060E+00;  0.0000000E+00;  4.6259323E-01;0; -4.0901735E-02;  4.0000867E+04;  0.0000000E+00; -1.3018744E-02;  4.0000000E+04;  0.0000000E+00;  3.9992570E+04; -3.0472720E-02;  0.0000000E+00; -1.0429014E-02;  9.3163672E+02;
  4.9186903E-01;  9.9999998E-03;  3.9993864E-02;5469; -2.7626857E-02;  0.0000000E+00; -4.5932332E-04;  9.9993225E+02;  1.0000205E-01; -5.6146557E+01;3;  2.6817389E+00;  0.0000000E+00; -4.6261200E-01;0; -4.0901758E-02;  4.0000867E+04;  0.0000000E+00; -1.3018636E-02;  4.0000000E+04;  0.0000000E+00;  3.9992570E+04; -3.0472726E-02;  0.0000000E+00; -1.0429030E-02;  9.3162738E+02;
  4.9184904E-01;  9.9999998E-03; -4.9993385E-02;5460; -2.7557194E-02;  0.0000000E+00;  5.7153706E-04;  9.9994116E+02;  1.0000209E-01; -4.8739357E+01;3;  2.6744583E+00;  0.0000000E+00;  5.7513517E-01;0; -4.0797353E-02;  4.0001688E+04;  0.0000000E+00; -2.0520132E-02;  4.0000000E+04;  0.0000000E+00;  3.9992188E+04; -3.0548813E-02;  0.0000000E+00; -1.0248539E-02;  9.7124341E+02;
  4.9184904E-01;  9.9999998E-03;  4.9993388E-02;5470; -2.7557207E-02;  0.0000000E+00; -5.7151652E-04;  9.9994116E+02;  1.0000209E-01; -4.8739357E+01;3;  2.6744893E+00;  0.0000000E+00; -5.7514960E-01;0; -4.0797394E-02;  4.0001688E+04;  0.0000000E+00; -2.0520773E-02;  4.0000000E+04;  0.0000000E+00;  3.9992188E+04; -3.0548830E-02;  0.0000000E+00; -1.0248563E-02;  9.7124365E+02;
  4.9182636E-01;  9.9999998E-03; -5.9993532E-02;5459; -2.7474273E-02;  0.0000000E+00;  6.8180036E-04;  9.9995044E+02;  1.0000206E-01; -4.1035873E+01;3;  2.6660368E+00;  0.0000000E+00;  6.8563592E-01;0; -4.0667262E-02;  4.0002562E+04;  0.0000000E+00; -2.9552355E-02;  4.0000000E+04;  0.0000000E+00;  3.9991914E+04; -3.0637158E-02;  0.0000000E+00; -1.0030105E-02;  1.0079734E+03;
  4.9182636E-01;  9.9999998E-03;  5.9993535E-02;5471; -2.7474290E-02;  0.0000000E+00; -6.8177911E-04;  9.9995044E+02;  1.0000206E-01; -4.1035873E+01;3;  2.6660573E+00;  0.0000000E+00; -6.8563843E-01;0; -4.0667299E-02;  4.0002562E+04;  0.0000000E+00; -2.9553808E-02;  4.0000000E+04;  0.0000000E+00;  3.9991914E+04; -3.0637167E-02;  0.0000000E+00; -1.0030131E-02;  1.0079657E+03;
  4.9180219E-01;  9.9999998E-03; -6.9994256E-02;5458; -2.7379012E-02;  0.0000000E+00;  7.8959373E-04;  9.9995599E+02;  1.0000208E-01; -3.6443413E+01;3;  2.6567478E+00;  0.0000000E+00;  7.9372680E-01;0; -4.0509850E-02;  4.0003270E+04;  0.0000000E+00; -3.9714716E-02;  4.0000000E+04;  0.0000000E+00;  3.9991746E+04; -3.0734686E-02;  0.0000000E+00; -9.7751645E-03;  1.0379448E+03;
  4.9177775E-01;  9.9999998E-03; -7.9995431E-02;5457; -2.7272254E-02;  0.0000000E+00;  8.9431589E-04;  9.9996332E+02;  1.0000210E-01; -3.0369509E+01;3;  2.6468117E+00;  0.0000000E+00;  8.9905208E-01;0; -4.0323306E-02;  4.0004082E+04;  0.0000000E+00; -5.0366621E-02;  4.0000000E+04;  0.0000000E+00;  3.9991477E+04; -3.0837644E-02;  0.0000000E+00; -9.4856620E-03;  1.0586500E+03;
  4.9175447E-01;  9.9999998E-03; -8.9996837E-02;5456; -2.7154703E-02;  0.0000000E+00;  9.9534926E-04;  9.9996991E+02;  1.0000204E-01; -2.4937565E+01;3;  2.6367548E+00;  0.0000000E+00;  1.0012779E+00;0; -4.0105700E-02;  4.0004695E+04;  0.0000000E+00; -6.0661044E-02;  4.0000000E+04;  0.0000000E+00;  3.9991555E+04; -3.0941591E-02;  0.0000000E+00; -9.1641108E-03;  1.0684633E+03;
  4.9173391E-01;  9.9999998E-03; -9.9998169E-02;5455; -2.7026931E-02;  0.0000000E+00;  1.0921182E-03;  9.9997198E+02;  1.0000208E-01; -2.3209219E+01;3;  2.6268053E+00;  0.0000000E+00;  1.1000764E+00;0; -3.9855465E-02;  4.0004656E+04;  0.0000000E+00; -6.9620386E-02;  4.0000000E+04;  0.0000000E+00;  3.9991574E+04; -3.1041723E-02;  0.0000000E+00; -8.8137425E-03;  1.0663588E+03;
  5.0173634E-01;  9.9999998E-03; -9.9988893E-02;5516; -2.7317261E-02;  0.0000000E+00;  1.1933525E-03;  1.0000038E+03;  1.0000372E-01;  3.1604042E+00;3;  2.7698894E+00;  0.0000000E+00;  1.1429367E+00;0; -3.9583430E-02;  4.0006344E+04;  0.0000000E+00; -1.0621139E-01;  4.0000000E+04;  0.0000000E+00;  3.9991285E+04; -2.9911952E-02;  0.0000000E+00; -9.6714785E-03;  1.1048093E+03;
  5.0175107E-01;  9.9999998E-03; -8.9988783E-02;5517; -2.7443046E-02;  0.0000000E+00;  1.0857957E-03;  1.0000106E+03;  1.0000387E-01;  8.7898741E+00;3;  2.7830510E+00;  0.0000000E+00;  1.0403993E+00;0; -3.9859705E-02;  4.0006559E+04;  0.0000000E+00; -9.6052550E-02;  4.0000000E+04;  0.0000000E+00;  3.9991340E+04; -2.9823333E-02;  0.0000000E+00; -1.0036372E-02;  1.0933976E+03;
  5.0176662E-01;  9.9999998E-03; -7.9989031E-02;5518; -2.7558800E-02;  0.0000000E+00;  9.7396132E-04;  1.0000157E+03;  1.0000373E-01;  1.3036667E+01;3;  2.7961354E+00;  0.0000000E+00;  9.3425143E-01;0; -4.0101938E-02;  4.0006434E+04;  0.0000000E+00; -8.2582794E-02;  4.0000000E+04;  0.0000000E+00;  3.9991332E+04; -2.9734155E-02;  0.0000000E+00; -1.0367784E-02;  1.0744060E+03;
  5.0178248E-01;  9.9999998E-03; -6.9989629E-02;5519; -2.7664097E-02;  0.0000000E+00;  8.5856055E-04;  1.0000157E+03;  1.0000388E-01;  1.3036667E+01;3;  2.8086936E+00;  0.0000000E+00;  8.2485068E-01;0; -4.0311389E-02;  4.0006789E+04;  0.0000000E+00; -6.7309536E-02;  4.0000000E+04;  0.0000000E+00;  3.9991742E+04; -2.9648257E-02;  0.0000000E+00; -1.0663133E-02;  1.0501262E+03;
  5.0179815E-01;  9.9999998E-03; -5.9990458E-02;5520; -2.7758308E-02;  0.0000000E+00;  7.4029813E-04;  1.0000206E+03;  1.0000376E-01;  1.7085936E+01;3;  2.8203576E+00;  0.0000000E+00;  7.1254838E-01;0; -4.0489610E-02;  4.0006785E+04;  0.0000000E+00; -5.1682167E-02;  4.0000000E+04;  0.0000000E+00;  3.9991812E+04; -2.9568978E-02;  0.0000000E+00; -1.0920633E-02;  1.0224185E+03;
  5.0181293E-01;  9.9999998E-03; -4.9991637E-02;5521; -2.7840583E-02;  0.0000000E+00;  6.1981590E-04;  1.0000245E+03;  1.0000374E-01;  2.0345102E+01;3;  2.8308108E+00;  0.0000000E+00;  5.9772491E-01;0; -4.0637936E-02;  4.0006895E+04;  0.0000000E+00; -3.6948584E-02;  4.0000000E+04;  0.0000000E+00;  3.9991941E+04; -2.9498748E-02;  0.0000000E+00; -1.1139187E-02;  9.9291699E+02;
  5.0182581E-01;  9.9999998E-03; -3.9993159E-02;5522; -2.7909929E-02;  0.0000000E+00;  4.9765018E-04;  1.0000291E+03;  1.0000377E-01;  2.4098082E+01;3;  2.8397541E+00;  0.0000000E+00;  4.8077542E-01;0; -4.0757801E-02;  4.0007043E+04;  0.0000000E+00; -2.4065670E-02;  4.0000000E+04;  0.0000000E+00;  3.9992422E+04; -2.9439580E-02;  0.0000000E+00; -1.1318222E-02;  9.6372552E+02;
  5.0183618E-01;  9.9999998E-03; -2.9994871E-02;5523; -2.7965298E-02;  0.0000000E+00;  3.7424194E-04;  1.0000359E+03;  1.0000386E-01;  2.9826315E+01;3;  2.8469522E+00;  0.0000000E+00;  3.6210465E-01;0; -4.0850267E-02;  4.0007473E+04;  0.0000000E+00; -1.3664255E-02;  4.0000000E+04;  0.0000000E+00;  3.9992570E+04; -2.9392697E-02;  0.0000000E+00; -1.1457572E-02;  9.3731476E+02;
  5.0184381E-01;  9.9999998E-03; -1.9996703E-02;5524; -2.8005689E-02;  0.0000000E+00;  2.4996113E-04;  1.0000406E+03;  1.0000373E-01;  3.3579296E+01;3;  2.8522787E+00;  0.0000000E+00;  2.4212928E-01;0; -4.0915944E-02;  4.0007500E+04;  0.0000000E+00; -6.0989200E-03;  4.0000000E+04;  0.0000000E+00;  3.9992879E+04; -2.9358840E-02;  0.0000000E+00; -1.1557106E-02;  9.1634985E+02;
  5.0184846E-01;  9.9999998E-03; -9.9984007E-03;5525; -2.8030295E-02;  0.0000000E+00;  1.2512202E-04;  1.0000433E+03;  1.0000381E-01;  3.5949596E+01;3;  2.8554637E+00;  0.0000000E+00;  1.2127838E-01;0; -4.0955298E-02;  4.0007578E+04;  0.0000000E+00; -1.5270228E-03;  4.0000000E+04;  0.0000000E+00;  3.9992867E+04; -2.9338473E-02;  0.0000000E+00; -1.1616826E-02;  9.0285767E+02;
  5.0184995E-01;  9.9999998E-03;  2.2335265E-09;5526; -2.8038558E-02;  0.0000000E+00;  1.0536106E-08;  1.0000443E+03;  1.0000373E-01;  3.6640938E+01;3;  2.8565388E+00;  0.0000000E+00; -1.3331410E-05;0; -4.0968370E-02;  4.0007730E+04;  0.0000000E+00;  1.0758254E-13;  4.0000000E+04;  0.0000000E+00;  3.9992918E+04; -2.9331636E-02;  0.0000000E+00; -1.1636734E-02;  8.9823492E+02;
  5.0184846E-01;  9.9999998E-03;  9.9984054E-03;5527; -2.8030297E-02;  0.0000000E+00; -1.2510084E-04;  1.0000433E+03;  1.0000381E-01;  3.5949596E+01;3;  2.8554633E+00;  0.0000000E+00; -1.2130401E-01;0; -4.0955313E-02;  4.0007582E+04;  0.0000000E+00; -1.5269243E-03;  4.0000000E+04;  0.0000000E+00;  3.9992871E+04; -2.9338473E-02;  0.0000000E+00; -1.1616840E-02;  9.0284778E+02;
  5.0184381E-01;  9.9999998E-03;  1.9996706E-02;5528; -2.8005697E-02;  0.0000000E+00; -2.4993977E-04;  1.0000406E+03;  1.0000373E-01;  3.3678059E+01;3;  2.8522265E+00;  0.0000000E+00; -2.4215147E-01;0; -4.0915985E-02;  4.0007500E+04;  0.0000000E+00; -6.0986346E-03;  4.0000000E+04;  0.0000000E+00;  3.9992879E+04; -2.9358869E-02;  0.0000000E+00; -1.1557115E-02;  9.1634760E+02;
  5.0183618E-01;  9.9999998E-03;  2.9994877E-02;5529; -2.7965304E-02;  0.0000000E+00; -3.7422049E-04;  1.0000359E+03;  1.0000386E-01;  2.9826315E+01;3;  2.8469725E+00;  0.0000000E+00; -3.6212394E-01;0; -4.0850304E-02;  4.0007473E+04;  0.0000000E+00; -1.3664122E-02;  4.0000000E+04;  0.0000000E+00;  3.9992570E+04; -2.9392721E-02;  0.0000000E+00; -1.1457584E-02;  9.3730450E+02;
  5.0182581E-01;  9.9999998E-03;  3.9993163E-02;5530; -2.7909940E-02;  0.0000000E+00; -4.9762847E-04;  1.0000291E+03;  1.0000377E-01;  2.4098082E+01;3;  2.8397677E+00;  0.0000000E+00; -4.8079097E-01;0; -4.0757813E-02;  4.0007039E+04;  0.0000000E+00; -2.4064764E-02;  4.0000000E+04;  0.0000000E+00;  3.9992422E+04; -2.9439576E-02;  0.0000000E+00; -1.1318236E-02;  9.6372021E+02;
  5.0181293E-01;  9.9999998E-03;  4.9991645E-02;5531; -2.7840594E-02;  0.0000000E+00; -6.1979383E-04;  1.0000245E+03;  1.0000374E-01;  2.0345102E+01;3;  2.8308029E+00;  0.0000000E+00; -5.9773678E-01;0; -4.0637955E-02;  4.0006895E+04;  0.0000000E+00; -3.6947630E-02;  4.0000000E+04;  0.0000000E+00;  3.9991938E+04; -2.9498756E-02;  0.0000000E+00; -1.1139198E-02;  9.9291144E+02;
  5.0179815E-01;  9.9999998E-03;  5.9990462E-02;5532; -2.7758325E-02;  0.0000000E+00; -7.4027583E-04;  1.0000206E+03;  1.0000376E-01;  1.7085936E+01;3;  2.8203800E+00;  0.0000000E+00; -7.1255559E-01;0; -4.0489621E-02;  4.0006773E+04;  0.0000000E+00; -5.1681228E-02;  4.0000000E+04;  0.0000000E+00;  3.9991812E+04; -2.9568974E-02;  0.0000000E+00; -1.0920647E-02;  1.0224171E+03;
  5.1170117E-01;  9.9999998E-03; -9.9986516E-02;5577; -2.7591988E-02;  0.0000000E+00;  1.2941115E-03;  9.9997443E+02;  1.0000619E-01; -2.1184584E+01;3;  2.9169164E+00;  0.0000000E+00;  1.1860126E+00;0; -3.9295428E-02;  4.0001938E+04;  0.0000000E+00; -1.3303529E-01;  4.0000000E+04;  0.0000000E+00;  3.9990969E+04; -2.8779477E-02;  0.0000000E+00; -1.0515950E-02;  1.1527954E+03;
  5.1170820E-01;  9.9999998E-03; -8.9987673E-02;5578; -2.7715964E-02;  0.0000000E+00;  1.1759251E-03;  9.9998138E+02;  1.0000612E-01; -1.5406971E+01;3;  2.9336066E+00;  0.0000000E+00;  1.0797300E+00;0; -3.9594568E-02;  4.0002023E+04;  0.0000000E+00; -1.2353458E-01;  4.0000000E+04;  0.0000000E+00;  3.9990879E+04; -2.8703773E-02;  0.0000000E+00; -1.0890797E-02;  1.1341808E+03;
  5.1171547E-01;  9.9999998E-03; -7.9989061E-02;5579; -2.7830180E-02;  0.0000000E+00;  1.0535012E-03;  9.9998358E+02;  1.0000617E-01; -1.3579862E+01;3;  2.9498401E+00;  0.0000000E+00;  9.6965992E-01;0; -3.9858516E-02;  4.0002234E+04;  0.0000000E+00; -1.0878170E-01;  4.0000000E+04;  0.0000000E+00;  3.9991156E+04; -2.8630413E-02;  0.0000000E+00; -1.1228104E-02;  1.1115033E+03;
  5.1172334E-01;  9.9999998E-03; -6.9990486E-02;5580; -2.7934309E-02;  0.0000000E+00;  9.2764798E-04;  9.9999139E+02;  1.0000610E-01; -7.1109095E+00;3;  2.9653013E+00;  0.0000000E+00;  8.5617465E-01;0; -4.0088110E-02;  4.0002766E+04;  0.0000000E+00; -9.0620808E-02;  4.0000000E+04;  0.0000000E+00;  3.9991270E+04; -2.8562184E-02;  0.0000000E+00; -1.1525923E-02;  1.0884833E+03;
  5.1173156E-01;  9.9999998E-03; -5.9991889E-02;5581; -2.8027732E-02;  0.0000000E+00;  7.9912064E-04;  1.0000002E+03;  1.0000613E-01;  1.9752526E-01;3;  2.9795005E+00;  0.0000000E+00;  7.3965365E-01;0; -4.0284593E-02;  4.0003133E+04;  0.0000000E+00; -7.0987977E-02;  4.0000000E+04;  0.0000000E+00;  3.9991426E+04; -2.8501343E-02;  0.0000000E+00; -1.1783250E-02;  1.0673542E+03;
  5.1173991E-01;  9.9999998E-03; -4.9993314E-02;5582; -2.8109586E-02;  0.0000000E+00;  6.6856516E-04;  1.0000106E+03;  1.0000623E-01;  8.7898741E+00;3;  2.9921496E+00;  0.0000000E+00;  6.2049305E-01;0; -4.0449120E-02;  4.0003789E+04;  0.0000000E+00; -5.1678609E-02;  4.0000000E+04;  0.0000000E+00;  3.9991535E+04; -2.8449265E-02;  0.0000000E+00; -1.1999854E-02;  1.0490593E+03;
  5.1174736E-01;  9.9999998E-03; -3.9994795E-02;5583; -2.8178794E-02;  0.0000000E+00;  5.3649041E-04;  1.0000216E+03;  1.0000616E-01;  1.7876036E+01;3;  3.0028863E+00;  0.0000000E+00;  4.9910912E-01;0; -4.0582784E-02;  4.0004551E+04;  0.0000000E+00; -3.4195632E-02;  4.0000000E+04;  0.0000000E+00;  3.9991910E+04; -2.8406790E-02;  0.0000000E+00; -1.2175994E-02;  1.0339000E+03;
  5.1175350E-01;  9.9999998E-03; -2.9996265E-02;5584; -2.8234212E-02;  0.0000000E+00;  4.0329347E-04;  1.0000336E+03;  1.0000622E-01;  2.7851063E+01;3;  3.0115736E+00;  0.0000000E+00;  3.7592515E-01;0; -4.0686283E-02;  4.0005223E+04;  0.0000000E+00; -1.9671133E-02;  4.0000000E+04;  0.0000000E+00;  3.9991957E+04; -2.8374080E-02;  0.0000000E+00; -1.2312204E-02;  1.0221287E+03;
  5.1175827E-01;  9.9999998E-03; -1.9997705E-02;5585; -2.8274747E-02;  0.0000000E+00;  2.6929865E-04;  1.0000424E+03;  1.0000621E-01;  3.5159496E+01;3;  3.0178297E+00;  0.0000000E+00;  2.5137657E-01;0; -4.0760040E-02;  4.0006172E+04;  0.0000000E+00; -8.8659842E-03;  4.0000000E+04;  0.0000000E+00;  3.9991980E+04; -2.8350975E-02;  0.0000000E+00; -1.2409065E-02;  1.0138306E+03;
  5.1176125E-01;  9.9999998E-03; -9.9989669E-03;5586; -2.8299473E-02;  0.0000000E+00;  1.3478416E-04;  1.0000496E+03;  1.0000639E-01;  4.1085255E+01;3;  3.0216842E+00;  0.0000000E+00;  1.2591268E-01;0; -4.0804349E-02;  4.0006434E+04;  0.0000000E+00; -2.2333481E-03;  4.0000000E+04;  0.0000000E+00;  3.9992008E+04; -2.8337352E-02;  0.0000000E+00; -1.2466999E-02;  1.0089234E+03;
  5.1176244E-01;  9.9999998E-03;  2.2485538E-09;5587; -2.8307792E-02;  0.0000000E+00;  1.1039092E-08;  1.0000508E+03;  1.0000618E-01;  4.2072880E+01;3;  3.0229647E+00;  0.0000000E+00; -1.2602861E-05;0; -4.0819131E-02;  4.0006535E+04;  0.0000000E+00;  1.2993083E-12;  4.0000000E+04;  0.0000000E+00;  3.9991875E+04; -2.8332826E-02;  0.0000000E+00; -1.2486303E-02;  1.0073503E+03;
  5.1176125E-01;  9.9999998E-03;  9.9989716E-03;5588; -2.8299477E-02;  0.0000000E+00; -1.3476187E-04;  1.0000496E+03;  1.0000639E-01;  4.1085255E+01;3;  3.0216906E+00;  0.0000000E+00; -1.2593646E-01;0; -4.0804368E-02;  4.0006434E+04;  0.0000000E+00; -2.2333767E-03;  4.0000000E+04;  0.0000000E+00;  3.9992008E+04; -2.8337359E-02;  0.0000000E+00; -1.2467008E-02;  1.0089226E+03;
  5.1175827E-01;  9.9999998E-03;  1.9997708E-02;5589; -2.8274750E-02;  0.0000000E+00; -2.6927615E-04;  1.0000424E+03;  1.0000621E-01;  3.5159496E+01;3;  3.0178313E+00;  0.0000000E+00; -2.5139713E-01;0; -4.0760085E-02;  4.0006172E+04;  0.0000000E+00; -8.8658081E-03;  4.0000000E+04;  0.0000000E+00;  3.9991980E+04; -2.8351011E-02;  0.0000000E+00; -1.2409073E-02;  1.0138118E+03;
  5.1175350E-01;  9.9999998E-03;  2.9996270E-02;5590; -2.8234217E-02;  0.0000000E+00; -4.0327059E-04;  1.0000336E+03;  1.0000622E-01;  2.7851063E+01;3;  3.0115740E+00;  0.0000000E+00; -3.7594247E-01;0; -4.0686313E-02;  4.0005219E+04;  0.0000000E+00; -1.9670691E-02;  4.0000000E+04;  0.0000000E+00;  3.9991957E+04; -2.8374102E-02;  0.0000000E+00; -1.2312210E-02;  1.0221249E+03;
  5.1174736E-01;  9.9999998E-03;  3.9994802E-02;5591; -2.8178805E-02;  0.0000000E+00; -5.3646718E-04;  1.0000217E+03;  1.0000611E-01;  1.7974798E+01;3;  3.0029194E+00;  0.0000000E+00; -4.9912286E-01;0; -4.0582810E-02;  4.0004551E+04;  0.0000000E+00; -3.4195788E-02;  4.0000000E+04;  0.0000000E+00;  3.9991910E+04; -2.8406801E-02;  0.0000000E+00; -1.2176008E-02;  1.0338813E+03;
  5.1173991E-01;  9.9999998E-03;  4.9993321E-02;5592; -2.8109597E-02;  0.0000000E+00; -6.6854182E-04;  1.0000106E+03;  1.0000623E-01;  8.7898741E+00;3;  2.9921122E+00;  0.0000000E+00; -6.2050414E-01;0; -4.0449131E-02;  4.0003789E+04;  0.0000000E+00; -5.1678821E-02;  4.0000000E+04;  0.0000000E+00;  3.9991539E+04; -2.8449267E-02;  0.0000000E+00; -1.1999863E-02;  1.0490494E+03;
  5.1173156E-01;  9.9999998E-03;  5.9991892E-02;5593; -2.8027745E-02;  0.0000000E+00; -7.9909695E-04;  1.0000002E+03;  1.0000613E-01;  1.9752526E-01;3;  2.9795136E+00;  0.0000000E+00; -7.3966092E-01;0; -4.0284637E-02;  4.0003137E+04;  0.0000000E+00; -7.0985600E-02;  4.0000000E+04;  0.0000000E+00;  3.9991426E+04; -2.8501358E-02;  0.0000000E+00; -1.1783280E-02;  1.0673674E+03;
  5.2165151E-01;  9.9999998E-03; -9.9991143E-02;5638; -2.7855631E-02;  0.0000000E+00;  1.3929609E-03;  9.9987451E+02;  1.0001040E-01; -1.0394767E+02;3;  3.0683517E+00;  0.0000000E+00;  1.2294762E+00;0; -3.8977742E-02;  3.9990129E+04;  0.0000000E+00; -1.4485006E-01;  4.0000000E+04;  0.0000000E+00;  3.9990379E+04; -2.7636357E-02;  0.0000000E+00; -1.1341385E-02;  1.2094647E+03;
  5.2165347E-01;  9.9999998E-03; -8.9992531E-02;5639; -2.7978102E-02;  0.0000000E+00;  1.2644527E-03;  9.9986835E+02;  1.0001049E-01; -1.0908333E+02;3;  3.0887992E+00;  0.0000000E+00;  1.1194484E+00;0; -3.9295580E-02;  3.9989746E+04;  0.0000000E+00; -1.3771664E-01;  4.0000000E+04;  0.0000000E+00;  3.9990504E+04; -2.7573874E-02;  0.0000000E+00; -1.1721707E-02;  1.1910851E+03;
  5.2165550E-01;  9.9999998E-03; -7.9993881E-02;5640; -2.8091138E-02;  0.0000000E+00;  1.1317952E-03;  9.9986597E+02;  1.0001046E-01; -1.1105858E+02;3;  3.1085091E+00;  0.0000000E+00;  1.0054461E+00;0; -3.9577361E-02;  3.9989410E+04;  0.0000000E+00; -1.2382875E-01;  4.0000000E+04;  0.0000000E+00;  3.9990551E+04; -2.7516251E-02;  0.0000000E+00; -1.2061110E-02;  1.1709302E+03;
  5.2165788E-01;  9.9999998E-03; -6.9995068E-02;5641; -2.8194439E-02;  0.0000000E+00;  9.9585415E-04;  9.9987164E+02;  1.0001037E-01; -1.0631797E+02;3;  3.1270061E+00;  0.0000000E+00;  8.8785845E-01;0; -3.9823595E-02;  3.9989578E+04;  0.0000000E+00; -1.0511842E-01;  4.0000000E+04;  0.0000000E+00;  3.9990668E+04; -2.7465299E-02;  0.0000000E+00; -1.2358298E-02;  1.1540721E+03;
  5.2166075E-01;  9.9999998E-03; -5.9996121E-02;5642; -2.8287375E-02;  0.0000000E+00;  8.5739541E-04;  9.9987823E+02;  1.0001051E-01; -1.0088602E+02;3;  3.1440160E+00;  0.0000000E+00;  7.6708674E-01;0; -4.0035307E-02;  3.9989930E+04;  0.0000000E+00; -8.3757497E-02;  4.0000000E+04;  0.0000000E+00;  3.9990758E+04; -2.7422279E-02;  0.0000000E+00; -1.2613027E-02;  1.1432765E+03;
  5.2166408E-01;  9.9999998E-03; -4.9997114E-02;5643; -2.8369034E-02;  0.0000000E+00;  7.1703998E-04;  9.9988837E+02;  1.0001035E-01; -9.2491203E+01;3;  3.1589208E+00;  0.0000000E+00;  6.4355350E-01;0; -4.0213339E-02;  3.9990551E+04;  0.0000000E+00; -6.1902981E-02;  4.0000000E+04;  0.0000000E+00;  3.9990855E+04; -2.7387474E-02;  0.0000000E+00; -1.2825865E-02;  1.1389559E+03;
  5.2166688E-01;  9.9999998E-03; -3.9998073E-02;5644; -2.8438255E-02;  0.0000000E+00;  5.7525234E-04;  9.9989874E+02;  1.0001035E-01; -8.3898857E+01;3;  3.1716292E+00;  0.0000000E+00;  5.1768500E-01;0; -4.0358584E-02;  3.9991430E+04;  0.0000000E+00; -4.1497555E-02;  4.0000000E+04;  0.0000000E+00;  3.9990828E+04; -2.7360776E-02;  0.0000000E+00; -1.2997807E-02;  1.1400090E+03;
  5.2166957E-01;  9.9999998E-03; -2.9998844E-02;5645; -2.8493822E-02;  0.0000000E+00;  4.3238135E-04;  9.9990717E+02;  1.0001040E-01; -7.6936089E+01;3;  3.1817954E+00;  0.0000000E+00;  3.8993227E-01;0; -4.0471457E-02;  3.9992305E+04;  0.0000000E+00; -2.4125461E-02;  4.0000000E+04;  0.0000000E+00;  3.9990785E+04; -2.7341381E-02;  0.0000000E+00; -1.3130077E-02;  1.1444474E+03;
  5.2167177E-01;  9.9999998E-03; -1.9999465E-02;5646; -2.8534543E-02;  0.0000000E+00;  2.8870968E-04;  9.9991785E+02;  1.0001042E-01; -6.8047455E+01;3;  3.1892445E+00;  0.0000000E+00;  2.6075023E-01;0; -4.0552143E-02;  3.9993188E+04;  0.0000000E+00; -1.0959109E-02;  4.0000000E+04;  0.0000000E+00;  3.9990656E+04; -2.7328392E-02;  0.0000000E+00; -1.3223751E-02;  1.1499854E+03;
  5.2167326E-01;  9.9999998E-03; -9.9998554E-03;5647; -2.8559417E-02;  0.0000000E+00;  1.4449848E-04;  9.9992432E+02;  1.0001042E-01; -6.2714272E+01;3;  3.1937258E+00;  0.0000000E+00;  1.3061002E-01;0; -4.0600605E-02;  3.9993664E+04;  0.0000000E+00; -2.7738463E-03;  4.0000000E+04;  0.0000000E+00;  3.9990512E+04; -2.7320974E-02;  0.0000000E+00; -1.3279634E-02;  1.1543489E+03;
  5.2167386E-01;  9.9999998E-03;  2.2823938E-09;5648; -2.8567791E-02;  0.0000000E+00;  1.1642202E-08;  9.9992780E+02;  1.0001050E-01; -5.9800774E+01;3;  3.1952534E+00;  0.0000000E+00; -1.2176079E-05;0; -4.0616792E-02;  3.9993840E+04;  0.0000000E+00;  8.2065051E-13;  4.0000000E+04;  0.0000000E+00;  3.9990703E+04; -2.7318608E-02;  0.0000000E+00; -1.3298185E-02;  1.1560768E+03;
  5.2167326E-01;  9.9999998E-03;  9.9998601E-03;5649; -2.8559420E-02;  0.0000000E+00; -1.4447491E-04;  9.9992438E+02;  1.0001042E-01; -6.2664890E+01;3;  3.1937249E+00;  0.0000000E+00; -1.3063347E-01;0; -4.0600590E-02;  3.9993664E+04;  0.0000000E+00; -2.7741478E-03;  4.0000000E+04;  0.0000000E+00;  3.9990512E+04; -2.7320974E-02;  0.0000000E+00; -1.3279618E-02;  1.1543530E+03;
  5.2167177E-01;  9.9999998E-03;  1.9999469E-02;5650; -2.8534546E-02;  0.0000000E+00; -2.8868581E-04;  9.9991785E+02;  1.0001042E-01; -6.8047455E+01;3;  3.1892071E+00;  0.0000000E+00; -2.6077104E-01;0; -4.0552154E-02;  3.9993188E+04;  0.0000000E+00; -1.0959526E-02;  4.0000000E+04;  0.0000000E+00;  3.9990656E+04; -2.7328404E-02;  0.0000000E+00; -1.3223751E-02;  1.1499690E+03;
  5.2166957E-01;  9.9999998E-03;  2.9998848E-02;5651; -2.8493827E-02;  0.0000000E+00; -4.3235710E-04;  9.9990710E+02;  1.0001040E-01; -7.6985474E+01;3;  3.1818078E+00;  0.0000000E+00; -3.8994816E-01;0; -4.0471479E-02;  3.9992309E+04;  0.0000000E+00; -2.4125336E-02;  4.0000000E+04;  0.0000000E+00;  3.9990785E+04; -2.7341379E-02;  0.0000000E+00; -1.3130099E-02;  1.1444471E+03;
  5.2166688E-01;  9.9999998E-03;  3.9998077E-02;5652; -2.8438265E-02;  0.0000000E+00; -5.7522766E-04;  9.9989862E+02;  1.0001045E-01; -8.3997620E+01;3;  3.1716251E+00;  0.0000000E+00; -5.1769799E-01;0; -4.0358588E-02;  3.9991430E+04;  0.0000000E+00; -4.1497082E-02;  4.0000000E+04;  0.0000000E+00;  3.9990828E+04; -2.7360784E-02;  0.0000000E+00; -1.2997805E-02;  1.1400054E+03;
  5.2166408E-01;  9.9999998E-03;  4.9997121E-02;5653; -2.8369043E-02;  0.0000000E+00; -7.1701524E-04;  9.9988837E+02;  1.0001035E-01; -9.2491203E+01;3;  3.1589739E+00;  0.0000000E+00; -6.4356518E-01;0; -4.0213391E-02;  3.9990555E+04;  0.0000000E+00; -6.1903216E-02;  4.0000000E+04;  0.0000000E+00;  3.9990855E+04; -2.7387504E-02;  0.0000000E+00; -1.2825886E-02;  1.1389614E+03;
  5.2166075E-01;  9.9999998E-03;  5.9996128E-02;5654; -2.8287387E-02;  0.0000000E+00; -8.5737015E-04;  9.9987830E+02;  1.0001051E-01; -1.0083665E+02;3;  3.1439397E+00;  0.0000000E+00; -7.6709527E-01;0; -4.0035326E-02;  3.9989930E+04;  0.0000000E+00; -8.3757430E-02;  4.0000000E+04;  0.0000000E+00;  3.9990758E+04; -2.7422281E-02;  0.0000000E+00; -1.2613044E-02;  1.1432675E+03;
  5.3160566E-01;  9.9999998E-03; -1.0000125E-01;5699; -2.8112428E-02;  0.0000000E+00;  1.4875800E-03;  9.9971118E+02;  1.0001730E-01; -2.3930185E+02;3;  3.2243917E+00;  0.0000000E+00;  1.2734077E+00;0; -3.8610689E-02;  3.9971695E+04;  0.0000000E+00; -1.3711376E-01;  4.0000000E+04;  0.0000000E+00;  3.9989605E+04; -2.6469186E-02;  0.0000000E+00; -1.2141502E-02;  1.2719368E+03;
  5.3160447E-01;  9.9999998E-03; -9.0002246E-02;5700; -2.8233720E-02;  0.0000000E+00;  1.3491984E-03;  9.9969043E+02;  1.0001747E-01; -2.5648654E+02;3;  3.2488916E+00;  0.0000000E+00;  1.1596130E+00;0; -3.8942862E-02;  3.9970031E+04;  0.0000000E+00; -1.3373660E-01;  4.0000000E+04;  0.0000000E+00;  3.9989707E+04; -2.6420170E-02;  0.0000000E+00; -1.2522691E-02;  1.2605510E+03;
  5.3160316E-01;  9.9999998E-03; -8.0003060E-02;5701; -2.8345944E-02;  0.0000000E+00;  1.2068338E-03;  9.9967664E+02;  1.0001741E-01; -2.6789365E+02;3;  3.2723315E+00;  0.0000000E+00;  1.0416667E+00;0; -3.9238188E-02;  3.9968965E+04;  0.0000000E+00; -1.2296004E-01;  4.0000000E+04;  0.0000000E+00;  3.9989785E+04; -2.6377859E-02;  0.0000000E+00; -1.2860330E-02;  1.2482100E+03;
  5.3160179E-01;  9.9999998E-03; -7.0003577E-02;5702; -2.8448779E-02;  0.0000000E+00;  1.0613614E-03;  9.9966895E+02;  1.0001725E-01; -2.7426382E+02;3;  3.2942185E+00;  0.0000000E+00;  9.1996288E-01;0; -3.9497260E-02;  3.9967898E+04;  0.0000000E+00; -1.0646573E-01;  4.0000000E+04;  0.0000000E+00;  3.9989836E+04; -2.6343375E-02;  0.0000000E+00; -1.3153884E-02;  1.2413112E+03;
  5.3160065E-01;  9.9999998E-03; -6.0003821E-02;5703; -2.8541557E-02;  0.0000000E+00;  9.1351371E-04;  9.9966278E+02;  1.0001735E-01; -2.7939948E+02;3;  3.3140712E+00;  0.0000000E+00;  7.9491228E-01;0; -3.9720759E-02;  3.9967777E+04;  0.0000000E+00; -8.6328715E-02;  4.0000000E+04;  0.0000000E+00;  3.9989762E+04; -2.6316939E-02;  0.0000000E+00; -1.3403819E-02;  1.2431978E+03;
  5.3159922E-01;  9.9999998E-03; -5.0003886E-02;5704; -2.8623290E-02;  0.0000000E+00;  7.6385413E-04;  9.9966559E+02;  1.0001732E-01; -2.7702917E+02;3;  3.3315940E+00;  0.0000000E+00;  6.6696888E-01;0; -3.9909426E-02;  3.9967758E+04;  0.0000000E+00; -6.4786196E-02;  4.0000000E+04;  0.0000000E+00;  3.9989758E+04; -2.6298095E-02;  0.0000000E+00; -1.3611332E-02;  1.2541141E+03;
  5.3159773E-01;  9.9999998E-03; -4.0003698E-02;5705; -2.8692741E-02;  0.0000000E+00;  6.1279046E-04;  9.9966986E+02;  1.0001732E-01; -2.7352310E+02;3;  3.3463762E+00;  0.0000000E+00;  5.3656483E-01;0; -4.0063865E-02;  3.9968258E+04;  0.0000000E+00; -4.3994136E-02;  4.0000000E+04;  0.0000000E+00;  3.9989555E+04; -2.6285775E-02;  0.0000000E+00; -1.3778091E-02;  1.2717443E+03;
  5.3159696E-01;  9.9999998E-03; -3.0003132E-02;5706; -2.8748615E-02;  0.0000000E+00;  4.6061884E-04;  9.9967859E+02;  1.0001733E-01; -2.6626407E+02;3;  3.3581603E+00;  0.0000000E+00;  4.0417716E-01;0; -4.0184237E-02;  3.9968832E+04;  0.0000000E+00; -2.5843127E-02;  4.0000000E+04;  0.0000000E+00;  3.9989340E+04; -2.6278371E-02;  0.0000000E+00; -1.3905865E-02;  1.2923376E+03;
  5.3159636E-01;  9.9999998E-03; -2.0002389E-02;5707; -2.8789606E-02;  0.0000000E+00;  3.0759085E-04;  9.9968188E+02;  1.0001739E-01; -2.6354810E+02;3;  3.3667336E+00;  0.0000000E+00;  2.7028605E-01;0; -4.0270466E-02;  3.9969414E+04;  0.0000000E+00; -1.1829077E-02;  4.0000000E+04;  0.0000000E+00;  3.9989137E+04; -2.6274430E-02;  0.0000000E+00; -1.3996037E-02;  1.3114237E+03;
  5.3159624E-01;  9.9999998E-03; -1.0001335E-02;5708; -2.8814683E-02;  0.0000000E+00;  1.5395983E-04;  9.9968646E+02;  1.0001720E-01; -2.5974573E+02;3;  3.3719549E+00;  0.0000000E+00;  1.3539012E-01;0; -4.0322371E-02;  3.9969840E+04;  0.0000000E+00; -3.0080359E-03;  4.0000000E+04;  0.0000000E+00;  3.9989000E+04; -2.6272655E-02;  0.0000000E+00; -1.4049716E-02;  1.3249265E+03;
  5.3159630E-01;  9.9999998E-03;  2.3097675E-09;5709; -2.8823121E-02;  0.0000000E+00;  1.2409148E-08;  9.9968604E+02;  1.0001738E-01; -2.6009140E+02;3;  3.3736904E+00;  0.0000000E+00; -1.3720003E-05;0; -4.0339712E-02;  3.9970129E+04;  0.0000000E+00;  1.4653808E-12;  4.0000000E+04;  0.0000000E+00;  3.9988914E+04; -2.6272155E-02;  0.0000000E+00; -1.4067556E-02;  1.3298225E+03;
  5.3159624E-01;  9.9999998E-03;  1.0001340E-02;5710; -2.8814685E-02;  0.0000000E+00; -1.5393501E-04;  9.9968646E+02;  1.0001720E-01; -2.5974573E+02;3;  3.3719325E+00;  0.0000000E+00; -1.3541338E-01;0; -4.0322363E-02;  3.9969844E+04;  0.0000000E+00; -3.0082858E-03;  4.0000000E+04;  0.0000000E+00;  3.9988996E+04; -2.6272636E-02;  0.0000000E+00; -1.4049726E-02;  1.3249349E+03;
  5.3159636E-01;  9.9999998E-03;  2.0002395E-02;5711; -2.8789610E-02;  0.0000000E+00; -3.0756523E-04;  9.9968188E+02;  1.0001739E-01; -2.6354810E+02;3;  3.3667572E+00;  0.0000000E+00; -2.7030626E-01;0; -4.0270474E-02;  3.9969414E+04;  0.0000000E+00; -1.1829285E-02;  4.0000000E+04;  0.0000000E+00;  3.9989137E+04; -2.6274426E-02;  0.0000000E+00; -1.3996049E-02;  1.3114385E+03;
  5.3159696E-01;  9.9999998E-03;  3.0003136E-02;5712; -2.8748622E-02;  0.0000000E+00; -4.6059300E-04;  9.9967859E+02;  1.0001733E-01; -2.6626407E+02;3;  3.3581483E+00;  0.0000000E+00; -4.0419206E-01;0; -4.0184263E-02;  3.9968836E+04;  0.0000000E+00; -2.5843896E-02;  4.0000000E+04;  0.0000000E+00;  3.9989340E+04; -2.6278373E-02;  0.0000000E+00; -1.3905889E-02;  1.2923499E+03;
  5.3159773E-01;  9.9999998E-03;  4.0003706E-02;5713; -2.8692748E-02;  0.0000000E+00; -6.1276468E-04;  9.9966974E+02;  1.0001726E-01; -2.7362186E+02;3;  3.3463736E+00;  0.0000000E+00; -5.3657770E-01;0; -4.0063892E-02;  3.9968266E+04;  0.0000000E+00; -4.3994538E-02;  4.0000000E+04;  0.0000000E+00;  3.9989555E+04; -2.6285782E-02;  0.0000000E+00; -1.3778108E-02;  1.2717263E+03;
  5.3159922E-01;  9.9999998E-03;  5.0003890E-02;5714; -2.8623298E-02;  0.0000000E+00; -7.6382823E-04;  9.9966565E+02;  1.0001732E-01; -2.7697980E+02;3;  3.3315685E+00;  0.0000000E+00; -6.6697818E-01;0; -3.9909478E-02;  3.9967754E+04;  0.0000000E+00; -6.4787045E-02;  4.0000000E+04;  0.0000000E+00;  3.9989758E+04; -2.6298136E-02;  0.0000000E+00; -1.3611342E-02;  1.2541061E+03;
  5.3160065E-01;  9.9999998E-03;  6.0003825E-02;5715; -2.8541572E-02;  0.0000000E+00; -9.1348734E-04;  9.9966272E+02;  1.0001728E-01; -2.7944885E+02;3;  3.3140860E+00;  0.0000000E+00; -7.9492098E-01;0; -3.9720729E-02;  3.9967770E+04;  0.0000000E+00; -8.6330436E-02;  4.0000000E+04;  0.0000000E+00;  3.9989762E+04; -2.6316917E-02;  0.0000000E+00; -1.3403813E-02;  1.2431957E+03;
  5.4157555E-01;  9.9999998E-03; -1.0001555E-01;5760; -2.8365158E-02;  0.0000000E+00;  1.5750582E-03;  9.9953442E+02;  1.0002934E-01; -3.8571747E+02;3;  3.3852558E+00;  0.0000000E+00;  1.3177823E+00;0; -3.8171791E-02;  3.9947953E+04;  0.0000000E+00; -1.0687622E-01;  4.0000000E+04;  0.0000000E+00;  3.9988902E+04; -2.5262484E-02;  0.0000000E+00; -1.2909307E-02;  1.3370359E+03;
  5.4157239E-01;  9.9999998E-03; -9.0015635E-02;5761; -2.8485632E-02;  0.0000000E+00;  1.4274074E-03;  9.9949976E+02;  1.0002936E-01; -4.1445740E+02;3;  3.4141655E+00;  0.0000000E+00;  1.2002192E+00;0; -3.8514134E-02;  3.9945070E+04;  0.0000000E+00; -1.0821270E-01;  4.0000000E+04;  0.0000000E+00;  3.9988891E+04; -2.5227221E-02;  0.0000000E+00; -1.3286913E-02;  1.3369066E+03;
  5.4156864E-01;  9.9999998E-03; -8.0015518E-02;5762; -2.8597433E-02;  0.0000000E+00;  1.2760516E-03;  9.9946680E+02;  1.0002926E-01; -4.4176526E+02;3;  3.4415672E+00;  0.0000000E+00;  1.0783211E+00;0; -3.8819086E-02;  3.9942402E+04;  0.0000000E+00; -1.0266417E-01;  4.0000000E+04;  0.0000000E+00;  3.9988855E+04; -2.5199816E-02;  0.0000000E+00; -1.3619269E-02;  1.3354177E+03;
  5.4156446E-01;  9.9999998E-03; -7.0015036E-02;5763; -2.8700210E-02;  0.0000000E+00;  1.1218276E-03;  9.9943964E+02;  1.0002947E-01; -4.6423373E+02;3;  3.4670463E+00;  0.0000000E+00;  9.5247364E-01;0; -3.9087236E-02;  3.9940297E+04;  0.0000000E+00; -9.1318712E-02;  4.0000000E+04;  0.0000000E+00;  3.9988777E+04; -2.5180683E-02;  0.0000000E+00; -1.3906553E-02;  1.3400293E+03;
  5.4155964E-01;  9.9999998E-03; -6.0014203E-02;5764; -2.8793214E-02;  0.0000000E+00;  9.6538849E-04;  9.9942010E+02;  1.0002933E-01; -4.8043082E+02;3;  3.4901054E+00;  0.0000000E+00;  8.2313317E-01;0; -3.9319273E-02;  3.9938602E+04;  0.0000000E+00; -7.5779758E-02;  4.0000000E+04;  0.0000000E+00;  3.9988645E+04; -2.5169393E-02;  0.0000000E+00; -1.4149879E-02;  1.3547875E+03;
  5.4155397E-01;  9.9999998E-03; -5.0013028E-02;5765; -2.8875362E-02;  0.0000000E+00;  8.0721133E-04;  9.9940839E+02;  1.0002938E-01; -4.9015894E+02;3;  3.5102794E+00;  0.0000000E+00;  6.9072998E-01;0; -3.9515756E-02;  3.9937938E+04;  0.0000000E+00; -5.7995189E-02;  4.0000000E+04;  0.0000000E+00;  3.9988453E+04; -2.5164751E-02;  0.0000000E+00; -1.4351007E-02;  1.3799567E+03;
  5.4154867E-01;  9.9999998E-03; -4.0011402E-02;5766; -2.8945336E-02;  0.0000000E+00;  6.4762874E-04;  9.9939777E+02;  1.0002935E-01; -4.9894882E+02;3;  3.5273149E+00;  0.0000000E+00;  5.5574644E-01;0; -3.9677002E-02;  3.9937449E+04;  0.0000000E+00; -4.0025771E-02;  4.0000000E+04;  0.0000000E+00;  3.9988184E+04; -2.5164887E-02;  0.0000000E+00; -1.4512114E-02;  1.4126511E+03;
  5.4154438E-01;  9.9999998E-03; -3.0009240E-02;5767; -2.9001728E-02;  0.0000000E+00;  4.8687690E-04;  9.9939612E+02;  1.0002936E-01; -5.0028210E+02;3;  3.5408595E+00;  0.0000000E+00;  4.1866317E-01;0; -3.9803009E-02;  3.9937500E+04;  0.0000000E+00; -2.3813244E-02;  4.0000000E+04;  0.0000000E+00;  3.9987812E+04; -2.5167791E-02;  0.0000000E+00; -1.4635218E-02;  1.4476096E+03;
  5.4154116E-01;  9.9999998E-03; -2.0006591E-02;5768; -2.9043168E-02;  0.0000000E+00;  3.2517465E-04;  9.9939648E+02;  1.0002936E-01; -4.9998581E+02;3;  3.5506983E+00;  0.0000000E+00;  2.7999333E-01;0; -3.9893463E-02;  3.9937809E+04;  0.0000000E+00; -1.1000729E-02;  4.0000000E+04;  0.0000000E+00;  3.9987691E+04; -2.5171531E-02;  0.0000000E+00; -1.4721932E-02;  1.4787820E+03;
  5.4153931E-01;  9.9999998E-03; -1.0003505E-02;5769; -2.9068524E-02;  0.0000000E+00;  1.6278010E-04;  9.9939423E+02;  1.0002940E-01; -5.0186230E+02;3;  3.5567505E+00;  0.0000000E+00;  1.4025250E-01;0; -3.9947934E-02;  3.9937781E+04;  0.0000000E+00; -2.8130433E-03;  4.0000000E+04;  0.0000000E+00;  3.9987363E+04; -2.5174461E-02;  0.0000000E+00; -1.4773472E-02;  1.5003414E+03;
  5.4153877E-01;  9.9999998E-03;  2.3128153E-09;5770; -2.9077074E-02;  0.0000000E+00;  1.3145844E-08;  9.9939453E+02;  1.0002925E-01; -5.0161542E+02;3;  3.5586982E+00;  0.0000000E+00; -9.6170679E-06;0; -3.9966118E-02;  3.9937898E+04;  0.0000000E+00;  2.6335455E-12;  4.0000000E+04;  0.0000000E+00;  3.9987387E+04; -2.5175529E-02;  0.0000000E+00; -1.4790590E-02;  1.5080883E+03;
  5.4153931E-01;  9.9999998E-03;  1.0003510E-02;5771; -2.9068530E-02;  0.0000000E+00; -1.6275348E-04;  9.9939423E+02;  1.0002940E-01; -5.0186230E+02;3;  3.5567312E+00;  0.0000000E+00; -1.4027590E-01;0; -3.9947946E-02;  3.9937777E+04;  0.0000000E+00; -2.8133616E-03;  4.0000000E+04;  0.0000000E+00;  3.9987363E+04; -2.5174465E-02;  0.0000000E+00; -1.4773480E-02;  1.5003387E+03;
  5.4154116E-01;  9.9999998E-03;  2.0006595E-02;5772; -2.9043173E-02;  0.0000000E+00; -3.2514785E-04;  9.9939648E+02;  1.0002936E-01; -4.9998581E+02;3;  3.5507064E+00;  0.0000000E+00; -2.8000510E-01;0; -3.9893456E-02;  3.9937812E+04;  0.0000000E+00; -1.1001182E-02;  4.0000000E+04;  0.0000000E+00;  3.9987691E+04; -2.5171520E-02;  0.0000000E+00; -1.4721935E-02;  1.4787744E+03;
  5.4154438E-01;  9.9999998E-03;  3.0009245E-02;5773; -2.9001735E-02;  0.0000000E+00; -4.8684975E-04;  9.9939612E+02;  1.0002931E-01; -5.0028210E+02;3;  3.5408676E+00;  0.0000000E+00; -4.1867381E-01;0; -3.9803028E-02;  3.9937504E+04;  0.0000000E+00; -2.3813877E-02;  4.0000000E+04;  0.0000000E+00;  3.9987812E+04; -2.5167812E-02;  0.0000000E+00; -1.4635217E-02;  1.4476069E+03;
  5.4154867E-01;  9.9999998E-03;  4.0011410E-02;5774; -2.8945345E-02;  0.0000000E+00; -6.4760179E-04;  9.9939783E+02;  1.0002930E-01; -4.9889944E+02;3;  3.5272975E+00;  0.0000000E+00; -5.5575806E-01;0; -3.9677050E-02;  3.9937445E+04;  0.0000000E+00; -4.0026378E-02;  4.0000000E+04;  0.0000000E+00;  3.9988176E+04; -2.5164906E-02;  0.0000000E+00; -1.4512143E-02;  1.4126458E+03;
  5.4155397E-01;  9.9999998E-03;  5.0013036E-02;5775; -2.8875373E-02;  0.0000000E+00; -8.0718409E-04;  9.9940839E+02;  1.0002938E-01; -4.9015894E+02;3;  3.5102897E+00;  0.0000000E+00; -6.9074529E-01;0; -3.9515801E-02;  3.9937938E+04;  0.0000000E+00; -5.7995956E-02;  4.0000000E+04;  0.0000000E+00;  3.9988453E+04; -2.5164759E-02;  0.0000000E+00; -1.4351040E-02;  1.3799603E+03;
  5.4155964E-01;  9.9999998E-03;  6.0014207E-02;5776; -2.8793229E-02;  0.0000000E+00; -9.6536102E-04;  9.9942017E+02;  1.0002933E-01; -4.8038144E+02;3;  3.4901099E+00;  0.0000000E+00; -8.2314384E-01;0; -3.9319314E-02;  3.9938602E+04;  0.0000000E+00; -7.5782456E-02;  4.0000000E+04;  0.0000000E+00;  3.9988645E+04; -2.5169419E-02;  0.0000000E+00; -1.4149894E-02;  1.3548000E+03;
  5.5156970E-01;  9.9999998E-03; -1.0003036E-01;5821; -2.8614439E-02;  0.0000000E+00;  1.6523959E-03;  9.9938660E+02;  1.0004845E-01; -5.0818311E+02;3;  3.5509815E+00;  0.0000000E+00;  1.3624816E+00;0; -3.7640773E-02;  3.9920773E+04;  0.0000000E+00; -5.3993005E-02;  4.0000000E+04;  0.0000000E+00;  3.9988078E+04; -2.4003126E-02;  0.0000000E+00; -1.3637646E-02;  1.4022917E+03;
  5.5156648E-01;  9.9999998E-03; -9.0029515E-02;5822; -2.8734477E-02;  0.0000000E+00;  1.4962597E-03;  9.9933075E+02;  1.0004840E-01; -5.5445343E+02;3;  3.5845513E+00;  0.0000000E+00;  1.2411644E+00;0; -3.7989859E-02;  3.9916477E+04;  0.0000000E+00; -6.0383514E-02;  4.0000000E+04;  0.0000000E+00;  3.9987941E+04; -2.3981953E-02;  0.0000000E+00; -1.4007905E-02;  1.4141681E+03;
  5.5156165E-01;  9.9999998E-03; -8.0028273E-02;5823; -2.8846281E-02;  0.0000000E+00;  1.3368295E-03;  9.9927991E+02;  1.0004842E-01; -5.9657568E+02;3;  3.6163042E+00;  0.0000000E+00;  1.1153069E+00;0; -3.8301200E-02;  3.9912277E+04;  0.0000000E+00; -6.1749052E-02;  4.0000000E+04;  0.0000000E+00;  3.9987879E+04; -2.3969067E-02;  0.0000000E+00; -1.4332132E-02;  1.4231644E+03;
  5.5155486E-01;  9.9999998E-03; -7.0026591E-02;5824; -2.8949408E-02;  0.0000000E+00;  1.1748595E-03;  9.9923309E+02;  1.0004834E-01; -6.3538940E+02;3;  3.6455700E+00;  0.0000000E+00;  9.8534536E-01;0; -3.8575388E-02;  3.9908875E+04;  0.0000000E+00; -5.8275912E-02;  4.0000000E+04;  0.0000000E+00;  3.9987730E+04; -2.3964196E-02;  0.0000000E+00; -1.4611193E-02;  1.4378060E+03;
  5.5154675E-01;  9.9999998E-03; -6.0024507E-02;5825; -2.9043049E-02;  0.0000000E+00;  1.0108890E-03;  9.9919580E+02;  1.0004846E-01; -6.6625269E+02;3;  3.6719830E+00;  0.0000000E+00;  8.5168409E-01;0; -3.8813137E-02;  3.9906145E+04;  0.0000000E+00; -5.0708253E-02;  4.0000000E+04;  0.0000000E+00;  3.9987504E+04; -2.3966322E-02;  0.0000000E+00; -1.4846817E-02;  1.4629303E+03;
  5.5153781E-01;  9.9999998E-03; -5.0022066E-02;5826; -2.9125990E-02;  0.0000000E+00;  8.4527780E-04;  9.9916467E+02;  1.0004857E-01; -6.9202979E+02;3;  3.6951809E+00;  0.0000000E+00;  7.1480250E-01;0; -3.9015006E-02;  3.9904047E+04;  0.0000000E+00; -4.0308073E-02;  4.0000000E+04;  0.0000000E+00;  3.9987074E+04; -2.3973783E-02;  0.0000000E+00; -1.5041222E-02;  1.4992197E+03;
  5.5152935E-01;  9.9999998E-03; -4.0019073E-02;5827; -2.9196825E-02;  0.0000000E+00;  6.7825639E-04;  9.9914343E+02;  1.0004835E-01; -7.0965887E+02;3;  3.7146308E+00;  0.0000000E+00;  5.7520109E-01;0; -3.9180934E-02;  3.9902508E+04;  0.0000000E+00; -2.8659532E-02;  4.0000000E+04;  0.0000000E+00;  3.9986660E+04; -2.3984207E-02;  0.0000000E+00; -1.5196726E-02;  1.5433926E+03;
  5.5152166E-01;  9.9999998E-03; -3.0015426E-02;5828; -2.9254008E-02;  0.0000000E+00;  5.0999358E-04;  9.9913281E+02;  1.0004839E-01; -7.1844879E+02;3;  3.7300804E+00;  0.0000000E+00;  4.3337414E-01;0; -3.9310925E-02;  3.9901863E+04;  0.0000000E+00; -1.7440658E-02;  4.0000000E+04;  0.0000000E+00;  3.9986262E+04; -2.3995493E-02;  0.0000000E+00; -1.5315432E-02;  1.5894407E+03;
  5.5151534E-01;  9.9999998E-03; -2.0011103E-02;5829; -2.9296063E-02;  0.0000000E+00;  3.4067454E-04;  9.9912280E+02;  1.0004836E-01; -7.2674481E+02;3;  3.7412744E+00;  0.0000000E+00;  2.8985468E-01;0; -3.9404426E-02;  3.9901250E+04;  0.0000000E+00; -8.1863990E-03;  4.0000000E+04;  0.0000000E+00;  3.9986105E+04; -2.4005421E-02;  0.0000000E+00; -1.5399005E-02;  1.6299508E+03;
  5.5151093E-01;  9.9999998E-03; -1.0005936E-02;5830; -2.9321803E-02;  0.0000000E+00;  1.7056163E-04;  9.9911487E+02;  1.0004847E-01; -7.3331256E+02;3;  3.7480960E+00;  0.0000000E+00;  1.4520447E-01;0; -3.9460823E-02;  3.9900875E+04;  0.0000000E+00; -2.1134308E-03;  4.0000000E+04;  0.0000000E+00;  3.9985969E+04; -2.4012160E-02;  0.0000000E+00; -1.5448664E-02;  1.6578229E+03;
  5.5150932E-01;  9.9999998E-03;  2.2738786E-09;5831; -2.9330481E-02;  0.0000000E+00;  1.3978084E-08;  9.9911493E+02;  1.0004861E-01; -7.3326318E+02;3;  3.7504008E+00;  0.0000000E+00; -1.4622005E-05;0; -3.9479692E-02;  3.9900863E+04;  0.0000000E+00;  3.2096949E-12;  4.0000000E+04;  0.0000000E+00;  3.9985781E+04; -2.4014561E-02;  0.0000000E+00; -1.5465131E-02;  1.6678088E+03;
  5.5151093E-01;  9.9999998E-03;  1.0005941E-02;5832; -2.9321805E-02;  0.0000000E+00; -1.7053397E-04;  9.9911493E+02;  1.0004843E-01; -7.3326318E+02;3;  3.7480869E+00;  0.0000000E+00; -1.4522651E-01;0; -3.9460845E-02;  3.9900871E+04;  0.0000000E+00; -2.1138359E-03;  4.0000000E+04;  0.0000000E+00;  3.9985969E+04; -2.4012184E-02;  0.0000000E+00; -1.5448660E-02;  1.6578322E+03;
  5.5151534E-01;  9.9999998E-03;  2.0011107E-02;5833; -2.9296065E-02;  0.0000000E+00; -3.4064634E-04;  9.9912286E+02;  1.0004843E-01; -7.2669543E+02;3;  3.7412846E+00;  0.0000000E+00; -2.8988546E-01;0; -3.9404426E-02;  3.9901254E+04;  0.0000000E+00; -8.1870286E-03;  4.0000000E+04;  0.0000000E+00;  3.9986105E+04; -2.4005413E-02;  0.0000000E+00; -1.5399012E-02;  1.6299602E+03;
  5.5152166E-01;  9.9999998E-03;  3.0015429E-02;5834; -2.9254016E-02;  0.0000000E+00; -5.0996366E-04;  9.9913281E+02;  1.0004839E-01; -7.1844879E+02;3;  3.7300572E+00;  0.0000000E+00; -4.3337774E-01;0; -3.9310958E-02;  3.9901867E+04;  0.0000000E+00; -1.7441479E-02;  4.0000000E+04;  0.0000000E+00;  3.9986262E+04; -2.3995513E-02;  0.0000000E+00; -1.5315446E-02;  1.5894347E+03;
  5.5152935E-01;  9.9999998E-03;  4.0019076E-02;5835; -2.9196830E-02;  0.0000000E+00; -6.7822676E-04;  9.9914343E+02;  1.0004835E-01; -7.0965887E+02;3;  3.7146115E+00;  0.0000000E+00; -5.7520902E-01;0; -3.9180964E-02;  3.9902508E+04;  0.0000000E+00; -2.8660061E-02;  4.0000000E+04;  0.0000000E+00;  3.9986660E+04; -2.3984231E-02;  0.0000000E+00; -1.5196733E-02;  1.5433804E+03;
  5.5153781E-01;  9.9999998E-03;  5.0022069E-02;5836; -2.9126000E-02;  0.0000000E+00; -8.4524776E-04;  9.9916479E+02;  1.0004857E-01; -6.9193097E+02;3;  3.6951382E+00;  0.0000000E+00; -7.1480757E-01;0; -3.9015029E-02;  3.9904047E+04;  0.0000000E+00; -4.0309094E-02;  4.0000000E+04;  0.0000000E+00;  3.9987074E+04; -2.3973804E-02;  0.0000000E+00; -1.5041226E-02;  1.4992264E+03;
  5.5154675E-01;  9.9999998E-03;  6.0024511E-02;5837; -2.9043062E-02;  0.0000000E+00; -1.0108599E-03;  9.9919586E+02;  1.0004842E-01; -6.6620331E+02;3;  3.6719902E+00;  0.0000000E+00; -8.5168481E-01;0; -3.8813181E-02;  3.9906141E+04;  0.0000000E+00; -5.0709773E-02;  4.0000000E+04;  0.0000000E+00;  3.9987504E+04; -2.3966365E-02;  0.0000000E+00; -1.4846818E-02;  1.4629475E+03;
  5.6160045E-01;  9.9999998E-03; -1.0003904E-01;5882; -2.8858852E-02;  0.0000000E+00;  1.7171529E-03;  9.9930267E+02;  1.0007958E-01; -5.7771204E+02;3;  3.7215123E+00;  0.0000000E+00;  1.4072454E+00;0; -3.7003718E-02;  3.9889660E+04;  0.0000000E+00;  1.7426802E-02;  4.0000000E+04;  0.0000000E+00;  3.9987258E+04; -2.2683937E-02;  0.0000000E+00; -1.4319779E-02;  1.4654746E+03;
  5.6160015E-01;  9.9999998E-03; -9.0037346E-02;5883; -2.8978894E-02;  0.0000000E+00;  1.5534810E-03;  9.9923383E+02;  1.0007951E-01; -6.3474744E+02;3;  3.7601078E+00;  0.0000000E+00;  1.2822098E+00;0; -3.7357524E-02;  3.9884199E+04;  0.0000000E+00;  6.4564273E-03;  4.0000000E+04;  0.0000000E+00;  3.9987078E+04; -2.2677468E-02;  0.0000000E+00; -1.4680056E-02;  1.4861997E+03;
  5.6159645E-01;  9.9999998E-03; -8.0035239E-02;5884; -2.9091129E-02;  0.0000000E+00;  1.3870698E-03;  9.9916754E+02;  1.0007960E-01; -6.8965948E+02;3;  3.7963848E+00;  0.0000000E+00;  1.1524667E+00;0; -3.7673138E-02;  3.9878973E+04;  0.0000000E+00; -2.6636522E-03;  4.0000000E+04;  0.0000000E+00;  3.9986949E+04; -2.2678686E-02;  0.0000000E+00; -1.4994451E-02;  1.5020320E+03;
  5.6158936E-01;  9.9999998E-03; -7.0032693E-02;5885; -2.9195035E-02;  0.0000000E+00;  1.2185590E-03;  9.9910486E+02;  1.0007960E-01; -7.4160858E+02;3;  3.8298430E+00;  0.0000000E+00;  1.0183930E+00;0; -3.7951384E-02;  3.9874160E+04;  0.0000000E+00; -9.0120342E-03;  4.0000000E+04;  0.0000000E+00;  3.9986711E+04; -2.2686888E-02;  0.0000000E+00; -1.5264497E-02;  1.5223428E+03;
  5.6157976E-01;  9.9999998E-03; -6.0029700E-02;5886; -2.9289706E-02;  0.0000000E+00;  1.0483321E-03;  9.9905188E+02;  1.0007947E-01; -7.8550861E+02;3;  3.8599634E+00;  0.0000000E+00;  8.8044059E-01;0; -3.8192984E-02;  3.9870164E+04;  0.0000000E+00; -1.2162469E-02;  4.0000000E+04;  0.0000000E+00;  3.9986434E+04; -2.2700606E-02;  0.0000000E+00; -1.5492379E-02;  1.5530059E+03;
  5.6156898E-01;  9.9999998E-03; -5.0026361E-02;5887; -2.9373823E-02;  0.0000000E+00;  8.7660039E-04;  9.9900745E+02;  1.0007939E-01; -8.2229767E+02;3;  3.8862960E+00;  0.0000000E+00;  7.3910034E-01;0; -3.8398311E-02;  3.9867004E+04;  0.0000000E+00; -1.2311351E-02;  4.0000000E+04;  0.0000000E+00;  3.9986121E+04; -2.2717791E-02;  0.0000000E+00; -1.5680520E-02;  1.5953341E+03;
  5.6155819E-01;  9.9999998E-03; -4.0022694E-02;5888; -2.9445820E-02;  0.0000000E+00;  7.0347544E-04;  9.9897296E+02;  1.0007937E-01; -8.5088947E+02;3;  3.9083977E+00;  0.0000000E+00;  5.9484345E-01;0; -3.8567491E-02;  3.9864652E+04;  0.0000000E+00; -1.0184399E-02;  4.0000000E+04;  0.0000000E+00;  3.9985617E+04; -2.2736305E-02;  0.0000000E+00; -1.5831186E-02;  1.6460951E+03;
  5.6154817E-01;  9.9999998E-03; -3.0018441E-02;5889; -2.9504033E-02;  0.0000000E+00;  5.2904827E-04;  9.9894641E+02;  1.0007945E-01; -8.7286414E+02;3;  3.9259069E+00;  0.0000000E+00;  4.4824004E-01;0; -3.8700197E-02;  3.9863102E+04;  0.0000000E+00; -6.8402276E-03;  4.0000000E+04;  0.0000000E+00;  3.9985113E+04; -2.2753773E-02;  0.0000000E+00; -1.5946424E-02;  1.6988129E+03;
  5.6153971E-01;  9.9999998E-03; -2.0013418E-02;5890; -2.9546916E-02;  0.0000000E+00;  3.5346433E-04;  9.9892987E+02;  1.0007954E-01; -8.8659216E+02;3;  3.9385905E+00;  0.0000000E+00;  2.9983535E-01;0; -3.8795747E-02;  3.9861949E+04;  0.0000000E+00; -3.4192135E-03;  4.0000000E+04;  0.0000000E+00;  3.9984766E+04; -2.2768078E-02;  0.0000000E+00; -1.6027667E-02;  1.7451998E+03;
  5.6153345E-01;  9.9999998E-03; -1.0007394E-02;5891; -2.9573197E-02;  0.0000000E+00;  1.7698992E-04;  9.9892206E+02;  1.0007961E-01; -8.9306110E+02;3;  3.9462683E+00;  0.0000000E+00;  1.5021980E-01;0; -3.8853522E-02;  3.9861195E+04;  0.0000000E+00; -9.1446046E-04;  4.0000000E+04;  0.0000000E+00;  3.9984543E+04; -2.2777541E-02;  0.0000000E+00; -1.6075982E-02;  1.7771863E+03;
  5.6153095E-01;  9.9999998E-03;  2.2479310E-09;5892; -2.9582031E-02;  0.0000000E+00;  1.5033381E-08;  9.9891675E+02;  1.0007939E-01; -8.9745605E+02;3;  3.9488716E+00;  0.0000000E+00; -1.6687338E-05;0; -3.8872868E-02;  3.9861098E+04;  0.0000000E+00;  3.0109153E-12;  4.0000000E+04;  0.0000000E+00;  3.9984461E+04; -2.2780864E-02;  0.0000000E+00; -1.6092004E-02;  1.7886128E+03;
  5.6153345E-01;  9.9999998E-03;  1.0007399E-02;5893; -2.9573198E-02;  0.0000000E+00; -1.7696056E-04;  9.9892206E+02;  1.0007961E-01; -8.9306110E+02;3;  3.9463155E+00;  0.0000000E+00; -1.5025114E-01;0; -3.8853534E-02;  3.9861191E+04;  0.0000000E+00; -9.1484457E-04;  4.0000000E+04;  0.0000000E+00;  3.9984543E+04; -2.2777544E-02;  0.0000000E+00; -1.6075987E-02;  1.7771917E+03;
  5.6153971E-01;  9.9999998E-03;  2.0013422E-02;5894; -2.9546922E-02;  0.0000000E+00; -3.5343491E-04;  9.9892987E+02;  1.0007954E-01; -8.8659216E+02;3;  3.9385769E+00;  0.0000000E+00; -2.9985577E-01;0; -3.8795743E-02;  3.9861941E+04;  0.0000000E+00; -3.4200582E-03;  4.0000000E+04;  0.0000000E+00;  3.9984770E+04; -2.2768075E-02;  0.0000000E+00; -1.6027668E-02;  1.7452023E+03;
  5.6154817E-01;  9.9999998E-03;  3.0018447E-02;5895; -2.9504037E-02;  0.0000000E+00; -5.2901777E-04;  9.9894641E+02;  1.0007945E-01; -8.7286414E+02;3;  3.9259126E+00;  0.0000000E+00; -4.4825768E-01;0; -3.8700208E-02;  3.9863102E+04;  0.0000000E+00; -6.8420786E-03;  4.0000000E+04;  0.0000000E+00;  3.9985113E+04; -2.2753801E-02;  0.0000000E+00; -1.5946405E-02;  1.6988245E+03;
  5.6155819E-01;  9.9999998E-03;  4.0022697E-02;5896; -2.9445831E-02;  0.0000000E+00; -7.0344517E-04;  9.9897296E+02;  1.0007937E-01; -8.5088947E+02;3;  3.9083629E+00;  0.0000000E+00; -5.9486580E-01;0; -3.8567528E-02;  3.9864648E+04;  0.0000000E+00; -1.0186050E-02;  4.0000000E+04;  0.0000000E+00;  3.9985617E+04; -2.2736330E-02;  0.0000000E+00; -1.5831200E-02;  1.6460964E+03;
  5.6156898E-01;  9.9999998E-03;  5.0026365E-02;5897; -2.9373830E-02;  0.0000000E+00; -8.7656901E-04;  9.9900745E+02;  1.0007939E-01; -8.2229767E+02;3;  3.8862839E+00;  0.0000000E+00; -7.3911315E-01;0; -3.8398355E-02;  3.9867008E+04;  0.0000000E+00; -1.2312651E-02;  4.0000000E+04;  0.0000000E+00;  3.9986121E+04; -2.2717835E-02;  0.0000000E+00; -1.5680520E-02;  1.5953396E+03;
  5.6157976E-01;  9.9999998E-03;  6.0029704E-02;5898; -2.9289719E-02;  0.0000000E+00; -1.0483010E-03;  9.9905182E+02;  1.0007951E-01; -7.8555798E+02;3;  3.8599465E+00;  0.0000000E+00; -8.8044578E-01;0; -3.8192995E-02;  3.9870160E+04;  0.0000000E+00; -1.2163468E-02;  4.0000000E+04;  0.0000000E+00;  3.9986434E+04; -2.2700598E-02;  0.0000000E+00; -1.5492397E-02;  1.5530049E+03;
  5.7167995E-01;  9.9999998E-03; -1.0003705E-01;5943; -2.9095348E-02;  0.0000000E+00;  1.7680984E-03;  9.9930377E+02;  1.0013086E-01; -5.7682312E+02;3;  3.8967094E+00;  0.0000000E+00;  1.4517164E+00;0; -3.6256999E-02;  3.9849391E+04;  0.0000000E+00;  9.7361140E-02;  4.0000000E+04;  0.0000000E+00;  3.9986582E+04; -2.1307826E-02;  0.0000000E+00; -1.4949173E-02;  1.5227076E+03;
  5.7168674E-01;  9.9999998E-03; -9.0034597E-02;5944; -2.9215826E-02;  0.0000000E+00;  1.5979774E-03;  9.9922986E+02;  1.0013097E-01; -6.3805597E+02;3;  3.9406340E+00;  0.0000000E+00;  1.3230407E+00;0; -3.6615424E-02;  3.9843582E+04;  0.0000000E+00;  8.3307311E-02;  4.0000000E+04;  0.0000000E+00;  3.9986234E+04; -2.1316994E-02;  0.0000000E+00; -1.5298428E-02;  1.5463676E+03;
  5.7168913E-01;  9.9999998E-03; -8.0031864E-02;5945; -2.9328937E-02;  0.0000000E+00;  1.4258004E-03;  9.9915753E+02;  1.0013099E-01; -6.9795551E+02;3;  3.9819078E+00;  0.0000000E+00;  1.1894925E+00;0; -3.6934827E-02;  3.9837953E+04;  0.0000000E+00;  6.6959396E-02;  4.0000000E+04;  0.0000000E+00;  3.9986195E+04; -2.1331888E-02;  0.0000000E+00; -1.5602940E-02;  1.5629808E+03;
  5.7168740E-01;  9.9999998E-03; -7.0028849E-02;5946; -2.9434074E-02;  0.0000000E+00;  1.2520646E-03;  9.9908771E+02;  1.0013084E-01; -7.5583044E+02;3;  4.0198312E+00;  0.0000000E+00;  1.0513986E+00;0; -3.7216246E-02;  3.9832867E+04;  0.0000000E+00;  5.0367072E-02;  4.0000000E+04;  0.0000000E+00;  3.9985828E+04; -2.1351540E-02;  0.0000000E+00; -1.5864706E-02;  1.5830520E+03;
  5.7168162E-01;  9.9999998E-03; -6.0025658E-02;5947; -2.9530188E-02;  0.0000000E+00;  1.0769654E-03;  9.9902673E+02;  1.0013077E-01; -8.0634753E+02;3;  4.0540128E+00;  0.0000000E+00;  9.0921986E-01;0; -3.7460692E-02;  3.9828043E+04;  0.0000000E+00;  3.5264950E-02;  4.0000000E+04;  0.0000000E+00;  3.9985598E+04; -2.1374548E-02;  0.0000000E+00; -1.6086144E-02;  1.6134197E+03;
  5.7167304E-01;  9.9999998E-03; -5.0022338E-02;5948; -2.9615808E-02;  0.0000000E+00;  9.0053596E-04;  9.9897156E+02;  1.0013092E-01; -8.5202521E+02;3;  4.0838156E+00;  0.0000000E+00;  7.6344073E-01;0; -3.7668668E-02;  3.9824145E+04;  0.0000000E+00;  2.2773212E-02;  4.0000000E+04;  0.0000000E+00;  3.9985207E+04; -2.1399057E-02;  0.0000000E+00; -1.6269613E-02;  1.6561638E+03;
  5.7166272E-01;  9.9999998E-03; -4.0019006E-02;5949; -2.9689273E-02;  0.0000000E+00;  7.2275783E-04;  9.9892981E+02;  1.0013068E-01; -8.8664154E+02;3;  4.1088266E+00;  0.0000000E+00;  6.1457062E-01;0; -3.7840247E-02;  3.9821367E+04;  0.0000000E+00;  1.3336097E-02;  4.0000000E+04;  0.0000000E+00;  3.9984789E+04; -2.1423088E-02;  0.0000000E+00; -1.6417159E-02;  1.7083317E+03;
  5.7165241E-01;  9.9999998E-03; -3.0015487E-02;5950; -2.9748764E-02;  0.0000000E+00;  5.4363284E-04;  9.9889539E+02;  1.0013074E-01; -9.1513452E+02;3;  4.1286368E+00;  0.0000000E+00;  4.6317729E-01;0; -3.7974954E-02;  3.9818902E+04;  0.0000000E+00;  6.8307929E-03;  4.0000000E+04;  0.0000000E+00;  3.9984340E+04; -2.1444483E-02;  0.0000000E+00; -1.6530473E-02;  1.7631251E+03;
  5.7164341E-01;  9.9999998E-03; -2.0011565E-02;5951; -2.9792635E-02;  0.0000000E+00;  3.6326706E-04;  9.9887103E+02;  1.0013067E-01; -9.3533148E+02;3;  4.1430259E+00;  0.0000000E+00;  3.0987066E-01;0; -3.8071953E-02;  3.9817422E+04;  0.0000000E+00;  2.7898734E-03;  4.0000000E+04;  0.0000000E+00;  3.9983816E+04; -2.1461308E-02;  0.0000000E+00; -1.6610647E-02;  1.8117338E+03;
  5.7163656E-01;  9.9999998E-03; -1.0006721E-02;5952; -2.9819554E-02;  0.0000000E+00;  1.8192234E-04;  9.9885938E+02;  1.0013087E-01; -9.4501025E+02;3;  4.1517143E+00;  0.0000000E+00;  1.5526479E-01;0; -3.8130738E-02;  3.9816426E+04;  0.0000000E+00;  6.5716892E-04;  4.0000000E+04;  0.0000000E+00;  3.9983734E+04; -2.1472236E-02;  0.0000000E+00; -1.6658502E-02;  1.8454714E+03;
  5.7163382E-01;  9.9999998E-03;  2.1970517E-09;5953; -2.9828604E-02;  0.0000000E+00;  1.5144494E-08;  9.9885242E+02;  1.0013071E-01; -9.5073846E+02;3;  4.1546316E+00;  0.0000000E+00; -1.8593231E-05;0; -3.8150378E-02;  3.9816188E+04;  0.0000000E+00;  1.8934307E-12;  4.0000000E+04;  0.0000000E+00;  3.9983551E+04; -2.1476012E-02;  0.0000000E+00; -1.6674366E-02;  1.8575588E+03;
  5.7163656E-01;  9.9999998E-03;  1.0006726E-02;5954; -2.9819556E-02;  0.0000000E+00; -1.8189177E-04;  9.9885925E+02;  1.0013088E-01; -9.4510901E+02;3;  4.1516833E+00;  0.0000000E+00; -1.5529943E-01;0; -3.8130708E-02;  3.9816426E+04;  0.0000000E+00;  6.5669056E-04;  4.0000000E+04;  0.0000000E+00;  3.9983734E+04; -2.1472208E-02;  0.0000000E+00; -1.6658500E-02;  1.8454717E+03;
  5.7164341E-01;  9.9999998E-03;  2.0011568E-02;5955; -2.9792642E-02;  0.0000000E+00; -3.6323577E-04;  9.9887103E+02;  1.0013067E-01; -9.3533148E+02;3;  4.1429782E+00;  0.0000000E+00; -3.0988336E-01;0; -3.8071997E-02;  3.9817422E+04;  0.0000000E+00;  2.7890967E-03;  4.0000000E+04;  0.0000000E+00;  3.9983816E+04; -2.1461340E-02;  0.0000000E+00; -1.6610658E-02;  1.8117267E+03;
  5.7165241E-01;  9.9999998E-03;  3.0015491E-02;5956; -2.9748771E-02;  0.0000000E+00; -5.4360245E-04;  9.9889539E+02;  1.0013074E-01; -9.1513452E+02;3;  4.1286368E+00;  0.0000000E+00; -4.6320441E-01;0; -3.7974946E-02;  3.9818891E+04;  0.0000000E+00;  6.8293959E-03;  4.0000000E+04;  0.0000000E+00;  3.9984340E+04; -2.1444468E-02;  0.0000000E+00; -1.6530477E-02;  1.7631146E+03;
  5.7166272E-01;  9.9999998E-03;  4.0019009E-02;5957; -2.9689284E-02;  0.0000000E+00; -7.2272593E-04;  9.9892975E+02;  1.0013068E-01; -8.8669092E+02;3;  4.1087837E+00;  0.0000000E+00; -6.1457855E-01;0; -3.7840262E-02;  3.9821387E+04;  0.0000000E+00;  1.3334326E-02;  4.0000000E+04;  0.0000000E+00;  3.9984789E+04; -2.1423081E-02;  0.0000000E+00; -1.6417179E-02;  1.7083336E+03;
  5.7167304E-01;  9.9999998E-03;  5.0022341E-02;5958; -2.9615816E-02;  0.0000000E+00; -9.0050482E-04;  9.9897137E+02;  1.0013079E-01; -8.5217334E+02;3;  4.0838318E+00;  0.0000000E+00; -7.6342648E-01;0; -3.7668735E-02;  3.9824148E+04;  0.0000000E+00;  2.2770122E-02;  4.0000000E+04;  0.0000000E+00;  3.9985207E+04; -2.1399090E-02;  0.0000000E+00; -1.6269643E-02;  1.6561603E+03;
  5.7168162E-01;  9.9999998E-03;  6.0025666E-02;5959; -2.9530199E-02;  0.0000000E+00; -1.0769333E-03;  9.9902667E+02;  1.0013077E-01; -8.0639691E+02;3;  4.0539603E+00;  0.0000000E+00; -9.0921354E-01;0; -3.7460722E-02;  3.9828043E+04;  0.0000000E+00;  3.5260294E-02;  4.0000000E+04;  0.0000000E+00;  3.9985594E+04; -2.1374555E-02;  0.0000000E+00; -1.6086167E-02;  1.6134193E+03;
  5.8178127E-01;  9.9999998E-03; -1.0002978E-01;6004; -2.9318733E-02;  0.0000000E+00;  1.8057271E-03;  9.9935376E+02;  1.0021400E-01; -5.3539221E+02;3;  4.0759068E+00;  0.0000000E+00;  1.4953938E+00;0; -3.5414688E-02;  3.9788727E+04;  0.0000000E+00;  1.6994138E-01;  4.0000000E+04;  0.0000000E+00;  3.9985727E+04; -1.9897241E-02;  0.0000000E+00; -1.5517445E-02;  1.5664840E+03;
  5.8180350E-01;  9.9999998E-03; -9.0025939E-02;6005; -2.9440101E-02;  0.0000000E+00;  1.6303569E-03;  9.9928546E+02;  1.0021414E-01; -5.9198322E+02;3;  4.1255903E+00;  0.0000000E+00;  1.3632185E+00;0; -3.5779614E-02;  3.9783719E+04;  0.0000000E+00;  1.5535375E-01;  4.0000000E+04;  0.0000000E+00;  3.9985555E+04; -1.9922737E-02;  0.0000000E+00; -1.5856877E-02;  1.5860009E+03;
  5.8181983E-01;  9.9999998E-03; -8.0022097E-02;6006; -2.9554527E-02;  0.0000000E+00;  1.4536682E-03;  9.9921899E+02;  1.0021397E-01; -6.4704340E+02;3;  4.1721773E+00;  0.0000000E+00;  1.2259915E+00;0; -3.6104165E-02;  3.9778367E+04;  0.0000000E+00;  1.3405719E-01;  4.0000000E+04;  0.0000000E+00;  3.9985496E+04; -1.9950774E-02;  0.0000000E+00; -1.6153391E-02;  1.5973063E+03;
  5.8182883E-01;  9.9999998E-03; -7.0018582E-02;6007; -2.9661264E-02;  0.0000000E+00;  1.2760021E-03;  9.9915668E+02;  1.0021388E-01; -6.9869623E+02;3;  4.2150445E+00;  0.0000000E+00;  1.0840406E+00;0; -3.6389887E-02;  3.9773805E+04;  0.0000000E+00;  1.0898265E-01;  4.0000000E+04;  0.0000000E+00;  3.9985086E+04; -1.9980624E-02;  0.0000000E+00; -1.6409265E-02;  1.6116168E+03;
  5.8183080E-01;  9.9999998E-03; -6.0015518E-02;6008; -2.9759079E-02;  0.0000000E+00;  1.0973595E-03;  9.9909564E+02;  1.0021403E-01; -7.4926270E+02;3;  4.2535625E+00;  0.0000000E+00;  9.3775737E-01;0; -3.6638007E-02;  3.9769270E+04;  0.0000000E+00;  8.3055057E-02;  4.0000000E+04;  0.0000000E+00;  3.9985016E+04; -2.0011110E-02;  0.0000000E+00; -1.6626894E-02;  1.6366704E+03;
  5.8182722E-01;  9.9999998E-03; -5.0012935E-02;6009; -2.9846454E-02;  0.0000000E+00;  9.1758842E-04;  9.9904303E+02;  1.0021371E-01; -7.9281702E+02;3;  4.2872343E+00;  0.0000000E+00;  7.8762782E-01;0; -3.6849134E-02;  3.9765484E+04;  0.0000000E+00;  5.8746975E-02;  4.0000000E+04;  0.0000000E+00;  3.9984508E+04; -2.0040752E-02;  0.0000000E+00; -1.6808379E-02;  1.6753132E+03;
  5.8181936E-01;  9.9999998E-03; -4.0010825E-02;6010; -2.9921550E-02;  0.0000000E+00;  7.3652336E-04;  9.9899963E+02;  1.0021380E-01; -8.2876660E+02;3;  4.3153629E+00;  0.0000000E+00;  6.3420308E-01;0; -3.7023425E-02;  3.9762328E+04;  0.0000000E+00;  3.7798744E-02;  4.0000000E+04;  0.0000000E+00;  3.9984074E+04; -2.0068046E-02;  0.0000000E+00; -1.6955381E-02;  1.7247753E+03;
  5.8180970E-01;  9.9999998E-03; -3.0008933E-02;6011; -2.9982435E-02;  0.0000000E+00;  5.5407069E-04;  9.9896167E+02;  1.0021389E-01; -8.6022253E+02;3;  4.3377094E+00;  0.0000000E+00;  4.7806880E-01;0; -3.7160277E-02;  3.9759961E+04;  0.0000000E+00;  2.1207567E-02;  4.0000000E+04;  0.0000000E+00;  3.9983637E+04; -2.0091305E-02;  0.0000000E+00; -1.7068973E-02;  1.7781174E+03;
  5.8180118E-01;  9.9999998E-03; -2.0007022E-02;6012; -3.0027432E-02;  0.0000000E+00;  3.7029741E-04;  9.9893774E+02;  1.0021383E-01; -8.8007379E+02;3;  4.3539119E+00;  0.0000000E+00;  3.1988361E-01;0; -3.7258945E-02;  3.9758355E+04;  0.0000000E+00;  9.3723964E-03;  4.0000000E+04;  0.0000000E+00;  3.9983328E+04; -2.0109067E-02;  0.0000000E+00; -1.7149879E-02;  1.8262036E+03;
  5.8179480E-01;  9.9999998E-03; -1.0004435E-02;6013; -3.0055001E-02;  0.0000000E+00;  1.8546401E-04;  9.9891821E+02;  1.0021370E-01; -8.9622150E+02;3;  4.3637238E+00;  0.0000000E+00;  1.6029949E-01;0; -3.7318662E-02;  3.9757172E+04;  0.0000000E+00;  2.3316639E-03;  4.0000000E+04;  0.0000000E+00;  3.9983008E+04; -2.0120295E-02;  0.0000000E+00; -1.7198367E-02;  1.8597646E+03;
  5.8179224E-01;  9.9999998E-03;  2.1163582E-09;6014; -3.0064318E-02;  0.0000000E+00;  1.5826554E-08;  9.9891351E+02;  1.0021380E-01; -9.0012262E+02;3;  4.3669686E+00;  0.0000000E+00; -1.9529112E-05;0; -3.7338652E-02;  3.9756883E+04;  0.0000000E+00;  1.5424465E-12;  4.0000000E+04;  0.0000000E+00;  3.9983066E+04; -2.0124141E-02;  0.0000000E+00; -1.7214511E-02;  1.8718550E+03;
  5.8179480E-01;  9.9999998E-03;  1.0004439E-02;6015; -3.0055007E-02;  0.0000000E+00; -1.8543187E-04;  9.9891821E+02;  1.0021370E-01; -8.9622150E+02;3;  4.3637371E+00;  0.0000000E+00; -1.6032735E-01;0; -3.7318669E-02;  3.9757168E+04;  0.0000000E+00;  2.3311265E-03;  4.0000000E+04;  0.0000000E+00;  3.9983012E+04; -2.0120300E-02;  0.0000000E+00; -1.7198367E-02;  1.8597617E+03;
  5.8180118E-01;  9.9999998E-03;  2.0007025E-02;6016; -3.0027436E-02;  0.0000000E+00; -3.7026478E-04;  9.9893774E+02;  1.0021383E-01; -8.8007379E+02;3;  4.3539023E+00;  0.0000000E+00; -3.1991139E-01;0; -3.7258968E-02;  3.9758355E+04;  0.0000000E+00;  9.3717687E-03;  4.0000000E+04;  0.0000000E+00;  3.9983328E+04; -2.0109074E-02;  0.0000000E+00; -1.7149892E-02;  1.8261934E+03;
  5.8180970E-01;  9.9999998E-03;  3.0008938E-02;6017; -2.9982440E-02;  0.0000000E+00; -5.5403885E-04;  9.9896167E+02;  1.0021389E-01; -8.6022253E+02;3;  4.3377180E+00;  0.0000000E+00; -4.7808409E-01;0; -3.7160322E-02;  3.9759961E+04;  0.0000000E+00;  2.1206072E-02;  4.0000000E+04;  0.0000000E+00;  3.9983637E+04; -2.0091346E-02;  0.0000000E+00; -1.7068978E-02;  1.7781183E+03;
  5.8181936E-01;  9.9999998E-03;  4.0010829E-02;6018; -2.9921561E-02;  0.0000000E+00; -7.3648902E-04;  9.9899963E+02;  1.0021380E-01; -8.2876660E+02;3;  4.3154092E+00;  0.0000000E+00; -6.3420147E-01;0; -3.7023444E-02;  3.9762328E+04;  0.0000000E+00;  3.7796084E-02;  4.0000000E+04;  0.0000000E+00;  3.9984074E+04; -2.0068061E-02;  0.0000000E+00; -1.6955383E-02;  1.7247769E+03;
  5.8182722E-01;  9.9999998E-03;  5.0012939E-02;6019; -2.9846467E-02;  0.0000000E+00; -9.1755256E-04;  9.9904303E+02;  1.0021371E-01; -7.9281702E+02;3;  4.2872257E+00;  0.0000000E+00; -7.8761816E-01;0; -3.6849204E-02;  3.9765484E+04;  0.0000000E+00;  5.8743134E-02;  4.0000000E+04;  0.0000000E+00;  3.9984508E+04; -2.0040780E-02;  0.0000000E+00; -1.6808424E-02;  1.6753071E+03;
  5.8183080E-01;  9.9999998E-03;  6.0015522E-02;6020; -2.9759090E-02;  0.0000000E+00; -1.0973254E-03;  9.9909564E+02;  1.0021403E-01; -7.4926270E+02;3;  4.2536149E+00;  0.0000000E+00; -9.3776202E-01;0; -3.6638062E-02;  3.9769273E+04;  0.0000000E+00;  8.3052322E-02;  4.0000000E+04;  0.0000000E+00;  3.9985016E+04; -2.0011146E-02;  0.0000000E+00; -1.6626917E-02;  1.6366804E+03;
  5.9186959E-01;  9.9999998E-03; -1.0002129E-01;6065; -2.9523434E-02;  0.0000000E+00;  1.8325369E-03;  9.9939252E+02;  1.0034835E-01; -5.0329437E+02;3;  4.2583137E+00;  0.0000000E+00;  1.5378729E+00;0; -3.4510832E-02;  3.9688043E+04;  0.0000000E+00;  2.1623562E-01;  4.0000000E+04;  0.0000000E+00;  3.9984820E+04; -1.8492633E-02;  0.0000000E+00; -1.6018199E-02;  1.5867672E+03;
  5.9190327E-01;  9.9999998E-03; -9.0017341E-02;6066; -2.9645812E-02;  0.0000000E+00;  1.6531659E-03;  9.9934753E+02;  1.0034798E-01; -5.4057727E+02;3;  4.3139486E+00;  0.0000000E+00;  1.4023705E+00;0; -3.4887720E-02;  3.9684527E+04;  0.0000000E+00;  2.0435232E-01;  4.0000000E+04;  0.0000000E+00;  3.9984617E+04; -1.8537376E-02;  0.0000000E+00; -1.6350344E-02;  1.5949794E+03;
  5.9193158E-01;  9.9999998E-03; -8.0013968E-02;6067; -2.9761599E-02;  0.0000000E+00;  1.4731784E-03;  9.9929816E+02;  1.0034810E-01; -5.8146497E+02;3;  4.3661346E+00;  0.0000000E+00;  1.2616534E+00;0; -3.5222054E-02;  3.9680934E+04;  0.0000000E+00;  1.8209821E-01;  4.0000000E+04;  0.0000000E+00;  3.9984688E+04; -1.8579839E-02;  0.0000000E+00; -1.6642217E-02;  1.5960424E+03;
  5.9195280E-01;  9.9999998E-03; -7.0010900E-02;6068; -2.9869977E-02;  0.0000000E+00;  1.2927406E-03;  9.9924957E+02;  1.0034806E-01; -6.2171075E+02;3;  4.4142714E+00;  0.0000000E+00;  1.1160229E+00;0; -3.5515688E-02;  3.9677441E+04;  0.0000000E+00;  1.5275200E-01;  4.0000000E+04;  0.0000000E+00;  3.9984480E+04; -1.8619653E-02;  0.0000000E+00; -1.6896036E-02;  1.6013716E+03;
  5.9196424E-01;  9.9999998E-03; -6.0008336E-02;6069; -2.9969607E-02;  0.0000000E+00;  1.1116678E-03;  9.9920508E+02;  1.0034783E-01; -6.5859863E+02;3;  4.4575033E+00;  0.0000000E+00;  9.6578270E-01;0; -3.5770319E-02;  3.9674121E+04;  0.0000000E+00;  1.1998950E-01;  4.0000000E+04;  0.0000000E+00;  3.9984301E+04; -1.8656528E-02;  0.0000000E+00; -1.7113794E-02;  1.6187701E+03;
  5.9196651E-01;  9.9999998E-03; -5.0006434E-02;6070; -3.0058717E-02;  0.0000000E+00;  9.2962891E-04;  9.9915906E+02;  1.0034808E-01; -6.9672101E+02;3;  4.4953074E+00;  0.0000000E+00;  8.1145239E-01;0; -3.5986952E-02;  3.9671035E+04;  0.0000000E+00;  8.7327316E-02;  4.0000000E+04;  0.0000000E+00;  3.9983945E+04; -1.8689822E-02;  0.0000000E+00; -1.7297132E-02;  1.6512783E+03;
  5.9196258E-01;  9.9999998E-03; -4.0005207E-02;6071; -3.0135488E-02;  0.0000000E+00;  7.4631721E-04;  9.9912341E+02;  1.0034766E-01; -7.2625104E+02;3;  4.5269642E+00;  0.0000000E+00;  6.5358305E-01;0; -3.6165588E-02;  3.9668562E+04;  0.0000000E+00;  5.7660080E-02;  4.0000000E+04;  0.0000000E+00;  3.9983508E+04; -1.8718584E-02;  0.0000000E+00; -1.7447002E-02;  1.6963867E+03;
  5.9195518E-01;  9.9999998E-03; -3.0004296E-02;6072; -3.0197801E-02;  0.0000000E+00;  5.6155084E-04;  9.9908966E+02;  1.0034752E-01; -7.5420081E+02;3;  4.5519719E+00;  0.0000000E+00;  4.9279541E-01;0; -3.6305822E-02;  3.9666551E+04;  0.0000000E+00;  3.3072501E-02;  4.0000000E+04;  0.0000000E+00;  3.9983152E+04; -1.8742021E-02;  0.0000000E+00; -1.7563801E-02;  1.7467882E+03;
  5.9194726E-01;  9.9999998E-03; -2.0003481E-02;6073; -3.0243846E-02;  0.0000000E+00;  3.7535920E-04;  9.9906342E+02;  1.0034764E-01; -7.7592859E+02;3;  4.5702152E+00;  0.0000000E+00;  3.2978523E-01;0; -3.6406986E-02;  3.9665203E+04;  0.0000000E+00;  1.4866115E-02;  4.0000000E+04;  0.0000000E+00;  3.9982777E+04; -1.8759420E-02;  0.0000000E+00; -1.7647566E-02;  1.7930424E+03;
  5.9194130E-01;  9.9999998E-03; -1.0002303E-02;6074; -3.0272184E-02;  0.0000000E+00;  1.8801662E-04;  9.9905212E+02;  1.0034753E-01; -7.8531104E+02;3;  4.5811515E+00;  0.0000000E+00;  1.6526906E-01;0; -3.6468096E-02;  3.9664168E+04;  0.0000000E+00;  3.7382608E-03;  4.0000000E+04;  0.0000000E+00;  3.9982422E+04; -1.8770102E-02;  0.0000000E+00; -1.7697996E-02;  1.8255642E+03;
  5.9193891E-01;  9.9999998E-03;  2.1401754E-09;6075; -3.0281739E-02;  0.0000000E+00;  1.6595177E-08;  9.9904779E+02;  1.0034761E-01; -7.8886652E+02;3;  4.5849133E+00;  0.0000000E+00; -2.1413744E-05;0; -3.6488604E-02;  3.9663863E+04;  0.0000000E+00;  1.5674409E-12;  4.0000000E+04;  0.0000000E+00;  3.9982281E+04; -1.8773736E-02;  0.0000000E+00; -1.7714867E-02;  1.8372938E+03;
  5.9194130E-01;  9.9999998E-03;  1.0002307E-02;6076; -3.0272190E-02;  0.0000000E+00; -1.8798313E-04;  9.9905225E+02;  1.0034746E-01; -7.8521228E+02;3;  4.5811877E+00;  0.0000000E+00; -1.6529915E-01;0; -3.6468107E-02;  3.9664168E+04;  0.0000000E+00;  3.7379507E-03;  4.0000000E+04;  0.0000000E+00;  3.9982426E+04; -1.8770102E-02;  0.0000000E+00; -1.7698005E-02;  1.8255746E+03;
  5.9194726E-01;  9.9999998E-03;  2.0003485E-02;6077; -3.0243853E-02;  0.0000000E+00; -3.7532480E-04;  9.9906354E+02;  1.0034756E-01; -7.7582983E+02;3;  4.5702200E+00;  0.0000000E+00; -3.2981679E-01;0; -3.6406994E-02;  3.9665203E+04;  0.0000000E+00;  1.4865405E-02;  4.0000000E+04;  0.0000000E+00;  3.9982777E+04; -1.8759429E-02;  0.0000000E+00; -1.7647563E-02;  1.7930414E+03;
  5.9195518E-01;  9.9999998E-03;  3.0004300E-02;6078; -3.0197810E-02;  0.0000000E+00; -5.6151644E-04;  9.9908972E+02;  1.0034752E-01; -7.5415143E+02;3;  4.5519814E+00;  0.0000000E+00; -4.9281508E-01;0; -3.6305889E-02;  3.9666555E+04;  0.0000000E+00;  3.3071101E-02;  4.0000000E+04;  0.0000000E+00;  3.9983152E+04; -1.8742045E-02;  0.0000000E+00; -1.7563842E-02;  1.7468029E+03;
  5.9196258E-01;  9.9999998E-03;  4.0005211E-02;6079; -3.0135499E-02;  0.0000000E+00; -7.4628065E-04;  9.9912341E+02;  1.0034766E-01; -7.2625104E+02;3;  4.5269260E+00;  0.0000000E+00; -6.5360034E-01;0; -3.6165621E-02;  3.9668559E+04;  0.0000000E+00;  5.7657875E-02;  4.0000000E+04;  0.0000000E+00;  3.9983508E+04; -1.8718617E-02;  0.0000000E+00; -1.7447004E-02;  1.6963878E+03;
  5.9196651E-01;  9.9999998E-03;  5.0006438E-02;6080; -3.0058730E-02;  0.0000000E+00; -9.2959270E-04;  9.9915906E+02;  1.0034808E-01; -6.9672101E+02;3;  4.4952416E+00;  0.0000000E+00; -8.1146425E-01;0; -3.5986934E-02;  3.9671031E+04;  0.0000000E+00;  8.7323949E-02;  4.0000000E+04;  0.0000000E+00;  3.9983941E+04; -1.8689806E-02;  0.0000000E+00; -1.7297128E-02;  1.6512872E+03;
  5.9196424E-01;  9.9999998E-03;  6.0008340E-02;6081; -2.9969620E-02;  0.0000000E+00; -1.1116320E-03;  9.9920502E+02;  1.0034789E-01; -6.5864801E+02;3;  4.4575605E+00;  0.0000000E+00; -9.6577728E-01;0; -3.5770386E-02;  3.9674113E+04;  0.0000000E+00;  1.1998773E-01;  4.0000000E+04;  0.0000000E+00;  3.9984301E+04; -1.8656559E-02;  0.0000000E+00; -1.7113829E-02;  1.6187782E+03;
  6.0191518E-01;  9.9999998E-03; -1.0001605E-01;6126; -2.9704830E-02;  0.0000000E+00;  1.8527310E-03;  9.9937170E+02;  1.0056186E-01; -5.2052844E+02;3;  4.4433036E+00;  0.0000000E+00;  1.5789770E+00;0; -3.3597827E-02;  3.9521059E+04;  0.0000000E+00;  2.1936756E-01;  4.0000000E+04;  0.0000000E+00;  3.9983453E+04; -1.7149715E-02;  0.0000000E+00; -1.6448114E-02;  1.5770197E+03;
  6.0194874E-01;  9.9999998E-03; -9.0014540E-02;6127; -2.9827913E-02;  0.0000000E+00;  1.6705904E-03;  9.9934723E+02;  1.0056183E-01; -5.4082416E+02;3;  4.5049057E+00;  0.0000000E+00;  1.4403462E+00;0; -3.3995457E-02;  3.9519477E+04;  0.0000000E+00;  2.1396875E-01;  4.0000000E+04;  0.0000000E+00;  3.9983555E+04; -1.7218068E-02;  0.0000000E+00; -1.6777387E-02;  1.5679768E+03;
  6.0197705E-01;  9.9999998E-03; -8.0013685E-02;6128; -2.9944750E-02;  0.0000000E+00;  1.4883516E-03;  9.9932288E+02;  1.0056185E-01; -5.6097174E+02;3;  4.5628409E+00;  0.0000000E+00;  1.2963628E+00;0; -3.4347311E-02;  3.9517949E+04;  0.0000000E+00;  1.9612214E-01;  4.0000000E+04;  0.0000000E+00;  3.9983602E+04; -1.7278017E-02;  0.0000000E+00; -1.7069293E-02;  1.5553102E+03;
  6.0199928E-01;  9.9999998E-03; -7.0012681E-02;6129; -3.0054402E-02;  0.0000000E+00;  1.3060226E-03;  9.9929718E+02;  1.0056146E-01; -5.8225507E+02;3;  4.6162987E+00;  0.0000000E+00;  1.1472142E+00;0; -3.4655526E-02;  3.9516184E+04;  0.0000000E+00;  1.6875647E-01;  4.0000000E+04;  0.0000000E+00;  3.9983633E+04; -1.7329725E-02;  0.0000000E+00; -1.7325804E-02;  1.5500308E+03;
  6.0201514E-01;  9.9999998E-03; -6.0011134E-02;6130; -3.0155485E-02;  0.0000000E+00;  1.1232555E-03;  9.9927112E+02;  1.0056137E-01; -6.0388409E+02;3;  4.6646047E+00;  0.0000000E+00;  9.9320143E-01;0; -3.4921952E-02;  3.9514531E+04;  0.0000000E+00;  1.3564542E-01;  4.0000000E+04;  0.0000000E+00;  3.9983488E+04; -1.7373411E-02;  0.0000000E+00; -1.7548539E-02;  1.5596980E+03;
  6.0202473E-01;  9.9999998E-03; -5.0008878E-02;6131; -3.0246263E-02;  0.0000000E+00;  9.3955960E-04;  9.9925055E+02;  1.0056134E-01; -6.2092065E+02;3;  4.7067685E+00;  0.0000000E+00;  8.3481681E-01;0; -3.5147797E-02;  3.9513324E+04;  0.0000000E+00;  1.0075288E-01;  4.0000000E+04;  0.0000000E+00;  3.9983125E+04; -1.7409453E-02;  0.0000000E+00; -1.7738344E-02;  1.5869500E+03;
  6.0202765E-01;  9.9999998E-03; -4.0006310E-02;6132; -3.0324496E-02;  0.0000000E+00;  7.5450860E-04;  9.9922406E+02;  1.0056116E-01; -6.4284595E+02;3;  4.7423258E+00;  0.0000000E+00;  6.7260462E-01;0; -3.5333730E-02;  3.9512008E+04;  0.0000000E+00;  6.7694224E-02;  4.0000000E+04;  0.0000000E+00;  3.9982766E+04; -1.7438466E-02;  0.0000000E+00; -1.7895263E-02;  1.6285378E+03;
  6.0202491E-01;  9.9999998E-03; -3.0004095E-02;6133; -3.0388147E-02;  0.0000000E+00;  5.6786969E-04;  9.9920300E+02;  1.0056099E-01; -6.6027759E+02;3;  4.7704668E+00;  0.0000000E+00;  5.0726306E-01;0; -3.5479479E-02;  3.9510918E+04;  0.0000000E+00;  3.9377660E-02;  4.0000000E+04;  0.0000000E+00;  3.9982227E+04; -1.7460793E-02;  0.0000000E+00; -1.8018685E-02;  1.6766849E+03;
  6.0202014E-01;  9.9999998E-03; -2.0002440E-02;6134; -3.0435242E-02;  0.0000000E+00;  3.7966276E-04;  9.9918719E+02;  1.0056104E-01; -6.7341302E+02;3;  4.7908287E+00;  0.0000000E+00;  3.3951283E-01;0; -3.5584420E-02;  3.9509883E+04;  0.0000000E+00;  1.7883761E-02;  4.0000000E+04;  0.0000000E+00;  3.9981969E+04; -1.7476615E-02;  0.0000000E+00; -1.8107805E-02;  1.7215065E+03;
  6.0201633E-01;  9.9999998E-03; -1.0001148E-02;6135; -3.0464167E-02;  0.0000000E+00;  1.9019282E-04;  9.9917468E+02;  1.0056102E-01; -6.8378308E+02;3;  4.8031883E+00;  0.0000000E+00;  1.7015781E-01;0; -3.5647791E-02;  3.9509691E+04;  0.0000000E+00;  4.5249853E-03;  4.0000000E+04;  0.0000000E+00;  3.9981832E+04; -1.7486040E-02;  0.0000000E+00; -1.8161751E-02;  1.7532679E+03;
  6.0201496E-01;  9.9999998E-03;  2.2444997E-09;6136; -3.0473959E-02;  0.0000000E+00;  1.7456717E-08;  9.9917267E+02;  1.0056108E-01; -6.8541266E+02;3;  4.8073459E+00;  0.0000000E+00; -1.8532783E-05;0; -3.5668977E-02;  3.9509348E+04;  0.0000000E+00;  7.2521936E-13;  4.0000000E+04;  0.0000000E+00;  3.9981566E+04; -1.7489137E-02;  0.0000000E+00; -1.8179839E-02;  1.7647175E+03;
  6.0201633E-01;  9.9999998E-03;  1.0001153E-02;6137; -3.0464171E-02;  0.0000000E+00; -1.9015750E-04;  9.9917474E+02;  1.0056102E-01; -6.8373370E+02;3;  4.8032126E+00;  0.0000000E+00; -1.7018816E-01;0; -3.5647810E-02;  3.9509691E+04;  0.0000000E+00;  4.5249248E-03;  4.0000000E+04;  0.0000000E+00;  3.9981828E+04; -1.7486038E-02;  0.0000000E+00; -1.8161770E-02;  1.7532656E+03;
  6.0202014E-01;  9.9999998E-03;  2.0002445E-02;6138; -3.0435245E-02;  0.0000000E+00; -3.7962713E-04;  9.9918719E+02;  1.0056099E-01; -6.7341302E+02;3;  4.7908525E+00;  0.0000000E+00; -3.3954290E-01;0; -3.5584461E-02;  3.9509883E+04;  0.0000000E+00;  1.7883297E-02;  4.0000000E+04;  0.0000000E+00;  3.9981965E+04; -1.7476628E-02;  0.0000000E+00; -1.8107833E-02;  1.7215063E+03;
  6.0202491E-01;  9.9999998E-03;  3.0004099E-02;6139; -3.0388154E-02;  0.0000000E+00; -5.6783319E-04;  9.9920294E+02;  1.0056105E-01; -6.6032697E+02;3;  4.7704177E+00;  0.0000000E+00; -5.0728840E-01;0; -3.5479493E-02;  3.9510918E+04;  0.0000000E+00;  3.9376419E-02;  4.0000000E+04;  0.0000000E+00;  3.9982227E+04; -1.7460814E-02;  0.0000000E+00; -1.8018680E-02;  1.6766940E+03;
  6.0202765E-01;  9.9999998E-03;  4.0006313E-02;6140; -3.0324511E-02;  0.0000000E+00; -7.5447158E-04;  9.9922412E+02;  1.0056146E-01; -6.4279657E+02;3;  4.7422743E+00;  0.0000000E+00; -6.7259979E-01;0; -3.5333771E-02;  3.9512016E+04;  0.0000000E+00;  6.7691855E-02;  4.0000000E+04;  0.0000000E+00;  3.9982766E+04; -1.7438484E-02;  0.0000000E+00; -1.7895287E-02;  1.6285502E+03;
  6.0202473E-01;  9.9999998E-03;  5.0008882E-02;6141; -3.0246276E-02;  0.0000000E+00; -9.3952147E-04;  9.9925049E+02;  1.0056129E-01; -6.2097003E+02;3;  4.7067904E+00;  0.0000000E+00; -8.3480901E-01;0; -3.5147876E-02;  3.9513336E+04;  0.0000000E+00;  1.0075081E-01;  4.0000000E+04;  0.0000000E+00;  3.9983129E+04; -1.7409502E-02;  0.0000000E+00; -1.7738374E-02;  1.5869425E+03;
  6.0201514E-01;  9.9999998E-03;  6.0011137E-02;6142; -3.0155502E-02;  0.0000000E+00; -1.1232186E-03;  9.9927118E+02;  1.0056137E-01; -6.0383472E+02;3;  4.6645684E+00;  0.0000000E+00; -9.9321395E-01;0; -3.4921989E-02;  3.9514527E+04;  0.0000000E+00;  1.3564011E-01;  4.0000000E+04;  0.0000000E+00;  3.9983488E+04; -1.7373433E-02;  0.0000000E+00; -1.7548556E-02;  1.5596978E+03;
  6.1189592E-01;  9.9999998E-03; -1.0002089E-01;6187; -2.9860023E-02;  0.0000000E+00;  1.8714431E-03;  9.9926697E+02;  1.0089583E-01; -6.0729144E+02;3;  4.6301560E+00;  0.0000000E+00;  1.6189109E+00;0; -3.2740809E-02;  3.9256684E+04;  0.0000000E+00;  1.6962564E-01;  4.0000000E+04;  0.0000000E+00;  3.9981301E+04; -1.5933566E-02;  0.0000000E+00; -1.6807243E-02;  1.5404246E+03;
  6.1192465E-01;  9.9999998E-03; -9.0021193E-02;6188; -2.9983787E-02;  0.0000000E+00;  1.6875698E-03;  9.9927325E+02;  1.0089567E-01; -6.0210638E+02;3;  4.6980500E+00;  0.0000000E+00;  1.4773983E+00;0; -3.3168662E-02;  3.9257355E+04;  0.0000000E+00;  1.7454396E-01;  4.0000000E+04;  0.0000000E+00;  3.9981586E+04; -1.6028682E-02;  0.0000000E+00; -1.7139981E-02;  1.5097101E+03;
  6.1194772E-01;  9.9999998E-03; -8.0021381E-02;6189; -3.0101372E-02;  0.0000000E+00;  1.5038016E-03;  9.9927509E+02;  1.0089529E-01; -6.0057556E+02;3;  4.7620139E+00;  0.0000000E+00;  1.3302925E+00;0; -3.3546738E-02;  3.9257977E+04;  0.0000000E+00;  1.6707702E-01;  4.0000000E+04;  0.0000000E+00;  3.9982051E+04; -1.6108369E-02;  0.0000000E+00; -1.7438367E-02;  1.4814526E+03;
  6.1196488E-01;  9.9999998E-03; -7.0020929E-02;6190; -3.0211885E-02;  0.0000000E+00;  1.3200269E-03;  9.9927698E+02;  1.0089497E-01; -5.9899536E+02;3;  4.8211470E+00;  0.0000000E+00;  1.1777409E+00;0; -3.3877201E-02;  3.9258480E+04;  0.0000000E+00;  1.4905272E-01;  4.0000000E+04;  0.0000000E+00;  3.9981926E+04; -1.6173542E-02;  0.0000000E+00; -1.7703660E-02;  1.4657552E+03;
  6.1197674E-01;  9.9999998E-03; -6.0019467E-02;6191; -3.0313913E-02;  0.0000000E+00;  1.1357984E-03;  9.9927734E+02;  1.0089485E-01; -5.9869910E+02;3;  4.8745604E+00;  0.0000000E+00;  1.0200641E+00;0; -3.4162089E-02;  3.9258789E+04;  0.0000000E+00;  1.2349131E-01;  4.0000000E+04;  0.0000000E+00;  3.9981703E+04; -1.6225386E-02;  0.0000000E+00; -1.7936705E-02;  1.4687750E+03;
  6.1198431E-01;  9.9999998E-03; -5.0017104E-02;6192; -3.0405588E-02;  0.0000000E+00;  9.5052668E-04;  9.9927338E+02;  1.0089473E-01; -6.0200763E+02;3;  4.9213533E+00;  0.0000000E+00;  8.5771090E-01;0; -3.4402914E-02;  3.9259105E+04;  0.0000000E+00;  9.4066069E-02;  4.0000000E+04;  0.0000000E+00;  3.9981625E+04; -1.6265342E-02;  0.0000000E+00; -1.8137574E-02;  1.4920071E+03;
  6.1198860E-01;  9.9999998E-03; -4.0013909E-02;6193; -3.0484827E-02;  0.0000000E+00;  7.6370413E-04;  9.9926874E+02;  1.0089454E-01; -6.0585938E+02;3;  4.9608765E+00;  0.0000000E+00;  6.9129759E-01;0; -3.4600466E-02;  3.9259324E+04;  0.0000000E+00;  6.4510658E-02;  4.0000000E+04;  0.0000000E+00;  3.9981246E+04; -1.6295020E-02;  0.0000000E+00; -1.8305449E-02;  1.5316097E+03;
  6.1199087E-01;  9.9999998E-03; -3.0010194E-02;6194; -3.0549407E-02;  0.0000000E+00;  5.7505013E-04;  9.9926318E+02;  1.0089444E-01; -6.1045184E+02;3;  4.9923177E+00;  0.0000000E+00;  5.2149665E-01;0; -3.4754731E-02;  3.9259520E+04;  0.0000000E+00;  3.8128331E-02;  4.0000000E+04;  0.0000000E+00;  3.9980742E+04; -1.6315952E-02;  0.0000000E+00; -1.8438781E-02;  1.5792772E+03;
  6.1199164E-01;  9.9999998E-03; -2.0006429E-02;6195; -3.0597249E-02;  0.0000000E+00;  3.8459551E-04;  9.9925714E+02;  1.0089423E-01; -6.1543933E+02;3;  5.0151572E+00;  0.0000000E+00;  3.4911242E-01;0; -3.4865510E-02;  3.9259793E+04;  0.0000000E+00;  1.7514331E-02;  4.0000000E+04;  0.0000000E+00;  3.9980648E+04; -1.6329732E-02;  0.0000000E+00; -1.8535778E-02;  1.6242958E+03;
  6.1199164E-01;  9.9999998E-03; -1.0003030E-02;6196; -3.0626718E-02;  0.0000000E+00;  1.9270467E-04;  9.9925647E+02;  1.0089421E-01; -6.1598254E+02;3;  5.0290585E+00;  0.0000000E+00;  1.7498682E-01;0; -3.4932218E-02;  3.9259820E+04;  0.0000000E+00;  4.4618109E-03;  4.0000000E+04;  0.0000000E+00;  3.9980168E+04; -1.6337451E-02;  0.0000000E+00; -1.8594768E-02;  1.6562927E+03;
  6.1199176E-01;  9.9999998E-03;  2.3625677E-09;6197; -3.0636642E-02;  0.0000000E+00;  1.8265743E-08;  9.9925305E+02;  1.0089427E-01; -6.1884662E+02;3;  5.0336919E+00;  0.0000000E+00; -1.9007173E-05;0; -3.4954555E-02;  3.9259785E+04;  0.0000000E+00; -6.5292189E-13;  4.0000000E+04;  0.0000000E+00;  3.9980180E+04; -1.6339965E-02;  0.0000000E+00; -1.8614588E-02;  1.6678351E+03;
  6.1199164E-01;  9.9999998E-03;  1.0003035E-02;6198; -3.0626722E-02;  0.0000000E+00; -1.9266785E-04;  9.9925647E+02;  1.0089421E-01; -6.1598254E+02;3;  5.0290408E+00;  0.0000000E+00; -1.7501295E-01;0; -3.4932241E-02;  3.9259824E+04;  0.0000000E+00;  4.4617853E-03;  4.0000000E+04;  0.0000000E+00;  3.9980168E+04; -1.6337469E-02;  0.0000000E+00; -1.8594773E-02;  1.6562853E+03;
  6.1199164E-01;  9.9999998E-03;  2.0006435E-02;6199; -3.0597251E-02;  0.0000000E+00; -3.8455840E-04;  9.9925714E+02;  1.0089423E-01; -6.1543933E+02;3;  5.0151305E+00;  0.0000000E+00; -3.4913328E-01;0; -3.4865517E-02;  3.9259797E+04;  0.0000000E+00;  1.7514043E-02;  4.0000000E+04;  0.0000000E+00;  3.9980648E+04; -1.6329722E-02;  0.0000000E+00; -1.8535795E-02;  1.6243077E+03;
  6.1199087E-01;  9.9999998E-03;  3.0010197E-02;6200; -3.0549414E-02;  0.0000000E+00; -5.7501293E-04;  9.9926318E+02;  1.0089444E-01; -6.1045184E+02;3;  4.9922929E+00;  0.0000000E+00; -5.2152616E-01;0; -3.4754790E-02;  3.9259523E+04;  0.0000000E+00;  3.8128011E-02;  4.0000000E+04;  0.0000000E+00;  3.9980742E+04; -1.6315982E-02;  0.0000000E+00; -1.8438810E-02;  1.5792886E+03;
  6.1198860E-01;  9.9999998E-03;  4.0013917E-02;6201; -3.0484837E-02;  0.0000000E+00; -7.6366682E-04;  9.9926874E+02;  1.0089454E-01; -6.0585938E+02;3;  4.9608769E+00;  0.0000000E+00; -6.9131476E-01;0; -3.4600504E-02;  3.9259320E+04;  0.0000000E+00;  6.4509712E-02;  4.0000000E+04;  0.0000000E+00;  3.9981246E+04; -1.6295038E-02;  0.0000000E+00; -1.8305466E-02;  1.5316233E+03;
  6.1198431E-01;  9.9999998E-03;  5.0017111E-02;6202; -3.0405603E-02;  0.0000000E+00; -9.5048879E-04;  9.9927338E+02;  1.0089470E-01; -6.0200763E+02;3;  4.9213629E+00;  0.0000000E+00; -8.5772371E-01;0; -3.4402974E-02;  3.9259105E+04;  0.0000000E+00;  9.4063275E-02;  4.0000000E+04;  0.0000000E+00;  3.9981625E+04; -1.6265376E-02;  0.0000000E+00; -1.8137600E-02;  1.4920253E+03;
  6.1197674E-01;  9.9999998E-03;  6.0019471E-02;6203; -3.0313930E-02;  0.0000000E+00; -1.1357587E-03;  9.9927740E+02;  1.0089481E-01; -5.9864972E+02;3;  4.8745818E+00;  0.0000000E+00; -1.0200478E+00;0; -3.4162130E-02;  3.9258789E+04;  0.0000000E+00;  1.2348620E-01;  4.0000000E+04;  0.0000000E+00;  3.9981699E+04; -1.6225407E-02;  0.0000000E+00; -1.7936723E-02;  1.4687864E+03;
  6.2182087E-01;  9.9999998E-03; -1.0002723E-01;6248; -2.9989528E-02;  0.0000000E+00;  1.8934298E-03;  9.9917981E+02;  1.0140263E-01; -6.7953632E+02;3;  4.8190575E+00;  0.0000000E+00;  1.6580518E+00;0; -3.2007582E-02;  3.8863750E+04;  0.0000000E+00;  6.7268625E-02;  4.0000000E+04;  0.0000000E+00;  3.9978203E+04; -1.4907974E-02;  0.0000000E+00; -1.7099608E-02;  1.4926136E+03;
  6.2184316E-01;  9.9999998E-03; -9.0028256E-02;6249; -3.0113883E-02;  0.0000000E+00;  1.7086162E-03;  9.9921350E+02;  1.0140219E-01; -6.5158649E+02;3;  4.8936033E+00;  0.0000000E+00;  1.5138104E+00;0; -3.2475233E-02;  3.8866570E+04;  0.0000000E+00;  8.5387997E-02;  4.0000000E+04;  0.0000000E+00;  3.9978672E+04; -1.5032044E-02;  0.0000000E+00; -1.7443189E-02;  1.4360762E+03;
  6.2186116E-01;  9.9999998E-03; -8.0028594E-02;6250; -3.0231960E-02;  0.0000000E+00;  1.5237191E-03;  9.9924280E+02;  1.0140149E-01; -6.2734021E+02;3;  4.9639754E+00;  0.0000000E+00;  1.3636999E+00;0; -3.2887753E-02;  3.8869184E+04;  0.0000000E+00;  9.3508534E-02;  4.0000000E+04;  0.0000000E+00;  3.9979117E+04; -1.5132726E-02;  0.0000000E+00; -1.7755028E-02;  1.3901504E+03;
  6.2187439E-01;  9.9999998E-03; -7.0027985E-02;6251; -3.0342888E-02;  0.0000000E+00;  1.3385563E-03;  9.9927039E+02;  1.0140128E-01; -6.0447668E+02;3;  5.0291514E+00;  0.0000000E+00;  1.2078723E+00;0; -3.3247523E-02;  3.8871699E+04;  0.0000000E+00;  9.1758162E-02;  4.0000000E+04;  0.0000000E+00;  3.9979355E+04; -1.5212037E-02;  0.0000000E+00; -1.8035486E-02;  1.3640554E+03;
  6.2188292E-01;  9.9999998E-03; -6.0026161E-02;6252; -3.0445287E-02;  0.0000000E+00;  1.1526351E-03;  9.9929706E+02;  1.0140084E-01; -5.8235388E+02;3;  5.0881624E+00;  0.0000000E+00;  1.0465947E+00;0; -3.3557013E-02;  3.8874332E+04;  0.0000000E+00;  8.1629358E-02;  4.0000000E+04;  0.0000000E+00;  3.9979328E+04; -1.5272495E-02;  0.0000000E+00; -1.8284516E-02;  1.3620715E+03;
  6.2188751E-01;  9.9999998E-03; -5.0023057E-02;6253; -3.0537294E-02;  0.0000000E+00;  9.6533529E-04;  9.9931659E+02;  1.0140058E-01; -5.6620618E+02;3;  5.1398835E+00;  0.0000000E+00;  8.8036174E-01;0; -3.3818066E-02;  3.8876453E+04;  0.0000000E+00;  6.5642752E-02;  4.0000000E+04;  0.0000000E+00;  3.9979172E+04; -1.5316813E-02;  0.0000000E+00; -1.8501254E-02;  1.3835974E+03;
  6.2188900E-01;  9.9999998E-03; -4.0019199E-02;6254; -3.0616809E-02;  0.0000000E+00;  7.7613327E-04;  9.9933173E+02;  1.0140052E-01; -5.5366333E+02;3;  5.1835828E+00;  0.0000000E+00;  7.0977139E-01;0; -3.4031734E-02;  3.8878574E+04;  0.0000000E+00;  4.6906073E-02;  4.0000000E+04;  0.0000000E+00;  3.9978914E+04; -1.5347903E-02;  0.0000000E+00; -1.8683832E-02;  1.4232810E+03;
  6.2188834E-01;  9.9999998E-03; -3.0014934E-02;6255; -3.0681612E-02;  0.0000000E+00;  5.8475533E-04;  9.9934125E+02;  1.0140011E-01; -5.4576233E+02;3;  5.2183623E+00;  0.0000000E+00;  5.3557122E-01;0; -3.4198321E-02;  3.8880164E+04;  0.0000000E+00;  2.8575944E-02;  4.0000000E+04;  0.0000000E+00;  3.9978625E+04; -1.5368553E-02;  0.0000000E+00; -1.8829769E-02;  1.4718965E+03;
  6.2188679E-01;  9.9999998E-03; -2.0010276E-02;6256; -3.0729640E-02;  0.0000000E+00;  3.9126776E-04;  9.9934698E+02;  1.0139981E-01; -5.4102167E+02;3;  5.2437234E+00;  0.0000000E+00;  3.5860592E-01;0; -3.4317747E-02;  3.8881277E+04;  0.0000000E+00;  1.3402482E-02;  4.0000000E+04;  0.0000000E+00;  3.9978062E+04; -1.5381304E-02;  0.0000000E+00; -1.8936444E-02;  1.5182596E+03;
  6.2188506E-01;  9.9999998E-03; -1.0005189E-02;6257; -3.0759227E-02;  0.0000000E+00;  1.9610487E-04;  9.9935315E+02;  1.0140011E-01; -5.3588605E+02;3;  5.2590690E+00;  0.0000000E+00;  1.7976096E-01;0; -3.4389652E-02;  3.8881859E+04;  0.0000000E+00;  3.4559756E-03;  4.0000000E+04;  0.0000000E+00;  3.9977848E+04; -1.5388099E-02;  0.0000000E+00; -1.9001555E-02;  1.5513859E+03;
  6.2188441E-01;  9.9999998E-03;  2.4721554E-09;6258; -3.0769210E-02;  0.0000000E+00;  1.8863277E-08;  9.9935443E+02;  1.0139997E-01; -5.3484906E+02;3;  5.2642403E+00;  0.0000000E+00; -2.3856186E-05;0; -3.4413639E-02;  3.8882180E+04;  0.0000000E+00; -4.7759626E-12;  4.0000000E+04;  0.0000000E+00;  3.9977758E+04; -1.5390231E-02;  0.0000000E+00; -1.9023409E-02;  1.5634442E+03;
  6.2188506E-01;  9.9999998E-03;  1.0005194E-02;6259; -3.0759230E-02;  0.0000000E+00; -1.9606642E-04;  9.9935315E+02;  1.0140011E-01; -5.3588605E+02;3;  5.2590637E+00;  0.0000000E+00; -1.7980087E-01;0; -3.4389649E-02;  3.8881848E+04;  0.0000000E+00;  3.4565069E-03;  4.0000000E+04;  0.0000000E+00;  3.9977848E+04; -1.5388094E-02;  0.0000000E+00; -1.9001555E-02;  1.5513962E+03;
  6.2188679E-01;  9.9999998E-03;  2.0010281E-02;6260; -3.0729644E-02;  0.0000000E+00; -3.9122865E-04;  9.9934698E+02;  1.0139981E-01; -5.4102167E+02;3;  5.2436762E+00;  0.0000000E+00; -3.5863623E-01;0; -3.4317762E-02;  3.8881281E+04;  0.0000000E+00;  1.3403266E-02;  4.0000000E+04;  0.0000000E+00;  3.9978062E+04; -1.5381305E-02;  0.0000000E+00; -1.8936455E-02;  1.5182662E+03;
  6.2188834E-01;  9.9999998E-03;  3.0014940E-02;6261; -3.0681618E-02;  0.0000000E+00; -5.8471697E-04;  9.9934113E+02;  1.0140017E-01; -5.4586108E+02;3;  5.2183604E+00;  0.0000000E+00; -5.3559619E-01;0; -3.4198366E-02;  3.8880160E+04;  0.0000000E+00;  2.8576173E-02;  4.0000000E+04;  0.0000000E+00;  3.9978625E+04; -1.5368579E-02;  0.0000000E+00; -1.8829787E-02;  1.4718964E+03;
  6.2188900E-01;  9.9999998E-03;  4.0019203E-02;6262; -3.0616816E-02;  0.0000000E+00; -7.7609392E-04;  9.9933167E+02;  1.0140052E-01; -5.5371271E+02;3;  5.1835561E+00;  0.0000000E+00; -7.0977956E-01;0; -3.4031756E-02;  3.8878570E+04;  0.0000000E+00;  4.6905305E-02;  4.0000000E+04;  0.0000000E+00;  3.9978914E+04; -1.5347917E-02;  0.0000000E+00; -1.8683838E-02;  1.4232804E+03;
  6.2188751E-01;  9.9999998E-03;  5.0023060E-02;6263; -3.0537302E-02;  0.0000000E+00; -9.6529745E-04;  9.9931659E+02;  1.0140058E-01; -5.6620618E+02;3;  5.1398988E+00;  0.0000000E+00; -8.8037288E-01;0; -3.3818096E-02;  3.8876453E+04;  0.0000000E+00;  6.5640792E-02;  4.0000000E+04;  0.0000000E+00;  3.9979172E+04; -1.5316828E-02;  0.0000000E+00; -1.8501269E-02;  1.3835874E+03;
  6.2188292E-01;  9.9999998E-03;  6.0026165E-02;6264; -3.0445300E-02;  0.0000000E+00; -1.1525948E-03;  9.9929700E+02;  1.0140084E-01; -5.8240326E+02;3;  5.0881004E+00;  0.0000000E+00; -1.0465934E+00;0; -3.3557080E-02;  3.8874332E+04;  0.0000000E+00;  8.1627198E-02;  4.0000000E+04;  0.0000000E+00;  3.9979332E+04; -1.5272520E-02;  0.0000000E+00; -1.8284561E-02;  1.3620723E+03;
  6.3176680E-01;  9.9999998E-03; -1.0002831E-01;6309; -3.0095672E-02;  0.0000000E+00;  1.9227264E-03;  9.9925714E+02;  1.0214076E-01; -6.1543933E+02;3;  5.0113254E+00;  0.0000000E+00;  1.6971481E+00;0; -3.1459861E-02;  3.8314988E+04;  0.0000000E+00; -7.4413881E-02;  4.0000000E+04;  0.0000000E+00;  3.9973695E+04; -1.4127581E-02;  0.0000000E+00; -1.7332280E-02;  1.4615062E+03;
  6.3180298E-01;  9.9999998E-03; -9.0026841E-02;6310; -3.0220818E-02;  0.0000000E+00;  1.7375059E-03;  9.9931116E+02;  1.0213955E-01; -5.7069989E+02;3;  5.0935154E+00;  0.0000000E+00;  1.5502324E+00;0; -3.1974971E-02;  3.8319613E+04;  0.0000000E+00; -4.1946970E-02;  4.0000000E+04;  0.0000000E+00;  3.9974254E+04; -1.4280452E-02;  0.0000000E+00; -1.7694518E-02;  1.3763430E+03;
  6.3183475E-01;  9.9999998E-03; -8.0025107E-02;6311; -3.0339327E-02;  0.0000000E+00;  1.5515805E-03;  9.9936938E+02;  1.0213891E-01; -5.2245435E+02;3;  5.1712561E+00;  0.0000000E+00;  1.3971874E+00;0; -3.2428622E-02;  3.8324738E+04;  0.0000000E+00; -1.5280107E-02;  4.0000000E+04;  0.0000000E+00;  3.9974875E+04; -1.4401752E-02;  0.0000000E+00; -1.8026872E-02;  1.3094404E+03;
  6.3186020E-01;  9.9999998E-03; -7.0023015E-02;6312; -3.0450359E-02;  0.0000000E+00;  1.3647419E-03;  9.9942487E+02;  1.0213833E-01; -4.7648032E+02;3;  5.2433453E+00;  0.0000000E+00;  1.2381066E+00;0; -3.2823883E-02;  3.8329504E+04;  0.0000000E+00;  3.7350366E-03;  4.0000000E+04;  0.0000000E+00;  3.9975230E+04; -1.4494962E-02;  0.0000000E+00; -1.8328920E-02;  1.2707573E+03;
  6.3187891E-01;  9.9999998E-03; -6.0020443E-02;6313; -3.0552585E-02;  0.0000000E+00;  1.1765170E-03;  9.9947327E+02;  1.0213739E-01; -4.3638269E+02;3;  5.3086219E+00;  0.0000000E+00;  1.0732560E+00;0; -3.3163317E-02;  3.8333820E+04;  0.0000000E+00;  1.4648367E-02;  4.0000000E+04;  0.0000000E+00;  3.9975332E+04; -1.4563860E-02;  0.0000000E+00; -1.8599454E-02;  1.2636049E+03;
  6.3189137E-01;  9.9999998E-03; -5.0017405E-02;6314; -3.0644281E-02;  0.0000000E+00;  9.8632823E-04;  9.9951495E+02;  1.0213724E-01; -4.0186514E+02;3;  5.3660378E+00;  0.0000000E+00;  9.0312988E-01;0; -3.3449117E-02;  3.8338047E+04;  0.0000000E+00;  1.8270032E-02;  4.0000000E+04;  0.0000000E+00;  3.9975086E+04; -1.4612550E-02;  0.0000000E+00; -1.8836567E-02;  1.2850283E+03;
  6.3189858E-01;  9.9999998E-03; -4.0014092E-02;6315; -3.0723438E-02;  0.0000000E+00;  7.9369475E-04;  9.9955194E+02;  1.0213652E-01; -3.7119934E+02;3;  5.4144554E+00;  0.0000000E+00;  7.2836041E-01;0; -3.3682585E-02;  3.8341910E+04;  0.0000000E+00;  1.6416203E-02;  4.0000000E+04;  0.0000000E+00;  3.9974973E+04; -1.4645170E-02;  0.0000000E+00; -1.9037416E-02;  1.3273656E+03;
  6.3190210E-01;  9.9999998E-03; -3.0010749E-02;6316; -3.0787908E-02;  0.0000000E+00;  5.9840333E-04;  9.9958289E+02;  1.0213626E-01; -3.4557043E+02;3;  5.4530959E+00;  0.0000000E+00;  5.4973638E-01;0; -3.3864401E-02;  3.8344844E+04;  0.0000000E+00;  1.1463949E-02;  4.0000000E+04;  0.0000000E+00;  3.9974395E+04; -1.4665637E-02;  0.0000000E+00; -1.9198764E-02;  1.3796823E+03;
  6.3190317E-01;  9.9999998E-03; -2.0007538E-02;6317; -3.0835658E-02;  0.0000000E+00;  4.0060974E-04;  9.9960364E+02;  1.0213589E-01; -3.2838574E+02;3;  5.4812083E+00;  0.0000000E+00;  3.6816019E-01;0; -3.3994555E-02;  3.8347121E+04;  0.0000000E+00;  5.8399700E-03;  4.0000000E+04;  0.0000000E+00;  3.9974195E+04; -1.4677480E-02;  0.0000000E+00; -1.9317074E-02;  1.4296427E+03;
  6.3190287E-01;  9.9999998E-03; -1.0004211E-02;6318; -3.0865060E-02;  0.0000000E+00;  2.0085901E-04;  9.9961975E+02;  1.0213576E-01; -3.1505280E+02;3;  5.4982853E+00;  0.0000000E+00;  1.8457711E-01;0; -3.4072809E-02;  3.8348488E+04;  0.0000000E+00;  1.5754313E-03;  4.0000000E+04;  0.0000000E+00;  3.9973844E+04; -1.4683416E-02;  0.0000000E+00; -1.9389395E-02;  1.4655011E+03;
  6.3190234E-01;  9.9999998E-03;  2.5702287E-09;6319; -3.0874953E-02;  0.0000000E+00;  1.9492052E-08;  9.9961945E+02;  1.0213578E-01; -3.1529971E+02;3;  5.5040364E+00;  0.0000000E+00; -2.3741348E-05;0; -3.4098938E-02;  3.8349070E+04;  0.0000000E+00; -1.0856251E-11;  4.0000000E+04;  0.0000000E+00;  3.9973789E+04; -1.4685204E-02;  0.0000000E+00; -1.9413736E-02;  1.4785044E+03;
  6.3190287E-01;  9.9999998E-03;  1.0004216E-02;6320; -3.0865062E-02;  0.0000000E+00; -2.0081956E-04;  9.9961969E+02;  1.0213573E-01; -3.1510217E+02;3;  5.4982805E+00;  0.0000000E+00; -1.8462835E-01;0; -3.4072820E-02;  3.8348484E+04;  0.0000000E+00;  1.5762523E-03;  4.0000000E+04;  0.0000000E+00;  3.9973840E+04; -1.4683417E-02;  0.0000000E+00; -1.9389402E-02;  1.4655046E+03;
  6.3190317E-01;  9.9999998E-03;  2.0007541E-02;6321; -3.0835662E-02;  0.0000000E+00; -4.0057013E-04;  9.9960364E+02;  1.0213578E-01; -3.2838574E+02;3;  5.4812555E+00;  0.0000000E+00; -3.6819962E-01;0; -3.3994567E-02;  3.8347117E+04;  0.0000000E+00;  5.8414191E-03;  4.0000000E+04;  0.0000000E+00;  3.9974199E+04; -1.4677484E-02;  0.0000000E+00; -1.9317083E-02;  1.4296483E+03;
  6.3190210E-01;  9.9999998E-03;  3.0010754E-02;6322; -3.0787915E-02;  0.0000000E+00; -5.9836375E-04;  9.9958289E+02;  1.0213626E-01; -3.4557043E+02;3;  5.4530625E+00;  0.0000000E+00; -5.4976487E-01;0; -3.3864427E-02;  3.8344844E+04;  0.0000000E+00;  1.1465438E-02;  4.0000000E+04;  0.0000000E+00;  3.9974395E+04; -1.4665657E-02;  0.0000000E+00; -1.9198772E-02;  1.3796859E+03;
  6.3189858E-01;  9.9999998E-03;  4.0014096E-02;6323; -3.0723443E-02;  0.0000000E+00; -7.9365389E-04;  9.9955194E+02;  1.0213652E-01; -3.7119934E+02;3;  5.4144692E+00;  0.0000000E+00; -7.2836870E-01;0; -3.3682626E-02;  3.8341914E+04;  0.0000000E+00;  1.6418163E-02;  4.0000000E+04;  0.0000000E+00;  3.9974973E+04; -1.4645190E-02;  0.0000000E+00; -1.9037435E-02;  1.3273763E+03;
  6.3189137E-01;  9.9999998E-03;  5.0017413E-02;6324; -3.0644290E-02;  0.0000000E+00; -9.8628667E-04;  9.9951489E+02;  1.0213724E-01; -4.0191452E+02;3;  5.3660321E+00;  0.0000000E+00; -9.0313119E-01;0; -3.3449147E-02;  3.8338047E+04;  0.0000000E+00;  1.8267944E-02;  4.0000000E+04;  0.0000000E+00;  3.9975086E+04; -1.4612583E-02;  0.0000000E+00; -1.8836563E-02;  1.2850304E+03;
  6.3187891E-01;  9.9999998E-03;  6.0020447E-02;6325; -3.0552600E-02;  0.0000000E+00; -1.1764752E-03;  9.9947327E+02;  1.0213742E-01; -4.3638269E+02;3;  5.3086319E+00;  0.0000000E+00; -1.0732508E+00;0; -3.3163331E-02;  3.8333820E+04;  0.0000000E+00;  1.4643787E-02;  4.0000000E+04;  0.0000000E+00;  3.9975332E+04; -1.4563879E-02;  0.0000000E+00; -1.8599451E-02;  1.2636025E+03;
  6.4181471E-01;  9.9999998E-03; -1.0000597E-01;6370; -3.0180464E-02;  0.0000000E+00;  1.9619819E-03;  9.9959882E+02;  1.0316058E-01; -3.3238565E+02;3;  5.2093844E+00;  0.0000000E+00;  1.7369357E+00;0; -3.1153660E-02;  3.7589270E+04;  0.0000000E+00; -2.3097904E-01;  4.0000000E+04;  0.0000000E+00;  3.9967309E+04; -1.3641399E-02;  0.0000000E+00; -1.7512262E-02;  1.4690686E+03;
  6.4184058E-01;  9.9999998E-03; -9.0006068E-02;6371; -3.0306147E-02;  0.0000000E+00;  1.7765991E-03;  9.9966260E+02;  1.0315883E-01; -2.7954764E+02;3;  5.2994876E+00;  0.0000000E+00;  1.5872291E+00;0; -3.1723350E-02;  3.7594988E+04;  0.0000000E+00; -1.8521394E-01;  4.0000000E+04;  0.0000000E+00;  3.9968203E+04; -1.3824551E-02;  0.0000000E+00; -1.7898800E-02;  1.3568677E+03;
  6.4186281E-01;  9.9999998E-03; -8.0006346E-02;6372; -3.0424474E-02;  0.0000000E+00;  1.5894525E-03;  9.9973083E+02;  1.0315756E-01; -2.2300603E+02;3;  5.3848362E+00;  0.0000000E+00;  1.4310650E+00;0; -3.2224331E-02;  3.7600910E+04;  0.0000000E+00; -1.4000106E-01;  4.0000000E+04;  0.0000000E+00;  3.9968875E+04; -1.3968111E-02;  0.0000000E+00; -1.8256219E-02;  1.2667104E+03;
  6.4188182E-01;  9.9999998E-03; -7.0006587E-02;6373; -3.0534802E-02;  0.0000000E+00;  1.4003689E-03;  9.9979602E+02;  1.0315657E-01; -1.6898286E+02;3;  5.4641008E+00;  0.0000000E+00;  1.2686379E+00;0; -3.2660171E-02;  3.7606672E+04;  0.0000000E+00; -9.9181883E-02;  4.0000000E+04;  0.0000000E+00;  3.9969340E+04; -1.4076820E-02;  0.0000000E+00; -1.8583354E-02;  1.2117531E+03;
  6.4189792E-01;  9.9999998E-03; -6.0006529E-02;6374; -3.0636007E-02;  0.0000000E+00;  1.2089623E-03;  9.9985907E+02;  1.0315521E-01; -1.1673743E+02;3;  5.5359926E+00;  0.0000000E+00;  1.1001348E+00;0; -3.3033915E-02;  3.7612742E+04;  0.0000000E+00; -6.5309644E-02;  4.0000000E+04;  0.0000000E+00;  3.9969465E+04; -1.4155766E-02;  0.0000000E+00; -1.8878151E-02;  1.1965967E+03;
  6.4191151E-01;  9.9999998E-03; -5.0006241E-02;6375; -3.0726520E-02;  0.0000000E+00;  1.0147685E-03;  9.9992078E+02;  1.0315417E-01; -6.5627769E+01;3;  5.5993519E+00;  0.0000000E+00;  9.2607373E-01;0; -3.3348136E-02;  3.7618293E+04;  0.0000000E+00; -3.9498214E-02;  4.0000000E+04;  0.0000000E+00;  3.9969320E+04; -1.4210328E-02;  0.0000000E+00; -1.9137807E-02;  1.2172821E+03;
  6.4192241E-01;  9.9999998E-03; -4.0005963E-02;6376; -3.0804442E-02;  0.0000000E+00;  8.1741915E-04;  9.9997156E+02;  1.0315340E-01; -2.3554888E+01;3;  5.6528964E+00;  0.0000000E+00;  7.4709231E-01;0; -3.3604499E-02;  3.7623422E+04;  0.0000000E+00; -2.1538157E-02;  4.0000000E+04;  0.0000000E+00;  3.9968996E+04; -1.4245851E-02;  0.0000000E+00; -1.9358648E-02;  1.2637008E+03;
  6.4193082E-01;  9.9999998E-03; -3.0005606E-02;6377; -3.0867787E-02;  0.0000000E+00;  6.1680074E-04;  1.0000142E+03;  1.0315263E-01;  1.1752753E+01;3;  5.6957231E+00;  0.0000000E+00;  5.6402725E-01;0; -3.3803899E-02;  3.7627715E+04;  0.0000000E+00; -1.0229955E-02;  4.0000000E+04;  0.0000000E+00;  3.9968477E+04; -1.4267347E-02;  0.0000000E+00; -1.9536551E-02;  1.3222407E+03;
  6.4193702E-01;  9.9999998E-03; -2.0005319E-02;6378; -3.0914655E-02;  0.0000000E+00;  4.1318987E-04;  1.0000448E+03;  1.0315228E-01;  3.7134750E+01;3;  5.7269225E+00;  0.0000000E+00;  3.7781948E-01;0; -3.3946544E-02;  3.7630961E+04;  0.0000000E+00; -3.8890920E-03;  4.0000000E+04;  0.0000000E+00;  3.9968199E+04; -1.4279205E-02;  0.0000000E+00; -1.9667337E-02;  1.3783241E+03;
  6.4194077E-01;  9.9999998E-03; -1.0003900E-02;6379; -3.0943474E-02;  0.0000000E+00;  2.0725612E-04;  1.0000627E+03;  1.0315170E-01;  5.1949142E+01;3;  5.7458887E+00;  0.0000000E+00;  1.8945724E-01;0; -3.4032270E-02;  3.7633082E+04;  0.0000000E+00; -8.6863898E-04;  4.0000000E+04;  0.0000000E+00;  3.9967898E+04; -1.4284843E-02;  0.0000000E+00; -1.9747427E-02;  1.4185328E+03;
  6.4194202E-01;  9.9999998E-03;  2.7501408E-09;6380; -3.0953202E-02;  0.0000000E+00;  2.0632495E-08;  1.0000700E+03;  1.0315151E-01;  5.7973663E+01;3;  5.7522526E+00;  0.0000000E+00; -2.4282926E-05;0; -3.4060903E-02;  3.7633660E+04;  0.0000000E+00; -1.8230513E-11;  4.0000000E+04;  0.0000000E+00;  3.9967578E+04; -1.4286478E-02;  0.0000000E+00; -1.9774426E-02;  1.4331447E+03;
  6.4194077E-01;  9.9999998E-03;  1.0003906E-02;6381; -3.0943472E-02;  0.0000000E+00; -2.0721491E-04;  1.0000627E+03;  1.0315170E-01;  5.1949142E+01;3;  5.7458372E+00;  0.0000000E+00; -1.8950255E-01;0; -3.4032278E-02;  3.7633078E+04;  0.0000000E+00; -8.6716888E-04;  4.0000000E+04;  0.0000000E+00;  3.9967898E+04; -1.4284852E-02;  0.0000000E+00; -1.9747425E-02;  1.4185455E+03;
  6.4193702E-01;  9.9999998E-03;  2.0005325E-02;6382; -3.0914655E-02;  0.0000000E+00; -4.1314817E-04;  1.0000449E+03;  1.0315228E-01;  3.7134750E+01;3;  5.7269044E+00;  0.0000000E+00; -3.7785566E-01;0; -3.3946536E-02;  3.7630961E+04;  0.0000000E+00; -3.8869304E-03;  4.0000000E+04;  0.0000000E+00;  3.9968199E+04; -1.4279202E-02;  0.0000000E+00; -1.9667333E-02;  1.3783208E+03;
  6.4193082E-01;  9.9999998E-03;  3.0005610E-02;6383; -3.0867793E-02;  0.0000000E+00; -6.1675900E-04;  1.0000142E+03;  1.0315263E-01;  1.1752753E+01;3;  5.6957283E+00;  0.0000000E+00; -5.6405008E-01;0; -3.3803917E-02;  3.7627715E+04;  0.0000000E+00; -1.0227310E-02;  4.0000000E+04;  0.0000000E+00;  3.9968480E+04; -1.4267361E-02;  0.0000000E+00; -1.9536559E-02;  1.3222405E+03;
  6.4192241E-01;  9.9999998E-03;  4.0005967E-02;6384; -3.0804448E-02;  0.0000000E+00; -8.1737683E-04;  9.9997168E+02;  1.0315338E-01; -2.3456125E+01;3;  5.6528907E+00;  0.0000000E+00; -7.4710727E-01;0; -3.3604547E-02;  3.7623410E+04;  0.0000000E+00; -2.1536337E-02;  4.0000000E+04;  0.0000000E+00;  3.9968996E+04; -1.4245870E-02;  0.0000000E+00; -1.9358676E-02;  1.2636934E+03;
  6.4191151E-01;  9.9999998E-03;  5.0006248E-02;6385; -3.0726532E-02;  0.0000000E+00; -1.0147257E-03;  9.9992078E+02;  1.0315417E-01; -6.5627769E+01;3;  5.5993457E+00;  0.0000000E+00; -9.2606699E-01;0; -3.3348136E-02;  3.7618293E+04;  0.0000000E+00; -3.9496906E-02;  4.0000000E+04;  0.0000000E+00;  3.9969320E+04; -1.4210332E-02;  0.0000000E+00; -1.9137802E-02;  1.2172728E+03;
  6.4189792E-01;  9.9999998E-03;  6.0006537E-02;6386; -3.0636024E-02;  0.0000000E+00; -1.2089184E-03;  9.9985907E+02;  1.0315521E-01; -1.1673743E+02;3;  5.5360465E+00;  0.0000000E+00; -1.1001283E+00;0; -3.3033945E-02;  3.7612746E+04;  0.0000000E+00; -6.5308556E-02;  4.0000000E+04;  0.0000000E+00;  3.9969469E+04; -1.4155784E-02;  0.0000000E+00; -1.8878160E-02;  1.1965922E+03;
  6.5190864E-01;  9.9999998E-03;  2.9530147E-09;6441; -3.1007838E-02;  0.0000000E+00;  2.1726361E-08;  1.0005761E+03;  1.0447160E-01;  4.7731976E+02;3;  6.0088806E+00;  0.0000000E+00; -2.2522607E-05;0; -3.4306765E-02;  3.6725199E+04;  0.0000000E+00; -3.0324944E-11;  4.0000000E+04;  0.0000000E+00;  3.9959262E+04; -1.4217149E-02;  0.0000000E+00; -2.0089615E-02;  1.4429603E+03;
  6.5190643E-01;  9.9999998E-03; -1.0001400E-02;6440; -3.0998431E-02;  0.0000000E+00;  2.1509218E-04;  1.0005694E+03;  1.0447188E-01;  4.7169028E+02;3;  6.0018454E+00;  0.0000000E+00;  1.9433033E-01;0; -3.4275487E-02;  3.6724285E+04;  0.0000000E+00; -3.2968058E-03;  4.0000000E+04;  0.0000000E+00;  3.9959488E+04; -1.4215320E-02;  0.0000000E+00; -2.0060169E-02;  1.4261283E+03;
  6.5190643E-01;  9.9999998E-03;  1.0001406E-02;6442; -3.0998431E-02;  0.0000000E+00; -2.1504889E-04;  1.0005694E+03;  1.0447188E-01;  4.7169028E+02;3;  6.0018568E+00;  0.0000000E+00; -1.9437286E-01;0; -3.4275509E-02;  3.6724285E+04;  0.0000000E+00; -3.2947804E-03;  4.0000000E+04;  0.0000000E+00;  3.9959488E+04; -1.4215327E-02;  0.0000000E+00; -2.0060183E-02;  1.4261249E+03;
  6.5189976E-01;  9.9999998E-03; -2.0001587E-02;6439; -3.0970545E-02;  0.0000000E+00;  4.2869215E-04;  1.0005446E+03;  1.0447238E-01;  4.5124643E+02;3;  5.9808192E+00;  0.0000000E+00;  3.8752979E-01;0; -3.4181800E-02;  3.6722020E+04;  0.0000000E+00; -1.3512598E-02;  4.0000000E+04;  0.0000000E+00;  3.9959840E+04; -1.4209018E-02;  0.0000000E+00; -1.9972783E-02;  1.3797329E+03;
  6.5189976E-01;  9.9999998E-03;  2.0001592E-02;6443; -3.0970551E-02;  0.0000000E+00; -4.2864864E-04;  1.0005446E+03;  1.0447238E-01;  4.5124643E+02;3;  5.9807968E+00;  0.0000000E+00; -3.8756317E-01;0; -3.4181785E-02;  3.6722020E+04;  0.0000000E+00; -1.3509048E-02;  4.0000000E+04;  0.0000000E+00;  3.9959844E+04; -1.4209018E-02;  0.0000000E+00; -1.9972766E-02;  1.3797245E+03;
  6.5188885E-01;  9.9999998E-03; -3.0000487E-02;6438; -3.0925116E-02;  0.0000000E+00;  6.3958589E-04;  1.0005051E+03;  1.0447284E-01;  4.1845724E+02;3;  5.9462371E+00;  0.0000000E+00;  5.7845998E-01;0; -3.4025878E-02;  3.6717980E+04;  0.0000000E+00; -3.1509802E-02;  4.0000000E+04;  0.0000000E+00;  3.9960215E+04; -1.4195753E-02;  0.0000000E+00; -1.9830123E-02;  1.3149862E+03;
  6.5188891E-01;  9.9999998E-03;  3.0000493E-02;6444; -3.0925123E-02;  0.0000000E+00; -6.3954218E-04;  1.0005051E+03;  1.0447284E-01;  4.1845724E+02;3;  5.9462562E+00;  0.0000000E+00; -5.7848150E-01;0; -3.4025870E-02;  3.6717980E+04;  0.0000000E+00; -3.1505246E-02;  4.0000000E+04;  0.0000000E+00;  3.9960207E+04; -1.4195758E-02;  0.0000000E+00; -1.9830113E-02;  1.3149734E+03;
  6.5187424E-01;  9.9999998E-03; -3.9999433E-02;6437; -3.0863535E-02;  0.0000000E+00;  8.4693328E-04;  1.0004601E+03;  1.0447374E-01;  3.8122372E+02;3;  5.8988681E+00;  0.0000000E+00;  7.6606762E-01;0; -3.3807840E-02;  3.6713020E+04;  0.0000000E+00; -5.8357887E-02;  4.0000000E+04;  0.0000000E+00;  3.9960645E+04; -1.4171650E-02;  0.0000000E+00; -1.9636190E-02;  1.2478773E+03;
  6.5187424E-01;  9.9999998E-03;  3.9999437E-02;6445; -3.0863540E-02;  0.0000000E+00; -8.4688939E-04;  1.0004601E+03;  1.0447374E-01;  3.8122372E+02;3;  5.8988504E+00;  0.0000000E+00; -7.6607937E-01;0; -3.3807870E-02;  3.6713023E+04;  0.0000000E+00; -5.8354758E-02;  4.0000000E+04;  0.0000000E+00;  3.9960645E+04; -1.4171653E-02;  0.0000000E+00; -1.9636216E-02;  1.2478876E+03;
  6.5185636E-01;  9.9999998E-03; -4.9998961E-02;6436; -3.0787513E-02;  0.0000000E+00;  1.0503163E-03;  1.0003997E+03;  1.0447542E-01;  3.3115109E+02;3;  5.8395782E+00;  0.0000000E+00;  9.4938034E-01;0; -3.3527464E-02;  3.6707070E+04;  0.0000000E+00; -9.4840817E-02;  4.0000000E+04;  0.0000000E+00;  3.9961160E+04; -1.4131745E-02;  0.0000000E+00; -1.9395720E-02;  1.1962734E+03;
  6.5185636E-01;  9.9999998E-03;  4.9998969E-02;6446; -3.0787524E-02;  0.0000000E+00; -1.0502719E-03;  1.0003998E+03;  1.0447542E-01;  3.3124985E+02;3;  5.8396268E+00;  0.0000000E+00; -9.4937968E-01;0; -3.3527516E-02;  3.6707074E+04;  0.0000000E+00; -9.4838738E-02;  4.0000000E+04;  0.0000000E+00;  3.9961160E+04; -1.4131768E-02;  0.0000000E+00; -1.9395748E-02;  1.1962803E+03;
  6.5183574E-01;  9.9999998E-03; -5.9998780E-02;6435; -3.0698795E-02;  0.0000000E+00;  1.2496823E-03;  1.0003386E+03;  1.0447723E-01;  2.8048584E+02;3;  5.7696085E+00;  0.0000000E+00;  1.1275249E+00;0; -3.3183638E-02;  3.6700805E+04;  0.0000000E+00; -1.4089994E-01;  4.0000000E+04;  0.0000000E+00;  3.9961457E+04; -1.4070217E-02;  0.0000000E+00; -1.9113421E-02;  1.1769803E+03;
  6.5183574E-01;  9.9999998E-03;  5.9998788E-02;6447; -3.0698804E-02;  0.0000000E+00; -1.2496370E-03;  1.0003387E+03;  1.0447721E-01;  2.8058463E+02;3;  5.7696671E+00;  0.0000000E+00; -1.1275139E+00;0; -3.3183679E-02;  3.6700805E+04;  0.0000000E+00; -1.4089915E-01;  4.0000000E+04;  0.0000000E+00;  3.9961457E+04; -1.4070243E-02;  0.0000000E+00; -1.9113434E-02;  1.1769901E+03;
  6.5181386E-01;  9.9999998E-03; -6.9998540E-02;6434; -3.0599052E-02;  0.0000000E+00;  1.4452379E-03;  1.0002725E+03;  1.0447907E-01;  2.2577136E+02;3;  5.6902733E+00;  0.0000000E+00;  1.2998054E+00;0; -3.2774411E-02;  3.6694266E+04;  0.0000000E+00; -1.9514850E-01;  4.0000000E+04;  0.0000000E+00;  3.9961191E+04; -1.3980835E-02;  0.0000000E+00; -1.8793575E-02;  1.2016942E+03;
  6.5179187E-01;  9.9999998E-03; -7.9997987E-02;6433; -3.0489646E-02;  0.0000000E+00;  1.6372837E-03;  1.0002058E+03;  1.0448122E-01;  1.7046429E+02;3;  5.6029606E+00;  0.0000000E+00;  1.4657818E+00;0; -3.2297023E-02;  3.6687945E+04;  0.0000000E+00; -2.5462991E-01;  4.0000000E+04;  0.0000000E+00;  3.9960852E+04; -1.3857187E-02;  0.0000000E+00; -1.8439837E-02;  1.2727537E+03;
  6.5177011E-01;  9.9999998E-03; -8.9997515E-02;6432; -3.0371480E-02;  0.0000000E+00;  1.8260803E-03;  1.0001474E+03;  1.0448410E-01;  1.2207060E+02;3;  5.5091228E+00;  0.0000000E+00;  1.6252196E+00;0; -3.1747721E-02;  3.6681770E+04;  0.0000000E+00; -3.1487060E-01;  4.0000000E+04;  0.0000000E+00;  3.9960109E+04; -1.3692954E-02;  0.0000000E+00; -1.8054767E-02;  1.3814519E+03;
  6.5174913E-01;  9.9999998E-03; -9.9997297E-02;6431; -3.0245006E-02;  0.0000000E+00;  2.0117254E-03;  1.0000905E+03;  1.0448702E-01;  7.4960831E+01;3;  5.4102359E+00;  0.0000000E+00;  1.7779433E+00;0; -3.1122260E-02;  3.6676270E+04;  0.0000000E+00; -3.7021631E-01;  4.0000000E+04;  0.0000000E+00;  3.9959078E+04; -1.3482148E-02;  0.0000000E+00; -1.7640112E-02;  1.5101364E+03;
  6.6183746E-01;  9.9999998E-03; -9.9983709E-03;6501; -3.1043500E-02;  0.0000000E+00;  2.2400498E-04;  1.0008328E+03;  1.0608612E-01;  6.8995569E+02;3;  6.2690873E+00;  0.0000000E+00;  1.9936408E-01;0; -3.4770537E-02;  3.5630512E+04;  0.0000000E+00; -5.0308565E-03;  4.0000000E+04;  0.0000000E+00;  3.9948629E+04; -1.4459812E-02;  0.0000000E+00; -2.0310724E-02;  1.5040237E+03;
  6.6183919E-01;  9.9999998E-03;  3.1310861E-09;6502; -3.1052461E-02;  0.0000000E+00;  2.2649525E-08;  1.0008433E+03;  1.0608586E-01;  6.9864679E+02;3;  6.2769117E+00;  0.0000000E+00; -2.0443431E-05;0; -3.4804299E-02;  3.5631301E+04;  0.0000000E+00; -4.1797021E-11;  4.0000000E+04;  0.0000000E+00;  3.9948473E+04; -1.4462151E-02;  0.0000000E+00; -2.0342147E-02;  1.5237905E+03;
  6.6183746E-01;  9.9999998E-03;  9.9983774E-03;6503; -3.1043503E-02;  0.0000000E+00; -2.2395946E-04;  1.0008326E+03;  1.0608622E-01;  6.8985693E+02;3;  6.2691345E+00;  0.0000000E+00; -1.9940075E-01;0; -3.4770541E-02;  3.5630520E+04;  0.0000000E+00; -5.0283950E-03;  4.0000000E+04;  0.0000000E+00;  3.9948629E+04; -1.4459826E-02;  0.0000000E+00; -2.0310713E-02;  1.5040210E+03;
  6.6183263E-01;  9.9999998E-03; -1.9996511E-02;6500; -3.1016845E-02;  0.0000000E+00;  4.4634702E-04;  1.0008091E+03;  1.0608685E-01;  6.7040070E+02;3;  6.2459226E+00;  0.0000000E+00;  3.9756894E-01;0; -3.4669321E-02;  3.5627887E+04;  0.0000000E+00; -2.0382861E-02;  4.0000000E+04;  0.0000000E+00;  3.9948867E+04; -1.4451921E-02;  0.0000000E+00; -2.0217400E-02;  1.4493624E+03;
  6.6183263E-01;  9.9999998E-03;  1.9996518E-02;6504; -3.1016853E-02;  0.0000000E+00; -4.4630133E-04;  1.0008091E+03;  1.0608685E-01;  6.7040070E+02;3;  6.2459230E+00;  0.0000000E+00; -3.9759904E-01;0; -3.4669347E-02;  3.5627895E+04;  0.0000000E+00; -2.0378845E-02;  4.0000000E+04;  0.0000000E+00;  3.9948867E+04; -1.4451932E-02;  0.0000000E+00; -2.0217413E-02;  1.4493647E+03;
  6.6182506E-01;  9.9999998E-03; -2.9994216E-02;6499; -3.0973265E-02;  0.0000000E+00;  6.6562259E-04;  1.0007750E+03;  1.0608841E-01;  6.4205585E+02;3;  6.2078271E+00;  0.0000000E+00;  5.9342164E-01;0; -3.4500923E-02;  3.5623574E+04;  0.0000000E+00; -4.6676017E-02;  4.0000000E+04;  0.0000000E+00;  3.9949398E+04; -1.4435849E-02;  0.0000000E+00; -2.0065075E-02;  1.3726791E+03;
  6.6182506E-01;  9.9999998E-03;  2.9994221E-02;6505; -3.0973272E-02;  0.0000000E+00; -6.6557695E-04;  1.0007750E+03;  1.0608827E-01;  6.4205585E+02;3;  6.2078462E+00;  0.0000000E+00; -5.9344530E-01;0; -3.4500923E-02;  3.5623570E+04;  0.0000000E+00; -4.6670672E-02;  4.0000000E+04;  0.0000000E+00;  3.9949398E+04; -1.4435849E-02;  0.0000000E+00; -2.0065075E-02;  1.3726669E+03;
  6.6181493E-01;  9.9999998E-03; -3.9991587E-02;6498; -3.0913975E-02;  0.0000000E+00;  8.8078872E-04;  1.0007288E+03;  1.0609008E-01;  6.0373590E+02;3;  6.1556644E+00;  0.0000000E+00;  7.8580683E-01;0; -3.4265343E-02;  3.5618223E+04;  0.0000000E+00; -8.4489718E-02;  4.0000000E+04;  0.0000000E+00;  3.9950168E+04; -1.4407424E-02;  0.0000000E+00; -1.9857919E-02;  1.2927441E+03;
  6.6181493E-01;  9.9999998E-03;  3.9991591E-02;6506; -3.0913984E-02;  0.0000000E+00; -8.8074227E-04;  1.0007288E+03;  1.0609008E-01;  6.0373590E+02;3;  6.1556292E+00;  0.0000000E+00; -7.8581220E-01;0; -3.4265354E-02;  3.5618223E+04;  0.0000000E+00; -8.4483206E-02;  4.0000000E+04;  0.0000000E+00;  3.9950168E+04; -1.4407448E-02;  0.0000000E+00; -1.9857908E-02;  1.2927594E+03;
  6.6180223E-01;  9.9999998E-03; -4.9989261E-02;6497; -3.0840389E-02;  0.0000000E+00;  1.0912494E-03;  1.0006733E+03;  1.0609205E-01;  5.5781128E+02;3;  6.0903435E+00;  0.0000000E+00;  9.7367984E-01;0; -3.3962119E-02;  3.5612227E+04;  0.0000000E+00; -1.3385843E-01;  4.0000000E+04;  0.0000000E+00;  3.9950527E+04; -1.4361232E-02;  0.0000000E+00; -1.9600889E-02;  1.2310923E+03;
  6.6180223E-01;  9.9999998E-03;  4.9989264E-02;6507; -3.0840399E-02;  0.0000000E+00; -1.0912027E-03;  1.0006732E+03;  1.0609199E-01;  5.5771252E+02;3;  6.0903773E+00;  0.0000000E+00; -9.7367352E-01;0; -3.3962123E-02;  3.5612230E+04;  0.0000000E+00; -1.3385312E-01;  4.0000000E+04;  0.0000000E+00;  3.9950527E+04; -1.4361252E-02;  0.0000000E+00; -1.9600872E-02;  1.2310889E+03;
  6.6178751E-01;  9.9999998E-03; -5.9987228E-02;6496; -3.0753924E-02;  0.0000000E+00;  1.2967722E-03;  1.0006199E+03;  1.0609499E-01;  5.1356567E+02;3;  6.0133700E+00;  0.0000000E+00;  1.1561561E+00;0; -3.3590004E-02;  3.5605777E+04;  0.0000000E+00; -1.9371387E-01;  4.0000000E+04;  0.0000000E+00;  3.9951059E+04; -1.4291015E-02;  0.0000000E+00; -1.9298989E-02;  1.2075972E+03;
  6.6178751E-01;  9.9999998E-03;  5.9987232E-02;6508; -3.0753935E-02;  0.0000000E+00; -1.2967249E-03;  1.0006199E+03;  1.0609499E-01;  5.1356567E+02;3;  6.0133786E+00;  0.0000000E+00; -1.1561409E+00;0; -3.3590034E-02;  3.5605785E+04;  0.0000000E+00; -1.9371295E-01;  4.0000000E+04;  0.0000000E+00;  3.9951059E+04; -1.4291031E-02;  0.0000000E+00; -1.9299004E-02;  1.2075852E+03;
  6.6177142E-01;  9.9999998E-03; -6.9985688E-02;6495; -3.0655945E-02;  0.0000000E+00;  1.4973697E-03;  1.0005696E+03;  1.0609844E-01;  4.7188782E+02;3;  5.9259634E+00;  0.0000000E+00;  1.3325270E+00;0; -3.3146836E-02;  3.5599625E+04;  0.0000000E+00; -2.6140296E-01;  4.0000000E+04;  0.0000000E+00;  3.9950828E+04; -1.4189923E-02;  0.0000000E+00; -1.8956915E-02;  1.2345846E+03;
  6.6175479E-01;  9.9999998E-03; -7.9984762E-02;6494; -3.0547548E-02;  0.0000000E+00;  1.6931443E-03;  1.0005232E+03;  1.0610209E-01;  4.3346915E+02;3;  5.8299193E+00;  0.0000000E+00;  1.5023680E+00;0; -3.2629445E-02;  3.5593547E+04;  0.0000000E+00; -3.3249831E-01;  4.0000000E+04;  0.0000000E+00;  3.9950543E+04; -1.4050891E-02;  0.0000000E+00; -1.8578555E-02;  1.3115669E+03;
  6.6173804E-01;  9.9999998E-03; -8.9984745E-02;6493; -3.0429391E-02;  0.0000000E+00;  1.8841977E-03;  1.0004855E+03;  1.0610646E-01;  4.0226016E+02;3;  5.7267385E+00;  0.0000000E+00;  1.6653578E+00;0; -3.2033507E-02;  3.5588461E+04;  0.0000000E+00; -4.0093854E-01;  4.0000000E+04;  0.0000000E+00;  3.9949879E+04; -1.3866756E-02;  0.0000000E+00; -1.8166751E-02;  1.4248615E+03;
  6.6172177E-01;  9.9999998E-03; -9.9985704E-02;6492; -3.0301662E-02;  0.0000000E+00;  2.0704765E-03;  1.0004609E+03;  1.0611106E-01;  3.8181631E+02;3;  5.6181073E+00;  0.0000000E+00;  1.8214304E+00;0; -3.1353746E-02;  3.5583844E+04;  0.0000000E+00; -4.5956877E-01;  4.0000000E+04;  0.0000000E+00;  3.9949125E+04; -1.3630477E-02;  0.0000000E+00; -1.7723268E-02;  1.5523256E+03;
  6.7171556E-01;  9.9999998E-03; -9.9975258E-02;6553; -3.0371157E-02;  0.0000000E+00;  2.1336775E-03;  1.0003951E+03;  1.0800669E-01;  3.2739810E+02;3;  5.8333549E+00;  0.0000000E+00;  1.8690581E+00;0; -3.1795662E-02;  3.4336453E+04;  0.0000000E+00; -4.7083774E-01;  4.0000000E+04;  0.0000000E+00;  3.9936875E+04; -1.4033758E-02;  0.0000000E+00; -1.7761905E-02;  1.5528759E+03;
  6.7171550E-01;  9.9999998E-03; -8.9974597E-02;6554; -3.0500690E-02;  0.0000000E+00;  1.9462529E-03;  1.0003741E+03;  1.0799950E-01;  3.1001587E+02;3;  5.9526024E+00;  0.0000000E+00;  1.7091364E+00;0; -3.2525275E-02;  3.4339266E+04;  0.0000000E+00; -4.1777253E-01;  4.0000000E+04;  0.0000000E+00;  3.9937551E+04; -1.4294912E-02;  0.0000000E+00; -1.8230362E-02;  1.4489734E+03;
  6.7171603E-01;  9.9999998E-03; -7.9975389E-02;6555; -3.0619293E-02;  0.0000000E+00;  1.7524225E-03;  1.0003689E+03;  1.0799278E-01;  3.0567032E+02;3;  6.0660629E+00;  0.0000000E+00;  1.5420612E+00;0; -3.3164002E-02;  3.4343242E+04;  0.0000000E+00; -3.5125157E-01;  4.0000000E+04;  0.0000000E+00;  3.9938117E+04; -1.4500294E-02;  0.0000000E+00; -1.8663710E-02;  1.3533971E+03;
  6.7171717E-01;  9.9999998E-03; -6.9977410E-02;6556; -3.0726958E-02;  0.0000000E+00;  1.5524053E-03;  1.0003795E+03;  1.0798662E-01;  3.1446021E+02;3;  6.1717200E+00;  0.0000000E+00;  1.3679703E+00;0; -3.3718072E-02;  3.4347984E+04;  0.0000000E+00; -2.7931434E-01;  4.0000000E+04;  0.0000000E+00;  3.9938320E+04; -1.4657330E-02;  0.0000000E+00; -1.9060742E-02;  1.2914679E+03;
  6.7171907E-01;  9.9999998E-03; -5.9980460E-02;6557; -3.0823229E-02;  0.0000000E+00;  1.3462906E-03;  1.0004083E+03;  1.0798125E-01;  3.3826199E+02;3;  6.2677755E+00;  0.0000000E+00;  1.1871228E+00;0; -3.4192409E-02;  3.4353738E+04;  0.0000000E+00; -2.0902002E-01;  4.0000000E+04;  0.0000000E+00;  3.9938246E+04; -1.4773440E-02;  0.0000000E+00; -1.9418970E-02;  1.2801337E+03;
  6.7172164E-01;  9.9999998E-03; -4.9983963E-02;6558; -3.0907424E-02;  0.0000000E+00;  1.1341611E-03;  1.0004440E+03;  1.0797668E-01;  3.6779202E+02;3;  6.3525190E+00;  0.0000000E+00;  9.9990314E-01;0; -3.4590475E-02;  3.4359945E+04;  0.0000000E+00; -1.4568430E-01;  4.0000000E+04;  0.0000000E+00;  3.9937727E+04; -1.4855929E-02;  0.0000000E+00; -1.9734548E-02;  1.3215822E+03;
  6.7172438E-01;  9.9999998E-03; -3.9987735E-02;6559; -3.0978553E-02;  0.0000000E+00;  9.1619993E-04;  1.0004792E+03;  1.0797307E-01;  3.9702576E+02;3;  6.4243498E+00;  0.0000000E+00;  8.0706918E-01;0; -3.4914698E-02;  3.4365879E+04;  0.0000000E+00; -9.2643581E-02;  4.0000000E+04;  0.0000000E+00;  3.9936988E+04; -1.4911822E-02;  0.0000000E+00; -2.0002877E-02;  1.4029341E+03;
  6.7172700E-01;  9.9999998E-03; -2.9991429E-02;6560; -3.1035380E-02;  0.0000000E+00;  6.9281418E-04;  1.0005195E+03;  1.0797056E-01;  4.3040750E+02;3;  6.4817863E+00;  0.0000000E+00;  6.0954690E-01;0; -3.5166394E-02;  3.4371277E+04;  0.0000000E+00; -5.1499847E-02;  4.0000000E+04;  0.0000000E+00;  3.9936141E+04; -1.4947510E-02;  0.0000000E+00; -2.0218883E-02;  1.5020052E+03;
  6.7172909E-01;  9.9999998E-03; -1.9994523E-02;6561; -3.1076945E-02;  0.0000000E+00;  4.6477569E-04;  1.0005484E+03;  1.0796814E-01;  4.5430807E+02;3;  6.5237498E+00;  0.0000000E+00;  4.0839720E-01;0; -3.5346247E-02;  3.4375594E+04;  0.0000000E+00; -2.2601176E-02;  4.0000000E+04;  0.0000000E+00;  3.9935324E+04; -1.4968667E-02;  0.0000000E+00; -2.0377580E-02;  1.5945308E+03;
  6.7173052E-01;  9.9999998E-03; -9.9973502E-03;6562; -3.1102233E-02;  0.0000000E+00;  2.3331077E-04;  1.0005720E+03;  1.0796691E-01;  4.7386307E+02;3;  6.5491753E+00;  0.0000000E+00;  2.0480202E-01;0; -3.5454214E-02;  3.4378316E+04;  0.0000000E+00; -5.5979397E-03;  4.0000000E+04;  0.0000000E+00;  3.9934852E+04; -1.4979484E-02;  0.0000000E+00; -2.0474728E-02;  1.6596248E+03;
  6.7173100E-01;  9.9999998E-03;  3.2438199E-09;6563; -3.1110743E-02;  0.0000000E+00;  2.3745967E-08;  1.0005791E+03;  1.0796670E-01;  4.7978882E+02;3;  6.5578179E+00;  0.0000000E+00; -1.7267916E-05;0; -3.5490215E-02;  3.4379320E+04;  0.0000000E+00; -5.1835772E-11;  4.0000000E+04;  0.0000000E+00;  3.9934824E+04; -1.4982792E-02;  0.0000000E+00; -2.0507423E-02;  1.6829847E+03;
  6.7173052E-01;  9.9999998E-03;  9.9973567E-03;6564; -3.1102233E-02;  0.0000000E+00; -2.3326332E-04;  1.0005720E+03;  1.0796720E-01;  4.7386307E+02;3;  6.5492444E+00;  0.0000000E+00; -2.0483413E-01;0; -3.5454199E-02;  3.4378316E+04;  0.0000000E+00; -5.5954619E-03;  4.0000000E+04;  0.0000000E+00;  3.9934852E+04; -1.4979484E-02;  0.0000000E+00; -2.0474713E-02;  1.6596084E+03;
  6.7172909E-01;  9.9999998E-03;  1.9994529E-02;6565; -3.1076947E-02;  0.0000000E+00; -4.6472796E-04;  1.0005482E+03;  1.0796822E-01;  4.5420932E+02;3;  6.5237641E+00;  0.0000000E+00; -4.0841997E-01;0; -3.5346229E-02;  3.4375594E+04;  0.0000000E+00; -2.2596300E-02;  4.0000000E+04;  0.0000000E+00;  3.9935324E+04; -1.4968659E-02;  0.0000000E+00; -2.0377571E-02;  1.5945386E+03;
  6.7172700E-01;  9.9999998E-03;  2.9991435E-02;6566; -3.1035384E-02;  0.0000000E+00; -6.9276622E-04;  1.0005196E+03;  1.0797051E-01;  4.3050629E+02;3;  6.4817815E+00;  0.0000000E+00; -6.0956013E-01;0; -3.5166420E-02;  3.4371277E+04;  0.0000000E+00; -5.1494140E-02;  4.0000000E+04;  0.0000000E+00;  3.9936141E+04; -1.4947542E-02;  0.0000000E+00; -2.0218879E-02;  1.5019922E+03;
  6.7172438E-01;  9.9999998E-03;  3.9987739E-02;6567; -3.0978560E-02;  0.0000000E+00; -9.1615185E-04;  1.0004792E+03;  1.0797307E-01;  3.9702576E+02;3;  6.4243379E+00;  0.0000000E+00; -8.0707538E-01;0; -3.4914713E-02;  3.4365879E+04;  0.0000000E+00; -9.2637420E-02;  4.0000000E+04;  0.0000000E+00;  3.9936992E+04; -1.4911835E-02;  0.0000000E+00; -2.0002877E-02;  1.4029352E+03;
  6.7172164E-01;  9.9999998E-03;  4.9983971E-02;6568; -3.0907432E-02;  0.0000000E+00; -1.1341125E-03;  1.0004440E+03;  1.0797677E-01;  3.6789078E+02;3;  6.3525271E+00;  0.0000000E+00; -9.9989623E-01;0; -3.4590494E-02;  3.4359941E+04;  0.0000000E+00; -1.4567848E-01;  4.0000000E+04;  0.0000000E+00;  3.9937727E+04; -1.4855936E-02;  0.0000000E+00; -1.9734558E-02;  1.3215811E+03;
  6.7171907E-01;  9.9999998E-03;  5.9980463E-02;6569; -3.0823240E-02;  0.0000000E+00; -1.3462412E-03;  1.0004084E+03;  1.0798122E-01;  3.3836075E+02;3;  6.2677798E+00;  0.0000000E+00; -1.1871073E+00;0; -3.4192413E-02;  3.4353738E+04;  0.0000000E+00; -2.0901766E-01;  4.0000000E+04;  0.0000000E+00;  3.9938246E+04; -1.4773456E-02;  0.0000000E+00; -1.9418959E-02;  1.2801333E+03;
  6.8173927E-01;  9.9999998E-03; -9.9978633E-02;6614; -3.0475905E-02;  0.0000000E+00;  2.1940628E-03;  9.9982367E+02;  1.1015628E-01; -1.4606992E+02;3;  6.0557466E+00;  0.0000000E+00;  1.9226295E+00;0; -3.2345679E-02;  3.2971172E+04;  0.0000000E+00; -3.8868853E-01;  4.0000000E+04;  0.0000000E+00;  3.9923574E+04; -1.4595941E-02;  0.0000000E+00; -1.7749738E-02;  1.4847589E+03;
  6.8172389E-01;  9.9999998E-03; -8.9977384E-02;6615; -3.0607987E-02;  0.0000000E+00;  2.0050686E-03;  9.9973901E+02;  1.1014520E-01; -2.1624077E+02;3;  6.1866770E+00;  0.0000000E+00;  1.7586062E+00;0; -3.3122465E-02;  3.2972543E+04;  0.0000000E+00; -3.5165325E-01;  4.0000000E+04;  0.0000000E+00;  3.9923832E+04; -1.4887802E-02;  0.0000000E+00; -1.8234661E-02;  1.4282549E+03;
  6.8170899E-01;  9.9999998E-03; -7.9977661E-02;6616; -3.0727627E-02;  0.0000000E+00;  1.8082442E-03;  9.9967987E+02;  1.1013468E-01; -2.6522702E+02;3;  6.3118548E+00;  0.0000000E+00;  1.5869048E+00;0; -3.3802316E-02;  3.2974867E+04;  0.0000000E+00; -2.9952869E-01;  4.0000000E+04;  0.0000000E+00;  3.9923762E+04; -1.5122228E-02;  0.0000000E+00; -1.8680088E-02;  1.3769310E+03;
  6.8169498E-01;  9.9999998E-03; -6.9979213E-02;6617; -3.0835092E-02;  0.0000000E+00;  1.6040044E-03;  9.9964734E+02;  1.1012568E-01; -2.9218921E+02;3;  6.4277339E+00;  0.0000000E+00;  1.4080764E+00;0; -3.4392305E-02;  3.2978418E+04;  0.0000000E+00; -2.4007376E-01;  4.0000000E+04;  0.0000000E+00;  3.9923605E+04; -1.5306187E-02;  0.0000000E+00; -1.9086119E-02;  1.3564844E+03;
  6.8168241E-01;  9.9999998E-03; -5.9981957E-02;6618; -3.0930232E-02;  0.0000000E+00;  1.3925702E-03;  9.9963397E+02;  1.1011732E-01; -3.0325064E+02;3;  6.5337753E+00;  0.0000000E+00;  1.2220908E+00;0; -3.4897715E-02;  3.2983434E+04;  0.0000000E+00; -1.8036774E-01;  4.0000000E+04;  0.0000000E+00;  3.9923230E+04; -1.5446529E-02;  0.0000000E+00; -1.9451184E-02;  1.3836727E+03;
  6.8167138E-01;  9.9999998E-03; -4.9985386E-02;6619; -3.1012528E-02;  0.0000000E+00;  1.1741830E-03;  9.9964056E+02;  1.1011066E-01; -2.9776932E+02;3;  6.6271791E+00;  0.0000000E+00;  1.0294898E+00;0; -3.5321973E-02;  3.2989059E+04;  0.0000000E+00; -1.2584589E-01;  4.0000000E+04;  0.0000000E+00;  3.9922668E+04; -1.5549934E-02;  0.0000000E+00; -1.9772042E-02;  1.4600884E+03;
  6.8166226E-01;  9.9999998E-03; -3.9989054E-02;6620; -3.1081384E-02;  0.0000000E+00;  9.4918045E-04;  9.9965765E+02;  1.1010469E-01; -2.8364627E+02;3;  6.7063127E+00;  0.0000000E+00;  8.3104259E-01;0; -3.5667405E-02;  3.2994996E+04;  0.0000000E+00; -7.9969235E-02;  4.0000000E+04;  0.0000000E+00;  3.9921641E+04; -1.5623083E-02;  0.0000000E+00; -2.0044321E-02;  1.5720055E+03;
  6.8165469E-01;  9.9999998E-03; -2.9992554E-02;6621; -3.1135995E-02;  0.0000000E+00;  7.1812165E-04;  9.9968066E+02;  1.1010028E-01; -2.6458508E+02;3;  6.7695246E+00;  0.0000000E+00;  6.2771958E-01;0; -3.5935398E-02;  3.3000520E+04;  0.0000000E+00; -4.4402562E-02;  4.0000000E+04;  0.0000000E+00;  3.9920676E+04; -1.5672183E-02;  0.0000000E+00; -2.0263216E-02;  1.6965045E+03;
  6.8164891E-01;  9.9999998E-03; -1.9995630E-02;6622; -3.1175600E-02;  0.0000000E+00;  4.8193152E-04;  9.9970428E+02;  1.1009674E-01; -2.4498068E+02;3;  6.8156614E+00;  0.0000000E+00;  4.2061079E-01;0; -3.6126688E-02;  3.3004852E+04;  0.0000000E+00; -1.9472679E-02;  4.0000000E+04;  0.0000000E+00;  3.9919812E+04; -1.5702773E-02;  0.0000000E+00; -2.0423913E-02;  1.8084513E+03;
  6.8164510E-01;  9.9999998E-03; -9.9981958E-03;6623; -3.1199615E-02;  0.0000000E+00;  2.4198051E-04;  9.9972150E+02;  1.1009508E-01; -2.3075887E+02;3;  6.8437924E+00;  0.0000000E+00;  2.1094617E-01;0; -3.6241390E-02;  3.3007773E+04;  0.0000000E+00; -4.8211692E-03;  4.0000000E+04;  0.0000000E+00;  3.9919141E+04; -1.5719207E-02;  0.0000000E+00; -2.0522181E-02;  1.8858053E+03;
  6.8164384E-01;  9.9999998E-03;  3.2370675E-09;6624; -3.1207707E-02;  0.0000000E+00;  2.4720171E-08;  9.9972498E+02;  1.1009413E-01; -2.2784537E+02;3;  6.8531818E+00;  0.0000000E+00; -1.2620087E-05;0; -3.6279671E-02;  3.3008789E+04;  0.0000000E+00; -6.1165344E-11;  4.0000000E+04;  0.0000000E+00;  3.9919012E+04; -1.5724381E-02;  0.0000000E+00; -2.0555288E-02;  1.9134020E+03;
  6.8164510E-01;  9.9999998E-03;  9.9982023E-03;6625; -3.1199623E-02;  0.0000000E+00; -2.4193135E-04;  9.9972150E+02;  1.1009508E-01; -2.3075887E+02;3;  6.8437338E+00;  0.0000000E+00; -2.1097349E-01;0; -3.6241405E-02;  3.3007773E+04;  0.0000000E+00; -4.8186383E-03;  4.0000000E+04;  0.0000000E+00;  3.9919141E+04; -1.5719200E-02;  0.0000000E+00; -2.0522203E-02;  1.8858163E+03;
  6.8164891E-01;  9.9999998E-03;  1.9995635E-02;6626; -3.1175608E-02;  0.0000000E+00; -4.8188207E-04;  9.9970435E+02;  1.1009681E-01; -2.4493130E+02;3;  6.8156734E+00;  0.0000000E+00; -4.2063248E-01;0; -3.6126696E-02;  3.3004848E+04;  0.0000000E+00; -1.9467680E-02;  4.0000000E+04;  0.0000000E+00;  3.9919816E+04; -1.5702782E-02;  0.0000000E+00; -2.0423913E-02;  1.8084553E+03;
  6.8165469E-01;  9.9999998E-03;  2.9992560E-02;6627; -3.1136004E-02;  0.0000000E+00; -7.1807130E-04;  9.9968066E+02;  1.1010028E-01; -2.6458508E+02;3;  6.7695651E+00;  0.0000000E+00; -6.2772340E-01;0; -3.5935409E-02;  3.3000520E+04;  0.0000000E+00; -4.4397596E-02;  4.0000000E+04;  0.0000000E+00;  3.9920676E+04; -1.5672190E-02;  0.0000000E+00; -2.0263217E-02;  1.6965049E+03;
  6.8166226E-01;  9.9999998E-03;  3.9989062E-02;6628; -3.1081390E-02;  0.0000000E+00; -9.4912964E-04;  9.9965765E+02;  1.1010469E-01; -2.8364627E+02;3;  6.7063618E+00;  0.0000000E+00; -8.3104622E-01;0; -3.5667427E-02;  3.2994992E+04;  0.0000000E+00; -7.9963200E-02;  4.0000000E+04;  0.0000000E+00;  3.9921641E+04; -1.5623093E-02;  0.0000000E+00; -2.0044336E-02;  1.5720188E+03;
  6.8167138E-01;  9.9999998E-03;  4.9985390E-02;6629; -3.1012541E-02;  0.0000000E+00; -1.1741320E-03;  9.9964062E+02;  1.1011063E-01; -2.9771994E+02;3;  6.6272306E+00;  0.0000000E+00; -1.0294864E+00;0; -3.5321988E-02;  3.2989062E+04;  0.0000000E+00; -1.2584180E-01;  4.0000000E+04;  0.0000000E+00;  3.9922668E+04; -1.5549956E-02;  0.0000000E+00; -1.9772030E-02;  1.4600922E+03;
  6.8168241E-01;  9.9999998E-03;  5.9981965E-02;6630; -3.0930242E-02;  0.0000000E+00; -1.3925199E-03;  9.9963397E+02;  1.1011732E-01; -3.0325064E+02;3;  6.5338473E+00;  0.0000000E+00; -1.2220657E+00;0; -3.4897741E-02;  3.2983426E+04;  0.0000000E+00; -1.8036664E-01;  4.0000000E+04;  0.0000000E+00;  3.9923230E+04; -1.5446548E-02;  0.0000000E+00; -1.9451194E-02;  1.3836658E+03;
  6.9234836E-01;  9.9999998E-03; -1.0002645E-01;6675; -3.0636171E-02;  0.0000000E+00;  2.2440096E-03;  9.9885217E+02;  1.1264547E-01; -9.5093591E+02;3;  6.2940030E+00;  0.0000000E+00;  1.9882137E+00;0; -3.2855980E-02;  3.1478217E+04;  0.0000000E+00; -2.0874320E-01;  4.0000000E+04;  0.0000000E+00;  3.9907789E+04; -1.5192702E-02;  0.0000000E+00; -1.7663276E-02;  1.3572291E+03;
  6.9230860E-01;  9.9999998E-03; -9.0021186E-02;6676; -3.0770950E-02;  0.0000000E+00;  2.0530969E-03;  9.9870386E+02;  1.1262806E-01; -1.0738461E+03;3;  6.4393325E+00;  0.0000000E+00;  1.8192320E+00;0; -3.3687685E-02;  3.1478688E+04;  0.0000000E+00; -1.9860241E-01;  4.0000000E+04;  0.0000000E+00;  3.9907609E+04; -1.5536563E-02;  0.0000000E+00; -1.8151123E-02;  1.3662207E+03;
  6.9226313E-01;  9.9999998E-03; -8.0017172E-02;6677; -3.0891987E-02;  0.0000000E+00;  1.8533940E-03;  9.9858606E+02;  1.1261085E-01; -1.1714235E+03;3;  6.5758424E+00;  0.0000000E+00;  1.6424884E+00;0; -3.4416944E-02;  3.1481365E+04;  0.0000000E+00; -1.7442149E-01;  4.0000000E+04;  0.0000000E+00;  3.9907410E+04; -1.5822258E-02;  0.0000000E+00; -1.8594686E-02;  1.3802118E+03;
  6.9221377E-01;  9.9999998E-03; -7.0013486E-02;6678; -3.0999443E-02;  0.0000000E+00;  1.6453945E-03;  9.9850549E+02;  1.1259457E-01; -1.2381870E+03;3;  6.7046704E+00;  0.0000000E+00;  1.4576317E+00;0; -3.5050843E-02;  3.1486150E+04;  0.0000000E+00; -1.4220031E-01;  4.0000000E+04;  0.0000000E+00;  3.9906770E+04; -1.6054757E-02;  0.0000000E+00; -1.8996086E-02;  1.4211560E+03;
  6.9216353E-01;  9.9999998E-03; -6.0010467E-02;6679; -3.1093543E-02;  0.0000000E+00;  1.4294710E-03;  9.9845349E+02;  1.1257912E-01; -1.2812476E+03;3;  6.8214974E+00;  0.0000000E+00;  1.2653946E+00;0; -3.5594791E-02;  3.1492658E+04;  0.0000000E+00; -1.0758323E-01;  4.0000000E+04;  0.0000000E+00;  3.9906395E+04; -1.6239269E-02;  0.0000000E+00; -1.9355524E-02;  1.5023850E+03;
  6.9211519E-01;  9.9999998E-03; -5.0008330E-02;6680; -3.1174036E-02;  0.0000000E+00;  1.2059616E-03;  9.9843451E+02;  1.1256533E-01; -1.2970001E+03;3;  6.9245911E+00;  0.0000000E+00;  1.0660710E+00;0; -3.6052015E-02;  3.1500363E+04;  0.0000000E+00; -7.5017437E-02;  4.0000000E+04;  0.0000000E+00;  3.9905367E+04; -1.6381266E-02;  0.0000000E+00; -1.9670749E-02;  1.6236343E+03;
  6.9207180E-01;  9.9999998E-03; -4.0006921E-02;6681; -3.1240780E-02;  0.0000000E+00;  9.7529788E-04;  9.9843005E+02;  1.1255291E-01; -1.3006544E+03;3;  7.0114946E+00;  0.0000000E+00;  8.6071616E-01;0; -3.6424614E-02;  3.1508262E+04;  0.0000000E+00; -4.7395501E-02;  4.0000000E+04;  0.0000000E+00;  3.9904285E+04; -1.6486552E-02;  0.0000000E+00; -1.9938065E-02;  1.7716064E+03;
  6.9203562E-01;  9.9999998E-03; -3.0005688E-02;6682; -3.1293254E-02;  0.0000000E+00;  7.3812722E-04;  9.9844012E+02;  1.1254330E-01; -1.2923090E+03;3;  7.0811415E+00;  0.0000000E+00;  6.5011454E-01;0; -3.6713734E-02;  3.1515674E+04;  0.0000000E+00; -2.6094669E-02;  4.0000000E+04;  0.0000000E+00;  3.9902992E+04; -1.6560813E-02;  0.0000000E+00; -2.0152923E-02;  1.9244670E+03;
  6.9200844E-01;  9.9999998E-03; -2.0004183E-02;6683; -3.1331118E-02;  0.0000000E+00;  4.9547077E-04;  9.9845221E+02;  1.1253632E-01; -1.2823339E+03;3;  7.1317377E+00;  0.0000000E+00;  4.3560514E-01;0; -3.6920033E-02;  3.1521471E+04;  0.0000000E+00; -1.1346354E-02;  4.0000000E+04;  0.0000000E+00;  3.9902055E+04; -1.6609395E-02;  0.0000000E+00; -2.0310637E-02;  2.0573748E+03;
  6.9199163E-01;  9.9999998E-03; -1.0002370E-02;6684; -3.1353988E-02;  0.0000000E+00;  2.4881292E-04;  9.9846216E+02;  1.1253200E-01; -1.2740873E+03;3;  7.1625204E+00;  0.0000000E+00;  2.1846780E-01;0; -3.7043706E-02;  3.1525264E+04;  0.0000000E+00; -2.7921349E-03;  4.0000000E+04;  0.0000000E+00;  3.9901219E+04; -1.6636616E-02;  0.0000000E+00; -2.0407090E-02;  2.1477490E+03;
  6.9198585E-01;  9.9999998E-03;  3.2528871E-09;6685; -3.1361654E-02;  0.0000000E+00;  2.5055005E-08;  9.9846490E+02;  1.1253030E-01; -1.2718157E+03;3;  7.1728601E+00;  0.0000000E+00; -2.0141950E-05;0; -3.7084986E-02;  3.1526646E+04;  0.0000000E+00; -6.0716841E-11;  4.0000000E+04;  0.0000000E+00;  3.9901098E+04; -1.6645370E-02;  0.0000000E+00; -2.0439615E-02;  2.1797935E+03;
  6.9199163E-01;  9.9999998E-03;  1.0002377E-02;6686; -3.1353991E-02;  0.0000000E+00; -2.4876205E-04;  9.9846210E+02;  1.1253189E-01; -1.2741366E+03;3;  7.1625371E+00;  0.0000000E+00; -2.1847664E-01;0; -3.7043743E-02;  3.1525271E+04;  0.0000000E+00; -2.7899223E-03;  4.0000000E+04;  0.0000000E+00;  3.9901219E+04; -1.6636631E-02;  0.0000000E+00; -2.0407114E-02;  2.1477458E+03;
  6.9200844E-01;  9.9999998E-03;  2.0004189E-02;6687; -3.1331122E-02;  0.0000000E+00; -4.9541832E-04;  9.9845209E+02;  1.1253625E-01; -1.2824326E+03;3;  7.1317925E+00;  0.0000000E+00; -4.3561387E-01;0; -3.6920026E-02;  3.1521475E+04;  0.0000000E+00; -1.1342306E-02;  4.0000000E+04;  0.0000000E+00;  3.9902051E+04; -1.6609382E-02;  0.0000000E+00; -2.0310644E-02;  2.0573796E+03;
  6.9203562E-01;  9.9999998E-03;  3.0005693E-02;6688; -3.1293262E-02;  0.0000000E+00; -7.3807553E-04;  9.9844000E+02;  1.1254327E-01; -1.2924077E+03;3;  7.0811586E+00;  0.0000000E+00; -6.5013647E-01;0; -3.6713757E-02;  3.1515674E+04;  0.0000000E+00; -2.6089976E-02;  4.0000000E+04;  0.0000000E+00;  3.9902996E+04; -1.6560843E-02;  0.0000000E+00; -2.0152915E-02;  1.9244758E+03;
  6.9207180E-01;  9.9999998E-03;  4.0006928E-02;6689; -3.1240789E-02;  0.0000000E+00; -9.7524491E-04;  9.9843011E+02;  1.1255290E-01; -1.3006050E+03;3;  7.0115390E+00;  0.0000000E+00; -8.6068439E-01;0; -3.6424659E-02;  3.1508266E+04;  0.0000000E+00; -4.7388703E-02;  4.0000000E+04;  0.0000000E+00;  3.9904281E+04; -1.6486574E-02;  0.0000000E+00; -1.9938083E-02;  1.7716442E+03;
  6.9211519E-01;  9.9999998E-03;  5.0008338E-02;6690; -3.1174041E-02;  0.0000000E+00; -1.2059076E-03;  9.9843451E+02;  1.1256533E-01; -1.2970001E+03;3;  6.9246635E+00;  0.0000000E+00; -1.0660733E+00;0; -3.6052033E-02;  3.1500363E+04;  0.0000000E+00; -7.5013451E-02;  4.0000000E+04;  0.0000000E+00;  3.9905367E+04; -1.6381282E-02;  0.0000000E+00; -1.9670753E-02;  1.6236429E+03;
  6.9216353E-01;  9.9999998E-03;  6.0010474E-02;6691; -3.1093558E-02;  0.0000000E+00; -1.4294197E-03;  9.9845349E+02;  1.1257912E-01; -1.2812476E+03;3;  6.8215566E+00;  0.0000000E+00; -1.2653552E+00;0; -3.5594814E-02;  3.1492660E+04;  0.0000000E+00; -1.0758158E-01;  4.0000000E+04;  0.0000000E+00;  3.9906398E+04; -1.6239287E-02;  0.0000000E+00; -1.9355528E-02;  1.5023860E+03;
  7.0451307E-01;  9.9999998E-03; -1.0019369E-01;6736; -3.0867822E-02;  0.0000000E+00;  2.2693984E-03;  9.9794257E+02;  1.1572332E-01; -1.7045439E+03;3;  6.5702958E+00;  0.0000000E+00;  2.0727189E+00;0; -3.3003487E-02;  2.9792527E+04;  0.0000000E+00;  7.0514910E-02;  4.0000000E+04;  0.0000000E+00;  3.9888895E+04; -1.5577048E-02;  0.0000000E+00; -1.7426439E-02;  1.2785392E+03;
  7.0450348E-01;  9.9999998E-03; -9.0179622E-02;6737; -3.1006476E-02;  0.0000000E+00;  2.0764933E-03;  9.9773169E+02;  1.1571142E-01; -1.8792551E+03;3;  6.7304163E+00;  0.0000000E+00;  1.8992608E+00;0; -3.3923388E-02;  2.9786691E+04;  0.0000000E+00;  4.5491181E-02;  4.0000000E+04;  0.0000000E+00;  3.9888375E+04; -1.6031815E-02;  0.0000000E+00; -1.7891573E-02;  1.3350293E+03;
  7.0448154E-01;  9.9999998E-03; -8.0166414E-02;6738; -3.1130012E-02;  0.0000000E+00;  1.8746767E-03;  9.9755286E+02;  1.1569832E-01; -2.0273990E+03;3;  6.8850417E+00;  0.0000000E+00;  1.7165018E+00;0; -3.4737643E-02;  2.9783795E+04;  0.0000000E+00;  2.9240694E-02;  4.0000000E+04;  0.0000000E+00;  3.9887871E+04; -1.6429761E-02;  0.0000000E+00; -1.8307881E-02;  1.4006692E+03;
  7.0444876E-01;  9.9999998E-03; -7.0153356E-02;6739; -3.1238904E-02;  0.0000000E+00;  1.6646093E-03;  9.9741736E+02;  1.1568467E-01; -2.1396921E+03;3;  7.0300045E+00;  0.0000000E+00;  1.5256568E+00;0; -3.5451695E-02;  2.9783934E+04;  0.0000000E+00;  1.9319331E-02;  4.0000000E+04;  0.0000000E+00;  3.9887113E+04; -1.6770998E-02;  0.0000000E+00; -1.8680695E-02;  1.4916101E+03;
  7.0440799E-01;  9.9999998E-03; -6.0139451E-02;6740; -3.1333353E-02;  0.0000000E+00;  1.4465388E-03;  9.9731964E+02;  1.1567078E-01; -2.2206279E+03;3;  7.1623254E+00;  0.0000000E+00;  1.3255434E+00;0; -3.6069244E-02;  2.9786711E+04;  0.0000000E+00;  1.3355602E-02;  4.0000000E+04;  0.0000000E+00;  3.9886230E+04; -1.7056318E-02;  0.0000000E+00; -1.9012926E-02;  1.6169276E+03;
  7.0436305E-01;  9.9999998E-03; -5.0123833E-02;6741; -3.1413458E-02;  0.0000000E+00;  1.2207192E-03;  9.9726221E+02;  1.1565778E-01; -2.2682317E+03;3;  7.2796102E+00;  0.0000000E+00;  1.1174991E+00;0; -3.6592148E-02;  2.9791682E+04;  0.0000000E+00;  9.4976518E-03;  4.0000000E+04;  0.0000000E+00;  3.9884988E+04; -1.7287852E-02;  0.0000000E+00; -1.9304296E-02;  1.7749199E+03;
  7.0431805E-01;  9.9999998E-03; -4.0105890E-02;6742; -3.1479344E-02;  0.0000000E+00;  9.8753569E-04;  9.9722998E+02;  1.1564524E-01; -2.2948975E+03;3;  7.3780961E+00;  0.0000000E+00;  9.0276605E-01;0; -3.7020728E-02;  2.9797744E+04;  0.0000000E+00;  6.5836282E-03;  4.0000000E+04;  0.0000000E+00;  3.9883664E+04; -1.7468724E-02;  0.0000000E+00; -1.9552004E-02;  1.9530056E+03;
  7.0427775E-01;  9.9999998E-03; -3.0084599E-02;6743; -3.1530824E-02;  0.0000000E+00;  7.4758759E-04;  9.9721674E+02;  1.1563516E-01; -2.3058601E+03;3;  7.4573679E+00;  0.0000000E+00;  6.8207395E-01;0; -3.7354901E-02;  2.9803889E+04;  0.0000000E+00;  4.0928782E-03;  4.0000000E+04;  0.0000000E+00;  3.9882586E+04; -1.7603029E-02;  0.0000000E+00; -1.9751873E-02;  2.1300808E+03;
  7.0424587E-01;  9.9999998E-03; -2.0059269E-02;6744; -3.1567775E-02;  0.0000000E+00;  5.0191832E-04;  9.9721423E+02;  1.1562708E-01; -2.3079341E+03;3;  7.5148544E+00;  0.0000000E+00;  4.5706061E-01;0; -3.7594154E-02;  2.9809168E+04;  0.0000000E+00;  1.9917865E-03;  4.0000000E+04;  0.0000000E+00;  3.9881105E+04; -1.7695019E-02;  0.0000000E+00; -1.9899135E-02;  2.2812231E+03;
  7.0422566E-01;  9.9999998E-03; -1.0030694E-02;6745; -3.1590004E-02;  0.0000000E+00;  2.5207878E-04;  9.9721954E+02;  1.1562194E-01; -2.3035393E+03;3;  7.5496883E+00;  0.0000000E+00;  2.2923467E-01;0; -3.7737984E-02;  2.9812705E+04;  0.0000000E+00;  5.2978471E-04;  4.0000000E+04;  0.0000000E+00;  3.9880320E+04; -1.7748494E-02;  0.0000000E+00; -1.9989491E-02;  2.3830627E+03;
  7.0421875E-01;  9.9999998E-03;  2.9405367E-09;6746; -3.1597443E-02;  0.0000000E+00;  2.6019816E-08;  9.9722034E+02;  1.1562067E-01; -2.3028972E+03;3;  7.5613551E+00;  0.0000000E+00; -2.4175824E-05;0; -3.7785940E-02;  2.9813904E+04;  0.0000000E+00; -5.3093013E-11;  4.0000000E+04;  0.0000000E+00;  3.9880047E+04; -1.7766006E-02;  0.0000000E+00; -2.0019935E-02;  2.4190518E+03;
  7.0422566E-01;  9.9999998E-03;  1.0030700E-02;6747; -3.1590007E-02;  0.0000000E+00; -2.5202608E-04;  9.9721960E+02;  1.1562190E-01; -2.3034900E+03;3;  7.5496607E+00;  0.0000000E+00; -2.2925051E-01;0; -3.7737947E-02;  2.9812703E+04;  0.0000000E+00;  5.3133920E-04;  4.0000000E+04;  0.0000000E+00;  3.9880328E+04; -1.7748486E-02;  0.0000000E+00; -1.9989461E-02;  2.3830630E+03;
  7.0424587E-01;  9.9999998E-03;  2.0059275E-02;6748; -3.1567778E-02;  0.0000000E+00; -5.0186279E-04;  9.9721423E+02;  1.1562708E-01; -2.3079341E+03;3;  7.5149345E+00;  0.0000000E+00; -4.5704579E-01;0; -3.7594147E-02;  2.9809170E+04;  0.0000000E+00;  1.9945255E-03;  4.0000000E+04;  0.0000000E+00;  3.9881105E+04; -1.7695028E-02;  0.0000000E+00; -1.9899117E-02;  2.2812349E+03;
  7.0427769E-01;  9.9999998E-03;  3.0084604E-02;6749; -3.1530831E-02;  0.0000000E+00; -7.4753462E-04;  9.9721674E+02;  1.1563516E-01; -2.3058601E+03;3;  7.4573965E+00;  0.0000000E+00; -6.8206942E-01;0; -3.7354924E-02;  2.9803891E+04;  0.0000000E+00;  4.0962650E-03;  4.0000000E+04;  0.0000000E+00;  3.9882586E+04; -1.7603038E-02;  0.0000000E+00; -1.9751884E-02;  2.1301089E+03;
  7.0431805E-01;  9.9999998E-03;  4.0105898E-02;6750; -3.1479347E-02;  0.0000000E+00; -9.8747888E-04;  9.9722998E+02;  1.1564524E-01; -2.2948975E+03;3;  7.3781796E+00;  0.0000000E+00; -9.0271538E-01;0; -3.7020735E-02;  2.9797750E+04;  0.0000000E+00;  6.5867216E-03;  4.0000000E+04;  0.0000000E+00;  3.9883664E+04; -1.7468734E-02;  0.0000000E+00; -1.9552004E-02;  1.9530116E+03;
  7.0436305E-01;  9.9999998E-03;  5.0123841E-02;6751; -3.1413469E-02;  0.0000000E+00; -1.2206660E-03;  9.9726202E+02;  1.1565779E-01; -2.2683799E+03;3;  7.2796769E+00;  0.0000000E+00; -1.1174943E+00;0; -3.6592163E-02;  2.9791688E+04;  0.0000000E+00;  9.5016081E-03;  4.0000000E+04;  0.0000000E+00;  3.9884984E+04; -1.7287880E-02;  0.0000000E+00; -1.9304285E-02;  1.7749331E+03;
  7.0440799E-01;  9.9999998E-03;  6.0139455E-02;6752; -3.1333368E-02;  0.0000000E+00; -1.4464824E-03;  9.9731958E+02;  1.1567055E-01; -2.2206775E+03;3;  7.1623673E+00;  0.0000000E+00; -1.3255635E+00;0; -3.6069274E-02;  2.9786711E+04;  0.0000000E+00;  1.3357196E-02;  4.0000000E+04;  0.0000000E+00;  3.9886234E+04; -1.7056359E-02;  0.0000000E+00; -1.9012915E-02;  1.6169377E+03;
  7.1743035E-01;  9.9999998E-03; -1.0032121E-01;6797; -3.1150023E-02;  0.0000000E+00;  2.2441596E-03;  9.9779010E+02;  1.1931013E-01; -1.8308613E+03;3;  6.8740864E+00;  0.0000000E+00;  2.1597960E+00;0; -3.2156058E-02;  2.8044295E+04;  0.0000000E+00;  3.6928141E-01;  4.0000000E+04;  0.0000000E+00;  3.9868391E+04; -1.5217827E-02;  0.0000000E+00; -1.6938230E-02;  1.4372898E+03;
  7.1747053E-01;  9.9999998E-03; -9.0300135E-02;6798; -3.1291649E-02;  0.0000000E+00;  2.0489921E-03;  9.9756152E+02;  1.1931047E-01; -2.0202386E+03;3;  7.0531173E+00;  0.0000000E+00;  1.9801451E+00;0; -3.3223435E-02;  2.8032086E+04;  0.0000000E+00;  3.1293580E-01;  4.0000000E+04;  0.0000000E+00;  3.9867656E+04; -1.5882960E-02;  0.0000000E+00; -1.7340478E-02;  1.4615973E+03;
  7.1749634E-01;  9.9999998E-03; -8.0277562E-02;6799; -3.1417407E-02;  0.0000000E+00;  1.8462561E-03;  9.9737146E+02;  1.1931025E-01; -2.1777156E+03;3;  7.2311740E+00;  0.0000000E+00;  1.7906015E+00;0; -3.4184989E-02;  2.8022656E+04;  0.0000000E+00;  2.5608021E-01;  4.0000000E+04;  0.0000000E+00;  3.9866789E+04; -1.6492972E-02;  0.0000000E+00; -1.7692016E-02;  1.5009352E+03;
  7.1750844E-01;  9.9999998E-03; -7.0253111E-02;6800; -3.1527508E-02;  0.0000000E+00;  1.6364641E-03;  9.9721844E+02;  1.1930910E-01; -2.3044775E+03;3;  7.3963537E+00;  0.0000000E+00;  1.5920691E+00;0; -3.5041660E-02;  2.8016418E+04;  0.0000000E+00;  2.0104910E-01;  4.0000000E+04;  0.0000000E+00;  3.9865914E+04; -1.7039279E-02;  0.0000000E+00; -1.8002383E-02;  1.5745035E+03;
  7.1750820E-01;  9.9999998E-03; -6.0226571E-02;6801; -3.1623133E-02;  0.0000000E+00;  1.4202837E-03;  9.9711151E+02;  1.1930643E-01; -2.3930676E+03;3;  7.5430708E+00;  0.0000000E+00;  1.3890011E+00;0; -3.5793345E-02;  2.8013102E+04;  0.0000000E+00;  1.5010113E-01;  4.0000000E+04;  0.0000000E+00;  3.9864688E+04; -1.7515458E-02;  0.0000000E+00; -1.8277887E-02;  1.6920903E+03;
  7.1749926E-01;  9.9999998E-03; -5.0197698E-02;6802; -3.1703793E-02;  0.0000000E+00;  1.1973124E-03;  9.9703918E+02;  1.1930332E-01; -2.4529670E+03;3;  7.6783586E+00;  0.0000000E+00;  1.1726041E+00;0; -3.6437653E-02;  2.8012307E+04;  0.0000000E+00;  1.0514551E-01;  4.0000000E+04;  0.0000000E+00;  3.9863246E+04; -1.7917234E-02;  0.0000000E+00; -1.8520417E-02;  1.8507747E+03;
  7.1748275E-01;  9.9999998E-03; -4.0164988E-02;6803; -3.1769633E-02;  0.0000000E+00;  9.6771412E-04;  9.9699878E+02;  1.1929952E-01; -2.4864478E+03;3;  7.7941394E+00;  0.0000000E+00;  9.4730097E-01;0; -3.6971301E-02;  2.8013664E+04;  0.0000000E+00;  6.7515232E-02;  4.0000000E+04;  0.0000000E+00;  3.9861691E+04; -1.8242788E-02;  0.0000000E+00; -1.8728515E-02;  2.0354083E+03;
  7.1746135E-01;  9.9999998E-03; -3.0127948E-02;6804; -3.1820968E-02;  0.0000000E+00;  7.3206011E-04;  9.9697833E+02;  1.1929509E-01; -2.5033855E+03;3;  7.8843312E+00;  0.0000000E+00;  7.1629822E-01;0; -3.7390836E-02;  2.8016205E+04;  0.0000000E+00;  3.7978105E-02;  4.0000000E+04;  0.0000000E+00;  3.9860316E+04; -1.8492538E-02;  0.0000000E+00; -1.8898299E-02;  2.2216370E+03;
  7.1744013E-01;  9.9999998E-03; -2.0087669E-02;6805; -3.1857546E-02;  0.0000000E+00;  4.9121148E-04;  9.9697559E+02;  1.1929139E-01; -2.5056570E+03;3;  7.9511523E+00;  0.0000000E+00;  4.7998187E-01;0; -3.7693053E-02;  2.8019164E+04;  0.0000000E+00;  1.6854113E-02;  4.0000000E+04;  0.0000000E+00;  3.9858895E+04; -1.8668253E-02;  0.0000000E+00; -1.9024799E-02;  2.3815813E+03;
  7.1742475E-01;  9.9999998E-03; -1.0044880E-02;6806; -3.1879548E-02;  0.0000000E+00;  2.4661465E-04;  9.9697186E+02;  1.1928820E-01; -2.5087681E+03;3;  7.9912028E+00;  0.0000000E+00;  2.4063718E-01;0; -3.7875518E-02;  2.8021385E+04;  0.0000000E+00;  4.2070854E-03;  4.0000000E+04;  0.0000000E+00;  3.9858203E+04; -1.8772477E-02;  0.0000000E+00; -1.9103041E-02;  2.4897693E+03;
  7.1741921E-01;  9.9999998E-03;  2.0661537E-09;6807; -3.1886879E-02;  0.0000000E+00;  2.8378375E-08;  9.9697198E+02;  1.1928692E-01; -2.5086692E+03;3;  8.0044422E+00;  0.0000000E+00; -1.2373758E-06;0; -3.7936520E-02;  2.8022211E+04;  0.0000000E+00; -3.7404264E-11;  4.0000000E+04;  0.0000000E+00;  3.9857812E+04; -1.8806985E-02;  0.0000000E+00; -1.9129535E-02;  2.5280217E+03;
  7.1742475E-01;  9.9999998E-03;  1.0044884E-02;6808; -3.1879548E-02;  0.0000000E+00; -2.4655939E-04;  9.9697192E+02;  1.1928800E-01; -2.5087185E+03;3;  7.9911561E+00;  0.0000000E+00; -2.4063835E-01;0; -3.7875526E-02;  2.8021387E+04;  0.0000000E+00;  4.2076409E-03;  4.0000000E+04;  0.0000000E+00;  3.9858199E+04; -1.8772485E-02;  0.0000000E+00; -1.9103039E-02;  2.4897798E+03;
  7.1744013E-01;  9.9999998E-03;  2.0087674E-02;6809; -3.1857550E-02;  0.0000000E+00; -4.9115339E-04;  9.9697552E+02;  1.1929139E-01; -2.5057063E+03;3;  7.9510508E+00;  0.0000000E+00; -4.7996280E-01;0; -3.7693113E-02;  2.8019172E+04;  0.0000000E+00;  1.6855367E-02;  4.0000000E+04;  0.0000000E+00;  3.9858895E+04; -1.8668303E-02;  0.0000000E+00; -1.9024808E-02;  2.3815886E+03;
  7.1746135E-01;  9.9999998E-03;  3.0127954E-02;6810; -3.1820972E-02;  0.0000000E+00; -7.3200226E-04;  9.9697839E+02;  1.1929507E-01; -2.5033359E+03;3;  7.8843751E+00;  0.0000000E+00; -7.1626985E-01;0; -3.7390865E-02;  2.8016207E+04;  0.0000000E+00;  3.7978876E-02;  4.0000000E+04;  0.0000000E+00;  3.9860316E+04; -1.8492553E-02;  0.0000000E+00; -1.8898312E-02;  2.2216372E+03;
  7.1748275E-01;  9.9999998E-03;  4.0164996E-02;6811; -3.1769641E-02;  0.0000000E+00; -9.6765743E-04;  9.9699884E+02;  1.1929952E-01; -2.4863982E+03;3;  7.7942133E+00;  0.0000000E+00; -9.4726413E-01;0; -3.6971301E-02;  2.8013660E+04;  0.0000000E+00;  6.7515180E-02;  4.0000000E+04;  0.0000000E+00;  3.9861684E+04; -1.8242799E-02;  0.0000000E+00; -1.8728500E-02;  2.0354127E+03;
  7.1749926E-01;  9.9999998E-03;  5.0197706E-02;6812; -3.1703796E-02;  0.0000000E+00; -1.1972552E-03;  9.9703906E+02;  1.1930332E-01; -2.4530659E+03;3;  7.6784301E+00;  0.0000000E+00; -1.1725577E+00;0; -3.6437668E-02;  2.8012303E+04;  0.0000000E+00;  1.0514503E-01;  4.0000000E+04;  0.0000000E+00;  3.9863246E+04; -1.7917257E-02;  0.0000000E+00; -1.8520411E-02;  1.8507954E+03;
  7.1750820E-01;  9.9999998E-03;  6.0226578E-02;6813; -3.1623140E-02;  0.0000000E+00; -1.4202239E-03;  9.9711139E+02;  1.1930644E-01; -2.3931663E+03;3;  7.5430884E+00;  0.0000000E+00; -1.3889668E+00;0; -3.5793386E-02;  2.8013094E+04;  0.0000000E+00;  1.5010147E-01;  4.0000000E+04;  0.0000000E+00;  3.9864688E+04; -1.7515492E-02;  0.0000000E+00; -1.8277893E-02;  1.6921038E+03;
  7.2954082E-01;  9.9999998E-03; -1.0033355E-01;6858; -3.1440794E-02;  0.0000000E+00;  2.1685613E-03;  9.9797668E+02;  1.2296832E-01; -1.6762976E+03;3;  7.1724911E+00;  0.0000000E+00;  2.2253973E+00;0; -2.9929806E-02;  2.6432385E+04;  0.0000000E+00;  5.6811720E-01;  4.0000000E+04;  0.0000000E+00;  3.9848164E+04; -1.3790532E-02;  0.0000000E+00; -1.6139273E-02;  1.7145951E+03;
  7.2958219E-01;  9.9999998E-03; -9.0305142E-02;6859; -3.1583350E-02;  0.0000000E+00;  1.9719438E-03;  9.9777960E+02;  1.2296855E-01; -1.8395522E+03;3;  7.3748460E+00;  0.0000000E+00;  2.0402780E+00;0; -3.1240895E-02;  2.6422527E+04;  0.0000000E+00;  4.9618974E-01;  4.0000000E+04;  0.0000000E+00;  3.9847570E+04; -1.4792192E-02;  0.0000000E+00; -1.6448703E-02;  1.6686622E+03;
  7.2960734E-01;  9.9999998E-03; -8.0275550E-02;6860; -3.1708792E-02;  0.0000000E+00;  1.7701077E-03;  9.9761688E+02;  1.2296728E-01; -1.9743632E+03;3;  7.5710797E+00;  0.0000000E+00;  1.8447633E+00;0; -3.2442398E-02;  2.6414900E+04;  0.0000000E+00;  4.1363940E-01;  4.0000000E+04;  0.0000000E+00;  3.9847059E+04; -1.5730826E-02;  0.0000000E+00; -1.6711570E-02;  1.6274850E+03;
  7.2961587E-01;  9.9999998E-03; -7.0245109E-02;6861; -3.1818733E-02;  0.0000000E+00;  1.5638267E-03;  9.9748871E+02;  1.2296516E-01; -2.0805330E+03;3;  7.7624221E+00;  0.0000000E+00;  1.6393192E+00;0; -3.3529539E-02;  2.6410070E+04;  0.0000000E+00;  3.2751673E-01;  4.0000000E+04;  0.0000000E+00;  3.9845957E+04; -1.6587911E-02;  0.0000000E+00; -1.6941627E-02;  1.6252349E+03;
  7.2961128E-01;  9.9999998E-03; -6.0213733E-02;6862; -3.1913079E-02;  0.0000000E+00;  1.3530222E-03;  9.9740918E+02;  1.2296332E-01; -2.1464570E+03;3;  7.9334579E+00;  0.0000000E+00;  1.4262328E+00;0; -3.4495264E-02;  2.6407648E+04;  0.0000000E+00;  2.4468936E-01;  4.0000000E+04;  0.0000000E+00;  3.9845020E+04; -1.7347505E-02;  0.0000000E+00; -1.7147759E-02;  1.6839528E+03;
  7.2959673E-01;  9.9999998E-03; -5.0182387E-02;6863; -3.1992931E-02;  0.0000000E+00;  1.1377283E-03;  9.9735565E+02;  1.2296023E-01; -2.1908015E+03;3;  8.0775404E+00;  0.0000000E+00;  1.2080950E+00;0; -3.5331417E-02;  2.6407533E+04;  0.0000000E+00;  1.7058818E-01;  4.0000000E+04;  0.0000000E+00;  3.9843789E+04; -1.7998204E-02;  0.0000000E+00; -1.7333213E-02;  1.8042997E+03;
  7.2957730E-01;  9.9999998E-03; -4.0151268E-02;6864; -3.2058142E-02;  0.0000000E+00;  9.1793149E-04;  9.9733038E+02;  1.2295745E-01; -2.2117390E+03;3;  8.2063131E+00;  0.0000000E+00;  9.8051310E-01;0; -3.6029264E-02;  2.6408740E+04;  0.0000000E+00;  1.0867598E-01;  4.0000000E+04;  0.0000000E+00;  3.9842027E+04; -1.8532997E-02;  0.0000000E+00; -1.7496267E-02;  1.9668364E+03;
  7.2955585E-01;  9.9999998E-03; -3.0118106E-02;6865; -3.2108795E-02;  0.0000000E+00;  6.9342449E-04;  9.9731879E+02;  1.2295480E-01; -2.2213191E+03;3;  8.3084259E+00;  0.0000000E+00;  7.4132299E-01;0; -3.6580957E-02;  2.6410898E+04;  0.0000000E+00;  6.0582567E-02;  4.0000000E+04;  0.0000000E+00;  3.9840797E+04; -1.8948592E-02;  0.0000000E+00; -1.7632367E-02;  2.1410251E+03;
  7.2953570E-01;  9.9999998E-03; -2.0081969E-02;6866; -3.2144692E-02;  0.0000000E+00;  4.6477970E-04;  9.9731848E+02;  1.2295193E-01; -2.2215659E+03;3;  8.3850651E+00;  0.0000000E+00;  4.9627608E-01;0; -3.6980096E-02;  2.6413221E+04;  0.0000000E+00;  2.6668508E-02;  4.0000000E+04;  0.0000000E+00;  3.9839398E+04; -1.9244382E-02;  0.0000000E+00; -1.7735714E-02;  2.2944937E+03;
  7.2952133E-01;  9.9999998E-03; -1.0042588E-02;6867; -3.2166149E-02;  0.0000000E+00;  2.3317481E-04;  9.9732269E+02;  1.2294952E-01; -2.2181094E+03;3;  8.4318647E+00;  0.0000000E+00;  2.4849077E-01;0; -3.7221678E-02;  2.6415078E+04;  0.0000000E+00;  6.6202260E-03;  4.0000000E+04;  0.0000000E+00;  3.9838703E+04; -1.9421173E-02;  0.0000000E+00; -1.7800506E-02;  2.3995356E+03;
  7.2951639E-01;  9.9999998E-03;  2.2579723E-09;6868; -3.2173328E-02;  0.0000000E+00;  2.9217242E-08;  9.9732239E+02;  1.2294897E-01; -2.2183562E+03;3;  8.4467230E+00;  0.0000000E+00;  4.9028586E-09;0; -3.7302565E-02;  2.6415682E+04;  0.0000000E+00; -1.5906606E-11;  4.0000000E+04;  0.0000000E+00;  3.9838430E+04; -1.9479968E-02;  0.0000000E+00; -1.7822597E-02;  2.4369089E+03;
  7.2952133E-01;  9.9999998E-03;  1.0042593E-02;6869; -3.2166149E-02;  0.0000000E+00; -2.3311500E-04;  9.9732288E+02;  1.2294983E-01; -2.2179612E+03;3;  8.4319229E+00;  0.0000000E+00; -2.4846178E-01;0; -3.7221678E-02;  2.6415078E+04;  0.0000000E+00;  6.6199675E-03;  4.0000000E+04;  0.0000000E+00;  3.9838703E+04; -1.9421170E-02;  0.0000000E+00; -1.7800506E-02;  2.3995476E+03;
  7.2953570E-01;  9.9999998E-03;  2.0081975E-02;6870; -3.2144692E-02;  0.0000000E+00; -4.6472065E-04;  9.9731842E+02;  1.2295171E-01; -2.2216152E+03;3;  8.3850470E+00;  0.0000000E+00; -4.9624547E-01;0; -3.6980111E-02;  2.6413225E+04;  0.0000000E+00;  2.6668031E-02;  4.0000000E+04;  0.0000000E+00;  3.9839398E+04; -1.9244386E-02;  0.0000000E+00; -1.7735725E-02;  2.2945139E+03;
  7.2955585E-01;  9.9999998E-03;  3.0118112E-02;6871; -3.2108799E-02;  0.0000000E+00; -6.9336325E-04;  9.9731903E+02;  1.2295491E-01; -2.2211216E+03;3;  8.3084698E+00;  0.0000000E+00; -7.4130690E-01;0; -3.6580950E-02;  2.6410898E+04;  0.0000000E+00;  6.0581110E-02;  4.0000000E+04;  0.0000000E+00;  3.9840793E+04; -1.8948594E-02;  0.0000000E+00; -1.7632356E-02;  2.1410112E+03;
  7.2957730E-01;  9.9999998E-03;  4.0151276E-02;6872; -3.2058150E-02;  0.0000000E+00; -9.1786962E-04;  9.9733038E+02;  1.2295745E-01; -2.2117390E+03;3;  8.2062941E+00;  0.0000000E+00; -9.8049235E-01;0; -3.6029272E-02;  2.6408740E+04;  0.0000000E+00;  1.0867404E-01;  4.0000000E+04;  0.0000000E+00;  3.9842020E+04; -1.8533023E-02;  0.0000000E+00; -1.7496249E-02;  1.9668302E+03;
  7.2959673E-01;  9.9999998E-03;  5.0182391E-02;6873; -3.1992935E-02;  0.0000000E+00; -1.1376676E-03;  9.9735571E+02;  1.2296024E-01; -2.1907520E+03;3;  8.0775566E+00;  0.0000000E+00; -1.2080927E+00;0; -3.5331450E-02;  2.6407529E+04;  0.0000000E+00;  1.7058717E-01;  4.0000000E+04;  0.0000000E+00;  3.9843789E+04; -1.7998254E-02;  0.0000000E+00; -1.7333198E-02;  1.8043022E+03;
  7.2961128E-01;  9.9999998E-03;  6.0213737E-02;6874; -3.1913090E-02;  0.0000000E+00; -1.3529584E-03;  9.9740918E+02;  1.2296271E-01; -2.1464570E+03;3;  7.9334960E+00;  0.0000000E+00; -1.4262073E+00;0; -3.4495302E-02;  2.6407645E+04;  0.0000000E+00;  2.4468750E-01;  4.0000000E+04;  0.0000000E+00;  3.9845020E+04; -1.7347552E-02;  0.0000000E+00; -1.7147752E-02;  1.6839730E+03;
  7.4164820E-01;  9.9999998E-03; -1.0033645E-01;6919; -3.1738628E-02;  0.0000000E+00;  2.0455990E-03;  9.9810657E+02;  1.2681669E-01; -1.5686957E+03;3;  7.4896345E+00;  0.0000000E+00;  2.2715652E+00;0; -2.5885500E-02;  2.4878346E+04;  0.0000000E+00;  6.3391840E-01;  4.0000000E+04;  0.0000000E+00;  3.9827844E+04; -1.1035524E-02;  0.0000000E+00; -1.4849976E-02;  1.8884261E+03;
  7.4170595E-01;  9.9999998E-03; -9.0301171E-02;6920; -3.1879820E-02;  0.0000000E+00;  1.8482653E-03;  9.9799066E+02;  1.2681960E-01; -1.6646929E+03;3;  7.7172532E+00;  0.0000000E+00;  2.0798388E+00;0; -2.7594168E-02;  2.4870545E+04;  0.0000000E+00;  5.6577122E-01;  4.0000000E+04;  0.0000000E+00;  3.9827727E+04; -1.2556431E-02;  0.0000000E+00; -1.5037736E-02;  1.7868264E+03;
  7.4174929E-01;  9.9999998E-03; -8.0265157E-02;6921; -3.2005586E-02;  0.0000000E+00;  1.6496044E-03;  9.9789984E+02;  1.2682231E-01; -1.7399500E+03;3;  7.9442630E+00;  0.0000000E+00;  1.8781458E+00;0; -2.9182196E-02;  2.4864297E+04;  0.0000000E+00;  4.7736830E-01;  4.0000000E+04;  0.0000000E+00;  3.9827438E+04; -1.3992336E-02;  0.0000000E+00; -1.5189860E-02;  1.6653228E+03;
  7.4177927E-01;  9.9999998E-03; -7.0228986E-02;6922; -3.2114748E-02;  0.0000000E+00;  1.4494729E-03;  9.9783875E+02;  1.2682430E-01; -1.7905658E+03;3;  8.1456795E+00;  0.0000000E+00;  1.6689905E+00;0; -3.0635081E-02;  2.4859834E+04;  0.0000000E+00;  3.7957692E-01;  4.0000000E+04;  0.0000000E+00;  3.9826738E+04; -1.5311869E-02;  0.0000000E+00; -1.5323211E-02;  1.5727732E+03;
  7.4180001E-01;  9.9999998E-03; -6.0194839E-02;6923; -3.2209560E-02;  0.0000000E+00;  1.2483064E-03;  9.9780414E+02;  1.2682810E-01; -1.8192070E+03;3;  8.3387861E+00;  0.0000000E+00;  1.4520836E+00;0; -3.1936929E-02;  2.4856861E+04;  0.0000000E+00;  2.8312659E-01;  4.0000000E+04;  0.0000000E+00;  3.9825863E+04; -1.6488874E-02;  0.0000000E+00; -1.5448055E-02;  1.5497495E+03;
  7.4180961E-01;  9.9999998E-03; -5.0162531E-02;6924; -3.2288011E-02;  0.0000000E+00;  1.0449046E-03;  9.9779535E+02;  1.2683144E-01; -1.8265154E+03;3;  8.5197420E+00;  0.0000000E+00;  1.2221221E+00;0; -3.3072971E-02;  2.4855639E+04;  0.0000000E+00;  1.9629411E-01;  4.0000000E+04;  0.0000000E+00;  3.9824625E+04; -1.7504346E-02;  0.0000000E+00; -1.5568623E-02;  1.6092850E+03;
  7.4181080E-01;  9.9999998E-03; -4.0131658E-02;6925; -3.2352503E-02;  0.0000000E+00;  8.3968125E-04;  9.9780316E+02;  1.2683319E-01; -1.8200465E+03;3;  8.6513948E+00;  0.0000000E+00;  9.9505824E-01;0; -3.4027103E-02;  2.4855703E+04;  0.0000000E+00;  1.2410460E-01;  4.0000000E+04;  0.0000000E+00;  3.9823336E+04; -1.8344790E-02;  0.0000000E+00; -1.5682314E-02;  1.7312167E+03;
  7.4180722E-01;  9.9999998E-03; -3.0101873E-02;6926; -3.2402717E-02;  0.0000000E+00;  6.3271937E-04;  9.9782245E+02;  1.2683560E-01; -1.8040469E+03;3;  8.7648716E+00;  0.0000000E+00;  7.5798851E-01;0; -3.4784809E-02;  2.4856580E+04;  0.0000000E+00;  6.8655446E-02;  4.0000000E+04;  0.0000000E+00;  3.9822066E+04; -1.9002127E-02;  0.0000000E+00; -1.5782684E-02;  1.8780413E+03;
  7.4180281E-01;  9.9999998E-03; -2.0071616E-02;6927; -3.2438040E-02;  0.0000000E+00;  4.2332461E-04;  9.9783698E+02;  1.2683600E-01; -1.7920472E+03;3;  8.8547010E+00;  0.0000000E+00;  5.0681132E-01;0; -3.5334408E-02;  2.4857402E+04;  0.0000000E+00;  3.0036228E-02;  4.0000000E+04;  0.0000000E+00;  3.9820887E+04; -1.9472672E-02;  0.0000000E+00; -1.5861738E-02;  2.0126582E+03;
  7.4179947E-01;  9.9999998E-03; -1.0038086E-02;6928; -3.2458991E-02;  0.0000000E+00;  2.1216794E-04;  9.9785437E+02;  1.2683789E-01; -1.7776279E+03;3;  8.9081068E+00;  0.0000000E+00;  2.5398183E-01;0; -3.5667554E-02;  2.4858170E+04;  0.0000000E+00;  7.4286992E-03;  4.0000000E+04;  0.0000000E+00;  3.9819977E+04; -1.9755132E-02;  0.0000000E+00; -1.5912419E-02;  2.1061951E+03;
  7.4179816E-01;  9.9999998E-03;  2.4912230E-09;6929; -3.2465983E-02;  0.0000000E+00;  3.2310464E-08;  9.9785748E+02;  1.2683794E-01; -1.7750107E+03;3;  8.9271917E+00;  0.0000000E+00;  2.9567636E-05;0; -3.5779238E-02;  2.4858459E+04;  0.0000000E+00;  9.3317081E-12;  4.0000000E+04;  0.0000000E+00;  3.9819777E+04; -1.9849319E-02;  0.0000000E+00; -1.5929919E-02;  2.1396023E+03;
  7.4179947E-01;  9.9999998E-03;  1.0038092E-02;6930; -3.2458995E-02;  0.0000000E+00; -2.1210511E-04;  9.9785437E+02;  1.2683730E-01; -1.7776279E+03;3;  8.9081383E+00;  0.0000000E+00; -2.5395408E-01;0; -3.5667568E-02;  2.4858168E+04;  0.0000000E+00;  7.4278745E-03;  4.0000000E+04;  0.0000000E+00;  3.9819977E+04; -1.9755149E-02;  0.0000000E+00; -1.5912421E-02;  2.1061890E+03;
  7.4180287E-01;  9.9999998E-03;  2.0071622E-02;6931; -3.2438040E-02;  0.0000000E+00; -4.2326143E-04;  9.9783691E+02;  1.2683608E-01; -1.7920967E+03;3;  8.8546953E+00;  0.0000000E+00; -5.0675684E-01;0; -3.5334416E-02;  2.4857404E+04;  0.0000000E+00;  3.0034425E-02;  4.0000000E+04;  0.0000000E+00;  3.9820883E+04; -1.9472683E-02;  0.0000000E+00; -1.5861731E-02;  2.0126489E+03;
  7.4180722E-01;  9.9999998E-03;  3.0101879E-02;6932; -3.2402728E-02;  0.0000000E+00; -6.3265784E-04;  9.9782245E+02;  1.2683499E-01; -1.8040469E+03;3;  8.7648869E+00;  0.0000000E+00; -7.5797665E-01;0; -3.4784853E-02;  2.4856582E+04;  0.0000000E+00;  6.8653375E-02;  4.0000000E+04;  0.0000000E+00;  3.9822062E+04; -1.9002182E-02;  0.0000000E+00; -1.5782669E-02;  1.8780570E+03;
  7.4181080E-01;  9.9999998E-03;  4.0131662E-02;6933; -3.2352511E-02;  0.0000000E+00; -8.3961780E-04;  9.9780310E+02;  1.2683287E-01; -1.8200958E+03;3;  8.6514444E+00;  0.0000000E+00; -9.9499226E-01;0; -3.4027141E-02;  2.4855709E+04;  0.0000000E+00;  1.2410282E-01;  4.0000000E+04;  0.0000000E+00;  3.9823332E+04; -1.8344818E-02;  0.0000000E+00; -1.5682323E-02;  1.7312258E+03;
  7.4180961E-01;  9.9999998E-03;  5.0162535E-02;6934; -3.2288019E-02;  0.0000000E+00; -1.0448403E-03;  9.9779541E+02;  1.2683111E-01; -1.8264661E+03;3;  8.5197325E+00;  0.0000000E+00; -1.2220774E+00;0; -3.3072986E-02;  2.4855639E+04;  0.0000000E+00;  1.9628783E-01;  4.0000000E+04;  0.0000000E+00;  3.9824625E+04; -1.7504383E-02;  0.0000000E+00; -1.5568602E-02;  1.6092697E+03;
  7.4180001E-01;  9.9999998E-03;  6.0194846E-02;6935; -3.2209571E-02;  0.0000000E+00; -1.2482426E-03;  9.9780420E+02;  1.2682773E-01; -1.8191576E+03;3;  8.3388090E+00;  0.0000000E+00; -1.4520333E+00;0; -3.1936988E-02;  2.4856865E+04;  0.0000000E+00;  2.8312227E-01;  4.0000000E+04;  0.0000000E+00;  3.9825863E+04; -1.6488949E-02;  0.0000000E+00; -1.5448039E-02;  1.5497590E+03;
  7.5457567E-01;  9.9999998E-03; -1.0035740E-01;6980; -3.2036684E-02;  0.0000000E+00;  1.8648801E-03;  9.9832141E+02;  1.3108593E-01; -1.3906761E+03;3;  7.8530931E+00;  0.0000000E+00;  2.2817066E+00;0; -1.9252531E-02;  2.3311066E+04;  0.0000000E+00;  5.4340214E-01;  4.0000000E+04;  0.0000000E+00;  3.9806145E+04; -6.5177856E-03;  0.0000000E+00; -1.2734745E-02;  1.8136342E+03;
  7.5466061E-01;  9.9999998E-03; -9.0317935E-02;6981; -3.2178111E-02;  0.0000000E+00;  1.6686062E-03;  9.9831458E+02;  1.3109300E-01; -1.3963550E+03;3;  8.1033154E+00;  0.0000000E+00;  2.0871842E+00;0; -2.1611834E-02;  2.3305094E+04;  0.0000000E+00;  4.9775130E-01;  4.0000000E+04;  0.0000000E+00;  3.9806730E+04; -8.8379066E-03;  0.0000000E+00; -1.2773927E-02;  1.6890322E+03;
  7.5471693E-01;  9.9999998E-03; -8.0277473E-02;6982; -3.2302245E-02;  0.0000000E+00;  1.4759195E-03;  9.9831628E+02;  1.3109750E-01; -1.3949229E+03;3;  8.3406677E+00;  0.0000000E+00;  1.8864757E+00;0; -2.3833040E-02;  2.3300854E+04;  0.0000000E+00;  4.2529994E-01;  4.0000000E+04;  0.0000000E+00;  3.9806852E+04; -1.1030218E-02;  0.0000000E+00; -1.2802823E-02;  1.5270839E+03;
  7.5473845E-01;  9.9999998E-03; -7.0239559E-02;6983; -3.2412056E-02;  0.0000000E+00;  1.2872403E-03;  9.9832697E+02;  1.3109714E-01; -1.3860836E+03;3;  8.5731182E+00;  0.0000000E+00;  1.6786457E+00;0; -2.5887769E-02;  2.3299408E+04;  0.0000000E+00;  3.3901921E-01;  4.0000000E+04;  0.0000000E+00;  3.9806441E+04; -1.3046300E-02;  0.0000000E+00; -1.2841468E-02;  1.3806986E+03;
  7.5472939E-01;  9.9999998E-03; -6.0205910E-02;6984; -3.2504782E-02;  0.0000000E+00;  1.1011985E-03;  9.9834851E+02;  1.3109307E-01; -1.3682076E+03;3;  8.8006048E+00;  0.0000000E+00;  1.4565854E+00;0; -2.7744364E-02;  2.3300490E+04;  0.0000000E+00;  2.5170547E-01;  4.0000000E+04;  0.0000000E+00;  3.9805762E+04; -1.4844890E-02;  0.0000000E+00; -1.2899475E-02;  1.3016548E+03;
  7.5470114E-01;  9.9999998E-03; -5.0173733E-02;6985; -3.2582961E-02;  0.0000000E+00;  9.1655308E-04;  9.9837933E+02;  1.3108607E-01; -1.3426775E+03;3;  8.9785042E+00;  0.0000000E+00;  1.2267753E+00;0; -2.9371113E-02;  2.3303260E+04;  0.0000000E+00;  1.7289898E-01;  4.0000000E+04;  0.0000000E+00;  3.9804992E+04; -1.6395217E-02;  0.0000000E+00; -1.2975896E-02;  1.3138422E+03;
  7.5466532E-01;  9.9999998E-03; -4.0140845E-02;6986; -3.2645237E-02;  0.0000000E+00;  7.3240878E-04;  9.9841473E+02;  1.3107908E-01; -1.3133450E+03;3;  9.1486654E+00;  0.0000000E+00;  9.8728174E-01;0; -3.0739566E-02;  2.3306904E+04;  0.0000000E+00;  1.0804175E-01;  4.0000000E+04;  0.0000000E+00;  3.9803824E+04; -1.7677054E-02;  0.0000000E+00; -1.3062513E-02;  1.3983324E+03;
  7.5462914E-01;  9.9999998E-03; -3.0108498E-02;6987; -3.2693360E-02;  0.0000000E+00;  5.4963981E-04;  9.9845032E+02;  1.3107242E-01; -1.2838644E+03;3;  9.2723665E+00;  0.0000000E+00;  7.5858057E-01;0; -3.1826902E-02;  2.3310488E+04;  0.0000000E+00;  5.9073679E-02;  4.0000000E+04;  0.0000000E+00;  3.9802773E+04; -1.8678971E-02;  0.0000000E+00; -1.3147932E-02;  1.5132046E+03;
  7.5459862E-01;  9.9999998E-03; -2.0076688E-02;6988; -3.2727487E-02;  0.0000000E+00;  3.6680143E-04;  9.9848108E+02;  1.3106747E-01; -1.2583835E+03;3;  9.3652668E+00;  0.0000000E+00;  5.0769985E-01;0; -3.2615636E-02;  2.3313557E+04;  0.0000000E+00;  2.5603291E-02;  4.0000000E+04;  0.0000000E+00;  3.9801809E+04; -1.9395733E-02;  0.0000000E+00; -1.3219901E-02;  1.6205604E+03;
  7.5457639E-01;  9.9999998E-03; -1.0041481E-02;6989; -3.2747686E-02;  0.0000000E+00;  1.8363577E-04;  9.9849969E+02;  1.3106379E-01; -1.2429767E+03;3;  9.4230366E+00;  0.0000000E+00;  2.5416169E-01;0; -3.3094242E-02;  2.3315652E+04;  0.0000000E+00;  6.2979287E-03;  4.0000000E+04;  0.0000000E+00;  3.9801418E+04; -1.9825939E-02;  0.0000000E+00; -1.3268303E-02;  1.6948695E+03;
  7.5456780E-01;  9.9999998E-03;  2.4911728E-09;6990; -3.2754205E-02;  0.0000000E+00;  3.2925282E-08;  9.9850769E+02;  1.3106270E-01; -1.2363595E+03;3;  9.4446907E+00;  0.0000000E+00;  1.4351526E-05;0; -3.3254892E-02;  2.3316410E+04;  0.0000000E+00;  3.2263466E-11;  4.0000000E+04;  0.0000000E+00;  3.9801012E+04; -1.9969394E-02;  0.0000000E+00; -1.3285499E-02;  1.7212942E+03;
  7.5457639E-01;  9.9999998E-03;  1.0041486E-02;6991; -3.2747690E-02;  0.0000000E+00; -1.8356992E-04;  9.9849969E+02;  1.3106379E-01; -1.2429767E+03;3;  9.4230576E+00;  0.0000000E+00; -2.5414029E-01;0; -3.3094257E-02;  2.3315650E+04;  0.0000000E+00;  6.2963911E-03;  4.0000000E+04;  0.0000000E+00;  3.9801422E+04; -1.9825941E-02;  0.0000000E+00; -1.3268316E-02;  1.6948538E+03;
  7.5459862E-01;  9.9999998E-03;  2.0076694E-02;6992; -3.2727499E-02;  0.0000000E+00; -3.6673536E-04;  9.9848108E+02;  1.3106745E-01; -1.2583835E+03;3;  9.3652468E+00;  0.0000000E+00; -5.0767368E-01;0; -3.2615632E-02;  2.3313561E+04;  0.0000000E+00;  2.5600834E-02;  4.0000000E+04;  0.0000000E+00;  3.9801812E+04; -1.9395743E-02;  0.0000000E+00; -1.3219891E-02;  1.6205979E+03;
  7.5462914E-01;  9.9999998E-03;  3.0108504E-02;6993; -3.2693371E-02;  0.0000000E+00; -5.4957427E-04;  9.9845013E+02;  1.3107251E-01; -1.2840125E+03;3;  9.2723913E+00;  0.0000000E+00; -7.5855994E-01;0; -3.1826902E-02;  2.3310492E+04;  0.0000000E+00;  5.9069738E-02;  4.0000000E+04;  0.0000000E+00;  3.9802773E+04; -1.8678991E-02;  0.0000000E+00; -1.3147910E-02;  1.5132229E+03;
  7.5466532E-01;  9.9999998E-03;  4.0140849E-02;6994; -3.2645248E-02;  0.0000000E+00; -7.3234312E-04;  9.9841479E+02;  1.3107881E-01; -1.3132957E+03;3;  9.1485949E+00;  0.0000000E+00; -9.8726797E-01;0; -3.0739589E-02;  2.3306902E+04;  0.0000000E+00;  1.0803788E-01;  4.0000000E+04;  0.0000000E+00;  3.9803824E+04; -1.7677084E-02;  0.0000000E+00; -1.3062505E-02;  1.3983358E+03;
  7.5470114E-01;  9.9999998E-03;  5.0173737E-02;6995; -3.2582968E-02;  0.0000000E+00; -9.1648631E-04;  9.9837939E+02;  1.3108566E-01; -1.3426281E+03;3;  8.9785728E+00;  0.0000000E+00; -1.2267630E+00;0; -2.9371139E-02;  2.3303256E+04;  0.0000000E+00;  1.7289485E-01;  4.0000000E+04;  0.0000000E+00;  3.9804988E+04; -1.6395258E-02;  0.0000000E+00; -1.2975880E-02;  1.3138364E+03;
  7.5472939E-01;  9.9999998E-03;  6.0205914E-02;6996; -3.2504797E-02;  0.0000000E+00; -1.1011333E-03;  9.9834857E+02;  1.3109291E-01; -1.3681582E+03;3;  8.8006201E+00;  0.0000000E+00; -1.4565797E+00;0; -2.7744424E-02;  2.3300488E+04;  0.0000000E+00;  2.5169930E-01;  4.0000000E+04;  0.0000000E+00;  3.9805766E+04; -1.4844965E-02;  0.0000000E+00; -1.2899457E-02;  1.3016500E+03;
  7.6844579E-01;  9.9999998E-03; -1.0017850E-01;7041; -3.2307003E-02;  0.0000000E+00;  1.6112537E-03;  9.9884503E+02;  1.3590510E-01; -9.5686127E+02;3;  8.2490911E+00;  0.0000000E+00;  2.2850993E+00;0; -9.5624812E-03;  2.1723193E+04;  0.0000000E+00;  2.8532910E-01;  4.0000000E+04;  0.0000000E+00;  3.9783004E+04; -1.7157945E-04;  0.0000000E+00; -9.3909018E-03;  1.3552488E+03;
  7.6861495E-01;  9.9999998E-03; -9.0146229E-02;7042; -3.2448411E-02;  0.0000000E+00;  1.4210187E-03;  9.9894000E+02;  1.3593638E-01; -8.7819684E+02;3;  8.5604248E+00;  0.0000000E+00;  2.0870209E+00;0; -1.2879218E-02;  2.1712459E+04;  0.0000000E+00;  2.7400640E-01;  4.0000000E+04;  0.0000000E+00;  3.9784066E+04; -3.6221098E-03;  0.0000000E+00; -9.2571080E-03;  1.2246637E+03;
  7.6874435E-01;  9.9999998E-03; -8.0117926E-02;7043; -3.2578051E-02;  0.0000000E+00;  1.2397398E-03;  9.9903101E+02;  1.3596077E-01; -8.0279163E+02;3;  8.7906895E+00;  0.0000000E+00;  1.8756310E+00;0; -1.6025642E-02;  2.1704389E+04;  0.0000000E+00;  2.3771244E-01;  4.0000000E+04;  0.0000000E+00;  3.9784539E+04; -6.8697003E-03;  0.0000000E+00; -9.1559421E-03;  1.0822262E+03;
  7.6883507E-01;  9.9999998E-03; -7.0094407E-02;7044; -3.2691542E-02;  0.0000000E+00;  1.0674591E-03;  9.9911084E+02;  1.3597663E-01; -7.3667010E+02;3;  9.0804939E+00;  0.0000000E+00;  1.6558794E+00;0; -1.8947668E-02;  2.1698830E+04;  0.0000000E+00;  1.8812048E-01;  4.0000000E+04;  0.0000000E+00;  3.9784531E+04; -9.8448209E-03;  0.0000000E+00; -9.1028465E-03;  9.6330573E+02;
  7.6889223E-01;  9.9999998E-03; -6.0075261E-02;7045; -3.2789759E-02;  0.0000000E+00;  9.0281840E-04;  9.9918896E+02;  1.3598759E-01; -6.7193121E+02;3;  9.3052683E+00;  0.0000000E+00;  1.4295377E+00;0; -2.1594159E-02;  2.1695559E+04;  0.0000000E+00;  1.3637531E-01;  4.0000000E+04;  0.0000000E+00;  3.9783918E+04; -1.2492939E-02;  0.0000000E+00; -9.1012195E-03;  9.0866345E+02;
  7.6892030E-01;  9.9999998E-03; -5.0058920E-02;7046; -3.2871041E-02;  0.0000000E+00;  7.4328820E-04;  9.9926111E+02;  1.3599280E-01; -6.1217987E+02;3;  9.5346289E+00;  0.0000000E+00;  1.1959746E+00;0; -2.3918092E-02;  2.1694291E+04;  0.0000000E+00;  9.0398803E-02;  4.0000000E+04;  0.0000000E+00;  3.9783016E+04; -1.4773524E-02;  0.0000000E+00; -9.1445679E-03;  9.3388483E+02;
  7.6892215E-01;  9.9999998E-03; -4.0042657E-02;7047; -3.2934610E-02;  0.0000000E+00;  5.8798655E-04;  9.9931885E+02;  1.3599266E-01; -5.6432941E+02;3;  9.7258921E+00;  0.0000000E+00;  9.5571530E-01;0; -2.5879696E-02;  2.1694889E+04;  0.0000000E+00;  5.4112431E-02;  4.0000000E+04;  0.0000000E+00;  3.9781996E+04; -1.6660325E-02;  0.0000000E+00; -9.2193717E-03;  1.0114114E+03;
  7.6890868E-01;  9.9999998E-03; -3.0028170E-02;7048; -3.2984748E-02;  0.0000000E+00;  4.3821594E-04;  9.9937244E+02;  1.3599016E-01; -5.1993561E+02;3;  9.8423100E+00;  0.0000000E+00;  7.4769366E-01;0; -2.7441282E-02;  2.1696402E+04;  0.0000000E+00;  2.8283380E-02;  4.0000000E+04;  0.0000000E+00;  3.9781219E+04; -1.8135328E-02;  0.0000000E+00; -9.3059530E-03;  1.1004502E+03;
  7.6889622E-01;  9.9999998E-03; -2.0018086E-02;7049; -3.3019409E-02;  0.0000000E+00;  2.9123537E-04;  9.9940833E+02;  1.3598827E-01; -4.9020807E+02;3;  9.9623804E+00;  0.0000000E+00;  4.9783760E-01;0; -2.8572967E-02;  2.1697771E+04;  0.0000000E+00;  1.1777790E-02;  4.0000000E+04;  0.0000000E+00;  3.9780605E+04; -1.9190151E-02;  0.0000000E+00; -9.3828160E-03;  1.1744856E+03;
  7.6888883E-01;  9.9999998E-03; -1.0009875E-02;7050; -3.3039484E-02;  0.0000000E+00;  1.4540534E-04;  9.9943524E+02;  1.3598725E-01; -4.6788773E+02;3;  1.0037455E+01;  0.0000000E+00;  2.4577981E-01;0; -2.9258259E-02;  2.1698475E+04;  0.0000000E+00;  2.8189030E-03;  4.0000000E+04;  0.0000000E+00;  3.9780266E+04; -1.9823309E-02;  0.0000000E+00; -9.4349487E-03;  1.2215332E+03;
  7.6888734E-01;  9.9999998E-03;  2.4943063E-09;7051; -3.3045962E-02;  0.0000000E+00;  3.4636781E-08;  9.9944501E+02;  1.3598800E-01; -4.5978918E+02;3;  1.0064173E+01;  0.0000000E+00;  1.4513513E-05;0; -2.9487532E-02;  2.1698590E+04;  0.0000000E+00;  5.6378648E-11;  4.0000000E+04;  0.0000000E+00;  3.9780172E+04; -2.0034449E-02;  0.0000000E+00; -9.4530825E-03;  1.2375834E+03;
  7.6888883E-01;  9.9999998E-03;  1.0009880E-02;7052; -3.3039488E-02;  0.0000000E+00; -1.4533622E-04;  9.9943536E+02;  1.3598734E-01; -4.6778897E+02;3;  1.0037457E+01;  0.0000000E+00; -2.4574603E-01;0; -2.9258275E-02;  2.1698477E+04;  0.0000000E+00;  2.8175067E-03;  4.0000000E+04;  0.0000000E+00;  3.9780266E+04; -1.9823322E-02;  0.0000000E+00; -9.4349533E-03;  1.2215408E+03;
  7.6889622E-01;  9.9999998E-03;  2.0018091E-02;7053; -3.3019409E-02;  0.0000000E+00; -2.9116581E-04;  9.9940826E+02;  1.3598850E-01; -4.9025745E+02;3;  9.9623423E+00;  0.0000000E+00; -4.9779966E-01;0; -2.8572995E-02;  2.1697766E+04;  0.0000000E+00;  1.1775079E-02;  4.0000000E+04;  0.0000000E+00;  3.9780605E+04; -1.9190194E-02;  0.0000000E+00; -9.3828011E-03;  1.1744768E+03;
  7.6890868E-01;  9.9999998E-03;  3.0028174E-02;7054; -3.2984752E-02;  0.0000000E+00; -4.3814606E-04;  9.9937244E+02;  1.3599016E-01; -5.1993561E+02;3;  9.8422871E+00;  0.0000000E+00; -7.4767852E-01;0; -2.7441330E-02;  2.1696400E+04;  0.0000000E+00;  2.8279781E-02;  4.0000000E+04;  0.0000000E+00;  3.9781219E+04; -1.8135387E-02;  0.0000000E+00; -9.3059419E-03;  1.1004574E+03;
  7.6892215E-01;  9.9999998E-03;  4.0042661E-02;7055; -3.2934621E-02;  0.0000000E+00; -5.8791757E-04;  9.9931891E+02;  1.3599266E-01; -5.6427997E+02;3;  9.7259703E+00;  0.0000000E+00; -9.5569021E-01;0; -2.5879761E-02;  2.1694889E+04;  0.0000000E+00;  5.4110128E-02;  4.0000000E+04;  0.0000000E+00;  3.9781996E+04; -1.6660387E-02;  0.0000000E+00; -9.2193745E-03;  1.0114214E+03;
  7.6892030E-01;  9.9999998E-03;  5.0058924E-02;7056; -3.2871053E-02;  0.0000000E+00; -7.4321812E-04;  9.9926099E+02;  1.3599271E-01; -6.1227863E+02;3;  9.5346813E+00;  0.0000000E+00; -1.1959573E+00;0; -2.3918141E-02;  2.1694283E+04;  0.0000000E+00;  9.0394512E-02;  4.0000000E+04;  0.0000000E+00;  3.9783020E+04; -1.4773577E-02;  0.0000000E+00; -9.1445651E-03;  9.3391010E+02;
  7.6889223E-01;  9.9999998E-03;  6.0075264E-02;7057; -3.2789774E-02;  0.0000000E+00; -9.0274739E-04;  9.9918915E+02;  1.3598765E-01; -6.7178308E+02;3;  9.3052721E+00;  0.0000000E+00; -1.4295197E+00;0; -2.1594273E-02;  2.1695559E+04;  0.0000000E+00;  1.3637267E-01;  4.0000000E+04;  0.0000000E+00;  3.9783914E+04; -1.2493047E-02;  0.0000000E+00; -9.1012260E-03;  9.0865527E+02;
  7.8258860E-01;  9.9999998E-03; -1.0007171E-01;7102; -3.2481786E-02;  0.0000000E+00;  1.2862014E-03;  9.9961017E+02;  1.4114845E-01; -3.2295358E+02;3;  8.6665220E+00;  0.0000000E+00;  2.3346493E+00;0;  2.4952572E-03;  2.0180295E+04;  0.0000000E+00; -6.6010155E-02;  4.0000000E+04;  0.0000000E+00;  3.9758742E+04;  7.1600876E-03;  0.0000000E+00; -4.6648304E-03;  7.8549976E+02;
  7.8253764E-01;  9.9999998E-03; -9.0055786E-02;7103; -3.2632407E-02;  0.0000000E+00;  1.1201706E-03;  9.9965070E+02;  1.4110669E-01; -2.8937433E+02;3;  9.0148726E+00;  0.0000000E+00;  2.1002285E+00;0; -2.3314508E-03;  2.0187445E+04;  0.0000000E+00; -3.5081863E-02;  4.0000000E+04;  0.0000000E+00;  3.9760594E+04;  2.1646486E-03;  0.0000000E+00; -4.4960994E-03;  5.9395306E+02;
  7.8247809E-01;  9.9999998E-03; -8.0055401E-02;7104; -3.2773737E-02;  0.0000000E+00;  9.6627331E-04;  9.9968707E+02;  1.4106953E-01; -2.5925174E+02;3;  9.2872629E+00;  0.0000000E+00;  1.8569499E+00;0; -6.8394989E-03;  2.0194297E+04;  0.0000000E+00; -2.1354033E-02;  4.0000000E+04;  0.0000000E+00;  3.9761555E+04; -2.4316695E-03;  0.0000000E+00; -4.4078296E-03;  5.0944257E+02;
  7.8249508E-01;  9.9999998E-03; -7.0062689E-02;7105; -3.2899160E-02;  0.0000000E+00;  8.2234282E-04;  9.9974286E+02;  1.4106458E-01; -2.1303085E+02;3;  9.6226768E+00;  0.0000000E+00;  1.6141453E+00;0; -1.0920387E-02;  2.0193398E+04;  0.0000000E+00; -1.9108798E-02;  4.0000000E+04;  0.0000000E+00;  3.9761281E+04; -6.5504937E-03;  0.0000000E+00; -4.3698926E-03;  5.1590948E+02;
  7.8251028E-01;  9.9999998E-03; -6.0068808E-02;7106; -3.3010446E-02;  0.0000000E+00;  6.8743044E-04;  9.9979272E+02;  1.4106417E-01; -1.7174809E+02;3;  9.8539038E+00;  0.0000000E+00;  1.3911353E+00;0; -1.4583876E-02;  2.0191844E+04;  0.0000000E+00; -2.0001773E-02;  4.0000000E+04;  0.0000000E+00;  3.9760414E+04; -1.0179015E-02;  0.0000000E+00; -4.4048610E-03;  5.9364734E+02;
  7.8250915E-01;  9.9999998E-03; -5.0066724E-02;7107; -3.3098433E-02;  0.0000000E+00;  5.5957807E-04;  9.9983899E+02;  1.4106148E-01; -1.3337885E+02;3;  1.0118755E+01;  0.0000000E+00;  1.1467037E+00;0; -1.7787114E-02;  2.0191283E+04;  0.0000000E+00; -1.9611873E-02;  4.0000000E+04;  0.0000000E+00;  3.9759461E+04; -1.3286087E-02;  0.0000000E+00; -4.5010280E-03;  7.0197540E+02;
  7.8249764E-01;  9.9999998E-03; -4.0057059E-02;7108; -3.3173822E-02;  0.0000000E+00;  4.3970061E-04;  9.9987823E+02;  1.4105643E-01; -1.0088596E+02;3;  1.0286766E+01;  0.0000000E+00;  9.2973554E-01;0; -2.0477062E-02;  2.0191473E+04;  0.0000000E+00; -1.6517164E-02;  4.0000000E+04;  0.0000000E+00;  3.9758703E+04; -1.5844479E-02;  0.0000000E+00; -4.6325834E-03;  7.9885950E+02;
  7.8248787E-01;  9.9999998E-03; -3.0040435E-02;7109; -3.3228569E-02;  0.0000000E+00;  3.2522797E-04;  9.9991260E+02;  1.4105359E-01; -7.2392960E+01;3;  1.0463478E+01;  0.0000000E+00;  6.9550729E-01;0; -2.2609336E-02;  2.0191387E+04;  0.0000000E+00; -1.1387845E-02;  4.0000000E+04;  0.0000000E+00;  3.9758203E+04; -1.7840097E-02;  0.0000000E+00; -4.7692391E-03;  8.6215924E+02;
  7.8248262E-01;  9.9999998E-03; -2.0022642E-02;7110; -3.3266317E-02;  0.0000000E+00;  2.1421225E-04;  9.9993823E+02;  1.4105447E-01; -5.1159008E+01;3;  1.0577063E+01;  0.0000000E+00;  4.6350583E-01;0; -2.4152227E-02;  2.0191074E+04;  0.0000000E+00; -5.8212057E-03;  4.0000000E+04;  0.0000000E+00;  3.9758043E+04; -1.9266345E-02;  0.0000000E+00; -4.8858817E-03;  8.9394153E+02;
  7.8248036E-01;  9.9999998E-03; -1.0009846E-02;7111; -3.3289075E-02;  0.0000000E+00;  1.0627189E-04;  9.9995844E+02;  1.4105345E-01; -3.4418755E+01;3;  1.0652717E+01;  0.0000000E+00;  2.2905777E-01;0; -2.5084915E-02;  2.0190750E+04;  0.0000000E+00; -1.5768802E-03;  4.0000000E+04;  0.0000000E+00;  3.9757879E+04; -2.0121133E-02;  0.0000000E+00; -4.9637812E-03;  9.0615009E+02;
  7.8247970E-01;  9.9999998E-03;  2.4248961E-09;7112; -3.3296850E-02;  0.0000000E+00;  3.5899902E-08;  9.9996704E+02;  1.4105380E-01; -2.7307850E+01;3;  1.0670193E+01;  0.0000000E+00;  1.4645000E-05;0; -2.5397072E-02;  2.0190613E+04;  0.0000000E+00;  6.7933228E-11;  4.0000000E+04;  0.0000000E+00;  3.9757824E+04; -2.0405943E-02;  0.0000000E+00; -4.9911290E-03;  9.0893243E+02;
  7.8248036E-01;  9.9999998E-03;  1.0009850E-02;7113; -3.3289079E-02;  0.0000000E+00; -1.0619973E-04;  9.9995844E+02;  1.4105396E-01; -3.4418755E+01;3;  1.0652717E+01;  0.0000000E+00; -2.2902414E-01;0; -2.5084931E-02;  2.0190762E+04;  0.0000000E+00; -1.5777438E-03;  4.0000000E+04;  0.0000000E+00;  3.9757879E+04; -2.0121157E-02;  0.0000000E+00; -4.9637747E-03;  9.0616284E+02;
  7.8248262E-01;  9.9999998E-03;  2.0022646E-02;7114; -3.3266321E-02;  0.0000000E+00; -2.1413995E-04;  9.9993817E+02;  1.4105430E-01; -5.1208389E+01;3;  1.0577084E+01;  0.0000000E+00; -4.6347535E-01;0; -2.4152240E-02;  2.0191070E+04;  0.0000000E+00; -5.8227447E-03;  4.0000000E+04;  0.0000000E+00;  3.9758039E+04; -1.9266365E-02;  0.0000000E+00; -4.8858752E-03;  8.9394867E+02;
  7.8248787E-01;  9.9999998E-03;  3.0040439E-02;7115; -3.3228580E-02;  0.0000000E+00; -3.2515539E-04;  9.9991248E+02;  1.4105347E-01; -7.2491722E+01;3;  1.0463428E+01;  0.0000000E+00; -6.9547361E-01;0; -2.2609357E-02;  2.0191387E+04;  0.0000000E+00; -1.1390057E-02;  4.0000000E+04;  0.0000000E+00;  3.9758207E+04; -1.7840134E-02;  0.0000000E+00; -4.7692223E-03;  8.6213568E+02;
  7.8249764E-01;  9.9999998E-03;  4.0057063E-02;7116; -3.3173837E-02;  0.0000000E+00; -4.3962803E-04;  9.9987817E+02;  1.4105670E-01; -1.0093534E+02;3;  1.0286752E+01;  0.0000000E+00; -9.2970318E-01;0; -2.0477125E-02;  2.0191477E+04;  0.0000000E+00; -1.6519645E-02;  4.0000000E+04;  0.0000000E+00;  3.9758703E+04; -1.5844559E-02;  0.0000000E+00; -4.6325657E-03;  7.9887396E+02;
  7.8250915E-01;  9.9999998E-03;  5.0066728E-02;7117; -3.3098448E-02;  0.0000000E+00; -5.5950426E-04;  9.9983887E+02;  1.4106137E-01; -1.3347760E+02;3;  1.0118714E+01;  0.0000000E+00; -1.1466717E+00;0; -1.7787179E-02;  2.0191281E+04;  0.0000000E+00; -1.9615078E-02;  4.0000000E+04;  0.0000000E+00;  3.9759465E+04; -1.3286161E-02;  0.0000000E+00; -4.5010177E-03;  7.0197247E+02;
  7.8251028E-01;  9.9999998E-03;  6.0068816E-02;7118; -3.3010460E-02;  0.0000000E+00; -6.8735704E-04;  9.9979285E+02;  1.4106429E-01; -1.7159996E+02;3;  9.8539457E+00;  0.0000000E+00; -1.3911337E+00;0; -1.4583981E-02;  2.0191844E+04;  0.0000000E+00; -2.0003187E-02;  4.0000000E+04;  0.0000000E+00;  3.9760418E+04; -1.0179120E-02;  0.0000000E+00; -4.4048605E-03;  5.9362622E+02;
  7.9675645E-01;  9.9999998E-03; -1.0014313E-01;7163; -3.2479577E-02;  0.0000000E+00;  8.3509577E-04;  9.9996716E+02;  1.4676504E-01; -2.7209082E+01;3;  8.9721117E+00;  0.0000000E+00;  2.5974867E+00;0;  1.5446573E-02;  1.8688494E+04;  0.0000000E+00; -4.0975317E-01;  4.0000000E+04;  0.0000000E+00;  3.9733289E+04;  1.4051209E-02;  0.0000000E+00;  1.3953643E-03;  1.1153383E+03;
  7.9672807E-01;  9.9999998E-03; -9.0137534E-02;7164; -3.2682210E-02;  0.0000000E+00;  7.1907160E-04;  9.9994720E+02;  1.4673175E-01; -4.3751808E+01;3;  9.4331436E+00;  0.0000000E+00;  2.2738383E+00;0;  9.1033820E-03;  1.8691107E+04;  0.0000000E+00; -3.4968644E-01;  4.0000000E+04;  0.0000000E+00;  3.9734762E+04;  7.4900594E-03;  0.0000000E+00;  1.6133224E-03;  8.7819519E+02;
  7.9669589E-01;  9.9999998E-03; -8.0147095E-02;7165; -3.2871548E-02;  0.0000000E+00;  6.1342999E-04;  9.9992450E+02;  1.4669739E-01; -6.2566074E+01;3;  9.7539005E+00;  0.0000000E+00;  1.9705421E+00;0;  3.1862566E-03;  1.8693885E+04;  0.0000000E+00; -2.9282343E-01;  4.0000000E+04;  0.0000000E+00;  3.9735156E+04;  1.5017837E-03;  0.0000000E+00;  1.6844728E-03;  7.3723413E+02;
  7.9666561E-01;  9.9999998E-03; -7.0157617E-02;7166; -3.3034332E-02;  0.0000000E+00;  5.1833340E-04;  9.9989783E+02;  1.4666595E-01; -8.4639503E+01;3;  1.0134578E+01;  0.0000000E+00;  1.6589763E+00;0; -2.2321357E-03;  1.8696424E+04;  0.0000000E+00; -2.3826541E-01;  4.0000000E+04;  0.0000000E+00;  3.9734855E+04; -3.8580445E-03;  0.0000000E+00;  1.6259089E-03;  6.7887836E+02;
  7.9662359E-01;  9.9999998E-03; -6.0155552E-02;7167; -3.3180282E-02;  0.0000000E+00;  4.3089906E-04;  9.9986780E+02;  1.4663500E-01; -1.0952766E+02;3;  1.0464910E+01;  0.0000000E+00;  1.3891586E+00;0; -7.0925811E-03;  1.8699648E+04;  0.0000000E+00; -1.8543954E-01;  4.0000000E+04;  0.0000000E+00;  3.9733895E+04; -8.5503552E-03;  0.0000000E+00;  1.4577743E-03;  6.9217767E+02;
  7.9654145E-01;  9.9999998E-03; -5.0131772E-02;7168; -3.3296447E-02;  0.0000000E+00;  3.4805320E-04;  9.9983826E+02;  1.4659625E-01; -1.3402078E+02;3;  1.0713297E+01;  0.0000000E+00;  1.1357695E+00;0; -1.1341722E-02;  1.8704760E+04;  0.0000000E+00; -1.3538951E-01;  4.0000000E+04;  0.0000000E+00;  3.9733090E+04; -1.2544819E-02;  0.0000000E+00;  1.2030974E-03;  7.3074908E+02;
  7.9645449E-01;  9.9999998E-03; -4.0092625E-02;7169; -3.3388898E-02;  0.0000000E+00;  2.7133033E-04;  9.9981067E+02;  1.4656064E-01; -1.5683493E+02;3;  1.0954250E+01;  0.0000000E+00;  8.8073808E-01;0; -1.4897133E-02;  1.8710002E+04;  0.0000000E+00; -9.0221271E-02;  4.0000000E+04;  0.0000000E+00;  3.9732961E+04; -1.5814563E-02;  0.0000000E+00;  9.1743021E-04;  7.4574207E+02;
  7.9638004E-01;  9.9999998E-03; -3.0061344E-02;7170; -3.3458933E-02;  0.0000000E+00;  1.9939615E-04;  9.9979669E+02;  1.4653113E-01; -1.6843953E+02;3;  1.1120588E+01;  0.0000000E+00;  6.4639896E-01;0; -1.7700534E-02;  1.8714248E+04;  0.0000000E+00; -5.2367285E-02;  4.0000000E+04;  0.0000000E+00;  3.9732895E+04; -1.8347636E-02;  0.0000000E+00;  6.4710109E-04;  7.2906934E+02;
  7.9632688E-01;  9.9999998E-03; -2.0035787E-02;7171; -3.3507247E-02;  0.0000000E+00;  1.3076852E-04;  9.9978467E+02;  1.4651094E-01; -1.7841455E+02;3;  1.1246364E+01;  0.0000000E+00;  4.2017680E-01;0; -1.9720988E-02;  1.8717100E+04;  0.0000000E+00; -2.3794986E-02;  4.0000000E+04;  0.0000000E+00;  3.9733227E+04; -2.0149708E-02;  0.0000000E+00;  4.2872020E-04;  6.9250073E+02;
  7.9629505E-01;  9.9999998E-03; -1.0016005E-02;7172; -3.3535380E-02;  0.0000000E+00;  6.4285516E-05;  9.9978162E+02;  1.4649954E-01; -1.8093298E+02;3;  1.1338510E+01;  0.0000000E+00;  1.9956487E-01;0; -2.0939894E-02;  1.8718643E+04;  0.0000000E+00; -6.0264617E-03;  4.0000000E+04;  0.0000000E+00;  3.9733594E+04; -2.1227224E-02;  0.0000000E+00;  2.8733030E-04;  6.5898669E+02;
  7.9628432E-01;  9.9999998E-03;  1.6917096E-09;7173; -3.3544812E-02;  0.0000000E+00;  3.7063469E-08;  9.9977820E+02;  1.4649592E-01; -1.8374773E+02;3;  1.1360621E+01;  0.0000000E+00;  1.4398820E-05;0; -2.1347310E-02;  1.8719264E+04;  0.0000000E+00;  5.9317086E-11;  4.0000000E+04;  0.0000000E+00;  3.9733586E+04; -2.1585712E-02;  0.0000000E+00;  2.3840251E-04;  6.4580194E+02;
  7.9629505E-01;  9.9999998E-03;  1.0016009E-02;7174; -3.3535384E-02;  0.0000000E+00; -6.4211141E-05;  9.9978168E+02;  1.4649943E-01; -1.8088361E+02;3;  1.1338529E+01;  0.0000000E+00; -1.9953305E-01;0; -2.0939915E-02;  1.8718645E+04;  0.0000000E+00; -6.0264836E-03;  4.0000000E+04;  0.0000000E+00;  3.9733598E+04; -2.1227244E-02;  0.0000000E+00;  2.8733024E-04;  6.5899072E+02;
  7.9632688E-01;  9.9999998E-03;  2.0035790E-02;7175; -3.3507254E-02;  0.0000000E+00; -1.3069402E-04;  9.9978479E+02;  1.4651108E-01; -1.7831578E+02;3;  1.1246370E+01;  0.0000000E+00; -4.2014298E-01;0; -1.9721009E-02;  1.8717098E+04;  0.0000000E+00; -2.3795448E-02;  4.0000000E+04;  0.0000000E+00;  3.9733230E+04; -2.0149734E-02;  0.0000000E+00;  4.2872503E-04;  6.9249854E+02;
  7.9638004E-01;  9.9999998E-03;  3.0061349E-02;7176; -3.3458944E-02;  0.0000000E+00; -1.9932030E-04;  9.9979688E+02;  1.4653103E-01; -1.6829138E+02;3;  1.1120585E+01;  0.0000000E+00; -6.4637905E-01;0; -1.7700603E-02;  1.8714248E+04;  0.0000000E+00; -5.2368212E-02;  4.0000000E+04;  0.0000000E+00;  3.9732895E+04; -1.8347705E-02;  0.0000000E+00;  6.4710196E-04;  7.2909308E+02;
  7.9645455E-01;  9.9999998E-03;  4.0092628E-02;7177; -3.3388913E-02;  0.0000000E+00; -2.7125323E-04;  9.9981061E+02;  1.4656088E-01; -1.5688431E+02;3;  1.0954197E+01;  0.0000000E+00; -8.8071036E-01;0; -1.4897189E-02;  1.8710004E+04;  0.0000000E+00; -9.0222396E-02;  4.0000000E+04;  0.0000000E+00;  3.9732961E+04; -1.5814627E-02;  0.0000000E+00;  9.1743743E-04;  7.4575366E+02;
  7.9654145E-01;  9.9999998E-03;  5.0131779E-02;7178; -3.3296462E-02;  0.0000000E+00; -3.4797619E-04;  9.9983838E+02;  1.4659637E-01; -1.3392201E+02;3;  1.0713326E+01;  0.0000000E+00; -1.1357628E+00;0; -1.1341820E-02;  1.8704754E+04;  0.0000000E+00; -1.3538907E-01;  4.0000000E+04;  0.0000000E+00;  3.9733082E+04; -1.2544915E-02;  0.0000000E+00;  1.2030944E-03;  7.3074005E+02;
  7.9662359E-01;  9.9999998E-03;  6.0155556E-02;7179; -3.3180300E-02;  0.0000000E+00; -4.3082188E-04;  9.9986774E+02;  1.4663461E-01; -1.0957705E+02;3;  1.0464902E+01;  0.0000000E+00; -1.3891426E+00;0; -7.0927059E-03;  1.8699646E+04;  0.0000000E+00; -1.8543877E-01;  4.0000000E+04;  0.0000000E+00;  3.9733895E+04; -8.5504744E-03;  0.0000000E+00;  1.4577687E-03;  6.9216522E+02;
  8.1096667E-01;  9.9999998E-03; -1.0029291E-01;7224; -3.2024175E-02;  0.0000000E+00; -5.4267523E-05;  9.9962677E+02;  1.5264466E-01; -3.0922546E+02;3;  9.5219851E+00;  0.0000000E+00;  3.0894659E+00;0;  2.7278654E-02;  1.7277646E+04;  0.0000000E+00; -6.7132646E-01;  4.0000000E+04;  0.0000000E+00;  3.9707078E+04;  1.8726416E-02;  0.0000000E+00;  8.5522383E-03;  1.8517445E+03;
  8.1093454E-01;  9.9999998E-03; -9.0307489E-02;7225; -3.2417260E-02;  0.0000000E+00; -2.4657988E-05;  9.9954083E+02;  1.5261708E-01; -3.8043326E+02;3;  9.9052906E+00;  0.0000000E+00;  2.8545313E+00;0;  1.9443497E-02;  1.7277391E+04;  0.0000000E+00; -5.9593332E-01;  4.0000000E+04;  0.0000000E+00;  3.9708023E+04;  1.0711552E-02;  0.0000000E+00;  8.7319454E-03;  1.6381144E+03;
  8.1092471E-01;  9.9999998E-03; -8.0317117E-02;7226; -3.2768399E-02;  0.0000000E+00;  1.3901677E-05;  9.9945728E+02;  1.5260296E-01; -4.4961639E+02;3;  1.0186487E+01;  0.0000000E+00;  2.5293717E+00;0;  1.2143979E-02;  1.7274850E+04;  0.0000000E+00; -5.0952291E-01;  4.0000000E+04;  0.0000000E+00;  3.9707812E+04;  3.4430064E-03;  0.0000000E+00;  8.7009724E-03;  1.4257008E+03;
  8.1093019E-01;  9.9999998E-03; -7.0325539E-02;7227; -3.3056021E-02;  0.0000000E+00;  4.4338994E-05;  9.9938062E+02;  1.5259822E-01; -5.1317010E+02;3;  1.0611844E+01;  0.0000000E+00;  2.1386087E+00;0;  5.4683532E-03;  1.7270844E+04;  0.0000000E+00; -4.1658130E-01;  4.0000000E+04;  0.0000000E+00;  3.9706914E+04; -3.0247276E-03;  0.0000000E+00;  8.4930807E-03;  1.2301528E+03;
  8.1073529E-01;  9.9999998E-03; -6.0302056E-02;7228; -3.3290159E-02;  0.0000000E+00;  6.4775631E-05;  9.9929480E+02;  1.5251251E-01; -5.8422974E+02;3;  1.1006544E+01;  0.0000000E+00;  1.7380980E+00;0; -5.9813261E-04;  1.7284775E+04;  0.0000000E+00; -3.2034418E-01;  4.0000000E+04;  0.0000000E+00;  3.9706254E+04; -8.6510349E-03;  0.0000000E+00;  8.0529023E-03;  1.0612014E+03;
  8.1050676E-01;  9.9999998E-03; -5.0222829E-02;7229; -3.3472136E-02;  0.0000000E+00;  6.4073654E-05;  9.9920856E+02;  1.5241627E-01; -6.5568439E+02;3;  1.1317858E+01;  0.0000000E+00;  1.3426278E+00;0; -5.8874195E-03;  1.7301270E+04;  0.0000000E+00; -2.2891770E-01;  4.0000000E+04;  0.0000000E+00;  3.9705938E+04; -1.3411867E-02;  0.0000000E+00;  7.5244470E-03;  9.0779004E+02;
  8.1029481E-01;  9.9999998E-03; -4.0152475E-02;7230; -3.3604786E-02;  0.0000000E+00;  5.1200121E-05;  9.9913574E+02;  1.5232769E-01; -7.1602832E+02;3;  1.1599525E+01;  0.0000000E+00;  1.0004462E+00;0; -1.0279507E-02;  1.7316391E+04;  0.0000000E+00; -1.4923860E-01;  4.0000000E+04;  0.0000000E+00;  3.9706582E+04; -1.7272348E-02;  0.0000000E+00;  6.9928402E-03;  7.5777155E+02;
  8.1011981E-01;  9.9999998E-03; -3.0101396E-02;7231; -3.3705227E-02;  0.0000000E+00;  3.6016339E-05;  9.9908069E+02;  1.5225504E-01; -7.6160724E+02;3;  1.1781776E+01;  0.0000000E+00;  7.3390359E-01;0; -1.3725637E-02;  1.7328582E+04;  0.0000000E+00; -8.4973522E-02;  4.0000000E+04;  0.0000000E+00;  3.9707312E+04; -2.0245118E-02;  0.0000000E+00;  6.5194806E-03;  6.0995624E+02;
  8.0999243E-01;  9.9999998E-03; -2.0062543E-02;7232; -3.3774886E-02;  0.0000000E+00;  2.2355904E-05;  9.9904395E+02;  1.5220413E-01; -7.9207544E+02;3;  1.1936193E+01;  0.0000000E+00;  4.8817423E-01;0; -1.6201383E-02;  1.7337291E+04;  0.0000000E+00; -3.8052015E-02;  4.0000000E+04;  0.0000000E+00;  3.9708203E+04; -2.2351667E-02;  0.0000000E+00;  6.1502848E-03;  4.8230554E+02;
  8.0991465E-01;  9.9999998E-03; -1.0029872E-02;7233; -3.3815537E-02;  0.0000000E+00;  1.0909213E-05;  9.9902344E+02;  1.5217315E-01; -8.0906262E+02;3;  1.2035574E+01;  0.0000000E+00;  2.2775842E-01;0; -1.7692300E-02;  1.7342471E+04;  0.0000000E+00; -9.5495796E-03;  4.0000000E+04;  0.0000000E+00;  3.9708930E+04; -2.3608336E-02;  0.0000000E+00;  5.9160362E-03;  3.9805228E+02;
  8.0988884E-01;  9.9999998E-03;  2.5391058E-09;7234; -3.3828422E-02;  0.0000000E+00;  3.8380925E-08;  9.9901532E+02;  1.5216216E-01; -8.1577850E+02;3;  1.2044180E+01;  0.0000000E+00;  2.2200173E-05;0; -1.8190008E-02;  1.7344254E+04;  0.0000000E+00;  3.9539479E-11;  4.0000000E+04;  0.0000000E+00;  3.9709176E+04; -2.4025943E-02;  0.0000000E+00;  5.8359364E-03;  3.6955249E+02;
  8.0991465E-01;  9.9999998E-03;  1.0029878E-02;7235; -3.3815544E-02;  0.0000000E+00; -1.0832290E-05;  9.9902338E+02;  1.5217276E-01; -8.0911200E+02;3;  1.2035573E+01;  0.0000000E+00; -2.2771516E-01;0; -1.7692320E-02;  1.7342467E+04;  0.0000000E+00; -9.5491149E-03;  4.0000000E+04;  0.0000000E+00;  3.9708930E+04; -2.3608355E-02;  0.0000000E+00;  5.9160343E-03;  3.9804837E+02;
  8.0999243E-01;  9.9999998E-03;  2.0062549E-02;7236; -3.3774894E-02;  0.0000000E+00; -2.2278431E-05;  9.9904395E+02;  1.5220413E-01; -7.9207544E+02;3;  1.1936255E+01;  0.0000000E+00; -4.8814723E-01;0; -1.6201383E-02;  1.7337289E+04;  0.0000000E+00; -3.8050637E-02;  4.0000000E+04;  0.0000000E+00;  3.9708203E+04; -2.2351677E-02;  0.0000000E+00;  6.1502941E-03;  4.8232281E+02;
  8.1011981E-01;  9.9999998E-03;  3.0101404E-02;7237; -3.3705242E-02;  0.0000000E+00; -3.5936901E-05;  9.9908087E+02;  1.5225536E-01; -7.6145911E+02;3;  1.1781777E+01;  0.0000000E+00; -7.3388642E-01;0; -1.3725692E-02;  1.7328578E+04;  0.0000000E+00; -8.4972203E-02;  4.0000000E+04;  0.0000000E+00;  3.9707309E+04; -2.0245180E-02;  0.0000000E+00;  6.5194867E-03;  6.0997925E+02;
  8.1029481E-01;  9.9999998E-03;  4.0152483E-02;7238; -3.3604801E-02;  0.0000000E+00; -5.1120951E-05;  9.9913568E+02;  1.5232733E-01; -7.1607770E+02;3;  1.1599528E+01;  0.0000000E+00; -1.0004295E+00;0; -1.0279586E-02;  1.7316379E+04;  0.0000000E+00; -1.4923674E-01;  4.0000000E+04;  0.0000000E+00;  3.9706582E+04; -1.7272420E-02;  0.0000000E+00;  6.9928346E-03;  7.5776508E+02;
  8.1050676E-01;  9.9999998E-03;  5.0222836E-02;7239; -3.3472154E-02;  0.0000000E+00; -6.3993815E-05;  9.9920862E+02;  1.5241607E-01; -6.5563501E+02;3;  1.1317812E+01;  0.0000000E+00; -1.3426120E+00;0; -5.8875335E-03;  1.7301268E+04;  0.0000000E+00; -2.2891691E-01;  4.0000000E+04;  0.0000000E+00;  3.9705938E+04; -1.3411974E-02;  0.0000000E+00;  7.5244401E-03;  9.0779150E+02;
  8.1073529E-01;  9.9999998E-03;  6.0302064E-02;7240; -3.3290178E-02;  0.0000000E+00; -6.4695094E-05;  9.9929468E+02;  1.5251234E-01; -5.8432849E+02;3;  1.1006576E+01;  0.0000000E+00; -1.7380998E+00;0; -5.9826393E-04;  1.7284779E+04;  0.0000000E+00; -3.2034212E-01;  4.0000000E+04;  0.0000000E+00;  3.9706258E+04; -8.6511560E-03;  0.0000000E+00;  8.0528921E-03;  1.0612014E+03;
  8.2476544E-01;  9.9999998E-03;  1.7870435E-09;7295; -3.4207106E-02;  0.0000000E+00;  3.9643510E-08;  9.9843799E+02;  1.5846357E-01; -1.2940851E+03;3;  1.2828266E+01;  0.0000000E+00;  2.1828208E-05;0; -1.6649168E-02;  1.6003687E+04;  0.0000000E+00;  1.2944130E-11;  4.0000000E+04;  0.0000000E+00;  3.9684367E+04; -2.8642310E-02;  0.0000000E+00;  1.1993142E-02;  4.1563053E+01;
  8.2477713E-01;  9.9999998E-03; -1.0044212E-02;7294; -3.4189466E-02;  0.0000000E+00; -7.2475334E-05;  9.9844122E+02;  1.5846792E-01; -1.2914185E+03;3;  1.2794554E+01;  0.0000000E+00;  3.1433541E-01;0; -1.6076829E-02;  1.6003118E+04;  0.0000000E+00; -1.1438429E-02;  4.0000000E+04;  0.0000000E+00;  3.9684078E+04; -2.8176157E-02;  0.0000000E+00;  1.2099328E-02;  3.3180355E+01;
  8.2477713E-01;  9.9999998E-03;  1.0044217E-02;7296; -3.4189470E-02;  0.0000000E+00;  7.2555333E-05;  9.9844128E+02;  1.5846850E-01; -1.2913691E+03;3;  1.2794479E+01;  0.0000000E+00; -3.1429920E-01;0; -1.6076855E-02;  1.6003121E+04;  0.0000000E+00; -1.1437504E-02;  4.0000000E+04;  0.0000000E+00;  3.9684078E+04; -2.8176185E-02;  0.0000000E+00;  1.2099330E-02;  3.3179497E+01;
  8.2481319E-01;  9.9999998E-03; -2.0085689E-02;7293; -3.4123000E-02;  0.0000000E+00; -1.4615047E-04;  9.9845264E+02;  1.5848172E-01; -1.2819373E+03;3;  1.2683760E+01;  0.0000000E+00;  6.9551599E-01;0; -1.4362216E-02;  1.6001382E+04;  0.0000000E+00; -4.5637459E-02;  4.0000000E+04;  0.0000000E+00;  3.9683234E+04; -2.6772637E-02;  0.0000000E+00;  1.2410421E-02;  1.7103860E+02;
  8.2481319E-01;  9.9999998E-03;  2.0085696E-02;7297; -3.4123007E-02;  0.0000000E+00;  1.4623135E-04;  9.9845288E+02;  1.5848273E-01; -1.2817397E+03;3;  1.2683785E+01;  0.0000000E+00; -6.9548941E-01;0; -1.4362243E-02;  1.6001382E+04;  0.0000000E+00; -4.5635223E-02;  4.0000000E+04;  0.0000000E+00;  3.9683234E+04; -2.6772670E-02;  0.0000000E+00;  1.2410427E-02;  1.7103853E+02;
  8.2487780E-01;  9.9999998E-03; -3.0126687E-02;7292; -3.4015357E-02;  0.0000000E+00; -2.2438065E-04;  9.9847314E+02;  1.5850809E-01; -1.2649502E+03;3;  1.2526534E+01;  0.0000000E+00;  9.8214942E-01;0; -1.1521931E-02;  1.5997869E+04;  0.0000000E+00; -1.0214849E-01;  4.0000000E+04;  0.0000000E+00;  3.9681902E+04; -2.4426837E-02;  0.0000000E+00;  1.2904906E-02;  3.9546640E+02;
  8.2487780E-01;  9.9999998E-03;  3.0126695E-02;7298; -3.4015365E-02;  0.0000000E+00;  2.2446251E-04;  9.9847308E+02;  1.5850832E-01; -1.2649995E+03;3;  1.2526506E+01;  0.0000000E+00; -9.8211831E-01;0; -1.1522001E-02;  1.5997870E+04;  0.0000000E+00; -1.0214628E-01;  4.0000000E+04;  0.0000000E+00;  3.9681898E+04; -2.4426896E-02;  0.0000000E+00;  1.2904895E-02;  3.9548203E+02;
  8.2497776E-01;  9.9999998E-03; -4.0174060E-02;7291; -3.3856522E-02;  0.0000000E+00; -3.0764390E-04;  9.9851184E+02;  1.5854949E-01; -1.2329017E+03;3;  1.2288236E+01;  0.0000000E+00;  1.2825152E+00;0; -7.5759338E-03;  1.5991941E+04;  0.0000000E+00; -1.7999423E-01;  4.0000000E+04;  0.0000000E+00;  3.9680574E+04; -2.1123564E-02;  0.0000000E+00;  1.3547630E-02;  6.6688483E+02;
  8.2497776E-01;  9.9999998E-03;  4.0174067E-02;7299; -3.3856541E-02;  0.0000000E+00;  3.0772793E-04;  9.9851190E+02;  1.5854937E-01; -1.2328523E+03;3;  1.2288164E+01;  0.0000000E+00; -1.2824787E+00;0; -7.5760437E-03;  1.5991933E+04;  0.0000000E+00; -1.7999141E-01;  4.0000000E+04;  0.0000000E+00;  3.9680574E+04; -2.1123640E-02;  0.0000000E+00;  1.3547597E-02;  6.6688373E+02;
  8.2510799E-01;  9.9999998E-03; -5.0237764E-02;7290; -3.3637993E-02;  0.0000000E+00; -4.1171070E-04;  9.9856445E+02;  1.5860488E-01; -1.1892981E+03;3;  1.2041918E+01;  0.0000000E+00;  1.5814425E+00;0; -2.5559990E-03;  1.5983509E+04;  0.0000000E+00; -2.7722475E-01;  4.0000000E+04;  0.0000000E+00;  3.9679629E+04; -1.6839761E-02;  0.0000000E+00;  1.4283762E-02;  9.5605304E+02;
  8.2510799E-01;  9.9999998E-03;  5.0237771E-02;7300; -3.3638012E-02;  0.0000000E+00;  4.1179667E-04;  9.9856470E+02;  1.5860525E-01; -1.1891006E+03;3;  1.2041877E+01;  0.0000000E+00; -1.5813992E+00;0; -2.5561340E-03;  1.5983510E+04;  0.0000000E+00; -2.7721801E-01;  4.0000000E+04;  0.0000000E+00;  3.9679633E+04; -1.6839879E-02;  0.0000000E+00;  1.4283745E-02;  9.5603711E+02;
  8.2527697E-01;  9.9999998E-03; -6.0323905E-02;7289; -3.3333056E-02;  0.0000000E+00; -5.5892265E-04;  9.9863092E+02;  1.5867820E-01; -1.1342380E+03;3;  1.1800695E+01;  0.0000000E+00;  1.7776835E+00;0;  3.4981491E-03;  1.5971761E+04;  0.0000000E+00; -3.9013198E-01;  4.0000000E+04;  0.0000000E+00;  3.9679246E+04; -1.1552467E-02;  0.0000000E+00;  1.5050616E-02;  1.2502477E+03;
  8.2527697E-01;  9.9999998E-03;  6.0323913E-02;7301; -3.3333078E-02;  0.0000000E+00;  5.5900763E-04;  9.9863110E+02;  1.5867877E-01; -1.1340898E+03;3;  1.1800709E+01;  0.0000000E+00; -1.7776810E+00;0;  3.4979805E-03;  1.5971759E+04;  0.0000000E+00; -3.9012602E-01;  4.0000000E+04;  0.0000000E+00;  3.9679242E+04; -1.1552595E-02;  0.0000000E+00;  1.5050575E-02;  1.2502301E+03;
  8.2546365E-01;  9.9999998E-03; -7.0402928E-02;7288; -3.2924183E-02;  0.0000000E+00; -7.5982977E-04;  9.9871246E+02;  1.5876469E-01; -1.0666844E+03;3;  1.1659050E+01;  0.0000000E+00;  1.8906522E+00;0;  1.0498071E-02;  1.5957912E+04;  0.0000000E+00; -5.1160765E-01;  4.0000000E+04;  0.0000000E+00;  3.9679801E+04; -5.2607129E-03;  0.0000000E+00;  1.5758784E-02;  1.5522777E+03;
  8.2561368E-01;  9.9999998E-03; -8.0398552E-02;7287; -3.2399636E-02;  0.0000000E+00; -1.0105849E-03;  9.9880432E+02;  1.5884319E-01; -9.9058795E+02;3;  1.1587343E+01;  0.0000000E+00;  1.8901069E+00;0;  1.8280804E-02;  1.5945374E+04;  0.0000000E+00; -6.3058394E-01;  4.0000000E+04;  0.0000000E+00;  3.9680816E+04;  1.9856219E-03;  0.0000000E+00;  1.6295182E-02;  1.8540145E+03;
  8.2572955E-01;  9.9999998E-03; -9.0376616E-02;7286; -3.1780366E-02;  0.0000000E+00; -1.2907224E-03;  9.9889215E+02;  1.5892053E-01; -9.1784937E+02;3;  1.1454595E+01;  0.0000000E+00;  1.9239984E+00;0;  2.6777491E-02;  1.5933723E+04;  0.0000000E+00; -7.3725522E-01;  4.0000000E+04;  0.0000000E+00;  3.9681422E+04;  1.0192160E-02;  0.0000000E+00;  1.6585330E-02;  2.1293909E+03;
  8.2584649E-01;  9.9999998E-03; -1.0033667E-01;7285; -3.1073296E-02;  0.0000000E+00; -1.5700031E-03;  9.9898712E+02;  1.5899879E-01; -8.3913562E+02;3;  1.1481750E+01;  0.0000000E+00;  1.9846315E+00;0;  3.5888486E-02;  1.5921729E+04;  0.0000000E+00; -8.2075721E-01;  4.0000000E+04;  0.0000000E+00;  3.9680828E+04;  1.9309383E-02;  0.0000000E+00;  1.6579101E-02;  2.3313840E+03;
  8.4255236E-01;  9.9999998E-03;  2.3033018E-09;7356; -3.4753200E-02;  0.0000000E+00;  4.0689670E-08;  9.9867432E+02;  1.6612965E-01; -1.0982880E+03;3;  1.3782898E+01;  0.0000000E+00;  1.1286893E-05;0; -1.8927043E-02;  1.4606322E+04;  0.0000000E+00; -4.5421019E-12;  4.0000000E+04;  0.0000000E+00;  3.9657246E+04; -3.7325554E-02;  0.0000000E+00;  1.8398510E-02;  6.4766339E+02;
  8.4253120E-01;  9.9999998E-03; -1.0044762E-02;7355; -3.4720372E-02;  0.0000000E+00; -2.1451236E-04;  9.9866473E+02;  1.6612065E-01; -1.1062384E+03;3;  1.3743649E+01;  0.0000000E+00;  2.7443871E-01;0; -1.8292585E-02;  1.4607597E+04;  0.0000000E+00; -1.1654560E-02;  4.0000000E+04;  0.0000000E+00;  3.9656867E+04; -3.6825191E-02;  0.0000000E+00;  1.8532606E-02;  6.0676208E+02;
  8.4253120E-01;  9.9999998E-03;  1.0044768E-02;7357; -3.4720380E-02;  0.0000000E+00;  2.1459469E-04;  9.9866473E+02;  1.6612123E-01; -1.1062384E+03;3;  1.3743707E+01;  0.0000000E+00; -2.7441660E-01;0; -1.8292647E-02;  1.4607596E+04;  0.0000000E+00; -1.1653494E-02;  4.0000000E+04;  0.0000000E+00;  3.9656867E+04; -3.6825228E-02;  0.0000000E+00;  1.8532582E-02;  6.0673975E+02;
  8.4247082E-01;  9.9999998E-03; -2.0085867E-02;7354; -3.4615856E-02;  0.0000000E+00; -4.3425258E-04;  9.9864990E+02;  1.6609831E-01; -1.1185343E+03;3;  1.3660477E+01;  0.0000000E+00;  5.1866370E-01;0; -1.6396109E-02;  1.4611105E+04;  0.0000000E+00; -4.6396222E-02;  4.0000000E+04;  0.0000000E+00;  3.9656078E+04; -3.5322092E-02;  0.0000000E+00;  1.8925983E-02;  5.0392331E+02;
  8.4247082E-01;  9.9999998E-03;  2.0085877E-02;7358; -3.4615867E-02;  0.0000000E+00;  4.3433701E-04;  9.9864990E+02;  1.6609831E-01; -1.1185343E+03;3;  1.3660477E+01;  0.0000000E+00; -5.1863050E-01;0; -1.6396135E-02;  1.4611103E+04;  0.0000000E+00; -4.6393827E-02;  4.0000000E+04;  0.0000000E+00;  3.9656078E+04; -3.5322115E-02;  0.0000000E+00;  1.8925980E-02;  5.0387915E+02;
  8.4238255E-01;  9.9999998E-03; -3.0125149E-02;7353; -3.4442000E-02;  0.0000000E+00; -6.6312763E-04;  9.9862396E+02;  1.6606510E-01; -1.1400151E+03;3;  1.3477971E+01;  0.0000000E+00;  7.5961626E-01;0; -1.3261540E-02;  1.4616082E+04;  0.0000000E+00; -1.0363651E-01;  4.0000000E+04;  0.0000000E+00;  3.9654695E+04; -3.2814596E-02;  0.0000000E+00;  1.9553056E-02;  4.3009955E+02;
  8.4238255E-01;  9.9999998E-03;  3.0125158E-02;7359; -3.4442019E-02;  0.0000000E+00;  6.6321203E-04;  9.9862378E+02;  1.6606502E-01; -1.1401633E+03;3;  1.3477977E+01;  0.0000000E+00; -7.5959742E-01;0; -1.3261627E-02;  1.4616084E+04;  0.0000000E+00; -1.0363352E-01;  4.0000000E+04;  0.0000000E+00;  3.9654699E+04; -3.2814670E-02;  0.0000000E+00;  1.9553043E-02;  4.3008356E+02;
  8.4228355E-01;  9.9999998E-03; -4.0170033E-02;7352; -3.4188628E-02;  0.0000000E+00; -9.0492785E-04;  9.9859814E+02;  1.6603011E-01; -1.1613972E+03;3;  1.3314220E+01;  0.0000000E+00;  9.3843508E-01;0; -8.9237969E-03;  1.4621290E+04;  0.0000000E+00; -1.8243949E-01;  4.0000000E+04;  0.0000000E+00;  3.9653324E+04; -2.9295279E-02;  0.0000000E+00;  2.0371482E-02;  5.4472729E+02;
  8.4228355E-01;  9.9999998E-03;  4.0170040E-02;7360; -3.4188647E-02;  0.0000000E+00;  9.0501399E-04;  9.9859821E+02;  1.6603047E-01; -1.1613479E+03;3;  1.3314193E+01;  0.0000000E+00; -9.3841660E-01;0; -8.9238863E-03;  1.4621290E+04;  0.0000000E+00; -1.8243623E-01;  4.0000000E+04;  0.0000000E+00;  3.9653316E+04; -2.9295353E-02;  0.0000000E+00;  2.0371467E-02;  5.4471545E+02;
  8.4219044E-01;  9.9999998E-03; -5.0233234E-02;7351; -3.3828545E-02;  0.0000000E+00; -1.1805485E-03;  9.9857855E+02;  1.6599953E-01; -1.1776437E+03;3;  1.3222479E+01;  0.0000000E+00;  1.0001025E+00;0; -3.4231432E-03;  1.4625506E+04;  0.0000000E+00; -2.8109685E-01;  4.0000000E+04;  0.0000000E+00;  3.9652156E+04; -2.4743807E-02;  0.0000000E+00;  2.1320663E-02;  8.3068451E+02;
  8.4219038E-01;  9.9999998E-03;  5.0233241E-02;7361; -3.3828571E-02;  0.0000000E+00;  1.1806295E-03;  9.9857831E+02;  1.6600013E-01; -1.1778412E+03;3;  1.3222482E+01;  0.0000000E+00; -1.0000950E+00;0; -3.4232978E-03;  1.4625502E+04;  0.0000000E+00; -2.8109306E-01;  4.0000000E+04;  0.0000000E+00;  3.9652164E+04; -2.4743909E-02;  0.0000000E+00;  2.1320611E-02;  8.3068182E+02;
  8.4211582E-01;  9.9999998E-03; -6.0323969E-02;7350; -3.3349209E-02;  0.0000000E+00; -1.5010042E-03;  9.9857587E+02;  1.6598019E-01; -1.1798658E+03;3;  1.3116815E+01;  0.0000000E+00;  9.7887981E-01;0;  3.1832606E-03;  1.4627782E+04;  0.0000000E+00; -3.9621049E-01;  4.0000000E+04;  0.0000000E+00;  3.9651594E+04; -1.9137830E-02;  0.0000000E+00;  2.2321090E-02;  1.1828719E+03;
  8.4211582E-01;  9.9999998E-03;  6.0323976E-02;7362; -3.3349235E-02;  0.0000000E+00;  1.5010878E-03;  9.9857593E+02;  1.6598152E-01; -1.1798164E+03;3;  1.3116782E+01;  0.0000000E+00; -9.7888052E-01;0;  3.1830538E-03;  1.4627786E+04;  0.0000000E+00; -3.9620513E-01;  4.0000000E+04;  0.0000000E+00;  3.9651594E+04; -1.9137954E-02;  0.0000000E+00;  2.2321008E-02;  1.1828636E+03;
  8.4207326E-01;  9.9999998E-03; -7.0432141E-02;7349; -3.2726478E-02;  0.0000000E+00; -1.8725125E-03;  9.9858899E+02;  1.6597773E-01; -1.1690020E+03;3;  1.3243844E+01;  0.0000000E+00;  8.7214541E-01;0;  1.0808329E-02;  1.4627137E+04;  0.0000000E+00; -5.2145326E-01;  4.0000000E+04;  0.0000000E+00;  3.9651918E+04; -1.2469632E-02;  0.0000000E+00;  2.3277961E-02;  1.5533763E+03;
  8.4205765E-01;  9.9999998E-03; -8.0500238E-02;7348; -3.1960998E-02;  0.0000000E+00; -2.2912046E-03;  9.9861322E+02;  1.6598883E-01; -1.1489038E+03;3;  1.3357280E+01;  0.0000000E+00;  6.9175106E-01;0;  1.9308360E-02;  1.4623889E+04;  0.0000000E+00; -6.4598304E-01;  4.0000000E+04;  0.0000000E+00;  3.9652684E+04; -4.7698407E-03;  0.0000000E+00;  2.4078202E-02;  1.9113719E+03;
  8.4207094E-01;  9.9999998E-03; -9.0541832E-02;7347; -3.1066744E-02;  0.0000000E+00; -2.7435198E-03;  9.9865253E+02;  1.6601653E-01; -1.1163616E+03;3;  1.3463724E+01;  0.0000000E+00;  5.7957691E-01;0;  2.8573003E-02;  1.4618188E+04;  0.0000000E+00; -7.5641549E-01;  4.0000000E+04;  0.0000000E+00;  3.9653582E+04;  3.9533982E-03;  0.0000000E+00;  2.4619604E-02;  2.2093643E+03;
  8.4211516E-01;  9.9999998E-03; -1.0056356E-01;7346; -3.0067479E-02;  0.0000000E+00; -3.2167735E-03;  9.9869440E+02;  1.6606052E-01; -1.0816465E+03;3;  1.3512010E+01;  0.0000000E+00;  5.4219490E-01;0;  3.8490303E-02;  1.4609884E+04;  0.0000000E+00; -8.3883393E-01;  4.0000000E+04;  0.0000000E+00;  3.9653508E+04;  1.3683749E-02;  0.0000000E+00;  2.4806553E-02;  2.3843240E+03;
  8.5996890E-01;  9.9999998E-03; -1.0052859E-02;7416; -3.5372935E-02;  0.0000000E+00; -3.4901561E-04;  9.9993195E+02;  1.7428486E-01; -5.6393333E+01;3;  1.4721921E+01;  0.0000000E+00;  1.5992866E-01;0; -2.6410878E-02;  1.3339410E+04;  0.0000000E+00; -9.6969604E-03;  4.0000000E+04;  0.0000000E+00;  3.9629430E+04; -4.8842143E-02;  0.0000000E+00;  2.2431266E-02;  1.1682512E+03;
  8.5997385E-01;  9.9999998E-03;  3.1668885E-09;7417; -3.5419285E-02;  0.0000000E+00;  4.1428265E-08;  9.9995312E+02;  1.7428970E-01; -3.8813625E+01;3;  1.4733613E+01;  0.0000000E+00;  1.2921621E-05;0; -2.7055774E-02;  1.3339453E+04;  0.0000000E+00;  3.9242186E-12;  4.0000000E+04;  0.0000000E+00;  3.9629602E+04; -4.9314685E-02;  0.0000000E+00;  2.2258911E-02;  1.2008878E+03;
  8.5996890E-01;  9.9999998E-03;  1.0052865E-02;7418; -3.5372943E-02;  0.0000000E+00;  3.4909821E-04;  9.9993182E+02;  1.7428523E-01; -5.6492096E+01;3;  1.4722031E+01;  0.0000000E+00; -1.5991469E-01;0; -2.6410885E-02;  1.3339411E+04;  0.0000000E+00; -9.6964529E-03;  4.0000000E+04;  0.0000000E+00;  3.9629434E+04; -4.8842158E-02;  0.0000000E+00;  2.2431273E-02;  1.1682556E+03;
  8.5995549E-01;  9.9999998E-03; -2.0101560E-02;7415; -3.5233714E-02;  0.0000000E+00; -7.0560427E-04;  9.9987091E+02;  1.7427258E-01; -1.0695969E+02;3;  1.4658425E+01;  0.0000000E+00;  2.1477282E-01;0; -2.4485253E-02;  1.3339346E+04;  0.0000000E+00; -3.8656313E-02;  4.0000000E+04;  0.0000000E+00;  3.9628492E+04; -4.7423828E-02;  0.0000000E+00;  2.2938576E-02;  1.0753271E+03;
  8.5995549E-01;  9.9999998E-03;  2.0101570E-02;7419; -3.5233721E-02;  0.0000000E+00;  7.0568989E-04;  9.9987115E+02;  1.7427255E-01; -1.0676216E+02;3;  1.4658424E+01;  0.0000000E+00; -2.1474960E-01;0; -2.4485275E-02;  1.3339343E+04;  0.0000000E+00; -3.8655594E-02;  4.0000000E+04;  0.0000000E+00;  3.9628496E+04; -4.7423862E-02;  0.0000000E+00;  2.2938587E-02;  1.0753086E+03;
  8.5993886E-01;  9.9999998E-03; -3.0145595E-02;7414; -3.4999765E-02;  0.0000000E+00; -1.0551695E-03;  9.9978094E+02;  1.7425434E-01; -1.8147592E+02;3;  1.4516357E+01;  0.0000000E+00;  3.3134526E-01;0; -2.1305213E-02;  1.3338870E+04;  0.0000000E+00; -8.6627267E-02;  4.0000000E+04;  0.0000000E+00;  3.9627406E+04; -4.5057103E-02;  0.0000000E+00;  2.3751890E-02;  9.4623523E+02;
  8.5993886E-01;  9.9999998E-03;  3.0145606E-02;7420; -3.4999780E-02;  0.0000000E+00;  1.0552563E-03;  9.9978101E+02;  1.7425419E-01; -1.8142654E+02;3;  1.4516385E+01;  0.0000000E+00; -3.3133018E-01;0; -2.1305298E-02;  1.3338869E+04;  0.0000000E+00; -8.6625241E-02;  4.0000000E+04;  0.0000000E+00;  3.9627406E+04; -4.5057189E-02;  0.0000000E+00;  2.3751890E-02;  9.4621631E+02;
  8.5992533E-01;  9.9999998E-03; -4.0190753E-02;7413; -3.4657888E-02;  0.0000000E+00; -1.4240388E-03;  9.9966779E+02;  1.7423542E-01; -2.7525082E+02;3;  1.4433020E+01;  0.0000000E+00;  2.8879920E-01;0; -1.6910929E-02;  1.3337601E+04;  0.0000000E+00; -1.5337150E-01;  4.0000000E+04;  0.0000000E+00;  3.9625750E+04; -4.1733272E-02;  0.0000000E+00;  2.4822343E-02;  8.4471588E+02;
  8.5992533E-01;  9.9999998E-03;  4.0190764E-02;7421; -3.4657914E-02;  0.0000000E+00;  1.4241287E-03;  9.9966779E+02;  1.7423595E-01; -2.7525082E+02;3;  1.4432980E+01;  0.0000000E+00; -2.8878546E-01;0; -1.6911013E-02;  1.3337600E+04;  0.0000000E+00; -1.5336855E-01;  4.0000000E+04;  0.0000000E+00;  3.9625750E+04; -4.1733336E-02;  0.0000000E+00;  2.4822323E-02;  8.4467139E+02;
  8.5992205E-01;  9.9999998E-03; -5.0246075E-02;7412; -3.4186773E-02;  0.0000000E+00; -1.8360314E-03;  9.9954321E+02;  1.7421901E-01; -3.7845755E+02;3;  1.4409602E+01;  0.0000000E+00;  1.5306687E-01;0; -1.1354560E-02;  1.3335127E+04;  0.0000000E+00; -2.3826087E-01;  4.0000000E+04;  0.0000000E+00;  3.9624434E+04; -3.7434697E-02;  0.0000000E+00;  2.6080137E-02;  8.7058069E+02;
  8.5992205E-01;  9.9999998E-03;  5.0246086E-02;7422; -3.4186803E-02;  0.0000000E+00;  1.8361222E-03;  9.9954315E+02;  1.7421976E-01; -3.7850693E+02;3;  1.4409571E+01;  0.0000000E+00; -1.5306140E-01;0; -1.1354703E-02;  1.3335124E+04;  0.0000000E+00; -2.3825692E-01;  4.0000000E+04;  0.0000000E+00;  3.9624430E+04; -3.7434798E-02;  0.0000000E+00;  2.6080094E-02;  8.7054266E+02;
  8.5993618E-01;  9.9999998E-03; -6.0322866E-02;7411; -3.3564899E-02;  0.0000000E+00; -2.3023568E-03;  9.9942255E+02;  1.7420994E-01; -4.7840509E+02;3;  1.4495862E+01;  0.0000000E+00; -6.5268353E-02;0; -4.7043227E-03;  1.3330961E+04;  0.0000000E+00; -3.3917931E-01;  4.0000000E+04;  0.0000000E+00;  3.9623535E+04; -3.2139476E-02;  0.0000000E+00;  2.7435154E-02;  1.0644452E+03;
  8.5993618E-01;  9.9999998E-03;  6.0322877E-02;7423; -3.3564929E-02;  0.0000000E+00;  2.3024508E-03;  9.9942249E+02;  1.7420989E-01; -4.7845450E+02;3;  1.4495799E+01;  0.0000000E+00;  6.5262906E-02;0; -4.7045089E-03;  1.3330962E+04;  0.0000000E+00; -3.3917242E-01;  4.0000000E+04;  0.0000000E+00;  3.9623527E+04; -3.2139596E-02;  0.0000000E+00;  2.7435087E-02;  1.0644075E+03;
  8.5997999E-01;  9.9999998E-03; -7.0431307E-02;7410; -3.2775681E-02;  0.0000000E+00; -2.8269500E-03;  9.9932031E+02;  1.7421292E-01; -5.6309387E+02;3;  1.4702762E+01;  0.0000000E+00; -3.4183797E-01;0;  2.9515512E-03;  1.3324563E+04;  0.0000000E+00; -4.5107350E-01;  4.0000000E+04;  0.0000000E+00;  3.9623562E+04; -2.5828993E-02;  0.0000000E+00;  2.8780544E-02;  1.3672610E+03;
  8.6005527E-01;  9.9999998E-03; -8.0543205E-02;7409; -3.1821761E-02;  0.0000000E+00; -3.3833382E-03;  9.9924799E+02;  1.7423286E-01; -6.2304266E+02;3;  1.4912454E+01;  0.0000000E+00; -5.2572232E-01;0;  1.1483882E-02;  1.3315688E+04;  0.0000000E+00; -5.6501687E-01;  4.0000000E+04;  0.0000000E+00;  3.9624227E+04; -1.8506994E-02;  0.0000000E+00;  2.9990876E-02;  1.6999161E+03;
  8.6015457E-01;  9.9999998E-03; -9.0627283E-02;7408; -3.0718267E-02;  0.0000000E+00; -3.9660735E-03;  9.9920325E+02;  1.7426679E-01; -6.6007855E+02;3;  1.5118311E+01;  0.0000000E+00; -7.1112168E-01;0;  2.0746455E-02;  1.3305170E+04;  0.0000000E+00; -6.6827661E-01;  4.0000000E+04;  0.0000000E+00;  3.9625098E+04; -1.0188182E-02;  0.0000000E+00;  3.0934636E-02;  1.9809924E+03;
  8.6026770E-01;  9.9999998E-03; -1.0069829E-01;7407; -2.9479630E-02;  0.0000000E+00; -4.5889821E-03;  9.9917957E+02;  1.7430854E-01; -6.7973230E+02;3;  1.5175518E+01;  0.0000000E+00; -8.4170669E-01;0;  3.0636815E-02;  1.3293784E+04;  0.0000000E+00; -7.4677294E-01;  4.0000000E+04;  0.0000000E+00;  3.9625387E+04; -8.4817567E-04;  0.0000000E+00;  3.1484991E-02;  2.1231108E+03;
  8.7741566E-01;  9.9999998E-03; -1.0060158E-02;7477; -3.6253463E-02;  0.0000000E+00; -4.1594097E-04;  1.0005401E+03;  1.8267708E-01;  4.4749216E+02;3;  1.5705813E+01;  0.0000000E+00; -5.0876778E-02;0; -4.1409854E-02;  1.2176440E+04;  0.0000000E+00; -5.8910721E-03;  4.0000000E+04;  0.0000000E+00;  3.9602148E+04; -6.3883804E-02;  0.0000000E+00;  2.2473950E-02;  1.8280178E+03;
  8.7741941E-01;  9.9999998E-03;  3.7589118E-09;7478; -3.6308773E-02;  0.0000000E+00;  4.2170822E-08;  1.0005650E+03;  1.8267952E-01;  4.6813348E+02;3;  1.5740495E+01;  0.0000000E+00;  1.1445023E-05;0; -4.2035386E-02;  1.2176886E+04;  0.0000000E+00;  2.1647652E-11;  4.0000000E+04;  0.0000000E+00;  3.9602344E+04; -6.4313874E-02;  0.0000000E+00;  2.2278488E-02;  1.8464296E+03;
  8.7741566E-01;  9.9999998E-03;  1.0060165E-02;7479; -3.6253467E-02;  0.0000000E+00;  4.1602601E-04;  1.0005400E+03;  1.8267591E-01;  4.4739340E+02;3;  1.5705861E+01;  0.0000000E+00;  5.0894570E-02;0; -4.1409850E-02;  1.2176439E+04;  0.0000000E+00; -5.8913287E-03;  4.0000000E+04;  0.0000000E+00;  3.9602145E+04; -6.3883804E-02;  0.0000000E+00;  2.2473956E-02;  1.8280082E+03;
  8.7740457E-01;  9.9999998E-03; -2.0113468E-02;7476; -3.6084633E-02;  0.0000000E+00; -8.2543184E-04;  1.0004593E+03;  1.8266979E-01;  3.8053131E+02;3;  1.5633469E+01;  0.0000000E+00; -9.3995579E-02;0; -3.9543144E-02;  1.2175016E+04;  0.0000000E+00; -2.3841372E-02;  4.0000000E+04;  0.0000000E+00;  3.9601738E+04; -6.2593557E-02;  0.0000000E+00;  2.3050413E-02;  1.7703245E+03;
  8.7740457E-01;  9.9999998E-03;  2.0113477E-02;7480; -3.6084644E-02;  0.0000000E+00;  8.2551764E-04;  1.0004592E+03;  1.8266930E-01;  3.8043253E+02;3;  1.5633514E+01;  0.0000000E+00;  9.3996383E-02;0; -3.9543159E-02;  1.2175021E+04;  0.0000000E+00; -2.3841592E-02;  4.0000000E+04;  0.0000000E+00;  3.9601738E+04; -6.2593572E-02;  0.0000000E+00;  2.3050414E-02;  1.7703191E+03;
  8.7738734E-01;  9.9999998E-03; -3.0158704E-02;7475; -3.5803583E-02;  0.0000000E+00; -1.2304243E-03;  1.0003383E+03;  1.8265736E-01;  2.8028754E+02;3;  1.5537969E+01;  0.0000000E+00; -1.3383868E-01;0; -3.6466002E-02;  1.2172722E+04;  0.0000000E+00; -5.4658651E-02;  4.0000000E+04;  0.0000000E+00;  3.9600746E+04; -6.0444348E-02;  0.0000000E+00;  2.3978347E-02;  1.6723901E+03;
  8.7738734E-01;  9.9999998E-03;  3.0158715E-02;7481; -3.5803601E-02;  0.0000000E+00;  1.2305154E-03;  1.0003384E+03;  1.8265656E-01;  2.8038629E+02;3;  1.5537889E+01;  0.0000000E+00;  1.3385805E-01;0; -3.6466006E-02;  1.2172721E+04;  0.0000000E+00; -5.4658573E-02;  4.0000000E+04;  0.0000000E+00;  3.9600750E+04; -6.0444336E-02;  0.0000000E+00;  2.3978330E-02;  1.6723832E+03;
  8.7736684E-01;  9.9999998E-03; -4.0200587E-02;7474; -3.5404462E-02;  0.0000000E+00; -1.6358892E-03;  1.0001754E+03;  1.8264121E-01;  1.4527940E+02;3;  1.5420094E+01;  0.0000000E+00; -1.7254201E-01;0; -3.2225225E-02;  1.2169615E+04;  0.0000000E+00; -9.9568747E-02;  4.0000000E+04;  0.0000000E+00;  3.9599672E+04; -5.7433721E-02;  0.0000000E+00;  2.5208496E-02;  1.5494369E+03;
  8.7736678E-01;  9.9999998E-03;  4.0200602E-02;7482; -3.5404481E-02;  0.0000000E+00;  1.6359838E-03;  1.0001753E+03;  1.8264155E-01;  1.4518063E+02;3;  1.5420090E+01;  0.0000000E+00;  1.7255625E-01;0; -3.2225303E-02;  1.2169612E+04;  0.0000000E+00; -9.9569991E-02;  4.0000000E+04;  0.0000000E+00;  3.9599672E+04; -5.7433765E-02;  0.0000000E+00;  2.5208460E-02;  1.5494380E+03;
  8.7734562E-01;  9.9999998E-03; -5.0247908E-02;7473; -3.4873068E-02;  0.0000000E+00; -2.0527700E-03;  1.0000004E+03;  1.8262330E-01;  3.9504936E-01;3;  1.5423352E+01;  0.0000000E+00; -3.5420480E-01;0; -2.6882835E-02;  1.2165747E+04;  0.0000000E+00; -1.5980744E-01;  4.0000000E+04;  0.0000000E+00;  3.9598418E+04; -5.3554099E-02;  0.0000000E+00;  2.6671264E-02;  1.4443746E+03;
  8.7734562E-01;  9.9999998E-03;  5.0247923E-02;7483; -3.4873091E-02;  0.0000000E+00;  2.0528669E-03;  1.0000005E+03;  1.8262313E-01;  3.9504936E-01;3;  1.5423266E+01;  0.0000000E+00;  3.5420415E-01;0; -2.6882952E-02;  1.2165743E+04;  0.0000000E+00; -1.5980847E-01;  4.0000000E+04;  0.0000000E+00;  3.9598414E+04; -5.3554177E-02;  0.0000000E+00;  2.6671225E-02;  1.4443718E+03;
  8.7733024E-01;  9.9999998E-03; -6.0313057E-02;7472; -3.4183592E-02;  0.0000000E+00; -2.5168147E-03;  9.9982471E+02;  1.8260473E-01; -1.4523003E+02;3;  1.5483230E+01;  0.0000000E+00; -6.5254962E-01;0; -2.0515466E-02;  1.2161043E+04;  0.0000000E+00; -2.3553944E-01;  4.0000000E+04;  0.0000000E+00;  3.9597773E+04; -4.8790600E-02;  0.0000000E+00;  2.8275134E-02;  1.4208232E+03;
  8.7733024E-01;  9.9999998E-03;  6.0313076E-02;7484; -3.4183625E-02;  0.0000000E+00;  2.5169139E-03;  9.9982465E+02;  1.8260436E-01; -1.4527940E+02;3;  1.5483180E+01;  0.0000000E+00;  6.5251958E-01;0; -2.0515613E-02;  1.2161047E+04;  0.0000000E+00; -2.3553516E-01;  4.0000000E+04;  0.0000000E+00;  3.9597789E+04; -4.8790686E-02;  0.0000000E+00;  2.8275073E-02;  1.4207800E+03;
  8.7733412E-01;  9.9999998E-03; -7.0408039E-02;7471; -3.3316631E-02;  0.0000000E+00; -3.0424346E-03;  9.9966876E+02;  1.8259394E-01; -2.7441116E+02;3;  1.5687935E+01;  0.0000000E+00; -9.8969305E-01;0; -1.3227133E-02;  1.2154929E+04;  0.0000000E+00; -3.2427052E-01;  4.0000000E+04;  0.0000000E+00;  3.9597691E+04; -4.3134823E-02;  0.0000000E+00;  2.9907690E-02;  1.5228889E+03;
  8.7738019E-01;  9.9999998E-03; -8.0522232E-02;7470; -3.2275431E-02;  0.0000000E+00; -3.6331478E-03;  9.9954578E+02;  1.8260197E-01; -3.7633389E+02;3;  1.5830929E+01;  0.0000000E+00; -1.2679558E+00;0; -5.1671080E-03;  1.2146341E+04;  0.0000000E+00; -4.1953546E-01;  4.0000000E+04;  0.0000000E+00;  3.9598395E+04; -3.6603272E-02;  0.0000000E+00;  3.1436164E-02;  1.7247512E+03;
  8.7749231E-01;  9.9999998E-03; -9.0614073E-02;7469; -3.1076537E-02;  0.0000000E+00; -4.2792726E-03;  9.9945776E+02;  1.8264230E-01; -4.4922052E+02;3;  1.5966340E+01;  0.0000000E+00; -1.4740462E+00;0;  3.4679007E-03;  1.2134059E+04;  0.0000000E+00; -5.1085752E-01;  4.0000000E+04;  0.0000000E+00;  3.9599293E+04; -2.9248310E-02;  0.0000000E+00;  3.2716211E-02;  1.9336195E+03;
  8.7764287E-01;  9.9999998E-03; -1.0068123E-01;7468; -2.9726952E-02;  0.0000000E+00; -4.9902657E-03;  9.9940765E+02;  1.8270051E-01; -4.9075006E+02;3;  1.6036613E+01;  0.0000000E+00; -1.6491698E+00;0;  1.2574967E-02;  1.2120116E+04;  0.0000000E+00; -5.8588755E-01;  4.0000000E+04;  0.0000000E+00;  3.9599555E+04; -2.1035843E-02;  0.0000000E+00;  3.3610810E-02;  2.0424059E+03;
  8.9664149E-01;  9.9999998E-03; -1.0059591E-01;7529; -3.0798296E-02;  0.0000000E+00; -4.1904966E-03;  9.9882349E+02;  1.9209018E-01; -9.7473407E+02;3;  1.6547403E+01;  0.0000000E+00; -1.8361814E+00;0; -1.5947517E-02;  1.0957636E+04;  0.0000000E+00; -4.0926135E-01;  4.0000000E+04;  0.0000000E+00;  3.9573320E+04; -4.5797855E-02;  0.0000000E+00;  2.9850338E-02;  2.9295881E+03;
  8.9653230E-01;  9.9999998E-03; -9.0546012E-02;7530; -3.2185350E-02;  0.0000000E+00; -3.5638036E-03;  9.9887244E+02;  1.9205737E-01; -9.3414276E+02;3;  1.6534727E+01;  0.0000000E+00; -1.6498144E+00;0; -2.4030881E-02;  1.0967269E+04;  0.0000000E+00; -3.3512449E-01;  4.0000000E+04;  0.0000000E+00;  3.9572949E+04; -5.2613791E-02;  0.0000000E+00;  2.8582910E-02;  2.8303174E+03;
  8.9639330E-01;  9.9999998E-03; -8.0469713E-02;7531; -3.3410396E-02;  0.0000000E+00; -3.0130108E-03;  9.9896027E+02;  1.9201173E-01; -8.6140436E+02;3;  1.6460669E+01;  0.0000000E+00; -1.3837979E+00;0; -3.1700630E-02;  1.0979387E+04;  0.0000000E+00; -2.5897068E-01;  4.0000000E+04;  0.0000000E+00;  3.9571961E+04; -5.8687981E-02;  0.0000000E+00;  2.6987351E-02;  2.6692463E+03;
  8.9624476E-01;  9.9999998E-03; -7.0363656E-02;7532; -3.4463532E-02;  0.0000000E+00; -2.5409509E-03;  9.9909473E+02;  1.9195926E-01; -7.5000055E+02;3;  1.6332245E+01;  0.0000000E+00; -1.0702702E+00;0; -3.8852233E-02;  1.0992582E+04;  0.0000000E+00; -1.8769689E-01;  4.0000000E+04;  0.0000000E+00;  3.9571199E+04; -6.4052559E-02;  0.0000000E+00;  2.5200326E-02;  2.5223093E+03;
  8.9609772E-01;  9.9999998E-03; -6.0276888E-02;7533; -3.5339065E-02;  0.0000000E+00; -2.1328195E-03;  9.9926447E+02;  1.9190434E-01; -6.0936310E+02;3;  1.6328466E+01;  0.0000000E+00; -8.6762208E-01;0; -4.5325093E-02;  1.1006052E+04;  0.0000000E+00; -1.2708984E-01;  4.0000000E+04;  0.0000000E+00;  3.9570949E+04; -6.8694353E-02;  0.0000000E+00;  2.3369262E-02;  2.4548420E+03;
  8.9595896E-01;  9.9999998E-03; -5.0221223E-02;7534; -3.6053836E-02;  0.0000000E+00; -1.7685828E-03;  9.9945514E+02;  1.9184968E-01; -4.5139288E+02;3;  1.6362747E+01;  0.0000000E+00; -6.6864586E-01;0; -5.0995883E-02;  1.1019058E+04;  0.0000000E+00; -7.9817310E-02;  4.0000000E+04;  0.0000000E+00;  3.9571527E+04; -7.2617695E-02;  0.0000000E+00;  2.1621812E-02;  2.4707046E+03;
  8.9583331E-01;  9.9999998E-03; -4.0182255E-02;7535; -3.6621734E-02;  0.0000000E+00; -1.4228838E-03;  9.9964636E+02;  1.9179930E-01; -2.9297821E+02;3;  1.6469881E+01;  0.0000000E+00; -5.4760242E-01;0; -5.5769674E-02;  1.1031056E+04;  0.0000000E+00; -4.5753766E-02;  4.0000000E+04;  0.0000000E+00;  3.9572363E+04; -7.5830929E-02;  0.0000000E+00;  2.0061255E-02;  2.5289609E+03;
  8.9572704E-01;  9.9999998E-03; -3.0147154E-02;7536; -3.7056271E-02;  0.0000000E+00; -1.0781882E-03;  9.9981616E+02;  1.9175309E-01; -1.5229140E+02;3;  1.6547422E+01;  0.0000000E+00; -4.1926149E-01;0; -5.9568547E-02;  1.1041319E+04;  0.0000000E+00; -2.3037991E-02;  4.0000000E+04;  0.0000000E+00;  3.9573016E+04; -7.8336671E-02;  0.0000000E+00;  1.8768124E-02;  2.5871785E+03;
  8.9564604E-01;  9.9999998E-03; -2.0106416E-02;7537; -3.7364483E-02;  0.0000000E+00; -7.2486309E-04;  9.9994824E+02;  1.9171698E-01; -4.2862816E+01;3;  1.6643852E+01;  0.0000000E+00; -3.2588056E-01;0; -6.2330529E-02;  1.1049183E+04;  0.0000000E+00; -9.2690932E-03;  4.0000000E+04;  0.0000000E+00;  3.9573703E+04; -8.0133259E-02;  0.0000000E+00;  1.7802732E-02;  2.6231555E+03;
  8.9559537E-01;  9.9999998E-03; -1.0056565E-02;7538; -3.7549227E-02;  0.0000000E+00; -3.6555869E-04;  1.0000339E+03;  1.9169505E-01;  2.8147242E+01;3;  1.6691603E+01;  0.0000000E+00; -1.8226361E-01;0; -6.4008057E-02;  1.1054123E+04;  0.0000000E+00; -2.1570269E-03;  4.0000000E+04;  0.0000000E+00;  3.9573902E+04; -8.1214786E-02;  0.0000000E+00;  1.7206732E-02;  2.6371562E+03;
  8.9557821E-01;  9.9999998E-03;  2.8637857E-09;7539; -3.7610725E-02;  0.0000000E+00;  4.5647365E-08;  1.0000609E+03;  1.9168761E-01;  5.0467510E+01;3;  1.6715775E+01;  0.0000000E+00;  6.5845670E-06;0; -6.4570770E-02;  1.1055813E+04;  0.0000000E+00;  3.4199497E-11;  4.0000000E+04;  0.0000000E+00;  3.9573980E+04; -8.1576012E-02;  0.0000000E+00;  1.7005239E-02;  2.6398757E+03;
  8.9559537E-01;  9.9999998E-03;  1.0056571E-02;7540; -3.7549231E-02;  0.0000000E+00;  3.6564958E-04;  1.0000340E+03;  1.9169432E-01;  2.8147242E+01;3;  1.6691641E+01;  0.0000000E+00;  1.8228868E-01;0; -6.4008079E-02;  1.1054127E+04;  0.0000000E+00; -2.1574772E-03;  4.0000000E+04;  0.0000000E+00;  3.9573902E+04; -8.1214793E-02;  0.0000000E+00;  1.7206715E-02;  2.6371316E+03;
  8.9564604E-01;  9.9999998E-03;  2.0106422E-02;7541; -3.7364498E-02;  0.0000000E+00;  7.2495488E-04;  9.9994818E+02;  1.9171663E-01; -4.2912197E+01;3;  1.6643801E+01;  0.0000000E+00;  3.2588005E-01;0; -6.2330611E-02;  1.1049183E+04;  0.0000000E+00; -9.2697013E-03;  4.0000000E+04;  0.0000000E+00;  3.9573703E+04; -8.0133334E-02;  0.0000000E+00;  1.7802725E-02;  2.6231411E+03;
  8.9572704E-01;  9.9999998E-03;  3.0147156E-02;7542; -3.7056282E-02;  0.0000000E+00;  1.0782831E-03;  9.9981622E+02;  1.9175297E-01; -1.5224200E+02;3;  1.6547413E+01;  0.0000000E+00;  4.1928095E-01;0; -5.9568591E-02;  1.1041320E+04;  0.0000000E+00; -2.3038091E-02;  4.0000000E+04;  0.0000000E+00;  3.9573016E+04; -7.8336701E-02;  0.0000000E+00;  1.8768111E-02;  2.5871680E+03;
  8.9583325E-01;  9.9999998E-03;  4.0182259E-02;7543; -3.6621753E-02;  0.0000000E+00;  1.4229810E-03;  9.9964661E+02;  1.9179831E-01; -2.9278070E+02;3;  1.6469774E+01;  0.0000000E+00;  5.4760790E-01;0; -5.5769734E-02;  1.1031057E+04;  0.0000000E+00; -4.5754790E-02;  4.0000000E+04;  0.0000000E+00;  3.9572371E+04; -7.5830966E-02;  0.0000000E+00;  2.0061230E-02;  2.5288943E+03;
  8.9595896E-01;  9.9999998E-03;  5.0221227E-02;7544; -3.6053866E-02;  0.0000000E+00;  1.7686846E-03;  9.9945526E+02;  1.9185005E-01; -4.5129410E+02;3;  1.6362690E+01;  0.0000000E+00;  6.6863102E-01;0; -5.0995894E-02;  1.1019062E+04;  0.0000000E+00; -7.9821274E-02;  4.0000000E+04;  0.0000000E+00;  3.9571523E+04; -7.2617657E-02;  0.0000000E+00;  2.1621764E-02;  2.4706509E+03;
  8.9609772E-01;  9.9999998E-03;  6.0276899E-02;7545; -3.5339098E-02;  0.0000000E+00;  2.1329231E-03;  9.9926453E+02;  1.9190522E-01; -6.0931372E+02;3;  1.6328466E+01;  0.0000000E+00;  8.6761779E-01;0; -4.5325220E-02;  1.1006051E+04;  0.0000000E+00; -1.2709056E-01;  4.0000000E+04;  0.0000000E+00;  3.9570945E+04; -6.8694428E-02;  0.0000000E+00;  2.3369210E-02;  2.4548667E+03;
  9.1609746E-01;  9.9999998E-03; -1.0050260E-01;7590; -3.2476470E-02;  0.0000000E+00; -2.5182122E-03;  9.9722253E+02;  2.0209464E-01; -2.3010583E+03;3;  1.6964430E+01;  0.0000000E+00; -1.8411677E+00;0; -4.9494579E-02;  9.8710107E+03;  0.0000000E+00; -2.6385760E-01;  4.0000000E+04;  0.0000000E+00;  3.9547367E+04; -6.8686403E-02;  0.0000000E+00;  1.9191822E-02;  4.5501543E+03;
  9.1612047E-01;  9.9999998E-03; -9.0447381E-02;7591; -3.3894140E-02;  0.0000000E+00; -2.0981871E-03;  9.9723126E+02;  2.0212846E-01; -2.2938489E+03;3;  1.7037605E+01;  0.0000000E+00; -1.5889142E+00;0; -5.7015337E-02;  9.8720381E+03;  0.0000000E+00; -1.9097644E-01;  4.0000000E+04;  0.0000000E+00;  3.9546180E+04; -7.4432984E-02;  0.0000000E+00;  1.7417645E-02;  4.3625225E+03;
  9.1610438E-01;  9.9999998E-03; -8.0373585E-02;7592; -3.5139769E-02;  0.0000000E+00; -1.7583284E-03;  9.9729022E+02;  2.0213941E-01; -2.2450110E+03;3;  1.7095814E+01;  0.0000000E+00; -1.3710103E+00;0; -6.4217910E-02;  9.8760547E+03;  0.0000000E+00; -1.3420944E-01;  4.0000000E+04;  0.0000000E+00;  3.9544367E+04; -7.9602778E-02;  0.0000000E+00;  1.5384867E-02;  4.0998306E+03;
  9.1605932E-01;  9.9999998E-03; -7.0287049E-02;7593; -3.6219444E-02;  0.0000000E+00; -1.4822296E-03;  9.9739209E+02;  2.0213147E-01; -2.1605693E+03;3;  1.7186014E+01;  0.0000000E+00; -1.2079839E+00;0; -7.0966072E-02;  9.8823105E+03;  0.0000000E+00; -9.0969115E-02;  4.0000000E+04;  0.0000000E+00;  3.9542824E+04; -8.4199794E-02;  0.0000000E+00;  1.3233721E-02;  3.8530168E+03;
  9.1599089E-01;  9.9999998E-03; -6.0207747E-02;7594; -3.7139457E-02;  0.0000000E+00; -1.2444509E-03;  9.9752698E+02;  2.0210454E-01; -2.0488201E+03;3;  1.7299093E+01;  0.0000000E+00; -1.0847031E+00;0; -7.7103429E-02;  9.8902334E+03;  0.0000000E+00; -5.8658671E-02;  4.0000000E+04;  0.0000000E+00;  3.9542004E+04; -8.8211827E-02;  0.0000000E+00;  1.1108398E-02;  3.6867996E+03;
  9.1590005E-01;  9.9999998E-03; -5.0153274E-02;7595; -3.7905637E-02;  0.0000000E+00; -1.0282990E-03;  9.9768011E+02;  2.0206086E-01; -1.9219601E+03;3;  1.7401978E+01;  0.0000000E+00; -9.3976998E-01;0; -8.2482107E-02;  9.8993848E+03;  0.0000000E+00; -3.5243958E-02;  4.0000000E+04;  0.0000000E+00;  3.9541945E+04; -9.1621272E-02;  0.0000000E+00;  9.1391625E-03;  3.6127354E+03;
  9.1579556E-01;  9.9999998E-03; -4.0123142E-02;7596; -3.8522903E-02;  0.0000000E+00; -8.2341308E-04;  9.9783215E+02;  2.0200793E-01; -1.7959891E+03;3;  1.7504005E+01;  0.0000000E+00; -7.9610759E-01;0; -8.6997099E-02;  9.9089424E+03;  0.0000000E+00; -1.9155230E-02;  4.0000000E+04;  0.0000000E+00;  3.9542285E+04; -9.4421290E-02;  0.0000000E+00;  7.4241911E-03;  3.5973906E+03;
  9.1568947E-01;  9.9999998E-03; -3.0102968E-02;7597; -3.8997460E-02;  0.0000000E+00; -6.1924313E-04;  9.9796509E+02;  2.0195286E-01; -1.6858694E+03;3;  1.7593943E+01;  0.0000000E+00; -6.3403565E-01;0; -9.0574697E-02;  9.9179824E+03;  0.0000000E+00; -8.9971768E-03;  4.0000000E+04;  0.0000000E+00;  3.9542617E+04; -9.6608013E-02;  0.0000000E+00;  6.0333172E-03;  3.5979170E+03;
  9.1559774E-01;  9.9999998E-03; -2.0079905E-02;7598; -3.9333545E-02;  0.0000000E+00; -4.1455589E-04;  9.9806561E+02;  2.0190245E-01; -1.6026129E+03;3;  1.7651787E+01;  0.0000000E+00; -4.3793017E-01;0; -9.3164489E-02;  9.9253428E+03;  0.0000000E+00; -3.3453985E-03;  4.0000000E+04;  0.0000000E+00;  3.9542852E+04; -9.8176971E-02;  0.0000000E+00;  5.0124852E-03;  3.5912781E+03;
  9.1553545E-01;  9.9999998E-03; -1.0045273E-02;7599; -3.9533872E-02;  0.0000000E+00; -2.0765087E-04;  9.9812756E+02;  2.0186953E-01; -1.5512566E+03;3;  1.7694321E+01;  0.0000000E+00; -2.2326590E-01;0; -9.4732650E-02;  9.9302305E+03;  0.0000000E+00; -7.2836352E-04;  4.0000000E+04;  0.0000000E+00;  3.9542828E+04; -9.9122651E-02;  0.0000000E+00;  4.3900027E-03;  3.5779124E+03;
  9.1551346E-01;  9.9999998E-03;  4.5796464E-09;7600; -3.9600611E-02;  0.0000000E+00;  5.1212503E-08;  9.9814880E+02;  2.0185789E-01; -1.5336769E+03;3;  1.7703041E+01;  0.0000000E+00; -2.6694488E-07;0; -9.5257930E-02;  9.9319424E+03;  0.0000000E+00;  4.1676333E-11;  4.0000000E+04;  0.0000000E+00;  3.9542859E+04; -9.9438742E-02;  0.0000000E+00;  4.1808132E-03;  3.5710261E+03;
  9.1553545E-01;  9.9999998E-03;  1.0045282E-02;7601; -3.9533880E-02;  0.0000000E+00;  2.0775385E-04;  9.9812750E+02;  2.0186962E-01; -1.5513059E+03;3;  1.7694214E+01;  0.0000000E+00;  2.2327231E-01;0; -9.4732605E-02;  9.9302275E+03;  0.0000000E+00; -7.2798191E-04;  4.0000000E+04;  0.0000000E+00;  3.9542832E+04; -9.9122591E-02;  0.0000000E+00;  4.3899873E-03;  3.5779121E+03;
  9.1559774E-01;  9.9999998E-03;  2.0079911E-02;7602; -3.9333560E-02;  0.0000000E+00;  4.1465691E-04;  9.9806573E+02;  2.0190258E-01; -1.6025142E+03;3;  1.7651695E+01;  0.0000000E+00;  4.3792012E-01;0; -9.3164526E-02;  9.9253389E+03;  0.0000000E+00; -3.3449831E-03;  4.0000000E+04;  0.0000000E+00;  3.9542852E+04; -9.8176979E-02;  0.0000000E+00;  5.0124545E-03;  3.5912363E+03;
  9.1568947E-01;  9.9999998E-03;  3.0102974E-02;7603; -3.8997468E-02;  0.0000000E+00;  6.1934529E-04;  9.9796527E+02;  2.0195261E-01; -1.6857212E+03;3;  1.7593971E+01;  0.0000000E+00;  6.3404220E-01;0; -9.0574712E-02;  9.9179844E+03;  0.0000000E+00; -8.9973016E-03;  4.0000000E+04;  0.0000000E+00;  3.9542617E+04; -9.6608005E-02;  0.0000000E+00;  6.0332948E-03;  3.5978645E+03;
  9.1579556E-01;  9.9999998E-03;  4.0123150E-02;7604; -3.8522918E-02;  0.0000000E+00;  8.2351675E-04;  9.9783215E+02;  2.0200793E-01; -1.7959891E+03;3;  1.7504045E+01;  0.0000000E+00;  7.9611194E-01;0; -8.6997189E-02;  9.9089375E+03;  0.0000000E+00; -1.9154526E-02;  4.0000000E+04;  0.0000000E+00;  3.9542273E+04; -9.4421335E-02;  0.0000000E+00;  7.4241464E-03;  3.5973203E+03;
  9.1590011E-01;  9.9999998E-03;  5.0153282E-02;7605; -3.7905660E-02;  0.0000000E+00;  1.0284011E-03;  9.9768024E+02;  2.0206232E-01; -1.9218613E+03;3;  1.7401955E+01;  0.0000000E+00;  9.3978161E-01;0; -8.2482241E-02;  9.8993809E+03;  0.0000000E+00; -3.5244025E-02;  4.0000000E+04;  0.0000000E+00;  3.9541949E+04; -9.1621339E-02;  0.0000000E+00;  9.1390982E-03;  3.6127146E+03;
  9.1599089E-01;  9.9999998E-03;  6.0207754E-02;7606; -3.7139483E-02;  0.0000000E+00;  1.2445516E-03;  9.9752716E+02;  2.0210508E-01; -2.0486719E+03;3;  1.7299112E+01;  0.0000000E+00;  1.0846823E+00;0; -7.7103466E-02;  9.8902285E+03;  0.0000000E+00; -5.8657095E-02;  4.0000000E+04;  0.0000000E+00;  3.9542000E+04; -8.8211820E-02;  0.0000000E+00;  1.1108353E-02;  3.6867424E+03;
  9.3810505E-01;  9.9999998E-03; -1.0073057E-01;7651; -3.4782220E-02;  0.0000000E+00; -4.3287120E-05;  9.9553619E+02;  2.1379994E-01; -3.6981396E+03;3;  1.7557636E+01;  0.0000000E+00; -2.2400575E+00;0; -8.5471824E-02;  8.7931250E+03;  0.0000000E+00; -1.5414762E-01;  4.0000000E+04;  0.0000000E+00;  3.9518719E+04; -8.5317999E-02;  0.0000000E+00; -1.5382588E-04;  6.4973149E+03;
  9.3821388E-01;  9.9999998E-03; -9.0687178E-02;7652; -3.6277585E-02;  0.0000000E+00;  6.4867716E-05;  9.9549365E+02;  2.1388721E-01; -3.7333977E+03;3;  1.7819239E+01;  0.0000000E+00; -2.0306063E+00;0; -9.3196496E-02;  8.7876621E+03;  0.0000000E+00; -7.5106382E-02;  4.0000000E+04;  0.0000000E+00;  3.9516324E+04; -9.0496175E-02;  0.0000000E+00; -2.7003230E-03;  6.2080513E+03;
  9.3822497E-01;  9.9999998E-03; -8.0625154E-02;7653; -3.7608303E-02;  0.0000000E+00;  1.2792916E-04;  9.9547919E+02;  2.1391913E-01; -3.7453972E+03;3;  1.8026548E+01;  0.0000000E+00; -1.8107612E+00;0; -1.0054824E-01;  8.7874697E+03;  0.0000000E+00; -3.2961059E-02;  4.0000000E+04;  0.0000000E+00;  3.9513785E+04; -9.5185481E-02;  0.0000000E+00; -5.3627579E-03;  5.7693779E+03;
  9.3816006E-01;  9.9999998E-03; -7.0542380E-02;7654; -3.8773529E-02;  0.0000000E+00;  1.5506473E-04;  9.9549524E+02;  2.1390070E-01; -3.7320645E+03;3;  1.8189585E+01;  0.0000000E+00; -1.6040826E+00;0; -1.0739611E-01;  8.7912256E+03;  0.0000000E+00; -1.6248735E-02;  4.0000000E+04;  0.0000000E+00;  3.9511344E+04; -9.9370256E-02;  0.0000000E+00; -8.0258567E-03;  5.3242720E+03;
  9.3804651E-01;  9.9999998E-03; -6.0458913E-02;7655; -3.9772265E-02;  0.0000000E+00;  1.5700980E-04;  9.9552643E+02;  2.1385424E-01; -3.7062380E+03;3;  1.8323814E+01;  0.0000000E+00; -1.3994907E+00;0; -1.1360463E-01;  8.7975498E+03;  0.0000000E+00; -1.2340137E-02;  4.0000000E+04;  0.0000000E+00;  3.9509348E+04; -1.0303252E-01;  0.0000000E+00; -1.0572108E-02;  4.9824136E+03;
  9.3789923E-01;  9.9999998E-03; -5.0376922E-02;7656; -4.0606122E-02;  0.0000000E+00;  1.4220718E-04;  9.9557129E+02;  2.1377936E-01; -3.6690547E+03;3;  1.8432127E+01;  0.0000000E+00; -1.1938814E+00;0; -1.1904518E-01;  8.8055703E+03;  0.0000000E+00; -1.1950064E-02;  4.0000000E+04;  0.0000000E+00;  3.9508676E+04; -1.0615941E-01;  0.0000000E+00; -1.2885772E-02;  4.7792002E+03;
  9.3774551E-01;  9.9999998E-03; -4.0300902E-02;7657; -4.1279290E-02;  0.0000000E+00;  1.1883765E-04;  9.9562042E+02;  2.1369895E-01; -3.6283647E+03;3;  1.8518293E+01;  0.0000000E+00; -9.8733836E-01;0; -1.2362686E-01;  8.8138223E+03;  0.0000000E+00; -1.0611366E-02;  4.0000000E+04;  0.0000000E+00;  3.9508496E+04; -1.0874271E-01;  0.0000000E+00; -1.4884154E-02;  4.6887817E+03;
  9.3760937E-01;  9.9999998E-03; -3.0231301E-02;7658; -4.1797325E-02;  0.0000000E+00;  9.1314920E-05;  9.9565997E+02;  2.1362454E-01; -3.5956250E+03;3;  1.8586132E+01;  0.0000000E+00; -7.5711715E-01;0; -1.2727961E-01;  8.8210488E+03;  0.0000000E+00; -7.6054279E-03;  4.0000000E+04;  0.0000000E+00;  3.9508621E+04; -1.1077339E-01;  0.0000000E+00; -1.6506217E-02;  4.6616860E+03;
  9.3749923E-01;  9.9999998E-03; -2.0162404E-02;7659; -4.2163730E-02;  0.0000000E+00;  6.1275030E-05;  9.9568671E+02;  2.1356170E-01; -3.5734531E+03;3;  1.8633890E+01;  0.0000000E+00; -5.1917815E-01;0; -1.2993219E-01;  8.8268838E+03;  0.0000000E+00; -3.9744400E-03;  4.0000000E+04;  0.0000000E+00;  3.9508797E+04; -1.1223635E-01;  0.0000000E+00; -1.7695842E-02;  4.6557241E+03;
  9.3742710E-01;  9.9999998E-03; -1.0086159E-02;7660; -4.2382117E-02;  0.0000000E+00;  3.0964526E-05;  9.9570087E+02;  2.1352234E-01; -3.5617004E+03;3;  1.8663836E+01;  0.0000000E+00; -2.5796419E-01;0; -1.3154161E-01;  8.8306338E+03;  0.0000000E+00; -1.0906635E-03;  4.0000000E+04;  0.0000000E+00;  3.9508855E+04; -1.1311995E-01;  0.0000000E+00; -1.8421663E-02;  4.6520244E+03;
  9.3740147E-01;  9.9999998E-03;  6.3487771E-09;7661; -4.2454701E-02;  0.0000000E+00;  5.6063392E-08;  9.9570715E+02;  2.1350767E-01; -3.5565154E+03;3;  1.8672625E+01;  0.0000000E+00; -1.0184855E-05;0; -1.3208084E-01;  8.8319746E+03;  0.0000000E+00;  3.5197692E-11;  4.0000000E+04;  0.0000000E+00;  3.9508852E+04; -1.1341564E-01;  0.0000000E+00; -1.8665198E-02;  4.6497676E+03;
  9.3742710E-01;  9.9999998E-03;  1.0086172E-02;7662; -4.2382121E-02;  0.0000000E+00; -3.0852003E-05;  9.9570074E+02;  2.1352200E-01; -3.5618484E+03;3;  1.8663858E+01;  0.0000000E+00;  2.5795373E-01;0; -1.3154170E-01;  8.8306338E+03;  0.0000000E+00; -1.0893524E-03;  4.0000000E+04;  0.0000000E+00;  3.9508855E+04; -1.1312000E-01;  0.0000000E+00; -1.8421696E-02;  4.6520078E+03;
  9.3749923E-01;  9.9999998E-03;  2.0162413E-02;7663; -4.2163733E-02;  0.0000000E+00; -6.1163046E-05;  9.9568652E+02;  2.1356191E-01; -3.5736011E+03;3;  1.8633917E+01;  0.0000000E+00;  5.1916647E-01;0; -1.2993231E-01;  8.8268838E+03;  0.0000000E+00; -3.9717602E-03;  4.0000000E+04;  0.0000000E+00;  3.9508793E+04; -1.1223643E-01;  0.0000000E+00; -1.7695887E-02;  4.6557451E+03;
  9.3760937E-01;  9.9999998E-03;  3.0231308E-02;7664; -4.1797336E-02;  0.0000000E+00; -9.1203547E-05;  9.9565997E+02;  2.1362454E-01; -3.5956250E+03;3;  1.8586096E+01;  0.0000000E+00;  7.5712174E-01;0; -1.2727973E-01;  8.8210479E+03;  0.0000000E+00; -7.6019494E-03;  4.0000000E+04;  0.0000000E+00;  3.9508617E+04; -1.1077346E-01;  0.0000000E+00; -1.6506262E-02;  4.6616670E+03;
  9.3774551E-01;  9.9999998E-03;  4.0300913E-02;7665; -4.1279312E-02;  0.0000000E+00; -1.1872545E-04;  9.9562024E+02;  2.1369909E-01; -3.6285127E+03;3;  1.8518253E+01;  0.0000000E+00;  9.8736340E-01;0; -1.2362695E-01;  8.8138223E+03;  0.0000000E+00; -1.0608760E-02;  4.0000000E+04;  0.0000000E+00;  3.9508488E+04; -1.0874276E-01;  0.0000000E+00; -1.4884199E-02;  4.6887764E+03;
  9.3789929E-01;  9.9999998E-03;  5.0376926E-02;7666; -4.0606149E-02;  0.0000000E+00; -1.4209833E-04;  9.9557104E+02;  2.1378008E-01; -3.6693015E+03;3;  1.8432163E+01;  0.0000000E+00;  1.1939294E+00;0; -1.1904521E-01;  8.8055713E+03;  0.0000000E+00; -1.1947304E-02;  4.0000000E+04;  0.0000000E+00;  3.9508676E+04; -1.0615937E-01;  0.0000000E+00; -1.2885839E-02;  4.7792295E+03;
  9.3804651E-01;  9.9999998E-03;  6.0458921E-02;7667; -3.9772294E-02;  0.0000000E+00; -1.5690125E-04;  9.9552649E+02;  2.1385458E-01; -3.7061887E+03;3;  1.8323893E+01;  0.0000000E+00;  1.3995117E+00;0; -1.1360467E-01;  8.7975527E+03;  0.0000000E+00; -1.2337284E-02;  4.0000000E+04;  0.0000000E+00;  3.9509348E+04; -1.0303250E-01;  0.0000000E+00; -1.0572170E-02;  4.9824141E+03;
  9.6051461E-01;  9.9999998E-03; -1.0077798E-01;7712; -3.7459511E-02;  0.0000000E+00;  3.0606606E-03;  9.9444324E+02;  2.2619966E-01; -4.6036245E+03;3;  1.8385693E+01;  0.0000000E+00; -3.3177936E+00;0; -1.1387622E-01;  7.8430327E+03;  0.0000000E+00; -1.4209141E-01;  4.0000000E+04;  0.0000000E+00;  3.9485812E+04; -8.7242708E-02;  0.0000000E+00; -2.6633520E-02;  7.8839233E+03;
  9.6058947E-01;  9.9999998E-03; -9.0716630E-02;7713; -3.9114434E-02;  0.0000000E+00;  2.8675501E-03;  9.9436755E+02;  2.2626266E-01; -4.6663384E+03;3;  1.8695248E+01;  0.0000000E+00; -3.0998251E+00;0; -1.2326726E-01;  7.8383740E+03;  0.0000000E+00; -3.8298346E-02;  4.0000000E+04;  0.0000000E+00;  3.9483238E+04; -9.2959121E-02;  0.0000000E+00; -3.0308146E-02;  7.5809888E+03;
  9.6057999E-01;  9.9999998E-03; -8.0644272E-02;7714; -4.0584929E-02;  0.0000000E+00;  2.6381088E-03;  9.9429932E+02;  2.2627363E-01; -4.7228794E+03;3;  1.8930824E+01;  0.0000000E+00; -2.8541515E+00;0; -1.3208698E-01;  7.8375977E+03;  0.0000000E+00;  1.4066401E-02;  4.0000000E+04;  0.0000000E+00;  3.9480242E+04; -9.8106503E-02;  0.0000000E+00; -3.3980478E-02;  7.0751670E+03;
  9.6051443E-01;  9.9999998E-03; -7.0553698E-02;7715; -4.1871037E-02;  0.0000000E+00;  2.3758805E-03;  9.9424658E+02;  2.2624746E-01; -4.7665317E+03;3;  1.9109047E+01;  0.0000000E+00; -2.5785742E+00;0; -1.4022221E-01;  7.8395142E+03;  0.0000000E+00;  2.8074110E-02;  4.0000000E+04;  0.0000000E+00;  3.9477438E+04; -1.0265425E-01;  0.0000000E+00; -3.7567955E-02;  6.5365625E+03;
  9.6041059E-01;  9.9999998E-03; -6.0454227E-02;7716; -4.2971913E-02;  0.0000000E+00;  2.0846813E-03;  9.9420502E+02;  2.2619267E-01; -4.8010000E+03;3;  1.9243168E+01;  0.0000000E+00; -2.2730536E+00;0; -1.4753921E-01;  7.8433184E+03;  0.0000000E+00;  2.2058127E-02;  4.0000000E+04;  0.0000000E+00;  3.9475367E+04; -1.0658760E-01;  0.0000000E+00; -4.0951613E-02;  6.1139824E+03;
  9.6029687E-01;  9.9999998E-03; -5.0362546E-02;7717; -4.3890718E-02;  0.0000000E+00;  1.7705281E-03;  9.9417169E+02;  2.2612910E-01; -4.8286035E+03;3;  1.9343590E+01;  0.0000000E+00; -1.9402885E+00;0; -1.5393081E-01;  7.8476655E+03;  0.0000000E+00;  1.0915327E-02;  4.0000000E+04;  0.0000000E+00;  3.9474809E+04; -1.0990111E-01;  0.0000000E+00; -4.4029702E-02;  5.8753936E+03;
  9.6019405E-01;  9.9999998E-03; -4.0279578E-02;7718; -4.4633415E-02;  0.0000000E+00;  1.4382666E-03;  9.9414728E+02;  2.2606690E-01; -4.8488008E+03;3;  1.9417969E+01;  0.0000000E+00; -1.5835419E+00;0; -1.5931121E-01;  7.8516182E+03;  0.0000000E+00;  2.5323166E-03;  4.0000000E+04;  0.0000000E+00;  3.9474855E+04; -1.1260123E-01;  0.0000000E+00; -4.6709985E-02;  5.8018296E+03;
  9.6010917E-01;  9.9999998E-03; -3.0204607E-02;7719; -4.5204788E-02;  0.0000000E+00;  1.0915535E-03;  9.9412891E+02;  2.2601363E-01; -4.8640596E+03;3;  1.9471617E+01;  0.0000000E+00; -1.2065575E+00;0; -1.6359442E-01;  7.8549355E+03;  0.0000000E+00; -1.1954276E-03;  4.0000000E+04;  0.0000000E+00;  3.9475367E+04; -1.1469562E-01;  0.0000000E+00; -4.8898816E-02;  5.8268945E+03;
  9.6004355E-01;  9.9999998E-03; -2.0135207E-02;7720; -4.5608848E-02;  0.0000000E+00;  7.3382654E-04;  9.9411261E+02;  2.2597195E-01; -4.8775405E+03;3;  1.9507666E+01;  0.0000000E+00; -8.1360984E-01;0; -1.6670427E-01;  7.8574116E+03;  0.0000000E+00; -1.4931847E-03;  4.0000000E+04;  0.0000000E+00;  3.9476008E+04; -1.1618969E-01;  0.0000000E+00; -5.0514579E-02;  5.8852710E+03;
  9.6000189E-01;  9.9999998E-03; -1.0067822E-02;7721; -4.5849588E-02;  0.0000000E+00;  3.6878523E-04;  9.9410010E+02;  2.2594549E-01; -4.8879102E+03;3;  1.9528471E+01;  0.0000000E+00; -4.0964958E-01;0; -1.6859053E-01;  7.8589985E+03;  0.0000000E+00; -5.2681519E-04;  4.0000000E+04;  0.0000000E+00;  3.9476461E+04; -1.1708574E-01;  0.0000000E+00; -5.1504787E-02;  5.9339785E+03;
  9.5998734E-01;  9.9999998E-03;  5.9928857E-09;7722; -4.5929506E-02;  0.0000000E+00;  5.9929356E-08;  9.9409436E+02;  2.2593585E-01; -4.8926509E+03;3;  1.9535225E+01;  0.0000000E+00; -1.6543912E-05;0; -1.6922244E-01;  7.8595410E+03;  0.0000000E+00; -2.3750119E-12;  4.0000000E+04;  0.0000000E+00;  3.9476535E+04; -1.1738459E-01;  0.0000000E+00; -5.1837850E-02;  5.9521001E+03;
  9.6000189E-01;  9.9999998E-03;  1.0067835E-02;7723; -4.5849591E-02;  0.0000000E+00; -3.6866302E-04;  9.9410010E+02;  2.2594593E-01; -4.8879102E+03;3;  1.9528511E+01;  0.0000000E+00;  4.0962198E-01;0; -1.6859065E-01;  7.8590000E+03;  0.0000000E+00; -5.2599458E-04;  4.0000000E+04;  0.0000000E+00;  3.9476457E+04; -1.1708590E-01;  0.0000000E+00; -5.1504757E-02;  5.9339844E+03;
  9.6004349E-01;  9.9999998E-03;  2.0135220E-02;7724; -4.5608860E-02;  0.0000000E+00; -7.3370652E-04;  9.9411273E+02;  2.2597285E-01; -4.8774414E+03;3;  1.9507652E+01;  0.0000000E+00;  8.1359011E-01;0; -1.6670418E-01;  7.8574087E+03;  0.0000000E+00; -1.4921145E-03;  4.0000000E+04;  0.0000000E+00;  3.9476008E+04; -1.1618961E-01;  0.0000000E+00; -5.0514579E-02;  5.8852847E+03;
  9.6010917E-01;  9.9999998E-03;  3.0204618E-02;7725; -4.5204811E-02;  0.0000000E+00; -1.0914330E-03;  9.9412885E+02;  2.2601353E-01; -4.8641089E+03;3;  1.9471588E+01;  0.0000000E+00;  1.2065327E+00;0; -1.6359453E-01;  7.8549336E+03;  0.0000000E+00; -1.1947410E-03;  4.0000000E+04;  0.0000000E+00;  3.9475375E+04; -1.1469563E-01;  0.0000000E+00; -4.8898902E-02;  5.8268633E+03;
  9.6019405E-01;  9.9999998E-03;  4.0279586E-02;7726; -4.4633429E-02;  0.0000000E+00; -1.4381437E-03;  9.9414734E+02;  2.2606628E-01; -4.8487515E+03;3;  1.9418018E+01;  0.0000000E+00;  1.5835607E+00;0; -1.5931126E-01;  7.8516211E+03;  0.0000000E+00;  2.5315529E-03;  4.0000000E+04;  0.0000000E+00;  3.9474852E+04; -1.1260122E-01;  0.0000000E+00; -4.6710044E-02;  5.8017793E+03;
  9.6029687E-01;  9.9999998E-03;  5.0362553E-02;7727; -4.3890744E-02;  0.0000000E+00; -1.7704064E-03;  9.9417157E+02;  2.2612913E-01; -4.8287026E+03;3;  1.9343601E+01;  0.0000000E+00;  1.9402645E+00;0; -1.5393086E-01;  7.8476685E+03;  0.0000000E+00;  1.0915453E-02;  4.0000000E+04;  0.0000000E+00;  3.9474812E+04; -1.0990113E-01;  0.0000000E+00; -4.4029731E-02;  5.8753521E+03;
  9.6041059E-01;  9.9999998E-03;  6.0454231E-02;7728; -4.2971939E-02;  0.0000000E+00; -2.0845584E-03;  9.9420477E+02;  2.2619225E-01; -4.8011973E+03;3;  1.9243147E+01;  0.0000000E+00;  2.2731185E+00;0; -1.4753929E-01;  7.8433223E+03;  0.0000000E+00;  2.2055957E-02;  4.0000000E+04;  0.0000000E+00;  3.9475367E+04; -1.0658757E-01;  0.0000000E+00; -4.0951721E-02;  6.1139692E+03;
  9.8338890E-01;  9.9999998E-03; -1.0067894E-01;7773; -4.0173616E-02;  0.0000000E+00;  6.9569661E-03;  9.9452826E+02;  2.3910831E-01; -4.5331885E+03;3;  1.9231157E+01;  0.0000000E+00; -4.9796505E+00;0; -1.2865141E-01;  7.0265161E+03;  0.0000000E+00; -3.5045955E-01;  4.0000000E+04;  0.0000000E+00;  3.9449395E+04; -6.7469373E-02;  0.0000000E+00; -6.1182033E-02;  8.4155674E+03;
  9.8374236E-01;  9.9999998E-03; -9.0614624E-02;7774; -4.2040590E-02;  0.0000000E+00;  6.5209512E-03;  9.9442969E+02;  2.3932596E-01; -4.6148145E+03;3;  1.9563408E+01;  0.0000000E+00; -4.6075268E+00;0; -1.4156348E-01;  7.0117524E+03;  0.0000000E+00; -2.3282775E-01;  4.0000000E+04;  0.0000000E+00;  3.9446594E+04; -7.4329421E-02;  0.0000000E+00; -6.7234047E-02;  8.1839961E+03;
  9.8401409E-01;  9.9999998E-03; -8.0546543E-02;7775; -4.3710183E-02;  0.0000000E+00;  6.0080686E-03;  9.9433612E+02;  2.3949495E-01; -4.6923418E+03;3;  1.9772972E+01;  0.0000000E+00; -4.1954155E+00;0; -1.5345868E-01;  7.0003076E+03;  0.0000000E+00; -1.5414396E-01;  4.0000000E+04;  0.0000000E+00;  3.9443418E+04; -8.0363110E-02;  0.0000000E+00; -7.3095568E-02;  7.7534175E+03;
  9.8419458E-01;  9.9999998E-03; -7.0469908E-02;7776; -4.5165326E-02;  0.0000000E+00;  5.4183346E-03;  9.9424438E+02;  2.3960294E-01; -4.7683379E+03;3;  1.9922550E+01;  0.0000000E+00; -3.7492046E+00;0; -1.6421783E-01;  6.9923462E+03;  0.0000000E+00; -1.0740150E-01;  4.0000000E+04;  0.0000000E+00;  3.9440512E+04; -8.5584678E-02;  0.0000000E+00; -7.8633144E-02;  7.2774321E+03;
  9.8430848E-01;  9.9999998E-03; -6.0382057E-02;7777; -4.6408996E-02;  0.0000000E+00;  4.7611464E-03;  9.9416675E+02;  2.3967218E-01; -4.8326807E+03;3;  2.0028318E+01;  0.0000000E+00; -3.2728689E+00;0; -1.7373899E-01;  6.9869390E+03;  0.0000000E+00; -7.9425722E-02;  4.0000000E+04;  0.0000000E+00;  3.9438320E+04; -8.9994878E-02;  0.0000000E+00; -8.3744116E-02;  6.9033716E+03;
  9.8438007E-01;  9.9999998E-03; -5.0299875E-02;7778; -4.7444589E-02;  0.0000000E+00;  4.0483372E-03;  9.9409998E+02;  2.3971231E-01; -4.8879868E+03;3;  2.0099972E+01;  0.0000000E+00; -2.7700055E+00;0; -1.8192062E-01;  6.9832612E+03;  0.0000000E+00; -5.9153706E-02;  4.0000000E+04;  0.0000000E+00;  3.9437613E+04; -9.3607835E-02;  0.0000000E+00; -8.8312790E-02;  6.7101562E+03;
  9.8443902E-01;  9.9999998E-03; -4.0233135E-02;7779; -4.8280094E-02;  0.0000000E+00;  3.2921466E-03;  9.9404785E+02;  2.3974361E-01; -4.9311455E+03;3;  2.0147923E+01;  0.0000000E+00; -2.2458239E+00;0; -1.8869928E-01;  6.9801973E+03;  0.0000000E+00; -4.1107655E-02;  4.0000000E+04;  0.0000000E+00;  3.9437855E+04; -9.6444920E-02;  0.0000000E+00; -9.2254363E-02;  6.6917710E+03;
  9.8449445E-01;  9.9999998E-03; -3.0176563E-02;7780; -4.8923172E-02;  0.0000000E+00;  2.5013008E-03;  9.9401410E+02;  2.3977365E-01; -4.9591445E+03;3;  2.0177853E+01;  0.0000000E+00; -1.7030202E+00;0; -1.9402871E-01;  6.9774946E+03;  0.0000000E+00; -2.4727143E-02;  4.0000000E+04;  0.0000000E+00;  3.9438656E+04; -9.8559104E-02;  0.0000000E+00; -9.5469609E-02;  6.7876484E+03;
  9.8454040E-01;  9.9999998E-03; -2.0118220E-02;7781; -4.9379066E-02;  0.0000000E+00;  1.6830754E-03;  9.9399249E+02;  2.3979770E-01; -4.9770200E+03;3;  2.0195192E+01;  0.0000000E+00; -1.1447293E+00;0; -1.9786814E-01;  6.9753623E+03;  0.0000000E+00; -1.1502457E-02;  4.0000000E+04;  0.0000000E+00;  3.9439832E+04; -1.0001674E-01;  0.0000000E+00; -9.7851396E-02;  6.9224092E+03;
  9.8457456E-01;  9.9999998E-03; -1.0058639E-02;7782; -4.9651712E-02;  0.0000000E+00;  8.4630714E-04;  9.9398090E+02;  2.3981506E-01; -4.9866494E+03;3;  2.0203894E+01;  0.0000000E+00; -5.7518524E-01;0; -2.0018724E-01;  6.9738076E+03;  0.0000000E+00; -2.9477032E-03;  4.0000000E+04;  0.0000000E+00;  3.9440688E+04; -1.0086405E-01;  0.0000000E+00; -9.9323191E-02;  7.0300332E+03;
  9.8458683E-01;  9.9999998E-03;  3.1747220E-09;7783; -4.9742397E-02;  0.0000000E+00;  6.5473145E-08;  9.9397687E+02;  2.3982081E-01; -4.9899575E+03;3;  2.0206236E+01;  0.0000000E+00;  3.6865658E-06;0; -2.0096233E-01;  6.9732842E+03;  0.0000000E+00; -6.3951046E-11;  4.0000000E+04;  0.0000000E+00;  3.9440812E+04; -1.0114216E-01;  0.0000000E+00; -9.9820167E-02;  7.0702354E+03;
  9.8457456E-01;  9.9999998E-03;  1.0058645E-02;7784; -4.9651712E-02;  0.0000000E+00; -8.4617635E-04;  9.9398102E+02;  2.3981486E-01; -4.9865508E+03;3;  2.0203920E+01;  0.0000000E+00;  5.7518673E-01;0; -2.0018727E-01;  6.9738062E+03;  0.0000000E+00; -2.9489084E-03;  4.0000000E+04;  0.0000000E+00;  3.9440684E+04; -1.0086416E-01;  0.0000000E+00; -9.9323094E-02;  7.0300405E+03;
  9.8454046E-01;  9.9999998E-03;  2.0118227E-02;7785; -4.9379081E-02;  0.0000000E+00; -1.6829474E-03;  9.9399249E+02;  2.3979689E-01; -4.9770200E+03;3;  2.0195158E+01;  0.0000000E+00;  1.1447023E+00;0; -1.9786806E-01;  6.9753633E+03;  0.0000000E+00; -1.1504897E-02;  4.0000000E+04;  0.0000000E+00;  3.9439832E+04; -1.0001668E-01;  0.0000000E+00; -9.7851381E-02;  6.9224067E+03;
  9.8449445E-01;  9.9999998E-03;  3.0176571E-02;7786; -4.8923194E-02;  0.0000000E+00; -2.5011718E-03;  9.9401404E+02;  2.3977363E-01; -4.9591938E+03;3;  2.0177820E+01;  0.0000000E+00;  1.7029740E+00;0; -1.9402872E-01;  6.9774927E+03;  0.0000000E+00; -2.4730928E-02;  4.0000000E+04;  0.0000000E+00;  3.9438656E+04; -9.8559089E-02;  0.0000000E+00; -9.5469631E-02;  6.7876401E+03;
  9.8443896E-01;  9.9999998E-03;  4.0233139E-02;7787; -4.8280116E-02;  0.0000000E+00; -3.2920069E-03;  9.9404755E+02;  2.3974307E-01; -4.9314419E+03;3;  2.0147928E+01;  0.0000000E+00;  2.2458737E+00;0; -1.8869928E-01;  6.9801987E+03;  0.0000000E+00; -4.1113842E-02;  4.0000000E+04;  0.0000000E+00;  3.9437859E+04; -9.6444897E-02;  0.0000000E+00; -9.2254378E-02;  6.6917080E+03;
  9.8438001E-01;  9.9999998E-03;  5.0299875E-02;7788; -4.7444616E-02;  0.0000000E+00; -4.0482017E-03;  9.9409998E+02;  2.3971279E-01; -4.8879868E+03;3;  2.0100023E+01;  0.0000000E+00;  2.7700527E+00;0; -1.8192063E-01;  6.9832593E+03;  0.0000000E+00; -5.9164405E-02;  4.0000000E+04;  0.0000000E+00;  3.9437609E+04; -9.3607783E-02;  0.0000000E+00; -8.8312849E-02;  6.7101216E+03;
  9.8430842E-01;  9.9999998E-03;  6.0382064E-02;7789; -4.6409030E-02;  0.0000000E+00; -4.7610099E-03;  9.9416669E+02;  2.3967220E-01; -4.8327300E+03;3;  2.0028328E+01;  0.0000000E+00;  3.2729075E+00;0; -1.7373899E-01;  6.9869336E+03;  0.0000000E+00; -7.9439692E-02;  4.0000000E+04;  0.0000000E+00;  3.9438316E+04; -8.9994781E-02;  0.0000000E+00; -8.3744206E-02;  6.9033335E+03;
  1.0084614E+00;  9.9999998E-03; -1.0060523E-01;7834; -4.2425185E-02;  0.0000000E+00;  1.2299092E-02;  9.9665350E+02;  2.5286594E-01; -2.7724553E+03;3;  2.0079288E+01;  0.0000000E+00; -7.0711212E+00;0; -1.0912672E-01;  6.3174878E+03;  0.0000000E+00; -5.9364128E-01;  4.0000000E+04;  0.0000000E+00;  3.9407113E+04;  2.1530092E-03;  0.0000000E+00; -1.1127973E-01;  7.9312646E+03;
  1.0089079E+00;  9.9999998E-03; -9.0553798E-02;7835; -4.4474076E-02;  0.0000000E+00;  1.1511889E-02;  9.9648553E+02;  2.5310895E-01; -2.9116086E+03;3;  2.0319401E+01;  0.0000000E+00; -6.4306355E+00;0; -1.2403704E-01;  6.3015981E+03;  0.0000000E+00; -5.0260693E-01;  4.0000000E+04;  0.0000000E+00;  3.9404559E+04; -3.3955327E-03;  0.0000000E+00; -1.2064151E-01;  7.6669424E+03;
  1.0091834E+00;  9.9999998E-03; -8.0493748E-02;7836; -4.6295848E-02;  0.0000000E+00;  1.0568590E-02;  9.9630090E+02;  2.5325441E-01; -3.0645884E+03;3;  2.0481260E+01;  0.0000000E+00; -5.7590756E+00;0; -1.3746355E-01;  6.2906299E+03;  0.0000000E+00; -4.1556138E-01;  4.0000000E+04;  0.0000000E+00;  3.9401441E+04; -8.3288215E-03;  0.0000000E+00; -1.2913473E-01;  7.2959082E+03;
  1.0093775E+00;  9.9999998E-03; -7.0430256E-02;7837; -4.7899526E-02;  0.0000000E+00;  9.5001459E-03;  9.9611646E+02;  2.5335586E-01; -3.2173708E+03;3;  2.0542210E+01;  0.0000000E+00; -5.0690036E+00;0; -1.4925465E-01;  6.2822031E+03;  0.0000000E+00; -3.3385551E-01;  4.0000000E+04;  0.0000000E+00;  3.9398656E+04; -1.2368464E-02;  0.0000000E+00; -1.3688618E-01;  6.9401509E+03;
  1.0095472E+00;  9.9999998E-03; -1.0059810E-02;7843; -5.2837349E-02;  0.0000000E+00;  1.4553326E-03;  9.9535364E+02;  2.5344178E-01; -3.8493389E+03;3;  2.0541182E+01;  0.0000000E+00; -7.5081247E-01;0; -1.8631010E-01;  6.2648818E+03;  0.0000000E+00; -7.5549232E-03;  4.0000000E+04;  0.0000000E+00;  3.9401625E+04; -2.3253918E-02;  0.0000000E+00; -1.6305618E-01;  7.2893628E+03;
  1.0095574E+00;  9.9999998E-03;  9.5412234E-10;7844; -5.2937165E-02;  0.0000000E+00;  7.3201434E-08;  9.9533698E+02;  2.5344712E-01; -3.8631655E+03;3;  2.0536888E+01;  0.0000000E+00;  1.0961026E-05;0; -1.8701945E-01;  6.2642939E+03;  0.0000000E+00; -1.3691098E-10;  4.0000000E+04;  0.0000000E+00;  3.9402137E+04; -2.3359116E-02;  0.0000000E+00; -1.6366033E-01;  7.3478320E+03;
  1.0095472E+00;  9.9999998E-03;  1.0059813E-02;7845; -5.2837357E-02;  0.0000000E+00; -1.4551859E-03;  9.9535382E+02;  2.5344145E-01; -3.8491909E+03;3;  2.0541149E+01;  0.0000000E+00;  7.5076771E-01;0; -1.8631022E-01;  6.2648828E+03;  0.0000000E+00; -7.5578243E-03;  4.0000000E+04;  0.0000000E+00;  3.9401625E+04; -2.3254011E-02;  0.0000000E+00; -1.6305621E-01;  7.2893540E+03;
  1.0095242E+00;  9.9999998E-03; -2.0117270E-02;7842; -5.2537639E-02;  0.0000000E+00;  2.8983525E-03;  9.9540094E+02;  2.5342765E-01; -3.8101311E+03;3;  2.0566698E+01;  0.0000000E+00; -1.4848692E+00;0; -1.8414757E-01;  6.2664424E+03;  0.0000000E+00; -3.0295968E-02;  4.0000000E+04;  0.0000000E+00;  3.9400258E+04; -2.2871973E-02;  0.0000000E+00; -1.6127560E-01;  7.1309043E+03;
  1.0095242E+00;  9.9999998E-03;  2.0117274E-02;7846; -5.2537654E-02;  0.0000000E+00; -2.8982069E-03;  9.9540094E+02;  2.5342834E-01; -3.8101311E+03;3;  2.0566708E+01;  0.0000000E+00;  1.4848952E+00;0; -1.8414764E-01;  6.2664434E+03;  0.0000000E+00; -3.0301966E-02;  4.0000000E+04;  0.0000000E+00;  3.9400262E+04; -2.2871953E-02;  0.0000000E+00; -1.6127568E-01;  7.1308711E+03;
  1.0095052E+00;  9.9999998E-03; -3.0172348E-02;7841; -5.2038230E-02;  0.0000000E+00;  4.3179314E-03;  9.9548285E+02;  2.5341856E-01; -3.7422825E+03;3;  2.0590311E+01;  0.0000000E+00; -2.2227604E+00;0; -1.8044527E-01;  6.2684722E+03;  0.0000000E+00; -6.8138219E-02;  4.0000000E+04;  0.0000000E+00;  3.9398926E+04; -2.2049639E-02;  0.0000000E+00; -1.5839563E-01;  6.9209409E+03;
  1.0095052E+00;  9.9999998E-03;  3.0172352E-02;7847; -5.2038252E-02;  0.0000000E+00; -4.3177879E-03;  9.9548273E+02;  2.5341851E-01; -3.7423813E+03;3;  2.0590378E+01;  0.0000000E+00;  2.2227738E+00;0; -1.8044542E-01;  6.2684736E+03;  0.0000000E+00; -6.8147823E-02;  4.0000000E+04;  0.0000000E+00;  3.9398918E+04; -2.2049654E-02;  0.0000000E+00; -1.5839577E-01;  6.9209360E+03;
  1.0095118E+00;  9.9999998E-03; -4.0235031E-02;7840; -5.1335324E-02;  0.0000000E+00;  5.7060150E-03;  9.9560693E+02;  2.5342306E-01; -3.6394729E+03;3;  2.0597763E+01;  0.0000000E+00; -2.9477925E+00;0; -1.7508671E-01;  6.2703779E+03;  0.0000000E+00; -1.2015785E-01;  4.0000000E+04;  0.0000000E+00;  3.9397203E+04; -2.0565959E-02;  0.0000000E+00; -1.5452075E-01;  6.7284683E+03;
  1.0095118E+00;  9.9999998E-03;  4.0235035E-02;7848; -5.1335350E-02;  0.0000000E+00; -5.7058721E-03;  9.9560675E+02;  2.5342351E-01; -3.6396211E+03;3;  2.0597750E+01;  0.0000000E+00;  2.9478743E+00;0; -1.7508686E-01;  6.2703774E+03;  0.0000000E+00; -1.2017078E-01;  4.0000000E+04;  0.0000000E+00;  3.9397203E+04; -2.0565882E-02;  0.0000000E+00; -1.5452097E-01;  6.7284282E+03;
  1.0095248E+00;  9.9999998E-03; -6.0369775E-02;7838; -4.9279824E-02;  0.0000000E+00;  8.3253598E-03;  9.9594305E+02;  2.5343335E-01; -3.3610176E+03;3;  2.0579960E+01;  0.0000000E+00; -4.3727093E+00;0; -1.5935658E-01;  6.2753408E+03;  0.0000000E+00; -2.5645456E-01;  4.0000000E+04;  0.0000000E+00;  3.9396828E+04; -1.5491677E-02;  0.0000000E+00; -1.4386490E-01;  6.6996284E+03;
  1.0095247E+00;  9.9999998E-03;  6.0369786E-02;7850; -4.9279850E-02;  0.0000000E+00; -8.3251949E-03;  9.9594373E+02;  2.5343427E-01; -3.3604744E+03;3;  2.0579979E+01;  0.0000000E+00;  4.3728080E+00;0; -1.5935673E-01;  6.2753423E+03;  0.0000000E+00; -2.5647181E-01;  4.0000000E+04;  0.0000000E+00;  3.9396824E+04; -1.5491837E-02;  0.0000000E+00; -1.4386488E-01;  6.6996323E+03;
  1.0095384E+00;  9.9999998E-03; -5.0305404E-02;7839; -5.0420247E-02;  0.0000000E+00;  7.0500020E-03;  9.9576447E+02;  2.5343820E-01; -3.5089609E+03;3;  2.0604029E+01;  0.0000000E+00; -3.6643324E+00;0; -1.6802390E-01;  6.2721870E+03;  0.0000000E+00; -1.8409455E-01;  4.0000000E+04;  0.0000000E+00;  3.9396449E+04; -1.8324077E-02;  0.0000000E+00; -1.4969982E-01;  6.6325098E+03;
  1.0095383E+00;  9.9999998E-03;  5.0305411E-02;7849; -5.0420273E-02;  0.0000000E+00; -7.0498502E-03;  9.9576489E+02;  2.5343794E-01; -3.5086152E+03;3;  2.0604120E+01;  0.0000000E+00;  3.6642697E+00;0; -1.6802409E-01;  6.2721865E+03;  0.0000000E+00; -1.8410890E-01;  4.0000000E+04;  0.0000000E+00;  3.9396441E+04; -1.8324217E-02;  0.0000000E+00; -1.4969988E-01;  6.6324541E+03;
  1.0344239E+00;  9.9999998E-03;  3.0531246E-09;7905; -5.4945439E-02;  0.0000000E+00;  8.3036781E-08;  9.9664948E+02;  2.6453185E-01; -2.7757361E+03;3;  2.0358496E+01;  0.0000000E+00; -1.3734905E-05;0; -1.7209470E-02;  5.7733291E+03;  0.0000000E+00; -1.6095270E-10;  4.0000000E+04;  0.0000000E+00;  3.9363617E+04;  2.2826976E-01;  0.0000000E+00; -2.4547923E-01;  6.6935278E+03;
  1.0344423E+00;  9.9999998E-03; -1.0051519E-02;7904; -5.4834448E-02;  0.0000000E+00;  2.2278544E-03;  9.9668640E+02;  2.6453751E-01; -2.7451699E+03;3;  2.0394115E+01;  0.0000000E+00; -8.9584684E-01;0; -1.6835630E-02;  5.7735586E+03;  0.0000000E+00; -5.2406732E-03;  4.0000000E+04;  0.0000000E+00;  3.9363062E+04;  2.2805294E-01;  0.0000000E+00; -2.4488857E-01;  6.6193042E+03;
  1.0344424E+00;  9.9999998E-03;  1.0051523E-02;7906; -5.4834455E-02;  0.0000000E+00; -2.2276903E-03;  9.9668652E+02;  2.6453707E-01; -2.7450713E+03;3;  2.0394093E+01;  0.0000000E+00;  8.9594144E-01;0; -1.6834885E-02;  5.7735566E+03;  0.0000000E+00; -5.2420264E-03;  4.0000000E+04;  0.0000000E+00;  3.9363055E+04;  2.2805370E-01;  0.0000000E+00; -2.4488859E-01;  6.6192788E+03;
  1.0345008E+00;  9.9999998E-03; -2.0104682E-02;7903; -5.4500960E-02;  0.0000000E+00;  4.4482052E-03;  9.9679071E+02;  2.6455966E-01; -2.6587554E+03;3;  2.0501532E+01;  0.0000000E+00; -1.7321925E+00;0; -1.5637621E-02;  5.7741597E+03;  0.0000000E+00; -2.1169728E-02;  4.0000000E+04;  0.0000000E+00;  3.9361578E+04;  2.2748904E-01;  0.0000000E+00; -2.4312666E-01;  6.4145913E+03;
  1.0345010E+00;  9.9999998E-03;  2.0104684E-02;7907; -5.4500971E-02;  0.0000000E+00; -4.4480441E-03;  9.9679071E+02;  2.6455954E-01; -2.6587554E+03;3;  2.0501575E+01;  0.0000000E+00;  1.7322574E+00;0; -1.5637144E-02;  5.7741548E+03;  0.0000000E+00; -2.1172959E-02;  4.0000000E+04;  0.0000000E+00;  3.9361578E+04;  2.2748964E-01;  0.0000000E+00; -2.4312678E-01;  6.4145103E+03;
  1.0346047E+00;  9.9999998E-03; -3.0165741E-02;7902; -5.3949982E-02;  0.0000000E+00;  6.6498104E-03;  9.9696234E+02;  2.6459879E-01; -2.5165415E+03;3;  2.0555483E+01;  0.0000000E+00; -2.6430380E+00;0; -1.3448343E-02;  5.7748911E+03;  0.0000000E+00; -4.8202958E-02;  4.0000000E+04;  0.0000000E+00;  3.9359133E+04;  2.2675966E-01;  0.0000000E+00; -2.4020800E-01;  6.1301665E+03;
  1.0346047E+00;  9.9999998E-03;  3.0165743E-02;7908; -5.3950001E-02;  0.0000000E+00; -6.6496502E-03;  9.9696252E+02;  2.6459843E-01; -2.5163933E+03;3;  2.0555450E+01;  0.0000000E+00;  2.6430876E+00;0; -1.3448119E-02;  5.7748882E+03;  0.0000000E+00; -4.8207983E-02;  4.0000000E+04;  0.0000000E+00;  3.9359133E+04;  2.2676006E-01;  0.0000000E+00; -2.4020818E-01;  6.1301274E+03;
  1.0347623E+00;  9.9999998E-03; -4.0243153E-02;7901; -5.3174891E-02;  0.0000000E+00;  8.8284984E-03;  9.9719562E+02;  2.6465875E-01; -2.3233179E+03;3;  2.0682802E+01;  0.0000000E+00; -3.4949605E+00;0; -1.0016844E-02;  5.7754468E+03;  0.0000000E+00; -8.6411901E-02;  4.0000000E+04;  0.0000000E+00;  3.9356910E+04;  2.2613984E-01;  0.0000000E+00; -2.3615669E-01;  5.8397822E+03;
  1.0347621E+00;  9.9999998E-03;  4.0243160E-02;7909; -5.3174913E-02;  0.0000000E+00; -8.8283364E-03;  9.9719580E+02;  2.6465932E-01; -2.3231699E+03;3;  2.0682762E+01;  0.0000000E+00;  3.4949553E+00;0; -1.0016948E-02;  5.7754443E+03;  0.0000000E+00; -8.6417481E-02;  4.0000000E+04;  0.0000000E+00;  3.9356914E+04;  2.2614002E-01;  0.0000000E+00; -2.3615697E-01;  5.8397710E+03;
  1.0349723E+00;  9.9999998E-03; -5.0326779E-02;7900; -5.2188285E-02;  0.0000000E+00;  1.0967564E-02;  9.9747260E+02;  2.6474378E-01; -2.0938501E+03;3;  2.0825291E+01;  0.0000000E+00; -4.3944311E+00;0; -5.1891059E-03;  5.7756167E+03;  0.0000000E+00; -1.3479310E-01;  4.0000000E+04;  0.0000000E+00;  3.9355164E+04;  2.2578569E-01;  0.0000000E+00; -2.3097479E-01;  5.6284277E+03;
  1.0349723E+00;  9.9999998E-03;  5.0326787E-02;7910; -5.2188314E-02;  0.0000000E+00; -1.0967401E-02;  9.9747260E+02;  2.6474378E-01; -2.0938501E+03;3;  2.0825277E+01;  0.0000000E+00;  4.3944359E+00;0; -5.1889569E-03;  5.7756177E+03;  0.0000000E+00; -1.3480197E-01;  4.0000000E+04;  0.0000000E+00;  3.9355156E+04;  2.2578579E-01;  0.0000000E+00; -2.3097475E-01;  5.6283569E+03;
  1.0352260E+00;  9.9999998E-03; -6.0403604E-02;7899; -5.0973251E-02;  0.0000000E+00;  1.3045955E-02;  9.9778931E+02;  2.6484752E-01; -1.8314459E+03;3;  2.0873035E+01;  0.0000000E+00; -5.3074274E+00;0;  1.1046827E-03;  5.7754067E+03;  0.0000000E+00; -1.9081348E-01;  4.0000000E+04;  0.0000000E+00;  3.9354660E+04;  2.2575431E-01;  0.0000000E+00; -2.2464962E-01;  5.5598198E+03;
  1.0352260E+00;  9.9999998E-03;  6.0403615E-02;7911; -5.0973289E-02;  0.0000000E+00; -1.3045790E-02;  9.9778925E+02;  2.6484880E-01; -1.8314952E+03;3;  2.0872959E+01;  0.0000000E+00;  5.3076916E+00;0;  1.1049062E-03;  5.7754028E+03;  0.0000000E+00; -1.9082257E-01;  4.0000000E+04;  0.0000000E+00;  3.9354660E+04;  2.2575463E-01;  0.0000000E+00; -2.2464973E-01;  5.5597969E+03;
  1.0352725E+00;  9.9999998E-03; -1.0065734E-01;7895; -4.3716896E-02;  0.0000000E+00;  1.9912237E-02;  9.9917987E+02;  2.6491022E-01; -6.7941608E+02;3;  2.0563713E+01;  0.0000000E+00; -9.0610924E+00;0;  3.0690402E-02;  5.7946440E+03;  0.0000000E+00; -4.3383497E-01;  4.0000000E+04;  0.0000000E+00;  3.9361543E+04;  2.1426378E-01;  0.0000000E+00; -1.8357338E-01;  6.4032378E+03;
  1.0354762E+00;  9.9999998E-03; -7.0478737E-02;7898; -4.9519215E-02;  0.0000000E+00;  1.5030711E-02;  9.9812555E+02;  2.6495570E-01; -1.5528945E+03;3;  2.0879141E+01;  0.0000000E+00; -6.1695476E+00;0;  8.5176528E-03;  5.7755562E+03;  0.0000000E+00; -2.5111121E-01;  4.0000000E+04;  0.0000000E+00;  3.9355180E+04;  2.2554773E-01;  0.0000000E+00; -2.1703008E-01;  5.6415791E+03;
  1.0355965E+00;  9.9999998E-03; -9.0609588E-02;7896; -4.5898244E-02;  0.0000000E+00;  1.8526088E-02;  9.9882336E+02;  2.6502898E-01; -9.7480560E+02;3;  2.0775560E+01;  0.0000000E+00; -8.1013184E+00;0;  2.3790255E-02;  5.7833403E+03;  0.0000000E+00; -3.7392029E-01;  4.0000000E+04;  0.0000000E+00;  3.9359023E+04;  2.2056226E-01;  0.0000000E+00; -1.9677201E-01;  6.1250371E+03;
  1.0356348E+00;  9.9999998E-03; -8.0548987E-02;7897; -4.7825363E-02;  0.0000000E+00;  1.6882315E-02;  9.9847479E+02;  2.6503056E-01; -1.2635784E+03;3;  2.0828247E+01;  0.0000000E+00; -7.1373868E+00;0;  1.6318187E-02;  5.7775698E+03;  0.0000000E+00; -3.1272492E-01;  4.0000000E+04;  0.0000000E+00;  3.9356754E+04;  2.2416189E-01;  0.0000000E+00; -2.0784371E-01;  5.8454937E+03;
  1.0627826E+00;  9.9999998E-03; -1.0070282E-02;7965; -5.5834219E-02;  0.0000000E+00;  3.3881664E-03;  9.9343634E+02;  2.7134272E-01; -5.4376108E+03;3;  1.9673742E+01;  0.0000000E+00; -1.0405797E+00;0;  5.9770250E-01;  5.4613481E+03;  0.0000000E+00;  4.1785804E-03;  4.0000000E+04;  0.0000000E+00;  3.9321617E+04;  9.5678163E-01;  0.0000000E+00; -3.5907912E-01;  4.6351108E+03;
  1.0628160E+00;  9.9999998E-03;  6.3036918E-09;7966; -5.5968795E-02;  0.0000000E+00;  1.0500464E-07;  9.9338733E+02;  2.7135170E-01; -5.4782002E+03;3;  1.9611435E+01;  0.0000000E+00;  3.7452206E-05;0;  6.0044074E-01;  5.4603687E+03;  0.0000000E+00; -1.0529273E-10;  4.0000000E+04;  0.0000000E+00;  3.9322199E+04;  9.6043956E-01;  0.0000000E+00; -3.5999879E-01;  4.7152051E+03;
  1.0627826E+00;  9.9999998E-03;  1.0070292E-02;7967; -5.5834226E-02;  0.0000000E+00; -3.3879641E-03;  9.9343610E+02;  2.7134171E-01; -5.4378081E+03;3;  1.9673769E+01;  0.0000000E+00;  1.0405858E+00;0;  5.9770304E-01;  5.4613501E+03;  0.0000000E+00;  4.1830116E-03;  4.0000000E+04;  0.0000000E+00;  3.9321613E+04;  9.5678210E-01;  0.0000000E+00; -3.5907906E-01;  4.6351250E+03;
  1.0627182E+00;  9.9999998E-03; -2.0139314E-02;7964; -5.5449374E-02;  0.0000000E+00;  6.7663956E-03;  9.9357324E+02;  2.7132165E-01; -5.3241880E+03;3;  1.9791164E+01;  0.0000000E+00; -1.6596856E+00;0;  5.9077430E-01;  5.4639233E+03;  0.0000000E+00;  1.6255250E-02;  4.0000000E+04;  0.0000000E+00;  3.9320195E+04;  9.4724113E-01;  0.0000000E+00; -3.5646680E-01;  4.4119863E+03;
  1.0627182E+00;  9.9999998E-03;  2.0139325E-02;7968; -5.5449378E-02;  0.0000000E+00; -6.7661954E-03;  9.9357324E+02;  2.7132270E-01; -5.3241880E+03;3;  1.9791168E+01;  0.0000000E+00;  1.6598171E+00;0;  5.9077537E-01;  5.4639243E+03;  0.0000000E+00;  1.6264444E-02;  4.0000000E+04;  0.0000000E+00;  3.9320191E+04;  9.4724214E-01;  0.0000000E+00; -3.5646677E-01;  4.4119780E+03;
  1.0626434E+00;  9.9999998E-03; -3.0209057E-02;7963; -5.4816451E-02;  0.0000000E+00;  1.0087178E-02;  9.9379004E+02;  2.7129298E-01; -5.1445967E+03;3;  1.9802185E+01;  0.0000000E+00; -2.5975084E+00;0;  5.8062482E-01;  5.4677485E+03;  0.0000000E+00;  3.4803301E-02;  4.0000000E+04;  0.0000000E+00;  3.9317684E+04;  9.3285203E-01;  0.0000000E+00; -3.5222721E-01;  4.0992925E+03;
  1.0626434E+00;  9.9999998E-03;  3.0209064E-02;7969; -5.4816462E-02;  0.0000000E+00; -1.0086989E-02;  9.9378986E+02;  2.7129203E-01; -5.1447446E+03;3;  1.9802238E+01;  0.0000000E+00;  2.5975885E+00;0;  5.8062494E-01;  5.4677485E+03;  0.0000000E+00;  3.4815013E-02;  4.0000000E+04;  0.0000000E+00;  3.9317684E+04;  9.3285209E-01;  0.0000000E+00; -3.5222712E-01;  4.0992510E+03;
  1.0625682E+00;  9.9999998E-03; -4.0289000E-02;7962; -5.3931985E-02;  0.0000000E+00;  1.3356808E-02;  9.9407465E+02;  2.7126181E-01; -4.9088125E+03;3;  1.9939579E+01;  0.0000000E+00; -3.6753037E+00;0;  5.6797814E-01;  5.4725703E+03;  0.0000000E+00;  5.7158571E-02;  4.0000000E+04;  0.0000000E+00;  3.9315566E+04;  9.1433942E-01;  0.0000000E+00; -3.4636125E-01;  3.7741421E+03;
  1.0625682E+00;  9.9999998E-03;  4.0289007E-02;7970; -5.3931996E-02;  0.0000000E+00; -1.3356625E-02;  9.9407465E+02;  2.7126205E-01; -4.9088125E+03;3;  1.9939613E+01;  0.0000000E+00;  3.6753623E+00;0;  5.6797945E-01;  5.4725718E+03;  0.0000000E+00;  5.7171043E-02;  4.0000000E+04;  0.0000000E+00;  3.9315566E+04;  9.1434103E-01;  0.0000000E+00; -3.4636155E-01;  3.7740991E+03;
  1.0625173E+00;  9.9999998E-03; -5.0385032E-02;7961; -5.2820928E-02;  0.0000000E+00;  1.6566893E-02;  9.9441821E+02;  2.7123263E-01; -4.6241924E+03;3;  2.0482224E+01;  0.0000000E+00; -4.6153555E+00;0;  5.5408049E-01;  5.4779238E+03;  0.0000000E+00;  7.8985199E-02;  4.0000000E+04;  0.0000000E+00;  3.9313523E+04;  8.9299852E-01;  0.0000000E+00; -3.3891806E-01;  3.5168254E+03;
  1.0625173E+00;  9.9999998E-03;  5.0385043E-02;7971; -5.2820954E-02;  0.0000000E+00; -1.6566725E-02;  9.9441833E+02;  2.7123284E-01; -4.6240938E+03;3;  2.0482229E+01;  0.0000000E+00;  4.6153712E+00;0;  5.5408227E-01;  5.4779248E+03;  0.0000000E+00;  7.9000473E-02;  4.0000000E+04;  0.0000000E+00;  3.9313520E+04;  8.9300060E-01;  0.0000000E+00; -3.3891836E-01;  3.5167935E+03;
  1.0625194E+00;  9.9999998E-03; -6.0483839E-02;7960; -5.1504090E-02;  0.0000000E+00;  1.9706715E-02;  9.9478851E+02;  2.7121681E-01; -4.3174009E+03;3;  2.0672758E+01;  0.0000000E+00; -5.7909808E+00;0;  5.4027748E-01;  5.4833145E+03;  0.0000000E+00;  9.3826868E-02;  4.0000000E+04;  0.0000000E+00;  3.9312875E+04;  8.7024671E-01;  0.0000000E+00; -3.2996920E-01;  3.3946538E+03;
  1.0625194E+00;  9.9999998E-03;  6.0483851E-02;7972; -5.1504128E-02;  0.0000000E+00; -1.9706553E-02;  9.9478839E+02;  2.7121717E-01; -4.3174995E+03;3;  2.0672680E+01;  0.0000000E+00;  5.7910008E+00;0;  5.4027867E-01;  5.4833169E+03;  0.0000000E+00;  9.3844928E-02;  4.0000000E+04;  0.0000000E+00;  3.9312879E+04;  8.7024820E-01;  0.0000000E+00; -3.2996953E-01;  3.3946802E+03;
  1.0627065E+00;  9.9999998E-03; -7.0580728E-02;7959; -4.9928334E-02;  0.0000000E+00;  2.2805003E-02;  9.9516229E+02;  2.7123842E-01; -4.0077446E+03;3;  2.0802942E+01;  0.0000000E+00; -6.8983788E+00;0;  5.3076369E-01;  5.4873394E+03;  0.0000000E+00;  9.4563477E-02;  4.0000000E+04;  0.0000000E+00;  3.9313113E+04;  8.5073978E-01;  0.0000000E+00; -3.1997609E-01;  3.4243113E+03;
  1.0631735E+00;  9.9999998E-03; -8.0676131E-02;7958; -4.8067842E-02;  0.0000000E+00;  2.5897393E-02;  9.9550964E+02;  2.7131617E-01; -3.7200120E+03;3;  2.0665262E+01;  0.0000000E+00; -7.7107611E+00;0;  5.2815658E-01;  5.4892275E+03;  0.0000000E+00;  7.3987842E-02;  4.0000000E+04;  0.0000000E+00;  3.9314129E+04;  8.3733529E-01;  0.0000000E+00; -3.0917871E-01;  3.5707168E+03;
  1.0636408E+00;  9.9999998E-03; -9.0766199E-02;7957; -4.5964487E-02;  0.0000000E+00;  2.8851015E-02;  9.9589954E+02;  2.7139774E-01; -3.3969741E+03;3;  2.0646460E+01;  0.0000000E+00; -8.7138529E+00;0;  5.2439094E-01;  5.4918003E+03;  0.0000000E+00;  2.3495072E-02;  4.0000000E+04;  0.0000000E+00;  3.9315895E+04;  8.2069921E-01;  0.0000000E+00; -2.9630825E-01;  3.7844336E+03;
  1.0641824E+00;  9.9999998E-03; -1.0086114E-01;7956; -4.3494415E-02;  0.0000000E+00;  3.1735335E-02;  9.9632721E+02;  2.7148542E-01; -3.0426787E+03;3;  2.1130812E+01;  0.0000000E+00; -9.4223642E+00;0;  5.2165782E-01;  5.4947817E+03;  0.0000000E+00; -5.5625137E-02;  4.0000000E+04;  0.0000000E+00;  3.9317273E+04;  8.0310088E-01;  0.0000000E+00; -2.8144309E-01;  4.0043896E+03;
  1.0905838E+00;  9.9999998E-03; -1.0090726E-02;8026; -5.5671088E-02;  0.0000000E+00;  4.9145250E-03;  9.8748383E+02;  2.7169833E-01; -1.0368684E+04;3;  1.8519398E+01;  0.0000000E+00; -4.3792483E-01;0;  1.8880961E+00;  5.3890391E+03;  0.0000000E+00;  9.3857776E-03;  4.0000000E+04;  0.0000000E+00;  3.9282957E+04;  2.3646646E+00;  0.0000000E+00; -4.7656852E-01;  1.3610482E+03;
  1.0905820E+00;  9.9999998E-03;  7.7522779E-09;8027; -5.5809274E-02;  0.0000000E+00;  1.2137423E-07;  9.8744531E+02;  2.7170381E-01; -1.0400581E+04;3;  1.8331255E+01;  0.0000000E+00;  1.1406839E-05;0;  1.8923732E+00;  5.3884517E+03;  0.0000000E+00; -7.9303500E-12;  4.0000000E+04;  0.0000000E+00;  3.9283395E+04;  2.3698623E+00;  0.0000000E+00; -4.7748908E-01;  1.4182157E+03;
  1.0905838E+00;  9.9999998E-03;  1.0090739E-02;8028; -5.5671092E-02;  0.0000000E+00; -4.9142777E-03;  9.8748376E+02;  2.7169865E-01; -1.0368732E+04;3;  1.8519382E+01;  0.0000000E+00;  4.3794167E-01;0;  1.8880957E+00;  5.3890376E+03;  0.0000000E+00;  9.3957596E-03;  4.0000000E+04;  0.0000000E+00;  3.9282957E+04;  2.3646643E+00;  0.0000000E+00; -4.7656858E-01;  1.3610635E+03;
  1.0905974E+00;  9.9999998E-03; -2.0179236E-02;8025; -5.5257685E-02;  0.0000000E+00;  9.7717131E-03;  9.8759344E+02;  2.7168784E-01; -1.0277827E+04;3;  1.8431414E+01;  0.0000000E+00; -1.5704993E+00;0;  1.8758916E+00;  5.3907749E+03;  0.0000000E+00;  3.7198577E-02;  4.0000000E+04;  0.0000000E+00;  3.9281824E+04;  2.3497171E+00;  0.0000000E+00; -4.7382560E-01;  1.2076154E+03;
  1.0905974E+00;  9.9999998E-03;  2.0179247E-02;8029; -5.5257659E-02;  0.0000000E+00; -9.7714718E-03;  9.8759344E+02;  2.7168715E-01; -1.0277827E+04;3;  1.8431456E+01;  0.0000000E+00;  1.5704604E+00;0;  1.8758929E+00;  5.3907769E+03;  0.0000000E+00;  3.7218221E-02;  4.0000000E+04;  0.0000000E+00;  3.9281824E+04;  2.3497186E+00;  0.0000000E+00; -4.7382563E-01;  1.2076029E+03;
  1.0906279E+00;  9.9999998E-03; -3.0270029E-02;8024; -5.4537542E-02;  0.0000000E+00;  1.4594184E-02;  9.8776953E+02;  2.7167028E-01; -1.0131966E+04;3;  1.8474144E+01;  0.0000000E+00; -2.6893265E+00;0;  1.8564045E+00;  5.3935757E+03;  0.0000000E+00;  8.1928246E-02;  4.0000000E+04;  0.0000000E+00;  3.9280086E+04;  2.3256402E+00;  0.0000000E+00; -4.6923569E-01;  1.0174229E+03;
  1.0906279E+00;  9.9999998E-03;  3.0270040E-02;8030; -5.4537531E-02;  0.0000000E+00; -1.4593967E-02;  9.8776941E+02;  2.7167061E-01; -1.0132064E+04;3;  1.8474113E+01;  0.0000000E+00;  2.6892335E+00;0;  1.8564059E+00;  5.3935786E+03;  0.0000000E+00;  8.1956811E-02;  4.0000000E+04;  0.0000000E+00;  3.9280082E+04;  2.3256416E+00;  0.0000000E+00; -4.6923575E-01;  1.0174315E+03;
  1.0906699E+00;  9.9999998E-03; -4.0370472E-02;8023; -5.3474165E-02;  0.0000000E+00;  1.9365555E-02;  9.8801154E+02;  2.7164587E-01; -9.9314912E+03;3;  1.8519093E+01;  0.0000000E+00; -3.7919147E+00;0;  1.8297857E+00;  5.3973369E+03;  0.0000000E+00;  1.3947102E-01;  4.0000000E+04;  0.0000000E+00;  3.9278777E+04;  2.2924895E+00;  0.0000000E+00; -4.6270382E-01;  8.9493933E+02;
  1.0906699E+00;  9.9999998E-03;  4.0370483E-02;8031; -5.3474151E-02;  0.0000000E+00; -1.9365342E-02;  9.8801129E+02;  2.7164561E-01; -9.9316885E+03;3;  1.8519098E+01;  0.0000000E+00;  3.7919884E+00;0;  1.8297845E+00;  5.3973350E+03;  0.0000000E+00;  1.3950850E-01;  4.0000000E+04;  0.0000000E+00;  3.9278766E+04;  2.2924886E+00;  0.0000000E+00; -4.6270409E-01;  8.9497150E+02;
  1.0907407E+00;  9.9999998E-03; -5.0487667E-02;8022; -5.2081097E-02;  0.0000000E+00;  2.4087043E-02;  9.8830676E+02;  2.7161747E-01; -9.6869238E+03;3;  1.8707277E+01;  0.0000000E+00; -4.7753797E+00;0;  1.7975549E+00;  5.4018965E+03;  0.0000000E+00;  2.0111778E-01;  4.0000000E+04;  0.0000000E+00;  3.9277922E+04;  2.2517531E+00;  0.0000000E+00; -4.5419824E-01;  9.2557532E+02;
  1.0907408E+00;  9.9999998E-03;  5.0487682E-02;8032; -5.2081086E-02;  0.0000000E+00; -2.4086846E-02;  9.8830701E+02;  2.7161738E-01; -9.6867256E+03;3;  1.8707218E+01;  0.0000000E+00;  4.7753553E+00;0;  1.7975571E+00;  5.4018975E+03;  0.0000000E+00;  2.0116395E-01;  4.0000000E+04;  0.0000000E+00;  3.9277922E+04;  2.2517557E+00;  0.0000000E+00; -4.5419863E-01;  9.2561279E+02;
  1.0908397E+00;  9.9999998E-03; -6.0607880E-02;8021; -5.0347790E-02;  0.0000000E+00;  2.8762965E-02;  9.8865039E+02;  2.7159083E-01; -9.4022598E+03;3;  1.8970711E+01;  0.0000000E+00; -5.5524588E+00;0;  1.7602111E+00;  5.4070698E+03;  0.0000000E+00;  2.5218913E-01;  4.0000000E+04;  0.0000000E+00;  3.9278094E+04;  2.2038329E+00;  0.0000000E+00; -4.4362175E-01;  1.0722905E+03;
  1.0908399E+00;  9.9999998E-03;  6.0607895E-02;8033; -5.0347798E-02;  0.0000000E+00; -2.8762767E-02;  9.8865063E+02;  2.7158996E-01; -9.4020615E+03;3;  1.8970619E+01;  0.0000000E+00;  5.5527291E+00;0;  1.7602144E+00;  5.4070698E+03;  0.0000000E+00;  2.5224015E-01;  4.0000000E+04;  0.0000000E+00;  3.9278094E+04;  2.2038367E+00;  0.0000000E+00; -4.4362223E-01;  1.0723701E+03;
  1.0910318E+00;  9.9999998E-03; -7.0718102E-02;8020; -4.8185825E-02;  0.0000000E+00;  3.3449244E-02;  9.8901703E+02;  2.7156407E-01; -9.0985352E+03;3;  1.9575146E+01;  0.0000000E+00; -6.5765090E+00;0;  1.7217852E+00;  5.4125127E+03;  0.0000000E+00;  2.7378857E-01;  4.0000000E+04;  0.0000000E+00;  3.9279699E+04;  2.1529093E+00;  0.0000000E+00; -4.3112412E-01;  1.2405801E+03;
  1.0913860E+00;  9.9999998E-03; -8.0809988E-02;8019; -4.5586899E-02;  0.0000000E+00;  3.8218781E-02;  9.8939441E+02;  2.7154499E-01; -8.7858721E+03;3;  2.0172390E+01;  0.0000000E+00; -7.5951719E+00;0;  1.6860154E+00;  5.4180728E+03;  0.0000000E+00;  2.4842054E-01;  4.0000000E+04;  0.0000000E+00;  3.9282012E+04;  2.1028609E+00;  0.0000000E+00; -4.1684556E-01;  1.3958433E+03;
  1.0918896E+00;  9.9999998E-03; -9.0888999E-02;8018; -4.2414494E-02;  0.0000000E+00;  4.3064412E-02;  9.8977777E+02;  2.7152839E-01; -8.4683193E+03;3;  2.1061522E+01;  0.0000000E+00; -8.8119383E+00;0;  1.6516405E+00;  5.4239424E+03;  0.0000000E+00;  1.6889732E-01;  4.0000000E+04;  0.0000000E+00;  3.9284773E+04;  2.0522168E+00;  0.0000000E+00; -4.0057620E-01;  1.5609940E+03;
  1.0923429E+00;  9.9999998E-03; -1.0096479E-01;8017; -3.8705479E-02;  0.0000000E+00;  4.7799069E-02;  9.9021564E+02;  2.7150851E-01; -8.1055376E+03;3;  2.1404356E+01;  0.0000000E+00; -9.5432081E+00;0;  1.6075563E+00;  5.4308169E+03;  0.0000000E+00;  4.6814341E-02;  4.0000000E+04;  0.0000000E+00;  3.9287391E+04;  1.9889877E+00;  0.0000000E+00; -3.8143131E-01;  1.7554530E+03;
  1.1188329E+00;  9.9999998E-03; -1.0114159E-02;8087; -1.5478708E-02;  0.0000000E+00;  7.0796073E-03;  9.8557886E+02;  2.6828519E-01; -1.1946338E+04;3; -9.0106682E+01;  0.0000000E+00; -2.5263987E+00;0;  3.8959231E+00;  5.5100293E+03;  0.0000000E+00;  4.8841676E-03;  4.0000000E+04;  0.0000000E+00;  3.9241871E+04;  4.4565444E+00;  0.0000000E+00; -5.6062138E-01;  3.5032649E+03;
  1.1188540E+00;  9.9999998E-03;  8.3217291E-09;8088; -1.4955767E-02;  0.0000000E+00;  1.0724489E-07;  9.8555457E+02;  2.6828822E-01; -1.1966434E+04;3; -9.1097816E+01;  0.0000000E+00; -3.1675852E-05;0;  3.9046731E+00;  5.5096304E+03;  0.0000000E+00;  1.0239155E-10;  4.0000000E+04;  0.0000000E+00;  3.9241750E+04;  4.4663343E+00;  0.0000000E+00; -5.6166112E-01;  3.5001013E+03;
  1.1188329E+00;  9.9999998E-03;  1.0114176E-02;8089; -1.5479395E-02;  0.0000000E+00; -7.0793945E-03;  9.8557892E+02;  2.6828539E-01; -1.1946289E+04;3; -9.0106277E+01;  0.0000000E+00;  2.5262728E+00;0;  3.8959208E+00;  5.5100293E+03;  0.0000000E+00;  4.8935898E-03;  4.0000000E+04;  0.0000000E+00;  3.9241875E+04;  4.4565425E+00;  0.0000000E+00; -5.6062180E-01;  3.5032637E+03;
  1.1187786E+00;  9.9999998E-03; -2.0223632E-02;8086; -1.6842071E-02;  0.0000000E+00;  1.4161949E-02;  9.8566608E+02;  2.6827517E-01; -1.1874053E+04;3; -8.7309975E+01;  0.0000000E+00; -4.4447260E+00;0;  3.8705430E+00;  5.5112139E+03;  0.0000000E+00;  2.0307593E-02;  4.0000000E+04;  0.0000000E+00;  3.9241914E+04;  4.4280500E+00;  0.0000000E+00; -5.5750692E-01;  3.5067812E+03;
  1.1187786E+00;  9.9999998E-03;  2.0223649E-02;8090; -1.6842913E-02;  0.0000000E+00; -1.4161736E-02;  9.8566589E+02;  2.6827583E-01; -1.1874201E+04;3; -8.7309708E+01;  0.0000000E+00;  4.4445553E+00;0;  3.8705413E+00;  5.5112144E+03;  0.0000000E+00;  2.0327257E-02;  4.0000000E+04;  0.0000000E+00;  3.9241914E+04;  4.4280481E+00;  0.0000000E+00; -5.5750686E-01;  3.5067866E+03;
  1.1187017E+00;  9.9999998E-03; -3.0324856E-02;8085; -1.8944625E-02;  0.0000000E+00;  2.1189073E-02;  9.8579724E+02;  2.6825956E-01; -1.1765429E+04;3; -8.2563301E+01;  0.0000000E+00; -6.0406542E+00;0;  3.8297825E+00;  5.5132065E+03;  0.0000000E+00;  4.7646668E-02;  4.0000000E+04;  0.0000000E+00;  3.9242129E+04;  4.3820848E+00;  0.0000000E+00; -5.5230224E-01;  3.4876938E+03;
  1.1187017E+00;  9.9999998E-03;  3.0324873E-02;8091; -1.8944699E-02;  0.0000000E+00; -2.1188855E-02;  9.8579736E+02;  2.6825967E-01; -1.1765330E+04;3; -8.2563362E+01;  0.0000000E+00;  6.0406575E+00;0;  3.8297837E+00;  5.5132070E+03;  0.0000000E+00;  4.7677338E-02;  4.0000000E+04;  0.0000000E+00;  3.9242121E+04;  4.3820858E+00;  0.0000000E+00; -5.5230206E-01;  3.4876887E+03;
  1.1186476E+00;  9.9999998E-03; -4.0424585E-02;8084; -2.0756854E-02;  0.0000000E+00;  2.8044913E-02;  9.8598120E+02;  2.6823267E-01; -1.1613006E+04;3; -7.6667313E+01;  0.0000000E+00; -8.0408659E+00;0;  3.7777929E+00;  5.5159951E+03;  0.0000000E+00;  8.6402036E-02;  4.0000000E+04;  0.0000000E+00;  3.9242898E+04;  4.3228221E+00;  0.0000000E+00; -5.4502922E-01;  3.4105596E+03;
  1.1186476E+00;  9.9999998E-03;  4.0424604E-02;8092; -2.0756409E-02;  0.0000000E+00; -2.8044714E-02;  9.8598120E+02;  2.6823243E-01; -1.1613006E+04;3; -7.6667763E+01;  0.0000000E+00;  8.0408087E+00;0;  3.7777960E+00;  5.5159956E+03;  0.0000000E+00;  8.6446889E-02;  4.0000000E+04;  0.0000000E+00;  3.9242898E+04;  4.3228254E+00;  0.0000000E+00; -5.4502946E-01;  3.4106482E+03;
  1.1186314E+00;  9.9999998E-03; -5.0539639E-02;8083; -2.1950586E-02;  0.0000000E+00;  3.4774974E-02;  9.8619824E+02;  2.6819628E-01; -1.1433229E+04;3; -6.9607422E+01;  0.0000000E+00; -9.8572683E+00;0;  3.7161655E+00;  5.5195532E+03;  0.0000000E+00;  1.3149723E-01;  4.0000000E+04;  0.0000000E+00;  3.9244551E+04;  4.2517962E+00;  0.0000000E+00; -5.3563058E-01;  3.2355520E+03;
  1.1186314E+00;  9.9999998E-03;  5.0539657E-02;8093; -2.1950262E-02;  0.0000000E+00; -3.4774765E-02;  9.8619830E+02;  2.6819742E-01; -1.1433179E+04;3; -6.9607857E+01;  0.0000000E+00;  9.8572941E+00;0;  3.7161674E+00;  5.5195562E+03;  0.0000000E+00;  1.3154982E-01;  4.0000000E+04;  0.0000000E+00;  3.9244562E+04;  4.2517986E+00;  0.0000000E+00; -5.3563112E-01;  3.2355371E+03;
  1.1186560E+00;  9.9999998E-03; -6.0666036E-02;8082; -2.2473508E-02;  0.0000000E+00;  4.1367907E-02;  9.8644507E+02;  2.6815331E-01; -1.1228763E+04;3; -6.2198853E+01;  0.0000000E+00; -1.1031406E+01;0;  3.6454473E+00;  5.5237432E+03;  0.0000000E+00;  1.7136884E-01;  4.0000000E+04;  0.0000000E+00;  3.9247254E+04;  4.1694803E+00;  0.0000000E+00; -5.2403313E-01;  2.9285100E+03;
  1.1186560E+00;  9.9999998E-03;  6.0666058E-02;8094; -2.2472359E-02;  0.0000000E+00; -4.1367747E-02;  9.8644513E+02;  2.6815370E-01; -1.1228713E+04;3; -6.2199982E+01;  0.0000000E+00;  1.1031333E+01;0;  3.6454492E+00;  5.5237432E+03;  0.0000000E+00;  1.7142805E-01;  4.0000000E+04;  0.0000000E+00;  3.9247250E+04;  4.1694832E+00;  0.0000000E+00; -5.2403396E-01;  2.9284729E+03;
  1.1187489E+00;  9.9999998E-03; -7.0780434E-02;8081; -2.1752980E-02;  0.0000000E+00;  4.7850639E-02;  9.8671619E+02;  2.6810414E-01; -1.1004149E+04;3; -5.5210140E+01;  0.0000000E+00; -1.1881236E+01;0;  3.5680413E+00;  5.5284697E+03;  0.0000000E+00;  1.8885168E-01;  4.0000000E+04;  0.0000000E+00;  3.9251227E+04;  4.0782809E+00;  0.0000000E+00; -5.1023954E-01;  2.4798799E+03;
  1.1189355E+00;  9.9999998E-03; -8.0873974E-02;8080; -1.9367000E-02;  0.0000000E+00;  5.4185700E-02;  9.8698975E+02;  2.6804772E-01; -1.0777562E+04;3; -4.8672218E+01;  0.0000000E+00; -1.2733005E+01;0;  3.4857056E+00;  5.5336475E+03;  0.0000000E+00;  1.6727161E-01;  4.0000000E+04;  0.0000000E+00;  3.9255801E+04;  3.9799719E+00;  0.0000000E+00; -4.9426633E-01;  1.9295291E+03;
  1.1191998E+00;  9.9999998E-03; -9.0942003E-02;8079; -1.5704826E-02;  0.0000000E+00;  6.0444631E-02;  9.8726752E+02;  2.6799193E-01; -1.0547466E+04;3; -4.3153008E+01;  0.0000000E+00; -1.3212920E+01;0;  3.3967764E+00;  5.5393604E+03;  0.0000000E+00;  9.9874385E-02;  4.0000000E+04;  0.0000000E+00;  3.9260301E+04;  3.8728337E+00;  0.0000000E+00; -4.7605723E-01;  1.3708402E+03;
  1.1195645E+00;  9.9999998E-03; -1.0099069E-01;8078; -1.0703178E-02;  0.0000000E+00;  6.6550277E-02;  9.8755798E+02;  2.6792365E-01; -1.0306801E+04;3; -3.7540897E+01;  0.0000000E+00; -1.3571307E+01;0;  3.3022039E+00;  5.5458462E+03;  0.0000000E+00; -2.3417664E-03;  4.0000000E+04;  0.0000000E+00;  3.9263973E+04;  3.7578034E+00;  0.0000000E+00; -4.5559946E-01;  9.3596075E+02;
  1.1468505E+00;  9.9999998E-03; -1.0125365E-02;8148;  1.9751976E-01;  0.0000000E+00;  8.4589524E-03;  9.8838263E+02;  2.6270223E-01; -9.6231416E+03;3; -1.6061258E+02;  0.0000000E+00;  1.6041748E-01;0;  6.0141029E+00;  5.7835371E+03;  0.0000000E+00; -3.3924882E-03;  4.0000000E+04;  0.0000000E+00;  3.9195531E+04;  6.5642910E+00;  0.0000000E+00; -5.5018824E-01;  9.8404004E+03;
  1.1468872E+00;  9.9999998E-03;  1.1091736E-08;8149;  1.9901763E-01;  0.0000000E+00;  2.5703017E-07;  9.8836896E+02;  2.6270133E-01; -9.6344961E+03;3; -1.6084213E+02;  0.0000000E+00; -3.1348085E-05;0;  6.0242047E+00;  5.7835508E+03;  0.0000000E+00;  1.9784198E-10;  4.0000000E+04;  0.0000000E+00;  3.9195180E+04;  6.5749531E+00;  0.0000000E+00; -5.5074841E-01;  9.8952021E+03;
  1.1468505E+00;  9.9999998E-03;  1.0125387E-02;8150;  1.9751905E-01;  0.0000000E+00; -8.4584486E-03;  9.8838281E+02;  2.6270121E-01; -9.6229941E+03;3; -1.6061270E+02;  0.0000000E+00; -1.6049173E-01;0;  6.0140996E+00;  5.7835366E+03;  0.0000000E+00; -3.3891744E-03;  4.0000000E+04;  0.0000000E+00;  3.9195527E+04;  6.5642881E+00;  0.0000000E+00; -5.5018836E-01;  9.8404316E+03;
  1.1467488E+00;  9.9999998E-03; -2.0247197E-02;8147;  1.9320060E-01;  0.0000000E+00;  1.6891357E-02;  9.8841425E+02;  2.6270077E-01; -9.5969766E+03;3; -1.5991624E+02;  0.0000000E+00;  3.1249204E-01;0;  5.9843597E+00;  5.7836172E+03;  0.0000000E+00; -1.1960818E-02;  4.0000000E+04;  0.0000000E+00;  3.9196766E+04;  6.5328107E+00;  0.0000000E+00; -5.4845113E-01;  9.6778428E+03;
  1.1467488E+00;  9.9999998E-03;  2.0247221E-02;8151;  1.9320086E-01;  0.0000000E+00; -1.6890850E-02;  9.8841467E+02;  2.6270029E-01; -9.5966309E+03;3; -1.5991612E+02;  0.0000000E+00; -3.1253690E-01;0;  5.9843636E+00;  5.7836191E+03;  0.0000000E+00; -1.1953213E-02;  4.0000000E+04;  0.0000000E+00;  3.9196762E+04;  6.5328150E+00;  0.0000000E+00; -5.4845130E-01;  9.6778945E+03;
  1.1465834E+00;  9.9999998E-03; -3.0368444E-02;8146;  1.8600395E-01;  0.0000000E+00;  2.5289964E-02;  9.8846777E+02;  2.6269892E-01; -9.5526436E+03;3; -1.5864133E+02;  0.0000000E+00;  3.2045972E-01;0;  5.9350743E+00;  5.7837432E+03;  0.0000000E+00; -2.1189319E-02;  4.0000000E+04;  0.0000000E+00;  3.9199055E+04;  6.4805069E+00;  0.0000000E+00; -5.4543251E-01;  9.4026191E+03;
  1.1465834E+00;  9.9999998E-03;  3.0368472E-02;8152;  1.8600331E-01;  0.0000000E+00; -2.5289491E-02;  9.8846735E+02;  2.6269814E-01; -9.5529883E+03;3; -1.5864149E+02;  0.0000000E+00; -3.2047212E-01;0;  5.9350739E+00;  5.7837456E+03;  0.0000000E+00; -2.1174256E-02;  4.0000000E+04;  0.0000000E+00;  3.9199055E+04;  6.4805064E+00;  0.0000000E+00; -5.4543251E-01;  9.4026602E+03;
  1.1463780E+00;  9.9999998E-03; -4.0496670E-02;8145;  1.7632185E-01;  0.0000000E+00;  3.3592813E-02;  9.8853162E+02;  2.6269102E-01; -9.4997705E+03;3; -1.5670163E+02;  0.0000000E+00;  4.2230979E-01;0;  5.8677940E+00;  5.7840122E+03;  0.0000000E+00; -2.4971306E-02;  4.0000000E+04;  0.0000000E+00;  3.9202359E+04;  6.4087281E+00;  0.0000000E+00; -5.4093426E-01;  9.0020273E+03;
  1.1463780E+00;  9.9999998E-03;  4.0496700E-02;8153;  1.7632142E-01;  0.0000000E+00; -3.3592369E-02;  9.8853156E+02;  2.6269093E-01; -9.4998193E+03;3; -1.5670174E+02;  0.0000000E+00; -4.2237934E-01;0;  5.8677921E+00;  5.7840142E+03;  0.0000000E+00; -2.4947261E-02;  4.0000000E+04;  0.0000000E+00;  3.9202359E+04;  6.4087272E+00;  0.0000000E+00; -5.4093486E-01;  9.0020361E+03;
  1.1461823E+00;  9.9999998E-03; -5.0616514E-02;8144;  1.6521862E-01;  0.0000000E+00;  4.1764174E-02;  9.8860767E+02;  2.6267090E-01; -9.4367744E+03;3; -1.5396660E+02;  0.0000000E+00;  2.3120458E-01;0;  5.7860866E+00;  5.7847061E+03;  0.0000000E+00; -1.8516092E-02;  4.0000000E+04;  0.0000000E+00;  3.9206926E+04;  6.3207974E+00;  0.0000000E+00; -5.3471094E-01;  8.4559873E+03;
  1.1461823E+00;  9.9999998E-03;  5.0616540E-02;8154;  1.6521877E-01;  0.0000000E+00; -4.1763745E-02;  9.8860797E+02;  2.6266932E-01; -9.4365273E+03;3; -1.5396660E+02;  0.0000000E+00; -2.3125382E-01;0;  5.7860823E+00;  5.7847031E+03;  0.0000000E+00; -1.8482082E-02;  4.0000000E+04;  0.0000000E+00;  3.9206930E+04;  6.3207936E+00;  0.0000000E+00; -5.3471136E-01;  8.4560146E+03;
  1.1460449E+00;  9.9999998E-03; -6.0739040E-02;8143;  1.5386601E-01;  0.0000000E+00;  4.9636126E-02;  9.8869061E+02;  2.6263499E-01; -9.3680508E+03;3; -1.4975612E+02;  0.0000000E+00; -1.2057804E-01;0;  5.6933513E+00;  5.7860298E+03;  0.0000000E+00; -1.6236885E-03;  4.0000000E+04;  0.0000000E+00;  3.9212508E+04;  6.2199273E+00;  0.0000000E+00; -5.2657586E-01;  7.7651772E+03;
  1.1460449E+00;  9.9999998E-03;  6.0739070E-02;8155;  1.5386589E-01;  0.0000000E+00; -4.9635708E-02;  9.8869067E+02;  2.6263475E-01; -9.3680020E+03;3; -1.4975603E+02;  0.0000000E+00;  1.2052943E-01;0;  5.6933470E+00;  5.7860298E+03;  0.0000000E+00; -1.5783969E-03;  4.0000000E+04;  0.0000000E+00;  3.9212504E+04;  6.2199235E+00;  0.0000000E+00; -5.2657646E-01;  7.7651597E+03;
  1.1460248E+00;  9.9999998E-03; -7.0857123E-02;8142;  1.4381939E-01;  0.0000000E+00;  5.7152454E-02;  9.8877643E+02;  2.6257715E-01; -9.2969531E+03;3; -1.4441808E+02;  0.0000000E+00; -1.0108680E-01;0;  5.5938406E+00;  5.7882100E+03;  0.0000000E+00;  1.9753881E-02;  4.0000000E+04;  0.0000000E+00;  3.9219070E+04;  6.1102448E+00;  0.0000000E+00; -5.1640427E-01;  6.9670303E+03;
  1.1462755E+00;  9.9999998E-03; -8.0956668E-02;8141;  1.3860199E-01;  0.0000000E+00;  6.4366326E-02;  9.8886859E+02;  2.6248085E-01; -9.2206162E+03;3; -1.3753262E+02;  0.0000000E+00; -2.6334128E-01;0;  5.4983492E+00;  5.7922324E+03;  0.0000000E+00;  3.5678130E-02;  4.0000000E+04;  0.0000000E+00;  3.9225766E+04;  6.0023856E+00;  0.0000000E+00; -5.0403655E-01;  6.1579492E+03;
  1.1467246E+00;  9.9999998E-03; -9.1034040E-02;8140;  1.3660863E-01;  0.0000000E+00;  7.1292274E-02;  9.8894287E+02;  2.6236105E-01; -9.1590869E+03;3; -1.2936151E+02;  0.0000000E+00; -4.2726107E-02;0;  5.4017701E+00;  5.7974438E+03;  0.0000000E+00;  4.0996522E-02;  4.0000000E+04;  0.0000000E+00;  3.9231926E+04;  5.8915076E+00;  0.0000000E+00; -4.8973736E-01;  5.4328599E+03;
  1.1471986E+00;  9.9999998E-03; -1.0109023E-01;8139;  1.3351227E-01;  0.0000000E+00;  7.7883661E-02;  9.8898694E+02;  2.6223987E-01; -9.1225908E+03;3; -1.2082932E+02;  0.0000000E+00; -1.2568675E-02;0;  5.2920842E+00;  5.8026660E+03;  0.0000000E+00;  4.0128928E-02;  4.0000000E+04;  0.0000000E+00;  3.9236895E+04;  5.7658849E+00;  0.0000000E+00; -4.7380084E-01;  4.8559932E+03;
  1.1734636E+00;  9.9999998E-03; -6.0756948E-02;8204;  4.0636516E-01;  0.0000000E+00;  4.2650778E-02;  9.9311340E+02;  2.5544629E-01; -5.7039854E+03;3; -1.7894771E+02;  0.0000000E+00;  8.3565540E+00;0;  7.1366320E+00;  6.1739868E+03;  0.0000000E+00; -8.1291243E-02;  4.0000000E+04;  0.0000000E+00;  3.9173223E+04;  7.5549083E+00;  0.0000000E+00; -4.1827643E-01;  1.3635335E+04;
  1.1734636E+00;  9.9999998E-03;  6.0756985E-02;8216;  4.0636507E-01;  0.0000000E+00; -4.2650189E-02;  9.9311322E+02;  2.5544554E-01; -5.7041333E+03;3; -1.7894780E+02;  0.0000000E+00; -8.3565178E+00;0;  7.1366305E+00;  6.1739873E+03;  0.0000000E+00; -8.1283316E-02;  4.0000000E+04;  0.0000000E+00;  3.9173223E+04;  7.5549064E+00;  0.0000000E+00; -4.1827580E-01;  1.3635317E+04;
  1.1734998E+00;  9.9999998E-03; -5.0607294E-02;8205;  4.1882837E-01;  0.0000000E+00;  3.5769660E-02;  9.9314301E+02;  2.5550535E-01; -5.6794478E+03;3; -1.8099443E+02;  0.0000000E+00;  7.1518641E+00;0;  7.1943502E+00;  6.1733311E+03;  0.0000000E+00; -7.2088689E-02;  4.0000000E+04;  0.0000000E+00;  3.9166715E+04;  7.6117425E+00;  0.0000000E+00; -4.1739237E-01;  1.4469081E+04;
  1.1734997E+00;  9.9999998E-03;  5.0607324E-02;8215;  4.1882750E-01;  0.0000000E+00; -3.5769109E-02;  9.9314325E+02;  2.5550553E-01; -5.6792500E+03;3; -1.8099455E+02;  0.0000000E+00; -7.1518388E+00;0;  7.1943426E+00;  6.1733325E+03;  0.0000000E+00; -7.2087385E-02;  4.0000000E+04;  0.0000000E+00;  3.9166715E+04;  7.6117353E+00;  0.0000000E+00; -4.1739258E-01;  1.4469104E+04;
  1.1735058E+00;  9.9999998E-03; -7.0894971E-02;8203;  3.9311644E-01;  0.0000000E+00;  4.9310673E-02;  9.9307361E+02;  2.5536603E-01; -5.7369624E+03;3; -1.7601288E+02;  0.0000000E+00;  9.6643429E+00;0;  7.0701661E+00;  6.1752798E+03;  0.0000000E+00; -7.3764235E-02;  4.0000000E+04;  0.0000000E+00;  3.9181160E+04;  7.4880714E+00;  0.0000000E+00; -4.1790521E-01;  1.2682092E+04;
  1.1736101E+00;  9.9999998E-03; -4.0455889E-02;8206;  4.3037874E-01;  0.0000000E+00;  2.8682515E-02;  9.9316815E+02;  2.5553954E-01; -5.6586118E+03;3; -1.8207257E+02;  0.0000000E+00;  5.7936034E+00;0;  7.2431874E+00;  6.1734453E+03;  0.0000000E+00; -5.3568132E-02;  4.0000000E+04;  0.0000000E+00;  3.9161039E+04;  7.6586514E+00;  0.0000000E+00; -4.1546386E-01;  1.5145141E+04;
  1.1736101E+00;  9.9999998E-03;  4.0455926E-02;8214;  4.3037829E-01;  0.0000000E+00; -2.8681936E-02;  9.9316791E+02;  2.5553906E-01; -5.6588091E+03;3; -1.8207272E+02;  0.0000000E+00; -5.7936196E+00;0;  7.2431889E+00;  6.1734458E+03;  0.0000000E+00; -5.3569578E-02;  4.0000000E+04;  0.0000000E+00;  3.9161043E+04;  7.6586523E+00;  0.0000000E+00; -4.1546351E-01;  1.5145183E+04;
  1.1736059E+00;  9.9999998E-03; -8.1015974E-02;8202;  3.7881452E-01;  0.0000000E+00;  5.5743732E-02;  9.9299872E+02;  2.5527063E-01; -5.7989673E+03;3; -1.7222754E+02;  0.0000000E+00;  1.0811007E+01;0;  6.9943194E+00;  6.1767222E+03;  0.0000000E+00; -4.2824280E-02;  4.0000000E+04;  0.0000000E+00;  3.9189328E+04;  7.4105978E+00;  0.0000000E+00; -4.1627827E-01;  1.1685454E+04;
  1.1737523E+00;  9.9999998E-03; -3.0328399E-02;8207;  4.4023439E-01;  0.0000000E+00;  2.1480177E-02;  9.9319537E+02;  2.5555459E-01; -5.6360967E+03;3; -1.8247025E+02;  0.0000000E+00;  4.4496822E+00;0;  7.2820292E+00;  6.1741465E+03;  0.0000000E+00; -3.2870933E-02;  4.0000000E+04;  0.0000000E+00;  3.9156969E+04;  7.6950717E+00;  0.0000000E+00; -4.1304252E-01;  1.5659454E+04;
  1.1737523E+00;  9.9999998E-03;  3.0328430E-02;8213;  4.4023395E-01;  0.0000000E+00; -2.1479590E-02;  9.9319550E+02;  2.5555557E-01; -5.6359980E+03;3; -1.8247009E+02;  0.0000000E+00; -4.4498062E+00;0;  7.2820277E+00;  6.1741465E+03;  0.0000000E+00; -3.2874834E-02;  4.0000000E+04;  0.0000000E+00;  3.9156969E+04;  7.6950703E+00;  0.0000000E+00; -4.1304237E-01;  1.5659537E+04;
  1.1737605E+00;  9.9999998E-03; -9.1117516E-02;8201;  3.6369815E-01;  0.0000000E+00;  6.1924987E-02;  9.9288348E+02;  2.5517246E-01; -5.8943945E+03;3; -1.6758934E+02;  0.0000000E+00;  1.1960556E+01;0;  6.9089427E+00;  6.1779937E+03;  0.0000000E+00;  1.7122705E-02;  4.0000000E+04;  0.0000000E+00;  3.9197312E+04;  7.3222904E+00;  0.0000000E+00; -4.1334766E-01;  1.0739078E+04;
  1.1738847E+00;  9.9999998E-03; -2.0216189E-02;8208;  4.4770280E-01;  0.0000000E+00;  1.4278864E-02;  9.9321802E+02;  2.5555995E-01; -5.6173340E+03;3; -1.8243669E+02;  0.0000000E+00;  3.0262895E+00;0;  7.3101559E+00;  6.1749507E+03;  0.0000000E+00; -1.5309820E-02;  4.0000000E+04;  0.0000000E+00;  3.9154105E+04;  7.7209058E+00;  0.0000000E+00; -4.1075000E-01;  1.6020580E+04;
  1.1738847E+00;  9.9999998E-03;  2.0216219E-02;8212;  4.4770256E-01;  0.0000000E+00; -1.4278258E-02;  9.9321808E+02;  2.5555992E-01; -5.6172847E+03;3; -1.8243668E+02;  0.0000000E+00; -3.0263572E+00;0;  7.3101530E+00;  6.1749536E+03;  0.0000000E+00; -1.5313302E-02;  4.0000000E+04;  0.0000000E+00;  3.9154105E+04;  7.7209029E+00;  0.0000000E+00; -4.1074985E-01;  1.6020633E+04;
  1.1739678E+00;  9.9999998E-03; -1.0108829E-02;8209;  4.5219120E-01;  0.0000000E+00;  7.1312916E-03;  9.9322852E+02;  2.5556129E-01; -5.6086426E+03;3; -1.8230887E+02;  0.0000000E+00;  1.5834279E+00;0;  7.3269410E+00;  6.1754482E+03;  0.0000000E+00; -3.9135767E-03;  4.0000000E+04;  0.0000000E+00;  3.9152387E+04;  7.7361374E+00;  0.0000000E+00; -4.0919647E-01;  1.6235012E+04;
  1.1739678E+00;  9.9999998E-03;  1.0108856E-02;8211;  4.5219079E-01;  0.0000000E+00; -7.1307048E-03;  9.9322845E+02;  2.5556123E-01; -5.6086924E+03;3; -1.8230887E+02;  0.0000000E+00; -1.5835028E+00;0;  7.3269377E+00;  6.1754478E+03;  0.0000000E+00; -3.9159004E-03;  4.0000000E+04;  0.0000000E+00;  3.9152395E+04;  7.7361341E+00;  0.0000000E+00; -4.0919659E-01;  1.6235042E+04;
  1.1739929E+00;  9.9999998E-03;  1.3339061E-08;8210;  4.5362347E-01;  0.0000000E+00;  2.9713010E-07;  9.9323157E+02;  2.5556290E-01; -5.6060757E+03;3; -1.8226987E+02;  0.0000000E+00; -4.1862870E-05;0;  7.3324432E+00;  6.1755757E+03;  0.0000000E+00;  1.6762404E-10;  4.0000000E+04;  0.0000000E+00;  3.9151941E+04;  7.7411156E+00;  0.0000000E+00; -4.0867251E-01;  1.6306091E+04;
  1.1739634E+00;  9.9999998E-03; -1.0120206E-01;8200;  3.4795508E-01;  0.0000000E+00;  6.7912340E-02;  9.9270709E+02;  2.5507006E-01; -6.0405215E+03;3; -1.6228613E+02;  0.0000000E+00;  1.3111150E+01;0;  6.8138142E+00;  6.1789233E+03;  0.0000000E+00;  1.1072052E-01;  4.0000000E+04;  0.0000000E+00;  3.9204059E+04;  7.2229252E+00;  0.0000000E+00; -4.0911111E-01;  9.9215869E+03;
  1.1998394E+00;  9.9999998E-03; -8.1071444E-02;8263;  6.4854586E-01;  0.0000000E+00;  3.3459585E-02;  9.9788177E+02;  2.4665722E-01; -1.7542584E+03;3; -1.6683311E+02;  0.0000000E+00;  2.4941832E+01;0;  7.3854990E+00;  6.6823926E+03;  0.0000000E+00;  8.9687563E-02;  4.0000000E+04;  0.0000000E+00;  3.9157566E+04;  7.6216793E+00;  0.0000000E+00; -2.3618010E-01;  1.6868496E+04;
  1.1998073E+00;  9.9999998E-03; -9.1192558E-02;8262;  6.3066918E-01;  0.0000000E+00;  3.7860308E-02;  9.9770776E+02;  2.4660411E-01; -1.8983491E+03;3; -1.6658672E+02;  0.0000000E+00;  2.7379107E+01;0;  7.3665123E+00;  6.6802080E+03;  0.0000000E+00;  1.2178040E-01;  4.0000000E+04;  0.0000000E+00;  3.9165293E+04;  7.6157160E+00;  0.0000000E+00; -2.4920346E-01;  1.5893664E+04;
  1.1999676E+00;  9.9999998E-03; -7.0928104E-02;8264;  6.6583931E-01;  0.0000000E+00;  2.8983925E-02;  9.9803729E+02;  2.4668998E-01; -1.6254694E+03;3; -1.6625261E+02;  0.0000000E+00;  2.2265097E+01;0;  7.3987069E+00;  6.6852256E+03;  0.0000000E+00;  7.7891849E-02;  4.0000000E+04;  0.0000000E+00;  3.9149898E+04;  7.6206298E+00;  0.0000000E+00; -2.2192279E-01;  1.7826848E+04;
  1.1998820E+00;  9.9999998E-03; -1.0129299E-01;8261;  6.1263484E-01;  0.0000000E+00;  4.2127188E-02;  9.9750287E+02;  2.4653231E-01; -2.0680579E+03;3; -1.6538664E+02;  0.0000000E+00;  2.9636696E+01;0;  7.3416777E+00;  6.6787319E+03;  0.0000000E+00;  1.8505436E-01;  4.0000000E+04;  0.0000000E+00;  3.9173000E+04;  7.6024895E+00;  0.0000000E+00; -2.6081201E-01;  1.4986432E+04;
  1.2001525E+00;  9.9999998E-03; -6.0760390E-02;8265;  6.8184370E-01;  0.0000000E+00;  2.4512803E-02;  9.9819067E+02;  2.4670979E-01; -1.4984078E+03;3; -1.6510738E+02;  0.0000000E+00;  1.9466358E+01;0;  7.4068508E+00;  6.6884131E+03;  0.0000000E+00;  7.3822357E-02;  4.0000000E+04;  0.0000000E+00;  3.9143148E+04;  7.6138749E+00;  0.0000000E+00; -2.0702404E-01;  1.8678596E+04;
  1.2001525E+00;  9.9999998E-03;  6.0760420E-02;8277;  6.8184304E-01;  0.0000000E+00; -2.4512252E-02;  9.9819055E+02;  2.4670976E-01; -1.4985559E+03;3; -1.6510768E+02;  0.0000000E+00; -1.9466232E+01;0;  7.4068437E+00;  6.6884126E+03;  0.0000000E+00;  7.3795654E-02;  4.0000000E+04;  0.0000000E+00;  3.9143152E+04;  7.6138678E+00;  0.0000000E+00; -2.0702432E-01;  1.8678578E+04;
  1.2003839E+00;  9.9999998E-03; -1.0097728E-02;8270;  7.2204095E-01;  0.0000000E+00;  4.0027760E-03;  9.9854077E+02;  2.4685998E-01; -1.2084987E+03;3; -1.6190196E+02;  0.0000000E+00;  3.3994451E+00;0;  7.4223332E+00;  6.6898901E+03;  0.0000000E+00;  4.8742131E-03;  4.0000000E+04;  0.0000000E+00;  3.9128000E+04;  7.5807257E+00;  0.0000000E+00; -1.5839231E-01;  2.0583908E+04;
  1.2003815E+00;  9.9999998E-03;  1.4474048E-08;8271;  7.2311240E-01;  0.0000000E+00;  2.8287201E-07;  9.9854932E+02;  2.4686643E-01; -1.2013904E+03;3; -1.6182507E+02;  0.0000000E+00; -4.3394801E-05;0;  7.4227581E+00;  6.6897354E+03;  0.0000000E+00;  9.5538175E-11;  4.0000000E+04;  0.0000000E+00;  3.9127559E+04;  7.5795922E+00;  0.0000000E+00; -1.5683408E-01;  2.0628131E+04;
  1.2003839E+00;  9.9999998E-03;  1.0097758E-02;8272;  7.2204006E-01;  0.0000000E+00; -4.0022116E-03;  9.9854108E+02;  2.4685855E-01; -1.2082518E+03;3; -1.6190224E+02;  0.0000000E+00; -3.3995566E+00;0;  7.4223285E+00;  6.6898906E+03;  0.0000000E+00;  4.8689619E-03;  4.0000000E+04;  0.0000000E+00;  3.9128008E+04;  7.5807214E+00;  0.0000000E+00; -1.5839273E-01;  2.0583971E+04;
  1.2003889E+00;  9.9999998E-03; -2.0197211E-02;8269;  7.1881765E-01;  0.0000000E+00;  8.0088032E-03;  9.9851685E+02;  2.4683923E-01; -1.2282930E+03;3; -1.6213660E+02;  0.0000000E+00;  6.7725720E+00;0;  7.4210505E+00;  6.6903486E+03;  0.0000000E+00;  1.8128321E-02;  4.0000000E+04;  0.0000000E+00;  3.9128953E+04;  7.5840540E+00;  0.0000000E+00; -1.6300344E-01;  2.0449781E+04;
  1.2003889E+00;  9.9999998E-03;  2.0197244E-02;8273;  7.1881753E-01;  0.0000000E+00; -8.0082230E-03;  9.9851672E+02;  2.4683923E-01; -1.2283917E+03;3; -1.6213657E+02;  0.0000000E+00; -6.7726517E+00;0;  7.4210477E+00;  6.6903486E+03;  0.0000000E+00;  1.8117990E-02;  4.0000000E+04;  0.0000000E+00;  3.9128949E+04;  7.5840511E+00;  0.0000000E+00; -1.6300322E-01;  2.0449818E+04;
  1.2003967E+00;  9.9999998E-03; -3.0305801E-02;8268;  7.1348959E-01;  0.0000000E+00;  1.2017593E-02;  9.9847400E+02;  2.4680364E-01; -1.2637848E+03;3; -1.6249199E+02;  0.0000000E+00;  1.0079659E+01;0;  7.4187469E+00;  6.6910308E+03;  0.0000000E+00;  3.6128033E-02;  4.0000000E+04;  0.0000000E+00;  3.9130902E+04;  7.5891423E+00;  0.0000000E+00; -1.7039549E-01;  2.0217801E+04;
  1.2003967E+00;  9.9999998E-03;  3.0305836E-02;8274;  7.1348858E-01;  0.0000000E+00; -1.2017041E-02;  9.9847412E+02;  2.4680459E-01; -1.2636860E+03;3; -1.6249222E+02;  0.0000000E+00; -1.0079686E+01;0;  7.4187493E+00;  6.6910278E+03;  0.0000000E+00;  3.6110904E-02;  4.0000000E+04;  0.0000000E+00;  3.9130898E+04;  7.5891452E+00;  0.0000000E+00; -1.7039588E-01;  2.0217824E+04;
  1.2003988E+00;  9.9999998E-03; -4.0433630E-02;8267;  7.0603424E-01;  0.0000000E+00;  1.6041193E-02;  9.9841229E+02;  2.4676014E-01; -1.3148752E+03;3; -1.6296793E+02;  0.0000000E+00;  1.3327617E+01;0;  7.4153152E+00;  6.6916973E+03;  0.0000000E+00;  5.4109395E-02;  4.0000000E+04;  0.0000000E+00;  3.9133559E+04;  7.5955396E+00;  0.0000000E+00; -1.8022427E-01;  1.9867357E+04;
  1.2003988E+00;  9.9999998E-03;  4.0433668E-02;8275;  7.0603323E-01;  0.0000000E+00; -1.6040627E-02;  9.9841235E+02;  2.4676120E-01; -1.3148259E+03;3; -1.6296808E+02;  0.0000000E+00; -1.3327621E+01;0;  7.4153123E+00;  6.6916963E+03;  0.0000000E+00;  5.4088585E-02;  4.0000000E+04;  0.0000000E+00;  3.9133559E+04;  7.5955367E+00;  0.0000000E+00; -1.8022439E-01;  1.9867420E+04;
  1.2003518E+00;  9.9999998E-03; -5.0585128E-02;8266;  6.9594270E-01;  0.0000000E+00;  2.0139134E-02;  9.9832886E+02;  2.4671896E-01; -1.3839833E+03;3; -1.6370079E+02;  0.0000000E+00;  1.6420578E+01;0;  7.4111071E+00;  6.6914731E+03;  0.0000000E+00;  6.7590445E-02;  4.0000000E+04;  0.0000000E+00;  3.9137738E+04;  7.6034498E+00;  0.0000000E+00; -1.9234294E-01;  1.9365877E+04;
  1.2003518E+00;  9.9999998E-03;  5.0585166E-02;8276;  6.9594294E-01;  0.0000000E+00; -2.0138528E-02;  9.9832837E+02;  2.4671790E-01; -1.3843782E+03;3; -1.6370076E+02;  0.0000000E+00; -1.6420534E+01;0;  7.4111023E+00;  6.6914741E+03;  0.0000000E+00;  6.7565210E-02;  4.0000000E+04;  0.0000000E+00;  3.9137738E+04;  7.6034451E+00;  0.0000000E+00; -1.9234280E-01;  1.9365930E+04;
  1.2244556E+00;  9.9999998E-03; -1.0128055E-01;8322;  8.6206025E-01;  0.0000000E+00; -1.1766703E-02;  1.0020078E+03;  2.3670654E-01;  1.6625614E+03;3; -1.3058446E+02;  0.0000000E+00;  4.6179329E+01;0;  6.7855148E+00;  7.3081318E+03;  0.0000000E+00;  5.7212228E-01;  4.0000000E+04;  0.0000000E+00;  3.9156816E+04;  6.8436713E+00;  0.0000000E+00; -5.8156393E-02;  1.8432016E+04;
  1.2246592E+00;  9.9999998E-03; -9.1166399E-02;8323;  8.8027817E-01;  0.0000000E+00; -1.4364398E-02;  1.0021808E+03;  2.3668143E-01;  1.8057856E+03;3; -1.2667632E+02;  0.0000000E+00;  4.5305130E+01;0;  6.7234616E+00;  7.3145239E+03;  0.0000000E+00;  5.8799279E-01;  4.0000000E+04;  0.0000000E+00;  3.9150883E+04;  6.7545924E+00;  0.0000000E+00; -3.1130958E-02;  1.9190738E+04;
  1.2249380E+00;  9.9999998E-03; -8.1034340E-02;8324;  8.9755654E-01;  0.0000000E+00; -1.6880879E-02;  1.0023499E+03;  2.3663935E-01;  1.9457509E+03;3; -1.2240788E+02;  0.0000000E+00;  4.4788048E+01;0;  6.6595864E+00;  7.3217778E+03;  0.0000000E+00;  5.7334965E-01;  4.0000000E+04;  0.0000000E+00;  3.9145449E+04;  6.6632371E+00;  0.0000000E+00; -3.6508255E-03;  1.9888988E+04;
  1.2251836E+00;  9.9999998E-03; -7.0871681E-02;8325;  9.1284114E-01;  0.0000000E+00; -1.9178806E-02;  1.0025028E+03;  2.3660885E-01;  2.0723904E+03;3; -1.1831027E+02;  0.0000000E+00;  4.4325161E+01;0;  6.5997767E+00;  7.3277754E+03;  0.0000000E+00;  5.2323341E-01;  4.0000000E+04;  0.0000000E+00;  3.9140965E+04;  6.5769639E+00;  0.0000000E+00;  2.2812761E-02;  2.0460771E+04;
  1.2253128E+00;  9.9999998E-03; -6.0703501E-02;8326;  9.2544943E-01;  0.0000000E+00; -2.1090545E-02;  1.0026270E+03;  2.3661549E-01;  2.1752427E+03;3; -1.1479178E+02;  0.0000000E+00;  4.2884136E+01;0;  6.5497708E+00;  7.3307402E+03;  0.0000000E+00;  4.4145125E-01;  4.0000000E+04;  0.0000000E+00;  3.9137816E+04;  6.5029850E+00;  0.0000000E+00;  4.6785824E-02;  2.0870338E+04;
  1.2253128E+00;  9.9999998E-03;  6.0703542E-02;8338;  9.2544913E-01;  0.0000000E+00;  2.1091256E-02;  1.0026273E+03;  2.3661587E-01;  2.1755386E+03;3; -1.1479192E+02;  0.0000000E+00; -4.2884171E+01;0;  6.5497680E+00;  7.3307407E+03;  0.0000000E+00;  4.4141167E-01;  4.0000000E+04;  0.0000000E+00;  3.9137812E+04;  6.5029817E+00;  0.0000000E+00;  4.6786200E-02;  2.0870389E+04;
  1.2253633E+00;  9.9999998E-03; -5.0564677E-02;8327;  9.3577701E-01;  0.0000000E+00; -2.2136038E-02;  1.0027397E+03;  2.3664609E-01;  2.2686199E+03;3; -1.1184158E+02;  0.0000000E+00;  3.6232506E+01;0;  6.5092559E+00;  7.3317109E+03;  0.0000000E+00;  3.4096438E-01;  4.0000000E+04;  0.0000000E+00;  3.9135523E+04;  6.4412694E+00;  0.0000000E+00;  6.7986481E-02;  2.1123172E+04;
  1.2253633E+00;  9.9999998E-03;  5.0564718E-02;8337;  9.3577713E-01;  0.0000000E+00;  2.2136807E-02;  1.0027396E+03;  2.3664609E-01;  2.2685212E+03;3; -1.1184138E+02;  0.0000000E+00; -3.6232407E+01;0;  6.5092511E+00;  7.3317148E+03;  0.0000000E+00;  3.4093192E-01;  4.0000000E+04;  0.0000000E+00;  3.9135523E+04;  6.4412642E+00;  0.0000000E+00;  6.7987002E-02;  2.1123156E+04;
  1.2254663E+00;  9.9999998E-03; -3.0339153E-02;8329;  9.5150453E-01;  0.0000000E+00; -1.7454917E-02;  1.0029541E+03;  2.3668557E-01;  2.4460959E+03;3; -1.0712778E+02;  0.0000000E+00;  9.8994751E+00;0;  6.4468546E+00;  7.3334463E+03;  0.0000000E+00;  1.4123239E-01;  4.0000000E+04;  0.0000000E+00;  3.9134250E+04;  6.3447685E+00;  0.0000000E+00;  1.0208620E-01;  2.1304783E+04;
  1.2254661E+00;  9.9999998E-03;  3.0339194E-02;8335;  9.5150393E-01;  0.0000000E+00;  1.7455425E-02;  1.0029544E+03;  2.3668547E-01;  2.4462935E+03;3; -1.0712802E+02;  0.0000000E+00; -9.8993378E+00;0;  6.4468503E+00;  7.3334443E+03;  0.0000000E+00;  1.4121003E-01;  4.0000000E+04;  0.0000000E+00;  3.9134242E+04;  6.3447642E+00;  0.0000000E+00;  1.0208587E-01;  2.1304873E+04;
  1.2254127E+00;  9.9999998E-03; -4.0448502E-02;8328;  9.4447476E-01;  0.0000000E+00; -2.1195035E-02;  1.0028544E+03;  2.3666924E-01;  2.3635767E+03;3; -1.0928108E+02;  0.0000000E+00;  2.2886648E+01;0;  6.4749126E+00;  7.3325439E+03;  0.0000000E+00;  2.3663065E-01;  4.0000000E+04;  0.0000000E+00;  3.9134461E+04;  6.3882875E+00;  0.0000000E+00;  8.6624965E-02;  2.1253283E+04;
  1.2254127E+00;  9.9999998E-03;  4.0448546E-02;8336;  9.4447422E-01;  0.0000000E+00;  2.1195708E-02;  1.0028547E+03;  2.3666991E-01;  2.3637742E+03;3; -1.0928115E+02;  0.0000000E+00; -2.2886494E+01;0;  6.4749117E+00;  7.3325435E+03;  0.0000000E+00;  2.3660398E-01;  4.0000000E+04;  0.0000000E+00;  3.9134453E+04;  6.3882866E+00;  0.0000000E+00;  8.6625099E-02;  2.1253330E+04;
  1.2255318E+00;  9.9999998E-03;  1.7255656E-08;8332;  9.6067989E-01;  0.0000000E+00;  1.4249898E-07;  1.0030922E+03;  2.3670708E-01;  2.5603992E+03;3; -1.0406390E+02;  0.0000000E+00; -5.3355740E-05;0;  6.4100804E+00;  7.3345557E+03;  0.0000000E+00;  1.2974906E-10;  4.0000000E+04;  0.0000000E+00;  3.9133961E+04;  6.2872014E+00;  0.0000000E+00;  1.2287887E-01;  2.1317211E+04;
  1.2255249E+00;  9.9999998E-03; -1.0115280E-02;8331;  9.5965040E-01;  0.0000000E+00; -5.9850337E-03;  1.0030787E+03;  2.3670366E-01;  2.5492451E+03;3; -1.0442156E+02;  0.0000000E+00;  1.4332004E+00;0;  6.4142075E+00;  7.3344092E+03;  0.0000000E+00;  1.6718397E-02;  4.0000000E+04;  0.0000000E+00;  3.9134086E+04;  6.2936831E+00;  0.0000000E+00;  1.2052447E-01;  2.1318123E+04;
  1.2255248E+00;  9.9999998E-03;  1.0115315E-02;8333;  9.5964998E-01;  0.0000000E+00;  5.9853196E-03;  1.0030789E+03;  2.3670492E-01;  2.5494424E+03;3; -1.0442168E+02;  0.0000000E+00; -1.4333458E+00;0;  6.4142089E+00;  7.3344082E+03;  0.0000000E+00;  1.6711678E-02;  4.0000000E+04;  0.0000000E+00;  3.9134086E+04;  6.2936845E+00;  0.0000000E+00;  1.2052423E-01;  2.1318129E+04;
  1.2255063E+00;  9.9999998E-03; -2.0227930E-02;8330;  9.5660949E-01;  0.0000000E+00; -1.1954881E-02;  1.0030325E+03;  2.3669763E-01;  2.5109468E+03;3; -1.0546117E+02;  0.0000000E+00;  3.7575359E+00;0;  6.4263535E+00;  7.3341372E+03;  0.0000000E+00;  6.5336853E-02;  4.0000000E+04;  0.0000000E+00;  3.9134148E+04;  6.3127975E+00;  0.0000000E+00;  1.1355583E-01;  2.1317582E+04;
  1.2255063E+00;  9.9999998E-03;  2.0227967E-02;8334;  9.5660919E-01;  0.0000000E+00;  1.1955246E-02;  1.0030327E+03;  2.3669675E-01;  2.5111440E+03;3; -1.0546132E+02;  0.0000000E+00; -3.7576025E+00;0;  6.4263496E+00;  7.3341367E+03;  0.0000000E+00;  6.5323010E-02;  4.0000000E+04;  0.0000000E+00;  3.9134145E+04;  6.3127937E+00;  0.0000000E+00;  1.1355582E-01;  2.1317621E+04;
  1.2476612E+00;  9.9999998E-03; -1.0113848E-01;8383;  1.0433000E+00;  0.0000000E+00; -6.4040139E-02;  1.0056066E+03;  2.2606429E-01;  4.6413569E+03;3; -6.7910500E+01;  0.0000000E+00;  3.7244358E+01;0;  5.5162959E+00;  8.0625244E+03;  0.0000000E+00;  1.0192147E+00;  4.0000000E+04;  0.0000000E+00;  3.9164461E+04;  5.3540220E+00;  0.0000000E+00;  1.6227388E-01;  1.9110385E+04;
  1.2478188E+00;  9.9999998E-03; -9.0998940E-02;8384;  1.0561192E+00;  0.0000000E+00; -6.2896401E-02;  1.0056720E+03;  2.2603098E-01;  4.6955278E+03;3; -6.1376530E+01;  0.0000000E+00;  2.2427738E+01;0;  5.4034266E+00;  8.0670923E+03;  0.0000000E+00;  1.0262669E+00;  4.0000000E+04;  0.0000000E+00;  3.9162008E+04;  5.2090940E+00;  0.0000000E+00;  1.9433270E-01;  1.9440260E+04;
  1.2479444E+00;  9.9999998E-03; -8.0827266E-02;8385;  1.0674648E+00;  0.0000000E+00; -5.7944018E-02;  1.0057218E+03;  2.2601047E-01;  4.7367720E+03;3; -5.5154526E+01;  0.0000000E+00;  8.3226633E+00;0;  5.3006010E+00;  8.0704653E+03;  0.0000000E+00;  9.5357430E-01;  4.0000000E+04;  0.0000000E+00;  3.9160312E+04;  5.0768499E+00;  0.0000000E+00;  2.2375092E-01;  1.9647207E+04;
  1.2480056E+00;  9.9999998E-03; -7.0668139E-02;8386;  1.0771272E+00;  0.0000000E+00; -5.0706774E-02;  1.0057754E+03;  2.2601594E-01;  4.7810791E+03;3; -4.9308449E+01;  0.0000000E+00;  3.0688572E+00;0;  5.2110610E+00;  8.0718247E+03;  0.0000000E+00;  8.2148552E-01;  4.0000000E+04;  0.0000000E+00;  3.9159797E+04;  4.9613557E+00;  0.0000000E+00;  2.4970552E-01;  1.9716512E+04;
  1.2480624E+00;  9.9999998E-03; -6.0540106E-02;8387;  1.0854192E+00;  0.0000000E+00; -4.3059222E-02;  1.0058394E+03;  2.2602279E-01;  4.8340708E+03;3; -4.3871792E+01;  0.0000000E+00;  1.6202675E+00;0;  5.1316528E+00;  8.0730112E+03;  0.0000000E+00;  6.5616590E-01;  4.0000000E+04;  0.0000000E+00;  3.9160082E+04;  4.8591394E+00;  0.0000000E+00;  2.7251333E-01;  1.9651229E+04;
  1.2480624E+00;  9.9999998E-03;  6.0540151E-02;8399;  1.0854195E+00;  0.0000000E+00;  4.3059889E-02;  1.0058391E+03;  2.2602233E-01;  4.8338735E+03;3; -4.3871548E+01;  0.0000000E+00; -1.6203934E+00;0;  5.1316524E+00;  8.0730068E+03;  0.0000000E+00;  6.5612972E-01;  4.0000000E+04;  0.0000000E+00;  3.9160090E+04;  4.8591385E+00;  0.0000000E+00;  2.7251378E-01;  1.9651203E+04;
  1.2481202E+00;  9.9999998E-03; -5.0435163E-02;8388;  1.0923711E+00;  0.0000000E+00; -3.5547365E-02;  1.0059229E+03;  2.2602752E-01;  4.9031484E+03;3; -3.9003651E+01;  0.0000000E+00;  9.9273211E-01;0;  5.0626183E+00;  8.0742549E+03;  0.0000000E+00;  4.8229587E-01;  4.0000000E+04;  0.0000000E+00;  3.9161109E+04;  4.7704568E+00;  0.0000000E+00;  2.9216146E-01;  1.9490398E+04;
  1.2481202E+00;  9.9999998E-03;  5.0435215E-02;8398;  1.0923710E+00;  0.0000000E+00;  3.5548054E-02;  1.0059230E+03;  2.2602767E-01;  4.9033457E+03;3; -3.9003681E+01;  0.0000000E+00; -9.9277437E-01;0;  5.0626140E+00;  8.0742510E+03;  0.0000000E+00;  4.8226234E-01;  4.0000000E+04;  0.0000000E+00;  3.9161109E+04;  4.7704520E+00;  0.0000000E+00;  2.9216200E-01;  1.9490418E+04;
  1.2481736E+00;  9.9999998E-03; -4.0342662E-02;8389;  1.0979964E+00;  0.0000000E+00; -2.8220607E-02;  1.0060102E+03;  2.2603144E-01;  4.9754824E+03;3; -3.4836189E+01;  0.0000000E+00;  5.6210625E-01;0;  5.0048914E+00;  8.0754468E+03;  0.0000000E+00;  3.2011321E-01;  4.0000000E+04;  0.0000000E+00;  3.9162633E+04;  4.6963501E+00;  0.0000000E+00;  3.0854115E-01;  1.9285697E+04;
  1.2481736E+00;  9.9999998E-03;  4.0342715E-02;8397;  1.0979965E+00;  0.0000000E+00;  2.8221365E-02;  1.0060102E+03;  2.2603144E-01;  4.9754824E+03;3; -3.4836075E+01;  0.0000000E+00; -5.6206596E-01;0;  5.0048862E+00;  8.0754473E+03;  0.0000000E+00;  3.2008502E-01;  4.0000000E+04;  0.0000000E+00;  3.9162633E+04;  4.6963453E+00;  0.0000000E+00;  3.0854103E-01;  1.9285723E+04;
  1.2482176E+00;  9.9999998E-03; -3.0255763E-02;8390;  1.1023030E+00;  0.0000000E+00; -2.1043595E-02;  1.0060955E+03;  2.2603323E-01;  5.0460410E+03;3; -3.1484024E+01;  0.0000000E+00;  2.7980471E-01;0;  4.9593148E+00;  8.0765063E+03;  0.0000000E+00;  1.8401946E-01;  4.0000000E+04;  0.0000000E+00;  3.9164195E+04;  4.6378155E+00;  0.0000000E+00;  3.2149947E-01;  1.9085045E+04;
  1.2482176E+00;  9.9999998E-03;  3.0255811E-02;8396;  1.1023029E+00;  0.0000000E+00;  2.1044314E-02;  1.0060956E+03;  2.2603400E-01;  5.0461396E+03;3; -3.1484104E+01;  0.0000000E+00; -2.7987075E-01;0;  4.9593124E+00;  8.0765073E+03;  0.0000000E+00;  1.8399873E-01;  4.0000000E+04;  0.0000000E+00;  3.9164184E+04;  4.6378126E+00;  0.0000000E+00;  3.2149962E-01;  1.9085096E+04;
  1.2482508E+00;  9.9999998E-03; -2.0169467E-02;8391;  1.1053339E+00;  0.0000000E+00; -1.3971683E-02;  1.0061659E+03;  2.2603455E-01;  5.1043628E+03;3; -2.9028654E+01;  0.0000000E+00;  1.1639682E-01;0;  4.9263487E+00;  8.0774307E+03;  0.0000000E+00;  8.2757756E-02;  4.0000000E+04;  0.0000000E+00;  3.9165461E+04;  4.5954556E+00;  0.0000000E+00;  3.3089307E-01;  1.8922959E+04;
  1.2482508E+00;  9.9999998E-03;  2.0169513E-02;8395;  1.1053340E+00;  0.0000000E+00;  1.3972398E-02;  1.0061658E+03;  2.2603481E-01;  5.1042642E+03;3; -2.9028614E+01;  0.0000000E+00; -1.1642543E-01;0;  4.9263506E+00;  8.0774287E+03;  0.0000000E+00;  8.2743280E-02;  4.0000000E+04;  0.0000000E+00;  3.9165461E+04;  4.5954576E+00;  0.0000000E+00;  3.3089283E-01;  1.8922957E+04;
  1.2482702E+00;  9.9999998E-03; -1.0084262E-02;8392;  1.1071295E+00;  0.0000000E+00; -6.9684349E-03;  1.0062109E+03;  2.2603607E-01;  5.1416650E+03;3; -2.7536825E+01;  0.0000000E+00;  3.6669850E-02;0;  4.9065018E+00;  8.0779375E+03;  0.0000000E+00;  2.0806585E-02;  4.0000000E+04;  0.0000000E+00;  3.9166289E+04;  4.5699277E+00;  0.0000000E+00;  3.3657384E-01;  1.8820293E+04;
  1.2482761E+00;  9.9999998E-03;  2.1309603E-08;8393;  1.1077201E+00;  0.0000000E+00;  3.4511797E-07;  1.0062277E+03;  2.2603604E-01;  5.1555796E+03;3; -2.7038166E+01;  0.0000000E+00; -1.5648955E-05;0;  4.8999119E+00;  8.0781128E+03;  0.0000000E+00;  2.4209568E-10;  4.0000000E+04;  0.0000000E+00;  3.9166441E+04;  4.5614386E+00;  0.0000000E+00;  3.3847323E-01;  1.8785484E+04;
  1.2482700E+00;  9.9999998E-03;  1.0084306E-02;8394;  1.1071295E+00;  0.0000000E+00;  6.9691413E-03;  1.0062108E+03;  2.2603546E-01;  5.1415664E+03;3; -2.7536810E+01;  0.0000000E+00; -3.6718369E-02;0;  4.9065094E+00;  8.0779385E+03;  0.0000000E+00;  2.0799637E-02;  4.0000000E+04;  0.0000000E+00;  3.9166285E+04;  4.5699353E+00;  0.0000000E+00;  3.3657393E-01;  1.8820299E+04;
  1.2690893E+00;  9.9999998E-03; -1.0098301E-01;8444;  1.1307361E+00;  0.0000000E+00; -7.1353763E-02;  1.0078128E+03;  2.1532418E-01;  6.4659888E+03;3;  7.7233434E-01;  0.0000000E+00; -1.4736056E+00;0;  4.0720992E+00;  8.9149404E+03;  0.0000000E+00;  1.0355984E+00;  4.0000000E+04;  0.0000000E+00;  3.9193516E+04;  3.7202885E+00;  0.0000000E+00;  3.5181090E-01;  1.7026443E+04;
  1.2691690E+00;  9.9999998E-03; -9.0828456E-02;8445;  1.1355458E+00;  0.0000000E+00; -6.2961988E-02;  1.0077709E+03;  2.1529663E-01;  6.4312524E+03;3;  7.4298792E+00;  0.0000000E+00; -2.4069436E+00;0;  3.9486277E+00;  8.9161279E+03;  0.0000000E+00;  9.9432868E-01;  4.0000000E+04;  0.0000000E+00;  3.9194699E+04;  3.5699968E+00;  0.0000000E+00;  3.7863091E-01;  1.6886229E+04;
  1.2692176E+00;  9.9999998E-03; -8.0685742E-02;8446;  1.1393012E+00;  0.0000000E+00; -5.4848433E-02;  1.0077282E+03;  2.1528631E-01;  6.3959277E+03;3;  1.2467662E+01;  0.0000000E+00; -2.9743867E+00;0;  3.8381035E+00;  8.9159297E+03;  0.0000000E+00;  8.8236147E-01;  4.0000000E+04;  0.0000000E+00;  3.9196367E+04;  3.4370186E+00;  0.0000000E+00;  4.0108493E-01;  1.6658666E+04;
  1.2692565E+00;  9.9999998E-03; -7.0566982E-02;8447;  1.1422426E+00;  0.0000000E+00; -4.7087200E-02;  1.0076940E+03;  2.1528399E-01;  6.3676094E+03;3;  1.6456751E+01;  0.0000000E+00; -3.2541227E+00;0;  3.7395666E+00;  8.9152920E+03;  0.0000000E+00;  7.2763401E-01;  4.0000000E+04;  0.0000000E+00;  3.9198590E+04;  3.3198962E+00;  0.0000000E+00;  4.1967034E-01;  1.6345288E+04;
  1.2692871E+00;  9.9999998E-03; -6.0468245E-02;8448;  1.1445347E+00;  0.0000000E+00; -3.9691743E-02;  1.0076927E+03;  2.1528558E-01;  6.3665210E+03;3;  1.9319136E+01;  0.0000000E+00; -3.2541721E+00;0;  3.6532886E+00;  8.9147178E+03;  0.0000000E+00;  5.5758488E-01;  4.0000000E+04;  0.0000000E+00;  3.9201426E+04;  3.2184873E+00;  0.0000000E+00;  4.3480125E-01;  1.5974853E+04;
  1.2692871E+00;  9.9999998E-03;  6.0468294E-02;8460;  1.1445346E+00;  0.0000000E+00;  3.9692510E-02;  1.0076926E+03;  2.1528521E-01;  6.3664224E+03;3;  1.9319153E+01;  0.0000000E+00;  3.2541893E+00;0;  3.6532884E+00;  8.9147207E+03;  0.0000000E+00;  5.5755663E-01;  4.0000000E+04;  0.0000000E+00;  3.9201430E+04;  3.2184875E+00;  0.0000000E+00;  4.3480095E-01;  1.5974823E+04;
  1.2693163E+00;  9.9999998E-03; -5.0383206E-02;8449;  1.1463130E+00;  0.0000000E+00; -3.2618303E-02;  1.0077050E+03;  2.1528760E-01;  6.3766797E+03;3;  2.1744411E+01;  0.0000000E+00; -3.0656505E+00;0;  3.5792248E+00;  8.9144111E+03;  0.0000000E+00;  3.9429834E-01;  4.0000000E+04;  0.0000000E+00;  3.9204328E+04;  3.1322949E+00;  0.0000000E+00;  4.4692987E-01;  1.5585868E+04;
  1.2693163E+00;  9.9999998E-03;  5.0383259E-02;8459;  1.1463128E+00;  0.0000000E+00;  3.2619122E-02;  1.0077050E+03;  2.1528709E-01;  6.3766797E+03;3;  2.1744576E+01;  0.0000000E+00;  3.0656464E+00;0;  3.5792234E+00;  8.9144131E+03;  0.0000000E+00;  3.9427260E-01;  4.0000000E+04;  0.0000000E+00;  3.9204316E+04;  3.1322935E+00;  0.0000000E+00;  4.4692993E-01;  1.5585835E+04;
  1.2693491E+00;  9.9999998E-03; -4.0305331E-02;8450;  1.1476480E+00;  0.0000000E+00; -2.5807632E-02;  1.0077441E+03;  2.1528596E-01;  6.4091348E+03;3;  2.3313219E+01;  0.0000000E+00; -2.6812186E+00;0;  3.5174356E+00;  8.9146719E+03;  0.0000000E+00;  2.5270811E-01;  4.0000000E+04;  0.0000000E+00;  3.9206938E+04;  3.0609848E+00;  0.0000000E+00;  4.5645082E-01;  1.5217397E+04;
  1.2693491E+00;  9.9999998E-03;  4.0305387E-02;8458;  1.1476480E+00;  0.0000000E+00;  2.5808435E-02;  1.0077439E+03;  2.1528579E-01;  6.4089375E+03;3;  2.3313265E+01;  0.0000000E+00;  2.6811833E+00;0;  3.5174341E+00;  8.9146719E+03;  0.0000000E+00;  2.5268701E-01;  4.0000000E+04;  0.0000000E+00;  3.9206934E+04;  3.0609832E+00;  0.0000000E+00;  4.5645088E-01;  1.5217395E+04;
  1.2693794E+00;  9.9999998E-03; -3.0229622E-02;8451;  1.1486300E+00;  0.0000000E+00; -1.9192394E-02;  1.0077907E+03;  2.1528403E-01;  6.4476084E+03;3;  2.4504622E+01;  0.0000000E+00; -2.1341581E+00;0;  3.4686635E+00;  8.9151631E+03;  0.0000000E+00;  1.4096633E-01;  4.0000000E+04;  0.0000000E+00;  3.9209527E+04;  3.0050445E+00;  0.0000000E+00;  4.6361908E-01;  1.4903862E+04;
  1.2693794E+00;  9.9999998E-03;  3.0229677E-02;8457;  1.1486299E+00;  0.0000000E+00;  1.9193277E-02;  1.0077907E+03;  2.1528378E-01;  6.4476084E+03;3;  2.4504742E+01;  0.0000000E+00;  2.1341634E+00;0;  3.4686635E+00;  8.9151641E+03;  0.0000000E+00;  1.4094914E-01;  4.0000000E+04;  0.0000000E+00;  3.9209531E+04;  3.0050442E+00;  0.0000000E+00;  4.6361923E-01;  1.4903912E+04;
  1.2693999E+00;  9.9999998E-03; -2.0154342E-02;8452;  1.1492931E+00;  0.0000000E+00; -1.2719640E-02;  1.0078361E+03;  2.1528402E-01;  6.4851953E+03;3;  2.5222694E+01;  0.0000000E+00; -1.4958260E+00;0;  3.4336894E+00;  8.9156777E+03;  0.0000000E+00;  6.1935630E-02;  4.0000000E+04;  0.0000000E+00;  3.9211289E+04;  2.9650853E+00;  0.0000000E+00;  4.6860409E-01;  1.4669601E+04;
  1.2693999E+00;  9.9999998E-03;  2.0154394E-02;8456;  1.1492931E+00;  0.0000000E+00;  1.2720551E-02;  1.0078361E+03;  2.1528247E-01;  6.4851953E+03;3;  2.5222654E+01;  0.0000000E+00;  1.4958324E+00;0;  3.4336896E+00;  8.9156777E+03;  0.0000000E+00;  6.1924014E-02;  4.0000000E+04;  0.0000000E+00;  3.9211289E+04;  2.9650857E+00;  0.0000000E+00;  4.6860394E-01;  1.4669648E+04;
  1.2694149E+00;  9.9999998E-03;  2.4110653E-08;8454;  1.1498082E+00;  0.0000000E+00;  4.6767124E-07;  1.0078760E+03;  2.1528183E-01;  6.5181455E+03;3;  2.5766296E+01;  0.0000000E+00;  5.8335704E-06;0;  3.4056659E+00;  8.9160908E+03;  0.0000000E+00;  3.6166087E-10;  4.0000000E+04;  0.0000000E+00;  3.9212762E+04;  2.9331503E+00;  0.0000000E+00;  4.7251567E-01;  1.4478214E+04;
  1.2694113E+00;  9.9999998E-03; -1.0078021E-02;8453;  1.1496803E+00;  0.0000000E+00; -6.3367439E-03;  1.0078661E+03;  2.1528126E-01;  6.5100557E+03;3;  2.5632755E+01;  0.0000000E+00; -7.7570570E-01;0;  3.4126740E+00;  8.9160020E+03;  0.0000000E+00;  1.5342155E-02;  4.0000000E+04;  0.0000000E+00;  3.9212406E+04;  2.9411297E+00;  0.0000000E+00;  4.7154430E-01;  1.4526284E+04;
  1.2694112E+00;  9.9999998E-03;  1.0078071E-02;8455;  1.1496801E+00;  0.0000000E+00;  6.3376906E-03;  1.0078662E+03;  2.1528161E-01;  6.5101543E+03;3;  2.5632812E+01;  0.0000000E+00;  7.7574176E-01;0;  3.4126775E+00;  8.9159990E+03;  0.0000000E+00;  1.5336130E-02;  4.0000000E+04;  0.0000000E+00;  3.9212406E+04;  2.9411337E+00;  0.0000000E+00;  4.7154382E-01;  1.4526360E+04;
  1.2894084E+00;  9.9999998E-03; -1.0087602E-01;8505;  1.1480849E+00;  0.0000000E+00; -6.6311933E-02;  1.0084473E+03;  2.0471103E-01;  6.9884316E+03;3;  2.6908117E+01;  0.0000000E+00; -5.5876937E+00;0;  2.7765083E+00;  9.8641094E+03;  0.0000000E+00;  6.6979432E-01;  4.0000000E+04;  0.0000000E+00;  3.9234965E+04;  2.2904663E+00;  0.0000000E+00;  4.8604205E-01;  1.3167461E+04;
  1.2894253E+00;  9.9999998E-03; -9.0771399E-02;8506;  1.1493503E+00;  0.0000000E+00; -5.8346812E-02;  1.0083182E+03;  2.0470563E-01;  6.8816216E+03;3;  2.8491413E+01;  0.0000000E+00; -5.7358613E+00;0;  2.6662526E+00;  9.8604492E+03;  0.0000000E+00;  6.0166961E-01;  4.0000000E+04;  0.0000000E+00;  3.9239133E+04;  2.1631339E+00;  0.0000000E+00;  5.0311869E-01;  1.2658917E+04;
  1.2894440E+00;  9.9999998E-03; -8.0676205E-02;8507;  1.1504066E+00;  0.0000000E+00; -5.0767593E-02;  1.0081800E+03;  2.0470527E-01;  6.7673164E+03;3;  2.9812649E+01;  0.0000000E+00; -5.8740067E+00;0;  2.5658379E+00;  9.8564004E+03;  0.0000000E+00;  5.0356317E-01;  4.0000000E+04;  0.0000000E+00;  3.9242930E+04;  2.0502546E+00;  0.0000000E+00;  5.1558334E-01;  1.2138232E+04;
  1.2894642E+00;  9.9999998E-03; -7.0589617E-02;8508;  1.1513273E+00;  0.0000000E+00; -4.3548383E-02;  1.0080649E+03;  2.0470752E-01;  6.6721436E+03;3;  3.0630293E+01;  0.0000000E+00; -5.7670794E+00;0;  2.4757175E+00;  9.8526045E+03;  0.0000000E+00;  3.9317879E-01;  4.0000000E+04;  0.0000000E+00;  3.9246848E+04;  1.9514480E+00;  0.0000000E+00;  5.2426946E-01;  1.1618318E+04;
  1.2894917E+00;  9.9999998E-03; -6.0507588E-02;8509;  1.1521175E+00;  0.0000000E+00; -3.6684323E-02;  1.0079761E+03;  2.0470892E-01;  6.5985684E+03;3;  3.1352463E+01;  0.0000000E+00; -5.3867579E+00;0;  2.3960166E+00;  9.8496172E+03;  0.0000000E+00;  2.8566882E-01;  4.0000000E+04;  0.0000000E+00;  3.9250617E+04;  1.8660020E+00;  0.0000000E+00;  5.3001469E-01;  1.1115633E+04;
  1.2894917E+00;  9.9999998E-03;  6.0507640E-02;8521;  1.1521174E+00;  0.0000000E+00;  3.6685176E-02;  1.0079760E+03;  2.0470923E-01;  6.5985684E+03;3;  3.1352634E+01;  0.0000000E+00;  5.3867941E+00;0;  2.3960147E+00;  9.8496152E+03;  0.0000000E+00;  2.8565758E-01;  4.0000000E+04;  0.0000000E+00;  3.9250621E+04;  1.8660003E+00;  0.0000000E+00;  5.3001428E-01;  1.1115600E+04;
  1.2895232E+00;  9.9999998E-03; -5.0427392E-02;8510;  1.1527715E+00;  0.0000000E+00; -3.0137021E-02;  1.0079226E+03;  2.0470867E-01;  6.5543813E+03;3;  3.2079258E+01;  0.0000000E+00; -4.7803149E+00;0;  2.3273594E+00;  9.8475693E+03;  0.0000000E+00;  1.9172783E-01;  4.0000000E+04;  0.0000000E+00;  3.9254234E+04;  1.7937956E+00;  0.0000000E+00;  5.3356379E-01;  1.0653196E+04;
  1.2895232E+00;  9.9999998E-03;  5.0427444E-02;8520;  1.1527714E+00;  0.0000000E+00;  3.0137878E-02;  1.0079224E+03;  2.0470893E-01;  6.5541846E+03;3;  3.2079456E+01;  0.0000000E+00;  4.7803407E+00;0;  2.3273582E+00;  9.8475703E+03;  0.0000000E+00;  1.9171663E-01;  4.0000000E+04;  0.0000000E+00;  3.9254227E+04;  1.7937948E+00;  0.0000000E+00;  5.3356344E-01;  1.0653188E+04;
  1.2895566E+00;  9.9999998E-03; -4.0346704E-02;8511;  1.1532803E+00;  0.0000000E+00; -2.3841396E-02;  1.0079066E+03;  2.0470749E-01;  6.5411611E+03;3;  3.2614147E+01;  0.0000000E+00; -4.0785480E+00;0;  2.2702866E+00;  9.8465488E+03;  0.0000000E+00;  1.1686341E-01;  4.0000000E+04;  0.0000000E+00;  3.9257285E+04;  1.7347107E+00;  0.0000000E+00;  5.3557581E-01;  1.0252701E+04;
  1.2895566E+00;  9.9999998E-03;  4.0346757E-02;8519;  1.1532801E+00;  0.0000000E+00;  2.3842299E-02;  1.0079067E+03;  2.0470738E-01;  6.5411611E+03;3;  3.2614540E+01;  0.0000000E+00;  4.0785546E+00;0;  2.2702863E+00;  9.8465469E+03;  0.0000000E+00;  1.1685336E-01;  4.0000000E+04;  0.0000000E+00;  3.9257285E+04;  1.7347111E+00;  0.0000000E+00;  5.3557533E-01;  1.0252725E+04;
  1.2895876E+00;  9.9999998E-03; -3.0263461E-02;8512;  1.1536626E+00;  0.0000000E+00; -1.7728923E-02;  1.0079035E+03;  2.0470324E-01;  6.5384941E+03;3;  3.3137077E+01;  0.0000000E+00; -3.1665037E+00;0;  2.2253597E+00;  9.8461826E+03;  0.0000000E+00;  6.2273875E-02;  4.0000000E+04;  0.0000000E+00;  3.9259781E+04;  1.6887704E+00;  0.0000000E+00;  5.3658926E-01;  9.9311514E+03;
  1.2895876E+00;  9.9999998E-03;  3.0263513E-02;8518;  1.1536626E+00;  0.0000000E+00;  1.7729850E-02;  1.0079036E+03;  2.0470367E-01;  6.5385928E+03;3;  3.3136967E+01;  0.0000000E+00;  3.1665256E+00;0;  2.2253573E+00;  9.8461807E+03;  0.0000000E+00;  6.2265962E-02;  4.0000000E+04;  0.0000000E+00;  3.9259785E+04;  1.6887685E+00;  0.0000000E+00;  5.3658873E-01;  9.9311836E+03;
  1.2896111E+00;  9.9999998E-03; -2.0177575E-02;8513;  1.1539146E+00;  0.0000000E+00; -1.1752659E-02;  1.0079141E+03;  2.0469899E-01;  6.5472686E+03;3;  3.3492954E+01;  0.0000000E+00; -2.1812313E+00;0;  2.1930785E+00;  9.8462119E+03;  0.0000000E+00;  2.6347861E-02;  4.0000000E+04;  0.0000000E+00;  3.9261711E+04;  1.6560607E+00;  0.0000000E+00;  5.3701788E-01;  9.6993701E+03;
  1.2896241E+00;  9.9999998E-03; -1.0089557E-02;8514;  1.1540617E+00;  0.0000000E+00; -5.8568199E-03;  1.0079212E+03;  2.0469674E-01;  6.5531836E+03;3;  3.3657818E+01;  0.0000000E+00; -1.1195643E+00;0;  2.1737342E+00;  9.8462930E+03;  0.0000000E+00;  6.3644685E-03;  4.0000000E+04;  0.0000000E+00;  3.9262805E+04;  1.6365799E+00;  0.0000000E+00;  5.3715444E-01;  9.5611953E+03;
  1.2896279E+00;  9.9999998E-03;  2.4510781E-08;8515;  1.1541107E+00;  0.0000000E+00;  5.0146923E-07;  1.0079250E+03;  2.0469706E-01;  6.5563394E+03;3;  3.3712036E+01;  0.0000000E+00;  2.7204107E-05;0;  2.1673062E+00;  9.8463252E+03;  0.0000000E+00;  4.0238371E-10;  4.0000000E+04;  0.0000000E+00;  3.9263148E+04;  1.6301264E+00;  0.0000000E+00;  5.3717977E-01;  9.5155664E+03;
  1.2896241E+00;  9.9999998E-03;  1.0089606E-02;8516;  1.1540617E+00;  0.0000000E+00;  5.8578132E-03;  1.0079213E+03;  2.0469654E-01;  6.5532822E+03;3;  3.3657772E+01;  0.0000000E+00;  1.1196214E+00;0;  2.1737347E+00;  9.8462979E+03;  0.0000000E+00;  6.3619246E-03;  4.0000000E+04;  0.0000000E+00;  3.9262809E+04;  1.6365802E+00;  0.0000000E+00;  5.3715444E-01;  9.5612305E+03;
  1.2896111E+00;  9.9999998E-03;  2.0177625E-02;8517;  1.1539146E+00;  0.0000000E+00;  1.1753622E-02;  1.0079141E+03;  2.0469901E-01;  6.5472686E+03;3;  3.3492867E+01;  0.0000000E+00;  2.1812925E+00;0;  2.1930780E+00;  9.8462119E+03;  0.0000000E+00;  2.6343117E-02;  4.0000000E+04;  0.0000000E+00;  3.9261711E+04;  1.6560605E+00;  0.0000000E+00;  5.3701770E-01;  9.6993867E+03;
  1.3089793E+00;  9.9999998E-03; -4.0403407E-02;8572;  1.1515571E+00;  0.0000000E+00; -2.2539398E-02;  1.0066334E+03;  1.9456892E-01;  5.4851387E+03;3;  3.5624027E+01;  0.0000000E+00; -4.8373990E+00;0;  1.3639657E+00;  1.0859687E+04;  0.0000000E+00; -5.2274473E-04;  4.0000000E+04;  0.0000000E+00;  3.9306488E+04;  8.0259031E-01;  0.0000000E+00;  5.6137544E-01;  5.2150576E+03;
  1.3090109E+00;  9.9999998E-03; -3.0304469E-02;8573;  1.1517106E+00;  0.0000000E+00; -1.6763136E-02;  1.0065803E+03;  1.9456783E-01;  5.4412676E+03;3;  3.6004932E+01;  0.0000000E+00; -3.7213428E+00;0;  1.3267906E+00;  1.0857959E+04;  0.0000000E+00; -3.5149839E-03;  4.0000000E+04;  0.0000000E+00;  3.9308637E+04;  7.6950133E-01;  0.0000000E+00;  5.5728930E-01;  4.9375532E+03;
  1.3090109E+00;  9.9999998E-03;  3.0304523E-02;8579;  1.1517106E+00;  0.0000000E+00;  1.6764084E-02;  1.0065804E+03;  1.9456854E-01;  5.4412676E+03;3;  3.6003529E+01;  0.0000000E+00;  3.7213540E+00;0;  1.3267899E+00;  1.0857962E+04;  0.0000000E+00; -3.5131704E-03;  4.0000000E+04;  0.0000000E+00;  3.9308641E+04;  7.6950073E-01;  0.0000000E+00;  5.5728918E-01;  4.9375552E+03;
  1.3089793E+00;  9.9999998E-03;  4.0403459E-02;8580;  1.1515571E+00;  0.0000000E+00;  2.2540327E-02;  1.0066332E+03;  1.9456935E-01;  5.4850400E+03;3;  3.5623489E+01;  0.0000000E+00;  4.8374200E+00;0;  1.3639649E+00;  1.0859684E+04;  0.0000000E+00; -5.1998789E-04;  4.0000000E+04;  0.0000000E+00;  3.9306484E+04;  8.0258995E-01;  0.0000000E+00;  5.6137496E-01;  5.2151426E+03;
  1.3089287E+00;  9.9999998E-03; -6.0582541E-02;8570;  1.1510611E+00;  0.0000000E+00; -3.4614258E-02;  1.0068527E+03;  1.9455771E-01;  5.6664233E+03;3;  3.4655186E+01;  0.0000000E+00; -6.5446591E+00;0;  1.4673016E+00;  1.0867852E+04;  0.0000000E+00;  2.9436089E-02;  4.0000000E+04;  0.0000000E+00;  3.9300066E+04;  8.9762324E-01;  0.0000000E+00;  5.6967843E-01;  6.0358179E+03;
  1.3089497E+00;  9.9999998E-03; -5.0497595E-02;8571;  1.1513425E+00;  0.0000000E+00; -2.8477229E-02;  1.0067205E+03;  1.9456665E-01;  5.5571021E+03;3;  3.5198792E+01;  0.0000000E+00; -5.7647467E+00;0;  1.4110026E+00;  1.0862854E+04;  0.0000000E+00;  9.4794519E-03;  4.0000000E+04;  0.0000000E+00;  3.9303684E+04;  8.4526676E-01;  0.0000000E+00;  5.6573594E-01;  5.5821274E+03;
  1.3090366E+00;  9.9999998E-03; -2.0204240E-02;8574;  1.1518073E+00;  0.0000000E+00; -1.1110150E-02;  1.0065562E+03;  1.9456512E-01;  5.4212534E+03;3;  3.6231743E+01;  0.0000000E+00; -2.5504537E+00;0;  1.2999986E+00;  1.0857111E+04;  0.0000000E+00; -2.6734080E-03;  4.0000000E+04;  0.0000000E+00;  3.9310098E+04;  7.4599063E-01;  0.0000000E+00;  5.5400801E-01;  4.7477910E+03;
  1.3090518E+00;  9.9999998E-03; -1.0103036E-02;8575;  1.1518633E+00;  0.0000000E+00; -5.5352361E-03;  1.0065447E+03;  1.9456427E-01;  5.4117876E+03;3;  3.6383228E+01;  0.0000000E+00; -1.2903891E+00;0;  1.2838948E+00;  1.0856681E+04;  0.0000000E+00; -8.4424613E-04;  4.0000000E+04;  0.0000000E+00;  3.9310965E+04;  7.3199767E-01;  0.0000000E+00;  5.5189711E-01;  4.6392358E+03;
  1.3090568E+00;  9.9999998E-03;  2.6032319E-08;8576;  1.1518817E+00;  0.0000000E+00;  5.1260639E-07;  1.0065421E+03;  1.9456425E-01;  5.4096187E+03;3;  3.6448956E+01;  0.0000000E+00;  2.3486558E-05;0;  1.2785213E+00;  1.0856558E+04;  0.0000000E+00;  2.9945657E-10;  4.0000000E+04;  0.0000000E+00;  3.9311141E+04;  7.2735107E-01;  0.0000000E+00;  5.5117023E-01;  4.6040259E+03;
  1.3090518E+00;  9.9999998E-03;  1.0103088E-02;8577;  1.1518633E+00;  0.0000000E+00;  5.5362438E-03;  1.0065448E+03;  1.9456391E-01;  5.4118862E+03;3;  3.6383080E+01;  0.0000000E+00;  1.2904344E+00;0;  1.2838931E+00;  1.0856686E+04;  0.0000000E+00; -8.4330497E-04;  4.0000000E+04;  0.0000000E+00;  3.9310965E+04;  7.3199606E-01;  0.0000000E+00;  5.5189705E-01;  4.6392168E+03;
  1.3090366E+00;  9.9999998E-03;  2.0204294E-02;8578;  1.1518072E+00;  0.0000000E+00;  1.1111126E-02;  1.0065560E+03;  1.9456533E-01;  5.4210562E+03;3;  3.6231632E+01;  0.0000000E+00;  2.5504866E+00;0;  1.2999971E+00;  1.0857113E+04;  0.0000000E+00; -2.6718155E-03;  4.0000000E+04;  0.0000000E+00;  3.9310098E+04;  7.4598992E-01;  0.0000000E+00;  5.5400723E-01;  4.7478491E+03;
  1.3089497E+00;  9.9999998E-03;  5.0497651E-02;8581;  1.1513424E+00;  0.0000000E+00;  2.8478149E-02;  1.0067206E+03;  1.9456692E-01;  5.5572993E+03;3;  3.5199139E+01;  0.0000000E+00;  5.7647572E+00;0;  1.4110017E+00;  1.0862852E+04;  0.0000000E+00;  9.4817644E-03;  4.0000000E+04;  0.0000000E+00;  3.9303676E+04;  8.4526670E-01;  0.0000000E+00;  5.6573492E-01;  5.5821846E+03;
  1.3089287E+00;  9.9999998E-03;  6.0582593E-02;8582;  1.1510609E+00;  0.0000000E+00;  3.4615163E-02;  1.0068529E+03;  1.9455776E-01;  5.6666206E+03;3;  3.4655655E+01;  0.0000000E+00;  6.5446863E+00;0;  1.4673030E+00;  1.0867854E+04;  0.0000000E+00;  2.9438345E-02;  4.0000000E+04;  0.0000000E+00;  3.9300062E+04;  8.9762449E-01;  0.0000000E+00;  5.6967854E-01;  6.0358428E+03;
  1.3089163E+00;  9.9999998E-03; -7.0657037E-02;8569;  1.1506926E+00;  0.0000000E+00; -4.1019637E-02;  1.0070228E+03;  1.9454353E-01;  5.8071890E+03;3;  3.4038490E+01;  0.0000000E+00; -7.2051544E+00;0;  1.5324070E+00;  1.0874655E+04;  0.0000000E+00;  6.1596774E-02;  4.0000000E+04;  0.0000000E+00;  3.9296176E+04;  9.6004701E-01;  0.0000000E+00;  5.7235998E-01;  6.5722939E+03;
  1.3089166E+00;  9.9999998E-03; -8.0722481E-02;8568;  1.1502410E+00;  0.0000000E+00; -4.7749087E-02;  1.0072281E+03;  1.9452289E-01;  5.9769336E+03;3;  3.3315613E+01;  0.0000000E+00; -7.7480407E+00;0;  1.6055958E+00;  1.0883057E+04;  0.0000000E+00;  1.0707792E-01;  4.0000000E+04;  0.0000000E+00;  3.9291301E+04;  1.0327858E+00;  0.0000000E+00;  5.7281005E-01;  7.1861050E+03;
  1.3089452E+00;  9.9999998E-03; -9.0779960E-02;8567;  1.1497238E+00;  0.0000000E+00; -5.4838043E-02;  1.0074493E+03;  1.9449495E-01;  6.1598818E+03;3;  3.2628067E+01;  0.0000000E+00; -8.1048641E+00;0;  1.6855991E+00;  1.0893212E+04;  0.0000000E+00;  1.6558728E-01;  4.0000000E+04;  0.0000000E+00;  3.9285988E+04;  1.1155931E+00;  0.0000000E+00;  5.7000607E-01;  7.8685767E+03;
  1.3090043E+00;  9.9999998E-03; -1.0083666E-01;8566;  1.1491860E+00;  0.0000000E+00; -6.2278442E-02;  1.0076619E+03;  1.9446248E-01;  6.3355298E+03;3;  3.1869755E+01;  0.0000000E+00; -8.1919918E+00;0;  1.7716724E+00;  1.0904336E+04;  0.0000000E+00;  2.3564950E-01;  4.0000000E+04;  0.0000000E+00;  3.9280359E+04;  1.2088063E+00;  0.0000000E+00;  5.6286609E-01;  8.6118242E+03;
  1.3276819E+00;  9.9999998E-03; -2.0205211E-02;8635;  1.1473776E+00;  0.0000000E+00; -1.0527254E-02;  1.0042877E+03;  1.8506250E-01;  3.5432146E+03;3;  3.6579487E+01;  0.0000000E+00; -3.0280008E+00;0;  7.2659802E-01;  1.1939604E+04;  0.0000000E+00; -1.9633437E-02;  4.0000000E+04;  0.0000000E+00;  3.9353023E+04;  1.8824875E-01;  0.0000000E+00;  5.3834927E-01;  2.0777808E+02;
  1.3276944E+00;  9.9999998E-03; -1.0103193E-02;8636;  1.1474059E+00;  0.0000000E+00; -5.2428558E-03;  1.0042513E+03;  1.8506238E-01;  3.5131665E+03;3;  3.6703838E+01;  0.0000000E+00; -1.5740762E+00;0;  7.1406639E-01;  1.1938466E+04;  0.0000000E+00; -5.0299517E-03;  4.0000000E+04;  0.0000000E+00;  3.9353547E+04;  1.7928296E-01;  0.0000000E+00;  5.3478342E-01;  1.2678948E+02;
  1.3276985E+00;  9.9999998E-03;  2.8580823E-08;8637;  1.1474181E+00;  0.0000000E+00;  5.1385712E-07;  1.0042376E+03;  1.8506317E-01;  3.5019358E+03;3;  3.6701767E+01;  0.0000000E+00;  3.5994995E-05;0;  7.0988595E-01;  1.1938104E+04;  0.0000000E+00;  1.3351531E-10;  4.0000000E+04;  0.0000000E+00;  3.9353703E+04;  1.7631353E-01;  0.0000000E+00;  5.3357244E-01;  1.0256662E+02;
  1.3276944E+00;  9.9999998E-03;  1.0103250E-02;8638;  1.1474059E+00;  0.0000000E+00;  5.2438676E-03;  1.0042515E+03;  1.8506294E-01;  3.5133635E+03;3;  3.6703678E+01;  0.0000000E+00;  1.5740837E+00;0;  7.1406603E-01;  1.1938465E+04;  0.0000000E+00; -5.0270008E-03;  4.0000000E+04;  0.0000000E+00;  3.9353547E+04;  1.7928249E-01;  0.0000000E+00;  5.3478354E-01;  1.2682156E+02;
  1.3276819E+00;  9.9999998E-03;  2.0205269E-02;8639;  1.1473776E+00;  0.0000000E+00;  1.0528253E-02;  1.0042874E+03;  1.8506196E-01;  3.5430176E+03;3;  3.6579414E+01;  0.0000000E+00;  3.0279074E+00;0;  7.2659791E-01;  1.1939605E+04;  0.0000000E+00; -1.9627923E-02;  4.0000000E+04;  0.0000000E+00;  3.9353023E+04;  1.8824841E-01;  0.0000000E+00;  5.3834951E-01;  2.0781709E+02;
  1.3276639E+00;  9.9999998E-03; -3.0306559E-02;8634;  1.1473368E+00;  0.0000000E+00; -1.5893316E-02;  1.0043506E+03;  1.8506023E-01;  3.5953308E+03;3;  3.6525509E+01;  0.0000000E+00; -4.3826346E+00;0;  7.4733305E-01;  1.1941849E+04;  0.0000000E+00; -4.2410545E-02;  4.0000000E+04;  0.0000000E+00;  3.9351930E+04;  2.0327823E-01;  0.0000000E+00;  5.4405481E-01;  3.5981552E+02;
  1.3276639E+00;  9.9999998E-03;  3.0306619E-02;8640;  1.1473368E+00;  0.0000000E+00;  1.5894312E-02;  1.0043510E+03;  1.8506046E-01;  3.5956262E+03;3;  3.6525257E+01;  0.0000000E+00;  4.3826194E+00;0;  7.4733287E-01;  1.1941847E+04;  0.0000000E+00; -4.2402819E-02;  4.0000000E+04;  0.0000000E+00;  3.9351934E+04;  2.0327814E-01;  0.0000000E+00;  5.4405475E-01;  3.5986307E+02;
  1.3276457E+00;  9.9999998E-03; -4.0408257E-02;8633;  1.1472684E+00;  0.0000000E+00; -2.1382898E-02;  1.0044528E+03;  1.8505457E-01;  3.6796604E+03;3;  3.6247070E+01;  0.0000000E+00; -5.6668253E+00;0;  7.7600002E-01;  1.1945692E+04;  0.0000000E+00; -7.1080275E-02;  4.0000000E+04;  0.0000000E+00;  3.9350148E+04;  2.2447351E-01;  0.0000000E+00;  5.5152655E-01;  5.9780841E+02;
  1.3276457E+00;  9.9999998E-03;  4.0408321E-02;8641;  1.1472684E+00;  0.0000000E+00;  2.1383893E-02;  1.0044528E+03;  1.8505397E-01;  3.6796604E+03;3;  3.6246464E+01;  0.0000000E+00;  5.6668735E+00;0;  7.7599955E-01;  1.1945697E+04;  0.0000000E+00; -7.1071222E-02;  4.0000000E+04;  0.0000000E+00;  3.9350152E+04;  2.2447278E-01;  0.0000000E+00;  5.5152678E-01;  5.9784821E+02;
  1.3276308E+00;  9.9999998E-03; -5.0509263E-02;8632;  1.1471699E+00;  0.0000000E+00; -2.7040118E-02;  1.0046019E+03;  1.8504220E-01;  3.8030007E+03;3;  3.6022957E+01;  0.0000000E+00; -6.8019333E+00;0;  8.1227618E-01;  1.1951617E+04;  0.0000000E+00; -1.0232302E-01;  4.0000000E+04;  0.0000000E+00;  3.9347816E+04;  2.5205386E-01;  0.0000000E+00;  5.6022233E-01;  9.3667566E+02;
  1.3276308E+00;  9.9999998E-03;  5.0509322E-02;8642;  1.1471698E+00;  0.0000000E+00;  2.7041100E-02;  1.0046022E+03;  1.8504289E-01;  3.8031978E+03;3;  3.6023396E+01;  0.0000000E+00;  6.8019938E+00;0;  8.1227595E-01;  1.1951616E+04;  0.0000000E+00; -1.0231208E-01;  4.0000000E+04;  0.0000000E+00;  3.9347820E+04;  2.5205302E-01;  0.0000000E+00;  5.6022292E-01;  9.3677893E+02;
  1.3276180E+00;  9.9999998E-03; -6.0605492E-02;8631;  1.1470566E+00;  0.0000000E+00; -3.2884914E-02;  1.0048048E+03;  1.8502636E-01;  3.9706719E+03;3;  3.5787537E+01;  0.0000000E+00; -7.8096480E+00;0;  8.5581315E-01;  1.1959685E+04;  0.0000000E+00; -1.3139366E-01;  4.0000000E+04;  0.0000000E+00;  3.9344367E+04;  2.8640240E-01;  0.0000000E+00;  5.6941074E-01;  1.3889725E+03;
  1.3276180E+00;  9.9999998E-03;  6.0605556E-02;8643;  1.1470565E+00;  0.0000000E+00;  3.2885898E-02;  1.0048051E+03;  1.8502700E-01;  3.9708689E+03;3;  3.5787823E+01;  0.0000000E+00;  7.8096137E+00;0;  8.5581160E-01;  1.1959684E+04;  0.0000000E+00; -1.3138615E-01;  4.0000000E+04;  0.0000000E+00;  3.9344363E+04;  2.8640163E-01;  0.0000000E+00;  5.6940997E-01;  1.3889757E+03;
  1.3276087E+00;  9.9999998E-03; -7.0687473E-02;8630;  1.1469231E+00;  0.0000000E+00; -3.8957294E-02;  1.0050536E+03;  1.8500517E-01;  4.1762705E+03;3;  3.5452602E+01;  0.0000000E+00; -8.6326475E+00;0;  9.0604055E-01;  1.1970012E+04;  0.0000000E+00; -1.5165259E-01;  4.0000000E+04;  0.0000000E+00;  3.9339992E+04;  3.2787770E-01;  0.0000000E+00;  5.7816285E-01;  1.9599935E+03;
  1.3276209E+00;  9.9999998E-03; -8.0748998E-02;8629;  1.1467806E+00;  0.0000000E+00; -4.5264024E-02;  1.0053393E+03;  1.8497434E-01;  4.4123062E+03;3;  3.5057579E+01;  0.0000000E+00; -9.2042208E+00;0;  9.6179879E-01;  1.1982970E+04;  0.0000000E+00; -1.5445125E-01;  4.0000000E+04;  0.0000000E+00;  3.9334617E+04;  3.7640551E-01;  0.0000000E+00;  5.8539331E-01;  2.6461653E+03;
  1.3276637E+00;  9.9999998E-03; -9.0793297E-02;8628;  1.1466359E+00;  0.0000000E+00; -5.1814061E-02;  1.0056337E+03;  1.8493141E-01;  4.6556260E+03;3;  3.4444656E+01;  0.0000000E+00; -9.5207596E+00;0;  1.0220643E+00;  1.1998368E+04;  0.0000000E+00; -1.2963104E-01;  4.0000000E+04;  0.0000000E+00;  3.9328402E+04;  4.3213567E-01;  0.0000000E+00;  5.8992863E-01;  3.4426831E+03;
  1.3277487E+00;  9.9999998E-03; -1.0083216E-01;8627;  1.1464759E+00;  0.0000000E+00; -5.8628425E-02;  1.0059249E+03;  1.8487422E-01;  4.8961792E+03;3;  3.3704891E+01;  0.0000000E+00; -9.7870760E+00;0;  1.0857246E+00;  1.2015943E+04;  0.0000000E+00; -6.7446515E-02;  4.0000000E+04;  0.0000000E+00;  3.9321340E+04;  4.9517584E-01;  0.0000000E+00;  5.9054869E-01;  4.3357861E+03;
  1.3455139E+00;  9.9999998E-03; -9.0760104E-02;8689;  1.1420817E+00;  0.0000000E+00; -4.8532005E-02;  1.0034592E+03;  1.7615779E-01;  2.8564412E+03;3;  3.5259178E+01;  0.0000000E+00; -1.1068459E+01;0;  6.0929143E-01;  1.3161599E+04;  0.0000000E+00; -2.7664164E-01;  4.0000000E+04;  0.0000000E+00;  3.9362043E+04;  3.1756729E-02;  0.0000000E+00;  5.7753474E-01;  1.0461401E+03;
  1.3455416E+00;  9.9999998E-03; -1.0080195E-01;8688;  1.1422156E+00;  0.0000000E+00; -5.4848175E-02;  1.0038071E+03;  1.7611325E-01;  3.1437739E+03;3;  3.4940323E+01;  0.0000000E+00; -1.1709682E+01;0;  6.5643507E-01;  1.3180904E+04;  0.0000000E+00; -2.2897610E-01;  4.0000000E+04;  0.0000000E+00;  3.9354027E+04;  7.2923534E-02;  0.0000000E+00;  5.8351153E-01;  1.2684961E+03;
  1.3455155E+00;  9.9999998E-03; -8.0703914E-02;8690;  1.1420077E+00;  0.0000000E+00; -4.2443834E-02;  1.0031069E+03;  1.7619009E-01;  2.5654614E+03;3;  3.5604034E+01;  0.0000000E+00; -1.0473256E+01;0;  5.6399161E-01;  1.3144412E+04;  0.0000000E+00; -2.7832898E-01;  4.0000000E+04;  0.0000000E+00;  3.9369242E+04; -4.1413540E-03;  0.0000000E+00;  5.6813294E-01;  1.4936873E+03;
  1.3455272E+00;  9.9999998E-03; -4.0367920E-02;8694;  1.1419889E+00;  0.0000000E+00; -1.9964008E-02;  1.0020045E+03;  1.7627896E-01;  1.6552148E+03;3;  3.6870380E+01;  0.0000000E+00; -6.4214249E+00;0;  4.2301476E-01;  1.3096261E+04;  0.0000000E+00; -9.9042475E-02;  4.0000000E+04;  0.0000000E+00;  3.9386316E+04; -9.8123208E-02;  0.0000000E+00;  5.2113795E-01;  3.4195657E+03;
  1.3455272E+00;  9.9999998E-03;  4.0367983E-02;8702;  1.1419889E+00;  0.0000000E+00;  1.9965038E-02;  1.0020045E+03;  1.7627896E-01;  1.6552148E+03;3;  3.6869465E+01;  0.0000000E+00;  6.4214139E+00;0;  4.2301339E-01;  1.3096264E+04;  0.0000000E+00; -9.9031806E-02;  4.0000000E+04;  0.0000000E+00;  3.9386320E+04; -9.8123312E-02;  0.0000000E+00;  5.2113670E-01;  3.4194863E+03;
  1.3455298E+00;  9.9999998E-03; -5.0458640E-02;8693;  1.1419792E+00;  0.0000000E+00; -2.5293285E-02;  1.0022022E+03;  1.7626262E-01;  1.8184230E+03;3;  3.6554474E+01;  0.0000000E+00; -7.7514544E+00;0;  4.5071000E-01;  1.3104806E+04;  0.0000000E+00; -1.4878277E-01;  4.0000000E+04;  0.0000000E+00;  3.9383680E+04; -8.1436232E-02;  0.0000000E+00;  5.3214622E-01;  3.0984175E+03;
  1.3455298E+00;  9.9999998E-03;  5.0458703E-02;8703;  1.1419791E+00;  0.0000000E+00;  2.5294293E-02;  1.0022020E+03;  1.7626262E-01;  1.8183245E+03;3;  3.6553082E+01;  0.0000000E+00;  7.7514892E+00;0;  4.5070979E-01;  1.3104804E+04;  0.0000000E+00; -1.4877312E-01;  4.0000000E+04;  0.0000000E+00;  3.9383676E+04; -8.1436306E-02;  0.0000000E+00;  5.3214610E-01;  3.0983613E+03;
  1.3455319E+00;  9.9999998E-03; -6.0547400E-02;8692;  1.1419719E+00;  0.0000000E+00; -3.0811740E-02;  1.0024594E+03;  1.7624100E-01;  2.0308494E+03;3;  3.6302502E+01;  0.0000000E+00; -8.8614855E+00;0;  4.8378992E-01;  1.3115835E+04;  0.0000000E+00; -2.0127276E-01;  4.0000000E+04;  0.0000000E+00;  3.9380109E+04; -6.0481306E-02;  0.0000000E+00;  5.4427123E-01;  2.6582488E+03;
  1.3455319E+00;  9.9999998E-03;  6.0547464E-02;8704;  1.1419719E+00;  0.0000000E+00;  3.0812750E-02;  1.0024592E+03;  1.7624077E-01;  2.0306525E+03;3;  3.6301468E+01;  0.0000000E+00;  8.8614845E+00;0;  4.8378894E-01;  1.3115837E+04;  0.0000000E+00; -2.0126528E-01;  4.0000000E+04;  0.0000000E+00;  3.9380109E+04; -6.0481824E-02;  0.0000000E+00;  5.4427075E-01;  2.6582297E+03;
  1.3455279E+00;  9.9999998E-03; -7.0630908E-02;8691;  1.1419663E+00;  0.0000000E+00; -3.6536667E-02;  1.0027605E+03;  1.7621650E-01;  2.2795010E+03;3;  3.5910156E+01;  0.0000000E+00; -9.8242674E+00;0;  5.2177346E-01;  1.3129196E+04;  0.0000000E+00; -2.4837363E-01;  4.0000000E+04;  0.0000000E+00;  3.9375441E+04; -3.4854062E-02;  0.0000000E+00;  5.5662751E-01;  2.1058438E+03;
  1.3455340E+00;  9.9999998E-03;  2.9390092E-08;8698;  1.1419821E+00;  0.0000000E+00;  5.0886581E-07;  1.0016940E+03;  1.7630339E-01;  1.3988850E+03;3;  3.7346481E+01;  0.0000000E+00;  1.3721554E-05;0;  3.7236959E-01;  1.3083510E+04;  0.0000000E+00; -1.0525102E-11;  4.0000000E+04;  0.0000000E+00;  3.9389457E+04; -1.2693237E-01;  0.0000000E+00;  4.9930197E-01;  3.8423577E+03;
  1.3455325E+00;  9.9999998E-03; -2.0185197E-02;8696;  1.1419828E+00;  0.0000000E+00; -9.7965319E-03;  1.0017661E+03;  1.7629787E-01;  1.4583408E+03;3;  3.7152370E+01;  0.0000000E+00; -3.3842316E+00;0;  3.8515782E-01;  1.3086456E+04;  0.0000000E+00; -2.5735456E-02;  4.0000000E+04;  0.0000000E+00;  3.9389012E+04; -1.1985792E-01;  0.0000000E+00;  5.0501573E-01;  3.7608369E+03;
  1.3455341E+00;  9.9999998E-03; -1.0093038E-02;8697;  1.1419840E+00;  0.0000000E+00; -4.8708119E-03;  1.0017112E+03;  1.7630193E-01;  1.4130598E+03;3;  3.7261936E+01;  0.0000000E+00; -1.6839008E+00;0;  3.7556601E-01;  1.3084271E+04;  0.0000000E+00; -6.4836112E-03;  4.0000000E+04;  0.0000000E+00;  3.9389320E+04; -1.2517802E-01;  0.0000000E+00;  5.0074404E-01;  3.8239519E+03;
  1.3455341E+00;  9.9999998E-03;  1.0093097E-02;8699;  1.1419840E+00;  0.0000000E+00;  4.8718271E-03;  1.0017114E+03;  1.7630163E-01;  1.4131583E+03;3;  3.7259792E+01;  0.0000000E+00;  1.6838675E+00;0;  3.7556612E-01;  1.3084273E+04;  0.0000000E+00; -6.4806910E-03;  4.0000000E+04;  0.0000000E+00;  3.9389320E+04; -1.2517829E-01;  0.0000000E+00;  5.0074440E-01;  3.8239434E+03;
  1.3455325E+00;  9.9999998E-03;  2.0185258E-02;8700;  1.1419828E+00;  0.0000000E+00;  9.7975582E-03;  1.0017662E+03;  1.7629796E-01;  1.4584392E+03;3;  3.7151993E+01;  0.0000000E+00;  3.3841519E+00;0;  3.8515669E-01;  1.3086459E+04;  0.0000000E+00; -2.5729481E-02;  4.0000000E+04;  0.0000000E+00;  3.9389008E+04; -1.1985804E-01;  0.0000000E+00;  5.0501472E-01;  3.7607888E+03;
  1.3455285E+00;  9.9999998E-03; -3.0276706E-02;8695;  1.1419854E+00;  0.0000000E+00; -1.4812084E-02;  1.0018610E+03;  1.7629018E-01;  1.5366969E+03;3;  3.6997272E+01;  0.0000000E+00; -4.9536886E+00;0;  4.0105930E-01;  1.3090282E+04;  0.0000000E+00; -5.7079546E-02;  4.0000000E+04;  0.0000000E+00;  3.9387836E+04; -1.1086812E-01;  0.0000000E+00;  5.1192743E-01;  3.6335273E+03;
  1.3455285E+00;  9.9999998E-03;  3.0276770E-02;8701;  1.1419853E+00;  0.0000000E+00;  1.4813120E-02;  1.0018611E+03;  1.7629108E-01;  1.5367954E+03;3;  3.6996624E+01;  0.0000000E+00;  4.9536700E+00;0;  4.0105838E-01;  1.3090278E+04;  0.0000000E+00; -5.7071831E-02;  4.0000000E+04;  0.0000000E+00;  3.9387828E+04; -1.1086852E-01;  0.0000000E+00;  5.1192689E-01;  3.6334741E+03;
  1.3625112E+00;  9.9999998E-03; -1.0073145E-01;8749;  1.1371185E+00;  0.0000000E+00; -5.0734773E-02;  1.0017364E+03;  1.6818717E-01;  1.4324653E+03;3;  3.5390038E+01;  0.0000000E+00; -1.3026586E+01;0;  3.9437312E-01;  1.4390054E+04;  0.0000000E+00; -2.9112437E-01;  4.0000000E+04;  0.0000000E+00;  3.9377336E+04; -1.6098344E-01;  0.0000000E+00;  5.5535656E-01;  2.4021521E+03;
  1.3625591E+00;  9.9999998E-03; -9.0673685E-02;8750;  1.1367795E+00;  0.0000000E+00; -4.4876534E-02;  1.0013687E+03;  1.6821115E-01;  1.1291718E+03;3;  3.5746487E+01;  0.0000000E+00; -1.2416872E+01;0;  3.5892171E-01;  1.4371830E+04;  0.0000000E+00; -3.1246260E-01;  4.0000000E+04;  0.0000000E+00;  3.9386168E+04; -1.8704802E-01;  0.0000000E+00;  5.4596972E-01;  3.3396956E+03;
  1.3625885E+00;  9.9999998E-03; -8.0610074E-02;8751;  1.1365180E+00;  0.0000000E+00; -3.9203592E-02;  1.0009871E+03;  1.6823585E-01;  8.1437500E+02;3;  3.6200417E+01;  0.0000000E+00; -1.1643447E+01;0;  3.2462460E-01;  1.4353513E+04;  0.0000000E+00; -2.9319277E-01;  4.0000000E+04;  0.0000000E+00;  3.9394074E+04; -2.0916080E-01;  0.0000000E+00;  5.3378540E-01;  4.2372842E+03;
  1.3626071E+00;  9.9999998E-03; -6.0470197E-02;8753;  1.1361618E+00;  0.0000000E+00; -2.8411288E-02;  1.0002920E+03;  1.6828117E-01;  2.4084073E+02;3;  3.6786213E+01;  0.0000000E+00; -9.4973536E+00;0;  2.6291174E-01;  1.4321485E+04;  0.0000000E+00; -1.9260699E-01;  4.0000000E+04;  0.0000000E+00;  3.9406551E+04; -2.4313621E-01;  0.0000000E+00;  5.0604796E-01;  5.7138184E+03;
  1.3626071E+00;  9.9999998E-03;  6.0470264E-02;8765;  1.1361616E+00;  0.0000000E+00;  2.8412335E-02;  1.0002918E+03;  1.6828200E-01;  2.4074239E+02;3;  3.6786869E+01;  0.0000000E+00;  9.4974804E+00;0;  2.6291096E-01;  1.4321485E+04;  0.0000000E+00; -1.9260165E-01;  4.0000000E+04;  0.0000000E+00;  3.9406559E+04; -2.4313636E-01;  0.0000000E+00;  5.0604731E-01;  5.7137637E+03;
  1.3626037E+00;  9.9999998E-03; -7.0541628E-02;8752;  1.1363126E+00;  0.0000000E+00; -3.3718921E-02;  1.0006216E+03;  1.6825952E-01;  5.1285614E+02;3;  3.6518051E+01;  0.0000000E+00; -1.0643626E+01;0;  2.9235005E-01;  1.4336588E+04;  0.0000000E+00; -2.4843456E-01;  4.0000000E+04;  0.0000000E+00;  3.9400895E+04; -2.2773688E-01;  0.0000000E+00;  5.2008694E-01;  5.0393530E+03;
  1.3625562E+00;  9.9999998E-03;  3.0396794E-08;8759;  1.1357582E+00;  0.0000000E+00;  5.1204256E-07;  9.9941559E+02;  1.6834651E-01; -4.8212552E+02;3;  3.7618225E+01;  0.0000000E+00; -7.6095137E-05;0;  1.7519194E-01;  1.4281914E+04;  0.0000000E+00; -9.8321830E-11;  4.0000000E+04;  0.0000000E+00;  3.9417867E+04; -2.8251335E-01;  0.0000000E+00;  4.5770529E-01;  7.1599927E+03;
  1.3625675E+00;  9.9999998E-03; -2.0163324E-02;8757;  1.1358085E+00;  0.0000000E+00; -9.0174936E-03;  9.9950250E+02;  1.6833867E-01; -4.1043338E+02;3;  3.7524612E+01;  0.0000000E+00; -3.2149520E+00;0;  1.8532005E-01;  1.4285981E+04;  0.0000000E+00; -2.1514589E-02;  4.0000000E+04;  0.0000000E+00;  3.9417176E+04; -2.7836761E-01;  0.0000000E+00;  4.6368766E-01;  7.0562939E+03;
  1.3625594E+00;  9.9999998E-03; -1.0082294E-02;8758;  1.1357697E+00;  0.0000000E+00; -4.4869799E-03;  9.9943750E+02;  1.6834451E-01; -4.6403040E+02;3;  3.7595470E+01;  0.0000000E+00; -1.5854260E+00;0;  1.7773005E-01;  1.4282906E+04;  0.0000000E+00; -5.3301048E-03;  4.0000000E+04;  0.0000000E+00;  3.9418008E+04; -2.8148341E-01;  0.0000000E+00;  4.5921347E-01;  7.1361904E+03;
  1.3625594E+00;  9.9999998E-03;  1.0082355E-02;8760;  1.1357697E+00;  0.0000000E+00;  4.4880095E-03;  9.9943762E+02;  1.6834395E-01; -4.6393204E+02;3;  3.7595337E+01;  0.0000000E+00;  1.5853716E+00;0;  1.7773014E-01;  1.4282905E+04;  0.0000000E+00; -5.3285016E-03;  4.0000000E+04;  0.0000000E+00;  3.9418008E+04; -2.8148329E-01;  0.0000000E+00;  4.5921344E-01;  7.1361753E+03;
  1.3625675E+00;  9.9999998E-03;  2.0163385E-02;8761;  1.1358085E+00;  0.0000000E+00;  9.0185497E-03;  9.9950256E+02;  1.6833827E-01; -4.1038422E+02;3;  3.7524422E+01;  0.0000000E+00;  3.2149949E+00;0;  1.8531942E-01;  1.4285979E+04;  0.0000000E+00; -2.1511216E-02;  4.0000000E+04;  0.0000000E+00;  3.9417180E+04; -2.7836782E-01;  0.0000000E+00;  4.6368724E-01;  7.0562432E+03;
  1.3625801E+00;  9.9999998E-03; -3.0242747E-02;8756;  1.1358678E+00;  0.0000000E+00; -1.3633517E-02;  9.9961591E+02;  1.6832897E-01; -3.1685999E+02;3;  3.7346390E+01;  0.0000000E+00; -4.8453541E+00;0;  1.9785470E-01;  1.4291258E+04;  0.0000000E+00; -4.8956610E-02;  4.0000000E+04;  0.0000000E+00;  3.9415930E+04; -2.7311179E-01;  0.0000000E+00;  4.7096649E-01;  6.8989541E+03;
  1.3625801E+00;  9.9999998E-03;  3.0242812E-02;8762;  1.1358676E+00;  0.0000000E+00;  1.3634570E-02;  9.9961584E+02;  1.6832834E-01; -3.1690918E+02;3;  3.7347916E+01;  0.0000000E+00;  4.8453503E+00;0;  1.9785434E-01;  1.4291265E+04;  0.0000000E+00; -4.8950318E-02;  4.0000000E+04;  0.0000000E+00;  3.9415930E+04; -2.7311188E-01;  0.0000000E+00;  4.7096622E-01;  6.8988931E+03;
  1.3625944E+00;  9.9999998E-03; -4.0320501E-02;8755;  1.1359528E+00;  0.0000000E+00; -1.8372515E-02;  9.9978882E+02;  1.6831492E-01; -1.7421384E+02;3;  3.7189247E+01;  0.0000000E+00; -6.5017104E+00;0;  2.1515796E-01;  1.4298914E+04;  0.0000000E+00; -8.7727390E-02;  4.0000000E+04;  0.0000000E+00;  3.9413934E+04; -2.6560968E-01;  0.0000000E+00;  4.8076764E-01;  6.6371685E+03;
  1.3625944E+00;  9.9999998E-03;  4.0320568E-02;8763;  1.1359529E+00;  0.0000000E+00;  1.8373581E-02;  9.9978876E+02;  1.6831475E-01; -1.7426300E+02;3;  3.7188400E+01;  0.0000000E+00;  6.5016704E+00;0;  2.1515822E-01;  1.4298914E+04;  0.0000000E+00; -8.7721460E-02;  4.0000000E+04;  0.0000000E+00;  3.9413934E+04; -2.6560974E-01;  0.0000000E+00;  4.8076797E-01;  6.6371279E+03;
  1.3626035E+00;  9.9999998E-03; -5.0396543E-02;8754;  1.1360441E+00;  0.0000000E+00; -2.3294801E-02;  1.0000119E+03;  1.6830045E-01;  9.8342505E+00;3;  3.6945644E+01;  0.0000000E+00; -8.1586800E+00;0;  2.3698992E-01;  1.4308973E+04;  0.0000000E+00; -1.3674614E-01;  4.0000000E+04;  0.0000000E+00;  3.9410906E+04; -2.5567907E-01;  0.0000000E+00;  4.9266899E-01;  6.2464272E+03;
  1.3626035E+00;  9.9999998E-03;  5.0396606E-02;8764;  1.1360441E+00;  0.0000000E+00;  2.3295831E-02;  1.0000119E+03;  1.6829990E-01;  9.8342505E+00;3;  3.6946560E+01;  0.0000000E+00;  8.1587114E+00;0;  2.3698950E-01;  1.4308975E+04;  0.0000000E+00; -1.3673630E-01;  4.0000000E+04;  0.0000000E+00;  3.9410914E+04; -2.5567931E-01;  0.0000000E+00;  4.9266881E-01;  6.2463716E+03;
  1.3786380E+00;  9.9999998E-03; -1.0064229E-01;8810;  1.1314898E+00;  0.0000000E+00; -4.6187315E-02;  9.9993585E+02;  1.6111358E-01; -5.2847473E+01;3;  3.6117653E+01;  0.0000000E+00; -1.4431398E+01;0;  2.3311308E-01;  1.5623737E+04;  0.0000000E+00; -2.8245908E-01;  4.0000000E+04;  0.0000000E+00;  3.9392500E+04; -2.8318623E-01;  0.0000000E+00;  5.1629931E-01;  4.2893062E+03;
  1.3787450E+00;  9.9999998E-03; -9.0582162E-02;8811;  1.1309037E+00;  0.0000000E+00; -4.0777188E-02;  9.9958112E+02;  1.6111837E-01; -3.4517551E+02;3;  3.6418331E+01;  0.0000000E+00; -1.3648681E+01;0;  2.0538855E-01;  1.5608027E+04;  0.0000000E+00; -2.6335806E-01;  4.0000000E+04;  0.0000000E+00;  3.9401082E+04; -2.9959327E-01;  0.0000000E+00;  5.0498182E-01;  5.3020337E+03;
  1.3788129E+00;  9.9999998E-03; -8.0523230E-02;8812;  1.1304560E+00;  0.0000000E+00; -3.5541385E-02;  9.9922443E+02;  1.6112916E-01; -6.3907214E+02;3;  3.6685860E+01;  0.0000000E+00; -1.2577766E+01;0;  1.7805845E-01;  1.5591336E+04;  0.0000000E+00; -2.2012521E-01;  4.0000000E+04;  0.0000000E+00;  3.9409629E+04; -3.1335154E-01;  0.0000000E+00;  4.9140999E-01;  6.2777925E+03;
  1.3788490E+00;  9.9999998E-03; -7.0466205E-02;8813;  1.1300927E+00;  0.0000000E+00; -3.0517265E-02;  9.9886938E+02;  1.6114493E-01; -9.3164185E+02;3;  3.6917713E+01;  0.0000000E+00; -1.1320818E+01;0;  1.5201131E-01;  1.5574958E+04;  0.0000000E+00; -1.6691378E-01;  4.0000000E+04;  0.0000000E+00;  3.9417062E+04; -3.2477829E-01;  0.0000000E+00;  4.7678959E-01;  7.1695308E+03;
  1.3788656E+00;  9.9999998E-03; -6.0407624E-02;8814;  1.1298040E+00;  0.0000000E+00; -2.5689520E-02;  9.9855151E+02;  1.6115858E-01; -1.1935648E+03;3;  3.7100437E+01;  0.0000000E+00; -9.9693346E+00;0;  1.2799695E-01;  1.5560129E+04;  0.0000000E+00; -1.1512998E-01;  4.0000000E+04;  0.0000000E+00;  3.9423402E+04; -3.3417857E-01;  0.0000000E+00;  4.6217552E-01;  7.9433174E+03;
  1.3788656E+00;  9.9999998E-03;  6.0407694E-02;8826;  1.1298039E+00;  0.0000000E+00;  2.5690591E-02;  9.9855194E+02;  1.6115850E-01; -1.1931719E+03;3;  3.7101189E+01;  0.0000000E+00;  9.9693146E+00;0;  1.2799603E-01;  1.5560123E+04;  0.0000000E+00; -1.1512618E-01;  4.0000000E+04;  0.0000000E+00;  3.9423395E+04; -3.3417860E-01;  0.0000000E+00;  4.6217462E-01;  7.9432734E+03;
  1.3788010E+00;  9.9999998E-03;  3.1118802E-08;8820;  1.1290337E+00;  0.0000000E+00;  5.2673226E-07;  9.9764557E+02;  1.6120465E-01; -1.9400564E+03;3;  3.7506191E+01;  0.0000000E+00; -3.9785227E-05;0;  5.5602133E-02;  1.5518206E+04;  0.0000000E+00; -1.2864705E-10;  4.0000000E+04;  0.0000000E+00;  3.9438152E+04; -3.5781822E-01;  0.0000000E+00;  4.1342035E-01;  9.7873936E+03;
  1.3788199E+00;  9.9999998E-03; -2.0143650E-02;8818;  1.1291291E+00;  0.0000000E+00; -8.2210042E-03;  9.9774109E+02;  1.6119768E-01; -1.8613235E+03;3;  3.7490593E+01;  0.0000000E+00; -3.3787463E+00;0;  6.3994169E-02;  1.5522800E+04;  0.0000000E+00; -7.5328592E-03;  4.0000000E+04;  0.0000000E+00;  3.9437016E+04; -3.5536590E-01;  0.0000000E+00;  4.1936007E-01;  9.6296836E+03;
  1.3788072E+00;  9.9999998E-03; -1.0072694E-02;8819;  1.1290538E+00;  0.0000000E+00; -4.1100462E-03;  9.9766943E+02;  1.6120185E-01; -1.9203606E+03;3;  3.7451283E+01;  0.0000000E+00; -1.7288382E+00;0;  5.7700366E-02;  1.5519351E+04;  0.0000000E+00; -1.6987778E-03;  4.0000000E+04;  0.0000000E+00;  3.9438055E+04; -3.5721248E-01;  0.0000000E+00;  4.1491285E-01;  9.7499932E+03;
  1.3788073E+00;  9.9999998E-03;  1.0072757E-02;8821;  1.1290540E+00;  0.0000000E+00;  4.1111056E-03;  9.9766937E+02;  1.6120243E-01; -1.9204097E+03;3;  3.7453232E+01;  0.0000000E+00;  1.7288051E+00;0;  5.7700664E-02;  1.5519350E+04;  0.0000000E+00; -1.6984318E-03;  4.0000000E+04;  0.0000000E+00;  3.9438055E+04; -3.5721242E-01;  0.0000000E+00;  4.1491309E-01;  9.7500078E+03;
  1.3788199E+00;  9.9999998E-03;  2.0143714E-02;8822;  1.1291291E+00;  0.0000000E+00;  8.2220603E-03;  9.9774103E+02;  1.6119781E-01; -1.8613726E+03;3;  3.7490219E+01;  0.0000000E+00;  3.3787057E+00;0;  6.3993901E-02;  1.5522798E+04;  0.0000000E+00; -7.5318790E-03;  4.0000000E+04;  0.0000000E+00;  3.9437016E+04; -3.5536611E-01;  0.0000000E+00;  4.1936001E-01;  9.6296416E+03;
  1.3788680E+00;  9.9999998E-03; -5.0345469E-02;8815;  1.1295779E+00;  0.0000000E+00; -2.1049321E-02;  9.9826917E+02;  1.6116847E-01; -1.4262168E+03;3;  3.7220104E+01;  0.0000000E+00; -8.4502687E+00;0;  1.0669985E-01;  1.5547484E+04;  0.0000000E+00; -7.1948066E-02;  4.0000000E+04;  0.0000000E+00;  3.9428562E+04; -3.4178072E-01;  0.0000000E+00;  4.4848058E-01;  8.5774814E+03;
  1.3788680E+00;  9.9999998E-03;  5.0345533E-02;8825;  1.1295779E+00;  0.0000000E+00;  2.1050395E-02;  9.9826923E+02;  1.6116872E-01; -1.4261677E+03;3;  3.7221176E+01;  0.0000000E+00;  8.4502764E+00;0;  1.0669896E-01;  1.5547480E+04;  0.0000000E+00; -7.1943723E-02;  4.0000000E+04;  0.0000000E+00;  3.9428562E+04; -3.4178129E-01;  0.0000000E+00;  4.4848025E-01;  8.5773975E+03;
  1.3788377E+00;  9.9999998E-03; -3.0212922E-02;8817;  1.1292412E+00;  0.0000000E+00; -1.2374824E-02;  9.9786316E+02;  1.6119067E-01; -1.7607356E+03;3;  3.7452644E+01;  0.0000000E+00; -5.0940456E+00;0;  7.4382871E-02;  1.5528650E+04;  0.0000000E+00; -1.9501274E-02;  4.0000000E+04;  0.0000000E+00;  3.9435281E+04; -3.5223660E-01;  0.0000000E+00;  4.2661947E-01;  9.4082627E+03;
  1.3788377E+00;  9.9999998E-03;  3.0212983E-02;8823;  1.1292413E+00;  0.0000000E+00;  1.2375891E-02;  9.9786346E+02;  1.6118978E-01; -1.7604900E+03;3;  3.7452236E+01;  0.0000000E+00;  5.0939527E+00;0;  7.4382007E-02;  1.5528648E+04;  0.0000000E+00; -1.9498790E-02;  4.0000000E+04;  0.0000000E+00;  3.9435289E+04; -3.5223714E-01;  0.0000000E+00;  4.2661914E-01;  9.4082773E+03;
  1.3788562E+00;  9.9999998E-03; -4.0280402E-02;8816;  1.1293962E+00;  0.0000000E+00; -1.6626086E-02;  9.9804114E+02;  1.6117980E-01; -1.6140789E+03;3;  3.7396034E+01;  0.0000000E+00; -6.7245612E+00;0;  8.8701457E-02;  1.5536931E+04;  0.0000000E+00; -4.0228717E-02;  4.0000000E+04;  0.0000000E+00;  3.9432582E+04; -3.4774861E-01;  0.0000000E+00;  4.3645006E-01;  9.0635117E+03;
  1.3788562E+00;  9.9999998E-03;  4.0280465E-02;8824;  1.1293962E+00;  0.0000000E+00;  1.6627146E-02;  9.9804126E+02;  1.6117996E-01; -1.6139806E+03;3;  3.7395287E+01;  0.0000000E+00;  6.7244616E+00;0;  8.8701278E-02;  1.5536932E+04;  0.0000000E+00; -4.0224914E-02;  4.0000000E+04;  0.0000000E+00;  3.9432586E+04; -3.4774867E-01;  0.0000000E+00;  4.3644994E-01;  9.0634766E+03;
  1.3940353E+00;  9.9999998E-03; -1.0057444E-01;8871;  1.1253999E+00;  0.0000000E+00; -4.1269638E-02;  9.9845435E+02;  1.5482467E-01; -1.2718724E+03;3;  3.6580257E+01;  0.0000000E+00; -1.5427985E+01;0;  1.2705764E-01;  1.6868564E+04;  0.0000000E+00; -2.2882386E-01;  4.0000000E+04;  0.0000000E+00;  3.9400648E+04; -3.4563372E-01;  0.0000000E+00;  4.7269136E-01;  5.8035474E+03;
  1.3941901E+00;  9.9999998E-03; -9.0516686E-02;8872;  1.1246269E+00;  0.0000000E+00; -3.6339540E-02;  9.9815833E+02;  1.5481836E-01; -1.5154133E+03;3;  3.6780876E+01;  0.0000000E+00; -1.4401772E+01;0;  1.0405499E-01;  1.6856303E+04;  0.0000000E+00; -1.6145444E-01;  4.0000000E+04;  0.0000000E+00;  3.9408895E+04; -3.5626447E-01;  0.0000000E+00;  4.6031946E-01;  6.7709097E+03;
  1.3942944E+00;  9.9999998E-03; -8.0466211E-02;8873;  1.1240152E+00;  0.0000000E+00; -3.1593349E-02;  9.9784473E+02;  1.5481825E-01; -1.7734240E+03;3;  3.6914150E+01;  0.0000000E+00; -1.3124520E+01;0;  8.1039786E-02;  1.6842500E+04;  0.0000000E+00; -9.2217550E-02;  4.0000000E+04;  0.0000000E+00;  3.9417090E+04; -3.6508214E-01;  0.0000000E+00;  4.4612193E-01;  7.7342300E+03;
  1.3943590E+00;  9.9999998E-03; -7.0415869E-02;8874;  1.1235226E+00;  0.0000000E+00; -2.7064979E-02;  9.9754260E+02;  1.5482198E-01; -2.0220204E+03;3;  3.7050461E+01;  0.0000000E+00; -1.1691553E+01;0;  5.8856636E-02;  1.6828459E+04;  0.0000000E+00; -3.3950843E-02;  4.0000000E+04;  0.0000000E+00;  3.9424680E+04; -3.7232921E-01;  0.0000000E+00;  4.3118584E-01;  8.6447900E+03;
  1.3943945E+00;  9.9999998E-03; -6.0362704E-02;8875;  1.1231203E+00;  0.0000000E+00; -2.2741621E-02;  9.9725415E+02;  1.5482514E-01; -2.2593894E+03;3;  3.7090038E+01;  0.0000000E+00; -1.0223876E+01;0;  3.8267136E-02;  1.6815232E+04;  0.0000000E+00;  6.1458424E-03;  4.0000000E+04;  0.0000000E+00;  3.9431547E+04; -3.7821278E-01;  0.0000000E+00;  4.1647992E-01;  9.4636748E+03;
  1.3943946E+00;  9.9999998E-03;  6.0362767E-02;8887;  1.1231204E+00;  0.0000000E+00;  2.2742694E-02;  9.9725439E+02;  1.5482615E-01; -2.2591934E+03;3;  3.7091038E+01;  0.0000000E+00;  1.0224018E+01;0;  3.8267165E-02;  1.6815225E+04;  0.0000000E+00;  6.1482494E-03;  4.0000000E+04;  0.0000000E+00;  3.9431539E+04; -3.7821293E-01;  0.0000000E+00;  4.1648009E-01;  9.4636279E+03;
  1.3943397E+00;  9.9999998E-03; -1.0064314E-02;8880;  1.1220936E+00;  0.0000000E+00; -3.6078743E-03;  9.9645837E+02;  1.5485123E-01; -2.9142009E+03;3;  3.7204273E+01;  0.0000000E+00; -1.9286344E+00;0; -2.2441685E-02;  1.6775766E+04;  0.0000000E+00;  3.5231102E-03;  4.0000000E+04;  0.0000000E+00;  3.9449395E+04; -3.9215282E-01;  0.0000000E+00;  3.6971113E-01;  1.1607038E+04;
  1.3943337E+00;  9.9999998E-03;  3.2289588E-08;8881;  1.1220707E+00;  0.0000000E+00;  5.4032637E-07;  9.9643683E+02;  1.5485312E-01; -2.9319080E+03;3;  3.7200802E+01;  0.0000000E+00;  2.0914420E-05;0; -2.4272412E-02;  1.6774631E+04;  0.0000000E+00; -1.3470369E-10;  4.0000000E+04;  0.0000000E+00;  3.9449789E+04; -3.9251116E-01;  0.0000000E+00;  3.6823875E-01;  1.1661226E+04;
  1.3943397E+00;  9.9999998E-03;  1.0064380E-02;8882;  1.1220936E+00;  0.0000000E+00;  3.6089600E-03;  9.9645831E+02;  1.5485196E-01; -2.9142500E+03;3;  3.7203808E+01;  0.0000000E+00;  1.9285979E+00;0; -2.2441566E-02;  1.6775766E+04;  0.0000000E+00;  3.5221125E-03;  4.0000000E+04;  0.0000000E+00;  3.9449398E+04; -3.9215276E-01;  0.0000000E+00;  3.6971119E-01;  1.1607029E+04;
  1.3943552E+00;  9.9999998E-03; -2.0126982E-02;8879;  1.1221702E+00;  0.0000000E+00; -7.2475695E-03;  9.9653088E+02;  1.5484843E-01; -2.8545085E+03;3;  3.7249611E+01;  0.0000000E+00; -3.6854348E+00;0; -1.6978741E-02;  1.6779344E+04;  0.0000000E+00;  1.2702641E-02;  4.0000000E+04;  0.0000000E+00;  3.9448066E+04; -3.9106533E-01;  0.0000000E+00;  3.7408659E-01;  1.1440163E+04;
  1.3943552E+00;  9.9999998E-03;  2.0127047E-02;8883;  1.1221701E+00;  0.0000000E+00;  7.2486550E-03;  9.9653076E+02;  1.5484892E-01; -2.8546064E+03;3;  3.7249184E+01;  0.0000000E+00;  3.6853530E+00;0; -1.6979307E-02;  1.6779342E+04;  0.0000000E+00;  1.2701789E-02;  4.0000000E+04;  0.0000000E+00;  3.9448074E+04; -3.9106575E-01;  0.0000000E+00;  3.7408644E-01;  1.1440114E+04;
  1.3944043E+00;  9.9999998E-03; -5.0306376E-02;8876;  1.1227949E+00;  0.0000000E+00; -1.8627277E-02;  9.9700897E+02;  1.5483096E-01; -2.4611074E+03;3;  3.7154594E+01;  0.0000000E+00; -8.5780973E+00;0;  1.9947112E-02;  1.6803434E+04;  0.0000000E+00;  2.6563359E-02;  4.0000000E+04;  0.0000000E+00;  3.9437324E+04; -3.8289538E-01;  0.0000000E+00;  4.0284249E-01;  1.0162821E+04;
  1.3944043E+00;  9.9999998E-03;  5.0306439E-02;8886;  1.1227949E+00;  0.0000000E+00;  1.8628364E-02;  9.9700891E+02;  1.5483141E-01; -2.4611565E+03;3;  3.7153603E+01;  0.0000000E+00;  8.5780926E+00;0;  1.9946814E-02;  1.6803428E+04;  0.0000000E+00;  2.6564738E-02;  4.0000000E+04;  0.0000000E+00;  3.9437324E+04; -3.8289618E-01;  0.0000000E+00;  4.0284300E-01;  1.0162787E+04;
  1.3943753E+00;  9.9999998E-03; -3.0188102E-02;8878;  1.1223166E+00;  0.0000000E+00; -1.0940706E-02;  9.9664398E+02;  1.5484369E-01; -2.7614648E+03;3;  3.7287395E+01;  0.0000000E+00; -5.3264041E+00;0; -7.9728067E-03;  1.6785199E+04;  0.0000000E+00;  2.3608850E-02;  4.0000000E+04;  0.0000000E+00;  3.9445656E+04; -3.8920990E-01;  0.0000000E+00;  3.8123709E-01;  1.1150230E+04;
  1.3943753E+00;  9.9999998E-03;  3.0188167E-02;8884;  1.1223164E+00;  0.0000000E+00;  1.0941787E-02;  9.9664410E+02;  1.5484367E-01; -2.7613667E+03;3;  3.7286533E+01;  0.0000000E+00;  5.3262420E+00;0; -7.9729855E-03;  1.6785199E+04;  0.0000000E+00;  2.3608079E-02;  4.0000000E+04;  0.0000000E+00;  3.9445656E+04; -3.8921008E-01;  0.0000000E+00;  3.8123709E-01;  1.1150188E+04;
  1.3943949E+00;  9.9999998E-03; -4.0247954E-02;8877;  1.1225290E+00;  0.0000000E+00; -1.4710571E-02;  9.9680457E+02;  1.5483843E-01; -2.6292839E+03;3;  3.7279434E+01;  0.0000000E+00; -6.9828238E+00;0;  4.4142008E-03;  1.6793342E+04;  0.0000000E+00;  3.0432675E-02;  4.0000000E+04;  0.0000000E+00;  3.9441961E+04; -3.8651964E-01;  0.0000000E+00;  3.9093384E-01;  1.0726372E+04;
  1.3943949E+00;  9.9999998E-03;  4.0248018E-02;8885;  1.1225290E+00;  0.0000000E+00;  1.4711664E-02;  9.9680457E+02;  1.5483843E-01; -2.6292839E+03;3;  3.7280762E+01;  0.0000000E+00;  6.9829102E+00;0;  4.4136643E-03;  1.6793348E+04;  0.0000000E+00;  3.0432032E-02;  4.0000000E+04;  0.0000000E+00;  3.9441969E+04; -3.8652024E-01;  0.0000000E+00;  3.9093390E-01;  1.0726354E+04;
  1.4088501E+00;  9.9999998E-03; -1.0054230E-01;8931;  1.1190425E+00;  0.0000000E+00; -3.6184140E-02;  9.9728687E+02;  1.4924978E-01; -2.2288164E+03;3;  3.6712528E+01;  0.0000000E+00; -1.6136293E+01;0;  4.9791902E-02;  1.8110703E+04;  0.0000000E+00; -1.5646337E-01;  4.0000000E+04;  0.0000000E+00;  3.9403434E+04; -3.7804827E-01;  0.0000000E+00;  4.2784017E-01;  7.0822783E+03;
  1.4090277E+00;  9.9999998E-03; -9.0486526E-02;8932;  1.1181439E+00;  0.0000000E+00; -3.1722624E-02;  9.9704987E+02;  1.4923853E-01; -2.4234453E+03;3;  3.6778671E+01;  0.0000000E+00; -1.4797679E+01;0;  2.9868603E-02;  1.8101613E+04;  0.0000000E+00; -4.5242388E-02;  4.0000000E+04;  0.0000000E+00;  3.9410594E+04; -3.8500863E-01;  0.0000000E+00;  4.1487724E-01;  7.9308086E+03;
  1.4091581E+00;  9.9999998E-03; -8.0434725E-02;8933;  1.1174138E+00;  0.0000000E+00; -2.7486594E-02;  9.9680731E+02;  1.4923191E-01; -2.6226345E+03;3;  3.6809174E+01;  0.0000000E+00; -1.3385771E+01;0;  9.7225606E-03;  1.8091053E+04;  0.0000000E+00;  4.6189658E-02;  4.0000000E+04;  0.0000000E+00;  3.9418148E+04; -3.9065486E-01;  0.0000000E+00;  4.0037742E-01;  8.7990137E+03;
  1.4092454E+00;  9.9999998E-03; -7.0382297E-02;8934;  1.1168226E+00;  0.0000000E+00; -2.3461362E-02;  9.9656323E+02;  1.4922966E-01; -2.8231055E+03;3;  3.6852978E+01;  0.0000000E+00; -1.1959367E+01;0; -9.8096132E-03;  1.8079844E+04;  0.0000000E+00;  1.0647307E-01;  4.0000000E+04;  0.0000000E+00;  3.9425207E+04; -3.9516187E-01;  0.0000000E+00;  3.8535225E-01;  9.6411074E+03;
  1.4092231E+00;  9.9999998E-03;  3.3869238E-08;8941;  1.1151004E+00;  0.0000000E+00;  5.5933020E-07;  9.9569073E+02;  1.4924830E-01; -3.5398225E+03;3;  3.6665905E+01;  0.0000000E+00;  2.9482326E-05;0; -8.3547890E-02;  1.8030984E+04;  0.0000000E+00; -1.1768579E-10;  4.0000000E+04;  0.0000000E+00;  3.9452016E+04; -4.0653542E-01;  0.0000000E+00;  3.2298753E-01;  1.2756059E+04;
  1.4093090E+00;  9.9999998E-03; -5.0277047E-02;8936;  1.1159384E+00;  0.0000000E+00; -1.6060928E-02;  9.9615173E+02;  1.4923200E-01; -3.1611143E+03;3;  3.6872280E+01;  0.0000000E+00; -8.5755787E+00;0; -4.4199139E-02;  1.8058432E+04;  0.0000000E+00;  1.2848447E-01;  4.0000000E+04;  0.0000000E+00;  3.9437871E+04; -4.0139294E-01;  0.0000000E+00;  3.5719380E-01;  1.1112416E+04;
  1.4093090E+00;  9.9999998E-03;  5.0277114E-02;8946;  1.1159383E+00;  0.0000000E+00;  1.6062032E-02;  9.9615167E+02;  1.4923219E-01; -3.1611631E+03;3;  3.6873199E+01;  0.0000000E+00;  8.5756330E+00;0; -4.4198871E-02;  1.8058434E+04;  0.0000000E+00;  1.2847911E-01;  4.0000000E+04;  0.0000000E+00;  3.9437867E+04; -4.0139276E-01;  0.0000000E+00;  3.5719389E-01;  1.1112379E+04;
  1.4092935E+00;  9.9999998E-03; -6.0329322E-02;8935;  1.1163404E+00;  0.0000000E+00; -1.9642938E-02;  9.9634460E+02;  1.4922984E-01; -3.0026802E+03;3;  3.6863430E+01;  0.0000000E+00; -1.0307131E+01;0; -2.7985901E-02;  1.8068887E+04;  0.0000000E+00;  1.3256459E-01;  4.0000000E+04;  0.0000000E+00;  3.9431816E+04; -3.9869145E-01;  0.0000000E+00;  3.7070554E-01;  1.0420985E+04;
  1.4092935E+00;  9.9999998E-03;  6.0329385E-02;8947;  1.1163402E+00;  0.0000000E+00;  1.9644031E-02;  9.9634473E+02;  1.4922956E-01; -3.0025820E+03;3;  3.6862225E+01;  0.0000000E+00;  1.0307067E+01;0; -2.7987361E-02;  1.8068875E+04;  0.0000000E+00;  1.3256150E-01;  4.0000000E+04;  0.0000000E+00;  3.9431824E+04; -3.9869225E-01;  0.0000000E+00;  3.7070489E-01;  1.0421006E+04;
  1.4092491E+00;  9.9999998E-03; -2.0115286E-02;8939;  1.1152176E+00;  0.0000000E+00; -6.1894008E-03;  9.9576215E+02;  1.4924449E-01; -3.4811543E+03;3;  3.6688824E+01;  0.0000000E+00; -3.5658865E+00;0; -7.7029318E-02;  1.8035715E+04;  0.0000000E+00;  3.3345435E-02;  4.0000000E+04;  0.0000000E+00;  3.9449609E+04; -4.0580377E-01;  0.0000000E+00;  3.2877445E-01;  1.2490389E+04;
  1.4092298E+00;  9.9999998E-03; -1.0058057E-02;8940;  1.1151291E+00;  0.0000000E+00; -3.0620813E-03;  9.9570892E+02;  1.4924653E-01; -3.5248860E+03;3;  3.6637337E+01;  0.0000000E+00; -1.7871971E+00;0; -8.1909597E-02;  1.8032088E+04;  0.0000000E+00;  8.8343937E-03;  4.0000000E+04;  0.0000000E+00;  3.9451457E+04; -4.0635571E-01;  0.0000000E+00;  3.2444611E-01;  1.2689680E+04;
  1.4092298E+00;  9.9999998E-03;  1.0058125E-02;8942;  1.1151291E+00;  0.0000000E+00;  3.0631837E-03;  9.9570898E+02;  1.4924641E-01; -3.5248372E+03;3;  3.6637173E+01;  0.0000000E+00;  1.7871604E+00;0; -8.1909508E-02;  1.8032096E+04;  0.0000000E+00;  8.8329110E-03;  4.0000000E+04;  0.0000000E+00;  3.9451457E+04; -4.0635571E-01;  0.0000000E+00;  3.2444620E-01;  1.2689677E+04;
  1.4092491E+00;  9.9999998E-03;  2.0115353E-02;8943;  1.1152173E+00;  0.0000000E+00;  6.1905021E-03;  9.9576208E+02;  1.4924420E-01; -3.4812034E+03;3;  3.6688210E+01;  0.0000000E+00;  3.5658462E+00;0; -7.7029914E-02;  1.8035717E+04;  0.0000000E+00;  3.3342872E-02;  4.0000000E+04;  0.0000000E+00;  3.9449613E+04; -4.0580377E-01;  0.0000000E+00;  3.2877386E-01;  1.2490360E+04;
  1.4092742E+00;  9.9999998E-03; -3.0170836E-02;8938;  1.1153740E+00;  0.0000000E+00; -9.3922084E-03;  9.9585748E+02;  1.4924039E-01; -3.4028530E+03;3;  3.6705299E+01;  0.0000000E+00; -5.2931347E+00;0; -6.8997562E-02;  1.8041352E+04;  0.0000000E+00;  6.7762174E-02;  4.0000000E+04;  0.0000000E+00;  3.9446816E+04; -4.0484104E-01;  0.0000000E+00;  3.3584347E-01;  1.2158192E+04;
  1.4092742E+00;  9.9999998E-03;  3.0170903E-02;8944;  1.1153738E+00;  0.0000000E+00;  9.3933111E-03;  9.9585718E+02;  1.4924031E-01; -3.4030979E+03;3;  3.6704376E+01;  0.0000000E+00;  5.2931442E+00;0; -6.8997294E-02;  1.8041354E+04;  0.0000000E+00;  6.7758679E-02;  4.0000000E+04;  0.0000000E+00;  3.9446816E+04; -4.0484086E-01;  0.0000000E+00;  3.3584356E-01;  1.2158133E+04;
  1.4092979E+00;  9.9999998E-03; -4.0224764E-02;8937;  1.1156183E+00;  0.0000000E+00; -1.2663032E-02;  9.9598450E+02;  1.4923528E-01; -3.2985054E+03;3;  3.6819996E+01;  0.0000000E+00; -6.8898821E+00;0; -5.7977408E-02;  1.8049119E+04;  0.0000000E+00;  1.0313989E-01;  4.0000000E+04;  0.0000000E+00;  3.9442773E+04; -4.0340275E-01;  0.0000000E+00;  3.4542534E-01;  1.1696029E+04;
  1.4092981E+00;  9.9999998E-03;  4.0224832E-02;8945;  1.1156182E+00;  0.0000000E+00;  1.2664137E-02;  9.9598431E+02;  1.4923532E-01; -3.2986523E+03;3;  3.6821289E+01;  0.0000000E+00;  6.8898835E+00;0; -5.7977229E-02;  1.8049123E+04;  0.0000000E+00;  1.0313731E-01;  4.0000000E+04;  0.0000000E+00;  3.9442773E+04; -4.0340260E-01;  0.0000000E+00;  3.4542537E-01;  1.1695978E+04;
  1.4231507E+00;  9.9999998E-03; -1.0056298E-01;8990;  1.1126360E+00;  0.0000000E+00; -3.1110311E-02;  9.9638153E+02;  1.4433254E-01; -2.9666121E+03;3;  3.6526005E+01;  0.0000000E+00; -1.6409279E+01;0; -1.0543108E-02;  1.9333178E+04;  0.0000000E+00; -8.8501245E-02;  4.0000000E+04;  0.0000000E+00;  3.9401559E+04; -3.9402801E-01;  0.0000000E+00;  3.8348490E-01;  8.2212002E+03;
  1.4233445E+00;  9.9999998E-03; -9.0491898E-02;8991;  1.1116607E+00;  0.0000000E+00; -2.7115643E-02;  9.9620160E+02;  1.4431852E-01; -3.1140479E+03;3;  3.6453430E+01;  0.0000000E+00; -1.4892879E+01;0; -2.8250366E-02;  1.9327137E+04;  0.0000000E+00;  5.1692400E-02;  4.0000000E+04;  0.0000000E+00;  3.9407363E+04; -3.9828822E-01;  0.0000000E+00;  3.7003785E-01;  8.9029863E+03;
  1.4234955E+00;  9.9999998E-03; -8.0425799E-02;8992;  1.1108633E+00;  0.0000000E+00; -2.3363236E-02;  9.9602673E+02;  1.4430891E-01; -3.2572942E+03;3;  3.6411602E+01;  0.0000000E+00; -1.3365533E+01;0; -4.6216309E-02;  1.9320064E+04;  0.0000000E+00;  1.5563081E-01;  4.0000000E+04;  0.0000000E+00;  3.9413492E+04; -4.0150613E-01;  0.0000000E+00;  3.5528982E-01;  9.6081191E+03;
  1.4235971E+00;  9.9999998E-03; -7.0368201E-02;8993;  1.1102138E+00;  0.0000000E+00; -1.9836288E-02;  9.9586389E+02;  1.4430414E-01; -3.3907375E+03;3;  3.6315514E+01;  0.0000000E+00; -1.1783537E+01;0; -6.3636869E-02;  1.9311852E+04;  0.0000000E+00;  2.1413116E-01;  4.0000000E+04;  0.0000000E+00;  3.9419492E+04; -4.0384415E-01;  0.0000000E+00;  3.4020728E-01;  1.0302581E+04;
  1.4236526E+00;  9.9999998E-03; -6.0315475E-02;8994;  1.1096871E+00;  0.0000000E+00; -1.6545035E-02;  9.9571295E+02;  1.4430359E-01; -3.5144785E+03;3;  3.6242573E+01;  0.0000000E+00; -9.9408045E+00;0; -7.9858512E-02;  1.9303156E+04;  0.0000000E+00;  2.2788820E-01;  4.0000000E+04;  0.0000000E+00;  3.9425188E+04; -4.0547061E-01;  0.0000000E+00;  3.2561210E-01;  1.0960184E+04;
  1.4236526E+00;  9.9999998E-03;  6.0315546E-02;9006;  1.1096870E+00;  0.0000000E+00;  1.6546160E-02;  9.9571289E+02;  1.4430322E-01; -3.5145273E+03;3;  3.6245811E+01;  0.0000000E+00;  9.9410677E+00;0; -7.9858422E-02;  1.9303162E+04;  0.0000000E+00;  2.2788620E-01;  4.0000000E+04;  0.0000000E+00;  3.9425168E+04; -4.0547052E-01;  0.0000000E+00;  3.2561210E-01;  1.0960142E+04;
  1.4236733E+00;  9.9999998E-03; -5.0264355E-02;8995;  1.1092538E+00;  0.0000000E+00; -1.3485914E-02;  9.9557648E+02;  1.4430298E-01; -3.6263147E+03;3;  3.6149467E+01;  0.0000000E+00; -8.2330303E+00;0; -9.4359577E-02;  1.9294625E+04;  0.0000000E+00;  2.0480224E-01;  4.0000000E+04;  0.0000000E+00;  3.9430605E+04; -4.0654370E-01;  0.0000000E+00;  3.1218413E-01;  1.1561588E+04;
  1.4236733E+00;  9.9999998E-03;  5.0264422E-02;9005;  1.1092536E+00;  0.0000000E+00;  1.3487032E-02;  9.9557654E+02;  1.4430316E-01; -3.6262659E+03;3;  3.6150417E+01;  0.0000000E+00;  8.2330780E+00;0; -9.4359338E-02;  1.9294627E+04;  0.0000000E+00;  2.0479986E-01;  4.0000000E+04;  0.0000000E+00;  3.9430602E+04; -4.0654314E-01;  0.0000000E+00;  3.1218380E-01;  1.1561592E+04;
  1.4236029E+00;  9.9999998E-03; -1.0054911E-02;8999;  1.1084024E+00;  0.0000000E+00; -2.5387679E-03;  9.9529718E+02;  1.4431579E-01; -3.8553286E+03;3;  3.5812412E+01;  0.0000000E+00; -1.6337268E+00;0; -1.2825158E-01;  1.9272373E+04;  0.0000000E+00;  1.2821395E-02;  4.0000000E+04;  0.0000000E+00;  3.9444070E+04; -4.0788177E-01;  0.0000000E+00;  2.7963018E-01;  1.3053058E+04;
  1.4235960E+00;  9.9999998E-03;  3.4692654E-08;9000;  1.1083645E+00;  0.0000000E+00;  5.6922141E-07;  9.9528577E+02;  1.4431761E-01; -3.8647144E+03;3;  3.5794262E+01;  0.0000000E+00; -4.0717518E-05;0; -1.2972614E-01;  1.9271303E+04;  0.0000000E+00; -9.7858180E-11;  4.0000000E+04;  0.0000000E+00;  3.9444500E+04; -4.0790632E-01;  0.0000000E+00;  2.7818018E-01;  1.3121215E+04;
  1.4236029E+00;  9.9999998E-03;  1.0054980E-02;9001;  1.1084024E+00;  0.0000000E+00;  2.5399022E-03;  9.9529712E+02;  1.4431642E-01; -3.8553777E+03;3;  3.5812176E+01;  0.0000000E+00;  1.6337187E+00;0; -1.2825173E-01;  1.9272367E+04;  0.0000000E+00;  1.2819319E-02;  4.0000000E+04;  0.0000000E+00;  3.9444074E+04; -4.0788183E-01;  0.0000000E+00;  2.7963009E-01;  1.3053081E+04;
  1.4236215E+00;  9.9999998E-03; -2.0109110E-02;8998;  1.1085018E+00;  0.0000000E+00; -5.1318388E-03;  9.9533246E+02;  1.4431426E-01; -3.8263904E+03;3;  3.5834129E+01;  0.0000000E+00; -3.3668602E+00;0; -1.2385541E-01;  1.9275461E+04;  0.0000000E+00;  4.8826709E-02;  4.0000000E+04;  0.0000000E+00;  3.9442133E+04; -4.0779141E-01;  0.0000000E+00;  2.8393599E-01;  1.2851428E+04;
  1.4236215E+00;  9.9999998E-03;  2.0109178E-02;9002;  1.1085019E+00;  0.0000000E+00;  5.1329699E-03;  9.9533228E+02;  1.4431448E-01; -3.8265371E+03;3;  3.5835995E+01;  0.0000000E+00;  3.3668432E+00;0; -1.2385529E-01;  1.9275469E+04;  0.0000000E+00;  4.8823342E-02;  4.0000000E+04;  0.0000000E+00;  3.9442137E+04; -4.0779138E-01;  0.0000000E+00;  2.8393608E-01;  1.2851425E+04;
  1.4236456E+00;  9.9999998E-03; -3.0161841E-02;8997;  1.1086661E+00;  0.0000000E+00; -7.8111370E-03;  9.9538782E+02;  1.4431109E-01; -3.7810308E+03;3;  3.5906284E+01;  0.0000000E+00; -5.0128250E+00;0; -1.1662462E-01;  1.9280350E+04;  0.0000000E+00;  1.0082804E-01;  4.0000000E+04;  0.0000000E+00;  3.9439258E+04; -4.0759036E-01;  0.0000000E+00;  2.9096574E-01;  1.2525406E+04;
  1.4236456E+00;  9.9999998E-03;  3.0161908E-02;9003;  1.1086659E+00;  0.0000000E+00;  7.8122644E-03;  9.9538794E+02;  1.4431107E-01; -3.7809331E+03;3;  3.5905380E+01;  0.0000000E+00;  5.0128193E+00;0; -1.1662510E-01;  1.9280357E+04;  0.0000000E+00;  1.0082348E-01;  4.0000000E+04;  0.0000000E+00;  3.9439258E+04; -4.0759096E-01;  0.0000000E+00;  2.9096586E-01;  1.2525381E+04;
  1.4236672E+00;  9.9999998E-03; -4.0213425E-02;8996;  1.1089101E+00;  0.0000000E+00; -1.0597823E-02;  9.9546936E+02;  1.4430681E-01; -3.7141736E+03;3;  3.6030685E+01;  0.0000000E+00; -6.6161885E+00;0; -1.0671946E-01;  1.9286947E+04;  0.0000000E+00;  1.5752846E-01;  4.0000000E+04;  0.0000000E+00;  3.9435422E+04; -4.0720823E-01;  0.0000000E+00;  3.0048877E-01;  1.2089415E+04;
  1.4236672E+00;  9.9999998E-03;  4.0213492E-02;9004;  1.1089102E+00;  0.0000000E+00;  1.0598947E-02;  9.9546936E+02;  1.4430681E-01; -3.7141736E+03;3;  3.6031979E+01;  0.0000000E+00;  6.6162400E+00;0; -1.0671952E-01;  1.9286945E+04;  0.0000000E+00;  1.5752378E-01;  4.0000000E+04;  0.0000000E+00;  3.9435422E+04; -4.0720823E-01;  0.0000000E+00;  3.0048871E-01;  1.2089388E+04;
  1.4370021E+00;  9.9999998E-03; -1.0061460E-01;9049;  1.1063474E+00;  0.0000000E+00; -2.6189635E-02;  9.9569763E+02;  1.4001273E-01; -3.5189570E+03;3;  3.6002422E+01;  0.0000000E+00; -1.6408710E+01;0; -5.9748471E-02;  2.0520645E+04;  0.0000000E+00; -4.0898774E-02;  4.0000000E+04;  0.0000000E+00;  3.9395500E+04; -4.0012538E-01;  0.0000000E+00;  3.4037691E-01;  9.2388242E+03;
  1.4372100E+00;  9.9999998E-03; -9.0523839E-02;9050;  1.1053443E+00;  0.0000000E+00; -2.2635572E-02;  9.9555859E+02;  1.3999729E-01; -3.6325020E+03;3;  3.5872265E+01;  0.0000000E+00; -1.4917559E+01;0; -7.5533032E-02;  2.0517586E+04;  0.0000000E+00;  1.0795407E-01;  4.0000000E+04;  0.0000000E+00;  3.9399746E+04; -4.0196383E-01;  0.0000000E+00;  3.2643080E-01;  9.7404209E+03;
  1.4373690E+00;  9.9999998E-03; -8.0449305E-02;9051;  1.1045272E+00;  0.0000000E+00; -1.9341281E-02;  9.9544122E+02;  1.3998629E-01; -3.7284253E+03;3;  3.5721119E+01;  0.0000000E+00; -1.3252357E+01;0; -9.1493487E-02;  2.0513266E+04;  0.0000000E+00;  2.1183658E-01;  4.0000000E+04;  0.0000000E+00;  3.9403965E+04; -4.0294448E-01;  0.0000000E+00;  3.1145099E-01;  1.0248544E+04;
  1.4374796E+00;  9.9999998E-03; -7.0384778E-02;9052;  1.1038713E+00;  0.0000000E+00; -1.6299829E-02;  9.9534808E+02;  1.3998237E-01; -3.8044895E+03;3;  3.5526863E+01;  0.0000000E+00; -1.1417597E+01;0; -1.0696992E-01;  2.0508068E+04;  0.0000000E+00;  2.6456240E-01;  4.0000000E+04;  0.0000000E+00;  3.9408355E+04; -4.0325421E-01;  0.0000000E+00;  2.9628429E-01;  1.0746723E+04;
  1.4375488E+00;  9.9999998E-03; -6.0325500E-02;9053;  1.1033378E+00;  0.0000000E+00; -1.3522607E-02;  9.9526642E+02;  1.3997896E-01; -3.8712212E+03;3;  3.5353016E+01;  0.0000000E+00; -9.5949183E+00;0; -1.2139997E-01;  2.0502418E+04;  0.0000000E+00;  2.6959050E-01;  4.0000000E+04;  0.0000000E+00;  3.9412758E+04; -4.0307671E-01;  0.0000000E+00;  2.8167674E-01;  1.1221365E+04;
  1.4375488E+00;  9.9999998E-03;  6.0325570E-02;9065;  1.1033378E+00;  0.0000000E+00;  1.3523741E-02;  9.9526648E+02;  1.3997887E-01; -3.8711726E+03;3;  3.5353939E+01;  0.0000000E+00;  9.5950327E+00;0; -1.2140039E-01;  2.0502412E+04;  0.0000000E+00;  2.6958629E-01;  4.0000000E+04;  0.0000000E+00;  3.9412758E+04; -4.0307656E-01;  0.0000000E+00;  2.8167617E-01;  1.1221367E+04;
  1.4375355E+00;  9.9999998E-03; -1.0055340E-02;9058;  1.1020880E+00;  0.0000000E+00; -2.0391080E-03;  9.9507843E+02;  1.3999096E-01; -4.0249771E+03;3;  3.4746204E+01;  0.0000000E+00; -1.5338550E+00;0; -1.6448730E-01;  2.0480043E+04;  0.0000000E+00;  1.4463386E-02;  4.0000000E+04;  0.0000000E+00;  3.9427688E+04; -4.0039861E-01;  0.0000000E+00;  2.3591131E-01;  1.2824543E+04;
  1.4375297E+00;  9.9999998E-03;  3.5527581E-08;9059;  1.1020548E+00;  0.0000000E+00;  5.8189170E-07;  9.9507654E+02;  1.3999233E-01; -4.0265415E+03;3;  3.4713840E+01;  0.0000000E+00; -1.2106582E-05;0; -1.6580097E-01;  2.0479217E+04;  0.0000000E+00; -7.7967056E-11;  4.0000000E+04;  0.0000000E+00;  3.9428086E+04; -4.0027186E-01;  0.0000000E+00;  2.3447089E-01;  1.2881362E+04;
  1.4375355E+00;  9.9999998E-03;  1.0055410E-02;9060;  1.1020880E+00;  0.0000000E+00;  2.0402721E-03;  9.9507855E+02;  1.3999103E-01; -4.0248794E+03;3;  3.4745960E+01;  0.0000000E+00;  1.5339276E+00;0; -1.6448732E-01;  2.0480039E+04;  0.0000000E+00;  1.4461014E-02;  4.0000000E+04;  0.0000000E+00;  3.9427688E+04; -4.0039852E-01;  0.0000000E+00;  2.3591121E-01;  1.2824566E+04;
  1.4375514E+00;  9.9999998E-03; -2.0110136E-02;9057;  1.1021880E+00;  0.0000000E+00; -4.1048224E-03;  9.9509131E+02;  1.3998881E-01; -4.0144355E+03;3;  3.4793789E+01;  0.0000000E+00; -3.0948906E+00;0; -1.6057061E-01;  2.0482312E+04;  0.0000000E+00;  5.5184565E-02;  4.0000000E+04;  0.0000000E+00;  3.9426164E+04; -4.0076002E-01;  0.0000000E+00;  2.4018942E-01;  1.2658893E+04;
  1.4375514E+00;  9.9999998E-03;  2.0110207E-02;9061;  1.1021881E+00;  0.0000000E+00;  4.1059800E-03;  9.9509131E+02;  1.3998881E-01; -4.0144355E+03;3;  3.4793125E+01;  0.0000000E+00;  3.0948224E+00;0; -1.6057070E-01;  2.0482324E+04;  0.0000000E+00;  5.5180546E-02;  4.0000000E+04;  0.0000000E+00;  3.9426164E+04; -4.0075994E-01;  0.0000000E+00;  2.4018924E-01;  1.2658869E+04;
  1.4375716E+00;  9.9999998E-03; -3.0163705E-02;9056;  1.1023474E+00;  0.0000000E+00; -6.2695313E-03;  9.9511279E+02;  1.3998577E-01; -3.9968716E+03;3;  3.4875652E+01;  0.0000000E+00; -4.6963859E+00;0; -1.5413260E-01;  2.0486162E+04;  0.0000000E+00;  1.1436526E-01;  4.0000000E+04;  0.0000000E+00;  3.9423508E+04; -4.0130460E-01;  0.0000000E+00;  2.4717200E-01;  1.2397477E+04;
  1.4375716E+00;  9.9999998E-03;  3.0163774E-02;9062;  1.1023474E+00;  0.0000000E+00;  6.2706792E-03;  9.9511279E+02;  1.3998577E-01; -3.9968716E+03;3;  3.4874760E+01;  0.0000000E+00;  4.6962857E+00;0; -1.5413307E-01;  2.0486172E+04;  0.0000000E+00;  1.1436033E-01;  4.0000000E+04;  0.0000000E+00;  3.9423508E+04; -4.0130472E-01;  0.0000000E+00;  2.4717166E-01;  1.2397428E+04;
  1.4375861E+00;  9.9999998E-03; -4.0216535E-02;9055;  1.1025816E+00;  0.0000000E+00; -8.5566100E-03;  9.9514948E+02;  1.3998154E-01; -3.9668333E+03;3;  3.4993580E+01;  0.0000000E+00; -6.4016824E+00;0; -1.4531121E-01;  2.0491057E+04;  0.0000000E+00;  1.7986615E-01;  4.0000000E+04;  0.0000000E+00;  3.9420426E+04; -4.0195087E-01;  0.0000000E+00;  2.5663966E-01;  1.2059060E+04;
  1.4375862E+00;  9.9999998E-03;  4.0216606E-02;9063;  1.1025814E+00;  0.0000000E+00;  8.5577611E-03;  9.9514935E+02;  1.3998209E-01; -3.9669307E+03;3;  3.4992455E+01;  0.0000000E+00;  6.4016280E+00;0; -1.4531121E-01;  2.0491061E+04;  0.0000000E+00;  1.7986000E-01;  4.0000000E+04;  0.0000000E+00;  3.9420426E+04; -4.0195084E-01;  0.0000000E+00;  2.5663963E-01;  1.2059056E+04;
  1.4375821E+00;  9.9999998E-03; -5.0270032E-02;9054;  1.1029112E+00;  0.0000000E+00; -1.0959135E-02;  9.9519843E+02;  1.3997979E-01; -3.9268159E+03;3;  3.5192654E+01;  0.0000000E+00; -7.9403033E+00;0; -1.3430712E-01;  2.0496633E+04;  0.0000000E+00;  2.3677358E-01;  4.0000000E+04;  0.0000000E+00;  3.9416676E+04; -4.0258813E-01;  0.0000000E+00;  2.6828101E-01;  1.1662225E+04;
  1.4375821E+00;  9.9999998E-03;  5.0270103E-02;9064;  1.1029112E+00;  0.0000000E+00;  1.0960284E-02;  9.9519818E+02;  1.3997960E-01; -3.9270110E+03;3;  3.5193638E+01;  0.0000000E+00;  7.9406261E+00;0; -1.3430691E-01;  2.0496639E+04;  0.0000000E+00;  2.3676866E-01;  4.0000000E+04;  0.0000000E+00;  3.9416680E+04; -4.0258801E-01;  0.0000000E+00;  2.6828110E-01;  1.1662174E+04;
  1.4504515E+00;  9.9999998E-03; -1.0069856E-01;9108;  1.1002887E+00;  0.0000000E+00; -2.1480460E-02;  9.9519550E+02;  1.3623115E-01; -3.9186382E+03;3;  3.5355152E+01;  0.0000000E+00; -1.6549490E+01;0; -1.0023305E-01;  2.1661111E+04;  0.0000000E+00; -2.3105921E-02;  4.0000000E+04;  0.0000000E+00;  3.9384340E+04; -3.9915997E-01;  0.0000000E+00;  2.9892692E-01;  1.0084563E+04;
  1.4506512E+00;  9.9999998E-03; -9.0595752E-02;9109;  1.0992974E+00;  0.0000000E+00; -1.8341077E-02;  9.9506970E+02;  1.3621822E-01; -4.0210796E+03;3;  3.5084526E+01;  0.0000000E+00; -1.4739299E+01;0; -1.1406994E-01;  2.1658576E+04;  0.0000000E+00;  1.1434104E-01;  4.0000000E+04;  0.0000000E+00;  3.9386969E+04; -3.9861113E-01;  0.0000000E+00;  2.8454119E-01;  1.0440591E+04;
  1.4508122E+00;  9.9999998E-03; -8.0506541E-02;9110;  1.0985086E+00;  0.0000000E+00; -1.5493020E-02;  9.9498810E+02;  1.3620815E-01; -4.0874785E+03;3;  3.4784004E+01;  0.0000000E+00; -1.2921190E+01;0; -1.2804908E-01;  2.1656250E+04;  0.0000000E+00;  2.0662630E-01;  4.0000000E+04;  0.0000000E+00;  3.9389781E+04; -3.9737490E-01;  0.0000000E+00;  2.6932582E-01;  1.0763946E+04;
  1.4509383E+00;  9.9999998E-03; -7.0428677E-02;9111;  1.0978851E+00;  0.0000000E+00; -1.2920034E-02;  9.9493683E+02;  1.3620071E-01; -4.1291641E+03;3;  3.4537952E+01;  0.0000000E+00; -1.1000712E+01;0; -1.4160615E-01;  2.1654279E+04;  0.0000000E+00;  2.5041527E-01;  4.0000000E+04;  0.0000000E+00;  3.9392441E+04; -3.9565086E-01;  0.0000000E+00;  2.5404471E-01;  1.1057226E+04;
  1.4510255E+00;  9.9999998E-03; -6.0359787E-02;9112;  1.0973870E+00;  0.0000000E+00; -1.0613270E-02;  9.9491504E+02;  1.3619800E-01; -4.1468228E+03;3;  3.4276363E+01;  0.0000000E+00; -9.2933807E+00;0; -1.5422711E-01;  2.1651803E+04;  0.0000000E+00;  2.5090954E-01;  4.0000000E+04;  0.0000000E+00;  3.9394902E+04; -3.9364660E-01;  0.0000000E+00;  2.3941949E-01;  1.1321381E+04;
  1.4510255E+00;  9.9999998E-03;  6.0359858E-02;9124;  1.0973868E+00;  0.0000000E+00;  1.0614425E-02;  9.9491498E+02;  1.3619798E-01; -4.1469199E+03;3;  3.4274696E+01;  0.0000000E+00;  9.2933426E+00;0; -1.5422723E-01;  2.1651801E+04;  0.0000000E+00;  2.5090322E-01;  4.0000000E+04;  0.0000000E+00;  3.9394902E+04; -3.9364678E-01;  0.0000000E+00;  2.3941955E-01;  1.1321368E+04;
  1.4510987E+00;  9.9999998E-03; -1.0059399E-02;9117;  1.0962698E+00;  0.0000000E+00; -1.5524472E-03;  9.9493829E+02;  1.3620435E-01; -4.1277959E+03;3;  3.3463402E+01;  0.0000000E+00; -1.4347217E+00;0; -1.9182533E-01;  2.1641080E+04;  0.0000000E+00;  1.3272235E-02;  4.0000000E+04;  0.0000000E+00;  3.9403312E+04; -3.8569924E-01;  0.0000000E+00;  1.9387391E-01;  1.2197690E+04;
  1.4510967E+00;  9.9999998E-03;  3.5766032E-08;9118;  1.0962415E+00;  0.0000000E+00;  5.9210203E-07;  9.9494092E+02;  1.3620473E-01; -4.1256592E+03;3;  3.3407990E+01;  0.0000000E+00;  8.5016363E-06;0; -1.9296975E-01;  2.1640695E+04;  0.0000000E+00; -6.5334183E-11;  4.0000000E+04;  0.0000000E+00;  3.9403539E+04; -3.8541237E-01;  0.0000000E+00;  1.9244261E-01;  1.2230733E+04;
  1.4510987E+00;  9.9999998E-03;  1.0059469E-02;9119;  1.0962698E+00;  0.0000000E+00;  1.5536272E-03;  9.9493835E+02;  1.3620429E-01; -4.1277476E+03;3;  3.3463215E+01;  0.0000000E+00;  1.4347368E+00;0; -1.9182520E-01;  2.1641074E+04;  0.0000000E+00;  1.3270516E-02;  4.0000000E+04;  0.0000000E+00;  3.9403312E+04; -3.8569906E-01;  0.0000000E+00;  1.9387387E-01;  1.2197710E+04;
  1.4511074E+00;  9.9999998E-03; -3.0176897E-02;9115;  1.0965034E+00;  0.0000000E+00; -4.7933753E-03;  9.9491553E+02;  1.3620022E-01; -4.1463555E+03;3;  3.3646320E+01;  0.0000000E+00; -4.4185853E+00;0; -1.8280217E-01;  2.1644068E+04;  0.0000000E+00;  1.0482203E-01;  4.0000000E+04;  0.0000000E+00;  3.9400922E+04; -3.8786313E-01;  0.0000000E+00;  2.0506096E-01;  1.1956297E+04;
  1.4511040E+00;  9.9999998E-03; -2.0118263E-02;9116;  1.0963577E+00;  0.0000000E+00; -3.1294127E-03;  9.9492773E+02;  1.3620386E-01; -4.1363940E+03;3;  3.3548359E+01;  0.0000000E+00; -2.7999792E+00;0; -1.8841340E-01;  2.1642162E+04;  0.0000000E+00;  5.0600801E-02;  4.0000000E+04;  0.0000000E+00;  3.9402309E+04; -3.8653544E-01;  0.0000000E+00;  1.9812204E-01;  1.2102598E+04;
  1.4511040E+00;  9.9999998E-03;  2.0118335E-02;9120;  1.0963578E+00;  0.0000000E+00;  3.1306010E-03;  9.9492786E+02;  1.3620305E-01; -4.1362969E+03;3;  3.3547897E+01;  0.0000000E+00;  2.8000193E+00;0; -1.8841368E-01;  2.1642160E+04;  0.0000000E+00;  5.0597303E-02;  4.0000000E+04;  0.0000000E+00;  3.9402312E+04; -3.8653570E-01;  0.0000000E+00;  1.9812202E-01;  1.2102601E+04;
  1.4511074E+00;  9.9999998E-03;  3.0176966E-02;9121;  1.0965034E+00;  0.0000000E+00;  4.7945553E-03;  9.9491547E+02;  1.3620034E-01; -4.1464043E+03;3;  3.3647888E+01;  0.0000000E+00;  4.4187016E+00;0; -1.8280168E-01;  2.1644062E+04;  0.0000000E+00;  1.0481795E-01;  4.0000000E+04;  0.0000000E+00;  3.9400926E+04; -3.8786283E-01;  0.0000000E+00;  2.0506115E-01;  1.1956285E+04;
  1.4511014E+00;  9.9999998E-03; -4.0235784E-02;9114;  1.0967089E+00;  0.0000000E+00; -6.5827793E-03;  9.9490601E+02;  1.3619843E-01; -4.1541387E+03;3;  3.3817261E+01;  0.0000000E+00; -6.0069342E+00;0; -1.7510530E-01;  2.1646441E+04;  0.0000000E+00;  1.6505381E-01;  4.0000000E+04;  0.0000000E+00;  3.9399328E+04; -3.8958174E-01;  0.0000000E+00;  2.1447644E-01;  1.1771900E+04;
  1.4511014E+00;  9.9999998E-03;  4.0235851E-02;9122;  1.0967089E+00;  0.0000000E+00;  6.5839579E-03;  9.9490588E+02;  1.3619861E-01; -4.1542358E+03;3;  3.3818531E+01;  0.0000000E+00;  6.0072069E+00;0; -1.7510581E-01;  2.1646438E+04;  0.0000000E+00;  1.6504782E-01;  4.0000000E+04;  0.0000000E+00;  3.9399332E+04; -3.8958198E-01;  0.0000000E+00;  2.1447617E-01;  1.1771903E+04;
  1.4510775E+00;  9.9999998E-03; -5.0296251E-02;9113;  1.0969967E+00;  0.0000000E+00; -8.5207382E-03;  9.9490320E+02;  1.3619702E-01; -4.1564458E+03;3;  3.4050407E+01;  0.0000000E+00; -7.6583395E+00;0; -1.6550112E-01;  2.1649105E+04;  0.0000000E+00;  2.1825512E-01;  4.0000000E+04;  0.0000000E+00;  3.9397129E+04; -3.9156267E-01;  0.0000000E+00;  2.2606155E-01;  1.1559135E+04;
  1.4510775E+00;  9.9999998E-03;  5.0296322E-02;9123;  1.0969965E+00;  0.0000000E+00;  8.5219024E-03;  9.9490338E+02;  1.3619685E-01; -4.1563003E+03;3;  3.4051338E+01;  0.0000000E+00;  7.6585765E+00;0; -1.6550101E-01;  2.1649105E+04;  0.0000000E+00;  2.1825066E-01;  4.0000000E+04;  0.0000000E+00;  3.9397125E+04; -3.9156231E-01;  0.0000000E+00;  2.2606130E-01;  1.1559118E+04;
  1.4635350E+00;  9.9999998E-03; -1.0080978E-01;9166;  1.0945203E+00;  0.0000000E+00; -1.7030245E-02;  9.9486493E+02;  1.3293274E-01; -4.1744771E+03;3;  3.4464615E+01;  0.0000000E+00; -1.6276453E+01;0; -1.3328993E-01;  2.2745100E+04;  0.0000000E+00; -3.6872678E-02;  4.0000000E+04;  0.0000000E+00;  3.9366590E+04; -3.9273304E-01;  0.0000000E+00;  2.5944310E-01;  1.0654284E+04;
  1.4637172E+00;  9.9999998E-03; -9.0691946E-02;9167;  1.0935854E+00;  0.0000000E+00; -1.4313437E-02;  9.9471094E+02;  1.3292173E-01; -4.2994678E+03;3;  3.4038467E+01;  0.0000000E+00; -1.4338572E+01;0; -1.4510904E-01;  2.2741160E+04;  0.0000000E+00;  7.3463179E-02;  4.0000000E+04;  0.0000000E+00;  3.9368785E+04; -3.8977885E-01;  0.0000000E+00;  2.4466981E-01;  1.0945238E+04;
  1.4638807E+00;  9.9999998E-03; -8.0588408E-02;9168;  1.0928626E+00;  0.0000000E+00; -1.1888240E-02;  9.9463312E+02;  1.3291192E-01; -4.3625010E+03;3;  3.3629974E+01;  0.0000000E+00; -1.2433255E+01;0; -1.5701851E-01;  2.2739572E+04;  0.0000000E+00;  1.4538030E-01;  4.0000000E+04;  0.0000000E+00;  3.9370184E+04; -3.8627812E-01;  0.0000000E+00;  2.2925961E-01;  1.1141350E+04;
  1.4640163E+00;  9.9999998E-03; -7.0497878E-02;9169;  1.0923047E+00;  0.0000000E+00; -9.7533464E-03;  9.9460913E+02;  1.3290605E-01; -4.3818608E+03;3;  3.3305576E+01;  0.0000000E+00; -1.0578308E+01;0; -1.6851574E-01;  2.2739295E+04;  0.0000000E+00;  1.7863463E-01;  4.0000000E+04;  0.0000000E+00;  3.9371328E+04; -3.8244942E-01;  0.0000000E+00;  2.1393368E-01;  1.1264406E+04;
  1.4643114E+00;  9.9999998E-03; -1.0067090E-02;9175;  1.0910026E+00;  0.0000000E+00; -1.0933540E-03;  9.9478729E+02;  1.3290131E-01; -4.2367007E+03;3;  3.1963800E+01;  0.0000000E+00; -1.3848010E+00;0; -2.1065247E-01;  2.2741537E+04;  0.0000000E+00;  9.4841039E-03;  4.0000000E+04;  0.0000000E+00;  3.9372477E+04; -3.6477548E-01;  0.0000000E+00;  1.5412301E-01;  1.1392703E+04;
  1.4643140E+00;  9.9999998E-03;  3.5226954E-08;9176;  1.0909872E+00;  0.0000000E+00;  6.0167872E-07;  9.9479846E+02;  1.3290128E-01; -4.2275903E+03;3;  3.1939671E+01;  0.0000000E+00; -1.7690356E-05;0; -2.1160111E-01;  2.2741574E+04;  0.0000000E+00; -6.4361079E-11;  4.0000000E+04;  0.0000000E+00;  3.9372602E+04; -3.6430821E-01;  0.0000000E+00;  1.5270710E-01;  1.1394702E+04;
  1.4643114E+00;  9.9999998E-03;  1.0067160E-02;9177;  1.0910026E+00;  0.0000000E+00;  1.0945521E-03;  9.9478711E+02;  1.3290134E-01; -4.2368462E+03;3;  3.1963598E+01;  0.0000000E+00;  1.3848034E+00;0; -2.1065210E-01;  2.2741543E+04;  0.0000000E+00;  9.4833728E-03;  4.0000000E+04;  0.0000000E+00;  3.9372477E+04; -3.6477512E-01;  0.0000000E+00;  1.5412302E-01;  1.1392695E+04;
  1.4643022E+00;  9.9999998E-03; -2.0134022E-02;9174;  1.0910665E+00;  0.0000000E+00; -2.2226153E-03;  9.9475739E+02;  1.3290071E-01; -4.2609824E+03;3;  3.2094509E+01;  0.0000000E+00; -2.7101622E+00;0; -2.0782077E-01;  2.2741295E+04;  0.0000000E+00;  3.6084045E-02;  4.0000000E+04;  0.0000000E+00;  3.9372340E+04; -3.6615202E-01;  0.0000000E+00;  1.5833125E-01;  1.1387934E+04;
  1.4643022E+00;  9.9999998E-03;  2.0134093E-02;9178;  1.0910664E+00;  0.0000000E+00;  2.2238158E-03;  9.9475732E+02;  1.3290110E-01; -4.2610791E+03;3;  3.2094093E+01;  0.0000000E+00;  2.7101736E+00;0; -2.0782094E-01;  2.2741293E+04;  0.0000000E+00;  3.6082368E-02;  4.0000000E+04;  0.0000000E+00;  3.9372340E+04; -3.6615217E-01;  0.0000000E+00;  1.5833123E-01;  1.1387902E+04;
  1.4642843E+00;  9.9999998E-03; -3.0201638E-02;9173;  1.0911753E+00;  0.0000000E+00; -3.4178123E-03;  9.9472144E+02;  1.3289995E-01; -4.2902646E+03;3;  3.2212402E+01;  0.0000000E+00; -4.1580610E+00;0; -2.0315139E-01;  2.2740871E+04;  0.0000000E+00;  7.4598283E-02;  4.0000000E+04;  0.0000000E+00;  3.9372434E+04; -3.6835730E-01;  0.0000000E+00;  1.6520591E-01;  1.1382897E+04;
  1.4642843E+00;  9.9999998E-03;  3.0201709E-02;9179;  1.0911753E+00;  0.0000000E+00;  3.4190067E-03;  9.9472150E+02;  1.3290021E-01; -4.2902163E+03;3;  3.2211609E+01;  0.0000000E+00;  4.1581726E+00;0; -2.0315105E-01;  2.2740867E+04;  0.0000000E+00;  7.4595883E-02;  4.0000000E+04;  0.0000000E+00;  3.9372430E+04; -3.6835694E-01;  0.0000000E+00;  1.6520590E-01;  1.1382867E+04;
  1.4642514E+00;  9.9999998E-03; -4.0270269E-02;9172;  1.0913333E+00;  0.0000000E+00; -4.7371243E-03;  9.9468463E+02;  1.3289922E-01; -4.3201943E+03;3;  3.2399292E+01;  0.0000000E+00; -5.6408939E+00;0; -1.9672424E-01;  2.2740453E+04;  0.0000000E+00;  1.1737542E-01;  4.0000000E+04;  0.0000000E+00;  3.9372355E+04; -3.7126920E-01;  0.0000000E+00;  1.7454496E-01;  1.1377361E+04;
  1.4642514E+00;  9.9999998E-03;  4.0270340E-02;9180;  1.0913332E+00;  0.0000000E+00;  4.7383187E-03;  9.9468488E+02;  1.3289934E-01; -4.3200005E+03;3;  3.2400646E+01;  0.0000000E+00;  5.6410804E+00;0; -1.9672394E-01;  2.2740455E+04;  0.0000000E+00;  1.1737115E-01;  4.0000000E+04;  0.0000000E+00;  3.9372352E+04; -3.7126878E-01;  0.0000000E+00;  1.7454484E-01;  1.1377338E+04;
  1.4641995E+00;  9.9999998E-03; -5.0341509E-02;9171;  1.0915567E+00;  0.0000000E+00; -6.2185461E-03;  9.9464258E+02;  1.3289940E-01; -4.3544595E+03;3;  3.2670830E+01;  0.0000000E+00; -7.1995096E+00;0; -1.8867111E-01;  2.2739963E+04;  0.0000000E+00;  1.5538828E-01;  4.0000000E+04;  0.0000000E+00;  3.9372113E+04; -3.7472183E-01;  0.0000000E+00;  1.8605071E-01;  1.1364960E+04;
  1.4641995E+00;  9.9999998E-03;  5.0341580E-02;9181;  1.0915567E+00;  0.0000000E+00;  6.2197368E-03;  9.9464246E+02;  1.3289981E-01; -4.3545562E+03;3;  3.2671810E+01;  0.0000000E+00;  7.1995921E+00;0; -1.8867128E-01;  2.2739967E+04;  0.0000000E+00;  1.5538362E-01;  4.0000000E+04;  0.0000000E+00;  3.9372109E+04; -3.7472177E-01;  0.0000000E+00;  1.8605049E-01;  1.1364941E+04;
  1.4641221E+00;  9.9999998E-03; -6.0416780E-02;9170;  1.0918773E+00;  0.0000000E+00; -7.8746146E-03;  9.9461395E+02;  1.3290121E-01; -4.3778081E+03;3;  3.2990387E+01;  0.0000000E+00; -8.8510132E+00;0; -1.7918026E-01;  2.2739602E+04;  0.0000000E+00;  1.7903744E-01;  4.0000000E+04;  0.0000000E+00;  3.9371785E+04; -3.7852180E-01;  0.0000000E+00;  1.9934154E-01;  1.1332890E+04;
  1.4641221E+00;  9.9999998E-03;  6.0416851E-02;9182;  1.0918773E+00;  0.0000000E+00;  7.8758020E-03;  9.9461389E+02;  1.3290122E-01; -4.3778564E+03;3;  3.2991161E+01;  0.0000000E+00;  8.8511982E+00;0; -1.7918089E-01;  2.2739605E+04;  0.0000000E+00;  1.7903382E-01;  4.0000000E+04;  0.0000000E+00;  3.9371785E+04; -3.7852207E-01;  0.0000000E+00;  1.9934118E-01;  1.1332900E+04;
  1.4763697E+00;  9.9999998E-03; -1.0091625E-01;9223;  1.0890690E+00;  0.0000000E+00; -1.2889810E-02;  9.9467639E+02;  1.3005163E-01; -4.3109707E+03;3;  3.3319691E+01;  0.0000000E+00; -1.5771404E+01;0; -1.6000469E-01;  2.3771574E+04;  0.0000000E+00; -8.0971256E-02;  4.0000000E+04;  0.0000000E+00;  3.9340348E+04; -3.8193655E-01;  0.0000000E+00;  2.2193186E-01;  1.0807780E+04;
  1.4771858E+00;  9.9999998E-03; -1.0077117E-02;9232;  1.0863105E+00;  0.0000000E+00; -6.7034189E-04;  9.9456342E+02;  1.3002746E-01; -4.4012910E+03;3;  3.0266916E+01;  0.0000000E+00; -1.2081674E+00;0; -2.2092676E-01;  2.3770725E+04;  0.0000000E+00;  4.0577454E-03;  4.0000000E+04;  0.0000000E+00;  3.9336582E+04; -3.3803973E-01;  0.0000000E+00;  1.1711297E-01;  1.0606594E+04;
  1.4771928E+00;  9.9999998E-03;  3.5118564E-08;9233;  1.0863025E+00;  0.0000000E+00;  6.1005602E-07;  9.9457672E+02;  1.3002741E-01; -4.3905200E+03;3;  3.0236671E+01;  0.0000000E+00;  3.3629862E-05;0; -2.2163677E-01;  2.3771131E+04;  0.0000000E+00; -6.4779973E-11;  4.0000000E+04;  0.0000000E+00;  3.9336246E+04; -3.3735245E-01;  0.0000000E+00;  1.1571569E-01;  1.0577939E+04;
  1.4771858E+00;  9.9999998E-03;  1.0077188E-02;9234;  1.0863105E+00;  0.0000000E+00;  6.7156064E-04;  9.9456342E+02;  1.3002746E-01; -4.4012910E+03;3;  3.0266651E+01;  0.0000000E+00;  1.2081977E+00;0; -2.2092685E-01;  2.3770721E+04;  0.0000000E+00;  4.0580351E-03;  4.0000000E+04;  0.0000000E+00;  3.9336582E+04; -3.3803982E-01;  0.0000000E+00;  1.1711296E-01;  1.0606587E+04;
  1.4771293E+00;  9.9999998E-03; -3.0233221E-02;9230;  1.0863850E+00;  0.0000000E+00; -2.1564716E-03;  9.9447748E+02;  1.3002676E-01; -4.4709580E+03;3;  3.0535604E+01;  0.0000000E+00; -3.6702869E+00;0; -2.1526803E-01;  2.3767125E+04;  0.0000000E+00;  3.1489622E-02;  4.0000000E+04;  0.0000000E+00;  3.9338672E+04; -3.4331366E-01;  0.0000000E+00;  1.2804563E-01;  1.0818901E+04;
  1.4771645E+00;  9.9999998E-03; -2.0154700E-02;9231;  1.0863329E+00;  0.0000000E+00; -1.3849802E-03;  9.9453021E+02;  1.3002741E-01; -4.4281997E+03;3;  3.0386700E+01;  0.0000000E+00; -2.4710283E+00;0; -2.1879941E-01;  2.3769264E+04;  0.0000000E+00;  1.5349120E-02;  4.0000000E+04;  0.0000000E+00;  3.9337352E+04; -3.4006432E-01;  0.0000000E+00;  1.2126490E-01;  1.0689925E+04;
  1.4771645E+00;  9.9999998E-03;  2.0154769E-02;9235;  1.0863329E+00;  0.0000000E+00;  1.3861957E-03;  9.9453027E+02;  1.3002764E-01; -4.4281519E+03;3;  3.0388784E+01;  0.0000000E+00;  2.4711232E+00;0; -2.1879970E-01;  2.3769271E+04;  0.0000000E+00;  1.5349209E-02;  4.0000000E+04;  0.0000000E+00;  3.9337348E+04; -3.4006453E-01;  0.0000000E+00;  1.2126483E-01;  1.0689923E+04;
  1.4771293E+00;  9.9999998E-03;  3.0233290E-02;9236;  1.0863850E+00;  0.0000000E+00;  2.1576846E-03;  9.9447748E+02;  1.3002709E-01; -4.4709580E+03;3;  3.0534891E+01;  0.0000000E+00;  3.6703784E+00;0; -2.1526773E-01;  2.3767131E+04;  0.0000000E+00;  3.1489681E-02;  4.0000000E+04;  0.0000000E+00;  3.9338676E+04; -3.4331322E-01;  0.0000000E+00;  1.2804548E-01;  1.0818864E+04;
  1.4765168E+00;  9.9999998E-03; -9.0795375E-02;9224;  1.0882335E+00;  0.0000000E+00; -1.0588840E-02;  9.9446832E+02;  1.3004479E-01; -4.4792529E+03;3;  3.2729443E+01;  0.0000000E+00; -1.3858993E+01;0; -1.6958272E-01;  2.3762945E+04;  0.0000000E+00; -2.0523765E-03;  4.0000000E+04;  0.0000000E+00;  3.9343215E+04; -3.7650692E-01;  0.0000000E+00;  2.0692420E-01;  1.1146764E+04;
  1.4770764E+00;  9.9999998E-03; -4.0313497E-02;9229;  1.0864713E+00;  0.0000000E+00; -3.0623318E-03;  9.9441595E+02;  1.3002697E-01; -4.5208364E+03;3;  3.0750490E+01;  0.0000000E+00; -5.1185694E+00;0; -2.1036088E-01;  2.3764572E+04;  0.0000000E+00;  4.9162552E-02;  4.0000000E+04;  0.0000000E+00;  3.9340031E+04; -3.4762034E-01;  0.0000000E+00;  1.3725945E-01;  1.0976379E+04;
  1.4770764E+00;  9.9999998E-03;  4.0313568E-02;9237;  1.0864711E+00;  0.0000000E+00;  3.0635393E-03;  9.9441602E+02;  1.3002731E-01; -4.5207881E+03;3;  3.0749332E+01;  0.0000000E+00;  5.1185808E+00;0; -2.1036053E-01;  2.3764572E+04;  0.0000000E+00;  4.9160611E-02;  4.0000000E+04;  0.0000000E+00;  3.9340039E+04; -3.4762025E-01;  0.0000000E+00;  1.3725972E-01;  1.0976392E+04;
  1.4770026E+00;  9.9999998E-03; -5.0397001E-02;9228;  1.0866108E+00;  0.0000000E+00; -4.1260687E-03;  9.9436328E+02;  1.3002765E-01; -4.5635586E+03;3;  3.1021734E+01;  0.0000000E+00; -6.6584544E+00;0; -2.0414458E-01;  2.3761754E+04;  0.0000000E+00;  6.4469963E-02;  4.0000000E+04;  0.0000000E+00;  3.9341875E+04; -3.5276842E-01;  0.0000000E+00;  1.4862384E-01;  1.1137201E+04;
  1.4770026E+00;  9.9999998E-03;  5.0397068E-02;9238;  1.0866108E+00;  0.0000000E+00;  4.1272780E-03;  9.9436322E+02;  1.3002792E-01; -4.5636069E+03;3;  3.1022881E+01;  0.0000000E+00;  6.6586008E+00;0; -2.0414442E-01;  2.3761756E+04;  0.0000000E+00;  6.4469077E-02;  4.0000000E+04;  0.0000000E+00;  3.9341875E+04; -3.5276815E-01;  0.0000000E+00;  1.4862373E-01;  1.1137220E+04;
  1.4769069E+00;  9.9999998E-03; -6.0485296E-02;9227;  1.0868316E+00;  0.0000000E+00; -5.3770542E-03;  9.9432385E+02;  1.3003038E-01; -4.5956514E+03;3;  3.1411163E+01;  0.0000000E+00; -8.2195110E+00;0; -1.9673602E-01;  2.3759445E+04;  0.0000000E+00;  7.2795816E-02;  4.0000000E+04;  0.0000000E+00;  3.9343383E+04; -3.5850325E-01;  0.0000000E+00;  1.6176723E-01;  1.1269771E+04;
  1.4769069E+00;  9.9999998E-03;  6.0485363E-02;9239;  1.0868315E+00;  0.0000000E+00;  5.3782607E-03;  9.9432397E+02;  1.3003074E-01; -4.5955552E+03;3;  3.1411963E+01;  0.0000000E+00;  8.2195635E+00;0; -1.9673629E-01;  2.3759443E+04;  0.0000000E+00;  7.2793975E-02;  4.0000000E+04;  0.0000000E+00;  3.9343383E+04; -3.5850334E-01;  0.0000000E+00;  1.6176705E-01;  1.1269772E+04;
  1.4767914E+00;  9.9999998E-03; -7.0579991E-02;9226;  1.0871568E+00;  0.0000000E+00; -6.8457341E-03;  9.9431360E+02;  1.3003437E-01; -4.6041284E+03;3;  3.1811209E+01;  0.0000000E+00; -1.0040213E+01;0; -1.8832001E-01;  2.3758221E+04;  0.0000000E+00;  6.8547323E-02;  4.0000000E+04;  0.0000000E+00;  3.9344199E+04; -3.6454964E-01;  0.0000000E+00;  1.7622963E-01;  1.1339455E+04;
  1.4766603E+00;  9.9999998E-03; -8.0682985E-02;9225;  1.0876136E+00;  0.0000000E+00; -8.5739512E-03;  9.9435144E+02;  1.3003814E-01; -4.5736826E+03;3;  3.2269611E+01;  0.0000000E+00; -1.1890920E+01;0; -1.7915785E-01;  2.3759014E+04;  0.0000000E+00;  4.5501288E-02;  4.0000000E+04;  0.0000000E+00;  3.9344297E+04; -3.7063545E-01;  0.0000000E+00;  1.9147760E-01;  1.1310616E+04;
  1.4889985E+00;  9.9999998E-03; -1.0100596E-01;9280;  1.0839756E+00;  0.0000000E+00; -9.0768458E-03;  9.9463123E+02;  1.2754020E-01; -4.3277651E+03;3;  3.1993809E+01;  0.0000000E+00; -1.5223826E+01;0; -1.8094037E-01;  2.4738062E+04;  0.0000000E+00; -1.5326600E-01;  4.0000000E+04;  0.0000000E+00;  3.9303270E+04; -3.6757547E-01;  0.0000000E+00;  1.8663509E-01;  1.0399767E+04;
  1.4897511E+00;  9.9999998E-03; -1.0087684E-02;9289;  1.0821801E+00;  0.0000000E+00; -3.1027483E-04;  9.9425568E+02;  1.2753366E-01; -4.6291323E+03;3;  2.8431656E+01;  0.0000000E+00; -1.0250026E+00;0; -2.2239676E-01;  2.4722270E+04;  0.0000000E+00; -1.6509247E-03;  4.0000000E+04;  0.0000000E+00;  3.9295957E+04; -3.0548891E-01;  0.0000000E+00;  8.3092153E-02;  9.9625977E+03;
  1.4897608E+00;  9.9999998E-03;  3.5549011E-08;9290;  1.0821843E+00;  0.0000000E+00;  6.1841507E-07;  9.9426495E+02;  1.2753344E-01; -4.6216211E+03;3;  2.8394005E+01;  0.0000000E+00;  5.5991226E-05;0; -2.2281383E-01;  2.4722908E+04;  0.0000000E+00; -6.5003482E-11;  4.0000000E+04;  0.0000000E+00;  3.9295371E+04; -3.0452925E-01;  0.0000000E+00;  8.1715420E-02;  9.9109365E+03;
  1.4897511E+00;  9.9999998E-03;  1.0087755E-02;9291;  1.0821801E+00;  0.0000000E+00;  3.1151267E-04;  9.9425574E+02;  1.2753363E-01; -4.6290840E+03;3;  2.8431437E+01;  0.0000000E+00;  1.0250847E+00;0; -2.2239643E-01;  2.4722273E+04;  0.0000000E+00; -1.6496421E-03;  4.0000000E+04;  0.0000000E+00;  3.9295961E+04; -3.0548850E-01;  0.0000000E+00;  8.3092064E-02;  9.9626250E+03;
  1.4896756E+00;  9.9999998E-03; -3.0266095E-02;9287;  1.0821421E+00;  0.0000000E+00; -1.0795818E-03;  9.9417505E+02;  1.2753427E-01; -4.6942134E+03;3;  2.8720772E+01;  0.0000000E+00; -3.2145648E+00;0; -2.1899015E-01;  2.4717037E+04;  0.0000000E+00; -1.3911849E-02;  4.0000000E+04;  0.0000000E+00;  3.9299918E+04; -3.1284556E-01;  0.0000000E+00;  9.3855403E-02;  1.0335541E+04;
  1.4897230E+00;  9.9999998E-03; -2.0176150E-02;9288;  1.0821595E+00;  0.0000000E+00; -6.6212483E-04;  9.9422296E+02;  1.2753391E-01; -4.6555542E+03;3;  2.8520807E+01;  0.0000000E+00; -2.0982263E+00;0; -2.2113323E-01;  2.4720164E+04;  0.0000000E+00; -6.4654113E-03;  4.0000000E+04;  0.0000000E+00;  3.9297488E+04; -3.0831209E-01;  0.0000000E+00;  8.7178864E-02;  1.0111004E+04;
  1.4897230E+00;  9.9999998E-03;  2.0176221E-02;9292;  1.0821594E+00;  0.0000000E+00;  6.6335814E-04;  9.9422284E+02;  1.2753387E-01; -4.6556504E+03;3;  2.8520317E+01;  0.0000000E+00;  2.0982885E+00;0; -2.2113311E-01;  2.4720166E+04;  0.0000000E+00; -6.4633396E-03;  4.0000000E+04;  0.0000000E+00;  3.9297484E+04; -3.0831197E-01;  0.0000000E+00;  8.7178856E-02;  1.0111005E+04;
  1.4896756E+00;  9.9999998E-03;  3.0266164E-02;9293;  1.0821421E+00;  0.0000000E+00;  1.0808129E-03;  9.9417511E+02;  1.2753400E-01; -4.6941655E+03;3;  2.8719921E+01;  0.0000000E+00;  3.2145696E+00;0; -2.1899070E-01;  2.4717045E+04;  0.0000000E+00; -1.3909176E-02;  4.0000000E+04;  0.0000000E+00;  3.9299918E+04; -3.1284606E-01;  0.0000000E+00;  9.3855366E-02;  1.0335553E+04;
  1.4890980E+00;  9.9999998E-03; -9.0891242E-02;9281;  1.0832696E+00;  0.0000000E+00; -7.1738791E-03;  9.9434399E+02;  1.2753977E-01; -4.5591265E+03;3;  3.1317039E+01;  0.0000000E+00; -1.3181087E+01;0; -1.8795486E-01;  2.4722049E+04;  0.0000000E+00; -9.7735971E-02;  4.0000000E+04;  0.0000000E+00;  3.9307652E+04; -3.5952723E-01;  0.0000000E+00;  1.7157237E-01;  1.0905494E+04;
  1.4896079E+00;  9.9999998E-03; -4.0358517E-02;9286;  1.0821378E+00;  0.0000000E+00; -1.6048077E-03;  9.9412061E+02;  1.2753396E-01; -4.7382441E+03;3;  2.8959572E+01;  0.0000000E+00; -4.5893521E+00;0; -2.1593052E-01;  2.4713451E+04;  0.0000000E+00; -2.2947753E-02;  4.0000000E+04;  0.0000000E+00;  3.9302785E+04; -3.1885314E-01;  0.0000000E+00;  1.0292263E-01;  1.0603028E+04;
  1.4896079E+00;  9.9999998E-03;  4.0358588E-02;9294;  1.0821378E+00;  0.0000000E+00;  1.6060504E-03;  9.9412042E+02;  1.2753350E-01; -4.7383887E+03;3;  2.8958401E+01;  0.0000000E+00;  4.5893993E+00;0; -2.1593055E-01;  2.4713451E+04;  0.0000000E+00; -2.2946382E-02;  4.0000000E+04;  0.0000000E+00;  3.9302781E+04; -3.1885326E-01;  0.0000000E+00;  1.0292271E-01;  1.0603014E+04;
  1.4895213E+00;  9.9999998E-03; -5.0454669E-02;9285;  1.0821646E+00;  0.0000000E+00; -2.2899027E-03;  9.9406763E+02;  1.2753452E-01; -4.7811128E+03;3;  2.9278015E+01;  0.0000000E+00; -5.9333134E+00;0; -2.1193264E-01;  2.4710006E+04;  0.0000000E+00; -3.2359507E-02;  4.0000000E+04;  0.0000000E+00;  3.9305887E+04; -3.2603002E-01;  0.0000000E+00;  1.1409737E-01;  1.0870069E+04;
  1.4895213E+00;  9.9999998E-03;  5.0454736E-02;9295;  1.0821645E+00;  0.0000000E+00;  2.2911441E-03;  9.9406769E+02;  1.2753420E-01; -4.7810649E+03;3;  2.9276682E+01;  0.0000000E+00;  5.9334760E+00;0; -2.1193306E-01;  2.4710000E+04;  0.0000000E+00; -3.2359354E-02;  4.0000000E+04;  0.0000000E+00;  3.9305891E+04; -3.2603043E-01;  0.0000000E+00;  1.1409737E-01;  1.0870069E+04;
  1.4894205E+00;  9.9999998E-03; -6.0556099E-02;9284;  1.0822606E+00;  0.0000000E+00; -3.1535237E-03;  9.9404492E+02;  1.2753570E-01; -4.7996064E+03;3;  2.9685402E+01;  0.0000000E+00; -7.5834761E+00;0; -2.0701642E-01;  2.4707906E+04;  0.0000000E+00; -4.1639134E-02;  4.0000000E+04;  0.0000000E+00;  3.9308312E+04; -3.3402836E-01;  0.0000000E+00;  1.2701194E-01;  1.1086663E+04;
  1.4894205E+00;  9.9999998E-03;  6.0556166E-02;9296;  1.0822607E+00;  0.0000000E+00;  3.1547779E-03;  9.9404486E+02;  1.2753533E-01; -4.7996543E+03;3;  2.9686050E+01;  0.0000000E+00;  7.5836020E+00;0; -2.0701671E-01;  2.4707904E+04;  0.0000000E+00; -4.1639987E-02;  4.0000000E+04;  0.0000000E+00;  3.9308320E+04; -3.3402848E-01;  0.0000000E+00;  1.2701178E-01;  1.1086644E+04;
  1.4893128E+00;  9.9999998E-03; -7.0662975E-02;9283;  1.0824565E+00;  0.0000000E+00; -4.2372495E-03;  9.9406921E+02;  1.2753715E-01; -4.7802100E+03;3;  3.0140091E+01;  0.0000000E+00; -9.3505173E+00;0; -2.0126346E-01;  2.4708301E+04;  0.0000000E+00; -5.1907536E-02;  4.0000000E+04;  0.0000000E+00;  3.9309805E+04; -3.4249121E-01;  0.0000000E+00;  1.4122775E-01;  1.1200030E+04;
  1.4892032E+00;  9.9999998E-03; -8.0775216E-02;9282;  1.0827781E+00;  0.0000000E+00; -5.5677956E-03;  9.9415607E+02;  1.2753844E-01; -4.7104180E+03;3;  3.0662279E+01;  0.0000000E+00; -1.1168758E+01;0; -1.9483145E-01;  2.4712516E+04;  0.0000000E+00; -6.7104757E-02;  4.0000000E+04;  0.0000000E+00;  3.9309793E+04; -3.5108858E-01;  0.0000000E+00;  1.5625714E-01;  1.1157002E+04;
  1.5020503E+00;  9.9999998E-03;  3.5431338E-08;9346;  1.0786304E+00;  0.0000000E+00;  6.2593608E-07;  9.9387921E+02;  1.2537287E-01; -4.9062939E+03;3;  2.6757847E+01;  0.0000000E+00;  5.2422081E-05;0; -2.1490502E-01;  2.5595107E+04;  0.0000000E+00; -6.5146943E-11;  4.0000000E+04;  0.0000000E+00;  3.9249805E+04; -2.6573473E-01;  0.0000000E+00;  5.0829712E-02;  9.4184961E+03;
  1.5020130E+00;  9.9999998E-03; -2.0195760E-02;9344;  1.0785321E+00;  0.0000000E+00; -7.6851044E-05;  9.9384692E+02;  1.2537253E-01; -4.9322285E+03;3;  2.6868139E+01;  0.0000000E+00; -1.6101750E+00;0; -2.1461964E-01;  2.5592547E+04;  0.0000000E+00; -2.4641594E-02;  4.0000000E+04;  0.0000000E+00;  3.9252672E+04; -2.7082601E-01;  0.0000000E+00;  5.6206379E-02;  9.6572070E+03;
  1.5020415E+00;  9.9999998E-03; -1.0097721E-02;9345;  1.0786047E+00;  0.0000000E+00; -2.1894863E-05;  9.9387109E+02;  1.2537283E-01; -4.9128120E+03;3;  2.6821671E+01;  0.0000000E+00; -7.4586421E-01;0; -2.1484090E-01;  2.5594443E+04;  0.0000000E+00; -6.4027272E-03;  4.0000000E+04;  0.0000000E+00;  3.9250668E+04; -2.6702452E-01;  0.0000000E+00;  5.2183609E-02;  9.4807354E+03;
  1.5020415E+00;  9.9999998E-03;  1.0097792E-02;9347;  1.0786047E+00;  0.0000000E+00;  2.3148978E-05;  9.9387109E+02;  1.2537283E-01; -4.9128120E+03;3;  2.6821430E+01;  0.0000000E+00;  7.4599165E-01;0; -2.1484114E-01;  2.5594445E+04;  0.0000000E+00; -6.4007971E-03;  4.0000000E+04;  0.0000000E+00;  3.9250660E+04; -2.6702479E-01;  0.0000000E+00;  5.2183647E-02;  9.4807393E+03;
  1.5020130E+00;  9.9999998E-03;  2.0195831E-02;9348;  1.0785321E+00;  0.0000000E+00;  7.8100958E-05;  9.9384686E+02;  1.2537202E-01; -4.9323237E+03;3;  2.6867672E+01;  0.0000000E+00;  1.6101919E+00;0; -2.1461974E-01;  2.5592545E+04;  0.0000000E+00; -2.4638196E-02;  4.0000000E+04;  0.0000000E+00;  3.9252672E+04; -2.7082610E-01;  0.0000000E+00;  5.6206357E-02;  9.6572031E+03;
  1.5019636E+00;  9.9999998E-03; -3.0295582E-02;9343;  1.0784247E+00;  0.0000000E+00; -1.9614231E-04;  9.9381512E+02;  1.2537195E-01; -4.9578574E+03;3;  2.7019558E+01;  0.0000000E+00; -2.5803862E+00;0; -2.1415682E-01;  2.5589826E+04;  0.0000000E+00; -5.1836591E-02;  4.0000000E+04;  0.0000000E+00;  3.9255598E+04; -2.7693075E-01;  0.0000000E+00;  6.2773928E-02;  9.9181387E+03;
  1.5019636E+00;  9.9999998E-03;  3.0295653E-02;9349;  1.0784247E+00;  0.0000000E+00;  1.9740358E-04;  9.9381500E+02;  1.2537205E-01; -4.9579526E+03;3;  2.7021416E+01;  0.0000000E+00;  2.5805123E+00;0; -2.1415606E-01;  2.5589828E+04;  0.0000000E+00; -5.1832248E-02;  4.0000000E+04;  0.0000000E+00;  3.9255598E+04; -2.7693000E-01;  0.0000000E+00;  6.2773950E-02;  9.9181289E+03;
  1.5018948E+00;  9.9999998E-03; -4.0398445E-02;9342;  1.0783150E+00;  0.0000000E+00; -4.0488972E-04;  9.9378784E+02;  1.2537107E-01; -4.9799009E+03;3;  2.7230774E+01;  0.0000000E+00; -3.7008221E+00;0; -2.1332571E-01;  2.5587055E+04;  0.0000000E+00; -8.3451815E-02;  4.0000000E+04;  0.0000000E+00;  3.9259188E+04; -2.8500074E-01;  0.0000000E+00;  7.1675040E-02;  1.0217385E+04;
  1.5018948E+00;  9.9999998E-03;  4.0398516E-02;9350;  1.0783150E+00;  0.0000000E+00;  4.0615056E-04;  9.9378790E+02;  1.2537102E-01; -4.9798530E+03;3;  2.7232204E+01;  0.0000000E+00;  3.7009611E+00;0; -2.1332559E-01;  2.5587055E+04;  0.0000000E+00; -8.3447576E-02;  4.0000000E+04;  0.0000000E+00;  3.9259188E+04; -2.8500065E-01;  0.0000000E+00;  7.1675062E-02;  1.0217357E+04;
  1.5018141E+00;  9.9999998E-03; -5.0505307E-02;9341;  1.0782154E+00;  0.0000000E+00; -7.3760102E-04;  9.9377960E+02;  1.2537122E-01; -4.9866841E+03;3;  2.7520559E+01;  0.0000000E+00; -4.9159956E+00;0; -2.1199596E-01;  2.5585451E+04;  0.0000000E+00; -1.1410790E-01;  4.0000000E+04;  0.0000000E+00;  3.9262469E+04; -2.9460716E-01;  0.0000000E+00;  8.2611203E-02;  1.0496749E+04;
  1.5018141E+00;  9.9999998E-03;  5.0505377E-02;9351;  1.0782154E+00;  0.0000000E+00;  7.3885644E-04;  9.9377954E+02;  1.2537126E-01; -4.9867314E+03;3;  2.7519264E+01;  0.0000000E+00;  4.9158502E+00;0; -2.1199560E-01;  2.5585461E+04;  0.0000000E+00; -1.1410420E-01;  4.0000000E+04;  0.0000000E+00;  3.9262465E+04; -2.9460701E-01;  0.0000000E+00;  8.2611404E-02;  1.0496751E+04;
  1.5017300E+00;  9.9999998E-03; -6.0616639E-02;9340;  1.0781615E+00;  0.0000000E+00; -1.2531268E-03;  9.9380823E+02;  1.2536964E-01; -4.9639438E+03;3;  2.7948071E+01;  0.0000000E+00; -6.5836363E+00;0; -2.1006061E-01;  2.5586312E+04;  0.0000000E+00; -1.3907556E-01;  4.0000000E+04;  0.0000000E+00;  3.9265047E+04; -3.0527875E-01;  0.0000000E+00;  9.5218137E-02;  1.0690856E+04;
  1.5017300E+00;  9.9999998E-03;  6.0616706E-02;9352;  1.0781615E+00;  0.0000000E+00;  1.2543831E-03;  9.9380823E+02;  1.2536940E-01; -4.9639438E+03;3;  2.7946299E+01;  0.0000000E+00;  6.5835233E+00;0; -2.1006098E-01;  2.5586309E+04;  0.0000000E+00; -1.3907461E-01;  4.0000000E+04;  0.0000000E+00;  3.9265039E+04; -3.0527923E-01;  0.0000000E+00;  9.5218234E-02;  1.0690862E+04;
  1.5016500E+00;  9.9999998E-03; -7.0731573E-02;9339;  1.0782002E+00;  0.0000000E+00; -1.9530008E-03;  9.9389551E+02;  1.2536758E-01; -4.8941221E+03;3;  2.8482460E+01;  0.0000000E+00; -8.1866674E+00;0; -2.0747384E-01;  2.5591549E+04;  0.0000000E+00; -1.5796708E-01;  4.0000000E+04;  0.0000000E+00;  3.9265785E+04; -3.1655535E-01;  0.0000000E+00;  1.0908151E-01;  1.0731703E+04;
  1.5015799E+00;  9.9999998E-03; -8.0847703E-02;9338;  1.0783631E+00;  0.0000000E+00; -2.9024109E-03;  9.9407080E+02;  1.2536503E-01; -4.7537368E+03;3;  2.9048645E+01;  0.0000000E+00; -1.0267280E+01;0; -2.0426533E-01;  2.5602262E+04;  0.0000000E+00; -1.7824332E-01;  4.0000000E+04;  0.0000000E+00;  3.9264484E+04; -3.2802108E-01;  0.0000000E+00;  1.2375576E-01;  1.0554486E+04;
  1.5015205E+00;  9.9999998E-03; -9.0959653E-02;9337;  1.0786960E+00;  0.0000000E+00; -4.1161003E-03;  9.9434851E+02;  1.2536244E-01; -4.5312178E+03;3;  2.9713717E+01;  0.0000000E+00; -1.2270651E+01;0; -2.0054880E-01;  2.5619814E+04;  0.0000000E+00; -2.0567854E-01;  4.0000000E+04;  0.0000000E+00;  3.9260102E+04; -3.3933592E-01;  0.0000000E+00;  1.3878712E-01;  1.0105284E+04;
  1.5014687E+00;  9.9999998E-03; -1.0106001E-01;9336;  1.0792522E+00;  0.0000000E+00; -5.6009516E-03;  9.9472772E+02;  1.2535913E-01; -4.2272822E+03;3;  3.0529556E+01;  0.0000000E+00; -1.4335304E+01;0; -1.9651286E-01;  2.5644352E+04;  0.0000000E+00; -2.2137560E-01;  4.0000000E+04;  0.0000000E+00;  3.9252789E+04; -3.5027272E-01;  0.0000000E+00;  1.5375985E-01;  9.3558936E+03;
  1.5138619E+00;  9.9999998E-03; -8.0891311E-02;9393;  1.0743446E+00;  0.0000000E+00; -6.4075890E-04;  9.9410876E+02;  1.2347607E-01; -4.6939517E+03;3;  2.7284243E+01;  0.0000000E+00; -8.7291908E+00;0; -2.0762748E-01;  2.6432840E+04;  0.0000000E+00; -2.8919160E-01;  4.0000000E+04;  0.0000000E+00;  3.9205879E+04; -3.0170554E-01;  0.0000000E+00;  9.4078071E-02;  9.4198652E+03;
  1.5139579E+00;  9.9999998E-03; -5.0545968E-02;9396;  1.0747192E+00;  0.0000000E+00;  4.6927977E-04;  9.9353741E+02;  1.2349209E-01; -5.1488784E+03;3;  2.5837017E+01;  0.0000000E+00; -4.1248698E+00;0; -2.0434527E-01;  2.6393943E+04;  0.0000000E+00; -1.7105266E-01;  4.0000000E+04;  0.0000000E+00;  3.9209895E+04; -2.5855717E-01;  0.0000000E+00;  5.4211896E-02;  9.9048604E+03;
  1.5139579E+00;  9.9999998E-03;  5.0546039E-02;9406;  1.0747191E+00;  0.0000000E+00; -4.6802199E-04;  9.9353741E+02;  1.2349209E-01; -5.1488784E+03;3;  2.5835714E+01;  0.0000000E+00;  4.1247387E+00;0; -2.0434490E-01;  2.6393941E+04;  0.0000000E+00; -1.7104515E-01;  4.0000000E+04;  0.0000000E+00;  3.9209895E+04; -2.5855690E-01;  0.0000000E+00;  5.4212011E-02;  9.9048506E+03;
  1.5139138E+00;  9.9999998E-03; -6.0663227E-02;9395;  1.0745023E+00;  0.0000000E+00;  2.7834764E-04;  9.9365179E+02;  1.2348788E-01; -5.0578721E+03;3;  2.6193485E+01;  0.0000000E+00; -5.4253187E+00;0; -2.0591518E-01;  2.6400975E+04;  0.0000000E+00; -2.1424615E-01;  4.0000000E+04;  0.0000000E+00;  3.9211023E+04; -2.7236763E-01;  0.0000000E+00;  6.6452451E-02;  9.9644395E+03;
  1.5139136E+00;  9.9999998E-03;  6.0663298E-02;9407;  1.0745021E+00;  0.0000000E+00; -2.7708977E-04;  9.9365186E+02;  1.2348789E-01; -5.0578247E+03;3;  2.6194323E+01;  0.0000000E+00;  5.4252582E+00;0; -2.0591529E-01;  2.6400977E+04;  0.0000000E+00; -2.1424256E-01;  4.0000000E+04;  0.0000000E+00;  3.9211023E+04; -2.7236798E-01;  0.0000000E+00;  6.6452697E-02;  9.9644365E+03;
  1.5138817E+00;  9.9999998E-03; -7.0779838E-02;9394;  1.0743610E+00;  0.0000000E+00; -8.0777631E-05;  9.9383380E+02;  1.2348133E-01; -4.9129731E+03;3;  2.6672056E+01;  0.0000000E+00; -6.9941425E+00;0; -2.0705007E-01;  2.6413717E+04;  0.0000000E+00; -2.5470340E-01;  4.0000000E+04;  0.0000000E+00;  3.9209961E+04; -2.8692296E-01;  0.0000000E+00;  7.9872891E-02;  9.8224775E+03;
  1.5138484E+00;  9.9999998E-03; -9.0989888E-02;9392;  1.0744991E+00;  0.0000000E+00; -1.4520626E-03;  9.9446918E+02;  1.2347022E-01; -4.4068071E+03;3;  2.8113087E+01;  0.0000000E+00; -1.0883475E+01;0; -2.0760971E-01;  2.6458691E+04;  0.0000000E+00; -2.9592621E-01;  4.0000000E+04;  0.0000000E+00;  3.9198660E+04; -3.1632054E-01;  0.0000000E+00;  1.0871083E-01;  8.7207012E+03;
  1.5138271E+00;  9.9999998E-03; -1.0106803E-01;9391;  1.0748881E+00;  0.0000000E+00; -2.5303653E-03;  9.9490411E+02;  1.2346572E-01; -4.0603108E+03;3;  2.9084328E+01;  0.0000000E+00; -1.3051882E+01;0; -2.0705962E-01;  2.6489818E+04;  0.0000000E+00; -2.1255434E-01;  4.0000000E+04;  0.0000000E+00;  3.9188113E+04; -3.3057541E-01;  0.0000000E+00;  1.2351579E-01;  7.7291733E+03;
  1.5140083E+00;  9.9999998E-03; -4.0431309E-02;9397;  1.0749660E+00;  0.0000000E+00;  5.2470557E-04;  9.9348718E+02;  1.2349655E-01; -5.1887676E+03;3;  2.5575584E+01;  0.0000000E+00; -3.0338817E+00;0; -2.0253950E-01;  2.6390781E+04;  0.0000000E+00; -1.2378851E-01;  4.0000000E+04;  0.0000000E+00;  3.9207152E+04; -2.4608891E-01;  0.0000000E+00;  4.3549411E-02;  9.7158936E+03;
  1.5140083E+00;  9.9999998E-03;  4.0431380E-02;9405;  1.0749660E+00;  0.0000000E+00; -5.2343239E-04;  9.9348706E+02;  1.2349652E-01; -5.1888623E+03;3;  2.5577074E+01;  0.0000000E+00;  3.0338752E+00;0; -2.0253929E-01;  2.6390773E+04;  0.0000000E+00; -1.2378187E-01;  4.0000000E+04;  0.0000000E+00;  3.9207152E+04; -2.4608870E-01;  0.0000000E+00;  4.3549411E-02;  9.7158984E+03;
  1.5140566E+00;  9.9999998E-03; -3.0319734E-02;9398;  1.0752041E+00;  0.0000000E+00;  4.7723489E-04;  9.9347192E+02;  1.2349992E-01; -5.2007852E+03;3;  2.5356470E+01;  0.0000000E+00; -2.1337628E+00;0; -2.0074835E-01;  2.6390236E+04;  0.0000000E+00; -7.6613136E-02;  4.0000000E+04;  0.0000000E+00;  3.9204184E+04; -2.3557968E-01;  0.0000000E+00;  3.4831323E-02;  9.4720850E+03;
  1.5140566E+00;  9.9999998E-03;  3.0319804E-02;9404;  1.0752041E+00;  0.0000000E+00; -4.7595327E-04;  9.9347186E+02;  1.2349947E-01; -5.2008325E+03;3;  2.5355692E+01;  0.0000000E+00;  2.1337934E+00;0; -2.0074880E-01;  2.6390232E+04;  0.0000000E+00; -7.6606892E-02;  4.0000000E+04;  0.0000000E+00;  3.9204188E+04; -2.3558015E-01;  0.0000000E+00;  3.4831338E-02;  9.4720820E+03;
  1.5141135E+00;  9.9999998E-03; -1.0105791E-02;9400;  1.0755286E+00;  0.0000000E+00;  1.8951524E-04;  9.9348474E+02;  1.2350477E-01; -5.1904126E+03;3;  2.5203075E+01;  0.0000000E+00; -7.0039594E-01;0; -1.9823563E-01;  2.6391553E+04;  0.0000000E+00; -9.4615109E-03;  4.0000000E+04;  0.0000000E+00;  3.9199117E+04; -2.2264443E-01;  0.0000000E+00;  2.4408806E-02;  9.0786152E+03;
  1.5141189E+00;  9.9999998E-03;  3.5525623E-08;9401;  1.0755755E+00;  0.0000000E+00;  6.3676583E-07;  9.9348596E+02;  1.2350521E-01; -5.1893999E+03;3;  2.5235825E+01;  0.0000000E+00;  4.0057363E-05;0; -1.9788685E-01;  2.6391668E+04;  0.0000000E+00; -6.3828984E-11;  4.0000000E+04;  0.0000000E+00;  3.9198648E+04; -2.2096121E-01;  0.0000000E+00;  2.3074357E-02;  9.0201738E+03;
  1.5141135E+00;  9.9999998E-03;  1.0105862E-02;9402;  1.0755286E+00;  0.0000000E+00; -1.8824017E-04;  9.9348474E+02;  1.2350477E-01; -5.1904126E+03;3;  2.5202896E+01;  0.0000000E+00;  7.0052058E-01;0; -1.9823569E-01;  2.6391549E+04;  0.0000000E+00; -9.4587356E-03;  4.0000000E+04;  0.0000000E+00;  3.9199113E+04; -2.2264451E-01;  0.0000000E+00;  2.4408810E-02;  9.0786260E+03;
  1.5140933E+00;  9.9999998E-03; -2.0211687E-02;9399;  1.0754027E+00;  0.0000000E+00;  3.6075077E-04;  9.9347150E+02;  1.2350214E-01; -5.2010122E+03;3;  2.5271608E+01;  0.0000000E+00; -1.3345858E+00;0; -1.9923797E-01;  2.6390744E+04;  0.0000000E+00; -3.6399111E-02;  4.0000000E+04;  0.0000000E+00;  3.9201230E+04; -2.2761117E-01;  0.0000000E+00;  2.8373204E-02;  9.2413633E+03;
  1.5140933E+00;  9.9999998E-03;  2.0211758E-02;9403;  1.0754029E+00;  0.0000000E+00; -3.5946831E-04;  9.9347162E+02;  1.2350208E-01; -5.2009175E+03;3;  2.5271172E+01;  0.0000000E+00;  1.3347054E+00;0; -1.9923797E-01;  2.6390746E+04;  0.0000000E+00; -3.6394738E-02;  4.0000000E+04;  0.0000000E+00;  3.9201230E+04; -2.2761121E-01;  0.0000000E+00;  2.8373240E-02;  9.2413506E+03;
  1.5260316E+00;  9.9999998E-03;  3.5503675E-08;9455;  1.0729840E+00;  0.0000000E+00;  6.4965957E-07;  9.9313159E+02;  1.2188851E-01; -5.4328726E+03;3;  2.3617470E+01;  0.0000000E+00;  4.0461273E-05;0; -1.7201807E-01;  2.7120988E+04;  0.0000000E+00; -5.9249987E-11;  4.0000000E+04;  0.0000000E+00;  3.9138934E+04; -1.7050496E-01;  0.0000000E+00; -1.5131043E-03;  8.5587207E+03;
  1.5260342E+00;  9.9999998E-03; -1.0112630E-02;9454;  1.0729197E+00;  0.0000000E+00;  3.9325023E-04;  9.9313971E+02;  1.2188747E-01; -5.4264512E+03;3;  2.3607780E+01;  0.0000000E+00; -6.2390977E-01;0; -1.7283230E-01;  2.7121396E+04;  0.0000000E+00; -1.1214123E-02;  4.0000000E+04;  0.0000000E+00;  3.9139363E+04; -1.7263515E-01;  0.0000000E+00; -1.9714722E-04;  8.6002275E+03;
  1.5260342E+00;  9.9999998E-03;  1.0112701E-02;9456;  1.0729197E+00;  0.0000000E+00; -3.9195034E-04;  9.9313977E+02;  1.2188749E-01; -5.4264038E+03;3;  2.3607603E+01;  0.0000000E+00;  6.2400192E-01;0; -1.7283249E-01;  2.7121398E+04;  0.0000000E+00; -1.1211465E-02;  4.0000000E+04;  0.0000000E+00;  3.9139363E+04; -1.7263536E-01;  0.0000000E+00; -1.9712294E-04;  8.6002158E+03;
  1.5260177E+00;  9.9999998E-03; -4.0455010E-02;9451;  1.0720592E+00;  0.0000000E+00;  1.3501109E-03;  9.9329840E+02;  1.2187319E-01; -5.3009561E+03;3;  2.3783775E+01;  0.0000000E+00; -3.0109849E+00;0; -1.8376730E-01;  2.7132615E+04;  0.0000000E+00; -1.5583223E-01;  4.0000000E+04;  0.0000000E+00;  3.9144598E+04; -2.0235986E-01;  0.0000000E+00;  1.8592557E-02;  8.9621973E+03;
  1.5260177E+00;  9.9999998E-03;  4.0455081E-02;9459;  1.0720590E+00;  0.0000000E+00; -1.3488211E-03;  9.9329852E+02;  1.2187341E-01; -5.3008618E+03;3;  2.3785234E+01;  0.0000000E+00;  3.0109861E+00;0; -1.8376735E-01;  2.7132607E+04;  0.0000000E+00; -1.5582414E-01;  4.0000000E+04;  0.0000000E+00;  3.9144598E+04; -2.0235997E-01;  0.0000000E+00;  1.8592624E-02;  8.9621865E+03;
  1.5260341E+00;  9.9999998E-03; -2.0224959E-02;9453;  1.0727267E+00;  0.0000000E+00;  7.6227885E-04;  9.9316559E+02;  1.2188378E-01; -5.4059424E+03;3;  2.3680939E+01;  0.0000000E+00; -1.3374326E+00;0; -1.7522186E-01;  2.7123309E+04;  0.0000000E+00; -4.3598942E-02;  4.0000000E+04;  0.0000000E+00;  3.9140969E+04; -1.7893280E-01;  0.0000000E+00;  3.7109372E-03;  8.7107939E+03;
  1.5260341E+00;  9.9999998E-03;  2.0225031E-02;9457;  1.0727267E+00;  0.0000000E+00; -7.6098071E-04;  9.9316565E+02;  1.2188379E-01; -5.4058950E+03;3;  2.3680576E+01;  0.0000000E+00;  1.3374881E+00;0; -1.7522182E-01;  2.7123311E+04;  0.0000000E+00; -4.3594047E-02;  4.0000000E+04;  0.0000000E+00;  3.9140965E+04; -1.7893277E-01;  0.0000000E+00;  3.7109624E-03;  8.7107832E+03;
  1.5260272E+00;  9.9999998E-03; -3.0338716E-02;9452;  1.0724306E+00;  0.0000000E+00;  1.0935470E-03;  9.9321149E+02;  1.2187891E-01; -5.3696636E+03;3;  2.3752981E+01;  0.0000000E+00; -2.1391449E+00;0; -1.7897990E-01;  2.7126676E+04;  0.0000000E+00; -9.3577318E-02;  4.0000000E+04;  0.0000000E+00;  3.9142848E+04; -1.8904009E-01;  0.0000000E+00;  1.0060193E-02;  8.8510234E+03;
  1.5260271E+00;  9.9999998E-03;  3.0338788E-02;9458;  1.0724305E+00;  0.0000000E+00; -1.0922455E-03;  9.9321149E+02;  1.2187891E-01; -5.3696636E+03;3;  2.3754770E+01;  0.0000000E+00;  2.1392429E+00;0; -1.7898005E-01;  2.7126684E+04;  0.0000000E+00; -9.3571320E-02;  4.0000000E+04;  0.0000000E+00;  3.9142852E+04; -1.8904030E-01;  0.0000000E+00;  1.0060245E-02;  8.8510420E+03;
  1.5260130E+00;  9.9999998E-03; -5.0573070E-02;9450;  1.0716528E+00;  0.0000000E+00;  1.5207327E-03;  9.9343335E+02;  1.2186664E-01; -5.1942300E+03;3;  2.3903801E+01;  0.0000000E+00; -4.0524192E+00;0; -1.8917365E-01;  2.7142648E+04;  0.0000000E+00; -2.2477418E-01;  4.0000000E+04;  0.0000000E+00;  3.9145004E+04; -2.1814643E-01;  0.0000000E+00;  2.8972771E-02;  8.9745859E+03;
  1.5260130E+00;  9.9999998E-03;  5.0573140E-02;9460;  1.0716528E+00;  0.0000000E+00; -1.5194386E-03;  9.9343329E+02;  1.2186663E-01; -5.1942773E+03;3;  2.3902493E+01;  0.0000000E+00;  4.0522890E+00;0; -1.8917367E-01;  2.7142648E+04;  0.0000000E+00; -2.2476843E-01;  4.0000000E+04;  0.0000000E+00;  3.9145004E+04; -2.1814655E-01;  0.0000000E+00;  2.8972872E-02;  8.9745850E+03;
  1.5260184E+00;  9.9999998E-03; -6.0690559E-02;9449;  1.0712551E+00;  0.0000000E+00;  1.5712607E-03;  9.9364355E+02;  1.2185973E-01; -5.0279238E+03;3;  2.4222536E+01;  0.0000000E+00; -5.2204876E+00;0; -1.9478154E-01;  2.7157527E+04;  0.0000000E+00; -2.9654276E-01;  4.0000000E+04;  0.0000000E+00;  3.9143953E+04; -2.3560448E-01;  0.0000000E+00;  4.0822942E-02;  8.8181680E+03;
  1.5260184E+00;  9.9999998E-03;  6.0690630E-02;9461;  1.0712548E+00;  0.0000000E+00; -1.5699863E-03;  9.9364380E+02;  1.2185971E-01; -5.0277354E+03;3;  2.4223352E+01;  0.0000000E+00;  5.2203283E+00;0; -1.9478150E-01;  2.7157531E+04;  0.0000000E+00; -2.9654124E-01;  4.0000000E+04;  0.0000000E+00;  3.9143953E+04; -2.3560455E-01;  0.0000000E+00;  4.0823054E-02;  8.8181670E+03;
  1.5260359E+00;  9.9999998E-03; -7.0802793E-02;9448;  1.0709188E+00;  0.0000000E+00;  1.4800649E-03;  9.9392444E+02;  1.2185262E-01; -4.8057109E+03;3;  2.4821552E+01;  0.0000000E+00; -6.5083256E+00;0; -2.0020822E-01;  2.7178211E+04;  0.0000000E+00; -3.6036342E-01;  4.0000000E+04;  0.0000000E+00;  3.9140098E+04; -2.5396720E-01;  0.0000000E+00;  5.3758975E-02;  8.4355898E+03;
  1.5260466E+00;  9.9999998E-03; -1.0103770E-01;9445;  1.0708787E+00;  0.0000000E+00;  5.9141341E-05;  9.9512744E+02;  1.2183556E-01; -3.8541228E+03;3;  2.7475176E+01;  0.0000000E+00; -1.1503520E+01;0; -2.1292041E-01;  2.7269953E+04;  0.0000000E+00; -1.0693865E-02;  4.0000000E+04;  0.0000000E+00;  3.9109809E+04; -3.0911213E-01;  0.0000000E+00;  9.6191719E-02;  5.7514287E+03;
  1.5260582E+00;  9.9999998E-03; -8.0902733E-02;9447;  1.0707078E+00;  0.0000000E+00;  1.2160809E-03;  9.9427118E+02;  1.2184417E-01; -4.5313940E+03;3;  2.5557953E+01;  0.0000000E+00; -8.0073147E+00;0; -2.0514870E-01;  2.7204877E+04;  0.0000000E+00; -3.8628218E-01;  4.0000000E+04;  0.0000000E+00;  3.9133031E+04; -2.7259290E-01;  0.0000000E+00;  6.7444213E-02;  7.7885410E+03;
  1.5260698E+00;  9.9999998E-03; -9.0982951E-02;9446;  1.0706732E+00;  0.0000000E+00;  7.4760028E-04;  9.9468195E+02;  1.2183808E-01; -4.2064321E+03;3;  2.6400537E+01;  0.0000000E+00; -9.7828398E+00;0; -2.0940374E-01;  2.7236129E+04;  0.0000000E+00; -3.0916333E-01;  4.0000000E+04;  0.0000000E+00;  3.9122719E+04; -2.9103428E-01;  0.0000000E+00;  8.1630543E-02;  6.8718848E+03;
  1.5378642E+00;  9.9999998E-03;  3.5615027E-08;9508;  1.0707992E+00;  0.0000000E+00;  6.5816880E-07;  9.9292865E+02;  1.2049398E-01; -5.5474365E+03;3;  2.2096333E+01;  0.0000000E+00;  1.4215970E-05;0; -1.3780850E-01;  2.7793355E+04;  0.0000000E+00; -5.3082327E-11;  4.0000000E+04;  0.0000000E+00;  3.9067629E+04; -1.1500547E-01;  0.0000000E+00; -2.2803038E-02;  7.8545366E+03;
  1.5378748E+00;  9.9999998E-03; -1.0120614E-02;9507;  1.0707204E+00;  0.0000000E+00;  5.8628037E-04;  9.9294702E+02;  1.2049091E-01; -5.5329438E+03;3;  2.2192989E+01;  0.0000000E+00; -6.8686235E-01;0; -1.3914792E-01;  2.7794984E+04;  0.0000000E+00; -1.4296534E-02;  4.0000000E+04;  0.0000000E+00;  3.9067926E+04; -1.1765228E-01;  0.0000000E+00; -2.1495642E-02;  7.8701196E+03;
  1.5378748E+00;  9.9999998E-03;  1.0120685E-02;9509;  1.0707204E+00;  0.0000000E+00; -5.8496092E-04;  9.9294702E+02;  1.2049091E-01; -5.5329438E+03;3;  2.2192820E+01;  0.0000000E+00;  6.8692070E-01;0; -1.3914810E-01;  2.7794982E+04;  0.0000000E+00; -1.4294204E-02;  4.0000000E+04;  0.0000000E+00;  3.9067926E+04; -1.1765249E-01;  0.0000000E+00; -2.1495610E-02;  7.8701050E+03;
  1.5378964E+00;  9.9999998E-03; -2.0238493E-02;9506;  1.0704675E+00;  0.0000000E+00;  1.1591333E-03;  9.9300604E+02;  1.2048685E-01; -5.4865630E+03;3;  2.2211294E+01;  0.0000000E+00; -1.2889374E+00;0; -1.4309785E-01;  2.7799826E+04;  0.0000000E+00; -5.6374904E-02;  4.0000000E+04;  0.0000000E+00;  3.9068605E+04; -1.2547521E-01;  0.0000000E+00; -1.7622631E-02;  7.9031992E+03;
  1.5378964E+00;  9.9999998E-03;  2.0238563E-02;9510;  1.0704675E+00;  0.0000000E+00; -1.1578142E-03;  9.9300604E+02;  1.2048654E-01; -5.4865630E+03;3;  2.2210918E+01;  0.0000000E+00;  1.2889885E+00;0; -1.4309798E-01;  2.7799822E+04;  0.0000000E+00; -5.6370806E-02;  4.0000000E+04;  0.0000000E+00;  3.9068602E+04; -1.2547541E-01;  0.0000000E+00; -1.7622577E-02;  7.9031929E+03;
  1.5379218E+00;  9.9999998E-03; -3.0354574E-02;9505;  1.0700678E+00;  0.0000000E+00;  1.6880708E-03;  9.9311267E+02;  1.2048101E-01; -5.4028101E+03;3;  2.1954823E+01;  0.0000000E+00; -1.9892318E+00;0; -1.4938574E-01;  2.7807555E+04;  0.0000000E+00; -1.2364005E-01;  4.0000000E+04;  0.0000000E+00;  3.9069008E+04; -1.3802505E-01;  0.0000000E+00; -1.1360696E-02;  7.9153867E+03;
  1.5379218E+00;  9.9999998E-03;  3.0354645E-02;9511;  1.0700676E+00;  0.0000000E+00; -1.6867615E-03;  9.9311273E+02;  1.2048084E-01; -5.4027632E+03;3;  2.1951876E+01;  0.0000000E+00;  1.9891241E+00;0; -1.4938574E-01;  2.7807561E+04;  0.0000000E+00; -1.2363338E-01;  4.0000000E+04;  0.0000000E+00;  3.9069012E+04; -1.3802510E-01;  0.0000000E+00; -1.1360629E-02;  7.9153755E+03;
  1.5379543E+00;  9.9999998E-03; -4.0471304E-02;9504;  1.0695577E+00;  0.0000000E+00;  2.1501870E-03;  9.9326123E+02;  1.2047285E-01; -5.2861606E+03;3;  2.1825579E+01;  0.0000000E+00; -2.9457183E+00;0; -1.5754947E-01;  2.7819598E+04;  0.0000000E+00; -2.1180594E-01;  4.0000000E+04;  0.0000000E+00;  3.9068730E+04; -1.5454704E-01;  0.0000000E+00; -3.0024319E-03;  7.8517129E+03;
  1.5379543E+00;  9.9999998E-03;  4.0471375E-02;9512;  1.0695574E+00;  0.0000000E+00; -2.1488911E-03;  9.9326123E+02;  1.2047285E-01; -5.2861606E+03;3;  2.1824610E+01;  0.0000000E+00;  2.9456525E+00;0; -1.5754992E-01;  2.7819598E+04;  0.0000000E+00; -2.1179681E-01;  4.0000000E+04;  0.0000000E+00;  3.9068734E+04; -1.5454754E-01;  0.0000000E+00; -3.0023777E-03;  7.8517192E+03;
  1.5379997E+00;  9.9999998E-03; -5.0587565E-02;9503;  1.0689906E+00;  0.0000000E+00;  2.5245158E-03;  9.9348157E+02;  1.2046494E-01; -5.1131284E+03;3;  2.1955648E+01;  0.0000000E+00; -3.9880140E+00;0; -1.6701345E-01;  2.7836609E+04;  0.0000000E+00; -3.1438732E-01;  4.0000000E+04;  0.0000000E+00;  3.9066754E+04; -1.7409630E-01;  0.0000000E+00;  7.0828474E-03;  7.6523096E+03;
  1.5379997E+00;  9.9999998E-03;  5.0587635E-02;9513;  1.0689906E+00;  0.0000000E+00; -2.5232092E-03;  9.9348169E+02;  1.2046485E-01; -5.1130352E+03;3;  2.1956772E+01;  0.0000000E+00;  3.9879587E+00;0; -1.6701353E-01;  2.7836615E+04;  0.0000000E+00; -3.1437746E-01;  4.0000000E+04;  0.0000000E+00;  3.9066754E+04; -1.7409645E-01;  0.0000000E+00;  7.0829201E-03;  7.6523027E+03;
  1.5380565E+00;  9.9999998E-03; -6.0699850E-02;9502;  1.0684090E+00;  0.0000000E+00;  2.7812372E-03;  9.9376660E+02;  1.2045638E-01; -4.8893394E+03;3;  2.2326199E+01;  0.0000000E+00; -5.1396055E+00;0; -1.7716996E-01;  2.7858719E+04;  0.0000000E+00; -4.1645965E-01;  4.0000000E+04;  0.0000000E+00;  3.9062453E+04; -1.9567682E-01;  0.0000000E+00;  1.8506849E-02;  7.2677085E+03;
  1.5380565E+00;  9.9999998E-03;  6.0699921E-02;9514;  1.0684088E+00;  0.0000000E+00; -2.7799252E-03;  9.9376660E+02;  1.2045638E-01; -4.8893394E+03;3;  2.2329424E+01;  0.0000000E+00;  5.1398592E+00;0; -1.7716998E-01;  2.7858711E+04;  0.0000000E+00; -4.1645238E-01;  4.0000000E+04;  0.0000000E+00;  3.9062449E+04; -1.9567698E-01;  0.0000000E+00;  1.8506998E-02;  7.2677026E+03;
  1.5381180E+00;  9.9999998E-03; -7.0801780E-02;9501;  1.0678706E+00;  0.0000000E+00;  2.8976789E-03;  9.9411176E+02;  1.2044847E-01; -4.6183813E+03;3;  2.2705254E+01;  0.0000000E+00; -6.3827019E+00;0; -1.8743104E-01;  2.7885771E+04;  0.0000000E+00; -4.8059106E-01;  4.0000000E+04;  0.0000000E+00;  3.9055488E+04; -2.1833859E-01;  0.0000000E+00;  3.0907564E-02;  6.6648291E+03;
  1.5381231E+00;  9.9999998E-03; -1.0098171E-01;9498;  1.0672187E+00;  0.0000000E+00;  2.2590247E-03;  9.9529883E+02;  1.2043758E-01; -3.6873323E+03;3;  2.5858099E+01;  0.0000000E+00; -1.0628674E+01;0; -2.1465790E-01;  2.7980826E+04;  0.0000000E+00;  5.8638316E-01;  4.0000000E+04;  0.0000000E+00;  3.9020480E+04; -2.8644657E-01;  0.0000000E+00;  7.1788676E-02;  3.9650828E+03;
  1.5381660E+00;  9.9999998E-03; -8.0886088E-02;9500;  1.0674373E+00;  0.0000000E+00;  2.8575521E-03;  9.9449896E+02;  1.2044238E-01; -4.3145342E+03;3;  2.3474382E+01;  0.0000000E+00; -7.7117419E+00;0; -1.9730484E-01;  2.7916746E+04;  0.0000000E+00; -4.3187657E-01;  4.0000000E+04;  0.0000000E+00;  3.9045898E+04; -2.4131300E-01;  0.0000000E+00;  4.4008158E-02;  5.8360005E+03;
  1.5381738E+00;  9.9999998E-03; -9.0947635E-02;9499;  1.0672004E+00;  0.0000000E+00;  2.6490174E-03;  9.9490295E+02;  1.2043783E-01; -3.9976479E+03;3;  2.4522470E+01;  0.0000000E+00; -9.1464415E+00;0; -2.0643896E-01;  2.7949371E+04;  0.0000000E+00; -1.4157370E-01;  4.0000000E+04;  0.0000000E+00;  3.9033602E+04; -2.6409343E-01;  0.0000000E+00;  5.7654463E-02;  4.8381714E+03;
  1.5496655E+00;  9.9999998E-03; -1.0128649E-02;9559;  1.0689063E+00;  0.0000000E+00;  7.7209127E-04;  9.9290112E+02;  1.1928880E-01; -5.5160933E+03;3;  2.0740623E+01;  0.0000000E+00; -6.8017387E-01;0; -9.8088272E-02;  2.8418445E+04;  0.0000000E+00; -2.2260331E-02;  4.0000000E+04;  0.0000000E+00;  3.8982188E+04; -5.8946811E-02;  0.0000000E+00; -3.9141461E-02;  6.7803501E+03;
  1.5496454E+00;  9.9999998E-03;  3.5727890E-08;9560;  1.0690068E+00;  0.0000000E+00;  6.6755774E-07;  9.9286853E+02;  1.1929153E-01; -5.5415244E+03;3;  2.0705616E+01;  0.0000000E+00; -1.5181373E-05;0; -9.6168354E-02;  2.8415785E+04;  0.0000000E+00; -4.0962848E-11;  4.0000000E+04;  0.0000000E+00;  3.8982340E+04; -5.5727478E-02;  0.0000000E+00; -4.0440880E-02;  6.7927461E+03;
  1.5496655E+00;  9.9999998E-03;  1.0128721E-02;9561;  1.0689064E+00;  0.0000000E+00; -7.7075273E-04;  9.9290112E+02;  1.1928880E-01; -5.5160938E+03;3;  2.0740526E+01;  0.0000000E+00;  6.8016857E-01;0; -9.8088302E-02;  2.8418441E+04;  0.0000000E+00; -2.2258218E-02;  4.0000000E+04;  0.0000000E+00;  3.8982188E+04; -5.8946844E-02;  0.0000000E+00; -3.9141458E-02;  6.7803457E+03;
  1.5497143E+00;  9.9999998E-03; -2.0252595E-02;9558;  1.0685850E+00;  0.0000000E+00;  1.5340189E-03;  9.9299194E+02;  1.1928377E-01; -5.4453242E+03;3;  2.0453356E+01;  0.0000000E+00; -1.1327224E+00;0; -1.0375596E-01;  2.8426166E+04;  0.0000000E+00; -8.7686449E-02;  4.0000000E+04;  0.0000000E+00;  3.8981664E+04; -6.8446830E-02;  0.0000000E+00; -3.5309128E-02;  6.7313711E+03;
  1.5497143E+00;  9.9999998E-03;  2.0252666E-02;9562;  1.0685850E+00;  0.0000000E+00; -1.5326848E-03;  9.9299194E+02;  1.1928377E-01; -5.4453242E+03;3;  2.0453011E+01;  0.0000000E+00;  1.1327361E+00;0; -1.0375606E-01;  2.8426166E+04;  0.0000000E+00; -8.7681964E-02;  4.0000000E+04;  0.0000000E+00;  3.8981664E+04; -6.8446942E-02;  0.0000000E+00; -3.5309117E-02;  6.7313682E+03;
  1.5497789E+00;  9.9999998E-03; -3.0371457E-02;9557;  1.0680828E+00;  0.0000000E+00;  2.2495443E-03;  9.9315948E+02;  1.1927906E-01; -5.3148394E+03;3;  2.0105993E+01;  0.0000000E+00; -1.8426906E+00;0; -1.1283133E-01;  2.8438629E+04;  0.0000000E+00; -1.9210391E-01;  4.0000000E+04;  0.0000000E+00;  3.8980367E+04; -8.3678357E-02;  0.0000000E+00; -2.9152973E-02;  6.6136890E+03;
  1.5497789E+00;  9.9999998E-03;  3.0371530E-02;9563;  1.0680827E+00;  0.0000000E+00; -2.2482206E-03;  9.9315936E+02;  1.1927906E-01; -5.3149321E+03;3;  2.0105385E+01;  0.0000000E+00;  1.8426580E+00;0; -1.1283146E-01;  2.8438623E+04;  0.0000000E+00; -1.9209811E-01;  4.0000000E+04;  0.0000000E+00;  3.8980371E+04; -8.3678536E-02;  0.0000000E+00; -2.9152920E-02;  6.6136846E+03;
  1.5498613E+00;  9.9999998E-03; -4.0486418E-02;9556;  1.0674437E+00;  0.0000000E+00;  2.9016838E-03;  9.9338025E+02;  1.1927107E-01; -5.1429360E+03;3;  2.0008394E+01;  0.0000000E+00; -2.7315962E+00;0; -1.2470533E-01;  2.8456137E+04;  0.0000000E+00; -3.2568297E-01;  4.0000000E+04;  0.0000000E+00;  3.8977891E+04; -1.0369074E-01;  0.0000000E+00; -2.1014595E-02;  6.3835620E+03;
  1.5498614E+00;  9.9999998E-03;  4.0486492E-02;9564;  1.0674435E+00;  0.0000000E+00; -2.9003695E-03;  9.9338043E+02;  1.1927110E-01; -5.1427969E+03;3;  2.0007544E+01;  0.0000000E+00;  2.7314522E+00;0; -1.2470550E-01;  2.8456139E+04;  0.0000000E+00; -3.2567605E-01;  4.0000000E+04;  0.0000000E+00;  3.8977895E+04; -1.0369100E-01;  0.0000000E+00; -2.1014504E-02;  6.3835537E+03;
  1.5499593E+00;  9.9999998E-03; -5.0597388E-02;9555;  1.0666996E+00;  0.0000000E+00;  3.4619118E-03;  9.9365643E+02;  1.1926231E-01; -4.9279272E+03;3;  1.9952265E+01;  0.0000000E+00; -3.7974904E+00;0; -1.3863210E-01;  2.8478998E+04;  0.0000000E+00; -4.6910462E-01;  4.0000000E+04;  0.0000000E+00;  3.8973352E+04; -1.2733725E-01;  0.0000000E+00; -1.1294853E-02;  6.0019648E+03;
  1.5499593E+00;  9.9999998E-03;  5.0597459E-02;9565;  1.0666996E+00;  0.0000000E+00; -3.4605777E-03;  9.9365637E+02;  1.1926230E-01; -4.9279731E+03;3;  1.9953245E+01;  0.0000000E+00;  3.7975979E+00;0; -1.3863218E-01;  2.8478996E+04;  0.0000000E+00; -4.6910125E-01;  4.0000000E+04;  0.0000000E+00;  3.8973348E+04; -1.2733743E-01;  0.0000000E+00; -1.1294747E-02;  6.0019546E+03;
  1.5500844E+00;  9.9999998E-03; -1.0092471E-01;9550;  1.0638624E+00;  0.0000000E+00;  4.1743484E-03;  9.9531610E+02;  1.1923993E-01; -3.6382595E+03;3;  2.4382021E+01;  0.0000000E+00; -9.8952503E+00;0; -2.1305558E-01;  2.8618910E+04;  0.0000000E+00;  1.9850761E+00;  4.0000000E+04;  0.0000000E+00;  3.8924293E+04; -2.6307267E-01;  0.0000000E+00;  5.0017085E-02;  3.7241648E+03;
  1.5500643E+00;  9.9999998E-03; -6.0700946E-02;9554;  1.0659090E+00;  0.0000000E+00;  3.9006807E-03;  9.9398474E+02;  1.1925357E-01; -4.6724604E+03;3;  1.9958572E+01;  0.0000000E+00; -5.0064454E+00;0; -1.5379710E-01;  2.8505998E+04;  0.0000000E+00; -5.7918161E-01;  4.0000000E+04;  0.0000000E+00;  3.8966480E+04; -1.5340295E-01;  0.0000000E+00; -3.9415513E-04;  5.4454937E+03;
  1.5500643E+00;  9.9999998E-03;  6.0701016E-02;9566;  1.0659090E+00;  0.0000000E+00; -3.8993401E-03;  9.9398474E+02;  1.1925357E-01; -4.6724604E+03;3;  1.9957043E+01;  0.0000000E+00;  5.0063968E+00;0; -1.5379745E-01;  2.8505994E+04;  0.0000000E+00; -5.7918459E-01;  4.0000000E+04;  0.0000000E+00;  3.8966473E+04; -1.5340343E-01;  0.0000000E+00; -3.9401566E-04;  5.4454902E+03;
  1.5501807E+00;  9.9999998E-03; -9.0903245E-02;9551;  1.0640414E+00;  0.0000000E+00;  4.3221894E-03;  9.9503937E+02;  1.1923844E-01; -3.8528984E+03;3;  2.2666454E+01;  0.0000000E+00; -8.7421370E+00;0; -1.9945842E-01;  2.8595477E+04;  0.0000000E+00;  4.5916647E-01;  4.0000000E+04;  0.0000000E+00;  3.8934773E+04; -2.3606841E-01;  0.0000000E+00;  3.6609985E-02;  3.1941028E+03;
  1.5501524E+00;  9.9999998E-03; -7.0790619E-02;9553;  1.0651573E+00;  0.0000000E+00;  4.1957614E-03;  9.9434521E+02;  1.1924613E-01; -4.3921514E+03;3;  2.0490049E+01;  0.0000000E+00; -6.2891960E+00;0; -1.6942440E-01;  2.8536139E+04;  0.0000000E+00; -5.6968290E-01;  4.0000000E+04;  0.0000000E+00;  3.8957367E+04; -1.8077978E-01;  0.0000000E+00;  1.1355390E-02;  4.7117041E+03;
  1.5501969E+00;  9.9999998E-03; -8.0860183E-02;9552;  1.0645005E+00;  0.0000000E+00;  4.3316437E-03;  9.9470941E+02;  1.1924074E-01; -4.1090801E+03;3;  2.1343489E+01;  0.0000000E+00; -7.5489168E+00;0; -1.8482232E-01;  2.8566824E+04;  0.0000000E+00; -2.9554513E-01;  4.0000000E+04;  0.0000000E+00;  3.8946355E+04; -2.0855086E-01;  0.0000000E+00;  2.3728540E-02;  3.8568237E+03;
  1.5613873E+00;  9.9999998E-03;  3.6402181E-08;9610;  1.0675178E+00;  0.0000000E+00;  6.7648682E-07;  9.9297833E+02;  1.1826669E-01; -5.3968057E+03;3;  1.9626808E+01;  0.0000000E+00; -2.3762113E-05;0; -4.9056672E-02;  2.8991936E+04;  0.0000000E+00; -3.1319745E-11;  4.0000000E+04;  0.0000000E+00;  3.8880941E+04;  4.9524973E-03;  0.0000000E+00; -5.4009169E-02;  5.3866538E+03;
  1.5614173E+00;  9.9999998E-03; -1.0141727E-02;9609;  1.0673985E+00;  0.0000000E+00;  9.3950873E-04;  9.9301752E+02;  1.1826535E-01; -5.3665464E+03;3;  1.9636051E+01;  0.0000000E+00; -5.1323199E-01;0; -5.1581908E-02;  2.8995482E+04;  0.0000000E+00; -3.7307456E-02;  4.0000000E+04;  0.0000000E+00;  3.8880496E+04;  1.1438313E-03;  0.0000000E+00; -5.2725740E-02;  5.3509224E+03;
  1.5614173E+00;  9.9999998E-03;  1.0141799E-02;9611;  1.0673985E+00;  0.0000000E+00; -9.3815738E-04;  9.9301740E+02;  1.1826536E-01; -5.3666377E+03;3;  1.9635876E+01;  0.0000000E+00;  5.1319170E-01;0; -5.1581897E-02;  2.8995486E+04;  0.0000000E+00; -3.7306901E-02;  4.0000000E+04;  0.0000000E+00;  3.8880492E+04;  1.1438321E-03;  0.0000000E+00; -5.2725729E-02;  5.3509189E+03;
  1.5614936E+00;  9.9999998E-03; -2.0274643E-02;9608;  1.0670263E+00;  0.0000000E+00;  1.8728977E-03;  9.9312854E+02;  1.1825937E-01; -5.2807988E+03;3;  1.9174738E+01;  0.0000000E+00; -8.7188613E-01;0; -5.9045527E-02;  2.9005746E+04;  0.0000000E+00; -1.4481419E-01;  4.0000000E+04;  0.0000000E+00;  3.8879051E+04; -1.0085159E-02;  0.0000000E+00; -4.8960369E-02;  5.2354277E+03;
  1.5614936E+00;  9.9999998E-03;  2.0274715E-02;9612;  1.0670263E+00;  0.0000000E+00; -1.8715479E-03;  9.9312848E+02;  1.1825938E-01; -5.2808447E+03;3;  1.9174416E+01;  0.0000000E+00;  8.7187779E-01;0; -5.9045553E-02;  2.9005750E+04;  0.0000000E+00; -1.4481382E-01;  4.0000000E+04;  0.0000000E+00;  3.8879051E+04; -1.0085241E-02;  0.0000000E+00; -4.8960313E-02;  5.2354214E+03;
  1.5616010E+00;  9.9999998E-03; -3.0396581E-02;9607;  1.0664321E+00;  0.0000000E+00;  2.7527020E-03;  9.9331323E+02;  1.1825177E-01; -5.1382910E+03;3;  1.8665802E+01;  0.0000000E+00; -1.5878122E+00;0; -7.1022958E-02;  2.9021850E+04;  0.0000000E+00; -3.0746549E-01;  4.0000000E+04;  0.0000000E+00;  3.8876375E+04; -2.8049458E-02;  0.0000000E+00; -4.2973496E-02;  5.0181758E+03;
  1.5616010E+00;  9.9999998E-03;  3.0396653E-02;9613;  1.0664321E+00;  0.0000000E+00; -2.7513562E-03;  9.9331323E+02;  1.1825177E-01; -5.1382910E+03;3;  1.8665258E+01;  0.0000000E+00;  1.5878423E+00;0; -7.1023121E-02;  2.9021852E+04;  0.0000000E+00; -3.0746675E-01;  4.0000000E+04;  0.0000000E+00;  3.8876375E+04; -2.8049672E-02;  0.0000000E+00; -4.2973451E-02;  5.0181777E+03;
  1.5617380E+00;  9.9999998E-03; -4.0510166E-02;9606;  1.0656517E+00;  0.0000000E+00;  3.5725399E-03;  9.9357019E+02;  1.1824345E-01; -4.9401611E+03;3;  1.8176592E+01;  0.0000000E+00; -2.5189037E+00;0; -8.6772248E-02;  2.9043316E+04;  0.0000000E+00; -4.9576995E-01;  4.0000000E+04;  0.0000000E+00;  3.8871770E+04; -5.1610727E-02;  0.0000000E+00; -3.5161525E-02;  4.6734829E+03;
  1.5617380E+00;  9.9999998E-03;  4.0510237E-02;9614;  1.0656517E+00;  0.0000000E+00; -3.5711937E-03;  9.9357007E+02;  1.1824351E-01; -4.9402524E+03;3;  1.8175823E+01;  0.0000000E+00;  2.5188732E+00;0; -8.6772516E-02;  2.9043316E+04;  0.0000000E+00; -4.9577227E-01;  4.0000000E+04;  0.0000000E+00;  3.8871770E+04; -5.1611036E-02;  0.0000000E+00; -3.5161477E-02;  4.6734746E+03;
  1.5618910E+00;  9.9999998E-03; -5.0615724E-02;9605;  1.0647231E+00;  0.0000000E+00;  4.2994618E-03;  9.9385986E+02;  1.1823392E-01; -4.7168706E+03;3;  1.7646706E+01;  0.0000000E+00; -3.4196196E+00;0; -1.0539120E-01;  2.9069180E+04;  0.0000000E+00; -6.5418261E-01;  4.0000000E+04;  0.0000000E+00;  3.8865359E+04; -7.9426445E-02;  0.0000000E+00; -2.5964756E-02;  4.1876411E+03;
  1.5618910E+00;  9.9999998E-03;  5.0615799E-02;9615;  1.0647231E+00;  0.0000000E+00; -4.2981105E-03;  9.9385986E+02;  1.1823419E-01; -4.7168706E+03;3;  1.7647678E+01;  0.0000000E+00;  3.4197052E+00;0; -1.0539141E-01;  2.9069174E+04;  0.0000000E+00; -6.5418899E-01;  4.0000000E+04;  0.0000000E+00;  3.8865359E+04; -7.9426773E-02;  0.0000000E+00; -2.5964644E-02;  4.1876421E+03;
  1.5618854E+00;  9.9999998E-03; -1.0091349E-01;9600;  1.0607688E+00;  0.0000000E+00;  5.8143651E-03;  9.9512738E+02;  1.1822301E-01; -3.7431958E+03;3;  2.3035683E+01;  0.0000000E+00; -9.3071365E+00;0; -2.0915897E-01;  2.9178674E+04;  0.0000000E+00;  4.8666205E+00;  4.0000000E+04;  0.0000000E+00;  3.8825875E+04; -2.3969942E-01;  0.0000000E+00;  3.0540453E-02;  5.9451758E+03;
  1.5620333E+00;  9.9999998E-03; -6.0710944E-02;9604;  1.0637325E+00;  0.0000000E+00;  4.9035638E-03;  9.9418628E+02;  1.1822626E-01; -4.4654932E+03;3;  1.7846928E+01;  0.0000000E+00; -4.6821394E+00;0; -1.2590317E-01;  2.9097553E+04;  0.0000000E+00; -6.8262458E-01;  4.0000000E+04;  0.0000000E+00;  3.8856969E+04; -1.1011355E-01;  0.0000000E+00; -1.5789632E-02;  3.5653027E+03;
  1.5620333E+00;  9.9999998E-03;  6.0711019E-02;9616;  1.0637324E+00;  0.0000000E+00; -4.9022208E-03;  9.9418616E+02;  1.1822627E-01; -4.4655845E+03;3;  1.7847589E+01;  0.0000000E+00;  4.6824250E+00;0; -1.2590307E-01;  2.9097555E+04;  0.0000000E+00; -6.8263566E-01;  4.0000000E+04;  0.0000000E+00;  3.8856969E+04; -1.1011359E-01;  0.0000000E+00; -1.5789485E-02;  3.5653098E+03;
  1.5620786E+00;  9.9999998E-03; -9.0881296E-02;9601;  1.0611870E+00;  0.0000000E+00;  5.7993755E-03;  9.9499323E+02;  1.1821894E-01; -3.8455195E+03;3;  2.1323862E+01;  0.0000000E+00; -8.2594233E+00;0; -1.8950278E-01;  2.9168842E+04;  0.0000000E+00;  2.0085933E+00;  4.0000000E+04;  0.0000000E+00;  3.8829715E+04; -2.0768784E-01;  0.0000000E+00;  1.8185060E-02;  3.3502014E+03;
  1.5621277E+00;  9.9999998E-03; -7.0789568E-02;9603;  1.0627517E+00;  0.0000000E+00;  5.3537502E-03;  9.9451129E+02;  1.1822094E-01; -4.2154424E+03;3;  1.8386774E+01;  0.0000000E+00; -6.0379691E+00;0; -1.4733087E-01;  2.9125723E+04;  0.0000000E+00; -4.1925544E-01;  4.0000000E+04;  0.0000000E+00;  3.8847652E+04; -1.4238784E-01;  0.0000000E+00; -4.9430262E-03;  2.8730149E+03;
  1.5621504E+00;  9.9999998E-03; -8.0845505E-02;9602;  1.0618798E+00;  0.0000000E+00;  5.6475541E-03;  9.9478656E+02;  1.1821919E-01; -4.0039500E+03;3;  1.9741943E+01;  0.0000000E+00; -7.2087426E+00;0; -1.6876130E-01;  2.9150439E+04;  0.0000000E+00;  3.7324578E-01;  4.0000000E+04;  0.0000000E+00;  3.8837652E+04; -1.7515405E-01;  0.0000000E+00;  6.3927444E-03;  2.4758845E+03;
  1.5730963E+00;  9.9999998E-03;  3.6966298E-08;9658;  1.0662402E+00;  0.0000000E+00;  6.8384350E-07;  9.9315454E+02;  1.1739407E-01; -5.1959814E+03;3;  1.9025002E+01;  0.0000000E+00; -1.6212463E-05;0;  7.2707236E-04;  2.9524773E+04;  0.0000000E+00; -2.3160645E-11;  4.0000000E+04;  0.0000000E+00;  3.8764066E+04;  6.3898668E-02;  0.0000000E+00; -6.3171595E-02;  3.7658721E+03;
  1.5731378E+00;  9.9999998E-03; -1.0161817E-02;9657;  1.0661117E+00;  0.0000000E+00;  1.0756585E-03;  9.9319806E+02;  1.1739200E-01; -5.1627104E+03;3;  1.9243069E+01;  0.0000000E+00; -3.7466648E-01;0; -2.3795106E-03;  2.9528758E+04;  0.0000000E+00; -5.5328481E-02;  4.0000000E+04;  0.0000000E+00;  3.8763500E+04;  5.9542082E-02;  0.0000000E+00; -6.1921593E-02;  3.7160432E+03;
  1.5731378E+00;  9.9999998E-03;  1.0161892E-02;9659;  1.0661117E+00;  0.0000000E+00; -1.0742915E-03;  9.9319812E+02;  1.1739200E-01; -5.1626650E+03;3;  1.9242916E+01;  0.0000000E+00;  3.7465149E-01;0; -2.3796633E-03;  2.9528752E+04;  0.0000000E+00; -5.5330910E-02;  4.0000000E+04;  0.0000000E+00;  3.8763500E+04;  5.9541941E-02;  0.0000000E+00; -6.1921604E-02;  3.7160415E+03;
  1.5732456E+00;  9.9999998E-03; -2.0311384E-02;9656;  1.0656950E+00;  0.0000000E+00;  2.1404340E-03;  9.9332330E+02;  1.1738764E-01; -5.0669912E+03;3;  1.8460934E+01;  0.0000000E+00; -7.0868719E-01;0; -1.1572864E-02;  2.9540004E+04;  0.0000000E+00; -2.0841649E-01;  4.0000000E+04;  0.0000000E+00;  3.8761227E+04;  4.6709541E-02;  0.0000000E+00; -5.8282405E-02;  3.5627542E+03;
  1.5732456E+00;  9.9999998E-03;  2.0311456E-02;9660;  1.0656950E+00;  0.0000000E+00; -2.1390684E-03;  9.9332324E+02;  1.1738764E-01; -5.0670366E+03;3;  1.8462332E+01;  0.0000000E+00;  7.0881987E-01;0; -1.1573054E-02;  2.9539998E+04;  0.0000000E+00; -2.0842253E-01;  4.0000000E+04;  0.0000000E+00;  3.8761227E+04;  4.6709336E-02;  0.0000000E+00; -5.8282390E-02;  3.5627610E+03;
  1.5734056E+00;  9.9999998E-03; -1.0099542E-01;9648;  1.0578762E+00;  0.0000000E+00;  7.1322732E-03;  9.9471008E+02;  1.1736610E-01; -4.0138303E+03;3;  2.1451691E+01;  0.0000000E+00; -9.0082226E+00;0; -2.0445547E-01;  2.9660162E+04;  0.0000000E+00;  1.0111893E+01;  4.0000000E+04;  0.0000000E+00;  3.8728195E+04; -2.1744584E-01;  0.0000000E+00;  1.2990370E-02;  9.8137354E+03;
  1.5733925E+00;  9.9999998E-03; -3.0444700E-02;9655;  1.0650309E+00;  0.0000000E+00;  3.1606273E-03;  9.9352271E+02;  1.1738132E-01; -4.9148564E+03;3;  1.7558329E+01;  0.0000000E+00; -1.2755280E+00;0; -2.6407095E-02;  2.9557344E+04;  0.0000000E+00; -4.1872454E-01;  4.0000000E+04;  0.0000000E+00;  3.8757348E+04;  2.6161520E-02;  0.0000000E+00; -5.2568614E-02;  3.2969951E+03;
  1.5733925E+00;  9.9999998E-03;  3.0444775E-02;9661;  1.0650308E+00;  0.0000000E+00; -3.1592667E-03;  9.9352258E+02;  1.1738133E-01; -4.9149468E+03;3;  1.7557842E+01;  0.0000000E+00;  1.2755539E+00;0; -2.6407326E-02;  2.9557340E+04;  0.0000000E+00; -4.1873285E-01;  4.0000000E+04;  0.0000000E+00;  3.8757348E+04;  2.6161214E-02;  0.0000000E+00; -5.2568540E-02;  3.2969941E+03;
  1.5735674E+00;  9.9999998E-03; -4.0561847E-02;9654;  1.0641327E+00;  0.0000000E+00;  4.1229599E-03;  9.9375555E+02;  1.1737215E-01; -4.7372061E+03;3;  1.6666185E+01;  0.0000000E+00; -2.0730436E+00;0; -4.6051960E-02;  2.9579162E+04;  0.0000000E+00; -6.1230469E-01;  4.0000000E+04;  0.0000000E+00;  3.8751656E+04; -8.0884201E-04;  0.0000000E+00; -4.5243118E-02;  2.9145671E+03;
  1.5735674E+00;  9.9999998E-03;  4.0561922E-02;9662;  1.0641327E+00;  0.0000000E+00; -4.1216011E-03;  9.9375568E+02;  1.1737183E-01; -4.7371157E+03;3;  1.6665459E+01;  0.0000000E+00;  2.0730572E+00;0; -4.6052098E-02;  2.9579166E+04;  0.0000000E+00; -6.1231971E-01;  4.0000000E+04;  0.0000000E+00;  3.8751660E+04; -8.0909493E-04;  0.0000000E+00; -4.5243002E-02;  2.9145715E+03;
  1.5737261E+00;  9.9999998E-03; -9.0928495E-02;9649;  1.0585601E+00;  0.0000000E+00;  7.0280973E-03;  9.9464508E+02;  1.1735700E-01; -4.0616802E+03;3;  1.9335953E+01;  0.0000000E+00; -8.1832428E+00;0; -1.7822967E-01;  2.9663785E+04;  0.0000000E+00;  5.2749968E+00;  4.0000000E+04;  0.0000000E+00;  3.8722512E+04; -1.8032475E-01;  0.0000000E+00;  2.0950781E-03;  5.7261807E+03;
  1.5737435E+00;  9.9999998E-03; -5.0663020E-02;9653;  1.0630614E+00;  0.0000000E+00;  4.9980814E-03;  9.9400922E+02;  1.1736434E-01; -4.5438857E+03;3;  1.6125441E+01;  0.0000000E+00; -3.0775702E+00;0; -6.9478273E-02;  2.9603293E+04;  0.0000000E+00; -6.6906333E-01;  4.0000000E+04;  0.0000000E+00;  3.8744645E+04; -3.2677732E-02;  0.0000000E+00; -3.6800541E-02;  2.4305637E+03;
  1.5737435E+00;  9.9999998E-03;  5.0663095E-02;9663;  1.0630614E+00;  0.0000000E+00; -4.9967011E-03;  9.9400928E+02;  1.1736432E-01; -4.5438403E+03;3;  1.6124372E+01;  0.0000000E+00;  3.0776005E+00;0; -6.9478512E-02;  2.9603291E+04;  0.0000000E+00; -6.6908199E-01;  4.0000000E+04;  0.0000000E+00;  3.8744648E+04; -3.2678120E-02;  0.0000000E+00; -3.6800396E-02;  2.4305659E+03;
  1.5739003E+00;  9.9999998E-03; -8.0875821E-02;9650;  1.0595211E+00;  0.0000000E+00;  6.7678215E-03;  9.9458179E+02;  1.1735443E-01; -4.1088696E+03;3;  1.7819254E+01;  0.0000000E+00; -7.1014271E+00;0; -1.5091093E-01;  2.9659211E+04;  0.0000000E+00;  2.1988339E+00;  4.0000000E+04;  0.0000000E+00;  3.8723805E+04; -1.4270508E-01;  0.0000000E+00; -8.2058460E-03;  3.1126716E+03;
  1.5738798E+00;  9.9999998E-03; -6.0749657E-02;9652;  1.0618726E+00;  0.0000000E+00;  5.7474864E-03;  9.9425488E+02;  1.1735881E-01; -4.3568525E+03;3;  1.6021112E+01;  0.0000000E+00; -4.2926397E+00;0; -9.5548734E-02;  2.9626822E+04;  0.0000000E+00; -4.0488717E-01;  4.0000000E+04;  0.0000000E+00;  3.8736582E+04; -6.7889154E-02;  0.0000000E+00; -2.7659578E-02;  1.9346239E+03;
  1.5738800E+00;  9.9999998E-03;  6.0749732E-02;9664;  1.0618725E+00;  0.0000000E+00; -5.7461262E-03;  9.9425494E+02;  1.1735880E-01; -4.3568071E+03;3;  1.6019556E+01;  0.0000000E+00;  4.2924070E+00;0; -9.5548898E-02;  2.9626814E+04;  0.0000000E+00; -4.0491048E-01;  4.0000000E+04;  0.0000000E+00;  3.8736582E+04; -6.7889489E-02;  0.0000000E+00; -2.7659405E-02;  1.9346323E+03;
  1.5739418E+00;  9.9999998E-03; -7.0820212E-02;9651;  1.0606809E+00;  0.0000000E+00;  6.3461275E-03;  9.9445142E+02;  1.1735485E-01; -4.2075229E+03;3;  1.7105183E+01;  0.0000000E+00; -5.7028499E+00;0; -1.2306510E-01;  2.9646383E+04;  0.0000000E+00;  4.3921170E-01;  4.0000000E+04;  0.0000000E+00;  3.8729234E+04; -1.0496797E-01;  0.0000000E+00; -1.8097121E-02;  1.8905510E+03;
  1.5848083E+00;  9.9999998E-03;  3.7294857E-08;9705;  1.0658277E+00;  0.0000000E+00;  6.9032069E-07;  9.9338184E+02;  1.1665632E-01; -4.9523921E+03;3;  6.7613807E+00;  0.0000000E+00;  2.1047890E-06;0;  4.9961746E-02;  3.0014672E+04;  0.0000000E+00; -1.2985471E-11;  4.0000000E+04;  0.0000000E+00;  3.8633801E+04;  1.1769165E-01;  0.0000000E+00; -6.7729905E-02;  2.1415657E+03;
  1.5845826E+00;  9.9999998E-03; -1.0120644E-01;9695;  1.0551027E+00;  0.0000000E+00;  8.0335494E-03;  9.9429492E+02;  1.1664798E-01; -4.2703721E+03;3;  1.9989359E+01;  0.0000000E+00; -8.6034756E+00;0; -2.0076478E-01;  3.0082059E+04;  0.0000000E+00;  1.8510902E+01;  4.0000000E+04;  0.0000000E+00;  3.8629258E+04; -1.9770034E-01;  0.0000000E+00; -3.0644441E-03;  1.4843626E+04;
  1.5848520E+00;  9.9999998E-03; -1.0192449E-02;9704;  1.0656823E+00;  0.0000000E+00;  1.2505896E-03;  9.9341339E+02;  1.1665556E-01; -4.9285186E+03;3;  6.1289511E+00;  0.0000000E+00; -1.3004510E+00;0;  4.6309225E-02;  3.0018074E+04;  0.0000000E+00; -6.1235055E-02;  4.0000000E+04;  0.0000000E+00;  3.8632715E+04;  1.1284843E-01;  0.0000000E+00; -6.6539206E-02;  2.0890137E+03;
  1.5848520E+00;  9.9999998E-03;  1.0192525E-02;9706;  1.0656823E+00;  0.0000000E+00; -1.2492101E-03;  9.9341351E+02;  1.1665533E-01; -4.9284297E+03;3;  6.1288753E+00;  0.0000000E+00;  1.3004417E+00;0;  4.6309300E-02;  3.0018074E+04;  0.0000000E+00; -6.1242208E-02;  4.0000000E+04;  0.0000000E+00;  3.8632715E+04;  1.1284845E-01;  0.0000000E+00; -6.6539146E-02;  2.0890176E+03;
  1.5849669E+00;  9.9999998E-03; -2.0361900E-02;9703;  1.0652418E+00;  0.0000000E+00;  2.4668963E-03;  9.9350427E+02;  1.1665119E-01; -4.8597812E+03;3;  5.6817093E+00;  0.0000000E+00; -3.2724657E+00;0;  3.5487317E-02;  3.0027623E+04;  0.0000000E+00; -2.1661924E-01;  4.0000000E+04;  0.0000000E+00;  3.8630055E+04;  9.8599657E-02;  0.0000000E+00; -6.3112341E-02;  1.9332980E+03;
  1.5849669E+00;  9.9999998E-03;  2.0361975E-02;9707;  1.0652418E+00;  0.0000000E+00; -2.4655166E-03;  9.9350433E+02;  1.1665095E-01; -4.8597363E+03;3;  5.6814985E+00;  0.0000000E+00;  3.2724524E+00;0;  3.5487175E-02;  3.0027623E+04;  0.0000000E+00; -2.1663316E-01;  4.0000000E+04;  0.0000000E+00;  3.8630055E+04;  9.8599471E-02;  0.0000000E+00; -6.3112296E-02;  1.9332932E+03;
  1.5851207E+00;  9.9999998E-03; -3.0509399E-02;9702;  1.0644717E+00;  0.0000000E+00;  3.6525584E-03;  9.9363434E+02;  1.1664452E-01; -4.7615283E+03;3;  5.6322083E+00;  0.0000000E+00; -4.3466287E+00;0;  1.7957564E-02;  3.0042080E+04;  0.0000000E+00; -3.8364679E-01;  4.0000000E+04;  0.0000000E+00;  3.8625797E+04;  7.5794645E-02;  0.0000000E+00; -5.7837080E-02;  1.6786935E+03;
  1.5851207E+00;  9.9999998E-03;  3.0509474E-02;9708;  1.0644717E+00;  0.0000000E+00; -3.6511826E-03;  9.9363434E+02;  1.1664452E-01; -4.7615283E+03;3;  5.6317534E+00;  0.0000000E+00;  4.3466587E+00;0;  1.7957307E-02;  3.0042082E+04;  0.0000000E+00; -3.8367042E-01;  4.0000000E+04;  0.0000000E+00;  3.8625797E+04;  7.5794324E-02;  0.0000000E+00; -5.7837017E-02;  1.6786891E+03;
  1.5850282E+00;  9.9999998E-03; -9.1077819E-02;9696;  1.0561025E+00;  0.0000000E+00;  7.9413662E-03;  9.9414404E+02;  1.1663640E-01; -4.3808125E+03;3;  1.7460699E+01;  0.0000000E+00; -7.9022050E+00;0; -1.6771699E-01;  3.0089932E+04;  0.0000000E+00;  1.1101662E+01;  4.0000000E+04;  0.0000000E+00;  3.8614344E+04; -1.5560474E-01;  0.0000000E+00; -1.2112256E-02;  9.4188428E+03;
  1.5852892E+00;  9.9999998E-03; -4.0633842E-02;9701;  1.0633649E+00;  0.0000000E+00;  4.7493051E-03;  9.9378394E+02;  1.1663814E-01; -4.6486040E+03;3;  6.6907759E+00;  0.0000000E+00; -5.9836931E+00;0; -5.4506138E-03;  3.0058758E+04;  0.0000000E+00; -4.2098701E-01;  4.0000000E+04;  0.0000000E+00;  3.8620078E+04;  4.5805521E-02;  0.0000000E+00; -5.1256135E-02;  1.3552305E+03;
  1.5852892E+00;  9.9999998E-03;  4.0633917E-02;9709;  1.0633649E+00;  0.0000000E+00; -4.7479309E-03;  9.9378394E+02;  1.1663814E-01; -4.6486040E+03;3;  6.6900373E+00;  0.0000000E+00;  5.9837074E+00;0; -5.4508522E-03;  3.0058748E+04;  0.0000000E+00; -4.2101780E-01;  4.0000000E+04;  0.0000000E+00;  3.8620078E+04;  4.5805205E-02;  0.0000000E+00; -5.1256057E-02;  1.3552313E+03;
  1.5854365E+00;  9.9999998E-03; -5.0737597E-02;9700;  1.0619913E+00;  0.0000000E+00;  5.7199132E-03;  9.9392419E+02;  1.1663257E-01; -4.5428496E+03;3;  8.8618364E+00;  0.0000000E+00; -6.1786585E+00;0; -3.3639811E-02;  3.0074781E+04;  0.0000000E+00; -1.2089473E-01;  4.0000000E+04;  0.0000000E+00;  3.8613996E+04;  1.0278884E-02;  0.0000000E+00; -4.3918695E-02;  1.1295701E+03;
  1.5854365E+00;  9.9999998E-03;  5.0737672E-02;9710;  1.0619912E+00;  0.0000000E+00; -5.7185241E-03;  9.9392426E+02;  1.1663262E-01; -4.5428047E+03;3;  8.8625479E+00;  0.0000000E+00;  6.1787963E+00;0; -3.3640176E-02;  3.0074779E+04;  0.0000000E+00; -1.2091931E-01;  4.0000000E+04;  0.0000000E+00;  3.8613992E+04;  1.0278436E-02;  0.0000000E+00; -4.3918613E-02;  1.1295663E+03;
  1.5853363E+00;  9.9999998E-03; -8.0984019E-02;9697;  1.0573846E+00;  0.0000000E+00;  7.6469309E-03;  9.9408929E+02;  1.1662955E-01; -4.4199771E+03;3;  1.5358637E+01;  0.0000000E+00; -7.0759330E+00;0; -1.3357136E-01;  3.0094799E+04;  0.0000000E+00;  5.9686604E+00;  4.0000000E+04;  0.0000000E+00;  3.8606723E+04; -1.1309907E-01;  0.0000000E+00; -2.0472290E-02;  5.5747085E+03;
  1.5855188E+00;  9.9999998E-03; -6.0825907E-02;9699;  1.0604664E+00;  0.0000000E+00;  6.5310700E-03;  9.9401251E+02;  1.1662848E-01; -4.4763223E+03;3;  1.1835081E+01;  0.0000000E+00; -6.1332612E+00;0; -6.5319188E-02;  3.0087389E+04;  0.0000000E+00;  7.9605931E-01;  4.0000000E+04;  0.0000000E+00;  3.8608406E+04; -2.9069209E-02;  0.0000000E+00; -3.6249980E-02;  1.5702631E+03;
  1.5855188E+00;  9.9999998E-03;  6.0825985E-02;9711;  1.0604663E+00;  0.0000000E+00; -6.5296828E-03;  9.9401251E+02;  1.1662815E-01; -4.4763223E+03;3;  1.1835539E+01;  0.0000000E+00;  6.1335001E+00;0; -6.5319538E-02;  3.0087387E+04;  0.0000000E+00;  7.9602432E-01;  4.0000000E+04;  0.0000000E+00;  3.8608406E+04; -2.9069692E-02;  0.0000000E+00; -3.6249850E-02;  1.5702517E+03;
  1.5854957E+00;  9.9999998E-03; -7.0904985E-02;9698;  1.0588642E+00;  0.0000000E+00;  7.1747880E-03;  9.9406061E+02;  1.1662697E-01; -4.4404951E+03;3;  1.3688957E+01;  0.0000000E+00; -6.4115672E+00;0; -9.9087298E-02;  3.0094312E+04;  0.0000000E+00;  2.6851161E+00;  4.0000000E+04;  0.0000000E+00;  3.8605273E+04; -7.0639968E-02;  0.0000000E+00; -2.8447328E-02;  3.0344309E+03;
  1.5955442E+00;  9.9999998E-03; -1.0157076E-01;9741;  1.0523710E+00;  0.0000000E+00;  8.4705707E-03;  9.9408746E+02;  1.1604633E-01; -4.3599268E+03;3;  1.8778862E+01;  0.0000000E+00; -7.9513168E+00;0; -2.0003054E-01;  3.0470791E+04;  0.0000000E+00;  2.9753925E+01;  4.0000000E+04;  0.0000000E+00;  3.8520926E+04; -1.8188486E-01;  0.0000000E+00; -1.8145680E-02;  2.0185271E+04;
  1.5960118E+00;  9.9999998E-03; -9.1344871E-02;9742;  1.0537076E+00;  0.0000000E+00;  8.4161479E-03;  9.9383185E+02;  1.1603311E-01; -4.5453228E+03;3;  1.5791416E+01;  0.0000000E+00; -7.3661752E+00;0; -1.6017500E-01;  3.0476682E+04;  0.0000000E+00;  1.9905296E+01;  4.0000000E+04;  0.0000000E+00;  3.8502059E+04; -1.3525511E-01;  0.0000000E+00; -2.4919890E-02;  1.3877345E+04;
  1.5965023E+00;  9.9999998E-03;  3.7706148E-08;9751;  1.0755044E+00;  0.0000000E+00;  6.9906616E-07;  9.9342847E+02;  1.1603346E-01; -4.8391460E+03;3; -7.7506096E+01;  0.0000000E+00; -1.9744039E-06;0;  1.0245193E-01;  3.0453891E+04;  0.0000000E+00; -6.1524470E-12;  4.0000000E+04;  0.0000000E+00;  3.8492793E+04;  1.7000490E-01;  0.0000000E+00; -6.7552976E-02;  7.8507306E+02;
  1.5965347E+00;  9.9999998E-03; -1.0209190E-02;9750;  1.0746610E+00;  0.0000000E+00;  2.5405099E-03;  9.9344080E+02;  1.1603263E-01; -4.8298325E+03;3; -7.5982162E+01;  0.0000000E+00; -5.7264132E+00;0;  9.7968228E-02;  3.0455807E+04;  0.0000000E+00; -3.0825732E-02;  4.0000000E+04;  0.0000000E+00;  3.8491809E+04;  1.6449016E-01;  0.0000000E+00; -6.6521935E-02;  7.4142352E+02;
  1.5965347E+00;  9.9999998E-03;  1.0209265E-02;9752;  1.0746610E+00;  0.0000000E+00; -2.5391036E-03;  9.9344080E+02;  1.1603263E-01; -4.8298325E+03;3; -7.5981834E+01;  0.0000000E+00;  5.7264509E+00;0;  9.7968094E-02;  3.0455807E+04;  0.0000000E+00; -3.0838657E-02;  4.0000000E+04;  0.0000000E+00;  3.8491809E+04;  1.6449006E-01;  0.0000000E+00; -6.6521965E-02;  7.4142120E+02;
  1.5964226E+00;  9.9999998E-03; -8.1176594E-02;9743;  1.0553576E+00;  0.0000000E+00;  8.1484886E-03;  9.9363275E+02;  1.1602733E-01; -4.6892734E+03;3;  1.3108594E+01;  0.0000000E+00; -6.7192917E+00;0; -1.1924691E-01;  3.0479307E+04;  0.0000000E+00;  1.2333870E+01;  4.0000000E+04;  0.0000000E+00;  3.8487172E+04; -8.8350192E-02;  0.0000000E+00; -3.0896727E-02;  8.9864336E+03;
  1.5966246E+00;  9.9999998E-03; -2.0393465E-02;9749;  1.0726088E+00;  0.0000000E+00;  4.6956609E-03;  9.9346338E+02;  1.1602934E-01; -4.8125679E+03;3; -6.8763695E+01;  0.0000000E+00; -1.3236162E+01;0;  8.4869675E-02;  3.0460996E+04;  0.0000000E+00; -7.4451111E-02;  4.0000000E+04;  0.0000000E+00;  3.8488902E+04;  1.4846246E-01;  0.0000000E+00; -6.3592784E-02;  6.2529926E+02;
  1.5966246E+00;  9.9999998E-03;  2.0393541E-02;9753;  1.0726088E+00;  0.0000000E+00; -4.6942686E-03;  9.9346338E+02;  1.1602934E-01; -4.8125679E+03;3; -6.8763756E+01;  0.0000000E+00;  1.3236104E+01;0;  8.4869444E-02;  3.0460996E+04;  0.0000000E+00; -7.4476801E-02;  4.0000000E+04;  0.0000000E+00;  3.8488902E+04;  1.4846224E-01;  0.0000000E+00; -6.3592792E-02;  6.2528827E+02;
  1.5967449E+00;  9.9999998E-03; -3.0555699E-02;9748;  1.0696338E+00;  0.0000000E+00;  6.1504659E-03;  9.9349786E+02;  1.1602644E-01; -4.7863633E+03;3; -5.5110355E+01;  0.0000000E+00; -1.9556791E+01;0;  6.3604474E-02;  3.0468008E+04;  0.0000000E+00;  2.9280328E-03;  4.0000000E+04;  0.0000000E+00;  3.8484793E+04;  1.2277862E-01;  0.0000000E+00; -5.9174154E-02;  5.1972455E+02;
  1.5967449E+00;  9.9999998E-03;  3.0555774E-02;9754;  1.0696338E+00;  0.0000000E+00; -6.1490443E-03;  9.9349774E+02;  1.1602670E-01; -4.7864512E+03;3; -5.5110104E+01;  0.0000000E+00;  1.9556870E+01;0;  6.3604116E-02;  3.0468008E+04;  0.0000000E+00;  2.8898648E-03;  4.0000000E+04;  0.0000000E+00;  3.8484793E+04;  1.2277824E-01;  0.0000000E+00; -5.9174124E-02;  5.1971356E+02;
  1.5967185E+00;  9.9999998E-03; -7.1040943E-02;9744;  1.0573032E+00;  0.0000000E+00;  7.7631348E-03;  9.9352679E+02;  1.1602207E-01; -4.7652231E+03;3;  8.8131361E+00;  0.0000000E+00; -7.8714895E+00;0; -7.8051291E-02;  3.0481273E+04;  0.0000000E+00;  7.0008469E+00;  4.0000000E+04;  0.0000000E+00;  3.8478586E+04; -4.1535161E-02;  0.0000000E+00; -3.6516130E-02;  5.4677437E+03;
  1.5968574E+00;  9.9999998E-03; -4.0693294E-02;9747;  1.0660881E+00;  0.0000000E+00;  6.9252183E-03;  9.9351886E+02;  1.1602382E-01; -4.7700918E+03;3; -3.6486454E+01;  0.0000000E+00; -2.1568419E+01;0;  3.5019476E-02;  3.0474939E+04;  0.0000000E+00;  4.1961676E-01;  4.0000000E+04;  0.0000000E+00;  3.8480207E+04;  8.8823050E-02;  0.0000000E+00; -5.3803574E-02;  7.6108850E+02;
  1.5968574E+00;  9.9999998E-03;  4.0693369E-02;9755;  1.0660880E+00;  0.0000000E+00; -6.9237994E-03;  9.9351886E+02;  1.1602382E-01; -4.7700918E+03;3; -3.6485806E+01;  0.0000000E+00;  2.1568394E+01;0;  3.5018887E-02;  3.0474932E+04;  0.0000000E+00;  4.1957003E-01;  4.0000000E+04;  0.0000000E+00;  3.8480211E+04;  8.8822439E-02;  0.0000000E+00; -5.3803552E-02;  7.6106970E+02;
  1.5969180E+00;  9.9999998E-03; -5.0811436E-02;9746;  1.0626645E+00;  0.0000000E+00;  7.2520650E-03;  9.9351740E+02;  1.1602204E-01; -4.7707671E+03;3; -1.6839235E+01;  0.0000000E+00; -1.8656868E+01;0;  7.1694702E-04;  3.0479758E+04;  0.0000000E+00;  1.4742634E+00;  4.0000000E+04;  0.0000000E+00;  3.8476594E+04;  4.8726320E-02;  0.0000000E+00; -4.8009373E-02;  1.5915228E+03;
  1.5969180E+00;  9.9999998E-03;  5.0811511E-02;9756;  1.0626644E+00;  0.0000000E+00; -7.2507020E-03;  9.9351752E+02;  1.1602229E-01; -4.7706787E+03;3; -1.6839842E+01;  0.0000000E+00;  1.8657066E+01;0;  7.1667135E-04;  3.0479770E+04;  0.0000000E+00;  1.4742182E+00;  4.0000000E+04;  0.0000000E+00;  3.8476598E+04;  4.8725974E-02;  0.0000000E+00; -4.8009302E-02;  1.5915017E+03;
  1.5968810E+00;  9.9999998E-03; -6.0923025E-02;9745;  1.0597227E+00;  0.0000000E+00;  7.4478313E-03;  9.9350970E+02;  1.1602060E-01; -4.7766831E+03;3; -1.2390678E-01;  0.0000000E+00; -1.2556225E+01;0; -3.7593864E-02;  3.0481795E+04;  0.0000000E+00;  3.5297728E+00;  4.0000000E+04;  0.0000000E+00;  3.8475289E+04;  4.5882515E-03;  0.0000000E+00; -4.2182114E-02;  3.0908042E+03;
  1.5968810E+00;  9.9999998E-03;  6.0923103E-02;9757;  1.0597225E+00;  0.0000000E+00; -7.4464171E-03;  9.9350970E+02;  1.1602044E-01; -4.7766831E+03;3; -1.2363943E-01;  0.0000000E+00;  1.2556170E+01;0; -3.7594326E-02;  3.0481795E+04;  0.0000000E+00;  3.5297346E+00;  4.0000000E+04;  0.0000000E+00;  3.8475289E+04;  4.5876699E-03;  0.0000000E+00; -4.2181995E-02;  3.0907830E+03;
  1.6065104E+00;  9.9999998E-03; -1.0207635E-01;9785;  1.0496421E+00;  0.0000000E+00;  8.4866155E-03;  9.9374933E+02;  1.1553233E-01; -4.5330752E+03;3;  1.7850492E+01;  0.0000000E+00; -5.7866774E+00;0; -2.0430586E-01;  3.0828074E+04;  0.0000000E+00;  4.0678833E+01;  4.0000000E+04;  0.0000000E+00;  3.8389746E+04; -1.7165868E-01;  0.0000000E+00; -3.2647185E-02;  2.3899619E+04;
  1.6069047E+00;  9.9999998E-03; -9.1747925E-02;9786;  1.0513039E+00;  0.0000000E+00;  8.3329817E-03;  9.9371619E+02;  1.1552550E-01; -4.5542310E+03;3;  1.4510323E+01;  0.0000000E+00; -4.9121265E+00;0; -1.5780787E-01;  3.0840600E+04;  0.0000000E+00;  3.0207884E+01;  4.0000000E+04;  0.0000000E+00;  3.8376301E+04; -1.2120777E-01;  0.0000000E+00; -3.6600105E-02;  1.7878244E+04;
  1.6072946E+00;  9.9999998E-03; -8.1468448E-02;9787;  1.0532985E+00;  0.0000000E+00;  7.9860594E-03;  9.9351123E+02;  1.1552013E-01; -4.6998022E+03;3;  1.1202154E+01;  0.0000000E+00; -3.9234362E+00;0; -1.1038697E-01;  3.0842705E+04;  0.0000000E+00;  2.0999802E+01;  4.0000000E+04;  0.0000000E+00;  3.8361809E+04; -7.0744738E-02;  0.0000000E+00; -3.9642233E-02;  1.2633217E+04;
  1.6076465E+00;  9.9999998E-03; -7.1221009E-02;9788;  1.0557489E+00;  0.0000000E+00;  7.6218508E-03;  9.9327966E+02;  1.1551650E-01; -4.8648057E+03;3;  3.3721542E+00;  0.0000000E+00; -6.9307661E+00;0; -6.2563509E-02;  3.0839617E+04;  0.0000000E+00;  1.3729686E+01;  4.0000000E+04;  0.0000000E+00;  3.8350316E+04; -2.0090491E-02;  0.0000000E+00; -4.2473018E-02;  8.4695029E+03;
  1.6080755E+00;  9.9999998E-03;  3.7980524E-08;9795;  1.0898503E+00;  0.0000000E+00;  7.0151577E-07;  9.9311841E+02;  1.1551317E-01; -4.9780610E+03;3; -1.0060570E+02;  0.0000000E+00; -2.1994114E-05;0;  1.6581440E-01;  3.0830809E+04;  0.0000000E+00; -4.2544089E-12;  4.0000000E+04;  0.0000000E+00;  3.8344656E+04;  2.2849889E-01;  0.0000000E+00; -6.2684491E-02;  4.1393745E+01;
  1.6080922E+00;  9.9999998E-03; -1.0201268E-02;9794;  1.0887612E+00;  0.0000000E+00;  3.2220616E-03;  9.9310510E+02;  1.1551288E-01; -4.9875410E+03;3; -9.9365875E+01;  0.0000000E+00; -3.3260560E+00;0;  1.6064417E-01;  3.0830834E+04;  0.0000000E+00;  6.4766638E-02;  4.0000000E+04;  0.0000000E+00;  3.8343723E+04;  2.2259149E-01;  0.0000000E+00; -6.1947308E-02;  9.2641396E+01;
  1.6080922E+00;  9.9999998E-03;  1.0201344E-02;9796;  1.0887612E+00;  0.0000000E+00; -3.2206578E-03;  9.9310510E+02;  1.1551288E-01; -4.9875410E+03;3; -9.9365952E+01;  0.0000000E+00;  3.3260248E+00;0;  1.6064416E-01;  3.0830842E+04;  0.0000000E+00;  6.4747773E-02;  4.0000000E+04;  0.0000000E+00;  3.8343727E+04;  2.2259142E-01;  0.0000000E+00; -6.1947256E-02;  9.2635063E+01;
  1.6081308E+00;  9.9999998E-03; -2.0382091E-02;9793;  1.0850838E+00;  0.0000000E+00;  6.0799336E-03;  9.9307312E+02;  1.1551202E-01; -5.0103809E+03;3; -9.6794983E+01;  0.0000000E+00; -7.3078012E+00;0;  1.4444125E-01;  3.0831588E+04;  0.0000000E+00;  3.2983378E-01;  4.0000000E+04;  0.0000000E+00;  3.8341664E+04;  2.0433871E-01;  0.0000000E+00; -5.9897467E-02;  3.2501904E+02;
  1.6081308E+00;  9.9999998E-03;  2.0382170E-02;9797;  1.0850838E+00;  0.0000000E+00; -6.0785259E-03;  9.9307318E+02;  1.1551194E-01; -5.0103374E+03;3; -9.6794914E+01;  0.0000000E+00;  7.3077655E+00;0;  1.4444108E-01;  3.0831580E+04;  0.0000000E+00;  3.2979152E-01;  4.0000000E+04;  0.0000000E+00;  3.8341668E+04;  2.0433855E-01;  0.0000000E+00; -5.9897464E-02;  3.2499356E+02;
  1.6079172E+00;  9.9999998E-03; -6.1013728E-02;9789;  1.0594071E+00;  0.0000000E+00;  7.8620501E-03;  9.9309406E+02;  1.1551208E-01; -4.9969775E+03;3; -1.7319983E+01;  0.0000000E+00; -1.8158716E+01;0; -1.4081221E-02;  3.0836156E+04;  0.0000000E+00;  8.3505392E+00;  4.0000000E+04;  0.0000000E+00;  3.8342246E+04;  3.1846292E-02;  0.0000000E+00; -4.5927513E-02;  5.3485654E+03;
  1.6079172E+00;  9.9999998E-03;  6.1013803E-02;9801;  1.0594070E+00;  0.0000000E+00; -7.8605926E-03;  9.9309406E+02;  1.1551208E-01; -4.9969775E+03;3; -1.7318279E+01;  0.0000000E+00;  1.8159092E+01;0; -1.4081892E-02;  3.0836152E+04;  0.0000000E+00;  8.3504725E+00;  4.0000000E+04;  0.0000000E+00;  3.8342250E+04;  3.1845499E-02;  0.0000000E+00; -4.5927390E-02;  5.3485474E+03;
  1.6081669E+00;  9.9999998E-03; -3.0543370E-02;9792;  1.0792513E+00;  0.0000000E+00;  8.1942473E-03;  9.9303101E+02;  1.1551114E-01; -5.0405234E+03;3; -9.1417641E+01;  0.0000000E+00; -1.2272719E+01;0;  1.1737371E-01;  3.0832268E+04;  0.0000000E+00;  9.8287427E-01;  4.0000000E+04;  0.0000000E+00;  3.8339078E+04;  1.7430916E-01;  0.0000000E+00; -5.6935452E-02;  8.1572449E+02;
  1.6081669E+00;  9.9999998E-03;  3.0543447E-02;9798;  1.0792512E+00;  0.0000000E+00; -8.1928214E-03;  9.9303094E+02;  1.1551114E-01; -5.0405669E+03;3; -9.1417717E+01;  0.0000000E+00;  1.2272675E+01;0;  1.1737297E-01;  3.0832275E+04;  0.0000000E+00;  9.8282653E-01;  4.0000000E+04;  0.0000000E+00;  3.8339078E+04;  1.7430839E-01;  0.0000000E+00; -5.6935422E-02;  8.1570410E+02;
  1.6081654E+00;  9.9999998E-03; -4.0692344E-02;9791;  1.0719905E+00;  0.0000000E+00;  9.1356076E-03;  9.9299658E+02;  1.1551061E-01; -5.0654536E+03;3; -7.5918541E+01;  0.0000000E+00; -2.0377884E+01;0;  7.9688653E-02;  3.0832818E+04;  0.0000000E+00;  2.3051693E+00;  4.0000000E+04;  0.0000000E+00;  3.8337383E+04;  1.3319968E-01;  0.0000000E+00; -5.3511027E-02;  1.6974420E+03;
  1.6081654E+00;  9.9999998E-03;  4.0692419E-02;9799;  1.0719904E+00;  0.0000000E+00; -9.1341697E-03;  9.9299658E+02;  1.1551061E-01; -5.0654536E+03;3; -7.5918282E+01;  0.0000000E+00;  2.0377813E+01;0;  7.9688117E-02;  3.0832828E+04;  0.0000000E+00;  2.3051147E+00;  4.0000000E+04;  0.0000000E+00;  3.8337383E+04;  1.3319908E-01;  0.0000000E+00; -5.3510964E-02;  1.6974147E+03;
  1.6080899E+00;  9.9999998E-03; -5.0843298E-02;9790;  1.0649220E+00;  0.0000000E+00;  8.7562185E-03;  9.9300476E+02;  1.1551046E-01; -5.0601675E+03;3; -4.9023365E+01;  0.0000000E+00; -2.4336590E+01;0;  3.4475762E-02;  3.0833883E+04;  0.0000000E+00;  4.6412416E+00;  4.0000000E+04;  0.0000000E+00;  3.8338188E+04;  8.4264822E-02;  0.0000000E+00; -4.9789060E-02;  3.1454102E+03;
  1.6080899E+00;  9.9999998E-03;  5.0843377E-02;9800;  1.0649220E+00;  0.0000000E+00; -8.7548345E-03;  9.9300482E+02;  1.1551049E-01; -5.0601245E+03;3; -4.9023811E+01;  0.0000000E+00;  2.4336521E+01;0;  3.4475431E-02;  3.0833877E+04;  0.0000000E+00;  4.6411548E+00;  4.0000000E+04;  0.0000000E+00;  3.8338195E+04;  8.4264405E-02;  0.0000000E+00; -4.9788974E-02;  3.1453740E+03;
  1.6178710E+00;  9.9999998E-03; -9.2232563E-02;9828;  1.0488642E+00;  0.0000000E+00;  7.7151586E-03;  9.9340967E+02;  1.1509707E-01; -4.6889507E+03;3;  1.3042917E+01;  0.0000000E+00; -1.3817337E+00;0; -1.6315573E-01;  3.1170719E+04;  0.0000000E+00;  3.7885548E+01;  4.0000000E+04;  0.0000000E+00;  3.8230730E+04; -1.1597702E-01;  0.0000000E+00; -4.7178712E-02;  1.9551162E+04;
  1.6181968E+00;  9.9999998E-03; -8.1870154E-02;9829;  1.0512263E+00;  0.0000000E+00;  7.1511138E-03;  9.9342377E+02;  1.1509193E-01; -4.6762505E+03;3;  9.0551271E+00;  0.0000000E+00;  6.2448186E-01;0; -1.0965623E-01;  3.1181484E+04;  0.0000000E+00;  2.9188763E+01;  4.0000000E+04;  0.0000000E+00;  3.8222477E+04; -6.2957056E-02;  0.0000000E+00; -4.6699170E-02;  1.5043778E+04;
  1.6185110E+00;  9.9999998E-03; -7.1507029E-02;9830;  1.0541899E+00;  0.0000000E+00;  6.5554478E-03;  9.9331860E+02;  1.1508983E-01; -4.7483730E+03;3; -2.4635665E+00;  0.0000000E+00; -2.4409976E+00;0; -5.5227455E-02;  3.1181629E+04;  0.0000000E+00;  2.1449793E+01;  4.0000000E+04;  0.0000000E+00;  3.8215324E+04; -9.1654593E-03;  0.0000000E+00; -4.6061996E-02;  1.1064572E+04;
  1.6187861E+00;  9.9999998E-03; -6.1183289E-02;9831;  1.0593520E+00;  0.0000000E+00;  7.2210357E-03;  9.9310785E+02;  1.1508573E-01; -4.8957676E+03;3; -3.7976608E+01;  0.0000000E+00; -1.9241150E+01;0;  4.6164505E-03;  3.1177326E+04;  0.0000000E+00;  1.4817188E+01;  4.0000000E+04;  0.0000000E+00;  3.8207980E+04;  5.1907897E-02;  0.0000000E+00; -4.7291446E-02;  7.6841064E+03;
  1.6187860E+00;  9.9999998E-03;  6.1183359E-02;9843;  1.0593519E+00;  0.0000000E+00; -7.2195861E-03;  9.9310779E+02;  1.1508577E-01; -4.8958101E+03;3; -3.7976479E+01;  0.0000000E+00;  1.9240984E+01;0;  4.6157092E-03;  3.1177326E+04;  0.0000000E+00;  1.4817209E+01;  4.0000000E+04;  0.0000000E+00;  3.8207980E+04;  5.1907137E-02;  0.0000000E+00; -4.7291428E-02;  7.6841069E+03;
  1.6190083E+00;  9.9999998E-03; -5.0912898E-02;9832;  1.0679169E+00;  0.0000000E+00;  8.9532789E-03;  9.9291577E+02;  1.1508491E-01; -5.0302393E+03;3; -7.6262985E+01;  0.0000000E+00; -2.0188183E+01;0;  7.0124857E-02;  3.1171123E+04;  0.0000000E+00;  9.4746666E+00;  4.0000000E+04;  0.0000000E+00;  3.8201059E+04;  1.1915057E-01;  0.0000000E+00; -4.9025714E-02;  4.9710122E+03;
  1.6190083E+00;  9.9999998E-03;  5.0912973E-02;9842;  1.0679169E+00;  0.0000000E+00; -8.9518856E-03;  9.9291577E+02;  1.1508491E-01; -5.0302393E+03;3; -7.6263252E+01;  0.0000000E+00;  2.0188166E+01;0;  7.0124507E-02;  3.1171117E+04;  0.0000000E+00;  9.4745893E+00;  4.0000000E+04;  0.0000000E+00;  3.8201062E+04;  1.1915021E-01;  0.0000000E+00; -4.9025696E-02;  4.9709941E+03;
  1.6191669E+00;  9.9999998E-03; -4.0690556E-02;9833;  1.0780841E+00;  0.0000000E+00;  9.4302185E-03;  9.9277490E+02;  1.1508440E-01; -5.1287993E+03;3; -9.6518265E+01;  0.0000000E+00; -1.2186037E+01;0;  1.3130225E-01;  3.1166062E+04;  0.0000000E+00;  5.5064168E+00;  4.0000000E+04;  0.0000000E+00;  3.8196332E+04;  1.8142961E-01;  0.0000000E+00; -5.0127354E-02;  2.9470928E+03;
  1.6191669E+00;  9.9999998E-03;  4.0690634E-02;9841;  1.0780840E+00;  0.0000000E+00; -9.4287880E-03;  9.9277490E+02;  1.1508440E-01; -5.1287993E+03;3; -9.6518105E+01;  0.0000000E+00;  1.2186142E+01;0;  1.3130149E-01;  3.1166072E+04;  0.0000000E+00;  5.5063558E+00;  4.0000000E+04;  0.0000000E+00;  3.8196328E+04;  1.8142900E-01;  0.0000000E+00; -5.0127499E-02;  2.9470676E+03;
  1.6193366E+00;  9.9999998E-03;  3.8330938E-08;9837;  1.0991186E+00;  0.0000000E+00;  7.0533230E-07;  9.9266595E+02;  1.1508337E-01; -5.2045669E+03;3; -1.1241634E+02;  0.0000000E+00; -2.3841858E-06;0;  2.3836726E-01;  3.1160078E+04;  0.0000000E+00; -4.9902391E-12;  4.0000000E+04;  0.0000000E+00;  3.8193277E+04;  2.9195580E-01;  0.0000000E+00; -5.3588547E-02;  3.6019409E+02;
  1.6193326E+00;  9.9999998E-03; -1.0180333E-02;9836;  1.0978254E+00;  0.0000000E+00;  3.1806498E-03;  9.9266357E+02;  1.1508403E-01; -5.2062964E+03;3; -1.1095748E+02;  0.0000000E+00; -2.1013834E+00;0;  2.3207767E-01;  3.1160154E+04;  0.0000000E+00;  2.5539455E-01;  4.0000000E+04;  0.0000000E+00;  3.8192828E+04;  2.8531769E-01;  0.0000000E+00; -5.3240016E-02;  3.9113235E+02;
  1.6193326E+00;  9.9999998E-03;  1.0180412E-02;9838;  1.0978254E+00;  0.0000000E+00; -3.1792445E-03;  9.9266357E+02;  1.1508403E-01; -5.2062964E+03;3; -1.1095773E+02;  0.0000000E+00;  2.1013718E+00;0;  2.3207773E-01;  3.1160143E+04;  0.0000000E+00;  2.5536835E-01;  4.0000000E+04;  0.0000000E+00;  3.8192824E+04;  2.8531769E-01;  0.0000000E+00; -5.3239960E-02;  3.9110056E+02;
  1.6193140E+00;  9.9999998E-03; -2.0345164E-02;9835;  1.0938292E+00;  0.0000000E+00;  6.1093662E-03;  9.9266632E+02;  1.1508406E-01; -5.2045234E+03;3; -1.0863424E+02;  0.0000000E+00; -4.6344972E+00;0;  2.1271697E-01;  3.1160629E+04;  0.0000000E+00;  1.1147945E+00;  4.0000000E+04;  0.0000000E+00;  3.8192941E+04;  2.6506299E-01;  0.0000000E+00; -5.2346025E-02;  7.1848987E+02;
  1.6193140E+00;  9.9999998E-03;  2.0345243E-02;9839;  1.0938290E+00;  0.0000000E+00; -6.1079492E-03;  9.9266626E+02;  1.1508406E-01; -5.2045659E+03;3; -1.0863422E+02;  0.0000000E+00;  4.6344953E+00;0;  2.1271680E-01;  3.1160633E+04;  0.0000000E+00;  1.1147468E+00;  4.0000000E+04;  0.0000000E+00;  3.8192945E+04;  2.6506278E-01;  0.0000000E+00; -5.2345976E-02;  7.1847382E+02;
  1.6192646E+00;  9.9999998E-03; -3.0506447E-02;9834;  1.0871565E+00;  0.0000000E+00;  8.2929833E-03;  9.9269690E+02;  1.1508425E-01; -5.1832808E+03;3; -1.0382340E+02;  0.0000000E+00; -7.6500545E+00;0;  1.7934594E-01;  3.1162529E+04;  0.0000000E+00;  2.7896378E+00;  4.0000000E+04;  0.0000000E+00;  3.8193922E+04;  2.3054785E-01;  0.0000000E+00; -5.1201902E-02;  1.5540685E+03;
  1.6192646E+00;  9.9999998E-03;  3.0506523E-02;9840;  1.0871564E+00;  0.0000000E+00; -8.2915546E-03;  9.9269690E+02;  1.1508425E-01; -5.1832808E+03;3; -1.0382318E+02;  0.0000000E+00;  7.6500649E+00;0;  1.7934504E-01;  3.1162527E+04;  0.0000000E+00;  2.7895777E+00;  4.0000000E+04;  0.0000000E+00;  3.8193926E+04;  2.3054703E-01;  0.0000000E+00; -5.1201984E-02;  1.5540464E+03;
  1.6288710E+00;  9.9999998E-03; -9.2699669E-02;9867;  1.0463914E+00;  0.0000000E+00;  6.4026350E-03;  9.9306635E+02;  1.1473756E-01; -4.8342139E+03;3;  1.1102142E+01;  0.0000000E+00;  3.8517876E+00;0; -1.7832458E-01;  3.1477059E+04;  0.0000000E+00;  3.8584328E+01;  4.0000000E+04;  0.0000000E+00;  3.8071836E+04; -1.2279113E-01;  0.0000000E+00; -5.5533443E-02;  1.7762617E+04;
  1.6291627E+00;  9.9999998E-03; -8.2307778E-02;9868;  1.0491474E+00;  0.0000000E+00;  5.5089891E-03;  9.9321240E+02;  1.1473403E-01; -4.7297441E+03;3;  6.1479411E+00;  0.0000000E+00;  7.1593089E+00;0; -1.1956759E-01;  3.1490016E+04;  0.0000000E+00;  3.2603767E+01;  4.0000000E+04;  0.0000000E+00;  3.8069285E+04; -6.8426333E-02;  0.0000000E+00; -5.1141255E-02;  1.4800630E+04;
  1.6294343E+00;  9.9999998E-03; -7.1889676E-02;9869;  1.0526886E+00;  0.0000000E+00;  4.5516896E-03;  9.9328644E+02;  1.1473166E-01; -4.6757109E+03;3; -8.7563086E+00;  0.0000000E+00;  5.3261886E+00;0; -5.8334880E-02;  3.1497084E+04;  0.0000000E+00;  2.6420334E+01;  4.0000000E+04;  0.0000000E+00;  3.8068207E+04; -1.1753045E-02;  0.0000000E+00; -4.6581835E-02;  1.1825095E+04;
  1.6296787E+00;  9.9999998E-03; -6.1480675E-02;9870;  1.0593687E+00;  0.0000000E+00;  5.2239806E-03;  9.9324744E+02;  1.1472961E-01; -4.7006406E+03;3; -5.8891464E+01;  0.0000000E+00; -1.5404864E+01;0;  1.8124085E-02;  3.1498020E+04;  0.0000000E+00;  2.0241222E+01;  4.0000000E+04;  0.0000000E+00;  3.8065625E+04;  6.3509353E-02;  0.0000000E+00; -4.5385268E-02;  8.9487402E+03;
  1.6296787E+00;  9.9999998E-03;  6.1480757E-02;9882;  1.0593685E+00;  0.0000000E+00; -5.2224863E-03;  9.9324738E+02;  1.1472962E-01; -4.7006816E+03;3; -5.8891747E+01;  0.0000000E+00;  1.5404273E+01;0;  1.8123303E-02;  3.1498002E+04;  0.0000000E+00;  2.0241077E+01;  4.0000000E+04;  0.0000000E+00;  3.8065621E+04;  6.3508570E-02;  0.0000000E+00; -4.5385268E-02;  8.9487080E+03;
  1.6298869E+00;  9.9999998E-03; -5.1107977E-02;9871;  1.0709611E+00;  0.0000000E+00;  7.5679505E-03;  9.9312964E+02;  1.1472795E-01; -4.7807456E+03;3; -9.4216911E+01;  0.0000000E+00; -1.1922297E+01;0;  1.0987389E-01;  3.1495502E+04;  0.0000000E+00;  1.4418003E+01;  4.0000000E+04;  0.0000000E+00;  3.8060996E+04;  1.5490511E-01;  0.0000000E+00; -4.5031220E-02;  6.3144434E+03;
  1.6298869E+00;  9.9999998E-03;  5.1108047E-02;9881;  1.0709610E+00;  0.0000000E+00; -7.5665172E-03;  9.9312964E+02;  1.1472795E-01; -4.7807456E+03;3; -9.4216942E+01;  0.0000000E+00;  1.1922518E+01;0;  1.0987309E-01;  3.1495500E+04;  0.0000000E+00;  1.4417970E+01;  4.0000000E+04;  0.0000000E+00;  3.8060996E+04;  1.5490441E-01;  0.0000000E+00; -4.5031317E-02;  6.3144287E+03;
  1.6300527E+00;  9.9999998E-03; -4.0780731E-02;9872;  1.0830204E+00;  0.0000000E+00;  8.2507627E-03;  9.9299146E+02;  1.1472645E-01; -4.8753213E+03;3; -1.0555212E+02;  0.0000000E+00; -6.8850207E+00;0;  1.9021298E-01;  3.1491432E+04;  0.0000000E+00;  9.3649549E+00;  4.0000000E+04;  0.0000000E+00;  3.8055938E+04;  2.3374985E-01;  0.0000000E+00; -4.3536875E-02;  4.0733682E+03;
  1.6300527E+00;  9.9999998E-03;  4.0780809E-02;9880;  1.0830203E+00;  0.0000000E+00; -8.2493154E-03;  9.9299146E+02;  1.1472645E-01; -4.8753208E+03;3; -1.0555223E+02;  0.0000000E+00;  6.8850231E+00;0;  1.9021219E-01;  3.1491420E+04;  0.0000000E+00;  9.3648586E+00;  4.0000000E+04;  0.0000000E+00;  3.8055938E+04;  2.3374911E-01;  0.0000000E+00; -4.3536913E-02;  4.0733391E+03;
  1.6301748E+00;  9.9999998E-03; -3.0518932E-02;9873;  1.0928640E+00;  0.0000000E+00;  7.4551101E-03;  9.9284937E+02;  1.1472623E-01; -4.9729893E+03;3; -1.1204413E+02;  0.0000000E+00; -4.3800673E+00;0;  2.5067890E-01;  3.1486986E+04;  0.0000000E+00;  5.2668543E+00;  4.0000000E+04;  0.0000000E+00;  3.8050344E+04;  2.9288498E-01;  0.0000000E+00; -4.2206075E-02;  2.2946265E+03;
  1.6301749E+00;  9.9999998E-03;  3.0519018E-02;9879;  1.0928640E+00;  0.0000000E+00; -7.4536987E-03;  9.9284943E+02;  1.1472616E-01; -4.9729478E+03;3; -1.1204464E+02;  0.0000000E+00;  4.3800893E+00;0;  2.5067914E-01;  3.1486973E+04;  0.0000000E+00;  5.2667375E+00;  4.0000000E+04;  0.0000000E+00;  3.8050340E+04;  2.9288521E-01;  0.0000000E+00; -4.2206075E-02;  2.2945754E+03;
  1.6303159E+00;  9.9999998E-03;  3.8194660E-08;9876;  1.1049666E+00;  0.0000000E+00;  6.9863609E-07;  9.9263379E+02;  1.1472589E-01; -5.1215205E+03;3; -1.2035192E+02;  0.0000000E+00;  3.9279461E-05;0;  3.2067668E-01;  3.1480070E+04;  0.0000000E+00;  6.6204941E-13;  4.0000000E+04;  0.0000000E+00;  3.8041930E+04;  3.6157399E-01;  0.0000000E+00; -4.0897325E-02;  4.7168573E+02;
  1.6302563E+00;  9.9999998E-03; -2.0322274E-02;9874;  1.0998163E+00;  0.0000000E+00;  5.5252705E-03;  9.9272577E+02;  1.1472552E-01; -5.0581206E+03;3; -1.1671545E+02;  0.0000000E+00; -2.6050520E+00;0;  2.9131407E-01;  3.1483322E+04;  0.0000000E+00;  2.2968814E+00;  4.0000000E+04;  0.0000000E+00;  3.8045555E+04;  3.3267781E-01;  0.0000000E+00; -4.1363753E-02;  1.0622036E+03;
  1.6303020E+00;  9.9999998E-03; -1.0162064E-02;9875;  1.1037225E+00;  0.0000000E+00;  2.9061965E-03;  9.9265448E+02;  1.1472585E-01; -5.1072383E+03;3; -1.1899866E+02;  0.0000000E+00; -1.0970867E+00;0;  3.1358483E-01;  3.1480711E+04;  0.0000000E+00;  5.5498642E-01;  4.0000000E+04;  0.0000000E+00;  3.8042926E+04;  3.5457247E-01;  0.0000000E+00; -4.0987648E-02;  5.0917877E+02;
  1.6303020E+00;  9.9999998E-03;  1.0162140E-02;9877;  1.1037225E+00;  0.0000000E+00; -2.9047960E-03;  9.9265448E+02;  1.1472617E-01; -5.1072383E+03;3; -1.1899889E+02;  0.0000000E+00;  1.0970076E+00;0;  3.1358472E-01;  3.1480707E+04;  0.0000000E+00;  5.5495769E-01;  4.0000000E+04;  0.0000000E+00;  3.8042926E+04;  3.5457236E-01;  0.0000000E+00; -4.0987652E-02;  5.0917380E+02;
  1.6302564E+00;  9.9999998E-03;  2.0322355E-02;9878;  1.0998163E+00;  0.0000000E+00; -5.5238591E-03;  9.9272583E+02;  1.1472551E-01; -5.0580786E+03;3; -1.1671576E+02;  0.0000000E+00;  2.6050382E+00;0;  2.9131377E-01;  3.1483311E+04;  0.0000000E+00;  2.2968116E+00;  4.0000000E+04;  0.0000000E+00;  3.8045551E+04;  3.3267757E-01;  0.0000000E+00; -4.1363817E-02;  1.0621609E+03;
  1.6398710E+00;  9.9999998E-03; -9.3075499E-02;9903;  1.0440005E+00;  0.0000000E+00;  4.3224427E-03;  9.9311890E+02;  1.1443791E-01; -4.6933301E+03;3;  8.4163828E+00;  0.0000000E+00;  1.0322381E+01;0; -2.0353684E-01;  3.1777086E+04;  0.0000000E+00;  3.0533873E+01;  4.0000000E+04;  0.0000000E+00;  3.7914621E+04; -1.4366227E-01;  0.0000000E+00; -5.9874568E-02;  1.2892399E+04;
  1.6401410E+00;  9.9999998E-03; -8.2691289E-02;9904;  1.0471401E+00;  0.0000000E+00;  2.9932742E-03;  9.9318909E+02;  1.1443458E-01; -4.6428384E+03;3;  2.1681604E+00;  0.0000000E+00;  1.5269375E+01;0; -1.4097407E-01;  3.1784678E+04;  0.0000000E+00;  2.8498289E+01;  4.0000000E+04;  0.0000000E+00;  3.7912969E+04; -8.9637458E-02;  0.0000000E+00; -5.1336613E-02;  1.1697690E+04;
  1.6403886E+00;  9.9999998E-03; -7.2273873E-02;9905;  1.0512162E+00;  0.0000000E+00;  1.5229877E-03;  9.9328607E+02;  1.1443218E-01; -4.5743784E+03;3; -1.4749141E+01;  0.0000000E+00;  1.5279343E+01;0; -7.3335737E-02;  3.1791689E+04;  0.0000000E+00;  2.5202225E+01;  4.0000000E+04;  0.0000000E+00;  3.7913789E+04; -3.0798513E-02;  0.0000000E+00; -4.2537224E-02;  1.0077799E+04;
  1.6406090E+00;  9.9999998E-03; -6.1835572E-02;9906;  1.0587417E+00;  0.0000000E+00;  1.5692824E-03;  9.9336829E+02;  1.1442995E-01; -4.5163057E+03;3; -7.2312057E+01;  0.0000000E+00; -5.0052638E+00;0;  2.0798333E-02;  3.1796877E+04;  0.0000000E+00;  2.1121202E+01;  4.0000000E+04;  0.0000000E+00;  3.7915207E+04;  5.8906175E-02;  0.0000000E+00; -3.8107842E-02;  8.2355020E+03;
  1.6406090E+00;  9.9999998E-03;  6.1835643E-02;9918;  1.0587416E+00;  0.0000000E+00; -1.5678264E-03;  9.9336823E+02;  1.1443003E-01; -4.5163467E+03;3; -7.2311897E+01;  0.0000000E+00;  5.0053368E+00;0;  2.0797547E-02;  3.1796889E+04;  0.0000000E+00;  2.1121281E+01;  4.0000000E+04;  0.0000000E+00;  3.7915207E+04;  5.8905501E-02;  0.0000000E+00; -3.8107954E-02;  8.2355342E+03;
  1.6407976E+00;  9.9999998E-03; -5.1398076E-02;9907;  1.0725776E+00;  0.0000000E+00;  4.3078912E-03;  9.9339099E+02;  1.1442821E-01; -4.4990723E+03;3; -1.0347639E+02;  0.0000000E+00; -4.7833295E+00;0;  1.4618649E-01;  3.1799252E+04;  0.0000000E+00;  1.6571650E+01;  4.0000000E+04;  0.0000000E+00;  3.7915082E+04;  1.8268499E-01;  0.0000000E+00; -3.6498506E-02;  6.3085850E+03;
  1.6407976E+00;  9.9999998E-03;  5.1398151E-02;9917;  1.0725774E+00;  0.0000000E+00; -4.3063639E-03;  9.9339099E+02;  1.1442821E-01; -4.4990723E+03;3; -1.0347628E+02;  0.0000000E+00;  4.7832203E+00;0;  1.4618477E-01;  3.1799260E+04;  0.0000000E+00;  1.6571600E+01;  4.0000000E+04;  0.0000000E+00;  3.7915086E+04;  1.8268329E-01;  0.0000000E+00; -3.6498524E-02;  6.3085684E+03;
  1.6409526E+00;  9.9999998E-03; -4.0988453E-02;9908;  1.0860624E+00;  0.0000000E+00;  5.9194211E-03;  9.9334808E+02;  1.1442745E-01; -4.5268228E+03;3; -1.1139151E+02;  0.0000000E+00; -2.1366863E+00;0;  2.5176144E-01;  3.1799355E+04;  0.0000000E+00;  1.1836758E+01;  4.0000000E+04;  0.0000000E+00;  3.7912598E+04;  2.8518671E-01;  0.0000000E+00; -3.3425275E-02;  4.4092163E+03;
  1.6409527E+00;  9.9999998E-03;  4.0988527E-02;9916;  1.0860622E+00;  0.0000000E+00; -5.9179072E-03;  9.9334808E+02;  1.1442745E-01; -4.5268228E+03;3; -1.1139159E+02;  0.0000000E+00;  2.1366787E+00;0;  2.5175908E-01;  3.1799371E+04;  0.0000000E+00;  1.1836706E+01;  4.0000000E+04;  0.0000000E+00;  3.7912602E+04;  2.8518441E-01;  0.0000000E+00; -3.3425331E-02;  4.4091938E+03;
  1.6410737E+00;  9.9999998E-03; -3.0634353E-02;9909;  1.0966727E+00;  0.0000000E+00;  5.9257089E-03;  9.9324243E+02;  1.1442716E-01; -4.5975376E+03;3; -1.1716228E+02;  0.0000000E+00; -1.1199571E+00;0;  3.2950923E-01;  3.1797023E+04;  0.0000000E+00;  7.3040562E+00;  4.0000000E+04;  0.0000000E+00;  3.7907137E+04;  3.5953227E-01;  0.0000000E+00; -3.0023046E-02;  2.6710969E+03;
  1.6410737E+00;  9.9999998E-03;  3.0634424E-02;9915;  1.0966725E+00;  0.0000000E+00; -5.9242570E-03;  9.9324243E+02;  1.1442716E-01; -4.5975376E+03;3; -1.1716253E+02;  0.0000000E+00;  1.1200120E+00;0;  3.2950830E-01;  3.1797029E+04;  0.0000000E+00;  7.3040261E+00;  4.0000000E+04;  0.0000000E+00;  3.7907141E+04;  3.5953149E-01;  0.0000000E+00; -3.0023174E-02;  2.6710864E+03;
  1.6411602E+00;  9.9999998E-03; -2.0367913E-02;9910;  1.1034722E+00;  0.0000000E+00;  4.5032795E-03;  9.9309454E+02;  1.1442699E-01; -4.6972983E+03;3; -1.2210632E+02;  0.0000000E+00; -8.2716858E-01;0;  3.7724015E-01;  3.1793666E+04;  0.0000000E+00;  3.4389799E+00;  4.0000000E+04;  0.0000000E+00;  3.7899949E+04;  4.0445948E-01;  0.0000000E+00; -2.7219320E-02;  1.2567144E+03;
  1.6411602E+00;  9.9999998E-03;  2.0367991E-02;9914;  1.1034721E+00;  0.0000000E+00; -4.5018392E-03;  9.9309454E+02;  1.1442699E-01; -4.6972983E+03;3; -1.2210661E+02;  0.0000000E+00;  8.2718015E-01;0;  3.7723958E-01;  3.1793670E+04;  0.0000000E+00;  3.4389195E+00;  4.0000000E+04;  0.0000000E+00;  3.7899949E+04;  4.0445897E-01;  0.0000000E+00; -2.7219385E-02;  1.2566946E+03;
  1.6412127E+00;  9.9999998E-03; -1.0174115E-02;9911;  1.1071706E+00;  0.0000000E+00;  2.4142414E-03;  9.9297498E+02;  1.1442804E-01; -4.7781089E+03;3; -1.2452396E+02;  0.0000000E+00; -3.3894497E-01;0;  4.0220976E-01;  3.1790609E+04;  0.0000000E+00;  8.7101740E-01;  4.0000000E+04;  0.0000000E+00;  3.7894082E+04;  4.2777780E-01;  0.0000000E+00; -2.5568027E-02;  4.5569617E+02;
  1.6412300E+00;  9.9999998E-03;  3.7956681E-08;9912;  1.1083384E+00;  0.0000000E+00;  7.0247961E-07;  9.9293408E+02;  1.1442746E-01; -4.8057461E+03;3; -1.2523178E+02;  0.0000000E+00;  8.6247921E-05;0;  4.0993559E-01;  3.1789736E+04;  0.0000000E+00;  2.0082605E-12;  4.0000000E+04;  0.0000000E+00;  3.7892180E+04;  4.3496788E-01;  0.0000000E+00; -2.5032267E-02;  3.8250119E+02;
  1.6412127E+00;  9.9999998E-03;  1.0174191E-02;9913;  1.1071705E+00;  0.0000000E+00; -2.4128240E-03;  9.9297498E+02;  1.1442750E-01; -4.7781089E+03;3; -1.2452389E+02;  0.0000000E+00;  3.3904862E-01;0;  4.0220931E-01;  3.1790609E+04;  0.0000000E+00;  8.7098938E-01;  4.0000000E+04;  0.0000000E+00;  3.7894078E+04;  4.2777744E-01;  0.0000000E+00; -2.5568115E-02;  4.5568680E+02;
  1.6508677E+00;  9.9999998E-03; -9.3328051E-02;9937;  1.0418508E+00;  0.0000000E+00;  1.3432105E-03;  9.9377606E+02;  1.1418565E-01; -4.1462329E+03;3;  5.3420448E+00;  0.0000000E+00;  1.9161598E+01;0; -2.3469639E-01;  3.2075877E+04;  0.0000000E+00;  1.6387947E+01;  4.0000000E+04;  0.0000000E+00;  3.7776820E+04; -1.7733648E-01;  0.0000000E+00; -5.7359897E-02;  6.7930566E+03;
  1.6511184E+00;  9.9999998E-03; -8.2963772E-02;9938;  1.0453690E+00;  0.0000000E+00; -4.6619150E-04;  9.9367163E+02;  1.1418439E-01; -4.2134624E+03;3; -2.8616989E+00;  0.0000000E+00;  2.4292469E+01;0; -1.7062891E-01;  3.2075146E+04;  0.0000000E+00;  1.7917868E+01;  4.0000000E+04;  0.0000000E+00;  3.7769973E+04; -1.2569243E-01;  0.0000000E+00; -4.4936478E-02;  6.9640024E+03;
  1.6513486E+00;  9.9999998E-03; -7.2567828E-02;9939;  1.0499661E+00;  0.0000000E+00; -2.4570848E-03;  9.9365161E+02;  1.1418368E-01; -4.2246421E+03;3; -2.0707687E+01;  0.0000000E+00;  2.6131269E+01;0; -9.7904325E-02;  3.2077006E+04;  0.0000000E+00;  1.7728981E+01;  4.0000000E+04;  0.0000000E+00;  3.7767234E+04; -6.5842561E-02;  0.0000000E+00; -3.2061763E-02;  6.5750615E+03;
  1.6515542E+00;  9.9999998E-03; -6.2147129E-02;9940;  1.0575176E+00;  0.0000000E+00; -3.4503078E-03;  9.9367883E+02;  1.1418253E-01; -4.2046377E+03;3; -7.2531570E+01;  0.0000000E+00;  1.3187242E+01;0;  5.5739768E-03;  3.2079590E+04;  0.0000000E+00;  1.6170614E+01;  4.0000000E+04;  0.0000000E+00;  3.7766488E+04;  2.8822763E-02;  0.0000000E+00; -2.3248786E-02;  5.7722959E+03;
  1.6515542E+00;  9.9999998E-03;  6.2147204E-02;9952;  1.0575176E+00;  0.0000000E+00;  3.4517406E-03;  9.9367883E+02;  1.1418253E-01; -4.2046377E+03;3; -7.2532707E+01;  0.0000000E+00; -1.3186871E+01;0;  5.5743810E-03;  3.2079594E+04;  0.0000000E+00;  1.6170618E+01;  4.0000000E+04;  0.0000000E+00;  3.7766484E+04;  2.8823420E-02;  0.0000000E+00; -2.3249039E-02;  5.7722930E+03;
  1.6517304E+00;  9.9999998E-03; -5.1706191E-02;9941;  1.0715256E+00;  0.0000000E+00; -1.3018535E-03;  9.9372241E+02;  1.1418159E-01; -4.1739839E+03;3; -1.0622999E+02;  0.0000000E+00;  3.9185619E+00;0;  1.5854725E-01;  3.2082801E+04;  0.0000000E+00;  1.3735353E+01;  4.0000000E+04;  0.0000000E+00;  3.7766949E+04;  1.7917746E-01;  0.0000000E+00; -2.0630207E-02;  4.7339478E+03;
  1.6517304E+00;  9.9999998E-03;  5.1706262E-02;9951;  1.0715252E+00;  0.0000000E+00;  1.3034233E-03;  9.9372235E+02;  1.1418191E-01; -4.1740239E+03;3; -1.0622925E+02;  0.0000000E+00; -3.9185643E+00;0;  1.5854418E-01;  3.2082799E+04;  0.0000000E+00;  1.3735393E+01;  4.0000000E+04;  0.0000000E+00;  3.7766945E+04;  1.7917441E-01;  0.0000000E+00; -2.0630233E-02;  4.7339473E+03;
  1.6518755E+00;  9.9999998E-03; -4.1262802E-02;9942;  1.0858721E+00;  0.0000000E+00;  1.4213792E-03;  9.9374475E+02;  1.1418097E-01; -4.1578218E+03;3; -1.1371570E+02;  0.0000000E+00;  3.5557961E+00;0;  2.9299283E-01;  3.2085121E+04;  0.0000000E+00;  1.0664054E+01;  4.0000000E+04;  0.0000000E+00;  3.7766527E+04;  3.1085056E-01;  0.0000000E+00; -1.7857732E-02;  3.5600742E+03;
  1.6518755E+00;  9.9999998E-03;  4.1262873E-02;9950;  1.0858717E+00;  0.0000000E+00; -1.4197873E-03;  9.9374475E+02;  1.1418097E-01; -4.1578218E+03;3; -1.1371518E+02;  0.0000000E+00; -3.5557890E+00;0;  2.9298982E-01;  3.2085146E+04;  0.0000000E+00;  1.0664058E+01;  4.0000000E+04;  0.0000000E+00;  3.7766527E+04;  3.1084758E-01;  0.0000000E+00; -1.7857751E-02;  3.5600637E+03;
  1.6519896E+00;  9.9999998E-03; -3.0849826E-02;9943;  1.0974184E+00;  0.0000000E+00;  3.1731606E-03;  9.9369397E+02;  1.1418057E-01; -4.1905127E+03;3; -1.1915201E+02;  0.0000000E+00;  2.7065098E+00;0;  3.9445257E-01;  3.2085658E+04;  0.0000000E+00;  7.1380730E+00;  4.0000000E+04;  0.0000000E+00;  3.7762457E+04;  4.0871289E-01;  0.0000000E+00; -1.4260323E-02;  2.3206301E+03;
  1.6520728E+00;  9.9999998E-03; -2.0501737E-02;9944;  1.1049367E+00;  0.0000000E+00;  3.1385820E-03;  9.9357178E+02;  1.1417955E-01; -4.2709204E+03;3; -1.2393282E+02;  0.0000000E+00;  6.0606563E-01;0;  4.5742032E-01;  3.2084324E+04;  0.0000000E+00;  3.6298859E+00;  4.0000000E+04;  0.0000000E+00;  3.7755285E+04;  4.6779746E-01;  0.0000000E+00; -1.0377126E-02;  1.1552379E+03;
  1.6520728E+00;  9.9999998E-03;  2.0501811E-02;9948;  1.1049365E+00;  0.0000000E+00; -3.1370854E-03;  9.9357178E+02;  1.1417955E-01; -4.2709204E+03;3; -1.2393291E+02;  0.0000000E+00; -6.0604936E-01;0;  4.5741838E-01;  3.2084324E+04;  0.0000000E+00;  3.6298349E+00;  4.0000000E+04;  0.0000000E+00;  3.7755285E+04;  4.6779564E-01;  0.0000000E+00; -1.0377262E-02;  1.1552240E+03;
  1.6519896E+00;  9.9999998E-03;  3.0849898E-02;9949;  1.0974182E+00;  0.0000000E+00; -3.1716903E-03;  9.9369397E+02;  1.1418057E-01; -4.1905127E+03;3; -1.1915222E+02;  0.0000000E+00; -2.7064071E+00;0;  3.9445150E-01;  3.2085658E+04;  0.0000000E+00;  7.1380343E+00;  4.0000000E+04;  0.0000000E+00;  3.7762453E+04;  4.0871203E-01;  0.0000000E+00; -1.4260518E-02;  2.3206165E+03;
  1.6521238E+00;  9.9999998E-03; -1.0231901E-02;9945;  1.1087973E+00;  0.0000000E+00;  1.8214642E-03;  9.9344501E+02;  1.1417975E-01; -4.3546582E+03;3; -1.2649405E+02;  0.0000000E+00; -1.7016859E-01;0;  4.8821843E-01;  3.2082047E+04;  0.0000000E+00;  9.7199208E-01;  4.0000000E+04;  0.0000000E+00;  3.7748453E+04;  4.9578601E-01;  0.0000000E+00; -7.5675887E-03;  3.0215286E+02;
  1.6521409E+00;  9.9999998E-03;  3.7155445E-08;9946;  1.1100090E+00;  0.0000000E+00;  7.0941331E-07;  9.9339325E+02;  1.1418002E-01; -4.3888623E+03;3; -1.2739716E+02;  0.0000000E+00;  1.0728836E-04;0;  4.9763674E-01;  3.2081361E+04;  0.0000000E+00;  1.1749888E-11;  4.0000000E+04;  0.0000000E+00;  3.7745504E+04;  5.0422096E-01;  0.0000000E+00; -6.5842355E-03;  5.7544201E+01;
  1.6521238E+00;  9.9999998E-03;  1.0231979E-02;9947;  1.1087972E+00;  0.0000000E+00; -1.8200299E-03;  9.9344507E+02;  1.1417978E-01; -4.3546187E+03;3; -1.2649432E+02;  0.0000000E+00;  1.7020816E-01;0;  4.8821852E-01;  3.2082035E+04;  0.0000000E+00;  9.7195750E-01;  4.0000000E+04;  0.0000000E+00;  3.7748453E+04;  4.9578619E-01;  0.0000000E+00; -7.5676609E-03;  3.0214423E+02;
  1.6618552E+00;  9.9999998E-03; -9.3523666E-02;9968;  1.0402234E+00;  0.0000000E+00; -2.7244864E-03;  9.9478442E+02;  1.1397571E-01; -3.3888362E+03;3;  1.4098328E+00;  0.0000000E+00;  2.9315966E+01;0; -2.5990900E-01;  3.2366246E+04;  0.0000000E+00;  1.5458227E+00;  4.0000000E+04;  0.0000000E+00;  3.7649734E+04; -2.1545778E-01;  0.0000000E+00; -4.4451211E-02;  2.0281809E+03;
  1.6620897E+00;  9.9999998E-03; -8.3175339E-02;9969;  1.0440780E+00;  0.0000000E+00; -4.9719363E-03;  9.9450702E+02;  1.1397520E-01; -3.5671257E+03;3; -9.0289936E+00;  0.0000000E+00;  3.4636799E+01;0; -1.9803812E-01;  3.2358547E+04;  0.0000000E+00;  4.3975081E+00;  4.0000000E+04;  0.0000000E+00;  3.7638129E+04; -1.6916467E-01;  0.0000000E+00; -2.8873440E-02;  2.4821216E+03;
  1.6623044E+00;  9.9999998E-03; -7.2799951E-02;9970;  1.0491511E+00;  0.0000000E+00; -7.3787039E-03;  9.9433862E+02;  1.1397523E-01; -3.6746311E+03;3; -2.7996058E+01;  0.0000000E+00;  3.7942745E+01;0; -1.2276597E-01;  3.2354969E+04;  0.0000000E+00;  6.2173767E+00;  4.0000000E+04;  0.0000000E+00;  3.7629820E+04; -1.1001068E-01;  0.0000000E+00; -1.2755298E-02;  2.7306189E+03;
  1.6624957E+00;  9.9999998E-03; -6.2398624E-02;9971;  1.0567479E+00;  0.0000000E+00; -9.1109285E-03;  9.9425867E+02;  1.1397450E-01; -3.7248853E+03;3; -7.0774498E+01;  0.0000000E+00;  3.0621086E+01;0; -1.5313288E-02;  3.2354051E+04;  0.0000000E+00;  6.9121490E+00;  4.0000000E+04;  0.0000000E+00;  3.7625066E+04; -1.4885685E-02;  0.0000000E+00; -4.2760253E-04;  2.6968774E+03;
  1.6624957E+00;  9.9999998E-03;  6.2398687E-02;9983;  1.0567478E+00;  0.0000000E+00;  9.1124130E-03;  9.9425867E+02;  1.1397450E-01; -3.7248853E+03;3; -7.0774467E+01;  0.0000000E+00; -3.0620899E+01;0; -1.5313890E-02;  3.2354053E+04;  0.0000000E+00;  6.9124560E+00;  4.0000000E+04;  0.0000000E+00;  3.7625066E+04; -1.4886150E-02;  0.0000000E+00; -4.2773999E-04;  2.6969402E+03;
  1.6626608E+00;  9.9999998E-03; -5.1974040E-02;9972;  1.0694567E+00;  0.0000000E+00; -8.2669090E-03;  9.9423676E+02;  1.1397425E-01; -3.7376340E+03;3; -1.0556087E+02;  0.0000000E+00;  1.4443386E+01;0;  1.4469339E-01;  3.2355051E+04;  0.0000000E+00;  6.6601806E+00;  4.0000000E+04;  0.0000000E+00;  3.7622809E+04;  1.4080496E-01;  0.0000000E+00;  3.8884319E-03;  2.4292908E+03;
  1.6626608E+00;  9.9999998E-03;  5.1974133E-02;9982;  1.0694566E+00;  0.0000000E+00;  8.2684495E-03;  9.9423688E+02;  1.1397412E-01; -3.7375566E+03;3; -1.0556077E+02;  0.0000000E+00; -1.4443659E+01;0;  1.4469264E-01;  3.2355023E+04;  0.0000000E+00;  6.6597223E+00;  4.0000000E+04;  0.0000000E+00;  3.7622812E+04;  1.4080438E-01;  0.0000000E+00;  3.8882678E-03;  2.4292007E+03;
  1.6627978E+00;  9.9999998E-03; -4.1534867E-02;9973;  1.0830438E+00;  0.0000000E+00; -5.4654898E-03;  9.9423340E+02;  1.1397356E-01; -3.7386394E+03;3; -1.1488138E+02;  0.0000000E+00;  7.5392299E+00;0;  2.9281753E-01;  3.2356338E+04;  0.0000000E+00;  5.6719737E+00;  4.0000000E+04;  0.0000000E+00;  3.7621191E+04;  2.8740564E-01;  0.0000000E+00;  5.4118847E-03;  2.0004722E+03;
  1.6627978E+00;  9.9999998E-03;  4.1534945E-02;9981;  1.0830432E+00;  0.0000000E+00;  5.4670749E-03;  9.9423322E+02;  1.1397352E-01; -3.7387554E+03;3; -1.1488251E+02;  0.0000000E+00; -7.5385032E+00;0;  2.9281181E-01;  3.2356340E+04;  0.0000000E+00;  5.6717715E+00;  4.0000000E+04;  0.0000000E+00;  3.7621188E+04;  2.8740001E-01;  0.0000000E+00;  5.4118158E-03;  2.0004882E+03;
  1.6629058E+00;  9.9999998E-03; -3.1100882E-02;9974;  1.0943767E+00;  0.0000000E+00; -2.5199256E-03;  9.9419861E+02;  1.1397339E-01; -3.7602180E+03;3; -1.1895554E+02;  0.0000000E+00;  3.4727159E+00;0;  4.0830505E-01;  3.2357154E+04;  0.0000000E+00;  4.1027470E+00;  4.0000000E+04;  0.0000000E+00;  3.7618098E+04;  4.0099448E-01;  0.0000000E+00;  7.3105758E-03;  1.4684487E+03;
  1.6629058E+00;  9.9999998E-03;  3.1100955E-02;9980;  1.0943766E+00;  0.0000000E+00;  2.5213987E-03;  9.9419861E+02;  1.1397296E-01; -3.7602180E+03;3; -1.1895564E+02;  0.0000000E+00; -3.4726055E+00;0;  4.0830398E-01;  3.2357143E+04;  0.0000000E+00;  4.1027193E+00;  4.0000000E+04;  0.0000000E+00;  3.7618098E+04;  4.0099365E-01;  0.0000000E+00;  7.3103234E-03;  1.4684419E+03;
  1.6630319E+00;  9.9999998E-03; -1.0340552E-02;9976;  1.1070974E+00;  0.0000000E+00;  6.8587763E-04;  9.9401874E+02;  1.1397262E-01; -3.8756685E+03;3; -1.2442028E+02;  0.0000000E+00;  8.5948938E-01;0;  5.3121650E-01;  3.2355674E+04;  0.0000000E+00;  6.0633504E-01;  4.0000000E+04;  0.0000000E+00;  3.7606621E+04;  5.1879936E-01;  0.0000000E+00;  1.2417153E-02;  5.5340161E+02;
  1.6630319E+00;  9.9999998E-03;  1.0340631E-02;9978;  1.1070971E+00;  0.0000000E+00; -6.8428501E-04;  9.9401874E+02;  1.1397240E-01; -3.8756685E+03;3; -1.2442017E+02;  0.0000000E+00; -8.5957479E-01;0;  5.3121334E-01;  3.2355658E+04;  0.0000000E+00;  6.0629898E-01;  4.0000000E+04;  0.0000000E+00;  3.7606617E+04;  5.1879627E-01;  0.0000000E+00;  1.2417085E-02;  5.5340271E+02;
  1.6629843E+00;  9.9999998E-03; -2.0698853E-02;9975;  1.1025070E+00;  0.0000000E+00; -4.9282131E-05;  9.9411267E+02;  1.1397271E-01; -3.8152268E+03;3; -1.2246904E+02;  0.0000000E+00;  1.8519443E+00;0;  4.8766696E-01;  3.2356549E+04;  0.0000000E+00;  2.2107568E+00;  4.0000000E+04;  0.0000000E+00;  3.7612559E+04;  4.7797135E-01;  0.0000000E+00;  9.6956175E-03;  9.2067432E+02;
  1.6629843E+00;  9.9999998E-03;  2.0698933E-02;9979;  1.1025066E+00;  0.0000000E+00;  5.0997562E-05;  9.9411273E+02;  1.1397272E-01; -3.8151882E+03;3; -1.2246886E+02;  0.0000000E+00; -1.8521687E+00;0;  4.8766294E-01;  3.2356533E+04;  0.0000000E+00;  2.2106712E+00;  4.0000000E+04;  0.0000000E+00;  3.7612559E+04;  4.7796732E-01;  0.0000000E+00;  9.6956268E-03;  9.2069818E+02;
  1.6630481E+00;  9.9999998E-03;  3.7958063E-08;9977;  1.1085095E+00;  0.0000000E+00;  7.6628356E-07;  9.9398138E+02;  1.1397250E-01; -3.8997363E+03;3; -1.2498434E+02;  0.0000000E+00; -2.3829937E-04;0;  5.4430532E-01;  3.2355131E+04;  0.0000000E+00;  1.5115626E-11;  4.0000000E+04;  0.0000000E+00;  3.7604586E+04;  5.3065538E-01;  0.0000000E+00;  1.3649967E-02;  4.7387402E+02;
  1.6728184E+00;  9.9999998E-03; -9.3710445E-02;9995;  1.0394022E+00;  0.0000000E+00; -8.0132335E-03;  9.9571515E+02;  1.1380408E-01; -2.7123564E+03;3; -3.2715576E+00;  0.0000000E+00;  4.1522152E+01;0; -2.6184201E-01;  3.2639631E+04;  0.0000000E+00; -2.1372433E+00;  4.0000000E+04;  0.0000000E+00;  3.7515559E+04; -2.4515013E-01;  0.0000000E+00; -1.6691869E-02;  1.9191642E+03;
  1.6730416E+00;  9.9999998E-03; -8.3373308E-02;9996;  1.0436467E+00;  0.0000000E+00; -1.0728943E-02;  9.9539044E+02;  1.1380399E-01; -2.9163301E+03;3; -1.6787407E+01;  0.0000000E+00;  4.6564518E+01;0; -2.0320165E-01;  3.2629531E+04;  0.0000000E+00; -2.9931102E+00;  4.0000000E+04;  0.0000000E+00;  3.7503059E+04; -2.0442730E-01;  0.0000000E+00;  1.2256529E-03;  1.7407402E+03;
  1.6732434E+00;  9.9999998E-03; -7.3013462E-02;9997;  1.0493643E+00;  0.0000000E+00; -1.3367544E-02;  9.9514355E+02;  1.1380337E-01; -3.0710183E+03;3; -3.9753166E+01;  0.0000000E+00;  4.7338066E+01;0; -1.2571421E-01;  3.2623246E+04;  0.0000000E+00; -2.4790754E+00;  4.0000000E+04;  0.0000000E+00;  3.7492406E+04; -1.4407521E-01;  0.0000000E+00;  1.8361002E-02;  1.5383981E+03;
  1.6734221E+00;  9.9999998E-03; -6.2631667E-02;9998;  1.0576631E+00;  0.0000000E+00; -1.5053617E-02;  9.9498181E+02;  1.1380208E-01; -3.1718970E+03;3; -8.0727600E+01;  0.0000000E+00;  3.6203903E+01;0; -9.5838048E-03;  3.2620314E+04;  0.0000000E+00; -1.6483709E+00;  4.0000000E+04;  0.0000000E+00;  3.7484355E+04; -3.9683223E-02;  0.0000000E+00;  3.0099418E-02;  1.3802347E+03;
  1.6734221E+00;  9.9999998E-03;  6.2631764E-02;10010;  1.0576630E+00;  0.0000000E+00;  1.5055090E-02;  9.9498181E+02;  1.1380208E-01; -3.1718967E+03;3; -8.0727890E+01;  0.0000000E+00; -3.6203552E+01;0; -9.5842127E-03;  3.2620271E+04;  0.0000000E+00; -1.6488148E+00;  4.0000000E+04;  0.0000000E+00;  3.7484352E+04; -3.9683402E-02;  0.0000000E+00;  3.0099189E-02;  1.3802489E+03;
  1.6735761E+00;  9.9999998E-03; -5.2228849E-02;9999;  1.0695215E+00;  0.0000000E+00; -1.4431812E-02;  9.9489325E+02;  1.1380070E-01; -3.2266724E+03;3; -1.0760504E+02;  0.0000000E+00;  1.6981613E+01;0;  1.4348410E-01;  3.2619748E+04;  0.0000000E+00; -9.8278517E-01;  4.0000000E+04;  0.0000000E+00;  3.7478691E+04;  1.1018139E-01;  0.0000000E+00;  3.3302706E-02;  1.2685869E+03;
  1.6735761E+00;  9.9999998E-03;  5.2228905E-02;10009;  1.0695213E+00;  0.0000000E+00;  1.4433290E-02;  9.9489319E+02;  1.1380073E-01; -3.2267102E+03;3; -1.0760496E+02;  0.0000000E+00; -1.6981388E+01;0;  1.4348154E-01;  3.2619779E+04;  0.0000000E+00; -9.8241502E-01;  4.0000000E+04;  0.0000000E+00;  3.7478691E+04;  1.1017926E-01;  0.0000000E+00;  3.3302277E-02;  1.2685455E+03;
  1.6737032E+00;  9.9999998E-03; -4.1808747E-02;10000;  1.0818201E+00;  0.0000000E+00; -1.1432092E-02;  9.9486902E+02;  1.1379983E-01; -3.2409976E+03;3; -1.1676671E+02;  0.0000000E+00;  5.7900090E+00;0;  2.8616214E-01;  3.2621283E+04;  0.0000000E+00; -5.7580096E-01;  4.0000000E+04;  0.0000000E+00;  3.7475199E+04;  2.5397316E-01;  0.0000000E+00;  3.2188974E-02;  1.1788446E+03;
  1.6737032E+00;  9.9999998E-03;  4.1808832E-02;10008;  1.0818198E+00;  0.0000000E+00;  1.1433798E-02;  9.9486902E+02;  1.1379959E-01; -3.2409976E+03;3; -1.1676653E+02;  0.0000000E+00; -5.7903252E+00;0;  2.8615835E-01;  3.2621275E+04;  0.0000000E+00; -5.7596451E-01;  4.0000000E+04;  0.0000000E+00;  3.7475199E+04;  2.5396925E-01;  0.0000000E+00;  3.2189108E-02;  1.1788367E+03;
  1.6738721E+00;  9.9999998E-03; -2.0929748E-02;10002;  1.0992258E+00;  0.0000000E+00; -4.3920767E-03;  9.9490472E+02;  1.1379920E-01; -3.2171226E+03;3; -1.2272792E+02;  0.0000000E+00;  1.0125178E+00;0;  4.7153148E-01;  3.2626658E+04;  0.0000000E+00; -1.6421779E-01;  4.0000000E+04;  0.0000000E+00;  3.7471980E+04;  4.3902516E-01;  0.0000000E+00;  3.2506309E-02;  1.0567324E+03;
  1.6739143E+00;  9.9999998E-03; -1.0475259E-02;10003;  1.1035730E+00;  0.0000000E+00; -1.9418875E-03;  9.9492218E+02;  1.1379833E-01; -3.2057666E+03;3; -1.2411341E+02;  0.0000000E+00;  3.3437568E-01;0;  5.1570153E-01;  3.2628316E+04;  0.0000000E+00; -6.5027148E-02;  4.0000000E+04;  0.0000000E+00;  3.7471406E+04;  4.8167077E-01;  0.0000000E+00;  3.4030765E-02;  1.0274773E+03;
  1.6739143E+00;  9.9999998E-03;  1.0475333E-02;10005;  1.1035726E+00;  0.0000000E+00;  1.9437689E-03;  9.9492212E+02;  1.1379804E-01; -3.2058042E+03;3; -1.2411318E+02;  0.0000000E+00; -3.3429569E-01;0;  5.1569659E-01;  3.2628309E+04;  0.0000000E+00; -6.5031230E-02;  4.0000000E+04;  0.0000000E+00;  3.7471410E+04;  4.8166576E-01;  0.0000000E+00;  3.4030825E-02;  1.0274633E+03;
  1.6738721E+00;  9.9999998E-03;  2.0929817E-02;10006;  1.0992254E+00;  0.0000000E+00;  4.3938858E-03;  9.9490472E+02;  1.1379923E-01; -3.2171226E+03;3; -1.2272762E+02;  0.0000000E+00; -1.0127726E+00;0;  4.7152680E-01;  3.2626654E+04;  0.0000000E+00; -1.6419014E-01;  4.0000000E+04;  0.0000000E+00;  3.7471980E+04;  4.3902040E-01;  0.0000000E+00;  3.2506403E-02;  1.0567321E+03;
  1.6738018E+00;  9.9999998E-03; -3.1372398E-02;10001;  1.0919254E+00;  0.0000000E+00; -7.6822243E-03;  9.9488629E+02;  1.1379932E-01; -3.2293042E+03;3; -1.2021090E+02;  0.0000000E+00;  1.1505207E+00;0;  3.9543712E-01;  3.2624047E+04;  0.0000000E+00; -3.0472001E-01;  4.0000000E+04;  0.0000000E+00;  3.7473367E+04;  3.6393994E-01;  0.0000000E+00;  3.1497188E-02;  1.1124476E+03;
  1.6738018E+00;  9.9999998E-03;  3.1372473E-02;10007;  1.0919250E+00;  0.0000000E+00;  7.6837805E-03;  9.9488617E+02;  1.1379927E-01; -3.2293794E+03;3; -1.2021080E+02;  0.0000000E+00; -1.1502315E+00;0;  3.9543250E-01;  3.2624088E+04;  0.0000000E+00; -3.0471236E-01;  4.0000000E+04;  0.0000000E+00;  3.7473371E+04;  3.6393553E-01;  0.0000000E+00;  3.1496964E-02;  1.1124240E+03;
  1.6739284E+00;  9.9999998E-03;  3.9649496E-08;10004;  1.1050423E+00;  0.0000000E+00;  9.2650970E-07;  9.9493500E+02;  1.1379823E-01; -3.1975667E+03;3; -1.2470263E+02;  0.0000000E+00; -1.2725592E-05;0;  5.3065151E-01;  3.2629172E+04;  0.0000000E+00;  2.8224197E-11;  4.0000000E+04;  0.0000000E+00;  3.7471430E+04;  4.9593130E-01;  0.0000000E+00;  3.4720208E-02;  1.0242056E+03;
  1.6837375E+00;  9.9999998E-03; -9.3814462E-02;10017;  1.0391119E+00;  0.0000000E+00; -1.4559307E-02;  9.9678668E+02;  1.1365853E-01; -1.9800717E+03;3; -1.1682481E+01;  0.0000000E+00;  5.1354267E+01;0; -2.3285365E-01;  3.2893418E+04;  0.0000000E+00;  1.9175423E+01;  4.0000000E+04;  0.0000000E+00;  3.7396434E+04; -2.6269916E-01;  0.0000000E+00;  2.9845512E-02;  4.0199480E+03;
  1.6839604E+00;  9.9999998E-03; -8.3510049E-02;10018;  1.0442712E+00;  0.0000000E+00; -1.7272850E-02;  9.9629285E+02;  1.1365987E-01; -2.2830964E+03;3; -3.2722298E+01;  0.0000000E+00;  5.1414532E+01;0; -1.7050354E-01;  3.2880574E+04;  0.0000000E+00;  9.1090918E+00;  4.0000000E+04;  0.0000000E+00;  3.7374691E+04; -2.1621481E-01;  0.0000000E+00;  4.5711260E-02;  2.6840334E+03;
  1.6841581E+00;  9.9999998E-03; -7.3175438E-02;10019;  1.0513942E+00;  0.0000000E+00; -1.9246012E-02;  9.9594318E+02;  1.1366107E-01; -2.4971924E+03;3; -6.5655632E+01;  0.0000000E+00;  4.1905514E+01;0; -8.0626830E-02;  3.2871754E+04;  0.0000000E+00;  3.3071246E+00;  4.0000000E+04;  0.0000000E+00;  3.7358645E+04; -1.3806514E-01;  0.0000000E+00;  5.7438314E-02;  2.0894670E+03;
  1.6843312E+00;  9.9999998E-03; -6.2820911E-02;10020;  1.0621036E+00;  0.0000000E+00; -1.8858619E-02;  9.9567523E+02;  1.1366050E-01; -2.6609998E+03;3; -1.0335992E+02;  0.0000000E+00;  1.7941168E+01;0;  6.0507316E-02;  3.2865871E+04;  0.0000000E+00;  2.5534391E-01;  4.0000000E+04;  0.0000000E+00;  3.7345445E+04;  2.4363485E-03;  0.0000000E+00;  5.8070969E-02;  1.8046016E+03;
  1.6843312E+00;  9.9999998E-03;  6.2820978E-02;10032;  1.0621032E+00;  0.0000000E+00;  1.8860422E-02;  9.9567523E+02;  1.1366050E-01; -2.6609998E+03;3; -1.0335880E+02;  0.0000000E+00; -1.7942640E+01;0;  6.0500637E-02;  3.2865887E+04;  0.0000000E+00;  2.5534472E-01;  4.0000000E+04;  0.0000000E+00;  3.7345441E+04;  2.4285291E-03;  0.0000000E+00;  5.8072109E-02;  1.8046331E+03;
  1.6844777E+00;  9.9999998E-03; -5.2441917E-02;10021;  1.0746574E+00;  0.0000000E+00; -1.5289392E-02;  9.9553125E+02;  1.1365975E-01; -2.7485603E+03;3; -1.1718388E+02;  0.0000000E+00;  2.3515468E+00;0;  2.0893326E-01;  3.2864250E+04;  0.0000000E+00; -1.1603816E+00;  4.0000000E+04;  0.0000000E+00;  3.7336762E+04;  1.5791389E-01;  0.0000000E+00;  5.1019363E-02;  1.6454257E+03;
  1.6844777E+00;  9.9999998E-03;  5.2441962E-02;10031;  1.0746573E+00;  0.0000000E+00;  1.5290808E-02;  9.9553125E+02;  1.1365977E-01; -2.7485603E+03;3; -1.1718400E+02;  0.0000000E+00; -2.3511586E+00;0;  2.0893238E-01;  3.2864246E+04;  0.0000000E+00; -1.1602831E+00;  4.0000000E+04;  0.0000000E+00;  3.7336785E+04;  1.5791367E-01;  0.0000000E+00;  5.1018715E-02;  1.6454392E+03;
  1.6845982E+00;  9.9999998E-03; -4.2042557E-02;10022;  1.0855690E+00;  0.0000000E+00; -1.0935690E-02;  9.9547308E+02;  1.1365908E-01; -2.7835020E+03;3; -1.2233587E+02;  0.0000000E+00; -3.6602038E-01;0;  3.2920334E-01;  3.2865055E+04;  0.0000000E+00; -1.6217489E+00;  4.0000000E+04;  0.0000000E+00;  3.7331488E+04;  2.8178132E-01;  0.0000000E+00;  4.7422022E-02;  1.5439989E+03;
  1.6845982E+00;  9.9999998E-03;  4.2042628E-02;10030;  1.0855689E+00;  0.0000000E+00;  1.0936945E-02;  9.9547302E+02;  1.1365899E-01; -2.7835388E+03;3; -1.2233481E+02;  0.0000000E+00;  3.6692986E-01;0;  3.2919973E-01;  3.2865070E+04;  0.0000000E+00; -1.6217241E+00;  4.0000000E+04;  0.0000000E+00;  3.7331488E+04;  2.8177878E-01;  0.0000000E+00;  4.7420945E-02;  1.5439396E+03;
  1.6846912E+00;  9.9999998E-03; -3.1616494E-02;10023;  1.0941000E+00;  0.0000000E+00; -7.7503542E-03;  9.9551178E+02;  1.1365810E-01; -2.7590747E+03;3; -1.2727746E+02;  0.0000000E+00;  1.7513344E+00;0;  4.2136255E-01;  3.2867629E+04;  0.0000000E+00; -1.4934270E+00;  4.0000000E+04;  0.0000000E+00;  3.7331441E+04;  3.7185714E-01;  0.0000000E+00;  4.9505413E-02;  1.5146462E+03;
  1.6846912E+00;  9.9999998E-03;  3.1616565E-02;10029;  1.0940999E+00;  0.0000000E+00;  7.7519240E-03;  9.9551178E+02;  1.1365810E-01; -2.7590747E+03;3; -1.2727769E+02;  0.0000000E+00; -1.7514204E+00;0;  4.2136142E-01;  3.2867629E+04;  0.0000000E+00; -1.4934161E+00;  4.0000000E+04;  0.0000000E+00;  3.7331441E+04;  3.7185621E-01;  0.0000000E+00;  4.9505193E-02;  1.5146434E+03;
  1.6847562E+00;  9.9999998E-03; -2.1143606E-02;10024;  1.1009599E+00;  0.0000000E+00; -6.1304276E-03;  9.9564813E+02;  1.1365815E-01; -2.6748049E+03;3; -1.3469032E+02;  0.0000000E+00;  4.3345470E+00;0;  5.0031650E-01;  3.2871852E+04;  0.0000000E+00; -9.5992428E-01;  4.0000000E+04;  0.0000000E+00;  3.7336574E+04;  4.4636849E-01;  0.0000000E+00;  5.3948037E-02;  1.5839976E+03;
  1.6847562E+00;  9.9999998E-03;  2.1143658E-02;10028;  1.1009597E+00;  0.0000000E+00;  6.1312686E-03;  9.9564801E+02;  1.1365802E-01; -2.6748784E+03;3; -1.3468909E+02;  0.0000000E+00; -4.3336644E+00;0;  5.0031012E-01;  3.2871883E+04;  0.0000000E+00; -9.5983857E-01;  4.0000000E+04;  0.0000000E+00;  3.7336578E+04;  4.4636321E-01;  0.0000000E+00;  5.3946912E-02;  1.5838845E+03;
  1.6847939E+00;  9.9999998E-03; -1.0607570E-02;10025;  1.1062292E+00;  0.0000000E+00; -3.9913245E-03;  9.9581659E+02;  1.1365682E-01; -2.5710310E+03;3; -1.3967908E+02;  0.0000000E+00;  3.1012092E+00;0;  5.6460822E-01;  3.2875707E+04;  0.0000000E+00; -3.1654313E-01;  4.0000000E+04;  0.0000000E+00;  3.7344551E+04;  5.0877893E-01;  0.0000000E+00;  5.5829287E-02;  1.7090129E+03;
  1.6848061E+00;  9.9999998E-03;  3.7895397E-08;10026;  1.1082436E+00;  0.0000000E+00;  9.6318001E-07;  9.9590295E+02;  1.1365608E-01; -2.5178750E+03;3; -1.4047493E+02;  0.0000000E+00;  4.5269728E-05;0;  5.8896708E-01;  3.2877805E+04;  0.0000000E+00;  2.6955650E-11;  4.0000000E+04;  0.0000000E+00;  3.7348742E+04;  5.3319371E-01;  0.0000000E+00;  5.5773403E-02;  1.7820365E+03;
  1.6847941E+00;  9.9999998E-03;  1.0607650E-02;10027;  1.1062293E+00;  0.0000000E+00;  3.9931834E-03;  9.9581659E+02;  1.1365677E-01; -2.5710310E+03;3; -1.3967967E+02;  0.0000000E+00; -3.1011634E+00;0;  5.6461078E-01;  3.2875699E+04;  0.0000000E+00; -3.1655416E-01;  4.0000000E+04;  0.0000000E+00;  3.7344551E+04;  5.0878143E-01;  0.0000000E+00;  5.5829357E-02;  1.7090079E+03;
  1.6953560E+00;  9.9999998E-03; -5.2537143E-02;10036;  1.0889418E+00;  0.0000000E+00; -9.2804749E-03;  9.9623102E+02;  1.1353800E-01; -2.2554534E+03;3; -1.3439047E+02;  0.0000000E+00;  1.1383462E+01;0;  4.1195041E-01;  3.3085129E+04;  0.0000000E+00;  1.2469964E+01;  4.0000000E+04;  0.0000000E+00;  3.7213418E+04;  3.6638144E-01;  0.0000000E+00;  4.5568977E-02;  3.0142061E+03;
  1.6953560E+00;  9.9999998E-03;  5.2537225E-02;10046;  1.0889415E+00;  0.0000000E+00;  9.2818039E-03;  9.9623096E+02;  1.1353799E-01; -2.2554890E+03;3; -1.3439044E+02;  0.0000000E+00; -1.1382476E+01;0;  4.1194484E-01;  3.3085121E+04;  0.0000000E+00;  1.2470042E+01;  4.0000000E+04;  0.0000000E+00;  3.7213418E+04;  3.6637715E-01;  0.0000000E+00;  4.5567699E-02;  3.0142280E+03;
  1.6954746E+00;  9.9999998E-03; -4.2159382E-02;10037;  1.1036130E+00;  0.0000000E+00; -9.7026732E-03;  9.9609247E+02;  1.1353711E-01; -2.3376807E+03;3; -1.4298570E+02;  0.0000000E+00;  1.5320001E+01;0;  6.1776322E-01;  3.3083852E+04;  0.0000000E+00;  7.9404593E+00;  4.0000000E+04;  0.0000000E+00;  3.7204449E+04;  5.5617279E-01;  0.0000000E+00;  6.1590418E-02;  2.4995105E+03;
  1.6954746E+00;  9.9999998E-03;  4.2159472E-02;10045;  1.1036123E+00;  0.0000000E+00;  9.7037060E-03;  9.9609241E+02;  1.1353712E-01; -2.3377161E+03;3; -1.4298633E+02;  0.0000000E+00; -1.5319448E+01;0;  6.1775118E-01;  3.3083848E+04;  0.0000000E+00;  7.9406757E+00;  4.0000000E+04;  0.0000000E+00;  3.7204445E+04;  5.5616277E-01;  0.0000000E+00;  6.1588403E-02;  2.4995186E+03;
  1.6955645E+00;  9.9999998E-03; -3.1752981E-02;10038;  1.1163453E+00;  0.0000000E+00; -1.0668899E-02;  9.9611340E+02;  1.1353704E-01; -2.3245984E+03;3; -1.4271098E+02;  0.0000000E+00;  1.1847423E+01;0;  7.9068905E-01;  3.3086367E+04;  0.0000000E+00;  4.7941136E+00;  4.0000000E+04;  0.0000000E+00;  3.7203020E+04;  7.1655124E-01;  0.0000000E+00;  7.4137807E-02;  2.2666548E+03;
  1.6955646E+00;  9.9999998E-03;  3.1753067E-02;10044;  1.1163454E+00;  0.0000000E+00;  1.0671169E-02;  9.9611346E+02;  1.1353702E-01; -2.3245623E+03;3; -1.4271077E+02;  0.0000000E+00; -1.1848122E+01;0;  7.9069340E-01;  3.3086363E+04;  0.0000000E+00;  4.7942376E+00;  4.0000000E+04;  0.0000000E+00;  3.7203012E+04;  7.1655434E-01;  0.0000000E+00;  7.4139073E-02;  2.2667041E+03;
  1.6956257E+00;  9.9999998E-03; -2.1279288E-02;10039;  1.1255778E+00;  0.0000000E+00; -1.1121162E-02;  9.9633447E+02;  1.1353631E-01; -2.1920320E+03;3; -1.4212889E+02;  0.0000000E+00;  7.8314261E+00;0;  9.0996432E-01;  3.3092285E+04;  0.0000000E+00;  2.4038754E+00;  4.0000000E+04;  0.0000000E+00;  3.7212633E+04;  8.2948554E-01;  0.0000000E+00;  8.0478810E-02;  2.3192961E+03;
  1.6956257E+00;  9.9999998E-03;  2.1279369E-02;10043;  1.1255771E+00;  0.0000000E+00;  1.1122837E-02;  9.9633447E+02;  1.1353560E-01; -2.1920320E+03;3; -1.4212886E+02;  0.0000000E+00; -7.8315134E+00;0;  9.0995347E-01;  3.3092266E+04;  0.0000000E+00;  2.4039323E+00;  4.0000000E+04;  0.0000000E+00;  3.7212629E+04;  8.2947475E-01;  0.0000000E+00;  8.0478758E-02;  2.3192996E+03;
  1.6956598E+00;  9.9999998E-03; -1.0686990E-02;10040;  1.1312335E+00;  0.0000000E+00; -8.0044521E-03;  9.9666339E+02;  1.1353483E-01; -1.9951732E+03;3; -1.4160915E+02;  0.0000000E+00;  3.1242526E+00;0;  9.7603852E-01;  3.3098902E+04;  0.0000000E+00;  6.6205651E-01;  4.0000000E+04;  0.0000000E+00;  3.7229582E+04;  8.9724314E-01;  0.0000000E+00;  7.8795351E-02;  2.5664858E+03;
  1.6956705E+00;  9.9999998E-03;  3.7658641E-08;10041;  1.1331234E+00;  0.0000000E+00;  9.2572611E-07;  9.9682477E+02;  1.1353464E-01; -1.8986399E+03;3; -1.4138976E+02;  0.0000000E+00;  6.0945749E-05;0;  9.9556017E-01;  3.3101863E+04;  0.0000000E+00;  2.4592195E-11;  4.0000000E+04;  0.0000000E+00;  3.7237918E+04;  9.1950125E-01;  0.0000000E+00;  7.6058902E-02;  2.7058303E+03;
  1.6956598E+00;  9.9999998E-03;  1.0687075E-02;10042;  1.1312352E+00;  0.0000000E+00;  8.0059497E-03;  9.9666339E+02;  1.1353484E-01; -1.9951732E+03;3; -1.4160767E+02;  0.0000000E+00; -3.1241436E+00;0;  9.7606868E-01;  3.3098902E+04;  0.0000000E+00;  6.6209203E-01;  4.0000000E+04;  0.0000000E+00;  3.7229586E+04;  8.9727342E-01;  0.0000000E+00;  7.8795239E-02;  2.5663877E+03;
  3.5244524E-03;  9.9999998E-03;  6.9966972E-02;2484; -9.0109522E-04;  0.0000000E+00;  1.7740560E-04;  9.8434039E+02;  1.0000000E-01; -1.2973707E+04;3;  7.7264290E+01;  0.0000000E+00;  1.3327931E+00;0; -5.3260192E-02;  3.8775586E+04;  0.0000000E+00; -4.0347762E-03;  4.0000000E+04;  0.0000000E+00;  3.9997594E+04; -5.5043958E-02;  0.0000000E+00;  1.7837654E-03;  1.0158187E+03;
  3.5354425E-03;  9.9999998E-03;  7.9968721E-02;2485; -8.8127801E-04;  0.0000000E+00;  1.8748884E-04;  9.8432941E+02;  1.0000000E-01; -1.2982793E+04;3;  7.7219917E+01;  0.0000000E+00;  1.2665784E+00;0; -5.3086385E-02;  3.8775133E+04;  0.0000000E+00; -5.8391374E-03;  4.0000000E+04;  0.0000000E+00;  3.9997258E+04; -5.4851018E-02;  0.0000000E+00;  1.7646338E-03;  9.6090405E+02;
  3.5451995E-03;  9.9999998E-03;  8.9973241E-02;2486; -8.6579390E-04;  0.0000000E+00;  1.9897911E-04;  9.8431683E+02;  1.0000000E-01; -1.2993213E+04;3;  7.7425911E+01;  0.0000000E+00;  1.1308348E+00;0; -5.2884795E-02;  3.8774293E+04;  0.0000000E+00; -9.5726261E-03;  4.0000000E+04;  0.0000000E+00;  3.9996906E+04; -5.4632820E-02;  0.0000000E+00;  1.7480237E-03;  9.4300861E+02;
  3.5532140E-03;  9.9999998E-03;  9.9979818E-02;2487; -8.5609494E-04;  0.0000000E+00;  2.1372327E-04;  9.8430347E+02;  1.0000000E-01; -1.3004274E+04;3;  7.7868057E+01;  0.0000000E+00;  9.1918218E-01;0; -5.2646689E-02;  3.8773070E+04;  0.0000000E+00; -1.6991673E-02;  4.0000000E+04;  0.0000000E+00;  3.9996973E+04; -5.4377712E-02;  0.0000000E+00;  1.7310225E-03;  9.5815198E+02;
  3.5586590E-03;  9.9999998E-03;  1.0998683E-01;2488; -8.5262692E-04;  0.0000000E+00;  2.3257872E-04;  9.8429028E+02;  1.0000000E-01; -1.3015188E+04;3;  7.8522156E+01;  0.0000000E+00;  6.2227696E-01;0; -5.2357677E-02;  3.8771887E+04;  0.0000000E+00; -3.0492980E-02;  4.0000000E+04;  0.0000000E+00;  3.9996953E+04; -5.4068252E-02;  0.0000000E+00;  1.7105745E-03;  9.9962964E+02;
  3.5604655E-03;  9.9999998E-03;  1.1999243E-01;2489; -8.5405813E-04;  0.0000000E+00;  2.5666799E-04;  9.8427966E+02;  1.0000000E-01; -1.3023978E+04;3;  7.9370880E+01;  0.0000000E+00;  2.2936328E-01;0; -5.1997680E-02;  3.8770828E+04;  0.0000000E+00; -5.2859548E-02;  4.0000000E+04;  0.0000000E+00;  3.9997930E+04; -5.3681843E-02;  0.0000000E+00;  1.6841617E-03;  1.0618457E+03;
  3.5574220E-03;  9.9999998E-03;  1.2999547E-01;2490; -8.5763272E-04;  0.0000000E+00;  2.8624450E-04;  9.8427930E+02;  1.0000000E-01; -1.3024323E+04;3;  8.0387413E+01;  0.0000000E+00; -2.6919019E-01;0; -5.1542383E-02;  3.8770074E+04;  0.0000000E+00; -8.6730123E-02;  4.0000000E+04;  0.0000000E+00;  3.9999035E+04; -5.3192407E-02;  0.0000000E+00;  1.6500239E-03;  1.1440105E+03;
  3.5478673E-03;  9.9999998E-03;  1.3999563E-01;2491; -8.5891032E-04;  0.0000000E+00;  3.2213621E-04;  9.8429749E+02;  1.0000000E-01; -1.3009212E+04;3;  8.1581116E+01;  0.0000000E+00; -8.8701415E-01;0; -5.0964408E-02;  3.8771031E+04;  0.0000000E+00; -1.3382396E-01;  4.0000000E+04;  0.0000000E+00;  3.9999539E+04; -5.2571144E-02;  0.0000000E+00;  1.6067349E-03;  1.2527952E+03;
  3.5297549E-03;  9.9999998E-03;  1.4999467E-01;2492; -8.5261749E-04;  0.0000000E+00;  3.6558579E-04;  9.8435205E+02;  1.0000000E-01; -1.2964028E+04;3;  8.2929077E+01;  0.0000000E+00; -1.6357088E+00;0; -5.0238181E-02;  3.8774332E+04;  0.0000000E+00; -1.9428705E-01;  4.0000000E+04;  0.0000000E+00;  4.0000996E+04; -5.1790018E-02;  0.0000000E+00;  1.5518380E-03;  1.4014207E+03;
  3.5001659E-03;  9.9999998E-03;  1.5999292E-01;2493; -8.3326251E-04;  0.0000000E+00;  4.1790021E-04;  9.8446399E+02;  1.0000000E-01; -1.2871290E+04;3;  8.4376671E+01;  0.0000000E+00; -2.5687110E+00;0; -4.9342103E-02;  3.8781789E+04;  0.0000000E+00; -2.6665002E-01;  4.0000000E+04;  0.0000000E+00;  4.0001562E+04; -5.0822034E-02;  0.0000000E+00;  1.4799327E-03;  1.6039464E+03;
  3.4541476E-03;  9.9999998E-03;  1.6998921E-01;2494; -7.9648744E-04;  0.0000000E+00;  4.7883319E-04;  9.8465131E+02;  1.0000000E-01; -1.2716085E+04;3;  8.5850777E+01;  0.0000000E+00; -3.7773104E+00;0; -4.8260551E-02;  3.8794320E+04;  0.0000000E+00; -3.4736764E-01;  4.0000000E+04;  0.0000000E+00;  4.0003875E+04; -4.9642481E-02;  0.0000000E+00;  1.3819288E-03;  1.8699001E+03;
  3.3848083E-03;  9.9999998E-03;  1.7998287E-01;2495; -7.3974859E-04;  0.0000000E+00;  5.4741214E-04;  9.8493713E+02;  1.0000000E-01; -1.2479302E+04;3;  8.7152962E+01;  0.0000000E+00; -5.3798332E+00;0; -4.6983302E-02;  3.8814105E+04;  0.0000000E+00; -4.3062165E-01;  4.0000000E+04;  0.0000000E+00;  4.0006312E+04; -4.8228934E-02;  0.0000000E+00;  1.2456321E-03;  2.1998098E+03;
  3.2848231E-03;  9.9999998E-03;  1.8997382E-01;2496; -6.6329958E-04;  0.0000000E+00;  6.2295515E-04;  9.8534387E+02;  1.0000000E-01; -1.2142323E+04;3;  8.7967545E+01;  0.0000000E+00; -7.4602094E+00;0; -4.5506854E-02;  3.8842496E+04;  0.0000000E+00; -5.0863123E-01;  4.0000000E+04;  0.0000000E+00;  4.0009984E+04; -4.6564050E-02;  0.0000000E+00;  1.0571958E-03;  2.5803770E+03;
  3.1458137E-03;  9.9999998E-03;  1.9996233E-01;2497; -5.7161500E-04;  0.0000000E+00;  7.0133788E-04;  9.8588190E+02;  1.0000000E-01; -1.1696558E+04;3;  8.7934181E+01;  0.0000000E+00; -1.0009171E+01;0; -4.3832168E-02;  3.8880754E+04;  0.0000000E+00; -5.7268965E-01;  4.0000000E+04;  0.0000000E+00;  4.0013891E+04; -4.4635892E-02;  0.0000000E+00;  8.0372457E-04;  2.9801755E+03;
  2.9618368E-03;  9.9999998E-03;  2.0994788E-01;2498; -4.7133196E-04;  0.0000000E+00;  7.7743124E-04;  9.8656897E+02;  1.0000000E-01; -1.1127340E+04;3;  8.6476219E+01;  0.0000000E+00; -1.2938442E+01;0; -4.1966263E-02;  3.8929957E+04;  0.0000000E+00; -6.1485851E-01;  4.0000000E+04;  0.0000000E+00;  4.0017375E+04; -4.2442627E-02;  0.0000000E+00;  4.7636469E-04;  3.3465251E+03;
  2.7276764E-03;  9.9999998E-03;  2.1992980E-01;2499; -3.7449473E-04;  0.0000000E+00;  8.4670243E-04;  9.8739484E+02;  1.0000000E-01; -1.0443161E+04;3;  8.3189117E+01;  0.0000000E+00; -1.5985041E+01;0; -3.9917678E-02;  3.8990883E+04;  0.0000000E+00; -6.2994814E-01;  4.0000000E+04;  0.0000000E+00;  4.0019957E+04; -3.9990913E-02;  0.0000000E+00;  7.3236763E-05;  3.6082646E+03;
  2.4437211E-03;  9.9999998E-03;  2.2990796E-01;2500; -2.9581765E-04;  0.0000000E+00;  9.0052304E-04;  9.8835547E+02;  1.0000000E-01; -9.6472822E+03;3;  7.7651276E+01;  0.0000000E+00; -1.8861767E+01;0; -3.7697248E-02;  3.9063227E+04;  0.0000000E+00; -6.1717033E-01;  4.0000000E+04;  0.0000000E+00;  4.0021203E+04; -3.7299514E-02;  0.0000000E+00; -3.9773533E-04;  3.6853430E+03;
  1.3151010E-02;  9.9999998E-03;  6.9977723E-02;2544; -1.8650328E-03;  0.0000000E+00;  2.0932769E-04;  9.8742938E+02;  1.0000000E-01; -1.0414521E+04;3;  3.5687687E+01;  0.0000000E+00;  1.1081779E+00;0; -5.8240667E-02;  3.9012805E+04;  0.0000000E+00; -6.5999832E-03;  4.0000000E+04;  0.0000000E+00;  3.9996828E+04; -6.0316220E-02;  0.0000000E+00;  2.0755543E-03;  7.4031042E+02;
  1.3158191E-02;  9.9999998E-03;  7.9979770E-02;2545; -1.8420024E-03;  0.0000000E+00;  2.2256601E-04;  9.8742920E+02;  1.0000000E-01; -1.0414668E+04;3;  3.5719547E+01;  0.0000000E+00;  1.0616660E+00;0; -5.8061264E-02;  3.9012926E+04;  0.0000000E+00; -8.9799417E-03;  4.0000000E+04;  0.0000000E+00;  3.9996707E+04; -6.0111560E-02;  0.0000000E+00;  2.0502966E-03;  7.1002051E+02;
  1.3164464E-02;  9.9999998E-03;  8.9984082E-02;2546; -1.8247532E-03;  0.0000000E+00;  2.3742580E-04;  9.8741943E+02;  1.0000000E-01; -1.0422767E+04;3;  3.6056873E+01;  0.0000000E+00;  9.5648491E-01;0; -5.7853360E-02;  3.9012332E+04;  0.0000000E+00; -1.3661488E-02;  4.0000000E+04;  0.0000000E+00;  3.9997352E+04; -5.9877411E-02;  0.0000000E+00;  2.0240522E-03;  7.1979321E+02;
  1.3169639E-02;  9.9999998E-03;  9.9990040E-02;2547; -1.8152869E-03;  0.0000000E+00;  2.5549805E-04;  9.8740961E+02;  1.0000000E-01; -1.0430915E+04;3;  3.6597645E+01;  0.0000000E+00;  7.8591132E-01;0; -5.7607930E-02;  3.9011320E+04;  0.0000000E+00; -2.2889245E-02;  4.0000000E+04;  0.0000000E+00;  3.9997727E+04; -5.9601255E-02;  0.0000000E+00;  1.9933237E-03;  7.6010016E+02;
  1.3173634E-02;  9.9999998E-03;  1.0999642E-01;2548; -1.8138922E-03;  0.0000000E+00;  2.7745665E-04;  9.8739331E+02;  1.0000000E-01; -1.0444396E+04;3;  3.7345306E+01;  0.0000000E+00;  5.3867203E-01;0; -5.7310410E-02;  3.9009629E+04;  0.0000000E+00; -3.9807387E-02;  4.0000000E+04;  0.0000000E+00;  3.9998340E+04; -5.9265435E-02;  0.0000000E+00;  1.9550268E-03;  8.1834985E+02;
  1.3176234E-02;  9.9999998E-03;  1.2000204E-01;2549; -1.8191073E-03;  0.0000000E+00;  3.0339873E-04;  9.8737329E+02;  1.0000000E-01; -1.0460988E+04;3;  3.8259491E+01;  0.0000000E+00;  2.0231037E-01;0; -5.6940120E-02;  3.9007688E+04;  0.0000000E+00; -6.8157978E-02;  4.0000000E+04;  0.0000000E+00;  3.9998430E+04; -5.8847398E-02;  0.0000000E+00;  1.9072789E-03;  8.8444800E+02;
  1.3176802E-02;  9.9999998E-03;  1.3000597E-01;2550; -1.8271562E-03;  0.0000000E+00;  3.3311310E-04;  9.8734979E+02;  1.0000000E-01; -1.0480444E+04;3;  3.9360924E+01;  0.0000000E+00; -2.3550892E-01;0; -5.6471132E-02;  3.9005594E+04;  0.0000000E+00; -1.1160901E-01;  4.0000000E+04;  0.0000000E+00;  3.9999262E+04; -5.8320690E-02;  0.0000000E+00;  1.8495565E-03;  9.5624658E+02;
  1.3174100E-02;  9.9999998E-03;  1.4000826E-01;2551; -1.8324372E-03;  0.0000000E+00;  3.6670914E-04;  9.8733588E+02;  1.0000000E-01; -1.0492000E+04;3;  4.0643200E+01;  0.0000000E+00; -7.8458458E-01;0; -5.5874642E-02;  3.9004266E+04;  0.0000000E+00; -1.7270243E-01;  4.0000000E+04;  0.0000000E+00;  3.9999047E+04; -5.7656705E-02;  0.0000000E+00;  1.7820646E-03;  1.0431289E+03;
  1.3166219E-02;  9.9999998E-03;  1.5000932E-01;2552; -1.8279324E-03;  0.0000000E+00;  4.0473003E-04;  9.8733997E+02;  1.0000000E-01; -1.0488592E+04;3;  4.2182003E+01;  0.0000000E+00; -1.4576889E+00;0; -5.5122528E-02;  3.9003895E+04;  0.0000000E+00; -2.5181872E-01;  4.0000000E+04;  0.0000000E+00;  3.9999695E+04; -5.6826569E-02;  0.0000000E+00;  1.7040400E-03;  1.1642256E+03;
  1.3150491E-02;  9.9999998E-03;  1.6000992E-01;2553; -1.8064379E-03;  0.0000000E+00;  4.4738775E-04;  9.8738080E+02;  1.0000000E-01; -1.0454766E+04;3;  4.3998882E+01;  0.0000000E+00; -2.2943757E+00;0; -5.4191552E-02;  3.9006195E+04;  0.0000000E+00; -3.4680489E-01;  4.0000000E+04;  0.0000000E+00;  4.0001406E+04; -5.5802792E-02;  0.0000000E+00;  1.6112417E-03;  1.3404153E+03;
  1.3123229E-02;  9.9999998E-03;  1.7001067E-01;2554; -1.7619221E-03;  0.0000000E+00;  4.9368892E-04;  9.8748016E+02;  1.0000000E-01; -1.0372447E+04;3;  4.6073463E+01;  0.0000000E+00; -3.3686147E+00;0; -5.3063799E-02;  3.9012434E+04;  0.0000000E+00; -4.5236933E-01;  4.0000000E+04;  0.0000000E+00;  4.0002324E+04; -5.4558713E-02;  0.0000000E+00;  1.4949151E-03;  1.5882361E+03;
  1.3077764E-02;  9.9999998E-03;  1.8001013E-01;2555; -1.6905159E-03;  0.0000000E+00;  5.4255559E-04;  9.8765582E+02;  1.0000000E-01; -1.0226921E+04;3;  4.8350197E+01;  0.0000000E+00; -4.7628431E+00;0; -5.1727101E-02;  3.9023945E+04;  0.0000000E+00; -5.5989850E-01;  4.0000000E+04;  0.0000000E+00;  4.0005121E+04; -5.3069238E-02;  0.0000000E+00;  1.3421373E-03;  1.9147225E+03;
  1.3006636E-02;  9.9999998E-03;  1.9000681E-01;2556; -1.5921838E-03;  0.0000000E+00;  5.9201178E-04;  9.8792596E+02;  1.0000000E-01; -1.0003124E+04;3;  5.0645008E+01;  0.0000000E+00; -6.5354853E+00;0; -5.0175257E-02;  3.9042012E+04;  0.0000000E+00; -6.5815091E-01;  4.0000000E+04;  0.0000000E+00;  4.0008445E+04; -5.1312633E-02;  0.0000000E+00;  1.1373762E-03;  2.3128594E+03;
  1.2901856E-02;  9.9999998E-03;  2.0000000E-01;2557; -1.4709884E-03;  0.0000000E+00;  6.4032205E-04;  9.8830786E+02;  1.0000000E-01; -9.6867383E+03;3;  5.2621998E+01;  0.0000000E+00; -8.6725321E+00;0; -4.8407629E-02;  3.9068012E+04;  0.0000000E+00; -7.3492378E-01;  4.0000000E+04;  0.0000000E+00;  4.0012508E+04; -4.9272761E-02;  0.0000000E+00;  8.6513266E-04;  2.7565469E+03;
  1.2756797E-02;  9.9999998E-03;  2.0998861E-01;2558; -1.3354064E-03;  0.0000000E+00;  6.8368885E-04;  9.8880908E+02;  1.0000000E-01; -9.2714414E+03;3;  5.3832500E+01;  0.0000000E+00; -1.1072359E+01;0; -4.6428055E-02;  3.9103207E+04;  0.0000000E+00; -7.7965647E-01;  4.0000000E+04;  0.0000000E+00;  4.0016992E+04; -4.6941608E-02;  0.0000000E+00;  5.1355356E-04;  3.1956338E+03;
  1.2565134E-02;  9.9999998E-03;  2.1997090E-01;2559; -1.1967912E-03;  0.0000000E+00;  7.2014245E-04;  9.8944000E+02;  1.0000000E-01; -8.7487402E+03;3;  5.3678169E+01;  0.0000000E+00; -1.3529046E+01;0; -4.4243064E-02;  3.9148293E+04;  0.0000000E+00; -7.8632808E-01;  4.0000000E+04;  0.0000000E+00;  4.0020453E+04; -4.4320993E-02;  0.0000000E+00;  7.7928766E-05;  3.5550623E+03;
  1.2323482E-02;  9.9999998E-03;  2.2994584E-01;2560; -1.0680483E-03;  0.0000000E+00;  7.4843812E-04;  9.9017963E+02;  1.0000000E-01; -8.1360166E+03;3;  5.1732430E+01;  0.0000000E+00; -1.5835224E+01;0; -4.1860901E-02;  3.9203211E+04;  0.0000000E+00; -7.5568861E-01;  4.0000000E+04;  0.0000000E+00;  4.0022715E+04; -4.1424632E-02;  0.0000000E+00; -4.3626898E-04;  3.7434587E+03;
  2.2754177E-02;  9.9999998E-03;  6.9986120E-02;2605; -3.0001896E-03;  0.0000000E+00;  2.3191137E-04;  9.9101959E+02;  1.0000000E-01; -7.4400859E+03;3; -3.8895619E+00;  0.0000000E+00;  8.3888829E-01;0; -6.1783068E-02;  3.9293164E+04;  0.0000000E+00; -9.3979901E-03;  4.0000000E+04;  0.0000000E+00;  3.9997688E+04; -6.4132370E-02;  0.0000000E+00;  2.3493017E-03;  4.4927911E+02;
  2.2757826E-02;  9.9999998E-03;  7.9987243E-02;2606; -2.9736632E-03;  0.0000000E+00;  2.5011579E-04;  9.9102740E+02;  1.0000000E-01; -7.4336167E+03;3; -3.7392933E+00;  0.0000000E+00;  8.1132007E-01;0; -6.1603252E-02;  3.9293441E+04;  0.0000000E+00; -1.2407776E-02;  4.0000000E+04;  0.0000000E+00;  3.9998074E+04; -6.3920900E-02;  0.0000000E+00;  2.3176484E-03;  4.5348654E+02;
  2.2760710E-02;  9.9999998E-03;  8.9989148E-02;2607; -2.9545522E-03;  0.0000000E+00;  2.7059950E-04;  9.9103113E+02;  1.0000000E-01; -7.4305552E+03;3; -3.3379543E+00;  0.0000000E+00;  7.3736465E-01;0; -6.1394915E-02;  3.9293441E+04;  0.0000000E+00; -1.7817613E-02;  4.0000000E+04;  0.0000000E+00;  3.9997781E+04; -6.3675240E-02;  0.0000000E+00;  2.2803228E-03;  5.0015738E+02;
  2.2763003E-02;  9.9999998E-03;  9.9991649E-02;2608; -2.9448897E-03;  0.0000000E+00;  2.9463985E-04;  9.9102527E+02;  1.0000000E-01; -7.4353945E+03;3; -2.7140322E+00;  0.0000000E+00;  6.0908645E-01;0; -6.1149798E-02;  3.9292555E+04;  0.0000000E+00; -2.8104194E-02;  4.0000000E+04;  0.0000000E+00;  3.9998258E+04; -6.3383073E-02;  0.0000000E+00;  2.2332736E-03;  5.7225226E+02;
  2.2765333E-02;  9.9999998E-03;  1.0999473E-01;2609; -2.9451300E-03;  0.0000000E+00;  3.2241139E-04;  9.9101239E+02;  1.0000000E-01; -7.4460610E+03;3; -1.9541888E+00;  0.0000000E+00;  4.1502902E-01;0; -6.0853183E-02;  3.9291008E+04;  0.0000000E+00; -4.6842247E-02;  4.0000000E+04;  0.0000000E+00;  3.9998926E+04; -6.3026778E-02;  0.0000000E+00;  2.1735940E-03;  6.4931567E+02;
  2.2767944E-02;  9.9999998E-03;  1.1999827E-01;2610; -2.9531347E-03;  0.0000000E+00;  3.5320420E-04;  9.9098334E+02;  1.0000000E-01; -7.4701099E+03;3; -1.0453528E+00;  0.0000000E+00;  1.4146411E-01;0; -6.0484234E-02;  3.9288184E+04;  0.0000000E+00; -7.8417145E-02;  4.0000000E+04;  0.0000000E+00;  3.9999617E+04; -6.2584601E-02;  0.0000000E+00;  2.1003685E-03;  7.1533057E+02;
  2.2771273E-02;  9.9999998E-03;  1.3000162E-01;2611; -2.9644039E-03;  0.0000000E+00;  3.8581397E-04;  9.9094397E+02;  1.0000000E-01; -7.5027510E+03;3; -1.0476965E-02;  0.0000000E+00; -2.2579871E-01;0; -6.0016263E-02;  3.9284793E+04;  0.0000000E+00; -1.2727816E-01;  4.0000000E+04;  0.0000000E+00;  3.9999973E+04; -6.2031053E-02;  0.0000000E+00;  2.0147890E-03;  7.6660260E+02;
  2.2774516E-02;  9.9999998E-03;  1.4000453E-01;2612; -2.9718706E-03;  0.0000000E+00;  4.1941687E-04;  9.9089734E+02;  1.0000000E-01; -7.5413672E+03;3;  1.2158418E+00;  0.0000000E+00; -6.9808424E-01;0; -5.9419341E-02;  3.9281023E+04;  0.0000000E+00; -1.9671421E-01;  4.0000000E+04;  0.0000000E+00;  3.9999387E+04; -6.1338592E-02;  0.0000000E+00;  1.9192516E-03;  8.1707526E+02;
  2.2776177E-02;  9.9999998E-03;  1.5000726E-01;2613; -2.9666517E-03;  0.0000000E+00;  4.5389187E-04;  9.9085199E+02;  1.0000000E-01; -7.5789463E+03;3;  2.7363834E+00;  0.0000000E+00; -1.2866663E+00;0; -5.8664035E-02;  3.9277418E+04;  0.0000000E+00; -2.8746453E-01;  4.0000000E+04;  0.0000000E+00;  4.0000348E+04; -6.0479306E-02;  0.0000000E+00;  1.8152717E-03;  8.9532520E+02;
  2.2774054E-02;  9.9999998E-03;  1.6001026E-01;2614; -2.9394249E-03;  0.0000000E+00;  4.8892526E-04;  9.9082220E+02;  1.0000000E-01; -7.6036367E+03;3;  4.6481271E+00;  0.0000000E+00; -2.0179639E+00;0; -5.7725340E-02;  3.9274816E+04;  0.0000000E+00; -3.9704818E-01;  4.0000000E+04;  0.0000000E+00;  4.0000703E+04; -5.9425712E-02;  0.0000000E+00;  1.7003734E-03;  1.0305580E+03;
  2.2764675E-02;  9.9999998E-03;  1.7001428E-01;2615; -2.8819623E-03;  0.0000000E+00;  5.2379066E-04;  9.9082996E+02;  1.0000000E-01; -7.5972173E+03;3;  7.0044866E+00;  0.0000000E+00; -2.9376273E+00;0; -5.6583956E-02;  3.9274504E+04;  0.0000000E+00; -5.1905960E-01;  4.0000000E+04;  0.0000000E+00;  4.0002328E+04; -5.8150474E-02;  0.0000000E+00;  1.5665169E-03;  1.2422791E+03;
  2.2742266E-02;  9.9999998E-03;  1.8001966E-01;2616; -2.7885714E-03;  0.0000000E+00;  5.5771705E-04;  9.9088525E+02;  1.0000000E-01; -7.5513916E+03;3;  9.8855734E+00;  0.0000000E+00; -4.0969267E+00;0; -5.5226006E-02;  3.9277203E+04;  0.0000000E+00; -6.4305669E-01;  4.0000000E+04;  0.0000000E+00;  4.0003438E+04; -5.6626230E-02;  0.0000000E+00;  1.4002239E-03;  1.5397218E+03;
  2.2699099E-02;  9.9999998E-03;  1.9002533E-01;2617; -2.6577434E-03;  0.0000000E+00;  5.9056672E-04;  9.9101105E+02;  1.0000000E-01; -7.4471968E+03;3;  1.3182321E+01;  0.0000000E+00; -5.5181694E+00;0; -5.3643461E-02;  3.9284277E+04;  0.0000000E+00; -7.5552052E-01;  4.0000000E+04;  0.0000000E+00;  4.0006121E+04; -5.4827563E-02;  0.0000000E+00;  1.1841035E-03;  1.9238905E+03;
  2.2626162E-02;  9.9999998E-03;  2.0002919E-01;2618; -2.4930667E-03;  0.0000000E+00;  6.2147505E-04;  9.9122235E+02;  1.0000000E-01; -7.2721401E+03;3;  1.6665514E+01;  0.0000000E+00; -7.1605673E+00;0; -5.1833153E-02;  3.9296984E+04;  0.0000000E+00; -8.4195477E-01;  4.0000000E+04;  0.0000000E+00;  4.0010746E+04; -5.2732937E-02;  0.0000000E+00;  8.9978398E-04;  2.3808416E+03;
  2.2515604E-02;  9.9999998E-03;  2.1002927E-01;2619; -2.3033156E-03;  0.0000000E+00;  6.4917631E-04;  9.9152582E+02;  1.0000000E-01; -7.0206904E+03;3;  1.9964626E+01;  0.0000000E+00; -8.8994284E+00;0; -4.9796212E-02;  3.9316457E+04;  0.0000000E+00; -8.9006126E-01;  4.0000000E+04;  0.0000000E+00;  4.0015078E+04; -5.0328046E-02;  0.0000000E+00;  5.3183245E-04;  2.8702397E+03;
  2.2360859E-02;  9.9999998E-03;  2.2002287E-01;2620; -2.1018232E-03;  0.0000000E+00;  6.7107170E-04;  9.9192938E+02;  1.0000000E-01; -6.6863296E+03;3;  2.2524233E+01;  0.0000000E+00; -1.0549758E+01;0; -4.7535948E-02;  3.9343277E+04;  0.0000000E+00; -8.9326257E-01;  4.0000000E+04;  0.0000000E+00;  4.0018879E+04; -4.7608100E-02;  0.0000000E+00;  7.2149618E-05;  3.3185024E+03;
  2.2155991E-02;  9.9999998E-03;  2.3000717E-01;2621; -1.9035008E-03;  0.0000000E+00;  6.8633887E-04;  9.9242377E+02;  1.0000000E-01; -6.2767607E+03;3;  2.3810265E+01;  0.0000000E+00; -1.1947601E+01;0; -4.5057129E-02;  3.9378266E+04;  0.0000000E+00; -8.5342771E-01;  4.0000000E+04;  0.0000000E+00;  4.0022438E+04; -4.4580866E-02;  0.0000000E+00; -4.7626189E-04;  3.6252234E+03;
  3.2375176E-02;  9.9999998E-03;  6.9994271E-02;2666; -4.1592708E-03;  0.0000000E+00;  2.4702173E-04;  9.9464868E+02;  1.0000000E-01; -4.4334551E+03;3; -3.3345043E+01;  0.0000000E+00;  5.9887791E-01;0; -6.3831158E-02;  3.9580195E+04;  0.0000000E+00; -1.1270512E-02;  4.0000000E+04;  0.0000000E+00;  3.9997738E+04; -6.6424794E-02;  0.0000000E+00;  2.5936370E-03;  1.8812132E+02;
  3.2375593E-02;  9.9999998E-03;  7.9994492E-02;2667; -4.1295374E-03;  0.0000000E+00;  2.7040436E-04;  9.9466260E+02;  1.0000000E-01; -4.4219492E+03;3; -3.3085720E+01;  0.0000000E+00;  5.8371049E-01;0; -6.3654333E-02;  3.9581074E+04;  0.0000000E+00; -1.4875419E-02;  4.0000000E+04;  0.0000000E+00;  3.9998355E+04; -6.6209868E-02;  0.0000000E+00;  2.5555314E-03;  2.3364575E+02;
  3.2375436E-02;  9.9999998E-03;  8.9994445E-02;2668; -4.1085198E-03;  0.0000000E+00;  2.9700782E-04;  9.9466992E+02;  1.0000000E-01; -4.4158750E+03;3; -3.2584156E+01;  0.0000000E+00;  5.3356433E-01;0; -6.3450612E-02;  3.9581344E+04;  0.0000000E+00; -2.0768451E-02;  4.0000000E+04;  0.0000000E+00;  3.9999293E+04; -6.5956637E-02;  0.0000000E+00;  2.5060263E-03;  3.2402228E+02;
  3.2375246E-02;  9.9999998E-03;  9.9994160E-02;2669; -4.0985821E-03;  0.0000000E+00;  3.2783172E-04;  9.9467609E+02;  1.0000000E-01; -4.4107393E+03;3; -3.1955328E+01;  0.0000000E+00;  4.4071054E-01;0; -6.3212216E-02;  3.9580688E+04;  0.0000000E+00; -3.1315502E-02;  4.0000000E+04;  0.0000000E+00;  3.9999820E+04; -6.5652803E-02;  0.0000000E+00;  2.4405885E-03;  4.3348181E+02;
  3.2376170E-02;  9.9999998E-03;  1.0999407E-01;2670; -4.0998464E-03;  0.0000000E+00;  3.6225628E-04;  9.9466693E+02;  1.0000000E-01; -4.4183442E+03;3; -3.1215506E+01;  0.0000000E+00;  2.9430872E-01;0; -6.2925190E-02;  3.9579117E+04;  0.0000000E+00; -5.0046623E-02;  4.0000000E+04;  0.0000000E+00;  4.0000859E+04; -6.5281883E-02;  0.0000000E+00;  2.3566908E-03;  5.3202380E+02;
  3.2379068E-02;  9.9999998E-03;  1.1999435E-01;2671; -4.1097687E-03;  0.0000000E+00;  3.9851249E-04;  9.9463562E+02;  1.0000000E-01; -4.4442695E+03;3; -3.0393187E+01;  0.0000000E+00;  8.0877751E-02;0; -6.2568650E-02;  3.9575949E+04;  0.0000000E+00; -8.1401713E-02;  4.0000000E+04;  0.0000000E+00;  4.0001344E+04; -6.4823426E-02;  0.0000000E+00;  2.2547778E-03;  5.9591321E+02;
  3.2385025E-02;  9.9999998E-03;  1.2999517E-01;2672; -4.1229865E-03;  0.0000000E+00;  4.3414495E-04;  9.9458405E+02;  1.0000000E-01; -4.4870337E+03;3; -2.9499615E+01;  0.0000000E+00; -2.1350470E-01;0; -6.2115718E-02;  3.9571902E+04;  0.0000000E+00; -1.2999782E-01;  4.0000000E+04;  0.0000000E+00;  4.0001332E+04; -6.4253911E-02;  0.0000000E+00;  2.1381935E-03;  6.1867407E+02;
  3.2394107E-02;  9.9999998E-03;  1.3999638E-01;2673; -4.1312021E-03;  0.0000000E+00;  4.6718461E-04;  9.9451233E+02;  1.0000000E-01; -4.5464395E+03;3; -2.8454533E+01;  0.0000000E+00; -6.0057765E-01;0; -6.1535768E-02;  3.9566484E+04;  0.0000000E+00; -1.9940303E-01;  4.0000000E+04;  0.0000000E+00;  4.0000414E+04; -6.3547805E-02;  0.0000000E+00;  2.0120377E-03;  6.2084619E+02;
  3.2405067E-02;  9.9999998E-03;  1.4999817E-01;2674; -4.1240272E-03;  0.0000000E+00;  4.9697177E-04;  9.9442535E+02;  1.0000000E-01; -4.6184868E+03;3; -2.7124407E+01;  0.0000000E+00; -1.0869453E+00;0; -6.0798168E-02;  3.9560410E+04;  0.0000000E+00; -2.9052597E-01;  4.0000000E+04;  0.0000000E+00;  4.0000055E+04; -6.2678866E-02;  0.0000000E+00;  1.8806995E-03;  6.4727753E+02;
  3.2415535E-02;  9.9999998E-03;  1.6000119E-01;2675; -4.0903781E-03;  0.0000000E+00;  5.2331056E-04;  9.9433954E+02;  1.0000000E-01; -4.6895957E+03;3; -2.5390081E+01;  0.0000000E+00; -1.6786525E+00;0; -5.9876576E-02;  3.9553508E+04;  0.0000000E+00; -4.0074468E-01;  4.0000000E+04;  0.0000000E+00;  3.9999672E+04; -6.1620563E-02;  0.0000000E+00;  1.7439872E-03;  7.3880670E+02;
  3.2422218E-02;  9.9999998E-03;  1.7000614E-01;2676; -4.0199212E-03;  0.0000000E+00;  5.4663763E-04;  9.9426105E+02;  1.0000000E-01; -4.7546309E+03;3; -2.3058214E+01;  0.0000000E+00; -2.3856397E+00;0; -5.8750216E-02;  3.9547078E+04;  0.0000000E+00; -5.2334279E-01;  4.0000000E+04;  0.0000000E+00;  3.9999793E+04; -6.0345240E-02;  0.0000000E+00;  1.5950245E-03;  9.0560938E+02;
  3.2419980E-02;  9.9999998E-03;  1.8001369E-01;2677; -3.9052593E-03;  0.0000000E+00;  5.6739821E-04;  9.9421045E+02;  1.0000000E-01; -4.7965557E+03;3; -2.0047318E+01;  0.0000000E+00; -3.2195654E+00;0; -5.7404391E-02;  3.9541574E+04;  0.0000000E+00; -6.4752889E-01;  4.0000000E+04;  0.0000000E+00;  4.0001648E+04; -5.8824472E-02;  0.0000000E+00;  1.4200803E-03;  1.1448768E+03;
  3.2401361E-02;  9.9999998E-03;  1.9002372E-01;2678; -3.7430190E-03;  0.0000000E+00;  5.8805087E-04;  9.9419897E+02;  1.0000000E-01; -4.8060371E+03;3; -1.6316101E+01;  0.0000000E+00; -4.1668377E+00;0; -5.5829857E-02;  3.9538215E+04;  0.0000000E+00; -7.5956464E-01;  4.0000000E+04;  0.0000000E+00;  4.0003922E+04; -5.7029966E-02;  0.0000000E+00;  1.2001089E-03;  1.4675507E+03;
  3.2358404E-02;  9.9999998E-03;  2.0003487E-01;2679; -3.5359948E-03;  0.0000000E+00;  6.0900918E-04;  9.9424323E+02;  1.0000000E-01; -4.7693960E+03;3; -1.2012593E+01;  0.0000000E+00; -5.1629362E+00;0; -5.4021910E-02;  3.9537773E+04;  0.0000000E+00; -8.4504831E-01;  4.0000000E+04;  0.0000000E+00;  4.0008031E+04; -5.4935664E-02;  0.0000000E+00;  9.1375294E-04;  1.8871277E+03;
  3.2281239E-02;  9.9999998E-03;  2.1004426E-01;2680; -3.2938325E-03;  0.0000000E+00;  6.2754040E-04;  9.9435724E+02;  1.0000000E-01; -4.6749297E+03;3; -7.4672785E+00;  0.0000000E+00; -6.0762296E+00;0; -5.1978659E-02;  3.9541723E+04;  0.0000000E+00; -8.9210236E-01;  4.0000000E+04;  0.0000000E+00;  4.0012246E+04; -5.2520283E-02;  0.0000000E+00;  5.4162246E-04;  2.3865471E+03;
  3.2161914E-02;  9.9999998E-03;  2.2004879E-01;2681; -3.0306666E-03;  0.0000000E+00;  6.4217404E-04;  9.9453583E+02;  1.0000000E-01; -4.5269829E+03;3; -3.0905094E+00;  0.0000000E+00; -6.7387552E+00;0; -4.9700730E-02;  3.9550668E+04;  0.0000000E+00; -8.9485884E-01;  4.0000000E+04;  0.0000000E+00;  4.0017141E+04; -4.9771931E-02;  0.0000000E+00;  7.1200193E-05;  2.8996858E+03;
  3.1992957E-02;  9.9999998E-03;  2.3004434E-01;2682; -2.7636909E-03;  0.0000000E+00;  6.5047893E-04;  9.9478424E+02;  1.0000000E-01; -4.3211616E+03;3;  5.2918959E-01;  0.0000000E+00; -7.0310559E+00;0; -4.7189731E-02;  3.9565305E+04;  0.0000000E+00; -8.5622251E-01;  4.0000000E+04;  0.0000000E+00;  4.0021180E+04; -4.6691615E-02;  0.0000000E+00; -4.9811625E-04;  3.3175300E+03;
  4.2032413E-02;  9.9999998E-03;  7.0001453E-02;2727; -5.2252389E-03;  0.0000000E+00;  2.5511163E-04;  9.9789954E+02;  1.0000000E-01; -1.7401978E+03;3; -4.9145592E+01;  0.0000000E+00;  4.0753219E-01;0; -6.4454190E-02;  3.9841336E+04;  0.0000000E+00; -1.0941396E-02;  4.0000000E+04;  0.0000000E+00;  3.9998719E+04; -6.7252293E-02;  0.0000000E+00;  2.7981051E-03;  1.7041765E+01;
  4.2029981E-02;  9.9999998E-03;  8.0002002E-02;2728; -5.1929583E-03;  0.0000000E+00;  2.8355376E-04;  9.9791907E+02;  1.0000000E-01; -1.7240006E+03;3; -4.8824726E+01;  0.0000000E+00;  3.9999351E-01;0; -6.4282089E-02;  3.9842398E+04;  0.0000000E+00; -1.4922278E-02;  4.0000000E+04;  0.0000000E+00;  3.9999520E+04; -6.7035682E-02;  0.0000000E+00;  2.7535963E-03;  8.5196808E+01;
  4.2026952E-02;  9.9999998E-03;  9.0001635E-02;2729; -5.1705753E-03;  0.0000000E+00;  3.1670442E-04;  9.9794397E+02;  1.0000000E-01; -1.7033593E+03;3; -4.8342060E+01;  0.0000000E+00;  3.6719441E-01;0; -6.4085580E-02;  3.9842840E+04;  0.0000000E+00; -2.1007862E-02;  4.0000000E+04;  0.0000000E+00;  4.0000500E+04; -6.6776767E-02;  0.0000000E+00;  2.6911844E-03;  2.2180180E+02;
  4.2024884E-02;  9.9999998E-03;  1.0000017E-01;2730; -5.1602777E-03;  0.0000000E+00;  3.5505646E-04;  9.9795660E+02;  1.0000000E-01; -1.6928904E+03;3; -4.7715965E+01;  0.0000000E+00;  3.0274189E-01;0; -6.3858025E-02;  3.9842785E+04;  0.0000000E+00; -3.1153541E-02;  4.0000000E+04;  0.0000000E+00;  4.0001555E+04; -6.6463962E-02;  0.0000000E+00;  2.6059409E-03;  3.7218179E+02;
  4.2025030E-02;  9.9999998E-03;  1.0999774E-01;2731; -5.1621157E-03;  0.0000000E+00;  3.9703681E-04;  9.9795264E+02;  1.0000000E-01; -1.6961990E+03;3; -4.7033207E+01;  0.0000000E+00;  1.9658667E-01;0; -6.3586727E-02;  3.9841230E+04;  0.0000000E+00; -4.8331086E-02;  4.0000000E+04;  0.0000000E+00;  4.0002961E+04; -6.6082679E-02;  0.0000000E+00;  2.4959501E-03;  4.9487268E+02;
  4.2028677E-02;  9.9999998E-03;  1.1999456E-01;2732; -5.1731337E-03;  0.0000000E+00;  4.3923664E-04;  9.9792468E+02;  1.0000000E-01; -1.7193588E+03;3; -4.6339333E+01;  0.0000000E+00;  3.6557227E-02;0; -6.3251190E-02;  3.9838574E+04;  0.0000000E+00; -7.6323435E-02;  4.0000000E+04;  0.0000000E+00;  4.0003738E+04; -6.5614551E-02;  0.0000000E+00;  2.3633607E-03;  5.5613025E+02;
  4.2037405E-02;  9.9999998E-03;  1.2999135E-01;2733; -5.1872362E-03;  0.0000000E+00;  4.7814849E-04;  9.9786823E+02;  1.0000000E-01; -1.7661229E+03;3; -4.5630962E+01;  0.0000000E+00; -1.8865640E-01;0; -6.2824763E-02;  3.9834441E+04;  0.0000000E+00; -1.1907159E-01;  4.0000000E+04;  0.0000000E+00;  4.0002602E+04; -6.5038852E-02;  0.0000000E+00;  2.2140886E-03;  5.4397369E+02;
  4.2051971E-02;  9.9999998E-03;  1.3998902E-01;2734; -5.1952712E-03;  0.0000000E+00;  5.1127112E-04;  9.9778278E+02;  1.0000000E-01; -1.8369357E+03;3; -4.4837395E+01;  0.0000000E+00; -4.8862907E-01;0; -6.2276337E-02;  3.9828289E+04;  0.0000000E+00; -1.7956714E-01;  4.0000000E+04;  0.0000000E+00;  4.0002418E+04; -6.4332686E-02;  0.0000000E+00;  2.0563484E-03;  4.8464319E+02;
  4.2071544E-02;  9.9999998E-03;  1.4998817E-01;2735; -5.1858020E-03;  0.0000000E+00;  5.3714466E-04;  9.9766809E+02;  1.0000000E-01; -1.9319453E+03;3; -4.3804943E+01;  0.0000000E+00; -8.6632782E-01;0; -6.1574493E-02;  3.9820477E+04;  0.0000000E+00; -2.5827128E-01;  4.0000000E+04;  0.0000000E+00;  4.0000285E+04; -6.3472323E-02;  0.0000000E+00;  1.8978318E-03;  4.5348328E+02;
  4.2093635E-02;  9.9999998E-03;  1.5998912E-01;2736; -5.1465104E-03;  0.0000000E+00;  5.5525027E-04;  9.9753613E+02;  1.0000000E-01; -2.0412756E+03;3; -4.2377590E+01;  0.0000000E+00; -1.3072780E+00;0; -6.0691591E-02;  3.9810727E+04;  0.0000000E+00; -3.5220340E-01;  4.0000000E+04;  0.0000000E+00;  3.9999781E+04; -6.2432699E-02;  0.0000000E+00;  1.7411080E-03;  5.1986371E+02;
  4.2114753E-02;  9.9999998E-03;  1.6999342E-01;2737; -5.0657485E-03;  0.0000000E+00;  5.6617206E-04;  9.9739612E+02;  1.0000000E-01; -2.1572722E+03;3; -4.0363232E+01;  0.0000000E+00; -1.7860539E+00;0; -5.9606157E-02;  3.9799602E+04;  0.0000000E+00; -4.5486531E-01;  4.0000000E+04;  0.0000000E+00;  3.9998891E+04; -6.1186962E-02;  0.0000000E+00;  1.5808037E-03;  6.5426489E+02;
  4.2129587E-02;  9.9999998E-03;  1.8000133E-01;2738; -4.9346848E-03;  0.0000000E+00;  5.7170156E-04;  9.9725720E+02;  1.0000000E-01; -2.2723801E+03;3; -3.7590080E+01;  0.0000000E+00; -2.2738423E+00;0; -5.8302514E-02;  3.9787852E+04;  0.0000000E+00; -5.5668944E-01;  4.0000000E+04;  0.0000000E+00;  3.9999402E+04; -5.9705868E-02;  0.0000000E+00;  1.4033541E-03;  8.0743988E+02;
  4.2131208E-02;  9.9999998E-03;  1.9001262E-01;2739; -4.7487090E-03;  0.0000000E+00;  5.7602348E-04;  9.9713403E+02;  1.0000000E-01; -2.3744021E+03;3; -3.3990185E+01;  0.0000000E+00; -2.7224457E+00;0; -5.6770310E-02;  3.9775621E+04;  0.0000000E+00; -6.4626974E-01;  4.0000000E+04;  0.0000000E+00;  4.0001207E+04; -5.7958759E-02;  0.0000000E+00;  1.1884514E-03;  1.0024551E+03;
  4.2112086E-02;  9.9999998E-03;  2.0002663E-01;2740; -4.5092735E-03;  0.0000000E+00;  5.8295851E-04;  9.9703778E+02;  1.0000000E-01; -2.4541528E+03;3; -2.9614780E+01;  0.0000000E+00; -3.0420439E+00;0; -5.5003557E-02;  3.9763895E+04;  0.0000000E+00; -7.1246618E-01;  4.0000000E+04;  0.0000000E+00;  4.0005430E+04; -5.5915397E-02;  0.0000000E+00;  9.1183826E-04;  1.3158911E+03;
  4.2064071E-02;  9.9999998E-03;  2.1004142E-01;2741; -4.2235381E-03;  0.0000000E+00;  5.9625064E-04;  9.9697858E+02;  1.0000000E-01; -2.5031885E+03;3; -2.4673248E+01;  0.0000000E+00; -3.0811987E+00;0; -5.2999429E-02;  3.9753688E+04;  0.0000000E+00; -7.4691296E-01;  4.0000000E+04;  0.0000000E+00;  4.0009289E+04; -5.3549003E-02;  0.0000000E+00;  5.4957328E-04;  1.7822762E+03;
  4.1977160E-02;  9.9999998E-03;  2.2005270E-01;2742; -3.9057941E-03;  0.0000000E+00;  6.1454222E-04;  9.9696124E+02;  1.0000000E-01; -2.5175583E+03;3; -1.9538553E+01;  0.0000000E+00; -2.6768651E+00;0; -5.0756656E-02;  3.9746172E+04;  0.0000000E+00; -7.4692667E-01;  4.0000000E+04;  0.0000000E+00;  4.0014766E+04; -5.0840415E-02;  0.0000000E+00;  8.3759835E-05;  2.3404702E+03;
  4.1842341E-02;  9.9999998E-03;  2.3005638E-01;2743; -3.5759355E-03;  0.0000000E+00;  6.3014025E-04;  9.9698254E+02;  1.0000000E-01; -2.4999292E+03;3; -1.4690103E+01;  0.0000000E+00; -1.7725645E+00;0; -4.8273984E-02;  3.9742254E+04;  0.0000000E+00; -7.1734935E-01;  4.0000000E+04;  0.0000000E+00;  4.0019574E+04; -4.7782823E-02;  0.0000000E+00; -4.9116259E-04;  2.8624885E+03;
  5.1737193E-02;  9.9999998E-03;  7.0009187E-02;2788; -6.1296900E-03;  0.0000000E+00;  2.5667073E-04;  1.0004924E+03;  1.0000000E-01;  4.0798846E+02;3; -5.2288273E+01;  0.0000000E+00;  2.6667720E-01;0; -6.3831426E-02;  4.0051715E+04;  0.0000000E+00; -7.8446614E-03;  4.0000000E+04;  0.0000000E+00;  3.9999875E+04; -6.6785425E-02;  0.0000000E+00;  2.9539966E-03;  1.0604715E+02;
  5.1733211E-02;  9.9999998E-03;  8.0011338E-02;2789; -6.0958937E-03;  0.0000000E+00;  2.8995620E-04;  1.0005159E+03;  1.0000000E-01;  4.2744470E+02;3; -5.1957283E+01;  0.0000000E+00;  2.6351559E-01;0; -6.3663483E-02;  4.0052562E+04;  0.0000000E+00; -1.1757252E-02;  4.0000000E+04;  0.0000000E+00;  4.0000520E+04; -6.6566609E-02;  0.0000000E+00;  2.9031287E-03;  3.0915632E+01;
  5.1728766E-02;  9.9999998E-03;  9.0012103E-02;2790; -6.0725841E-03;  0.0000000E+00;  3.2978997E-04;  1.0005460E+03;  1.0000000E-01;  4.5233289E+02;3; -5.1484680E+01;  0.0000000E+00;  2.4319282E-01;0; -6.3474275E-02;  4.0053324E+04;  0.0000000E+00; -1.7648783E-02;  4.0000000E+04;  0.0000000E+00;  4.0001863E+04; -6.6301681E-02;  0.0000000E+00;  2.8274066E-03;  2.1217230E+02;
  5.1725388E-02;  9.9999998E-03;  1.0001089E-01;2791; -6.0619744E-03;  0.0000000E+00;  3.7614821E-04;  1.0005664E+03;  1.0000000E-01;  4.6922128E+02;3; -5.0909996E+01;  0.0000000E+00;  2.0014086E-01;0; -6.3258924E-02;  4.0053527E+04;  0.0000000E+00; -2.6886901E-02;  4.0000000E+04;  0.0000000E+00;  4.0003863E+04; -6.5980524E-02;  0.0000000E+00;  2.7216021E-03;  4.0530042E+02;
  5.1725622E-02;  9.9999998E-03;  1.1000716E-01;2792; -6.0639475E-03;  0.0000000E+00;  4.2623689E-04;  1.0005704E+03;  1.0000000E-01;  4.7257922E+02;3; -5.0317280E+01;  0.0000000E+00;  1.2602216E-01;0; -6.3005902E-02;  4.0052758E+04;  0.0000000E+00; -4.1498531E-02;  4.0000000E+04;  0.0000000E+00;  4.0004977E+04; -6.5590560E-02;  0.0000000E+00;  2.5846593E-03;  5.5453223E+02;
  5.1731136E-02;  9.9999998E-03;  1.2000082E-01;2793; -6.0751634E-03;  0.0000000E+00;  4.7456095E-04;  1.0005541E+03;  1.0000000E-01;  4.5904874E+02;3; -4.9776638E+01;  0.0000000E+00;  1.1012289E-02;0; -6.2696137E-02;  4.0050941E+04;  0.0000000E+00; -6.3994467E-02;  4.0000000E+04;  0.0000000E+00;  4.0005555E+04; -6.5116860E-02;  0.0000000E+00;  2.4207258E-03;  6.1462573E+02;
  5.1743206E-02;  9.9999998E-03;  1.2999330E-01;2794; -6.0890745E-03;  0.0000000E+00;  5.1732565E-04;  1.0005059E+03;  1.0000000E-01;  4.1904987E+02;3; -4.9275074E+01;  0.0000000E+00; -1.5309998E-01;0; -6.2303625E-02;  4.0047117E+04;  0.0000000E+00; -9.6799307E-02;  4.0000000E+04;  0.0000000E+00;  4.0005055E+04; -6.4542249E-02;  0.0000000E+00;  2.2386224E-03;  5.6438708E+02;
  5.1762924E-02;  9.9999998E-03;  1.3998629E-01;2795; -6.0958639E-03;  0.0000000E+00;  5.5065210E-04;  1.0004182E+03;  1.0000000E-01;  3.4645935E+02;3; -4.8733234E+01;  0.0000000E+00; -3.7403971E-01;0; -6.1797503E-02;  4.0041508E+04;  0.0000000E+00; -1.4132601E-01;  4.0000000E+04;  0.0000000E+00;  4.0002914E+04; -6.3847460E-02;  0.0000000E+00;  2.0499579E-03;  4.2655734E+02;
  5.1789906E-02;  9.9999998E-03;  1.4998135E-01;2796; -6.0836328E-03;  0.0000000E+00;  5.7246629E-04;  1.0002980E+03;  1.0000000E-01;  2.4690660E+02;3; -4.8039917E+01;  0.0000000E+00; -6.5205616E-01;0; -6.1145935E-02;  4.0033320E+04;  0.0000000E+00; -1.9667935E-01;  4.0000000E+04;  0.0000000E+00;  4.0002086E+04; -6.3011967E-02;  0.0000000E+00;  1.8660314E-03;  3.1158243E+02;
  5.1821548E-02;  9.9999998E-03;  1.5997910E-01;2797; -6.0393284E-03;  0.0000000E+00;  5.8176310E-04;  1.0001423E+03;  1.0000000E-01;  1.1782383E+02;3; -4.6993317E+01;  0.0000000E+00; -9.5434362E-01;0; -6.0320787E-02;  4.0022543E+04;  0.0000000E+00; -2.5885972E-01;  4.0000000E+04;  0.0000000E+00;  3.9999223E+04; -6.2013261E-02;  0.0000000E+00;  1.6924734E-03;  3.8731281E+02;
  5.1854152E-02;  9.9999998E-03;  1.6998048E-01;2798; -5.9508579E-03;  0.0000000E+00;  5.8053789E-04;  9.9996210E+02;  1.0000000E-01; -3.1406519E+01;3; -4.5414604E+01;  0.0000000E+00; -1.2205904E+00;0; -5.9299886E-02;  4.0008941E+04;  0.0000000E+00; -3.2158530E-01;  4.0000000E+04;  0.0000000E+00;  3.9997082E+04; -6.0825702E-02;  0.0000000E+00;  1.5258142E-03;  5.3902100E+02;
  5.1882260E-02;  9.9999998E-03;  1.7998718E-01;2799; -5.8087744E-03;  0.0000000E+00;  5.7203014E-04;  9.9976337E+02;  1.0000000E-01; -1.9604384E+02;3; -4.3126316E+01;  0.0000000E+00; -1.3847120E+00;0; -5.8066644E-02;  3.9992500E+04;  0.0000000E+00; -3.7755814E-01;  4.0000000E+04;  0.0000000E+00;  3.9997223E+04; -5.9419721E-02;  0.0000000E+00;  1.3530771E-03;  6.1479150E+02;
  5.1898815E-02;  9.9999998E-03;  1.8999834E-01;2800; -5.6075132E-03;  0.0000000E+00;  5.6139583E-04;  9.9956097E+02;  1.0000000E-01; -3.6374280E+02;3; -4.0042286E+01;  0.0000000E+00; -1.3670298E+00;0; -5.6609657E-02;  3.9974039E+04;  0.0000000E+00; -4.2002404E-01;  4.0000000E+04;  0.0000000E+00;  3.9998926E+04; -5.7762593E-02;  0.0000000E+00;  1.1529373E-03;  6.0612421E+02;
  5.1896393E-02;  9.9999998E-03;  2.0001327E-01;2801; -5.3463858E-03;  0.0000000E+00;  5.5589317E-04;  9.9935938E+02;  1.0000000E-01; -5.3075043E+02;3; -3.6141846E+01;  0.0000000E+00; -1.0544196E+00;0; -5.4921538E-02;  3.9953828E+04;  0.0000000E+00; -4.4426033E-01;  4.0000000E+04;  0.0000000E+00;  4.0001641E+04; -5.5819631E-02;  0.0000000E+00;  8.9809136E-04;  7.0055762E+02;
  5.1868699E-02;  9.9999998E-03;  2.1003051E-01;2802; -5.0331815E-03;  0.0000000E+00;  5.5828009E-04;  9.9916809E+02;  1.0000000E-01; -6.8921509E+02;3; -3.1567928E+01;  0.0000000E+00; -2.9466611E-01;0; -5.2997850E-02;  3.9932824E+04;  0.0000000E+00; -4.4886306E-01;  4.0000000E+04;  0.0000000E+00;  4.0006613E+04; -5.3557441E-02;  0.0000000E+00;  5.5958959E-04;  1.1084874E+03;
  5.1807567E-02;  9.9999998E-03;  2.2004674E-01;2803; -4.6786726E-03;  0.0000000E+00;  5.7421537E-04;  9.9898914E+02;  1.0000000E-01; -8.3745782E+02;3; -2.6575109E+01;  0.0000000E+00;  1.0702401E+00;0; -5.0836660E-02;  3.9911973E+04;  0.0000000E+00; -4.3736526E-01;  4.0000000E+04;  0.0000000E+00;  4.0012281E+04; -5.0950263E-02;  0.0000000E+00;  1.1360180E-04;  1.7258759E+03;
  5.1702335E-02;  9.9999998E-03;  2.3005611E-01;2804; -4.3020579E-03;  0.0000000E+00;  5.9818715E-04;  9.9883295E+02;  1.0000000E-01; -9.6688623E+02;3; -2.1595028E+01;  0.0000000E+00;  3.0830986E+00;0; -4.8435096E-02;  3.9892758E+04;  0.0000000E+00; -4.1871008E-01;  4.0000000E+04;  0.0000000E+00;  4.0017219E+04; -4.7983982E-02;  0.0000000E+00; -4.5111257E-04;  2.3590752E+03;
  6.1497305E-02;  9.9999998E-03;  7.0018873E-02;2849; -6.8530920E-03;  0.0000000E+00;  2.5249048E-04;  1.0022634E+03;  1.0000000E-01;  1.8751074E+03;3; -4.6421314E+01;  0.0000000E+00;  1.6926162E-01;0; -6.2243834E-02;  4.0196551E+04;  0.0000000E+00; -2.7537572E-03;  4.0000000E+04;  0.0000000E+00;  4.0000859E+04; -6.5298602E-02;  0.0000000E+00;  3.0547665E-03;  9.3686295E+01;
  6.1493196E-02;  9.9999998E-03;  8.0023631E-02;2850; -6.8186605E-03;  0.0000000E+00;  2.9028222E-04;  1.0022888E+03;  1.0000000E-01;  1.8962427E+03;3; -4.6120670E+01;  0.0000000E+00;  1.6903087E-01;0; -6.2077384E-02;  4.0197195E+04;  0.0000000E+00; -6.0659419E-03;  4.0000000E+04;  0.0000000E+00;  4.0002711E+04; -6.5074787E-02;  0.0000000E+00;  2.9974005E-03;  7.5579964E+01;
  6.1489195E-02;  9.9999998E-03;  9.0026200E-02;2851; -6.7949421E-03;  0.0000000E+00;  3.3630742E-04;  1.0023194E+03;  1.0000000E-01;  1.9216246E+03;3; -4.5692005E+01;  0.0000000E+00;  1.5669230E-01;0; -6.1892789E-02;  4.0198074E+04;  0.0000000E+00; -1.1285833E-02;  4.0000000E+04;  0.0000000E+00;  4.0003930E+04; -6.4800948E-02;  0.0000000E+00;  2.9081602E-03;  3.0433185E+02;
  6.1486661E-02;  9.9999998E-03;  1.0002562E-01;2852; -6.7840810E-03;  0.0000000E+00;  3.9034564E-04;  1.0023505E+03;  1.0000000E-01;  1.9473030E+03;3; -4.5209419E+01;  0.0000000E+00;  1.2931663E-01;0; -6.1687235E-02;  4.0198395E+04;  0.0000000E+00; -1.9175755E-02;  4.0000000E+04;  0.0000000E+00;  4.0006168E+04; -6.4468905E-02;  0.0000000E+00;  2.7816703E-03;  5.3932672E+02;
  6.1487619E-02;  9.9999998E-03;  1.1002122E-01;2853; -6.7855609E-03;  0.0000000E+00;  4.4843269E-04;  1.0023693E+03;  1.0000000E-01;  1.9629075E+03;3; -4.4737778E+01;  0.0000000E+00;  7.9346173E-02;0; -6.1451439E-02;  4.0198637E+04;  0.0000000E+00; -3.0676581E-02;  4.0000000E+04;  0.0000000E+00;  4.0007445E+04; -6.4069331E-02;  0.0000000E+00;  2.6178902E-03;  7.1638080E+02;
  6.1494820E-02;  9.9999998E-03;  1.2001250E-01;2854; -6.7956434E-03;  0.0000000E+00;  5.0285150E-04;  1.0023646E+03;  1.0000000E-01;  1.9590557E+03;3; -4.4327137E+01;  0.0000000E+00;  4.2372136E-04;0; -6.1167885E-02;  4.0197758E+04;  0.0000000E+00; -4.6697866E-02;  4.0000000E+04;  0.0000000E+00;  4.0007949E+04; -6.3591078E-02;  0.0000000E+00;  2.4231940E-03;  7.7872797E+02;
  6.1510205E-02;  9.9999998E-03;  1.3000064E-01;2855; -6.8077384E-03;  0.0000000E+00;  5.4881856E-04;  1.0023294E+03;  1.0000000E-01;  1.9298220E+03;3; -4.3991970E+01;  0.0000000E+00; -1.1388535E-01;0; -6.0812097E-02;  4.0195473E+04;  0.0000000E+00; -6.7586049E-02;  4.0000000E+04;  0.0000000E+00;  4.0007012E+04; -6.3021637E-02;  0.0000000E+00;  2.2095407E-03;  6.9506738E+02;
  6.1534271E-02;  9.9999998E-03;  1.3998878E-01;2856; -6.8117236E-03;  0.0000000E+00;  5.8082922E-04;  1.0022545E+03;  1.0000000E-01;  1.8677991E+03;3; -4.3669823E+01;  0.0000000E+00; -2.6925334E-01;0; -6.0354516E-02;  4.0191016E+04;  0.0000000E+00; -9.2363812E-02;  4.0000000E+04;  0.0000000E+00;  4.0005328E+04; -6.2346593E-02;  0.0000000E+00;  1.9920762E-03;  4.7606985E+02;
  6.1566658E-02;  9.9999998E-03;  1.4997926E-01;2857; -6.7955181E-03;  0.0000000E+00;  5.9718423E-04;  1.0021423E+03;  1.0000000E-01;  1.7748634E+03;3; -4.3256821E+01;  0.0000000E+00; -4.6267787E-01;0; -5.9763759E-02;  4.0184145E+04;  0.0000000E+00; -1.1790006E-01;  4.0000000E+04;  0.0000000E+00;  4.0002273E+04; -6.1549552E-02;  0.0000000E+00;  1.7857921E-03;  2.1244493E+02;
  6.1604924E-02;  9.9999998E-03;  1.5997303E-01;2858; -6.7462884E-03;  0.0000000E+00;  5.9886917E-04;  1.0019859E+03;  1.0000000E-01;  1.6452867E+03;3; -4.2570633E+01;  0.0000000E+00; -6.4718926E-01;0; -5.9011664E-02;  4.0173875E+04;  0.0000000E+00; -1.3835622E-01;  4.0000000E+04;  0.0000000E+00;  4.0000188E+04; -6.0611300E-02;  0.0000000E+00;  1.5996370E-03;  2.9198190E+02;
  6.1645109E-02;  9.9999998E-03;  1.6997096E-01;2859; -6.6520171E-03;  0.0000000E+00;  5.8749394E-04;  1.0017982E+03;  1.0000000E-01;  1.4898344E+03;3; -4.1464108E+01;  0.0000000E+00; -7.3791748E-01;0; -5.8075786E-02;  4.0160012E+04;  0.0000000E+00; -1.4713444E-01;  4.0000000E+04;  0.0000000E+00;  3.9996949E+04; -5.9508197E-02;  0.0000000E+00;  1.4324132E-03;  5.2535913E+02;
  6.1682127E-02;  9.9999998E-03;  1.7997460E-01;2860; -6.5030740E-03;  0.0000000E+00;  5.6773925E-04;  1.0015748E+03;  1.0000000E-01;  1.3046544E+03;3; -3.9757751E+01;  0.0000000E+00; -6.3595730E-01;0; -5.6938447E-02;  4.0142188E+04;  0.0000000E+00; -1.3946174E-01;  4.0000000E+04;  0.0000000E+00;  3.9996633E+04; -5.8210567E-02;  0.0000000E+00;  1.2721191E-03;  6.1472565E+02;
  6.1708599E-02;  9.9999998E-03;  1.8998495E-01;2861; -6.2929825E-03;  0.0000000E+00;  5.4665958E-04;  1.0013298E+03;  1.0000000E-01;  1.1016973E+03;3; -3.7367023E+01;  0.0000000E+00; -2.3485139E-01;0; -5.5586714E-02;  4.0120320E+04;  0.0000000E+00; -1.1439911E-01;  4.0000000E+04;  0.0000000E+00;  3.9996988E+04; -5.6683082E-02;  0.0000000E+00;  1.0963687E-03;  4.8064597E+02;
  6.1717093E-02;  9.9999998E-03;  2.0000035E-01;2862; -6.0207602E-03;  0.0000000E+00;  5.3096132E-04;  1.0010649E+03;  1.0000000E-01;  8.8224664E+02;3; -3.4247849E+01;  0.0000000E+00;  5.9868014E-01;0; -5.4012410E-02;  4.0094859E+04;  0.0000000E+00; -7.5643994E-02;  4.0000000E+04;  0.0000000E+00;  4.0000238E+04; -5.4886889E-02;  0.0000000E+00;  8.7447726E-04;  1.2608576E+02;
  6.1701883E-02;  9.9999998E-03;  2.1001929E-01;2863; -5.6907209E-03;  0.0000000E+00;  5.2893412E-04;  1.0007870E+03;  1.0000000E-01;  6.5203094E+02;3; -3.0471628E+01;  0.0000000E+00;  2.0289743E+00;0; -5.2209556E-02;  4.0066523E+04;  0.0000000E+00; -3.1562921E-02;  4.0000000E+04;  0.0000000E+00;  4.0005039E+04; -5.2781992E-02;  0.0000000E+00;  5.7243701E-04;  5.3114398E+02;
  6.1657712E-02;  9.9999998E-03;  2.2003941E-01;2864; -5.3141275E-03;  0.0000000E+00;  5.4529007E-04;  1.0004998E+03;  1.0000000E-01;  4.1401297E+02;3; -2.6225243E+01;  0.0000000E+00;  4.2071142E+00;0; -5.0173622E-02;  4.0036402E+04;  0.0000000E+00;  5.0906898E-03;  4.0000000E+04;  0.0000000E+00;  4.0010043E+04; -5.0333858E-02;  0.0000000E+00;  1.6023754E-04;  1.2663961E+03;
  6.1574899E-02;  9.9999998E-03;  2.3005456E-01;2865; -4.9066190E-03;  0.0000000E+00;  5.7893153E-04;  1.0002079E+03;  1.0000000E-01;  1.7224203E+02;3; -2.1815454E+01;  0.0000000E+00;  7.1418920E+00;0; -4.7899466E-02;  4.0005742E+04;  0.0000000E+00;  1.8012699E-02;  4.0000000E+04;  0.0000000E+00;  4.0016004E+04; -4.7520086E-02;  0.0000000E+00; -3.7938007E-04;  2.0005261E+03;
  7.1320705E-02;  9.9999998E-03;  7.0028037E-02;2910; -7.4142027E-03;  0.0000000E+00;  2.4353474E-04;  1.0031980E+03;  1.0000000E-01;  2.6495054E+03;3; -3.6035236E+01;  0.0000000E+00;  1.0590025E-01;0; -6.0054634E-02;  4.0272758E+04;  0.0000000E+00;  2.2474688E-03;  4.0000000E+04;  0.0000000E+00;  4.0002660E+04; -6.3151047E-02;  0.0000000E+00;  3.0964117E-03;  3.1608807E+01;
  7.1317479E-02;  9.9999998E-03;  8.0036066E-02;2911; -7.3799398E-03;  0.0000000E+00;  2.8452990E-04;  1.0032176E+03;  1.0000000E-01;  2.6657024E+03;3; -3.5780582E+01;  0.0000000E+00;  1.0677136E-01;0; -5.9885710E-02;  4.0272777E+04;  0.0000000E+00; -1.1972940E-04;  4.0000000E+04;  0.0000000E+00;  4.0004352E+04; -6.2917858E-02;  0.0000000E+00;  3.0321460E-03;  2.2955975E+02;
  7.1315005E-02;  9.9999998E-03;  9.0041228E-02;2912; -7.3560174E-03;  0.0000000E+00;  3.3597482E-04;  1.0032497E+03;  1.0000000E-01;  2.6922695E+03;3; -3.5432785E+01;  0.0000000E+00;  1.0013374E-01;0; -5.9700973E-02;  4.0273453E+04;  0.0000000E+00; -4.2612278E-03;  4.0000000E+04;  0.0000000E+00;  4.0006223E+04; -6.2630251E-02;  0.0000000E+00;  2.9292793E-03;  4.9602469E+02;
  7.1314730E-02;  9.9999998E-03;  1.0004191E-01;2913; -7.3443861E-03;  0.0000000E+00;  3.9662511E-04;  1.0032847E+03;  1.0000000E-01;  2.7213057E+03;3; -3.5043148E+01;  0.0000000E+00;  8.2955904E-02;0; -5.9500098E-02;  4.0274180E+04;  0.0000000E+00; -1.0422063E-02;  4.0000000E+04;  0.0000000E+00;  4.0008609E+04; -6.2282559E-02;  0.0000000E+00;  2.7824587E-03;  7.6847437E+02;
  7.1318045E-02;  9.9999998E-03;  1.1003688E-01;2914; -7.3444094E-03;  0.0000000E+00;  4.6180931E-04;  1.0033172E+03;  1.0000000E-01;  2.7482681E+03;3; -3.4685249E+01;  0.0000000E+00;  5.1216032E-02;0; -5.9276536E-02;  4.0274980E+04;  0.0000000E+00; -1.8545803E-02;  4.0000000E+04;  0.0000000E+00;  4.0010180E+04; -6.1869357E-02;  0.0000000E+00;  2.5928223E-03;  9.7213690E+02;
  7.1327001E-02;  9.9999998E-03;  1.2002599E-01;2915; -7.3518399E-03;  0.0000000E+00;  5.2124442E-04;  1.0033276E+03;  1.0000000E-01;  2.7568604E+03;3; -3.4391018E+01;  0.0000000E+00; -4.2128589E-04;0; -5.9015524E-02;  4.0275609E+04;  0.0000000E+00; -2.7962102E-02;  4.0000000E+04;  0.0000000E+00;  4.0010535E+04; -6.1384603E-02;  0.0000000E+00;  2.3690800E-03;  1.0395094E+03;
  7.1344115E-02;  9.9999998E-03;  1.3001056E-01;2916; -7.3600877E-03;  0.0000000E+00;  5.6794134E-04;  1.0033173E+03;  1.0000000E-01;  2.7482681E+03;3; -3.4194263E+01;  0.0000000E+00; -7.6334357E-02;0; -5.8694873E-02;  4.0275117E+04;  0.0000000E+00; -3.6840744E-02;  4.0000000E+04;  0.0000000E+00;  4.0009277E+04; -6.0821209E-02;  0.0000000E+00;  2.1263356E-03;  9.3117883E+02;
  7.1370214E-02;  9.9999998E-03;  1.3999386E-01;2917; -7.3591219E-03;  0.0000000E+00;  5.9806596E-04;  1.0032648E+03;  1.0000000E-01;  2.7048125E+03;3; -3.4029408E+01;  0.0000000E+00; -1.7876191E-01;0; -5.8287252E-02;  4.0272996E+04;  0.0000000E+00; -4.1507319E-02;  4.0000000E+04;  0.0000000E+00;  4.0007055E+04; -6.0170561E-02;  0.0000000E+00;  1.8833105E-03;  6.5135297E+02;
  7.1404755E-02;  9.9999998E-03;  1.4997989E-01;2918; -7.3374454E-03;  0.0000000E+00;  6.1005080E-04;  1.0031771E+03;  1.0000000E-01;  2.6321230E+03;3; -3.3824516E+01;  0.0000000E+00; -3.0335164E-01;0; -5.7762779E-02;  4.0268445E+04;  0.0000000E+00; -3.6032844E-02;  4.0000000E+04;  0.0000000E+00;  4.0004023E+04; -5.9421364E-02;  0.0000000E+00;  1.6585838E-03;  2.5314856E+02;
  7.1445622E-02;  9.9999998E-03;  1.5997005E-01;2919; -7.2826878E-03;  0.0000000E+00;  6.0489355E-04;  1.0030413E+03;  1.0000000E-01;  2.5196323E+03;3; -3.3427189E+01;  0.0000000E+00; -3.9759582E-01;0; -5.7093941E-02;  4.0260520E+04;  0.0000000E+00; -1.2263964E-02;  4.0000000E+04;  0.0000000E+00;  4.0000566E+04; -5.8558457E-02;  0.0000000E+00;  1.4645157E-03;  1.8107806E+02;
  7.1489021E-02;  9.9999998E-03;  1.6996470E-01;2920; -7.1833231E-03;  0.0000000E+00;  5.8582873E-04;  1.0028632E+03;  1.0000000E-01;  2.3720811E+03;3; -3.2707451E+01;  0.0000000E+00; -3.5907984E-01;0; -5.6257974E-02;  4.0248547E+04;  0.0000000E+00;  3.7387233E-02;  4.0000000E+04;  0.0000000E+00;  3.9997422E+04; -5.7560541E-02;  0.0000000E+00;  1.3025672E-03;  5.3131049E+02;
  7.1529612E-02;  9.9999998E-03;  1.7996542E-01;2921; -7.0298626E-03;  0.0000000E+00;  5.5830186E-04;  1.0026520E+03;  1.0000000E-01;  2.1971724E+03;3; -3.1554190E+01;  0.0000000E+00; -6.5680034E-02;0; -5.5236556E-02;  4.0231492E+04;  0.0000000E+00;  1.1574163E-01;  4.0000000E+04;  0.0000000E+00;  3.9996758E+04; -5.6398313E-02;  0.0000000E+00;  1.1617595E-03;  7.1826447E+02;
  7.1561359E-02;  9.9999998E-03;  1.8997438E-01;2922; -6.8158829E-03;  0.0000000E+00;  5.3013564E-04;  1.0024006E+03;  1.0000000E-01;  1.9887832E+03;3; -2.9857439E+01;  0.0000000E+00;  6.1212730E-01;0; -5.4015487E-02;  4.0209539E+04;  0.0000000E+00;  2.1838440E-01;  4.0000000E+04;  0.0000000E+00;  3.9996816E+04; -5.5033918E-02;  0.0000000E+00;  1.0184310E-03;  6.9488257E+02;
  7.1576037E-02;  9.9999998E-03;  1.9999044E-01;2923; -6.5385462E-03;  0.0000000E+00;  5.1054283E-04;  1.0021148E+03;  1.0000000E-01;  1.7520492E+03;3; -2.7579950E+01;  0.0000000E+00;  1.8288006E+00;0; -5.2584961E-02;  4.0182336E+04;  0.0000000E+00;  3.3324611E-01;  4.0000000E+04;  0.0000000E+00;  3.9999441E+04; -5.3423688E-02;  0.0000000E+00;  8.3872757E-04;  5.4654285E+02;
  7.1568362E-02;  9.9999998E-03;  2.1001230E-01;2924; -6.2018232E-03;  0.0000000E+00;  5.0785020E-04;  1.0017972E+03;  1.0000000E-01;  1.4889456E+03;3; -2.4752836E+01;  0.0000000E+00;  3.7621608E+00;0; -5.0936665E-02;  4.0150496E+04;  0.0000000E+00;  4.4119081E-01;  4.0000000E+04;  0.0000000E+00;  4.0004066E+04; -5.1520482E-02;  0.0000000E+00;  5.8381486E-04;  7.1958777E+02;
  7.1534120E-02;  9.9999998E-03;  2.2003670E-01;2925; -5.8128517E-03;  0.0000000E+00;  5.3150620E-04;  1.0014508E+03;  1.0000000E-01;  1.2019413E+03;3; -2.1492937E+01;  0.0000000E+00;  6.5687289E+00;0; -4.9062882E-02;  4.0115008E+04;  0.0000000E+00;  5.1714361E-01;  4.0000000E+04;  0.0000000E+00;  4.0010285E+04; -4.9280725E-02;  0.0000000E+00;  2.1784205E-04;  1.3328267E+03;
  7.1465969E-02;  9.9999998E-03;  2.3005790E-01;2926; -5.3868149E-03;  0.0000000E+00;  5.8024254E-04;  1.0010784E+03;  1.0000000E-01;  8.9340686E+02;3; -1.8021967E+01;  0.0000000E+00;  1.0235761E+01;0; -4.6955112E-02;  4.0077301E+04;  0.0000000E+00;  5.3618699E-01;  4.0000000E+04;  0.0000000E+00;  4.0015773E+04; -4.6672471E-02;  0.0000000E+00; -2.8264138E-04;  2.0383374E+03;
  8.1220448E-02;  9.9999998E-03;  7.0032440E-02;2971; -7.8545278E-03;  0.0000000E+00;  2.3103810E-04;  1.0033906E+03;  1.0000000E-01;  2.8091057E+03;3; -2.4891319E+01;  0.0000000E+00;  6.6051602E-02;0; -5.7666417E-02;  4.0287059E+04;  0.0000000E+00;  4.4873091E-03;  4.0000000E+04;  0.0000000E+00;  4.0004145E+04; -6.0744144E-02;  0.0000000E+00;  3.0777277E-03;  2.5890240E+02;
  8.1217818E-02;  9.9999998E-03;  8.0043957E-02;2972; -7.8208009E-03;  0.0000000E+00;  2.7422229E-04;  1.0033970E+03;  1.0000000E-01;  2.8143401E+03;3; -2.4693436E+01;  0.0000000E+00;  6.8048447E-02;0; -5.7490736E-02;  4.0286227E+04;  0.0000000E+00;  2.9575212E-03;  4.0000000E+04;  0.0000000E+00;  4.0006430E+04; -6.0496625E-02;  0.0000000E+00;  3.0058867E-03;  4.7707053E+02;
  8.1216514E-02;  9.9999998E-03;  9.0052165E-02;2973; -7.7966056E-03;  0.0000000E+00;  3.2945830E-04;  1.0034212E+03;  1.0000000E-01;  2.8343889E+03;3; -2.4428034E+01;  0.0000000E+00;  6.4882427E-02;0; -5.7300448E-02;  4.0286109E+04;  0.0000000E+00; -4.9220985E-06;  4.0000000E+04;  0.0000000E+00;  4.0008738E+04; -6.0189839E-02;  0.0000000E+00;  2.8893896E-03;  7.7193964E+02;
  8.1217632E-02;  9.9999998E-03;  1.0005480E-01;2974; -7.7834483E-03;  0.0000000E+00;  3.9481782E-04;  1.0034608E+03;  1.0000000E-01;  2.8671782E+03;3; -2.4143433E+01;  0.0000000E+00;  5.5231381E-02;0; -5.7097770E-02;  4.0287043E+04;  0.0000000E+00; -4.2331093E-03;  4.0000000E+04;  0.0000000E+00;  4.0011359E+04; -5.9820823E-02;  0.0000000E+00;  2.7230512E-03;  1.0743761E+03;
  8.1222169E-02;  9.9999998E-03;  1.1004986E-01;2975; -7.7804504E-03;  0.0000000E+00;  4.6436390E-04;  1.0035007E+03;  1.0000000E-01;  2.9002637E+03;3; -2.3884039E+01;  0.0000000E+00;  3.5659116E-02;0; -5.6879282E-02;  4.0288375E+04;  0.0000000E+00; -8.8863941E-03;  4.0000000E+04;  0.0000000E+00;  4.0012938E+04; -5.9388578E-02;  0.0000000E+00;  2.5092948E-03;  1.3002515E+03;
  8.1230976E-02;  9.9999998E-03;  1.2003724E-01;2976; -7.7833445E-03;  0.0000000E+00;  5.2572682E-04;  1.0035311E+03;  1.0000000E-01;  2.9254482E+03;3; -2.3691944E+01;  0.0000000E+00;  3.9455476E-03;0; -5.6633882E-02;  4.0290270E+04;  0.0000000E+00; -1.2022189E-02;  4.0000000E+04;  0.0000000E+00;  4.0013355E+04; -5.8892991E-02;  0.0000000E+00;  2.2591073E-03;  1.3726569E+03;
  8.1246026E-02;  9.9999998E-03;  1.3001898E-01;2977; -7.7856197E-03;  0.0000000E+00;  5.7153805E-04;  1.0035410E+03;  1.0000000E-01;  2.9336455E+03;3; -2.3579897E+01;  0.0000000E+00; -4.3049067E-02;0; -5.6342896E-02;  4.0291789E+04;  0.0000000E+00; -9.9732112E-03;  4.0000000E+04;  0.0000000E+00;  4.0012957E+04; -5.8333505E-02;  0.0000000E+00;  1.9906093E-03;  1.2460067E+03;
  8.1269443E-02;  9.9999998E-03;  1.3999851E-01;2978; -7.7778008E-03;  0.0000000E+00;  5.9839123E-04;  1.0035227E+03;  1.0000000E-01;  2.9185347E+03;3; -2.3520821E+01;  0.0000000E+00; -1.0637118E-01;0; -5.5981953E-02;  4.0292633E+04;  0.0000000E+00;  3.3471030E-03;  4.0000000E+04;  0.0000000E+00;  4.0010652E+04; -5.7707809E-02;  0.0000000E+00;  1.7258547E-03;  9.2408093E+02;
  8.1300877E-02;  9.9999998E-03;  1.4998047E-01;2979; -7.7490201E-03;  0.0000000E+00;  6.0593663E-04;  1.0034673E+03;  1.0000000E-01;  2.8726101E+03;3; -2.3443075E+01;  0.0000000E+00; -1.7959692E-01;0; -5.5523928E-02;  4.0291574E+04;  0.0000000E+00;  3.6648098E-02;  4.0000000E+04;  0.0000000E+00;  4.0006164E+04; -5.7010781E-02;  0.0000000E+00;  1.4868514E-03;  4.6819037E+02;
  8.1339724E-02;  9.9999998E-03;  1.5996796E-01;2980; -7.6879351E-03;  0.0000000E+00;  5.9526053E-04;  1.0033732E+03;  1.0000000E-01;  2.7946863E+03;3; -2.3249147E+01;  0.0000000E+00; -2.0944215E-01;0; -5.4941878E-02;  4.0287195E+04;  0.0000000E+00;  1.0031918E-01;  4.0000000E+04;  0.0000000E+00;  4.0002059E+04; -5.6231145E-02;  0.0000000E+00;  1.2892684E-03;  1.4643858E+02;
  8.1381865E-02;  9.9999998E-03;  1.6996068E-01;2981; -7.5836126E-03;  0.0000000E+00;  5.7126349E-04;  1.0032341E+03;  1.0000000E-01;  2.6794304E+03;3; -2.2830952E+01;  0.0000000E+00; -8.6518303E-02;0; -5.4213427E-02;  4.0278535E+04;  0.0000000E+00;  2.0317635E-01;  4.0000000E+04;  0.0000000E+00;  3.9998660E+04; -5.5350762E-02;  0.0000000E+00;  1.1373338E-03;  5.2560596E+02;
  8.1422620E-02;  9.9999998E-03;  1.7995965E-01;2982; -7.4269548E-03;  0.0000000E+00;  5.3994847E-04;  1.0030551E+03;  1.0000000E-01;  2.5310889E+03;3; -2.2103765E+01;  0.0000000E+00;  3.2466388E-01;0; -5.3319942E-02;  4.0264676E+04;  0.0000000E+00;  3.4713298E-01;  4.0000000E+04;  0.0000000E+00;  3.9996996E+04; -5.4340798E-02;  0.0000000E+00;  1.0208570E-03;  8.2303894E+02;
  8.1455380E-02;  9.9999998E-03;  1.8996751E-01;2983; -7.2110291E-03;  0.0000000E+00;  5.0990173E-04;  1.0028295E+03;  1.0000000E-01;  2.3442300E+03;3; -2.0988811E+01;  0.0000000E+00;  1.1750269E+00;0; -5.2246645E-02;  4.0245031E+04;  0.0000000E+00;  5.2443212E-01;  4.0000000E+04;  0.0000000E+00;  3.9997324E+04; -5.3161822E-02;  0.0000000E+00;  9.1517647E-04;  9.6409723E+02;
  8.1472166E-02;  9.9999998E-03;  1.9998471E-01;2984; -6.9339662E-03;  0.0000000E+00;  4.8953661E-04;  1.0025582E+03;  1.0000000E-01;  2.1194463E+03;3; -1.9452642E+01;  0.0000000E+00;  2.6374459E+00;0; -5.0981320E-02;  4.0219000E+04;  0.0000000E+00;  7.1664482E-01;  4.0000000E+04;  0.0000000E+00;  3.9999730E+04; -5.1765218E-02;  0.0000000E+00;  7.8389840E-04;  1.0549762E+03;
  8.1468530E-02;  9.9999998E-03;  2.1001062E-01;2985; -6.5945354E-03;  0.0000000E+00;  4.9312843E-04;  1.0022401E+03;  1.0000000E-01;  1.8558488E+03;3; -1.7499197E+01;  0.0000000E+00;  4.9135065E+00;0; -4.9512252E-02;  4.0187148E+04;  0.0000000E+00;  8.9432120E-01;  4.0000000E+04;  0.0000000E+00;  4.0004477E+04; -5.0096437E-02;  0.0000000E+00;  5.8418646E-04;  1.3277217E+03;
  8.1439219E-02;  9.9999998E-03;  2.2004223E-01;2986; -6.2000388E-03;  0.0000000E+00;  5.3049310E-04;  1.0018812E+03;  1.0000000E-01;  1.5585732E+03;3; -1.5215810E+01;  0.0000000E+00;  8.1749601E+00;0; -4.7828656E-02;  4.0150043E+04;  0.0000000E+00;  1.0242425E+00;  4.0000000E+04;  0.0000000E+00;  4.0010629E+04; -4.8103452E-02;  0.0000000E+00;  2.7479773E-04;  1.8676434E+03;
  8.1379585E-02;  9.9999998E-03;  2.3006997E-01;2987; -5.7604234E-03;  0.0000000E+00;  6.0428819E-04;  1.0014743E+03;  1.0000000E-01;  1.2213976E+03;3; -1.2742773E+01;  0.0000000E+00;  1.2390657E+01;0; -4.5919284E-02;  4.0109051E+04;  0.0000000E+00;  1.0796089E+00;  4.0000000E+04;  0.0000000E+00;  4.0017176E+04; -4.5746010E-02;  0.0000000E+00; -1.7327571E-04;  2.5093074E+03;
  9.1209389E-02;  9.9999998E-03;  7.0025980E-02;3032; -8.2244929E-03;  0.0000000E+00;  2.1542508E-04;  1.0030062E+03;  1.0000000E-01;  2.4905962E+03;3; -1.5348630E+01;  0.0000000E+00;  4.1786000E-02;0; -5.5464137E-02;  4.0253477E+04;  0.0000000E+00;  1.8342630E-03;  4.0000000E+04;  0.0000000E+00;  4.0006766E+04; -5.8464605E-02;  0.0000000E+00;  3.0004685E-03;  5.6431769E+02;
  9.1204546E-02;  9.9999998E-03;  8.0041841E-02;3033; -8.1913611E-03;  0.0000000E+00;  2.5919476E-04;  1.0030018E+03;  1.0000000E-01;  2.4869419E+03;3; -1.5217189E+01;  0.0000000E+00;  4.4187881E-02;0; -5.5278163E-02;  4.0251273E+04;  0.0000000E+00;  4.4923811E-04;  4.0000000E+04;  0.0000000E+00;  4.0008500E+04; -5.8198426E-02;  0.0000000E+00;  2.9202639E-03;  7.9365356E+02;
  9.1200165E-02;  9.9999998E-03;  9.0054423E-02;3034; -8.1663476E-03;  0.0000000E+00;  3.1659540E-04;  1.0030172E+03;  1.0000000E-01;  2.4996824E+03;3; -1.5039297E+01;  0.0000000E+00;  4.3391749E-02;0; -5.5077154E-02;  4.0250246E+04;  0.0000000E+00; -1.7372827E-03;  4.0000000E+04;  0.0000000E+00;  4.0010887E+04; -5.7867479E-02;  0.0000000E+00;  2.7903237E-03;  1.1066824E+03;
  9.1197312E-02;  9.9999998E-03;  1.0006032E-01;3035; -8.1505300E-03;  0.0000000E+00;  3.8326767E-04;  1.0030503E+03;  1.0000000E-01;  2.5271384E+03;3; -1.4847152E+01;  0.0000000E+00;  3.8548611E-02;0; -5.4866180E-02;  4.0250605E+04;  0.0000000E+00; -4.1962909E-03;  4.0000000E+04;  0.0000000E+00;  4.0013926E+04; -5.7471972E-02;  0.0000000E+00;  2.6057924E-03;  1.4292970E+03;
  9.1196895E-02;  9.9999998E-03;  1.1005714E-01;3036; -8.1426343E-03;  0.0000000E+00;  4.5312149E-04;  1.0030929E+03;  1.0000000E-01;  2.5623967E+03;3; -1.4676809E+01;  0.0000000E+00;  2.7683014E-02;0; -5.4644972E-02;  4.0252375E+04;  0.0000000E+00; -5.5249366E-03;  4.0000000E+04;  0.0000000E+00;  4.0015285E+04; -5.7015307E-02;  0.0000000E+00;  2.3703361E-03;  1.6697924E+03;
  9.1199458E-02;  9.9999998E-03;  1.2004406E-01;3037; -8.1389658E-03;  0.0000000E+00;  5.1291985E-04;  1.0031374E+03;  1.0000000E-01;  2.5992351E+03;3; -1.4560516E+01;  0.0000000E+00;  9.5950244E-03;0; -5.4406404E-02;  4.0255434E+04;  0.0000000E+00; -2.9249038E-03;  4.0000000E+04;  0.0000000E+00;  4.0016371E+04; -5.6503430E-02;  0.0000000E+00;  2.0970253E-03;  1.7437307E+03;
  9.1206625E-02;  9.9999998E-03;  1.3002351E-01;3038; -8.1330845E-03;  0.0000000E+00;  5.5572571E-04;  1.0031722E+03;  1.0000000E-01;  2.6281726E+03;3; -1.4508346E+01;  0.0000000E+00; -1.6863054E-02;0; -5.4136246E-02;  4.0259074E+04;  0.0000000E+00;  8.4936218E-03;  4.0000000E+04;  0.0000000E+00;  4.0015238E+04; -5.5942841E-02;  0.0000000E+00;  1.8065958E-03;  1.6009729E+03;
  9.1220900E-02;  9.9999998E-03;  1.4000008E-01;3039; -8.1166662E-03;  0.0000000E+00;  5.7840353E-04;  1.0031866E+03;  1.0000000E-01;  2.6401228E+03;3; -1.4501159E+01;  0.0000000E+00; -5.2254070E-02;0; -5.3814374E-02;  4.0262730E+04;  0.0000000E+00;  3.6467437E-02;  4.0000000E+04;  0.0000000E+00;  4.0012402E+04; -5.5338398E-02;  0.0000000E+00;  1.5240252E-03;  1.2468694E+03;
  9.1244400E-02;  9.9999998E-03;  1.4997883E-01;3040; -8.0796899E-03;  0.0000000E+00;  5.8138958E-04;  1.0031717E+03;  1.0000000E-01;  2.6276787E+03;3; -1.4490209E+01;  0.0000000E+00; -9.0292156E-02;0; -5.3416386E-02;  4.0265277E+04;  0.0000000E+00;  9.1771215E-02;  4.0000000E+04;  0.0000000E+00;  4.0008488E+04; -5.4690842E-02;  0.0000000E+00;  1.2744560E-03;  7.5411395E+02;
  9.1276579E-02;  9.9999998E-03;  1.5996470E-01;3041; -8.0116633E-03;  0.0000000E+00;  5.6706008E-04;  1.0031222E+03;  1.0000000E-01;  2.5866924E+03;3; -1.4408340E+01;  0.0000000E+00; -7.8537159E-02;0; -5.2917667E-02;  4.0265406E+04;  0.0000000E+00;  1.8650758E-01;  4.0000000E+04;  0.0000000E+00;  4.0003801E+04; -5.3994294E-02;  0.0000000E+00;  1.0766283E-03;  3.3429813E+02;
  9.1314636E-02;  9.9999998E-03;  1.6995728E-01;3042; -7.9025785E-03;  0.0000000E+00;  5.4044474E-04;  1.0030394E+03;  1.0000000E-01;  2.5181511E+03;3; -1.4187227E+01;  0.0000000E+00;  9.1372259E-02;0; -5.2296270E-02;  4.0261230E+04;  0.0000000E+00;  3.3024216E-01;  4.0000000E+04;  0.0000000E+00;  4.0000156E+04; -5.3233385E-02;  0.0000000E+00;  9.3711668E-04;  5.3282690E+02;
  9.1353253E-02;  9.9999998E-03;  1.7995612E-01;3043; -7.7437256E-03;  0.0000000E+00;  5.0797214E-04;  1.0029106E+03;  1.0000000E-01;  2.4113887E+03;3; -1.3756414E+01;  0.0000000E+00;  5.6143433E-01;0; -5.1534362E-02;  4.0252133E+04;  0.0000000E+00;  5.2515185E-01;  4.0000000E+04;  0.0000000E+00;  3.9998539E+04; -5.2380979E-02;  0.0000000E+00;  8.4661815E-04;  8.9568365E+02;
  9.1385692E-02;  9.9999998E-03;  1.8996426E-01;3044; -7.5288364E-03;  0.0000000E+00;  4.7783542E-04;  1.0027351E+03;  1.0000000E-01;  2.2660100E+03;3; -1.3070202E+01;  0.0000000E+00;  1.4957688E+00;0; -5.0616279E-02;  4.0236367E+04;  0.0000000E+00;  7.6271790E-01;  4.0000000E+04;  0.0000000E+00;  3.9998582E+04; -5.1396508E-02;  0.0000000E+00;  7.8022823E-04;  1.1741655E+03;
  9.1403536E-02;  9.9999998E-03;  1.9998376E-01;3045; -7.2530555E-03;  0.0000000E+00;  4.6187820E-04;  1.0025102E+03;  1.0000000E-01;  2.0796448E+03;3; -1.2103841E+01;  0.0000000E+00;  3.0941651E+00;0; -4.9527224E-02;  4.0214109E+04;  0.0000000E+00;  1.0208446E+00;  4.0000000E+04;  0.0000000E+00;  4.0001496E+04; -5.0227311E-02;  0.0000000E+00;  7.0008618E-04;  1.4570591E+03;
  9.1400392E-02;  9.9999998E-03;  2.1001598E-01;3046; -6.9171339E-03;  0.0000000E+00;  4.7146177E-04;  1.0022250E+03;  1.0000000E-01;  1.8434047E+03;3; -1.0856885E+01;  0.0000000E+00;  5.5826464E+00;0; -4.8253588E-02;  4.0184410E+04;  0.0000000E+00;  1.2685959E+00;  4.0000000E+04;  0.0000000E+00;  4.0005949E+04; -4.8813898E-02;  0.0000000E+00;  5.6030997E-04;  1.9014293E+03;
  9.1373973E-02;  9.9999998E-03;  2.2005181E-01;3047; -6.5190424E-03;  0.0000000E+00;  5.2885636E-04;  1.0018809E+03;  1.0000000E-01;  1.5582769E+03;3; -9.3819895E+00;  0.0000000E+00;  9.1487970E+00;0; -4.6782389E-02;  4.0148641E+04;  0.0000000E+00;  1.4766489E+00;  4.0000000E+04;  0.0000000E+00;  4.0012816E+04; -4.7098115E-02;  0.0000000E+00;  3.1572615E-04;  2.5445886E+03;
  9.1317393E-02;  9.9999998E-03;  2.3008227E-01;3048; -6.0697729E-03;  0.0000000E+00;  6.3260924E-04;  1.0014761E+03;  1.0000000E-01;  1.2229778E+03;3; -7.7896371E+00;  0.0000000E+00;  1.3760448E+01;0; -4.5098063E-02;  4.0107652E+04;  0.0000000E+00;  1.6250063E+00;  4.0000000E+04;  0.0000000E+00;  4.0019695E+04; -4.5030490E-02;  0.0000000E+00; -6.7572342E-05;  3.2542456E+03;
  1.0126683E-01;  9.9999998E-03;  6.9988810E-02;3093; -8.5726930E-03;  0.0000000E+00;  1.9829563E-04;  1.0022732E+03;  1.0000000E-01;  1.8833048E+03;3; -8.4043856E+00;  0.0000000E+00;  2.6650533E-02;0; -5.3761754E-02;  4.0189727E+04;  0.0000000E+00; -6.0609318E-03;  4.0000000E+04;  0.0000000E+00;  4.0009219E+04; -5.6631982E-02;  0.0000000E+00;  2.8702277E-03;  9.0984662E+02;
  1.0125194E-01;  9.9999998E-03;  8.0014095E-02;3094; -8.5396860E-03;  0.0000000E+00;  2.4035946E-04;  1.0022491E+03;  1.0000000E-01;  1.8633547E+03;3; -8.3264017E+00;  0.0000000E+00;  2.9020615E-02;0; -5.3562783E-02;  4.0186113E+04;  0.0000000E+00; -8.4977495E-03;  4.0000000E+04;  0.0000000E+00;  4.0010832E+04; -5.6343846E-02;  0.0000000E+00;  2.7810629E-03;  1.1441301E+03;
  1.0123713E-01;  9.9999998E-03;  9.0036385E-02;3095; -8.5129859E-03;  0.0000000E+00;  2.9609795E-04;  1.0022484E+03;  1.0000000E-01;  1.8627621E+03;3; -8.2207270E+00;  0.0000000E+00;  3.0229617E-02;0; -5.3346280E-02;  4.0183949E+04;  0.0000000E+00; -1.0899368E-02;  4.0000000E+04;  0.0000000E+00;  4.0013293E+04; -5.5984560E-02;  0.0000000E+00;  2.6382790E-03;  1.4663114E+03;
  1.0122395E-01;  9.9999998E-03;  1.0005033E-01;3096; -8.4929736E-03;  0.0000000E+00;  3.6131308E-04;  1.0022704E+03;  1.0000000E-01;  1.8810332E+03;3; -8.1064053E+00;  0.0000000E+00;  2.7971247E-02;0; -5.3119835E-02;  4.0183438E+04;  0.0000000E+00; -1.2327448E-02;  4.0000000E+04;  0.0000000E+00;  4.0016051E+04; -5.5557262E-02;  0.0000000E+00;  2.4374286E-03;  1.7988517E+03;
  1.0121316E-01;  9.9999998E-03;  1.1005297E-01;3097; -8.4785018E-03;  0.0000000E+00;  4.2772212E-04;  1.0023149E+03;  1.0000000E-01;  1.9178717E+03;3; -8.0083790E+00;  0.0000000E+00;  2.3576908E-02;0; -5.2886475E-02;  4.0185031E+04;  0.0000000E+00; -1.0930924E-02;  4.0000000E+04;  0.0000000E+00;  4.0018180E+04; -5.5069715E-02;  0.0000000E+00;  2.1832404E-03;  2.0447012E+03;
  1.0120602E-01;  9.9999998E-03;  1.2004286E-01;3098; -8.4663518E-03;  0.0000000E+00;  4.8246016E-04;  1.0023678E+03;  1.0000000E-01;  1.9617223E+03;3; -7.9439540E+00;  0.0000000E+00;  1.4482855E-02;0; -5.2643642E-02;  4.0188531E+04;  0.0000000E+00; -3.4108409E-03;  4.0000000E+04;  0.0000000E+00;  4.0018656E+04; -5.4534066E-02;  0.0000000E+00;  1.8904265E-03;  2.1140554E+03;
  1.0120337E-01;  9.9999998E-03;  1.3002224E-01;3099; -8.4506674E-03;  0.0000000E+00;  5.2046508E-04;  1.0024183E+03;  1.0000000E-01;  2.0034989E+03;3; -7.9203596E+00;  0.0000000E+00;  1.0007807E-03;0; -5.2381992E-02;  4.0193945E+04;  0.0000000E+00;  1.5696824E-02;  4.0000000E+04;  0.0000000E+00;  4.0017383E+04; -5.3963773E-02;  0.0000000E+00;  1.5817813E-03;  1.9539360E+03;
  1.0120752E-01;  9.9999998E-03;  1.3999693E-01;3100; -8.4242979E-03;  0.0000000E+00;  5.3804484E-04;  1.0024594E+03;  1.0000000E-01;  2.0375720E+03;3; -7.9281960E+00;  0.0000000E+00; -1.6660877E-02;0; -5.2086651E-02;  4.0200332E+04;  0.0000000E+00;  5.4810651E-02;  4.0000000E+04;  0.0000000E+00;  4.0014754E+04; -5.3371362E-02;  0.0000000E+00;  1.2847114E-03;  1.5718286E+03;
  1.0122152E-01;  9.9999998E-03;  1.4997371E-01;3101; -8.3784675E-03;  0.0000000E+00;  5.3614168E-04;  1.0024862E+03;  1.0000000E-01;  2.0597937E+03;3; -7.9397168E+00;  0.0000000E+00; -3.2458588E-02;0; -5.1737294E-02;  4.0206520E+04;  0.0000000E+00;  1.2555742E-01;  4.0000000E+04;  0.0000000E+00;  4.0010422E+04; -5.2764419E-02;  0.0000000E+00;  1.0271260E-03;  1.0480923E+03;
  1.0124656E-01;  9.9999998E-03;  1.5995869E-01;3102; -8.3035864E-03;  0.0000000E+00;  5.1835098E-04;  1.0024907E+03;  1.0000000E-01;  2.0634478E+03;3; -7.9127507E+00;  0.0000000E+00;  3.0447086E-03;0; -5.1311761E-02;  4.0211027E+04;  0.0000000E+00;  2.4075326E-01;  4.0000000E+04;  0.0000000E+00;  4.0005359E+04; -5.2142106E-02;  0.0000000E+00;  8.3034363E-04;  5.7394244E+02;
  1.0128023E-01;  9.9999998E-03;  1.6995347E-01;3103; -8.1904056E-03;  0.0000000E+00;  4.8993784E-04;  1.0024611E+03;  1.0000000E-01;  2.0389547E+03;3; -7.7980075E+00;  0.0000000E+00;  1.9400884E-01;0; -5.0790470E-02;  4.0212102E+04;  0.0000000E+00;  4.0991449E-01;  4.0000000E+04;  0.0000000E+00;  4.0001715E+04; -5.1493198E-02;  0.0000000E+00;  7.0272625E-04;  5.8497046E+02;
  1.0131624E-01;  9.9999998E-03;  1.7995441E-01;3104; -8.0305822E-03;  0.0000000E+00;  4.5766254E-04;  1.0023956E+03;  1.0000000E-01;  1.9847340E+03;3; -7.5557828E+00;  0.0000000E+00;  6.8135136E-01;0; -5.0156280E-02;  4.0207965E+04;  0.0000000E+00;  6.3621795E-01;  4.0000000E+04;  0.0000000E+00;  4.0000117E+04; -5.0792776E-02;  0.0000000E+00;  6.3649681E-04;  9.4206116E+02;
  1.0134765E-01;  9.9999998E-03;  1.8996377E-01;3105; -7.8174742E-03;  0.0000000E+00;  4.3006855E-04;  1.0022848E+03;  1.0000000E-01;  1.8928848E+03;3; -7.1552444E+00;  0.0000000E+00;  1.6417646E+00;0; -4.9392592E-02;  4.0197457E+04;  0.0000000E+00;  9.1209620E-01;  4.0000000E+04;  0.0000000E+00;  4.0000145E+04; -5.0000086E-02;  0.0000000E+00;  6.0749502E-04;  1.3121831E+03;
  1.0136656E-01;  9.9999998E-03;  1.9998653E-01;3106; -7.5464472E-03;  0.0000000E+00;  4.1767463E-04;  1.0021181E+03;  1.0000000E-01;  1.7548146E+03;3; -6.5829439E+00;  0.0000000E+00;  3.2979231E+00;0; -4.8483931E-02;  4.0179602E+04;  0.0000000E+00;  1.2201080E+00;  4.0000000E+04;  0.0000000E+00;  4.0003633E+04; -4.9061522E-02;  0.0000000E+00;  5.7759025E-04;  1.7561550E+03;
  1.0136508E-01;  9.9999998E-03;  2.1001855E-01;3107; -7.2150873E-03;  0.0000000E+00;  4.3563469E-04;  1.0018839E+03;  1.0000000E-01;  1.5607460E+03;3; -5.8481069E+00;  0.0000000E+00;  5.9040699E+00;0; -4.7416791E-02;  4.0154262E+04;  0.0000000E+00;  1.5415245E+00;  4.0000000E+04;  0.0000000E+00;  4.0009516E+04; -4.7916286E-02;  0.0000000E+00;  4.9949449E-04;  2.4019597E+03;
  1.0133608E-01;  9.9999998E-03;  2.2005071E-01;3108; -6.8209441E-03;  0.0000000E+00;  5.0585228E-04;  1.0015814E+03;  1.0000000E-01;  1.3100864E+03;3; -4.9910522E+00;  0.0000000E+00;  9.6734781E+00;0; -4.6176199E-02;  4.0121293E+04;  0.0000000E+00;  1.8648697E+00;  4.0000000E+04;  0.0000000E+00;  4.0015867E+04; -4.6501499E-02;  0.0000000E+00;  3.2530096E-04;  3.2550200E+03;
  1.0128725E-01;  9.9999998E-03;  2.3007609E-01;3109; -6.3695791E-03;  0.0000000E+00;  6.3008600E-04;  1.0012045E+03;  1.0000000E-01;  9.9789771E+02;3; -4.0786948E+00;  0.0000000E+00;  1.4574121E+01;0; -4.4739898E-02;  4.0082531E+04;  0.0000000E+00;  2.1873183E+00;  4.0000000E+04;  0.0000000E+00;  4.0022719E+04; -4.4757638E-02;  0.0000000E+00;  1.7740531E-05;  4.1785845E+03;
  1.1180169E-01;  9.9999998E-03;  6.9952250E-02;3154; -8.9573516E-03;  0.0000000E+00;  1.7924537E-04;  1.0013711E+03;  1.0000000E-01;  1.1359679E+03;3; -3.8634269E+00;  0.0000000E+00;  1.7029351E-02;0; -5.2715488E-02;  4.0111855E+04;  0.0000000E+00; -1.7196441E-02;  4.0000000E+04;  0.0000000E+00;  4.0010977E+04; -5.5403281E-02;  0.0000000E+00;  2.6877946E-03;  1.2432399E+03;
  1.1175217E-01;  9.9999998E-03;  7.9959914E-02;3155; -8.9229895E-03;  0.0000000E+00;  2.1772319E-04;  1.0013294E+03;  1.0000000E-01;  1.1014010E+03;3; -3.8306406E+00;  0.0000000E+00;  1.9100336E-02;0; -5.2501589E-02;  4.0106781E+04;  0.0000000E+00; -2.2035604E-02;  4.0000000E+04;  0.0000000E+00;  4.0013012E+04; -5.5091195E-02;  0.0000000E+00;  2.5896055E-03;  1.4816283E+03;
  1.1166105E-01;  9.9999998E-03;  8.9981042E-02;3156; -8.8908095E-03;  0.0000000E+00;  2.6894771E-04;  1.0013187E+03;  1.0000000E-01;  1.0925123E+03;3; -3.7967553E+00;  0.0000000E+00;  2.0327879E-02;0; -5.2268222E-02;  4.0103547E+04;  0.0000000E+00; -2.6051302E-02;  4.0000000E+04;  0.0000000E+00;  4.0015824E+04; -5.4704361E-02;  0.0000000E+00;  2.4361401E-03;  1.8082277E+03;
  1.1154664E-01;  9.9999998E-03;  1.0000160E-01;3157; -8.8615408E-03;  0.0000000E+00;  3.2899558E-04;  1.0013314E+03;  1.0000000E-01;  1.1029812E+03;3; -3.7640133E+00;  0.0000000E+00;  2.0691482E-02;0; -5.2024383E-02;  4.0102500E+04;  0.0000000E+00; -2.7787957E-02;  4.0000000E+04;  0.0000000E+00;  4.0018051E+04; -5.4247402E-02;  0.0000000E+00;  2.2230190E-03;  2.1436272E+03;
  1.1138245E-01;  9.9999998E-03;  1.1001890E-01;3158; -8.8335462E-03;  0.0000000E+00;  3.8848707E-04;  1.0013792E+03;  1.0000000E-01;  1.1425850E+03;3; -3.7557766E+00;  0.0000000E+00;  1.9728271E-02;0; -5.1779017E-02;  4.0104238E+04;  0.0000000E+00; -2.4945283E-02;  4.0000000E+04;  0.0000000E+00;  4.0020324E+04; -5.3735312E-02;  0.0000000E+00;  1.9562934E-03;  2.3871248E+03;
  1.1129179E-01;  9.9999998E-03;  1.2002254E-01;3159; -8.8081788E-03;  0.0000000E+00;  4.3681875E-04;  1.0014344E+03;  1.0000000E-01;  1.1884109E+03;3; -3.7430353E+00;  0.0000000E+00;  1.6224112E-02;0; -5.1525738E-02;  4.0108496E+04;  0.0000000E+00; -1.3927896E-02;  4.0000000E+04;  0.0000000E+00;  4.0020246E+04; -5.3174749E-02;  0.0000000E+00;  1.6490112E-03;  2.4456499E+03;
  1.1125568E-01;  9.9999998E-03;  1.3000844E-01;3160; -8.7802364E-03;  0.0000000E+00;  4.6855499E-04;  1.0014984E+03;  1.0000000E-01;  1.2413477E+03;3; -3.7385659E+00;  0.0000000E+00;  1.1086039E-02;0; -5.1261958E-02;  4.0114922E+04;  0.0000000E+00;  1.0853208E-02;  4.0000000E+04;  0.0000000E+00;  4.0019266E+04; -5.2587792E-02;  0.0000000E+00;  1.3258340E-03;  2.2650469E+03;
  1.1123853E-01;  9.9999998E-03;  1.3998601E-01;3161; -8.7423446E-03;  0.0000000E+00;  4.8064173E-04;  1.0015604E+03;  1.0000000E-01;  1.2928030E+03;3; -3.7478456E+00;  0.0000000E+00;  3.9232322E-03;0; -5.0980669E-02;  4.0123469E+04;  0.0000000E+00;  5.7661552E-02;  4.0000000E+04;  0.0000000E+00;  4.0016566E+04; -5.1997513E-02;  0.0000000E+00;  1.0168427E-03;  1.8555179E+03;
  1.1123651E-01;  9.9999998E-03;  1.4996292E-01;3162; -8.6867074E-03;  0.0000000E+00;  4.7344447E-04;  1.0016195E+03;  1.0000000E-01;  1.3416904E+03;3; -3.7590261E+00;  0.0000000E+00;  7.8111421E-05;0; -5.0666507E-02;  4.0132770E+04;  0.0000000E+00;  1.3769744E-01;  4.0000000E+04;  0.0000000E+00;  4.0011152E+04; -5.1418923E-02;  0.0000000E+00;  7.5241661E-04;  1.3029028E+03;
  1.1125111E-01;  9.9999998E-03;  1.5994853E-01;3163; -8.6047901E-03;  0.0000000E+00;  4.5204951E-04;  1.0016693E+03;  1.0000000E-01;  1.3829733E+03;3; -3.7494979E+00;  0.0000000E+00;  4.6698101E-02;0; -5.0301678E-02;  4.0141180E+04;  0.0000000E+00;  2.6300606E-01;  4.0000000E+04;  0.0000000E+00;  4.0006480E+04; -5.0857455E-02;  0.0000000E+00;  5.5577589E-04;  7.8756348E+02;
  1.1127964E-01;  9.9999998E-03;  1.6994694E-01;3164; -8.4878840E-03;  0.0000000E+00;  4.2169981E-04;  1.0016981E+03;  1.0000000E-01;  1.4067750E+03;3; -3.6915815E+00;  0.0000000E+00;  2.4210800E-01;0; -4.9869575E-02;  4.0147078E+04;  0.0000000E+00;  4.4264248E-01;  4.0000000E+04;  0.0000000E+00;  4.0002863E+04; -5.0306551E-02;  0.0000000E+00;  4.3697565E-04;  6.6671649E+02;
  1.1131394E-01;  9.9999998E-03;  1.7995049E-01;3165; -8.3281556E-03;  0.0000000E+00;  3.8865078E-04;  1.0016955E+03;  1.0000000E-01;  1.4047010E+03;3; -3.5596087E+00;  0.0000000E+00;  7.2513801E-01;0; -4.9354173E-02;  4.0148285E+04;  0.0000000E+00;  6.8017143E-01;  4.0000000E+04;  0.0000000E+00;  4.0001293E+04; -4.9744628E-02;  0.0000000E+00;  3.9045370E-04;  9.7011975E+02;
  1.1134639E-01;  9.9999998E-03;  1.8996078E-01;3166; -8.1188772E-03;  0.0000000E+00;  3.6157246E-04;  1.0016496E+03;  1.0000000E-01;  1.3666774E+03;3; -3.3386388E+00;  0.0000000E+00;  1.6783826E+00;0; -4.8739515E-02;  4.0143051E+04;  0.0000000E+00;  9.7324026E-01;  4.0000000E+04;  0.0000000E+00;  4.0002211E+04; -4.9133450E-02;  0.0000000E+00;  3.9393382E-04;  1.3928906E+03;
  1.1136670E-01;  9.9999998E-03;  1.9997902E-01;3167; -7.8552347E-03;  0.0000000E+00;  3.5071559E-04;  1.0015480E+03;  1.0000000E-01;  1.2825316E+03;3; -3.0297310E+00;  0.0000000E+00;  3.3463666E+00;0; -4.8012249E-02;  4.0130207E+04;  0.0000000E+00;  1.3193616E+00;  4.0000000E+04;  0.0000000E+00;  4.0005965E+04; -4.8422679E-02;  0.0000000E+00;  4.1042839E-04;  1.9818201E+03;
  1.1137256E-01;  9.9999998E-03;  2.0999838E-01;3168; -7.5341123E-03;  0.0000000E+00;  3.7021039E-04;  1.0013743E+03;  1.0000000E-01;  1.1386345E+03;3; -2.6458623E+00;  0.0000000E+00;  6.0157456E+00;0; -4.7159944E-02;  4.0109203E+04;  0.0000000E+00;  1.7252150E+00;  4.0000000E+04;  0.0000000E+00;  4.0012660E+04; -4.7552571E-02;  0.0000000E+00;  3.9262595E-04;  2.8532793E+03;
  1.1135655E-01;  9.9999998E-03;  2.2001812E-01;3169; -7.1497899E-03;  0.0000000E+00;  4.4343376E-04;  1.0011238E+03;  1.0000000E-01;  9.3103540E+02;3; -2.2134223E+00;  0.0000000E+00;  9.9370689E+00;0; -4.6165369E-02;  4.0079863E+04;  0.0000000E+00;  2.2108705E+00;  4.0000000E+04;  0.0000000E+00;  4.0020410E+04; -4.6457220E-02;  0.0000000E+00;  2.9185042E-04;  3.9912952E+03;
  1.1131295E-01;  9.9999998E-03;  2.3003586E-01;3170; -6.7032706E-03;  0.0000000E+00;  5.7426404E-04;  1.0007816E+03;  1.0000000E-01;  6.4748785E+02;3; -1.7731752E+00;  0.0000000E+00;  1.5066942E+01;0; -4.4999428E-02;  4.0043547E+04;  0.0000000E+00;  2.8010018E+00;  4.0000000E+04;  0.0000000E+00;  4.0027711E+04; -4.5068558E-02;  0.0000000E+00;  6.9128815E-05;  5.2606035E+03;
  1.2180008E-01;  9.9999998E-03;  6.9955565E-02;3215; -9.3774125E-03;  0.0000000E+00;  1.5972019E-04;  1.0005400E+03;  1.0000000E-01;  4.4739474E+02;3; -1.5109565E+00;  0.0000000E+00;  1.0341801E-02;0; -5.2441835E-02;  4.0040273E+04;  0.0000000E+00; -2.6991220E-02;  4.0000000E+04;  0.0000000E+00;  4.0012395E+04; -5.4925051E-02;  0.0000000E+00;  2.4832138E-03;  1.5094026E+03;
  1.2181919E-01;  9.9999998E-03;  7.9958245E-02;3216; -9.3445396E-03;  0.0000000E+00;  1.9432104E-04;  1.0004847E+03;  1.0000000E-01;  4.0156888E+02;3; -1.4825337E+00;  0.0000000E+00;  1.1715278E-02;0; -5.2209757E-02;  4.0034102E+04;  0.0000000E+00; -3.5049304E-02;  4.0000000E+04;  0.0000000E+00;  4.0014664E+04; -5.4583833E-02;  0.0000000E+00;  2.3740735E-03;  1.7551190E+03;
  1.2184086E-01;  9.9999998E-03;  8.9961335E-02;3217; -9.3123503E-03;  0.0000000E+00;  2.3933309E-04;  1.0004519E+03;  1.0000000E-01;  3.7440915E+02;3; -1.4471519E+00;  0.0000000E+00;  1.2924295E-02;0; -5.1949881E-02;  4.0028875E+04;  0.0000000E+00; -4.2163964E-02;  4.0000000E+04;  0.0000000E+00;  4.0016633E+04; -5.4157693E-02;  0.0000000E+00;  2.2078129E-03;  2.0849661E+03;
  1.2186024E-01;  9.9999998E-03;  9.9960819E-02;3218; -9.2807114E-03;  0.0000000E+00;  2.9033705E-04;  1.0004433E+03;  1.0000000E-01;  3.6729825E+02;3; -1.4097050E+00;  0.0000000E+00;  1.4752077E-02;0; -5.1673397E-02;  4.0026332E+04;  0.0000000E+00; -4.6226002E-02;  4.0000000E+04;  0.0000000E+00;  4.0019719E+04; -5.3654023E-02;  0.0000000E+00;  1.9806232E-03;  2.4182476E+03;
  1.2186220E-01;  9.9999998E-03;  1.0995437E-01;3219; -9.2481934E-03;  0.0000000E+00;  3.3911705E-04;  1.0004651E+03;  1.0000000E-01;  3.8537183E+02;3; -1.3786077E+00;  0.0000000E+00;  1.5020316E-02;0; -5.1390406E-02;  4.0026055E+04;  0.0000000E+00; -4.4276003E-02;  4.0000000E+04;  0.0000000E+00;  4.0021535E+04; -5.3088795E-02;  0.0000000E+00;  1.6983906E-03;  2.6533264E+03;
  1.2178411E-01;  9.9999998E-03;  1.1995611E-01;3220; -9.2101153E-03;  0.0000000E+00;  3.7920222E-04;  1.0005141E+03;  1.0000000E-01;  4.2596326E+02;3; -1.3672620E+00;  0.0000000E+00;  1.4903358E-02;0; -5.1107988E-02;  4.0029766E+04;  0.0000000E+00; -3.2239206E-02;  4.0000000E+04;  0.0000000E+00;  4.0021848E+04; -5.2486070E-02;  0.0000000E+00;  1.3780836E-03;  2.6980730E+03;
  1.2165421E-01;  9.9999998E-03;  1.2995334E-01;3221; -9.1649015E-03;  0.0000000E+00;  4.0462025E-04;  1.0005827E+03;  1.0000000E-01;  4.8275177E+02;3; -1.3740610E+00;  0.0000000E+00;  1.3859306E-02;0; -5.0828923E-02;  4.0037090E+04;  0.0000000E+00; -4.7205193E-03;  4.0000000E+04;  0.0000000E+00;  4.0020492E+04; -5.1873259E-02;  0.0000000E+00;  1.0443355E-03;  2.4967939E+03;
  1.2151701E-01;  9.9999998E-03;  1.3994141E-01;3222; -9.1096824E-03;  0.0000000E+00;  4.1077231E-04;  1.0006662E+03;  1.0000000E-01;  5.5188562E+02;3; -1.3913741E+00;  0.0000000E+00;  1.2122407E-02;0; -5.0549459E-02;  4.0047402E+04;  0.0000000E+00;  4.5856647E-02;  4.0000000E+04;  0.0000000E+00;  4.0016535E+04; -5.1276576E-02;  0.0000000E+00;  7.2711695E-04;  2.0604189E+03;
  1.2142210E-01;  9.9999998E-03;  1.4992513E-01;3223; -9.0400884E-03;  0.0000000E+00;  3.9912001E-04;  1.0007581E+03;  1.0000000E-01;  6.2803162E+02;3; -1.4059819E+00;  0.0000000E+00;  1.4620727E-02;0; -5.0258029E-02;  4.0059320E+04;  0.0000000E+00;  1.2934768E-01;  4.0000000E+04;  0.0000000E+00;  4.0012820E+04; -5.0715178E-02;  0.0000000E+00;  4.5714839E-04;  1.4789177E+03;
  1.2137639E-01;  9.9999998E-03;  1.5991610E-01;3224; -8.9487834E-03;  0.0000000E+00;  3.7422148E-04;  1.0008464E+03;  1.0000000E-01;  7.0121472E+02;3; -1.4059516E+00;  0.0000000E+00;  6.4709619E-02;0; -4.9941439E-02;  4.0071215E+04;  0.0000000E+00;  2.5577894E-01;  4.0000000E+04;  0.0000000E+00;  4.0007594E+04; -5.0200373E-02;  0.0000000E+00;  2.5893448E-04;  9.2818219E+02;
  1.2137630E-01;  9.9999998E-03;  1.6992173E-01;3225; -8.8276612E-03;  0.0000000E+00;  3.4100018E-04;  1.0009230E+03;  1.0000000E-01;  7.6471912E+02;3; -1.3778577E+00;  0.0000000E+00;  2.5677288E-01;0; -4.9586233E-02;  4.0081488E+04;  0.0000000E+00;  4.3298239E-01;  4.0000000E+04;  0.0000000E+00;  4.0003668E+04; -4.9730785E-02;  0.0000000E+00;  1.4455082E-04;  7.2246539E+02;
  1.2140039E-01;  9.9999998E-03;  1.7993066E-01;3226; -8.6686593E-03;  0.0000000E+00;  3.0564191E-04;  1.0009758E+03;  1.0000000E-01;  8.0847095E+02;3; -1.3116579E+00;  0.0000000E+00;  7.2636080E-01;0; -4.9178772E-02;  4.0087156E+04;  0.0000000E+00;  6.6596919E-01;  4.0000000E+04;  0.0000000E+00;  4.0002180E+04; -4.9290333E-02;  0.0000000E+00;  1.1156036E-04;  9.6744623E+02;
  1.2143067E-01;  9.9999998E-03;  1.8993972E-01;3227; -8.4646661E-03;  0.0000000E+00;  2.7681631E-04;  1.0009920E+03;  1.0000000E-01;  8.2190271E+02;3; -1.2064723E+00;  0.0000000E+00;  1.6596175E+00;0; -4.8706546E-02;  4.0086727E+04;  0.0000000E+00;  9.6247798E-01;  4.0000000E+04;  0.0000000E+00;  4.0003312E+04; -4.8847359E-02;  0.0000000E+00;  1.4081210E-04;  1.4234933E+03;
  1.2144805E-01;  9.9999998E-03;  1.9994979E-01;3228; -8.2102241E-03;  0.0000000E+00;  2.6376042E-04;  1.0009521E+03;  1.0000000E-01;  7.8881720E+02;3; -1.0730404E+00;  0.0000000E+00;  3.3200042E+00;0; -4.8159499E-02;  4.0078527E+04;  0.0000000E+00;  1.3432517E+00;  4.0000000E+04;  0.0000000E+00;  4.0008324E+04; -4.8357297E-02;  0.0000000E+00;  1.9779685E-04;  2.1513450E+03;
  1.2144312E-01;  9.9999998E-03;  2.0996013E-01;3229; -7.9013454E-03;  0.0000000E+00;  2.7873702E-04;  1.0008406E+03;  1.0000000E-01;  6.9637537E+02;3; -9.2629123E-01;  0.0000000E+00;  6.0358081E+00;0; -4.7526997E-02;  4.0061488E+04;  0.0000000E+00;  1.8502610E+00;  4.0000000E+04;  0.0000000E+00;  4.0015695E+04; -4.7763728E-02;  0.0000000E+00;  2.3673079E-04;  3.2644246E+03;
  1.2142117E-01;  9.9999998E-03;  2.1997169E-01;3230; -7.5353822E-03;  0.0000000E+00;  3.3545017E-04;  1.0006304E+03;  1.0000000E-01;  5.2225684E+02;3; -7.7229625E-01;  0.0000000E+00;  1.0074308E+01;0; -4.6792336E-02;  4.0035266E+04;  0.0000000E+00;  2.5451384E+00;  4.0000000E+04;  0.0000000E+00;  4.0024953E+04; -4.7001280E-02;  0.0000000E+00;  2.0894228E-04;  4.7402368E+03;
  1.2137177E-01;  9.9999998E-03;  2.2998103E-01;3231; -7.1052937E-03;  0.0000000E+00;  4.4923945E-04;  1.0003157E+03;  1.0000000E-01;  2.6162222E+02;3; -6.1493933E-01;  0.0000000E+00;  1.5412963E+01;0; -4.5920774E-02;  4.0000676E+04;  0.0000000E+00;  3.4901268E+00;  4.0000000E+04;  0.0000000E+00;  4.0033012E+04; -4.5996156E-02;  0.0000000E+00;  7.5380900E-05;  6.4715112E+03;
  1.3169976E-01;  9.9999998E-03;  6.9946356E-02;3276; -9.8665664E-03;  0.0000000E+00;  1.4096948E-04;  9.9982147E+02;  1.0000000E-01; -1.4789705E+02;3; -4.0270466E-01;  0.0000000E+00;  4.6629771E-03;0; -5.2759349E-02;  3.9978793E+04;  0.0000000E+00; -3.1430114E-02;  4.0000000E+04;  0.0000000E+00;  4.0013324E+04; -5.5023205E-02;  0.0000000E+00;  2.2638552E-03;  1.6602145E+03;
  1.3172765E-01;  9.9999998E-03;  7.9950541E-02;3277; -9.8318895E-03;  0.0000000E+00;  1.7052254E-04;  9.9976862E+02;  1.0000000E-01; -1.9169829E+02;3; -3.8672334E-01;  0.0000000E+00;  5.5202479E-03;0; -5.2516483E-02;  3.9972520E+04;  0.0000000E+00; -4.1979905E-02;  4.0000000E+04;  0.0000000E+00;  4.0015281E+04; -5.4662343E-02;  0.0000000E+00;  2.1458617E-03;  1.9152491E+03;
  1.3176173E-01;  9.9999998E-03;  8.9954779E-02;3278; -9.7947037E-03;  0.0000000E+00;  2.0835453E-04;  9.9973590E+02;  1.0000000E-01; -2.1880862E+02;3; -3.6742610E-01;  0.0000000E+00;  7.0601227E-03;0; -5.2239917E-02;  3.9967754E+04;  0.0000000E+00; -5.2263081E-02;  4.0000000E+04;  0.0000000E+00;  4.0018023E+04; -5.4210830E-02;  0.0000000E+00;  1.9709147E-03;  2.2494636E+03;
  1.3179764E-01;  9.9999998E-03;  9.9955350E-02;3279; -9.7548626E-03;  0.0000000E+00;  2.5030773E-04;  9.9973181E+02;  1.0000000E-01; -2.2216655E+02;3; -3.4703591E-01;  0.0000000E+00;  8.3834799E-03;0; -5.1941816E-02;  3.9965000E+04;  0.0000000E+00; -5.9892859E-02;  4.0000000E+04;  0.0000000E+00;  4.0020629E+04; -5.3676952E-02;  0.0000000E+00;  1.7351360E-03;  2.5811318E+03;
  1.3183093E-01;  9.9999998E-03;  1.0994732E-01;3280; -9.7113894E-03;  0.0000000E+00;  2.9004531E-04;  9.9975415E+02;  1.0000000E-01; -2.0369794E+02;3; -3.2748854E-01;  0.0000000E+00;  9.3695940E-03;0; -5.1635154E-02;  3.9965102E+04;  0.0000000E+00; -6.1482806E-02;  4.0000000E+04;  0.0000000E+00;  4.0022340E+04; -5.3079013E-02;  0.0000000E+00;  1.4438574E-03;  2.8080369E+03;
  1.3185784E-01;  9.9999998E-03;  1.1992881E-01;3281; -9.6633276E-03;  0.0000000E+00;  3.2197029E-04;  9.9979919E+02;  1.0000000E-01; -1.6636566E+02;3; -3.1058788E-01;  0.0000000E+00;  1.0543807E-02;0; -5.1330987E-02;  3.9968801E+04;  0.0000000E+00; -5.2551445E-02;  4.0000000E+04;  0.0000000E+00;  4.0022160E+04; -5.2443516E-02;  0.0000000E+00;  1.1125284E-03;  2.8362703E+03;
  1.3187122E-01;  9.9999998E-03;  1.2990056E-01;3282; -9.6085239E-03;  0.0000000E+00;  3.3895113E-04;  9.9986426E+02;  1.0000000E-01; -1.1244126E+02;3; -2.9768249E-01;  0.0000000E+00;  1.1529755E-02;0; -5.1036153E-02;  3.9975785E+04;  0.0000000E+00; -2.7337374E-02;  4.0000000E+04;  0.0000000E+00;  4.0020430E+04; -5.1802084E-02;  0.0000000E+00;  7.6593040E-04;  2.6123633E+03;
  1.3184805E-01;  9.9999998E-03;  1.3987030E-01;3283; -9.5428517E-03;  0.0000000E+00;  3.3776354E-04;  9.9994757E+02;  1.0000000E-01; -4.3455563E+01;3; -2.8996545E-01;  0.0000000E+00;  1.1999129E-02;0; -5.0750941E-02;  3.9986461E+04;  0.0000000E+00;  2.1390367E-02;  4.0000000E+04;  0.0000000E+00;  4.0017145E+04; -5.1186658E-02;  0.0000000E+00;  4.3571834E-04;  2.1502971E+03;
  1.3175069E-01;  9.9999998E-03;  1.4986070E-01;3284; -9.4601121E-03;  0.0000000E+00;  3.2067412E-04;  1.0000518E+03;  1.0000000E-01;  4.2961746E+01;3; -2.8817090E-01;  0.0000000E+00;  1.6922720E-02;0; -5.0468281E-02;  3.9999801E+04;  0.0000000E+00;  1.0182253E-01;  4.0000000E+04;  0.0000000E+00;  4.0012426E+04; -5.0623965E-02;  0.0000000E+00;  1.5568512E-04;  1.5434230E+03;
  1.3163045E-01;  9.9999998E-03;  1.5986721E-01;3285; -9.3566710E-03;  0.0000000E+00;  2.9180027E-04;  1.0001660E+03;  1.0000000E-01;  1.3757635E+02;3; -2.8546551E-01;  0.0000000E+00;  6.8071611E-02;0; -5.0182782E-02;  4.0014121E+04;  0.0000000E+00;  2.2125334E-01;  4.0000000E+04;  0.0000000E+00;  4.0007652E+04; -5.0134502E-02;  0.0000000E+00; -4.8280232E-05;  9.6143677E+02;
  1.3156341E-01;  9.9999998E-03;  1.6988654E-01;3286; -9.2287902E-03;  0.0000000E+00;  2.5505960E-04;  1.0002800E+03;  1.0000000E-01;  2.3199344E+02;3; -2.7166951E-01;  0.0000000E+00;  2.5653824E-01;0; -4.9888067E-02;  4.0027059E+04;  0.0000000E+00;  3.8593435E-01;  4.0000000E+04;  0.0000000E+00;  4.0003664E+04; -4.9724739E-02;  0.0000000E+00; -1.6332752E-04;  6.9808716E+02;
  1.3154057E-01;  9.9999998E-03;  1.7990601E-01;3287; -9.0690460E-03;  0.0000000E+00;  2.1625032E-04;  1.0003793E+03;  1.0000000E-01;  3.1426273E+02;3; -2.4642546E-01;  0.0000000E+00;  7.1318334E-01;0; -4.9574237E-02;  4.0036434E+04;  0.0000000E+00;  6.0501945E-01;  4.0000000E+04;  0.0000000E+00;  4.0002758E+04; -4.9385220E-02;  0.0000000E+00; -1.8901916E-04;  9.0260974E+02;
  1.3153777E-01;  9.9999998E-03;  1.8992078E-01;3288; -8.8699330E-03;  0.0000000E+00;  1.8294749E-04;  1.0004448E+03;  1.0000000E-01;  3.6848340E+02;3; -2.1943565E-01;  0.0000000E+00;  1.6266787E+00;0; -4.9233586E-02;  4.0040035E+04;  0.0000000E+00;  9.0049481E-01;  4.0000000E+04;  0.0000000E+00;  4.0004457E+04; -4.9092468E-02;  0.0000000E+00; -1.4111670E-04;  1.3860403E+03;
  1.3153490E-01;  9.9999998E-03;  1.9993100E-01;3289; -8.6252335E-03;  0.0000000E+00;  1.6453619E-04;  1.0004543E+03;  1.0000000E-01;  3.7638443E+02;3; -2.0552532E-01;  0.0000000E+00;  3.2790315E+00;0; -4.8860911E-02;  4.0035184E+04;  0.0000000E+00;  1.3199564E+00;  4.0000000E+04;  0.0000000E+00;  4.0010301E+04; -4.8809767E-02;  0.0000000E+00; -5.1145489E-05;  2.2450229E+03;
  1.3151546E-01;  9.9999998E-03;  2.0993552E-01;3290; -8.3308015E-03;  0.0000000E+00;  1.6995550E-04;  1.0003842E+03;  1.0000000E-01;  3.1831198E+02;3; -2.1381459E-01;  0.0000000E+00;  6.0294819E+00;0; -4.8450246E-02;  4.0021000E+04;  0.0000000E+00;  1.9444664E+00;  4.0000000E+04;  0.0000000E+00;  4.0018340E+04; -4.8488043E-02;  0.0000000E+00;  3.7798454E-05;  3.6010986E+03;
  1.3147184E-01;  9.9999998E-03;  2.1993674E-01;3291; -7.9836529E-03;  0.0000000E+00;  2.0567644E-04;  1.0002069E+03;  1.0000000E-01;  1.7145193E+02;3; -2.2780681E-01;  0.0000000E+00;  1.0184378E+01;0; -4.7986813E-02;  3.9996465E+04;  0.0000000E+00;  2.8816741E+00;  4.0000000E+04;  0.0000000E+00;  4.0028473E+04; -4.8065517E-02;  0.0000000E+00;  7.8702578E-05;  5.4482778E+03;
  1.3139684E-01;  9.9999998E-03;  2.2993255E-01;3292; -7.5801499E-03;  0.0000000E+00;  2.8059806E-04;  9.9991052E+02;  1.0000000E-01; -7.4121361E+01;3; -2.0001741E-01;  0.0000000E+00;  1.5746287E+01;0; -4.7435682E-02;  3.9962848E+04;  0.0000000E+00;  4.2399054E+00;  4.0000000E+04;  0.0000000E+00;  4.0038125E+04; -4.7467411E-02;  0.0000000E+00;  3.1729869E-05;  7.7391006E+03;
  1.4158322E-01;  9.9999998E-03;  6.9929846E-02;3337; -1.0434564E-02;  0.0000000E+00;  1.2260249E-04;  9.9925226E+02;  1.0000000E-01; -6.1948865E+02;3;  2.0886064E-02;  0.0000000E+00; -4.1712899E-04;0; -5.3477660E-02;  3.9929973E+04;  0.0000000E+00; -2.9471146E-02;  4.0000000E+04;  0.0000000E+00;  4.0012871E+04; -5.5518430E-02;  0.0000000E+00;  2.0407715E-03;  1.6638702E+03;
  1.4161743E-01;  9.9999998E-03;  7.9935618E-02;3338; -1.0397156E-02;  0.0000000E+00;  1.4701643E-04;  9.9921161E+02;  1.0000000E-01; -6.5316669E+02;3;  3.1832438E-02;  0.0000000E+00; -1.3711092E-04;0; -5.3228527E-02;  3.9924887E+04;  0.0000000E+00; -4.0595662E-02;  4.0000000E+04;  0.0000000E+00;  4.0014770E+04; -5.5144258E-02;  0.0000000E+00;  1.9157287E-03;  1.9282898E+03;
  1.4165826E-01;  9.9999998E-03;  8.9942515E-02;3339; -1.0353644E-02;  0.0000000E+00;  1.7793704E-04;  9.9919403E+02;  1.0000000E-01; -6.6773419E+02;3;  4.4199914E-02;  0.0000000E+00;  9.8394381E-04;0; -5.2939694E-02;  3.9921176E+04;  0.0000000E+00; -5.2748673E-02;  4.0000000E+04;  0.0000000E+00;  4.0017363E+04; -5.4674923E-02;  0.0000000E+00;  1.7352281E-03;  2.2662849E+03;
  1.4170268E-01;  9.9999998E-03;  9.9945799E-02;3340; -1.0303604E-02;  0.0000000E+00;  2.1157802E-04;  9.9920477E+02;  1.0000000E-01; -6.5884558E+02;3;  5.7466272E-02;  0.0000000E+00;  1.7507325E-03;0; -5.2624546E-02;  3.9919672E+04;  0.0000000E+00; -6.3860580E-02;  4.0000000E+04;  0.0000000E+00;  4.0020238E+04; -5.4119471E-02;  0.0000000E+00;  1.4949240E-03;  2.5958311E+03;
  1.4174600E-01;  9.9999998E-03;  1.0994095E-01;3341; -1.0246805E-02;  0.0000000E+00;  2.4450989E-04;  9.9924091E+02;  1.0000000E-01; -6.2887109E+02;3;  7.1174018E-02;  0.0000000E+00;  2.9734352E-03;0; -5.2298520E-02;  3.9921195E+04;  0.0000000E+00; -7.0615552E-02;  4.0000000E+04;  0.0000000E+00;  4.0021793E+04; -5.3497676E-02;  0.0000000E+00;  1.1991562E-03;  2.8160659E+03;
  1.4178416E-01;  9.9999998E-03;  1.1992518E-01;3342; -1.0182976E-02;  0.0000000E+00;  2.6931611E-04;  9.9930469E+02;  1.0000000E-01; -5.7603308E+02;3;  8.4648490E-02;  0.0000000E+00;  4.3417076E-03;0; -5.1976029E-02;  3.9926223E+04;  0.0000000E+00; -6.8355255E-02;  4.0000000E+04;  0.0000000E+00;  4.0021762E+04; -5.2838299E-02;  0.0000000E+00;  8.6227222E-04;  2.8340588E+03;
  1.4181451E-01;  9.9999998E-03;  1.2989894E-01;3343; -1.0111515E-02;  0.0000000E+00;  2.7935280E-04;  9.9938489E+02;  1.0000000E-01; -5.0961520E+02;3;  9.7610377E-02;  0.0000000E+00;  5.7110381E-03;0; -5.1668353E-02;  3.9934871E+04;  0.0000000E+00; -5.1088516E-02;  4.0000000E+04;  0.0000000E+00;  4.0020281E+04; -5.2176517E-02;  0.0000000E+00;  5.0816260E-04;  2.5963210E+03;
  1.4183410E-01;  9.9999998E-03;  1.3986543E-01;3344; -1.0030901E-02;  0.0000000E+00;  2.7166671E-04;  9.9948212E+02;  1.0000000E-01; -4.2907428E+02;3;  1.1001440E-01;  0.0000000E+00;  7.3099318E-03;0; -5.1381201E-02;  3.9946840E+04;  0.0000000E+00; -1.1754962E-02;  4.0000000E+04;  0.0000000E+00;  4.0016469E+04; -5.1549051E-02;  0.0000000E+00;  1.6785070E-04;  2.1158806E+03;
  1.4183830E-01;  9.9999998E-03;  1.4983168E-01;3345; -9.9381953E-03;  0.0000000E+00;  2.4823940E-04;  9.9959894E+02;  1.0000000E-01; -3.3228690E+02;3;  1.2183927E-01;  0.0000000E+00;  1.3286246E-02;0; -5.1114295E-02;  3.9961301E+04;  0.0000000E+00;  5.6731991E-02;  4.0000000E+04;  0.0000000E+00;  4.0011266E+04; -5.0988961E-02;  0.0000000E+00; -1.2533301E-04;  1.4838226E+03;
  1.4181536E-01;  9.9999998E-03;  1.5981218E-01;3346; -9.8283887E-03;  0.0000000E+00;  2.1343812E-04;  9.9972614E+02;  1.0000000E-01; -2.2690717E+02;3;  1.3371159E-01;  0.0000000E+00;  6.5588012E-02;0; -5.0863612E-02;  3.9976934E+04;  0.0000000E+00;  1.5998882E-01;  4.0000000E+04;  0.0000000E+00;  4.0006871E+04; -5.0520465E-02;  0.0000000E+00; -3.4314644E-04;  8.6678870E+02;
  1.4175600E-01;  9.9999998E-03;  1.6983084E-01;3347; -9.6951006E-03;  0.0000000E+00;  1.7146239E-04;  9.9986084E+02;  1.0000000E-01; -1.1530538E+02;3;  1.4422143E-01;  0.0000000E+00;  2.5248674E-01;0; -5.0622664E-02;  3.9991664E+04;  0.0000000E+00;  3.0432037E-01;  4.0000000E+04;  0.0000000E+00;  4.0002531E+04; -5.0155379E-02;  0.0000000E+00; -4.6728490E-04;  5.6000385E+02;
  1.4167370E-01;  9.9999998E-03;  1.7987674E-01;3348; -9.5325112E-03;  0.0000000E+00;  1.2706468E-04;  9.9998853E+02;  1.0000000E-01; -9.5305948E+00;3;  1.4464034E-01;  0.0000000E+00;  7.0134461E-01;0; -5.0388332E-02;  4.0003379E+04;  0.0000000E+00;  5.0537676E-01;  4.0000000E+04;  0.0000000E+00;  4.0001527E+04; -4.9895156E-02;  0.0000000E+00; -4.9317570E-04;  7.4979816E+02;
  1.4161277E-01;  9.9999998E-03;  1.8991101E-01;3349; -9.3366913E-03;  0.0000000E+00;  8.6884196E-05;  1.0000858E+03;  1.0000000E-01;  7.1010338E+01;3;  1.1726886E-01;  0.0000000E+00;  1.6005206E+00;0; -5.0166164E-02;  4.0009238E+04;  0.0000000E+00;  8.0147928E-01;  4.0000000E+04;  0.0000000E+00;  4.0004164E+04; -4.9731582E-02;  0.0000000E+00; -4.3458043E-04;  1.2508221E+03;
  1.4157775E-01;  9.9999998E-03;  1.9992688E-01;3350; -9.1023296E-03;  0.0000000E+00;  5.9018050E-05;  1.0001251E+03;  1.0000000E-01;  1.0370077E+02;3;  4.4078179E-02;  0.0000000E+00;  3.2416856E+00;0; -4.9961809E-02;  4.0006641E+04;  0.0000000E+00;  1.2667464E+00;  4.0000000E+04;  0.0000000E+00;  4.0010484E+04; -4.9641002E-02;  0.0000000E+00; -3.2080652E-04;  2.2204236E+03;
  1.4154328E-01;  9.9999998E-03;  2.0992774E-01;3351; -8.8242358E-03;  0.0000000E+00;  5.1273073E-05;  1.0000791E+03;  1.0000000E-01;  6.5578392E+01;3; -7.1507789E-02;  0.0000000E+00;  6.0129843E+00;0; -4.9776316E-02;  3.9993809E+04;  0.0000000E+00;  2.0173185E+00;  4.0000000E+04;  0.0000000E+00;  4.0019992E+04; -4.9584635E-02;  0.0000000E+00; -1.9168171E-04;  3.8029502E+03;
  1.4148659E-01;  9.9999998E-03;  2.1992017E-01;3352; -8.4988279E-03;  0.0000000E+00;  6.8552290E-05;  9.9991895E+02;  1.0000000E-01; -6.7158592E+01;3; -1.7942920E-01;  0.0000000E+00;  1.0268873E+01;0; -4.9599882E-02;  3.9969859E+04;  0.0000000E+00;  3.2040000E+00;  4.0000000E+04;  0.0000000E+00;  4.0030836E+04; -4.9508613E-02;  0.0000000E+00; -9.1270682E-05;  6.0281353E+03;
  1.4140075E-01;  9.9999998E-03;  2.2990492E-01;3353; -8.1243934E-03;  0.0000000E+00;  1.0958045E-04;  9.9962390E+02;  1.0000000E-01; -3.1159613E+02;3; -1.6535212E-01;  0.0000000E+00;  1.6061443E+01;0; -4.9404405E-02;  3.9935250E+04;  0.0000000E+00;  4.9849925E+00;  4.0000000E+04;  0.0000000E+00;  4.0041723E+04; -4.9344506E-02;  0.0000000E+00; -5.9897982E-05;  8.9276162E+03;
  1.5147832E-01;  9.9999998E-03;  6.9926694E-02;3398; -1.1076511E-02;  0.0000000E+00;  1.0633773E-04;  9.9884601E+02;  1.0000000E-01; -9.5607172E+02;3;  1.3410300E-01;  0.0000000E+00; -5.9485990E-03;0; -5.4374620E-02;  3.9896098E+04;  0.0000000E+00; -2.3968481E-02;  4.0000000E+04;  0.0000000E+00;  4.0011234E+04; -5.6199159E-02;  0.0000000E+00;  1.8245401E-03;  1.5112952E+03;
  1.5152064E-01;  9.9999998E-03;  7.9926960E-02;3399; -1.1035914E-02;  0.0000000E+00;  1.2547559E-04;  9.9882556E+02;  1.0000000E-01; -9.7300952E+02;3;  1.4386620E-01;  0.0000000E+00; -6.1882241E-03;0; -5.4125473E-02;  3.9892578E+04;  0.0000000E+00; -3.3309396E-02;  4.0000000E+04;  0.0000000E+00;  4.0013715E+04; -5.5820473E-02;  0.0000000E+00;  1.6950003E-03;  1.7826268E+03;
  1.5156697E-01;  9.9999998E-03;  8.9928605E-02;3400; -1.0985089E-02;  0.0000000E+00;  1.5025589E-04;  9.9883179E+02;  1.0000000E-01; -9.6782446E+02;3;  1.5463704E-01;  0.0000000E+00; -5.8798455E-03;0; -5.3830940E-02;  3.9890449E+04;  0.0000000E+00; -4.5057934E-02;  4.0000000E+04;  0.0000000E+00;  4.0016055E+04; -5.5343818E-02;  0.0000000E+00;  1.5128780E-03;  2.1207319E+03;
  1.5161653E-01;  9.9999998E-03;  9.9930361E-02;3401; -1.0923739E-02;  0.0000000E+00;  1.7842664E-04;  9.9886438E+02;  1.0000000E-01; -9.4086230E+02;3;  1.6624281E-01;  0.0000000E+00; -5.5084024E-03;0; -5.3505421E-02;  3.9891016E+04;  0.0000000E+00; -5.8146909E-02;  4.0000000E+04;  0.0000000E+00;  4.0018770E+04; -5.4778263E-02;  0.0000000E+00;  1.2728428E-03;  2.4457783E+03;
  1.5166380E-01;  9.9999998E-03;  1.0992873E-01;3402; -1.0851756E-02;  0.0000000E+00;  2.0565136E-04;  9.9892664E+02;  1.0000000E-01; -8.8925879E+02;3;  1.7854100E-01;  0.0000000E+00; -4.5822947E-03;0; -5.3166386E-02;  3.9894586E+04;  0.0000000E+00; -7.0087343E-02;  4.0000000E+04;  0.0000000E+00;  4.0020176E+04; -5.4143965E-02;  0.0000000E+00;  9.7758020E-04;  2.6603577E+03;
  1.5170465E-01;  9.9999998E-03;  1.1991794E-01;3403; -1.0769797E-02;  0.0000000E+00;  2.2486816E-04;  9.9901263E+02;  1.0000000E-01; -8.1800159E+02;3;  1.9140342E-01;  0.0000000E+00; -3.3548123E-03;0; -5.2831572E-02;  3.9901660E+04;  0.0000000E+00; -7.6765187E-02;  4.0000000E+04;  0.0000000E+00;  4.0020504E+04; -5.3471245E-02;  0.0000000E+00;  6.3967338E-04;  2.6740471E+03;
  1.5173848E-01;  9.9999998E-03;  1.2989652E-01;3404; -1.0678818E-02;  0.0000000E+00;  2.2979689E-04;  9.9912061E+02;  1.0000000E-01; -7.2857196E+02;3;  2.0458564E-01;  0.0000000E+00; -1.8385301E-03;0; -5.2515697E-02;  3.9912332E+04;  0.0000000E+00; -7.2440334E-02;  4.0000000E+04;  0.0000000E+00;  4.0018680E+04; -5.2797288E-02;  0.0000000E+00;  2.8159219E-04;  2.4333770E+03;
  1.5176363E-01;  9.9999998E-03;  1.3986826E-01;3405; -1.0579176E-02;  0.0000000E+00;  2.1735438E-04;  9.9923956E+02;  1.0000000E-01; -6.3000690E+02;3;  2.1792679E-01;  0.0000000E+00; -2.7357897E-04;0; -5.2228156E-02;  3.9926191E+04;  0.0000000E+00; -5.0222699E-02;  4.0000000E+04;  0.0000000E+00;  4.0014707E+04; -5.2161627E-02;  0.0000000E+00; -6.6528533E-05;  1.9489291E+03;
  1.5178089E-01;  9.9999998E-03;  1.4983864E-01;3406; -1.0470064E-02;  0.0000000E+00;  1.8935640E-04;  9.9937390E+02;  1.0000000E-01; -5.1870135E+02;3;  2.3133026E-01;  0.0000000E+00;  6.3087894E-03;0; -5.1973674E-02;  3.9942383E+04;  0.0000000E+00; -3.3938172E-03;  4.0000000E+04;  0.0000000E+00;  4.0010453E+04; -5.1602080E-02;  0.0000000E+00; -3.7159407E-04;  1.3063406E+03;
  1.5179075E-01;  9.9999998E-03;  1.5981849E-01;3407; -1.0348868E-02;  0.0000000E+00;  1.4920451E-04;  9.9952057E+02;  1.0000000E-01; -3.9722333E+02;3;  2.4392207E-01;  0.0000000E+00;  6.1225615E-02;0; -5.1753350E-02;  3.9959812E+04;  0.0000000E+00;  7.3534794E-02;  4.0000000E+04;  0.0000000E+00;  4.0004926E+04; -5.1149253E-02;  0.0000000E+00; -6.0409692E-04;  6.5865479E+02;
  1.5178697E-01;  9.9999998E-03;  1.6982684E-01;3408; -1.0210813E-02;  0.0000000E+00;  1.0078754E-04;  9.9967175E+02;  1.0000000E-01; -2.7194293E+02;3;  2.4932730E-01;  0.0000000E+00;  2.5012568E-01;0; -5.1566463E-02;  3.9976035E+04;  0.0000000E+00;  1.8989384E-01;  4.0000000E+04;  0.0000000E+00;  4.0001102E+04; -5.0823588E-02;  0.0000000E+00; -7.4287417E-04;  3.1385672E+02;
  1.5175031E-01;  9.9999998E-03;  1.7986196E-01;3409; -1.0049362E-02;  0.0000000E+00;  4.9105387E-05;  9.9981146E+02;  1.0000000E-01; -1.5619312E+02;3;  2.2921570E-01;  0.0000000E+00;  6.9432265E-01;0; -5.1415715E-02;  3.9989258E+04;  0.0000000E+00;  3.7075117E-01;  4.0000000E+04;  0.0000000E+00;  4.0000156E+04; -5.0636746E-02;  0.0000000E+00; -7.7896833E-04;  5.3061243E+02;
  1.5167943E-01;  9.9999998E-03;  1.8990451E-01;3410; -9.8585794E-03;  0.0000000E+00;  6.9743436E-07;  9.9992407E+02;  1.0000000E-01; -6.2911800E+01;3;  1.5553854E-01;  0.0000000E+00;  1.5803877E+00;0; -5.1311556E-02;  3.9996250E+04;  0.0000000E+00;  6.7094773E-01;  4.0000000E+04;  0.0000000E+00;  4.0002445E+04; -5.0590988E-02;  0.0000000E+00; -7.2056684E-04;  1.0114874E+03;
  1.5160593E-01;  9.9999998E-03;  1.9993694E-01;3411; -9.6347276E-03;  0.0000000E+00; -3.7173086E-05;  9.9997687E+02;  1.0000000E-01; -1.9159952E+01;3;  7.6699285E-03;  0.0000000E+00;  3.2002845E+00;0; -5.1272832E-02;  3.9994562E+04;  0.0000000E+00;  1.1863774E+00;  4.0000000E+04;  0.0000000E+00;  4.0009035E+04; -5.0679106E-02;  0.0000000E+00; -5.9372641E-04;  2.0449535E+03;
  1.5153626E-01;  9.9999998E-03;  2.0994359E-01;3412; -9.3746763E-03;  0.0000000E+00; -5.8105539E-05;  9.9994049E+02;  1.0000000E-01; -4.9282558E+01;3; -1.9661893E-01;  0.0000000E+00;  5.9539757E+00;0; -5.1315170E-02;  3.9982141E+04;  0.0000000E+00;  2.0592186E+00;  4.0000000E+04;  0.0000000E+00;  4.0019043E+04; -5.0878987E-02;  0.0000000E+00; -4.3618295E-04;  3.8074487E+03;
  1.5147318E-01;  9.9999998E-03;  2.1993512E-01;3413; -9.0757813E-03;  0.0000000E+00; -5.6602916E-05;  9.9977911E+02;  1.0000000E-01; -1.8300717E+02;3; -3.6505529E-01;  0.0000000E+00;  1.0233225E+01;0; -5.1444646E-02;  3.9957512E+04;  0.0000000E+00;  3.4705472E+00;  4.0000000E+04;  0.0000000E+00;  4.0030973E+04; -5.1155109E-02;  0.0000000E+00; -2.8953698E-04;  6.3671450E+03;
  1.5140547E-01;  9.9999998E-03;  2.2991115E-01;3414; -8.7355552E-03;  0.0000000E+00; -3.5342327E-05;  9.9947363E+02;  1.0000000E-01; -4.3608643E+02;3; -3.0146739E-01;  0.0000000E+00;  1.6183195E+01;0; -5.1647041E-02;  3.9920637E+04;  0.0000000E+00;  5.6223788E+00;  4.0000000E+04;  0.0000000E+00;  4.0043551E+04; -5.1454734E-02;  0.0000000E+00; -1.9230848E-04;  9.8410586E+03;
  1.6145992E-01;  9.9999998E-03;  6.9959782E-02;3459; -1.1778523E-02;  0.0000000E+00;  9.2800488E-05;  9.9860638E+02;  1.0000000E-01; -1.1545846E+03;3;  1.5793669E-01;  0.0000000E+00; -1.2259454E-02;0; -5.5233788E-02;  3.9877254E+04;  0.0000000E+00; -2.0146366E-02;  4.0000000E+04;  0.0000000E+00;  4.0008848E+04; -5.6856684E-02;  0.0000000E+00;  1.6228949E-03;  1.2178541E+03;
  1.6150545E-01;  9.9999998E-03;  7.9958983E-02;3460; -1.1734258E-02;  0.0000000E+00;  1.0779770E-04;  9.9860736E+02;  1.0000000E-01; -1.1537946E+03;3;  1.6776212E-01;  0.0000000E+00; -1.3338296E-02;0; -5.4990381E-02;  3.9875293E+04;  0.0000000E+00; -2.5736814E-02;  4.0000000E+04;  0.0000000E+00;  4.0011027E+04; -5.6482375E-02;  0.0000000E+00;  1.4919953E-03;  1.4947743E+03;
  1.6155413E-01;  9.9999998E-03;  8.9958303E-02;3461; -1.1675501E-02;  0.0000000E+00;  1.2854634E-04;  9.9863721E+02;  1.0000000E-01; -1.1290544E+03;3;  1.7855789E-01;  0.0000000E+00; -1.3793858E-02;0; -5.4697480E-02;  3.9875180E+04;  0.0000000E+00; -3.4554116E-02;  4.0000000E+04;  0.0000000E+00;  4.0013684E+04; -5.6010008E-02;  0.0000000E+00;  1.3125273E-03;  1.8316874E+03;
  1.6160218E-01;  9.9999998E-03;  9.9956244E-02;3462; -1.1601604E-02;  0.0000000E+00;  1.5241525E-04;  9.9869708E+02;  1.0000000E-01; -1.0794263E+03;3;  1.9025429E-01;  0.0000000E+00; -1.3768505E-02;0; -5.4370176E-02;  3.9877406E+04;  0.0000000E+00; -4.7121178E-02;  4.0000000E+04;  0.0000000E+00;  4.0016207E+04; -5.5448223E-02;  0.0000000E+00;  1.0780478E-03;  2.1505049E+03;
  1.6164526E-01;  9.9999998E-03;  1.0995017E-01;3463; -1.1512828E-02;  0.0000000E+00;  1.7529077E-04;  9.9878461E+02;  1.0000000E-01; -1.0069345E+03;3;  2.0273098E-01;  0.0000000E+00; -1.3399396E-02;0; -5.4027598E-02;  3.9883180E+04;  0.0000000E+00; -6.2622055E-02;  4.0000000E+04;  0.0000000E+00;  4.0018340E+04; -5.4816723E-02;  0.0000000E+00;  7.8912394E-04;  2.3584333E+03;
  1.6167961E-01;  9.9999998E-03;  1.1993622E-01;3464; -1.1410668E-02;  0.0000000E+00;  1.9075187E-04;  9.9889368E+02;  1.0000000E-01; -9.1656665E+02;3;  2.1591054E-01;  0.0000000E+00; -1.2358692E-02;0; -5.3689566E-02;  3.9892434E+04;  0.0000000E+00; -7.8441560E-02;  4.0000000E+04;  0.0000000E+00;  4.0018633E+04; -5.4145433E-02;  0.0000000E+00;  4.5586744E-04;  2.3704866E+03;
  1.6170417E-01;  9.9999998E-03;  1.2991297E-01;3465; -1.1297525E-02;  0.0000000E+00;  1.9264860E-04;  9.9902582E+02;  1.0000000E-01; -8.0708826E+02;3;  2.2959779E-01;  0.0000000E+00; -1.0985382E-02;0; -5.3373441E-02;  3.9904992E+04;  0.0000000E+00; -8.9986846E-02;  4.0000000E+04;  0.0000000E+00;  4.0016141E+04; -5.3472087E-02;  0.0000000E+00;  9.8647310E-05;  2.1356921E+03;
  1.6171983E-01;  9.9999998E-03;  1.3988422E-01;3466; -1.1175729E-02;  0.0000000E+00;  1.7791209E-04;  9.9917407E+02;  1.0000000E-01; -6.8427692E+02;3;  2.4355881E-01;  0.0000000E+00; -9.4547262E-03;0; -5.3091720E-02;  3.9920980E+04;  0.0000000E+00; -9.1035746E-02;  4.0000000E+04;  0.0000000E+00;  4.0012379E+04; -5.2837793E-02;  0.0000000E+00; -2.5392638E-04;  1.6620706E+03;
  1.6173282E-01;  9.9999998E-03;  1.4985649E-01;3467; -1.1046795E-02;  0.0000000E+00;  1.4787301E-04;  9.9933063E+02;  1.0000000E-01; -5.5455225E+02;3;  2.5771779E-01;  0.0000000E+00; -2.2849513E-03;0; -5.2853089E-02;  3.9939148E+04;  0.0000000E+00; -7.4841589E-02;  4.0000000E+04;  0.0000000E+00;  4.0007836E+04; -5.2283660E-02;  0.0000000E+00; -5.6943001E-04;  1.0286285E+03;
  1.6174631E-01;  9.9999998E-03;  1.5983996E-01;3468; -1.0910258E-02;  0.0000000E+00;  1.0522731E-04;  9.9949298E+02;  1.0000000E-01; -4.2003751E+02;3;  2.6963115E-01;  0.0000000E+00;  5.4967828E-02;0; -5.2662112E-02;  3.9957898E+04;  0.0000000E+00; -3.4114454E-02;  4.0000000E+04;  0.0000000E+00;  4.0002383E+04; -5.1845148E-02;  0.0000000E+00; -8.1696268E-04;  3.7106253E+02;
  1.6175574E-01;  9.9999998E-03;  1.6985190E-01;3469; -1.0763126E-02;  0.0000000E+00;  5.3339645E-05;  9.9965857E+02;  1.0000000E-01; -2.8285620E+02;3;  2.6759502E-01;  0.0000000E+00;  2.4648851E-01;0; -5.2524626E-02;  3.9975664E+04;  0.0000000E+00;  4.6743855E-02;  4.0000000E+04;  0.0000000E+00;  3.9998551E+04; -5.1552080E-02;  0.0000000E+00; -9.7254605E-04;  1.5142645E+02;
  1.6174574E-01;  9.9999998E-03;  1.7988747E-01;3470; -1.0600436E-02;  0.0000000E+00; -3.6306581E-06;  9.9980695E+02;  1.0000000E-01; -1.5994609E+02;3;  2.2389510E-01;  0.0000000E+00;  6.8852490E-01;0; -5.2453034E-02;  3.9989855E+04;  0.0000000E+00;  2.0483892E-01;  4.0000000E+04;  0.0000000E+00;  3.9997117E+04; -5.1428974E-02;  0.0000000E+00; -1.0240616E-03;  4.2758719E+02;
  1.6170578E-01;  9.9999998E-03;  1.8992575E-01;3471; -1.0416759E-02;  0.0000000E+00; -5.9456186E-05;  9.9992102E+02;  1.0000000E-01; -6.5430244E+01;3;  1.0071712E-01;  0.0000000E+00;  1.5563148E+00;0; -5.2468974E-02;  3.9997480E+04;  0.0000000E+00;  5.1074070E-01;  4.0000000E+04;  0.0000000E+00;  3.9999742E+04; -5.1493030E-02;  0.0000000E+00; -9.7594550E-04;  7.3380957E+02;
  1.6160300E-01;  9.9999998E-03;  1.9995897E-01;3472; -1.0205277E-02;  0.0000000E+00; -1.0659840E-04;  9.9997614E+02;  1.0000000E-01; -1.9752527E+01;3; -1.2544750E-01;  0.0000000E+00;  3.1304660E+00;0; -5.2596830E-02;  3.9996066E+04;  0.0000000E+00;  1.0756817E+00;  4.0000000E+04;  0.0000000E+00;  4.0006180E+04; -5.1748246E-02;  0.0000000E+00; -8.4858295E-04;  1.7318016E+03;
  1.6149879E-01;  9.9999998E-03;  2.0998125E-01;3473; -9.9653965E-03;  0.0000000E+00; -1.3798030E-04;  9.9993628E+02;  1.0000000E-01; -5.2788631E+01;3; -4.2407951E-01;  0.0000000E+00;  5.7967944E+00;0; -5.2871920E-02;  3.9983504E+04;  0.0000000E+00;  2.0540571E+00;  4.0000000E+04;  0.0000000E+00;  4.0016426E+04; -5.2195221E-02;  0.0000000E+00; -6.7669945E-04;  3.5894656E+03;
  1.6143858E-01;  9.9999998E-03;  2.1997982E-01;3474; -9.6969167E-03;  0.0000000E+00; -1.4634024E-04;  9.9976483E+02;  1.0000000E-01; -1.9480931E+02;3; -6.6188020E-01;  0.0000000E+00;  9.9578400E+00;0; -5.3322732E-02;  3.9958160E+04;  0.0000000E+00;  3.6380162E+00;  4.0000000E+04;  0.0000000E+00;  4.0028957E+04; -5.2823715E-02;  0.0000000E+00; -4.9901771E-04;  6.3804897E+03;
  1.6140793E-01;  9.9999998E-03;  2.2995505E-01;3475; -9.3969349E-03;  0.0000000E+00; -1.3292902E-04;  9.9943835E+02;  1.0000000E-01; -4.6532016E+02;3; -5.5480283E-01;  0.0000000E+00;  1.5833934E+01;0; -5.3955864E-02;  3.9919203E+04;  0.0000000E+00;  6.0490808E+00;  4.0000000E+04;  0.0000000E+00;  4.0041922E+04; -5.3605970E-02;  0.0000000E+00; -3.4989481E-04;  1.0279450E+04;
  1.7145005E-01;  9.9999998E-03;  7.0022002E-02;3520; -1.2506430E-02;  0.0000000E+00;  8.3349449E-05;  9.9852856E+02;  1.0000000E-01; -1.2190767E+03;3;  1.7676637E-01;  0.0000000E+00; -1.9471187E-02;0; -5.5860508E-02;  3.9872570E+04;  0.0000000E+00; -2.2322429E-02;  4.0000000E+04;  0.0000000E+00;  4.0005383E+04; -5.7305183E-02;  0.0000000E+00;  1.4446739E-03;  8.0796124E+02;
  1.7149495E-01;  9.9999998E-03;  8.0024503E-02;3521; -1.2458570E-02;  0.0000000E+00;  9.5213873E-05;  9.9854407E+02;  1.0000000E-01; -1.2061881E+03;3;  1.8676853E-01;  0.0000000E+00; -2.1368245E-02;0; -5.5629726E-02;  3.9871559E+04;  0.0000000E+00; -2.3291856E-02;  4.0000000E+04;  0.0000000E+00;  4.0007430E+04; -5.6945834E-02;  0.0000000E+00;  1.3161064E-03;  1.0871492E+03;
  1.7154671E-01;  9.9999998E-03;  9.0024449E-02;3522; -1.2392118E-02;  0.0000000E+00;  1.1281913E-04;  9.9858521E+02;  1.0000000E-01; -1.1721150E+03;3;  1.9774458E-01;  0.0000000E+00; -2.2803318E-02;0; -5.5347294E-02;  3.9872742E+04;  0.0000000E+00; -2.7238982E-02;  4.0000000E+04;  0.0000000E+00;  4.0010191E+04; -5.6491371E-02;  0.0000000E+00;  1.1440766E-03;  1.4207091E+03;
  1.7160189E-01;  9.9999998E-03;  1.0002144E-01;3523; -1.2306095E-02;  0.0000000E+00;  1.3405668E-04;  9.9866144E+02;  1.0000000E-01; -1.1089563E+03;3;  2.0968720E-01;  0.0000000E+00; -2.3415826E-02;0; -5.5029068E-02;  3.9876551E+04;  0.0000000E+00; -3.6512464E-02;  4.0000000E+04;  0.0000000E+00;  4.0013117E+04; -5.5949740E-02;  0.0000000E+00;  9.2067325E-04;  1.7333485E+03;
  1.7165515E-01;  9.9999998E-03;  1.1001422E-01;3524; -1.2201087E-02;  0.0000000E+00;  1.5419984E-04;  9.9876923E+02;  1.0000000E-01; -1.0196749E+03;3;  2.2247103E-01;  0.0000000E+00; -2.3538226E-02;0; -5.4695472E-02;  3.9883680E+04;  0.0000000E+00; -5.2582230E-02;  4.0000000E+04;  0.0000000E+00;  4.0014723E+04; -5.5339471E-02;  0.0000000E+00;  6.4400007E-04;  1.9380265E+03;
  1.7169873E-01;  9.9999998E-03;  1.2000000E-01;3525; -1.2078994E-02;  0.0000000E+00;  1.6771632E-04;  9.9890015E+02;  1.0000000E-01; -9.1118408E+02;3;  2.3603746E-01;  0.0000000E+00; -2.2976637E-02;0; -5.4367583E-02;  3.9894512E+04;  0.0000000E+00; -7.5316757E-02;  4.0000000E+04;  0.0000000E+00;  4.0014609E+04; -5.4688904E-02;  0.0000000E+00;  3.2131968E-04;  1.9560044E+03;
  1.7172560E-01;  9.9999998E-03;  1.2997772E-01;3526; -1.1943166E-02;  0.0000000E+00;  1.6877611E-04;  9.9905292E+02;  1.0000000E-01; -7.8461981E+02;3;  2.5022542E-01;  0.0000000E+00; -2.1869095E-02;0; -5.4064125E-02;  3.9908852E+04;  0.0000000E+00; -1.0244456E-01;  4.0000000E+04;  0.0000000E+00;  4.0013172E+04; -5.4034531E-02;  0.0000000E+00; -2.9592935E-05;  1.7399866E+03;
  1.7173827E-01;  9.9999998E-03;  1.3994962E-01;3527; -1.1797910E-02;  0.0000000E+00;  1.5414410E-04;  9.9921582E+02;  1.0000000E-01; -6.4966064E+02;3;  2.6488894E-01;  0.0000000E+00; -2.0356333E-02;0; -5.3799447E-02;  3.9925961E+04;  0.0000000E+00; -1.2938026E-01;  4.0000000E+04;  0.0000000E+00;  4.0009617E+04; -5.3417336E-02;  0.0000000E+00; -3.8210995E-04;  1.2971735E+03;
  1.7174366E-01;  9.9999998E-03;  1.4992031E-01;3528; -1.1646952E-02;  0.0000000E+00;  1.2493980E-04;  9.9939417E+02;  1.0000000E-01; -5.0191174E+02;3;  2.7972916E-01;  0.0000000E+00; -1.2607530E-02;0; -5.3584427E-02;  3.9945422E+04;  0.0000000E+00; -1.4956601E-01;  4.0000000E+04;  0.0000000E+00;  4.0005012E+04; -5.2879736E-02;  0.0000000E+00; -7.0469175E-04;  7.0693579E+02;
  1.7174792E-01;  9.9999998E-03;  1.5989940E-01;3529; -1.1492210E-02;  0.0000000E+00;  8.3277657E-05;  9.9957330E+02;  1.0000000E-01; -3.5352087E+02;3;  2.9052979E-01;  0.0000000E+00;  4.5895249E-02;0; -5.3426959E-02;  3.9965250E+04;  0.0000000E+00; -1.5250644E-01;  4.0000000E+04;  0.0000000E+00;  4.0000047E+04; -5.2461423E-02;  0.0000000E+00; -9.6553453E-04;  2.1802530E+02;
  1.7175184E-01;  9.9999998E-03;  1.6989975E-01;3530; -1.1333072E-02;  0.0000000E+00;  3.1870240E-05;  9.9974518E+02;  1.0000000E-01; -2.1110513E+02;3;  2.7989885E-01;  0.0000000E+00;  2.3709339E-01;0; -5.3339414E-02;  3.9983902E+04;  0.0000000E+00; -1.1371885E-01;  4.0000000E+04;  0.0000000E+00;  3.9995812E+04; -5.2200831E-02;  0.0000000E+00; -1.1385822E-03;  5.0342194E+02;
  1.7173666E-01;  9.9999998E-03;  1.7992619E-01;3531; -1.1165895E-02;  0.0000000E+00; -2.5789852E-05;  9.9989728E+02;  1.0000000E-01; -8.5084015E+01;3;  2.1073915E-01;  0.0000000E+00;  6.7194808E-01;0; -5.3343441E-02;  3.9998555E+04;  0.0000000E+00;  1.8193774E-02;  4.0000000E+04;  0.0000000E+00;  3.9994586E+04; -5.2134242E-02;  0.0000000E+00; -1.2092008E-03;  6.8783197E+02;
  1.7167307E-01;  9.9999998E-03;  1.8995515E-01;3532; -1.0985627E-02;  0.0000000E+00; -8.4508050E-05;  1.0000088E+03;  1.0000000E-01;  7.3084354E+00;3;  3.5130858E-02;  0.0000000E+00;  1.5114144E+00;0; -5.3470999E-02;  4.0006738E+04;  0.0000000E+00;  3.2853180E-01;  4.0000000E+04;  0.0000000E+00;  3.9996461E+04; -5.2292928E-02;  0.0000000E+00; -1.1780711E-03;  6.6377789E+02;
  1.7156336E-01;  9.9999998E-03;  1.9999130E-01;3533; -1.0788114E-02;  0.0000000E+00; -1.3714543E-04;  1.0000564E+03;  1.0000000E-01;  4.6714729E+01;3; -2.7693388E-01;  0.0000000E+00;  3.0090795E+00;0; -5.3764764E-02;  4.0005414E+04;  0.0000000E+00;  9.3724585E-01;  4.0000000E+04;  0.0000000E+00;  4.0001664E+04; -5.2702636E-02;  0.0000000E+00; -1.0621289E-03;  1.3793705E+03;
  1.7144519E-01;  9.9999998E-03;  2.1003079E-01;3534; -1.0571660E-02;  0.0000000E+00; -1.7524177E-04;  1.0000034E+03;  1.0000000E-01;  2.7653539E+00;3; -6.8959892E-01;  0.0000000E+00;  5.5038037E+00;0; -5.4274276E-02;  3.9993395E+04;  0.0000000E+00;  1.9978650E+00;  4.0000000E+04;  0.0000000E+00;  4.0010941E+04; -5.3383794E-02;  0.0000000E+00; -8.9048210E-04;  3.2093181E+03;
  1.7138597E-01;  9.9999998E-03;  2.2004631E-01;3535; -1.0337524E-02;  0.0000000E+00; -1.9111324E-04;  9.9982043E+02;  1.0000000E-01; -1.4878592E+02;3; -1.0423560E+00;  0.0000000E+00;  9.3509588E+00;0; -5.5049047E-02;  3.9967977E+04;  0.0000000E+00;  3.6912796E+00;  4.0000000E+04;  0.0000000E+00;  4.0022309E+04; -5.4351535E-02;  0.0000000E+00; -6.9751131E-04;  6.0759844E+03;
  1.7138804E-01;  9.9999998E-03;  2.3003362E-01;3536; -1.0081238E-02;  0.0000000E+00; -1.8109266E-04;  9.9946490E+02;  1.0000000E-01; -4.4329611E+02;3; -9.8484898E-01;  0.0000000E+00;  1.4744696E+01;0; -5.6122787E-02;  3.9927703E+04;  0.0000000E+00;  6.2177005E+00;  4.0000000E+04;  0.0000000E+00;  4.0034430E+04; -5.5611167E-02;  0.0000000E+00; -5.1162136E-04;  1.0141804E+04;
  1.8151969E-01;  9.9999998E-03;  7.0068233E-02;3581; -1.3232681E-02;  0.0000000E+00;  7.6758370E-05;  9.9858899E+02;  1.0000000E-01; -1.1690040E+03;3;  1.9760956E-01;  0.0000000E+00; -2.7614892E-02;0; -5.6133755E-02;  3.9880043E+04;  0.0000000E+00; -2.9300503E-02;  4.0000000E+04;  0.0000000E+00;  4.0001418E+04; -5.7427399E-02;  0.0000000E+00;  1.2936442E-03;  3.1489407E+02;
  1.8152115E-01;  9.9999998E-03;  8.0073968E-02;3582; -1.3179247E-02;  0.0000000E+00;  8.6030006E-05;  9.9859314E+02;  1.0000000E-01; -1.1655472E+03;3;  2.0767164E-01;  0.0000000E+00; -3.0635864E-02;0; -5.5921871E-02;  3.9878867E+04;  0.0000000E+00; -2.5720477E-02;  4.0000000E+04;  0.0000000E+00;  4.0003535E+04; -5.7093944E-02;  0.0000000E+00;  1.1720714E-03;  5.8600482E+02;
  1.8154050E-01;  9.9999998E-03;  9.0075359E-02;3583; -1.3103698E-02;  0.0000000E+00;  1.0139710E-04;  9.9863947E+02;  1.0000000E-01; -1.1271780E+03;3;  2.1869284E-01;  0.0000000E+00; -3.3149432E-02;0; -5.5658076E-02;  3.9880023E+04;  0.0000000E+00; -2.3727810E-02;  4.0000000E+04;  0.0000000E+00;  4.0006414E+04; -5.6671310E-02;  0.0000000E+00;  1.0132334E-03;  9.0962250E+02;
  1.8157652E-01;  9.9999998E-03;  1.0007309E-01;3584; -1.3004785E-02;  0.0000000E+00;  1.2132051E-04;  9.9872089E+02;  1.0000000E-01; -1.0597231E+03;3;  2.3074000E-01;  0.0000000E+00; -3.4658816E-02;0; -5.5358641E-02;  3.9883961E+04;  0.0000000E+00; -2.7333140E-02;  4.0000000E+04;  0.0000000E+00;  4.0008781E+04; -5.6166161E-02;  0.0000000E+00;  8.0751965E-04;  1.2136770E+03;
  1.8162012E-01;  9.9999998E-03;  1.1006670E-01;3585; -1.2882929E-02;  0.0000000E+00;  1.4123459E-04;  9.9883234E+02;  1.0000000E-01; -9.6738007E+02;3;  2.4369624E-01;  0.0000000E+00; -3.5450805E-02;0; -5.5044886E-02;  3.9891555E+04;  0.0000000E+00; -4.0437054E-02;  4.0000000E+04;  0.0000000E+00;  4.0010574E+04; -5.5595212E-02;  0.0000000E+00;  5.5032456E-04;  1.4179802E+03;
  1.8166131E-01;  9.9999998E-03;  1.2005494E-01;3586; -1.2740714E-02;  0.0000000E+00;  1.5498731E-04;  9.9897205E+02;  1.0000000E-01; -8.5163025E+02;3;  2.5760761E-01;  0.0000000E+00; -3.5230778E-02;0; -5.4738980E-02;  3.9902938E+04;  0.0000000E+00; -6.5995611E-02;  4.0000000E+04;  0.0000000E+00;  4.0010758E+04; -5.4984618E-02;  0.0000000E+00;  2.4563749E-04;  1.4511079E+03;
  1.8169388E-01;  9.9999998E-03;  1.3003637E-01;3587; -1.2582632E-02;  0.0000000E+00;  1.5741331E-04;  9.9913165E+02;  1.0000000E-01; -7.1938708E+02;3;  2.7228123E-01;  0.0000000E+00; -3.4554362E-02;0; -5.4460574E-02;  3.9917598E+04;  0.0000000E+00; -1.0508253E-01;  4.0000000E+04;  0.0000000E+00;  4.0009609E+04; -5.4368705E-02;  0.0000000E+00; -9.1868846E-05;  1.2701956E+03;
  1.8171601E-01;  9.9999998E-03;  1.4001097E-01;3588; -1.2414383E-02;  0.0000000E+00;  1.4546434E-04;  9.9930365E+02;  1.0000000E-01; -5.7692194E+02;3;  2.8758076E-01;  0.0000000E+00; -3.3321586E-02;0; -5.4224905E-02;  3.9935121E+04;  0.0000000E+00; -1.5590172E-01;  4.0000000E+04;  0.0000000E+00;  4.0006156E+04; -5.3786945E-02;  0.0000000E+00; -4.3796172E-04;  8.8536475E+02;
  1.8172547E-01;  9.9999998E-03;  1.4998209E-01;3589; -1.2241295E-02;  0.0000000E+00;  1.1965052E-04;  9.9948688E+02;  1.0000000E-01; -4.2512378E+02;3;  3.0304202E-01;  0.0000000E+00; -2.5661724E-02;0; -5.4043379E-02;  3.9954707E+04;  0.0000000E+00; -2.1296601E-01;  4.0000000E+04;  0.0000000E+00;  4.0001836E+04; -5.3280946E-02;  0.0000000E+00; -7.6243421E-04;  4.2238492E+02;
  1.8172315E-01;  9.9999998E-03;  1.5995717E-01;3590; -1.2067267E-02;  0.0000000E+00;  8.1964179E-05;  9.9967010E+02;  1.0000000E-01; -2.7332559E+02;3;  3.1261551E-01;  0.0000000E+00;  3.1606954E-02;0; -5.3926401E-02;  3.9974820E+04;  0.0000000E+00; -2.6230344E-01;  4.0000000E+04;  0.0000000E+00;  3.9997230E+04; -5.2893229E-02;  0.0000000E+00; -1.0331719E-03;  4.8666254E+02;
  1.8170969E-01;  9.9999998E-03;  1.6994649E-01;3591; -1.1893943E-02;  0.0000000E+00;  3.4589833E-05;  9.9984448E+02;  1.0000000E-01; -1.2883586E+02;3;  2.9377228E-01;  0.0000000E+00;  2.1677476E-01;0; -5.3891659E-02;  3.9993668E+04;  0.0000000E+00; -2.6918715E-01;  4.0000000E+04;  0.0000000E+00;  3.9993379E+04; -5.2668918E-02;  0.0000000E+00; -1.2227402E-03;  9.0463202E+02;
  1.8167140E-01;  9.9999998E-03;  1.7995560E-01;3592; -1.1719864E-02;  0.0000000E+00; -1.9494451E-05;  9.9999420E+02;  1.0000000E-01; -4.7899880E+00;3;  2.0107882E-01;  0.0000000E+00;  6.3512033E-01;0; -5.3969678E-02;  4.0008203E+04;  0.0000000E+00; -1.6704352E-01;  4.0000000E+04;  0.0000000E+00;  3.9991430E+04; -5.2655131E-02;  0.0000000E+00; -1.3145455E-03;  1.0940236E+03;
  1.8159325E-01;  9.9999998E-03;  1.8998434E-01;3593; -1.1541941E-02;  0.0000000E+00; -7.5893979E-05;  1.0000981E+03;  1.0000000E-01;  8.1281654E+01;3; -2.4576025E-02;  0.0000000E+00;  1.4324088E+00;0; -5.4205026E-02;  4.0016539E+04;  0.0000000E+00;  1.4340115E-01;  4.0000000E+04;  0.0000000E+00;  3.9992367E+04; -5.2898698E-02;  0.0000000E+00; -1.3063285E-03;  9.6032330E+02;
  1.8149242E-01;  9.9999998E-03;  2.0002687E-01;3594; -1.1358030E-02;  0.0000000E+00; -1.2792856E-04;  1.0001332E+03;  1.0000000E-01;  1.1031787E+02;3; -4.2388269E-01;  0.0000000E+00;  2.8222389E+00;0; -5.4655954E-02;  4.0015922E+04;  0.0000000E+00;  7.8646612E-01;  4.0000000E+04;  0.0000000E+00;  3.9997078E+04; -5.3445306E-02;  0.0000000E+00; -1.2106474E-03;  1.2105782E+03;
  1.8137929E-01;  9.9999998E-03;  2.1008080E-01;3595; -1.1165451E-02;  0.0000000E+00; -1.6786528E-04;  1.0000703E+03;  1.0000000E-01;  5.8269958E+01;3; -9.6965235E-01;  0.0000000E+00;  5.0704374E+00;0; -5.5387180E-02;  4.0004727E+04;  0.0000000E+00;  1.9060454E+00;  4.0000000E+04;  0.0000000E+00;  4.0004152E+04; -5.4336209E-02;  0.0000000E+00; -1.0509701E-03;  2.8360410E+03;
  1.8131141E-01;  9.9999998E-03;  2.2012392E-01;3596; -1.0963782E-02;  0.0000000E+00; -1.8936572E-04;  9.9987134E+02;  1.0000000E-01; -1.0661427E+02;3; -1.5061032E+00;  0.0000000E+00;  8.3892641E+00;0; -5.6468155E-02;  3.9981016E+04;  0.0000000E+00;  3.6564713E+00;  4.0000000E+04;  0.0000000E+00;  4.0013059E+04; -5.5611853E-02;  0.0000000E+00; -8.5630151E-04;  5.6122056E+03;
  1.8132636E-01;  9.9999998E-03;  2.3013580E-01;3597; -1.0747369E-02;  0.0000000E+00; -1.8773749E-04;  9.9949329E+02;  1.0000000E-01; -4.1979059E+02;3; -1.6739408E+00;  0.0000000E+00;  1.2819871E+01;0; -5.7962727E-02;  3.9941848E+04;  0.0000000E+00;  6.1785121E+00;  4.0000000E+04;  0.0000000E+00;  4.0022730E+04; -5.7310816E-02;  0.0000000E+00; -6.5191224E-04;  9.5683877E+03;
  1.9164363E-01;  9.9999998E-03;  7.0085444E-02;3642; -1.3929185E-02;  0.0000000E+00;  7.1793009E-05;  9.9875964E+02;  1.0000000E-01; -1.0276252E+03;3;  2.2073458E-01;  0.0000000E+00; -3.6403347E-02;0; -5.6001920E-02;  3.9897488E+04;  0.0000000E+00; -3.3674683E-02;  4.0000000E+04;  0.0000000E+00;  3.9997344E+04; -5.7174277E-02;  0.0000000E+00;  1.1723558E-03;  2.1646646E+02;
  1.9161791E-01;  9.9999998E-03;  8.0092780E-02;3643; -1.3873107E-02;  0.0000000E+00;  7.7715289E-05;  9.9874982E+02;  1.0000000E-01; -1.0357732E+03;3;  2.3083048E-01;  0.0000000E+00; -4.0671773E-02;0; -5.5816732E-02;  3.9894863E+04;  0.0000000E+00; -2.6357688E-02;  4.0000000E+04;  0.0000000E+00;  3.9999363E+04; -5.6878112E-02;  0.0000000E+00;  1.0613810E-03;  5.6338844E+01;
  1.9159713E-01;  9.9999998E-03;  9.0096757E-02;3644; -1.3790013E-02;  0.0000000E+00;  9.0799163E-05;  9.9877612E+02;  1.0000000E-01; -1.0139467E+03;3;  2.4178316E-01;  0.0000000E+00; -4.4590712E-02;0; -5.5581216E-02;  3.9894543E+04;  0.0000000E+00; -1.8308081E-02;  4.0000000E+04;  0.0000000E+00;  4.0001828E+04; -5.6502067E-02;  0.0000000E+00;  9.2084979E-04;  3.4810916E+02;
  1.9158828E-01;  9.9999998E-03;  1.0009768E-01;3645; -1.3678639E-02;  0.0000000E+00;  1.1010702E-04;  9.9883832E+02;  1.0000000E-01; -9.6244189E+02;3;  2.5370142E-01;  0.0000000E+00; -4.7414925E-02;0; -5.5311546E-02;  3.9897340E+04;  0.0000000E+00; -1.4465597E-02;  4.0000000E+04;  0.0000000E+00;  4.0004043E+04; -5.6050833E-02;  0.0000000E+00;  7.3928601E-04;  6.3971631E+02;
  1.9159469E-01;  9.9999998E-03;  1.1009511E-01;3646; -1.3540103E-02;  0.0000000E+00;  1.3180583E-04;  9.9893231E+02;  1.0000000E-01; -8.8456757E+02;3;  2.6669067E-01;  0.0000000E+00; -4.9382612E-02;0; -5.5029411E-02;  3.9903516E+04;  0.0000000E+00; -2.0851528E-02;  4.0000000E+04;  0.0000000E+00;  4.0005992E+04; -5.5538394E-02;  0.0000000E+00;  5.0898344E-04;  8.4504761E+02;
  1.9161311E-01;  9.9999998E-03;  1.2008791E-01;3647; -1.3377968E-02;  0.0000000E+00;  1.4949580E-04;  9.9906134E+02;  1.0000000E-01; -7.7765704E+02;3;  2.8082848E-01;  0.0000000E+00; -4.9683806E-02;0; -5.4757498E-02;  3.9913699E+04;  0.0000000E+00; -4.3656979E-02;  4.0000000E+04;  0.0000000E+00;  4.0006406E+04; -5.4987866E-02;  0.0000000E+00;  2.3036708E-04;  8.9955511E+02;
  1.9163413E-01;  9.9999998E-03;  1.3007492E-01;3648; -1.3197922E-02;  0.0000000E+00;  1.5602005E-04;  9.9921265E+02;  1.0000000E-01; -6.5232721E+02;3;  2.9593596E-01;  0.0000000E+00; -4.9223173E-02;0; -5.4515611E-02;  3.9927043E+04;  0.0000000E+00; -8.7888159E-02;  4.0000000E+04;  0.0000000E+00;  4.0005719E+04; -5.4430258E-02;  0.0000000E+00; -8.5352091E-05;  7.6658929E+02;
  1.9164935E-01;  9.9999998E-03;  1.4005540E-01;3649; -1.3006719E-02;  0.0000000E+00;  1.4871785E-04;  9.9937750E+02;  1.0000000E-01; -5.1573853E+02;3;  3.1178835E-01;  0.0000000E+00; -4.8376877E-02;0; -5.4319046E-02;  3.9943520E+04;  0.0000000E+00; -1.5559518E-01;  4.0000000E+04;  0.0000000E+00;  4.0002816E+04; -5.3902149E-02;  0.0000000E+00; -4.1689837E-04;  4.7249164E+02;
  1.9165306E-01;  9.9999998E-03;  1.5003078E-01;3650; -1.2811344E-02;  0.0000000E+00;  1.2845134E-04;  9.9955579E+02;  1.0000000E-01; -3.6803897E+02;3;  3.2783982E-01;  0.0000000E+00; -4.1307177E-02;0; -5.4179821E-02;  3.9962219E+04;  0.0000000E+00; -2.4370430E-01;  4.0000000E+04;  0.0000000E+00;  3.9999215E+04; -5.3443864E-02;  0.0000000E+00; -7.3595624E-04;  3.5386011E+02;
  1.9164348E-01;  9.9999998E-03;  1.6000582E-01;3651; -1.2617799E-02;  0.0000000E+00;  9.6699070E-05;  9.9973199E+02;  1.0000000E-01; -2.2201842E+02;3;  3.3665469E-01;  0.0000000E+00;  1.1661042E-02;0; -5.4110263E-02;  3.9981180E+04;  0.0000000E+00; -3.3586487E-01;  4.0000000E+04;  0.0000000E+00;  3.9995070E+04; -5.3099379E-02;  0.0000000E+00; -1.0108831E-03;  7.8625708E+02;
  1.9161731E-01;  9.9999998E-03;  1.6998762E-01;3652; -1.2429745E-02;  0.0000000E+00;  5.5238143E-05;  9.9989471E+02;  1.0000000E-01; -8.7207413E+01;3;  3.1190759E-01;  0.0000000E+00;  1.8491766E-01;0; -5.4132394E-02;  3.9998812E+04;  0.0000000E+00; -3.8783291E-01;  4.0000000E+04;  0.0000000E+00;  3.9990895E+04; -5.2918717E-02;  0.0000000E+00; -1.2136763E-03;  1.2405453E+03;
  1.9156972E-01;  9.9999998E-03;  1.7998537E-01;3653; -1.2248051E-02;  0.0000000E+00;  6.5784338E-06;  1.0000361E+03;  1.0000000E-01;  2.9925079E+01;3;  2.0135836E-01;  0.0000000E+00;  5.7730925E-01;0; -5.4283660E-02;  4.0013234E+04;  0.0000000E+00; -3.1876585E-01;  4.0000000E+04;  0.0000000E+00;  3.9988805E+04; -5.2957416E-02;  0.0000000E+00; -1.3262436E-03;  1.4643250E+03;
  1.9149441E-01;  9.9999998E-03;  1.9000947E-01;3654; -1.2071403E-02;  0.0000000E+00; -4.5668716E-05;  1.0001304E+03;  1.0000000E-01;  1.0804633E+02;3; -6.4670213E-02;  0.0000000E+00;  1.3192394E+00;0; -5.4618977E-02;  4.0021621E+04;  0.0000000E+00; -1.6295534E-02;  4.0000000E+04;  0.0000000E+00;  3.9989238E+04; -5.3275421E-02;  0.0000000E+00; -1.3435563E-03;  1.3609242E+03;
  1.9140267E-01;  9.9999998E-03;  2.0005718E-01;3655; -1.1898424E-02;  0.0000000E+00; -9.6347518E-05;  1.0001575E+03;  1.0000000E-01;  1.3046544E+02;3; -5.4265946E-01;  0.0000000E+00;  2.5825648E+00;0; -5.5208750E-02;  4.0022020E+04;  0.0000000E+00;  6.4725590E-01;  4.0000000E+04;  0.0000000E+00;  3.9992164E+04; -5.3934783E-02;  0.0000000E+00; -1.2739660E-03;  1.3785582E+03;
  1.9130774E-01;  9.9999998E-03;  2.1011798E-01;3656; -1.1726706E-02;  0.0000000E+00; -1.3882817E-04;  1.0000872E+03;  1.0000000E-01;  7.2195488E+01;3; -1.2265083E+00;  0.0000000E+00;  4.5488267E+00;0; -5.6134351E-02;  4.0012656E+04;  0.0000000E+00;  1.8036765E+00;  4.0000000E+04;  0.0000000E+00;  3.9997168E+04; -5.4997686E-02;  0.0000000E+00; -1.1366641E-03;  2.6806382E+03;
  1.9122618E-01;  9.9999998E-03;  2.2018978E-01;3657; -1.1550655E-02;  0.0000000E+00; -1.7172364E-04;  9.9987360E+02;  1.0000000E-01; -1.0473778E+02;3; -2.0067260E+00;  0.0000000E+00;  7.2246380E+00;0; -5.7487767E-02;  3.9992016E+04;  0.0000000E+00;  3.5818584E+00;  4.0000000E+04;  0.0000000E+00;  4.0002066E+04; -5.6529112E-02;  0.0000000E+00; -9.5865590E-04;  5.2928784E+03;
  1.9122577E-01;  9.9999998E-03;  2.3023145E-01;3658; -1.1361022E-02;  0.0000000E+00; -1.9828090E-04;  9.9947864E+02;  1.0000000E-01; -4.3193842E+02;3; -2.5890744E+00;  0.0000000E+00;  1.0357135E+01;0; -5.9368860E-02;  3.9957355E+04;  0.0000000E+00;  6.0586457E+00;  4.0000000E+04;  0.0000000E+00;  4.0005535E+04; -5.8592878E-02;  0.0000000E+00; -7.7598111E-04;  9.0370850E+03;
  2.0178294E-01;  9.9999998E-03;  7.0069350E-02;3703; -1.4576240E-02;  0.0000000E+00;  6.9349611E-05;  9.9902533E+02;  1.0000000E-01; -8.0748334E+02;3;  2.4615140E-01;  0.0000000E+00; -4.5338493E-02;0; -5.5495758E-02;  3.9922191E+04;  0.0000000E+00; -2.6874192E-02;  4.0000000E+04;  0.0000000E+00;  3.9993746E+04; -5.6576438E-02;  0.0000000E+00;  1.0806803E-03;  6.9353674E+02;
  2.0173912E-01;  9.9999998E-03;  8.0083802E-02;3704; -1.4520097E-02;  0.0000000E+00;  7.0952097E-05;  9.9898407E+02;  1.0000000E-01; -8.4165521E+02;3;  2.5641453E-01;  0.0000000E+00; -5.0725047E-02;0; -5.5339031E-02;  3.9917441E+04;  0.0000000E+00; -1.6333859E-02;  4.0000000E+04;  0.0000000E+00;  3.9995602E+04; -5.6322493E-02;  0.0000000E+00;  9.8346081E-04;  4.7353159E+02;
  2.0169346E-01;  9.9999998E-03;  9.0094045E-02;3705; -1.4433376E-02;  0.0000000E+00;  8.0198195E-05;  9.9897589E+02;  1.0000000E-01; -8.4846985E+02;3;  2.6736334E-01;  0.0000000E+00; -5.6454778E-02;0; -5.5136729E-02;  3.9914691E+04;  0.0000000E+00; -2.6614310E-03;  4.0000000E+04;  0.0000000E+00;  3.9997609E+04; -5.6002207E-02;  0.0000000E+00;  8.6547976E-04;  1.9541234E+02;
  2.0165153E-01;  9.9999998E-03;  1.0010082E-01;3706; -1.4313858E-02;  0.0000000E+00;  9.7471522E-05;  9.9900122E+02;  1.0000000E-01; -8.2748279E+02;3;  2.7916279E-01;  0.0000000E+00; -6.0933895E-02;0; -5.4904785E-02;  3.9914684E+04;  0.0000000E+00;  9.4409296E-03;  4.0000000E+04;  0.0000000E+00;  4.0000031E+04; -5.5618461E-02;  0.0000000E+00;  7.1367779E-04;  7.9757271E+01;
  2.0161928E-01;  9.9999998E-03;  1.1010413E-01;3707; -1.4162174E-02;  0.0000000E+00;  1.2065964E-04;  9.9906122E+02;  1.0000000E-01; -7.7775580E+02;3;  2.9188576E-01;  0.0000000E+00; -6.4788915E-02;0; -5.4664202E-02;  3.9917977E+04;  0.0000000E+00;  1.2979677E-02;  4.0000000E+04;  0.0000000E+00;  4.0001664E+04; -5.5181529E-02;  0.0000000E+00;  5.1732914E-04;  2.8388986E+02;
  2.0159848E-01;  9.9999998E-03;  1.2010383E-01;3708; -1.3982303E-02;  0.0000000E+00;  1.4382551E-04;  9.9915326E+02;  1.0000000E-01; -7.0151105E+02;3;  3.0600154E-01;  0.0000000E+00; -6.6566460E-02;0; -5.4437120E-02;  3.9924902E+04;  0.0000000E+00; -7.4937579E-04;  4.0000000E+04;  0.0000000E+00;  4.0002520E+04; -5.4710120E-02;  0.0000000E+00;  2.7300220E-04;  3.6102353E+02;
  2.0158790E-01;  9.9999998E-03;  1.3009806E-01;3709; -1.3781484E-02;  0.0000000E+00;  1.5847741E-04;  9.9927039E+02;  1.0000000E-01; -6.0447675E+02;3;  3.2130802E-01;  0.0000000E+00; -6.6957533E-02;0; -5.4242481E-02;  3.9935395E+04;  0.0000000E+00; -4.0703733E-02;  4.0000000E+04;  0.0000000E+00;  4.0002008E+04; -5.4230470E-02;  0.0000000E+00; -1.2012173E-05;  2.7939520E+02;
  2.0158353E-01;  9.9999998E-03;  1.4008592E-01;3710; -1.3568453E-02;  0.0000000E+00;  1.5980875E-04;  9.9941235E+02;  1.0000000E-01; -4.8685043E+02;3;  3.3771574E-01;  0.0000000E+00; -6.6188030E-02;0; -5.4094981E-02;  3.9948875E+04;  0.0000000E+00; -1.1355859E-01;  4.0000000E+04;  0.0000000E+00;  3.9999551E+04; -5.3775150E-02;  0.0000000E+00; -3.1982939E-04;  1.6123029E+02;
  2.0157538E-01;  9.9999998E-03;  1.5006730E-01;3711; -1.3351873E-02;  0.0000000E+00;  1.4762905E-04;  9.9956470E+02;  1.0000000E-01; -3.6063177E+02;3;  3.5444060E-01;  0.0000000E+00; -6.0242940E-02;0; -5.4006472E-02;  3.9964730E+04;  0.0000000E+00; -2.2025900E-01;  4.0000000E+04;  0.0000000E+00;  3.9996633E+04; -5.3381886E-02;  0.0000000E+00; -6.2458409E-04;  4.9784915E+02;
  2.0155528E-01;  9.9999998E-03;  1.6004515E-01;3712; -1.3139340E-02;  0.0000000E+00;  1.2350178E-04;  9.9971680E+02;  1.0000000E-01; -2.3461064E+02;3;  3.6337316E-01;  0.0000000E+00; -1.4260101E-02;0; -5.3990375E-02;  3.9981535E+04;  0.0000000E+00; -3.4459186E-01;  4.0000000E+04;  0.0000000E+00;  3.9993203E+04; -5.3094424E-02;  0.0000000E+00; -8.9595199E-04;  9.9025934E+02;
  2.0151770E-01;  9.9999998E-03;  1.7002490E-01;3713; -1.2936347E-02;  0.0000000E+00;  8.8720932E-05;  9.9986218E+02;  1.0000000E-01; -1.1416961E+02;3;  3.3622077E-01;  0.0000000E+00;  1.4137477E-01;0; -5.4071601E-02;  3.9997320E+04;  0.0000000E+00; -4.3595880E-01;  4.0000000E+04;  0.0000000E+00;  3.9989637E+04; -5.2965518E-02;  0.0000000E+00; -1.1060844E-03;  1.4464473E+03;
  2.0146321E-01;  9.9999998E-03;  1.8001470E-01;3714; -1.2745750E-02;  0.0000000E+00;  4.5215071E-05;  9.9998663E+02;  1.0000000E-01; -1.1061416E+01;3;  2.1666926E-01;  0.0000000E+00;  4.9974817E-01;0; -5.4292109E-02;  4.0010195E+04;  0.0000000E+00; -4.0234330E-01;  4.0000000E+04;  0.0000000E+00;  3.9987195E+04; -5.3056493E-02;  0.0000000E+00; -1.2356150E-03;  1.7054977E+03;
  2.0139016E-01;  9.9999998E-03;  1.9002815E-01;3715; -1.2567605E-02;  0.0000000E+00; -4.2767138E-06;  1.0000716E+03;  1.0000000E-01;  5.9356346E+01;3; -7.3491514E-02;  0.0000000E+00;  1.1779480E+00;0; -5.4713584E-02;  4.0018289E+04;  0.0000000E+00; -1.2009723E-01;  4.0000000E+04;  0.0000000E+00;  3.9987051E+04; -5.3436328E-02;  0.0000000E+00; -1.2772551E-03;  1.6711591E+03;
  2.0130242E-01;  9.9999998E-03;  2.0007391E-01;3716; -1.2400645E-02;  0.0000000E+00; -5.6158915E-05;  1.0000870E+03;  1.0000000E-01;  7.2096725E+01;3; -6.0745770E-01;  0.0000000E+00;  2.3114080E+00;0; -5.5416323E-02;  4.0019949E+04;  0.0000000E+00;  5.4322678E-01;  4.0000000E+04;  0.0000000E+00;  3.9988086E+04; -5.4179844E-02;  0.0000000E+00; -1.2364789E-03;  1.6867803E+03;
  2.0122586E-01;  9.9999998E-03;  2.1013115E-01;3717; -1.2242849E-02;  0.0000000E+00; -1.0593519E-04;  1.0000219E+03;  1.0000000E-01;  1.8073563E+01;3; -1.4094638E+00;  0.0000000E+00;  4.0187182E+00;0; -5.6495674E-02;  4.0012934E+04;  0.0000000E+00;  1.7109545E+00;  4.0000000E+04;  0.0000000E+00;  3.9991277E+04; -5.5365104E-02;  0.0000000E+00; -1.1305712E-03;  2.7722312E+03;
  2.0114630E-01;  9.9999998E-03;  2.2021246E-01;3718; -1.2084567E-02;  0.0000000E+00; -1.5894450E-04;  9.9981232E+02;  1.0000000E-01; -1.5550177E+02;3; -2.4347746E+00;  0.0000000E+00;  6.1520476E+00;0; -5.8071077E-02;  3.9996605E+04;  0.0000000E+00;  3.4950235E+00;  4.0000000E+04;  0.0000000E+00;  3.9991852E+04; -5.7078484E-02;  0.0000000E+00; -9.9259336E-04;  5.2708267E+03;
  2.0111886E-01;  9.9999998E-03;  2.3027477E-01;3719; -1.1910563E-02;  0.0000000E+00; -2.3127256E-04;  9.9942291E+02;  1.0000000E-01; -4.7810992E+02;3; -3.5050163E+00;  0.0000000E+00;  8.1639414E+00;0; -6.0291268E-02;  3.9968574E+04;  0.0000000E+00;  5.9538298E+00;  4.0000000E+04;  0.0000000E+00;  3.9990023E+04; -5.9402339E-02;  0.0000000E+00; -8.8892900E-04;  8.9504307E+03;
  2.1194269E-01;  9.9999998E-03;  7.0008047E-02;3764; -1.5167480E-02;  0.0000000E+00;  7.0004862E-05;  9.9933917E+02;  1.0000000E-01; -5.4749066E+02;3;  2.7418873E-01;  0.0000000E+00; -5.5826575E-02;0; -5.4705441E-02;  3.9951031E+04;  0.0000000E+00; -5.4832459E-03;  4.0000000E+04;  0.0000000E+00;  3.9990945E+04; -5.5721484E-02;  0.0000000E+00;  1.0160450E-03;  1.0769370E+03;
  2.1193732E-01;  9.9999998E-03;  8.0019645E-02;3765; -1.5116206E-02;  0.0000000E+00;  6.7290472E-05;  9.9927643E+02;  1.0000000E-01; -5.9948920E+02;3;  2.8464264E-01;  0.0000000E+00; -6.2061213E-02;0; -5.4570120E-02;  3.9944445E+04;  0.0000000E+00;  8.5276859E-03;  4.0000000E+04;  0.0000000E+00;  3.9992203E+04; -5.5505138E-02;  0.0000000E+00;  9.3501859E-04;  9.0435223E+02;
  2.1190251E-01;  9.9999998E-03;  9.0032302E-02;3766; -1.5030822E-02;  0.0000000E+00;  7.1449853E-05;  9.9922961E+02;  1.0000000E-01; -6.3825354E+02;3;  2.9576835E-01;  0.0000000E+00; -6.8368129E-02;0; -5.4398041E-02;  3.9938875E+04;  0.0000000E+00;  2.7458211E-02;  4.0000000E+04;  0.0000000E+00;  3.9994199E+04; -5.5241287E-02;  0.0000000E+00;  8.4324519E-04;  6.6634222E+02;
  2.1183555E-01;  9.9999998E-03;  1.0004944E-01;3767; -1.4907598E-02;  0.0000000E+00;  8.5079235E-05;  9.9920844E+02;  1.0000000E-01; -6.5578394E+02;3;  3.0747107E-01;  0.0000000E+00; -7.5181291E-02;0; -5.4205429E-02;  3.9935297E+04;  0.0000000E+00;  4.7980893E-02;  4.0000000E+04;  0.0000000E+00;  3.9995750E+04; -5.4931737E-02;  0.0000000E+00;  7.2630926E-04;  4.1973816E+02;
  2.1174291E-01;  9.9999998E-03;  1.1007302E-01;3768; -1.4746437E-02;  0.0000000E+00;  1.0729177E-04;  9.9921741E+02;  1.0000000E-01; -6.4837671E+02;3;  3.1996483E-01;  0.0000000E+00; -8.0857620E-02;0; -5.4012507E-02;  3.9934293E+04;  0.0000000E+00;  6.3690498E-02;  4.0000000E+04;  0.0000000E+00;  3.9998199E+04; -5.4582812E-02;  0.0000000E+00;  5.7030458E-04;  2.2793307E+02;
  2.1165393E-01;  9.9999998E-03;  1.2009501E-01;3769; -1.4552149E-02;  0.0000000E+00;  1.3481938E-04;  9.9925238E+02;  1.0000000E-01; -6.1938989E+02;3;  3.3370003E-01;  0.0000000E+00; -8.4825389E-02;0; -5.3838249E-02;  3.9936465E+04;  0.0000000E+00;  6.4881653E-02;  4.0000000E+04;  0.0000000E+00;  3.9998598E+04; -5.4206092E-02;  0.0000000E+00;  3.6784419E-04;  1.3908212E+02;
  2.1159120E-01;  9.9999998E-03;  1.3010649E-01;3770; -1.4333666E-02;  0.0000000E+00;  1.5880544E-04;  9.9931689E+02;  1.0000000E-01; -5.6595929E+02;3;  3.4890777E-01;  0.0000000E+00; -8.6998455E-02;0; -5.3698830E-02;  3.9942117E+04;  0.0000000E+00;  3.9668437E-02;  4.0000000E+04;  0.0000000E+00;  3.9998277E+04; -5.3821120E-02;  0.0000000E+00;  1.2229057E-04;  1.4501172E+02;
  2.1154644E-01;  9.9999998E-03;  1.4010815E-01;3771; -1.4100823E-02;  0.0000000E+00;  1.7221372E-04;  9.9940607E+02;  1.0000000E-01; -4.9208484E+02;3;  3.6552742E-01;  0.0000000E+00; -8.7376364E-02;0; -5.3608309E-02;  3.9950867E+04;  0.0000000E+00; -2.3330858E-02;  4.0000000E+04;  0.0000000E+00;  3.9997172E+04; -5.3455949E-02;  0.0000000E+00; -1.5236065E-04;  3.0937970E+02;
  2.1150975E-01;  9.9999998E-03;  1.5009815E-01;3772; -1.3864461E-02;  0.0000000E+00;  1.7184766E-04;  9.9951416E+02;  1.0000000E-01; -4.0250714E+02;3;  3.8301328E-01;  0.0000000E+00; -8.2969673E-02;0; -5.3577155E-02;  3.9962273E+04;  0.0000000E+00; -1.3049045E-01;  4.0000000E+04;  0.0000000E+00;  3.9994809E+04; -5.3143993E-02;  0.0000000E+00; -4.3316223E-04;  6.3570343E+02;
  2.1147309E-01;  9.9999998E-03;  1.6007917E-01;3773; -1.3634217E-02;  0.0000000E+00;  1.5787933E-04;  9.9962811E+02;  1.0000000E-01; -3.0809006E+02;3;  3.9304581E-01;  0.0000000E+00; -4.5614175E-02;0; -5.3618584E-02;  3.9974996E+04;  0.0000000E+00; -2.6937380E-01;  4.0000000E+04;  0.0000000E+00;  3.9991852E+04; -5.2926920E-02;  0.0000000E+00; -6.9166394E-04;  1.0600763E+03;
  2.1142815E-01;  9.9999998E-03;  1.7005688E-01;3774; -1.3416890E-02;  0.0000000E+00;  1.3172955E-04;  9.9974243E+02;  1.0000000E-01; -2.1337668E+02;3;  3.6776477E-01;  0.0000000E+00;  8.8184506E-02;0; -5.3758483E-02;  3.9987609E+04;  0.0000000E+00; -3.8857007E-01;  4.0000000E+04;  0.0000000E+00;  3.9988777E+04; -5.2857775E-02;  0.0000000E+00; -9.0070715E-04;  1.4830020E+03;
  2.1137011E-01;  9.9999998E-03;  1.8003939E-01;3775; -1.3216493E-02;  0.0000000E+00;  9.4291558E-05;  9.9983850E+02;  1.0000000E-01; -1.3382338E+02;3;  2.4961956E-01;  0.0000000E+00;  4.0580094E-01;0; -5.4040857E-02;  3.9998598E+04;  0.0000000E+00; -3.9072508E-01;  4.0000000E+04;  0.0000000E+00;  3.9986418E+04; -5.3000744E-02;  0.0000000E+00; -1.0401123E-03;  1.7643838E+03;
  2.1130091E-01;  9.9999998E-03;  1.9003758E-01;3776; -1.3034214E-02;  0.0000000E+00;  4.7170539E-05;  9.9990814E+02;  1.0000000E-01; -7.6096611E+01;3; -4.4447675E-02;  0.0000000E+00;  1.0148633E+00;0; -5.4529820E-02;  4.0006031E+04;  0.0000000E+00; -1.4504687E-01;  4.0000000E+04;  0.0000000E+00;  3.9985605E+04; -5.3429224E-02;  0.0000000E+00; -1.1005966E-03;  1.8029950E+03;
  2.1121772E-01;  9.9999998E-03;  2.0006697E-01;3777; -1.2868216E-02;  0.0000000E+00; -6.8147237E-06;  9.9993292E+02;  1.0000000E-01; -5.5553986E+01;3; -6.0233837E-01;  0.0000000E+00;  2.0361924E+00;0; -5.5311751E-02;  4.0008488E+04;  0.0000000E+00;  4.8662695E-01;  4.0000000E+04;  0.0000000E+00;  3.9986004E+04; -5.4225750E-02;  0.0000000E+00; -1.0860012E-03;  1.8766841E+03;
  2.1114945E-01;  9.9999998E-03;  2.1011353E-01;3778; -1.2716198E-02;  0.0000000E+00; -6.6000364E-05;  9.9987360E+02;  1.0000000E-01; -1.0473778E+02;3; -1.4778310E+00;  0.0000000E+00;  3.5504766E+00;0; -5.6493022E-02;  4.0004266E+04;  0.0000000E+00;  1.6260449E+00;  4.0000000E+04;  0.0000000E+00;  3.9987602E+04; -5.5478938E-02;  0.0000000E+00; -1.0140846E-03;  2.8787061E+03;
  2.1108826E-01;  9.9999998E-03;  2.2017866E-01;3779; -1.2568538E-02;  0.0000000E+00; -1.3817410E-04;  9.9969708E+02;  1.0000000E-01; -2.5095587E+02;3; -2.6744018E+00;  0.0000000E+00;  5.4175448E+00;0; -5.8214035E-02;  3.9992336E+04;  0.0000000E+00;  3.3729393E+00;  4.0000000E+04;  0.0000000E+00;  3.9986820E+04; -5.7286721E-02;  0.0000000E+00; -9.2731451E-04;  5.2611318E+03;
  2.1103895E-01;  9.9999998E-03;  2.3024818E-01;3780; -1.2402289E-02;  0.0000000E+00; -2.5404774E-04;  9.9935449E+02;  1.0000000E-01; -5.3479968E+02;3; -4.1472611E+00;  0.0000000E+00;  6.9130826E+00;0; -6.0684320E-02;  3.9971551E+04;  0.0000000E+00;  5.8194718E+00;  4.0000000E+04;  0.0000000E+00;  3.9981047E+04; -5.9747953E-02;  0.0000000E+00; -9.3636638E-04;  8.9639189E+03;
  2.2192739E-01;  9.9999998E-03;  6.9982901E-02;3825; -1.5695948E-02;  0.0000000E+00;  7.3093099E-05;  9.9964728E+02;  1.0000000E-01; -2.9223865E+02;3;  3.0418941E-01;  0.0000000E+00; -6.7667052E-02;0; -5.3771444E-02;  3.9978168E+04;  0.0000000E+00;  2.5774376E-02;  4.0000000E+04;  0.0000000E+00;  3.9989172E+04; -5.4746076E-02;  0.0000000E+00;  9.7463164E-04;  1.3113572E+03;
  2.2196546E-01;  9.9999998E-03;  7.9987384E-02;3826; -1.5650354E-02;  0.0000000E+00;  6.6523091E-05;  9.9956787E+02;  1.0000000E-01; -3.5801456E+02;3;  3.1495360E-01;  0.0000000E+00; -7.4882515E-02;0; -5.3648110E-02;  3.9970953E+04;  0.0000000E+00;  4.3608692E-02;  4.0000000E+04;  0.0000000E+00;  3.9990352E+04; -5.4559384E-02;  0.0000000E+00;  9.1127335E-04;  1.1865320E+03;
  2.2198389E-01;  9.9999998E-03;  8.9990191E-02;3827; -1.5570455E-02;  0.0000000E+00;  6.5987995E-05;  9.9949670E+02;  1.0000000E-01; -4.1697586E+02;3;  3.2646263E-01;  0.0000000E+00; -8.1551336E-02;0; -5.3495243E-02;  3.9963574E+04;  0.0000000E+00;  6.7466468E-02;  4.0000000E+04;  0.0000000E+00;  3.9991691E+04; -5.4342795E-02;  0.0000000E+00;  8.4755069E-04;  9.9246637E+02;
  2.2197540E-01;  9.9999998E-03;  9.9995621E-02;3828; -1.5451575E-02;  0.0000000E+00;  7.4852389E-05;  9.9943951E+02;  1.0000000E-01; -4.6433255E+02;3;  3.3849475E-01;  0.0000000E+00; -8.9151375E-02;0; -5.3330041E-02;  3.9957332E+04;  0.0000000E+00;  9.6051902E-02;  4.0000000E+04;  0.0000000E+00;  3.9993445E+04; -5.4098766E-02;  0.0000000E+00;  7.6872355E-04;  7.7989661E+02;
  2.2193047E-01;  9.9999998E-03;  1.1000814E-01;3829; -1.5292010E-02;  0.0000000E+00;  9.3976494E-05;  9.9939441E+02;  1.0000000E-01; -5.0171420E+02;3;  3.5113510E-01;  0.0000000E+00; -9.7625352E-02;0; -5.3173974E-02;  3.9951848E+04;  0.0000000E+00;  1.2496670E-01;  4.0000000E+04;  0.0000000E+00;  3.9995082E+04; -5.3832915E-02;  0.0000000E+00;  6.5894087E-04;  6.0129480E+02;
  2.2184290E-01;  9.9999998E-03;  1.2003192E-01;3830; -1.5093358E-02;  0.0000000E+00;  1.2301089E-04;  9.9936700E+02;  1.0000000E-01; -5.2442963E+02;3;  3.6473656E-01;  0.0000000E+00; -1.0400296E-01;0; -5.3047352E-02;  3.9948898E+04;  0.0000000E+00;  1.4544140E-01;  4.0000000E+04;  0.0000000E+00;  3.9995801E+04; -5.3553965E-02;  0.0000000E+00;  5.0661463E-04;  4.9511707E+02;
  2.2171402E-01;  9.9999998E-03;  1.3006860E-01;3831; -1.4862572E-02;  0.0000000E+00;  1.5406896E-04;  9.9936646E+02;  1.0000000E-01; -5.2487402E+02;3;  3.7968487E-01;  0.0000000E+00; -1.0835142E-01;0; -5.2966051E-02;  3.9948312E+04;  0.0000000E+00;  1.4432830E-01;  4.0000000E+04;  0.0000000E+00;  3.9996289E+04; -5.3275175E-02;  0.0000000E+00;  3.0912610E-04;  4.7103021E+02;
  2.2158881E-01;  9.9999998E-03;  1.4010271E-01;3832; -1.4612618E-02;  0.0000000E+00;  1.8048570E-04;  9.9938562E+02;  1.0000000E-01; -5.0902264E+02;3;  3.9628178E-01;  0.0000000E+00; -1.1056762E-01;0; -5.2937653E-02;  3.9951078E+04;  0.0000000E+00;  1.0654701E-01;  4.0000000E+04;  0.0000000E+00;  3.9995266E+04; -5.3013988E-02;  0.0000000E+00;  7.6336342E-05;  5.3457782E+02;
  2.2149718E-01;  9.9999998E-03;  1.5011135E-01;3833; -1.4358650E-02;  0.0000000E+00;  1.9476429E-04;  9.9942798E+02;  1.0000000E-01; -4.7391254E+02;3;  4.1403601E-01;  0.0000000E+00; -1.0912943E-01;0; -5.2968018E-02;  3.9956391E+04;  0.0000000E+00;  1.9931111E-02;  4.0000000E+04;  0.0000000E+00;  3.9993984E+04; -5.2796956E-02;  0.0000000E+00; -1.7106161E-04;  7.1089154E+02;
  2.2143401E-01;  9.9999998E-03;  1.6009882E-01;3834; -1.4112559E-02;  0.0000000E+00;  1.9386964E-04;  9.9948901E+02;  1.0000000E-01; -4.2334604E+02;3;  4.2613754E-01;  0.0000000E+00; -8.1872642E-02;0; -5.3068284E-02;  3.9963625E+04;  0.0000000E+00; -1.1068674E-01;  4.0000000E+04;  0.0000000E+00;  3.9991723E+04; -5.2661505E-02;  0.0000000E+00; -4.0678118E-04;  1.0035652E+03;
  2.2138312E-01;  9.9999998E-03;  1.7007469E-01;3835; -1.3882239E-02;  0.0000000E+00;  1.7809930E-04;  9.9955157E+02;  1.0000000E-01; -3.7149567E+02;3;  4.0657860E-01;  0.0000000E+00;  2.5365481E-02;0; -5.3263564E-02;  3.9972000E+04;  0.0000000E+00; -2.4021719E-01;  4.0000000E+04;  0.0000000E+00;  3.9989188E+04; -5.2658822E-02;  0.0000000E+00; -6.0474145E-04;  1.3506584E+03;
  2.2132395E-01;  9.9999998E-03;  1.8004964E-01;3836; -1.3671795E-02;  0.0000000E+00;  1.4840126E-04;  9.9961414E+02;  1.0000000E-01; -3.1969467E+02;3;  3.0038199E-01;  0.0000000E+00;  2.9305243E-01;0; -5.3596992E-02;  3.9979941E+04;  0.0000000E+00; -2.7437285E-01;  4.0000000E+04;  0.0000000E+00;  3.9987059E+04; -5.2852493E-02;  0.0000000E+00; -7.4449775E-04;  1.6275400E+03;
  2.2125125E-01;  9.9999998E-03;  1.9003500E-01;3837; -1.3482749E-02;  0.0000000E+00;  1.0519262E-04;  9.9966351E+02;  1.0000000E-01; -2.7875754E+02;3;  2.3693170E-02;  0.0000000E+00;  8.1968051E-01;0; -5.4132178E-02;  3.9985707E+04;  0.0000000E+00; -8.2159303E-02;  4.0000000E+04;  0.0000000E+00;  3.9986262E+04; -5.3317040E-02;  0.0000000E+00; -8.1513822E-04;  1.7280522E+03;
  2.2116734E-01;  9.9999998E-03;  2.0004411E-01;3838; -1.3313777E-02;  0.0000000E+00;  5.0286650E-05;  9.9968561E+02;  1.0000000E-01; -2.6048645E+02;3; -5.1992804E-01;  0.0000000E+00;  1.7160841E+00;0; -5.4956250E-02;  3.9988668E+04;  0.0000000E+00;  4.7783160E-01;  4.0000000E+04;  0.0000000E+00;  3.9986133E+04; -5.4137208E-02;  0.0000000E+00; -8.1904174E-04;  1.8583285E+03;
  2.2109616E-01;  9.9999998E-03;  2.1007420E-01;3839; -1.3161580E-02;  0.0000000E+00; -1.4429477E-05;  9.9965247E+02;  1.0000000E-01; -2.8794247E+02;3; -1.4096320E+00;  0.0000000E+00;  3.0629406E+00;0; -5.6180809E-02;  3.9986836E+04;  0.0000000E+00;  1.5309590E+00;  4.0000000E+04;  0.0000000E+00;  3.9987012E+04; -5.5406205E-02;  0.0000000E+00; -7.7460497E-04;  2.7967825E+03;
  2.2105230E-01;  9.9999998E-03;  2.2011517E-01;3840; -1.3017431E-02;  0.0000000E+00; -9.2939226E-05;  9.9953436E+02;  1.0000000E-01; -3.8576688E+02;3; -2.6794698E+00;  0.0000000E+00;  4.7990546E+00;0; -5.7951469E-02;  3.9979203E+04;  0.0000000E+00;  3.1687758E+00;  4.0000000E+04;  0.0000000E+00;  3.9986762E+04; -5.7224672E-02;  0.0000000E+00; -7.2679535E-04;  4.9814004E+03;
  2.2101852E-01;  9.9999998E-03;  2.3016851E-01;3841; -1.2858723E-02;  0.0000000E+00; -2.1849436E-04;  9.9927759E+02;  1.0000000E-01; -5.9850159E+02;3; -4.3440866E+00;  0.0000000E+00;  6.3649888E+00;0; -6.0507651E-02;  3.9964555E+04;  0.0000000E+00;  5.4710302E+00;  4.0000000E+04;  0.0000000E+00;  3.9982434E+04; -5.9699677E-02;  0.0000000E+00; -8.0797577E-04;  8.4340830E+03;
  2.3182122E-01;  9.9999998E-03;  6.9986530E-02;3886; -1.6177518E-02;  0.0000000E+00;  7.7050223E-05;  9.9989374E+02;  1.0000000E-01; -8.8046890E+01;3;  3.3639637E-01;  0.0000000E+00; -8.1886008E-02;0; -5.2810974E-02;  3.9999473E+04;  0.0000000E+00;  5.7857271E-02;  4.0000000E+04;  0.0000000E+00;  3.9988762E+04; -5.3762056E-02;  0.0000000E+00;  9.5108128E-04;  1.4066786E+03;
  2.3188390E-01;  9.9999998E-03;  7.9987682E-02;3887; -1.6136805E-02;  0.0000000E+00;  6.7389890E-05;  9.9982098E+02;  1.0000000E-01; -1.4829210E+02;3;  3.4758529E-01;  0.0000000E+00; -8.9268446E-02;0; -5.2691299E-02;  3.9992852E+04;  0.0000000E+00;  7.8812853E-02;  4.0000000E+04;  0.0000000E+00;  3.9989508E+04; -5.3597361E-02;  0.0000000E+00;  9.0606086E-04;  1.3224854E+03;
  2.3193471E-01;  9.9999998E-03;  8.9984603E-02;3888; -1.6062466E-02;  0.0000000E+00;  6.3011845E-05;  9.9974579E+02;  1.0000000E-01; -2.1061133E+02;3;  3.5945317E-01;  0.0000000E+00; -9.6772715E-02;0; -5.2549709E-02;  3.9985457E+04;  0.0000000E+00;  1.0615788E-01;  4.0000000E+04;  0.0000000E+00;  3.9990574E+04; -5.3420614E-02;  0.0000000E+00;  8.7090721E-04;  1.1641163E+03;
  2.3197030E-01;  9.9999998E-03;  9.9981152E-02;3889; -1.5949605E-02;  0.0000000E+00;  6.7466375E-05;  9.9966699E+02;  1.0000000E-01; -2.7589343E+02;3;  3.7184089E-01;  0.0000000E+00; -1.0536758E-01;0; -5.2403558E-02;  3.9977645E+04;  0.0000000E+00;  1.4089739E-01;  4.0000000E+04;  0.0000000E+00;  3.9991883E+04; -5.3234559E-02;  0.0000000E+00;  8.3099899E-04;  9.7795050E+02;
  2.3198067E-01;  9.9999998E-03;  1.0998251E-01;3890; -1.5795698E-02;  0.0000000E+00;  8.2684208E-05;  9.9958472E+02;  1.0000000E-01; -3.4403964E+02;3;  3.8498408E-01;  0.0000000E+00; -1.1402836E-01;0; -5.2274387E-02;  3.9969590E+04;  0.0000000E+00;  1.8152538E-01;  4.0000000E+04;  0.0000000E+00;  3.9993539E+04; -5.3043783E-02;  0.0000000E+00;  7.6939631E-04;  8.1257794E+02;
  2.3195334E-01;  9.9999998E-03;  1.1999277E-01;3891; -1.5601177E-02;  0.0000000E+00;  1.1035683E-04;  9.9950513E+02;  1.0000000E-01; -4.1001309E+02;3;  3.9860386E-01;  0.0000000E+00; -1.2435198E-01;0; -5.2182432E-02;  3.9961855E+04;  0.0000000E+00;  2.2208822E-01;  4.0000000E+04;  0.0000000E+00;  3.9994473E+04; -5.2854389E-02;  0.0000000E+00;  6.7195564E-04;  7.0543390E+02;
  2.3187663E-01;  9.9999998E-03;  1.3001409E-01;3892; -1.5371110E-02;  0.0000000E+00;  1.4554791E-04;  9.9943542E+02;  1.0000000E-01; -4.6773987E+02;3;  4.1368634E-01;  0.0000000E+00; -1.3129309E-01;0; -5.2143782E-02;  3.9955770E+04;  0.0000000E+00;  2.5092980E-01;  4.0000000E+04;  0.0000000E+00;  3.9994852E+04; -5.2675612E-02;  0.0000000E+00;  5.3182861E-04;  6.6702051E+02;
  2.3174347E-01;  9.9999998E-03;  1.4004792E-01;3893; -1.5114932E-02;  0.0000000E+00;  1.8189586E-04;  9.9938043E+02;  1.0000000E-01; -5.1331879E+02;3;  4.3037698E-01;  0.0000000E+00; -1.3572209E-01;0; -5.2168131E-02;  3.9951531E+04;  0.0000000E+00;  2.5120801E-01;  4.0000000E+04;  0.0000000E+00;  3.9994836E+04; -5.2520245E-02;  0.0000000E+00;  3.5211470E-04;  6.8202008E+02;
  2.3159517E-01;  9.9999998E-03;  1.5008128E-01;3894; -1.4848423E-02;  0.0000000E+00;  2.1078729E-04;  9.9934869E+02;  1.0000000E-01; -5.3958966E+02;3;  4.4830284E-01;  0.0000000E+00; -1.3778692E-01;0; -5.2257355E-02;  3.9949906E+04;  0.0000000E+00;  2.0493740E-01;  4.0000000E+04;  0.0000000E+00;  3.9994219E+04; -5.2405339E-02;  0.0000000E+00;  1.4798256E-04;  7.4413501E+02;
  2.3148467E-01;  9.9999998E-03;  1.6008939E-01;3895; -1.4588350E-02;  0.0000000E+00;  2.2611898E-04;  9.9933655E+02;  1.0000000E-01; -5.4966345E+02;3;  4.6279320E-01;  0.0000000E+00; -1.2152930E-01;0; -5.2415099E-02;  3.9950840E+04;  0.0000000E+00;  1.0694564E-01;  4.0000000E+04;  0.0000000E+00;  3.9992680E+04; -5.2359480E-02;  0.0000000E+00; -5.5619999E-05;  8.8065216E+02;
  2.3139834E-01;  9.9999998E-03;  1.7007329E-01;3896; -1.4345498E-02;  0.0000000E+00;  2.2286313E-04;  9.9934119E+02;  1.0000000E-01; -5.4581171E+02;3;  4.5192525E-01;  0.0000000E+00; -4.2345475E-02;0; -5.2661348E-02;  3.9953719E+04;  0.0000000E+00; -1.0955258E-02;  4.0000000E+04;  0.0000000E+00;  3.9990746E+04; -5.2428041E-02;  0.0000000E+00; -2.3330611E-04;  1.1036721E+03;
  2.3132116E-01;  9.9999998E-03;  1.8004696E-01;3897; -1.4125090E-02;  0.0000000E+00;  2.0207422E-04;  9.9935529E+02;  1.0000000E-01; -5.3415771E+02;3;  3.6603606E-01;  0.0000000E+00;  1.6991925E-01;0; -5.3034503E-02;  3.9957152E+04;  0.0000000E+00; -6.7031994E-02;  4.0000000E+04;  0.0000000E+00;  3.9988852E+04; -5.2670866E-02;  0.0000000E+00; -3.6363784E-04;  1.3378038E+03;
  2.3124373E-01;  9.9999998E-03;  1.9002308E-01;3898; -1.3928393E-02;  0.0000000E+00;  1.6548292E-04;  9.9937512E+02;  1.0000000E-01; -5.1771375E+02;3;  1.2566084E-01;  0.0000000E+00;  6.0471213E-01;0; -5.3593501E-02;  3.9960805E+04;  0.0000000E+00;  6.0430530E-02;  4.0000000E+04;  0.0000000E+00;  3.9987578E+04; -5.3159777E-02;  0.0000000E+00; -4.3372420E-04;  1.4776855E+03;
  2.3116417E-01;  9.9999998E-03;  2.0001264E-01;3899; -1.3754788E-02;  0.0000000E+00;  1.1292547E-04;  9.9939197E+02;  1.0000000E-01; -5.0373883E+02;3; -3.6710960E-01;  0.0000000E+00;  1.3663541E+00;0; -5.4422151E-02;  3.9962848E+04;  0.0000000E+00;  5.0820482E-01;  4.0000000E+04;  0.0000000E+00;  3.9987980E+04; -5.3977489E-02;  0.0000000E+00; -4.4466206E-04;  1.6436328E+03;
  2.3108456E-01;  9.9999998E-03;  2.1002452E-01;3900; -1.3599210E-02;  0.0000000E+00;  4.8339709E-05;  9.9938544E+02;  1.0000000E-01; -5.0917078E+02;3; -1.2072850E+00;  0.0000000E+00;  2.5472291E+00;0; -5.5632167E-02;  3.9962883E+04;  0.0000000E+00;  1.4057286E+00;  4.0000000E+04;  0.0000000E+00;  3.9988957E+04; -5.5217229E-02;  0.0000000E+00; -4.1493622E-04;  2.4807761E+03;
  2.3103376E-01;  9.9999998E-03;  2.2005023E-01;3901; -1.3453866E-02;  0.0000000E+00; -2.8086535E-05;  9.9933203E+02;  1.0000000E-01; -5.5341644E+02;3; -2.4603889E+00;  0.0000000E+00;  4.1489744E+00;0; -5.7365786E-02;  3.9959609E+04;  0.0000000E+00;  2.8529944E+00;  4.0000000E+04;  0.0000000E+00;  3.9989836E+04; -5.6978222E-02;  0.0000000E+00; -3.8756267E-04;  4.4177856E+03;
  2.3102272E-01;  9.9999998E-03;  2.3008174E-01;3902; -1.3301750E-02;  0.0000000E+00; -1.3227428E-04;  9.9918109E+02;  1.0000000E-01; -6.7844995E+02;3; -4.1460500E+00;  0.0000000E+00;  5.9024372E+00;0; -5.9834458E-02;  3.9950637E+04;  0.0000000E+00;  4.8771520E+00;  4.0000000E+04;  0.0000000E+00;  3.9988773E+04; -5.9363410E-02;  0.0000000E+00; -4.7104628E-04;  7.3970186E+03;
  2.4169078E-01;  9.9999998E-03;  6.9997065E-02;3947; -1.6629690E-02;  0.0000000E+00;  8.0515914E-05;  1.0000354E+03;  1.0000000E-01;  2.9332504E+01;3;  3.7134275E-01;  0.0000000E+00; -9.6978225E-02;0; -5.1916577E-02;  4.0011980E+04;  0.0000000E+00;  8.0995880E-02;  4.0000000E+04;  0.0000000E+00;  3.9989039E+04; -5.2857198E-02;  0.0000000E+00;  9.4062061E-04;  1.3873066E+03;
  2.4176435E-01;  9.9999998E-03;  7.9997987E-02;3948; -1.6592765E-02;  0.0000000E+00;  6.8633846E-05;  9.9999023E+02;  1.0000000E-01; -8.0985365E+00;3;  3.8280004E-01;  0.0000000E+00; -1.0520910E-01;0; -5.1791314E-02;  4.0007828E+04;  0.0000000E+00;  1.0328802E-01;  4.0000000E+04;  0.0000000E+00;  3.9989242E+04; -5.2705090E-02;  0.0000000E+00;  9.1377582E-04;  1.3372509E+03;
  2.4183176E-01;  9.9999998E-03;  8.9993827E-02;3949; -1.6523870E-02;  0.0000000E+00;  6.1257684E-05;  9.9993170E+02;  1.0000000E-01; -5.6590992E+01;3;  3.9497915E-01;  0.0000000E+00; -1.1357205E-01;0; -5.1651422E-02;  4.0001797E+04;  0.0000000E+00;  1.3173267E-01;  4.0000000E+04;  0.0000000E+00;  3.9990309E+04; -5.2557986E-02;  0.0000000E+00;  9.0656366E-04;  1.2069929E+03;
  2.4189049E-01;  9.9999998E-03;  9.9987730E-02;3950; -1.6417788E-02;  0.0000000E+00;  6.2090563E-05;  9.9985840E+02;  1.0000000E-01; -1.1733002E+02;3;  4.0775341E-01;  0.0000000E+00; -1.2309702E-01;0; -5.1515300E-02;  3.9994312E+04;  0.0000000E+00;  1.6934963E-01;  4.0000000E+04;  0.0000000E+00;  3.9991836E+04; -5.2420087E-02;  0.0000000E+00;  9.0478873E-04;  1.0378936E+03;
  2.4193630E-01;  9.9999998E-03;  1.0998335E-01;3951; -1.6271668E-02;  0.0000000E+00;  7.3689298E-05;  9.9976367E+02;  1.0000000E-01; -1.9579694E+02;3;  4.2141551E-01;  0.0000000E+00; -1.3296700E-01;0; -5.1403522E-02;  3.9985203E+04;  0.0000000E+00;  2.1771204E-01;  4.0000000E+04;  0.0000000E+00;  3.9993266E+04; -5.2294474E-02;  0.0000000E+00;  8.9095166E-04;  8.7726923E+02;
  2.4195978E-01;  9.9999998E-03;  1.1998260E-01;3952; -1.6085334E-02;  0.0000000E+00;  9.8257566E-05;  9.9965320E+02;  1.0000000E-01; -2.8730051E+02;3;  4.3538672E-01;  0.0000000E+00; -1.4643662E-01;0; -5.1335886E-02;  3.9974957E+04;  0.0000000E+00;  2.7465197E-01;  4.0000000E+04;  0.0000000E+00;  3.9994379E+04; -5.2185044E-02;  0.0000000E+00;  8.4915623E-04;  7.6731927E+02;
  2.4194534E-01;  9.9999998E-03;  1.2998897E-01;3953; -1.5862254E-02;  0.0000000E+00;  1.3443113E-04;  9.9953363E+02;  1.0000000E-01; -3.8635944E+02;3;  4.5070216E-01;  0.0000000E+00; -1.5610996E-01;0; -5.1327687E-02;  3.9964379E+04;  0.0000000E+00;  3.3208922E-01;  4.0000000E+04;  0.0000000E+00;  3.9995176E+04; -5.2097090E-02;  0.0000000E+00;  7.6940341E-04;  7.2716229E+02;
  2.4188899E-01;  9.9999998E-03;  1.4000042E-01;3954; -1.5610884E-02;  0.0000000E+00;  1.7711225E-04;  9.9941547E+02;  1.0000000E-01; -4.8428259E+02;3;  4.6771127E-01;  0.0000000E+00; -1.6319904E-01;0; -5.1387478E-02;  3.9954438E+04;  0.0000000E+00;  3.7495542E-01;  4.0000000E+04;  0.0000000E+00;  3.9995750E+04; -5.2038230E-02;  0.0000000E+00;  6.5075204E-04;  7.3902814E+02;
  2.4177852E-01;  9.9999998E-03;  1.5002161E-01;3955; -1.5343529E-02;  0.0000000E+00;  2.1733933E-04;  9.9930695E+02;  1.0000000E-01; -5.7420599E+02;3;  4.8604533E-01;  0.0000000E+00; -1.6876735E-01;0; -5.1519271E-02;  3.9946043E+04;  0.0000000E+00;  3.8266882E-01;  4.0000000E+04;  0.0000000E+00;  3.9995238E+04; -5.2020844E-02;  0.0000000E+00;  5.0157303E-04;  7.6606561E+02;
  2.4163266E-01;  9.9999998E-03;  1.6004322E-01;3956; -1.5075327E-02;  0.0000000E+00;  2.4712400E-04;  9.9921832E+02;  1.0000000E-01; -6.4758661E+02;3;  5.0300711E-01;  0.0000000E+00; -1.6292596E-01;0; -5.1725298E-02;  3.9939840E+04;  0.0000000E+00;  3.3871680E-01;  4.0000000E+04;  0.0000000E+00;  3.9994484E+04; -5.2065227E-02;  0.0000000E+00;  3.3992858E-04;  7.9589099E+02;
  2.4148893E-01;  9.9999998E-03;  1.7004639E-01;3957; -1.4821258E-02;  0.0000000E+00;  2.5930689E-04;  9.9915283E+02;  1.0000000E-01; -7.0185669E+02;3;  5.0173831E-01;  0.0000000E+00; -1.1199844E-01;0; -5.2015159E-02;  3.9936309E+04;  0.0000000E+00;  2.5596201E-01;  4.0000000E+04;  0.0000000E+00;  3.9992949E+04; -5.2206103E-02;  0.0000000E+00;  1.9094461E-04;  8.6773975E+02;
  2.4136490E-01;  9.9999998E-03;  1.8003084E-01;3958; -1.4590576E-02;  0.0000000E+00;  2.5052563E-04;  9.9911005E+02;  1.0000000E-01; -7.3731250E+02;3;  4.4105732E-01;  0.0000000E+00;  4.4028815E-02;0; -5.2416813E-02;  3.9934820E+04;  0.0000000E+00;  1.9501100E-01;  4.0000000E+04;  0.0000000E+00;  3.9991898E+04; -5.2495249E-02;  0.0000000E+00;  7.8434939E-05;  1.0044487E+03;
  2.4126196E-01;  9.9999998E-03;  1.9000655E-01;3959; -1.4386137E-02;  0.0000000E+00;  2.2199703E-04;  9.9908618E+02;  1.0000000E-01; -7.5706500E+02;3;  2.4999537E-01;  0.0000000E+00;  3.8338301E-01;0; -5.2980453E-02;  3.9934785E+04;  0.0000000E+00;  2.5891653E-01;  4.0000000E+04;  0.0000000E+00;  3.9990621E+04; -5.2998442E-02;  0.0000000E+00;  1.7988670E-05;  1.1481857E+03;
  2.4117289E-01;  9.9999998E-03;  1.9998562E-01;3960; -1.4206673E-02;  0.0000000E+00;  1.7565135E-04;  9.9908923E+02;  1.0000000E-01; -7.5454657E+02;3; -1.6552421E-01;  0.0000000E+00;  1.0007342E+00;0; -5.3782564E-02;  3.9935582E+04;  0.0000000E+00;  5.7212585E-01;  4.0000000E+04;  0.0000000E+00;  3.9991258E+04; -5.3793367E-02;  0.0000000E+00;  1.0802542E-05;  1.3486970E+03;
  2.4110076E-01;  9.9999998E-03;  2.0997731E-01;3961; -1.4047867E-02;  0.0000000E+00;  1.1798911E-04;  9.9910138E+02;  1.0000000E-01; -7.4447278E+02;3; -9.0238726E-01;  0.0000000E+00;  1.9994062E+00;0; -5.4925520E-02;  3.9936184E+04;  0.0000000E+00;  1.2567126E+00;  4.0000000E+04;  0.0000000E+00;  3.9993098E+04; -5.4967213E-02;  0.0000000E+00;  4.1694129E-05;  2.0415168E+03;
  2.4104586E-01;  9.9999998E-03;  2.1998961E-01;3962; -1.3901507E-02;  0.0000000E+00;  5.5371904E-05;  9.9910632E+02;  1.0000000E-01; -7.4037415E+02;3; -2.0483608E+00;  0.0000000E+00;  3.4331019E+00;0; -5.6539051E-02;  3.9935773E+04;  0.0000000E+00;  2.4191561E+00;  4.0000000E+04;  0.0000000E+00;  3.9995480E+04; -5.6616269E-02;  0.0000000E+00;  7.7217213E-05;  3.6459026E+03;
  2.4102871E-01;  9.9999998E-03;  2.3001504E-01;3963; -1.3752802E-02;  0.0000000E+00; -1.7527291E-05;  9.9905170E+02;  1.0000000E-01; -7.8565680E+02;3; -3.6680634E+00;  0.0000000E+00;  5.1650128E+00;0; -5.8795374E-02;  3.9932621E+04;  0.0000000E+00;  4.1001077E+00;  4.0000000E+04;  0.0000000E+00;  3.9996168E+04; -5.8838006E-02;  0.0000000E+00;  4.2633230E-05;  6.1394067E+03;
  2.5157183E-01;  9.9999998E-03;  7.0006281E-02;4008; -1.7069349E-02;  0.0000000E+00;  8.2722028E-05;  1.0000676E+03;  1.0000000E-01;  5.5998417E+01;3;  4.0914750E-01;  0.0000000E+00; -1.1331978E-01;0; -5.1151965E-02;  4.0014668E+04;  0.0000000E+00;  8.7682918E-02;  4.0000000E+04;  0.0000000E+00;  3.9989785E+04; -5.2090589E-02;  0.0000000E+00;  9.3862589E-04;  1.2796035E+03;
  2.5164440E-01;  9.9999998E-03;  8.0007702E-02;4009; -1.7034443E-02;  0.0000000E+00;  6.9436253E-05;  1.0000667E+03;  1.0000000E-01;  5.5307079E+01;3;  4.2082566E-01;  0.0000000E+00; -1.2277530E-01;0; -5.1010396E-02;  4.0014324E+04;  0.0000000E+00;  1.0864434E-01;  4.0000000E+04;  0.0000000E+00;  3.9989887E+04; -5.1939394E-02;  0.0000000E+00;  9.2899858E-04;  1.2599248E+03;
  2.5171709E-01;  9.9999998E-03;  9.0004198E-02;4010; -1.6970163E-02;  0.0000000E+00;  5.9954880E-05;  1.0000444E+03;  1.0000000E-01;  3.6739700E+01;3;  4.3324798E-01;  0.0000000E+00; -1.3286699E-01;0; -5.0861306E-02;  4.0011480E+04;  0.0000000E+00;  1.3519785E-01;  4.0000000E+04;  0.0000000E+00;  3.9990848E+04; -5.1809262E-02;  0.0000000E+00;  9.4795559E-04;  1.1541219E+03;
  2.5178805E-01;  9.9999998E-03;  9.9997692E-02;4011; -1.6871305E-02;  0.0000000E+00;  5.7803038E-05;  9.9999713E+02;  1.0000000E-01; -2.3703034E+00;3;  4.4659427E-01;  0.0000000E+00; -1.4313294E-01;0; -5.0723579E-02;  4.0006113E+04;  0.0000000E+00;  1.7181906E-01;  4.0000000E+04;  0.0000000E+00;  3.9992227E+04; -5.1705625E-02;  0.0000000E+00;  9.8204613E-04;  9.9706854E+02;
  2.5185475E-01;  9.9999998E-03;  1.0999085E-01;4012; -1.6734445E-02;  0.0000000E+00;  6.6329150E-05;  9.9991382E+02;  1.0000000E-01; -7.1405388E+01;3;  4.6055773E-01;  0.0000000E+00; -1.5506105E-01;0; -5.0617762E-02;  3.9997602E+04;  0.0000000E+00;  2.2266719E-01;  4.0000000E+04;  0.0000000E+00;  3.9993801E+04; -5.1631391E-02;  0.0000000E+00;  1.0136304E-03;  8.3439209E+02;
  2.5191495E-01;  9.9999998E-03;  1.1998473E-01;4013; -1.6559174E-02;  0.0000000E+00;  8.7332388E-05;  9.9979950E+02;  1.0000000E-01; -1.6611876E+02;3;  4.7504562E-01;  0.0000000E+00; -1.6981323E-01;0; -5.0562449E-02;  3.9987000E+04;  0.0000000E+00;  2.8931981E-01;  4.0000000E+04;  0.0000000E+00;  3.9995156E+04; -5.1588047E-02;  0.0000000E+00;  1.0256000E-03;  7.1694000E+02;
  2.5196001E-01;  9.9999998E-03;  1.2998003E-01;4014; -1.6347880E-02;  0.0000000E+00;  1.2244251E-04;  9.9965619E+02;  1.0000000E-01; -2.8483145E+02;3;  4.9113107E-01;  0.0000000E+00; -1.8214451E-01;0; -5.0571591E-02;  3.9974164E+04;  0.0000000E+00;  3.6818293E-01;  4.0000000E+04;  0.0000000E+00;  3.9996289E+04; -5.1577307E-02;  0.0000000E+00;  1.0057174E-03;  6.8309686E+02;
  2.5196317E-01;  9.9999998E-03;  1.3997823E-01;4015; -1.6106391E-02;  0.0000000E+00;  1.6760024E-04;  9.9949561E+02;  1.0000000E-01; -4.1786472E+02;3;  5.0836360E-01;  0.0000000E+00; -1.9301428E-01;0; -5.0654348E-02;  3.9960133E+04;  0.0000000E+00;  4.4819376E-01;  4.0000000E+04;  0.0000000E+00;  3.9997031E+04; -5.1603351E-02;  0.0000000E+00;  9.4900269E-04;  7.2445056E+02;
  2.5191212E-01;  9.9999998E-03;  1.4998366E-01;4016; -1.5845578E-02;  0.0000000E+00;  2.1488380E-04;  9.9932910E+02;  1.0000000E-01; -5.5583612E+02;3;  5.2731538E-01;  0.0000000E+00; -2.0163028E-01;0; -5.0813720E-02;  3.9946379E+04;  0.0000000E+00;  5.1027697E-01;  4.0000000E+04;  0.0000000E+00;  3.9997129E+04; -5.1673062E-02;  0.0000000E+00;  8.5934327E-04;  7.8933691E+02;
  2.5179297E-01;  9.9999998E-03;  1.5999517E-01;4017; -1.5578503E-02;  0.0000000E+00;  2.5579389E-04;  9.9916644E+02;  1.0000000E-01; -6.9059778E+02;3;  5.4644179E-01;  0.0000000E+00; -2.0441301E-01;0; -5.1050767E-02;  3.9933855E+04;  0.0000000E+00;  5.3149927E-01;  4.0000000E+04;  0.0000000E+00;  3.9997168E+04; -5.1799279E-02;  0.0000000E+00;  7.4850983E-04;  8.2584851E+02;
  2.5163248E-01;  9.9999998E-03;  1.7000467E-01;4018; -1.5319742E-02;  0.0000000E+00;  2.8236790E-04;  9.9903143E+02;  1.0000000E-01; -8.0244641E+02;3;  5.5445904E-01;  0.0000000E+00; -1.7856710E-01;0; -5.1369119E-02;  3.9923762E+04;  0.0000000E+00;  5.0408667E-01;  4.0000000E+04;  0.0000000E+00;  3.9996164E+04; -5.2006498E-02;  0.0000000E+00;  6.3737959E-04;  8.2459045E+02;
  2.5147015E-01;  9.9999998E-03;  1.8000150E-01;4019; -1.5081635E-02;  0.0000000E+00;  2.8823334E-04;  9.9892108E+02;  1.0000000E-01; -8.9385126E+02;3;  5.2005732E-01;  0.0000000E+00; -7.5261697E-02;0; -5.1785246E-02;  3.9916359E+04;  0.0000000E+00;  4.6049336E-01;  4.0000000E+04;  0.0000000E+00;  3.9995148E+04; -5.2335877E-02;  0.0000000E+00;  5.5063103E-04;  8.3642352E+02;
  2.5132686E-01;  9.9999998E-03;  1.8998535E-01;4020; -1.4869790E-02;  0.0000000E+00;  2.7194869E-04;  9.9884760E+02;  1.0000000E-01; -9.5473840E+02;3;  3.8331765E-01;  0.0000000E+00;  1.7041098E-01;0; -5.2336719E-02;  3.9911863E+04;  0.0000000E+00;  4.7650748E-01;  4.0000000E+04;  0.0000000E+00;  3.9994402E+04; -5.2843858E-02;  0.0000000E+00;  5.0713797E-04;  9.1437415E+02;
  2.5120956E-01;  9.9999998E-03;  1.9996332E-01;4021; -1.4684386E-02;  0.0000000E+00;  2.3631864E-04;  9.9881824E+02;  1.0000000E-01; -9.7908344E+02;3;  6.0308743E-02;  0.0000000E+00;  6.4175969E-01;0; -5.3087752E-02;  3.9910098E+04;  0.0000000E+00;  6.5601104E-01;  4.0000000E+04;  0.0000000E+00;  3.9994891E+04; -5.3599972E-02;  0.0000000E+00;  5.1222148E-04;  1.1105500E+03;
  2.5112051E-01;  9.9999998E-03;  2.0994604E-01;4022; -1.4521799E-02;  0.0000000E+00;  1.8981106E-04;  9.9883435E+02;  1.0000000E-01; -9.6570111E+02;3; -5.4416400E-01;  0.0000000E+00;  1.4365958E+00;0; -5.4128166E-02;  3.9910332E+04;  0.0000000E+00;  1.1113722E+00;  4.0000000E+04;  0.0000000E+00;  3.9997145E+04; -5.4683592E-02;  0.0000000E+00;  5.5542740E-04;  1.6777382E+03;
  2.5106919E-01;  9.9999998E-03;  2.1994293E-01;4023; -1.4374896E-02;  0.0000000E+00;  1.5164296E-04;  9.9888464E+02;  1.0000000E-01; -9.2407263E+02;3; -1.5189395E+00;  0.0000000E+00;  2.6476583E+00;0; -5.5553228E-02;  3.9911645E+04;  0.0000000E+00;  1.9385684E+00;  4.0000000E+04;  0.0000000E+00;  4.0001652E+04; -5.6181394E-02;  0.0000000E+00;  6.2816450E-04;  2.9189851E+03;
  2.5104442E-01;  9.9999998E-03;  2.2996573E-01;4024; -1.4229392E-02;  0.0000000E+00;  1.1660176E-04;  9.9890619E+02;  1.0000000E-01; -9.0619659E+02;3; -2.9712472E+00;  0.0000000E+00;  4.2078977E+00;0; -5.7495549E-02;  3.9913098E+04;  0.0000000E+00;  3.2024770E+00;  4.0000000E+04;  0.0000000E+00;  4.0004184E+04; -5.8186207E-02;  0.0000000E+00;  6.9065724E-04;  4.8403608E+03;
  2.6151881E-01;  9.9999998E-03;  7.0008136E-02;4069; -1.7513029E-02;  0.0000000E+00;  8.3606341E-05;  1.0000040E+03;  1.0000000E-01;  3.3579297E+00;3;  4.5026699E-01;  0.0000000E+00; -1.3181876E-01;0; -5.0544623E-02;  4.0009074E+04;  0.0000000E+00;  7.5385079E-02;  4.0000000E+04;  0.0000000E+00;  3.9991141E+04; -5.1485080E-02;  0.0000000E+00;  9.4045798E-04;  1.1107561E+03;
  2.6156947E-01;  9.9999998E-03;  8.0011182E-02;4070; -1.7477123E-02;  0.0000000E+00;  6.9671878E-05;  1.0000528E+03;  1.0000000E-01;  4.3751850E+01;3;  4.6189666E-01;  0.0000000E+00; -1.4325094E-01;0; -5.0376289E-02;  4.0013090E+04;  0.0000000E+00;  9.1845095E-02;  4.0000000E+04;  0.0000000E+00;  3.9991348E+04; -5.1322699E-02;  0.0000000E+00;  9.4640855E-04;  1.1206742E+03;
  2.6163161E-01;  9.9999998E-03;  9.0009391E-02;4071; -1.7415501E-02;  0.0000000E+00;  5.8842805E-05;  1.0000790E+03;  1.0000000E-01;  6.5479630E+01;3;  4.7462198E-01;  0.0000000E+00; -1.5409708E-01;0; -5.0206657E-02;  4.0014328E+04;  0.0000000E+00;  1.1325907E-01;  4.0000000E+04;  0.0000000E+00;  3.9991992E+04; -5.1195364E-02;  0.0000000E+00;  9.8870741E-04;  1.0401815E+03;
  2.6170430E-01;  9.9999998E-03;  1.0000445E-01;4072; -1.7323056E-02;  0.0000000E+00;  5.4677515E-05;  1.0000675E+03;  1.0000000E-01;  5.5899654E+01;3;  4.8847154E-01;  0.0000000E+00; -1.6562183E-01;0; -5.0055023E-02;  4.0012375E+04;  0.0000000E+00;  1.4492290E-01;  4.0000000E+04;  0.0000000E+00;  3.9993117E+04; -5.1109977E-02;  0.0000000E+00;  1.0549548E-03;  8.9556805E+02;
  2.6178479E-01;  9.9999998E-03;  1.0999773E-01;4073; -1.7196069E-02;  0.0000000E+00;  6.0589722E-05;  1.0000218E+03;  1.0000000E-01;  1.8073563E+01;3;  5.0323540E-01;  0.0000000E+00; -1.7853853E-01;0; -4.9941868E-02;  4.0006684E+04;  0.0000000E+00;  1.9276336E-01;  4.0000000E+04;  0.0000000E+00;  3.9994887E+04; -5.1069662E-02;  0.0000000E+00;  1.1277950E-03;  7.2833197E+02;
  2.6186728E-01;  9.9999998E-03;  1.1999033E-01;4074; -1.7033396E-02;  0.0000000E+00;  7.8094054E-05;  9.9992670E+02;  1.0000000E-01; -6.0739021E+01;3;  5.1853836E-01;  0.0000000E+00; -1.9456492E-01;0; -4.9885329E-02;  3.9997285E+04;  0.0000000E+00;  2.6138103E-01;  4.0000000E+04;  0.0000000E+00;  3.9996168E+04; -5.1074613E-02;  0.0000000E+00;  1.1892833E-03;  5.9821198E+02;
  2.6193637E-01;  9.9999998E-03;  1.2998162E-01;4075; -1.6835686E-02;  0.0000000E+00;  1.1068660E-04;  9.9978955E+02;  1.0000000E-01; -1.7436543E+02;3;  5.3497285E-01;  0.0000000E+00; -2.1103737E-01;0; -4.9899135E-02;  3.9984355E+04;  0.0000000E+00;  3.5139924E-01;  4.0000000E+04;  0.0000000E+00;  3.9997703E+04; -5.1124174E-02;  0.0000000E+00;  1.2250403E-03;  5.7393268E+02;
  2.6197916E-01;  9.9999998E-03;  1.3997421E-01;4076; -1.6607938E-02;  0.0000000E+00;  1.5520089E-04;  9.9960950E+02;  1.0000000E-01; -3.2354642E+02;3;  5.5259275E-01;  0.0000000E+00; -2.2536242E-01;0; -4.9990553E-02;  3.9968793E+04;  0.0000000E+00;  4.5659021E-01;  4.0000000E+04;  0.0000000E+00;  3.9998574E+04; -5.1217917E-02;  0.0000000E+00;  1.2273636E-03;  6.6543866E+02;
  2.6196876E-01;  9.9999998E-03;  1.4996998E-01;4077; -1.6358273E-02;  0.0000000E+00;  2.0640752E-04;  9.9940826E+02;  1.0000000E-01; -4.9025775E+02;3;  5.7213008E-01;  0.0000000E+00; -2.3691174E-01;0; -5.0162513E-02;  3.9951508E+04;  0.0000000E+00;  5.6185627E-01;  4.0000000E+04;  0.0000000E+00;  3.9999223E+04; -5.1358517E-02;  0.0000000E+00;  1.1960031E-03;  8.0537061E+02;
  2.6189122E-01;  9.9999998E-03;  1.5997097E-01;4078; -1.6098609E-02;  0.0000000E+00;  2.5572427E-04;  9.9919800E+02;  1.0000000E-01; -6.6442566E+02;3;  5.9268135E-01;  0.0000000E+00; -2.4713306E-01;0; -5.0414149E-02;  3.9934117E+04;  0.0000000E+00;  6.4409244E-01;  4.0000000E+04;  0.0000000E+00;  3.9999500E+04; -5.1552396E-02;  0.0000000E+00;  1.1382463E-03;  9.2418726E+02;
  2.6175880E-01;  9.9999998E-03;  1.6997544E-01;4079; -1.5842596E-02;  0.0000000E+00;  2.9389819E-04;  9.9899231E+02;  1.0000000E-01; -8.3484058E+02;3;  6.0853463E-01;  0.0000000E+00; -2.4081318E-01;0; -5.0743885E-02;  3.9918215E+04;  0.0000000E+00;  6.8109816E-01;  4.0000000E+04;  0.0000000E+00;  3.9999352E+04; -5.1814362E-02;  0.0000000E+00;  1.0704777E-03;  9.7883008E+02;
  2.6159787E-01;  9.9999998E-03;  1.7997593E-01;4080; -1.5602756E-02;  0.0000000E+00;  3.1356138E-04;  9.9881799E+02;  1.0000000E-01; -9.7928094E+02;3;  5.9731966E-01;  0.0000000E+00; -1.8385893E-01;0; -5.1158700E-02;  3.9904953E+04;  0.0000000E+00;  6.7635024E-01;  4.0000000E+04;  0.0000000E+00;  3.9998867E+04; -5.2174218E-02;  0.0000000E+00;  1.0155172E-03;  9.7584363E+02;
  2.6143488E-01;  9.9999998E-03;  1.8996683E-01;4081; -1.5386723E-02;  0.0000000E+00;  3.1133112E-04;  9.9868628E+02;  1.0000000E-01; -1.0884137E+03;3;  5.1340830E-01;  0.0000000E+00; -2.2720244E-02;0; -5.1682968E-02;  3.9895363E+04;  0.0000000E+00;  6.7219144E-01;  4.0000000E+04;  0.0000000E+00;  3.9998535E+04; -5.2677151E-02;  0.0000000E+00;  9.9418219E-04;  9.7971155E+02;
  2.6128832E-01;  9.9999998E-03;  1.9994900E-01;4082; -1.5196504E-02;  0.0000000E+00;  2.8905409E-04;  9.9861176E+02;  1.0000000E-01; -1.1501403E+03;3;  2.8642476E-01;  0.0000000E+00;  3.1202728E-01;0; -5.2366264E-02;  3.9889672E+04;  0.0000000E+00;  7.4365014E-01;  4.0000000E+04;  0.0000000E+00;  3.9999008E+04; -5.3382169E-02;  0.0000000E+00;  1.0159038E-03;  1.0950591E+03;
  2.6117072E-01;  9.9999998E-03;  2.0992866E-01;4083; -1.5029853E-02;  0.0000000E+00;  2.5713033E-04;  9.9861017E+02;  1.0000000E-01; -1.1514736E+03;3; -1.7211749E-01;  0.0000000E+00;  9.0003604E-01;0; -5.3281363E-02;  3.9888211E+04;  0.0000000E+00;  9.8512381E-01;  4.0000000E+04;  0.0000000E+00;  4.0001625E+04; -5.4358628E-02;  0.0000000E+00;  1.0772641E-03;  1.5037906E+03;
  2.6109424E-01;  9.9999998E-03;  2.1991859E-01;4084; -1.4880768E-02;  0.0000000E+00;  2.4015213E-04;  9.9867218E+02;  1.0000000E-01; -1.1000676E+03;3; -9.4915712E-01;  0.0000000E+00;  1.8367058E+00;0; -5.4494936E-02;  3.9890266E+04;  0.0000000E+00;  1.4924692E+00;  4.0000000E+04;  0.0000000E+00;  4.0006746E+04; -5.5683117E-02;  0.0000000E+00;  1.1881825E-03;  2.4278381E+03;
  2.6106265E-01;  9.9999998E-03;  2.2993276E-01;4085; -1.4737816E-02;  0.0000000E+00;  2.5342454E-04;  9.9875537E+02;  1.0000000E-01; -1.0311313E+03;3; -2.1531355E+00;  0.0000000E+00;  3.1316991E+00;0; -5.6047406E-02;  3.9894441E+04;  0.0000000E+00;  2.3270578E+00;  4.0000000E+04;  0.0000000E+00;  4.0010730E+04; -5.7436973E-02;  0.0000000E+00;  1.3895666E-03;  3.7958745E+03;
  2.7152675E-01;  9.9999998E-03;  7.0004448E-02;4130; -1.7971782E-02;  0.0000000E+00;  8.3778650E-05;  9.9986987E+02;  1.0000000E-01; -1.0779942E+02;3;  4.9499759E-01;  0.0000000E+00; -1.5154125E-01;0; -5.0090626E-02;  3.9997648E+04;  0.0000000E+00;  4.7683932E-02;  4.0000000E+04;  0.0000000E+00;  3.9992762E+04; -5.1031787E-02;  0.0000000E+00;  9.4116194E-04;  9.0731995E+02;
  2.7156138E-01;  9.9999998E-03;  8.0009229E-02;4131; -1.7932313E-02;  0.0000000E+00;  6.9966001E-05;  9.9997003E+02;  1.0000000E-01; -2.4838804E+01;3;  5.0660425E-01;  0.0000000E+00; -1.6420135E-01;0; -4.9885023E-02;  4.0005941E+04;  0.0000000E+00;  5.6575153E-02;  4.0000000E+04;  0.0000000E+00;  3.9992332E+04; -5.0845556E-02;  0.0000000E+00;  9.6053118E-04;  9.4830811E+02;
  2.7160388E-01;  9.9999998E-03;  9.0010718E-02;4132; -1.7870676E-02;  0.0000000E+00;  5.8610509E-05;  1.0000494E+03;  1.0000000E-01;  4.0887733E+01;3;  5.1951772E-01;  0.0000000E+00; -1.7633437E-01;0; -4.9683858E-02;  4.0011797E+04;  0.0000000E+00;  6.9730140E-02;  4.0000000E+04;  0.0000000E+00;  3.9992828E+04; -5.0706372E-02;  0.0000000E+00;  1.0225157E-03;  8.9817108E+02;
  2.7166075E-01;  9.9999998E-03;  1.0000863E-01;4133; -1.7782429E-02;  0.0000000E+00;  5.3134750E-05;  1.0000921E+03;  1.0000000E-01;  7.6343521E+01;3;  5.3380609E-01;  0.0000000E+00; -1.9056776E-01;0; -4.9506769E-02;  4.0013949E+04;  0.0000000E+00;  9.2745498E-02;  4.0000000E+04;  0.0000000E+00;  3.9993805E+04; -5.0622679E-02;  0.0000000E+00;  1.1159123E-03;  7.7232568E+02;
  2.7173266E-01;  9.9999998E-03;  1.1000415E-01;4134; -1.7663797E-02;  0.0000000E+00;  5.7064750E-05;  1.0000884E+03;  1.0000000E-01;  7.3281876E+01;3;  5.4911453E-01;  0.0000000E+00; -2.0571828E-01;0; -4.9373861E-02;  4.0012035E+04;  0.0000000E+00;  1.3248186E-01;  4.0000000E+04;  0.0000000E+00;  3.9995629E+04; -5.0597835E-02;  0.0000000E+00;  1.2239737E-03;  6.0299097E+02;
  2.7181277E-01;  9.9999998E-03;  1.1999829E-01;4135; -1.7513011E-02;  0.0000000E+00;  7.2108072E-05;  1.0000311E+03;  1.0000000E-01;  2.5777048E+01;3;  5.6563199E-01;  0.0000000E+00; -2.2178608E-01;0; -4.9302779E-02;  4.0005527E+04;  0.0000000E+00;  1.9552891E-01;  4.0000000E+04;  0.0000000E+00;  3.9997277E+04; -5.0631151E-02;  0.0000000E+00;  1.3283733E-03;  4.5170389E+02;
  2.7189103E-01;  9.9999998E-03;  1.2999086E-01;4136; -1.7330056E-02;  0.0000000E+00;  1.0145496E-04;  9.9991266E+02;  1.0000000E-01; -7.2343636E+01;3;  5.8232111E-01;  0.0000000E+00; -2.4359415E-01;0; -4.9306173E-02;  3.9994367E+04;  0.0000000E+00;  2.8581446E-01;  4.0000000E+04;  0.0000000E+00;  3.9998902E+04; -5.0719492E-02;  0.0000000E+00;  1.4133191E-03;  4.3021124E+02;
  2.7194771E-01;  9.9999998E-03;  1.3998175E-01;4137; -1.7117959E-02;  0.0000000E+00;  1.4348130E-04;  9.9974432E+02;  1.0000000E-01; -2.1184586E+02;3;  6.0050833E-01;  0.0000000E+00; -2.6113313E-01;0; -4.9390826E-02;  3.9979090E+04;  0.0000000E+00;  4.0157631E-01;  4.0000000E+04;  0.0000000E+00;  4.0000223E+04; -5.0859336E-02;  0.0000000E+00;  1.4685080E-03;  5.7690314E+02;
  2.7196100E-01;  9.9999998E-03;  1.4997265E-01;4138; -1.6882980E-02;  0.0000000E+00;  1.9454559E-04;  9.9953271E+02;  1.0000000E-01; -3.8714954E+02;3;  6.2038183E-01;  0.0000000E+00; -2.7672318E-01;0; -4.9558897E-02;  3.9960293E+04;  0.0000000E+00;  5.3257346E-01;  4.0000000E+04;  0.0000000E+00;  4.0001238E+04; -5.1049467E-02;  0.0000000E+00;  1.4905706E-03;  7.9151678E+02;
  2.7192196E-01;  9.9999998E-03;  1.5996692E-01;4139; -1.6635438E-02;  0.0000000E+00;  2.4796603E-04;  9.9929028E+02;  1.0000000E-01; -5.8798340E+02;3;  6.4235801E-01;  0.0000000E+00; -2.8991401E-01;0; -4.9808241E-02;  3.9940051E+04;  0.0000000E+00;  6.5963471E-01;  4.0000000E+04;  0.0000000E+00;  4.0001836E+04; -5.1291320E-02;  0.0000000E+00;  1.4830782E-03;  9.9740735E+02;
  2.7183279E-01;  9.9999998E-03;  1.6996595E-01;4140; -1.6387722E-02;  0.0000000E+00;  2.9573136E-04;  9.9904199E+02;  1.0000000E-01; -7.9370593E+02;3;  6.6331291E-01;  0.0000000E+00; -2.9808286E-01;0; -5.0133262E-02;  3.9919812E+04;  0.0000000E+00;  7.5577796E-01;  4.0000000E+04;  0.0000000E+00;  4.0002309E+04; -5.1591646E-02;  0.0000000E+00;  1.4583853E-03;  1.1469802E+03;
  2.7170438E-01;  9.9999998E-03;  1.7996559E-01;4141; -1.6151553E-02;  0.0000000E+00;  3.2871676E-04;  9.9881287E+02;  1.0000000E-01; -9.8352771E+02;3;  6.7049420E-01;  0.0000000E+00; -2.7678663E-01;0; -5.0532207E-02;  3.9901738E+04;  0.0000000E+00;  8.0268621E-01;  4.0000000E+04;  0.0000000E+00;  4.0002098E+04; -5.1968951E-02;  0.0000000E+00;  1.4367431E-03;  1.2171589E+03;
  2.7155519E-01;  9.9999998E-03;  1.8995968E-01;4142; -1.5935425E-02;  0.0000000E+00;  3.4117987E-04;  9.9862219E+02;  1.0000000E-01; -1.1414985E+03;3;  6.3175809E-01;  0.0000000E+00; -1.8629031E-01;0; -5.1016897E-02;  3.9886973E+04;  0.0000000E+00;  8.0973542E-01;  4.0000000E+04;  0.0000000E+00;  4.0001961E+04; -5.2456420E-02;  0.0000000E+00;  1.4395230E-03;  1.2320253E+03;
  2.7140319E-01;  9.9999998E-03;  1.9994637E-01;4143; -1.5742885E-02;  0.0000000E+00;  3.3287209E-04;  9.9849432E+02;  1.0000000E-01; -1.2474215E+03;3;  4.9214795E-01;  0.0000000E+00;  2.6112009E-02;0; -5.1621858E-02;  3.9877191E+04;  0.0000000E+00;  8.1763828E-01;  4.0000000E+04;  0.0000000E+00;  4.0002441E+04; -5.3100940E-02;  0.0000000E+00;  1.4790826E-03;  1.2764865E+03;
  2.7126622E-01;  9.9999998E-03;  2.0992750E-01;4144; -1.5573201E-02;  0.0000000E+00;  3.1308751E-04;  9.9844971E+02;  1.0000000E-01; -1.2844081E+03;3;  1.7690881E-01;  0.0000000E+00;  4.2322364E-01;0; -5.2404758E-02;  3.9872805E+04;  0.0000000E+00;  8.9240658E-01;  4.0000000E+04;  0.0000000E+00;  4.0005023E+04; -5.3960517E-02;  0.0000000E+00;  1.5557611E-03;  1.5150730E+03;
  2.7115935E-01;  9.9999998E-03;  2.1991238E-01;4145; -1.5421195E-02;  0.0000000E+00;  3.1379465E-04;  9.9850336E+02;  1.0000000E-01; -1.2399650E+03;3; -3.9506981E-01;  0.0000000E+00;  1.0856012E+00;0; -5.3403158E-02;  3.9873402E+04;  0.0000000E+00;  1.1181661E+00;  4.0000000E+04;  0.0000000E+00;  4.0009762E+04; -5.5100370E-02;  0.0000000E+00;  1.6972108E-03;  2.1601624E+03;
  2.7109483E-01;  9.9999998E-03;  2.2991779E-01;4146; -1.5277148E-02;  0.0000000E+00;  3.7004205E-04;  9.9860760E+02;  1.0000000E-01; -1.1535970E+03;3; -1.3205999E+00;  0.0000000E+00;  2.0532641E+00;0; -5.4562993E-02;  3.9878676E+04;  0.0000000E+00;  1.5727688E+00;  4.0000000E+04;  0.0000000E+00;  4.0015172E+04; -5.6590192E-02;  0.0000000E+00;  2.0271998E-03;  3.1162407E+03;
  2.8150713E-01;  9.9999998E-03;  7.0003696E-02;4191; -1.8448289E-02;  0.0000000E+00;  8.4291700E-05;  9.9970752E+02;  1.0000000E-01; -2.4231413E+02;3;  5.4333156E-01;  0.0000000E+00; -1.7218299E-01;0; -4.9756080E-02;  3.9983781E+04;  0.0000000E+00;  1.3095452E-02;  4.0000000E+04;  0.0000000E+00;  3.9994172E+04; -5.0691389E-02;  0.0000000E+00;  9.3530992E-04;  6.9415521E+02;
  2.8154039E-01;  9.9999998E-03;  8.0006786E-02;4192; -1.8402865E-02;  0.0000000E+00;  7.1277769E-05;  9.9985211E+02;  1.0000000E-01; -1.2251505E+02;3;  5.5494231E-01;  0.0000000E+00; -1.8650568E-01;0; -4.9506724E-02;  3.9995988E+04;  0.0000000E+00;  1.2248578E-02;  4.0000000E+04;  0.0000000E+00;  3.9993793E+04; -5.0472267E-02;  0.0000000E+00;  9.6554362E-04;  7.6861169E+02;
  2.8158078E-01;  9.9999998E-03;  9.0009324E-02;4193; -1.8339152E-02;  0.0000000E+00;  5.9954749E-05;  9.9997797E+02;  1.0000000E-01; -1.8271088E+01;3;  5.6800032E-01;  0.0000000E+00; -2.0128672E-01;0; -4.9265463E-02;  4.0005715E+04;  0.0000000E+00;  1.4687843E-02;  4.0000000E+04;  0.0000000E+00;  3.9993859E+04; -5.0308336E-02;  0.0000000E+00;  1.0428723E-03;  7.5642505E+02;
  2.8163019E-01;  9.9999998E-03;  1.0001028E-01;4194; -1.8252969E-02;  0.0000000E+00;  5.3939391E-05;  1.0000687E+03;  1.0000000E-01;  5.6986042E+01;3;  5.8294851E-01;  0.0000000E+00; -2.1599244E-01;0; -4.9052820E-02;  4.0012121E+04;  0.0000000E+00;  2.5985660E-02;  4.0000000E+04;  0.0000000E+00;  3.9994832E+04; -5.0210282E-02;  0.0000000E+00;  1.1574611E-03;  6.6125818E+02;
  2.8168994E-01;  9.9999998E-03;  1.1000939E-01;4195; -1.8140865E-02;  0.0000000E+00;  5.6350913E-05;  1.0001159E+03;  1.0000000E-01;  9.5997284E+01;3;  5.9832376E-01;  0.0000000E+00; -2.3468192E-01;0; -4.8888739E-02;  4.0014371E+04;  0.0000000E+00;  5.3299706E-02;  4.0000000E+04;  0.0000000E+00;  3.9996031E+04; -5.0182212E-02;  0.0000000E+00;  1.2934746E-03;  5.0112390E+02;
  2.8175762E-01;  9.9999998E-03;  1.2000669E-01;4196; -1.8000556E-02;  0.0000000E+00;  6.9451162E-05;  1.0001024E+03;  1.0000000E-01;  8.4837105E+01;3;  6.1599302E-01;  0.0000000E+00; -2.5388119E-01;0; -4.8790354E-02;  4.0011504E+04;  0.0000000E+00;  1.0424860E-01;  4.0000000E+04;  0.0000000E+00;  3.9997820E+04; -5.0223023E-02;  0.0000000E+00;  1.4326696E-03;  3.2008603E+02;
  2.8182533E-01;  9.9999998E-03;  1.3000198E-01;4197; -1.7831512E-02;  0.0000000E+00;  9.5803858E-05;  1.0000233E+03;  1.0000000E-01;  1.9258715E+01;3;  6.3343048E-01;  0.0000000E+00; -2.7920869E-01;0; -4.8769359E-02;  4.0003262E+04;  0.0000000E+00;  1.8491174E-01;  4.0000000E+04;  0.0000000E+00;  3.9999617E+04; -5.0327610E-02;  0.0000000E+00;  1.5582505E-03;  2.6849026E+02;
  2.8188005E-01;  9.9999998E-03;  1.3999471E-01;4198; -1.7635604E-02;  0.0000000E+00;  1.3478655E-04;  9.9988019E+02;  1.0000000E-01; -9.9256454E+01;3;  6.5234840E-01;  0.0000000E+00; -2.9994768E-01;0; -4.8832018E-02;  3.9989859E+04;  0.0000000E+00;  2.9705340E-01;  4.0000000E+04;  0.0000000E+00;  4.0001375E+04; -5.0490022E-02;  0.0000000E+00;  1.6580024E-03;  4.5944440E+02;
  2.8190681E-01;  9.9999998E-03;  1.4998534E-01;4199; -1.7417232E-02;  0.0000000E+00;  1.8466312E-04;  9.9967548E+02;  1.0000000E-01; -2.6888129E+02;3;  6.7311537E-01;  0.0000000E+00; -3.1833261E-01;0; -4.8979573E-02;  3.9971734E+04;  0.0000000E+00;  4.3511099E-01;  4.0000000E+04;  0.0000000E+00;  4.0002719E+04; -5.0705522E-02;  0.0000000E+00;  1.7259506E-03;  7.2695880E+02;
  2.8189686E-01;  9.9999998E-03;  1.5997636E-01;4200; -1.7184874E-02;  0.0000000E+00;  2.3941560E-04;  9.9942834E+02;  1.0000000E-01; -4.7361624E+02;3;  6.9549900E-01;  0.0000000E+00; -3.3700129E-01;0; -4.9209546E-02;  3.9950398E+04;  0.0000000E+00;  5.8503968E-01;  4.0000000E+04;  0.0000000E+00;  4.0003723E+04; -5.0971877E-02;  0.0000000E+00;  1.7623290E-03;  9.9225720E+02;
  2.8185076E-01;  9.9999998E-03;  1.6997167E-01;4201; -1.6949359E-02;  0.0000000E+00;  2.9202117E-04;  9.9915723E+02;  1.0000000E-01; -6.9820245E+02;3;  7.1965486E-01;  0.0000000E+00; -3.5386306E-01;0; -4.9514107E-02;  3.9927840E+04;  0.0000000E+00;  7.2338045E-01;  4.0000000E+04;  0.0000000E+00;  4.0004559E+04; -5.1290050E-02;  0.0000000E+00;  1.7759422E-03;  1.2181273E+03;
  2.8176922E-01;  9.9999998E-03;  1.7996953E-01;4202; -1.6721202E-02;  0.0000000E+00;  3.3544729E-04;  9.9888995E+02;  1.0000000E-01; -9.1962830E+02;3;  7.3924500E-01;  0.0000000E+00; -3.5584536E-01;0; -4.9884386E-02;  3.9906105E+04;  0.0000000E+00;  8.2168204E-01;  4.0000000E+04;  0.0000000E+00;  4.0004746E+04; -5.1668808E-02;  0.0000000E+00;  1.7844228E-03;  1.3719071E+03;
  2.8165221E-01;  9.9999998E-03;  1.8996474E-01;4203; -1.6508354E-02;  0.0000000E+00;  3.6246286E-04;  9.9865466E+02;  1.0000000E-01; -1.1145858E+03;3;  7.3412275E-01;  0.0000000E+00; -3.2000324E-01;0; -5.0320689E-02;  3.9887418E+04;  0.0000000E+00;  8.6436528E-01;  4.0000000E+04;  0.0000000E+00;  4.0004855E+04; -5.2129682E-02;  0.0000000E+00;  1.8089933E-03;  1.4443149E+03;
  2.8151879E-01;  9.9999998E-03;  1.9995311E-01;4204; -1.6315924E-02;  0.0000000E+00;  3.6921230E-04;  9.9847400E+02;  1.0000000E-01; -1.2642605E+03;3;  6.6596985E-01;  0.0000000E+00; -2.0552203E-01;0; -5.0841868E-02;  3.9873473E+04;  0.0000000E+00;  8.5957748E-01;  4.0000000E+04;  0.0000000E+00;  4.0005188E+04; -5.2706718E-02;  0.0000000E+00;  1.8648516E-03;  1.4812271E+03;
  2.8138405E-01;  9.9999998E-03;  2.0993631E-01;4205; -1.6144017E-02;  0.0000000E+00;  3.6321278E-04;  9.9838080E+02;  1.0000000E-01; -1.3414929E+03;3;  4.7771084E-01;  0.0000000E+00;  3.5423703E-02;0; -5.1489055E-02;  3.9865172E+04;  0.0000000E+00;  8.4032530E-01;  4.0000000E+04;  0.0000000E+00;  4.0007000E+04; -5.3445619E-02;  0.0000000E+00;  1.9565653E-03;  1.6081545E+03;
  2.8126499E-01;  9.9999998E-03;  2.1991958E-01;4206; -1.5989026E-02;  0.0000000E+00;  3.7445285E-04;  9.9839203E+02;  1.0000000E-01; -1.3321599E+03;3;  9.8787338E-02;  0.0000000E+00;  4.5520762E-01;0; -5.2283410E-02;  3.9863230E+04;  0.0000000E+00;  8.6206448E-01;  4.0000000E+04;  0.0000000E+00;  4.0011480E+04; -5.4399524E-02;  0.0000000E+00;  2.1161123E-03;  2.0333317E+03;
  2.8117839E-01;  9.9999998E-03;  2.2991650E-01;4207; -1.5842585E-02;  0.0000000E+00;  4.5668177E-04;  9.9849207E+02;  1.0000000E-01; -1.2492980E+03;3; -5.5047560E-01;  0.0000000E+00;  1.1044680E+00;0; -5.3098258E-02;  3.9867363E+04;  0.0000000E+00;  9.9098784E-01;  4.0000000E+04;  0.0000000E+00;  4.0017121E+04; -5.5625923E-02;  0.0000000E+00;  2.5276663E-03;  2.7349348E+03;
  2.9153076E-01;  9.9999998E-03;  7.0003271E-02;4252; -1.8947307E-02;  0.0000000E+00;  8.5718566E-05;  9.9955969E+02;  1.0000000E-01; -3.6477982E+02;3;  5.9582430E-01;  0.0000000E+00; -1.9496217E-01;0; -4.9480174E-02;  3.9970777E+04;  0.0000000E+00; -1.8263416E-02;  4.0000000E+04;  0.0000000E+00;  3.9995891E+04; -5.0396949E-02;  0.0000000E+00;  9.1677619E-04;  4.9057141E+02;
  2.9153091E-01;  9.9999998E-03;  8.0007881E-02;4253; -1.8891469E-02;  0.0000000E+00;  7.4256583E-05;  9.9973004E+02;  1.0000000E-01; -2.2364799E+02;3;  6.0706913E-01;  0.0000000E+00; -2.1150695E-01;0; -4.9186777E-02;  3.9985395E+04;  0.0000000E+00; -2.9297303E-02;  4.0000000E+04;  0.0000000E+00;  3.9995055E+04; -5.0142214E-02;  0.0000000E+00;  9.5543812E-04;  5.9967224E+02;
  2.9155064E-01;  9.9999998E-03;  9.0010881E-02;4254; -1.8821750E-02;  0.0000000E+00;  6.3830405E-05;  9.9988757E+02;  1.0000000E-01; -9.3133171E+01;3;  6.2048107E-01;  0.0000000E+00; -2.2861898E-01;0; -4.8903123E-02;  3.9998449E+04;  0.0000000E+00; -3.8651090E-02;  4.0000000E+04;  0.0000000E+00;  3.9994906E+04; -4.9946725E-02;  0.0000000E+00;  1.0436012E-03;  6.3350378E+02;
  2.9158542E-01;  9.9999998E-03;  1.0001291E-01;4255; -1.8734325E-02;  0.0000000E+00;  5.7960322E-05;  1.0000209E+03;  1.0000000E-01;  1.7382225E+01;3;  6.3591403E-01;  0.0000000E+00; -2.4549778E-01;0; -4.8650004E-02;  4.0008449E+04;  0.0000000E+00; -4.0988494E-02;  4.0000000E+04;  0.0000000E+00;  3.9995250E+04; -4.9822893E-02;  0.0000000E+00;  1.1728893E-03;  5.8486444E+02;
  2.9163134E-01;  9.9999998E-03;  1.1001438E-01;4256; -1.8626036E-02;  0.0000000E+00;  5.8999889E-05;  1.0001100E+03;  1.0000000E-01;  9.1157913E+01;3;  6.5182823E-01;  0.0000000E+00; -2.6601431E-01;0; -4.8447501E-02;  4.0014281E+04;  0.0000000E+00; -2.9260017E-02;  4.0000000E+04;  0.0000000E+00;  3.9996488E+04; -4.9776275E-02;  0.0000000E+00;  1.3287723E-03;  4.5779892E+02;
  2.9168519E-01;  9.9999998E-03;  1.2001467E-01;4257; -1.8494058E-02;  0.0000000E+00;  7.0548267E-05;  1.0001411E+03;  1.0000000E-01;  1.1683620E+02;3;  6.6976607E-01;  0.0000000E+00; -2.8824770E-01;0; -4.8312105E-02;  4.0015336E+04;  0.0000000E+00;  4.5041735E-03;  4.0000000E+04;  0.0000000E+00;  3.9997906E+04; -4.9805678E-02;  0.0000000E+00;  1.4935737E-03;  2.6789890E+02;
  2.9174119E-01;  9.9999998E-03;  1.3001315E-01;4258; -1.8337438E-02;  0.0000000E+00;  9.4541385E-05;  1.0001078E+03;  1.0000000E-01;  8.9281425E+01;3;  6.8860233E-01;  0.0000000E+00; -3.1772178E-01;0; -4.8255380E-02;  4.0010500E+04;  0.0000000E+00;  6.7588650E-02;  4.0000000E+04;  0.0000000E+00;  3.9999738E+04; -4.9905479E-02;  0.0000000E+00;  1.6500978E-03;  1.0402002E+02;
  2.9179147E-01;  9.9999998E-03;  1.4000870E-01;4259; -1.8157065E-02;  0.0000000E+00;  1.3051166E-04;  9.9999664E+02;  1.0000000E-01; -2.7653539E+00;3;  7.0857865E-01;  0.0000000E+00; -3.4075779E-01;0; -4.8282724E-02;  3.9999941E+04;  0.0000000E+00;  1.6426361E-01;  4.0000000E+04;  0.0000000E+00;  4.0001793E+04; -5.0067417E-02;  0.0000000E+00;  1.7846937E-03;  3.1008762E+02;
  2.9182526E-01;  9.9999998E-03;  1.5000094E-01;4260; -1.7955828E-02;  0.0000000E+00;  1.7799863E-04;  9.9982166E+02;  1.0000000E-01; -1.4774890E+02;3;  7.2999161E-01;  0.0000000E+00; -3.6332455E-01;0; -4.8395142E-02;  3.9983672E+04;  0.0000000E+00;  2.9297242E-01;  4.0000000E+04;  0.0000000E+00;  4.0003320E+04; -5.0284240E-02;  0.0000000E+00;  1.8890981E-03;  6.0309436E+02;
  2.9183540E-01;  9.9999998E-03;  1.5999198E-01;4261; -1.7740130E-02;  0.0000000E+00;  2.3213931E-04;  9.9958850E+02;  1.0000000E-01; -3.4092862E+02;3;  7.5299817E-01;  0.0000000E+00; -3.8683793E-01;0; -4.8590384E-02;  3.9963121E+04;  0.0000000E+00;  4.4460967E-01;  4.0000000E+04;  0.0000000E+00;  4.0004879E+04; -5.0551120E-02;  0.0000000E+00;  1.9607360E-03;  8.9682288E+02;
  2.9182315E-01;  9.9999998E-03;  1.6998531E-01;4262; -1.7518755E-02;  0.0000000E+00;  2.8762594E-04;  9.9931567E+02;  1.0000000E-01; -5.6694690E+02;3;  7.7871346E-01;  0.0000000E+00; -4.1047874E-01;0; -4.8859682E-02;  3.9940188E+04;  0.0000000E+00;  6.0248113E-01;  4.0000000E+04;  0.0000000E+00;  4.0005902E+04; -5.0864883E-02;  0.0000000E+00;  2.0052022E-03;  1.1664702E+03;
  2.9178512E-01;  9.9999998E-03;  1.7998175E-01;4263; -1.7300943E-02;  0.0000000E+00;  3.3786814E-04;  9.9903271E+02;  1.0000000E-01; -8.0136005E+02;3;  8.0534947E-01;  0.0000000E+00; -4.2695448E-01;0; -4.9189679E-02;  3.9916996E+04;  0.0000000E+00;  7.3956215E-01;  4.0000000E+04;  0.0000000E+00;  4.0006516E+04; -5.1227219E-02;  0.0000000E+00;  2.0375408E-03;  1.3831403E+03;
  2.9170990E-01;  9.9999998E-03;  1.8997599E-01;4264; -1.7094066E-02;  0.0000000E+00;  3.7550143E-04;  9.9876715E+02;  1.0000000E-01; -1.0214032E+03;3;  8.2239401E-01;  0.0000000E+00; -4.2470145E-01;0; -4.9571231E-02;  3.9895531E+04;  0.0000000E+00;  8.2742447E-01;  4.0000000E+04;  0.0000000E+00;  4.0006719E+04; -5.1649489E-02;  0.0000000E+00;  2.0782566E-03;  1.5231892E+03;
  2.9160216E-01;  9.9999998E-03;  1.9996598E-01;4265; -1.6902870E-02;  0.0000000E+00;  3.9646970E-04;  9.9854816E+02;  1.0000000E-01; -1.2028302E+03;3;  8.0652428E-01;  0.0000000E+00; -3.7861788E-01;0; -5.0009072E-02;  3.9878074E+04;  0.0000000E+00;  8.5045266E-01;  4.0000000E+04;  0.0000000E+00;  4.0007035E+04; -5.2154474E-02;  0.0000000E+00;  2.1454014E-03;  1.5951726E+03;
  2.9148665E-01;  9.9999998E-03;  2.0994984E-01;4266; -1.6729366E-02;  0.0000000E+00;  4.0425672E-04;  9.9840607E+02;  1.0000000E-01; -1.3205553E+03;3;  7.1688026E-01;  0.0000000E+00; -2.5865763E-01;0; -5.0525919E-02;  3.9866293E+04;  0.0000000E+00;  8.1214082E-01;  4.0000000E+04;  0.0000000E+00;  4.0008727E+04; -5.2774347E-02;  0.0000000E+00;  2.2484290E-03;  1.6895162E+03;
  2.9137465E-01;  9.9999998E-03;  2.1993282E-01;4267; -1.6570866E-02;  0.0000000E+00;  4.2316224E-04;  9.9836835E+02;  1.0000000E-01; -1.3518136E+03;3;  5.0173867E-01;  0.0000000E+00; -2.3912108E-02;0; -5.1132403E-02;  3.9861133E+04;  0.0000000E+00;  7.3674816E-01;  4.0000000E+04;  0.0000000E+00;  4.0012148E+04; -5.3550407E-02;  0.0000000E+00;  2.4180040E-03;  1.9808374E+03;
  2.9128012E-01;  9.9999998E-03;  2.2992584E-01;4268; -1.6420083E-02;  0.0000000E+00;  5.0393178E-04;  9.9842743E+02;  1.0000000E-01; -1.3028274E+03;3;  9.6604966E-02;  0.0000000E+00;  3.5835171E-01;0; -5.1698446E-02;  3.9862488E+04;  0.0000000E+00;  6.6554284E-01;  4.0000000E+04;  0.0000000E+00;  4.0017129E+04; -5.4528173E-02;  0.0000000E+00;  2.8297277E-03;  2.5005125E+03;
  3.0158356E-01;  9.9999998E-03;  6.9995232E-02;4313; -1.9465337E-02;  0.0000000E+00;  8.7947410E-05;  9.9945593E+02;  1.0000000E-01; -4.5075269E+02;3;  6.5273029E-01;  0.0000000E+00; -2.1928436E-01;0; -4.9198620E-02;  3.9961680E+04;  0.0000000E+00; -3.8468570E-02;  4.0000000E+04;  0.0000000E+00;  3.9997312E+04; -5.0077129E-02;  0.0000000E+00;  8.7850902E-04;  3.1264844E+02;
  3.0157205E-01;  9.9999998E-03;  7.9998769E-02;4314; -1.9397572E-02;  0.0000000E+00;  7.8833385E-05;  9.9964050E+02;  1.0000000E-01; -2.9781873E+02;3;  6.6372949E-01;  0.0000000E+00; -2.3939383E-01;0; -4.8865072E-02;  3.9977344E+04;  0.0000000E+00; -5.8134980E-02;  4.0000000E+04;  0.0000000E+00;  3.9996262E+04; -4.9788393E-02;  0.0000000E+00;  9.2332205E-04;  4.5323541E+02;
  3.0156249E-01;  9.9999998E-03;  9.0005755E-02;4315; -1.9318497E-02;  0.0000000E+00;  7.0213231E-05;  9.9981622E+02;  1.0000000E-01; -1.5224261E+02;3;  6.7724234E-01;  0.0000000E+00; -2.5796834E-01;0; -4.8541352E-02;  3.9991938E+04;  0.0000000E+00; -7.8448266E-02;  4.0000000E+04;  0.0000000E+00;  3.9995941E+04; -4.9559500E-02;  0.0000000E+00;  1.0181487E-03;  5.3537988E+02;
  3.0156332E-01;  9.9999998E-03;  1.0001301E-01;4316; -1.9225828E-02;  0.0000000E+00;  6.5214801E-05;  9.9997040E+02;  1.0000000E-01; -2.4542517E+01;3;  6.9261611E-01;  0.0000000E+00; -2.7812713E-01;0; -4.8248488E-02;  4.0004309E+04;  0.0000000E+00; -9.4562151E-02;  4.0000000E+04;  0.0000000E+00;  3.9995668E+04; -4.9404465E-02;  0.0000000E+00;  1.1559762E-03;  5.4455133E+02;
  3.0158269E-01;  9.9999998E-03;  1.1001735E-01;4317; -1.9117570E-02;  0.0000000E+00;  6.5824475E-05;  1.0000865E+03;  1.0000000E-01;  7.1701675E+01;3;  7.0946229E-01;  0.0000000E+00; -3.0099797E-01;0; -4.8005540E-02;  4.0013078E+04;  0.0000000E+00; -9.9839181E-02;  4.0000000E+04;  0.0000000E+00;  3.9996410E+04; -4.9329218E-02;  0.0000000E+00;  1.3236770E-03;  4.7493408E+02;
  3.0161536E-01;  9.9999998E-03;  1.2002007E-01;4318; -1.8990798E-02;  0.0000000E+00;  7.5730997E-05;  1.0001537E+03;  1.0000000E-01;  1.2730504E+02;3;  7.2753042E-01;  0.0000000E+00; -3.2891873E-01;0; -4.7828943E-02;  4.0017461E+04;  0.0000000E+00; -8.6391792E-02;  4.0000000E+04;  0.0000000E+00;  3.9997707E+04; -4.9333584E-02;  0.0000000E+00;  1.5046394E-03;  3.2984998E+02;
  3.0165511E-01;  9.9999998E-03;  1.3002130E-01;4319; -1.8843863E-02;  0.0000000E+00;  9.7700584E-05;  1.0001582E+03;  1.0000000E-01;  1.3105803E+02;3;  7.4717903E-01;  0.0000000E+00; -3.5974616E-01;0; -4.7729690E-02;  4.0015953E+04;  0.0000000E+00; -4.6302870E-02;  4.0000000E+04;  0.0000000E+00;  3.9999211E+04; -4.9411539E-02;  0.0000000E+00;  1.6818481E-03;  1.2127505E+02;
  3.0169618E-01;  9.9999998E-03;  1.4001992E-01;4320; -1.8676976E-02;  0.0000000E+00;  1.3104643E-04;  1.0000908E+03;  1.0000000E-01;  7.5257133E+01;3;  7.6869661E-01;  0.0000000E+00; -3.8534099E-01;0; -4.7713116E-02;  4.0008379E+04;  0.0000000E+00;  2.6471745E-02;  4.0000000E+04;  0.0000000E+00;  4.0001105E+04; -4.9553867E-02;  0.0000000E+00;  1.8407519E-03;  1.4215788E+02;
  3.0173171E-01;  9.9999998E-03;  1.5001479E-01;4321; -1.8491767E-02;  0.0000000E+00;  1.7497859E-04;  9.9995233E+02;  1.0000000E-01; -3.9505054E+01;3;  7.9072750E-01;  0.0000000E+00; -4.1373432E-01;0; -4.7780082E-02;  3.9995242E+04;  0.0000000E+00;  1.3364352E-01;  4.0000000E+04;  0.0000000E+00;  4.0002926E+04; -4.9751315E-02;  0.0000000E+00;  1.9712329E-03;  4.2831927E+02;
  3.0175579E-01;  9.9999998E-03;  1.6000727E-01;4322; -1.8292563E-02;  0.0000000E+00;  2.2683450E-04;  9.9974603E+02;  1.0000000E-01; -2.1041380E+02;3;  8.1476068E-01;  0.0000000E+00; -4.4075048E-01;0; -4.7928333E-02;  3.9976930E+04;  0.0000000E+00;  2.7065596E-01;  4.0000000E+04;  0.0000000E+00;  4.0004914E+04; -4.9996752E-02;  0.0000000E+00;  2.0684176E-03;  7.2369061E+02;
  3.0176702E-01;  9.9999998E-03;  1.7000100E-01;4323; -1.8085759E-02;  0.0000000E+00;  2.8239092E-04;  9.9949359E+02;  1.0000000E-01; -4.1954370E+02;3;  8.4146655E-01;  0.0000000E+00; -4.6952435E-01;0; -4.8149724E-02;  3.9955098E+04;  0.0000000E+00;  4.2645454E-01;  4.0000000E+04;  0.0000000E+00;  4.0006109E+04; -5.0284822E-02;  0.0000000E+00;  2.1350984E-03;  1.0074987E+03;
  3.0175984E-01;  9.9999998E-03;  1.7999667E-01;4324; -1.7879009E-02;  0.0000000E+00;  3.3634913E-04;  9.9921759E+02;  1.0000000E-01; -6.4822858E+02;3;  8.7094235E-01;  0.0000000E+00; -4.9554688E-01;0; -4.8429493E-02;  3.9931641E+04;  0.0000000E+00;  5.8210129E-01;  4.0000000E+04;  0.0000000E+00;  4.0007004E+04; -5.0613284E-02;  0.0000000E+00;  2.1837896E-03;  1.2582592E+03;
  3.0172175E-01;  9.9999998E-03;  1.8999028E-01;4325; -1.7678941E-02;  0.0000000E+00;  3.8149004E-04;  9.9893890E+02;  1.0000000E-01; -8.7908624E+02;3;  9.0024585E-01;  0.0000000E+00; -5.1298594E-01;0; -4.8751596E-02;  3.9909238E+04;  0.0000000E+00;  7.0863688E-01;  4.0000000E+04;  0.0000000E+00;  4.0007531E+04; -5.0985809E-02;  0.0000000E+00;  2.2342117E-03;  1.4521050E+03;
  3.0165005E-01;  9.9999998E-03;  1.9998121E-01;4326; -1.7490130E-02;  0.0000000E+00;  4.1265535E-04;  9.9869373E+02;  1.0000000E-01; -1.0822410E+03;3;  9.1697085E-01;  0.0000000E+00; -5.0929099E-01;0; -4.9109008E-02;  3.9889680E+04;  0.0000000E+00;  7.7790898E-01;  4.0000000E+04;  0.0000000E+00;  4.0008129E+04; -5.1415075E-02;  0.0000000E+00;  2.3060653E-03;  1.5761805E+03;
  3.0155781E-01;  9.9999998E-03;  2.0996696E-01;4327; -1.7314946E-02;  0.0000000E+00;  4.3003680E-04;  9.9851227E+02;  1.0000000E-01; -1.2325577E+03;3;  8.9605069E-01;  0.0000000E+00; -4.6790731E-01;0; -4.9510881E-02;  3.9875043E+04;  0.0000000E+00;  7.7331048E-01;  4.0000000E+04;  0.0000000E+00;  4.0008895E+04; -5.1922351E-02;  0.0000000E+00;  2.4114691E-03;  1.6795216E+03;
  3.0146149E-01;  9.9999998E-03;  2.1995001E-01;4328; -1.7151540E-02;  0.0000000E+00;  4.5344385E-04;  9.9842572E+02;  1.0000000E-01; -1.3042594E+03;3;  8.0328256E-01;  0.0000000E+00; -3.6022085E-01;0; -4.9956605E-02;  3.9866375E+04;  0.0000000E+00;  6.9470251E-01;  4.0000000E+04;  0.0000000E+00;  4.0011973E+04; -5.2536216E-02;  0.0000000E+00;  2.5796124E-03;  1.9019408E+03;
  3.0137187E-01;  9.9999998E-03;  2.2994038E-01;4329; -1.6994327E-02;  0.0000000E+00;  5.2419171E-04;  9.9843549E+02;  1.0000000E-01; -1.2961609E+03;3;  5.9083956E-01;  0.0000000E+00; -1.7396481E-01;0; -5.0332978E-02;  3.9864340E+04;  0.0000000E+00;  5.5756456E-01;  4.0000000E+04;  0.0000000E+00;  4.0016016E+04; -5.3290579E-02;  0.0000000E+00;  2.9576025E-03;  2.2964053E+03;
  3.1168100E-01;  9.9999998E-03;  6.9987789E-02;4374; -1.9996643E-02;  0.0000000E+00;  9.0429465E-05;  9.9943372E+02;  1.0000000E-01; -4.6917191E+02;3;  7.1473503E-01;  0.0000000E+00; -2.4440005E-01;0; -4.8852183E-02;  3.9958641E+04;  0.0000000E+00; -4.4030514E-02;  4.0000000E+04;  0.0000000E+00;  3.9998336E+04; -4.9664550E-02;  0.0000000E+00;  8.1236783E-04;  1.6832736E+02;
  3.1164530E-01;  9.9999998E-03;  7.9988830E-02;4375; -1.9914517E-02;  0.0000000E+00;  8.4237108E-05;  9.9960822E+02;  1.0000000E-01; -3.2458340E+02;3;  7.2530413E-01;  0.0000000E+00; -2.6791337E-01;0; -4.8488293E-02;  3.9973855E+04;  0.0000000E+00; -6.9221660E-02;  4.0000000E+04;  0.0000000E+00;  3.9997328E+04; -4.9350046E-02;  0.0000000E+00;  8.6175348E-04;  3.3097906E+02;
  3.1160799E-01;  9.9999998E-03;  8.9993633E-02;4376; -1.9823872E-02;  0.0000000E+00;  7.8033663E-05;  9.9977710E+02;  1.0000000E-01; -1.8468614E+02;3;  7.3857564E-01;  0.0000000E+00; -2.9083923E-01;0; -4.8132632E-02;  3.9988562E+04;  0.0000000E+00; -9.7844131E-02;  4.0000000E+04;  0.0000000E+00;  3.9996383E+04; -4.9092278E-02;  0.0000000E+00;  9.5964572E-04;  4.5688937E+02;
  3.1157878E-01;  9.9999998E-03;  1.0000101E-01;4377; -1.9723462E-02;  0.0000000E+00;  7.4506963E-05;  9.9993506E+02;  1.0000000E-01; -5.3825638E+01;3;  7.5382113E-01;  0.0000000E+00; -3.1493327E-01;0; -4.7805443E-02;  4.0001688E+04;  0.0000000E+00; -1.2583907E-01;  4.0000000E+04;  0.0000000E+00;  3.9996027E+04; -4.8905827E-02;  0.0000000E+00;  1.1003852E-03;  5.2467432E+02;
  3.1156248E-01;  9.9999998E-03;  1.1001071E-01;4378; -1.9611584E-02;  0.0000000E+00;  7.5690441E-05;  1.0000653E+03;  1.0000000E-01;  5.4121925E+01;3;  7.7144176E-01;  0.0000000E+00; -3.4047270E-01;0; -4.7525667E-02;  4.0011977E+04;  0.0000000E+00; -1.4729962E-01;  4.0000000E+04;  0.0000000E+00;  3.9996199E+04; -4.8798237E-02;  0.0000000E+00;  1.2725716E-03;  5.2104077E+02;
  3.1156221E-01;  9.9999998E-03;  1.2001870E-01;4379; -1.9486178E-02;  0.0000000E+00;  8.4654392E-05;  1.0001537E+03;  1.0000000E-01;  1.2730504E+02;3;  7.8973824E-01;  0.0000000E+00; -3.7461862E-01;0; -4.7309075E-02;  4.0018141E+04;  0.0000000E+00; -1.5473542E-01;  4.0000000E+04;  0.0000000E+00;  3.9997176E+04; -4.8769955E-02;  0.0000000E+00;  1.4608818E-03;  4.4246860E+02;
  3.1157982E-01;  9.9999998E-03;  1.3002369E-01;4380; -1.9345578E-02;  0.0000000E+00;  1.0445443E-04;  1.0001842E+03;  1.0000000E-01;  1.5258827E+02;3;  8.0937201E-01;  0.0000000E+00; -4.0703571E-01;0; -4.7165953E-02;  4.0019496E+04;  0.0000000E+00; -1.3994338E-01;  4.0000000E+04;  0.0000000E+00;  3.9998238E+04; -4.8814829E-02;  0.0000000E+00;  1.6488775E-03;  2.9734387E+02;
  3.1160772E-01;  9.9999998E-03;  1.4002596E-01;4381; -1.9189080E-02;  0.0000000E+00;  1.3477982E-04;  1.0001522E+03;  1.0000000E-01;  1.2602113E+02;3;  8.3231300E-01;  0.0000000E+00; -4.3447223E-01;0; -4.7101893E-02;  4.0015016E+04;  0.0000000E+00; -9.5549367E-02;  4.0000000E+04;  0.0000000E+00;  4.0000047E+04; -4.8923619E-02;  0.0000000E+00;  1.8217250E-03;  1.3676479E+02;
  3.1163985E-01;  9.9999998E-03;  1.5002422E-01;4382; -1.9017424E-02;  0.0000000E+00;  1.7478765E-04;  1.0000519E+03;  1.0000000E-01;  4.2961746E+01;3;  8.5547566E-01;  0.0000000E+00; -4.6740931E-01;0; -4.7118019E-02;  4.0005004E+04;  0.0000000E+00; -1.7167697E-02;  4.0000000E+04;  0.0000000E+00;  4.0001867E+04; -4.9085997E-02;  0.0000000E+00;  1.9679784E-03;  2.4047321E+02;
  3.1167164E-01;  9.9999998E-03;  1.6001911E-01;4383; -1.8832965E-02;  0.0000000E+00;  2.2279241E-04;  9.9988678E+02;  1.0000000E-01; -9.3824509E+01;3;  8.8098323E-01;  0.0000000E+00; -4.9834070E-01;0; -4.7212098E-02;  3.9989688E+04;  0.0000000E+00;  9.4636619E-02;  4.0000000E+04;  0.0000000E+00;  4.0003855E+04; -4.9293049E-02;  0.0000000E+00;  2.0809493E-03;  5.0090234E+02;
  3.1169686E-01;  9.9999998E-03;  1.7001417E-01;4384; -1.8639844E-02;  0.0000000E+00;  2.7606214E-04;  9.9966510E+02;  1.0000000E-01; -2.7747363E+02;3;  9.0872002E-01;  0.0000000E+00; -5.3155613E-01;0; -4.7377009E-02;  3.9970180E+04;  0.0000000E+00;  2.3347940E-01;  4.0000000E+04;  0.0000000E+00;  4.0005320E+04; -4.9538292E-02;  0.0000000E+00;  2.1612830E-03;  7.7524609E+02;
  3.1170788E-01;  9.9999998E-03;  1.8001053E-01;4385; -1.8443722E-02;  0.0000000E+00;  3.2987454E-04;  9.9940710E+02;  1.0000000E-01; -4.9119598E+02;3;  9.3910432E-01;  0.0000000E+00; -5.6424540E-01;0; -4.7598727E-02;  3.9948430E+04;  0.0000000E+00;  3.8712528E-01;  4.0000000E+04;  0.0000000E+00;  4.0006633E+04; -4.9817838E-02;  0.0000000E+00;  2.2191117E-03;  1.0335361E+03;
  3.1169724E-01;  9.9999998E-03;  1.9000529E-01;4386; -1.8250255E-02;  0.0000000E+00;  3.7849348E-04;  9.9913940E+02;  1.0000000E-01; -7.1296747E+02;3;  9.7363073E-01;  0.0000000E+00; -5.9071136E-01;0; -4.7858190E-02;  3.9926379E+04;  0.0000000E+00;  5.3463489E-01;  4.0000000E+04;  0.0000000E+00;  4.0007246E+04; -5.0131127E-02;  0.0000000E+00;  2.2729367E-03;  1.2547832E+03;
  3.1166288E-01;  9.9999998E-03;  1.9999754E-01;4387; -1.8064074E-02;  0.0000000E+00;  4.1582598E-04;  9.9888812E+02;  1.0000000E-01; -9.2115912E+02;3;  1.0065112E+00;  0.0000000E+00; -6.1140603E-01;0; -4.8139434E-02;  3.9906031E+04;  0.0000000E+00;  6.4678991E-01;  4.0000000E+04;  0.0000000E+00;  4.0007809E+04; -5.0482810E-02;  0.0000000E+00;  2.3433766E-03;  1.4208947E+03;
  3.1160527E-01;  9.9999998E-03;  2.0998590E-01;4388; -1.7887132E-02;  0.0000000E+00;  4.3927692E-04;  9.9868060E+02;  1.0000000E-01; -1.0931049E+03;3;  1.0269928E+00;  0.0000000E+00; -6.1272335E-01;0; -4.8440911E-02;  3.9889520E+04;  0.0000000E+00;  6.9653791E-01;  4.0000000E+04;  0.0000000E+00;  4.0008586E+04; -5.0885111E-02;  0.0000000E+00;  2.4442021E-03;  1.5465073E+03;
  3.1153500E-01;  9.9999998E-03;  2.1997052E-01;4389; -1.7718270E-02;  0.0000000E+00;  4.6175325E-04;  9.9855133E+02;  1.0000000E-01; -1.2002130E+03;3;  1.0130296E+00;  0.0000000E+00; -5.8371675E-01;0; -4.8758738E-02;  3.9878082E+04;  0.0000000E+00;  6.6718370E-01;  4.0000000E+04;  0.0000000E+00;  4.0010578E+04; -5.1356222E-02;  0.0000000E+00;  2.5974831E-03;  1.7233149E+03;
  3.1146163E-01;  9.9999998E-03;  2.2995855E-01;4390; -1.7553670E-02;  0.0000000E+00;  5.1470276E-04;  9.9850848E+02;  1.0000000E-01; -1.2356687E+03;3;  9.3492997E-01;  0.0000000E+00; -5.1980221E-01;0; -4.9010225E-02;  3.9872578E+04;  0.0000000E+00;  5.5467659E-01;  4.0000000E+04;  0.0000000E+00;  4.0013984E+04; -5.1919039E-02;  0.0000000E+00;  2.9088159E-03;  2.0258478E+03;
  3.2175627E-01;  9.9999998E-03;  6.9986470E-02;4435; -2.0529279E-02;  0.0000000E+00;  9.1820417E-05;  9.9949866E+02;  1.0000000E-01; -4.1534628E+02;3;  7.8124505E-01;  0.0000000E+00; -2.7098876E-01;0; -4.8402369E-02;  3.9963016E+04;  0.0000000E+00; -3.6336128E-02;  4.0000000E+04;  0.0000000E+00;  3.9999266E+04; -4.9112469E-02;  0.0000000E+00;  7.1010069E-04;  6.6719269E+01;
  3.2173377E-01;  9.9999998E-03;  7.9982474E-02;4436; -2.0433890E-02;  0.0000000E+00;  8.8905123E-05;  9.9964844E+02;  1.0000000E-01; -2.9125101E+02;3;  7.9165781E-01;  0.0000000E+00; -2.9990461E-01;0; -4.8019987E-02;  3.9976543E+04;  0.0000000E+00; -6.3189566E-02;  4.0000000E+04;  0.0000000E+00;  3.9998145E+04; -4.8782784E-02;  0.0000000E+00;  7.6279970E-04;  2.3164995E+02;
  3.2170466E-01;  9.9999998E-03;  8.9982331E-02;4437; -2.0331938E-02;  0.0000000E+00;  8.5625994E-05;  9.9979883E+02;  1.0000000E-01; -1.6666196E+02;3;  8.0469859E-01;  0.0000000E+00; -3.2839203E-01;0; -4.7642685E-02;  3.9989797E+04;  0.0000000E+00; -9.6200593E-02;  4.0000000E+04;  0.0000000E+00;  3.9997125E+04; -4.8503507E-02;  0.0000000E+00;  8.6082041E-04;  3.8899957E+02;
  3.2166633E-01;  9.9999998E-03;  9.9987037E-02;4438; -2.0222608E-02;  0.0000000E+00;  8.4151179E-05;  9.9994135E+02;  1.0000000E-01; -4.8591217E+01;3;  8.2012188E-01;  0.0000000E+00; -3.5663334E-01;0; -4.7290538E-02;  4.0002082E+04;  0.0000000E+00; -1.3241287E-01;  4.0000000E+04;  0.0000000E+00;  3.9996211E+04; -4.8290364E-02;  0.0000000E+00;  9.9982764E-04;  5.0660623E+02;
  3.2161790E-01;  9.9999998E-03;  1.0999648E-01;4439; -2.0104595E-02;  0.0000000E+00;  8.6432163E-05;  1.0000590E+03;  1.0000000E-01;  4.8887505E+01;3;  8.3762270E-01;  0.0000000E+00; -3.8853198E-01;0; -4.6981968E-02;  4.0012082E+04;  0.0000000E+00; -1.6694196E-01;  4.0000000E+04;  0.0000000E+00;  3.9996082E+04; -4.8152190E-02;  0.0000000E+00;  1.1702201E-03;  5.6490961E+02;
  3.2157171E-01;  9.9999998E-03;  1.2000927E-01;4440; -1.9976703E-02;  0.0000000E+00;  9.5145922E-05;  1.0001495E+03;  1.0000000E-01;  1.2384835E+02;3;  8.5638714E-01;  0.0000000E+00; -4.2388412E-01;0; -4.6731804E-02;  4.0019074E+04;  0.0000000E+00; -1.9297719E-01;  4.0000000E+04;  0.0000000E+00;  3.9996430E+04; -4.8090164E-02;  0.0000000E+00;  1.3583616E-03;  5.5246838E+02;
  3.2154673E-01;  9.9999998E-03;  1.3002092E-01;4441; -1.9838119E-02;  0.0000000E+00;  1.1246077E-04;  1.0001984E+03;  1.0000000E-01;  1.6434103E+02;3;  8.7670821E-01;  0.0000000E+00; -4.5717484E-01;0; -4.6549462E-02;  4.0022023E+04;  0.0000000E+00; -2.0232169E-01;  4.0000000E+04;  0.0000000E+00;  3.9997426E+04; -4.8098136E-02;  0.0000000E+00;  1.5486724E-03;  4.6864255E+02;
  3.2154757E-01;  9.9999998E-03;  1.4002763E-01;4442; -1.9688075E-02;  0.0000000E+00;  1.3903053E-04;  1.0001937E+03;  1.0000000E-01;  1.6048929E+02;3;  8.9936769E-01;  0.0000000E+00; -4.9100563E-01;0; -4.6440184E-02;  4.0019879E+04;  0.0000000E+00; -1.8666044E-01;  4.0000000E+04;  0.0000000E+00;  3.9998586E+04; -4.8166480E-02;  0.0000000E+00;  1.7262944E-03;  3.2900500E+02;
  3.2156524E-01;  9.9999998E-03;  1.5002942E-01;4443; -1.9526167E-02;  0.0000000E+00;  1.7460836E-04;  1.0001265E+03;  1.0000000E-01;  1.0478716E+02;3;  9.2444962E-01;  0.0000000E+00; -5.2473521E-01;0; -4.6405643E-02;  4.0012859E+04;  0.0000000E+00; -1.3944203E-01;  4.0000000E+04;  0.0000000E+00;  4.0000375E+04; -4.8284747E-02;  0.0000000E+00;  1.8791019E-03;  2.0219144E+02;
  3.2159251E-01;  9.9999998E-03;  1.6002694E-01;4444; -1.9353308E-02;  0.0000000E+00;  2.1759799E-04;  9.9999866E+02;  1.0000000E-01; -1.1357703E+00;3;  9.5084846E-01;  0.0000000E+00; -5.6101400E-01;0; -4.6444140E-02;  4.0000715E+04;  0.0000000E+00; -5.7789508E-02;  4.0000000E+04;  0.0000000E+00;  4.0002266E+04; -4.8443321E-02;  0.0000000E+00;  1.9991824E-03;  2.8529330E+02;
  3.2162175E-01;  9.9999998E-03;  1.7002286E-01;4445; -1.9171761E-02;  0.0000000E+00;  2.6598643E-04;  9.9981647E+02;  1.0000000E-01; -1.5204509E+02;3;  9.7930968E-01;  0.0000000E+00; -5.9892982E-01;0; -4.6549473E-02;  3.9984430E+04;  0.0000000E+00;  5.6028146E-02;  4.0000000E+04;  0.0000000E+00;  4.0004023E+04; -4.8635077E-02;  0.0000000E+00;  2.0856038E-03;  5.1183142E+02;
  3.2164443E-01;  9.9999998E-03;  1.8001980E-01;4446; -1.8985119E-02;  0.0000000E+00;  3.1658227E-04;  9.9959607E+02;  1.0000000E-01; -3.3465720E+02;3;  1.0112492E+00;  0.0000000E+00; -6.3526708E-01;0; -4.6708893E-02;  3.9965164E+04;  0.0000000E+00;  1.9395185E-01;  4.0000000E+04;  0.0000000E+00;  4.0005168E+04; -4.8855446E-02;  0.0000000E+00;  2.1465542E-03;  7.5745935E+02;
  3.2165661E-01;  9.9999998E-03;  1.9001716E-01;4447; -1.8797742E-02;  0.0000000E+00;  3.6484879E-04;  9.9934918E+02;  1.0000000E-01; -5.3919464E+02;3;  1.0471598E+00;  0.0000000E+00; -6.6917694E-01;0; -4.6903104E-02;  3.9944625E+04;  0.0000000E+00;  3.4242523E-01;  4.0000000E+04;  0.0000000E+00;  4.0006129E+04; -4.9102049E-02;  0.0000000E+00;  2.1989464E-03;  9.8250085E+02;
  3.2165623E-01;  9.9999998E-03;  2.0001286E-01;4448; -1.8613806E-02;  0.0000000E+00;  4.0400121E-04;  9.9910309E+02;  1.0000000E-01; -7.4309009E+02;3;  1.0864643E+00;  0.0000000E+00; -6.9967061E-01;0; -4.7112450E-02;  3.9924922E+04;  0.0000000E+00;  4.7958171E-01;  4.0000000E+04;  0.0000000E+00;  4.0007207E+04; -4.9375527E-02;  0.0000000E+00;  2.2630773E-03;  1.1640387E+03;
  3.2164598E-01;  9.9999998E-03;  2.1000499E-01;4449; -1.8435396E-02;  0.0000000E+00;  4.2978700E-04;  9.9888977E+02;  1.0000000E-01; -9.1982587E+02;3;  1.1261225E+00;  0.0000000E+00; -7.2359866E-01;0; -4.7326636E-02;  3.9907551E+04;  0.0000000E+00;  5.7724369E-01;  4.0000000E+04;  0.0000000E+00;  4.0007121E+04; -4.9680457E-02;  0.0000000E+00;  2.3538209E-03;  1.2985142E+03;
  3.2161725E-01;  9.9999998E-03;  2.1999097E-01;4450; -1.8261500E-02;  0.0000000E+00;  4.4773906E-04;  9.9872888E+02;  1.0000000E-01; -1.0531061E+03;3;  1.1541899E+00;  0.0000000E+00; -7.3883426E-01;0; -4.7544114E-02;  3.9894309E+04;  0.0000000E+00;  6.1019534E-01;  4.0000000E+04;  0.0000000E+00;  4.0008531E+04; -5.0028015E-02;  0.0000000E+00;  2.4839002E-03;  1.4593165E+03;
  3.2156754E-01;  9.9999998E-03;  2.2997683E-01;4451; -1.8088797E-02;  0.0000000E+00;  4.8709981E-04;  9.9864423E+02;  1.0000000E-01; -1.1232275E+03;3;  1.1566676E+00;  0.0000000E+00; -7.3043936E-01;0; -4.7697078E-02;  3.9886133E+04;  0.0000000E+00;  5.6242931E-01;  4.0000000E+04;  0.0000000E+00;  4.0011309E+04; -5.0433155E-02;  0.0000000E+00;  2.7360776E-03;  1.7220094E+03;
  3.3183253E-01;  9.9999998E-03;  6.9984704E-02;4496; -2.1055635E-02;  0.0000000E+00;  9.0104651E-05;  9.9964252E+02;  1.0000000E-01; -2.9618915E+02;3;  8.5310084E-01;  0.0000000E+00; -2.9510194E-01;0; -4.7832489E-02;  3.9974336E+04;  0.0000000E+00; -1.9728409E-02;  4.0000000E+04;  0.0000000E+00;  4.0000047E+04; -4.8395041E-02;  0.0000000E+00;  5.6255382E-04;  3.9978729E+01;
  3.3182028E-01;  9.9999998E-03;  7.9979837E-02;4497; -2.0946991E-02;  0.0000000E+00;  9.0699439E-05;  9.9975903E+02;  1.0000000E-01; -1.9964868E+02;3;  8.6297315E-01;  0.0000000E+00; -3.3264589E-01;0; -4.7446318E-02;  3.9984926E+04;  0.0000000E+00; -4.4602334E-02;  4.0000000E+04;  0.0000000E+00;  3.9998742E+04; -4.8064712E-02;  0.0000000E+00;  6.1839516E-04;  1.5489691E+02;
  3.3179724E-01;  9.9999998E-03;  8.9977294E-02;4498; -2.0833073E-02;  0.0000000E+00;  9.0547968E-05;  9.9987775E+02;  1.0000000E-01; -1.0128109E+02;3;  8.7561250E-01;  0.0000000E+00; -3.6873046E-01;0; -4.7061719E-02;  3.9995719E+04;  0.0000000E+00; -7.7838130E-02;  4.0000000E+04;  0.0000000E+00;  3.9997312E+04; -4.7776792E-02;  0.0000000E+00;  7.1507413E-04;  3.2893240E+02;
  3.3176148E-01;  9.9999998E-03;  9.9978238E-02;4499; -2.0714032E-02;  0.0000000E+00;  9.1394017E-05;  9.9999066E+02;  1.0000000E-01; -7.7528672E+00;3;  8.9116001E-01;  0.0000000E+00; -4.0265870E-01;0; -4.6697237E-02;  4.0006094E+04;  0.0000000E+00; -1.1766206E-01;  4.0000000E+04;  0.0000000E+00;  3.9996410E+04; -4.7546439E-02;  0.0000000E+00;  8.4920065E-04;  4.8221677E+02;
  3.3171403E-01;  9.9999998E-03;  1.0998330E-01;4500; -2.0589385E-02;  0.0000000E+00;  9.4996074E-05;  1.0000923E+03;  1.0000000E-01;  7.6541046E+01;3;  9.0859419E-01;  0.0000000E+00; -4.3773019E-01;0; -4.6369843E-02;  4.0014738E+04;  0.0000000E+00; -1.6038090E-01;  4.0000000E+04;  0.0000000E+00;  3.9995625E+04; -4.7382627E-02;  0.0000000E+00;  1.0127841E-03;  5.9114661E+02;
  3.3165619E-01;  9.9999998E-03;  1.1999461E-01;4501; -2.0457916E-02;  0.0000000E+00;  1.0327522E-04;  1.0001685E+03;  1.0000000E-01;  1.3965038E+02;3;  9.2780447E-01;  0.0000000E+00; -4.7442663E-01;0; -4.6093952E-02;  4.0021176E+04;  0.0000000E+00; -2.0016369E-01;  4.0000000E+04;  0.0000000E+00;  3.9995457E+04; -4.7288254E-02;  0.0000000E+00;  1.1943033E-03;  6.3777179E+02;
  3.3159536E-01;  9.9999998E-03;  1.3001262E-01;4502; -2.0318426E-02;  0.0000000E+00;  1.1800920E-04;  1.0002142E+03;  1.0000000E-01;  1.7747646E+02;3;  9.4872856E-01;  0.0000000E+00; -5.1073498E-01;0; -4.5879737E-02;  4.0024457E+04;  0.0000000E+00; -2.2925466E-01;  4.0000000E+04;  0.0000000E+00;  3.9996047E+04; -4.7259741E-02;  0.0000000E+00;  1.3800046E-03;  6.1306482E+02;
  3.3154911E-01;  9.9999998E-03;  1.4002551E-01;4503; -2.0170445E-02;  0.0000000E+00;  1.4027485E-04;  1.0002201E+03;  1.0000000E-01;  1.8231583E+02;3;  9.7178674E-01;  0.0000000E+00; -5.4870951E-01;0; -4.5732293E-02;  4.0023871E+04;  0.0000000E+00; -2.3886873E-01;  4.0000000E+04;  0.0000000E+00;  3.9997043E+04; -4.7287688E-02;  0.0000000E+00;  1.5553930E-03;  5.1973212E+02;
  3.3153030E-01;  9.9999998E-03;  1.5003057E-01;4504; -2.0013863E-02;  0.0000000E+00;  1.7034065E-04;  1.0001771E+03;  1.0000000E-01;  1.4676128E+02;3;  9.9683750E-01;  0.0000000E+00; -5.8743960E-01;0; -4.5652650E-02;  4.0018934E+04;  0.0000000E+00; -2.2081751E-01;  4.0000000E+04;  0.0000000E+00;  3.9998523E+04; -4.7360364E-02;  0.0000000E+00;  1.7077149E-03;  3.7636194E+02;
  3.3153683E-01;  9.9999998E-03;  1.6002971E-01;4505; -1.9848675E-02;  0.0000000E+00;  2.0704273E-04;  1.0000813E+03;  1.0000000E-01;  6.7356117E+01;3;  1.0243925E+00;  0.0000000E+00; -6.2804538E-01;0; -4.5639500E-02;  4.0009559E+04;  0.0000000E+00; -1.6943760E-01;  4.0000000E+04;  0.0000000E+00;  4.0000391E+04; -4.7467779E-02;  0.0000000E+00;  1.8282779E-03;  2.4449036E+02;
  3.3156136E-01;  9.9999998E-03;  1.7002629E-01;4506; -1.9675726E-02;  0.0000000E+00;  2.4888202E-04;  9.9994019E+02;  1.0000000E-01; -4.9578846E+01;3;  1.0542674E+00;  0.0000000E+00; -6.6790056E-01;0; -4.5687132E-02;  3.9996266E+04;  0.0000000E+00; -8.3452053E-02;  4.0000000E+04;  0.0000000E+00;  4.0002062E+04; -4.7602180E-02;  0.0000000E+00;  1.9150490E-03;  2.8384210E+02;
  3.3159581E-01;  9.9999998E-03;  1.8002364E-01;4507; -1.9496903E-02;  0.0000000E+00;  2.9378798E-04;  9.9975098E+02;  1.0000000E-01; -2.0631516E+02;3;  1.0869843E+00;  0.0000000E+00; -7.0882881E-01;0; -4.5784093E-02;  3.9980008E+04;  0.0000000E+00;  3.2725748E-02;  4.0000000E+04;  0.0000000E+00;  4.0003516E+04; -4.7758713E-02;  0.0000000E+00;  1.9746188E-03;  4.7737408E+02;
  3.3163604E-01;  9.9999998E-03;  1.9002295E-01;4508; -1.9315222E-02;  0.0000000E+00;  3.3784256E-04;  9.9954065E+02;  1.0000000E-01; -3.8058182E+02;3;  1.1235844E+00;  0.0000000E+00; -7.4894559E-01;0; -4.5912519E-02;  3.9962012E+04;  0.0000000E+00;  1.6901115E-01;  4.0000000E+04;  0.0000000E+00;  4.0004902E+04; -4.7934514E-02;  0.0000000E+00;  2.0219933E-03;  6.9274646E+02;
  3.3166718E-01;  9.9999998E-03;  2.0002231E-01;4509; -1.9132953E-02;  0.0000000E+00;  3.7583802E-04;  9.9932269E+02;  1.0000000E-01; -5.6111993E+02;3;  1.1655238E+00;  0.0000000E+00; -7.8445870E-01;0; -4.6053346E-02;  3.9943832E+04;  0.0000000E+00;  3.1022900E-01;  4.0000000E+04;  0.0000000E+00;  4.0005590E+04; -4.8130624E-02;  0.0000000E+00;  2.0772766E-03;  8.7638318E+02;
  3.3167544E-01;  9.9999998E-03;  2.1001785E-01;4510; -1.8951679E-02;  0.0000000E+00;  4.0166202E-04;  9.9911011E+02;  1.0000000E-01; -7.3726312E+02;3;  1.2098231E+00;  0.0000000E+00; -8.1705308E-01;0; -4.6193980E-02;  3.9926918E+04;  0.0000000E+00;  4.3505725E-01;  4.0000000E+04;  0.0000000E+00;  4.0005848E+04; -4.8350260E-02;  0.0000000E+00;  2.1562781E-03;  1.0211049E+03;
  3.3166099E-01;  9.9999998E-03;  2.2000742E-01;4511; -1.8771607E-02;  0.0000000E+00;  4.1602631E-04;  9.9893683E+02;  1.0000000E-01; -8.8081458E+02;3;  1.2556852E+00;  0.0000000E+00; -8.4286851E-01;0; -4.6331506E-02;  3.9912676E+04;  0.0000000E+00;  5.1972842E-01;  4.0000000E+04;  0.0000000E+00;  4.0006461E+04; -4.8597753E-02;  0.0000000E+00;  2.2662468E-03;  1.1714539E+03;
  3.3162585E-01;  9.9999998E-03;  2.2999401E-01;4512; -1.8590776E-02;  0.0000000E+00;  4.3980859E-04;  9.9881775E+02;  1.0000000E-01; -9.7947845E+02;3;  1.2950362E+00;  0.0000000E+00; -8.6485547E-01;0; -4.6421837E-02;  3.9902281E+04;  0.0000000E+00;  5.4490560E-01;  4.0000000E+04;  0.0000000E+00;  4.0008637E+04; -4.8880178E-02;  0.0000000E+00;  2.4583405E-03;  1.3961443E+03;
  3.4181508E-01;  9.9999998E-03;  6.9987759E-02;4557; -2.1563251E-02;  0.0000000E+00;  8.2708619E-05;  9.9983856E+02;  1.0000000E-01; -1.3372461E+02;3;  9.2957610E-01;  0.0000000E+00; -3.2362303E-01;0; -4.7157619E-02;  3.9989301E+04;  0.0000000E+00;  4.7923156E-04;  4.0000000E+04;  0.0000000E+00;  4.0000465E+04; -4.7520623E-02;  0.0000000E+00;  3.6300445E-04;  5.3460915E+01;
  3.4181398E-01;  9.9999998E-03;  7.9981804E-02;4558; -2.1442778E-02;  0.0000000E+00;  8.6486973E-05;  9.9991626E+02;  1.0000000E-01; -6.9380753E+01;3;  9.3872255E-01;  0.0000000E+00; -3.6712441E-01;0; -4.6782538E-02;  3.9997023E+04;  0.0000000E+00; -1.9526780E-02;  4.0000000E+04;  0.0000000E+00;  3.9999117E+04; -4.7205124E-02;  0.0000000E+00;  4.2258709E-04;  1.0786124E+02;
  3.4181154E-01;  9.9999998E-03;  8.9976929E-02;4559; -2.1318169E-02;  0.0000000E+00;  8.9371126E-05;  9.9999866E+02;  1.0000000E-01; -1.1357703E+00;3;  9.5131820E-01;  0.0000000E+00; -4.0759382E-01;0; -4.6404462E-02;  4.0004883E+04;  0.0000000E+00; -4.9207229E-02;  4.0000000E+04;  0.0000000E+00;  3.9997777E+04; -4.6921894E-02;  0.0000000E+00;  5.1743235E-04;  2.8437766E+02;
  3.4180623E-01;  9.9999998E-03;  9.9973999E-02;4560; -2.1190427E-02;  0.0000000E+00;  9.2319824E-05;  1.0000765E+03;  1.0000000E-01;  6.3405613E+01;3;  9.6643847E-01;  0.0000000E+00; -4.4847509E-01;0; -4.6039898E-02;  4.0012695E+04;  0.0000000E+00; -8.7929741E-02;  4.0000000E+04;  0.0000000E+00;  3.9996570E+04; -4.6684723E-02;  0.0000000E+00;  6.4482592E-04;  4.5529419E+02;
  3.4179464E-01;  9.9999998E-03;  1.0997420E-01;4561; -2.1059489E-02;  0.0000000E+00;  9.6801392E-05;  1.0001490E+03;  1.0000000E-01;  1.2345330E+02;3;  9.8384702E-01;  0.0000000E+00; -4.8917049E-01;0; -4.5704585E-02;  4.0019453E+04;  0.0000000E+00; -1.3323504E-01;  4.0000000E+04;  0.0000000E+00;  3.9995605E+04; -4.6502884E-02;  0.0000000E+00;  7.9829904E-04;  5.9707764E+02;
  3.4177050E-01;  9.9999998E-03;  1.1997931E-01;4562; -2.0924412E-02;  0.0000000E+00;  1.0431492E-04;  1.0002057E+03;  1.0000000E-01;  1.7046431E+02;3;  1.0036504E+00;  0.0000000E+00; -5.2887613E-01;0; -4.5412041E-02;  4.0024586E+04;  0.0000000E+00; -1.8045548E-01;  4.0000000E+04;  0.0000000E+00;  3.9995016E+04; -4.6380378E-02;  0.0000000E+00;  9.6833630E-04;  6.8873358E+02;
  3.4172714E-01;  9.9999998E-03;  1.2999187E-01;4563; -2.0783704E-02;  0.0000000E+00;  1.1616742E-04;  1.0002385E+03;  1.0000000E-01;  1.9762404E+02;3;  1.0255311E+00;  0.0000000E+00; -5.6943196E-01;0; -4.5172971E-02;  4.0027266E+04;  0.0000000E+00; -2.2266272E-01;  4.0000000E+04;  0.0000000E+00;  3.9995145E+04; -4.6316348E-02;  0.0000000E+00;  1.1433762E-03;  7.1543927E+02;
  3.4166494E-01;  9.9999998E-03;  1.4000790E-01;4564; -2.0636022E-02;  0.0000000E+00;  1.3373181E-04;  1.0002416E+03;  1.0000000E-01;  2.0019186E+02;3;  1.0490326E+00;  0.0000000E+00; -6.1032945E-01;0; -4.4993900E-02;  4.0027113E+04;  0.0000000E+00; -2.5118849E-01;  4.0000000E+04;  0.0000000E+00;  3.9995605E+04; -4.6304669E-02;  0.0000000E+00;  1.3107695E-03;  6.7160614E+02;
  3.4160635E-01;  9.9999998E-03;  1.5002067E-01;4565; -2.0481208E-02;  0.0000000E+00;  1.5745129E-04;  1.0002101E+03;  1.0000000E-01;  1.7401978E+02;3;  1.0744948E+00;  0.0000000E+00; -6.5326357E-01;0; -4.4876516E-02;  4.0023434E+04;  0.0000000E+00; -2.5689271E-01;  4.0000000E+04;  0.0000000E+00;  3.9996711E+04; -4.6334367E-02;  0.0000000E+00;  1.4578516E-03;  5.6188080E+02;
  3.4157562E-01;  9.9999998E-03;  1.6002606E-01;4566; -2.0319628E-02;  0.0000000E+00;  1.8692635E-04;  1.0001394E+03;  1.0000000E-01;  1.1545352E+02;3;  1.1024715E+00;  0.0000000E+00; -6.9672263E-01;0; -4.4818770E-02;  4.0016156E+04;  0.0000000E+00; -2.3207572E-01;  4.0000000E+04;  0.0000000E+00;  3.9998359E+04; -4.6393696E-02;  0.0000000E+00;  1.5749247E-03;  4.0455319E+02;
  3.4157714E-01;  9.9999998E-03;  1.7002648E-01;4567; -2.0151475E-02;  0.0000000E+00;  2.2117032E-04;  1.0000278E+03;  1.0000000E-01;  2.3011694E+01;3;  1.1333343E+00;  0.0000000E+00; -7.3851407E-01;0; -4.4815160E-02;  4.0005590E+04;  0.0000000E+00; -1.7267777E-01;  4.0000000E+04;  0.0000000E+00;  4.0000020E+04; -4.6474077E-02;  0.0000000E+00;  1.6589175E-03;  2.4936496E+02;
  3.4160164E-01;  9.9999998E-03;  1.8002565E-01;4568; -1.9977411E-02;  0.0000000E+00;  2.5807042E-04;  9.9987854E+02;  1.0000000E-01; -1.0063913E+02;3;  1.1671453E+00;  0.0000000E+00; -7.8329366E-01;0; -4.4855889E-02;  3.9992254E+04;  0.0000000E+00; -8.0060810E-02;  4.0000000E+04;  0.0000000E+00;  4.0001680E+04; -4.6570919E-02;  0.0000000E+00;  1.7150318E-03;  2.4795650E+02;
  3.4163138E-01;  9.9999998E-03;  1.9002575E-01;4569; -1.9798262E-02;  0.0000000E+00;  2.9526185E-04;  9.9970514E+02;  1.0000000E-01; -2.4428938E+02;3;  1.2050390E+00;  0.0000000E+00; -8.2633936E-01;0; -4.4926323E-02;  3.9976656E+04;  0.0000000E+00;  3.8434837E-02;  4.0000000E+04;  0.0000000E+00;  4.0003219E+04; -4.6683080E-02;  0.0000000E+00;  1.7567575E-03;  4.1954660E+02;
  3.4165257E-01;  9.9999998E-03;  2.0002723E-01;4570; -1.9615572E-02;  0.0000000E+00;  3.2912579E-04;  9.9951257E+02;  1.0000000E-01; -4.0384042E+02;3;  1.2461667E+00;  0.0000000E+00; -8.6612821E-01;0; -4.5008186E-02;  3.9960617E+04;  0.0000000E+00;  1.7018738E-01;  4.0000000E+04;  0.0000000E+00;  4.0004180E+04; -4.6811387E-02;  0.0000000E+00;  1.8031989E-03;  6.0187787E+02;
  3.4166372E-01;  9.9999998E-03;  2.1002811E-01;4571; -1.9431317E-02;  0.0000000E+00;  3.5199450E-04;  9.9931433E+02;  1.0000000E-01; -5.6808270E+02;3;  1.2913342E+00;  0.0000000E+00; -9.0226895E-01;0; -4.5087658E-02;  3.9944648E+04;  0.0000000E+00;  2.9955012E-01;  4.0000000E+04;  0.0000000E+00;  4.0004332E+04; -4.6956785E-02;  0.0000000E+00;  1.8691281E-03;  7.2970386E+02;
  3.4166494E-01;  9.9999998E-03;  2.2002287E-01;4572; -1.9246126E-02;  0.0000000E+00;  3.5874877E-04;  9.9912976E+02;  1.0000000E-01; -7.2096729E+02;3;  1.3404875E+00;  0.0000000E+00; -9.3286818E-01;0; -4.5168333E-02;  3.9930523E+04;  0.0000000E+00;  4.0915143E-01;  4.0000000E+04;  0.0000000E+00;  4.0004164E+04; -4.7120985E-02;  0.0000000E+00;  1.9526501E-03;  8.3961816E+02;
  3.4165096E-01;  9.9999998E-03;  2.3001073E-01;4573; -1.9058943E-02;  0.0000000E+00;  3.6433648E-04;  9.9899164E+02;  1.0000000E-01; -8.3543317E+02;3;  1.3914244E+00;  0.0000000E+00; -9.6261322E-01;0; -4.5233998E-02;  3.9918777E+04;  0.0000000E+00;  4.8079807E-01;  4.0000000E+04;  0.0000000E+00;  4.0005285E+04; -4.7307119E-02;  0.0000000E+00;  2.0731201E-03;  1.0212382E+03;
  3.5177913E-01;  9.9999998E-03;  6.9989860E-02;4618; -2.2050323E-02;  0.0000000E+00;  6.7646011E-05;  1.0000396E+03;  1.0000000E-01;  3.2789196E+01;3;  1.0106374E+00;  0.0000000E+00; -3.5420063E-01;0; -4.6402901E-02;  4.0005293E+04;  0.0000000E+00;  2.0154517E-02;  4.0000000E+04;  0.0000000E+00;  4.0000418E+04; -4.6505842E-02;  0.0000000E+00;  1.0294051E-04;  4.4366062E+01;
  3.5177428E-01;  9.9999998E-03;  7.9984903E-02;4619; -2.1919549E-02;  0.0000000E+00;  7.3504947E-05;  1.0000807E+03;  1.0000000E-01;  6.6862305E+01;3;  1.0195452E+00;  0.0000000E+00; -4.0266722E-01;0; -4.6053302E-02;  4.0010086E+04;  0.0000000E+00;  6.9731004E-03;  4.0000000E+04;  0.0000000E+00;  3.9999348E+04; -4.6221372E-02;  0.0000000E+00;  1.6807068E-04;  1.0335902E+02;
  3.5176975E-01;  9.9999998E-03;  8.9980431E-02;4620; -2.1784741E-02;  0.0000000E+00;  7.8363038E-05;  1.0001292E+03;  1.0000000E-01;  1.0705870E+02;3;  1.0311105E+00;  0.0000000E+00; -4.5066124E-01;0; -4.5696676E-02;  4.0014961E+04;  0.0000000E+00; -1.6212452E-02;  4.0000000E+04;  0.0000000E+00;  3.9998043E+04; -4.5959342E-02;  0.0000000E+00;  2.6266641E-04;  2.6435007E+02;
  3.5176483E-01;  9.9999998E-03;  9.9977113E-02;4621; -2.1647552E-02;  0.0000000E+00;  8.2807441E-05;  1.0001722E+03;  1.0000000E-01;  1.4261325E+02;3;  1.0456977E+00;  0.0000000E+00; -4.9669915E-01;0; -4.5347281E-02;  4.0019895E+04;  0.0000000E+00; -4.9795382E-02;  4.0000000E+04;  0.0000000E+00;  3.9996648E+04; -4.5731764E-02;  0.0000000E+00;  3.8448462E-04;  4.3375839E+02;
  3.5175848E-01;  9.9999998E-03;  1.0997549E-01;4622; -2.1508688E-02;  0.0000000E+00;  8.7608860E-05;  1.0002138E+03;  1.0000000E-01;  1.7718018E+02;3;  1.0634335E+00;  0.0000000E+00; -5.4010987E-01;0; -4.5018807E-02;  4.0024633E+04;  0.0000000E+00; -9.2491455E-02;  4.0000000E+04;  0.0000000E+00;  3.9995484E+04; -4.5547049E-02;  0.0000000E+00;  5.2824419E-04;  5.8847577E+02;
  3.5174793E-01;  9.9999998E-03;  1.1997610E-01;4623; -2.1367952E-02;  0.0000000E+00;  9.3695235E-05;  1.0002477E+03;  1.0000000E-01;  2.0522876E+02;3;  1.0833788E+00;  0.0000000E+00; -5.8532137E-01;0; -4.4723250E-02;  4.0028020E+04;  0.0000000E+00; -1.4083922E-01;  4.0000000E+04;  0.0000000E+00;  3.9994660E+04; -4.5409299E-02;  0.0000000E+00;  6.8604760E-04;  7.0685468E+02;
  3.5172912E-01;  9.9999998E-03;  1.2997946E-01;4624; -2.1224378E-02;  0.0000000E+00;  1.0230310E-04;  1.0002622E+03;  1.0000000E-01;  2.1727780E+02;3;  1.1047260E+00;  0.0000000E+00; -6.3142091E-01;0; -4.4470519E-02;  4.0029695E+04;  0.0000000E+00; -1.8894002E-01;  4.0000000E+04;  0.0000000E+00;  3.9994578E+04; -4.5318577E-02;  0.0000000E+00;  8.4805919E-04;  7.7099463E+02;
  3.5169840E-01;  9.9999998E-03;  1.3998722E-01;4625; -2.1076489E-02;  0.0000000E+00;  1.1470388E-04;  1.0002592E+03;  1.0000000E-01;  2.1470998E+02;3;  1.1290036E+00;  0.0000000E+00; -6.7623180E-01;0; -4.4267382E-02;  4.0029266E+04;  0.0000000E+00; -2.2868784E-01;  4.0000000E+04;  0.0000000E+00;  3.9994570E+04; -4.5270771E-02;  0.0000000E+00;  1.0033898E-03;  7.6957324E+02;
  3.5165557E-01;  9.9999998E-03;  1.4999995E-01;4626; -2.0922901E-02;  0.0000000E+00;  1.3167760E-04;  1.0002304E+03;  1.0000000E-01;  1.9090819E+02;3;  1.1554247E+00;  0.0000000E+00; -7.2178316E-01;0; -4.4117767E-02;  4.0026254E+04;  0.0000000E+00; -2.5073922E-01;  4.0000000E+04;  0.0000000E+00;  3.9995391E+04; -4.5258857E-02;  0.0000000E+00;  1.1410903E-03;  6.9897290E+02;
  3.5161424E-01;  9.9999998E-03;  1.6001201E-01;4627; -2.0762999E-02;  0.0000000E+00;  1.5316952E-04;  1.0001701E+03;  1.0000000E-01;  1.4093428E+02;3;  1.1840626E+00;  0.0000000E+00; -7.6778555E-01;0; -4.4021789E-02;  4.0020230E+04;  0.0000000E+00; -2.4634345E-01;  4.0000000E+04;  0.0000000E+00;  3.9996660E+04; -4.5273796E-02;  0.0000000E+00;  1.2520056E-03;  5.6490912E+02;
  3.5158828E-01;  9.9999998E-03;  1.7001912E-01;4628; -2.0596690E-02;  0.0000000E+00;  1.7845635E-04;  1.0000843E+03;  1.0000000E-01;  6.9825188E+01;3;  1.2147360E+00;  0.0000000E+00; -8.1559211E-01;0; -4.3975051E-02;  4.0011801E+04;  0.0000000E+00; -2.0970029E-01;  4.0000000E+04;  0.0000000E+00;  3.9998133E+04; -4.5307305E-02;  0.0000000E+00;  1.3322548E-03;  3.8493063E+02;
  3.5158333E-01;  9.9999998E-03;  1.8002246E-01;4629; -2.0424183E-02;  0.0000000E+00;  2.0619638E-04;  9.9996265E+02;  1.0000000E-01; -3.0962088E+01;3;  1.2495006E+00;  0.0000000E+00; -8.5962230E-01;0; -4.3968707E-02;  4.0000562E+04;  0.0000000E+00; -1.4001779E-01;  4.0000000E+04;  0.0000000E+00;  3.9999895E+04; -4.5353983E-02;  0.0000000E+00;  1.3852740E-03;  2.0442149E+02;
  3.5159567E-01;  9.9999998E-03;  1.9002551E-01;4630; -2.0245889E-02;  0.0000000E+00;  2.3543845E-04;  9.9981738E+02;  1.0000000E-01; -1.5130437E+02;3;  1.2872216E+00;  0.0000000E+00; -9.0195286E-01;0; -4.3989096E-02;  3.9987410E+04;  0.0000000E+00; -4.2319540E-02;  4.0000000E+04;  0.0000000E+00;  4.0001516E+04; -4.5411363E-02;  0.0000000E+00;  1.4222661E-03;  2.0416409E+02;
  3.5161585E-01;  9.9999998E-03;  2.0003030E-01;4631; -2.0062983E-02;  0.0000000E+00;  2.6231955E-04;  9.9965326E+02;  1.0000000E-01; -2.8725113E+02;3;  1.3279829E+00;  0.0000000E+00; -9.4627500E-01;0; -4.4019785E-02;  3.9973328E+04;  0.0000000E+00;  7.3229536E-02;  4.0000000E+04;  0.0000000E+00;  4.0002594E+04; -4.5479801E-02;  0.0000000E+00;  1.4600167E-03;  3.6087494E+02;
  3.5163477E-01;  9.9999998E-03;  2.1003528E-01;4632; -1.9876452E-02;  0.0000000E+00;  2.8047798E-04;  9.9947284E+02;  1.0000000E-01; -4.3672839E+02;3;  1.3737541E+00;  0.0000000E+00; -9.8434168E-01;0; -4.4047933E-02;  3.9958727E+04;  0.0000000E+00;  1.9316752E-01;  4.0000000E+04;  0.0000000E+00;  4.0002793E+04; -4.5560844E-02;  0.0000000E+00;  1.5129113E-03;  4.7200861E+02;
  3.5164562E-01;  9.9999998E-03;  2.2003435E-01;4633; -1.9687232E-02;  0.0000000E+00;  2.8001575E-04;  9.9928876E+02;  1.0000000E-01; -5.8926727E+02;3;  1.4231462E+00;  0.0000000E+00; -1.0159023E+00;0; -4.4084366E-02;  3.9944926E+04;  0.0000000E+00;  3.0292019E-01;  4.0000000E+04;  0.0000000E+00;  4.0002191E+04; -4.5656495E-02;  0.0000000E+00;  1.5721275E-03;  5.4960907E+02;
  3.5164112E-01;  9.9999998E-03;  2.3002371E-01;4634; -1.9495061E-02;  0.0000000E+00;  2.7149817E-04;  9.9913892E+02;  1.0000000E-01; -7.1341193E+02;3;  1.4761033E+00;  0.0000000E+00; -1.0413975E+00;0; -4.4134922E-02;  3.9932641E+04;  0.0000000E+00;  3.8867483E-01;  4.0000000E+04;  0.0000000E+00;  4.0002766E+04; -4.5768846E-02;  0.0000000E+00;  1.6339249E-03;  6.9684808E+02;
  3.6174503E-01;  9.9999998E-03;  6.9992438E-02;4679; -2.2514841E-02;  0.0000000E+00;  4.2718089E-05;  1.0002078E+03;  1.0000000E-01;  1.7214328E+02;3;  1.0973089E+00;  0.0000000E+00; -3.8443208E-01;0; -4.5607343E-02;  4.0019012E+04;  0.0000000E+00;  3.6808517E-02;  4.0000000E+04;  0.0000000E+00;  4.0000098E+04; -4.5382917E-02;  0.0000000E+00; -2.2442643E-04;  5.9328217E+01;
  3.6173654E-01;  9.9999998E-03;  7.9988934E-02;4680; -2.2376608E-02;  0.0000000E+00;  4.9016722E-05;  1.0002198E+03;  1.0000000E-01;  1.8211830E+02;3;  1.1054181E+00;  0.0000000E+00; -4.3965688E-01;0; -4.5293905E-02;  4.0020840E+04;  0.0000000E+00;  3.1319190E-02;  4.0000000E+04;  0.0000000E+00;  3.9999133E+04; -4.5142341E-02;  0.0000000E+00; -1.5156386E-04;  1.4333118E+02;
  3.6172926E-01;  9.9999998E-03;  8.9985311E-02;4681; -2.2233825E-02;  0.0000000E+00;  5.4467131E-05;  1.0002332E+03;  1.0000000E-01;  1.9317972E+02;3;  1.1163847E+00;  0.0000000E+00; -4.9379686E-01;0; -4.4969790E-02;  4.0022941E+04;  0.0000000E+00;  1.6515009E-02;  4.0000000E+04;  0.0000000E+00;  3.9998004E+04; -4.4914860E-02;  0.0000000E+00; -5.4928674E-05;  2.7517950E+02;
  3.6172315E-01;  9.9999998E-03;  9.9982053E-02;4682; -2.2088639E-02;  0.0000000E+00;  5.9103582E-05;  1.0002490E+03;  1.0000000E-01;  2.0621638E+02;3;  1.1303712E+00;  0.0000000E+00; -5.4583544E-01;0; -4.4646922E-02;  4.0025688E+04;  0.0000000E+00; -8.8825952E-03;  4.0000000E+04;  0.0000000E+00;  3.9996699E+04; -4.4710424E-02;  0.0000000E+00;  6.3500731E-05;  4.2545352E+02;
  3.6171705E-01;  9.9999998E-03;  1.0997950E-01;4683; -2.1942301E-02;  0.0000000E+00;  6.3196341E-05;  1.0002656E+03;  1.0000000E-01;  2.2004315E+02;3;  1.1469238E+00;  0.0000000E+00; -5.9684378E-01;0; -4.4336837E-02;  4.0028000E+04;  0.0000000E+00; -4.4670913E-02;  4.0000000E+04;  0.0000000E+00;  3.9995652E+04; -4.4536311E-02;  0.0000000E+00;  1.9947391E-04;  5.7293127E+02;
  3.6170816E-01;  9.9999998E-03;  1.1997791E-01;4684; -2.1795105E-02;  0.0000000E+00;  6.7355671E-05;  1.0002744E+03;  1.0000000E-01;  2.2725284E+02;3;  1.1664238E+00;  0.0000000E+00; -6.4642268E-01;0; -4.4050083E-02;  4.0029738E+04;  0.0000000E+00; -8.8594794E-02;  4.0000000E+04;  0.0000000E+00;  3.9994820E+04; -4.4396732E-02;  0.0000000E+00;  3.4665092E-04;  6.9718115E+02;
  3.6169544E-01;  9.9999998E-03;  1.2997773E-01;4685; -2.1646639E-02;  0.0000000E+00;  7.2500079E-05;  1.0002729E+03;  1.0000000E-01;  2.2616644E+02;3;  1.1885854E+00;  0.0000000E+00; -6.9449270E-01;0; -4.3795485E-02;  4.0030504E+04;  0.0000000E+00; -1.3593930E-01;  4.0000000E+04;  0.0000000E+00;  3.9994070E+04; -4.4292353E-02;  0.0000000E+00;  4.9686630E-04;  7.8014117E+02;
  3.6167765E-01;  9.9999998E-03;  1.3997985E-01;4686; -2.1495894E-02;  0.0000000E+00;  7.9443962E-05;  1.0002598E+03;  1.0000000E-01;  2.1530255E+02;3;  1.2127693E+00;  0.0000000E+00; -7.4492663E-01;0; -4.3579806E-02;  4.0029344E+04;  0.0000000E+00; -1.7952152E-01;  4.0000000E+04;  0.0000000E+00;  3.9994039E+04; -4.4220611E-02;  0.0000000E+00;  6.4080529E-04;  8.0762244E+02;
  3.6165157E-01;  9.9999998E-03;  1.4998601E-01;4687; -2.1341316E-02;  0.0000000E+00;  8.9251189E-05;  1.0002255E+03;  1.0000000E-01;  1.8685892E+02;3;  1.2392603E+00;  0.0000000E+00; -7.9360110E-01;0; -4.3407854E-02;  4.0026480E+04;  0.0000000E+00; -2.1039601E-01;  4.0000000E+04;  0.0000000E+00;  3.9994480E+04; -4.4176765E-02;  0.0000000E+00;  7.6890946E-04;  7.7024921E+02;
  3.6161602E-01;  9.9999998E-03;  1.5999697E-01;4688; -2.1181395E-02;  0.0000000E+00;  1.0228458E-04;  1.0001737E+03;  1.0000000E-01;  1.4389717E+02;3;  1.2684706E+00;  0.0000000E+00; -8.4096324E-01;0; -4.3281749E-02;  4.0021148E+04;  0.0000000E+00; -2.1964362E-01;  4.0000000E+04;  0.0000000E+00;  3.9995352E+04; -4.4155080E-02;  0.0000000E+00;  8.7333069E-04;  6.6512372E+02;
  3.6158365E-01;  9.9999998E-03;  1.7000827E-01;4689; -2.1015488E-02;  0.0000000E+00;  1.1828401E-04;  1.0000936E+03;  1.0000000E-01;  7.7528671E+01;3;  1.3000258E+00;  0.0000000E+00; -8.8709599E-01;0; -4.3198865E-02;  4.0013875E+04;  0.0000000E+00; -2.0075333E-01;  4.0000000E+04;  0.0000000E+00;  3.9996887E+04; -4.4148892E-02;  0.0000000E+00;  9.5002749E-04;  5.0022797E+02;
  3.6156639E-01;  9.9999998E-03;  1.8001680E-01;4690; -2.0843381E-02;  0.0000000E+00;  1.3688201E-04;  9.9999805E+02;  1.0000000E-01; -1.6295836E+00;3;  1.3337628E+00;  0.0000000E+00; -9.3366420E-01;0; -4.3152239E-02;  4.0004340E+04;  0.0000000E+00; -1.5172650E-01;  4.0000000E+04;  0.0000000E+00;  3.9998504E+04; -4.4153273E-02;  0.0000000E+00;  1.0010345E-03;  2.9627289E+02;
  3.6156470E-01;  9.9999998E-03;  1.9002371E-01;4691; -2.0665079E-02;  0.0000000E+00;  1.5686305E-04;  9.9987335E+02;  1.0000000E-01; -1.0493530E+02;3;  1.3708330E+00;  0.0000000E+00; -9.7985935E-01;0; -4.3130852E-02;  3.9992980E+04;  0.0000000E+00; -7.5939283E-02;  4.0000000E+04;  0.0000000E+00;  4.0000059E+04; -4.4166081E-02;  0.0000000E+00;  1.0352291E-03;  1.1381895E+02;
  3.6157525E-01;  9.9999998E-03;  2.0003083E-01;4692; -2.0481164E-02;  0.0000000E+00;  1.7594617E-04;  9.9972931E+02;  1.0000000E-01; -2.2424057E+02;3;  1.4118795E+00;  0.0000000E+00; -1.0235883E+00;0; -4.3120489E-02;  3.9980492E+04;  0.0000000E+00;  1.8504769E-02;  4.0000000E+04;  0.0000000E+00;  4.0001383E+04; -4.4187285E-02;  0.0000000E+00;  1.0667947E-03;  1.8254428E+02;
  3.6159110E-01;  9.9999998E-03;  2.1003787E-01;4693; -2.0292457E-02;  0.0000000E+00;  1.8851062E-04;  9.9956958E+02;  1.0000000E-01; -3.5658252E+02;3;  1.4571265E+00;  0.0000000E+00; -1.0637701E+00;0; -4.3109238E-02;  3.9967309E+04;  0.0000000E+00;  1.2035894E-01;  4.0000000E+04;  0.0000000E+00;  4.0001590E+04; -4.4218067E-02;  0.0000000E+00;  1.1088278E-03;  2.9076031E+02;
  3.6160085E-01;  9.9999998E-03;  2.2003952E-01;4694; -2.0100063E-02;  0.0000000E+00;  1.8429487E-04;  9.9939496E+02;  1.0000000E-01; -5.0126978E+02;3;  1.5067415E+00;  0.0000000E+00; -1.0936908E+00;0; -4.3108311E-02;  3.9953949E+04;  0.0000000E+00;  2.1687201E-01;  4.0000000E+04;  0.0000000E+00;  4.0001145E+04; -4.4260774E-02;  0.0000000E+00;  1.1524615E-03;  3.6051575E+02;
  3.6159509E-01;  9.9999998E-03;  2.3003098E-01;4695; -1.9904345E-02;  0.0000000E+00;  1.6882966E-04;  9.9923981E+02;  1.0000000E-01; -6.2980933E+02;3;  1.5595868E+00;  0.0000000E+00; -1.1176575E+00;0; -4.3135397E-02;  3.9941184E+04;  0.0000000E+00;  2.9543886E-01;  4.0000000E+04;  0.0000000E+00;  4.0001266E+04; -4.4317592E-02;  0.0000000E+00;  1.1821940E-03;  4.8086322E+02;
  3.7171486E-01;  9.9999998E-03;  6.9995448E-02;4740; -2.2956891E-02;  0.0000000E+00;  6.7902897E-06;  1.0003143E+03;  1.0000000E-01;  2.6043707E+02;3;  1.1895000E+00;  0.0000000E+00; -4.1522157E-01;0; -4.4815667E-02;  4.0027961E+04;  0.0000000E+00;  4.9833026E-02;  4.0000000E+04;  0.0000000E+00;  3.9999191E+04; -4.4192087E-02;  0.0000000E+00; -6.2357960E-04;  1.4169614E+02;
  3.7170535E-01;  9.9999998E-03;  7.9993650E-02;4741; -2.2814445E-02;  0.0000000E+00;  1.1355030E-05;  1.0003005E+03;  1.0000000E-01;  2.4898061E+02;3;  1.1970781E+00;  0.0000000E+00; -4.7739819E-01;0; -4.4544883E-02;  4.0027516E+04;  0.0000000E+00;  5.1766161E-02;  4.0000000E+04;  0.0000000E+00;  3.9998547E+04; -4.4004373E-02;  0.0000000E+00; -5.4050877E-04;  2.1380103E+02;
  3.7169695E-01;  9.9999998E-03;  8.9991532E-02;4742; -2.2666421E-02;  0.0000000E+00;  1.5486154E-05;  1.0002899E+03;  1.0000000E-01;  2.4009198E+02;3;  1.2071604E+00;  0.0000000E+00; -5.3844976E-01;0; -4.4260662E-02;  4.0027562E+04;  0.0000000E+00;  4.5909099E-02;  4.0000000E+04;  0.0000000E+00;  3.9997875E+04; -4.3821868E-02;  0.0000000E+00; -4.3879470E-04;  3.1521042E+02;
  3.7169078E-01;  9.9999998E-03;  9.9988915E-02;4743; -2.2515338E-02;  0.0000000E+00;  1.8725765E-05;  1.0002819E+03;  1.0000000E-01;  2.3347488E+02;3;  1.2200584E+00;  0.0000000E+00; -5.9734422E-01;0; -4.3972064E-02;  4.0027953E+04;  0.0000000E+00;  3.0332390E-02;  4.0000000E+04;  0.0000000E+00;  3.9996781E+04; -4.3651693E-02;  0.0000000E+00; -3.2037238E-04;  4.3560028E+02;
  3.7168488E-01;  9.9999998E-03;  1.0998583E-01;4744; -2.2362806E-02;  0.0000000E+00;  2.0950565E-05;  1.0002772E+03;  1.0000000E-01;  2.2962314E+02;3;  1.2358479E+00;  0.0000000E+00; -6.5437669E-01;0; -4.3688621E-02;  4.0028551E+04;  0.0000000E+00;  4.3119732E-03;  4.0000000E+04;  0.0000000E+00;  3.9995785E+04; -4.3499928E-02;  0.0000000E+00; -1.8869317E-04;  5.5989929E+02;
  3.7167743E-01;  9.9999998E-03;  1.1998270E-01;4745; -2.2209641E-02;  0.0000000E+00;  2.2342452E-05;  1.0002678E+03;  1.0000000E-01;  2.2191965E+02;3;  1.2546065E+00;  0.0000000E+00; -7.0861000E-01;0; -4.3419108E-02;  4.0028840E+04;  0.0000000E+00; -3.1051356E-02;  4.0000000E+04;  0.0000000E+00;  3.9994734E+04; -4.3370295E-02;  0.0000000E+00; -4.8813941E-05;  6.7130762E+02;
  3.7166750E-01;  9.9999998E-03;  1.2998009E-01;4746; -2.2055911E-02;  0.0000000E+00;  2.3459927E-05;  1.0002534E+03;  1.0000000E-01;  2.0987061E+02;3;  1.2761390E+00;  0.0000000E+00; -7.6084179E-01;0; -4.3171495E-02;  4.0028422E+04;  0.0000000E+00; -7.2332002E-02;  4.0000000E+04;  0.0000000E+00;  3.9994109E+04; -4.3264206E-02;  0.0000000E+00;  9.2711038E-05;  7.5359888E+02;
  3.7165585E-01;  9.9999998E-03;  1.3997877E-01;4747; -2.1901021E-02;  0.0000000E+00;  2.5090272E-05;  1.0002280E+03;  1.0000000E-01;  1.8893292E+02;3;  1.3002704E+00;  0.0000000E+00; -8.1123155E-01;0; -4.2952318E-02;  4.0026719E+04;  0.0000000E+00; -1.1360016E-01;  4.0000000E+04;  0.0000000E+00;  3.9994035E+04; -4.3180451E-02;  0.0000000E+00;  2.2813132E-04;  7.9215649E+02;
  3.7164059E-01;  9.9999998E-03;  1.4997968E-01;4748; -2.1743720E-02;  0.0000000E+00;  2.8144299E-05;  1.0001950E+03;  1.0000000E-01;  1.6157568E+02;3;  1.3271503E+00;  0.0000000E+00; -8.5963470E-01;0; -4.2766862E-02;  4.0023652E+04;  0.0000000E+00; -1.4688545E-01;  4.0000000E+04;  0.0000000E+00;  3.9994359E+04; -4.3116096E-02;  0.0000000E+00;  3.4923508E-04;  7.7475775E+02;
  3.7162080E-01;  9.9999998E-03;  1.5998444E-01;4749; -2.1582548E-02;  0.0000000E+00;  3.3127941E-05;  1.0001393E+03;  1.0000000E-01;  1.1535476E+02;3;  1.3561119E+00;  0.0000000E+00; -9.0846312E-01;0; -4.2618293E-02;  4.0018629E+04;  0.0000000E+00; -1.6378748E-01;  4.0000000E+04;  0.0000000E+00;  3.9995020E+04; -4.3067373E-02;  0.0000000E+00;  4.4907926E-04;  6.9287305E+02;
  3.7159693E-01;  9.9999998E-03;  1.6999403E-01;4750; -2.1416035E-02;  0.0000000E+00;  4.0310293E-05;  1.0000667E+03;  1.0000000E-01;  5.5208317E+01;3;  1.3873323E+00;  0.0000000E+00; -9.5722765E-01;0; -4.2506449E-02;  4.0011961E+04;  0.0000000E+00; -1.5793046E-01;  4.0000000E+04;  0.0000000E+00;  3.9996242E+04; -4.3030683E-02;  0.0000000E+00;  5.2423286E-04;  5.4614172E+02;
  3.7157416E-01;  9.9999998E-03;  1.8000571E-01;4751; -2.1243304E-02;  0.0000000E+00;  4.9671591E-05;  9.9998108E+02;  1.0000000E-01; -1.5653878E+01;3;  1.4210384E+00;  0.0000000E+00; -1.0050784E+00;0; -4.2426925E-02;  4.0003176E+04;  0.0000000E+00; -1.2696496E-01;  4.0000000E+04;  0.0000000E+00;  3.9997770E+04; -4.3002896E-02;  0.0000000E+00;  5.7596999E-04;  3.4941714E+02;
  3.7155861E-01;  9.9999998E-03;  1.9001667E-01;4752; -2.1064136E-02;  0.0000000E+00;  6.0758124E-05;  9.9987469E+02;  1.0000000E-01; -1.0379953E+02;3;  1.4580226E+00;  0.0000000E+00; -1.0508714E+00;0; -4.2371564E-02;  3.9993148E+04;  0.0000000E+00; -7.3197477E-02;  4.0000000E+04;  0.0000000E+00;  3.9999285E+04; -4.2982422E-02;  0.0000000E+00;  6.1085721E-04;  1.3700795E+02;
  3.7155089E-01;  9.9999998E-03;  2.0002693E-01;4753; -2.0878714E-02;  0.0000000E+00;  7.2269453E-05;  9.9974677E+02;  1.0000000E-01; -2.0982123E+02;3;  1.4986389E+00;  0.0000000E+00; -1.0956390E+00;0; -4.2328868E-02;  3.9981602E+04;  0.0000000E+00; -3.0055791E-03;  4.0000000E+04;  0.0000000E+00;  4.0000598E+04; -4.2969368E-02;  0.0000000E+00;  6.4050127E-04;  9.5414627E+01;
  3.7154764E-01;  9.9999998E-03;  2.1003570E-01;4754; -2.0687900E-02;  0.0000000E+00;  7.9453755E-05;  9.9959906E+02;  1.0000000E-01; -3.3218814E+02;3;  1.5427965E+00;  0.0000000E+00; -1.1372900E+00;0; -4.2288434E-02;  3.9969410E+04;  0.0000000E+00;  7.4533768E-02;  4.0000000E+04;  0.0000000E+00;  4.0001320E+04; -4.2964790E-02;  0.0000000E+00;  6.7635457E-04;  2.0416568E+02;
  3.7154222E-01;  9.9999998E-03;  2.2003871E-01;4755; -2.0493051E-02;  0.0000000E+00;  7.4087024E-05;  9.9943695E+02;  1.0000000E-01; -4.6645593E+02;3;  1.5913835E+00;  0.0000000E+00; -1.1672446E+00;0; -4.2256948E-02;  3.9956285E+04;  0.0000000E+00;  1.4899321E-01;  4.0000000E+04;  0.0000000E+00;  4.0000871E+04; -4.2970423E-02;  0.0000000E+00;  7.1347365E-04;  2.6512241E+02;
  3.7152901E-01;  9.9999998E-03;  2.3003210E-01;4756; -2.0295471E-02;  0.0000000E+00;  5.7864672E-05;  9.9927997E+02;  1.0000000E-01; -5.9652637E+02;3;  1.6438792E+00;  0.0000000E+00; -1.1909291E+00;0; -4.2252418E-02;  3.9943488E+04;  0.0000000E+00;  2.1003988E-01;  4.0000000E+04;  0.0000000E+00;  4.0001277E+04; -4.2987663E-02;  0.0000000E+00;  7.3524681E-04;  3.6962781E+02;
  3.8168332E-01;  9.9999998E-03;  7.0000775E-02;4801; -2.3378707E-02;  0.0000000E+00; -3.9165549E-05;  1.0003410E+03;  1.0000000E-01;  2.8255991E+02;3;  1.2876860E+00;  0.0000000E+00; -4.3051890E-01;0; -4.4069692E-02;  4.0030602E+04;  0.0000000E+00;  5.9917491E-02;  4.0000000E+04;  0.0000000E+00;  3.9998387E+04; -4.2973503E-02;  0.0000000E+00; -1.0961893E-03;  2.5845193E+02;
  3.8167810E-01;  9.9999998E-03;  7.9999745E-02;4802; -2.3235340E-02;  0.0000000E+00; -3.9158334E-05;  1.0003074E+03;  1.0000000E-01;  2.5470885E+02;3;  1.2941135E+00;  0.0000000E+00; -5.0734937E-01;0; -4.3843761E-02;  4.0028594E+04;  0.0000000E+00;  6.8128221E-02;  4.0000000E+04;  0.0000000E+00;  3.9997910E+04; -4.2843275E-02;  0.0000000E+00; -1.0004847E-03;  3.0677963E+02;
  3.8167343E-01;  9.9999998E-03;  8.9998662E-02;4803; -2.3085076E-02;  0.0000000E+00; -3.8834492E-05;  1.0002847E+03;  1.0000000E-01;  2.3584518E+02;3;  1.3031338E+00;  0.0000000E+00; -5.7991248E-01;0; -4.3602157E-02;  4.0027270E+04;  0.0000000E+00;  7.0524469E-02;  4.0000000E+04;  0.0000000E+00;  3.9997238E+04; -4.2711787E-02;  0.0000000E+00; -8.9037220E-04;  3.7808481E+02;
  3.8167033E-01;  9.9999998E-03;  9.9996850E-02;4804; -2.2930551E-02;  0.0000000E+00; -3.9075403E-05;  1.0002637E+03;  1.0000000E-01;  2.1846295E+02;3;  1.3145386E+00;  0.0000000E+00; -6.5125632E-01;0; -4.3351505E-02;  4.0026180E+04;  0.0000000E+00;  6.4866722E-02;  4.0000000E+04;  0.0000000E+00;  3.9996656E+04; -4.2583656E-02;  0.0000000E+00; -7.6784880E-04;  4.6501544E+02;
  3.8166609E-01;  9.9999998E-03;  1.0999384E-01;4805; -2.2773644E-02;  0.0000000E+00; -4.0234670E-05;  1.0002446E+03;  1.0000000E-01;  2.0266093E+02;3;  1.3293895E+00;  0.0000000E+00; -7.1557188E-01;0; -4.3099057E-02;  4.0025477E+04;  0.0000000E+00;  4.9740318E-02;  4.0000000E+04;  0.0000000E+00;  3.9995754E+04; -4.2463247E-02;  0.0000000E+00; -6.3580857E-04;  5.5715088E+02;
  3.8166028E-01;  9.9999998E-03;  1.1998974E-01;4806; -2.2615615E-02;  0.0000000E+00; -4.2352167E-05;  1.0002248E+03;  1.0000000E-01;  1.8626634E+02;3;  1.3470713E+00;  0.0000000E+00; -7.7386707E-01;0; -4.2851895E-02;  4.0024418E+04;  0.0000000E+00;  2.5205465E-02;  4.0000000E+04;  0.0000000E+00;  3.9995051E+04; -4.2353533E-02;  0.0000000E+00; -4.9836177E-04;  6.4239374E+02;
  3.8165313E-01;  9.9999998E-03;  1.2998550E-01;4807; -2.2457022E-02;  0.0000000E+00; -4.5236411E-05;  1.0002002E+03;  1.0000000E-01;  1.6582246E+02;3;  1.3676909E+00;  0.0000000E+00; -8.2614034E-01;0; -4.2616826E-02;  4.0023070E+04;  0.0000000E+00; -6.6547762E-03;  4.0000000E+04;  0.0000000E+00;  3.9994496E+04; -4.2256095E-02;  0.0000000E+00; -3.6073267E-04;  7.0770990E+02;
  3.8164392E-01;  9.9999998E-03;  1.3998193E-01;4808; -2.2297651E-02;  0.0000000E+00; -4.8376987E-05;  1.0001668E+03;  1.0000000E-01;  1.3816893E+02;3;  1.3912578E+00;  0.0000000E+00; -8.7314034E-01;0; -4.2400256E-02;  4.0020969E+04;  0.0000000E+00; -4.1440647E-02;  4.0000000E+04;  0.0000000E+00;  3.9994391E+04; -4.2171154E-02;  0.0000000E+00; -2.2910196E-04;  7.4003137E+02;
  3.8163346E-01;  9.9999998E-03;  1.4997986E-01;4809; -2.2136712E-02;  0.0000000E+00; -5.1223451E-05;  1.0001238E+03;  1.0000000E-01;  1.0251562E+02;3;  1.4173647E+00;  0.0000000E+00; -9.1986674E-01;0; -4.2207848E-02;  4.0017453E+04;  0.0000000E+00; -7.2638668E-02;  4.0000000E+04;  0.0000000E+00;  3.9994180E+04; -4.2097438E-02;  0.0000000E+00; -1.1041103E-04;  7.2697656E+02;
  3.8162291E-01;  9.9999998E-03;  1.5998039E-01;4810; -2.1972993E-02;  0.0000000E+00; -5.3240481E-05;  1.0000707E+03;  1.0000000E-01;  5.8566246E+01;3;  1.4459974E+00;  0.0000000E+00; -9.6855915E-01;0; -4.2043675E-02;  4.0012633E+04;  0.0000000E+00; -9.3005992E-02;  4.0000000E+04;  0.0000000E+00;  3.9994887E+04; -4.2032905E-02;  0.0000000E+00; -1.0771267E-05;  6.5735077E+02;
  3.8160941E-01;  9.9999998E-03;  1.6998471E-01;4811; -2.1804970E-02;  0.0000000E+00; -5.4068354E-05;  1.0000048E+03;  1.0000000E-01;  3.9505055E+00;3;  1.4772154E+00;  0.0000000E+00; -1.0184588E+00;0; -4.1909225E-02;  4.0005980E+04;  0.0000000E+00; -9.6908063E-02;  4.0000000E+04;  0.0000000E+00;  3.9995977E+04; -4.1975945E-02;  0.0000000E+00;  6.6720640E-05;  5.2438037E+02;
  3.8159060E-01;  9.9999998E-03;  1.7999329E-01;4812; -2.1631276E-02;  0.0000000E+00; -5.3289776E-05;  9.9991663E+02;  1.0000000E-01; -6.9084465E+01;3;  1.5110621E+00;  0.0000000E+00; -1.0685217E+00;0; -4.1802827E-02;  3.9997859E+04;  0.0000000E+00; -8.2067706E-02;  4.0000000E+04;  0.0000000E+00;  3.9997508E+04; -4.1925687E-02;  0.0000000E+00;  1.2285871E-04;  3.3378271E+02;
  3.8157028E-01;  9.9999998E-03;  1.9000457E-01;4813; -2.1451250E-02;  0.0000000E+00; -5.0427745E-05;  9.9981921E+02;  1.0000000E-01; -1.4977354E+02;3;  1.5476881E+00;  0.0000000E+00; -1.1173269E+00;0; -4.1719176E-02;  3.9988223E+04;  0.0000000E+00; -4.9967196E-02;  4.0000000E+04;  0.0000000E+00;  3.9999121E+04; -4.1881680E-02;  0.0000000E+00;  1.6250375E-04;  1.1643726E+02;
  3.8155124E-01;  9.9999998E-03;  2.0001650E-01;4814; -2.1264881E-02;  0.0000000E+00; -4.5741308E-05;  9.9970392E+02;  1.0000000E-01; -2.4527701E+02;3;  1.5870140E+00;  0.0000000E+00; -1.1642139E+00;0; -4.1649453E-02;  3.9977391E+04;  0.0000000E+00; -5.3423899E-03;  4.0000000E+04;  0.0000000E+00;  4.0000629E+04; -4.1844435E-02;  0.0000000E+00;  1.9498289E-04;  1.1468873E+02;
  3.8153237E-01;  9.9999998E-03;  2.1002682E-01;4815; -2.1072894E-02;  0.0000000E+00; -4.2405234E-05;  9.9956934E+02;  1.0000000E-01; -3.5678003E+02;3;  1.6305497E+00;  0.0000000E+00; -1.2033374E+00;0; -4.1584350E-02;  3.9965492E+04;  0.0000000E+00;  4.4886224E-02;  4.0000000E+04;  0.0000000E+00;  4.0001574E+04; -4.1815344E-02;  0.0000000E+00;  2.3099492E-04;  2.4656943E+02;
  3.8151133E-01;  9.9999998E-03;  2.2003157E-01;4816; -2.0876890E-02;  0.0000000E+00; -4.7268888E-05;  9.9941559E+02;  1.0000000E-01; -4.8418384E+02;3;  1.6776651E+00;  0.0000000E+00; -1.2354233E+00;0; -4.1525368E-02;  3.9952680E+04;  0.0000000E+00;  9.2824772E-02;  4.0000000E+04;  0.0000000E+00;  4.0001773E+04; -4.1795872E-02;  0.0000000E+00;  2.7050523E-04;  3.0920810E+02;
  3.8148499E-01;  9.9999998E-03;  2.3002739E-01;4817; -2.0678641E-02;  0.0000000E+00; -5.8493650E-05;  9.9926080E+02;  1.0000000E-01; -6.1242712E+02;3;  1.7288084E+00;  0.0000000E+00; -1.2580491E+00;0; -4.1478336E-02;  3.9939734E+04;  0.0000000E+00;  1.3077384E-01;  4.0000000E+04;  0.0000000E+00;  4.0002523E+04; -4.1787211E-02;  0.0000000E+00;  3.0887409E-04;  4.2206854E+02;
  3.9165258E-01;  9.9999998E-03;  7.0006497E-02;4862; -2.3784531E-02;  0.0000000E+00; -9.4862451E-05;  1.0002818E+03;  1.0000000E-01;  2.3347485E+02;3;  1.3896389E+00;  0.0000000E+00; -4.7768572E-01;0; -4.3401327E-02;  4.0026676E+04;  0.0000000E+00;  6.7892313E-02;  4.0000000E+04;  0.0000000E+00;  3.9997129E+04; -4.1759741E-02;  0.0000000E+00; -1.6415857E-03;  3.9428638E+02;
  3.9165682E-01;  9.9999998E-03;  8.0005914E-02;4863; -2.3642967E-02;  0.0000000E+00; -1.0101424E-04;  1.0002484E+03;  1.0000000E-01;  2.0582132E+02;3;  1.3967688E+00;  0.0000000E+00; -5.4632479E-01;0; -4.3218195E-02;  4.0024379E+04;  0.0000000E+00;  8.0896512E-02;  4.0000000E+04;  0.0000000E+00;  3.9996797E+04; -4.1687168E-02;  0.0000000E+00; -1.5310273E-03;  4.1694043E+02;
  3.9166030E-01;  9.9999998E-03;  9.0005577E-02;4864; -2.3493145E-02;  0.0000000E+00; -1.0646848E-04;  1.0002198E+03;  1.0000000E-01;  1.8211829E+02;3;  1.4055398E+00;  0.0000000E+00; -6.1500591E-01;0; -4.3017827E-02;  4.0022246E+04;  0.0000000E+00;  9.0035230E-02;  4.0000000E+04;  0.0000000E+00;  3.9996574E+04; -4.1608676E-02;  0.0000000E+00; -1.4091505E-03;  4.5824197E+02;
  3.9166108E-01;  9.9999998E-03;  1.0000458E-01;4865; -2.3337530E-02;  0.0000000E+00; -1.1193092E-04;  1.0001970E+03;  1.0000000E-01;  1.6325462E+02;3;  1.4159485E+00;  0.0000000E+00; -6.8625599E-01;0; -4.2804658E-02;  4.0020566E+04;  0.0000000E+00;  9.3101144E-02;  4.0000000E+04;  0.0000000E+00;  3.9996270E+04; -4.1526690E-02;  0.0000000E+00; -1.2779686E-03;  5.1152765E+02;
  3.9165846E-01;  9.9999998E-03;  1.1000219E-01;4866; -2.3178216E-02;  0.0000000E+00; -1.1783179E-04;  1.0001702E+03;  1.0000000E-01;  1.4093428E+02;3;  1.4291527E+00;  0.0000000E+00; -7.5290680E-01;0; -4.2583652E-02;  4.0018793E+04;  0.0000000E+00;  8.8300131E-02;  4.0000000E+04;  0.0000000E+00;  3.9995930E+04; -4.1443460E-02;  0.0000000E+00; -1.1401940E-03;  5.6887268E+02;
  3.9165309E-01;  9.9999998E-03;  1.1999843E-01;4867; -2.3016779E-02;  0.0000000E+00; -1.2438495E-04;  1.0001420E+03;  1.0000000E-01;  1.1762630E+02;3;  1.4451066E+00;  0.0000000E+00; -8.1562364E-01;0; -4.2360093E-02;  4.0017242E+04;  0.0000000E+00;  7.4840471E-02;  4.0000000E+04;  0.0000000E+00;  3.9995133E+04; -4.1360814E-02;  0.0000000E+00; -9.9928014E-04;  6.2132214E+02;
  3.9164549E-01;  9.9999998E-03;  1.2999381E-01;4868; -2.2854187E-02;  0.0000000E+00; -1.3174162E-04;  1.0001103E+03;  1.0000000E-01;  9.1355431E+01;3;  1.4639966E+00;  0.0000000E+00; -8.7469298E-01;0; -4.2139843E-02;  4.0015164E+04;  0.0000000E+00;  5.3491481E-02;  4.0000000E+04;  0.0000000E+00;  3.9994797E+04; -4.1280437E-02;  0.0000000E+00; -8.5940736E-04;  6.5925507E+02;
  3.9163679E-01;  9.9999998E-03;  1.3998923E-01;4869; -2.2690717E-02;  0.0000000E+00; -1.3961583E-04;  1.0000743E+03;  1.0000000E-01;  6.1627884E+01;3;  1.4859457E+00;  0.0000000E+00; -9.2953861E-01;0; -4.1928675E-02;  4.0012398E+04;  0.0000000E+00;  2.6999328E-02;  4.0000000E+04;  0.0000000E+00;  3.9994738E+04; -4.1203089E-02;  0.0000000E+00; -7.2558597E-04;  6.7229224E+02;
  3.9162904E-01;  9.9999998E-03;  1.4998561E-01;4870; -2.2526041E-02;  0.0000000E+00; -1.4755827E-04;  1.0000278E+03;  1.0000000E-01;  2.3011694E+01;3;  1.5108452E+00;  0.0000000E+00; -9.8103088E-01;0; -4.1732736E-02;  4.0008570E+04;  0.0000000E+00;  9.1713184E-05;  4.0000000E+04;  0.0000000E+00;  3.9994934E+04; -4.1129142E-02;  0.0000000E+00; -6.0359517E-04;  6.4946179E+02;
  3.9162102E-01;  9.9999998E-03;  1.5998387E-01;4871; -2.2359211E-02;  0.0000000E+00; -1.5513982E-04;  9.9997485E+02;  1.0000000E-01; -2.0838915E+01;3;  1.5386710E+00;  0.0000000E+00; -1.0299191E+00;0; -4.1556973E-02;  4.0003660E+04;  0.0000000E+00; -2.1630805E-02;  4.0000000E+04;  0.0000000E+00;  3.9995289E+04; -4.1058395E-02;  0.0000000E+00; -4.9857883E-04;  5.7983344E+02;
  3.9160973E-01;  9.9999998E-03;  1.6998474E-01;4872; -2.2188926E-02;  0.0000000E+00; -1.6208780E-04;  9.9990314E+02;  1.0000000E-01; -8.0244637E+01;3;  1.5692837E+00;  0.0000000E+00; -1.0757104E+00;0; -4.1404396E-02;  3.9996961E+04;  0.0000000E+00; -3.3628583E-02;  4.0000000E+04;  0.0000000E+00;  3.9996461E+04; -4.0990960E-02;  0.0000000E+00; -4.1343749E-04;  4.5399506E+02;
  3.9159587E-01;  9.9999998E-03;  1.7998879E-01;4873; -2.2014007E-02;  0.0000000E+00; -1.6797424E-04;  9.9982025E+02;  1.0000000E-01; -1.4893405E+02;3;  1.6029048E+00;  0.0000000E+00; -1.1183363E+00;0; -4.1275293E-02;  3.9989113E+04;  0.0000000E+00; -3.3758342E-02;  4.0000000E+04;  0.0000000E+00;  3.9997730E+04; -4.0927142E-02;  0.0000000E+00; -3.4815003E-04;  2.6997717E+02;
  3.9157832E-01;  9.9999998E-03;  1.8999584E-01;4874; -2.1833496E-02;  0.0000000E+00; -1.7211867E-04;  9.9972546E+02;  1.0000000E-01; -2.2745033E+02;3;  1.6390442E+00;  0.0000000E+00; -1.1609524E+00;0; -4.1166913E-02;  3.9979621E+04;  0.0000000E+00; -2.2645835E-02;  4.0000000E+04;  0.0000000E+00;  3.9999602E+04; -4.0867727E-02;  0.0000000E+00; -2.9918569E-04;  4.9796898E+01;
  3.9155683E-01;  9.9999998E-03;  2.0000492E-01;4875; -2.1647019E-02;  0.0000000E+00; -1.7388251E-04;  9.9961523E+02;  1.0000000E-01; -3.1875638E+02;3;  1.6780953E+00;  0.0000000E+00; -1.2052506E+00;0; -4.1073587E-02;  3.9968965E+04;  0.0000000E+00; -3.2991976E-03;  4.0000000E+04;  0.0000000E+00;  4.0001422E+04; -4.0814381E-02;  0.0000000E+00; -2.5920407E-04;  2.0311969E+02;
  3.9153266E-01;  9.9999998E-03;  2.1001384E-01;4876; -2.1455172E-02;  0.0000000E+00; -1.7402337E-04;  9.9948853E+02;  1.0000000E-01; -4.2374106E+02;3;  1.7201794E+00;  0.0000000E+00; -1.2495908E+00;0; -4.0986046E-02;  3.9957184E+04;  0.0000000E+00;  1.9716725E-02;  4.0000000E+04;  0.0000000E+00;  4.0002836E+04; -4.0768754E-02;  0.0000000E+00; -2.1729176E-04;  3.9765253E+02;
  3.9150566E-01;  9.9999998E-03;  2.2001897E-01;4877; -2.1259470E-02;  0.0000000E+00; -1.7548114E-04;  9.9934875E+02;  1.0000000E-01; -5.3954028E+02;3;  1.7658859E+00;  0.0000000E+00; -1.2872933E+00;0; -4.0896297E-02;  3.9944738E+04;  0.0000000E+00;  4.1151632E-02;  4.0000000E+04;  0.0000000E+00;  4.0003766E+04; -4.0732469E-02;  0.0000000E+00; -1.6382673E-04;  5.3609326E+02;
  3.9147422E-01;  9.9999998E-03;  2.3001769E-01;4878; -2.1061923E-02;  0.0000000E+00; -1.7736760E-04;  9.9920026E+02;  1.0000000E-01; -6.6254913E+02;3;  1.8152287E+00;  0.0000000E+00; -1.3208388E+00;0; -4.0791526E-02;  3.9931453E+04;  0.0000000E+00;  5.5972692E-02;  4.0000000E+04;  0.0000000E+00;  4.0005066E+04; -4.0706787E-02;  0.0000000E+00; -8.4737490E-05;  7.0137726E+02;
  4.0163133E-01;  9.9999998E-03;  7.0010662E-02;4923; -2.4179220E-02;  0.0000000E+00; -1.5852563E-04;  1.0001537E+03;  1.0000000E-01;  1.2730503E+02;3;  1.4964795E+00;  0.0000000E+00; -5.1013327E-01;0; -4.2828970E-02;  4.0017207E+04;  0.0000000E+00;  7.3814437E-02;  4.0000000E+04;  0.0000000E+00;  3.9995859E+04; -4.0571794E-02;  0.0000000E+00; -2.2571757E-03;  5.3810168E+02;
  4.0164477E-01;  9.9999998E-03;  8.0010921E-02;4924; -2.4041336E-02;  0.0000000E+00; -1.7186871E-04;  1.0001284E+03;  1.0000000E-01;  1.0636736E+02;3;  1.5032374E+00;  0.0000000E+00; -5.8166522E-01;0; -4.2683203E-02;  4.0015477E+04;  0.0000000E+00;  9.0198010E-02;  4.0000000E+04;  0.0000000E+00;  3.9996078E+04; -4.0553629E-02;  0.0000000E+00; -2.1295748E-03;  5.3794104E+02;
  4.0165421E-01;  9.9999998E-03;  9.0011306E-02;4925; -2.3893842E-02;  0.0000000E+00; -1.8397717E-04;  1.0001107E+03;  1.0000000E-01;  9.1651718E+01;3;  1.5114101E+00;  0.0000000E+00; -6.5231240E-01;0; -4.2519271E-02;  4.0013535E+04;  0.0000000E+00;  1.0429149E-01;  4.0000000E+04;  0.0000000E+00;  3.9996000E+04; -4.0526845E-02;  0.0000000E+00; -1.9924252E-03;  5.5087238E+02;
  4.0165773E-01;  9.9999998E-03;  1.0001127E-01;4926; -2.3739068E-02;  0.0000000E+00; -1.9554337E-04;  1.0000839E+03;  1.0000000E-01;  6.9430130E+01;3;  1.5214092E+00;  0.0000000E+00; -7.2070950E-01;0; -4.2339221E-02;  4.0011711E+04;  0.0000000E+00;  1.1410273E-01;  4.0000000E+04;  0.0000000E+00;  3.9995648E+04; -4.0491242E-02;  0.0000000E+00; -1.8479790E-03;  5.7200568E+02;
  4.0165561E-01;  9.9999998E-03;  1.1001017E-01;4927; -2.3579139E-02;  0.0000000E+00; -2.0699712E-04;  1.0000589E+03;  1.0000000E-01;  4.8788738E+01;3;  1.5333834E+00;  0.0000000E+00; -7.8808475E-01;0; -4.2146150E-02;  4.0009980E+04;  0.0000000E+00;  1.1773151E-01;  4.0000000E+04;  0.0000000E+00;  3.9995535E+04; -4.0447235E-02;  0.0000000E+00; -1.6989164E-03;  5.9527155E+02;
  4.0164903E-01;  9.9999998E-03;  1.2000768E-01;4928; -2.3415865E-02;  0.0000000E+00; -2.1884462E-04;  1.0000324E+03;  1.0000000E-01;  2.6863436E+01;3;  1.5477842E+00;  0.0000000E+00; -8.5236156E-01;0; -4.1943960E-02;  4.0008023E+04;  0.0000000E+00;  1.1379321E-01;  4.0000000E+04;  0.0000000E+00;  3.9995254E+04; -4.0395681E-02;  0.0000000E+00; -1.5482792E-03;  6.1390216E+02;
  4.0163943E-01;  9.9999998E-03;  1.3000412E-01;4929; -2.3250505E-02;  0.0000000E+00; -2.3121857E-04;  1.0000016E+03;  1.0000000E-01;  1.2839142E+00;3;  1.5649433E+00;  0.0000000E+00; -9.1375899E-01;0; -4.1737117E-02;  4.0005434E+04;  0.0000000E+00;  1.0192637E-01;  4.0000000E+04;  0.0000000E+00;  3.9995199E+04; -4.0337559E-02;  0.0000000E+00; -1.3995576E-03;  6.2064905E+02;
  4.0162978E-01;  9.9999998E-03;  1.4000008E-01;4930; -2.3083797E-02;  0.0000000E+00; -2.4402661E-04;  9.9996082E+02;  1.0000000E-01; -3.2443523E+01;3;  1.5849168E+00;  0.0000000E+00; -9.7248936E-01;0; -4.1531101E-02;  4.0002203E+04;  0.0000000E+00;  8.3280921E-02;  4.0000000E+04;  0.0000000E+00;  3.9995477E+04; -4.0274154E-02;  0.0000000E+00; -1.2569458E-03;  6.0756055E+02;
  4.0161991E-01;  9.9999998E-03;  1.4999628E-01;4931; -2.2915762E-02;  0.0000000E+00; -2.5698994E-04;  9.9991498E+02;  1.0000000E-01; -7.0417755E+01;3;  1.6079115E+00;  0.0000000E+00; -1.0279192E+00;0; -4.1331869E-02;  3.9997949E+04;  0.0000000E+00;  6.0698565E-02;  4.0000000E+04;  0.0000000E+00;  3.9995352E+04; -4.0206738E-02;  0.0000000E+00; -1.1251320E-03;  5.6570959E+02;
  4.0160856E-01;  9.9999998E-03;  1.5999356E-01;4932; -2.2745844E-02;  0.0000000E+00; -2.6971681E-04;  9.9985815E+02;  1.0000000E-01; -1.1752753E+02;3;  1.6339815E+00;  0.0000000E+00; -1.0807289E+00;0; -4.1145600E-02;  3.9992742E+04;  0.0000000E+00;  3.7978463E-02;  4.0000000E+04;  0.0000000E+00;  3.9995980E+04; -4.0136982E-02;  0.0000000E+00; -1.0086183E-03;  4.8611279E+02;
  4.0159723E-01;  9.9999998E-03;  1.6999263E-01;4933; -2.2573259E-02;  0.0000000E+00; -2.8200253E-04;  9.9978302E+02;  1.0000000E-01; -1.7974799E+02;3;  1.6631448E+00;  0.0000000E+00; -1.1307040E+00;0; -4.0976390E-02;  3.9986160E+04;  0.0000000E+00;  1.8520571E-02;  4.0000000E+04;  0.0000000E+00;  3.9996945E+04; -4.0065944E-02;  0.0000000E+00; -9.1044622E-04;  3.6032498E+02;
  4.0158433E-01;  9.9999998E-03;  1.7999381E-01;4934; -2.2396965E-02;  0.0000000E+00; -2.9348757E-04;  9.9970117E+02;  1.0000000E-01; -2.4759792E+02;3;  1.6954572E+00;  0.0000000E+00; -1.1769357E+00;0; -4.0826291E-02;  3.9978176E+04;  0.0000000E+00;  4.3803351E-03;  4.0000000E+04;  0.0000000E+00;  3.9998234E+04; -3.9995316E-02;  0.0000000E+00; -8.3097286E-04;  1.8373099E+02;
  4.0156901E-01;  9.9999998E-03;  1.8999703E-01;4935; -2.2216070E-02;  0.0000000E+00; -3.0359725E-04;  9.9960767E+02;  1.0000000E-01; -3.2502783E+02;3;  1.7308147E+00;  0.0000000E+00; -1.2199547E+00;0; -4.0694840E-02;  3.9968566E+04;  0.0000000E+00; -4.0696491E-03;  4.0000000E+04;  0.0000000E+00;  4.0000016E+04; -3.9926976E-02;  0.0000000E+00; -7.6786324E-04;  3.9487263E+01;
  4.0155026E-01;  9.9999998E-03;  2.0000163E-01;4936; -2.2030119E-02;  0.0000000E+00; -3.1137519E-04;  9.9949731E+02;  1.0000000E-01; -4.1648203E+02;3;  1.7692114E+00;  0.0000000E+00; -1.2605432E+00;0; -4.0579036E-02;  3.9958020E+04;  0.0000000E+00; -7.9628127E-03;  4.0000000E+04;  0.0000000E+00;  4.0001930E+04; -3.9863378E-02;  0.0000000E+00; -7.1565638E-04;  2.8763922E+02;
  4.0152800E-01;  9.9999998E-03;  2.1000622E-01;4937; -2.1839403E-02;  0.0000000E+00; -3.1583372E-04;  9.9937732E+02;  1.0000000E-01; -5.1588660E+02;3;  1.8107325E+00;  0.0000000E+00; -1.2998203E+00;0; -4.0471245E-02;  3.9946289E+04;  0.0000000E+00; -9.4562601E-03;  4.0000000E+04;  0.0000000E+00;  4.0004008E+04; -3.9806787E-02;  0.0000000E+00; -6.6445896E-04;  5.3325128E+02;
  4.0150204E-01;  9.9999998E-03;  2.2000852E-01;4938; -2.1645159E-02;  0.0000000E+00; -3.1613820E-04;  9.9924689E+02;  1.0000000E-01; -6.2393292E+02;3;  1.8554634E+00;  0.0000000E+00; -1.3391984E+00;0; -4.0356472E-02;  3.9933734E+04;  0.0000000E+00; -1.1151601E-02;  4.0000000E+04;  0.0000000E+00;  4.0005582E+04; -3.9759349E-02;  0.0000000E+00; -5.9712346E-04;  7.7071393E+02;
  4.0147057E-01;  9.9999998E-03;  2.3000760E-01;4939; -2.1449193E-02;  0.0000000E+00; -3.0771896E-04;  9.9911047E+02;  1.0000000E-01; -7.3696674E+02;3;  1.9034491E+00;  0.0000000E+00; -1.3810947E+00;0; -4.0195748E-02;  3.9920566E+04;  0.0000000E+00; -1.5476920E-02;  4.0000000E+04;  0.0000000E+00;  4.0007617E+04; -3.9722804E-02;  0.0000000E+00; -4.7294525E-04;  1.0353710E+03;
  4.1162649E-01;  9.9999998E-03;  7.0013136E-02;4984; -2.4566900E-02;  0.0000000E+00; -2.2756314E-04;  9.9998627E+02;  1.0000000E-01; -1.1357702E+01;3;  1.6072656E+00;  0.0000000E+00; -5.4317576E-01;0; -4.2357270E-02;  4.0004758E+04;  0.0000000E+00;  7.7055842E-02;  4.0000000E+04;  0.0000000E+00;  3.9994680E+04; -3.9418865E-02;  0.0000000E+00; -2.9384037E-03;  6.7903149E+02;
  4.1164240E-01;  9.9999998E-03;  8.0014437E-02;4985; -2.4433644E-02;  0.0000000E+00; -2.4928534E-04;  9.9997852E+02;  1.0000000E-01; -1.7777273E+01;3;  1.6133063E+00;  0.0000000E+00; -6.1739945E-01;0; -4.2241003E-02;  4.0003945E+04;  0.0000000E+00;  9.5502324E-02;  4.0000000E+04;  0.0000000E+00;  3.9994758E+04; -3.9449424E-02;  0.0000000E+00; -2.7915807E-03;  6.6163318E+02;
  4.1165221E-01;  9.9999998E-03;  9.0015762E-02;4986; -2.4289686E-02;  0.0000000E+00; -2.6916663E-04;  9.9996918E+02;  1.0000000E-01; -2.5530140E+01;3;  1.6205430E+00;  0.0000000E+00; -6.9038892E-01;0; -4.2105544E-02;  4.0002992E+04;  0.0000000E+00;  1.1273681E-01;  4.0000000E+04;  0.0000000E+00;  3.9994945E+04; -3.9469711E-02;  0.0000000E+00; -2.6358324E-03;  6.5025677E+02;
  4.1165602E-01;  9.9999998E-03;  1.0001688E-01;4987; -2.4137210E-02;  0.0000000E+00; -2.8782414E-04;  9.9995770E+02;  1.0000000E-01; -3.5060734E+01;3;  1.6292086E+00;  0.0000000E+00; -7.6175588E-01;0; -4.1951250E-02;  4.0001680E+04;  0.0000000E+00;  1.2699153E-01;  4.0000000E+04;  0.0000000E+00;  3.9994918E+04; -3.9477412E-02;  0.0000000E+00; -2.4738396E-03;  6.4232104E+02;
  4.1165280E-01;  9.9999998E-03;  1.1001737E-01;4988; -2.3978224E-02;  0.0000000E+00; -3.0578827E-04;  9.9993506E+02;  1.0000000E-01; -5.3825634E+01;3;  1.6396344E+00;  0.0000000E+00; -8.3138663E-01;0; -4.1779678E-02;  4.0000121E+04;  0.0000000E+00;  1.3638623E-01;  4.0000000E+04;  0.0000000E+00;  3.9995270E+04; -3.9471459E-02;  0.0000000E+00; -2.3082201E-03;  6.3401392E+02;
  4.1164452E-01;  9.9999998E-03;  1.2001667E-01;4989; -2.3814606E-02;  0.0000000E+00; -3.2357100E-04;  9.9991333E+02;  1.0000000E-01; -7.1800430E+01;3;  1.6523145E+00;  0.0000000E+00; -8.9808643E-01;0; -4.1593187E-02;  3.9997883E+04;  0.0000000E+00;  1.3919023E-01;  4.0000000E+04;  0.0000000E+00;  3.9995215E+04; -3.9451320E-02;  0.0000000E+00; -2.1418687E-03;  6.2078156E+02;
  4.1163430E-01;  9.9999998E-03;  1.3001484E-01;4990; -2.3647875E-02;  0.0000000E+00; -3.4140275E-04;  9.9988220E+02;  1.0000000E-01; -9.7577477E+01;3;  1.6675457E+00;  0.0000000E+00; -9.6235323E-01;0; -4.1395321E-02;  3.9995285E+04;  0.0000000E+00;  1.3422263E-01;  4.0000000E+04;  0.0000000E+00;  3.9995406E+04; -3.9417375E-02;  0.0000000E+00; -1.9779485E-03;  5.9725616E+02;
  4.1162187E-01;  9.9999998E-03;  1.4001222E-01;4991; -2.3478944E-02;  0.0000000E+00; -3.5932832E-04;  9.9984369E+02;  1.0000000E-01; -1.2947781E+02;3;  1.6855851E+00;  0.0000000E+00; -1.0237164E+00;0; -4.1191079E-02;  3.9991613E+04;  0.0000000E+00;  1.2129126E-01;  4.0000000E+04;  0.0000000E+00;  3.9995703E+04; -3.9371204E-02;  0.0000000E+00; -1.8198766E-03;  5.5696729E+02;
  4.1160804E-01;  9.9999998E-03;  1.5000935E-01;4992; -2.3308249E-02;  0.0000000E+00; -3.7715174E-04;  9.9979431E+02;  1.0000000E-01; -1.7041492E+02;3;  1.7066300E+00;  0.0000000E+00; -1.0823102E+00;0; -4.0986352E-02;  3.9987363E+04;  0.0000000E+00;  1.0156541E-01;  4.0000000E+04;  0.0000000E+00;  3.9996016E+04; -3.9314598E-02;  0.0000000E+00; -1.6717520E-03;  4.9285336E+02;
  4.1159454E-01;  9.9999998E-03;  1.6000685E-01;4993; -2.3135774E-02;  0.0000000E+00; -3.9470132E-04;  9.9973083E+02;  1.0000000E-01; -2.2300603E+02;3;  1.7308342E+00;  0.0000000E+00; -1.1379601E+00;0; -4.0787756E-02;  3.9981668E+04;  0.0000000E+00;  7.7222802E-02;  4.0000000E+04;  0.0000000E+00;  3.9996852E+04; -3.9249871E-02;  0.0000000E+00; -1.5378851E-03;  3.9828809E+02;
  4.1158086E-01;  9.9999998E-03;  1.7000531E-01;4994; -2.2961039E-02;  0.0000000E+00; -4.1187409E-04;  9.9965790E+02;  1.0000000E-01; -2.8344876E+02;3;  1.7583429E+00;  0.0000000E+00; -1.1901081E+00;0; -4.0600825E-02;  3.9974828E+04;  0.0000000E+00;  5.0678533E-02;  4.0000000E+04;  0.0000000E+00;  3.9997695E+04; -3.9179534E-02;  0.0000000E+00; -1.4212900E-03;  2.6766580E+02;
  4.1156712E-01;  9.9999998E-03;  1.8000497E-01;4995; -2.2783376E-02;  0.0000000E+00; -4.2841432E-04;  9.9957495E+02;  1.0000000E-01; -3.5213815E+02;3;  1.7891483E+00;  0.0000000E+00; -1.2393976E+00;0; -4.0429182E-02;  3.9966605E+04;  0.0000000E+00;  2.4038011E-02;  4.0000000E+04;  0.0000000E+00;  3.9999020E+04; -3.9106246E-02;  0.0000000E+00; -1.3229380E-03;  9.8535568E+01;
  4.1155204E-01;  9.9999998E-03;  1.9000573E-01;4996; -2.2602078E-02;  0.0000000E+00; -4.4394404E-04;  9.9947736E+02;  1.0000000E-01; -4.3302475E+02;3;  1.8232840E+00;  0.0000000E+00; -1.2835455E+00;0; -4.0274490E-02;  3.9957293E+04;  0.0000000E+00; -1.2499597E-03;  4.0000000E+04;  0.0000000E+00;  4.0000668E+04; -3.9032981E-02;  0.0000000E+00; -1.2415102E-03;  1.0954674E+02;
  4.1153550E-01;  9.9999998E-03;  2.0000701E-01;4997; -2.2416757E-02;  0.0000000E+00; -4.5768355E-04;  9.9936969E+02;  1.0000000E-01; -5.2220740E+02;3;  1.8606271E+00;  0.0000000E+00; -1.3248287E+00;0; -4.0136054E-02;  3.9946684E+04;  0.0000000E+00; -2.4519263E-02;  4.0000000E+04;  0.0000000E+00;  4.0002352E+04; -3.8962662E-02;  0.0000000E+00; -1.1733932E-03;  3.4111609E+02;
  4.1151667E-01;  9.9999998E-03;  2.1000753E-01;4998; -2.2227518E-02;  0.0000000E+00; -4.6853401E-04;  9.9925146E+02;  1.0000000E-01; -6.2013055E+02;3;  1.9011472E+00;  0.0000000E+00; -1.3636878E+00;0; -4.0009886E-02;  3.9935031E+04;  0.0000000E+00; -4.5708068E-02;  4.0000000E+04;  0.0000000E+00;  4.0004176E+04; -3.8898315E-02;  0.0000000E+00; -1.1115703E-03;  5.9138489E+02;
  4.1149458E-01;  9.9999998E-03;  2.2000536E-01;4999; -2.2035230E-02;  0.0000000E+00; -4.7259993E-04;  9.9912756E+02;  1.0000000E-01; -7.2279431E+02;3;  1.9449368E+00;  0.0000000E+00; -1.4018317E+00;0; -3.9880436E-02;  3.9922738E+04;  0.0000000E+00; -6.5145120E-02;  4.0000000E+04;  0.0000000E+00;  4.0006418E+04; -3.8842741E-02;  0.0000000E+00; -1.0376956E-03;  8.8729608E+02;
  4.1146839E-01;  9.9999998E-03;  2.3000187E-01;5000; -2.1841351E-02;  0.0000000E+00; -4.5989465E-04;  9.9900336E+02;  1.0000000E-01; -8.2570496E+02;3;  1.9918581E+00;  0.0000000E+00; -1.4426996E+00;0; -3.9689045E-02;  3.9909980E+04;  0.0000000E+00; -8.3134711E-02;  4.0000000E+04;  0.0000000E+00;  4.0009352E+04; -3.8797922E-02;  0.0000000E+00; -8.9112273E-04;  1.2511801E+03;
  4.2164063E-01;  9.9999998E-03;  7.0014760E-02;5045; -2.4949975E-02;  0.0000000E+00; -2.9969492E-04;  9.9981616E+02;  1.0000000E-01; -1.5229198E+02;3;  1.7225112E+00;  0.0000000E+00; -5.7530367E-01;0; -4.1979033E-02;  3.9991875E+04;  0.0000000E+00;  7.6855220E-02;  4.0000000E+04;  0.0000000E+00;  3.9993496E+04; -3.8300090E-02;  0.0000000E+00; -3.6789447E-03;  8.0679480E+02;
  4.2165312E-01;  9.9999998E-03;  8.0017149E-02;5046; -2.4821686E-02;  0.0000000E+00; -3.3065083E-04;  9.9982599E+02;  1.0000000E-01; -1.4414406E+02;3;  1.7273581E+00;  0.0000000E+00; -6.5325099E-01;0; -4.1882373E-02;  3.9992527E+04;  0.0000000E+00;  9.6014373E-02;  4.0000000E+04;  0.0000000E+00;  3.9993688E+04; -3.8371094E-02;  0.0000000E+00; -3.5112784E-03;  7.7914606E+02;
  4.2166063E-01;  9.9999998E-03;  9.0019494E-02;5047; -2.4681978E-02;  0.0000000E+00; -3.5921336E-04;  9.9983246E+02;  1.0000000E-01; -1.3881088E+02;3;  1.7332371E+00;  0.0000000E+00; -7.2939587E-01;0; -4.1765392E-02;  3.9992664E+04;  0.0000000E+00;  1.1454367E-01;  4.0000000E+04;  0.0000000E+00;  3.9994047E+04; -3.8430996E-02;  0.0000000E+00; -3.3343970E-03;  7.4965497E+02;
  4.2166057E-01;  9.9999998E-03;  1.0002177E-01;5048; -2.4532681E-02;  0.0000000E+00; -3.8587186E-04;  9.9983398E+02;  1.0000000E-01; -1.3752696E+02;3;  1.7404002E+00;  0.0000000E+00; -8.0371743E-01;0; -4.1627470E-02;  3.9992207E+04;  0.0000000E+00;  1.3082555E-01;  4.0000000E+04;  0.0000000E+00;  3.9994363E+04; -3.8476385E-02;  0.0000000E+00; -3.1510857E-03;  7.1755145E+02;
  4.2165425E-01;  9.9999998E-03;  1.1002363E-01;5049; -2.4375755E-02;  0.0000000E+00; -4.1116576E-04;  9.9982397E+02;  1.0000000E-01; -1.4582303E+02;3;  1.7491961E+00;  0.0000000E+00; -8.7569857E-01;0; -4.1468553E-02;  3.9990988E+04;  0.0000000E+00;  1.4303772E-01;  4.0000000E+04;  0.0000000E+00;  3.9994562E+04; -3.8504291E-02;  0.0000000E+00; -2.9642601E-03;  6.8164136E+02;
  4.2164424E-01;  9.9999998E-03;  1.2002463E-01;5050; -2.4213040E-02;  0.0000000E+00; -4.3553996E-04;  9.9980811E+02;  1.0000000E-01; -1.5895845E+02;3;  1.7600086E+00;  0.0000000E+00; -9.4537824E-01;0; -4.1290101E-02;  3.9989176E+04;  0.0000000E+00;  1.4929920E-01;  4.0000000E+04;  0.0000000E+00;  3.9995086E+04; -3.8513269E-02;  0.0000000E+00; -2.7768316E-03;  6.3993372E+02;
  4.2163137E-01;  9.9999998E-03;  1.3002451E-01;5051; -2.4046054E-02;  0.0000000E+00; -4.5932419E-04;  9.9977850E+02;  1.0000000E-01; -1.8350098E+02;3;  1.7732749E+00;  0.0000000E+00; -1.0123396E+00;0; -4.1094776E-02;  3.9986438E+04;  0.0000000E+00;  1.4794157E-01;  4.0000000E+04;  0.0000000E+00;  3.9995484E+04; -3.8503096E-02;  0.0000000E+00; -2.5916791E-03;  5.8893524E+02;
  4.2161694E-01;  9.9999998E-03;  1.4002347E-01;5052; -2.3875974E-02;  0.0000000E+00; -4.8265429E-04;  9.9974023E+02;  1.0000000E-01; -2.1520378E+02;3;  1.7892367E+00;  0.0000000E+00; -1.0764213E+00;0; -4.0886804E-02;  3.9982719E+04;  0.0000000E+00;  1.3787603E-01;  4.0000000E+04;  0.0000000E+00;  3.9995934E+04; -3.8474765E-02;  0.0000000E+00; -2.4120393E-03;  5.2388440E+02;
  4.2160261E-01;  9.9999998E-03;  1.5002188E-01;5053; -2.3703570E-02;  0.0000000E+00; -5.0548546E-04;  9.9969055E+02;  1.0000000E-01; -2.5638779E+02;3;  1.8082328E+00;  0.0000000E+00; -1.1374940E+00;0; -4.0672064E-02;  3.9977988E+04;  0.0000000E+00;  1.1902031E-01;  4.0000000E+04;  0.0000000E+00;  3.9996648E+04; -3.8430318E-02;  0.0000000E+00; -2.2417470E-03;  4.3885403E+02;
  4.2158839E-01;  9.9999998E-03;  1.6002014E-01;5054; -2.3529118E-02;  0.0000000E+00; -5.2776927E-04;  9.9962476E+02;  1.0000000E-01; -3.1090475E+02;3;  1.8304193E+00;  0.0000000E+00; -1.1953611E+00;0; -4.0457655E-02;  3.9972160E+04;  0.0000000E+00;  9.2319623E-02;  4.0000000E+04;  0.0000000E+00;  3.9997324E+04; -3.8372703E-02;  0.0000000E+00; -2.0849502E-03;  3.2910495E+02;
  4.2157423E-01;  9.9999998E-03;  1.7001878E-01;5055; -2.3352535E-02;  0.0000000E+00; -5.4951903E-04;  9.9955200E+02;  1.0000000E-01; -3.7114996E+02;3;  1.8559897E+00;  0.0000000E+00; -1.2499418E+00;0; -4.0250007E-02;  3.9964949E+04;  0.0000000E+00;  5.9539288E-02;  4.0000000E+04;  0.0000000E+00;  3.9998316E+04; -3.8305011E-02;  0.0000000E+00; -1.9449948E-03;  1.9230644E+02;
  4.2156026E-01;  9.9999998E-03;  1.8001790E-01;5056; -2.3173511E-02;  0.0000000E+00; -5.7075883E-04;  9.9946185E+02;  1.0000000E-01; -4.4586389E+02;3;  1.8849330E+00;  0.0000000E+00; -1.3007940E+00;0; -4.0054362E-02;  3.9956758E+04;  0.0000000E+00;  2.2963166E-02;  4.0000000E+04;  0.0000000E+00;  3.9999578E+04; -3.8230900E-02;  0.0000000E+00; -1.8234614E-03;  3.6176521E+01;
  4.2154631E-01;  9.9999998E-03;  1.9001727E-01;5057; -2.2991650E-02;  0.0000000E+00; -5.9125677E-04;  9.9936688E+02;  1.0000000E-01; -5.2452832E+02;3;  1.9174147E+00;  0.0000000E+00; -1.3479799E+00;0; -3.9874114E-02;  3.9947176E+04;  0.0000000E+00; -1.4987331E-02;  4.0000000E+04;  0.0000000E+00;  4.0000879E+04; -3.8154136E-02;  0.0000000E+00; -1.7199778E-03;  1.6321449E+02;
  4.2153192E-01;  9.9999998E-03;  2.0001617E-01;5058; -2.2806695E-02;  0.0000000E+00; -6.1077334E-04;  9.9925623E+02;  1.0000000E-01; -6.1618005E+02;3;  1.9532928E+00;  0.0000000E+00; -1.3902769E+00;0; -3.9710984E-02;  3.9936852E+04;  0.0000000E+00; -5.2132104E-02;  4.0000000E+04;  0.0000000E+00;  4.0002281E+04; -3.8078379E-02;  0.0000000E+00; -1.6326042E-03;  3.6728769E+02;
  4.2151681E-01;  9.9999998E-03;  2.1001326E-01;5059; -2.2618735E-02;  0.0000000E+00; -6.2845758E-04;  9.9914093E+02;  1.0000000E-01; -7.1173291E+02;3;  1.9926946E+00;  0.0000000E+00; -1.4292945E+00;0; -3.9564785E-02;  3.9925508E+04;  0.0000000E+00; -8.6719438E-02;  4.0000000E+04;  0.0000000E+00;  4.0004191E+04; -3.8007308E-02;  0.0000000E+00; -1.5574772E-03;  5.9835181E+02;
  4.2150101E-01;  9.9999998E-03;  2.2000679E-01;5060; -2.2428393E-02;  0.0000000E+00; -6.3935621E-04;  9.9901843E+02;  1.0000000E-01; -8.1321149E+02;3;  2.0353208E+00;  0.0000000E+00; -1.4663844E+00;0; -3.9423838E-02;  3.9913523E+04;  0.0000000E+00; -1.1748674E-01;  4.0000000E+04;  0.0000000E+00;  4.0006422E+04; -3.7944008E-02;  0.0000000E+00; -1.4798292E-03;  9.1538324E+02;
  4.2148435E-01;  9.9999998E-03;  2.2999994E-01;5061; -2.2236716E-02;  0.0000000E+00; -6.2771485E-04;  9.9890942E+02;  1.0000000E-01; -9.0352991E+02;3;  2.0811148E+00;  0.0000000E+00; -1.5054661E+00;0; -3.9217703E-02;  3.9901332E+04;  0.0000000E+00; -1.4351298E-01;  4.0000000E+04;  0.0000000E+00;  4.0010000E+04; -3.7890960E-02;  0.0000000E+00; -1.3267420E-03;  1.3479198E+03;
  4.3167046E-01;  9.9999998E-03;  7.0015818E-02;5106; -2.5328817E-02;  0.0000000E+00; -3.7275991E-04;  9.9967383E+02;  1.0000000E-01; -2.7021457E+02;3;  1.8422425E+00;  0.0000000E+00; -6.0695153E-01;0; -4.1678745E-02;  3.9981492E+04;  0.0000000E+00;  7.2707579E-02;  4.0000000E+04;  0.0000000E+00;  3.9992586E+04; -3.7207846E-02;  0.0000000E+00; -4.4709006E-03;  9.1285132E+02;
  4.3167722E-01;  9.9999998E-03;  8.0019228E-02;5107; -2.5205385E-02;  0.0000000E+00; -4.1363534E-04;  9.9970404E+02;  1.0000000E-01; -2.4517824E+02;3;  1.8455807E+00;  0.0000000E+00; -6.8859017E-01;0; -4.1590821E-02;  3.9983520E+04;  0.0000000E+00;  9.1099925E-02;  4.0000000E+04;  0.0000000E+00;  3.9992801E+04; -3.7309129E-02;  0.0000000E+00; -4.2816922E-03;  8.8212817E+02;
  4.3167904E-01;  9.9999998E-03;  9.0022646E-02;5108; -2.5070056E-02;  0.0000000E+00; -4.5158996E-04;  9.9972675E+02;  1.0000000E-01; -2.2636395E+02;3;  1.8498666E+00;  0.0000000E+00; -7.6831597E-01;0; -4.1481607E-02;  3.9984645E+04;  0.0000000E+00;  1.0900301E-01;  4.0000000E+04;  0.0000000E+00;  3.9993281E+04; -3.7399743E-02;  0.0000000E+00; -4.0818620E-03;  8.4184869E+02;
  4.3167594E-01;  9.9999998E-03;  1.0002587E-01;5109; -2.4924506E-02;  0.0000000E+00; -4.8703325E-04;  9.9973853E+02;  1.0000000E-01; -2.1663583E+02;3;  1.8552959E+00;  0.0000000E+00; -8.4583050E-01;0; -4.1349407E-02;  3.9985191E+04;  0.0000000E+00;  1.2490794E-01;  4.0000000E+04;  0.0000000E+00;  3.9993734E+04; -3.7474759E-02;  0.0000000E+00; -3.8746479E-03;  7.9254260E+02;
  4.3166763E-01;  9.9999998E-03;  1.1002870E-01;5110; -2.4770426E-02;  0.0000000E+00; -5.2037614E-04;  9.9973938E+02;  1.0000000E-01; -2.1589511E+02;3;  1.8622496E+00;  0.0000000E+00; -9.2100215E-01;0; -4.1193452E-02;  3.9984602E+04;  0.0000000E+00;  1.3708562E-01;  4.0000000E+04;  0.0000000E+00;  3.9994184E+04; -3.7530411E-02;  0.0000000E+00; -3.6630400E-03;  7.3504419E+02;
  4.3165466E-01;  9.9999998E-03;  1.2003075E-01;5111; -2.4609463E-02;  0.0000000E+00; -5.5203581E-04;  9.9972925E+02;  1.0000000E-01; -2.2428993E+02;3;  1.8710849E+00;  0.0000000E+00; -9.9340236E-01;0; -4.1014239E-02;  3.9982949E+04;  0.0000000E+00;  1.4366183E-01;  4.0000000E+04;  0.0000000E+00;  3.9994574E+04; -3.7564278E-02;  0.0000000E+00; -3.4499597E-03;  6.6969885E+02;
  4.3163940E-01;  9.9999998E-03;  1.3003184E-01;5112; -2.4443176E-02;  0.0000000E+00; -5.8234204E-04;  9.9970209E+02;  1.0000000E-01; -2.4680782E+02;3;  1.8821774E+00;  0.0000000E+00; -1.0630133E+00;0; -4.0813707E-02;  3.9980203E+04;  0.0000000E+00;  1.4281884E-01;  4.0000000E+04;  0.0000000E+00;  3.9995340E+04; -3.7575234E-02;  0.0000000E+00; -3.2384738E-03;  5.9546698E+02;
  4.3162379E-01;  9.9999998E-03;  1.4003205E-01;5113; -2.4272837E-02;  0.0000000E+00; -6.1150413E-04;  9.9966370E+02;  1.0000000E-01; -2.7860938E+02;3;  1.8959917E+00;  0.0000000E+00; -1.1296279E+00;0; -4.0595502E-02;  3.9976281E+04;  0.0000000E+00;  1.3304617E-01;  4.0000000E+04;  0.0000000E+00;  3.9996016E+04; -3.7563615E-02;  0.0000000E+00; -3.0318878E-03;  5.0929413E+02;
  4.3160880E-01;  9.9999998E-03;  1.5003155E-01;5114; -2.4099404E-02;  0.0000000E+00; -6.3957355E-04;  9.9961554E+02;  1.0000000E-01; -3.1850949E+02;3;  1.9126786E+00;  0.0000000E+00; -1.1930798E+00;0; -4.0365227E-02;  3.9971402E+04;  0.0000000E+00;  1.1354336E-01;  4.0000000E+04;  0.0000000E+00;  3.9996641E+04; -3.7531245E-02;  0.0000000E+00; -2.8339822E-03;  4.0654431E+02;
  4.3159527E-01;  9.9999998E-03;  1.6003068E-01;5115; -2.3923464E-02;  0.0000000E+00; -6.6664943E-04;  9.9955225E+02;  1.0000000E-01; -3.7095245E+02;3;  1.9325976E+00;  0.0000000E+00; -1.2531921E+00;0; -4.0130172E-02;  3.9965410E+04;  0.0000000E+00;  8.4486976E-02;  4.0000000E+04;  0.0000000E+00;  3.9997664E+04; -3.7480991E-02;  0.0000000E+00; -2.6491801E-03;  2.8384610E+02;
  4.3158290E-01;  9.9999998E-03;  1.7002977E-01;5116; -2.3745257E-02;  0.0000000E+00; -6.9291954E-04;  9.9947626E+02;  1.0000000E-01; -4.3391364E+02;3;  1.9560078E+00;  0.0000000E+00; -1.3096845E+00;0; -3.9897911E-02;  3.9958348E+04;  0.0000000E+00;  4.7301672E-02;  4.0000000E+04;  0.0000000E+00;  3.9998586E+04; -3.7416551E-02;  0.0000000E+00; -2.4813591E-03;  1.4115094E+02;
  4.3157157E-01;  9.9999998E-03;  1.8002877E-01;5117; -2.3564814E-02;  0.0000000E+00; -7.1857340E-04;  9.9938867E+02;  1.0000000E-01; -5.0645477E+02;3;  1.9828764E+00;  0.0000000E+00; -1.3623689E+00;0; -3.9674800E-02;  3.9950180E+04;  0.0000000E+00;  4.5006610E-03;  4.0000000E+04;  0.0000000E+00;  3.9999852E+04; -3.7342034E-02;  0.0000000E+00; -2.3327654E-03;  2.4773949E+01;
  4.3156105E-01;  9.9999998E-03;  1.9002722E-01;5118; -2.3382060E-02;  0.0000000E+00; -7.4378203E-04;  9.9928717E+02;  1.0000000E-01; -5.9055115E+02;3;  2.0133986E+00;  0.0000000E+00; -1.4110336E+00;0; -3.9465670E-02;  3.9940758E+04;  0.0000000E+00; -4.0766988E-02;  4.0000000E+04;  0.0000000E+00;  4.0001105E+04; -3.7261799E-02;  0.0000000E+00; -2.2038696E-03;  1.9193597E+02;
  4.3155080E-01;  9.9999998E-03;  2.0002441E-01;5119; -2.3196964E-02;  0.0000000E+00; -7.6863618E-04;  9.9917737E+02;  1.0000000E-01; -6.8151154E+02;3;  2.0476060E+00;  0.0000000E+00; -1.4557489E+00;0; -3.9274398E-02;  3.9930734E+04;  0.0000000E+00; -8.5313328E-02;  4.0000000E+04;  0.0000000E+00;  4.0002180E+04; -3.7180398E-02;  0.0000000E+00; -2.0939994E-03;  3.7201556E+02;
  4.3154120E-01;  9.9999998E-03;  2.1001886E-01;5120; -2.3009716E-02;  0.0000000E+00; -7.9246261E-04;  9.9906653E+02;  1.0000000E-01; -7.7336078E+02;3;  2.0854223E+00;  0.0000000E+00; -1.4954937E+00;0; -3.9103609E-02;  3.9919863E+04;  0.0000000E+00; -1.2635961E-01;  4.0000000E+04;  0.0000000E+00;  4.0003750E+04; -3.7101887E-02;  0.0000000E+00; -2.0017198E-03;  5.8177136E+02;
  4.3153235E-01;  9.9999998E-03;  2.2000942E-01;5121; -2.2820765E-02;  0.0000000E+00; -8.0955634E-04;  9.9895648E+02;  1.0000000E-01; -8.6451868E+02;3;  2.1266925E+00;  0.0000000E+00; -1.5327826E+00;0; -3.8944632E-02;  3.9908715E+04;  0.0000000E+00; -1.6178502E-01;  4.0000000E+04;  0.0000000E+00;  4.0006270E+04; -3.7029881E-02;  0.0000000E+00; -1.9147519E-03;  8.9783453E+02;
  4.3152341E-01;  9.9999998E-03;  2.3000030E-01;5122; -2.2630723E-02;  0.0000000E+00; -8.0244575E-04;  9.9885931E+02;  1.0000000E-01; -9.4505963E+02;3;  2.1712289E+00;  0.0000000E+00; -1.5699190E+00;0; -3.8726736E-02;  3.9897074E+04;  0.0000000E+00; -1.9009785E-01;  4.0000000E+04;  0.0000000E+00;  4.0009789E+04; -3.6967311E-02;  0.0000000E+00; -1.7594257E-03;  1.3548400E+03;
  4.4170073E-01;  9.9999998E-03;  7.0015281E-02;5167; -2.5701648E-02;  0.0000000E+00; -4.4508380E-04;  9.9959436E+02;  1.0000000E-01; -3.3608923E+02;3;  1.9664718E+00;  0.0000000E+00; -6.3839710E-01;0; -4.1436426E-02;  3.9975637E+04;  0.0000000E+00;  6.4420603E-02;  4.0000000E+04;  0.0000000E+00;  3.9991883E+04; -3.6131870E-02;  0.0000000E+00; -5.3045573E-03;  9.9077039E+02;
  4.4170326E-01;  9.9999998E-03;  8.0019623E-02;5168; -2.5582688E-02;  0.0000000E+00; -4.9632916E-04;  9.9963708E+02;  1.0000000E-01; -3.0068283E+02;3;  1.9681379E+00;  0.0000000E+00; -7.2386479E-01;0; -4.1346926E-02;  3.9978621E+04;  0.0000000E+00;  8.0453664E-02;  4.0000000E+04;  0.0000000E+00;  3.9992137E+04; -3.6252718E-02;  0.0000000E+00; -5.0942064E-03;  9.6353162E+02;
  4.4170165E-01;  9.9999998E-03;  9.0024151E-02;5169; -2.5451643E-02;  0.0000000E+00; -5.4425310E-04;  9.9966687E+02;  1.0000000E-01; -2.7599219E+02;3;  1.9705007E+00;  0.0000000E+00; -8.0717832E-01;0; -4.1234981E-02;  3.9980711E+04;  0.0000000E+00;  9.5831797E-02;  4.0000000E+04;  0.0000000E+00;  3.9992520E+04; -3.6364056E-02;  0.0000000E+00; -4.8709256E-03;  9.2028595E+02;
  4.4169581E-01;  9.9999998E-03;  1.0002839E-01;5170; -2.5309933E-02;  0.0000000E+00; -5.8910204E-04;  9.9969037E+02;  1.0000000E-01; -2.5653595E+02;3;  1.9740652E+00;  0.0000000E+00; -8.8808680E-01;0; -4.1098423E-02;  3.9981891E+04;  0.0000000E+00;  1.0916439E-01;  4.0000000E+04;  0.0000000E+00;  3.9993082E+04; -3.6460251E-02;  0.0000000E+00; -4.6381722E-03;  8.6208978E+02;
  4.4168594E-01;  9.9999998E-03;  1.1003177E-01;5171; -2.5159054E-02;  0.0000000E+00; -6.3117180E-04;  9.9969843E+02;  1.0000000E-01; -2.4986946E+02;3;  1.9789326E+00;  0.0000000E+00; -9.6636480E-01;0; -4.0935721E-02;  3.9981734E+04;  0.0000000E+00;  1.1888666E-01;  4.0000000E+04;  0.0000000E+00;  3.9993559E+04; -3.6536507E-02;  0.0000000E+00; -4.3992125E-03;  7.9122845E+02;
  4.4167295E-01;  9.9999998E-03;  1.2003417E-01;5172; -2.5000477E-02;  0.0000000E+00; -6.7078561E-04;  9.9968970E+02;  1.0000000E-01; -2.5707913E+02;3;  1.9855496E+00;  0.0000000E+00; -1.0418047E+00;0; -4.0746827E-02;  3.9980328E+04;  0.0000000E+00;  1.2332507E-01;  4.0000000E+04;  0.0000000E+00;  3.9994316E+04; -3.6589574E-02;  0.0000000E+00; -4.1572517E-03;  7.0991046E+02;
  4.4165745E-01;  9.9999998E-03;  1.3003576E-01;5173; -2.4835575E-02;  0.0000000E+00; -7.0824003E-04;  9.9966705E+02;  1.0000000E-01; -2.7584402E+02;3;  1.9943203E+00;  0.0000000E+00; -1.1141204E+00;0; -4.0533151E-02;  3.9977922E+04;  0.0000000E+00;  1.2079115E-01;  4.0000000E+04;  0.0000000E+00;  3.9995113E+04; -3.6617652E-02;  0.0000000E+00; -3.9155004E-03;  6.1909753E+02;
  4.4164193E-01;  9.9999998E-03;  1.4003666E-01;5174; -2.4665644E-02;  0.0000000E+00; -7.4375875E-04;  9.9963312E+02;  1.0000000E-01; -3.0394199E+02;3;  2.0056634E+00;  0.0000000E+00; -1.1832277E+00;0; -4.0297903E-02;  3.9973980E+04;  0.0000000E+00;  1.0978130E-01;  4.0000000E+04;  0.0000000E+00;  3.9995703E+04; -3.6620338E-02;  0.0000000E+00; -3.6775670E-03;  5.1768402E+02;
  4.4162747E-01;  9.9999998E-03;  1.5003684E-01;5175; -2.4491716E-02;  0.0000000E+00; -7.7745703E-04;  9.9958527E+02;  1.0000000E-01; -3.4359518E+02;3;  2.0199604E+00;  0.0000000E+00; -1.2489768E+00;0; -4.0046301E-02;  3.9969004E+04;  0.0000000E+00;  8.9263231E-02;  4.0000000E+04;  0.0000000E+00;  3.9996684E+04; -3.6598798E-02;  0.0000000E+00; -3.4475045E-03;  4.0250287E+02;
  4.4161507E-01;  9.9999998E-03;  1.6003641E-01;5176; -2.4314594E-02;  0.0000000E+00; -8.0955203E-04;  9.9951886E+02;  1.0000000E-01; -3.9860599E+02;3;  2.0375037E+00;  0.0000000E+00; -1.3111798E+00;0; -3.9785862E-02;  3.9962789E+04;  0.0000000E+00;  5.9074614E-02;  4.0000000E+04;  0.0000000E+00;  3.9997699E+04; -3.6555599E-02;  0.0000000E+00; -3.2302639E-03;  2.7147275E+02;
  4.4160503E-01;  9.9999998E-03;  1.7003568E-01;5177; -2.4134805E-02;  0.0000000E+00; -8.4038882E-04;  9.9944482E+02;  1.0000000E-01; -4.5993756E+02;3;  2.0583920E+00;  0.0000000E+00; -1.3695896E+00;0; -3.9524775E-02;  3.9955711E+04;  0.0000000E+00;  2.0459667E-02;  4.0000000E+04;  0.0000000E+00;  3.9998539E+04; -3.6494266E-02;  0.0000000E+00; -3.0305099E-03;  1.2630428E+02;
  4.4159731E-01;  9.9999998E-03;  1.8003453E-01;5178; -2.3952696E-02;  0.0000000E+00; -8.7034033E-04;  9.9936029E+02;  1.0000000E-01; -5.3000964E+02;3;  2.0829792E+00;  0.0000000E+00; -1.4239398E+00;0; -3.9270505E-02;  3.9947758E+04;  0.0000000E+00; -2.3951994E-02;  4.0000000E+04;  0.0000000E+00;  3.9999504E+04; -3.6419205E-02;  0.0000000E+00; -2.8512997E-03;  3.9190731E+01;
  4.4159156E-01;  9.9999998E-03;  1.9003247E-01;5179; -2.3768524E-02;  0.0000000E+00; -8.9981675E-04;  9.9926147E+02;  1.0000000E-01; -6.1183447E+02;3;  2.1112995E+00;  0.0000000E+00; -1.4740865E+00;0; -3.9029196E-02;  3.9938797E+04;  0.0000000E+00; -7.0688844E-02;  4.0000000E+04;  0.0000000E+00;  4.0000781E+04; -3.6335375E-02;  0.0000000E+00; -2.6938219E-03;  1.9422957E+02;
  4.4158706E-01;  9.9999998E-03;  2.0002858E-01;5180; -2.3582548E-02;  0.0000000E+00; -9.2906540E-04;  9.9916046E+02;  1.0000000E-01; -6.9553583E+02;3;  2.1434133E+00;  0.0000000E+00; -1.5200853E+00;0; -3.8805690E-02;  3.9929109E+04;  0.0000000E+00; -1.1614829E-01;  4.0000000E+04;  0.0000000E+00;  4.0001895E+04; -3.6247563E-02;  0.0000000E+00; -2.5581263E-03;  3.5869882E+02;
  4.4158319E-01;  9.9999998E-03;  2.1002170E-01;5181; -2.3395080E-02;  0.0000000E+00; -9.5783401E-04;  9.9905066E+02;  1.0000000E-01; -7.8649622E+02;3;  2.1793904E+00;  0.0000000E+00; -1.5619519E+00;0; -3.8604725E-02;  3.9919051E+04;  0.0000000E+00; -1.5717512E-01;  4.0000000E+04;  0.0000000E+00;  4.0003484E+04; -3.6160707E-02;  0.0000000E+00; -2.4440184E-03;  5.5313129E+02;
  4.4157949E-01;  9.9999998E-03;  2.2001159E-01;5182; -2.3206459E-02;  0.0000000E+00; -9.7969035E-04;  9.9895593E+02;  1.0000000E-01; -8.6501251E+02;3;  2.2190206E+00;  0.0000000E+00; -1.5989882E+00;0; -3.8418919E-02;  3.9908824E+04;  0.0000000E+00; -1.9136785E-01;  4.0000000E+04;  0.0000000E+00;  4.0005914E+04; -3.6078703E-02;  0.0000000E+00; -2.3402176E-03;  8.4945068E+02;
  4.4157478E-01;  9.9999998E-03;  2.3000267E-01;5183; -2.3016952E-02;  0.0000000E+00; -9.8088651E-04;  9.9886597E+02;  1.0000000E-01; -9.3952893E+02;3;  2.2620804E+00;  0.0000000E+00; -1.6358911E+00;0; -3.8190652E-02;  3.9898328E+04;  0.0000000E+00; -2.1697971E-01;  4.0000000E+04;  0.0000000E+00;  4.0009059E+04; -3.6004983E-02;  0.0000000E+00; -2.1856679E-03;  1.2700360E+03;
  4.5171976E-01;  9.9999998E-03;  7.0012309E-02;5228; -2.6065586E-02;  0.0000000E+00; -5.1580142E-04;  9.9958246E+02;  1.0000000E-01; -3.4591611E+02;3;  2.0951366E+00;  0.0000000E+00; -6.6958243E-01;0; -4.1232064E-02;  3.9974988E+04;  0.0000000E+00;  5.1904924E-02;  4.0000000E+04;  0.0000000E+00;  3.9991488E+04; -3.5062138E-02;  0.0000000E+00; -6.1699278E-03;  1.0379210E+03;
  4.5171705E-01;  9.9999998E-03;  8.0017067E-02;5229; -2.5950383E-02;  0.0000000E+00; -5.7764072E-04;  9.9962793E+02;  1.0000000E-01; -3.0823816E+02;3;  2.0948741E+00;  0.0000000E+00; -7.5895488E-01;0; -4.1132171E-02;  3.9978438E+04;  0.0000000E+00;  6.4061098E-02;  4.0000000E+04;  0.0000000E+00;  3.9991555E+04; -3.5192803E-02;  0.0000000E+00; -5.9393696E-03;  1.0188040E+03;
  4.5171198E-01;  9.9999998E-03;  9.0022117E-02;5230; -2.5823155E-02;  0.0000000E+00; -6.3588959E-04;  9.9966748E+02;  1.0000000E-01; -2.7549835E+02;3;  2.0952456E+00;  0.0000000E+00; -8.4594452E-01;0; -4.1008472E-02;  3.9981137E+04;  0.0000000E+00;  7.5237393E-02;  4.0000000E+04;  0.0000000E+00;  3.9992152E+04; -3.5315584E-02;  0.0000000E+00; -5.6928890E-03;  9.7951636E+02;
  4.5170423E-01;  9.9999998E-03;  1.0002682E-01;5231; -2.5685098E-02;  0.0000000E+00; -6.9061638E-04;  9.9969202E+02;  1.0000000E-01; -2.5515326E+02;3;  2.0965030E+00;  0.0000000E+00; -9.3032181E-01;0; -4.0858533E-02;  3.9982520E+04;  0.0000000E+00;  8.4281854E-02;  4.0000000E+04;  0.0000000E+00;  3.9992473E+04; -3.5424456E-02;  0.0000000E+00; -5.4340758E-03;  9.2127753E+02;
  4.5169407E-01;  9.9999998E-03;  1.1003070E-01;5232; -2.5537452E-02;  0.0000000E+00; -7.4197003E-04;  9.9970551E+02;  1.0000000E-01; -2.4399309E+02;3;  2.0990913E+00;  0.0000000E+00; -1.0118310E+00;0; -4.0680565E-02;  3.9982703E+04;  0.0000000E+00;  8.9922979E-02;  4.0000000E+04;  0.0000000E+00;  3.9993094E+04; -3.5514142E-02;  0.0000000E+00; -5.1664221E-03;  8.4694299E+02;
  4.5168257E-01;  9.9999998E-03;  1.2003352E-01;5233; -2.5381498E-02;  0.0000000E+00; -7.9015538E-04;  9.9969965E+02;  1.0000000E-01; -2.4883244E+02;3;  2.1033046E+00;  0.0000000E+00; -1.0902854E+00;0; -4.0474083E-02;  3.9981766E+04;  0.0000000E+00;  9.0849325E-02;  4.0000000E+04;  0.0000000E+00;  3.9993828E+04; -3.5580620E-02;  0.0000000E+00; -4.8934631E-03;  7.5995862E+02;
  4.5167053E-01;  9.9999998E-03;  1.3003518E-01;5234; -2.5218435E-02;  0.0000000E+00; -8.3539402E-04;  9.9967841E+02;  1.0000000E-01; -2.6641220E+02;3;  2.1095889E+00;  0.0000000E+00; -1.1654149E+00;0; -4.0240124E-02;  3.9979246E+04;  0.0000000E+00;  8.5743494E-02;  4.0000000E+04;  0.0000000E+00;  3.9994586E+04; -3.5621308E-02;  0.0000000E+00; -4.6188147E-03;  6.6268005E+02;
  4.5165831E-01;  9.9999998E-03;  1.4003602E-01;5235; -2.5049374E-02;  0.0000000E+00; -8.7785907E-04;  9.9964600E+02;  1.0000000E-01; -2.9327563E+02;3;  2.1183283E+00;  0.0000000E+00; -1.2370838E+00;0; -3.9981559E-02;  3.9975426E+04;  0.0000000E+00;  7.3390566E-02;  4.0000000E+04;  0.0000000E+00;  3.9995500E+04; -3.5635155E-02;  0.0000000E+00; -4.3464061E-03;  5.5563031E+02;
  4.5164737E-01;  9.9999998E-03;  1.5003623E-01;5236; -2.4875358E-02;  0.0000000E+00; -9.1769011E-04;  9.9959692E+02;  1.0000000E-01; -3.3391644E+02;3;  2.1299660E+00;  0.0000000E+00; -1.3051674E+00;0; -3.9703447E-02;  3.9970402E+04;  0.0000000E+00;  5.2875105E-02;  4.0000000E+04;  0.0000000E+00;  3.9996344E+04; -3.5622660E-02;  0.0000000E+00; -4.0807887E-03;  4.3721143E+02;
  4.5163894E-01;  9.9999998E-03;  1.6003595E-01;5237; -2.4697296E-02;  0.0000000E+00; -9.5517642E-04;  9.9953485E+02;  1.0000000E-01; -3.8537180E+02;3;  2.1448073E+00;  0.0000000E+00; -1.3694772E+00;0; -3.9413176E-02;  3.9964473E+04;  0.0000000E+00;  2.3977336E-02;  4.0000000E+04;  0.0000000E+00;  3.9997199E+04; -3.5585511E-02;  0.0000000E+00; -3.8276638E-03;  3.0718747E+02;
  4.5163324E-01;  9.9999998E-03;  1.7003515E-01;5238; -2.4515918E-02;  0.0000000E+00; -9.9077611E-04;  9.9946545E+02;  1.0000000E-01; -4.4285165E+02;3;  2.1630614E+00;  0.0000000E+00; -1.4297502E+00;0; -3.9119836E-02;  3.9957531E+04;  0.0000000E+00; -1.2221566E-02;  4.0000000E+04;  0.0000000E+00;  3.9997992E+04; -3.5527159E-02;  0.0000000E+00; -3.5926779E-03;  1.7137004E+02;
  4.5163018E-01;  9.9999998E-03;  1.8003368E-01;5239; -2.4331847E-02;  0.0000000E+00; -1.0250288E-03;  9.9937958E+02;  1.0000000E-01; -5.1401013E+02;3;  2.1850379E+00;  0.0000000E+00; -1.4857244E+00;0; -3.8831547E-02;  3.9949883E+04;  0.0000000E+00; -5.3284395E-02;  4.0000000E+04;  0.0000000E+00;  3.9999484E+04; -3.5451733E-02;  0.0000000E+00; -3.3798143E-03;  8.0468971E+01;
  4.5162937E-01;  9.9999998E-03;  1.9003122E-01;5240; -2.4145650E-02;  0.0000000E+00; -1.0584126E-03;  9.9928967E+02;  1.0000000E-01; -5.8847711E+02;3;  2.2109163E+00;  0.0000000E+00; -1.5372778E+00;0; -3.8555417E-02;  3.9941355E+04;  0.0000000E+00; -9.5930539E-02;  4.0000000E+04;  0.0000000E+00;  4.0000445E+04; -3.5364475E-02;  0.0000000E+00; -3.1909426E-03;  1.7748810E+02;
  4.5163044E-01;  9.9999998E-03;  2.0002715E-01;5241; -2.3957901E-02;  0.0000000E+00; -1.0913427E-03;  9.9919324E+02;  1.0000000E-01; -6.6837610E+02;3;  2.2407117E+00;  0.0000000E+00; -1.5844402E+00;0; -3.8296841E-02;  3.9932496E+04;  0.0000000E+00; -1.3676897E-01;  4.0000000E+04;  0.0000000E+00;  4.0001594E+04; -3.5270371E-02;  0.0000000E+00; -3.0264701E-03;  3.2981302E+02;
  4.5163286E-01;  9.9999998E-03;  2.1002083E-01;5242; -2.3769120E-02;  0.0000000E+00; -1.1232785E-03;  9.9909644E+02;  1.0000000E-01; -7.4857135E+02;3;  2.2745440E+00;  0.0000000E+00; -1.6273516E+00;0; -3.8060375E-02;  3.9923320E+04;  0.0000000E+00; -1.7286271E-01;  4.0000000E+04;  0.0000000E+00;  4.0003008E+04; -3.5174586E-02;  0.0000000E+00; -2.8857887E-03;  5.1484070E+02;
  4.5163554E-01;  9.9999998E-03;  2.2001272E-01;5243; -2.3579597E-02;  0.0000000E+00; -1.1497177E-03;  9.9900488E+02;  1.0000000E-01; -8.2442108E+02;3;  2.3122585E+00;  0.0000000E+00; -1.6663769E+00;0; -3.7841655E-02;  3.9913840E+04;  0.0000000E+00; -2.0195299E-01;  4.0000000E+04;  0.0000000E+00;  4.0005133E+04; -3.5081666E-02;  0.0000000E+00; -2.7599912E-03;  7.7691229E+02;
  4.5163611E-01;  9.9999998E-03;  2.3000669E-01;5244; -2.3389373E-02;  0.0000000E+00; -1.1616658E-03;  9.9892572E+02;  1.0000000E-01; -8.8999945E+02;3;  2.3536196E+00;  0.0000000E+00; -1.7020898E+00;0; -3.7602343E-02;  3.9904543E+04;  0.0000000E+00; -2.2224259E-01;  4.0000000E+04;  0.0000000E+00;  4.0007910E+04; -3.4995370E-02;  0.0000000E+00; -2.6069717E-03;  1.1045486E+03;
  4.6172366E-01;  9.9999998E-03;  7.0007771E-02;5289; -2.6417384E-02;  0.0000000E+00; -5.8486435E-04;  9.9963324E+02;  1.0000000E-01; -3.0384323E+02;3;  2.2283897E+00;  0.0000000E+00; -7.0057863E-01;0; -4.1048288E-02;  3.9979121E+04;  0.0000000E+00;  3.4987759E-02;  4.0000000E+04;  0.0000000E+00;  3.9991246E+04; -3.3990864E-02;  0.0000000E+00; -7.0574251E-03;  1.0565220E+03;
  4.6171522E-01;  9.9999998E-03;  8.0012113E-02;5290; -2.6305182E-02;  0.0000000E+00; -6.5738783E-04;  9.9967780E+02;  1.0000000E-01; -2.6695538E+02;3;  2.2259195E+00;  0.0000000E+00; -7.9387695E-01;0; -4.0931292E-02;  3.9982738E+04;  0.0000000E+00;  4.2022225E-02;  4.0000000E+04;  0.0000000E+00;  3.9991465E+04; -3.4122992E-02;  0.0000000E+00; -6.8083000E-03;  1.0481266E+03;
  4.6170545E-01;  9.9999998E-03;  9.0016767E-02;5291; -2.6181147E-02;  0.0000000E+00; -7.2616513E-04;  9.9971204E+02;  1.0000000E-01; -2.3856114E+02;3;  2.2239528E+00;  0.0000000E+00; -8.8460761E-01;0; -4.0788975E-02;  3.9985188E+04;  0.0000000E+00;  4.7826830E-02;  4.0000000E+04;  0.0000000E+00;  3.9991777E+04; -3.4249324E-02;  0.0000000E+00; -6.5396503E-03;  1.0181644E+03;
  4.6169493E-01;  9.9999998E-03;  1.0002121E-01;5292; -2.6046302E-02;  0.0000000E+00; -7.9109537E-04;  9.9973810E+02;  1.0000000E-01; -2.1698151E+02;3;  2.2228374E+00;  0.0000000E+00; -9.7250390E-01;0; -4.0618673E-02;  3.9986660E+04;  0.0000000E+00;  5.1623080E-02;  4.0000000E+04;  0.0000000E+00;  3.9992078E+04; -3.4363542E-02;  0.0000000E+00; -6.2551331E-03;  9.6777252E+02;
  4.6168429E-01;  9.9999998E-03;  1.1002494E-01;5293; -2.5901679E-02;  0.0000000E+00; -8.5216499E-04;  9.9974896E+02;  1.0000000E-01; -2.0799409E+02;3;  2.2227752E+00;  0.0000000E+00; -1.0573221E+00;0; -4.0418785E-02;  3.9986965E+04;  0.0000000E+00;  5.2601557E-02;  4.0000000E+04;  0.0000000E+00;  3.9992645E+04; -3.4460310E-02;  0.0000000E+00; -5.9584738E-03;  8.9984119E+02;
  4.6167368E-01;  9.9999998E-03;  1.2002756E-01;5294; -2.5748273E-02;  0.0000000E+00; -9.0942578E-04;  9.9974481E+02;  1.0000000E-01; -2.1140141E+02;3;  2.2243061E+00;  0.0000000E+00; -1.1388298E+00;0; -4.0188547E-02;  3.9985902E+04;  0.0000000E+00;  4.9949609E-02;  4.0000000E+04;  0.0000000E+00;  3.9993402E+04; -3.4535073E-02;  0.0000000E+00; -5.6534731E-03;  8.1813086E+02;
  4.6166447E-01;  9.9999998E-03;  1.3002907E-01;5295; -2.5587091E-02;  0.0000000E+00; -9.6298970E-04;  9.9972791E+02;  1.0000000E-01; -2.2542570E+02;3;  2.2278750E+00;  0.0000000E+00; -1.2168175E+00;0; -3.9928753E-02;  3.9983668E+04;  0.0000000E+00;  4.2837434E-02;  4.0000000E+04;  0.0000000E+00;  3.9994074E+04; -3.4584466E-02;  0.0000000E+00; -5.3442870E-03;  7.2578247E+02;
  4.6165690E-01;  9.9999998E-03;  1.4002958E-01;5296; -2.5419086E-02;  0.0000000E+00; -1.0129588E-03;  9.9969342E+02;  1.0000000E-01; -2.5401749E+02;3;  2.2337661E+00;  0.0000000E+00; -1.2910930E+00;0; -3.9642170E-02;  3.9979977E+04;  0.0000000E+00;  3.0475222E-02;  4.0000000E+04;  0.0000000E+00;  3.9994836E+04; -3.4606788E-02;  0.0000000E+00; -5.0353813E-03;  6.2409851E+02;
  4.6165171E-01;  9.9999998E-03;  1.5002933E-01;5297; -2.5245199E-02;  0.0000000E+00; -1.0594405E-03;  9.9964587E+02;  1.0000000E-01; -2.9337439E+02;3;  2.2425041E+00;  0.0000000E+00; -1.3615460E+00;0; -3.9333444E-02;  3.9975348E+04;  0.0000000E+00;  1.2199946E-02;  4.0000000E+04;  0.0000000E+00;  3.9995758E+04; -3.4601528E-02;  0.0000000E+00; -4.7319154E-03;  5.1260852E+02;
  4.6165001E-01;  9.9999998E-03;  1.6002864E-01;5298; -2.5066355E-02;  0.0000000E+00; -1.1027489E-03;  9.9958795E+02;  1.0000000E-01; -3.4137305E+02;3;  2.2544556E+00;  0.0000000E+00; -1.4279811E+00;0; -3.9010413E-02;  3.9969734E+04;  0.0000000E+00; -1.2187049E-02;  4.0000000E+04;  0.0000000E+00;  3.9996398E+04; -3.4569927E-02;  0.0000000E+00; -4.4404883E-03;  3.9142407E+02;
  4.6165201E-01;  9.9999998E-03;  1.7002746E-01;5299; -2.4883408E-02;  0.0000000E+00; -1.1434229E-03;  9.9952026E+02;  1.0000000E-01; -3.9747021E+02;3;  2.2697999E+00;  0.0000000E+00; -1.4901296E+00;0; -3.8682498E-02;  3.9963301E+04;  0.0000000E+00; -4.1880302E-02;  4.0000000E+04;  0.0000000E+00;  3.9997797E+04; -3.4514625E-02;  0.0000000E+00; -4.1678725E-03;  2.6528284E+02;
  4.6165749E-01;  9.9999998E-03;  1.8002586E-01;5300; -2.4697196E-02;  0.0000000E+00; -1.1820733E-03;  9.9944482E+02;  1.0000000E-01; -4.5993756E+02;3;  2.2889078E+00;  0.0000000E+00; -1.5477364E+00;0; -3.8358547E-02;  3.9955855E+04;  0.0000000E+00; -7.5017408E-02;  4.0000000E+04;  0.0000000E+00;  3.9998742E+04; -3.4439418E-02;  0.0000000E+00; -3.9191269E-03;  1.5656039E+02;
  4.6166530E-01;  9.9999998E-03;  1.9002387E-01;5301; -2.4508534E-02;  0.0000000E+00; -1.2192294E-03;  9.9936121E+02;  1.0000000E-01; -5.2921954E+02;3;  2.3120816E+00;  0.0000000E+00; -1.6006614E+00;0; -3.8046122E-02;  3.9948188E+04;  0.0000000E+00; -1.0906205E-01;  4.0000000E+04;  0.0000000E+00;  3.9999816E+04; -3.4349363E-02;  0.0000000E+00; -3.6967578E-03;  1.5784271E+02;
  4.6167436E-01;  9.9999998E-03;  2.0002118E-01;5302; -2.4318255E-02;  0.0000000E+00; -1.2551288E-03;  9.9927466E+02;  1.0000000E-01; -6.0092120E+02;3;  2.3393652E+00;  0.0000000E+00; -1.6488967E+00;0; -3.7750904E-02;  3.9939812E+04;  0.0000000E+00; -1.4138818E-01;  4.0000000E+04;  0.0000000E+00;  4.0001188E+04; -3.4249812E-02;  0.0000000E+00; -3.5010921E-03;  2.8405157E+02;
  4.6168381E-01;  9.9999998E-03;  2.1001779E-01;5303; -2.4127062E-02;  0.0000000E+00; -1.2893273E-03;  9.9918823E+02;  1.0000000E-01; -6.7252411E+02;3;  2.3707945E+00;  0.0000000E+00; -1.6926967E+00;0; -3.7476461E-02;  3.9931199E+04;  0.0000000E+00; -1.6970830E-01;  4.0000000E+04;  0.0000000E+00;  4.0002508E+04; -3.4145970E-02;  0.0000000E+00; -3.3304910E-03;  4.5681818E+02;
  4.6169132E-01;  9.9999998E-03;  2.2001439E-01;5304; -2.3935260E-02;  0.0000000E+00; -1.3202796E-03;  9.9910004E+02;  1.0000000E-01; -7.4560846E+02;3;  2.4063292E+00;  0.0000000E+00; -1.7322521E+00;0; -3.7222054E-02;  3.9922625E+04;  0.0000000E+00; -1.9212477E-01;  4.0000000E+04;  0.0000000E+00;  4.0004398E+04; -3.4042798E-02;  0.0000000E+00; -3.1792545E-03;  6.6208966E+02;
  4.6169537E-01;  9.9999998E-03;  2.3001240E-01;5305; -2.3742950E-02;  0.0000000E+00; -1.3461839E-03;  9.9901605E+02;  1.0000000E-01; -8.1518677E+02;3;  2.4457705E+00;  0.0000000E+00; -1.7682631E+00;0; -3.6977325E-02;  3.9914383E+04;  0.0000000E+00; -2.0662090E-01;  4.0000000E+04;  0.0000000E+00;  4.0005969E+04; -3.3944342E-02;  0.0000000E+00; -3.0329812E-03;  8.7067798E+02;
  4.7170547E-01;  9.9999998E-03;  7.0004806E-02;5350; -2.6753802E-02;  0.0000000E+00; -6.5278157E-04;  9.9972479E+02;  1.0000000E-01; -2.2799353E+02;3;  2.3658674E+00;  0.0000000E+00; -7.3147017E-01;0; -4.0872570E-02;  3.9986762E+04;  0.0000000E+00;  1.3594294E-02;  4.0000000E+04;  0.0000000E+00;  3.9991508E+04; -3.2915436E-02;  0.0000000E+00; -7.9571353E-03;  1.0541067E+03;
  4.7169280E-01;  9.9999998E-03;  8.0008276E-02;5351; -2.6643943E-02;  0.0000000E+00; -7.3601224E-04;  9.9976172E+02;  1.0000000E-01; -1.9742650E+02;3;  2.3611810E+00;  0.0000000E+00; -8.2873386E-01;0; -4.0734068E-02;  3.9989645E+04;  0.0000000E+00;  1.4733804E-02;  4.0000000E+04;  0.0000000E+00;  3.9991344E+04; -3.3042192E-02;  0.0000000E+00; -7.6918737E-03;  1.0571219E+03;
  4.7168037E-01;  9.9999998E-03;  9.0011932E-02;5352; -2.6522582E-02;  0.0000000E+00; -8.1545446E-04;  9.9979034E+02;  1.0000000E-01; -1.7367409E+02;3;  2.3567138E+00;  0.0000000E+00; -9.2323548E-01;0; -4.0568411E-02;  3.9991672E+04;  0.0000000E+00;  1.4678543E-02;  4.0000000E+04;  0.0000000E+00;  3.9991617E+04; -3.3165332E-02;  0.0000000E+00; -7.4030804E-03;  1.0400037E+03;
  4.7166815E-01;  9.9999998E-03;  1.0001536E-01;5353; -2.6390532E-02;  0.0000000E+00; -8.9082925E-04;  9.9981079E+02;  1.0000000E-01; -1.5673630E+02;3;  2.3528597E+00;  0.0000000E+00; -1.0147052E+00;0; -4.0373158E-02;  3.9992863E+04;  0.0000000E+00;  1.3183394E-02;  4.0000000E+04;  0.0000000E+00;  3.9991879E+04; -3.3278823E-02;  0.0000000E+00; -7.0943348E-03;  1.0035325E+03;
  4.7165704E-01;  9.9999998E-03;  1.1001811E-01;5354; -2.6248606E-02;  0.0000000E+00; -9.6195034E-04;  9.9981897E+02;  1.0000000E-01; -1.4997105E+02;3;  2.3501079E+00;  0.0000000E+00; -1.1028805E+00;0; -4.0146858E-02;  3.9993004E+04;  0.0000000E+00;  1.0015586E-02;  4.0000000E+04;  0.0000000E+00;  3.9992312E+04; -3.3377368E-02;  0.0000000E+00; -6.7694909E-03;  9.5000299E+02;
  4.7164789E-01;  9.9999998E-03;  1.2001984E-01;5355; -2.6097585E-02;  0.0000000E+00; -1.0287134E-03;  9.9981299E+02;  1.0000000E-01; -1.5495857E+02;3;  2.3487537E+00;  0.0000000E+00; -1.1875118E+00;0; -3.9888632E-02;  3.9992102E+04;  0.0000000E+00;  4.9250452E-03;  4.0000000E+04;  0.0000000E+00;  3.9992898E+04; -3.3455923E-02;  0.0000000E+00; -6.4327074E-03;  8.8275018E+02;
  4.7164148E-01;  9.9999998E-03;  1.3002047E-01;5356; -2.5938226E-02;  0.0000000E+00; -1.0910793E-03;  9.9979468E+02;  1.0000000E-01; -1.7011864E+02;3;  2.3492129E+00;  0.0000000E+00; -1.2683804E+00;0; -3.9599448E-02;  3.9989824E+04;  0.0000000E+00; -2.3987126E-03;  4.0000000E+04;  0.0000000E+00;  3.9993383E+04; -3.3510812E-02;  0.0000000E+00; -6.0886354E-03;  8.0442078E+02;
  4.7163823E-01;  9.9999998E-03;  1.4002009E-01;5357; -2.5771290E-02;  0.0000000E+00; -1.1490416E-03;  9.9976221E+02;  1.0000000E-01; -1.9703145E+02;3;  2.3520427E+00;  0.0000000E+00; -1.3453044E+00;0; -3.9281912E-02;  3.9986598E+04;  0.0000000E+00; -1.2354976E-02;  4.0000000E+04;  0.0000000E+00;  3.9994145E+04; -3.3539541E-02;  0.0000000E+00; -5.7423706E-03;  7.1608929E+02;
  4.7163826E-01;  9.9999998E-03;  1.5001908E-01;5358; -2.5597572E-02;  0.0000000E+00; -1.2026333E-03;  9.9971881E+02;  1.0000000E-01; -2.3298105E+02;3;  2.3575478E+00;  0.0000000E+00; -1.4181529E+00;0; -3.8940538E-02;  3.9982340E+04;  0.0000000E+00; -2.5407653E-02;  4.0000000E+04;  0.0000000E+00;  3.9994840E+04; -3.3540774E-02;  0.0000000E+00; -5.3997631E-03;  6.1691718E+02;
  4.7164196E-01;  9.9999998E-03;  1.6001789E-01;5359; -2.5417935E-02;  0.0000000E+00; -1.2521435E-03;  9.9966516E+02;  1.0000000E-01; -2.7742422E+02;3;  2.3662586E+00;  0.0000000E+00; -1.4867247E+00;0; -3.8583316E-02;  3.9977098E+04;  0.0000000E+00; -4.1861482E-02;  4.0000000E+04;  0.0000000E+00;  3.9995895E+04; -3.3514913E-02;  0.0000000E+00; -5.0684009E-03;  5.0562476E+02;
  4.7164932E-01;  9.9999998E-03;  1.7001688E-01;5360; -2.5233286E-02;  0.0000000E+00; -1.2981524E-03;  9.9959985E+02;  1.0000000E-01; -3.3149677E+02;3;  2.3784127E+00;  0.0000000E+00; -1.5507388E+00;0; -3.8220216E-02;  3.9970922E+04;  0.0000000E+00; -6.1430160E-02;  4.0000000E+04;  0.0000000E+00;  3.9996723E+04; -3.3463892E-02;  0.0000000E+00; -4.7563249E-03;  3.8256152E+02;
  4.7165993E-01;  9.9999998E-03;  1.8001616E-01;5361; -2.5044613E-02;  0.0000000E+00; -1.3413227E-03;  9.9953113E+02;  1.0000000E-01; -3.8843344E+02;3;  2.3944411E+00;  0.0000000E+00; -1.6099271E+00;0; -3.7860762E-02;  3.9964148E+04;  0.0000000E+00; -8.3175555E-02;  4.0000000E+04;  0.0000000E+00;  3.9997637E+04; -3.3390950E-02;  0.0000000E+00; -4.4698115E-03;  2.5418628E+02;
  4.7167271E-01;  9.9999998E-03;  1.9001584E-01;5362; -2.4852969E-02;  0.0000000E+00; -1.3822053E-03;  9.9945410E+02;  1.0000000E-01; -4.5228348E+02;3;  2.4145670E+00;  0.0000000E+00; -1.6641319E+00;0; -3.7512988E-02;  3.9956531E+04;  0.0000000E+00; -1.0573682E-01;  4.0000000E+04;  0.0000000E+00;  3.9999078E+04; -3.3300806E-02;  0.0000000E+00; -4.2121802E-03;  1.6068900E+02;
  4.7168520E-01;  9.9999998E-03;  2.0001601E-01;5363; -2.4659352E-02;  0.0000000E+00; -1.4210488E-03;  9.9937207E+02;  1.0000000E-01; -5.2023218E+02;3;  2.4389992E+00;  0.0000000E+00; -1.7134047E+00;0; -3.7182346E-02;  3.9948723E+04;  0.0000000E+00; -1.2761186E-01;  4.0000000E+04;  0.0000000E+00;  4.0000504E+04; -3.3198602E-02;  0.0000000E+00; -3.9837416E-03;  2.1269402E+02;
  4.7169521E-01;  9.9999998E-03;  2.1001686E-01;5364; -2.4464637E-02;  0.0000000E+00; -1.4579697E-03;  9.9928851E+02;  1.0000000E-01; -5.8946478E+02;3;  2.4677415E+00;  0.0000000E+00; -1.7578923E+00;0; -3.6872350E-02;  3.9940738E+04;  0.0000000E+00; -1.4730878E-01;  4.0000000E+04;  0.0000000E+00;  4.0001867E+04; -3.3089902E-02;  0.0000000E+00; -3.7824460E-03;  3.5671655E+02;
  4.7170025E-01;  9.9999998E-03;  2.2001848E-01;5365; -2.4269301E-02;  0.0000000E+00; -1.4945408E-03;  9.9920117E+02;  1.0000000E-01; -6.6180841E+02;3;  2.5008013E+00;  0.0000000E+00; -1.7981716E+00;0; -3.6586907E-02;  3.9932684E+04;  0.0000000E+00; -1.6316670E-01;  4.0000000E+04;  0.0000000E+00;  4.0003031E+04; -3.2979604E-02;  0.0000000E+00; -3.6073041E-03;  4.9354343E+02;
  4.7169921E-01;  9.9999998E-03;  2.3001958E-01;5366; -2.4073659E-02;  0.0000000E+00; -1.5344723E-03;  9.9911377E+02;  1.0000000E-01; -7.3420142E+02;3;  2.5380280E+00;  0.0000000E+00; -1.8344126E+00;0; -3.6341425E-02;  3.9924781E+04;  0.0000000E+00; -1.7272957E-01;  4.0000000E+04;  0.0000000E+00;  4.0003918E+04; -3.2872066E-02;  0.0000000E+00; -3.4693580E-03;  5.9379755E+02;
  4.8165658E-01;  9.9999998E-03;  1.1001351E-01;5415; -2.6577620E-02;  0.0000000E+00; -1.0723444E-03;  9.9990509E+02;  1.0000146E-01; -7.8615051E+01;3;  2.4815075E+00;  0.0000000E+00; -1.1487997E+00;0; -3.9863989E-02;  3.9999273E+04;  0.0000000E+00; -3.4271240E-02;  4.0000000E+04;  0.0000000E+00;  3.9991988E+04; -3.2266952E-02;  0.0000000E+00; -7.5970367E-03;  1.0000644E+03;
  4.8164871E-01;  9.9999998E-03;  1.2001434E-01;5416; -2.6428759E-02;  0.0000000E+00; -1.1489759E-03;  9.9989703E+02;  1.0000150E-01; -8.5281532E+01;3;  2.4769039E+00;  0.0000000E+00; -1.2366205E+00;0; -3.9575797E-02;  3.9998512E+04;  0.0000000E+00; -3.9796505E-02;  4.0000000E+04;  0.0000000E+00;  3.9992281E+04; -3.2346055E-02;  0.0000000E+00; -7.2297407E-03;  9.5238373E+02;
  4.8166835E-01;  9.9999998E-03;  1.0001177E-01;5414; -2.6717175E-02;  0.0000000E+00; -9.9088659E-04;  9.9990186E+02;  1.0000148E-01; -8.1331024E+01;3;  2.4873614E+00;  0.0000000E+00; -1.0571980E+00;0; -4.0119104E-02;  3.9999453E+04;  0.0000000E+00; -2.8373184E-02;  4.0000000E+04;  0.0000000E+00;  3.9991754E+04; -3.2170739E-02;  0.0000000E+00; -7.9483641E-03;  1.0344043E+03;
  4.8164451E-01;  9.9999998E-03;  1.3001417E-01;5417; -2.6271090E-02;  0.0000000E+00; -1.2205628E-03;  9.9988098E+02;  1.0000146E-01; -9.8614487E+01;3;  2.4740832E+00;  0.0000000E+00; -1.3204275E+00;0; -3.9255612E-02;  3.9996219E+04;  0.0000000E+00; -4.4839889E-02;  4.0000000E+04;  0.0000000E+00;  3.9992816E+04; -3.2404114E-02;  0.0000000E+00; -6.8514971E-03;  8.9246722E+02;
  4.8168337E-01;  9.9999998E-03;  9.0009421E-02;5413; -2.6846891E-02;  0.0000000E+00; -9.0488303E-04;  9.9989374E+02;  1.0000148E-01; -8.8046883E+01;3;  2.4940538E+00;  0.0000000E+00; -9.6209508E-01;0; -4.0341675E-02;  3.9998852E+04;  0.0000000E+00; -2.2406250E-02;  4.0000000E+04;  0.0000000E+00;  3.9991574E+04; -3.2062389E-02;  0.0000000E+00; -8.2792845E-03;  1.0536240E+03;
  4.8170123E-01;  9.9999998E-03;  8.0006748E-02;5412; -2.6966168E-02;  0.0000000E+00; -8.1469124E-04;  9.9987378E+02;  1.0000142E-01; -1.0458963E+02;3;  2.5012546E+00;  0.0000000E+00; -8.6377043E-01;0; -4.0533140E-02;  3.9997430E+04;  0.0000000E+00; -1.6762154E-02;  4.0000000E+04;  0.0000000E+00;  3.9991539E+04; -3.1947151E-02;  0.0000000E+00; -8.5859876E-03;  1.0566328E+03;
  4.8164326E-01;  9.9999998E-03;  1.4001317E-01;5418; -2.6105132E-02;  0.0000000E+00; -1.2869437E-03;  9.9984802E+02;  1.0000150E-01; -1.2592236E+02;3;  2.4734163E+00;  0.0000000E+00; -1.4000341E+00;0; -3.8906004E-02;  3.9993562E+04;  0.0000000E+00; -4.9556851E-02;  4.0000000E+04;  0.0000000E+00;  3.9993156E+04; -3.2438040E-02;  0.0000000E+00; -6.4679654E-03;  8.2001660E+02;
  4.8172086E-01;  9.9999998E-03;  7.0004046E-02;5411; -2.7074324E-02;  0.0000000E+00; -7.2074082E-04;  9.9985138E+02;  1.0000142E-01; -1.2310762E+02;3;  2.5084190E+00;  0.0000000E+00; -7.6250905E-01;0; -4.0695414E-02;  3.9995762E+04;  0.0000000E+00; -1.1798163E-02;  4.0000000E+04;  0.0000000E+00;  3.9991520E+04; -3.1830382E-02;  0.0000000E+00; -8.8650314E-03;  1.0433947E+03;
  4.8164421E-01;  9.9999998E-03;  1.5001185E-01;5419; -2.5931504E-02;  0.0000000E+00; -1.3480333E-03;  9.9980682E+02;  1.0000141E-01; -1.6004485E+02;3;  2.4754286E+00;  0.0000000E+00; -1.4752864E+00;0; -3.8531657E-02;  3.9989520E+04;  0.0000000E+00; -5.4406159E-02;  4.0000000E+04;  0.0000000E+00;  3.9993988E+04; -3.2445934E-02;  0.0000000E+00; -6.0857236E-03;  7.3291388E+02;
  4.8164657E-01;  9.9999998E-03;  1.6001074E-01;5420; -2.5750946E-02;  0.0000000E+00; -1.4040448E-03;  9.9975739E+02;  1.0000144E-01; -2.0098195E+02;3;  2.4805329E+00;  0.0000000E+00; -1.5459657E+00;0; -3.8140763E-02;  3.9984641E+04;  0.0000000E+00; -6.0047988E-02;  4.0000000E+04;  0.0000000E+00;  3.9994797E+04; -3.2427374E-02;  0.0000000E+00; -5.7133879E-03;  6.2822180E+02;
  4.8164985E-01;  9.9999998E-03;  1.7001024E-01;5421; -2.5564382E-02;  0.0000000E+00; -1.4555498E-03;  9.9969598E+02;  1.0000145E-01; -2.5189409E+02;3;  2.4891148E+00;  0.0000000E+00; -1.6117784E+00;0; -3.7743770E-02;  3.9978566E+04;  0.0000000E+00; -6.7018993E-02;  4.0000000E+04;  0.0000000E+00;  3.9995746E+04; -3.2383349E-02;  0.0000000E+00; -5.3604199E-03;  5.0342386E+02;
  4.8165318E-01;  9.9999998E-03;  1.8001078E-01;5422; -2.5372881E-02;  0.0000000E+00; -1.5032579E-03;  9.9962787E+02;  1.0000140E-01; -3.0828757E+02;3;  2.5015726E+00;  0.0000000E+00; -1.6724461E+00;0; -3.7351076E-02;  3.9972180E+04;  0.0000000E+00; -7.5594492E-02;  4.0000000E+04;  0.0000000E+00;  3.9996973E+04; -3.2316610E-02;  0.0000000E+00; -5.0344639E-03;  3.5902859E+02;
  4.8165581E-01;  9.9999998E-03;  1.9001271E-01;5423; -2.5177648E-02;  0.0000000E+00; -1.5477577E-03;  9.9955499E+02;  1.0000148E-01; -3.6868091E+02;3;  2.5182703E+00;  0.0000000E+00; -1.7278268E+00;0; -3.6970858E-02;  3.9964891E+04;  0.0000000E+00; -8.5774079E-02;  4.0000000E+04;  0.0000000E+00;  3.9998340E+04; -3.2231018E-02;  0.0000000E+00; -4.7398391E-03;  2.0910240E+02;
  4.8165676E-01;  9.9999998E-03;  2.0001635E-01;5424; -2.4979917E-02;  0.0000000E+00; -1.5896050E-03;  9.9947321E+02;  1.0000140E-01; -4.3643207E+02;3;  2.5393937E+00;  0.0000000E+00; -1.7780097E+00;0; -3.6608793E-02;  3.9956891E+04;  0.0000000E+00; -9.7221270E-02;  4.0000000E+04;  0.0000000E+00;  3.9999672E+04; -3.2131478E-02;  0.0000000E+00; -4.4773165E-03;  1.3561057E+02;
  4.8165345E-01;  9.9999998E-03;  2.1002124E-01;5425; -2.4780761E-02;  0.0000000E+00; -1.6301504E-03;  9.9938354E+02;  1.0000147E-01; -5.1070157E+02;3;  2.5650566E+00;  0.0000000E+00; -1.8231387E+00;0; -3.6268830E-02;  3.9948797E+04;  0.0000000E+00; -1.0913153E-01;  4.0000000E+04;  0.0000000E+00;  4.0000859E+04; -3.2023150E-02;  0.0000000E+00; -4.2456789E-03;  2.1348000E+02;
  4.8164585E-01;  9.9999998E-03;  2.2002605E-01;5426; -2.4581056E-02;  0.0000000E+00; -1.6737191E-03;  9.9928998E+02;  1.0000146E-01; -5.8823022E+02;3;  2.5953600E+00;  0.0000000E+00; -1.8637491E+00;0; -3.5961285E-02;  3.9940762E+04;  0.0000000E+00; -1.1995013E-01;  4.0000000E+04;  0.0000000E+00;  4.0001324E+04; -3.1910922E-02;  0.0000000E+00; -4.0503619E-03;  2.8133664E+02;
  4.8163548E-01;  9.9999998E-03;  2.3002768E-01;5427; -2.4381531E-02;  0.0000000E+00; -1.7263844E-03;  9.9919513E+02;  1.0000141E-01; -6.6679590E+02;3;  2.6301663E+00;  0.0000000E+00; -1.9001117E+00;0; -3.5719901E-02;  3.9932898E+04;  0.0000000E+00; -1.2702587E-01;  4.0000000E+04;  0.0000000E+00;  4.0001543E+04; -3.1798776E-02;  0.0000000E+00; -3.9211232E-03;  3.1537961E+02;
  4.9180219E-01;  9.9999998E-03;  6.9994263E-02;5472; -2.7379027E-02;  0.0000000E+00; -7.8957260E-04;  9.9995587E+02;  1.0000208E-01; -3.6542175E+01;3;  2.6567445E+00;  0.0000000E+00; -7.9372597E-01;0; -4.0509880E-02;  4.0003277E+04;  0.0000000E+00; -3.9713189E-02;  4.0000000E+04;  0.0000000E+00;  3.9991746E+04; -3.0734684E-02;  0.0000000E+00; -9.7751953E-03;  1.0379482E+03;
  4.9177778E-01;  9.9999998E-03;  7.9995438E-02;5473; -2.7272271E-02;  0.0000000E+00; -8.9429453E-04;  9.9996332E+02;  1.0000209E-01; -3.0369509E+01;3;  2.6468635E+00;  0.0000000E+00; -8.9904851E-01;0; -4.0323347E-02;  4.0004086E+04;  0.0000000E+00; -5.0365962E-02;  4.0000000E+04;  0.0000000E+00;  3.9991480E+04; -3.0837677E-02;  0.0000000E+00; -9.4856685E-03;  1.0586522E+03;
  4.9175447E-01;  9.9999998E-03;  8.9996845E-02;5474; -2.7154721E-02;  0.0000000E+00; -9.9532783E-04;  9.9996991E+02;  1.0000204E-01; -2.4937565E+01;3;  2.6367662E+00;  0.0000000E+00; -1.0012658E+00;0; -4.0105727E-02;  4.0004695E+04;  0.0000000E+00; -6.0663000E-02;  4.0000000E+04;  0.0000000E+00;  3.9991555E+04; -3.0941587E-02;  0.0000000E+00; -9.1641406E-03;  1.0684705E+03;
  4.9173394E-01;  9.9999998E-03;  9.9998169E-02;5475; -2.7026949E-02;  0.0000000E+00; -1.0920969E-03;  9.9997205E+02;  1.0000208E-01; -2.3159838E+01;3;  2.6268489E+00;  0.0000000E+00; -1.1000680E+00;0; -3.9855540E-02;  4.0004656E+04;  0.0000000E+00; -6.9623597E-02;  4.0000000E+04;  0.0000000E+00;  3.9991574E+04; -3.1041773E-02;  0.0000000E+00; -8.8137668E-03;  1.0663601E+03;
  4.9171728E-01;  9.9999998E-03;  1.0999916E-01;5476; -2.6889380E-02;  0.0000000E+00; -1.1840813E-03;  9.9996680E+02;  1.0000202E-01; -2.7505392E+01;3;  2.6175799E+00;  0.0000000E+00; -1.1951430E+00;0; -3.9571520E-02;  4.0004410E+04;  0.0000000E+00; -7.6311171E-02;  4.0000000E+04;  0.0000000E+00;  3.9991520E+04; -3.1133173E-02;  0.0000000E+00; -8.4383478E-03;  1.0516752E+03;
  4.9170560E-01;  9.9999998E-03;  1.1999952E-01;5477; -2.6742360E-02;  0.0000000E+00; -1.2708245E-03;  9.9995721E+02;  1.0000196E-01; -3.5455784E+01;3;  2.6093929E+00;  0.0000000E+00; -1.2862091E+00;0; -3.9253589E-02;  4.0003527E+04;  0.0000000E+00; -7.9980433E-02;  4.0000000E+04;  0.0000000E+00;  3.9991934E+04; -3.1211073E-02;  0.0000000E+00; -8.0425153E-03;  1.0237729E+03;
  4.9169907E-01;  9.9999998E-03;  1.2999916E-01;5478; -2.6586179E-02;  0.0000000E+00; -1.3519352E-03;  9.9994025E+02;  1.0000198E-01; -4.9480080E+01;3;  2.6028476E+00;  0.0000000E+00; -1.3730133E+00;0; -3.8902801E-02;  4.0001457E+04;  0.0000000E+00; -8.0271810E-02;  4.0000000E+04;  0.0000000E+00;  3.9992262E+04; -3.1271067E-02;  0.0000000E+00; -7.6317335E-03;  9.8143097E+02;
  4.9169713E-01;  9.9999998E-03;  1.3999827E-01;5479; -2.6421163E-02;  0.0000000E+00; -1.4270903E-03;  9.9991339E+02;  1.0000201E-01; -7.1751053E+01;3;  2.5983646E+00;  0.0000000E+00; -1.4553554E+00;0; -3.8522020E-02;  3.9998855E+04;  0.0000000E+00; -7.7315211E-02;  4.0000000E+04;  0.0000000E+00;  3.9992508E+04; -3.1309761E-02;  0.0000000E+00; -7.2122589E-03;  9.2239612E+02;
  4.9169877E-01;  9.9999998E-03;  1.4999734E-01;5480; -2.6247766E-02;  0.0000000E+00; -1.4960754E-03;  9.9987097E+02;  1.0000207E-01; -1.0691055E+02;3;  2.5965021E+00;  0.0000000E+00; -1.5330606E+00;0; -3.8115781E-02;  3.9995312E+04;  0.0000000E+00; -7.1796618E-02;  4.0000000E+04;  0.0000000E+00;  3.9993137E+04; -3.1324450E-02;  0.0000000E+00; -6.7913295E-03;  8.4296753E+02;
  4.9170297E-01;  9.9999998E-03;  1.5999697E-01;5481; -2.6066635E-02;  0.0000000E+00; -1.5590223E-03;  9.9982574E+02;  1.0000201E-01; -1.4439096E+02;3;  2.5976233E+00;  0.0000000E+00; -1.6058918E+00;0; -3.7692703E-02;  3.9990559E+04;  0.0000000E+00; -6.5002456E-02;  4.0000000E+04;  0.0000000E+00;  3.9993816E+04; -3.1314023E-02;  0.0000000E+00; -6.3786791E-03;  7.3845367E+02;
  4.9170804E-01;  9.9999998E-03;  1.6999786E-01;5482; -2.5878618E-02;  0.0000000E+00; -1.6164694E-03;  9.9976562E+02;  1.0000210E-01; -1.9416733E+02;3;  2.6023579E+00;  0.0000000E+00; -1.6735443E+00;0; -3.7263740E-02;  3.9984969E+04;  0.0000000E+00; -5.8556497E-02;  4.0000000E+04;  0.0000000E+00;  3.9995129E+04; -3.1278573E-02;  0.0000000E+00; -5.9851655E-03;  6.0404236E+02;
  4.9171221E-01;  9.9999998E-03;  1.8000038E-01;5483; -2.5684826E-02;  0.0000000E+00; -1.6691070E-03;  9.9970148E+02;  1.0000210E-01; -2.4730164E+02;3;  2.6109855E+00;  0.0000000E+00; -1.7357415E+00;0; -3.6840156E-02;  3.9978160E+04;  0.0000000E+00; -5.4165017E-02;  4.0000000E+04;  0.0000000E+00;  3.9996250E+04; -3.1220281E-02;  0.0000000E+00; -5.6198724E-03;  4.3774503E+02;
  4.9171236E-01;  9.9999998E-03;  1.9000490E-01;5484; -2.5486451E-02;  0.0000000E+00; -1.7175456E-03;  9.9962274E+02;  1.0000215E-01; -3.1253433E+02;3;  2.6239455E+00;  0.0000000E+00; -1.7923450E+00;0; -3.6430530E-02;  3.9970551E+04;  0.0000000E+00; -5.3281594E-02;  4.0000000E+04;  0.0000000E+00;  3.9997812E+04; -3.1142363E-02;  0.0000000E+00; -5.2881683E-03;  2.4780637E+02;
  4.9170566E-01;  9.9999998E-03;  2.0001118E-01;5485; -2.5284814E-02;  0.0000000E+00; -1.7622056E-03;  9.9953778E+02;  1.0000195E-01; -3.8295212E+02;3;  2.6414459E+00;  0.0000000E+00; -1.8433681E+00;0; -3.6040530E-02;  3.9962242E+04;  0.0000000E+00; -5.6699093E-02;  4.0000000E+04;  0.0000000E+00;  3.9999410E+04; -3.1049440E-02;  0.0000000E+00; -4.9910918E-03;  8.5679245E+01;
  4.9169400E-01;  9.9999998E-03;  2.1001929E-01;5486; -2.5081323E-02;  0.0000000E+00; -1.8048171E-03;  9.9944385E+02;  1.0000203E-01; -4.6077707E+02;3;  2.6638551E+00;  0.0000000E+00; -1.8890471E+00;0; -3.5673063E-02;  3.9953547E+04;  0.0000000E+00; -6.4212874E-02;  4.0000000E+04;  0.0000000E+00;  4.0000648E+04; -3.0945972E-02;  0.0000000E+00; -4.7270912E-03;  1.5011462E+02;
  4.9167743E-01;  9.9999998E-03;  2.2002767E-01;5487; -2.4877219E-02;  0.0000000E+00; -1.8519595E-03;  9.9934009E+02;  1.0000205E-01; -5.4670056E+02;3;  2.6911807E+00;  0.0000000E+00; -1.9299408E+00;0; -3.5340436E-02;  3.9944809E+04;  0.0000000E+00; -7.4371628E-02;  4.0000000E+04;  0.0000000E+00;  4.0000809E+04; -3.0836511E-02;  0.0000000E+00; -4.5039258E-03;  1.9969226E+02;
  4.9165633E-01;  9.9999998E-03;  2.3003085E-01;5488; -2.4673663E-02;  0.0000000E+00; -1.9120632E-03;  9.9922717E+02;  1.0000207E-01; -6.4027814E+02;3;  2.7232831E+00;  0.0000000E+00; -1.9663610E+00;0; -3.5087872E-02;  3.9936031E+04;  0.0000000E+00; -8.4313512E-02;  4.0000000E+04;  0.0000000E+00;  4.0000766E+04; -3.0725330E-02;  0.0000000E+00; -4.3625417E-03;  2.0651619E+02;
  5.0178248E-01;  9.9999998E-03;  6.9989629E-02;5533; -2.7664116E-02;  0.0000000E+00; -8.5853832E-04;  1.0000156E+03;  1.0000388E-01;  1.2937904E+01;3;  2.8086939E+00;  0.0000000E+00; -8.2485366E-01;0; -4.0311471E-02;  4.0006789E+04;  0.0000000E+00; -6.7307927E-02;  4.0000000E+04;  0.0000000E+00;  3.9991742E+04; -2.9648310E-02;  0.0000000E+00; -1.0663160E-02;  1.0501273E+03;
  5.0176662E-01;  9.9999998E-03;  7.9989038E-02;5534; -2.7558818E-02;  0.0000000E+00; -9.7393885E-04;  1.0000157E+03;  1.0000373E-01;  1.3036667E+01;3;  2.7961149E+00;  0.0000000E+00; -9.3425083E-01;0; -4.0101975E-02;  4.0006430E+04;  0.0000000E+00; -8.2583591E-02;  4.0000000E+04;  0.0000000E+00;  3.9991328E+04; -2.9734168E-02;  0.0000000E+00; -1.0367805E-02;  1.0744102E+03;
  5.0175107E-01;  9.9999998E-03;  8.9988790E-02;5535; -2.7443061E-02;  0.0000000E+00; -1.0857731E-03;  1.0000106E+03;  1.0000387E-01;  8.7898741E+00;3;  2.7830451E+00;  0.0000000E+00; -1.0403913E+00;0; -3.9859734E-02;  4.0006551E+04;  0.0000000E+00; -9.6051089E-02;  4.0000000E+04;  0.0000000E+00;  3.9991340E+04; -2.9823342E-02;  0.0000000E+00; -1.0036392E-02;  1.0934047E+03;
  5.0173634E-01;  9.9999998E-03;  9.9988900E-02;5536; -2.7317280E-02;  0.0000000E+00; -1.1933300E-03;  1.0000038E+03;  1.0000372E-01;  3.1604042E+00;3;  2.7699018E+00;  0.0000000E+00; -1.1429275E+00;0; -3.9583459E-02;  4.0006344E+04;  0.0000000E+00; -1.0621002E-01;  4.0000000E+04;  0.0000000E+00;  3.9991289E+04; -2.9911974E-02;  0.0000000E+00; -9.6714832E-03;  1.1048336E+03;
  5.0172371E-01;  9.9999998E-03;  1.0998911E-01;5537; -2.7181750E-02;  0.0000000E+00; -1.2959260E-03;  1.0000008E+03;  1.0000384E-01;  6.9133842E-01;3;  2.7570777E+00;  0.0000000E+00; -1.2415336E+00;0; -3.9272398E-02;  4.0005832E+04;  0.0000000E+00; -1.1170592E-01;  4.0000000E+04;  0.0000000E+00;  3.9991180E+04; -2.9995697E-02;  0.0000000E+00; -9.2766993E-03;  1.1057988E+03;
  5.0171393E-01;  9.9999998E-03;  1.1998913E-01;5538; -2.7036613E-02;  0.0000000E+00; -1.3929207E-03;  9.9998938E+02;  1.0000389E-01; -8.7898741E+00;3;  2.7451305E+00;  0.0000000E+00; -1.3358983E+00;0; -3.8926654E-02;  4.0005031E+04;  0.0000000E+00; -1.1155539E-01;  4.0000000E+04;  0.0000000E+00;  3.9991316E+04; -3.0069971E-02;  0.0000000E+00; -8.8566821E-03;  1.0930048E+03;
  5.0170743E-01;  9.9999998E-03;  1.2998880E-01;5539; -2.6881989E-02;  0.0000000E+00; -1.4837331E-03;  9.9997284E+02;  1.0000384E-01; -2.2517879E+01;3;  2.7345562E+00;  0.0000000E+00; -1.4257420E+00;0; -3.8547650E-02;  4.0003520E+04;  0.0000000E+00; -1.0535863E-01;  4.0000000E+04;  0.0000000E+00;  3.9991523E+04; -3.0130489E-02;  0.0000000E+00; -8.4171612E-03;  1.0625673E+03;
  5.0170404E-01;  9.9999998E-03;  1.3998842E-01;5540; -2.6718032E-02;  0.0000000E+00; -1.5678603E-03;  9.9994983E+02;  1.0000389E-01; -4.1579067E+01;3;  2.7259250E+00;  0.0000000E+00; -1.5108443E+00;0; -3.8138300E-02;  4.0001074E+04;  0.0000000E+00; -9.3428187E-02;  4.0000000E+04;  0.0000000E+00;  3.9991910E+04; -3.0173423E-02;  0.0000000E+00; -7.9648755E-03;  1.0101669E+03;
  5.0170320E-01;  9.9999998E-03;  1.4998840E-01;5541; -2.6545050E-02;  0.0000000E+00; -1.6449355E-03;  9.9991364E+02;  1.0000379E-01; -7.1553528E+01;3;  2.7197692E+00;  0.0000000E+00; -1.5910057E+00;0; -3.7703272E-02;  3.9997707E+04;  0.0000000E+00; -7.6879464E-02;  4.0000000E+04;  0.0000000E+00;  3.9992312E+04; -3.0195532E-02;  0.0000000E+00; -7.5077387E-03;  9.3077759E+02;
  5.0170422E-01;  9.9999998E-03;  1.5998931E-01;5542; -2.6363609E-02;  0.0000000E+00; -1.7149984E-03;  9.9986383E+02;  1.0000366E-01; -1.1283630E+02;3;  2.7165616E+00;  0.0000000E+00; -1.6659739E+00;0; -3.7251402E-02;  3.9993164E+04;  0.0000000E+00; -5.7786662E-02;  4.0000000E+04;  0.0000000E+00;  3.9993543E+04; -3.0194832E-02;  0.0000000E+00; -7.0565687E-03;  8.1889941E+02;
  5.0170571E-01;  9.9999998E-03;  1.6999173E-01;5543; -2.6174536E-02;  0.0000000E+00; -1.7785484E-03;  9.9980658E+02;  1.0000373E-01; -1.6024237E+02;3;  2.7169514E+00;  0.0000000E+00; -1.7354389E+00;0; -3.6794502E-02;  3.9987336E+04;  0.0000000E+00; -3.8954325E-02;  4.0000000E+04;  0.0000000E+00;  3.9994465E+04; -3.0170739E-02;  0.0000000E+00; -6.6237636E-03;  6.6962573E+02;
  5.0170588E-01;  9.9999998E-03;  1.7999586E-01;5544; -2.5978923E-02;  0.0000000E+00; -1.8363073E-03;  9.9973578E+02;  1.0000380E-01; -2.1890738E+02;3;  2.7213385E+00;  0.0000000E+00; -1.7991114E+00;0; -3.6344379E-02;  3.9980336E+04;  0.0000000E+00; -2.3446579E-02;  4.0000000E+04;  0.0000000E+00;  3.9996004E+04; -3.0124314E-02;  0.0000000E+00; -6.2200665E-03;  4.8151617E+02;
  5.0170243E-01;  9.9999998E-03;  1.9000159E-01;5545; -2.5778035E-02;  0.0000000E+00; -1.8888656E-03;  9.9965485E+02;  1.0000368E-01; -2.8596719E+02;3;  2.7301943E+00;  0.0000000E+00; -1.8568521E+00;0; -3.5910308E-02;  3.9972023E+04;  0.0000000E+00; -1.3935118E-02;  4.0000000E+04;  0.0000000E+00;  3.9997625E+04; -3.0058151E-02;  0.0000000E+00; -5.8521563E-03;  2.6185916E+02;
  5.0169605E-01;  9.9999998E-03;  2.0000874E-01;5546; -2.5573349E-02;  0.0000000E+00; -1.9367305E-03;  9.9956274E+02;  1.0000372E-01; -3.6226132E+02;3;  2.7439568E+00;  0.0000000E+00; -1.9087420E+00;0; -3.5497606E-02;  3.9962793E+04;  0.0000000E+00; -1.2087204E-02;  4.0000000E+04;  0.0000000E+00;  3.9999598E+04; -2.9975735E-02;  0.0000000E+00; -5.5218716E-03;  3.5719990E+01;
  5.0168687E-01;  9.9999998E-03;  2.1001729E-01;5547; -2.5366379E-02;  0.0000000E+00; -1.9815583E-03;  9.9945770E+02;  1.0000365E-01; -4.4927121E+02;3;  2.7628493E+00;  0.0000000E+00; -1.9551032E+00;0; -3.5108309E-02;  3.9953336E+04;  0.0000000E+00; -1.8197101E-02;  4.0000000E+04;  0.0000000E+00;  4.0000996E+04; -2.9881272E-02;  0.0000000E+00; -5.2270377E-03;  1.5747069E+02;
  5.0167471E-01;  9.9999998E-03;  2.2002591E-01;5548; -2.5158672E-02;  0.0000000E+00; -2.0296881E-03;  9.9934027E+02;  1.0000384E-01; -5.4655243E+02;3;  2.7869947E+00;  0.0000000E+00; -1.9962641E+00;0; -3.4752063E-02;  3.9943238E+04;  0.0000000E+00; -3.1056218E-02;  4.0000000E+04;  0.0000000E+00;  4.0001383E+04; -2.9779185E-02;  0.0000000E+00; -4.9728807E-03;  2.4359496E+02;
  5.0165969E-01;  9.9999998E-03;  2.3002997E-01;5549; -2.4951786E-02;  0.0000000E+00; -2.0901130E-03;  9.9921881E+02;  1.0000373E-01; -6.4719153E+02;3;  2.8164053E+00;  0.0000000E+00; -2.0329773E+00;0; -3.4470618E-02;  3.9933523E+04;  0.0000000E+00; -4.7938786E-02;  4.0000000E+04;  0.0000000E+00;  4.0001605E+04; -2.9673664E-02;  0.0000000E+00; -4.7969557E-03;  2.6270523E+02;
  5.1172334E-01;  9.9999998E-03;  6.9990486E-02;5594; -2.7934324E-02;  0.0000000E+00; -9.2762435E-04;  9.9999152E+02;  1.0000610E-01; -7.0121469E+00;3;  2.9653077E+00;  0.0000000E+00; -8.5617989E-01;0; -4.0088173E-02;  4.0002773E+04;  0.0000000E+00; -9.0620905E-02;  4.0000000E+04;  0.0000000E+00;  3.9991270E+04; -2.8562233E-02;  0.0000000E+00; -1.1525941E-02;  1.0884791E+03;
  5.1171553E-01;  9.9999998E-03;  7.9989061E-02;5595; -2.7830195E-02;  0.0000000E+00; -1.0534772E-03;  9.9998352E+02;  1.0000617E-01; -1.3629243E+01;3;  2.9499247E+00;  0.0000000E+00; -9.6966213E-01;0; -3.9858520E-02;  4.0002250E+04;  0.0000000E+00; -1.0877998E-01;  4.0000000E+04;  0.0000000E+00;  3.9991156E+04; -2.8630409E-02;  0.0000000E+00; -1.1228109E-02;  1.1115012E+03;
  5.1170820E-01;  9.9999998E-03;  8.9987680E-02;5596; -2.7715981E-02;  0.0000000E+00; -1.1759010E-03;  9.9998145E+02;  1.0000612E-01; -1.5357589E+01;3;  2.9335976E+00;  0.0000000E+00; -1.0797266E+00;0; -3.9594609E-02;  4.0002023E+04;  0.0000000E+00; -1.2353705E-01;  4.0000000E+04;  0.0000000E+00;  3.9990879E+04; -2.8703803E-02;  0.0000000E+00; -1.0890806E-02;  1.1341969E+03;
  5.1170117E-01;  9.9999998E-03;  9.9986523E-02;5597; -2.7592005E-02;  0.0000000E+00; -1.2940874E-03;  9.9997443E+02;  1.0000619E-01; -2.1184584E+01;3;  2.9169557E+00;  0.0000000E+00; -1.1860071E+00;0; -3.9295498E-02;  4.0001938E+04;  0.0000000E+00; -1.3303515E-01;  4.0000000E+04;  0.0000000E+00;  3.9990973E+04; -2.8779533E-02;  0.0000000E+00; -1.0515965E-02;  1.1528083E+03;
  5.1169455E-01;  9.9999998E-03;  1.0998571E-01;5598; -2.7458396E-02;  0.0000000E+00; -1.4072120E-03;  9.9996765E+02;  1.0000629E-01; -2.6814054E+01;3;  2.9003718E+00;  0.0000000E+00; -1.2881553E+00;0; -3.8960647E-02;  4.0001660E+04;  0.0000000E+00; -1.3573223E-01;  4.0000000E+04;  0.0000000E+00;  3.9990848E+04; -2.8853949E-02;  0.0000000E+00; -1.0106697E-02;  1.1622545E+03;
  5.1168877E-01;  9.9999998E-03;  1.1998518E-01;5599; -2.7315153E-02;  0.0000000E+00; -1.5144637E-03;  9.9996204E+02;  1.0000619E-01; -3.1455898E+01;3;  2.8843155E+00;  0.0000000E+00; -1.3858315E+00;0; -3.8590662E-02;  4.0001281E+04;  0.0000000E+00; -1.3062803E-01;  4.0000000E+04;  0.0000000E+00;  3.9991008E+04; -2.8923195E-02;  0.0000000E+00; -9.6674683E-03;  1.1565624E+03;
  5.1168418E-01;  9.9999998E-03;  1.2998492E-01;5600; -2.7162209E-02;  0.0000000E+00; -1.6150717E-03;  9.9995001E+02;  1.0000630E-01; -4.1430923E+01;3;  2.8694718E+00;  0.0000000E+00; -1.4787468E+00;0; -3.8187027E-02;  4.0000047E+04;  0.0000000E+00; -1.1747421E-01;  4.0000000E+04;  0.0000000E+00;  3.9991016E+04; -2.8982978E-02;  0.0000000E+00; -9.2040496E-03;  1.1294357E+03;
  5.1168084E-01;  9.9999998E-03;  1.3998501E-01;5601; -2.6999583E-02;  0.0000000E+00; -1.7083405E-03;  9.9993066E+02;  1.0000619E-01; -5.7430470E+01;3;  2.8563008E+00;  0.0000000E+00; -1.5666289E+00;0; -3.7752837E-02;  3.9998125E+04;  0.0000000E+00; -9.6916847E-02;  4.0000000E+04;  0.0000000E+00;  3.9991465E+04; -2.9029366E-02;  0.0000000E+00; -8.7234732E-03;  1.0745338E+03;
  5.1167870E-01;  9.9999998E-03;  1.4998586E-01;5602; -2.6827471E-02;  0.0000000E+00; -1.7937317E-03;  9.9990027E+02;  1.0000607E-01; -8.2614944E+01;3;  2.8454769E+00;  0.0000000E+00; -1.6492798E+00;0; -3.7292860E-02;  3.9995180E+04;  0.0000000E+00; -7.0568942E-02;  4.0000000E+04;  0.0000000E+00;  3.9992156E+04; -2.9058747E-02;  0.0000000E+00; -8.2341125E-03;  9.8596063E+02;
  5.1167721E-01;  9.9999998E-03;  1.5998787E-01;5603; -2.6646325E-02;  0.0000000E+00; -1.8711721E-03;  9.9985449E+02;  1.0000635E-01; -1.2053979E+02;3;  2.8375978E+00;  0.0000000E+00; -1.7264093E+00;0; -3.6816288E-02;  3.9990449E+04;  0.0000000E+00; -4.1270163E-02;  4.0000000E+04;  0.0000000E+00;  3.9993070E+04; -2.9068505E-02;  0.0000000E+00; -7.7477810E-03;  8.5825110E+02;
  5.1167548E-01;  9.9999998E-03;  1.6999140E-01;5604; -2.6456932E-02;  0.0000000E+00; -1.9411269E-03;  9.9979584E+02;  1.0000616E-01; -1.6913101E+02;3;  2.8332641E+00;  0.0000000E+00; -1.7977091E+00;0; -3.6335707E-02;  3.9984602E+04;  0.0000000E+00; -1.2896334E-02;  4.0000000E+04;  0.0000000E+00;  3.9994391E+04; -2.9057264E-02;  0.0000000E+00; -7.2784415E-03;  6.8804962E+02;
  5.1167184E-01;  9.9999998E-03;  1.7999643E-01;5605; -2.6260341E-02;  0.0000000E+00; -2.0043198E-03;  9.9972308E+02;  1.0000625E-01; -2.2942560E+02;3;  2.8329854E+00;  0.0000000E+00; -1.8628567E+00;0; -3.5863768E-02;  3.9977055E+04;  0.0000000E+00;  1.0395986E-02;  4.0000000E+04;  0.0000000E+00;  3.9995918E+04; -2.9025313E-02;  0.0000000E+00; -6.8384544E-03;  4.7670337E+02;
  5.1166612E-01;  9.9999998E-03;  1.9000269E-01;5606; -2.6057875E-02;  0.0000000E+00; -2.0614711E-03;  9.9963263E+02;  1.0000610E-01; -3.0433704E+02;3;  2.8374536E+00;  0.0000000E+00; -1.9217460E+00;0; -3.5410393E-02;  3.9967992E+04;  0.0000000E+00;  2.5085008E-02;  4.0000000E+04;  0.0000000E+00;  3.9998008E+04; -2.8974231E-02;  0.0000000E+00; -6.4361608E-03;  2.3553758E+02;
  5.1165831E-01;  9.9999998E-03;  2.0000984E-01;5607; -2.5851015E-02;  0.0000000E+00; -2.1132617E-03;  9.9952612E+02;  1.0000618E-01; -3.9258145E+02;3;  2.8470504E+00;  0.0000000E+00; -1.9744524E+00;0; -3.4981292E-02;  3.9957867E+04;  0.0000000E+00;  2.9024176E-02;  4.0000000E+04;  0.0000000E+00;  3.9999809E+04; -2.8906878E-02;  0.0000000E+00; -6.0744151E-03;  4.8056492E+01;
  5.1164782E-01;  9.9999998E-03;  2.1001759E-01;5608; -2.5641358E-02;  0.0000000E+00; -2.1610612E-03;  9.9941272E+02;  1.0000617E-01; -4.8655411E+02;3;  2.8621218E+00;  0.0000000E+00; -2.0212209E+00;0; -3.4578312E-02;  3.9946879E+04;  0.0000000E+00;  2.1772930E-02;  4.0000000E+04;  0.0000000E+00;  4.0001477E+04; -2.8827127E-02;  0.0000000E+00; -5.7511861E-03;  2.3769788E+02;
  5.1163435E-01;  9.9999998E-03;  2.2002466E-01;5609; -2.5430663E-02;  0.0000000E+00; -2.2106376E-03;  9.9928162E+02;  1.0000622E-01; -5.9514362E+02;3;  2.8828065E+00;  0.0000000E+00; -2.0627172E+00;0; -3.4208708E-02;  3.9935680E+04;  0.0000000E+00;  4.5752265E-03;  4.0000000E+04;  0.0000000E+00;  4.0002363E+04; -2.8739056E-02;  0.0000000E+00; -5.4696510E-03;  3.6530737E+02;
  5.1161849E-01;  9.9999998E-03;  2.3002800E-01;5610; -2.5220798E-02;  0.0000000E+00; -2.2702874E-03;  9.9914600E+02;  1.0000625E-01; -7.0753546E+02;3;  2.9091842E+00;  0.0000000E+00; -2.0993328E+00;0; -3.3907205E-02;  3.9924438E+04;  0.0000000E+00; -1.9795796E-02;  4.0000000E+04;  0.0000000E+00;  4.0002750E+04; -2.8646579E-02;  0.0000000E+00; -5.2606240E-03;  4.2819431E+02;
  5.2165788E-01;  9.9999998E-03;  6.9995068E-02;5655; -2.8194454E-02;  0.0000000E+00; -9.9582900E-04;  9.9987164E+02;  1.0001037E-01; -1.0631797E+02;3;  3.1270375E+00;  0.0000000E+00; -8.8786018E-01;0; -3.9823674E-02;  3.9989578E+04;  0.0000000E+00; -1.0511739E-01;  4.0000000E+04;  0.0000000E+00;  3.9990668E+04; -2.7465353E-02;  0.0000000E+00; -1.2358322E-02;  1.1540692E+03;
  5.2165550E-01;  9.9999998E-03;  7.9993881E-02;5656; -2.8091153E-02;  0.0000000E+00; -1.1317708E-03;  9.9986603E+02;  1.0001046E-01; -1.1100920E+02;3;  3.1085238E+00;  0.0000000E+00; -1.0054489E+00;0; -3.9577365E-02;  3.9989410E+04;  0.0000000E+00; -1.2382845E-01;  4.0000000E+04;  0.0000000E+00;  3.9990551E+04; -2.7516237E-02;  0.0000000E+00; -1.2061130E-02;  1.1709341E+03;
  5.2165347E-01;  9.9999998E-03;  8.9992531E-02;5657; -2.7978117E-02;  0.0000000E+00; -1.2644277E-03;  9.9986835E+02;  1.0001046E-01; -1.0908333E+02;3;  3.0887947E+00;  0.0000000E+00; -1.1194491E+00;0; -3.9295617E-02;  3.9989750E+04;  0.0000000E+00; -1.3771601E-01;  4.0000000E+04;  0.0000000E+00;  3.9990500E+04; -2.7573898E-02;  0.0000000E+00; -1.1721719E-02;  1.1910891E+03;
  5.2165151E-01;  9.9999998E-03;  9.9991150E-02;5658; -2.7855648E-02;  0.0000000E+00; -1.3929354E-03;  9.9987445E+02;  1.0001040E-01; -1.0399705E+02;3;  3.0683537E+00;  0.0000000E+00; -1.2294762E+00;0; -3.8977765E-02;  3.9990129E+04;  0.0000000E+00; -1.4485338E-01;  4.0000000E+04;  0.0000000E+00;  3.9990371E+04; -2.7636364E-02;  0.0000000E+00; -1.1341402E-02;  1.2094659E+03;
  5.2164918E-01;  9.9999998E-03;  1.0999001E-01;5659; -2.7723765E-02;  0.0000000E+00; -1.5163671E-03;  9.9987714E+02;  1.0001045E-01; -1.0177489E+02;3;  3.0476923E+00;  0.0000000E+00; -1.3351728E+00;0; -3.8623530E-02;  3.9990762E+04;  0.0000000E+00; -1.4376843E-01;  4.0000000E+04;  0.0000000E+00;  3.9990340E+04; -2.7700840E-02;  0.0000000E+00; -1.0922692E-02;  1.2189187E+03;
  5.2164668E-01;  9.9999998E-03;  1.1998929E-01;5660; -2.7582351E-02;  0.0000000E+00; -1.6337649E-03;  9.9987903E+02;  1.0001054E-01; -1.0024407E+02;3;  3.0272863E+00;  0.0000000E+00; -1.4361737E+00;0; -3.8233593E-02;  3.9991074E+04;  0.0000000E+00; -1.3366252E-01;  4.0000000E+04;  0.0000000E+00;  3.9990430E+04; -2.7763920E-02;  0.0000000E+00; -1.0469674E-02;  1.2112184E+03;
  5.2164423E-01;  9.9999998E-03;  1.2998919E-01;5661; -2.7431209E-02;  0.0000000E+00; -1.7441795E-03;  9.9987683E+02;  1.0001041E-01; -1.0202180E+02;3;  3.0077329E+00;  0.0000000E+00; -1.5321778E+00;0; -3.7809700E-02;  3.9990664E+04;  0.0000000E+00; -1.1458822E-01;  4.0000000E+04;  0.0000000E+00;  3.9990684E+04; -2.7821751E-02;  0.0000000E+00; -9.9879475E-03;  1.1778906E+03;
  5.2164185E-01;  9.9999998E-03;  1.3998991E-01;5662; -2.7270224E-02;  0.0000000E+00; -1.8467146E-03;  9.9986523E+02;  1.0001052E-01; -1.1165115E+02;3;  2.9897356E+00;  0.0000000E+00; -1.6228846E+00;0; -3.7354991E-02;  3.9989273E+04;  0.0000000E+00; -8.7562904E-02;  4.0000000E+04;  0.0000000E+00;  3.9991105E+04; -2.7870437E-02;  0.0000000E+00; -9.4845518E-03;  1.1110276E+03;
  5.2163970E-01;  9.9999998E-03;  1.4999162E-01;5663; -2.7099470E-02;  0.0000000E+00; -1.9406478E-03;  9.9983966E+02;  1.0001054E-01; -1.3283574E+02;3;  2.9738586E+00;  0.0000000E+00; -1.7080609E+00;0; -3.6874402E-02;  3.9986637E+04;  0.0000000E+00; -5.4601796E-02;  4.0000000E+04;  0.0000000E+00;  3.9991844E+04; -2.7906250E-02;  0.0000000E+00; -8.9681530E-03;  1.0041116E+03;
  5.2163750E-01;  9.9999998E-03;  1.5999439E-01;5664; -2.6919307E-02;  0.0000000E+00; -2.0257768E-03;  9.9979932E+02;  1.0001034E-01; -1.6626689E+02;3;  2.9608581E+00;  0.0000000E+00; -1.7874029E+00;0; -3.6377531E-02;  3.9982152E+04;  0.0000000E+00; -1.9064117E-02;  4.0000000E+04;  0.0000000E+00;  3.9992977E+04; -2.7926229E-02;  0.0000000E+00; -8.4513025E-03;  8.5294733E+02;
  5.2163422E-01;  9.9999998E-03;  1.6999832E-01;5665; -2.6730424E-02;  0.0000000E+00; -2.1025201E-03;  9.9973920E+02;  1.0001042E-01; -2.1609264E+02;3;  2.9514236E+00;  0.0000000E+00; -1.8605549E+00;0; -3.5877746E-02;  3.9976016E+04;  0.0000000E+00;  1.4454244E-02;  4.0000000E+04;  0.0000000E+00;  3.9994590E+04; -2.7928408E-02;  0.0000000E+00; -7.9493383E-03;  6.5730634E+02;
  5.2162963E-01;  9.9999998E-03;  1.8000329E-01;5666; -2.6533829E-02;  0.0000000E+00; -2.1716559E-03;  9.9965906E+02;  1.0001040E-01; -2.8246112E+02;3;  2.9461732E+00;  0.0000000E+00; -1.9271964E+00;0; -3.5388581E-02;  3.9967965E+04;  0.0000000E+00;  4.1129306E-02;  4.0000000E+04;  0.0000000E+00;  3.9996316E+04; -2.7912160E-02;  0.0000000E+00; -7.4764225E-03;  4.2371368E+02;
  5.2162367E-01;  9.9999998E-03;  1.9000906E-01;5667; -2.6330810E-02;  0.0000000E+00; -2.2339821E-03;  9.9956244E+02;  1.0001057E-01; -3.6250824E+02;3;  2.9458280E+00;  0.0000000E+00; -1.9872291E+00;0; -3.4920990E-02;  3.9958031E+04;  0.0000000E+00;  5.7039369E-02;  4.0000000E+04;  0.0000000E+00;  3.9998441E+04; -2.7878514E-02;  0.0000000E+00; -7.0424769E-03;  1.7540190E+02;
  5.2161622E-01;  9.9999998E-03;  2.0001492E-01;5668; -2.6122840E-02;  0.0000000E+00; -2.2904065E-03;  9.9944611E+02;  1.0001054E-01; -4.5890057E+02;3;  2.9508815E+00;  0.0000000E+00; -2.0407102E+00;0; -3.4481481E-02;  3.9946957E+04;  0.0000000E+00;  5.9919666E-02;  4.0000000E+04;  0.0000000E+00;  4.0000348E+04; -2.7829658E-02;  0.0000000E+00; -6.6518243E-03;  1.4303653E+02;
  5.2160698E-01;  9.9999998E-03;  2.1002033E-01;5669; -2.5911575E-02;  0.0000000E+00; -2.3424847E-03;  9.9931812E+02;  1.0001054E-01; -5.6492224E+02;3;  2.9618134E+00;  0.0000000E+00; -2.0881112E+00;0; -3.4072515E-02;  3.9934832E+04;  0.0000000E+00;  4.9415104E-02;  4.0000000E+04;  0.0000000E+00;  4.0002371E+04; -2.7768828E-02;  0.0000000E+00; -6.3036857E-03;  3.5794461E+02;
  5.2159572E-01;  9.9999998E-03;  2.2002429E-01;5670; -2.5698900E-02;  0.0000000E+00; -2.3945195E-03;  9.9917505E+02;  1.0001040E-01; -6.8343744E+02;3;  2.9788213E+00;  0.0000000E+00; -2.1296694E+00;0; -3.3699434E-02;  3.9922344E+04;  0.0000000E+00;  2.6885271E-02;  4.0000000E+04;  0.0000000E+00;  4.0003469E+04; -2.7699826E-02;  0.0000000E+00; -5.9996084E-03;  5.3120831E+02;
  5.2158213E-01;  9.9999998E-03;  2.3002553E-01;5671; -2.5486860E-02;  0.0000000E+00; -2.4520713E-03;  9.9903284E+02;  1.0001051E-01; -8.0126123E+02;3;  3.0018961E+00;  0.0000000E+00; -2.1662638E+00;0; -3.3384293E-02;  3.9909754E+04;  0.0000000E+00; -4.7797766E-03;  4.0000000E+04;  0.0000000E+00;  4.0004578E+04; -2.7626349E-02;  0.0000000E+00; -5.7579433E-03;  6.6057990E+02;
  5.3160179E-01;  9.9999998E-03;  7.0003584E-02;5716; -2.8448790E-02;  0.0000000E+00; -1.0613347E-03;  9.9966888E+02;  1.0001725E-01; -2.7431320E+02;3;  3.2941878E+00;  0.0000000E+00; -9.1996992E-01;0; -3.9497256E-02;  3.9967898E+04;  0.0000000E+00; -1.0646454E-01;  4.0000000E+04;  0.0000000E+00;  3.9989836E+04; -2.6343364E-02;  0.0000000E+00; -1.3153890E-02;  1.2413167E+03;
  5.3160316E-01;  9.9999998E-03;  8.0003060E-02;5717; -2.8345959E-02;  0.0000000E+00; -1.2068071E-03;  9.9967657E+02;  1.0001741E-01; -2.6794302E+02;3;  3.2723475E+00;  0.0000000E+00; -1.0416654E+00;0; -3.9238229E-02;  3.9968969E+04;  0.0000000E+00; -1.2295938E-01;  4.0000000E+04;  0.0000000E+00;  3.9989781E+04; -2.6377872E-02;  0.0000000E+00; -1.2860358E-02;  1.2481986E+03;
  5.3160447E-01;  9.9999998E-03;  9.0002254E-02;5718; -2.8233735E-02;  0.0000000E+00; -1.3491715E-03;  9.9969049E+02;  1.0001743E-01; -2.5643716E+02;3;  3.2489398E+00;  0.0000000E+00; -1.1596102E+00;0; -3.8942866E-02;  3.9970031E+04;  0.0000000E+00; -1.3373622E-01;  4.0000000E+04;  0.0000000E+00;  3.9989711E+04; -2.6420178E-02;  0.0000000E+00; -1.2522687E-02;  1.2605597E+03;
  5.3160566E-01;  9.9999998E-03;  1.0000125E-01;5719; -2.8112443E-02;  0.0000000E+00; -1.4875534E-03;  9.9971124E+02;  1.0001730E-01; -2.3925247E+02;3;  3.2244151E+00;  0.0000000E+00; -1.2734076E+00;0; -3.8610686E-02;  3.9971691E+04;  0.0000000E+00; -1.3711342E-01;  4.0000000E+04;  0.0000000E+00;  3.9989605E+04; -2.6469171E-02;  0.0000000E+00; -1.2141516E-02;  1.2719412E+03;
  5.3160602E-01;  9.9999998E-03;  1.1000048E-01;5720; -2.7982064E-02;  0.0000000E+00; -1.6209595E-03;  9.9973138E+02;  1.0001743E-01; -2.2256158E+02;3;  3.1992693E+00;  0.0000000E+00; -1.3826580E+00;0; -3.8241591E-02;  3.9973461E+04;  0.0000000E+00; -1.3198291E-01;  4.0000000E+04;  0.0000000E+00;  3.9989664E+04; -2.6522953E-02;  0.0000000E+00; -1.1718639E-02;  1.2736365E+03;
  5.3160536E-01;  9.9999998E-03;  1.2000022E-01;5721; -2.7842376E-02;  0.0000000E+00; -1.7483096E-03;  9.9974615E+02;  1.0001743E-01; -2.1031502E+02;3;  3.1741657E+00;  0.0000000E+00; -1.4870247E+00;0; -3.7836343E-02;  3.9974719E+04;  0.0000000E+00; -1.1794741E-01;  4.0000000E+04;  0.0000000E+00;  3.9989891E+04; -2.6578689E-02;  0.0000000E+00; -1.1257653E-02;  1.2556212E+03;
  5.3160405E-01;  9.9999998E-03;  1.3000068E-01;5722; -2.7693102E-02;  0.0000000E+00; -1.8684812E-03;  9.9975635E+02;  1.0001732E-01; -2.0187082E+02;3;  3.1496744E+00;  0.0000000E+00; -1.5861367E+00;0; -3.7396759E-02;  3.9975188E+04;  0.0000000E+00; -9.5426373E-02;  4.0000000E+04;  0.0000000E+00;  3.9990078E+04; -2.6633028E-02;  0.0000000E+00; -1.0763732E-02;  1.2077675E+03;
  5.3160197E-01;  9.9999998E-03;  1.4000192E-01;5723; -2.7534014E-02;  0.0000000E+00; -1.9803748E-03;  9.9975745E+02;  1.0001726E-01; -2.0093257E+02;3;  3.1264236E+00;  0.0000000E+00; -1.6797007E+00;0; -3.6926016E-02;  3.9974637E+04;  0.0000000E+00; -6.5724470E-02;  4.0000000E+04;  0.0000000E+00;  3.9990770E+04; -2.6682325E-02;  0.0000000E+00; -1.0243693E-02;  1.1209919E+03;
  5.3159928E-01;  9.9999998E-03;  1.5000415E-01;5724; -2.7365055E-02;  0.0000000E+00; -2.0830715E-03;  9.9974200E+02;  1.0001729E-01; -2.1372234E+02;3;  3.1051431E+00;  0.0000000E+00; -1.7674613E+00;0; -3.6429197E-02;  3.9972516E+04;  0.0000000E+00; -3.1013107E-02;  4.0000000E+04;  0.0000000E+00;  3.9991828E+04; -2.6722997E-02;  0.0000000E+00; -9.7062010E-03;  9.8861969E+02;
  5.3159583E-01;  9.9999998E-03;  1.6000737E-01;5725; -2.7186459E-02;  0.0000000E+00; -2.1762396E-03;  9.9970581E+02;  1.0001763E-01; -2.4374617E+02;3;  3.0865946E+00;  0.0000000E+00; -1.8490587E+00;0; -3.5916217E-02;  3.9968395E+04;  0.0000000E+00;  5.2755484E-03;  4.0000000E+04;  0.0000000E+00;  3.9993230E+04; -2.6751861E-02;  0.0000000E+00; -9.1643566E-03;  8.0854602E+02;
  5.3159183E-01;  9.9999998E-03;  1.7001139E-01;5726; -2.6998812E-02;  0.0000000E+00; -2.2602428E-03;  9.9964960E+02;  1.0001736E-01; -2.9031274E+02;3;  3.0715656E+00;  0.0000000E+00; -1.9241194E+00;0; -3.5401326E-02;  3.9962281E+04;  0.0000000E+00;  3.8424671E-02;  4.0000000E+04;  0.0000000E+00;  3.9994934E+04; -2.6766604E-02;  0.0000000E+00; -8.6347228E-03;  5.8536316E+02;
  5.3158724E-01;  9.9999998E-03;  1.8001591E-01;5727; -2.6803022E-02;  0.0000000E+00; -2.3358739E-03;  9.9956903E+02;  1.0001744E-01; -3.5702692E+02;3;  3.0608375E+00;  0.0000000E+00; -1.9923079E+00;0; -3.4899194E-02;  3.9953699E+04;  0.0000000E+00;  6.3519590E-02;  4.0000000E+04;  0.0000000E+00;  3.9997016E+04; -2.6766123E-02;  0.0000000E+00; -8.1330715E-03;  3.3397571E+02;
  5.3158218E-01;  9.9999998E-03;  1.9002052E-01;5728; -2.6600303E-02;  0.0000000E+00; -2.4040970E-03;  9.9946521E+02;  1.0001754E-01; -4.4304916E+02;3;  3.0552464E+00;  0.0000000E+00; -2.0535128E+00;0; -3.4421887E-02;  3.9943473E+04;  0.0000000E+00;  7.6712772E-02;  4.0000000E+04;  0.0000000E+00;  3.9999098E+04; -2.6750812E-02;  0.0000000E+00; -7.6710740E-03;  1.1842998E+02;
  5.3157693E-01;  9.9999998E-03;  2.0002453E-01;5729; -2.6392143E-02;  0.0000000E+00; -2.4661301E-03;  9.9934180E+02;  1.0001753E-01; -5.4531787E+02;3;  3.0553620E+00;  0.0000000E+00; -2.1078000E+00;0; -3.3977024E-02;  3.9931715E+04;  0.0000000E+00;  7.5949289E-02;  4.0000000E+04;  0.0000000E+00;  4.0001371E+04; -2.6722258E-02;  0.0000000E+00; -7.2547654E-03;  2.4994257E+02;
  5.3157181E-01;  9.9999998E-03;  2.1002685E-01;5730; -2.6180232E-02;  0.0000000E+00; -2.5240509E-03;  9.9920093E+02;  1.0001735E-01; -6.6200592E+02;3;  3.0618300E+00;  0.0000000E+00; -2.1555560E+00;0; -3.3569034E-02;  3.9918715E+04;  0.0000000E+00;  6.1108653E-02;  4.0000000E+04;  0.0000000E+00;  4.0002980E+04; -2.6683155E-02;  0.0000000E+00; -6.8858792E-03;  4.7116052E+02;
  5.3156680E-01;  9.9999998E-03;  2.2002645E-01;5731; -2.5966534E-02;  0.0000000E+00; -2.5804520E-03;  9.9905188E+02;  1.0001730E-01; -7.8550861E+02;3;  3.0748169E+00;  0.0000000E+00; -2.1971853E+00;0; -3.3202630E-02;  3.9905273E+04;  0.0000000E+00;  3.3714626E-02;  4.0000000E+04;  0.0000000E+00;  4.0004699E+04; -2.6636779E-02;  0.0000000E+00; -6.5658488E-03;  6.7766107E+02;
  5.3156072E-01;  9.9999998E-03;  2.3002382E-01;5732; -2.5753174E-02;  0.0000000E+00; -2.6368811E-03;  9.9890369E+02;  1.0001736E-01; -9.0827057E+02;3;  3.0944762E+00;  0.0000000E+00; -2.2335217E+00;0; -3.2885950E-02;  3.9891703E+04;  0.0000000E+00; -3.2519884E-03;  4.0000000E+04;  0.0000000E+00;  4.0006219E+04; -2.6586482E-02;  0.0000000E+00; -6.2994682E-03;  8.8818579E+02;
  5.4156446E-01;  9.9999998E-03;  7.0015043E-02;5777; -2.8700221E-02;  0.0000000E+00; -1.1218000E-03;  9.9943970E+02;  1.0002947E-01; -4.6418436E+02;3;  3.4670832E+00;  0.0000000E+00; -9.5248365E-01;0; -3.9087255E-02;  3.9940305E+04;  0.0000000E+00; -9.1318421E-02;  4.0000000E+04;  0.0000000E+00;  3.9988777E+04; -2.5180692E-02;  0.0000000E+00; -1.3906564E-02;  1.3400245E+03;
  5.4156864E-01;  9.9999998E-03;  8.0015518E-02;5778; -2.8597448E-02;  0.0000000E+00; -1.2760242E-03;  9.9946680E+02;  1.0002926E-01; -4.4176526E+02;3;  3.4415672E+00;  0.0000000E+00; -1.0783259E+00;0; -3.8819108E-02;  3.9942406E+04;  0.0000000E+00; -1.0266369E-01;  4.0000000E+04;  0.0000000E+00;  3.9988859E+04; -2.5199806E-02;  0.0000000E+00; -1.3619302E-02;  1.3354056E+03;
  5.4157239E-01;  9.9999998E-03;  9.0015642E-02;5779; -2.8485648E-02;  0.0000000E+00; -1.4273786E-03;  9.9949969E+02;  1.0002936E-01; -4.1450677E+02;3;  3.4141986E+00;  0.0000000E+00; -1.2002182E+00;0; -3.8514156E-02;  3.9945070E+04;  0.0000000E+00; -1.0821559E-01;  4.0000000E+04;  0.0000000E+00;  3.9988891E+04; -2.5227241E-02;  0.0000000E+00; -1.3286916E-02;  1.3369030E+03;
  5.4157555E-01;  9.9999998E-03;  1.0001556E-01;5780; -2.8365174E-02;  0.0000000E+00; -1.5750304E-03;  9.9953442E+02;  1.0002934E-01; -3.8571747E+02;3;  3.3852530E+00;  0.0000000E+00; -1.3177897E+00;0; -3.8171854E-02;  3.9947949E+04;  0.0000000E+00; -1.0687783E-01;  4.0000000E+04;  0.0000000E+00;  3.9988898E+04; -2.5262538E-02;  0.0000000E+00; -1.2909316E-02;  1.3370350E+03;
  5.4157752E-01;  9.9999998E-03;  1.1001547E-01;5781; -2.8236028E-02;  0.0000000E+00; -1.7179555E-03;  9.9957306E+02;  1.0002936E-01; -3.5371835E+02;3;  3.3554599E+00;  0.0000000E+00; -1.4306267E+00;0; -3.7792087E-02;  3.9951016E+04;  0.0000000E+00; -9.8175406E-02;  4.0000000E+04;  0.0000000E+00;  3.9989105E+04; -2.5304483E-02;  0.0000000E+00; -1.2487604E-02;  1.3257826E+03;
  5.4157776E-01;  9.9999998E-03;  1.2001570E-01;5782; -2.8097944E-02;  0.0000000E+00; -1.8549714E-03;  9.9960785E+02;  1.0002952E-01; -3.2487967E+02;3;  3.3252785E+00;  0.0000000E+00; -1.5383492E+00;0; -3.7375707E-02;  3.9953723E+04;  0.0000000E+00; -8.2257017E-02;  4.0000000E+04;  0.0000000E+00;  3.9989316E+04; -2.5351150E-02;  0.0000000E+00; -1.2024557E-02;  1.2918525E+03;
  5.4157633E-01;  9.9999998E-03;  1.3001652E-01;5783; -2.7950555E-02;  0.0000000E+00; -1.9847942E-03;  9.9963428E+02;  1.0002955E-01; -3.0300375E+02;3;  3.2953677E+00;  0.0000000E+00; -1.6406286E+00;0; -3.6924474E-02;  3.9955348E+04;  0.0000000E+00; -5.9901778E-02;  4.0000000E+04;  0.0000000E+00;  3.9989871E+04; -2.5399640E-02;  0.0000000E+00; -1.1524835E-02;  1.2239446E+03;
  5.4157329E-01;  9.9999998E-03;  1.4001812E-01;5784; -2.7793529E-02;  0.0000000E+00; -2.1061273E-03;  9.9964844E+02;  1.0002943E-01; -2.9125101E+02;3;  3.2664726E+00;  0.0000000E+00; -1.7371182E+00;0; -3.6441602E-02;  3.9955660E+04;  0.0000000E+00; -3.2484554E-02;  4.0000000E+04;  0.0000000E+00;  3.9990617E+04; -2.5446806E-02;  0.0000000E+00; -1.0994794E-02;  1.1123318E+03;
  5.4156917E-01;  9.9999998E-03;  1.5002064E-01;5785; -2.7626673E-02;  0.0000000E+00; -2.2178544E-03;  9.9964001E+02;  1.0002962E-01; -2.9826315E+02;3;  3.2392962E+00;  0.0000000E+00; -1.8275131E+00;0; -3.5932139E-02;  3.9954207E+04;  0.0000000E+00; -1.9378295E-03;  4.0000000E+04;  0.0000000E+00;  3.9991875E+04; -2.5489308E-02;  0.0000000E+00; -1.0442832E-02;  9.5080524E+02;
  5.4156423E-01;  9.9999998E-03;  1.6002399E-01;5786; -2.7450098E-02;  0.0000000E+00; -2.3194915E-03;  9.9961548E+02;  1.0002933E-01; -3.1855887E+02;3;  3.2147586E+00;  0.0000000E+00; -1.9114437E+00;0; -3.5406582E-02;  3.9950277E+04;  0.0000000E+00;  2.8814746E-02;  4.0000000E+04;  0.0000000E+00;  3.9993574E+04; -2.5524218E-02;  0.0000000E+00; -9.8823635E-03;  7.3989728E+02;
  5.4155892E-01;  9.9999998E-03;  1.7002781E-01;5787; -2.7264196E-02;  0.0000000E+00; -2.4113134E-03;  9.9956439E+02;  1.0002951E-01; -3.6087866E+02;3;  3.1937335E+00;  0.0000000E+00; -1.9884888E+00;0; -3.4879886E-02;  3.9944383E+04;  0.0000000E+00;  5.5685971E-02;  4.0000000E+04;  0.0000000E+00;  3.9995570E+04; -2.5549049E-02;  0.0000000E+00; -9.3308380E-03;  4.9012137E+02;
  5.4155391E-01;  9.9999998E-03;  1.8003176E-01;5788; -2.7069764E-02;  0.0000000E+00; -2.4940677E-03;  9.9948938E+02;  1.0002954E-01; -4.2304974E+02;3;  3.1770744E+00;  0.0000000E+00; -2.0582819E+00;0; -3.4367982E-02;  3.9935961E+04;  0.0000000E+00;  7.4358396E-02;  4.0000000E+04;  0.0000000E+00;  3.9997930E+04; -2.5562510E-02;  0.0000000E+00; -8.8054724E-03;  2.2909987E+02;
  5.4155016E-01;  9.9999998E-03;  1.9003521E-01;5789; -2.6867928E-02;  0.0000000E+00; -2.5688822E-03;  9.9938330E+02;  1.0002946E-01; -5.1089908E+02;3;  3.1657240E+00;  0.0000000E+00; -2.1206920E+00;0; -3.3884075E-02;  3.9925750E+04;  0.0000000E+00;  8.1514314E-02;  4.0000000E+04;  0.0000000E+00;  3.9999930E+04; -2.5564447E-02;  0.0000000E+00; -8.3196284E-03;  1.3889221E+02;
  5.4154885E-01;  9.9999998E-03;  2.0003724E-01;5790; -2.6660191E-02;  0.0000000E+00; -2.6373970E-03;  9.9925543E+02;  1.0002949E-01; -6.1687140E+02;3;  3.1604698E+00;  0.0000000E+00; -2.1757791E+00;0; -3.3437245E-02;  3.9913742E+04;  0.0000000E+00;  7.5522773E-02;  4.0000000E+04;  0.0000000E+00;  4.0001980E+04; -2.5555894E-02;  0.0000000E+00; -7.8813508E-03;  3.4568927E+02;
  5.4155052E-01;  9.9999998E-03;  2.1003634E-01;5791; -2.6448313E-02;  0.0000000E+00; -2.7022357E-03;  9.9911053E+02;  1.0002949E-01; -7.3691736E+02;3;  3.1620252E+00;  0.0000000E+00; -2.2239306E+00;0; -3.3034280E-02;  3.9900602E+04;  0.0000000E+00;  5.6557216E-02;  4.0000000E+04;  0.0000000E+00;  4.0003445E+04; -2.5538975E-02;  0.0000000E+00; -7.4953032E-03;  5.4904187E+02;
  5.4155529E-01;  9.9999998E-03;  2.2003110E-01;5792; -2.6234265E-02;  0.0000000E+00; -2.7651002E-03;  9.9895648E+02;  1.0002942E-01; -8.6451868E+02;3;  3.1707413E+00;  0.0000000E+00; -2.2658129E+00;0; -3.2681637E-02;  3.9886742E+04;  0.0000000E+00;  2.6331982E-02;  4.0000000E+04;  0.0000000E+00;  4.0005148E+04; -2.5516376E-02;  0.0000000E+00; -7.1652592E-03;  7.6556573E+02;
  5.4156137E-01;  9.9999998E-03;  2.3002365E-01;5793; -2.6020218E-02;  0.0000000E+00; -2.8220015E-03;  9.9881006E+02;  1.0002951E-01; -9.8584857E+02;3;  3.1866672E+00;  0.0000000E+00; -2.3017912E+00;0; -3.2373350E-02;  3.9872969E+04;  0.0000000E+00; -1.2151769E-02;  4.0000000E+04;  0.0000000E+00;  4.0007309E+04; -2.5491215E-02;  0.0000000E+00; -6.8821362E-03;  1.0465760E+03;
  5.5155486E-01;  9.9999998E-03;  7.0026599E-02;5838; -2.8949423E-02;  0.0000000E+00; -1.1748302E-03;  9.9923303E+02;  1.0004856E-01; -6.3543878E+02;3;  3.6455576E+00;  0.0000000E+00; -9.8533660E-01;0; -3.8575415E-02;  3.9908863E+04;  0.0000000E+00; -5.8275890E-02;  4.0000000E+04;  0.0000000E+00;  3.9987730E+04; -2.3964234E-02;  0.0000000E+00; -1.4611180E-02;  1.4378129E+03;
  5.5156165E-01;  9.9999998E-03;  8.0028281E-02;5839; -2.8846296E-02;  0.0000000E+00; -1.3368005E-03;  9.9927991E+02;  1.0004842E-01; -5.9657568E+02;3;  3.6162732E+00;  0.0000000E+00; -1.1153075E+00;0; -3.8301244E-02;  3.9912281E+04;  0.0000000E+00; -6.1751518E-02;  4.0000000E+04;  0.0000000E+00;  3.9987879E+04; -2.3969099E-02;  0.0000000E+00; -1.4332145E-02;  1.4231873E+03;
  5.5156648E-01;  9.9999998E-03;  9.0029515E-02;5840; -2.8734494E-02;  0.0000000E+00; -1.4962316E-03;  9.9933087E+02;  1.0004833E-01; -5.5435468E+02;3;  3.5845668E+00;  0.0000000E+00; -1.2411659E+00;0; -3.7989859E-02;  3.9916473E+04;  0.0000000E+00; -6.0385149E-02;  4.0000000E+04;  0.0000000E+00;  3.9987941E+04; -2.3981940E-02;  0.0000000E+00; -1.4007918E-02;  1.4141866E+03;
  5.5156970E-01;  9.9999998E-03;  1.0003037E-01;5841; -2.8614454E-02;  0.0000000E+00; -1.6523667E-03;  9.9938666E+02;  1.0004845E-01; -5.0813373E+02;3;  3.5509887E+00;  0.0000000E+00; -1.3624789E+00;0; -3.7640836E-02;  3.9920770E+04;  0.0000000E+00; -5.3991888E-02;  4.0000000E+04;  0.0000000E+00;  3.9988078E+04; -2.4003167E-02;  0.0000000E+00; -1.3637668E-02;  1.4022990E+03;
  5.5157089E-01;  9.9999998E-03;  1.1003087E-01;5842; -2.8486213E-02;  0.0000000E+00; -1.8041950E-03;  9.9944397E+02;  1.0004858E-01; -4.6067828E+02;3;  3.5161071E+00;  0.0000000E+00; -1.4788904E+00;0; -3.7253737E-02;  3.9925133E+04;  0.0000000E+00; -4.2921875E-02;  4.0000000E+04;  0.0000000E+00;  3.9988328E+04; -2.4032017E-02;  0.0000000E+00; -1.3221721E-02;  1.3766350E+03;
  5.5156970E-01;  9.9999998E-03;  1.2003151E-01;5843; -2.8349485E-02;  0.0000000E+00; -1.9504643E-03;  9.9949310E+02;  1.0004846E-01; -4.1993872E+02;3;  3.4804780E+00;  0.0000000E+00; -1.5900134E+00;0; -3.6829390E-02;  3.9928945E+04;  0.0000000E+00; -2.7910760E-02;  4.0000000E+04;  0.0000000E+00;  3.9988699E+04; -2.4067249E-02;  0.0000000E+00; -1.2762139E-02;  1.3249291E+03;
  5.5156654E-01;  9.9999998E-03;  1.3003255E-01;5844; -2.8203884E-02;  0.0000000E+00; -2.0897526E-03;  9.9953540E+02;  1.0004845E-01; -3.8492737E+02;3;  3.4448793E+00;  0.0000000E+00; -1.6954844E+00;0; -3.6369435E-02;  3.9931875E+04;  0.0000000E+00; -9.9527733E-03;  4.0000000E+04;  0.0000000E+00;  3.9989582E+04; -2.4106618E-02;  0.0000000E+00; -1.2262817E-02;  1.2353527E+03;
  5.5156147E-01;  9.9999998E-03;  1.4003433E-01;5845; -2.8048985E-02;  0.0000000E+00; -2.2205759E-03;  9.9956671E+02;  1.0004857E-01; -3.5895279E+02;3;  3.4099486E+00;  0.0000000E+00; -1.7949710E+00;0; -3.5877105E-02;  3.9932984E+04;  0.0000000E+00;  9.8345634E-03;  4.0000000E+04;  0.0000000E+00;  3.9990680E+04; -2.4147591E-02;  0.0000000E+00; -1.1729513E-02;  1.0982067E+03;
  5.5155528E-01;  9.9999998E-03;  1.5003692E-01;5846; -2.7884418E-02;  0.0000000E+00; -2.3416223E-03;  9.9957178E+02;  1.0004828E-01; -3.5475537E+02;3;  3.3765349E+00;  0.0000000E+00; -1.8881145E+00;0; -3.5357464E-02;  3.9932336E+04;  0.0000000E+00;  3.0246355E-02;  4.0000000E+04;  0.0000000E+00;  3.9992129E+04; -2.4187341E-02;  0.0000000E+00; -1.1170124E-02;  9.0799786E+02;
  5.5154866E-01;  9.9999998E-03;  1.6004018E-01;5847; -2.7710127E-02;  0.0000000E+00; -2.4522375E-03;  9.9955566E+02;  1.0004862E-01; -3.6813770E+02;3;  3.3455014E+00;  0.0000000E+00; -1.9745021E+00;0; -3.4821369E-02;  3.9929215E+04;  0.0000000E+00;  4.9487542E-02;  4.0000000E+04;  0.0000000E+00;  3.9994008E+04; -2.4223406E-02;  0.0000000E+00; -1.0597964E-02;  6.6842535E+02;
  5.5154240E-01;  9.9999998E-03;  1.7004380E-01;5848; -2.7526297E-02;  0.0000000E+00; -2.5525531E-03;  9.9951318E+02;  1.0004863E-01; -4.0329721E+02;3;  3.3178840E+00;  0.0000000E+00; -2.0536568E+00;0; -3.4284644E-02;  3.9923551E+04;  0.0000000E+00;  6.4844944E-02;  4.0000000E+04;  0.0000000E+00;  3.9996062E+04; -2.4253577E-02;  0.0000000E+00; -1.0031066E-02;  3.9597388E+02;
  5.5153811E-01;  9.9999998E-03;  1.8004724E-01;5849; -2.7333543E-02;  0.0000000E+00; -2.6432425E-03;  9.9944165E+02;  1.0004853E-01; -4.6260416E+02;3;  3.2947278E+00;  0.0000000E+00; -2.1251836E+00;0; -3.3764355E-02;  3.9915734E+04;  0.0000000E+00;  7.3261306E-02;  4.0000000E+04;  0.0000000E+00;  3.9998668E+04; -2.4276530E-02;  0.0000000E+00; -9.4878254E-03;  1.3897298E+02;
  5.5153745E-01;  9.9999998E-03;  1.9004974E-01;5850; -2.7132940E-02;  0.0000000E+00; -2.7254226E-03;  9.9934460E+02;  1.0004846E-01; -5.4299695E+02;3;  3.2771196E+00;  0.0000000E+00; -2.1888885E+00;0; -3.3274960E-02;  3.9905945E+04;  0.0000000E+00;  7.2332136E-02;  4.0000000E+04;  0.0000000E+00;  4.0000625E+04; -2.4291832E-02;  0.0000000E+00; -8.9831268E-03;  2.0564636E+02;
  5.5154186E-01;  9.9999998E-03;  2.0005016E-01;5851; -2.6925949E-02;  0.0000000E+00; -2.8012167E-03;  9.9921832E+02;  1.0004871E-01; -6.4758655E+02;3;  3.2660353E+00;  0.0000000E+00; -2.2448781E+00;0; -3.2827079E-02;  3.9894141E+04;  0.0000000E+00;  6.0960367E-02;  4.0000000E+04;  0.0000000E+00;  4.0002379E+04; -2.4300059E-02;  0.0000000E+00; -8.5270209E-03;  4.0968130E+02;
  5.5155295E-01;  9.9999998E-03;  2.1004622E-01;5852; -2.6714435E-02;  0.0000000E+00; -2.8738412E-03;  9.9907404E+02;  1.0004868E-01; -7.6713873E+02;3;  3.2621853E+00;  0.0000000E+00; -2.2934911E+00;0; -3.2430023E-02;  3.9881371E+04;  0.0000000E+00;  3.9596014E-02;  4.0000000E+04;  0.0000000E+00;  4.0003746E+04; -2.4302689E-02;  0.0000000E+00; -8.1273345E-03;  5.7823663E+02;
  5.5157018E-01;  9.9999998E-03;  2.2003645E-01;5853; -2.6500380E-02;  0.0000000E+00; -2.9441130E-03;  9.9892407E+02;  1.0004873E-01; -8.9138214E+02;3;  3.2661850E+00;  0.0000000E+00; -2.3354585E+00;0; -3.2092568E-02;  3.9868070E+04;  0.0000000E+00;  1.0020353E-02;  4.0000000E+04;  0.0000000E+00;  4.0005281E+04; -2.4301933E-02;  0.0000000E+00; -7.7906335E-03;  7.8379492E+02;
  5.5159152E-01;  9.9999998E-03;  2.3002443E-01;5854; -2.6285935E-02;  0.0000000E+00; -3.0033386E-03;  9.9878619E+02;  1.0004845E-01; -1.0056011E+03;3;  3.2781520E+00;  0.0000000E+00; -2.3714075E+00;0; -3.1797506E-02;  3.9854715E+04;  0.0000000E+00; -2.5107618E-02;  4.0000000E+04;  0.0000000E+00;  4.0007688E+04; -2.4300486E-02;  0.0000000E+00; -7.4970205E-03;  1.1091251E+03;
  5.6158936E-01;  9.9999998E-03;  7.0032701E-02;5899; -2.9195052E-02;  0.0000000E+00; -1.2185274E-03;  9.9910486E+02;  1.0007960E-01; -7.4160858E+02;3;  3.8298602E+00;  0.0000000E+00; -1.0184069E+00;0; -3.7951414E-02;  3.9874168E+04;  0.0000000E+00; -9.0143066E-03;  4.0000000E+04;  0.0000000E+00;  3.9986711E+04; -2.2686902E-02;  0.0000000E+00; -1.5264511E-02;  1.5223436E+03;
  5.6159645E-01;  9.9999998E-03;  8.0035247E-02;5900; -2.9091144E-02;  0.0000000E+00; -1.3870390E-03;  9.9916748E+02;  1.0007960E-01; -6.8970886E+02;3;  3.7964196E+00;  0.0000000E+00; -1.1524498E+00;0; -3.7673213E-02;  3.9878969E+04;  0.0000000E+00; -2.6641197E-03;  4.0000000E+04;  0.0000000E+00;  3.9986949E+04; -2.2678724E-02;  0.0000000E+00; -1.4994491E-02;  1.5020496E+03;
  5.6160015E-01;  9.9999998E-03;  9.0037353E-02;5901; -2.8978910E-02;  0.0000000E+00; -1.5534513E-03;  9.9923383E+02;  1.0007951E-01; -6.3474744E+02;3;  3.7600570E+00;  0.0000000E+00; -1.2822086E+00;0; -3.7357572E-02;  3.9884199E+04;  0.0000000E+00;  6.4533781E-03;  4.0000000E+04;  0.0000000E+00;  3.9987082E+04; -2.2677504E-02;  0.0000000E+00; -1.4680070E-02;  1.4862064E+03;
  5.6160045E-01;  9.9999998E-03;  1.0003904E-01;5902; -2.8858867E-02;  0.0000000E+00; -1.7171215E-03;  9.9930261E+02;  1.0007958E-01; -5.7776141E+02;3;  3.7215016E+00;  0.0000000E+00; -1.4072236E+00;0; -3.7003752E-02;  3.9889668E+04;  0.0000000E+00;  1.7421883E-02;  4.0000000E+04;  0.0000000E+00;  3.9987258E+04; -2.2683963E-02;  0.0000000E+00; -1.4319788E-02;  1.4654791E+03;
  5.6159770E-01;  9.9999998E-03;  1.1004031E-01;5903; -2.8731138E-02;  0.0000000E+00; -1.8770890E-03;  9.9937262E+02;  1.0007960E-01; -5.1978772E+02;3;  3.6812246E+00;  0.0000000E+00; -1.5272018E+00;0; -3.6611229E-02;  3.9895016E+04;  0.0000000E+00;  2.9008385E-02;  4.0000000E+04;  0.0000000E+00;  3.9987438E+04; -2.2697965E-02;  0.0000000E+00; -1.3913265E-02;  1.4279529E+03;
  5.6159234E-01;  9.9999998E-03;  1.2004144E-01;5904; -2.8595494E-02;  0.0000000E+00; -2.0320609E-03;  9.9943921E+02;  1.0007966E-01; -4.6462881E+02;3;  3.6398661E+00;  0.0000000E+00; -1.6417133E+00;0; -3.6180396E-02;  3.9899594E+04;  0.0000000E+00;  3.9985355E-02;  4.0000000E+04;  0.0000000E+00;  3.9988219E+04; -2.2718681E-02;  0.0000000E+00; -1.3461714E-02;  1.3609938E+03;
  5.6158483E-01;  9.9999998E-03;  1.3004279E-01;5905; -2.8451480E-02;  0.0000000E+00; -2.1805032E-03;  9.9949420E+02;  1.0007964E-01; -4.1904984E+02;3;  3.5981903E+00;  0.0000000E+00; -1.7504545E+00;0; -3.5712946E-02;  3.9903184E+04;  0.0000000E+00;  4.9420867E-02;  4.0000000E+04;  0.0000000E+00;  3.9989266E+04; -2.2744635E-02;  0.0000000E+00; -1.2968310E-02;  1.2525364E+03;
  5.6157547E-01;  9.9999998E-03;  1.4004479E-01;5906; -2.8298564E-02;  0.0000000E+00; -2.3207739E-03;  9.9953223E+02;  1.0007980E-01; -3.8754456E+02;3;  3.5568020E+00;  0.0000000E+00; -1.8530210E+00;0; -3.5212025E-02;  3.9904945E+04;  0.0000000E+00;  5.6884155E-02;  4.0000000E+04;  0.0000000E+00;  3.9990309E+04; -2.2774043E-02;  0.0000000E+00; -1.2437982E-02;  1.0933311E+03;
  5.6156534E-01;  9.9999998E-03;  1.5004769E-01;5907; -2.8136272E-02;  0.0000000E+00; -2.4513789E-03;  9.9954858E+02;  1.0007989E-01; -3.7401410E+02;3;  3.5166228E+00;  0.0000000E+00; -1.9490602E+00;0; -3.4682818E-02;  3.9904930E+04;  0.0000000E+00;  6.2397186E-02;  4.0000000E+04;  0.0000000E+00;  3.9992164E+04; -2.2804901E-02;  0.0000000E+00; -1.1877918E-02;  8.7938403E+02;
  5.6155652E-01;  9.9999998E-03;  1.6005130E-01;5908; -2.7964342E-02;  0.0000000E+00; -2.5714876E-03;  9.9954462E+02;  1.0007964E-01; -3.7727325E+02;3;  3.4786315E+00;  0.0000000E+00; -2.0380909E+00;0; -3.4136266E-02;  3.9902293E+04;  0.0000000E+00;  6.5805405E-02;  4.0000000E+04;  0.0000000E+00;  3.9994324E+04; -2.2835122E-02;  0.0000000E+00; -1.1301143E-02;  6.1726575E+02;
  5.6155121E-01;  9.9999998E-03;  1.7005509E-01;5909; -2.7782744E-02;  0.0000000E+00; -2.6810544E-03;  9.9951147E+02;  1.0007987E-01; -4.0472928E+02;3;  3.4439063E+00;  0.0000000E+00; -2.1195498E+00;0; -3.3589091E-02;  3.9897570E+04;  0.0000000E+00;  6.6277631E-02;  4.0000000E+04;  0.0000000E+00;  3.9996582E+04; -2.2863196E-02;  0.0000000E+00; -1.0725894E-02;  3.2845578E+02;
  5.6155080E-01;  9.9999998E-03;  1.8005836E-01;5910; -2.7591899E-02;  0.0000000E+00; -2.7805630E-03;  9.9945276E+02;  1.0007997E-01; -4.5336987E+02;3;  3.4137409E+00;  0.0000000E+00; -2.1929834E+00;0; -3.3059325E-02;  3.9890645E+04;  0.0000000E+00;  6.2509619E-02;  4.0000000E+04;  0.0000000E+00;  3.9998918E+04; -2.2888023E-02;  0.0000000E+00; -1.0171303E-02;  8.9055695E+01;
  5.6155688E-01;  9.9999998E-03;  1.9006033E-01;5911; -2.7392706E-02;  0.0000000E+00; -2.8710850E-03;  9.9936414E+02;  1.0007988E-01; -5.2679987E+02;3;  3.3892648E+00;  0.0000000E+00; -2.2581439E+00;0; -3.2562733E-02;  3.9881641E+04;  0.0000000E+00;  5.3289689E-02;  4.0000000E+04;  0.0000000E+00;  4.0000992E+04; -2.2909220E-02;  0.0000000E+00; -9.6535133E-03;  2.4821608E+02;
  5.6157058E-01;  9.9999998E-03;  2.0005949E-01;5912; -2.7186617E-02;  0.0000000E+00; -2.9548400E-03;  9.9925049E+02;  1.0007979E-01; -6.2097003E+02;3;  3.3717330E+00;  0.0000000E+00; -2.3151431E+00;0; -3.2111458E-02;  3.9871152E+04;  0.0000000E+00;  3.8090542E-02;  4.0000000E+04;  0.0000000E+00;  4.0002309E+04; -2.2927139E-02;  0.0000000E+00; -9.1843186E-03;  4.2735712E+02;
  5.6159341E-01;  9.9999998E-03;  2.1005324E-01;5913; -2.6975518E-02;  0.0000000E+00; -3.0355577E-03;  9.9911517E+02;  1.0007975E-01; -7.3306561E+02;3;  3.3620236E+00;  0.0000000E+00; -2.3643160E+00;0; -3.1717036E-02;  3.9859539E+04;  0.0000000E+00;  1.7449481E-02;  4.0000000E+04;  0.0000000E+00;  4.0003363E+04; -2.2942806E-02;  0.0000000E+00; -8.7742303E-03;  5.5520026E+02;
  5.6162471E-01;  9.9999998E-03;  2.2004014E-01;5914; -2.6761448E-02;  0.0000000E+00; -3.1135178E-03;  9.9897406E+02;  1.0008001E-01; -8.4995123E+02;3;  3.3608289E+00;  0.0000000E+00; -2.4064007E+00;0; -3.1390510E-02;  3.9847328E+04;  0.0000000E+00; -7.4076960E-03;  4.0000000E+04;  0.0000000E+00;  4.0004742E+04; -2.2957949E-02;  0.0000000E+00; -8.4325597E-03;  7.3608795E+02;
  5.6166142E-01;  9.9999998E-03;  2.3002517E-01;5915; -2.6546601E-02;  0.0000000E+00; -3.1770759E-03;  9.9885028E+02;  1.0007983E-01; -9.5251617E+02;3;  3.3684008E+00;  0.0000000E+00; -2.4417834E+00;0; -3.1108707E-02;  3.9834887E+04;  0.0000000E+00; -3.5261963E-02;  4.0000000E+04;  0.0000000E+00;  4.0007082E+04; -2.2974962E-02;  0.0000000E+00; -8.1337439E-03;  1.0669705E+03;
  5.7168740E-01;  9.9999998E-03;  7.0028849E-02;5960; -2.9434089E-02;  0.0000000E+00; -1.2520319E-03;  9.9908783E+02;  1.0013084E-01; -7.5573163E+02;3;  4.0198488E+00;  0.0000000E+00; -1.0513780E+00;0; -3.7216276E-02;  3.9832867E+04;  0.0000000E+00;  5.0363567E-02;  4.0000000E+04;  0.0000000E+00;  3.9985828E+04; -2.1351559E-02;  0.0000000E+00; -1.5864715E-02;  1.5830455E+03;
  5.7168913E-01;  9.9999998E-03;  8.0031864E-02;5961; -2.9328955E-02;  0.0000000E+00; -1.4257678E-03;  9.9915753E+02;  1.0013099E-01; -6.9795551E+02;3;  3.9818685E+00;  0.0000000E+00; -1.1894572E+00;0; -3.6934860E-02;  3.9837953E+04;  0.0000000E+00;  6.6958196E-02;  4.0000000E+04;  0.0000000E+00;  3.9986195E+04; -2.1331897E-02;  0.0000000E+00; -1.5602963E-02;  1.5629823E+03;
  5.7168674E-01;  9.9999998E-03;  9.0034604E-02;5962; -2.9215841E-02;  0.0000000E+00; -1.5979450E-03;  9.9922986E+02;  1.0013097E-01; -6.3805597E+02;3;  3.9406304E+00;  0.0000000E+00; -1.3230351E+00;0; -3.6615491E-02;  3.9843586E+04;  0.0000000E+00;  8.3303422E-02;  4.0000000E+04;  0.0000000E+00;  3.9986227E+04; -2.1317048E-02;  0.0000000E+00; -1.5298445E-02;  1.5463867E+03;
  5.7167995E-01;  9.9999998E-03;  1.0003705E-01;5963; -2.9095367E-02;  0.0000000E+00; -1.7680662E-03;  9.9930377E+02;  1.0013086E-01; -5.7682312E+02;3;  3.8967190E+00;  0.0000000E+00; -1.4517004E+00;0; -3.6257025E-02;  3.9849391E+04;  0.0000000E+00;  9.7357005E-02;  4.0000000E+04;  0.0000000E+00;  3.9986582E+04; -2.1307854E-02;  0.0000000E+00; -1.4949170E-02;  1.5227083E+03;
  5.7166874E-01;  9.9999998E-03;  1.1003926E-01;5964; -2.8967733E-02;  0.0000000E+00; -1.9352389E-03;  9.9937909E+02;  1.0013118E-01; -5.1440515E+02;3;  3.8507876E+00;  0.0000000E+00; -1.5751638E+00;0; -3.5858810E-02;  3.9855094E+04;  0.0000000E+00;  1.0712473E-01;  4.0000000E+04;  0.0000000E+00;  3.9986938E+04; -2.1304742E-02;  0.0000000E+00; -1.4554070E-02;  1.4794935E+03;
  5.7165438E-01;  9.9999998E-03;  1.2004122E-01;5965; -2.8832734E-02;  0.0000000E+00; -2.0981720E-03;  9.9944702E+02;  1.0013115E-01; -4.5811047E+02;3;  3.8033416E+00;  0.0000000E+00; -1.6930836E+00;0; -3.5420984E-02;  3.9859930E+04;  0.0000000E+00;  1.1117170E-01;  4.0000000E+04;  0.0000000E+00;  3.9987562E+04; -2.1307306E-02;  0.0000000E+00; -1.4113679E-02;  1.4035560E+03;
  5.7163835E-01;  9.9999998E-03;  1.3004315E-01;5966; -2.8689964E-02;  0.0000000E+00; -2.2552586E-03;  9.9950592E+02;  1.0013101E-01; -4.0932172E+02;3;  3.7551937E+00;  0.0000000E+00; -1.8051140E+00;0; -3.4945097E-02;  3.9863727E+04;  0.0000000E+00;  1.0900755E-01;  4.0000000E+04;  0.0000000E+00;  3.9988578E+04; -2.1314727E-02;  0.0000000E+00; -1.3630369E-02;  1.2832260E+03;
  5.7162231E-01;  9.9999998E-03;  1.4004563E-01;5967; -2.8538836E-02;  0.0000000E+00; -2.4047513E-03;  9.9955188E+02;  1.0013114E-01; -3.7124872E+02;3;  3.7069757E+00;  0.0000000E+00; -1.9109222E+00;0; -3.4434158E-02;  3.9865719E+04;  0.0000000E+00;  1.0131146E-01;  4.0000000E+04;  0.0000000E+00;  3.9989996E+04; -2.1325804E-02;  0.0000000E+00; -1.3108354E-02;  1.1099620E+03;
  5.7160878E-01;  9.9999998E-03;  1.5004890E-01;5968; -2.8378746E-02;  0.0000000E+00; -2.5450161E-03;  9.9957977E+02;  1.0013122E-01; -3.4813828E+02;3;  3.6596453E+00;  0.0000000E+00; -2.0100269E+00;0; -3.3893287E-02;  3.9865906E+04;  0.0000000E+00;  8.9668974E-02;  4.0000000E+04;  0.0000000E+00;  3.9991852E+04; -2.1339307E-02;  0.0000000E+00; -1.2553980E-02;  8.8150665E+02;
  5.7159960E-01;  9.9999998E-03;  1.6005285E-01;5969; -2.8209142E-02;  0.0000000E+00; -2.6750450E-03;  9.9958197E+02;  1.0013103E-01; -3.4631116E+02;3;  3.6141856E+00;  0.0000000E+00; -2.1018925E+00;0; -3.3333775E-02;  3.9864227E+04;  0.0000000E+00;  7.5780913E-02;  4.0000000E+04;  0.0000000E+00;  3.9994098E+04; -2.1354269E-02;  0.0000000E+00; -1.1979506E-02;  6.0660339E+02;
  5.7159680E-01;  9.9999998E-03;  1.7005695E-01;5970; -2.8029840E-02;  0.0000000E+00; -2.7945591E-03;  9.9956421E+02;  1.0013123E-01; -3.6102679E+02;3;  3.5718255E+00;  0.0000000E+00; -2.1858819E+00;0; -3.2772839E-02;  3.9860410E+04;  0.0000000E+00;  6.0904179E-02;  4.0000000E+04;  0.0000000E+00;  3.9996375E+04; -2.1369936E-02;  0.0000000E+00; -1.1402901E-02;  3.0881470E+02;
  5.7160228E-01;  9.9999998E-03;  1.8006030E-01;5971; -2.7840944E-02;  0.0000000E+00; -2.9038130E-03;  9.9951587E+02;  1.0013138E-01; -4.0107504E+02;3;  3.5339019E+00;  0.0000000E+00; -2.2614942E+00;0; -3.2229524E-02;  3.9854535E+04;  0.0000000E+00;  4.5660801E-02;  4.0000000E+04;  0.0000000E+00;  3.9998629E+04; -2.1385808E-02;  0.0000000E+00; -1.0843716E-02;  6.2704723E+01;
  5.7161707E-01;  9.9999998E-03;  1.9006197E-01;5972; -2.7643230E-02;  0.0000000E+00; -3.0036061E-03;  9.9944409E+02;  1.0013139E-01; -4.6057953E+02;3;  3.5019226E+00;  0.0000000E+00; -2.3283539E+00;0; -3.1720802E-02;  3.9846871E+04;  0.0000000E+00;  3.0109018E-02;  4.0000000E+04;  0.0000000E+00;  4.0000719E+04; -2.1401782E-02;  0.0000000E+00; -1.0319021E-02;  2.3986739E+02;
  5.7164234E-01;  9.9999998E-03;  2.0006037E-01;5973; -2.7437987E-02;  0.0000000E+00; -3.0961363E-03;  9.9934198E+02;  1.0013146E-01; -5.4516974E+02;3;  3.4772766E+00;  0.0000000E+00; -2.3865018E+00;0; -3.1260259E-02;  3.9837738E+04;  0.0000000E+00;  1.4159647E-02;  4.0000000E+04;  0.0000000E+00;  4.0001938E+04; -2.1418126E-02;  0.0000000E+00; -9.8421350E-03;  3.9907623E+02;
  5.7167816E-01;  9.9999998E-03;  2.1005286E-01;5974; -2.7227113E-02;  0.0000000E+00; -3.1848550E-03;  9.9922137E+02;  1.0013153E-01; -6.4506812E+02;3;  3.4610624E+00;  0.0000000E+00; -2.4363630E+00;0; -3.0860972E-02;  3.9827500E+04;  0.0000000E+00; -2.1168960E-03;  4.0000000E+04;  0.0000000E+00;  4.0002504E+04; -2.1435734E-02;  0.0000000E+00; -9.4252378E-03;  5.0226031E+02;
  5.7172322E-01;  9.9999998E-03;  2.2003846E-01;5975; -2.7012741E-02;  0.0000000E+00; -3.2690424E-03;  9.9909973E+02;  1.0013144E-01; -7.4585541E+02;3;  3.4541352E+00;  0.0000000E+00; -2.4783781E+00;0; -3.0533645E-02;  3.9816625E+04;  0.0000000E+00; -1.9123407E-02;  4.0000000E+04;  0.0000000E+00;  4.0003828E+04; -2.1456119E-02;  0.0000000E+00; -9.0775276E-03;  6.6636462E+02;
  5.7177329E-01;  9.9999998E-03;  2.3002358E-01;5976; -2.6797300E-02;  0.0000000E+00; -3.3383605E-03;  9.9898877E+02;  1.0013144E-01; -8.3780341E+02;3;  3.4568789E+00;  0.0000000E+00; -2.5136628E+00;0; -3.0256838E-02;  3.9805867E+04;  0.0000000E+00; -3.8981196E-02;  4.0000000E+04;  0.0000000E+00;  4.0006121E+04; -2.1481387E-02;  0.0000000E+00; -8.7754494E-03;  9.6758429E+02;
  5.8182883E-01;  9.9999998E-03;  7.0018589E-02;6021; -2.9661277E-02;  0.0000000E+00; -1.2759687E-03;  9.9915668E+02;  1.0021388E-01; -6.9869623E+02;3;  4.2150455E+00;  0.0000000E+00; -1.0840483E+00;0; -3.6389928E-02;  3.9773801E+04;  0.0000000E+00;  1.0897911E-01;  4.0000000E+04;  0.0000000E+00;  3.9985086E+04; -1.9980649E-02;  0.0000000E+00; -1.6409280E-02;  1.6116223E+03;
  5.8181983E-01;  9.9999998E-03;  8.0022104E-02;6022; -2.9554542E-02;  0.0000000E+00; -1.4536353E-03;  9.9921899E+02;  1.0021397E-01; -6.4704340E+02;3;  4.1722145E+00;  0.0000000E+00; -1.2259998E+00;0; -3.6104225E-02;  3.9778363E+04;  0.0000000E+00;  1.3405468E-01;  4.0000000E+04;  0.0000000E+00;  3.9985496E+04; -1.9950779E-02;  0.0000000E+00; -1.6153444E-02;  1.5973093E+03;
  5.8180350E-01;  9.9999998E-03;  9.0025939E-02;6023; -2.9440118E-02;  0.0000000E+00; -1.6303241E-03;  9.9928552E+02;  1.0021431E-01; -5.9193384E+02;3;  4.1255622E+00;  0.0000000E+00; -1.3632312E+00;0; -3.5779655E-02;  3.9783719E+04;  0.0000000E+00;  1.5534908E-01;  4.0000000E+04;  0.0000000E+00;  3.9985555E+04; -1.9922759E-02;  0.0000000E+00; -1.5856897E-02;  1.5860167E+03;
  5.8178127E-01;  9.9999998E-03;  1.0002978E-01;6024; -2.9318752E-02;  0.0000000E+00; -1.8056931E-03;  9.9935376E+02;  1.0021400E-01; -5.3539221E+02;3;  4.0759053E+00;  0.0000000E+00; -1.4953887E+00;0; -3.5414733E-02;  3.9788730E+04;  0.0000000E+00;  1.6993907E-01;  4.0000000E+04;  0.0000000E+00;  3.9985730E+04; -1.9897271E-02;  0.0000000E+00; -1.5517460E-02;  1.5664987E+03;
  5.8175611E-01;  9.9999998E-03;  1.1003332E-01;6025; -2.9190779E-02;  0.0000000E+00; -1.9789587E-03;  9.9942126E+02;  1.0021417E-01; -4.7949258E+02;3;  4.0239363E+00;  0.0000000E+00; -1.6222367E+00;0; -3.5008166E-02;  3.9793730E+04;  0.0000000E+00;  1.7546123E-01;  4.0000000E+04;  0.0000000E+00;  3.9986094E+04; -1.9874377E-02;  0.0000000E+00; -1.5133788E-02;  1.5258365E+03;
  5.8173066E-01;  9.9999998E-03;  1.2003647E-01;6026; -2.9056082E-02;  0.0000000E+00; -2.1488736E-03;  9.9948126E+02;  1.0021426E-01; -4.2976559E+02;3;  3.9701278E+00;  0.0000000E+00; -1.7435133E+00;0; -3.4559954E-02;  3.9797828E+04;  0.0000000E+00;  1.7067596E-01;  4.0000000E+04;  0.0000000E+00;  3.9986672E+04; -1.9854074E-02;  0.0000000E+00; -1.4705879E-02;  1.4506580E+03;
  5.8170676E-01;  9.9999998E-03;  1.3003939E-01;6027; -2.8914284E-02;  0.0000000E+00; -2.3138262E-03;  9.9953729E+02;  1.0021437E-01; -3.8334717E+02;3;  3.9153314E+00;  0.0000000E+00; -1.8588752E+00;0; -3.4071423E-02;  3.9801148E+04;  0.0000000E+00;  1.5591228E-01;  4.0000000E+04;  0.0000000E+00;  3.9987871E+04; -1.9836029E-02;  0.0000000E+00; -1.4235396E-02;  1.3294476E+03;
  5.8168691E-01;  9.9999998E-03;  1.4004235E-01;6028; -2.8764704E-02;  0.0000000E+00; -2.4720265E-03;  9.9957928E+02;  1.0021447E-01; -3.4853333E+02;3;  3.8602326E+00;  0.0000000E+00; -1.9679064E+00;0; -3.3545580E-02;  3.9803012E+04;  0.0000000E+00;  1.3314797E-01;  4.0000000E+04;  0.0000000E+00;  3.9989164E+04; -1.9819856E-02;  0.0000000E+00; -1.3725724E-02;  1.1545520E+03;
  5.8167243E-01;  9.9999998E-03;  1.5004572E-01;6029; -2.8606618E-02;  0.0000000E+00; -2.6217597E-03;  9.9960724E+02;  1.0021443E-01; -3.2537347E+02;3;  3.8054810E+00;  0.0000000E+00; -2.0702267E+00;0; -3.2987807E-02;  3.9803477E+04;  0.0000000E+00;  1.0553230E-01;  4.0000000E+04;  0.0000000E+00;  3.9991141E+04; -1.9805582E-02;  0.0000000E+00; -1.3182226E-02;  9.2498950E+02;
  5.8166522E-01;  9.9999998E-03;  1.6004953E-01;6030; -2.8439321E-02;  0.0000000E+00; -2.7618664E-03;  9.9961938E+02;  1.0021445E-01; -3.1534909E+02;3;  3.7521408E+00;  0.0000000E+00; -2.1651847E+00;0; -3.2409359E-02;  3.9802066E+04;  0.0000000E+00;  7.6518290E-02;  4.0000000E+04;  0.0000000E+00;  3.9993180E+04; -1.9793222E-02;  0.0000000E+00; -1.2616137E-02;  6.5130078E+02;
  5.8166713E-01;  9.9999998E-03;  1.7005320E-01;6031; -2.8262263E-02;  0.0000000E+00; -2.8918667E-03;  9.9960864E+02;  1.0021455E-01; -3.2423773E+02;3;  3.7015224E+00;  0.0000000E+00; -2.2520299E+00;0; -3.1827968E-02;  3.9798980E+04;  0.0000000E+00;  4.9246259E-02;  4.0000000E+04;  0.0000000E+00;  3.9995488E+04; -1.9783149E-02;  0.0000000E+00; -1.2044818E-02;  3.5736032E+02;
  5.8167952E-01;  9.9999998E-03;  1.8005589E-01;6032; -2.8075369E-02;  0.0000000E+00; -3.0117549E-03;  9.9957642E+02;  1.0021462E-01; -3.5095300E+02;3;  3.6551864E+00;  0.0000000E+00; -2.3300238E+00;0; -3.1263441E-02;  3.9794184E+04;  0.0000000E+00;  2.5964016E-02;  4.0000000E+04;  0.0000000E+00;  3.9997625E+04; -1.9775696E-02;  0.0000000E+00; -1.1487747E-02;  8.0567055E+01;
  5.8170360E-01;  9.9999998E-03;  1.9005667E-01;6033; -2.7879130E-02;  0.0000000E+00; -3.1221623E-03;  9.9951617E+02;  1.0021471E-01; -4.0082812E+02;3;  3.6149244E+00;  0.0000000E+00; -2.3988380E+00;0; -3.0734032E-02;  3.9787723E+04;  0.0000000E+00;  7.6802378E-03;  4.0000000E+04;  0.0000000E+00;  3.9999535E+04; -1.9771151E-02;  0.0000000E+00; -1.0962882E-02;  1.5368716E+02;
  5.8173960E-01;  9.9999998E-03;  2.0005386E-01;6034; -2.7674684E-02;  0.0000000E+00; -3.2248206E-03;  9.9943292E+02;  1.0021479E-01; -4.6981384E+02;3;  3.5821702E+00;  0.0000000E+00; -2.4584091E+00;0; -3.0255236E-02;  3.9780125E+04;  0.0000000E+00; -5.6189229E-03;  4.0000000E+04;  0.0000000E+00;  4.0000648E+04; -1.9770199E-02;  0.0000000E+00; -1.0485036E-02;  3.0315662E+02;
  5.8178675E-01;  9.9999998E-03;  2.1004501E-01;6035; -2.7463812E-02;  0.0000000E+00; -3.3224237E-03;  9.9933173E+02;  1.0021475E-01; -5.5366333E+02;3;  3.5586979E+00;  0.0000000E+00; -2.5091286E+00;0; -2.9841747E-02;  3.9771578E+04;  0.0000000E+00; -1.4898643E-02;  4.0000000E+04;  0.0000000E+00;  4.0001320E+04; -1.9773910E-02;  0.0000000E+00; -1.0067838E-02;  4.0953305E+02;
  5.8184260E-01;  9.9999998E-03;  2.2003041E-01;6036; -2.7248774E-02;  0.0000000E+00; -3.4127780E-03;  9.9923114E+02;  1.0021487E-01; -6.3696960E+02;3;  3.5452294E+00;  0.0000000E+00; -2.5515139E+00;0; -2.9503036E-02;  3.9762258E+04;  0.0000000E+00; -2.2945832E-02;  4.0000000E+04;  0.0000000E+00;  4.0002699E+04; -1.9783925E-02;  0.0000000E+00; -9.7191110E-03;  5.8867645E+02;
  5.8190298E-01;  9.9999998E-03;  2.3001781E-01;6037; -2.7032442E-02;  0.0000000E+00; -3.4873472E-03;  9.9913721E+02;  1.0021494E-01; -7.1479456E+02;3;  3.5426288E+00;  0.0000000E+00; -2.5864737E+00;0; -2.9218726E-02;  3.9752871E+04;  0.0000000E+00; -3.6328096E-02;  4.0000000E+04;  0.0000000E+00;  4.0004910E+04; -1.9802280E-02;  0.0000000E+00; -9.4164470E-03;  8.7104211E+02;
  5.9195280E-01;  9.9999998E-03;  7.0010900E-02;6082; -2.9869990E-02;  0.0000000E+00; -1.2927053E-03;  9.9924957E+02;  1.0034806E-01; -6.2171075E+02;3;  4.4142580E+00;  0.0000000E+00; -1.1160026E+00;0; -3.5515726E-02;  3.9677434E+04;  0.0000000E+00;  1.5274610E-01;  4.0000000E+04;  0.0000000E+00;  3.9984480E+04; -1.8619671E-02;  0.0000000E+00; -1.6896052E-02;  1.6013733E+03;
  5.9193158E-01;  9.9999998E-03;  8.0013976E-02;6083; -2.9761614E-02;  0.0000000E+00; -1.4731432E-03;  9.9929816E+02;  1.0034810E-01; -5.8146497E+02;3;  4.3661075E+00;  0.0000000E+00; -1.2616556E+00;0; -3.5222132E-02;  3.9680934E+04;  0.0000000E+00;  1.8209274E-01;  4.0000000E+04;  0.0000000E+00;  3.9984691E+04; -1.8579884E-02;  0.0000000E+00; -1.6642248E-02;  1.5960419E+03;
  5.9190327E-01;  9.9999998E-03;  9.0017341E-02;6084; -2.9645829E-02;  0.0000000E+00; -1.6531309E-03;  9.9934747E+02;  1.0034801E-01; -5.4062665E+02;3;  4.3139253E+00;  0.0000000E+00; -1.4023553E+00;0; -3.4887783E-02;  3.9684527E+04;  0.0000000E+00;  2.0434868E-01;  4.0000000E+04;  0.0000000E+00;  3.9984617E+04; -1.8537417E-02;  0.0000000E+00; -1.6350364E-02;  1.5949957E+03;
  5.9186959E-01;  9.9999998E-03;  1.0002130E-01;6085; -2.9523453E-02;  0.0000000E+00; -1.8325014E-03;  9.9939252E+02;  1.0034835E-01; -5.0329437E+02;3;  4.2583261E+00;  0.0000000E+00; -1.5378644E+00;0; -3.4510866E-02;  3.9688043E+04;  0.0000000E+00;  2.1623452E-01;  4.0000000E+04;  0.0000000E+00;  3.9984820E+04; -1.8492661E-02;  0.0000000E+00; -1.6018206E-02;  1.5867916E+03;
  5.9183264E-01;  9.9999998E-03;  1.1002597E-01;6086; -2.9394954E-02;  0.0000000E+00; -2.0106023E-03;  9.9944025E+02;  1.0034828E-01; -4.6373993E+02;3;  4.2000899E+00;  0.0000000E+00; -1.6679696E+00;0; -3.4089953E-02;  3.9691277E+04;  0.0000000E+00;  2.1550512E-01;  4.0000000E+04;  0.0000000E+00;  3.9985074E+04; -1.8445784E-02;  0.0000000E+00; -1.5644170E-02;  1.5580782E+03;
  5.9179610E-01;  9.9999998E-03;  1.2003111E-01;6087; -2.9260276E-02;  0.0000000E+00; -2.1862788E-03;  9.9948572E+02;  1.0034828E-01; -4.2606198E+02;3;  4.1398525E+00;  0.0000000E+00; -1.7924351E+00;0; -3.3624671E-02;  3.9694156E+04;  0.0000000E+00;  2.0152459E-01;  4.0000000E+04;  0.0000000E+00;  3.9985672E+04; -1.8396823E-02;  0.0000000E+00; -1.5227847E-02;  1.4954163E+03;
  5.9176373E-01;  9.9999998E-03;  1.3003637E-01;6088; -2.9119045E-02;  0.0000000E+00; -2.3579947E-03;  9.9952515E+02;  1.0034844E-01; -3.9342093E+02;3;  4.0785604E+00;  0.0000000E+00; -1.9107124E+00;0; -3.3116218E-02;  3.9696312E+04;  0.0000000E+00;  1.7562877E-01;  4.0000000E+04;  0.0000000E+00;  3.9986387E+04; -1.8345779E-02;  0.0000000E+00; -1.4770438E-02;  1.3871093E+03;
  5.9173888E-01;  9.9999998E-03;  1.4004135E-01;6089; -2.8970657E-02;  0.0000000E+00; -2.5240222E-03;  9.9955615E+02;  1.0034855E-01; -3.6774265E+02;3;  4.0163550E+00;  0.0000000E+00; -2.0230072E+00;0; -3.2567564E-02;  3.9697332E+04;  0.0000000E+00;  1.4098838E-01;  4.0000000E+04;  0.0000000E+00;  3.9987738E+04; -1.8292900E-02;  0.0000000E+00; -1.4274664E-02;  1.2259022E+03;
  5.9172297E-01;  9.9999998E-03;  1.5004607E-01;6090; -2.8814264E-02;  0.0000000E+00; -2.6825985E-03;  9.9957800E+02;  1.0034860E-01; -3.4961972E+02;3;  3.9542446E+00;  0.0000000E+00; -2.1284094E+00;0; -3.1984091E-02;  3.9697367E+04;  0.0000000E+00;  1.0199840E-01;  4.0000000E+04;  0.0000000E+00;  3.9989449E+04; -1.8239111E-02;  0.0000000E+00; -1.3744981E-02;  1.0118633E+03;
  5.9171748E-01;  9.9999998E-03;  1.6005045E-01;6091; -2.8648997E-02;  0.0000000E+00; -2.8325091E-03;  9.9958655E+02;  1.0034893E-01; -3.4255820E+02;3;  3.8926816E+00;  0.0000000E+00; -2.2265429E+00;0; -3.1377289E-02;  3.9696027E+04;  0.0000000E+00;  6.3346282E-02;  4.0000000E+04;  0.0000000E+00;  3.9991406E+04; -1.8185725E-02;  0.0000000E+00; -1.3191565E-02;  7.5712152E+02;
  5.9172332E-01;  9.9999998E-03;  1.7005409E-01;6092; -2.8474139E-02;  0.0000000E+00; -2.9731435E-03;  9.9958209E+02;  1.0034908E-01; -3.4621240E+02;3;  3.8330178E+00;  0.0000000E+00; -2.3165920E+00;0; -3.0764975E-02;  3.9693402E+04;  0.0000000E+00;  2.9364429E-02;  4.0000000E+04;  0.0000000E+00;  3.9993699E+04; -1.8134171E-02;  0.0000000E+00; -1.2630803E-02;  4.8723413E+02;
  5.9174138E-01;  9.9999998E-03;  1.8005607E-01;6093; -2.8289240E-02;  0.0000000E+00; -3.1043848E-03;  9.9955878E+02;  1.0034906E-01; -3.6552051E+02;3;  3.7776914E+00;  0.0000000E+00; -2.3972304E+00;0; -3.0167755E-02;  3.9689320E+04;  0.0000000E+00;  3.1944353E-03;  4.0000000E+04;  0.0000000E+00;  3.9995391E+04; -1.8085839E-02;  0.0000000E+00; -1.2081916E-02;  2.3804485E+02;
  5.9177214E-01;  9.9999998E-03;  1.9005546E-01;6094; -2.8094621E-02;  0.0000000E+00; -3.2268711E-03;  9.9951270E+02;  1.0034942E-01; -4.0374164E+02;3;  3.7276194E+00;  0.0000000E+00; -2.4685290E+00;0; -2.9605579E-02;  3.9684094E+04;  0.0000000E+00; -1.3741334E-02;  4.0000000E+04;  0.0000000E+00;  3.9996969E+04; -1.8041946E-02;  0.0000000E+00; -1.1563634E-02;  4.9876366E+01;
  5.9181464E-01;  9.9999998E-03;  2.0005050E-01;6095; -2.7891165E-02;  0.0000000E+00; -3.3425267E-03;  9.9943909E+02;  1.0034940E-01; -4.6472757E+02;3;  3.6862853E+00;  0.0000000E+00; -2.5297165E+00;0; -2.9097419E-02;  3.9677535E+04;  0.0000000E+00; -2.1602038E-02;  4.0000000E+04;  0.0000000E+00;  3.9997941E+04; -1.8004106E-02;  0.0000000E+00; -1.1093314E-02;  8.2643539E+01;
  5.9186739E-01;  9.9999998E-03;  2.1003863E-01;6096; -2.7680546E-02;  0.0000000E+00; -3.4531122E-03;  9.9935516E+02;  1.0034940E-01; -5.3425647E+02;3;  3.6539226E+00;  0.0000000E+00; -2.5815659E+00;0; -2.8662823E-02;  3.9669883E+04;  0.0000000E+00; -2.2116134E-02;  4.0000000E+04;  0.0000000E+00;  3.9998664E+04; -1.7974228E-02;  0.0000000E+00; -1.0688596E-02;  1.8866676E+02;
  5.9192771E-01;  9.9999998E-03;  2.2002135E-01;6097; -2.7464580E-02;  0.0000000E+00; -3.5538687E-03;  9.9927081E+02;  1.0034967E-01; -6.0413104E+02;3;  3.6335242E+00;  0.0000000E+00; -2.6243529E+00;0; -2.8313566E-02;  3.9662000E+04;  0.0000000E+00; -1.9730080E-02;  4.0000000E+04;  0.0000000E+00;  4.0000375E+04; -1.7954554E-02;  0.0000000E+00; -1.0359012E-02;  4.2293625E+02;
  5.9199148E-01;  9.9999998E-03;  2.3000917E-01;6098; -2.7247131E-02;  0.0000000E+00; -3.6339720E-03;  9.9919745E+02;  1.0034961E-01; -6.6491943E+02;3;  3.6247220E+00;  0.0000000E+00; -2.6591287E+00;0; -2.8022867E-02;  3.9653551E+04;  0.0000000E+00; -2.3887549E-02;  4.0000000E+04;  0.0000000E+00;  4.0003277E+04; -1.7947353E-02;  0.0000000E+00; -1.0075514E-02;  7.7009467E+02;
  6.0199928E-01;  9.9999998E-03;  7.0012681E-02;6143; -3.0054417E-02;  0.0000000E+00; -1.3059844E-03;  9.9929718E+02;  1.0056140E-01; -5.8225507E+02;3;  4.6163101E+00;  0.0000000E+00; -1.1471938E+00;0; -3.4655590E-02;  3.9516188E+04;  0.0000000E+00;  1.6875011E-01;  4.0000000E+04;  0.0000000E+00;  3.9983633E+04; -1.7329758E-02;  0.0000000E+00; -1.7325832E-02;  1.5500219E+03;
  6.0197705E-01;  9.9999998E-03;  8.0013685E-02;6144; -2.9944766E-02;  0.0000000E+00; -1.4883130E-03;  9.9932281E+02;  1.0056169E-01; -5.6102112E+02;3;  4.5628347E+00;  0.0000000E+00; -1.2963395E+00;0; -3.4347385E-02;  3.9517949E+04;  0.0000000E+00;  1.9611520E-01;  4.0000000E+04;  0.0000000E+00;  3.9983602E+04; -1.7278057E-02;  0.0000000E+00; -1.7069327E-02;  1.5552961E+03;
  6.0194874E-01;  9.9999998E-03;  9.0014547E-02;6145; -2.9827932E-02;  0.0000000E+00; -1.6705522E-03;  9.9934705E+02;  1.0056166E-01; -5.4097229E+02;3;  4.5048842E+00;  0.0000000E+00; -1.4403177E+00;0; -3.3995479E-02;  3.9519480E+04;  0.0000000E+00;  2.1396661E-01;  4.0000000E+04;  0.0000000E+00;  3.9983555E+04; -1.7218089E-02;  0.0000000E+00; -1.6777389E-02;  1.5679763E+03;
  6.0191518E-01;  9.9999998E-03;  1.0001605E-01;6146; -2.9704848E-02;  0.0000000E+00; -1.8526935E-03;  9.9937177E+02;  1.0056184E-01; -5.2047906E+02;3;  4.4432855E+00;  0.0000000E+00; -1.5789534E+00;0; -3.3597939E-02;  3.9521055E+04;  0.0000000E+00;  2.1936393E-01;  4.0000000E+04;  0.0000000E+00;  3.9983449E+04; -1.7149771E-02;  0.0000000E+00; -1.6448168E-02;  1.5770187E+03;
  6.0187763E-01;  9.9999998E-03;  1.1001876E-01;6147; -2.9575884E-02;  0.0000000E+00; -2.0342371E-03;  9.9939160E+02;  1.0056213E-01; -5.0403510E+02;3;  4.3787293E+00;  0.0000000E+00; -1.7120562E+00;0; -3.3153106E-02;  3.9522457E+04;  0.0000000E+00;  2.1078022E-01;  4.0000000E+04;  0.0000000E+00;  3.9983582E+04; -1.7073063E-02;  0.0000000E+00; -1.6080042E-02;  1.5691973E+03;
  6.0183847E-01;  9.9999998E-03;  1.2002300E-01;6148; -2.9441034E-02;  0.0000000E+00; -2.2141980E-03;  9.9940674E+02;  1.0056242E-01; -4.9149225E+02;3;  4.3123779E+00;  0.0000000E+00; -1.8391410E+00;0; -3.2660648E-02;  3.9523117E+04;  0.0000000E+00;  1.8857093E-01;  4.0000000E+04;  0.0000000E+00;  3.9983574E+04; -1.6988140E-02;  0.0000000E+00; -1.5672507E-02;  1.5306757E+03;
  6.0180080E-01;  9.9999998E-03;  1.3002880E-01;6149; -2.9300097E-02;  0.0000000E+00; -2.3912513E-03;  9.9942480E+02;  1.0056223E-01; -4.7652969E+02;3;  4.2445087E+00;  0.0000000E+00; -1.9601885E+00;0; -3.2121710E-02;  3.9523555E+04;  0.0000000E+00;  1.5507221E-01;  4.0000000E+04;  0.0000000E+00;  3.9984441E+04; -1.6895436E-02;  0.0000000E+00; -1.5226275E-02;  1.4493691E+03;
  6.0176861E-01;  9.9999998E-03;  1.4003587E-01;6150; -2.9152419E-02;  0.0000000E+00; -2.5637853E-03;  9.9943768E+02;  1.0056274E-01; -4.6586334E+02;3;  4.1761556E+00;  0.0000000E+00; -2.0745935E+00;0; -3.1539246E-02;  3.9523188E+04;  0.0000000E+00;  1.1428831E-01;  4.0000000E+04;  0.0000000E+00;  3.9985344E+04; -1.6795734E-02;  0.0000000E+00; -1.4743512E-02;  1.3175845E+03;
  6.0174596E-01;  9.9999998E-03;  1.5004340E-01;6151; -2.8997399E-02;  0.0000000E+00; -2.7302278E-03;  9.9944794E+02;  1.0056295E-01; -4.5736975E+02;3;  4.1061959E+00;  0.0000000E+00; -2.1831527E+00;0; -3.0918457E-02;  3.9522340E+04;  0.0000000E+00;  7.1153000E-02;  4.0000000E+04;  0.0000000E+00;  3.9986660E+04; -1.6690472E-02;  0.0000000E+00; -1.4227984E-02;  1.1356710E+03;
  6.0173601E-01;  9.9999998E-03;  1.6005027E-01;6152; -2.8833959E-02;  0.0000000E+00; -2.8892253E-03;  9.9944928E+02;  1.0056322E-01; -4.5628336E+02;3;  4.0357561E+00;  0.0000000E+00; -2.2846627E+00;0; -3.0270658E-02;  3.9520566E+04;  0.0000000E+00;  3.0623531E-02;  4.0000000E+04;  0.0000000E+00;  3.9988641E+04; -1.6581642E-02;  0.0000000E+00; -1.3689018E-02;  9.1637659E+02;
  6.0174030E-01;  9.9999998E-03;  1.7005533E-01;6153; -2.8661206E-02;  0.0000000E+00; -3.0401421E-03;  9.9944067E+02;  1.0056351E-01; -4.6339426E+02;3;  3.9670281E+00;  0.0000000E+00; -2.3778658E+00;0; -2.9613726E-02;  3.9517703E+04;  0.0000000E+00; -2.8220746E-03;  4.0000000E+04;  0.0000000E+00;  3.9990367E+04; -1.6471621E-02;  0.0000000E+00; -1.3142105E-02;  6.8666833E+02;
  6.0175896E-01;  9.9999998E-03;  1.8005766E-01;6154; -2.8478527E-02;  0.0000000E+00; -3.1830254E-03;  9.9941394E+02;  1.0056404E-01; -4.8551709E+02;3;  3.9007611E+00;  0.0000000E+00; -2.4617674E+00;0; -2.8969061E-02;  3.9513965E+04;  0.0000000E+00; -2.6041657E-02;  4.0000000E+04;  0.0000000E+00;  3.9992070E+04; -1.6363041E-02;  0.0000000E+00; -1.2606020E-02;  4.8278772E+02;
  6.0179102E-01;  9.9999998E-03;  1.9005612E-01;6155; -2.8285630E-02;  0.0000000E+00; -3.3187533E-03;  9.9936664E+02;  1.0056406E-01; -5.2472589E+02;3;  3.8400986E+00;  0.0000000E+00; -2.5358338E+00;0; -2.8359156E-02;  3.9509023E+04;  0.0000000E+00; -3.7619755E-02;  4.0000000E+04;  0.0000000E+00;  3.9993184E+04; -1.6258715E-02;  0.0000000E+00; -1.2100440E-02;  3.3699808E+02;
  6.0183442E-01;  9.9999998E-03;  2.0004858E-01;6156; -2.8083540E-02;  0.0000000E+00; -3.4497362E-03;  9.9929639E+02;  1.0056403E-01; -5.8294641E+02;3;  3.7878973E+00;  0.0000000E+00; -2.5995574E+00;0; -2.7807929E-02;  3.9502734E+04;  0.0000000E+00; -3.7486952E-02;  4.0000000E+04;  0.0000000E+00;  3.9993828E+04; -1.6161701E-02;  0.0000000E+00; -1.1646229E-02;  2.4704109E+02;
  6.0188705E-01;  9.9999998E-03;  2.1003263E-01;6157; -2.7873246E-02;  0.0000000E+00; -3.5772857E-03;  9.9922015E+02;  1.0056417E-01; -6.4610516E+02;3;  3.7462437E+00;  0.0000000E+00; -2.6527255E+00;0; -2.7343668E-02;  3.9495789E+04;  0.0000000E+00; -2.7120236E-02;  4.0000000E+04;  0.0000000E+00;  3.9994742E+04; -1.6075617E-02;  0.0000000E+00; -1.1268050E-02;  1.2269235E+02;
  6.0194504E-01;  9.9999998E-03;  2.2001092E-01;6158; -2.7657207E-02;  0.0000000E+00; -3.6924493E-03;  9.9915466E+02;  1.0056438E-01; -7.0032581E+02;3;  3.7179883E+00;  0.0000000E+00; -2.6962702E+00;0; -2.6983570E-02;  3.9488086E+04;  0.0000000E+00; -1.0491638E-02;  4.0000000E+04;  0.0000000E+00;  3.9997457E+04; -1.6003970E-02;  0.0000000E+00; -1.0979599E-02;  2.2220062E+02;
  6.0200459E-01;  9.9999998E-03;  2.2999744E-01;6159; -2.7439173E-02;  0.0000000E+00; -3.7779319E-03;  9.9910596E+02;  1.0056425E-01; -7.4071973E+02;3;  3.7028043E+00;  0.0000000E+00; -2.7313697E+00;0; -2.6687134E-02;  3.9480410E+04;  0.0000000E+00;  3.7077097E-03;  4.0000000E+04;  0.0000000E+00;  4.0001641E+04; -1.5949698E-02;  0.0000000E+00; -1.0737436E-02;  7.3215680E+02;
  6.1196488E-01;  9.9999998E-03;  7.0020936E-02;6204; -3.0211905E-02;  0.0000000E+00; -1.3199877E-03;  9.9927704E+02;  1.0089495E-01; -5.9894598E+02;3;  4.8211498E+00;  0.0000000E+00; -1.1777248E+00;0; -3.3877213E-02;  3.9258477E+04;  0.0000000E+00;  1.4904721E-01;  4.0000000E+04;  0.0000000E+00;  3.9981926E+04; -1.6173555E-02;  0.0000000E+00; -1.7703658E-02;  1.4657592E+03;
  6.1194772E-01;  9.9999998E-03;  8.0021389E-02;6205; -3.0101387E-02;  0.0000000E+00; -1.5037614E-03;  9.9927515E+02;  1.0089531E-01; -6.0052618E+02;3;  4.7620153E+00;  0.0000000E+00; -1.3302822E+00;0; -3.3546805E-02;  3.9257977E+04;  0.0000000E+00;  1.6707155E-01;  4.0000000E+04;  0.0000000E+00;  3.9982055E+04; -1.6108407E-02;  0.0000000E+00; -1.7438397E-02;  1.4814636E+03;
  6.1192465E-01;  9.9999998E-03;  9.0021200E-02;6206; -2.9983807E-02;  0.0000000E+00; -1.6875301E-03;  9.9927319E+02;  1.0089567E-01; -6.0215576E+02;3;  4.6980686E+00;  0.0000000E+00; -1.4773803E+00;0; -3.3168711E-02;  3.9257352E+04;  0.0000000E+00;  1.7453820E-01;  4.0000000E+04;  0.0000000E+00;  3.9981578E+04; -1.6028712E-02;  0.0000000E+00; -1.7139999E-02;  1.5097107E+03;
  6.1189592E-01;  9.9999998E-03;  1.0002090E-01;6207; -2.9860046E-02;  0.0000000E+00; -1.8714027E-03;  9.9926703E+02;  1.0089583E-01; -6.0724207E+02;3;  4.6301732E+00;  0.0000000E+00; -1.6188923E+00;0; -3.2740846E-02;  3.9256680E+04;  0.0000000E+00;  1.6962570E-01;  4.0000000E+04;  0.0000000E+00;  3.9981309E+04; -1.5933599E-02;  0.0000000E+00; -1.6807247E-02;  1.5404248E+03;
  6.1186314E-01;  9.9999998E-03;  1.1002105E-01;6208; -2.9730570E-02;  0.0000000E+00; -2.0550347E-03;  9.9926001E+02;  1.0089607E-01; -6.1306903E+02;3;  4.5593586E+00;  0.0000000E+00; -1.7545450E+00;0; -3.2261416E-02;  3.9255781E+04;  0.0000000E+00;  1.5211301E-01;  4.0000000E+04;  0.0000000E+00;  3.9981191E+04; -1.5822381E-02;  0.0000000E+00; -1.6439037E-02;  1.5605422E+03;
  6.1182857E-01;  9.9999998E-03;  1.2002203E-01;6209; -2.9595438E-02;  0.0000000E+00; -2.2376569E-03;  9.9925568E+02;  1.0089671E-01; -6.1667389E+02;3;  4.4867735E+00;  0.0000000E+00; -1.8837726E+00;0; -3.1729855E-02;  3.9254648E+04;  0.0000000E+00;  1.2356882E-01;  4.0000000E+04;  0.0000000E+00;  3.9981129E+04; -1.5694888E-02;  0.0000000E+00; -1.6034968E-02;  1.5557517E+03;
  6.1179513E-01;  9.9999998E-03;  1.3002430E-01;6210; -2.9454406E-02;  0.0000000E+00; -2.4182745E-03;  9.9924579E+02;  1.0089687E-01; -6.2487115E+02;3;  4.4137483E+00;  0.0000000E+00; -2.0060573E+00;0; -3.1147216E-02;  3.9253285E+04;  0.0000000E+00;  8.7172285E-02;  4.0000000E+04;  0.0000000E+00;  3.9981520E+04; -1.5551535E-02;  0.0000000E+00; -1.5595681E-02;  1.5128004E+03;
  6.1176574E-01;  9.9999998E-03;  1.4002827E-01;6211; -2.9307205E-02;  0.0000000E+00; -2.5956281E-03;  9.9923889E+02;  1.0089706E-01; -6.3055005E+02;3;  4.3394775E+00;  0.0000000E+00; -2.1219471E+00;0; -3.0516556E-02;  3.9251633E+04;  0.0000000E+00;  4.7199875E-02;  4.0000000E+04;  0.0000000E+00;  3.9982160E+04; -1.5393539E-02;  0.0000000E+00; -1.5123016E-02;  1.4229263E+03;
  6.1174387E-01;  9.9999998E-03;  1.5003376E-01;6212; -2.9153302E-02;  0.0000000E+00; -2.7683869E-03;  9.9922821E+02;  1.0089783E-01; -6.3938928E+02;3;  4.2619944E+00;  0.0000000E+00; -2.2333257E+00;0; -2.9843073E-02;  3.9249262E+04;  0.0000000E+00;  8.2018115E-03;  4.0000000E+04;  0.0000000E+00;  3.9983082E+04; -1.5222873E-02;  0.0000000E+00; -1.4620200E-02;  1.2855771E+03;
  6.1173308E-01;  9.9999998E-03;  1.6003978E-01;6213; -2.8991578E-02;  0.0000000E+00; -2.9350875E-03;  9.9921680E+02;  1.0089833E-01; -6.4887048E+02;3;  4.1836419E+00;  0.0000000E+00; -2.3372238E+00;0; -2.9138047E-02;  3.9246629E+04;  0.0000000E+00; -2.5732214E-02;  4.0000000E+04;  0.0000000E+00;  3.9984543E+04; -1.5042337E-02;  0.0000000E+00; -1.4095712E-02;  1.1120966E+03;
  6.1173576E-01;  9.9999998E-03;  1.7004479E-01;6214; -2.8821301E-02;  0.0000000E+00; -3.0954171E-03;  9.9919739E+02;  1.0089871E-01; -6.6496881E+02;3;  4.1033154E+00;  0.0000000E+00; -2.4344676E+00;0; -2.8419305E-02;  3.9243223E+04;  0.0000000E+00; -5.1143799E-02;  4.0000000E+04;  0.0000000E+00;  3.9985988E+04; -1.4855146E-02;  0.0000000E+00; -1.3564159E-02;  9.2663416E+02;
  6.1175239E-01;  9.9999998E-03;  1.8004696E-01;6215; -2.8640952E-02;  0.0000000E+00; -3.2491954E-03;  9.9916553E+02;  1.0089894E-01; -6.9133844E+02;3;  4.0256643E+00;  0.0000000E+00; -2.5217555E+00;0; -2.7709298E-02;  3.9238801E+04;  0.0000000E+00; -6.5727890E-02;  4.0000000E+04;  0.0000000E+00;  3.9987387E+04; -1.4665366E-02;  0.0000000E+00; -1.3043932E-02;  7.6053107E+02;
  6.1178195E-01;  9.9999998E-03;  1.9004430E-01;6216; -2.8450450E-02;  0.0000000E+00; -3.3978785E-03;  9.9910938E+02;  1.0089947E-01; -7.3785559E+02;3;  3.9532657E+00;  0.0000000E+00; -2.5998006E+00;0; -2.7033411E-02;  3.9233266E+04;  0.0000000E+00; -6.8086915E-02;  4.0000000E+04;  0.0000000E+00;  3.9988352E+04; -1.4477647E-02;  0.0000000E+00; -1.2555764E-02;  6.3580756E+02;
  6.1182183E-01;  9.9999998E-03;  2.0003442E-01;6217; -2.8249929E-02;  0.0000000E+00; -3.5437231E-03;  9.9903937E+02;  1.0089987E-01; -7.9587866E+02;3;  3.8877537E+00;  0.0000000E+00; -2.6659799E+00;0; -2.6421623E-02;  3.9226836E+04;  0.0000000E+00; -5.7367511E-02;  4.0000000E+04;  0.0000000E+00;  3.9989148E+04; -1.4297625E-02;  0.0000000E+00; -1.2123998E-02;  5.3098248E+02;
  6.1186880E-01;  9.9999998E-03;  2.1001494E-01;6218; -2.8041223E-02;  0.0000000E+00; -3.6870632E-03;  9.9896527E+02;  1.0089972E-01; -8.5725964E+02;3;  3.8376894E+00;  0.0000000E+00; -2.7212958E+00;0; -2.5910171E-02;  3.9219270E+04;  0.0000000E+00; -3.3636313E-02;  4.0000000E+04;  0.0000000E+00;  3.9990703E+04; -1.4130853E-02;  0.0000000E+00; -1.1779318E-02;  3.1808188E+02;
  6.1191928E-01;  9.9999998E-03;  2.1999088E-01;6219; -2.7825542E-02;  0.0000000E+00; -3.8133615E-03;  9.9891156E+02;  1.0089993E-01; -9.0175220E+02;3;  3.8003206E+00;  0.0000000E+00; -2.7663212E+00;0; -2.5518240E-02;  3.9211180E+04;  0.0000000E+00;  1.1075874E-03;  4.0000000E+04;  0.0000000E+00;  3.9994816E+04; -1.3983053E-02;  0.0000000E+00; -1.1535187E-02;  2.0817455E+02;
  6.1196995E-01;  9.9999998E-03;  2.2997966E-01;6220; -2.7607521E-02;  0.0000000E+00; -3.8996276E-03;  9.9888397E+02;  1.0090013E-01; -9.2461578E+02;3;  3.7760532E+00;  0.0000000E+00; -2.8022563E+00;0; -2.5185879E-02;  3.9203297E+04;  0.0000000E+00;  4.0977824E-02;  4.0000000E+04;  0.0000000E+00;  4.0000668E+04; -1.3857900E-02;  0.0000000E+00; -1.1327978E-02;  9.2799878E+02;
  6.2187439E-01;  9.9999998E-03;  7.0027992E-02;6265; -3.0342905E-02;  0.0000000E+00; -1.3385137E-03;  9.9927039E+02;  1.0140128E-01; -6.0447668E+02;3;  5.0291395E+00;  0.0000000E+00; -1.2078428E+00;0; -3.3247534E-02;  3.8871699E+04;  0.0000000E+00;  9.1752715E-02;  4.0000000E+04;  0.0000000E+00;  3.9979355E+04; -1.5212058E-02;  0.0000000E+00; -1.8035477E-02;  1.3640494E+03;
  6.2186116E-01;  9.9999998E-03;  8.0028601E-02;6266; -3.0231979E-02;  0.0000000E+00; -1.5236782E-03;  9.9924280E+02;  1.0140149E-01; -6.2734021E+02;3;  4.9639707E+00;  0.0000000E+00; -1.3636895E+00;0; -3.2887772E-02;  3.8869184E+04;  0.0000000E+00;  9.3503863E-02;  4.0000000E+04;  0.0000000E+00;  3.9979121E+04; -1.5132751E-02;  0.0000000E+00; -1.7755020E-02;  1.3901577E+03;
  6.2184316E-01;  9.9999998E-03;  9.0028264E-02;6267; -3.0113902E-02;  0.0000000E+00; -1.7085752E-03;  9.9921350E+02;  1.0140219E-01; -6.5158649E+02;3;  4.8936043E+00;  0.0000000E+00; -1.5138052E+00;0; -3.2475293E-02;  3.8866562E+04;  0.0000000E+00;  8.5381411E-02;  4.0000000E+04;  0.0000000E+00;  3.9978672E+04; -1.5032100E-02;  0.0000000E+00; -1.7443195E-02;  1.4360818E+03;
  6.2182087E-01;  9.9999998E-03;  1.0002723E-01;6268; -2.9989550E-02;  0.0000000E+00; -1.8933880E-03;  9.9917975E+02;  1.0140278E-01; -6.7958569E+02;3;  4.8190203E+00;  0.0000000E+00; -1.6580410E+00;0; -3.2007631E-02;  3.8863746E+04;  0.0000000E+00;  6.7266859E-02;  4.0000000E+04;  0.0000000E+00;  3.9978207E+04; -1.4908013E-02;  0.0000000E+00; -1.7099619E-02;  1.4926180E+03;
  6.2179512E-01;  9.9999998E-03;  1.1002615E-01;6269; -2.9859332E-02;  0.0000000E+00; -2.0779027E-03;  9.9914655E+02;  1.0140337E-01; -7.0709106E+02;3;  4.7416239E+00;  0.0000000E+00; -1.7959393E+00;0; -3.1482860E-02;  3.8860879E+04;  0.0000000E+00;  4.0571570E-02;  4.0000000E+04;  0.0000000E+00;  3.9977793E+04; -1.4759023E-02;  0.0000000E+00; -1.6723840E-02;  1.5461179E+03;
  6.2176764E-01;  9.9999998E-03;  1.2002536E-01;6270; -2.9723329E-02;  0.0000000E+00; -2.2616356E-03;  9.9911554E+02;  1.0140344E-01; -7.3276935E+02;3;  4.6626759E+00;  0.0000000E+00; -1.9270356E+00;0; -3.0900143E-02;  3.8857898E+04;  0.0000000E+00;  8.1487726E-03;  4.0000000E+04;  0.0000000E+00;  3.9977508E+04; -1.4584315E-02;  0.0000000E+00; -1.6315829E-02;  1.5806764E+03;
  6.2174106E-01;  9.9999998E-03;  1.3002516E-01;6271; -2.9581493E-02;  0.0000000E+00; -2.4439180E-03;  9.9908746E+02;  1.0140459E-01; -7.5602795E+02;3;  4.5848784E+00;  0.0000000E+00; -2.0492194E+00;0; -3.0260399E-02;  3.8854926E+04;  0.0000000E+00; -2.6242908E-02;  4.0000000E+04;  0.0000000E+00;  3.9977328E+04; -1.4383857E-02;  0.0000000E+00; -1.5876541E-02;  1.5811399E+03;
  6.2171865E-01;  9.9999998E-03;  1.4002572E-01;6272; -2.9433843E-02;  0.0000000E+00; -2.6240174E-03;  9.9905902E+02;  1.0140541E-01; -7.7958282E+02;3;  4.5057378E+00;  0.0000000E+00; -2.1652985E+00;0; -2.9566629E-02;  3.8851656E+04;  0.0000000E+00; -5.8660027E-02;  4.0000000E+04;  0.0000000E+00;  3.9977727E+04; -1.4158733E-02;  0.0000000E+00; -1.5407896E-02;  1.5372513E+03;
  6.2170362E-01;  9.9999998E-03;  1.5002714E-01;6273; -2.9280631E-02;  0.0000000E+00; -2.8011764E-03;  9.9903302E+02;  1.0140602E-01; -8.0111310E+02;3;  4.4205089E+00;  0.0000000E+00; -2.2792251E+00;0; -2.8824043E-02;  3.8848105E+04;  0.0000000E+00; -8.5776605E-02;  4.0000000E+04;  0.0000000E+00;  3.9978332E+04; -1.3910911E-02;  0.0000000E+00; -1.4913132E-02;  1.4475750E+03;
  6.2169850E-01;  9.9999998E-03;  1.6002917E-01;6274; -2.9120704E-02;  0.0000000E+00; -2.9738683E-03;  9.9900525E+02;  1.0140680E-01; -8.2412476E+02;3;  4.3331013E+00;  0.0000000E+00; -2.3853462E+00;0; -2.8043941E-02;  3.8844348E+04;  0.0000000E+00; -1.0543533E-01;  4.0000000E+04;  0.0000000E+00;  3.9979410E+04; -1.3643689E-02;  0.0000000E+00; -1.4400253E-02;  1.3216722E+03;
  6.2170482E-01;  9.9999998E-03;  1.7003052E-01;6275; -2.8952828E-02;  0.0000000E+00; -3.1416083E-03;  9.9896887E+02;  1.0140770E-01; -8.5424738E+02;3;  4.2397094E+00;  0.0000000E+00; -2.4868870E+00;0; -2.7244404E-02;  3.8839883E+04;  0.0000000E+00; -1.1633111E-01;  4.0000000E+04;  0.0000000E+00;  3.9980477E+04; -1.3361361E-02;  0.0000000E+00; -1.3883042E-02;  1.1785593E+03;
  6.2172282E-01;  9.9999998E-03;  1.8002933E-01;6276; -2.8775098E-02;  0.0000000E+00; -3.3043507E-03;  9.9892383E+02;  1.0140860E-01; -8.9157965E+02;3;  4.1561613E+00;  0.0000000E+00; -2.5753069E+00;0; -2.6449334E-02;  3.8834395E+04;  0.0000000E+00; -1.1745576E-01;  4.0000000E+04;  0.0000000E+00;  3.9981789E+04; -1.3069696E-02;  0.0000000E+00; -1.3379639E-02;  1.0395023E+03;
  6.2175101E-01;  9.9999998E-03;  1.9002341E-01;6277; -2.8587621E-02;  0.0000000E+00; -3.4638913E-03;  9.9885669E+02;  1.0140942E-01; -9.4723242E+02;3;  4.0663028E+00;  0.0000000E+00; -2.6576929E+00;0; -2.5687572E-02;  3.8827664E+04;  0.0000000E+00; -1.0718533E-01;  4.0000000E+04;  0.0000000E+00;  3.9982652E+04; -1.2775926E-02;  0.0000000E+00; -1.2911646E-02;  9.0988702E+02;
  6.2178630E-01;  9.9999998E-03;  2.0001021E-01;6278; -2.8390734E-02;  0.0000000E+00; -3.6222227E-03;  9.9877960E+02;  1.0140961E-01; -1.0110825E+03;3;  3.9914265E+00;  0.0000000E+00; -2.7279358E+00;0; -2.4994712E-02;  3.8820059E+04;  0.0000000E+00; -8.3248228E-02;  4.0000000E+04;  0.0000000E+00;  3.9983930E+04; -1.2488479E-02;  0.0000000E+00; -1.2506233E-02;  7.4153143E+02;
  6.2182611E-01;  9.9999998E-03;  2.0998855E-01;6279; -2.8184421E-02;  0.0000000E+00; -3.7766388E-03;  9.9870715E+02;  1.0141014E-01; -1.0710807E+03;3;  3.9292617E+00;  0.0000000E+00; -2.7851732E+00;0; -2.4413016E-02;  3.8811461E+04;  0.0000000E+00; -4.3690879E-02;  4.0000000E+04;  0.0000000E+00;  3.9986832E+04; -1.2216314E-02;  0.0000000E+00; -1.2196701E-02;  3.7865149E+02;
  6.2186706E-01;  9.9999998E-03;  2.1996607E-01;6280; -2.7971171E-02;  0.0000000E+00; -3.9076935E-03;  9.9866217E+02;  1.0141039E-01; -1.1083636E+03;3;  3.8763413E+00;  0.0000000E+00; -2.8331785E+00;0; -2.3957567E-02;  3.8802418E+04;  0.0000000E+00;  1.1476738E-02;  4.0000000E+04;  0.0000000E+00;  3.9992496E+04; -1.1967141E-02;  0.0000000E+00; -1.1990426E-02;  3.6753128E+02;
  6.2190759E-01;  9.9999998E-03;  2.2996177E-01;6281; -2.7755070E-02;  0.0000000E+00; -3.9928122E-03;  9.9863452E+02;  1.0141005E-01; -1.1312766E+03;3;  3.8482826E+00;  0.0000000E+00; -2.8714073E+00;0; -2.3557443E-02;  3.8793629E+04;  0.0000000E+00;  7.8811057E-02;  4.0000000E+04;  0.0000000E+00;  3.9999734E+04; -1.1745917E-02;  0.0000000E+00; -1.1811526E-02;  1.2701068E+03;
  6.3186020E-01;  9.9999998E-03;  7.0023023E-02;6326; -3.0450374E-02;  0.0000000E+00; -1.3646990E-03;  9.9942493E+02;  1.0213829E-01; -4.7643094E+02;3;  5.2433772E+00;  0.0000000E+00; -1.2380886E+00;0; -3.2823928E-02;  3.8329504E+04;  0.0000000E+00;  3.7315579E-03;  4.0000000E+04;  0.0000000E+00;  3.9975230E+04; -1.4494980E-02;  0.0000000E+00; -1.8328948E-02;  1.2707651E+03;
  6.3183475E-01;  9.9999998E-03;  8.0025114E-02;6327; -3.0339349E-02;  0.0000000E+00; -1.5515370E-03;  9.9936945E+02;  1.0213865E-01; -5.2240497E+02;3;  5.1712584E+00;  0.0000000E+00; -1.3971390E+00;0; -3.2428708E-02;  3.8324730E+04;  0.0000000E+00; -1.5284970E-02;  4.0000000E+04;  0.0000000E+00;  3.9974875E+04; -1.4401782E-02;  0.0000000E+00; -1.8026926E-02;  1.3094452E+03;
  6.3180298E-01;  9.9999998E-03;  9.0026841E-02;6328; -3.0220840E-02;  0.0000000E+00; -1.7374628E-03;  9.9931122E+02;  1.0213952E-01; -5.7065051E+02;3;  5.0935106E+00;  0.0000000E+00; -1.5502137E+00;0; -3.1974994E-02;  3.8319613E+04;  0.0000000E+00; -4.1953534E-02;  4.0000000E+04;  0.0000000E+00;  3.9974254E+04; -1.4280470E-02;  0.0000000E+00; -1.7694525E-02;  1.3763457E+03;
  6.3176680E-01;  9.9999998E-03;  1.0002831E-01;6329; -3.0095695E-02;  0.0000000E+00; -1.9226829E-03;  9.9925720E+02;  1.0214072E-01; -6.1538995E+02;3;  5.0113420E+00;  0.0000000E+00; -1.6971226E+00;0; -3.1459901E-02;  3.8314988E+04;  0.0000000E+00; -7.4417375E-02;  4.0000000E+04;  0.0000000E+00;  3.9973695E+04; -1.4127617E-02;  0.0000000E+00; -1.7332286E-02;  1.4615043E+03;
  6.3172984E-01;  9.9999998E-03;  1.1002933E-01;6330; -2.9964207E-02;  0.0000000E+00; -2.1070829E-03;  9.9920300E+02;  1.0214174E-01; -6.6027759E+02;3;  4.9263225E+00;  0.0000000E+00; -1.8372245E+00;0; -3.0880965E-02;  3.8310395E+04;  0.0000000E+00; -1.0951922E-01;  4.0000000E+04;  0.0000000E+00;  3.9972898E+04; -1.3940462E-02;  0.0000000E+00; -1.6940504E-02;  1.5491278E+03;
  6.3169616E-01;  9.9999998E-03;  1.2002948E-01;6331; -2.9826449E-02;  0.0000000E+00; -2.2903827E-03;  9.9914978E+02;  1.0214268E-01; -7.0437506E+02;3;  4.8410468E+00;  0.0000000E+00; -1.9689631E+00;0; -3.0236838E-02;  3.8305672E+04;  0.0000000E+00; -1.4325665E-01;  4.0000000E+04;  0.0000000E+00;  3.9972367E+04; -1.3716994E-02;  0.0000000E+00; -1.6519845E-02;  1.6207185E+03;
  6.3166898E-01;  9.9999998E-03;  1.3002889E-01;6332; -2.9682562E-02;  0.0000000E+00; -2.4723087E-03;  9.9910522E+02;  1.0214432E-01; -7.4131232E+02;3;  4.7576594E+00;  0.0000000E+00; -2.0908158E+00;0; -2.9528182E-02;  3.8301309E+04;  0.0000000E+00; -1.7161146E-01;  4.0000000E+04;  0.0000000E+00;  3.9972020E+04; -1.3456363E-02;  0.0000000E+00; -1.6071819E-02;  1.6593691E+03;
  6.3164985E-01;  9.9999998E-03;  1.4002797E-01;6333; -2.9533083E-02;  0.0000000E+00; -2.6528342E-03;  9.9906146E+02;  1.0214541E-01; -7.7755823E+02;3;  4.6725688E+00;  0.0000000E+00; -2.2077916E+00;0; -2.8757829E-02;  3.8296852E+04;  0.0000000E+00; -1.9143704E-01;  4.0000000E+04;  0.0000000E+00;  3.9972027E+04; -1.3159023E-02;  0.0000000E+00; -1.5598807E-02;  1.6541072E+03;
  6.3163972E-01;  9.9999998E-03;  1.5002702E-01;6334; -2.9379115E-02;  0.0000000E+00; -2.8318588E-03;  9.9902307E+02;  1.0214674E-01; -8.0935974E+02;3;  4.5836101E+00;  0.0000000E+00; -2.3187749E+00;0; -2.7931180E-02;  3.8291906E+04;  0.0000000E+00; -2.0125051E-01;  4.0000000E+04;  0.0000000E+00;  3.9972461E+04; -1.2826698E-02;  0.0000000E+00; -1.5104482E-02;  1.6035566E+03;
  6.3163918E-01;  9.9999998E-03;  1.6002581E-01;6335; -2.9220052E-02;  0.0000000E+00; -3.0080471E-03;  9.9897955E+02;  1.0214814E-01; -8.4540814E+02;3;  4.4845815E+00;  0.0000000E+00; -2.4284232E+00;0; -2.7059561E-02;  3.8286770E+04;  0.0000000E+00; -2.0151672E-01;  4.0000000E+04;  0.0000000E+00;  3.9973141E+04; -1.2462693E-02;  0.0000000E+00; -1.4596867E-02;  1.5168606E+03;
  6.3164878E-01;  9.9999998E-03;  1.7002352E-01;6336; -2.9053759E-02;  0.0000000E+00; -3.1803194E-03;  9.9892926E+02;  1.0214947E-01; -8.8708594E+02;3;  4.3813806E+00;  0.0000000E+00; -2.5304329E+00;0; -2.6161689E-02;  3.8281027E+04;  0.0000000E+00; -1.9362061E-01;  4.0000000E+04;  0.0000000E+00;  3.9973715E+04; -1.2072159E-02;  0.0000000E+00; -1.4089531E-02;  1.4092802E+03;
  6.3166767E-01;  9.9999998E-03;  1.8001863E-01;6337; -2.8879067E-02;  0.0000000E+00; -3.3490120E-03;  9.9886139E+02;  1.0215106E-01; -9.4333130E+02;3;  4.2824082E+00;  0.0000000E+00; -2.6226041E+00;0; -2.5263228E-02;  3.8274438E+04;  0.0000000E+00; -1.7781408E-01;  4.0000000E+04;  0.0000000E+00;  3.9974766E+04; -1.1662649E-02;  0.0000000E+00; -1.3600579E-02;  1.2923571E+03;
  6.3169342E-01;  9.9999998E-03;  1.9000924E-01;6338; -2.8695270E-02;  0.0000000E+00; -3.5158847E-03;  9.9878223E+02;  1.0215215E-01; -1.0089097E+03;3;  4.1899843E+00;  0.0000000E+00; -2.7068954E+00;0; -2.4396693E-02;  3.8266277E+04;  0.0000000E+00; -1.5195735E-01;  4.0000000E+04;  0.0000000E+00;  3.9975906E+04; -1.1244368E-02;  0.0000000E+00; -1.3152326E-02;  1.1541472E+03;
  6.3172323E-01;  9.9999998E-03;  1.9999340E-01;6339; -2.8502228E-02;  0.0000000E+00; -3.6821819E-03;  9.9868744E+02;  1.0215345E-01; -1.0874259E+03;3;  4.1017618E+00;  0.0000000E+00; -2.7804015E+00;0; -2.3603033E-02;  3.8256980E+04;  0.0000000E+00; -1.1224175E-01;  4.0000000E+04;  0.0000000E+00;  3.9977418E+04; -1.0829399E-02;  0.0000000E+00; -1.2773634E-02;  9.2304230E+02;
  6.3175428E-01;  9.9999998E-03;  2.0997168E-01;6340; -2.8301798E-02;  0.0000000E+00; -3.8430868E-03;  9.9860773E+02;  1.0215411E-01; -1.1534487E+03;3;  4.0231814E+00;  0.0000000E+00; -2.8420384E+00;0; -2.2928122E-02;  3.8246785E+04;  0.0000000E+00; -5.5195004E-02;  4.0000000E+04;  0.0000000E+00;  3.9981223E+04; -1.0429852E-02;  0.0000000E+00; -1.2498270E-02;  4.3327811E+02;
  6.3178408E-01;  9.9999998E-03;  2.1995391E-01;6341; -2.8093629E-02;  0.0000000E+00; -3.9769467E-03;  9.9855695E+02;  1.0215443E-01; -1.1955216E+03;3;  3.9626441E+00;  0.0000000E+00; -2.8950231E+00;0; -2.2385769E-02;  3.8236105E+04;  0.0000000E+00;  1.9384095E-02;  4.0000000E+04;  0.0000000E+00;  3.9988250E+04; -1.0056543E-02;  0.0000000E+00; -1.2329226E-02;  4.5589758E+02;
  6.3181257E-01;  9.9999998E-03;  2.2995752E-01;6342; -2.7880827E-02;  0.0000000E+00; -4.0645399E-03;  9.9851306E+02;  1.0215427E-01; -1.2319156E+03;3;  3.9213903E+00;  0.0000000E+00; -2.9382253E+00;0; -2.1907769E-02;  3.8225383E+04;  0.0000000E+00;  1.0728996E-01;  4.0000000E+04;  0.0000000E+00;  3.9996074E+04; -9.7167660E-03;  0.0000000E+00; -1.2191002E-02;  1.4427129E+03;
  6.4188188E-01;  9.9999998E-03;  7.0006594E-02;6387; -3.0534819E-02;  0.0000000E+00; -1.4003243E-03;  9.9979608E+02;  1.0315657E-01; -1.6893349E+02;3;  5.4640951E+00;  0.0000000E+00; -1.2686208E+00;0; -3.2660201E-02;  3.7606676E+04;  0.0000000E+00; -9.9186935E-02;  4.0000000E+04;  0.0000000E+00;  3.9969340E+04; -1.4076844E-02;  0.0000000E+00; -1.8583359E-02;  1.2117510E+03;
  6.4186281E-01;  9.9999998E-03;  8.0006354E-02;6388; -3.0424491E-02;  0.0000000E+00; -1.5894078E-03;  9.9973083E+02;  1.0315756E-01; -2.2300603E+02;3;  5.3848610E+00;  0.0000000E+00; -1.4310237E+00;0; -3.2224391E-02;  3.7600914E+04;  0.0000000E+00; -1.4000466E-01;  4.0000000E+04;  0.0000000E+00;  3.9968875E+04; -1.3968148E-02;  0.0000000E+00; -1.8256243E-02;  1.2667202E+03;
  6.4184058E-01;  9.9999998E-03;  9.0006076E-02;6389; -3.0306172E-02;  0.0000000E+00; -1.7765536E-03;  9.9966266E+02;  1.0315905E-01; -2.7949826E+02;3;  5.2995405E+00;  0.0000000E+00; -1.5872061E+00;0; -3.1723391E-02;  3.7594988E+04;  0.0000000E+00; -1.8521956E-01;  4.0000000E+04;  0.0000000E+00;  3.9968199E+04; -1.3824590E-02;  0.0000000E+00; -1.7898800E-02;  1.3568762E+03;
  6.4181471E-01;  9.9999998E-03;  1.0000598E-01;6390; -3.0180484E-02;  0.0000000E+00; -1.9619369E-03;  9.9959869E+02;  1.0316058E-01; -3.3248441E+02;3;  5.2094202E+00;  0.0000000E+00; -1.7369152E+00;0; -3.1153709E-02;  3.7589277E+04;  0.0000000E+00; -2.3098211E-01;  4.0000000E+04;  0.0000000E+00;  3.9967309E+04; -1.3641436E-02;  0.0000000E+00; -1.7512273E-02;  1.4690699E+03;
  6.4178574E-01;  9.9999998E-03;  1.1000647E-01;6391; -3.0047588E-02;  0.0000000E+00; -2.1454834E-03;  9.9953802E+02;  1.0316254E-01; -3.8275458E+02;3;  5.1164522E+00;  0.0000000E+00; -1.8794266E+00;0; -3.0512236E-02;  3.7583941E+04;  0.0000000E+00; -2.7250347E-01;  4.0000000E+04;  0.0000000E+00;  3.9966465E+04; -1.3414691E-02;  0.0000000E+00; -1.7097546E-02;  1.5841461E+03;
  6.4175498E-01;  9.9999998E-03;  1.2000788E-01;6392; -2.9907390E-02;  0.0000000E+00; -2.3269886E-03;  9.9948450E+02;  1.0316449E-01; -4.2709900E+02;3;  5.0241528E+00;  0.0000000E+00; -2.0115175E+00;0; -2.9797126E-02;  3.7578457E+04;  0.0000000E+00; -3.0484885E-01;  4.0000000E+04;  0.0000000E+00;  3.9965785E+04; -1.3141196E-02;  0.0000000E+00; -1.6655929E-02;  1.6812401E+03;
  6.4172429E-01;  9.9999998E-03;  1.3001011E-01;6393; -2.9760174E-02;  0.0000000E+00; -2.5066906E-03;  9.9942957E+02;  1.0316669E-01; -4.7257919E+02;3;  4.9326940E+00;  0.0000000E+00; -2.1353078E+00;0; -2.9008808E-02;  3.7573430E+04;  0.0000000E+00; -3.2407516E-01;  4.0000000E+04;  0.0000000E+00;  3.9965125E+04; -1.2819093E-02;  0.0000000E+00; -1.6189715E-02;  1.7425670E+03;
  6.4169544E-01;  9.9999998E-03;  1.4001311E-01;6394; -2.9606715E-02;  0.0000000E+00; -2.6848176E-03;  9.9938245E+02;  1.0316910E-01; -5.1163980E+02;3;  4.8458810E+00;  0.0000000E+00; -2.2463048E+00;0; -2.8150121E-02;  3.7568059E+04;  0.0000000E+00; -3.2827607E-01;  4.0000000E+04;  0.0000000E+00;  3.9965027E+04; -1.2447851E-02;  0.0000000E+00; -1.5702270E-02;  1.7581110E+03;
  6.4166903E-01;  9.9999998E-03;  1.5001687E-01;6395; -2.9449487E-02;  0.0000000E+00; -2.8625811E-03;  9.9933423E+02;  1.0317156E-01; -5.5158929E+02;3;  4.7516961E+00;  0.0000000E+00; -2.3555343E+00;0; -2.7226774E-02;  3.7562570E+04;  0.0000000E+00; -3.1819871E-01;  4.0000000E+04;  0.0000000E+00;  3.9965270E+04; -1.2028513E-02;  0.0000000E+00; -1.5198261E-02;  1.7281967E+03;
  6.4164543E-01;  9.9999998E-03;  1.6002123E-01;6396; -2.9288756E-02;  0.0000000E+00; -3.0389798E-03;  9.9928076E+02;  1.0317384E-01; -5.9588434E+02;3;  4.6401825E+00;  0.0000000E+00; -2.4679787E+00;0; -2.6250578E-02;  3.7556254E+04;  0.0000000E+00; -2.9717794E-01;  4.0000000E+04;  0.0000000E+00;  3.9965656E+04; -1.1564065E-02;  0.0000000E+00; -1.4686513E-02;  1.6628842E+03;
  6.4162767E-01;  9.9999998E-03;  1.7002420E-01;6397; -2.9121567E-02;  0.0000000E+00; -3.2119961E-03;  9.9921436E+02;  1.0317647E-01; -6.5089514E+02;3;  4.5328231E+00;  0.0000000E+00; -2.5699284E+00;0; -2.5241120E-02;  3.7549121E+04;  0.0000000E+00; -2.6903647E-01;  4.0000000E+04;  0.0000000E+00;  3.9966105E+04; -1.1060114E-02;  0.0000000E+00; -1.4181006E-02;  1.5772379E+03;
  6.4162385E-01;  9.9999998E-03;  1.8002145E-01;6398; -2.8946772E-02;  0.0000000E+00; -3.3819359E-03;  9.9913379E+02;  1.0317879E-01; -7.1765869E+02;3;  4.4257035E+00;  0.0000000E+00; -2.6654868E+00;0; -2.4225691E-02;  3.7540918E+04;  0.0000000E+00; -2.3482020E-01;  4.0000000E+04;  0.0000000E+00;  3.9966688E+04; -1.0525437E-02;  0.0000000E+00; -1.3700254E-02;  1.4784366E+03;
  6.4163566E-01;  9.9999998E-03;  1.9001161E-01;6399; -2.8764276E-02;  0.0000000E+00; -3.5499220E-03;  9.9903375E+02;  1.0318115E-01; -8.0052051E+02;3;  4.3164043E+00;  0.0000000E+00; -2.7501822E+00;0; -2.3239318E-02;  3.7531113E+04;  0.0000000E+00; -1.9185510E-01;  4.0000000E+04;  0.0000000E+00;  3.9967547E+04; -9.9724596E-03;  0.0000000E+00; -1.3266858E-02;  1.3414912E+03;
  6.4165437E-01;  9.9999998E-03;  1.9999632E-01;6400; -2.8575819E-02;  0.0000000E+00; -3.7177680E-03;  9.9892279E+02;  1.0318273E-01; -8.9246851E+02;3;  4.2125616E+00;  0.0000000E+00; -2.8285336E+00;0; -2.2326499E-02;  3.7520105E+04;  0.0000000E+00; -1.3548669E-01;  4.0000000E+04;  0.0000000E+00;  3.9969523E+04; -9.4168251E-03;  0.0000000E+00; -1.2909673E-02;  1.0859429E+03;
  6.4167333E-01;  9.9999998E-03;  2.0997900E-01;6401; -2.8382629E-02;  0.0000000E+00; -3.8804684E-03;  9.9882056E+02;  1.0318427E-01; -9.7715747E+02;3;  4.1235223E+00;  0.0000000E+00; -2.8954399E+00;0; -2.1536864E-02;  3.7507957E+04;  0.0000000E+00; -6.3196614E-02;  4.0000000E+04;  0.0000000E+00;  3.9973406E+04; -8.8748783E-03;  0.0000000E+00; -1.2661987E-02;  5.7153754E+02;
  6.4168894E-01;  9.9999998E-03;  2.1996842E-01;6402; -2.8182397E-02;  0.0000000E+00; -4.0182038E-03;  9.9874237E+02;  1.0318518E-01; -1.0419458E+03;3;  4.0531712E+00;  0.0000000E+00; -2.9519536E+00;0; -2.0890221E-02;  3.7495512E+04;  0.0000000E+00;  2.2401955E-02;  4.0000000E+04;  0.0000000E+00;  3.9980145E+04; -8.3610266E-03;  0.0000000E+00; -1.2529195E-02;  2.8954953E+02;
  6.4170122E-01;  9.9999998E-03;  2.2997788E-01;6403; -2.7976835E-02;  0.0000000E+00; -4.1174181E-03;  9.9865808E+02;  1.0318498E-01; -1.1117710E+03;3;  3.9923618E+00;  0.0000000E+00; -2.9993310E+00;0; -2.0342164E-02;  3.7482793E+04;  0.0000000E+00;  1.0936884E-01;  4.0000000E+04;  0.0000000E+00;  3.9987410E+04; -7.8855716E-03;  0.0000000E+00; -1.2456592E-02;  1.2035159E+03;
  6.5181386E-01;  9.9999998E-03;  6.9998547E-02;6448; -3.0599067E-02;  0.0000000E+00; -1.4451917E-03;  1.0002726E+03;  1.0447907E-01;  2.2587012E+02;3;  5.6903033E+00;  0.0000000E+00; -1.2997874E+00;0; -3.2774426E-02;  3.6694270E+04;  0.0000000E+00; -1.9514790E-01;  4.0000000E+04;  0.0000000E+00;  3.9961195E+04; -1.3980859E-02;  0.0000000E+00; -1.8793568E-02;  1.2016946E+03;
  6.5179193E-01;  9.9999998E-03;  7.9997994E-02;6449; -3.0489661E-02;  0.0000000E+00; -1.6372367E-03;  1.0002057E+03;  1.0448135E-01;  1.7046429E+02;3;  5.6029906E+00;  0.0000000E+00; -1.4657508E+00;0; -3.2297067E-02;  3.6687938E+04;  0.0000000E+00; -2.5463292E-01;  4.0000000E+04;  0.0000000E+00;  3.9960852E+04; -1.3857219E-02;  0.0000000E+00; -1.8439846E-02;  1.2727473E+03;
  6.5177011E-01;  9.9999998E-03;  8.9997523E-02;6450; -3.0371500E-02;  0.0000000E+00; -1.8260333E-03;  1.0001473E+03;  1.0448404E-01;  1.2207060E+02;3;  5.5091043E+00;  0.0000000E+00; -1.6251864E+00;0; -3.1747770E-02;  3.6681777E+04;  0.0000000E+00; -3.1487486E-01;  4.0000000E+04;  0.0000000E+00;  3.9960113E+04; -1.3693007E-02;  0.0000000E+00; -1.8054763E-02;  1.3814432E+03;
  6.5174913E-01;  9.9999998E-03;  9.9997304E-02;6451; -3.0245030E-02;  0.0000000E+00; -2.0116789E-03;  1.0000905E+03;  1.0448698E-01;  7.4960831E+01;3;  5.4102764E+00;  0.0000000E+00; -1.7779173E+00;0; -3.1122290E-02;  3.6676266E+04;  0.0000000E+00; -3.7022153E-01;  4.0000000E+04;  0.0000000E+00;  3.9959078E+04; -1.3482180E-02;  0.0000000E+00; -1.7640110E-02;  1.5101433E+03;
  6.5172935E-01;  9.9999998E-03;  1.0999782E-01;6452; -3.0110205E-02;  0.0000000E+00; -2.1940507E-03;  1.0000446E+03;  1.0449031E-01;  3.6937222E+01;3;  5.3084474E+00;  0.0000000E+00; -1.9230695E+00;0; -3.0416438E-02;  3.6670969E+04;  0.0000000E+00; -4.1451305E-01;  4.0000000E+04;  0.0000000E+00;  3.9958273E+04; -1.3219245E-02;  0.0000000E+00; -1.7197194E-02;  1.6366234E+03;
  6.5171105E-01;  9.9999998E-03;  1.1999910E-01;6453; -2.9966839E-02;  0.0000000E+00; -2.3729687E-03;  1.0000000E+03;  1.0449348E-01;  0.0000000E+00;3;  5.2070227E+00;  0.0000000E+00; -2.0581672E+00;0; -2.9627440E-02;  3.6665867E+04;  0.0000000E+00; -4.4224131E-01;  4.0000000E+04;  0.0000000E+00;  3.9957410E+04; -1.2899585E-02;  0.0000000E+00; -1.6727855E-02;  1.7388921E+03;
  6.5169543E-01;  9.9999998E-03;  1.3000116E-01;6454; -2.9815137E-02;  0.0000000E+00; -2.5487107E-03;  9.9996375E+02;  1.0449734E-01; -3.0023838E+01;3;  5.1109409E+00;  0.0000000E+00; -2.1775680E+00;0; -2.8754961E-02;  3.6661191E+04;  0.0000000E+00; -4.4993657E-01;  4.0000000E+04;  0.0000000E+00;  3.9957031E+04; -1.2519752E-02;  0.0000000E+00; -1.6235208E-02;  1.8002770E+03;
  6.5168387E-01;  9.9999998E-03;  1.4000404E-01;6455; -2.9655948E-02;  0.0000000E+00; -2.7218638E-03;  9.9992731E+02;  1.0450092E-01; -6.0245201E+01;3;  5.0183449E+00;  0.0000000E+00; -2.2864411E+00;0; -2.7801603E-02;  3.6655902E+04;  0.0000000E+00; -4.3722939E-01;  4.0000000E+04;  0.0000000E+00;  3.9956781E+04; -1.2077798E-02;  0.0000000E+00; -1.5723804E-02;  1.8134221E+03;
  6.5167731E-01;  9.9999998E-03;  1.5000755E-01;6456; -2.9492168E-02;  0.0000000E+00; -2.8943869E-03;  9.9988983E+02;  1.0450477E-01; -9.1256668E+01;3;  4.9201145E+00;  0.0000000E+00; -2.3945210E+00;0; -2.6773393E-02;  3.6650312E+04;  0.0000000E+00; -4.0721139E-01;  4.0000000E+04;  0.0000000E+00;  3.9956934E+04; -1.1573487E-02;  0.0000000E+00; -1.5199907E-02;  1.7818419E+03;
  6.5167654E-01;  9.9999998E-03;  1.6001113E-01;6457; -2.9325571E-02;  0.0000000E+00; -3.0662997E-03;  9.9983881E+02;  1.0450928E-01; -1.3352707E+02;3;  4.8119421E+00;  0.0000000E+00; -2.4993813E+00;0; -2.5682403E-02;  3.6643656E+04;  0.0000000E+00; -3.6582294E-01;  4.0000000E+04;  0.0000000E+00;  3.9956977E+04; -1.1008740E-02;  0.0000000E+00; -1.4673662E-02;  1.7165774E+03;
  6.5168089E-01;  9.9999998E-03;  1.7001441E-01;6458; -2.9152997E-02;  0.0000000E+00; -3.2349350E-03;  9.9977283E+02;  1.0451332E-01; -1.8819218E+02;3;  4.6959062E+00;  0.0000000E+00; -2.6030309E+00;0; -2.4549119E-02;  3.6635926E+04;  0.0000000E+00; -3.1854916E-01;  4.0000000E+04;  0.0000000E+00;  3.9957434E+04; -1.0389046E-02;  0.0000000E+00; -1.4160072E-02;  1.6285831E+03;
  6.5168869E-01;  9.9999998E-03;  1.8001643E-01;6459; -2.8973740E-02;  0.0000000E+00; -3.4001125E-03;  9.9968750E+02;  1.0451718E-01; -2.5890622E+02;3;  4.5733175E+00;  0.0000000E+00; -2.7047272E+00;0; -2.3403086E-02;  3.6626812E+04;  0.0000000E+00; -2.6674405E-01;  4.0000000E+04;  0.0000000E+00;  3.9958238E+04; -9.7250408E-03;  0.0000000E+00; -1.3678045E-02;  1.5199691E+03;
  6.5169656E-01;  9.9999998E-03;  1.9001646E-01;6460; -2.8788915E-02;  0.0000000E+00; -3.5627000E-03;  9.9957812E+02;  1.0452078E-01; -3.4952094E+02;3;  4.4478207E+00;  0.0000000E+00; -2.7970364E+00;0; -2.2282476E-02;  3.6616070E+04;  0.0000000E+00; -2.0745081E-01;  4.0000000E+04;  0.0000000E+00;  3.9959156E+04; -9.0324711E-03;  0.0000000E+00; -1.3250005E-02;  1.3736982E+03;
  6.5169740E-01;  9.9999998E-03;  2.0001513E-01;6461; -2.8600363E-02;  0.0000000E+00; -3.7239864E-03;  9.9945044E+02;  1.0452393E-01; -4.5529568E+02;3;  4.3310070E+00;  0.0000000E+00; -2.8771029E+00;0; -2.1233674E-02;  3.6603477E+04;  0.0000000E+00; -1.3716036E-01;  4.0000000E+04;  0.0000000E+00;  3.9960691E+04; -8.3307913E-03;  0.0000000E+00; -1.2902884E-02;  1.1458796E+03;
  6.5168130E-01;  9.9999998E-03;  2.1001562E-01;6462; -2.8410563E-02;  0.0000000E+00; -3.8845742E-03;  9.9931091E+02;  1.0452615E-01; -5.7089734E+02;3;  4.2313547E+00;  0.0000000E+00; -2.9490821E+00;0; -2.0312047E-02;  3.6589969E+04;  0.0000000E+00; -5.6540627E-02;  4.0000000E+04;  0.0000000E+00;  3.9963262E+04; -7.6410337E-03;  0.0000000E+00; -1.2671012E-02;  7.8673914E+02;
  6.5162838E-01;  9.9999998E-03;  2.3002851E-01;6464; -2.8023448E-02;  0.0000000E+00; -4.1610654E-03;  9.9904651E+02;  1.0452833E-01; -7.8995282E+02;3;  4.0760322E+00;  0.0000000E+00; -3.0651548E+00;0; -1.8983334E-02;  3.6561438E+04;  0.0000000E+00;  7.2759174E-02;  4.0000000E+04;  0.0000000E+00;  3.9972750E+04; -6.3641528E-03;  0.0000000E+00; -1.2619181E-02;  4.4354306E+02;
  6.5165085E-01;  9.9999998E-03;  2.2001927E-01;6463; -2.8218120E-02;  0.0000000E+00; -4.0358528E-03;  9.9917633E+02;  1.0452796E-01; -6.8240033E+02;3;  4.1472778E+00;  0.0000000E+00; -3.0133092E+00;0; -1.9564636E-02;  3.6575531E+04;  0.0000000E+00;  2.2779888E-02;  4.0000000E+04;  0.0000000E+00;  3.9967500E+04; -6.9816238E-03;  0.0000000E+00; -1.2583013E-02;  2.5215228E+02;
  6.6177142E-01;  9.9999998E-03;  6.9985695E-02;6509; -3.0655958E-02;  0.0000000E+00; -1.4973214E-03;  1.0005696E+03;  1.0609844E-01;  4.7188782E+02;3;  5.9260664E+00;  0.0000000E+00; -1.3325039E+00;0; -3.3146877E-02;  3.5599625E+04;  0.0000000E+00; -2.6140413E-01;  4.0000000E+04;  0.0000000E+00;  3.9950828E+04; -1.4189949E-02;  0.0000000E+00; -1.8956928E-02;  1.2346005E+03;
  6.6175479E-01;  9.9999998E-03;  7.9984769E-02;6510; -3.0547565E-02;  0.0000000E+00; -1.6930960E-03;  1.0005232E+03;  1.0610209E-01;  4.3346915E+02;3;  5.8299580E+00;  0.0000000E+00; -1.5023433E+00;0; -3.2629468E-02;  3.5593551E+04;  0.0000000E+00; -3.3249950E-01;  4.0000000E+04;  0.0000000E+00;  3.9950543E+04; -1.4050912E-02;  0.0000000E+00; -1.8578554E-02;  1.3115818E+03;
  6.6173804E-01;  9.9999998E-03;  8.9984752E-02;6511; -3.0429410E-02;  0.0000000E+00; -1.8841492E-03;  1.0004856E+03;  1.0610646E-01;  4.0226016E+02;3;  5.7267337E+00;  0.0000000E+00; -1.6653296E+00;0; -3.2033555E-02;  3.5588457E+04;  0.0000000E+00; -4.0094155E-01;  4.0000000E+04;  0.0000000E+00;  3.9949879E+04; -1.3866784E-02;  0.0000000E+00; -1.8166773E-02;  1.4248658E+03;
  6.6172177E-01;  9.9999998E-03;  9.9985711E-02;6512; -3.0301683E-02;  0.0000000E+00; -2.0704276E-03;  1.0004609E+03;  1.0611106E-01;  3.8191507E+02;3;  5.6181517E+00;  0.0000000E+00; -1.8213952E+00;0; -3.1353794E-02;  3.5583844E+04;  0.0000000E+00; -4.5957050E-01;  4.0000000E+04;  0.0000000E+00;  3.9949125E+04; -1.3630515E-02;  0.0000000E+00; -1.7723277E-02;  1.5523528E+03;
  6.6170663E-01;  9.9999998E-03;  1.0998770E-01;6513; -3.0164223E-02;  0.0000000E+00; -2.2517086E-03;  1.0004472E+03;  1.0611635E-01;  3.7045859E+02;3;  5.5065126E+00;  0.0000000E+00; -1.9693680E+00;0; -3.0585010E-02;  3.5579930E+04;  0.0000000E+00; -5.0119913E-01;  4.0000000E+04;  0.0000000E+00;  3.9948250E+04; -1.3335428E-02;  0.0000000E+00; -1.7249580E-02;  1.6694137E+03;
  6.6169327E-01;  9.9999998E-03;  1.1999096E-01;6514; -3.0016758E-02;  0.0000000E+00; -2.4277933E-03;  1.0004412E+03;  1.0612210E-01;  3.6552048E+02;3;  5.3950572E+00;  0.0000000E+00; -2.1069987E+00;0; -2.9723302E-02;  3.5576258E+04;  0.0000000E+00; -5.2016842E-01;  4.0000000E+04;  0.0000000E+00;  3.9947648E+04; -1.2975526E-02;  0.0000000E+00; -1.6747776E-02;  1.7541042E+03;
  6.6168213E-01;  9.9999998E-03;  1.2999555E-01;6515; -2.9859260E-02;  0.0000000E+00; -2.5986554E-03;  1.0004411E+03;  1.0612793E-01;  3.6542172E+02;3;  5.2874184E+00;  0.0000000E+00; -2.2311747E+00;0; -2.8767556E-02;  3.5572512E+04;  0.0000000E+00; -5.1392531E-01;  4.0000000E+04;  0.0000000E+00;  3.9947090E+04; -1.2545781E-02;  0.0000000E+00; -1.6221775E-02;  1.7919143E+03;
  6.6167378E-01;  9.9999998E-03;  1.4000134E-01;6516; -2.9692724E-02;  0.0000000E+00; -2.7652986E-03;  1.0004394E+03;  1.0613424E-01;  3.6403903E+02;3;  5.1875181E+00;  0.0000000E+00; -2.3374481E+00;0; -2.7720260E-02;  3.5568547E+04;  0.0000000E+00; -4.8393986E-01;  4.0000000E+04;  0.0000000E+00;  3.9947168E+04; -1.2042740E-02;  0.0000000E+00; -1.5677519E-02;  1.7789752E+03;
  6.6166902E-01;  9.9999998E-03;  1.5000808E-01;6517; -2.9518858E-02;  0.0000000E+00; -2.9287159E-03;  1.0004280E+03;  1.0614111E-01;  3.5465659E+02;3;  5.0920029E+00;  0.0000000E+00; -2.4312050E+00;0; -2.6587641E-02;  3.5563566E+04;  0.0000000E+00; -4.3557942E-01;  4.0000000E+04;  0.0000000E+00;  3.9947207E+04; -1.1464619E-02;  0.0000000E+00; -1.5123022E-02;  1.7225190E+03;
  6.6166830E-01;  9.9999998E-03;  1.6001567E-01;6518; -2.9341346E-02;  0.0000000E+00; -3.0913169E-03;  1.0003960E+03;  1.0614753E-01;  3.2808945E+02;3;  4.9799781E+00;  0.0000000E+00; -2.5374978E+00;0; -2.5382858E-02;  3.5557594E+04;  0.0000000E+00; -3.7660098E-01;  4.0000000E+04;  0.0000000E+00;  3.9947492E+04; -1.0812456E-02;  0.0000000E+00; -1.4570403E-02;  1.6355538E+03;
  6.6167170E-01;  9.9999998E-03;  1.7002392E-01;6519; -2.9158358E-02;  0.0000000E+00; -3.2508695E-03;  1.0003469E+03;  1.0615346E-01;  2.8739923E+02;3;  4.8576083E+00;  0.0000000E+00; -2.6420925E+00;0; -2.4127595E-02;  3.5549785E+04;  0.0000000E+00; -3.1302682E-01;  4.0000000E+04;  0.0000000E+00;  3.9948047E+04; -1.0091245E-02;  0.0000000E+00; -1.4036349E-02;  1.5283319E+03;
  6.6167921E-01;  9.9999998E-03;  1.8003224E-01;6520; -2.8968433E-02;  0.0000000E+00; -3.4054909E-03;  1.0002706E+03;  1.0615946E-01;  2.2419116E+02;3;  4.7260561E+00;  0.0000000E+00; -2.7452762E+00;0; -2.2852629E-02;  3.5540371E+04;  0.0000000E+00; -2.4614501E-01;  4.0000000E+04;  0.0000000E+00;  3.9948793E+04; -9.3119461E-03;  0.0000000E+00; -1.3540682E-02;  1.4024968E+03;
  6.6168958E-01;  9.9999998E-03;  1.9004129E-01;6521; -2.8772550E-02;  0.0000000E+00; -3.5555447E-03;  1.0001616E+03;  1.0616504E-01;  1.3392212E+02;3;  4.5942392E+00;  0.0000000E+00; -2.8408477E+00;0; -2.1596611E-02;  3.5529027E+04;  0.0000000E+00; -1.7406601E-01;  4.0000000E+04;  0.0000000E+00;  3.9949754E+04; -8.4916810E-03;  0.0000000E+00; -1.3104931E-02;  1.2513961E+03;
  6.6170007E-01;  9.9999998E-03;  2.0005237E-01;6522; -2.8573781E-02;  0.0000000E+00; -3.7028943E-03;  1.0000217E+03;  1.0617018E-01;  1.7974798E+01;3;  4.4649611E+00;  0.0000000E+00; -2.9294543E+00;0; -2.0404436E-02;  3.5515992E+04;  0.0000000E+00; -9.6199065E-02;  4.0000000E+04;  0.0000000E+00;  3.9950965E+04; -7.6520075E-03;  0.0000000E+00; -1.2752428E-02;  1.0697557E+03;
  6.6170746E-01;  9.9999998E-03;  2.1006675E-01;6523; -2.8377013E-02;  0.0000000E+00; -3.8522754E-03;  9.9985541E+02;  1.0617392E-01; -1.1979906E+02;3;  4.3401785E+00;  0.0000000E+00; -3.0214925E+00;0; -1.9330125E-02;  3.5501008E+04;  0.0000000E+00; -1.9580523E-02;  4.0000000E+04;  0.0000000E+00;  3.9952227E+04; -6.8168733E-03;  0.0000000E+00; -1.2513252E-02;  8.7445416E+02;
  6.6170853E-01;  9.9999998E-03;  2.2008362E-01;6524; -2.8184885E-02;  0.0000000E+00; -4.0112440E-03;  9.9966260E+02;  1.0617704E-01; -2.7954761E+02;3;  4.2519293E+00;  0.0000000E+00; -3.0782547E+00;0; -1.8451607E-02;  3.5485258E+04;  0.0000000E+00;  3.3362463E-02;  4.0000000E+04;  0.0000000E+00;  3.9953320E+04; -6.0092537E-03;  0.0000000E+00; -1.2442353E-02;  6.9923853E+02;
  6.6169941E-01;  9.9999998E-03;  2.3009712E-01;6525; -2.8000409E-02;  0.0000000E+00; -4.1808370E-03;  9.9946613E+02;  1.0617924E-01; -4.4230841E+02;3;  4.1726251E+00;  0.0000000E+00; -3.1359661E+00;0; -1.7866397E-02;  3.5469496E+04;  0.0000000E+00;  1.4720071E-02;  4.0000000E+04;  0.0000000E+00;  3.9955406E+04; -5.2482081E-03;  0.0000000E+00; -1.2618190E-02;  4.4753726E+02;
  6.7171717E-01;  9.9999998E-03;  6.9977418E-02;6570; -3.0726969E-02;  0.0000000E+00; -1.5523558E-03;  1.0003796E+03;  1.0798641E-01;  3.1455896E+02;3;  6.1717591E+00;  0.0000000E+00; -1.3679467E+00;0; -3.3718087E-02;  3.4347988E+04;  0.0000000E+00; -2.7931574E-01;  4.0000000E+04;  0.0000000E+00;  3.9938320E+04; -1.4657358E-02;  0.0000000E+00; -1.9060727E-02;  1.2914769E+03;
  6.7171603E-01;  9.9999998E-03;  7.9975396E-02;6571; -3.0619308E-02;  0.0000000E+00; -1.7523726E-03;  1.0003689E+03;  1.0799275E-01;  3.0567032E+02;3;  6.0661068E+00;  0.0000000E+00; -1.5420371E+00;0; -3.3164017E-02;  3.4343242E+04;  0.0000000E+00; -3.5125488E-01;  4.0000000E+04;  0.0000000E+00;  3.9938113E+04; -1.4500314E-02;  0.0000000E+00; -1.8663704E-02;  1.3534182E+03;
  6.7171550E-01;  9.9999998E-03;  8.9974605E-02;6572; -3.0500710E-02;  0.0000000E+00; -1.9462026E-03;  1.0003741E+03;  1.0799950E-01;  3.1001587E+02;3;  5.9526839E+00;  0.0000000E+00; -1.7091068E+00;0; -3.2525305E-02;  3.4339270E+04;  0.0000000E+00; -4.1777629E-01;  4.0000000E+04;  0.0000000E+00;  3.9937551E+04; -1.4294953E-02;  0.0000000E+00; -1.8230351E-02;  1.4489905E+03;
  6.7171556E-01;  9.9999998E-03;  9.9975266E-02;6573; -3.0371178E-02;  0.0000000E+00; -2.1336277E-03;  1.0003951E+03;  1.0800669E-01;  3.2739810E+02;3;  5.8334074E+00;  0.0000000E+00; -1.8690412E+00;0; -3.1795718E-02;  3.4336473E+04;  0.0000000E+00; -4.7084430E-01;  4.0000000E+04;  0.0000000E+00;  3.9936875E+04; -1.4033808E-02;  0.0000000E+00; -1.7761910E-02;  1.5529016E+03;
  6.7171609E-01;  9.9999998E-03;  1.0997744E-01;6574; -3.0230321E-02;  0.0000000E+00; -2.3142761E-03;  1.0004371E+03;  1.0801467E-01;  3.6206378E+02;3;  5.7106895E+00;  0.0000000E+00; -2.0212860E+00;0; -3.0968800E-02;  3.4334531E+04;  0.0000000E+00; -5.0292796E-01;  4.0000000E+04;  0.0000000E+00;  3.9936594E+04; -1.3709521E-02;  0.0000000E+00; -1.7259279E-02;  1.6389473E+03;
  6.7171729E-01;  9.9999998E-03;  1.1998167E-01;6575; -3.0077865E-02;  0.0000000E+00; -2.4876997E-03;  1.0004852E+03;  1.0802379E-01;  4.0196387E+02;3;  5.5885415E+00;  0.0000000E+00; -2.1611388E+00;0; -3.0039724E-02;  3.4332773E+04;  0.0000000E+00; -5.0880545E-01;  4.0000000E+04;  0.0000000E+00;  3.9936145E+04; -1.3315197E-02;  0.0000000E+00; -1.6724527E-02;  1.6856599E+03;
  6.7171919E-01;  9.9999998E-03;  1.2998813E-01;6576; -2.9913764E-02;  0.0000000E+00; -2.6538873E-03;  1.0005363E+03;  1.0803253E-01;  4.4423428E+02;3;  5.4705667E+00;  0.0000000E+00; -2.2870977E+00;0; -2.9006589E-02;  3.4330969E+04;  0.0000000E+00; -4.8713869E-01;  4.0000000E+04;  0.0000000E+00;  3.9935965E+04; -1.2844659E-02;  0.0000000E+00; -1.6161930E-02;  1.6806512E+03;
  6.7172199E-01;  9.9999998E-03;  1.3999641E-01;6577; -2.9738609E-02;  0.0000000E+00; -2.8132359E-03;  1.0005887E+03;  1.0804205E-01;  4.8778860E+02;3;  5.3608365E+00;  0.0000000E+00; -2.3938556E+00;0; -2.7871754E-02;  3.4328672E+04;  0.0000000E+00; -4.4102308E-01;  4.0000000E+04;  0.0000000E+00;  3.9936203E+04; -1.2293003E-02;  0.0000000E+00; -1.5578751E-02;  1.6230291E+03;
  6.7172545E-01;  9.9999998E-03;  1.5000603E-01;6578; -2.9554388E-02;  0.0000000E+00; -2.9675465E-03;  1.0006198E+03;  1.0805163E-01;  5.1346686E+02;3;  5.2545233E+00;  0.0000000E+00; -2.4905546E+00;0; -2.6642082E-02;  3.4325398E+04;  0.0000000E+00; -3.7738010E-01;  4.0000000E+04;  0.0000000E+00;  3.9936793E+04; -1.1657161E-02;  0.0000000E+00; -1.4984922E-02;  1.5228774E+03;
  6.7172998E-01;  9.9999998E-03;  1.6001685E-01;6579; -2.9362813E-02;  0.0000000E+00; -3.1177308E-03;  1.0006306E+03;  1.0806111E-01;  5.2245428E+02;3;  5.1462531E+00;  0.0000000E+00; -2.5813675E+00;0; -2.5331566E-02;  3.4320406E+04;  0.0000000E+00; -3.0475640E-01;  4.0000000E+04;  0.0000000E+00;  3.9937441E+04; -1.0936663E-02;  0.0000000E+00; -1.4394903E-02;  1.3936873E+03;
  6.7173547E-01;  9.9999998E-03;  1.7002924E-01;6580; -2.9164445E-02;  0.0000000E+00; -3.2638167E-03;  1.0006087E+03;  1.0807063E-01;  5.0428195E+02;3;  5.0175681E+00;  0.0000000E+00; -2.6898663E+00;0; -2.3963671E-02;  3.4313527E+04;  0.0000000E+00; -2.2907762E-01;  4.0000000E+04;  0.0000000E+00;  3.9938109E+04; -1.0135954E-02;  0.0000000E+00; -1.3827716E-02;  1.2432004E+03;
  6.7174083E-01;  9.9999998E-03;  1.8004425E-01;6581; -2.8956506E-02;  0.0000000E+00; -3.4026084E-03;  1.0005551E+03;  1.0807890E-01;  4.5983878E+02;3;  4.8873382E+00;  0.0000000E+00; -2.7915926E+00;0; -2.2569675E-02;  3.4304352E+04;  0.0000000E+00; -1.5230343E-01;  4.0000000E+04;  0.0000000E+00;  3.9939156E+04; -9.2652719E-03;  0.0000000E+00; -1.3304402E-02;  1.0723584E+03;
  6.7174399E-01;  9.9999998E-03;  1.9006340E-01;6582; -2.8739231E-02;  0.0000000E+00; -3.5340269E-03;  1.0004622E+03;  1.0808765E-01;  3.8290268E+02;3;  4.7473354E+00;  0.0000000E+00; -2.8981071E+00;0; -2.1187015E-02;  3.4293117E+04;  0.0000000E+00; -7.5085700E-02;  4.0000000E+04;  0.0000000E+00;  3.9940508E+04; -8.3416002E-03;  0.0000000E+00; -1.2845414E-02;  8.8686829E+02;
  6.7174292E-01;  9.9999998E-03;  2.0008799E-01;6583; -2.8515518E-02;  0.0000000E+00; -3.6594244E-03;  1.0003338E+03;  1.0809516E-01;  2.7653534E+02;3;  4.5873575E+00;  0.0000000E+00; -3.0150578E+00;0; -1.9856378E-02;  3.4279676E+04;  0.0000000E+00; -1.9203444E-03;  4.0000000E+04;  0.0000000E+00;  3.9941453E+04; -7.3879156E-03;  0.0000000E+00; -1.2468462E-02;  7.2267950E+02;
  6.7173588E-01;  9.9999998E-03;  2.1011819E-01;6584; -2.8291862E-02;  0.0000000E+00; -3.7867224E-03;  1.0001561E+03;  1.0810217E-01;  1.2937904E+02;3;  4.4370728E+00;  0.0000000E+00; -3.1216097E+00;0; -1.8626060E-02;  3.4264535E+04;  0.0000000E+00;  5.1063534E-02;  4.0000000E+04;  0.0000000E+00;  3.9941594E+04; -6.4314404E-03;  0.0000000E+00; -1.2194620E-02;  6.7312543E+02;
  6.7172372E-01;  9.9999998E-03;  2.2014801E-01;6585; -2.8082184E-02;  0.0000000E+00; -3.9418219E-03;  9.9993445E+02;  1.0810784E-01; -5.4319443E+01;3;  4.3223639E+00;  0.0000000E+00; -3.2033007E+00;0; -1.7596930E-02;  3.4248406E+04;  0.0000000E+00;  4.5898877E-02;  4.0000000E+04;  0.0000000E+00;  3.9940484E+04; -5.5019176E-03;  0.0000000E+00; -1.2095013E-02;  8.1250305E+02;
  6.7170662E-01;  9.9999998E-03;  2.3016362E-01;6586; -2.7898535E-02;  0.0000000E+00; -4.1377693E-03;  9.9970111E+02;  1.0811196E-01; -2.4764728E+02;3;  4.2508612E+00;  0.0000000E+00; -3.2608194E+00;0; -1.6945714E-02;  3.4232113E+04;  0.0000000E+00; -9.2482835E-02;  4.0000000E+04;  0.0000000E+00;  3.9939605E+04; -4.6251332E-03;  0.0000000E+00; -1.2320581E-02;  9.2348108E+02;
  6.8169498E-01;  9.9999998E-03;  6.9979221E-02;6631; -3.0835107E-02;  0.0000000E+00; -1.6039535E-03;  9.9964722E+02;  1.1012562E-01; -2.9228799E+02;3;  6.4277639E+00;  0.0000000E+00; -1.4080465E+00;0; -3.4392342E-02;  3.2978418E+04;  0.0000000E+00; -2.4007483E-01;  4.0000000E+04;  0.0000000E+00;  3.9923605E+04; -1.5306212E-02;  0.0000000E+00; -1.9086128E-02;  1.3564813E+03;
  6.8170899E-01;  9.9999998E-03;  7.9977669E-02;6632; -3.0727645E-02;  0.0000000E+00; -1.8081921E-03;  9.9967987E+02;  1.1013468E-01; -2.6522702E+02;3;  6.3119140E+00;  0.0000000E+00; -1.5868691E+00;0; -3.3802345E-02;  3.2974863E+04;  0.0000000E+00; -2.9953209E-01;  4.0000000E+04;  0.0000000E+00;  3.9923762E+04; -1.5122269E-02;  0.0000000E+00; -1.8680077E-02;  1.3769434E+03;
  6.8172389E-01;  9.9999998E-03;  8.9977384E-02;6633; -3.0608004E-02;  0.0000000E+00; -2.0050160E-03;  9.9973914E+02;  1.1014516E-01; -2.1614200E+02;3;  6.1867580E+00;  0.0000000E+00; -1.7585679E+00;0; -3.3122487E-02;  3.2972543E+04;  0.0000000E+00; -3.5165682E-01;  4.0000000E+04;  0.0000000E+00;  3.9923832E+04; -1.4887845E-02;  0.0000000E+00; -1.8234642E-02;  1.4282614E+03;
  6.8173927E-01;  9.9999998E-03;  9.9978641E-02;6634; -3.0475926E-02;  0.0000000E+00; -2.1940114E-03;  9.9982379E+02;  1.1015628E-01; -1.4597116E+02;3;  6.0557637E+00;  0.0000000E+00; -1.9226063E+00;0; -3.2345746E-02;  3.2971184E+04;  0.0000000E+00; -3.8869664E-01;  4.0000000E+04;  0.0000000E+00;  3.9923570E+04; -1.4595979E-02;  0.0000000E+00; -1.7749768E-02;  1.4847631E+03;
  6.8175477E-01;  9.9999998E-03;  1.0998211E-01;6635; -3.0331101E-02;  0.0000000E+00; -2.3746740E-03;  9.9992871E+02;  1.1016810E-01; -5.9060051E+01;3;  5.9214716E+00;  0.0000000E+00; -2.0781283E+00;0; -3.1464741E-02;  3.2971270E+04;  0.0000000E+00; -4.0380388E-01;  4.0000000E+04;  0.0000000E+00;  3.9923348E+04; -1.4239657E-02;  0.0000000E+00; -1.7225083E-02;  1.5200753E+03;
  6.8176991E-01;  9.9999998E-03;  1.1998830E-01;6636; -3.0173063E-02;  0.0000000E+00; -2.5463265E-03;  1.0000461E+03;  1.1018109E-01;  3.8221134E+01;3;  5.7878647E+00;  0.0000000E+00; -2.2215712E+00;0; -3.0473948E-02;  3.2971730E+04;  0.0000000E+00; -3.9285332E-01;  4.0000000E+04;  0.0000000E+00;  3.9923234E+04; -1.3811979E-02;  0.0000000E+00; -1.6661970E-02;  1.5134692E+03;
  6.8178463E-01;  9.9999998E-03;  1.2999704E-01;6637; -3.0001799E-02;  0.0000000E+00; -2.7087526E-03;  1.0001675E+03;  1.1019445E-01;  1.3876149E+02;3;  5.6577234E+00;  0.0000000E+00; -2.3510728E+00;0; -2.9371310E-02;  3.2971996E+04;  0.0000000E+00; -3.5570180E-01;  4.0000000E+04;  0.0000000E+00;  3.9923551E+04; -1.3306586E-02;  0.0000000E+00; -1.6064724E-02;  1.4537791E+03;
  6.8179929E-01;  9.9999998E-03;  1.4000782E-01;6638; -2.9817773E-02;  0.0000000E+00; -2.8620567E-03;  1.0002778E+03;  1.1020771E-01;  2.3021568E+02;3;  5.5372300E+00;  0.0000000E+00; -2.4590831E+00;0; -2.8159451E-02;  3.2971547E+04;  0.0000000E+00; -2.9638115E-01;  4.0000000E+04;  0.0000000E+00;  3.9924121E+04; -1.2718193E-02;  0.0000000E+00; -1.5441257E-02;  1.3416622E+03;
  6.8181407E-01;  9.9999998E-03;  1.5002008E-01;6639; -2.9622464E-02;  0.0000000E+00; -3.0074127E-03;  1.0003671E+03;  1.1022161E-01;  3.0418887E+02;3;  5.4190288E+00;  0.0000000E+00; -2.5590518E+00;0; -2.6846003E-02;  3.2969469E+04;  0.0000000E+00; -2.2220708E-01;  4.0000000E+04;  0.0000000E+00;  3.9925031E+04; -1.2042729E-02;  0.0000000E+00; -1.4803275E-02;  1.1882448E+03;
  6.8182945E-01;  9.9999998E-03;  1.6003324E-01;6640; -2.9417871E-02;  0.0000000E+00; -3.1467828E-03;  1.0004247E+03;  1.1023516E-01;  3.5179248E+02;3;  5.3018947E+00;  0.0000000E+00; -2.6467392E+00;0; -2.5447110E-02;  3.2965578E+04;  0.0000000E+00; -1.4130925E-01;  4.0000000E+04;  0.0000000E+00;  3.9926035E+04; -1.1279400E-02;  0.0000000E+00; -1.4167709E-02;  1.0066655E+03;
  6.8184632E-01;  9.9999998E-03;  1.7004785E-01;6641; -2.9202975E-02;  0.0000000E+00; -3.2790394E-03;  1.0004410E+03;  1.1024840E-01;  3.6532294E+02;3;  5.1785002E+00;  0.0000000E+00; -2.7447541E+00;0; -2.3987442E-02;  3.2958848E+04;  0.0000000E+00; -5.9463933E-02;  4.0000000E+04;  0.0000000E+00;  3.9927621E+04; -1.0431157E-02;  0.0000000E+00; -1.3556284E-02;  8.0365216E+02;
  6.8186432E-01;  9.9999998E-03;  1.8006624E-01;6642; -2.8974956E-02;  0.0000000E+00; -3.4016671E-03;  1.0004145E+03;  1.1026175E-01;  3.4339764E+02;3;  5.0282702E+00;  0.0000000E+00; -2.8601470E+00;0; -2.2498585E-02;  3.2949812E+04;  0.0000000E+00;  1.9569427E-02;  4.0000000E+04;  0.0000000E+00;  3.9929234E+04; -9.5064892E-03;  0.0000000E+00; -1.2992096E-02;  5.8157410E+02;
  6.8188250E-01;  9.9999998E-03;  1.9009048E-01;6643; -2.8730441E-02;  0.0000000E+00; -3.5111778E-03;  1.0003456E+03;  1.1027423E-01;  2.8631284E+02;3;  4.8697562E+00;  0.0000000E+00; -2.9936304E+00;0; -2.1015134E-02;  3.2938055E+04;  0.0000000E+00;  9.0917595E-02;  4.0000000E+04;  0.0000000E+00;  3.9930824E+04; -8.5205613E-03;  0.0000000E+00; -1.2494572E-02;  3.5913818E+02;
  6.8189967E-01;  9.9999998E-03;  2.0012239E-01;6644; -2.8466949E-02;  0.0000000E+00; -3.6053723E-03;  1.0002299E+03;  1.1028607E-01;  1.9051311E+02;3;  4.6833568E+00;  0.0000000E+00; -3.1411672E+00;0; -1.9566488E-02;  3.2924070E+04;  0.0000000E+00;  1.4376670E-01;  4.0000000E+04;  0.0000000E+00;  3.9932402E+04; -7.4936957E-03;  0.0000000E+00; -1.2072792E-02;  2.1283232E+02;
  6.8191397E-01;  9.9999998E-03;  2.1016309E-01;6645; -2.8192021E-02;  0.0000000E+00; -3.6959585E-03;  1.0000603E+03;  1.1029655E-01;  4.9973888E+01;3;  4.4790425E+00;  0.0000000E+00; -3.3021498E+00;0; -1.8183932E-02;  3.2908297E+04;  0.0000000E+00;  1.5389238E-01;  4.0000000E+04;  0.0000000E+00;  3.9932047E+04; -6.4539746E-03;  0.0000000E+00; -1.1729958E-02;  1.9444016E+02;
  6.8192428E-01;  9.9999998E-03;  2.2020380E-01;6646; -2.7935969E-02;  0.0000000E+00; -3.8284003E-03;  9.9982819E+02;  1.1030682E-01; -1.4236632E+02;3;  4.3252296E+00;  0.0000000E+00; -3.4277244E+00;0; -1.6980754E-02;  3.2891543E+04;  0.0000000E+00;  7.0943125E-02;  4.0000000E+04;  0.0000000E+00;  3.9929477E+04; -5.4400181E-03;  0.0000000E+00; -1.1540736E-02;  4.7038660E+02;
  6.8192440E-01;  9.9999998E-03;  2.3022294E-01;6647; -2.7735099E-02;  0.0000000E+00; -4.0365406E-03;  9.9958368E+02;  1.1031567E-01; -3.4492847E+02;3;  4.2578473E+00;  0.0000000E+00; -3.4697046E+00;0; -1.6225120E-02;  3.2874344E+04;  0.0000000E+00; -2.0051719E-01;  4.0000000E+04;  0.0000000E+00;  3.9926641E+04; -4.4902517E-03;  0.0000000E+00; -1.1734868E-02;  9.5148560E+02;
  6.9221377E-01;  9.9999998E-03;  7.0013493E-02;6692; -3.0999454E-02;  0.0000000E+00; -1.6453416E-03;  9.9850549E+02;  1.1259435E-01; -1.2381870E+03;3;  6.7047329E+00;  0.0000000E+00; -1.4576067E+00;0; -3.5050869E-02;  3.1486152E+04;  0.0000000E+00; -1.4220087E-01;  4.0000000E+04;  0.0000000E+00;  3.9906770E+04; -1.6054772E-02;  0.0000000E+00; -1.8996097E-02;  1.4211873E+03;
  6.9226313E-01;  9.9999998E-03;  8.0017179E-02;6693; -3.0892003E-02;  0.0000000E+00; -1.8533394E-03;  9.9858606E+02;  1.1261085E-01; -1.1714235E+03;3;  6.5758924E+00;  0.0000000E+00; -1.6424357E+00;0; -3.4416951E-02;  3.1481367E+04;  0.0000000E+00; -1.7442437E-01;  4.0000000E+04;  0.0000000E+00;  3.9907414E+04; -1.5822269E-02;  0.0000000E+00; -1.8594682E-02;  1.3802136E+03;
  6.9230860E-01;  9.9999998E-03;  9.0021193E-02;6694; -3.0770967E-02;  0.0000000E+00; -2.0530424E-03;  9.9870398E+02;  1.1262813E-01; -1.0737472E+03;3;  6.4393535E+00;  0.0000000E+00; -1.8191962E+00;0; -3.3687711E-02;  3.1478695E+04;  0.0000000E+00; -1.9860734E-01;  4.0000000E+04;  0.0000000E+00;  3.9907609E+04; -1.5536604E-02;  0.0000000E+00; -1.8151108E-02;  1.3662189E+03;
  6.9234836E-01;  9.9999998E-03;  1.0002646E-01;6695; -3.0636190E-02;  0.0000000E+00; -2.2439535E-03;  9.9885223E+02;  1.1264545E-01; -9.5088654E+02;3;  6.2940321E+00;  0.0000000E+00; -1.9881715E+00;0; -3.2855995E-02;  3.1478219E+04;  0.0000000E+00; -2.0875211E-01;  4.0000000E+04;  0.0000000E+00;  3.9907789E+04; -1.5192723E-02;  0.0000000E+00; -1.7663270E-02;  1.3572462E+03;
  6.9238198E-01;  9.9999998E-03;  1.1003388E-01;6696; -3.0486878E-02;  0.0000000E+00; -2.4253570E-03;  9.9903406E+02;  1.1266281E-01; -8.0027356E+02;3;  6.1480498E+00;  0.0000000E+00; -2.1478395E+00;0; -3.1914510E-02;  3.1479541E+04;  0.0000000E+00; -1.9990905E-01;  4.0000000E+04;  0.0000000E+00;  3.9908105E+04; -1.4785726E-02;  0.0000000E+00; -1.7128784E-02;  1.3295533E+03;
  6.9240898E-01;  9.9999998E-03;  1.2004346E-01;6697; -3.0323092E-02;  0.0000000E+00; -2.5963620E-03;  9.9921936E+02;  1.1267979E-01; -6.4674707E+02;3;  6.0009689E+00;  0.0000000E+00; -2.2938645E+00;0; -3.0858271E-02;  3.1481893E+04;  0.0000000E+00; -1.6962968E-01;  4.0000000E+04;  0.0000000E+00;  3.9908410E+04; -1.4310834E-02;  0.0000000E+00; -1.6547436E-02;  1.2641224E+03;
  6.9243068E-01;  9.9999998E-03;  1.3005470E-01;6698; -3.0144306E-02;  0.0000000E+00; -2.7563998E-03;  9.9941455E+02;  1.1269707E-01; -4.8502325E+02;3;  5.8569021E+00;  0.0000000E+00; -2.4288380E+00;0; -2.9686026E-02;  3.1484525E+04;  0.0000000E+00; -1.1875491E-01;  4.0000000E+04;  0.0000000E+00;  3.9909117E+04; -1.3763352E-02;  0.0000000E+00; -1.5922675E-02;  1.1507767E+03;
  6.9244862E-01;  9.9999998E-03;  1.4006704E-01;6699; -2.9951191E-02;  0.0000000E+00; -2.9053050E-03;  9.9958905E+02;  1.1271384E-01; -3.4048416E+02;3;  5.7217045E+00;  0.0000000E+00; -2.5406637E+00;0; -2.8401813E-02;  3.1486145E+04;  0.0000000E+00; -5.1347077E-02;  4.0000000E+04;  0.0000000E+00;  3.9910391E+04; -1.3139294E-02;  0.0000000E+00; -1.5262519E-02;  9.9054218E+02;
  6.9246531E-01;  9.9999998E-03;  1.5007988E-01;6700; -2.9744804E-02;  0.0000000E+00; -3.0444008E-03;  9.9973804E+02;  1.1273111E-01; -2.1703087E+02;3;  5.5953603E+00;  0.0000000E+00; -2.6342649E+00;0; -2.7015241E-02;  3.1486053E+04;  0.0000000E+00;  2.6258137E-02;  4.0000000E+04;  0.0000000E+00;  3.9911668E+04; -1.2435528E-02;  0.0000000E+00; -1.4579713E-02;  7.9613867E+02;
  6.9248343E-01;  9.9999998E-03;  1.6009296E-01;6701; -2.9526623E-02;  0.0000000E+00; -3.1746908E-03;  9.9984241E+02;  1.1274821E-01; -1.3056419E+02;3;  5.4596410E+00;  0.0000000E+00; -2.7446878E+00;0; -2.5544625E-02;  3.1483295E+04;  0.0000000E+00;  1.0750620E-01;  4.0000000E+04;  0.0000000E+00;  3.9913457E+04; -1.1651039E-02;  0.0000000E+00; -1.3893587E-02;  5.8874591E+02;
  6.9250458E-01;  9.9999998E-03;  1.7010745E-01;6702; -2.9297395E-02;  0.0000000E+00; -3.2967685E-03;  9.9990063E+02;  1.1276562E-01; -8.2318649E+01;3;  5.3337779E+00;  0.0000000E+00; -2.8145883E+00;0; -2.4018876E-02;  3.1477336E+04;  0.0000000E+00;  1.8690668E-01;  4.0000000E+04;  0.0000000E+00;  3.9915367E+04; -1.0789700E-02;  0.0000000E+00; -1.3229175E-02;  4.0574799E+02;
  6.9252902E-01;  9.9999998E-03;  1.8012552E-01;6703; -2.9051255E-02;  0.0000000E+00; -3.4078790E-03;  9.9991107E+02;  1.1278380E-01; -7.3676918E+01;3;  5.1787171E+00;  0.0000000E+00; -2.9462278E+00;0; -2.2470340E-02;  3.1468205E+04;  0.0000000E+00;  2.5841367E-01;  4.0000000E+04;  0.0000000E+00;  3.9917418E+04; -9.8574571E-03;  0.0000000E+00; -1.2612882E-02;  3.4103543E+02;
  6.9255823E-01;  9.9999998E-03;  1.9014993E-01;6704; -2.8779581E-02;  0.0000000E+00; -3.4983712E-03;  9.9986725E+02;  1.1280183E-01; -1.0997218E+02;3;  4.9705133E+00;  0.0000000E+00; -3.1163642E+00;0; -2.0930059E-02;  3.1455799E+04;  0.0000000E+00;  3.1325719E-01;  4.0000000E+04;  0.0000000E+00;  3.9919430E+04; -8.8652745E-03;  0.0000000E+00; -1.2064784E-02;  4.5617114E+02;
  6.9259518E-01;  9.9999998E-03;  2.0018423E-01;6705; -2.8476249E-02;  0.0000000E+00; -3.5659301E-03;  9.9977203E+02;  1.1282057E-01; -1.8888351E+02;3;  4.7418890E+00;  0.0000000E+00; -3.3269801E+00;0; -1.9420043E-02;  3.1440195E+04;  0.0000000E+00;  3.3679232E-01;  4.0000000E+04;  0.0000000E+00;  3.9920902E+04; -7.8311786E-03;  0.0000000E+00; -1.1588865E-02;  5.8494952E+02;
  6.9264543E-01;  9.9999998E-03;  2.1022785E-01;6706; -2.8145546E-02;  0.0000000E+00; -3.6226425E-03;  9.9961200E+02;  1.1284044E-01; -3.2147235E+02;3;  4.4927821E+00;  0.0000000E+00; -3.5474670E+00;0; -1.7955620E-02;  3.1421623E+04;  0.0000000E+00;  3.0176118E-01;  4.0000000E+04;  0.0000000E+00;  3.9920340E+04; -6.7810677E-03;  0.0000000E+00; -1.1174552E-02;  4.7649750E+02;
  6.9271410E-01;  9.9999998E-03;  2.2026627E-01;6707; -2.7829001E-02;  0.0000000E+00; -3.7256435E-03;  9.9939496E+02;  1.1286342E-01; -5.0126968E+02;3;  4.3172646E+00;  0.0000000E+00; -3.7137947E+00;0; -1.6649101E-02;  3.1400383E+04;  0.0000000E+00;  1.5748753E-01;  4.0000000E+04;  0.0000000E+00;  3.9916855E+04; -5.7590120E-03;  0.0000000E+00; -1.0890090E-02;  3.4655159E+01;
  6.9279915E-01;  9.9999998E-03;  2.3027611E-01;6708; -2.7558165E-02;  0.0000000E+00; -3.8892108E-03;  9.9918097E+02;  1.1288901E-01; -6.7854858E+02;3;  4.2247214E+00;  0.0000000E+00; -3.7917640E+00;0; -1.5697606E-02;  3.1377336E+04;  0.0000000E+00; -1.8152356E-01;  4.0000000E+04;  0.0000000E+00;  3.9914988E+04; -4.8027616E-03;  0.0000000E+00; -1.0894844E-02;  7.0399097E+02;
  7.0444870E-01;  9.9999998E-03;  7.0153356E-02;6753; -3.1238914E-02;  0.0000000E+00; -1.6645509E-03;  9.9741730E+02;  1.1568473E-01; -2.1397415E+03;3;  7.0300851E+00;  0.0000000E+00; -1.5256392E+00;0; -3.5451692E-02;  2.9783936E+04;  0.0000000E+00;  1.9317437E-02;  4.0000000E+04;  0.0000000E+00;  3.9887113E+04; -1.6771024E-02;  0.0000000E+00; -1.8680668E-02;  1.4916250E+03;
  7.0448148E-01;  9.9999998E-03;  8.0166414E-02;6754; -3.1130025E-02;  0.0000000E+00; -1.8746216E-03;  9.9755286E+02;  1.1569861E-01; -2.0273990E+03;3;  6.8850784E+00;  0.0000000E+00; -1.7164781E+00;0; -3.4737658E-02;  2.9783791E+04;  0.0000000E+00;  2.9237034E-02;  4.0000000E+04;  0.0000000E+00;  3.9887875E+04; -1.6429802E-02;  0.0000000E+00; -1.8307855E-02;  1.4006731E+03;
  7.0450348E-01;  9.9999998E-03;  9.0179630E-02;6755; -3.1006495E-02;  0.0000000E+00; -2.0764370E-03;  9.9773175E+02;  1.1571141E-01; -1.8792057E+03;3;  6.7304907E+00;  0.0000000E+00; -1.8992466E+00;0; -3.3923440E-02;  2.9786693E+04;  0.0000000E+00;  4.5482725E-02;  4.0000000E+04;  0.0000000E+00;  3.9888375E+04; -1.6031867E-02;  0.0000000E+00; -1.7891573E-02;  1.3350505E+03;
  7.0451307E-01;  9.9999998E-03;  1.0019369E-01;6756; -3.0867841E-02;  0.0000000E+00; -2.2693418E-03;  9.9794250E+02;  1.1572305E-01; -1.7045934E+03;3;  6.5703545E+00;  0.0000000E+00; -2.0727100E+00;0; -3.3003535E-02;  2.9792533E+04;  0.0000000E+00;  7.0506953E-02;  4.0000000E+04;  0.0000000E+00;  3.9888891E+04; -1.5577105E-02;  0.0000000E+00; -1.7426431E-02;  1.2785518E+03;
  7.0451164E-01;  9.9999998E-03;  1.1020830E-01;6757; -3.0713491E-02;  0.0000000E+00; -2.4524035E-03;  9.9818854E+02;  1.1573505E-01; -1.5007473E+03;3;  6.4033384E+00;  0.0000000E+00; -2.2366254E+00;0; -3.1972513E-02;  2.9800383E+04;  0.0000000E+00;  1.0607163E-01;  4.0000000E+04;  0.0000000E+00;  3.9889594E+04; -1.5065715E-02;  0.0000000E+00; -1.6906798E-02;  1.2127650E+03;
  7.0450115E-01;  9.9999998E-03;  1.2022281E-01;6758; -3.0543098E-02;  0.0000000E+00; -2.6244835E-03;  9.9844568E+02;  1.1574621E-01; -1.2877164E+03;3;  6.2418461E+00;  0.0000000E+00; -2.3889766E+00;0; -3.0827634E-02;  2.9809354E+04;  0.0000000E+00;  1.5259393E-01;  4.0000000E+04;  0.0000000E+00;  3.9890582E+04; -1.4498139E-02;  0.0000000E+00; -1.6329495E-02;  1.1221267E+03;
  7.0448595E-01;  9.9999998E-03;  1.3023634E-01;6759; -3.0356478E-02;  0.0000000E+00; -2.7845702E-03;  9.9869489E+02;  1.1575768E-01; -1.0812532E+03;3;  6.0812144E+00;  0.0000000E+00; -2.5248783E+00;0; -2.9569771E-02;  2.9818057E+04;  0.0000000E+00;  2.0902014E-01;  4.0000000E+04;  0.0000000E+00;  3.9891789E+04; -1.3873947E-02;  0.0000000E+00; -1.5695823E-02;  9.9954468E+02;
  7.0447141E-01;  9.9999998E-03;  1.4024822E-01;6760; -3.0153746E-02;  0.0000000E+00; -2.9323234E-03;  9.9892572E+02;  1.1577031E-01; -8.8999933E+02;3;  5.9297090E+00;  0.0000000E+00; -2.6489649E+00;0; -2.8205413E-02;  2.9824895E+04;  0.0000000E+00;  2.7294815E-01;  4.0000000E+04;  0.0000000E+00;  3.9893637E+04; -1.3192806E-02;  0.0000000E+00; -1.5012606E-02;  8.5270172E+02;
  7.0446241E-01;  9.9999998E-03;  1.5025850E-01;6761; -2.9935310E-02;  0.0000000E+00; -3.0676953E-03;  9.9911981E+02;  1.1578479E-01; -7.2921381E+02;3;  5.7945313E+00;  0.0000000E+00; -2.7408288E+00;0; -2.6747175E-02;  2.9828518E+04;  0.0000000E+00;  3.4102094E-01;  4.0000000E+04;  0.0000000E+00;  3.9895457E+04; -1.2454341E-02;  0.0000000E+00; -1.4292832E-02;  7.1294580E+02;
  7.0446432E-01;  9.9999998E-03;  1.6026762E-01;6762; -2.9702956E-02;  0.0000000E+00; -3.1928665E-03;  9.9926001E+02;  1.1580241E-01; -6.1306897E+02;3;  5.6551762E+00;  0.0000000E+00; -2.8273053E+00;0; -2.5217805E-02;  2.9828010E+04;  0.0000000E+00;  4.0990290E-01;  4.0000000E+04;  0.0000000E+00;  3.9897660E+04; -1.1659833E-02;  0.0000000E+00; -1.3557973E-02;  6.4276385E+02;
  7.0447862E-01;  9.9999998E-03;  1.7027782E-01;6763; -2.9456533E-02;  0.0000000E+00; -3.3096608E-03;  9.9934619E+02;  1.1582272E-01; -5.4166357E+02;3;  5.5004158E+00;  0.0000000E+00; -2.9340916E+00;0; -2.3650192E-02;  2.9822701E+04;  0.0000000E+00;  4.7515649E-01;  4.0000000E+04;  0.0000000E+00;  3.9899805E+04; -1.0813526E-02;  0.0000000E+00; -1.2836666E-02;  6.8969165E+02;
  7.0450693E-01;  9.9999998E-03;  1.8029198E-01;6764; -2.9195033E-02;  0.0000000E+00; -3.4163378E-03;  9.9936334E+02;  1.1584578E-01; -5.2744177E+02;3;  5.3255448E+00;  0.0000000E+00; -3.0799260E+00;0; -2.2084003E-02;  2.9812645E+04;  0.0000000E+00;  5.2996981E-01;  4.0000000E+04;  0.0000000E+00;  3.9901648E+04; -9.9238260E-03;  0.0000000E+00; -1.2160177E-02;  8.0990875E+02;
  7.0455265E-01;  9.9999998E-03;  1.9031227E-01;6765; -2.8900394E-02;  0.0000000E+00; -3.4991126E-03;  9.9932489E+02;  1.1587207E-01; -5.5929272E+02;3;  5.0857167E+00;  0.0000000E+00; -3.2864170E+00;0; -2.0550195E-02;  2.9797820E+04;  0.0000000E+00;  5.6542754E-01;  4.0000000E+04;  0.0000000E+00;  3.9902719E+04; -8.9966431E-03;  0.0000000E+00; -1.1553551E-02;  9.0423572E+02;
  7.0461446E-01;  9.9999998E-03;  2.0033897E-01;6766; -2.8561108E-02;  0.0000000E+00; -3.5539006E-03;  9.9923145E+02;  1.1590143E-01; -6.3672260E+02;3;  4.7937727E+00;  0.0000000E+00; -3.5507782E+00;0; -1.9070035E-02;  2.9779322E+04;  0.0000000E+00;  5.6874824E-01;  4.0000000E+04;  0.0000000E+00;  3.9902445E+04; -8.0453334E-03;  0.0000000E+00; -1.1024701E-02;  8.5566412E+02;
  7.0470637E-01;  9.9999998E-03;  2.1036276E-01;6767; -2.8193889E-02;  0.0000000E+00; -3.6089900E-03;  9.9907452E+02;  1.1593702E-01; -7.6674359E+02;3;  4.5332847E+00;  0.0000000E+00; -3.7979391E+00;0; -1.7680310E-02;  2.9756193E+04;  0.0000000E+00;  5.1829708E-01;  4.0000000E+04;  0.0000000E+00;  3.9899945E+04; -7.0977965E-03;  0.0000000E+00; -1.0582513E-02;  6.0103748E+02;
  7.0483106E-01;  9.9999998E-03;  2.2036186E-01;6768; -2.7832659E-02;  0.0000000E+00; -3.6963990E-03;  9.9891217E+02;  1.1598000E-01; -9.0125824E+02;3;  4.3498826E+00;  0.0000000E+00; -3.9799118E+00;0; -1.6471814E-02;  2.9729125E+04;  0.0000000E+00;  3.7526092E-01;  4.0000000E+04;  0.0000000E+00;  3.9897445E+04; -6.1903577E-03;  0.0000000E+00; -1.0281458E-02;  2.7682816E+02;
  7.0496827E-01;  9.9999998E-03;  2.3033670E-01;6769; -2.7461672E-02;  0.0000000E+00; -3.7453426E-03;  9.9882861E+02;  1.1602523E-01; -9.7049084E+02;3;  4.2089624E+00;  0.0000000E+00; -4.1441393E+00;0; -1.5325645E-02;  2.9701232E+04;  0.0000000E+00;  7.2910719E-02;  4.0000000E+04;  0.0000000E+00;  3.9900285E+04; -5.3377654E-03;  0.0000000E+00; -9.9878795E-03;  4.7648160E+02;
  7.1750844E-01;  9.9999998E-03;  7.0253111E-02;6814; -3.1527523E-02;  0.0000000E+00; -1.6364038E-03;  9.9721851E+02;  1.1930912E-01; -2.3044282E+03;3;  7.3963518E+00;  0.0000000E+00; -1.5920256E+00;0; -3.5041697E-02;  2.8016414E+04;  0.0000000E+00;  2.0104611E-01;  4.0000000E+04;  0.0000000E+00;  3.9865918E+04; -1.7039310E-02;  0.0000000E+00; -1.8002387E-02;  1.5745134E+03;
  7.1749634E-01;  9.9999998E-03;  8.0277570E-02;6815; -3.1417422E-02;  0.0000000E+00; -1.8461953E-03;  9.9737158E+02;  1.1931010E-01; -2.1776169E+03;3;  7.2311349E+00;  0.0000000E+00; -1.7905424E+00;0; -3.4184996E-02;  2.8022662E+04;  0.0000000E+00;  2.5607443E-01;  4.0000000E+04;  0.0000000E+00;  3.9866789E+04; -1.6493002E-02;  0.0000000E+00; -1.7691994E-02;  1.5009497E+03;
  7.1747047E-01;  9.9999998E-03;  9.0300143E-02;6816; -3.1291667E-02;  0.0000000E+00; -2.0489322E-03;  9.9756134E+02;  1.1931022E-01; -2.0203868E+03;3;  7.0530400E+00;  0.0000000E+00; -1.9801617E+00;0; -3.3223495E-02;  2.8032084E+04;  0.0000000E+00;  3.1292984E-01;  4.0000000E+04;  0.0000000E+00;  3.9867652E+04; -1.5883012E-02;  0.0000000E+00; -1.7340481E-02;  1.4615913E+03;
  7.1743035E-01;  9.9999998E-03;  1.0032122E-01;6817; -3.1150041E-02;  0.0000000E+00; -2.2441023E-03;  9.9778992E+02;  1.1931024E-01; -1.8310095E+03;3;  6.8740907E+00;  0.0000000E+00; -2.1597824E+00;0; -3.2156099E-02;  2.8044295E+04;  0.0000000E+00;  3.6927074E-01;  4.0000000E+04;  0.0000000E+00;  3.9868391E+04; -1.5217873E-02;  0.0000000E+00; -1.6938226E-02;  1.4372919E+03;
  7.1737701E-01;  9.9999998E-03;  1.1034082E-01;6818; -3.0991975E-02;  0.0000000E+00; -2.4304974E-03;  9.9804590E+02;  1.1930890E-01; -1.6189169E+03;3;  6.6859322E+00;  0.0000000E+00; -2.3280494E+00;0; -3.0981448E-02;  2.8058262E+04;  0.0000000E+00;  4.2304555E-01;  4.0000000E+04;  0.0000000E+00;  3.9869105E+04; -1.4506529E-02;  0.0000000E+00; -1.6474918E-02;  1.4059475E+03;
  7.1731246E-01;  9.9999998E-03;  1.2035863E-01;6819; -3.0816583E-02;  0.0000000E+00; -2.6068510E-03;  9.9831390E+02;  1.1930835E-01; -1.3968984E+03;3;  6.5050435E+00;  0.0000000E+00; -2.4848361E+00;0; -2.9700547E-02;  2.8073043E+04;  0.0000000E+00;  4.7304806E-01;  4.0000000E+04;  0.0000000E+00;  3.9870242E+04; -1.3757861E-02;  0.0000000E+00; -1.5942685E-02;  1.3495442E+03;
  7.1724254E-01;  9.9999998E-03;  1.3037400E-01;6820; -3.0624261E-02;  0.0000000E+00; -2.7718008E-03;  9.9857123E+02;  1.1930798E-01; -1.1837194E+03;3;  6.3236055E+00;  0.0000000E+00; -2.6278358E+00;0; -2.8318252E-02;  2.8086908E+04;  0.0000000E+00;  5.1939404E-01;  4.0000000E+04;  0.0000000E+00;  3.9871945E+04; -1.2979649E-02;  0.0000000E+00; -1.5338603E-02;  1.2612246E+03;
  7.1717477E-01;  9.9999998E-03;  1.4038678E-01;6821; -3.0413842E-02;  0.0000000E+00; -2.9239214E-03;  9.9880347E+02;  1.1931024E-01; -9.9128040E+02;3;  6.1576362E+00;  0.0000000E+00; -2.7591698E+00;0; -2.6844822E-02;  2.8098414E+04;  0.0000000E+00;  5.6332976E-01;  4.0000000E+04;  0.0000000E+00;  3.9873930E+04; -1.2178079E-02;  0.0000000E+00; -1.4666744E-02;  1.1522108E+03;
  7.1711767E-01;  9.9999998E-03;  1.5039718E-01;6822; -3.0185651E-02;  0.0000000E+00; -3.0627006E-03;  9.9899774E+02;  1.1931631E-01; -8.3034668E+02;3;  5.9944100E+00;  0.0000000E+00; -2.8675847E+00;0; -2.5297616E-02;  2.8105648E+04;  0.0000000E+00;  6.0651046E-01;  4.0000000E+04;  0.0000000E+00;  3.9876297E+04; -1.1358538E-02;  0.0000000E+00; -1.3939079E-02;  1.0580948E+03;
  7.1707773E-01;  9.9999998E-03;  1.6040739E-01;6823; -2.9940180E-02;  0.0000000E+00; -3.1894753E-03;  9.9913123E+02;  1.1932792E-01; -7.1978192E+02;3;  5.8424840E+00;  0.0000000E+00; -2.9716494E+00;0; -2.3705620E-02;  2.8107654E+04;  0.0000000E+00;  6.4986354E-01;  4.0000000E+04;  0.0000000E+00;  3.9878863E+04; -1.0527120E-02;  0.0000000E+00; -1.3178501E-02;  1.0328121E+03;
  7.1705890E-01;  9.9999998E-03;  1.7042051E-01;6824; -2.9677358E-02;  0.0000000E+00; -3.3060790E-03;  9.9920398E+02;  1.1934406E-01; -6.5948737E+02;3;  5.6818242E+00;  0.0000000E+00; -3.0674984E+00;0; -2.2108499E-02;  2.8103758E+04;  0.0000000E+00;  6.9088221E-01;  4.0000000E+04;  0.0000000E+00;  3.9881277E+04; -9.6910857E-03;  0.0000000E+00; -1.2417413E-02;  1.0948503E+03;
  7.1706569E-01;  9.9999998E-03;  1.8043713E-01;6825; -2.9395226E-02;  0.0000000E+00; -3.4112202E-03;  9.9920703E+02;  1.1936616E-01; -6.5696893E+02;3;  5.4977202E+00;  0.0000000E+00; -3.2124603E+00;0; -2.0552292E-02;  2.8094107E+04;  0.0000000E+00;  7.2348779E-01;  4.0000000E+04;  0.0000000E+00;  3.9883129E+04; -8.8593429E-03;  0.0000000E+00; -1.1692951E-02;  1.1844520E+03;
  7.1710169E-01;  9.9999998E-03;  1.9045612E-01;6826; -2.9087918E-02;  0.0000000E+00; -3.5003216E-03;  9.9915039E+02;  1.1939484E-01; -7.0388116E+02;3;  5.2315359E+00;  0.0000000E+00; -3.4286859E+00;0; -1.9082941E-02;  2.8078783E+04;  0.0000000E+00;  7.3931199E-01;  4.0000000E+04;  0.0000000E+00;  3.9883664E+04; -8.0417562E-03;  0.0000000E+00; -1.1041186E-02;  1.1954584E+03;
  7.1716726E-01;  9.9999998E-03;  2.0047078E-01;6827; -2.8730774E-02;  0.0000000E+00; -3.5588359E-03;  9.9903345E+02;  1.1942969E-01; -8.0076727E+02;3;  4.8922234E+00;  0.0000000E+00; -3.7279570E+00;0; -1.7725941E-02;  2.8059066E+04;  0.0000000E+00;  7.2627515E-01;  4.0000000E+04;  0.0000000E+00;  3.9882078E+04; -7.2444626E-03;  0.0000000E+00; -1.0481479E-02;  1.0412568E+03;
  7.1725249E-01;  9.9999998E-03;  2.1046746E-01;6828; -2.8337575E-02;  0.0000000E+00; -3.6103367E-03;  9.9888245E+02;  1.1946791E-01; -9.2585016E+02;3;  4.6068244E+00;  0.0000000E+00; -3.9954140E+00;0; -1.6521588E-02;  2.8036830E+04;  0.0000000E+00;  6.6298252E-01;  4.0000000E+04;  0.0000000E+00;  3.9878949E+04; -6.4866561E-03;  0.0000000E+00; -1.0034932E-02;  7.6092963E+02;
  7.1734768E-01;  9.9999998E-03;  2.2043249E-01;6829; -2.7934685E-02;  0.0000000E+00; -3.6575594E-03;  9.9877814E+02;  1.1950751E-01; -1.0122675E+03;3;  4.3944707E+00;  0.0000000E+00; -4.2088284E+00;0; -1.5496234E-02;  2.8014129E+04;  0.0000000E+00;  5.1105726E-01;  4.0000000E+04;  0.0000000E+00;  3.9879086E+04; -5.7877405E-03;  0.0000000E+00; -9.7084939E-03;  3.9590802E+02;
  7.1745461E-01;  9.9999998E-03;  2.3039375E-01;6830; -2.7482448E-02;  0.0000000E+00; -3.6045329E-03;  9.9875543E+02;  1.1954949E-01; -1.0310817E+03;3;  4.2176065E+00;  0.0000000E+00; -4.4670801E+00;0; -1.4332272E-02;  2.7991471E+04;  0.0000000E+00;  2.0588270E-01;  4.0000000E+04;  0.0000000E+00;  3.9884074E+04; -5.1449621E-03;  0.0000000E+00; -9.1873100E-03;  8.4796356E+02;
  7.2961587E-01;  9.9999998E-03;  7.0245109E-02;6875; -3.1818751E-02;  0.0000000E+00; -1.5637630E-03;  9.9748871E+02;  1.2296516E-01; -2.0805330E+03;3;  7.7624006E+00;  0.0000000E+00; -1.6393080E+00;0; -3.3529587E-02;  2.6410072E+04;  0.0000000E+00;  3.2751358E-01;  4.0000000E+04;  0.0000000E+00;  3.9845957E+04; -1.6587952E-02;  0.0000000E+00; -1.6941635E-02;  1.6252186E+03;
  7.2960728E-01;  9.9999998E-03;  8.0275558E-02;6876; -3.1708810E-02;  0.0000000E+00; -1.7700463E-03;  9.9761688E+02;  1.2296728E-01; -1.9743632E+03;3;  7.5711737E+00;  0.0000000E+00; -1.8447888E+00;0; -3.2442443E-02;  2.6414898E+04;  0.0000000E+00;  4.1363335E-01;  4.0000000E+04;  0.0000000E+00;  3.9847062E+04; -1.5730895E-02;  0.0000000E+00; -1.6711548E-02;  1.6274740E+03;
  7.2958219E-01;  9.9999998E-03;  9.0305150E-02;6877; -3.1583369E-02;  0.0000000E+00; -1.9718811E-03;  9.9777942E+02;  1.2296880E-01; -1.8397003E+03;3;  7.3749118E+00;  0.0000000E+00; -2.0402527E+00;0; -3.1240925E-02;  2.6422525E+04;  0.0000000E+00;  4.9618047E-01;  4.0000000E+04;  0.0000000E+00;  3.9847570E+04; -1.4792238E-02;  0.0000000E+00; -1.6448686E-02;  1.6686464E+03;
  7.2954082E-01;  9.9999998E-03;  1.0033355E-01;6878; -3.1440817E-02;  0.0000000E+00; -2.1685003E-03;  9.9797662E+02;  1.2296832E-01; -1.6763470E+03;3;  7.1724434E+00;  0.0000000E+00; -2.2253823E+00;0; -2.9929891E-02;  2.6432387E+04;  0.0000000E+00;  5.6810379E-01;  4.0000000E+04;  0.0000000E+00;  3.9848172E+04; -1.3790612E-02;  0.0000000E+00; -1.6139280E-02;  1.7145714E+03;
  7.2948253E-01;  9.9999998E-03;  1.1036015E-01;6879; -3.1282350E-02;  0.0000000E+00; -2.3590114E-03;  9.9819403E+02;  1.2296792E-01; -1.4962040E+03;3;  6.9673324E+00;  0.0000000E+00; -2.3979087E+00;0; -2.8515138E-02;  2.6443822E+04;  0.0000000E+00;  6.2395132E-01;  4.0000000E+04;  0.0000000E+00;  3.9848918E+04; -1.2747280E-02;  0.0000000E+00; -1.5767857E-02;  1.7314102E+03;
  7.2941107E-01;  9.9999998E-03;  1.2038486E-01;6880; -3.1105746E-02;  0.0000000E+00; -2.5420415E-03;  9.9841791E+02;  1.2296768E-01; -1.3107279E+03;3;  6.7678151E+00;  0.0000000E+00; -2.5588250E+00;0; -2.7003657E-02;  2.6455885E+04;  0.0000000E+00;  6.6174829E-01;  4.0000000E+04;  0.0000000E+00;  3.9849828E+04; -1.1682894E-02;  0.0000000E+00; -1.5320764E-02;  1.6952577E+03;
  7.2933519E-01;  9.9999998E-03;  1.3040763E-01;6881; -3.0911438E-02;  0.0000000E+00; -2.7154929E-03;  9.9863562E+02;  1.2296849E-01; -1.1303380E+03;3;  6.5769434E+00;  0.0000000E+00; -2.7058311E+00;0; -2.5406118E-02;  2.6466631E+04;  0.0000000E+00;  6.8384546E-01;  4.0000000E+04;  0.0000000E+00;  3.9851430E+04; -1.0616607E-02;  0.0000000E+00; -1.4789511E-02;  1.5981991E+03;
  7.2926509E-01;  9.9999998E-03;  1.4042807E-01;6882; -3.0697992E-02;  0.0000000E+00; -2.8778524E-03;  9.9882385E+02;  1.2297357E-01; -9.7439185E+02;3;  6.3948903E+00;  0.0000000E+00; -2.8456273E+00;0; -2.3739014E-02;  2.6474223E+04;  0.0000000E+00;  6.9612449E-01;  4.0000000E+04;  0.0000000E+00;  3.9853230E+04; -9.5650395E-03;  0.0000000E+00; -1.4173974E-02;  1.4527825E+03;
  7.2921330E-01;  9.9999998E-03;  1.5044768E-01;6883; -3.0466270E-02;  0.0000000E+00; -3.0275832E-03;  9.9897021E+02;  1.2298507E-01; -8.5316071E+02;3;  6.2054348E+00;  0.0000000E+00; -2.9694819E+00;0; -2.2026258E-02;  2.6476664E+04;  0.0000000E+00;  7.0579332E-01;  4.0000000E+04;  0.0000000E+00;  3.9855703E+04; -8.5426392E-03;  0.0000000E+00; -1.3483618E-02;  1.2970479E+03;
  7.2919112E-01;  9.9999998E-03;  1.6046743E-01;6884; -3.0214412E-02;  0.0000000E+00; -3.1644877E-03;  9.9905890E+02;  1.2300422E-01; -7.7968134E+02;3;  6.0379133E+00;  0.0000000E+00; -3.0871119E+00;0; -2.0303810E-02;  2.6472418E+04;  0.0000000E+00;  7.1789420E-01;  4.0000000E+04;  0.0000000E+00;  3.9858270E+04; -7.5624008E-03;  0.0000000E+00; -1.2741409E-02;  1.1933407E+03;
  7.2920740E-01;  9.9999998E-03;  1.7048836E-01;6885; -2.9942285E-02;  0.0000000E+00; -3.2894588E-03;  9.9908862E+02;  1.2303523E-01; -7.5504010E+02;3;  5.8670316E+00;  0.0000000E+00; -3.1931689E+00;0; -1.8619837E-02;  2.6460604E+04;  0.0000000E+00;  7.3206407E-01;  4.0000000E+04;  0.0000000E+00;  3.9860891E+04; -6.6365385E-03;  0.0000000E+00; -1.1983299E-02;  1.1834628E+03;
  7.2926396E-01;  9.9999998E-03;  1.8050723E-01;6886; -2.9648121E-02;  0.0000000E+00; -3.4028017E-03;  9.9905334E+02;  1.2307657E-01; -7.8427380E+02;3;  5.6698399E+00;  0.0000000E+00; -3.3192170E+00;0; -1.7032191E-02;  2.6441439E+04;  0.0000000E+00;  7.4295890E-01;  4.0000000E+04;  0.0000000E+00;  3.9862711E+04; -5.7781390E-03;  0.0000000E+00; -1.1254053E-02;  1.2246630E+03;
  7.2934890E-01;  9.9999998E-03;  1.9052023E-01;6887; -2.9328989E-02;  0.0000000E+00; -3.5038360E-03;  9.9895471E+02;  1.2312209E-01; -8.6599988E+02;3;  5.4332190E+00;  0.0000000E+00; -3.4865930E+00;0; -1.5604991E-02;  2.6417348E+04;  0.0000000E+00;  7.4138987E-01;  4.0000000E+04;  0.0000000E+00;  3.9863250E+04; -5.0019808E-03;  0.0000000E+00; -1.0603010E-02;  1.2097893E+03;
  7.2944242E-01;  9.9999998E-03;  2.0052238E-01;6888; -2.8975418E-02;  0.0000000E+00; -3.5868194E-03;  9.9881000E+02;  1.2316847E-01; -9.8589764E+02;3;  5.0655117E+00;  0.0000000E+00; -3.8021891E+00;0; -1.4391934E-02;  2.6391918E+04;  0.0000000E+00;  7.1280557E-01;  4.0000000E+04;  0.0000000E+00;  3.9862277E+04; -4.3179328E-03;  0.0000000E+00; -1.0074001E-02;  1.0548379E+03;
  7.2951061E-01;  9.9999998E-03;  2.1049896E-01;6889; -2.8578755E-02;  0.0000000E+00; -3.6430175E-03;  9.9866040E+02;  1.2320580E-01; -1.1098447E+03;3;  4.7405901E+00;  0.0000000E+00; -4.0938048E+00;0; -1.3431244E-02;  2.6370170E+04;  0.0000000E+00;  6.3275856E-01;  4.0000000E+04;  0.0000000E+00;  3.9861723E+04; -3.7355649E-03;  0.0000000E+00; -9.6956789E-03;  8.3504871E+02;
  7.2955191E-01;  9.9999998E-03;  2.2045720E-01;6890; -2.8144680E-02;  0.0000000E+00; -3.6467412E-03;  9.9855988E+02;  1.2323228E-01; -1.1931016E+03;3;  4.4659810E+00;  0.0000000E+00; -4.3809762E+00;0; -1.2668200E-02;  2.6353014E+04;  0.0000000E+00;  4.6064812E-01;  4.0000000E+04;  0.0000000E+00;  3.9864605E+04; -3.2519563E-03;  0.0000000E+00; -9.4162440E-03;  9.6768433E+02;
  7.2957122E-01;  9.9999998E-03;  2.3042756E-01;6891; -2.7633118E-02;  0.0000000E+00; -3.5009878E-03;  9.9853058E+02;  1.2324928E-01; -1.2173972E+03;3;  4.2736096E+00;  0.0000000E+00; -4.6695652E+00;0; -1.1652468E-02;  2.6340650E+04;  0.0000000E+00;  1.3319510E-01;  4.0000000E+04;  0.0000000E+00;  3.9871211E+04; -2.8550627E-03;  0.0000000E+00; -8.7974053E-03;  1.8590742E+03;
  7.4177927E-01;  9.9999998E-03;  7.0228994E-02;6936; -3.2114755E-02;  0.0000000E+00; -1.4494072E-03;  9.9783893E+02;  1.2682469E-01; -1.7904177E+03;3;  8.1457310E+00;  0.0000000E+00; -1.6689532E+00;0; -3.0635130E-02;  2.4859836E+04;  0.0000000E+00;  3.7957439E-01;  4.0000000E+04;  0.0000000E+00;  3.9826738E+04; -1.5311930E-02;  0.0000000E+00; -1.5323200E-02;  1.5727719E+03;
  7.4174929E-01;  9.9999998E-03;  8.0265164E-02;6937; -3.2005601E-02;  0.0000000E+00; -1.6495365E-03;  9.9789996E+02;  1.2682205E-01; -1.7398512E+03;3;  7.9441819E+00;  0.0000000E+00; -1.8781397E+00;0; -2.9182255E-02;  2.4864297E+04;  0.0000000E+00;  4.7736463E-01;  4.0000000E+04;  0.0000000E+00;  3.9827441E+04; -1.3992390E-02;  0.0000000E+00; -1.5189865E-02;  1.6653257E+03;
  7.4170595E-01;  9.9999998E-03;  9.0301178E-02;6938; -3.1879842E-02;  0.0000000E+00; -1.8481996E-03;  9.9799072E+02;  1.2681964E-01; -1.6646436E+03;3;  7.7172575E+00;  0.0000000E+00; -2.0798464E+00;0; -2.7594242E-02;  2.4870553E+04;  0.0000000E+00;  5.6576562E-01;  4.0000000E+04;  0.0000000E+00;  3.9827723E+04; -1.2556518E-02;  0.0000000E+00; -1.5037725E-02;  1.7868094E+03;
  7.4164814E-01;  9.9999998E-03;  1.0033645E-01;6939; -3.1738650E-02;  0.0000000E+00; -2.0455346E-03;  9.9810657E+02;  1.2681700E-01; -1.5686957E+03;3;  7.4896736E+00;  0.0000000E+00; -2.2715621E+00;0; -2.5885589E-02;  2.4878344E+04;  0.0000000E+00;  6.3391423E-01;  4.0000000E+04;  0.0000000E+00;  3.9827848E+04; -1.1035617E-02;  0.0000000E+00; -1.4849974E-02;  1.8884171E+03;
  7.4157971E-01;  9.9999998E-03;  1.1036988E-01;6940; -3.1580415E-02;  0.0000000E+00; -2.2404250E-03;  9.9824548E+02;  1.2681632E-01; -1.4535879E+03;3;  7.2711315E+00;  0.0000000E+00; -2.4512920E+00;0; -2.4069663E-02;  2.4886543E+04;  0.0000000E+00;  6.7404270E-01;  4.0000000E+04;  0.0000000E+00;  3.9828027E+04; -9.4637219E-03;  0.0000000E+00; -1.4605940E-02;  1.9294598E+03;
  7.4150819E-01;  9.9999998E-03;  1.2040187E-01;6941; -3.1405576E-02;  0.0000000E+00; -2.4312425E-03;  9.9838354E+02;  1.2681842E-01; -1.3392208E+03;3;  7.0382490E+00;  0.0000000E+00; -2.6138513E+00;0; -2.2160752E-02;  2.4893451E+04;  0.0000000E+00;  6.8446404E-01;  4.0000000E+04;  0.0000000E+00;  3.9828582E+04; -7.8748204E-03;  0.0000000E+00; -1.4285931E-02;  1.8851335E+03;
  7.4144232E-01;  9.9999998E-03;  1.3043213E-01;6942; -3.1213691E-02;  0.0000000E+00; -2.6159999E-03;  9.9851428E+02;  1.2682627E-01; -1.2308782E+03;3;  6.8399734E+00;  0.0000000E+00; -2.7561598E+00;0; -2.0178609E-02;  2.4897734E+04;  0.0000000E+00;  6.7060137E-01;  4.0000000E+04;  0.0000000E+00;  3.9829469E+04; -6.3024927E-03;  0.0000000E+00; -1.3876115E-02;  1.7492975E+03;
  7.4139065E-01;  9.9999998E-03;  1.4045849E-01;6943; -3.1002847E-02;  0.0000000E+00; -2.7928338E-03;  9.9862207E+02;  1.2684135E-01; -1.1415968E+03;3;  6.6317835E+00;  0.0000000E+00; -2.9071577E+00;0; -1.8150736E-02;  2.4897848E+04;  0.0000000E+00;  6.4345962E-01;  4.0000000E+04;  0.0000000E+00;  3.9830809E+04; -4.7785458E-03;  0.0000000E+00; -1.3372190E-02;  1.5343339E+03;
  7.4136108E-01;  9.9999998E-03;  1.5047832E-01;6944; -3.0772721E-02;  0.0000000E+00; -2.9583541E-03;  9.9868744E+02;  1.2686396E-01; -1.0874255E+03;3;  6.4304199E+00;  0.0000000E+00; -3.0413158E+00;0; -1.6114514E-02;  2.4892561E+04;  0.0000000E+00;  6.1584902E-01;  4.0000000E+04;  0.0000000E+00;  3.9832816E+04; -3.3334570E-03;  0.0000000E+00; -1.2781057E-02;  1.2730770E+03;
  7.4135703E-01;  9.9999998E-03;  1.6049246E-01;6945; -3.0520935E-02;  0.0000000E+00; -3.1121252E-03;  9.9869904E+02;  1.2689367E-01; -1.0778456E+03;3;  6.2500324E+00;  0.0000000E+00; -3.1679902E+00;0; -1.4121771E-02;  2.4881430E+04;  0.0000000E+00;  5.9686553E-01;  4.0000000E+04;  0.0000000E+00;  3.9835203E+04; -1.9963230E-03;  0.0000000E+00; -1.2125448E-02;  1.0266415E+03;
  7.4137580E-01;  9.9999998E-03;  1.7050190E-01;6946; -3.0246142E-02;  0.0000000E+00; -3.2537964E-03;  9.9865692E+02;  1.2692891E-01; -1.1127087E+03;3;  6.0630102E+00;  0.0000000E+00; -3.2784595E+00;0; -1.2239918E-02;  2.4865205E+04;  0.0000000E+00;  5.8848286E-01;  4.0000000E+04;  0.0000000E+00;  3.9837828E+04; -7.9518463E-04;  0.0000000E+00; -1.1444733E-02;  8.7934149E+02;
  7.4141610E-01;  9.9999998E-03;  1.8050650E-01;6947; -2.9947575E-02;  0.0000000E+00; -3.3853580E-03;  9.9855145E+02;  1.2696859E-01; -1.2001136E+03;3;  5.8574090E+00;  0.0000000E+00; -3.3851273E+00;0; -1.0541390E-02;  2.4844385E+04;  0.0000000E+00;  5.8490026E-01;  4.0000000E+04;  0.0000000E+00;  3.9839992E+04;  2.5013380E-04;  0.0000000E+00; -1.0791523E-02;  8.7052692E+02;
  7.4147844E-01;  9.9999998E-03;  1.9050604E-01;6948; -2.9622449E-02;  0.0000000E+00; -3.5058239E-03;  9.9840643E+02;  1.2701222E-01; -1.3202583E+03;3;  5.6252308E+00;  0.0000000E+00; -3.5390422E+00;0; -9.0936627E-03;  2.4820148E+04;  0.0000000E+00;  5.7362735E-01;  4.0000000E+04;  0.0000000E+00;  3.9841840E+04;  1.1340058E-03;  0.0000000E+00; -1.0227668E-02;  9.3671185E+02;
  7.4152517E-01;  9.9999998E-03;  2.0048818E-01;6949; -2.9270669E-02;  0.0000000E+00; -3.6123015E-03;  9.9824194E+02;  1.2704656E-01; -1.4565013E+03;3;  5.3371048E+00;  0.0000000E+00; -3.7437229E+00;0; -7.9863286E-03;  2.4797852E+04;  0.0000000E+00;  5.3707719E-01;  4.0000000E+04;  0.0000000E+00;  3.9844023E+04;  1.8364161E-03;  0.0000000E+00; -9.8227449E-03;  1.0812812E+03;
  7.4154615E-01;  9.9999998E-03;  2.1045741E-01;6950; -2.8882964E-02;  0.0000000E+00; -3.6808008E-03;  9.9809015E+02;  1.2706946E-01; -1.5822755E+03;3;  4.9132743E+00;  0.0000000E+00; -4.1203723E+00;0; -7.2513125E-03;  2.4779305E+04;  0.0000000E+00;  4.5226800E-01;  4.0000000E+04;  0.0000000E+00;  3.9847887E+04;  2.3637214E-03;  0.0000000E+00; -9.6150339E-03;  1.5169313E+03;
  7.4155301E-01;  9.9999998E-03;  2.2043183E-01;6951; -2.8425701E-02;  0.0000000E+00; -3.6337543E-03;  9.9799481E+02;  1.2708716E-01; -1.6612362E+03;3;  4.5624352E+00;  0.0000000E+00; -4.4968028E+00;0; -6.7316573E-03;  2.4763758E+04;  0.0000000E+00;  2.9146236E-01;  4.0000000E+04;  0.0000000E+00;  3.9855184E+04;  2.7415901E-03;  0.0000000E+00; -9.4732475E-03;  2.4316904E+03;
  7.4153340E-01;  9.9999998E-03;  2.3043182E-01;6952; -2.7875111E-02;  0.0000000E+00; -3.3998366E-03;  9.9793079E+02;  1.2709424E-01; -1.7143212E+03;3;  4.3378172E+00;  0.0000000E+00; -4.8128543E+00;0; -5.9060636E-03;  2.4752934E+04;  0.0000000E+00;  2.3157859E-02;  4.0000000E+04;  0.0000000E+00;  3.9863250E+04;  2.9726350E-03;  0.0000000E+00; -8.8786986E-03;  3.5240620E+03;
  7.5473845E-01;  9.9999998E-03;  7.0239566E-02;6997; -3.2412067E-02;  0.0000000E+00; -1.2871742E-03;  9.9832703E+02;  1.3109747E-01; -1.3860343E+03;3;  8.5731764E+00;  0.0000000E+00; -1.6786163E+00;0; -2.5887825E-02;  2.3299406E+04;  0.0000000E+00;  3.3901501E-01;  4.0000000E+04;  0.0000000E+00;  3.9806441E+04; -1.3046377E-02;  0.0000000E+00; -1.2841446E-02;  1.3806827E+03;
  7.5471693E-01;  9.9999998E-03;  8.0277480E-02;6998; -3.2302264E-02;  0.0000000E+00; -1.4758509E-03;  9.9831641E+02;  1.3109778E-01; -1.3948241E+03;3;  8.3406534E+00;  0.0000000E+00; -1.8864759E+00;0; -2.3833141E-02;  2.3300857E+04;  0.0000000E+00;  4.2529577E-01;  4.0000000E+04;  0.0000000E+00;  3.9806848E+04; -1.1030323E-02;  0.0000000E+00; -1.2802817E-02;  1.5270640E+03;
  7.5466061E-01;  9.9999998E-03;  9.0317942E-02;6999; -3.2178134E-02;  0.0000000E+00; -1.6685397E-03;  9.9831458E+02;  1.3109300E-01; -1.3963550E+03;3;  8.1033297E+00;  0.0000000E+00; -2.0871980E+00;0; -2.1611959E-02;  2.3305098E+04;  0.0000000E+00;  4.9774772E-01;  4.0000000E+04;  0.0000000E+00;  3.9806742E+04; -8.8380147E-03;  0.0000000E+00; -1.2773945E-02;  1.6890347E+03;
  7.5457567E-01;  9.9999998E-03;  1.0035741E-01;7000; -3.2036711E-02;  0.0000000E+00; -1.8648134E-03;  9.9832141E+02;  1.3108547E-01; -1.3906761E+03;3;  7.8531041E+00;  0.0000000E+00; -2.2817218E+00;0; -1.9252645E-02;  2.3311062E+04;  0.0000000E+00;  5.4339939E-01;  4.0000000E+04;  0.0000000E+00;  3.9806145E+04; -6.5179034E-03;  0.0000000E+00; -1.2734742E-02;  1.8136388E+03;
  7.5447357E-01;  9.9999998E-03;  1.1038991E-01;7001; -3.1880863E-02;  0.0000000E+00; -2.0635398E-03;  9.9833917E+02;  1.3107891E-01; -1.3759604E+03;3;  7.5887737E+00;  0.0000000E+00; -2.4740598E+00;0; -1.6781200E-02;  2.3317451E+04;  0.0000000E+00;  5.5358744E-01;  4.0000000E+04;  0.0000000E+00;  3.9805629E+04; -4.1219853E-03;  0.0000000E+00; -1.2659214E-02;  1.8616226E+03;
  7.5436121E-01;  9.9999998E-03;  1.2041368E-01;7002; -3.1710181E-02;  0.0000000E+00; -2.2627427E-03;  9.9835986E+02;  1.3107409E-01; -1.3588251E+03;3;  7.3416185E+00;  0.0000000E+00; -2.6487679E+00;0; -1.4228563E-02;  2.3322959E+04;  0.0000000E+00;  5.2807218E-01;  4.0000000E+04;  0.0000000E+00;  3.9805270E+04; -1.7059912E-03;  0.0000000E+00; -1.2522572E-02;  1.8139358E+03;
  7.5424898E-01;  9.9999998E-03;  1.3043329E-01;7003; -3.1521652E-02;  0.0000000E+00; -2.4606360E-03;  9.9837543E+02;  1.3107230E-01; -1.3459365E+03;3;  7.1389680E+00;  0.0000000E+00; -2.8037293E+00;0; -1.1627813E-02;  2.3326703E+04;  0.0000000E+00;  4.7601661E-01;  4.0000000E+04;  0.0000000E+00;  3.9805348E+04;  6.7728834E-04;  0.0000000E+00; -1.2305101E-02;  1.6702286E+03;
  7.5414944E-01;  9.9999998E-03;  1.4045006E-01;7004; -3.1316373E-02;  0.0000000E+00; -2.6548174E-03;  9.9836792E+02;  1.3107625E-01; -1.3521586E+03;3;  6.9106154E+00;  0.0000000E+00; -2.9379292E+00;0; -9.0185842E-03;  2.3327055E+04;  0.0000000E+00;  4.1343269E-01;  4.0000000E+04;  0.0000000E+00;  3.9806051E+04;  2.9781221E-03;  0.0000000E+00; -1.1996706E-02;  1.4417958E+03;
  7.5407344E-01;  9.9999998E-03;  1.5046281E-01;7005; -3.1092945E-02;  0.0000000E+00; -2.8409907E-03;  9.9833270E+02;  1.3108575E-01; -1.3813429E+03;3;  6.6868858E+00;  0.0000000E+00; -3.0909042E+00;0; -6.4506633E-03;  2.3322920E+04;  0.0000000E+00;  3.5793182E-01;  4.0000000E+04;  0.0000000E+00;  3.9807520E+04;  5.1492481E-03;  0.0000000E+00; -1.1599911E-02;  1.1436731E+03;
  7.5406116E-01;  9.9999998E-03;  1.6046971E-01;7006; -3.0847611E-02;  0.0000000E+00; -3.0151512E-03;  9.9827014E+02;  1.3111444E-01; -1.4331439E+03;3;  6.4826112E+00;  0.0000000E+00; -3.2261670E+00;0; -3.9564930E-03;  2.3310492E+04;  0.0000000E+00;  3.2110506E-01;  4.0000000E+04;  0.0000000E+00;  3.9809590E+04;  7.1756374E-03;  0.0000000E+00; -1.1132130E-02;  7.9431171E+02;
  7.5412780E-01;  9.9999998E-03;  1.7046860E-01;7007; -3.0579740E-02;  0.0000000E+00; -3.1780007E-03;  9.9817529E+02;  1.3116385E-01; -1.5117589E+03;3;  6.2838888E+00;  0.0000000E+00; -3.3225048E+00;0; -1.5966706E-03;  2.3288537E+04;  0.0000000E+00;  3.0563715E-01;  4.0000000E+04;  0.0000000E+00;  3.9811945E+04;  9.0393331E-03;  0.0000000E+00; -1.0636004E-02;  4.2144067E+02;
  7.5423282E-01;  9.9999998E-03;  1.8046227E-01;7008; -3.0288450E-02;  0.0000000E+00; -3.3318147E-03;  9.9804175E+02;  1.3122156E-01; -1.6223730E+03;3;  6.0456200E+00;  0.0000000E+00; -3.4501085E+00;0;  5.1041320E-04;  2.3261076E+04;  0.0000000E+00;  3.0447549E-01;  4.0000000E+04;  0.0000000E+00;  3.9814598E+04;  1.0687550E-02;  0.0000000E+00; -1.0177136E-02;  1.6746155E+02;
  7.5435722E-01;  9.9999998E-03;  1.9045243E-01;7009; -2.9969485E-02;  0.0000000E+00; -3.4732248E-03;  9.9788330E+02;  1.3128249E-01; -1.7536285E+03;3;  5.8026814E+00;  0.0000000E+00; -3.6052852E+00;0;  2.2644186E-03;  2.3230363E+04;  0.0000000E+00;  3.0103979E-01;  4.0000000E+04;  0.0000000E+00;  3.9817891E+04;  1.2097657E-02;  0.0000000E+00; -9.8332381E-03;  5.4405603E+02;
  7.5447661E-01;  9.9999998E-03;  2.0043674E-01;7010; -2.9621238E-02;  0.0000000E+00; -3.5971215E-03;  9.9771155E+02;  1.3133937E-01; -1.8959456E+03;3;  5.5309682E+00;  0.0000000E+00; -3.7789786E+00;0;  3.5572462E-03;  2.3199650E+04;  0.0000000E+00;  2.7441508E-01;  4.0000000E+04;  0.0000000E+00;  3.9822699E+04;  1.3250474E-02;  0.0000000E+00; -9.6932277E-03;  1.1949475E+03;
  7.5457549E-01;  9.9999998E-03;  2.1042563E-01;7011; -2.9238543E-02;  0.0000000E+00; -3.6799877E-03;  9.9756616E+02;  1.3138728E-01; -2.0163865E+03;3;  5.1441689E+00;  0.0000000E+00; -4.0911880E+00;0;  4.3155188E-03;  2.3171020E+04;  0.0000000E+00;  2.0583493E-01;  4.0000000E+04;  0.0000000E+00;  3.9829832E+04;  1.4140572E-02;  0.0000000E+00; -9.8250536E-03;  2.1532891E+03;
  7.5465357E-01;  9.9999998E-03;  2.2043028E-01;7012; -2.8788151E-02;  0.0000000E+00; -3.6369346E-03;  9.9745264E+02;  1.3142803E-01; -2.1104578E+03;3;  4.6993880E+00;  0.0000000E+00; -4.5465622E+00;0;  4.6703359E-03;  2.3145547E+04;  0.0000000E+00;  8.6557932E-02;  4.0000000E+04;  0.0000000E+00;  3.9839039E+04;  1.4779934E-02;  0.0000000E+00; -1.0109598E-02;  3.3940259E+03;
  7.5470269E-01;  9.9999998E-03;  2.3045856E-01;7013; -2.8231721E-02;  0.0000000E+00; -3.3752518E-03;  9.9734613E+02;  1.3145682E-01; -2.1987021E+03;3;  4.4164863E+00;  0.0000000E+00; -4.9165959E+00;0;  5.1933611E-03;  2.3124725E+04;  0.0000000E+00; -7.1185112E-02;  4.0000000E+04;  0.0000000E+00;  3.9847898E+04;  1.5172141E-02;  0.0000000E+00; -9.9787796E-03;  4.5492876E+03;
  7.6883507E-01;  9.9999998E-03;  7.0094414E-02;7058; -3.2691561E-02;  0.0000000E+00; -1.0673887E-03;  9.9911072E+02;  1.3597657E-01; -7.3676886E+02;3;  9.0804796E+00;  0.0000000E+00; -1.6558864E+00;0; -1.8947769E-02;  2.1698822E+04;  0.0000000E+00;  1.8811902E-01;  4.0000000E+04;  0.0000000E+00;  3.9784531E+04; -9.8449234E-03;  0.0000000E+00; -9.1028456E-03;  9.6328949E+02;
  7.6874435E-01;  9.9999998E-03;  8.0117926E-02;7059; -3.2578070E-02;  0.0000000E+00; -1.2396709E-03;  9.9903113E+02;  1.3596080E-01; -8.0269287E+02;3;  8.7907324E+00;  0.0000000E+00; -1.8756378E+00;0; -1.6025757E-02;  2.1704393E+04;  0.0000000E+00;  2.3770958E-01;  4.0000000E+04;  0.0000000E+00;  3.9784539E+04; -6.8698139E-03;  0.0000000E+00; -9.1559440E-03;  1.0822227E+03;
  7.6861501E-01;  9.9999998E-03;  9.0146229E-02;7060; -3.2448433E-02;  0.0000000E+00; -1.4209487E-03;  9.9893988E+02;  1.3593656E-01; -8.7829559E+02;3;  8.5604162E+00;  0.0000000E+00; -2.0870349E+00;0; -1.2879349E-02;  2.1712449E+04;  0.0000000E+00;  2.7400437E-01;  4.0000000E+04;  0.0000000E+00;  3.9784066E+04; -3.6222467E-03;  0.0000000E+00; -9.2571024E-03;  1.2246454E+03;
  7.6844579E-01;  9.9999998E-03;  1.0017850E-01;7061; -3.2307029E-02;  0.0000000E+00; -1.6111853E-03;  9.9884521E+02;  1.3590516E-01; -9.5671313E+02;3;  8.2490664E+00;  0.0000000E+00; -2.2851167E+00;0; -9.5626470E-03;  2.1723189E+04;  0.0000000E+00;  2.8533053E-01;  4.0000000E+04;  0.0000000E+00;  3.9783004E+04; -1.7173518E-04;  0.0000000E+00; -9.3909120E-03;  1.3552522E+03;
  7.6824909E-01;  9.9999998E-03;  1.1021667E-01;7062; -3.2151952E-02;  0.0000000E+00; -1.8113191E-03;  9.9874939E+02;  1.3587196E-01; -1.0361182E+03;3;  7.9832230E+00;  0.0000000E+00; -2.4744225E+00;0; -6.1205141E-03;  2.1735338E+04;  0.0000000E+00;  2.6393521E-01;  4.0000000E+04;  0.0000000E+00;  3.9781477E+04;  3.4092802E-03;  0.0000000E+00; -9.5297946E-03;  1.4538091E+03;
  7.6805216E-01;  9.9999998E-03;  1.2025574E-01;7063; -3.1985052E-02;  0.0000000E+00; -2.0188538E-03;  9.9866302E+02;  1.3584073E-01; -1.1076718E+03;3;  7.6923041E+00;  0.0000000E+00; -2.6655252E+00;0; -2.5888779E-03;  2.1746158E+04;  0.0000000E+00;  2.1020380E-01;  4.0000000E+04;  0.0000000E+00;  3.9780113E+04;  7.0511014E-03;  0.0000000E+00; -9.6399793E-03;  1.5114042E+03;
  7.6790965E-01;  9.9999998E-03;  1.3029079E-01;7064; -3.1802997E-02;  0.0000000E+00; -2.2295974E-03;  9.9858490E+02;  1.3582994E-01; -1.1723612E+03;3;  7.4611459E+00;  0.0000000E+00; -2.8597596E+00;0;  1.0253051E-03;  2.1750752E+04;  0.0000000E+00;  1.3435146E-01;  4.0000000E+04;  0.0000000E+00;  3.9779070E+04;  1.0712400E-02;  0.0000000E+00; -9.6870949E-03;  1.5268582E+03;
  7.6787990E-01;  9.9999998E-03;  1.4032127E-01;7065; -3.1611282E-02;  0.0000000E+00; -2.4364537E-03;  9.9854132E+02;  1.3585638E-01; -1.2085083E+03;3;  7.1673117E+00;  0.0000000E+00; -3.0221326E+00;0;  4.7286777E-03;  2.1743732E+04;  0.0000000E+00;  5.4533161E-02;  4.0000000E+04;  0.0000000E+00;  3.9778691E+04;  1.4378776E-02;  0.0000000E+00; -9.6500982E-03;  1.5011361E+03;
  7.6787746E-01;  9.9999998E-03;  1.5034814E-01;7066; -3.1403173E-02;  0.0000000E+00; -2.6376168E-03;  9.9848187E+02;  1.3588943E-01; -1.2577415E+03;3;  6.9397111E+00;  0.0000000E+00; -3.1529815E+00;0;  8.3599212E-03;  2.1732623E+04;  0.0000000E+00; -6.6897082E-03;  4.0000000E+04;  0.0000000E+00;  3.9779211E+04;  1.7912904E-02;  0.0000000E+00; -9.5529826E-03;  1.4205399E+03;
  7.6788199E-01;  9.9999998E-03;  1.6037108E-01;7067; -3.1175079E-02;  0.0000000E+00; -2.8342966E-03;  9.9839606E+02;  1.3592249E-01; -1.3288505E+03;3;  6.7170362E+00;  0.0000000E+00; -3.2679789E+00;0;  1.1800675E-02;  2.1719076E+04;  0.0000000E+00; -3.5126954E-02;  4.0000000E+04;  0.0000000E+00;  3.9780766E+04;  2.1218890E-02;  0.0000000E+00; -9.4182156E-03;  1.2602843E+03;
  7.6789606E-01;  9.9999998E-03;  1.7039190E-01;7068; -3.0920865E-02;  0.0000000E+00; -3.0215257E-03;  9.9827441E+02;  1.3595586E-01; -1.4296377E+03;3;  6.4968252E+00;  0.0000000E+00; -3.4237306E+00;0;  1.4952144E-02;  2.1702809E+04;  0.0000000E+00; -2.9100040E-02;  4.0000000E+04;  0.0000000E+00;  3.9782922E+04;  2.4237767E-02;  0.0000000E+00; -9.2856232E-03;  1.0094612E+03;
  7.6797831E-01;  9.9999998E-03;  1.8040352E-01;7069; -3.0641424E-02;  0.0000000E+00; -3.1924536E-03;  9.9814203E+02;  1.3600737E-01; -1.5393136E+03;3;  6.2376361E+00;  0.0000000E+00; -3.5688272E+00;0;  1.7795509E-02;  2.1678814E+04;  0.0000000E+00; -7.4187247E-04;  4.0000000E+04;  0.0000000E+00;  3.9786453E+04;  2.7009891E-02;  0.0000000E+00; -9.2143826E-03;  7.0931598E+02;
  7.6810050E-01;  9.9999998E-03;  1.9041207E-01;7070; -3.0336073E-02;  0.0000000E+00; -3.3462946E-03;  9.9799658E+02;  1.3606787E-01; -1.6598040E+03;3;  5.9666462E+00;  0.0000000E+00; -3.7139788E+00;0;  2.0196727E-02;  2.1650109E+04;  0.0000000E+00;  2.7920676E-02;  4.0000000E+04;  0.0000000E+00;  3.9790992E+04;  2.9495051E-02;  0.0000000E+00; -9.2983246E-03;  6.6224750E+02;
  7.6823604E-01;  9.9999998E-03;  2.0042111E-01;7071; -2.9998625E-02;  0.0000000E+00; -3.4760998E-03;  9.9785199E+02;  1.3612954E-01; -1.7796029E+03;3;  5.6602507E+00;  0.0000000E+00; -3.9063566E+00;0;  2.2010136E-02;  2.1619594E+04;  0.0000000E+00;  3.0264512E-02;  4.0000000E+04;  0.0000000E+00;  3.9797594E+04;  3.1653062E-02;  0.0000000E+00; -9.6429251E-03;  1.3001462E+03;
  7.6837581E-01;  9.9999998E-03;  2.1044575E-01;7072; -2.9616911E-02;  0.0000000E+00; -3.5529213E-03;  9.9772278E+02;  1.3618739E-01; -1.8866122E+03;3;  5.2526951E+00;  0.0000000E+00; -4.2291017E+00;0;  2.3144901E-02;  2.1588953E+04;  0.0000000E+00; -1.4527394E-02;  4.0000000E+04;  0.0000000E+00;  3.9805801E+04;  3.3472851E-02;  0.0000000E+00; -1.0327950E-02;  2.3297310E+03;
  7.6851451E-01;  9.9999998E-03;  2.2048864E-01;7073; -2.9161923E-02;  0.0000000E+00; -3.5120738E-03;  9.9759247E+02;  1.3624454E-01; -1.9946090E+03;3;  4.7908034E+00;  0.0000000E+00; -4.6474242E+00;0;  2.3670163E-02;  2.1559092E+04;  0.0000000E+00; -1.1037317E-01;  4.0000000E+04;  0.0000000E+00;  3.9813922E+04;  3.4946136E-02;  0.0000000E+00; -1.1275974E-02;  3.4094163E+03;
  7.6859790E-01;  9.9999998E-03;  2.3054242E-01;7074; -2.8642900E-02;  0.0000000E+00; -3.3328685E-03;  9.9743585E+02;  1.3628069E-01; -2.1243337E+03;3;  4.4881625E+00;  0.0000000E+00; -4.9598632E+00;0;  2.3822825E-02;  2.1535445E+04;  0.0000000E+00; -2.2764798E-01;  4.0000000E+04;  0.0000000E+00;  3.9819871E+04;  3.5989389E-02;  0.0000000E+00; -1.2166562E-02;  4.2055103E+03;
  7.8249514E-01;  9.9999998E-03;  7.0062697E-02;7119; -3.2899175E-02;  0.0000000E+00; -8.2226971E-04;  9.9974249E+02;  1.4106424E-01; -2.1332713E+02;3;  9.6227894E+00;  0.0000000E+00; -1.6141584E+00;0; -1.0920523E-02;  2.0193393E+04;  0.0000000E+00; -1.9111576E-02;  4.0000000E+04;  0.0000000E+00;  3.9761281E+04; -6.5506301E-03;  0.0000000E+00; -4.3698931E-03;  5.1590979E+02;
  7.8247809E-01;  9.9999998E-03;  8.0055401E-02;7120; -3.2773759E-02;  0.0000000E+00; -9.6620043E-04;  9.9968713E+02;  1.4106974E-01; -2.5920236E+02;3;  9.2872286E+00;  0.0000000E+00; -1.8569602E+00;0; -6.8396572E-03;  2.0194289E+04;  0.0000000E+00; -2.1354599E-02;  4.0000000E+04;  0.0000000E+00;  3.9761555E+04; -2.4318153E-03;  0.0000000E+00; -4.4078417E-03;  5.0941803E+02;
  7.8253764E-01;  9.9999998E-03;  9.0055794E-02;7121; -3.2632429E-02;  0.0000000E+00; -1.1200985E-03;  9.9965076E+02;  1.4110643E-01; -2.8932492E+02;3;  9.0148458E+00;  0.0000000E+00; -2.1002429E+00;0; -2.3316462E-03;  2.0187445E+04;  0.0000000E+00; -3.5080228E-02;  4.0000000E+04;  0.0000000E+00;  3.9760594E+04;  2.1644696E-03;  0.0000000E+00; -4.4961157E-03;  5.9395477E+02;
  7.8258860E-01;  9.9999998E-03;  1.0007171E-01;7122; -3.2481812E-02;  0.0000000E+00; -1.2861298E-03;  9.9961017E+02;  1.4114805E-01; -3.2295358E+02;3;  8.6665049E+00;  0.0000000E+00; -2.3346832E+00;0;  2.4950327E-03;  2.0180297E+04;  0.0000000E+00; -6.6006728E-02;  4.0000000E+04;  0.0000000E+00;  3.9758742E+04;  7.1598925E-03;  0.0000000E+00; -4.6648597E-03;  7.8549200E+02;
  7.8258562E-01;  9.9999998E-03;  1.1010561E-01;7123; -3.2321125E-02;  0.0000000E+00; -1.4684749E-03;  9.9955164E+02;  1.4117557E-01; -3.7144601E+02;3;  8.3532286E+00;  0.0000000E+00; -2.5694225E+00;0;  7.5299707E-03;  2.0176525E+04;  0.0000000E+00; -1.1688861E-01;  4.0000000E+04;  0.0000000E+00;  3.9756219E+04;  1.2448174E-02;  0.0000000E+00; -4.9182032E-03;  1.0782435E+03;
  7.8254527E-01;  9.9999998E-03;  1.2015229E-01;7124; -3.2154657E-02;  0.0000000E+00; -1.6648733E-03;  9.9948871E+02;  1.4119343E-01; -4.2359265E+02;3;  8.0126104E+00;  0.0000000E+00; -2.7724898E+00;0;  1.2699019E-02;  2.0175273E+04;  0.0000000E+00; -1.8499006E-01;  4.0000000E+04;  0.0000000E+00;  3.9753773E+04;  1.7928407E-02;  0.0000000E+00; -5.2293874E-03;  1.4255024E+03;
  7.8248984E-01;  9.9999998E-03;  1.3020164E-01;7125; -3.1980362E-02;  0.0000000E+00; -1.8736024E-03;  9.9942969E+02;  1.4120543E-01; -4.7248010E+02;3;  7.7513847E+00;  0.0000000E+00; -2.9649382E+00;0;  1.7926499E-02;  2.0174555E+04;  0.0000000E+00; -2.5928321E-01;  4.0000000E+04;  0.0000000E+00;  3.9751457E+04;  2.3497043E-02;  0.0000000E+00; -5.5705439E-03;  1.7626594E+03;
  7.8243738E-01;  9.9999998E-03;  1.4024998E-01;7126; -3.1802420E-02;  0.0000000E+00; -2.0896059E-03;  9.9937195E+02;  1.4121808E-01; -5.2033057E+02;3;  7.4095273E+00;  0.0000000E+00; -3.1145449E+00;0;  2.3129735E-02;  2.0172703E+04;  0.0000000E+00; -3.2241076E-01;  4.0000000E+04;  0.0000000E+00;  3.9749719E+04;  2.9053248E-02;  0.0000000E+00; -5.9235138E-03;  2.0256129E+03;
  7.8239334E-01;  9.9999998E-03;  1.5029269E-01;7127; -3.1614516E-02;  0.0000000E+00; -2.3065375E-03;  9.9930463E+02;  1.4123148E-01; -5.7608203E+02;3;  7.1188326E+00;  0.0000000E+00; -3.3004899E+00;0;  2.8202895E-02;  2.0168678E+04;  0.0000000E+00; -3.5622653E-01;  4.0000000E+04;  0.0000000E+00;  3.9749406E+04;  3.4488592E-02;  0.0000000E+00; -6.2856977E-03;  2.1585640E+03;
  7.8236383E-01;  9.9999998E-03;  1.6032934E-01;7128; -3.1408619E-02;  0.0000000E+00; -2.5151456E-03;  9.9922516E+02;  1.4124838E-01; -6.4195667E+02;3;  6.8188658E+00;  0.0000000E+00; -3.4857564E+00;0;  3.3038326E-02;  2.0161588E+04;  0.0000000E+00; -3.4877515E-01;  4.0000000E+04;  0.0000000E+00;  3.9750113E+04;  3.9707828E-02;  0.0000000E+00; -6.6695041E-03;  2.1191831E+03;
  7.8236276E-01;  9.9999998E-03;  1.7036860E-01;7129; -3.1177733E-02;  0.0000000E+00; -2.7084441E-03;  9.9913116E+02;  1.4127026E-01; -7.1983093E+02;3;  6.5504928E+00;  0.0000000E+00; -3.6767316E+00;0;  3.7545152E-02;  2.0150064E+04;  0.0000000E+00; -3.0003774E-01;  4.0000000E+04;  0.0000000E+00;  3.9752387E+04;  4.4654846E-02;  0.0000000E+00; -7.1096933E-03;  1.8862346E+03;
  7.8240764E-01;  9.9999998E-03;  1.8041146E-01;7130; -3.0915944E-02;  0.0000000E+00; -2.8819996E-03;  9.9902295E+02;  1.4130592E-01; -8.0945801E+02;3;  6.2529249E+00;  0.0000000E+00; -3.8745313E+00;0;  4.1632056E-02;  2.0132840E+04;  0.0000000E+00; -2.2433941E-01;  4.0000000E+04;  0.0000000E+00;  3.9756184E+04;  4.9302131E-02;  0.0000000E+00; -7.6700728E-03;  1.4881079E+03;
  7.8252113E-01;  9.9999998E-03;  1.9045301E-01;7131; -3.0624470E-02;  0.0000000E+00; -3.0265206E-03;  9.9891669E+02;  1.4135993E-01; -8.9750482E+02;3;  5.9020796E+00;  0.0000000E+00; -4.0400038E+00;0;  4.5212485E-02;  2.0108250E+04;  0.0000000E+00; -1.4794756E-01;  4.0000000E+04;  0.0000000E+00;  3.9761312E+04;  5.3655013E-02;  0.0000000E+00; -8.4425304E-03;  1.0758008E+03;
  7.8269362E-01;  9.9999998E-03;  2.0049357E-01;7132; -3.0295635E-02;  0.0000000E+00; -3.1330909E-03;  9.9881622E+02;  1.4143266E-01; -9.8071228E+02;3;  5.5456271E+00;  0.0000000E+00; -4.2545815E+00;0;  4.8143044E-02;  2.0077416E+04;  0.0000000E+00; -1.0221563E-01;  4.0000000E+04;  0.0000000E+00;  3.9767938E+04;  5.7680376E-02;  0.0000000E+00; -9.5373318E-03;  1.1502169E+03;
  7.8290921E-01;  9.9999998E-03;  2.1055129E-01;7133; -2.9913371E-02;  0.0000000E+00; -3.1735359E-03;  9.9871063E+02;  1.4151636E-01; -1.0682159E+03;3;  5.1418853E+00;  0.0000000E+00; -4.5393600E+00;0;  5.0305959E-02;  2.0042324E+04;  0.0000000E+00; -1.1442424E-01;  4.0000000E+04;  0.0000000E+00;  3.9774469E+04;  6.1339069E-02;  0.0000000E+00; -1.1033109E-02;  1.8082195E+03;
  7.8312480E-01;  9.9999998E-03;  2.2062562E-01;7134; -2.9483246E-02;  0.0000000E+00; -3.1524606E-03;  9.9855981E+02;  1.4160019E-01; -1.1931505E+03;3;  4.7726731E+00;  0.0000000E+00; -4.8245935E+00;0;  5.1585924E-02;  2.0007297E+04;  0.0000000E+00; -1.9743048E-01;  4.0000000E+04;  0.0000000E+00;  3.9778023E+04;  6.4534165E-02;  0.0000000E+00; -1.2948240E-02;  2.3203877E+03;
  7.8327525E-01;  9.9999998E-03;  2.3069042E-01;7135; -2.9057508E-02;  0.0000000E+00; -3.1502312E-03;  9.9834686E+02;  1.4166120E-01; -1.3695898E+03;3;  4.5491629E+00;  0.0000000E+00; -4.9477220E+00;0;  5.1712707E-02;  1.9978219E+04;  0.0000000E+00; -3.3475706E-01;  4.0000000E+04;  0.0000000E+00;  3.9778496E+04;  6.7117333E-02;  0.0000000E+00; -1.5404627E-02;  2.5016084E+03;
  7.9666567E-01;  9.9999998E-03;  7.0157617E-02;7180; -3.3034354E-02;  0.0000000E+00; -5.1825657E-04;  9.9989746E+02;  1.4666586E-01; -8.4935791E+01;3;  1.0134558E+01;  0.0000000E+00; -1.6589732E+00;0; -2.2322778E-03;  1.8696422E+04;  0.0000000E+00; -2.3826414E-01;  4.0000000E+04;  0.0000000E+00;  3.9734852E+04; -3.8581842E-03;  0.0000000E+00;  1.6259064E-03;  6.7886285E+02;
  7.9669589E-01;  9.9999998E-03;  8.0147102E-02;7181; -3.2871574E-02;  0.0000000E+00; -6.1335444E-04;  9.9992456E+02;  1.4669745E-01; -6.2516693E+01;3;  9.7538919E+00;  0.0000000E+00; -1.9705492E+00;0;  3.1860555E-03;  1.8693879E+04;  0.0000000E+00; -2.9281959E-01;  4.0000000E+04;  0.0000000E+00;  3.9735152E+04;  1.5016149E-03;  0.0000000E+00;  1.6844404E-03;  7.3722424E+02;
  7.9672807E-01;  9.9999998E-03;  9.0137534E-02;7182; -3.2682244E-02;  0.0000000E+00; -7.1899721E-04;  9.9994708E+02;  1.4673124E-01; -4.3850571E+01;3;  9.4331970E+00;  0.0000000E+00; -2.2738574E+00;0;  9.1031352E-03;  1.8691107E+04;  0.0000000E+00; -3.4967977E-01;  4.0000000E+04;  0.0000000E+00;  3.9734762E+04;  7.4898540E-03;  0.0000000E+00;  1.6132813E-03;  8.7818085E+02;
  7.9675645E-01;  9.9999998E-03;  1.0014313E-01;7183; -3.2479607E-02;  0.0000000E+00; -8.3502207E-04;  9.9996716E+02;  1.4676543E-01; -2.7209082E+01;3;  8.9720879E+00;  0.0000000E+00; -2.5975232E+00;0;  1.5446283E-02;  1.8688490E+04;  0.0000000E+00; -4.0974873E-01;  4.0000000E+04;  0.0000000E+00;  3.9733293E+04;  1.4050979E-02;  0.0000000E+00;  1.3953040E-03;  1.1153223E+03;
  7.9678476E-01;  9.9999998E-03;  1.1017267E-01;7184; -3.2266174E-02;  0.0000000E+00; -9.6930825E-04;  9.9998517E+02;  1.4680076E-01; -1.2295938E+01;3;  8.5596151E+00;  0.0000000E+00; -2.9096043E+00;0;  2.2142770E-02;  1.8685904E+04;  0.0000000E+00; -4.7257498E-01;  4.0000000E+04;  0.0000000E+00;  3.9730281E+04;  2.1112837E-02;  0.0000000E+00;  1.0299324E-03;  1.4605814E+03;
  7.9679221E-01;  9.9999998E-03;  1.2022474E-01;7185; -3.2055184E-02;  0.0000000E+00; -1.1258699E-03;  1.0000016E+03;  1.4682902E-01;  1.2839131E+00;3;  8.1295614E+00;  0.0000000E+00; -3.1923878E+00;0;  2.9079661E-02;  1.8684941E+04;  0.0000000E+00; -5.3358281E-01;  4.0000000E+04;  0.0000000E+00;  3.9727031E+04;  2.8565159E-02;  0.0000000E+00;  5.1450124E-04;  1.8772493E+03;
  7.9675812E-01;  9.9999998E-03;  1.3028470E-01;7186; -3.1856507E-02;  0.0000000E+00; -1.3041300E-03;  1.0000066E+03;  1.4684072E-01;  5.4319401E+00;3;  7.7078476E+00;  0.0000000E+00; -3.4466043E+00;0;  3.6111142E-02;  1.8686984E+04;  0.0000000E+00; -5.8359993E-01;  4.0000000E+04;  0.0000000E+00;  3.9724012E+04;  3.6259841E-02;  0.0000000E+00; -1.4869837E-04;  2.2830867E+03;
  7.9669565E-01;  9.9999998E-03;  1.4033578E-01;7187; -3.1666178E-02;  0.0000000E+00; -1.5013096E-03;  1.0000071E+03;  1.4684093E-01;  5.8269906E+00;3;  7.3109503E+00;  0.0000000E+00; -3.6645710E+00;0;  4.3108933E-02;  1.8690275E+04;  0.0000000E+00; -6.1072820E-01;  4.0000000E+04;  0.0000000E+00;  3.9721730E+04;  4.4052877E-02;  0.0000000E+00; -9.4394269E-04;  2.5929673E+03;
  7.9663837E-01;  9.9999998E-03;  1.5038668E-01;7188; -3.1480737E-02;  0.0000000E+00; -1.7064448E-03;  9.9999432E+02;  1.4684150E-01; -4.6912212E+00;3;  6.9669099E+00;  0.0000000E+00; -3.8818519E+00;0;  4.9989343E-02;  1.8691326E+04;  0.0000000E+00; -6.0372341E-01;  4.0000000E+04;  0.0000000E+00;  3.9720695E+04;  5.1846687E-02;  0.0000000E+00; -1.8573438E-03;  2.7417676E+03;
  7.9662335E-01;  9.9999998E-03;  1.6044489E-01;7189; -3.1286322E-02;  0.0000000E+00; -1.9038856E-03;  9.9997516E+02;  1.4685549E-01; -2.0591991E+01;3;  6.5904560E+00;  0.0000000E+00; -4.0235066E+00;0;  5.6686871E-02;  1.8686922E+04;  0.0000000E+00; -5.5566937E-01;  4.0000000E+04;  0.0000000E+00;  3.9721008E+04;  5.9574336E-02;  0.0000000E+00; -2.8874641E-03;  2.6817136E+03;
  7.9668343E-01;  9.9999998E-03;  1.7051013E-01;7190; -3.1080853E-02;  0.0000000E+00; -2.0807930E-03;  9.9995306E+02;  1.4689325E-01; -3.8863064E+01;3;  6.2142782E+00;  0.0000000E+00; -4.1932197E+00;0;  6.3138582E-02;  1.8673789E+04;  0.0000000E+00; -4.6891555E-01;  4.0000000E+04;  0.0000000E+00;  3.9722891E+04;  6.7197472E-02;  0.0000000E+00; -4.0588919E-03;  2.4020203E+03;
  7.9683858E-01;  9.9999998E-03;  1.8058074E-01;7191; -3.0848501E-02;  0.0000000E+00; -2.2315022E-03;  9.9991595E+02;  1.4696315E-01; -6.9627594E+01;3;  5.8888063E+00;  0.0000000E+00; -4.3700995E+00;0;  6.9252156E-02;  1.8650584E+04;  0.0000000E+00; -3.5801306E-01;  4.0000000E+04;  0.0000000E+00;  3.9725848E+04;  7.4685641E-02;  0.0000000E+00; -5.4334821E-03;  1.9509562E+03;
  7.9709041E-01;  9.9999998E-03;  1.9065514E-01;7192; -3.0582640E-02;  0.0000000E+00; -2.3471219E-03;  9.9986493E+02;  1.4706431E-01; -1.1189797E+02;3;  5.5658665E+00;  0.0000000E+00; -4.5144396E+00;0;  7.4883647E-02;  1.8617596E+04;  0.0000000E+00; -2.4739330E-01;  4.0000000E+04;  0.0000000E+00;  3.9729383E+04;  8.1991412E-02;  0.0000000E+00; -7.1077636E-03;  1.4477531E+03;
  7.9741430E-01;  9.9999998E-03;  2.0072588E-01;7193; -3.0277925E-02;  0.0000000E+00; -2.4263989E-03;  9.9978442E+02;  1.4718816E-01; -1.7861208E+02;3;  5.2653351E+00;  0.0000000E+00; -4.6470370E+00;0;  7.9822756E-02;  1.8577578E+04;  0.0000000E+00; -1.6508493E-01;  4.0000000E+04;  0.0000000E+00;  3.9732234E+04;  8.9016505E-02;  0.0000000E+00; -9.1937473E-03;  1.0572223E+03;
  7.9777128E-01;  9.9999998E-03;  2.1079953E-01;7194; -2.9950257E-02;  0.0000000E+00; -2.4868033E-03;  9.9965509E+02;  1.4732112E-01; -2.8576944E+02;3;  4.9780126E+00;  0.0000000E+00; -4.7472453E+00;0;  8.3820179E-02;  1.8533996E+04;  0.0000000E+00; -1.3566697E-01;  4.0000000E+04;  0.0000000E+00;  3.9732465E+04;  9.5632225E-02;  0.0000000E+00; -1.1812050E-02;  9.4403302E+02;
  7.9808915E-01;  9.9999998E-03;  2.2085956E-01;7195; -2.9643252E-02;  0.0000000E+00; -2.6005260E-03;  9.9944092E+02;  1.4744078E-01; -4.6319635E+02;3;  4.7319226E+00;  0.0000000E+00; -4.8038177E+00;0;  8.6441986E-02;  1.8493076E+04;  0.0000000E+00; -1.7716514E-01;  4.0000000E+04;  0.0000000E+00;  3.9729457E+04;  1.0161314E-01;  0.0000000E+00; -1.5171158E-02;  1.1465088E+03;
  7.9830950E-01;  9.9999998E-03;  2.3088004E-01;7196; -2.9368542E-02;  0.0000000E+00; -2.7747005E-03;  9.9921515E+02;  1.4752544E-01; -6.5025262E+02;3;  4.5540056E+00;  0.0000000E+00; -4.8300266E+00;0;  8.7232299E-02;  1.8459816E+04;  0.0000000E+00; -2.9058582E-01;  4.0000000E+04;  0.0000000E+00;  3.9728344E+04;  1.0674977E-01;  0.0000000E+00; -1.9517465E-02;  1.2980055E+03;
  8.1093025E-01;  9.9999998E-03;  7.0325539E-02;7241; -3.3056047E-02;  0.0000000E+00; -4.4261164E-05;  9.9938055E+02;  1.5259784E-01; -5.1321948E+02;3;  1.0611841E+01;  0.0000000E+00; -2.1386116E+00;0;  5.4681459E-03;  1.7270832E+04;  0.0000000E+00; -4.1657662E-01;  4.0000000E+04;  0.0000000E+00;  3.9706918E+04; -3.0248913E-03;  0.0000000E+00;  8.4930370E-03;  1.2301567E+03;
  8.1092471E-01;  9.9999998E-03;  8.0317117E-02;7242; -3.2768428E-02;  0.0000000E+00; -1.3826238E-05;  9.9945734E+02;  1.5260272E-01; -4.4956702E+02;3;  1.0186516E+01;  0.0000000E+00; -2.5293858E+00;0;  1.2143743E-02;  1.7274852E+04;  0.0000000E+00; -5.0951743E-01;  4.0000000E+04;  0.0000000E+00;  3.9707809E+04;  3.4428190E-03;  0.0000000E+00;  8.7009240E-03;  1.4256877E+03;
  8.1093454E-01;  9.9999998E-03;  9.0307489E-02;7243; -3.2417301E-02;  0.0000000E+00;  2.4730321E-05;  9.9954065E+02;  1.5261720E-01; -3.8058139E+02;3;  9.9052896E+00;  0.0000000E+00; -2.8545549E+00;0;  1.9443208E-02;  1.7277391E+04;  0.0000000E+00; -5.9592456E-01;  4.0000000E+04;  0.0000000E+00;  3.9708023E+04;  1.0711335E-02;  0.0000000E+00;  8.7318737E-03;  1.6380881E+03;
  8.1096667E-01;  9.9999998E-03;  1.0029291E-01;7244; -3.2024212E-02;  0.0000000E+00;  5.4338769E-05;  9.9962659E+02;  1.5264413E-01; -3.0937363E+02;3;  9.5220003E+00;  0.0000000E+00; -3.0895164E+00;0;  2.7278308E-02;  1.7277641E+04;  0.0000000E+00; -6.7132533E-01;  4.0000000E+04;  0.0000000E+00;  3.9707082E+04;  1.8726146E-02;  0.0000000E+00;  8.5521629E-03;  1.8517249E+03;
  8.1093305E-01;  9.9999998E-03;  1.1029359E-01;7245; -3.1635877E-02;  0.0000000E+00;  4.3081414E-05;  9.9969635E+02;  1.5265442E-01; -2.5154816E+02;3;  9.0885601E+00;  0.0000000E+00; -3.3113430E+00;0;  3.5501346E-02;  1.7281479E+04;  0.0000000E+00; -7.3180574E-01;  4.0000000E+04;  0.0000000E+00;  3.9704961E+04;  2.7409563E-02;  0.0000000E+00;  8.0917822E-03;  2.0773584E+03;
  8.1084859E-01;  9.9999998E-03;  1.2032909E-01;7246; -3.1270228E-02;  0.0000000E+00; -2.0821388E-05;  9.9974988E+02;  1.5264933E-01; -2.0720378E+02;3;  8.7536459E+00;  0.0000000E+00; -3.5176053E+00;0;  4.4023667E-02;  1.7288133E+04;  0.0000000E+00; -7.7273923E-01;  4.0000000E+04;  0.0000000E+00;  3.9701941E+04;  3.6676284E-02;  0.0000000E+00;  7.3473826E-03;  2.3270427E+03;
  8.1076735E-01;  9.9999998E-03;  1.3038620E-01;7247; -3.0940183E-02;  0.0000000E+00; -1.2210092E-04;  9.9980585E+02;  1.5264326E-01; -1.6083478E+02;3;  8.3104191E+00;  0.0000000E+00; -3.6388586E+00;0;  5.2765943E-02;  1.7294488E+04;  0.0000000E+00; -7.8874844E-01;  4.0000000E+04;  0.0000000E+00;  3.9698797E+04;  4.6420489E-02;  0.0000000E+00;  6.3454541E-03;  2.5718325E+03;
  8.1067789E-01;  9.9999998E-03;  1.4045455E-01;7248; -3.0656552E-02;  0.0000000E+00; -2.5902188E-04;  9.9985742E+02;  1.5262903E-01; -1.1811998E+02;3;  7.9005523E+00;  0.0000000E+00; -3.7656009E+00;0;  6.1583325E-02;  1.7301307E+04;  0.0000000E+00; -7.7574086E-01;  4.0000000E+04;  0.0000000E+00;  3.9696273E+04;  5.6504793E-02;  0.0000000E+00;  5.0785313E-03;  2.7464158E+03;
  8.1062794E-01;  9.9999998E-03;  1.5053304E-01;7249; -3.0417757E-02;  0.0000000E+00; -4.1689468E-04;  9.9990552E+02;  1.5262471E-01; -7.8269302E+01;3;  7.4051909E+00;  0.0000000E+00; -3.8996534E+00;0;  7.0402384E-02;  1.7304195E+04;  0.0000000E+00; -7.3171055E-01;  4.0000000E+04;  0.0000000E+00;  3.9695059E+04;  6.6839658E-02;  0.0000000E+00;  3.5627279E-03;  2.7796807E+03;
  8.1068534E-01;  9.9999998E-03;  1.6062145E-01;7250; -3.0218426E-02;  0.0000000E+00; -5.8155967E-04;  9.9995923E+02;  1.5265697E-01; -3.3776783E+01;3;  6.8895245E+00;  0.0000000E+00; -4.0618219E+00;0;  7.9209886E-02;  1.7296898E+04;  0.0000000E+00; -6.5693241E-01;  4.0000000E+04;  0.0000000E+00;  3.9695340E+04;  7.7393167E-02;  0.0000000E+00;  1.8167167E-03;  2.6242883E+03;
  8.1087238E-01;  9.9999998E-03;  1.7071667E-01;7251; -3.0030483E-02;  0.0000000E+00; -7.3878712E-04;  1.0000024E+03;  1.5273334E-01;  1.9752505E+00;3;  6.4525247E+00;  0.0000000E+00; -4.2007375E+00;0;  8.7946124E-02;  1.7277332E+04;  0.0000000E+00; -5.5600262E-01;  4.0000000E+04;  0.0000000E+00;  3.9696805E+04;  8.8122807E-02;  0.0000000E+00; -1.7668237E-04;  2.2892334E+03;
  8.1117356E-01;  9.9999998E-03;  1.8080857E-01;7252; -2.9836936E-02;  0.0000000E+00; -8.7375299E-04;  1.0000209E+03;  1.5284823E-01;  1.7382204E+01;3;  6.0536861E+00;  0.0000000E+00; -4.3139591E+00;0;  9.6459523E-02;  1.7246939E+04;  0.0000000E+00; -4.3894130E-01;  4.0000000E+04;  0.0000000E+00;  3.9698750E+04;  9.8931566E-02;  0.0000000E+00; -2.4720444E-03;  1.8606967E+03;
  8.1154448E-01;  9.9999998E-03;  1.9088960E-01;7253; -2.9622389E-02;  0.0000000E+00; -9.8073296E-04;  9.9999194E+02;  1.5298550E-01; -6.6664705E+00;3;  5.6799145E+00;  0.0000000E+00; -4.3585753E+00;0;  1.0450435E-01;  1.7209588E+04;  0.0000000E+00; -3.1847253E-01;  4.0000000E+04;  0.0000000E+00;  3.9699984E+04;  1.0965469E-01;  0.0000000E+00; -5.1503447E-03;  1.4808308E+03;
  8.1195682E-01;  9.9999998E-03;  2.0094380E-01;7254; -2.9394390E-02;  0.0000000E+00; -1.0641398E-03;  9.9989868E+02;  1.5313484E-01; -8.3948151E+01;3;  5.3583741E+00;  0.0000000E+00; -4.3808126E+00;0;  1.1181935E-01;  1.7167561E+04;  0.0000000E+00; -2.0604129E-01;  4.0000000E+04;  0.0000000E+00;  3.9699938E+04;  1.2011086E-01;  0.0000000E+00; -8.2915137E-03;  1.2575194E+03;
  8.1235701E-01;  9.9999998E-03;  2.1098344E-01;7255; -2.9191846E-02;  0.0000000E+00; -1.1615072E-03;  9.9972864E+02;  1.5327872E-01; -2.2483289E+02;3;  5.0748906E+00;  0.0000000E+00; -4.3822823E+00;0;  1.1807993E-01;  1.7125131E+04;  0.0000000E+00; -1.1133601E-01;  4.0000000E+04;  0.0000000E+00;  3.9697781E+04;  1.3008489E-01;  0.0000000E+00; -1.2004958E-02;  1.3268798E+03;
  8.1270558E-01;  9.9999998E-03;  2.2100651E-01;7256; -2.9063925E-02;  0.0000000E+00; -1.3450737E-03;  9.9948340E+02;  1.5340507E-01; -4.2798740E+02;3;  4.8635263E+00;  0.0000000E+00; -4.3854938E+00;0;  1.2285139E-01;  1.7085543E+04;  0.0000000E+00; -4.1974712E-02;  4.0000000E+04;  0.0000000E+00;  3.9694090E+04;  1.3936335E-01;  0.0000000E+00; -1.6511966E-02;  1.6603707E+03;
  8.1297171E-01;  9.9999998E-03;  2.3100343E-01;7257; -2.8996428E-02;  0.0000000E+00; -1.6269817E-03;  9.9922504E+02;  1.5350166E-01; -6.4205518E+02;3;  4.6427999E+00;  0.0000000E+00; -4.3861327E+00;0;  1.2560837E-01;  1.7051666E+04;  0.0000000E+00; -7.7452167E-04;  4.0000000E+04;  0.0000000E+00;  3.9693051E+04;  1.4775543E-01;  0.0000000E+00; -2.2147056E-02;  1.6727476E+03;
  8.2546371E-01;  9.9999998E-03;  7.0402935E-02;7302; -3.2924213E-02;  0.0000000E+00;  7.5990992E-04;  9.9871228E+02;  1.5876471E-01; -1.0668325E+03;3;  1.1659023E+01;  0.0000000E+00; -1.8906662E+00;0;  1.0497874E-02;  1.5957916E+04;  0.0000000E+00; -5.1160026E-01;  4.0000000E+04;  0.0000000E+00;  3.9679797E+04; -5.2608741E-03;  0.0000000E+00;  1.5758747E-02;  1.5522614E+03;
  8.2554543E-01;  9.9999998E-03;  1.3040277E-01;7308; -2.9008484E-02;  0.0000000E+00;  1.9426375E-03;  9.9925714E+02;  1.5894768E-01; -6.1543854E+02;3;  1.0511144E+01;  0.0000000E+00; -2.6174607E+00;0;  6.5732889E-02;  1.5943084E+04;  0.0000000E+00; -8.7348300E-01;  4.0000000E+04;  0.0000000E+00;  3.9674262E+04;  5.1784527E-02;  0.0000000E+00;  1.3948364E-02;  2.4714983E+03;
  8.2559520E-01;  9.9999998E-03;  1.2034541E-01;7307; -2.9645547E-02;  0.0000000E+00;  1.9039756E-03;  9.9915863E+02;  1.5894744E-01; -6.9706573E+02;3;  1.0944851E+01;  0.0000000E+00; -2.3463199E+00;0;  5.5402257E-02;  1.5939349E+04;  0.0000000E+00; -8.8957173E-01;  4.0000000E+04;  0.0000000E+00;  3.9677160E+04;  4.0194359E-02;  0.0000000E+00;  1.5207900E-02;  2.4767073E+03;
  8.2558674E-01;  9.9999998E-03;  1.4049147E-01;7309; -2.8438903E-02;  0.0000000E+00;  1.9082457E-03;  9.9936346E+02;  1.5897925E-01; -5.2734241E+02;3;  1.0092075E+01;  0.0000000E+00; -2.8078883E+00;0;  7.6347940E-02;  1.5939923E+04;  0.0000000E+00; -8.2995939E-01;  4.0000000E+04;  0.0000000E+00;  3.9671812E+04;  6.4054430E-02;  0.0000000E+00;  1.2293513E-02;  2.4197371E+03;
  8.2561368E-01;  9.9999998E-03;  8.0398560E-02;7303; -3.2399673E-02;  0.0000000E+00;  1.0106617E-03;  9.9880432E+02;  1.5884319E-01; -9.9058795E+02;3;  1.1587345E+01;  0.0000000E+00; -1.8901225E+00;0;  1.8280545E-02;  1.5945367E+04;  0.0000000E+00; -6.3057995E-01;  4.0000000E+04;  0.0000000E+00;  3.9680820E+04;  1.9854307E-03;  0.0000000E+00;  1.6295115E-02;  1.8540052E+03;
  8.2565117E-01;  9.9999998E-03;  1.5059462E-01;7310; -2.7967043E-02;  0.0000000E+00;  1.8241587E-03;  9.9946259E+02;  1.5901192E-01; -4.4522137E+02;3;  9.4998236E+00;  0.0000000E+00; -2.9455059E+00;0;  8.7086074E-02;  1.5934648E+04;  0.0000000E+00; -7.6793009E-01;  4.0000000E+04;  0.0000000E+00;  3.9670680E+04;  7.6898798E-02;  0.0000000E+00;  1.0187279E-02;  2.2847241E+03;
  8.2570690E-01;  9.9999998E-03;  1.6069357E-01;7311; -2.7613696E-02;  0.0000000E+00;  1.7020354E-03;  9.9953375E+02;  1.5903653E-01; -3.8626016E+02;3;  8.8385010E+00;  0.0000000E+00; -3.1016936E+00;0;  9.7806156E-02;  1.5928877E+04;  0.0000000E+00; -6.9496673E-01;  4.0000000E+04;  0.0000000E+00;  3.9671059E+04;  9.0180717E-02;  0.0000000E+00;  7.6254415E-03;  2.0321429E+03;
  8.2572955E-01;  9.9999998E-03;  9.0376616E-02;7304; -3.1780403E-02;  0.0000000E+00;  1.2908004E-03;  9.9889246E+02;  1.5892063E-01; -9.1760242E+02;3;  1.1454560E+01;  0.0000000E+00; -1.9240153E+00;0;  2.6777159E-02;  1.5933720E+04;  0.0000000E+00; -7.3725361E-01;  4.0000000E+04;  0.0000000E+00;  3.9681422E+04;  1.0191924E-02;  0.0000000E+00;  1.6585235E-02;  2.1293804E+03;
  8.2575387E-01;  9.9999998E-03;  1.1032324E-01;7306; -3.0343525E-02;  0.0000000E+00;  1.7808509E-03;  9.9907263E+02;  1.5898912E-01; -7.6832288E+02;3;  1.1305655E+01;  0.0000000E+00; -2.1307673E+00;0;  4.5450851E-02;  1.5927436E+04;  0.0000000E+00; -8.7250835E-01;  4.0000000E+04;  0.0000000E+00;  3.9679395E+04;  2.9343253E-02;  0.0000000E+00;  1.6107598E-02;  2.4394832E+03;
  8.2580292E-01;  9.9999998E-03;  1.7077844E-01;7312; -2.7351372E-02;  0.0000000E+00;  1.5597377E-03;  9.9958673E+02;  1.5906936E-01; -3.4240961E+02;3;  8.1683998E+00;  0.0000000E+00; -3.2225289E+00;0;  1.0844474E-01;  1.5918962E+04;  0.0000000E+00; -6.1474383E-01;  4.0000000E+04;  0.0000000E+00;  3.9672754E+04;  1.0378299E-01;  0.0000000E+00;  4.6617556E-03;  1.6683438E+03;
  8.2584649E-01;  9.9999998E-03;  1.0033667E-01;7305; -3.1073345E-02;  0.0000000E+00;  1.5700745E-03;  9.9898700E+02;  1.5899917E-01; -8.3923438E+02;3;  1.1481688E+01;  0.0000000E+00; -1.9846461E+00;0;  3.5888098E-02;  1.5921729E+04;  0.0000000E+00; -8.2075232E-01;  4.0000000E+04;  0.0000000E+00;  3.9680828E+04;  1.9309100E-02;  0.0000000E+00;  1.6579000E-02;  2.3313523E+03;
  8.2595259E-01;  9.9999998E-03;  1.8085197E-01;7313; -2.7173942E-02;  0.0000000E+00;  1.4088522E-03;  9.9958942E+02;  1.5911798E-01; -3.4013806E+02;3;  7.5694418E+00;  0.0000000E+00; -3.3596103E+00;0;  1.1888877E-01;  1.5903863E+04;  0.0000000E+00; -5.2413684E-01;  4.0000000E+04;  0.0000000E+00;  3.9675016E+04;  1.1756641E-01;  0.0000000E+00;  1.3223623E-03;  1.2399154E+03;
  8.2616717E-01;  9.9999998E-03;  1.9091490E-01;7314; -2.7056092E-02;  0.0000000E+00;  1.2632321E-03;  9.9953864E+02;  1.5918748E-01; -3.8221091E+02;3;  6.9735498E+00;  0.0000000E+00; -3.4428153E+00;0;  1.2898010E-01;  1.5882508E+04;  0.0000000E+00; -4.1343105E-01;  4.0000000E+04;  0.0000000E+00;  3.9676953E+04;  1.3137087E-01;  0.0000000E+00; -2.3907677E-03;  8.0732202E+02;
  8.2645917E-01;  9.9999998E-03;  2.0095059E-01;7315; -2.7001057E-02;  0.0000000E+00;  1.1325997E-03;  9.9942615E+02;  1.5928763E-01; -4.7544269E+02;3;  6.3540397E+00;  0.0000000E+00; -3.5011947E+00;0;  1.3852336E-01;  1.5853556E+04;  0.0000000E+00; -2.7075541E-01;  4.0000000E+04;  0.0000000E+00;  3.9678398E+04;  1.4501253E-01;  0.0000000E+00; -6.4891661E-03;  3.6565527E+02;
  8.2673478E-01;  9.9999998E-03;  2.1097894E-01;7316; -2.7027545E-02;  0.0000000E+00;  9.8448107E-04;  9.9924139E+02;  1.5937988E-01; -6.2847522E+02;3;  5.8408322E+00;  0.0000000E+00; -3.5759137E+00;0;  1.4717808E-01;  1.5824504E+04;  0.0000000E+00; -8.3936937E-02;  4.0000000E+04;  0.0000000E+00;  3.9679504E+04;  1.5820870E-01;  0.0000000E+00; -1.1030607E-02;  3.0411630E+02;
  8.2694399E-01;  9.9999998E-03;  2.2101413E-01;7317; -2.7161058E-02;  0.0000000E+00;  7.5947092E-04;  9.9897534E+02;  1.5944427E-01; -8.4891309E+02;3;  5.4171128E+00;  0.0000000E+00; -3.5841246E+00;0;  1.5454724E-01;  1.5799616E+04;  0.0000000E+00;  1.5102166E-01;  4.0000000E+04;  0.0000000E+00;  3.9678543E+04;  1.7069350E-01;  0.0000000E+00; -1.6146252E-02;  8.7831689E+02;
  8.2700431E-01;  9.9999998E-03;  2.3104493E-01;7318; -2.7501952E-02;  0.0000000E+00;  3.5327810E-04;  9.9863507E+02;  1.5945144E-01; -1.1308307E+03;3;  4.9870300E+00;  0.0000000E+00; -3.6087265E+00;0;  1.5982836E-01;  1.5785541E+04;  0.0000000E+00;  4.2306378E-01;  4.0000000E+04;  0.0000000E+00;  3.9675594E+04;  1.8210010E-01;  0.0000000E+00; -2.2271739E-02;  1.5897271E+03;
  8.4207326E-01;  9.9999998E-03;  7.0432149E-02;7363; -3.2726511E-02;  0.0000000E+00;  1.8725947E-03;  9.9858899E+02;  1.6597660E-01; -1.1690020E+03;3;  1.3243845E+01;  0.0000000E+00; -8.7214851E-01;0;  1.0808075E-02;  1.4627139E+04;  0.0000000E+00; -5.2144569E-01;  4.0000000E+04;  0.0000000E+00;  3.9651914E+04; -1.2469796E-02;  0.0000000E+00;  2.3277871E-02;  1.5533650E+03;
  8.4205765E-01;  9.9999998E-03;  8.0500245E-02;7364; -3.1961039E-02;  0.0000000E+00;  2.2912859E-03;  9.9861328E+02;  1.6598874E-01; -1.1488544E+03;3;  1.3357274E+01;  0.0000000E+00; -6.9178003E-01;0;  1.9308047E-02;  1.4623884E+04;  0.0000000E+00; -6.4598060E-01;  4.0000000E+04;  0.0000000E+00;  3.9652680E+04; -4.7700405E-03;  0.0000000E+00;  2.4078088E-02;  1.9113615E+03;
  8.4207088E-01;  9.9999998E-03;  9.0541840E-02;7365; -3.1066794E-02;  0.0000000E+00;  2.7435962E-03;  9.9865247E+02;  1.6601647E-01; -1.1164109E+03;3;  1.3463690E+01;  0.0000000E+00; -5.7960725E-01;0;  2.8572682E-02;  1.4618189E+04;  0.0000000E+00; -7.5640702E-01;  4.0000000E+04;  0.0000000E+00;  3.9653578E+04;  3.9531970E-03;  0.0000000E+00;  2.4619484E-02;  2.2093491E+03;
  8.4211516E-01;  9.9999998E-03;  1.0056357E-01;7366; -3.0067526E-02;  0.0000000E+00;  3.2168520E-03;  9.9869452E+02;  1.6606075E-01; -1.0815477E+03;3;  1.3511995E+01;  0.0000000E+00; -5.4224443E-01;0;  3.8489942E-02;  1.4609880E+04;  0.0000000E+00; -8.3883536E-01;  4.0000000E+04;  0.0000000E+00;  3.9653508E+04;  1.3683497E-02;  0.0000000E+00;  2.4806445E-02;  2.3843181E+03;
  8.4214598E-01;  9.9999998E-03;  1.1055676E-01;7367; -2.8989566E-02;  0.0000000E+00;  3.6808040E-03;  9.9873889E+02;  1.6610029E-01; -1.0448081E+03;3;  1.3524185E+01;  0.0000000E+00; -5.1869333E-01;0;  4.8946213E-02;  1.4602794E+04;  0.0000000E+00; -8.8288933E-01;  4.0000000E+04;  0.0000000E+00;  3.9652844E+04;  2.4412517E-02;  0.0000000E+00;  2.4533696E-02;  2.3938567E+03;
  8.4209508E-01;  9.9999998E-03;  1.2056594E-01;7368; -2.7866224E-02;  0.0000000E+00;  4.1089691E-03;  9.9878979E+02;  1.6610277E-01; -1.0026366E+03;3;  1.3411748E+01;  0.0000000E+00; -5.5030644E-01;0;  5.9892550E-02;  1.4601921E+04;  0.0000000E+00; -8.8643134E-01;  4.0000000E+04;  0.0000000E+00;  3.9651125E+04;  3.6198176E-02;  0.0000000E+00;  2.3694374E-02;  2.2462607E+03;
  8.4192771E-01;  9.9999998E-03;  1.3058922E-01;7369; -2.6759390E-02;  0.0000000E+00;  4.4510118E-03;  9.9884192E+02;  1.6605966E-01; -9.5942798E+02;3;  1.3229425E+01;  0.0000000E+00; -7.4556881E-01;0;  7.1229309E-02;  1.4609309E+04;  0.0000000E+00; -8.5604042E-01;  4.0000000E+04;  0.0000000E+00;  3.9649145E+04;  4.9016785E-02;  0.0000000E+00;  2.2212524E-02;  1.9965769E+03;
  8.4161574E-01;  9.9999998E-03;  1.4062361E-01;7370; -2.5684346E-02;  0.0000000E+00;  4.6870615E-03;  9.9888831E+02;  1.6595390E-01; -9.2100940E+02;3;  1.2961205E+01;  0.0000000E+00; -9.1459996E-01;0;  8.2862139E-02;  1.4627109E+04;  0.0000000E+00; -8.0586463E-01;  4.0000000E+04;  0.0000000E+00;  3.9648059E+04;  6.2827080E-02;  0.0000000E+00;  2.0035058E-02;  1.7145735E+03;
  8.4132212E-01;  9.9999998E-03;  1.5066600E-01;7371; -2.4695763E-02;  0.0000000E+00;  4.8390473E-03;  9.9894781E+02;  1.6584441E-01; -8.7172693E+02;3;  1.2401039E+01;  0.0000000E+00; -1.1637046E+00;0;  9.4688326E-02;  1.4644827E+04;  0.0000000E+00; -7.5422138E-01;  4.0000000E+04;  0.0000000E+00;  3.9647543E+04;  7.7469200E-02;  0.0000000E+00;  1.7219122E-02;  1.4412209E+03;
  8.4114021E-01;  9.9999998E-03;  1.6069993E-01;7372; -2.3811169E-02;  0.0000000E+00;  4.9236636E-03;  9.9900000E+02;  1.6576853E-01; -8.2846893E+02;3;  1.1705932E+01;  0.0000000E+00; -1.4422967E+00;0;  1.0664864E-01;  1.4655805E+04;  0.0000000E+00; -7.1517336E-01;  4.0000000E+04;  0.0000000E+00;  3.9648258E+04;  9.2805795E-02;  0.0000000E+00;  1.3842847E-02;  1.1766139E+03;
  8.4113175E-01;  9.9999998E-03;  1.7072743E-01;7373; -2.3018189E-02;  0.0000000E+00;  4.9616331E-03;  9.9903912E+02;  1.6575176E-01; -7.9607489E+02;3;  1.1044674E+01;  0.0000000E+00; -1.7440704E+00;0;  1.1874282E-01;  1.4655209E+04;  0.0000000E+00; -6.8901628E-01;  4.0000000E+04;  0.0000000E+00;  3.9649945E+04;  1.0872712E-01;  0.0000000E+00;  1.0015704E-02;  9.0232336E+02;
  8.4230405E-01;  9.9999998E-03;  2.3109168E-01;7379; -2.2416661E-02;  0.0000000E+00;  3.9935540E-03;  9.9811493E+02;  1.6596593E-01; -1.5617310E+03;3;  5.5417876E+00;  0.0000000E+00; -2.7596099E+00;0;  1.8869755E-01;  1.4568174E+04;  0.0000000E+00;  6.3558602E-01;  4.0000000E+04;  0.0000000E+00;  3.9654656E+04;  2.0590931E-01;  0.0000000E+00; -1.7211767E-02;  2.8408311E+03;
  8.4126794E-01;  9.9999998E-03;  1.8075576E-01;7374; -2.2329122E-02;  0.0000000E+00;  4.9762689E-03;  9.9905023E+02;  1.6578287E-01; -7.8684058E+02;3;  1.0178711E+01;  0.0000000E+00; -2.0586762E+00;0;  1.3095081E-01;  1.4644719E+04;  0.0000000E+00; -6.5755934E-01;  4.0000000E+04;  0.0000000E+00;  3.9652574E+04;  1.2511580E-01;  0.0000000E+00;  5.8350167E-03;  6.2915668E+02;
  8.4148532E-01;  9.9999998E-03;  1.9079338E-01;7375; -2.1782292E-02;  0.0000000E+00;  4.9528084E-03;  9.9902356E+02;  1.6583617E-01; -8.0896338E+02;3;  9.3532867E+00;  0.0000000E+00; -2.3077447E+00;0;  1.4319415E-01;  1.4628833E+04;  0.0000000E+00; -5.8700413E-01;  4.0000000E+04;  0.0000000E+00;  3.9656172E+04;  1.4178944E-01;  0.0000000E+00;  1.4047225E-03;  5.8557184E+02;
  8.4214097E-01;  9.9999998E-03;  2.2100298E-01;7378; -2.1371827E-02;  0.0000000E+00;  4.6449979E-03;  9.9855322E+02;  1.6594769E-01; -1.1986307E+03;3;  6.5110245E+00;  0.0000000E+00; -2.7009461E+00;0;  1.7891181E-01;  1.4581812E+04;  0.0000000E+00;  1.8202907E-01;  4.0000000E+04;  0.0000000E+00;  3.9663770E+04;  1.9091870E-01;  0.0000000E+00; -1.2006891E-02;  2.2830510E+03;
  8.4172308E-01;  9.9999998E-03;  2.0083302E-01;7376; -2.1394623E-02;  0.0000000E+00;  4.9074031E-03;  9.9895709E+02;  1.6588798E-01; -8.6402344E+02;3;  8.4692316E+00;  0.0000000E+00; -2.5171354E+00;0;  1.5534723E-01;  1.4611893E+04;  0.0000000E+00; -4.3910357E-01;  4.0000000E+04;  0.0000000E+00;  3.9661531E+04;  1.5848646E-01;  0.0000000E+00; -3.1392223E-03;  1.1289222E+03;
  8.4193897E-01;  9.9999998E-03;  2.1089838E-01;7377; -2.1167444E-02;  0.0000000E+00;  4.8480853E-03;  9.9882855E+02;  1.6592273E-01; -9.7053876E+02;3;  7.5032148E+00;  0.0000000E+00; -2.5991249E+00;0;  1.6734293E-01;  1.4596579E+04;  0.0000000E+00; -1.8429303E-01;  4.0000000E+04;  0.0000000E+00;  3.9666129E+04;  1.7496547E-01;  0.0000000E+00; -7.6225414E-03;  1.9056982E+03;
  8.5997999E-01;  9.9999998E-03;  7.0431314E-02;7424; -3.2775719E-02;  0.0000000E+00;  2.8270422E-03;  9.9932050E+02;  1.7421354E-01; -5.6294574E+02;3;  1.4702818E+01;  0.0000000E+00;  3.4180665E-01;0;  2.9513109E-03;  1.3324561E+04;  0.0000000E+00; -4.5106795E-01;  4.0000000E+04;  0.0000000E+00;  3.9623559E+04; -2.5829140E-02;  0.0000000E+00;  2.8780451E-02;  1.3672480E+03;
  8.6005527E-01;  9.9999998E-03;  8.0543220E-02;7425; -3.1821799E-02;  0.0000000E+00;  3.3834288E-03;  9.9924792E+02;  1.7423300E-01; -6.2309204E+02;3;  1.4912454E+01;  0.0000000E+00;  5.2568096E-01;0;  1.1483638E-02;  1.3315687E+04;  0.0000000E+00; -5.6501156E-01;  4.0000000E+04;  0.0000000E+00;  3.9624227E+04; -1.8507151E-02;  0.0000000E+00;  2.9990789E-02;  1.6999106E+03;
  8.6015451E-01;  9.9999998E-03;  9.0627290E-02;7426; -3.0718317E-02;  0.0000000E+00;  3.9661559E-03;  9.9920319E+02;  1.7426743E-01; -6.6012793E+02;3;  1.5118284E+01;  0.0000000E+00;  7.1108299E-01;0;  2.0746186E-02;  1.3305169E+04;  0.0000000E+00; -6.6827446E-01;  4.0000000E+04;  0.0000000E+00;  3.9625094E+04; -1.0188347E-02;  0.0000000E+00;  3.0934533E-02;  1.9809927E+03;
  8.6026770E-01;  9.9999998E-03;  1.0069830E-01;7427; -2.9479686E-02;  0.0000000E+00;  4.5890589E-03;  9.9917969E+02;  1.7430921E-01; -6.7963348E+02;3;  1.5175485E+01;  0.0000000E+00;  8.4166354E-01;0;  3.0636515E-02;  1.3293779E+04;  0.0000000E+00; -7.4676555E-01;  4.0000000E+04;  0.0000000E+00;  3.9625398E+04; -8.4835745E-04;  0.0000000E+00;  3.1484872E-02;  2.1230979E+03;
  8.6033875E-01;  9.9999998E-03;  1.1074378E-01;7428; -2.8126106E-02;  0.0000000E+00;  5.2282512E-03;  9.9917780E+02;  1.7433612E-01; -6.8116431E+02;3;  1.5241907E+01;  0.0000000E+00;  8.3088112E-01;0;  4.1072685E-02;  1.3285639E+04;  0.0000000E+00; -7.9058397E-01;  4.0000000E+04;  0.0000000E+00;  3.9624988E+04;  9.5661134E-03;  0.0000000E+00;  3.1506572E-02;  2.0664316E+03;
  8.6030799E-01;  9.9999998E-03;  1.2078922E-01;7429; -2.6677042E-02;  0.0000000E+00;  5.8812592E-03;  9.9919116E+02;  1.7432062E-01; -6.7010297E+02;3;  1.5122427E+01;  0.0000000E+00;  8.5478824E-01;0;  5.2043539E-02;  1.3284627E+04;  0.0000000E+00; -7.9880631E-01;  4.0000000E+04;  0.0000000E+00;  3.9623754E+04;  2.1172719E-02;  0.0000000E+00;  3.0870819E-02;  1.8091378E+03;
  8.6011761E-01;  9.9999998E-03;  1.3083063E-01;7430; -2.5160102E-02;  0.0000000E+00;  6.5334644E-03;  9.9921680E+02;  1.7424043E-01; -6.4886902E+02;3;  1.4898455E+01;  0.0000000E+00;  7.6302075E-01;0;  6.3530885E-02;  1.3293987E+04;  0.0000000E+00; -7.8167933E-01;  4.0000000E+04;  0.0000000E+00;  3.9622273E+04;  3.4070272E-02;  0.0000000E+00;  2.9460611E-02;  1.4176288E+03;
  8.5993791E-01;  9.9999998E-03;  1.4088543E-01;7431; -2.3571976E-02;  0.0000000E+00;  7.1810628E-03;  9.9925439E+02;  1.7416249E-01; -6.1770947E+02;3;  1.4599933E+01;  0.0000000E+00;  6.3283819E-01;0;  7.5369418E-02;  1.3303519E+04;  0.0000000E+00; -7.6040167E-01;  4.0000000E+04;  0.0000000E+00;  3.9621387E+04;  4.8123792E-02;  0.0000000E+00;  2.7245630E-02;  1.0074084E+03;
  8.5980856E-01;  9.9999998E-03;  1.5093128E-01;7432; -2.1930031E-02;  0.0000000E+00;  7.8292228E-03;  9.9930060E+02;  1.7409915E-01; -5.7943903E+02;3;  1.4165380E+01;  0.0000000E+00;  4.4074342E-01;0;  8.7461933E-02;  1.3310833E+04;  0.0000000E+00; -7.5985813E-01;  4.0000000E+04;  0.0000000E+00;  3.9620949E+04;  6.3267902E-02;  0.0000000E+00;  2.4194034E-02;  6.9480292E+02;
  8.5974348E-01;  9.9999998E-03;  1.6096306E-01;7433; -2.0256510E-02;  0.0000000E+00;  8.4551759E-03;  9.9934229E+02;  1.7405540E-01; -5.4492157E+02;3;  1.3653617E+01;  0.0000000E+00;  2.0114720E-01;0;  9.9808164E-02;  1.3314808E+04;  0.0000000E+00; -7.9750770E-01;  4.0000000E+04;  0.0000000E+00;  3.9621426E+04;  7.9451740E-02;  0.0000000E+00;  2.0356424E-02;  5.6714905E+02;
  8.5973448E-01;  9.9999998E-03;  1.7098054E-01;7434; -1.8482042E-02;  0.0000000E+00;  9.1050016E-03;  9.9936072E+02;  1.7402758E-01; -5.2961340E+02;3;  1.3028515E+01;  0.0000000E+00; -3.4082741E-02;0;  1.1252499E-01;  1.3315756E+04;  0.0000000E+00; -8.7120831E-01;  4.0000000E+04;  0.0000000E+00;  3.9622277E+04;  9.6619874E-02;  0.0000000E+00;  1.5905114E-02;  6.3963837E+02;
  8.5973281E-01;  9.9999998E-03;  1.8099183E-01;7435; -1.6664317E-02;  0.0000000E+00;  9.7421184E-03;  9.9934009E+02;  1.7399618E-01; -5.4669928E+02;3;  1.2288681E+01;  0.0000000E+00; -3.0019772E-01;0;  1.2581629E-01;  1.3316624E+04;  0.0000000E+00; -9.5346612E-01;  4.0000000E+04;  0.0000000E+00;  3.9623648E+04;  1.1468267E-01;  0.0000000E+00;  1.1133621E-02;  8.2789600E+02;
  8.5969341E-01;  9.9999998E-03;  1.9100837E-01;7436; -1.4769514E-02;  0.0000000E+00;  1.0332476E-02;  9.9926367E+02;  1.7393924E-01; -6.1005542E+02;3;  1.1451361E+01;  0.0000000E+00; -7.4217218E-01;0;  1.3997169E-01;  1.3320030E+04;  0.0000000E+00; -9.9661529E-01;  4.0000000E+04;  0.0000000E+00;  3.9625148E+04;  1.3350965E-01;  0.0000000E+00;  6.4620394E-03;  1.0034963E+03;
  8.5954511E-01;  9.9999998E-03;  2.0102404E-01;7437; -1.2925208E-02;  0.0000000E+00;  1.0760169E-02;  9.9913318E+02;  1.7383799E-01; -7.1815088E+02;3;  1.0515908E+01;  0.0000000E+00; -1.1781192E+00;0;  1.5525909E-01;  1.3329201E+04;  0.0000000E+00; -9.3743813E-01;  4.0000000E+04;  0.0000000E+00;  3.9627504E+04;  1.5286264E-01;  0.0000000E+00;  2.3964467E-03;  1.0940425E+03;
  8.5934794E-01;  9.9999998E-03;  2.1105008E-01;7438; -1.1217589E-02;  0.0000000E+00;  1.1009739E-02;  9.9895233E+02;  1.7371903E-01; -8.6797351E+02;3;  9.4842482E+00;  0.0000000E+00; -1.5529770E+00;0;  1.7186099E-01;  1.3340212E+04;  0.0000000E+00; -7.2931570E-01;  4.0000000E+04;  0.0000000E+00;  3.9630262E+04;  1.7233793E-01;  0.0000000E+00; -4.7694283E-04;  1.2380995E+03;
  8.5914928E-01;  9.9999998E-03;  2.2110850E-01;7439; -9.7239185E-03;  0.0000000E+00;  1.0990529E-02;  9.9866150E+02;  1.7360125E-01; -1.1089044E+03;3;  8.4957752E+00;  0.0000000E+00; -1.8564879E+00;0;  1.8986998E-01;  1.3350046E+04;  0.0000000E+00; -3.5881269E-01;  4.0000000E+04;  0.0000000E+00;  3.9629668E+04;  1.9156615E-01;  0.0000000E+00; -1.6961731E-03;  1.4434474E+03;
  8.5897261E-01;  9.9999998E-03;  2.3115805E-01;7440; -8.6886687E-03;  0.0000000E+00;  1.0579456E-02;  9.9829468E+02;  1.7350245E-01; -1.4128457E+03;3;  7.6509309E+00;  0.0000000E+00; -2.0290465E+00;0;  2.0872687E-01;  1.3356824E+04;  0.0000000E+00;  1.3708846E-01;  4.0000000E+04;  0.0000000E+00;  3.9627391E+04;  2.1004729E-01;  0.0000000E+00; -1.3204203E-03;  2.2088677E+03;
  8.7733412E-01;  9.9999998E-03;  7.0408061E-02;7485; -3.3316672E-02;  0.0000000E+00;  3.0425380E-03;  9.9966882E+02;  1.8259396E-01; -2.7436179E+02;3;  1.5687871E+01;  0.0000000E+00;  9.8966819E-01;0; -1.3227308E-02;  1.2154924E+04;  0.0000000E+00; -3.2426724E-01;  4.0000000E+04;  0.0000000E+00;  3.9597688E+04; -4.3134931E-02;  0.0000000E+00;  2.9907623E-02;  1.5228594E+03;
  8.7738019E-01;  9.9999998E-03;  8.0522254E-02;7486; -3.2275479E-02;  0.0000000E+00;  3.6332463E-03;  9.9954565E+02;  1.8260166E-01; -3.7643265E+02;3;  1.5830889E+01;  0.0000000E+00;  1.2679358E+00;0; -5.1673427E-03;  1.2146342E+04;  0.0000000E+00; -4.1952711E-01;  4.0000000E+04;  0.0000000E+00;  3.9598398E+04; -3.6603425E-02;  0.0000000E+00;  3.1436082E-02;  1.7247766E+03;
  8.7749231E-01;  9.9999998E-03;  9.0614088E-02;7487; -3.1076586E-02;  0.0000000E+00;  4.2793648E-03;  9.9945758E+02;  1.8264195E-01; -4.4936865E+02;3;  1.5966264E+01;  0.0000000E+00;  1.4740341E+00;0;  3.4677368E-03;  1.2134063E+04;  0.0000000E+00; -5.1085281E-01;  4.0000000E+04;  0.0000000E+00;  3.9599289E+04; -2.9248381E-02;  0.0000000E+00;  3.2716118E-02;  1.9336307E+03;
  8.7764287E-01;  9.9999998E-03;  1.0068125E-01;7488; -2.9727010E-02;  0.0000000E+00;  4.9903491E-03;  9.9940759E+02;  1.8270063E-01; -4.9079944E+02;3;  1.6036562E+01;  0.0000000E+00;  1.6491338E+00;0;  1.2574755E-02;  1.2120120E+04;  0.0000000E+00; -5.8588058E-01;  4.0000000E+04;  0.0000000E+00;  3.9599551E+04; -2.1035943E-02;  0.0000000E+00;  3.3610698E-02;  2.0424220E+03;
  8.7778664E-01;  9.9999998E-03;  1.1073853E-01;7489; -2.8231179E-02;  0.0000000E+00;  5.7622101E-03;  9.9939062E+02;  1.8275696E-01; -5.0487308E+02;3;  1.6025904E+01;  0.0000000E+00;  1.7134943E+00;0;  2.2107087E-02;  1.2107521E+04;  0.0000000E+00; -6.3569844E-01;  4.0000000E+04;  0.0000000E+00;  3.9599246E+04; -1.1878032E-02;  0.0000000E+00;  3.3985119E-02;  1.9848856E+03;
  8.7788022E-01;  9.9999998E-03;  1.2079155E-01;7490; -2.6626740E-02;  0.0000000E+00;  6.5681660E-03;  9.9940625E+02;  1.8278848E-01; -4.9188583E+02;3;  1.5829220E+01;  0.0000000E+00;  1.6877499E+00;0;  3.2035209E-02;  1.2099305E+04;  0.0000000E+00; -6.5973341E-01;  4.0000000E+04;  0.0000000E+00;  3.9597926E+04; -1.6732112E-03;  0.0000000E+00;  3.3708420E-02;  1.7516616E+03;
  8.7788957E-01;  9.9999998E-03;  1.3084771E-01;7491; -2.4904452E-02;  0.0000000E+00;  7.4094054E-03;  9.9944794E+02;  1.8277882E-01; -4.5736841E+02;3;  1.5522807E+01;  0.0000000E+00;  1.5737832E+00;0;  4.2361729E-02;  1.2097729E+04;  0.0000000E+00; -6.6881299E-01;  4.0000000E+04;  0.0000000E+00;  3.9596078E+04;  9.7038960E-03;  0.0000000E+00;  3.2657832E-02;  1.4249885E+03;
  8.7782711E-01;  9.9999998E-03;  1.4090410E-01;7492; -2.3067601E-02;  0.0000000E+00;  8.2493387E-03;  9.9951971E+02;  1.8273431E-01; -3.9791348E+02;3;  1.5073501E+01;  0.0000000E+00;  1.2627884E+00;0;  5.3043388E-02;  1.2101950E+04;  0.0000000E+00; -6.8328041E-01;  4.0000000E+04;  0.0000000E+00;  3.9594465E+04;  2.2311151E-02;  0.0000000E+00;  3.0732235E-02;  1.1345848E+03;
  8.7772340E-01;  9.9999998E-03;  1.5095437E-01;7493; -2.1141695E-02;  0.0000000E+00;  9.0624001E-03;  9.9960785E+02;  1.8266609E-01; -3.2487872E+02;3;  1.4383959E+01;  0.0000000E+00;  9.4273645E-01;0;  6.4029172E-02;  1.2109973E+04;  0.0000000E+00; -7.2577810E-01;  4.0000000E+04;  0.0000000E+00;  3.9593512E+04;  3.6161356E-02;  0.0000000E+00;  2.7867813E-02;  9.6886700E+02;
  8.7762076E-01;  9.9999998E-03;  1.6099177E-01;7494; -1.9114003E-02;  0.0000000E+00;  9.8625515E-03;  9.9969464E+02;  1.8259513E-01; -2.5297974E+02;3;  1.3645812E+01;  0.0000000E+00;  5.6894755E-01;0;  7.5322643E-02;  1.2118642E+04;  0.0000000E+00; -8.1136572E-01;  4.0000000E+04;  0.0000000E+00;  3.9593461E+04;  5.1212285E-02;  0.0000000E+00;  2.4110360E-02;  9.0960437E+02;
  8.7757951E-01;  9.9999998E-03;  1.7101613E-01;7495; -1.6966265E-02;  0.0000000E+00;  1.0663272E-02;  9.9975873E+02;  1.8255076E-01; -1.9989497E+02;3;  1.2712319E+01;  0.0000000E+00;  1.3968818E-01;0;  8.6995468E-02;  1.2123973E+04;  0.0000000E+00; -9.3781084E-01;  4.0000000E+04;  0.0000000E+00;  3.9593719E+04;  6.7321733E-02;  0.0000000E+00;  1.9673731E-02;  9.4696637E+02;
  8.7759000E-01;  9.9999998E-03;  1.8103218E-01;7496; -1.4689638E-02;  0.0000000E+00;  1.1438295E-02;  9.9978766E+02;  1.8252668E-01; -1.7589572E+02;3;  1.1656343E+01;  0.0000000E+00; -3.6252338E-01;0;  9.9325612E-02;  1.2126171E+04;  0.0000000E+00; -1.0790492E+00;  4.0000000E+04;  0.0000000E+00;  3.9594148E+04;  8.4397458E-02;  0.0000000E+00;  1.4928151E-02;  1.1317128E+03;
  8.7760776E-01;  9.9999998E-03;  1.9104934E-01;7497; -1.2286351E-02;  0.0000000E+00;  1.2169980E-02;  9.9975757E+02;  1.8250164E-01; -2.0083322E+02;3;  1.0474397E+01;  0.0000000E+00; -9.5443189E-01;0;  1.1274977E-01;  1.2127868E+04;  0.0000000E+00; -1.1902993E+00;  4.0000000E+04;  0.0000000E+00;  3.9595211E+04;  1.0236368E-01;  0.0000000E+00;  1.0386087E-02;  1.4089747E+03;
  8.7761068E-01;  9.9999998E-03;  2.0107479E-01;7498; -9.7684413E-03;  0.0000000E+00;  1.2764033E-02;  9.9967047E+02;  1.8246736E-01; -2.7302850E+02;3;  9.1829376E+00;  0.0000000E+00; -1.5470277E+00;0;  1.2772137E-01;  1.2130083E+04;  0.0000000E+00; -1.2214295E+00;  4.0000000E+04;  0.0000000E+00;  3.9596613E+04;  1.2104886E-01;  0.0000000E+00;  6.6725048E-03;  1.6322804E+03;
  8.7758601E-01;  9.9999998E-03;  2.1110754E-01;7499; -7.2004152E-03;  0.0000000E+00;  1.3173864E-02;  9.9951819E+02;  1.8241569E-01; -3.9914801E+02;3;  7.7780771E+00;  0.0000000E+00; -2.1248248E+00;0;  1.4469370E-01;  1.2133102E+04;  0.0000000E+00; -1.1340905E+00;  4.0000000E+04;  0.0000000E+00;  3.9598852E+04;  1.4019024E-01;  0.0000000E+00;  4.5034532E-03;  1.7589376E+03;
  8.7753612E-01;  9.9999998E-03;  2.2117081E-01;7500; -4.6375915E-03;  0.0000000E+00;  1.3342124E-02;  9.9926099E+02;  1.8235412E-01; -6.1227716E+02;3;  6.2505045E+00;  0.0000000E+00; -2.5756159E+00;0;  1.6409715E-01;  1.2136444E+04;  0.0000000E+00; -9.1591245E-01;  4.0000000E+04;  0.0000000E+00;  3.9598230E+04;  1.5951310E-01;  0.0000000E+00;  4.5840419E-03;  1.4921364E+03;
  8.7741792E-01;  9.9999998E-03;  2.3124239E-01;7501; -2.1275426E-03;  0.0000000E+00;  1.3154367E-02;  9.9887445E+02;  1.8226729E-01; -9.3251404E+02;3;  4.9330297E+00;  0.0000000E+00; -2.7023611E+00;0;  1.8599533E-01;  1.2142573E+04;  0.0000000E+00; -5.8627456E-01;  4.0000000E+04;  0.0000000E+00;  3.9592738E+04;  1.7877547E-01;  0.0000000E+00;  7.2198575E-03;  7.5980701E+02;
  8.9624476E-01;  9.9999998E-03;  7.0363663E-02;7546; -3.4463570E-02;  0.0000000E+00;  2.5410531E-03;  9.9909479E+02;  1.9195908E-01; -7.4995117E+02;3;  1.6332266E+01;  0.0000000E+00;  1.0702426E+00;0; -3.8852341E-02;  1.0992575E+04;  0.0000000E+00; -1.8769835E-01;  4.0000000E+04;  0.0000000E+00;  3.9571199E+04; -6.4052649E-02;  0.0000000E+00;  2.5200307E-02;  2.5223413E+03;
  8.9639330E-01;  9.9999998E-03;  8.0469728E-02;7547; -3.3410449E-02;  0.0000000E+00;  3.0131112E-03;  9.9896027E+02;  1.9201156E-01; -8.6140436E+02;3;  1.6460613E+01;  0.0000000E+00;  1.3837721E+00;0; -3.1700738E-02;  1.0979385E+04;  0.0000000E+00; -2.5896958E-01;  4.0000000E+04;  0.0000000E+00;  3.9571957E+04; -5.8688056E-02;  0.0000000E+00;  2.6987316E-02;  2.6692568E+03;
  8.9653224E-01;  9.9999998E-03;  9.0546027E-02;7548; -3.2185409E-02;  0.0000000E+00;  3.5639028E-03;  9.9887201E+02;  1.9205809E-01; -9.3453778E+02;3;  1.6534704E+01;  0.0000000E+00;  1.6497698E+00;0; -2.4030967E-02;  1.0967274E+04;  0.0000000E+00; -3.3512169E-01;  4.0000000E+04;  0.0000000E+00;  3.9572953E+04; -5.2613799E-02;  0.0000000E+00;  2.8582832E-02;  2.8303435E+03;
  8.9664143E-01;  9.9999998E-03;  1.0059591E-01;7549; -3.0798355E-02;  0.0000000E+00;  4.1905856E-03;  9.9882330E+02;  1.9208942E-01; -9.7488220E+02;3;  1.6547337E+01;  0.0000000E+00;  1.8361579E+00;0; -1.5947534E-02;  1.0957638E+04;  0.0000000E+00; -4.0925905E-01;  4.0000000E+04;  0.0000000E+00;  3.9573320E+04; -4.5797855E-02;  0.0000000E+00;  2.9850321E-02;  2.9296296E+03;
  8.9669490E-01;  9.9999998E-03;  1.1062841E-01;7550; -2.9262297E-02;  0.0000000E+00;  4.8788041E-03;  9.9882031E+02;  1.9209594E-01; -9.7735120E+02;3;  1.6433615E+01;  0.0000000E+00;  1.9261266E+00;0; -7.5180307E-03;  1.0952042E+04;  0.0000000E+00; -4.7648665E-01;  4.0000000E+04;  0.0000000E+00;  3.9573105E+04; -3.8176402E-02;  0.0000000E+00;  3.0658372E-02;  2.9043315E+03;
  8.9665771E-01;  9.9999998E-03;  1.2067287E-01;7551; -2.7588263E-02;  0.0000000E+00;  5.6216526E-03;  9.9885236E+02;  1.9205984E-01; -9.5078412E+02;3;  1.6167089E+01;  0.0000000E+00;  1.9163992E+00;0;  1.2524780E-03;  1.0952785E+04;  0.0000000E+00; -5.3662550E-01;  4.0000000E+04;  0.0000000E+00;  3.9571684E+04; -2.9629920E-02;  0.0000000E+00;  3.0882398E-02;  2.7421152E+03;
  8.9653492E-01;  9.9999998E-03;  1.3073821E-01;7552; -2.5783841E-02;  0.0000000E+00;  6.4031519E-03;  9.9892969E+02;  1.9198360E-01; -8.8673688E+02;3;  1.5720469E+01;  0.0000000E+00;  1.7771379E+00;0;  1.0308933E-02;  1.0959677E+04;  0.0000000E+00; -5.9538394E-01;  4.0000000E+04;  0.0000000E+00;  3.9569727E+04; -2.0081248E-02;  0.0000000E+00;  3.0390181E-02;  2.4862932E+03;
  8.9637244E-01;  9.9999998E-03;  1.4081469E-01;7553; -2.3865759E-02;  0.0000000E+00;  7.1954406E-03;  9.9904517E+02;  1.9188797E-01; -7.9103625E+02;3;  1.5105584E+01;  0.0000000E+00;  1.4873530E+00;0;  1.9530747E-02;  1.0970462E+04;  0.0000000E+00; -6.6318637E-01;  4.0000000E+04;  0.0000000E+00;  3.9567676E+04; -9.5299734E-03;  0.0000000E+00;  2.9060720E-02;  2.1977131E+03;
  8.9621717E-01;  9.9999998E-03;  1.5088756E-01;7554; -2.1838965E-02;  0.0000000E+00;  7.9600113E-03;  9.9919641E+02;  1.9179316E-01; -6.6575635E+02;3;  1.4313515E+01;  0.0000000E+00;  1.0602195E+00;0;  2.8813422E-02;  1.0982399E+04;  0.0000000E+00; -7.5097710E-01;  4.0000000E+04;  0.0000000E+00;  3.9565848E+04;  1.9958327E-03;  0.0000000E+00;  2.6817588E-02;  1.9235780E+03;
  8.9612216E-01;  9.9999998E-03;  1.6094901E-01;7555; -1.9695109E-02;  0.0000000E+00;  8.6513702E-03;  9.9936914E+02;  1.9172631E-01; -5.2264984E+02;3;  1.3381451E+01;  0.0000000E+00;  5.3085995E-01;0;  3.8112246E-02;  1.0992276E+04;  0.0000000E+00; -8.6465424E-01;  4.0000000E+04;  0.0000000E+00;  3.9564777E+04;  1.4422815E-02;  0.0000000E+00;  2.3689428E-02;  1.6990167E+03;
  8.9610434E-01;  9.9999998E-03;  1.7099775E-01;7556; -1.7442733E-02;  0.0000000E+00;  9.1955168E-03;  9.9954211E+02;  1.9169809E-01; -3.7934579E+02;3;  1.2335844E+01;  0.0000000E+00;  1.7671810E-02;0;  4.7538001E-02;  1.0998397E+04;  0.0000000E+00; -9.9853522E-01;  4.0000000E+04;  0.0000000E+00;  3.9563957E+04;  2.7678674E-02;  0.0000000E+00;  1.9859327E-02;  1.5825726E+03;
  8.9606410E-01;  9.9999998E-03;  1.8101530E-01;7557; -1.5062791E-02;  0.0000000E+00;  9.6390266E-03;  9.9968268E+02;  1.9166493E-01; -2.6290512E+02;3;  1.1170090E+01;  0.0000000E+00; -5.1002145E-01;0;  5.7527728E-02;  1.1005247E+04;  0.0000000E+00; -1.1291496E+00;  4.0000000E+04;  0.0000000E+00;  3.9564277E+04;  4.1870683E-02;  0.0000000E+00;  1.5657045E-02;  1.6756365E+03;
  8.9604515E-01;  9.9999998E-03;  1.9102757E-01;7558; -1.2548034E-02;  0.0000000E+00;  1.0003245E-02;  9.9978735E+02;  1.9164462E-01; -1.7619186E+02;3;  9.8281622E+00;  0.0000000E+00; -9.5188862E-01;0;  6.8270691E-02;  1.1010493E+04;  0.0000000E+00; -1.2195816E+00;  4.0000000E+04;  0.0000000E+00;  3.9565605E+04;  5.6803890E-02;  0.0000000E+00;  1.1466798E-02;  1.9667621E+03;
  8.9603579E-01;  9.9999998E-03;  2.0105581E-01;7559; -9.9156899E-03;  0.0000000E+00;  1.0332995E-02;  9.9984454E+02;  1.9162877E-01; -1.2878598E+02;3;  8.3280268E+00;  0.0000000E+00; -1.4537996E+00;0;  8.0117613E-02;  1.1014425E+04;  0.0000000E+00; -1.2302628E+00;  4.0000000E+04;  0.0000000E+00;  3.9568504E+04;  7.2336286E-02;  0.0000000E+00;  7.7813282E-03;  2.3194172E+03;
  8.9601594E-01;  9.9999998E-03;  2.1110246E-01;7560; -7.1649700E-03;  0.0000000E+00;  1.0621043E-02;  9.9984717E+02;  1.9160786E-01; -1.2661320E+02;3;  6.7111464E+00;  0.0000000E+00; -1.9260787E+00;0;  9.3499802E-02;  1.1017955E+04;  0.0000000E+00; -1.1345788E+00;  4.0000000E+04;  0.0000000E+00;  3.9572250E+04;  8.8296980E-02;  0.0000000E+00;  5.2028210E-03;  2.6631855E+03;
  8.9597362E-01;  9.9999998E-03;  2.2118813E-01;7561; -4.3183956E-03;  0.0000000E+00;  1.0784402E-02;  9.9974304E+02;  1.9157653E-01; -2.1288203E+02;3;  5.0814228E+00;  0.0000000E+00; -2.2825782E+00;0;  1.0882832E-01;  1.1021694E+04;  0.0000000E+00; -9.3288106E-01;  4.0000000E+04;  0.0000000E+00;  3.9572383E+04;  1.0450042E-01;  0.0000000E+00;  4.3279002E-03;  2.5579912E+03;
  8.9583498E-01;  9.9999998E-03;  2.3129041E-01;7562; -1.4469035E-03;  0.0000000E+00;  1.0706779E-02;  9.9947931E+02;  1.9150488E-01; -4.3139352E+02;3;  3.4297497E+00;  0.0000000E+00; -2.5204852E+00;0;  1.2636046E-01;  1.1029719E+04;  0.0000000E+00; -6.6163075E-01;  4.0000000E+04;  0.0000000E+00;  3.9565016E+04;  1.2089364E-01;  0.0000000E+00;  5.4668202E-03;  1.5939615E+03;
  9.1605932E-01;  9.9999998E-03;  7.0287056E-02;7607; -3.6219485E-02;  0.0000000E+00;  1.4823318E-03;  9.9739221E+02;  2.0213084E-01; -2.1604705E+03;3;  1.7186041E+01;  0.0000000E+00;  1.2079662E+00;0; -7.0966199E-02;  9.8823096E+03;  0.0000000E+00; -9.0967670E-02;  4.0000000E+04;  0.0000000E+00;  3.9542836E+04; -8.4199876E-02;  0.0000000E+00;  1.3233677E-02;  3.8530386E+03;
  9.1610432E-01;  9.9999998E-03;  8.0373593E-02;7608; -3.5139814E-02;  0.0000000E+00;  1.7584309E-03;  9.9729016E+02;  2.0213948E-01; -2.2450603E+03;3;  1.7095760E+01;  0.0000000E+00;  1.3710103E+00;0; -6.4217977E-02;  9.8760547E+03;  0.0000000E+00; -1.3421150E-01;  4.0000000E+04;  0.0000000E+00;  3.9544363E+04; -7.9602808E-02;  0.0000000E+00;  1.5384833E-02;  4.0998652E+03;
  9.1612041E-01;  9.9999998E-03;  9.0447389E-02;7609; -3.3894189E-02;  0.0000000E+00;  2.0982835E-03;  9.9723138E+02;  2.0212844E-01; -2.2937500E+03;3;  1.7037630E+01;  0.0000000E+00;  1.5888625E+00;0; -5.7015374E-02;  9.8720400E+03;  0.0000000E+00; -1.9097486E-01;  4.0000000E+04;  0.0000000E+00;  3.9546168E+04; -7.4433029E-02;  0.0000000E+00;  1.7417653E-02;  4.3625571E+03;
  9.1609740E-01;  9.9999998E-03;  1.0050261E-01;7610; -3.2476522E-02;  0.0000000E+00;  2.5183065E-03;  9.9722247E+02;  2.0209475E-01; -2.3011077E+03;3;  1.6964403E+01;  0.0000000E+00;  1.8411396E+00;0; -4.9494527E-02;  9.8710137E+03;  0.0000000E+00; -2.6385921E-01;  4.0000000E+04;  0.0000000E+00;  3.9547371E+04; -6.8686351E-02;  0.0000000E+00;  1.9191826E-02;  4.5501265E+03;
  9.1602206E-01;  9.9999998E-03;  1.1053909E-01;7611; -3.0900294E-02;  0.0000000E+00;  3.0091214E-03;  9.9724481E+02;  2.0203194E-01; -2.2825898E+03;3;  1.6778545E+01;  0.0000000E+00;  1.9948472E+00;0; -4.1765999E-02;  9.8739600E+03;  0.0000000E+00; -3.5426322E-01;  4.0000000E+04;  0.0000000E+00;  3.9547633E+04; -6.2346760E-02;  0.0000000E+00;  2.0580761E-02;  4.5793945E+03;
  9.1586876E-01;  9.9999998E-03;  1.2058973E-01;7612; -2.9179677E-02;  0.0000000E+00;  3.5439951E-03;  9.9732227E+02;  2.0192778E-01; -2.2184441E+03;3;  1.6427549E+01;  0.0000000E+00;  2.0181868E+00;0; -3.3865768E-02;  9.8823887E+03;  0.0000000E+00; -4.6116343E-01;  4.0000000E+04;  0.0000000E+00;  3.9546520E+04; -5.5349309E-02;  0.0000000E+00;  2.1483541E-02;  4.4106670E+03;
  9.1565371E-01;  9.9999998E-03;  1.3065606E-01;7613; -2.7324118E-02;  0.0000000E+00;  4.0823896E-03;  9.9744611E+02;  2.0179150E-01; -2.1158303E+03;3;  1.5950372E+01;  0.0000000E+00;  1.9424417E+00;0; -2.5897313E-02;  9.8955947E+03;  0.0000000E+00; -5.8046067E-01;  4.0000000E+04;  0.0000000E+00;  3.9544480E+04; -4.7678489E-02;  0.0000000E+00;  2.1781176E-02;  4.0652300E+03;
  9.1541982E-01;  9.9999998E-03;  1.4073014E-01;7614; -2.5342109E-02;  0.0000000E+00;  4.5969249E-03;  9.9761011E+02;  2.0164584E-01; -1.9799829E+03;3;  1.5285903E+01;  0.0000000E+00;  1.7246783E+00;0; -1.7991116E-02;  9.9113164E+03;  0.0000000E+00; -7.0538241E-01;  4.0000000E+04;  0.0000000E+00;  3.9541855E+04; -3.9355993E-02;  0.0000000E+00;  2.1364877E-02;  3.6110107E+03;
  9.1521829E-01;  9.9999998E-03;  1.5080498E-01;7615; -2.3247467E-02;  0.0000000E+00;  5.0440906E-03;  9.9781024E+02;  2.0151930E-01; -1.8141614E+03;3;  1.4458015E+01;  0.0000000E+00;  1.4264668E+00;0; -1.0267338E-02;  9.9267090E+03;  0.0000000E+00; -8.2750118E-01;  4.0000000E+04;  0.0000000E+00;  3.9539102E+04; -3.0431906E-02;  0.0000000E+00;  2.0164568E-02;  3.1385034E+03;
  9.1509771E-01;  9.9999998E-03;  1.6087589E-01;7616; -2.1031413E-02;  0.0000000E+00;  5.4015303E-03;  9.9803619E+02;  2.0143223E-01; -1.6269578E+03;3;  1.3500422E+01;  0.0000000E+00;  1.1017250E+00;0; -2.7833208E-03;  9.9390010E+03;  0.0000000E+00; -9.3808413E-01;  4.0000000E+04;  0.0000000E+00;  3.9536555E+04; -2.0978320E-02;  0.0000000E+00;  1.8195000E-02;  2.7371045E+03;
  9.1508269E-01;  9.9999998E-03;  1.7093705E-01;7617; -1.8684020E-02;  0.0000000E+00;  5.6134528E-03;  9.9826123E+02;  2.0140338E-01; -1.4405442E+03;3;  1.2407271E+01;  0.0000000E+00;  7.6544499E-01;0;  4.5094546E-03;  9.9464600E+03;  0.0000000E+00; -1.0280012E+00;  4.0000000E+04;  0.0000000E+00;  3.9534777E+04; -1.1078089E-02;  0.0000000E+00;  1.5587543E-02;  2.4777185E+03;
  9.1519254E-01;  9.9999998E-03;  1.8098548E-01;7618; -1.6228946E-02;  0.0000000E+00;  5.7514850E-03;  9.9847455E+02;  2.0143950E-01; -1.2638094E+03;3;  1.1143693E+01;  0.0000000E+00;  5.5973023E-01;0;  1.1697457E-02;  9.9477207E+03;  0.0000000E+00; -1.0865172E+00;  4.0000000E+04;  0.0000000E+00;  3.9533895E+04; -8.7731570E-04;  0.0000000E+00;  1.2574773E-02;  2.4074836E+03;
  9.1544366E-01;  9.9999998E-03;  1.9102758E-01;7619; -1.3670798E-02;  0.0000000E+00;  5.8490215E-03;  9.9866168E+02;  2.0155016E-01; -1.1087529E+03;3;  9.7662258E+00;  0.0000000E+00;  3.7564182E-01;0;  1.8866852E-02;  9.9415742E+03;  0.0000000E+00; -1.1018028E+00;  4.0000000E+04;  0.0000000E+00;  3.9534723E+04;  9.4179120E-03;  0.0000000E+00;  9.4489390E-03;  2.5511606E+03;
  9.1582477E-01;  9.9999998E-03;  2.0107774E-01;7620; -1.0995867E-02;  0.0000000E+00;  5.9302533E-03;  9.9880383E+02;  2.0172709E-01; -9.9097906E+02;3;  8.2608032E+00;  0.0000000E+00;  1.8553174E-01;0;  2.6165307E-02;  9.9282100E+03;  0.0000000E+00; -1.0676502E+00;  4.0000000E+04;  0.0000000E+00;  3.9537082E+04;  1.9610971E-02;  0.0000000E+00;  6.5543358E-03;  2.8928640E+03;
  9.1612297E-01;  9.9999998E-03;  2.1113485E-01;7621; -8.1622060E-03;  0.0000000E+00;  6.0277842E-03;  9.9889587E+02;  2.0187311E-01; -9.1473468E+02;3;  6.6208892E+00;  0.0000000E+00; -1.0005502E-01;0;  3.4269139E-02;  9.9168838E+03;  0.0000000E+00; -9.8574996E-01;  4.0000000E+04;  0.0000000E+00;  3.9540996E+04;  2.9990973E-02;  0.0000000E+00;  4.2781672E-03;  3.4386680E+03;
  9.1626906E-01;  9.9999998E-03;  2.2123356E-01;7622; -5.2329609E-03;  0.0000000E+00;  6.1333021E-03;  9.9886182E+02;  2.0195633E-01; -9.4298065E+02;3;  4.9180140E+00;  0.0000000E+00; -3.2010910E-01;0;  4.3626975E-02;  9.9107227E+03;  0.0000000E+00; -8.6190361E-01;  4.0000000E+04;  0.0000000E+00;  3.9541840E+04;  4.0630396E-02;  0.0000000E+00;  2.9965802E-03;  3.5374614E+03;
  9.1627592E-01;  9.9999998E-03;  2.3135139E-01;7623; -2.2734266E-03;  0.0000000E+00;  6.0780384E-03;  9.9866803E+02;  2.0197943E-01; -1.1035184E+03;3;  3.2224483E+00;  0.0000000E+00; -4.6718103E-01;0;  5.4073699E-02;  9.9102646E+03;  0.0000000E+00; -7.2424763E-01;  4.0000000E+04;  0.0000000E+00;  3.9534738E+04;  5.1367670E-02;  0.0000000E+00;  2.7060290E-03;  2.6333423E+03;
  9.3816006E-01;  9.9999998E-03;  7.0542380E-02;7668; -3.8773559E-02;  0.0000000E+00; -1.5495838E-04;  9.9549542E+02;  2.1390200E-01; -3.7319163E+03;3;  1.8189653E+01;  0.0000000E+00;  1.6040958E+00;0; -1.0739606E-01;  8.7912197E+03;  0.0000000E+00; -1.6248398E-02;  4.0000000E+04;  0.0000000E+00;  3.9511336E+04; -9.9370159E-02;  0.0000000E+00; -8.0258967E-03;  5.3242778E+03;
  9.3822497E-01;  9.9999998E-03;  8.0625154E-02;7669; -3.7608348E-02;  0.0000000E+00; -1.2782213E-04;  9.9547919E+02;  2.1391863E-01; -3.7453972E+03;3;  1.8026491E+01;  0.0000000E+00;  1.8107588E+00;0; -1.0054829E-01;  8.7874707E+03;  0.0000000E+00; -3.2962672E-02;  4.0000000E+04;  0.0000000E+00;  3.9513785E+04; -9.5185459E-02;  0.0000000E+00; -5.3628278E-03;  5.7693994E+03;
  9.3821388E-01;  9.9999998E-03;  9.0687186E-02;7670; -3.6277626E-02;  0.0000000E+00; -6.4761989E-05;  9.9549377E+02;  2.1388702E-01; -3.7332988E+03;3;  1.7819221E+01;  0.0000000E+00;  2.0305710E+00;0; -9.3196541E-02;  8.7876631E+03;  0.0000000E+00; -7.5111628E-02;  4.0000000E+04;  0.0000000E+00;  3.9516320E+04; -9.0496175E-02;  0.0000000E+00; -2.7003693E-03;  6.2080874E+03;
  9.3810505E-01;  9.9999998E-03;  1.0073058E-01;7671; -3.4782272E-02;  0.0000000E+00;  4.3392396E-05;  9.9553607E+02;  2.1380006E-01; -3.6982385E+03;3;  1.7557726E+01;  0.0000000E+00;  2.2400417E+00;0; -8.5471831E-02;  8.7931221E+03;  0.0000000E+00; -1.5415403E-01;  4.0000000E+04;  0.0000000E+00;  3.9518715E+04; -8.5317962E-02;  0.0000000E+00; -1.5386686E-04;  6.4973057E+03;
  9.3790001E-01;  9.9999998E-03;  1.1073857E-01;7672; -3.3127829E-02;  0.0000000E+00;  1.9817233E-04;  9.9560553E+02;  2.1365635E-01; -3.6407100E+03;3;  1.7240788E+01;  0.0000000E+00;  2.4380012E+00;0; -7.7539831E-02;  8.8038115E+03;  0.0000000E+00; -2.7382120E-01;  4.0000000E+04;  0.0000000E+00;  3.9519406E+04; -7.9691760E-02;  0.0000000E+00;  2.1519270E-03;  6.5279336E+03;
  9.3759775E-01;  9.9999998E-03;  1.2075102E-01;7673; -3.1308509E-02;  0.0000000E+00;  3.9321411E-04;  9.9570099E+02;  2.1345983E-01; -3.5616016E+03;3;  1.6858215E+01;  0.0000000E+00;  2.6072125E+00;0; -6.9492750E-02;  8.8199502E+03;  0.0000000E+00; -4.2548051E-01;  4.0000000E+04;  0.0000000E+00;  3.9518672E+04; -7.3629245E-02;  0.0000000E+00;  4.1364981E-03;  6.2637554E+03;
  9.3724519E-01;  9.9999998E-03;  1.3077410E-01;7674; -2.9341144E-02;  0.0000000E+00;  6.0094567E-04;  9.9583276E+02;  2.1323863E-01; -3.4524697E+03;3;  1.6315977E+01;  0.0000000E+00;  2.6590004E+00;0; -6.1483674E-02;  8.8395635E+03;  0.0000000E+00; -5.8771372E-01;  4.0000000E+04;  0.0000000E+00;  3.9516332E+04; -6.7183331E-02;  0.0000000E+00;  5.6996550E-03;  5.7576416E+03;
  9.3692207E-01;  9.9999998E-03;  1.4080846E-01;7675; -2.7247844E-02;  0.0000000E+00;  7.8284281E-04;  9.9599396E+02;  2.1303229E-01; -3.3188945E+03;3;  1.5616670E+01;  0.0000000E+00;  2.6453726E+00;0; -5.3679604E-02;  8.8588252E+03;  0.0000000E+00; -7.3066235E-01;  4.0000000E+04;  0.0000000E+00;  3.9512719E+04; -6.0433038E-02;  0.0000000E+00;  6.7534335E-03;  5.1244072E+03;
  9.3670440E-01;  9.9999998E-03;  1.5085407E-01;7676; -2.5041070E-02;  0.0000000E+00;  9.0713368E-04;  9.9617554E+02;  2.1288544E-01; -3.1684800E+03;3;  1.4735865E+01;  0.0000000E+00;  2.5868280E+00;0; -4.6210602E-02;  8.8742217E+03;  0.0000000E+00; -8.2435977E-01;  4.0000000E+04;  0.0000000E+00;  3.9508492E+04; -5.3469513E-02;  0.0000000E+00;  7.2589125E-03;  4.4853540E+03;
  9.3660671E-01;  9.9999998E-03;  1.6090360E-01;7677; -2.2727700E-02;  0.0000000E+00;  9.6266449E-04;  9.9636670E+02;  2.1280649E-01; -3.0101152E+03;3;  1.3722474E+01;  0.0000000E+00;  2.5206130E+00;0; -3.9097928E-02;  8.8845547E+03;  0.0000000E+00; -8.4826124E-01;  4.0000000E+04;  0.0000000E+00;  3.9504773E+04; -4.6373025E-02;  0.0000000E+00;  7.2750980E-03;  3.9396931E+03;
  9.3662226E-01;  9.9999998E-03;  1.7095348E-01;7678; -2.0300467E-02;  0.0000000E+00;  9.5688738E-04;  9.9656213E+02;  2.1279152E-01; -2.8481951E+03;3;  1.2546653E+01;  0.0000000E+00;  2.5139134E+00;0; -3.2301471E-02;  8.8898516E+03;  0.0000000E+00; -7.9878753E-01;  4.0000000E+04;  0.0000000E+00;  3.9501680E+04; -3.9220721E-02;  0.0000000E+00;  6.9192504E-03;  3.5667522E+03;
  9.3676203E-01;  9.9999998E-03;  1.8100283E-01;7679; -1.7784998E-02;  0.0000000E+00;  9.0669439E-04;  9.9674445E+02;  2.1284717E-01; -2.6971387E+03;3;  1.1254204E+01;  0.0000000E+00;  2.5333583E+00;0; -2.5794355E-02;  8.8891094E+03;  0.0000000E+00; -6.9189018E-01;  4.0000000E+04;  0.0000000E+00;  3.9499832E+04; -3.2122523E-02;  0.0000000E+00;  6.3281674E-03;  3.4365127E+03;
  9.3705016E-01;  9.9999998E-03;  1.9105347E-01;7680; -1.5188809E-02;  0.0000000E+00;  8.1597734E-04;  9.9690295E+02;  2.1298778E-01; -2.5658347E+03;3;  9.8470726E+00;  0.0000000E+00;  2.5634456E+00;0; -1.9575335E-02;  8.8809297E+03;  0.0000000E+00; -5.5822855E-01;  4.0000000E+04;  0.0000000E+00;  3.9499914E+04; -2.5219997E-02;  0.0000000E+00;  5.6446623E-03;  3.5808762E+03;
  9.3746251E-01;  9.9999998E-03;  2.0111002E-01;7681; -1.2497926E-02;  0.0000000E+00;  7.0105511E-04;  9.9702472E+02;  2.1320234E-01; -2.4649492E+03;3;  8.3065081E+00;  0.0000000E+00;  2.5867026E+00;0; -1.3609995E-02;  8.8657715E+03;  0.0000000E+00; -4.3572691E-01;  4.0000000E+04;  0.0000000E+00;  3.9502277E+04; -1.8628949E-02;  0.0000000E+00;  5.0189542E-03;  3.9772061E+03;
  9.3790084E-01;  9.9999998E-03;  2.1118201E-01;7682; -9.6841175E-03;  0.0000000E+00;  6.0805667E-04;  9.9708704E+02;  2.1344221E-01; -2.4132969E+03;3;  6.6580825E+00;  0.0000000E+00;  2.5636470E+00;0; -7.7906055E-03;  8.8473779E+03;  0.0000000E+00; -3.6492401E-01;  4.0000000E+04;  0.0000000E+00;  3.9506660E+04; -1.2379962E-02;  0.0000000E+00;  4.5893565E-03;  4.5206509E+03;
  9.3828601E-01;  9.9999998E-03;  2.2130606E-01;7683; -6.7963274E-03;  0.0000000E+00;  5.1701412E-04;  9.9699048E+02;  2.1366911E-01; -2.4932937E+03;3;  4.9318929E+00;  0.0000000E+00;  2.5112560E+00;0; -2.1172776E-03;  8.8289229E+03;  0.0000000E+00; -3.7441769E-01;  4.0000000E+04;  0.0000000E+00;  3.9506172E+04; -6.4960099E-03;  0.0000000E+00;  4.3787323E-03;  4.4138770E+03;
  9.3848807E-01;  9.9999998E-03;  2.3143487E-01;7684; -3.8794051E-03;  0.0000000E+00;  3.1850097E-04;  9.9670959E+02;  2.1382397E-01; -2.7260261E+03;3;  3.1974583E+00;  0.0000000E+00;  2.5642259E+00;0;  2.9747966E-03;  8.8164121E+03;  0.0000000E+00; -4.8023942E-01;  4.0000000E+04;  0.0000000E+00;  3.9499078E+04; -9.3305542E-04;  0.0000000E+00;  3.9078519E-03;  3.4783118E+03;
  9.6051443E-01;  9.9999998E-03;  7.0553698E-02;7729; -4.1871075E-02;  0.0000000E+00; -2.3757569E-03;  9.9424646E+02;  2.2624701E-01; -4.7666309E+03;3;  1.9108997E+01;  0.0000000E+00;  2.5786192E+00;0; -1.4022216E-01;  7.8395200E+03;  0.0000000E+00;  2.8064860E-02;  4.0000000E+04;  0.0000000E+00;  3.9477438E+04; -1.0265417E-01;  0.0000000E+00; -3.7567988E-02;  6.5365225E+03;
  9.6057993E-01;  9.9999998E-03;  8.0644272E-02;7730; -4.0584970E-02;  0.0000000E+00; -2.6379803E-03;  9.9429944E+02;  2.2627316E-01; -4.7227808E+03;3;  1.8930779E+01;  0.0000000E+00;  2.8541877E+00;0; -1.3208696E-01;  7.8376016E+03;  0.0000000E+00;  1.4054638E-02;  4.0000000E+04;  0.0000000E+00;  3.9480227E+04; -9.8106489E-02;  0.0000000E+00; -3.3980474E-02;  7.0751699E+03;
  9.6058953E-01;  9.9999998E-03;  9.0716638E-02;7731; -3.9114483E-02;  0.0000000E+00; -2.8674349E-03;  9.9436737E+02;  2.2626272E-01; -4.6664863E+03;3;  1.8695301E+01;  0.0000000E+00;  3.0998755E+00;0; -1.2326731E-01;  7.8383721E+03;  0.0000000E+00; -3.8308710E-02;  4.0000000E+04;  0.0000000E+00;  3.9483238E+04; -9.2959024E-02;  0.0000000E+00; -3.0308284E-02;  7.5809854E+03;
  9.6051461E-01;  9.9999998E-03;  1.0077798E-01;7732; -3.7459560E-02;  0.0000000E+00; -3.0605400E-03;  9.9444342E+02;  2.2620063E-01; -4.6034766E+03;3;  1.8385647E+01;  0.0000000E+00;  3.3177688E+00;0; -1.1387616E-01;  7.8430317E+03;  0.0000000E+00; -1.4210491E-01;  4.0000000E+04;  0.0000000E+00;  3.9485816E+04; -8.7242596E-02;  0.0000000E+00; -2.6633570E-02;  7.8839399E+03;
  9.6033263E-01;  9.9999998E-03;  1.1080821E-01;7733; -3.5635106E-02;  0.0000000E+00; -3.2169938E-03;  9.9453070E+02;  2.2607322E-01; -4.5311831E+03;3;  1.7945396E+01;  0.0000000E+00;  3.5001817E+00;0; -1.0405623E-01;  7.8525811E+03;  0.0000000E+00; -2.9462606E-01;  4.0000000E+04;  0.0000000E+00;  3.9486773E+04; -8.1036158E-02;  0.0000000E+00; -2.3020074E-02;  7.8747036E+03;
  9.6007276E-01;  9.9999998E-03;  1.2082068E-01;7734; -3.3657979E-02;  0.0000000E+00; -3.3461093E-03;  9.9462720E+02;  2.2589728E-01; -4.4512358E+03;3;  1.7403479E+01;  0.0000000E+00;  3.6660402E+00;0; -9.3945220E-02;  7.8659712E+03;  0.0000000E+00; -4.7173807E-01;  4.0000000E+04;  0.0000000E+00;  3.9486039E+04; -7.4414976E-02;  0.0000000E+00; -1.9530242E-02;  7.5437061E+03;
  9.5976639E-01;  9.9999998E-03;  1.3082863E-01;7735; -3.1544283E-02;  0.0000000E+00; -3.4599707E-03;  9.9473102E+02;  2.2569382E-01; -4.3652144E+03;3;  1.6697783E+01;  0.0000000E+00;  3.8107793E+00;0; -8.3640695E-02;  7.8821157E+03;  0.0000000E+00; -6.2976092E-01;  4.0000000E+04;  0.0000000E+00;  3.9483387E+04; -6.7475043E-02;  0.0000000E+00; -1.6165648E-02;  6.9728296E+03;
  9.5948237E-01;  9.9999998E-03;  1.4084472E-01;7736; -2.9324109E-02;  0.0000000E+00; -3.5766701E-03;  9.9486243E+02;  2.2549978E-01; -4.2563301E+03;3;  1.5789310E+01;  0.0000000E+00;  3.9643242E+00;0; -7.3229343E-02;  7.8981548E+03;  0.0000000E+00; -7.1530557E-01;  4.0000000E+04;  0.0000000E+00;  3.9479219E+04; -6.0311191E-02;  0.0000000E+00; -1.2918155E-02;  6.2928701E+03;
  9.5928890E-01;  9.9999998E-03;  1.5087591E-01;7737; -2.7012676E-02;  0.0000000E+00; -3.7059013E-03;  9.9501086E+02;  2.2535671E-01; -4.1333721E+03;3;  1.4795452E+01;  0.0000000E+00;  4.1708198E+00;0; -6.2768079E-02;  7.9111230E+03;  0.0000000E+00; -6.8123400E-01;  4.0000000E+04;  0.0000000E+00;  3.9473969E+04; -5.3022191E-02;  0.0000000E+00; -9.7458875E-03;  5.6591460E+03;
  9.5920378E-01;  9.9999998E-03;  1.6092032E-01;7738; -2.4608251E-02;  0.0000000E+00; -3.8482635E-03;  9.9515808E+02;  2.2527581E-01; -4.0114014E+03;3;  1.3707402E+01;  0.0000000E+00;  4.3972883E+00;0; -5.2304901E-02;  7.9198223E+03;  0.0000000E+00; -5.0374627E-01;  4.0000000E+04;  0.0000000E+00;  3.9468816E+04; -4.5737550E-02;  0.0000000E+00; -6.5673501E-03;  5.3089131E+03;
  9.5926404E-01;  9.9999998E-03;  1.7097162E-01;7739; -2.2115204E-02;  0.0000000E+00; -4.0147672E-03;  9.9529675E+02;  2.2528034E-01; -3.8964922E+03;3;  1.2491950E+01;  0.0000000E+00;  4.6183662E+00;0; -4.1899227E-02;  7.9222095E+03;  0.0000000E+00; -1.9546029E-01;  4.0000000E+04;  0.0000000E+00;  3.9464688E+04; -3.8561665E-02;  0.0000000E+00; -3.3375609E-03;  5.5320068E+03;
  9.5950705E-01;  9.9999998E-03;  1.8103072E-01;7740; -1.9549472E-02;  0.0000000E+00; -4.2176968E-03;  9.9540710E+02;  2.2539327E-01; -3.8050881E+03;3;  1.1143459E+01;  0.0000000E+00;  4.8396292E+00;0; -3.1573258E-02;  7.9163232E+03;  0.0000000E+00;  1.9026242E-01;  4.0000000E+04;  0.0000000E+00;  3.9461566E+04; -3.1561628E-02;  0.0000000E+00; -1.1631627E-05;  6.3361514E+03;
  9.5994478E-01;  9.9999998E-03;  1.9109829E-01;7741; -1.6926387E-02;  0.0000000E+00; -4.4592023E-03;  9.9548053E+02;  2.2562338E-01; -3.7442507E+03;3;  9.7067661E+00;  0.0000000E+00;  5.0804553E+00;0; -2.1337707E-02;  7.9012637E+03;  0.0000000E+00;  5.6908679E-01;  4.0000000E+04;  0.0000000E+00;  3.9460469E+04; -2.4792349E-02;  0.0000000E+00;  3.4546431E-03;  7.3070171E+03;
  9.6054864E-01;  9.9999998E-03;  2.0118192E-01;7742; -1.4251122E-02;  0.0000000E+00; -4.7290302E-03;  9.9550427E+02;  2.2595733E-01; -3.7245969E+03;3;  8.1536427E+00;  0.0000000E+00;  5.3192053E+00;0; -1.1272902E-02;  7.8779468E+03;  0.0000000E+00;  8.4976554E-01;  4.0000000E+04;  0.0000000E+00;  3.9461879E+04; -1.8338758E-02;  0.0000000E+00;  7.0658564E-03;  7.9298774E+03;
  9.6127278E-01;  9.9999998E-03;  2.1128295E-01;7743; -1.1525705E-02;  0.0000000E+00; -5.0068521E-03;  9.9546375E+02;  2.2637022E-01; -3.7581755E+03;3;  6.4995518E+00;  0.0000000E+00;  5.5706172E+00;0; -1.5770765E-03;  7.8482666E+03;  0.0000000E+00;  9.5808470E-01;  4.0000000E+04;  0.0000000E+00;  3.9463945E+04; -1.2302245E-02;  0.0000000E+00;  1.0725169E-02;  7.8728081E+03;
  9.6192515E-01;  9.9999998E-03;  2.2142047E-01;7744; -8.7378481E-03;  0.0000000E+00; -5.2843220E-03;  9.9527057E+02;  2.2675869E-01; -3.9182185E+03;3;  4.7573719E+00;  0.0000000E+00;  5.7637448E+00;0;  7.0490190E-03;  7.8194014E+03;  0.0000000E+00;  8.2986158E-01;  4.0000000E+04;  0.0000000E+00;  3.9461402E+04; -6.9859228E-03;  0.0000000E+00;  1.4034942E-02;  6.6842998E+03;
  9.6223724E-01;  9.9999998E-03;  2.3155238E-01;7745; -5.9263092E-03;  0.0000000E+00; -5.6450907E-03;  9.9481836E+02;  2.2698598E-01; -4.2928701E+03;3;  3.0071459E+00;  0.0000000E+00;  5.9170303E+00;0;  1.2865600E-02;  7.8008193E+03;  0.0000000E+00;  4.1988790E-01;  4.0000000E+04;  0.0000000E+00;  3.9453363E+04; -2.8645538E-03;  0.0000000E+00;  1.5730154E-02;  4.3565322E+03;
  9.8419458E-01;  9.9999998E-03;  7.0469916E-02;7790; -4.5165367E-02;  0.0000000E+00; -5.4181963E-03;  9.9424457E+02;  2.3960394E-01; -4.7681899E+03;3;  1.9922646E+01;  0.0000000E+00;  3.7492390E+00;0; -1.6421793E-01;  6.9923491E+03;  0.0000000E+00; -1.0741528E-01;  4.0000000E+04;  0.0000000E+00;  3.9440512E+04; -8.5584693E-02;  0.0000000E+00; -7.8633241E-02;  7.2774370E+03;
  9.8401409E-01;  9.9999998E-03;  8.0546558E-02;7791; -4.3710236E-02;  0.0000000E+00; -6.0079372E-03;  9.9433612E+02;  2.3949568E-01; -4.6923418E+03;3;  1.9772951E+01;  0.0000000E+00;  4.1955309E+00;0; -1.5345870E-01;  7.0003057E+03;  0.0000000E+00; -1.5416203E-01;  4.0000000E+04;  0.0000000E+00;  3.9443426E+04; -8.0363005E-02;  0.0000000E+00; -7.3095694E-02;  7.7534487E+03;
  9.8374236E-01;  9.9999998E-03;  9.0614639E-02;7792; -4.2040635E-02;  0.0000000E+00; -6.5208138E-03;  9.9442987E+02;  2.3932697E-01; -4.6146660E+03;3;  1.9563475E+01;  0.0000000E+00;  4.6075420E+00;0; -1.4156356E-01;  7.0117505E+03;  0.0000000E+00; -2.3284586E-01;  4.0000000E+04;  0.0000000E+00;  3.9446598E+04; -7.4329376E-02;  0.0000000E+00; -6.7234188E-02;  8.1840068E+03;
  9.8338890E-01;  9.9999998E-03;  1.0067896E-01;7793; -4.0173668E-02;  0.0000000E+00; -6.9568427E-03;  9.9452814E+02;  2.3910756E-01; -4.5332871E+03;3;  1.9231153E+01;  0.0000000E+00;  4.9796119E+00;0; -1.2865141E-01;  7.0265122E+03;  0.0000000E+00; -3.5047176E-01;  4.0000000E+04;  0.0000000E+00;  3.9449398E+04; -6.7469195E-02;  0.0000000E+00; -6.1182223E-02;  8.4155879E+03;
  9.8297340E-01;  9.9999998E-03;  1.1073072E-01;7794; -3.8139001E-02;  0.0000000E+00; -7.3254104E-03;  9.9462927E+02;  2.3884867E-01; -4.4494888E+03;3;  1.8747692E+01;  0.0000000E+00;  5.2915287E+00;0; -1.1484194E-01;  7.0439692E+03;  0.0000000E+00; -4.9701372E-01;  4.0000000E+04;  0.0000000E+00;  3.9450391E+04; -5.9813865E-02;  0.0000000E+00; -5.5028070E-02;  8.3502012E+03;
  9.8253447E-01;  9.9999998E-03;  1.2077135E-01;7795; -3.5944488E-02;  0.0000000E+00; -7.6435991E-03;  9.9472968E+02;  2.3857085E-01; -4.3662827E+03;3;  1.8147078E+01;  0.0000000E+00;  5.5622063E+00;0; -1.0019504E-01;  7.0628857E+03;  0.0000000E+00; -6.3905966E-01;  4.0000000E+04;  0.0000000E+00;  3.9449605E+04; -5.1408418E-02;  0.0000000E+00; -4.8786618E-02;  7.9850645E+03;
  9.8211926E-01;  9.9999998E-03;  1.3083027E-01;7796; -3.3609573E-02;  0.0000000E+00; -7.9350732E-03;  9.9484283E+02;  2.3830032E-01; -4.2725591E+03;3;  1.7255260E+01;  0.0000000E+00;  5.7569566E+00;0; -8.4674567E-02;  7.0817485E+03;  0.0000000E+00; -7.2239923E-01;  4.0000000E+04;  0.0000000E+00;  3.9446363E+04; -4.2307526E-02;  0.0000000E+00; -4.2367041E-02;  7.4025024E+03;
  9.8179239E-01;  9.9999998E-03;  1.4090210E-01;7797; -3.1256691E-02;  0.0000000E+00; -8.2381163E-03;  9.9497455E+02;  2.3807520E-01; -4.1634282E+03;3;  1.5896580E+01;  0.0000000E+00;  5.9476357E+00;0; -6.8279445E-02;  7.0982769E+03;  0.0000000E+00; -6.8521386E-01;  4.0000000E+04;  0.0000000E+00;  3.9441543E+04; -3.2627437E-02;  0.0000000E+00; -3.5652004E-02;  6.7615718E+03;
  9.8166913E-01;  9.9999998E-03;  1.5097944E-01;7798; -2.8840588E-02;  0.0000000E+00; -8.5508432E-03;  9.9513025E+02;  2.3796128E-01; -4.0344460E+03;3;  1.4764648E+01;  0.0000000E+00;  6.2757630E+00;0; -5.0881974E-02;  7.1081968E+03;  0.0000000E+00; -4.7875577E-01;  4.0000000E+04;  0.0000000E+00;  3.9435535E+04; -2.2338944E-02;  0.0000000E+00; -2.8543031E-02;  6.3493916E+03;
  9.8175651E-01;  9.9999998E-03;  1.6106752E-01;7799; -2.6356621E-02;  0.0000000E+00; -8.8762613E-03;  9.9529803E+02;  2.3796906E-01; -3.8954395E+03;3;  1.3535289E+01;  0.0000000E+00;  6.6391940E+00;0; -3.2413118E-02;  7.1107319E+03;  0.0000000E+00; -8.7781914E-02;  4.0000000E+04;  0.0000000E+00;  3.9429352E+04; -1.1573218E-02;  0.0000000E+00; -2.0839900E-02;  6.6304546E+03;
  9.8204643E-01;  9.9999998E-03;  1.7116515E-01;7800; -2.3814734E-02;  0.0000000E+00; -9.2147775E-03;  9.9545618E+02;  2.3809257E-01; -3.7644324E+03;3;  1.2196054E+01;  0.0000000E+00;  7.0304980E+00;0; -1.2906121E-02;  7.1056377E+03;  0.0000000E+00;  4.5224872E-01;  4.0000000E+04;  0.0000000E+00;  3.9423660E+04; -4.7453115E-04;  0.0000000E+00; -1.2431590E-02;  7.8543330E+03;
  9.8253655E-01;  9.9999998E-03;  1.8126582E-01;7801; -2.1228479E-02;  0.0000000E+00; -9.5691942E-03;  9.9557782E+02;  2.3833595E-01; -3.6636460E+03;3;  1.0757239E+01;  0.0000000E+00;  7.4303517E+00;0;  7.5398497E-03;  7.0926582E+03;  0.0000000E+00;  1.0530961E+00;  4.0000000E+04;  0.0000000E+00;  3.9418602E+04;  1.0849218E-02;  0.0000000E+00; -3.3093679E-03;  9.5969766E+03;
  9.8319644E-01;  9.9999998E-03;  1.9135845E-01;7802; -1.8614080E-02;  0.0000000E+00; -9.9354424E-03;  9.9565088E+02;  2.3868673E-01; -3.6031052E+03;3;  9.2353840E+00;  0.0000000E+00;  7.8302374E+00;0;  2.8684776E-02;  7.0724858E+03;  0.0000000E+00;  1.5928953E+00;  4.0000000E+04;  0.0000000E+00;  3.9414473E+04;  2.2237010E-02;  0.0000000E+00;  6.4477660E-03;  1.1073479E+04;
  9.8391455E-01;  9.9999998E-03;  2.0143244E-01;7803; -1.5990265E-02;  0.0000000E+00; -1.0285362E-02;  9.9564270E+02;  2.3907983E-01; -3.6098699E+03;3;  7.5878396E+00;  0.0000000E+00;  8.2530212E+00;0;  4.9856029E-02;  7.0486802E+03;  0.0000000E+00;  1.9478695E+00;  4.0000000E+04;  0.0000000E+00;  3.9411543E+04;  3.3256207E-02;  0.0000000E+00;  1.6599823E-02;  1.1585265E+04;
  9.8459524E-01;  9.9999998E-03;  2.1148822E-01;7804; -1.3362880E-02;  0.0000000E+00; -1.0588611E-02;  9.9556305E+02;  2.3946047E-01; -3.6758909E+03;3;  5.8980346E+00;  0.0000000E+00;  8.6477108E+00;0;  7.0127144E-02;  7.0242598E+03;  0.0000000E+00;  2.0219383E+00;  4.0000000E+04;  0.0000000E+00;  3.9411855E+04;  4.3463346E-02;  0.0000000E+00;  2.6663799E-02;  1.0767521E+04;
  9.8531961E-01;  9.9999998E-03;  2.2157660E-01;7805; -1.0760329E-02;  0.0000000E+00; -1.0884996E-02;  9.9536365E+02;  2.3988692E-01; -3.8410686E+03;3;  4.1434250E+00;  0.0000000E+00;  9.0331421E+00;0;  8.9135677E-02;  6.9963628E+03;  0.0000000E+00;  1.7797306E+00;  4.0000000E+04;  0.0000000E+00;  3.9411020E+04;  5.3056434E-02;  0.0000000E+00;  3.6079243E-02;  8.5638867E+03;
  9.8586041E-01;  9.9999998E-03;  2.3168698E-01;7806; -8.1960345E-03;  0.0000000E+00; -1.1261839E-02;  9.9489929E+02;  2.4024239E-01; -4.2257915E+03;3;  2.3055031E+00;  0.0000000E+00;  9.3284731E+00;0;  1.0422246E-01;  6.9715811E+03;  0.0000000E+00;  1.2034395E+00;  4.0000000E+04;  0.0000000E+00;  3.9404609E+04;  6.1070897E-02;  0.0000000E+00;  4.3151565E-02;  5.0766284E+03;
  1.0069424E+00;  9.9999998E-03;  1.4088467E-01;7858; -3.2710772E-02;  0.0000000E+00; -1.4452768E-02;  9.9750146E+02;  2.5193891E-01; -2.0699233E+03;3;  1.6483593E+01;  0.0000000E+00;  8.9076223E+00;0; -2.8109673E-02;  6.3821084E+03;  0.0000000E+00; -6.0761678E-01;  4.0000000E+04;  0.0000000E+00;  3.9398660E+04;  3.9435256E-02;  0.0000000E+00; -6.7544930E-02;  6.7461587E+03;
  1.0069283E+00;  9.9999998E-03;  1.5101565E-01;7859; -3.0196236E-02;  0.0000000E+00; -1.4955981E-02;  9.9782251E+02;  2.5187129E-01; -1.8039611E+03;3;  1.4688350E+01;  0.0000000E+00;  9.0726213E+00;0; -1.0004267E-03;  6.3902739E+03;  0.0000000E+00; -3.5920808E-01;  4.0000000E+04;  0.0000000E+00;  3.9392730E+04;  5.3031415E-02;  0.0000000E+00; -5.4031841E-02;  6.5419604E+03;
  1.0070188E+00;  9.9999998E-03;  1.3076760E-01;7857; -3.5264708E-02;  0.0000000E+00; -1.3960148E-02;  9.9720496E+02;  2.5202101E-01; -2.3155903E+03;3;  1.7922028E+01;  0.0000000E+00;  8.6194048E+00;0; -5.2527651E-02;  6.3726709E+03;  0.0000000E+00; -7.2457176E-01;  4.0000000E+04;  0.0000000E+00;  3.9404129E+04;  2.6981555E-02;  0.0000000E+00; -7.9509206E-02;  7.2491929E+03;
  1.0069726E+00;  9.9999998E-03;  1.6114029E-01;7860; -2.7687194E-02;  0.0000000E+00; -1.5388022E-02;  9.9814490E+02;  2.5182447E-01; -1.5368630E+03;3;  1.3068902E+01;  0.0000000E+00;  9.5252237E+00;0;  2.8663661E-02;  6.3967417E+03;  0.0000000E+00;  2.2196827E-02;  4.0000000E+04;  0.0000000E+00;  3.9386754E+04;  6.7527667E-02;  0.0000000E+00; -3.8864005E-02;  6.9895488E+03;
  1.0073003E+00;  9.9999998E-03;  1.2068342E-01;7856; -3.7761971E-02;  0.0000000E+00; -1.3455123E-02;  9.9697144E+02;  2.5220373E-01; -2.5090620E+03;3;  1.8948904E+01;  0.0000000E+00;  8.1578741E+00;0; -7.4013904E-02;  6.3585757E+03;  0.0000000E+00; -7.3541707E-01;  4.0000000E+04;  0.0000000E+00;  3.9407594E+04;  1.6492261E-02;  0.0000000E+00; -9.0506166E-02;  7.7238652E+03;
  1.0071692E+00;  9.9999998E-03;  1.7124668E-01;7861; -2.5178041E-02;  0.0000000E+00; -1.5771415E-02;  9.9846057E+02;  2.5185198E-01; -1.2753447E+03;3;  1.1488848E+01;  0.0000000E+00;  9.9886436E+00;0;  6.0857195E-02;  6.3983916E+03;  0.0000000E+00;  4.9979305E-01;  4.0000000E+04;  0.0000000E+00;  3.9382145E+04;  8.3061539E-02;  0.0000000E+00; -2.2204343E-02;  8.1189771E+03;
  1.0076154E+00;  9.9999998E-03;  1.8135194E-01;7862; -2.2654571E-02;  0.0000000E+00; -1.6132845E-02;  9.9876068E+02;  2.5202402E-01; -1.0267150E+03;3;  9.9026232E+00;  0.0000000E+00;  1.0519785E+01;0;  9.5662974E-02;  6.3922134E+03;  0.0000000E+00;  9.9621654E-01;  4.0000000E+04;  0.0000000E+00;  3.9378035E+04;  9.9824347E-02;  0.0000000E+00; -4.1613709E-03;  9.4838545E+03;
  1.0078833E+00;  9.9999998E-03;  1.1064312E-01;7855; -4.0169328E-02;  0.0000000E+00; -1.2934568E-02;  9.9680414E+02;  2.5254169E-01; -2.6476721E+03;3;  1.9679670E+01;  0.0000000E+00;  7.6466656E+00;0; -9.2581771E-02;  6.3375283E+03;  0.0000000E+00; -6.7913800E-01;  4.0000000E+04;  0.0000000E+00;  3.9408625E+04;  8.5988268E-03;  0.0000000E+00; -1.0118060E-01;  7.9693003E+03;
  1.0081147E+00;  9.9999998E-03;  1.9143842E-01;7863; -2.0124679E-02;  0.0000000E+00; -1.6411094E-02;  9.9898016E+02;  2.5223121E-01; -8.4489661E+02;3;  8.2662487E+00;  0.0000000E+00;  1.1060936E+01;0;  1.3177305E-01;  6.3829033E+03;  0.0000000E+00;  1.4202060E+00;  4.0000000E+04;  0.0000000E+00;  3.9375246E+04;  1.1670517E-01;  0.0000000E+00;  1.5067885E-02;  1.0493578E+04;
  1.0084615E+00;  9.9999998E-03;  1.0060524E-01;7854; -4.2425245E-02;  0.0000000E+00; -1.2298966E-02;  9.9665320E+02;  2.5286528E-01; -2.7727024E+03;3;  2.0079281E+01;  0.0000000E+00;  7.0710897E+00;0; -1.0912668E-01;  6.3174863E+03;  0.0000000E+00; -5.9365380E-01;  4.0000000E+04;  0.0000000E+00;  3.9407125E+04;  2.1533901E-03;  0.0000000E+00; -1.1128007E-01;  7.9312573E+03;
  1.0086817E+00;  9.9999998E-03;  2.0151877E-01;7864; -1.7609803E-02;  0.0000000E+00; -1.6586229E-02;  9.9909338E+02;  2.5248742E-01; -7.5107391E+02;3;  6.5859194E+00;  0.0000000E+00;  1.1679988E+01;0;  1.6860864E-01;  6.3697681E+03;  0.0000000E+00;  1.6851159E+00;  4.0000000E+04;  0.0000000E+00;  3.9373883E+04;  1.3349506E-01;  0.0000000E+00;  3.5113581E-02;  1.0667219E+04;
  1.0089079E+00;  9.9999998E-03;  9.0553813E-02;7853; -4.4474136E-02;  0.0000000E+00; -1.1511761E-02;  9.9648547E+02;  2.5311026E-01; -2.9116580E+03;3;  2.0319380E+01;  0.0000000E+00;  6.4306097E+00;0; -1.2403686E-01;  6.3015938E+03;  0.0000000E+00; -5.0262368E-01;  4.0000000E+04;  0.0000000E+00;  3.9404547E+04; -3.3951073E-03;  0.0000000E+00; -1.2064175E-01;  7.6669443E+03;
  1.0093209E+00;  9.9999998E-03;  2.1159746E-01;7865; -1.5137868E-02;  0.0000000E+00; -1.6591242E-02;  9.9911157E+02;  2.5280383E-01; -7.3601282E+02;3;  4.8711433E+00;  0.0000000E+00;  1.2433210E+01;0;  2.0551994E-01;  6.3525112E+03;  0.0000000E+00;  1.7267250E+00;  4.0000000E+04;  0.0000000E+00;  3.9374211E+04;  1.4997253E-01;  0.0000000E+00;  5.5547409E-02;  9.7867812E+03;
  1.0091834E+00;  9.9999998E-03;  8.0493763E-02;7852; -4.6295889E-02;  0.0000000E+00; -1.0568445E-02;  9.9630133E+02;  2.5325462E-01; -3.0641934E+03;3;  2.0481255E+01;  0.0000000E+00;  5.7590575E+00;0; -1.3746352E-01;  6.2906323E+03;  0.0000000E+00; -4.1557986E-01;  4.0000000E+04;  0.0000000E+00;  3.9401449E+04; -8.3285272E-03;  0.0000000E+00; -1.2913500E-01;  7.2959243E+03;
  1.0099968E+00;  9.9999998E-03;  2.2170243E-01;7866; -1.2707854E-02;  0.0000000E+00; -1.6317183E-02;  9.9896808E+02;  2.5316790E-01; -8.5492029E+02;3;  3.0682356E+00;  0.0000000E+00;  1.3425821E+01;0;  2.4176477E-01;  6.3319443E+03;  0.0000000E+00;  1.5095721E+00;  4.0000000E+04;  0.0000000E+00;  3.9372512E+04;  1.6581440E-01;  0.0000000E+00;  7.5950369E-02;  7.7921743E+03;
  1.0093775E+00;  9.9999998E-03;  7.0430271E-02;7851; -4.7899563E-02;  0.0000000E+00; -9.4999932E-03;  9.9611658E+02;  2.5335586E-01; -3.2172722E+03;3;  2.0542273E+01;  0.0000000E+00;  5.0691957E+00;0; -1.4925468E-01;  6.2822021E+03;  0.0000000E+00; -3.3387271E-01;  4.0000000E+04;  0.0000000E+00;  3.9398652E+04; -1.2368366E-02;  0.0000000E+00; -1.3688631E-01;  6.9401553E+03;
  1.0106952E+00;  9.9999998E-03;  2.3182787E-01;7867; -1.0373604E-02;  0.0000000E+00; -1.5973631E-02;  9.9858441E+02;  2.5357771E-01; -1.1727806E+03;3;  1.1829011E+00;  0.0000000E+00;  1.4453053E+01;0;  2.7607745E-01;  6.3083540E+03;  0.0000000E+00;  1.0259068E+00;  4.0000000E+04;  0.0000000E+00;  3.9363035E+04;  1.8082747E-01;  0.0000000E+00;  9.5249973E-02;  4.6927969E+03;
  1.0352188E+00;  9.9999998E-03;  1.1072110E-01;7916; -4.1348252E-02;  0.0000000E+00; -2.1183396E-02;  9.9959277E+02;  2.6489431E-01; -3.3736252E+02;3;  2.0264921E+01;  0.0000000E+00;  1.0094548E+01;0;  4.2796135E-02;  5.8023569E+03;  0.0000000E+00; -4.8306549E-01;  4.0000000E+04;  0.0000000E+00;  3.9362281E+04;  2.1261576E-01;  0.0000000E+00; -1.6981962E-01;  6.5462983E+03;
  1.0352725E+00;  9.9999998E-03;  1.0065734E-01;7915; -4.3716952E-02;  0.0000000E+00; -1.9912092E-02;  9.9917981E+02;  2.6491076E-01; -6.7951483E+02;3;  2.0563728E+01;  0.0000000E+00;  9.0609579E+00;0;  3.0690372E-02;  5.7946421E+03;  0.0000000E+00; -4.3383241E-01;  4.0000000E+04;  0.0000000E+00;  3.9361555E+04;  2.1426429E-01;  0.0000000E+00; -1.8357392E-01;  6.4032651E+03;
  1.0354762E+00;  9.9999998E-03;  7.0478745E-02;7912; -4.9519259E-02;  0.0000000E+00; -1.5030567E-02;  9.9812537E+02;  2.6495555E-01; -1.5530427E+03;3;  2.0879078E+01;  0.0000000E+00;  6.1695499E+00;0;  8.5182041E-03;  5.7755557E+03;  0.0000000E+00; -2.5112104E-01;  4.0000000E+04;  0.0000000E+00;  3.9355180E+04;  2.2554867E-01;  0.0000000E+00; -2.1703047E-01;  5.6415713E+03;
  1.0349897E+00;  9.9999998E-03;  1.5106672E-01;7920; -3.0285740E-02;  0.0000000E+00; -2.4448048E-02;  1.0017972E+03;  2.6463854E-01;  1.4888986E+03;3;  1.6769604E+01;  0.0000000E+00;  1.3073561E+01;0;  1.2651798E-01;  5.8442925E+03;  0.0000000E+00; -5.2734590E-01;  4.0000000E+04;  0.0000000E+00;  3.9351824E+04;  2.2042426E-01;  0.0000000E+00; -9.3906291E-02;  6.0256646E+03;
  1.0347773E+00;  9.9999998E-03;  1.6114762E-01;7921; -2.7354052E-02;  0.0000000E+00; -2.4801042E-02;  1.0024077E+03;  2.6445264E-01;  1.9946462E+03;3;  1.5077254E+01;  0.0000000E+00;  1.3490621E+01;0;  1.5736422E-01;  5.8586118E+03;  0.0000000E+00; -4.5850050E-01;  4.0000000E+04;  0.0000000E+00;  3.9348781E+04;  2.2541001E-01;  0.0000000E+00; -6.8045795E-02;  6.0489541E+03;
  1.0347201E+00;  9.9999998E-03;  1.7125273E-01;7922; -2.4526412E-02;  0.0000000E+00; -2.5200851E-02;  1.0030080E+03;  2.6431930E-01;  2.4919993E+03;3;  1.2584582E+01;  0.0000000E+00;  1.2938532E+01;0;  1.9368242E-01;  5.8696997E+03;  0.0000000E+00; -3.5541499E-01;  4.0000000E+04;  0.0000000E+00;  3.9346809E+04;  2.3345251E-01;  0.0000000E+00; -3.9770100E-02;  6.2424541E+03;
  1.0355965E+00;  9.9999998E-03;  9.0609603E-02;7914; -4.5898292E-02;  0.0000000E+00; -1.8525949E-02;  9.9882343E+02;  2.6502770E-01; -9.7475623E+02;3;  2.0775539E+01;  0.0000000E+00;  8.1012259E+00;0;  2.3790479E-02;  5.7833398E+03;  0.0000000E+00; -3.7392604E-01;  4.0000000E+04;  0.0000000E+00;  3.9359023E+04;  2.2056286E-01;  0.0000000E+00; -1.9677238E-01;  6.1251084E+03;
  1.0355434E+00;  9.9999998E-03;  1.2081737E-01;7917; -3.8761389E-02;  0.0000000E+00; -2.2407018E-02;  1.0000947E+03;  2.6501989E-01;  7.8415039E+01;3;  1.9729727E+01;  0.0000000E+00;  1.1104669E+01;0;  6.1080351E-02;  5.8049526E+03;  0.0000000E+00; -5.1959062E-01;  4.0000000E+04;  0.0000000E+00;  3.9360848E+04;  2.1640739E-01;  0.0000000E+00; -1.5532704E-01;  6.5040317E+03;
  1.0353408E+00;  9.9999998E-03;  1.4099410E-01;7919; -3.3217598E-02;  0.0000000E+00; -2.4001896E-02;  1.0011992E+03;  2.6485869E-01;  9.9352069E+02;3;  1.8029879E+01;  0.0000000E+00;  1.2512379E+01;0;  1.0143841E-01;  5.8276733E+03;  0.0000000E+00; -5.5471140E-01;  4.0000000E+04;  0.0000000E+00;  3.9355094E+04;  2.1875131E-01;  0.0000000E+00; -1.1731290E-01;  6.1591904E+03;
  1.0356348E+00;  9.9999998E-03;  8.0548994E-02;7913; -4.7825415E-02;  0.0000000E+00; -1.6882177E-02;  9.9847455E+02;  2.6502922E-01; -1.2637759E+03;3;  2.0828218E+01;  0.0000000E+00;  7.1372781E+00;0;  1.6318798E-02;  5.7775659E+03;  0.0000000E+00; -3.1272873E-01;  4.0000000E+04;  0.0000000E+00;  3.9356754E+04;  2.2416291E-01;  0.0000000E+00; -2.0784411E-01;  5.8455015E+03;
  1.0346667E+00;  9.9999998E-03;  1.8137029E-01;7923; -2.1907382E-02;  0.0000000E+00; -2.5572896E-02;  1.0035303E+03;  2.6417920E-01;  2.9246653E+03;3;  1.0397122E+01;  0.0000000E+00;  1.3234083E+01;0;  2.3383926E-01;  5.8792925E+03;  0.0000000E+00; -2.3227155E-01;  4.0000000E+04;  0.0000000E+00;  3.9346184E+04;  2.4307384E-01;  0.0000000E+00; -9.2345811E-03;  6.5066284E+03;
  1.0346005E+00;  9.9999998E-03;  1.9149932E-01;7924; -1.9386832E-02;  0.0000000E+00; -2.5681378E-02;  1.0039153E+03;  2.6404956E-01;  3.2436584E+03;3;  8.4346905E+00;  0.0000000E+00;  1.3950719E+01;0;  2.7686617E-01;  5.8869243E+03;  0.0000000E+00; -1.1048369E-01;  4.0000000E+04;  0.0000000E+00;  3.9346777E+04;  2.5390074E-01;  0.0000000E+00;  2.2965420E-02;  6.6865156E+03;
  1.0355843E+00;  9.9999998E-03;  1.3091023E-01;7918; -3.6052611E-02;  0.0000000E+00; -2.3332553E-02;  1.0006296E+03;  2.6500851E-01;  5.2164764E+02;3;  1.8826473E+01;  0.0000000E+00;  1.1987163E+01;0;  8.0308333E-02;  5.8134390E+03;  0.0000000E+00; -5.4722899E-01;  4.0000000E+04;  0.0000000E+00;  3.9358375E+04;  2.1818972E-01;  0.0000000E+00; -1.3788138E-01;  6.3505898E+03;
  1.0347285E+00;  9.9999998E-03;  2.0162627E-01;7925; -1.6929798E-02;  0.0000000E+00; -2.5457185E-02;  1.0041643E+03;  2.6402605E-01;  3.4499668E+03;3;  6.4116168E+00;  0.0000000E+00;  1.5030025E+01;0;  3.2303393E-01;  5.8886699E+03;  0.0000000E+00; -3.1009464E-02;  4.0000000E+04;  0.0000000E+00;  3.9347207E+04;  2.6670155E-01;  0.0000000E+00;  5.6332368E-02;  6.6066001E+03;
  1.0349844E+00;  9.9999998E-03;  2.1172766E-01;7926; -1.4580562E-02;  0.0000000E+00; -2.4612535E-02;  1.0042527E+03;  2.6408279E-01;  3.5232461E+03;3;  4.3486366E+00;  0.0000000E+00;  1.6625633E+01;0;  3.7120199E-01;  5.8854507E+03;  0.0000000E+00; -1.8086450E-02;  4.0000000E+04;  0.0000000E+00;  3.9347953E+04;  2.8048369E-01;  0.0000000E+00;  9.0718307E-02;  6.2868857E+03;
  1.0354596E+00;  9.9999998E-03;  2.2182432E-01;7927; -1.2429257E-02;  0.0000000E+00; -2.2494560E-02;  1.0041979E+03;  2.6425761E-01;  3.4778162E+03;3;  2.2936137E+00;  0.0000000E+00;  1.9264812E+01;0;  4.2292857E-01;  5.8757690E+03;  0.0000000E+00; -1.0323481E-01;  4.0000000E+04;  0.0000000E+00;  3.9348297E+04;  2.9526785E-01;  0.0000000E+00;  1.2766072E-01;  5.7403564E+03;
  1.0360814E+00;  9.9999998E-03;  2.3195408E-01;7928; -9.7199483E-03;  0.0000000E+00; -1.7898142E-02;  1.0038689E+03;  2.6452711E-01;  3.2052390E+03;3;  1.6965102E+00;  0.0000000E+00;  2.4467373E+01;0;  4.8363888E-01;  5.8610425E+03;  0.0000000E+00; -3.0632553E-01;  4.0000000E+04;  0.0000000E+00;  3.9339215E+04;  3.1027654E-01;  0.0000000E+00;  1.7336233E-01;  4.2415415E+03;
  1.0627065E+00;  9.9999998E-03;  7.0580736E-02;7973; -4.9928378E-02;  0.0000000E+00; -2.2804843E-02;  9.9516217E+02;  2.7123860E-01; -4.0078435E+03;3;  2.0802904E+01;  0.0000000E+00;  6.8983803E+00;0;  5.3076440E-01;  5.4873433E+03;  0.0000000E+00;  9.4581306E-02;  4.0000000E+04;  0.0000000E+00;  3.9313125E+04;  8.5074115E-01;  0.0000000E+00; -3.1997675E-01;  3.4242812E+03;
  1.0620601E+00;  9.9999998E-03;  2.3209235E-01;7989;  1.9432630E-02;  0.0000000E+00; -3.9862122E-02;  1.0048733E+03;  2.7034518E-01;  4.0372261E+03;3;  2.9767550E+01;  0.0000000E+00;  2.3585714E+01;0;  6.1856735E-01;  5.6254341E+03;  0.0000000E+00; -1.6624832E+00;  4.0000000E+04;  0.0000000E+00;  3.9322984E+04;  4.1675937E-01;  0.0000000E+00;  2.0180796E-01;  4.2758320E+03;
  1.0617212E+00;  9.9999998E-03;  2.2201194E-01;7988;  1.4633973E-02;  0.0000000E+00; -4.4555485E-02;  1.0051134E+03;  2.7026945E-01;  4.2361250E+03;3;  2.9308693E+01;  0.0000000E+00;  1.7007771E+01;0;  5.7372963E-01;  5.6311587E+03;  0.0000000E+00; -1.5226538E+00;  4.0000000E+04;  0.0000000E+00;  3.9328344E+04;  4.2181024E-01;  0.0000000E+00;  1.5191938E-01;  5.4035161E+03;
  1.0631737E+00;  9.9999998E-03;  8.0676138E-02;7974; -4.8067890E-02;  0.0000000E+00; -2.5897246E-02;  9.9550964E+02;  2.7131617E-01; -3.7200120E+03;3;  2.0665213E+01;  0.0000000E+00;  7.7108741E+00;0;  5.2815825E-01;  5.4892290E+03;  0.0000000E+00;  7.4009366E-02;  4.0000000E+04;  0.0000000E+00;  3.9314121E+04;  8.3733761E-01;  0.0000000E+00; -3.0917937E-01;  3.5707644E+03;
  1.0615482E+00;  9.9999998E-03;  2.1198334E-01;7987;  9.1221705E-03;  0.0000000E+00; -4.6011209E-02;  1.0050255E+03;  2.7025577E-01;  4.1633408E+03;3;  2.9164564E+01;  0.0000000E+00;  1.5066290E+01;0;  5.3808957E-01;  5.6322842E+03;  0.0000000E+00; -1.3959991E+00;  4.0000000E+04;  0.0000000E+00;  3.9326984E+04;  4.3034643E-01;  0.0000000E+00;  1.0774316E-01;  5.9439517E+03;
  1.0615150E+00;  9.9999998E-03;  2.0194830E-01;7986;  3.0512582E-03;  0.0000000E+00; -4.6154112E-02;  1.0047242E+03;  2.7029449E-01;  3.9136812E+03;3;  2.8874069E+01;  0.0000000E+00;  1.4717747E+01;0;  5.0621790E-01;  5.6289854E+03;  0.0000000E+00; -1.2602072E+00;  4.0000000E+04;  0.0000000E+00;  3.9327848E+04;  4.4315225E-01;  0.0000000E+00;  6.3065656E-02;  6.7187144E+03;
  1.0636408E+00;  9.9999998E-03;  9.0766199E-02;7975; -4.5964543E-02;  0.0000000E+00; -2.8850859E-02;  9.9589935E+02;  2.7139693E-01; -3.3971223E+03;3;  2.0646372E+01;  0.0000000E+00;  8.7138166E+00;0;  5.2439183E-01;  5.4918008E+03;  0.0000000E+00;  2.3517167E-02;  4.0000000E+04;  0.0000000E+00;  3.9315891E+04;  8.2070053E-01;  0.0000000E+00; -2.9630870E-01;  3.7845002E+03;
  1.0615842E+00;  9.9999998E-03;  1.9188172E-01;7985; -3.1565528E-03;  0.0000000E+00; -4.5849621E-02;  1.0041906E+03;  2.7038211E-01;  3.4716399E+03;3;  2.7752840E+01;  0.0000000E+00;  1.4156513E+01;0;  4.7858304E-01;  5.6216206E+03;  0.0000000E+00; -1.1120806E+00;  4.0000000E+04;  0.0000000E+00;  3.9328699E+04;  4.6077445E-01;  0.0000000E+00;  1.7808581E-02;  7.4131396E+03;
  1.0617630E+00;  9.9999998E-03;  1.8179275E-01;7984; -9.1012223E-03;  0.0000000E+00; -4.5275725E-02;  1.0034373E+03;  2.7051634E-01;  2.8475879E+03;3;  2.6827732E+01;  0.0000000E+00;  1.4066625E+01;0;  4.5693535E-01;  5.6105410E+03;  0.0000000E+00; -9.6117693E-01;  4.0000000E+04;  0.0000000E+00;  3.9328141E+04;  4.8388380E-01;  0.0000000E+00; -2.6948443E-02;  7.7632793E+03;
  1.0622045E+00;  9.9999998E-03;  1.7169833E-01;7983; -1.4620828E-02;  0.0000000E+00; -4.4621851E-02;  1.0024931E+03;  2.7071139E-01;  2.0654238E+03;3;  2.5680779E+01;  0.0000000E+00;  1.3580041E+01;0;  4.4469714E-01;  5.5949741E+03;  0.0000000E+00; -8.1804746E-01;  4.0000000E+04;  0.0000000E+00;  3.9326070E+04;  5.1515663E-01;  0.0000000E+00; -7.0459478E-02;  7.7180986E+03;
  1.0641824E+00;  9.9999998E-03;  1.0086114E-01;7976; -4.3494467E-02;  0.0000000E+00; -3.1735204E-02;  9.9632709E+02;  2.7148563E-01; -3.0427776E+03;3;  2.1130709E+01;  0.0000000E+00;  9.4223547E+00;0;  5.2166045E-01;  5.4947798E+03;  0.0000000E+00; -5.5605803E-02;  4.0000000E+04;  0.0000000E+00;  3.9317266E+04;  8.0310422E-01;  0.0000000E+00; -2.8144377E-01;  4.0044644E+03;
  1.0629212E+00;  9.9999998E-03;  1.6160233E-01;7982; -1.9623069E-02;  0.0000000E+00; -4.3881238E-02;  1.0014237E+03;  2.7095398E-01;  1.1794657E+03;3;  2.5244198E+01;  0.0000000E+00;  1.2964277E+01;0;  4.4411367E-01;  5.5757441E+03;  0.0000000E+00; -6.8913287E-01;  4.0000000E+04;  0.0000000E+00;  3.9323953E+04;  5.5623847E-01;  0.0000000E+00; -1.1212479E-01;  7.2869707E+03;
  1.0646216E+00;  9.9999998E-03;  1.1097445E-01;7977; -4.0473513E-02;  0.0000000E+00; -3.4611303E-02;  9.9684790E+02;  2.7155048E-01; -2.6113040E+03;3;  2.2076408E+01;  0.0000000E+00;  9.6592770E+00;0;  5.1556182E-01;  5.4999917E+03;  0.0000000E+00; -1.5641606E-01;  4.0000000E+04;  0.0000000E+00;  3.9318336E+04;  7.7920395E-01;  0.0000000E+00; -2.6364213E-01;  4.2094604E+03;
  1.0636010E+00;  9.9999998E-03;  1.5148304E-01;7981; -2.4399269E-02;  0.0000000E+00; -4.2786665E-02;  1.0003266E+03;  2.7117500E-01;  2.7059656E+02;3;  2.4646839E+01;  0.0000000E+00;  1.2432230E+01;0;  4.5185864E-01;  5.5563945E+03;  0.0000000E+00; -5.7535326E-01;  4.0000000E+04;  0.0000000E+00;  3.9321957E+04;  6.0262102E-01;  0.0000000E+00; -1.5076238E-01;  6.5284487E+03;
  1.0647062E+00;  9.9999998E-03;  1.2109675E-01;7978; -3.6956348E-02;  0.0000000E+00; -3.7226710E-02;  9.9751801E+02;  2.7154118E-01; -2.0561863E+03;3;  2.2917566E+01;  0.0000000E+00;  1.0435450E+01;0;  5.0115454E-01;  5.5095483E+03;  0.0000000E+00; -2.6582453E-01;  4.0000000E+04;  0.0000000E+00;  3.9319207E+04;  7.4287915E-01;  0.0000000E+00; -2.4172461E-01;  4.4821523E+03;
  1.0641605E+00;  9.9999998E-03;  1.4135376E-01;7980; -2.8866723E-02;  0.0000000E+00; -4.1329641E-02;  9.9928009E+02;  2.7135167E-01; -5.9639850E+02;3;  2.4244669E+01;  0.0000000E+00;  1.1845872E+01;0;  4.6594632E-01;  5.5382773E+03;  0.0000000E+00; -4.7240007E-01;  4.0000000E+04;  0.0000000E+00;  3.9320547E+04;  6.5138066E-01;  0.0000000E+00; -1.8543433E-01;  5.6678086E+03;
  1.0645336E+00;  9.9999998E-03;  1.3122454E-01;7979; -3.3094808E-02;  0.0000000E+00; -3.9462347E-02;  9.9833386E+02;  2.7147540E-01; -1.3802883E+03;3;  2.3442774E+01;  0.0000000E+00;  1.1175196E+01;0;  4.8332095E-01;  5.5225132E+03;  0.0000000E+00; -3.7164250E-01;  4.0000000E+04;  0.0000000E+00;  3.9319668E+04;  6.9902384E-01;  0.0000000E+00; -2.1570288E-01;  4.9478066E+03;
  1.0885268E+00;  9.9999998E-03;  2.3212869E-01;8050;  3.7014045E-02;  0.0000000E+00; -7.4580424E-02;  1.0013201E+03;  2.7079770E-01;  1.0936206E+03;3;  4.5588699E+01;  0.0000000E+00;  1.4534399E+01;0;  7.6368475E-01;  5.5646260E+03;  0.0000000E+00; -2.0502830E+00;  4.0000000E+04;  0.0000000E+00;  3.9331305E+04;  5.9923202E-01;  0.0000000E+00;  1.6445270E-01;  6.7940068E+03;
  1.0883309E+00;  9.9999998E-03;  2.2205310E-01;8049;  3.1596646E-02;  0.0000000E+00; -7.5560689E-02;  1.0012621E+03;  2.7076057E-01;  1.0455267E+03;3;  4.3485558E+01;  0.0000000E+00;  1.4285058E+01;0;  7.8136158E-01;  5.5664048E+03;  0.0000000E+00; -1.6385192E+00;  4.0000000E+04;  0.0000000E+00;  3.9330027E+04;  6.5423870E-01;  0.0000000E+00;  1.2712289E-01;  8.4033672E+03;
  1.0882820E+00;  9.9999998E-03;  2.1203151E-01;8048;  2.5771320E-02;  0.0000000E+00; -7.5508259E-02;  1.0008329E+03;  2.7076465E-01;  6.9000623E+02;3;  4.1292755E+01;  0.0000000E+00;  1.4176035E+01;0;  8.0296069E-01;  5.5643047E+03;  0.0000000E+00; -1.2682523E+00;  4.0000000E+04;  0.0000000E+00;  3.9322828E+04;  7.1990025E-01;  0.0000000E+00;  8.3060421E-02;  9.9311572E+03;
  1.0883687E+00;  9.9999998E-03;  2.0201974E-01;8047;  1.9613512E-02;  0.0000000E+00; -7.4815944E-02;  1.0001745E+03;  2.7079099E-01;  1.4457835E+02;3;  3.9224388E+01;  0.0000000E+00;  1.4056131E+01;0;  8.3127594E-01;  5.5586772E+03;  0.0000000E+00; -9.3343943E-01;  4.0000000E+04;  0.0000000E+00;  3.9318047E+04;  7.9735970E-01;  0.0000000E+00;  3.3916213E-02;  1.1516130E+04;
  1.0887370E+00;  9.9999998E-03;  1.9198096E-01;8046;  1.3076955E-02;  0.0000000E+00; -7.3846698E-02;  9.9926099E+02;  2.7084970E-01; -6.1223578E+02;3;  3.7447544E+01;  0.0000000E+00;  1.3290245E+01;0;  8.7247664E-01;  5.5491650E+03;  0.0000000E+00; -6.4229304E-01;  4.0000000E+04;  0.0000000E+00;  3.9314648E+04;  8.9099288E-01;  0.0000000E+00; -1.8516263E-02;  1.2622607E+04;
  1.0910319E+00;  9.9999998E-03;  7.0718117E-02;8034; -4.8185859E-02;  0.0000000E+00; -3.3449065E-02;  9.8901715E+02;  2.7156398E-01; -9.0984365E+03;3;  1.9575056E+01;  0.0000000E+00;  6.5767226E+00;0;  1.7217889E+00;  5.4125151E+03;  0.0000000E+00;  2.7384186E-01;  4.0000000E+04;  0.0000000E+00;  3.9279680E+04;  2.1529138E+00;  0.0000000E+00; -4.3112490E-01;  1.2406591E+03;
  1.0892707E+00;  9.9999998E-03;  1.8191803E-01;8045;  6.2708352E-03;  0.0000000E+00; -7.2495162E-02;  9.9814740E+02;  2.7093676E-01; -1.5347117E+03;3;  3.5362881E+01;  0.0000000E+00;  1.3059183E+01;0;  9.2771071E-01;  5.5366436E+03;  0.0000000E+00; -4.1698700E-01;  4.0000000E+04;  0.0000000E+00;  3.9310258E+04;  9.9977732E-01;  0.0000000E+00; -7.2066583E-02;  1.2842511E+04;
  1.0913860E+00;  9.9999998E-03;  8.0809996E-02;8035; -4.5586981E-02;  0.0000000E+00; -3.8218580E-02;  9.8939441E+02;  2.7154374E-01; -8.7858721E+03;3;  2.0172337E+01;  0.0000000E+00;  7.5952616E+00;0;  1.6860154E+00;  5.4180771E+03;  0.0000000E+00;  2.4847230E-01;  4.0000000E+04;  0.0000000E+00;  3.9282016E+04;  2.1028612E+00;  0.0000000E+00; -4.1684583E-01;  1.3959336E+03;
  1.0899649E+00;  9.9999998E-03;  1.7182860E-01;8044; -4.9743394E-04;  0.0000000E+00; -7.0895597E-02;  9.9688794E+02;  2.7104262E-01; -2.5781123E+03;3;  3.3255554E+01;  0.0000000E+00;  1.2698722E+01;0;  9.9905181E-01;  5.5219180E+03;  0.0000000E+00; -2.7548090E-01;  4.0000000E+04;  0.0000000E+00;  3.9304953E+04;  1.1240976E+00;  0.0000000E+00; -1.2504579E-01;  1.2032080E+04;
  1.0918896E+00;  9.9999998E-03;  9.0889007E-02;8036; -4.2414561E-02;  0.0000000E+00; -4.3064237E-02;  9.8977777E+02;  2.7152842E-01; -8.4683193E+03;3;  2.1061504E+01;  0.0000000E+00;  8.8119421E+00;0;  1.6516442E+00;  5.4239414E+03;  0.0000000E+00;  1.6894764E-01;  4.0000000E+04;  0.0000000E+00;  3.9284773E+04;  2.0522206E+00;  0.0000000E+00; -4.0057629E-01;  1.5610956E+03;
  1.0907713E+00;  9.9999998E-03;  1.6170691E-01;8043; -7.0374459E-03;  0.0000000E+00; -6.8964146E-02;  9.9557538E+02;  2.7114591E-01; -3.6654565E+03;3;  3.0997961E+01;  0.0000000E+00;  1.2681962E+01;0;  1.0864482E+00;  5.5061279E+03;  0.0000000E+00; -2.1966699E-01;  4.0000000E+04;  0.0000000E+00;  3.9299551E+04;  1.2623168E+00;  0.0000000E+00; -1.7586863E-01;  1.0275016E+04;
  1.0923429E+00;  9.9999998E-03;  1.0096480E-01;8037; -3.8705513E-02;  0.0000000E+00; -4.7798924E-02;  9.9021539E+02;  2.7150878E-01; -8.1057349E+03;3;  2.1404245E+01;  0.0000000E+00;  9.5430689E+00;0;  1.6075613E+00;  5.4308154E+03;  0.0000000E+00;  4.6857193E-02;  4.0000000E+04;  0.0000000E+00;  3.9287387E+04;  1.9889929E+00;  0.0000000E+00; -3.8143155E-01;  1.7555157E+03;
  1.0915288E+00;  9.9999998E-03;  1.5155967E-01;8042; -1.3334665E-02;  0.0000000E+00; -6.6625364E-02;  9.9430408E+02;  2.7124053E-01; -4.7186304E+03;3;  2.8212645E+01;  0.0000000E+00;  1.2102401E+01;0;  1.1842133E+00;  5.4902974E+03;  0.0000000E+00; -2.2685963E-01;  4.0000000E+04;  0.0000000E+00;  3.9295109E+04;  1.4070121E+00;  0.0000000E+00; -2.2279887E-01;  7.9117446E+03;
  1.0926327E+00;  9.9999998E-03;  1.1104865E-01;8038; -3.4610264E-02;  0.0000000E+00; -5.2295528E-02;  9.9074976E+02;  2.7148569E-01; -7.6630620E+03;3;  2.1787012E+01;  0.0000000E+00;  1.0490395E+01;0;  1.5484186E+00;  5.4391650E+03;  0.0000000E+00; -8.7418631E-02;  4.0000000E+04;  0.0000000E+00;  3.9289031E+04;  1.9072250E+00;  0.0000000E+00; -3.5880634E-01;  1.9795776E+03;
  1.0921174E+00;  9.9999998E-03;  1.4140636E-01;8041; -1.9299775E-02;  0.0000000E+00; -6.3737981E-02;  9.9317584E+02;  2.7132457E-01; -5.6532480E+03;3;  2.6434280E+01;  0.0000000E+00;  1.1634452E+01;0;  1.2849650E+00;  5.4752349E+03;  0.0000000E+00; -2.5293580E-01;  4.0000000E+04;  0.0000000E+00;  3.9292430E+04;  1.5495276E+00;  0.0000000E+00; -2.6456258E-01;  5.4843604E+03;
  1.0926840E+00;  9.9999998E-03;  1.2114489E-01;8039; -3.0102737E-02;  0.0000000E+00; -5.6459170E-02;  9.9140387E+02;  2.7144814E-01; -7.1211914E+03;3;  2.2948107E+01;  0.0000000E+00;  1.1148630E+01;0;  1.4723073E+00;  5.4493481E+03;  0.0000000E+00; -1.9603038E-01;  4.0000000E+04;  0.0000000E+00;  3.9290367E+04;  1.8044202E+00;  0.0000000E+00; -3.3211288E-01;  2.4252954E+03;
  1.0924957E+00;  9.9999998E-03;  1.3126267E-01;8040; -2.4928117E-02;  0.0000000E+00; -6.0266834E-02;  9.9220667E+02;  2.7139413E-01; -6.4561255E+03;3;  2.4847101E+01;  0.0000000E+00;  1.1372140E+01;0;  1.3823477E+00;  5.4614834E+03;  0.0000000E+00; -2.5176355E-01;  4.0000000E+04;  0.0000000E+00;  3.9290926E+04;  1.6831917E+00;  0.0000000E+00; -3.0084392E-01;  3.5435371E+03;
  1.1187489E+00;  9.9999998E-03;  7.0780456E-02;8095; -2.1752570E-02;  0.0000000E+00; -4.7850423E-02;  9.8671619E+02;  2.6810414E-01; -1.1004149E+04;3; -5.5210640E+01;  0.0000000E+00;  1.1881143E+01;0;  3.5680451E+00;  5.5284688E+03;  0.0000000E+00;  1.8891937E-01;  4.0000000E+04;  0.0000000E+00;  3.9251230E+04;  4.0782852E+00;  0.0000000E+00; -5.1024014E-01;  2.4798560E+03;
  1.1189355E+00;  9.9999998E-03;  8.0873996E-02;8096; -1.9366495E-02;  0.0000000E+00; -5.4185495E-02;  9.8698981E+02;  2.6804820E-01; -1.0777512E+04;3; -4.8672802E+01;  0.0000000E+00;  1.2733117E+01;0;  3.4857123E+00;  5.5336484E+03;  0.0000000E+00;  1.6733825E-01;  4.0000000E+04;  0.0000000E+00;  3.9255793E+04;  3.9799788E+00;  0.0000000E+00; -4.9426651E-01;  1.9295100E+03;
  1.1191998E+00;  9.9999998E-03;  9.0942018E-02;8097; -1.5704220E-02;  0.0000000E+00; -6.0444430E-02;  9.8726733E+02;  2.6798981E-01; -1.0547613E+04;3; -4.3153820E+01;  0.0000000E+00;  1.3212959E+01;0;  3.3967834E+00;  5.5393613E+03;  0.0000000E+00;  9.9937871E-02;  4.0000000E+04;  0.0000000E+00;  3.9260297E+04;  3.8728402E+00;  0.0000000E+00; -4.7605693E-01;  1.3708275E+03;
  1.1195647E+00;  9.9999998E-03;  1.0099070E-01;8098; -1.0702847E-02;  0.0000000E+00; -6.6550069E-02;  9.8755804E+02;  2.6792392E-01; -1.0306751E+04;3; -3.7541389E+01;  0.0000000E+00;  1.3571284E+01;0;  3.3022099E+00;  5.5458447E+03;  0.0000000E+00; -2.2871390E-03;  4.0000000E+04;  0.0000000E+00;  3.9263980E+04;  3.7578096E+00;  0.0000000E+00; -4.5559990E-01;  9.3592798E+02;
  1.1158047E+00;  9.9999998E-03;  2.3215725E-01;8111;  3.9119363E-02;  0.0000000E+00; -1.0143919E-01;  9.9714691E+02;  2.6760086E-01; -2.3634854E+03;3;  4.7312073E+01;  0.0000000E+00;  1.0818148E+01;0;  1.2329694E+00;  5.6464028E+03;  0.0000000E+00; -1.6541005E+00;  4.0000000E+04;  0.0000000E+00;  3.9342363E+04;  1.1504604E+00;  0.0000000E+00;  8.2509078E-02;  8.5295840E+03;
  1.1156317E+00;  9.9999998E-03;  2.2207280E-01;8110;  3.4328207E-02;  0.0000000E+00; -1.0139642E-01;  9.9685529E+02;  2.6755413E-01; -2.6050833E+03;3;  4.5015137E+01;  0.0000000E+00;  1.0952277E+01;0;  1.3347874E+00;  5.6468091E+03;  0.0000000E+00; -1.0502417E+00;  4.0000000E+04;  0.0000000E+00;  3.9334688E+04;  1.2838918E+00;  0.0000000E+00;  5.0895542E-02;  9.4505947E+03;
  1.1155937E+00;  9.9999998E-03;  2.1203914E-01;8109;  2.9329970E-02;  0.0000000E+00; -1.0072027E-01;  9.9620380E+02;  2.6754236E-01; -3.1447644E+03;3;  4.2921432E+01;  0.0000000E+00;  1.0905529E+01;0;  1.4465210E+00;  5.6435830E+03;  0.0000000E+00; -5.6761342E-01;  4.0000000E+04;  0.0000000E+00;  3.9321297E+04;  1.4373184E+00;  0.0000000E+00;  9.2025893E-03;  1.0764458E+04;
  1.1157186E+00;  9.9999998E-03;  2.0202398E-01;8108;  2.3946371E-02;  0.0000000E+00; -9.9474676E-02;  9.9534399E+02;  2.6754743E-01; -3.8570137E+03;3;  4.1043503E+01;  0.0000000E+00;  1.0545692E+01;0;  1.5732200E+00;  5.6373555E+03;  0.0000000E+00; -1.9328448E-01;  4.0000000E+04;  0.0000000E+00;  3.9310266E+04;  1.6124165E+00;  0.0000000E+00; -3.9196432E-02;  1.2258732E+04;
  1.1200919E+00;  9.9999998E-03;  1.1104561E-01;8099; -4.3628532E-03;  0.0000000E+00; -7.2659247E-02;  9.8786938E+02;  2.6783597E-01; -1.0048854E+04;3; -3.3288361E+01;  0.0000000E+00;  1.3560861E+01;0;  3.2054002E+00;  5.5537373E+03;  0.0000000E+00; -1.0917915E-01;  4.0000000E+04;  0.0000000E+00;  3.9266430E+04;  3.6382468E+00;  0.0000000E+00; -4.3284658E-01;  6.6732733E+02;
  1.1161271E+00;  9.9999998E-03;  1.9197834E-01;8107;  1.7945463E-02;  0.0000000E+00; -9.7793579E-02;  9.9432562E+02;  2.6755312E-01; -4.7006016E+03;3;  3.8610924E+01;  0.0000000E+00;  1.0473005E+01;0;  1.7230605E+00;  5.6291421E+03;  0.0000000E+00;  7.3776491E-02;  4.0000000E+04;  0.0000000E+00;  3.9301656E+04;  1.8151563E+00;  0.0000000E+00; -9.2095815E-02;  1.3176155E+04;
  1.1166937E+00;  9.9999998E-03;  1.8188573E-01;8106;  1.1568697E-02;  0.0000000E+00; -9.5759377E-02;  9.9319684E+02;  2.6756966E-01; -5.6356802E+03;3;  3.5528942E+01;  0.0000000E+00;  1.0834675E+01;0;  1.8934019E+00;  5.6195210E+03;  0.0000000E+00;  2.2251031E-01;  4.0000000E+04;  0.0000000E+00;  3.9293520E+04;  2.0401347E+00;  0.0000000E+00; -1.4673285E-01;  1.3040374E+04;
  1.1204165E+00;  9.9999998E-03;  1.2111043E-01;8100; -2.0074612E-03;  0.0000000E+00; -7.7763215E-02;  9.8822406E+02;  2.6775506E-01; -9.7550117E+03;3; -2.4999193E+01;  0.0000000E+00;  1.3033004E+01;0;  3.0813584E+00;  5.5622129E+03;  0.0000000E+00; -1.7974010E-01;  4.0000000E+04;  0.0000000E+00;  3.9267574E+04;  3.4881399E+00;  0.0000000E+00; -4.0678135E-01;  7.2819434E+02;
  1.1174041E+00;  9.9999998E-03;  1.7174974E-01;8105;  5.2346513E-03;  0.0000000E+00; -9.3461983E-02;  9.9204669E+02;  2.6759228E-01; -6.5884321E+03;3;  3.0356588E+01;  0.0000000E+00;  1.1012493E+01;0;  2.0837426E+00;  5.6090991E+03;  0.0000000E+00;  2.4737431E-01;  4.0000000E+04;  0.0000000E+00;  3.9285031E+04;  2.2845883E+00;  0.0000000E+00; -2.0084579E-01;  1.1731011E+04;
  1.1203084E+00;  9.9999998E-03;  1.3119110E-01;8101; -3.7151023E-03;  0.0000000E+00; -8.1890903E-02;  9.8867322E+02;  2.6769626E-01; -9.3829688E+03;3; -1.2829109E+01;  0.0000000E+00;  1.3209694E+01;0;  2.9173653E+00;  5.5707061E+03;  0.0000000E+00; -1.8062499E-01;  4.0000000E+04;  0.0000000E+00;  3.9268574E+04;  3.2936842E+00;  0.0000000E+00; -3.7631887E-01;  1.8885316E+03;
  1.1182215E+00;  9.9999998E-03;  1.6158980E-01;8104; -3.8707227E-04;  0.0000000E+00; -9.0933353E-02;  9.9096222E+02;  2.6761499E-01; -7.4868184E+03;3;  2.3816711E+01;  0.0000000E+00;  1.1590974E+01;0;  2.2907929E+00;  5.5986245E+03;  0.0000000E+00;  1.6748533E-01;  4.0000000E+04;  0.0000000E+00;  3.9277793E+04;  2.5430987E+00;  0.0000000E+00; -2.5230563E-01;  9.4551611E+03;
  1.1190715E+00;  9.9999998E-03;  1.5143171E-01;8103; -4.1308077E-03;  0.0000000E+00; -8.8241138E-02;  9.9001581E+02;  2.6763475E-01; -8.2707969E+03;3;  1.4853921E+01;  0.0000000E+00;  1.1546289E+01;0;  2.5075223E+00;  5.5887139E+03;  0.0000000E+00;  3.0507581E-02;  4.0000000E+04;  0.0000000E+00;  3.9272672E+04;  2.8068271E+00;  0.0000000E+00; -2.9930469E-01;  6.6800957E+03;
  1.1197830E+00;  9.9999998E-03;  1.4129563E-01;8102; -5.3243320E-03;  0.0000000E+00; -8.5251048E-02;  9.8925830E+02;  2.6766199E-01; -8.8983037E+03;3;  2.2116203E+00;  0.0000000E+00;  1.2578106E+01;0;  2.7192860E+00;  5.5793613E+03;  0.0000000E+00; -1.0269016E-01;  4.0000000E+04;  0.0000000E+00;  3.9269742E+04;  3.0598924E+00;  0.0000000E+00; -3.4060639E-01;  3.9926982E+03;
  1.1460248E+00;  9.9999998E-03;  7.0857145E-02;8156;  1.4382011E-01;  0.0000000E+00; -5.7152059E-02;  9.8877637E+02;  2.6257706E-01; -9.2970029E+03;3; -1.4441826E+02;  0.0000000E+00;  1.0104731E-01;0;  5.5938416E+00;  5.7882070E+03;  0.0000000E+00;  1.9801823E-02;  4.0000000E+04;  0.0000000E+00;  3.9219062E+04;  6.1102462E+00;  0.0000000E+00; -5.1640457E-01;  6.9669849E+03;
  1.1462755E+00;  9.9999998E-03;  8.0956690E-02;8157;  1.3860269E-01;  0.0000000E+00; -6.4365953E-02;  9.8886859E+02;  2.6248085E-01; -9.2206162E+03;3; -1.3753268E+02;  0.0000000E+00;  2.6318711E-01;0;  5.4983511E+00;  5.7922324E+03;  0.0000000E+00;  3.5732910E-02;  4.0000000E+04;  0.0000000E+00;  3.9225766E+04;  6.0023875E+00;  0.0000000E+00; -5.0403649E-01;  6.1579023E+03;
  1.1436836E+00;  9.9999998E-03;  2.3225972E-01;8172;  3.5230890E-02;  0.0000000E+00; -1.2065261E-01;  9.9288422E+02;  2.6206607E-01; -5.8943418E+03;3;  4.9349648E+01;  0.0000000E+00;  3.9034979E+00;0;  2.3674860E+00;  5.8359995E+03;  0.0000000E+00; -6.7973566E-01;  4.0000000E+04;  0.0000000E+00;  3.9337203E+04;  2.4316089E+00;  0.0000000E+00; -6.4122818E-02;  7.7127241E+03;
  1.1467246E+00;  9.9999998E-03;  9.1034070E-02;8158;  1.3660853E-01;  0.0000000E+00; -7.1291924E-02;  9.8894257E+02;  2.6236072E-01; -9.1593340E+03;3; -1.2936165E+02;  0.0000000E+00;  4.2765122E-02;0;  5.4017706E+00;  5.7974438E+03;  0.0000000E+00;  4.1052490E-02;  4.0000000E+04;  0.0000000E+00;  3.9231930E+04;  5.8915081E+00;  0.0000000E+00; -4.8973763E-01;  5.4328555E+03;
  1.1435550E+00;  9.9999998E-03;  2.2215798E-01;8171;  3.0593213E-02;  0.0000000E+00; -1.1918991E-01;  9.9271008E+02;  2.6203313E-01; -6.0386128E+03;3;  4.8006645E+01;  0.0000000E+00;  3.3252730E+00;0;  2.5608346E+00;  5.8362407E+03;  0.0000000E+00; -1.5380424E-01;  4.0000000E+04;  0.0000000E+00;  3.9329629E+04;  2.6409528E+00;  0.0000000E+00; -8.0118254E-02;  6.8749741E+03;
  1.1435422E+00;  9.9999998E-03;  2.1207719E-01;8170;  2.5219811E-02;  0.0000000E+00; -1.1739010E-01;  9.9226233E+02;  2.6201776E-01; -6.4095063E+03;3;  4.5549789E+01;  0.0000000E+00;  3.3304210E+00;0;  2.7666914E+00;  5.8345767E+03;  0.0000000E+00;  2.1576999E-01;  4.0000000E+04;  0.0000000E+00;  3.9316586E+04;  2.8761992E+00;  0.0000000E+00; -1.0950787E-01;  6.2395005E+03;
  1.1471986E+00;  9.9999998E-03;  1.0109025E-01;8159;  1.3351281E-01;  0.0000000E+00; -7.7883333E-02;  9.8898688E+02;  2.6223910E-01; -9.1226396E+03;3; -1.2082951E+02;  0.0000000E+00;  1.2616031E-02;0;  5.2920876E+00;  5.8026660E+03;  0.0000000E+00;  4.0177166E-02;  4.0000000E+04;  0.0000000E+00;  3.9236902E+04;  5.7658887E+00;  0.0000000E+00; -4.7380111E-01;  4.8559634E+03;
  1.1436677E+00;  9.9999998E-03;  2.0201503E-01;8169;  1.9820027E-02;  0.0000000E+00; -1.1556988E-01;  9.9165332E+02;  2.6201501E-01; -6.9139517E+03;3;  3.9764061E+01;  0.0000000E+00;  4.2079043E+00;0;  2.9889054E+00;  5.8312720E+03;  0.0000000E+00;  4.6506241E-01;  4.0000000E+04;  0.0000000E+00;  3.9302238E+04;  3.1365855E+00;  0.0000000E+00; -1.4768016E-01;  6.1829658E+03;
  1.1476130E+00;  9.9999998E-03;  1.1113707E-01;8160;  1.2796019E-01;  0.0000000E+00; -8.3898790E-02;  9.8898553E+02;  2.6212886E-01; -9.1237158E+03;3; -1.1197773E+02;  0.0000000E+00; -2.6319221E-01;0;  5.1634064E+00;  5.8073843E+03;  0.0000000E+00;  4.7527481E-02;  4.0000000E+04;  0.0000000E+00;  3.9240441E+04;  5.6196699E+00;  0.0000000E+00; -4.5626351E-01;  4.4301108E+03;
  1.1439191E+00;  9.9999998E-03;  1.9193274E-01;8168;  1.8022418E-02;  0.0000000E+00; -1.1420158E-01;  9.9098218E+02;  2.6202211E-01; -7.4698916E+03;3;  1.1472285E+01;  0.0000000E+00;  7.9285927E+00;0;  3.2278841E+00;  5.8269170E+03;  0.0000000E+00;  6.1379975E-01;  4.0000000E+04;  0.0000000E+00;  3.9289309E+04;  3.4188075E+00;  0.0000000E+00; -1.9092341E-01;  6.4319551E+03;
  1.1478854E+00;  9.9999998E-03;  1.2118471E-01;8161;  1.1832926E-01;  0.0000000E+00; -8.9418575E-02;  9.8895251E+02;  2.6203614E-01; -9.1510625E+03;3; -1.0313651E+02;  0.0000000E+00; -1.3949814E-01;0;  5.0102072E+00;  5.8113911E+03;  0.0000000E+00;  8.2768753E-02;  4.0000000E+04;  0.0000000E+00;  3.9242816E+04;  5.4470892E+00;  0.0000000E+00; -4.3688178E-01;  4.0891626E+03;
  1.1443076E+00;  9.9999998E-03;  1.8181229E-01;8167;  2.3325620E-02;  0.0000000E+00; -1.1297834E-01;  9.9031299E+02;  2.6203135E-01; -8.0241987E+03;3; -1.2166368E+01;  0.0000000E+00;  8.4344521E+00;0;  3.4828484E+00;  5.8222983E+03;  0.0000000E+00;  6.6995341E-01;  4.0000000E+04;  0.0000000E+00;  3.9277324E+04;  3.7187879E+00;  0.0000000E+00; -2.3593956E-01;  6.4025181E+03;
  1.1448981E+00;  9.9999998E-03;  1.7166387E-01;8166;  3.1592410E-02;  0.0000000E+00; -1.1098209E-01;  9.8971423E+02;  2.6202944E-01; -8.5201914E+03;3; -3.1262751E+01;  0.0000000E+00;  7.3134756E+00;0;  3.7542276E+00;  5.8184512E+03;  0.0000000E+00;  6.4073718E-01;  4.0000000E+04;  0.0000000E+00;  3.9266523E+04;  4.0344977E+00;  0.0000000E+00; -2.8027007E-01;  5.8696079E+03;
  1.1478499E+00;  9.9999998E-03;  1.3123921E-01;8162;  1.0302894E-01;  0.0000000E+00; -9.4531864E-02;  9.8890582E+02;  2.6197475E-01; -9.1897227E+03;3; -9.3570099E+01;  0.0000000E+00;  3.2869443E-01;0;  4.8214984E+00;  5.8140596E+03;  0.0000000E+00;  1.5904428E-01;  4.0000000E+04;  0.0000000E+00;  3.9244469E+04;  5.2364759E+00;  0.0000000E+00; -4.1497749E-01;  3.7966870E+03;
  1.1456972E+00;  9.9999998E-03;  1.6151646E-01;8165;  4.3604270E-02;  0.0000000E+00; -1.0813408E-01;  9.8925183E+02;  2.6201117E-01; -8.9031611E+03;3; -4.9909294E+01;  0.0000000E+00;  5.6729107E+00;0;  4.0381012E+00;  5.8160903E+03;  0.0000000E+00;  5.4479027E-01;  4.0000000E+04;  0.0000000E+00;  3.9257461E+04;  4.3598619E+00;  0.0000000E+00; -3.2176080E-01;  4.9677710E+03;
  1.1473256E+00;  9.9999998E-03;  1.4130992E-01;8163;  8.1902601E-02;  0.0000000E+00; -9.9633083E-02;  9.8888586E+02;  2.6197025E-01; -9.2062744E+03;3; -8.2064743E+01;  0.0000000E+00;  1.6240366E+00;0;  4.5852666E+00;  5.8146738E+03;  0.0000000E+00;  2.7308595E-01;  4.0000000E+04;  0.0000000E+00;  3.9247047E+04;  4.9745002E+00;  0.0000000E+00; -3.8923356E-01;  3.6972698E+03;
  1.1465629E+00;  9.9999998E-03;  1.5139873E-01;8164;  6.0851924E-02;  0.0000000E+00; -1.0436904E-01;  9.8898315E+02;  2.6198480E-01; -9.1257158E+03;3; -6.7754631E+01;  0.0000000E+00;  3.5256207E+00;0;  4.3202000E+00;  5.8150630E+03;  0.0000000E+00;  4.1113722E-01;  4.0000000E+04;  0.0000000E+00;  3.9250887E+04;  4.6785593E+00;  0.0000000E+00; -3.5835934E-01;  4.1018145E+03;
  1.1713271E+00;  9.9999998E-03;  2.1213964E-01;8231;  6.2838115E-02;  0.0000000E+00; -1.2062164E-01;  9.9017505E+02;  2.5492439E-01; -8.1377891E+03;3; -5.6980892E+01;  0.0000000E+00; -8.9709177E+00;0;  4.6848483E+00;  6.1368423E+03;  0.0000000E+00;  1.5579416E+00;  4.0000000E+04;  0.0000000E+00;  3.9307441E+04;  4.9284139E+00;  0.0000000E+00; -2.4356562E-01;  3.5092451E+03;
  1.1714877E+00;  9.9999998E-03;  2.0203543E-01;8230;  9.2792146E-02;  0.0000000E+00; -1.1801152E-01;  9.9017505E+02;  2.5493282E-01; -8.1377837E+03;3; -6.8149567E+01;  0.0000000E+00; -1.0929315E+01;0;  4.9216232E+00;  6.1394272E+03;  0.0000000E+00;  1.6132334E+00;  4.0000000E+04;  0.0000000E+00;  3.9291539E+04;  5.1811409E+00;  0.0000000E+00; -2.5951779E-01;  1.5504132E+03;
  1.1712954E+00;  9.9999998E-03;  2.2225837E-01;8232;  3.1304527E-02;  0.0000000E+00; -1.2227634E-01;  9.9004803E+02;  2.5491333E-01; -8.2429951E+03;3; -3.5445923E+01;  0.0000000E+00; -9.3686666E+00;0;  4.4572687E+00;  6.1340762E+03;  0.0000000E+00;  1.3604674E+00;  4.0000000E+04;  0.0000000E+00;  3.9319297E+04;  4.6933432E+00;  0.0000000E+00; -2.3607424E-01;  5.0932690E+03;
  1.1713974E+00;  9.9999998E-03;  2.3238087E-01;8233;  2.5388090E-02;  0.0000000E+00; -1.2387814E-01;  9.8970831E+02;  2.5489902E-01; -8.5243975E+03;3;  4.5844353E+01;  0.0000000E+00; -1.0083218E+01;0;  4.2322702E+00;  6.1313032E+03;  0.0000000E+00;  9.2884004E-01;  4.0000000E+04;  0.0000000E+00;  3.9323789E+04;  4.4752460E+00;  0.0000000E+00; -2.4297547E-01;  5.9778926E+03;
  1.1717885E+00;  9.9999998E-03;  1.9193026E-01;8229;  1.2094075E-01;  0.0000000E+00; -1.1470451E-01;  9.9016010E+02;  2.5493330E-01; -8.1501665E+03;3; -7.9347092E+01;  0.0000000E+00; -1.2160784E+01;0;  5.1651082E+00;  6.1424131E+03;  0.0000000E+00;  1.5846525E+00;  4.0000000E+04;  0.0000000E+00;  3.9275023E+04;  5.4463730E+00;  0.0000000E+00; -2.8126499E-01;  9.6936047E+02;
  1.1721944E+00;  9.9999998E-03;  1.8181455E-01;8228;  1.4798646E-01;  0.0000000E+00; -1.1099973E-01;  9.9018896E+02;  2.5492784E-01; -8.1262593E+03;3; -9.1916229E+01;  0.0000000E+00; -1.3729542E+01;0;  5.4093471E+00;  6.1461440E+03;  0.0000000E+00;  1.5017157E+00;  4.0000000E+04;  0.0000000E+00;  3.9259500E+04;  5.7148976E+00;  0.0000000E+00; -3.0555072E-01;  2.6903784E+03;
  1.1726761E+00;  9.9999998E-03;  1.7169073E-01;8227;  1.7527655E-01;  0.0000000E+00; -1.0685355E-01;  9.9030908E+02;  2.5490832E-01; -8.0267666E+03;3; -1.0484409E+02;  0.0000000E+00; -1.4459551E+01;0;  5.6485734E+00;  6.1510752E+03;  0.0000000E+00;  1.3760592E+00;  4.0000000E+04;  0.0000000E+00;  3.9245820E+04;  5.9779859E+00;  0.0000000E+00; -3.2941258E-01;  4.3462407E+03;
  1.1733767E+00;  9.9999998E-03;  1.6158570E-01;8226;  2.0707811E-01;  0.0000000E+00; -1.0149658E-01;  9.9058112E+02;  2.5485313E-01; -7.8014258E+03;3; -1.1699287E+02;  0.0000000E+00; -1.5436079E+01;0;  5.8870792E+00;  6.1587256E+03;  0.0000000E+00;  1.2197468E+00;  4.0000000E+04;  0.0000000E+00;  3.9234570E+04;  6.2374787E+00;  0.0000000E+00; -3.5039937E-01;  5.7580928E+03;
  1.1735058E+00;  9.9999998E-03;  7.0895001E-02;8217;  3.9311662E-01;  0.0000000E+00; -4.9310088E-02;  9.9307324E+02;  2.5536618E-01; -5.7372583E+03;3; -1.7601288E+02;  0.0000000E+00; -9.6644363E+00;0;  7.0701637E+00;  6.1752793E+03;  0.0000000E+00; -7.3750377E-02;  4.0000000E+04;  0.0000000E+00;  3.9181160E+04;  7.4880691E+00;  0.0000000E+00; -4.1790518E-01;  1.2682117E+04;
  1.1736059E+00;  9.9999998E-03;  8.1016012E-02;8218;  3.7881425E-01;  0.0000000E+00; -5.5743188E-02;  9.9299847E+02;  2.5527039E-01; -5.7991650E+03;3; -1.7222774E+02;  0.0000000E+00; -1.0811036E+01;0;  6.9943128E+00;  6.1767212E+03;  0.0000000E+00; -4.2805228E-02;  4.0000000E+04;  0.0000000E+00;  3.9189324E+04;  7.4105911E+00;  0.0000000E+00; -4.1627830E-01;  1.1685375E+04;
  1.1737605E+00;  9.9999998E-03;  9.1117539E-02;8219;  3.6369801E-01;  0.0000000E+00; -6.1924446E-02;  9.9288354E+02;  2.5517133E-01; -5.8943452E+03;3; -1.6758942E+02;  0.0000000E+00; -1.1960644E+01;0;  6.9089427E+00;  6.1779956E+03;  0.0000000E+00;  1.7140567E-02;  4.0000000E+04;  0.0000000E+00;  3.9197316E+04;  7.3222904E+00;  0.0000000E+00; -4.1334772E-01;  1.0739042E+04;
  1.1739635E+00;  9.9999998E-03;  1.0120209E-01;8220;  3.4795591E-01;  0.0000000E+00; -6.7911774E-02;  9.9270721E+02;  2.5507021E-01; -6.0404229E+03;3; -1.6228625E+02;  0.0000000E+00; -1.3111175E+01;0;  6.8138165E+00;  6.1789292E+03;  0.0000000E+00;  1.1074447E-01;  4.0000000E+04;  0.0000000E+00;  3.9204059E+04;  7.2229276E+00;  0.0000000E+00; -4.0911090E-01;  9.9215576E+03;
  1.1742084E+00;  9.9999998E-03;  1.1127170E-01;8221;  3.3184168E-01;  0.0000000E+00; -7.3588446E-02;  9.9247192E+02;  2.5497034E-01; -6.2352754E+03;3; -1.5601375E+02;  0.0000000E+00; -1.4008086E+01;0;  6.7086134E+00;  6.1795063E+03;  0.0000000E+00;  2.4138273E-01;  4.0000000E+04;  0.0000000E+00;  3.9209184E+04;  7.1122222E+00;  0.0000000E+00; -4.0360901E-01;  9.2663145E+03;
  1.1741047E+00;  9.9999998E-03;  1.5150623E-01;8225;  2.4124891E-01;  0.0000000E+00; -9.5325164E-02;  9.9097974E+02;  2.5479418E-01; -7.4712256E+03;3; -1.2685603E+02;  0.0000000E+00; -1.6099142E+01;0;  6.1100960E+00;  6.1673721E+03;  0.0000000E+00;  1.0345573E+00;  4.0000000E+04;  0.0000000E+00;  3.9226074E+04;  6.4770522E+00;  0.0000000E+00; -3.6695626E-01;  6.8669395E+03;
  1.1744859E+00;  9.9999998E-03;  1.2132600E-01;8222;  3.1545410E-01;  0.0000000E+00; -7.8963190E-02;  9.9218066E+02;  2.5487298E-01; -6.4765342E+03;3; -1.4922641E+02;  0.0000000E+00; -1.5205723E+01;0;  6.5929146E+00;  6.1796338E+03;  0.0000000E+00;  4.0959823E-01;  4.0000000E+04;  0.0000000E+00;  3.9213117E+04;  6.9897485E+00;  0.0000000E+00; -3.9683378E-01;  8.7450938E+03;
  1.1747206E+00;  9.9999998E-03;  1.3137633E-01;8223;  2.9744211E-01;  0.0000000E+00; -8.4045723E-02;  9.9184558E+02;  2.5478989E-01; -6.7540293E+03;3; -1.4210019E+02;  0.0000000E+00; -1.5955326E+01;0;  6.4632339E+00;  6.1788481E+03;  0.0000000E+00;  6.1008698E-01;  4.0000000E+04;  0.0000000E+00;  3.9216254E+04;  6.8519874E+00;  0.0000000E+00; -3.8875353E-01;  8.2651006E+03;
  1.1746334E+00;  9.9999998E-03;  1.4143583E-01;8224;  2.7312037E-01;  0.0000000E+00; -8.9301459E-02;  9.9143439E+02;  2.5475985E-01; -7.0946265E+03;3; -1.3486620E+02;  0.0000000E+00; -1.6335892E+01;0;  6.3053341E+00;  6.1749653E+03;  0.0000000E+00;  8.2628840E-01;  4.0000000E+04;  0.0000000E+00;  3.9220457E+04;  6.6845579E+00;  0.0000000E+00; -3.7922370E-01;  7.6826426E+03;
  1.1978183E+00;  9.9999998E-03;  2.0209752E-01;8291;  2.9127944E-01;  0.0000000E+00; -9.4481759E-02;  9.9236896E+02;  2.4659297E-01; -6.3199023E+03;3; -1.3391901E+02;  0.0000000E+00; -3.8108299E+01;0;  6.5697107E+00;  6.5901001E+03;  0.0000000E+00;  2.1916900E+00;  4.0000000E+04;  0.0000000E+00;  3.9277383E+04;  6.8915057E+00;  0.0000000E+00; -3.2179517E-01;  1.3277316E+03;
  1.1980028E+00;  9.9999998E-03;  1.9200940E-01;8290;  3.3068877E-01;  0.0000000E+00; -8.9620858E-02;  9.9287524E+02;  2.4660304E-01; -5.9006040E+03;3; -1.3806766E+02;  0.0000000E+00; -3.8166264E+01;0;  6.6974545E+00;  6.5990708E+03;  0.0000000E+00;  1.9389876E+00;  4.0000000E+04;  0.0000000E+00;  3.9259391E+04;  7.0150747E+00;  0.0000000E+00; -3.1762022E-01;  3.6896038E+03;
  1.1978451E+00;  9.9999998E-03;  2.1220988E-01;8292;  2.5292918E-01;  0.0000000E+00; -9.8567776E-02;  9.9187061E+02;  2.4654797E-01; -6.7326294E+03;3; -1.3052092E+02;  0.0000000E+00; -3.8033257E+01;0;  6.4405651E+00;  6.5833926E+03;  0.0000000E+00;  2.3718734E+00;  4.0000000E+04;  0.0000000E+00;  3.9293578E+04;  6.7734876E+00;  0.0000000E+00; -3.3292231E-01;  1.0273518E+03;
  1.1983384E+00;  9.9999998E-03;  1.8192795E-01;8289;  3.7095618E-01;  0.0000000E+00; -8.4070422E-02;  9.9342908E+02;  2.4658462E-01; -5.4419092E+03;3; -1.4247137E+02;  0.0000000E+00; -3.8428452E+01;0;  6.8185477E+00;  6.6098491E+03;  0.0000000E+00;  1.6719706E+00;  4.0000000E+04;  0.0000000E+00;  3.9242465E+04;  7.1350870E+00;  0.0000000E+00; -3.1653941E-01;  5.9432290E+03;
  1.1987573E+00;  9.9999998E-03;  1.7184520E-01;8288;  4.1108617E-01;  0.0000000E+00; -7.8039229E-02;  9.9401880E+02;  2.4654362E-01; -4.9534971E+03;3; -1.4649246E+02;  0.0000000E+00; -3.8260307E+01;0;  6.9286828E+00;  6.6220205E+03;  0.0000000E+00;  1.4185448E+00;  4.0000000E+04;  0.0000000E+00;  3.9227207E+04;  7.2443004E+00;  0.0000000E+00; -3.1561768E-01;  7.9510386E+03;
  1.1980530E+00;  9.9999998E-03;  2.2235401E-01;8293;  2.1296865E-01;  0.0000000E+00; -1.0204592E-01;  9.9126276E+02;  2.4647056E-01; -7.2360298E+03;3; -1.2808698E+02;  0.0000000E+00; -3.7757393E+01;0;  6.3118119E+00;  6.5783975E+03;  0.0000000E+00;  2.3748674E+00;  4.0000000E+04;  0.0000000E+00;  3.9302641E+04;  6.6673412E+00;  0.0000000E+00; -3.5552937E-01;  2.2365610E+03;
  1.1991113E+00;  9.9999998E-03;  1.6175708E-01;8287;  4.4843766E-01;  0.0000000E+00; -7.2136208E-02;  9.9462360E+02;  2.4650408E-01; -4.4526001E+03;3; -1.5017979E+02;  0.0000000E+00; -3.7881393E+01;0;  7.0233588E+00;  6.6336494E+03;  0.0000000E+00;  1.1897155E+00;  4.0000000E+04;  0.0000000E+00;  3.9214598E+04;  7.3365531E+00;  0.0000000E+00; -3.1319433E-01;  9.6296934E+03;
  1.1994555E+00;  9.9999998E-03;  1.5167977E-01;8286;  4.8399311E-01;  0.0000000E+00; -6.6328347E-02;  9.9523828E+02;  2.4646018E-01; -3.9435112E+03;3; -1.5358514E+02;  0.0000000E+00; -3.7268871E+01;0;  7.1047549E+00;  6.6454077E+03;  0.0000000E+00;  9.7839391E-01;  4.0000000E+04;  0.0000000E+00;  3.9204457E+04;  7.4130039E+00;  0.0000000E+00; -3.0824909E-01;  1.0961327E+04;
  1.1998394E+00;  9.9999998E-03;  8.1071474E-02;8279;  6.4854592E-01;  0.0000000E+00; -3.3458982E-02;  9.9788177E+02;  2.4665700E-01; -1.7542584E+03;3; -1.6683339E+02;  0.0000000E+00; -2.4941833E+01;0;  7.3855014E+00;  6.6823901E+03;  0.0000000E+00;  8.9669824E-02;  4.0000000E+04;  0.0000000E+00;  3.9157570E+04;  7.6216812E+00;  0.0000000E+00; -2.3617968E-01;  1.6868459E+04;
  1.1998073E+00;  9.9999998E-03;  9.1192581E-02;8280;  6.3066810E-01;  0.0000000E+00; -3.7859734E-02;  9.9770813E+02;  2.4660543E-01; -1.8980530E+03;3; -1.6658710E+02;  0.0000000E+00; -2.7379028E+01;0;  7.3665152E+00;  6.6802139E+03;  0.0000000E+00;  1.2177075E-01;  4.0000000E+04;  0.0000000E+00;  3.9165285E+04;  7.6157184E+00;  0.0000000E+00; -2.4920329E-01;  1.5893630E+04;
  1.1998057E+00;  9.9999998E-03;  1.4161095E-01;8285;  5.1788783E-01;  0.0000000E+00; -6.0566630E-02;  9.9586053E+02;  2.4640983E-01; -3.4282041E+03;3; -1.5628308E+02;  0.0000000E+00; -3.6294903E+01;0;  7.1736526E+00;  6.6572803E+03;  0.0000000E+00;  7.7708459E-01;  4.0000000E+04;  0.0000000E+00;  3.9196691E+04;  7.4742532E+00;  0.0000000E+00; -3.0060050E-01;  1.1979538E+04;
  1.1999675E+00;  9.9999998E-03;  7.0928134E-02;8278;  6.6583836E-01;  0.0000000E+00; -2.8983381E-02;  9.9803754E+02;  2.4669077E-01; -1.6252720E+03;3; -1.6625304E+02;  0.0000000E+00; -2.2265177E+01;0;  7.3987131E+00;  6.6852266E+03;  0.0000000E+00;  7.7866547E-02;  4.0000000E+04;  0.0000000E+00;  3.9149895E+04;  7.6206360E+00;  0.0000000E+00; -2.2192268E-01;  1.7826822E+04;
  1.1998820E+00;  9.9999998E-03;  1.0129303E-01;8281;  6.1263514E-01;  0.0000000E+00; -4.2126510E-02;  9.9750275E+02;  2.4653216E-01; -2.0681567E+03;3; -1.6538689E+02;  0.0000000E+00; -2.9636709E+01;0;  7.3416805E+00;  6.6787339E+03;  0.0000000E+00;  1.8504430E-01;  4.0000000E+04;  0.0000000E+00;  3.9173000E+04;  7.6024923E+00;  0.0000000E+00; -2.6081178E-01;  1.4986507E+04;
  1.1984890E+00;  9.9999998E-03;  2.3249465E-01;8294;  1.7261939E-01;  0.0000000E+00; -1.0497139E-01;  9.9048633E+02;  2.4636085E-01; -7.8790186E+03;3; -1.2635599E+02;  0.0000000E+00; -3.7154835E+01;0;  6.1877661E+00;  6.5762178E+03;  0.0000000E+00;  2.0474653E+00;  4.0000000E+04;  0.0000000E+00;  3.9301949E+04;  6.5825992E+00;  0.0000000E+00; -3.9483300E-01;  2.0896260E+03;
  1.1999246E+00;  9.9999998E-03;  1.3155031E-01;8284;  5.4573995E-01;  0.0000000E+00; -5.5632886E-02;  9.9639227E+02;  2.4640760E-01; -2.9878357E+03;3; -1.5909155E+02;  0.0000000E+00; -3.4976429E+01;0;  7.2286477E+00;  6.6653516E+03;  0.0000000E+00;  5.8878797E-01;  4.0000000E+04;  0.0000000E+00;  3.9191062E+04;  7.5205579E+00;  0.0000000E+00; -2.9191020E-01;  1.2757095E+04;
  1.1999656E+00;  9.9999998E-03;  1.2147518E-01;8283;  5.7057703E-01;  0.0000000E+00; -5.0956775E-02;  9.9685370E+02;  2.4642999E-01; -2.6056677E+03;3; -1.6158379E+02;  0.0000000E+00; -3.3424828E+01;0;  7.2739582E+00;  6.6715625E+03;  0.0000000E+00;  4.2139399E-01;  4.0000000E+04;  0.0000000E+00;  3.9185355E+04;  7.5561676E+00;  0.0000000E+00; -2.8220931E-01;  1.3451347E+04;
  1.1999760E+00;  9.9999998E-03;  1.1138429E-01;8282;  5.9327483E-01;  0.0000000E+00; -4.6407234E-02;  9.9723053E+02;  2.4646714E-01; -2.2935957E+03;3; -1.6358028E+02;  0.0000000E+00; -3.1661278E+01;0;  7.3111782E+00;  6.6764224E+03;  0.0000000E+00;  2.8492206E-01;  4.0000000E+04;  0.0000000E+00;  3.9179484E+04;  7.5827765E+00;  0.0000000E+00; -2.7159852E-01;  1.4179301E+04;
  1.2223786E+00;  9.9999998E-03;  1.9205907E-01;8351;  5.9182650E-01;  0.0000000E+00; -2.6395347E-02;  9.9744592E+02;  2.3705342E-01; -2.1148826E+03;3; -1.6236824E+02;  0.0000000E+00; -5.6168175E+01;0;  7.2560039E+00;  7.2071841E+03;  0.0000000E+00;  9.6850491E-01;  4.0000000E+04;  0.0000000E+00;  3.9247508E+04;  7.5387573E+00;  0.0000000E+00; -2.8275347E-01;  6.8827749E+03;
  1.2223219E+00;  9.9999998E-03;  2.0213117E-01;8352;  5.5187911E-01;  0.0000000E+00; -3.1007878E-02;  9.9675769E+02;  2.3702691E-01; -2.6847915E+03;3; -1.6622438E+02;  0.0000000E+00; -5.7003704E+01;0;  7.2783751E+00;  7.1961924E+03;  0.0000000E+00;  1.3378443E+00;  4.0000000E+04;  0.0000000E+00;  3.9264625E+04;  7.5818233E+00;  0.0000000E+00; -3.0344808E-01;  4.4383291E+03;
  1.2226522E+00;  9.9999998E-03;  1.8200034E-01;8350;  6.3334686E-01;  0.0000000E+00; -2.1086644E-02;  9.9817023E+02;  2.3702139E-01; -1.5151115E+03;3; -1.5832542E+02;  0.0000000E+00; -5.5279594E+01;0;  7.2244129E+00;  7.2217026E+03;  0.0000000E+00;  6.5428048E-01;  4.0000000E+04;  0.0000000E+00;  3.9231188E+04;  7.4861517E+00;  0.0000000E+00; -2.6173893E-01;  9.2519482E+03;
  1.2225499E+00;  9.9999998E-03;  2.1224007E-01;8353;  5.1459813E-01;  0.0000000E+00; -3.4755453E-02;  9.9610626E+02;  2.3693094E-01; -3.2241919E+03;3; -1.6983292E+02;  0.0000000E+00; -5.7663536E+01;0;  7.2944226E+00;  7.1900684E+03;  0.0000000E+00;  1.6788349E+00;  4.0000000E+04;  0.0000000E+00;  3.9279652E+04;  7.6202354E+00;  0.0000000E+00; -3.2581297E-01;  2.7840581E+03;
  1.2229728E+00;  9.9999998E-03;  1.7193496E-01;8349;  6.7306703E-01;  0.0000000E+00; -1.5689112E-02;  9.9887195E+02;  2.3697394E-01; -9.3409760E+02;3; -1.5439780E+02;  0.0000000E+00; -5.4339287E+01;0;  7.1838837E+00;  7.2365459E+03;  0.0000000E+00;  4.4045544E-01;  4.0000000E+04;  0.0000000E+00;  3.9216047E+04;  7.4233003E+00;  0.0000000E+00; -2.3941675E-01;  1.1317547E+04;
  1.2231984E+00;  9.9999998E-03;  1.6184644E-01;8348;  7.0834529E-01;  0.0000000E+00; -1.0805609E-02;  9.9950616E+02;  2.3694335E-01; -4.0890756E+02;3; -1.5097632E+02;  0.0000000E+00; -5.3465755E+01;0;  7.1377683E+00;  7.2490654E+03;  0.0000000E+00;  3.3834317E-01;  4.0000000E+04;  0.0000000E+00;  3.9202715E+04;  7.3536005E+00;  0.0000000E+00; -2.1583204E-01;  1.3013343E+04;
  1.2230271E+00;  9.9999998E-03;  2.2238752E-01;8354;  4.7841924E-01;  0.0000000E+00; -3.8010728E-02;  9.9539398E+02;  2.3677476E-01; -3.8139749E+03;3; -1.7363338E+02;  0.0000000E+00; -5.8014084E+01;0;  7.3071775E+00;  7.1884131E+03;  0.0000000E+00;  1.8645729E+00;  4.0000000E+04;  0.0000000E+00;  3.9286320E+04;  7.6596804E+00;  0.0000000E+00; -3.5250288E-01;  3.0101646E+03;
  1.2234713E+00;  9.9999998E-03;  1.5173735E-01;8347;  7.4135792E-01;  0.0000000E+00; -5.9765880E-03;  1.0001088E+03;  2.3688880E-01;  9.0122337E+01;3; -1.4753152E+02;  0.0000000E+00; -5.2335976E+01;0;  7.0852861E+00;  7.2621855E+03;  0.0000000E+00;  3.2096237E-01;  4.0000000E+04;  0.0000000E+00;  3.9191516E+04;  7.2757516E+00;  0.0000000E+00; -1.9046545E-01;  1.4351247E+04;
  1.2238157E+00;  9.9999998E-03;  1.4163400E-01;8346;  7.7236342E-01;  0.0000000E+00; -1.2775885E-03;  1.0006779E+03;  2.3680896E-01;  5.6126422E+02;3; -1.4380099E+02;  0.0000000E+00; -5.0989811E+01;0;  7.0259600E+00;  7.2761968E+03;  0.0000000E+00;  3.5456604E-01;  4.0000000E+04;  0.0000000E+00;  3.9182508E+04;  7.1895528E+00;  0.0000000E+00; -1.6359261E-01;  1.5384311E+04;
  1.2236975E+00;  9.9999998E-03;  2.3253530E-01;8355;  4.4251800E-01;  0.0000000E+00; -4.1336406E-02;  9.9455780E+02;  2.3657423E-01; -4.5063560E+03;3; -1.7765984E+02;  0.0000000E+00; -5.8080067E+01;0;  7.3170147E+00;  7.1906450E+03;  0.0000000E+00;  1.7177001E+00;  4.0000000E+04;  0.0000000E+00;  3.9281297E+04;  7.7040505E+00;  0.0000000E+00; -3.8703585E-01;  3.6706406E+03;
  1.2240891E+00;  9.9999998E-03;  1.3154814E-01;8345;  7.9947650E-01;  0.0000000E+00;  2.7913065E-03;  1.0011609E+03;  2.3674820E-01;  9.6133307E+02;3; -1.4028795E+02;  0.0000000E+00; -4.9704136E+01;0;  6.9643164E+00;  7.2879497E+03;  0.0000000E+00;  4.1284692E-01;  4.0000000E+04;  0.0000000E+00;  3.9175473E+04;  7.1009746E+00;  0.0000000E+00; -1.3665801E-01;  1.6209165E+04;
  1.2242678E+00;  9.9999998E-03;  1.2146027E-01;8344;  8.2295382E-01;  0.0000000E+00;  6.2315068E-03;  1.0015356E+03;  2.3671383E-01;  1.2715756E+03;3; -1.3701616E+02;  0.0000000E+00; -4.8396683E+01;0;  6.9030471E+00;  7.2969155E+03;  0.0000000E+00;  4.7705796E-01;  4.0000000E+04;  0.0000000E+00;  3.9169035E+04;  7.0131888E+00;  0.0000000E+00; -1.1014175E-01;  1.6947873E+04;
  1.2243495E+00;  9.9999998E-03;  1.1137582E-01;8343;  8.4323210E-01;  0.0000000E+00;  9.1083664E-03;  1.0018039E+03;  2.3670982E-01;  1.4936710E+03;3; -1.3394803E+02;  0.0000000E+00; -4.7297894E+01;0;  6.8445153E+00;  7.3028213E+03;  0.0000000E+00;  5.3296542E-01;  4.0000000E+04;  0.0000000E+00;  3.9162949E+04;  6.9288082E+00;  0.0000000E+00; -8.4293038E-02;  1.7677273E+04;
  1.2244556E+00;  9.9999998E-03;  1.0128058E-01;8342;  8.6206132E-01;  0.0000000E+00;  1.1767546E-02;  1.0020076E+03;  2.3670778E-01;  1.6623639E+03;3; -1.3058429E+02;  0.0000000E+00; -4.6179249E+01;0;  6.7855158E+00;  7.3081343E+03;  0.0000000E+00;  5.7210296E-01;  4.0000000E+04;  0.0000000E+00;  3.9156816E+04;  6.8436713E+00;  0.0000000E+00; -5.8155529E-02;  1.8431979E+04;
  1.2246592E+00;  9.9999998E-03;  9.1166437E-02;8341;  8.8027817E-01;  0.0000000E+00;  1.4365159E-02;  1.0021812E+03;  2.3668155E-01;  1.8060818E+03;3; -1.2667634E+02;  0.0000000E+00; -4.5305050E+01;0;  6.7234573E+00;  7.3145264E+03;  0.0000000E+00;  5.8796376E-01;  4.0000000E+04;  0.0000000E+00;  3.9150883E+04;  6.7545877E+00;  0.0000000E+00; -3.1130493E-02;  1.9190758E+04;
  1.2249382E+00;  9.9999998E-03;  8.1034385E-02;8340;  8.9755690E-01;  0.0000000E+00;  1.6881688E-02;  1.0023499E+03;  2.3663808E-01;  1.9457509E+03;3; -1.2240768E+02;  0.0000000E+00; -4.4788113E+01;0;  6.6595812E+00;  7.3217778E+03;  0.0000000E+00;  5.7331407E-01;  4.0000000E+04;  0.0000000E+00;  3.9145453E+04;  6.6632314E+00;  0.0000000E+00; -3.6500359E-03;  1.9888988E+04;
  1.2251836E+00;  9.9999998E-03;  7.0871726E-02;8339;  9.1284144E-01;  0.0000000E+00;  1.9179618E-02;  1.0025029E+03;  2.3660888E-01;  2.0724890E+03;3; -1.1831015E+02;  0.0000000E+00; -4.4325161E+01;0;  6.5997710E+00;  7.3277764E+03;  0.0000000E+00;  5.2319270E-01;  4.0000000E+04;  0.0000000E+00;  3.9140957E+04;  6.5769572E+00;  0.0000000E+00;  2.2813607E-02;  2.0460721E+04;
  1.2451211E+00;  9.9999998E-03;  2.0213495E-01;8413;  8.0228329E-01;  0.0000000E+00;  3.3105351E-02;  1.0012958E+03;  2.2663285E-01;  1.0727603E+03;3; -1.5043317E+02;  0.0000000E+00; -5.4316643E+01;0;  6.9481001E+00;  7.9445264E+03;  0.0000000E+00;  5.4667789E-02;  4.0000000E+04;  0.0000000E+00;  3.9253422E+04;  7.1837821E+00;  0.0000000E+00; -2.3568216E-01;  7.8453345E+03;
  1.2451580E+00;  9.9999998E-03;  1.9207014E-01;8412;  8.3345324E-01;  0.0000000E+00;  3.6520917E-02;  1.0019455E+03;  2.2665793E-01;  1.6106201E+03;3; -1.4139124E+02;  0.0000000E+00; -5.3345932E+01;0;  6.8117809E+00;  7.9556177E+03;  0.0000000E+00; -2.6114511E-01;  4.0000000E+04;  0.0000000E+00;  3.9239305E+04;  7.0128331E+00;  0.0000000E+00; -2.0105210E-01;  1.0055934E+04;
  1.2453763E+00;  9.9999998E-03;  2.1221526E-01;8414;  7.7347928E-01;  0.0000000E+00;  3.0424496E-02;  1.0007048E+03;  2.2652936E-01;  5.8345361E+02;3; -1.5894060E+02;  0.0000000E+00; -5.5276539E+01;0;  7.0709615E+00;  7.9396030E+03;  0.0000000E+00;  3.9775810E-01;  4.0000000E+04;  0.0000000E+00;  3.9267000E+04;  7.3366513E+00;  0.0000000E+00; -2.6568988E-01;  5.8623838E+03;
  1.2454103E+00;  9.9999998E-03;  1.8199790E-01;8411;  8.6581796E-01;  0.0000000E+00;  4.0563598E-02;  1.0026245E+03;  2.2661954E-01;  2.1726533E+03;3; -1.3222293E+02;  0.0000000E+00; -5.2076874E+01;0;  6.6634498E+00;  7.9706846E+03;  0.0000000E+00; -4.5627204E-01;  4.0000000E+04;  0.0000000E+00;  3.9225262E+04;  6.8256564E+00;  0.0000000E+00; -1.6220665E-01;  1.2106734E+04;
  1.2458847E+00;  9.9999998E-03;  2.2233434E-01;8415;  7.4601167E-01;  0.0000000E+00;  2.8163560E-02;  1.0001051E+03;  2.2635689E-01;  8.7043839E+01;3; -1.6729807E+02;  0.0000000E+00; -5.6134315E+01;0;  7.1842418E+00;  7.9401909E+03;  0.0000000E+00;  6.3385117E-01;  4.0000000E+04;  0.0000000E+00;  3.9274363E+04;  7.4751253E+00;  0.0000000E+00; -2.9088375E-01;  4.9842690E+03;
  1.2457356E+00;  9.9999998E-03;  1.7190194E-01;8410;  8.9689142E-01;  0.0000000E+00;  4.4587944E-02;  1.0032639E+03;  2.2656414E-01;  2.7020151E+03;3; -1.2315727E+02;  0.0000000E+00; -5.0602028E+01;0;  6.5095515E+00;  7.9860254E+03;  0.0000000E+00; -4.8659831E-01;  4.0000000E+04;  0.0000000E+00;  3.9212109E+04;  6.6297259E+00;  0.0000000E+00; -1.2017464E-01;  1.3857786E+04;
  1.2460406E+00;  9.9999998E-03;  1.6178204E-01;8409;  9.2515081E-01;  0.0000000E+00;  4.8279047E-02;  1.0038242E+03;  2.2651054E-01;  3.1658442E+03;3; -1.1442915E+02;  0.0000000E+00; -4.9244133E+01;0;  6.3562765E+00;  7.9998198E+03;  0.0000000E+00; -3.5887292E-01;  4.0000000E+04;  0.0000000E+00;  3.9199730E+04;  6.4326968E+00;  0.0000000E+00; -7.6420315E-02;  1.5268068E+04;
  1.2466255E+00;  9.9999998E-03;  2.3247164E-01;8416;  7.1983153E-01;  0.0000000E+00;  2.5573362E-02;  9.9943976E+02;  2.2612137E-01; -4.6378586E+02;3; -1.7483751E+02;  0.0000000E+00; -5.6998283E+01;0;  7.2891097E+00;  7.9468262E+03;  0.0000000E+00;  5.8350033E-01;  4.0000000E+04;  0.0000000E+00;  3.9270125E+04;  7.6010003E+00;  0.0000000E+00; -3.1189078E-01;  5.5556841E+03;
  1.2463320E+00;  9.9999998E-03;  1.5164900E-01;8408;  9.5060825E-01;  0.0000000E+00;  5.1654968E-02;  1.0043115E+03;  2.2644299E-01;  3.5692732E+03;3; -1.0611293E+02;  0.0000000E+00; -4.7981865E+01;0;  6.2051611E+00;  8.0128496E+03;  0.0000000E+00; -1.1525423E-01;  4.0000000E+04;  0.0000000E+00;  3.9189422E+04;  6.2374969E+00;  0.0000000E+00; -3.2335922E-02;  1.6339324E+04;
  1.2466438E+00;  9.9999998E-03;  1.4152408E-01;8407;  9.7368014E-01;  0.0000000E+00;  5.4786809E-02;  1.0047258E+03;  2.2635913E-01;  3.9123013E+03;3; -9.7951027E+01;  0.0000000E+00; -4.7194443E+01;0;  6.0555935E+00;  8.0257676E+03;  0.0000000E+00;  1.8395510E-01;  4.0000000E+04;  0.0000000E+00;  3.9181641E+04;  6.0447173E+00;  0.0000000E+00;  1.0876007E-02;  1.7126127E+04;
  1.2469661E+00;  9.9999998E-03;  1.3143204E-01;8406;  9.9441975E-01;  0.0000000E+00;  5.7674799E-02;  1.0050774E+03;  2.2626385E-01;  4.2033179E+03;3; -8.9930191E+01;  0.0000000E+00; -4.6147758E+01;0;  5.9090753E+00;  8.0381196E+03;  0.0000000E+00;  4.8233286E-01;  4.0000000E+04;  0.0000000E+00;  3.9175738E+04;  5.8568025E+00;  0.0000000E+00;  5.2272826E-02;  1.7726838E+04;
  1.2472732E+00;  9.9999998E-03;  1.2134956E-01;8405;  1.0129379E+00;  0.0000000E+00;  6.0350325E-02;  1.0053369E+03;  2.2616871E-01;  4.4181460E+03;3; -8.2117592E+01;  0.0000000E+00; -4.5646641E+01;0;  5.7677951E+00;  8.0492310E+03;  0.0000000E+00;  7.3860133E-01;  4.0000000E+04;  0.0000000E+00;  3.9171262E+04;  5.6762395E+00;  0.0000000E+00;  9.1555774E-02;  1.8233150E+04;
  1.2474885E+00;  9.9999998E-03;  1.1125527E-01;8404;  1.0290161E+00;  0.0000000E+00;  6.2657557E-02;  1.0055015E+03;  2.2610636E-01;  4.5544229E+03;3; -7.4816109E+01;  0.0000000E+00; -4.4145687E+01;0;  5.6374836E+00;  8.0569238E+03;  0.0000000E+00;  9.2265898E-01;  4.0000000E+04;  0.0000000E+00;  3.9167621E+04;  5.5094194E+00;  0.0000000E+00;  1.2806416E-01;  1.8695029E+04;
  1.2476612E+00;  9.9999998E-03;  1.0113852E-01;8403;  1.0433006E+00;  0.0000000E+00;  6.4040996E-02;  1.0056064E+03;  2.2606413E-01;  4.6412583E+03;3; -6.7910172E+01;  0.0000000E+00; -3.7243908E+01;0;  5.5162873E+00;  8.0625298E+03;  0.0000000E+00;  1.0191990E+00;  4.0000000E+04;  0.0000000E+00;  3.9164461E+04;  5.3540125E+00;  0.0000000E+00;  1.6227482E-01;  1.9110359E+04;
  1.2478189E+00;  9.9999998E-03;  9.0998985E-02;8402;  1.0561192E+00;  0.0000000E+00;  6.2897101E-02;  1.0056721E+03;  2.2603093E-01;  4.6956265E+03;3; -6.1376537E+01;  0.0000000E+00; -2.2427282E+01;0;  5.4034252E+00;  8.0670913E+03;  0.0000000E+00;  1.0262359E+00;  4.0000000E+04;  0.0000000E+00;  3.9162016E+04;  5.2090917E+00;  0.0000000E+00;  1.9433334E-01;  1.9440256E+04;
  1.2479444E+00;  9.9999998E-03;  8.0827318E-02;8401;  1.0674649E+00;  0.0000000E+00;  5.7944637E-02;  1.0057217E+03;  2.2601053E-01;  4.7366733E+03;3; -5.5154427E+01;  0.0000000E+00; -8.3222761E+00;0;  5.3006001E+00;  8.0704712E+03;  0.0000000E+00;  9.5354092E-01;  4.0000000E+04;  0.0000000E+00;  3.9160312E+04;  5.0768485E+00;  0.0000000E+00;  2.2375166E-01;  1.9647213E+04;
  1.2480056E+00;  9.9999998E-03;  7.0668183E-02;8400;  1.0771276E+00;  0.0000000E+00;  5.0707374E-02;  1.0057753E+03;  2.2601520E-01;  4.7810791E+03;3; -4.9308331E+01;  0.0000000E+00; -3.0689077E+00;0;  5.2110620E+00;  8.0718247E+03;  0.0000000E+00;  8.2145053E-01;  4.0000000E+04;  0.0000000E+00;  3.9159797E+04;  4.9613557E+00;  0.0000000E+00;  2.4970615E-01;  1.9716541E+04;
  1.2669054E+00;  9.9999998E-03;  1.9201601E-01;8473;  1.0138334E+00;  0.0000000E+00;  8.7699547E-02;  1.0053258E+03;  2.1587519E-01;  4.4078228E+03;3; -9.0961563E+01;  0.0000000E+00; -4.5075054E+01;0;  5.6785731E+00;  8.8297168E+03;  0.0000000E+00; -6.8026865E-01;  4.0000000E+04;  0.0000000E+00;  3.9237195E+04;  5.7632217E+00;  0.0000000E+00; -8.4648773E-02;  1.2253887E+04;
  1.2668722E+00;  9.9999998E-03;  2.0209399E-01;8474;  9.9496680E-01;  0.0000000E+00;  8.5396402E-02;  1.0048101E+03;  2.1584100E-01;  3.9810134E+03;3; -1.0156081E+02;  0.0000000E+00; -4.5982140E+01;0;  5.8749142E+00;  8.8216582E+03;  0.0000000E+00; -5.1631463E-01;  4.0000000E+04;  0.0000000E+00;  3.9246723E+04;  6.0057802E+00;  0.0000000E+00; -1.3086627E-01;  1.0748540E+04;
  1.2670352E+00;  9.9999998E-03;  2.1216588E-01;8475;  9.7717988E-01;  0.0000000E+00;  8.3560303E-02;  1.0043337E+03;  2.1575961E-01;  3.5867507E+03;3; -1.1191610E+02;  0.0000000E+00; -4.6474392E+01;0;  6.0606108E+00;  8.8174316E+03;  0.0000000E+00; -3.3330423E-01;  4.0000000E+04;  0.0000000E+00;  3.9256023E+04;  6.2285905E+00;  0.0000000E+00; -1.6797979E-01;  9.3217715E+03;
  1.2671232E+00;  9.9999998E-03;  1.8192178E-01;8472;  1.0332536E+00;  0.0000000E+00;  9.0180211E-02;  1.0058447E+03;  2.1585967E-01;  4.8372827E+03;3; -7.9640900E+01;  0.0000000E+00; -4.4034302E+01;0;  5.4731097E+00;  8.8414551E+03;  0.0000000E+00; -7.3025191E-01;  4.0000000E+04;  0.0000000E+00;  3.9226879E+04;  5.5047154E+00;  0.0000000E+00; -3.1605646E-02;  1.3672039E+04;
  1.2674403E+00;  9.9999998E-03;  2.2224928E-01;8476;  9.6089041E-01;  0.0000000E+00;  8.1944540E-02;  1.0039058E+03;  2.1561912E-01;  3.2325349E+03;3; -1.2133189E+02;  0.0000000E+00; -4.7262028E+01;0;  6.2334514E+00;  8.8186484E+03;  0.0000000E+00; -2.6745519E-01;  4.0000000E+04;  0.0000000E+00;  3.9262715E+04;  6.4267139E+00;  0.0000000E+00; -1.9326247E-01;  8.2942852E+03;
  1.2675152E+00;  9.9999998E-03;  1.7181158E-01;8471;  1.0523646E+00;  0.0000000E+00;  9.2955314E-02;  1.0063418E+03;  2.1578608E-01;  5.2486699E+03;3; -6.7911011E+01;  0.0000000E+00; -4.3514858E+01;0;  5.2609634E+00;  8.8570234E+03;  0.0000000E+00; -6.2637901E-01;  4.0000000E+04;  0.0000000E+00;  3.9216578E+04;  5.2347422E+00;  0.0000000E+00;  2.6221273E-02;  1.4881648E+04;
  1.2679663E+00;  9.9999998E-03;  2.3235574E-01;8477;  9.4493097E-01;  0.0000000E+00;  8.0190159E-02;  1.0034418E+03;  2.1546389E-01;  2.8485225E+03;3; -1.3065706E+02;  0.0000000E+00; -4.8243412E+01;0;  6.4025316E+00;  8.8218066E+03;  0.0000000E+00; -4.8332787E-01;  4.0000000E+04;  0.0000000E+00;  3.9262980E+04;  6.6065440E+00;  0.0000000E+00; -2.0401217E-01;  8.3081221E+03;
  1.2679772E+00;  9.9999998E-03;  1.6168067E-01;8470;  1.0699875E+00;  0.0000000E+00;  9.5863417E-02;  1.0067877E+03;  2.1567675E-01;  5.6177207E+03;3; -5.6168476E+01;  0.0000000E+00; -4.2804195E+01;0;  5.0503802E+00;  8.8739434E+03;  0.0000000E+00; -3.8650548E-01;  4.0000000E+04;  0.0000000E+00;  3.9207578E+04;  4.9645734E+00;  0.0000000E+00;  8.5806839E-02;  1.5808763E+04;
  1.2683793E+00;  9.9999998E-03;  1.5153319E-01;8469;  1.0852058E+00;  0.0000000E+00;  9.8425999E-02;  1.0071626E+03;  2.1556892E-01;  5.9278716E+03;3; -4.4901920E+01;  0.0000000E+00; -4.0452290E+01;0;  4.8511295E+00;  8.8886865E+03;  0.0000000E+00; -6.5210491E-02;  4.0000000E+04;  0.0000000E+00;  3.9200496E+04;  4.7075624E+00;  0.0000000E+00;  1.4356703E-01;  1.6441352E+04;
  1.2685642E+00;  9.9999998E-03;  1.4139110E-01;8468;  1.0975310E+00;  0.0000000E+00;  9.9199809E-02;  1.0074427E+03;  2.1552071E-01;  6.1597046E+03;3; -3.4938850E+01;  0.0000000E+00; -3.1090391E+01;0;  4.6745620E+00;  8.8964814E+03;  0.0000000E+00;  2.7656248E-01;  4.0000000E+04;  0.0000000E+00;  3.9195867E+04;  4.4787202E+00;  0.0000000E+00;  1.9584160E-01;  1.6822520E+04;
  1.2686526E+00;  9.9999998E-03;  1.3127850E-01;8467;  1.1079184E+00;  0.0000000E+00;  9.5921531E-02;  1.0076323E+03;  2.1549167E-01;  6.3165645E+03;3; -2.5760424E+01;  0.0000000E+00; -1.3369735E+01;0;  4.5132270E+00;  8.9009336E+03;  0.0000000E+00;  5.8874923E-01;  4.0000000E+04;  0.0000000E+00;  3.9193500E+04;  4.2709932E+00;  0.0000000E+00;  2.4223383E-01;  1.7021568E+04;
  1.2687863E+00;  9.9999998E-03;  1.2119123E-01;8466;  1.1169722E+00;  0.0000000E+00;  8.8532291E-02;  1.0077550E+03;  2.1543914E-01;  6.4181699E+03;3; -1.6476624E+01;  0.0000000E+00; -2.6789026E+00;0;  4.3578105E+00;  8.9060762E+03;  0.0000000E+00;  8.3325720E-01;  4.0000000E+04;  0.0000000E+00;  3.9192543E+04;  4.0741677E+00;  0.0000000E+00;  2.8364271E-01;  1.7099354E+04;
  1.2689548E+00;  9.9999998E-03;  1.1109908E-01;8465;  1.1246079E+00;  0.0000000E+00;  7.9923831E-02;  1.0078093E+03;  2.1537451E-01;  6.4630425E+03;3; -7.3352170E+00;  0.0000000E+00;  1.3309413E-01;0;  4.2091007E+00;  8.9114795E+03;  0.0000000E+00;  9.8479849E-01;  4.0000000E+04;  0.0000000E+00;  3.9192820E+04;  3.8888757E+00;  0.0000000E+00;  3.2022503E-01;  1.7095318E+04;
  1.2690893E+00;  9.9999998E-03;  1.0098306E-01;8464;  1.1307364E+00;  0.0000000E+00;  7.1354344E-02;  1.0078123E+03;  2.1532401E-01;  6.4654956E+03;3;  7.7260619E-01;  0.0000000E+00;  1.4735484E+00;0;  4.0720911E+00;  8.9149385E+03;  0.0000000E+00;  1.0355870E+00;  4.0000000E+04;  0.0000000E+00;  3.9193508E+04;  3.7202792E+00;  0.0000000E+00;  3.5181171E-01;  1.7026396E+04;
  1.2691690E+00;  9.9999998E-03;  9.0828501E-02;8463;  1.1355457E+00;  0.0000000E+00;  6.2962703E-02;  1.0077712E+03;  2.1529637E-01;  6.4314497E+03;3;  7.4298930E+00;  0.0000000E+00;  2.4068630E+00;0;  3.9486237E+00;  8.9161260E+03;  0.0000000E+00;  9.9430364E-01;  4.0000000E+04;  0.0000000E+00;  3.9194703E+04;  3.5699921E+00;  0.0000000E+00;  3.7863156E-01;  1.6886227E+04;
  1.2692176E+00;  9.9999998E-03;  8.0685787E-02;8462;  1.1393012E+00;  0.0000000E+00;  5.4849129E-02;  1.0077281E+03;  2.1528625E-01;  6.3958291E+03;3;  1.2467711E+01;  0.0000000E+00;  2.9743128E+00;0;  3.8380969E+00;  8.9159326E+03;  0.0000000E+00;  8.8233548E-01;  4.0000000E+04;  0.0000000E+00;  3.9196367E+04;  3.4370115E+00;  0.0000000E+00;  4.0108529E-01;  1.6658635E+04;
  1.2692565E+00;  9.9999998E-03;  7.0567034E-02;8461;  1.1422424E+00;  0.0000000E+00;  4.7087945E-02;  1.0076938E+03;  2.1528359E-01;  6.3675107E+03;3;  1.6456747E+01;  0.0000000E+00;  3.2541130E+00;0;  3.7395613E+00;  8.9152949E+03;  0.0000000E+00;  7.2760624E-01;  4.0000000E+04;  0.0000000E+00;  3.9198586E+04;  3.3198907E+00;  0.0000000E+00;  4.1967055E-01;  1.6345263E+04;
  1.2872187E+00;  9.9999998E-03;  2.0201111E-01;8535;  1.1081543E+00;  0.0000000E+00;  1.2009654E-01;  1.0065765E+03;  2.0534819E-01;  5.4410117E+03;3; -4.1720238E+01;  0.0000000E+00; -3.4196472E+01;0;  4.5036769E+00;  9.7807236E+03;  0.0000000E+00; -3.4814706E-01;  4.0000000E+04;  0.0000000E+00;  3.9248164E+04;  4.5126147E+00;  0.0000000E+00; -8.9378273E-03;  1.2062290E+04;
  1.2873622E+00;  9.9999998E-03;  1.9192807E-01;8534;  1.1158030E+00;  0.0000000E+00;  1.2175286E-01;  1.0069247E+03;  2.0533830E-01;  5.7290825E+03;3; -3.0845631E+01;  0.0000000E+00; -3.3464390E+01;0;  4.2952332E+00;  9.7898213E+03;  0.0000000E+00; -3.3460474E-01;  4.0000000E+04;  0.0000000E+00;  3.9243254E+04;  4.2497387E+00;  0.0000000E+00;  4.5494404E-02;  1.2787823E+04;
  1.2873282E+00;  9.9999998E-03;  2.1207215E-01;8536;  1.1012990E+00;  0.0000000E+00;  1.1860796E-01;  1.0062759E+03;  2.0528387E-01;  5.1922646E+03;3; -5.1172562E+01;  0.0000000E+00; -3.4264603E+01;0;  4.7003779E+00;  9.7787432E+03;  0.0000000E+00; -4.0554070E-01;  4.0000000E+04;  0.0000000E+00;  3.9253270E+04;  4.7522297E+00;  0.0000000E+00; -5.1851846E-02;  1.1357779E+04;
  1.2877554E+00;  9.9999998E-03;  1.8182631E-01;8533;  1.1234201E+00;  0.0000000E+00;  1.2373457E-01;  1.0072923E+03;  2.0525216E-01;  6.0330967E+03;3; -1.9057543E+01;  0.0000000E+00; -3.2178921E+01;0;  4.0775652E+00;  9.8060400E+03;  0.0000000E+00; -2.7716860E-01;  4.0000000E+04;  0.0000000E+00;  3.9237000E+04;  3.9693484E+00;  0.0000000E+00;  1.0821675E-01;  1.3519392E+04;
  1.2876656E+00;  9.9999998E-03;  2.2212966E-01;8537;  1.0955349E+00;  0.0000000E+00;  1.1755186E-01;  1.0060542E+03;  2.0515962E-01;  5.0087852E+03;3; -6.0002293E+01;  0.0000000E+00; -3.4396759E+01;0;  4.8870664E+00;  9.7827148E+03;  0.0000000E+00; -6.4379209E-01;  4.0000000E+04;  0.0000000E+00;  3.9259207E+04;  4.9664621E+00;  0.0000000E+00; -7.9395562E-02;  1.0729036E+04;
  1.2882367E+00;  9.9999998E-03;  2.3220700E-01;8538;  1.0911341E+00;  0.0000000E+00;  1.1644091E-01;  1.0058695E+03;  2.0497708E-01;  4.8559565E+03;3; -6.7334290E+01;  0.0000000E+00; -3.4905121E+01;0;  5.0642581E+00;  9.7930518E+03;  0.0000000E+00; -1.2301272E+00;  4.0000000E+04;  0.0000000E+00;  3.9263586E+04;  5.1517801E+00;  0.0000000E+00; -8.7522157E-02;  1.0758275E+04;
  1.2883811E+00;  9.9999998E-03;  1.7171238E-01;8532;  1.1302768E+00;  0.0000000E+00;  1.2512322E-01;  1.0076622E+03;  2.0508131E-01;  6.3390469E+03;3; -6.7419801E+00;  0.0000000E+00; -2.6007132E+01;0;  3.8542993E+00;  9.8294121E+03;  0.0000000E+00; -1.4528026E-01;  4.0000000E+04;  0.0000000E+00;  3.9231277E+04;  3.6785905E+00;  0.0000000E+00;  1.7570886E-01;  1.4137935E+04;
  1.2889956E+00;  9.9999998E-03;  1.6158867E-01;8531;  1.1354746E+00;  0.0000000E+00;  1.2207364E-01;  1.0079903E+03;  2.0489913E-01;  6.6103740E+03;3;  3.7474041E+00;  0.0000000E+00; -7.8515425E+00;0;  3.6432710E+00;  9.8522529E+03;  0.0000000E+00;  3.9578147E-02;  4.0000000E+04;  0.0000000E+00;  3.9226535E+04;  3.4005053E+00;  0.0000000E+00;  2.4276561E-01;  1.4557148E+04;
  1.2893275E+00;  9.9999998E-03;  1.5145659E-01;8530;  1.1390444E+00;  0.0000000E+00;  1.1286569E-01;  1.0082531E+03;  2.0479918E-01;  6.8277886E+03;3;  1.1456483E+01;  0.0000000E+00;  1.4363326E+00;0;  3.4611647E+00;  9.8652783E+03;  0.0000000E+00;  2.3698816E-01;  4.0000000E+04;  0.0000000E+00;  3.9223891E+04;  3.1574924E+00;  0.0000000E+00;  3.0367231E-01;  1.4752853E+04;
  1.2893829E+00;  9.9999998E-03;  1.2108379E-01;8527;  1.1452017E+00;  0.0000000E+00;  8.3413854E-02;  1.0085820E+03;  2.0474586E-01;  7.0998779E+03;3;  2.3362953E+01;  0.0000000E+00;  4.7570343E+00;0;  3.0243554E+00;  9.8684102E+03;  0.0000000E+00;  6.5622967E-01;  4.0000000E+04;  0.0000000E+00;  3.9227320E+04;  2.5895751E+00;  0.0000000E+00;  4.3478033E-01;  1.4107009E+04;
  1.2894294E+00;  9.9999998E-03;  1.3118440E-01;8528;  1.1435226E+00;  0.0000000E+00;  9.2634134E-02;  1.0085540E+03;  2.0474666E-01;  7.0766948E+03;3;  2.0559586E+01;  0.0000000E+00;  4.2835212E+00;0;  3.1576474E+00;  9.8706406E+03;  0.0000000E+00;  5.6204796E-01;  4.0000000E+04;  0.0000000E+00;  3.9224703E+04;  2.7582724E+00;  0.0000000E+00;  3.9937499E-01;  1.4475375E+04;
  1.2894382E+00;  9.9999998E-03;  1.4131804E-01;8529;  1.1415750E+00;  0.0000000E+00;  1.0250912E-01;  1.0084407E+03;  2.0475799E-01;  6.9830029E+03;3;  1.6752356E+01;  0.0000000E+00;  3.5393441E+00;0;  3.3017061E+00;  9.8703604E+03;  0.0000000E+00;  4.1767570E-01;  4.0000000E+04;  0.0000000E+00;  3.9223281E+04;  2.9457648E+00;  0.0000000E+00;  3.5594136E-01;  1.4713550E+04;
  1.2893951E+00;  9.9999998E-03;  1.1098896E-01;8526;  1.1466817E+00;  0.0000000E+00;  7.4674092E-02;  1.0085433E+03;  2.0472625E-01;  7.0679229E+03;3;  2.5422096E+01;  0.0000000E+00;  5.2491446E+00;0;  2.8960831E+00;  9.8669219E+03;  0.0000000E+00;  6.9151902E-01;  4.0000000E+04;  0.0000000E+00;  3.9231176E+04;  2.4325645E+00;  0.0000000E+00;  4.6351865E-01;  1.3654977E+04;
  1.2894084E+00;  9.9999998E-03;  1.0087606E-01;8525;  1.1480848E+00;  0.0000000E+00;  6.6312760E-02;  1.0084473E+03;  2.0471191E-01;  6.9884316E+03;3;  2.6908457E+01;  0.0000000E+00;  5.5876770E+00;0;  2.7765050E+00;  9.8641113E+03;  0.0000000E+00;  6.6978520E-01;  4.0000000E+04;  0.0000000E+00;  3.9234961E+04;  2.2904623E+00;  0.0000000E+00;  4.8604271E-01;  1.3167479E+04;
  1.2894253E+00;  9.9999998E-03;  9.0771452E-02;8524;  1.1493502E+00;  0.0000000E+00;  5.8347601E-02;  1.0083179E+03;  2.0470563E-01;  6.8814243E+03;3;  2.8491621E+01;  0.0000000E+00;  5.7358656E+00;0;  2.6662521E+00;  9.8604561E+03;  0.0000000E+00;  6.0165507E-01;  4.0000000E+04;  0.0000000E+00;  3.9239133E+04;  2.1631329E+00;  0.0000000E+00;  5.0311935E-01;  1.2658951E+04;
  1.2894440E+00;  9.9999998E-03;  8.0676258E-02;8523;  1.1504065E+00;  0.0000000E+00;  5.0768461E-02;  1.0081802E+03;  2.0470549E-01;  6.7675137E+03;3;  2.9812813E+01;  0.0000000E+00;  5.8739858E+00;0;  2.5658376E+00;  9.8564023E+03;  0.0000000E+00;  5.0354922E-01;  4.0000000E+04;  0.0000000E+00;  3.9242926E+04;  2.0502543E+00;  0.0000000E+00;  5.1558334E-01;  1.2138239E+04;
  1.2894642E+00;  9.9999998E-03;  7.0589669E-02;8522;  1.1513271E+00;  0.0000000E+00;  4.3549240E-02;  1.0080651E+03;  2.0470770E-01;  6.6722422E+03;3;  3.0630411E+01;  0.0000000E+00;  5.7671046E+00;0;  2.4757180E+00;  9.8526055E+03;  0.0000000E+00;  3.9316726E-01;  4.0000000E+04;  0.0000000E+00;  3.9246852E+04;  1.9514487E+00;  0.0000000E+00;  5.2426928E-01;  1.1618337E+04;
  1.3068885E+00;  9.9999998E-03;  2.1195519E-01;8597;  1.1554435E+00;  0.0000000E+00;  1.3460813E-01;  1.0066382E+03;  1.9518773E-01;  5.4895029E+03;3;  5.9123011E+00;  0.0000000E+00; -1.9126131E+01;0;  3.3206952E+00;  1.0823389E+04;  0.0000000E+00; -2.3921099E-01;  4.0000000E+04;  0.0000000E+00;  3.9259535E+04;  3.2588499E+00;  0.0000000E+00;  6.1845403E-02;  1.1771960E+04;
  1.3069135E+00;  9.9999998E-03;  2.0189805E-01;8596;  1.1536474E+00;  0.0000000E+00;  1.3540739E-01;  1.0067512E+03;  1.9518045E-01;  5.5828545E+03;3;  1.2210689E+01;  0.0000000E+00; -1.7832666E+01;0;  3.1462717E+00;  1.0828651E+04;  0.0000000E+00;  5.3413805E-02;  4.0000000E+04;  0.0000000E+00;  3.9258629E+04;  3.0363643E+00;  0.0000000E+00;  1.0990743E-01;  1.1752659E+04;
  1.3071730E+00;  9.9999998E-03;  2.2199495E-01;8598;  1.1574649E+00;  0.0000000E+00;  1.3390656E-01;  1.0066332E+03;  1.9509612E-01;  5.4853193E+03;3; -1.0643344E-01;  0.0000000E+00; -2.0093719E+01;0;  3.4831734E+00;  1.0829473E+04;  0.0000000E+00; -7.8720063E-01;  4.0000000E+04;  0.0000000E+00;  3.9264227E+04;  3.4542036E+00;  0.0000000E+00;  2.8969774E-02;  1.1710715E+04;
  1.3071915E+00;  9.9999998E-03;  1.9181354E-01;8595;  1.1518090E+00;  0.0000000E+00;  1.3575603E-01;  1.0069380E+03;  1.9509672E-01;  5.7373828E+03;3;  1.7967907E+01;  0.0000000E+00; -1.4531040E+01;0;  2.9652765E+00;  1.0842709E+04;  0.0000000E+00;  2.1633787E-01;  4.0000000E+04;  0.0000000E+00;  3.9257875E+04;  2.7965500E+00;  0.0000000E+00;  1.6872637E-01;  1.1777421E+04;
  1.3076844E+00;  9.9999998E-03;  2.3205291E-01;8599;  1.1600434E+00;  0.0000000E+00;  1.3333310E-01;  1.0067126E+03;  1.9493742E-01;  5.5507949E+03;3; -5.7061844E+00;  0.0000000E+00; -2.0184540E+01;0;  3.6398087E+00;  1.0843275E+04;  0.0000000E+00; -1.7508310E+00;  4.0000000E+04;  0.0000000E+00;  3.9271066E+04;  3.6243563E+00;  0.0000000E+00;  1.5452392E-02;  1.2255139E+04;
  1.3076209E+00;  9.9999998E-03;  1.8170770E-01;8594;  1.1501229E+00;  0.0000000E+00;  1.3330236E-01;  1.0071599E+03;  1.9496752E-01;  5.9206675E+03;3;  2.1317547E+01;  0.0000000E+00; -3.4860327E+00;0;  2.7861452E+00;  1.0861894E+04;  0.0000000E+00;  3.2882136E-01;  4.0000000E+04;  0.0000000E+00;  3.9256258E+04;  2.5523632E+00;  0.0000000E+00;  2.3378205E-01;  1.1909485E+04;
  1.3081087E+00;  9.9999998E-03;  1.7159523E-01;8593;  1.1490777E+00;  0.0000000E+00;  1.2539899E-01;  1.0073943E+03;  1.9481492E-01;  6.1144863E+03;3;  2.3180647E+01;  0.0000000E+00;  3.7962303E+00;0;  2.6158066E+00;  1.0883244E+04;  0.0000000E+00;  4.2575282E-01;  4.0000000E+04;  0.0000000E+00;  3.9254527E+04;  2.3151534E+00;  0.0000000E+00;  3.0065316E-01;  1.2055252E+04;
  1.3085760E+00;  9.9999998E-03;  1.6148590E-01;8592;  1.1485080E+00;  0.0000000E+00;  1.1509291E-01;  1.0076149E+03;  1.9465590E-01;  6.2967686E+03;3;  2.4838440E+01;  0.0000000E+00;  6.3013840E+00;0;  2.4577646E+00;  1.0904129E+04;  0.0000000E+00;  5.0255561E-01;  4.0000000E+04;  0.0000000E+00;  3.9253621E+04;  2.0933557E+00;  0.0000000E+00;  3.6440891E-01;  1.2084045E+04;
  1.3089163E+00;  9.9999998E-03;  7.0657089E-02;8583;  1.1506925E+00;  0.0000000E+00;  4.1020565E-02;  1.0070226E+03;  1.9454435E-01;  5.8069922E+03;3;  3.4039604E+01;  0.0000000E+00;  7.2051883E+00;0;  1.5324049E+00;  1.0874647E+04;  0.0000000E+00;  6.1600696E-02;  4.0000000E+04;  0.0000000E+00;  3.9296176E+04;  9.6004528E-01;  0.0000000E+00;  5.7235956E-01;  6.5723022E+03;
  1.3089166E+00;  9.9999998E-03;  8.0722533E-02;8584;  1.1502409E+00;  0.0000000E+00;  4.7749974E-02;  1.0072279E+03;  1.9452326E-01;  5.9767363E+03;3;  3.3315128E+01;  0.0000000E+00;  7.7480607E+00;0;  1.6055944E+00;  1.0883056E+04;  0.0000000E+00;  1.0707937E-01;  4.0000000E+04;  0.0000000E+00;  3.9291301E+04;  1.0327846E+00;  0.0000000E+00;  5.7280982E-01;  7.1861377E+03;
  1.3089452E+00;  9.9999998E-03;  9.0780012E-02;8585;  1.1497238E+00;  0.0000000E+00;  5.4838926E-02;  1.0074492E+03;  1.9449614E-01;  6.1596846E+03;3;  3.2627541E+01;  0.0000000E+00;  8.1048698E+00;0;  1.6855953E+00;  1.0893210E+04;  0.0000000E+00;  1.6558474E-01;  4.0000000E+04;  0.0000000E+00;  3.9285988E+04;  1.1155895E+00;  0.0000000E+00;  5.7000577E-01;  7.8685630E+03;
  1.3090043E+00;  9.9999998E-03;  1.0083671E-01;8586;  1.1491860E+00;  0.0000000E+00;  6.2279306E-02;  1.0076619E+03;  1.9446221E-01;  6.3356284E+03;3;  3.1869976E+01;  0.0000000E+00;  8.1920557E+00;0;  1.7716703E+00;  1.0904340E+04;  0.0000000E+00;  2.3564076E-01;  4.0000000E+04;  0.0000000E+00;  3.9280359E+04;  1.2088041E+00;  0.0000000E+00;  5.6286615E-01;  8.6117715E+03;
  1.3091011E+00;  9.9999998E-03;  1.1090750E-01;8587;  1.1486831E+00;  0.0000000E+00;  7.0039473E-02;  1.0078348E+03;  1.9442292E-01;  6.4785415E+03;3;  3.1089615E+01;  0.0000000E+00;  8.0828018E+00;0;  1.8629315E+00;  1.0916020E+04;  0.0000000E+00;  3.1400090E-01;  4.0000000E+04;  0.0000000E+00;  3.9274195E+04;  1.3126346E+00;  0.0000000E+00;  5.5029696E-01;  9.3950684E+03;
  1.3089907E+00;  9.9999998E-03;  1.5136993E-01;8591;  1.1481689E+00;  0.0000000E+00;  1.0482668E-01;  1.0078051E+03;  1.9450170E-01;  6.4540176E+03;3;  2.6531952E+01;  0.0000000E+00;  7.0202579E+00;0;  2.3112140E+00;  1.0922650E+04;  0.0000000E+00;  5.3820473E-01;  4.0000000E+04;  0.0000000E+00;  3.9254684E+04;  1.8902534E+00;  0.0000000E+00;  4.2096058E-01;  1.1904521E+04;
  1.3092270E+00;  9.9999998E-03;  1.2100431E-01;8588;  1.1482973E+00;  0.0000000E+00;  7.8080915E-02;  1.0079500E+03;  1.9438076E-01;  6.5738389E+03;3;  3.0234386E+01;  0.0000000E+00;  7.7419124E+00;0;  1.9592025E+00;  1.0927108E+04;  0.0000000E+00;  3.9501303E-01;  4.0000000E+04;  0.0000000E+00;  3.9267945E+04;  1.4280511E+00;  0.0000000E+00;  5.3115141E-01;  1.0176517E+04;
  1.3093181E+00;  9.9999998E-03;  1.3112731E-01;8589;  1.1480958E+00;  0.0000000E+00;  8.6415224E-02;  1.0079844E+03;  1.9435759E-01;  6.6022104E+03;3;  2.9186476E+01;  0.0000000E+00;  7.3778987E+00;0;  2.0628569E+00;  1.0934676E+04;  0.0000000E+00;  4.6962500E-01;  4.0000000E+04;  0.0000000E+00;  3.9262422E+04;  1.5587591E+00;  0.0000000E+00;  5.0409776E-01;  1.0899086E+04;
  1.3092682E+00;  9.9999998E-03;  1.4124762E-01;8590;  1.1480346E+00;  0.0000000E+00;  9.5255651E-02;  1.0079323E+03;  1.9438800E-01;  6.5591436E+03;3;  2.7885590E+01;  0.0000000E+00;  7.2761054E+00;0;  2.1785314E+00;  1.0934344E+04;  0.0000000E+00;  5.2354878E-01;  4.0000000E+04;  0.0000000E+00;  3.9257848E+04;  1.7107714E+00;  0.0000000E+00;  4.6775997E-01;  1.1493984E+04;
  1.3260242E+00;  9.9999998E-03;  2.2185211E-01;8659;  1.1706611E+00;  0.0000000E+00;  1.3476777E-01;  1.0060629E+03;  1.8552260E-01;  5.0105801E+03;3;  2.4956615E+01;  0.0000000E+00; -5.9336739E+00;0;  2.2694759E+00;  1.1958754E+04;  0.0000000E+00; -8.7534881E-01;  4.0000000E+04;  0.0000000E+00;  3.9278312E+04;  2.1530783E+00;  0.0000000E+00;  1.1639762E-01;  1.1203662E+04;
  1.3257370E+00;  9.9999998E-03;  2.1180731E-01;8658;  1.1655447E+00;  0.0000000E+00;  1.3434777E-01;  1.0058885E+03;  1.8559240E-01;  4.8665962E+03;3;  2.6464405E+01;  0.0000000E+00; -5.1074009E+00;0;  2.1537395E+00;  1.1949888E+04;  0.0000000E+00; -5.7433207E-02;  4.0000000E+04;  0.0000000E+00;  3.9275766E+04;  1.9996220E+00;  0.0000000E+00;  1.5411735E-01;  1.0528197E+04;
  1.3264958E+00;  9.9999998E-03;  2.3191632E-01;8660;  1.1761221E+00;  0.0000000E+00;  1.3538043E-01;  1.0063275E+03;  1.8540053E-01;  5.2292007E+03;3;  2.3536358E+01;  0.0000000E+00; -6.0827112E+00;0;  2.3860829E+00;  1.1974979E+04;  0.0000000E+00; -2.2305470E+00;  4.0000000E+04;  0.0000000E+00;  3.9283340E+04;  2.2903731E+00;  0.0000000E+00;  9.5709741E-02;  1.3170519E+04;
  1.3256549E+00;  9.9999998E-03;  2.0175898E-01;8657;  1.1607735E+00;  0.0000000E+00;  1.3361388E-01;  1.0058320E+03;  1.8560126E-01;  4.8198140E+03;3;  2.7875559E+01;  0.0000000E+00; -3.8246367E+00;0;  2.0363419E+00;  1.1949561E+04;  0.0000000E+00;  4.0459237E-01;  4.0000000E+04;  0.0000000E+00;  3.9276578E+04;  1.8325577E+00;  0.0000000E+00;  2.0378421E-01;  1.0104956E+04;
  1.3257879E+00;  9.9999998E-03;  1.9168946E-01;8656;  1.1565942E+00;  0.0000000E+00;  1.3092254E-01;  1.0058747E+03;  1.8554395E-01;  4.8551587E+03;3;  2.8024305E+01;  0.0000000E+00;  1.2646589E+00;0;  1.9170840E+00;  1.1958491E+04;  0.0000000E+00;  6.4691699E-01;  4.0000000E+04;  0.0000000E+00;  3.9278598E+04;  1.6558806E+00;  0.0000000E+00;  2.6120347E-01;  9.7480156E+03;
  1.3276087E+00;  9.9999998E-03;  7.0687532E-02;8644;  1.1469229E+00;  0.0000000E+00;  3.8958263E-02;  1.0050536E+03;  1.8500611E-01;  4.1762705E+03;3;  3.5451500E+01;  0.0000000E+00;  8.6325941E+00;0;  9.0603971E-01;  1.1970015E+04;  0.0000000E+00; -1.5164511E-01;  4.0000000E+04;  0.0000000E+00;  3.9339996E+04;  3.2787707E-01;  0.0000000E+00;  5.7816261E-01;  1.9599769E+03;
  1.3261479E+00;  9.9999998E-03;  1.8159726E-01;8655;  1.1535846E+00;  0.0000000E+00;  1.2401567E-01;  1.0059688E+03;  1.8541054E-01;  4.9328257E+03;3;  2.8020380E+01;  0.0000000E+00;  6.6106629E+00;0;  1.7968384E+00;  1.1977696E+04;  0.0000000E+00;  7.6240051E-01;  4.0000000E+04;  0.0000000E+00;  3.9280395E+04;  1.4739407E+00;  0.0000000E+00;  3.2289770E-01;  9.4902510E+03;
  1.3276209E+00;  9.9999998E-03;  8.0749057E-02;8645;  1.1467805E+00;  0.0000000E+00;  4.5264982E-02;  1.0053392E+03;  1.8497415E-01;  4.4123062E+03;3;  3.5057884E+01;  0.0000000E+00;  9.2042179E+00;0;  9.6179664E-01;  1.1982972E+04;  0.0000000E+00; -1.5444712E-01;  4.0000000E+04;  0.0000000E+00;  3.9334621E+04;  3.7640417E-01;  0.0000000E+00;  5.8539248E-01;  2.6461438E+03;
  1.3276637E+00;  9.9999998E-03;  9.0793356E-02;8646;  1.1466358E+00;  0.0000000E+00;  5.1815022E-02;  1.0056336E+03;  1.8493065E-01;  4.6555278E+03;3;  3.4445034E+01;  0.0000000E+00;  9.5208464E+00;0;  1.0220616E+00;  1.1998375E+04;  0.0000000E+00; -1.2962851E-01;  4.0000000E+04;  0.0000000E+00;  3.9328402E+04;  4.3213391E-01;  0.0000000E+00;  5.8992773E-01;  3.4426484E+03;
  1.3266413E+00;  9.9999998E-03;  1.7149062E-01;8654;  1.1513520E+00;  0.0000000E+00;  1.1477712E-01;  1.0061001E+03;  1.8523026E-01;  5.0412021E+03;3;  2.8814137E+01;  0.0000000E+00;  8.6699066E+00;0;  1.6805651E+00;  1.2002856E+04;  0.0000000E+00;  8.0030072E-01;  4.0000000E+04;  0.0000000E+00;  3.9281762E+04;  1.2959198E+00;  0.0000000E+00;  3.8464540E-01;  9.2828545E+03;
  1.3277487E+00;  9.9999998E-03;  1.0083221E-01;8647;  1.1464758E+00;  0.0000000E+00;  5.8629382E-02;  1.0059251E+03;  1.8487433E-01;  4.8963760E+03;3;  3.3705109E+01;  0.0000000E+00;  9.7871580E+00;0;  1.0857215E+00;  1.2015946E+04;  0.0000000E+00; -6.7454629E-02;  4.0000000E+04;  0.0000000E+00;  3.9321344E+04;  4.9517325E-01;  0.0000000E+00;  5.9054828E-01;  4.3357900E+03;
  1.3278664E+00;  9.9999998E-03;  1.1087587E-01;8648;  1.1463498E+00;  0.0000000E+00;  6.5715253E-02;  1.0061636E+03;  1.8480930E-01;  5.0934771E+03;3;  3.2984444E+01;  0.0000000E+00;  9.9902096E+00;0;  1.1522247E+00;  1.2034181E+04;  0.0000000E+00;  3.8238809E-02;  4.0000000E+04;  0.0000000E+00;  3.9313797E+04;  5.6621957E-01;  0.0000000E+00;  5.8600509E-01;  5.2938286E+03;
  1.3271673E+00;  9.9999998E-03;  1.6138452E-01;8653;  1.1495808E+00;  0.0000000E+00;  1.0534800E-01;  1.0062387E+03;  1.8503556E-01;  5.1556763E+03;3;  2.9693991E+01;  0.0000000E+00;  9.0163097E+00;0;  1.5710678E+00;  1.2028853E+04;  0.0000000E+00;  7.7772593E-01;  4.0000000E+04;  0.0000000E+00;  3.9283926E+04;  1.1295670E+00;  0.0000000E+00;  4.4150072E-01;  9.0147695E+03;
  1.3280011E+00;  9.9999998E-03;  1.2094335E-01;8649;  1.1463538E+00;  0.0000000E+00;  7.3048413E-02;  1.0063365E+03;  1.8474287E-01;  5.2362930E+03;3;  3.2423595E+01;  0.0000000E+00;  9.9545908E+00;0;  1.2213469E+00;  1.2051567E+04;  0.0000000E+00;  1.8592355E-01;  4.0000000E+04;  0.0000000E+00;  3.9305941E+04;  6.4632958E-01;  0.0000000E+00;  5.7501733E-01;  6.2608140E+03;
  1.3276545E+00;  9.9999998E-03;  1.5127584E-01;8652;  1.1481959E+00;  0.0000000E+00;  9.6545085E-02;  1.0063596E+03;  1.8485498E-01;  5.2554736E+03;3;  3.0444447E+01;  0.0000000E+00;  9.0403681E+00;0;  1.4688851E+00;  1.2051788E+04;  0.0000000E+00;  6.9114810E-01;  4.0000000E+04;  0.0000000E+00;  3.9287328E+04;  9.7891700E-01;  0.0000000E+00;  4.8996803E-01;  8.5845820E+03;
  1.3280607E+00;  9.9999998E-03;  1.3104059E-01;8650;  1.1466074E+00;  0.0000000E+00;  8.0585293E-02;  1.0064279E+03;  1.8470916E-01;  5.3118394E+03;3;  3.1831558E+01;  0.0000000E+00;  9.6586218E+00;0;  1.2954535E+00;  1.2062965E+04;  0.0000000E+00;  3.6308515E-01;  4.0000000E+04;  0.0000000E+00;  3.9298703E+04;  7.3925513E-01;  0.0000000E+00;  5.5619836E-01;  7.1740415E+03;
  1.3279591E+00;  9.9999998E-03;  1.4115886E-01;8651;  1.1472046E+00;  0.0000000E+00;  8.8371843E-02;  1.0064299E+03;  1.8474272E-01;  5.3135347E+03;3;  3.1184151E+01;  0.0000000E+00;  9.2820950E+00;0;  1.3773077E+00;  1.2063724E+04;  0.0000000E+00;  5.4358435E-01;  4.0000000E+04;  0.0000000E+00;  3.9292371E+04;  8.4912115E-01;  0.0000000E+00;  5.2818656E-01;  7.9659653E+03;
  1.3434607E+00;  9.9999998E-03;  2.0165487E-01;8718;  1.1604142E+00;  0.0000000E+00;  1.2519222E-01;  1.0043762E+03;  1.7675115E-01;  3.6139778E+03;3;  3.0702875E+01;  0.0000000E+00;  3.7682967E+00;0;  1.2399884E+00;  1.3133200E+04;  0.0000000E+00;  7.1086228E-01;  4.0000000E+04;  0.0000000E+00;  3.9296504E+04;  9.7326112E-01;  0.0000000E+00;  2.6672730E-01;  7.9298320E+03;
  1.3435720E+00;  9.9999998E-03;  2.1168900E-01;8719;  1.1657763E+00;  0.0000000E+00;  1.2704305E-01;  1.0045781E+03;  1.7675598E-01;  3.7807266E+03;3;  3.0477474E+01;  0.0000000E+00;  1.6536549E+00;0;  1.3088503E+00;  1.3135485E+04;  0.0000000E+00;  1.9927923E-01;  4.0000000E+04;  0.0000000E+00;  3.9294359E+04;  1.0901084E+00;  0.0000000E+00;  2.1874188E-01;  8.5213496E+03;
  1.3436025E+00;  9.9999998E-03;  1.9160031E-01;8717;  1.1559963E+00;  0.0000000E+00;  1.2048315E-01;  1.0042885E+03;  1.7667007E-01;  3.5415955E+03;3;  3.0622675E+01;  0.0000000E+00;  7.1524343E+00;0;  1.1691024E+00;  1.3142858E+04;  0.0000000E+00;  9.3545532E-01;  4.0000000E+04;  0.0000000E+00;  3.9301238E+04;  8.4924191E-01;  0.0000000E+00;  3.1986052E-01;  7.3320034E+03;
  1.3439236E+00;  9.9999998E-03;  2.2172993E-01;8720;  1.1715795E+00;  0.0000000E+00;  1.2789564E-01;  1.0048964E+03;  1.7669104E-01;  4.0435093E+03;3;  2.9941162E+01;  0.0000000E+00;  1.1535236E+00;0;  1.3757957E+00;  1.3148622E+04;  0.0000000E+00; -7.7788645E-01;  4.0000000E+04;  0.0000000E+00;  3.9295930E+04;  1.1967610E+00;  0.0000000E+00;  1.7903467E-01;  9.6610264E+03;
  1.3439423E+00;  9.9999998E-03;  1.8152390E-01;8716;  1.1524819E+00;  0.0000000E+00;  1.1308887E-01;  1.0042787E+03;  1.7653403E-01;  3.5333667E+03;3;  3.0617521E+01;  0.0000000E+00;  9.4392977E+00;0;  1.0993564E+00;  1.3161899E+04;  0.0000000E+00;  9.8520356E-01;  4.0000000E+04;  0.0000000E+00;  3.9305781E+04;  7.2402990E-01;  0.0000000E+00;  3.7532648E-01;  6.7971953E+03;
  1.3444548E+00;  9.9999998E-03;  2.3180260E-01;8721;  1.1777985E+00;  0.0000000E+00;  1.2849508E-01;  1.0052670E+03;  1.7657416E-01;  4.3494614E+03;3;  2.9526333E+01;  0.0000000E+00;  1.1138604E+00;0;  1.4438536E+00;  1.3170103E+04;  0.0000000E+00; -2.5044200E+00;  4.0000000E+04;  0.0000000E+00;  3.9298934E+04;  1.2927792E+00;  0.0000000E+00;  1.5107442E-01;  1.3201199E+04;
  1.3444030E+00;  9.9999998E-03;  1.7142706E-01;8715;  1.1496214E+00;  0.0000000E+00;  1.0487764E-01;  1.0043253E+03;  1.7636609E-01;  3.5717791E+03;3;  3.1092089E+01;  0.0000000E+00;  1.0308764E+01;0;  1.0325000E+00;  1.3186309E+04;  0.0000000E+00;  9.3296945E-01;  4.0000000E+04;  0.0000000E+00;  3.9309363E+04;  6.0332942E-01;  0.0000000E+00;  4.2917061E-01;  6.3389360E+03;
  1.3448843E+00;  9.9999998E-03;  1.6131076E-01;8714;  1.1473176E+00;  0.0000000E+00;  9.6836530E-02;  1.0043941E+03;  1.7619585E-01;  3.6284951E+03;3;  3.1560640E+01;  0.0000000E+00;  1.0593982E+01;0;  9.6935827E-01;  1.3210759E+04;  0.0000000E+00;  8.1932777E-01;  4.0000000E+04;  0.0000000E+00;  3.9312730E+04;  4.9197498E-01;  0.0000000E+00;  4.7738329E-01;  5.8932207E+03;
  1.3452755E+00;  9.9999998E-03;  1.5118749E-01;8713;  1.1455160E+00;  0.0000000E+00;  8.9245886E-02;  1.0044595E+03;  1.7606385E-01;  3.6824680E+03;3;  3.2041622E+01;  0.0000000E+00;  1.0971320E+01;0;  9.1066611E-01;  1.3228514E+04;  0.0000000E+00;  6.5904868E-01;  4.0000000E+04;  0.0000000E+00;  3.9316879E+04;  3.9350221E-01;  0.0000000E+00;  5.1716393E-01;  5.3674863E+03;
  1.3455253E+00;  9.9999998E-03;  1.4106749E-01;8712;  1.1442144E+00;  0.0000000E+00;  8.2015529E-02;  1.0044935E+03;  1.7599164E-01;  3.7104771E+03;3;  3.2518002E+01;  0.0000000E+00;  1.1449727E+01;0;  8.5579526E-01;  1.3235884E+04;  0.0000000E+00;  4.5768622E-01;  4.0000000E+04;  0.0000000E+00;  3.9322367E+04;  3.0850920E-01;  0.0000000E+00;  5.4728603E-01;  4.6980649E+03;
  1.3455139E+00;  9.9999998E-03;  9.0760164E-02;8707;  1.1420817E+00;  0.0000000E+00;  4.8533019E-02;  1.0034594E+03;  1.7615788E-01;  2.8565396E+03;3;  3.5259449E+01;  0.0000000E+00;  1.1068503E+01;0;  6.0928965E-01;  1.3161599E+04;  0.0000000E+00; -2.7664256E-01;  4.0000000E+04;  0.0000000E+00;  3.9362039E+04;  3.1755708E-02;  0.0000000E+00;  5.7753396E-01;  1.0461621E+03;
  1.3455416E+00;  9.9999998E-03;  1.0080201E-01;8708;  1.1422155E+00;  0.0000000E+00;  5.4849166E-02;  1.0038070E+03;  1.7611299E-01;  3.1435771E+03;3;  3.4939304E+01;  0.0000000E+00;  1.1709620E+01;0;  6.5643346E-01;  1.3180911E+04;  0.0000000E+00; -2.2898540E-01;  4.0000000E+04;  0.0000000E+00;  3.9354020E+04;  7.2922274E-02;  0.0000000E+00;  5.8351117E-01;  1.2685101E+03;
  1.3455156E+00;  9.9999998E-03;  8.0703974E-02;8706;  1.1420076E+00;  0.0000000E+00;  4.2444814E-02;  1.0031069E+03;  1.7619056E-01;  2.5654614E+03;3;  3.5604267E+01;  0.0000000E+00;  1.0473328E+01;0;  5.6399113E-01;  1.3144417E+04;  0.0000000E+00; -2.7832711E-01;  4.0000000E+04;  0.0000000E+00;  3.9369234E+04; -4.1420176E-03;  0.0000000E+00;  5.6813318E-01;  1.4937292E+03;
  1.3455905E+00;  9.9999998E-03;  1.1084620E-01;8709;  1.1424147E+00;  0.0000000E+00;  6.1398208E-02;  1.0041084E+03;  1.7606047E-01;  3.3925154E+03;3;  3.4371162E+01;  0.0000000E+00;  1.2010517E+01;0;  7.0471054E-01;  1.3200784E+04;  0.0000000E+00; -1.2549886E-01;  4.0000000E+04;  0.0000000E+00;  3.9345465E+04;  1.1995120E-01;  0.0000000E+00;  5.8475935E-01;  2.0435237E+03;
  1.3456323E+00;  9.9999998E-03;  1.3097148E-01;8711;  1.1433190E+00;  0.0000000E+00;  7.5002708E-02;  1.0044572E+03;  1.7597923E-01;  3.6804346E+03;3;  3.2991482E+01;  0.0000000E+00;  1.1888102E+01;0;  8.0383819E-01;  1.3231954E+04;  0.0000000E+00;  2.3740755E-01;  4.0000000E+04;  0.0000000E+00;  3.9329180E+04;  2.3595019E-01;  0.0000000E+00;  5.6788802E-01;  3.8840542E+03;
  1.3455279E+00;  9.9999998E-03;  7.0630968E-02;8705;  1.1419662E+00;  0.0000000E+00;  3.6537685E-02;  1.0027604E+03;  1.7621613E-01;  2.2794026E+03;3;  3.5910458E+01;  0.0000000E+00;  9.8244696E+00;0;  5.2177191E-01;  1.3129202E+04;  0.0000000E+00; -2.4836242E-01;  4.0000000E+04;  0.0000000E+00;  3.9375434E+04; -3.4854546E-02;  0.0000000E+00;  5.5662644E-01;  2.1057712E+03;
  1.3456380E+00;  9.9999998E-03;  1.2090185E-01;8710;  1.1427569E+00;  0.0000000E+00;  6.8126187E-02;  1.0043228E+03;  1.7600819E-01;  3.5694958E+03;3;  3.3694935E+01;  0.0000000E+00;  1.2085654E+01;0;  7.5371909E-01;  1.3219099E+04;  0.0000000E+00;  3.4219988E-02;  4.0000000E+04;  0.0000000E+00;  3.9336840E+04;  1.7374650E-01;  0.0000000E+00;  5.7997257E-01;  2.9709097E+03;
  1.3607202E+00;  9.9999998E-03;  2.0153850E-01;8779;  1.1583122E+00;  0.0000000E+00;  1.1487945E-01;  1.0028635E+03;  1.6862026E-01;  2.3625640E+03;3;  3.2415012E+01;  0.0000000E+00;  6.7149129E+00;0;  7.0712954E-01;  1.4378793E+04;  0.0000000E+00;  9.5154023E-01;  4.0000000E+04;  0.0000000E+00;  3.9317902E+04;  4.0463260E-01;  0.0000000E+00;  3.0249694E-01;  5.4533379E+03;
  1.3606797E+00;  9.9999998E-03;  1.9149785E-01;8778;  1.1534867E+00;  0.0000000E+00;  1.1027180E-01;  1.0026714E+03;  1.6859396E-01;  2.2041211E+03;3;  3.1997225E+01;  0.0000000E+00;  9.7226210E+00;0;  6.7808402E-01;  1.4377885E+04;  0.0000000E+00;  1.0993520E+00;  4.0000000E+04;  0.0000000E+00;  3.9322750E+04;  3.2899410E-01;  0.0000000E+00;  3.4908989E-01;  4.9144287E+03;
  1.3610092E+00;  9.9999998E-03;  2.1157084E-01;8780;  1.1640277E+00;  0.0000000E+00;  1.1689781E-01;  1.0031422E+03;  1.6858400E-01;  2.5923711E+03;3;  3.1953035E+01;  0.0000000E+00;  4.9450121E+00;0;  7.3458910E-01;  1.4391170E+04;  0.0000000E+00;  4.5113507E-01;  4.0000000E+04;  0.0000000E+00;  3.9315273E+04;  4.7560167E-01;  0.0000000E+00;  2.5898743E-01;  5.9079185E+03;
  1.3608719E+00;  9.9999998E-03;  1.8143862E-01;8777;  1.1496015E+00;  0.0000000E+00;  1.0360986E-01;  1.0025649E+03;  1.6850750E-01;  2.1161670E+03;3;  3.2132301E+01;  0.0000000E+00;  1.1438635E+01;0;  6.4834738E-01;  1.4388265E+04;  0.0000000E+00;  1.0491211E+00;  4.0000000E+04;  0.0000000E+00;  3.9328398E+04;  2.5156790E-01;  0.0000000E+00;  3.9677945E-01;  4.2678618E+03;
  1.3615013E+00;  9.9999998E-03;  2.2161892E-01;8781;  1.1700871E+00;  0.0000000E+00;  1.1791841E-01;  1.0035010E+03;  1.6849390E-01;  2.8884216E+03;3;  3.1407408E+01;  0.0000000E+00;  4.6697388E+00;0;  7.6178330E-01;  1.4412457E+04;  0.0000000E+00; -6.9543868E-01;  4.0000000E+04;  0.0000000E+00;  3.9316617E+04;  5.4085940E-01;  0.0000000E+00;  2.2092390E-01;  7.4671538E+03;
  1.3612231E+00;  9.9999998E-03;  1.7135638E-01;8776;  1.1464155E+00;  0.0000000E+00;  9.6379124E-02;  1.0025184E+03;  1.6838565E-01;  2.0777642E+03;3;  3.2495480E+01;  0.0000000E+00;  1.2315179E+01;0;  6.1850315E-01;  1.4405839E+04;  0.0000000E+00;  8.9439243E-01;  4.0000000E+04;  0.0000000E+00;  3.9332898E+04;  1.7620771E-01;  0.0000000E+00;  4.4229546E-01;  3.6341978E+03;
  1.3620583E+00;  9.9999998E-03;  2.3170352E-01;8782;  1.1765412E+00;  0.0000000E+00;  1.1850191E-01;  1.0038475E+03;  1.6838656E-01;  3.1741135E+03;3;  3.1154438E+01;  0.0000000E+00;  5.0728989E+00;0;  7.9280853E-01;  1.4436614E+04;  0.0000000E+00; -2.9547117E+00;  4.0000000E+04;  0.0000000E+00;  3.9317848E+04;  6.0265923E-01;  0.0000000E+00;  1.9014928E-01;  1.2894377E+04;
  1.3615972E+00;  9.9999998E-03;  1.6124478E-01;8775;  1.1438371E+00;  0.0000000E+00;  8.9221425E-02;  1.0025188E+03;  1.6826913E-01;  2.0780105E+03;3;  3.2574738E+01;  0.0000000E+00;  1.2966887E+01;0;  5.8922267E-01;  1.4423077E+04;  0.0000000E+00;  6.9959557E-01;  4.0000000E+04;  0.0000000E+00;  3.9336738E+04;  1.0681123E-01;  0.0000000E+00;  4.8241141E-01;  3.0672969E+03;
  1.3618654E+00;  9.9999998E-03;  1.5111178E-01;8774;  1.1418612E+00;  0.0000000E+00;  8.2315683E-02;  1.0025377E+03;  1.6819935E-01;  2.0936128E+03;3;  3.2972366E+01;  0.0000000E+00;  1.3504183E+01;0;  5.6072474E-01;  1.4432192E+04;  0.0000000E+00;  4.9692717E-01;  4.0000000E+04;  0.0000000E+00;  3.9340668E+04;  4.5825493E-02;  0.0000000E+00;  5.1489925E-01;  2.5278994E+03;
  1.3620551E+00;  9.9999998E-03;  1.4099933E-01;8773;  1.1403441E+00;  0.0000000E+00;  7.5672500E-02;  1.0025328E+03;  1.6816890E-01;  2.0895557E+03;3;  3.3600754E+01;  0.0000000E+00;  1.3779448E+01;0;  5.3108436E-01;  1.4433695E+04;  0.0000000E+00;  2.9060164E-01;  4.0000000E+04;  0.0000000E+00;  3.9345660E+04; -7.4792430E-03;  0.0000000E+00;  5.3856361E-01;  1.9351268E+03;
  1.3622112E+00;  9.9999998E-03;  1.3091008E-01;8772;  1.1391621E+00;  0.0000000E+00;  6.9226824E-02;  1.0024609E+03;  1.6815546E-01;  2.0302330E+03;3;  3.4258419E+01;  0.0000000E+00;  1.3837428E+01;0;  4.9917629E-01;  1.4429555E+04;  0.0000000E+00;  8.7221965E-02;  4.0000000E+04;  0.0000000E+00;  3.9352051E+04; -5.4265577E-02;  0.0000000E+00;  5.5344188E-01;  1.3289277E+03;
  1.3623459E+00;  9.9999998E-03;  1.2084001E-01;8771;  1.1382684E+00;  0.0000000E+00;  6.2919773E-02;  1.0023044E+03;  1.6815342E-01;  1.9010898E+03;3;  3.4708733E+01;  0.0000000E+00;  1.3769148E+01;0;  4.6520656E-01;  1.4420672E+04;  0.0000000E+00; -8.8960342E-02;  4.0000000E+04;  0.0000000E+00;  3.9359883E+04; -9.5184512E-02;  0.0000000E+00;  5.6039107E-01;  1.0540300E+03;
  1.3624452E+00;  9.9999998E-03;  1.1078442E-01;8770;  1.1375990E+00;  0.0000000E+00;  5.6755785E-02;  1.0020580E+03;  1.6816598E-01;  1.6978019E+03;3;  3.5058914E+01;  0.0000000E+00;  1.3441237E+01;0;  4.3002754E-01;  1.4407015E+04;  0.0000000E+00; -2.1770577E-01;  4.0000000E+04;  0.0000000E+00;  3.9368480E+04; -1.3057119E-01;  0.0000000E+00;  5.6059873E-01;  1.5376587E+03;
  1.3625112E+00;  9.9999998E-03;  1.0073151E-01;8769;  1.1371183E+00;  0.0000000E+00;  5.0735787E-02;  1.0017363E+03;  1.6818672E-01;  1.4323669E+03;3;  3.5388428E+01;  0.0000000E+00;  1.3026476E+01;0;  3.9437199E-01;  1.4390055E+04;  0.0000000E+00; -2.9112735E-01;  4.0000000E+04;  0.0000000E+00;  3.9377336E+04; -1.6098408E-01;  0.0000000E+00;  5.5535609E-01;  2.4022222E+03;
  1.3625591E+00;  9.9999998E-03;  9.0673752E-02;8768;  1.1367797E+00;  0.0000000E+00;  4.4877548E-02;  1.0013686E+03;  1.6821130E-01;  1.1290734E+03;3;  3.5746861E+01;  0.0000000E+00;  1.2416966E+01;0;  3.5892063E-01;  1.4371827E+04;  0.0000000E+00; -3.1246248E-01;  4.0000000E+04;  0.0000000E+00;  3.9386164E+04; -1.8704879E-01;  0.0000000E+00;  5.4596943E-01;  3.3397305E+03;
  1.3625885E+00;  9.9999998E-03;  8.0610141E-02;8767;  1.1365179E+00;  0.0000000E+00;  3.9204627E-02;  1.0009869E+03;  1.6823563E-01;  8.1417828E+02;3;  3.6200615E+01;  0.0000000E+00;  1.1643593E+01;0;  3.2462364E-01;  1.4353514E+04;  0.0000000E+00; -2.9318708E-01;  4.0000000E+04;  0.0000000E+00;  3.9394070E+04; -2.0916106E-01;  0.0000000E+00;  5.3378469E-01;  4.2373315E+03;
  1.3626037E+00;  9.9999998E-03;  7.0541687E-02;8766;  1.1363125E+00;  0.0000000E+00;  3.3719946E-02;  1.0006218E+03;  1.6826080E-01;  5.1295447E+02;3;  3.6516502E+01;  0.0000000E+00;  1.0643615E+01;0;  2.9234982E-01;  1.4336595E+04;  0.0000000E+00; -2.4843116E-01;  4.0000000E+04;  0.0000000E+00;  3.9400898E+04; -2.2773737E-01;  0.0000000E+00;  5.2008718E-01;  5.0393267E+03;
  1.3769417E+00;  9.9999998E-03;  1.9140895E-01;8839;  1.1502621E+00;  0.0000000E+00;  1.0066859E-01;  1.0013301E+03;  1.6139165E-01;  1.0961927E+03;3;  3.3383877E+01;  0.0000000E+00;  1.1865230E+01;0;  3.7688807E-01;  1.5638728E+04;  0.0000000E+00;  1.1742803E+00;  4.0000000E+04;  0.0000000E+00;  3.9340176E+04;  1.9937735E-02;  0.0000000E+00;  3.5695034E-01;  3.0135691E+03;
  1.3769904E+00;  9.9999998E-03;  1.8136433E-01;8838;  1.1459833E+00;  0.0000000E+00;  9.4912574E-02;  1.0011223E+03;  1.6135348E-01;  9.2485376E+02;3;  3.3227036E+01;  0.0000000E+00;  1.3579155E+01;0;  3.7123302E-01;  1.5638493E+04;  0.0000000E+00;  1.0188673E+00;  4.0000000E+04;  0.0000000E+00;  3.9345902E+04; -2.5764355E-02;  0.0000000E+00;  3.9699736E-01;  2.3108208E+03;
  1.3771385E+00;  9.9999998E-03;  2.0143870E-01;8840;  1.1555083E+00;  0.0000000E+00;  1.0459977E-01;  1.0016005E+03;  1.6137746E-01;  1.3189869E+03;3;  3.3425354E+01;  0.0000000E+00;  9.0942545E+00;0;  3.8114199E-01;  1.5649953E+04;  0.0000000E+00;  1.1458179E+00;  4.0000000E+04;  0.0000000E+00;  3.9335531E+04;  6.3804351E-02;  0.0000000E+00;  3.1733763E-01;  3.3607412E+03;
  1.3771871E+00;  9.9999998E-03;  1.7129545E-01;8837;  1.1425648E+00;  0.0000000E+00;  8.8415518E-02;  1.0009808E+03;  1.6129051E-01;  8.0822754E+02;3;  3.3385914E+01;  0.0000000E+00;  1.4530985E+01;0;  3.6429828E-01;  1.5644560E+04;  0.0000000E+00;  7.7250367E-01;  4.0000000E+04;  0.0000000E+00;  3.9350797E+04; -7.0653930E-02;  0.0000000E+00;  4.3495223E-01;  1.4785618E+03;
  1.3775810E+00;  9.9999998E-03;  2.1147265E-01;8841;  1.1614385E+00;  0.0000000E+00;  1.0665218E-01;  1.0019253E+03;  1.6130799E-01;  1.5866387E+03;3;  3.3266769E+01;  0.0000000E+00;  7.4396691E+00;0;  3.8425824E-01;  1.5671187E+04;  0.0000000E+00;  7.3901844E-01;  4.0000000E+04;  0.0000000E+00;  3.9334113E+04;  1.0436162E-01;  0.0000000E+00;  2.7989662E-01;  3.2916663E+03;
  1.3774099E+00;  9.9999998E-03;  1.6119520E-01;8836;  1.1398036E+00;  0.0000000E+00;  8.1895985E-02;  1.0008876E+03;  1.6123781E-01;  7.3148859E+02;3;  3.3747341E+01;  0.0000000E+00;  1.5136373E+01;0;  3.5576862E-01;  1.5649998E+04;  0.0000000E+00;  5.0719994E-01;  4.0000000E+04;  0.0000000E+00;  3.9354824E+04; -1.1245383E-01;  0.0000000E+00;  4.6822247E-01;  6.8394385E+02;
  1.3776102E+00;  9.9999998E-03;  1.5107240E-01;8835;  1.1375721E+00;  0.0000000E+00;  7.5560994E-02;  1.0008272E+03;  1.6120458E-01;  6.8167053E+02;3;  3.4146667E+01;  0.0000000E+00;  1.5538413E+01;0;  3.4450114E-01;  1.5652055E+04;  0.0000000E+00;  2.7245769E-01;  4.0000000E+04;  0.0000000E+00;  3.9358324E+04; -1.5028724E-01;  0.0000000E+00;  4.9478838E-01;  2.3032381E+02;
  1.3778273E+00;  9.9999998E-03;  1.4094935E-01;8834;  1.1357499E+00;  0.0000000E+00;  6.9395795E-02;  1.0007609E+03;  1.6117674E-01;  6.2703961E+02;3;  3.4661022E+01;  0.0000000E+00;  1.5840886E+01;0;  3.2904172E-01;  1.5652655E+04;  0.0000000E+00;  7.8922331E-02;  4.0000000E+04;  0.0000000E+00;  3.9362879E+04; -1.8434280E-01;  0.0000000E+00;  5.1338452E-01;  7.9388611E+02;
  1.3781769E+00;  9.9999998E-03;  2.2153951E-01;8842;  1.1678299E+00;  0.0000000E+00;  1.0753687E-01;  1.0022034E+03;  1.6120246E-01;  1.8156432E+03;3;  3.2797272E+01;  0.0000000E+00;  6.9022393E+00;0;  3.8762689E-01;  1.5697681E+04;  0.0000000E+00; -4.9921876E-01;  4.0000000E+04;  0.0000000E+00;  3.9334719E+04;  1.4189667E-01;  0.0000000E+00;  2.4573024E-01;  4.8936768E+03;
  1.3780679E+00;  9.9999998E-03;  1.3084577E-01;8833;  1.1343066E+00;  0.0000000E+00;  6.3344099E-02;  1.0006595E+03;  1.6114649E-01;  5.4352869E+02;3;  3.4928646E+01;  0.0000000E+00;  1.5803136E+01;0;  3.0921930E-01;  1.5651488E+04;  0.0000000E+00; -8.0115743E-02;  4.0000000E+04;  0.0000000E+00;  3.9368656E+04; -2.1462689E-01;  0.0000000E+00;  5.2384621E-01;  1.5268406E+03;
  1.3782973E+00;  9.9999998E-03;  1.2076706E-01;8832;  1.1331503E+00;  0.0000000E+00;  5.7452798E-02;  1.0004828E+03;  1.6112444E-01;  3.9784039E+02;3;  3.5390030E+01;  0.0000000E+00;  1.5505365E+01;0;  2.8595757E-01;  1.5646622E+04;  0.0000000E+00; -1.9693427E-01;  4.0000000E+04;  0.0000000E+00;  3.9375660E+04; -2.4105398E-01;  0.0000000E+00;  5.2701157E-01;  2.3632993E+03;
  1.3787374E+00;  9.9999998E-03;  2.3163740E-01;8843;  1.1744626E+00;  0.0000000E+00;  1.0805495E-01;  1.0023733E+03;  1.6110097E-01;  1.9556355E+03;3;  3.2041679E+01;  0.0000000E+00;  6.7488742E+00;0;  3.9508599E-01;  1.5721307E+04;  0.0000000E+00; -3.2863996E+00;  4.0000000E+04;  0.0000000E+00;  3.9333848E+04;  1.7908528E-01;  0.0000000E+00;  2.1600071E-01;  1.1663941E+04;
  1.3784881E+00;  9.9999998E-03;  1.1070292E-01;8831;  1.1322303E+00;  0.0000000E+00;  5.1736809E-02;  1.0002414E+03;  1.6111298E-01;  1.9891714E+02;3;  3.5764084E+01;  0.0000000E+00;  1.5016759E+01;0;  2.6029125E-01;  1.5636990E+04;  0.0000000E+00; -2.6358902E-01;  4.0000000E+04;  0.0000000E+00;  3.9383785E+04; -2.6378599E-01;  0.0000000E+00;  5.2407724E-01;  3.2935681E+03;
  1.3786380E+00;  9.9999998E-03;  1.0064235E-01;8830;  1.1314896E+00;  0.0000000E+00;  4.6188362E-02;  9.9993567E+02;  1.6111313E-01; -5.2994820E+01;3;  3.6117882E+01;  0.0000000E+00;  1.4431455E+01;0;  2.3311278E-01;  1.5623736E+04;  0.0000000E+00; -2.8246602E-01;  4.0000000E+04;  0.0000000E+00;  3.9392492E+04; -2.8318641E-01;  0.0000000E+00;  5.1629919E-01;  4.2893188E+03;
  1.3787450E+00;  9.9999998E-03;  9.0582229E-02;8829;  1.1309037E+00;  0.0000000E+00;  4.0778220E-02;  9.9958105E+02;  1.6111915E-01; -3.4522461E+02;3;  3.6418488E+01;  0.0000000E+00;  1.3648794E+01;0;  2.0538855E-01;  1.5608030E+04;  0.0000000E+00; -2.6336294E-01;  4.0000000E+04;  0.0000000E+00;  3.9401074E+04; -2.9959357E-01;  0.0000000E+00;  5.0498211E-01;  5.3020562E+03;
  1.3788129E+00;  9.9999998E-03;  8.0523297E-02;8828;  1.1304557E+00;  0.0000000E+00;  3.5542417E-02;  9.9922424E+02;  1.6113001E-01; -6.3921948E+02;3;  3.6684196E+01;  0.0000000E+00;  1.2577787E+01;0;  1.7805848E-01;  1.5591338E+04;  0.0000000E+00; -2.2012462E-01;  4.0000000E+04;  0.0000000E+00;  3.9409629E+04; -3.1335187E-01;  0.0000000E+00;  4.9141034E-01;  6.2777588E+03;
  1.3788490E+00;  9.9999998E-03;  7.0466273E-02;8827;  1.1300929E+00;  0.0000000E+00;  3.0518319E-02;  9.9886945E+02;  1.6114475E-01; -9.3159271E+02;3;  3.6918285E+01;  0.0000000E+00;  1.1320952E+01;0;  1.5201041E-01;  1.5574960E+04;  0.0000000E+00; -1.6690959E-01;  4.0000000E+04;  0.0000000E+00;  3.9417051E+04; -3.2477850E-01;  0.0000000E+00;  4.7678891E-01;  7.1694849E+03;
  1.3924422E+00;  9.9999998E-03;  1.8131526E-01;8899;  1.1419226E+00;  0.0000000E+00;  8.6499654E-02;  1.0000721E+03;  1.5499891E-01;  5.9355637E+01;3;  3.4519325E+01;  0.0000000E+00;  1.5628726E+01;0;  2.0331356E-01;  1.6903484E+04;  0.0000000E+00;  9.3299264E-01;  4.0000000E+04;  0.0000000E+00;  3.9357094E+04; -1.8163601E-01;  0.0000000E+00;  3.8494956E-01;  1.6322898E+03;
  1.3924829E+00;  9.9999998E-03;  1.7125611E-01;8898;  1.1381890E+00;  0.0000000E+00;  8.0777995E-02;  9.9981671E+02;  1.5498757E-01; -1.5084120E+02;3;  3.4543446E+01;  0.0000000E+00;  1.6809965E+01;0;  2.0792848E-01;  1.6895762E+04;  0.0000000E+00;  6.0760456E-01;  4.0000000E+04;  0.0000000E+00;  3.9362605E+04; -2.0827717E-01;  0.0000000E+00;  4.1620564E-01;  1.2727748E+03;
  1.3925712E+00;  9.9999998E-03;  1.9135502E-01;8900;  1.1465718E+00;  0.0000000E+00;  9.1315918E-02;  1.0003628E+03;  1.5498500E-01;  2.9854034E+02;3;  3.4773273E+01;  0.0000000E+00;  1.3652942E+01;0;  1.9647776E-01;  1.6917602E+04;  0.0000000E+00;  1.2070427E+00;  4.0000000E+04;  0.0000000E+00;  3.9350980E+04; -1.5551911E-01;  0.0000000E+00;  3.5199687E-01;  2.2347200E+03;
  1.3926122E+00;  9.9999998E-03;  1.6116770E-01;8897;  1.1351728E+00;  0.0000000E+00;  7.4722953E-02;  9.9960217E+02;  1.5497027E-01; -3.2738251E+02;3;  3.4762581E+01;  0.0000000E+00;  1.7505869E+01;0;  2.0940286E-01;  1.6891082E+04;  0.0000000E+00;  2.8857839E-01;  4.0000000E+04;  0.0000000E+00;  3.9366785E+04; -2.3414257E-01;  0.0000000E+00;  4.4354543E-01;  1.4934740E+03;
  1.3928044E+00;  9.9999998E-03;  1.5104803E-01;8896;  1.1326889E+00;  0.0000000E+00;  6.8710558E-02;  9.9942639E+02;  1.5494619E-01; -4.7208115E+02;3;  3.5069756E+01;  0.0000000E+00;  1.7640333E+01;0;  2.0656493E-01;  1.6888826E+04;  0.0000000E+00;  3.1449098E-02;  4.0000000E+04;  0.0000000E+00;  3.9370535E+04; -2.5849205E-01;  0.0000000E+00;  4.6505699E-01;  2.0474608E+03;
  1.3929113E+00;  9.9999998E-03;  2.0138903E-01;8901;  1.1521540E+00;  0.0000000E+00;  9.4541118E-02;  1.0006684E+03;  1.5493715E-01;  5.5006873E+02;3;  3.4798992E+01;  0.0000000E+00;  1.1418554E+01;0;  1.8822648E-01;  1.6938645E+04;  0.0000000E+00;  1.3564909E+00;  4.0000000E+04;  0.0000000E+00;  3.9345961E+04; -1.3106911E-01;  0.0000000E+00;  3.1929559E-01;  2.6395586E+03;
  1.3930490E+00;  9.9999998E-03;  1.4091547E-01;8895;  1.1306374E+00;  0.0000000E+00;  6.2876105E-02;  9.9927869E+02;  1.5491813E-01; -5.9361877E+02;3;  3.5382214E+01;  0.0000000E+00;  1.7662840E+01;0;  1.9868094E-01;  1.6888385E+04;  0.0000000E+00; -1.4258686E-01;  4.0000000E+04;  0.0000000E+00;  3.9374387E+04; -2.8080854E-01;  0.0000000E+00;  4.7948948E-01;  2.6662388E+03;
  1.3933234E+00;  9.9999998E-03;  1.3079999E-01;8894;  1.1289176E+00;  0.0000000E+00;  5.7213150E-02;  9.9913159E+02;  1.5488590E-01; -7.1460876E+02;3;  3.5728409E+01;  0.0000000E+00;  1.7484224E+01;0;  1.8587911E-01;  1.6887715E+04;  0.0000000E+00; -2.4527191E-01;  4.0000000E+04;  0.0000000E+00;  3.9379465E+04; -3.0070356E-01;  0.0000000E+00;  4.8658267E-01;  3.3231042E+03;
  1.3934426E+00;  9.9999998E-03;  2.1143781E-01;8902;  1.1583838E+00;  0.0000000E+00;  9.6344642E-02;  1.0009108E+03;  1.5485676E-01;  7.4957239E+02;3;  3.4434139E+01;  0.0000000E+00;  9.6742706E+00;0;  1.7933056E-01;  1.6963898E+04;  0.0000000E+00;  1.1404530E+00;  4.0000000E+04;  0.0000000E+00;  3.9343434E+04; -1.0881390E-01;  0.0000000E+00;  2.8814447E-01;  2.2807522E+03;
  1.3935940E+00;  9.9999998E-03;  1.2071177E-01;8893;  1.1275020E+00;  0.0000000E+00;  5.1719662E-02;  9.9894739E+02;  1.5485623E-01; -8.6619873E+02;3;  3.6032703E+01;  0.0000000E+00;  1.7037668E+01;0;  1.6898867E-01;  1.6884842E+04;  0.0000000E+00; -2.8780800E-01;  4.0000000E+04;  0.0000000E+00;  3.9385520E+04; -3.1805775E-01;  0.0000000E+00;  4.8704642E-01;  4.0552822E+03;
  1.3938348E+00;  9.9999998E-03;  1.1063992E-01;8892;  1.1263461E+00;  0.0000000E+00;  4.6404202E-02;  9.9872650E+02;  1.5483639E-01; -1.0479475E+03;3;  3.6336491E+01;  0.0000000E+00;  1.6354029E+01;0;  1.4904454E-01;  1.6878338E+04;  0.0000000E+00; -2.7715388E-01;  4.0000000E+04;  0.0000000E+00;  3.9392625E+04; -3.3296910E-01;  0.0000000E+00;  4.8201364E-01;  4.8851030E+03;
  1.3940353E+00;  9.9999998E-03;  1.0057451E-01;8891;  1.1253997E+00;  0.0000000E+00;  4.1270725E-02;  9.9845441E+02;  1.5482461E-01; -1.2718234E+03;3;  3.6580334E+01;  0.0000000E+00;  1.5427885E+01;0;  1.2705705E-01;  1.6868568E+04;  0.0000000E+00; -2.2882982E-01;  4.0000000E+04;  0.0000000E+00;  3.9400648E+04; -3.4563386E-01;  0.0000000E+00;  4.7269091E-01;  5.8035659E+03;
  1.3940502E+00;  9.9999998E-03;  2.2151643E-01;8903;  1.1650137E+00;  0.0000000E+00;  9.7223654E-02;  1.0009928E+03;  1.5476778E-01;  8.1691638E+02;3;  3.3885883E+01;  0.0000000E+00;  8.7579727E+00;0;  1.7106330E-01;  1.6986432E+04;  0.0000000E+00; -7.7506088E-02;  4.0000000E+04;  0.0000000E+00;  3.9341910E+04; -8.8010848E-02;  0.0000000E+00;  2.5907415E-01;  2.2431050E+03;
  1.3941901E+00;  9.9999998E-03;  9.0516753E-02;8890;  1.1246268E+00;  0.0000000E+00;  3.6340605E-02;  9.9815839E+02;  1.5481815E-01; -1.5153644E+03;3;  3.6779137E+01;  0.0000000E+00;  1.4401730E+01;0;  1.0405436E-01;  1.6856307E+04;  0.0000000E+00; -1.6145903E-01;  4.0000000E+04;  0.0000000E+00;  3.9408895E+04; -3.5626468E-01;  0.0000000E+00;  4.6031904E-01;  6.7708818E+03;
  1.3942944E+00;  9.9999998E-03;  8.0466278E-02;8889;  1.1240151E+00;  0.0000000E+00;  3.1594425E-02;  9.9784454E+02;  1.5481894E-01; -1.7736201E+03;3;  3.6914780E+01;  0.0000000E+00;  1.3124586E+01;0;  8.1038862E-02;  1.6842504E+04;  0.0000000E+00; -9.2217058E-02;  4.0000000E+04;  0.0000000E+00;  3.9417090E+04; -3.6508271E-01;  0.0000000E+00;  4.4612157E-01;  7.7342222E+03;
  1.3943590E+00;  9.9999998E-03;  7.0415929E-02;8888;  1.1235226E+00;  0.0000000E+00;  2.7066065E-02;  9.9754272E+02;  1.5482232E-01; -2.0219222E+03;3;  3.7051208E+01;  0.0000000E+00;  1.1691657E+01;0;  5.8856040E-02;  1.6828461E+04;  0.0000000E+00; -3.3950269E-02;  4.0000000E+04;  0.0000000E+00;  3.9424695E+04; -3.7232953E-01;  0.0000000E+00;  4.3118557E-01;  8.6448076E+03;
  1.3944912E+00;  9.9999998E-03;  2.3161055E-01;8904;  1.1719019E+00;  0.0000000E+00;  9.7784758E-02;  1.0009092E+03;  1.5471184E-01;  7.4811987E+02;3;  3.3316898E+01;  0.0000000E+00;  8.3565388E+00;0;  1.6624680E-01;  1.6996656E+04;  0.0000000E+00; -3.1374395E+00;  4.0000000E+04;  0.0000000E+00;  3.9341605E+04; -6.5931596E-02;  0.0000000E+00;  2.3217840E-01;  8.7887539E+03;
  1.4072503E+00;  9.9999998E-03;  1.7124110E-01;8958;  1.1333995E+00;  0.0000000E+00;  7.3060535E-02;  9.9903180E+02;  1.4940861E-01; -7.9553772E+02;3;  3.5809956E+01;  0.0000000E+00;  1.8804224E+01;0;  1.0666424E-01;  1.8147266E+04;  0.0000000E+00;  4.3221933E-01;  4.0000000E+04;  0.0000000E+00;  3.9367871E+04; -2.8567958E-01;  0.0000000E+00;  3.9234382E-01;  2.6061328E+03;
  1.4072710E+00;  9.9999998E-03;  1.8129061E-01;8959;  1.1374906E+00;  0.0000000E+00;  7.8160167E-02;  9.9940186E+02;  1.4940053E-01; -4.9145532E+02;3;  3.5973557E+01;  0.0000000E+00;  1.7477442E+01;0;  9.8037511E-02;  1.8163967E+04;  0.0000000E+00;  8.4445840E-01;  4.0000000E+04;  0.0000000E+00;  3.9361473E+04; -2.6931792E-01;  0.0000000E+00;  3.6735544E-01;  2.3539951E+03;
  1.4073560E+00;  9.9999998E-03;  1.6116650E-01;8957;  1.1300675E+00;  0.0000000E+00;  6.7491159E-02;  9.9869049E+02;  1.4939992E-01; -1.0759503E+03;3;  3.5777939E+01;  0.0000000E+00;  1.9374826E+01;0;  1.1175317E-01;  1.8135906E+04;  0.0000000E+00;  7.4010566E-02;  4.0000000E+04;  0.0000000E+00;  3.9373270E+04; -3.0242053E-01;  0.0000000E+00;  4.1417369E-01;  3.2091963E+03;
  1.4075432E+00;  9.9999998E-03;  1.5105493E-01;8956;  1.1273279E+00;  0.0000000E+00;  6.1823793E-02;  9.9837927E+02;  1.4937772E-01; -1.3316108E+03;3;  3.5905090E+01;  0.0000000E+00;  1.9591726E+01;0;  1.1238477E-01;  1.8129240E+04;  0.0000000E+00; -1.9263893E-01;  4.0000000E+04;  0.0000000E+00;  3.9377402E+04; -3.1873992E-01;  0.0000000E+00;  4.3112469E-01;  3.8544458E+03;
  1.4074687E+00;  9.9999998E-03;  1.9133101E-01;8960;  1.1425415E+00;  0.0000000E+00;  8.2094170E-02;  9.9976141E+02;  1.4936867E-01; -1.9603864E+02;3;  3.6146542E+01;  0.0000000E+00;  1.5313655E+01;0;  8.6865067E-02;  1.8186559E+04;  0.0000000E+00;  1.3117121E+00;  4.0000000E+04;  0.0000000E+00;  3.9354523E+04; -2.5416183E-01;  0.0000000E+00;  3.4102690E-01;  2.8230969E+03;
  1.4077892E+00;  9.9999998E-03;  1.4092360E-01;8955;  1.1250325E+00;  0.0000000E+00;  5.6270842E-02;  9.9812982E+02;  1.4935042E-01; -1.5365140E+03;3;  3.6083103E+01;  0.0000000E+00;  1.9360844E+01;0;  1.0800654E-01;  1.8125850E+04;  0.0000000E+00; -3.3938485E-01;  4.0000000E+04;  0.0000000E+00;  3.9381305E+04; -3.3396626E-01;  0.0000000E+00;  4.4197279E-01;  4.4428828E+03;
  1.4080647E+00;  9.9999998E-03;  1.3080138E-01;8954;  1.1231091E+00;  0.0000000E+00;  5.0930135E-02;  9.9790991E+02;  1.4932063E-01; -1.7171584E+03;3;  3.6275364E+01;  0.0000000E+00;  1.8862999E+01;0;  9.8750859E-02;  1.8123631E+04;  0.0000000E+00; -3.8324565E-01;  4.0000000E+04;  0.0000000E+00;  3.9385477E+04; -3.4759760E-01;  0.0000000E+00;  4.4634846E-01;  5.0055122E+03;
  1.4078662E+00;  9.9999998E-03;  2.0137168E-01;8961;  1.1484176E+00;  0.0000000E+00;  8.4738538E-02;  1.0000396E+03;  1.4930958E-01;  3.2516434E+01;3;  3.6071808E+01;  0.0000000E+00;  1.3247332E+01;0;  7.4076846E-02;  1.8212516E+04;  0.0000000E+00;  1.8111749E+00;  4.0000000E+04;  0.0000000E+00;  3.9348930E+04; -2.4080043E-01;  0.0000000E+00;  3.1487727E-01;  3.8609727E+03;
  1.4083476E+00;  9.9999998E-03;  1.2070160E-01;8953;  1.1214926E+00;  0.0000000E+00;  4.5803770E-02;  9.9771558E+02;  1.4929368E-01; -1.8767325E+03;3;  3.6466763E+01;  0.0000000E+00;  1.8208895E+01;0;  8.5297018E-02;  1.8121115E+04;  0.0000000E+00; -3.5240901E-01;  4.0000000E+04;  0.0000000E+00;  3.9390645E+04; -3.5945559E-01;  0.0000000E+00;  4.4475260E-01;  5.6087676E+03;
  1.4086177E+00;  9.9999998E-03;  1.1061346E-01;8952;  1.1201468E+00;  0.0000000E+00;  4.0883873E-02;  9.9751044E+02;  1.4926901E-01; -2.0452101E+03;3;  3.6600883E+01;  0.0000000E+00;  1.7291937E+01;0;  6.8614900E-02;  1.8117160E+04;  0.0000000E+00; -2.6768628E-01;  4.0000000E+04;  0.0000000E+00;  3.9396680E+04; -3.6957896E-01;  0.0000000E+00;  4.3819386E-01;  6.2986445E+03;
  1.4084123E+00;  9.9999998E-03;  2.1143143E-01;8962;  1.1548914E+00;  0.0000000E+00;  8.6353846E-02;  1.0001328E+03;  1.4923410E-01;  1.0909894E+02;3;  3.5744526E+01;  0.0000000E+00;  1.1671361E+01;0;  6.0637563E-02;  1.8236188E+04;  0.0000000E+00;  2.0480201E+00;  4.0000000E+04;  0.0000000E+00;  3.9345211E+04; -2.2915930E-01;  0.0000000E+00;  2.8979686E-01;  4.5684751E+03;
  1.4088501E+00;  9.9999998E-03;  1.0054237E-01;8951;  1.1190424E+00;  0.0000000E+00;  3.6185242E-02;  9.9728693E+02;  1.4925009E-01; -2.2287676E+03;3;  3.6712574E+01;  0.0000000E+00;  1.6136274E+01;0;  4.9791306E-02;  1.8110697E+04;  0.0000000E+00; -1.5646935E-01;  4.0000000E+04;  0.0000000E+00;  3.9403430E+04; -3.7804869E-01;  0.0000000E+00;  4.2783999E-01;  7.0823203E+03;
  1.4090277E+00;  9.9999998E-03;  9.0486594E-02;8950;  1.1181438E+00;  0.0000000E+00;  3.1723715E-02;  9.9704993E+02;  1.4923860E-01; -2.4233965E+03;3;  3.6779152E+01;  0.0000000E+00;  1.4797657E+01;0;  2.9868215E-02;  1.8101613E+04;  0.0000000E+00; -4.5244653E-02;  4.0000000E+04;  0.0000000E+00;  3.9410602E+04; -3.8500884E-01;  0.0000000E+00;  4.1487706E-01;  7.9308467E+03;
  1.4091581E+00;  9.9999998E-03;  8.0434792E-02;8949;  1.1174136E+00;  0.0000000E+00;  2.7487680E-02;  9.9680737E+02;  1.4923155E-01; -2.6225854E+03;3;  3.6812080E+01;  0.0000000E+00;  1.3385927E+01;0;  9.7217858E-03;  1.8091053E+04;  0.0000000E+00;  4.6187028E-02;  4.0000000E+04;  0.0000000E+00;  3.9418148E+04; -3.9065495E-01;  0.0000000E+00;  4.0037674E-01;  8.7990293E+03;
  1.4089495E+00;  9.9999998E-03;  2.2151142E-01;8963;  1.1617564E+00;  0.0000000E+00;  8.7326080E-02;  9.9995905E+02;  1.4917210E-01; -3.3638210E+01;3;  3.5215172E+01;  0.0000000E+00;  1.0633889E+01;0;  4.7731683E-02;  1.8247756E+04;  0.0000000E+00;  1.2243818E+00;  4.0000000E+04;  0.0000000E+00;  3.9343359E+04; -2.1815597E-01;  0.0000000E+00;  2.6588765E-01;  3.1656072E+03;
  1.4092454E+00;  9.9999998E-03;  7.0382364E-02;8948;  1.1168226E+00;  0.0000000E+00;  2.3462454E-02;  9.9656360E+02;  1.4922990E-01; -2.8228115E+03;3;  3.6853661E+01;  0.0000000E+00;  1.1959649E+01;0; -9.8098218E-03;  1.8079838E+04;  0.0000000E+00;  1.0647222E-01;  4.0000000E+04;  0.0000000E+00;  3.9425203E+04; -3.9516219E-01;  0.0000000E+00;  3.8535237E-01;  9.6411270E+03;
  1.4092535E+00;  9.9999998E-03;  2.3159786E-01;8964;  1.1688560E+00;  0.0000000E+00;  8.8079490E-02;  9.9960602E+02;  1.4915484E-01; -3.2363910E+02;3;  3.4566269E+01;  0.0000000E+00;  9.8235493E+00;0;  3.6810994E-02;  1.8240889E+04;  0.0000000E+00; -1.5864381E+00;  4.0000000E+04;  0.0000000E+00;  3.9346578E+04; -2.0575336E-01;  0.0000000E+00;  2.4256435E-01;  2.5026826E+03;
  1.4215783E+00;  9.9999998E-03;  1.7126055E-01;9017;  1.1282785E+00;  0.0000000E+00;  6.5288179E-02;  9.9857874E+02;  1.4448570E-01; -1.1655115E+03;3;  3.6978745E+01;  0.0000000E+00;  2.0195786E+01;0;  3.6098689E-02;  1.9385480E+04;  0.0000000E+00;  3.1219539E-01;  4.0000000E+04;  0.0000000E+00;  3.9365816E+04; -3.3117244E-01;  0.0000000E+00;  3.6727113E-01;  3.6884517E+03;
  1.4216295E+00;  9.9999998E-03;  1.8129556E-01;9018;  1.1327882E+00;  0.0000000E+00;  6.9576360E-02;  9.9902936E+02;  1.4446980E-01; -7.9598267E+02;3;  3.7323120E+01;  0.0000000E+00;  1.8759844E+01;0;  2.7048856E-02;  1.9409109E+04;  0.0000000E+00;  8.7374735E-01;  4.0000000E+04;  0.0000000E+00;  3.9358031E+04; -3.2121435E-01;  0.0000000E+00;  3.4826320E-01;  3.2886294E+03;
  1.4216623E+00;  9.9999998E-03;  1.6120501E-01;9016;  1.1246426E+00;  0.0000000E+00;  6.0218252E-02;  9.9812390E+02;  1.4448111E-01; -1.5384850E+03;3;  3.6664612E+01;  0.0000000E+00;  2.0991833E+01;0;  4.1714281E-02;  1.9367455E+04;  0.0000000E+00; -9.2265517E-02;  4.0000000E+04;  0.0000000E+00;  3.9373062E+04; -3.4211004E-01;  0.0000000E+00;  3.8382432E-01;  4.5255977E+03;
  1.4218496E+00;  9.9999998E-03;  1.9132526E-01;9019;  1.1381614E+00;  0.0000000E+00;  7.2856151E-02;  9.9939709E+02;  1.4443143E-01; -4.9438721E+02;3;  3.7565201E+01;  0.0000000E+00;  1.6854818E+01;0;  1.5448332E-02;  1.9436139E+04;  0.0000000E+00;  1.6885407E+00;  4.0000000E+04;  0.0000000E+00;  3.9350426E+04; -3.1281030E-01;  0.0000000E+00;  3.2825863E-01;  4.2172900E+03;
  1.4218366E+00;  9.9999998E-03;  1.5111151E-01;9015;  1.1216481E+00;  0.0000000E+00;  5.4916907E-02;  9.9768951E+02;  1.4446223E-01; -1.8946580E+03;3;  3.6564262E+01;  0.0000000E+00;  2.1032948E+01;0;  4.3165833E-02;  1.9355045E+04;  0.0000000E+00; -3.6295086E-01;  4.0000000E+04;  0.0000000E+00;  3.9378426E+04; -3.5327744E-01;  0.0000000E+00;  3.9644328E-01;  5.3221592E+03;
  1.4222382E+00;  9.9999998E-03;  2.0136113E-01;9020;  1.1442771E+00;  0.0000000E+00;  7.5130709E-02;  9.9959680E+02;  1.4437829E-01; -3.3063092E+02;3;  3.7490833E+01;  0.0000000E+00;  1.5092030E+01;0;  2.1357536E-03;  1.9460949E+04;  0.0000000E+00;  2.7882192E+00;  4.0000000E+04;  0.0000000E+00;  3.9345137E+04; -3.0617389E-01;  0.0000000E+00;  3.0830964E-01;  6.5565410E+03;
  1.4220693E+00;  9.9999998E-03;  1.4099038E-01;9014;  1.1191515E+00;  0.0000000E+00;  4.9690191E-02;  9.9732013E+02;  1.4443685E-01; -2.1974695E+03;3;  3.6557240E+01;  0.0000000E+00;  2.0680399E+01;0;  4.0022045E-02;  1.9347268E+04;  0.0000000E+00; -4.8543611E-01;  4.0000000E+04;  0.0000000E+00;  3.9383148E+04; -3.6394039E-01;  0.0000000E+00;  4.0396243E-01;  5.9702588E+03;
  1.4223453E+00;  9.9999998E-03;  1.3086201E-01;9013;  1.1170554E+00;  0.0000000E+00;  4.4665251E-02;  9.9701874E+02;  1.4440688E-01; -2.4444785E+03;3;  3.6559086E+01;  0.0000000E+00;  1.9980728E+01;0;  3.2325983E-02;  1.9342967E+04;  0.0000000E+00; -4.7666079E-01;  4.0000000E+04;  0.0000000E+00;  3.9387262E+04; -3.7353569E-01;  0.0000000E+00;  4.0586168E-01;  6.5144365E+03;
  1.4227167E+00;  9.9999998E-03;  2.1141839E-01;9021;  1.1509435E+00;  0.0000000E+00;  7.6718532E-02;  9.9950885E+02;  1.4432272E-01; -4.0269025E+02;3;  3.7139801E+01;  0.0000000E+00;  1.3592128E+01;0; -1.1948138E-02;  1.9474898E+04;  0.0000000E+00;  3.8087139E+00;  4.0000000E+04;  0.0000000E+00;  3.9343609E+04; -3.0088860E-01;  0.0000000E+00;  2.8894046E-01;  9.1890684E+03;
  1.4231408E+00;  9.9999998E-03;  2.2149557E-01;9022;  1.1580197E+00;  0.0000000E+00;  7.8021951E-02;  9.9908173E+02;  1.4429018E-01; -7.5284473E+02;3;  3.6641930E+01;  0.0000000E+00;  1.2400471E+01;0; -2.5634408E-02;  1.9469672E+04;  0.0000000E+00;  3.7639918E+00;  4.0000000E+04;  0.0000000E+00;  3.9346352E+04; -2.9587236E-01;  0.0000000E+00;  2.7023795E-01;  1.0002699E+04;
  1.4226409E+00;  9.9999998E-03;  1.2074142E-01;9012;  1.1152967E+00;  0.0000000E+00;  3.9871503E-02;  9.9677570E+02;  1.4437556E-01; -2.6436628E+03;3;  3.6593941E+01;  0.0000000E+00;  1.9013466E+01;0;  2.0669669E-02;  1.9340531E+04;  0.0000000E+00; -3.8463056E-01;  4.0000000E+04;  0.0000000E+00;  3.9391512E+04; -3.8176593E-01;  0.0000000E+00;  4.0243560E-01;  7.0352397E+03;
  1.4233038E+00;  9.9999998E-03;  2.3158647E-01;9023;  1.1653519E+00;  0.0000000E+00;  7.9247527E-02;  9.9847345E+02;  1.4430639E-01; -1.2515007E+03;3;  3.5995872E+01;  0.0000000E+00;  1.1226552E+01;0; -3.7942857E-02;  1.9442895E+04;  0.0000000E+00;  1.6789840E+00;  4.0000000E+04;  0.0000000E+00;  3.9354367E+04; -2.8933644E-01;  0.0000000E+00;  2.5139359E-01;  7.0385195E+03;
  1.4229171E+00;  9.9999998E-03;  1.1064129E-01;9011;  1.1138330E+00;  0.0000000E+00;  3.5353776E-02;  9.9657013E+02;  1.4435036E-01; -2.8120986E+03;3;  3.6571472E+01;  0.0000000E+00;  1.7789968E+01;0;  6.0482919E-03;  1.9337654E+04;  0.0000000E+00; -2.4421397E-01;  4.0000000E+04;  0.0000000E+00;  3.9396227E+04; -3.8857067E-01;  0.0000000E+00;  3.9461896E-01;  7.5949897E+03;
  1.4231507E+00;  9.9999998E-03;  1.0056305E-01;9010;  1.1126359E+00;  0.0000000E+00;  3.1111436E-02;  9.9638171E+02;  1.4433254E-01; -2.9664656E+03;3;  3.6526031E+01;  0.0000000E+00;  1.6409252E+01;0; -1.0543674E-02;  1.9333178E+04;  0.0000000E+00; -8.8499062E-02;  4.0000000E+04;  0.0000000E+00;  3.9401555E+04; -3.9402819E-01;  0.0000000E+00;  3.8348451E-01;  8.2212070E+03;
  1.4233445E+00;  9.9999998E-03;  9.0491965E-02;9009;  1.1116606E+00;  0.0000000E+00;  2.7116755E-02;  9.9620154E+02;  1.4431909E-01; -3.1140967E+03;3;  3.6453957E+01;  0.0000000E+00;  1.4892766E+01;0; -2.8250664E-02;  1.9327148E+04;  0.0000000E+00;  5.1689297E-02;  4.0000000E+04;  0.0000000E+00;  3.9407363E+04; -3.9828852E-01;  0.0000000E+00;  3.7003785E-01;  8.9029971E+03;
  1.4234955E+00;  9.9999998E-03;  8.0425866E-02;9008;  1.1108633E+00;  0.0000000E+00;  2.3364350E-02;  9.9602655E+02;  1.4430809E-01; -3.2574407E+03;3;  3.6412338E+01;  0.0000000E+00;  1.3365556E+01;0; -4.6216816E-02;  1.9320068E+04;  0.0000000E+00;  1.5562612E-01;  4.0000000E+04;  0.0000000E+00;  3.9413492E+04; -4.0150651E-01;  0.0000000E+00;  3.5528970E-01;  9.6080918E+03;
  1.4235971E+00;  9.9999998E-03;  7.0368275E-02;9007;  1.1102136E+00;  0.0000000E+00;  1.9837400E-02;  9.9586401E+02;  1.4430429E-01; -3.3906399E+03;3;  3.6316341E+01;  0.0000000E+00;  1.1783751E+01;0; -6.3637286E-02;  1.9311857E+04;  0.0000000E+00;  2.1413027E-01;  4.0000000E+04;  0.0000000E+00;  3.9419488E+04; -4.0384439E-01;  0.0000000E+00;  3.4020710E-01;  1.0302571E+04;
  1.4355109E+00;  9.9999998E-03;  1.7129169E-01;9076;  1.1230308E+00;  0.0000000E+00;  5.7231914E-02;  9.9837354E+02;  1.4015502E-01; -1.3306927E+03;3;  3.8011185E+01;  0.0000000E+00;  2.1170658E+01;0; -1.7637700E-02;  2.0596488E+04;  0.0000000E+00;  3.7804571E-01;  4.0000000E+04;  0.0000000E+00;  3.9355934E+04; -3.6081025E-01;  0.0000000E+00;  3.4317255E-01;  4.3424160E+03;
  1.4355829E+00;  9.9999998E-03;  1.6126072E-01;9075;  1.1190525E+00;  0.0000000E+00;  5.2873116E-02;  9.9783722E+02;  1.4015269E-01; -1.7694058E+03;3;  3.7498676E+01;  0.0000000E+00;  2.1923920E+01;0; -1.2840807E-02;  2.0572633E+04;  0.0000000E+00; -1.4081515E-01;  4.0000000E+04;  0.0000000E+00;  3.9365059E+04; -3.6735168E-01;  0.0000000E+00;  3.5451087E-01;  5.3243091E+03;
  1.4355646E+00;  9.9999998E-03;  1.8130636E-01;9077;  1.1278348E+00;  0.0000000E+00;  6.0891449E-02;  9.9884119E+02;  1.4013879E-01; -9.4807501E+02;3;  3.8505909E+01;  0.0000000E+00;  1.9782022E+01;0; -2.5561512E-02;  2.0623963E+04;  0.0000000E+00;  1.2442346E+00;  4.0000000E+04;  0.0000000E+00;  3.9346621E+04; -3.5553700E-01;  0.0000000E+00;  3.2997549E-01;  4.3324658E+03;
  1.4357457E+00;  9.9999998E-03;  1.5119518E-01;9074;  1.1158221E+00;  0.0000000E+00;  4.8043296E-02;  9.9730640E+02;  1.4013685E-01; -2.2036323E+03;3;  3.7042645E+01;  0.0000000E+00;  2.2122873E+01;0; -1.1748254E-02;  2.0554152E+04;  0.0000000E+00; -4.4035932E-01;  4.0000000E+04;  0.0000000E+00;  3.9372684E+04; -3.7453198E-01;  0.0000000E+00;  3.6278373E-01;  6.3353027E+03;
  1.4357753E+00;  9.9999998E-03;  1.9131882E-01;9078;  1.1334428E+00;  0.0000000E+00;  6.3689582E-02;  9.9917157E+02;  1.4010371E-01; -6.7774823E+02;3;  3.8831226E+01;  0.0000000E+00;  1.8121605E+01;0; -3.5986125E-02;  2.0650768E+04;  0.0000000E+00;  2.6627226E+00;  4.0000000E+04;  0.0000000E+00;  3.9339480E+04; -3.5193300E-01;  0.0000000E+00;  3.1594688E-01;  6.6023203E+03;
  1.4359690E+00;  9.9999998E-03;  1.4108782E-01;9073;  1.1131581E+00;  0.0000000E+00;  4.3178715E-02;  9.9682727E+02;  1.4011282E-01; -2.5955276E+03;3;  3.6793423E+01;  0.0000000E+00;  2.1597160E+01;0; -1.4686674E-02;  2.0541150E+04;  0.0000000E+00; -5.5749404E-01;  4.0000000E+04;  0.0000000E+00;  3.9378570E+04; -3.8163081E-01;  0.0000000E+00;  3.6694413E-01;  7.1429194E+03;
  1.4361275E+00;  9.9999998E-03;  2.0134710E-01;9079;  1.1397101E+00;  0.0000000E+00;  6.5758124E-02;  9.9923810E+02;  1.4005834E-01; -6.2328851E+02;3;  3.8847507E+01;  0.0000000E+00;  1.6727198E+01;0; -4.8264623E-02;  2.0669025E+04;  0.0000000E+00;  4.6710896E+00;  4.0000000E+04;  0.0000000E+00;  3.9337090E+04; -3.4997118E-01;  0.0000000E+00;  3.0170655E-01;  1.0911825E+04;
  1.4362299E+00;  9.9999998E-03;  1.3095894E-01;9072;  1.1109403E+00;  0.0000000E+00;  3.8510319E-02;  9.9641833E+02;  1.4008223E-01; -2.9298828E+03;3;  3.6589413E+01;  0.0000000E+00;  2.0684328E+01;0; -2.1591634E-02;  2.0532764E+04;  0.0000000E+00; -5.1983583E-01;  4.0000000E+04;  0.0000000E+00;  3.9383398E+04; -3.8800371E-01;  0.0000000E+00;  3.6641207E-01;  7.7641191E+03;
  1.4365427E+00;  9.9999998E-03;  2.1140429E-01;9080;  1.1465383E+00;  0.0000000E+00;  6.7560628E-02;  9.9891241E+02;  1.4001927E-01; -8.8963953E+02;3;  3.8623856E+01;  0.0000000E+00;  1.5287405E+01;0; -6.1288476E-02;  2.0669188E+04;  0.0000000E+00;  6.7117496E+00;  4.0000000E+04;  0.0000000E+00;  3.9340352E+04; -3.4905729E-01;  0.0000000E+00;  2.8776881E-01;  1.5817222E+04;
  1.4365038E+00;  9.9999998E-03;  1.2083340E-01;9071;  1.1090997E+00;  0.0000000E+00;  3.4099113E-02;  9.9610986E+02;  1.4005502E-01; -3.1820923E+03;3;  3.6431236E+01;  0.0000000E+00;  1.9442022E+01;0; -3.1951010E-02;  2.0527523E+04;  0.0000000E+00; -3.8675171E-01;  4.0000000E+04;  0.0000000E+00;  3.9387492E+04; -3.9324757E-01;  0.0000000E+00;  3.6129656E-01;  8.2782080E+03;
  1.4367616E+00;  9.9999998E-03;  1.1072103E-01;9070;  1.1075858E+00;  0.0000000E+00;  2.9996714E-02;  9.9587897E+02;  1.4003240E-01; -3.3707600E+03;3;  3.6222580E+01;  0.0000000E+00;  1.7882147E+01;0; -4.4937402E-02;  2.0523688E+04;  0.0000000E+00; -2.1586342E-01;  4.0000000E+04;  0.0000000E+00;  3.9391418E+04; -3.9726204E-01;  0.0000000E+00;  3.5232463E-01;  8.7550537E+03;
  1.4368820E+00;  9.9999998E-03;  2.2148989E-01;9081;  1.1537983E+00;  0.0000000E+00;  6.9322474E-02;  9.9818427E+02;  1.4000680E-01; -1.4851405E+03;3;  3.8143250E+01;  0.0000000E+00;  1.4022605E+01;0; -7.3763639E-02;  2.0644293E+04;  0.0000000E+00;  7.4657187E+00;  4.0000000E+04;  0.0000000E+00;  3.9348949E+04; -3.4798905E-01;  0.0000000E+00;  2.7422541E-01;  1.8726072E+04;
  1.4369448E+00;  9.9999998E-03;  2.3159829E-01;9082;  1.1613631E+00;  0.0000000E+00;  7.1120434E-02;  9.9726086E+02;  1.4003913E-01; -2.2403843E+03;3;  3.7493290E+01;  0.0000000E+00;  1.2443817E+01;0; -8.4633559E-02;  2.0596984E+04;  0.0000000E+00;  5.8636069E+00;  4.0000000E+04;  0.0000000E+00;  3.9360176E+04; -3.4499156E-01;  0.0000000E+00;  2.6035801E-01;  1.7443107E+04;
  1.4370021E+00;  9.9999998E-03;  1.0061467E-01;9069;  1.1063473E+00;  0.0000000E+00;  2.6190780E-02;  9.9569739E+02;  1.4001246E-01; -3.5191521E+03;3;  3.6002342E+01;  0.0000000E+00;  1.6408657E+01;0; -5.9749305E-02;  2.0520654E+04;  0.0000000E+00; -4.0899482E-02;  4.0000000E+04;  0.0000000E+00;  3.9395500E+04; -4.0012568E-01;  0.0000000E+00;  3.4037638E-01;  9.2388428E+03;
  1.4372100E+00;  9.9999998E-03;  9.0523906E-02;9068;  1.1053443E+00;  0.0000000E+00;  2.2636732E-02;  9.9555872E+02;  1.3999766E-01; -3.6324043E+03;3;  3.5872459E+01;  0.0000000E+00;  1.4917517E+01;0; -7.5533599E-02;  2.0517584E+04;  0.0000000E+00;  1.0794871E-01;  4.0000000E+04;  0.0000000E+00;  3.9399750E+04; -4.0196413E-01;  0.0000000E+00;  3.2643053E-01;  9.7404453E+03;
  1.4373690E+00;  9.9999998E-03;  8.0449380E-02;9067;  1.1045272E+00;  0.0000000E+00;  1.9342439E-02;  9.9544110E+02;  1.3998622E-01; -3.7285229E+03;3;  3.5721561E+01;  0.0000000E+00;  1.3252472E+01;0; -9.1493577E-02;  2.0513270E+04;  0.0000000E+00;  2.1183081E-01;  4.0000000E+04;  0.0000000E+00;  3.9403969E+04; -4.0294451E-01;  0.0000000E+00;  3.1145093E-01;  1.0248525E+04;
  1.4374796E+00;  9.9999998E-03;  7.0384853E-02;9066;  1.1038713E+00;  0.0000000E+00;  1.6300958E-02;  9.9534802E+02;  1.3998182E-01; -3.8045381E+03;3;  3.5527496E+01;  0.0000000E+00;  1.1417672E+01;0; -1.0697019E-01;  2.0508080E+04;  0.0000000E+00;  2.6456112E-01;  4.0000000E+04;  0.0000000E+00;  3.9408363E+04; -4.0325412E-01;  0.0000000E+00;  2.9628393E-01;  1.0746733E+04;
  1.4491333E+00;  9.9999998E-03;  1.8130189E-01;9136;  1.1226726E+00;  0.0000000E+00;  5.2244328E-02;  9.9873975E+02;  1.3633728E-01; -1.0282173E+03;3;  3.9549877E+01;  0.0000000E+00;  2.0616642E+01;0; -6.8013608E-02;  2.1796283E+04;  0.0000000E+00;  2.2688110E+00;  4.0000000E+04;  0.0000000E+00;  3.9327328E+04; -3.8131800E-01;  0.0000000E+00;  3.1330439E-01;  6.2134487E+03;
  1.4491049E+00;  9.9999998E-03;  1.7130737E-01;9135;  1.1176543E+00;  0.0000000E+00;  4.9114741E-02;  9.9830206E+02;  1.3634905E-01; -1.3853108E+03;3;  3.8859287E+01;  0.0000000E+00;  2.1813715E+01;0; -6.1502784E-02;  2.1769547E+04;  0.0000000E+00;  8.3467394E-01;  4.0000000E+04;  0.0000000E+00;  3.9336816E+04; -3.8241974E-01;  0.0000000E+00;  3.2091695E-01;  4.8203315E+03;
  1.4492942E+00;  9.9999998E-03;  1.9130225E-01;9137;  1.1284139E+00;  0.0000000E+00;  5.4703876E-02;  9.9897314E+02;  1.3631372E-01; -8.3775476E+02;3;  3.9951523E+01;  0.0000000E+00;  1.9366346E+01;0; -7.6993227E-02;  2.1816410E+04;  0.0000000E+00;  4.6370077E+00;  4.0000000E+04;  0.0000000E+00;  3.9323078E+04; -3.8180256E-01;  0.0000000E+00;  3.0480933E-01;  1.0630707E+04;
  1.4491847E+00;  9.9999998E-03;  1.6130108E-01;9134;  1.1134450E+00;  0.0000000E+00;  4.5353420E-02;  9.9774884E+02;  1.3634567E-01; -1.8366091E+03;3;  3.8080177E+01;  0.0000000E+00;  2.2515726E+01;0; -5.7832211E-02;  2.1742611E+04;  0.0000000E+00;  4.0645707E-02;  4.0000000E+04;  0.0000000E+00;  3.9347668E+04; -3.8490030E-01;  0.0000000E+00;  3.2706809E-01;  5.5582163E+03;
  1.4495736E+00;  9.9999998E-03;  2.0133317E-01;9138;  1.1348002E+00;  0.0000000E+00;  5.6887489E-02;  9.9886487E+02;  1.3628390E-01; -9.2600391E+02;3;  4.0111492E+01;  0.0000000E+00;  1.8162197E+01;0; -8.7714285E-02;  2.1821670E+04;  0.0000000E+00;  7.9013977E+00;  4.0000000E+04;  0.0000000E+00;  3.9326145E+04; -3.8365322E-01;  0.0000000E+00;  2.9593894E-01;  1.7371500E+04;
  1.4493394E+00;  9.9999998E-03;  1.5126494E-01;9133;  1.1099986E+00;  0.0000000E+00;  4.1175183E-02;  9.9715460E+02;  1.3633376E-01; -2.3213564E+03;3;  3.7415421E+01;  0.0000000E+00;  2.2656115E+01;0; -5.7361096E-02;  2.1718344E+04;  0.0000000E+00; -3.7218198E-01;  4.0000000E+04;  0.0000000E+00;  3.9357844E+04; -3.8826844E-01;  0.0000000E+00;  3.3090734E-01;  6.7605981E+03;
  1.4499156E+00;  9.9999998E-03;  2.1140891E-01;9139;  1.1417536E+00;  0.0000000E+00;  5.9063166E-02;  9.9827911E+02;  1.3626289E-01; -1.4037759E+03;3;  4.0048302E+01;  0.0000000E+00;  1.6698898E+01;0; -9.8930091E-02;  2.1803014E+04;  0.0000000E+00;  1.1136580E+01;  4.0000000E+04;  0.0000000E+00;  3.9334871E+04; -3.8612795E-01;  0.0000000E+00;  2.8719786E-01;  2.4582857E+04;
  1.4501663E+00;  9.9999998E-03;  2.3165023E-01;9141;  1.1569434E+00;  0.0000000E+00;  6.3492537E-02;  9.9593048E+02;  1.3630573E-01; -3.3193865E+03;3;  3.9071785E+01;  0.0000000E+00;  1.3574580E+01;0; -1.1791229E-01;  2.1689723E+04;  0.0000000E+00;  1.0929651E+01;  4.0000000E+04;  0.0000000E+00;  3.9357957E+04; -3.8684830E-01;  0.0000000E+00;  2.6893601E-01;  2.8229275E+04;
  1.4495395E+00;  9.9999998E-03;  1.4118594E-01;9132;  1.1071923E+00;  0.0000000E+00;  3.6794681E-02;  9.9658667E+02;  1.3631237E-01; -2.7845488E+03;3;  3.6847511E+01;  0.0000000E+00;  2.2147305E+01;0; -6.0292006E-02;  2.1698346E+04;  0.0000000E+00; -5.3396350E-01;  4.0000000E+04;  0.0000000E+00;  3.9366113E+04; -3.9188415E-01;  0.0000000E+00;  3.3159214E-01;  7.8037798E+03;
  1.4501805E+00;  9.9999998E-03;  2.2152036E-01;9140;  1.1491803E+00;  0.0000000E+00;  6.1260533E-02;  9.9718317E+02;  1.3626418E-01; -2.2976257E+03;3;  3.9668327E+01;  0.0000000E+00;  1.5399717E+01;0; -1.0933271E-01;  2.1756102E+04;  0.0000000E+00;  1.2522631E+01;  4.0000000E+04;  0.0000000E+00;  3.9346391E+04; -3.8782597E-01;  0.0000000E+00;  2.7849326E-01;  2.8965588E+04;
  1.4497633E+00;  9.9999998E-03;  1.3107200E-01;9131;  1.1049039E+00;  0.0000000E+00;  3.2552492E-02;  9.9608130E+02;  1.3628978E-01; -3.1966765E+03;3;  3.6413437E+01;  0.0000000E+00;  2.0977678E+01;0; -6.6555113E-02;  2.1682941E+04;  0.0000000E+00; -5.0867331E-01;  4.0000000E+04;  0.0000000E+00;  3.9372352E+04; -3.9511904E-01;  0.0000000E+00;  3.2856393E-01;  8.6013779E+03;
  1.4499944E+00;  9.9999998E-03;  1.2094782E-01;9130;  1.1030329E+00;  0.0000000E+00;  2.8572688E-02;  9.9568311E+02;  1.3626856E-01; -3.5212891E+03;3;  3.5981369E+01;  0.0000000E+00;  1.9484631E+01;0; -7.5735837E-02;  2.1671986E+04;  0.0000000E+00; -3.6752406E-01;  4.0000000E+04;  0.0000000E+00;  3.9377359E+04; -3.9750469E-01;  0.0000000E+00;  3.2176885E-01;  9.2074180E+03;
  1.4502243E+00;  9.9999998E-03;  1.1081943E-01;9129;  1.1015179E+00;  0.0000000E+00;  2.4892414E-02;  9.9539777E+02;  1.3624962E-01; -3.7538838E+03;3;  3.5618999E+01;  0.0000000E+00;  1.8000296E+01;0; -8.7198764E-02;  2.1664896E+04;  0.0000000E+00; -1.9123614E-01;  4.0000000E+04;  0.0000000E+00;  3.9380988E+04; -3.9883795E-01;  0.0000000E+00;  3.1163919E-01;  9.6843975E+03;
  1.4504515E+00;  9.9999998E-03;  1.0069863E-01;9128;  1.1002886E+00;  0.0000000E+00;  2.1481616E-02;  9.9519550E+02;  1.3623115E-01; -3.9186382E+03;3;  3.5355099E+01;  0.0000000E+00;  1.6549341E+01;0; -1.0023320E-01;  2.1661109E+04;  0.0000000E+00; -2.3109525E-02;  4.0000000E+04;  0.0000000E+00;  3.9384344E+04; -3.9916033E-01;  0.0000000E+00;  2.9892713E-01;  1.0084554E+04;
  1.4506512E+00;  9.9999998E-03;  9.0595819E-02;9127;  1.0992973E+00;  0.0000000E+00;  1.8342253E-02;  9.9506946E+02;  1.3621807E-01; -4.0212742E+03;3;  3.5084686E+01;  0.0000000E+00;  1.4739336E+01;0; -1.1407015E-01;  2.1658568E+04;  0.0000000E+00;  1.1433694E-01;  4.0000000E+04;  0.0000000E+00;  3.9386969E+04; -3.9861166E-01;  0.0000000E+00;  2.8454152E-01;  1.0440579E+04;
  1.4508123E+00;  9.9999998E-03;  8.0506615E-02;9126;  1.0985084E+00;  0.0000000E+00;  1.5494182E-02;  9.9498828E+02;  1.3620798E-01; -4.0873328E+03;3;  3.4781921E+01;  0.0000000E+00;  1.2921007E+01;0; -1.2804943E-01;  2.1656246E+04;  0.0000000E+00;  2.0662048E-01;  4.0000000E+04;  0.0000000E+00;  3.9389781E+04; -3.9737529E-01;  0.0000000E+00;  2.6932585E-01;  1.0763977E+04;
  1.4509383E+00;  9.9999998E-03;  7.0428751E-02;9125;  1.0978850E+00;  0.0000000E+00;  1.2921190E-02;  9.9493683E+02;  1.3620071E-01; -4.1291641E+03;3;  3.4535988E+01;  0.0000000E+00;  1.1000825E+01;0; -1.4160573E-01;  2.1654281E+04;  0.0000000E+00;  2.5040984E-01;  4.0000000E+04;  0.0000000E+00;  3.9392438E+04; -3.9565036E-01;  0.0000000E+00;  2.5404462E-01;  1.1057243E+04;
  1.4623771E+00;  9.9999998E-03;  1.8126993E-01;9194;  1.1173341E+00;  0.0000000E+00;  4.3741804E-02;  9.9863843E+02;  1.3301049E-01; -1.1072036E+03;3;  4.0334171E+01;  0.0000000E+00;  2.1134817E+01;0; -1.0430902E-01;  2.2911693E+04;  0.0000000E+00;  4.3253131E+00;  4.0000000E+04;  0.0000000E+00;  3.9302531E+04; -4.0236717E-01;  0.0000000E+00;  2.9805815E-01;  9.8289795E+03;
  1.4623923E+00;  9.9999998E-03;  1.7128803E-01;9193;  1.1122215E+00;  0.0000000E+00;  4.1053314E-02;  9.9827490E+02;  1.3301310E-01; -1.4028173E+03;3;  3.9498623E+01;  0.0000000E+00;  2.2108433E+01;0; -9.8845363E-02;  2.2890959E+04;  0.0000000E+00;  1.9631772E+00;  4.0000000E+04;  0.0000000E+00;  3.9309148E+04; -3.9931086E-01;  0.0000000E+00;  3.0046549E-01;  6.0522900E+03;
  1.4624707E+00;  9.9999998E-03;  1.9127354E-01;9195;  1.1231352E+00;  0.0000000E+00;  4.6168305E-02;  9.9873352E+02;  1.3299905E-01; -1.0298676E+03;3;  4.0924717E+01;  0.0000000E+00;  2.0290110E+01;0; -1.1209357E-01;  2.2920002E+04;  0.0000000E+00;  8.0270281E+00;  4.0000000E+04;  0.0000000E+00;  3.9304363E+04; -4.0681484E-01;  0.0000000E+00;  2.9472128E-01;  1.6776789E+04;
  1.4624910E+00;  9.9999998E-03;  1.6130403E-01;9192;  1.1078576E+00;  0.0000000E+00;  3.7892032E-02;  9.9776251E+02;  1.3301009E-01; -1.8194646E+03;3;  3.8538132E+01;  0.0000000E+00;  2.2754761E+01;0; -9.6023649E-02;  2.2864209E+04;  0.0000000E+00;  6.2504125E-01;  4.0000000E+04;  0.0000000E+00;  3.9320043E+04; -3.9762655E-01;  0.0000000E+00;  3.0160290E-01;  5.4787319E+03;
  1.4626722E+00;  9.9999998E-03;  2.0132944E-01;9196;  1.1295873E+00;  0.0000000E+00;  4.8631396E-02;  9.9841205E+02;  1.3298678E-01; -1.2911896E+03;3;  4.1264660E+01;  0.0000000E+00;  1.9251854E+01;0; -1.2131846E-01;  2.2907283E+04;  0.0000000E+00;  1.2793960E+01;  4.0000000E+04;  0.0000000E+00;  3.9314148E+04; -4.1224918E-01;  0.0000000E+00;  2.9093072E-01;  2.6027098E+04;
  1.4626384E+00;  9.9999998E-03;  1.5129961E-01;9191;  1.1042709E+00;  0.0000000E+00;  3.4347504E-02;  9.9716193E+02;  1.3299972E-01; -2.3077422E+03;3;  3.7569897E+01;  0.0000000E+00;  2.2825489E+01;0; -9.5979035E-02;  2.2836045E+04;  0.0000000E+00; -7.2879575E-02;  4.0000000E+04;  0.0000000E+00;  3.9332230E+04; -3.9699912E-01;  0.0000000E+00;  3.0102009E-01;  6.5431245E+03;
  1.4629343E+00;  9.9999998E-03;  2.1144520E-01;9197;  1.1366538E+00;  0.0000000E+00;  5.1218159E-02;  9.9748663E+02;  1.3298219E-01; -2.0435304E+03;3;  4.1393993E+01;  0.0000000E+00;  1.7764339E+01;0; -1.3051504E-01;  2.2865559E+04;  0.0000000E+00;  1.7120863E+01;  4.0000000E+04;  0.0000000E+00;  3.9326883E+04; -4.1768801E-01;  0.0000000E+00;  2.8717297E-01;  3.5028227E+04;
  1.4629787E+00;  9.9999998E-03;  2.3174030E-01;9199;  1.1522473E+00;  0.0000000E+00;  5.6499768E-02;  9.9456683E+02;  1.3304684E-01; -4.4174751E+03;3;  4.0633419E+01;  0.0000000E+00;  1.4464707E+01;0; -1.4349464E-01;  2.2714479E+04;  0.0000000E+00;  1.6904940E+01;  4.0000000E+04;  0.0000000E+00;  3.9348594E+04; -4.2117369E-01;  0.0000000E+00;  2.7767906E-01;  3.9117121E+04;
  1.4631051E+00;  9.9999998E-03;  2.2159149E-01;9198;  1.1442415E+00;  0.0000000E+00;  5.3787928E-02;  9.9602814E+02;  1.3299857E-01; -3.2292639E+03;3;  4.1150970E+01;  0.0000000E+00;  1.6461428E+01;0; -1.3852957E-01;  2.2795191E+04;  0.0000000E+00;  1.8721607E+01;  4.0000000E+04;  0.0000000E+00;  3.9338418E+04; -4.2140388E-01;  0.0000000E+00;  2.8287432E-01;  3.9892094E+04;
  1.4628097E+00;  9.9999998E-03;  1.4125961E-01;9190;  1.1013707E+00;  0.0000000E+00;  3.0569665E-02;  9.9655115E+02;  1.3298595E-01; -2.8042495E+03;3;  3.6766113E+01;  0.0000000E+00;  2.2198879E+01;0; -9.8780245E-02;  2.2809205E+04;  0.0000000E+00; -3.8270810E-01;  4.0000000E+04;  0.0000000E+00;  3.9342910E+04; -3.9693147E-01;  0.0000000E+00;  2.9815122E-01;  7.8052788E+03;
  1.4629853E+00;  9.9999998E-03;  1.3117711E-01;9189;  1.0990440E+00;  0.0000000E+00;  2.6850933E-02;  9.9597375E+02;  1.3297151E-01; -3.2735671E+03;3;  3.5982647E+01;  0.0000000E+00;  2.0943359E+01;0; -1.0432425E-01;  2.2785547E+04;  0.0000000E+00; -4.3815705E-01;  4.0000000E+04;  0.0000000E+00;  3.9351711E+04; -3.9687040E-01;  0.0000000E+00;  2.9254615E-01;  8.8534268E+03;
  1.4631566E+00;  9.9999998E-03;  1.2106416E-01;9188;  1.0971930E+00;  0.0000000E+00;  2.3330363E-02;  9.9548798E+02;  1.3295960E-01; -3.6683613E+03;3;  3.5389832E+01;  0.0000000E+00;  1.9615376E+01;0; -1.1226481E-01;  2.2766230E+04;  0.0000000E+00; -3.3719954E-01;  4.0000000E+04;  0.0000000E+00;  3.9358320E+04; -3.9631677E-01;  0.0000000E+00;  2.8405195E-01;  9.6502275E+03;
  1.4633429E+00;  9.9999998E-03;  1.1093595E-01;9187;  1.0957052E+00;  0.0000000E+00;  2.0043861E-02;  9.9511865E+02;  1.3294719E-01; -3.9684153E+03;3;  3.4916336E+01;  0.0000000E+00;  1.8071747E+01;0; -1.2213171E-01;  2.2752949E+04;  0.0000000E+00; -1.8014285E-01;  4.0000000E+04;  0.0000000E+00;  3.9363285E+04; -3.9495519E-01;  0.0000000E+00;  2.7282348E-01;  1.0236288E+04;
  1.4635350E+00;  9.9999998E-03;  1.0080984E-01;9186;  1.0945202E+00;  0.0000000E+00;  1.7031446E-02;  9.9486499E+02;  1.3293286E-01; -4.1744287E+03;3;  3.4464443E+01;  0.0000000E+00;  1.6276304E+01;0; -1.3328925E-01;  2.2745098E+04;  0.0000000E+00; -3.6873076E-02;  4.0000000E+04;  0.0000000E+00;  3.9366590E+04; -3.9273307E-01;  0.0000000E+00;  2.5944382E-01;  1.0654319E+04;
  1.4637172E+00;  9.9999998E-03;  9.0692014E-02;9185;  1.0935853E+00;  0.0000000E+00;  1.4314626E-02;  9.9471100E+02;  1.3292204E-01; -4.2994194E+03;3;  3.4038364E+01;  0.0000000E+00;  1.4338525E+01;0; -1.4510833E-01;  2.2741156E+04;  0.0000000E+00;  7.3461890E-02;  4.0000000E+04;  0.0000000E+00;  3.9368785E+04; -3.8977852E-01;  0.0000000E+00;  2.4467020E-01;  1.0945229E+04;
  1.4638807E+00;  9.9999998E-03;  8.0588475E-02;9184;  1.0928624E+00;  0.0000000E+00;  1.1889422E-02;  9.9463312E+02;  1.3291192E-01; -4.3625010E+03;3;  3.3630169E+01;  0.0000000E+00;  1.2433339E+01;0; -1.5701833E-01;  2.2739572E+04;  0.0000000E+00;  1.4537735E-01;  4.0000000E+04;  0.0000000E+00;  3.9370180E+04; -3.8627806E-01;  0.0000000E+00;  2.2925973E-01;  1.1141350E+04;
  1.4640163E+00;  9.9999998E-03;  7.0497952E-02;9183;  1.0923046E+00;  0.0000000E+00;  9.7545348E-03;  9.9460925E+02;  1.3290621E-01; -4.3817642E+03;3;  3.3306149E+01;  0.0000000E+00;  1.0578310E+01;0; -1.6851617E-01;  2.2739301E+04;  0.0000000E+00;  1.7862891E-01;  4.0000000E+04;  0.0000000E+00;  3.9371328E+04; -3.8244960E-01;  0.0000000E+00;  2.1393342E-01;  1.1264411E+04;
  1.4753169E+00;  9.9999998E-03;  1.8120980E-01;9251;  1.1118630E+00;  0.0000000E+00;  3.5685472E-02;  9.9844781E+02;  1.3010769E-01; -1.2573563E+03;3;  4.0982483E+01;  0.0000000E+00;  2.1527527E+01;0; -1.3670406E-01;  2.3956488E+04;  0.0000000E+00;  7.8411665E+00;  4.0000000E+04;  0.0000000E+00;  3.9275852E+04; -4.2032138E-01;  0.0000000E+00;  2.8361732E-01;  1.5625908E+04;
  1.4753342E+00;  9.9999998E-03;  1.9124375E-01;9252;  1.1176656E+00;  0.0000000E+00;  3.8277797E-02;  9.9838501E+02;  1.3010773E-01; -1.3082399E+03;3;  4.1741570E+01;  0.0000000E+00;  2.0921583E+01;0; -1.4375278E-01;  2.3948277E+04;  0.0000000E+00;  1.3237122E+01;  4.0000000E+04;  0.0000000E+00;  3.9286590E+04; -4.2883551E-01;  0.0000000E+00;  2.8508273E-01;  2.5213807E+04;
  1.4753798E+00;  9.9999998E-03;  1.7122699E-01;9250;  1.1067586E+00;  0.0000000E+00;  3.3263974E-02;  9.9820636E+02;  1.3010517E-01; -1.4529238E+03;3;  3.9969723E+01;  0.0000000E+00;  2.2178606E+01;0; -1.3163438E-01;  2.3945955E+04;  0.0000000E+00;  4.1235561E+00;  4.0000000E+04;  0.0000000E+00;  3.9274859E+04; -4.1294801E-01;  0.0000000E+00;  2.8131363E-01;  9.1804512E+03;
  1.4754602E+00;  9.9999998E-03;  2.3186944E-01;9256;  1.1473587E+00;  0.0000000E+00;  5.0073262E-02;  9.9320850E+02;  1.3020743E-01; -5.5013345E+03;3;  4.2149612E+01;  0.0000000E+00;  1.5297900E+01;0; -1.6488829E-01;  2.3667957E+04;  0.0000000E+00;  2.3056562E+01;  4.0000000E+04;  0.0000000E+00;  3.9330562E+04; -4.5077857E-01;  0.0000000E+00;  2.8589028E-01;  4.8635406E+04;
  1.4754516E+00;  9.9999998E-03;  2.0135894E-01;9253;  1.1241733E+00;  0.0000000E+00;  4.1095410E-02;  9.9778619E+02;  1.3011223E-01; -1.7932751E+03;3;  4.2315140E+01;  0.0000000E+00;  1.9912939E+01;0; -1.5169409E-01;  2.3913316E+04;  0.0000000E+00;  1.9569870E+01;  4.0000000E+04;  0.0000000E+00;  3.9301984E+04; -4.3785661E-01;  0.0000000E+00;  2.8616253E-01;  3.6666016E+04;
  1.4754961E+00;  9.9999998E-03;  1.6126110E-01;9249;  1.1023608E+00;  0.0000000E+00;  3.0603655E-02;  9.9777722E+02;  1.3009964E-01; -1.8004911E+03;3;  3.8864353E+01;  0.0000000E+00;  2.2534164E+01;0; -1.2907347E-01;  2.3923697E+04;  0.0000000E+00;  1.8661304E+00;  4.0000000E+04;  0.0000000E+00;  3.9282816E+04; -4.0690345E-01;  0.0000000E+00;  2.7782997E-01;  6.0751934E+03;
  1.4756317E+00;  9.9999998E-03;  2.1153425E-01;9254;  1.1313701E+00;  0.0000000E+00;  4.4031132E-02;  9.9645636E+02;  1.3012484E-01; -2.8702683E+03;3;  4.2619713E+01;  0.0000000E+00;  1.8504684E+01;0; -1.5894598E-01;  2.3846092E+04;  0.0000000E+00;  2.4525127E+01;  4.0000000E+04;  0.0000000E+00;  3.9312969E+04; -4.4602501E-01;  0.0000000E+00;  2.8707904E-01;  4.6382500E+04;
  1.4757034E+00;  9.9999998E-03;  2.2170962E-01;9255;  1.1391425E+00;  0.0000000E+00;  4.6922300E-02;  9.9468335E+02;  1.3015567E-01; -4.3063159E+03;3;  4.2546135E+01;  0.0000000E+00;  1.7231295E+01;0; -1.6429195E-01;  2.3754160E+04;  0.0000000E+00;  2.5599354E+01;  4.0000000E+04;  0.0000000E+00;  3.9322180E+04; -4.5115796E-01;  0.0000000E+00;  2.8686601E-01;  5.0366684E+04;
  1.4756401E+00;  9.9999998E-03;  1.5128762E-01;9248;  1.0986991E+00;  0.0000000E+00;  2.7695579E-02;  9.9723059E+02;  1.3009256E-01; -2.2431699E+03;3;  3.7628830E+01;  0.0000000E+00;  2.2436594E+01;0; -1.2902802E-01;  2.3894824E+04;  0.0000000E+00;  6.0766709E-01;  4.0000000E+04;  0.0000000E+00;  3.9295031E+04; -4.0206626E-01;  0.0000000E+00;  2.7303824E-01;  5.9500596E+03;
  1.4757891E+00;  9.9999998E-03;  1.4128727E-01;9247;  1.0957589E+00;  0.0000000E+00;  2.4575375E-02;  9.9662427E+02;  1.3008390E-01; -2.7341265E+03;3;  3.6477516E+01;  0.0000000E+00;  2.1920601E+01;0; -1.3142699E-01;  2.3863592E+04;  0.0000000E+00; -2.8320834E-02;  4.0000000E+04;  0.0000000E+00;  3.9307781E+04; -3.9810285E-01;  0.0000000E+00;  2.6667586E-01;  7.1243154E+03;
  1.4759325E+00;  9.9999998E-03;  1.3124497E-01;9246;  1.0934305E+00;  0.0000000E+00;  2.1396650E-02;  9.9601892E+02;  1.3007560E-01; -3.2242686E+03;3;  3.5498390E+01;  0.0000000E+00;  2.0827175E+01;0; -1.3610056E-01;  2.3833311E+04;  0.0000000E+00; -2.7632374E-01;  4.0000000E+04;  0.0000000E+00;  3.9319289E+04; -3.9455083E-01;  0.0000000E+00;  2.5845027E-01;  8.4010859E+03;
  1.4760758E+00;  9.9999998E-03;  1.2115783E-01;9245;  1.0916020E+00;  0.0000000E+00;  1.8339923E-02;  9.9546252E+02;  1.3006742E-01; -3.6747332E+03;3;  3.4675861E+01;  0.0000000E+00;  1.9453602E+01;0; -1.4274046E-01;  2.3806891E+04;  0.0000000E+00; -2.8974405E-01;  4.0000000E+04;  0.0000000E+00;  3.9328777E+04; -3.9089954E-01;  0.0000000E+00;  2.4815908E-01;  9.4571650E+03;
  1.4762222E+00;  9.9999998E-03;  1.1104116E-01;9244;  1.0901703E+00;  0.0000000E+00;  1.5476734E-02;  9.9501111E+02;  1.3005932E-01; -4.0401479E+03;3;  3.3940578E+01;  0.0000000E+00;  1.7672876E+01;0; -1.5088730E-01;  2.3786207E+04;  0.0000000E+00; -1.9209293E-01;  4.0000000E+04;  0.0000000E+00;  3.9335684E+04; -3.8675278E-01;  0.0000000E+00;  2.3586549E-01;  1.0253932E+04;
  1.4763697E+00;  9.9999998E-03;  1.0091633E-01;9243;  1.0890689E+00;  0.0000000E+00;  1.2891022E-02;  9.9467621E+02;  1.3005167E-01; -4.3111157E+03;3;  3.3319382E+01;  0.0000000E+00;  1.5771270E+01;0; -1.6000527E-01;  2.3771574E+04;  0.0000000E+00; -8.0973879E-02;  4.0000000E+04;  0.0000000E+00;  3.9340352E+04; -3.8193694E-01;  0.0000000E+00;  2.2193167E-01;  1.0807803E+04;
  1.4765168E+00;  9.9999998E-03;  9.0795450E-02;9242;  1.0882334E+00;  0.0000000E+00;  1.0590049E-02;  9.9446832E+02;  1.3004431E-01; -4.4792529E+03;3;  3.2729347E+01;  0.0000000E+00;  1.3858987E+01;0; -1.6958271E-01;  2.3762949E+04;  0.0000000E+00; -2.0558147E-03;  4.0000000E+04;  0.0000000E+00;  3.9343219E+04; -3.7650689E-01;  0.0000000E+00;  2.0692419E-01;  1.1146756E+04;
  1.4767914E+00;  9.9999998E-03;  7.0580058E-02;9240;  1.0871567E+00;  0.0000000E+00;  6.8469569E-03;  9.9431372E+02;  1.3003394E-01; -4.6040322E+03;3;  3.1811718E+01;  0.0000000E+00;  1.0040253E+01;0; -1.8832034E-01;  2.3758215E+04;  0.0000000E+00;  6.8541437E-02;  4.0000000E+04;  0.0000000E+00;  3.9344195E+04; -3.6455002E-01;  0.0000000E+00;  1.7622969E-01;  1.1339451E+04;
  1.4766603E+00;  9.9999998E-03;  8.0683053E-02;9241;  1.0876135E+00;  0.0000000E+00;  8.5751563E-03;  9.9435144E+02;  1.3003814E-01; -4.5736826E+03;3;  3.2267467E+01;  0.0000000E+00;  1.1890679E+01;0; -1.7915842E-01;  2.3759010E+04;  0.0000000E+00;  4.5495830E-02;  4.0000000E+04;  0.0000000E+00;  3.9344293E+04; -3.7063581E-01;  0.0000000E+00;  1.9147739E-01;  1.1310624E+04;
  1.4876500E+00;  9.9999998E-03;  2.3204012E-01;9313;  1.1424040E+00;  0.0000000E+00;  4.4214472E-02;  9.9193683E+02;  1.2773134E-01; -6.5031641E+03;3;  4.3585011E+01;  0.0000000E+00;  1.5927822E+01;0; -1.8297806E-01;  2.4555521E+04;  0.0000000E+00;  2.8575106E+01;  4.0000000E+04;  0.0000000E+00;  3.9300824E+04; -4.7591159E-01;  0.0000000E+00;  2.9293352E-01;  5.5734016E+04;
  1.4880320E+00;  9.9999998E-03;  2.2187649E-01;9312;  1.1339422E+00;  0.0000000E+00;  4.0590577E-02;  9.9314410E+02;  1.2768121E-01; -5.5286348E+03;3;  4.3879845E+01;  0.0000000E+00;  1.7802448E+01;0; -1.8833444E-01;  2.4631982E+04;  0.0000000E+00;  3.2004261E+01;  4.0000000E+04;  0.0000000E+00;  3.9295582E+04; -4.7763604E-01;  0.0000000E+00;  2.8930160E-01;  5.8698414E+04;
  1.4880677E+00;  9.9999998E-03;  2.1169007E-01;9311;  1.1260018E+00;  0.0000000E+00;  3.7374180E-02;  9.9508624E+02;  1.2764393E-01; -3.9624148E+03;3;  4.3792751E+01;  0.0000000E+00;  1.9042986E+01;0; -1.8621299E-01;  2.4737795E+04;  0.0000000E+00;  3.2501095E+01;  4.0000000E+04;  0.0000000E+00;  3.9287887E+04; -4.7181836E-01;  0.0000000E+00;  2.8560537E-01;  5.7004559E+04;
  1.4879301E+00;  9.9999998E-03;  2.0146640E-01;9310;  1.1186993E+00;  0.0000000E+00;  3.4301620E-02;  9.9688116E+02;  1.2761892E-01; -2.5151255E+03;3;  4.3265099E+01;  0.0000000E+00;  2.0215979E+01;0; -1.8037757E-01;  2.4830838E+04;  0.0000000E+00;  2.8156927E+01;  4.0000000E+04;  0.0000000E+00;  3.9282758E+04; -4.6120158E-01;  0.0000000E+00;  2.8082401E-01;  4.8501672E+04;
  1.4878514E+00;  9.9999998E-03;  1.9126755E-01;9309;  1.1121420E+00;  0.0000000E+00;  3.1222960E-02;  9.9788257E+02;  1.2760311E-01; -1.7076456E+03;3;  4.2485977E+01;  0.0000000E+00;  2.1086605E+01;0; -1.7332196E-01;  2.4889920E+04;  0.0000000E+00;  2.0681091E+01;  4.0000000E+04;  0.0000000E+00;  3.9268637E+04; -4.4856715E-01;  0.0000000E+00;  2.7524519E-01;  3.5854598E+04;
  1.4879072E+00;  9.9999998E-03;  1.8116495E-01;9308;  1.1063589E+00;  0.0000000E+00;  2.8391449E-02;  9.9815906E+02;  1.2759036E-01; -1.4846223E+03;3;  4.1507473E+01;  0.0000000E+00;  2.1627792E+01;0; -1.6655284E-01;  2.4917717E+04;  0.0000000E+00;  1.3313829E+01;  4.0000000E+04;  0.0000000E+00;  3.9249613E+04; -4.3587467E-01;  0.0000000E+00;  2.6932183E-01;  2.3717715E+04;
  1.4880468E+00;  9.9999998E-03;  1.7115055E-01;9307;  1.1013076E+00;  0.0000000E+00;  2.5972214E-02;  9.9804272E+02;  1.2757997E-01; -1.5783651E+03;3;  4.0279282E+01;  0.0000000E+00;  2.1743679E+01;0; -1.6130725E-01;  2.4922096E+04;  0.0000000E+00;  7.7572942E+00;  4.0000000E+04;  0.0000000E+00;  3.9238523E+04; -4.2408717E-01;  0.0000000E+00;  2.6277992E-01;  1.4551438E+04;
  1.4882159E+00;  9.9999998E-03;  1.6118363E-01;9306;  1.0969721E+00;  0.0000000E+00;  2.3719283E-02;  9.9772760E+02;  1.2757166E-01; -1.8323652E+03;3;  3.8913975E+01;  0.0000000E+00;  2.1915960E+01;0; -1.5835339E-01;  2.4909820E+04;  0.0000000E+00;  4.1116457E+00;  4.0000000E+04;  0.0000000E+00;  3.9238715E+04; -4.1358015E-01;  0.0000000E+00;  2.5522676E-01;  8.6780039E+03;
  1.4883872E+00;  9.9999998E-03;  1.5122809E-01;9305;  1.0933256E+00;  0.0000000E+00;  2.1337435E-02;  9.9727478E+02;  1.2756413E-01; -2.1973457E+03;3;  3.7506310E+01;  0.0000000E+00;  2.1701086E+01;0; -1.5779163E-01;  2.4886143E+04;  0.0000000E+00;  1.9126481E+00;  4.0000000E+04;  0.0000000E+00;  3.9247316E+04; -4.0441522E-01;  0.0000000E+00;  2.4662359E-01;  6.0060479E+03;
  1.4885470E+00;  9.9999998E-03;  1.4125814E-01;9304;  1.0903816E+00;  0.0000000E+00;  1.8852081E-02;  9.9673212E+02;  1.2755686E-01; -2.6347085E+03;3;  3.6128792E+01;  0.0000000E+00;  2.1319857E+01;0; -1.5941678E-01;  2.4855582E+04;  0.0000000E+00;  6.8069249E-01;  4.0000000E+04;  0.0000000E+00;  3.9260023E+04; -3.9640334E-01;  0.0000000E+00;  2.3698656E-01;  6.0765498E+03;
  1.4886838E+00;  9.9999998E-03;  1.3125323E-01;9303;  1.0880684E+00;  0.0000000E+00;  1.6220858E-02;  9.9614526E+02;  1.2755117E-01; -3.1076997E+03;3;  3.4850861E+01;  0.0000000E+00;  2.0322968E+01;0; -1.6293837E-01;  2.4822246E+04;  0.0000000E+00;  6.3698165E-02;  4.0000000E+04;  0.0000000E+00;  3.9273824E+04; -3.8916230E-01;  0.0000000E+00;  2.2622393E-01;  7.2804487E+03;
  1.4888008E+00;  9.9999998E-03;  1.2120181E-01;9302;  1.0862994E+00;  0.0000000E+00;  1.3651135E-02;  9.9556744E+02;  1.2754539E-01; -3.5733643E+03;3;  3.3750828E+01;  0.0000000E+00;  1.8910761E+01;0; -1.6799591E-01;  2.4789777E+04;  0.0000000E+00; -1.7685778E-01;  4.0000000E+04;  0.0000000E+00;  3.9286078E+04; -3.8221020E-01;  0.0000000E+00;  2.1421428E-01;  8.5583457E+03;
  1.4889040E+00;  9.9999998E-03;  1.1111283E-01;9301;  1.0849605E+00;  0.0000000E+00;  1.1239827E-02;  9.9505280E+02;  1.2754290E-01; -3.9880750E+03;3;  3.2806004E+01;  0.0000000E+00;  1.7106424E+01;0; -1.7415208E-01;  2.4761090E+04;  0.0000000E+00; -2.0695814E-01;  4.0000000E+04;  0.0000000E+00;  3.9295738E+04; -3.7510896E-01;  0.0000000E+00;  2.0095688E-01;  9.6164756E+03;
  1.4889985E+00;  9.9999998E-03;  1.0100602E-01;9300;  1.0839753E+00;  0.0000000E+00;  9.0780770E-03;  9.9463123E+02;  1.2754072E-01; -4.3277651E+03;3;  3.1993561E+01;  0.0000000E+00;  1.5223692E+01;0; -1.8094054E-01;  2.4738068E+04;  0.0000000E+00; -1.5327194E-01;  4.0000000E+04;  0.0000000E+00;  3.9303270E+04; -3.6757559E-01;  0.0000000E+00;  1.8663505E-01;  1.0399779E+04;
  1.4890980E+00;  9.9999998E-03;  9.0891309E-02;9299;  1.0832695E+00;  0.0000000E+00;  7.1751145E-03;  9.9434418E+02;  1.2753981E-01; -4.5589819E+03;3;  3.1317038E+01;  0.0000000E+00;  1.3180989E+01;0; -1.8795507E-01;  2.4722045E+04;  0.0000000E+00; -9.7740956E-02;  4.0000000E+04;  0.0000000E+00;  3.9307656E+04; -3.5952753E-01;  0.0000000E+00;  1.7157246E-01;  1.0905500E+04;
  1.4893128E+00;  9.9999998E-03;  7.0663042E-02;9297;  1.0824566E+00;  0.0000000E+00;  4.2384956E-03;  9.9406915E+02;  1.2753753E-01; -4.7802583E+03;3;  3.0140623E+01;  0.0000000E+00;  9.3504601E+00;0; -2.0126362E-01;  2.4708299E+04;  0.0000000E+00; -5.1907074E-02;  4.0000000E+04;  0.0000000E+00;  3.9309809E+04; -3.4249148E-01;  0.0000000E+00;  1.4122786E-01;  1.1200028E+04;
  1.4892032E+00;  9.9999998E-03;  8.0775291E-02;9298;  1.0827780E+00;  0.0000000E+00;  5.5690412E-03;  9.9415607E+02;  1.2753844E-01; -4.7104180E+03;3;  3.0662464E+01;  0.0000000E+00;  1.1168730E+01;0; -1.9483192E-01;  2.4712512E+04;  0.0000000E+00; -6.7106143E-02;  4.0000000E+04;  0.0000000E+00;  3.9309789E+04; -3.5108888E-01;  0.0000000E+00;  1.5625696E-01;  1.1157016E+04;
  1.4995717E+00;  9.9999998E-03;  2.3224644E-01;9369;  1.1374274E+00;  0.0000000E+00;  3.8871638E-02;  9.9102966E+02;  1.2558058E-01; -7.1986538E+03;3;  4.4967819E+01;  0.0000000E+00;  1.6351929E+01;0; -1.9810739E-01;  2.5388863E+04;  0.0000000E+00;  3.2993660E+01;  4.0000000E+04;  0.0000000E+00;  3.9258570E+04; -4.9580410E-01;  0.0000000E+00;  2.9769671E-01;  5.9738555E+04;
  1.5000811E+00;  9.9999998E-03;  2.2208442E-01;9368;  1.1287111E+00;  0.0000000E+00;  3.4816854E-02;  9.9164740E+02;  1.2553403E-01; -6.7013589E+03;3;  4.5143192E+01;  0.0000000E+00;  1.8179028E+01;0; -2.1108407E-01;  2.5436773E+04;  0.0000000E+00;  3.7449249E+01;  4.0000000E+04;  0.0000000E+00;  3.9258344E+04; -5.0030053E-01;  0.0000000E+00;  2.8921646E-01;  6.4336379E+04;
  1.5001998E+00;  9.9999998E-03;  2.0166129E-01;9366;  1.1132346E+00;  0.0000000E+00;  2.8169459E-02;  9.9555914E+02;  1.2546097E-01; -3.5627410E+03;3;  4.4182922E+01;  0.0000000E+00;  2.0304003E+01;0; -2.0865098E-01;  2.5654273E+04;  0.0000000E+00;  3.7498806E+01;  4.0000000E+04;  0.0000000E+00;  3.9250754E+04; -4.8255736E-01;  0.0000000E+00;  2.7390638E-01;  5.9626223E+04;
  1.5002706E+00;  9.9999998E-03;  2.1190047E-01;9367;  1.1206257E+00;  0.0000000E+00;  3.1326056E-02;  9.9341022E+02;  1.2549223E-01; -5.2865811E+03;3;  4.4890560E+01;  0.0000000E+00;  1.9213760E+01;0; -2.1286824E-01;  2.5539992E+04;  0.0000000E+00;  3.9785202E+01;  4.0000000E+04;  0.0000000E+00;  3.9251906E+04; -4.9487641E-01;  0.0000000E+00;  2.8200817E-01;  6.5124430E+04;
  1.5001230E+00;  9.9999998E-03;  1.9138646E-01;9365;  1.1066455E+00;  0.0000000E+00;  2.5076473E-02;  9.9710840E+02;  1.2543510E-01; -2.3199160E+03;3;  4.3164074E+01;  0.0000000E+00;  2.0913048E+01;0; -2.0191991E-01;  2.5739887E+04;  0.0000000E+00;  3.0205093E+01;  4.0000000E+04;  0.0000000E+00;  3.9245734E+04; -4.6654928E-01;  0.0000000E+00;  2.6462936E-01;  4.7775676E+04;
  1.5002124E+00;  9.9999998E-03;  1.8118213E-01;9364;  1.1008835E+00;  0.0000000E+00;  2.2014588E-02;  9.9772229E+02;  1.2541401E-01; -1.8273376E+03;3;  4.1928902E+01;  0.0000000E+00;  2.1284681E+01;0; -1.9510108E-01;  2.5789254E+04;  0.0000000E+00;  2.1110710E+01;  4.0000000E+04;  0.0000000E+00;  3.9225785E+04; -4.4963920E-01;  0.0000000E+00;  2.5453812E-01;  3.3896582E+04;
  1.5004342E+00;  9.9999998E-03;  1.7109634E-01;9363;  1.0959201E+00;  0.0000000E+00;  1.9491252E-02;  9.9775183E+02;  1.2539490E-01; -1.8034359E+03;3;  4.0446922E+01;  0.0000000E+00;  2.1181143E+01;0; -1.8914255E-01;  2.5811512E+04;  0.0000000E+00;  1.3325070E+01;  4.0000000E+04;  0.0000000E+00;  3.9203582E+04; -4.3336123E-01;  0.0000000E+00;  2.4421868E-01;  2.2065555E+04;
  1.5006830E+00;  9.9999998E-03;  1.6109613E-01;9362;  1.0917044E+00;  0.0000000E+00;  1.7424086E-02;  9.9754736E+02;  1.2538023E-01; -1.9672111E+03;3;  3.8878727E+01;  0.0000000E+00;  2.1122892E+01;0; -1.8514052E-01;  2.5813877E+04;  0.0000000E+00;  7.7837286E+00;  4.0000000E+04;  0.0000000E+00;  3.9192090E+04; -4.1834587E-01;  0.0000000E+00;  2.3320535E-01;  1.3555161E+04;
  1.5009072E+00;  9.9999998E-03;  1.5113649E-01;9361;  1.0881516E+00;  0.0000000E+00;  1.5426823E-02;  9.9722076E+02;  1.2537076E-01; -2.2289688E+03;3;  3.7284073E+01;  0.0000000E+00;  2.0914038E+01;0; -1.8341577E-01;  2.5800764E+04;  0.0000000E+00;  4.1841135E+00;  4.0000000E+04;  0.0000000E+00;  3.9192691E+04; -4.0481687E-01;  0.0000000E+00;  2.2140110E-01;  8.1587422E+03;
  1.5010937E+00;  9.9999998E-03;  1.4118136E-01;9360;  1.0852623E+00;  0.0000000E+00;  1.3445181E-02;  9.9678412E+02;  1.2536184E-01; -2.5789519E+03;3;  3.5648148E+01;  0.0000000E+00;  2.0301397E+01;0; -1.8368548E-01;  2.5776172E+04;  0.0000000E+00;  1.9924296E+00;  4.0000000E+04;  0.0000000E+00;  3.9201785E+04; -3.9266989E-01;  0.0000000E+00;  2.0898440E-01;  5.7309136E+03;
  1.5012368E+00;  9.9999998E-03;  1.3120525E-01;9359;  1.0830051E+00;  0.0000000E+00;  1.1379658E-02;  9.9628265E+02;  1.2535906E-01; -2.9808875E+03;3;  3.4131653E+01;  0.0000000E+00;  1.9426867E+01;0; -1.8557186E-01;  2.5744342E+04;  0.0000000E+00;  7.4630010E-01;  4.0000000E+04;  0.0000000E+00;  3.9215371E+04; -3.8158581E-01;  0.0000000E+00;  1.9601394E-01;  5.8624058E+03;
  1.5016500E+00;  9.9999998E-03;  7.0731640E-02;9353;  1.0782002E+00;  0.0000000E+00;  1.9542628E-03;  9.9389557E+02;  1.2536769E-01; -4.8940742E+03;3;  2.8483002E+01;  0.0000000E+00;  8.1867466E+00;0; -2.0747390E-01;  2.5591549E+04;  0.0000000E+00; -1.5796253E-01;  4.0000000E+04;  0.0000000E+00;  3.9265793E+04; -3.1655556E-01;  0.0000000E+00;  1.0908166E-01;  1.0731705E+04;
  1.5015799E+00;  9.9999998E-03;  8.0847770E-02;9354;  1.0783629E+00;  0.0000000E+00;  2.9036580E-03;  9.9407074E+02;  1.2536533E-01; -4.7537852E+03;3;  2.9048935E+01;  0.0000000E+00;  1.0267191E+01;0; -2.0426598E-01;  2.5602260E+04;  0.0000000E+00; -1.7824160E-01;  4.0000000E+04;  0.0000000E+00;  3.9264484E+04; -3.2802182E-01;  0.0000000E+00;  1.2375585E-01;  1.0554448E+04;
  1.5013416E+00;  9.9999998E-03;  1.2119099E-01;9358;  1.0813159E+00;  0.0000000E+00;  9.3135303E-03;  9.9572992E+02;  1.2535591E-01; -3.4239319E+03;3;  3.2731094E+01;  0.0000000E+00;  1.8054731E+01;0; -1.8863589E-01;  2.5709309E+04;  0.0000000E+00;  1.0805091E-01;  4.0000000E+04;  0.0000000E+00;  3.9229566E+04; -3.7111452E-01;  0.0000000E+00;  1.8247864E-01;  7.0543604E+03;
  1.5015205E+00;  9.9999998E-03;  9.0959728E-02;9355;  1.0786958E+00;  0.0000000E+00;  4.1173445E-03;  9.9434857E+02;  1.2536207E-01; -4.5311699E+03;3;  2.9713526E+01;  0.0000000E+00;  1.2270587E+01;0; -2.0054868E-01;  2.5619809E+04;  0.0000000E+00; -2.0568453E-01;  4.0000000E+04;  0.0000000E+00;  3.9260090E+04; -3.3933595E-01;  0.0000000E+00;  1.3878727E-01;  1.0105286E+04;
  1.5014687E+00;  9.9999998E-03;  1.0106008E-01;9356;  1.0792521E+00;  0.0000000E+00;  5.6022033E-03;  9.9472760E+02;  1.2535906E-01; -4.2273779E+03;3;  3.0529289E+01;  0.0000000E+00;  1.4335173E+01;0; -1.9651246E-01;  2.5644354E+04;  0.0000000E+00; -2.2138187E-01;  4.0000000E+04;  0.0000000E+00;  3.9252789E+04; -3.5027251E-01;  0.0000000E+00;  1.5376005E-01;  9.3558867E+03;
  1.5014142E+00;  9.9999998E-03;  1.1114006E-01;9357;  1.0800982E+00;  0.0000000E+00;  7.3530069E-03;  9.9519904E+02;  1.2535633E-01; -3.8494988E+03;3;  3.1547867E+01;  0.0000000E+00;  1.6326832E+01;0; -1.9242449E-01;  2.5674934E+04;  0.0000000E+00; -1.5701437E-01;  4.0000000E+04;  0.0000000E+00;  3.9242453E+04; -3.6080173E-01;  0.0000000E+00;  1.6837724E-01;  8.3154199E+03;
  1.5112579E+00;  9.9999998E-03;  2.3248377E-01;9424;  1.1324004E+00;  0.0000000E+00;  3.3729803E-02;  9.9076746E+02;  1.2371276E-01; -7.3665293E+03;3;  4.6329617E+01;  0.0000000E+00;  1.6657406E+01;0; -2.1292537E-01;  2.6185861E+04;  0.0000000E+00;  3.5632240E+01;  4.0000000E+04;  0.0000000E+00;  3.9203004E+04; -5.0943965E-01;  0.0000000E+00;  2.9651427E-01;  5.9716512E+04;
  1.5118603E+00;  9.9999998E-03;  2.2232993E-01;9423;  1.1235349E+00;  0.0000000E+00;  2.9533833E-02;  9.9050446E+02;  1.2367574E-01; -7.5739639E+03;3;  4.6354969E+01;  0.0000000E+00;  1.8274366E+01;0; -2.3276013E-01;  2.6186527E+04;  0.0000000E+00;  4.1574501E+01;  4.0000000E+04;  0.0000000E+00;  3.9208055E+04; -5.1807141E-01;  0.0000000E+00;  2.8531128E-01;  6.6730133E+04;
  1.5122027E+00;  9.9999998E-03;  1.9163106E-01;9420;  1.1012813E+00;  0.0000000E+00;  1.9720297E-02;  9.9589642E+02;  1.2356946E-01; -3.2725623E+03;3;  4.3766758E+01;  0.0000000E+00;  2.0367834E+01;0; -2.3047981E-01;  2.6493967E+04;  0.0000000E+00;  4.0868061E+01;  4.0000000E+04;  0.0000000E+00;  3.9206129E+04; -4.8299405E-01;  0.0000000E+00;  2.5251424E-01;  5.9145098E+04;
  1.5122455E+00;  9.9999998E-03;  1.8132296E-01;9419;  1.0955437E+00;  0.0000000E+00;  1.6674440E-02;  9.9706921E+02;  1.2354214E-01; -2.3371851E+03;3;  4.2291893E+01;  0.0000000E+00;  2.0683390E+01;0; -2.2309805E-01;  2.6568613E+04;  0.0000000E+00;  3.1391977E+01;  4.0000000E+04;  0.0000000E+00;  3.9196664E+04; -4.6211281E-01;  0.0000000E+00;  2.3901476E-01;  4.5526062E+04;
  1.5122179E+00;  9.9999998E-03;  2.1215582E-01;9422;  1.1152871E+00;  0.0000000E+00;  2.5749976E-02;  9.9168243E+02;  1.2363546E-01; -6.6331030E+03;3;  4.5912678E+01;  0.0000000E+00;  1.9209414E+01;0; -2.4001110E-01;  2.6263092E+04;  0.0000000E+00;  4.5495258E+01;  4.0000000E+04;  0.0000000E+00;  3.9203570E+04; -5.1453292E-01;  0.0000000E+00;  2.7452183E-01;  6.9717719E+04;
  1.5122794E+00;  9.9999998E-03;  2.0193367E-01;9421;  1.1078900E+00;  0.0000000E+00;  2.2608422E-02;  9.9379865E+02;  1.2359911E-01; -4.9452642E+03;3;  4.5008465E+01;  0.0000000E+00;  1.9973616E+01;0; -2.3732617E-01;  2.6382221E+04;  0.0000000E+00;  4.5954372E+01;  4.0000000E+04;  0.0000000E+00;  3.9201789E+04; -5.0156885E-01;  0.0000000E+00;  2.6424268E-01;  6.7791797E+04;
  1.5124881E+00;  9.9999998E-03;  1.7112960E-01;9418;  1.0906786E+00;  0.0000000E+00;  1.3993714E-02;  9.9736914E+02;  1.2351891E-01; -2.0977253E+03;3;  4.0564213E+01;  0.0000000E+00;  2.0434690E+01;0; -2.1601245E-01;  2.6608764E+04;  0.0000000E+00;  2.1391768E+01;  4.0000000E+04;  0.0000000E+00;  3.9170633E+04; -4.4136503E-01;  0.0000000E+00;  2.2535259E-01;  3.1610012E+04;
  1.5128137E+00;  9.9999998E-03;  1.6106081E-01;9417;  1.0865980E+00;  0.0000000E+00;  1.1894359E-02;  9.9728033E+02;  1.2350037E-01; -2.1681572E+03;3;  3.8774673E+01;  0.0000000E+00;  2.0092400E+01;0; -2.1038580E-01;  2.6626857E+04;  0.0000000E+00;  1.3446423E+01;  4.0000000E+04;  0.0000000E+00;  3.9146906E+04; -4.2188025E-01;  0.0000000E+00;  2.1149445E-01;  2.0490516E+04;
  1.5131201E+00;  9.9999998E-03;  1.5106425E-01;9416;  1.0831941E+00;  0.0000000E+00;  1.0132308E-02;  9.9704523E+02;  1.2348412E-01; -2.3552234E+03;3;  3.6938492E+01;  0.0000000E+00;  1.9752535E+01;0; -2.0678400E-01;  2.6628119E+04;  0.0000000E+00;  7.9038076E+00;  4.0000000E+04;  0.0000000E+00;  3.9135754E+04; -4.0400043E-01;  0.0000000E+00;  1.9721644E-01;  1.2627111E+04;
  1.5133715E+00;  9.9999998E-03;  1.4109686E-01;9415;  1.0804217E+00;  0.0000000E+00;  8.5130353E-03;  9.9673871E+02;  1.2347383E-01; -2.5991636E+03;3;  3.5079990E+01;  0.0000000E+00;  1.9013987E+01;0; -2.0502822E-01;  2.6615016E+04;  0.0000000E+00;  4.2845325E+00;  4.0000000E+04;  0.0000000E+00;  3.9137199E+04; -3.8767439E-01;  0.0000000E+00;  1.8264617E-01;  7.6010630E+03;
  1.5135596E+00;  9.9999998E-03;  1.3112797E-01;9414;  1.0782664E+00;  0.0000000E+00;  6.9306497E-03;  9.9634961E+02;  1.2346745E-01; -2.9089675E+03;3;  3.3298565E+01;  0.0000000E+00;  1.8134401E+01;0; -2.0467547E-01;  2.6590688E+04;  0.0000000E+00;  2.0432084E+00;  4.0000000E+04;  0.0000000E+00;  3.9146773E+04; -3.7261069E-01;  0.0000000E+00;  1.6793522E-01;  5.2753921E+03;
  1.5136915E+00;  9.9999998E-03;  1.2113815E-01;9413;  1.0766752E+00;  0.0000000E+00;  5.3559230E-03;  9.9589447E+02;  1.2346505E-01; -3.2714312E+03;3;  3.1648848E+01;  0.0000000E+00;  1.6791683E+01;0; -2.0521791E-01;  2.6559111E+04;  0.0000000E+00;  7.4832505E-01;  4.0000000E+04;  0.0000000E+00;  3.9160426E+04; -3.5838595E-01;  0.0000000E+00;  1.5316804E-01;  5.3772769E+03;
  1.5137780E+00;  9.9999998E-03;  1.1111875E-01;9412;  1.0755831E+00;  0.0000000E+00;  3.8614552E-03;  9.9539313E+02;  1.2346336E-01; -3.6707400E+03;3;  3.0206650E+01;  0.0000000E+00;  1.5093593E+01;0; -2.0615672E-01;  2.6524252E+04;  0.0000000E+00;  7.7057973E-02;  4.0000000E+04;  0.0000000E+00;  3.9174949E+04; -3.4451371E-01;  0.0000000E+00;  1.3835700E-01;  6.5180259E+03;
  1.5138619E+00;  9.9999998E-03;  8.0891386E-02;9409;  1.0743445E+00;  0.0000000E+00;  6.4202375E-04;  9.9410852E+02;  1.2347606E-01; -4.6941416E+03;3;  2.7284451E+01;  0.0000000E+00;  8.7291012E+00;0; -2.0762759E-01;  2.6432832E+04;  0.0000000E+00; -2.8919086E-01;  4.0000000E+04;  0.0000000E+00;  3.9205883E+04; -3.0170578E-01;  0.0000000E+00;  9.4078183E-02;  9.4198525E+03;
  1.5138817E+00;  9.9999998E-03;  7.0779912E-02;9408;  1.0743608E+00;  0.0000000E+00;  8.2035382E-05;  9.9383368E+02;  1.2348216E-01; -4.9130684E+03;3;  2.6670111E+01;  0.0000000E+00;  6.9939780E+00;0; -2.0705017E-01;  2.6413729E+04;  0.0000000E+00; -2.5470001E-01;  4.0000000E+04;  0.0000000E+00;  3.9209961E+04; -2.8692314E-01;  0.0000000E+00;  7.9872966E-02;  9.8224629E+03;
  1.5138484E+00;  9.9999998E-03;  9.0989955E-02;9410;  1.0744990E+00;  0.0000000E+00;  1.4533254E-03;  9.9446924E+02;  1.2347014E-01; -4.4067593E+03;3;  2.8113020E+01;  0.0000000E+00;  1.0883435E+01;0; -2.0760973E-01;  2.6458697E+04;  0.0000000E+00; -2.9592830E-01;  4.0000000E+04;  0.0000000E+00;  3.9198656E+04; -3.1632069E-01;  0.0000000E+00;  1.0871096E-01;  8.7206992E+03;
  1.5138271E+00;  9.9999998E-03;  1.0106810E-01;9411;  1.0748881E+00;  0.0000000E+00;  2.5316470E-03;  9.9490411E+02;  1.2346602E-01; -4.0603108E+03;3;  2.9083950E+01;  0.0000000E+00;  1.3051721E+01;0; -2.0705990E-01;  2.6489818E+04;  0.0000000E+00; -2.1255575E-01;  4.0000000E+04;  0.0000000E+00;  3.9188113E+04; -3.3057585E-01;  0.0000000E+00;  1.2351595E-01;  7.7291733E+03;
  1.5227587E+00;  9.9999998E-03;  2.3274358E-01;9478;  1.1272967E+00;  0.0000000E+00;  2.8725006E-02;  9.9140924E+02;  1.2209060E-01; -6.8093101E+03;3;  4.7635590E+01;  0.0000000E+00;  1.6822018E+01;0; -2.2791061E-01;  2.6964936E+04;  0.0000000E+00;  3.5172890E+01;  4.0000000E+04;  0.0000000E+00;  3.9135352E+04; -5.1561141E-01;  0.0000000E+00;  2.8770080E-01;  5.4605941E+04;
  1.5234166E+00;  9.9999998E-03;  2.2260259E-01;9477;  1.1183777E+00;  0.0000000E+00;  2.4503138E-02;  9.9007251E+02;  1.2206687E-01; -7.8656440E+03;3;  4.7532074E+01;  0.0000000E+00;  1.8258352E+01;0; -2.5480598E-01;  2.6903018E+04;  0.0000000E+00;  4.3413723E+01;  4.0000000E+04;  0.0000000E+00;  3.9144777E+04; -5.2975923E-01;  0.0000000E+00;  2.7495325E-01;  6.4871270E+04;
  1.5239080E+00;  9.9999998E-03;  2.1244285E-01;9476;  1.1100750E+00;  0.0000000E+00;  2.0709042E-02;  9.9028198E+02;  1.2203389E-01; -7.6972773E+03;3;  4.6881386E+01;  0.0000000E+00;  1.8919300E+01;0; -2.6694459E-01;  2.6930082E+04;  0.0000000E+00;  4.9058903E+01;  4.0000000E+04;  0.0000000E+00;  3.9143070E+04; -5.2954358E-01;  0.0000000E+00;  2.6259899E-01;  7.0363930E+04;
  1.5241188E+00;  9.9999998E-03;  1.8161805E-01;9473;  1.0904069E+00;  0.0000000E+00;  1.2228006E-02;  9.9602740E+02;  1.2193819E-01; -3.1461277E+03;3;  4.2621021E+01;  0.0000000E+00;  1.9782232E+01;0; -2.5128755E-01;  2.7255043E+04;  0.0000000E+00;  4.3238697E+01;  4.0000000E+04;  0.0000000E+00;  3.9149590E+04; -4.7366476E-01;  0.0000000E+00;  2.2237721E-01;  5.6805883E+04;
  1.5241530E+00;  9.9999998E-03;  2.0224817E-01;9475;  1.1026399E+00;  0.0000000E+00;  1.7513268E-02;  9.9184631E+02;  1.2199895E-01; -6.4572373E+03;3;  4.5757477E+01;  0.0000000E+00;  1.9413294E+01;0; -2.6712626E-01;  2.7026287E+04;  0.0000000E+00;  5.1912151E+01;  4.0000000E+04;  0.0000000E+00;  3.9138730E+04; -5.1755577E-01;  0.0000000E+00;  2.5042951E-01;  7.1430227E+04;
  1.5241531E+00;  9.9999998E-03;  1.9197452E-01;9474;  1.0961030E+00;  0.0000000E+00;  1.4872029E-02;  9.9412054E+02;  1.2196560E-01; -4.6561909E+03;3;  4.4371429E+01;  0.0000000E+00;  1.9647757E+01;0; -2.6009828E-01;  2.7151195E+04;  0.0000000E+00;  5.0479725E+01;  4.0000000E+04;  0.0000000E+00;  3.9144176E+04; -4.9764729E-01;  0.0000000E+00;  2.3754902E-01;  6.7245742E+04;
  1.5242754E+00;  9.9999998E-03;  1.7130224E-01;9472;  1.0856266E+00;  0.0000000E+00;  9.5406044E-03;  9.9686176E+02;  1.2191386E-01; -2.4851145E+03;3;  4.0649822E+01;  0.0000000E+00;  1.9441626E+01;0; -2.4265993E-01;  2.7318008E+04;  0.0000000E+00;  3.2333420E+01;  4.0000000E+04;  0.0000000E+00;  3.9133648E+04; -4.4873524E-01;  0.0000000E+00;  2.0607531E-01;  4.2735281E+04;
  1.5246228E+00;  9.9999998E-03;  1.6112022E-01;9471;  1.0816809E+00;  0.0000000E+00;  7.3052868E-03;  9.9695050E+02;  1.2189004E-01; -2.4143032E+03;3;  3.8586182E+01;  0.0000000E+00;  1.8909986E+01;0; -2.3495929E-01;  2.7351135E+04;  0.0000000E+00;  2.1834894E+01;  4.0000000E+04;  0.0000000E+00;  3.9104441E+04; -4.2483884E-01;  0.0000000E+00;  1.8987955E-01;  2.9452936E+04;
  1.5250213E+00;  9.9999998E-03;  1.5105022E-01;9470;  1.0784441E+00;  0.0000000E+00;  5.5982480E-03;  9.9678912E+02;  1.2187026E-01; -2.5414478E+03;3;  3.6502224E+01;  0.0000000E+00;  1.8294188E+01;0; -2.2883375E-01;  2.7366352E+04;  0.0000000E+00;  1.3756530E+01;  4.0000000E+04;  0.0000000E+00;  3.9081273E+04; -4.0261498E-01;  0.0000000E+00;  1.7378123E-01;  1.9141809E+04;
  1.5253751E+00;  9.9999998E-03;  1.4103898E-01;9469;  1.0758398E+00;  0.0000000E+00;  4.2105461E-03;  9.9657794E+02;  1.2185568E-01; -2.7079851E+03;3;  3.4392643E+01;  0.0000000E+00;  1.7515890E+01;0; -2.2432427E-01;  2.7367482E+04;  0.0000000E+00;  8.1196108E+00;  4.0000000E+04;  0.0000000E+00;  3.9071047E+04; -3.8204908E-01;  0.0000000E+00;  1.5772481E-01;  1.1836776E+04;
  1.5256510E+00;  9.9999998E-03;  1.3104950E-01;9468;  1.0738275E+00;  0.0000000E+00;  2.9865846E-03;  9.9631274E+02;  1.2184495E-01; -2.9173135E+03;3;  3.2377911E+01;  0.0000000E+00;  1.6412613E+01;0; -2.2101599E-01;  2.7355689E+04;  0.0000000E+00;  4.3869209E+00;  4.0000000E+04;  0.0000000E+00;  3.9072801E+04; -3.6286715E-01;  0.0000000E+00;  1.4185116E-01;  7.0699390E+03;
  1.5258467E+00;  9.9999998E-03;  1.2106185E-01;9467;  1.0723728E+00;  0.0000000E+00;  1.8626377E-03;  9.9596777E+02;  1.2183782E-01; -3.1898645E+03;3;  3.0512430E+01;  0.0000000E+00;  1.5070991E+01;0; -2.1835539E-01;  2.7333322E+04;  0.0000000E+00;  2.0485537E+00;  4.0000000E+04;  0.0000000E+00;  3.9082367E+04; -3.4464738E-01;  0.0000000E+00;  1.2629199E-01;  4.7390894E+03;
  1.5259732E+00;  9.9999998E-03;  1.1106295E-01;9466;  1.0714176E+00;  0.0000000E+00;  8.2886161E-04;  9.9556934E+02;  1.2183555E-01; -3.5047461E+03;3;  2.8864006E+01;  0.0000000E+00;  1.3329805E+01;0; -2.1580549E-01;  2.7303375E+04;  0.0000000E+00;  6.9117427E-01;  4.0000000E+04;  0.0000000E+00;  3.9095699E+04; -3.2688817E-01;  0.0000000E+00;  1.1108269E-01;  4.7171045E+03;
  1.5260359E+00;  9.9999998E-03;  7.0802867E-02;9462;  1.0709188E+00;  0.0000000E+00; -1.4787656E-03;  9.9392438E+02;  1.2185261E-01; -4.8057583E+03;3;  2.4822136E+01;  0.0000000E+00;  6.5082922E+00;0; -2.0020860E-01;  2.7178207E+04;  0.0000000E+00; -3.6035827E-01;  4.0000000E+04;  0.0000000E+00;  3.9140098E+04; -2.5396767E-01;  0.0000000E+00;  5.3759076E-02;  8.4355830E+03;
  1.5260466E+00;  9.9999998E-03;  1.0103777E-01;9465;  1.0708786E+00;  0.0000000E+00; -5.7855741E-05;  9.9512750E+02;  1.2183531E-01; -3.8540757E+03;3;  2.7474966E+01;  0.0000000E+00;  1.1503561E+01;0; -2.1292067E-01;  2.7269957E+04;  0.0000000E+00; -1.0707996E-02;  4.0000000E+04;  0.0000000E+00;  3.9109809E+04; -3.0911237E-01;  0.0000000E+00;  9.6191712E-02;  5.7514141E+03;
  1.5260582E+00;  9.9999998E-03;  8.0902800E-02;9463;  1.0707076E+00;  0.0000000E+00; -1.2148044E-03;  9.9427118E+02;  1.2184417E-01; -4.5313940E+03;3;  2.5555658E+01;  0.0000000E+00;  8.0070534E+00;0; -2.0514897E-01;  2.7204873E+04;  0.0000000E+00; -3.8628101E-01;  4.0000000E+04;  0.0000000E+00;  3.9133031E+04; -2.7259317E-01;  0.0000000E+00;  6.7444198E-02;  7.7885210E+03;
  1.5260698E+00;  9.9999998E-03;  9.0983026E-02;9464;  1.0706731E+00;  0.0000000E+00; -7.4631308E-04;  9.9468213E+02;  1.2183823E-01; -4.2062905E+03;3;  2.6400448E+01;  0.0000000E+00;  9.7827091E+00;0; -2.0940422E-01;  2.7236141E+04;  0.0000000E+00; -3.0916661E-01;  4.0000000E+04;  0.0000000E+00;  3.9122715E+04; -2.9103476E-01;  0.0000000E+00;  8.1630543E-02;  6.8718784E+03;
  1.5341356E+00;  9.9999998E-03;  2.3301917E-01;9531;  1.1219603E+00;  0.0000000E+00;  2.3212409E-02;  9.9299506E+02;  1.2068214E-01; -5.5103535E+03;3;  4.8886734E+01;  0.0000000E+00;  1.6995438E+01;0; -2.5099871E-01;  2.7736139E+04;  0.0000000E+00;  2.9794767E+01;  4.0000000E+04;  0.0000000E+00;  3.9056457E+04; -5.1394564E-01;  0.0000000E+00;  2.6294693E-01;  4.3433473E+04;
  1.5347950E+00;  9.9999998E-03;  2.2289412E-01;9530;  1.1132066E+00;  0.0000000E+00;  1.9447366E-02;  9.9063104E+02;  1.2067160E-01; -7.3665068E+03;3;  4.8622601E+01;  0.0000000E+00;  1.8009495E+01;0; -2.7930245E-01;  2.7611258E+04;  0.0000000E+00;  4.1729748E+01;  4.0000000E+04;  0.0000000E+00;  3.9068344E+04; -5.3397787E-01;  0.0000000E+00;  2.5467542E-01;  5.7949801E+04;
  1.5353630E+00;  9.9999998E-03;  2.1275280E-01;9529;  1.1049532E+00;  0.0000000E+00;  1.5853873E-02;  9.8967175E+02;  1.2065098E-01; -8.1174116E+03;3;  4.7778133E+01;  0.0000000E+00;  1.8362627E+01;0; -2.9536557E-01;  2.7572395E+04;  0.0000000E+00;  4.9983368E+01;  4.0000000E+04;  0.0000000E+00;  3.9068617E+04; -5.3858697E-01;  0.0000000E+00;  2.4322140E-01;  6.6766805E+04;
  1.5359542E+00;  9.9999998E-03;  1.7164437E-01;9525;  1.0807818E+00;  0.0000000E+00;  5.9993863E-03;  9.9600098E+02;  1.2053902E-01; -3.1416282E+03;3;  4.0766613E+01;  0.0000000E+00;  1.8127964E+01;0; -2.6970685E-01;  2.7941260E+04;  0.0000000E+00;  4.5277664E+01;  4.0000000E+04;  0.0000000E+00;  3.9078859E+04; -4.5591331E-01;  0.0000000E+00;  1.8620645E-01;  5.3723582E+04;
  1.5357662E+00;  9.9999998E-03;  2.0258382E-01;9528;  1.0975507E+00;  0.0000000E+00;  1.2863422E-02;  9.9023895E+02;  1.2062329E-01; -7.6693696E+03;3;  4.6494328E+01;  0.0000000E+00;  1.8704348E+01;0; -2.9771712E-01;  2.7617529E+04;  0.0000000E+00;  5.5099857E+01;  4.0000000E+04;  0.0000000E+00;  3.9063688E+04; -5.2924085E-01;  0.0000000E+00;  2.3152372E-01;  7.0722758E+04;
  1.5359222E+00;  9.9999998E-03;  1.8203665E-01;9526;  1.0854925E+00;  0.0000000E+00;  8.2825106E-03;  9.9434271E+02;  1.2056303E-01; -4.4445166E+03;3;  4.2921284E+01;  0.0000000E+00;  1.8519106E+01;0; -2.8061840E-01;  2.7847869E+04;  0.0000000E+00;  5.4057526E+01;  4.0000000E+04;  0.0000000E+00;  3.9074531E+04; -4.8413184E-01;  0.0000000E+00;  2.0351344E-01;  6.4800898E+04;
  1.5359347E+00;  9.9999998E-03;  1.9236138E-01;9527;  1.0910883E+00;  0.0000000E+00;  1.0425853E-02;  9.9204010E+02;  1.2059211E-01; -6.2534248E+03;3;  4.4907070E+01;  0.0000000E+00;  1.8729427E+01;0; -2.9116189E-01;  2.7724523E+04;  0.0000000E+00;  5.7010799E+01;  4.0000000E+04;  0.0000000E+00;  3.9063035E+04; -5.0972736E-01;  0.0000000E+00;  2.1856546E-01;  7.0350586E+04;
  1.5362091E+00;  9.9999998E-03;  1.6132154E-01;9524;  1.0769497E+00;  0.0000000E+00;  3.7494504E-03;  9.9656024E+02;  1.2051434E-01; -2.7018040E+03;3;  3.8435902E+01;  0.0000000E+00;  1.7490536E+01;0; -2.5950795E-01;  2.7994004E+04;  0.0000000E+00;  3.3497032E+01;  4.0000000E+04;  0.0000000E+00;  3.9059746E+04; -4.2782751E-01;  0.0000000E+00;  1.6831954E-01;  4.0079625E+04;
  1.5366458E+00;  9.9999998E-03;  1.5113136E-01;9523;  1.0738894E+00;  0.0000000E+00;  1.9736923E-03;  9.9651715E+02;  1.2049197E-01; -2.7347717E+03;3;  3.6078182E+01;  0.0000000E+00;  1.6616903E+01;0; -2.5033873E-01;  2.8020830E+04;  0.0000000E+00;  2.2625824E+01;  4.0000000E+04;  0.0000000E+00;  3.9030801E+04; -4.0122917E-01;  0.0000000E+00;  1.5089045E-01;  2.7667398E+04;
  1.5371094E+00;  9.9999998E-03;  1.4104100E-01;9522;  1.0714822E+00;  0.0000000E+00;  6.6958054E-04;  9.9633466E+02;  1.2047182E-01; -2.8770425E+03;3;  3.3728615E+01;  0.0000000E+00;  1.5551248E+01;0; -2.4239360E-01;  2.8034361E+04;  0.0000000E+00;  1.4303288E+01;  4.0000000E+04;  0.0000000E+00;  3.9008855E+04; -3.7633371E-01;  0.0000000E+00;  1.3394012E-01;  1.8072805E+04;
  1.5375054E+00;  9.9999998E-03;  1.3100395E-01;9521;  1.0696592E+00;  0.0000000E+00; -3.0936016E-04;  9.9613568E+02;  1.2045547E-01; -3.0323645E+03;3;  3.1478352E+01;  0.0000000E+00;  1.4467497E+01;0; -2.3537937E-01;  2.8036580E+04;  0.0000000E+00;  8.4328976E+00;  4.0000000E+04;  0.0000000E+00;  3.8998938E+04; -3.5288042E-01;  0.0000000E+00;  1.1750106E-01;  1.1199729E+04;
  1.5378059E+00;  9.9999998E-03;  1.2099271E-01;9520;  1.0683742E+00;  0.0000000E+00; -1.0762145E-03;  9.9591180E+02;  1.2044423E-01; -3.2073176E+03;3;  2.9336594E+01;  0.0000000E+00;  1.3234371E+01;0; -2.2876427E-01;  2.8027490E+04;  0.0000000E+00;  4.5019073E+00;  4.0000000E+04;  0.0000000E+00;  3.8999867E+04; -3.3041659E-01;  0.0000000E+00;  1.0165232E-01;  6.6181885E+03;
  1.5380077E+00;  9.9999998E-03;  1.1099045E-01;9519;  1.0675832E+00;  0.0000000E+00; -1.7241406E-03;  9.9563336E+02;  1.2043855E-01; -3.4252207E+03;3;  2.7457865E+01;  0.0000000E+00;  1.2053542E+01;0; -2.2200748E-01;  2.8007965E+04;  0.0000000E+00;  2.0213938E+00;  4.0000000E+04;  0.0000000E+00;  3.9008430E+04; -3.0843198E-01;  0.0000000E+00;  8.6424507E-02;  4.2044536E+03;
  1.5381180E+00;  9.9999998E-03;  7.0801854E-02;9515;  1.0678706E+00;  0.0000000E+00; -2.8963650E-03;  9.9411151E+02;  1.2044838E-01; -4.6185679E+03;3;  2.2705893E+01;  0.0000000E+00;  6.3827085E+00;0; -1.8743107E-01;  2.7885770E+04;  0.0000000E+00; -4.8058453E-01;  4.0000000E+04;  0.0000000E+00;  3.9055484E+04; -2.1833879E-01;  0.0000000E+00;  3.0907718E-02;  6.6648242E+03;
  1.5381231E+00;  9.9999998E-03;  1.0098179E-01;9518;  1.0672185E+00;  0.0000000E+00; -2.2577138E-03;  9.9529883E+02;  1.2043758E-01; -3.6873323E+03;3;  2.5860102E+01;  0.0000000E+00;  1.0628896E+01;0; -2.1465766E-01;  2.7980826E+04;  0.0000000E+00;  5.8637172E-01;  4.0000000E+04;  0.0000000E+00;  3.9020477E+04; -2.8644648E-01;  0.0000000E+00;  7.1788810E-02;  3.9650750E+03;
  1.5381660E+00;  9.9999998E-03;  8.0886155E-02;9516;  1.0674372E+00;  0.0000000E+00; -2.8562434E-03;  9.9449890E+02;  1.2044263E-01; -4.3145811E+03;3;  2.3474661E+01;  0.0000000E+00;  7.7117138E+00;0; -1.9730507E-01;  2.7916748E+04;  0.0000000E+00; -4.3187922E-01;  4.0000000E+04;  0.0000000E+00;  3.9045895E+04; -2.4131337E-01;  0.0000000E+00;  4.4008303E-02;  5.8359985E+03;
  1.5381738E+00;  9.9999998E-03;  9.0947703E-02;9517;  1.0672004E+00;  0.0000000E+00; -2.6476961E-03;  9.9490277E+02;  1.2043788E-01; -3.9977883E+03;3;  2.4522381E+01;  0.0000000E+00;  9.1465034E+00;0; -2.0643863E-01;  2.7949367E+04;  0.0000000E+00; -1.4158511E-01;  4.0000000E+04;  0.0000000E+00;  3.9033605E+04; -2.6409331E-01;  0.0000000E+00;  5.7654671E-02;  4.8381758E+03;
  1.5454656E+00;  9.9999998E-03;  2.3330024E-01;9583;  1.1163319E+00;  0.0000000E+00;  1.7109668E-02;  9.9521973E+02;  1.1946431E-01; -3.7277131E+03;3;  5.0101284E+01;  0.0000000E+00;  1.6959635E+01;0; -2.8460938E-01;  2.8486533E+04;  0.0000000E+00;  1.8408962E+01;  4.0000000E+04;  0.0000000E+00;  3.8970914E+04; -5.0436074E-01;  0.0000000E+00;  2.1975137E-01;  2.6619852E+04;
  1.5460634E+00;  9.9999998E-03;  2.2319309E-01;9582;  1.1079069E+00;  0.0000000E+00;  1.4058613E-02;  9.9229962E+02;  1.1946257E-01; -6.0018521E+03;3;  4.9656822E+01;  0.0000000E+00;  1.7623011E+01;0; -3.0987221E-01;  2.8323076E+04;  0.0000000E+00;  3.4569408E+01;  4.0000000E+04;  0.0000000E+00;  3.8982086E+04; -5.3003675E-01;  0.0000000E+00;  2.2016454E-01;  4.5214340E+04;
  1.5466484E+00;  9.9999998E-03;  2.1307179E-01;9581;  1.0999035E+00;  0.0000000E+00;  1.1016155E-02;  9.9021356E+02;  1.1945527E-01; -7.6240396E+03;3;  4.8644730E+01;  0.0000000E+00;  1.7698097E+01;0; -3.2600015E-01;  2.8216445E+04;  0.0000000E+00;  4.6811153E+01;  4.0000000E+04;  0.0000000E+00;  3.8982605E+04; -5.4013813E-01;  0.0000000E+00;  2.1413797E-01;  5.8122539E+04;
  1.5471375E+00;  9.9999998E-03;  2.0292847E-01;9580;  1.0926384E+00;  0.0000000E+00;  8.5030552E-03;  9.8955176E+02;  1.1943849E-01; -8.1362593E+03;3;  4.7197945E+01;  0.0000000E+00;  1.7675930E+01;0; -3.2893521E-01;  2.8194604E+04;  0.0000000E+00;  5.5269676E+01;  4.0000000E+04;  0.0000000E+00;  3.8977031E+04; -5.3515387E-01;  0.0000000E+00;  2.0621866E-01;  6.5852414E+04;
  1.5474718E+00;  9.9999998E-03;  1.9274640E-01;9579;  1.0862358E+00;  0.0000000E+00;  6.3850204E-03;  9.9033185E+02;  1.1941320E-01; -7.5266963E+03;3;  4.5360901E+01;  0.0000000E+00;  1.7445133E+01;0; -3.2306582E-01;  2.8250584E+04;  0.0000000E+00;  6.0198738E+01;  4.0000000E+04;  0.0000000E+00;  3.8972223E+04; -5.1810396E-01;  0.0000000E+00;  1.9503812E-01;  6.8883078E+04;
  1.5476148E+00;  9.9999998E-03;  1.8249114E-01;9578;  1.0807544E+00;  0.0000000E+00;  4.6163546E-03;  9.9221741E+02;  1.1938544E-01; -6.0580244E+03;3;  4.3237255E+01;  0.0000000E+00;  1.7123213E+01;0; -3.1157541E-01;  2.8358367E+04;  0.0000000E+00;  6.1248241E+01;  4.0000000E+04;  0.0000000E+00;  3.8977504E+04; -4.9273631E-01;  0.0000000E+00;  1.8116090E-01;  6.7542492E+04;
  1.5476395E+00;  9.9999998E-03;  1.7211999E-01;9577;  1.0761560E+00;  0.0000000E+00;  2.9344244E-03;  9.9439899E+02;  1.1935934E-01; -4.3597651E+03;3;  4.0889385E+01;  0.0000000E+00;  1.6649225E+01;0; -2.9795432E-01;  2.8473598E+04;  0.0000000E+00;  5.7171535E+01;  4.0000000E+04;  0.0000000E+00;  3.8993812E+04; -4.6273056E-01;  0.0000000E+00;  1.6477622E-01;  6.1427262E+04;
  1.5477563E+00;  9.9999998E-03;  1.6169767E-01;9576;  1.0724171E+00;  0.0000000E+00;  1.0628909E-03;  9.9580591E+02;  1.1933599E-01; -3.2643154E+03;3;  3.8334312E+01;  0.0000000E+00;  1.5884465E+01;0; -2.8460154E-01;  2.8556088E+04;  0.0000000E+00;  4.7444199E+01;  4.0000000E+04;  0.0000000E+00;  3.8997867E+04; -4.3121785E-01;  0.0000000E+00;  1.4661631E-01;  5.0577824E+04;
  1.5481020E+00;  9.9999998E-03;  1.5135694E-01;9575;  1.0695059E+00;  0.0000000E+00; -6.8052526E-04;  9.9619690E+02;  1.1931421E-01; -2.9591194E+03;3;  3.5701023E+01;  0.0000000E+00;  1.4851437E+01;0; -2.7189875E-01;  2.8599857E+04;  0.0000000E+00;  3.5087383E+01;  4.0000000E+04;  0.0000000E+00;  3.8978938E+04; -4.0036964E-01;  0.0000000E+00;  1.2847090E-01;  3.7771230E+04;
  1.5486079E+00;  9.9999998E-03;  1.4114380E-01;9574;  1.0673034E+00;  0.0000000E+00; -1.9967230E-03;  9.9607520E+02;  1.1929207E-01; -3.0525017E+03;3;  3.3143810E+01;  0.0000000E+00;  1.3869683E+01;0; -2.5996143E-01;  2.8622311E+04;  0.0000000E+00;  2.3801218E+01;  4.0000000E+04;  0.0000000E+00;  3.8951312E+04; -3.7104267E-01;  0.0000000E+00;  1.1108123E-01;  2.6219465E+04;
  1.5491283E+00;  9.9999998E-03;  1.3102792E-01;9573;  1.0657039E+00;  0.0000000E+00; -2.8810115E-03;  9.9587592E+02;  1.1927237E-01; -3.2060854E+03;3;  3.0707964E+01;  0.0000000E+00;  1.2896213E+01;0; -2.4857396E-01;  2.8635018E+04;  0.0000000E+00;  1.5074454E+01;  4.0000000E+04;  0.0000000E+00;  3.8929484E+04; -3.4313744E-01;  0.0000000E+00;  9.4563484E-02;  1.7209682E+04;
  1.5495646E+00;  9.9999998E-03;  1.2096940E-01;9572;  1.0646337E+00;  0.0000000E+00; -3.4877125E-03;  9.9571698E+02;  1.1925784E-01; -3.3283625E+03;3;  2.8439558E+01;  0.0000000E+00;  1.1984630E+01;0; -2.3729968E-01;  2.8639473E+04;  0.0000000E+00;  8.8460455E+00;  4.0000000E+04;  0.0000000E+00;  3.8918648E+04; -3.1619322E-01;  0.0000000E+00;  7.8893535E-02;  1.0677860E+04;
  1.5498842E+00;  9.9999998E-03;  1.1094097E-01;9571;  1.0640390E+00;  0.0000000E+00; -3.9007410E-03;  9.9553680E+02;  1.1924606E-01; -3.4674219E+03;3;  2.6355087E+01;  0.0000000E+00;  1.0939958E+01;0; -2.2559702E-01;  2.8634072E+04;  0.0000000E+00;  4.6412902E+00;  4.0000000E+04;  0.0000000E+00;  3.8917906E+04; -2.8966725E-01;  0.0000000E+00;  6.4070225E-02;  6.2417822E+03;
  1.5500844E+00;  9.9999998E-03;  1.0092478E-01;9570;  1.0638623E+00;  0.0000000E+00; -4.1730232E-03;  9.9531616E+02;  1.1923993E-01; -3.6382131E+03;3;  2.4381546E+01;  0.0000000E+00;  9.8952656E+00;0; -2.1305567E-01;  2.8618918E+04;  0.0000000E+00;  1.9850607E+00;  4.0000000E+04;  0.0000000E+00;  3.8924285E+04; -2.6307300E-01;  0.0000000E+00;  5.0017335E-02;  3.7241526E+03;
  1.5501524E+00;  9.9999998E-03;  7.0790693E-02;9567;  1.0651572E+00;  0.0000000E+00; -4.1944366E-03;  9.9434540E+02;  1.1924613E-01; -4.3919663E+03;3;  2.0490520E+01;  0.0000000E+00;  6.2891831E+00;0; -1.6942449E-01;  2.8536139E+04;  0.0000000E+00; -5.6968516E-01;  4.0000000E+04;  0.0000000E+00;  3.8957367E+04; -1.8077999E-01;  0.0000000E+00;  1.1355498E-02;  4.7117026E+03;
  1.5501807E+00;  9.9999998E-03;  9.0903319E-02;9569;  1.0640413E+00;  0.0000000E+00; -4.3208608E-03;  9.9503925E+02;  1.1923888E-01; -3.8529912E+03;3;  2.2666273E+01;  0.0000000E+00;  8.7421656E+00;0; -1.9945870E-01;  2.8595477E+04;  0.0000000E+00;  4.5914590E-01;  4.0000000E+04;  0.0000000E+00;  3.8934777E+04; -2.3606886E-01;  0.0000000E+00;  3.6610156E-02;  3.1940867E+03;
  1.5501969E+00;  9.9999998E-03;  8.0860257E-02;9568;  1.0645005E+00;  0.0000000E+00; -4.3303096E-03;  9.9470935E+02;  1.1924061E-01; -4.1091260E+03;3;  2.1343660E+01;  0.0000000E+00;  7.5488524E+00;0; -1.8482265E-01;  2.8566818E+04;  0.0000000E+00; -2.9555774E-01;  4.0000000E+04;  0.0000000E+00;  3.8946348E+04; -2.0855136E-01;  0.0000000E+00;  2.3728712E-02;  3.8568162E+03;
  1.5568191E+00;  9.9999998E-03;  2.3357858E-01;9633;  1.1104875E+00;  0.0000000E+00;  1.0499796E-02;  9.9735083E+02;  1.1841833E-01; -2.0452111E+03;3;  5.1212376E+01;  0.0000000E+00;  1.6521120E+01;0; -3.2787737E-01;  2.9176049E+04;  0.0000000E+00;  4.5862870E+00;  4.0000000E+04;  0.0000000E+00;  3.8883148E+04; -4.8669866E-01;  0.0000000E+00;  1.5882128E-01;  8.7811260E+03;
  1.5573046E+00;  9.9999998E-03;  2.2348917E-01;9632;  1.1024829E+00;  0.0000000E+00;  8.3120577E-03;  9.9469464E+02;  1.1841844E-01; -4.0939189E+03;3;  5.0528412E+01;  0.0000000E+00;  1.6653046E+01;0; -3.4684712E-01;  2.9022998E+04;  0.0000000E+00;  2.0775860E+01;  4.0000000E+04;  0.0000000E+00;  3.8891566E+04; -5.1731133E-01;  0.0000000E+00;  1.7046420E-01;  2.7307824E+04;
  1.5578394E+00;  9.9999998E-03;  2.1338703E-01;9631;  1.0948675E+00;  0.0000000E+00;  6.1699110E-03;  9.9195569E+02;  1.1841944E-01; -6.2042871E+03;3;  4.9364700E+01;  0.0000000E+00;  1.6583006E+01;0; -3.5831785E-01;  2.8873777E+04;  0.0000000E+00;  3.7640450E+01;  4.0000000E+04;  0.0000000E+00;  3.8890445E+04; -5.3310221E-01;  0.0000000E+00;  1.7478436E-01;  4.4114000E+04;
  1.5583507E+00;  9.9999998E-03;  2.0326822E-01;9630;  1.0878322E+00;  0.0000000E+00;  4.2475821E-03;  9.9011328E+02;  1.1841401E-01; -7.6215508E+03;3;  4.7782818E+01;  0.0000000E+00;  1.6317093E+01;0; -3.6095929E-01;  2.8783412E+04;  0.0000000E+00;  5.0792480E+01;  4.0000000E+04;  0.0000000E+00;  3.8882180E+04; -5.3397900E-01;  0.0000000E+00;  1.7301972E-01;  5.6132707E+04;
  1.5587823E+00;  9.9999998E-03;  1.9311976E-01;9629;  1.0815593E+00;  0.0000000E+00;  2.6390345E-03;  9.8962714E+02;  1.1840115E-01; -7.9929727E+03;3;  4.5792130E+01;  0.0000000E+00;  1.5900674E+01;0; -3.5516447E-01;  2.8770059E+04;  0.0000000E+00;  5.9676258E+01;  4.0000000E+04;  0.0000000E+00;  3.8873602E+04; -5.2140963E-01;  0.0000000E+00;  1.6624516E-01;  6.3145047E+04;
  1.5590930E+00;  9.9999998E-03;  1.8292044E-01;9628;  1.0761719E+00;  0.0000000E+00;  1.2673390E-03;  9.9044684E+02;  1.1837921E-01; -7.3590898E+03;3;  4.3530041E+01;  0.0000000E+00;  1.5396956E+01;0; -3.4333950E-01;  2.8825348E+04;  0.0000000E+00;  6.4328888E+01;  4.0000000E+04;  0.0000000E+00;  3.8871645E+04; -4.9834713E-01;  0.0000000E+00;  1.5500762E-01;  6.5457117E+04;
  1.5592610E+00;  9.9999998E-03;  1.7263076E-01;9627;  1.0716923E+00;  0.0000000E+00;  8.7667642E-05;  9.9224664E+02;  1.1835434E-01; -5.9716982E+03;3;  4.1010227E+01;  0.0000000E+00;  1.4847239E+01;0; -3.2768720E-01;  2.8925008E+04;  0.0000000E+00;  6.4725014E+01;  4.0000000E+04;  0.0000000E+00;  3.8883086E+04; -4.6839848E-01;  0.0000000E+00;  1.4071129E-01;  6.3630086E+04;
  1.5593598E+00;  9.9999998E-03;  1.6222328E-01;9626;  1.0680722E+00;  0.0000000E+00; -1.1689491E-03;  9.9422968E+02;  1.1832973E-01; -4.4439150E+03;3;  3.8320908E+01;  0.0000000E+00;  1.4122646E+01;0; -3.1088582E-01;  2.9029168E+04;  0.0000000E+00;  5.9918892E+01;  4.0000000E+04;  0.0000000E+00;  3.8902699E+04; -4.3488848E-01;  0.0000000E+00;  1.2400267E-01;  5.7523633E+04;
  1.5595646E+00;  9.9999998E-03;  1.5177743E-01;9625;  1.0652859E+00;  0.0000000E+00; -2.5890179E-03;  9.9545300E+02;  1.1830846E-01; -3.5010918E+03;3;  3.5496937E+01;  0.0000000E+00;  1.3301694E+01;0; -2.9422554E-01;  2.9102203E+04;  0.0000000E+00;  4.9676979E+01;  4.0000000E+04;  0.0000000E+00;  3.8907379E+04; -4.0045193E-01;  0.0000000E+00;  1.0622638E-01;  4.7373887E+04;
  1.5599762E+00;  9.9999998E-03;  1.4141457E-01;9624;  1.0632703E+00;  0.0000000E+00; -3.8732653E-03;  9.9575287E+02;  1.1828776E-01; -3.2688792E+03;3;  3.2699356E+01;  0.0000000E+00;  1.2366936E+01;0; -2.7781656E-01;  2.9140307E+04;  0.0000000E+00;  3.6965187E+01;  4.0000000E+04;  0.0000000E+00;  3.8890152E+04; -3.6675739E-01;  0.0000000E+00;  8.8940836E-02;  3.5606824E+04;
  1.5605336E+00;  9.9999998E-03;  1.3117623E-01;9623;  1.0618976E+00;  0.0000000E+00; -4.7789747E-03;  9.9558551E+02;  1.1826690E-01; -3.3958328E+03;3;  3.0028925E+01;  0.0000000E+00;  1.1778419E+01;0; -2.6150477E-01;  2.9159516E+04;  0.0000000E+00;  2.5241377E+01;  4.0000000E+04;  0.0000000E+00;  3.8863547E+04; -3.3424127E-01;  0.0000000E+00;  7.2736487E-02;  2.4901865E+04;
  1.5610964E+00;  9.9999998E-03;  1.2103701E-01;9622;  1.0610658E+00;  0.0000000E+00; -5.3719310E-03;  9.9538214E+02;  1.1824912E-01; -3.5502932E+03;3;  2.7494350E+01;  0.0000000E+00;  1.1020749E+01;0; -2.4493715E-01;  2.9171826E+04;  0.0000000E+00;  1.6028797E+01;  4.0000000E+04;  0.0000000E+00;  3.8841473E+04; -3.0257332E-01;  0.0000000E+00;  5.7636179E-02;  1.6431016E+04;
  1.5615573E+00;  9.9999998E-03;  1.1095876E-01;9621;  1.0607108E+00;  0.0000000E+00; -5.6880889E-03;  9.9523584E+02;  1.1823299E-01; -3.6610640E+03;3;  2.5107161E+01;  0.0000000E+00;  1.0267401E+01;0; -2.2759533E-01;  2.9179133E+04;  0.0000000E+00;  9.3820143E+00;  4.0000000E+04;  0.0000000E+00;  3.8829043E+04; -2.7122265E-01;  0.0000000E+00;  4.3627322E-02;  1.0223476E+04;
  1.5618855E+00;  9.9999998E-03;  1.0091356E-01;9620;  1.0607686E+00;  0.0000000E+00; -5.8130245E-03;  9.9512744E+02;  1.1822302E-01; -3.7431499E+03;3;  2.3037497E+01;  0.0000000E+00;  9.3072348E+00;0; -2.0915885E-01;  2.9178664E+04;  0.0000000E+00;  4.8665867E+00;  4.0000000E+04;  0.0000000E+00;  3.8825871E+04; -2.3969948E-01;  0.0000000E+00;  3.0540632E-02;  5.9451699E+03;
  1.5620786E+00;  9.9999998E-03;  9.0881370E-02;9619;  1.0611868E+00;  0.0000000E+00; -5.7980441E-03;  9.9499323E+02;  1.1821890E-01; -3.8455195E+03;3;  2.1323563E+01;  0.0000000E+00;  8.2594252E+00;0; -1.8950304E-01;  2.9168846E+04;  0.0000000E+00;  2.0085785E+00;  4.0000000E+04;  0.0000000E+00;  3.8829715E+04; -2.0768826E-01;  0.0000000E+00;  1.8185219E-02;  3.3501846E+03;
  1.5621277E+00;  9.9999998E-03;  7.0789643E-02;9617;  1.0627517E+00;  0.0000000E+00; -5.3523844E-03;  9.9451117E+02;  1.1822125E-01; -4.2155337E+03;3;  1.8387196E+01;  0.0000000E+00;  6.0381470E+00;0; -1.4733110E-01;  2.9125719E+04;  0.0000000E+00; -4.1927046E-01;  4.0000000E+04;  0.0000000E+00;  3.8847656E+04; -1.4238827E-01;  0.0000000E+00; -4.9428334E-03;  2.8730093E+03;
  1.5621504E+00;  9.9999998E-03;  8.0845572E-02;9618;  1.0618798E+00;  0.0000000E+00; -5.6462046E-03;  9.9478650E+02;  1.1821884E-01; -4.0039956E+03;3;  1.9744368E+01;  0.0000000E+00;  7.2091141E+00;0; -1.6876137E-01;  2.9150443E+04;  0.0000000E+00;  3.7323186E-01;  4.0000000E+04;  0.0000000E+00;  3.8837656E+04; -1.7515430E-01;  0.0000000E+00;  6.3929195E-03;  2.4758669E+03;
  1.5681788E+00;  9.9999998E-03;  2.3385166E-01;9681;  1.1047980E+00;  0.0000000E+00;  4.0378915E-03;  9.9892603E+02;  1.1752690E-01; -8.1963470E+02;3;  5.2170208E+01;  0.0000000E+00;  1.5281755E+01;0; -3.6893734E-01;  2.9780748E+04;  0.0000000E+00;  6.9856143E-01;  4.0000000E+04;  0.0000000E+00;  3.8790723E+04; -4.5939744E-01;  0.0000000E+00;  9.0460092E-02;  2.7090574E+03;
  1.5685862E+00;  9.9999998E-03;  2.2377741E-01;9680;  1.0970743E+00;  0.0000000E+00;  2.5893978E-03;  9.9698682E+02;  1.1752480E-01; -2.2986313E+03;3;  5.1331680E+01;  0.0000000E+00;  1.5318812E+01;0; -3.8429114E-01;  2.9666465E+04;  0.0000000E+00;  4.5471625E+00;  4.0000000E+04;  0.0000000E+00;  3.8798543E+04; -4.9513149E-01;  0.0000000E+00;  1.1084036E-01;  9.1245029E+03;
  1.5690233E+00;  9.9999998E-03;  2.1369034E-01;9679;  1.0897914E+00;  0.0000000E+00;  1.2092559E-03;  9.9446259E+02;  1.1752776E-01; -4.2222231E+03;3;  5.0039322E+01;  0.0000000E+00;  1.5100808E+01;0; -3.9275560E-01;  2.9523760E+04;  0.0000000E+00;  2.1518229E+01;  4.0000000E+04;  0.0000000E+00;  3.8797059E+04; -5.1726210E-01;  0.0000000E+00;  1.2450650E-01;  2.5717414E+04;
  1.5694971E+00;  9.9999998E-03;  2.0359135E-01;9678;  1.0830518E+00;  0.0000000E+00; -5.3415428E-05;  9.9191821E+02;  1.1752959E-01; -6.1591235E+03;3;  4.8306969E+01;  0.0000000E+00;  1.4686625E+01;0; -3.9417493E-01;  2.9389279E+04;  0.0000000E+00;  3.9453606E+01;  4.0000000E+04;  0.0000000E+00;  3.8785797E+04; -5.2484918E-01;  0.0000000E+00;  1.3067424E-01;  4.1246797E+04;
  1.5699537E+00;  9.9999998E-03;  1.9347329E-01;9677;  1.0770160E+00;  0.0000000E+00; -1.0799698E-03;  9.9021332E+02;  1.1752654E-01; -7.4546655E+03;3;  4.6187061E+01;  0.0000000E+00;  1.4098433E+01;0; -3.8783008E-01;  2.9308422E+04;  0.0000000E+00;  5.3599133E+01;  4.0000000E+04;  0.0000000E+00;  3.8770660E+04; -5.1822186E-01;  0.0000000E+00;  1.3039178E-01;  5.2558156E+04;
  1.5703523E+00;  9.9999998E-03;  1.8331866E-01;9676;  1.0717690E+00;  0.0000000E+00; -1.9037008E-03;  9.8976483E+02;  1.1751655E-01; -7.7928857E+03;3;  4.3777191E+01;  0.0000000E+00;  1.3461837E+01;0; -3.7532118E-01;  2.9295955E+04;  0.0000000E+00;  6.2936806E+01;  4.0000000E+04;  0.0000000E+00;  3.8760344E+04; -4.9954084E-01;  0.0000000E+00;  1.2421966E-01;  5.9018258E+04;
  1.5706645E+00;  9.9999998E-03;  1.7310138E-01;9675;  1.0673903E+00;  0.0000000E+00; -2.6266803E-03;  9.9050488E+02;  1.1749656E-01; -7.2269243E+03;3;  4.1129700E+01;  0.0000000E+00;  1.2821666E+01;0; -3.5842738E-01;  2.9344512E+04;  0.0000000E+00;  6.7465195E+01;  4.0000000E+04;  0.0000000E+00;  3.8761617E+04; -4.7171846E-01;  0.0000000E+00;  1.1329108E-01;  6.0926289E+04;
  1.5708822E+00;  9.9999998E-03;  1.6278426E-01;9674;  1.0638909E+00;  0.0000000E+00; -3.3248339E-03;  9.9211700E+02;  1.1747400E-01; -5.9984536E+03;3;  3.8373840E+01;  0.0000000E+00;  1.2328026E+01;0; -3.3878702E-01;  2.9431791E+04;  0.0000000E+00;  6.7342064E+01;  4.0000000E+04;  0.0000000E+00;  3.8777121E+04; -4.3805113E-01;  0.0000000E+00;  9.9264100E-02;  5.8888855E+04;
  1.5710677E+00;  9.9999998E-03;  1.5235768E-01;9673;  1.0612279E+00;  0.0000000E+00; -4.1592992E-03;  9.9386200E+02;  1.1745218E-01; -4.6696694E+03;3;  3.5467384E+01;  0.0000000E+00;  1.1782893E+01;0; -3.1799281E-01;  2.9523111E+04;  0.0000000E+00;  6.2012897E+01;  4.0000000E+04;  0.0000000E+00;  3.8797730E+04; -4.0142944E-01;  0.0000000E+00;  8.3436631E-02;  5.3049422E+04;
  1.5713489E+00;  9.9999998E-03;  1.4190115E-01;9672;  1.0593566E+00;  0.0000000E+00; -5.1575610E-03;  9.9493689E+02;  1.1743180E-01; -3.8506929E+03;3;  3.2479214E+01;  0.0000000E+00;  1.1171995E+01;0; -2.9683164E-01;  2.9588129E+04;  0.0000000E+00;  5.1628742E+01;  4.0000000E+04;  0.0000000E+00;  3.8803465E+04; -3.6399817E-01;  0.0000000E+00;  6.7166544E-02;  4.3872180E+04;
  1.5717977E+00;  9.9999998E-03;  1.3152011E-01;9671;  1.0581977E+00;  0.0000000E+00; -6.0428530E-03;  9.9520410E+02;  1.1741298E-01; -3.6456365E+03;3;  2.9532894E+01;  0.0000000E+00;  1.0757356E+01;0; -2.7515709E-01;  2.9622598E+04;  0.0000000E+00;  3.8860031E+01;  4.0000000E+04;  0.0000000E+00;  3.8788719E+04; -3.2691887E-01;  0.0000000E+00;  5.1761761E-02;  3.3317191E+04;
  1.5723702E+00;  9.9999998E-03;  1.2125877E-01;9670;  1.0576217E+00;  0.0000000E+00; -6.6895294E-03;  9.9504053E+02;  1.1739602E-01; -3.7675320E+03;3;  2.6661741E+01;  0.0000000E+00;  1.0260669E+01;0; -2.5279868E-01;  2.9639463E+04;  0.0000000E+00;  2.6825279E+01;  4.0000000E+04;  0.0000000E+00;  3.8764312E+04; -2.9039833E-01;  0.0000000E+00;  3.7599664E-02;  2.3539131E+04;
  1.5729408E+00;  9.9999998E-03;  1.1109641E-01;9669;  1.0575373E+00;  0.0000000E+00; -7.0354482E-03;  9.9483453E+02;  1.1738014E-01; -3.9214775E+03;3;  2.3929926E+01;  0.0000000E+00;  9.7166576E+00;0; -2.2931273E-01;  2.9651088E+04;  0.0000000E+00;  1.7172808E+01;  4.0000000E+04;  0.0000000E+00;  3.8742207E+04; -2.5404817E-01;  0.0000000E+00;  2.4735430E-02;  1.5661774E+04;
  1.5734056E+00;  9.9999998E-03;  1.0099550E-01;9668;  1.0578760E+00;  0.0000000E+00; -7.1308995E-03;  9.9471008E+02;  1.1736609E-01; -4.0138303E+03;3;  2.1450893E+01;  0.0000000E+00;  9.0081635E+00;0; -2.0445572E-01;  2.9660166E+04;  0.0000000E+00;  1.0111877E+01;  4.0000000E+04;  0.0000000E+00;  3.8728195E+04; -2.1744627E-01;  0.0000000E+00;  1.2990545E-02;  9.8137236E+03;
  1.5737261E+00;  9.9999998E-03;  9.0928569E-02;9667;  1.0585600E+00;  0.0000000E+00; -7.0267287E-03;  9.9464520E+02;  1.1735700E-01; -4.0615898E+03;3;  1.9333309E+01;  0.0000000E+00;  8.1829157E+00;0; -1.7822966E-01;  2.9663793E+04;  0.0000000E+00;  5.2749681E+00;  4.0000000E+04;  0.0000000E+00;  3.8722508E+04; -1.8032493E-01;  0.0000000E+00;  2.0952660E-03;  5.7261626E+03;
  1.5739003E+00;  9.9999998E-03;  8.0875896E-02;9666;  1.0595210E+00;  0.0000000E+00; -6.7664459E-03;  9.9458185E+02;  1.1735424E-01; -4.1088242E+03;3;  1.7819124E+01;  0.0000000E+00;  7.1013632E+00;0; -1.5091108E-01;  2.9659215E+04;  0.0000000E+00;  2.1988108E+00;  4.0000000E+04;  0.0000000E+00;  3.8723805E+04; -1.4270540E-01;  0.0000000E+00; -8.2056867E-03;  3.1126594E+03;
  1.5739418E+00;  9.9999998E-03;  7.0820287E-02;9665;  1.0606807E+00;  0.0000000E+00; -6.3447580E-03;  9.9445148E+02;  1.1735485E-01; -4.2074775E+03;3;  1.7105375E+01;  0.0000000E+00;  5.7029123E+00;0; -1.2306540E-01;  2.9646379E+04;  0.0000000E+00;  4.3918228E-01;  4.0000000E+04;  0.0000000E+00;  3.8729234E+04; -1.0496844E-01;  0.0000000E+00; -1.8096959E-02;  1.8905414E+03;
  1.5793864E+00;  9.9999998E-03;  2.3411366E-01;9728;  1.0993568E+00;  0.0000000E+00; -1.7938383E-03;  1.0010753E+03;  1.1676024E-01;  8.1013202E+02;3;  5.3207516E+01;  0.0000000E+00;  1.3614497E+01;0; -4.0126511E-01;  3.0370525E+04;  0.0000000E+00;  1.8222782E+01;  4.0000000E+04;  0.0000000E+00;  3.8691633E+04; -4.2506796E-01;  0.0000000E+00;  2.3802860E-02;  3.1237878E+03;
  1.5798866E+00;  9.9999998E-03;  2.2405736E-01;9727;  1.0916989E+00;  0.0000000E+00; -2.8762138E-03;  9.9865710E+02;  1.1676773E-01; -1.0111474E+03;3;  5.2100052E+01;  0.0000000E+00;  1.3407184E+01;0; -4.1883913E-01;  3.0226211E+04;  0.0000000E+00; -2.0447087E-01;  4.0000000E+04;  0.0000000E+00;  3.8698898E+04; -4.6546286E-01;  0.0000000E+00;  4.6623737E-02;  2.9746367E+03;
  1.5802596E+00;  9.9999998E-03;  2.1398388E-01;9726;  1.0846993E+00;  0.0000000E+00; -3.7415731E-03;  9.9677887E+02;  1.1676807E-01; -2.4242944E+03;3;  5.0580044E+01;  0.0000000E+00;  1.3008718E+01;0; -4.2718142E-01;  3.0118078E+04;  0.0000000E+00;  3.5662351E+00;  4.0000000E+04;  0.0000000E+00;  3.8698965E+04; -4.9317291E-01;  0.0000000E+00;  6.5991476E-02;  8.1232329E+03;
  1.5806501E+00;  9.9999998E-03;  2.0389858E-01;9725;  1.0783041E+00;  0.0000000E+00; -4.3581240E-03;  9.9442297E+02;  1.1677110E-01; -4.1953398E+03;3;  4.8678757E+01;  0.0000000E+00;  1.2438891E+01;0; -4.2702094E-01;  2.9989719E+04;  0.0000000E+00;  2.0918657E+01;  4.0000000E+04;  0.0000000E+00;  3.8687762E+04; -5.0723863E-01;  0.0000000E+00;  8.0217682E-02;  2.2761113E+04;
  1.5810728E+00;  9.9999998E-03;  1.9380136E-01;9724;  1.0725473E+00;  0.0000000E+00; -4.7887336E-03;  9.9205554E+02;  1.1677425E-01; -5.9731201E+03;3;  4.6469948E+01;  0.0000000E+00;  1.1832939E+01;0; -4.2010632E-01;  2.9868682E+04;  0.0000000E+00;  3.9794373E+01;  4.0000000E+04;  0.0000000E+00;  3.8667902E+04; -5.0749457E-01;  0.0000000E+00;  8.7388255E-02;  3.7046781E+04;
  1.5814877E+00;  9.9999998E-03;  1.8368201E-01;9723;  1.0675148E+00;  0.0000000E+00; -5.0718575E-03;  9.9044635E+02;  1.1677238E-01; -7.1793042E+03;3;  4.3995121E+01;  0.0000000E+00;  1.1233729E+01;0; -4.0724039E-01;  2.9794699E+04;  0.0000000E+00;  5.4810947E+01;  4.0000000E+04;  0.0000000E+00;  3.8647699E+04; -4.9479720E-01;  0.0000000E+00;  8.7556817E-02;  4.7595324E+04;
  1.5818642E+00;  9.9999998E-03;  1.7351919E-01;9722;  1.0632771E+00;  0.0000000E+00; -5.2820900E-03;  9.8997540E+02;  1.1676286E-01; -7.5296499E+03;3;  4.1337395E+01;  0.0000000E+00;  1.0793041E+01;0; -3.8949636E-01;  2.9781027E+04;  0.0000000E+00;  6.4577301E+01;  4.0000000E+04;  0.0000000E+00;  3.8636359E+04; -4.7120515E-01;  0.0000000E+00;  8.1708781E-02;  5.3580141E+04;
  1.5821878E+00;  9.9999998E-03;  1.6328464E-01;9721;  1.0598773E+00;  0.0000000E+00; -5.5018514E-03;  9.9059644E+02;  1.1674690E-01; -7.0603208E+03;3;  3.8474072E+01;  0.0000000E+00;  1.0343934E+01;0; -3.6796868E-01;  2.9820080E+04;  0.0000000E+00;  6.9049286E+01;  4.0000000E+04;  0.0000000E+00;  3.8639859E+04; -4.3949232E-01;  0.0000000E+00;  7.1523629E-02;  5.5245500E+04;
  1.5824628E+00;  9.9999998E-03;  1.5294984E-01;9720;  1.0573158E+00;  0.0000000E+00; -5.8069476E-03;  9.9193707E+02;  1.1672638E-01; -6.0516201E+03;3;  3.5509151E+01;  0.0000000E+00;  1.0127143E+01;0; -3.4381476E-01;  2.9890967E+04;  0.0000000E+00;  6.8528099E+01;  4.0000000E+04;  0.0000000E+00;  3.8657332E+04; -4.0253946E-01;  0.0000000E+00;  5.8724705E-02;  5.3205625E+04;
  1.5827324E+00;  9.9999998E-03;  1.4252296E-01;9719;  1.0555670E+00;  0.0000000E+00; -6.2883538E-03;  9.9338446E+02;  1.1670821E-01; -4.9635952E+03;3;  3.2417637E+01;  0.0000000E+00;  9.7792110E+00;0; -3.1793922E-01;  2.9966473E+04;  0.0000000E+00;  6.2905224E+01;  4.0000000E+04;  0.0000000E+00;  3.8676910E+04; -3.6272860E-01;  0.0000000E+00;  4.4789378E-02;  4.7838703E+04;
  1.5830662E+00;  9.9999998E-03;  1.3207313E-01;9718;  1.0545849E+00;  0.0000000E+00; -6.8924087E-03;  9.9434711E+02;  1.1669183E-01; -4.2395557E+03;3;  2.9205317E+01;  0.0000000E+00;  9.5998640E+00;0; -2.9070398E-01;  3.0024029E+04;  0.0000000E+00;  5.2777843E+01;  4.0000000E+04;  0.0000000E+00;  3.8682793E+04; -3.2175347E-01;  0.0000000E+00;  3.1049486E-02;  3.9825289E+04;
  1.5835092E+00;  9.9999998E-03;  1.2168261E-01;9717;  1.0542525E+00;  0.0000000E+00; -7.4825427E-03;  9.9463849E+02;  1.1667494E-01; -4.0187388E+03;3;  2.6022514E+01;  0.0000000E+00;  9.3956137E+00;0; -2.6222745E-01;  3.0057441E+04;  0.0000000E+00;  4.0417282E+01;  4.0000000E+04;  0.0000000E+00;  3.8671277E+04; -2.8056762E-01;  0.0000000E+00;  1.8340178E-02;  3.0681754E+04;
  1.5840442E+00;  9.9999998E-03;  1.1139718E-01;9716;  1.0544554E+00;  0.0000000E+00; -7.8828409E-03;  9.9451202E+02;  1.1666082E-01; -4.1107285E+03;3;  2.2888832E+01;  0.0000000E+00;  9.1302967E+00;0; -2.3230009E-01;  3.0073111E+04;  0.0000000E+00;  2.8431269E+01;  4.0000000E+04;  0.0000000E+00;  3.8650406E+04; -2.3929775E-01;  0.0000000E+00;  6.9976556E-03;  2.2015311E+04;
  1.5845826E+00;  9.9999998E-03;  1.0120653E-01;9715;  1.0551025E+00;  0.0000000E+00; -8.0321636E-03;  9.9429486E+02;  1.1664799E-01; -4.2704165E+03;3;  1.9988424E+01;  0.0000000E+00;  8.6032848E+00;0; -2.0076491E-01;  3.0082055E+04;  0.0000000E+00;  1.8510849E+01;  4.0000000E+04;  0.0000000E+00;  3.8629266E+04; -1.9770063E-01;  0.0000000E+00; -3.0642708E-03;  1.4843634E+04;
  1.5850283E+00;  9.9999998E-03;  9.1077901E-02;9714;  1.0561023E+00;  0.0000000E+00; -7.9399804E-03;  9.9414417E+02;  1.1663613E-01; -4.3807231E+03;3;  1.7462557E+01;  0.0000000E+00;  7.9023566E+00;0; -1.6771710E-01;  3.0089938E+04;  0.0000000E+00;  1.1101624E+01;  4.0000000E+04;  0.0000000E+00;  3.8614348E+04; -1.5560502E-01;  0.0000000E+00; -1.2112080E-02;  9.4188203E+03;
  1.5853363E+00;  9.9999998E-03;  8.0984101E-02;9713;  1.0573845E+00;  0.0000000E+00; -7.6455427E-03;  9.9408929E+02;  1.1662955E-01; -4.4199771E+03;3;  1.5358540E+01;  0.0000000E+00;  7.0759869E+00;0; -1.3357151E-01;  3.0094803E+04;  0.0000000E+00;  5.9686313E+00;  4.0000000E+04;  0.0000000E+00;  3.8606719E+04; -1.1309939E-01;  0.0000000E+00; -2.0472109E-02;  5.5746973E+03;
  1.5854957E+00;  9.9999998E-03;  7.0905060E-02;9712;  1.0588641E+00;  0.0000000E+00; -7.1734078E-03;  9.9406061E+02;  1.1662662E-01; -4.4404951E+03;3;  1.3687078E+01;  0.0000000E+00;  6.4112344E+00;0; -9.9087566E-02;  3.0094312E+04;  0.0000000E+00;  2.6850801E+00;  4.0000000E+04;  0.0000000E+00;  3.8605277E+04; -7.0640430E-02;  0.0000000E+00; -2.8447134E-02;  3.0344146E+03;
  1.5910504E+00;  9.9999998E-03;  2.2431913E-01;9773;  1.0866399E+00;  0.0000000E+00; -7.7585960E-03;  1.0008237E+03;  1.1611882E-01;  6.1119891E+02;3;  5.2794125E+01;  0.0000000E+00;  1.0683498E+01;0; -4.4477043E-01;  3.0771094E+04;  0.0000000E+00;  2.0224564E+01;  4.0000000E+04;  0.0000000E+00;  3.8595066E+04; -4.2952323E-01;  0.0000000E+00; -1.5247205E-02;  4.5367227E+03;
  1.5915126E+00;  9.9999998E-03;  2.1426502E-01;9772;  1.0797979E+00;  0.0000000E+00; -8.1341676E-03;  9.9846454E+02;  1.1612760E-01; -1.1387350E+03;3;  5.1060020E+01;  0.0000000E+00;  1.0156032E+01;0; -4.5310879E-01;  3.0633705E+04;  0.0000000E+00; -6.5082401E-01;  4.0000000E+04;  0.0000000E+00;  3.8593258E+04; -4.6133003E-01;  0.0000000E+00;  8.2212258E-03;  3.1473857E+03;
  1.5918576E+00;  9.9999998E-03;  2.0419036E-01;9771;  1.0736716E+00;  0.0000000E+00; -8.2369065E-03;  9.9669238E+02;  1.1612904E-01; -2.4518293E+03;3;  4.9025024E+01;  0.0000000E+00;  9.5979977E+00;0; -4.5328197E-01;  3.0534969E+04;  0.0000000E+00;  1.8745955E+00;  4.0000000E+04;  0.0000000E+00;  3.8586039E+04; -4.8115572E-01;  0.0000000E+00;  2.7873760E-02;  6.4465669E+03;
  1.5922110E+00;  9.9999998E-03;  1.9410308E-01;9770;  1.0681909E+00;  0.0000000E+00; -8.1421118E-03;  9.9455450E+02;  1.1613218E-01; -4.0345427E+03;3;  4.6776073E+01;  0.0000000E+00;  9.1232433E+00;0; -4.4707155E-01;  3.0422270E+04;  0.0000000E+00;  1.8781801E+01;  4.0000000E+04;  0.0000000E+00;  3.8567793E+04; -4.8840034E-01;  0.0000000E+00;  4.1328780E-02;  1.8824152E+04;
  1.5925916E+00;  9.9999998E-03;  1.8400259E-01;9769;  1.0633582E+00;  0.0000000E+00; -7.9942280E-03;  9.9239075E+02;  1.1613483E-01; -5.6346748E+03;3;  4.4319218E+01;  0.0000000E+00;  8.7703676E+00;0; -4.3603060E-01;  3.0316316E+04;  0.0000000E+00;  3.8012154E+01;  4.0000000E+04;  0.0000000E+00;  3.8541543E+04; -4.8307088E-01;  0.0000000E+00;  4.7040276E-02;  3.1593480E+04;
  1.5929750E+00;  9.9999998E-03;  1.7387736E-01;9768;  1.0592725E+00;  0.0000000E+00; -7.8403018E-03;  9.9088159E+02;  1.1613410E-01; -6.7486035E+03;3;  4.1655437E+01;  0.0000000E+00;  8.5188112E+00;0; -4.1967517E-01;  3.0248844E+04;  0.0000000E+00;  5.3419136E+01;  4.0000000E+04;  0.0000000E+00;  3.8516875E+04; -4.6565875E-01;  0.0000000E+00;  4.5983572E-02;  4.1127477E+04;
  1.5933398E+00;  9.9999998E-03;  1.6370398E-01;9767;  1.0559913E+00;  0.0000000E+00; -7.7103791E-03;  9.9036316E+02;  1.1612656E-01; -7.1285981E+03;3;  3.8789917E+01;  0.0000000E+00;  8.3603973E+00;0; -3.9809436E-01;  3.0232055E+04;  0.0000000E+00;  6.3382275E+01;  4.0000000E+04;  0.0000000E+00;  3.8504344E+04; -4.3805009E-01;  0.0000000E+00;  3.9955724E-02;  4.6560469E+04;
  1.5936767E+00;  9.9999998E-03;  1.5345660E-01;9766;  1.0535420E+00;  0.0000000E+00; -7.6286872E-03;  9.9079504E+02;  1.1611465E-01; -6.8059170E+03;3;  3.5696873E+01;  0.0000000E+00;  8.2185221E+00;0; -3.7188327E-01;  3.0259684E+04;  0.0000000E+00;  6.7935471E+01;  4.0000000E+04;  0.0000000E+00;  3.8507941E+04; -4.0275091E-01;  0.0000000E+00;  3.0867651E-02;  4.8144672E+04;
  1.5939918E+00;  9.9999998E-03;  1.4312008E-01;9765;  1.0519180E+00;  0.0000000E+00; -7.6466571E-03;  9.9182892E+02;  1.1609796E-01; -6.0387798E+03;3;  3.2466434E+01;  0.0000000E+00;  8.1198740E+00;0; -3.4207264E-01;  3.0314221E+04;  0.0000000E+00;  6.7380859E+01;  4.0000000E+04;  0.0000000E+00;  3.8523172E+04; -3.6232129E-01;  0.0000000E+00;  2.0248665E-02;  4.6389559E+04;
  1.5943085E+00;  9.9999998E-03;  1.3270907E-01;9764;  1.0510802E+00;  0.0000000E+00; -7.8067817E-03;  9.9297620E+02;  1.1608173E-01; -5.1885601E+03;3;  2.9077572E+01;  0.0000000E+00;  8.0688753E+00;0; -3.0956832E-01;  3.0375018E+04;  0.0000000E+00;  6.2009678E+01;  4.0000000E+04;  0.0000000E+00;  3.8539457E+04; -3.1886840E-01;  0.0000000E+00;  9.3000820E-03;  4.1822438E+04;
  1.5946611E+00;  9.9999998E-03;  1.2227462E-01;9763;  1.0509422E+00;  0.0000000E+00; -8.0528539E-03;  9.9381396E+02;  1.1606755E-01; -4.5673682E+03;3;  2.5609138E+01;  0.0000000E+00;  8.1029339E+00;0; -2.7489397E-01;  3.0425215E+04;  0.0000000E+00;  5.2692223E+01;  4.0000000E+04;  0.0000000E+00;  3.8545527E+04; -2.7387595E-01;  0.0000000E+00; -1.0180197E-03;  3.5184824E+04;
  1.5950724E+00;  9.9999998E-03;  1.1188003E-01;9762;  1.0514104E+00;  0.0000000E+00; -8.3172098E-03;  9.9413184E+02;  1.1605256E-01; -4.3301196E+03;3;  2.2133011E+01;  0.0000000E+00;  8.1258430E+00;0; -2.3834403E-01;  3.0456867E+04;  0.0000000E+00;  4.1247654E+01;  4.0000000E+04;  0.0000000E+00;  3.8538035E+04; -2.2812501E-01;  0.0000000E+00; -1.0219026E-02;  2.7588816E+04;
  1.5955441E+00;  9.9999998E-03;  1.0157083E-01;9761;  1.0523707E+00;  0.0000000E+00; -8.4691728E-03;  9.9408734E+02;  1.1604623E-01; -4.3600146E+03;3;  1.8777966E+01;  0.0000000E+00;  7.9511952E+00;0; -2.0003065E-01;  3.0470791E+04;  0.0000000E+00;  2.9754040E+01;  4.0000000E+04;  0.0000000E+00;  3.8520926E+04; -1.8188511E-01;  0.0000000E+00; -1.8145539E-02;  2.0185322E+04;
  1.5960118E+00;  9.9999998E-03;  9.1344953E-02;9760;  1.0537075E+00;  0.0000000E+00; -8.4147342E-03;  9.9383197E+02;  1.1603309E-01; -4.5452349E+03;3;  1.5790840E+01;  0.0000000E+00;  7.3661346E+00;0; -1.6017537E-01;  3.0476684E+04;  0.0000000E+00;  1.9905201E+01;  4.0000000E+04;  0.0000000E+00;  3.8502059E+04; -1.3525555E-01;  0.0000000E+00; -2.4919817E-02;  1.3877311E+04;
  1.5964226E+00;  9.9999998E-03;  8.1176668E-02;9759;  1.0553575E+00;  0.0000000E+00; -8.1470748E-03;  9.9363275E+02;  1.1602733E-01; -4.6892734E+03;3;  1.3108380E+01;  0.0000000E+00;  6.7192283E+00;0; -1.1924733E-01;  3.0479314E+04;  0.0000000E+00;  1.2333870E+01;  4.0000000E+04;  0.0000000E+00;  3.8487172E+04; -8.8350713E-02;  0.0000000E+00; -3.0896615E-02;  8.9864307E+03;
  1.5967185E+00;  9.9999998E-03;  7.1041018E-02;9758;  1.0573030E+00;  0.0000000E+00; -7.7617471E-03;  9.9352661E+02;  1.1602209E-01; -4.7653550E+03;3;  8.8130121E+00;  0.0000000E+00;  7.8713002E+00;0; -7.8051731E-02;  3.0481283E+04;  0.0000000E+00;  7.0008101E+00;  4.0000000E+04;  0.0000000E+00;  3.8478586E+04; -4.1535757E-02;  0.0000000E+00; -3.6515977E-02;  5.4677227E+03;
  1.6026356E+00;  9.9999998E-03;  2.1451958E-01;9816;  1.0752599E+00;  0.0000000E+00; -1.1806595E-02;  1.0006396E+03;  1.1557915E-01;  4.6664749E+02;3;  5.1569519E+01;  0.0000000E+00;  6.9604816E+00;0; -4.6812552E-01;  3.1137551E+04;  0.0000000E+00;  2.3925333E+01;  4.0000000E+04;  0.0000000E+00;  3.8486012E+04; -4.2384061E-01;  0.0000000E+00; -4.4284906E-02;  6.0009834E+03;
  1.6030713E+00;  9.9999998E-03;  2.0446561E-01;9815;  1.0693451E+00;  0.0000000E+00; -1.1457748E-02;  9.9833130E+02;  1.1558747E-01; -1.2167257E+03;3;  4.9495419E+01;  0.0000000E+00;  6.5316725E+00;0; -4.6822062E-01;  3.1007961E+04;  0.0000000E+00; -2.4457376E-01;  4.0000000E+04;  0.0000000E+00;  3.8475301E+04; -4.4712579E-01;  0.0000000E+00; -2.1094842E-02;  3.1719995E+03;
  1.6033994E+00;  9.9999998E-03;  1.9438550E-01;9814;  1.0640390E+00;  0.0000000E+00; -1.0971176E-02;  9.9671350E+02;  1.1559158E-01; -2.3951165E+03;3;  4.7275478E+01;  0.0000000E+00;  6.2725992E+00;0; -4.6485797E-01;  3.0919877E+04;  0.0000000E+00; -4.7235823E-01;  4.0000000E+04;  0.0000000E+00;  3.8462812E+04; -4.6096247E-01;  0.0000000E+00; -3.8954935E-03;  4.5553921E+03;
  1.6037242E+00;  9.9999998E-03;  1.8428920E-01;9813;  1.0593542E+00;  0.0000000E+00; -1.0459226E-02;  9.9485913E+02;  1.1559417E-01; -3.7446404E+03;3;  4.4848679E+01;  0.0000000E+00;  6.1066232E+00;0; -4.5762819E-01;  3.0826127E+04;  0.0000000E+00;  1.4639822E+01;  4.0000000E+04;  0.0000000E+00;  3.8439930E+04; -4.6363798E-01;  0.0000000E+00;  6.0097994E-03;  1.4074932E+04;
  1.6040725E+00;  9.9999998E-03;  1.7417793E-01;9812;  1.0553888E+00;  0.0000000E+00; -9.9841570E-03;  9.9295111E+02;  1.1559427E-01; -5.1317031E+03;3;  4.2183895E+01;  0.0000000E+00;  6.0211058E+00;0; -4.4494218E-01;  3.0737234E+04;  0.0000000E+00;  3.3143276E+01;  4.0000000E+04;  0.0000000E+00;  3.8409742E+04; -4.5396861E-01;  0.0000000E+00;  9.0264305E-03;  2.4885135E+04;
  1.6044332E+00;  9.9999998E-03;  1.6404106E-01;9811;  1.0522196E+00;  0.0000000E+00; -9.5408298E-03;  9.9154266E+02;  1.1559524E-01; -6.1536025E+03;3;  3.9261490E+01;  0.0000000E+00;  6.0139799E+00;0; -4.2558524E-01;  3.0676217E+04;  0.0000000E+00;  4.8327026E+01;  4.0000000E+04;  0.0000000E+00;  3.8382066E+04; -4.3250042E-01;  0.0000000E+00;  6.9151674E-03;  3.3166852E+04;
  1.6047881E+00;  9.9999998E-03;  1.5385793E-01;9810;  1.0498832E+00;  0.0000000E+00; -9.1445297E-03;  9.9094958E+02;  1.1559103E-01; -6.5814487E+03;3;  3.6108780E+01;  0.0000000E+00;  5.9972100E+00;0; -3.9963904E-01;  3.0656115E+04;  0.0000000E+00;  5.8328865E+01;  4.0000000E+04;  0.0000000E+00;  3.8366117E+04; -4.0111580E-01;  0.0000000E+00;  1.4767586E-03;  3.8038488E+04;
  1.6051289E+00;  9.9999998E-03;  1.4360704E-01;9809;  1.0483752E+00;  0.0000000E+00; -8.8281864E-03;  9.9115112E+02;  1.1558071E-01; -6.4314443E+03;3;  3.2705437E+01;  0.0000000E+00;  6.0707197E+00;0; -3.6803281E-01;  3.0672797E+04;  0.0000000E+00;  6.3142044E+01;  4.0000000E+04;  0.0000000E+00;  3.8365906E+04; -3.6224779E-01;  0.0000000E+00; -5.7850308E-03;  3.9672953E+04;
  1.6054589E+00;  9.9999998E-03;  1.3327889E-01;9808;  1.0476720E+00;  0.0000000E+00; -8.6320918E-03;  9.9188263E+02;  1.1556785E-01; -5.8966870E+03;3;  2.9132034E+01;  0.0000000E+00;  6.0748281E+00;0; -3.3182567E-01;  3.0712537E+04;  0.0000000E+00;  6.3120316E+01;  4.0000000E+04;  0.0000000E+00;  3.8376305E+04; -3.1821051E-01;  0.0000000E+00; -1.3615173E-02;  3.8510773E+04;
  1.6057893E+00;  9.9999998E-03;  1.2288595E-01;9807;  1.0477116E+00;  0.0000000E+00; -8.5493065E-03;  9.9276007E+02;  1.1555440E-01; -5.2565352E+03;3;  2.5368317E+01;  0.0000000E+00;  6.1542244E+00;0; -2.9197332E-01;  3.0760119E+04;  0.0000000E+00;  5.8731720E+01;  4.0000000E+04;  0.0000000E+00;  3.8389004E+04; -2.7090773E-01;  0.0000000E+00; -2.1065583E-02;  3.5058664E+04;
  1.6061358E+00;  9.9999998E-03;  1.1246738E-01;9806;  1.0484023E+00;  0.0000000E+00; -8.5246963E-03;  9.9343512E+02;  1.1554153E-01; -4.7637671E+03;3;  2.1587326E+01;  0.0000000E+00;  6.0731387E+00;0; -2.4924873E-01;  3.0801236E+04;  0.0000000E+00;  5.0791107E+01;  4.0000000E+04;  0.0000000E+00;  3.8394965E+04; -2.2176363E-01;  0.0000000E+00; -2.7485104E-02;  2.9928186E+04;
  1.6065104E+00;  9.9999998E-03;  1.0207643E-01;9805;  1.0496418E+00;  0.0000000E+00; -8.4851757E-03;  9.9374939E+02;  1.1553232E-01; -4.5330317E+03;3;  1.7849537E+01;  0.0000000E+00;  5.7866864E+00;0; -2.0430613E-01;  3.0828076E+04;  0.0000000E+00;  4.0678848E+01;  4.0000000E+04;  0.0000000E+00;  3.8389746E+04; -1.7165902E-01;  0.0000000E+00; -3.2647099E-02;  2.3899580E+04;
  1.6069047E+00;  9.9999998E-03;  9.1747999E-02;9804;  1.0513037E+00;  0.0000000E+00; -8.3315419E-03;  9.9371613E+02;  1.1552545E-01; -4.5542739E+03;3;  1.4509541E+01;  0.0000000E+00;  4.9119754E+00;0; -1.5780815E-01;  3.0840602E+04;  0.0000000E+00;  3.0207914E+01;  4.0000000E+04;  0.0000000E+00;  3.8376301E+04; -1.2120823E-01;  0.0000000E+00; -3.6599934E-02;  1.7878285E+04;
  1.6072946E+00;  9.9999998E-03;  8.1468515E-02;9803;  1.0532984E+00;  0.0000000E+00; -7.9846364E-03;  9.9351117E+02;  1.1552013E-01; -4.6998882E+03;3;  1.1201695E+01;  0.0000000E+00;  3.9233081E+00;0; -1.1038748E-01;  3.0842703E+04;  0.0000000E+00;  2.0999731E+01;  4.0000000E+04;  0.0000000E+00;  3.8361797E+04; -7.0745327E-02;  0.0000000E+00; -3.9642155E-02;  1.2633215E+04;
  1.6076465E+00;  9.9999998E-03;  7.1221083E-02;9802;  1.0557488E+00;  0.0000000E+00; -7.6204226E-03;  9.9327979E+02;  1.1551646E-01; -4.8646763E+03;3;  3.3742499E+00;  0.0000000E+00;  6.9312987E+00;0; -6.2564403E-02;  3.0839613E+04;  0.0000000E+00;  1.3729615E+01;  4.0000000E+04;  0.0000000E+00;  3.8350316E+04; -2.0091457E-02;  0.0000000E+00; -4.2472944E-02;  8.4694639E+03;
  1.6141517E+00;  9.9999998E-03;  2.0470467E-01;9857;  1.0652020E+00;  0.0000000E+00; -1.4139801E-02;  1.0005649E+03;  1.1512608E-01;  4.0455017E+02;3;  5.0212418E+01;  0.0000000E+00;  3.6192768E+00;0; -4.7726828E-01;  3.1476426E+04;  0.0000000E+00;  3.0229261E+01;  4.0000000E+04;  0.0000000E+00;  3.8366789E+04; -4.1107699E-01;  0.0000000E+00; -6.6191301E-02;  7.8292163E+03;
  1.6145772E+00;  9.9999998E-03;  1.9464858E-01;9856;  1.0600934E+00;  0.0000000E+00; -1.3343845E-02;  9.9825543E+02;  1.1513677E-01; -1.2483807E+03;3;  4.7926594E+01;  0.0000000E+00;  3.2812495E+00;0; -4.7497606E-01;  3.1351686E+04;  0.0000000E+00;  1.8890651E+00;  4.0000000E+04;  0.0000000E+00;  3.8346750E+04; -4.2816648E-01;  0.0000000E+00; -4.6809569E-02;  3.0374514E+03;
  1.6148968E+00;  9.9999998E-03;  1.8455672E-01;9855;  1.0555439E+00;  0.0000000E+00; -1.2548698E-02;  9.9681470E+02;  1.1513960E-01; -2.2781128E+03;3;  4.5486427E+01;  0.0000000E+00;  3.1292968E+00;0; -4.7167996E-01;  3.1276875E+04;  0.0000000E+00; -3.0022635E+00;  4.0000000E+04;  0.0000000E+00;  3.8330676E+04; -4.3741077E-01;  0.0000000E+00; -3.4269191E-02;  3.1794399E+03;
  1.6152049E+00;  9.9999998E-03;  1.7444423E-01;9854;  1.0516907E+00;  0.0000000E+00; -1.1790593E-02;  9.9527295E+02;  1.1514055E-01; -3.3789487E+03;3;  4.2815918E+01;  0.0000000E+00;  3.1073442E+00;0; -4.6368888E-01;  3.1202678E+04;  0.0000000E+00;  8.3102007E+00;  4.0000000E+04;  0.0000000E+00;  3.8306148E+04; -4.3561229E-01;  0.0000000E+00; -2.8076598E-02;  8.8697295E+03;
  1.6155300E+00;  9.9999998E-03;  1.6431494E-01;9853;  1.0486236E+00;  0.0000000E+00; -1.1031184E-02;  9.9368060E+02;  1.1514160E-01; -4.5146304E+03;3;  3.9874157E+01;  0.0000000E+00;  3.1546793E+00;0; -4.4821185E-01;  3.1131760E+04;  0.0000000E+00;  2.4656004E+01;  4.0000000E+04;  0.0000000E+00;  3.8274539E+04; -4.2171571E-01;  0.0000000E+00; -2.6496157E-02;  1.7269932E+04;
  1.6158683E+00;  9.9999998E-03;  1.5416008E-01;9852;  1.0463675E+00;  0.0000000E+00; -1.0298822E-02;  9.9242188E+02;  1.1514083E-01; -5.4107051E+03;3;  3.6642765E+01;  0.0000000E+00;  3.2591982E+00;0; -4.2485049E-01;  3.1080500E+04;  0.0000000E+00;  3.9157028E+01;  4.0000000E+04;  0.0000000E+00;  3.8245070E+04; -3.9662760E-01;  0.0000000E+00; -2.8222894E-02;  2.4243207E+04;
  1.6162090E+00;  9.9999998E-03;  1.4396408E-01;9851;  1.0449439E+00;  0.0000000E+00; -9.6401544E-03;  9.9177057E+02;  1.1513826E-01; -5.8722485E+03;3;  3.3139801E+01;  0.0000000E+00;  3.3904774E+00;0; -3.9397094E-01;  3.1058420E+04;  0.0000000E+00;  4.9243126E+01;  4.0000000E+04;  0.0000000E+00;  3.8225828E+04; -3.6200139E-01;  0.0000000E+00; -3.1969540E-02;  2.8656082E+04;
  1.6165445E+00;  9.9999998E-03;  1.3370880E-01;9850;  1.0443363E+00;  0.0000000E+00; -9.0860045E-03;  9.9174603E+02;  1.1513113E-01; -5.8863306E+03;3;  2.9287443E+01;  0.0000000E+00;  3.5867636E+00;0; -3.5647503E-01;  3.1064639E+04;  0.0000000E+00;  5.4638561E+01;  4.0000000E+04;  0.0000000E+00;  3.8220578E+04; -3.1994602E-01;  0.0000000E+00; -3.6529012E-02;  3.0498637E+04;
  1.6168755E+00;  9.9999998E-03;  1.2338669E-01;9849;  1.0445082E+00;  0.0000000E+00; -8.6601879E-03;  9.9216681E+02;  1.1512186E-01; -5.5830005E+03;3;  2.5308577E+01;  0.0000000E+00;  3.5118852E+00;0; -3.1349859E-01;  3.1089514E+04;  0.0000000E+00;  5.5615635E+01;  4.0000000E+04;  0.0000000E+00;  3.8225582E+04; -2.7262396E-01;  0.0000000E+00; -4.0874623E-02;  3.0072592E+04;
  1.6172053E+00;  9.9999998E-03;  1.1301114E-01;9848;  1.0453902E+00;  0.0000000E+00; -8.3456310E-03;  9.9272992E+02;  1.1511201E-01; -5.1786772E+03;3;  2.1173969E+01;  0.0000000E+00;  3.3139334E+00;0; -2.6622444E-01;  3.1121455E+04;  0.0000000E+00;  5.2583736E+01;  4.0000000E+04;  0.0000000E+00;  3.8232949E+04; -2.2189239E-01;  0.0000000E+00; -4.4332061E-02;  2.7763408E+04;
  1.6175375E+00;  9.9999998E-03;  1.0261352E-01;9847;  1.0468842E+00;  0.0000000E+00; -8.0691408E-03;  9.9319080E+02;  1.1510329E-01; -4.8475200E+03;3;  1.6873331E+01;  0.0000000E+00;  2.8394465E+00;0; -2.1570829E-01;  3.1150443E+04;  0.0000000E+00;  4.6275478E+01;  4.0000000E+04;  0.0000000E+00;  3.8235730E+04; -1.6922851E-01;  0.0000000E+00; -4.6479780E-02;  2.4052770E+04;
  1.6178710E+00;  9.9999998E-03;  9.2232637E-02;9846;  1.0488642E+00;  0.0000000E+00; -7.7137025E-03;  9.9340967E+02;  1.1509707E-01; -4.6889507E+03;3;  1.3042295E+01;  0.0000000E+00;  1.3816164E+00;0; -1.6315618E-01;  3.1170723E+04;  0.0000000E+00;  3.7885609E+01;  4.0000000E+04;  0.0000000E+00;  3.8230730E+04; -1.1597755E-01;  0.0000000E+00; -4.7178626E-02;  1.9551197E+04;
  1.6181968E+00;  9.9999998E-03;  8.1870228E-02;9845;  1.0512263E+00;  0.0000000E+00; -7.1496600E-03;  9.9342371E+02;  1.1509193E-01; -4.6762930E+03;3;  9.0567465E+00;  0.0000000E+00; -6.2438786E-01;0; -1.0965727E-01;  3.1181473E+04;  0.0000000E+00;  2.9188749E+01;  4.0000000E+04;  0.0000000E+00;  3.8222477E+04; -6.2958136E-02;  0.0000000E+00; -4.6699129E-02;  1.5043800E+04;
  1.6185110E+00;  9.9999998E-03;  7.1507104E-02;9844;  1.0541898E+00;  0.0000000E+00; -6.5540066E-03;  9.9331860E+02;  1.1508983E-01; -4.7483726E+03;3; -2.4637270E+00;  0.0000000E+00;  2.4408457E+00;0; -5.5228218E-02;  3.1181627E+04;  0.0000000E+00;  2.1449684E+01;  4.0000000E+04;  0.0000000E+00;  3.8215320E+04; -9.1662509E-03;  0.0000000E+00; -4.6061967E-02;  1.1064536E+04;
  1.6260333E+00;  9.9999998E-03;  1.8479854E-01;9894;  1.0520035E+00;  0.0000000E+00; -1.4146252E-02;  9.9830005E+02;  1.1476044E-01; -1.1916211E+03;3;  4.6107441E+01;  0.0000000E+00; -4.6679360E-01;0; -4.7779346E-01;  3.1672736E+04;  0.0000000E+00;  7.4956889E+00;  4.0000000E+04;  0.0000000E+00;  3.8210602E+04; -4.0690979E-01;  0.0000000E+00; -7.0883676E-02;  3.0990312E+03;
  1.6263590E+00;  9.9999998E-03;  1.7469193E-01;9893;  1.0482999E+00;  0.0000000E+00; -1.3044928E-02;  9.9696655E+02;  1.1476427E-01; -2.1251047E+03;3;  4.3425461E+01;  0.0000000E+00; -5.5141038E-01;0; -4.7248375E-01;  3.1606521E+04;  0.0000000E+00; -4.1837878E+00;  4.0000000E+04;  0.0000000E+00;  3.8191129E+04; -4.1096005E-01;  0.0000000E+00; -6.1523713E-02;  2.9812083E+03;
  1.6266594E+00;  9.9999998E-03;  1.6455698E-01;9892;  1.0452993E+00;  0.0000000E+00; -1.1997715E-02;  9.9575830E+02;  1.1476486E-01; -2.9698623E+03;3;  4.0469627E+01;  0.0000000E+00; -4.9944440E-01;0; -4.6224162E-01;  3.1550873E+04;  0.0000000E+00;  1.1228815E+00;  4.0000000E+04;  0.0000000E+00;  3.8167875E+04; -4.0513438E-01;  0.0000000E+00; -5.7107244E-02;  4.3382432E+03;
  1.6269664E+00;  9.9999998E-03;  1.5440096E-01;9891;  1.0430837E+00;  0.0000000E+00; -1.0960397E-02;  9.9451874E+02;  1.1476377E-01; -3.8355051E+03;3;  3.7198048E+01;  0.0000000E+00; -3.8177508E-01;0; -4.4401777E-01;  3.1498676E+04;  0.0000000E+00;  1.3869550E+01;  4.0000000E+04;  0.0000000E+00;  3.8139160E+04; -3.8828695E-01;  0.0000000E+00; -5.5730823E-02;  9.9290264E+03;
  1.6272856E+00;  9.9999998E-03;  1.4422147E-01;9890;  1.0416844E+00;  0.0000000E+00; -9.9855457E-03;  9.9344763E+02;  1.1476352E-01; -4.5822300E+03;3;  3.3584538E+01;  0.0000000E+00; -2.6043671E-01;0; -4.1723117E-01;  3.1457156E+04;  0.0000000E+00;  2.6884386E+01;  4.0000000E+04;  0.0000000E+00;  3.8110391E+04; -3.6085024E-01;  0.0000000E+00; -5.6380924E-02;  1.5455548E+04;
  1.6276083E+00;  9.9999998E-03;  1.3400716E-01;9889;  1.0411302E+00;  0.0000000E+00; -9.1070943E-03;  9.9276733E+02;  1.1475955E-01; -5.0548994E+03;3;  2.9620016E+01;  0.0000000E+00; -2.3383525E-01;0; -3.8184142E-01;  3.1435455E+04;  0.0000000E+00;  3.6829651E+01;  4.0000000E+04;  0.0000000E+00;  3.8088422E+04; -3.2399958E-01;  0.0000000E+00; -5.7841826E-02;  1.9364854E+04;
  1.6279315E+00;  9.9999998E-03;  1.2374484E-01;9888;  1.0413857E+00;  0.0000000E+00; -8.3328411E-03;  9.9252814E+02;  1.1475517E-01; -5.2188550E+03;3;  2.5185757E+01;  0.0000000E+00; -1.3179159E-01;0; -3.3885774E-01;  3.1432371E+04;  0.0000000E+00;  4.2754353E+01;  4.0000000E+04;  0.0000000E+00;  3.8076859E+04; -2.7972072E-01;  0.0000000E+00; -5.9137017E-02;  2.1342906E+04;
  1.6282516E+00;  9.9999998E-03;  1.1343092E-01;9887;  1.0424125E+00;  0.0000000E+00; -7.6745818E-03;  9.9262103E+02;  1.1474938E-01; -5.1508423E+03;3;  2.0652905E+01;  0.0000000E+00; -5.7914615E-01;0; -2.8961194E-01;  3.1442986E+04;  0.0000000E+00;  4.4699444E+01;  4.0000000E+04;  0.0000000E+00;  3.8073812E+04; -2.3014049E-01;  0.0000000E+00; -5.9471432E-02;  2.1521707E+04;
  1.6285650E+00;  9.9999998E-03;  1.0307480E-01;9886;  1.0441167E+00;  0.0000000E+00; -7.0660240E-03;  9.9285419E+02;  1.1474299E-01; -4.9850854E+03;3;  1.5740051E+01;  0.0000000E+00; -1.4220378E+00;0; -2.3556119E-01;  3.1460328E+04;  0.0000000E+00;  4.3096893E+01;  4.0000000E+04;  0.0000000E+00;  3.8073816E+04; -1.7718863E-01;  0.0000000E+00; -5.8372557E-02;  2.0206506E+04;
  1.6288710E+00;  9.9999998E-03;  9.2699744E-02;9885;  1.0463911E+00;  0.0000000E+00; -6.4011659E-03;  9.9306635E+02;  1.1473756E-01; -4.8342139E+03;3;  1.1101401E+01;  0.0000000E+00; -3.8519442E+00;0; -1.7832476E-01;  3.1477051E+04;  0.0000000E+00;  3.8584366E+01;  4.0000000E+04;  0.0000000E+00;  3.8071836E+04; -1.2279133E-01;  0.0000000E+00; -5.5533417E-02;  1.7762615E+04;
  1.6291627E+00;  9.9999998E-03;  8.2307860E-02;9884;  1.0491474E+00;  0.0000000E+00; -5.5075153E-03;  9.9321240E+02;  1.1473403E-01; -4.7297441E+03;3;  6.1494260E+00;  0.0000000E+00; -7.1592827E+00;0; -1.1956890E-01;  3.1490014E+04;  0.0000000E+00;  3.2603664E+01;  4.0000000E+04;  0.0000000E+00;  3.8069289E+04; -6.8427660E-02;  0.0000000E+00; -5.1141240E-02;  1.4800610E+04;
  1.6294343E+00;  9.9999998E-03;  7.1889758E-02;9883;  1.0526885E+00;  0.0000000E+00; -4.5502284E-03;  9.9328644E+02;  1.1473136E-01; -4.6757104E+03;3; -8.7563629E+00;  0.0000000E+00; -5.3262410E+00;0; -5.8335524E-02;  3.1497080E+04;  0.0000000E+00;  2.6420183E+01;  4.0000000E+04;  0.0000000E+00;  3.8068203E+04; -1.1753660E-02;  0.0000000E+00; -4.6581864E-02;  1.1825059E+04;
  1.6374372E+00;  9.9999998E-03;  1.7489940E-01;9929;  1.0450727E+00;  0.0000000E+00; -1.3684809E-02;  9.9856500E+02;  1.1444490E-01; -9.8365204E+02;3;  4.3969273E+01;  0.0000000E+00; -5.0595460E+00;0; -4.7449997E-01;  3.1978281E+04;  0.0000000E+00;  1.8938166E+01;  4.0000000E+04;  0.0000000E+00;  3.8072336E+04; -3.8563710E-01;  0.0000000E+00; -8.8862859E-02;  4.7372422E+03;
  1.6377798E+00;  9.9999998E-03;  1.6478156E-01;9928;  1.0422747E+00;  0.0000000E+00; -1.2290987E-02;  9.9716406E+02;  1.1444982E-01; -1.9426150E+03;3;  4.0949516E+01;  0.0000000E+00; -5.1961350E+00;0; -4.6597916E-01;  3.1913283E+04;  0.0000000E+00; -9.8406947E-01;  4.0000000E+04;  0.0000000E+00;  3.8046055E+04; -3.8452113E-01;  0.0000000E+00; -8.1458040E-02;  2.9249141E+03;
  1.6380820E+00;  9.9999998E-03;  1.5462527E-01;9927;  1.0401118E+00;  0.0000000E+00; -1.0967894E-02;  9.9616479E+02;  1.1445029E-01; -2.6254932E+03;3;  3.7632565E+01;  0.0000000E+00; -5.2196045E+00;0; -4.5358881E-01;  3.1869891E+04;  0.0000000E+00; -3.8513241E+00;  4.0000000E+04;  0.0000000E+00;  3.8024090E+04; -3.7588620E-01;  0.0000000E+00; -7.7702604E-02;  2.5505964E+03;
  1.6383767E+00;  9.9999998E-03;  1.4444071E-01;9926;  1.0387326E+00;  0.0000000E+00; -9.6979430E-03;  9.9525708E+02;  1.1444875E-01; -3.2449365E+03;3;  3.3920589E+01;  0.0000000E+00; -5.1995368E+00;0; -4.3325394E-01;  3.1834135E+04;  0.0000000E+00;  3.2570846E+00;  4.0000000E+04;  0.0000000E+00;  3.8000043E+04; -3.5738760E-01;  0.0000000E+00; -7.5866334E-02;  4.2528320E+03;
  1.6386777E+00;  9.9999998E-03;  1.3423234E-01;9925;  1.0381786E+00;  0.0000000E+00; -8.5116886E-03;  9.9440143E+02;  1.1444788E-01; -3.8279565E+03;3;  2.9744232E+01;  0.0000000E+00; -5.2564812E+00;0; -4.0377963E-01;  3.1803023E+04;  0.0000000E+00;  1.3346414E+01;  4.0000000E+04;  0.0000000E+00;  3.7973996E+04; -3.2897365E-01;  0.0000000E+00; -7.4805990E-02;  7.8994097E+03;
  1.6389829E+00;  9.9999998E-03;  1.2399779E-01;9924;  1.0384710E+00;  0.0000000E+00; -7.4210451E-03;  9.9372168E+02;  1.1444575E-01; -4.2900625E+03;3;  2.5043007E+01;  0.0000000E+00; -5.5334439E+00;0; -3.6491656E-01;  3.1781719E+04;  0.0000000E+00;  2.2125950E+01;  4.0000000E+04;  0.0000000E+00;  3.7949984E+04; -2.9151651E-01;  0.0000000E+00; -7.3400058E-02;  1.0974203E+04;
  1.6392858E+00;  9.9999998E-03;  1.1372922E-01;9923;  1.0395883E+00;  0.0000000E+00; -6.3998662E-03;  9.9330878E+02;  1.1444335E-01; -4.5693330E+03;3;  1.9788967E+01;  0.0000000E+00; -6.0529470E+00;0; -3.1744984E-01;  3.1772510E+04;  0.0000000E+00;  2.7962124E+01;  4.0000000E+04;  0.0000000E+00;  3.7931949E+04; -2.4662553E-01;  0.0000000E+00; -7.0824303E-02;  1.2809773E+04;
  1.6395839E+00;  9.9999998E-03;  1.0342161E-01;9922;  1.0414699E+00;  0.0000000E+00; -5.4178848E-03;  9.9313635E+02;  1.1444104E-01; -4.6842007E+03;3;  1.4435169E+01;  0.0000000E+00; -7.9085603E+00;0; -2.6305979E-01;  3.1772111E+04;  0.0000000E+00;  3.0622469E+01;  4.0000000E+04;  0.0000000E+00;  3.7920742E+04; -1.9670475E-01;  0.0000000E+00; -6.6355050E-02;  1.3375439E+04;
  1.6398709E+00;  9.9999998E-03;  9.3075573E-02;9921;  1.0440003E+00;  0.0000000E+00; -4.3209726E-03;  9.9311884E+02;  1.1443792E-01; -4.6933711E+03;3;  8.4174433E+00;  0.0000000E+00; -1.0322536E+01;0; -2.0353815E-01;  3.1777102E+04;  0.0000000E+00;  3.0534119E+01;  4.0000000E+04;  0.0000000E+00;  3.7914625E+04; -1.4366359E-01;  0.0000000E+00; -5.9874568E-02;  1.2892489E+04;
  1.6401410E+00;  9.9999998E-03;  8.2691357E-02;9920;  1.0471400E+00;  0.0000000E+00; -2.9918111E-03;  9.9318903E+02;  1.1443458E-01; -4.6428789E+03;3;  2.1679680E+00;  0.0000000E+00; -1.5269476E+01;0; -1.4097439E-01;  3.1784678E+04;  0.0000000E+00;  2.8498861E+01;  4.0000000E+04;  0.0000000E+00;  3.7912973E+04; -8.9637764E-02;  0.0000000E+00; -5.1336624E-02;  1.1697850E+04;
  1.6403886E+00;  9.9999998E-03;  7.2273970E-02;9919;  1.0512161E+00;  0.0000000E+00; -1.5214988E-03;  9.9328607E+02;  1.1443219E-01; -4.5743779E+03;3; -1.4751273E+01;  0.0000000E+00; -1.5279755E+01;0; -7.3335402E-02;  3.1791689E+04;  0.0000000E+00;  2.5201796E+01;  4.0000000E+04;  0.0000000E+00;  3.7913793E+04; -3.0798171E-02;  0.0000000E+00; -4.2537231E-02;  1.0077672E+04;
  1.6487807E+00;  9.9999998E-03;  1.6493864E-01;9962;  1.0393223E+00;  0.0000000E+00; -1.1901730E-02;  9.9919208E+02;  1.1418079E-01; -5.4070648E+02;3;  4.1340870E+01;  0.0000000E+00; -1.0894850E+01;0; -4.6446121E-01;  3.2276285E+04;  0.0000000E+00;  3.7790718E+01;  4.0000000E+04;  0.0000000E+00;  3.7939027E+04; -3.6677298E-01;  0.0000000E+00; -9.7688235E-02;  8.4708574E+03;
  1.6491483E+00;  9.9999998E-03;  1.5481824E-01;9961;  1.0374194E+00;  0.0000000E+00; -1.0212217E-02;  9.9748767E+02;  1.1418933E-01; -1.6800039E+03;3;  3.7849152E+01;  0.0000000E+00; -1.1276312E+01;0; -4.5279405E-01;  3.2202385E+04;  0.0000000E+00;  9.6985912E+00;  4.0000000E+04;  0.0000000E+00;  3.7899410E+04; -3.6179253E-01;  0.0000000E+00; -9.1001518E-02;  3.2033230E+03;
  1.6494610E+00;  9.9999998E-03;  1.4464930E-01;9960;  1.0361558E+00;  0.0000000E+00; -8.6401450E-03;  9.9649548E+02;  1.1419223E-01; -2.3418708E+03;3;  3.3978703E+01;  0.0000000E+00; -1.1566419E+01;0; -4.3793231E-01;  3.2161982E+04;  0.0000000E+00; -2.7199371E+00;  4.0000000E+04;  0.0000000E+00;  3.7873617E+04; -3.5084656E-01;  0.0000000E+00; -8.7085739E-02;  2.6300439E+03;
  1.6497539E+00;  9.9999998E-03;  1.3444351E-01;9959;  1.0356205E+00;  0.0000000E+00; -7.1358602E-03;  9.9572626E+02;  1.1419170E-01; -2.8540864E+03;3;  2.9565172E+01;  0.0000000E+00; -1.1905328E+01;0; -4.1612411E-01;  3.2132740E+04;  0.0000000E+00; -3.5700197E+00;  4.0000000E+04;  0.0000000E+00;  3.7851176E+04; -3.3222991E-01;  0.0000000E+00; -8.3894201E-02;  2.1671255E+03;
  1.6500398E+00;  9.9999998E-03;  1.2420813E-01;9958;  1.0359323E+00;  0.0000000E+00; -5.6884903E-03;  9.9506580E+02;  1.1419111E-01; -3.2930540E+03;3;  2.4534134E+01;  0.0000000E+00; -1.2548561E+01;0; -3.8463348E-01;  3.2110254E+04;  0.0000000E+00;  1.4009588E+00;  4.0000000E+04;  0.0000000E+00;  3.7828777E+04; -3.0454212E-01;  0.0000000E+00; -8.0091342E-02;  2.7725437E+03;
  1.6503236E+00;  9.9999998E-03;  1.1394435E-01;9957;  1.0370765E+00;  0.0000000E+00; -4.2758365E-03;  9.9448444E+02;  1.1418875E-01; -3.6787661E+03;3;  1.8713438E+01;  0.0000000E+00; -1.3601765E+01;0; -3.4346855E-01;  3.2092338E+04;  0.0000000E+00;  7.7641912E+00;  4.0000000E+04;  0.0000000E+00;  3.7807797E+04; -2.6868817E-01;  0.0000000E+00; -7.4780360E-02;  4.5238926E+03;
  1.6506016E+00;  9.9999998E-03;  1.0365373E-01;9956;  1.0390661E+00;  0.0000000E+00; -2.8707804E-03;  9.9403680E+02;  1.1418696E-01; -3.9748877E+03;3;  1.2378399E+01;  0.0000000E+00; -1.5726073E+01;0; -2.9307741E-01;  3.2080602E+04;  0.0000000E+00;  1.3001979E+01;  4.0000000E+04;  0.0000000E+00;  3.7789426E+04; -2.2573386E-01;  0.0000000E+00; -6.7343540E-02;  5.9820820E+03;
  1.6508677E+00;  9.9999998E-03;  9.3328126E-02;9955;  1.0418504E+00;  0.0000000E+00; -1.3417143E-03;  9.9377606E+02;  1.1418565E-01; -4.1462329E+03;3;  5.3430037E+00;  0.0000000E+00; -1.9161612E+01;0; -2.3469792E-01;  3.2075877E+04;  0.0000000E+00;  1.6387918E+01;  4.0000000E+04;  0.0000000E+00;  3.7776809E+04; -1.7733799E-01;  0.0000000E+00; -5.7359930E-02;  6.7930386E+03;
  1.6511184E+00;  9.9999998E-03;  8.2963854E-02;9954;  1.0453689E+00;  0.0000000E+00;  4.6768042E-04;  9.9367163E+02;  1.1418448E-01; -4.2134624E+03;3; -2.8622673E+00;  0.0000000E+00; -2.4292559E+01;0; -1.7062919E-01;  3.2075141E+04;  0.0000000E+00;  1.7917543E+01;  4.0000000E+04;  0.0000000E+00;  3.7769969E+04; -1.2569270E-01;  0.0000000E+00; -4.4936489E-02;  6.9639033E+03;
  1.6513486E+00;  9.9999998E-03;  7.2567903E-02;9953;  1.0499660E+00;  0.0000000E+00;  2.4585694E-03;  9.9365161E+02;  1.1418330E-01; -4.2246421E+03;3; -2.0707899E+01;  0.0000000E+00; -2.6131214E+01;0; -9.7904935E-02;  3.2077002E+04;  0.0000000E+00;  1.7728912E+01;  4.0000000E+04;  0.0000000E+00;  3.7767234E+04; -6.5843098E-02;  0.0000000E+00; -3.2061841E-02;  6.5750342E+03;
  1.6604515E+00;  9.9999998E-03;  1.4478733E-01;9991;  1.0338687E+00;  0.0000000E+00; -6.7031072E-03;  9.9812244E+02;  1.1397234E-01; -1.2239243E+03;3;  3.3707161E+01;  0.0000000E+00; -1.9269957E+01;0; -4.3025458E-01;  3.2482141E+04;  0.0000000E+00;  2.9587170E+01;  4.0000000E+04;  0.0000000E+00;  3.7760258E+04; -3.4353343E-01;  0.0000000E+00; -8.6721145E-02;  6.2918291E+03;
  1.6607769E+00;  9.9999998E-03;  1.3461591E-01;9990;  1.0335865E+00;  0.0000000E+00; -4.7560357E-03;  9.9691888E+02;  1.1397606E-01; -2.0070043E+03;3;  2.8979399E+01;  0.0000000E+00; -2.0155256E+01;0; -4.1136640E-01;  3.2437629E+04;  0.0000000E+00;  8.1390667E+00;  4.0000000E+04;  0.0000000E+00;  3.7723723E+04; -3.3071396E-01;  0.0000000E+00; -8.0652431E-02;  2.8341912E+03;
  1.6610682E+00;  9.9999998E-03;  1.2439585E-01;9989;  1.0340093E+00;  0.0000000E+00; -2.9100447E-03;  9.9617096E+02;  1.1397777E-01; -2.4924998E+03;3;  2.3488972E+01;  0.0000000E+00; -2.1170168E+01;0; -3.8711405E-01;  3.2411650E+04;  0.0000000E+00; -1.7173344E+00;  4.0000000E+04;  0.0000000E+00;  3.7699445E+04; -3.1239101E-01;  0.0000000E+00; -7.4723043E-02;  2.2706123E+03;
  1.6613418E+00;  9.9999998E-03;  1.1413826E-01;9988;  1.0352280E+00;  0.0000000E+00; -1.0818440E-03;  9.9561346E+02;  1.1397742E-01; -2.8535732E+03;3;  1.7153778E+01;  0.0000000E+00; -2.2911787E+01;0; -3.5436618E-01;  3.2393195E+04;  0.0000000E+00; -3.7306335E+00;  4.0000000E+04;  0.0000000E+00;  3.7679676E+04; -2.8728089E-01;  0.0000000E+00; -6.7085281E-02;  1.9441964E+03;
  1.6616040E+00;  9.9999998E-03;  1.0384621E-01;9987;  1.0372758E+00;  0.0000000E+00;  7.6220522E-04;  9.9515973E+02;  1.1397646E-01; -3.1468049E+03;3;  9.6862583E+00;  0.0000000E+00; -2.5273077E+01;0; -3.1228864E-01;  3.2378605E+04;  0.0000000E+00; -1.7189745E+00;  4.0000000E+04;  0.0000000E+00;  3.7663582E+04; -2.5503296E-01;  0.0000000E+00; -5.7255700E-02;  1.7087201E+03;
  1.6618552E+00;  9.9999998E-03;  9.3523741E-02;9986;  1.0402231E+00;  0.0000000E+00;  2.7259884E-03;  9.9478436E+02;  1.1397571E-01; -3.3888750E+03;3;  1.4099276E+00;  0.0000000E+00; -2.9315948E+01;0; -2.5991037E-01;  3.2366230E+04;  0.0000000E+00;  1.5459780E+00;  4.0000000E+04;  0.0000000E+00;  3.7649742E+04; -2.1545917E-01;  0.0000000E+00; -4.4451211E-02;  2.0282166E+03;
  1.6620898E+00;  9.9999998E-03;  8.3175428E-02;9985;  1.0440780E+00;  0.0000000E+00;  4.9734628E-03;  9.9450714E+02;  1.1397547E-01; -3.5670481E+03;3; -9.0297594E+00;  0.0000000E+00; -3.4636822E+01;0; -1.9803627E-01;  3.2358535E+04;  0.0000000E+00;  4.3971424E+00;  4.0000000E+04;  0.0000000E+00;  3.7638129E+04; -1.6916291E-01;  0.0000000E+00; -2.8873354E-02;  2.4820410E+03;
  1.6623044E+00;  9.9999998E-03;  7.2800025E-02;9984;  1.0491508E+00;  0.0000000E+00;  7.3802164E-03;  9.9433856E+02;  1.1397523E-01; -3.6746697E+03;3; -2.7995720E+01;  0.0000000E+00; -3.7942837E+01;0; -1.2276788E-01;  3.2354957E+04;  0.0000000E+00;  6.2173281E+00;  4.0000000E+04;  0.0000000E+00;  3.7629816E+04; -1.1001247E-01;  0.0000000E+00; -1.2755405E-02;  2.7306257E+03;
  1.6720213E+00;  9.9999998E-03;  1.2450154E-01;10016;  1.0323757E+00;  0.0000000E+00;  9.6905371E-04;  9.9765472E+02;  1.1379787E-01; -1.4874463E+03;3;  2.2157501E+01;  0.0000000E+00; -3.1579824E+01;0; -3.7128812E-01;  3.2701273E+04;  0.0000000E+00;  2.9607071E+01;  4.0000000E+04;  0.0000000E+00;  3.7588461E+04; -3.1799063E-01;  0.0000000E+00; -5.3297482E-02;  5.9261978E+03;
  1.6723130E+00;  9.9999998E-03;  1.1428051E-01;10015;  1.0338935E+00;  0.0000000E+00;  3.3286021E-03;  9.9674573E+02;  1.1380181E-01; -2.0625266E+03;3;  1.5135732E+01;  0.0000000E+00; -3.3724766E+01;0; -3.4272081E-01;  3.2671727E+04;  0.0000000E+00;  1.1655137E+01;  4.0000000E+04;  0.0000000E+00;  3.7554816E+04; -2.9957569E-01;  0.0000000E+00; -4.3145113E-02;  3.0856013E+03;
  1.6725761E+00;  9.9999998E-03;  1.0401554E-01;10014;  1.0361774E+00;  0.0000000E+00;  5.6058220E-03;  9.9614386E+02;  1.1380394E-01; -2.4423984E+03;3;  6.7402449E+00;  0.0000000E+00; -3.6937656E+01;0; -3.0777928E-01;  3.2653119E+04;  0.0000000E+00;  1.9307110E+00;  4.0000000E+04;  0.0000000E+00;  3.7531629E+04; -2.7630663E-01;  0.0000000E+00; -3.1472646E-02;  2.1339897E+03;
  1.6728184E+00;  9.9999998E-03;  9.3710519E-02;10013;  1.0394020E+00;  0.0000000E+00;  8.0147218E-03;  9.9571503E+02;  1.1380365E-01; -2.7124319E+03;3; -3.2705634E+00;  0.0000000E+00; -4.1522007E+01;0; -2.6184505E-01;  3.2639607E+04;  0.0000000E+00; -2.1372244E+00;  4.0000000E+04;  0.0000000E+00;  3.7515539E+04; -2.4515299E-01;  0.0000000E+00; -1.6692067E-02;  1.9191547E+03;
  1.6730416E+00;  9.9999998E-03;  8.3373398E-02;10012;  1.0436466E+00;  0.0000000E+00;  1.0730467E-02;  9.9539044E+02;  1.1380392E-01; -2.9163301E+03;3; -1.6786564E+01;  0.0000000E+00; -4.6564510E+01;0; -2.0320320E-01;  3.2629506E+04;  0.0000000E+00; -2.9933686E+00;  4.0000000E+04;  0.0000000E+00;  3.7503055E+04; -2.0442882E-01;  0.0000000E+00;  1.2256228E-03;  1.7407491E+03;
  1.6732434E+00;  9.9999998E-03;  7.3013537E-02;10011;  1.0493642E+00;  0.0000000E+00;  1.3369063E-02;  9.9514362E+02;  1.1380285E-01; -3.0709807E+03;3; -3.9752895E+01;  0.0000000E+00; -4.7338013E+01;0; -1.2571451E-01;  3.2623238E+04;  0.0000000E+00; -2.4791050E+00;  4.0000000E+04;  0.0000000E+00;  3.7492414E+04; -1.4407530E-01;  0.0000000E+00;  1.8360799E-02;  1.5384030E+03;
  1.6837375E+00;  9.9999998E-03;  9.3814529E-02;10035;  1.0391116E+00;  0.0000000E+00;  1.4560831E-02;  9.9678668E+02;  1.1365851E-01; -1.9800717E+03;3; -1.1682327E+01;  0.0000000E+00; -5.1354000E+01;0; -2.3285505E-01;  3.2893426E+04;  0.0000000E+00;  1.9175209E+01;  4.0000000E+04;  0.0000000E+00;  3.7396434E+04; -2.6270050E-01;  0.0000000E+00;  2.9845444E-02;  4.0199463E+03;
  1.6839604E+00;  9.9999998E-03;  8.3510116E-02;10034;  1.0442711E+00;  0.0000000E+00;  1.7274413E-02;  9.9629285E+02;  1.1366007E-01; -2.2830964E+03;3; -3.2721870E+01;  0.0000000E+00; -5.1414486E+01;0; -1.7050469E-01;  3.2880598E+04;  0.0000000E+00;  9.1090469E+00;  4.0000000E+04;  0.0000000E+00;  3.7374684E+04; -2.1621604E-01;  0.0000000E+00;  4.5711353E-02;  2.6840579E+03;
  1.6841581E+00;  9.9999998E-03;  7.3175512E-02;10033;  1.0513940E+00;  0.0000000E+00;  1.9247489E-02;  9.9594312E+02;  1.1366107E-01; -2.4972290E+03;3; -6.5655693E+01;  0.0000000E+00; -4.1905167E+01;0; -8.0628954E-02;  3.2871754E+04;  0.0000000E+00;  3.3071136E+00;  4.0000000E+04;  0.0000000E+00;  3.7358645E+04; -1.3806680E-01;  0.0000000E+00;  5.7437845E-02;  2.0894771E+03;
  2.1170154E-03;  9.9999998E-03;  2.3988193E-01;2501; -2.5178934E-04;  0.0000000E+00;  9.3098305E-04;  9.8942999E+02;  1.0000000E-01; -8.7570361E+03;3;  6.9748436E+01;  0.0000000E+00; -2.1332998E+01;0; -3.5316918E-02;  3.9146344E+04;  0.0000000E+00; -5.8074576E-01;  4.0000000E+04;  0.0000000E+00;  4.0019875E+04; -3.4398850E-02;  0.0000000E+00; -9.1806677E-04;  3.5046023E+03;
  1.7565583E-03;  9.9999998E-03;  2.4985301E-01;2502; -2.5311840E-04;  0.0000000E+00;  9.3536003E-04;  9.9058844E+02;  1.0000000E-01; -7.7973105E+03;3;  5.9716194E+01;  0.0000000E+00; -2.3317524E+01;0; -3.2788150E-02;  3.9238395E+04;  0.0000000E+00; -5.2882272E-01;  4.0000000E+04;  0.0000000E+00;  4.0017863E+04; -3.1328127E-02;  0.0000000E+00; -1.4600249E-03;  3.0224985E+03;
  1.3646536E-03;  9.9999998E-03;  2.5982544E-01;2503; -3.0105669E-04;  0.0000000E+00;  9.1646309E-04;  9.9178564E+02;  1.0000000E-01; -6.8054370E+03;3;  4.8266125E+01;  0.0000000E+00; -2.4907499E+01;0; -3.0119039E-02;  3.9336602E+04;  0.0000000E+00; -4.7089022E-01;  4.0000000E+04;  0.0000000E+00;  4.0010992E+04; -2.8130205E-02;  0.0000000E+00; -1.9888331E-03;  2.2498525E+03;
  9.5563894E-04;  9.9999998E-03;  2.6981127E-01;2504; -3.8773107E-04;  0.0000000E+00;  8.8181236E-04;  9.9299133E+02;  1.0000000E-01; -5.8065518E+03;3;  3.6361401E+01;  0.0000000E+00; -2.6189096E+01;0; -2.7322328E-02;  3.9436977E+04;  0.0000000E+00; -4.1488969E-01;  4.0000000E+04;  0.0000000E+00;  4.0004270E+04; -2.4856223E-02;  0.0000000E+00; -2.4661047E-03;  1.2830146E+03;
  5.6328019E-04;  9.9999998E-03;  2.7981961E-01;2505; -5.0111330E-04;  0.0000000E+00;  8.4102346E-04;  9.9415497E+02;  1.0000000E-01; -4.8424805E+03;3;  2.5263111E+01;  0.0000000E+00; -2.7186665E+01;0; -2.4420556E-02;  3.9535664E+04;  0.0000000E+00; -3.6497933E-01;  4.0000000E+04;  0.0000000E+00;  3.9996141E+04; -2.1567842E-02;  0.0000000E+00; -2.8527142E-03;  5.1860046E+02;
  2.1846649E-04;  9.9999998E-03;  2.8985393E-01;2506; -6.3367595E-04;  0.0000000E+00;  8.0302270E-04;  9.9524756E+02;  1.0000000E-01; -3.9373208E+03;3;  1.6066072E+01;  0.0000000E+00; -2.7662832E+01;0; -2.1440938E-02;  3.9629039E+04;  0.0000000E+00; -3.2055360E-01;  4.0000000E+04;  0.0000000E+00;  3.9988430E+04; -1.8330047E-02;  0.0000000E+00; -3.1108910E-03;  1.1381417E+03;
  1.2035604E-02;  9.9999998E-03;  2.3991334E-01;2561; -9.6214708E-04;  0.0000000E+00;  7.6558307E-04;  9.9102039E+02;  1.0000000E-01; -7.4394438E+03;3;  4.7589684E+01;  0.0000000E+00; -1.7854347E+01;0; -3.9291423E-02;  3.9268238E+04;  0.0000000E+00; -6.9593197E-01;  4.0000000E+04;  0.0000000E+00;  4.0022598E+04; -3.8279951E-02;  0.0000000E+00; -1.0114735E-03;  3.6709360E+03;
  1.1709313E-02;  9.9999998E-03;  2.4987273E-01;2562; -8.8906032E-04;  0.0000000E+00;  7.6939166E-04;  9.9193970E+02;  1.0000000E-01; -6.6777866E+03;3;  4.1221550E+01;  0.0000000E+00; -1.9616383E+01;0; -3.6545385E-02;  3.9341598E+04;  0.0000000E+00; -6.2086129E-01;  4.0000000E+04;  0.0000000E+00;  4.0019789E+04; -3.4927152E-02;  0.0000000E+00; -1.6182314E-03;  3.2718848E+03;
  1.1341485E-02;  9.9999998E-03;  2.5982922E-01;2563; -8.5334253E-04;  0.0000000E+00;  7.5865485E-04;  9.9290680E+02;  1.0000000E-01; -5.8765747E+03;3;  3.3107662E+01;  0.0000000E+00; -2.1293793E+01;0; -3.3628494E-02;  3.9421301E+04;  0.0000000E+00; -5.4543114E-01;  4.0000000E+04;  0.0000000E+00;  4.0013961E+04; -3.1411063E-02;  0.0000000E+00; -2.2174309E-03;  2.5397444E+03;
  1.0939155E-02;  9.9999998E-03;  2.6979557E-01;2564; -8.5422210E-04;  0.0000000E+00;  7.3493971E-04;  9.9387988E+02;  1.0000000E-01; -5.0704243E+03;3;  2.4216972E+01;  0.0000000E+00; -2.3084587E+01;0; -3.0551495E-02;  3.9504523E+04;  0.0000000E+00; -4.8087788E-01;  4.0000000E+04;  0.0000000E+00;  4.0006840E+04; -2.7787238E-02;  0.0000000E+00; -2.7642574E-03;  1.5584884E+03;
  1.0544074E-02;  9.9999998E-03;  2.7977806E-01;2565; -8.8745967E-04;  0.0000000E+00;  7.0214417E-04;  9.9483972E+02;  1.0000000E-01; -4.2751875E+03;3;  1.5611245E+01;  0.0000000E+00; -2.4916061E+01;0; -2.7342713E-02;  3.9587754E+04;  0.0000000E+00; -4.3128583E-01;  4.0000000E+04;  0.0000000E+00;  3.9998371E+04; -2.4130261E-02;  0.0000000E+00; -3.2124515E-03;  6.5004639E+02;
  1.0205305E-02;  9.9999998E-03;  2.8977376E-01;2566; -9.4470702E-04;  0.0000000E+00;  6.6904828E-04;  9.9574524E+02;  1.0000000E-01; -3.5249868E+03;3;  8.4362459E+00;  0.0000000E+00; -2.6499098E+01;0; -2.4042536E-02;  3.9668141E+04;  0.0000000E+00; -3.9237860E-01;  4.0000000E+04;  0.0000000E+00;  3.9989582E+04; -2.0524027E-02;  0.0000000E+00; -3.5185097E-03;  1.1046172E+03;
  9.9357562E-03;  9.9999998E-03;  2.9979450E-01;2567; -1.0225719E-03;  0.0000000E+00;  6.5124029E-04;  9.9657812E+02;  1.0000000E-01; -2.8349814E+03;3;  3.4676180E+00;  0.0000000E+00; -2.7266537E+01;0; -2.0690000E-02;  3.9741523E+04;  0.0000000E+00; -3.5433799E-01;  4.0000000E+04;  0.0000000E+00;  3.9982109E+04; -1.7044559E-02;  0.0000000E+00; -3.6454408E-03;  2.0139491E+03;
  2.1902431E-02;  9.9999998E-03;  2.3997994E-01;2622; -1.7235207E-03;  0.0000000E+00;  6.9279544E-04;  9.9299957E+02;  1.0000000E-01; -5.7997373E+03;3;  2.3333735E+01;  0.0000000E+00; -1.3068263E+01;0; -4.2366292E-02;  3.9421859E+04;  0.0000000E+00; -7.8142279E-01;  4.0000000E+04;  0.0000000E+00;  4.0022855E+04; -4.1269708E-02;  0.0000000E+00; -1.0965853E-03;  3.6819316E+03;
  2.1606943E-02;  9.9999998E-03;  2.4993980E-01;2623; -1.5741317E-03;  0.0000000E+00;  6.8830524E-04;  9.9364417E+02;  1.0000000E-01; -5.2656782E+03;3;  2.0855904E+01;  0.0000000E+00; -1.4090033E+01;0; -3.9471488E-02;  3.9473215E+04;  0.0000000E+00; -6.9492286E-01;  4.0000000E+04;  0.0000000E+00;  4.0021551E+04; -3.7713625E-02;  0.0000000E+00; -1.7578644E-03;  3.4020730E+03;
  2.1265239E-02;  9.9999998E-03;  2.5989202E-01;2624; -1.4614281E-03;  0.0000000E+00;  6.7141419E-04;  9.9433014E+02;  1.0000000E-01; -4.6973486E+03;3;  1.6641493E+01;  0.0000000E+00; -1.5385436E+01;0; -3.6378331E-02;  3.9530910E+04;  0.0000000E+00; -6.1262649E-01;  4.0000000E+04;  0.0000000E+00;  4.0016969E+04; -3.3961017E-02;  0.0000000E+00; -2.4173134E-03;  2.7605254E+03;
  2.0877508E-02;  9.9999998E-03;  2.6985189E-01;2625; -1.3859343E-03;  0.0000000E+00;  6.4291956E-04;  9.9503699E+02;  1.0000000E-01; -4.1117852E+03;3;  1.1352281E+01;  0.0000000E+00; -1.7264673E+01;0; -3.3095364E-02;  3.9592777E+04;  0.0000000E+00; -5.4779333E-01;  4.0000000E+04;  0.0000000E+00;  4.0009855E+04; -3.0070748E-02;  0.0000000E+00; -3.0246167E-03;  1.8274685E+03;
  2.0481290E-02;  9.9999998E-03;  2.7982759E-01;2626; -1.3452284E-03;  0.0000000E+00;  6.0548622E-04;  9.9573975E+02;  1.0000000E-01; -3.5295298E+03;3;  5.9218402E+00;  0.0000000E+00; -1.9753578E+01;0; -2.9650208E-02;  3.9656512E+04;  0.0000000E+00; -5.0382453E-01;  4.0000000E+04;  0.0000000E+00;  4.0001223E+04; -2.6123405E-02;  0.0000000E+00; -3.5268033E-03;  8.5921057E+02;
  2.0136304E-02;  9.9999998E-03;  2.8981027E-01;2627; -1.3319119E-03;  0.0000000E+00;  5.6908943E-04;  9.9642731E+02;  1.0000000E-01; -2.9599163E+03;3;  1.2308114E+00;  0.0000000E+00; -2.2417736E+01;0; -2.6092427E-02;  3.9719555E+04;  0.0000000E+00; -4.7306257E-01;  4.0000000E+04;  0.0000000E+00;  3.9991367E+04; -2.2217972E-02;  0.0000000E+00; -3.8744539E-03;  9.9713037E+02;
  1.9875312E-02;  9.9999998E-03;  2.9979986E-01;2628; -1.3385677E-03;  0.0000000E+00;  5.4737576E-04;  9.9707025E+02;  1.0000000E-01; -2.4272400E+03;3; -1.9055817E+00;  0.0000000E+00; -2.4532141E+01;0; -2.2479355E-02;  3.9779090E+04;  0.0000000E+00; -4.4040117E-01;  4.0000000E+04;  0.0000000E+00;  3.9983473E+04; -1.8451182E-02;  0.0000000E+00; -4.0281736E-03;  1.9161975E+03;
  3.1773619E-02;  9.9999998E-03;  2.4002649E-01;2683; -2.5106820E-03;  0.0000000E+00;  6.5043790E-04;  9.9509241E+02;  1.0000000E-01; -4.0658604E+03;3;  2.8790228E+00;  0.0000000E+00; -7.0315700E+00;0; -4.4448469E-02;  3.9586734E+04;  0.0000000E+00; -7.8836584E-01;  4.0000000E+04;  0.0000000E+00;  4.0023461E+04; -4.3297239E-02;  0.0000000E+00; -1.1512318E-03;  3.5122866E+03;
  3.1507555E-02;  9.9999998E-03;  2.4999285E-01;2684; -2.2861348E-03;  0.0000000E+00;  6.3930656E-04;  9.9545007E+02;  1.0000000E-01; -3.7695229E+03;3;  3.6173854E+00;  0.0000000E+00; -7.0893440E+00;0; -4.1481253E-02;  3.9614688E+04;  0.0000000E+00; -7.1016222E-01;  4.0000000E+04;  0.0000000E+00;  4.0022609E+04; -3.9624974E-02;  0.0000000E+00; -1.8562803E-03;  3.3746428E+03;
  3.1187657E-02;  9.9999998E-03;  2.5995010E-01;2685; -2.0982886E-03;  0.0000000E+00;  6.1499549E-04;  9.9584875E+02;  1.0000000E-01; -3.4392114E+03;3;  2.7475460E+00;  0.0000000E+00; -7.7488437E+00;0; -3.8290787E-02;  3.9649266E+04;  0.0000000E+00; -6.4099145E-01;  4.0000000E+04;  0.0000000E+00;  4.0018848E+04; -3.5723664E-02;  0.0000000E+00; -2.5671248E-03;  2.8587117E+03;
  3.0812182E-02;  9.9999998E-03;  2.6991537E-01;2686; -1.9496103E-03;  0.0000000E+00;  5.7748763E-04;  9.9627502E+02;  1.0000000E-01; -3.0860854E+03;3;  6.8884397E-01;  0.0000000E+00; -9.5071573E+00;0; -3.4883987E-02;  3.9688484E+04;  0.0000000E+00; -5.9352708E-01;  4.0000000E+04;  0.0000000E+00;  4.0011609E+04; -3.1655923E-02;  0.0000000E+00; -3.2280646E-03;  2.0176599E+03;
  3.0414741E-02;  9.9999998E-03;  2.7989689E-01;2687; -1.8382936E-03;  0.0000000E+00;  5.3079403E-04;  9.9671759E+02;  1.0000000E-01; -2.7194292E+03;3; -1.8889062E+00;  0.0000000E+00; -1.2482912E+01;0; -3.1286884E-02;  3.9731086E+04;  0.0000000E+00; -5.6848854E-01;  4.0000000E+04;  0.0000000E+00;  4.0003301E+04; -2.7507454E-02;  0.0000000E+00; -3.7794299E-03;  1.0708326E+03;
  3.0057184E-02;  9.9999998E-03;  2.8988510E-01;2688; -1.7581261E-03;  0.0000000E+00;  4.8346669E-04;  9.9716455E+02;  1.0000000E-01; -2.3491187E+03;3; -4.2365541E+00;  0.0000000E+00; -1.6201393E+01;0; -2.7551923E-02;  3.9775797E+04;  0.0000000E+00; -5.5379772E-01;  4.0000000E+04;  0.0000000E+00;  3.9993758E+04; -2.3386441E-02;  0.0000000E+00; -4.1654818E-03;  9.3082758E+02;
  2.9795602E-02;  9.9999998E-03;  2.9987305E-01;2689; -1.6951489E-03;  0.0000000E+00;  4.5781044E-04;  9.9760815E+02;  1.0000000E-01; -1.9816229E+03;3; -5.7506537E+00;  0.0000000E+00; -1.9718803E+01;0; -2.3751101E-02;  3.9819820E+04;  0.0000000E+00; -5.2966738E-01;  4.0000000E+04;  0.0000000E+00;  3.9985727E+04; -1.9407533E-02;  0.0000000E+00; -4.3435679E-03;  1.7679559E+03;
  4.1655909E-02;  9.9999998E-03;  2.4004766E-01;2744; -3.2570763E-03;  0.0000000E+00;  6.3131732E-04;  9.9704395E+02;  1.0000000E-01; -2.4490171E+03;3; -1.0677060E+01;  0.0000000E+00; -5.5780649E-01;0; -4.5549691E-02;  3.9743195E+04;  0.0000000E+00; -6.7075586E-01;  4.0000000E+04;  0.0000000E+00;  4.0022738E+04; -4.4386599E-02;  0.0000000E+00; -1.1630931E-03;  3.1969563E+03;
  4.1418549E-02;  9.9999998E-03;  2.5002274E-01;2745; -2.9650554E-03;  0.0000000E+00;  6.1708619E-04;  9.9714758E+02;  1.0000000E-01; -2.3631924E+03;3; -7.9180937E+00;  0.0000000E+00;  4.8486993E-01;0; -4.2584054E-02;  3.9749656E+04;  0.0000000E+00; -6.2474620E-01;  4.0000000E+04;  0.0000000E+00;  4.0022371E+04; -4.0683895E-02;  0.0000000E+00; -1.9001602E-03;  3.2105083E+03;
  4.1122198E-02;  9.9999998E-03;  2.5998750E-01;2746; -2.7094539E-03;  0.0000000E+00;  5.8706687E-04;  9.9727673E+02;  1.0000000E-01; -2.2561831E+03;3; -6.4868054E+00;  0.0000000E+00;  5.7769263E-01;0; -3.9377004E-02;  3.9761637E+04;  0.0000000E+00; -5.9566194E-01;  4.0000000E+04;  0.0000000E+00;  4.0019855E+04; -3.6723718E-02;  0.0000000E+00; -2.6532861E-03;  2.8358066E+03;
  4.0763456E-02;  9.9999998E-03;  2.6995865E-01;2747; -2.4956127E-03;  0.0000000E+00;  5.4000202E-04;  9.9743579E+02;  1.0000000E-01; -2.1243843E+03;3; -6.2254119E+00;  0.0000000E+00; -9.6083575E-01;0; -3.5932593E-02;  3.9779266E+04;  0.0000000E+00; -5.9156054E-01;  4.0000000E+04;  0.0000000E+00;  4.0013895E+04; -3.2571044E-02;  0.0000000E+00; -3.3615474E-03;  2.1083711E+03;
  4.0371813E-02;  9.9999998E-03;  2.7994666E-01;2748; -2.3220137E-03;  0.0000000E+00;  4.7980691E-04;  9.9762915E+02;  1.0000000E-01; -1.9641914E+03;3; -6.7028823E+00;  0.0000000E+00; -4.3130703E+00;0; -3.2273013E-02;  3.9801719E+04;  0.0000000E+00; -6.0710806E-01;  4.0000000E+04;  0.0000000E+00;  4.0005277E+04; -2.8314281E-02;  0.0000000E+00; -3.9587333E-03;  1.2256732E+03;
  4.0002495E-02;  9.9999998E-03;  2.8994831E-01;2749; -2.1810115E-03;  0.0000000E+00;  4.1958611E-04;  9.9785492E+02;  1.0000000E-01; -1.7771349E+03;3; -7.3742638E+00;  0.0000000E+00; -8.9855671E+00;0; -2.8447874E-02;  3.9828531E+04;  0.0000000E+00; -6.2361234E-01;  4.0000000E+04;  0.0000000E+00;  3.9995828E+04; -2.4065319E-02;  0.0000000E+00; -4.3825540E-03;  9.3299719E+02;
  3.9732862E-02;  9.9999998E-03;  2.9995146E-01;2750; -2.0549407E-03;  0.0000000E+00;  3.8857062E-04;  9.9810553E+02;  1.0000000E-01; -1.5695359E+03;3; -7.7718554E+00;  0.0000000E+00; -1.3941880E+01;0; -2.4537515E-02;  3.9856980E+04;  0.0000000E+00; -6.1645103E-01;  4.0000000E+04;  0.0000000E+00;  3.9987445E+04; -1.9951973E-02;  0.0000000E+00; -4.5855409E-03;  1.6511404E+03;
  5.1546618E-02;  9.9999998E-03;  2.4005410E-01;2805; -3.9262404E-03;  0.0000000E+00;  6.1720971E-04;  9.9869098E+02;  1.0000000E-01; -1.0845126E+03;3; -1.7058670E+01;  0.0000000E+00;  5.4675407E+00;0; -4.5788441E-02;  3.9876082E+04;  0.0000000E+00; -4.0636820E-01;  4.0000000E+04;  0.0000000E+00;  4.0021453E+04; -4.4661809E-02;  0.0000000E+00; -1.1266314E-03;  2.8279255E+03;
  5.1338293E-02;  9.9999998E-03;  2.5003681E-01;2806; -3.5731320E-03;  0.0000000E+00;  6.1791175E-04;  9.9856903E+02;  1.0000000E-01; -1.1855468E+03;3; -1.3388479E+01;  0.0000000E+00;  7.5682111E+00;0; -4.2891253E-02;  3.9863875E+04;  0.0000000E+00; -4.1513222E-01;  4.0000000E+04;  0.0000000E+00;  4.0022430E+04; -4.1008797E-02;  0.0000000E+00; -1.8824555E-03;  2.9809045E+03;
  5.1067449E-02;  9.9999998E-03;  2.6000905E-01;2807; -3.2588881E-03;  0.0000000E+00;  5.9043337E-04;  9.9847021E+02;  1.0000000E-01; -1.2674209E+03;3; -1.0808043E+01;  0.0000000E+00;  8.4184742E+00;0; -3.9739043E-02;  3.9856816E+04;  0.0000000E+00; -4.5486954E-01;  4.0000000E+04;  0.0000000E+00;  4.0020016E+04; -3.7071381E-02;  0.0000000E+00; -2.6676629E-03;  2.7344656E+03;
  5.0731666E-02;  9.9999998E-03;  2.6998359E-01;2808; -2.9878970E-03;  0.0000000E+00;  5.3800357E-04;  9.9840314E+02;  1.0000000E-01; -1.3229750E+03;3; -9.2771053E+00;  0.0000000E+00;  7.1684136E+00;0; -3.6333553E-02;  3.9855551E+04;  0.0000000E+00; -5.2398217E-01;  4.0000000E+04;  0.0000000E+00;  4.0014340E+04; -3.2917242E-02;  0.0000000E+00; -3.4163110E-03;  2.1109629E+03;
  5.0352342E-02;  9.9999998E-03;  2.7997681E-01;2809; -2.7580955E-03;  0.0000000E+00;  4.6618536E-04;  9.9838080E+02;  1.0000000E-01; -1.3414929E+03;3; -8.5416117E+00;  0.0000000E+00;  3.4839547E+00;0; -3.2691222E-02;  3.9860352E+04;  0.0000000E+00; -6.0632104E-01;  4.0000000E+04;  0.0000000E+00;  4.0007281E+04; -2.8635036E-02;  0.0000000E+00; -4.0561841E-03;  1.2983030E+03;
  4.9978018E-02;  9.9999998E-03;  2.8999087E-01;2810; -2.5644132E-03;  0.0000000E+00;  3.9158473E-04;  9.9840698E+02;  1.0000000E-01; -1.3197651E+03;3; -8.2560730E+00;  0.0000000E+00; -2.1599107E+00;0; -2.8857017E-02;  3.9871055E+04;  0.0000000E+00; -6.7396772E-01;  4.0000000E+04;  0.0000000E+00;  3.9997473E+04; -2.4338871E-02;  0.0000000E+00; -4.5181452E-03;  9.7023938E+02;
  4.9704939E-02;  9.9999998E-03;  3.0000168E-01;2811; -2.3845350E-03;  0.0000000E+00;  3.5272230E-04;  9.9849371E+02;  1.0000000E-01; -1.2479153E+03;3; -8.1152868E+00;  0.0000000E+00; -8.5011492E+00;0; -2.4917567E-02;  3.9886641E+04;  0.0000000E+00; -6.9683838E-01;  4.0000000E+04;  0.0000000E+00;  3.9988617E+04; -2.0168986E-02;  0.0000000E+00; -4.7485805E-03;  1.6131881E+03;
  6.1445501E-02;  9.9999998E-03;  2.4005800E-01;2866; -4.4932324E-03;  0.0000000E+00;  6.1393582E-04;  9.9991418E+02;  1.0000000E-01; -7.1109100E+01;3; -1.7625317E+01;  0.0000000E+00;  1.0501529E+01;0; -4.5379471E-02;  3.9976051E+04;  0.0000000E+00; -9.3769003E-03;  4.0000000E+04;  0.0000000E+00;  4.0020293E+04; -4.4336200E-02;  0.0000000E+00; -1.0432723E-03;  2.5658167E+03;
  6.1263986E-02;  9.9999998E-03;  2.5004646E-01;2867; -4.0948372E-03;  0.0000000E+00;  6.3315255E-04;  9.9962238E+02;  1.0000000E-01; -3.1283066E+02;3; -1.4006681E+01;  0.0000000E+00;  1.3498289E+01;0; -4.2604122E-02;  3.9949379E+04;  0.0000000E+00; -8.7170087E-02;  4.0000000E+04;  0.0000000E+00;  4.0022332E+04; -4.0800758E-02;  0.0000000E+00; -1.8033654E-03;  2.8079817E+03;
  6.1020203E-02;  9.9999998E-03;  2.6002467E-01;2868; -3.7301006E-03;  0.0000000E+00;  6.2070315E-04;  9.9934546E+02;  1.0000000E-01; -5.4225629E+02;3; -1.1210867E+01;  0.0000000E+00;  1.5004659E+01;0; -3.9564222E-02;  3.9927188E+04;  0.0000000E+00; -2.1408306E-01;  4.0000000E+04;  0.0000000E+00;  4.0020141E+04; -3.6956046E-02;  0.0000000E+00; -2.6081759E-03;  2.6344583E+03;
  6.0711917E-02;  9.9999998E-03;  2.7000099E-01;2869; -3.4102695E-03;  0.0000000E+00;  5.7038909E-04;  9.9909839E+02;  1.0000000E-01; -7.4699121E+02;3; -9.2942066E+00;  0.0000000E+00;  1.3940128E+01;0; -3.6258142E-02;  3.9910852E+04;  0.0000000E+00; -3.7492588E-01;  4.0000000E+04;  0.0000000E+00;  4.0015477E+04; -3.2869913E-02;  0.0000000E+00; -3.3882293E-03;  2.0580615E+03;
  6.0350239E-02;  9.9999998E-03;  2.7999568E-01;2870; -3.1353771E-03;  0.0000000E+00;  4.9006403E-04;  9.9889771E+02;  1.0000000E-01; -9.1320874E+02;3; -8.1316624E+00;  0.0000000E+00;  9.8144131E+00;0; -3.2696646E-02;  3.9901688E+04;  0.0000000E+00; -5.4096091E-01;  4.0000000E+04;  0.0000000E+00;  4.0006711E+04; -2.8630637E-02;  0.0000000E+00; -4.0660105E-03;  1.2659305E+03;
  5.9983689E-02;  9.9999998E-03;  2.9001218E-01;2871; -2.8884234E-03;  0.0000000E+00;  4.0585845E-04;  9.9877075E+02;  1.0000000E-01; -1.0183909E+03;3; -7.5041199E+00;  0.0000000E+00;  3.2147434E+00;0; -2.8921094E-02;  3.9899754E+04;  0.0000000E+00; -6.7500538E-01;  4.0000000E+04;  0.0000000E+00;  3.9997938E+04; -2.4355721E-02;  0.0000000E+00; -4.5653740E-03;  9.6661841E+02;
  5.9706353E-02;  9.9999998E-03;  3.0003408E-01;2872; -2.6588521E-03;  0.0000000E+00;  3.5692198E-04;  9.9872192E+02;  1.0000000E-01; -1.0588837E+03;3; -7.2357073E+00;  0.0000000E+00; -4.5504827E+00;0; -2.5013030E-02;  3.9904586E+04;  0.0000000E+00; -7.4179482E-01;  4.0000000E+04;  0.0000000E+00;  3.9988867E+04; -2.0186633E-02;  0.0000000E+00; -4.8263976E-03;  1.6510459E+03;
  7.1356110E-02;  9.9999998E-03;  2.4006791E-01;2927; -4.9453331E-03;  0.0000000E+00;  6.3926983E-04;  1.0006837E+03;  1.0000000E-01;  5.6640375E+02;3; -1.4634178E+01;  0.0000000E+00;  1.4371295E+01;0; -4.4602729E-02;  4.0038922E+04;  0.0000000E+00;  4.8167920E-01;  4.0000000E+04;  0.0000000E+00;  4.0020562E+04; -4.3683190E-02;  0.0000000E+00; -9.1953843E-04;  2.5999863E+03;
  7.1197301E-02;  9.9999998E-03;  2.5006229E-01;2928; -4.5143445E-03;  0.0000000E+00;  6.8088173E-04;  1.0002778E+03;  1.0000000E-01;  2.3021571E+02;3; -1.1633432E+01;  0.0000000E+00;  1.8070545E+01;0; -4.1992020E-02;  4.0002230E+04;  0.0000000E+00;  3.5023949E-01;  4.0000000E+04;  0.0000000E+00;  4.0022359E+04; -4.0323801E-02;  0.0000000E+00; -1.6682186E-03;  2.8386882E+03;
  7.0980981E-02;  9.9999998E-03;  2.6004344E-01;2929; -4.1124537E-03;  0.0000000E+00;  6.8529876E-04;  9.9987170E+02;  1.0000000E-01; -1.0626860E+02;3; -9.2312298E+00;  0.0000000E+00;  2.0010466E+01;0; -3.9109003E-02;  3.9969480E+04;  0.0000000E+00;  1.5323946E-01;  4.0000000E+04;  0.0000000E+00;  4.0021375E+04; -3.6631308E-02;  0.0000000E+00; -2.4776936E-03;  2.6428445E+03;
  7.0702396E-02;  9.9999998E-03;  2.7001867E-01;2930; -3.7518169E-03;  0.0000000E+00;  6.4256048E-04;  9.9949023E+02;  1.0000000E-01; -4.2230905E+02;3; -7.5209875E+00;  0.0000000E+00;  1.8917679E+01;0; -3.5946924E-02;  3.9942547E+04;  0.0000000E+00; -8.4283911E-02;  4.0000000E+04;  0.0000000E+00;  4.0016059E+04; -3.2670192E-02;  0.0000000E+00; -3.2767314E-03;  2.0056831E+03;
  7.0368126E-02;  9.9999998E-03;  2.8000531E-01;2931; -3.4341307E-03;  0.0000000E+00;  5.5890990E-04;  9.9916241E+02;  1.0000000E-01; -6.9390631E+02;3; -6.4580498E+00;  0.0000000E+00;  1.4208999E+01;0; -3.2512978E-02;  3.9923168E+04;  0.0000000E+00; -3.2569140E-01;  4.0000000E+04;  0.0000000E+00;  4.0007551E+04; -2.8529115E-02;  0.0000000E+00; -3.9838646E-03;  1.0888933E+03;
  7.0018724E-02;  9.9999998E-03;  2.9001746E-01;2932; -3.1491939E-03;  0.0000000E+00;  4.6081591E-04;  9.9891833E+02;  1.0000000E-01; -8.9612280E+02;3; -5.9338655E+00;  0.0000000E+00;  6.4727311E+00;0; -2.8841037E-02;  3.9912191E+04;  0.0000000E+00; -5.2848220E-01;  4.0000000E+04;  0.0000000E+00;  3.9997398E+04; -2.4323022E-02;  0.0000000E+00; -4.5180144E-03;  7.8024316E+02;
  6.9736592E-02;  9.9999998E-03;  3.0005586E-01;2933; -2.8614418E-03;  0.0000000E+00;  4.0634503E-04;  9.9877594E+02;  1.0000000E-01; -1.0140948E+03;3; -5.7728629E+00;  0.0000000E+00; -2.7606227E+00;0; -2.5001954E-02;  3.9909805E+04;  0.0000000E+00; -6.5379459E-01;  4.0000000E+04;  0.0000000E+00;  3.9987594E+04; -2.0190494E-02;  0.0000000E+00; -4.8114592E-03;  1.7037671E+03;
  8.1283309E-02;  9.9999998E-03;  2.4008600E-01;2988; -5.2989023E-03;  0.0000000E+00;  6.9255789E-04;  1.0010303E+03;  1.0000000E-01;  8.5360547E+02;3; -1.0307480E+01;  0.0000000E+00;  1.7121807E+01;0; -4.3768741E-02;  4.0066270E+04;  0.0000000E+00;  1.0465790E+00;  4.0000000E+04;  0.0000000E+00;  4.0021520E+04; -4.3001425E-02;  0.0000000E+00; -7.6731492E-04;  3.0242419E+03;
  8.1143491E-02;  9.9999998E-03;  2.5008464E-01;2989; -4.8403353E-03;  0.0000000E+00;  7.6290331E-04;  1.0005514E+03;  1.0000000E-01;  4.5677719E+02;3; -8.1265039E+00;  0.0000000E+00;  2.1311081E+01;0; -4.1357316E-02;  4.0023996E+04;  0.0000000E+00;  9.2547292E-01;  4.0000000E+04;  0.0000000E+00;  4.0023219E+04; -3.9870780E-02;  0.0000000E+00; -1.4865356E-03;  3.2104875E+03;
  8.0955751E-02;  9.9999998E-03;  2.6006448E-01;2990; -4.4054599E-03;  0.0000000E+00;  7.8955758E-04;  1.0000641E+03;  1.0000000E-01;  5.3134300E+01;3; -6.3895760E+00;  0.0000000E+00;  2.3473795E+01;0; -3.8664609E-02;  3.9984570E+04;  0.0000000E+00;  7.2881228E-01;  4.0000000E+04;  0.0000000E+00;  4.0022312E+04; -3.6382779E-02;  0.0000000E+00; -2.2818309E-03;  2.9326052E+03;
  8.0710106E-02;  9.9999998E-03;  2.7003324E-01;2991; -4.0078657E-03;  0.0000000E+00;  7.5766759E-04;  9.9959454E+02;  1.0000000E-01; -3.3589172E+02;3; -5.1766305E+00;  0.0000000E+00;  2.2132723E+01;0; -3.5677146E-02;  3.9950957E+04;  0.0000000E+00;  4.7842401E-01;  4.0000000E+04;  0.0000000E+00;  4.0016191E+04; -3.2594431E-02;  0.0000000E+00; -3.0827133E-03;  2.1577292E+03;
  8.0410965E-02;  9.9999998E-03;  2.8000641E-01;2992; -3.6492390E-03;  0.0000000E+00;  6.7325938E-04;  9.9918036E+02;  1.0000000E-01; -6.7904254E+02;3; -4.4768362E+00;  0.0000000E+00;  1.6595844E+01;0; -3.2397248E-02;  3.9925262E+04;  0.0000000E+00;  2.0635962E-01;  4.0000000E+04;  0.0000000E+00;  4.0006707E+04; -2.8591005E-02;  0.0000000E+00; -3.8062409E-03;  9.7506671E+02;
  8.0082648E-02;  9.9999998E-03;  2.9001334E-01;2993; -3.3176763E-03;  0.0000000E+00;  5.6668406E-04;  9.9885760E+02;  1.0000000E-01; -9.4644238E+02;3; -4.2275281E+00;  0.0000000E+00;  7.4839554E+00;0; -2.8849125E-02;  3.9909309E+04;  0.0000000E+00; -4.8538689E-02;  4.0000000E+04;  0.0000000E+00;  3.9996156E+04; -2.4480727E-02;  0.0000000E+00; -4.3683988E-03;  4.2655542E+02;
  7.9798393E-02;  9.9999998E-03;  3.0006751E-01;2994; -2.9757244E-03;  0.0000000E+00;  5.0908676E-04;  9.9865515E+02;  1.0000000E-01; -1.1141907E+03;3; -4.3005371E+00;  0.0000000E+00; -3.3491187E+00;0; -2.5093120E-02;  3.9903234E+04;  0.0000000E+00; -2.4716568E-01;  4.0000000E+04;  0.0000000E+00;  3.9984984E+04; -2.0399563E-02;  0.0000000E+00; -4.6935556E-03;  1.7987234E+03;
  9.1231257E-02;  9.9999998E-03;  2.4010056E-01;3049; -5.5908039E-03;  0.0000000E+00;  7.5352687E-04;  1.0010172E+03;  1.0000000E-01;  8.4264282E+02;3; -6.2275653E+00;  0.0000000E+00;  1.8920605E+01;0; -4.3177977E-02;  4.0063742E+04;  0.0000000E+00;  1.7045978E+00;  4.0000000E+04;  0.0000000E+00;  4.0024121E+04; -4.2576097E-02;  0.0000000E+00; -6.0188060E-04;  3.8212598E+03;
  9.1109619E-02;  9.9999998E-03;  2.5010055E-01;3050; -5.1078051E-03;  0.0000000E+00;  8.5347932E-04;  1.0005115E+03;  1.0000000E-01;  4.2379050E+02;3; -4.8559418E+00;  0.0000000E+00;  2.3452291E+01;0; -4.0993564E-02;  4.0018902E+04;  0.0000000E+00;  1.7120980E+00;  4.0000000E+04;  0.0000000E+00;  4.0025859E+04; -3.9722566E-02;  0.0000000E+00; -1.2709997E-03;  4.0426401E+03;
  9.0948485E-02;  9.9999998E-03;  2.6007760E-01;3051; -4.6421941E-03;  0.0000000E+00;  9.0110290E-04;  9.9997644E+02;  1.0000000E-01; -1.9505621E+01;3; -3.8012984E+00;  0.0000000E+00;  2.5631981E+01;0; -3.8515449E-02;  3.9976625E+04;  0.0000000E+00;  1.6454076E+00;  4.0000000E+04;  0.0000000E+00;  4.0023504E+04; -3.6485747E-02;  0.0000000E+00; -2.0297016E-03;  3.7832732E+03;
  9.0734996E-02;  9.9999998E-03;  2.7003828E-01;3052; -4.2030751E-03;  0.0000000E+00;  8.8359322E-04;  9.9945312E+02;  1.0000000E-01; -4.5307361E+02;3; -3.1341324E+00;  0.0000000E+00;  2.3822763E+01;0; -3.5720315E-02;  3.9939484E+04;  0.0000000E+00;  1.5020367E+00;  4.0000000E+04;  0.0000000E+00;  4.0016547E+04; -3.2910053E-02;  0.0000000E+00; -2.8102617E-03;  3.0368440E+03;
  9.0474874E-02;  9.9999998E-03;  2.7999750E-01;3053; -3.7937320E-03;  0.0000000E+00;  8.0484006E-04;  9.9898047E+02;  1.0000000E-01; -8.4466748E+02;3; -2.8505325E+00;  0.0000000E+00;  1.7182934E+01;0; -3.2603391E-02;  3.9910773E+04;  0.0000000E+00;  1.2888131E+00;  4.0000000E+04;  0.0000000E+00;  4.0006023E+04; -2.9071968E-02;  0.0000000E+00; -3.5314227E-03;  2.0383909E+03;
  9.0173572E-02;  9.9999998E-03;  2.8999645E-01;3054; -3.4029423E-03;  0.0000000E+00;  6.9650577E-04;  9.9861359E+02;  1.0000000E-01; -1.1486095E+03;3; -2.9078565E+00;  0.0000000E+00;  6.4571900E+00;0; -2.9178582E-02;  3.9892652E+04;  0.0000000E+00;  1.0255867E+00;  4.0000000E+04;  0.0000000E+00;  3.9993223E+04; -2.5069360E-02;  0.0000000E+00; -4.1092224E-03;  1.6391676E+03;
  8.9895345E-02;  9.9999998E-03;  3.0006379E-01;3055; -2.9893727E-03;  0.0000000E+00;  6.4321759E-04;  9.9838300E+02;  1.0000000E-01; -1.3396658E+03;3; -3.1637030E+00;  0.0000000E+00; -6.1734672E+00;0; -2.5491264E-02;  3.9885480E+04;  0.0000000E+00;  7.4419111E-01;  4.0000000E+04;  0.0000000E+00;  3.9980691E+04; -2.1030363E-02;  0.0000000E+00; -4.4609010E-03;  2.5101392E+03;
  1.0121324E-01;  9.9999998E-03;  2.4009116E-01;3110; -5.8780094E-03;  0.0000000E+00;  7.7826146E-04;  1.0007513E+03;  1.0000000E-01;  6.2250092E+02;3; -3.2061379E+00;  0.0000000E+00;  2.0039711E+01;0; -4.3075882E-02;  4.0039164E+04;  0.0000000E+00;  2.5063407E+00;  4.0000000E+04;  0.0000000E+00;  4.0027977E+04; -4.2636391E-02;  0.0000000E+00; -4.3949066E-04;  4.9718608E+03;
  1.0110959E-01;  9.9999998E-03;  2.5008962E-01;3111; -5.3719063E-03;  0.0000000E+00;  9.0673991E-04;  1.0002362E+03;  1.0000000E-01;  1.9564879E+02;3; -2.4786577E+00;  0.0000000E+00;  2.4775311E+01;0; -4.1143220E-02;  3.9994254E+04;  0.0000000E+00;  2.8069053E+00;  4.0000000E+04;  0.0000000E+00;  4.0029617E+04; -4.0107839E-02;  0.0000000E+00; -1.0353804E-03;  5.4452109E+03;
  1.0096779E-01;  9.9999998E-03;  2.6006404E-01;3112; -4.8709055E-03;  0.0000000E+00;  9.7624667E-04;  9.9967755E+02;  1.0000000E-01; -2.6715292E+02;3; -1.9781653E+00;  0.0000000E+00;  2.6852430E+01;0; -3.8899615E-02;  3.9950840E+04;  0.0000000E+00;  3.0534301E+00;  4.0000000E+04;  0.0000000E+00;  4.0025816E+04; -3.7168391E-02;  0.0000000E+00; -1.7312232E-03;  5.4906353E+03;
  1.0078494E-01;  9.9999998E-03;  2.7001455E-01;3113; -4.3828972E-03;  0.0000000E+00;  9.7200327E-04;  9.9912122E+02;  1.0000000E-01; -7.2807819E+02;3; -1.7578608E+00;  0.0000000E+00;  2.4422270E+01;0; -3.6310218E-02;  3.9912492E+04;  0.0000000E+00;  3.1947131E+00;  4.0000000E+04;  0.0000000E+00;  4.0018168E+04; -3.3845279E-02;  0.0000000E+00; -2.4649375E-03;  5.1452754E+03;
  1.0055988E-01;  9.9999998E-03;  2.7996209E-01;3114; -3.9107017E-03;  0.0000000E+00;  8.9800346E-04;  9.9861707E+02;  1.0000000E-01; -1.1457454E+03;3; -1.8241324E+00;  0.0000000E+00;  1.6544722E+01;0; -3.3356745E-02;  3.9882805E+04;  0.0000000E+00;  3.1823525E+00;  4.0000000E+04;  0.0000000E+00;  4.0005457E+04; -3.0195693E-02;  0.0000000E+00; -3.1610532E-03;  4.6476841E+03;
  1.0029431E-01;  9.9999998E-03;  2.8995073E-01;3115; -3.4383496E-03;  0.0000000E+00;  7.9589966E-04;  9.9822028E+02;  1.0000000E-01; -1.4744768E+03;3; -2.1339996E+00;  0.0000000E+00;  3.9750259E+00;0; -3.0037623E-02;  3.9864668E+04;  0.0000000E+00;  2.9944084E+00;  4.0000000E+04;  0.0000000E+00;  3.9990996E+04; -2.6301173E-02;  0.0000000E+00; -3.7364485E-03;  4.4246001E+03;
  1.0003378E-01;  9.9999998E-03;  3.0002949E-01;3116; -2.9108364E-03;  0.0000000E+00;  7.6591666E-04;  9.9797766E+02;  1.0000000E-01; -1.6754587E+03;3; -2.4699388E+00;  0.0000000E+00; -1.0748616E+01;0; -2.6368110E-02;  3.9858617E+04;  0.0000000E+00;  2.6378634E+00;  4.0000000E+04;  0.0000000E+00;  3.9975617E+04; -2.2265643E-02;  0.0000000E+00; -4.1024666E-03;  4.7595063E+03;
  1.1124473E-01;  9.9999998E-03;  2.4004567E-01;3171; -6.2078205E-03;  0.0000000E+00;  7.3334464E-04;  1.0003429E+03;  1.0000000E-01;  2.8404135E+02;3; -1.3713671E+00;  0.0000000E+00;  2.0776049E+01;0; -4.3618664E-02;  4.0001680E+04;  0.0000000E+00;  3.5042996E+00;  4.0000000E+04;  0.0000000E+00;  4.0033477E+04; -4.3323576E-02;  0.0000000E+00; -2.9508886E-04;  6.4836821E+03;
  1.1114146E-01;  9.9999998E-03;  2.5003925E-01;3172; -5.6855041E-03;  0.0000000E+00;  8.7379006E-04;  9.9982697E+02;  1.0000000E-01; -1.4335397E+02;3; -1.0628809E+00;  0.0000000E+00;  2.5658907E+01;0; -4.1967146E-02;  3.9957301E+04;  0.0000000E+00;  4.2891088E+00;  4.0000000E+04;  0.0000000E+00;  4.0034105E+04; -4.1171286E-02;  0.0000000E+00; -7.9585845E-04;  7.5065986E+03;
  1.1100759E-01;  9.9999998E-03;  2.6000825E-01;3173; -5.1555391E-03;  0.0000000E+00;  9.4769103E-04;  9.9925580E+02;  1.0000000E-01; -6.1657513E+02;3; -8.9330924E-01;  0.0000000E+00;  2.7598080E+01;0; -3.9988060E-02;  3.9913629E+04;  0.0000000E+00;  5.0723348E+00;  4.0000000E+04;  0.0000000E+00;  4.0030188E+04; -3.8584001E-02;  0.0000000E+00; -1.4040577E-03;  8.2396211E+03;
  1.1084742E-01;  9.9999998E-03;  2.6994890E-01;3174; -4.6193330E-03;  0.0000000E+00;  9.4563054E-04;  9.9867462E+02;  1.0000000E-01; -1.0980430E+03;3; -9.1082966E-01;  0.0000000E+00;  2.4589972E+01;0; -3.7628688E-02;  3.9874926E+04;  0.0000000E+00;  5.7298741E+00;  4.0000000E+04;  0.0000000E+00;  4.0020480E+04; -3.5562847E-02;  0.0000000E+00; -2.0658411E-03;  8.6779678E+03;
  1.1065929E-01;  9.9999998E-03;  2.7988049E-01;3175; -4.0727239E-03;  0.0000000E+00;  8.7678310E-04;  9.9813690E+02;  1.0000000E-01; -1.5435613E+03;3; -1.1644471E+00;  0.0000000E+00;  1.5554986E+01;0; -3.4848481E-02;  3.9844891E+04;  0.0000000E+00;  6.1275787E+00;  4.0000000E+04;  0.0000000E+00;  4.0006055E+04; -3.2136004E-02;  0.0000000E+00; -2.7124770E-03;  8.8811387E+03;
  1.1044501E-01;  9.9999998E-03;  2.8984743E-01;3176; -3.4913665E-03;  0.0000000E+00;  7.9111691E-04;  9.9771271E+02;  1.0000000E-01; -1.8949587E+03;3; -1.6518852E+00;  0.0000000E+00;  1.2509847E+00;0; -3.1614754E-02;  3.9826387E+04;  0.0000000E+00;  6.1619463E+00;  4.0000000E+04;  0.0000000E+00;  3.9989199E+04; -2.8352296E-02;  0.0000000E+00; -3.2624567E-03;  8.9479258E+03;
  1.1022145E-01;  9.9999998E-03;  2.9992932E-01;3177; -2.7978949E-03;  0.0000000E+00;  8.0673606E-04;  9.9744623E+02;  1.0000000E-01; -2.1157427E+03;3; -2.0532920E+00;  0.0000000E+00; -1.5895987E+01;0; -2.7872758E-02;  3.9821812E+04;  0.0000000E+00;  5.7749586E+00;  4.0000000E+04;  0.0000000E+00;  3.9971258E+04; -2.4251673E-02;  0.0000000E+00; -3.6210853E-03;  8.9683145E+03;
  1.2127900E-01;  9.9999998E-03;  2.3998140E-01;3232; -6.6190800E-03;  0.0000000E+00;  5.9328141E-04;  9.9989270E+02;  1.0000000E-01; -8.8886375E+01;3; -4.5655239E-01;  0.0000000E+00;  2.1378578E+01;0; -4.4855598E-02;  3.9959879E+04;  0.0000000E+00;  4.7143869E+00;  4.0000000E+04;  0.0000000E+00;  4.0038613E+04; -4.4669524E-02;  0.0000000E+00; -1.8607453E-04;  8.3382979E+03;
  1.2115669E-01;  9.9999998E-03;  2.4996610E-01;3233; -6.0903961E-03;  0.0000000E+00;  7.2233187E-04;  9.9937671E+02;  1.0000000E-01; -5.1638043E+02;3; -2.9287383E-01;  0.0000000E+00;  2.6470377E+01;0; -4.3526974E-02;  3.9915848E+04;  0.0000000E+00;  6.1758928E+00;  4.0000000E+04;  0.0000000E+00;  4.0039473E+04; -4.2949751E-02;  0.0000000E+00; -5.7722279E-04;  1.0235298E+04;
  1.2101239E-01;  9.9999998E-03;  2.5992545E-01;3234; -5.5377898E-03;  0.0000000E+00;  7.8456418E-04;  9.9879437E+02;  1.0000000E-01; -9.9883594E+02;3; -1.3917345E-01;  0.0000000E+00;  2.8461712E+01;0; -4.1862633E-02;  3.9872168E+04;  0.0000000E+00;  7.7433691E+00;  4.0000000E+04;  0.0000000E+00;  4.0035352E+04; -4.0781535E-02;  0.0000000E+00; -1.0810979E-03;  1.2067396E+04;
  1.2085624E-01;  9.9999998E-03;  2.6985806E-01;3235; -4.9605141E-03;  0.0000000E+00;  7.6776266E-04;  9.9819281E+02;  1.0000000E-01; -1.4972416E+03;3; -6.7839108E-02;  0.0000000E+00;  2.5182625E+01;0; -3.9787393E-02;  3.9832727E+04;  0.0000000E+00;  9.2036390E+00;  4.0000000E+04;  0.0000000E+00;  4.0025164E+04; -3.8130630E-02;  0.0000000E+00; -1.6567649E-03;  1.3703330E+04;
  1.2070247E-01;  9.9999998E-03;  2.7977458E-01;3236; -4.3436885E-03;  0.0000000E+00;  6.9244759E-04;  9.9762952E+02;  1.0000000E-01; -1.9638950E+03;3; -2.2137468E-01;  0.0000000E+00;  1.5514040E+01;0; -3.7225913E-02;  3.9801523E+04;  0.0000000E+00;  1.0309998E+01;  4.0000000E+04;  0.0000000E+00;  4.0009988E+04; -3.4985736E-02;  0.0000000E+00; -2.2401782E-03;  1.4967589E+04;
  1.2054927E-01;  9.9999998E-03;  2.8971824E-01;3237; -3.6433474E-03;  0.0000000E+00;  6.1972102E-04;  9.9716046E+02;  1.0000000E-01; -2.3525261E+03;3; -7.1990186E-01;  0.0000000E+00; -7.2874337E-02;0; -3.4078412E-02;  3.9781820E+04;  0.0000000E+00;  1.0821819E+01;  4.0000000E+04;  0.0000000E+00;  3.9990816E+04; -3.1331148E-02;  0.0000000E+00; -2.7472624E-03;  1.5646290E+04;
  1.2041396E-01;  9.9999998E-03;  2.9976872E-01;3238; -2.7555374E-03;  0.0000000E+00;  6.9647894E-04;  9.9682520E+02;  1.0000000E-01; -2.6302466E+03;3; -1.3089446E+00;  0.0000000E+00; -1.9431271E+01;0; -3.0167511E-02;  3.9774457E+04;  0.0000000E+00;  1.0533680E+01;  4.0000000E+04;  0.0000000E+00;  3.9970590E+04; -2.7103780E-02;  0.0000000E+00; -3.0637309E-03;  1.5558121E+04;
  1.3128826E-01;  9.9999998E-03;  2.3991857E-01;3293; -7.1179639E-03;  0.0000000E+00;  3.8555657E-04;  9.9948962E+02;  1.0000000E-01; -4.2285223E+02;3; -6.0590595E-02;  0.0000000E+00;  2.2057968E+01;0; -4.6734788E-02;  3.9921746E+04;  0.0000000E+00;  6.0843940E+00;  4.0000000E+04;  0.0000000E+00;  4.0044559E+04; -4.6607703E-02;  0.0000000E+00; -1.2708409E-04;  1.0439738E+04;
  1.3114862E-01;  9.9999998E-03;  2.4988864E-01;3294; -6.6033774E-03;  0.0000000E+00;  4.7546421E-04;  9.9896918E+02;  1.0000000E-01; -8.5400055E+02;3;  2.6378208E-01;  0.0000000E+00;  2.7598938E+01;0; -4.5802895E-02;  3.9876531E+04;  0.0000000E+00;  8.3881750E+00;  4.0000000E+04;  0.0000000E+00;  4.0047016E+04; -4.5394879E-02;  0.0000000E+00; -4.0801719E-04;  1.3516799E+04;
  1.3098837E-01;  9.9999998E-03;  2.5983429E-01;3295; -6.0394476E-03;  0.0000000E+00;  5.1329995E-04;  9.9837708E+02;  1.0000000E-01; -1.3445546E+03;3;  8.1053889E-01;  0.0000000E+00;  3.0148720E+01;0; -4.4544462E-02;  3.9831484E+04;  0.0000000E+00;  1.0994229E+01;  4.0000000E+04;  0.0000000E+00;  4.0042949E+04; -4.3739580E-02;  0.0000000E+00; -8.0488366E-04;  1.6863463E+04;
  1.3082899E-01;  9.9999998E-03;  2.6975277E-01;3296; -5.4255747E-03;  0.0000000E+00;  4.7668756E-04;  9.9776392E+02;  1.0000000E-01; -1.8525402E+03;3;  1.4965370E+00;  0.0000000E+00;  2.7485935E+01;0; -4.2858087E-02;  3.9791281E+04;  0.0000000E+00;  1.3614935E+01;  4.0000000E+04;  0.0000000E+00;  4.0032777E+04; -4.1564859E-02;  0.0000000E+00; -1.2932265E-03;  2.0215686E+04;
  1.3068408E-01;  9.9999998E-03;  2.7966073E-01;3297; -4.7504846E-03;  0.0000000E+00;  3.7498961E-04;  9.9718365E+02;  1.0000000E-01; -2.3332673E+03;3;  2.0292835E+00;  0.0000000E+00;  1.8149626E+01;0; -4.0622953E-02;  3.9759012E+04;  0.0000000E+00;  1.5853482E+01;  4.0000000E+04;  0.0000000E+00;  4.0018160E+04; -3.8799759E-02;  0.0000000E+00; -1.8231950E-03;  2.3112371E+04;
  1.3057528E-01;  9.9999998E-03;  2.8958544E-01;3298; -3.9593824E-03;  0.0000000E+00;  2.8602424E-04;  9.9667377E+02;  1.0000000E-01; -2.7557246E+03;3;  1.9678048E+00;  0.0000000E+00;  2.3088875E+00;0; -3.7647106E-02;  3.9736418E+04;  0.0000000E+00;  1.7265287E+01;  4.0000000E+04;  0.0000000E+00;  3.9999242E+04; -3.5350185E-02;  0.0000000E+00; -2.2969211E-03;  2.4985201E+04;
  1.3052028E-01;  9.9999998E-03;  2.9961872E-01;3299; -2.8823805E-03;  0.0000000E+00;  4.1391657E-04;  9.9622357E+02;  1.0000000E-01; -3.1287017E+03;3;  1.1686904E+00;  0.0000000E+00; -1.9165024E+01;0; -3.3483423E-02;  3.9722496E+04;  0.0000000E+00;  1.7333275E+01;  4.0000000E+04;  0.0000000E+00;  3.9976500E+04; -3.0939089E-02;  0.0000000E+00; -2.5443328E-03;  2.5170572E+04;
  1.4128967E-01;  9.9999998E-03;  2.3987506E-01;3354; -7.6972698E-03;  0.0000000E+00;  1.6551693E-04;  9.9919830E+02;  1.0000000E-01; -6.6417877E+02;3;  1.4305836E-01;  0.0000000E+00;  2.2833641E+01;0; -4.9134698E-02;  3.9892070E+04;  0.0000000E+00;  7.4833560E+00;  4.0000000E+04;  0.0000000E+00;  4.0050266E+04; -4.9008440E-02;  0.0000000E+00; -1.2625748E-04;  1.2582311E+04;
  1.4115240E-01;  9.9999998E-03;  2.4982215E-01;3355; -7.2126705E-03;  0.0000000E+00;  2.1104174E-04;  9.9865936E+02;  1.0000000E-01; -1.1106847E+03;3;  9.5109046E-01;  0.0000000E+00;  2.9206491E+01;0; -4.8705250E-02;  3.9843891E+04;  0.0000000E+00;  1.0731583E+01;  4.0000000E+04;  0.0000000E+00;  4.0054781E+04; -4.8398286E-02;  0.0000000E+00; -3.0696369E-04;  1.7073350E+04;
  1.4098579E-01;  9.9999998E-03;  2.5974587E-01;3356; -6.6643241E-03;  0.0000000E+00;  2.1014186E-04;  9.9805505E+02;  1.0000000E-01; -1.6113618E+03;3;  2.4234629E+00;  0.0000000E+00;  3.3117256E+01;0; -4.8003957E-02;  3.9796020E+04;  0.0000000E+00;  1.4622503E+01;  4.0000000E+04;  0.0000000E+00;  4.0053641E+04; -4.7392346E-02;  0.0000000E+00; -6.1161135E-04;  2.2350592E+04;
  1.4080128E-01;  9.9999998E-03;  2.6965463E-01;3357; -6.0317251E-03;  0.0000000E+00;  1.5265938E-04;  9.9744861E+02;  1.0000000E-01; -2.1137673E+03;3;  4.5031018E+00;  0.0000000E+00;  3.2270275E+01;0; -4.6873376E-02;  3.9753852E+04;  0.0000000E+00;  1.8839243E+01;  4.0000000E+04;  0.0000000E+00;  4.0045875E+04; -4.5845736E-02;  0.0000000E+00; -1.0276393E-03;  2.8055887E+04;
  1.4064933E-01;  9.9999998E-03;  2.7954924E-01;3358; -5.2893581E-03;  0.0000000E+00;  5.8056681E-05;  9.9687463E+02;  1.0000000E-01; -2.5893096E+03;3;  6.7659278E+00;  0.0000000E+00;  2.5088234E+01;0; -4.5108162E-02;  3.9720293E+04;  0.0000000E+00;  2.2821566E+01;  4.0000000E+04;  0.0000000E+00;  4.0033145E+04; -4.3604605E-02;  0.0000000E+00; -1.5035586E-03;  3.3458020E+04;
  1.4056048E-01;  9.9999998E-03;  2.8946269E-01;3359; -4.4110017E-03;  0.0000000E+00; -3.4201155E-05;  9.9633466E+02;  1.0000000E-01; -3.0366548E+03;3;  8.2602959E+00;  0.0000000E+00;  1.0622280E+01;0; -4.2434316E-02;  3.9694473E+04;  0.0000000E+00;  2.5782532E+01;  4.0000000E+04;  0.0000000E+00;  4.0015375E+04; -4.0480487E-02;  0.0000000E+00; -1.9538286E-03;  3.7445121E+04;
  1.4057671E-01;  9.9999998E-03;  2.9947960E-01;3360; -3.2025601E-03;  0.0000000E+00;  8.5030217E-05;  9.9571960E+02;  1.0000000E-01; -3.5462207E+03;3;  7.9293709E+00;  0.0000000E+00; -1.2341429E+01;0; -3.8107861E-02;  3.9668746E+04;  0.0000000E+00;  2.6661816E+01;  4.0000000E+04;  0.0000000E+00;  3.9992383E+04; -3.5958927E-02;  0.0000000E+00; -2.1489337E-03;  3.8546070E+04;
  1.5131409E-01;  9.9999998E-03;  2.3986520E-01;3415; -8.3489818E-03;  0.0000000E+00; -6.0313068E-06;  9.9902472E+02;  1.0000000E-01; -8.0797717E+02;3;  3.0662599E-01;  0.0000000E+00;  2.3420557E+01;0; -5.1878951E-02;  3.9873848E+04;  0.0000000E+00;  8.7124672E+00;  4.0000000E+04;  0.0000000E+00;  4.0054098E+04; -5.1702779E-02;  0.0000000E+00; -1.7617179E-04;  1.4439955E+04;
  1.5118937E-01;  9.9999998E-03;  2.4979295E-01;3416; -7.9059238E-03;  0.0000000E+00;  9.9659255E-06;  9.9845941E+02;  1.0000000E-01; -1.2763590E+03;3;  1.8788620E+00;  0.0000000E+00;  3.0868643E+01;0; -5.2065305E-02;  3.9820805E+04;  0.0000000E+00;  1.2896157E+01;  4.0000000E+04;  0.0000000E+00;  4.0061547E+04; -5.1797714E-02;  0.0000000E+00; -2.6759203E-04;  2.0417348E+04;
  1.5103026E-01;  9.9999998E-03;  2.5969705E-01;3417; -7.3876013E-03;  0.0000000E+00; -7.7063760E-06;  9.9783380E+02;  1.0000000E-01; -1.7946653E+03;3;  4.8518553E+00;  0.0000000E+00;  3.6799881E+01;0; -5.2085411E-02;  3.9766762E+04;  0.0000000E+00;  1.8217928E+01;  4.0000000E+04;  0.0000000E+00;  4.0064473E+04; -5.1599495E-02;  0.0000000E+00; -4.8591447E-04;  2.7907734E+04;
  1.5083343E-01;  9.9999998E-03;  2.6958853E-01;3418; -6.7595164E-03;  0.0000000E+00; -5.9405404E-05;  9.9723035E+02;  1.0000000E-01; -2.2946018E+03;3;  9.3950615E+00;  0.0000000E+00;  3.9077675E+01;0; -5.1723547E-02;  3.9720348E+04;  0.0000000E+00;  2.4471111E+01;  4.0000000E+04;  0.0000000E+00;  4.0062340E+04; -5.0898343E-02;  0.0000000E+00; -8.2520396E-04;  3.6654875E+04;
  1.5063651E-01;  9.9999998E-03;  2.7948543E-01;3419; -5.9692231E-03;  0.0000000E+00; -1.2215605E-04;  9.9670703E+02;  1.0000000E-01; -2.7281697E+03;3;  1.4917059E+01;  0.0000000E+00;  3.5388535E+01;0; -5.0629199E-02;  3.9686215E+04;  0.0000000E+00;  3.0960608E+01;  4.0000000E+04;  0.0000000E+00;  4.0053836E+04; -4.9395710E-02;  0.0000000E+00; -1.2334895E-03;  4.5658055E+04;
  1.5054272E-01;  9.9999998E-03;  2.8940573E-01;3420; -4.9653100E-03;  0.0000000E+00; -1.3857597E-04;  9.9615613E+02;  1.0000000E-01; -3.1845520E+03;3;  1.9803530E+01;  0.0000000E+00;  2.3345890E+01;0; -4.8304789E-02;  3.9657426E+04;  0.0000000E+00;  3.6305260E+01;  4.0000000E+04;  0.0000000E+00;  4.0039445E+04; -4.6715386E-02;  0.0000000E+00; -1.5894042E-03;  5.2950512E+04;
  1.5061969E-01;  9.9999998E-03;  2.9942948E-01;3421; -3.5654625E-03;  0.0000000E+00;  6.2518171E-05;  9.9528754E+02;  1.0000000E-01; -3.9041858E+03;3;  2.1349741E+01;  0.0000000E+00; -1.7529052E+00;0; -4.3638226E-02;  3.9613543E+04;  0.0000000E+00;  3.8372368E+01;  4.0000000E+04;  0.0000000E+00;  4.0014828E+04; -4.2013809E-02;  0.0000000E+00; -1.6244149E-03;  5.5513832E+04;
  1.6137107E-01;  9.9999998E-03;  2.3990157E-01;3476; -9.0584261E-03;  0.0000000E+00; -1.0833468E-04;  9.9894769E+02;  1.0000000E-01; -8.7182721E+02;3;  3.7535688E-01;  0.0000000E+00;  2.3239462E+01;0; -5.4750752E-02;  3.9867285E+04;  0.0000000E+00;  9.5413198E+00;  4.0000000E+04;  0.0000000E+00;  4.0054098E+04; -5.4491475E-02;  0.0000000E+00; -2.5927779E-04;  1.5598876E+04;
  1.6130126E-01;  9.9999998E-03;  2.4982013E-01;3477; -8.6643873E-03;  0.0000000E+00; -8.6881897E-05;  9.9831848E+02;  1.0000000E-01; -1.3930964E+03;3;  2.8316159E+00;  0.0000000E+00;  3.1438208E+01;0; -5.5650566E-02;  3.9805562E+04;  0.0000000E+00;  1.4415504E+01;  4.0000000E+04;  0.0000000E+00;  4.0065207E+04; -5.5396132E-02;  0.0000000E+00; -2.5443424E-04;  2.2781090E+04;
  1.6115546E-01;  9.9999998E-03;  2.5971475E-01;3478; -8.1826299E-03;  0.0000000E+00; -7.7331417E-05;  9.9764276E+02;  1.0000000E-01; -1.9529324E+03;3;  7.6841331E+00;  0.0000000E+00;  3.9237827E+01;0; -5.6516167E-02;  3.9742371E+04;  0.0000000E+00;  2.1020205E+01;  4.0000000E+04;  0.0000000E+00;  4.0073648E+04; -5.6161381E-02;  0.0000000E+00; -3.5478693E-04;  3.2347844E+04;
  1.6094925E-01;  9.9999998E-03;  2.6959944E-01;3479; -7.5625605E-03;  0.0000000E+00; -6.4030042E-05;  9.9701605E+02;  1.0000000E-01; -2.4721277E+03;3;  1.5620025E+01;  0.0000000E+00;  4.4679585E+01;0; -5.7063051E-02;  3.9687422E+04;  0.0000000E+00;  2.9445103E+01;  4.0000000E+04;  0.0000000E+00;  4.0077945E+04; -5.6523446E-02;  0.0000000E+00; -5.3960341E-04;  4.4400418E+04;
  1.6072641E-01;  9.9999998E-03;  2.7951366E-01;3480; -6.7068883E-03;  0.0000000E+00;  2.8528505E-06;  9.9648303E+02;  1.0000000E-01; -2.9137449E+03;3;  2.5931646E+01;  0.0000000E+00;  4.3665333E+01;0; -5.6695446E-02;  3.9648492E+04;  0.0000000E+00;  3.8891537E+01;  4.0000000E+04;  0.0000000E+00;  4.0073648E+04; -5.5988938E-02;  0.0000000E+00; -7.0650806E-04;  5.7673230E+04;
  1.6060926E-01;  9.9999998E-03;  2.8948992E-01;3481; -5.4647555E-03;  0.0000000E+00;  2.1273922E-04;  9.9583881E+02;  1.0000000E-01; -3.4474580E+03;3;  3.5422787E+01;  0.0000000E+00;  3.0215265E+01;0; -5.4319214E-02;  3.9613684E+04;  0.0000000E+00;  4.6878181E+01;  4.0000000E+04;  0.0000000E+00;  4.0057805E+04; -5.3673424E-02;  0.0000000E+00; -6.4579025E-04;  6.8585109E+04;
  1.6075294E-01;  9.9999998E-03;  2.9957032E-01;3482; -3.6675825E-03;  0.0000000E+00;  6.1909005E-04;  9.9446216E+02;  1.0000000E-01; -4.5880186E+03;3;  3.9202312E+01;  0.0000000E+00; -3.2347908E+00;0; -4.8307315E-02;  3.9537117E+04;  0.0000000E+00;  4.9171688E+01;  4.0000000E+04;  0.0000000E+00;  4.0025555E+04; -4.8117623E-02;  0.0000000E+00; -1.8969364E-04;  7.1230203E+04;
  1.7141534E-01;  9.9999998E-03;  2.3999415E-01;3537; -9.7904475E-03;  0.0000000E+00; -1.5030889E-04;  9.9891412E+02;  1.0000000E-01; -8.9962891E+02;3;  8.8006668E-02;  0.0000000E+00;  2.1509487E+01;0; -5.7504687E-02;  3.9871086E+04;  0.0000000E+00;  9.8143177E+00;  4.0000000E+04;  0.0000000E+00;  4.0047441E+04; -5.7150111E-02;  0.0000000E+00; -3.5457854E-04;  1.5705172E+04;
  1.7141454E-01;  9.9999998E-03;  2.4992509E-01;3538; -9.4393948E-03;  0.0000000E+00; -1.0488091E-04;  9.9818335E+02;  1.0000000E-01; -1.5050438E+03;3;  3.1310372E+00;  0.0000000E+00;  2.9085747E+01;0; -5.9154406E-02;  3.9800129E+04;  0.0000000E+00;  1.4851429E+01;  4.0000000E+04;  0.0000000E+00;  4.0059230E+04; -5.8912560E-02;  0.0000000E+00; -2.4184579E-04;  2.3317752E+04;
  1.7132886E-01;  9.9999998E-03;  2.5982469E-01;3539; -8.9894924E-03;  0.0000000E+00; -3.5420286E-05;  9.9738031E+02;  1.0000000E-01; -2.1703584E+03;3;  9.5065060E+00;  0.0000000E+00;  3.6850754E+01;0; -6.0913775E-02;  3.9723258E+04;  0.0000000E+00;  2.1966639E+01;  4.0000000E+04;  0.0000000E+00;  4.0071434E+04; -6.0751908E-02;  0.0000000E+00; -1.6186899E-04;  3.3906906E+04;
  1.7115620E-01;  9.9999998E-03;  2.6972303E-01;3540; -8.3541851E-03;  0.0000000E+00;  1.0600983E-04;  9.9660931E+02;  1.0000000E-01; -2.8091057E+03;3;  2.0477489E+01;  0.0000000E+00;  4.2530167E+01;0; -6.2337235E-02;  3.9652410E+04;  0.0000000E+00;  3.1694567E+01;  4.0000000E+04;  0.0000000E+00;  4.0079820E+04; -6.2325455E-02;  0.0000000E+00; -1.1779135E-05;  4.8088711E+04;
  1.7095627E-01;  9.9999998E-03;  2.7967346E-01;3541; -7.3590935E-03;  0.0000000E+00;  3.7299449E-04;  9.9585693E+02;  1.0000000E-01; -3.4324460E+03;3;  3.5175648E+01;  0.0000000E+00;  3.9124420E+01;0; -6.2432375E-02;  3.9595387E+04;  0.0000000E+00;  4.3083942E+01;  4.0000000E+04;  0.0000000E+00;  4.0076039E+04; -6.2816605E-02;  0.0000000E+00;  3.8423087E-04;  6.4249898E+04;
  1.7088260E-01;  9.9999998E-03;  2.8972262E-01;3542; -5.7764654E-03;  0.0000000E+00;  7.4355671E-04;  9.9472162E+02;  1.0000000E-01; -4.3730615E+03;3;  4.7761322E+01;  0.0000000E+00;  1.4728609E+01;0; -5.9542276E-02;  3.9531047E+04;  0.0000000E+00;  5.1700630E+01;  4.0000000E+04;  0.0000000E+00;  4.0049617E+04; -6.0606588E-02;  0.0000000E+00;  1.0643126E-03;  7.5962883E+04;
  1.7114757E-01;  9.9999998E-03;  2.9987520E-01;3543; -3.6792962E-03;  0.0000000E+00;  8.5391517E-04;  9.9219006E+02;  1.0000000E-01; -6.4703848E+03;3;  4.9758427E+01;  0.0000000E+00; -3.9819546E+01;0; -5.2884769E-02;  3.9380223E+04;  0.0000000E+00;  5.0057453E+01;  4.0000000E+04;  0.0000000E+00;  4.0000309E+04; -5.4087795E-02;  0.0000000E+00;  1.2030280E-03;  7.2824602E+04;
  1.8138248E-01;  9.9999998E-03;  2.4012320E-01;3598; -1.0495758E-02;  0.0000000E+00; -1.7015876E-04;  9.9888800E+02;  1.0000000E-01; -9.2125787E+02;3; -8.4657681E-01;  0.0000000E+00;  1.7926270E+01;0; -5.9920404E-02;  3.9884754E+04;  0.0000000E+00;  9.6284304E+00;  4.0000000E+04;  0.0000000E+00;  4.0031156E+04; -5.9458520E-02;  0.0000000E+00; -4.6188515E-04;  1.4898872E+04;
  1.8142024E-01;  9.9999998E-03;  2.5007832E-01;3599; -1.0172319E-02;  0.0000000E+00; -1.3813894E-04;  9.9806891E+02;  1.0000000E-01; -1.5998560E+03;3;  2.0183749E+00;  0.0000000E+00;  2.3047270E+01;0; -6.2333811E-02;  3.9810066E+04;  0.0000000E+00;  1.4341235E+01;  4.0000000E+04;  0.0000000E+00;  4.0040027E+04; -6.2031224E-02;  0.0000000E+00; -3.0258528E-04;  2.2136852E+04;
  1.8140614E-01;  9.9999998E-03;  2.5999936E-01;3600; -9.7166123E-03;  0.0000000E+00; -4.5312288E-05;  9.9711029E+02;  1.0000000E-01; -2.3940557E+03;3;  8.5394650E+00;  0.0000000E+00;  2.7673029E+01;0; -6.4978860E-02;  3.9722008E+04;  0.0000000E+00;  2.0961048E+01;  4.0000000E+04;  0.0000000E+00;  4.0050625E+04; -6.4888872E-02;  0.0000000E+00; -8.9988476E-05;  3.2237217E+04;
  1.8133768E-01;  9.9999998E-03;  2.6992479E-01;3601; -9.0285921E-03;  0.0000000E+00;  1.3284333E-04;  9.9603796E+02;  1.0000000E-01; -3.2824751E+03;3;  2.0203524E+01;  0.0000000E+00;  2.8476225E+01;0; -6.7329884E-02;  3.9628160E+04;  0.0000000E+00;  2.9976631E+01;  4.0000000E+04;  0.0000000E+00;  4.0058098E+04; -6.7630887E-02;  0.0000000E+00;  3.0100509E-04;  4.5697652E+04;
  1.8127544E-01;  9.9999998E-03;  2.7989888E-01;3602; -7.9285279E-03;  0.0000000E+00;  3.7138059E-04;  9.9471680E+02;  1.0000000E-01; -4.3770122E+03;3;  3.5843082E+01;  0.0000000E+00;  1.6428560E+01;0; -6.8333842E-02;  3.9528766E+04;  0.0000000E+00;  3.9857246E+01;  4.0000000E+04;  0.0000000E+00;  4.0050598E+04; -6.9232777E-02;  0.0000000E+00;  8.9893490E-04;  6.0016383E+04;
  1.8135983E-01;  9.9999998E-03;  2.8994894E-01;3603; -6.3429689E-03;  0.0000000E+00;  3.9889172E-04;  9.9260950E+02;  1.0000000E-01; -6.1228887E+03;3;  4.7875587E+01;  0.0000000E+00; -2.1070217E+01;0; -6.7199580E-02;  3.9391543E+04;  0.0000000E+00;  4.4662701E+01;  4.0000000E+04;  0.0000000E+00;  4.0019480E+04; -6.8111658E-02;  0.0000000E+00;  9.1207703E-04;  6.6497969E+04;
  1.8172354E-01;  9.9999998E-03;  3.0001163E-01;3604; -5.1503922E-03;  0.0000000E+00; -4.5159526E-04;  9.8894159E+02;  1.0000000E-01; -9.1616670E+03;3;  4.8935078E+01;  0.0000000E+00; -7.7648811E+01;0; -6.8067335E-02;  3.9138953E+04;  0.0000000E+00;  3.7865532E+01;  4.0000000E+04;  0.0000000E+00;  3.9981703E+04; -6.6071600E-02;  0.0000000E+00; -1.9957328E-03;  5.5645336E+04;
  1.9127887E-01;  9.9999998E-03;  2.4024038E-01;3659; -1.1131764E-02;  0.0000000E+00; -2.3374867E-04;  9.9885229E+02;  1.0000000E-01; -9.5083728E+02;3; -2.4178779E+00;  0.0000000E+00;  1.3229573E+01;0; -6.1890937E-02;  3.9904750E+04;  0.0000000E+00;  9.2911625E+00;  4.0000000E+04;  0.0000000E+00;  4.0008285E+04; -6.1243918E-02;  0.0000000E+00; -6.4701791E-04;  1.3987625E+04;
  1.9132818E-01;  9.9999998E-03;  2.5020784E-01;3660; -1.0813498E-02;  0.0000000E+00; -2.6917955E-04;  9.9801959E+02;  1.0000000E-01; -1.6407438E+03;3; -4.7837308E-01;  0.0000000E+00;  1.5188235E+01;0; -6.5093264E-02;  3.9833465E+04;  0.0000000E+00;  1.3538928E+01;  4.0000000E+04;  0.0000000E+00;  4.0012496E+04; -6.4479321E-02;  0.0000000E+00; -6.1393977E-04;  2.0579562E+04;
  1.9135113E-01;  9.9999998E-03;  2.6014072E-01;3661; -1.0330932E-02;  0.0000000E+00; -2.3543714E-04;  9.9701422E+02;  1.0000000E-01; -2.4736584E+03;3;  4.8946400E+00;  0.0000000E+00;  1.5737030E+01;0; -6.8697616E-02;  3.9744840E+04;  0.0000000E+00;  1.9353313E+01;  4.0000000E+04;  0.0000000E+00;  4.0020121E+04; -6.8154708E-02;  0.0000000E+00; -5.4291089E-04;  2.9632467E+04;
  1.9136587E-01;  9.9999998E-03;  2.7008170E-01;3662; -9.5425462E-03;  0.0000000E+00; -8.3777937E-05;  9.9575433E+02;  1.0000000E-01; -3.5174314E+03;3;  1.4918575E+01;  0.0000000E+00;  1.0972170E+01;0; -7.1923189E-02;  3.9638043E+04;  0.0000000E+00;  2.6713118E+01;  4.0000000E+04;  0.0000000E+00;  4.0024742E+04; -7.1745761E-02;  0.0000000E+00; -1.7742720E-04;  4.0935156E+04;
  1.9148070E-01;  9.9999998E-03;  2.8004909E-01;3663; -8.4615611E-03;  0.0000000E+00; -2.6025340E-05;  9.9387030E+02;  1.0000000E-01; -5.0783257E+03;3;  2.8030701E+01;  0.0000000E+00; -6.8910966E+00;0; -7.4617036E-02;  3.9491707E+04;  0.0000000E+00;  3.2238491E+01;  4.0000000E+04;  0.0000000E+00;  4.0019418E+04; -7.4521601E-02;  0.0000000E+00; -9.5433221E-05;  4.9307789E+04;
  1.9180255E-01;  9.9999998E-03;  2.9000136E-01;3664; -7.6433346E-03;  0.0000000E+00; -3.8215928E-04;  9.9083746E+02;  1.0000000E-01; -7.5909951E+03;3;  3.9427292E+01;  0.0000000E+00; -3.5363308E+01;0; -7.9115547E-02;  3.9253793E+04;  0.0000000E+00;  2.9609974E+01;  4.0000000E+04;  0.0000000E+00;  4.0014648E+04; -7.7371776E-02;  0.0000000E+00; -1.7437693E-03;  4.5147125E+04;
  1.9217914E-01;  9.9999998E-03;  2.9989555E-01;3665; -7.9212952E-03;  0.0000000E+00; -9.6727075E-04;  9.8687579E+02;  1.0000000E-01; -1.0873174E+04;3;  5.0952381E+01;  0.0000000E+00; -5.4291039E+01;0; -8.9209974E-02;  3.8921715E+04;  0.0000000E+00;  2.2165552E+01;  4.0000000E+04;  0.0000000E+00;  4.0033262E+04; -8.4602788E-02;  0.0000000E+00; -4.6071839E-03;  3.2469701E+04;
  2.0114870E-01;  9.9999998E-03;  2.4029139E-01;3720; -1.1688001E-02;  0.0000000E+00; -3.3699593E-04;  9.9883472E+02;  1.0000000E-01; -9.6540479E+02;3; -4.1531758E+00;  0.0000000E+00;  9.2886572E+00;0; -6.3334987E-02;  3.9924590E+04;  0.0000000E+00;  9.0969915E+00;  4.0000000E+04;  0.0000000E+00;  3.9987227E+04; -6.2403601E-02;  0.0000000E+00; -9.3138666E-04;  1.3761334E+04;
  2.0119359E-01;  9.9999998E-03;  2.5025627E-01;3721; -1.1362576E-02;  0.0000000E+00; -4.3971653E-04;  9.9808636E+02;  1.0000000E-01; -1.5853872E+03;3; -3.3664477E+00;  0.0000000E+00;  9.2284794E+00;0; -6.7255877E-02;  3.9862883E+04;  0.0000000E+00;  1.3127401E+01;  4.0000000E+04;  0.0000000E+00;  3.9988895E+04; -6.6090465E-02;  0.0000000E+00; -1.1654122E-03;  1.9999422E+04;
  2.0122871E-01;  9.9999998E-03;  2.6019245E-01;3722; -1.0835042E-02;  0.0000000E+00; -4.3275330E-04;  9.9718573E+02;  1.0000000E-01; -2.3315884E+03;3;  4.0615138E-01;  0.0000000E+00;  7.5381479E+00;0; -7.1600519E-02;  3.9782719E+04;  0.0000000E+00;  1.8517996E+01;  4.0000000E+04;  0.0000000E+00;  3.9995863E+04; -7.0290051E-02;  0.0000000E+00; -1.3104704E-03;  2.8396145E+04;
  2.0128904E-01;  9.9999998E-03;  2.7014318E-01;3723; -9.9541470E-03;  0.0000000E+00; -2.9806589E-04;  9.9593323E+02;  1.0000000E-01; -3.3692380E+03;3;  7.9488978E+00;  0.0000000E+00; -2.2859024E-01;0; -7.5455032E-02;  3.9676957E+04;  0.0000000E+00;  2.4617508E+01;  4.0000000E+04;  0.0000000E+00;  3.9999652E+04; -7.4386746E-02;  0.0000000E+00; -1.0682831E-03;  3.7891746E+04;
  2.0150028E-01;  9.9999998E-03;  2.8010660E-01;3724; -8.9099156E-03;  0.0000000E+00; -2.9864613E-04;  9.9386731E+02;  1.0000000E-01; -5.0807944E+03;3;  1.7182499E+01;  0.0000000E+00; -1.8143822E+01;0; -7.9370067E-02;  3.9509836E+04;  0.0000000E+00;  2.6254507E+01;  4.0000000E+04;  0.0000000E+00;  4.0000070E+04; -7.7994324E-02;  0.0000000E+00; -1.3757434E-03;  4.0519086E+04;
  2.0189358E-01;  9.9999998E-03;  2.9001325E-01;3725; -8.7604923E-03;  0.0000000E+00; -5.3253275E-04;  9.9071411E+02;  1.0000000E-01; -7.6931650E+03;3;  2.6743105E+01;  0.0000000E+00; -2.9199020E+01;0; -8.7339774E-02;  3.9233438E+04;  0.0000000E+00;  1.8558680E+01;  4.0000000E+04;  0.0000000E+00;  4.0024367E+04; -8.4360778E-02;  0.0000000E+00; -2.9789929E-03;  2.8432387E+04;
  2.0208094E-01;  9.9999998E-03;  2.9991913E-01;3726; -9.0460693E-03;  0.0000000E+00; -4.5080940E-04;  9.8749646E+02;  1.0000000E-01; -1.0358966E+04;3;  4.1738819E+01;  0.0000000E+00; -3.5939117E+01;0; -9.6474476E-02;  3.8943945E+04;  0.0000000E+00;  1.6294689E+01;  4.0000000E+04;  0.0000000E+00;  4.0058277E+04; -9.3594864E-02;  0.0000000E+00; -2.8796117E-03;  2.3346676E+04;
  2.1104328E-01;  9.9999998E-03;  2.4026650E-01;3781; -1.2184056E-02;  0.0000000E+00; -4.2020358E-04;  9.9885730E+02;  1.0000000E-01; -9.4668927E+02;3; -5.4996386E+00;  0.0000000E+00;  7.3883777E+00;0; -6.4143710E-02;  3.9937910E+04;  0.0000000E+00;  8.9855947E+00;  4.0000000E+04;  0.0000000E+00;  3.9976191E+04; -6.2932804E-02;  0.0000000E+00; -1.2109049E-03;  1.3803872E+04;
  2.1107103E-01;  9.9999998E-03;  2.5023046E-01;3782; -1.1853629E-02;  0.0000000E+00; -5.5598613E-04;  9.9826666E+02;  1.0000000E-01; -1.4360581E+03;3; -5.7435966E+00;  0.0000000E+00;  6.9317870E+00;0; -6.8585329E-02;  3.9889027E+04;  0.0000000E+00;  1.3093315E+01;  4.0000000E+04;  0.0000000E+00;  3.9977379E+04; -6.6852361E-02;  0.0000000E+00; -1.7329659E-03;  2.0036799E+04;
  2.1110326E-01;  9.9999998E-03;  2.6017794E-01;3783; -1.1279222E-02;  0.0000000E+00; -5.3446175E-04;  9.9753766E+02;  1.0000000E-01; -2.0399917E+03;3; -3.6508422E+00;  0.0000000E+00;  4.6703506E+00;0; -7.3313996E-02;  3.9823168E+04;  0.0000000E+00;  1.8510790E+01;  4.0000000E+04;  0.0000000E+00;  3.9984453E+04; -7.1289986E-02;  0.0000000E+00; -2.0240077E-03;  2.8345301E+04;
  2.1120085E-01;  9.9999998E-03;  2.7014339E-01;3784; -1.0327782E-02;  0.0000000E+00; -4.0639719E-04;  9.9638031E+02;  1.0000000E-01; -2.9988289E+03;3;  1.0019296E+00;  0.0000000E+00; -3.9710701E+00;0; -7.7499360E-02;  3.9725551E+04;  0.0000000E+00;  2.3604460E+01;  4.0000000E+04;  0.0000000E+00;  3.9987543E+04; -7.5589038E-02;  0.0000000E+00; -1.9103199E-03;  3.6263715E+04;
  2.1147418E-01;  9.9999998E-03;  2.8010526E-01;3785; -9.3914196E-03;  0.0000000E+00; -3.8512927E-04;  9.9436377E+02;  1.0000000E-01; -4.6694976E+03;3;  6.1585169E+00;  0.0000000E+00; -1.8148399E+01;0; -8.2157508E-02;  3.9555309E+04;  0.0000000E+00;  2.1876354E+01;  4.0000000E+04;  0.0000000E+00;  3.9994332E+04; -7.9851940E-02;  0.0000000E+00; -2.3055645E-03;  3.3685441E+04;
  2.1176609E-01;  9.9999998E-03;  2.9003885E-01;3786; -9.1555091E-03;  0.0000000E+00; -4.8082377E-04;  9.9170306E+02;  1.0000000E-01; -6.8738301E+03;3;  1.1158174E+01;  0.0000000E+00; -2.6670937E+01;0; -8.9802049E-02;  3.9316254E+04;  0.0000000E+00;  1.4700798E+01;  4.0000000E+04;  0.0000000E+00;  4.0018852E+04; -8.6331293E-02;  0.0000000E+00; -3.4707591E-03;  2.1737219E+04;
  2.1187249E-01;  9.9999998E-03;  2.9999137E-01;3787; -8.9621944E-03;  0.0000000E+00; -5.2947074E-04;  9.8894781E+02;  1.0000000E-01; -9.1565312E+03;3;  1.8959757E+01;  0.0000000E+00; -3.9510555E+01;0; -9.7762175E-02;  3.9074523E+04;  0.0000000E+00;  1.3339719E+01;  4.0000000E+04;  0.0000000E+00;  4.0040547E+04; -9.3485683E-02;  0.0000000E+00; -4.2764926E-03;  1.7136598E+04;
  2.2100252E-01;  9.9999998E-03;  2.4019518E-01;3842; -1.2647787E-02;  0.0000000E+00; -4.1703810E-04;  9.9888867E+02;  1.0000000E-01; -9.2071472E+02;3; -6.1946621E+00;  0.0000000E+00;  6.9772668E+00;0; -6.4186685E-02;  3.9940797E+04;  0.0000000E+00;  8.5506105E+00;  4.0000000E+04;  0.0000000E+00;  3.9976047E+04; -6.2911570E-02;  0.0000000E+00; -1.2751122E-03;  1.3141132E+04;
  2.2101752E-01;  9.9999998E-03;  2.5017154E-01;3843; -1.2318890E-02;  0.0000000E+00; -5.5416574E-04;  9.9844598E+02;  1.0000000E-01; -1.2874697E+03;3; -7.3922219E+00;  0.0000000E+00;  6.8467240E+00;0; -6.8855740E-02;  3.9904496E+04;  0.0000000E+00;  1.2553554E+01;  4.0000000E+04;  0.0000000E+00;  3.9978039E+04; -6.6864461E-02;  0.0000000E+00; -1.9912808E-03;  1.9154254E+04;
  2.2106034E-01;  9.9999998E-03;  2.6013669E-01;3844; -1.1737887E-02;  0.0000000E+00; -5.1522884E-04;  9.9785535E+02;  1.0000000E-01; -1.7767893E+03;3; -7.1199899E+00;  0.0000000E+00;  4.8045650E+00;0; -7.3698074E-02;  3.9850668E+04;  0.0000000E+00;  1.7491333E+01;  4.0000000E+04;  0.0000000E+00;  3.9983707E+04; -7.1342006E-02;  0.0000000E+00; -2.3560650E-03;  2.6677918E+04;
  2.2120805E-01;  9.9999998E-03;  2.7011007E-01;3845; -1.0833000E-02;  0.0000000E+00; -3.2202271E-04;  9.9680884E+02;  1.0000000E-01; -2.6438264E+03;3; -5.4582524E+00;  0.0000000E+00; -2.0026736E+00;0; -7.7713385E-02;  3.9759914E+04;  0.0000000E+00;  2.0604151E+01;  4.0000000E+04;  0.0000000E+00;  3.9989230E+04; -7.5805992E-02;  0.0000000E+00; -1.9073951E-03;  3.1588078E+04;
  2.2147535E-01;  9.9999998E-03;  2.8007969E-01;3846; -1.0005425E-02;  0.0000000E+00; -2.1338084E-04;  9.9504333E+02;  1.0000000E-01; -4.1065010E+03;3; -4.2591200E+00;  0.0000000E+00; -1.2272460E+01;0; -8.2233086E-02;  3.9606465E+04;  0.0000000E+00;  1.7033510E+01;  4.0000000E+04;  0.0000000E+00;  3.9999012E+04; -8.0488279E-02;  0.0000000E+00; -1.7448067E-03;  2.6150977E+04;
  2.2167999E-01;  9.9999998E-03;  2.9003966E-01;3847; -9.5582642E-03;  0.0000000E+00; -2.1879224E-04;  9.9287689E+02;  1.0000000E-01; -5.9013638E+03;3; -3.5763333E+00;  0.0000000E+00; -2.1756399E+01;0; -8.8630833E-02;  3.9412801E+04;  0.0000000E+00;  1.1422930E+01;  4.0000000E+04;  0.0000000E+00;  4.0016594E+04; -8.6301818E-02;  0.0000000E+00; -2.3290138E-03;  1.6450576E+04;
  2.2175801E-01;  9.9999998E-03;  3.0000800E-01;3848; -9.0954062E-03;  0.0000000E+00; -2.3261321E-04;  9.9055371E+02;  1.0000000E-01; -7.8260503E+03;3; -5.6102800E-01;  0.0000000E+00; -3.5404427E+01;0; -9.4921492E-02;  3.9209879E+04;  0.0000000E+00;  1.0274162E+01;  4.0000000E+04;  0.0000000E+00;  4.0033012E+04; -9.2010215E-02;  0.0000000E+00; -2.9112799E-03;  1.2375496E+04;
  2.3102781E-01;  9.9999998E-03;  2.4010627E-01;3903; -1.3105034E-02;  0.0000000E+00; -2.8712553E-04;  9.9891858E+02;  1.0000000E-01; -8.9592529E+02;3; -6.2021775E+00;  0.0000000E+00;  7.1667538E+00;0; -6.3357301E-02;  3.9934219E+04;  0.0000000E+00;  7.5128207E+00;  4.0000000E+04;  0.0000000E+00;  3.9985707E+04; -6.2461197E-02;  0.0000000E+00; -8.9610275E-04;  1.1396449E+04;
  2.3104015E-01;  9.9999998E-03;  2.5010532E-01;3904; -1.2794795E-02;  0.0000000E+00; -4.1454189E-04;  9.9857904E+02;  1.0000000E-01; -1.1772506E+03;3; -8.2111940E+00;  0.0000000E+00;  7.5128455E+00;0; -6.7936905E-02;  3.9908211E+04;  0.0000000E+00;  1.0925705E+01;  4.0000000E+04;  0.0000000E+00;  3.9985418E+04; -6.6287324E-02;  0.0000000E+00; -1.6495789E-03;  1.6581018E+04;
  2.3110199E-01;  9.9999998E-03;  2.6008704E-01;3905; -1.2267935E-02;  0.0000000E+00; -3.4365707E-04;  9.9810632E+02;  1.0000000E-01; -1.5688939E+03;3; -9.5907993E+00;  0.0000000E+00;  6.4119291E+00;0; -7.2514184E-02;  3.9864934E+04;  0.0000000E+00;  1.4573298E+01;  4.0000000E+04;  0.0000000E+00;  3.9991277E+04; -7.0673458E-02;  0.0000000E+00; -1.8407225E-03;  2.2203027E+04;
  2.3124655E-01;  9.9999998E-03;  2.7007058E-01;3906; -1.1453602E-02;  0.0000000E+00; -5.3442749E-05;  9.9725848E+02;  1.0000000E-01; -2.2712937E+03;3; -1.0594087E+01;  0.0000000E+00;  1.8756350E+00;0; -7.5698167E-02;  3.9790105E+04;  0.0000000E+00;  1.6235006E+01;  4.0000000E+04;  0.0000000E+00;  3.9997184E+04; -7.5180419E-02;  0.0000000E+00; -5.1774888E-04;  2.4946381E+04;
  2.3145925E-01;  9.9999998E-03;  2.8005284E-01;3907; -1.0650842E-02;  0.0000000E+00;  1.3617358E-04;  9.9586377E+02;  1.0000000E-01; -3.4267673E+03;3; -1.2465487E+01;  0.0000000E+00; -6.2336979E+00;0; -7.9233505E-02;  3.9669082E+04;  0.0000000E+00;  1.2913371E+01;  4.0000000E+04;  0.0000000E+00;  4.0003949E+04; -7.9852566E-02;  0.0000000E+00;  6.1906414E-04;  1.9945293E+04;
  2.3162144E-01;  9.9999998E-03;  2.9002789E-01;3908; -1.0088683E-02;  0.0000000E+00;  2.1451739E-04;  9.9413031E+02;  1.0000000E-01; -4.8629243E+03;3; -1.4966563E+01;  0.0000000E+00; -1.5172829E+01;0; -8.4110446E-02;  3.9514766E+04;  0.0000000E+00;  8.1210938E+00;  4.0000000E+04;  0.0000000E+00;  4.0016520E+04; -8.5140005E-02;  0.0000000E+00;  1.0295568E-03;  1.1868312E+04;
  2.3168954E-01;  9.9999998E-03;  3.0000484E-01;3909; -9.4912862E-03;  0.0000000E+00;  2.4276559E-04;  9.9221332E+02;  1.0000000E-01; -6.4511260E+03;3; -1.5324563E+01;  0.0000000E+00; -2.7249144E+01;0; -8.9055635E-02;  3.9347242E+04;  0.0000000E+00;  6.8046608E+00;  4.0000000E+04;  0.0000000E+00;  4.0029449E+04; -9.0039492E-02;  0.0000000E+00;  9.8385569E-04;  8.3721436E+03;
  2.4106076E-01;  9.9999998E-03;  2.4003769E-01;3964; -1.3569965E-02;  0.0000000E+00; -1.0541611E-04;  9.9890851E+02;  1.0000000E-01; -9.0427075E+02;3; -5.7692046E+00;  0.0000000E+00;  6.7978821E+00;0; -6.1908599E-02;  3.9923430E+04;  0.0000000E+00;  6.1462159E+00;  4.0000000E+04;  0.0000000E+00;  3.9996035E+04; -6.1714582E-02;  0.0000000E+00; -1.9401812E-04;  9.2463887E+03;
  2.4111396E-01;  9.9999998E-03;  2.5004813E-01;3965; -1.3302775E-02;  0.0000000E+00; -1.8216630E-04;  9.9865863E+02;  1.0000000E-01; -1.1112772E+03;3; -8.2239208E+00;  0.0000000E+00;  7.7651558E+00;0; -6.5981194E-02;  3.9904797E+04;  0.0000000E+00;  8.3556442E+00;  4.0000000E+04;  0.0000000E+00;  3.9996188E+04; -6.5285169E-02;  0.0000000E+00; -6.9602340E-04;  1.2682771E+04;
  2.4118496E-01;  9.9999998E-03;  2.6004350E-01;3966; -1.2864490E-02;  0.0000000E+00; -7.2475261E-05;  9.9830676E+02;  1.0000000E-01; -1.4028245E+03;3; -1.0788580E+01;  0.0000000E+00;  7.6478739E+00;0; -6.9909453E-02;  3.9872941E+04;  0.0000000E+00;  1.0386741E+01;  4.0000000E+04;  0.0000000E+00;  4.0000762E+04; -6.9452144E-02;  0.0000000E+00; -4.5731009E-04;  1.5961415E+04;
  2.4127927E-01;  9.9999998E-03;  2.7003786E-01;3967; -1.2150510E-02;  0.0000000E+00;  2.7523481E-04;  9.9771027E+02;  1.0000000E-01; -1.8969834E+03;3; -1.3728687E+01;  0.0000000E+00;  4.7776546E+00;0; -7.2027408E-02;  3.9821039E+04;  0.0000000E+00;  1.1591509E+01;  4.0000000E+04;  0.0000000E+00;  4.0004230E+04; -7.3849864E-02;  0.0000000E+00;  1.8224602E-03;  1.8026285E+04;
  2.4142699E-01;  9.9999998E-03;  2.8003028E-01;3968; -1.1360519E-02;  0.0000000E+00;  4.9861363E-04;  9.9670935E+02;  1.0000000E-01; -2.7262439E+03;3; -1.7571907E+01;  0.0000000E+00; -1.6572307E+00;0; -7.4483939E-02;  3.9735449E+04;  0.0000000E+00;  9.5451603E+00;  4.0000000E+04;  0.0000000E+00;  4.0007480E+04; -7.8335911E-02;  0.0000000E+00;  3.8519728E-03;  1.5045406E+04;
  2.4155699E-01;  9.9999998E-03;  2.9001603E-01;3969; -1.0700056E-02;  0.0000000E+00;  6.1315112E-04;  9.9538855E+02;  1.0000000E-01; -3.8204846E+03;3; -2.1973433E+01;  0.0000000E+00; -9.7001257E+00;0; -7.8001246E-02;  3.9619375E+04;  0.0000000E+00;  5.8705082E+00;  4.0000000E+04;  0.0000000E+00;  4.0015094E+04; -8.3076969E-02;  0.0000000E+00;  5.0757267E-03;  9.0924424E+03;
  2.4163055E-01;  9.9999998E-03;  2.9999912E-01;3970; -1.0083579E-02;  0.0000000E+00;  6.4865162E-04;  9.9383783E+02;  1.0000000E-01; -5.1052383E+03;3; -2.4855125E+01;  0.0000000E+00; -1.9185137E+01;0; -8.2346641E-02;  3.9482844E+04;  0.0000000E+00;  3.8194680E+00;  4.0000000E+04;  0.0000000E+00;  4.0025801E+04; -8.7664478E-02;  0.0000000E+00;  5.3178389E-03;  5.5605220E+03;
  2.5107408E-01;  9.9999998E-03;  2.3999383E-01;4025; -1.4060453E-02;  0.0000000E+00;  6.8271060E-05;  9.9885034E+02;  1.0000000E-01; -9.5246692E+02;3; -4.9929171E+00;  0.0000000E+00;  5.7997937E+00;0; -6.0148980E-02;  3.9911117E+04;  0.0000000E+00;  4.7398086E+00;  4.0000000E+04;  0.0000000E+00;  4.0003898E+04; -6.0774237E-02;  0.0000000E+00;  6.2525691E-04;  7.1710762E+03;
  2.5115052E-01;  9.9999998E-03;  2.5000989E-01;4026; -1.3829853E-02;  0.0000000E+00;  4.6987294E-05;  9.9871613E+02;  1.0000000E-01; -1.0636736E+03;3; -7.5735207E+00;  0.0000000E+00;  7.0446701E+00;0; -6.3510083E-02;  3.9901883E+04;  0.0000000E+00;  6.0600719E+00;  4.0000000E+04;  0.0000000E+00;  4.0004367E+04; -6.3988738E-02;  0.0000000E+00;  4.7865472E-04;  9.2797793E+03;
  2.5122985E-01;  9.9999998E-03;  2.6001284E-01;4027; -1.3472043E-02;  0.0000000E+00;  2.1338348E-04;  9.9849713E+02;  1.0000000E-01; -1.2451006E+03;3; -1.0680882E+01;  0.0000000E+00;  7.5552840E+00;0; -6.6411033E-02;  3.9882812E+04;  0.0000000E+00;  6.8831787E+00;  4.0000000E+04;  0.0000000E+00;  4.0007348E+04; -6.7794040E-02;  0.0000000E+00;  1.3830080E-03;  1.0792036E+04;
  2.5128582E-01;  9.9999998E-03;  2.7001411E-01;4028; -1.2881638E-02;  0.0000000E+00;  5.5186031E-04;  9.9812970E+02;  1.0000000E-01; -1.5494871E+03;3; -1.4591709E+01;  0.0000000E+00;  5.9442286E+00;0; -6.7719989E-02;  3.9851777E+04;  0.0000000E+00;  7.7219491E+00;  4.0000000E+04;  0.0000000E+00;  4.0008879E+04; -7.1950741E-02;  0.0000000E+00;  4.2307498E-03;  1.2306580E+04;
  2.5137520E-01;  9.9999998E-03;  2.8001317E-01;4029; -1.2135445E-02;  0.0000000E+00;  7.6723157E-04;  9.9748639E+02;  1.0000000E-01; -2.0824597E+03;3; -1.9401016E+01;  0.0000000E+00;  1.1898080E+00;0; -6.9412589E-02;  3.9798453E+04;  0.0000000E+00;  7.1880512E+00;  4.0000000E+04;  0.0000000E+00;  4.0009301E+04; -7.6191828E-02;  0.0000000E+00;  6.7792367E-03;  1.1623418E+04;
  2.5148293E-01;  9.9999998E-03;  2.9000637E-01;4030; -1.1433067E-02;  0.0000000E+00;  8.7009743E-04;  9.9654138E+02;  1.0000000E-01; -2.8654004E+03;3; -2.4779219E+01;  0.0000000E+00; -5.3830581E+00;0; -7.2246909E-02;  3.9716691E+04;  0.0000000E+00;  4.6047630E+00;  4.0000000E+04;  0.0000000E+00;  4.0012980E+04; -8.0527954E-02;  0.0000000E+00;  8.2810465E-03;  7.6413115E+03;
  2.5156131E-01;  9.9999998E-03;  2.9999554E-01;4031; -1.0787006E-02;  0.0000000E+00;  8.7800826E-04;  9.9534851E+02;  1.0000000E-01; -3.8536687E+03;3; -2.9277687E+01;  0.0000000E+00; -1.2770283E+01;0; -7.6469243E-02;  3.9611273E+04;  0.0000000E+00;  2.2028754E+00;  4.0000000E+04;  0.0000000E+00;  4.0019961E+04; -8.4784485E-02;  0.0000000E+00;  8.3152428E-03;  4.1649746E+03;
  2.6107386E-01;  9.9999998E-03;  2.3996407E-01;4086; -1.4581291E-02;  0.0000000E+00;  2.4336763E-04;  9.9877423E+02;  1.0000000E-01; -1.0155269E+03;3; -3.9371984E+00;  0.0000000E+00;  4.5287747E+00;0; -5.8159199E-02;  3.9898758E+04;  0.0000000E+00;  3.4247351E+00;  4.0000000E+04;  0.0000000E+00;  4.0010137E+04; -5.9694201E-02;  0.0000000E+00;  1.5350019E-03;  5.3794307E+03;
  2.6114270E-01;  9.9999998E-03;  2.4998453E-01;4087; -1.4379656E-02;  0.0000000E+00;  2.6192429E-04;  9.9874561E+02;  1.0000000E-01; -1.0392299E+03;3; -6.3584504E+00;  0.0000000E+00;  5.7552924E+00;0; -6.0751431E-02;  3.9898984E+04;  0.0000000E+00;  4.3013248E+00;  4.0000000E+04;  0.0000000E+00;  4.0010203E+04; -6.2496983E-02;  0.0000000E+00;  1.7455523E-03;  6.7524590E+03;
  2.6121759E-01;  9.9999998E-03;  2.5999248E-01;4088; -1.4082335E-02;  0.0000000E+00;  4.5694356E-04;  9.9866583E+02;  1.0000000E-01; -1.1053514E+03;3; -9.4765959E+00;  0.0000000E+00;  6.4915566E+00;0; -6.2639982E-02;  3.9892973E+04;  0.0000000E+00;  4.6484075E+00;  4.0000000E+04;  0.0000000E+00;  4.0011723E+04; -6.5844864E-02;  0.0000000E+00;  3.2048821E-03;  7.5149463E+03;
  2.6125717E-01;  9.9999998E-03;  2.6999769E-01;4089; -1.3615173E-02;  0.0000000E+00;  7.3659641E-04;  9.9848566E+02;  1.0000000E-01; -1.2545818E+03;3; -1.3526396E+01;  0.0000000E+00;  5.7484832E+00;0; -6.3524172E-02;  3.9879711E+04;  0.0000000E+00;  5.1681991E+00;  4.0000000E+04;  0.0000000E+00;  4.0011586E+04; -6.9623500E-02;  0.0000000E+00;  6.0993270E-03;  8.4989531E+03;
  2.6131019E-01;  9.9999998E-03;  2.8000045E-01;4090; -1.2978218E-02;  0.0000000E+00;  9.0325327E-04;  9.9812720E+02;  1.0000000E-01; -1.5515610E+03;3; -1.8524666E+01;  0.0000000E+00;  2.6864450E+00;0; -6.5050855E-02;  3.9851793E+04;  0.0000000E+00;  5.4002504E+00;  4.0000000E+04;  0.0000000E+00;  4.0009832E+04; -7.3599860E-02;  0.0000000E+00;  8.5490029E-03;  8.9579385E+03;
  2.6139811E-01;  9.9999998E-03;  2.8999868E-01;4091; -1.2299509E-02;  0.0000000E+00;  9.6219179E-04;  9.9751697E+02;  1.0000000E-01; -2.0571270E+03;3; -2.4149994E+01;  0.0000000E+00; -2.1091437E+00;0; -6.7935534E-02;  3.9800062E+04;  0.0000000E+00;  3.9010301E+00;  4.0000000E+04;  0.0000000E+00;  4.0010387E+04; -7.7648669E-02;  0.0000000E+00;  9.7131375E-03;  6.7795532E+03;
  2.6147720E-01;  9.9999998E-03;  2.9999295E-01;4092; -1.1630258E-02;  0.0000000E+00;  9.4531424E-04;  9.9666199E+02;  1.0000000E-01; -2.7655020E+03;3; -2.9423943E+01;  0.0000000E+00; -7.6344028E+00;0; -7.2220229E-02;  3.9725258E+04;  0.0000000E+00;  1.7002616E+00;  4.0000000E+04;  0.0000000E+00;  4.0014621E+04; -8.1626244E-02;  0.0000000E+00;  9.4060153E-03;  3.7089880E+03;
  2.7107683E-01;  9.9999998E-03;  2.3994581E-01;4147; -1.5127566E-02;  0.0000000E+00;  4.1404396E-04;  9.9868555E+02;  1.0000000E-01; -1.0890062E+03;3; -2.7547781E+00;  0.0000000E+00;  3.1768785E+00;0; -5.6038950E-02;  3.9886680E+04;  0.0000000E+00;  2.2645311E+00;  4.0000000E+04;  0.0000000E+00;  4.0015266E+04; -5.8496758E-02;  0.0000000E+00;  2.4578085E-03;  4.0147349E+03;
  2.7111250E-01;  9.9999998E-03;  2.4996823E-01;4148; -1.4949106E-02;  0.0000000E+00;  4.5542576E-04;  9.9873688E+02;  1.0000000E-01; -1.0464889E+03;3; -4.8028893E+00;  0.0000000E+00;  4.2383289E+00;0; -5.7881489E-02;  3.9894547E+04;  0.0000000E+00;  2.9346452E+00;  4.0000000E+04;  0.0000000E+00;  4.0014016E+04; -6.0864665E-02;  0.0000000E+00;  2.9831748E-03;  4.9118672E+03;
  2.7116552E-01;  9.9999998E-03;  2.5997946E-01;4149; -1.4700760E-02;  0.0000000E+00;  6.2010437E-04;  9.9877008E+02;  1.0000000E-01; -1.0189835E+03;3; -7.5512896E+00;  0.0000000E+00;  4.9797149E+00;0; -5.9156712E-02;  3.9899918E+04;  0.0000000E+00;  3.2984936E+00;  4.0000000E+04;  0.0000000E+00;  4.0014082E+04; -6.3712180E-02;  0.0000000E+00;  4.5554689E-03;  5.5526709E+03;
  2.7120018E-01;  9.9999998E-03;  2.6998684E-01;4150; -1.4338605E-02;  0.0000000E+00;  8.1971742E-04;  9.9874036E+02;  1.0000000E-01; -1.0435754E+03;3; -1.1185839E+01;  0.0000000E+00;  4.7803259E+00;0; -5.9948329E-02;  3.9900469E+04;  0.0000000E+00;  3.6443188E+00;  4.0000000E+04;  0.0000000E+00;  4.0012414E+04; -6.7004360E-02;  0.0000000E+00;  7.0560323E-03;  6.1643613E+03;
  2.7123499E-01;  9.9999998E-03;  2.7999148E-01;4151; -1.3837803E-02;  0.0000000E+00;  9.3266234E-04;  9.9859747E+02;  1.0000000E-01; -1.1619425E+03;3; -1.5757148E+01;  0.0000000E+00;  3.0968833E+00;0; -6.1540671E-02;  3.9891566E+04;  0.0000000E+00;  4.0274773E+00;  4.0000000E+04;  0.0000000E+00;  4.0009680E+04; -7.0610657E-02;  0.0000000E+00;  9.0699876E-03;  6.8048540E+03;
  2.7129823E-01;  9.9999998E-03;  2.8999284E-01;4152; -1.3237329E-02;  0.0000000E+00;  9.5012062E-04;  9.9827496E+02;  1.0000000E-01; -1.4291448E+03;3; -2.1056177E+01;  0.0000000E+00; -5.3701559E-03;0; -6.4670369E-02;  3.9866117E+04;  0.0000000E+00;  3.5133739E+00;  4.0000000E+04;  0.0000000E+00;  4.0008141E+04; -7.4365787E-02;  0.0000000E+00;  9.6954210E-03;  6.1386392E+03;
  2.7137548E-01;  9.9999998E-03;  2.9999071E-01;4153; -1.2608436E-02;  0.0000000E+00;  9.2301221E-04;  9.9772986E+02;  1.0000000E-01; -1.8807863E+03;3; -2.6453606E+01;  0.0000000E+00; -3.7680373E+00;0; -6.8997018E-02;  3.9819281E+04;  0.0000000E+00;  1.6772013E+00;  4.0000000E+04;  0.0000000E+00;  4.0009785E+04; -7.8160062E-02;  0.0000000E+00;  9.1630416E-03;  3.6517795E+03;
  2.8111577E-01;  9.9999998E-03;  2.3993817E-01;4208; -1.5694544E-02;  0.0000000E+00;  5.3654308E-04;  9.9859125E+02;  1.0000000E-01; -1.1671274E+03;3; -1.5976599E+00;  0.0000000E+00;  1.9144632E+00;0; -5.4026529E-02;  3.9876430E+04;  0.0000000E+00;  1.3059233E+00;  4.0000000E+04;  0.0000000E+00;  4.0018305E+04; -5.7184629E-02;  0.0000000E+00;  3.1581018E-03;  3.1376135E+03;
  2.8109774E-01;  9.9999998E-03;  2.4995972E-01;4209; -1.5530118E-02;  0.0000000E+00;  5.8593426E-04;  9.9868567E+02;  1.0000000E-01; -1.0889075E+03;3; -3.1636789E+00;  0.0000000E+00;  2.7401900E+00;0; -5.5251814E-02;  3.9888387E+04;  0.0000000E+00;  1.7598901E+00;  4.0000000E+04;  0.0000000E+00;  4.0016438E+04; -5.9118796E-02;  0.0000000E+00;  3.8669829E-03;  3.5042456E+03;
  2.8111053E-01;  9.9999998E-03;  2.5997216E-01;4210; -1.5320442E-02;  0.0000000E+00;  7.0335995E-04;  9.9879602E+02;  1.0000000E-01; -9.9745325E+02;3; -5.3394046E+00;  0.0000000E+00;  3.3878703E+00;0; -5.6169134E-02;  3.9901145E+04;  0.0000000E+00;  2.1929052E+00;  4.0000000E+04;  0.0000000E+00;  4.0015008E+04; -6.1456136E-02;  0.0000000E+00;  5.2870032E-03;  4.0096956E+03;
  2.8113148E-01;  9.9999998E-03;  2.6998025E-01;4211; -1.5037678E-02;  0.0000000E+00;  8.3295605E-04;  9.9887299E+02;  1.0000000E-01; -9.3370197E+02;3; -8.2563915E+00;  0.0000000E+00;  3.4937766E+00;0; -5.6952301E-02;  3.9911527E+04;  0.0000000E+00;  2.5711937E+00;  4.0000000E+04;  0.0000000E+00;  4.0012391E+04; -6.4199701E-02;  0.0000000E+00;  7.2474005E-03;  4.4994175E+03;
  2.8116012E-01;  9.9999998E-03;  2.7998561E-01;4212; -1.4666382E-02;  0.0000000E+00;  8.9530891E-04;  9.9888062E+02;  1.0000000E-01; -9.2738116E+02;3; -1.1998548E+01;  0.0000000E+00;  2.7175608E+00;0; -5.8652513E-02;  3.9916035E+04;  0.0000000E+00;  2.8215353E+00;  4.0000000E+04;  0.0000000E+00;  4.0009227E+04; -6.7308769E-02;  0.0000000E+00;  8.6562540E-03;  4.8654575E+03;
  2.8120169E-01;  9.9999998E-03;  2.8998855E-01;4213; -1.4204844E-02;  0.0000000E+00;  8.8999362E-04;  9.9877844E+02;  1.0000000E-01; -1.0120208E+03;3; -1.6513659E+01;  0.0000000E+00;  1.0158684E+00;0; -6.1835282E-02;  3.9910523E+04;  0.0000000E+00;  2.6471908E+00;  4.0000000E+04;  0.0000000E+00;  4.0006648E+04; -7.0697546E-02;  0.0000000E+00;  8.8622663E-03;  4.6859229E+03;
  2.8125775E-01;  9.9999998E-03;  2.9998893E-01;4214; -1.3676824E-02;  0.0000000E+00;  8.5071771E-04;  9.9851678E+02;  1.0000000E-01; -1.2288048E+03;3; -2.1473602E+01;  0.0000000E+00; -1.2946707E+00;0; -6.6219404E-02;  3.9890012E+04;  0.0000000E+00;  1.4857262E+00;  4.0000000E+04;  0.0000000E+00;  4.0006156E+04; -7.4267671E-02;  0.0000000E+00;  8.0482643E-03;  3.1891184E+03;
  2.9120982E-01;  9.9999998E-03;  2.3993972E-01;4269; -1.6270315E-02;  0.0000000E+00;  5.9763843E-04;  9.9851251E+02;  1.0000000E-01; -1.2323602E+03;3; -5.8975118E-01;  0.0000000E+00;  8.6811382E-01;0; -5.2222718E-02;  3.9869789E+04;  0.0000000E+00;  6.4392614E-01;  4.0000000E+04;  0.0000000E+00;  4.0018996E+04; -5.5754695E-02;  0.0000000E+00;  3.5319785E-03;  2.6865527E+03;
  2.9115111E-01;  9.9999998E-03;  2.4995759E-01;4270; -1.6112333E-02;  0.0000000E+00;  6.4879266E-04;  9.9861261E+02;  1.0000000E-01; -1.1494490E+03;3; -1.6586834E+00;  0.0000000E+00;  1.4455200E+00;0; -5.2972283E-02;  3.9881980E+04;  0.0000000E+00;  7.4079108E-01;  4.0000000E+04;  0.0000000E+00;  4.0016906E+04; -5.7273604E-02;  0.0000000E+00;  4.3013208E-03;  2.5641360E+03;
  2.9109740E-01;  9.9999998E-03;  2.5996920E-01;4271; -1.5926873E-02;  0.0000000E+00;  7.2750810E-04;  9.9875446E+02;  1.0000000E-01; -1.0319214E+03;3; -3.2047811E+00;  0.0000000E+00;  1.9520954E+00;0; -5.3626150E-02;  3.9897594E+04;  0.0000000E+00;  1.0820937E+00;  4.0000000E+04;  0.0000000E+00;  4.0015023E+04; -5.9118796E-02;  0.0000000E+00;  5.4926458E-03;  2.6606018E+03;
  2.9108143E-01;  9.9999998E-03;  2.6997697E-01;4272; -1.5701028E-02;  0.0000000E+00;  8.0324826E-04;  9.9889569E+02;  1.0000000E-01; -9.1488770E+02;3; -5.3187742E+00;  0.0000000E+00;  2.1679351E+00;0; -5.4385722E-02;  3.9913629E+04;  0.0000000E+00;  1.4864761E+00;  4.0000000E+04;  0.0000000E+00;  4.0012074E+04; -6.1302274E-02;  0.0000000E+00;  6.9165514E-03;  2.9369263E+03;
  2.9110473E-01;  9.9999998E-03;  2.7998227E-01;4273; -1.5431528E-02;  0.0000000E+00;  8.2952232E-04;  9.9899359E+02;  1.0000000E-01; -8.3380359E+02;3; -8.0689192E+00;  0.0000000E+00;  1.9151372E+00;0; -5.6048799E-02;  3.9925965E+04;  0.0000000E+00;  1.5031152E+00;  4.0000000E+04;  0.0000000E+00;  4.0008863E+04; -6.3826293E-02;  0.0000000E+00;  7.7774921E-03;  2.8531890E+03;
  2.9114169E-01;  9.9999998E-03;  2.8998566E-01;4274; -1.5123204E-02;  0.0000000E+00;  8.0991001E-04;  9.9902448E+02;  1.0000000E-01; -8.0822406E+02;3; -1.1489510E+01;  0.0000000E+00;  1.1342508E+00;0; -5.9047226E-02;  3.9932508E+04;  0.0000000E+00;  9.7516680E-01;  4.0000000E+04;  0.0000000E+00;  4.0005961E+04; -6.6696376E-02;  0.0000000E+00;  7.6491511E-03;  2.1253652E+03;
  2.9117748E-01;  9.9999998E-03;  2.9998723E-01;4275; -1.4776393E-02;  0.0000000E+00;  7.6995371E-04;  9.9896313E+02;  1.0000000E-01; -8.5903741E+02;3; -1.5492853E+01;  0.0000000E+00; -6.5676406E-02;0; -6.3166395E-02;  3.9930484E+04;  0.0000000E+00; -1.6625020E-01;  4.0000000E+04;  0.0000000E+00;  4.0004211E+04; -6.9913104E-02;  0.0000000E+00;  6.7467089E-03;  7.6516443E+02;
  3.0128935E-01;  9.9999998E-03;  2.3994793E-01;4330; -1.6838508E-02;  0.0000000E+00;  6.0846872E-04;  9.9848596E+02;  1.0000000E-01; -1.2543348E+03;3;  1.9881079E-01;  0.0000000E+00;  1.1007947E-01;0; -5.0615977E-02;  3.9868707E+04;  0.0000000E+00;  3.9438930E-01;  4.0000000E+04;  0.0000000E+00;  4.0017910E+04; -5.4222524E-02;  0.0000000E+00;  3.6065476E-03;  2.4342935E+03;
  3.0120394E-01;  9.9999998E-03;  2.4996085E-01;4331; -1.6678484E-02;  0.0000000E+00;  6.5828930E-04;  9.9856970E+02;  1.0000000E-01; -1.1849541E+03;3; -4.4818342E-01;  0.0000000E+00;  4.5876521E-01;0; -5.1016629E-02;  3.9878664E+04;  0.0000000E+00;  2.7521938E-01;  4.0000000E+04;  0.0000000E+00;  4.0016508E+04; -5.5367749E-02;  0.0000000E+00;  4.3511200E-03;  2.2281387E+03;
  3.0111775E-01;  9.9999998E-03;  2.5997007E-01;4332; -1.6505992E-02;  0.0000000E+00;  7.0809276E-04;  9.9870245E+02;  1.0000000E-01; -1.0749819E+03;3; -1.4223658E+00;  0.0000000E+00;  7.9164219E-01;0; -5.1460054E-02;  3.9893414E+04;  0.0000000E+00;  3.2097295E-01;  4.0000000E+04;  0.0000000E+00;  4.0014328E+04; -5.6756694E-02;  0.0000000E+00;  5.2966401E-03;  1.9879041E+03;
  3.0108786E-01;  9.9999998E-03;  2.6997650E-01;4333; -1.6317960E-02;  0.0000000E+00;  7.5099024E-04;  9.9885327E+02;  1.0000000E-01; -9.5004718E+02;3; -2.7823994E+00;  0.0000000E+00;  1.0028194E+00;0; -5.2089624E-02;  3.9909883E+04;  0.0000000E+00;  3.5965970E-01;  4.0000000E+04;  0.0000000E+00;  4.0011715E+04; -5.8399986E-02;  0.0000000E+00;  6.3103628E-03;  1.7019902E+03;
  3.0110732E-01;  9.9999998E-03;  2.7998111E-01;4334; -1.6117856E-02;  0.0000000E+00;  7.5824402E-04;  9.9898883E+02;  1.0000000E-01; -8.3775409E+02;3; -4.5858293E+00;  0.0000000E+00;  9.8417139E-01;0; -5.3499814E-02;  3.9925715E+04;  0.0000000E+00;  3.4756251E-02;  4.0000000E+04;  0.0000000E+00;  4.0008555E+04; -6.0316589E-02;  0.0000000E+00;  6.8167751E-03;  1.1882567E+03;
  3.0114558E-01;  9.9999998E-03;  2.8998432E-01;4335; -1.5917370E-02;  0.0000000E+00;  7.3129957E-04;  9.9908777E+02;  1.0000000E-01; -7.5578107E+02;3; -6.8794675E+00;  0.0000000E+00;  6.7609996E-01;0; -5.6057636E-02;  3.9937918E+04;  0.0000000E+00; -8.7806988E-01;  4.0000000E+04;  0.0000000E+00;  4.0005473E+04; -6.2544480E-02;  0.0000000E+00;  6.4868433E-03;  1.1668037E+03;
  3.0118293E-01;  9.9999998E-03;  2.9998612E-01;4336; -1.5730971E-02;  0.0000000E+00;  6.9105311E-04;  9.9912604E+02;  1.0000000E-01; -7.2407831E+02;3; -9.6588030E+00;  0.0000000E+00;  1.3121890E-01;0; -5.9607375E-02;  3.9945086E+04;  0.0000000E+00; -2.4485784E+00;  4.0000000E+04;  0.0000000E+00;  4.0003469E+04; -6.5149732E-02;  0.0000000E+00;  5.5423556E-03;  3.0494595E+03;
  3.1137994E-01;  9.9999998E-03;  2.3996012E-01;4391; -1.7389152E-02;  0.0000000E+00;  5.8577920E-04;  9.9852069E+02;  1.0000000E-01; -1.2255950E+03;3;  7.5538009E-01;  0.0000000E+00; -3.9167425E-01;0; -4.9133945E-02;  3.9873219E+04;  0.0000000E+00;  3.7023559E-01;  4.0000000E+04;  0.0000000E+00;  4.0015738E+04; -5.2600697E-02;  0.0000000E+00;  3.4667512E-03;  2.1523289E+03;
  3.1126976E-01;  9.9999998E-03;  2.4996769E-01;4392; -1.7222367E-02;  0.0000000E+00;  6.2802678E-04;  9.9857007E+02;  1.0000000E-01; -1.1846578E+03;3;  4.2419487E-01;  0.0000000E+00; -2.2302522E-01;0; -4.9315993E-02;  3.9879707E+04;  0.0000000E+00;  1.6978608E-01;  4.0000000E+04;  0.0000000E+00;  4.0014895E+04; -5.3430516E-02;  0.0000000E+00;  4.1145226E-03;  1.9973042E+03;
  3.1115815E-01;  9.9999998E-03;  2.5997385E-01;4393; -1.7051531E-02;  0.0000000E+00;  6.6127389E-04;  9.9867090E+02;  1.0000000E-01; -1.1011541E+03;3; -1.0494294E-01;  0.0000000E+00; -3.3716317E-02;0; -4.9568169E-02;  3.9891266E+04;  0.0000000E+00;  2.1889169E-02;  4.0000000E+04;  0.0000000E+00;  4.0013191E+04; -5.4428000E-02;  0.0000000E+00;  4.8598326E-03;  1.7545704E+03;
  3.1111994E-01;  9.9999998E-03;  2.6997843E-01;4394; -1.6880738E-02;  0.0000000E+00;  6.8485981E-04;  9.9880328E+02;  1.0000000E-01; -9.9147815E+02;3; -8.7021649E-01;  0.0000000E+00;  1.1084618E-01;0; -5.0015219E-02;  3.9905883E+04;  0.0000000E+00; -2.0455965E-01;  4.0000000E+04;  0.0000000E+00;  4.0010605E+04; -5.5595301E-02;  0.0000000E+00;  5.5800825E-03;  1.4627926E+03;
  3.1114450E-01;  9.9999998E-03;  2.7998191E-01;4395; -1.6716683E-02;  0.0000000E+00;  6.7872705E-04;  9.9893774E+02;  1.0000000E-01; -8.8007385E+02;3; -1.9090081E+00;  0.0000000E+00;  1.4428599E-01;0; -5.1131703E-02;  3.9921039E+04;  0.0000000E+00; -7.5206828E-01;  4.0000000E+04;  0.0000000E+00;  4.0008297E+04; -5.6949578E-02;  0.0000000E+00;  5.8178767E-03;  1.4317638E+03;
  3.1119642E-01;  9.9999998E-03;  2.8998446E-01;4396; -1.6572306E-02;  0.0000000E+00;  6.4608210E-04;  9.9905627E+02;  1.0000000E-01; -7.8185443E+02;3; -3.2524164E+00;  0.0000000E+00;  4.2521860E-02;0; -5.3191908E-02;  3.9935012E+04;  0.0000000E+00; -1.8264422E+00;  4.0000000E+04;  0.0000000E+00;  4.0005551E+04; -5.8527961E-02;  0.0000000E+00;  5.3360523E-03;  2.5070520E+03;
  3.1125414E-01;  9.9999998E-03;  2.9998609E-01;4397; -1.6466293E-02;  0.0000000E+00;  6.0522684E-04;  9.9914258E+02;  1.0000000E-01; -7.1035028E+02;3; -4.9199729E+00;  0.0000000E+00; -1.8957891E-01;0; -5.6015778E-02;  3.9946039E+04;  0.0000000E+00; -3.4984310E+00;  4.0000000E+04;  0.0000000E+00;  4.0003363E+04; -6.0395386E-02;  0.0000000E+00;  4.3796068E-03;  4.7271055E+03;
  3.2149252E-01;  9.9999998E-03;  2.3997362E-01;4452; -1.7914761E-02;  0.0000000E+00;  5.4105115E-04;  9.9861212E+02;  1.0000000E-01; -1.1498440E+03;3;  1.1098990E+00;  0.0000000E+00; -7.0128292E-01;0; -4.7726881E-02;  3.9882941E+04;  0.0000000E+00;  4.3069029E-01;  4.0000000E+04;  0.0000000E+00;  4.0012867E+04; -5.0913811E-02;  0.0000000E+00;  3.1869300E-03;  1.8524966E+03;
  3.2138118E-01;  9.9999998E-03;  2.4997663E-01;4453; -1.7739503E-02;  0.0000000E+00;  5.7044567E-04;  9.9862018E+02;  1.0000000E-01; -1.1431775E+03;3;  9.8739892E-01;  0.0000000E+00; -6.4250064E-01;0; -4.7792830E-02;  3.9885215E+04;  0.0000000E+00;  2.3299441E-01;  4.0000000E+04;  0.0000000E+00;  4.0012965E+04; -5.1489193E-02;  0.0000000E+00;  3.6963634E-03;  1.7413026E+03;
  3.2125348E-01;  9.9999998E-03;  2.5997958E-01;4454; -1.7564205E-02;  0.0000000E+00;  5.9376052E-04;  9.9867902E+02;  1.0000000E-01; -1.0943888E+03;3;  7.5958955E-01;  0.0000000E+00; -5.6438780E-01;0; -4.7891062E-02;  3.9892531E+04;  0.0000000E+00;  2.5554004E-03;  4.0000000E+04;  0.0000000E+00;  4.0011809E+04; -5.2172258E-02;  0.0000000E+00;  4.2811977E-03;  1.5637354E+03;
  3.2118767E-01;  9.9999998E-03;  2.6998213E-01;4455; -1.7396037E-02;  0.0000000E+00;  6.0479331E-04;  9.9877820E+02;  1.0000000E-01; -1.0122183E+03;3;  4.0171781E-01;  0.0000000E+00; -4.9776521E-01;0; -4.8178107E-02;  3.9903496E+04;  0.0000000E+00; -3.0551621E-01;  4.0000000E+04;  0.0000000E+00;  4.0009926E+04; -5.2959476E-02;  0.0000000E+00;  4.7813705E-03;  1.3887676E+03;
  3.2119426E-01;  9.9999998E-03;  2.7998430E-01;4456; -1.7243035E-02;  0.0000000E+00;  5.8886368E-04;  9.9889099E+02;  1.0000000E-01; -9.1878882E+02;3; -1.0395374E-01;  0.0000000E+00; -4.7014827E-01;0; -4.9048197E-02;  3.9916328E+04;  0.0000000E+00; -8.1158388E-01;  4.0000000E+04;  0.0000000E+00;  4.0007805E+04; -5.3857200E-02;  0.0000000E+00;  4.8090038E-03;  1.5051511E+03;
  3.2122973E-01;  9.9999998E-03;  2.8998604E-01;4457; -1.7115202E-02;  0.0000000E+00;  5.5209396E-04;  9.9900995E+02;  1.0000000E-01; -8.2022369E+02;3; -7.8157765E-01;  0.0000000E+00; -5.0812453E-01;0; -5.0666466E-02;  3.9930012E+04;  0.0000000E+00; -1.5917867E+00;  4.0000000E+04;  0.0000000E+00;  4.0005379E+04; -5.4893509E-02;  0.0000000E+00;  4.2270427E-03;  2.2849304E+03;
  3.2126483E-01;  9.9999998E-03;  2.9998732E-01;4458; -1.7027199E-02;  0.0000000E+00;  5.1018118E-04;  9.9912250E+02;  1.0000000E-01; -7.2699176E+02;3; -1.6491065E+00;  0.0000000E+00; -6.0716718E-01;0; -5.2841526E-02;  3.9942824E+04;  0.0000000E+00; -2.6418254E+00;  4.0000000E+04;  0.0000000E+00;  4.0003262E+04; -5.6115136E-02;  0.0000000E+00;  3.2736112E-03;  3.6521650E+03;
  3.3156168E-01;  9.9999998E-03;  2.3998760E-01;4513; -1.8407770E-02;  0.0000000E+00;  4.7306769E-04;  9.9874921E+02;  1.0000000E-01; -1.0362670E+03;3;  1.3168509E+00;  0.0000000E+00; -8.8346386E-01;0; -4.6420209E-02;  3.9896172E+04;  0.0000000E+00;  4.9894288E-01;  4.0000000E+04;  0.0000000E+00;  4.0010113E+04; -4.9208011E-02;  0.0000000E+00;  2.7878007E-03;  1.5392261E+03;
  3.3145675E-01;  9.9999998E-03;  2.4998641E-01;4514; -1.8223541E-02;  0.0000000E+00;  4.9255765E-04;  9.9871625E+02;  1.0000000E-01; -1.0635748E+03;3;  1.3092616E+00;  0.0000000E+00; -8.8120157E-01;0; -4.6419624E-02;  3.9894438E+04;  0.0000000E+00;  3.8147190E-01;  4.0000000E+04;  0.0000000E+00;  4.0010195E+04; -4.9592905E-02;  0.0000000E+00;  3.1732789E-03;  1.5054479E+03;
  3.3132803E-01;  9.9999998E-03;  2.5998640E-01;4515; -1.8041054E-02;  0.0000000E+00;  5.0928653E-04;  9.9873291E+02;  1.0000000E-01; -1.0497480E+03;3;  1.2554929E+00;  0.0000000E+00; -8.7049878E-01;0; -4.6413764E-02;  3.9897160E+04;  0.0000000E+00;  1.9756483E-01;  4.0000000E+04;  0.0000000E+00;  4.0009953E+04; -5.0041337E-02;  0.0000000E+00;  3.6275727E-03;  1.3798491E+03;
  3.3123982E-01;  9.9999998E-03;  2.6998693E-01;4516; -1.7867599E-02;  0.0000000E+00;  5.1209988E-04;  9.9878625E+02;  1.0000000E-01; -1.0055518E+03;3;  1.1419971E+00;  0.0000000E+00; -8.5903436E-01;0; -4.6583623E-02;  3.9903676E+04;  0.0000000E+00; -6.3297294E-02;  4.0000000E+04;  0.0000000E+00;  4.0008855E+04; -5.0547700E-02;  0.0000000E+00;  3.9640786E-03;  1.2099719E+03;
  3.3121574E-01;  9.9999998E-03;  2.7998772E-01;4517; -1.7710907E-02;  0.0000000E+00;  4.9095473E-04;  9.9886548E+02;  1.0000000E-01; -9.3992401E+02;3;  9.5717853E-01;  0.0000000E+00; -8.6132210E-01;0; -4.7243454E-02;  3.9913027E+04;  0.0000000E+00; -4.3578112E-01;  4.0000000E+04;  0.0000000E+00;  4.0007121E+04; -5.1111374E-02;  0.0000000E+00;  3.8679214E-03;  1.1576720E+03;
  3.3122888E-01;  9.9999998E-03;  2.8998855E-01;4518; -1.7579490E-02;  0.0000000E+00;  4.5077136E-04;  9.9895978E+02;  1.0000000E-01; -8.6180280E+02;3;  6.9293767E-01;  0.0000000E+00; -8.8267010E-01;0; -4.8528712E-02;  3.9923875E+04;  0.0000000E+00; -9.3853056E-01;  4.0000000E+04;  0.0000000E+00;  4.0005395E+04; -5.1746748E-02;  0.0000000E+00;  3.2180364E-03;  1.4940718E+03;
  3.3124438E-01;  9.9999998E-03;  2.9998919E-01;4519; -1.7484924E-02;  0.0000000E+00;  4.0745671E-04;  9.9906104E+02;  1.0000000E-01; -7.7790393E+02;3;  3.3756933E-01;  0.0000000E+00; -9.3342024E-01;0; -5.0201297E-02;  3.9935262E+04;  0.0000000E+00; -1.5459306E+00;  4.0000000E+04;  0.0000000E+00;  4.0003570E+04; -5.2482061E-02;  0.0000000E+00;  2.2807636E-03;  2.2036523E+03;
  3.4160578E-01;  9.9999998E-03;  2.4000077E-01;4574; -1.8868640E-02;  0.0000000E+00;  3.8139414E-04;  9.9889313E+02;  1.0000000E-01; -9.1701111E+02;3;  1.4403957E+00;  0.0000000E+00; -9.9273527E-01;0; -4.5230627E-02;  3.9910156E+04;  0.0000000E+00;  5.0012088E-01;  4.0000000E+04;  0.0000000E+00;  4.0007211E+04; -4.7521260E-02;  0.0000000E+00;  2.2906321E-03;  1.2120603E+03;
  3.4151447E-01;  9.9999998E-03;  2.4999587E-01;4575; -1.8676432E-02;  0.0000000E+00;  3.9853153E-04;  9.9883539E+02;  1.0000000E-01; -9.6486157E+02;3;  1.4828154E+00;  0.0000000E+00; -1.0152757E+00;0; -4.5173012E-02;  3.9904891E+04;  0.0000000E+00;  4.5860282E-01;  4.0000000E+04;  0.0000000E+00;  4.0008195E+04; -4.7769967E-02;  0.0000000E+00;  2.5969557E-03;  1.2850616E+03;
  3.4139523E-01;  9.9999998E-03;  2.5999328E-01;4576; -1.8486159E-02;  0.0000000E+00;  4.1307553E-04;  9.9880933E+02;  1.0000000E-01; -9.8644122E+02;3;  1.5108782E+00;  0.0000000E+00; -1.0367829E+00;0; -4.5083262E-02;  3.9903273E+04;  0.0000000E+00;  3.5055926E-01;  4.0000000E+04;  0.0000000E+00;  4.0008387E+04; -4.8054121E-02;  0.0000000E+00;  2.9708613E-03;  1.2531818E+03;
  3.4129843E-01;  9.9999998E-03;  2.6999214E-01;4577; -1.8304104E-02;  0.0000000E+00;  4.0974779E-04;  9.9881763E+02;  1.0000000E-01; -9.7957721E+02;3;  1.5181937E+00;  0.0000000E+00; -1.0558863E+00;0; -4.5177888E-02;  3.9905309E+04;  0.0000000E+00;  1.7143095E-01;  4.0000000E+04;  0.0000000E+00;  4.0008023E+04; -4.8367202E-02;  0.0000000E+00;  3.1893156E-03;  1.1177866E+03;
  3.4124196E-01;  9.9999998E-03;  2.7999160E-01;4578; -1.8136282E-02;  0.0000000E+00;  3.8412132E-04;  9.9884875E+02;  1.0000000E-01; -9.5380017E+02;3;  1.4995589E+00;  0.0000000E+00; -1.0773795E+00;0; -4.5707386E-02;  3.9910145E+04;  0.0000000E+00; -8.1192426E-02;  4.0000000E+04;  0.0000000E+00;  4.0006941E+04; -4.8707504E-02;  0.0000000E+00;  3.0001181E-03;  9.7168945E+02;
  3.4121880E-01;  9.9999998E-03;  2.8999147E-01;4579; -1.7989041E-02;  0.0000000E+00;  3.4318515E-04;  9.9890863E+02;  1.0000000E-01; -9.0417194E+02;3;  1.4504937E+00;  0.0000000E+00; -1.1016930E+00;0; -4.6734877E-02;  3.9916926E+04;  0.0000000E+00; -4.0068489E-01;  4.0000000E+04;  0.0000000E+00;  4.0005605E+04; -4.9080197E-02;  0.0000000E+00;  2.3453203E-03;  9.6595923E+02;
  3.4121192E-01;  9.9999998E-03;  2.9999140E-01;4580; -1.7870203E-02;  0.0000000E+00;  2.9920967E-04;  9.9897485E+02;  1.0000000E-01; -8.4930933E+02;3;  1.3691605E+00;  0.0000000E+00; -1.1373117E+00;0; -4.8047245E-02;  3.9925008E+04;  0.0000000E+00; -7.5767130E-01;  4.0000000E+04;  0.0000000E+00;  4.0004449E+04; -4.9497027E-02;  0.0000000E+00;  1.4497843E-03;  1.2289209E+03;
  3.5160851E-01;  9.9999998E-03;  2.4001145E-01;4635; -1.9299321E-02;  0.0000000E+00;  2.7803393E-04;  9.9902679E+02;  1.0000000E-01; -8.0629816E+02;3;  1.5309620E+00;  0.0000000E+00; -1.0734293E+00;0; -4.4129275E-02;  3.9921910E+04;  0.0000000E+00;  4.3738067E-01;  4.0000000E+04;  0.0000000E+00;  4.0004773E+04; -4.5900658E-02;  0.0000000E+00;  1.7713816E-03;  9.1204028E+02;
  3.5153127E-01;  9.9999998E-03;  2.5000373E-01;4636; -1.9101314E-02;  0.0000000E+00;  2.9425140E-04;  9.9894220E+02;  1.0000000E-01; -8.7637030E+02;3;  1.5868303E+00;  0.0000000E+00; -1.1040527E+00;0; -4.4030275E-02;  3.9913996E+04;  0.0000000E+00;  4.3890437E-01;  4.0000000E+04;  0.0000000E+00;  4.0006344E+04; -4.6055086E-02;  0.0000000E+00;  2.0248115E-03;  1.0778997E+03;
  3.5142714E-01;  9.9999998E-03;  2.5999936E-01;4637; -1.8904507E-02;  0.0000000E+00;  3.0701928E-04;  9.9887964E+02;  1.0000000E-01; -9.2822064E+02;3;  1.6415993E+00;  0.0000000E+00; -1.1374880E+00;0; -4.3886453E-02;  3.9908797E+04;  0.0000000E+00;  3.8556227E-01;  4.0000000E+04;  0.0000000E+00;  4.0007445E+04; -4.6229769E-02;  0.0000000E+00;  2.3433159E-03;  1.1400095E+03;
  3.5133481E-01;  9.9999998E-03;  2.6999694E-01;4638; -1.8713757E-02;  0.0000000E+00;  2.9840172E-04;  9.9884467E+02;  1.0000000E-01; -9.5715814E+02;3;  1.6937498E+00;  0.0000000E+00; -1.1683044E+00;0; -4.3941241E-02;  3.9906305E+04;  0.0000000E+00;  2.7359053E-01;  4.0000000E+04;  0.0000000E+00;  4.0007363E+04; -4.6418119E-02;  0.0000000E+00;  2.4768773E-03;  1.0859904E+03;
  3.5126272E-01;  9.9999998E-03;  2.7999541E-01;4639; -1.8532922E-02;  0.0000000E+00;  2.7008646E-04;  9.9883435E+02;  1.0000000E-01; -9.6570111E+02;3;  1.7402965E+00;  0.0000000E+00; -1.1955194E+00;0; -4.4377815E-02;  3.9906848E+04;  0.0000000E+00;  1.0587358E-01;  4.0000000E+04;  0.0000000E+00;  4.0007039E+04; -4.6618890E-02;  0.0000000E+00;  2.2410746E-03;  9.7451331E+02;
  3.5120347E-01;  9.9999998E-03;  2.8999442E-01;4640; -1.8365288E-02;  0.0000000E+00;  2.2916558E-04;  9.9884680E+02;  1.0000000E-01; -9.5538037E+02;3;  1.7802714E+00;  0.0000000E+00; -1.2234515E+00;0; -4.5223851E-02;  3.9909164E+04;  0.0000000E+00; -1.0787638E-01;  4.0000000E+04;  0.0000000E+00;  4.0006230E+04; -4.6835553E-02;  0.0000000E+00;  1.6117020E-03;  8.8162744E+02;
  3.5116750E-01;  9.9999998E-03;  2.9999363E-01;4641; -1.8214136E-02;  0.0000000E+00;  1.8488921E-04;  9.9887085E+02;  1.0000000E-01; -9.3547974E+02;3;  1.8134742E+00;  0.0000000E+00; -1.2563819E+00;0; -4.6298739E-02;  3.9912961E+04;  0.0000000E+00; -3.4350583E-01;  4.0000000E+04;  0.0000000E+00;  4.0005508E+04; -4.7069378E-02;  0.0000000E+00;  7.7063887E-04;  9.1346906E+02;
  3.6156666E-01;  9.9999998E-03;  2.4001822E-01;4696; -1.9705588E-02;  0.0000000E+00;  1.6789995E-04;  9.9911304E+02;  1.0000000E-01; -7.3484344E+02;3;  1.6143783E+00;  0.0000000E+00; -1.1465652E+00;0; -4.3121658E-02;  3.9929520E+04;  0.0000000E+00;  3.4495169E-01;  4.0000000E+04;  0.0000000E+00;  4.0003379E+04; -4.4389546E-02;  0.0000000E+00;  1.2678888E-03;  6.9275873E+02;
  3.6150423E-01;  9.9999998E-03;  2.5000927E-01;4697; -1.9504538E-02;  0.0000000E+00;  1.8344227E-04;  9.9901233E+02;  1.0000000E-01; -8.1824847E+02;3;  1.6715690E+00;  0.0000000E+00; -1.1804805E+00;0; -4.2985335E-02;  3.9919445E+04;  0.0000000E+00;  3.5704890E-01;  4.0000000E+04;  0.0000000E+00;  4.0005523E+04; -4.4477936E-02;  0.0000000E+00;  1.4926001E-03;  9.0975397E+02;
  3.6141908E-01;  9.9999998E-03;  2.6000401E-01;4698; -1.9303661E-02;  0.0000000E+00;  1.9324991E-04;  9.9892010E+02;  1.0000000E-01; -8.9469073E+02;3;  1.7305589E+00;  0.0000000E+00; -1.2139870E+00;0; -4.2809702E-02;  3.9911266E+04;  0.0000000E+00;  3.2574230E-01;  4.0000000E+04;  0.0000000E+00;  4.0006676E+04; -4.4579934E-02;  0.0000000E+00;  1.7702323E-03;  1.0367181E+03;
  3.6134002E-01;  9.9999998E-03;  2.7000090E-01;4699; -1.9106340E-02;  0.0000000E+00;  1.7952769E-04;  9.9885223E+02;  1.0000000E-01; -9.5088666E+02;3;  1.7911128E+00;  0.0000000E+00; -1.2456902E+00;0; -4.2847522E-02;  3.9905262E+04;  0.0000000E+00;  2.4802415E-01;  4.0000000E+04;  0.0000000E+00;  4.0007047E+04; -4.4689879E-02;  0.0000000E+00;  1.8423578E-03;  1.0521775E+03;
  3.6126679E-01;  9.9999998E-03;  2.7999866E-01;4700; -1.8914485E-02;  0.0000000E+00;  1.4989305E-04;  9.9880096E+02;  1.0000000E-01; -9.9335461E+02;3;  1.8534573E+00;  0.0000000E+00; -1.2718730E+00;0; -4.3206085E-02;  3.9901508E+04;  0.0000000E+00;  1.2713394E-01;  4.0000000E+04;  0.0000000E+00;  4.0007148E+04; -4.4807054E-02;  0.0000000E+00;  1.6009710E-03;  1.0227882E+03;
  3.6119220E-01;  9.9999998E-03;  2.8999698E-01;4701; -1.8728724E-02;  0.0000000E+00;  1.0888968E-04;  9.9876801E+02;  1.0000000E-01; -1.0206625E+03;3;  1.9169303E+00;  0.0000000E+00; -1.3024329E+00;0; -4.3922476E-02;  3.9899871E+04;  0.0000000E+00; -2.8285962E-02;  4.0000000E+04;  0.0000000E+00;  4.0007156E+04; -4.4934042E-02;  0.0000000E+00;  1.0115637E-03;  9.8653040E+02;
  3.6112875E-01;  9.9999998E-03;  2.9999563E-01;4702; -1.8547503E-02;  0.0000000E+00;  6.4352433E-05;  9.9875433E+02;  1.0000000E-01; -1.0320201E+03;3;  1.9813136E+00;  0.0000000E+00; -1.3366313E+00;0; -4.4840712E-02;  3.9899508E+04;  0.0000000E+00; -2.0217693E-01;  4.0000000E+04;  0.0000000E+00;  4.0006750E+04; -4.5070443E-02;  0.0000000E+00;  2.2973085E-04;  9.9344598E+02;
  3.7149984E-01;  9.9999998E-03;  2.4002063E-01;4757; -2.0095592E-02;  0.0000000E+00;  5.6169891E-05;  9.9914868E+02;  1.0000000E-01; -7.0531342E+02;3;  1.6984708E+00;  0.0000000E+00; -1.2183422E+00;0; -4.2203449E-02;  3.9931113E+04;  0.0000000E+00;  2.4821095E-01;  4.0000000E+04;  0.0000000E+00;  4.0003203E+04; -4.3017522E-02;  0.0000000E+00;  8.1407314E-04;  5.9209192E+02;
  3.7144873E-01;  9.9999998E-03;  2.5001210E-01;4758; -1.9893905E-02;  0.0000000E+00;  6.9376430E-05;  9.9903052E+02;  1.0000000E-01; -8.0318713E+02;3;  1.7552073E+00;  0.0000000E+00; -1.2520149E+00;0; -4.2032629E-02;  3.9919652E+04;  0.0000000E+00;  2.5597668E-01;  4.0000000E+04;  0.0000000E+00;  4.0005434E+04; -4.3060057E-02;  0.0000000E+00;  1.0274292E-03;  8.4001129E+02;
  3.7138519E-01;  9.9999998E-03;  2.6000699E-01;4759; -1.9691831E-02;  0.0000000E+00;  7.2662871E-05;  9.9891852E+02;  1.0000000E-01; -8.9597467E+02;3;  1.8138058E+00;  0.0000000E+00; -1.2860078E+00;0; -4.1851848E-02;  3.9909254E+04;  0.0000000E+00;  2.2809666E-01;  4.0000000E+04;  0.0000000E+00;  4.0006828E+04; -4.3112818E-02;  0.0000000E+00;  1.2609700E-03;  9.9611432E+02;
  3.7132370E-01;  9.9999998E-03;  2.7000359E-01;4760; -1.9491166E-02;  0.0000000E+00;  5.3940788E-05;  9.9881885E+02;  1.0000000E-01; -9.7854022E+02;3;  1.8747134E+00;  0.0000000E+00; -1.3107121E+00;0; -4.1881818E-02;  3.9900441E+04;  0.0000000E+00;  1.6358010E-01;  4.0000000E+04;  0.0000000E+00;  4.0007625E+04; -4.3172389E-02;  0.0000000E+00;  1.2905698E-03;  1.0701843E+03;
  3.7125915E-01;  9.9999998E-03;  2.8000095E-01;4761; -1.9292517E-02;  0.0000000E+00;  2.3875571E-05;  9.9873322E+02;  1.0000000E-01; -1.0495012E+03;3;  1.9374199E+00;  0.0000000E+00; -1.3383338E+00;0; -4.2163678E-02;  3.9893637E+04;  0.0000000E+00;  6.6792957E-02;  4.0000000E+04;  0.0000000E+00;  4.0007988E+04; -4.3238442E-02;  0.0000000E+00;  1.0747639E-03;  1.1161859E+03;
  3.7118605E-01;  9.9999998E-03;  2.8999889E-01;4762; -1.9094769E-02;  0.0000000E+00; -1.7290376E-05;  9.9866699E+02;  1.0000000E-01; -1.1043638E+03;3;  2.0020881E+00;  0.0000000E+00; -1.3713673E+00;0; -4.2775206E-02;  3.9888289E+04;  0.0000000E+00; -5.4606650E-02;  4.0000000E+04;  0.0000000E+00;  4.0008332E+04; -4.3311991E-02;  0.0000000E+00;  5.3678628E-04;  1.1438645E+03;
  3.7111372E-01;  9.9999998E-03;  2.9999709E-01;4763; -1.8892914E-02;  0.0000000E+00; -6.2193365E-05;  9.9861548E+02;  1.0000000E-01; -1.1470293E+03;3;  2.0690508E+00;  0.0000000E+00; -1.4077383E+00;0; -4.3573532E-02;  3.9884613E+04;  0.0000000E+00; -1.8950865E-01;  4.0000000E+04;  0.0000000E+00;  4.0008293E+04; -4.3392517E-02;  0.0000000E+00; -1.8101661E-04;  1.1924365E+03;
  3.8144761E-01;  9.9999998E-03;  2.4001874E-01;4818; -2.0478997E-02;  0.0000000E+00; -5.7330191E-05;  9.9912408E+02;  1.0000000E-01; -7.2565851E+02;3;  1.7825848E+00;  0.0000000E+00; -1.2892195E+00;0; -4.1376285E-02;  3.9926684E+04;  0.0000000E+00;  1.5196230E-01;  4.0000000E+04;  0.0000000E+00;  4.0004453E+04; -4.1790105E-02;  0.0000000E+00;  4.1382088E-04;  6.6645190E+02;
  3.8139915E-01;  9.9999998E-03;  2.5001231E-01;4819; -2.0278139E-02;  0.0000000E+00; -4.9399980E-05;  9.9899280E+02;  1.0000000E-01; -8.3444556E+02;3;  1.8387567E+00;  0.0000000E+00; -1.3239347E+00;0; -4.1181769E-02;  3.9914344E+04;  0.0000000E+00;  1.5101174E-01;  4.0000000E+04;  0.0000000E+00;  4.0006262E+04; -4.1803882E-02;  0.0000000E+00;  6.2211114E-04;  9.0419739E+02;
  3.8135254E-01;  9.9999998E-03;  2.6000810E-01;4820; -2.0076910E-02;  0.0000000E+00; -5.4982680E-05;  9.9886108E+02;  1.0000000E-01; -9.4357825E+02;3;  1.8971167E+00;  0.0000000E+00; -1.3517114E+00;0; -4.1016418E-02;  3.9902555E+04;  0.0000000E+00;  1.2325619E-01;  4.0000000E+04;  0.0000000E+00;  4.0007688E+04; -4.1825835E-02;  0.0000000E+00;  8.0941478E-04;  1.0669302E+03;
  3.8131383E-01;  9.9999998E-03;  2.7000493E-01;4821; -1.9876249E-02;  0.0000000E+00; -7.7243705E-05;  9.9874054E+02;  1.0000000E-01; -1.0434272E+03;3;  1.9576000E+00;  0.0000000E+00; -1.3737736E+00;0; -4.1022439E-02;  3.9891930E+04;  0.0000000E+00;  6.7227192E-02;  4.0000000E+04;  0.0000000E+00;  4.0008672E+04; -4.1853633E-02;  0.0000000E+00;  8.3119282E-04;  1.1779480E+03;
  3.8126576E-01;  9.9999998E-03;  2.8000227E-01;4822; -1.9675668E-02;  0.0000000E+00; -1.0833341E-04;  9.9863318E+02;  1.0000000E-01; -1.1323630E+03;3;  2.0198233E+00;  0.0000000E+00; -1.4048089E+00;0; -4.1240130E-02;  3.9882918E+04;  0.0000000E+00; -1.0029281E-02;  4.0000000E+04;  0.0000000E+00;  4.0009215E+04; -4.1887928E-02;  0.0000000E+00;  6.4779847E-04;  1.2706603E+03;
  3.8120344E-01;  9.9999998E-03;  2.9000002E-01;4823; -1.9473124E-02;  0.0000000E+00; -1.4938906E-04;  9.9853973E+02;  1.0000000E-01; -1.2097930E+03;3;  2.0839493E+00;  0.0000000E+00; -1.4406097E+00;0; -4.1753549E-02;  3.9875109E+04;  0.0000000E+00; -1.0149094E-01;  4.0000000E+04;  0.0000000E+00;  4.0009609E+04; -4.1928422E-02;  0.0000000E+00;  1.7487381E-04;  1.3453978E+03;
  3.8113421E-01;  9.9999998E-03;  2.9999802E-01;4824; -1.9262161E-02;  0.0000000E+00; -1.9453661E-04;  9.9846246E+02;  1.0000000E-01; -1.2738406E+03;3;  2.1502993E+00;  0.0000000E+00; -1.4784844E+00;0; -4.2450737E-02;  3.9868758E+04;  0.0000000E+00; -1.9973895E-01;  4.0000000E+04;  0.0000000E+00;  4.0010160E+04; -4.1973509E-02;  0.0000000E+00; -4.7722686E-04;  1.4206809E+03;
  3.9143479E-01;  9.9999998E-03;  2.4001361E-01;4879; -2.0863647E-02;  0.0000000E+00; -1.7310906E-04;  9.9905444E+02;  1.0000000E-01; -7.8338519E+02;3;  1.8677051E+00;  0.0000000E+00; -1.3597488E+00;0; -4.0626176E-02;  3.9918371E+04;  0.0000000E+00;  6.0026884E-02;  4.0000000E+04;  0.0000000E+00;  4.0006543E+04; -4.0692635E-02;  0.0000000E+00;  6.6459877E-05;  9.1951666E+02;
  3.9138994E-01;  9.9999998E-03;  2.5001067E-01;4880; -2.0664770E-02;  0.0000000E+00; -1.7669440E-04;  9.9891028E+02;  1.0000000E-01; -9.0278918E+02;3;  1.9231476E+00;  0.0000000E+00; -1.3886901E+00;0; -4.0439989E-02;  3.9905055E+04;  0.0000000E+00;  5.0426699E-02;  4.0000000E+04;  0.0000000E+00;  4.0007656E+04; -4.0689223E-02;  0.0000000E+00;  2.4923231E-04;  1.0810255E+03;
  3.9135283E-01;  9.9999998E-03;  2.6000780E-01;4881; -2.0465836E-02;  0.0000000E+00; -1.9113507E-04;  9.9876398E+02;  1.0000000E-01; -1.0240204E+03;3;  1.9808472E+00;  0.0000000E+00; -1.4115049E+00;0; -4.0294517E-02;  3.9892465E+04;  0.0000000E+00;  2.4564244E-02;  4.0000000E+04;  0.0000000E+00;  4.0009129E+04; -4.0694177E-02;  0.0000000E+00;  3.9966084E-04;  1.2265382E+03;
  3.9132711E-01;  9.9999998E-03;  2.7000520E-01;4882; -2.0267505E-02;  0.0000000E+00; -2.1634801E-04;  9.9863348E+02;  1.0000000E-01; -1.1321161E+03;3;  2.0406601E+00;  0.0000000E+00; -1.4387140E+00;0; -4.0276118E-02;  3.9880762E+04;  0.0000000E+00; -1.8734287E-02;  4.0000000E+04;  0.0000000E+00;  4.0009887E+04; -4.0705394E-02;  0.0000000E+00;  4.2927708E-04;  1.3495540E+03;
  3.9129448E-01;  9.9999998E-03;  2.8000271E-01;4883; -2.0069074E-02;  0.0000000E+00; -2.4695249E-04;  9.9851038E+02;  1.0000000E-01; -1.2341378E+03;3;  2.1022792E+00;  0.0000000E+00; -1.4715810E+00;0; -4.0418573E-02;  3.9870129E+04;  0.0000000E+00; -7.3516749E-02;  4.0000000E+04;  0.0000000E+00;  4.0010895E+04; -4.0722948E-02;  0.0000000E+00;  3.0437368E-04;  1.4696089E+03;
  3.9124402E-01;  9.9999998E-03;  2.9000056E-01;4884; -1.9868106E-02;  0.0000000E+00; -2.8768202E-04;  9.9840369E+02;  1.0000000E-01; -1.3225304E+03;3;  2.1656992E+00;  0.0000000E+00; -1.5087888E+00;0; -4.0843200E-02;  3.9860867E+04;  0.0000000E+00; -1.3276061E-01;  4.0000000E+04;  0.0000000E+00;  4.0011168E+04; -4.0745761E-02;  0.0000000E+00; -9.7437900E-05;  1.5597706E+03;
  3.9118204E-01;  9.9999998E-03;  2.9999849E-01;4885; -1.9658493E-02;  0.0000000E+00; -3.3371686E-04;  9.9830896E+02;  1.0000000E-01; -1.4009973E+03;3;  2.2312634E+00;  0.0000000E+00; -1.5481408E+00;0; -4.1466206E-02;  3.9853098E+04;  0.0000000E+00; -1.9388318E-01;  4.0000000E+04;  0.0000000E+00;  4.0011766E+04; -4.0770866E-02;  0.0000000E+00; -6.9533900E-04;  1.6453037E+03;
  4.0143239E-01;  9.9999998E-03;  2.4000758E-01;4940; -2.1252802E-02;  0.0000000E+00; -2.9877896E-04;  9.9896289E+02;  1.0000000E-01; -8.5923486E+02;3;  1.9539819E+00;  0.0000000E+00; -1.4238818E+00;0; -3.9965279E-02;  3.9907426E+04;  0.0000000E+00; -2.4193272E-02;  4.0000000E+04;  0.0000000E+00;  4.0009160E+04; -3.9698016E-02;  0.0000000E+00; -2.6726295E-04;  1.2317052E+03;
  4.0139356E-01;  9.9999998E-03;  2.5000820E-01;4941; -2.1056531E-02;  0.0000000E+00; -3.1512670E-04;  9.9880554E+02;  1.0000000E-01; -9.8960156E+02;3;  2.0085990E+00;  0.0000000E+00; -1.4475613E+00;0; -3.9799396E-02;  3.9894016E+04;  0.0000000E+00; -3.8017638E-02;  4.0000000E+04;  0.0000000E+00;  4.0009531E+04; -3.9684482E-02;  0.0000000E+00; -1.1491528E-04;  1.3038365E+03;
  4.0136340E-01;  9.9999998E-03;  2.6000679E-01;4942; -2.0860966E-02;  0.0000000E+00; -3.3735277E-04;  9.9865442E+02;  1.0000000E-01; -1.1147832E+03;3;  2.0652590E+00;  0.0000000E+00; -1.4712025E+00;0; -3.9671715E-02;  3.9881191E+04;  0.0000000E+00; -5.7682212E-02;  4.0000000E+04;  0.0000000E+00;  4.0010438E+04; -3.9680477E-02;  0.0000000E+00;  8.7633407E-06;  1.4164294E+03;
  4.0134248E-01;  9.9999998E-03;  2.7000475E-01;4943; -2.0666718E-02;  0.0000000E+00; -3.6308056E-04;  9.9851581E+02;  1.0000000E-01; -1.2296442E+03;3;  2.1239424E+00;  0.0000000E+00; -1.5020056E+00;0; -3.9612360E-02;  3.9868930E+04;  0.0000000E+00; -8.4647447E-02;  4.0000000E+04;  0.0000000E+00;  4.0011375E+04; -3.9684266E-02;  0.0000000E+00;  7.1906717E-05;  1.5468430E+03;
  4.0131742E-01;  9.9999998E-03;  2.8000265E-01;4944; -2.0473378E-02;  0.0000000E+00; -3.9416424E-04;  9.9838812E+02;  1.0000000E-01; -1.3354189E+03;3;  2.1846888E+00;  0.0000000E+00; -1.5383314E+00;0; -3.9700840E-02;  3.9857887E+04;  0.0000000E+00; -1.1619640E-01;  4.0000000E+04;  0.0000000E+00;  4.0012156E+04; -3.9694685E-02;  0.0000000E+00; -6.1548553E-06;  1.6684257E+03;
  4.0127987E-01;  9.9999998E-03;  2.9000068E-01;4945; -2.0279123E-02;  0.0000000E+00; -4.3438279E-04;  9.9827454E+02;  1.0000000E-01; -1.4294904E+03;3;  2.2474246E+00;  0.0000000E+00; -1.5782354E+00;0; -4.0045273E-02;  3.9848109E+04;  0.0000000E+00; -1.4814198E-01;  4.0000000E+04;  0.0000000E+00;  4.0012809E+04; -3.9709415E-02;  0.0000000E+00; -3.3585567E-04;  1.7612363E+03;
  4.0122843E-01;  9.9999998E-03;  2.9999864E-01;4946; -2.0079285E-02;  0.0000000E+00; -4.7975054E-04;  9.9817010E+02;  1.0000000E-01; -1.5160558E+03;3;  2.3120809E+00;  0.0000000E+00; -1.6175857E+00;0; -4.0583897E-02;  3.9839453E+04;  0.0000000E+00; -1.7806837E-01;  4.0000000E+04;  0.0000000E+00;  4.0013438E+04; -3.9724950E-02;  0.0000000E+00; -8.5894787E-04;  1.8490946E+03;
  4.1143847E-01;  9.9999998E-03;  2.4000299E-01;5001; -2.1647224E-02;  0.0000000E+00; -4.4596932E-04;  9.9886023E+02;  1.0000000E-01; -9.4426953E+02;3;  2.0416343E+00;  0.0000000E+00; -1.4813272E+00;0; -3.9411865E-02;  3.9896742E+04;  0.0000000E+00; -9.9718869E-02;  4.0000000E+04;  0.0000000E+00;  4.0010809E+04; -3.8765084E-02;  0.0000000E+00; -6.4678054E-04;  1.4786898E+03;
  4.1141030E-01;  9.9999998E-03;  2.5000587E-01;5002; -2.1453889E-02;  0.0000000E+00; -4.6847918E-04;  9.9870270E+02;  1.0000000E-01; -1.0747843E+03;3;  2.0945449E+00;  0.0000000E+00; -1.5087689E+00;0; -3.9245136E-02;  3.9883652E+04;  0.0000000E+00; -1.1447733E-01;  4.0000000E+04;  0.0000000E+00;  4.0011000E+04; -3.8744114E-02;  0.0000000E+00; -5.0102157E-04;  1.5029902E+03;
  4.1138917E-01;  9.9999998E-03;  2.6000553E-01;5003; -2.1262333E-02;  0.0000000E+00; -4.9457868E-04;  9.9855188E+02;  1.0000000E-01; -1.1997191E+03;3;  2.1499743E+00;  0.0000000E+00; -1.5355648E+00;0; -3.9115068E-02;  3.9871090E+04;  0.0000000E+00; -1.2751521E-01;  4.0000000E+04;  0.0000000E+00;  4.0011781E+04; -3.8733963E-02;  0.0000000E+00; -3.8110450E-04;  1.5955570E+03;
  4.1137132E-01;  9.9999998E-03;  2.7000409E-01;5004; -2.1073248E-02;  0.0000000E+00; -5.1985856E-04;  9.9841376E+02;  1.0000000E-01; -1.3141849E+03;3;  2.2078087E+00;  0.0000000E+00; -1.5681990E+00;0; -3.9013471E-02;  3.9859277E+04;  0.0000000E+00; -1.4074801E-01;  4.0000000E+04;  0.0000000E+00;  4.0012461E+04; -3.8733419E-02;  0.0000000E+00; -2.8005071E-04;  1.7221664E+03;
  4.1134840E-01;  9.9999998E-03;  2.8000242E-01;5005; -2.0886770E-02;  0.0000000E+00; -5.5041118E-04;  9.9828711E+02;  1.0000000E-01; -1.4191202E+03;3;  2.2677813E+00;  0.0000000E+00; -1.6050875E+00;0; -3.9045155E-02;  3.9848008E+04;  0.0000000E+00; -1.5391620E-01;  4.0000000E+04;  0.0000000E+00;  4.0013297E+04; -3.8740598E-02;  0.0000000E+00; -3.0455831E-04;  1.8373608E+03;
  4.1131315E-01;  9.9999998E-03;  2.9000071E-01;5006; -2.0702135E-02;  0.0000000E+00; -5.9058412E-04;  9.9817328E+02;  1.0000000E-01; -1.5133892E+03;3;  2.3295348E+00;  0.0000000E+00; -1.6458615E+00;0; -3.9331838E-02;  3.9838074E+04;  0.0000000E+00; -1.6246660E-01;  4.0000000E+04;  0.0000000E+00;  4.0014094E+04; -3.8752299E-02;  0.0000000E+00; -5.7953916E-04;  1.9224086E+03;
  4.1126436E-01;  9.9999998E-03;  2.9999885E-01;5007; -2.0517288E-02;  0.0000000E+00; -6.3508633E-04;  9.9807037E+02;  1.0000000E-01; -1.5986707E+03;3;  2.3930779E+00;  0.0000000E+00; -1.6859329E+00;0; -3.9796513E-02;  3.9829422E+04;  0.0000000E+00; -1.6093022E-01;  4.0000000E+04;  0.0000000E+00;  4.0014617E+04; -3.8764350E-02;  0.0000000E+00; -1.0321614E-03;  1.9987793E+03;
  4.2146733E-01;  9.9999998E-03;  2.4000058E-01;5062; -2.2044901E-02;  0.0000000E+00; -6.1123702E-04;  9.9877960E+02;  1.0000000E-01; -1.0110825E+03;3;  2.1298189E+00;  0.0000000E+00; -1.5431244E+00;0; -3.8912151E-02;  3.9888801E+04;  0.0000000E+00; -1.6410968E-01;  4.0000000E+04;  0.0000000E+00;  4.0011992E+04; -3.7849680E-02;  0.0000000E+00; -1.0624699E-03;  1.6187797E+03;
  4.2145270E-01;  9.9999998E-03;  2.5000435E-01;5063; -2.1854404E-02;  0.0000000E+00; -6.3664361E-04;  9.9862482E+02;  1.0000000E-01; -1.1393257E+03;3;  2.1814716E+00;  0.0000000E+00; -1.5714631E+00;0; -3.8740359E-02;  3.9876336E+04;  0.0000000E+00; -1.7853591E-01;  4.0000000E+04;  0.0000000E+00;  4.0012016E+04; -3.7820697E-02;  0.0000000E+00; -9.1966410E-04;  1.6352703E+03;
  4.2144030E-01;  9.9999998E-03;  2.6000473E-01;5064; -2.1666719E-02;  0.0000000E+00; -6.6269242E-04;  9.9848590E+02;  1.0000000E-01; -1.2543842E+03;3;  2.2358496E+00;  0.0000000E+00; -1.6011333E+00;0; -3.8586196E-02;  3.9864422E+04;  0.0000000E+00; -1.8613860E-01;  4.0000000E+04;  0.0000000E+00;  4.0012434E+04; -3.7803788E-02;  0.0000000E+00; -7.8240619E-04;  1.7157284E+03;
  4.2142275E-01;  9.9999998E-03;  2.7000374E-01;5065; -2.1482853E-02;  0.0000000E+00; -6.8704499E-04;  9.9835223E+02;  1.0000000E-01; -1.3651465E+03;3;  2.2926900E+00;  0.0000000E+00; -1.6342640E+00;0; -3.8444106E-02;  3.9853055E+04;  0.0000000E+00; -1.8702132E-01;  4.0000000E+04;  0.0000000E+00;  4.0013422E+04; -3.7798263E-02;  0.0000000E+00; -6.4584392E-04;  1.8365381E+03;
  4.2139620E-01;  9.9999998E-03;  2.8000247E-01;5066; -2.1303646E-02;  0.0000000E+00; -7.1699196E-04;  9.9823486E+02;  1.0000000E-01; -1.4623783E+03;3;  2.3516164E+00;  0.0000000E+00; -1.6722130E+00;0; -3.8427141E-02;  3.9842594E+04;  0.0000000E+00; -1.7920959E-01;  4.0000000E+04;  0.0000000E+00;  4.0013988E+04; -3.7801746E-02;  0.0000000E+00; -6.2539417E-04;  1.9336335E+03;
  4.2135692E-01;  9.9999998E-03;  2.9000100E-01;5067; -2.1129716E-02;  0.0000000E+00; -7.5639022E-04;  9.9812451E+02;  1.0000000E-01; -1.5537831E+03;3;  2.4122353E+00;  0.0000000E+00; -1.7124674E+00;0; -3.8653813E-02;  3.9833211E+04;  0.0000000E+00; -1.5697670E-01;  4.0000000E+04;  0.0000000E+00;  4.0014719E+04; -3.7810680E-02;  0.0000000E+00; -8.4313267E-04;  2.0067665E+03;
  4.2130119E-01;  9.9999998E-03;  2.9999930E-01;5068; -2.0961864E-02;  0.0000000E+00; -7.9995941E-04;  9.9802661E+02;  1.0000000E-01; -1.6349166E+03;3;  2.4744217E+00;  0.0000000E+00; -1.7533891E+00;0; -3.9053604E-02;  3.9825008E+04;  0.0000000E+00; -1.1243984E-01;  4.0000000E+04;  0.0000000E+00;  4.0015141E+04; -3.7820943E-02;  0.0000000E+00; -1.2326596E-03;  2.0684124E+03;
  4.3151379E-01;  9.9999998E-03;  2.4000031E-01;5123; -2.2440502E-02;  0.0000000E+00; -7.8899052E-04;  9.9874286E+02;  1.0000000E-01; -1.0415013E+03;3;  2.2187264E+00;  0.0000000E+00; -1.6066191E+00;0; -3.8414195E-02;  3.9885445E+04;  0.0000000E+00; -2.1011646E-01;  4.0000000E+04;  0.0000000E+00;  4.0012070E+04; -3.6916196E-02;  0.0000000E+00; -1.4979999E-03;  1.6423436E+03;
  4.3150711E-01;  9.9999998E-03;  2.5000414E-01;5124; -2.2252025E-02;  0.0000000E+00; -8.1579259E-04;  9.9859979E+02;  1.0000000E-01; -1.1600659E+03;3;  2.2692497E+00;  0.0000000E+00; -1.6358725E+00;0; -3.8234055E-02;  3.9874055E+04;  0.0000000E+00; -2.2041596E-01;  4.0000000E+04;  0.0000000E+00;  4.0012141E+04; -3.6877271E-02;  0.0000000E+00; -1.3567858E-03;  1.6654368E+03;
  4.3149933E-01;  9.9999998E-03;  2.6000473E-01;5125; -2.2067348E-02;  0.0000000E+00; -8.4042607E-04;  9.9847369E+02;  1.0000000E-01; -1.2645073E+03;3;  2.3225315E+00;  0.0000000E+00; -1.6668421E+00;0; -3.8049672E-02;  3.9863188E+04;  0.0000000E+00; -2.1934783E-01;  4.0000000E+04;  0.0000000E+00;  4.0012664E+04; -3.6851011E-02;  0.0000000E+00; -1.1986620E-03;  1.7466007E+03;
  4.3148145E-01;  9.9999998E-03;  2.7000403E-01;5126; -2.1887943E-02;  0.0000000E+00; -8.6277357E-04;  9.9835309E+02;  1.0000000E-01; -1.3644551E+03;3;  2.3782585E+00;  0.0000000E+00; -1.7001054E+00;0; -3.7857659E-02;  3.9852730E+04;  0.0000000E+00; -2.0461532E-01;  4.0000000E+04;  0.0000000E+00;  4.0013531E+04; -3.6837127E-02;  0.0000000E+00; -1.0205327E-03;  1.8555249E+03;
  4.3145391E-01;  9.9999998E-03;  2.8000301E-01;5127; -2.1715438E-02;  0.0000000E+00; -8.9275790E-04;  9.9824304E+02;  1.0000000E-01; -1.4556130E+03;3;  2.4360628E+00;  0.0000000E+00; -1.7369450E+00;0; -3.7803527E-02;  3.9843234E+04;  0.0000000E+00; -1.7130528E-01;  4.0000000E+04;  0.0000000E+00;  4.0014340E+04; -3.6833234E-02;  0.0000000E+00; -9.7029225E-04;  1.9380082E+03;
  4.3141305E-01;  9.9999998E-03;  2.9000175E-01;5128; -2.1551676E-02;  0.0000000E+00; -9.3179510E-04;  9.9814368E+02;  1.0000000E-01; -1.5379316E+03;3;  2.4955146E+00;  0.0000000E+00; -1.7781949E+00;0; -3.7979487E-02;  3.9834672E+04;  0.0000000E+00; -1.1104281E-01;  4.0000000E+04;  0.0000000E+00;  4.0014648E+04; -3.6836144E-02;  0.0000000E+00; -1.1433434E-03;  1.9911870E+03;
  4.3135461E-01;  9.9999998E-03;  3.0000019E-01;5129; -2.1400280E-02;  0.0000000E+00; -9.7436568E-04;  9.9805255E+02;  1.0000000E-01; -1.6134357E+03;3;  2.5563552E+00;  0.0000000E+00; -1.8206559E+00;0; -3.8314048E-02;  3.9826840E+04;  0.0000000E+00; -1.3670433E-02;  4.0000000E+04;  0.0000000E+00;  4.0014906E+04; -3.6842067E-02;  0.0000000E+00; -1.4719830E-03;  2.0434999E+03;
  4.4156978E-01;  9.9999998E-03;  2.4000245E-01;5184; -2.2827324E-02;  0.0000000E+00; -9.7739499E-04;  9.9876007E+02;  1.0000000E-01; -1.0272795E+03;3;  2.3082974E+00;  0.0000000E+00; -1.6708061E+00;0; -3.7895486E-02;  3.9887910E+04;  0.0000000E+00; -2.3240477E-01;  4.0000000E+04;  0.0000000E+00;  4.0011012E+04; -3.5941795E-02;  0.0000000E+00; -1.9536898E-03;  1.5338346E+03;
  4.4156778E-01;  9.9999998E-03;  2.5000554E-01;5185; -2.2639813E-02;  0.0000000E+00; -1.0053489E-03;  9.9863678E+02;  1.0000000E-01; -1.1294000E+03;3;  2.3576009E+00;  0.0000000E+00; -1.7004472E+00;0; -3.7710566E-02;  3.9877730E+04;  0.0000000E+00; -2.3541519E-01;  4.0000000E+04;  0.0000000E+00;  4.0011270E+04; -3.5890140E-02;  0.0000000E+00; -1.8204254E-03;  1.5723802E+03;
  4.4156268E-01;  9.9999998E-03;  2.6000577E-01;5186; -2.2456920E-02;  0.0000000E+00; -1.0261760E-03;  9.9852576E+02;  1.0000000E-01; -1.2213975E+03;3;  2.4097517E+00;  0.0000000E+00; -1.7317718E+00;0; -3.7480962E-02;  3.9868113E+04;  0.0000000E+00; -2.2304818E-01;  4.0000000E+04;  0.0000000E+00;  4.0012090E+04; -3.5850987E-02;  0.0000000E+00; -1.6299760E-03;  1.6705647E+03;
  4.4154757E-01;  9.9999998E-03;  2.7000517E-01;5187; -2.2280656E-02;  0.0000000E+00; -1.0460207E-03;  9.9842297E+02;  1.0000000E-01; -1.3065309E+03;3;  2.4643397E+00;  0.0000000E+00; -1.7658129E+00;0; -3.7233591E-02;  3.9858688E+04;  0.0000000E+00; -1.9063611E-01;  4.0000000E+04;  0.0000000E+00;  4.0012867E+04; -3.5824407E-02;  0.0000000E+00; -1.4091833E-03;  1.7673082E+03;
  4.4152427E-01;  9.9999998E-03;  2.8000423E-01;5188; -2.2113232E-02;  0.0000000E+00; -1.0768783E-03;  9.9832349E+02;  1.0000000E-01; -1.3889482E+03;3;  2.5210381E+00;  0.0000000E+00; -1.8022306E+00;0; -3.7151162E-02;  3.9850465E+04;  0.0000000E+00; -1.3059637E-01;  4.0000000E+04;  0.0000000E+00;  4.0013562E+04; -3.5808317E-02;  0.0000000E+00; -1.3428450E-03;  1.8341165E+03;
  4.4148716E-01;  9.9999998E-03;  2.9000306E-01;5189; -2.1957492E-02;  0.0000000E+00; -1.1156970E-03;  9.9823145E+02;  1.0000000E-01; -1.4651930E+03;3;  2.5793204E+00;  0.0000000E+00; -1.8434609E+00;0; -3.7277877E-02;  3.9842535E+04;  0.0000000E+00; -3.2620147E-02;  4.0000000E+04;  0.0000000E+00;  4.0013812E+04; -3.5800476E-02;  0.0000000E+00; -1.4774026E-03;  1.8803564E+03;
  4.4143218E-01;  9.9999998E-03;  3.0000162E-01;5190; -2.1819390E-02;  0.0000000E+00; -1.1575625E-03;  9.9815033E+02;  1.0000000E-01; -1.5324010E+03;3;  2.6388931E+00;  0.0000000E+00; -1.8859694E+00;0; -3.7550841E-02;  3.9835809E+04;  0.0000000E+00;  1.1485093E-01;  4.0000000E+04;  0.0000000E+00;  4.0014215E+04; -3.5797950E-02;  0.0000000E+00; -1.7528915E-03;  1.9334780E+03;
  4.5163515E-01;  9.9999998E-03;  2.4000664E-01;5245; -2.3199178E-02;  0.0000000E+00; -1.1733830E-03;  9.9882581E+02;  1.0000000E-01; -9.7281189E+02;3;  2.3983736E+00;  0.0000000E+00; -1.7350487E+00;0; -3.7341632E-02;  3.9895312E+04;  0.0000000E+00; -2.3155464E-01;  4.0000000E+04;  0.0000000E+00;  4.0009340E+04; -3.4918293E-02;  0.0000000E+00; -2.4233400E-03;  1.3125983E+03;
  4.5163462E-01;  9.9999998E-03;  2.5000829E-01;5246; -2.3011412E-02;  0.0000000E+00; -1.2023441E-03;  9.9872461E+02;  1.0000000E-01; -1.0566614E+03;3;  2.4463694E+00;  0.0000000E+00; -1.7664694E+00;0; -3.7152816E-02;  3.9886516E+04;  0.0000000E+00; -2.2655386E-01;  4.0000000E+04;  0.0000000E+00;  4.0009797E+04; -3.4851886E-02;  0.0000000E+00; -2.3009302E-03;  1.3811799E+03;
  4.5163193E-01;  9.9999998E-03;  2.6000783E-01;5247; -2.2828916E-02;  0.0000000E+00; -1.2187036E-03;  9.9863458E+02;  1.0000000E-01; -1.1312272E+03;3;  2.4972894E+00;  0.0000000E+00; -1.7974072E+00;0; -3.6874216E-02;  3.9878102E+04;  0.0000000E+00; -2.0256607E-01;  4.0000000E+04;  0.0000000E+00;  4.0010707E+04; -3.4797039E-02;  0.0000000E+00; -2.0771760E-03;  1.4990393E+03;
  4.5162401E-01;  9.9999998E-03;  2.7000701E-01;5248; -2.2654016E-02;  0.0000000E+00; -1.2366340E-03;  9.9854694E+02;  1.0000000E-01; -1.2038177E+03;3;  2.5507543E+00;  0.0000000E+00; -1.8308415E+00;0; -3.6578011E-02;  3.9870398E+04;  0.0000000E+00; -1.5299237E-01;  4.0000000E+04;  0.0000000E+00;  4.0011578E+04; -3.4753840E-02;  0.0000000E+00; -1.8241702E-03;  1.5922617E+03;
  4.5160994E-01;  9.9999998E-03;  2.8000605E-01;5249; -2.2489216E-02;  0.0000000E+00; -1.2674910E-03;  9.9845758E+02;  1.0000000E-01; -1.2778896E+03;3;  2.6063659E+00;  0.0000000E+00; -1.8669307E+00;0; -3.6454879E-02;  3.9862957E+04;  0.0000000E+00; -6.9019422E-02;  4.0000000E+04;  0.0000000E+00;  4.0012227E+04; -3.4721278E-02;  0.0000000E+00; -1.7335996E-03;  1.6526554E+03;
  4.5158190E-01;  9.9999998E-03;  2.9000491E-01;5250; -2.2338090E-02;  0.0000000E+00; -1.3063439E-03;  9.9837946E+02;  1.0000000E-01; -1.3425792E+03;3;  2.6635590E+00;  0.0000000E+00; -1.9086103E+00;0; -3.6532838E-02;  3.9856117E+04;  0.0000000E+00;  5.9357774E-02;  4.0000000E+04;  0.0000000E+00;  4.0012410E+04; -3.4698423E-02;  0.0000000E+00; -1.8344165E-03;  1.6927897E+03;
  4.5153564E-01;  9.9999998E-03;  3.0000353E-01;5251; -2.2208128E-02;  0.0000000E+00; -1.3475873E-03;  9.9830701E+02;  1.0000000E-01; -1.4026268E+03;3;  2.7219596E+00;  0.0000000E+00; -1.9501712E+00;0; -3.6742311E-02;  3.9850266E+04;  0.0000000E+00;  2.4357693E-01;  4.0000000E+04;  0.0000000E+00;  4.0012531E+04; -3.4683503E-02;  0.0000000E+00; -2.0588073E-03;  1.7640992E+03;
  4.6169555E-01;  9.9999998E-03;  2.4001238E-01;5306; -2.3550956E-02;  0.0000000E+00; -1.3735085E-03;  9.9893097E+02;  1.0000000E-01; -8.8565387E+02;3;  2.4888744E+00;  0.0000000E+00; -1.8015049E+00;0; -3.6751822E-02;  3.9906164E+04;  0.0000000E+00; -2.1018547E-01;  4.0000000E+04;  0.0000000E+00;  4.0006980E+04; -3.3853479E-02;  0.0000000E+00; -2.8983427E-03;  1.0140742E+03;
  4.6169412E-01;  9.9999998E-03;  2.5001183E-01;5307; -2.3361761E-02;  0.0000000E+00; -1.4012988E-03;  9.9884564E+02;  1.0000000E-01; -9.5636792E+02;3;  2.5353816E+00;  0.0000000E+00; -1.8324819E+00;0; -3.6545079E-02;  3.9898516E+04;  0.0000000E+00; -1.9801293E-01;  4.0000000E+04;  0.0000000E+00;  4.0008055E+04; -3.3771887E-02;  0.0000000E+00; -2.7731929E-03;  1.1378123E+03;
  4.6169016E-01;  9.9999998E-03;  2.6001048E-01;5308; -2.3178123E-02;  0.0000000E+00; -1.4147056E-03;  9.9877209E+02;  1.0000000E-01; -1.0173045E+03;3;  2.5849550E+00;  0.0000000E+00; -1.8636370E+00;0; -3.6225371E-02;  3.9891406E+04;  0.0000000E+00; -1.6341662E-01;  4.0000000E+04;  0.0000000E+00;  4.0009172E+04; -3.3700697E-02;  0.0000000E+00; -2.5246739E-03;  1.2788430E+03;
  4.6168080E-01;  9.9999998E-03;  2.7000937E-01;5309; -2.3002211E-02;  0.0000000E+00; -1.4324432E-03;  9.9869763E+02;  1.0000000E-01; -1.0789817E+03;3;  2.6371818E+00;  0.0000000E+00; -1.8962605E+00;0; -3.5900000E-02;  3.9884516E+04;  0.0000000E+00; -9.8677844E-02;  4.0000000E+04;  0.0000000E+00;  4.0009938E+04; -3.3640359E-02;  0.0000000E+00; -2.2596412E-03;  1.3719291E+03;
  4.6166593E-01;  9.9999998E-03;  2.8000826E-01;5310; -2.2836749E-02;  0.0000000E+00; -1.4628277E-03;  9.9862457E+02;  1.0000000E-01; -1.1395232E+03;3;  2.6915867E+00;  0.0000000E+00; -1.9311471E+00;0; -3.5734572E-02;  3.9878168E+04;  0.0000000E+00;  3.9373208E-03;  4.0000000E+04;  0.0000000E+00;  4.0010320E+04; -3.3590771E-02;  0.0000000E+00; -2.1438003E-03;  1.4256368E+03;
  4.6164039E-01;  9.9999998E-03;  2.9000705E-01;5311; -2.2685815E-02;  0.0000000E+00; -1.5012332E-03;  9.9855408E+02;  1.0000000E-01; -1.1979413E+03;3;  2.7476947E+00;  0.0000000E+00; -1.9723642E+00;0; -3.5757534E-02;  3.9872512E+04;  0.0000000E+00;  1.5124825E-01;  4.0000000E+04;  0.0000000E+00;  4.0010855E+04; -3.3551749E-02;  0.0000000E+00; -2.2057856E-03;  1.4797292E+03;
  4.6159989E-01;  9.9999998E-03;  3.0000564E-01;5312; -2.2557614E-02;  0.0000000E+00; -1.5414992E-03;  9.9848834E+02;  1.0000000E-01; -1.2523595E+03;3;  2.8050487E+00;  0.0000000E+00; -2.0158811E+00;0; -3.5894573E-02;  3.9867078E+04;  0.0000000E+00;  3.5127461E-01;  4.0000000E+04;  0.0000000E+00;  4.0010871E+04; -3.3522908E-02;  0.0000000E+00; -2.3716658E-03;  1.5807997E+03;
  4.7169253E-01;  9.9999998E-03;  2.4001805E-01;5367; -2.3878762E-02;  0.0000000E+00; -1.5734473E-03;  9.9903259E+02;  1.0000000E-01; -8.0145874E+02;3;  2.5792060E+00;  0.0000000E+00; -1.8677412E+00;0; -3.6138918E-02;  3.9917391E+04;  0.0000000E+00; -1.7203629E-01;  4.0000000E+04;  0.0000000E+00;  4.0004828E+04; -3.2770272E-02;  0.0000000E+00; -3.3686445E-03;  7.2289178E+02;
  4.7168398E-01;  9.9999998E-03;  2.5001514E-01;5368; -2.3687027E-02;  0.0000000E+00; -1.5951302E-03;  9.9896667E+02;  1.0000000E-01; -8.5607446E+02;3;  2.6240609E+00;  0.0000000E+00; -1.8985617E+00;0; -3.5880022E-02;  3.9910297E+04;  0.0000000E+00; -1.5532579E-01;  4.0000000E+04;  0.0000000E+00;  4.0006449E+04; -3.2675963E-02;  0.0000000E+00; -3.2040600E-03;  9.1585583E+02;
  4.7167516E-01;  9.9999998E-03;  2.6001307E-01;5369; -2.3500815E-02;  0.0000000E+00; -1.6088341E-03;  9.9889978E+02;  1.0000000E-01; -9.1152972E+02;3;  2.6721349E+00;  0.0000000E+00; -1.9287641E+00;0; -3.5534389E-02;  3.9903832E+04;  0.0000000E+00; -1.1501031E-01;  4.0000000E+04;  0.0000000E+00;  4.0007785E+04; -3.2590318E-02;  0.0000000E+00; -2.9440708E-03;  1.0771462E+03;
  4.7166160E-01;  9.9999998E-03;  2.7001169E-01;5370; -2.3321912E-02;  0.0000000E+00; -1.6295993E-03;  9.9883777E+02;  1.0000000E-01; -9.6288629E+02;3;  2.7230551E+00;  0.0000000E+00; -1.9600351E+00;0; -3.5210587E-02;  3.9897738E+04;  0.0000000E+00; -4.3701719E-02;  4.0000000E+04;  0.0000000E+00;  4.0008383E+04; -3.2514501E-02;  0.0000000E+00; -2.6960848E-03;  1.1657782E+03;
  4.7163996E-01;  9.9999998E-03;  2.8001040E-01;5371; -2.3152890E-02;  0.0000000E+00; -1.6604707E-03;  9.9877527E+02;  1.0000000E-01; -1.0146873E+03;3;  2.7762270E+00;  0.0000000E+00; -1.9952010E+00;0; -3.5016432E-02;  3.9892098E+04;  0.0000000E+00;  6.3447736E-02;  4.0000000E+04;  0.0000000E+00;  4.0009023E+04; -3.2449491E-02;  0.0000000E+00; -2.5669395E-03;  1.2245608E+03;
  4.7161251E-01;  9.9999998E-03;  2.9000905E-01;5372; -2.2998108E-02;  0.0000000E+00; -1.6978179E-03;  9.9871149E+02;  1.0000000E-01; -1.0675253E+03;3;  2.8312228E+00;  0.0000000E+00; -2.0354474E+00;0; -3.4978043E-02;  3.9887066E+04;  0.0000000E+00;  2.0829551E-01;  4.0000000E+04;  0.0000000E+00;  4.0009180E+04; -3.2395456E-02;  0.0000000E+00; -2.5825873E-03;  1.2943472E+03;
  4.7157657E-01;  9.9999998E-03;  3.0000761E-01;5373; -2.2865651E-02;  0.0000000E+00; -1.7364983E-03;  9.9865253E+02;  1.0000000E-01; -1.1163634E+03;3;  2.8876014E+00;  0.0000000E+00; -2.0787039E+00;0; -3.5033546E-02;  3.9882234E+04;  0.0000000E+00;  3.9345890E-01;  4.0000000E+04;  0.0000000E+00;  4.0009430E+04; -3.2352965E-02;  0.0000000E+00; -2.6805827E-03;  1.4094447E+03;
  4.8150554E-01;  9.9999998E-03;  3.0000916E-01;5434; -2.3138044E-02;  0.0000000E+00; -1.9323399E-03;  9.9876605E+02;  1.0000147E-01; -1.0222920E+03;3;  2.9698570E+00;  0.0000000E+00; -2.1437783E+00;0; -3.4184799E-02;  3.9891547E+04;  0.0000000E+00;  3.4272844E-01;  4.0000000E+04;  0.0000000E+00;  4.0008488E+04; -3.1204237E-02;  0.0000000E+00; -2.9805601E-03;  1.2548545E+03;
  4.8153538E-01;  9.9999998E-03;  2.9001066E-01;5433; -2.3279468E-02;  0.0000000E+00; -1.8950996E-03;  9.9881976E+02;  1.0000147E-01; -9.7779944E+02;3;  2.9143631E+00;  0.0000000E+00; -2.0982313E+00;0; -3.4212500E-02;  3.9896242E+04;  0.0000000E+00;  1.9961436E-01;  4.0000000E+04;  0.0000000E+00;  4.0008273E+04; -3.1258333E-02;  0.0000000E+00; -2.9541659E-03;  1.1582095E+03;
  4.8155877E-01;  9.9999998E-03;  2.8001216E-01;5432; -2.3440927E-02;  0.0000000E+00; -1.8587763E-03;  9.9888037E+02;  1.0000148E-01; -9.2757861E+02;3;  2.8603523E+00;  0.0000000E+00; -2.0588295E+00;0; -3.4314040E-02;  3.9901066E+04;  0.0000000E+00;  8.0333561E-02;  4.0000000E+04;  0.0000000E+00;  4.0007895E+04; -3.1325083E-02;  0.0000000E+00; -2.9889559E-03;  1.0848275E+03;
  4.8162267E-01;  9.9999998E-03;  2.4002306E-01;5428; -2.4183368E-02;  0.0000000E+00; -1.7698163E-03;  9.9911823E+02;  1.0000148E-01; -7.3054718E+02;3;  2.6692243E+00;  0.0000000E+00; -1.9329462E+00;0; -3.5515908E-02;  3.9925309E+04;  0.0000000E+00; -1.2621942E-01;  4.0000000E+04;  0.0000000E+00;  4.0003129E+04; -3.1690005E-02;  0.0000000E+00; -3.8259013E-03;  4.8194189E+02;
  4.8160774E-01;  9.9999998E-03;  2.5001776E-01;5429; -2.3988439E-02;  0.0000000E+00; -1.7814862E-03;  9.9906451E+02;  1.0000146E-01; -7.7503973E+02;3;  2.7122223E+00;  0.0000000E+00; -1.9635849E+00;0; -3.5174266E-02;  3.9918410E+04;  0.0000000E+00; -1.1150424E-01;  4.0000000E+04;  0.0000000E+00;  4.0005445E+04; -3.1586926E-02;  0.0000000E+00; -3.5873384E-03;  7.6203101E+02;
  4.8159370E-01;  9.9999998E-03;  2.6001531E-01;5430; -2.3798559E-02;  0.0000000E+00; -1.7991841E-03;  9.9900153E+02;  1.0000145E-01; -8.2723578E+02;3;  2.7587762E+00;  0.0000000E+00; -1.9935161E+00;0; -3.4819134E-02;  3.9912066E+04;  0.0000000E+00; -7.5587183E-02;  4.0000000E+04;  0.0000000E+00;  4.0006695E+04; -3.1490736E-02;  0.0000000E+00; -3.3283997E-03;  9.2594501E+02;
  4.8157921E-01;  9.9999998E-03;  2.7001372E-01;5431; -2.3615282E-02;  0.0000000E+00; -1.8265484E-03;  9.9894183E+02;  1.0000148E-01; -8.7666650E+02;3;  2.8083410E+00;  0.0000000E+00; -2.0240467E+00;0; -3.4527577E-02;  3.9906227E+04;  0.0000000E+00; -1.2198683E-02;  4.0000000E+04;  0.0000000E+00;  4.0007254E+04; -3.1402871E-02;  0.0000000E+00; -3.1247067E-03;  1.0138438E+03;
  4.9163002E-01;  9.9999998E-03;  2.4002510E-01;5489; -2.4471857E-02;  0.0000000E+00; -1.9567979E-03;  9.9914905E+02;  1.0000210E-01; -7.0501703E+02;3;  2.7599685E+00;  0.0000000E+00; -1.9992020E+00;0; -3.4860007E-02;  3.9927969E+04;  0.0000000E+00; -8.9732938E-02;  4.0000000E+04;  0.0000000E+00;  4.0002492E+04; -3.0615972E-02;  0.0000000E+00; -4.2440337E-03;  4.0887552E+02;
  4.9159479E-01;  9.9999998E-03;  2.5001901E-01;5490; -2.4272904E-02;  0.0000000E+00; -1.9661179E-03;  9.9909229E+02;  1.0000207E-01; -7.5202808E+02;3;  2.8008637E+00;  0.0000000E+00; -2.0295289E+00;0; -3.4469549E-02;  3.9920570E+04;  0.0000000E+00; -8.4557585E-02;  4.0000000E+04;  0.0000000E+00;  4.0005148E+04; -3.0511292E-02;  0.0000000E+00; -3.9582564E-03;  7.3351038E+02;
  4.9155813E-01;  9.9999998E-03;  2.6001662E-01;5491; -2.4078228E-02;  0.0000000E+00; -1.9923404E-03;  9.9902155E+02;  1.0000200E-01; -8.1064368E+02;3;  2.8455887E+00;  0.0000000E+00; -2.0588787E+00;0; -3.4144912E-02;  3.9913809E+04;  0.0000000E+00; -6.2697180E-02;  4.0000000E+04;  0.0000000E+00;  4.0006531E+04; -3.0412355E-02;  0.0000000E+00; -3.7325560E-03;  8.9287787E+02;
  4.9152768E-01;  9.9999998E-03;  2.7001485E-01;5492; -2.3889409E-02;  0.0000000E+00; -2.0260073E-03;  9.9895819E+02;  1.0000207E-01; -8.6313605E+02;3;  2.8936453E+00;  0.0000000E+00; -2.0888371E+00;0; -3.3891391E-02;  3.9907750E+04;  0.0000000E+00; -1.9785039E-02;  4.0000000E+04;  0.0000000E+00;  4.0007223E+04; -3.0319961E-02;  0.0000000E+00; -3.5714307E-03;  9.8527649E+02;
  4.9150121E-01;  9.9999998E-03;  2.8001314E-01;5493; -2.3708476E-02;  0.0000000E+00; -2.0589889E-03;  9.9889563E+02;  1.0000204E-01; -9.1493701E+02;3;  2.9444606E+00;  0.0000000E+00; -2.1223154E+00;0; -3.3657134E-02;  3.9902277E+04;  0.0000000E+00;  4.3251857E-02;  4.0000000E+04;  0.0000000E+00;  4.0007688E+04; -3.0235898E-02;  0.0000000E+00; -3.4212356E-03;  1.0627985E+03;
  4.9147829E-01;  9.9999998E-03;  2.9001153E-01;5494; -2.3538562E-02;  0.0000000E+00; -2.0939072E-03;  9.9883667E+02;  1.0000199E-01; -9.6377515E+02;3;  2.9974647E+00;  0.0000000E+00; -2.1618919E+00;0; -3.3488393E-02;  3.9897230E+04;  0.0000000E+00;  1.2117556E-01;  4.0000000E+04;  0.0000000E+00;  4.0008086E+04; -3.0161990E-02;  0.0000000E+00; -3.3264044E-03;  1.1253943E+03;
  4.9145648E-01;  9.9999998E-03;  3.0000997E-01;5495; -2.3385333E-02;  0.0000000E+00; -2.1295056E-03;  9.9878009E+02;  1.0000207E-01; -1.0106874E+03;3;  3.0521557E+00;  0.0000000E+00; -2.2055945E+00;0; -3.3378448E-02;  3.9892602E+04;  0.0000000E+00;  2.0781031E-01;  4.0000000E+04;  0.0000000E+00;  4.0008391E+04; -3.0100252E-02;  0.0000000E+00; -3.2781968E-03;  1.1931464E+03;
  5.0164437E-01;  9.9999998E-03;  2.4002527E-01;5550; -2.4747021E-02;  0.0000000E+00; -2.1392847E-03;  9.9912476E+02;  1.0000383E-01; -7.2511523E+02;3;  2.8507555E+00;  0.0000000E+00; -2.0657880E+00;0; -3.4224279E-02;  3.9924207E+04;  0.0000000E+00; -6.5024041E-02;  4.0000000E+04;  0.0000000E+00;  4.0003066E+04; -2.9567949E-02;  0.0000000E+00; -4.6563311E-03;  4.6932455E+02;
  5.0162435E-01;  9.9999998E-03;  2.5001952E-01;5551; -2.4544984E-02;  0.0000000E+00; -2.1568411E-03;  9.9904980E+02;  1.0000373E-01; -7.8723694E+02;3;  2.8897254E+00;  0.0000000E+00; -2.0958397E+00;0; -3.3844292E-02;  3.9915727E+04;  0.0000000E+00; -7.6624200E-02;  4.0000000E+04;  0.0000000E+00;  4.0005512E+04; -2.9465165E-02;  0.0000000E+00; -4.3791286E-03;  7.9393188E+02;
  5.0159788E-01;  9.9999998E-03;  2.6001719E-01;5552; -2.4346445E-02;  0.0000000E+00; -2.1912283E-03;  9.9897064E+02;  1.0000370E-01; -8.5281531E+02;3;  2.9328043E+00;  0.0000000E+00; -2.1238291E+00;0; -3.3557013E-02;  3.9908074E+04;  0.0000000E+00; -7.5911134E-02;  4.0000000E+04;  0.0000000E+00;  4.0006965E+04; -2.9367499E-02;  0.0000000E+00; -4.1895146E-03;  9.5432733E+02;
  5.0157362E-01;  9.9999998E-03;  2.7001527E-01;5553; -2.4152758E-02;  0.0000000E+00; -2.2291967E-03;  9.9889874E+02;  1.0000364E-01; -9.1236920E+02;3;  2.9794309E+00;  0.0000000E+00; -2.1526132E+00;0; -3.3327576E-02;  3.9901355E+04;  0.0000000E+00; -5.8361709E-02;  4.0000000E+04;  0.0000000E+00;  4.0007750E+04; -2.9275805E-02;  0.0000000E+00; -4.0517719E-03;  1.0633899E+03;
  5.0155789E-01;  9.9999998E-03;  2.8001341E-01;5554; -2.3965674E-02;  0.0000000E+00; -2.2628058E-03;  9.9883099E+02;  1.0000388E-01; -9.6851575E+02;3;  3.0291564E+00;  0.0000000E+00; -2.1854041E+00;0; -3.3071622E-02;  3.9895141E+04;  0.0000000E+00; -2.6051084E-02;  4.0000000E+04;  0.0000000E+00;  4.0008555E+04; -2.9191194E-02;  0.0000000E+00; -3.8804284E-03;  1.1536206E+03;
  5.0154674E-01;  9.9999998E-03;  2.9001173E-01;5555; -2.3787346E-02;  0.0000000E+00; -2.2964440E-03;  9.9876959E+02;  1.0000371E-01; -1.0193785E+03;3;  3.0812531E+00;  0.0000000E+00; -2.2241347E+00;0; -3.2839492E-02;  3.9889773E+04;  0.0000000E+00;  1.5401172E-02;  4.0000000E+04;  0.0000000E+00;  4.0008848E+04; -2.9115895E-02;  0.0000000E+00; -3.7235981E-03;  1.2157834E+03;
  5.0153971E-01;  9.9999998E-03;  3.0001011E-01;5556; -2.3621805E-02;  0.0000000E+00; -2.3296981E-03;  9.9870929E+02;  1.0000388E-01; -1.0693524E+03;3;  3.1352348E+00;  0.0000000E+00; -2.2689517E+00;0; -3.2632537E-02;  3.9884871E+04;  0.0000000E+00;  5.9867907E-02;  4.0000000E+04;  0.0000000E+00;  4.0009273E+04; -2.9051784E-02;  0.0000000E+00; -3.5807530E-03;  1.2732202E+03;
  5.1159978E-01;  9.9999998E-03;  2.4002433E-01;5611; -2.5013080E-02;  0.0000000E+00; -2.3236896E-03;  9.9903259E+02;  1.0000615E-01; -8.0145874E+02;3;  2.9409099E+00;  0.0000000E+00; -2.1318944E+00;0; -3.3655576E-02;  3.9913895E+04;  0.0000000E+00; -4.7273632E-02;  4.0000000E+04;  0.0000000E+00;  4.0004453E+04; -2.8553301E-02;  0.0000000E+00; -5.1022735E-03;  6.2858459E+02;
  5.1157659E-01;  9.9999998E-03;  2.5001913E-01;5612; -2.4808003E-02;  0.0000000E+00; -2.3487250E-03;  9.9894214E+02;  1.0000618E-01; -8.7641962E+02;3;  2.9777164E+00;  0.0000000E+00; -2.1612272E+00;0; -3.3298802E-02;  3.9904141E+04;  0.0000000E+00; -7.2292127E-02;  4.0000000E+04;  0.0000000E+00;  4.0006672E+04; -2.8462101E-02;  0.0000000E+00; -4.8366995E-03;  9.4412036E+02;
  5.1154798E-01;  9.9999998E-03;  2.6001680E-01;5613; -2.4606070E-02;  0.0000000E+00; -2.3889691E-03;  9.9884857E+02;  1.0000620E-01; -9.5394824E+02;3;  3.0189962E+00;  0.0000000E+00; -2.1886556E+00;0; -3.3044327E-02;  3.9895277E+04;  0.0000000E+00; -8.7781020E-02;  4.0000000E+04;  0.0000000E+00;  4.0008270E+04; -2.8375145E-02;  0.0000000E+00; -4.6691811E-03;  1.1183480E+03;
  5.1151735E-01;  9.9999998E-03;  2.7001485E-01;5614; -2.4408203E-02;  0.0000000E+00; -2.4312485E-03;  9.9876611E+02;  1.0000632E-01; -1.0222426E+03;3;  3.0641398E+00;  0.0000000E+00; -2.2167311E+00;0; -3.2850374E-02;  3.9887582E+04;  0.0000000E+00; -8.7328374E-02;  4.0000000E+04;  0.0000000E+00;  4.0009191E+04; -2.8293841E-02;  0.0000000E+00; -4.5565316E-03;  1.2445686E+03;
  5.1150167E-01;  9.9999998E-03;  2.8001300E-01;5615; -2.4215918E-02;  0.0000000E+00; -2.4647776E-03;  9.9869434E+02;  1.0000617E-01; -1.0816978E+03;3;  3.1126404E+00;  0.0000000E+00; -2.2477868E+00;0; -3.2575209E-02;  3.9880836E+04;  0.0000000E+00; -7.4623927E-02;  4.0000000E+04;  0.0000000E+00;  4.0009887E+04; -2.8218094E-02;  0.0000000E+00; -4.3571158E-03;  1.3489198E+03;
  5.1149654E-01;  9.9999998E-03;  2.9001129E-01;5616; -2.4030510E-02;  0.0000000E+00; -2.4965915E-03;  9.9862622E+02;  1.0000617E-01; -1.1381406E+03;3;  3.1638362E+00;  0.0000000E+00; -2.2870557E+00;0; -3.2277524E-02;  3.9874883E+04;  0.0000000E+00; -5.4975562E-02;  4.0000000E+04;  0.0000000E+00;  4.0010363E+04; -2.8149983E-02;  0.0000000E+00; -4.1275411E-03;  1.4254259E+03;
  5.1150280E-01;  9.9999998E-03;  3.0000967E-01;5617; -2.3854461E-02;  0.0000000E+00; -2.5275615E-03;  9.9856439E+02;  1.0000626E-01; -1.1893983E+03;3;  3.2172217E+00;  0.0000000E+00; -2.3322022E+00;0; -3.1980477E-02;  3.9869664E+04;  0.0000000E+00; -3.3435609E-02;  4.0000000E+04;  0.0000000E+00;  4.0010867E+04; -2.8090859E-02;  0.0000000E+00; -3.8896166E-03;  1.4847253E+03;
  5.2156538E-01;  9.9999998E-03;  2.4002226E-01;5672; -2.5276963E-02;  0.0000000E+00; -2.5061374E-03;  9.9890338E+02;  1.0001042E-01; -9.0851746E+02;3;  3.0309165E+00;  0.0000000E+00; -2.1984661E+00;0; -3.3120848E-02;  3.9897816E+04;  0.0000000E+00; -4.1417144E-02;  4.0000000E+04;  0.0000000E+00;  4.0006379E+04; -2.7551811E-02;  0.0000000E+00; -5.5690352E-03;  8.7356128E+02;
  5.2154213E-01;  9.9999998E-03;  2.5001794E-01;5673; -2.5069686E-02;  0.0000000E+00; -2.5398612E-03;  9.9879480E+02;  1.0001062E-01; -9.9849017E+02;3;  3.0654416E+00;  0.0000000E+00; -2.2269325E+00;0; -3.2798689E-02;  3.9886773E+04;  0.0000000E+00; -7.7025793E-02;  4.0000000E+04;  0.0000000E+00;  4.0008418E+04; -2.7479291E-02;  0.0000000E+00; -5.3193970E-03;  1.1649009E+03;
  5.2151138E-01;  9.9999998E-03;  2.6001576E-01;5674; -2.4865417E-02;  0.0000000E+00; -2.5859470E-03;  9.9868719E+02;  1.0001060E-01; -1.0876235E+03;3;  3.1048110E+00;  0.0000000E+00; -2.2538826E+00;0; -3.2582745E-02;  3.9876973E+04;  0.0000000E+00; -1.0319838E-01;  4.0000000E+04;  0.0000000E+00;  4.0009711E+04; -2.7410857E-02;  0.0000000E+00; -5.1718857E-03;  1.3453237E+03;
  5.2147615E-01;  9.9999998E-03;  2.7001387E-01;5675; -2.4664816E-02;  0.0000000E+00; -2.6322259E-03;  9.9859265E+02;  1.0001048E-01; -1.1659423E+03;3;  3.1484497E+00;  0.0000000E+00; -2.2804792E+00;0; -3.2425798E-02;  3.9868355E+04;  0.0000000E+00; -1.1037184E-01;  4.0000000E+04;  0.0000000E+00;  4.0010723E+04; -2.7347807E-02;  0.0000000E+00; -5.0779907E-03;  1.4864243E+03;
  5.2145517E-01;  9.9999998E-03;  2.8001207E-01;5676; -2.4468997E-02;  0.0000000E+00; -2.6663351E-03;  9.9851123E+02;  1.0001054E-01; -1.2333971E+03;3;  3.1957576E+00;  0.0000000E+00; -2.3104465E+00;0; -3.2145891E-02;  3.9860758E+04;  0.0000000E+00; -1.0290109E-01;  4.0000000E+04;  0.0000000E+00;  4.0011668E+04; -2.7289610E-02;  0.0000000E+00; -4.8562819E-03;  1.6084412E+03;
  5.2145207E-01;  9.9999998E-03;  2.9001048E-01;5677; -2.4278762E-02;  0.0000000E+00; -2.6960957E-03;  9.9844177E+02;  1.0001048E-01; -1.2909757E+03;3;  3.2461095E+00;  0.0000000E+00; -2.3485730E+00;0; -3.1785369E-02;  3.9854566E+04;  0.0000000E+00; -9.0916157E-02;  4.0000000E+04;  0.0000000E+00;  4.0012363E+04; -2.7237052E-02;  0.0000000E+00; -4.5483182E-03;  1.6915118E+03;
  5.2146429E-01;  9.9999998E-03;  3.0000892E-01;5678; -2.4095219E-02;  0.0000000E+00; -2.7239644E-03;  9.9837799E+02;  1.0001039E-01; -1.3438137E+03;3;  3.2988594E+00;  0.0000000E+00; -2.3930926E+00;0; -3.1392492E-02;  3.9848930E+04;  0.0000000E+00; -8.0004692E-02;  4.0000000E+04;  0.0000000E+00;  4.0012719E+04; -2.7191211E-02;  0.0000000E+00; -4.2012809E-03;  1.7558942E+03;
  5.3155136E-01;  9.9999998E-03;  2.4001996E-01;5733; -2.5541877E-02;  0.0000000E+00; -2.6896305E-03;  9.9876453E+02;  1.0001750E-01; -1.0235759E+03;3;  3.1205955E+00;  0.0000000E+00; -2.2651591E+00;0; -3.2613590E-02;  3.9878848E+04;  0.0000000E+00; -4.5461889E-02;  4.0000000E+04;  0.0000000E+00;  4.0008098E+04; -2.6535636E-02;  0.0000000E+00; -6.0779536E-03;  1.1342095E+03;
  5.3153467E-01;  9.9999998E-03;  2.5001636E-01;5734; -2.5333319E-02;  0.0000000E+00; -2.7315149E-03;  9.9863916E+02;  1.0001737E-01; -1.1274248E+03;3;  3.1527667E+00;  0.0000000E+00; -2.2933111E+00;0; -3.2331817E-02;  3.9866922E+04;  0.0000000E+00; -8.6375400E-02;  4.0000000E+04;  0.0000000E+00;  4.0010246E+04; -2.6487183E-02;  0.0000000E+00; -5.8446326E-03;  1.4022410E+03;
  5.3150725E-01;  9.9999998E-03;  2.6001438E-01;5735; -2.5127903E-02;  0.0000000E+00; -2.7817104E-03;  9.9852161E+02;  1.0001739E-01; -1.2248048E+03;3;  3.1902623E+00;  0.0000000E+00; -2.3193438E+00;0; -3.2147117E-02;  3.9856410E+04;  0.0000000E+00; -1.1528409E-01;  4.0000000E+04;  0.0000000E+00;  4.0011492E+04; -2.6443422E-02;  0.0000000E+00; -5.7036956E-03;  1.5858778E+03;
  5.3147191E-01;  9.9999998E-03;  2.7001271E-01;5736; -2.4926133E-02;  0.0000000E+00; -2.8315953E-03;  9.9841895E+02;  1.0001741E-01; -1.3098888E+03;3;  3.2324154E+00;  0.0000000E+00; -2.3443942E+00;0; -3.2024685E-02;  3.9846715E+04;  0.0000000E+00; -1.1799874E-01;  4.0000000E+04;  0.0000000E+00;  4.0012664E+04; -2.6405197E-02;  0.0000000E+00; -5.6194891E-03;  1.7321727E+03;
  5.3145117E-01;  9.9999998E-03;  2.8001109E-01;5737; -2.4728889E-02;  0.0000000E+00; -2.8666558E-03;  9.9833374E+02;  1.0001760E-01; -1.3804547E+03;3;  3.2786245E+00;  0.0000000E+00; -2.3733253E+00;0; -3.1745166E-02;  3.9839016E+04;  0.0000000E+00; -1.0018588E-01;  4.0000000E+04;  0.0000000E+00;  4.0013523E+04; -2.6371181E-02;  0.0000000E+00; -5.3739841E-03;  1.8583817E+03;
  5.3145325E-01;  9.9999998E-03;  2.9000968E-01;5738; -2.4536578E-02;  0.0000000E+00; -2.8949711E-03;  9.9826093E+02;  1.0001747E-01; -1.4407987E+03;3;  3.3281782E+00;  0.0000000E+00; -2.4098134E+00;0; -3.1334352E-02;  3.9832332E+04;  0.0000000E+00; -8.3211966E-02;  4.0000000E+04;  0.0000000E+00;  4.0014320E+04; -2.6341049E-02;  0.0000000E+00; -4.9933027E-03;  1.9470690E+03;
  5.3147262E-01;  9.9999998E-03;  3.0000830E-01;5739; -2.4349326E-02;  0.0000000E+00; -2.9195240E-03;  9.9819983E+02;  1.0001730E-01; -1.4914146E+03;3;  3.3804014E+00;  0.0000000E+00; -2.4543948E+00;0; -3.0842021E-02;  3.9827215E+04;  0.0000000E+00; -7.8115933E-02;  4.0000000E+04;  0.0000000E+00;  4.0014715E+04; -2.6315536E-02;  0.0000000E+00; -4.5264838E-03;  2.0093256E+03;
  5.4156464E-01;  9.9999998E-03;  2.4001834E-01;5794; -2.5808129E-02;  0.0000000E+00; -2.8729516E-03;  9.9866992E+02;  1.0002956E-01; -1.1019441E+03;3;  3.2097418E+00;  0.0000000E+00; -2.3332100E+00;0; -3.2097377E-02;  3.9859875E+04;  0.0000000E+00; -5.4611258E-02;  4.0000000E+04;  0.0000000E+00;  4.0009488E+04; -2.5466630E-02;  0.0000000E+00; -6.6307448E-03;  1.3301978E+03;
  5.4155886E-01;  9.9999998E-03;  2.5001520E-01;5795; -2.5598997E-02;  0.0000000E+00; -2.9221368E-03;  9.9853479E+02;  1.0002953E-01; -1.2138915E+03;3;  3.2394316E+00;  0.0000000E+00; -2.3608627E+00;0; -3.1857468E-02;  3.9847430E+04;  0.0000000E+00; -9.4283767E-02;  4.0000000E+04;  0.0000000E+00;  4.0011402E+04; -2.5445577E-02;  0.0000000E+00; -6.4118896E-03;  1.5724816E+03;
  5.4153711E-01;  9.9999998E-03;  2.6001334E-01;5796; -2.5393315E-02;  0.0000000E+00; -2.9756150E-03;  9.9841211E+02;  1.0002952E-01; -1.3155183E+03;3;  3.2749949E+00;  0.0000000E+00; -2.3851581E+00;0; -3.1701878E-02;  3.9836246E+04;  0.0000000E+00; -1.1761535E-01;  4.0000000E+04;  0.0000000E+00;  4.0012566E+04; -2.5430454E-02;  0.0000000E+00; -6.2714252E-03;  1.7530991E+03;
  5.4150462E-01;  9.9999998E-03;  2.7001187E-01;5797; -2.5191681E-02;  0.0000000E+00; -3.0287344E-03;  9.9830353E+02;  1.0002949E-01; -1.4054910E+03;3;  3.3156786E+00;  0.0000000E+00; -2.4079289E+00;0; -3.1612687E-02;  3.9826711E+04;  0.0000000E+00; -1.0586011E-01;  4.0000000E+04;  0.0000000E+00;  4.0013812E+04; -2.5421545E-02;  0.0000000E+00; -6.1911410E-03;  1.8988109E+03;
  5.4148585E-01;  9.9999998E-03;  2.8001055E-01;5798; -2.4994839E-02;  0.0000000E+00; -3.0651724E-03;  9.9821753E+02;  1.0002955E-01; -1.4767483E+03;3;  3.3608823E+00;  0.0000000E+00; -2.4351232E+00;0; -3.1340092E-02;  3.9818676E+04;  0.0000000E+00; -6.7646973E-02;  4.0000000E+04;  0.0000000E+00;  4.0014766E+04; -2.5416564E-02;  0.0000000E+00; -5.9235268E-03;  2.0221675E+03;
  5.4149467E-01;  9.9999998E-03;  2.9000944E-01;5799; -2.4803013E-02;  0.0000000E+00; -3.0918214E-03;  9.9814764E+02;  1.0002948E-01; -1.5346232E+03;3;  3.4098074E+00;  0.0000000E+00; -2.4719369E+00;0; -3.0872755E-02;  3.9812395E+04;  0.0000000E+00; -4.3592054E-02;  4.0000000E+04;  0.0000000E+00;  4.0015418E+04; -2.5413934E-02;  0.0000000E+00; -5.4588206E-03;  2.1072817E+03;
  5.4152322E-01;  9.9999998E-03;  3.0000842E-01;5800; -2.4615742E-02;  0.0000000E+00; -3.1129087E-03;  9.9809717E+02;  1.0002959E-01; -1.5764491E+03;3;  3.4617071E+00;  0.0000000E+00; -2.5167987E+00;0; -3.0278010E-02;  3.9807719E+04;  0.0000000E+00; -5.5307813E-02;  4.0000000E+04;  0.0000000E+00;  4.0015664E+04; -2.5414001E-02;  0.0000000E+00; -4.8640096E-03;  2.1549109E+03;
  5.5161226E-01;  9.9999998E-03;  2.4001743E-01;5855; -2.6073396E-02;  0.0000000E+00; -3.0531818E-03;  9.9865314E+02;  1.0004855E-01; -1.1158696E+03;3;  3.2979186E+00;  0.0000000E+00; -2.4019504E+00;0; -3.1521834E-02;  3.9841969E+04;  0.0000000E+00; -6.2860645E-02;  4.0000000E+04;  0.0000000E+00;  4.0010113E+04; -2.4301266E-02;  0.0000000E+00; -7.2205691E-03;  1.4197975E+03;
  5.5162084E-01;  9.9999998E-03;  2.5001466E-01;5856; -2.5864130E-02;  0.0000000E+00; -3.1100784E-03;  9.9851660E+02;  1.0004877E-01; -1.2289528E+03;3;  3.3250430E+00;  0.0000000E+00; -2.4283404E+00;0; -3.1328157E-02;  3.9829840E+04;  0.0000000E+00; -9.7743034E-02;  4.0000000E+04;  0.0000000E+00;  4.0011492E+04; -2.4307506E-02;  0.0000000E+00; -7.0206500E-03;  1.6250992E+03;
  5.5160743E-01;  9.9999998E-03;  2.6001295E-01;5857; -2.5658781E-02;  0.0000000E+00; -3.1664476E-03;  9.9839435E+02;  1.0004857E-01; -1.3302339E+03;3;  3.3586576E+00;  0.0000000E+00; -2.4513714E+00;0; -3.1199671E-02;  3.9818812E+04;  0.0000000E+00; -1.1437868E-01;  4.0000000E+04;  0.0000000E+00;  4.0012875E+04; -2.4321649E-02;  0.0000000E+00; -6.8780221E-03;  1.7970465E+03;
  5.5157930E-01;  9.9999998E-03;  2.7001181E-01;5858; -2.5458265E-02;  0.0000000E+00; -3.2222460E-03;  9.9828912E+02;  1.0004877E-01; -1.4174413E+03;3;  3.3979776E+00;  0.0000000E+00; -2.4727700E+00;0; -3.1135464E-02;  3.9809395E+04;  0.0000000E+00; -9.0206265E-02;  4.0000000E+04;  0.0000000E+00;  4.0013848E+04; -2.4343224E-02;  0.0000000E+00; -6.7922398E-03;  1.9299910E+03;
  5.5155987E-01;  9.9999998E-03;  2.8001091E-01;5859; -2.5263181E-02;  0.0000000E+00; -3.2608549E-03;  9.9820679E+02;  1.0004848E-01; -1.4856368E+03;3;  3.4421716E+00;  0.0000000E+00; -2.4975638E+00;0; -3.0879047E-02;  3.9801816E+04;  0.0000000E+00; -3.3923090E-02;  4.0000000E+04;  0.0000000E+00;  4.0014730E+04; -2.4369260E-02;  0.0000000E+00; -6.5097860E-03;  2.0424119E+03;
  5.5157137E-01;  9.9999998E-03;  2.9001021E-01;5860; -2.5073832E-02;  0.0000000E+00; -3.2860150E-03;  9.9814294E+02;  1.0004845E-01; -1.5385243E+03;3;  3.4906297E+00;  0.0000000E+00; -2.5333498E+00;0; -3.0358318E-02;  3.9796320E+04;  0.0000000E+00; -9.6600763E-03;  4.0000000E+04;  0.0000000E+00;  4.0015250E+04; -2.4396479E-02;  0.0000000E+00; -5.9618386E-03;  2.1185110E+03;
  5.5160338E-01;  9.9999998E-03;  3.0000964E-01;5861; -2.4889538E-02;  0.0000000E+00; -3.3030761E-03;  9.9810175E+02;  1.0004847E-01; -1.5726467E+03;3;  3.5423007E+00;  0.0000000E+00; -2.5783207E+00;0; -2.9649979E-02;  3.9792852E+04;  0.0000000E+00; -4.8327010E-02;  4.0000000E+04;  0.0000000E+00;  4.0015590E+04; -2.4424961E-02;  0.0000000E+00; -5.2250172E-03;  2.1524604E+03;
  5.6169915E-01;  9.9999998E-03;  2.4001724E-01;5916; -2.6333665E-02;  0.0000000E+00; -3.2301615E-03;  9.9872723E+02;  1.0007975E-01; -1.0544392E+03;3;  3.3846357E+00;  0.0000000E+00; -2.4718165E+00;0; -3.0847820E-02;  3.9823047E+04;  0.0000000E+00; -6.6762127E-02;  4.0000000E+04;  0.0000000E+00;  4.0009391E+04; -2.2996228E-02;  0.0000000E+00; -7.8515913E-03;  1.3693226E+03;
  5.6172532E-01;  9.9999998E-03;  2.5001484E-01;5917; -2.6124539E-02;  0.0000000E+00; -3.2951399E-03;  9.9859814E+02;  1.0007986E-01; -1.1613992E+03;3;  3.4090581E+00;  0.0000000E+00; -2.4969893E+00;0; -3.0703582E-02;  3.9811949E+04;  0.0000000E+00; -1.0194701E-01;  4.0000000E+04;  0.0000000E+00;  4.0010719E+04; -2.3024950E-02;  0.0000000E+00; -7.6786326E-03;  1.5334709E+03;
  5.6172556E-01;  9.9999998E-03;  2.6001328E-01;5918; -2.5919966E-02;  0.0000000E+00; -3.3528171E-03;  9.9848346E+02;  1.0007985E-01; -1.2564088E+03;3;  3.4407246E+00;  0.0000000E+00; -2.5183928E+00;0; -3.0588582E-02;  3.9801582E+04;  0.0000000E+00; -1.2824830E-01;  4.0000000E+04;  0.0000000E+00;  4.0011855E+04; -2.3063982E-02;  0.0000000E+00; -7.5245998E-03;  1.6984569E+03;
  5.6169975E-01;  9.9999998E-03;  2.7001262E-01;5919; -2.5721118E-02;  0.0000000E+00; -3.4104369E-03;  9.9838300E+02;  1.0007992E-01; -1.3396658E+03;3;  3.4787362E+00;  0.0000000E+00; -2.5374882E+00;0; -3.0536935E-02;  3.9792789E+04;  0.0000000E+00; -1.1428207E-01;  4.0000000E+04;  0.0000000E+00;  4.0012719E+04; -2.3113227E-02;  0.0000000E+00; -7.4237087E-03;  1.8198080E+03;
  5.6167489E-01;  9.9999998E-03;  2.8001234E-01;5920; -2.5528751E-02;  0.0000000E+00; -3.4518978E-03;  9.9830664E+02;  1.0007984E-01; -1.4029232E+03;3;  3.5221074E+00;  0.0000000E+00; -2.5606787E+00;0; -3.0299563E-02;  3.9785918E+04;  0.0000000E+00; -6.1537661E-02;  4.0000000E+04;  0.0000000E+00;  4.0013543E+04; -2.3168340E-02;  0.0000000E+00; -7.1312226E-03;  1.9140887E+03;
  5.6168193E-01;  9.9999998E-03;  2.9001230E-01;5921; -2.5343558E-02;  0.0000000E+00; -3.4763548E-03;  9.9825653E+02;  1.0007969E-01; -1.4444529E+03;3;  3.5701275E+00;  0.0000000E+00; -2.5945587E+00;0; -2.9732784E-02;  3.9781508E+04;  0.0000000E+00; -5.1366415E-02;  4.0000000E+04;  0.0000000E+00;  4.0014102E+04; -2.3223821E-02;  0.0000000E+00; -6.5089636E-03;  1.9673269E+03;
  5.6170732E-01;  9.9999998E-03;  3.0001232E-01;5922; -2.5164872E-02;  0.0000000E+00; -3.4895090E-03;  9.9822852E+02;  1.0007991E-01; -1.4676621E+03;3;  3.6218250E+00;  0.0000000E+00; -2.6388299E+00;0; -2.8910706E-02;  3.9779758E+04;  0.0000000E+00; -1.0838985E-01;  4.0000000E+04;  0.0000000E+00;  4.0014125E+04; -2.3279810E-02;  0.0000000E+00; -5.6308960E-03;  1.9836122E+03;
  5.7182264E-01;  9.9999998E-03;  2.4001704E-01;5977; -2.6584070E-02;  0.0000000E+00; -3.4015395E-03;  9.9887756E+02;  1.0013139E-01; -9.2989954E+02;3;  3.4693046E+00;  0.0000000E+00; -2.5431035E+00;0; -3.0029155E-02;  3.9795355E+04;  0.0000000E+00; -6.8131022E-02;  4.0000000E+04;  0.0000000E+00;  4.0007855E+04; -2.1513781E-02;  0.0000000E+00; -8.5153738E-03;  1.1992886E+03;
  5.7185954E-01;  9.9999998E-03;  2.5001535E-01;5978; -2.6375132E-02;  0.0000000E+00; -3.4761524E-03;  9.9875836E+02;  1.0013139E-01; -1.0286622E+03;3;  3.4907444E+00;  0.0000000E+00; -2.5670161E+00;0; -2.9942928E-02;  3.9785500E+04;  0.0000000E+00; -1.1463448E-01;  4.0000000E+04;  0.0000000E+00;  4.0008738E+04; -2.1556316E-02;  0.0000000E+00; -8.3866119E-03;  1.3225956E+03;
  5.7187039E-01;  9.9999998E-03;  2.6001421E-01;5979; -2.6171530E-02;  0.0000000E+00; -3.5329410E-03;  9.9865680E+02;  1.0013117E-01; -1.1128080E+03;3;  3.5204334E+00;  0.0000000E+00; -2.5869782E+00;0; -2.9822715E-02;  3.9776344E+04;  0.0000000E+00; -1.7391330E-01;  4.0000000E+04;  0.0000000E+00;  4.0010125E+04; -2.1611650E-02;  0.0000000E+00; -8.2110642E-03;  1.4921510E+03;
  5.7184720E-01;  9.9999998E-03;  2.7001435E-01;5980; -2.5974920E-02;  0.0000000E+00; -3.5918579E-03;  9.9856702E+02;  1.0013127E-01; -1.1871763E+03;3;  3.5571644E+00;  0.0000000E+00; -2.6045527E+00;0; -2.9770371E-02;  3.9768629E+04;  0.0000000E+00; -2.0659338E-01;  4.0000000E+04;  0.0000000E+00;  4.0010859E+04; -2.1680484E-02;  0.0000000E+00; -8.0898879E-03;  1.6032115E+03;
  5.7181484E-01;  9.9999998E-03;  2.8001490E-01;5981; -2.5786201E-02;  0.0000000E+00; -3.6364261E-03;  9.9849896E+02;  1.0013135E-01; -1.2435697E+03;3;  3.5999770E+00;  0.0000000E+00; -2.6251101E+00;0; -2.9546702E-02;  3.9762719E+04;  0.0000000E+00; -1.9341086E-01;  4.0000000E+04;  0.0000000E+00;  4.0011309E+04; -2.1757631E-02;  0.0000000E+00; -7.7890716E-03;  1.6762953E+03;
  5.7180786E-01;  9.9999998E-03;  2.9001570E-01;5982; -2.5606541E-02;  0.0000000E+00; -3.6606011E-03;  9.9846027E+02;  1.0013096E-01; -1.2756182E+03;3;  3.6478240E+00;  0.0000000E+00; -2.6560054E+00;0; -2.8934324E-02;  3.9759277E+04;  0.0000000E+00; -2.0451215E-01;  4.0000000E+04;  0.0000000E+00;  4.0011461E+04; -2.1835592E-02;  0.0000000E+00; -7.0987330E-03;  1.7105128E+03;
  5.7181621E-01;  9.9999998E-03;  3.0001652E-01;5983; -2.5435913E-02;  0.0000000E+00; -3.6703262E-03;  9.9844537E+02;  1.0013086E-01; -1.2879635E+03;3;  3.6997340E+00;  0.0000000E+00; -2.7001307E+00;0; -2.7997261E-02;  3.9758473E+04;  0.0000000E+00; -2.5438413E-01;  4.0000000E+04;  0.0000000E+00;  4.0011641E+04; -2.1913534E-02;  0.0000000E+00; -6.0837264E-03;  1.7139126E+03;
  5.8196115E-01;  9.9999998E-03;  2.4001463E-01;6038; -2.6819011E-02;  0.0000000E+00; -3.5621687E-03;  9.9903430E+02;  1.0021478E-01; -8.0007605E+02;3;  3.5509388E+00;  0.0000000E+00; -2.6147256E+00;0; -2.9018708E-02;  3.9743777E+04;  0.0000000E+00; -6.8677031E-02;  4.0000000E+04;  0.0000000E+00;  4.0006234E+04; -1.9831093E-02;  0.0000000E+00; -9.1876136E-03;  1.0271720E+03;
  5.8200222E-01;  9.9999998E-03;  2.5001484E-01;6039; -2.6610577E-02;  0.0000000E+00; -3.6458843E-03;  9.9892755E+02;  1.0021477E-01; -8.8851801E+02;3;  3.5693181E+00;  0.0000000E+00; -2.6370504E+00;0; -2.8976921E-02;  3.9735191E+04;  0.0000000E+00; -1.3568515E-01;  4.0000000E+04;  0.0000000E+00;  4.0006602E+04; -1.9874062E-02;  0.0000000E+00; -9.1028577E-03;  1.1139556E+03;
  5.8201098E-01;  9.9999998E-03;  2.6001504E-01;6040; -2.6408195E-02;  0.0000000E+00; -3.7041772E-03;  9.9884167E+02;  1.0021447E-01; -9.5962714E+02;3;  3.5970526E+00;  0.0000000E+00; -2.6552029E+00;0; -2.8862614E-02;  3.9727320E+04;  0.0000000E+00; -2.3481828E-01;  4.0000000E+04;  0.0000000E+00;  4.0007730E+04; -1.9934092E-02;  0.0000000E+00; -8.9285215E-03;  1.2848936E+03;
  5.8198667E-01;  9.9999998E-03;  2.7001655E-01;6041; -2.6214236E-02;  0.0000000E+00; -3.7650492E-03;  9.9876221E+02;  1.0021449E-01; -1.0255018E+03;3;  3.6326530E+00;  0.0000000E+00; -2.6705227E+00;0; -2.8809862E-02;  3.9720797E+04;  0.0000000E+00; -3.2917526E-01;  4.0000000E+04;  0.0000000E+00;  4.0008234E+04; -2.0010257E-02;  0.0000000E+00; -8.7996051E-03;  1.4059186E+03;
  5.8194643E-01;  9.9999998E-03;  2.8001836E-01;6042; -2.6029987E-02;  0.0000000E+00; -3.8126111E-03;  9.9870416E+02;  1.0021434E-01; -1.0735992E+03;3;  3.6749954E+00;  0.0000000E+00; -2.6884303E+00;0; -2.8588505E-02;  3.9715977E+04;  0.0000000E+00; -3.7818438E-01;  4.0000000E+04;  0.0000000E+00;  4.0008922E+04; -2.0097388E-02;  0.0000000E+00; -8.4911175E-03;  1.4796532E+03;
  5.8192074E-01;  9.9999998E-03;  2.9002023E-01;6043; -2.5857069E-02;  0.0000000E+00; -3.8372353E-03;  9.9867273E+02;  1.0021405E-01; -1.0996232E+03;3;  3.7229965E+00;  0.0000000E+00; -2.7175732E+00;0; -2.7929025E-02;  3.9713434E+04;  0.0000000E+00; -4.1317871E-01;  4.0000000E+04;  0.0000000E+00;  4.0008941E+04; -2.0186914E-02;  0.0000000E+00; -7.7421106E-03;  1.5125474E+03;
  5.8190536E-01;  9.9999998E-03;  3.0002201E-01;6044; -2.5696628E-02;  0.0000000E+00; -3.8438558E-03;  9.9866669E+02;  1.0021381E-01; -1.1046106E+03;3;  3.7755246E+00;  0.0000000E+00; -2.7611191E+00;0; -2.6868317E-02;  3.9713504E+04;  0.0000000E+00; -4.3491867E-01;  4.0000000E+04;  0.0000000E+00;  4.0008781E+04; -2.0276211E-02;  0.0000000E+00; -6.5921056E-03;  1.5027866E+03;
  5.9205073E-01;  9.9999998E-03;  2.4000932E-01;6099; -2.7033610E-02;  0.0000000E+00; -3.7155640E-03;  9.9911072E+02;  1.0034949E-01; -7.3676923E+02;3;  3.6283092E+00;  0.0000000E+00; -2.6870539E+00;0; -2.7834151E-02;  3.9645652E+04;  0.0000000E+00; -5.1915370E-02;  4.0000000E+04;  0.0000000E+00;  4.0004434E+04; -1.7954776E-02;  0.0000000E+00; -9.8793758E-03;  9.2596344E+02;
  5.9208930E-01;  9.9999998E-03;  2.5001255E-01;6100; -2.6825849E-02;  0.0000000E+00; -3.8055228E-03;  9.9901587E+02;  1.0034920E-01; -8.1533490E+02;3;  3.6434174E+00;  0.0000000E+00; -2.7080190E+00;0; -2.7819324E-02;  3.9638348E+04;  0.0000000E+00; -1.2240278E-01;  4.0000000E+04;  0.0000000E+00;  4.0004801E+04; -1.7980995E-02;  0.0000000E+00; -9.8383306E-03;  1.0030161E+03;
  5.9209496E-01;  9.9999998E-03;  2.6001525E-01;6101; -2.6625102E-02;  0.0000000E+00; -3.8657007E-03;  9.9894299E+02;  1.0034929E-01; -8.7572827E+02;3;  3.6693785E+00;  0.0000000E+00; -2.7243860E+00;0; -2.7709253E-02;  3.9631594E+04;  0.0000000E+00; -2.3492795E-01;  4.0000000E+04;  0.0000000E+00;  4.0006062E+04; -1.8028442E-02;  0.0000000E+00; -9.6808113E-03;  1.1756963E+03;
  5.9206802E-01;  9.9999998E-03;  2.7001888E-01;6102; -2.6434192E-02;  0.0000000E+00; -3.9283582E-03;  9.9887366E+02;  1.0034879E-01; -9.3315875E+02;3;  3.7040880E+00;  0.0000000E+00; -2.7373474E+00;0; -2.7649049E-02;  3.9625867E+04;  0.0000000E+00; -3.5536498E-01;  4.0000000E+04;  0.0000000E+00;  4.0006617E+04; -1.8095223E-02;  0.0000000E+00; -9.5538246E-03;  1.3027692E+03;
  5.9202754E-01;  9.9999998E-03;  2.8002244E-01;6103; -2.6255252E-02;  0.0000000E+00; -3.9791395E-03;  9.9882489E+02;  1.0034849E-01; -9.7355261E+02;3;  3.7465229E+00;  0.0000000E+00; -2.7525103E+00;0; -2.7421106E-02;  3.9621895E+04;  0.0000000E+00; -4.5463240E-01;  4.0000000E+04;  0.0000000E+00;  4.0006984E+04; -1.8174469E-02;  0.0000000E+00; -9.2466353E-03;  1.3943480E+03;
  5.9199446E-01;  9.9999998E-03;  2.9002571E-01;6104; -2.6090333E-02;  0.0000000E+00; -4.0046424E-03;  9.9879913E+02;  1.0034816E-01; -9.9488538E+02;3;  3.7950628E+00;  0.0000000E+00; -2.7796590E+00;0; -2.6702615E-02;  3.9620191E+04;  0.0000000E+00; -5.3915042E-01;  4.0000000E+04;  0.0000000E+00;  4.0006914E+04; -1.8257594E-02;  0.0000000E+00; -8.4450208E-03;  1.4578242E+03;
  5.9196651E-01;  9.9999998E-03;  3.0002862E-01;6105; -2.5942305E-02;  0.0000000E+00; -4.0092864E-03;  9.9879883E+02;  1.0034749E-01; -9.9513226E+02;3;  3.8482907E+00;  0.0000000E+00; -2.8227503E+00;0; -2.5515061E-02;  3.9620961E+04;  0.0000000E+00; -5.9198427E-01;  4.0000000E+04;  0.0000000E+00;  4.0006770E+04; -1.8340232E-02;  0.0000000E+00; -7.1748281E-03;  1.4716473E+03;
  6.0205781E-01;  9.9999998E-03;  2.4000078E-01;6160; -2.7225483E-02;  0.0000000E+00; -3.8603290E-03;  9.9903577E+02;  1.0056426E-01; -7.9884155E+02;3;  3.6998081E+00;  0.0000000E+00; -2.7584896E+00;0; -2.6490223E-02;  3.9473074E+04;  0.0000000E+00;  4.2567766E-04;  4.0000000E+04;  0.0000000E+00;  4.0003555E+04; -1.5915159E-02;  0.0000000E+00; -1.0575064E-02;  9.8707025E+02;
  6.0209101E-01;  9.9999998E-03;  2.5000849E-01;6161; -2.7019031E-02;  0.0000000E+00; -3.9536562E-03;  9.9895129E+02;  1.0056369E-01; -8.6881488E+02;3;  3.7128043E+00;  0.0000000E+00; -2.7787223E+00;0; -2.6484393E-02;  3.9466051E+04;  0.0000000E+00; -3.6841195E-02;  4.0000000E+04;  0.0000000E+00;  4.0004059E+04; -1.5903935E-02;  0.0000000E+00; -1.0580458E-02;  1.0815685E+03;
  6.0209221E-01;  9.9999998E-03;  2.6001483E-01;6162; -2.6820257E-02;  0.0000000E+00; -4.0165870E-03;  9.9888416E+02;  1.0056348E-01; -9.2446759E+02;3;  3.7363336E+00;  0.0000000E+00; -2.7934318E+00;0; -2.6382973E-02;  3.9460125E+04;  0.0000000E+00; -1.0676639E-01;  4.0000000E+04;  0.0000000E+00;  4.0005348E+04; -1.5918555E-02;  0.0000000E+00; -1.0464419E-02;  1.2440739E+03;
  6.0206360E-01;  9.9999998E-03;  2.7002138E-01;6163; -2.6632717E-02;  0.0000000E+00; -4.0810360E-03;  9.9882275E+02;  1.0056274E-01; -9.7533038E+02;3;  3.7707939E+00;  0.0000000E+00; -2.8045945E+00;0; -2.6312046E-02;  3.9455336E+04;  0.0000000E+00; -1.8147063E-01;  4.0000000E+04;  0.0000000E+00;  4.0005980E+04; -1.5955836E-02;  0.0000000E+00; -1.0356211E-02;  1.3372039E+03;
  6.0202372E-01;  9.9999998E-03;  2.8002724E-01;6164; -2.6458757E-02;  0.0000000E+00; -4.1352697E-03;  9.9877875E+02;  1.0056198E-01; -1.0117738E+03;3;  3.8133535E+00;  0.0000000E+00; -2.8186531E+00;0; -2.6073676E-02;  3.9452109E+04;  0.0000000E+00; -2.4100435E-01;  4.0000000E+04;  0.0000000E+00;  4.0006363E+04; -1.6007625E-02;  0.0000000E+00; -1.0066050E-02;  1.3896995E+03;
  6.0198569E-01;  9.9999998E-03;  2.9003221E-01;6165; -2.6300892E-02;  0.0000000E+00; -4.1619916E-03;  9.9875342E+02;  1.0056148E-01; -1.0327609E+03;3;  3.8616660E+00;  0.0000000E+00; -2.8418860E+00;0; -2.5291430E-02;  3.9450730E+04;  0.0000000E+00; -2.7445123E-01;  4.0000000E+04;  0.0000000E+00;  4.0006168E+04; -1.6065229E-02;  0.0000000E+00; -9.2262011E-03;  1.4147617E+03;
  6.0194868E-01;  9.9999998E-03;  3.0003637E-01;6166; -2.6163431E-02;  0.0000000E+00; -4.1651307E-03;  9.9874243E+02;  1.0056042E-01; -1.0418470E+03;3;  3.9189346E+00;  0.0000000E+00; -2.8844965E+00;0; -2.3967285E-02;  3.9451152E+04;  0.0000000E+00; -2.4985233E-01;  4.0000000E+04;  0.0000000E+00;  4.0006371E+04; -1.6122429E-02;  0.0000000E+00; -7.8448569E-03;  1.3996000E+03;
  6.1201406E-01;  9.9999998E-03;  2.3998961E-01;6221; -2.7395500E-02;  0.0000000E+00; -3.9825486E-03;  9.9881921E+02;  1.0089970E-01; -9.7824384E+02;3;  3.7690680E+00;  0.0000000E+00; -2.8299880E+00;0; -2.4956357E-02;  3.9195840E+04;  0.0000000E+00;  7.5345121E-02;  4.0000000E+04;  0.0000000E+00;  4.0003391E+04; -1.3757718E-02;  0.0000000E+00; -1.1198638E-02;  1.2877377E+03;
  6.1203933E-01;  9.9999998E-03;  2.5000387E-01;6222; -2.7191205E-02;  0.0000000E+00; -4.0816208E-03;  9.9873499E+02;  1.0089895E-01; -1.0480197E+03;3;  3.7747400E+00;  0.0000000E+00; -2.8502183E+00;0; -2.4950050E-02;  3.9188949E+04;  0.0000000E+00;  9.2536360E-02;  4.0000000E+04;  0.0000000E+00;  4.0004293E+04; -1.3686522E-02;  0.0000000E+00; -1.1263529E-02;  1.4046107E+03;
  6.1203837E-01;  9.9999998E-03;  2.6001519E-01;6223; -2.6995335E-02;  0.0000000E+00; -4.1520414E-03;  9.9867108E+02;  1.0089819E-01; -1.1010059E+03;3;  3.7974286E+00;  0.0000000E+00; -2.8644216E+00;0; -2.4876259E-02;  3.9183355E+04;  0.0000000E+00;  9.0538606E-02;  4.0000000E+04;  0.0000000E+00;  4.0005598E+04; -1.3645208E-02;  0.0000000E+00; -1.1231050E-02;  1.5613584E+03;
  6.1201119E-01;  9.9999998E-03;  2.7002528E-01;6224; -2.6811844E-02;  0.0000000E+00; -4.2228769E-03;  9.9860797E+02;  1.0089751E-01; -1.1532512E+03;3;  3.8320115E+00;  0.0000000E+00; -2.8742650E+00;0; -2.4834719E-02;  3.9178801E+04;  0.0000000E+00;  9.0012372E-02;  4.0000000E+04;  0.0000000E+00;  4.0006195E+04; -1.3630292E-02;  0.0000000E+00; -1.1204425E-02;  1.6511541E+03;
  6.1197037E-01;  9.9999998E-03;  2.8003371E-01;6225; -2.6643435E-02;  0.0000000E+00; -4.2815055E-03;  9.9856000E+02;  1.0089610E-01; -1.1930032E+03;3;  3.8752911E+00;  0.0000000E+00; -2.8854158E+00;0; -2.4597647E-02;  3.9175688E+04;  0.0000000E+00;  1.1367480E-01;  4.0000000E+04;  0.0000000E+00;  4.0006547E+04; -1.3633604E-02;  0.0000000E+00; -1.0964043E-02;  1.7062578E+03;
  6.1192644E-01;  9.9999998E-03;  2.9004049E-01;6226; -2.6493482E-02;  0.0000000E+00; -4.3092743E-03;  9.9852386E+02;  1.0089499E-01; -1.2229282E+03;3;  3.9273431E+00;  0.0000000E+00; -2.9085391E+00;0; -2.3740213E-02;  3.9174340E+04;  0.0000000E+00;  1.8798389E-01;  4.0000000E+04;  0.0000000E+00;  4.0006852E+04; -1.3645530E-02;  0.0000000E+00; -1.0094685E-02;  1.7611014E+03;
  6.1187875E-01;  9.9999998E-03;  3.0004603E-01;6227; -2.6366873E-02;  0.0000000E+00; -4.3112338E-03;  9.9850146E+02;  1.0089329E-01; -1.2414956E+03;3;  3.9821002E+00;  0.0000000E+00; -2.9472063E+00;0; -2.2273771E-02;  3.9173988E+04;  0.0000000E+00;  3.6975887E-01;  4.0000000E+04;  0.0000000E+00;  4.0007176E+04; -1.3658480E-02;  0.0000000E+00; -8.6152917E-03;  1.8398162E+03;
  6.2194061E-01;  9.9999998E-03;  2.3998119E-01;6282; -2.7545085E-02;  0.0000000E+00; -4.0797247E-03;  9.9856091E+02;  1.0140960E-01; -1.1922625E+03;3;  3.8328850E+00;  0.0000000E+00; -2.9011719E+00;0; -2.3280635E-02;  3.8785191E+04;  0.0000000E+00;  1.5010048E-01;  4.0000000E+04;  0.0000000E+00;  4.0003113E+04; -1.1556268E-02;  0.0000000E+00; -1.1724369E-02;  1.6854684E+03;
  6.2195671E-01;  9.9999998E-03;  2.5000295E-01;6283; -2.7344737E-02;  0.0000000E+00; -4.1906238E-03;  9.9846594E+02;  1.0140868E-01; -1.2709269E+03;3;  3.8369582E+00;  0.0000000E+00; -2.9211447E+00;0; -2.3286104E-02;  3.8777664E+04;  0.0000000E+00;  2.1627319E-01;  4.0000000E+04;  0.0000000E+00;  4.0003715E+04; -1.1401394E-02;  0.0000000E+00; -1.1884711E-02;  1.8098004E+03;
  6.2195092E-01;  9.9999998E-03;  2.6001924E-01;6284; -2.7153239E-02;  0.0000000E+00; -4.2735972E-03;  9.9838928E+02;  1.0140751E-01; -1.3344313E+03;3;  3.8558912E+00;  0.0000000E+00; -2.9354923E+00;0; -2.3270506E-02;  3.8771496E+04;  0.0000000E+00;  2.7297866E-01;  4.0000000E+04;  0.0000000E+00;  4.0005074E+04; -1.1281634E-02;  0.0000000E+00; -1.1988874E-02;  1.9936130E+03;
  6.2192321E-01;  9.9999998E-03;  2.7003279E-01;6285; -2.6974965E-02;  0.0000000E+00; -4.3526608E-03;  9.9831952E+02;  1.0140579E-01; -1.3922568E+03;3;  3.8900976E+00;  0.0000000E+00; -2.9451325E+00;0; -2.3277428E-02;  3.8766746E+04;  0.0000000E+00;  3.2878238E-01;  4.0000000E+04;  0.0000000E+00;  4.0005910E+04; -1.1192529E-02;  0.0000000E+00; -1.2084898E-02;  2.1215310E+03;
  6.2187970E-01;  9.9999998E-03;  2.8004366E-01;6286; -2.6813515E-02;  0.0000000E+00; -4.4161808E-03;  9.9826019E+02;  1.0140418E-01; -1.4413912E+03;3;  3.9333704E+00;  0.0000000E+00; -2.9547620E+00;0; -2.3049403E-02;  3.8763141E+04;  0.0000000E+00;  4.1087928E-01;  4.0000000E+04;  0.0000000E+00;  4.0006641E+04; -1.1126439E-02;  0.0000000E+00; -1.1922964E-02;  2.2331531E+03;
  6.2183106E-01;  9.9999998E-03;  2.9005224E-01;6287; -2.6673246E-02;  0.0000000E+00; -4.4459589E-03;  9.9820831E+02;  1.0140157E-01; -1.4844023E+03;3;  3.9818873E+00;  0.0000000E+00; -2.9743230E+00;0; -2.2130521E-02;  3.8760828E+04;  0.0000000E+00;  5.5522889E-01;  4.0000000E+04;  0.0000000E+00;  4.0007184E+04; -1.1072581E-02;  0.0000000E+00; -1.1057940E-02;  2.3722407E+03;
  6.2177485E-01;  9.9999998E-03;  3.0005899E-01;6288; -2.6560824E-02;  0.0000000E+00; -4.4466122E-03;  9.9816003E+02;  1.0139902E-01; -1.5244012E+03;3;  4.0415592E+00;  0.0000000E+00; -3.0150819E+00;0; -2.0505460E-02;  3.8759543E+04;  0.0000000E+00;  8.3290154E-01;  4.0000000E+04;  0.0000000E+00;  4.0007801E+04; -1.1022538E-02;  0.0000000E+00; -9.4829220E-03;  2.5984910E+03;
  6.3183171E-01;  9.9999998E-03;  2.3998411E-01;6343; -2.7675333E-02;  0.0000000E+00; -4.1588023E-03;  9.9841675E+02;  1.0215342E-01; -1.3117159E+03;3;  3.8925228E+00;  0.0000000E+00; -2.9703741E+00;0; -2.1583078E-02;  3.8215398E+04;  0.0000000E+00;  1.9825849E-01;  4.0000000E+04;  0.0000000E+00;  3.9999480E+04; -9.4155762E-03;  0.0000000E+00; -1.2167502E-02;  1.8935814E+03;
  6.3183403E-01;  9.9999998E-03;  2.5001115E-01;6344; -2.7480545E-02;  0.0000000E+00; -4.2839460E-03;  9.9829803E+02;  1.0215217E-01; -1.4100341E+03;3;  3.8910046E+00;  0.0000000E+00; -2.9936907E+00;0; -2.1607839E-02;  3.8206508E+04;  0.0000000E+00;  2.7828422E-01;  4.0000000E+04;  0.0000000E+00;  4.0000367E+04; -9.1563500E-03;  0.0000000E+00; -1.2451489E-02;  2.0346624E+03;
  6.3181895E-01;  9.9999998E-03;  2.6003096E-01;6345; -2.7294012E-02;  0.0000000E+00; -4.3811835E-03;  9.9820264E+02;  1.0215039E-01; -1.4890936E+03;3;  3.9107053E+00;  0.0000000E+00; -3.0096378E+00;0; -2.1665668E-02;  3.8199387E+04;  0.0000000E+00;  3.3370540E-01;  4.0000000E+04;  0.0000000E+00;  4.0001801E+04; -8.9381328E-03;  0.0000000E+00; -1.2727535E-02;  2.2448015E+03;
  6.3178605E-01;  9.9999998E-03;  2.7004686E-01;6346; -2.7123043E-02;  0.0000000E+00; -4.4687311E-03;  9.9811182E+02;  1.0214785E-01; -1.5643013E+03;3;  3.9394672E+00;  0.0000000E+00; -3.0191362E+00;0; -2.1730602E-02;  3.8193395E+04;  0.0000000E+00;  3.6144263E-01;  4.0000000E+04;  0.0000000E+00;  4.0003312E+04; -8.7555898E-03;  0.0000000E+00; -1.2975013E-02;  2.4149724E+03;
  6.3173878E-01;  9.9999998E-03;  2.8005958E-01;6347; -2.6970807E-02;  0.0000000E+00; -4.5377784E-03;  9.9803503E+02;  1.0214505E-01; -1.6279539E+03;3;  3.9816685E+00;  0.0000000E+00; -3.0287473E+00;0; -2.1524619E-02;  3.8189164E+04;  0.0000000E+00;  3.8367492E-01;  4.0000000E+04;  0.0000000E+00;  4.0004180E+04; -8.6013069E-03;  0.0000000E+00; -1.2923312E-02;  2.5507693E+03;
  6.3168484E-01;  9.9999998E-03;  2.9006952E-01;6348; -2.6842717E-02;  0.0000000E+00; -4.5703044E-03;  9.9795953E+02;  1.0214166E-01; -1.6904706E+03;3;  4.0397577E+00;  0.0000000E+00; -3.0483403E+00;0; -2.0558998E-02;  3.8185477E+04;  0.0000000E+00;  4.5747817E-01;  4.0000000E+04;  0.0000000E+00;  4.0005336E+04; -8.4652230E-03;  0.0000000E+00; -1.2093776E-02;  2.7051968E+03;
  6.3161951E-01;  9.9999998E-03;  3.0007729E-01;6349; -2.6751112E-02;  0.0000000E+00; -4.5690564E-03;  9.9788202E+02;  1.0213718E-01; -1.7547157E+03;3;  4.0921497E+00;  0.0000000E+00; -3.0858812E+00;0; -1.8768331E-02;  3.8182953E+04;  0.0000000E+00;  6.7642587E-01;  4.0000000E+04;  0.0000000E+00;  4.0006250E+04; -8.3389077E-03;  0.0000000E+00; -1.0429423E-02;  2.9222576E+03;
  6.4170253E-01;  9.9999998E-03;  2.4000560E-01;6404; -2.7777789E-02;  0.0000000E+00; -4.2229178E-03;  9.9853198E+02;  1.0318413E-01; -1.2162124E+03;3;  3.9576464E+00;  0.0000000E+00; -3.0378313E+00;0; -1.9980583E-02;  3.7470773E+04;  0.0000000E+00;  1.7433380E-01;  4.0000000E+04;  0.0000000E+00;  3.9991105E+04; -7.4560964E-03;  0.0000000E+00; -1.2524487E-02;  1.6662601E+03;
  6.4168859E-01;  9.9999998E-03;  2.5003320E-01;6405; -2.7589202E-02;  0.0000000E+00; -4.3594530E-03;  9.9838763E+02;  1.0318229E-01; -1.3358140E+03;3;  3.9503639E+00;  0.0000000E+00; -3.0664279E+00;0; -2.0010058E-02;  3.7460234E+04;  0.0000000E+00;  1.8241484E-01;  4.0000000E+04;  0.0000000E+00;  3.9992281E+04; -7.0761521E-03;  0.0000000E+00; -1.2933906E-02;  1.8332744E+03;
  6.4166176E-01;  9.9999998E-03;  2.6005375E-01;6406; -2.7411072E-02;  0.0000000E+00; -4.4737118E-03;  9.9826501E+02;  1.0317974E-01; -1.4373914E+03;3;  3.9615870E+00;  0.0000000E+00; -3.0826766E+00;0; -2.0168591E-02;  3.7451039E+04;  0.0000000E+00;  9.3873054E-02;  4.0000000E+04;  0.0000000E+00;  3.9994016E+04; -6.7434055E-03;  0.0000000E+00; -1.3425185E-02;  2.0542861E+03;
  6.4162213E-01;  9.9999998E-03;  2.7007025E-01;6407; -2.7250020E-02;  0.0000000E+00; -4.5713363E-03;  9.9815100E+02;  1.0317664E-01; -1.5318578E+03;3;  3.9903564E+00;  0.0000000E+00; -3.0955455E+00;0; -2.0321555E-02;  3.7443824E+04;  0.0000000E+00; -1.1707556E-01;  4.0000000E+04;  0.0000000E+00;  3.9995730E+04; -6.4523695E-03;  0.0000000E+00; -1.3869185E-02;  2.2852412E+03;
  6.4157259E-01;  9.9999998E-03;  2.8008363E-01;6408; -2.7108351E-02;  0.0000000E+00; -4.6464843E-03;  9.9804706E+02;  1.0317304E-01; -1.6179788E+03;3;  4.0357938E+00;  0.0000000E+00; -3.1062684E+00;0; -2.0163108E-02;  3.7438090E+04;  0.0000000E+00; -4.2696714E-01;  4.0000000E+04;  0.0000000E+00;  3.9997441E+04; -6.1958912E-03;  0.0000000E+00; -1.3967216E-02;  2.5617441E+03;
  6.4151752E-01;  9.9999998E-03;  2.9009426E-01;6409; -2.6994215E-02;  0.0000000E+00; -4.6813572E-03;  9.9794379E+02;  1.0316797E-01; -1.7035566E+03;3;  4.0810547E+00;  0.0000000E+00; -3.1229527E+00;0; -1.9160174E-02;  3.7433523E+04;  0.0000000E+00; -7.4070853E-01;  4.0000000E+04;  0.0000000E+00;  3.9998949E+04; -5.9659593E-03;  0.0000000E+00; -1.3194215E-02;  2.9020793E+03;
  6.4144963E-01;  9.9999998E-03;  3.0010274E-01;6410; -2.6925601E-02;  0.0000000E+00; -4.6761460E-03;  9.9783911E+02;  1.0316148E-01; -1.7902703E+03;3;  4.1360641E+00;  0.0000000E+00; -3.1575739E+00;0; -1.7178146E-02;  3.7430238E+04;  0.0000000E+00; -9.1300064E-01;  4.0000000E+04;  0.0000000E+00;  4.0000488E+04; -5.7566655E-03;  0.0000000E+00; -1.1421480E-02;  3.1832068E+03;
  6.5133548E-01;  9.9999998E-03;  3.0013594E-01;6471; -2.7025698E-02;  0.0000000E+00; -4.7681434E-03;  9.9806122E+02;  1.0450038E-01; -1.6062260E+03;3;  4.1932178E+00;  0.0000000E+00; -3.2408841E+00;0; -1.5908502E-02;  3.6499574E+04;  0.0000000E+00; -4.3203821E+00;  4.0000000E+04;  0.0000000E+00;  3.9989734E+04; -3.4417321E-03;  0.0000000E+00; -1.2466770E-02;  7.1740537E+03;
  6.5139019E-01;  9.9999998E-03;  2.9012704E-01;6470; -2.7090712E-02;  0.0000000E+00; -4.7781323E-03;  9.9818463E+02;  1.0450910E-01; -1.5040066E+03;3;  4.1389790E+00;  0.0000000E+00; -3.2084391E+00;0; -1.8074539E-02;  3.6502723E+04;  0.0000000E+00; -3.4053347E+00;  4.0000000E+04;  0.0000000E+00;  3.9987594E+04; -3.7337427E-03;  0.0000000E+00; -1.4340796E-02;  5.7855522E+03;
  6.5143466E-01;  9.9999998E-03;  2.8011632E-01;6469; -2.7201278E-02;  0.0000000E+00; -4.7409902E-03;  9.9830878E+02;  1.0451502E-01; -1.4011454E+03;3;  4.0885377E+00;  0.0000000E+00; -3.1873245E+00;0; -1.9092983E-02;  3.6508277E+04;  0.0000000E+00; -2.3202291E+00;  4.0000000E+04;  0.0000000E+00;  3.9985750E+04; -4.0624239E-03;  0.0000000E+00; -1.5030559E-02;  4.1833364E+03;
  6.5147805E-01;  9.9999998E-03;  2.7010351E-01;6468; -2.7334826E-02;  0.0000000E+00; -4.6597673E-03;  9.9844208E+02;  1.0452000E-01; -1.2907288E+03;3;  4.0458307E+00;  0.0000000E+00; -3.1760957E+00;0; -1.9176394E-02;  3.6515664E+04;  0.0000000E+00; -1.3224913E+00;  4.0000000E+04;  0.0000000E+00;  3.9983328E+04; -4.4281296E-03;  0.0000000E+00; -1.4748263E-02;  2.7690215E+03;
  6.5152240E-01;  9.9999998E-03;  2.6008835E-01;6467; -2.7485790E-02;  0.0000000E+00; -4.5523718E-03;  9.9857745E+02;  1.0452373E-01; -1.1785344E+03;3;  4.0204248E+00;  0.0000000E+00; -3.1595581E+00;0; -1.8911477E-02;  3.6524742E+04;  0.0000000E+00; -5.8368635E-01;  4.0000000E+04;  0.0000000E+00;  3.9981215E+04; -4.8349909E-03;  0.0000000E+00; -1.4076485E-02;  1.7927888E+03;
  6.5156513E-01;  9.9999998E-03;  2.5007027E-01;6466; -2.7653886E-02;  0.0000000E+00; -4.4212923E-03;  9.9873145E+02;  1.0452656E-01; -1.0509824E+03;3;  4.0180316E+00;  0.0000000E+00; -3.1382532E+00;0; -1.8632039E-02;  3.6535336E+04;  0.0000000E+00; -1.4752050E-01;  4.0000000E+04;  0.0000000E+00;  3.9978922E+04; -5.2898279E-03;  0.0000000E+00; -1.3342211E-02;  1.2531637E+03;
  6.5160096E-01;  9.9999998E-03;  2.4004798E-01;6465; -2.7833015E-02;  0.0000000E+00; -4.2777364E-03;  9.9889612E+02;  1.0452793E-01; -9.1454187E+02;3;  4.0348368E+00;  0.0000000E+00; -3.1015995E+00;0; -1.8602062E-02;  3.6547688E+04;  0.0000000E+00;  4.1630689E-02;  4.0000000E+04;  0.0000000E+00;  3.9976914E+04; -5.7988223E-03;  0.0000000E+00; -1.2803239E-02;  9.5311023E+02;
  6.6139221E-01;  9.9999998E-03;  3.0017585E-01;6532; -2.6954820E-02;  0.0000000E+00; -4.8610317E-03;  9.9839148E+02;  1.0615198E-01; -1.3326041E+03;3;  4.2870545E+00;  0.0000000E+00; -3.3602448E+00;0; -1.5399680E-02;  3.5402055E+04;  0.0000000E+00; -8.8652859E+00;  4.0000000E+04;  0.0000000E+00;  3.9975410E+04; -1.5528675E-03;  0.0000000E+00; -1.3846813E-02;  1.4256308E+04;
  6.6167688E-01;  9.9999998E-03;  2.4010587E-01;6526; -2.7822539E-02;  0.0000000E+00; -4.3265470E-03;  9.9929138E+02;  1.0617972E-01; -5.8709442E+02;3;  4.1153173E+00;  0.0000000E+00; -3.1904597E+00;0; -1.7542565E-02;  3.5454438E+04;  0.0000000E+00; -1.6084459E-01;  4.0000000E+04;  0.0000000E+00;  3.9959328E+04; -4.5458102E-03;  0.0000000E+00; -1.2996755E-02;  3.3565060E+02;
  6.6142237E-01;  9.9999998E-03;  2.9016659E-01;6531; -2.7075080E-02;  0.0000000E+00; -4.8649763E-03;  9.9851538E+02;  1.0616223E-01; -1.2299897E+03;3;  4.2260675E+00;  0.0000000E+00; -3.3193340E+00;0; -1.7529497E-02;  3.5404152E+04;  0.0000000E+00; -7.0525665E+00;  4.0000000E+04;  0.0000000E+00;  3.9973312E+04; -1.9247723E-03;  0.0000000E+00; -1.5604725E-02;  1.1406791E+04;
  6.6162914E-01;  9.9999998E-03;  2.5011867E-01;6527; -2.7653428E-02;  0.0000000E+00; -4.4739759E-03;  9.9911316E+02;  1.0617909E-01; -7.3474457E+02;3;  4.1068645E+00;  0.0000000E+00; -3.2154911E+00;0; -1.7596301E-02;  3.5440621E+04;  0.0000000E+00; -6.2967604E-01;  4.0000000E+04;  0.0000000E+00;  3.9962555E+04; -3.9083082E-03;  0.0000000E+00; -1.3687992E-02;  1.1927958E+03;
  6.6148692E-01;  9.9999998E-03;  2.7014461E-01;6529; -2.7347479E-02;  0.0000000E+00; -4.7351904E-03;  9.9880078E+02;  1.0617333E-01; -9.9355200E+02;3;  4.1235886E+00;  0.0000000E+00; -3.2657259E+00;0; -1.8436436E-02;  3.5418973E+04;  0.0000000E+00; -3.0547040E+00;  4.0000000E+04;  0.0000000E+00;  3.9968168E+04; -2.8186343E-03;  0.0000000E+00; -1.5617802E-02;  5.0977700E+03;
  6.6155159E-01;  9.9999998E-03;  2.6013231E-01;6528; -2.7495224E-02;  0.0000000E+00; -4.6246960E-03;  9.9895374E+02;  1.0617708E-01; -8.6679016E+02;3;  4.1085806E+00;  0.0000000E+00; -3.2500210E+00;0; -1.8071134E-02;  3.5429250E+04;  0.0000000E+00; -1.5678029E+00;  4.0000000E+04;  0.0000000E+00;  3.9965297E+04; -3.3359276E-03;  0.0000000E+00; -1.4735206E-02;  2.7211624E+03;
  6.6145217E-01;  9.9999998E-03;  2.8015617E-01;6530; -2.7209667E-02;  0.0000000E+00; -4.8234812E-03;  9.9865143E+02;  1.0616936E-01; -1.1172522E+03;3;  4.1673794E+00;  0.0000000E+00; -3.2889574E+00;0; -1.8487545E-02;  3.5410105E+04;  0.0000000E+00; -4.9663887E+00;  4.0000000E+04;  0.0000000E+00;  3.9971004E+04; -2.3481776E-03;  0.0000000E+00; -1.6139368E-02;  8.1204463E+03;
  6.7168164E-01;  9.9999998E-03;  2.4016528E-01;6587; -2.7726706E-02;  0.0000000E+00; -4.3117777E-03;  9.9951434E+02;  1.0811506E-01; -4.0235892E+02;3;  4.2011333E+00;  0.0000000E+00; -3.3009641E+00;0; -1.6640963E-02;  3.4216395E+04;  0.0000000E+00; -4.9094126E-01;  4.0000000E+04;  0.0000000E+00;  3.9942840E+04; -3.8118479E-03;  0.0000000E+00; -1.2829116E-02;  1.0655833E+03;
  6.7165303E-01;  9.9999998E-03;  2.5017127E-01;6588; -2.7574359E-02;  0.0000000E+00; -4.4849757E-03;  9.9933191E+02;  1.0811606E-01; -5.5351514E+02;3;  4.1760426E+00;  0.0000000E+00; -3.3454375E+00;0; -1.6803246E-02;  3.4202367E+04;  0.0000000E+00; -1.3263115E+00;  4.0000000E+04;  0.0000000E+00;  3.9946398E+04; -3.0699649E-03;  0.0000000E+00; -1.3733281E-02;  2.3468728E+03;
  6.7163140E-01;  9.9999998E-03;  2.6018074E-01;6589; -2.7434027E-02;  0.0000000E+00; -4.6723583E-03;  9.9914966E+02;  1.0811608E-01; -7.0447382E+02;3;  4.2005615E+00;  0.0000000E+00; -3.3609960E+00;0; -1.7616414E-02;  3.4188988E+04;  0.0000000E+00; -2.7840126E+00;  4.0000000E+04;  0.0000000E+00;  3.9949160E+04; -2.3974320E-03;  0.0000000E+00; -1.5218981E-02;  4.7626177E+03;
  6.7163724E-01;  9.9999998E-03;  2.7019039E-01;6590; -2.7284455E-02;  0.0000000E+00; -4.8023919E-03;  9.9898669E+02;  1.0811607E-01; -8.3948230E+02;3;  4.2302141E+00;  0.0000000E+00; -3.3877802E+00;0; -1.8306257E-02;  3.4175781E+04;  0.0000000E+00; -4.9170089E+00;  4.0000000E+04;  0.0000000E+00;  3.9952648E+04; -1.7830794E-03;  0.0000000E+00; -1.6523179E-02;  8.2780186E+03;
  6.7165619E-01;  9.9999998E-03;  2.8020072E-01;6591; -2.7119771E-02;  0.0000000E+00; -4.8985127E-03;  9.9883472E+02;  1.0811489E-01; -9.6540466E+02;3;  4.2757034E+00;  0.0000000E+00; -3.4211249E+00;0; -1.8585693E-02;  3.4164852E+04;  0.0000000E+00; -7.5971513E+00;  4.0000000E+04;  0.0000000E+00;  3.9955559E+04; -1.2225655E-03;  0.0000000E+00; -1.7363127E-02;  1.2655400E+04;
  6.7167509E-01;  9.9999998E-03;  2.9021093E-01;6592; -2.6917184E-02;  0.0000000E+00; -4.9534165E-03;  9.9870306E+02;  1.0810889E-01; -1.0744879E+03;3;  4.3436117E+00;  0.0000000E+00; -3.4606416E+00;0; -1.7911082E-02;  3.4159086E+04;  0.0000000E+00; -1.0440630E+01;  4.0000000E+04;  0.0000000E+00;  3.9958352E+04; -7.1356946E-04;  0.0000000E+00; -1.7197512E-02;  1.7263893E+04;
  6.7171335E-01;  9.9999998E-03;  3.0022073E-01;6593; -2.6675794E-02;  0.0000000E+00; -4.9672411E-03;  9.9858777E+02;  1.0809863E-01; -1.1699915E+03;3;  4.3999243E+00;  0.0000000E+00; -3.5205801E+00;0; -1.6075145E-02;  3.4157930E+04;  0.0000000E+00; -1.2685123E+01;  4.0000000E+04;  0.0000000E+00;  3.9960375E+04; -2.6261422E-04;  0.0000000E+00; -1.5812531E-02;  2.0865559E+04;
  6.8190652E-01;  9.9999998E-03;  2.4022055E-01;6648; -2.7551722E-02;  0.0000000E+00; -4.2207437E-03;  9.9940381E+02;  1.1032353E-01; -4.9391190E+02;3;  4.2034855E+00;  0.0000000E+00; -3.5373590E+00;0; -1.5828032E-02;  3.2858379E+04;  0.0000000E+00; -8.2094979E-01;  4.0000000E+04;  0.0000000E+00;  3.9929125E+04; -3.6079073E-03;  0.0000000E+00; -1.2220126E-02;  1.7068284E+03;
  6.8187857E-01;  9.9999998E-03;  2.5022271E-01;6649; -2.7391050E-02;  0.0000000E+00; -4.4008074E-03;  9.9924359E+02;  1.1033116E-01; -6.2664886E+02;3;  4.1892576E+00;  0.0000000E+00; -3.5872879E+00;0; -1.5908128E-02;  3.2843129E+04;  0.0000000E+00; -2.0135672E+00;  4.0000000E+04;  0.0000000E+00;  3.9932453E+04; -2.8034726E-03;  0.0000000E+00; -1.3104655E-02;  3.7089927E+03;
  6.8190634E-01;  9.9999998E-03;  2.6023063E-01;6650; -2.7282983E-02;  0.0000000E+00; -4.6504843E-03;  9.9907239E+02;  1.1034176E-01; -7.6852136E+02;3;  4.2540402E+00;  0.0000000E+00; -3.5607159E+00;0; -1.7194757E-02;  3.2825195E+04;  0.0000000E+00; -3.9220445E+00;  4.0000000E+04;  0.0000000E+00;  3.9934559E+04; -2.0900846E-03;  0.0000000E+00; -1.5104673E-02;  6.9786006E+03;
  6.8198448E-01;  9.9999998E-03;  2.7023908E-01;6651; -2.7135069E-02;  0.0000000E+00; -4.8240493E-03;  9.9891589E+02;  1.1035369E-01; -8.9814728E+02;3;  4.2987957E+00;  0.0000000E+00; -3.5932257E+00;0; -1.8446352E-02;  3.2806809E+04;  0.0000000E+00; -6.5435500E+00;  4.0000000E+04;  0.0000000E+00;  3.9937996E+04; -1.4343825E-03;  0.0000000E+00; -1.7011970E-02;  1.1443766E+04;
  6.8208432E-01;  9.9999998E-03;  2.8024909E-01;6652; -2.6918184E-02;  0.0000000E+00; -4.9450547E-03;  9.9877832E+02;  1.1036298E-01; -1.0121194E+03;3;  4.3678479E+00;  0.0000000E+00; -3.6471024E+00;0; -1.9218702E-02;  3.2791109E+04;  0.0000000E+00; -9.6334438E+00;  4.0000000E+04;  0.0000000E+00;  3.9940750E+04; -8.2741794E-04;  0.0000000E+00; -1.8391283E-02;  1.6665463E+04;
  6.8220794E-01;  9.9999998E-03;  2.9025981E-01;6653; -2.6598090E-02;  0.0000000E+00; -5.0112540E-03;  9.9865955E+02;  1.1036934E-01; -1.1105364E+03;3;  4.3764467E+00;  0.0000000E+00; -3.7173338E+00;0; -1.8851966E-02;  3.2779535E+04;  0.0000000E+00; -1.2500176E+01;  4.0000000E+04;  0.0000000E+00;  3.9943215E+04; -2.6544440E-04;  0.0000000E+00; -1.8586522E-02;  2.1459863E+04;
  6.8235391E-01;  9.9999998E-03;  3.0027097E-01;6654; -2.6161827E-02;  0.0000000E+00; -5.0465087E-03;  9.9856152E+02;  1.1036929E-01; -1.1917686E+03;3;  4.2234430E+00;  0.0000000E+00; -3.8982360E+00;0; -1.7384196E-02;  3.2774277E+04;  0.0000000E+00; -1.4317017E+01;  4.0000000E+04;  0.0000000E+00;  3.9944668E+04;  2.4239809E-04;  0.0000000E+00; -1.7626593E-02;  2.4426625E+04;
  6.9289553E-01;  9.9999998E-03;  2.4027072E-01;6709; -2.7312232E-02;  0.0000000E+00; -4.0252185E-03;  9.9903101E+02;  1.1291512E-01; -8.0279199E+02;3;  4.1441226E+00;  0.0000000E+00; -3.8996463E+00;0; -1.4964977E-02;  3.1353619E+04;  0.0000000E+00; -8.3905774E-01;  4.0000000E+04;  0.0000000E+00;  3.9917805E+04; -3.9211954E-03;  0.0000000E+00; -1.1043782E-02;  1.8988945E+03;
  6.9301093E-01;  9.9999998E-03;  2.5027370E-01;6710; -2.7121514E-02;  0.0000000E+00; -4.1947239E-03;  9.9888623E+02;  1.1294329E-01; -9.2273920E+02;3;  4.1365747E+00;  0.0000000E+00; -3.9532843E+00;0; -1.4774948E-02;  3.1329223E+04;  0.0000000E+00; -1.9648582E+00;  4.0000000E+04;  0.0000000E+00;  3.9920074E+04; -3.1368718E-03;  0.0000000E+00; -1.1638077E-02;  3.9767236E+03;
  6.9316679E-01;  9.9999998E-03;  2.6028326E-01;6711; -2.7026227E-02;  0.0000000E+00; -4.5001339E-03;  9.9874860E+02;  1.1297821E-01; -1.0367606E+03;3;  4.2298570E+00;  0.0000000E+00; -3.9220302E+00;0; -1.6334316E-02;  3.1302270E+04;  0.0000000E+00; -3.6591139E+00;  4.0000000E+04;  0.0000000E+00;  3.9920883E+04; -2.4690072E-03;  0.0000000E+00; -1.3865309E-02;  7.0264336E+03;
  6.9338924E-01;  9.9999998E-03;  2.7029324E-01;6712; -2.6872281E-02;  0.0000000E+00; -4.7323368E-03;  9.9864227E+02;  1.1302113E-01; -1.1248569E+03;3;  4.3039722E+00;  0.0000000E+00; -3.9543073E+00;0; -1.8187596E-02;  3.1271773E+04;  0.0000000E+00; -5.7846608E+00;  4.0000000E+04;  0.0000000E+00;  3.9922816E+04; -1.8657410E-03;  0.0000000E+00; -1.6321855E-02;  1.0839235E+04;
  6.9365895E-01;  9.9999998E-03;  2.8030467E-01;6713; -2.6610559E-02;  0.0000000E+00; -4.8747114E-03;  9.9855786E+02;  1.1306658E-01; -1.1947809E+03;3;  4.3159733E+00;  0.0000000E+00; -4.0146275E+00;0; -1.9344769E-02;  3.1241455E+04;  0.0000000E+00; -7.9137964E+00;  4.0000000E+04;  0.0000000E+00;  3.9924805E+04; -1.3133409E-03;  0.0000000E+00; -1.8031428E-02;  1.4636309E+04;
  6.9392562E-01;  9.9999998E-03;  2.9031718E-01;6714; -2.6235774E-02;  0.0000000E+00; -4.9449853E-03;  9.9849573E+02;  1.1310297E-01; -1.2462855E+03;3;  4.2061062E+00;  0.0000000E+00; -4.1282420E+00;0; -1.9162327E-02;  3.1218561E+04;  0.0000000E+00; -9.4852314E+00;  4.0000000E+04;  0.0000000E+00;  3.9926270E+04; -8.1398123E-04;  0.0000000E+00; -1.8348346E-02;  1.7396299E+04;
  6.9416177E-01;  9.9999998E-03;  3.0033040E-01;6715; -2.5770137E-02;  0.0000000E+00; -4.9829916E-03;  9.9846558E+02;  1.1312354E-01; -1.2712230E+03;3;  4.0081587E+00;  0.0000000E+00; -4.3143806E+00;0; -1.7879397E-02;  3.1207328E+04;  0.0000000E+00; -1.0030741E+01;  4.0000000E+04;  0.0000000E+00;  3.9926895E+04; -3.8011366E-04;  0.0000000E+00; -1.7499283E-02;  1.8271771E+04;
  7.0512688E-01;  9.9999998E-03;  2.4032542E-01;6770; -2.7112614E-02;  0.0000000E+00; -3.7588945E-03;  9.9877600E+02;  1.1607365E-01; -1.0140452E+03;3;  4.1001091E+00;  0.0000000E+00; -4.3167987E+00;0; -1.4082317E-02;  2.9672336E+04;  0.0000000E+00; -4.8159617E-01;  4.0000000E+04;  0.0000000E+00;  3.9904191E+04; -4.5659989E-03;  0.0000000E+00; -9.5163183E-03;  1.7251732E+03;
  7.0530742E-01;  9.9999998E-03;  2.5033313E-01;6771; -2.6878707E-02;  0.0000000E+00; -3.9072703E-03;  9.9870428E+02;  1.1612593E-01; -1.0734509E+03;3;  4.0853624E+00;  0.0000000E+00; -4.3945117E+00;0; -1.3603043E-02;  2.9642881E+04;  0.0000000E+00; -1.4038256E+00;  4.0000000E+04;  0.0000000E+00;  3.9904535E+04; -3.9167600E-03;  0.0000000E+00; -9.6862828E-03;  3.4619192E+03;
  7.0555872E-01;  9.9999998E-03;  2.6034665E-01;6772; -2.6748704E-02;  0.0000000E+00; -4.2346045E-03;  9.9864185E+02;  1.1619013E-01; -1.1252025E+03;3;  4.1579342E+00;  0.0000000E+00; -4.3480830E+00;0; -1.5144462E-02;  2.9608773E+04;  0.0000000E+00; -2.7174702E+00;  4.0000000E+04;  0.0000000E+00;  3.9902910E+04; -3.3931402E-03;  0.0000000E+00; -1.1751321E-02;  5.9422300E+03;
  7.0586270E-01;  9.9999998E-03;  2.7035940E-01;6773; -2.6586302E-02;  0.0000000E+00; -4.5248093E-03;  9.9862708E+02;  1.1626185E-01; -1.1374491E+03;3;  4.2283959E+00;  0.0000000E+00; -4.3459129E+00;0; -1.7544284E-02;  2.9572619E+04;  0.0000000E+00; -4.3109789E+00;  4.0000000E+04;  0.0000000E+00;  3.9902707E+04; -2.9540693E-03;  0.0000000E+00; -1.4590215E-02;  9.0027529E+03;
  7.0614177E-01;  9.9999998E-03;  2.8037262E-01;6774; -2.6315069E-02;  0.0000000E+00; -4.6963575E-03;  9.9864166E+02;  1.1632186E-01; -1.1253506E+03;3;  4.1797013E+00;  0.0000000E+00; -4.3946090E+00;0; -1.9171013E-02;  2.9544193E+04;  0.0000000E+00; -5.9394355E+00;  4.0000000E+04;  0.0000000E+00;  3.9903105E+04; -2.5732410E-03;  0.0000000E+00; -1.6597772E-02;  1.2113510E+04;
  7.0637506E-01;  9.9999998E-03;  2.9038680E-01;6775; -2.5944622E-02;  0.0000000E+00; -4.7860155E-03;  9.9866864E+02;  1.1636340E-01; -1.1030303E+03;3;  4.0532303E+00;  0.0000000E+00; -4.4842486E+00;0; -1.9479308E-02;  2.9526352E+04;  0.0000000E+00; -7.1707773E+00;  4.0000000E+04;  0.0000000E+00;  3.9903445E+04; -2.2526926E-03;  0.0000000E+00; -1.7226616E-02;  1.4426768E+04;
  7.0655376E-01;  9.9999998E-03;  3.0040154E-01;6776; -2.5441686E-02;  0.0000000E+00; -4.8109586E-03;  9.9869659E+02;  1.1638027E-01; -1.0798705E+03;3;  3.8643887E+00;  0.0000000E+00; -4.6293612E+00;0; -1.8201215E-02;  2.9521408E+04;  0.0000000E+00; -7.5822105E+00;  4.0000000E+04;  0.0000000E+00;  3.9903102E+04; -1.9819103E-03;  0.0000000E+00; -1.6219305E-02;  1.5129678E+04;
  7.1757329E-01;  9.9999998E-03;  2.4038619E-01;6831; -2.7092323E-02;  0.0000000E+00; -3.5719033E-03;  9.9874207E+02;  1.1959387E-01; -1.0421925E+03;3;  4.1285181E+00;  0.0000000E+00; -4.6391459E+00;0; -1.3120584E-02;  2.7969113E+04;  0.0000000E+00; -3.4961283E-01;  4.0000000E+04;  0.0000000E+00;  3.9887566E+04; -4.5993687E-03;  0.0000000E+00; -8.5212151E-03;  1.9407115E+03;
  7.1771622E-01;  9.9999998E-03;  2.5039807E-01;6832; -2.6836576E-02;  0.0000000E+00; -3.7046762E-03;  9.9872174E+02;  1.1964690E-01; -1.0590315E+03;3;  4.1011868E+00;  0.0000000E+00; -4.6783514E+00;0; -1.2745702E-02;  2.7944699E+04;  0.0000000E+00; -1.2807624E+00;  4.0000000E+04;  0.0000000E+00;  3.9886445E+04; -4.1772081E-03;  0.0000000E+00; -8.5684936E-03;  3.6045403E+03;
  7.1787483E-01;  9.9999998E-03;  2.6041427E-01;6833; -2.6647910E-02;  0.0000000E+00; -3.9835121E-03;  9.9872144E+02;  1.1970447E-01; -1.0592784E+03;3;  4.1099319E+00;  0.0000000E+00; -4.7004166E+00;0; -1.3995054E-02;  2.7920078E+04;  0.0000000E+00; -2.6955431E+00;  4.0000000E+04;  0.0000000E+00;  3.9883250E+04; -3.8646671E-03;  0.0000000E+00; -1.0130387E-02;  6.3400811E+03;
  7.1795166E-01;  9.9999998E-03;  2.7042854E-01;6834; -2.6461249E-02;  0.0000000E+00; -4.2954418E-03;  9.9874359E+02;  1.1973210E-01; -1.0409086E+03;3;  4.1528549E+00;  0.0000000E+00; -4.6341038E+00;0; -1.6710820E-02;  2.7910367E+04;  0.0000000E+00; -4.5815940E+00;  4.0000000E+04;  0.0000000E+00;  3.9881516E+04; -3.6465332E-03;  0.0000000E+00; -1.3064287E-02;  1.0075794E+04;
  7.1799487E-01;  9.9999998E-03;  2.8044227E-01;6835; -2.6192829E-02;  0.0000000E+00; -4.4952501E-03;  9.9878821E+02;  1.1974037E-01; -1.0039220E+03;3;  4.0851636E+00;  0.0000000E+00; -4.6523962E+00;0; -1.8880568E-02;  2.7910020E+04;  0.0000000E+00; -6.6192389E+00;  4.0000000E+04;  0.0000000E+00;  3.9881207E+04; -3.4977496E-03;  0.0000000E+00; -1.5382819E-02;  1.4081082E+04;
  7.1800900E-01;  9.9999998E-03;  2.9045662E-01;6836; -2.5819207E-02;  0.0000000E+00; -4.5919418E-03;  9.9882440E+02;  1.1973148E-01; -9.7394757E+02;3;  3.9627151E+00;  0.0000000E+00; -4.7085176E+00;0; -1.9530799E-02;  2.7917209E+04;  0.0000000E+00; -8.2990408E+00;  4.0000000E+04;  0.0000000E+00;  3.9881492E+04; -3.4083528E-03;  0.0000000E+00; -1.6122445E-02;  1.7328121E+04;
  7.1799409E-01;  9.9999998E-03;  3.0047169E-01;6837; -2.5268164E-02;  0.0000000E+00; -4.5936559E-03;  9.9883447E+02;  1.1970387E-01; -9.6560211E+02;3;  3.7762127E+00;  0.0000000E+00; -4.8279076E+00;0; -1.8095469E-02;  2.7932264E+04;  0.0000000E+00; -9.1257334E+00;  4.0000000E+04;  0.0000000E+00;  3.9881527E+04; -3.3581040E-03;  0.0000000E+00; -1.4737366E-02;  1.8844334E+04;
  7.2956043E-01;  9.9999998E-03;  2.4043362E-01;6892; -2.7200660E-02;  0.0000000E+00; -3.4198589E-03;  9.9849170E+02;  1.2325644E-01; -1.2495939E+03;3;  4.2141314E+00;  0.0000000E+00; -4.7847495E+00;0; -1.0643721E-02;  2.6334205E+04;  0.0000000E+00; -4.3749025E-01;  4.0000000E+04;  0.0000000E+00;  3.9873832E+04; -2.5755083E-03;  0.0000000E+00; -8.0682123E-03;  2.7616831E+03;
  7.2952962E-01;  9.9999998E-03;  2.5045350E-01;6893; -2.6930809E-02;  0.0000000E+00; -3.5450757E-03;  9.9843854E+02;  1.2325788E-01; -1.2936420E+03;3;  4.1748705E+00;  0.0000000E+00; -4.8427868E+00;0; -1.0613481E-02;  2.6331814E+04;  0.0000000E+00; -1.3548189E+00;  4.0000000E+04;  0.0000000E+00;  3.9872020E+04; -2.4264506E-03;  0.0000000E+00; -8.1870295E-03;  4.1713936E+03;
  7.2948277E-01;  9.9999998E-03;  2.6047331E-01;6894; -2.6730474E-02;  0.0000000E+00; -3.7945148E-03;  9.9841034E+02;  1.2325568E-01; -1.3169993E+03;3;  4.1459637E+00;  0.0000000E+00; -4.8359771E+00;0; -1.2026184E-02;  2.6332721E+04;  0.0000000E+00; -2.6836932E+00;  4.0000000E+04;  0.0000000E+00;  3.9869000E+04; -2.3921290E-03;  0.0000000E+00; -9.6340552E-03;  6.6516465E+03;
  7.2942686E-01;  9.9999998E-03;  2.7049071E-01;6895; -2.6540782E-02;  0.0000000E+00; -4.0956629E-03;  9.9840857E+02;  1.2324624E-01; -1.3184807E+03;3;  4.1312509E+00;  0.0000000E+00; -4.7986245E+00;0; -1.4976609E-02;  2.6338146E+04;  0.0000000E+00; -4.3484645E+00;  4.0000000E+04;  0.0000000E+00;  3.9866711E+04; -2.4592597E-03;  0.0000000E+00; -1.2517349E-02;  9.9755352E+03;
  7.2937930E-01;  9.9999998E-03;  2.8050649E-01;6896; -2.6304618E-02;  0.0000000E+00; -4.3091266E-03;  9.9842627E+02;  1.2323121E-01; -1.3038145E+03;3;  4.0515938E+00;  0.0000000E+00; -4.7952609E+00;0; -1.7708136E-02;  2.6346740E+04;  0.0000000E+00; -6.0815964E+00;  4.0000000E+04;  0.0000000E+00;  3.9866035E+04; -2.6090997E-03;  0.0000000E+00; -1.5099036E-02;  1.3472614E+04;
  7.2931999E-01;  9.9999998E-03;  2.9052243E-01;6897; -2.5979813E-02;  0.0000000E+00; -4.4033676E-03;  9.9843817E+02;  1.2320478E-01; -1.2939382E+03;3;  3.9269392E+00;  0.0000000E+00; -4.8067575E+00;0; -1.8734470E-02;  2.6359230E+04;  0.0000000E+00; -7.4262910E+00;  4.0000000E+04;  0.0000000E+00;  3.9866227E+04; -2.8305019E-03;  0.0000000E+00; -1.5903968E-02;  1.6163378E+04;
  7.2923046E-01;  9.9999998E-03;  3.0053866E-01;6898; -2.5477583E-02;  0.0000000E+00; -4.3802192E-03;  9.9841089E+02;  1.2316256E-01; -1.3165548E+03;3;  3.7330260E+00;  0.0000000E+00; -4.9069362E+00;0; -1.7247573E-02;  2.6377404E+04;  0.0000000E+00; -7.9320621E+00;  4.0000000E+04;  0.0000000E+00;  3.9866715E+04; -3.1054320E-03;  0.0000000E+00; -1.4142140E-02;  1.7137496E+04;
  7.4150234E-01;  9.9999998E-03;  2.4046336E-01;6953; -2.7387418E-02;  0.0000000E+00; -3.2395162E-03;  9.9783063E+02;  1.2709633E-01; -1.7972817E+03;3;  4.3061824E+00;  0.0000000E+00; -4.8840256E+00;0; -5.0118612E-03;  2.4745404E+04;  0.0000000E+00; -3.8099331E-01;  4.0000000E+04;  0.0000000E+00;  3.9864828E+04;  3.0595334E-03;  0.0000000E+00; -8.0713946E-03;  4.0394097E+03;
  7.4147278E-01;  9.9999998E-03;  2.5049889E-01;6954; -2.7107378E-02;  0.0000000E+00; -3.3499128E-03;  9.9771558E+02;  1.2709978E-01; -1.8925876E+03;3;  4.2518516E+00;  0.0000000E+00; -4.9305081E+00;0; -5.3037186E-03;  2.4738975E+04;  0.0000000E+00; -9.2086953E-01;  4.0000000E+04;  0.0000000E+00;  3.9862230E+04;  3.0051139E-03;  0.0000000E+00; -8.3088325E-03;  4.3864653E+03;
  7.4143326E-01;  9.9999998E-03;  2.6052725E-01;6955; -2.6913604E-02;  0.0000000E+00; -3.5856869E-03;  9.9762476E+02;  1.2709929E-01; -1.9678447E+03;3;  4.1890540E+00;  0.0000000E+00; -4.9523845E+00;0; -7.0410823E-03;  2.4735842E+04;  0.0000000E+00; -1.5372093E+00;  4.0000000E+04;  0.0000000E+00;  3.9859215E+04;  2.8146128E-03;  0.0000000E+00; -9.8556951E-03;  5.0808706E+03;
  7.4140507E-01;  9.9999998E-03;  2.7055040E-01;6956; -2.6756283E-02;  0.0000000E+00; -3.8893181E-03;  9.9755322E+02;  1.2709881E-01; -2.0271023E+03;3;  4.1356373E+00;  0.0000000E+00; -4.8987050E+00;0; -1.0481521E-02;  2.4734203E+04;  0.0000000E+00; -2.0878017E+00;  4.0000000E+04;  0.0000000E+00;  3.9856832E+04;  2.5103658E-03;  0.0000000E+00; -1.2991888E-02;  5.9063398E+03;
  7.4141377E-01;  9.9999998E-03;  2.8057048E-01;6957; -2.6581200E-02;  0.0000000E+00; -4.1094655E-03;  9.9751489E+02;  1.2710457E-01; -2.0588545E+03;3;  4.0571318E+00;  0.0000000E+00; -4.8435698E+00;0; -1.3793503E-02;  2.4731119E+04;  0.0000000E+00; -2.3671460E+00;  4.0000000E+04;  0.0000000E+00;  3.9856016E+04;  2.1211070E-03;  0.0000000E+00; -1.5914610E-02;  6.3758384E+03;
  7.4138504E-01;  9.9999998E-03;  2.9058933E-01;6958; -2.6350504E-02;  0.0000000E+00; -4.2040781E-03;  9.9747357E+02;  1.2709673E-01; -2.0930757E+03;3;  3.9140098E+00;  0.0000000E+00; -4.8389950E+00;0; -1.5284415E-02;  2.4732791E+04;  0.0000000E+00; -2.0941813E+00;  4.0000000E+04;  0.0000000E+00;  3.9856367E+04;  1.6173704E-03;  0.0000000E+00; -1.6901786E-02;  5.8599028E+03;
  7.4131888E-01;  9.9999998E-03;  3.0060795E-01;6959; -2.5981827E-02;  0.0000000E+00; -4.1607670E-03;  9.9741199E+02;  1.2707601E-01; -2.1441360E+03;3;  3.7118895E+00;  0.0000000E+00; -4.8833756E+00;0; -1.3887237E-02;  2.4738924E+04;  0.0000000E+00; -1.1140641E+00;  4.0000000E+04;  0.0000000E+00;  3.9857312E+04;  1.0154967E-03;  0.0000000E+00; -1.4902733E-02;  4.1873188E+03;
  7.5469983E-01;  9.9999998E-03;  2.4050710E-01;7014; -2.7698105E-02;  0.0000000E+00; -3.1206841E-03;  9.9719128E+02;  1.3146847E-01; -2.3269456E+03;3;  4.3502536E+00;  0.0000000E+00; -4.9905877E+00;0;  5.9009930E-03;  2.3110674E+04;  0.0000000E+00; -2.1768212E-01;  4.0000000E+04;  0.0000000E+00;  3.9850605E+04;  1.5304947E-02;  0.0000000E+00; -9.4039543E-03;  4.9724751E+03;
  7.5456488E-01;  9.9999998E-03;  2.5055197E-01;7015; -2.7355067E-02;  0.0000000E+00; -3.1190964E-03;  9.9699927E+02;  1.3144511E-01; -2.4860520E+03;3;  4.3346686E+00;  0.0000000E+00; -4.9688663E+00;0;  5.5833133E-03;  2.3109029E+04;  0.0000000E+00; -2.3272128E-01;  4.0000000E+04;  0.0000000E+00;  3.9849672E+04;  1.5099427E-02;  0.0000000E+00; -9.5161134E-03;  4.8420752E+03;
  7.5432569E-01;  9.9999998E-03;  2.6058671E-01;7016; -2.7159061E-02;  0.0000000E+00; -3.3124480E-03;  9.9680444E+02;  1.3139175E-01; -2.6474792E+03;3;  4.2449417E+00;  0.0000000E+00; -4.9917345E+00;0;  3.5524163E-03;  2.3118844E+04;  0.0000000E+00;  1.0592172E-01;  4.0000000E+04;  0.0000000E+00;  3.9847961E+04;  1.4601883E-02;  0.0000000E+00; -1.1049466E-02;  4.4897153E+03;
  7.5413245E-01;  9.9999998E-03;  2.7061477E-01;7017; -2.7033426E-02;  0.0000000E+00; -3.6261980E-03;  9.9662762E+02;  1.3134778E-01; -2.7939441E+03;3;  4.1505380E+00;  0.0000000E+00; -4.9602923E+00;0; -5.2527245E-04;  2.3127055E+04;  0.0000000E+00;  9.9788833E-01;  4.0000000E+04;  0.0000000E+00;  3.9846391E+04;  1.4009438E-02;  0.0000000E+00; -1.4534711E-02;  4.7270596E+03;
  7.5404263E-01;  9.9999998E-03;  2.8063846E-01;7018; -2.6911350E-02;  0.0000000E+00; -3.8584801E-03;  9.9649457E+02;  1.3132827E-01; -2.9041633E+03;3;  4.0408521E+00;  0.0000000E+00; -4.8779349E+00;0; -4.4370657E-03;  2.3128160E+04;  0.0000000E+00;  2.5343611E+00;  4.0000000E+04;  0.0000000E+00;  3.9846250E+04;  1.3410608E-02;  0.0000000E+00; -1.7847674E-02;  7.1103784E+03;
  7.5394726E-01;  9.9999998E-03;  2.9065993E-01;7019; -2.6755985E-02;  0.0000000E+00; -3.9570322E-03;  9.9638348E+02;  1.3130458E-01; -2.9962100E+03;3;  3.9077375E+00;  0.0000000E+00; -4.8043232E+00;0; -6.3455729E-03;  2.3131627E+04;  0.0000000E+00;  4.8271232E+00;  4.0000000E+04;  0.0000000E+00;  3.9846875E+04;  1.2697876E-02;  0.0000000E+00; -1.9043449E-02;  1.1856979E+04;
  7.5382501E-01;  9.9999998E-03;  3.0068058E-01;7020; -2.6466522E-02;  0.0000000E+00; -3.9006139E-03;  9.9627997E+02;  1.3127016E-01; -3.0819856E+03;3;  3.6894822E+00;  0.0000000E+00; -4.8160090E+00;0; -4.9440535E-03;  2.3139428E+04;  0.0000000E+00;  7.8575025E+00;  4.0000000E+04;  0.0000000E+00;  3.9848348E+04;  1.1853288E-02;  0.0000000E+00; -1.6797341E-02;  1.8472545E+04;
  7.6860243E-01;  9.9999998E-03;  2.4059367E-01;7075; -2.8117124E-02;  0.0000000E+00; -3.0911244E-03;  9.9724261E+02;  1.3629089E-01; -2.2844277E+03;3;  4.3713684E+00;  0.0000000E+00; -5.0629501E+00;0;  2.3925187E-02;  2.1520428E+04;  0.0000000E+00; -2.7699330E-01;  4.0000000E+04;  0.0000000E+00;  3.9823074E+04;  3.6582518E-02;  0.0000000E+00; -1.2657331E-02;  4.5909854E+03;
  7.6844603E-01;  9.9999998E-03;  2.5063434E-01;7076; -2.7681068E-02;  0.0000000E+00; -2.9033965E-03;  9.9701227E+02;  1.3625117E-01; -2.4752866E+03;3;  4.3461099E+00;  0.0000000E+00; -4.9992032E+00;0;  2.3877364E-02;  2.1519924E+04;  0.0000000E+00; -6.2607586E-02;  4.0000000E+04;  0.0000000E+00;  3.9825293E+04;  3.6605690E-02;  0.0000000E+00; -1.2728327E-02;  4.7420156E+03;
  7.6816165E-01;  9.9999998E-03;  2.6066747E-01;7077; -2.7442148E-02;  0.0000000E+00; -2.9580931E-03;  9.9672943E+02;  1.3617711E-01; -2.7096008E+03;3;  4.3080025E+00;  0.0000000E+00; -4.9369760E+00;0;  2.2317603E-02;  2.1529799E+04;  0.0000000E+00;  7.4374944E-01;  4.0000000E+04;  0.0000000E+00;  3.9826547E+04;  3.6161359E-02;  0.0000000E+00; -1.3843756E-02;  5.2988823E+03;
  7.6795828E-01;  9.9999998E-03;  2.7069709E-01;7078; -2.7348710E-02;  0.0000000E+00; -3.2615061E-03;  9.9645929E+02;  1.3612583E-01; -2.9333967E+03;3;  4.1693635E+00;  0.0000000E+00; -4.9179692E+00;0;  1.8052831E-02;  2.1534352E+04;  0.0000000E+00;  2.3767252E+00;  4.0000000E+04;  0.0000000E+00;  3.9825832E+04;  3.5679337E-02;  0.0000000E+00; -1.7626505E-02;  8.0903906E+03;
  7.6795131E-01;  9.9999998E-03;  2.8072342E-01;7079; -2.7272830E-02;  0.0000000E+00; -3.5038411E-03;  9.9627228E+02;  1.3612922E-01; -3.0883552E+03;3;  4.0190558E+00;  0.0000000E+00; -4.8230319E+00;0;  1.4011106E-02;  2.1525160E+04;  0.0000000E+00;  4.7189627E+00;  4.0000000E+04;  0.0000000E+00;  3.9825543E+04;  3.5417303E-02;  0.0000000E+00; -2.1406198E-02;  1.3599041E+04;
  7.6798332E-01;  9.9999998E-03;  2.9074761E-01;7080; -2.7162693E-02;  0.0000000E+00; -3.5989191E-03;  9.9612128E+02;  1.3613954E-01; -3.2134380E+03;3;  3.8580799E+00;  0.0000000E+00; -4.7089014E+00;0;  1.2390086E-02;  2.1515371E+04;  0.0000000E+00;  7.7550540E+00;  4.0000000E+04;  0.0000000E+00;  3.9826430E+04;  3.5115041E-02;  0.0000000E+00; -2.2724954E-02;  2.1159721E+04;
  7.6800495E-01;  9.9999998E-03;  3.0077112E-01;7081; -2.6905788E-02;  0.0000000E+00; -3.5311119E-03;  9.9601477E+02;  1.3613909E-01; -3.3016824E+03;3;  3.6326649E+00;  0.0000000E+00; -4.6420770E+00;0;  1.4415944E-02;  2.1511201E+04;  0.0000000E+00;  1.1362363E+01;  4.0000000E+04;  0.0000000E+00;  3.9827457E+04;  3.4679811E-02;  0.0000000E+00; -2.0263867E-02;  3.0102416E+04;
  7.8330481E-01;  9.9999998E-03;  2.4072731E-01;7136; -2.8615212E-02;  0.0000000E+00; -3.0671279E-03;  9.9812976E+02;  1.4168152E-01; -1.5494365E+03;3;  4.4237547E+00;  0.0000000E+00; -4.9899893E+00;0;  5.0982155E-02;  1.9959840E+04;  0.0000000E+00; -4.5674250E-01;  4.0000000E+04;  0.0000000E+00;  3.9781059E+04;  6.8946280E-02;  0.0000000E+00; -1.7964125E-02;  2.8003845E+03;
  7.8313887E-01;  9.9999998E-03;  2.5075048E-01;7137; -2.8120900E-02;  0.0000000E+00; -2.7580974E-03;  9.9788770E+02;  1.4163859E-01; -1.7500233E+03;3;  4.3450093E+00;  0.0000000E+00; -4.9407263E+00;0;  5.0856125E-02;  1.9957410E+04;  0.0000000E+00; -3.7335843E-01;  4.0000000E+04;  0.0000000E+00;  3.9786797E+04;  6.9832511E-02;  0.0000000E+00; -1.8976387E-02;  3.2397810E+03;
  7.8289735E-01;  9.9999998E-03;  2.6077390E-01;7138; -2.7760342E-02;  0.0000000E+00; -2.5085232E-03;  9.9759100E+02;  1.4157392E-01; -1.9957939E+03;3;  4.3335795E+00;  0.0000000E+00; -4.7549210E+00;0;  5.1240332E-02;  1.9960516E+04;  0.0000000E+00;  2.3587383E-01;  4.0000000E+04;  0.0000000E+00;  3.9791570E+04;  7.0168830E-02;  0.0000000E+00; -1.8928498E-02;  4.1436021E+03;
  7.8279704E-01;  9.9999998E-03;  2.7080098E-01;7139; -2.7684985E-02;  0.0000000E+00; -2.7473813E-03;  9.9728931E+02;  1.4155322E-01; -2.2457620E+03;3;  4.1753659E+00;  0.0000000E+00; -4.7111902E+00;0;  4.7977462E-02;  1.9953449E+04;  0.0000000E+00;  1.6051378E+00;  4.0000000E+04;  0.0000000E+00;  3.9791855E+04;  7.0661582E-02;  0.0000000E+00; -2.2684118E-02;  7.3187056E+03;
  7.8307438E-01;  9.9999998E-03;  2.8082889E-01;7140; -2.7690478E-02;  0.0000000E+00; -3.0060450E-03;  9.9712585E+02;  1.4165220E-01; -2.3811655E+03;3;  3.9903328E+00;  0.0000000E+00; -4.5838995E+00;0;  4.4816487E-02;  1.9918947E+04;  0.0000000E+00;  3.2537212E+00;  4.0000000E+04;  0.0000000E+00;  3.9790887E+04;  7.2044790E-02;  0.0000000E+00; -2.7228303E-02;  1.2331975E+04;
  7.8337866E-01;  9.9999998E-03;  2.9085556E-01;7141; -2.7656630E-02;  0.0000000E+00; -3.0988313E-03;  9.9698969E+02;  1.4175479E-01; -2.4940017E+03;3;  3.7718127E+00;  0.0000000E+00; -4.4641361E+00;0;  4.4694215E-02;  1.9884672E+04;  0.0000000E+00;  5.3441076E+00;  4.0000000E+04;  0.0000000E+00;  3.9790805E+04;  7.3437788E-02;  0.0000000E+00; -2.8743571E-02;  1.8919428E+04;
  7.8365833E-01;  9.9999998E-03;  3.0088210E-01;7142; -2.7494147E-02;  0.0000000E+00; -3.0417608E-03;  9.9687939E+02;  1.4184007E-01; -2.5853569E+03;3;  3.5466177E+00;  0.0000000E+00; -4.3018136E+00;0;  4.8328806E-02;  1.9856424E+04;  0.0000000E+00;  7.8730750E+00;  4.0000000E+04;  0.0000000E+00;  3.9791199E+04;  7.4727230E-02;  0.0000000E+00; -2.6398424E-02;  2.6683006E+04;
  7.9841638E-01;  9.9999998E-03;  2.4087548E-01;7197; -2.8994039E-02;  0.0000000E+00; -2.7706609E-03;  9.9903235E+02;  1.4757031E-01; -8.0165564E+02;3;  4.4205313E+00;  0.0000000E+00; -4.8278742E+00;0;  8.6829111E-02;  1.8436025E+04;  0.0000000E+00; -4.3494174E-01;  4.0000000E+04;  0.0000000E+00;  3.9734840E+04;  1.1093750E-01;  0.0000000E+00; -2.4108391E-02;  1.1657380E+03;
  7.9844129E-01;  9.9999998E-03;  2.5087827E-01;7198; -2.8535508E-02;  0.0000000E+00; -2.4745064E-03;  9.9883337E+02;  1.4758590E-01; -9.6653967E+02;3;  4.3440390E+00;  0.0000000E+00; -4.6837783E+00;0;  8.7112688E-02;  1.8418428E+04;  0.0000000E+00; -4.9689388E-01;  4.0000000E+04;  0.0000000E+00;  3.9743570E+04;  1.1428779E-01;  0.0000000E+00; -2.7175104E-02;  1.4780613E+03;
  7.9837710E-01;  9.9999998E-03;  2.6089117E-01;7199; -2.8116355E-02;  0.0000000E+00; -2.0163243E-03;  9.9857880E+02;  1.4757515E-01; -1.1774471E+03;3;  4.3197470E+00;  0.0000000E+00; -4.4543524E+00;0;  8.9622326E-02;  1.8407080E+04;  0.0000000E+00; -2.3039697E-01;  4.0000000E+04;  0.0000000E+00;  3.9751172E+04;  1.1685968E-01;  0.0000000E+00; -2.7237354E-02;  2.3950786E+03;
  7.9841179E-01;  9.9999998E-03;  2.7091342E-01;7200; -2.7999194E-02;  0.0000000E+00; -2.0513651E-03;  9.9828412E+02;  1.4760260E-01; -1.4215881E+03;3;  4.2167149E+00;  0.0000000E+00; -4.2706990E+00;0;  8.9595988E-02;  1.8387604E+04;  0.0000000E+00;  6.0468590E-01;  4.0000000E+04;  0.0000000E+00;  3.9753500E+04;  1.1945509E-01;  0.0000000E+00; -2.9859105E-02;  5.1411758E+03;
  7.9869533E-01;  9.9999998E-03;  2.8093928E-01;7201; -2.8085038E-02;  0.0000000E+00; -2.3004732E-03;  9.9803943E+02;  1.4771907E-01; -1.6242982E+03;3;  3.9249334E+00;  0.0000000E+00; -4.1446748E+00;0;  8.8287622E-02;  1.8349057E+04;  0.0000000E+00;  1.8890368E+00;  4.0000000E+04;  0.0000000E+00;  3.9753504E+04;  1.2275074E-01;  0.0000000E+00; -3.4463126E-02;  1.0033562E+04;
  7.9893142E-01;  9.9999998E-03;  2.9096520E-01;7202; -2.8134452E-02;  0.0000000E+00; -2.4275063E-03;  9.9778394E+02;  1.4780913E-01; -1.8359464E+03;3;  3.6992524E+00;  0.0000000E+00; -4.0068307E+00;0;  8.9647949E-02;  1.8316678E+04;  0.0000000E+00;  3.9567523E+00;  4.0000000E+04;  0.0000000E+00;  3.9754852E+04;  1.2580529E-01;  0.0000000E+00; -3.6157340E-02;  1.7499139E+04;
  7.9901963E-01;  9.9999998E-03;  3.0099085E-01;7203; -2.8029270E-02;  0.0000000E+00; -2.4222394E-03;  9.9750281E+02;  1.4782721E-01; -2.0688779E+03;3;  3.4080849E+00;  0.0000000E+00; -3.8423953E+00;0;  9.4478577E-02;  1.8302473E+04;  0.0000000E+00;  7.0327163E+00;  4.0000000E+04;  0.0000000E+00;  3.9757500E+04;  1.2827532E-01;  0.0000000E+00; -3.3796739E-02;  2.7638600E+04;
  8.1314296E-01;  9.9999998E-03;  2.4098417E-01;7258; -2.8846646E-02;  0.0000000E+00; -1.7709672E-03;  9.9902148E+02;  1.5356410E-01; -8.1069214E+02;3;  4.4677315E+00;  0.0000000E+00; -4.3543496E+00;0;  1.2681201E-01;  1.7025262E+04;  0.0000000E+00;  2.8464500E-02;  4.0000000E+04;  0.0000000E+00;  3.9700621E+04;  1.5515234E-01;  0.0000000E+00; -2.8340323E-02;  7.0092902E+02;
  8.1319201E-01;  9.9999998E-03;  2.5098082E-01;7259; -2.8630063E-02;  0.0000000E+00; -1.7726242E-03;  9.9879535E+02;  1.5358092E-01; -9.9804462E+02;3;  4.3469386E+00;  0.0000000E+00; -4.2698174E+00;0;  1.2721458E-01;  1.7007977E+04;  0.0000000E+00;  1.0699677E-01;  4.0000000E+04;  0.0000000E+00;  3.9709496E+04;  1.6147466E-01;  0.0000000E+00; -3.4260087E-02;  7.7522980E+02;
  8.1302094E-01;  9.9999998E-03;  2.6098704E-01;7260; -2.8332610E-02;  0.0000000E+00; -1.4953684E-03;  9.9852893E+02;  1.5351759E-01; -1.2187296E+03;3;  4.2774019E+00;  0.0000000E+00; -4.0511861E+00;0;  1.2932669E-01;  1.7007709E+04;  0.0000000E+00;  4.2542601E-01;  4.0000000E+04;  0.0000000E+00;  3.9719680E+04;  1.6639687E-01;  0.0000000E+00; -3.7070185E-02;  2.6809297E+03;
  8.1285691E-01;  9.9999998E-03;  2.7100372E-01;7261; -2.8211506E-02;  0.0000000E+00; -1.3246750E-03;  9.9823242E+02;  1.5345535E-01; -1.4644014E+03;3;  4.1429634E+00;  0.0000000E+00; -3.8339407E+00;0;  1.3248210E-01;  1.7008619E+04;  0.0000000E+00;  1.1948060E+00;  4.0000000E+04;  0.0000000E+00;  3.9726246E+04;  1.7077175E-01;  0.0000000E+00; -3.8289651E-02;  5.6518408E+03;
  8.1298989E-01;  9.9999998E-03;  2.8102836E-01;7262; -2.8359193E-02;  0.0000000E+00; -1.5093723E-03;  9.9795709E+02;  1.5350167E-01; -1.6924934E+03;3;  3.8733029E+00;  0.0000000E+00; -3.6688678E+00;0;  1.3394296E-01;  1.6988074E+04;  0.0000000E+00;  2.1945252E+00;  4.0000000E+04;  0.0000000E+00;  3.9728328E+04;  1.7586340E-01;  0.0000000E+00; -4.1920442E-02;  9.3664541E+03;
  8.1315005E-01;  9.9999998E-03;  2.9105490E-01;7263; -2.8528469E-02;  0.0000000E+00; -1.6894211E-03;  9.9766412E+02;  1.5355936E-01; -1.9352516E+03;3;  3.5732396E+00;  0.0000000E+00; -3.5656190E+00;0;  1.3708241E-01;  1.6964912E+04;  0.0000000E+00;  3.5647526E+00;  4.0000000E+04;  0.0000000E+00;  3.9730578E+04;  1.8085957E-01;  0.0000000E+00; -4.3777149E-02;  1.4342215E+04;
  8.1323200E-01;  9.9999998E-03;  3.0108207E-01;7264; -2.8611666E-02;  0.0000000E+00; -1.7700108E-03;  9.9730933E+02;  1.5358755E-01; -2.2291689E+03;3;  3.2959754E+00;  0.0000000E+00; -3.4443331E+00;0;  1.4349915E-01;  1.6947506E+04;  0.0000000E+00;  5.7174945E+00;  4.0000000E+04;  0.0000000E+00;  3.9734215E+04;  1.8544735E-01;  0.0000000E+00; -4.1948203E-02;  2.1616779E+04;
  8.2650286E-01;  9.9999998E-03;  2.7107978E-01;7322; -2.8336769E-02;  0.0000000E+00; -5.4580998E-04;  9.9742731E+02;  1.5924159E-01; -2.1314431E+03;3;  4.0207338E+00;  0.0000000E+00; -3.3325574E+00;0;  1.7047603E-01;  1.5777432E+04;  0.0000000E+00;  1.6152831E+00;  4.0000000E+04;  0.0000000E+00;  3.9705219E+04;  2.1698964E-01;  0.0000000E+00; -4.6513602E-02;  5.3459902E+03;
  8.2657808E-01;  9.9999998E-03;  2.8110412E-01;7323; -2.8569084E-02;  0.0000000E+00; -6.1248377E-04;  9.9708752E+02;  1.5926777E-01; -2.4129160E+03;3;  3.7657928E+00;  0.0000000E+00; -3.1663818E+00;0;  1.7613877E-01;  1.5760274E+04;  0.0000000E+00;  2.0671020E+00;  4.0000000E+04;  0.0000000E+00;  3.9711258E+04;  2.2448148E-01;  0.0000000E+00; -4.8342701E-02;  6.7715684E+03;
  8.2674176E-01;  9.9999998E-03;  2.9113251E-01;7324; -2.8873196E-02;  0.0000000E+00; -8.3466788E-04;  9.9672363E+02;  1.5933093E-01; -2.7143887E+03;3;  3.4587185E+00;  0.0000000E+00; -3.0498552E+00;0;  1.8176022E-01;  1.5736406E+04;  0.0000000E+00;  2.7017055E+00;  4.0000000E+04;  0.0000000E+00;  3.9715457E+04;  2.3180957E-01;  0.0000000E+00; -5.0049353E-02;  8.5865508E+03;
  8.2662994E-01;  9.9999998E-03;  2.6106459E-01;7321; -2.8331440E-02;  0.0000000E+00; -7.4602844E-04;  9.9771448E+02;  1.5929207E-01; -1.8935242E+03;3;  4.2160258E+00;  0.0000000E+00; -3.5072281E+00;0;  1.6457644E-01;  1.5779501E+04;  0.0000000E+00;  1.2618868E+00;  4.0000000E+04;  0.0000000E+00;  3.9695020E+04;  2.0951444E-01;  0.0000000E+00; -4.4937994E-02;  3.9069109E+03;
  8.2689816E-01;  9.9999998E-03;  3.0116251E-01;7325; -2.9178925E-02;  0.0000000E+00; -1.0035870E-03;  9.9632141E+02;  1.5939479E-01; -3.0476133E+03;3;  3.0519438E+00;  0.0000000E+00; -2.9260857E+00;0;  1.9000950E-01;  1.5712536E+04;  0.0000000E+00;  3.7157891E+00;  4.0000000E+04;  0.0000000E+00;  3.9719957E+04;  2.3875825E-01;  0.0000000E+00; -4.8748754E-02;  1.1506444E+04;
  8.2683975E-01;  9.9999998E-03;  2.5105560E-01;7320; -2.8182764E-02;  0.0000000E+00; -5.4958073E-04;  9.9801532E+02;  1.5937302E-01; -1.6442476E+03;3;  4.4176483E+00;  0.0000000E+00; -3.5849624E+00;0;  1.6359559E-01;  1.5776196E+04;  0.0000000E+00;  9.7151071E-01;  4.0000000E+04;  0.0000000E+00;  3.9685398E+04;  2.0149396E-01;  0.0000000E+00; -3.7898384E-02;  2.8348086E+03;
  8.2695138E-01;  9.9999998E-03;  2.4104875E-01;7319; -2.7851071E-02;  0.0000000E+00; -8.8644272E-05;  9.9832758E+02;  1.5942089E-01; -1.3855885E+03;3;  4.6526499E+00;  0.0000000E+00; -3.6368721E+00;0;  1.6286577E-01;  1.5779329E+04;  0.0000000E+00;  7.0289183E-01;  4.0000000E+04;  0.0000000E+00;  3.9678988E+04;  1.9233108E-01;  0.0000000E+00; -2.9465297E-02;  2.1549185E+03;
  8.4243995E-01;  9.9999998E-03;  2.8119200E-01;7384; -2.8417176E-02;  0.0000000E+00;  6.2388403E-04;  9.9630841E+02;  1.6597487E-01; -3.0584268E+03;3;  3.3692224E+00;  0.0000000E+00; -2.7186024E+00;0;  2.1346332E-01;  1.4510410E+04;  0.0000000E+00;  1.1525775E+00;  4.0000000E+04;  0.0000000E+00;  3.9686070E+04;  2.6582870E-01;  0.0000000E+00; -5.2365381E-02;  4.5845469E+03;
  8.4266782E-01;  9.9999998E-03;  2.9122227E-01;7385; -2.8851699E-02;  0.0000000E+00;  3.2450844E-04;  9.9592175E+02;  1.6607612E-01; -3.3787627E+03;3;  2.8562295E+00;  0.0000000E+00; -2.5964382E+00;0;  2.2162443E-01;  1.4482139E+04;  0.0000000E+00;  6.6420865E-01;  4.0000000E+04;  0.0000000E+00;  3.9693035E+04;  2.7567336E-01;  0.0000000E+00; -5.4048918E-02;  6.6139438E+03;
  8.4277862E-01;  9.9999998E-03;  3.0125448E-01;7386; -2.8560186E-02;  0.0000000E+00; -5.1919069E-05;  9.9549622E+02;  1.6614172E-01; -3.7312954E+03;3;  3.7676877E-01;  0.0000000E+00; -2.5042965E+00;0;  2.2969177E-01;  1.4460932E+04;  0.0000000E+00;  3.7252206E-01;  4.0000000E+04;  0.0000000E+00;  3.9699266E+04;  2.8450701E-01;  0.0000000E+00; -5.4815229E-02;  8.6755967E+03;
  8.4223366E-01;  9.9999998E-03;  2.7116725E-01;7383; -2.7935417E-02;  0.0000000E+00;  7.5319933E-04;  9.9665131E+02;  1.6589250E-01; -2.7743364E+03;3;  3.6908514E+00;  0.0000000E+00; -2.8095911E+00;0;  2.0463565E-01;  1.4536434E+04;  0.0000000E+00;  1.5762992E+00;  4.0000000E+04;  0.0000000E+00;  3.9676801E+04;  2.5517651E-01;  0.0000000E+00; -5.0540868E-02;  3.9461697E+03;
  8.4231430E-01;  9.9999998E-03;  2.6115155E-01;7382; -2.7321972E-02;  0.0000000E+00;  1.0208741E-03;  9.9696674E+02;  1.6592358E-01; -2.5130110E+03;3;  3.8930509E+00;  0.0000000E+00; -2.8581326E+00;0;  1.9911480E-01;  1.4542279E+04;  0.0000000E+00;  1.7208093E+00;  4.0000000E+04;  0.0000000E+00;  3.9664660E+04;  2.4416615E-01;  0.0000000E+00; -4.5051355E-02;  4.3221128E+03;
  8.4243649E-01;  9.9999998E-03;  2.5113341E-01;7381; -2.5729433E-02;  0.0000000E+00;  2.1277417E-03;  9.9734943E+02;  1.6597597E-01; -2.1959341E+03;3;  4.0916624E+00;  0.0000000E+00; -2.9457393E+00;0;  1.9974822E-01;  1.4544689E+04;  0.0000000E+00;  1.5189877E+00;  4.0000000E+04;  0.0000000E+00;  3.9658531E+04;  2.3252426E-01;  0.0000000E+00; -3.2776047E-02;  4.4526772E+03;
  8.4240371E-01;  9.9999998E-03;  2.4111222E-01;7380; -2.3844901E-02;  0.0000000E+00;  3.2404065E-03;  9.9774786E+02;  1.6597672E-01; -1.8658699E+03;3;  4.6688647E+00;  0.0000000E+00; -2.8996100E+00;0;  1.9646741E-01;  1.4555744E+04;  0.0000000E+00;  1.1144880E+00;  4.0000000E+04;  0.0000000E+00;  3.9656082E+04;  2.1978606E-01;  0.0000000E+00; -2.3318654E-02;  3.8619478E+03;
  8.5881847E-01;  9.9999998E-03;  2.4119012E-01;7441; -8.1346231E-03;  0.0000000E+00;  9.8246243E-03;  9.9789264E+02;  1.7342511E-01; -1.7459220E+03;3;  6.6969481E+00;  0.0000000E+00; -2.1531672E+00;0;  2.2767989E-01;  1.3360398E+04;  0.0000000E+00;  6.6335094E-01;  4.0000000E+04;  0.0000000E+00;  3.9627250E+04;  2.2750254E-01;  0.0000000E+00;  1.7735374E-04;  3.1149656E+03;
  8.5873055E-01;  9.9999998E-03;  2.5122511E-01;7442; -8.7080086E-03;  0.0000000E+00;  8.3746482E-03;  9.9741595E+02;  1.7338765E-01; -2.1408235E+03;3;  5.3991189E+00;  0.0000000E+00; -2.3582790E+00;0;  2.4243905E-01;  1.3357437E+04;  0.0000000E+00;  1.0447160E+00;  4.0000000E+04;  0.0000000E+00;  3.9625016E+04;  2.4344181E-01;  0.0000000E+00; -1.0027622E-03;  3.1643496E+03;
  8.5870761E-01;  9.9999998E-03;  2.6125482E-01;7443; -1.0450025E-02;  0.0000000E+00;  6.2148194E-03;  9.9691754E+02;  1.7338786E-01; -2.5537493E+03;3;  4.0166817E+00;  0.0000000E+00; -2.5983648E+00;0;  2.4722238E-01;  1.3348264E+04;  0.0000000E+00;  1.0525066E+00;  4.0000000E+04;  0.0000000E+00;  3.9624434E+04;  2.5767940E-01;  0.0000000E+00; -1.0457022E-02;  1.6165601E+03;
  8.5889375E-01;  9.9999998E-03;  2.7127653E-01;7444; -1.0975212E-02;  0.0000000E+00;  4.6427245E-03;  9.9650873E+02;  1.7348528E-01; -2.8924548E+03;3;  2.7900712E+00;  0.0000000E+00; -2.7419219E+00;0;  2.5094754E-01;  1.3323595E+04;  0.0000000E+00;  5.6264985E-01;  4.0000000E+04;  0.0000000E+00;  3.9632324E+04;  2.7117813E-01;  0.0000000E+00; -2.0230599E-02;  2.6650051E+03;
  8.5911673E-01;  9.9999998E-03;  2.8130278E-01;7445; -9.8037980E-03;  0.0000000E+00;  3.5230895E-03;  9.9613000E+02;  1.7360252E-01; -3.2062231E+03;3;  1.8058769E+00;  0.0000000E+00; -2.8134627E+00;0;  2.5590900E-01;  1.3295810E+04;  0.0000000E+00; -2.8917891E-01;  4.0000000E+04;  0.0000000E+00;  3.9641289E+04;  2.8423998E-01;  0.0000000E+00; -2.8330984E-02;  7.8765859E+03;
  8.5913384E-01;  9.9999998E-03;  2.9133379E-01;7446; -6.9979443E-03;  0.0000000E+00;  2.5643553E-03;  9.9574609E+02;  1.7363419E-01; -3.5242874E+03;3;  1.1048210E+00;  0.0000000E+00; -2.7897098E+00;0;  2.6090002E-01;  1.3282283E+04;  0.0000000E+00; -1.5051261E+00;  4.0000000E+04;  0.0000000E+00;  3.9648867E+04;  2.9678068E-01;  0.0000000E+00; -3.5880670E-02;  1.4324319E+04;
  8.5906237E-01;  9.9999998E-03;  3.0136824E-01;7447; -2.4904197E-03;  0.0000000E+00;  1.8638059E-03;  9.9533374E+02;  1.7362760E-01; -3.8659065E+03;3;  5.9181923E-01;  0.0000000E+00; -2.7006035E+00;0;  2.6878145E-01;  1.3275444E+04;  0.0000000E+00; -2.7881043E+00;  4.0000000E+04;  0.0000000E+00;  3.9655168E+04;  3.0851260E-01;  0.0000000E+00; -3.9731149E-02;  2.0642428E+04;
  8.7721395E-01;  9.9999998E-03;  2.4128267E-01;7502;  3.1359162E-04;  0.0000000E+00;  1.2774536E-02;  9.9847839E+02;  1.8215792E-01; -1.2606025E+03;3;  3.5904934E+00;  0.0000000E+00; -2.8460426E+00;0;  2.1070915E-01;  1.2151839E+04;  0.0000000E+00; -2.1565996E-01;  4.0000000E+04;  0.0000000E+00;  3.9591137E+04;  1.9769552E-01;  0.0000000E+00;  1.3013627E-02;  7.9039252E+02;
  8.7705356E-01;  9.9999998E-03;  2.5132075E-01;7503;  2.6100599E-03;  0.0000000E+00;  1.2026085E-02;  9.9802277E+02;  1.8208925E-01; -1.6380721E+03;3;  2.2885995E+00;  0.0000000E+00; -2.9194372E+00;0;  2.3638833E-01;  1.2155859E+04;  0.0000000E+00;  1.8208720E-02;  4.0000000E+04;  0.0000000E+00;  3.9588641E+04;  2.1569023E-01;  0.0000000E+00;  2.0698093E-02;  2.5068396E+02;
  8.7730753E-01;  9.9999998E-03;  2.6136404E-01;7504;  4.3754634E-03;  0.0000000E+00;  1.0247041E-02;  9.9745251E+02;  1.8223685E-01; -2.1105513E+03;3;  1.5159357E+00;  0.0000000E+00; -2.6762824E+00;0;  2.5291672E-01;  1.2130528E+04;  0.0000000E+00; -9.2040114E-02;  4.0000000E+04;  0.0000000E+00;  3.9581551E+04;  2.3121914E-01;  0.0000000E+00;  2.1697577E-02;  2.0954529E+03;
  8.7772208E-01;  9.9999998E-03;  2.7139676E-01;7505;  5.8505451E-03;  0.0000000E+00;  8.1598470E-03;  9.9697919E+02;  1.8247612E-01; -2.5026870E+03;3;  4.9378717E-01;  0.0000000E+00; -2.7032125E+00;0;  2.5979084E-01;  1.2092671E+04;  0.0000000E+00; -4.5677793E-01;  4.0000000E+04;  0.0000000E+00;  3.9581207E+04;  2.4484101E-01;  0.0000000E+00;  1.4949819E-02;  5.5817480E+03;
  8.7779450E-01;  9.9999998E-03;  2.8142709E-01;7506;  7.5657880E-03;  0.0000000E+00;  6.3109673E-03;  9.9661487E+02;  1.8255009E-01; -2.8045049E+03;3; -8.3202851E-01;  0.0000000E+00; -2.7268126E+00;0;  2.6218671E-01;  1.2076751E+04;  0.0000000E+00; -1.1889187E+00;  4.0000000E+04;  0.0000000E+00;  3.9586082E+04;  2.5826278E-01;  0.0000000E+00;  3.9239237E-03;  1.0834850E+04;
  8.7761956E-01;  9.9999998E-03;  2.9146042E-01;7507;  9.9103423E-03;  0.0000000E+00;  4.8494781E-03;  9.9627594E+02;  1.8250047E-01; -3.0852861E+03;3; -2.0696518E+00;  0.0000000E+00; -2.4940524E+00;0;  2.6386678E-01;  1.2077486E+04;  0.0000000E+00; -2.4525700E+00;  4.0000000E+04;  0.0000000E+00;  3.9592699E+04;  2.7138704E-01;  0.0000000E+00; -7.5202612E-03;  1.8026982E+04;
  8.7733048E-01;  9.9999998E-03;  3.0149743E-01;7508;  1.3041322E-02;  0.0000000E+00;  3.8051659E-03;  9.9591223E+02;  1.8238738E-01; -3.3866101E+03;3; -3.3899610E+00;  0.0000000E+00; -2.3896682E+00;0;  2.6844019E-01;  1.2086799E+04;  0.0000000E+00; -4.0645447E+00;  4.0000000E+04;  0.0000000E+00;  3.9599027E+04;  2.8388464E-01;  0.0000000E+00; -1.5444463E-02;  2.5913574E+04;
  8.9562058E-01;  9.9999998E-03;  2.4135017E-01;7563;  1.3806875E-03;  0.0000000E+00;  1.0559635E-02;  9.9920880E+02;  1.9141334E-01; -6.5548505E+02;3;  1.8481323E+00;  0.0000000E+00; -2.6530495E+00;0;  1.4658347E-01;  1.1040612E+04;  0.0000000E+00; -4.2998520E-01;  4.0000000E+04;  0.0000000E+00;  3.9561965E+04;  1.3709931E-01;  0.0000000E+00;  9.4841504E-03;  1.1729644E+03;
  8.9558429E-01;  9.9999998E-03;  2.5139701E-01;7564;  4.1303313E-03;  0.0000000E+00;  1.0266809E-02;  9.9888116E+02;  1.9142871E-01; -9.2693311E+02;3;  2.8639781E-01;  0.0000000E+00; -2.7434270E+00;0;  1.6853648E-01;  1.1038896E+04;  0.0000000E+00; -4.3046594E-01;  4.0000000E+04;  0.0000000E+00;  3.9560062E+04;  1.5197925E-01;  0.0000000E+00;  1.6557228E-02;  1.2973478E+03;
  8.9611381E-01;  9.9999998E-03;  2.6145273E-01;7565;  6.7138397E-03;  0.0000000E+00;  9.0927882E-03;  9.9834210E+02;  1.9172771E-01; -1.3735360E+03;3; -1.2590764E+00;  0.0000000E+00; -2.6486039E+00;0;  1.8338989E-01;  1.1002115E+04;  0.0000000E+00; -7.6303363E-01;  4.0000000E+04;  0.0000000E+00;  3.9549816E+04;  1.6359948E-01;  0.0000000E+00;  1.9790407E-02;  3.8739175E+03;
  8.9657301E-01;  9.9999998E-03;  2.7149773E-01;7566;  9.1515342E-03;  0.0000000E+00;  7.4515077E-03;  9.9786023E+02;  1.9198640E-01; -1.7727330E+03;3; -2.4678502E+00;  0.0000000E+00; -2.2715328E+00;0;  1.9004983E-01;  1.0968819E+04;  0.0000000E+00; -1.3690250E+00;  4.0000000E+04;  0.0000000E+00;  3.9543266E+04;  1.7421439E-01;  0.0000000E+00;  1.5835432E-02;  8.5237676E+03;
  8.9677018E-01;  9.9999998E-03;  2.8153703E-01;7567;  1.1612214E-02;  0.0000000E+00;  5.9663258E-03;  9.9749249E+02;  1.9212089E-01; -2.0774146E+03;3; -3.5054674E+00;  0.0000000E+00; -1.8951919E+00;0;  1.9308043E-01;  1.0949897E+04;  0.0000000E+00; -2.3092716E+00;  4.0000000E+04;  0.0000000E+00;  3.9543336E+04;  1.8479279E-01;  0.0000000E+00;  8.2876403E-03;  1.4913412E+04;
  8.9661348E-01;  9.9999998E-03;  2.9157716E-01;7568;  1.4420840E-02;  0.0000000E+00;  4.7740596E-03;  9.9719214E+02;  1.9208147E-01; -2.3262461E+03;3; -4.8185649E+00;  0.0000000E+00; -1.7682229E+00;0;  1.9621503E-01;  1.0951448E+04;  0.0000000E+00; -3.7733545E+00;  4.0000000E+04;  0.0000000E+00;  3.9546250E+04;  1.9613661E-01;  0.0000000E+00;  7.8431607E-05;  2.3546156E+04;
  8.9626950E-01;  9.9999998E-03;  3.0162022E-01;7569;  1.7924523E-02;  0.0000000E+00;  3.8392982E-03;  9.9690234E+02;  1.9193947E-01; -2.5663372E+03;3; -5.9721117E+00;  0.0000000E+00; -1.6068174E+00;0;  2.0075832E-01;  1.0965029E+04;  0.0000000E+00; -5.6371083E+00;  4.0000000E+04;  0.0000000E+00;  3.9549945E+04;  2.0788366E-01;  0.0000000E+00; -7.1253330E-03;  3.3358863E+04;
  9.1613805E-01;  9.9999998E-03;  2.4141176E-01;7624;  6.9060689E-04;  0.0000000E+00;  6.1615119E-03;  9.9852155E+02;  2.0195150E-01; -1.2248477E+03;3;  1.4439565E+00;  0.0000000E+00; -6.7789429E-01;0;  6.6770725E-02;  9.9157246E+03;  0.0000000E+00; -6.3284498E-01;  4.0000000E+04;  0.0000000E+00;  3.9536207E+04;  6.2079135E-02;  0.0000000E+00;  4.6915910E-03;  2.8088792E+03;
  9.1616464E-01;  9.9999998E-03;  2.5145784E-01;7625;  3.6177833E-03;  0.0000000E+00;  6.4007295E-03;  9.9833057E+02;  2.0202413E-01; -1.3830646E+03;3; -3.1342092E-01;  0.0000000E+00; -7.7222550E-01;0;  8.2341895E-02;  9.9101182E+03;  0.0000000E+00; -6.6456276E-01;  4.0000000E+04;  0.0000000E+00;  3.9541730E+04;  7.1639255E-02;  0.0000000E+00;  1.0702636E-02;  3.7357734E+03;
  9.1654474E-01;  9.9999998E-03;  2.6152039E-01;7626;  6.3495906E-03;  0.0000000E+00;  5.8391201E-03;  9.9789679E+02;  2.0228076E-01; -1.7424600E+03;3; -1.9332315E+00;  0.0000000E+00; -7.0893556E-01;0;  9.3266949E-02;  9.8838008E+03;  0.0000000E+00; -8.4740943E-01;  4.0000000E+04;  0.0000000E+00;  3.9535953E+04;  7.9047918E-02;  0.0000000E+00;  1.4219034E-02;  4.0808027E+03;
  9.1693193E-01;  9.9999998E-03;  2.7157840E-01;7627;  8.9348080E-03;  0.0000000E+00;  4.7385516E-03;  9.9739728E+02;  2.0253168E-01; -2.1562732E+03;3; -3.3337724E+00;  0.0000000E+00; -3.7683797E-01;0;  9.7004145E-02;  9.8560811E+03;  0.0000000E+00; -1.1622376E+00;  4.0000000E+04;  0.0000000E+00;  3.9527195E+04;  8.5402980E-02;  0.0000000E+00;  1.1601168E-02;  5.6245508E+03;
  9.1713560E-01;  9.9999998E-03;  2.8162926E-01;7628;  1.1577168E-02;  0.0000000E+00;  3.6368279E-03;  9.9696387E+02;  2.0269167E-01; -2.5153721E+03;3; -4.8406243E+00;  0.0000000E+00; -1.6957864E-01;0;  9.6763350E-02;  9.8370195E+03;  0.0000000E+00; -1.5548130E+00;  4.0000000E+04;  0.0000000E+00;  3.9523391E+04;  9.1591559E-02;  0.0000000E+00;  5.1717898E-03;  8.3807734E+03;
  9.1702133E-01;  9.9999998E-03;  2.9167801E-01;7629;  1.4420536E-02;  0.0000000E+00;  2.7201606E-03;  9.9661206E+02;  2.0268705E-01; -2.8068188E+03;3; -6.3268433E+00;  0.0000000E+00;  2.9471959E-04;0;  9.5941536E-02;  9.8347100E+03;  0.0000000E+00; -2.0353403E+00;  4.0000000E+04;  0.0000000E+00;  3.9523520E+04;  9.8456852E-02;  0.0000000E+00; -2.5153158E-03;  1.1880102E+04;
  9.1670984E-01;  9.9999998E-03;  3.0172792E-01;7630;  1.7785564E-02;  0.0000000E+00;  2.0907461E-03;  9.9631958E+02;  2.0257674E-01; -3.0491321E+03;3; -7.5141692E+00;  0.0000000E+00;  2.5106934E-01;0;  9.8065116E-02;  9.8433760E+03;  0.0000000E+00; -2.6004610E+00;  4.0000000E+04;  0.0000000E+00;  3.9525543E+04;  1.0584890E-01;  0.0000000E+00; -7.7837873E-03;  1.5795791E+04;
  9.3842393E-01;  9.9999998E-03;  2.4149148E-01;7685; -9.4610319E-04;  0.0000000E+00;  3.7211413E-04;  9.9649707E+02;  2.1385613E-01; -2.9020693E+03;3;  1.3809408E+00;  0.0000000E+00;  2.4424520E+00;0;  8.4824692E-03;  8.8140293E+03;  0.0000000E+00; -6.6614324E-01;  4.0000000E+04;  0.0000000E+00;  3.9505262E+04;  4.3871514E-03;  0.0000000E+00;  4.0953173E-03;  4.3155850E+03;
  9.3820024E-01;  9.9999998E-03;  2.5152448E-01;7686;  1.9795084E-03;  0.0000000E+00;  1.1158646E-03;  9.9633423E+02;  2.1380776E-01; -3.0369780E+03;3; -5.8627576E-01;  0.0000000E+00;  2.0729861E+00;0;  1.8497461E-02;  8.8170098E+03;  0.0000000E+00; -8.5314572E-01;  4.0000000E+04;  0.0000000E+00;  3.9523020E+04;  9.3753440E-03;  0.0000000E+00;  9.1221174E-03;  6.6126934E+03;
  9.3849468E-01;  9.9999998E-03;  2.6158381E-01;7687;  4.7426047E-03;  0.0000000E+00;  1.4769719E-03;  9.9593933E+02;  2.1403272E-01; -3.3641763E+03;3; -2.4782145E+00;  0.0000000E+00;  2.0409110E+00;0;  2.8440673E-02;  8.7947256E+03;  0.0000000E+00; -8.9274055E-01;  4.0000000E+04;  0.0000000E+00;  3.9528984E+04;  1.2750410E-02;  0.0000000E+00;  1.5690263E-02;  7.3847446E+03;
  9.3895316E-01;  9.9999998E-03;  2.7165151E-01;7688;  7.2613843E-03;  0.0000000E+00;  8.5678423E-04;  9.9535272E+02;  2.1434136E-01; -3.8501338E+03;3; -4.0888429E+00;  0.0000000E+00;  2.2827806E+00;0;  2.8988894E-02;  8.7637783E+03;  0.0000000E+00; -6.8129587E-01;  4.0000000E+04;  0.0000000E+00;  3.9524684E+04;  1.4976962E-02;  0.0000000E+00;  1.4011933E-02;  7.1969507E+03;
  9.3925661E-01;  9.9999998E-03;  2.8171328E-01;7689;  9.7081661E-03;  0.0000000E+00;  2.4421955E-05;  9.9473065E+02;  2.1457191E-01; -4.3655225E+03;3; -5.5964208E+00;  0.0000000E+00;  2.7247376E+00;0;  2.3083758E-02;  8.7384854E+03;  0.0000000E+00;  2.0636724E-02;  4.0000000E+04;  0.0000000E+00;  3.9520773E+04;  1.6712559E-02;  0.0000000E+00;  6.3711978E-03;  9.9628496E+03;
  9.3936408E-01;  9.9999998E-03;  2.9177150E-01;7690;  1.2230924E-02;  0.0000000E+00; -6.0169218E-04;  9.9415381E+02;  2.1469516E-01; -4.8434316E+03;3; -7.1175637E+00;  0.0000000E+00;  3.0751376E+00;0;  1.6648630E-02;  8.7221104E+03;  0.0000000E+00;  1.3310077E+00;  4.0000000E+04;  0.0000000E+00;  3.9520480E+04;  1.8167730E-02;  0.0000000E+00; -1.5191000E-03;  1.7475111E+04;
  9.3938619E-01;  9.9999998E-03;  3.0182910E-01;7691;  1.5044517E-02;  0.0000000E+00; -1.0567339E-03;  9.9365234E+02;  2.1476750E-01; -5.2588735E+03;3; -8.6197004E+00;  0.0000000E+00;  3.3538709E+00;0;  1.1415814E-02;  8.7107207E+03;  0.0000000E+00;  3.0521276E+00;  4.0000000E+04;  0.0000000E+00;  3.9522680E+04;  1.9185180E-02;  0.0000000E+00; -7.7693658E-03;  2.7468764E+04;
  9.6217763E-01;  9.9999998E-03;  2.4160902E-01;7746; -3.1155080E-03;  0.0000000E+00; -5.8794613E-03;  9.9436517E+02;  2.2702977E-01; -4.6683120E+03;3;  1.0891424E+00;  0.0000000E+00;  5.8951483E+00;0;  1.5093544E-02;  7.7938687E+03;  0.0000000E+00; -1.9719966E-01;  4.0000000E+04;  0.0000000E+00;  3.9459445E+04; -7.3680596E-05;  0.0000000E+00;  1.5167224E-02;  4.1935605E+03;
  9.6189070E-01;  9.9999998E-03;  2.5162882E-01;7747; -2.9207548E-04;  0.0000000E+00; -5.3445175E-03;  9.9401129E+02;  2.2695196E-01; -4.9614868E+03;3; -8.7021863E-01;  0.0000000E+00;  5.7613835E+00;0;  1.7810972E-02;  7.7933770E+03;  0.0000000E+00; -8.1473094E-01;  4.0000000E+04;  0.0000000E+00;  3.9485539E+04;  1.6015504E-03;  0.0000000E+00;  1.6209422E-02;  7.6076729E+03;
  9.6212316E-01;  9.9999998E-03;  2.6167426E-01;7748;  2.3256550E-03;  0.0000000E+00; -4.2383973E-03;  9.9357111E+02;  2.2715673E-01; -5.3261631E+03;3; -3.0126762E+00;  0.0000000E+00;  5.6035986E+00;0;  2.7014572E-02;  7.7719043E+03;  0.0000000E+00; -1.0698763E+00;  4.0000000E+04;  0.0000000E+00;  3.9507258E+04;  3.1672781E-03;  0.0000000E+00;  2.3847295E-02;  1.0384602E+04;
  9.6269405E-01;  9.9999998E-03;  2.7174294E-01;7749;  4.6219197E-03;  0.0000000E+00; -3.8677736E-03;  9.9295856E+02;  2.2754771E-01; -5.8336489E+03;3; -4.8659048E+00;  0.0000000E+00;  5.8958778E+00;0;  3.2156508E-02;  7.7376353E+03;  0.0000000E+00; -7.6931167E-01;  4.0000000E+04;  0.0000000E+00;  3.9512922E+04;  4.4809477E-03;  0.0000000E+00;  2.7675562E-02;  1.4053847E+04;
  9.6320015E-01;  9.9999998E-03;  2.8181311E-01;7750;  6.7245932E-03;  0.0000000E+00; -4.1228724E-03;  9.9224438E+02;  2.2790013E-01; -6.4253296E+03;3; -6.5594707E+00;  0.0000000E+00;  6.4434519E+00;0;  2.7772967E-02;  7.7055312E+03;  0.0000000E+00;  3.3671102E-01;  4.0000000E+04;  0.0000000E+00;  3.9512871E+04;  5.0999057E-03;  0.0000000E+00;  2.2673061E-02;  2.4987131E+04;
  9.6371627E-01;  9.9999998E-03;  2.9188165E-01;7751;  8.8933352E-03;  0.0000000E+00; -4.6161311E-03;  9.9152637E+02;  2.2825816E-01; -7.0201699E+03;3; -8.2360764E+00;  0.0000000E+00;  6.8820715E+00;0;  1.6917251E-02;  7.6737173E+03;  0.0000000E+00;  2.2004383E+00;  4.0000000E+04;  0.0000000E+00;  3.9512465E+04;  5.1049371E-03;  0.0000000E+00;  1.1812314E-02;  4.2670344E+04;
  9.6425343E-01;  9.9999998E-03;  3.0194950E-01;7752;  1.1444280E-02;  0.0000000E+00; -5.0849528E-03;  9.9089001E+02;  2.2861755E-01; -7.5473589E+03;3; -9.8409824E+00;  0.0000000E+00;  7.2557793E+00;0;  4.7582826E-03;  7.6431265E+03;  0.0000000E+00;  4.3102555E+00;  4.0000000E+04;  0.0000000E+00;  3.9512934E+04;  4.4119130E-03;  0.0000000E+00;  3.4636952E-04;  6.1747293E+04;
  9.8617589E-01;  9.9999998E-03;  2.4175796E-01;7807; -5.6535690E-03;  0.0000000E+00; -1.1705779E-02;  9.9431226E+02;  2.4049667E-01; -4.7121411E+03;3;  4.8032406E-01;  0.0000000E+00;  9.5522604E+00;0;  1.1282526E-01;  6.9513281E+03;  0.0000000E+00;  3.6178553E-01;  4.0000000E+04;  0.0000000E+00;  3.9403766E+04;  6.7132115E-02;  0.0000000E+00;  4.5693144E-02;  2.6512285E+03;
  9.8623818E-01;  9.9999998E-03;  2.5178522E-01;7808; -3.1064709E-03;  0.0000000E+00; -1.1532201E-02;  9.9376349E+02;  2.4062340E-01; -5.1667383E+03;3; -1.4578065E+00;  0.0000000E+00;  9.8417454E+00;0;  1.1642705E-01;  6.9365537E+03;  0.0000000E+00; -5.8986920E-01;  4.0000000E+04;  0.0000000E+00;  3.9423797E+04;  7.1006760E-02;  0.0000000E+00;  4.5420285E-02;  5.4992261E+03;
  9.8658508E-01;  9.9999998E-03;  2.6182151E-01;7809; -6.6284859E-04;  0.0000000E+00; -1.0393070E-02;  9.9329169E+02;  2.4090384E-01; -5.5576348E+03;3; -3.7539210E+00;  0.0000000E+00;  9.9911442E+00;0;  1.2502414E-01;  6.9123149E+03;  0.0000000E+00; -1.2828226E+00;  4.0000000E+04;  0.0000000E+00;  3.9450027E+04;  7.5096160E-02;  0.0000000E+00;  4.9927987E-02;  8.7136963E+03;
  9.8733187E-01;  9.9999998E-03;  2.7188396E-01;7810;  1.2521622E-03;  0.0000000E+00; -8.5904570E-03;  9.9281091E+02;  2.4140960E-01; -5.9559375E+03;3; -6.1940541E+00;  0.0000000E+00;  1.0380530E+01;0;  1.4459056E-01;  6.8767964E+03;  0.0000000E+00; -1.4276016E+00;  4.0000000E+04;  0.0000000E+00;  3.9464254E+04;  8.0467515E-02;  0.0000000E+00;  6.4123049E-02;  1.4172664E+04;
  9.8799777E-01;  9.9999998E-03;  2.8195664E-01;7811;  2.7527113E-03;  0.0000000E+00; -7.7991155E-03;  9.9219281E+02;  2.4186505E-01; -6.4680122E+03;3; -8.0394497E+00;  0.0000000E+00;  1.0400277E+01;0;  1.5349689E-01;  6.8443208E+03;  0.0000000E+00; -7.7627999E-01;  4.0000000E+04;  0.0000000E+00;  3.9467254E+04;  8.5227765E-02;  0.0000000E+00;  6.8269119E-02;  2.8284689E+04;
  9.8877996E-01;  9.9999998E-03;  2.9203275E-01;7812;  4.4169780E-03;  0.0000000E+00; -8.4769204E-03;  9.9152643E+02;  2.4239263E-01; -7.0200859E+03;3; -9.6374979E+00;  0.0000000E+00;  1.0874335E+01;0;  1.3864297E-01;  6.8086943E+03;  0.0000000E+00;  5.4962343E-01;  4.0000000E+04;  0.0000000E+00;  3.9465172E+04;  9.0175509E-02;  0.0000000E+00;  4.8467465E-02;  4.9318781E+04;
  9.8958278E-01;  9.9999998E-03;  3.0210814E-01;7813;  6.5675043E-03;  0.0000000E+00; -9.3420530E-03;  9.9086285E+02;  2.4293359E-01; -7.5698379E+03;3; -1.1227214E+01;  0.0000000E+00;  1.1234091E+01;0;  1.1726807E-01;  6.7732876E+03;  0.0000000E+00;  2.1613348E+00;  4.0000000E+04;  0.0000000E+00;  3.9464293E+04;  9.4807588E-02;  0.0000000E+00;  2.2460485E-02;  7.1782109E+04;
  1.0112368E+00;  9.9999998E-03;  2.4193001E-01;7868; -8.1690373E-03;  0.0000000E+00; -1.6088255E-02;  9.9795386E+02;  2.5393650E-01; -1.6951738E+03;3; -8.4179980E-01;  0.0000000E+00;  1.4955198E+01;0;  3.0305833E-01;  6.2862271E+03;  0.0000000E+00;  2.9977173E-01;  4.0000000E+04;  0.0000000E+00;  3.9350523E+04;  1.9392942E-01;  0.0000000E+00;  1.0912891E-01;  1.2516227E+03;
  1.0116066E+00;  9.9999998E-03;  2.5198069E-01;7869; -6.1260718E-03;  0.0000000E+00; -1.5796321E-02;  9.9732227E+02;  2.5422099E-01; -2.2184065E+03;3; -2.9080248E+00;  0.0000000E+00;  1.5544242E+01;0;  3.2263491E-01;  6.2665332E+03;  0.0000000E+00; -5.9783363E-01;  4.0000000E+04;  0.0000000E+00;  3.9353250E+04;  2.0493917E-01;  0.0000000E+00;  1.1769573E-01;  1.8421501E+03;
  1.0120145E+00;  9.9999998E-03;  2.6201907E-01;7870; -4.1147638E-03;  0.0000000E+00; -1.3177802E-02;  9.9680066E+02;  2.5452566E-01; -2.6505322E+03;3; -4.6271005E+00;  0.0000000E+00;  1.6429905E+01;0;  3.5417572E-01;  6.2453633E+03;  0.0000000E+00; -1.4776518E+00;  4.0000000E+04;  0.0000000E+00;  3.9369109E+04;  2.1506093E-01;  0.0000000E+00;  1.3911478E-01;  3.5409399E+03;
  1.0126204E+00;  9.9999998E-03;  2.7207717E-01;7871; -2.2299187E-03;  0.0000000E+00; -1.0324114E-02;  9.9627081E+02;  2.5492597E-01; -3.0894727E+03;3; -7.3154850E+00;  0.0000000E+00;  1.3206158E+01;0;  3.9490068E-01;  6.2200010E+03;  0.0000000E+00; -2.0536606E+00;  4.0000000E+04;  0.0000000E+00;  3.9378215E+04;  2.2549014E-01;  0.0000000E+00;  1.6941056E-01;  7.3178188E+03;
  1.0132086E+00;  9.9999998E-03;  2.8214723E-01;7872; -1.0463691E-03;  0.0000000E+00; -1.0832853E-02;  9.9562885E+02;  2.5531688E-01; -3.6213459E+03;3; -8.9830103E+00;  0.0000000E+00;  1.2762493E+01;0;  3.9120501E-01;  6.1953838E+03;  0.0000000E+00; -2.0341902E+00;  4.0000000E+04;  0.0000000E+00;  3.9377605E+04;  2.3556295E-01;  0.0000000E+00;  1.5564206E-01;  1.8610686E+04;
  1.0140431E+00;  9.9999998E-03;  2.9222327E-01;7873;  5.7742847E-05;  0.0000000E+00; -1.2407534E-02;  9.9501355E+02;  2.5585425E-01; -4.1310967E+03;3; -1.0603548E+01;  0.0000000E+00;  1.3407624E+01;0;  3.6143026E-01;  6.1651948E+03;  0.0000000E+00; -1.5047225E+00;  4.0000000E+04;  0.0000000E+00;  3.9373949E+04;  2.4690868E-01;  0.0000000E+00;  1.1452158E-01;  3.4925387E+04;
  1.0148830E+00;  9.9999998E-03;  3.0229956E-01;7874;  1.5200442E-03;  0.0000000E+00; -1.3560371E-02;  9.9436932E+02;  2.5641674E-01; -4.6647964E+03;3; -1.2358546E+01;  0.0000000E+00;  1.3768203E+01;0;  3.3069086E-01;  6.1345078E+03;  0.0000000E+00; -5.7794100E-01;  4.0000000E+04;  0.0000000E+00;  3.9374375E+04;  2.5796917E-01;  0.0000000E+00;  7.2721690E-02;  5.2707977E+04;
  1.0366914E+00;  9.9999998E-03;  2.4207999E-01;7929; -6.0893386E-03;  0.0000000E+00; -1.2487913E-02;  1.0032234E+03;  2.6482370E-01;  2.6704553E+03;3;  1.2563269E+00;  0.0000000E+00;  2.5733027E+01;0;  5.5653512E-01;  5.8444775E+03;  0.0000000E+00; -6.4436430E-01;  4.0000000E+04;  0.0000000E+00;  3.9318598E+04;  3.2447600E-01;  0.0000000E+00;  2.3205912E-01;  1.7481488E+03;
  1.0372555E+00;  9.9999998E-03;  2.5215352E-01;7930; -2.4418572E-03;  0.0000000E+00; -8.1987726E-03;  1.0025512E+03;  2.6512384E-01;  2.1135503E+03;3; -1.7217728E+00;  0.0000000E+00;  2.1695354E+01;0;  6.3711017E-01;  5.8275903E+03;  0.0000000E+00; -1.1330231E+00;  4.0000000E+04;  0.0000000E+00;  3.9305906E+04;  3.3776695E-01;  0.0000000E+00;  2.9934323E-01;  8.9866772E+02;
  1.0376142E+00;  9.9999998E-03;  2.6220614E-01;7931;  8.1428635E-04;  0.0000000E+00; -4.9127201E-03;  1.0018569E+03;  2.6534691E-01;  1.5383752E+03;3; -6.3491249E+00;  0.0000000E+00;  1.5985936E+01;0;  7.1900630E-01;  5.8129922E+03;  0.0000000E+00; -1.7352773E+00;  4.0000000E+04;  0.0000000E+00;  3.9302484E+04;  3.4971210E-01;  0.0000000E+00;  3.6929423E-01;  1.0508658E+03;
  1.0377684E+00;  9.9999998E-03;  2.7226543E-01;7932;  1.3159791E-03;  0.0000000E+00; -5.6296703E-03;  1.0010439E+03;  2.6548210E-01;  8.6483606E+02;3; -9.7706461E+00;  0.0000000E+00;  1.2591832E+01;0;  7.5614214E-01;  5.8009482E+03;  0.0000000E+00; -2.2768509E+00;  4.0000000E+04;  0.0000000E+00;  3.9296348E+04;  3.6094514E-01;  0.0000000E+00;  3.9519697E-01;  2.0035991E+03;
  1.0380170E+00;  9.9999998E-03;  2.8233245E-01;7933;  7.1148190E-04;  0.0000000E+00; -9.8380428E-03;  1.0002078E+03;  2.6565117E-01;  1.7213760E+02;3; -1.0933878E+01;  0.0000000E+00;  1.2433031E+01;0;  7.1991754E-01;  5.7876538E+03;  0.0000000E+00; -2.5474138E+00;  4.0000000E+04;  0.0000000E+00;  3.9286477E+04;  3.7238958E-01;  0.0000000E+00;  3.4752792E-01;  5.7894390E+03;
  1.0385152E+00;  9.9999998E-03;  2.9240045E-01;7934;  1.4061894E-03;  0.0000000E+00; -1.3681456E-02;  9.9948987E+02;  2.6593629E-01; -4.2264069E+02;3; -1.1824245E+01;  0.0000000E+00;  1.3660712E+01;0;  6.5284699E-01;  5.7703208E+03;  0.0000000E+00; -2.4379051E+00;  4.0000000E+04;  0.0000000E+00;  3.9284027E+04;  3.8386643E-01;  0.0000000E+00;  2.6898056E-01;  1.1757445E+04;
  1.0391920E+00;  9.9999998E-03;  3.0247024E-01;7935;  3.3551576E-03;  0.0000000E+00; -1.6103700E-02;  9.9882043E+02;  2.6632318E-01; -9.7722351E+02;3; -1.2933006E+01;  0.0000000E+00;  1.4923149E+01;0;  5.8898050E-01;  5.7494829E+03;  0.0000000E+00; -1.9255563E+00;  4.0000000E+04;  0.0000000E+00;  3.9291129E+04;  3.9470977E-01;  0.0000000E+00;  1.9427072E-01;  1.8931371E+04;
  1.0624770E+00;  9.9999998E-03;  2.4219620E-01;7990;  2.4460956E-02;  0.0000000E+00; -3.1734005E-02;  1.0042684E+03;  2.7047449E-01;  3.5361267E+03;3;  3.0907143E+01;  0.0000000E+00;  3.4333549E+01;0;  6.8386209E-01;  5.6165742E+03;  0.0000000E+00; -1.8355385E+00;  4.0000000E+04;  0.0000000E+00;  3.9305297E+04;  4.1435578E-01;  0.0000000E+00;  2.6950628E-01;  1.7957175E+03;
  1.0629741E+00;  9.9999998E-03;  2.5226477E-01;7991;  2.8899349E-02;  0.0000000E+00; -1.9426454E-02;  1.0035370E+03;  2.7064645E-01;  2.9302458E+03;3;  3.1735544E+01;  0.0000000E+00;  4.3481930E+01;0;  7.9547244E-01;  5.6051836E+03;  0.0000000E+00; -2.0514033E+00;  4.0000000E+04;  0.0000000E+00;  3.9292516E+04;  4.1402301E-01;  0.0000000E+00;  3.8144943E-01;  4.6279181E+02;
  1.0635723E+00;  9.9999998E-03;  2.6232222E-01;7992;  2.9974151E-02;  0.0000000E+00; -3.8328939E-03;  1.0027438E+03;  2.7083948E-01;  2.2731096E+03;3;  3.3393593E+01;  0.0000000E+00;  2.8409683E+01;0;  9.8677540E-01;  5.5919878E+03;  0.0000000E+00; -2.2507169E+00;  4.0000000E+04;  0.0000000E+00;  3.9284512E+04;  4.1445506E-01;  0.0000000E+00;  5.7232034E-01;  1.5467167E+03;
  1.0639791E+00;  9.9999998E-03;  2.7238643E-01;7993;  3.5226725E-02;  0.0000000E+00; -4.1892361E-03;  1.0019142E+03;  2.7098614E-01;  1.5858533E+03;3;  3.6447456E+01;  0.0000000E+00;  1.9091335E+01;0;  1.0575635E+00;  5.5806494E+03;  0.0000000E+00; -2.2831380E+00;  4.0000000E+04;  0.0000000E+00;  3.9271852E+04;  4.1731796E-01;  0.0000000E+00;  6.4024556E-01;  2.3427185E+03;
  1.0641967E+00;  9.9999998E-03;  2.8245455E-01;7994;  4.3035962E-02;  0.0000000E+00; -9.8568061E-03;  1.0010918E+03;  2.7109376E-01;  9.0452277E+02;3;  3.7785271E+01;  0.0000000E+00;  1.6849304E+01;0;  1.0186056E+00;  5.5710083E+03;  0.0000000E+00; -2.0449100E+00;  4.0000000E+04;  0.0000000E+00;  3.9257980E+04;  4.2241317E-01;  0.0000000E+00;  5.9619242E-01;  4.2120820E+03;
  1.0642563E+00;  9.9999998E-03;  2.9252043E-01;7995;  4.9725316E-02;  0.0000000E+00; -1.5075010E-02;  1.0003720E+03;  2.7119702E-01;  3.0822311E+02;3;  3.7735008E+01;  0.0000000E+00;  1.7037127E+01;0;  9.2557192E-01;  5.5623560E+03;  0.0000000E+00; -1.4955916E+00;  4.0000000E+04;  0.0000000E+00;  3.9254492E+04;  4.2815167E-01;  0.0000000E+00;  4.9742028E-01;  7.0186318E+03;
  1.0642711E+00;  9.9999998E-03;  3.0258626E-01;7996;  5.4263193E-02;  0.0000000E+00; -1.7605443E-02;  9.9967389E+02;  2.7132612E-01; -2.7015198E+02;3;  3.6565063E+01;  0.0000000E+00;  1.7304581E+01;0;  8.3928454E-01;  5.5529644E+03;  0.0000000E+00; -5.7594377E-01;  4.0000000E+04;  0.0000000E+00;  3.9263328E+04;  4.3342319E-01;  0.0000000E+00;  4.0586135E-01;  1.1533291E+04;
  1.0893015E+00;  9.9999998E-03;  2.5228599E-01;8052;  4.6128366E-02;  0.0000000E+00; -6.6079184E-02;  1.0004244E+03;  2.7099562E-01;  3.5156998E+02;3;  4.9234245E+01;  0.0000000E+00;  2.1433430E+01;0;  7.4943137E-01;  5.5504170E+03;  0.0000000E+00; -2.8877530E+00;  4.0000000E+04;  0.0000000E+00;  3.9325363E+04;  5.1605296E-01;  0.0000000E+00;  2.3337840E-01;  6.7007744E+03;
  1.0888755E+00;  9.9999998E-03;  2.4221660E-01;8051;  4.1906048E-02;  0.0000000E+00; -7.2071597E-02;  1.0009816E+03;  2.7088195E-01;  8.1315411E+02;3;  4.7303520E+01;  0.0000000E+00;  1.5866141E+01;0;  7.4903339E-01;  5.5589414E+03;  0.0000000E+00; -2.4914901E+00;  4.0000000E+04;  0.0000000E+00;  3.9326809E+04;  5.5384016E-01;  0.0000000E+00;  1.9519325E-01;  5.7290269E+03;
  1.0897706E+00;  9.9999998E-03;  2.6234609E-01;8053;  4.8982926E-02;  0.0000000E+00; -5.0865754E-02;  9.9976758E+02;  2.7111185E-01; -1.9252397E+02;3;  5.1748970E+01;  0.0000000E+00;  3.4359253E+01;0;  8.3370316E-01;  5.5404409E+03;  0.0000000E+00; -3.0555737E+00;  4.0000000E+04;  0.0000000E+00;  3.9328582E+04;  4.8391843E-01;  0.0000000E+00;  3.4978473E-01;  7.6932739E+03;
  1.0899835E+00;  9.9999998E-03;  2.7242291E-01;8054;  4.9159180E-02;  0.0000000E+00; -2.6670156E-02;  9.9902655E+02;  2.7119642E-01; -8.0643774E+02;3;  5.4811359E+01;  0.0000000E+00;  2.3325678E+01;0;  1.0789418E+00;  5.5326177E+03;  0.0000000E+00; -2.7586308E+00;  4.0000000E+04;  0.0000000E+00;  3.9317285E+04;  4.5397514E-01;  0.0000000E+00;  6.2496662E-01;  5.2076572E+03;
  1.0901551E+00;  9.9999998E-03;  2.8250253E-01;8055;  5.6322761E-02;  0.0000000E+00; -2.8200932E-02;  9.9823608E+02;  2.7126762E-01; -1.4612854E+03;3;  6.0600845E+01;  0.0000000E+00;  1.5032680E+01;0;  1.0555874E+00;  5.5255830E+03;  0.0000000E+00; -1.9510072E+00;  4.0000000E+04;  0.0000000E+00;  3.9299730E+04;  4.3463129E-01;  0.0000000E+00;  6.2095612E-01;  5.2739185E+03;
  1.0900582E+00;  9.9999998E-03;  2.9257584E-01;8056;  6.4017355E-02;  0.0000000E+00; -3.1667210E-02;  9.9764404E+02;  2.7132925E-01; -1.9517057E+03;3;  6.1731075E+01;  0.0000000E+00;  1.5568309E+01;0;  9.5290321E-01;  5.5207246E+03;  0.0000000E+00; -9.0377116E-01;  4.0000000E+04;  0.0000000E+00;  3.9291609E+04;  4.2045128E-01;  0.0000000E+00;  5.3245193E-01;  1.1362448E+04;
  1.0897299E+00;  9.9999998E-03;  3.0264816E-01;8057;  7.1494527E-02;  0.0000000E+00; -3.2365628E-02;  9.9719025E+02;  2.7139184E-01; -2.3276685E+03;3;  6.2095573E+01;  0.0000000E+00;  1.5371289E+01;0;  8.6306828E-01;  5.5175513E+03;  0.0000000E+00; -9.0317294E-02;  4.0000000E+04;  0.0000000E+00;  3.9292105E+04;  4.1066995E-01;  0.0000000E+00;  4.5239833E-01;  1.4365170E+04;
  1.1161207E+00;  9.9999998E-03;  2.4224478E-01;8112;  4.3767586E-02;  0.0000000E+00; -1.0075767E-01;  9.9707220E+02;  2.6768750E-01; -2.4253523E+03;3;  5.0097221E+01;  0.0000000E+00;  1.0959604E+01;0;  1.1368594E+00;  5.6423340E+03;  0.0000000E+00; -2.3730042E+00;  4.0000000E+04;  0.0000000E+00;  3.9347145E+04;  1.0370325E+00;  0.0000000E+00;  9.9826932E-02;  9.1130674E+03;
  1.1165684E+00;  9.9999998E-03;  2.5231403E-01;8113;  4.7362447E-02;  0.0000000E+00; -9.7495638E-02;  9.9673895E+02;  2.6778582E-01; -2.7014121E+03;3;  5.1741524E+01;  0.0000000E+00;  1.2408204E+01;0;  1.0522851E+00;  5.6352695E+03;  0.0000000E+00; -3.1404023E+00;  4.0000000E+04;  0.0000000E+00;  3.9357020E+04;  9.4126940E-01;  0.0000000E+00;  1.1101571E-01;  1.1884468E+04;
  1.1170983E+00;  9.9999998E-03;  2.6237753E-01;8114;  4.9320668E-02;  0.0000000E+00; -8.9063391E-02;  9.9618463E+02;  2.6787817E-01; -3.1606067E+03;3;  5.3583309E+01;  0.0000000E+00;  1.5493274E+01;0;  1.0101722E+00;  5.6261611E+03;  0.0000000E+00; -3.7554290E+00;  4.0000000E+04;  0.0000000E+00;  3.9370164E+04;  8.5927671E-01;  0.0000000E+00;  1.5089558E-01;  1.4529438E+04;
  1.1171583E+00;  9.9999998E-03;  2.7244487E-01;8115;  5.0279260E-02;  0.0000000E+00; -6.7431897E-02;  9.9571045E+02;  2.6795051E-01; -3.5534412E+03;3;  5.9357727E+01;  0.0000000E+00;  2.8483515E+01;0;  1.1254859E+00;  5.6192349E+03;  0.0000000E+00; -3.9420249E+00;  4.0000000E+04;  0.0000000E+00;  3.9377277E+04;  7.7674997E-01;  0.0000000E+00;  3.4873593E-01;  1.4565669E+04;
  1.1171998E+00;  9.9999998E-03;  2.8253219E-01;8116;  5.4033276E-02;  0.0000000E+00; -4.9636427E-02;  9.9491656E+02;  2.6801112E-01; -4.2110801E+03;3;  6.3120518E+01;  0.0000000E+00;  1.3514772E+01;0;  1.2840989E+00;  5.6126157E+03;  0.0000000E+00; -3.6421447E+00;  4.0000000E+04;  0.0000000E+00;  3.9360520E+04;  7.0738471E-01;  0.0000000E+00;  5.7671410E-01;  1.1146206E+04;
  1.1172438E+00;  9.9999998E-03;  2.9261357E-01;8117;  6.1554257E-02;  0.0000000E+00; -5.0936598E-02;  9.9411432E+02;  2.6806733E-01; -4.8756309E+03;3;  6.4756287E+01;  0.0000000E+00;  1.2958445E+01;0;  1.1747980E+00;  5.6060938E+03;  0.0000000E+00; -2.8807747E+00;  4.0000000E+04;  0.0000000E+00;  3.9348703E+04;  6.5151805E-01;  0.0000000E+00;  5.2328002E-01;  1.0782339E+04;
  1.1170943E+00;  9.9999998E-03;  3.0269286E-01;8118;  6.9153659E-02;  0.0000000E+00; -5.2110247E-02;  9.9343073E+02;  2.6812935E-01; -5.4419258E+03;3;  6.6659950E+01;  0.0000000E+00;  1.4872195E+01;0;  1.0356746E+00;  5.6010508E+03;  0.0000000E+00; -2.0155268E+00;  4.0000000E+04;  0.0000000E+00;  3.9342570E+04;  6.0088688E-01;  0.0000000E+00;  4.3478772E-01;  1.3388928E+04;
  1.1439277E+00;  9.9999998E-03;  2.4234459E-01;8173;  3.9053537E-02;  0.0000000E+00; -1.2128919E-01;  9.9281921E+02;  2.6211575E-01; -5.9482051E+03;3;  5.0298199E+01;  0.0000000E+00;  5.8135424E+00;0;  2.1841061E+00;  5.8337446E+03;  0.0000000E+00; -1.4074008E+00;  4.0000000E+04;  0.0000000E+00;  3.9343918E+04;  2.2497032E+00;  0.0000000E+00; -6.5597013E-02;  9.3696660E+03;
  1.1447630E+00;  9.9999998E-03;  2.5240192E-01;8174;  4.2299476E-02;  0.0000000E+00; -1.2063643E-01;  9.9252368E+02;  2.6212528E-01; -6.1929849E+03;3;  5.3484356E+01;  0.0000000E+00;  7.0929236E+00;0;  2.0355873E+00;  5.8297251E+03;  0.0000000E+00; -2.3906250E+00;  4.0000000E+04;  0.0000000E+00;  3.9361359E+04;  2.1224775E+00;  0.0000000E+00; -8.6890146E-02;  1.2885657E+04;
  1.1463352E+00;  9.9999998E-03;  2.6244158E-01;8175;  4.4304680E-02;  0.0000000E+00; -1.1618840E-01;  9.9203644E+02;  2.6209334E-01; -6.5965366E+03;3;  5.6915840E+01;  0.0000000E+00;  7.7145958E+00;0;  1.9539019E+00;  5.8226724E+03;  0.0000000E+00; -3.5949080E+00;  4.0000000E+04;  0.0000000E+00;  3.9396676E+04;  2.0556526E+00;  0.0000000E+00; -1.0175068E-01;  1.8285725E+04;
  1.1470298E+00;  9.9999998E-03;  2.7249342E-01;8176;  4.5613945E-02;  0.0000000E+00; -1.0493176E-01;  9.9157220E+02;  2.6211441E-01; -6.9810908E+03;3;  5.8370911E+01;  0.0000000E+00;  1.3401706E+01;0;  1.9132714E+00;  5.8149072E+03;  0.0000000E+00; -4.7088914E+00;  4.0000000E+04;  0.0000000E+00;  3.9425902E+04;  1.9534073E+00;  0.0000000E+00; -4.0135805E-02;  2.1694408E+04;
  1.1471210E+00;  9.9999998E-03;  2.8256258E-01;8177;  4.6645597E-02;  0.0000000E+00; -8.0012210E-02;  9.9094012E+02;  2.6216093E-01; -7.5046406E+03;3;  6.2897106E+01;  0.0000000E+00;  1.8444704E+01;0;  2.0833883E+00;  5.8068931E+03;  0.0000000E+00; -5.4831467E+00;  4.0000000E+04;  0.0000000E+00;  3.9435957E+04;  1.8318884E+00;  0.0000000E+00;  2.5149980E-01;  2.1910896E+04;
  1.1475606E+00;  9.9999998E-03;  2.9265335E-01;8178;  5.1383920E-02;  0.0000000E+00; -6.7421660E-02;  9.8978925E+02;  2.6218271E-01; -8.4579736E+03;3;  6.5409698E+01;  0.0000000E+00; -7.8455150E-02;0;  2.1772988E+00;  5.7981558E+03;  0.0000000E+00; -5.5851517E+00;  4.0000000E+04;  0.0000000E+00;  3.9420059E+04;  1.7457070E+00;  0.0000000E+00;  4.3159172E-01;  1.8722984E+04;
  1.1482596E+00;  9.9999998E-03;  3.0274922E-01;8179;  5.6511570E-02;  0.0000000E+00; -7.3725022E-02;  9.8838385E+02;  2.6219049E-01; -9.6221201E+03;3;  7.0560883E+01;  0.0000000E+00; -1.1170878E+01;0;  1.9741399E+00;  5.7889634E+03;  0.0000000E+00; -4.6747556E+00;  4.0000000E+04;  0.0000000E+00;  3.9396793E+04;  1.6866435E+00;  0.0000000E+00;  2.8749651E-01;  1.9170859E+04;
  1.1718725E+00;  9.9999998E-03;  2.4246988E-01;8234;  2.8073536E-02;  0.0000000E+00; -1.2604342E-01;  9.8922693E+02;  2.5484809E-01; -8.9230879E+03;3;  5.3684795E+01;  0.0000000E+00; -1.1037695E+01;0;  4.0273213E+00;  6.1296875E+03;  0.0000000E+00;  1.5200463E-01;  4.0000000E+04;  0.0000000E+00;  3.9328816E+04;  4.3020134E+00;  0.0000000E+00; -2.7469203E-01;  7.2813657E+03;
  1.1731243E+00;  9.9999998E-03;  2.5252193E-01;8235;  3.0377872E-02;  0.0000000E+00; -1.2790497E-01;  9.8877203E+02;  2.5470287E-01; -9.2998301E+03;3;  5.7434040E+01;  0.0000000E+00; -1.1207030E+01;0;  3.8741231E+00;  6.1311182E+03;  0.0000000E+00; -1.0842577E+00;  4.0000000E+04;  0.0000000E+00;  3.9346355E+04;  4.2139196E+00;  0.0000000E+00; -3.3979666E-01;  1.0341240E+04;
  1.1752433E+00;  9.9999998E-03;  2.6254717E-01;8236;  3.1683542E-02;  0.0000000E+00; -1.2742792E-01;  9.8859796E+02;  2.5447106E-01; -9.4439121E+03;3;  5.8333843E+01;  0.0000000E+00; -8.4503450E+00;0;  3.7963536E+00;  6.1355225E+03;  0.0000000E+00; -2.9108582E+00;  4.0000000E+04;  0.0000000E+00;  3.9388527E+04;  4.2226434E+00;  0.0000000E+00; -4.2628989E-01;  1.6351859E+04;
  1.1764039E+00;  9.9999998E-03;  2.7258724E-01;8237;  3.2862235E-02;  0.0000000E+00; -1.2417862E-01;  9.8826752E+02;  2.5436711E-01; -9.7175664E+03;3;  6.0411175E+01;  0.0000000E+00; -2.6946938E+00;0;  3.6794400E+00;  6.1330044E+03;  0.0000000E+00; -5.1933289E+00;  4.0000000E+04;  0.0000000E+00;  3.9427645E+04;  4.1675944E+00;  0.0000000E+00; -4.8815438E-01;  2.1925426E+04;
  1.1769271E+00;  9.9999998E-03;  2.8263295E-01;8238;  3.4077764E-02;  0.0000000E+00; -1.1295010E-01;  9.8775592E+02;  2.5432628E-01; -1.0141323E+04;3;  6.4126251E+01;  0.0000000E+00;  7.9162102E+00;0;  3.6534333E+00;  6.1259600E+03;  0.0000000E+00; -7.2729239E+00;  4.0000000E+04;  0.0000000E+00;  3.9465375E+04;  4.0733156E+00;  0.0000000E+00; -4.1988233E-01;  2.5940266E+04;
  1.1776708E+00;  9.9999998E-03;  2.9269713E-01;8239;  3.4230426E-02;  0.0000000E+00; -8.7955631E-02;  9.8694611E+02;  2.5426275E-01; -1.0812010E+04;3;  6.8808647E+01;  0.0000000E+00;  2.1192848E+01;0;  3.9381678E+00;  6.1193765E+03;  0.0000000E+00; -8.6312313E+00;  4.0000000E+04;  0.0000000E+00;  3.9486355E+04;  4.0169840E+00;  0.0000000E+00; -7.8816265E-02;  2.7091441E+04;
  1.1788089E+00;  9.9999998E-03;  3.0278111E-01;8240;  2.8348720E-02;  0.0000000E+00; -5.9822883E-02;  9.8579944E+02;  2.5417292E-01; -1.1761698E+04;3;  6.9045166E+01;  0.0000000E+00;  2.3971809E+01;0;  4.4008670E+00;  6.1141982E+03;  0.0000000E+00; -9.1036167E+00;  4.0000000E+04;  0.0000000E+00;  3.9482551E+04;  4.0187664E+00;  0.0000000E+00;  3.8210058E-01;  2.6394354E+04;
  1.1992795E+00;  9.9999998E-03;  2.4258524E-01;8295;  1.4000580E-01;  0.0000000E+00; -1.0764403E-01;  9.8973108E+02;  2.4619056E-01; -8.5044629E+03;3; -1.2473055E+02;  0.0000000E+00; -3.6120369E+01;0;  6.0722351E+00;  6.5780864E+03;  0.0000000E+00;  1.2151116E+00;  4.0000000E+04;  0.0000000E+00;  3.9302020E+04;  6.5302944E+00;  0.0000000E+00; -4.5805940E-01;  1.9986855E+03;
  1.2005140E+00;  9.9999998E-03;  2.5264403E-01;8296;  1.2459078E-01;  0.0000000E+00; -1.1142921E-01;  9.8912219E+02;  2.4594307E-01; -9.0086445E+03;3; -1.2329530E+02;  0.0000000E+00; -3.4462021E+01;0;  5.9544106E+00;  6.5848745E+03;  0.0000000E+00; -2.9641867E-01;  4.0000000E+04;  0.0000000E+00;  3.9308750E+04;  6.5155225E+00;  0.0000000E+00; -5.6111175E-01;  4.1969976E+03;
  1.2023427E+00;  9.9999998E-03;  2.6268348E-01;8297;  1.3526870E-01;  0.0000000E+00; -1.1724675E-01;  9.8886713E+02;  2.4559997E-01; -9.2198193E+03;3; -1.2379166E+02;  0.0000000E+00; -3.2220554E+01;0;  5.8179326E+00;  6.5984023E+03;  0.0000000E+00; -2.6711662E+00;  4.0000000E+04;  0.0000000E+00;  3.9328637E+04;  6.5454769E+00;  0.0000000E+00; -7.2754413E-01;  9.4369199E+03;
  1.2035587E+00;  9.9999998E-03;  2.7272362E-01;8298;  1.2427174E-01;  0.0000000E+00; -1.2074338E-01;  9.8843616E+02;  2.4538261E-01; -9.5766406E+03;3; -1.2560028E+02;  0.0000000E+00; -2.9231014E+01;0;  5.6627288E+00;  6.6027661E+03;  0.0000000E+00; -5.8021836E+00;  4.0000000E+04;  0.0000000E+00;  3.9353492E+04;  6.5595746E+00;  0.0000000E+00; -8.9684588E-01;  1.6585111E+04;
  1.2042292E+00;  9.9999998E-03;  2.8275868E-01;8299;  9.2458658E-02;  0.0000000E+00; -1.2030241E-01;  9.8785431E+02;  2.4524720E-01; -1.0058470E+04;3; -1.2906096E+02;  0.0000000E+00; -2.4966103E+01;0;  5.5570121E+00;  6.5990625E+03;  0.0000000E+00; -8.8127317E+00;  4.0000000E+04;  0.0000000E+00;  3.9391309E+04;  6.5618205E+00;  0.0000000E+00; -1.0048085E+00;  2.2557516E+04;
  1.2050413E+00;  9.9999998E-03;  2.9280168E-01;8300;  6.0554251E-02;  0.0000000E+00; -1.1583160E-01;  9.8720203E+02;  2.4508741E-01; -1.0598584E+04;3; -1.3423358E+02;  0.0000000E+00; -1.8966637E+01;0;  5.5799594E+00;  6.5963867E+03;  0.0000000E+00; -1.0893517E+01;  4.0000000E+04;  0.0000000E+00;  3.9431406E+04;  6.5929966E+00;  0.0000000E+00; -1.0130373E+00;  2.5077176E+04;
  1.2062050E+00;  9.9999998E-03;  3.0285946E-01;8301;  3.8505416E-02;  0.0000000E+00; -1.0987810E-01;  9.8643579E+02;  2.4488957E-01; -1.1233094E+04;3; -1.0163304E+02;  0.0000000E+00; -6.7941108E+00;0;  5.7153831E+00;  6.5971816E+03;  0.0000000E+00; -1.1812549E+01;  4.0000000E+04;  0.0000000E+00;  3.9459938E+04;  6.6648870E+00;  0.0000000E+00; -9.4950384E-01;  2.5196527E+04;
  1.2245700E+00;  9.9999998E-03;  2.4263816E-01;8356;  4.1168964E-01;  0.0000000E+00; -4.5390710E-02;  9.9372321E+02;  2.3633449E-01; -5.1973872E+03;3; -1.8105768E+02;  0.0000000E+00; -5.7848766E+01;0;  7.3180118E+00;  7.1967661E+03;  0.0000000E+00;  1.0243495E+00;  4.0000000E+04;  0.0000000E+00;  3.9272941E+04;  7.7538414E+00;  0.0000000E+00; -4.3582958E-01;  3.6386470E+03;
  1.2257217E+00;  9.9999998E-03;  2.5271252E-01;8357;  3.9418998E-01;  0.0000000E+00; -5.1405970E-02;  9.9298444E+02;  2.3603334E-01; -5.8090830E+03;3; -1.8288634E+02;  0.0000000E+00; -5.7223930E+01;0;  7.2926903E+00;  7.2078877E+03;  0.0000000E+00; -4.4338036E-01;  4.0000000E+04;  0.0000000E+00;  3.9264793E+04;  7.8079209E+00;  0.0000000E+00; -5.1523083E-01;  4.6905659E+03;
  1.2272712E+00;  9.9999998E-03;  2.6277035E-01;8358;  3.9309287E-01;  0.0000000E+00; -5.9740443E-02;  9.9244830E+02;  2.3564117E-01; -6.2528936E+03;3; -1.8317601E+02;  0.0000000E+00; -5.5966156E+01;0;  7.2214861E+00;  7.2264468E+03;  0.0000000E+00; -2.9119661E+00;  4.0000000E+04;  0.0000000E+00;  3.9260473E+04;  7.8697052E+00;  0.0000000E+00; -6.4821893E-01;  1.0219802E+04;
  1.2284576E+00;  9.9999998E-03;  2.7281731E-01;8359;  3.8062268E-01;  0.0000000E+00; -6.7766689E-02;  9.9183710E+02;  2.3534399E-01; -6.7589458E+03;3; -1.8686925E+02;  0.0000000E+00; -5.3581036E+01;0;  7.1260424E+00;  7.2370942E+03;  0.0000000E+00; -6.2442946E+00;  4.0000000E+04;  0.0000000E+00;  3.9265652E+04;  7.9337449E+00;  0.0000000E+00; -8.0770230E-01;  1.9573561E+04;
  1.2288989E+00;  9.9999998E-03;  2.8285459E-01;8360;  3.4320953E-01;  0.0000000E+00; -7.3993854E-02;  9.9100452E+02;  2.3521395E-01; -7.4482808E+03;3; -1.9436331E+02;  0.0000000E+00; -4.9899986E+01;0;  7.0521045E+00;  7.2319766E+03;  0.0000000E+00; -9.3445511E+00;  4.0000000E+04;  0.0000000E+00;  3.9289832E+04;  7.9944043E+00;  0.0000000E+00; -9.4229984E-01;  2.7037955E+04;
  1.2292682E+00;  9.9999998E-03;  2.9289538E-01;8361;  3.0327353E-01;  0.0000000E+00; -7.7410646E-02;  9.9017657E+02;  2.3513465E-01; -8.1338145E+03;3; -2.0264160E+02;  0.0000000E+00; -4.6273529E+01;0;  7.0429440E+00;  7.2231245E+03;  0.0000000E+00; -1.1222803E+01;  4.0000000E+04;  0.0000000E+00;  3.9325055E+04;  8.0570173E+00;  0.0000000E+00; -1.0140731E+00;  2.9017566E+04;
  1.2300371E+00;  9.9999998E-03;  3.0294928E-01;8362;  2.7619752E-01;  0.0000000E+00; -7.8660727E-02;  9.8940698E+02;  2.3501596E-01; -8.7709482E+03;3; -2.1064699E+02;  0.0000000E+00; -4.3303860E+01;0;  7.1062260E+00;  7.2196924E+03;  0.0000000E+00; -1.1902023E+01;  4.0000000E+04;  0.0000000E+00;  3.9355922E+04;  8.1280346E+00;  0.0000000E+00; -1.0218086E+00;  2.8109023E+04;
  1.2475033E+00;  9.9999998E-03;  2.4258800E-01;8417;  6.9667363E-01;  0.0000000E+00;  2.1477589E-02;  9.9871826E+02;  2.2585972E-01; -1.0610864E+03;3; -1.8060941E+02;  0.0000000E+00; -5.8170467E+01;0;  7.3824635E+00;  7.9567393E+03;  0.0000000E+00;  2.5092896E-02;  4.0000000E+04;  0.0000000E+00;  3.9257723E+04;  7.7161436E+00;  0.0000000E+00; -3.3367991E-01;  6.9334067E+03;
  1.2485247E+00;  9.9999998E-03;  2.5268281E-01;8418;  6.8090916E-01;  0.0000000E+00;  1.5035605E-02;  9.9796783E+02;  2.2557217E-01; -1.6823036E+03;3; -1.8451003E+02;  0.0000000E+00; -5.8603741E+01;0;  7.4493847E+00;  7.9694189E+03;  0.0000000E+00; -1.2755656E+00;  4.0000000E+04;  0.0000000E+00;  3.9239930E+04;  7.8186393E+00;  0.0000000E+00; -3.6925471E-01;  9.9530518E+03;
  1.2495731E+00;  9.9999998E-03;  2.6276264E-01;8419;  6.6964328E-01;  0.0000000E+00;  5.7934439E-03;  9.9717657E+02;  2.2529982E-01; -2.3373047E+03;3; -1.8755528E+02;  0.0000000E+00; -5.9101498E+01;0;  7.4737558E+00;  7.9812783E+03;  0.0000000E+00; -3.4711785E+00;  4.0000000E+04;  0.0000000E+00;  3.9219711E+04;  7.9126291E+00;  0.0000000E+00; -4.3887308E-01;  1.6093853E+04;
  1.2504138E+00;  9.9999998E-03;  2.7282512E-01;8420;  6.5449280E-01;  0.0000000E+00; -5.2026995E-03;  9.9634821E+02;  2.2508579E-01; -3.0230364E+03;3; -1.9257950E+02;  0.0000000E+00; -5.8854031E+01;0;  7.4563198E+00;  7.9874590E+03;  0.0000000E+00; -6.3369398E+00;  4.0000000E+04;  0.0000000E+00;  3.9208816E+04;  8.0063868E+00;  0.0000000E+00; -5.5006689E-01;  2.4487654E+04;
  1.2508106E+00;  9.9999998E-03;  2.8287429E-01;8421;  6.2552840E-01;  0.0000000E+00; -1.5717901E-02;  9.9549261E+02;  2.2498134E-01; -3.7312742E+03;3; -2.0130273E+02;  0.0000000E+00; -5.7222458E+01;0;  7.4344301E+00;  7.9823726E+03;  0.0000000E+00; -8.8973789E+00;  4.0000000E+04;  0.0000000E+00;  3.9218355E+04;  8.1076584E+00;  0.0000000E+00; -6.7322820E-01;  3.1082604E+04;
  1.2513472E+00;  9.9999998E-03;  2.9292399E-01;8422;  5.9959096E-01;  0.0000000E+00; -2.3292668E-02;  9.9478607E+02;  2.2487134E-01; -4.3161436E+03;3; -2.0980595E+02;  0.0000000E+00; -5.5134445E+01;0;  7.4339476E+00;  7.9783994E+03;  0.0000000E+00; -1.0415702E+01;  4.0000000E+04;  0.0000000E+00;  3.9242973E+04;  8.1970472E+00;  0.0000000E+00; -7.6309985E-01;  3.3893879E+04;
  1.2523140E+00;  9.9999998E-03;  3.0298325E-01;8423;  5.8600992E-01;  0.0000000E+00; -2.7958086E-02;  9.9416644E+02;  2.2469158E-01; -4.8290405E+03;3; -2.1700159E+02;  0.0000000E+00; -5.3388206E+01;0;  7.4623141E+00;  7.9822749E+03;  0.0000000E+00; -1.0776510E+01;  4.0000000E+04;  0.0000000E+00;  3.9268691E+04;  8.2649956E+00;  0.0000000E+00; -8.0268157E-01;  3.4139613E+04;
  1.2685155E+00;  9.9999998E-03;  2.4247307E-01;8478;  9.2850214E-01;  0.0000000E+00;  7.7389270E-02;  1.0028610E+03;  2.1532582E-01;  2.3678286E+03;3; -1.3976822E+02;  0.0000000E+00; -4.9564499E+01;0;  6.5730186E+00;  8.8242832E+03;  0.0000000E+00; -1.1431822E+00;  4.0000000E+04;  0.0000000E+00;  3.9252570E+04;  6.7725415E+00;  0.0000000E+00; -1.9952320E-01;  1.0029799E+04;
  1.2691118E+00;  9.9999998E-03;  2.5258377E-01;8479;  9.1230249E-01;  0.0000000E+00;  7.2467633E-02;  1.0021547E+03;  2.1518716E-01;  1.7832543E+03;3; -1.4766191E+02;  0.0000000E+00; -5.1433598E+01;0;  6.7350473E+00;  8.8272217E+03;  0.0000000E+00; -2.3784177E+00;  4.0000000E+04;  0.0000000E+00;  3.9232445E+04;  6.9221053E+00;  0.0000000E+00; -1.8705773E-01;  1.3849892E+04;
  1.2700596E+00;  9.9999998E-03;  2.6267910E-01;8480;  9.0298545E-01;  0.0000000E+00;  6.4369522E-02;  1.0014060E+03;  2.1493280E-01;  1.1635620E+03;3; -1.5124760E+02;  0.0000000E+00; -5.2990837E+01;0;  6.8429804E+00;  8.8406768E+03;  0.0000000E+00; -4.3443480E+00;  4.0000000E+04;  0.0000000E+00;  3.9207570E+04;  7.0359282E+00;  0.0000000E+00; -1.9294800E-01;  1.9985000E+04;
  1.2710878E+00;  9.9999998E-03;  2.7275872E-01;8481;  8.9803869E-01;  0.0000000E+00;  5.3540818E-02;  1.0006502E+03;  2.1465872E-01;  5.3806702E+02;3; -1.5388635E+02;  0.0000000E+00; -5.4376759E+01;0;  6.8878341E+00;  8.8557227E+03;  0.0000000E+00; -6.7618060E+00;  4.0000000E+04;  0.0000000E+00;  3.9186695E+04;  7.1304278E+00;  0.0000000E+00; -2.4259396E-01;  2.7327848E+04;
  1.2718905E+00;  9.9999998E-03;  2.8282452E-01;8482;  8.8818526E-01;  0.0000000E+00;  4.2476367E-02;  9.9995380E+02;  2.1444996E-01; -3.8228497E+01;3; -1.5854863E+02;  0.0000000E+00; -5.4567825E+01;0;  6.9014859E+00;  8.8638584E+03;  0.0000000E+00; -8.7342129E+00;  4.0000000E+04;  0.0000000E+00;  3.9183199E+04;  7.2253151E+00;  0.0000000E+00; -3.2382929E-01;  3.2540264E+04;
  1.2728391E+00;  9.9999998E-03;  2.9288638E-01;8483;  8.8053668E-01;  0.0000000E+00;  3.3862673E-02;  9.9937939E+02;  2.1422046E-01; -5.1358563E+02;3; -1.6297159E+02;  0.0000000E+00; -5.4602161E+01;0;  6.8992267E+00;  8.8738857E+03;  0.0000000E+00; -9.4506397E+00;  4.0000000E+04;  0.0000000E+00;  3.9196434E+04;  7.2969313E+00;  0.0000000E+00; -3.9770478E-01;  3.3437617E+04;
  1.2741889E+00;  9.9999998E-03;  3.0295268E-01;8484;  8.8136864E-01;  0.0000000E+00;  2.8269283E-02;  9.9882159E+02;  2.1390554E-01; -9.7515912E+02;3; -1.6600548E+02;  0.0000000E+00; -5.5053310E+01;0;  6.8877230E+00;  8.8922705E+03;  0.0000000E+00; -8.3714123E+00;  4.0000000E+04;  0.0000000E+00;  3.9216418E+04;  7.3284631E+00;  0.0000000E+00; -4.4074011E-01;  2.9352193E+04;
  1.2889469E+00;  9.9999998E-03;  2.4231181E-01;8539;  1.0872202E+00;  0.0000000E+00;  1.1509217E-01;  1.0056153E+03;  2.0476809E-01;  4.6456201E+03;3; -7.4485184E+01;  0.0000000E+00; -3.5706123E+01;0;  5.2411685E+00;  9.8062441E+03;  0.0000000E+00; -2.3213265E+00;  4.0000000E+04;  0.0000000E+00;  3.9259789E+04;  5.3130898E+00;  0.0000000E+00; -7.1921393E-02;  1.2674383E+04;
  1.2896805E+00;  9.9999998E-03;  2.5242531E-01;8540;  1.0825803E+00;  0.0000000E+00;  1.1264579E-01;  1.0052100E+03;  2.0457371E-01;  4.3101372E+03;3; -8.1754204E+01;  0.0000000E+00; -3.6994453E+01;0;  5.4239326E+00;  9.8186914E+03;  0.0000000E+00; -3.9888737E+00;  4.0000000E+04;  0.0000000E+00;  3.9245625E+04;  5.4573865E+00;  0.0000000E+00; -3.3453923E-02;  1.7020100E+04;
  1.2905540E+00;  9.9999998E-03;  2.6253396E-01;8541;  1.0784998E+00;  0.0000000E+00;  1.0783212E-01;  1.0046490E+03;  2.0433621E-01;  3.8460522E+03;3; -8.7771370E+01;  0.0000000E+00; -3.8075771E+01;0;  5.5853877E+00;  9.8354434E+03;  0.0000000E+00; -6.2260399E+00;  4.0000000E+04;  0.0000000E+00;  3.9223645E+04;  5.5743899E+00;  0.0000000E+00;  1.0997903E-02;  2.3611691E+04;
  1.2914506E+00;  9.9999998E-03;  2.7263302E-01;8542;  1.0749304E+00;  0.0000000E+00;  9.9029675E-02;  1.0039534E+03;  2.0409322E-01;  3.2705447E+03;3; -8.9998779E+01;  0.0000000E+00; -4.0983353E+01;0;  5.6914935E+00;  9.8521992E+03;  0.0000000E+00; -8.5074930E+00;  4.0000000E+04;  0.0000000E+00;  3.9199145E+04;  5.6730051E+00;  0.0000000E+00;  1.8488338E-02;  3.0580605E+04;
  1.2923300E+00;  9.9999998E-03;  2.8271699E-01;8543;  1.0713632E+00;  0.0000000E+00;  8.9358047E-02;  1.0032920E+03;  2.0386007E-01;  2.7232642E+03;3; -9.3007339E+01;  0.0000000E+00; -4.2633282E+01;0;  5.7452211E+00;  9.8672236E+03;  0.0000000E+00; -9.7899113E+00;  4.0000000E+04;  0.0000000E+00;  3.9186832E+04;  5.7566786E+00;  0.0000000E+00; -1.1457442E-02;  3.4008164E+04;
  1.2935232E+00;  9.9999998E-03;  2.9279089E-01;8544;  1.0716217E+00;  0.0000000E+00;  8.1676587E-02;  1.0026863E+03;  2.0354646E-01;  2.2222380E+03;3; -9.4788620E+01;  0.0000000E+00; -4.3881207E+01;0;  5.7491012E+00;  9.8890586E+03;  0.0000000E+00; -9.0230894E+00;  4.0000000E+04;  0.0000000E+00;  3.9192410E+04;  5.7993531E+00;  0.0000000E+00; -5.0251983E-02;  3.0844414E+04;
  1.2951149E+00;  9.9999998E-03;  3.0286366E-01;8545;  1.0772678E+00;  0.0000000E+00;  7.6915674E-02;  1.0019590E+03;  2.0313969E-01;  1.6204438E+03;3; -9.5492012E+01;  0.0000000E+00; -4.5424995E+01;0;  5.7224398E+00;  9.9187168E+03;  0.0000000E+00; -4.8328719E+00;  4.0000000E+04;  0.0000000E+00;  3.9208754E+04;  5.7949634E+00;  0.0000000E+00; -7.2523698E-02;  1.9500521E+04;
  1.3083694E+00;  9.9999998E-03;  2.4214731E-01;8600;  1.1630695E+00;  0.0000000E+00;  1.3268323E-01;  1.0067455E+03;  1.9473432E-01;  5.5779932E+03;3; -1.0591339E+01;  0.0000000E+00; -2.0728615E+01;0;  3.7963228E+00;  1.0862354E+04;  0.0000000E+00; -3.2969944E+00;  4.0000000E+04;  0.0000000E+00;  3.9272793E+04;  3.7701917E+00;  0.0000000E+00;  2.6131172E-02;  1.5015629E+04;
  1.3091017E+00;  9.9999998E-03;  2.5226033E-01;8601;  1.1658206E+00;  0.0000000E+00;  1.3156377E-01;  1.0066447E+03;  1.9453084E-01;  5.4943843E+03;3; -1.5785959E+01;  0.0000000E+00; -2.1187704E+01;0;  3.9622641E+00;  1.0882060E+04;  0.0000000E+00; -5.4740272E+00;  4.0000000E+04;  0.0000000E+00;  3.9265727E+04;  3.8989382E+00;  0.0000000E+00;  6.3325830E-02;  2.0534820E+04;
  1.3098203E+00;  9.9999998E-03;  2.6237670E-01;8602;  1.1675168E+00;  0.0000000E+00;  1.2896307E-01;  1.0063536E+03;  1.9432887E-01;  5.2536582E+03;3; -2.1457424E+01;  0.0000000E+00; -2.2265076E+01;0;  4.1322222E+00;  1.0901262E+04;  0.0000000E+00; -8.0519047E+00;  4.0000000E+04;  0.0000000E+00;  3.9249723E+04;  4.0141950E+00;  0.0000000E+00;  1.1802705E-01;  2.7884203E+04;
  1.3106194E+00;  9.9999998E-03;  2.7248782E-01;8603;  1.1675798E+00;  0.0000000E+00;  1.2373058E-01;  1.0058525E+03;  1.9409811E-01;  4.8391514E+03;3; -2.7140860E+01;  0.0000000E+00; -2.3473091E+01;0;  4.2682228E+00;  1.0923087E+04;  0.0000000E+00; -1.0404225E+01;  4.0000000E+04;  0.0000000E+00;  3.9227734E+04;  4.1081553E+00;  0.0000000E+00;  1.6006744E-01;  3.4821855E+04;
  1.3116345E+00;  9.9999998E-03;  2.8258467E-01;8604;  1.1675985E+00;  0.0000000E+00;  1.1652964E-01;  1.0052401E+03;  1.9380960E-01;  4.3326719E+03;3; -2.9889296E+01;  0.0000000E+00; -2.5904375E+01;0;  4.3332520E+00;  1.0949018E+04;  0.0000000E+00; -1.1268219E+01;  4.0000000E+04;  0.0000000E+00;  3.9212828E+04;  4.1700535E+00;  0.0000000E+00;  1.6319866E-01;  3.7060266E+04;
  1.3130487E+00;  9.9999998E-03;  2.9266745E-01;8605;  1.1708223E+00;  0.0000000E+00;  1.1088508E-01;  1.0045076E+03;  1.9342148E-01;  3.7269229E+03;3; -3.1333784E+01;  0.0000000E+00; -2.7358521E+01;0;  4.3415213E+00;  1.0982457E+04;  0.0000000E+00; -8.8049526E+00;  4.0000000E+04;  0.0000000E+00;  3.9215473E+04;  4.1859918E+00;  0.0000000E+00;  1.5552960E-01;  2.9362684E+04;
  1.3147202E+00;  9.9999998E-03;  3.0274478E-01;8606;  1.1774020E+00;  0.0000000E+00;  1.0759380E-01;  1.0034717E+03;  1.9298756E-01;  2.8702717E+03;3; -3.1989794E+01;  0.0000000E+00; -2.8427061E+01;0;  4.3252687E+00;  1.1015848E+04;  0.0000000E+00; -1.7623957E-01;  4.0000000E+04;  0.0000000E+00;  3.9231359E+04;  4.1693826E+00;  0.0000000E+00;  1.5588617E-01;  1.4857385E+04;
  1.3270991E+00;  9.9999998E-03;  2.4200851E-01;8661;  1.1819818E+00;  0.0000000E+00;  1.3591066E-01;  1.0065764E+03;  1.8523970E-01;  5.4346841E+03;3;  2.2124516E+01;  0.0000000E+00; -6.6453714E+00;0;  2.5086267E+00;  1.1996358E+04;  0.0000000E+00; -4.3239231E+00;  4.0000000E+04;  0.0000000E+00;  3.9286363E+04;  2.4117258E+00;  0.0000000E+00;  9.6900940E-02;  1.7973090E+04;
  1.3277140E+00;  9.9999998E-03;  2.5211802E-01;8662;  1.1879168E+00;  0.0000000E+00;  1.3592498E-01;  1.0067385E+03;  1.8507282E-01;  5.5685352E+03;3;  2.0673330E+01;  0.0000000E+00; -7.8263798E+00;0;  2.6451247E+00;  1.2018947E+04;  0.0000000E+00; -7.2002954E+00;  4.0000000E+04;  0.0000000E+00;  3.9284328E+04;  2.5227766E+00;  0.0000000E+00;  1.2234809E-01;  2.5917635E+04;
  1.3282862E+00;  9.9999998E-03;  2.6223579E-01;8663;  1.1934464E+00;  0.0000000E+00;  1.3450456E-01;  1.0067120E+03;  1.8490054E-01;  5.5465449E+03;3;  1.7765228E+01;  0.0000000E+00; -8.8028078E+00;0;  2.7900767E+00;  1.2041997E+04;  0.0000000E+00; -1.0530509E+01;  4.0000000E+04;  0.0000000E+00;  3.9274258E+04;  2.6262100E+00;  0.0000000E+00;  1.6386674E-01;  3.5621578E+04;
  1.3289512E+00;  9.9999998E-03;  2.7235219E-01;8664;  1.1979319E+00;  0.0000000E+00;  1.3119802E-01;  1.0064191E+03;  1.8468331E-01;  5.3044673E+03;3;  1.3931743E+01;  0.0000000E+00; -9.2624102E+00;0;  2.9142070E+00;  1.2069136E+04;  0.0000000E+00; -1.3496895E+01;  4.0000000E+04;  0.0000000E+00;  3.9257188E+04;  2.7123237E+00;  0.0000000E+00;  2.0188341E-01;  4.4125465E+04;
  1.3299260E+00;  9.9999998E-03;  2.8245687E-01;8665;  1.2017915E+00;  0.0000000E+00;  1.2647752E-01;  1.0058475E+03;  1.8439329E-01;  4.8319380E+03;3;  1.0198253E+01;  0.0000000E+00; -1.0337182E+01;0;  2.9821527E+00;  1.2101025E+04;  0.0000000E+00; -1.4365811E+01;  4.0000000E+04;  0.0000000E+00;  3.9243941E+04;  2.7657983E+00;  0.0000000E+00;  2.1635443E-01;  4.6121297E+04;
  1.3314286E+00;  9.9999998E-03;  2.9254511E-01;8666;  1.2072064E+00;  0.0000000E+00;  1.2225330E-01;  1.0048800E+03;  1.8399094E-01;  4.0321379E+03;3;  8.2002640E+00;  0.0000000E+00; -1.1376278E+01;0;  2.9871583E+00;  1.2138168E+04;  0.0000000E+00; -1.0141546E+01;  4.0000000E+04;  0.0000000E+00;  3.9247301E+04;  2.7720802E+00;  0.0000000E+00;  2.1507818E-01;  3.3313688E+04;
  1.3330545E+00;  9.9999998E-03;  3.0262500E-01;8667;  1.2150365E+00;  0.0000000E+00;  1.2011240E-01;  1.0034217E+03;  1.8359578E-01;  2.8270186E+03;3;  6.6404238E+00;  0.0000000E+00; -1.2127525E+01;0;  2.9859784E+00;  1.2164556E+04;  0.0000000E+00;  4.3383794E+00;  4.0000000E+04;  0.0000000E+00;  3.9265605E+04;  2.7619081E+00;  0.0000000E+00;  2.2407031E-01;  1.7128244E+04;
  1.3450371E+00;  9.9999998E-03;  2.4189892E-01;8722;  1.1842397E+00;  0.0000000E+00;  1.2912109E-01;  1.0056207E+03;  1.7643647E-01;  4.6414072E+03;3;  2.8808434E+01;  0.0000000E+00;  1.8611932E+00;0;  1.5204289E+00;  1.3195073E+04;  0.0000000E+00; -5.2964420E+00;  4.0000000E+04;  0.0000000E+00;  3.9300465E+04;  1.3816544E+00;  0.0000000E+00;  1.3877456E-01;  2.0704482E+04;
  1.3455504E+00;  9.9999998E-03;  2.5200558E-01;8723;  1.1908506E+00;  0.0000000E+00;  1.2964821E-01;  1.0059266E+03;  1.7629831E-01;  4.8938784E+03;3;  2.7937746E+01;  0.0000000E+00;  1.8994298E+00;0;  1.6132652E+00;  1.3220507E+04;  0.0000000E+00; -9.2509880E+00;  4.0000000E+04;  0.0000000E+00;  3.9300465E+04;  1.4679221E+00;  0.0000000E+00;  1.4534305E-01;  3.2117211E+04;
  1.3459444E+00;  9.9999998E-03;  2.6212177E-01;8724;  1.1974639E+00;  0.0000000E+00;  1.2966694E-01;  1.0060843E+03;  1.7615107E-01;  5.0240122E+03;3;  2.7047680E+01;  0.0000000E+00;  1.2606701E+00;0;  1.7233199E+00;  1.3247117E+04;  0.0000000E+00; -1.3870619E+01;  4.0000000E+04;  0.0000000E+00;  3.9294824E+04;  1.5539058E+00;  0.0000000E+00;  1.6941403E-01;  4.5312789E+04;
  1.3463584E+00;  9.9999998E-03;  2.7224097E-01;8725;  1.2038594E+00;  0.0000000E+00;  1.2790434E-01;  1.0059744E+03;  1.7597313E-01;  4.9331543E+03;3;  2.5478333E+01;  0.0000000E+00;  1.6083051E-02;0;  1.8239166E+00;  1.3276768E+04;  0.0000000E+00; -1.7811060E+01;  4.0000000E+04;  0.0000000E+00;  3.9281266E+04;  1.6323544E+00;  0.0000000E+00;  1.9156213E-01;  5.5809043E+04;
  1.3472359E+00;  9.9999998E-03;  2.8234935E-01;8726;  1.2099127E+00;  0.0000000E+00;  1.2439223E-01;  1.0053910E+03;  1.7569676E-01;  4.4512280E+03;3;  2.3135159E+01;  0.0000000E+00; -6.4154422E-01;0;  1.8701994E+00;  1.3312166E+04;  0.0000000E+00; -1.9152571E+01;  4.0000000E+04;  0.0000000E+00;  3.9270902E+04;  1.6788863E+00;  0.0000000E+00;  1.9131313E-01;  5.8546770E+04;
  1.3489059E+00;  9.9999998E-03;  2.9243812E-01;8727;  1.2171586E+00;  0.0000000E+00;  1.2138370E-01;  1.0039769E+03;  1.7527793E-01;  3.2832908E+03;3;  2.1151197E+01;  0.0000000E+00; -1.0740733E+00;0;  1.8612425E+00;  1.3348994E+04;  0.0000000E+00; -1.3282576E+01;  4.0000000E+04;  0.0000000E+00;  3.9279230E+04;  1.6758233E+00;  0.0000000E+00;  1.8541926E-01;  4.1784516E+04;
  1.3504549E+00;  9.9999998E-03;  3.0251822E-01;8728;  1.2270958E+00;  0.0000000E+00;  1.2046705E-01;  1.0019745E+03;  1.7495485E-01;  1.6300962E+03;3;  2.0044374E+01;  0.0000000E+00; -1.3292493E+00;0;  1.8749374E+00;  1.3357392E+04;  0.0000000E+00;  9.4402657E+00;  4.0000000E+04;  0.0000000E+00;  3.9302145E+04;  1.6758857E+00;  0.0000000E+00;  1.9905175E-01;  2.3479361E+04;
  1.3624614E+00;  9.9999998E-03;  2.4180812E-01;8783;  1.1832420E+00;  0.0000000E+00;  1.1905552E-01;  1.0041859E+03;  1.6831410E-01;  3.4531311E+03;3;  3.0788597E+01;  0.0000000E+00;  5.2109165E+00;0;  8.3570111E-01;  1.4455355E+04;  0.0000000E+00; -6.6489739E+00;  4.0000000E+04;  0.0000000E+00;  3.9317512E+04;  6.6685104E-01;  0.0000000E+00;  1.6885008E-01;  2.3147049E+04;
  1.3626375E+00;  9.9999998E-03;  2.7216041E-01;8786;  1.2039249E+00;  0.0000000E+00;  1.1950115E-01;  1.0049871E+03;  1.6812450E-01;  4.1140513E+03;3;  2.8536316E+01;  0.0000000E+00;  4.9964933E+00;0;  1.0454495E+00;  1.4515514E+04;  0.0000000E+00; -2.1109482E+01;  4.0000000E+04;  0.0000000E+00;  3.9299605E+04;  8.8030064E-01;  0.0000000E+00;  1.6514879E-01;  6.0782285E+04;
  1.3626220E+00;  9.9999998E-03;  2.6203725E-01;8785;  1.1970222E+00;  0.0000000E+00;  1.2032386E-01;  1.0048650E+03;  1.6822113E-01;  4.0133525E+03;3;  2.9583858E+01;  0.0000000E+00;  5.3222356E+00;0;  9.7351694E-01;  1.4488886E+04;  0.0000000E+00; -1.6995306E+01;  4.0000000E+04;  0.0000000E+00;  3.9312289E+04;  8.0981165E-01;  0.0000000E+00;  1.6370529E-01;  5.1368203E+04;
  1.3626492E+00;  9.9999998E-03;  2.5191921E-01;8784;  1.1900837E+00;  0.0000000E+00;  1.1975400E-01;  1.0045323E+03;  1.6827020E-01;  3.7389709E+03;3;  3.0193329E+01;  0.0000000E+00;  5.5735879E+00;0;  8.9557600E-01;  1.4470304E+04;  0.0000000E+00; -1.1656035E+01;  4.0000000E+04;  0.0000000E+00;  3.9316742E+04;  7.3565704E-01;  0.0000000E+00;  1.5991895E-01;  3.7219859E+04;
  1.3633422E+00;  9.9999998E-03;  2.8227219E-01;8787;  1.2108748E+00;  0.0000000E+00;  1.1699451E-01;  1.0044126E+03;  1.6789389E-01;  3.6400742E+03;3;  2.7321571E+01;  0.0000000E+00;  4.5296669E+00;0;  1.0701910E+00;  1.4550354E+04;  0.0000000E+00; -2.2847649E+01;  4.0000000E+04;  0.0000000E+00;  3.9290211E+04;  9.2130977E-01;  0.0000000E+00;  1.4888121E-01;  6.3787891E+04;
  1.3651586E+00;  9.9999998E-03;  2.9235893E-01;8788;  1.2190794E+00;  0.0000000E+00;  1.1456727E-01;  1.0023716E+03;  1.6747911E-01;  1.9561021E+03;3;  2.6763769E+01;  0.0000000E+00;  4.7179155E+00;0;  1.0466056E+00;  1.4577838E+04;  0.0000000E+00; -1.5675720E+01;  4.0000000E+04;  0.0000000E+00;  3.9305109E+04;  9.1622758E-01;  0.0000000E+00;  1.3037802E-01;  4.5574164E+04;
  1.3663775E+00;  9.9999998E-03;  3.0244058E-01;8789;  1.2304540E+00;  0.0000000E+00;  1.1484884E-01;  1.0000681E+03;  1.6730511E-01;  5.6139725E+01;3;  2.7034962E+01;  0.0000000E+00;  5.4363399E+00;0;  1.0829089E+00;  1.4554502E+04;  0.0000000E+00;  1.6456648E+01;  4.0000000E+04;  0.0000000E+00;  3.9330312E+04;  9.3619496E-01;  0.0000000E+00;  1.4671394E-01;  3.6128344E+04;
  1.3781021E+00;  9.9999998E-03;  2.7210659E-01;8847;  1.2024461E+00;  0.0000000E+00;  1.0979682E-01;  1.0036948E+03;  1.6110058E-01;  3.0446562E+03;3;  3.0047382E+01;  0.0000000E+00;  7.2196484E+00;0;  5.3084129E-01;  1.5770190E+04;  0.0000000E+00; -2.1686247E+01;  4.0000000E+04;  0.0000000E+00;  3.9313824E+04;  3.8544983E-01;  0.0000000E+00;  1.4539148E-01;  5.4896453E+04;
  1.3784511E+00;  9.9999998E-03;  2.6197851E-01;8846;  1.1952611E+00;  0.0000000E+00;  1.1001970E-01;  1.0032759E+03;  1.6110957E-01;  2.6993875E+03;3;  3.0754560E+01;  0.0000000E+00;  7.3250852E+00;0;  4.8941547E-01;  1.5748007E+04;  0.0000000E+00; -1.8747820E+01;  4.0000000E+04;  0.0000000E+00;  3.9328754E+04;  3.2875156E-01;  0.0000000E+00;  1.6066392E-01;  4.9821469E+04;
  1.3786293E+00;  9.9999998E-03;  2.8222188E-01;8848;  1.2097026E+00;  0.0000000E+00;  1.0782523E-01;  1.0031624E+03;  1.6092685E-01;  2.6058340E+03;3;  2.8985020E+01;  0.0000000E+00;  6.9459844E+00;0;  5.3225106E-01;  1.5801692E+04;  0.0000000E+00; -2.3400019E+01;  4.0000000E+04;  0.0000000E+00;  3.9303500E+04;  4.1951430E-01;  0.0000000E+00;  1.1273678E-01;  5.7625234E+04;
  1.3789012E+00;  9.9999998E-03;  2.5185609E-01;8845;  1.1881979E+00;  0.0000000E+00;  1.0919674E-01;  1.0028046E+03;  1.6106904E-01;  2.3109966E+03;3;  3.1094625E+01;  0.0000000E+00;  7.1172204E+00;0;  4.4295210E-01;  1.5739267E+04;  0.0000000E+00; -1.3821465E+01;  4.0000000E+04;  0.0000000E+00;  3.9334031E+04;  2.7064237E-01;  0.0000000E+00;  1.7230973E-01;  3.8478891E+04;
  1.3790020E+00;  9.9999998E-03;  2.4174300E-01;8844;  1.1812661E+00;  0.0000000E+00;  1.0849658E-01;  1.0025335E+03;  1.6105650E-01;  2.0876104E+03;3;  3.1486822E+01;  0.0000000E+00;  6.8437362E+00;0;  4.1208446E-01;  1.5733779E+04;  0.0000000E+00; -7.9440494E+00;  4.0000000E+04;  0.0000000E+00;  3.9334117E+04;  2.2114387E-01;  0.0000000E+00;  1.9094057E-01;  2.3621994E+04;
  1.3804064E+00;  9.9999998E-03;  2.9230797E-01;8849;  1.2179581E+00;  0.0000000E+00;  1.0560933E-01;  1.0005217E+03;  1.6057226E-01;  4.2988852E+02;3;  2.9070780E+01;  0.0000000E+00;  7.2839499E+00;0;  5.0041986E-01;  1.5807848E+04;  0.0000000E+00; -1.4374557E+01;  4.0000000E+04;  0.0000000E+00;  3.9323000E+04;  4.2117044E-01;  0.0000000E+00;  7.9249419E-02;  3.8304531E+04;
  1.3809619E+00;  9.9999998E-03;  3.0239615E-01;8850;  1.2296228E+00;  0.0000000E+00;  1.0666937E-01;  9.9866553E+02;  1.6058873E-01; -1.0994209E+03;3;  3.0949930E+01;  0.0000000E+00;  9.4856634E+00;0;  5.5159479E-01;  1.5755922E+04;  0.0000000E+00;  2.6297335E+01;  4.0000000E+04;  0.0000000E+00;  3.9343234E+04;  4.6203300E-01;  0.0000000E+00;  8.9561805E-02;  5.4645504E+04;
  1.3928649E+00;  9.9999998E-03;  2.7207962E-01;8908;  1.2005122E+00;  0.0000000E+00;  1.0020719E-01;  1.0023654E+03;  1.5492386E-01;  1.9465873E+03;3;  3.1007387E+01;  0.0000000E+00;  8.0161142E+00;0;  2.1018016E-01;  1.7009102E+04;  0.0000000E+00; -1.8474039E+01;  4.0000000E+04;  0.0000000E+00;  3.9322848E+04;  7.5426608E-02;  0.0000000E+00;  1.3475356E-01;  4.0199500E+04;
  1.3933643E+00;  9.9999998E-03;  2.6194850E-01;8907;  1.1931194E+00;  0.0000000E+00;  1.0020526E-01;  1.0017392E+03;  1.5489380E-01;  1.4311737E+03;3;  3.1124907E+01;  0.0000000E+00;  7.9043360E+00;0;  1.9830576E-01;  1.6986191E+04;  0.0000000E+00; -1.6647242E+01;  4.0000000E+04;  0.0000000E+00;  3.9340016E+04;  3.5657216E-02;  0.0000000E+00;  1.6264854E-01;  3.8140848E+04;
  1.3932678E+00;  9.9999998E-03;  2.8219664E-01;8909;  1.2079679E+00;  0.0000000E+00;  9.8706149E-02;  1.0018588E+03;  1.5479077E-01;  1.5295823E+03;3;  3.0433105E+01;  0.0000000E+00;  8.1731319E+00;0;  1.9430432E-01;  1.7037938E+04;  0.0000000E+00; -2.0382914E+01;  4.0000000E+04;  0.0000000E+00;  3.9311902E+04;  1.0277069E-01;  0.0000000E+00;  9.1533624E-02;  4.3830836E+04;
  1.3941034E+00;  9.9999998E-03;  2.5182253E-01;8906;  1.1859397E+00;  0.0000000E+00;  9.9222094E-02;  1.0010977E+03;  1.5480003E-01;  9.0323309E+02;3;  3.1744038E+01;  0.0000000E+00;  7.8257966E+00;0;  1.7870079E-01;  1.6982893E+04;  0.0000000E+00; -1.3429543E+01;  4.0000000E+04;  0.0000000E+00;  3.9346539E+04; -4.9816910E-03;  0.0000000E+00;  1.8368249E-01;  3.2252758E+04;
  1.3945342E+00;  9.9999998E-03;  2.4170992E-01;8905;  1.1788965E+00;  0.0000000E+00;  9.8349653E-02;  1.0008625E+03;  1.5472403E-01;  7.0976422E+02;3;  3.2569485E+01;  0.0000000E+00;  8.1264067E+00;0;  1.6777104E-01;  1.6992307E+04;  0.0000000E+00; -8.1228189E+00;  4.0000000E+04;  0.0000000E+00;  3.9344605E+04; -3.9059322E-02;  0.0000000E+00;  2.0683037E-01;  2.0297508E+04;
  1.3945075E+00;  9.9999998E-03;  3.0238578E-01;8911;  1.2267864E+00;  0.0000000E+00;  9.7751424E-02;  9.9843988E+02;  1.5471445E-01; -1.2836802E+03;3;  3.2358166E+01;  0.0000000E+00;  1.0755136E+01;0;  2.0511559E-01;  1.6962850E+04;  0.0000000E+00;  3.5579006E+01;  4.0000000E+04;  0.0000000E+00;  3.9335617E+04;  1.6716281E-01;  0.0000000E+00;  3.7952788E-02;  6.9636953E+04;
  1.3947743E+00;  9.9999998E-03;  2.9228503E-01;8910;  1.2160734E+00;  0.0000000E+00;  9.6770026E-02;  9.9892908E+02;  1.5453044E-01; -8.8115137E+02;3;  3.0108324E+01;  0.0000000E+00;  8.3605232E+00;0;  1.6242775E-01;  1.7018549E+04;  0.0000000E+00; -8.4709415E+00;  4.0000000E+04;  0.0000000E+00;  3.9331637E+04;  1.1524965E-01;  0.0000000E+00;  4.7178105E-02;  2.2056113E+04;
  1.4072767E+00;  9.9999998E-03;  2.7207604E-01;8968;  1.1981415E+00;  0.0000000E+00;  9.1108657E-02;  1.0007509E+03;  1.4944999E-01;  6.1697559E+02;3;  3.1604198E+01;  0.0000000E+00;  8.2419348E+00;0;  1.7717391E-02;  1.8221619E+04;  0.0000000E+00; -1.4975437E+01;  4.0000000E+04;  0.0000000E+00;  3.9327809E+04; -1.1363523E-01;  0.0000000E+00;  1.3135262E-01;  2.7255434E+04;
  1.4077826E+00;  9.9999998E-03;  2.6194465E-01;8967;  1.1906878E+00;  0.0000000E+00;  9.1004424E-02;  1.0001070E+03;  1.4942124E-01;  8.7951988E+01;3;  3.2311611E+01;  0.0000000E+00;  8.4166136E+00;0;  2.6293501E-02;  1.8196107E+04;  0.0000000E+00; -1.2906057E+01;  4.0000000E+04;  0.0000000E+00;  3.9345664E+04; -1.4131010E-01;  0.0000000E+00;  1.6760360E-01;  2.4608256E+04;
  1.4075735E+00;  9.9999998E-03;  2.8219312E-01;8969;  1.2056185E+00;  0.0000000E+00;  8.9903258E-02;  1.0001575E+03;  1.4934318E-01;  1.2938483E+02;3;  3.1429703E+01;  0.0000000E+00;  8.5275211E+00;0; -1.0104105E-02;  1.8245559E+04;  0.0000000E+00; -1.6654037E+01;  4.0000000E+04;  0.0000000E+00;  3.9317961E+04; -9.0076417E-02;  0.0000000E+00;  7.9972312E-02;  3.1089279E+04;
  1.4085349E+00;  9.9999998E-03;  2.5181535E-01;8966;  1.1833401E+00;  0.0000000E+00;  9.0045601E-02;  9.9949677E+02;  1.4932182E-01; -4.1342383E+02;3;  3.3114269E+01;  0.0000000E+00;  8.7531967E+00;0;  2.6910096E-02;  1.8195676E+04;  0.0000000E+00; -1.0309975E+01;  4.0000000E+04;  0.0000000E+00;  3.9353684E+04; -1.6760501E-01;  0.0000000E+00;  1.9451511E-01;  2.0413295E+04;
  1.4091073E+00;  9.9999998E-03;  2.4169779E-01;8965;  1.1760761E+00;  0.0000000E+00;  8.8982739E-02;  9.9935992E+02;  1.4921282E-01; -5.2581305E+02;3;  3.3876537E+01;  0.0000000E+00;  9.2192469E+00;0;  2.9734612E-02;  1.8217803E+04;  0.0000000E+00; -6.0435085E+00;  4.0000000E+04;  0.0000000E+00;  3.9352379E+04; -1.8932167E-01;  0.0000000E+00;  2.1905628E-01;  1.1709171E+04;
  1.4086142E+00;  9.9999998E-03;  2.9228577E-01;8970;  1.2136596E+00;  0.0000000E+00;  8.8454671E-02;  9.9739966E+02;  1.4920147E-01; -2.1361897E+03;3;  3.1386110E+01;  0.0000000E+00;  9.0076637E+00;0; -3.8406320E-02;  1.8202939E+04;  0.0000000E+00;  7.3042083E-01;  4.0000000E+04;  0.0000000E+00;  3.9333629E+04; -6.8031311E-02;  0.0000000E+00;  2.9624993E-02;  2.5839016E+03;
  1.4212340E+00;  9.9999998E-03;  2.7209657E-01;9027;  1.1953328E+00;  0.0000000E+00;  8.2946107E-02;  9.9906122E+02;  1.4460158E-01; -7.6987872E+02;3;  3.3065784E+01;  0.0000000E+00;  8.7528219E+00;0; -8.9054361E-02;  1.9403469E+04;  0.0000000E+00; -1.1239381E+01;  4.0000000E+04;  0.0000000E+00;  3.9328621E+04; -2.2438271E-01;  0.0000000E+00;  1.3532835E-01;  1.5398680E+04;
  1.4217215E+00;  9.9999998E-03;  2.6196140E-01;9026;  1.1878153E+00;  0.0000000E+00;  8.2996078E-02;  9.9850214E+02;  1.4457616E-01; -1.2282939E+03;3;  3.3762543E+01;  0.0000000E+00;  8.9355555E+00;0; -6.6722304E-02;  1.9376398E+04;  0.0000000E+00; -8.2922602E+00;  4.0000000E+04;  0.0000000E+00;  3.9350430E+04; -2.4624667E-01;  0.0000000E+00;  1.7952436E-01;  1.0769794E+04;
  1.4214277E+00;  9.9999998E-03;  2.8221473E-01;9028;  1.2027216E+00;  0.0000000E+00;  8.1762947E-02;  9.9832043E+02;  1.4453174E-01; -1.3773339E+03;3;  3.2498581E+01;  0.0000000E+00;  8.9281244E+00;0; -1.2606047E-01;  1.9416057E+04;  0.0000000E+00; -1.1852838E+01;  4.0000000E+04;  0.0000000E+00;  3.9317438E+04; -2.0152782E-01;  0.0000000E+00;  7.5467348E-02;  1.8824531E+04;
  1.4218707E+00;  9.9999998E-03;  2.9231423E-01;9029;  1.2106342E+00;  0.0000000E+00;  8.0726407E-02;  9.9635748E+02;  1.4450803E-01; -2.9868909E+03;3;  3.2273438E+01;  0.0000000E+00;  9.3255053E+00;0; -1.5290460E-01;  1.9364889E+04;  0.0000000E+00;  1.1834211E+01;  4.0000000E+04;  0.0000000E+00;  3.9323062E+04; -1.7255364E-01;  0.0000000E+00;  1.9649051E-02;  1.7407715E+04;
  1.4224390E+00;  9.9999998E-03;  2.5182548E-01;9025;  1.1803001E+00;  0.0000000E+00;  8.2014397E-02;  9.9799292E+02;  1.4448920E-01; -1.6456754E+03;3;  3.4504845E+01;  0.0000000E+00;  9.3801813E+00;0; -5.6026012E-02;  1.9375334E+04;  0.0000000E+00; -5.5333881E+00;  4.0000000E+04;  0.0000000E+00;  3.9362246E+04; -2.6492608E-01;  0.0000000E+00;  2.0890006E-01;  7.0186099E+03;
  1.4230386E+00;  9.9999998E-03;  2.4169810E-01;9024;  1.1728126E+00;  0.0000000E+00;  8.0635726E-02;  9.9801587E+02;  1.4438426E-01; -1.6267098E+03;3;  3.5260826E+01;  0.0000000E+00;  1.0285613E+01;0; -4.7756478E-02;  1.9403738E+04;  0.0000000E+00; -1.8944107E+00;  4.0000000E+04;  0.0000000E+00;  3.9361734E+04; -2.7928835E-01;  0.0000000E+00;  2.3153187E-01;  3.0053247E+03;
  1.4347224E+00;  9.9999998E-03;  2.7214390E-01;9086;  1.1919658E+00;  0.0000000E+00;  7.5478055E-02;  9.9752679E+02;  1.4032757E-01; -2.0237383E+03;3;  3.4550175E+01;  0.0000000E+00;  9.0858965E+00;0; -1.4902787E-01;  2.0548908E+04;  0.0000000E+00; -7.0935926E+00;  4.0000000E+04;  0.0000000E+00;  3.9322316E+04; -2.9080269E-01;  0.0000000E+00;  1.4177482E-01;  4.6119067E+03;
  1.4345589E+00;  9.9999998E-03;  2.9237050E-01;9088;  1.2071216E+00;  0.0000000E+00;  7.3783651E-02;  9.9633746E+02;  1.4036329E-01; -2.9969719E+03;3;  3.3512440E+01;  0.0000000E+00;  9.6491785E+00;0; -2.1542783E-01;  2.0524059E+04;  0.0000000E+00;  2.1926512E+01;  4.0000000E+04;  0.0000000E+00;  3.9298035E+04; -2.3219447E-01;  0.0000000E+00;  1.6766634E-02;  3.1991893E+04;
  1.4352198E+00;  9.9999998E-03;  2.6200542E-01;9085;  1.1844651E+00;  0.0000000E+00;  7.5757988E-02;  9.9699310E+02;  1.4029931E-01; -2.4601677E+03;3;  3.5206169E+01;  0.0000000E+00;  9.2759333E+00;0; -1.1726616E-01;  2.0519215E+04;  0.0000000E+00; -3.4627528E+00;  4.0000000E+04;  0.0000000E+00;  3.9348836E+04; -3.1122959E-01;  0.0000000E+00;  1.9396342E-01;  3.9410876E+03;
  1.4347457E+00;  9.9999998E-03;  2.8226358E-01;9087;  1.1992851E+00;  0.0000000E+00;  7.4265271E-02;  9.9684760E+02;  1.4030252E-01; -2.5794822E+03;3;  3.4015095E+01;  0.0000000E+00;  9.3179083E+00;0; -1.9236058E-01;  2.0552320E+04;  0.0000000E+00; -5.1688495E+00;  4.0000000E+04;  0.0000000E+00;  3.9306762E+04; -2.6616737E-01;  0.0000000E+00;  7.3806785E-02;  5.9887363E+03;
  1.4359463E+00;  9.9999998E-03;  2.5186303E-01;9084;  1.1767857E+00;  0.0000000E+00;  7.4708097E-02;  9.9647583E+02;  1.4022018E-01; -2.8830322E+03;3;  3.5961178E+01;  0.0000000E+00;  9.9536686E+00;0; -1.0247178E-01;  2.0513904E+04;  0.0000000E+00; -4.9591985E-01;  4.0000000E+04;  0.0000000E+00;  3.9365332E+04; -3.2720524E-01;  0.0000000E+00;  2.2473346E-01;  8.5593086E+03;
  1.4365983E+00;  9.9999998E-03;  2.4172553E-01;9083;  1.1690602E+00;  0.0000000E+00;  7.2963260E-02;  9.9657196E+02;  1.4012296E-01; -2.8040391E+03;3;  3.6742840E+01;  0.0000000E+00;  1.1204723E+01;0; -9.3833908E-02;  2.0544432E+04;  0.0000000E+00;  2.7116296E+00;  4.0000000E+04;  0.0000000E+00;  3.9367410E+04; -3.3836299E-01;  0.0000000E+00;  2.4452908E-01;  1.3113177E+04;
  1.4468802E+00;  9.9999998E-03;  2.9245213E-01;9147;  1.2031671E+00;  0.0000000E+00;  6.7537256E-02;  9.9728302E+02;  1.3668241E-01; -2.2177734E+03;3;  3.5033840E+01;  0.0000000E+00;  9.8198042E+00;0; -2.4671473E-01;  2.1688777E+04;  0.0000000E+00;  2.7598116E+01;  4.0000000E+04;  0.0000000E+00;  3.9260785E+04; -2.6630825E-01;  0.0000000E+00;  1.9593518E-02;  3.6202879E+04;
  1.4475486E+00;  9.9999998E-03;  2.8233954E-01;9146;  1.1953871E+00;  0.0000000E+00;  6.7608394E-02;  9.9618262E+02;  1.3659093E-01; -3.1155591E+03;3;  3.5495922E+01;  0.0000000E+00;  9.5147181E+00;0; -2.2709407E-01;  2.1667477E+04;  0.0000000E+00;  2.8243248E+00;  4.0000000E+04;  0.0000000E+00;  3.9284562E+04; -3.0429444E-01;  0.0000000E+00;  7.7200368E-02;  6.1174829E+03;
  1.4477502E+00;  9.9999998E-03;  2.7221939E-01;9145;  1.1881543E+00;  0.0000000E+00;  6.8627909E-02;  9.9643744E+02;  1.3657628E-01; -2.9074668E+03;3;  3.5990498E+01;  0.0000000E+00;  9.2711916E+00;0; -1.8321484E-01;  2.1659377E+04;  0.0000000E+00; -2.3562219E+00;  4.0000000E+04;  0.0000000E+00;  3.9305180E+04; -3.3205190E-01;  0.0000000E+00;  1.4883706E-01;  5.0787100E+03;
  1.4483014E+00;  9.9999998E-03;  2.6208115E-01;9144;  1.1806775E+00;  0.0000000E+00;  6.8878479E-02;  9.9571082E+02;  1.3654177E-01; -3.5000618E+03;3;  3.6634300E+01;  0.0000000E+00;  9.5588770E+00;0; -1.4819932E-01;  2.1620363E+04;  0.0000000E+00;  1.2704808E+00;  4.0000000E+04;  0.0000000E+00;  3.9335402E+04; -3.5398808E-01;  0.0000000E+00;  2.0578876E-01;  1.3736134E+04;
  1.4490598E+00;  9.9999998E-03;  2.5193518E-01;9143;  1.1728556E+00;  0.0000000E+00;  6.7789078E-02;  9.9501709E+02;  1.3647008E-01; -4.0654258E+03;3;  3.7426224E+01;  0.0000000E+00;  1.0447483E+01;0; -1.3159487E-01;  2.1603182E+04;  0.0000000E+00;  4.4454217E+00;  4.0000000E+04;  0.0000000E+00;  3.9357508E+04; -3.7057224E-01;  0.0000000E+00;  2.3897737E-01;  1.9486352E+04;
  1.4497596E+00;  9.9999998E-03;  2.4178965E-01;9142;  1.1649005E+00;  0.0000000E+00;  6.5813124E-02;  9.9507098E+02;  1.3638327E-01; -4.0208291E+03;3;  3.8269474E+01;  0.0000000E+00;  1.2045841E+01;0; -1.2415016E-01;  2.1629127E+04;  0.0000000E+00;  7.6126747E+00;  4.0000000E+04;  0.0000000E+00;  3.9364039E+04; -3.8141674E-01;  0.0000000E+00;  2.5726658E-01;  2.4070842E+04;
  1.4599617E+00;  9.9999998E-03;  2.8244093E-01;9204;  1.1911678E+00;  0.0000000E+00;  6.1738405E-02;  9.9639386E+02;  1.3332759E-01; -2.9343838E+03;3;  3.6920811E+01;  0.0000000E+00;  9.6164284E+00;0; -2.4149773E-01;  2.2764326E+04;  0.0000000E+00;  9.6999302E+00;  4.0000000E+04;  0.0000000E+00;  3.9251230E+04; -3.2690325E-01;  0.0000000E+00;  8.5405521E-02;  1.2835632E+04;
  1.4603927E+00;  9.9999998E-03;  2.7232289E-01;9203;  1.1839765E+00;  0.0000000E+00;  6.2389873E-02;  9.9592188E+02;  1.3328950E-01; -3.3180898E+03;3;  3.7377380E+01;  0.0000000E+00;  9.3862257E+00;0; -2.0202850E-01;  2.2735939E+04;  0.0000000E+00;  2.1133602E+00;  4.0000000E+04;  0.0000000E+00;  3.9276984E+04; -3.5863796E-01;  0.0000000E+00;  1.5660946E-01;  1.1460730E+04;
  1.4609879E+00;  9.9999998E-03;  2.6218745E-01;9202;  1.1765760E+00;  0.0000000E+00;  6.2598750E-02;  9.9489520E+02;  1.3325390E-01; -4.1527280E+03;3;  3.8048584E+01;  0.0000000E+00;  9.7601805E+00;0; -1.6599099E-01;  2.2680686E+04;  0.0000000E+00;  5.8398929E+00;  4.0000000E+04;  0.0000000E+00;  3.9310422E+04; -3.8357475E-01;  0.0000000E+00;  2.1758376E-01;  2.1827148E+04;
  1.4617494E+00;  9.9999998E-03;  2.5204033E-01;9201;  1.1686957E+00;  0.0000000E+00;  6.1578929E-02;  9.9393042E+02;  1.3319425E-01; -4.9366016E+03;3;  3.8901379E+01;  0.0000000E+00;  1.0883387E+01;0; -1.4830875E-01;  2.2644301E+04;  0.0000000E+00;  1.0060926E+01;  4.0000000E+04;  0.0000000E+00;  3.9338996E+04; -4.0258843E-01;  0.0000000E+00;  2.5427967E-01;  2.9989652E+04;
  1.4624805E+00;  9.9999998E-03;  2.4188979E-01;9200;  1.1604662E+00;  0.0000000E+00;  5.9199456E-02;  9.9376819E+02;  1.3311952E-01; -5.0675088E+03;3;  3.9852058E+01;  0.0000000E+00;  1.2855200E+01;0; -1.4587319E-01;  2.2656049E+04;  0.0000000E+00;  1.3567992E+01;  4.0000000E+04;  0.0000000E+00;  3.9351207E+04; -4.1521463E-01;  0.0000000E+00;  2.6934144E-01;  3.5275230E+04;
  1.4721053E+00;  9.9999998E-03;  2.8256643E-01;9261;  1.1866928E+00;  0.0000000E+00;  5.6346156E-02;  9.9730743E+02;  1.3046114E-01; -2.1834006E+03;3;  3.8327881E+01;  0.0000000E+00;  9.6766977E+00;0; -2.4461997E-01;  2.3835754E+04;  0.0000000E+00;  1.3038828E+01;  4.0000000E+04;  0.0000000E+00;  3.9207039E+04; -3.3892787E-01;  0.0000000E+00;  9.4307907E-02;  1.1914098E+04;
  1.4726988E+00;  9.9999998E-03;  2.7245322E-01;9260;  1.1795011E+00;  0.0000000E+00;  5.6809124E-02;  9.9612646E+02;  1.3041440E-01; -3.1404421E+03;3;  3.8749249E+01;  0.0000000E+00;  9.3747463E+00;0; -2.0905720E-01;  2.3782643E+04;  0.0000000E+00;  5.5299811E+00;  4.0000000E+04;  0.0000000E+00;  3.9237328E+04; -3.7534276E-01;  0.0000000E+00;  1.6628556E-01;  1.3379537E+04;
  1.4733292E+00;  9.9999998E-03;  2.6232219E-01;9259;  1.1722035E+00;  0.0000000E+00;  5.7053529E-02;  9.9474329E+02;  1.3038102E-01; -4.2610059E+03;3;  3.9450310E+01;  0.0000000E+00;  9.8435192E+00;0; -1.7274641E-01;  2.3706037E+04;  0.0000000E+00;  9.6581345E+00;  4.0000000E+04;  0.0000000E+00;  3.9274609E+04; -4.0425286E-01;  0.0000000E+00;  2.3150645E-01;  2.6460857E+04;
  1.4741052E+00;  9.9999998E-03;  2.5217688E-01;9258;  1.1643178E+00;  0.0000000E+00;  5.6011595E-02;  9.9331433E+02;  1.3033345E-01; -5.4179595E+03;3;  4.0382206E+01;  0.0000000E+00;  1.1241767E+01;0; -1.5657315E-01;  2.3639176E+04;  0.0000000E+00;  1.5194302E+01;  4.0000000E+04;  0.0000000E+00;  3.9309160E+04; -4.2701620E-01;  0.0000000E+00;  2.7044305E-01;  3.7508523E+04;
  1.4748734E+00;  9.9999998E-03;  2.4202512E-01;9257;  1.1558865E+00;  0.0000000E+00;  5.3297330E-02;  9.9269293E+02;  1.3027215E-01; -5.9200498E+03;3;  4.1369823E+01;  0.0000000E+00;  1.3501774E+01;0; -1.6046619E-01;  2.3623865E+04;  0.0000000E+00;  1.9395723E+01;  4.0000000E+04;  0.0000000E+00;  3.9328234E+04; -4.4287300E-01;  0.0000000E+00;  2.8240681E-01;  4.4303617E+04;
  1.4840983E+00;  9.9999998E-03;  2.8271100E-01;9318;  1.1820847E+00;  0.0000000E+00;  5.1180623E-02;  9.9853876E+02;  1.2794633E-01; -1.1801277E+03;3;  3.9780071E+01;  0.0000000E+00;  9.8806248E+00;0; -2.4090213E-01;  2.4863055E+04;  0.0000000E+00;  1.2694251E+01;  4.0000000E+04;  0.0000000E+00;  3.9157633E+04; -3.4174621E-01;  0.0000000E+00;  1.0084409E-01;  6.2813423E+03;
  1.4847636E+00;  9.9999998E-03;  2.7260667E-01;9317;  1.1747433E+00;  0.0000000E+00;  5.1569067E-02;  9.9696149E+02;  1.2790284E-01; -2.4533264E+03;3;  4.0163647E+01;  0.0000000E+00;  9.4854870E+00;0; -2.1022664E-01;  2.4794309E+04;  0.0000000E+00;  6.5331101E+00;  4.0000000E+04;  0.0000000E+00;  3.9189031E+04; -3.8406008E-01;  0.0000000E+00;  1.7383344E-01;  9.4854404E+03;
  1.4854083E+00;  9.9999998E-03;  2.6248389E-01;9316;  1.1675199E+00;  0.0000000E+00;  5.1750220E-02;  9.9524805E+02;  1.2787090E-01; -3.8358591E+03;3;  4.0853680E+01;  0.0000000E+00;  9.9626675E+00;0; -1.7628700E-01;  2.4699139E+04;  0.0000000E+00;  1.1266288E+01;  4.0000000E+04;  0.0000000E+00;  3.9227395E+04; -4.1749215E-01;  0.0000000E+00;  2.4120516E-01;  2.5749969E+04;
  1.4861937E+00;  9.9999998E-03;  2.5234461E-01;9315;  1.1596963E+00;  0.0000000E+00;  5.0667644E-02;  9.9322961E+02;  1.2783478E-01; -5.4635137E+03;3;  4.1840473E+01;  0.0000000E+00;  1.1513623E+01;0; -1.6221574E-01;  2.4594584E+04;  0.0000000E+00;  1.8551355E+01;  4.0000000E+04;  0.0000000E+00;  3.9266598E+04; -4.4466081E-01;  0.0000000E+00;  2.8244507E-01;  4.0460965E+04;
  1.4869872E+00;  9.9999998E-03;  2.4219556E-01;9314;  1.1511571E+00;  0.0000000E+00;  4.7813512E-02;  9.9196442E+02;  1.2778738E-01; -6.4825591E+03;3;  4.2863605E+01;  0.0000000E+00;  1.4033935E+01;0; -1.7132670E-01;  2.4540182E+04;  0.0000000E+00;  2.4173452E+01;  4.0000000E+04;  0.0000000E+00;  3.9292539E+04; -4.6484485E-01;  0.0000000E+00;  2.9351816E-01;  5.0004148E+04;
  1.4966965E+00;  9.9999998E-03;  2.7277711E-01;9373;  1.1698591E+00;  0.0000000E+00;  4.6415407E-02;  9.9802954E+02;  1.2571160E-01; -1.5833258E+03;3;  4.1668259E+01;  0.0000000E+00;  9.9557896E+00;0; -2.0826291E-01;  2.5749176E+04;  0.0000000E+00;  5.3225021E+00;  4.0000000E+04;  0.0000000E+00;  3.9136879E+04; -3.8418868E-01;  0.0000000E+00;  1.7592578E-01;  2.6641819E+03;
  1.4972982E+00;  9.9999998E-03;  2.6266828E-01;9372;  1.1626066E+00;  0.0000000E+00;  4.6487618E-02;  9.9632758E+02;  1.2568273E-01; -2.9501094E+03;3;  4.2333076E+01;  0.0000000E+00;  1.0420531E+01;0; -1.7950653E-01;  2.5656551E+04;  0.0000000E+00;  9.5767260E+00;  4.0000000E+04;  0.0000000E+00;  3.9171258E+04; -4.2302385E-01;  0.0000000E+00;  2.4351732E-01;  1.8715598E+04;
  1.4980462E+00;  9.9999998E-03;  2.5253904E-01;9371;  1.1548885E+00;  0.0000000E+00;  4.5497984E-02;  9.9389911E+02;  1.2565707E-01; -4.8993120E+03;3;  4.3331207E+01;  0.0000000E+00;  1.2010491E+01;0; -1.6635594E-01;  2.5521854E+04;  0.0000000E+00;  1.9468500E+01;  4.0000000E+04;  0.0000000E+00;  3.9212320E+04; -4.5497170E-01;  0.0000000E+00;  2.8861576E-01;  3.8320758E+04;
  1.4988509E+00;  9.9999998E-03;  2.4239706E-01;9370;  1.1463301E+00;  0.0000000E+00;  4.2636275E-02;  9.9185248E+02;  1.2562409E-01; -6.5405078E+03;3;  4.4283573E+01;  0.0000000E+00;  1.4268605E+01;0; -1.7959610E-01;  2.5418385E+04;  0.0000000E+00;  2.7289438E+01;  4.0000000E+04;  0.0000000E+00;  3.9244121E+04; -4.8030508E-01;  0.0000000E+00;  3.0070898E-01;  5.1630750E+04;
  1.5085087E+00;  9.9999998E-03;  2.7296251E-01;9428;  1.1648554E+00;  0.0000000E+00;  4.0937599E-02;  9.9916559E+02;  1.2380375E-01; -6.6672046E+02;3;  4.3274456E+01;  0.0000000E+00;  1.0858446E+01;0; -2.0929806E-01;  2.6639980E+04;  0.0000000E+00;  5.3941069E+00;  4.0000000E+04;  0.0000000E+00;  3.9080070E+04; -3.7530112E-01;  0.0000000E+00;  1.6600306E-01;  6.5630947E+03;
  1.5090878E+00;  9.9999998E-03;  2.6286855E-01;9427;  1.1574339E+00;  0.0000000E+00;  4.1203823E-02;  9.9763000E+02;  1.2378141E-01; -1.8931517E+03;3;  4.3893837E+01;  0.0000000E+00;  1.1106923E+01;0; -1.8277363E-01;  2.6557486E+04;  0.0000000E+00;  4.9551868E+00;  4.0000000E+04;  0.0000000E+00;  3.9111410E+04; -4.2052665E-01;  0.0000000E+00;  2.3775302E-01;  6.8257393E+03;
  1.5097421E+00;  9.9999998E-03;  2.5275484E-01;9426;  1.1497918E+00;  0.0000000E+00;  4.0196691E-02;  9.9523077E+02;  1.2376219E-01; -3.8083389E+03;3;  4.4852470E+01;  0.0000000E+00;  1.2677720E+01;0; -1.7339829E-01;  2.6419598E+04;  0.0000000E+00;  1.6294962E+01;  4.0000000E+04;  0.0000000E+00;  3.9148594E+04; -4.5773834E-01;  0.0000000E+00;  2.8434005E-01;  2.9650119E+04;
  1.5105138E+00;  9.9999998E-03;  2.4262507E-01;9425;  1.1413616E+00;  0.0000000E+00;  3.7510891E-02;  9.9251147E+02;  1.2374130E-01; -5.9773877E+03;3;  4.5728340E+01;  0.0000000E+00;  1.4721310E+01;0; -1.8837222E-01;  2.6271254E+04;  0.0000000E+00;  2.7487013E+01;  4.0000000E+04;  0.0000000E+00;  3.9182801E+04; -4.8838326E-01;  0.0000000E+00;  3.0001104E-01;  4.7913723E+04;
  1.5208074E+00;  9.9999998E-03;  2.6308015E-01;9481;  1.1520392E+00;  0.0000000E+00;  3.5156552E-02;  9.9878729E+02;  1.2213168E-01; -9.6238507E+02;3;  4.5603439E+01;  0.0000000E+00;  1.2365063E+01;0; -1.9726644E-01;  2.7382404E+04;  0.0000000E+00;  1.9326702E+00;  4.0000000E+04;  0.0000000E+00;  3.9048574E+04; -4.0953100E-01;  0.0000000E+00;  2.1226455E-01;  3.7463364E+03;
  1.5213550E+00;  9.9999998E-03;  2.5298569E-01;9480;  1.1444095E+00;  0.0000000E+00;  3.4395427E-02;  9.9689703E+02;  1.2211750E-01; -2.4616230E+03;3;  4.6379478E+01;  0.0000000E+00;  1.3499136E+01;0; -1.8860596E-01;  2.7271756E+04;  0.0000000E+00;  9.0135002E+00;  4.0000000E+04;  0.0000000E+00;  3.9078738E+04; -4.5242271E-01;  0.0000000E+00;  2.6381674E-01;  1.5460577E+04;
  1.5220296E+00;  9.9999998E-03;  2.4287190E-01;9479;  1.1361771E+00;  0.0000000E+00;  3.2260183E-02;  9.9402576E+02;  1.2210519E-01; -4.7374961E+03;3;  4.7160652E+01;  0.0000000E+00;  1.5146356E+01;0; -2.0010492E-01;  2.7106467E+04;  0.0000000E+00;  2.3458843E+01;  4.0000000E+04;  0.0000000E+00;  3.9111480E+04; -4.8844400E-01;  0.0000000E+00;  2.8833908E-01;  3.8191652E+04;
  1.5323830E+00;  9.9999998E-03;  2.6330256E-01;9534;  1.1465563E+00;  0.0000000E+00;  2.8358998E-02;  1.0001594E+03;  1.2070537E-01;  1.2553284E+02;3;  4.7327778E+01;  0.0000000E+00;  1.3542050E+01;0; -2.2254112E-01;  2.8153406E+04;  0.0000000E+00;  6.2194681E+00;  4.0000000E+04;  0.0000000E+00;  3.8978320E+04; -3.8983732E-01;  0.0000000E+00;  1.6729620E-01;  6.5764619E+03;
  1.5329424E+00;  9.9999998E-03;  2.5322449E-01;9533;  1.1387228E+00;  0.0000000E+00;  2.8028170E-02;  9.9836096E+02;  1.2069727E-01; -1.2904054E+03;3;  4.7989826E+01;  0.0000000E+00;  1.4394363E+01;0; -2.1325703E-01;  2.8047547E+04;  0.0000000E+00;  1.8756799E+00;  4.0000000E+04;  0.0000000E+00;  3.9006512E+04; -4.3919021E-01;  0.0000000E+00;  2.2593318E-01;  1.4588564E+03;
  1.5334853E+00;  9.9999998E-03;  2.4313030E-01;9532;  1.1306052E+00;  0.0000000E+00;  2.6253453E-02;  9.9600586E+02;  1.2068863E-01; -3.1434331E+03;3;  4.8608406E+01;  0.0000000E+00;  1.5795157E+01;0; -2.2445801E-01;  2.7907674E+04;  0.0000000E+00;  1.4179177E+01;  4.0000000E+04;  0.0000000E+00;  3.9033270E+04; -4.8099044E-01;  0.0000000E+00;  2.5653243E-01;  2.2639703E+04;
  1.5444484E+00;  9.9999998E-03;  2.5346839E-01;9585;  1.1328341E+00;  0.0000000E+00;  2.0722587E-02;  9.9969299E+02;  1.1947219E-01; -2.3961938E+02;3;  4.9592548E+01;  0.0000000E+00;  1.5190037E+01;0; -2.5354064E-01;  2.8753141E+04;  0.0000000E+00;  3.6046977E+00;  4.0000000E+04;  0.0000000E+00;  3.8929191E+04; -4.1857418E-01;  0.0000000E+00;  1.6503355E-01;  4.3630117E+03;
  1.5449415E+00;  9.9999998E-03;  2.4339248E-01;9584;  1.1247057E+00;  0.0000000E+00;  1.9481447E-02;  9.9784039E+02;  1.1946772E-01; -1.6847974E+03;3;  5.0033932E+01;  0.0000000E+00;  1.6144724E+01;0; -2.6227784E-01;  2.8640869E+04;  0.0000000E+00;  3.4267502E+00;  4.0000000E+04;  0.0000000E+00;  3.8951973E+04; -4.6602231E-01;  0.0000000E+00;  2.0374446E-01;  6.1998477E+03;
  1.5563712E+00;  9.9999998E-03;  2.4365382E-01;9634;  1.1187221E+00;  0.0000000E+00;  1.2267251E-02;  9.9927673E+02;  1.1841986E-01; -5.5858984E+02;3;  5.1337215E+01;  0.0000000E+00;  1.5966374E+01;0; -3.0813932E-01;  2.9293062E+04;  0.0000000E+00;  1.8880454E+00;  4.0000000E+04;  0.0000000E+00;  3.8866711E+04; -4.4299552E-01;  0.0000000E+00;  1.3485621E-01;  2.8813655E+03;
