# vtk DataFile Version 3.0
Try
ASCII
DATASET POLYDATA
POINTS 2975 float
 -2.2000000E-01   9.9999998E-03  -3.8000000E-01
 -2.2000000E-01   9.9999998E-03  -3.6000001E-01
 -2.0000000E-01   9.9999998E-03  -4.0000001E-01
 -2.0000000E-01   9.9999998E-03  -3.8000000E-01
 -2.0000000E-01   9.9999998E-03  -3.6000001E-01
 -1.8000001E-01   9.9999998E-03  -4.0000001E-01
 -1.8000001E-01   9.9999998E-03  -3.8000000E-01
 -1.8000001E-01   9.9999998E-03  -3.6000001E-01
 -1.6000000E-01   9.9999998E-03  -4.0000001E-01
 -1.6000000E-01   9.9999998E-03  -3.8000000E-01
 -1.6000000E-01   9.9999998E-03  -3.6000001E-01
 -1.4000000E-01   9.9999998E-03  -4.0000001E-01
 -1.4000000E-01   9.9999998E-03  -3.8000000E-01
 -1.4000000E-01   9.9999998E-03  -3.6000001E-01
 -1.2000000E-01   9.9999998E-03  -4.0000001E-01
 -1.2000000E-01   9.9999998E-03  -3.8000000E-01
 -1.2000000E-01   9.9999998E-03  -3.6000001E-01
 -1.0000000E-01   9.9999998E-03  -4.0000001E-01
 -1.0000000E-01   9.9999998E-03  -3.8000000E-01
 -1.0000000E-01   9.9999998E-03  -3.6000001E-01
 -7.9999998E-02   9.9999998E-03  -4.0000001E-01
 -7.9999998E-02   9.9999998E-03  -3.8000000E-01
 -7.9999998E-02   9.9999998E-03  -3.6000001E-01
 -5.9999999E-02   9.9999998E-03  -4.0000001E-01
 -5.9999999E-02   9.9999998E-03  -3.8000000E-01
 -5.9999999E-02   9.9999998E-03  -3.6000001E-01
 -3.9999999E-02   9.9999998E-03  -4.0000001E-01
 -3.9999999E-02   9.9999998E-03  -3.8000000E-01
 -3.9999999E-02   9.9999998E-03  -3.6000001E-01
 -2.0000000E-02   9.9999998E-03  -4.0000001E-01
 -2.0000000E-02   9.9999998E-03  -3.8000000E-01
 -2.0000000E-02   9.9999998E-03  -3.6000001E-01
  0.0000000E+00   9.9999998E-03  -4.0000001E-01
  0.0000000E+00   9.9999998E-03  -3.8000000E-01
  0.0000000E+00   9.9999998E-03  -3.6000001E-01
  2.0000000E-02   9.9999998E-03  -4.0000001E-01
  2.0000000E-02   9.9999998E-03  -3.8000000E-01
  2.0000000E-02   9.9999998E-03  -3.6000001E-01
  3.9999999E-02   9.9999998E-03  -4.0000001E-01
  3.9999999E-02   9.9999998E-03  -3.8000000E-01
  3.9999999E-02   9.9999998E-03  -3.6000001E-01
  5.9999999E-02   9.9999998E-03  -4.0000001E-01
  5.9999999E-02   9.9999998E-03  -3.8000000E-01
  5.9999999E-02   9.9999998E-03  -3.6000001E-01
  7.9999998E-02   9.9999998E-03  -4.0000001E-01
  7.9999998E-02   9.9999998E-03  -3.8000000E-01
  7.9999998E-02   9.9999998E-03  -3.6000001E-01
  1.0000000E-01   9.9999998E-03  -4.0000001E-01
  1.0000000E-01   9.9999998E-03  -3.8000000E-01
  1.0000000E-01   9.9999998E-03  -3.6000001E-01
  1.2000000E-01   9.9999998E-03  -4.0000001E-01
  1.2000000E-01   9.9999998E-03  -3.8000000E-01
  1.2000000E-01   9.9999998E-03  -3.6000001E-01
  1.4000000E-01   9.9999998E-03  -4.0000001E-01
  1.4000000E-01   9.9999998E-03  -3.8000000E-01
  1.4000000E-01   9.9999998E-03  -3.6000001E-01
  1.6000000E-01   9.9999998E-03  -4.0000001E-01
  1.6000000E-01   9.9999998E-03  -3.8000000E-01
  1.6000000E-01   9.9999998E-03  -3.6000001E-01
  1.8000001E-01   9.9999998E-03  -4.0000001E-01
  1.8000001E-01   9.9999998E-03  -3.8000000E-01
  1.8000001E-01   9.9999998E-03  -3.6000001E-01
  2.0000000E-01   9.9999998E-03  -3.8000000E-01
  2.0000000E-01   9.9999998E-03  -3.6000001E-01
 -2.2000000E-01   9.9999998E-03  -3.4000000E-01
 -2.2000000E-01   9.9999998E-03  -3.1999999E-01
 -2.2000000E-01   9.9999998E-03  -3.0000001E-01
 -2.2000000E-01   9.9999998E-03  -2.8000000E-01
 -2.2000000E-01   9.9999998E-03  -2.5999999E-01
 -2.2000000E-01   9.9999998E-03  -2.3999999E-01
 -2.2000000E-01   9.9999998E-03  -2.2000000E-01
 -2.2000000E-01   9.9999998E-03  -2.0000000E-01
 -2.0000000E-01   9.9999998E-03  -3.4000000E-01
 -2.0000000E-01   9.9999998E-03  -3.1999999E-01
 -2.0000000E-01   9.9999998E-03  -3.0000001E-01
 -2.0000000E-01   9.9999998E-03  -2.8000000E-01
 -2.0000000E-01   9.9999998E-03  -2.5999999E-01
 -2.0000000E-01   9.9999998E-03  -2.3999999E-01
 -2.0000000E-01   9.9999998E-03  -2.2000000E-01
 -2.0000000E-01   9.9999998E-03  -2.0000000E-01
 -1.8000001E-01   9.9999998E-03  -3.4000000E-01
 -1.8000001E-01   9.9999998E-03  -3.1999999E-01
 -1.8000001E-01   9.9999998E-03  -3.0000001E-01
 -1.8000001E-01   9.9999998E-03  -2.8000000E-01
 -1.8000001E-01   9.9999998E-03  -2.5999999E-01
 -1.8000001E-01   9.9999998E-03  -2.3999999E-01
 -1.8000001E-01   9.9999998E-03  -2.2000000E-01
 -1.8000001E-01   9.9999998E-03  -2.0000000E-01
 -1.6000000E-01   9.9999998E-03  -3.4000000E-01
 -1.6000000E-01   9.9999998E-03  -3.1999999E-01
 -1.6000000E-01   9.9999998E-03  -3.0000001E-01
 -1.6000000E-01   9.9999998E-03  -2.8000000E-01
 -1.6000000E-01   9.9999998E-03  -2.5999999E-01
 -1.6000000E-01   9.9999998E-03  -2.3999999E-01
 -1.6000000E-01   9.9999998E-03  -2.2000000E-01
 -1.6000000E-01   9.9999998E-03  -2.0000000E-01
 -1.4000000E-01   9.9999998E-03  -3.4000000E-01
 -1.4000000E-01   9.9999998E-03  -3.1999999E-01
 -1.4000000E-01   9.9999998E-03  -3.0000001E-01
 -1.4000000E-01   9.9999998E-03  -2.8000000E-01
 -1.4000000E-01   9.9999998E-03  -2.5999999E-01
 -1.4000000E-01   9.9999998E-03  -2.3999999E-01
 -1.4000000E-01   9.9999998E-03  -2.2000000E-01
 -1.4000000E-01   9.9999998E-03  -2.0000000E-01
 -1.2000000E-01   9.9999998E-03  -3.4000000E-01
 -1.2000000E-01   9.9999998E-03  -3.1999999E-01
 -1.2000000E-01   9.9999998E-03  -3.0000001E-01
 -1.2000000E-01   9.9999998E-03  -2.8000000E-01
 -1.2000000E-01   9.9999998E-03  -2.5999999E-01
 -1.2000000E-01   9.9999998E-03  -2.3999999E-01
 -1.2000000E-01   9.9999998E-03  -2.2000000E-01
 -1.2000000E-01   9.9999998E-03  -2.0000000E-01
 -1.0000000E-01   9.9999998E-03  -3.4000000E-01
 -1.0000000E-01   9.9999998E-03  -3.1999999E-01
 -1.0000000E-01   9.9999998E-03  -3.0000001E-01
 -1.0000000E-01   9.9999998E-03  -2.8000000E-01
 -1.0000000E-01   9.9999998E-03  -2.5999999E-01
 -1.0000000E-01   9.9999998E-03  -2.3999999E-01
 -1.0000000E-01   9.9999998E-03  -2.2000000E-01
 -1.0000000E-01   9.9999998E-03  -2.0000000E-01
 -7.9999998E-02   9.9999998E-03  -3.4000000E-01
 -7.9999998E-02   9.9999998E-03  -3.1999999E-01
 -7.9999998E-02   9.9999998E-03  -3.0000001E-01
 -7.9999998E-02   9.9999998E-03  -2.8000000E-01
 -7.9999998E-02   9.9999998E-03  -2.5999999E-01
 -7.9999998E-02   9.9999998E-03  -2.3999999E-01
 -7.9999998E-02   9.9999998E-03  -2.2000000E-01
 -7.9999998E-02   9.9999998E-03  -2.0000000E-01
 -5.9999999E-02   9.9999998E-03  -3.4000000E-01
 -5.9999999E-02   9.9999998E-03  -3.1999999E-01
 -5.9999999E-02   9.9999998E-03  -3.0000001E-01
 -5.9999999E-02   9.9999998E-03  -2.8000000E-01
 -5.9999999E-02   9.9999998E-03  -2.5999999E-01
 -5.9999999E-02   9.9999998E-03  -2.3999999E-01
 -5.9999999E-02   9.9999998E-03  -2.2000000E-01
 -5.9999999E-02   9.9999998E-03  -2.0000000E-01
 -3.9999999E-02   9.9999998E-03  -3.4000000E-01
 -3.9999999E-02   9.9999998E-03  -3.1999999E-01
 -3.9999999E-02   9.9999998E-03  -3.0000001E-01
 -3.9999999E-02   9.9999998E-03  -2.8000000E-01
 -3.9999999E-02   9.9999998E-03  -2.5999999E-01
 -3.9999999E-02   9.9999998E-03  -2.3999999E-01
 -3.9999999E-02   9.9999998E-03  -2.2000000E-01
 -3.9999999E-02   9.9999998E-03  -2.0000000E-01
 -2.0000000E-02   9.9999998E-03  -3.4000000E-01
 -2.0000000E-02   9.9999998E-03  -3.1999999E-01
 -2.0000000E-02   9.9999998E-03  -3.0000001E-01
 -2.0000000E-02   9.9999998E-03  -2.8000000E-01
 -2.0000000E-02   9.9999998E-03  -2.5999999E-01
 -2.0000000E-02   9.9999998E-03  -2.3999999E-01
 -2.0000000E-02   9.9999998E-03  -2.2000000E-01
 -2.0000000E-02   9.9999998E-03  -2.0000000E-01
  0.0000000E+00   9.9999998E-03  -3.4000000E-01
  0.0000000E+00   9.9999998E-03  -3.1999999E-01
  0.0000000E+00   9.9999998E-03  -3.0000001E-01
  2.0000000E-02   9.9999998E-03  -3.4000000E-01
  2.0000000E-02   9.9999998E-03  -3.1999999E-01
  3.9999999E-02   9.9999998E-03  -3.4000000E-01
  3.9999999E-02   9.9999998E-03  -3.1999999E-01
  5.9999999E-02   9.9999998E-03  -3.4000000E-01
  5.9999999E-02   9.9999998E-03  -3.1999999E-01
  7.9999998E-02   9.9999998E-03  -3.4000000E-01
  7.9999998E-02   9.9999998E-03  -3.1999999E-01
  1.0000000E-01   9.9999998E-03  -3.4000000E-01
  1.0000000E-01   9.9999998E-03  -3.1999999E-01
  1.2000000E-01   9.9999998E-03  -3.4000000E-01
  1.2000000E-01   9.9999998E-03  -3.1999999E-01
  1.4000000E-01   9.9999998E-03  -3.4000000E-01
  1.4000000E-01   9.9999998E-03  -3.1999999E-01
  1.6000000E-01   9.9999998E-03  -3.4000000E-01
  1.6000000E-01   9.9999998E-03  -3.1999999E-01
  1.8000001E-01   9.9999998E-03  -3.4000000E-01
  1.8000001E-01   9.9999998E-03  -3.1999999E-01
  2.0000000E-01   9.9999998E-03  -3.4000000E-01
  2.0000000E-01   9.9999998E-03  -3.1999999E-01
 -2.2000000E-01   9.9999998E-03  -1.8000001E-01
 -2.2000000E-01   9.9999998E-03  -1.6000000E-01
 -2.2000000E-01   9.9999998E-03  -1.4000000E-01
 -2.2000000E-01   9.9999998E-03  -1.2000000E-01
 -2.2000000E-01   9.9999998E-03  -1.0000000E-01
 -2.2000000E-01   9.9999998E-03  -7.9999998E-02
 -2.2000000E-01   9.9999998E-03  -5.9999999E-02
 -2.2000000E-01   9.9999998E-03  -3.9999999E-02
 -2.2000000E-01   9.9999998E-03  -2.0000000E-02
 -2.0000000E-01   9.9999998E-03  -1.8000001E-01
 -2.0000000E-01   9.9999998E-03  -1.6000000E-01
 -2.0000000E-01   9.9999998E-03  -1.4000000E-01
 -2.0000000E-01   9.9999998E-03  -1.2000000E-01
 -2.0000000E-01   9.9999998E-03  -1.0000000E-01
 -2.0000000E-01   9.9999998E-03  -7.9999998E-02
 -2.0000000E-01   9.9999998E-03  -5.9999999E-02
 -2.0000000E-01   9.9999998E-03  -3.9999999E-02
 -2.0000000E-01   9.9999998E-03  -2.0000000E-02
 -1.8000001E-01   9.9999998E-03  -1.8000001E-01
 -1.8000001E-01   9.9999998E-03  -1.6000000E-01
 -1.8000001E-01   9.9999998E-03  -1.4000000E-01
 -1.8000001E-01   9.9999998E-03  -1.2000000E-01
 -1.8000001E-01   9.9999998E-03  -1.0000000E-01
 -1.8000001E-01   9.9999998E-03  -7.9999998E-02
 -1.8000001E-01   9.9999998E-03  -5.9999999E-02
 -1.8000001E-01   9.9999998E-03  -3.9999999E-02
 -1.8000001E-01   9.9999998E-03  -2.0000000E-02
 -1.6000000E-01   9.9999998E-03  -1.8000001E-01
 -1.6000000E-01   9.9999998E-03  -1.6000000E-01
 -1.6000000E-01   9.9999998E-03  -1.4000000E-01
 -1.6000000E-01   9.9999998E-03  -1.2000000E-01
 -1.6000000E-01   9.9999998E-03  -1.0000000E-01
 -1.6000000E-01   9.9999998E-03  -7.9999998E-02
 -1.6000000E-01   9.9999998E-03  -5.9999999E-02
 -1.6000000E-01   9.9999998E-03  -3.9999999E-02
 -1.6000000E-01   9.9999998E-03  -2.0000000E-02
 -1.4000000E-01   9.9999998E-03  -1.8000001E-01
 -1.4000000E-01   9.9999998E-03  -1.6000000E-01
 -1.4000000E-01   9.9999998E-03  -1.4000000E-01
 -1.4000000E-01   9.9999998E-03  -1.2000000E-01
 -1.4000000E-01   9.9999998E-03  -1.0000000E-01
 -1.4000000E-01   9.9999998E-03  -7.9999998E-02
 -1.4000000E-01   9.9999998E-03  -5.9999999E-02
 -1.4000000E-01   9.9999998E-03  -3.9999999E-02
 -1.4000000E-01   9.9999998E-03  -2.0000000E-02
 -1.2000000E-01   9.9999998E-03  -1.8000001E-01
 -1.2000000E-01   9.9999998E-03  -1.6000000E-01
 -1.2000000E-01   9.9999998E-03  -1.4000000E-01
 -1.2000000E-01   9.9999998E-03  -1.2000000E-01
 -1.2000000E-01   9.9999998E-03  -1.0000000E-01
 -1.2000000E-01   9.9999998E-03  -7.9999998E-02
 -1.2000000E-01   9.9999998E-03  -5.9999999E-02
 -1.2000000E-01   9.9999998E-03  -3.9999999E-02
 -1.2000000E-01   9.9999998E-03  -2.0000000E-02
 -1.0000000E-01   9.9999998E-03  -1.8000001E-01
 -1.0000000E-01   9.9999998E-03  -1.6000000E-01
 -1.0000000E-01   9.9999998E-03  -1.4000000E-01
 -1.0000000E-01   9.9999998E-03  -1.2000000E-01
 -1.0000000E-01   9.9999998E-03  -1.0000000E-01
 -1.0000000E-01   9.9999998E-03  -7.9999998E-02
 -1.0000000E-01   9.9999998E-03  -5.9999999E-02
 -1.0000000E-01   9.9999998E-03  -3.9999999E-02
 -1.0000000E-01   9.9999998E-03  -2.0000000E-02
 -7.9999998E-02   9.9999998E-03  -1.8000001E-01
 -7.9999998E-02   9.9999998E-03  -1.6000000E-01
 -7.9999998E-02   9.9999998E-03  -1.4000000E-01
 -7.9999998E-02   9.9999998E-03  -1.2000000E-01
 -7.9999998E-02   9.9999998E-03  -1.0000000E-01
 -7.9999998E-02   9.9999998E-03  -7.9999998E-02
 -7.9999998E-02   9.9999998E-03  -5.9999999E-02
 -7.9999998E-02   9.9999998E-03  -3.9999999E-02
 -7.9999998E-02   9.9999998E-03  -2.0000000E-02
 -5.9999999E-02   9.9999998E-03  -1.8000001E-01
 -5.9999999E-02   9.9999998E-03  -1.6000000E-01
 -5.9999999E-02   9.9999998E-03  -1.4000000E-01
 -5.9999999E-02   9.9999998E-03  -1.2000000E-01
 -5.9999999E-02   9.9999998E-03  -1.0000000E-01
 -5.9999999E-02   9.9999998E-03  -7.9999998E-02
 -5.9999999E-02   9.9999998E-03  -5.9999999E-02
 -5.9999999E-02   9.9999998E-03  -3.9999999E-02
 -5.9999999E-02   9.9999998E-03  -2.0000000E-02
 -3.9999999E-02   9.9999998E-03  -1.8000001E-01
 -3.9999999E-02   9.9999998E-03  -1.6000000E-01
 -3.9999999E-02   9.9999998E-03  -1.4000000E-01
 -3.9999999E-02   9.9999998E-03  -1.2000000E-01
 -3.9999999E-02   9.9999998E-03  -1.0000000E-01
 -3.9999999E-02   9.9999998E-03  -7.9999998E-02
 -3.9999999E-02   9.9999998E-03  -5.9999999E-02
 -3.9999999E-02   9.9999998E-03  -3.9999999E-02
 -3.9999999E-02   9.9999998E-03  -2.0000000E-02
 -2.0000000E-02   9.9999998E-03  -1.8000001E-01
 -2.0000000E-02   9.9999998E-03  -1.6000000E-01
 -2.0000000E-02   9.9999998E-03  -1.4000000E-01
 -2.0000000E-02   9.9999998E-03  -1.2000000E-01
 -2.0000000E-02   9.9999998E-03  -1.0000000E-01
 -2.0000000E-02   9.9999998E-03  -7.9999998E-02
 -2.0000000E-02   9.9999998E-03  -5.9999999E-02
 -2.0000000E-02   9.9999998E-03  -3.9999999E-02
 -2.0000000E-02   9.9999998E-03  -2.0000000E-02
 -2.2000000E-01   9.9999998E-03   0.0000000E+00
 -2.2000000E-01   9.9999998E-03   2.0000000E-02
 -2.2000000E-01   9.9999998E-03   3.9999999E-02
 -2.2000000E-01   9.9999998E-03   5.9999999E-02
 -2.2000000E-01   9.9999998E-03   7.9999998E-02
 -2.2000000E-01   9.9999998E-03   1.0000000E-01
 -2.2000000E-01   9.9999998E-03   1.2000000E-01
 -2.2000000E-01   9.9999998E-03   1.4000000E-01
 -2.0000000E-01   9.9999998E-03   0.0000000E+00
 -2.0000000E-01   9.9999998E-03   2.0000000E-02
 -2.0000000E-01   9.9999998E-03   3.9999999E-02
 -2.0000000E-01   9.9999998E-03   5.9999999E-02
 -2.0000000E-01   9.9999998E-03   7.9999998E-02
 -2.0000000E-01   9.9999998E-03   1.0000000E-01
 -2.0000000E-01   9.9999998E-03   1.2000000E-01
 -2.0000000E-01   9.9999998E-03   1.4000000E-01
 -1.8000001E-01   9.9999998E-03   0.0000000E+00
 -1.8000001E-01   9.9999998E-03   2.0000000E-02
 -1.8000001E-01   9.9999998E-03   3.9999999E-02
 -1.8000001E-01   9.9999998E-03   5.9999999E-02
 -1.8000001E-01   9.9999998E-03   7.9999998E-02
 -1.8000001E-01   9.9999998E-03   1.0000000E-01
 -1.8000001E-01   9.9999998E-03   1.2000000E-01
 -1.8000001E-01   9.9999998E-03   1.4000000E-01
 -1.6000000E-01   9.9999998E-03   0.0000000E+00
 -1.6000000E-01   9.9999998E-03   2.0000000E-02
 -1.6000000E-01   9.9999998E-03   3.9999999E-02
 -1.6000000E-01   9.9999998E-03   5.9999999E-02
 -1.6000000E-01   9.9999998E-03   7.9999998E-02
 -1.6000000E-01   9.9999998E-03   1.0000000E-01
 -1.6000000E-01   9.9999998E-03   1.2000000E-01
 -1.6000000E-01   9.9999998E-03   1.4000000E-01
 -1.4000000E-01   9.9999998E-03   0.0000000E+00
 -1.4000000E-01   9.9999998E-03   2.0000000E-02
 -1.4000000E-01   9.9999998E-03   3.9999999E-02
 -1.4000000E-01   9.9999998E-03   5.9999999E-02
 -1.4000000E-01   9.9999998E-03   7.9999998E-02
 -1.4000000E-01   9.9999998E-03   1.0000000E-01
 -1.4000000E-01   9.9999998E-03   1.2000000E-01
 -1.4000000E-01   9.9999998E-03   1.4000000E-01
 -1.2000000E-01   9.9999998E-03   0.0000000E+00
 -1.2000000E-01   9.9999998E-03   2.0000000E-02
 -1.2000000E-01   9.9999998E-03   3.9999999E-02
 -1.2000000E-01   9.9999998E-03   5.9999999E-02
 -1.2000000E-01   9.9999998E-03   7.9999998E-02
 -1.2000000E-01   9.9999998E-03   1.0000000E-01
 -1.2000000E-01   9.9999998E-03   1.2000000E-01
 -1.2000000E-01   9.9999998E-03   1.4000000E-01
 -1.0000000E-01   9.9999998E-03   0.0000000E+00
 -1.0000000E-01   9.9999998E-03   2.0000000E-02
 -1.0000000E-01   9.9999998E-03   3.9999999E-02
 -1.0000000E-01   9.9999998E-03   5.9999999E-02
 -1.0000000E-01   9.9999998E-03   7.9999998E-02
 -1.0000000E-01   9.9999998E-03   1.0000000E-01
 -1.0000000E-01   9.9999998E-03   1.2000000E-01
 -1.0000000E-01   9.9999998E-03   1.4000000E-01
 -7.9999998E-02   9.9999998E-03   0.0000000E+00
 -7.9999998E-02   9.9999998E-03   2.0000000E-02
 -7.9999998E-02   9.9999998E-03   3.9999999E-02
 -7.9999998E-02   9.9999998E-03   5.9999999E-02
 -7.9999998E-02   9.9999998E-03   7.9999998E-02
 -7.9999998E-02   9.9999998E-03   1.0000000E-01
 -7.9999998E-02   9.9999998E-03   1.2000000E-01
 -7.9999998E-02   9.9999998E-03   1.4000000E-01
 -5.9999999E-02   9.9999998E-03   0.0000000E+00
 -5.9999999E-02   9.9999998E-03   2.0000000E-02
 -5.9999999E-02   9.9999998E-03   3.9999999E-02
 -5.9999999E-02   9.9999998E-03   5.9999999E-02
 -5.9999999E-02   9.9999998E-03   7.9999998E-02
 -5.9999999E-02   9.9999998E-03   1.0000000E-01
 -5.9999999E-02   9.9999998E-03   1.2000000E-01
 -5.9999999E-02   9.9999998E-03   1.4000000E-01
 -3.9999999E-02   9.9999998E-03   0.0000000E+00
 -3.9999999E-02   9.9999998E-03   2.0000000E-02
 -3.9999999E-02   9.9999998E-03   3.9999999E-02
 -3.9999999E-02   9.9999998E-03   5.9999999E-02
 -3.9999999E-02   9.9999998E-03   7.9999998E-02
 -3.9999999E-02   9.9999998E-03   1.0000000E-01
 -3.9999999E-02   9.9999998E-03   1.2000000E-01
 -3.9999999E-02   9.9999998E-03   1.4000000E-01
 -2.0000000E-02   9.9999998E-03   0.0000000E+00
 -2.0000000E-02   9.9999998E-03   2.0000000E-02
 -2.0000000E-02   9.9999998E-03   3.9999999E-02
 -2.0000000E-02   9.9999998E-03   5.9999999E-02
 -2.0000000E-02   9.9999998E-03   7.9999998E-02
 -2.0000000E-02   9.9999998E-03   1.0000000E-01
 -2.0000000E-02   9.9999998E-03   1.2000000E-01
 -2.0000000E-02   9.9999998E-03   1.4000000E-01
 -2.2000000E-01   9.9999998E-03   1.6000000E-01
 -2.2000000E-01   9.9999998E-03   1.8000001E-01
 -2.2000000E-01   9.9999998E-03   2.0000000E-01
 -2.2000000E-01   9.9999998E-03   2.2000000E-01
 -2.2000000E-01   9.9999998E-03   2.3999999E-01
 -2.2000000E-01   9.9999998E-03   2.5999999E-01
 -2.2000000E-01   9.9999998E-03   2.8000000E-01
 -2.2000000E-01   9.9999998E-03   3.0000001E-01
 -2.2000000E-01   9.9999998E-03   3.1999999E-01
 -2.0000000E-01   9.9999998E-03   1.6000000E-01
 -2.0000000E-01   9.9999998E-03   1.8000001E-01
 -2.0000000E-01   9.9999998E-03   2.0000000E-01
 -2.0000000E-01   9.9999998E-03   2.2000000E-01
 -2.0000000E-01   9.9999998E-03   2.3999999E-01
 -2.0000000E-01   9.9999998E-03   2.5999999E-01
 -2.0000000E-01   9.9999998E-03   2.8000000E-01
 -2.0000000E-01   9.9999998E-03   3.0000001E-01
 -2.0000000E-01   9.9999998E-03   3.1999999E-01
 -1.8000001E-01   9.9999998E-03   1.6000000E-01
 -1.8000001E-01   9.9999998E-03   1.8000001E-01
 -1.8000001E-01   9.9999998E-03   2.0000000E-01
 -1.8000001E-01   9.9999998E-03   2.2000000E-01
 -1.8000001E-01   9.9999998E-03   2.3999999E-01
 -1.8000001E-01   9.9999998E-03   2.5999999E-01
 -1.8000001E-01   9.9999998E-03   2.8000000E-01
 -1.8000001E-01   9.9999998E-03   3.0000001E-01
 -1.8000001E-01   9.9999998E-03   3.1999999E-01
 -1.6000000E-01   9.9999998E-03   1.6000000E-01
 -1.6000000E-01   9.9999998E-03   1.8000001E-01
 -1.6000000E-01   9.9999998E-03   2.0000000E-01
 -1.6000000E-01   9.9999998E-03   2.2000000E-01
 -1.6000000E-01   9.9999998E-03   2.3999999E-01
 -1.6000000E-01   9.9999998E-03   2.5999999E-01
 -1.6000000E-01   9.9999998E-03   2.8000000E-01
 -1.6000000E-01   9.9999998E-03   3.0000001E-01
 -1.6000000E-01   9.9999998E-03   3.1999999E-01
 -1.4000000E-01   9.9999998E-03   1.6000000E-01
 -1.4000000E-01   9.9999998E-03   1.8000001E-01
 -1.4000000E-01   9.9999998E-03   2.0000000E-01
 -1.4000000E-01   9.9999998E-03   2.2000000E-01
 -1.4000000E-01   9.9999998E-03   2.3999999E-01
 -1.4000000E-01   9.9999998E-03   2.5999999E-01
 -1.4000000E-01   9.9999998E-03   2.8000000E-01
 -1.4000000E-01   9.9999998E-03   3.0000001E-01
 -1.4000000E-01   9.9999998E-03   3.1999999E-01
 -1.2000000E-01   9.9999998E-03   1.6000000E-01
 -1.2000000E-01   9.9999998E-03   1.8000001E-01
 -1.2000000E-01   9.9999998E-03   2.0000000E-01
 -1.2000000E-01   9.9999998E-03   2.2000000E-01
 -1.2000000E-01   9.9999998E-03   2.3999999E-01
 -1.2000000E-01   9.9999998E-03   2.5999999E-01
 -1.2000000E-01   9.9999998E-03   2.8000000E-01
 -1.2000000E-01   9.9999998E-03   3.0000001E-01
 -1.2000000E-01   9.9999998E-03   3.1999999E-01
 -1.0000000E-01   9.9999998E-03   1.6000000E-01
 -1.0000000E-01   9.9999998E-03   1.8000001E-01
 -1.0000000E-01   9.9999998E-03   2.0000000E-01
 -1.0000000E-01   9.9999998E-03   2.2000000E-01
 -1.0000000E-01   9.9999998E-03   2.3999999E-01
 -1.0000000E-01   9.9999998E-03   2.5999999E-01
 -1.0000000E-01   9.9999998E-03   2.8000000E-01
 -1.0000000E-01   9.9999998E-03   3.0000001E-01
 -1.0000000E-01   9.9999998E-03   3.1999999E-01
 -7.9999998E-02   9.9999998E-03   1.6000000E-01
 -7.9999998E-02   9.9999998E-03   1.8000001E-01
 -7.9999998E-02   9.9999998E-03   2.0000000E-01
 -7.9999998E-02   9.9999998E-03   2.2000000E-01
 -7.9999998E-02   9.9999998E-03   2.3999999E-01
 -7.9999998E-02   9.9999998E-03   2.5999999E-01
 -7.9999998E-02   9.9999998E-03   2.8000000E-01
 -7.9999998E-02   9.9999998E-03   3.0000001E-01
 -7.9999998E-02   9.9999998E-03   3.1999999E-01
 -5.9999999E-02   9.9999998E-03   1.6000000E-01
 -5.9999999E-02   9.9999998E-03   1.8000001E-01
 -5.9999999E-02   9.9999998E-03   2.0000000E-01
 -5.9999999E-02   9.9999998E-03   2.2000000E-01
 -5.9999999E-02   9.9999998E-03   2.3999999E-01
 -5.9999999E-02   9.9999998E-03   2.5999999E-01
 -5.9999999E-02   9.9999998E-03   2.8000000E-01
 -5.9999999E-02   9.9999998E-03   3.0000001E-01
 -5.9999999E-02   9.9999998E-03   3.1999999E-01
 -3.9999999E-02   9.9999998E-03   1.6000000E-01
 -3.9999999E-02   9.9999998E-03   1.8000001E-01
 -3.9999999E-02   9.9999998E-03   2.0000000E-01
 -3.9999999E-02   9.9999998E-03   2.2000000E-01
 -3.9999999E-02   9.9999998E-03   2.3999999E-01
 -3.9999999E-02   9.9999998E-03   2.5999999E-01
 -3.9999999E-02   9.9999998E-03   2.8000000E-01
 -3.9999999E-02   9.9999998E-03   3.0000001E-01
 -3.9999999E-02   9.9999998E-03   3.1999999E-01
 -2.0000000E-02   9.9999998E-03   1.6000000E-01
 -2.0000000E-02   9.9999998E-03   1.8000001E-01
 -2.0000000E-02   9.9999998E-03   2.0000000E-01
 -2.0000000E-02   9.9999998E-03   2.2000000E-01
 -2.0000000E-02   9.9999998E-03   2.3999999E-01
 -2.0000000E-02   9.9999998E-03   2.5999999E-01
 -2.0000000E-02   9.9999998E-03   2.8000000E-01
 -2.0000000E-02   9.9999998E-03   3.0000001E-01
 -2.0000000E-02   9.9999998E-03   3.1999999E-01
  0.0000000E+00   9.9999998E-03   3.0000001E-01
  0.0000000E+00   9.9999998E-03   3.1999999E-01
  2.0000000E-02   9.9999998E-03   3.1999999E-01
  3.9999999E-02   9.9999998E-03   3.1999999E-01
  5.9999999E-02   9.9999998E-03   3.1999999E-01
  7.9999998E-02   9.9999998E-03   3.1999999E-01
  1.0000000E-01   9.9999998E-03   3.1999999E-01
  1.2000000E-01   9.9999998E-03   3.1999999E-01
  1.4000000E-01   9.9999998E-03   3.1999999E-01
  1.6000000E-01   9.9999998E-03   3.1999999E-01
  1.8000001E-01   9.9999998E-03   3.1999999E-01
  2.0000000E-01   9.9999998E-03   3.1999999E-01
 -2.2000000E-01   9.9999998E-03   3.4000000E-01
 -2.2000000E-01   9.9999998E-03   3.6000001E-01
 -2.2000000E-01   9.9999998E-03   3.8000000E-01
 -2.0000000E-01   9.9999998E-03   3.4000000E-01
 -2.0000000E-01   9.9999998E-03   3.6000001E-01
 -2.0000000E-01   9.9999998E-03   3.8000000E-01
 -2.0000000E-01   9.9999998E-03   4.0000001E-01
 -1.8000001E-01   9.9999998E-03   3.4000000E-01
 -1.8000001E-01   9.9999998E-03   3.6000001E-01
 -1.8000001E-01   9.9999998E-03   3.8000000E-01
 -1.8000001E-01   9.9999998E-03   4.0000001E-01
 -1.6000000E-01   9.9999998E-03   3.4000000E-01
 -1.6000000E-01   9.9999998E-03   3.6000001E-01
 -1.6000000E-01   9.9999998E-03   3.8000000E-01
 -1.6000000E-01   9.9999998E-03   4.0000001E-01
 -1.4000000E-01   9.9999998E-03   3.4000000E-01
 -1.4000000E-01   9.9999998E-03   3.6000001E-01
 -1.4000000E-01   9.9999998E-03   3.8000000E-01
 -1.4000000E-01   9.9999998E-03   4.0000001E-01
 -1.2000000E-01   9.9999998E-03   3.4000000E-01
 -1.2000000E-01   9.9999998E-03   3.6000001E-01
 -1.2000000E-01   9.9999998E-03   3.8000000E-01
 -1.2000000E-01   9.9999998E-03   4.0000001E-01
 -1.0000000E-01   9.9999998E-03   3.4000000E-01
 -1.0000000E-01   9.9999998E-03   3.6000001E-01
 -1.0000000E-01   9.9999998E-03   3.8000000E-01
 -1.0000000E-01   9.9999998E-03   4.0000001E-01
 -7.9999998E-02   9.9999998E-03   3.4000000E-01
 -7.9999998E-02   9.9999998E-03   3.6000001E-01
 -7.9999998E-02   9.9999998E-03   3.8000000E-01
 -7.9999998E-02   9.9999998E-03   4.0000001E-01
 -5.9999999E-02   9.9999998E-03   3.4000000E-01
 -5.9999999E-02   9.9999998E-03   3.6000001E-01
 -5.9999999E-02   9.9999998E-03   3.8000000E-01
 -5.9999999E-02   9.9999998E-03   4.0000001E-01
 -3.9999999E-02   9.9999998E-03   3.4000000E-01
 -3.9999999E-02   9.9999998E-03   3.6000001E-01
 -3.9999999E-02   9.9999998E-03   3.8000000E-01
 -3.9999999E-02   9.9999998E-03   4.0000001E-01
 -2.0000000E-02   9.9999998E-03   3.4000000E-01
 -2.0000000E-02   9.9999998E-03   3.6000001E-01
 -2.0000000E-02   9.9999998E-03   3.8000000E-01
 -2.0000000E-02   9.9999998E-03   4.0000001E-01
  0.0000000E+00   9.9999998E-03   3.4000000E-01
  0.0000000E+00   9.9999998E-03   3.6000001E-01
  0.0000000E+00   9.9999998E-03   3.8000000E-01
  0.0000000E+00   9.9999998E-03   4.0000001E-01
  2.0000000E-02   9.9999998E-03   3.4000000E-01
  2.0000000E-02   9.9999998E-03   3.6000001E-01
  2.0000000E-02   9.9999998E-03   3.8000000E-01
  2.0000000E-02   9.9999998E-03   4.0000001E-01
  3.9999999E-02   9.9999998E-03   3.4000000E-01
  3.9999999E-02   9.9999998E-03   3.6000001E-01
  3.9999999E-02   9.9999998E-03   3.8000000E-01
  3.9999999E-02   9.9999998E-03   4.0000001E-01
  5.9999999E-02   9.9999998E-03   3.4000000E-01
  5.9999999E-02   9.9999998E-03   3.6000001E-01
  5.9999999E-02   9.9999998E-03   3.8000000E-01
  5.9999999E-02   9.9999998E-03   4.0000001E-01
  7.9999998E-02   9.9999998E-03   3.4000000E-01
  7.9999998E-02   9.9999998E-03   3.6000001E-01
  7.9999998E-02   9.9999998E-03   3.8000000E-01
  7.9999998E-02   9.9999998E-03   4.0000001E-01
  1.0000000E-01   9.9999998E-03   3.4000000E-01
  1.0000000E-01   9.9999998E-03   3.6000001E-01
  1.0000000E-01   9.9999998E-03   3.8000000E-01
  1.0000000E-01   9.9999998E-03   4.0000001E-01
  1.2000000E-01   9.9999998E-03   3.4000000E-01
  1.2000000E-01   9.9999998E-03   3.6000001E-01
  1.2000000E-01   9.9999998E-03   3.8000000E-01
  1.2000000E-01   9.9999998E-03   4.0000001E-01
  1.4000000E-01   9.9999998E-03   3.4000000E-01
  1.4000000E-01   9.9999998E-03   3.6000001E-01
  1.4000000E-01   9.9999998E-03   3.8000000E-01
  1.4000000E-01   9.9999998E-03   4.0000001E-01
  1.6000000E-01   9.9999998E-03   3.4000000E-01
  1.6000000E-01   9.9999998E-03   3.6000001E-01
  1.6000000E-01   9.9999998E-03   3.8000000E-01
  1.6000000E-01   9.9999998E-03   4.0000001E-01
  1.8000001E-01   9.9999998E-03   3.4000000E-01
  1.8000001E-01   9.9999998E-03   3.6000001E-01
  1.8000001E-01   9.9999998E-03   3.8000000E-01
  1.8000001E-01   9.9999998E-03   4.0000001E-01
  2.0000000E-01   9.9999998E-03   3.4000000E-01
  2.0000000E-01   9.9999998E-03   3.6000001E-01
  2.0000000E-01   9.9999998E-03   3.8000000E-01
  1.9200000E+00   9.9999998E-03  -3.6000001E-01
  1.9200000E+00   9.9999998E-03  -3.4000000E-01
  1.9200000E+00   9.9999998E-03  -3.1999999E-01
  1.9400001E+00   9.9999998E-03  -3.8000000E-01
  1.9400001E+00   9.9999998E-03  -3.6000001E-01
  1.9400001E+00   9.9999998E-03  -3.4000000E-01
  1.9400001E+00   9.9999998E-03  -3.1999999E-01
  1.9400001E+00   9.9999998E-03  -3.0000001E-01
  1.9400001E+00   9.9999998E-03  -2.8000000E-01
  1.9400001E+00   9.9999998E-03  -2.5999999E-01
  1.9400001E+00   9.9999998E-03  -2.3999999E-01
  1.9400001E+00   9.9999998E-03  -2.2000000E-01
  1.9600000E+00   9.9999998E-03  -3.8000000E-01
  1.9600000E+00   9.9999998E-03  -3.6000001E-01
  1.9600000E+00   9.9999998E-03  -3.4000000E-01
  1.9600000E+00   9.9999998E-03  -3.1999999E-01
  1.9600000E+00   9.9999998E-03  -3.0000001E-01
  1.9600000E+00   9.9999998E-03  -2.8000000E-01
  1.9600000E+00   9.9999998E-03  -2.5999999E-01
  1.9600000E+00   9.9999998E-03  -2.3999999E-01
  1.9600000E+00   9.9999998E-03  -2.2000000E-01
  1.9600000E+00   9.9999998E-03  -2.0000000E-01
  1.9600000E+00   9.9999998E-03  -1.8000001E-01
  1.9600000E+00   9.9999998E-03  -1.6000000E-01
  1.9600000E+00   9.9999998E-03  -1.4000000E-01
  1.9600000E+00   9.9999998E-03  -1.2000000E-01
  1.9800000E+00   9.9999998E-03  -3.8000000E-01
  1.9800000E+00   9.9999998E-03  -3.6000001E-01
  1.9800000E+00   9.9999998E-03  -3.4000000E-01
  1.9800000E+00   9.9999998E-03  -3.1999999E-01
  1.9800000E+00   9.9999998E-03  -3.0000001E-01
  1.9800000E+00   9.9999998E-03  -2.8000000E-01
  1.9800000E+00   9.9999998E-03  -2.5999999E-01
  1.9800000E+00   9.9999998E-03  -2.3999999E-01
  1.9800000E+00   9.9999998E-03  -2.2000000E-01
  1.9800000E+00   9.9999998E-03  -2.0000000E-01
  1.9800000E+00   9.9999998E-03  -1.8000001E-01
  1.9800000E+00   9.9999998E-03  -1.6000000E-01
  1.9800000E+00   9.9999998E-03  -1.4000000E-01
  1.9800000E+00   9.9999998E-03  -1.2000000E-01
  1.9800000E+00   9.9999998E-03  -1.0000000E-01
  1.9800000E+00   9.9999998E-03  -7.9999998E-02
  1.9800000E+00   9.9999998E-03  -5.9999999E-02
  1.9800000E+00   9.9999998E-03  -3.9999999E-02
  1.9800000E+00   9.9999998E-03  -2.0000000E-02
  2.0000000E+00   9.9999998E-03  -3.8000000E-01
  2.0000000E+00   9.9999998E-03  -3.6000001E-01
  2.0000000E+00   9.9999998E-03  -3.4000000E-01
  2.0000000E+00   9.9999998E-03  -3.1999999E-01
  2.0000000E+00   9.9999998E-03  -3.0000001E-01
  2.0000000E+00   9.9999998E-03  -2.8000000E-01
  2.0000000E+00   9.9999998E-03  -2.5999999E-01
  2.0000000E+00   9.9999998E-03  -2.3999999E-01
  2.0000000E+00   9.9999998E-03  -2.2000000E-01
  2.0000000E+00   9.9999998E-03  -2.0000000E-01
  2.0000000E+00   9.9999998E-03  -1.8000001E-01
  2.0000000E+00   9.9999998E-03  -1.6000000E-01
  2.0000000E+00   9.9999998E-03  -1.4000000E-01
  2.0000000E+00   9.9999998E-03  -1.2000000E-01
  2.0000000E+00   9.9999998E-03  -1.0000000E-01
  2.0000000E+00   9.9999998E-03  -7.9999998E-02
  2.0000000E+00   9.9999998E-03  -5.9999999E-02
  2.0000000E+00   9.9999998E-03  -3.9999999E-02
  2.0000000E+00   9.9999998E-03  -2.0000000E-02
  2.0000000E+00   9.9999998E-03   0.0000000E+00
  2.0000000E+00   9.9999998E-03   2.0000000E-02
  2.0000000E+00   9.9999998E-03   3.9999999E-02
  2.0000000E+00   9.9999998E-03   5.9999999E-02
  2.0000000E+00   9.9999998E-03   7.9999998E-02
  2.0200000E+00   9.9999998E-03  -4.0000001E-01
  2.0200000E+00   9.9999998E-03  -3.8000000E-01
  2.0200000E+00   9.9999998E-03  -3.6000001E-01
  2.0200000E+00   9.9999998E-03  -3.4000000E-01
  2.0200000E+00   9.9999998E-03  -3.1999999E-01
  2.0200000E+00   9.9999998E-03  -3.0000001E-01
  2.0200000E+00   9.9999998E-03  -2.8000000E-01
  2.0200000E+00   9.9999998E-03  -2.5999999E-01
  2.0200000E+00   9.9999998E-03  -2.3999999E-01
  2.0200000E+00   9.9999998E-03  -2.2000000E-01
  2.0200000E+00   9.9999998E-03  -2.0000000E-01
  2.0200000E+00   9.9999998E-03  -1.8000001E-01
  2.0200000E+00   9.9999998E-03  -1.6000000E-01
  2.0200000E+00   9.9999998E-03  -1.4000000E-01
  2.0200000E+00   9.9999998E-03  -1.2000000E-01
  2.0200000E+00   9.9999998E-03  -1.0000000E-01
  2.0200000E+00   9.9999998E-03  -7.9999998E-02
  2.0200000E+00   9.9999998E-03  -5.9999999E-02
  2.0200000E+00   9.9999998E-03  -3.9999999E-02
  2.0200000E+00   9.9999998E-03  -2.0000000E-02
  2.0200000E+00   9.9999998E-03   0.0000000E+00
  2.0200000E+00   9.9999998E-03   2.0000000E-02
  2.0200000E+00   9.9999998E-03   3.9999999E-02
  2.0200000E+00   9.9999998E-03   5.9999999E-02
  2.0200000E+00   9.9999998E-03   7.9999998E-02
  2.0200000E+00   9.9999998E-03   1.0000000E-01
  2.0200000E+00   9.9999998E-03   1.2000000E-01
  2.0200000E+00   9.9999998E-03   1.4000000E-01
  2.0200000E+00   9.9999998E-03   1.6000000E-01
  2.0200000E+00   9.9999998E-03   1.8000001E-01
  2.0400000E+00   9.9999998E-03  -4.0000001E-01
  2.0400000E+00   9.9999998E-03  -3.8000000E-01
  2.0400000E+00   9.9999998E-03  -3.6000001E-01
  2.0400000E+00   9.9999998E-03  -3.4000000E-01
  2.0400000E+00   9.9999998E-03  -3.1999999E-01
  2.0400000E+00   9.9999998E-03  -3.0000001E-01
  2.0400000E+00   9.9999998E-03  -2.8000000E-01
  2.0400000E+00   9.9999998E-03  -2.5999999E-01
  2.0400000E+00   9.9999998E-03  -2.3999999E-01
  2.0400000E+00   9.9999998E-03  -2.2000000E-01
  2.0400000E+00   9.9999998E-03  -2.0000000E-01
  2.0400000E+00   9.9999998E-03  -1.8000001E-01
  2.0400000E+00   9.9999998E-03  -1.6000000E-01
  2.0400000E+00   9.9999998E-03  -1.4000000E-01
  2.0400000E+00   9.9999998E-03  -1.2000000E-01
  2.0400000E+00   9.9999998E-03  -1.0000000E-01
  2.0400000E+00   9.9999998E-03  -7.9999998E-02
  2.0400000E+00   9.9999998E-03  -5.9999999E-02
  2.0400000E+00   9.9999998E-03  -3.9999999E-02
  2.0400000E+00   9.9999998E-03  -2.0000000E-02
  2.0400000E+00   9.9999998E-03   0.0000000E+00
  2.0400000E+00   9.9999998E-03   2.0000000E-02
  2.0400000E+00   9.9999998E-03   3.9999999E-02
  2.0400000E+00   9.9999998E-03   5.9999999E-02
  2.0400000E+00   9.9999998E-03   7.9999998E-02
  2.0400000E+00   9.9999998E-03   1.0000000E-01
  2.0400000E+00   9.9999998E-03   1.2000000E-01
  2.0400000E+00   9.9999998E-03   1.4000000E-01
  2.0400000E+00   9.9999998E-03   1.6000000E-01
  2.0400000E+00   9.9999998E-03   1.8000001E-01
  2.0400000E+00   9.9999998E-03   2.0000000E-01
  2.0400000E+00   9.9999998E-03   2.2000000E-01
  2.0400000E+00   9.9999998E-03   2.3999999E-01
  2.0400000E+00   9.9999998E-03   2.5999999E-01
  2.0400000E+00   9.9999998E-03   2.8000000E-01
  2.0599999E+00   9.9999998E-03  -4.0000001E-01
  2.0599999E+00   9.9999998E-03  -3.8000000E-01
  2.0599999E+00   9.9999998E-03  -3.6000001E-01
  2.0599999E+00   9.9999998E-03  -3.4000000E-01
  2.0599999E+00   9.9999998E-03  -3.1999999E-01
  2.0599999E+00   9.9999998E-03  -3.0000001E-01
  2.0599999E+00   9.9999998E-03  -2.8000000E-01
  2.0599999E+00   9.9999998E-03  -2.5999999E-01
  2.0599999E+00   9.9999998E-03  -2.3999999E-01
  2.0599999E+00   9.9999998E-03  -2.2000000E-01
  2.0599999E+00   9.9999998E-03  -2.0000000E-01
  2.0599999E+00   9.9999998E-03  -1.8000001E-01
  2.0599999E+00   9.9999998E-03  -1.6000000E-01
  2.0599999E+00   9.9999998E-03  -1.4000000E-01
  2.0599999E+00   9.9999998E-03  -1.2000000E-01
  2.0599999E+00   9.9999998E-03  -1.0000000E-01
  2.0599999E+00   9.9999998E-03  -7.9999998E-02
  2.0599999E+00   9.9999998E-03  -5.9999999E-02
  2.0599999E+00   9.9999998E-03  -3.9999999E-02
  2.0599999E+00   9.9999998E-03  -2.0000000E-02
  2.0599999E+00   9.9999998E-03   0.0000000E+00
  2.0599999E+00   9.9999998E-03   2.0000000E-02
  2.0599999E+00   9.9999998E-03   3.9999999E-02
  2.0599999E+00   9.9999998E-03   5.9999999E-02
  2.0599999E+00   9.9999998E-03   7.9999998E-02
  2.0599999E+00   9.9999998E-03   1.0000000E-01
  2.0599999E+00   9.9999998E-03   1.2000000E-01
  2.0599999E+00   9.9999998E-03   1.4000000E-01
  2.0599999E+00   9.9999998E-03   1.6000000E-01
  2.0599999E+00   9.9999998E-03   1.8000001E-01
  2.0599999E+00   9.9999998E-03   2.0000000E-01
  2.0599999E+00   9.9999998E-03   2.2000000E-01
  2.0599999E+00   9.9999998E-03   2.3999999E-01
  2.0599999E+00   9.9999998E-03   2.5999999E-01
  2.0599999E+00   9.9999998E-03   2.8000000E-01
  2.0599999E+00   9.9999998E-03   3.0000001E-01
  2.0599999E+00   9.9999998E-03   3.1999999E-01
  2.0599999E+00   9.9999998E-03   3.4000000E-01
  2.0599999E+00   9.9999998E-03   3.6000001E-01
  2.0599999E+00   9.9999998E-03   3.8000000E-01
  2.0799999E+00   9.9999998E-03  -4.0000001E-01
  2.0799999E+00   9.9999998E-03  -3.8000000E-01
  2.0799999E+00   9.9999998E-03  -3.6000001E-01
  2.0799999E+00   9.9999998E-03  -3.4000000E-01
  2.0799999E+00   9.9999998E-03  -3.1999999E-01
  2.0799999E+00   9.9999998E-03  -3.0000001E-01
  2.0799999E+00   9.9999998E-03  -2.8000000E-01
  2.0799999E+00   9.9999998E-03  -2.5999999E-01
  2.0799999E+00   9.9999998E-03  -2.3999999E-01
  2.0799999E+00   9.9999998E-03  -2.2000000E-01
  2.0799999E+00   9.9999998E-03  -2.0000000E-01
  2.0799999E+00   9.9999998E-03  -1.8000001E-01
  2.0799999E+00   9.9999998E-03  -1.6000000E-01
  2.0799999E+00   9.9999998E-03  -1.4000000E-01
  2.0799999E+00   9.9999998E-03  -1.2000000E-01
  2.0799999E+00   9.9999998E-03  -1.0000000E-01
  2.0799999E+00   9.9999998E-03  -7.9999998E-02
  2.0799999E+00   9.9999998E-03  -5.9999999E-02
  2.0799999E+00   9.9999998E-03  -3.9999999E-02
  2.0799999E+00   9.9999998E-03  -2.0000000E-02
  2.0799999E+00   9.9999998E-03   0.0000000E+00
  2.0799999E+00   9.9999998E-03   2.0000000E-02
  2.0799999E+00   9.9999998E-03   3.9999999E-02
  2.0799999E+00   9.9999998E-03   5.9999999E-02
  2.0799999E+00   9.9999998E-03   7.9999998E-02
  2.0799999E+00   9.9999998E-03   1.0000000E-01
  2.0799999E+00   9.9999998E-03   1.2000000E-01
  2.0799999E+00   9.9999998E-03   1.4000000E-01
  2.0799999E+00   9.9999998E-03   1.6000000E-01
  2.0799999E+00   9.9999998E-03   1.8000001E-01
  2.0799999E+00   9.9999998E-03   2.0000000E-01
  2.0799999E+00   9.9999998E-03   2.2000000E-01
  2.0799999E+00   9.9999998E-03   2.3999999E-01
  2.0799999E+00   9.9999998E-03   2.5999999E-01
  2.0799999E+00   9.9999998E-03   2.8000000E-01
  2.0799999E+00   9.9999998E-03   3.0000001E-01
  2.0799999E+00   9.9999998E-03   3.1999999E-01
  2.0799999E+00   9.9999998E-03   3.4000000E-01
  2.0799999E+00   9.9999998E-03   3.6000001E-01
  2.0799999E+00   9.9999998E-03   3.8000000E-01
  2.0799999E+00   9.9999998E-03   4.0000001E-01
  2.0999999E+00   9.9999998E-03  -4.0000001E-01
  2.0999999E+00   9.9999998E-03  -3.8000000E-01
  2.0999999E+00   9.9999998E-03  -3.6000001E-01
  2.0999999E+00   9.9999998E-03  -3.4000000E-01
  2.0999999E+00   9.9999998E-03  -3.1999999E-01
  2.0999999E+00   9.9999998E-03  -3.0000001E-01
  2.0999999E+00   9.9999998E-03  -2.8000000E-01
  2.0999999E+00   9.9999998E-03  -2.5999999E-01
  2.0999999E+00   9.9999998E-03  -2.3999999E-01
  2.0999999E+00   9.9999998E-03  -2.2000000E-01
  2.0999999E+00   9.9999998E-03  -2.0000000E-01
  2.0999999E+00   9.9999998E-03  -1.8000001E-01
  2.0999999E+00   9.9999998E-03  -1.6000000E-01
  2.0999999E+00   9.9999998E-03  -1.4000000E-01
  2.0999999E+00   9.9999998E-03  -1.2000000E-01
  2.0999999E+00   9.9999998E-03  -1.0000000E-01
  2.0999999E+00   9.9999998E-03  -7.9999998E-02
  2.0999999E+00   9.9999998E-03  -5.9999999E-02
  2.0999999E+00   9.9999998E-03  -3.9999999E-02
  2.0999999E+00   9.9999998E-03  -2.0000000E-02
  2.0999999E+00   9.9999998E-03   0.0000000E+00
  2.0999999E+00   9.9999998E-03   2.0000000E-02
  2.0999999E+00   9.9999998E-03   3.9999999E-02
  2.0999999E+00   9.9999998E-03   5.9999999E-02
  2.0999999E+00   9.9999998E-03   7.9999998E-02
  2.0999999E+00   9.9999998E-03   1.0000000E-01
  2.0999999E+00   9.9999998E-03   1.2000000E-01
  2.0999999E+00   9.9999998E-03   1.4000000E-01
  2.0999999E+00   9.9999998E-03   1.6000000E-01
  2.0999999E+00   9.9999998E-03   1.8000001E-01
  2.0999999E+00   9.9999998E-03   2.0000000E-01
  2.0999999E+00   9.9999998E-03   2.2000000E-01
  2.0999999E+00   9.9999998E-03   2.3999999E-01
  2.0999999E+00   9.9999998E-03   2.5999999E-01
  2.0999999E+00   9.9999998E-03   2.8000000E-01
  2.0999999E+00   9.9999998E-03   3.0000001E-01
  2.0999999E+00   9.9999998E-03   3.1999999E-01
  2.0999999E+00   9.9999998E-03   3.4000000E-01
  2.0999999E+00   9.9999998E-03   3.6000001E-01
  2.0999999E+00   9.9999998E-03   3.8000000E-01
  2.0999999E+00   9.9999998E-03   4.0000001E-01
  2.1199999E+00   9.9999998E-03  -4.1999999E-01
  2.1199999E+00   9.9999998E-03  -4.0000001E-01
  2.1199999E+00   9.9999998E-03  -3.8000000E-01
  2.1199999E+00   9.9999998E-03  -3.6000001E-01
  2.1199999E+00   9.9999998E-03  -3.4000000E-01
  2.1199999E+00   9.9999998E-03  -3.1999999E-01
  2.1199999E+00   9.9999998E-03  -3.0000001E-01
  2.1199999E+00   9.9999998E-03  -2.8000000E-01
  2.1199999E+00   9.9999998E-03  -2.5999999E-01
  2.1199999E+00   9.9999998E-03  -2.3999999E-01
  2.1199999E+00   9.9999998E-03  -2.2000000E-01
  2.1199999E+00   9.9999998E-03  -2.0000000E-01
  2.1199999E+00   9.9999998E-03  -1.8000001E-01
  2.1199999E+00   9.9999998E-03  -1.6000000E-01
  2.1199999E+00   9.9999998E-03  -1.4000000E-01
  2.1199999E+00   9.9999998E-03  -1.2000000E-01
  2.1199999E+00   9.9999998E-03  -1.0000000E-01
  2.1199999E+00   9.9999998E-03  -7.9999998E-02
  2.1199999E+00   9.9999998E-03  -5.9999999E-02
  2.1199999E+00   9.9999998E-03  -3.9999999E-02
  2.1199999E+00   9.9999998E-03  -2.0000000E-02
  2.1199999E+00   9.9999998E-03   0.0000000E+00
  2.1199999E+00   9.9999998E-03   2.0000000E-02
  2.1199999E+00   9.9999998E-03   3.9999999E-02
  2.1199999E+00   9.9999998E-03   5.9999999E-02
  2.1199999E+00   9.9999998E-03   7.9999998E-02
  2.1199999E+00   9.9999998E-03   1.0000000E-01
  2.1199999E+00   9.9999998E-03   1.2000000E-01
  2.1199999E+00   9.9999998E-03   1.4000000E-01
  2.1199999E+00   9.9999998E-03   1.6000000E-01
  2.1199999E+00   9.9999998E-03   1.8000001E-01
  2.1199999E+00   9.9999998E-03   2.0000000E-01
  2.1199999E+00   9.9999998E-03   2.2000000E-01
  2.1199999E+00   9.9999998E-03   2.3999999E-01
  2.1199999E+00   9.9999998E-03   2.5999999E-01
  2.1199999E+00   9.9999998E-03   2.8000000E-01
  2.1199999E+00   9.9999998E-03   3.0000001E-01
  2.1199999E+00   9.9999998E-03   3.1999999E-01
  2.1199999E+00   9.9999998E-03   3.4000000E-01
  2.1199999E+00   9.9999998E-03   3.6000001E-01
  2.1199999E+00   9.9999998E-03   3.8000000E-01
  2.1199999E+00   9.9999998E-03   4.0000001E-01
  2.1400001E+00   9.9999998E-03  -3.8000000E-01
  2.1400001E+00   9.9999998E-03  -3.6000001E-01
  2.1400001E+00   9.9999998E-03  -3.4000000E-01
  2.1400001E+00   9.9999998E-03  -3.1999999E-01
  2.1400001E+00   9.9999998E-03  -3.0000001E-01
  2.1400001E+00   9.9999998E-03  -2.8000000E-01
  2.1400001E+00   9.9999998E-03  -2.5999999E-01
  2.1400001E+00   9.9999998E-03  -2.3999999E-01
  2.1400001E+00   9.9999998E-03  -2.2000000E-01
  2.1400001E+00   9.9999998E-03  -2.0000000E-01
  2.1400001E+00   9.9999998E-03  -1.8000001E-01
  2.1400001E+00   9.9999998E-03  -1.6000000E-01
  2.1400001E+00   9.9999998E-03  -1.4000000E-01
  2.1400001E+00   9.9999998E-03  -1.2000000E-01
  2.1400001E+00   9.9999998E-03  -1.0000000E-01
  2.1400001E+00   9.9999998E-03  -7.9999998E-02
  2.1400001E+00   9.9999998E-03  -5.9999999E-02
  2.1400001E+00   9.9999998E-03  -3.9999999E-02
  2.1400001E+00   9.9999998E-03  -2.0000000E-02
  2.1400001E+00   9.9999998E-03   0.0000000E+00
  2.1400001E+00   9.9999998E-03   2.0000000E-02
  2.1400001E+00   9.9999998E-03   3.9999999E-02
  2.1400001E+00   9.9999998E-03   5.9999999E-02
  2.1400001E+00   9.9999998E-03   7.9999998E-02
  2.1400001E+00   9.9999998E-03   1.0000000E-01
  2.1400001E+00   9.9999998E-03   1.2000000E-01
  2.1400001E+00   9.9999998E-03   1.4000000E-01
  2.1400001E+00   9.9999998E-03   1.6000000E-01
  2.1400001E+00   9.9999998E-03   1.8000001E-01
  2.1400001E+00   9.9999998E-03   2.0000000E-01
  2.1400001E+00   9.9999998E-03   2.2000000E-01
  2.1400001E+00   9.9999998E-03   2.3999999E-01
  2.1400001E+00   9.9999998E-03   2.5999999E-01
  2.1400001E+00   9.9999998E-03   2.8000000E-01
  2.1400001E+00   9.9999998E-03   3.0000001E-01
  2.1400001E+00   9.9999998E-03   3.1999999E-01
  2.1400001E+00   9.9999998E-03   3.4000000E-01
  2.1400001E+00   9.9999998E-03   3.6000001E-01
  2.1400001E+00   9.9999998E-03   3.8000000E-01
  2.1400001E+00   9.9999998E-03   4.0000001E-01
  2.1600001E+00   9.9999998E-03  -2.8000000E-01
  2.1600001E+00   9.9999998E-03  -2.5999999E-01
  2.1600001E+00   9.9999998E-03  -2.3999999E-01
  2.1600001E+00   9.9999998E-03  -2.2000000E-01
  2.1600001E+00   9.9999998E-03  -2.0000000E-01
  2.1600001E+00   9.9999998E-03  -1.8000001E-01
  2.1600001E+00   9.9999998E-03  -1.6000000E-01
  2.1600001E+00   9.9999998E-03  -1.4000000E-01
  2.1600001E+00   9.9999998E-03  -1.2000000E-01
  2.1600001E+00   9.9999998E-03  -1.0000000E-01
  2.1600001E+00   9.9999998E-03  -7.9999998E-02
  2.1600001E+00   9.9999998E-03  -5.9999999E-02
  2.1600001E+00   9.9999998E-03  -3.9999999E-02
  2.1600001E+00   9.9999998E-03  -2.0000000E-02
  2.1600001E+00   9.9999998E-03   0.0000000E+00
  2.1600001E+00   9.9999998E-03   2.0000000E-02
  2.1600001E+00   9.9999998E-03   3.9999999E-02
  2.1600001E+00   9.9999998E-03   5.9999999E-02
  2.1600001E+00   9.9999998E-03   7.9999998E-02
  2.1600001E+00   9.9999998E-03   1.0000000E-01
  2.1600001E+00   9.9999998E-03   1.2000000E-01
  2.1600001E+00   9.9999998E-03   1.4000000E-01
  2.1600001E+00   9.9999998E-03   1.6000000E-01
  2.1600001E+00   9.9999998E-03   1.8000001E-01
  2.1600001E+00   9.9999998E-03   2.0000000E-01
  2.1600001E+00   9.9999998E-03   2.2000000E-01
  2.1600001E+00   9.9999998E-03   2.3999999E-01
  2.1600001E+00   9.9999998E-03   2.5999999E-01
  2.1600001E+00   9.9999998E-03   2.8000000E-01
  2.1600001E+00   9.9999998E-03   3.0000001E-01
  2.1600001E+00   9.9999998E-03   3.1999999E-01
  2.1600001E+00   9.9999998E-03   3.4000000E-01
  2.1600001E+00   9.9999998E-03   3.6000001E-01
  2.1600001E+00   9.9999998E-03   3.8000000E-01
  2.1600001E+00   9.9999998E-03   4.0000001E-01
  2.1800001E+00   9.9999998E-03  -1.8000001E-01
  2.1800001E+00   9.9999998E-03  -1.6000000E-01
  2.1800001E+00   9.9999998E-03  -1.4000000E-01
  2.1800001E+00   9.9999998E-03  -1.2000000E-01
  2.1800001E+00   9.9999998E-03  -1.0000000E-01
  2.1800001E+00   9.9999998E-03  -7.9999998E-02
  2.1800001E+00   9.9999998E-03  -5.9999999E-02
  2.1800001E+00   9.9999998E-03  -3.9999999E-02
  2.1800001E+00   9.9999998E-03  -2.0000000E-02
  2.1800001E+00   9.9999998E-03   0.0000000E+00
  2.1800001E+00   9.9999998E-03   2.0000000E-02
  2.1800001E+00   9.9999998E-03   3.9999999E-02
  2.1800001E+00   9.9999998E-03   5.9999999E-02
  2.1800001E+00   9.9999998E-03   7.9999998E-02
  2.1800001E+00   9.9999998E-03   1.0000000E-01
  2.1800001E+00   9.9999998E-03   1.2000000E-01
  2.1800001E+00   9.9999998E-03   1.4000000E-01
  2.1800001E+00   9.9999998E-03   1.6000000E-01
  2.1800001E+00   9.9999998E-03   1.8000001E-01
  2.1800001E+00   9.9999998E-03   2.0000000E-01
  2.1800001E+00   9.9999998E-03   2.2000000E-01
  2.1800001E+00   9.9999998E-03   2.3999999E-01
  2.1800001E+00   9.9999998E-03   2.5999999E-01
  2.1800001E+00   9.9999998E-03   2.8000000E-01
  2.1800001E+00   9.9999998E-03   3.0000001E-01
  2.1800001E+00   9.9999998E-03   3.1999999E-01
  2.1800001E+00   9.9999998E-03   3.4000000E-01
  2.1800001E+00   9.9999998E-03   3.6000001E-01
  2.1800001E+00   9.9999998E-03   3.8000000E-01
  2.1800001E+00   9.9999998E-03   4.0000001E-01
  2.2000000E+00   9.9999998E-03  -7.9999998E-02
  2.2000000E+00   9.9999998E-03  -5.9999999E-02
  2.2000000E+00   9.9999998E-03  -3.9999999E-02
  2.2000000E+00   9.9999998E-03  -2.0000000E-02
  2.2000000E+00   9.9999998E-03   0.0000000E+00
  2.2000000E+00   9.9999998E-03   2.0000000E-02
  2.2000000E+00   9.9999998E-03   3.9999999E-02
  2.2000000E+00   9.9999998E-03   5.9999999E-02
  2.2000000E+00   9.9999998E-03   7.9999998E-02
  2.2000000E+00   9.9999998E-03   1.0000000E-01
  2.2000000E+00   9.9999998E-03   1.2000000E-01
  2.2000000E+00   9.9999998E-03   1.4000000E-01
  2.2000000E+00   9.9999998E-03   1.6000000E-01
  2.2000000E+00   9.9999998E-03   1.8000001E-01
  2.2000000E+00   9.9999998E-03   2.0000000E-01
  2.2000000E+00   9.9999998E-03   2.2000000E-01
  2.2000000E+00   9.9999998E-03   2.3999999E-01
  2.2000000E+00   9.9999998E-03   2.5999999E-01
  2.2000000E+00   9.9999998E-03   2.8000000E-01
  2.2000000E+00   9.9999998E-03   3.0000001E-01
  2.2000000E+00   9.9999998E-03   3.1999999E-01
  2.2000000E+00   9.9999998E-03   3.4000000E-01
  2.2000000E+00   9.9999998E-03   3.6000001E-01
  2.2000000E+00   9.9999998E-03   3.8000000E-01
  2.2200000E+00   9.9999998E-03   2.0000000E-02
  2.2200000E+00   9.9999998E-03   3.9999999E-02
  2.2200000E+00   9.9999998E-03   5.9999999E-02
  2.2200000E+00   9.9999998E-03   7.9999998E-02
  2.2200000E+00   9.9999998E-03   1.0000000E-01
  2.2200000E+00   9.9999998E-03   1.2000000E-01
  2.2200000E+00   9.9999998E-03   1.4000000E-01
  2.2200000E+00   9.9999998E-03   1.6000000E-01
  2.2200000E+00   9.9999998E-03   1.8000001E-01
  2.2200000E+00   9.9999998E-03   2.0000000E-01
  2.2200000E+00   9.9999998E-03   2.2000000E-01
  2.2200000E+00   9.9999998E-03   2.3999999E-01
  2.2200000E+00   9.9999998E-03   2.5999999E-01
  2.2200000E+00   9.9999998E-03   2.8000000E-01
  2.2200000E+00   9.9999998E-03   3.0000001E-01
  2.2200000E+00   9.9999998E-03   3.1999999E-01
  2.2200000E+00   9.9999998E-03   3.4000000E-01
  2.2200000E+00   9.9999998E-03   3.6000001E-01
  2.2200000E+00   9.9999998E-03   3.8000000E-01
  2.2400000E+00   9.9999998E-03   1.2000000E-01
  2.2400000E+00   9.9999998E-03   1.4000000E-01
  2.2400000E+00   9.9999998E-03   1.6000000E-01
  2.2400000E+00   9.9999998E-03   1.8000001E-01
  2.2400000E+00   9.9999998E-03   2.0000000E-01
  2.2400000E+00   9.9999998E-03   2.2000000E-01
  2.2400000E+00   9.9999998E-03   2.3999999E-01
  2.2400000E+00   9.9999998E-03   2.5999999E-01
  2.2400000E+00   9.9999998E-03   2.8000000E-01
  2.2400000E+00   9.9999998E-03   3.0000001E-01
  2.2400000E+00   9.9999998E-03   3.1999999E-01
  2.2400000E+00   9.9999998E-03   3.4000000E-01
  2.2400000E+00   9.9999998E-03   3.6000001E-01
  2.2400000E+00   9.9999998E-03   3.8000000E-01
  2.2600000E+00   9.9999998E-03   2.2000000E-01
  2.2600000E+00   9.9999998E-03   2.3999999E-01
  2.2600000E+00   9.9999998E-03   2.5999999E-01
  2.2600000E+00   9.9999998E-03   2.8000000E-01
  2.2600000E+00   9.9999998E-03   3.0000001E-01
  2.2600000E+00   9.9999998E-03   3.1999999E-01
  2.2600000E+00   9.9999998E-03   3.4000000E-01
  2.2600000E+00   9.9999998E-03   3.6000001E-01
  2.2600000E+00   9.9999998E-03   3.8000000E-01
  2.2800000E+00   9.9999998E-03   3.1999999E-01
  2.2800000E+00   9.9999998E-03   3.4000000E-01
  2.2800000E+00   9.9999998E-03   3.6000001E-01
 -8.2231162E-07   9.9999998E-03  -2.8000033E-01
 -9.9790634E-07   9.9999998E-03  -2.6000029E-01
 -1.1459506E-06   9.9999998E-03  -2.4000028E-01
 -1.2610280E-06   9.9999998E-03  -2.2000024E-01
 -1.3465647E-06   9.9999998E-03  -2.0000020E-01
  1.9999167E-02   9.9999998E-03  -3.0000043E-01
  1.9998843E-02   9.9999998E-03  -2.8000039E-01
  1.9998565E-02   9.9999998E-03  -2.6000038E-01
  1.9998342E-02   9.9999998E-03  -2.4000037E-01
  1.9998174E-02   9.9999998E-03  -2.2000031E-01
  1.9998053E-02   9.9999998E-03  -2.0000027E-01
  3.9998822E-02   9.9999998E-03  -3.0000049E-01
  3.9998367E-02   9.9999998E-03  -2.8000048E-01
  3.9997980E-02   9.9999998E-03  -2.6000047E-01
  3.9997663E-02   9.9999998E-03  -2.4000043E-01
  3.9997432E-02   9.9999998E-03  -2.2000037E-01
  3.9997268E-02   9.9999998E-03  -2.0000032E-01
  5.9998386E-02   9.9999998E-03  -3.0000055E-01
  5.9997771E-02   9.9999998E-03  -2.8000054E-01
  5.9997257E-02   9.9999998E-03  -2.6000053E-01
  5.9996843E-02   9.9999998E-03  -2.4000047E-01
  5.9996542E-02   9.9999998E-03  -2.2000042E-01
  5.9996333E-02   9.9999998E-03  -2.0000035E-01
  7.9997852E-02   9.9999998E-03  -3.0000061E-01
  7.9997048E-02   9.9999998E-03  -2.8000057E-01
  7.9996392E-02   9.9999998E-03  -2.6000056E-01
  7.9995871E-02   9.9999998E-03  -2.4000052E-01
  7.9995498E-02   9.9999998E-03  -2.2000045E-01
  7.9995245E-02   9.9999998E-03  -2.0000038E-01
  9.9997193E-02   9.9999998E-03  -3.0000070E-01
  9.9996172E-02   9.9999998E-03  -2.8000063E-01
  9.9995352E-02   9.9999998E-03  -2.6000059E-01
  9.9994719E-02   9.9999998E-03  -2.4000055E-01
  9.9994272E-02   9.9999998E-03  -2.2000048E-01
  9.9993981E-02   9.9999998E-03  -2.0000041E-01
  1.1999636E-01   9.9999998E-03  -3.0000082E-01
  1.1999509E-01   9.9999998E-03  -2.8000069E-01
  1.1999409E-01   9.9999998E-03  -2.6000065E-01
  1.1999334E-01   9.9999998E-03  -2.4000058E-01
  1.1999283E-01   9.9999998E-03  -2.2000051E-01
  1.1999250E-01   9.9999998E-03  -2.0000042E-01
  1.3999531E-01   9.9999998E-03  -3.0000100E-01
  1.3999374E-01   9.9999998E-03  -2.8000081E-01
  1.3999256E-01   9.9999998E-03  -2.6000071E-01
  1.3999169E-01   9.9999998E-03  -2.4000062E-01
  1.3999109E-01   9.9999998E-03  -2.2000055E-01
  1.3999073E-01   9.9999998E-03  -2.0000046E-01
  1.5999395E-01   9.9999998E-03  -3.0000120E-01
  1.5999208E-01   9.9999998E-03  -2.8000093E-01
  1.5999068E-01   9.9999998E-03  -2.6000080E-01
  1.5998968E-01   9.9999998E-03  -2.4000071E-01
  1.5998903E-01   9.9999998E-03  -2.2000062E-01
  1.5998864E-01   9.9999998E-03  -2.0000052E-01
  1.7999215E-01   9.9999998E-03  -3.0000138E-01
  1.7999001E-01   9.9999998E-03  -2.8000110E-01
  1.7998841E-01   9.9999998E-03  -2.6000097E-01
  1.7998727E-01   9.9999998E-03  -2.4000086E-01
  1.7998655E-01   9.9999998E-03  -2.2000076E-01
  1.7998615E-01   9.9999998E-03  -2.0000064E-01
  1.9998977E-01   9.9999998E-03  -3.0000150E-01
  1.9998740E-01   9.9999998E-03  -2.8000131E-01
  1.9998564E-01   9.9999998E-03  -2.6000118E-01
  1.9998437E-01   9.9999998E-03  -2.4000108E-01
  1.9998360E-01   9.9999998E-03  -2.2000098E-01
  1.9998319E-01   9.9999998E-03  -2.0000085E-01
  2.1998690E-01   9.9999998E-03  -3.0000234E-01
  2.1998419E-01   9.9999998E-03  -2.8000179E-01
  2.1998225E-01   9.9999998E-03  -2.6000157E-01
  2.1998090E-01   9.9999998E-03  -2.4000143E-01
  2.1998009E-01   9.9999998E-03  -2.2000131E-01
  2.1997970E-01   9.9999998E-03  -2.0000115E-01
  2.3998313E-01   9.9999998E-03  -3.0000490E-01
  2.3998018E-01   9.9999998E-03  -2.8000334E-01
  2.3997813E-01   9.9999998E-03  -2.6000252E-01
  2.3997670E-01   9.9999998E-03  -2.4000208E-01
  2.3997591E-01   9.9999998E-03  -2.2000183E-01
  2.3997557E-01   9.9999998E-03  -2.0000158E-01
  2.5997797E-01   9.9999998E-03  -3.0000767E-01
  2.5997505E-01   9.9999998E-03  -2.8000554E-01
  2.5997302E-01   9.9999998E-03  -2.6000401E-01
  2.5997165E-01   9.9999998E-03  -2.4000314E-01
  2.5997096E-01   9.9999998E-03  -2.2000264E-01
  2.5997069E-01   9.9999998E-03  -2.0000219E-01
  2.7997151E-01   9.9999998E-03  -3.0001003E-01
  2.7996877E-01   9.9999998E-03  -2.8000775E-01
  2.7996686E-01   9.9999998E-03  -2.6000577E-01
  2.7996564E-01   9.9999998E-03  -2.4000451E-01
  2.7996510E-01   9.9999998E-03  -2.2000366E-01
  2.7996495E-01   9.9999998E-03  -2.0000300E-01
  2.9996398E-01   9.9999998E-03  -3.0001220E-01
  2.9996142E-01   9.9999998E-03  -2.8000981E-01
  2.9995966E-01   9.9999998E-03  -2.6000762E-01
  2.9995862E-01   9.9999998E-03  -2.4000603E-01
  2.9995820E-01   9.9999998E-03  -2.2000487E-01
  2.9995823E-01   9.9999998E-03  -2.0000394E-01
  3.1995562E-01   9.9999998E-03  -3.0001447E-01
  3.1995308E-01   9.9999998E-03  -2.8001186E-01
  3.1995139E-01   9.9999998E-03  -2.6000950E-01
  3.1995046E-01   9.9999998E-03  -2.4000765E-01
  3.1995016E-01   9.9999998E-03  -2.2000620E-01
  3.1995034E-01   9.9999998E-03  -2.0000499E-01
  3.3994636E-01   9.9999998E-03  -3.0001691E-01
  3.3994365E-01   9.9999998E-03  -2.8001407E-01
  3.3994186E-01   9.9999998E-03  -2.6001146E-01
  3.3994097E-01   9.9999998E-03  -2.4000937E-01
  3.3994079E-01   9.9999998E-03  -2.2000764E-01
  3.3994114E-01   9.9999998E-03  -2.0000617E-01
  3.5993588E-01   9.9999998E-03  -3.0001968E-01
  3.5993281E-01   9.9999998E-03  -2.8001651E-01
  3.5993087E-01   9.9999998E-03  -2.6001361E-01
  3.5992995E-01   9.9999998E-03  -2.4001123E-01
  3.5992989E-01   9.9999998E-03  -2.2000921E-01
  3.5993046E-01   9.9999998E-03  -2.0000744E-01
  3.7992382E-01   9.9999998E-03  -3.0002290E-01
  3.7992030E-01   9.9999998E-03  -2.8001928E-01
  3.7991813E-01   9.9999998E-03  -2.6001599E-01
  3.7991717E-01   9.9999998E-03  -2.4001327E-01
  3.7991723E-01   9.9999998E-03  -2.2001091E-01
  3.7991804E-01   9.9999998E-03  -2.0000881E-01
  3.9990976E-01   9.9999998E-03  -3.0002660E-01
  3.9990574E-01   9.9999998E-03  -2.8002250E-01
  3.9990336E-01   9.9999998E-03  -2.6001871E-01
  3.9990240E-01   9.9999998E-03  -2.4001555E-01
  3.9990261E-01   9.9999998E-03  -2.2001278E-01
  3.9990368E-01   9.9999998E-03  -2.0001030E-01
  4.1989341E-01   9.9999998E-03  -3.0003098E-01
  4.1988885E-01   9.9999998E-03  -2.8002620E-01
  4.1988623E-01   9.9999998E-03  -2.6002178E-01
  4.1988528E-01   9.9999998E-03  -2.4001810E-01
  4.1988569E-01   9.9999998E-03  -2.2001486E-01
  4.1988713E-01   9.9999998E-03  -2.0001198E-01
  4.3987435E-01   9.9999998E-03  -3.0003610E-01
  4.3986923E-01   9.9999998E-03  -2.8003055E-01
  4.3986636E-01   9.9999998E-03  -2.6002532E-01
  4.3986547E-01   9.9999998E-03  -2.4002096E-01
  4.3986619E-01   9.9999998E-03  -2.2001719E-01
  4.3986809E-01   9.9999998E-03  -2.0001391E-01
  4.5985204E-01   9.9999998E-03  -3.0004224E-01
  4.5984635E-01   9.9999998E-03  -2.8003564E-01
  4.5984331E-01   9.9999998E-03  -2.6002932E-01
  4.5984256E-01   9.9999998E-03  -2.4002418E-01
  4.5984370E-01   9.9999998E-03  -2.2001991E-01
  4.5984623E-01   9.9999998E-03  -2.0001626E-01
  4.7982574E-01   9.9999998E-03  -3.0004963E-01
  4.7981957E-01   9.9999998E-03  -2.8004169E-01
  4.7981650E-01   9.9999998E-03  -2.6003391E-01
  4.7981611E-01   9.9999998E-03  -2.4002790E-01
  4.7981787E-01   9.9999998E-03  -2.2002320E-01
  4.7982118E-01   9.9999998E-03  -2.0001931E-01
  4.9979448E-01   9.9999998E-03  -3.0005863E-01
  4.9978819E-01   9.9999998E-03  -2.8004885E-01
  4.9978542E-01   9.9999998E-03  -2.6003921E-01
  4.9978569E-01   9.9999998E-03  -2.4003243E-01
  4.9978828E-01   9.9999998E-03  -2.2002749E-01
  4.9979261E-01   9.9999998E-03  -2.0002356E-01
  5.1975703E-01   9.9999998E-03  -3.0006969E-01
  5.1975143E-01   9.9999998E-03  -2.8005749E-01
  5.1974964E-01   9.9999998E-03  -2.6004568E-01
  5.1975101E-01   9.9999998E-03  -2.4003839E-01
  5.1975477E-01   9.9999998E-03  -2.2003353E-01
  5.1976031E-01   9.9999998E-03  -2.0002972E-01
  5.3971231E-01   9.9999998E-03  -3.0008346E-01
  5.3970897E-01   9.9999998E-03  -2.8006825E-01
  5.3970903E-01   9.9999998E-03  -2.6005417E-01
  5.3971219E-01   9.9999998E-03  -2.4004681E-01
  5.3971750E-01   9.9999998E-03  -2.2004233E-01
  5.3972441E-01   9.9999998E-03  -2.0003870E-01
  5.5966026E-01   9.9999998E-03  -3.0010086E-01
  5.5966121E-01   9.9999998E-03  -2.8008232E-01
  5.5966455E-01   9.9999998E-03  -2.6006615E-01
  5.5967009E-01   9.9999998E-03  -2.4005896E-01
  5.5967730E-01   9.9999998E-03  -2.2005507E-01
  5.5968571E-01   9.9999998E-03  -2.0005140E-01
  5.7960290E-01   9.9999998E-03  -3.0012351E-01
  5.7961041E-01   9.9999998E-03  -2.8010178E-01
  5.7961816E-01   9.9999998E-03  -2.6008359E-01
  5.7962662E-01   9.9999998E-03  -2.4007632E-01
  5.7963592E-01   9.9999998E-03  -2.2007267E-01
  5.7964575E-01   9.9999998E-03  -2.0006838E-01
  5.9954524E-01   9.9999998E-03  -3.0015391E-01
  5.9956032E-01   9.9999998E-03  -2.8012991E-01
  5.9957284E-01   9.9999998E-03  -2.6010925E-01
  5.9958422E-01   9.9999998E-03  -2.4010012E-01
  5.9959543E-01   9.9999998E-03  -2.2009508E-01
  5.9960657E-01   9.9999998E-03  -2.0008919E-01
  6.1949408E-01   9.9999998E-03  -3.0019575E-01
  6.1951518E-01   9.9999998E-03  -2.8017116E-01
  6.1953074E-01   9.9999998E-03  -2.6014617E-01
  6.1954457E-01   9.9999998E-03  -2.4013148E-01
  6.1955768E-01   9.9999998E-03  -2.2012223E-01
  6.1957014E-01   9.9999998E-03  -2.0011321E-01
  6.3945591E-01   9.9999998E-03  -3.0025175E-01
  6.3947910E-01   9.9999998E-03  -2.8022850E-01
  6.3949633E-01   9.9999998E-03  -2.6020202E-01
  6.3951057E-01   9.9999998E-03  -2.4017558E-01
  6.3952440E-01   9.9999998E-03  -2.2015546E-01
  6.3953853E-01   9.9999998E-03  -2.0014116E-01
  6.5943515E-01   9.9999998E-03  -3.0031717E-01
  6.5945745E-01   9.9999998E-03  -2.8029567E-01
  6.5947604E-01   9.9999998E-03  -2.6027581E-01
  6.5948999E-01   9.9999998E-03  -2.4024019E-01
  6.5950257E-01   9.9999998E-03  -2.2020362E-01
  6.5951663E-01   9.9999998E-03  -2.0017791E-01
  6.7944193E-01   9.9999998E-03  -3.0037841E-01
  6.7945570E-01   9.9999998E-03  -2.8035754E-01
  6.7947423E-01   9.9999998E-03  -2.6034746E-01
  6.7948723E-01   9.9999998E-03  -2.4031451E-01
  6.7949694E-01   9.9999998E-03  -2.2026548E-01
  6.7950922E-01   9.9999998E-03  -2.0022681E-01
  6.9952238E-01   9.9999998E-03  -3.0042478E-01
  6.9949800E-01   9.9999998E-03  -2.8040546E-01
  6.9950384E-01   9.9999998E-03  -2.6040599E-01
  6.9951397E-01   9.9999998E-03  -2.4038091E-01
  6.9951910E-01   9.9999998E-03  -2.2033206E-01
  6.9952786E-01   9.9999998E-03  -2.0028621E-01
  7.1966892E-01   9.9999998E-03  -3.0045947E-01
  7.1963608E-01   9.9999998E-03  -2.8043836E-01
  7.1961325E-01   9.9999998E-03  -2.6044160E-01
  7.1960163E-01   9.9999998E-03  -2.4042609E-01
  7.1959931E-01   9.9999998E-03  -2.2038552E-01
  7.1960586E-01   9.9999998E-03  -2.0034119E-01
  7.3979884E-01   9.9999998E-03  -3.0048493E-01
  7.3977625E-01   9.9999998E-03  -2.8045788E-01
  7.3975945E-01   9.9999998E-03  -2.6045379E-01
  7.3974830E-01   9.9999998E-03  -2.4043722E-01
  7.3974407E-01   9.9999998E-03  -2.2039941E-01
  7.3974687E-01   9.9999998E-03  -2.0035733E-01
  7.5989562E-01   9.9999998E-03  -3.0050290E-01
  7.5988209E-01   9.9999998E-03  -2.8047070E-01
  7.5987226E-01   9.9999998E-03  -2.6045844E-01
  7.5986463E-01   9.9999998E-03  -2.4043910E-01
  7.5986075E-01   9.9999998E-03  -2.2040273E-01
  7.5986081E-01   9.9999998E-03  -2.0036298E-01
  7.7996391E-01   9.9999998E-03  -3.0051446E-01
  7.7995825E-01   9.9999998E-03  -2.8047904E-01
  7.7995431E-01   9.9999998E-03  -2.6046070E-01
  7.7995032E-01   9.9999998E-03  -2.4043874E-01
  7.7994740E-01   9.9999998E-03  -2.2040251E-01
  7.7994603E-01   9.9999998E-03  -2.0036373E-01
  8.0001748E-01   9.9999998E-03  -3.0052021E-01
  8.0001861E-01   9.9999998E-03  -2.8048348E-01
  8.0001926E-01   9.9999998E-03  -2.6046214E-01
  8.0001879E-01   9.9999998E-03  -2.4043837E-01
  8.0001712E-01   9.9999998E-03  -2.2040114E-01
  8.0001509E-01   9.9999998E-03  -2.0036159E-01
  8.2006943E-01   9.9999998E-03  -3.0052033E-01
  8.2007670E-01   9.9999998E-03  -2.8048384E-01
  8.2008082E-01   9.9999998E-03  -2.6046261E-01
  8.2008326E-01   9.9999998E-03  -2.4043785E-01
  8.2008284E-01   9.9999998E-03  -2.2039883E-01
  8.2008022E-01   9.9999998E-03  -2.0035729E-01
  8.4012622E-01   9.9999998E-03  -3.0051357E-01
  8.4013891E-01   9.9999998E-03  -2.8047797E-01
  8.4014577E-01   9.9999998E-03  -2.6045772E-01
  8.4015054E-01   9.9999998E-03  -2.4043302E-01
  8.4015113E-01   9.9999998E-03  -2.2039293E-01
  8.4014750E-01   9.9999998E-03  -2.0035037E-01
  8.6018664E-01   9.9999998E-03  -3.0050042E-01
  8.6020440E-01   9.9999998E-03  -2.8046593E-01
  8.6021340E-01   9.9999998E-03  -2.6044655E-01
  8.6021996E-01   9.9999998E-03  -2.4042246E-01
  8.6022127E-01   9.9999998E-03  -2.2038254E-01
  8.6021602E-01   9.9999998E-03  -2.0034027E-01
  8.8024586E-01   9.9999998E-03  -3.0048174E-01
  8.8026804E-01   9.9999998E-03  -2.8044847E-01
  8.8027859E-01   9.9999998E-03  -2.6042947E-01
  8.8028681E-01   9.9999998E-03  -2.4040607E-01
  8.8028842E-01   9.9999998E-03  -2.2036749E-01
  8.8028139E-01   9.9999998E-03  -2.0032661E-01
  9.0029883E-01   9.9999998E-03  -3.0045840E-01
  9.0032440E-01   9.9999998E-03  -2.8042653E-01
  9.0033537E-01   9.9999998E-03  -2.6040712E-01
  9.0034461E-01   9.9999998E-03  -2.4038400E-01
  9.0034676E-01   9.9999998E-03  -2.2034734E-01
  9.0033859E-01   9.9999998E-03  -2.0030940E-01
  9.2034149E-01   9.9999998E-03  -3.0043140E-01
  9.2036855E-01   9.9999998E-03  -2.8040096E-01
  9.2037994E-01   9.9999998E-03  -2.6038092E-01
  9.2038906E-01   9.9999998E-03  -2.4035743E-01
  9.2039168E-01   9.9999998E-03  -2.2032282E-01
  9.2038101E-01   9.9999998E-03  -2.0028922E-01
  9.4037163E-01   9.9999998E-03  -3.0040166E-01
  9.4039977E-01   9.9999998E-03  -2.8037280E-01
  9.4041157E-01   9.9999998E-03  -2.6035270E-01
  9.4041896E-01   9.9999998E-03  -2.4032842E-01
  9.4041276E-01   9.9999998E-03  -2.2029753E-01
  9.4039351E-01   9.9999998E-03  -2.0026754E-01
  9.6039295E-01   9.9999998E-03  -3.0037007E-01
  9.6042097E-01   9.9999998E-03  -2.8034300E-01
  9.6043193E-01   9.9999998E-03  -2.6032311E-01
  9.6043175E-01   9.9999998E-03  -2.4030061E-01
  9.6041530E-01   9.9999998E-03  -2.2027348E-01
  9.6039319E-01   9.9999998E-03  -2.0024519E-01
  9.8041123E-01   9.9999998E-03  -3.0033788E-01
  9.8043698E-01   9.9999998E-03  -2.8031236E-01
  9.8044342E-01   9.9999998E-03  -2.6029360E-01
  9.8043323E-01   9.9999998E-03  -2.4027430E-01
  9.8041260E-01   9.9999998E-03  -2.2024934E-01
  9.8038894E-01   9.9999998E-03  -2.0022327E-01
  1.0004318E+00   9.9999998E-03  -3.0030620E-01
  1.0004507E+00   9.9999998E-03  -2.8028172E-01
  1.0004481E+00   9.9999998E-03  -2.6026526E-01
  1.0004314E+00   9.9999998E-03  -2.4024867E-01
  1.0004072E+00   9.9999998E-03  -2.2022517E-01
  1.0003825E+00   9.9999998E-03  -2.0020282E-01
  1.0204589E+00   9.9999998E-03  -3.0027595E-01
  1.0204641E+00   9.9999998E-03  -2.8025252E-01
  1.0204511E+00   9.9999998E-03  -2.6023850E-01
  1.0204289E+00   9.9999998E-03  -2.4022396E-01
  1.0204012E+00   9.9999998E-03  -2.2020316E-01
  1.0203755E+00   9.9999998E-03  -2.0018423E-01
  1.0404967E+00   9.9999998E-03  -3.0024764E-01
  1.0404807E+00   9.9999998E-03  -2.8022707E-01
  1.0404550E+00   9.9999998E-03  -2.6021427E-01
  1.0404265E+00   9.9999998E-03  -2.4020146E-01
  1.0403957E+00   9.9999998E-03  -2.2018334E-01
  1.0403677E+00   9.9999998E-03  -2.0016631E-01
  1.0605346E+00   9.9999998E-03  -3.0022222E-01
  1.0604993E+00   9.9999998E-03  -2.8020653E-01
  1.0604619E+00   9.9999998E-03  -2.6019445E-01
  1.0604252E+00   9.9999998E-03  -2.4018227E-01
  1.0603911E+00   9.9999998E-03  -2.2016540E-01
  1.0603602E+00   9.9999998E-03  -2.0014955E-01
  1.0805564E+00   9.9999998E-03  -3.0020198E-01
  1.0805128E+00   9.9999998E-03  -2.8018931E-01
  1.0804682E+00   9.9999998E-03  -2.6017696E-01
  1.0804251E+00   9.9999998E-03  -2.4016498E-01
  1.0803875E+00   9.9999998E-03  -2.2014958E-01
  1.0803535E+00   9.9999998E-03  -2.0013404E-01
  1.1005182E+00   9.9999998E-03  -2.8017375E-01
  1.1004715E+00   9.9999998E-03  -2.6016060E-01
  1.1004267E+00   9.9999998E-03  -2.4014935E-01
  1.1003853E+00   9.9999998E-03  -2.2013514E-01
  1.1003484E+00   9.9999998E-03  -2.0012008E-01
  1.1205157E+00   9.9999998E-03  -2.8016078E-01
  1.1204733E+00   9.9999998E-03  -2.6014769E-01
  1.1204290E+00   9.9999998E-03  -2.4013574E-01
  1.1203855E+00   9.9999998E-03  -2.2012255E-01
  1.1203452E+00   9.9999998E-03  -2.0010768E-01
  1.1404727E+00   9.9999998E-03  -2.6013938E-01
  1.1404315E+00   9.9999998E-03  -2.4012637E-01
  1.1403888E+00   9.9999998E-03  -2.2011383E-01
  1.1403452E+00   9.9999998E-03  -2.0009835E-01
  1.1604674E+00   9.9999998E-03  -2.6013336E-01
  1.1604342E+00   9.9999998E-03  -2.4012242E-01
  1.1603943E+00   9.9999998E-03  -2.2010913E-01
  1.1603506E+00   9.9999998E-03  -2.0009395E-01
  1.1804322E+00   9.9999998E-03  -2.4012019E-01
  1.1803993E+00   9.9999998E-03  -2.2010829E-01
  1.1803595E+00   9.9999998E-03  -2.0009422E-01
  1.2003996E+00   9.9999998E-03  -2.2010832E-01
  1.2003683E+00   9.9999998E-03  -2.0009689E-01
  1.2203875E+00   9.9999998E-03  -2.2010347E-01
  1.2203701E+00   9.9999998E-03  -2.0009878E-01
 -1.4061185E-06   9.9999998E-03  -1.8000016E-01
 -1.4455096E-06   9.9999998E-03  -1.6000012E-01
 -1.4689513E-06   9.9999998E-03  -1.4000009E-01
 -1.4812491E-06   9.9999998E-03  -1.2000007E-01
 -1.4861196E-06   9.9999998E-03  -1.0000005E-01
 -1.4864854E-06   9.9999998E-03  -8.0000035E-02
 -1.4847240E-06   9.9999998E-03  -6.0000021E-02
 -1.4823855E-06   9.9999998E-03  -4.0000014E-02
 -1.4805837E-06   9.9999998E-03  -2.0000005E-02
  1.9997971E-02   9.9999998E-03  -1.8000022E-01
  1.9997921E-02   9.9999998E-03  -1.6000018E-01
  1.9997893E-02   9.9999998E-03  -1.4000013E-01
  1.9997878E-02   9.9999998E-03  -1.2000009E-01
  1.9997876E-02   9.9999998E-03  -1.0000007E-01
  1.9997878E-02   9.9999998E-03  -8.0000050E-02
  1.9997882E-02   9.9999998E-03  -6.0000032E-02
  1.9997887E-02   9.9999998E-03  -4.0000018E-02
  1.9997891E-02   9.9999998E-03  -2.0000009E-02
  3.9997160E-02   9.9999998E-03  -1.8000026E-01
  3.9997097E-02   9.9999998E-03  -1.6000021E-01
  3.9997064E-02   9.9999998E-03  -1.4000015E-01
  3.9997052E-02   9.9999998E-03  -1.2000012E-01
  3.9997049E-02   9.9999998E-03  -1.0000008E-01
  3.9997056E-02   9.9999998E-03  -8.0000058E-02
  3.9997067E-02   9.9999998E-03  -6.0000040E-02
  3.9997075E-02   9.9999998E-03  -4.0000021E-02
  3.9997078E-02   9.9999998E-03  -2.0000011E-02
  5.9996203E-02   9.9999998E-03  -1.8000029E-01
  5.9996124E-02   9.9999998E-03  -1.6000022E-01
  5.9996087E-02   9.9999998E-03  -1.4000018E-01
  5.9996076E-02   9.9999998E-03  -1.2000013E-01
  5.9996083E-02   9.9999998E-03  -1.0000009E-01
  5.9996095E-02   9.9999998E-03  -8.0000065E-02
  5.9996109E-02   9.9999998E-03  -6.0000043E-02
  5.9996124E-02   9.9999998E-03  -4.0000025E-02
  5.9996132E-02   9.9999998E-03  -2.0000013E-02
  7.9995096E-02   9.9999998E-03  -1.8000031E-01
  7.9995006E-02   9.9999998E-03  -1.6000023E-01
  7.9994969E-02   9.9999998E-03  -1.4000018E-01
  7.9994969E-02   9.9999998E-03  -1.2000014E-01
  7.9994977E-02   9.9999998E-03  -1.0000010E-01
  7.9994999E-02   9.9999998E-03  -8.0000065E-02
  7.9995021E-02   9.9999998E-03  -6.0000043E-02
  7.9995044E-02   9.9999998E-03  -4.0000025E-02
  7.9995058E-02   9.9999998E-03  -2.0000013E-02
  9.9993810E-02   9.9999998E-03  -1.8000032E-01
  9.9993728E-02   9.9999998E-03  -1.6000025E-01
  9.9993698E-02   9.9999998E-03  -1.4000019E-01
  9.9993698E-02   9.9999998E-03  -1.2000014E-01
  9.9993728E-02   9.9999998E-03  -1.0000010E-01
  9.9993758E-02   9.9999998E-03  -8.0000073E-02
  9.9993788E-02   9.9999998E-03  -6.0000047E-02
  9.9993818E-02   9.9999998E-03  -4.0000029E-02
  9.9993832E-02   9.9999998E-03  -2.0000013E-02
  1.1999232E-01   9.9999998E-03  -1.8000035E-01
  1.1999223E-01   9.9999998E-03  -1.6000026E-01
  1.1999221E-01   9.9999998E-03  -1.4000021E-01
  1.1999223E-01   9.9999998E-03  -1.2000015E-01
  1.1999228E-01   9.9999998E-03  -1.0000011E-01
  1.1999232E-01   9.9999998E-03  -8.0000073E-02
  1.1999237E-01   9.9999998E-03  -6.0000047E-02
  1.1999241E-01   9.9999998E-03  -4.0000029E-02
  1.1999243E-01   9.9999998E-03  -2.0000013E-02
  1.3999055E-01   9.9999998E-03  -1.8000038E-01
  1.3999048E-01   9.9999998E-03  -1.6000029E-01
  1.3999048E-01   9.9999998E-03  -1.4000022E-01
  1.3999052E-01   9.9999998E-03  -1.2000017E-01
  1.3999058E-01   9.9999998E-03  -1.0000012E-01
  1.3999066E-01   9.9999998E-03  -8.0000080E-02
  1.3999072E-01   9.9999998E-03  -6.0000055E-02
  1.3999076E-01   9.9999998E-03  -4.0000033E-02
  1.3999079E-01   9.9999998E-03  -2.0000016E-02
  1.5998846E-01   9.9999998E-03  -1.8000044E-01
  1.5998840E-01   9.9999998E-03  -1.6000035E-01
  1.5998843E-01   9.9999998E-03  -1.4000027E-01
  1.5998851E-01   9.9999998E-03  -1.2000021E-01
  1.5998860E-01   9.9999998E-03  -1.0000015E-01
  1.5998869E-01   9.9999998E-03  -8.0000103E-02
  1.5998878E-01   9.9999998E-03  -6.0000069E-02
  1.5998884E-01   9.9999998E-03  -4.0000040E-02
  1.5998888E-01   9.9999998E-03  -2.0000020E-02
  1.7998599E-01   9.9999998E-03  -1.8000054E-01
  1.7998596E-01   9.9999998E-03  -1.6000044E-01
  1.7998601E-01   9.9999998E-03  -1.4000034E-01
  1.7998613E-01   9.9999998E-03  -1.2000027E-01
  1.7998625E-01   9.9999998E-03  -1.0000020E-01
  1.7998639E-01   9.9999998E-03  -8.0000140E-02
  1.7998649E-01   9.9999998E-03  -6.0000092E-02
  1.7998658E-01   9.9999998E-03  -4.0000055E-02
  1.7998664E-01   9.9999998E-03  -2.0000026E-02
  1.9998305E-01   9.9999998E-03  -1.8000072E-01
  1.9998308E-01   9.9999998E-03  -1.6000059E-01
  1.9998318E-01   9.9999998E-03  -1.4000046E-01
  1.9998334E-01   9.9999998E-03  -1.2000035E-01
  1.9998352E-01   9.9999998E-03  -1.0000026E-01
  1.9998369E-01   9.9999998E-03  -8.0000192E-02
  1.9998382E-01   9.9999998E-03  -6.0000129E-02
  1.9998394E-01   9.9999998E-03  -4.0000077E-02
  1.9998400E-01   9.9999998E-03  -2.0000037E-02
  2.1997960E-01   9.9999998E-03  -1.8000098E-01
  2.1997967E-01   9.9999998E-03  -1.6000080E-01
  2.1997985E-01   9.9999998E-03  -1.4000064E-01
  2.1998006E-01   9.9999998E-03  -1.2000050E-01
  2.1998030E-01   9.9999998E-03  -1.0000037E-01
  2.1998051E-01   9.9999998E-03  -8.0000266E-02
  2.1998070E-01   9.9999998E-03  -6.0000177E-02
  2.1998084E-01   9.9999998E-03  -4.0000111E-02
  2.1998093E-01   9.9999998E-03  -2.0000054E-02
  2.3997554E-01   9.9999998E-03  -1.8000133E-01
  2.3997568E-01   9.9999998E-03  -1.6000110E-01
  2.3997593E-01   9.9999998E-03  -1.4000088E-01
  2.3997623E-01   9.9999998E-03  -1.2000068E-01
  2.3997653E-01   9.9999998E-03  -1.0000050E-01
  2.3997679E-01   9.9999998E-03  -8.0000363E-02
  2.3997703E-01   9.9999998E-03  -6.0000245E-02
  2.3997720E-01   9.9999998E-03  -4.0000152E-02
  2.3997730E-01   9.9999998E-03  -2.0000072E-02
  2.5997075E-01   9.9999998E-03  -1.8000183E-01
  2.5997099E-01   9.9999998E-03  -1.6000147E-01
  2.5997132E-01   9.9999998E-03  -1.4000118E-01
  2.5997171E-01   9.9999998E-03  -1.2000090E-01
  2.5997210E-01   9.9999998E-03  -1.0000067E-01
  2.5997245E-01   9.9999998E-03  -8.0000482E-02
  2.5997275E-01   9.9999998E-03  -6.0000326E-02
  2.5997296E-01   9.9999998E-03  -4.0000200E-02
  2.5997308E-01   9.9999998E-03  -2.0000096E-02
  2.7996513E-01   9.9999998E-03  -1.8000244E-01
  2.7996549E-01   9.9999998E-03  -1.6000195E-01
  2.7996597E-01   9.9999998E-03  -1.4000154E-01
  2.7996644E-01   9.9999998E-03  -1.2000117E-01
  2.7996695E-01   9.9999998E-03  -1.0000087E-01
  2.7996737E-01   9.9999998E-03  -8.0000617E-02
  2.7996773E-01   9.9999998E-03  -6.0000420E-02
  2.7996799E-01   9.9999998E-03  -4.0000260E-02
  2.7996817E-01   9.9999998E-03  -2.0000122E-02
  2.9995856E-01   9.9999998E-03  -1.8000317E-01
  2.9995906E-01   9.9999998E-03  -1.6000250E-01
  2.9995969E-01   9.9999998E-03  -1.4000195E-01
  2.9996032E-01   9.9999998E-03  -1.2000148E-01
  2.9996094E-01   9.9999998E-03  -1.0000109E-01
  2.9996148E-01   9.9999998E-03  -8.0000773E-02
  2.9996192E-01   9.9999998E-03  -6.0000524E-02
  2.9996225E-01   9.9999998E-03  -4.0000323E-02
  2.9996243E-01   9.9999998E-03  -2.0000152E-02
  3.1995085E-01   9.9999998E-03  -1.8000399E-01
  3.1995156E-01   9.9999998E-03  -1.6000314E-01
  3.1995237E-01   9.9999998E-03  -1.4000243E-01
  3.1995317E-01   9.9999998E-03  -1.2000182E-01
  3.1995392E-01   9.9999998E-03  -1.0000134E-01
  3.1995460E-01   9.9999998E-03  -8.0000944E-02
  3.1995514E-01   9.9999998E-03  -6.0000636E-02
  3.1995556E-01   9.9999998E-03  -4.0000390E-02
  3.1995580E-01   9.9999998E-03  -2.0000184E-02
  3.3994186E-01   9.9999998E-03  -1.8000491E-01
  3.3994281E-01   9.9999998E-03  -1.6000383E-01
  3.3994383E-01   9.9999998E-03  -1.4000294E-01
  3.3994484E-01   9.9999998E-03  -1.2000220E-01
  3.3994579E-01   9.9999998E-03  -1.0000160E-01
  3.3994663E-01   9.9999998E-03  -8.0001123E-02
  3.3994728E-01   9.9999998E-03  -6.0000751E-02
  3.3994779E-01   9.9999998E-03  -4.0000457E-02
  3.3994809E-01   9.9999998E-03  -2.0000216E-02
  3.5993144E-01   9.9999998E-03  -1.8000589E-01
  3.5993263E-01   9.9999998E-03  -1.6000459E-01
  3.5993394E-01   9.9999998E-03  -1.4000349E-01
  3.5993519E-01   9.9999998E-03  -1.2000259E-01
  3.5993639E-01   9.9999998E-03  -1.0000187E-01
  3.5993737E-01   9.9999998E-03  -8.0001310E-02
  3.5993820E-01   9.9999998E-03  -6.0000874E-02
  3.5993880E-01   9.9999998E-03  -4.0000532E-02
  3.5993916E-01   9.9999998E-03  -2.0000251E-02
  3.7991932E-01   9.9999998E-03  -1.8000697E-01
  3.7992087E-01   9.9999998E-03  -1.6000539E-01
  3.7992248E-01   9.9999998E-03  -1.4000410E-01
  3.7992406E-01   9.9999998E-03  -1.2000303E-01
  3.7992549E-01   9.9999998E-03  -1.0000218E-01
  3.7992671E-01   9.9999998E-03  -8.0001526E-02
  3.7992769E-01   9.9999998E-03  -6.0001019E-02
  3.7992844E-01   9.9999998E-03  -4.0000618E-02
  3.7992886E-01   9.9999998E-03  -2.0000292E-02
  3.9990532E-01   9.9999998E-03  -1.8000814E-01
  3.9990726E-01   9.9999998E-03  -1.6000630E-01
  3.9990929E-01   9.9999998E-03  -1.4000478E-01
  3.9991120E-01   9.9999998E-03  -1.2000354E-01
  3.9991295E-01   9.9999998E-03  -1.0000256E-01
  3.9991444E-01   9.9999998E-03  -8.0001801E-02
  3.9991564E-01   9.9999998E-03  -6.0001206E-02
  3.9991650E-01   9.9999998E-03  -4.0000737E-02
  3.9991704E-01   9.9999998E-03  -2.0000350E-02
  4.1988921E-01   9.9999998E-03  -1.8000948E-01
  4.1989166E-01   9.9999998E-03  -1.6000737E-01
  4.1989413E-01   9.9999998E-03  -1.4000562E-01
  4.1989648E-01   9.9999998E-03  -1.2000420E-01
  4.1989863E-01   9.9999998E-03  -1.0000307E-01
  4.1990042E-01   9.9999998E-03  -8.0002189E-02
  4.1990185E-01   9.9999998E-03  -6.0001489E-02
  4.1990289E-01   9.9999998E-03  -4.0000923E-02
  4.1990352E-01   9.9999998E-03  -2.0000441E-02
  4.3987074E-01   9.9999998E-03  -1.8001109E-01
  4.3987375E-01   9.9999998E-03  -1.6000871E-01
  4.3987682E-01   9.9999998E-03  -1.4000675E-01
  4.3987969E-01   9.9999998E-03  -1.2000514E-01
  4.3988225E-01   9.9999998E-03  -1.0000384E-01
  4.3988442E-01   9.9999998E-03  -8.0002792E-02
  4.3988612E-01   9.9999998E-03  -6.0001943E-02
  4.3988737E-01   9.9999998E-03  -4.0001225E-02
  4.3988812E-01   9.9999998E-03  -2.0000594E-02
  4.5984960E-01   9.9999998E-03  -1.8001316E-01
  4.5985332E-01   9.9999998E-03  -1.6001056E-01
  4.5985705E-01   9.9999998E-03  -1.4000838E-01
  4.5986053E-01   9.9999998E-03  -1.2000654E-01
  4.5986360E-01   9.9999998E-03  -1.0000502E-01
  4.5986620E-01   9.9999998E-03  -8.0003761E-02
  4.5986822E-01   9.9999998E-03  -6.0002681E-02
  4.5986968E-01   9.9999998E-03  -4.0001724E-02
  4.5987058E-01   9.9999998E-03  -2.0000843E-02
  4.7982541E-01   9.9999998E-03  -1.8001603E-01
  4.7983000E-01   9.9999998E-03  -1.6001323E-01
  4.7983453E-01   9.9999998E-03  -1.4001080E-01
  4.7983870E-01   9.9999998E-03  -1.2000869E-01
  4.7984236E-01   9.9999998E-03  -1.0000687E-01
  4.7984540E-01   9.9999998E-03  -8.0005281E-02
  4.7984779E-01   9.9999998E-03  -6.0003843E-02
  4.7984952E-01   9.9999998E-03  -4.0002514E-02
  4.7985056E-01   9.9999998E-03  -2.0001244E-02
  4.9979785E-01   9.9999998E-03  -1.8002018E-01
  4.9980345E-01   9.9999998E-03  -1.6001718E-01
  4.9980888E-01   9.9999998E-03  -1.4001445E-01
  4.9981382E-01   9.9999998E-03  -1.2001195E-01
  4.9981815E-01   9.9999998E-03  -1.0000966E-01
  4.9982169E-01   9.9999998E-03  -8.0007568E-02
  4.9982449E-01   9.9999998E-03  -6.0005601E-02
  4.9982649E-01   9.9999998E-03  -4.0003706E-02
  4.9982768E-01   9.9999998E-03  -2.0001845E-02
  5.1976675E-01   9.9999998E-03  -1.8002628E-01
  5.1977336E-01   9.9999998E-03  -1.6002300E-01
  5.1977980E-01   9.9999998E-03  -1.4001982E-01
  5.1978558E-01   9.9999998E-03  -1.2001672E-01
  5.1979059E-01   9.9999998E-03  -1.0001374E-01
  5.1979476E-01   9.9999998E-03  -8.0010898E-02
  5.1979792E-01   9.9999998E-03  -6.0008135E-02
  5.1980025E-01   9.9999998E-03  -4.0005416E-02
  5.1980162E-01   9.9999998E-03  -2.0002710E-02
  5.3973210E-01   9.9999998E-03  -1.8003505E-01
  5.3973985E-01   9.9999998E-03  -1.6003129E-01
  5.3974730E-01   9.9999998E-03  -1.4002736E-01
  5.3975397E-01   9.9999998E-03  -1.2002335E-01
  5.3975970E-01   9.9999998E-03  -1.0001936E-01
  5.3976440E-01   9.9999998E-03  -8.0015436E-02
  5.3976810E-01   9.9999998E-03  -6.0011577E-02
  5.3977066E-01   9.9999998E-03  -4.0007729E-02
  5.3977221E-01   9.9999998E-03  -2.0003872E-02
  5.5969459E-01   9.9999998E-03  -1.8004721E-01
  5.5970347E-01   9.9999998E-03  -1.6004258E-01
  5.5971187E-01   9.9999998E-03  -1.4003755E-01
  5.5971944E-01   9.9999998E-03  -1.2003223E-01
  5.5972594E-01   9.9999998E-03  -1.0002684E-01
  5.5973125E-01   9.9999998E-03  -8.0021456E-02
  5.5973536E-01   9.9999998E-03  -6.0016092E-02
  5.5973828E-01   9.9999998E-03  -4.0010735E-02
  5.5974001E-01   9.9999998E-03  -2.0005373E-02
  5.7965583E-01   9.9999998E-03  -1.8006322E-01
  5.7966572E-01   9.9999998E-03  -1.6005711E-01
  5.7967502E-01   9.9999998E-03  -1.4005041E-01
  5.7968342E-01   9.9999998E-03  -1.2004334E-01
  5.7969064E-01   9.9999998E-03  -1.0003608E-01
  5.7969654E-01   9.9999998E-03  -8.0028810E-02
  5.7970107E-01   9.9999998E-03  -6.0021572E-02
  5.7970428E-01   9.9999998E-03  -4.0014386E-02
  5.7970625E-01   9.9999998E-03  -2.0007202E-02
  5.9961772E-01   9.9999998E-03  -1.8008220E-01
  5.9962875E-01   9.9999998E-03  -1.6007444E-01
  5.9963912E-01   9.9999998E-03  -1.4006592E-01
  5.9964830E-01   9.9999998E-03  -1.2005669E-01
  5.9965616E-01   9.9999998E-03  -1.0004712E-01
  5.9966254E-01   9.9999998E-03  -8.0037534E-02
  5.9966749E-01   9.9999998E-03  -6.0028080E-02
  5.9967107E-01   9.9999998E-03  -4.0018737E-02
  5.9967327E-01   9.9999998E-03  -2.0009389E-02
  6.1958271E-01   9.9999998E-03  -1.8010414E-01
  6.1959499E-01   9.9999998E-03  -1.6009460E-01
  6.1960620E-01   9.9999998E-03  -1.4008386E-01
  6.1961609E-01   9.9999998E-03  -1.2007205E-01
  6.1962444E-01   9.9999998E-03  -1.0005982E-01
  6.1963135E-01   9.9999998E-03  -8.0047645E-02
  6.1963677E-01   9.9999998E-03  -6.0035616E-02
  6.1964071E-01   9.9999998E-03  -4.0023755E-02
  6.1964309E-01   9.9999998E-03  -2.0011907E-02
  6.3955271E-01   9.9999998E-03  -1.8012922E-01
  6.3956594E-01   9.9999998E-03  -1.6011716E-01
  6.3957781E-01   9.9999998E-03  -1.4010359E-01
  6.3958818E-01   9.9999998E-03  -1.2008863E-01
  6.3959712E-01   9.9999998E-03  -1.0007321E-01
  6.3960463E-01   9.9999998E-03  -8.0058083E-02
  6.3961047E-01   9.9999998E-03  -6.0043365E-02
  6.3961470E-01   9.9999998E-03  -4.0028956E-02
  6.3961726E-01   9.9999998E-03  -2.0014523E-02
  6.5953106E-01   9.9999998E-03  -1.8015975E-01
  6.5954471E-01   9.9999998E-03  -1.6014397E-01
  6.5955669E-01   9.9999998E-03  -1.4012694E-01
  6.5956718E-01   9.9999998E-03  -1.2010816E-01
  6.5957636E-01   9.9999998E-03  -1.0008906E-01
  6.5958416E-01   9.9999998E-03  -8.0070555E-02
  6.5959036E-01   9.9999998E-03  -6.0052745E-02
  6.5959483E-01   9.9999998E-03  -4.0035237E-02
  6.5959746E-01   9.9999998E-03  -2.0017680E-02
  6.7952317E-01   9.9999998E-03  -1.8020065E-01
  6.7953658E-01   9.9999998E-03  -1.6017973E-01
  6.7954826E-01   9.9999998E-03  -1.4015819E-01
  6.7955846E-01   9.9999998E-03  -1.2013479E-01
  6.7956740E-01   9.9999998E-03  -1.0011101E-01
  6.7957509E-01   9.9999998E-03  -8.0087990E-02
  6.7958128E-01   9.9999998E-03  -6.0065869E-02
  6.7958581E-01   9.9999998E-03  -4.0044148E-02
  6.7958856E-01   9.9999998E-03  -2.0022200E-02
  6.9954002E-01   9.9999998E-03  -1.8025263E-01
  6.9955218E-01   9.9999998E-03  -1.6022553E-01
  6.9956231E-01   9.9999998E-03  -1.4019720E-01
  6.9957089E-01   9.9999998E-03  -1.2016657E-01
  6.9957882E-01   9.9999998E-03  -1.0013602E-01
  6.9958609E-01   9.9999998E-03  -8.0106996E-02
  6.9959205E-01   9.9999998E-03  -6.0079601E-02
  6.9959641E-01   9.9999998E-03  -4.0053125E-02
  6.9959903E-01   9.9999998E-03  -2.0026699E-02
  7.1961683E-01   9.9999998E-03  -1.8030348E-01
  7.1962875E-01   9.9999998E-03  -1.6027158E-01
  7.1963996E-01   9.9999998E-03  -1.4023633E-01
  7.1965015E-01   9.9999998E-03  -1.2019776E-01
  7.1965927E-01   9.9999998E-03  -1.0016008E-01
  7.1966696E-01   9.9999998E-03  -8.0125093E-02
  7.1967310E-01   9.9999998E-03  -6.0092688E-02
  7.1967763E-01   9.9999998E-03  -4.0061712E-02
  7.1968043E-01   9.9999998E-03  -2.0030968E-02
  7.3975354E-01   9.9999998E-03  -1.8032081E-01
  7.3976135E-01   9.9999998E-03  -1.6028865E-01
  7.3976922E-01   9.9999998E-03  -1.4025205E-01
  7.3977649E-01   9.9999998E-03  -1.2021164E-01
  7.3978299E-01   9.9999998E-03  -1.0017197E-01
  7.3978853E-01   9.9999998E-03  -8.0134884E-02
  7.3979300E-01   9.9999998E-03  -6.0100269E-02
  7.3979634E-01   9.9999998E-03  -4.0066916E-02
  7.3979843E-01   9.9999998E-03  -2.0033630E-02
  7.5986344E-01   9.9999998E-03  -1.8032856E-01
  7.5986719E-01   9.9999998E-03  -1.6029748E-01
  7.5987130E-01   9.9999998E-03  -1.4026107E-01
  7.5987536E-01   9.9999998E-03  -1.2022016E-01
  7.5987911E-01   9.9999998E-03  -1.0017958E-01
  7.5988239E-01   9.9999998E-03  -8.0141343E-02
  7.5988513E-01   9.9999998E-03  -6.0105387E-02
  7.5988722E-01   9.9999998E-03  -4.0070496E-02
  7.5988853E-01   9.9999998E-03  -2.0035475E-02
  7.7994603E-01   9.9999998E-03  -1.8033081E-01
  7.7994680E-01   9.9999998E-03  -1.6030091E-01
  7.7994794E-01   9.9999998E-03  -1.4026506E-01
  7.7994931E-01   9.9999998E-03  -1.2022422E-01
  7.7995068E-01   9.9999998E-03  -1.0018340E-01
  7.7995193E-01   9.9999998E-03  -8.0144726E-02
  7.7995312E-01   9.9999998E-03  -6.0108166E-02
  7.7995408E-01   9.9999998E-03  -4.0072493E-02
  7.7995467E-01   9.9999998E-03  -2.0036526E-02
  8.0001318E-01   9.9999998E-03  -1.8032937E-01
  8.0001169E-01   9.9999998E-03  -1.6030030E-01
  8.0001050E-01   9.9999998E-03  -1.4026505E-01
  8.0000961E-01   9.9999998E-03  -1.2022458E-01
  8.0000895E-01   9.9999998E-03  -1.0018399E-01
  8.0000854E-01   9.9999998E-03  -8.0145434E-02
  8.0000830E-01   9.9999998E-03  -6.0108870E-02
  8.0000824E-01   9.9999998E-03  -4.0073067E-02
  8.0000824E-01   9.9999998E-03  -2.0036850E-02
  8.2007664E-01   9.9999998E-03  -1.8032517E-01
  8.2007307E-01   9.9999998E-03  -1.6029656E-01
  8.2006979E-01   9.9999998E-03  -1.4026184E-01
  8.2006687E-01   9.9999998E-03  -1.2022193E-01
  8.2006449E-01   9.9999998E-03  -1.0018190E-01
  8.2006264E-01   9.9999998E-03  -8.0143891E-02
  8.2006127E-01   9.9999998E-03  -6.0107823E-02
  8.2006031E-01   9.9999998E-03  -4.0072430E-02
  8.2005978E-01   9.9999998E-03  -2.0036552E-02
  8.4014195E-01   9.9999998E-03  -1.8031834E-01
  8.4013623E-01   9.9999998E-03  -1.6029006E-01
  8.4013087E-01   9.9999998E-03  -1.4025591E-01
  8.4012616E-01   9.9999998E-03  -1.2021676E-01
  8.4012222E-01   9.9999998E-03  -1.0017761E-01
  8.4011906E-01   9.9999998E-03  -8.0140509E-02
  8.4011662E-01   9.9999998E-03  -6.0105328E-02
  8.4011489E-01   9.9999998E-03  -4.0070787E-02
  8.4011388E-01   9.9999998E-03  -2.0035734E-02
  8.6020827E-01   9.9999998E-03  -1.8030865E-01
  8.6020017E-01   9.9999998E-03  -1.6028084E-01
  8.6019272E-01   9.9999998E-03  -1.4024746E-01
  8.6018628E-01   9.9999998E-03  -1.2020937E-01
  8.6018091E-01   9.9999998E-03  -1.0017140E-01
  8.6017656E-01   9.9999998E-03  -8.0135539E-02
  8.6017323E-01   9.9999998E-03  -6.0101595E-02
  8.6017084E-01   9.9999998E-03  -4.0068284E-02
  8.6016941E-01   9.9999998E-03  -2.0034477E-02
  8.8027126E-01   9.9999998E-03  -1.8029591E-01
  8.8026083E-01   9.9999998E-03  -1.6026889E-01
  8.8025141E-01   9.9999998E-03  -1.4023659E-01
  8.8024330E-01   9.9999998E-03  -1.2019990E-01
  8.8023663E-01   9.9999998E-03  -1.0016347E-01
  8.8023120E-01   9.9999998E-03  -8.0129169E-02
  8.8022709E-01   9.9999998E-03  -6.0096778E-02
  8.8022411E-01   9.9999998E-03  -4.0065039E-02
  8.8022226E-01   9.9999998E-03  -2.0032836E-02
  9.0032625E-01   9.9999998E-03  -1.8028016E-01
  9.0031368E-01   9.9999998E-03  -1.6025431E-01
  9.0030241E-01   9.9999998E-03  -1.4022347E-01
  9.0029281E-01   9.9999998E-03  -1.2018855E-01
  9.0028489E-01   9.9999998E-03  -1.0015399E-01
  9.0027851E-01   9.9999998E-03  -8.0121554E-02
  9.0027356E-01   9.9999998E-03  -6.0091019E-02
  9.0027004E-01   9.9999998E-03  -4.0061146E-02
  9.0026790E-01   9.9999998E-03  -2.0030867E-02
  9.2036420E-01   9.9999998E-03  -1.8026197E-01
  9.2034781E-01   9.9999998E-03  -1.6023754E-01
  9.2033362E-01   9.9999998E-03  -1.4020845E-01
  9.2032164E-01   9.9999998E-03  -1.2017566E-01
  9.2031163E-01   9.9999998E-03  -1.0014335E-01
  9.2030346E-01   9.9999998E-03  -8.0113150E-02
  9.2029715E-01   9.9999998E-03  -6.0084756E-02
  9.2029262E-01   9.9999998E-03  -4.0056970E-02
  9.2028987E-01   9.9999998E-03  -2.0028772E-02
  9.4037300E-01   9.9999998E-03  -1.8024240E-01
  9.4035488E-01   9.9999998E-03  -1.6021942E-01
  9.4033951E-01   9.9999998E-03  -1.4019223E-01
  9.4032663E-01   9.9999998E-03  -1.2016184E-01
  9.4031596E-01   9.9999998E-03  -1.0013202E-01
  9.4030726E-01   9.9999998E-03  -8.0104224E-02
  9.4030058E-01   9.9999998E-03  -6.0078107E-02
  9.4029582E-01   9.9999998E-03  -4.0052522E-02
  9.4029295E-01   9.9999998E-03  -2.0026525E-02
  9.6037203E-01   9.9999998E-03  -1.8022241E-01
  9.6035343E-01   9.9999998E-03  -1.6020088E-01
  9.6033770E-01   9.9999998E-03  -1.4017567E-01
  9.6032459E-01   9.9999998E-03  -1.2014773E-01
  9.6031368E-01   9.9999998E-03  -1.0012039E-01
  9.6030492E-01   9.9999998E-03  -8.0094926E-02
  9.6029812E-01   9.9999998E-03  -6.0071047E-02
  9.6029335E-01   9.9999998E-03  -4.0047720E-02
  9.6029055E-01   9.9999998E-03  -2.0024091E-02
  9.8036712E-01   9.9999998E-03  -1.8020292E-01
  9.8034817E-01   9.9999998E-03  -1.6018294E-01
  9.8033226E-01   9.9999998E-03  -1.4015967E-01
  9.8031896E-01   9.9999998E-03  -1.2013406E-01
  9.8030806E-01   9.9999998E-03  -1.0010909E-01
  9.8029929E-01   9.9999998E-03  -8.0085896E-02
  9.8029268E-01   9.9999998E-03  -6.0064211E-02
  9.8028797E-01   9.9999998E-03  -4.0043067E-02
  9.8028511E-01   9.9999998E-03  -2.0021705E-02
  1.0003604E+00   9.9999998E-03  -1.8018454E-01
  1.0003412E+00   9.9999998E-03  -1.6016644E-01
  1.0003247E+00   9.9999998E-03  -1.4014515E-01
  1.0003114E+00   9.9999998E-03  -1.2012188E-01
  1.0003005E+00   9.9999998E-03  -1.0009910E-01
  1.0002919E+00   9.9999998E-03  -8.0077909E-02
  1.0002854E+00   9.9999998E-03  -6.0058065E-02
  1.0002807E+00   9.9999998E-03  -4.0038839E-02
  1.0002779E+00   9.9999998E-03  -2.0019533E-02
  1.0203526E+00   9.9999998E-03  -1.8016732E-01
  1.0203329E+00   9.9999998E-03  -1.6015087E-01
  1.0203161E+00   9.9999998E-03  -1.4013164E-01
  1.0203024E+00   9.9999998E-03  -1.2011059E-01
  1.0202916E+00   9.9999998E-03  -1.0008980E-01
  1.0202831E+00   9.9999998E-03  -8.0070473E-02
  1.0202767E+00   9.9999998E-03  -6.0052440E-02
  1.0202721E+00   9.9999998E-03  -4.0034983E-02
  1.0202693E+00   9.9999998E-03  -2.0017555E-02
  1.0403440E+00   9.9999998E-03  -1.8015160E-01
  1.0403234E+00   9.9999998E-03  -1.6013610E-01
  1.0403062E+00   9.9999998E-03  -1.4011908E-01
  1.0402923E+00   9.9999998E-03  -1.2010021E-01
  1.0402813E+00   9.9999998E-03  -1.0008147E-01
  1.0402728E+00   9.9999998E-03  -8.0063857E-02
  1.0402665E+00   9.9999998E-03  -6.0047384E-02
  1.0402620E+00   9.9999998E-03  -4.0031485E-02
  1.0402592E+00   9.9999998E-03  -2.0015756E-02
  1.0603347E+00   9.9999998E-03  -1.8013635E-01
  1.0603131E+00   9.9999998E-03  -1.6012228E-01
  1.0602953E+00   9.9999998E-03  -1.4010715E-01
  1.0602810E+00   9.9999998E-03  -1.2009066E-01
  1.0602700E+00   9.9999998E-03  -1.0007390E-01
  1.0602615E+00   9.9999998E-03  -8.0057949E-02
  1.0602552E+00   9.9999998E-03  -6.0042839E-02
  1.0602508E+00   9.9999998E-03  -4.0028352E-02
  1.0602480E+00   9.9999998E-03  -2.0014131E-02
  1.0803255E+00   9.9999998E-03  -1.8012129E-01
  1.0803030E+00   9.9999998E-03  -1.6010943E-01
  1.0802842E+00   9.9999998E-03  -1.4009590E-01
  1.0802696E+00   9.9999998E-03  -1.2008189E-01
  1.0802583E+00   9.9999998E-03  -1.0006711E-01
  1.0802497E+00   9.9999998E-03  -8.0052674E-02
  1.0802433E+00   9.9999998E-03  -6.0038887E-02
  1.0802389E+00   9.9999998E-03  -4.0025633E-02
  1.0802363E+00   9.9999998E-03  -2.0012740E-02
  1.1003175E+00   9.9999998E-03  -1.8010721E-01
  1.1002929E+00   9.9999998E-03  -1.6009609E-01
  1.1002737E+00   9.9999998E-03  -1.4008535E-01
  1.1002584E+00   9.9999998E-03  -1.2007322E-01
  1.1002467E+00   9.9999998E-03  -1.0006084E-01
  1.1002380E+00   9.9999998E-03  -8.0047935E-02
  1.1002315E+00   9.9999998E-03  -6.0035400E-02
  1.1002271E+00   9.9999998E-03  -4.0023278E-02
  1.1002245E+00   9.9999998E-03  -2.0011533E-02
  1.1203116E+00   9.9999998E-03  -1.8009460E-01
  1.1202847E+00   9.9999998E-03  -1.6008364E-01
  1.1202639E+00   9.9999998E-03  -1.4007413E-01
  1.1202482E+00   9.9999998E-03  -1.2006473E-01
  1.1202359E+00   9.9999998E-03  -1.0005417E-01
  1.1202270E+00   9.9999998E-03  -8.0043361E-02
  1.1202203E+00   9.9999998E-03  -6.0032137E-02
  1.1202159E+00   9.9999998E-03  -4.0021211E-02
  1.1202133E+00   9.9999998E-03  -2.0010509E-02
  1.1403081E+00   9.9999998E-03  -1.8008420E-01
  1.1402787E+00   9.9999998E-03  -1.6007277E-01
  1.1402562E+00   9.9999998E-03  -1.4006366E-01
  1.1402390E+00   9.9999998E-03  -1.2005564E-01
  1.1402265E+00   9.9999998E-03  -1.0004752E-01
  1.1402169E+00   9.9999998E-03  -8.0038264E-02
  1.1402103E+00   9.9999998E-03  -6.0028806E-02
  1.1402056E+00   9.9999998E-03  -4.0019099E-02
  1.1402030E+00   9.9999998E-03  -2.0009534E-02
  1.1603088E+00   9.9999998E-03  -1.8007773E-01
  1.1602757E+00   9.9999998E-03  -1.6006467E-01
  1.1602507E+00   9.9999998E-03  -1.4005479E-01
  1.1602321E+00   9.9999998E-03  -1.2004717E-01
  1.1602182E+00   9.9999998E-03  -1.0004023E-01
  1.1602083E+00   9.9999998E-03  -8.0033086E-02
  1.1602013E+00   9.9999998E-03  -6.0025007E-02
  1.1601967E+00   9.9999998E-03  -4.0016759E-02
  1.1601940E+00   9.9999998E-03  -2.0008460E-02
  1.1803173E+00   9.9999998E-03  -1.8007775E-01
  1.1802783E+00   9.9999998E-03  -1.6006155E-01
  1.1802487E+00   9.9999998E-03  -1.4004925E-01
  1.1802275E+00   9.9999998E-03  -1.2004048E-01
  1.1802123E+00   9.9999998E-03  -1.0003382E-01
  1.1802013E+00   9.9999998E-03  -8.0027543E-02
  1.1801938E+00   9.9999998E-03  -6.0021065E-02
  1.1801890E+00   9.9999998E-03  -4.0014256E-02
  1.1801862E+00   9.9999998E-03  -2.0007158E-02
  1.2003300E+00   9.9999998E-03  -1.8008181E-01
  1.2002903E+00   9.9999998E-03  -1.6006586E-01
  1.2002542E+00   9.9999998E-03  -1.4005020E-01
  1.2002273E+00   9.9999998E-03  -1.2003800E-01
  1.2002090E+00   9.9999998E-03  -1.0002963E-01
  1.2001966E+00   9.9999998E-03  -8.0023475E-02
  1.2001882E+00   9.9999998E-03  -6.0017642E-02
  1.2001827E+00   9.9999998E-03  -4.0011786E-02
  1.2001797E+00   9.9999998E-03  -2.0005923E-02
  1.2203401E+00   9.9999998E-03  -1.8008645E-01
  1.2203063E+00   9.9999998E-03  -1.6007273E-01
  1.2202705E+00   9.9999998E-03  -1.4005816E-01
  1.2202376E+00   9.9999998E-03  -1.2004380E-01
  1.2202125E+00   9.9999998E-03  -1.0003152E-01
  1.2201959E+00   9.9999998E-03  -8.0022715E-02
  1.2201854E+00   9.9999998E-03  -6.0016215E-02
  1.2201790E+00   9.9999998E-03  -4.0010713E-02
  1.2201755E+00   9.9999998E-03  -2.0005364E-02
  1.2403376E+00   9.9999998E-03  -1.8008694E-01
  1.2403138E+00   9.9999998E-03  -1.6007699E-01
  1.2402869E+00   9.9999998E-03  -1.4006600E-01
  1.2402588E+00   9.9999998E-03  -1.2005405E-01
  1.2402309E+00   9.9999998E-03  -1.0004172E-01
  1.2402073E+00   9.9999998E-03  -8.0030091E-02
  1.2401910E+00   9.9999998E-03  -6.0020223E-02
  1.2401812E+00   9.9999998E-03  -4.0012553E-02
  1.2401763E+00   9.9999998E-03  -2.0006076E-02
  1.2603067E+00   9.9999998E-03  -1.6007638E-01
  1.2602894E+00   9.9999998E-03  -1.4006896E-01
  1.2602704E+00   9.9999998E-03  -1.2006025E-01
  1.2602512E+00   9.9999998E-03  -1.0005069E-01
  1.2602332E+00   9.9999998E-03  -8.0039740E-02
  1.2602175E+00   9.9999998E-03  -6.0028374E-02
  1.2602062E+00   9.9999998E-03  -4.0017746E-02
  1.2601998E+00   9.9999998E-03  -2.0008424E-02
  1.2802651E+00   9.9999998E-03  -1.2006155E-01
  1.2802531E+00   9.9999998E-03  -1.0005452E-01
  1.2802411E+00   9.9999998E-03  -8.0044463E-02
  1.2802325E+00   9.9999998E-03  -6.0032569E-02
  1.2802271E+00   9.9999998E-03  -4.0020254E-02
  1.2802242E+00   9.9999998E-03  -2.0009408E-02
  1.3002332E+00   9.9999998E-03  -8.0046408E-02
  1.3002266E+00   9.9999998E-03  -6.0034614E-02
  1.3002225E+00   9.9999998E-03  -4.0021826E-02
  1.3002206E+00   9.9999998E-03  -2.0010203E-02
 -1.4799143E-06   9.9999998E-03  -3.7821729E-14
 -1.4805836E-06   9.9999998E-03   2.0000005E-02
 -1.4823853E-06   9.9999998E-03   4.0000014E-02
 -1.4847243E-06   9.9999998E-03   6.0000021E-02
 -1.4864855E-06   9.9999998E-03   8.0000035E-02
 -1.4861200E-06   9.9999998E-03   1.0000005E-01
 -1.4812488E-06   9.9999998E-03   1.2000007E-01
 -1.4689516E-06   9.9999998E-03   1.4000009E-01
  1.9997893E-02   9.9999998E-03  -1.9705542E-14
  1.9997891E-02   9.9999998E-03   2.0000009E-02
  1.9997887E-02   9.9999998E-03   4.0000018E-02
  1.9997882E-02   9.9999998E-03   6.0000032E-02
  1.9997878E-02   9.9999998E-03   8.0000050E-02
  1.9997876E-02   9.9999998E-03   1.0000007E-01
  1.9997878E-02   9.9999998E-03   1.2000009E-01
  1.9997893E-02   9.9999998E-03   1.4000013E-01
  3.9997082E-02   9.9999998E-03   5.5105744E-15
  3.9997078E-02   9.9999998E-03   2.0000011E-02
  3.9997075E-02   9.9999998E-03   4.0000021E-02
  3.9997067E-02   9.9999998E-03   6.0000040E-02
  3.9997056E-02   9.9999998E-03   8.0000058E-02
  3.9997049E-02   9.9999998E-03   1.0000008E-01
  3.9997052E-02   9.9999998E-03   1.2000012E-01
  3.9997064E-02   9.9999998E-03   1.4000015E-01
  5.9996136E-02   9.9999998E-03  -3.0264236E-14
  5.9996132E-02   9.9999998E-03   2.0000013E-02
  5.9996124E-02   9.9999998E-03   4.0000025E-02
  5.9996109E-02   9.9999998E-03   6.0000043E-02
  5.9996095E-02   9.9999998E-03   8.0000065E-02
  5.9996083E-02   9.9999998E-03   1.0000009E-01
  5.9996076E-02   9.9999998E-03   1.2000013E-01
  5.9996087E-02   9.9999998E-03   1.4000018E-01
  7.9995058E-02   9.9999998E-03   1.7897654E-13
  7.9995058E-02   9.9999998E-03   2.0000013E-02
  7.9995044E-02   9.9999998E-03   4.0000025E-02
  7.9995021E-02   9.9999998E-03   6.0000043E-02
  7.9994999E-02   9.9999998E-03   8.0000065E-02
  7.9994977E-02   9.9999998E-03   1.0000010E-01
  7.9994969E-02   9.9999998E-03   1.2000014E-01
  7.9994969E-02   9.9999998E-03   1.4000018E-01
  9.9993840E-02   9.9999998E-03  -3.3048526E-13
  9.9993832E-02   9.9999998E-03   2.0000013E-02
  9.9993818E-02   9.9999998E-03   4.0000029E-02
  9.9993788E-02   9.9999998E-03   6.0000047E-02
  9.9993758E-02   9.9999998E-03   8.0000073E-02
  9.9993728E-02   9.9999998E-03   1.0000010E-01
  9.9993698E-02   9.9999998E-03   1.2000014E-01
  9.9993698E-02   9.9999998E-03   1.4000019E-01
  1.1999244E-01   9.9999998E-03  -1.1748075E-13
  1.1999243E-01   9.9999998E-03   2.0000013E-02
  1.1999241E-01   9.9999998E-03   4.0000029E-02
  1.1999237E-01   9.9999998E-03   6.0000047E-02
  1.1999232E-01   9.9999998E-03   8.0000073E-02
  1.1999228E-01   9.9999998E-03   1.0000011E-01
  1.1999223E-01   9.9999998E-03   1.2000015E-01
  1.1999221E-01   9.9999998E-03   1.4000021E-01
  1.3999081E-01   9.9999998E-03  -8.6664759E-14
  1.3999079E-01   9.9999998E-03   2.0000016E-02
  1.3999076E-01   9.9999998E-03   4.0000033E-02
  1.3999072E-01   9.9999998E-03   6.0000055E-02
  1.3999066E-01   9.9999998E-03   8.0000080E-02
  1.3999058E-01   9.9999998E-03   1.0000012E-01
  1.3999052E-01   9.9999998E-03   1.2000017E-01
  1.3999048E-01   9.9999998E-03   1.4000022E-01
  1.5998890E-01   9.9999998E-03  -5.3387301E-14
  1.5998888E-01   9.9999998E-03   2.0000020E-02
  1.5998884E-01   9.9999998E-03   4.0000040E-02
  1.5998878E-01   9.9999998E-03   6.0000069E-02
  1.5998869E-01   9.9999998E-03   8.0000103E-02
  1.5998860E-01   9.9999998E-03   1.0000015E-01
  1.5998851E-01   9.9999998E-03   1.2000021E-01
  1.5998843E-01   9.9999998E-03   1.4000027E-01
  1.7998666E-01   9.9999998E-03   3.8028496E-14
  1.7998664E-01   9.9999998E-03   2.0000026E-02
  1.7998658E-01   9.9999998E-03   4.0000055E-02
  1.7998649E-01   9.9999998E-03   6.0000092E-02
  1.7998639E-01   9.9999998E-03   8.0000140E-02
  1.7998625E-01   9.9999998E-03   1.0000020E-01
  1.7998613E-01   9.9999998E-03   1.2000027E-01
  1.7998601E-01   9.9999998E-03   1.4000034E-01
  1.9998403E-01   9.9999998E-03   2.1119419E-13
  1.9998400E-01   9.9999998E-03   2.0000037E-02
  1.9998394E-01   9.9999998E-03   4.0000077E-02
  1.9998382E-01   9.9999998E-03   6.0000129E-02
  1.9998369E-01   9.9999998E-03   8.0000192E-02
  1.9998352E-01   9.9999998E-03   1.0000026E-01
  1.9998334E-01   9.9999998E-03   1.2000035E-01
  1.9998318E-01   9.9999998E-03   1.4000046E-01
  2.1998094E-01   9.9999998E-03  -8.5271438E-13
  2.1998093E-01   9.9999998E-03   2.0000054E-02
  2.1998084E-01   9.9999998E-03   4.0000111E-02
  2.1998070E-01   9.9999998E-03   6.0000177E-02
  2.1998051E-01   9.9999998E-03   8.0000266E-02
  2.1998030E-01   9.9999998E-03   1.0000037E-01
  2.1998006E-01   9.9999998E-03   1.2000050E-01
  2.1997985E-01   9.9999998E-03   1.4000064E-01
  2.3997734E-01   9.9999998E-03  -7.9361891E-13
  2.3997730E-01   9.9999998E-03   2.0000072E-02
  2.3997720E-01   9.9999998E-03   4.0000152E-02
  2.3997703E-01   9.9999998E-03   6.0000245E-02
  2.3997679E-01   9.9999998E-03   8.0000363E-02
  2.3997653E-01   9.9999998E-03   1.0000050E-01
  2.3997623E-01   9.9999998E-03   1.2000068E-01
  2.3997593E-01   9.9999998E-03   1.4000088E-01
  2.5997314E-01   9.9999998E-03  -1.0792983E-12
  2.5997308E-01   9.9999998E-03   2.0000096E-02
  2.5997296E-01   9.9999998E-03   4.0000200E-02
  2.5997275E-01   9.9999998E-03   6.0000326E-02
  2.5997245E-01   9.9999998E-03   8.0000482E-02
  2.5997210E-01   9.9999998E-03   1.0000067E-01
  2.5997171E-01   9.9999998E-03   1.2000090E-01
  2.5997132E-01   9.9999998E-03   1.4000118E-01
  2.7996823E-01   9.9999998E-03  -4.1936940E-13
  2.7996817E-01   9.9999998E-03   2.0000122E-02
  2.7996799E-01   9.9999998E-03   4.0000260E-02
  2.7996773E-01   9.9999998E-03   6.0000420E-02
  2.7996737E-01   9.9999998E-03   8.0000617E-02
  2.7996695E-01   9.9999998E-03   1.0000087E-01
  2.7996644E-01   9.9999998E-03   1.2000117E-01
  2.7996597E-01   9.9999998E-03   1.4000154E-01
  2.9996252E-01   9.9999998E-03  -8.4914356E-13
  2.9996243E-01   9.9999998E-03   2.0000152E-02
  2.9996225E-01   9.9999998E-03   4.0000323E-02
  2.9996192E-01   9.9999998E-03   6.0000524E-02
  2.9996148E-01   9.9999998E-03   8.0000773E-02
  2.9996094E-01   9.9999998E-03   1.0000109E-01
  2.9996032E-01   9.9999998E-03   1.2000148E-01
  2.9995969E-01   9.9999998E-03   1.4000195E-01
  3.1995589E-01   9.9999998E-03  -7.6272613E-14
  3.1995580E-01   9.9999998E-03   2.0000184E-02
  3.1995556E-01   9.9999998E-03   4.0000390E-02
  3.1995514E-01   9.9999998E-03   6.0000636E-02
  3.1995460E-01   9.9999998E-03   8.0000944E-02
  3.1995392E-01   9.9999998E-03   1.0000134E-01
  3.1995317E-01   9.9999998E-03   1.2000182E-01
  3.1995237E-01   9.9999998E-03   1.4000243E-01
  3.3994818E-01   9.9999998E-03   6.2422432E-14
  3.3994809E-01   9.9999998E-03   2.0000216E-02
  3.3994779E-01   9.9999998E-03   4.0000457E-02
  3.3994728E-01   9.9999998E-03   6.0000751E-02
  3.3994663E-01   9.9999998E-03   8.0001123E-02
  3.3994579E-01   9.9999998E-03   1.0000160E-01
  3.3994484E-01   9.9999998E-03   1.2000220E-01
  3.3994383E-01   9.9999998E-03   1.4000294E-01
  3.5993928E-01   9.9999998E-03  -2.2014187E-12
  3.5993916E-01   9.9999998E-03   2.0000251E-02
  3.5993880E-01   9.9999998E-03   4.0000532E-02
  3.5993820E-01   9.9999998E-03   6.0000874E-02
  3.5993737E-01   9.9999998E-03   8.0001310E-02
  3.5993639E-01   9.9999998E-03   1.0000187E-01
  3.5993519E-01   9.9999998E-03   1.2000259E-01
  3.5993394E-01   9.9999998E-03   1.4000349E-01
  3.7992901E-01   9.9999998E-03   3.7424068E-13
  3.7992886E-01   9.9999998E-03   2.0000292E-02
  3.7992844E-01   9.9999998E-03   4.0000618E-02
  3.7992769E-01   9.9999998E-03   6.0001019E-02
  3.7992671E-01   9.9999998E-03   8.0001526E-02
  3.7992549E-01   9.9999998E-03   1.0000218E-01
  3.7992406E-01   9.9999998E-03   1.2000303E-01
  3.7992248E-01   9.9999998E-03   1.4000410E-01
  3.9991722E-01   9.9999998E-03  -1.5653730E-12
  3.9991704E-01   9.9999998E-03   2.0000350E-02
  3.9991650E-01   9.9999998E-03   4.0000737E-02
  3.9991564E-01   9.9999998E-03   6.0001206E-02
  3.9991444E-01   9.9999998E-03   8.0001801E-02
  3.9991295E-01   9.9999998E-03   1.0000256E-01
  3.9991120E-01   9.9999998E-03   1.2000354E-01
  3.9990929E-01   9.9999998E-03   1.4000478E-01
  4.1990373E-01   9.9999998E-03  -5.3824957E-12
  4.1990352E-01   9.9999998E-03   2.0000441E-02
  4.1990289E-01   9.9999998E-03   4.0000923E-02
  4.1990185E-01   9.9999998E-03   6.0001489E-02
  4.1990042E-01   9.9999998E-03   8.0002189E-02
  4.1989863E-01   9.9999998E-03   1.0000307E-01
  4.1989648E-01   9.9999998E-03   1.2000420E-01
  4.1989413E-01   9.9999998E-03   1.4000562E-01
  4.3988836E-01   9.9999998E-03  -4.2923415E-13
  4.3988812E-01   9.9999998E-03   2.0000594E-02
  4.3988737E-01   9.9999998E-03   4.0001225E-02
  4.3988612E-01   9.9999998E-03   6.0001943E-02
  4.3988442E-01   9.9999998E-03   8.0002792E-02
  4.3988225E-01   9.9999998E-03   1.0000384E-01
  4.3987969E-01   9.9999998E-03   1.2000514E-01
  4.3987682E-01   9.9999998E-03   1.4000675E-01
  4.5987087E-01   9.9999998E-03   5.5785194E-12
  4.5987058E-01   9.9999998E-03   2.0000843E-02
  4.5986968E-01   9.9999998E-03   4.0001724E-02
  4.5986822E-01   9.9999998E-03   6.0002681E-02
  4.5986620E-01   9.9999998E-03   8.0003761E-02
  4.5986360E-01   9.9999998E-03   1.0000502E-01
  4.5986053E-01   9.9999998E-03   1.2000654E-01
  4.5985705E-01   9.9999998E-03   1.4000838E-01
  4.7985092E-01   9.9999998E-03  -1.7979603E-12
  4.7985056E-01   9.9999998E-03   2.0001244E-02
  4.7984952E-01   9.9999998E-03   4.0002514E-02
  4.7984779E-01   9.9999998E-03   6.0003843E-02
  4.7984540E-01   9.9999998E-03   8.0005281E-02
  4.7984236E-01   9.9999998E-03   1.0000687E-01
  4.7983870E-01   9.9999998E-03   1.2000869E-01
  4.7983453E-01   9.9999998E-03   1.4001080E-01
  4.9982807E-01   9.9999998E-03   1.9659825E-12
  4.9982768E-01   9.9999998E-03   2.0001845E-02
  4.9982649E-01   9.9999998E-03   4.0003706E-02
  4.9982449E-01   9.9999998E-03   6.0005601E-02
  4.9982169E-01   9.9999998E-03   8.0007568E-02
  4.9981815E-01   9.9999998E-03   1.0000966E-01
  4.9981382E-01   9.9999998E-03   1.2001195E-01
  4.9980888E-01   9.9999998E-03   1.4001445E-01
  5.1980209E-01   9.9999998E-03  -1.4787895E-12
  5.1980162E-01   9.9999998E-03   2.0002710E-02
  5.1980025E-01   9.9999998E-03   4.0005416E-02
  5.1979792E-01   9.9999998E-03   6.0008135E-02
  5.1979476E-01   9.9999998E-03   8.0010898E-02
  5.1979059E-01   9.9999998E-03   1.0001374E-01
  5.1978558E-01   9.9999998E-03   1.2001672E-01
  5.1977980E-01   9.9999998E-03   1.4001982E-01
  5.3977275E-01   9.9999998E-03   2.2790361E-12
  5.3977221E-01   9.9999998E-03   2.0003872E-02
  5.3977066E-01   9.9999998E-03   4.0007729E-02
  5.3976810E-01   9.9999998E-03   6.0011577E-02
  5.3976440E-01   9.9999998E-03   8.0015436E-02
  5.3975970E-01   9.9999998E-03   1.0001936E-01
  5.3975397E-01   9.9999998E-03   1.2002335E-01
  5.3974730E-01   9.9999998E-03   1.4002736E-01
  5.5974060E-01   9.9999998E-03  -4.5722571E-12
  5.5974001E-01   9.9999998E-03   2.0005373E-02
  5.5973828E-01   9.9999998E-03   4.0010735E-02
  5.5973536E-01   9.9999998E-03   6.0016092E-02
  5.5973125E-01   9.9999998E-03   8.0021456E-02
  5.5972594E-01   9.9999998E-03   1.0002684E-01
  5.5971944E-01   9.9999998E-03   1.2003223E-01
  5.5971187E-01   9.9999998E-03   1.4003755E-01
  5.7970691E-01   9.9999998E-03  -2.5262282E-13
  5.7970625E-01   9.9999998E-03   2.0007202E-02
  5.7970428E-01   9.9999998E-03   4.0014386E-02
  5.7970107E-01   9.9999998E-03   6.0021572E-02
  5.7969654E-01   9.9999998E-03   8.0028810E-02
  5.7969064E-01   9.9999998E-03   1.0003608E-01
  5.7968342E-01   9.9999998E-03   1.2004334E-01
  5.7967502E-01   9.9999998E-03   1.4005041E-01
  5.9967399E-01   9.9999998E-03   7.3423195E-12
  5.9967327E-01   9.9999998E-03   2.0009389E-02
  5.9967107E-01   9.9999998E-03   4.0018737E-02
  5.9966749E-01   9.9999998E-03   6.0028080E-02
  5.9966254E-01   9.9999998E-03   8.0037534E-02
  5.9965616E-01   9.9999998E-03   1.0004712E-01
  5.9964830E-01   9.9999998E-03   1.2005669E-01
  5.9963912E-01   9.9999998E-03   1.4006592E-01
  6.1964387E-01   9.9999998E-03  -2.6256629E-12
  6.1964309E-01   9.9999998E-03   2.0011907E-02
  6.1964071E-01   9.9999998E-03   4.0023755E-02
  6.1963677E-01   9.9999998E-03   6.0035616E-02
  6.1963135E-01   9.9999998E-03   8.0047645E-02
  6.1962444E-01   9.9999998E-03   1.0005982E-01
  6.1961609E-01   9.9999998E-03   1.2007205E-01
  6.1960620E-01   9.9999998E-03   1.4008386E-01
  6.3961810E-01   9.9999998E-03   1.6512061E-11
  6.3961726E-01   9.9999998E-03   2.0014523E-02
  6.3961470E-01   9.9999998E-03   4.0028956E-02
  6.3961047E-01   9.9999998E-03   6.0043365E-02
  6.3960463E-01   9.9999998E-03   8.0058083E-02
  6.3959712E-01   9.9999998E-03   1.0007321E-01
  6.3958818E-01   9.9999998E-03   1.2008863E-01
  6.3957781E-01   9.9999998E-03   1.4010359E-01
  6.5959835E-01   9.9999998E-03  -3.1841641E-12
  6.5959746E-01   9.9999998E-03   2.0017680E-02
  6.5959483E-01   9.9999998E-03   4.0035237E-02
  6.5959036E-01   9.9999998E-03   6.0052745E-02
  6.5958416E-01   9.9999998E-03   8.0070555E-02
  6.5957636E-01   9.9999998E-03   1.0008906E-01
  6.5956718E-01   9.9999998E-03   1.2010816E-01
  6.5955669E-01   9.9999998E-03   1.4012694E-01
  6.7958945E-01   9.9999998E-03  -4.1919016E-12
  6.7958856E-01   9.9999998E-03   2.0022200E-02
  6.7958581E-01   9.9999998E-03   4.0044148E-02
  6.7958128E-01   9.9999998E-03   6.0065869E-02
  6.7957509E-01   9.9999998E-03   8.0087990E-02
  6.7956740E-01   9.9999998E-03   1.0011101E-01
  6.7955846E-01   9.9999998E-03   1.2013479E-01
  6.7954826E-01   9.9999998E-03   1.4015819E-01
  6.9959992E-01   9.9999998E-03   2.0803163E-11
  6.9959903E-01   9.9999998E-03   2.0026699E-02
  6.9959641E-01   9.9999998E-03   4.0053125E-02
  6.9959205E-01   9.9999998E-03   6.0079601E-02
  6.9958609E-01   9.9999998E-03   8.0106996E-02
  6.9957882E-01   9.9999998E-03   1.0013602E-01
  6.9957089E-01   9.9999998E-03   1.2016657E-01
  6.9956231E-01   9.9999998E-03   1.4019720E-01
  7.1968138E-01   9.9999998E-03  -1.0141790E-11
  7.1968043E-01   9.9999998E-03   2.0030968E-02
  7.1967763E-01   9.9999998E-03   4.0061712E-02
  7.1967310E-01   9.9999998E-03   6.0092688E-02
  7.1966696E-01   9.9999998E-03   8.0125093E-02
  7.1965927E-01   9.9999998E-03   1.0016008E-01
  7.1965015E-01   9.9999998E-03   1.2019776E-01
  7.1963996E-01   9.9999998E-03   1.4023633E-01
  7.3979914E-01   9.9999998E-03   4.1823614E-11
  7.3979843E-01   9.9999998E-03   2.0033628E-02
  7.3979634E-01   9.9999998E-03   4.0066916E-02
  7.3979300E-01   9.9999998E-03   6.0100269E-02
  7.3978853E-01   9.9999998E-03   8.0134884E-02
  7.3978299E-01   9.9999998E-03   1.0017197E-01
  7.3977649E-01   9.9999998E-03   1.2021164E-01
  7.3976922E-01   9.9999998E-03   1.4025205E-01
  7.5988901E-01   9.9999998E-03   9.3766307E-11
  7.5988853E-01   9.9999998E-03   2.0035475E-02
  7.5988722E-01   9.9999998E-03   4.0070496E-02
  7.5988513E-01   9.9999998E-03   6.0105387E-02
  7.5988239E-01   9.9999998E-03   8.0141343E-02
  7.5987911E-01   9.9999998E-03   1.0017958E-01
  7.5987536E-01   9.9999998E-03   1.2022016E-01
  7.5987130E-01   9.9999998E-03   1.4026107E-01
  7.7995491E-01   9.9999998E-03  -9.8685617E-12
  7.7995467E-01   9.9999998E-03   2.0036526E-02
  7.7995408E-01   9.9999998E-03   4.0072493E-02
  7.7995312E-01   9.9999998E-03   6.0108166E-02
  7.7995193E-01   9.9999998E-03   8.0144726E-02
  7.7995068E-01   9.9999998E-03   1.0018340E-01
  7.7994931E-01   9.9999998E-03   1.2022422E-01
  7.7994794E-01   9.9999998E-03   1.4026506E-01
  8.0000824E-01   9.9999998E-03  -1.0488167E-10
  8.0000824E-01   9.9999998E-03   2.0036850E-02
  8.0000824E-01   9.9999998E-03   4.0073067E-02
  8.0000830E-01   9.9999998E-03   6.0108870E-02
  8.0000854E-01   9.9999998E-03   8.0145434E-02
  8.0000895E-01   9.9999998E-03   1.0018399E-01
  8.0000961E-01   9.9999998E-03   1.2022458E-01
  8.0001050E-01   9.9999998E-03   1.4026505E-01
  8.2005960E-01   9.9999998E-03   2.2416588E-11
  8.2005978E-01   9.9999998E-03   2.0036552E-02
  8.2006031E-01   9.9999998E-03   4.0072430E-02
  8.2006127E-01   9.9999998E-03   6.0107823E-02
  8.2006264E-01   9.9999998E-03   8.0143891E-02
  8.2006449E-01   9.9999998E-03   1.0018190E-01
  8.2006687E-01   9.9999998E-03   1.2022193E-01
  8.2006979E-01   9.9999998E-03   1.4026184E-01
  8.4011358E-01   9.9999998E-03   9.7480669E-11
  8.4011388E-01   9.9999998E-03   2.0035734E-02
  8.4011489E-01   9.9999998E-03   4.0070787E-02
  8.4011662E-01   9.9999998E-03   6.0105328E-02
  8.4011906E-01   9.9999998E-03   8.0140509E-02
  8.4012222E-01   9.9999998E-03   1.0017761E-01
  8.4012616E-01   9.9999998E-03   1.2021676E-01
  8.4013087E-01   9.9999998E-03   1.4025591E-01
  8.6016893E-01   9.9999998E-03   5.2657670E-11
  8.6016941E-01   9.9999998E-03   2.0034477E-02
  8.6017084E-01   9.9999998E-03   4.0068284E-02
  8.6017323E-01   9.9999998E-03   6.0101595E-02
  8.6017656E-01   9.9999998E-03   8.0135539E-02
  8.6018091E-01   9.9999998E-03   1.0017140E-01
  8.6018628E-01   9.9999998E-03   1.2020937E-01
  8.6019272E-01   9.9999998E-03   1.4024746E-01
  8.8022166E-01   9.9999998E-03  -9.3641192E-11
  8.8022226E-01   9.9999998E-03   2.0032836E-02
  8.8022411E-01   9.9999998E-03   4.0065039E-02
  8.8022709E-01   9.9999998E-03   6.0096778E-02
  8.8023120E-01   9.9999998E-03   8.0129169E-02
  8.8023663E-01   9.9999998E-03   1.0016347E-01
  8.8024330E-01   9.9999998E-03   1.2019990E-01
  8.8025141E-01   9.9999998E-03   1.4023659E-01
  9.0026718E-01   9.9999998E-03  -1.1634794E-10
  9.0026790E-01   9.9999998E-03   2.0030867E-02
  9.0027004E-01   9.9999998E-03   4.0061146E-02
  9.0027356E-01   9.9999998E-03   6.0091019E-02
  9.0027851E-01   9.9999998E-03   8.0121554E-02
  9.0028489E-01   9.9999998E-03   1.0015399E-01
  9.0029281E-01   9.9999998E-03   1.2018855E-01
  9.0030241E-01   9.9999998E-03   1.4022347E-01
  9.2028898E-01   9.9999998E-03  -1.6119370E-11
  9.2028987E-01   9.9999998E-03   2.0028772E-02
  9.2029262E-01   9.9999998E-03   4.0056970E-02
  9.2029715E-01   9.9999998E-03   6.0084756E-02
  9.2030346E-01   9.9999998E-03   8.0113150E-02
  9.2031163E-01   9.9999998E-03   1.0014335E-01
  9.2032164E-01   9.9999998E-03   1.2017566E-01
  9.2033362E-01   9.9999998E-03   1.4020845E-01
  9.4029206E-01   9.9999998E-03   5.2177825E-11
  9.4029295E-01   9.9999998E-03   2.0026525E-02
  9.4029582E-01   9.9999998E-03   4.0052522E-02
  9.4030058E-01   9.9999998E-03   6.0078107E-02
  9.4030726E-01   9.9999998E-03   8.0104224E-02
  9.4031596E-01   9.9999998E-03   1.0013202E-01
  9.4032663E-01   9.9999998E-03   1.2016184E-01
  9.4033951E-01   9.9999998E-03   1.4019223E-01
  9.6028960E-01   9.9999998E-03   8.4565228E-12
  9.6029055E-01   9.9999998E-03   2.0024091E-02
  9.6029335E-01   9.9999998E-03   4.0047720E-02
  9.6029812E-01   9.9999998E-03   6.0071047E-02
  9.6030492E-01   9.9999998E-03   8.0094926E-02
  9.6031368E-01   9.9999998E-03   1.0012039E-01
  9.6032459E-01   9.9999998E-03   1.2014773E-01
  9.6033770E-01   9.9999998E-03   1.4017567E-01
  9.8028421E-01   9.9999998E-03  -1.8941569E-11
  9.8028511E-01   9.9999998E-03   2.0021705E-02
  9.8028797E-01   9.9999998E-03   4.0043067E-02
  9.8029268E-01   9.9999998E-03   6.0064211E-02
  9.8029929E-01   9.9999998E-03   8.0085896E-02
  9.8030806E-01   9.9999998E-03   1.0010909E-01
  9.8031896E-01   9.9999998E-03   1.2013406E-01
  9.8033226E-01   9.9999998E-03   1.4015967E-01
  1.0002769E+00   9.9999998E-03   6.7805109E-13
  1.0002779E+00   9.9999998E-03   2.0019533E-02
  1.0002807E+00   9.9999998E-03   4.0038839E-02
  1.0002854E+00   9.9999998E-03   6.0058065E-02
  1.0002919E+00   9.9999998E-03   8.0077909E-02
  1.0003005E+00   9.9999998E-03   1.0009910E-01
  1.0003114E+00   9.9999998E-03   1.2012188E-01
  1.0003247E+00   9.9999998E-03   1.4014515E-01
  1.0202683E+00   9.9999998E-03   1.4975568E-11
  1.0202693E+00   9.9999998E-03   2.0017555E-02
  1.0202721E+00   9.9999998E-03   4.0034983E-02
  1.0202767E+00   9.9999998E-03   6.0052440E-02
  1.0202831E+00   9.9999998E-03   8.0070473E-02
  1.0202916E+00   9.9999998E-03   1.0008980E-01
  1.0203024E+00   9.9999998E-03   1.2011059E-01
  1.0203161E+00   9.9999998E-03   1.4013164E-01
  1.0402583E+00   9.9999998E-03   1.1835420E-11
  1.0402592E+00   9.9999998E-03   2.0015756E-02
  1.0402620E+00   9.9999998E-03   4.0031485E-02
  1.0402665E+00   9.9999998E-03   6.0047384E-02
  1.0402728E+00   9.9999998E-03   8.0063857E-02
  1.0402813E+00   9.9999998E-03   1.0008147E-01
  1.0402923E+00   9.9999998E-03   1.2010021E-01
  1.0403062E+00   9.9999998E-03   1.4011908E-01
  1.0602472E+00   9.9999998E-03   2.4404199E-11
  1.0602480E+00   9.9999998E-03   2.0014131E-02
  1.0602508E+00   9.9999998E-03   4.0028352E-02
  1.0602552E+00   9.9999998E-03   6.0042839E-02
  1.0602615E+00   9.9999998E-03   8.0057949E-02
  1.0602700E+00   9.9999998E-03   1.0007390E-01
  1.0602810E+00   9.9999998E-03   1.2009066E-01
  1.0602953E+00   9.9999998E-03   1.4010715E-01
  1.0802355E+00   9.9999998E-03   4.5397241E-12
  1.0802363E+00   9.9999998E-03   2.0012740E-02
  1.0802389E+00   9.9999998E-03   4.0025633E-02
  1.0802433E+00   9.9999998E-03   6.0038887E-02
  1.0802497E+00   9.9999998E-03   8.0052674E-02
  1.0802583E+00   9.9999998E-03   1.0006711E-01
  1.0802696E+00   9.9999998E-03   1.2008189E-01
  1.0802842E+00   9.9999998E-03   1.4009590E-01
  1.1002237E+00   9.9999998E-03  -7.4209033E-12
  1.1002245E+00   9.9999998E-03   2.0011533E-02
  1.1002271E+00   9.9999998E-03   4.0023278E-02
  1.1002315E+00   9.9999998E-03   6.0035400E-02
  1.1002380E+00   9.9999998E-03   8.0047935E-02
  1.1002467E+00   9.9999998E-03   1.0006084E-01
  1.1002584E+00   9.9999998E-03   1.2007322E-01
  1.1002737E+00   9.9999998E-03   1.4008535E-01
  1.1202124E+00   9.9999998E-03  -1.2752193E-11
  1.1202133E+00   9.9999998E-03   2.0010509E-02
  1.1202159E+00   9.9999998E-03   4.0021211E-02
  1.1202203E+00   9.9999998E-03   6.0032137E-02
  1.1202270E+00   9.9999998E-03   8.0043361E-02
  1.1202359E+00   9.9999998E-03   1.0005417E-01
  1.1202482E+00   9.9999998E-03   1.2006473E-01
  1.1202639E+00   9.9999998E-03   1.4007413E-01
  1.1402022E+00   9.9999998E-03   4.2434723E-12
  1.1402030E+00   9.9999998E-03   2.0009534E-02
  1.1402056E+00   9.9999998E-03   4.0019099E-02
  1.1402103E+00   9.9999998E-03   6.0028806E-02
  1.1402169E+00   9.9999998E-03   8.0038264E-02
  1.1402265E+00   9.9999998E-03   1.0004752E-01
  1.1402390E+00   9.9999998E-03   1.2005564E-01
  1.1402562E+00   9.9999998E-03   1.4006366E-01
  1.1601931E+00   9.9999998E-03   6.4984840E-12
  1.1601940E+00   9.9999998E-03   2.0008460E-02
  1.1601967E+00   9.9999998E-03   4.0016759E-02
  1.1602013E+00   9.9999998E-03   6.0025007E-02
  1.1602083E+00   9.9999998E-03   8.0033086E-02
  1.1602182E+00   9.9999998E-03   1.0004023E-01
  1.1602321E+00   9.9999998E-03   1.2004717E-01
  1.1602507E+00   9.9999998E-03   1.4005479E-01
  1.1801853E+00   9.9999998E-03   2.9333356E-12
  1.1801862E+00   9.9999998E-03   2.0007158E-02
  1.1801890E+00   9.9999998E-03   4.0014256E-02
  1.1801938E+00   9.9999998E-03   6.0021065E-02
  1.1802013E+00   9.9999998E-03   8.0027543E-02
  1.1802123E+00   9.9999998E-03   1.0003382E-01
  1.1802275E+00   9.9999998E-03   1.2004048E-01
  1.1802487E+00   9.9999998E-03   1.4004925E-01
  1.2001787E+00   9.9999998E-03   2.0622707E-12
  1.2001797E+00   9.9999998E-03   2.0005923E-02
  1.2001827E+00   9.9999998E-03   4.0011786E-02
  1.2001882E+00   9.9999998E-03   6.0017642E-02
  1.2001966E+00   9.9999998E-03   8.0023475E-02
  1.2002090E+00   9.9999998E-03   1.0002963E-01
  1.2002273E+00   9.9999998E-03   1.2003800E-01
  1.2002542E+00   9.9999998E-03   1.4005020E-01
  1.2201743E+00   9.9999998E-03   4.2100562E-13
  1.2201755E+00   9.9999998E-03   2.0005364E-02
  1.2201790E+00   9.9999998E-03   4.0010713E-02
  1.2201854E+00   9.9999998E-03   6.0016215E-02
  1.2201959E+00   9.9999998E-03   8.0022715E-02
  1.2202125E+00   9.9999998E-03   1.0003152E-01
  1.2202376E+00   9.9999998E-03   1.2004380E-01
  1.2202705E+00   9.9999998E-03   1.4005816E-01
  1.2401748E+00   9.9999998E-03  -8.3480168E-13
  1.2401763E+00   9.9999998E-03   2.0006076E-02
  1.2401812E+00   9.9999998E-03   4.0012553E-02
  1.2401910E+00   9.9999998E-03   6.0020223E-02
  1.2402073E+00   9.9999998E-03   8.0030091E-02
  1.2402309E+00   9.9999998E-03   1.0004172E-01
  1.2402588E+00   9.9999998E-03   1.2005405E-01
  1.2402869E+00   9.9999998E-03   1.4006600E-01
  1.2601978E+00   9.9999998E-03  -5.8757014E-13
  1.2601998E+00   9.9999998E-03   2.0008424E-02
  1.2602062E+00   9.9999998E-03   4.0017746E-02
  1.2602175E+00   9.9999998E-03   6.0028374E-02
  1.2602332E+00   9.9999998E-03   8.0039740E-02
  1.2602512E+00   9.9999998E-03   1.0005069E-01
  1.2602704E+00   9.9999998E-03   1.2006026E-01
  1.2602894E+00   9.9999998E-03   1.4006896E-01
  1.2802233E+00   9.9999998E-03   4.6771905E-12
  1.2802242E+00   9.9999998E-03   2.0009408E-02
  1.2802271E+00   9.9999998E-03   4.0020254E-02
  1.2802325E+00   9.9999998E-03   6.0032569E-02
  1.2802411E+00   9.9999998E-03   8.0044463E-02
  1.2802531E+00   9.9999998E-03   1.0005452E-01
  1.2802651E+00   9.9999998E-03   1.2006155E-01
  1.3002201E+00   9.9999998E-03   2.4644969E-12
  1.3002206E+00   9.9999998E-03   2.0010203E-02
  1.3002225E+00   9.9999998E-03   4.0021826E-02
  1.3002266E+00   9.9999998E-03   6.0034614E-02
  1.3002332E+00   9.9999998E-03   8.0046408E-02
 -1.4455100E-06   9.9999998E-03   1.6000012E-01
 -1.4061195E-06   9.9999998E-03   1.8000016E-01
 -1.3465648E-06   9.9999998E-03   2.0000020E-01
 -1.2610278E-06   9.9999998E-03   2.2000024E-01
 -1.1459506E-06   9.9999998E-03   2.4000028E-01
 -9.9790634E-07   9.9999998E-03   2.6000029E-01
 -8.2231162E-07   9.9999998E-03   2.8000033E-01
  1.9997921E-02   9.9999998E-03   1.6000018E-01
  1.9997971E-02   9.9999998E-03   1.8000022E-01
  1.9998053E-02   9.9999998E-03   2.0000027E-01
  1.9998174E-02   9.9999998E-03   2.2000031E-01
  1.9998342E-02   9.9999998E-03   2.4000037E-01
  1.9998565E-02   9.9999998E-03   2.6000038E-01
  1.9998843E-02   9.9999998E-03   2.8000039E-01
  1.9999167E-02   9.9999998E-03   3.0000043E-01
  3.9997097E-02   9.9999998E-03   1.6000021E-01
  3.9997160E-02   9.9999998E-03   1.8000026E-01
  3.9997268E-02   9.9999998E-03   2.0000032E-01
  3.9997432E-02   9.9999998E-03   2.2000037E-01
  3.9997663E-02   9.9999998E-03   2.4000043E-01
  3.9997980E-02   9.9999998E-03   2.6000047E-01
  3.9998367E-02   9.9999998E-03   2.8000048E-01
  3.9998822E-02   9.9999998E-03   3.0000049E-01
  5.9996124E-02   9.9999998E-03   1.6000022E-01
  5.9996203E-02   9.9999998E-03   1.8000029E-01
  5.9996333E-02   9.9999998E-03   2.0000035E-01
  5.9996542E-02   9.9999998E-03   2.2000042E-01
  5.9996843E-02   9.9999998E-03   2.4000047E-01
  5.9997257E-02   9.9999998E-03   2.6000053E-01
  5.9997771E-02   9.9999998E-03   2.8000054E-01
  5.9998386E-02   9.9999998E-03   3.0000055E-01
  7.9995006E-02   9.9999998E-03   1.6000023E-01
  7.9995096E-02   9.9999998E-03   1.8000031E-01
  7.9995245E-02   9.9999998E-03   2.0000038E-01
  7.9995498E-02   9.9999998E-03   2.2000045E-01
  7.9995871E-02   9.9999998E-03   2.4000052E-01
  7.9996392E-02   9.9999998E-03   2.6000056E-01
  7.9997048E-02   9.9999998E-03   2.8000057E-01
  7.9997852E-02   9.9999998E-03   3.0000061E-01
  9.9993728E-02   9.9999998E-03   1.6000025E-01
  9.9993810E-02   9.9999998E-03   1.8000032E-01
  9.9993981E-02   9.9999998E-03   2.0000041E-01
  9.9994272E-02   9.9999998E-03   2.2000048E-01
  9.9994719E-02   9.9999998E-03   2.4000055E-01
  9.9995352E-02   9.9999998E-03   2.6000059E-01
  9.9996172E-02   9.9999998E-03   2.8000063E-01
  9.9997193E-02   9.9999998E-03   3.0000070E-01
  1.1999223E-01   9.9999998E-03   1.6000026E-01
  1.1999232E-01   9.9999998E-03   1.8000035E-01
  1.1999250E-01   9.9999998E-03   2.0000042E-01
  1.1999283E-01   9.9999998E-03   2.2000051E-01
  1.1999334E-01   9.9999998E-03   2.4000058E-01
  1.1999409E-01   9.9999998E-03   2.6000065E-01
  1.1999509E-01   9.9999998E-03   2.8000069E-01
  1.1999636E-01   9.9999998E-03   3.0000082E-01
  1.3999048E-01   9.9999998E-03   1.6000029E-01
  1.3999055E-01   9.9999998E-03   1.8000038E-01
  1.3999073E-01   9.9999998E-03   2.0000046E-01
  1.3999109E-01   9.9999998E-03   2.2000055E-01
  1.3999169E-01   9.9999998E-03   2.4000062E-01
  1.3999256E-01   9.9999998E-03   2.6000071E-01
  1.3999374E-01   9.9999998E-03   2.8000081E-01
  1.3999531E-01   9.9999998E-03   3.0000100E-01
  1.5998840E-01   9.9999998E-03   1.6000035E-01
  1.5998846E-01   9.9999998E-03   1.8000044E-01
  1.5998864E-01   9.9999998E-03   2.0000052E-01
  1.5998903E-01   9.9999998E-03   2.2000062E-01
  1.5998968E-01   9.9999998E-03   2.4000071E-01
  1.5999068E-01   9.9999998E-03   2.6000080E-01
  1.5999208E-01   9.9999998E-03   2.8000093E-01
  1.5999395E-01   9.9999998E-03   3.0000120E-01
  1.7998596E-01   9.9999998E-03   1.6000044E-01
  1.7998599E-01   9.9999998E-03   1.8000054E-01
  1.7998615E-01   9.9999998E-03   2.0000064E-01
  1.7998655E-01   9.9999998E-03   2.2000076E-01
  1.7998727E-01   9.9999998E-03   2.4000086E-01
  1.7998841E-01   9.9999998E-03   2.6000097E-01
  1.7999001E-01   9.9999998E-03   2.8000110E-01
  1.7999215E-01   9.9999998E-03   3.0000138E-01
  1.9998308E-01   9.9999998E-03   1.6000059E-01
  1.9998305E-01   9.9999998E-03   1.8000072E-01
  1.9998319E-01   9.9999998E-03   2.0000085E-01
  1.9998360E-01   9.9999998E-03   2.2000098E-01
  1.9998437E-01   9.9999998E-03   2.4000108E-01
  1.9998564E-01   9.9999998E-03   2.6000118E-01
  1.9998740E-01   9.9999998E-03   2.8000131E-01
  1.9998977E-01   9.9999998E-03   3.0000150E-01
  2.1997967E-01   9.9999998E-03   1.6000080E-01
  2.1997960E-01   9.9999998E-03   1.8000098E-01
  2.1997970E-01   9.9999998E-03   2.0000115E-01
  2.1998009E-01   9.9999998E-03   2.2000131E-01
  2.1998090E-01   9.9999998E-03   2.4000143E-01
  2.1998225E-01   9.9999998E-03   2.6000157E-01
  2.1998419E-01   9.9999998E-03   2.8000179E-01
  2.1998690E-01   9.9999998E-03   3.0000234E-01
  2.3997568E-01   9.9999998E-03   1.6000110E-01
  2.3997554E-01   9.9999998E-03   1.8000133E-01
  2.3997557E-01   9.9999998E-03   2.0000158E-01
  2.3997591E-01   9.9999998E-03   2.2000183E-01
  2.3997670E-01   9.9999998E-03   2.4000208E-01
  2.3997813E-01   9.9999998E-03   2.6000252E-01
  2.3998018E-01   9.9999998E-03   2.8000334E-01
  2.3998313E-01   9.9999998E-03   3.0000490E-01
  2.5997099E-01   9.9999998E-03   1.6000147E-01
  2.5997075E-01   9.9999998E-03   1.8000183E-01
  2.5997069E-01   9.9999998E-03   2.0000219E-01
  2.5997096E-01   9.9999998E-03   2.2000264E-01
  2.5997165E-01   9.9999998E-03   2.4000314E-01
  2.5997302E-01   9.9999998E-03   2.6000401E-01
  2.5997505E-01   9.9999998E-03   2.8000554E-01
  2.5997797E-01   9.9999998E-03   3.0000767E-01
  2.7996549E-01   9.9999998E-03   1.6000195E-01
  2.7996513E-01   9.9999998E-03   1.8000244E-01
  2.7996495E-01   9.9999998E-03   2.0000300E-01
  2.7996510E-01   9.9999998E-03   2.2000366E-01
  2.7996564E-01   9.9999998E-03   2.4000451E-01
  2.7996686E-01   9.9999998E-03   2.6000577E-01
  2.7996877E-01   9.9999998E-03   2.8000775E-01
  2.7997151E-01   9.9999998E-03   3.0001003E-01
  2.9995906E-01   9.9999998E-03   1.6000250E-01
  2.9995856E-01   9.9999998E-03   1.8000317E-01
  2.9995823E-01   9.9999998E-03   2.0000394E-01
  2.9995820E-01   9.9999998E-03   2.2000487E-01
  2.9995862E-01   9.9999998E-03   2.4000603E-01
  2.9995966E-01   9.9999998E-03   2.6000762E-01
  2.9996142E-01   9.9999998E-03   2.8000981E-01
  2.9996398E-01   9.9999998E-03   3.0001220E-01
  3.1995156E-01   9.9999998E-03   1.6000314E-01
  3.1995085E-01   9.9999998E-03   1.8000399E-01
  3.1995034E-01   9.9999998E-03   2.0000499E-01
  3.1995016E-01   9.9999998E-03   2.2000620E-01
  3.1995046E-01   9.9999998E-03   2.4000765E-01
  3.1995139E-01   9.9999998E-03   2.6000950E-01
  3.1995308E-01   9.9999998E-03   2.8001186E-01
  3.1995562E-01   9.9999998E-03   3.0001447E-01
  3.3994281E-01   9.9999998E-03   1.6000383E-01
  3.3994186E-01   9.9999998E-03   1.8000491E-01
  3.3994114E-01   9.9999998E-03   2.0000617E-01
  3.3994079E-01   9.9999998E-03   2.2000764E-01
  3.3994097E-01   9.9999998E-03   2.4000937E-01
  3.3994186E-01   9.9999998E-03   2.6001146E-01
  3.3994365E-01   9.9999998E-03   2.8001407E-01
  3.3994636E-01   9.9999998E-03   3.0001691E-01
  3.5993263E-01   9.9999998E-03   1.6000459E-01
  3.5993144E-01   9.9999998E-03   1.8000589E-01
  3.5993046E-01   9.9999998E-03   2.0000744E-01
  3.5992989E-01   9.9999998E-03   2.2000921E-01
  3.5992995E-01   9.9999998E-03   2.4001123E-01
  3.5993087E-01   9.9999998E-03   2.6001361E-01
  3.5993281E-01   9.9999998E-03   2.8001651E-01
  3.5993588E-01   9.9999998E-03   3.0001968E-01
  3.7992087E-01   9.9999998E-03   1.6000539E-01
  3.7991932E-01   9.9999998E-03   1.8000697E-01
  3.7991804E-01   9.9999998E-03   2.0000881E-01
  3.7991723E-01   9.9999998E-03   2.2001091E-01
  3.7991717E-01   9.9999998E-03   2.4001327E-01
  3.7991813E-01   9.9999998E-03   2.6001599E-01
  3.7992030E-01   9.9999998E-03   2.8001928E-01
  3.7992382E-01   9.9999998E-03   3.0002290E-01
  3.9990726E-01   9.9999998E-03   1.6000630E-01
  3.9990532E-01   9.9999998E-03   1.8000814E-01
  3.9990368E-01   9.9999998E-03   2.0001030E-01
  3.9990261E-01   9.9999998E-03   2.2001278E-01
  3.9990240E-01   9.9999998E-03   2.4001555E-01
  3.9990336E-01   9.9999998E-03   2.6001871E-01
  3.9990574E-01   9.9999998E-03   2.8002250E-01
  3.9990976E-01   9.9999998E-03   3.0002660E-01
  4.1989166E-01   9.9999998E-03   1.6000737E-01
  4.1988921E-01   9.9999998E-03   1.8000948E-01
  4.1988713E-01   9.9999998E-03   2.0001198E-01
  4.1988569E-01   9.9999998E-03   2.2001486E-01
  4.1988528E-01   9.9999998E-03   2.4001810E-01
  4.1988623E-01   9.9999998E-03   2.6002178E-01
  4.1988885E-01   9.9999998E-03   2.8002620E-01
  4.1989341E-01   9.9999998E-03   3.0003098E-01
  4.3987375E-01   9.9999998E-03   1.6000871E-01
  4.3987074E-01   9.9999998E-03   1.8001109E-01
  4.3986809E-01   9.9999998E-03   2.0001391E-01
  4.3986619E-01   9.9999998E-03   2.2001719E-01
  4.3986547E-01   9.9999998E-03   2.4002096E-01
  4.3986636E-01   9.9999998E-03   2.6002532E-01
  4.3986923E-01   9.9999998E-03   2.8003055E-01
  4.3987435E-01   9.9999998E-03   3.0003610E-01
  4.5985332E-01   9.9999998E-03   1.6001056E-01
  4.5984960E-01   9.9999998E-03   1.8001316E-01
  4.5984623E-01   9.9999998E-03   2.0001626E-01
  4.5984370E-01   9.9999998E-03   2.2001991E-01
  4.5984256E-01   9.9999998E-03   2.4002418E-01
  4.5984331E-01   9.9999998E-03   2.6002932E-01
  4.5984635E-01   9.9999998E-03   2.8003564E-01
  4.5985204E-01   9.9999998E-03   3.0004224E-01
  4.7983000E-01   9.9999998E-03   1.6001323E-01
  4.7982541E-01   9.9999998E-03   1.8001603E-01
  4.7982118E-01   9.9999998E-03   2.0001931E-01
  4.7981787E-01   9.9999998E-03   2.2002320E-01
  4.7981611E-01   9.9999998E-03   2.4002790E-01
  4.7981650E-01   9.9999998E-03   2.6003391E-01
  4.7981957E-01   9.9999998E-03   2.8004169E-01
  4.7982574E-01   9.9999998E-03   3.0004963E-01
  4.9980345E-01   9.9999998E-03   1.6001718E-01
  4.9979785E-01   9.9999998E-03   1.8002018E-01
  4.9979261E-01   9.9999998E-03   2.0002356E-01
  4.9978828E-01   9.9999998E-03   2.2002749E-01
  4.9978569E-01   9.9999998E-03   2.4003243E-01
  4.9978542E-01   9.9999998E-03   2.6003921E-01
  4.9978819E-01   9.9999998E-03   2.8004885E-01
  4.9979448E-01   9.9999998E-03   3.0005863E-01
  5.1977336E-01   9.9999998E-03   1.6002300E-01
  5.1976675E-01   9.9999998E-03   1.8002628E-01
  5.1976031E-01   9.9999998E-03   2.0002972E-01
  5.1975477E-01   9.9999998E-03   2.2003353E-01
  5.1975101E-01   9.9999998E-03   2.4003839E-01
  5.1974964E-01   9.9999998E-03   2.6004568E-01
  5.1975143E-01   9.9999998E-03   2.8005749E-01
  5.1975703E-01   9.9999998E-03   3.0006969E-01
  5.3973985E-01   9.9999998E-03   1.6003129E-01
  5.3973210E-01   9.9999998E-03   1.8003505E-01
  5.3972441E-01   9.9999998E-03   2.0003870E-01
  5.3971750E-01   9.9999998E-03   2.2004233E-01
  5.3971219E-01   9.9999998E-03   2.4004681E-01
  5.3970903E-01   9.9999998E-03   2.6005417E-01
  5.3970897E-01   9.9999998E-03   2.8006825E-01
  5.3971231E-01   9.9999998E-03   3.0008346E-01
  5.5970347E-01   9.9999998E-03   1.6004258E-01
  5.5969459E-01   9.9999998E-03   1.8004721E-01
  5.5968571E-01   9.9999998E-03   2.0005140E-01
  5.5967730E-01   9.9999998E-03   2.2005507E-01
  5.5967009E-01   9.9999998E-03   2.4005896E-01
  5.5966455E-01   9.9999998E-03   2.6006615E-01
  5.5966121E-01   9.9999998E-03   2.8008232E-01
  5.5966026E-01   9.9999998E-03   3.0010086E-01
  5.7966572E-01   9.9999998E-03   1.6005711E-01
  5.7965583E-01   9.9999998E-03   1.8006322E-01
  5.7964575E-01   9.9999998E-03   2.0006838E-01
  5.7963592E-01   9.9999998E-03   2.2007267E-01
  5.7962662E-01   9.9999998E-03   2.4007632E-01
  5.7961816E-01   9.9999998E-03   2.6008359E-01
  5.7961041E-01   9.9999998E-03   2.8010178E-01
  5.7960290E-01   9.9999998E-03   3.0012351E-01
  5.9962875E-01   9.9999998E-03   1.6007444E-01
  5.9961772E-01   9.9999998E-03   1.8008220E-01
  5.9960657E-01   9.9999998E-03   2.0008919E-01
  5.9959543E-01   9.9999998E-03   2.2009508E-01
  5.9958422E-01   9.9999998E-03   2.4010012E-01
  5.9957284E-01   9.9999998E-03   2.6010925E-01
  5.9956032E-01   9.9999998E-03   2.8012991E-01
  5.9954524E-01   9.9999998E-03   3.0015391E-01
  6.1959499E-01   9.9999998E-03   1.6009460E-01
  6.1958271E-01   9.9999998E-03   1.8010414E-01
  6.1957014E-01   9.9999998E-03   2.0011321E-01
  6.1955768E-01   9.9999998E-03   2.2012223E-01
  6.1954457E-01   9.9999998E-03   2.4013148E-01
  6.1953074E-01   9.9999998E-03   2.6014617E-01
  6.1951518E-01   9.9999998E-03   2.8017116E-01
  6.1949408E-01   9.9999998E-03   3.0019575E-01
  6.3956594E-01   9.9999998E-03   1.6011716E-01
  6.3955271E-01   9.9999998E-03   1.8012922E-01
  6.3953853E-01   9.9999998E-03   2.0014116E-01
  6.3952440E-01   9.9999998E-03   2.2015546E-01
  6.3951057E-01   9.9999998E-03   2.4017558E-01
  6.3949633E-01   9.9999998E-03   2.6020202E-01
  6.3947910E-01   9.9999998E-03   2.8022850E-01
  6.3945591E-01   9.9999998E-03   3.0025175E-01
  6.5954471E-01   9.9999998E-03   1.6014397E-01
  6.5953106E-01   9.9999998E-03   1.8015975E-01
  6.5951663E-01   9.9999998E-03   2.0017791E-01
  6.5950257E-01   9.9999998E-03   2.2020362E-01
  6.5948999E-01   9.9999998E-03   2.4024019E-01
  6.5947604E-01   9.9999998E-03   2.6027581E-01
  6.5945745E-01   9.9999998E-03   2.8029567E-01
  6.5943515E-01   9.9999998E-03   3.0031717E-01
  6.7953658E-01   9.9999998E-03   1.6017973E-01
  6.7952317E-01   9.9999998E-03   1.8020065E-01
  6.7950922E-01   9.9999998E-03   2.0022681E-01
  6.7949694E-01   9.9999998E-03   2.2026548E-01
  6.7948723E-01   9.9999998E-03   2.4031451E-01
  6.7947423E-01   9.9999998E-03   2.6034746E-01
  6.7945570E-01   9.9999998E-03   2.8035754E-01
  6.7944193E-01   9.9999998E-03   3.0037841E-01
  6.9955218E-01   9.9999998E-03   1.6022553E-01
  6.9954002E-01   9.9999998E-03   1.8025263E-01
  6.9952786E-01   9.9999998E-03   2.0028621E-01
  6.9951910E-01   9.9999998E-03   2.2033206E-01
  6.9951397E-01   9.9999998E-03   2.4038091E-01
  6.9950384E-01   9.9999998E-03   2.6040599E-01
  6.9949800E-01   9.9999998E-03   2.8040546E-01
  6.9952238E-01   9.9999998E-03   3.0042478E-01
  7.1962875E-01   9.9999998E-03   1.6027158E-01
  7.1961683E-01   9.9999998E-03   1.8030348E-01
  7.1960586E-01   9.9999998E-03   2.0034119E-01
  7.1959931E-01   9.9999998E-03   2.2038552E-01
  7.1960163E-01   9.9999998E-03   2.4042609E-01
  7.1961325E-01   9.9999998E-03   2.6044160E-01
  7.1963608E-01   9.9999998E-03   2.8043836E-01
  7.1966892E-01   9.9999998E-03   3.0045947E-01
  7.3976135E-01   9.9999998E-03   1.6028865E-01
  7.3975354E-01   9.9999998E-03   1.8032081E-01
  7.3974687E-01   9.9999998E-03   2.0035733E-01
  7.3974407E-01   9.9999998E-03   2.2039941E-01
  7.3974830E-01   9.9999998E-03   2.4043722E-01
  7.3975945E-01   9.9999998E-03   2.6045379E-01
  7.3977625E-01   9.9999998E-03   2.8045788E-01
  7.3979884E-01   9.9999998E-03   3.0048493E-01
  7.5986719E-01   9.9999998E-03   1.6029748E-01
  7.5986344E-01   9.9999998E-03   1.8032856E-01
  7.5986081E-01   9.9999998E-03   2.0036298E-01
  7.5986075E-01   9.9999998E-03   2.2040273E-01
  7.5986463E-01   9.9999998E-03   2.4043910E-01
  7.5987226E-01   9.9999998E-03   2.6045844E-01
  7.5988209E-01   9.9999998E-03   2.8047070E-01
  7.5989562E-01   9.9999998E-03   3.0050290E-01
  7.7994680E-01   9.9999998E-03   1.6030091E-01
  7.7994603E-01   9.9999998E-03   1.8033081E-01
  7.7994603E-01   9.9999998E-03   2.0036373E-01
  7.7994740E-01   9.9999998E-03   2.2040251E-01
  7.7995032E-01   9.9999998E-03   2.4043874E-01
  7.7995431E-01   9.9999998E-03   2.6046070E-01
  7.7995825E-01   9.9999998E-03   2.8047904E-01
  7.7996391E-01   9.9999998E-03   3.0051446E-01
  8.0001169E-01   9.9999998E-03   1.6030030E-01
  8.0001318E-01   9.9999998E-03   1.8032937E-01
  8.0001509E-01   9.9999998E-03   2.0036159E-01
  8.0001712E-01   9.9999998E-03   2.2040114E-01
  8.0001879E-01   9.9999998E-03   2.4043837E-01
  8.0001926E-01   9.9999998E-03   2.6046214E-01
  8.0001861E-01   9.9999998E-03   2.8048348E-01
  8.0001748E-01   9.9999998E-03   3.0052021E-01
  8.2007307E-01   9.9999998E-03   1.6029656E-01
  8.2007664E-01   9.9999998E-03   1.8032517E-01
  8.2008022E-01   9.9999998E-03   2.0035729E-01
  8.2008284E-01   9.9999998E-03   2.2039883E-01
  8.2008326E-01   9.9999998E-03   2.4043785E-01
  8.2008082E-01   9.9999998E-03   2.6046261E-01
  8.2007670E-01   9.9999998E-03   2.8048384E-01
  8.2006943E-01   9.9999998E-03   3.0052033E-01
  8.4013623E-01   9.9999998E-03   1.6029006E-01
  8.4014195E-01   9.9999998E-03   1.8031834E-01
  8.4014750E-01   9.9999998E-03   2.0035037E-01
  8.4015113E-01   9.9999998E-03   2.2039293E-01
  8.4015054E-01   9.9999998E-03   2.4043302E-01
  8.4014577E-01   9.9999998E-03   2.6045772E-01
  8.4013891E-01   9.9999998E-03   2.8047797E-01
  8.4012622E-01   9.9999998E-03   3.0051357E-01
  8.6020017E-01   9.9999998E-03   1.6028084E-01
  8.6020827E-01   9.9999998E-03   1.8030865E-01
  8.6021602E-01   9.9999998E-03   2.0034027E-01
  8.6022127E-01   9.9999998E-03   2.2038254E-01
  8.6021996E-01   9.9999998E-03   2.4042246E-01
  8.6021340E-01   9.9999998E-03   2.6044655E-01
  8.6020440E-01   9.9999998E-03   2.8046593E-01
  8.6018664E-01   9.9999998E-03   3.0050042E-01
  8.8026083E-01   9.9999998E-03   1.6026889E-01
  8.8027126E-01   9.9999998E-03   1.8029591E-01
  8.8028139E-01   9.9999998E-03   2.0032661E-01
  8.8028842E-01   9.9999998E-03   2.2036749E-01
  8.8028681E-01   9.9999998E-03   2.4040607E-01
  8.8027859E-01   9.9999998E-03   2.6042947E-01
  8.8026804E-01   9.9999998E-03   2.8044847E-01
  8.8024586E-01   9.9999998E-03   3.0048174E-01
  9.0031368E-01   9.9999998E-03   1.6025431E-01
  9.0032625E-01   9.9999998E-03   1.8028016E-01
  9.0033859E-01   9.9999998E-03   2.0030940E-01
  9.0034676E-01   9.9999998E-03   2.2034734E-01
  9.0034461E-01   9.9999998E-03   2.4038400E-01
  9.0033537E-01   9.9999998E-03   2.6040712E-01
  9.0032440E-01   9.9999998E-03   2.8042653E-01
  9.0029883E-01   9.9999998E-03   3.0045840E-01
  9.2034781E-01   9.9999998E-03   1.6023754E-01
  9.2036420E-01   9.9999998E-03   1.8026197E-01
  9.2038101E-01   9.9999998E-03   2.0028922E-01
  9.2039168E-01   9.9999998E-03   2.2032282E-01
  9.2038906E-01   9.9999998E-03   2.4035744E-01
  9.2037994E-01   9.9999998E-03   2.6038092E-01
  9.2036855E-01   9.9999998E-03   2.8040096E-01
  9.2034149E-01   9.9999998E-03   3.0043140E-01
  9.4035488E-01   9.9999998E-03   1.6021942E-01
  9.4037300E-01   9.9999998E-03   1.8024240E-01
  9.4039351E-01   9.9999998E-03   2.0026754E-01
  9.4041276E-01   9.9999998E-03   2.2029753E-01
  9.4041896E-01   9.9999998E-03   2.4032842E-01
  9.4041157E-01   9.9999998E-03   2.6035270E-01
  9.4039977E-01   9.9999998E-03   2.8037280E-01
  9.4037163E-01   9.9999998E-03   3.0040166E-01
  9.6035343E-01   9.9999998E-03   1.6020088E-01
  9.6037203E-01   9.9999998E-03   1.8022241E-01
  9.6039319E-01   9.9999998E-03   2.0024519E-01
  9.6041530E-01   9.9999998E-03   2.2027348E-01
  9.6043175E-01   9.9999998E-03   2.4030061E-01
  9.6043193E-01   9.9999998E-03   2.6032311E-01
  9.6042097E-01   9.9999998E-03   2.8034300E-01
  9.6039295E-01   9.9999998E-03   3.0037007E-01
  9.8034817E-01   9.9999998E-03   1.6018294E-01
  9.8036712E-01   9.9999998E-03   1.8020292E-01
  9.8038894E-01   9.9999998E-03   2.0022327E-01
  9.8041260E-01   9.9999998E-03   2.2024934E-01
  9.8043323E-01   9.9999998E-03   2.4027430E-01
  9.8044342E-01   9.9999998E-03   2.6029360E-01
  9.8043698E-01   9.9999998E-03   2.8031236E-01
  9.8041123E-01   9.9999998E-03   3.0033788E-01
  1.0003412E+00   9.9999998E-03   1.6016644E-01
  1.0003604E+00   9.9999998E-03   1.8018454E-01
  1.0003825E+00   9.9999998E-03   2.0020282E-01
  1.0004072E+00   9.9999998E-03   2.2022517E-01
  1.0004314E+00   9.9999998E-03   2.4024867E-01
  1.0004481E+00   9.9999998E-03   2.6026526E-01
  1.0004507E+00   9.9999998E-03   2.8028172E-01
  1.0004318E+00   9.9999998E-03   3.0030620E-01
  1.0203329E+00   9.9999998E-03   1.6015087E-01
  1.0203526E+00   9.9999998E-03   1.8016732E-01
  1.0203755E+00   9.9999998E-03   2.0018423E-01
  1.0204012E+00   9.9999998E-03   2.2020316E-01
  1.0204289E+00   9.9999998E-03   2.4022396E-01
  1.0204511E+00   9.9999998E-03   2.6023850E-01
  1.0204641E+00   9.9999998E-03   2.8025252E-01
  1.0204589E+00   9.9999998E-03   3.0027595E-01
  1.0403234E+00   9.9999998E-03   1.6013610E-01
  1.0403440E+00   9.9999998E-03   1.8015160E-01
  1.0403677E+00   9.9999998E-03   2.0016631E-01
  1.0403957E+00   9.9999998E-03   2.2018334E-01
  1.0404265E+00   9.9999998E-03   2.4020146E-01
  1.0404550E+00   9.9999998E-03   2.6021427E-01
  1.0404807E+00   9.9999998E-03   2.8022707E-01
  1.0404967E+00   9.9999998E-03   3.0024764E-01
  1.0603131E+00   9.9999998E-03   1.6012228E-01
  1.0603347E+00   9.9999998E-03   1.8013635E-01
  1.0603602E+00   9.9999998E-03   2.0014955E-01
  1.0603911E+00   9.9999998E-03   2.2016540E-01
  1.0604252E+00   9.9999998E-03   2.4018227E-01
  1.0604619E+00   9.9999998E-03   2.6019445E-01
  1.0604993E+00   9.9999998E-03   2.8020653E-01
  1.0605346E+00   9.9999998E-03   3.0022222E-01
  1.0803030E+00   9.9999998E-03   1.6010943E-01
  1.0803255E+00   9.9999998E-03   1.8012129E-01
  1.0803535E+00   9.9999998E-03   2.0013404E-01
  1.0803875E+00   9.9999998E-03   2.2014958E-01
  1.0804251E+00   9.9999998E-03   2.4016498E-01
  1.0804682E+00   9.9999998E-03   2.6017696E-01
  1.0805128E+00   9.9999998E-03   2.8018931E-01
  1.0805564E+00   9.9999998E-03   3.0020198E-01
  1.1002929E+00   9.9999998E-03   1.6009609E-01
  1.1003175E+00   9.9999998E-03   1.8010721E-01
  1.1003484E+00   9.9999998E-03   2.0012008E-01
  1.1003853E+00   9.9999998E-03   2.2013514E-01
  1.1004267E+00   9.9999998E-03   2.4014935E-01
  1.1004715E+00   9.9999998E-03   2.6016060E-01
  1.1005182E+00   9.9999998E-03   2.8017375E-01
  1.1202847E+00   9.9999998E-03   1.6008364E-01
  1.1203116E+00   9.9999998E-03   1.8009460E-01
  1.1203452E+00   9.9999998E-03   2.0010768E-01
  1.1203855E+00   9.9999998E-03   2.2012255E-01
  1.1204290E+00   9.9999998E-03   2.4013574E-01
  1.1204733E+00   9.9999998E-03   2.6014769E-01
  1.1205157E+00   9.9999998E-03   2.8016078E-01
  1.1402787E+00   9.9999998E-03   1.6007277E-01
  1.1403081E+00   9.9999998E-03   1.8008420E-01
  1.1403452E+00   9.9999998E-03   2.0009835E-01
  1.1403888E+00   9.9999998E-03   2.2011383E-01
  1.1404315E+00   9.9999998E-03   2.4012637E-01
  1.1404727E+00   9.9999998E-03   2.6013938E-01
  1.1602757E+00   9.9999998E-03   1.6006467E-01
  1.1603088E+00   9.9999998E-03   1.8007773E-01
  1.1603506E+00   9.9999998E-03   2.0009395E-01
  1.1603943E+00   9.9999998E-03   2.2010913E-01
  1.1604342E+00   9.9999998E-03   2.4012242E-01
  1.1604674E+00   9.9999998E-03   2.6013336E-01
  1.1802783E+00   9.9999998E-03   1.6006155E-01
  1.1803173E+00   9.9999998E-03   1.8007775E-01
  1.1803595E+00   9.9999998E-03   2.0009422E-01
  1.1803993E+00   9.9999998E-03   2.2010829E-01
  1.1804322E+00   9.9999998E-03   2.4012019E-01
  1.2002903E+00   9.9999998E-03   1.6006586E-01
  1.2003300E+00   9.9999998E-03   1.8008181E-01
  1.2003683E+00   9.9999998E-03   2.0009689E-01
  1.2003996E+00   9.9999998E-03   2.2010832E-01
  1.2203063E+00   9.9999998E-03   1.6007273E-01
  1.2203401E+00   9.9999998E-03   1.8008645E-01
  1.2203701E+00   9.9999998E-03   2.0009878E-01
  1.2203875E+00   9.9999998E-03   2.2010347E-01
  1.2403138E+00   9.9999998E-03   1.6007699E-01
  1.2403376E+00   9.9999998E-03   1.8008694E-01
  1.2603067E+00   9.9999998E-03   1.6007638E-01
VERTICES 2975 5950
1 0
1 1
1 2
1 3
1 4
1 5
1 6
1 7
1 8
1 9
1 10
1 11
1 12
1 13
1 14
1 15
1 16
1 17
1 18
1 19
1 20
1 21
1 22
1 23
1 24
1 25
1 26
1 27
1 28
1 29
1 30
1 31
1 32
1 33
1 34
1 35
1 36
1 37
1 38
1 39
1 40
1 41
1 42
1 43
1 44
1 45
1 46
1 47
1 48
1 49
1 50
1 51
1 52
1 53
1 54
1 55
1 56
1 57
1 58
1 59
1 60
1 61
1 62
1 63
1 64
1 65
1 66
1 67
1 68
1 69
1 70
1 71
1 72
1 73
1 74
1 75
1 76
1 77
1 78
1 79
1 80
1 81
1 82
1 83
1 84
1 85
1 86
1 87
1 88
1 89
1 90
1 91
1 92
1 93
1 94
1 95
1 96
1 97
1 98
1 99
1 100
1 101
1 102
1 103
1 104
1 105
1 106
1 107
1 108
1 109
1 110
1 111
1 112
1 113
1 114
1 115
1 116
1 117
1 118
1 119
1 120
1 121
1 122
1 123
1 124
1 125
1 126
1 127
1 128
1 129
1 130
1 131
1 132
1 133
1 134
1 135
1 136
1 137
1 138
1 139
1 140
1 141
1 142
1 143
1 144
1 145
1 146
1 147
1 148
1 149
1 150
1 151
1 152
1 153
1 154
1 155
1 156
1 157
1 158
1 159
1 160
1 161
1 162
1 163
1 164
1 165
1 166
1 167
1 168
1 169
1 170
1 171
1 172
1 173
1 174
1 175
1 176
1 177
1 178
1 179
1 180
1 181
1 182
1 183
1 184
1 185
1 186
1 187
1 188
1 189
1 190
1 191
1 192
1 193
1 194
1 195
1 196
1 197
1 198
1 199
1 200
1 201
1 202
1 203
1 204
1 205
1 206
1 207
1 208
1 209
1 210
1 211
1 212
1 213
1 214
1 215
1 216
1 217
1 218
1 219
1 220
1 221
1 222
1 223
1 224
1 225
1 226
1 227
1 228
1 229
1 230
1 231
1 232
1 233
1 234
1 235
1 236
1 237
1 238
1 239
1 240
1 241
1 242
1 243
1 244
1 245
1 246
1 247
1 248
1 249
1 250
1 251
1 252
1 253
1 254
1 255
1 256
1 257
1 258
1 259
1 260
1 261
1 262
1 263
1 264
1 265
1 266
1 267
1 268
1 269
1 270
1 271
1 272
1 273
1 274
1 275
1 276
1 277
1 278
1 279
1 280
1 281
1 282
1 283
1 284
1 285
1 286
1 287
1 288
1 289
1 290
1 291
1 292
1 293
1 294
1 295
1 296
1 297
1 298
1 299
1 300
1 301
1 302
1 303
1 304
1 305
1 306
1 307
1 308
1 309
1 310
1 311
1 312
1 313
1 314
1 315
1 316
1 317
1 318
1 319
1 320
1 321
1 322
1 323
1 324
1 325
1 326
1 327
1 328
1 329
1 330
1 331
1 332
1 333
1 334
1 335
1 336
1 337
1 338
1 339
1 340
1 341
1 342
1 343
1 344
1 345
1 346
1 347
1 348
1 349
1 350
1 351
1 352
1 353
1 354
1 355
1 356
1 357
1 358
1 359
1 360
1 361
1 362
1 363
1 364
1 365
1 366
1 367
1 368
1 369
1 370
1 371
1 372
1 373
1 374
1 375
1 376
1 377
1 378
1 379
1 380
1 381
1 382
1 383
1 384
1 385
1 386
1 387
1 388
1 389
1 390
1 391
1 392
1 393
1 394
1 395
1 396
1 397
1 398
1 399
1 400
1 401
1 402
1 403
1 404
1 405
1 406
1 407
1 408
1 409
1 410
1 411
1 412
1 413
1 414
1 415
1 416
1 417
1 418
1 419
1 420
1 421
1 422
1 423
1 424
1 425
1 426
1 427
1 428
1 429
1 430
1 431
1 432
1 433
1 434
1 435
1 436
1 437
1 438
1 439
1 440
1 441
1 442
1 443
1 444
1 445
1 446
1 447
1 448
1 449
1 450
1 451
1 452
1 453
1 454
1 455
1 456
1 457
1 458
1 459
1 460
1 461
1 462
1 463
1 464
1 465
1 466
1 467
1 468
1 469
1 470
1 471
1 472
1 473
1 474
1 475
1 476
1 477
1 478
1 479
1 480
1 481
1 482
1 483
1 484
1 485
1 486
1 487
1 488
1 489
1 490
1 491
1 492
1 493
1 494
1 495
1 496
1 497
1 498
1 499
1 500
1 501
1 502
1 503
1 504
1 505
1 506
1 507
1 508
1 509
1 510
1 511
1 512
1 513
1 514
1 515
1 516
1 517
1 518
1 519
1 520
1 521
1 522
1 523
1 524
1 525
1 526
1 527
1 528
1 529
1 530
1 531
1 532
1 533
1 534
1 535
1 536
1 537
1 538
1 539
1 540
1 541
1 542
1 543
1 544
1 545
1 546
1 547
1 548
1 549
1 550
1 551
1 552
1 553
1 554
1 555
1 556
1 557
1 558
1 559
1 560
1 561
1 562
1 563
1 564
1 565
1 566
1 567
1 568
1 569
1 570
1 571
1 572
1 573
1 574
1 575
1 576
1 577
1 578
1 579
1 580
1 581
1 582
1 583
1 584
1 585
1 586
1 587
1 588
1 589
1 590
1 591
1 592
1 593
1 594
1 595
1 596
1 597
1 598
1 599
1 600
1 601
1 602
1 603
1 604
1 605
1 606
1 607
1 608
1 609
1 610
1 611
1 612
1 613
1 614
1 615
1 616
1 617
1 618
1 619
1 620
1 621
1 622
1 623
1 624
1 625
1 626
1 627
1 628
1 629
1 630
1 631
1 632
1 633
1 634
1 635
1 636
1 637
1 638
1 639
1 640
1 641
1 642
1 643
1 644
1 645
1 646
1 647
1 648
1 649
1 650
1 651
1 652
1 653
1 654
1 655
1 656
1 657
1 658
1 659
1 660
1 661
1 662
1 663
1 664
1 665
1 666
1 667
1 668
1 669
1 670
1 671
1 672
1 673
1 674
1 675
1 676
1 677
1 678
1 679
1 680
1 681
1 682
1 683
1 684
1 685
1 686
1 687
1 688
1 689
1 690
1 691
1 692
1 693
1 694
1 695
1 696
1 697
1 698
1 699
1 700
1 701
1 702
1 703
1 704
1 705
1 706
1 707
1 708
1 709
1 710
1 711
1 712
1 713
1 714
1 715
1 716
1 717
1 718
1 719
1 720
1 721
1 722
1 723
1 724
1 725
1 726
1 727
1 728
1 729
1 730
1 731
1 732
1 733
1 734
1 735
1 736
1 737
1 738
1 739
1 740
1 741
1 742
1 743
1 744
1 745
1 746
1 747
1 748
1 749
1 750
1 751
1 752
1 753
1 754
1 755
1 756
1 757
1 758
1 759
1 760
1 761
1 762
1 763
1 764
1 765
1 766
1 767
1 768
1 769
1 770
1 771
1 772
1 773
1 774
1 775
1 776
1 777
1 778
1 779
1 780
1 781
1 782
1 783
1 784
1 785
1 786
1 787
1 788
1 789
1 790
1 791
1 792
1 793
1 794
1 795
1 796
1 797
1 798
1 799
1 800
1 801
1 802
1 803
1 804
1 805
1 806
1 807
1 808
1 809
1 810
1 811
1 812
1 813
1 814
1 815
1 816
1 817
1 818
1 819
1 820
1 821
1 822
1 823
1 824
1 825
1 826
1 827
1 828
1 829
1 830
1 831
1 832
1 833
1 834
1 835
1 836
1 837
1 838
1 839
1 840
1 841
1 842
1 843
1 844
1 845
1 846
1 847
1 848
1 849
1 850
1 851
1 852
1 853
1 854
1 855
1 856
1 857
1 858
1 859
1 860
1 861
1 862
1 863
1 864
1 865
1 866
1 867
1 868
1 869
1 870
1 871
1 872
1 873
1 874
1 875
1 876
1 877
1 878
1 879
1 880
1 881
1 882
1 883
1 884
1 885
1 886
1 887
1 888
1 889
1 890
1 891
1 892
1 893
1 894
1 895
1 896
1 897
1 898
1 899
1 900
1 901
1 902
1 903
1 904
1 905
1 906
1 907
1 908
1 909
1 910
1 911
1 912
1 913
1 914
1 915
1 916
1 917
1 918
1 919
1 920
1 921
1 922
1 923
1 924
1 925
1 926
1 927
1 928
1 929
1 930
1 931
1 932
1 933
1 934
1 935
1 936
1 937
1 938
1 939
1 940
1 941
1 942
1 943
1 944
1 945
1 946
1 947
1 948
1 949
1 950
1 951
1 952
1 953
1 954
1 955
1 956
1 957
1 958
1 959
1 960
1 961
1 962
1 963
1 964
1 965
1 966
1 967
1 968
1 969
1 970
1 971
1 972
1 973
1 974
1 975
1 976
1 977
1 978
1 979
1 980
1 981
1 982
1 983
1 984
1 985
1 986
1 987
1 988
1 989
1 990
1 991
1 992
1 993
1 994
1 995
1 996
1 997
1 998
1 999
1 1000
1 1001
1 1002
1 1003
1 1004
1 1005
1 1006
1 1007
1 1008
1 1009
1 1010
1 1011
1 1012
1 1013
1 1014
1 1015
1 1016
1 1017
1 1018
1 1019
1 1020
1 1021
1 1022
1 1023
1 1024
1 1025
1 1026
1 1027
1 1028
1 1029
1 1030
1 1031
1 1032
1 1033
1 1034
1 1035
1 1036
1 1037
1 1038
1 1039
1 1040
1 1041
1 1042
1 1043
1 1044
1 1045
1 1046
1 1047
1 1048
1 1049
1 1050
1 1051
1 1052
1 1053
1 1054
1 1055
1 1056
1 1057
1 1058
1 1059
1 1060
1 1061
1 1062
1 1063
1 1064
1 1065
1 1066
1 1067
1 1068
1 1069
1 1070
1 1071
1 1072
1 1073
1 1074
1 1075
1 1076
1 1077
1 1078
1 1079
1 1080
1 1081
1 1082
1 1083
1 1084
1 1085
1 1086
1 1087
1 1088
1 1089
1 1090
1 1091
1 1092
1 1093
1 1094
1 1095
1 1096
1 1097
1 1098
1 1099
1 1100
1 1101
1 1102
1 1103
1 1104
1 1105
1 1106
1 1107
1 1108
1 1109
1 1110
1 1111
1 1112
1 1113
1 1114
1 1115
1 1116
1 1117
1 1118
1 1119
1 1120
1 1121
1 1122
1 1123
1 1124
1 1125
1 1126
1 1127
1 1128
1 1129
1 1130
1 1131
1 1132
1 1133
1 1134
1 1135
1 1136
1 1137
1 1138
1 1139
1 1140
1 1141
1 1142
1 1143
1 1144
1 1145
1 1146
1 1147
1 1148
1 1149
1 1150
1 1151
1 1152
1 1153
1 1154
1 1155
1 1156
1 1157
1 1158
1 1159
1 1160
1 1161
1 1162
1 1163
1 1164
1 1165
1 1166
1 1167
1 1168
1 1169
1 1170
1 1171
1 1172
1 1173
1 1174
1 1175
1 1176
1 1177
1 1178
1 1179
1 1180
1 1181
1 1182
1 1183
1 1184
1 1185
1 1186
1 1187
1 1188
1 1189
1 1190
1 1191
1 1192
1 1193
1 1194
1 1195
1 1196
1 1197
1 1198
1 1199
1 1200
1 1201
1 1202
1 1203
1 1204
1 1205
1 1206
1 1207
1 1208
1 1209
1 1210
1 1211
1 1212
1 1213
1 1214
1 1215
1 1216
1 1217
1 1218
1 1219
1 1220
1 1221
1 1222
1 1223
1 1224
1 1225
1 1226
1 1227
1 1228
1 1229
1 1230
1 1231
1 1232
1 1233
1 1234
1 1235
1 1236
1 1237
1 1238
1 1239
1 1240
1 1241
1 1242
1 1243
1 1244
1 1245
1 1246
1 1247
1 1248
1 1249
1 1250
1 1251
1 1252
1 1253
1 1254
1 1255
1 1256
1 1257
1 1258
1 1259
1 1260
1 1261
1 1262
1 1263
1 1264
1 1265
1 1266
1 1267
1 1268
1 1269
1 1270
1 1271
1 1272
1 1273
1 1274
1 1275
1 1276
1 1277
1 1278
1 1279
1 1280
1 1281
1 1282
1 1283
1 1284
1 1285
1 1286
1 1287
1 1288
1 1289
1 1290
1 1291
1 1292
1 1293
1 1294
1 1295
1 1296
1 1297
1 1298
1 1299
1 1300
1 1301
1 1302
1 1303
1 1304
1 1305
1 1306
1 1307
1 1308
1 1309
1 1310
1 1311
1 1312
1 1313
1 1314
1 1315
1 1316
1 1317
1 1318
1 1319
1 1320
1 1321
1 1322
1 1323
1 1324
1 1325
1 1326
1 1327
1 1328
1 1329
1 1330
1 1331
1 1332
1 1333
1 1334
1 1335
1 1336
1 1337
1 1338
1 1339
1 1340
1 1341
1 1342
1 1343
1 1344
1 1345
1 1346
1 1347
1 1348
1 1349
1 1350
1 1351
1 1352
1 1353
1 1354
1 1355
1 1356
1 1357
1 1358
1 1359
1 1360
1 1361
1 1362
1 1363
1 1364
1 1365
1 1366
1 1367
1 1368
1 1369
1 1370
1 1371
1 1372
1 1373
1 1374
1 1375
1 1376
1 1377
1 1378
1 1379
1 1380
1 1381
1 1382
1 1383
1 1384
1 1385
1 1386
1 1387
1 1388
1 1389
1 1390
1 1391
1 1392
1 1393
1 1394
1 1395
1 1396
1 1397
1 1398
1 1399
1 1400
1 1401
1 1402
1 1403
1 1404
1 1405
1 1406
1 1407
1 1408
1 1409
1 1410
1 1411
1 1412
1 1413
1 1414
1 1415
1 1416
1 1417
1 1418
1 1419
1 1420
1 1421
1 1422
1 1423
1 1424
1 1425
1 1426
1 1427
1 1428
1 1429
1 1430
1 1431
1 1432
1 1433
1 1434
1 1435
1 1436
1 1437
1 1438
1 1439
1 1440
1 1441
1 1442
1 1443
1 1444
1 1445
1 1446
1 1447
1 1448
1 1449
1 1450
1 1451
1 1452
1 1453
1 1454
1 1455
1 1456
1 1457
1 1458
1 1459
1 1460
1 1461
1 1462
1 1463
1 1464
1 1465
1 1466
1 1467
1 1468
1 1469
1 1470
1 1471
1 1472
1 1473
1 1474
1 1475
1 1476
1 1477
1 1478
1 1479
1 1480
1 1481
1 1482
1 1483
1 1484
1 1485
1 1486
1 1487
1 1488
1 1489
1 1490
1 1491
1 1492
1 1493
1 1494
1 1495
1 1496
1 1497
1 1498
1 1499
1 1500
1 1501
1 1502
1 1503
1 1504
1 1505
1 1506
1 1507
1 1508
1 1509
1 1510
1 1511
1 1512
1 1513
1 1514
1 1515
1 1516
1 1517
1 1518
1 1519
1 1520
1 1521
1 1522
1 1523
1 1524
1 1525
1 1526
1 1527
1 1528
1 1529
1 1530
1 1531
1 1532
1 1533
1 1534
1 1535
1 1536
1 1537
1 1538
1 1539
1 1540
1 1541
1 1542
1 1543
1 1544
1 1545
1 1546
1 1547
1 1548
1 1549
1 1550
1 1551
1 1552
1 1553
1 1554
1 1555
1 1556
1 1557
1 1558
1 1559
1 1560
1 1561
1 1562
1 1563
1 1564
1 1565
1 1566
1 1567
1 1568
1 1569
1 1570
1 1571
1 1572
1 1573
1 1574
1 1575
1 1576
1 1577
1 1578
1 1579
1 1580
1 1581
1 1582
1 1583
1 1584
1 1585
1 1586
1 1587
1 1588
1 1589
1 1590
1 1591
1 1592
1 1593
1 1594
1 1595
1 1596
1 1597
1 1598
1 1599
1 1600
1 1601
1 1602
1 1603
1 1604
1 1605
1 1606
1 1607
1 1608
1 1609
1 1610
1 1611
1 1612
1 1613
1 1614
1 1615
1 1616
1 1617
1 1618
1 1619
1 1620
1 1621
1 1622
1 1623
1 1624
1 1625
1 1626
1 1627
1 1628
1 1629
1 1630
1 1631
1 1632
1 1633
1 1634
1 1635
1 1636
1 1637
1 1638
1 1639
1 1640
1 1641
1 1642
1 1643
1 1644
1 1645
1 1646
1 1647
1 1648
1 1649
1 1650
1 1651
1 1652
1 1653
1 1654
1 1655
1 1656
1 1657
1 1658
1 1659
1 1660
1 1661
1 1662
1 1663
1 1664
1 1665
1 1666
1 1667
1 1668
1 1669
1 1670
1 1671
1 1672
1 1673
1 1674
1 1675
1 1676
1 1677
1 1678
1 1679
1 1680
1 1681
1 1682
1 1683
1 1684
1 1685
1 1686
1 1687
1 1688
1 1689
1 1690
1 1691
1 1692
1 1693
1 1694
1 1695
1 1696
1 1697
1 1698
1 1699
1 1700
1 1701
1 1702
1 1703
1 1704
1 1705
1 1706
1 1707
1 1708
1 1709
1 1710
1 1711
1 1712
1 1713
1 1714
1 1715
1 1716
1 1717
1 1718
1 1719
1 1720
1 1721
1 1722
1 1723
1 1724
1 1725
1 1726
1 1727
1 1728
1 1729
1 1730
1 1731
1 1732
1 1733
1 1734
1 1735
1 1736
1 1737
1 1738
1 1739
1 1740
1 1741
1 1742
1 1743
1 1744
1 1745
1 1746
1 1747
1 1748
1 1749
1 1750
1 1751
1 1752
1 1753
1 1754
1 1755
1 1756
1 1757
1 1758
1 1759
1 1760
1 1761
1 1762
1 1763
1 1764
1 1765
1 1766
1 1767
1 1768
1 1769
1 1770
1 1771
1 1772
1 1773
1 1774
1 1775
1 1776
1 1777
1 1778
1 1779
1 1780
1 1781
1 1782
1 1783
1 1784
1 1785
1 1786
1 1787
1 1788
1 1789
1 1790
1 1791
1 1792
1 1793
1 1794
1 1795
1 1796
1 1797
1 1798
1 1799
1 1800
1 1801
1 1802
1 1803
1 1804
1 1805
1 1806
1 1807
1 1808
1 1809
1 1810
1 1811
1 1812
1 1813
1 1814
1 1815
1 1816
1 1817
1 1818
1 1819
1 1820
1 1821
1 1822
1 1823
1 1824
1 1825
1 1826
1 1827
1 1828
1 1829
1 1830
1 1831
1 1832
1 1833
1 1834
1 1835
1 1836
1 1837
1 1838
1 1839
1 1840
1 1841
1 1842
1 1843
1 1844
1 1845
1 1846
1 1847
1 1848
1 1849
1 1850
1 1851
1 1852
1 1853
1 1854
1 1855
1 1856
1 1857
1 1858
1 1859
1 1860
1 1861
1 1862
1 1863
1 1864
1 1865
1 1866
1 1867
1 1868
1 1869
1 1870
1 1871
1 1872
1 1873
1 1874
1 1875
1 1876
1 1877
1 1878
1 1879
1 1880
1 1881
1 1882
1 1883
1 1884
1 1885
1 1886
1 1887
1 1888
1 1889
1 1890
1 1891
1 1892
1 1893
1 1894
1 1895
1 1896
1 1897
1 1898
1 1899
1 1900
1 1901
1 1902
1 1903
1 1904
1 1905
1 1906
1 1907
1 1908
1 1909
1 1910
1 1911
1 1912
1 1913
1 1914
1 1915
1 1916
1 1917
1 1918
1 1919
1 1920
1 1921
1 1922
1 1923
1 1924
1 1925
1 1926
1 1927
1 1928
1 1929
1 1930
1 1931
1 1932
1 1933
1 1934
1 1935
1 1936
1 1937
1 1938
1 1939
1 1940
1 1941
1 1942
1 1943
1 1944
1 1945
1 1946
1 1947
1 1948
1 1949
1 1950
1 1951
1 1952
1 1953
1 1954
1 1955
1 1956
1 1957
1 1958
1 1959
1 1960
1 1961
1 1962
1 1963
1 1964
1 1965
1 1966
1 1967
1 1968
1 1969
1 1970
1 1971
1 1972
1 1973
1 1974
1 1975
1 1976
1 1977
1 1978
1 1979
1 1980
1 1981
1 1982
1 1983
1 1984
1 1985
1 1986
1 1987
1 1988
1 1989
1 1990
1 1991
1 1992
1 1993
1 1994
1 1995
1 1996
1 1997
1 1998
1 1999
1 2000
1 2001
1 2002
1 2003
1 2004
1 2005
1 2006
1 2007
1 2008
1 2009
1 2010
1 2011
1 2012
1 2013
1 2014
1 2015
1 2016
1 2017
1 2018
1 2019
1 2020
1 2021
1 2022
1 2023
1 2024
1 2025
1 2026
1 2027
1 2028
1 2029
1 2030
1 2031
1 2032
1 2033
1 2034
1 2035
1 2036
1 2037
1 2038
1 2039
1 2040
1 2041
1 2042
1 2043
1 2044
1 2045
1 2046
1 2047
1 2048
1 2049
1 2050
1 2051
1 2052
1 2053
1 2054
1 2055
1 2056
1 2057
1 2058
1 2059
1 2060
1 2061
1 2062
1 2063
1 2064
1 2065
1 2066
1 2067
1 2068
1 2069
1 2070
1 2071
1 2072
1 2073
1 2074
1 2075
1 2076
1 2077
1 2078
1 2079
1 2080
1 2081
1 2082
1 2083
1 2084
1 2085
1 2086
1 2087
1 2088
1 2089
1 2090
1 2091
1 2092
1 2093
1 2094
1 2095
1 2096
1 2097
1 2098
1 2099
1 2100
1 2101
1 2102
1 2103
1 2104
1 2105
1 2106
1 2107
1 2108
1 2109
1 2110
1 2111
1 2112
1 2113
1 2114
1 2115
1 2116
1 2117
1 2118
1 2119
1 2120
1 2121
1 2122
1 2123
1 2124
1 2125
1 2126
1 2127
1 2128
1 2129
1 2130
1 2131
1 2132
1 2133
1 2134
1 2135
1 2136
1 2137
1 2138
1 2139
1 2140
1 2141
1 2142
1 2143
1 2144
1 2145
1 2146
1 2147
1 2148
1 2149
1 2150
1 2151
1 2152
1 2153
1 2154
1 2155
1 2156
1 2157
1 2158
1 2159
1 2160
1 2161
1 2162
1 2163
1 2164
1 2165
1 2166
1 2167
1 2168
1 2169
1 2170
1 2171
1 2172
1 2173
1 2174
1 2175
1 2176
1 2177
1 2178
1 2179
1 2180
1 2181
1 2182
1 2183
1 2184
1 2185
1 2186
1 2187
1 2188
1 2189
1 2190
1 2191
1 2192
1 2193
1 2194
1 2195
1 2196
1 2197
1 2198
1 2199
1 2200
1 2201
1 2202
1 2203
1 2204
1 2205
1 2206
1 2207
1 2208
1 2209
1 2210
1 2211
1 2212
1 2213
1 2214
1 2215
1 2216
1 2217
1 2218
1 2219
1 2220
1 2221
1 2222
1 2223
1 2224
1 2225
1 2226
1 2227
1 2228
1 2229
1 2230
1 2231
1 2232
1 2233
1 2234
1 2235
1 2236
1 2237
1 2238
1 2239
1 2240
1 2241
1 2242
1 2243
1 2244
1 2245
1 2246
1 2247
1 2248
1 2249
1 2250
1 2251
1 2252
1 2253
1 2254
1 2255
1 2256
1 2257
1 2258
1 2259
1 2260
1 2261
1 2262
1 2263
1 2264
1 2265
1 2266
1 2267
1 2268
1 2269
1 2270
1 2271
1 2272
1 2273
1 2274
1 2275
1 2276
1 2277
1 2278
1 2279
1 2280
1 2281
1 2282
1 2283
1 2284
1 2285
1 2286
1 2287
1 2288
1 2289
1 2290
1 2291
1 2292
1 2293
1 2294
1 2295
1 2296
1 2297
1 2298
1 2299
1 2300
1 2301
1 2302
1 2303
1 2304
1 2305
1 2306
1 2307
1 2308
1 2309
1 2310
1 2311
1 2312
1 2313
1 2314
1 2315
1 2316
1 2317
1 2318
1 2319
1 2320
1 2321
1 2322
1 2323
1 2324
1 2325
1 2326
1 2327
1 2328
1 2329
1 2330
1 2331
1 2332
1 2333
1 2334
1 2335
1 2336
1 2337
1 2338
1 2339
1 2340
1 2341
1 2342
1 2343
1 2344
1 2345
1 2346
1 2347
1 2348
1 2349
1 2350
1 2351
1 2352
1 2353
1 2354
1 2355
1 2356
1 2357
1 2358
1 2359
1 2360
1 2361
1 2362
1 2363
1 2364
1 2365
1 2366
1 2367
1 2368
1 2369
1 2370
1 2371
1 2372
1 2373
1 2374
1 2375
1 2376
1 2377
1 2378
1 2379
1 2380
1 2381
1 2382
1 2383
1 2384
1 2385
1 2386
1 2387
1 2388
1 2389
1 2390
1 2391
1 2392
1 2393
1 2394
1 2395
1 2396
1 2397
1 2398
1 2399
1 2400
1 2401
1 2402
1 2403
1 2404
1 2405
1 2406
1 2407
1 2408
1 2409
1 2410
1 2411
1 2412
1 2413
1 2414
1 2415
1 2416
1 2417
1 2418
1 2419
1 2420
1 2421
1 2422
1 2423
1 2424
1 2425
1 2426
1 2427
1 2428
1 2429
1 2430
1 2431
1 2432
1 2433
1 2434
1 2435
1 2436
1 2437
1 2438
1 2439
1 2440
1 2441
1 2442
1 2443
1 2444
1 2445
1 2446
1 2447
1 2448
1 2449
1 2450
1 2451
1 2452
1 2453
1 2454
1 2455
1 2456
1 2457
1 2458
1 2459
1 2460
1 2461
1 2462
1 2463
1 2464
1 2465
1 2466
1 2467
1 2468
1 2469
1 2470
1 2471
1 2472
1 2473
1 2474
1 2475
1 2476
1 2477
1 2478
1 2479
1 2480
1 2481
1 2482
1 2483
1 2484
1 2485
1 2486
1 2487
1 2488
1 2489
1 2490
1 2491
1 2492
1 2493
1 2494
1 2495
1 2496
1 2497
1 2498
1 2499
1 2500
1 2501
1 2502
1 2503
1 2504
1 2505
1 2506
1 2507
1 2508
1 2509
1 2510
1 2511
1 2512
1 2513
1 2514
1 2515
1 2516
1 2517
1 2518
1 2519
1 2520
1 2521
1 2522
1 2523
1 2524
1 2525
1 2526
1 2527
1 2528
1 2529
1 2530
1 2531
1 2532
1 2533
1 2534
1 2535
1 2536
1 2537
1 2538
1 2539
1 2540
1 2541
1 2542
1 2543
1 2544
1 2545
1 2546
1 2547
1 2548
1 2549
1 2550
1 2551
1 2552
1 2553
1 2554
1 2555
1 2556
1 2557
1 2558
1 2559
1 2560
1 2561
1 2562
1 2563
1 2564
1 2565
1 2566
1 2567
1 2568
1 2569
1 2570
1 2571
1 2572
1 2573
1 2574
1 2575
1 2576
1 2577
1 2578
1 2579
1 2580
1 2581
1 2582
1 2583
1 2584
1 2585
1 2586
1 2587
1 2588
1 2589
1 2590
1 2591
1 2592
1 2593
1 2594
1 2595
1 2596
1 2597
1 2598
1 2599
1 2600
1 2601
1 2602
1 2603
1 2604
1 2605
1 2606
1 2607
1 2608
1 2609
1 2610
1 2611
1 2612
1 2613
1 2614
1 2615
1 2616
1 2617
1 2618
1 2619
1 2620
1 2621
1 2622
1 2623
1 2624
1 2625
1 2626
1 2627
1 2628
1 2629
1 2630
1 2631
1 2632
1 2633
1 2634
1 2635
1 2636
1 2637
1 2638
1 2639
1 2640
1 2641
1 2642
1 2643
1 2644
1 2645
1 2646
1 2647
1 2648
1 2649
1 2650
1 2651
1 2652
1 2653
1 2654
1 2655
1 2656
1 2657
1 2658
1 2659
1 2660
1 2661
1 2662
1 2663
1 2664
1 2665
1 2666
1 2667
1 2668
1 2669
1 2670
1 2671
1 2672
1 2673
1 2674
1 2675
1 2676
1 2677
1 2678
1 2679
1 2680
1 2681
1 2682
1 2683
1 2684
1 2685
1 2686
1 2687
1 2688
1 2689
1 2690
1 2691
1 2692
1 2693
1 2694
1 2695
1 2696
1 2697
1 2698
1 2699
1 2700
1 2701
1 2702
1 2703
1 2704
1 2705
1 2706
1 2707
1 2708
1 2709
1 2710
1 2711
1 2712
1 2713
1 2714
1 2715
1 2716
1 2717
1 2718
1 2719
1 2720
1 2721
1 2722
1 2723
1 2724
1 2725
1 2726
1 2727
1 2728
1 2729
1 2730
1 2731
1 2732
1 2733
1 2734
1 2735
1 2736
1 2737
1 2738
1 2739
1 2740
1 2741
1 2742
1 2743
1 2744
1 2745
1 2746
1 2747
1 2748
1 2749
1 2750
1 2751
1 2752
1 2753
1 2754
1 2755
1 2756
1 2757
1 2758
1 2759
1 2760
1 2761
1 2762
1 2763
1 2764
1 2765
1 2766
1 2767
1 2768
1 2769
1 2770
1 2771
1 2772
1 2773
1 2774
1 2775
1 2776
1 2777
1 2778
1 2779
1 2780
1 2781
1 2782
1 2783
1 2784
1 2785
1 2786
1 2787
1 2788
1 2789
1 2790
1 2791
1 2792
1 2793
1 2794
1 2795
1 2796
1 2797
1 2798
1 2799
1 2800
1 2801
1 2802
1 2803
1 2804
1 2805
1 2806
1 2807
1 2808
1 2809
1 2810
1 2811
1 2812
1 2813
1 2814
1 2815
1 2816
1 2817
1 2818
1 2819
1 2820
1 2821
1 2822
1 2823
1 2824
1 2825
1 2826
1 2827
1 2828
1 2829
1 2830
1 2831
1 2832
1 2833
1 2834
1 2835
1 2836
1 2837
1 2838
1 2839
1 2840
1 2841
1 2842
1 2843
1 2844
1 2845
1 2846
1 2847
1 2848
1 2849
1 2850
1 2851
1 2852
1 2853
1 2854
1 2855
1 2856
1 2857
1 2858
1 2859
1 2860
1 2861
1 2862
1 2863
1 2864
1 2865
1 2866
1 2867
1 2868
1 2869
1 2870
1 2871
1 2872
1 2873
1 2874
1 2875
1 2876
1 2877
1 2878
1 2879
1 2880
1 2881
1 2882
1 2883
1 2884
1 2885
1 2886
1 2887
1 2888
1 2889
1 2890
1 2891
1 2892
1 2893
1 2894
1 2895
1 2896
1 2897
1 2898
1 2899
1 2900
1 2901
1 2902
1 2903
1 2904
1 2905
1 2906
1 2907
1 2908
1 2909
1 2910
1 2911
1 2912
1 2913
1 2914
1 2915
1 2916
1 2917
1 2918
1 2919
1 2920
1 2921
1 2922
1 2923
1 2924
1 2925
1 2926
1 2927
1 2928
1 2929
1 2930
1 2931
1 2932
1 2933
1 2934
1 2935
1 2936
1 2937
1 2938
1 2939
1 2940
1 2941
1 2942
1 2943
1 2944
1 2945
1 2946
1 2947
1 2948
1 2949
1 2950
1 2951
1 2952
1 2953
1 2954
1 2955
1 2956
1 2957
1 2958
1 2959
1 2960
1 2961
1 2962
1 2963
1 2964
1 2965
1 2966
1 2967
1 2968
1 2969
1 2970
1 2971
1 2972
1 2973
1 2974
POINT_DATA 2975
SCALARS Idp unsigned_int
LOOKUP_TABLE default
0 1 39 40 41 80 81 82 121 122 123 162 163 164 203 204 205 244 245 246 285 286 287 326 327 328 367 368 369 408 409 410 449 450 451 461 462 463 471 472 473 481 482 483 491 492 493 501 502 503 511 512 513 521 522 523 531 532 533 541 542 543 551 552 2 3 4 5 6 7 8 9 42 43 44 45 46 47 48 49 83 84 85 86 87 88 89 90 124 125 126 127 128 129 130 131 165 166 167 168 169 170 171 172 206 207 208 209 210 211 212 213 247 248 249 250 251 252 253 254 288 289 290 291 292 293 294 295 329 330 331 332 333 334 335 336 370 371 372 373 374 375 376 377 411 412 413 414 415 416 417 418 452 453 454 464 465 474 475 484 485 494 495 504 505 514 515 524 525 534 535 544 545 553 554 10 11 12 13 14 15 16 17 18 50 51 52 53 54 55 56 57 58 91 92 93 94 95 96 97 98 99 132 133 134 135 136 137 138 139 140 173 174 175 176 177 178 179 180 181 214 215 216 217 218 219 220 221 222 255 256 257 258 259 260 261 262 263 296 297 298 299 300 301 302 303 304 337 338 339 340 341 342 343 344 345 378 379 380 381 382 383 384 385 386 419 420 421 422 423 424 425 426 427 19 20 21 22 23 24 25 26 59 60 61 62 63 64 65 66 100 101 102 103 104 105 106 107 141 142 143 144 145 146 147 148 182 183 184 185 186 187 188 189 223 224 225 226 227 228 229 230 264 265 266 267 268 269 270 271 305 306 307 308 309 310 311 312 346 347 348 349 350 351 352 353 387 388 389 390 391 392 393 394 428 429 430 431 432 433 434 435 27 28 29 30 31 32 33 34 35 67 68 69 70 71 72 73 74 75 108 109 110 111 112 113 114 115 116 149 150 151 152 153 154 155 156 157 190 191 192 193 194 195 196 197 198 231 232 233 234 235 236 237 238 239 272 273 274 275 276 277 278 279 280 313 314 315 316 317 318 319 320 321 354 355 356 357 358 359 360 361 362 395 396 397 398 399 400 401 402 403 436 437 438 439 440 441 442 443 444 455 456 466 476 486 496 506 516 526 536 546 555 36 37 38 76 77 78 79 117 118 119 120 158 159 160 161 199 200 201 202 240 241 242 243 281 282 283 284 322 323 324 325 363 364 365 366 404 405 406 407 445 446 447 448 457 458 459 460 467 468 469 470 477 478 479 480 487 488 489 490 497 498 499 500 507 508 509 510 517 518 519 520 527 528 529 530 537 538 539 540 547 548 549 550 556 557 558 559 560 561 562 563 564 565 566 567 568 569 570 571 572 573 574 575 576 577 578 579 580 581 582 583 584 585 586 587 588 589 590 591 592 593 594 595 596 597 598 599 600 601 602 603 604 605 606 607 608 609 610 611 612 613 614 615 616 617 618 619 620 621 622 623 624 625 626 627 628 629 630 631 632 633 634 635 636 637 638 639 640 641 642 643 644 645 646 647 648 649 650 651 652 653 654 655 656 657 658 659 660 661 662 663 664 665 666 667 668 669 670 671 672 673 674 675 676 677 678 679 680 681 682 683 684 685 686 687 688 689 690 691 692 693 694 695 696 697 698 699 700 701 702 703 704 705 706 707 708 709 710 711 712 713 714 715 716 717 718 719 720 721 722 723 724 725 726 727 728 729 730 731 732 733 734 735 736 737 738 739 740 741 742 743 744 745 746 747 748 749 750 751 752 753 754 755 756 757 758 759 760 761 762 763 764 765 766 767 768 769 770 771 772 773 774 775 776 777 778 779 780 781 782 783 784 785 786 787 788 789 790 791 792 793 794 795 796 797 798 799 800 801 802 803 804 805 806 807 808 809 810 811 812 813 814 815 816 817 818 819 820 821 822 823 824 825 826 827 828 829 830 831 832 833 834 835 836 837 838 839 840 841 842 843 844 845 846 847 848 849 850 851 852 853 854 855 856 857 858 859 860 861 862 863 864 865 866 867 868 869 870 871 872 873 874 875 876 877 878 879 880 881 882 883 884 885 886 887 888 889 890 891 892 893 894 895 896 897 898 899 900 901 902 903 904 905 906 907 908 909 910 911 912 913 914 915 916 917 918 919 920 921 922 923 924 925 926 927 928 929 930 931 932 933 934 935 936 937 938 939 940 941 942 943 944 945 946 947 948 949 950 951 952 953 954 955 956 957 958 959 960 961 962 963 964 965 966 967 968 969 970 971 972 973 974 975 976 977 978 979 980 981 982 983 984 985 986 987 988 989 990 991 992 993 994 995 996 997 998 999 1000 1001 1002 1003 1004 1005 1006 1007 1008 1009 1010 1011 1012 1013 1014 1015 1016 1017 1018 1019 1020 1021 1022 1023 1024 1025 1026 1027 1028 1029 1030 1031 1032 1033 1034 1035 1060 1061 1062 1063 1064 1065 1091 1092 1093 1094 1095 1096 1122 1123 1124 1125 1126 1127 1153 1154 1155 1156 1157 1158 1184 1185 1186 1187 1188 1189 1215 1216 1217 1218 1219 1220 1246 1247 1248 1249 1250 1251 1277 1278 1279 1280 1281 1282 1308 1309 1310 1311 1312 1313 1339 1340 1341 1342 1343 1344 1370 1371 1372 1373 1374 1375 1401 1402 1403 1404 1405 1406 1432 1433 1434 1435 1436 1437 1463 1464 1465 1466 1467 1468 1494 1495 1496 1497 1498 1499 1525 1526 1527 1528 1529 1530 1556 1557 1558 1559 1560 1561 1587 1588 1589 1590 1591 1592 1618 1619 1620 1621 1622 1623 1649 1650 1651 1652 1653 1654 1680 1681 1682 1683 1684 1685 1711 1712 1713 1714 1715 1716 1742 1743 1744 1745 1746 1747 1773 1774 1775 1776 1777 1778 1804 1805 1806 1807 1808 1809 1835 1836 1837 1838 1839 1840 1866 1867 1868 1869 1870 1871 1897 1898 1899 1900 1901 1902 1928 1929 1930 1931 1932 1933 1959 1960 1961 1962 1963 1964 1990 1991 1992 1993 1994 1995 2021 2022 2023 2024 2025 2026 2052 2053 2054 2055 2056 2057 2083 2084 2085 2086 2087 2088 2114 2115 2116 2117 2118 2119 2145 2146 2147 2148 2149 2150 2176 2177 2178 2179 2180 2181 2207 2208 2209 2210 2211 2212 2238 2239 2240 2241 2242 2243 2269 2270 2271 2272 2273 2274 2300 2301 2302 2303 2304 2305 2331 2332 2333 2334 2335 2336 2362 2363 2364 2365 2366 2367 2393 2394 2395 2396 2397 2398 2424 2425 2426 2427 2428 2429 2455 2456 2457 2458 2459 2460 2486 2487 2488 2489 2490 2491 2517 2518 2519 2520 2521 2522 2548 2549 2550 2551 2552 2553 2579 2580 2581 2582 2583 2584 2610 2611 2612 2613 2614 2615 2641 2642 2643 2644 2645 2646 2672 2673 2674 2675 2676 2677 2703 2704 2705 2706 2707 2708 2734 2735 2736 2737 2738 2763 2764 2765 2766 2767 2792 2793 2794 2795 2819 2820 2821 2822 2846 2847 2848 2871 2872 2894 2895 1036 1037 1038 1039 1040 1041 1042 1043 1044 1066 1067 1068 1069 1070 1071 1072 1073 1074 1097 1098 1099 1100 1101 1102 1103 1104 1105 1128 1129 1130 1131 1132 1133 1134 1135 1136 1159 1160 1161 1162 1163 1164 1165 1166 1167 1190 1191 1192 1193 1194 1195 1196 1197 1198 1221 1222 1223 1224 1225 1226 1227 1228 1229 1252 1253 1254 1255 1256 1257 1258 1259 1260 1283 1284 1285 1286 1287 1288 1289 1290 1291 1314 1315 1316 1317 1318 1319 1320 1321 1322 1345 1346 1347 1348 1349 1350 1351 1352 1353 1376 1377 1378 1379 1380 1381 1382 1383 1384 1407 1408 1409 1410 1411 1412 1413 1414 1415 1438 1439 1440 1441 1442 1443 1444 1445 1446 1469 1470 1471 1472 1473 1474 1475 1476 1477 1500 1501 1502 1503 1504 1505 1506 1507 1508 1531 1532 1533 1534 1535 1536 1537 1538 1539 1562 1563 1564 1565 1566 1567 1568 1569 1570 1593 1594 1595 1596 1597 1598 1599 1600 1601 1624 1625 1626 1627 1628 1629 1630 1631 1632 1655 1656 1657 1658 1659 1660 1661 1662 1663 1686 1687 1688 1689 1690 1691 1692 1693 1694 1717 1718 1719 1720 1721 1722 1723 1724 1725 1748 1749 1750 1751 1752 1753 1754 1755 1756 1779 1780 1781 1782 1783 1784 1785 1786 1787 1810 1811 1812 1813 1814 1815 1816 1817 1818 1841 1842 1843 1844 1845 1846 1847 1848 1849 1872 1873 1874 1875 1876 1877 1878 1879 1880 1903 1904 1905 1906 1907 1908 1909 1910 1911 1934 1935 1936 1937 1938 1939 1940 1941 1942 1965 1966 1967 1968 1969 1970 1971 1972 1973 1996 1997 1998 1999 2000 2001 2002 2003 2004 2027 2028 2029 2030 2031 2032 2033 2034 2035 2058 2059 2060 2061 2062 2063 2064 2065 2066 2089 2090 2091 2092 2093 2094 2095 2096 2097 2120 2121 2122 2123 2124 2125 2126 2127 2128 2151 2152 2153 2154 2155 2156 2157 2158 2159 2182 2183 2184 2185 2186 2187 2188 2189 2190 2213 2214 2215 2216 2217 2218 2219 2220 2221 2244 2245 2246 2247 2248 2249 2250 2251 2252 2275 2276 2277 2278 2279 2280 2281 2282 2283 2306 2307 2308 2309 2310 2311 2312 2313 2314 2337 2338 2339 2340 2341 2342 2343 2344 2345 2368 2369 2370 2371 2372 2373 2374 2375 2376 2399 2400 2401 2402 2403 2404 2405 2406 2407 2430 2431 2432 2433 2434 2435 2436 2437 2438 2461 2462 2463 2464 2465 2466 2467 2468 2469 2492 2493 2494 2495 2496 2497 2498 2499 2500 2523 2524 2525 2526 2527 2528 2529 2530 2531 2554 2555 2556 2557 2558 2559 2560 2561 2562 2585 2586 2587 2588 2589 2590 2591 2592 2593 2616 2617 2618 2619 2620 2621 2622 2623 2624 2647 2648 2649 2650 2651 2652 2653 2654 2655 2678 2679 2680 2681 2682 2683 2684 2685 2686 2709 2710 2711 2712 2713 2714 2715 2716 2717 2739 2740 2741 2742 2743 2744 2745 2746 2747 2768 2769 2770 2771 2772 2773 2774 2775 2776 2796 2797 2798 2799 2800 2801 2802 2803 2804 2823 2824 2825 2826 2827 2828 2829 2830 2831 2849 2850 2851 2852 2853 2854 2855 2856 2857 2873 2874 2875 2876 2877 2878 2879 2880 2881 2896 2897 2898 2899 2900 2901 2902 2903 2904 2917 2918 2919 2920 2921 2922 2923 2924 2925 2936 2937 2938 2939 2940 2941 2942 2943 2953 2954 2955 2956 2957 2958 2966 2967 2968 2969 1045 1046 1047 1048 1049 1050 1051 1052 1075 1076 1077 1078 1079 1080 1081 1082 1106 1107 1108 1109 1110 1111 1112 1113 1137 1138 1139 1140 1141 1142 1143 1144 1168 1169 1170 1171 1172 1173 1174 1175 1199 1200 1201 1202 1203 1204 1205 1206 1230 1231 1232 1233 1234 1235 1236 1237 1261 1262 1263 1264 1265 1266 1267 1268 1292 1293 1294 1295 1296 1297 1298 1299 1323 1324 1325 1326 1327 1328 1329 1330 1354 1355 1356 1357 1358 1359 1360 1361 1385 1386 1387 1388 1389 1390 1391 1392 1416 1417 1418 1419 1420 1421 1422 1423 1447 1448 1449 1450 1451 1452 1453 1454 1478 1479 1480 1481 1482 1483 1484 1485 1509 1510 1511 1512 1513 1514 1515 1516 1540 1541 1542 1543 1544 1545 1546 1547 1571 1572 1573 1574 1575 1576 1577 1578 1602 1603 1604 1605 1606 1607 1608 1609 1633 1634 1635 1636 1637 1638 1639 1640 1664 1665 1666 1667 1668 1669 1670 1671 1695 1696 1697 1698 1699 1700 1701 1702 1726 1727 1728 1729 1730 1731 1732 1733 1757 1758 1759 1760 1761 1762 1763 1764 1788 1789 1790 1791 1792 1793 1794 1795 1819 1820 1821 1822 1823 1824 1825 1826 1850 1851 1852 1853 1854 1855 1856 1857 1881 1882 1883 1884 1885 1886 1887 1888 1912 1913 1914 1915 1916 1917 1918 1919 1943 1944 1945 1946 1947 1948 1949 1950 1974 1975 1976 1977 1978 1979 1980 1981 2005 2006 2007 2008 2009 2010 2011 2012 2036 2037 2038 2039 2040 2041 2042 2043 2067 2068 2069 2070 2071 2072 2073 2074 2098 2099 2100 2101 2102 2103 2104 2105 2129 2130 2131 2132 2133 2134 2135 2136 2160 2161 2162 2163 2164 2165 2166 2167 2191 2192 2193 2194 2195 2196 2197 2198 2222 2223 2224 2225 2226 2227 2228 2229 2253 2254 2255 2256 2257 2258 2259 2260 2284 2285 2286 2287 2288 2289 2290 2291 2315 2316 2317 2318 2319 2320 2321 2322 2346 2347 2348 2349 2350 2351 2352 2353 2377 2378 2379 2380 2381 2382 2383 2384 2408 2409 2410 2411 2412 2413 2414 2415 2439 2440 2441 2442 2443 2444 2445 2446 2470 2471 2472 2473 2474 2475 2476 2477 2501 2502 2503 2504 2505 2506 2507 2508 2532 2533 2534 2535 2536 2537 2538 2539 2563 2564 2565 2566 2567 2568 2569 2570 2594 2595 2596 2597 2598 2599 2600 2601 2625 2626 2627 2628 2629 2630 2631 2632 2656 2657 2658 2659 2660 2661 2662 2663 2687 2688 2689 2690 2691 2692 2693 2694 2718 2719 2720 2721 2722 2723 2724 2725 2748 2749 2750 2751 2752 2753 2754 2755 2777 2778 2779 2780 2781 2782 2783 2784 2805 2806 2807 2808 2809 2810 2811 2812 2832 2833 2834 2835 2836 2837 2838 2839 2858 2859 2860 2861 2862 2863 2864 2865 2882 2883 2884 2885 2886 2887 2888 2889 2905 2906 2907 2908 2909 2910 2911 2912 2926 2927 2928 2929 2930 2931 2932 2933 2944 2945 2946 2947 2948 2949 2950 2951 2959 2960 2961 2962 2963 2964 2965 2970 2971 2972 2973 2974 1053 1054 1055 1056 1057 1058 1059 1083 1084 1085 1086 1087 1088 1089 1090 1114 1115 1116 1117 1118 1119 1120 1121 1145 1146 1147 1148 1149 1150 1151 1152 1176 1177 1178 1179 1180 1181 1182 1183 1207 1208 1209 1210 1211 1212 1213 1214 1238 1239 1240 1241 1242 1243 1244 1245 1269 1270 1271 1272 1273 1274 1275 1276 1300 1301 1302 1303 1304 1305 1306 1307 1331 1332 1333 1334 1335 1336 1337 1338 1362 1363 1364 1365 1366 1367 1368 1369 1393 1394 1395 1396 1397 1398 1399 1400 1424 1425 1426 1427 1428 1429 1430 1431 1455 1456 1457 1458 1459 1460 1461 1462 1486 1487 1488 1489 1490 1491 1492 1493 1517 1518 1519 1520 1521 1522 1523 1524 1548 1549 1550 1551 1552 1553 1554 1555 1579 1580 1581 1582 1583 1584 1585 1586 1610 1611 1612 1613 1614 1615 1616 1617 1641 1642 1643 1644 1645 1646 1647 1648 1672 1673 1674 1675 1676 1677 1678 1679 1703 1704 1705 1706 1707 1708 1709 1710 1734 1735 1736 1737 1738 1739 1740 1741 1765 1766 1767 1768 1769 1770 1771 1772 1796 1797 1798 1799 1800 1801 1802 1803 1827 1828 1829 1830 1831 1832 1833 1834 1858 1859 1860 1861 1862 1863 1864 1865 1889 1890 1891 1892 1893 1894 1895 1896 1920 1921 1922 1923 1924 1925 1926 1927 1951 1952 1953 1954 1955 1956 1957 1958 1982 1983 1984 1985 1986 1987 1988 1989 2013 2014 2015 2016 2017 2018 2019 2020 2044 2045 2046 2047 2048 2049 2050 2051 2075 2076 2077 2078 2079 2080 2081 2082 2106 2107 2108 2109 2110 2111 2112 2113 2137 2138 2139 2140 2141 2142 2143 2144 2168 2169 2170 2171 2172 2173 2174 2175 2199 2200 2201 2202 2203 2204 2205 2206 2230 2231 2232 2233 2234 2235 2236 2237 2261 2262 2263 2264 2265 2266 2267 2268 2292 2293 2294 2295 2296 2297 2298 2299 2323 2324 2325 2326 2327 2328 2329 2330 2354 2355 2356 2357 2358 2359 2360 2361 2385 2386 2387 2388 2389 2390 2391 2392 2416 2417 2418 2419 2420 2421 2422 2423 2447 2448 2449 2450 2451 2452 2453 2454 2478 2479 2480 2481 2482 2483 2484 2485 2509 2510 2511 2512 2513 2514 2515 2516 2540 2541 2542 2543 2544 2545 2546 2547 2571 2572 2573 2574 2575 2576 2577 2578 2602 2603 2604 2605 2606 2607 2608 2609 2633 2634 2635 2636 2637 2638 2639 2640 2664 2665 2666 2667 2668 2669 2670 2671 2695 2696 2697 2698 2699 2700 2701 2702 2726 2727 2728 2729 2730 2731 2732 2733 2756 2757 2758 2759 2760 2761 2762 2785 2786 2787 2788 2789 2790 2791 2813 2814 2815 2816 2817 2818 2840 2841 2842 2843 2844 2845 2866 2867 2868 2869 2870 2890 2891 2892 2893 2913 2914 2915 2916 2934 2935 2952 
FIELD FieldData 14
Vel 3 2975 float
  0.0000000E+00   0.0000000E+00   0.0000000E+00   0.0000000E+00   0.0000000E+00   0.0000000E+00   0.0000000E+00   0.0000000E+00   0.0000000E+00   0.0000000E+00   0.0000000E+00   0.0000000E+00   0.0000000E+00   0.0000000E+00   0.0000000E+00   0.0000000E+00   0.0000000E+00   0.0000000E+00   0.0000000E+00   0.0000000E+00   0.0000000E+00   0.0000000E+00   0.0000000E+00   0.0000000E+00   0.0000000E+00   0.0000000E+00   0.0000000E+00   0.0000000E+00   0.0000000E+00   0.0000000E+00   0.0000000E+00   0.0000000E+00   0.0000000E+00   0.0000000E+00   0.0000000E+00   0.0000000E+00   0.0000000E+00   0.0000000E+00   0.0000000E+00   0.0000000E+00   0.0000000E+00   0.0000000E+00   0.0000000E+00   0.0000000E+00   0.0000000E+00   0.0000000E+00   0.0000000E+00   0.0000000E+00   0.0000000E+00   0.0000000E+00   0.0000000E+00   0.0000000E+00   0.0000000E+00   0.0000000E+00   0.0000000E+00   0.0000000E+00   0.0000000E+00   0.0000000E+00   0.0000000E+00   0.0000000E+00   0.0000000E+00   0.0000000E+00   0.0000000E+00   0.0000000E+00   0.0000000E+00   0.0000000E+00   0.0000000E+00   0.0000000E+00   0.0000000E+00   0.0000000E+00   0.0000000E+00   0.0000000E+00   0.0000000E+00   0.0000000E+00   0.0000000E+00   0.0000000E+00   0.0000000E+00   0.0000000E+00   0.0000000E+00   0.0000000E+00   0.0000000E+00   0.0000000E+00   0.0000000E+00   0.0000000E+00   0.0000000E+00   0.0000000E+00   0.0000000E+00   0.0000000E+00   0.0000000E+00   0.0000000E+00   0.0000000E+00   0.0000000E+00   0.0000000E+00   0.0000000E+00   0.0000000E+00   0.0000000E+00   0.0000000E+00   0.0000000E+00   0.0000000E+00   0.0000000E+00   0.0000000E+00   0.0000000E+00   0.0000000E+00   0.0000000E+00   0.0000000E+00   0.0000000E+00   0.0000000E+00   0.0000000E+00   0.0000000E+00   0.0000000E+00   0.0000000E+00   0.0000000E+00   0.0000000E+00   0.0000000E+00   0.0000000E+00   0.0000000E+00   0.0000000E+00   0.0000000E+00   0.0000000E+00   0.0000000E+00   0.0000000E+00   0.0000000E+00   0.0000000E+00   0.0000000E+00   0.0000000E+00   0.0000000E+00   0.0000000E+00   0.0000000E+00   0.0000000E+00   0.0000000E+00   0.0000000E+00   0.0000000E+00   0.0000000E+00   0.0000000E+00   0.0000000E+00   0.0000000E+00   0.0000000E+00   0.0000000E+00   0.0000000E+00   0.0000000E+00   0.0000000E+00   0.0000000E+00   0.0000000E+00   0.0000000E+00   0.0000000E+00   0.0000000E+00   0.0000000E+00   0.0000000E+00   0.0000000E+00   0.0000000E+00   0.0000000E+00   0.0000000E+00   0.0000000E+00   0.0000000E+00   0.0000000E+00   0.0000000E+00   0.0000000E+00   0.0000000E+00   0.0000000E+00   0.0000000E+00   0.0000000E+00   0.0000000E+00   0.0000000E+00   0.0000000E+00   0.0000000E+00   0.0000000E+00   0.0000000E+00   0.0000000E+00   0.0000000E+00   0.0000000E+00   0.0000000E+00   0.0000000E+00   0.0000000E+00   0.0000000E+00   0.0000000E+00   0.0000000E+00   0.0000000E+00   0.0000000E+00   0.0000000E+00   0.0000000E+00   0.0000000E+00   0.0000000E+00   0.0000000E+00   0.0000000E+00   0.0000000E+00   0.0000000E+00   0.0000000E+00   0.0000000E+00   0.0000000E+00   0.0000000E+00   0.0000000E+00   0.0000000E+00   0.0000000E+00   0.0000000E+00   0.0000000E+00   0.0000000E+00   0.0000000E+00   0.0000000E+00   0.0000000E+00   0.0000000E+00   0.0000000E+00   0.0000000E+00   0.0000000E+00   0.0000000E+00   0.0000000E+00   0.0000000E+00   0.0000000E+00   0.0000000E+00   0.0000000E+00   0.0000000E+00   0.0000000E+00   0.0000000E+00   0.0000000E+00   0.0000000E+00   0.0000000E+00   0.0000000E+00   0.0000000E+00   0.0000000E+00   0.0000000E+00   0.0000000E+00   0.0000000E+00   0.0000000E+00   0.0000000E+00   0.0000000E+00   0.0000000E+00   0.0000000E+00   0.0000000E+00   0.0000000E+00   0.0000000E+00   0.0000000E+00   0.0000000E+00   0.0000000E+00   0.0000000E+00   0.0000000E+00   0.0000000E+00   0.0000000E+00   0.0000000E+00   0.0000000E+00   0.0000000E+00   0.0000000E+00   0.0000000E+00   0.0000000E+00   0.0000000E+00   0.0000000E+00   0.0000000E+00   0.0000000E+00   0.0000000E+00   0.0000000E+00   0.0000000E+00   0.0000000E+00   0.0000000E+00   0.0000000E+00   0.0000000E+00   0.0000000E+00   0.0000000E+00   0.0000000E+00   0.0000000E+00   0.0000000E+00   0.0000000E+00   0.0000000E+00   0.0000000E+00   0.0000000E+00   0.0000000E+00   0.0000000E+00   0.0000000E+00   0.0000000E+00   0.0000000E+00   0.0000000E+00   0.0000000E+00   0.0000000E+00   0.0000000E+00   0.0000000E+00   0.0000000E+00   0.0000000E+00   0.0000000E+00   0.0000000E+00   0.0000000E+00   0.0000000E+00   0.0000000E+00   0.0000000E+00   0.0000000E+00   0.0000000E+00   0.0000000E+00   0.0000000E+00   0.0000000E+00   0.0000000E+00   0.0000000E+00   0.0000000E+00   0.0000000E+00   0.0000000E+00   0.0000000E+00   0.0000000E+00   0.0000000E+00   0.0000000E+00   0.0000000E+00   0.0000000E+00   0.0000000E+00   0.0000000E+00   0.0000000E+00   0.0000000E+00   0.0000000E+00   0.0000000E+00   0.0000000E+00   0.0000000E+00   0.0000000E+00   0.0000000E+00   0.0000000E+00   0.0000000E+00   0.0000000E+00   0.0000000E+00   0.0000000E+00   0.0000000E+00   0.0000000E+00   0.0000000E+00   0.0000000E+00   0.0000000E+00   0.0000000E+00   0.0000000E+00   0.0000000E+00   0.0000000E+00   0.0000000E+00   0.0000000E+00   0.0000000E+00   0.0000000E+00   0.0000000E+00   0.0000000E+00   0.0000000E+00   0.0000000E+00   0.0000000E+00   0.0000000E+00   0.0000000E+00   0.0000000E+00   0.0000000E+00   0.0000000E+00   0.0000000E+00   0.0000000E+00   0.0000000E+00   0.0000000E+00   0.0000000E+00   0.0000000E+00   0.0000000E+00   0.0000000E+00   0.0000000E+00   0.0000000E+00   0.0000000E+00   0.0000000E+00   0.0000000E+00   0.0000000E+00   0.0000000E+00   0.0000000E+00   0.0000000E+00   0.0000000E+00   0.0000000E+00   0.0000000E+00   0.0000000E+00   0.0000000E+00   0.0000000E+00   0.0000000E+00   0.0000000E+00   0.0000000E+00   0.0000000E+00   0.0000000E+00   0.0000000E+00   0.0000000E+00   0.0000000E+00   0.0000000E+00   0.0000000E+00   0.0000000E+00   0.0000000E+00   0.0000000E+00   0.0000000E+00   0.0000000E+00   0.0000000E+00   0.0000000E+00   0.0000000E+00   0.0000000E+00   0.0000000E+00   0.0000000E+00   0.0000000E+00   0.0000000E+00   0.0000000E+00   0.0000000E+00   0.0000000E+00   0.0000000E+00   0.0000000E+00   0.0000000E+00   0.0000000E+00   0.0000000E+00   0.0000000E+00   0.0000000E+00   0.0000000E+00   0.0000000E+00   0.0000000E+00   0.0000000E+00   0.0000000E+00   0.0000000E+00   0.0000000E+00   0.0000000E+00   0.0000000E+00   0.0000000E+00   0.0000000E+00   0.0000000E+00   0.0000000E+00   0.0000000E+00   0.0000000E+00   0.0000000E+00   0.0000000E+00   0.0000000E+00   0.0000000E+00   0.0000000E+00   0.0000000E+00   0.0000000E+00   0.0000000E+00   0.0000000E+00   0.0000000E+00   0.0000000E+00   0.0000000E+00   0.0000000E+00   0.0000000E+00   0.0000000E+00   0.0000000E+00   0.0000000E+00   0.0000000E+00   0.0000000E+00   0.0000000E+00   0.0000000E+00   0.0000000E+00   0.0000000E+00   0.0000000E+00   0.0000000E+00   0.0000000E+00   0.0000000E+00   0.0000000E+00   0.0000000E+00   0.0000000E+00   0.0000000E+00   0.0000000E+00   0.0000000E+00   0.0000000E+00   0.0000000E+00   0.0000000E+00   0.0000000E+00   0.0000000E+00   0.0000000E+00   0.0000000E+00   0.0000000E+00   0.0000000E+00   0.0000000E+00   0.0000000E+00   0.0000000E+00   0.0000000E+00   0.0000000E+00   0.0000000E+00   0.0000000E+00   0.0000000E+00   0.0000000E+00   0.0000000E+00   0.0000000E+00   0.0000000E+00   0.0000000E+00   0.0000000E+00   0.0000000E+00   0.0000000E+00   0.0000000E+00   0.0000000E+00   0.0000000E+00   0.0000000E+00   0.0000000E+00   0.0000000E+00   0.0000000E+00   0.0000000E+00   0.0000000E+00   0.0000000E+00   0.0000000E+00   0.0000000E+00   0.0000000E+00   0.0000000E+00   0.0000000E+00   0.0000000E+00   0.0000000E+00   0.0000000E+00   0.0000000E+00   0.0000000E+00   0.0000000E+00   0.0000000E+00   0.0000000E+00   0.0000000E+00   0.0000000E+00   0.0000000E+00   0.0000000E+00   0.0000000E+00   0.0000000E+00   0.0000000E+00   0.0000000E+00   0.0000000E+00   0.0000000E+00   0.0000000E+00   0.0000000E+00   0.0000000E+00   0.0000000E+00   0.0000000E+00   0.0000000E+00   0.0000000E+00   0.0000000E+00   0.0000000E+00   0.0000000E+00   0.0000000E+00   0.0000000E+00   0.0000000E+00   0.0000000E+00   0.0000000E+00   0.0000000E+00   0.0000000E+00   0.0000000E+00   0.0000000E+00   0.0000000E+00   0.0000000E+00   0.0000000E+00   0.0000000E+00   0.0000000E+00   0.0000000E+00   0.0000000E+00   0.0000000E+00   0.0000000E+00   0.0000000E+00   0.0000000E+00   0.0000000E+00   0.0000000E+00   0.0000000E+00   0.0000000E+00   0.0000000E+00   0.0000000E+00   0.0000000E+00   0.0000000E+00   0.0000000E+00   0.0000000E+00   0.0000000E+00   0.0000000E+00   0.0000000E+00   0.0000000E+00   0.0000000E+00   0.0000000E+00   0.0000000E+00   0.0000000E+00   0.0000000E+00   0.0000000E+00   0.0000000E+00   0.0000000E+00   0.0000000E+00   0.0000000E+00   0.0000000E+00   0.0000000E+00   0.0000000E+00   0.0000000E+00   0.0000000E+00   0.0000000E+00   0.0000000E+00   0.0000000E+00   0.0000000E+00   0.0000000E+00   0.0000000E+00   0.0000000E+00   0.0000000E+00   0.0000000E+00   0.0000000E+00   0.0000000E+00   0.0000000E+00   0.0000000E+00   0.0000000E+00   0.0000000E+00   0.0000000E+00   0.0000000E+00   0.0000000E+00   0.0000000E+00   0.0000000E+00   0.0000000E+00   0.0000000E+00   0.0000000E+00   0.0000000E+00   0.0000000E+00   0.0000000E+00   0.0000000E+00   0.0000000E+00   0.0000000E+00   0.0000000E+00   0.0000000E+00   0.0000000E+00   0.0000000E+00   0.0000000E+00   0.0000000E+00   0.0000000E+00   0.0000000E+00   0.0000000E+00   0.0000000E+00   0.0000000E+00   0.0000000E+00   0.0000000E+00   0.0000000E+00   0.0000000E+00   0.0000000E+00   0.0000000E+00   0.0000000E+00   0.0000000E+00   0.0000000E+00   0.0000000E+00   0.0000000E+00   0.0000000E+00   0.0000000E+00   0.0000000E+00   0.0000000E+00   0.0000000E+00   0.0000000E+00   0.0000000E+00   0.0000000E+00   0.0000000E+00   0.0000000E+00   0.0000000E+00   0.0000000E+00   0.0000000E+00   0.0000000E+00   0.0000000E+00   0.0000000E+00   0.0000000E+00   0.0000000E+00   0.0000000E+00   0.0000000E+00   0.0000000E+00   0.0000000E+00   0.0000000E+00   0.0000000E+00   0.0000000E+00   0.0000000E+00   0.0000000E+00   0.0000000E+00   0.0000000E+00   0.0000000E+00   0.0000000E+00   0.0000000E+00   0.0000000E+00   0.0000000E+00   0.0000000E+00   0.0000000E+00   0.0000000E+00   0.0000000E+00   0.0000000E+00   0.0000000E+00   0.0000000E+00   0.0000000E+00   0.0000000E+00   0.0000000E+00   0.0000000E+00   0.0000000E+00   0.0000000E+00   0.0000000E+00   0.0000000E+00   0.0000000E+00   0.0000000E+00   0.0000000E+00   0.0000000E+00   0.0000000E+00   0.0000000E+00   0.0000000E+00   0.0000000E+00   0.0000000E+00   0.0000000E+00   0.0000000E+00   0.0000000E+00   0.0000000E+00   0.0000000E+00   0.0000000E+00   0.0000000E+00   0.0000000E+00   0.0000000E+00   0.0000000E+00   0.0000000E+00   0.0000000E+00   0.0000000E+00   0.0000000E+00   0.0000000E+00   0.0000000E+00   0.0000000E+00   0.0000000E+00   0.0000000E+00   0.0000000E+00   0.0000000E+00   0.0000000E+00   0.0000000E+00   0.0000000E+00   0.0000000E+00   0.0000000E+00   0.0000000E+00   0.0000000E+00   0.0000000E+00   0.0000000E+00   0.0000000E+00   0.0000000E+00   0.0000000E+00   0.0000000E+00   0.0000000E+00   0.0000000E+00   0.0000000E+00   0.0000000E+00   0.0000000E+00   0.0000000E+00   0.0000000E+00   0.0000000E+00   0.0000000E+00   0.0000000E+00   0.0000000E+00   0.0000000E+00   0.0000000E+00   0.0000000E+00   0.0000000E+00   0.0000000E+00   0.0000000E+00   0.0000000E+00   0.0000000E+00   0.0000000E+00   0.0000000E+00   0.0000000E+00   0.0000000E+00   0.0000000E+00   0.0000000E+00   0.0000000E+00   0.0000000E+00   0.0000000E+00   0.0000000E+00   0.0000000E+00   0.0000000E+00   0.0000000E+00   0.0000000E+00   0.0000000E+00   0.0000000E+00   0.0000000E+00   0.0000000E+00   0.0000000E+00   0.0000000E+00   0.0000000E+00   0.0000000E+00   0.0000000E+00   0.0000000E+00   0.0000000E+00   0.0000000E+00   0.0000000E+00   0.0000000E+00   0.0000000E+00   0.0000000E+00   0.0000000E+00   0.0000000E+00   0.0000000E+00   0.0000000E+00   0.0000000E+00   0.0000000E+00   0.0000000E+00   0.0000000E+00   0.0000000E+00   0.0000000E+00   0.0000000E+00   0.0000000E+00   0.0000000E+00   0.0000000E+00   0.0000000E+00   0.0000000E+00   0.0000000E+00   0.0000000E+00   0.0000000E+00   0.0000000E+00   0.0000000E+00   0.0000000E+00   0.0000000E+00   0.0000000E+00   0.0000000E+00   0.0000000E+00   0.0000000E+00   0.0000000E+00   0.0000000E+00   0.0000000E+00   0.0000000E+00   0.0000000E+00   0.0000000E+00   0.0000000E+00   0.0000000E+00   0.0000000E+00   0.0000000E+00   0.0000000E+00   0.0000000E+00   0.0000000E+00   0.0000000E+00   0.0000000E+00   0.0000000E+00   0.0000000E+00   0.0000000E+00   0.0000000E+00   0.0000000E+00   0.0000000E+00   0.0000000E+00   0.0000000E+00   0.0000000E+00   0.0000000E+00   0.0000000E+00   0.0000000E+00   0.0000000E+00   0.0000000E+00   0.0000000E+00   0.0000000E+00   0.0000000E+00   0.0000000E+00   0.0000000E+00   0.0000000E+00   0.0000000E+00   0.0000000E+00   0.0000000E+00   0.0000000E+00   0.0000000E+00   0.0000000E+00   0.0000000E+00   0.0000000E+00   0.0000000E+00   0.0000000E+00   0.0000000E+00   0.0000000E+00   0.0000000E+00   0.0000000E+00   0.0000000E+00   0.0000000E+00   0.0000000E+00   0.0000000E+00   0.0000000E+00   0.0000000E+00   0.0000000E+00   0.0000000E+00   0.0000000E+00   0.0000000E+00   0.0000000E+00   0.0000000E+00   0.0000000E+00   0.0000000E+00   0.0000000E+00   0.0000000E+00   0.0000000E+00   0.0000000E+00   0.0000000E+00   0.0000000E+00   0.0000000E+00   0.0000000E+00   0.0000000E+00   0.0000000E+00   0.0000000E+00   0.0000000E+00   0.0000000E+00   0.0000000E+00   0.0000000E+00   0.0000000E+00   0.0000000E+00   0.0000000E+00   0.0000000E+00   0.0000000E+00   0.0000000E+00   0.0000000E+00   0.0000000E+00   0.0000000E+00   0.0000000E+00   0.0000000E+00   0.0000000E+00   0.0000000E+00   0.0000000E+00   0.0000000E+00   0.0000000E+00   0.0000000E+00   0.0000000E+00   0.0000000E+00   0.0000000E+00   0.0000000E+00   0.0000000E+00   0.0000000E+00   0.0000000E+00   0.0000000E+00   0.0000000E+00   0.0000000E+00   0.0000000E+00   0.0000000E+00   0.0000000E+00   0.0000000E+00   0.0000000E+00   0.0000000E+00   0.0000000E+00   0.0000000E+00   0.0000000E+00   0.0000000E+00   0.0000000E+00   0.0000000E+00   0.0000000E+00   0.0000000E+00   0.0000000E+00   0.0000000E+00   0.0000000E+00   0.0000000E+00   0.0000000E+00   0.0000000E+00   0.0000000E+00   0.0000000E+00   0.0000000E+00   0.0000000E+00   0.0000000E+00   0.0000000E+00   0.0000000E+00   0.0000000E+00   0.0000000E+00   0.0000000E+00   0.0000000E+00   0.0000000E+00   0.0000000E+00   0.0000000E+00   0.0000000E+00   0.0000000E+00   0.0000000E+00   0.0000000E+00   0.0000000E+00   0.0000000E+00   0.0000000E+00   0.0000000E+00   0.0000000E+00   0.0000000E+00   0.0000000E+00   0.0000000E+00   0.0000000E+00   0.0000000E+00   0.0000000E+00   0.0000000E+00   0.0000000E+00   0.0000000E+00   0.0000000E+00   0.0000000E+00   0.0000000E+00   0.0000000E+00   0.0000000E+00   0.0000000E+00   0.0000000E+00   0.0000000E+00   0.0000000E+00   0.0000000E+00   0.0000000E+00   0.0000000E+00   0.0000000E+00   0.0000000E+00   0.0000000E+00   0.0000000E+00   0.0000000E+00   0.0000000E+00   0.0000000E+00   0.0000000E+00   0.0000000E+00   0.0000000E+00   0.0000000E+00   0.0000000E+00   0.0000000E+00   0.0000000E+00   0.0000000E+00   0.0000000E+00   0.0000000E+00   0.0000000E+00   0.0000000E+00   0.0000000E+00   0.0000000E+00   0.0000000E+00   0.0000000E+00   0.0000000E+00   0.0000000E+00   0.0000000E+00   0.0000000E+00   0.0000000E+00   0.0000000E+00   0.0000000E+00   0.0000000E+00   0.0000000E+00   0.0000000E+00   0.0000000E+00   0.0000000E+00   0.0000000E+00   0.0000000E+00   0.0000000E+00   0.0000000E+00   0.0000000E+00   0.0000000E+00   0.0000000E+00   0.0000000E+00   0.0000000E+00   0.0000000E+00   0.0000000E+00   0.0000000E+00   0.0000000E+00   0.0000000E+00   0.0000000E+00   0.0000000E+00   0.0000000E+00   0.0000000E+00   0.0000000E+00   0.0000000E+00   0.0000000E+00   0.0000000E+00   0.0000000E+00   0.0000000E+00   0.0000000E+00   0.0000000E+00   0.0000000E+00   0.0000000E+00   0.0000000E+00   0.0000000E+00   0.0000000E+00   0.0000000E+00   0.0000000E+00   0.0000000E+00   0.0000000E+00   0.0000000E+00   0.0000000E+00   0.0000000E+00   0.0000000E+00   0.0000000E+00   0.0000000E+00   0.0000000E+00   0.0000000E+00   0.0000000E+00   0.0000000E+00   0.0000000E+00   0.0000000E+00   0.0000000E+00   0.0000000E+00   0.0000000E+00   0.0000000E+00   0.0000000E+00   0.0000000E+00   0.0000000E+00   0.0000000E+00   0.0000000E+00   0.0000000E+00   0.0000000E+00   0.0000000E+00   0.0000000E+00   0.0000000E+00   0.0000000E+00   0.0000000E+00   0.0000000E+00   0.0000000E+00   0.0000000E+00   0.0000000E+00   0.0000000E+00   0.0000000E+00   0.0000000E+00   0.0000000E+00   0.0000000E+00   0.0000000E+00   0.0000000E+00   0.0000000E+00   0.0000000E+00   0.0000000E+00   0.0000000E+00   0.0000000E+00   0.0000000E+00   0.0000000E+00   0.0000000E+00   0.0000000E+00   0.0000000E+00   0.0000000E+00   0.0000000E+00   0.0000000E+00   0.0000000E+00   0.0000000E+00   0.0000000E+00   0.0000000E+00   0.0000000E+00   0.0000000E+00   0.0000000E+00   0.0000000E+00   0.0000000E+00   0.0000000E+00   0.0000000E+00   0.0000000E+00   0.0000000E+00   0.0000000E+00   0.0000000E+00   0.0000000E+00   0.0000000E+00   0.0000000E+00   0.0000000E+00   0.0000000E+00   0.0000000E+00   0.0000000E+00   0.0000000E+00   0.0000000E+00   0.0000000E+00   0.0000000E+00   0.0000000E+00   0.0000000E+00   0.0000000E+00   0.0000000E+00   0.0000000E+00   0.0000000E+00   0.0000000E+00   0.0000000E+00   0.0000000E+00   0.0000000E+00   0.0000000E+00   0.0000000E+00   0.0000000E+00   0.0000000E+00   0.0000000E+00   0.0000000E+00   0.0000000E+00   0.0000000E+00   0.0000000E+00   0.0000000E+00   0.0000000E+00   0.0000000E+00   0.0000000E+00   0.0000000E+00   0.0000000E+00   0.0000000E+00   0.0000000E+00   0.0000000E+00   0.0000000E+00   0.0000000E+00   0.0000000E+00   0.0000000E+00   0.0000000E+00   0.0000000E+00   0.0000000E+00   0.0000000E+00   0.0000000E+00   0.0000000E+00   0.0000000E+00   0.0000000E+00   0.0000000E+00   0.0000000E+00   0.0000000E+00   0.0000000E+00   0.0000000E+00   0.0000000E+00   0.0000000E+00   0.0000000E+00   0.0000000E+00   0.0000000E+00   0.0000000E+00   0.0000000E+00   0.0000000E+00   0.0000000E+00   0.0000000E+00   0.0000000E+00   0.0000000E+00   0.0000000E+00   0.0000000E+00   0.0000000E+00   0.0000000E+00   0.0000000E+00   0.0000000E+00   0.0000000E+00   0.0000000E+00   0.0000000E+00   0.0000000E+00   0.0000000E+00   0.0000000E+00   0.0000000E+00   0.0000000E+00   0.0000000E+00   0.0000000E+00   0.0000000E+00   0.0000000E+00   0.0000000E+00   0.0000000E+00   0.0000000E+00   0.0000000E+00   0.0000000E+00   0.0000000E+00   0.0000000E+00   0.0000000E+00   0.0000000E+00   0.0000000E+00   0.0000000E+00   0.0000000E+00   0.0000000E+00   0.0000000E+00   0.0000000E+00   0.0000000E+00   0.0000000E+00   0.0000000E+00   0.0000000E+00   0.0000000E+00   0.0000000E+00   0.0000000E+00   0.0000000E+00   0.0000000E+00   0.0000000E+00   0.0000000E+00   0.0000000E+00   0.0000000E+00   0.0000000E+00   0.0000000E+00   0.0000000E+00   0.0000000E+00   0.0000000E+00   0.0000000E+00   0.0000000E+00   0.0000000E+00   0.0000000E+00   0.0000000E+00   0.0000000E+00   0.0000000E+00   0.0000000E+00   0.0000000E+00   0.0000000E+00   0.0000000E+00   0.0000000E+00   0.0000000E+00   0.0000000E+00   0.0000000E+00   0.0000000E+00   0.0000000E+00   0.0000000E+00   0.0000000E+00   0.0000000E+00   0.0000000E+00   0.0000000E+00   0.0000000E+00   0.0000000E+00   0.0000000E+00   0.0000000E+00   0.0000000E+00   0.0000000E+00   0.0000000E+00   0.0000000E+00   0.0000000E+00   0.0000000E+00   0.0000000E+00   0.0000000E+00   0.0000000E+00   0.0000000E+00   0.0000000E+00   0.0000000E+00   0.0000000E+00   0.0000000E+00   0.0000000E+00   0.0000000E+00   0.0000000E+00   0.0000000E+00   0.0000000E+00   0.0000000E+00   0.0000000E+00   0.0000000E+00   0.0000000E+00   0.0000000E+00   0.0000000E+00   0.0000000E+00   0.0000000E+00   0.0000000E+00   0.0000000E+00   0.0000000E+00   0.0000000E+00   0.0000000E+00   0.0000000E+00   0.0000000E+00   0.0000000E+00   0.0000000E+00   0.0000000E+00   0.0000000E+00   0.0000000E+00   0.0000000E+00   0.0000000E+00   0.0000000E+00   0.0000000E+00   0.0000000E+00   0.0000000E+00   0.0000000E+00   0.0000000E+00   0.0000000E+00   0.0000000E+00   0.0000000E+00   0.0000000E+00   0.0000000E+00   0.0000000E+00   0.0000000E+00   0.0000000E+00   0.0000000E+00   0.0000000E+00   0.0000000E+00   0.0000000E+00   0.0000000E+00   0.0000000E+00   0.0000000E+00   0.0000000E+00   0.0000000E+00   0.0000000E+00   0.0000000E+00   0.0000000E+00   0.0000000E+00   0.0000000E+00   0.0000000E+00   0.0000000E+00   0.0000000E+00   0.0000000E+00   0.0000000E+00   0.0000000E+00   0.0000000E+00   0.0000000E+00   0.0000000E+00   0.0000000E+00   0.0000000E+00   0.0000000E+00   0.0000000E+00   0.0000000E+00   0.0000000E+00   0.0000000E+00   0.0000000E+00   0.0000000E+00   0.0000000E+00   0.0000000E+00   0.0000000E+00   0.0000000E+00   0.0000000E+00   0.0000000E+00   0.0000000E+00   0.0000000E+00   0.0000000E+00   0.0000000E+00   0.0000000E+00   0.0000000E+00   0.0000000E+00   0.0000000E+00   0.0000000E+00   0.0000000E+00   0.0000000E+00   0.0000000E+00   0.0000000E+00   0.0000000E+00   0.0000000E+00   0.0000000E+00   0.0000000E+00   0.0000000E+00   0.0000000E+00   0.0000000E+00   0.0000000E+00   0.0000000E+00   0.0000000E+00   0.0000000E+00   0.0000000E+00   0.0000000E+00   0.0000000E+00   0.0000000E+00   0.0000000E+00   0.0000000E+00   0.0000000E+00   0.0000000E+00   0.0000000E+00   0.0000000E+00   0.0000000E+00   0.0000000E+00   0.0000000E+00   0.0000000E+00   0.0000000E+00   0.0000000E+00   0.0000000E+00   0.0000000E+00   0.0000000E+00   0.0000000E+00   0.0000000E+00   0.0000000E+00   0.0000000E+00   0.0000000E+00   0.0000000E+00   0.0000000E+00   0.0000000E+00   0.0000000E+00   0.0000000E+00   0.0000000E+00   0.0000000E+00   0.0000000E+00   0.0000000E+00   0.0000000E+00   0.0000000E+00   0.0000000E+00   0.0000000E+00   0.0000000E+00   0.0000000E+00   0.0000000E+00   0.0000000E+00   0.0000000E+00   0.0000000E+00   0.0000000E+00   0.0000000E+00   0.0000000E+00   0.0000000E+00   0.0000000E+00   0.0000000E+00   0.0000000E+00   0.0000000E+00   0.0000000E+00   0.0000000E+00   0.0000000E+00   0.0000000E+00   0.0000000E+00   0.0000000E+00   0.0000000E+00   0.0000000E+00   0.0000000E+00   0.0000000E+00   0.0000000E+00   0.0000000E+00   0.0000000E+00   0.0000000E+00   0.0000000E+00   0.0000000E+00   0.0000000E+00   0.0000000E+00   0.0000000E+00   0.0000000E+00   0.0000000E+00   0.0000000E+00   0.0000000E+00   0.0000000E+00   0.0000000E+00   0.0000000E+00   0.0000000E+00   0.0000000E+00   0.0000000E+00   0.0000000E+00   0.0000000E+00   0.0000000E+00   0.0000000E+00   0.0000000E+00   0.0000000E+00   0.0000000E+00   0.0000000E+00   0.0000000E+00   0.0000000E+00   0.0000000E+00   0.0000000E+00   0.0000000E+00   0.0000000E+00   0.0000000E+00   0.0000000E+00   0.0000000E+00   0.0000000E+00   0.0000000E+00   0.0000000E+00   0.0000000E+00   0.0000000E+00   0.0000000E+00   0.0000000E+00   0.0000000E+00   0.0000000E+00   0.0000000E+00   0.0000000E+00   0.0000000E+00   0.0000000E+00   0.0000000E+00   0.0000000E+00   0.0000000E+00   0.0000000E+00   0.0000000E+00   0.0000000E+00   0.0000000E+00   0.0000000E+00   0.0000000E+00   0.0000000E+00   0.0000000E+00   0.0000000E+00   0.0000000E+00   0.0000000E+00   0.0000000E+00   0.0000000E+00   0.0000000E+00   0.0000000E+00   0.0000000E+00   0.0000000E+00   0.0000000E+00   0.0000000E+00   0.0000000E+00   0.0000000E+00   0.0000000E+00   0.0000000E+00   0.0000000E+00   0.0000000E+00   0.0000000E+00   0.0000000E+00   0.0000000E+00   0.0000000E+00   0.0000000E+00   0.0000000E+00   0.0000000E+00   0.0000000E+00   0.0000000E+00   0.0000000E+00   0.0000000E+00   0.0000000E+00   0.0000000E+00   0.0000000E+00   0.0000000E+00   0.0000000E+00   0.0000000E+00   0.0000000E+00   0.0000000E+00   0.0000000E+00   0.0000000E+00   0.0000000E+00   0.0000000E+00   0.0000000E+00   0.0000000E+00   0.0000000E+00   0.0000000E+00   0.0000000E+00   0.0000000E+00   0.0000000E+00   0.0000000E+00   0.0000000E+00   0.0000000E+00   0.0000000E+00   0.0000000E+00   0.0000000E+00   0.0000000E+00   0.0000000E+00   0.0000000E+00   0.0000000E+00   0.0000000E+00   0.0000000E+00   0.0000000E+00   0.0000000E+00   0.0000000E+00   0.0000000E+00   0.0000000E+00   0.0000000E+00   0.0000000E+00   0.0000000E+00   0.0000000E+00   0.0000000E+00   0.0000000E+00   0.0000000E+00   0.0000000E+00   0.0000000E+00   0.0000000E+00   0.0000000E+00   0.0000000E+00   0.0000000E+00   0.0000000E+00   0.0000000E+00   0.0000000E+00   0.0000000E+00   0.0000000E+00   0.0000000E+00   0.0000000E+00   0.0000000E+00   0.0000000E+00   0.0000000E+00   0.0000000E+00   0.0000000E+00   0.0000000E+00   0.0000000E+00   0.0000000E+00   0.0000000E+00   0.0000000E+00   0.0000000E+00   0.0000000E+00   0.0000000E+00   0.0000000E+00   0.0000000E+00   0.0000000E+00   0.0000000E+00   0.0000000E+00   0.0000000E+00   0.0000000E+00   0.0000000E+00   0.0000000E+00   0.0000000E+00   0.0000000E+00   0.0000000E+00   0.0000000E+00   0.0000000E+00   0.0000000E+00   0.0000000E+00   0.0000000E+00   0.0000000E+00   0.0000000E+00   0.0000000E+00   0.0000000E+00   0.0000000E+00   0.0000000E+00   0.0000000E+00   0.0000000E+00   0.0000000E+00   0.0000000E+00   0.0000000E+00   0.0000000E+00   0.0000000E+00   0.0000000E+00   0.0000000E+00   0.0000000E+00   0.0000000E+00   0.0000000E+00   0.0000000E+00   0.0000000E+00   0.0000000E+00   0.0000000E+00   0.0000000E+00   0.0000000E+00   0.0000000E+00   0.0000000E+00   0.0000000E+00   0.0000000E+00   0.0000000E+00   0.0000000E+00   0.0000000E+00   0.0000000E+00   0.0000000E+00   0.0000000E+00   0.0000000E+00   0.0000000E+00   0.0000000E+00   0.0000000E+00   0.0000000E+00   0.0000000E+00   0.0000000E+00   0.0000000E+00   0.0000000E+00   0.0000000E+00   0.0000000E+00   0.0000000E+00   0.0000000E+00   0.0000000E+00   0.0000000E+00   0.0000000E+00   0.0000000E+00   0.0000000E+00   0.0000000E+00   0.0000000E+00   0.0000000E+00   0.0000000E+00   0.0000000E+00   0.0000000E+00   0.0000000E+00   0.0000000E+00   0.0000000E+00   0.0000000E+00   0.0000000E+00   0.0000000E+00   0.0000000E+00   0.0000000E+00   0.0000000E+00   0.0000000E+00   0.0000000E+00   0.0000000E+00   0.0000000E+00   0.0000000E+00   0.0000000E+00   0.0000000E+00   0.0000000E+00   0.0000000E+00   0.0000000E+00   0.0000000E+00   0.0000000E+00   0.0000000E+00   0.0000000E+00   0.0000000E+00   0.0000000E+00   0.0000000E+00   0.0000000E+00   0.0000000E+00   0.0000000E+00   0.0000000E+00   0.0000000E+00   0.0000000E+00   0.0000000E+00   0.0000000E+00   0.0000000E+00   0.0000000E+00   0.0000000E+00   0.0000000E+00   0.0000000E+00   0.0000000E+00   0.0000000E+00   0.0000000E+00   0.0000000E+00   0.0000000E+00   0.0000000E+00   0.0000000E+00   0.0000000E+00   0.0000000E+00   0.0000000E+00   0.0000000E+00   0.0000000E+00   0.0000000E+00   0.0000000E+00   0.0000000E+00   0.0000000E+00   0.0000000E+00   0.0000000E+00   0.0000000E+00   0.0000000E+00   0.0000000E+00   0.0000000E+00   0.0000000E+00   0.0000000E+00   0.0000000E+00   0.0000000E+00   0.0000000E+00   0.0000000E+00   0.0000000E+00   0.0000000E+00   0.0000000E+00   0.0000000E+00   0.0000000E+00   0.0000000E+00   0.0000000E+00   0.0000000E+00   0.0000000E+00   0.0000000E+00   0.0000000E+00   0.0000000E+00   0.0000000E+00   0.0000000E+00   0.0000000E+00   0.0000000E+00   0.0000000E+00   0.0000000E+00   0.0000000E+00   0.0000000E+00   0.0000000E+00   0.0000000E+00   0.0000000E+00   0.0000000E+00   0.0000000E+00   0.0000000E+00   0.0000000E+00   0.0000000E+00   0.0000000E+00   0.0000000E+00   0.0000000E+00   0.0000000E+00   0.0000000E+00   0.0000000E+00   0.0000000E+00   0.0000000E+00   0.0000000E+00   0.0000000E+00   0.0000000E+00   0.0000000E+00   0.0000000E+00   0.0000000E+00   0.0000000E+00   0.0000000E+00   0.0000000E+00   0.0000000E+00   0.0000000E+00   0.0000000E+00   0.0000000E+00   0.0000000E+00   0.0000000E+00   0.0000000E+00   0.0000000E+00   0.0000000E+00   0.0000000E+00   0.0000000E+00   0.0000000E+00   0.0000000E+00   0.0000000E+00   0.0000000E+00   0.0000000E+00   0.0000000E+00   0.0000000E+00   0.0000000E+00   0.0000000E+00   0.0000000E+00   0.0000000E+00   0.0000000E+00   0.0000000E+00   0.0000000E+00   0.0000000E+00   0.0000000E+00   0.0000000E+00   0.0000000E+00   0.0000000E+00   0.0000000E+00   0.0000000E+00   0.0000000E+00   0.0000000E+00   0.0000000E+00   0.0000000E+00   0.0000000E+00   0.0000000E+00   0.0000000E+00   0.0000000E+00   0.0000000E+00   0.0000000E+00   0.0000000E+00   0.0000000E+00   0.0000000E+00   0.0000000E+00   0.0000000E+00   0.0000000E+00   0.0000000E+00   0.0000000E+00   0.0000000E+00   0.0000000E+00   0.0000000E+00   0.0000000E+00   0.0000000E+00   0.0000000E+00   0.0000000E+00   0.0000000E+00   0.0000000E+00   0.0000000E+00   0.0000000E+00   0.0000000E+00   0.0000000E+00   0.0000000E+00   0.0000000E+00   0.0000000E+00   0.0000000E+00   0.0000000E+00   0.0000000E+00   0.0000000E+00   0.0000000E+00   0.0000000E+00   0.0000000E+00   0.0000000E+00   0.0000000E+00   0.0000000E+00   0.0000000E+00   0.0000000E+00   0.0000000E+00   0.0000000E+00   0.0000000E+00   0.0000000E+00   0.0000000E+00   0.0000000E+00   0.0000000E+00   0.0000000E+00   0.0000000E+00   0.0000000E+00   0.0000000E+00   0.0000000E+00   0.0000000E+00   0.0000000E+00   0.0000000E+00   0.0000000E+00   0.0000000E+00   0.0000000E+00   0.0000000E+00   0.0000000E+00   0.0000000E+00   0.0000000E+00   0.0000000E+00   0.0000000E+00   0.0000000E+00   0.0000000E+00   0.0000000E+00   0.0000000E+00   0.0000000E+00   0.0000000E+00   0.0000000E+00   0.0000000E+00   0.0000000E+00   0.0000000E+00   0.0000000E+00   0.0000000E+00   0.0000000E+00   0.0000000E+00   0.0000000E+00   0.0000000E+00   0.0000000E+00   0.0000000E+00   0.0000000E+00   0.0000000E+00   0.0000000E+00   0.0000000E+00   0.0000000E+00   0.0000000E+00   0.0000000E+00   0.0000000E+00   0.0000000E+00   0.0000000E+00   0.0000000E+00   0.0000000E+00   0.0000000E+00   0.0000000E+00   0.0000000E+00   0.0000000E+00   0.0000000E+00   0.0000000E+00   0.0000000E+00   0.0000000E+00   0.0000000E+00   0.0000000E+00   0.0000000E+00   0.0000000E+00   0.0000000E+00   0.0000000E+00   0.0000000E+00   0.0000000E+00   0.0000000E+00   0.0000000E+00   0.0000000E+00   0.0000000E+00   0.0000000E+00   0.0000000E+00   0.0000000E+00   0.0000000E+00   0.0000000E+00   0.0000000E+00   0.0000000E+00   0.0000000E+00   0.0000000E+00   0.0000000E+00   0.0000000E+00   0.0000000E+00   0.0000000E+00   0.0000000E+00   0.0000000E+00   0.0000000E+00   0.0000000E+00   0.0000000E+00   0.0000000E+00   0.0000000E+00   0.0000000E+00   0.0000000E+00   0.0000000E+00   0.0000000E+00   0.0000000E+00   0.0000000E+00   0.0000000E+00   0.0000000E+00   0.0000000E+00   0.0000000E+00   0.0000000E+00   0.0000000E+00   0.0000000E+00   0.0000000E+00   0.0000000E+00   0.0000000E+00   0.0000000E+00   0.0000000E+00   0.0000000E+00   0.0000000E+00   0.0000000E+00   0.0000000E+00   0.0000000E+00   0.0000000E+00   0.0000000E+00   0.0000000E+00   0.0000000E+00   0.0000000E+00   0.0000000E+00   0.0000000E+00   0.0000000E+00   0.0000000E+00   0.0000000E+00   0.0000000E+00   0.0000000E+00   0.0000000E+00   0.0000000E+00   0.0000000E+00   0.0000000E+00   0.0000000E+00   0.0000000E+00   0.0000000E+00   0.0000000E+00   0.0000000E+00   0.0000000E+00   0.0000000E+00   0.0000000E+00   0.0000000E+00   0.0000000E+00   0.0000000E+00   0.0000000E+00   0.0000000E+00   0.0000000E+00   0.0000000E+00   0.0000000E+00   0.0000000E+00   0.0000000E+00   0.0000000E+00   0.0000000E+00   0.0000000E+00   0.0000000E+00   0.0000000E+00   0.0000000E+00   0.0000000E+00   0.0000000E+00   0.0000000E+00   0.0000000E+00   0.0000000E+00   0.0000000E+00   0.0000000E+00   0.0000000E+00   0.0000000E+00   0.0000000E+00   0.0000000E+00   0.0000000E+00   0.0000000E+00   0.0000000E+00   0.0000000E+00   0.0000000E+00   0.0000000E+00   0.0000000E+00   0.0000000E+00   0.0000000E+00   0.0000000E+00   0.0000000E+00   0.0000000E+00   0.0000000E+00   0.0000000E+00   0.0000000E+00   0.0000000E+00   0.0000000E+00   0.0000000E+00   0.0000000E+00   0.0000000E+00   0.0000000E+00   0.0000000E+00   0.0000000E+00   0.0000000E+00   0.0000000E+00   0.0000000E+00   0.0000000E+00   0.0000000E+00   0.0000000E+00   0.0000000E+00   0.0000000E+00   0.0000000E+00   0.0000000E+00   0.0000000E+00   0.0000000E+00   0.0000000E+00   0.0000000E+00   0.0000000E+00   0.0000000E+00   0.0000000E+00   0.0000000E+00   0.0000000E+00   0.0000000E+00   0.0000000E+00   0.0000000E+00   0.0000000E+00   0.0000000E+00   0.0000000E+00   0.0000000E+00   0.0000000E+00   0.0000000E+00   0.0000000E+00   0.0000000E+00   0.0000000E+00   0.0000000E+00   0.0000000E+00   0.0000000E+00   0.0000000E+00   0.0000000E+00   0.0000000E+00   0.0000000E+00   0.0000000E+00   0.0000000E+00   0.0000000E+00   0.0000000E+00   0.0000000E+00   0.0000000E+00   0.0000000E+00   0.0000000E+00   0.0000000E+00   0.0000000E+00   0.0000000E+00   0.0000000E+00   0.0000000E+00   0.0000000E+00   0.0000000E+00   0.0000000E+00   0.0000000E+00   0.0000000E+00   0.0000000E+00   0.0000000E+00   0.0000000E+00   0.0000000E+00   0.0000000E+00   0.0000000E+00   0.0000000E+00   0.0000000E+00   0.0000000E+00   0.0000000E+00   0.0000000E+00   0.0000000E+00   0.0000000E+00   0.0000000E+00   0.0000000E+00   0.0000000E+00   0.0000000E+00   0.0000000E+00   0.0000000E+00   0.0000000E+00   0.0000000E+00   0.0000000E+00   0.0000000E+00   0.0000000E+00   0.0000000E+00   0.0000000E+00   0.0000000E+00   0.0000000E+00   0.0000000E+00   0.0000000E+00   0.0000000E+00   0.0000000E+00   0.0000000E+00   0.0000000E+00   0.0000000E+00   0.0000000E+00   0.0000000E+00   0.0000000E+00   0.0000000E+00   0.0000000E+00   0.0000000E+00   0.0000000E+00   0.0000000E+00   0.0000000E+00   0.0000000E+00   0.0000000E+00   0.0000000E+00   0.0000000E+00   0.0000000E+00   0.0000000E+00   0.0000000E+00   0.0000000E+00   0.0000000E+00   0.0000000E+00   0.0000000E+00   0.0000000E+00   0.0000000E+00   0.0000000E+00   0.0000000E+00   0.0000000E+00   0.0000000E+00   0.0000000E+00   0.0000000E+00   0.0000000E+00   0.0000000E+00   0.0000000E+00   0.0000000E+00   0.0000000E+00   0.0000000E+00   0.0000000E+00   0.0000000E+00   0.0000000E+00   0.0000000E+00   0.0000000E+00   0.0000000E+00   0.0000000E+00   0.0000000E+00   0.0000000E+00   0.0000000E+00   0.0000000E+00   0.0000000E+00   0.0000000E+00   0.0000000E+00   0.0000000E+00   0.0000000E+00   0.0000000E+00   0.0000000E+00   0.0000000E+00   0.0000000E+00   0.0000000E+00   0.0000000E+00   0.0000000E+00   0.0000000E+00   0.0000000E+00   0.0000000E+00   0.0000000E+00   0.0000000E+00   0.0000000E+00   0.0000000E+00   0.0000000E+00   0.0000000E+00   0.0000000E+00   0.0000000E+00   0.0000000E+00   0.0000000E+00   0.0000000E+00   0.0000000E+00   0.0000000E+00   0.0000000E+00   0.0000000E+00   0.0000000E+00   0.0000000E+00   0.0000000E+00   0.0000000E+00   0.0000000E+00   0.0000000E+00   0.0000000E+00   0.0000000E+00   0.0000000E+00   0.0000000E+00   0.0000000E+00   0.0000000E+00   0.0000000E+00   0.0000000E+00   0.0000000E+00   0.0000000E+00   0.0000000E+00   0.0000000E+00   0.0000000E+00   0.0000000E+00   0.0000000E+00   0.0000000E+00   0.0000000E+00   0.0000000E+00   0.0000000E+00   0.0000000E+00   0.0000000E+00   0.0000000E+00   0.0000000E+00   0.0000000E+00   0.0000000E+00   0.0000000E+00   0.0000000E+00   0.0000000E+00   0.0000000E+00   0.0000000E+00   0.0000000E+00   0.0000000E+00   0.0000000E+00   0.0000000E+00   0.0000000E+00   0.0000000E+00   0.0000000E+00   0.0000000E+00   0.0000000E+00   0.0000000E+00   0.0000000E+00   0.0000000E+00   0.0000000E+00   0.0000000E+00   0.0000000E+00   0.0000000E+00   0.0000000E+00   0.0000000E+00   0.0000000E+00   0.0000000E+00   0.0000000E+00   0.0000000E+00   0.0000000E+00   0.0000000E+00   0.0000000E+00   0.0000000E+00   0.0000000E+00   0.0000000E+00   0.0000000E+00   0.0000000E+00   0.0000000E+00   0.0000000E+00   0.0000000E+00   0.0000000E+00   0.0000000E+00   0.0000000E+00   0.0000000E+00   0.0000000E+00   0.0000000E+00   0.0000000E+00   0.0000000E+00   0.0000000E+00   0.0000000E+00   0.0000000E+00   0.0000000E+00   0.0000000E+00   0.0000000E+00   0.0000000E+00   0.0000000E+00   0.0000000E+00   0.0000000E+00   0.0000000E+00   0.0000000E+00   0.0000000E+00   0.0000000E+00   0.0000000E+00   0.0000000E+00   0.0000000E+00   0.0000000E+00   0.0000000E+00   0.0000000E+00   0.0000000E+00   0.0000000E+00   0.0000000E+00   0.0000000E+00   0.0000000E+00   0.0000000E+00   0.0000000E+00   0.0000000E+00   0.0000000E+00   0.0000000E+00   0.0000000E+00   0.0000000E+00   0.0000000E+00   0.0000000E+00   0.0000000E+00   0.0000000E+00   0.0000000E+00   0.0000000E+00   0.0000000E+00   0.0000000E+00   0.0000000E+00   0.0000000E+00   0.0000000E+00   0.0000000E+00   0.0000000E+00   0.0000000E+00   0.0000000E+00   0.0000000E+00   0.0000000E+00   0.0000000E+00   0.0000000E+00   0.0000000E+00   0.0000000E+00   0.0000000E+00   0.0000000E+00   0.0000000E+00   0.0000000E+00   0.0000000E+00   0.0000000E+00   0.0000000E+00   0.0000000E+00   0.0000000E+00   0.0000000E+00   0.0000000E+00   0.0000000E+00   0.0000000E+00   0.0000000E+00   0.0000000E+00   0.0000000E+00   0.0000000E+00   0.0000000E+00   0.0000000E+00   0.0000000E+00   0.0000000E+00   0.0000000E+00   0.0000000E+00   0.0000000E+00   0.0000000E+00   0.0000000E+00   0.0000000E+00   0.0000000E+00   0.0000000E+00   0.0000000E+00   0.0000000E+00   0.0000000E+00   0.0000000E+00   0.0000000E+00   0.0000000E+00   0.0000000E+00   0.0000000E+00   0.0000000E+00   0.0000000E+00   0.0000000E+00   0.0000000E+00   0.0000000E+00   0.0000000E+00   0.0000000E+00   0.0000000E+00   0.0000000E+00   0.0000000E+00   0.0000000E+00   0.0000000E+00   0.0000000E+00   0.0000000E+00   0.0000000E+00   0.0000000E+00   0.0000000E+00   0.0000000E+00   0.0000000E+00   0.0000000E+00   0.0000000E+00   0.0000000E+00   0.0000000E+00   0.0000000E+00   0.0000000E+00   0.0000000E+00   0.0000000E+00   0.0000000E+00   0.0000000E+00   0.0000000E+00   0.0000000E+00   0.0000000E+00   0.0000000E+00   0.0000000E+00   0.0000000E+00   0.0000000E+00   0.0000000E+00   0.0000000E+00   0.0000000E+00   0.0000000E+00   0.0000000E+00   0.0000000E+00   0.0000000E+00   0.0000000E+00   0.0000000E+00   0.0000000E+00   0.0000000E+00   0.0000000E+00   0.0000000E+00   0.0000000E+00   0.0000000E+00   0.0000000E+00   0.0000000E+00   0.0000000E+00   0.0000000E+00   0.0000000E+00   0.0000000E+00   0.0000000E+00   0.0000000E+00   0.0000000E+00   0.0000000E+00   0.0000000E+00   0.0000000E+00   0.0000000E+00   0.0000000E+00   0.0000000E+00   0.0000000E+00   0.0000000E+00   0.0000000E+00   0.0000000E+00   0.0000000E+00   0.0000000E+00   0.0000000E+00   0.0000000E+00   0.0000000E+00   0.0000000E+00   0.0000000E+00   0.0000000E+00   0.0000000E+00   0.0000000E+00   0.0000000E+00   0.0000000E+00   0.0000000E+00   0.0000000E+00   0.0000000E+00   0.0000000E+00   0.0000000E+00   0.0000000E+00   0.0000000E+00   0.0000000E+00   0.0000000E+00   0.0000000E+00   0.0000000E+00   0.0000000E+00   0.0000000E+00   0.0000000E+00   0.0000000E+00   0.0000000E+00   0.0000000E+00   0.0000000E+00   0.0000000E+00   0.0000000E+00   0.0000000E+00   0.0000000E+00   0.0000000E+00   0.0000000E+00   0.0000000E+00   0.0000000E+00   0.0000000E+00   0.0000000E+00   0.0000000E+00   0.0000000E+00   0.0000000E+00   0.0000000E+00   0.0000000E+00   0.0000000E+00   0.0000000E+00   0.0000000E+00   0.0000000E+00   0.0000000E+00   0.0000000E+00   0.0000000E+00   0.0000000E+00   0.0000000E+00   0.0000000E+00   0.0000000E+00   0.0000000E+00   0.0000000E+00   0.0000000E+00   0.0000000E+00   0.0000000E+00   0.0000000E+00   0.0000000E+00   0.0000000E+00   0.0000000E+00   0.0000000E+00   0.0000000E+00   0.0000000E+00   0.0000000E+00   0.0000000E+00   0.0000000E+00   0.0000000E+00   0.0000000E+00   0.0000000E+00   0.0000000E+00   0.0000000E+00   0.0000000E+00   0.0000000E+00   0.0000000E+00   0.0000000E+00   0.0000000E+00   0.0000000E+00   0.0000000E+00   0.0000000E+00   0.0000000E+00   0.0000000E+00   0.0000000E+00   0.0000000E+00   0.0000000E+00   0.0000000E+00   0.0000000E+00   0.0000000E+00   0.0000000E+00   0.0000000E+00   0.0000000E+00   0.0000000E+00   0.0000000E+00   0.0000000E+00   0.0000000E+00   0.0000000E+00   0.0000000E+00   0.0000000E+00   0.0000000E+00   0.0000000E+00   0.0000000E+00   0.0000000E+00   0.0000000E+00   0.0000000E+00   0.0000000E+00   0.0000000E+00   0.0000000E+00   0.0000000E+00   0.0000000E+00   0.0000000E+00   0.0000000E+00   0.0000000E+00   0.0000000E+00   0.0000000E+00   0.0000000E+00   0.0000000E+00   0.0000000E+00   0.0000000E+00   0.0000000E+00   0.0000000E+00   0.0000000E+00   0.0000000E+00   0.0000000E+00   0.0000000E+00   0.0000000E+00   0.0000000E+00   0.0000000E+00   0.0000000E+00   0.0000000E+00   0.0000000E+00   0.0000000E+00   0.0000000E+00   0.0000000E+00   0.0000000E+00   0.0000000E+00   0.0000000E+00   0.0000000E+00   0.0000000E+00   0.0000000E+00   0.0000000E+00   0.0000000E+00   0.0000000E+00   0.0000000E+00   0.0000000E+00   0.0000000E+00   0.0000000E+00   0.0000000E+00   0.0000000E+00   0.0000000E+00   0.0000000E+00   0.0000000E+00   0.0000000E+00   0.0000000E+00   0.0000000E+00   0.0000000E+00   0.0000000E+00   0.0000000E+00   0.0000000E+00   0.0000000E+00   0.0000000E+00   0.0000000E+00   0.0000000E+00   0.0000000E+00   0.0000000E+00   0.0000000E+00   0.0000000E+00   0.0000000E+00   0.0000000E+00   0.0000000E+00   0.0000000E+00   0.0000000E+00   0.0000000E+00   0.0000000E+00   0.0000000E+00   0.0000000E+00   0.0000000E+00   0.0000000E+00   0.0000000E+00   0.0000000E+00   0.0000000E+00   0.0000000E+00   0.0000000E+00   0.0000000E+00   0.0000000E+00   0.0000000E+00   0.0000000E+00   0.0000000E+00   0.0000000E+00   0.0000000E+00   0.0000000E+00   0.0000000E+00   0.0000000E+00   0.0000000E+00   0.0000000E+00   0.0000000E+00   0.0000000E+00   0.0000000E+00   0.0000000E+00   0.0000000E+00   0.0000000E+00   0.0000000E+00   0.0000000E+00   0.0000000E+00   0.0000000E+00   0.0000000E+00   0.0000000E+00   0.0000000E+00   0.0000000E+00   0.0000000E+00   0.0000000E+00   0.0000000E+00   0.0000000E+00   0.0000000E+00   0.0000000E+00   0.0000000E+00   0.0000000E+00   0.0000000E+00   0.0000000E+00   0.0000000E+00   0.0000000E+00   0.0000000E+00   0.0000000E+00   0.0000000E+00   0.0000000E+00   0.0000000E+00   0.0000000E+00   0.0000000E+00   0.0000000E+00   0.0000000E+00   0.0000000E+00   0.0000000E+00   0.0000000E+00   0.0000000E+00   0.0000000E+00   0.0000000E+00   0.0000000E+00   0.0000000E+00   0.0000000E+00   0.0000000E+00   0.0000000E+00   0.0000000E+00   0.0000000E+00   0.0000000E+00   0.0000000E+00   0.0000000E+00   0.0000000E+00   0.0000000E+00   0.0000000E+00   0.0000000E+00   0.0000000E+00   0.0000000E+00   0.0000000E+00   0.0000000E+00   0.0000000E+00   0.0000000E+00   0.0000000E+00   0.0000000E+00   0.0000000E+00   0.0000000E+00   0.0000000E+00   0.0000000E+00   0.0000000E+00   0.0000000E+00   0.0000000E+00   0.0000000E+00   0.0000000E+00   0.0000000E+00   0.0000000E+00   0.0000000E+00   0.0000000E+00   0.0000000E+00   0.0000000E+00   0.0000000E+00   0.0000000E+00   0.0000000E+00   0.0000000E+00   0.0000000E+00   0.0000000E+00   0.0000000E+00   0.0000000E+00   0.0000000E+00   0.0000000E+00   0.0000000E+00   0.0000000E+00   0.0000000E+00   0.0000000E+00   0.0000000E+00   0.0000000E+00   0.0000000E+00   0.0000000E+00   0.0000000E+00   0.0000000E+00   0.0000000E+00   0.0000000E+00   0.0000000E+00   0.0000000E+00   0.0000000E+00   0.0000000E+00   0.0000000E+00   0.0000000E+00   0.0000000E+00   0.0000000E+00   0.0000000E+00   0.0000000E+00   0.0000000E+00   0.0000000E+00   0.0000000E+00   0.0000000E+00   0.0000000E+00   0.0000000E+00   0.0000000E+00   0.0000000E+00   0.0000000E+00   0.0000000E+00   0.0000000E+00   0.0000000E+00   0.0000000E+00   0.0000000E+00   0.0000000E+00   0.0000000E+00   0.0000000E+00   0.0000000E+00   0.0000000E+00   0.0000000E+00   0.0000000E+00   0.0000000E+00   0.0000000E+00   0.0000000E+00   0.0000000E+00   0.0000000E+00   0.0000000E+00   0.0000000E+00   0.0000000E+00   0.0000000E+00   0.0000000E+00   0.0000000E+00   0.0000000E+00   0.0000000E+00   0.0000000E+00   0.0000000E+00   0.0000000E+00   0.0000000E+00   0.0000000E+00   0.0000000E+00   0.0000000E+00   0.0000000E+00   0.0000000E+00   0.0000000E+00   0.0000000E+00   0.0000000E+00   0.0000000E+00   0.0000000E+00   0.0000000E+00   0.0000000E+00   0.0000000E+00   0.0000000E+00   0.0000000E+00   0.0000000E+00   0.0000000E+00   0.0000000E+00   0.0000000E+00   0.0000000E+00   0.0000000E+00   0.0000000E+00   0.0000000E+00   0.0000000E+00   0.0000000E+00   0.0000000E+00   0.0000000E+00   0.0000000E+00   0.0000000E+00   0.0000000E+00   0.0000000E+00   0.0000000E+00   0.0000000E+00   0.0000000E+00   0.0000000E+00   0.0000000E+00   0.0000000E+00   0.0000000E+00   0.0000000E+00   0.0000000E+00   0.0000000E+00   0.0000000E+00   0.0000000E+00   0.0000000E+00   0.0000000E+00   0.0000000E+00   0.0000000E+00   0.0000000E+00   0.0000000E+00   0.0000000E+00   0.0000000E+00   0.0000000E+00   0.0000000E+00   0.0000000E+00   0.0000000E+00   0.0000000E+00   0.0000000E+00   0.0000000E+00   0.0000000E+00   0.0000000E+00   0.0000000E+00   0.0000000E+00   0.0000000E+00   0.0000000E+00   0.0000000E+00   0.0000000E+00   0.0000000E+00   0.0000000E+00   0.0000000E+00   0.0000000E+00   0.0000000E+00   0.0000000E+00   0.0000000E+00   0.0000000E+00   0.0000000E+00   0.0000000E+00   0.0000000E+00   0.0000000E+00   0.0000000E+00   0.0000000E+00   0.0000000E+00   0.0000000E+00   0.0000000E+00   0.0000000E+00   0.0000000E+00   0.0000000E+00   0.0000000E+00   0.0000000E+00   0.0000000E+00   0.0000000E+00   0.0000000E+00   0.0000000E+00   0.0000000E+00   0.0000000E+00   0.0000000E+00   0.0000000E+00   0.0000000E+00   0.0000000E+00   0.0000000E+00   0.0000000E+00   0.0000000E+00   0.0000000E+00   0.0000000E+00   0.0000000E+00   0.0000000E+00   0.0000000E+00   0.0000000E+00   0.0000000E+00   0.0000000E+00   0.0000000E+00   0.0000000E+00   0.0000000E+00   0.0000000E+00   0.0000000E+00   0.0000000E+00   0.0000000E+00   0.0000000E+00   0.0000000E+00   0.0000000E+00   0.0000000E+00   0.0000000E+00   0.0000000E+00   0.0000000E+00   0.0000000E+00   0.0000000E+00   0.0000000E+00   0.0000000E+00   0.0000000E+00   0.0000000E+00   0.0000000E+00   0.0000000E+00   0.0000000E+00   0.0000000E+00   0.0000000E+00   0.0000000E+00   0.0000000E+00   0.0000000E+00   0.0000000E+00   0.0000000E+00   0.0000000E+00   0.0000000E+00   0.0000000E+00   0.0000000E+00   0.0000000E+00   0.0000000E+00   0.0000000E+00   0.0000000E+00   0.0000000E+00   0.0000000E+00   0.0000000E+00   0.0000000E+00   0.0000000E+00   0.0000000E+00   0.0000000E+00   0.0000000E+00   0.0000000E+00   0.0000000E+00   0.0000000E+00   0.0000000E+00   0.0000000E+00   0.0000000E+00   0.0000000E+00   0.0000000E+00   0.0000000E+00   0.0000000E+00   0.0000000E+00   0.0000000E+00   0.0000000E+00   0.0000000E+00   0.0000000E+00   0.0000000E+00   0.0000000E+00   0.0000000E+00   0.0000000E+00   0.0000000E+00   0.0000000E+00   0.0000000E+00   0.0000000E+00   0.0000000E+00   0.0000000E+00   0.0000000E+00   0.0000000E+00   0.0000000E+00   0.0000000E+00   0.0000000E+00   0.0000000E+00   0.0000000E+00   0.0000000E+00   0.0000000E+00   0.0000000E+00   0.0000000E+00   0.0000000E+00   0.0000000E+00   0.0000000E+00   0.0000000E+00   0.0000000E+00   0.0000000E+00   0.0000000E+00   0.0000000E+00   0.0000000E+00   0.0000000E+00   0.0000000E+00   0.0000000E+00   0.0000000E+00   0.0000000E+00   0.0000000E+00   0.0000000E+00   0.0000000E+00   0.0000000E+00   0.0000000E+00   0.0000000E+00   0.0000000E+00   0.0000000E+00   0.0000000E+00   0.0000000E+00   0.0000000E+00   0.0000000E+00   0.0000000E+00   0.0000000E+00   0.0000000E+00   0.0000000E+00   0.0000000E+00   0.0000000E+00   0.0000000E+00   0.0000000E+00   0.0000000E+00   0.0000000E+00   0.0000000E+00   0.0000000E+00   0.0000000E+00   0.0000000E+00   0.0000000E+00   0.0000000E+00   0.0000000E+00   0.0000000E+00   0.0000000E+00   0.0000000E+00   0.0000000E+00   0.0000000E+00   0.0000000E+00   0.0000000E+00   0.0000000E+00   0.0000000E+00   0.0000000E+00   0.0000000E+00   0.0000000E+00   0.0000000E+00   0.0000000E+00   0.0000000E+00   0.0000000E+00   0.0000000E+00   0.0000000E+00   0.0000000E+00   0.0000000E+00   0.0000000E+00   0.0000000E+00   0.0000000E+00   0.0000000E+00   0.0000000E+00   0.0000000E+00   0.0000000E+00   0.0000000E+00   0.0000000E+00   0.0000000E+00   0.0000000E+00   0.0000000E+00   0.0000000E+00   0.0000000E+00   0.0000000E+00   0.0000000E+00   0.0000000E+00   0.0000000E+00   0.0000000E+00   0.0000000E+00   0.0000000E+00   0.0000000E+00   0.0000000E+00   0.0000000E+00   0.0000000E+00   0.0000000E+00   0.0000000E+00   0.0000000E+00   0.0000000E+00   0.0000000E+00   0.0000000E+00   0.0000000E+00   0.0000000E+00   0.0000000E+00   0.0000000E+00   0.0000000E+00   0.0000000E+00   0.0000000E+00   0.0000000E+00   0.0000000E+00   0.0000000E+00   0.0000000E+00   0.0000000E+00   0.0000000E+00   0.0000000E+00   0.0000000E+00   0.0000000E+00   0.0000000E+00   0.0000000E+00   0.0000000E+00   0.0000000E+00   0.0000000E+00   0.0000000E+00   0.0000000E+00   0.0000000E+00   0.0000000E+00   0.0000000E+00   0.0000000E+00   0.0000000E+00   0.0000000E+00   0.0000000E+00   0.0000000E+00   0.0000000E+00   0.0000000E+00   0.0000000E+00   0.0000000E+00   0.0000000E+00   0.0000000E+00   0.0000000E+00   0.0000000E+00   0.0000000E+00   0.0000000E+00   0.0000000E+00   0.0000000E+00  -7.3425355E-04   0.0000000E+00  -2.8142484E-04  -8.9317083E-04   0.0000000E+00  -2.7076568E-04  -1.0272053E-03   0.0000000E+00  -2.4427852E-04  -1.1313347E-03   0.0000000E+00  -2.1048899E-04  -1.2079341E-03   0.0000000E+00  -1.7355185E-04  -7.3071284E-04   0.0000000E+00  -3.7225091E-04  -1.0230073E-03   0.0000000E+00  -3.4781167E-04  -1.2723713E-03   0.0000000E+00  -3.4368172E-04  -1.4734468E-03   0.0000000E+00  -3.1766531E-04  -1.6244351E-03   0.0000000E+00  -2.7852194E-04  -1.7318096E-03   0.0000000E+00  -2.3199676E-04  -1.0237822E-03   0.0000000E+00  -4.1516684E-04  -1.4294714E-03   0.0000000E+00  -3.9937149E-04  -1.7766587E-03   0.0000000E+00  -3.8944854E-04  -2.0572492E-03   0.0000000E+00  -3.6015676E-04  -2.2644231E-03   0.0000000E+00  -3.1915706E-04  -2.4087580E-03   0.0000000E+00  -2.6741848E-04  -1.3886979E-03   0.0000000E+00  -4.5014496E-04  -1.9297014E-03   0.0000000E+00  -4.2903863E-04  -2.3847753E-03   0.0000000E+00  -4.1831075E-04  -2.7489758E-03   0.0000000E+00  -3.8696628E-04  -3.0152833E-03   0.0000000E+00  -3.4271457E-04  -3.1968460E-03   0.0000000E+00  -2.8720780E-04  -1.8256654E-03   0.0000000E+00  -4.8680350E-04  -2.5214248E-03   0.0000000E+00  -4.4848688E-04  -3.0946364E-03   0.0000000E+00  -4.3357859E-04  -3.5452913E-03   0.0000000E+00  -3.9958124E-04  -3.8696672E-03   0.0000000E+00  -3.5251351E-04  -4.0854779E-03   0.0000000E+00  -2.9412613E-04  -2.3505697E-03   0.0000000E+00  -5.3259282E-04  -3.2220008E-03   0.0000000E+00  -4.6303365E-04  -3.9221686E-03   0.0000000E+00  -4.3821716E-04  -4.4610724E-03   0.0000000E+00  -4.0013233E-04  -4.8406501E-03   0.0000000E+00  -3.5197922E-04  -5.0864983E-03   0.0000000E+00  -2.9221628E-04  -2.9905161E-03   0.0000000E+00  -5.9796625E-04  -4.0603406E-03   0.0000000E+00  -4.8214209E-04  -4.8958627E-03   0.0000000E+00  -4.3960410E-04  -5.5253860E-03   0.0000000E+00  -3.9410125E-04  -5.9565944E-03   0.0000000E+00  -3.4718830E-04  -6.2279790E-03   0.0000000E+00  -2.8803080E-04  -3.7831031E-03   0.0000000E+00  -6.9688435E-04  -5.0721564E-03   0.0000000E+00  -5.1973079E-04  -6.0488787E-03   0.0000000E+00  -4.5300295E-04  -6.7721033E-03   0.0000000E+00  -3.9494940E-04  -7.2528520E-03   0.0000000E+00  -3.4977699E-04  -7.5448509E-03   0.0000000E+00  -2.9208988E-04  -4.7865841E-03   0.0000000E+00  -8.1583642E-04  -6.2960987E-03   0.0000000E+00  -5.8345532E-04  -7.4189031E-03   0.0000000E+00  -4.9039832E-04  -8.2334513E-03   0.0000000E+00  -4.2380404E-04  -8.7624220E-03   0.0000000E+00  -3.7788198E-04  -9.0695387E-03   0.0000000E+00  -3.2092939E-04  -6.0988427E-03   0.0000000E+00  -8.8171638E-04  -7.7802865E-03   0.0000000E+00  -6.6015357E-04  -9.0390770E-03   0.0000000E+00  -5.6090526E-04  -9.9405153E-03   0.0000000E+00  -4.9846043E-04  -1.0517596E-02   0.0000000E+00  -4.4791002E-04  -1.0830496E-02   0.0000000E+00  -3.9289353E-04  -7.8148786E-03   0.0000000E+00  -8.8324299E-04  -9.6002258E-03   0.0000000E+00  -7.3597627E-04  -1.0960436E-02   0.0000000E+00  -6.6172431E-04  -1.1936258E-02   0.0000000E+00  -6.2149664E-04  -1.2544935E-02   0.0000000E+00  -5.8558077E-04  -1.2856717E-02   0.0000000E+00  -5.2608486E-04  -9.8016812E-03   0.0000000E+00  -1.3286459E-03  -1.1789781E-02   0.0000000E+00  -1.0001113E-03  -1.3230002E-02   0.0000000E+00  -8.8385370E-04  -1.4266632E-02   0.0000000E+00  -8.3260512E-04  -1.4886063E-02   0.0000000E+00  -8.0256956E-04  -1.5179370E-02   0.0000000E+00  -7.3791842E-04  -1.2304781E-02   0.0000000E+00  -3.0678036E-03  -1.4428083E-02   0.0000000E+00  -2.0491919E-03  -1.5920099E-02   0.0000000E+00  -1.5221172E-03  -1.6984737E-02   0.0000000E+00  -1.2702454E-03  -1.7581832E-02   0.0000000E+00  -1.1649680E-03  -1.7836228E-02   0.0000000E+00  -1.0572489E-03  -1.5642835E-02   0.0000000E+00  -4.7778105E-03  -1.7703971E-02   0.0000000E+00  -3.4894638E-03  -1.9170001E-02   0.0000000E+00  -2.5288335E-03  -2.0159569E-02   0.0000000E+00  -2.0016599E-03  -2.0684846E-02   0.0000000E+00  -1.7333983E-03  -2.0874688E-02   0.0000000E+00  -1.5159069E-03  -1.9717444E-02   0.0000000E+00  -6.0412553E-03  -2.1611178E-02   0.0000000E+00  -4.8083663E-03  -2.2954641E-02   0.0000000E+00  -3.6765405E-03  -2.3815488E-02   0.0000000E+00  -2.9354836E-03  -2.4235444E-02   0.0000000E+00  -2.4671524E-03  -2.4343202E-02   0.0000000E+00  -2.1039755E-03  -2.4258178E-02   0.0000000E+00  -7.1255611E-03  -2.5990477E-02   0.0000000E+00  -5.9451745E-03  -2.7204966E-02   0.0000000E+00  -4.8036417E-03  -2.7947223E-02   0.0000000E+00  -3.9410479E-03  -2.8271105E-02   0.0000000E+00  -3.2991110E-03  -2.8284905E-02   0.0000000E+00  -2.7853905E-03  -2.9090876E-02   0.0000000E+00  -8.1847636E-03  -3.0741420E-02   0.0000000E+00  -7.0125349E-03  -3.1891786E-02   0.0000000E+00  -5.8732117E-03  -3.2565013E-02   0.0000000E+00  -4.9472782E-03  -3.2816846E-02   0.0000000E+00  -4.1829306E-03  -3.2744046E-02   0.0000000E+00  -3.5421306E-03  -3.4178466E-02   0.0000000E+00  -9.2979735E-03  -3.5879809E-02   0.0000000E+00  -8.0972202E-03  -3.7060000E-02   0.0000000E+00  -6.9256132E-03  -3.7716623E-02   0.0000000E+00  -5.9605371E-03  -3.7921209E-02   0.0000000E+00  -5.1020491E-03  -3.7769597E-02   0.0000000E+00  -4.3502250E-03  -3.9654654E-02   0.0000000E+00  -1.0505795E-02  -4.1525759E-02   0.0000000E+00  -9.2348391E-03  -4.2798325E-02   0.0000000E+00  -8.0120396E-03  -4.3477818E-02   0.0000000E+00  -7.0012161E-03  -4.3641794E-02   0.0000000E+00  -6.0656057E-03  -4.3411613E-02   0.0000000E+00  -5.2033165E-03  -4.5715507E-02   0.0000000E+00  -1.1825380E-02  -4.7803439E-02   0.0000000E+00  -1.0460934E-02  -4.9193680E-02   0.0000000E+00  -9.1703320E-03  -4.9908295E-02   0.0000000E+00  -8.1028193E-03  -5.0034761E-02   0.0000000E+00  -7.0834737E-03  -4.9725905E-02   0.0000000E+00  -6.1044893E-03  -5.2470133E-02   0.0000000E+00  -1.3287858E-02  -5.4793593E-02   0.0000000E+00  -1.1803598E-02  -5.6310110E-02   0.0000000E+00  -1.0435675E-02  -5.7063837E-02   0.0000000E+00  -9.2964098E-03  -5.7159636E-02   0.0000000E+00  -8.1748376E-03  -5.6772504E-02   0.0000000E+00  -7.0654224E-03  -5.9993003E-02   0.0000000E+00  -1.4905634E-02  -6.2564023E-02   0.0000000E+00  -1.3297973E-02  -6.4213529E-02   0.0000000E+00  -1.1843038E-02  -6.5012127E-02   0.0000000E+00  -1.0605495E-02  -6.5081865E-02   0.0000000E+00  -9.3574375E-03  -6.4615637E-02   0.0000000E+00  -8.0996659E-03  -6.8364531E-02   0.0000000E+00  -1.6713146E-02  -7.1192972E-02   0.0000000E+00  -1.4984906E-02  -7.2981149E-02   0.0000000E+00  -1.3421820E-02  -7.3829979E-02   0.0000000E+00  -1.2043733E-02  -7.3875748E-02   0.0000000E+00  -1.0644359E-02  -7.3325969E-02   0.0000000E+00  -9.2233652E-03  -7.7686839E-02   0.0000000E+00  -1.8766642E-02  -8.0779210E-02   0.0000000E+00  -1.6915729E-02  -8.2706288E-02   0.0000000E+00  -1.5190345E-02  -8.3608307E-02   0.0000000E+00  -1.3618187E-02  -8.3626434E-02   0.0000000E+00  -1.2051469E-02  -8.2981959E-02   0.0000000E+00  -1.0464998E-02  -8.8112436E-02   0.0000000E+00  -2.1138603E-02  -9.1453180E-02   0.0000000E+00  -1.9148929E-02  -9.3504272E-02   0.0000000E+00  -1.7158659E-02  -9.4450369E-02   0.0000000E+00  -1.5337654E-02  -9.4424531E-02   0.0000000E+00  -1.3613911E-02  -9.3666889E-02   0.0000000E+00  -1.1889686E-02  -9.9870473E-02   0.0000000E+00  -2.3920981E-02  -1.0338228E-01   0.0000000E+00  -2.1749547E-02  -1.0550456E-01   0.0000000E+00  -1.9345026E-02  -1.0645737E-01   0.0000000E+00  -1.7241620E-02  -1.0635036E-01   0.0000000E+00  -1.5414450E-02  -1.0545220E-01   0.0000000E+00  -1.3615186E-02  -1.1326485E-01   0.0000000E+00  -2.7233969E-02  -1.1674580E-01   0.0000000E+00  -2.4806583E-02  -1.1881622E-01   0.0000000E+00  -2.1828527E-02  -1.1969070E-01   0.0000000E+00  -1.9470785E-02  -1.1944266E-01   0.0000000E+00  -1.7622311E-02  -1.1836674E-01   0.0000000E+00  -1.5825706E-02  -1.2857105E-01   0.0000000E+00  -3.1233869E-02  -1.3163473E-01   0.0000000E+00  -2.8444944E-02  -1.3343698E-01   0.0000000E+00  -2.4764867E-02  -1.3408269E-01   0.0000000E+00  -2.2258513E-02  -1.3362703E-01   0.0000000E+00  -2.0517381E-02  -1.3233060E-01   0.0000000E+00  -1.8779926E-02  -1.4575246E-01   0.0000000E+00  -3.6104728E-02  -1.4785670E-01   0.0000000E+00  -3.2904714E-02  -1.4908710E-01   0.0000000E+00  -2.8459201E-02  -1.4930837E-01   0.0000000E+00  -2.5926735E-02  -1.4856866E-01   0.0000000E+00  -2.4431318E-02  -1.4704978E-01   0.0000000E+00  -2.2723466E-02  -1.6410136E-01   0.0000000E+00  -4.2141207E-02  -1.6466907E-01   0.0000000E+00  -3.8579281E-02  -1.6501620E-01   0.0000000E+00  -3.3468388E-02  -1.6472462E-01   0.0000000E+00  -3.0878816E-02  -1.6365300E-01   0.0000000E+00  -2.9472167E-02  -1.6187979E-01   0.0000000E+00  -2.7845914E-02  -1.8205824E-01   0.0000000E+00  -4.9832318E-02  -1.8081141E-01   0.0000000E+00  -4.6104416E-02  -1.8005691E-01   0.0000000E+00  -4.0586773E-02  -1.7942454E-01   0.0000000E+00  -3.7274804E-02  -1.7802775E-01   0.0000000E+00  -3.5780337E-02  -1.7602481E-01   0.0000000E+00  -3.3983968E-02  -1.9776896E-01   0.0000000E+00  -6.0118210E-02  -1.9492428E-01   0.0000000E+00  -5.6440365E-02  -1.9401494E-01   0.0000000E+00  -4.9636859E-02  -1.9277930E-01   0.0000000E+00  -4.5490704E-02  -1.9093324E-01   0.0000000E+00  -4.3323811E-02  -1.8875849E-01   0.0000000E+00  -4.0990759E-02  -2.0917803E-01   0.0000000E+00  -7.3421814E-02  -2.0624910E-01   0.0000000E+00  -6.9863565E-02  -2.0536427E-01   0.0000000E+00  -6.2543325E-02  -2.0398092E-01   0.0000000E+00  -5.6435451E-02  -2.0197842E-01   0.0000000E+00  -5.2017596E-02  -1.9940238E-01   0.0000000E+00  -4.8707865E-02  -2.1503712E-01   0.0000000E+00  -8.9060247E-02  -2.1294294E-01   0.0000000E+00  -8.5522234E-02  -2.1230125E-01   0.0000000E+00  -7.8748509E-02  -2.1083134E-01   0.0000000E+00  -7.2048821E-02  -2.0925717E-01   0.0000000E+00  -6.4072095E-02  -2.0680334E-01   0.0000000E+00  -5.8171563E-02  -2.1332097E-01   0.0000000E+00  -1.0471559E-01  -2.1406280E-01   0.0000000E+00  -1.0027752E-01  -2.1397372E-01   0.0000000E+00  -9.4738431E-02  -2.1210834E-01   0.0000000E+00  -9.1302544E-02  -2.1116662E-01   0.0000000E+00  -8.1147015E-02  -2.0930226E-01   0.0000000E+00  -7.2402991E-02  -1.8398000E-01   0.0000000E+00  -1.1605017E-01  -2.0174511E-01   0.0000000E+00  -1.1161955E-01  -2.0664231E-01   0.0000000E+00  -1.0841985E-01  -2.0448960E-01   0.0000000E+00  -1.1117935E-01  -2.0387536E-01   0.0000000E+00  -1.0401956E-01  -2.0290928E-01   0.0000000E+00  -9.4069608E-02  -1.2475396E-01   0.0000000E+00  -1.2498195E-01  -1.4516547E-01   0.0000000E+00  -1.2160386E-01  -1.6222525E-01   0.0000000E+00  -1.1877469E-01  -1.7287096E-01   0.0000000E+00  -1.2583698E-01  -1.7757745E-01   0.0000000E+00  -1.2615867E-01  -1.7811373E-01   0.0000000E+00  -1.2067534E-01  -7.4632548E-02   0.0000000E+00  -1.3296740E-01  -8.7839767E-02   0.0000000E+00  -1.2989770E-01  -9.9382631E-02   0.0000000E+00  -1.2199499E-01  -1.0821004E-01   0.0000000E+00  -1.2708266E-01  -1.1357173E-01   0.0000000E+00  -1.2831514E-01  -1.1552062E-01   0.0000000E+00  -1.2451403E-01  -3.9720431E-02   0.0000000E+00  -1.3897341E-01  -4.7017068E-02   0.0000000E+00  -1.3701338E-01  -5.3368978E-02   0.0000000E+00  -1.2319170E-01  -5.8781505E-02   0.0000000E+00  -1.2573493E-01  -6.2569156E-02   0.0000000E+00  -1.2653458E-01  -6.4587973E-02   0.0000000E+00  -1.2353920E-01  -1.6535932E-02   0.0000000E+00  -1.4298829E-01  -1.9142341E-02   0.0000000E+00  -1.4200062E-01  -2.1372292E-02   0.0000000E+00  -1.2423837E-01  -2.3686681E-02   0.0000000E+00  -1.2482132E-01  -2.5729205E-02   0.0000000E+00  -1.2488236E-01  -2.7228383E-02   0.0000000E+00  -1.2170459E-01   1.8324791E-03   0.0000000E+00  -1.4510894E-01   3.0332741E-03   0.0000000E+00  -1.4479983E-01   4.0225876E-03   0.0000000E+00  -1.2566663E-01   4.3665897E-03   0.0000000E+00  -1.2500113E-01   3.9831307E-03   0.0000000E+00  -1.2418757E-01   3.2008290E-03   0.0000000E+00  -1.1997747E-01   2.1382105E-02   0.0000000E+00  -1.4547306E-01   2.5979185E-02   0.0000000E+00  -1.4540306E-01   2.9534673E-02   0.0000000E+00  -1.2688088E-01   3.2063037E-02   0.0000000E+00  -1.2607007E-01   3.3073429E-02   0.0000000E+00  -1.2428502E-01   3.2807384E-02   0.0000000E+00  -1.1850176E-01   4.4543002E-02   0.0000000E+00  -1.4393699E-01   5.2354261E-02   0.0000000E+00  -1.4377533E-01   5.8182389E-02   0.0000000E+00  -1.2652028E-01   6.2452812E-02   0.0000000E+00  -1.2616093E-01   6.4519338E-02   0.0000000E+00  -1.2370661E-01   6.4333260E-02   0.0000000E+00  -1.1686037E-01   7.0286378E-02   0.0000000E+00  -1.4087512E-01   8.1267722E-02   0.0000000E+00  -1.4044701E-01   8.9174345E-02   0.0000000E+00  -1.2449945E-01   9.4875470E-02   0.0000000E+00  -1.2454534E-01   9.7668312E-02   0.0000000E+00  -1.2182730E-01   9.7127341E-02   0.0000000E+00  -1.1448964E-01   9.6068196E-02   0.0000000E+00  -1.3658477E-01   1.1003260E-01   0.0000000E+00  -1.3584176E-01   1.1974309E-01   0.0000000E+00  -1.2101986E-01   1.2669794E-01   0.0000000E+00  -1.2115916E-01   1.2996553E-01   0.0000000E+00  -1.1835820E-01   1.2886551E-01   0.0000000E+00  -1.1095679E-01   1.1944634E-01   0.0000000E+00  -1.3131055E-01   1.3598315E-01   0.0000000E+00  -1.3037793E-01   1.4700881E-01   0.0000000E+00  -1.1631490E-01   1.5484603E-01   0.0000000E+00  -1.1610362E-01   1.5851070E-01   0.0000000E+00  -1.1291263E-01   1.5711598E-01   0.0000000E+00  -1.0607614E-01   1.3862704E-01   0.0000000E+00  -1.2529153E-01   1.5688746E-01   0.0000000E+00  -1.2410066E-01   1.6914782E-01   0.0000000E+00  -1.1075091E-01   1.7712682E-01   0.0000000E+00  -1.0957336E-01   1.8111742E-01   0.0000000E+00  -1.0564925E-01   1.7896368E-01   0.0000000E+00  -9.9981934E-02   1.5283106E-01   0.0000000E+00  -1.1869743E-01   1.7185891E-01   0.0000000E+00  -1.1662120E-01   1.8523309E-01   0.0000000E+00  -1.0430013E-01   1.9264460E-01   0.0000000E+00  -1.0162471E-01   1.9248185E-01   0.0000000E+00  -9.8399512E-02   1.8593515E-01   0.0000000E+00  -9.3513116E-02   1.6338114E-01   0.0000000E+00  -1.1153005E-01   1.8239129E-01   0.0000000E+00  -1.0846160E-01   1.9601049E-01   0.0000000E+00  -9.6921250E-02   1.9951358E-01   0.0000000E+00  -9.4402276E-02   1.9426163E-01   0.0000000E+00  -9.2069484E-02   1.8667173E-01   0.0000000E+00  -8.6890243E-02   1.7283902E-01   0.0000000E+00  -1.0384832E-01   1.9097479E-01   0.0000000E+00  -1.0006540E-01   2.0221797E-01   0.0000000E+00  -8.9257494E-02   2.0036635E-01   0.0000000E+00  -8.7693125E-02   1.9397117E-01   0.0000000E+00  -8.5593693E-02   1.8588962E-01   0.0000000E+00  -8.0412135E-02   1.8313177E-01   0.0000000E+00  -9.5978640E-02   1.9863814E-01   0.0000000E+00  -9.1568090E-02   2.0440815E-01   0.0000000E+00  -8.1517145E-02   2.0010820E-01   0.0000000E+00  -8.0962256E-02   1.9273412E-01   0.0000000E+00  -7.8897581E-02   1.8433543E-01   0.0000000E+00  -7.4429549E-02   1.9573006E-01   0.0000000E+00  -8.8058904E-02   2.0584419E-01   0.0000000E+00  -8.2650155E-02   2.0539747E-01   0.0000000E+00  -7.4078165E-02   1.9951491E-01   0.0000000E+00  -7.4117087E-02   1.9131431E-01   0.0000000E+00  -7.2391845E-02   1.8250860E-01   0.0000000E+00  -6.8962149E-02   2.1316445E-01   0.0000000E+00  -7.9425998E-02   2.1367247E-01   0.0000000E+00  -7.3943883E-02   2.0656879E-01   0.0000000E+00  -6.7251980E-02   1.9898926E-01   0.0000000E+00  -6.7372397E-02   1.8990776E-01   0.0000000E+00  -6.6049613E-02   1.8039909E-01   0.0000000E+00  -6.3161969E-02   2.2909613E-01   0.0000000E+00  -6.8978600E-02   2.2018121E-01   0.0000000E+00  -6.5849051E-02   2.0866950E-01   0.0000000E+00  -6.1148912E-02   1.9862327E-01   0.0000000E+00  -6.1003216E-02   1.8865424E-01   0.0000000E+00  -5.9710871E-02   1.7821735E-01   0.0000000E+00  -5.7189163E-02   2.3509213E-01   0.0000000E+00  -6.0777951E-02   2.2378820E-01   0.0000000E+00  -5.8942396E-02   2.1013500E-01   0.0000000E+00  -5.5096608E-02   1.9824955E-01   0.0000000E+00  -5.4540090E-02   1.8751654E-01   0.0000000E+00  -5.3636890E-02   1.7616956E-01   0.0000000E+00  -5.1142175E-02   2.2486299E-01   0.0000000E+00  -5.2646618E-02   2.1028660E-01   0.0000000E+00  -4.8818283E-02   1.9784164E-01   0.0000000E+00  -4.7749557E-02   1.8649110E-01   0.0000000E+00  -4.7246888E-02   1.7441194E-01   0.0000000E+00  -4.5212485E-02   2.2308689E-01   0.0000000E+00  -4.7096390E-02   2.1019883E-01   0.0000000E+00  -4.3456346E-02   1.9724067E-01   0.0000000E+00  -4.1112151E-02   1.8561113E-01   0.0000000E+00  -4.0768102E-02   1.7301837E-01   0.0000000E+00  -3.9216790E-02   2.0965794E-01   0.0000000E+00  -3.9909627E-02   1.9679937E-01   0.0000000E+00  -3.6327466E-02   1.8519439E-01   0.0000000E+00  -3.5349317E-02   1.7221312E-01   0.0000000E+00  -3.3858318E-02   2.0710047E-01   0.0000000E+00  -3.7217934E-02   1.9718224E-01   0.0000000E+00  -3.4194164E-02   1.8530087E-01   0.0000000E+00  -3.1616267E-02   1.7245112E-01   0.0000000E+00  -2.9934378E-02   1.9588394E-01   0.0000000E+00  -3.3169076E-02   1.8572587E-01   0.0000000E+00  -3.0107766E-02   1.7370509E-01   0.0000000E+00  -2.7954470E-02   1.8459037E-01   0.0000000E+00  -2.9696112E-02   1.7514865E-01   0.0000000E+00  -2.7647179E-02   1.7813189E-01   0.0000000E+00  -2.7195038E-02   1.7374286E-01   0.0000000E+00  -2.7474962E-02  -1.2603960E-03   0.0000000E+00  -1.3850430E-04  -1.2941505E-03   0.0000000E+00  -1.0612620E-04  -1.3131252E-03   0.0000000E+00  -7.9356214E-05  -1.3218495E-03   0.0000000E+00  -5.7189278E-05  -1.3238852E-03   0.0000000E+00  -3.9613999E-05  -1.3220370E-03   0.0000000E+00  -2.6396387E-05  -1.3186005E-03   0.0000000E+00  -1.6505988E-05  -1.3150887E-03   0.0000000E+00  -9.4762127E-06  -1.3125917E-03   0.0000000E+00  -4.2478596E-06  -1.8030540E-03   0.0000000E+00  -1.8542353E-04  -1.8461960E-03   0.0000000E+00  -1.4324543E-04  -1.8684415E-03   0.0000000E+00  -1.0793428E-04  -1.8769675E-03   0.0000000E+00  -7.8023739E-05  -1.8764980E-03   0.0000000E+00  -5.4719516E-05  -1.8712733E-03   0.0000000E+00  -3.6766134E-05  -1.8644021E-03   0.0000000E+00  -2.3387262E-05  -1.8580516E-03   0.0000000E+00  -1.3597060E-05  -1.8536920E-03   0.0000000E+00  -6.1863993E-06  -2.5009196E-03   0.0000000E+00  -2.1543978E-04  -2.5540860E-03   0.0000000E+00  -1.6768136E-04  -2.5794771E-03   0.0000000E+00  -1.2638247E-04  -2.5864795E-03   0.0000000E+00  -9.1911934E-05  -2.5820711E-03   0.0000000E+00  -6.4781234E-05  -2.5720370E-03   0.0000000E+00  -4.3635569E-05  -2.5603836E-03   0.0000000E+00  -2.7975964E-05  -2.5501552E-03   0.0000000E+00  -1.6279464E-05  -2.5432738E-03   0.0000000E+00  -7.4647910E-06  -3.3093253E-03   0.0000000E+00  -2.3110901E-04  -3.3709214E-03   0.0000000E+00  -1.8019110E-04  -3.3976419E-03   0.0000000E+00  -1.3528155E-04  -3.4011572E-03   0.0000000E+00  -9.8394201E-05  -3.3909779E-03   0.0000000E+00  -6.8930305E-05  -3.3743796E-03   0.0000000E+00  -4.6404981E-05  -3.3566095E-03   0.0000000E+00  -2.9581270E-05  -3.3414729E-03   0.0000000E+00  -1.7195947E-05  -3.3314535E-03   0.0000000E+00  -7.8568346E-06  -4.2146547E-03   0.0000000E+00  -2.3587399E-04  -4.2813821E-03   0.0000000E+00  -1.8310353E-04  -4.3061893E-03   0.0000000E+00  -1.3648110E-04  -4.3033836E-03   0.0000000E+00  -9.8890661E-05  -4.2850031E-03   0.0000000E+00  -6.8544599E-05  -4.2598164E-03   0.0000000E+00  -4.5785149E-05  -4.2343736E-03   0.0000000E+00  -2.8828455E-05  -4.2132232E-03   0.0000000E+00  -1.6614968E-05  -4.1993968E-03   0.0000000E+00  -7.5325588E-06  -5.2274629E-03   0.0000000E+00  -2.3397595E-04  -5.2949269E-03   0.0000000E+00  -1.8029391E-04  -5.3134048E-03   0.0000000E+00  -1.3385006E-04  -5.3007370E-03   0.0000000E+00  -9.6035466E-05  -5.2710497E-03   0.0000000E+00  -6.6127621E-05  -5.2348967E-03   0.0000000E+00  -4.3569893E-05  -5.1999241E-03   0.0000000E+00  -2.7178341E-05  -5.1714797E-03   0.0000000E+00  -1.5475614E-05  -5.1530777E-03   0.0000000E+00  -6.9565194E-06  -6.3753859E-03   0.0000000E+00  -2.3178957E-04  -6.4381519E-03   0.0000000E+00  -1.7857157E-04  -6.4453064E-03   0.0000000E+00  -1.3298812E-04  -6.4184661E-03   0.0000000E+00  -9.5149480E-05  -6.3738972E-03   0.0000000E+00  -6.5539294E-05  -6.3239262E-03   0.0000000E+00  -4.3035474E-05  -6.2772622E-03   0.0000000E+00  -2.6808531E-05  -6.2399944E-03   0.0000000E+00  -1.5272864E-05  -6.2161116E-03   0.0000000E+00  -6.8473855E-06  -7.6928250E-03   0.0000000E+00  -2.3837628E-04  -7.7447179E-03   0.0000000E+00  -1.8615615E-04  -7.7349460E-03   0.0000000E+00  -1.4105593E-04  -7.6889880E-03   0.0000000E+00  -1.0252119E-04  -7.6254741E-03   0.0000000E+00  -7.1884337E-05  -7.5583505E-03   0.0000000E+00  -4.8212449E-05  -7.4974494E-03   0.0000000E+00  -3.0692776E-05  -7.4495571E-03   0.0000000E+00  -1.7870991E-05  -7.4191303E-03   0.0000000E+00  -8.1499420E-06  -9.2115263E-03   0.0000000E+00  -2.6687825E-04  -9.2456657E-03   0.0000000E+00  -2.1427080E-04  -9.2129456E-03   0.0000000E+00  -1.6741869E-04  -9.1425059E-03   0.0000000E+00  -1.2594122E-04  -9.0555036E-03   0.0000000E+00  -9.1440073E-05  -8.9675160E-03   0.0000000E+00  -6.3764055E-05  -8.8894796E-03   0.0000000E+00  -4.2221229E-05  -8.8289008E-03   0.0000000E+00  -2.5467809E-05  -8.7906923E-03   0.0000000E+00  -1.1931177E-05  -1.0958002E-02   0.0000000E+00  -3.3523430E-04  -1.0967032E-02   0.0000000E+00  -2.7757837E-04  -1.0905161E-02   0.0000000E+00  -2.2367893E-04  -1.0804729E-02   0.0000000E+00  -1.7402681E-04  -1.0689379E-02   0.0000000E+00  -1.3092571E-04  -1.0576464E-02   0.0000000E+00  -9.4648152E-05  -1.0478077E-02   0.0000000E+00  -6.4954082E-05  -1.0402507E-02   0.0000000E+00  -4.0369679E-05  -1.0355120E-02   0.0000000E+00  -1.9316356E-05  -1.2959521E-02   0.0000000E+00  -4.6128544E-04  -1.2936205E-02   0.0000000E+00  -3.9029081E-04  -1.2838759E-02   0.0000000E+00  -3.2133947E-04  -1.2702649E-02   0.0000000E+00  -2.5559313E-04  -1.2553846E-02   0.0000000E+00  -1.9690444E-04  -1.2411648E-02   0.0000000E+00  -1.4579092E-04  -1.2289421E-02   0.0000000E+00  -1.0219200E-04  -1.2196297E-02   0.0000000E+00  -6.4764710E-05  -1.2138202E-02   0.0000000E+00  -3.1350828E-05  -1.5247645E-02   0.0000000E+00  -6.5914157E-04  -1.5185113E-02   0.0000000E+00  -5.6276063E-04  -1.5045427E-02   0.0000000E+00  -4.6882790E-04  -1.4867580E-02   0.0000000E+00  -3.7816510E-04  -1.4680055E-02   0.0000000E+00  -2.9464404E-04  -1.4503861E-02   0.0000000E+00  -2.2112334E-04  -1.4354013E-02   0.0000000E+00  -1.5688170E-04  -1.4240596E-02   0.0000000E+00  -1.0022413E-04  -1.4170100E-02   0.0000000E+00  -4.8821697E-05  -1.7860746E-02   0.0000000E+00  -9.3625818E-04  -1.7749803E-02   0.0000000E+00  -8.0403558E-04  -1.7561128E-02   0.0000000E+00  -6.7178434E-04  -1.7335204E-02   0.0000000E+00  -5.4520922E-04  -1.7103039E-02   0.0000000E+00  -4.2804793E-04  -1.6887926E-02   0.0000000E+00  -3.2296215E-04  -1.6706398E-02   0.0000000E+00  -2.3055747E-04  -1.6569698E-02   0.0000000E+00  -1.4827609E-04  -1.6485043E-02   0.0000000E+00  -7.2434304E-05  -2.0841541E-02   0.0000000E+00  -1.3107322E-03  -2.0672187E-02   0.0000000E+00  -1.1177800E-03  -2.0425379E-02   0.0000000E+00  -9.3391322E-04  -2.0144358E-02   0.0000000E+00  -7.5787632E-04  -1.9861080E-02   0.0000000E+00  -5.9741718E-04  -1.9601623E-02   0.0000000E+00  -4.5236788E-04  -1.9384168E-02   0.0000000E+00  -3.2347694E-04  -1.9221142E-02   0.0000000E+00  -2.0820380E-04  -1.9120429E-02   0.0000000E+00  -1.0190174E-04  -2.4236498E-02   0.0000000E+00  -1.7873320E-03  -2.3997080E-02   0.0000000E+00  -1.5085076E-03  -2.3681516E-02   0.0000000E+00  -1.2567603E-03  -2.3336485E-02   0.0000000E+00  -1.0161400E-03  -2.2995166E-02   0.0000000E+00  -8.0032629E-04  -2.2685632E-02   0.0000000E+00  -6.0819229E-04  -2.2427820E-02   0.0000000E+00  -4.3610318E-04  -2.2235259E-02   0.0000000E+00  -2.8055639E-04  -2.2116482E-02   0.0000000E+00  -1.3724310E-04  -2.8092967E-02   0.0000000E+00  -2.3525159E-03  -2.7770806E-02   0.0000000E+00  -1.9704672E-03  -2.7375614E-02   0.0000000E+00  -1.6313787E-03  -2.6956353E-02   0.0000000E+00  -1.3169588E-03  -2.6549043E-02   0.0000000E+00  -1.0348676E-03  -2.6183169E-02   0.0000000E+00  -7.8535330E-04  -2.5880229E-02   0.0000000E+00  -5.6412374E-04  -2.5654903E-02   0.0000000E+00  -3.6372908E-04  -2.5516281E-02   0.0000000E+00  -1.7825018E-04  -3.2459382E-02   0.0000000E+00  -2.9825976E-03  -3.2041658E-02   0.0000000E+00  -2.4891363E-03  -3.1555757E-02   0.0000000E+00  -2.0515332E-03  -3.1052569E-02   0.0000000E+00  -1.6547047E-03  -3.0571243E-02   0.0000000E+00  -1.2980871E-03  -3.0142438E-02   0.0000000E+00  -9.8290981E-04  -2.9789140E-02   0.0000000E+00  -7.0424908E-04  -2.9527180E-02   0.0000000E+00  -4.5416169E-04  -2.9366588E-02   0.0000000E+00  -2.2247990E-04  -3.7385523E-02   0.0000000E+00  -3.6687369E-03  -3.6862563E-02   0.0000000E+00  -3.0582605E-03  -3.6274988E-02   0.0000000E+00  -2.5126482E-03  -3.5678349E-02   0.0000000E+00  -2.0223849E-03  -3.5114624E-02   0.0000000E+00  -1.5827102E-03  -3.4615714E-02   0.0000000E+00  -1.1951192E-03  -3.4206424E-02   0.0000000E+00  -8.5306383E-04  -3.3903673E-02   0.0000000E+00  -5.4887793E-04  -3.3718385E-02   0.0000000E+00  -2.6812661E-04  -4.2924482E-02   0.0000000E+00  -4.3995692E-03  -4.2289101E-02   0.0000000E+00  -3.6675448E-03  -4.1590229E-02   0.0000000E+00  -3.0049831E-03  -4.0889658E-02   0.0000000E+00  -2.4091692E-03  -4.0234994E-02   0.0000000E+00  -1.8801305E-03  -3.9658856E-02   0.0000000E+00  -1.4166477E-03  -3.9187104E-02   0.0000000E+00  -1.0072991E-03  -3.8838722E-02   0.0000000E+00  -6.4527080E-04  -3.8625512E-02   0.0000000E+00  -3.1442652E-04  -4.9132459E-02   0.0000000E+00  -5.1704124E-03  -4.8377849E-02   0.0000000E+00  -4.3072714E-03  -4.7559328E-02   0.0000000E+00  -3.5206696E-03  -4.6744943E-02   0.0000000E+00  -2.8110428E-03  -4.5989040E-02   0.0000000E+00  -2.1841973E-03  -4.5326840E-02   0.0000000E+00  -1.6402312E-03  -4.4786077E-02   0.0000000E+00  -1.1645394E-03  -4.4386175E-02   0.0000000E+00  -7.4292708E-04  -4.4141296E-02   0.0000000E+00  -3.6151393E-04  -5.6068800E-02   0.0000000E+00  -5.9881634E-03  -5.5188142E-02   0.0000000E+00  -4.9826582E-03  -5.4240249E-02   0.0000000E+00  -4.0619555E-03  -5.3301591E-02   0.0000000E+00  -3.2317201E-03  -5.2432291E-02   0.0000000E+00  -2.5002242E-03  -5.1673036E-02   0.0000000E+00  -1.8700062E-03  -5.1054213E-02   0.0000000E+00  -1.3253575E-03  -5.0596032E-02   0.0000000E+00  -8.4344554E-04  -5.0314970E-02   0.0000000E+00  -4.1015132E-04  -6.3795321E-02   0.0000000E+00  -6.8649445E-03  -6.2778957E-02   0.0000000E+00  -5.7044956E-03  -6.1689191E-02   0.0000000E+00  -4.6409001E-03  -6.0612429E-02   0.0000000E+00  -3.6837065E-03  -5.9616283E-02   0.0000000E+00  -2.8418226E-03  -5.8747210E-02   0.0000000E+00  -2.1199747E-03  -5.8038678E-02   0.0000000E+00  -1.4993293E-03  -5.7513915E-02   0.0000000E+00  -9.5370732E-04  -5.7191264E-02   0.0000000E+00  -4.6392041E-04  -7.2379097E-02   0.0000000E+00  -7.8220256E-03  -7.1212523E-02   0.0000000E+00  -6.5005352E-03  -6.9964230E-02   0.0000000E+00  -5.2890992E-03  -6.8732612E-02   0.0000000E+00  -4.1984711E-03  -6.7592874E-02   0.0000000E+00  -3.2403057E-03  -6.6598780E-02   0.0000000E+00  -2.4182100E-03  -6.5787159E-02   0.0000000E+00  -1.7107694E-03  -6.5185726E-02   0.0000000E+00  -1.0896943E-03  -6.4814828E-02   0.0000000E+00  -5.2868074E-04  -8.1893206E-02   0.0000000E+00  -8.9063905E-03  -8.0557518E-02   0.0000000E+00  -7.4276058E-03  -7.9130270E-02   0.0000000E+00  -6.0676485E-03  -7.7723548E-02   0.0000000E+00  -4.8365216E-03  -7.6419815E-02   0.0000000E+00  -3.7523350E-03  -7.5283416E-02   0.0000000E+00  -2.8115918E-03  -7.4353516E-02   0.0000000E+00  -1.9977109E-03  -7.3662765E-02   0.0000000E+00  -1.2784300E-03  -7.3236145E-02   0.0000000E+00  -6.2175264E-04  -9.2414498E-02   0.0000000E+00  -1.0203722E-02  -9.0887733E-02   0.0000000E+00  -8.5828090E-03  -8.9259036E-02   0.0000000E+00  -7.0751263E-03  -8.7654583E-02   0.0000000E+00  -5.6922804E-03  -8.6166844E-02   0.0000000E+00  -4.4565299E-03  -8.4865913E-02   0.0000000E+00  -3.3721346E-03  -8.3800815E-02   0.0000000E+00  -2.4154901E-03  -8.3007976E-02   0.0000000E+00  -1.5579017E-03  -8.2516961E-02   0.0000000E+00  -7.6163065E-04  -1.0401189E-01   0.0000000E+00  -1.1849610E-02  -1.0227134E-01   0.0000000E+00  -1.0112155E-02  -1.0042163E-01   0.0000000E+00  -8.4498674E-03  -9.8598219E-02   0.0000000E+00  -6.8919822E-03  -9.6905246E-02   0.0000000E+00  -5.4663946E-03  -9.5419295E-02   0.0000000E+00  -4.1843229E-03  -9.4198406E-02   0.0000000E+00  -3.0336678E-03  -9.3289711E-02   0.0000000E+00  -1.9735543E-03  -9.2725977E-02   0.0000000E+00  -9.7131793E-04  -1.1671587E-01   0.0000000E+00  -1.4034550E-02  -1.1474831E-01   0.0000000E+00  -1.2196501E-02  -1.1266323E-01   0.0000000E+00  -1.0363230E-02  -1.1060647E-01   0.0000000E+00  -8.5828332E-03  -1.0869013E-01   0.0000000E+00  -6.9103208E-03  -1.0700282E-01   0.0000000E+00  -5.3610182E-03  -1.0561115E-01   0.0000000E+00  -3.9255526E-03  -1.0457011E-01   0.0000000E+00  -2.5751386E-03  -1.0392462E-01   0.0000000E+00  -1.2774466E-03  -1.3045700E-01   0.0000000E+00  -1.6962780E-02  -1.2826486E-01   0.0000000E+00  -1.5019345E-02  -1.2594418E-01   0.0000000E+00  -1.2995108E-02  -1.2364747E-01   0.0000000E+00  -1.0940606E-02  -1.2150022E-01   0.0000000E+00  -8.9340378E-03  -1.1960032E-01   0.0000000E+00  -7.0169014E-03  -1.1802571E-01   0.0000000E+00  -5.1900558E-03  -1.1684235E-01   0.0000000E+00  -3.4287742E-03  -1.1610582E-01   0.0000000E+00  -1.7057866E-03  -1.4495729E-01   0.0000000E+00  -2.0837909E-02  -1.4255990E-01   0.0000000E+00  -1.8754074E-02  -1.4003257E-01   0.0000000E+00  -1.6486753E-02  -1.3751645E-01   0.0000000E+00  -1.4095861E-02  -1.3514294E-01   0.0000000E+00  -1.1667166E-02  -1.3302787E-01   0.0000000E+00  -9.2733642E-03  -1.3126375E-01   0.0000000E+00  -6.9243140E-03  -1.2993036E-01   0.0000000E+00  -4.6049352E-03  -1.2909620E-01   0.0000000E+00  -2.2993684E-03  -1.5961118E-01   0.0000000E+00  -2.5848808E-02  -1.5706545E-01   0.0000000E+00  -2.3507750E-02  -1.5438180E-01   0.0000000E+00  -2.0872170E-02  -1.5168394E-01   0.0000000E+00  -1.8051425E-02  -1.4911668E-01   0.0000000E+00  -1.5104470E-02  -1.4680760E-01   0.0000000E+00  -1.2121203E-02  -1.4486322E-01   0.0000000E+00  -9.1201607E-03  -1.4338869E-01   0.0000000E+00  -6.1118305E-03  -1.4246446E-01   0.0000000E+00  -3.0696120E-03  -1.7361020E-01   0.0000000E+00  -3.1796232E-02  -1.7090499E-01   0.0000000E+00  -2.9173337E-02  -1.6807704E-01   0.0000000E+00  -2.6193161E-02  -1.6523656E-01   0.0000000E+00  -2.2898326E-02  -1.6252033E-01   0.0000000E+00  -1.9354578E-02  -1.6006099E-01   0.0000000E+00  -1.5671076E-02  -1.5797362E-01   0.0000000E+00  -1.1884344E-02  -1.5638289E-01   0.0000000E+00  -8.0226529E-03  -1.5538383E-01   0.0000000E+00  -4.0558600E-03  -1.8607990E-01   0.0000000E+00  -3.8420640E-02  -1.8317543E-01   0.0000000E+00  -3.5548218E-02  -1.8023053E-01   0.0000000E+00  -3.2209475E-02  -1.7731638E-01   0.0000000E+00  -2.8425649E-02  -1.7454536E-01   0.0000000E+00  -2.4329834E-02  -1.7200989E-01   0.0000000E+00  -1.9959658E-02  -1.6982952E-01   0.0000000E+00  -1.5275316E-02  -1.6814744E-01   0.0000000E+00  -1.0357701E-02  -1.6709957E-01   0.0000000E+00  -5.2562873E-03  -1.9639327E-01   0.0000000E+00  -4.5563772E-02  -1.9336127E-01   0.0000000E+00  -4.2333115E-02  -1.9039832E-01   0.0000000E+00  -3.8600005E-02  -1.8750717E-01   0.0000000E+00  -3.4358993E-02  -1.8470681E-01   0.0000000E+00  -2.9587554E-02  -1.8209951E-01   0.0000000E+00  -2.4376130E-02  -1.7986432E-01   0.0000000E+00  -1.8707950E-02  -1.7815676E-01   0.0000000E+00  -1.2742009E-02  -1.7711709E-01   0.0000000E+00  -6.4707161E-03  -2.0382971E-01   0.0000000E+00  -5.3832043E-02  -2.0078111E-01   0.0000000E+00  -4.9924042E-02  -1.9784348E-01   0.0000000E+00  -4.5778546E-02  -1.9499949E-01   0.0000000E+00  -4.0914346E-02  -1.9229253E-01   0.0000000E+00  -3.5373475E-02  -1.8976805E-01   0.0000000E+00  -2.9347118E-02  -1.8756628E-01   0.0000000E+00  -2.2785852E-02  -1.8590648E-01   0.0000000E+00  -1.5638096E-02  -1.8493015E-01   0.0000000E+00  -7.9563214E-03  -2.0653203E-01   0.0000000E+00  -6.6229887E-02  -2.0356941E-01   0.0000000E+00  -6.1314043E-02  -2.0082258E-01   0.0000000E+00  -5.6457631E-02  -1.9823387E-01   0.0000000E+00  -5.0922174E-02  -1.9574530E-01   0.0000000E+00  -4.4604052E-02  -1.9346312E-01   0.0000000E+00  -3.7567653E-02  -1.9147907E-01   0.0000000E+00  -2.9594097E-02  -1.8998793E-01   0.0000000E+00  -2.0642012E-02  -1.8905456E-01   0.0000000E+00  -1.0629456E-02  -2.0084243E-01   0.0000000E+00  -8.6108185E-02  -1.9843309E-01   0.0000000E+00  -7.9548411E-02  -1.9655079E-01   0.0000000E+00  -7.2927110E-02  -1.9507450E-01   0.0000000E+00  -6.5597191E-02  -1.9341934E-01   0.0000000E+00  -5.7434332E-02  -1.9156872E-01   0.0000000E+00  -4.8320435E-02  -1.8982866E-01   0.0000000E+00  -3.7995812E-02  -1.8845433E-01   0.0000000E+00  -2.6394019E-02  -1.8765095E-01   0.0000000E+00  -1.3593633E-02  -1.7677957E-01   0.0000000E+00  -1.1227263E-01  -1.7468604E-01   0.0000000E+00  -1.0471793E-01  -1.7257631E-01   0.0000000E+00  -9.5574148E-02  -1.7019549E-01   0.0000000E+00  -8.4486112E-02  -1.6746691E-01   0.0000000E+00  -7.2515041E-02  -1.6468433E-01   0.0000000E+00  -6.0005840E-02  -1.6213441E-01   0.0000000E+00  -4.6695095E-02  -1.6010430E-01   0.0000000E+00  -3.2233682E-02  -1.5878543E-01   0.0000000E+00  -1.6526513E-02  -1.1535486E-01   0.0000000E+00  -1.1753047E-01  -1.1435210E-01   0.0000000E+00  -1.1054452E-01  -1.1291981E-01   0.0000000E+00  -1.0131799E-01  -1.1120655E-01   0.0000000E+00  -8.9926414E-02  -1.0933528E-01   0.0000000E+00  -7.7626504E-02  -1.0743982E-01   0.0000000E+00  -6.4612269E-02  -1.0567851E-01   0.0000000E+00  -5.0532147E-02  -1.0423183E-01   0.0000000E+00  -3.4999464E-02  -1.0327593E-01   0.0000000E+00  -1.7978262E-02  -6.5336235E-02   0.0000000E+00  -1.1789528E-01  -6.5464981E-02   0.0000000E+00  -1.1199997E-01  -6.5187350E-02   0.0000000E+00  -1.0353893E-01  -6.4606033E-02   0.0000000E+00  -9.2613421E-02  -6.3810199E-02   0.0000000E+00  -8.0496006E-02  -6.2892750E-02   0.0000000E+00  -6.7392282E-02  -6.1963692E-02   0.0000000E+00  -5.2951358E-02  -6.1155457E-02   0.0000000E+00  -3.6796015E-02  -6.0602196E-02   0.0000000E+00  -1.8937385E-02  -2.8190069E-02   0.0000000E+00  -1.1677477E-01  -2.8834233E-02   0.0000000E+00  -1.1171579E-01  -2.9230276E-02   0.0000000E+00  -1.0391507E-01  -2.9415483E-02   0.0000000E+00  -9.3455821E-02  -2.9419014E-02   0.0000000E+00  -8.1621051E-02  -2.9274546E-02   0.0000000E+00  -6.8624780E-02  -2.9033216E-02   0.0000000E+00  -5.4110531E-02  -2.8770134E-02   0.0000000E+00  -3.7699919E-02  -2.8568411E-02   0.0000000E+00  -1.9433251E-02   2.3185124E-03   0.0000000E+00  -1.1515395E-01   1.4469044E-03   0.0000000E+00  -1.1049898E-01   6.4160692E-04   0.0000000E+00  -1.0308457E-01  -6.7888504E-05   0.0000000E+00  -9.2952862E-02  -6.5352552E-04   0.0000000E+00  -8.1387714E-02  -1.0954954E-03   0.0000000E+00  -6.8599597E-02  -1.3924972E-03   0.0000000E+00  -5.4214410E-02  -1.5671774E-03   0.0000000E+00  -3.7840534E-02  -1.6525817E-03   0.0000000E+00  -1.9527901E-02   3.1884216E-02   0.0000000E+00  -1.1340934E-01   3.0737270E-02   0.0000000E+00  -1.0875537E-01   2.9547231E-02   0.0000000E+00  -1.0144819E-01   2.8395124E-02   0.0000000E+00  -9.1484293E-02   2.7342089E-02   0.0000000E+00  -8.0139078E-02   2.6438354E-02   0.0000000E+00  -6.7607559E-02   2.5717700E-02   0.0000000E+00  -5.3489417E-02   2.5196886E-02   0.0000000E+00  -3.7372243E-02   2.4882564E-02   0.0000000E+00  -1.9299483E-02   6.3022636E-02   0.0000000E+00  -1.1138492E-01   6.1360549E-02   0.0000000E+00  -1.0652292E-01   5.9658561E-02   0.0000000E+00  -9.9151976E-02   5.8027562E-02   0.0000000E+00  -8.9261904E-02   5.6532450E-02   0.0000000E+00  -7.8112267E-02   5.5225212E-02   0.0000000E+00  -6.5876618E-02   5.4149725E-02   0.0000000E+00  -5.2128725E-02   5.3344436E-02   0.0000000E+00  -3.6434405E-02   5.2843735E-02   0.0000000E+00  -1.8820746E-02   9.5085271E-02   0.0000000E+00  -1.0871136E-01   9.2658281E-02   0.0000000E+00  -1.0360850E-01   9.0291224E-02   0.0000000E+00  -9.6143961E-02   8.8107333E-02   0.0000000E+00  -8.6332440E-02   8.6151458E-02   0.0000000E+00  -7.5410567E-02   8.4456116E-02   0.0000000E+00  -6.3531265E-02   8.3058216E-02   0.0000000E+00  -5.0250594E-02   8.2003489E-02   0.0000000E+00  -3.5118252E-02   8.1342593E-02   0.0000000E+00  -1.8141281E-02   1.2590598E-01   0.0000000E+00  -1.0504536E-01   1.2258457E-01   0.0000000E+00  -9.9791758E-02   1.1947232E-01   0.0000000E+00  -9.2314281E-02   1.1669321E-01   0.0000000E+00  -8.2668051E-02   1.1426150E-01   0.0000000E+00  -7.2058886E-02   1.1218165E-01   0.0000000E+00  -6.0624529E-02   1.1047614E-01   0.0000000E+00  -4.7915675E-02   1.0919057E-01   0.0000000E+00  -3.3475202E-02   1.0838435E-01   0.0000000E+00  -1.7290425E-02   1.5325625E-01   0.0000000E+00  -1.0022184E-01   1.4906946E-01   0.0000000E+00  -9.4963618E-02   1.4523117E-01   0.0000000E+00  -8.7607764E-02   1.4186101E-01   0.0000000E+00  -7.8253798E-02   1.3894708E-01   0.0000000E+00  -6.8070143E-02   1.3647191E-01   0.0000000E+00  -5.7186548E-02   1.3445011E-01   0.0000000E+00  -4.5160886E-02   1.3292958E-01   0.0000000E+00  -3.1538006E-02   1.3197717E-01   0.0000000E+00  -1.6287105E-02   1.7324126E-01   0.0000000E+00  -9.4375975E-02   1.6738990E-01   0.0000000E+00  -8.9203745E-02   1.6219985E-01   0.0000000E+00  -8.2068942E-02   1.5769954E-01   0.0000000E+00  -7.3127382E-02   1.5383536E-01   0.0000000E+00  -6.3493654E-02   1.5057658E-01   0.0000000E+00  -5.3281318E-02   1.4795567E-01   0.0000000E+00  -4.2054571E-02   1.4602935E-01   0.0000000E+00  -2.9362218E-02   1.4485347E-01   0.0000000E+00  -1.5161960E-02   1.7864485E-01   0.0000000E+00  -8.8088490E-02   1.7200796E-01   0.0000000E+00  -8.2871690E-02   1.6620567E-01   0.0000000E+00  -7.5961508E-02   1.6122304E-01   0.0000000E+00  -6.7511909E-02   1.5698770E-01   0.0000000E+00  -5.8505278E-02   1.5346532E-01   0.0000000E+00  -4.9027424E-02   1.5067157E-01   0.0000000E+00  -3.8654227E-02   1.4864798E-01   0.0000000E+00  -2.6969479E-02   1.4741656E-01   0.0000000E+00  -1.3918054E-02   1.7912681E-01   0.0000000E+00  -8.1729114E-02   1.7228602E-01   0.0000000E+00  -7.6489575E-02   1.6632703E-01   0.0000000E+00  -6.9819592E-02   1.6118881E-01   0.0000000E+00  -6.1858840E-02   1.5681656E-01   0.0000000E+00  -5.3440224E-02   1.5318771E-01   0.0000000E+00  -4.4644564E-02   1.5031669E-01   0.0000000E+00  -3.5110127E-02   1.4824571E-01   0.0000000E+00  -2.4455462E-02   1.4699626E-01   0.0000000E+00  -1.2619841E-02   1.7810391E-01   0.0000000E+00  -7.5704575E-02   1.7107819E-01   0.0000000E+00  -7.0560507E-02   1.6493402E-01   0.0000000E+00  -6.4097978E-02   1.5965258E-01   0.0000000E+00  -5.6547586E-02   1.5517364E-01   0.0000000E+00  -4.8649747E-02   1.5145580E-01   0.0000000E+00  -4.0494081E-02   1.4851597E-01   0.0000000E+00  -3.1742468E-02   1.4637852E-01   0.0000000E+00  -2.2039535E-02   1.4507948E-01   0.0000000E+00  -1.1337210E-02   1.7636684E-01   0.0000000E+00  -6.9942996E-02   1.6907971E-01   0.0000000E+00  -6.5201879E-02   1.6263635E-01   0.0000000E+00  -5.9130173E-02   1.5719086E-01   0.0000000E+00  -5.2081350E-02   1.5262932E-01   0.0000000E+00  -4.4638194E-02   1.4884856E-01   0.0000000E+00  -3.6973007E-02   1.4580704E-01   0.0000000E+00  -2.8796062E-02   1.4357139E-01   0.0000000E+00  -1.9881735E-02   1.4220612E-01   0.0000000E+00  -1.0192420E-02   1.7410953E-01   0.0000000E+00  -6.4704575E-02   1.6661544E-01   0.0000000E+00  -6.0084995E-02   1.5992370E-01   0.0000000E+00  -5.4467387E-02   1.5426166E-01   0.0000000E+00  -4.7894560E-02   1.4955789E-01   0.0000000E+00  -4.0846314E-02   1.4566804E-01   0.0000000E+00  -3.3624429E-02   1.4255606E-01   0.0000000E+00  -2.6067359E-02   1.4025086E-01   0.0000000E+00  -1.7928349E-02   1.3882062E-01   0.0000000E+00  -9.1633499E-03   1.7157136E-01   0.0000000E+00  -5.9638161E-02   1.6358280E-01   0.0000000E+00  -5.5235963E-02   1.5663290E-01   0.0000000E+00  -5.0075583E-02   1.5072976E-01   0.0000000E+00  -4.3983243E-02   1.4582925E-01   0.0000000E+00  -3.7420243E-02   1.4181775E-01   0.0000000E+00  -3.0628646E-02   1.3861807E-01   0.0000000E+00  -2.3585565E-02   1.3624458E-01   0.0000000E+00  -1.6111832E-02   1.3477091E-01   0.0000000E+00  -8.2008326E-03   1.6876477E-01   0.0000000E+00  -5.4339398E-02   1.6019307E-01   0.0000000E+00  -5.0469257E-02   1.5285271E-01   0.0000000E+00  -4.5832422E-02   1.4661987E-01   0.0000000E+00  -4.0368665E-02   1.4154910E-01   0.0000000E+00  -3.4215417E-02   1.3741809E-01   0.0000000E+00  -2.7866384E-02   1.3413687E-01   0.0000000E+00  -2.1275219E-02   1.3171077E-01   0.0000000E+00  -1.4429746E-02   1.3020213E-01   0.0000000E+00  -7.3032356E-03   1.6575898E-01   0.0000000E+00  -4.8561629E-02   1.5671961E-01   0.0000000E+00  -4.5643717E-02   1.4881568E-01   0.0000000E+00  -4.1603293E-02   1.4230849E-01   0.0000000E+00  -3.6890998E-02   1.3692342E-01   0.0000000E+00  -3.1399008E-02   1.3264383E-01   0.0000000E+00  -2.5432669E-02   1.2931199E-01   0.0000000E+00  -1.9274563E-02   1.2685077E-01   0.0000000E+00  -1.2972719E-02   1.2533332E-01   0.0000000E+00  -6.5386952E-03   1.6305871E-01   0.0000000E+00  -4.2790473E-02   1.5321060E-01   0.0000000E+00  -4.0242724E-02   1.4492886E-01   0.0000000E+00  -3.7308294E-02   1.3792565E-01   0.0000000E+00  -3.3276580E-02   1.3231532E-01   0.0000000E+00  -2.8588919E-02   1.2780099E-01   0.0000000E+00  -2.3204926E-02   1.2434879E-01   0.0000000E+00  -1.7532475E-02   1.2186398E-01   0.0000000E+00  -1.1714099E-02   1.2034159E-01   0.0000000E+00  -5.8633746E-03   1.6086493E-01   0.0000000E+00  -3.7059627E-02   1.5016912E-01   0.0000000E+00  -3.4786105E-02   1.4122221E-01   0.0000000E+00  -3.2454941E-02   1.3386515E-01   0.0000000E+00  -2.9543299E-02   1.2783548E-01   0.0000000E+00  -2.5578761E-02   1.2315098E-01   0.0000000E+00  -2.0995712E-02   1.1954720E-01   0.0000000E+00  -1.5866026E-02   1.1700105E-01   0.0000000E+00  -1.0623306E-02   1.1544812E-01   0.0000000E+00  -5.3189658E-03   1.5935934E-01   0.0000000E+00  -3.1686712E-02   1.4781292E-01   0.0000000E+00  -2.9547445E-02   1.3808841E-01   0.0000000E+00  -2.7452150E-02   1.3017999E-01   0.0000000E+00  -2.5268067E-02   1.2383553E-01   0.0000000E+00  -2.2426317E-02   1.1880962E-01   0.0000000E+00  -1.8553620E-02   1.1510138E-01   0.0000000E+00  -1.4204802E-02   1.1247404E-01   0.0000000E+00  -9.5087076E-03   1.1089507E-01   0.0000000E+00  -4.7923368E-03   1.5875985E-01   0.0000000E+00  -2.7361438E-02   1.4630724E-01   0.0000000E+00  -2.4903094E-02   1.3577639E-01   0.0000000E+00  -2.2771098E-02   1.2719670E-01   0.0000000E+00  -2.0828929E-02   1.2035505E-01   0.0000000E+00  -1.8728456E-02   1.1509119E-01   0.0000000E+00  -1.5969031E-02   1.1111929E-01   0.0000000E+00  -1.2303373E-02   1.0840809E-01   0.0000000E+00  -8.3195604E-03   1.0681699E-01   0.0000000E+00  -4.2203688E-03   1.6003653E-01   0.0000000E+00  -2.5180249E-02   1.4614159E-01   0.0000000E+00  -2.1731876E-02   1.3442060E-01   0.0000000E+00  -1.8966235E-02   1.2503673E-01   0.0000000E+00  -1.6795710E-02   1.1766642E-01   0.0000000E+00  -1.4936558E-02   1.1196742E-01   0.0000000E+00  -1.2885622E-02   1.0777161E-01   0.0000000E+00  -1.0228486E-02   1.0494763E-01   0.0000000E+00  -7.0071532E-03   1.0325909E-01   0.0000000E+00  -3.5358120E-03   1.6242358E-01   0.0000000E+00  -2.4602663E-02   1.4855337E-01   0.0000000E+00  -2.1219917E-02   1.3487057E-01   0.0000000E+00  -1.7178373E-02   1.2400433E-01   0.0000000E+00  -1.3983094E-02   1.1583725E-01   0.0000000E+00  -1.1681828E-02   1.0970628E-01   0.0000000E+00  -9.9067511E-03   1.0514901E-01   0.0000000E+00  -7.9811253E-03   1.0204159E-01   0.0000000E+00  -5.5623320E-03   1.0030527E-01   0.0000000E+00  -2.8615955E-03   1.6332504E-01   0.0000000E+00  -2.4595980E-02   1.5134601E-01   0.0000000E+00  -2.1649782E-02   1.3814180E-01   0.0000000E+00  -1.8155701E-02   1.2561733E-01   0.0000000E+00  -1.4012647E-02   1.1558151E-01   0.0000000E+00  -1.0287630E-02   1.0848580E-01   0.0000000E+00  -7.7670719E-03   1.0343783E-01   0.0000000E+00  -6.0544559E-03   9.9996559E-02   0.0000000E+00  -4.3867351E-03   9.7976454E-02   0.0000000E+00  -2.3184428E-03   1.5999641E-01   0.0000000E+00  -2.3240773E-02   1.5084951E-01   0.0000000E+00  -2.0970598E-02   1.4052914E-01   0.0000000E+00  -1.8894412E-02   1.2957628E-01   0.0000000E+00  -1.6128793E-02   1.1885900E-01   0.0000000E+00  -1.2496502E-02   1.1000007E-01   0.0000000E+00  -8.6920774E-03   1.0346721E-01   0.0000000E+00  -5.7508987E-03   9.9187396E-02   0.0000000E+00  -3.8557737E-03   9.6782394E-02   0.0000000E+00  -2.1298672E-03   1.4597005E-01   0.0000000E+00  -1.9034505E-02   1.3838908E-01   0.0000000E+00  -1.7530486E-02   1.2979066E-01   0.0000000E+00  -1.5777405E-02   1.2150021E-01   0.0000000E+00  -1.4181063E-02   1.1382475E-01   0.0000000E+00  -1.1855164E-02   1.0728028E-01   0.0000000E+00  -9.0733618E-03   1.0207649E-01   0.0000000E+00  -6.1366074E-03   9.8837532E-02   0.0000000E+00  -3.2401748E-03   1.2567338E-01   0.0000000E+00  -1.3805244E-02   1.1913139E-01   0.0000000E+00  -1.2784755E-02   1.1252360E-01   0.0000000E+00  -1.1195526E-02   1.0708711E-01   0.0000000E+00  -9.5163072E-03   1.0298185E-01   0.0000000E+00  -6.9501735E-03   1.0092924E-01   0.0000000E+00  -3.5689273E-03   1.0844250E-01   0.0000000E+00  -9.5243948E-03   1.0347320E-01   0.0000000E+00  -7.8366445E-03   9.9258654E-02   0.0000000E+00  -5.8492012E-03   9.6638091E-02   0.0000000E+00  -3.2465213E-03  -1.3116901E-03   0.0000000E+00  -1.1151768E-10  -1.3125914E-03   0.0000000E+00   4.2477118E-06  -1.3150888E-03   0.0000000E+00   9.4762254E-06  -1.3186014E-03   0.0000000E+00   1.6505966E-05  -1.3220373E-03   0.0000000E+00   2.6396316E-05  -1.3238858E-03   0.0000000E+00   3.9613875E-05  -1.3218487E-03   0.0000000E+00   5.7189267E-05  -1.3131261E-03   0.0000000E+00   7.9356345E-05  -1.8521466E-03   0.0000000E+00   1.1019297E-10  -1.8536919E-03   0.0000000E+00   6.1861947E-06  -1.8580515E-03   0.0000000E+00   1.3596958E-05  -1.8644035E-03   0.0000000E+00   2.3387198E-05  -1.8712742E-03   0.0000000E+00   3.6766000E-05  -1.8764971E-03   0.0000000E+00   5.4719472E-05  -1.8769689E-03   0.0000000E+00   7.8023673E-05  -1.8684404E-03   0.0000000E+00   1.0793425E-04  -2.5408587E-03   0.0000000E+00   2.8788008E-10  -2.5432736E-03   0.0000000E+00   7.4644222E-06  -2.5501549E-03   0.0000000E+00   1.6279555E-05  -2.5603832E-03   0.0000000E+00   2.7975690E-05  -2.5720375E-03   0.0000000E+00   4.3635475E-05  -2.5820700E-03   0.0000000E+00   6.4781030E-05  -2.5864807E-03   0.0000000E+00   9.1911730E-05  -2.5794771E-03   0.0000000E+00   1.2638242E-04  -3.3279555E-03   0.0000000E+00  -1.7967539E-10  -3.3314535E-03   0.0000000E+00   7.8562816E-06  -3.3414725E-03   0.0000000E+00   1.7195905E-05  -3.3566102E-03   0.0000000E+00   2.9581124E-05  -3.3743791E-03   0.0000000E+00   4.6404926E-05  -3.3909779E-03   0.0000000E+00   6.8930305E-05  -3.4011567E-03   0.0000000E+00   9.8394026E-05  -3.3976419E-03   0.0000000E+00   1.3528136E-04  -4.1945972E-03   0.0000000E+00   1.8589455E-10  -4.1993973E-03   0.0000000E+00   7.5326438E-06  -4.2132232E-03   0.0000000E+00   1.6614362E-05  -4.2343726E-03   0.0000000E+00   2.8828255E-05  -4.2598164E-03   0.0000000E+00   4.5785058E-05  -4.2850026E-03   0.0000000E+00   6.8544548E-05  -4.3033836E-03   0.0000000E+00   9.8890501E-05  -4.3061906E-03   0.0000000E+00   1.3648071E-04  -5.1467246E-03   0.0000000E+00  -1.4601660E-11  -5.1530777E-03   0.0000000E+00   6.9565199E-06  -5.1714792E-03   0.0000000E+00   1.5474934E-05  -5.1999241E-03   0.0000000E+00   2.7177985E-05  -5.2348967E-03   0.0000000E+00   4.3569813E-05  -5.2710511E-03   0.0000000E+00   6.6127555E-05  -5.3007370E-03   0.0000000E+00   9.6035597E-05  -5.3134048E-03   0.0000000E+00   1.3385020E-04  -6.2079029E-03   0.0000000E+00  -1.8535243E-10  -6.2161107E-03   0.0000000E+00   6.8474474E-06  -6.2399944E-03   0.0000000E+00   1.5272877E-05  -6.2772613E-03   0.0000000E+00   2.6808229E-05  -6.3239266E-03   0.0000000E+00   4.3035208E-05  -6.3738972E-03   0.0000000E+00   6.5539098E-05  -6.4184666E-03   0.0000000E+00   9.5149393E-05  -6.4453073E-03   0.0000000E+00   1.3298749E-04  -7.4087139E-03   0.0000000E+00   1.9405376E-10  -7.4191322E-03   0.0000000E+00   8.1498292E-06  -7.4495580E-03   0.0000000E+00   1.7870636E-05  -7.4974494E-03   0.0000000E+00   3.0692772E-05  -7.5583518E-03   0.0000000E+00   4.8212049E-05  -7.6254751E-03   0.0000000E+00   7.1884395E-05  -7.6889857E-03   0.0000000E+00   1.0252080E-04  -7.7349464E-03   0.0000000E+00   1.4105582E-04  -8.7776529E-03   0.0000000E+00   4.2116122E-10  -8.7906905E-03   0.0000000E+00   1.1930133E-05  -8.8288989E-03   0.0000000E+00   2.5466989E-05  -8.8894796E-03   0.0000000E+00   4.2221080E-05  -8.9675160E-03   0.0000000E+00   6.3763095E-05  -9.0555027E-03   0.0000000E+00   9.1440161E-05  -9.1425069E-03   0.0000000E+00   1.2594077E-04  -9.2129465E-03   0.0000000E+00   1.6741842E-04  -1.0338992E-02   0.0000000E+00   3.0825376E-10  -1.0355121E-02   0.0000000E+00   1.9317273E-05  -1.0402507E-02   0.0000000E+00   4.0369450E-05  -1.0478077E-02   0.0000000E+00   6.4953871E-05  -1.0576464E-02   0.0000000E+00   9.4647810E-05  -1.0689378E-02   0.0000000E+00   1.3092533E-04  -1.0804730E-02   0.0000000E+00   1.7402598E-04  -1.0905161E-02   0.0000000E+00   2.2367875E-04  -1.2118475E-02   0.0000000E+00  -1.2342906E-09  -1.2138205E-02   0.0000000E+00   3.1349038E-05  -1.2196298E-02   0.0000000E+00   6.4764201E-05  -1.2289421E-02   0.0000000E+00   1.0219103E-04  -1.2411648E-02   0.0000000E+00   1.4579052E-04  -1.2553846E-02   0.0000000E+00   1.9690422E-04  -1.2702649E-02   0.0000000E+00   2.5559345E-04  -1.2838760E-02   0.0000000E+00   3.2134043E-04  -1.4146203E-02   0.0000000E+00   5.2725035E-10  -1.4170100E-02   0.0000000E+00   4.8821246E-05  -1.4240596E-02   0.0000000E+00   1.0022391E-04  -1.4354012E-02   0.0000000E+00   1.5688187E-04  -1.4503861E-02   0.0000000E+00   2.2112341E-04  -1.4680054E-02   0.0000000E+00   2.9464363E-04  -1.4867581E-02   0.0000000E+00   3.7816490E-04  -1.5045428E-02   0.0000000E+00   4.6882799E-04  -1.6456382E-02   0.0000000E+00   6.3904576E-10  -1.6485043E-02   0.0000000E+00   7.2433504E-05  -1.6569698E-02   0.0000000E+00   1.4827661E-04  -1.6706398E-02   0.0000000E+00   2.3055673E-04  -1.6887926E-02   0.0000000E+00   3.2296174E-04  -1.7103037E-02   0.0000000E+00   4.2804808E-04  -1.7335206E-02   0.0000000E+00   5.4520852E-04  -1.7561130E-02   0.0000000E+00   6.7178527E-04  -1.9086376E-02   0.0000000E+00  -1.0397729E-09  -1.9120432E-02   0.0000000E+00   1.0190006E-04  -1.9221144E-02   0.0000000E+00   2.0820188E-04  -1.9384166E-02   0.0000000E+00   3.2347586E-04  -1.9601621E-02   0.0000000E+00   4.5236739E-04  -1.9861083E-02   0.0000000E+00   5.9741613E-04  -2.0144368E-02   0.0000000E+00   7.5787678E-04  -2.0425379E-02   0.0000000E+00   9.3391235E-04  -2.2076359E-02   0.0000000E+00  -5.9710192E-10  -2.2116484E-02   0.0000000E+00   1.3724263E-04  -2.2235261E-02   0.0000000E+00   2.8055540E-04  -2.2427823E-02   0.0000000E+00   4.3610248E-04  -2.2685638E-02   0.0000000E+00   6.0819130E-04  -2.2995170E-02   0.0000000E+00   8.0032565E-04  -2.3336479E-02   0.0000000E+00   1.0161403E-03  -2.3681514E-02   0.0000000E+00   1.2567596E-03  -2.5469474E-02   0.0000000E+00  -6.8823020E-10  -2.5516275E-02   0.0000000E+00   1.7824926E-04  -2.5654905E-02   0.0000000E+00   3.6372701E-04  -2.5880231E-02   0.0000000E+00   5.6412350E-04  -2.6183169E-02   0.0000000E+00   7.8535266E-04  -2.6549043E-02   0.0000000E+00   1.0348669E-03  -2.6956357E-02   0.0000000E+00   1.3169587E-03  -2.7375618E-02   0.0000000E+00   1.6313785E-03  -2.9312525E-02   0.0000000E+00  -9.7257591E-10  -2.9366594E-02   0.0000000E+00   2.2247704E-04  -2.9527182E-02   0.0000000E+00   4.5416126E-04  -2.9789142E-02   0.0000000E+00   7.0424774E-04  -3.0142440E-02   0.0000000E+00   9.8291005E-04  -3.0571239E-02   0.0000000E+00   1.2980879E-03  -3.1052569E-02   0.0000000E+00   1.6547045E-03  -3.1555749E-02   0.0000000E+00   2.0515341E-03  -3.3655990E-02   0.0000000E+00   2.1447071E-09  -3.3718381E-02   0.0000000E+00   2.6812733E-04  -3.3903673E-02   0.0000000E+00   5.4887874E-04  -3.4206428E-02   0.0000000E+00   8.5306400E-04  -3.4615714E-02   0.0000000E+00   1.1951207E-03  -3.5114624E-02   0.0000000E+00   1.5827122E-03  -3.5678346E-02   0.0000000E+00   2.0223863E-03  -3.6274992E-02   0.0000000E+00   2.5126466E-03  -3.8553808E-02   0.0000000E+00   2.3636118E-10  -3.8625520E-02   0.0000000E+00   3.1442818E-04  -3.8838722E-02   0.0000000E+00   6.4527290E-04  -3.9187111E-02   0.0000000E+00   1.0073005E-03  -3.9658852E-02   0.0000000E+00   1.4166500E-03  -4.0234990E-02   0.0000000E+00   1.8801346E-03  -4.0889643E-02   0.0000000E+00   2.4091722E-03  -4.1590214E-02   0.0000000E+00   3.0049845E-03  -4.4058904E-02   0.0000000E+00   2.8993405E-09  -4.4141296E-02   0.0000000E+00   3.6151271E-04  -4.4386178E-02   0.0000000E+00   7.4292836E-04  -4.4786066E-02   0.0000000E+00   1.1645429E-03  -4.5326836E-02   0.0000000E+00   1.6402375E-03  -4.5989029E-02   0.0000000E+00   2.1842034E-03  -4.6744939E-02   0.0000000E+00   2.8110452E-03  -4.7559321E-02   0.0000000E+00   3.5206689E-03  -5.0220415E-02   0.0000000E+00   2.6779465E-09  -5.0314974E-02   0.0000000E+00   4.1014803E-04  -5.0596040E-02   0.0000000E+00   8.4344548E-04  -5.1054206E-02   0.0000000E+00   1.3253629E-03  -5.1673044E-02   0.0000000E+00   1.8700133E-03  -5.2432280E-02   0.0000000E+00   2.5002335E-03  -5.3301584E-02   0.0000000E+00   3.2317259E-03  -5.4240245E-02   0.0000000E+00   4.0619546E-03  -5.7082765E-02   0.0000000E+00   2.1245323E-09  -5.7191264E-02   0.0000000E+00   4.6392527E-04  -5.7513915E-02   0.0000000E+00   9.5371087E-04  -5.8038682E-02   0.0000000E+00   1.4993363E-03  -5.8747213E-02   0.0000000E+00   2.1199847E-03  -5.9616286E-02   0.0000000E+00   2.8418337E-03  -6.0612433E-02   0.0000000E+00   3.6837165E-03  -6.1689187E-02   0.0000000E+00   4.6408959E-03  -6.4689420E-02   0.0000000E+00  -4.3230658E-10  -6.4814821E-02   0.0000000E+00   5.2867638E-04  -6.5185726E-02   0.0000000E+00   1.0897000E-03  -6.5787159E-02   0.0000000E+00   1.7107778E-03  -6.6598795E-02   0.0000000E+00   2.4182179E-03  -6.7592889E-02   0.0000000E+00   3.2403159E-03  -6.8732642E-02   0.0000000E+00   4.1984781E-03  -6.9964238E-02   0.0000000E+00   5.2890955E-03  -7.3091790E-02   0.0000000E+00   1.3276041E-09  -7.3236153E-02   0.0000000E+00   6.2174670E-04  -7.3662765E-02   0.0000000E+00   1.2784322E-03  -7.4353524E-02   0.0000000E+00   1.9977153E-03  -7.5283416E-02   0.0000000E+00   2.8115967E-03  -7.6419838E-02   0.0000000E+00   3.7523415E-03  -7.7723555E-02   0.0000000E+00   4.8365230E-03  -7.9130270E-02   0.0000000E+00   6.0676448E-03  -8.2350761E-02   0.0000000E+00  -4.3108561E-09  -8.2516968E-02   0.0000000E+00   7.6163223E-04  -8.3007969E-02   0.0000000E+00   1.5579028E-03  -8.3800830E-02   0.0000000E+00   2.4154929E-03  -8.4865913E-02   0.0000000E+00   3.3721374E-03  -8.6166851E-02   0.0000000E+00   4.4565313E-03  -8.7654598E-02   0.0000000E+00   5.6922850E-03  -8.9259066E-02   0.0000000E+00   7.0751319E-03  -9.2534788E-02   0.0000000E+00  -3.8014294E-09  -9.2725970E-02   0.0000000E+00   9.7131054E-04  -9.3289703E-02   0.0000000E+00   1.9735550E-03  -9.4198398E-02   0.0000000E+00   3.0336692E-03  -9.5419325E-02   0.0000000E+00   4.1843248E-03  -9.6905254E-02   0.0000000E+00   5.4663927E-03  -9.8598205E-02   0.0000000E+00   6.8919854E-03  -1.0042165E-01   0.0000000E+00   8.4498655E-03  -1.0370539E-01   0.0000000E+00   2.2895830E-10  -1.0392462E-01   0.0000000E+00   1.2774445E-03  -1.0457012E-01   0.0000000E+00   2.5751418E-03  -1.0561116E-01   0.0000000E+00   3.9255521E-03  -1.0700284E-01   0.0000000E+00   5.3610173E-03  -1.0869011E-01   0.0000000E+00   6.9103218E-03  -1.1060648E-01   0.0000000E+00   8.5828332E-03  -1.1266324E-01   0.0000000E+00   1.0363227E-02  -1.1585547E-01   0.0000000E+00   1.4344983E-09  -1.1610583E-01   0.0000000E+00   1.7057890E-03  -1.1684236E-01   0.0000000E+00   3.4287716E-03  -1.1802574E-01   0.0000000E+00   5.1900558E-03  -1.1960031E-01   0.0000000E+00   7.0169028E-03  -1.2150022E-01   0.0000000E+00   8.9340406E-03  -1.2364748E-01   0.0000000E+00   1.0940602E-02  -1.2594418E-01   0.0000000E+00   1.2995105E-02  -1.2881199E-01   0.0000000E+00  -2.3132267E-09  -1.2909621E-01   0.0000000E+00   2.2993679E-03  -1.2993039E-01   0.0000000E+00   4.6049380E-03  -1.3126378E-01   0.0000000E+00   6.9243154E-03  -1.3302787E-01   0.0000000E+00   9.2733633E-03  -1.3514297E-01   0.0000000E+00   1.1667167E-02  -1.3751648E-01   0.0000000E+00   1.4095863E-02  -1.4003259E-01   0.0000000E+00   1.6486757E-02  -1.4214869E-01   0.0000000E+00   5.7224786E-10  -1.4246444E-01   0.0000000E+00   3.0696145E-03  -1.4338869E-01   0.0000000E+00   6.1118305E-03  -1.4486322E-01   0.0000000E+00   9.1201626E-03  -1.4680758E-01   0.0000000E+00   1.2121202E-02  -1.4911668E-01   0.0000000E+00   1.5104469E-02  -1.5168397E-01   0.0000000E+00   1.8051425E-02  -1.5438181E-01   0.0000000E+00   2.0872168E-02  -1.5504041E-01   0.0000000E+00   1.9826611E-09  -1.5538380E-01   0.0000000E+00   4.0558656E-03  -1.5638284E-01   0.0000000E+00   8.0226529E-03  -1.5797363E-01   0.0000000E+00   1.1884343E-02  -1.6006100E-01   0.0000000E+00   1.5671074E-02  -1.6252033E-01   0.0000000E+00   1.9354576E-02  -1.6523656E-01   0.0000000E+00   2.2898328E-02  -1.6807704E-01   0.0000000E+00   2.6193166E-02  -1.6674013E-01   0.0000000E+00   9.5530295E-10  -1.6709955E-01   0.0000000E+00   5.2562905E-03  -1.6814741E-01   0.0000000E+00   1.0357702E-02  -1.6982949E-01   0.0000000E+00   1.5275314E-02  -1.7200993E-01   0.0000000E+00   1.9959657E-02  -1.7454536E-01   0.0000000E+00   2.4329832E-02  -1.7731637E-01   0.0000000E+00   2.8425649E-02  -1.8023051E-01   0.0000000E+00   3.2209475E-02  -1.7676452E-01   0.0000000E+00   1.2538906E-08  -1.7711711E-01   0.0000000E+00   6.4707138E-03  -1.7815676E-01   0.0000000E+00   1.2742014E-02  -1.7986432E-01   0.0000000E+00   1.8707952E-02  -1.8209951E-01   0.0000000E+00   2.4376132E-02  -1.8470682E-01   0.0000000E+00   2.9587552E-02  -1.8750717E-01   0.0000000E+00   3.4358989E-02  -1.9039829E-01   0.0000000E+00   3.8600020E-02  -1.8460710E-01   0.0000000E+00  -1.8516646E-09  -1.8493013E-01   0.0000000E+00   7.9563214E-03  -1.8590653E-01   0.0000000E+00   1.5638100E-02  -1.8756627E-01   0.0000000E+00   2.2785863E-02  -1.8976806E-01   0.0000000E+00   2.9347114E-02  -1.9229254E-01   0.0000000E+00   3.5373479E-02  -1.9499947E-01   0.0000000E+00   4.0914353E-02  -1.9784348E-01   0.0000000E+00   4.5778539E-02  -1.8872799E-01   0.0000000E+00   3.5227214E-09  -1.8905456E-01   0.0000000E+00   1.0629469E-02  -1.8998794E-01   0.0000000E+00   2.0642027E-02  -1.9147904E-01   0.0000000E+00   2.9594107E-02  -1.9346312E-01   0.0000000E+00   3.7567664E-02  -1.9574532E-01   0.0000000E+00   4.4604044E-02  -1.9823386E-01   0.0000000E+00   5.0922155E-02  -2.0082258E-01   0.0000000E+00   5.6457639E-02  -1.8738319E-01   0.0000000E+00  -1.3209740E-09  -1.8765095E-01   0.0000000E+00   1.3593631E-02  -1.8845434E-01   0.0000000E+00   2.6394006E-02  -1.8982868E-01   0.0000000E+00   3.7995826E-02  -1.9156873E-01   0.0000000E+00   4.8320439E-02  -1.9341937E-01   0.0000000E+00   5.7434309E-02  -1.9507450E-01   0.0000000E+00   6.5597206E-02  -1.9655082E-01   0.0000000E+00   7.2927110E-02  -1.5832426E-01   0.0000000E+00  -4.1233528E-09  -1.5878537E-01   0.0000000E+00   1.6526509E-02  -1.6010433E-01   0.0000000E+00   3.2233696E-02  -1.6213450E-01   0.0000000E+00   4.6695054E-02  -1.6468431E-01   0.0000000E+00   6.0005836E-02  -1.6746688E-01   0.0000000E+00   7.2515041E-02  -1.7019549E-01   0.0000000E+00   8.4486119E-02  -1.7257634E-01   0.0000000E+00   9.5574096E-02  -1.0294122E-01   0.0000000E+00   1.0698831E-08  -1.0327592E-01   0.0000000E+00   1.7978225E-02  -1.0423177E-01   0.0000000E+00   3.4999479E-02  -1.0567846E-01   0.0000000E+00   5.0532140E-02  -1.0743985E-01   0.0000000E+00   6.4612262E-02  -1.0933521E-01   0.0000000E+00   7.7626459E-02  -1.1120655E-01   0.0000000E+00   8.9926444E-02  -1.1291984E-01   0.0000000E+00   1.0131799E-01  -6.0405266E-02   0.0000000E+00   3.4529165E-08  -6.0602237E-02   0.0000000E+00   1.8937442E-02  -6.1155465E-02   0.0000000E+00   3.6796015E-02  -6.1963685E-02   0.0000000E+00   5.2951351E-02  -6.2892683E-02   0.0000000E+00   6.7392260E-02  -6.3810214E-02   0.0000000E+00   8.0495998E-02  -6.4606048E-02   0.0000000E+00   9.2613384E-02  -6.5187357E-02   0.0000000E+00   1.0353892E-01  -2.8492985E-02   0.0000000E+00  -6.7749761E-09  -2.8568415E-02   0.0000000E+00   1.9433243E-02  -2.8770138E-02   0.0000000E+00   3.7699908E-02  -2.9033229E-02   0.0000000E+00   5.4110505E-02  -2.9274518E-02   0.0000000E+00   6.8624757E-02  -2.9419014E-02   0.0000000E+00   8.1620991E-02  -2.9415464E-02   0.0000000E+00   9.3455836E-02  -2.9230354E-02   0.0000000E+00   1.0391504E-01  -1.6774201E-03   0.0000000E+00  -3.6285503E-08  -1.6525267E-03   0.0000000E+00   1.9527907E-02  -1.5671342E-03   0.0000000E+00   3.7840527E-02  -1.3925529E-03   0.0000000E+00   5.4214392E-02  -1.0954590E-03   0.0000000E+00   6.8599597E-02  -6.5356173E-04   0.0000000E+00   8.1387691E-02  -6.7845642E-05   0.0000000E+00   9.2952840E-02   6.4155651E-04   0.0000000E+00   1.0308456E-01   2.4777567E-02   0.0000000E+00   6.2026762E-09   2.4882570E-02   0.0000000E+00   1.9299429E-02   2.5196882E-02   0.0000000E+00   3.7372235E-02   2.5717696E-02   0.0000000E+00   5.3489421E-02   2.6438376E-02   0.0000000E+00   6.7607500E-02   2.7342133E-02   0.0000000E+00   8.0139078E-02   2.8395113E-02   0.0000000E+00   9.1484234E-02   2.9547276E-02   0.0000000E+00   1.0144818E-01   5.2673575E-02   0.0000000E+00   3.4439910E-08   5.2843727E-02   0.0000000E+00   1.8820735E-02   5.3344402E-02   0.0000000E+00   3.6434401E-02   5.4149695E-02   0.0000000E+00   5.2128714E-02   5.5225167E-02   0.0000000E+00   6.5876603E-02   5.6532405E-02   0.0000000E+00   7.8112245E-02   5.8027651E-02   0.0000000E+00   8.9261867E-02   5.9658561E-02   0.0000000E+00   9.9152051E-02   8.1116818E-02   0.0000000E+00   2.5604750E-08   8.1342563E-02   0.0000000E+00   1.8141259E-02   8.2003489E-02   0.0000000E+00   3.5118256E-02   8.3058245E-02   0.0000000E+00   5.0250586E-02   8.4456176E-02   0.0000000E+00   6.3531250E-02   8.6151473E-02   0.0000000E+00   7.5410545E-02   8.8107325E-02   0.0000000E+00   8.6332411E-02   9.0291262E-02   0.0000000E+00   9.6143961E-02   1.0810872E-01   0.0000000E+00  -2.6053685E-08   1.0838439E-01   0.0000000E+00   1.7290406E-02   1.0919058E-01   0.0000000E+00   3.3475175E-02   1.1047620E-01   0.0000000E+00   4.7915664E-02   1.1218167E-01   0.0000000E+00   6.0624521E-02   1.1426156E-01   0.0000000E+00   7.2058901E-02   1.1669328E-01   0.0000000E+00   8.2668029E-02   1.1947240E-01   0.0000000E+00   9.2314295E-02   1.3165186E-01   0.0000000E+00  -1.9090283E-08   1.3197714E-01   0.0000000E+00   1.6287126E-02   1.3292955E-01   0.0000000E+00   3.1538039E-02   1.3445012E-01   0.0000000E+00   4.5160908E-02   1.3647191E-01   0.0000000E+00   5.7186533E-02   1.3894704E-01   0.0000000E+00   6.8070151E-02   1.4186099E-01   0.0000000E+00   7.8253798E-02   1.4523120E-01   0.0000000E+00   8.7607771E-02   1.4445816E-01   0.0000000E+00  -6.0723697E-09   1.4485350E-01   0.0000000E+00   1.5161975E-02   1.4602932E-01   0.0000000E+00   2.9362194E-02   1.4795563E-01   0.0000000E+00   4.2054579E-02   1.5057658E-01   0.0000000E+00   5.3281296E-02   1.5383539E-01   0.0000000E+00   6.3493647E-02   1.5769956E-01   0.0000000E+00   7.3127426E-02   1.6219983E-01   0.0000000E+00   8.2068987E-02   1.4700192E-01   0.0000000E+00   3.0749149E-08   1.4741659E-01   0.0000000E+00   1.3918073E-02   1.4864798E-01   0.0000000E+00   2.6969491E-02   1.5067160E-01   0.0000000E+00   3.8654231E-02   1.5346533E-01   0.0000000E+00   4.9027450E-02   1.5698767E-01   0.0000000E+00   5.8505274E-02   1.6122301E-01   0.0000000E+00   6.7511871E-02   1.6620564E-01   0.0000000E+00   7.5961530E-02   1.4657044E-01   0.0000000E+00   1.1644471E-08   1.4699630E-01   0.0000000E+00   1.2619873E-02   1.4824568E-01   0.0000000E+00   2.4455475E-02   1.5031670E-01   0.0000000E+00   3.5110112E-02   1.5318772E-01   0.0000000E+00   4.4644564E-02   1.5681656E-01   0.0000000E+00   5.3440254E-02   1.6118878E-01   0.0000000E+00   6.1858829E-02   1.6632703E-01   0.0000000E+00   6.9819607E-02   1.4464304E-01   0.0000000E+00  -7.0428370E-09   1.4507945E-01   0.0000000E+00   1.1337182E-02   1.4637852E-01   0.0000000E+00   2.2039549E-02   1.4851594E-01   0.0000000E+00   3.1742468E-02   1.5145580E-01   0.0000000E+00   4.0494099E-02   1.5517364E-01   0.0000000E+00   4.8649754E-02   1.5965259E-01   0.0000000E+00   5.6547593E-02   1.6493399E-01   0.0000000E+00   6.4097986E-02   1.4174522E-01   0.0000000E+00   5.4106932E-09   1.4220612E-01   0.0000000E+00   1.0192428E-02   1.4357138E-01   0.0000000E+00   1.9881740E-02   1.4580706E-01   0.0000000E+00   2.8796069E-02   1.4884853E-01   0.0000000E+00   3.6973014E-02   1.5262932E-01   0.0000000E+00   4.4638198E-02   1.5719087E-01   0.0000000E+00   5.2081347E-02   1.6263637E-01   0.0000000E+00   5.9130181E-02   1.3833466E-01   0.0000000E+00   5.7615424E-09   1.3882059E-01   0.0000000E+00   9.1633443E-03   1.4025086E-01   0.0000000E+00   1.7928340E-02   1.4255603E-01   0.0000000E+00   2.6067365E-02   1.4566806E-01   0.0000000E+00   3.3624444E-02   1.4955789E-01   0.0000000E+00   4.0846311E-02   1.5426169E-01   0.0000000E+00   4.7894560E-02   1.5992372E-01   0.0000000E+00   5.4467399E-02   1.3426974E-01   0.0000000E+00   1.8248726E-10   1.3477096E-01   0.0000000E+00   8.2008420E-03   1.3624455E-01   0.0000000E+00   1.6111819E-02   1.3861805E-01   0.0000000E+00   2.3585565E-02   1.4181779E-01   0.0000000E+00   3.0628651E-02   1.4582923E-01   0.0000000E+00   3.7420239E-02   1.5072976E-01   0.0000000E+00   4.3983243E-02   1.5663293E-01   0.0000000E+00   5.0075568E-02   1.2968965E-01   0.0000000E+00   1.1166933E-08   1.3020213E-01   0.0000000E+00   7.3032328E-03   1.3171074E-01   0.0000000E+00   1.4429743E-02   1.3413686E-01   0.0000000E+00   2.1275222E-02   1.3741808E-01   0.0000000E+00   2.7866380E-02   1.4154914E-01   0.0000000E+00   3.4215424E-02   1.4661987E-01   0.0000000E+00   4.0368676E-02   1.5285270E-01   0.0000000E+00   4.5832429E-02   1.2481780E-01   0.0000000E+00   5.9551972E-09   1.2533331E-01   0.0000000E+00   6.5386929E-03   1.2685078E-01   0.0000000E+00   1.2972733E-02   1.2931199E-01   0.0000000E+00   1.9274559E-02   1.3264385E-01   0.0000000E+00   2.5432670E-02   1.3692342E-01   0.0000000E+00   3.1399015E-02   1.4230850E-01   0.0000000E+00   3.6890995E-02   1.4881571E-01   0.0000000E+00   4.1603290E-02   1.1983014E-01   0.0000000E+00  -2.7538685E-09   1.2034158E-01   0.0000000E+00   5.8633820E-03   1.2186398E-01   0.0000000E+00   1.1714098E-02   1.2434877E-01   0.0000000E+00   1.7532477E-02   1.2780099E-01   0.0000000E+00   2.3204923E-02   1.3231534E-01   0.0000000E+00   2.8588917E-02   1.3792564E-01   0.0000000E+00   3.3276584E-02   1.4492886E-01   0.0000000E+00   3.7308298E-02   1.1493566E-01   0.0000000E+00  -7.3848301E-09   1.1544812E-01   0.0000000E+00   5.3189746E-03   1.1700103E-01   0.0000000E+00   1.0623311E-02   1.1954719E-01   0.0000000E+00   1.5866030E-02   1.2315098E-01   0.0000000E+00   2.0995708E-02   1.2783550E-01   0.0000000E+00   2.5578761E-02   1.3386515E-01   0.0000000E+00   2.9543299E-02   1.4122221E-01   0.0000000E+00   3.2454949E-02   1.1035617E-01   0.0000000E+00   3.6715628E-09   1.1089506E-01   0.0000000E+00   4.7923331E-03   1.1247404E-01   0.0000000E+00   9.5087187E-03   1.1510140E-01   0.0000000E+00   1.4204801E-02   1.1880961E-01   0.0000000E+00   1.8553620E-02   1.2383556E-01   0.0000000E+00   2.2426313E-02   1.3017999E-01   0.0000000E+00   2.5268069E-02   1.3808841E-01   0.0000000E+00   2.7452152E-02   1.0625273E-01   0.0000000E+00   5.5800324E-09   1.0681699E-01   0.0000000E+00   4.2203721E-03   1.0840808E-01   0.0000000E+00   8.3195660E-03   1.1111928E-01   0.0000000E+00   1.2303372E-02   1.1509119E-01   0.0000000E+00   1.5969027E-02   1.2035506E-01   0.0000000E+00   1.8728456E-02   1.2719673E-01   0.0000000E+00   2.0828921E-02   1.3577642E-01   0.0000000E+00   2.2771094E-02   1.0271551E-01   0.0000000E+00   6.0880334E-10   1.0325909E-01   0.0000000E+00   3.5358246E-03   1.0494763E-01   0.0000000E+00   7.0071560E-03   1.0777164E-01   0.0000000E+00   1.0228488E-02   1.1196744E-01   0.0000000E+00   1.2885621E-02   1.1766644E-01   0.0000000E+00   1.4936558E-02   1.2503673E-01   0.0000000E+00   1.6795712E-02   1.3442062E-01   0.0000000E+00   1.8966237E-02   9.9722072E-02   0.0000000E+00   7.7661380E-09   1.0030527E-01   0.0000000E+00   2.8616043E-03   1.0204160E-01   0.0000000E+00   5.5623390E-03   1.0514901E-01   0.0000000E+00   7.9811253E-03   1.0970628E-01   0.0000000E+00   9.9067511E-03   1.1583726E-01   0.0000000E+00   1.1681828E-02   1.2400433E-01   0.0000000E+00   1.3983096E-02   1.3487057E-01   0.0000000E+00   1.7178381E-02   9.7307846E-02   0.0000000E+00   4.5460005E-09   9.7976439E-02   0.0000000E+00   2.3184533E-03   9.9996567E-02   0.0000000E+00   4.3867431E-03   1.0343786E-01   0.0000000E+00   6.0544545E-03   1.0848581E-01   0.0000000E+00   7.7670729E-03   1.1558151E-01   0.0000000E+00   1.0287624E-02   1.2561736E-01   0.0000000E+00   1.4012642E-02   1.3814178E-01   0.0000000E+00   1.8155696E-02   9.6017048E-02   0.0000000E+00   8.1602094E-09   9.6782394E-02   0.0000000E+00   2.1298816E-03   9.9187396E-02   0.0000000E+00   3.8557847E-03   1.0346717E-01   0.0000000E+00   5.7508731E-03   1.1000007E-01   0.0000000E+00   8.6920736E-03   1.1885901E-01   0.0000000E+00   1.2496494E-02   1.2957631E-01   0.0000000E+00   1.6128791E-02   1.4052914E-01   0.0000000E+00   1.8894412E-02   9.7826473E-02   0.0000000E+00   6.6791199E-09   9.8837525E-02   0.0000000E+00   3.2401886E-03   1.0207648E-01   0.0000000E+00   6.1366130E-03   1.0728027E-01   0.0000000E+00   9.0733664E-03   1.1382473E-01   0.0000000E+00   1.1855148E-02   1.2150021E-01   0.0000000E+00   1.4181048E-02   1.2979066E-01   0.0000000E+00   1.5777398E-02   1.3838908E-01   0.0000000E+00   1.7530473E-02   1.0042287E-01   0.0000000E+00   8.4027985E-09   1.0092924E-01   0.0000000E+00   3.5689438E-03   1.0298184E-01   0.0000000E+00   6.9501838E-03   1.0708709E-01   0.0000000E+00   9.5163016E-03   1.1252359E-01   0.0000000E+00   1.1195515E-02   1.1913137E-01   0.0000000E+00   1.2784745E-02   1.2567337E-01   0.0000000E+00   1.3805233E-02   9.5858693E-02   0.0000000E+00   6.6951857E-09   9.6638061E-02   0.0000000E+00   3.2465239E-03   9.9258654E-02   0.0000000E+00   5.8492110E-03   1.0347318E-01   0.0000000E+00   7.8366436E-03   1.0844249E-01   0.0000000E+00   9.5243873E-03  -1.2941498E-03   0.0000000E+00   1.0612614E-04  -1.2603960E-03   0.0000000E+00   1.3850431E-04  -1.2079341E-03   0.0000000E+00   1.7355193E-04  -1.1313346E-03   0.0000000E+00   2.1048894E-04  -1.0272051E-03   0.0000000E+00   2.4427849E-04  -8.9317048E-04   0.0000000E+00   2.7076562E-04  -7.3425379E-04   0.0000000E+00   2.8142496E-04  -1.8461960E-03   0.0000000E+00   1.4324553E-04  -1.8030544E-03   0.0000000E+00   1.8542337E-04  -1.7318091E-03   0.0000000E+00   2.3199685E-04  -1.6244346E-03   0.0000000E+00   2.7852188E-04  -1.4734473E-03   0.0000000E+00   3.1766525E-04  -1.2723713E-03   0.0000000E+00   3.4368178E-04  -1.0230073E-03   0.0000000E+00   3.4781170E-04  -7.3071336E-04   0.0000000E+00   3.7225097E-04  -2.5540860E-03   0.0000000E+00   1.6768102E-04  -2.5009189E-03   0.0000000E+00   2.1543966E-04  -2.4087580E-03   0.0000000E+00   2.6741857E-04  -2.2644233E-03   0.0000000E+00   3.1915691E-04  -2.0572499E-03   0.0000000E+00   3.6015670E-04  -1.7766583E-03   0.0000000E+00   3.8944866E-04  -1.4294717E-03   0.0000000E+00   3.9937126E-04  -1.0237829E-03   0.0000000E+00   4.1516701E-04  -3.3709214E-03   0.0000000E+00   1.8019120E-04  -3.3093251E-03   0.0000000E+00   2.3110918E-04  -3.1968462E-03   0.0000000E+00   2.8720757E-04  -3.0152837E-03   0.0000000E+00   3.4271445E-04  -2.7489760E-03   0.0000000E+00   3.8696636E-04  -2.3847758E-03   0.0000000E+00   4.1831058E-04  -1.9297019E-03   0.0000000E+00   4.2903889E-04  -1.3886982E-03   0.0000000E+00   4.5014513E-04  -4.2813811E-03   0.0000000E+00   1.8310279E-04  -4.2146551E-03   0.0000000E+00   2.3587403E-04  -4.0854779E-03   0.0000000E+00   2.9412628E-04  -3.8696670E-03   0.0000000E+00   3.5251331E-04  -3.5452913E-03   0.0000000E+00   3.9958119E-04  -3.0946373E-03   0.0000000E+00   4.3357859E-04  -2.5214243E-03   0.0000000E+00   4.4848677E-04  -1.8256654E-03   0.0000000E+00   4.8680379E-04  -5.2949274E-03   0.0000000E+00   1.8029363E-04  -5.2274629E-03   0.0000000E+00   2.3397581E-04  -5.0864988E-03   0.0000000E+00   2.9221637E-04  -4.8406501E-03   0.0000000E+00   3.5197911E-04  -4.4610719E-03   0.0000000E+00   4.0013209E-04  -3.9221696E-03   0.0000000E+00   4.3821725E-04  -3.2220006E-03   0.0000000E+00   4.6303324E-04  -2.3505697E-03   0.0000000E+00   5.3259265E-04  -6.4381524E-03   0.0000000E+00   1.7857064E-04  -6.3753864E-03   0.0000000E+00   2.3178929E-04  -6.2279799E-03   0.0000000E+00   2.8803066E-04  -5.9565953E-03   0.0000000E+00   3.4718838E-04  -5.5253869E-03   0.0000000E+00   3.9410143E-04  -4.8958636E-03   0.0000000E+00   4.3960407E-04  -4.0603406E-03   0.0000000E+00   4.8214197E-04  -2.9905171E-03   0.0000000E+00   5.9796643E-04  -7.7447169E-03   0.0000000E+00   1.8615539E-04  -7.6928250E-03   0.0000000E+00   2.3837519E-04  -7.5448509E-03   0.0000000E+00   2.9209038E-04  -7.2528515E-03   0.0000000E+00   3.4977667E-04  -6.7721042E-03   0.0000000E+00   3.9494925E-04  -6.0488805E-03   0.0000000E+00   4.5300281E-04  -5.0721555E-03   0.0000000E+00   5.1972998E-04  -3.7831035E-03   0.0000000E+00   6.9688435E-04  -9.2456667E-03   0.0000000E+00   2.1427081E-04  -9.2115263E-03   0.0000000E+00   2.6687921E-04  -9.0695405E-03   0.0000000E+00   3.2092998E-04  -8.7624248E-03   0.0000000E+00   3.7788201E-04  -8.2334513E-03   0.0000000E+00   4.2380404E-04  -7.4189040E-03   0.0000000E+00   4.9039844E-04  -6.2960992E-03   0.0000000E+00   5.8345433E-04  -4.7865841E-03   0.0000000E+00   8.1583677E-04  -1.0967034E-02   0.0000000E+00   2.7757819E-04  -1.0958004E-02   0.0000000E+00   3.3523352E-04  -1.0830495E-02   0.0000000E+00   3.9289275E-04  -1.0517597E-02   0.0000000E+00   4.4791010E-04  -9.9405171E-03   0.0000000E+00   4.9846026E-04  -9.0390788E-03   0.0000000E+00   5.6090596E-04  -7.7802865E-03   0.0000000E+00   6.6015415E-04  -6.0988441E-03   0.0000000E+00   8.8171609E-04  -1.2936207E-02   0.0000000E+00   3.9028982E-04  -1.2959522E-02   0.0000000E+00   4.6128471E-04  -1.2856719E-02   0.0000000E+00   5.2608590E-04  -1.2544934E-02   0.0000000E+00   5.8558042E-04  -1.1936259E-02   0.0000000E+00   6.2149682E-04  -1.0960437E-02   0.0000000E+00   6.6172454E-04  -9.6002277E-03   0.0000000E+00   7.3597668E-04  -7.8148777E-03   0.0000000E+00   8.8324241E-04  -1.5185112E-02   0.0000000E+00   5.6275964E-04  -1.5247645E-02   0.0000000E+00   6.5914087E-04  -1.5179371E-02   0.0000000E+00   7.3791790E-04  -1.4886065E-02   0.0000000E+00   8.0256967E-04  -1.4266635E-02   0.0000000E+00   8.3260465E-04  -1.3230005E-02   0.0000000E+00   8.8385300E-04  -1.1789783E-02   0.0000000E+00   1.0001130E-03  -9.8016812E-03   0.0000000E+00   1.3286467E-03  -1.7749805E-02   0.0000000E+00   8.0403429E-04  -1.7860744E-02   0.0000000E+00   9.3625626E-04  -1.7836226E-02   0.0000000E+00   1.0572489E-03  -1.7581834E-02   0.0000000E+00   1.1649671E-03  -1.6984733E-02   0.0000000E+00   1.2702453E-03  -1.5920097E-02   0.0000000E+00   1.5221169E-03  -1.4428082E-02   0.0000000E+00   2.0491916E-03  -1.2304785E-02   0.0000000E+00   3.0678029E-03  -2.0672187E-02   0.0000000E+00   1.1177794E-03  -2.0841541E-02   0.0000000E+00   1.3107315E-03  -2.0874692E-02   0.0000000E+00   1.5159079E-03  -2.0684848E-02   0.0000000E+00   1.7333989E-03  -2.0159569E-02   0.0000000E+00   2.0016592E-03  -1.9170005E-02   0.0000000E+00   2.5288332E-03  -1.7703973E-02   0.0000000E+00   3.4894631E-03  -1.5642835E-02   0.0000000E+00   4.7778101E-03  -2.3997081E-02   0.0000000E+00   1.5085103E-03  -2.4236495E-02   0.0000000E+00   1.7873334E-03  -2.4343206E-02   0.0000000E+00   2.1039771E-03  -2.4235444E-02   0.0000000E+00   2.4671522E-03  -2.3815490E-02   0.0000000E+00   2.9354838E-03  -2.2954641E-02   0.0000000E+00   3.6765407E-03  -2.1611180E-02   0.0000000E+00   4.8083654E-03  -1.9717442E-02   0.0000000E+00   6.0412544E-03  -2.7770806E-02   0.0000000E+00   1.9704653E-03  -2.8092973E-02   0.0000000E+00   2.3525148E-03  -2.8284905E-02   0.0000000E+00   2.7853891E-03  -2.8271109E-02   0.0000000E+00   3.2991099E-03  -2.7947223E-02   0.0000000E+00   3.9410475E-03  -2.7204966E-02   0.0000000E+00   4.8036417E-03  -2.5990479E-02   0.0000000E+00   5.9451740E-03  -2.4258180E-02   0.0000000E+00   7.1255621E-03  -3.2041661E-02   0.0000000E+00   2.4891365E-03  -3.2459389E-02   0.0000000E+00   2.9825985E-03  -3.2744043E-02   0.0000000E+00   3.5421306E-03  -3.2816846E-02   0.0000000E+00   4.1829292E-03  -3.2565009E-02   0.0000000E+00   4.9472768E-03  -3.1891786E-02   0.0000000E+00   5.8732112E-03  -3.0741423E-02   0.0000000E+00   7.0125349E-03  -2.9090878E-02   0.0000000E+00   8.1847636E-03  -3.6862552E-02   0.0000000E+00   3.0582570E-03  -3.7385516E-02   0.0000000E+00   3.6687348E-03  -3.7769597E-02   0.0000000E+00   4.3502217E-03  -3.7921216E-02   0.0000000E+00   5.1020472E-03  -3.7716623E-02   0.0000000E+00   5.9605357E-03  -3.7060004E-02   0.0000000E+00   6.9256127E-03  -3.5879817E-02   0.0000000E+00   8.0972202E-03  -3.4178473E-02   0.0000000E+00   9.2979744E-03  -4.2289089E-02   0.0000000E+00   3.6675404E-03  -4.2924475E-02   0.0000000E+00   4.3995632E-03  -4.3411601E-02   0.0000000E+00   5.2033132E-03  -4.3641791E-02   0.0000000E+00   6.0656015E-03  -4.3477815E-02   0.0000000E+00   7.0012123E-03  -4.2798337E-02   0.0000000E+00   8.0120368E-03  -4.1525763E-02   0.0000000E+00   9.2348382E-03  -3.9654665E-02   0.0000000E+00   1.0505792E-02  -4.8377842E-02   0.0000000E+00   4.3072635E-03  -4.9132455E-02   0.0000000E+00   5.1704072E-03  -4.9725901E-02   0.0000000E+00   6.1044842E-03  -5.0034750E-02   0.0000000E+00   7.0834663E-03  -4.9908299E-02   0.0000000E+00   8.1028137E-03  -4.9193684E-02   0.0000000E+00   9.1703283E-03  -4.7803439E-02   0.0000000E+00   1.0460931E-02  -4.5715515E-02   0.0000000E+00   1.1825378E-02  -5.5188134E-02   0.0000000E+00   4.9826526E-03  -5.6068789E-02   0.0000000E+00   5.9881527E-03  -5.6772511E-02   0.0000000E+00   7.0654131E-03  -5.7159640E-02   0.0000000E+00   8.1748292E-03  -5.7063840E-02   0.0000000E+00   9.2964023E-03  -5.6310110E-02   0.0000000E+00   1.0435671E-02  -5.4793596E-02   0.0000000E+00   1.1803594E-02  -5.2470136E-02   0.0000000E+00   1.3287857E-02  -6.2778965E-02   0.0000000E+00   5.7044863E-03  -6.3795321E-02   0.0000000E+00   6.8649380E-03  -6.4615659E-02   0.0000000E+00   8.0996538E-03  -6.5081872E-02   0.0000000E+00   9.3574272E-03  -6.5012150E-02   0.0000000E+00   1.0605488E-02  -6.4213529E-02   0.0000000E+00   1.1843033E-02  -6.2564023E-02   0.0000000E+00   1.3297974E-02  -5.9993010E-02   0.0000000E+00   1.4905634E-02  -7.1212530E-02   0.0000000E+00   6.5005282E-03  -7.2379105E-02   0.0000000E+00   7.8220190E-03  -7.3325969E-02   0.0000000E+00   9.2233531E-03  -7.3875763E-02   0.0000000E+00   1.0644350E-02  -7.3829994E-02   0.0000000E+00   1.2043728E-02  -7.2981127E-02   0.0000000E+00   1.3421816E-02  -7.1192972E-02   0.0000000E+00   1.4984905E-02  -6.8364538E-02   0.0000000E+00   1.6713148E-02  -8.0557510E-02   0.0000000E+00   7.4275965E-03  -8.1893235E-02   0.0000000E+00   8.9063868E-03  -8.2981981E-02   0.0000000E+00   1.0464990E-02  -8.3626419E-02   0.0000000E+00   1.2051462E-02  -8.3608292E-02   0.0000000E+00   1.3618183E-02  -8.2706273E-02   0.0000000E+00   1.5190343E-02  -8.0779225E-02   0.0000000E+00   1.6915727E-02  -7.7686846E-02   0.0000000E+00   1.8766643E-02  -9.0887740E-02   0.0000000E+00   8.5828025E-03  -9.2414506E-02   0.0000000E+00   1.0203720E-02  -9.3666889E-02   0.0000000E+00   1.1889680E-02  -9.4424538E-02   0.0000000E+00   1.3613906E-02  -9.4450369E-02   0.0000000E+00   1.5337650E-02  -9.3504287E-02   0.0000000E+00   1.7158657E-02  -9.1453172E-02   0.0000000E+00   1.9148929E-02  -8.8112451E-02   0.0000000E+00   2.1138603E-02  -1.0227138E-01   0.0000000E+00   1.0112156E-02  -1.0401189E-01   0.0000000E+00   1.1849607E-02  -1.0545219E-01   0.0000000E+00   1.3615185E-02  -1.0635036E-01   0.0000000E+00   1.5414449E-02  -1.0645737E-01   0.0000000E+00   1.7241620E-02  -1.0550456E-01   0.0000000E+00   1.9345026E-02  -1.0338228E-01   0.0000000E+00   2.1749545E-02  -9.9870488E-02   0.0000000E+00   2.3920981E-02  -1.1474831E-01   0.0000000E+00   1.2196499E-02  -1.1671586E-01   0.0000000E+00   1.4034554E-02  -1.1836671E-01   0.0000000E+00   1.5825704E-02  -1.1944265E-01   0.0000000E+00   1.7622311E-02  -1.1969072E-01   0.0000000E+00   1.9470785E-02  -1.1881622E-01   0.0000000E+00   2.1828523E-02  -1.1674581E-01   0.0000000E+00   2.4806580E-02  -1.1326484E-01   0.0000000E+00   2.7233968E-02  -1.2826486E-01   0.0000000E+00   1.5019347E-02  -1.3045700E-01   0.0000000E+00   1.6962785E-02  -1.3233061E-01   0.0000000E+00   1.8779930E-02  -1.3362704E-01   0.0000000E+00   2.0517381E-02  -1.3408270E-01   0.0000000E+00   2.2258515E-02  -1.3343698E-01   0.0000000E+00   2.4764866E-02  -1.3163471E-01   0.0000000E+00   2.8444942E-02  -1.2857105E-01   0.0000000E+00   3.1233866E-02  -1.4255990E-01   0.0000000E+00   1.8754071E-02  -1.4495730E-01   0.0000000E+00   2.0837905E-02  -1.4704977E-01   0.0000000E+00   2.2723464E-02  -1.4856866E-01   0.0000000E+00   2.4431314E-02  -1.4930843E-01   0.0000000E+00   2.5926735E-02  -1.4908713E-01   0.0000000E+00   2.8459201E-02  -1.4785668E-01   0.0000000E+00   3.2904711E-02  -1.4575246E-01   0.0000000E+00   3.6104724E-02  -1.5706545E-01   0.0000000E+00   2.3507750E-02  -1.5961118E-01   0.0000000E+00   2.5848811E-02  -1.6187979E-01   0.0000000E+00   2.7845908E-02  -1.6365302E-01   0.0000000E+00   2.9472165E-02  -1.6472462E-01   0.0000000E+00   3.0878816E-02  -1.6501623E-01   0.0000000E+00   3.3468392E-02  -1.6466908E-01   0.0000000E+00   3.8579278E-02  -1.6410138E-01   0.0000000E+00   4.2141203E-02  -1.7090498E-01   0.0000000E+00   2.9173341E-02  -1.7361020E-01   0.0000000E+00   3.1796232E-02  -1.7602476E-01   0.0000000E+00   3.3983972E-02  -1.7802775E-01   0.0000000E+00   3.5780337E-02  -1.7942452E-01   0.0000000E+00   3.7274800E-02  -1.8005690E-01   0.0000000E+00   4.0586777E-02  -1.8081141E-01   0.0000000E+00   4.6104416E-02  -1.8205826E-01   0.0000000E+00   4.9832318E-02  -1.8317540E-01   0.0000000E+00   3.5548225E-02  -1.8607992E-01   0.0000000E+00   3.8420644E-02  -1.8875852E-01   0.0000000E+00   4.0990762E-02  -1.9093326E-01   0.0000000E+00   4.3323804E-02  -1.9277932E-01   0.0000000E+00   4.5490708E-02  -1.9401492E-01   0.0000000E+00   4.9636856E-02  -1.9492428E-01   0.0000000E+00   5.6440361E-02  -1.9776899E-01   0.0000000E+00   6.0118224E-02  -1.9336127E-01   0.0000000E+00   4.2333119E-02  -1.9639328E-01   0.0000000E+00   4.5563776E-02  -1.9940236E-01   0.0000000E+00   4.8707865E-02  -2.0197842E-01   0.0000000E+00   5.2017599E-02  -2.0398092E-01   0.0000000E+00   5.6435455E-02  -2.0536427E-01   0.0000000E+00   6.2543325E-02  -2.0624910E-01   0.0000000E+00   6.9863565E-02  -2.0917803E-01   0.0000000E+00   7.3421821E-02  -2.0078111E-01   0.0000000E+00   4.9924053E-02  -2.0382972E-01   0.0000000E+00   5.3832062E-02  -2.0680335E-01   0.0000000E+00   5.8171578E-02  -2.0925723E-01   0.0000000E+00   6.4072102E-02  -2.1083136E-01   0.0000000E+00   7.2048828E-02  -2.1230127E-01   0.0000000E+00   7.8748524E-02  -2.1294296E-01   0.0000000E+00   8.5522242E-02  -2.1503711E-01   0.0000000E+00   8.9060254E-02  -2.0356941E-01   0.0000000E+00   6.1314084E-02  -2.0653205E-01   0.0000000E+00   6.6229887E-02  -2.0930226E-01   0.0000000E+00   7.2402999E-02  -2.1116664E-01   0.0000000E+00   8.1147015E-02  -2.1210837E-01   0.0000000E+00   9.1302536E-02  -2.1397372E-01   0.0000000E+00   9.4738409E-02  -2.1406277E-01   0.0000000E+00   1.0027752E-01  -2.1332097E-01   0.0000000E+00   1.0471559E-01  -1.9843312E-01   0.0000000E+00   7.9548419E-02  -2.0084247E-01   0.0000000E+00   8.6108185E-02  -2.0290934E-01   0.0000000E+00   9.4069630E-02  -2.0387541E-01   0.0000000E+00   1.0401956E-01  -2.0448963E-01   0.0000000E+00   1.1117934E-01  -2.0664230E-01   0.0000000E+00   1.0841984E-01  -2.0174511E-01   0.0000000E+00   1.1161955E-01  -1.8398006E-01   0.0000000E+00   1.1605016E-01  -1.7468607E-01   0.0000000E+00   1.0471791E-01  -1.7677963E-01   0.0000000E+00   1.1227261E-01  -1.7811374E-01   0.0000000E+00   1.2067537E-01  -1.7757750E-01   0.0000000E+00   1.2615867E-01  -1.7287096E-01   0.0000000E+00   1.2583698E-01  -1.6222523E-01   0.0000000E+00   1.1877468E-01  -1.4516553E-01   0.0000000E+00   1.2160386E-01  -1.2475399E-01   0.0000000E+00   1.2498195E-01  -1.1435214E-01   0.0000000E+00   1.1054451E-01  -1.1535491E-01   0.0000000E+00   1.1753049E-01  -1.1552064E-01   0.0000000E+00   1.2451404E-01  -1.1357173E-01   0.0000000E+00   1.2831518E-01  -1.0821003E-01   0.0000000E+00   1.2708271E-01  -9.9382743E-02   0.0000000E+00   1.2199499E-01  -8.7839700E-02   0.0000000E+00   1.2989768E-01  -7.4632630E-02   0.0000000E+00   1.3296740E-01  -6.5464981E-02   0.0000000E+00   1.1199991E-01  -6.5336317E-02   0.0000000E+00   1.1789531E-01  -6.4587958E-02   0.0000000E+00   1.2353925E-01  -6.2569126E-02   0.0000000E+00   1.2653461E-01  -5.8781531E-02   0.0000000E+00   1.2573496E-01  -5.3369001E-02   0.0000000E+00   1.2319171E-01  -4.7017071E-02   0.0000000E+00   1.3701339E-01  -3.9720453E-02   0.0000000E+00   1.3897343E-01  -2.8834241E-02   0.0000000E+00   1.1171573E-01  -2.8190091E-02   0.0000000E+00   1.1677480E-01  -2.7228324E-02   0.0000000E+00   1.2170464E-01  -2.5729157E-02   0.0000000E+00   1.2488240E-01  -2.3686679E-02   0.0000000E+00   1.2482136E-01  -2.1372290E-02   0.0000000E+00   1.2423839E-01  -1.9142352E-02   0.0000000E+00   1.4200060E-01  -1.6535899E-02   0.0000000E+00   1.4298831E-01   1.4469745E-03   0.0000000E+00   1.1049897E-01   2.3185962E-03   0.0000000E+00   1.1515392E-01   3.2008360E-03   0.0000000E+00   1.1997750E-01   3.9832457E-03   0.0000000E+00   1.2418763E-01   4.3666107E-03   0.0000000E+00   1.2500115E-01   4.0226290E-03   0.0000000E+00   1.2566666E-01   3.0332548E-03   0.0000000E+00   1.4479986E-01   1.8324573E-03   0.0000000E+00   1.4510897E-01   3.0737281E-02   0.0000000E+00   1.0875536E-01   3.1884290E-02   0.0000000E+00   1.1340934E-01   3.2807451E-02   0.0000000E+00   1.1850176E-01   3.3073504E-02   0.0000000E+00   1.2428501E-01   3.2063056E-02   0.0000000E+00   1.2607008E-01   2.9534722E-02   0.0000000E+00   1.2688085E-01   2.5979174E-02   0.0000000E+00   1.4540304E-01   2.1382103E-02   0.0000000E+00   1.4547308E-01   6.1360609E-02   0.0000000E+00   1.0652290E-01   6.3022688E-02   0.0000000E+00   1.1138490E-01   6.4333282E-02   0.0000000E+00   1.1686041E-01   6.4519390E-02   0.0000000E+00   1.2370660E-01   6.2452819E-02   0.0000000E+00   1.2616093E-01   5.8182385E-02   0.0000000E+00   1.2652028E-01   5.2354258E-02   0.0000000E+00   1.4377530E-01   4.4543058E-02   0.0000000E+00   1.4393698E-01   9.2658371E-02   0.0000000E+00   1.0360853E-01   9.5085345E-02   0.0000000E+00   1.0871137E-01   9.7127430E-02   0.0000000E+00   1.1448964E-01   9.7668305E-02   0.0000000E+00   1.2182728E-01   9.4875500E-02   0.0000000E+00   1.2454534E-01   8.9174330E-02   0.0000000E+00   1.2449942E-01   8.1267767E-02   0.0000000E+00   1.4044702E-01   7.0286304E-02   0.0000000E+00   1.4087510E-01   1.2258452E-01   0.0000000E+00   9.9791773E-02   1.2590599E-01   0.0000000E+00   1.0504536E-01   1.2886553E-01   0.0000000E+00   1.1095680E-01   1.2996560E-01   0.0000000E+00   1.1835818E-01   1.2669802E-01   0.0000000E+00   1.2115915E-01   1.1974309E-01   0.0000000E+00   1.2101985E-01   1.1003264E-01   0.0000000E+00   1.3584174E-01   9.6068181E-02   0.0000000E+00   1.3658477E-01   1.4906953E-01   0.0000000E+00   9.4963610E-02   1.5325628E-01   0.0000000E+00   1.0022181E-01   1.5711597E-01   0.0000000E+00   1.0607617E-01   1.5851074E-01   0.0000000E+00   1.1291263E-01   1.5484600E-01   0.0000000E+00   1.1610361E-01   1.4700881E-01   0.0000000E+00   1.1631490E-01   1.3598315E-01   0.0000000E+00   1.3037792E-01   1.1944629E-01   0.0000000E+00   1.3131052E-01   1.6738993E-01   0.0000000E+00   8.9203715E-02   1.7324132E-01   0.0000000E+00   9.4376020E-02   1.7896371E-01   0.0000000E+00   9.9981934E-02   1.8111743E-01   0.0000000E+00   1.0564925E-01   1.7712678E-01   0.0000000E+00   1.0957338E-01   1.6914785E-01   0.0000000E+00   1.1075091E-01   1.5688747E-01   0.0000000E+00   1.2410066E-01   1.3862705E-01   0.0000000E+00   1.2529154E-01   1.7200793E-01   0.0000000E+00   8.2871690E-02   1.7864487E-01   0.0000000E+00   8.8088505E-02   1.8593517E-01   0.0000000E+00   9.3513131E-02   1.9248186E-01   0.0000000E+00   9.8399520E-02   1.9264464E-01   0.0000000E+00   1.0162470E-01   1.8523313E-01   0.0000000E+00   1.0430012E-01   1.7185892E-01   0.0000000E+00   1.1662121E-01   1.5283105E-01   0.0000000E+00   1.1869743E-01   1.7228605E-01   0.0000000E+00   7.6489605E-02   1.7912686E-01   0.0000000E+00   8.1729136E-02   1.8667175E-01   0.0000000E+00   8.6890273E-02   1.9426164E-01   0.0000000E+00   9.2069484E-02   1.9951355E-01   0.0000000E+00   9.4402283E-02   1.9601050E-01   0.0000000E+00   9.6921250E-02   1.8239129E-01   0.0000000E+00   1.0846158E-01   1.6338116E-01   0.0000000E+00   1.1153007E-01   1.7107818E-01   0.0000000E+00   7.0560522E-02   1.7810394E-01   0.0000000E+00   7.5704597E-02   1.8588960E-01   0.0000000E+00   8.0412149E-02   1.9397119E-01   0.0000000E+00   8.5593686E-02   2.0036635E-01   0.0000000E+00   8.7693147E-02   2.0221794E-01   0.0000000E+00   8.9257523E-02   1.9097480E-01   0.0000000E+00   1.0006540E-01   1.7283900E-01   0.0000000E+00   1.0384833E-01   1.6907971E-01   0.0000000E+00   6.5201879E-02   1.7636687E-01   0.0000000E+00   6.9943003E-02   1.8433541E-01   0.0000000E+00   7.4429534E-02   1.9273411E-01   0.0000000E+00   7.8897558E-02   2.0010823E-01   0.0000000E+00   8.0962285E-02   2.0440815E-01   0.0000000E+00   8.1517152E-02   1.9863813E-01   0.0000000E+00   9.1568112E-02   1.8313172E-01   0.0000000E+00   9.5978647E-02   1.6661549E-01   0.0000000E+00   6.0084995E-02   1.7410956E-01   0.0000000E+00   6.4704575E-02   1.8250860E-01   0.0000000E+00   6.8962142E-02   1.9131429E-01   0.0000000E+00   7.2391845E-02   1.9951493E-01   0.0000000E+00   7.4117087E-02   2.0539752E-01   0.0000000E+00   7.4078180E-02   2.0584422E-01   0.0000000E+00   8.2650162E-02   1.9573008E-01   0.0000000E+00   8.8058911E-02   1.6358282E-01   0.0000000E+00   5.5235971E-02   1.7157133E-01   0.0000000E+00   5.9638157E-02   1.8039908E-01   0.0000000E+00   6.3161977E-02   1.8990776E-01   0.0000000E+00   6.6049621E-02   1.9898927E-01   0.0000000E+00   6.7372404E-02   2.0656878E-01   0.0000000E+00   6.7251980E-02   2.1367250E-01   0.0000000E+00   7.3943898E-02   2.1316443E-01   0.0000000E+00   7.9426005E-02   1.6019306E-01   0.0000000E+00   5.0469257E-02   1.6876478E-01   0.0000000E+00   5.4339398E-02   1.7821735E-01   0.0000000E+00   5.7189167E-02   1.8865423E-01   0.0000000E+00   5.9710875E-02   1.9862328E-01   0.0000000E+00   6.1003216E-02   2.0866945E-01   0.0000000E+00   6.1148889E-02   2.2018121E-01   0.0000000E+00   6.5849043E-02   2.2909616E-01   0.0000000E+00   6.8978608E-02   1.5671960E-01   0.0000000E+00   4.5643721E-02   1.6575900E-01   0.0000000E+00   4.8561625E-02   1.7616956E-01   0.0000000E+00   5.1142164E-02   1.8751656E-01   0.0000000E+00   5.3636894E-02   1.9824955E-01   0.0000000E+00   5.4540094E-02   2.1013500E-01   0.0000000E+00   5.5096604E-02   2.2378820E-01   0.0000000E+00   5.8942385E-02   2.3509213E-01   0.0000000E+00   6.0777958E-02   1.5321060E-01   0.0000000E+00   4.0242720E-02   1.6305873E-01   0.0000000E+00   4.2790476E-02   1.7441197E-01   0.0000000E+00   4.5212489E-02   1.8649112E-01   0.0000000E+00   4.7246881E-02   1.9784164E-01   0.0000000E+00   4.7749560E-02   2.1028663E-01   0.0000000E+00   4.8818290E-02   2.2486299E-01   0.0000000E+00   5.2646611E-02   1.5016913E-01   0.0000000E+00   3.4786098E-02   1.6086492E-01   0.0000000E+00   3.7059631E-02   1.7301835E-01   0.0000000E+00   3.9216805E-02   1.8561110E-01   0.0000000E+00   4.0768094E-02   1.9724068E-01   0.0000000E+00   4.1112162E-02   2.1019883E-01   0.0000000E+00   4.3456335E-02   2.2308686E-01   0.0000000E+00   4.7096387E-02   1.4781293E-01   0.0000000E+00   2.9547431E-02   1.5935937E-01   0.0000000E+00   3.1686712E-02   1.7221314E-01   0.0000000E+00   3.3858314E-02   1.8519439E-01   0.0000000E+00   3.5349313E-02   1.9679938E-01   0.0000000E+00   3.6327470E-02   2.0965792E-01   0.0000000E+00   3.9909624E-02   1.4630726E-01   0.0000000E+00   2.4903087E-02   1.5875986E-01   0.0000000E+00   2.7361454E-02   1.7245114E-01   0.0000000E+00   2.9934380E-02   1.8530087E-01   0.0000000E+00   3.1616263E-02   1.9718224E-01   0.0000000E+00   3.4194153E-02   2.0710045E-01   0.0000000E+00   3.7217930E-02   1.4614159E-01   0.0000000E+00   2.1731861E-02   1.6003653E-01   0.0000000E+00   2.5180249E-02   1.7370510E-01   0.0000000E+00   2.7954467E-02   1.8572588E-01   0.0000000E+00   3.0107774E-02   1.9588397E-01   0.0000000E+00   3.3169083E-02   1.4855337E-01   0.0000000E+00   2.1219904E-02   1.6242360E-01   0.0000000E+00   2.4602668E-02   1.7514867E-01   0.0000000E+00   2.7647186E-02   1.8459035E-01   0.0000000E+00   2.9696112E-02   1.5134603E-01   0.0000000E+00   2.1649787E-02   1.6332506E-01   0.0000000E+00   2.4595972E-02   1.7374285E-01   0.0000000E+00   2.7474957E-02   1.7813191E-01   0.0000000E+00   2.7195040E-02   1.5084952E-01   0.0000000E+00   2.0970590E-02   1.5999641E-01   0.0000000E+00   2.3240771E-02   1.4597005E-01   0.0000000E+00   1.9034499E-02 
Rhop 1 2975 float
  1.0000000E+03   1.0000000E+03   1.0000000E+03   1.0000000E+03   1.0000000E+03   1.0000000E+03   1.0000000E+03   1.0000000E+03   1.0000000E+03   1.0000000E+03   1.0000000E+03   1.0000000E+03   1.0000000E+03   1.0000000E+03   1.0000000E+03   1.0000000E+03   1.0000000E+03   1.0000000E+03   1.0000000E+03   1.0000000E+03   1.0000000E+03   1.0000001E+03   1.0000003E+03   1.0000001E+03   1.0000004E+03   1.0000010E+03   1.0000003E+03   1.0000009E+03   1.0000020E+03   1.0000006E+03   1.0000017E+03   1.0000031E+03   1.0000011E+03   1.0000025E+03   1.0000046E+03   1.0000015E+03   1.0000034E+03   1.0000060E+03   1.0000020E+03   1.0000043E+03   1.0000077E+03   1.0000024E+03   1.0000053E+03   1.0000093E+03   1.0000029E+03   1.0000064E+03   1.0000113E+03   1.0000037E+03   1.0000079E+03   1.0000140E+03   1.0000047E+03   1.0000103E+03   1.0000179E+03   1.0000063E+03   1.0000140E+03   1.0000245E+03   1.0000094E+03   1.0000200E+03   1.0000344E+03   1.0000146E+03   1.0000291E+03   1.0000485E+03   1.0000421E+03   1.0000665E+03   1.0000000E+03   1.0000000E+03   1.0000000E+03   1.0000000E+03   1.0000000E+03   1.0000000E+03   1.0000000E+03   1.0000000E+03   1.0000000E+03   1.0000000E+03   1.0000000E+03   1.0000000E+03   1.0000000E+03   1.0000000E+03   1.0000000E+03   1.0000000E+03   1.0000000E+03   1.0000000E+03   1.0000000E+03   1.0000000E+03   1.0000000E+03   1.0000000E+03   1.0000000E+03   1.0000000E+03   1.0000000E+03   1.0000000E+03   1.0000000E+03   1.0000000E+03   1.0000000E+03   1.0000000E+03   1.0000000E+03   1.0000000E+03   1.0000000E+03   1.0000000E+03   1.0000000E+03   1.0000000E+03   1.0000000E+03   1.0000000E+03   1.0000000E+03   1.0000000E+03   1.0000000E+03   1.0000000E+03   1.0000002E+03   1.0000002E+03   1.0000003E+03   1.0000004E+03   1.0000005E+03   1.0000005E+03   1.0000002E+03   1.0000004E+03   1.0000007E+03   1.0000010E+03   1.0000013E+03   1.0000016E+03   1.0000017E+03   1.0000020E+03   1.0000008E+03   1.0000013E+03   1.0000020E+03   1.0000026E+03   1.0000033E+03   1.0000038E+03   1.0000042E+03   1.0000046E+03   1.0000017E+03   1.0000027E+03   1.0000040E+03   1.0000053E+03   1.0000065E+03   1.0000076E+03   1.0000085E+03   1.0000090E+03   1.0000032E+03   1.0000048E+03   1.0000068E+03   1.0000090E+03   1.0000110E+03   1.0000126E+03   1.0000141E+03   1.0000151E+03   1.0000051E+03   1.0000077E+03   1.0000107E+03   1.0000137E+03   1.0000166E+03   1.0000189E+03   1.0000208E+03   1.0000222E+03   1.0000073E+03   1.0000107E+03   1.0000146E+03   1.0000096E+03   1.0000139E+03   1.0000119E+03   1.0000170E+03   1.0000144E+03   1.0000204E+03   1.0000173E+03   1.0000247E+03   1.0000214E+03   1.0000304E+03   1.0000277E+03   1.0000388E+03   1.0000374E+03   1.0000514E+03   1.0000517E+03   1.0000698E+03   1.0000718E+03   1.0000950E+03   1.0000968E+03   1.0001262E+03   1.0000000E+03   1.0000000E+03   1.0000000E+03   1.0000000E+03   1.0000000E+03   1.0000000E+03   1.0000000E+03   1.0000000E+03   1.0000000E+03   1.0000000E+03   1.0000000E+03   1.0000000E+03   1.0000000E+03   1.0000000E+03   1.0000000E+03   1.0000000E+03   1.0000000E+03   1.0000000E+03   1.0000000E+03   1.0000000E+03   1.0000000E+03   1.0000000E+03   1.0000000E+03   1.0000000E+03   1.0000000E+03   1.0000000E+03   1.0000000E+03   1.0000000E+03   1.0000000E+03   1.0000000E+03   1.0000000E+03   1.0000000E+03   1.0000000E+03   1.0000000E+03   1.0000000E+03   1.0000000E+03   1.0000000E+03   1.0000000E+03   1.0000000E+03   1.0000000E+03   1.0000000E+03   1.0000000E+03   1.0000000E+03   1.0000000E+03   1.0000000E+03   1.0000006E+03   1.0000006E+03   1.0000006E+03   1.0000006E+03   1.0000006E+03   1.0000006E+03   1.0000006E+03   1.0000006E+03   1.0000006E+03   1.0000020E+03   1.0000020E+03   1.0000021E+03   1.0000021E+03   1.0000022E+03   1.0000022E+03   1.0000022E+03   1.0000022E+03   1.0000022E+03   1.0000048E+03   1.0000051E+03   1.0000051E+03   1.0000053E+03   1.0000054E+03   1.0000054E+03   1.0000054E+03   1.0000054E+03   1.0000054E+03   1.0000095E+03   1.0000099E+03   1.0000101E+03   1.0000104E+03   1.0000104E+03   1.0000104E+03   1.0000105E+03   1.0000105E+03   1.0000105E+03   1.0000158E+03   1.0000165E+03   1.0000168E+03   1.0000172E+03   1.0000174E+03   1.0000175E+03   1.0000175E+03   1.0000175E+03   1.0000176E+03   1.0000234E+03   1.0000241E+03   1.0000245E+03   1.0000250E+03   1.0000253E+03   1.0000254E+03   1.0000255E+03   1.0000255E+03   1.0000256E+03   1.0000000E+03   1.0000000E+03   1.0000000E+03   1.0000000E+03   1.0000000E+03   1.0000000E+03   1.0000000E+03   1.0000000E+03   1.0000000E+03   1.0000000E+03   1.0000000E+03   1.0000000E+03   1.0000000E+03   1.0000000E+03   1.0000000E+03   1.0000000E+03   1.0000000E+03   1.0000000E+03   1.0000000E+03   1.0000000E+03   1.0000000E+03   1.0000000E+03   1.0000000E+03   1.0000000E+03   1.0000000E+03   1.0000000E+03   1.0000000E+03   1.0000000E+03   1.0000000E+03   1.0000000E+03   1.0000000E+03   1.0000000E+03   1.0000000E+03   1.0000000E+03   1.0000000E+03   1.0000000E+03   1.0000000E+03   1.0000000E+03   1.0000000E+03   1.0000000E+03   1.0000006E+03   1.0000006E+03   1.0000006E+03   1.0000006E+03   1.0000006E+03   1.0000006E+03   1.0000006E+03   1.0000006E+03   1.0000022E+03   1.0000022E+03   1.0000022E+03   1.0000022E+03   1.0000022E+03   1.0000022E+03   1.0000021E+03   1.0000021E+03   1.0000054E+03   1.0000054E+03   1.0000054E+03   1.0000054E+03   1.0000054E+03   1.0000054E+03   1.0000053E+03   1.0000051E+03   1.0000105E+03   1.0000105E+03   1.0000105E+03   1.0000105E+03   1.0000104E+03   1.0000104E+03   1.0000104E+03   1.0000101E+03   1.0000176E+03   1.0000176E+03   1.0000175E+03   1.0000175E+03   1.0000175E+03   1.0000174E+03   1.0000172E+03   1.0000168E+03   1.0000256E+03   1.0000256E+03   1.0000255E+03   1.0000255E+03   1.0000254E+03   1.0000253E+03   1.0000250E+03   1.0000245E+03   1.0000000E+03   1.0000000E+03   1.0000000E+03   1.0000000E+03   1.0000000E+03   1.0000000E+03   1.0000000E+03   1.0000000E+03   1.0000000E+03   1.0000000E+03   1.0000000E+03   1.0000000E+03   1.0000000E+03   1.0000000E+03   1.0000000E+03   1.0000000E+03   1.0000000E+03   1.0000000E+03   1.0000000E+03   1.0000000E+03   1.0000000E+03   1.0000000E+03   1.0000000E+03   1.0000000E+03   1.0000000E+03   1.0000000E+03   1.0000000E+03   1.0000000E+03   1.0000000E+03   1.0000000E+03   1.0000000E+03   1.0000000E+03   1.0000000E+03   1.0000000E+03   1.0000000E+03   1.0000000E+03   1.0000000E+03   1.0000000E+03   1.0000000E+03   1.0000000E+03   1.0000000E+03   1.0000000E+03   1.0000000E+03   1.0000000E+03   1.0000000E+03   1.0000006E+03   1.0000006E+03   1.0000005E+03   1.0000005E+03   1.0000004E+03   1.0000003E+03   1.0000002E+03   1.0000002E+03   1.0000000E+03   1.0000020E+03   1.0000020E+03   1.0000020E+03   1.0000017E+03   1.0000016E+03   1.0000013E+03   1.0000010E+03   1.0000007E+03   1.0000004E+03   1.0000051E+03   1.0000048E+03   1.0000046E+03   1.0000042E+03   1.0000038E+03   1.0000033E+03   1.0000026E+03   1.0000020E+03   1.0000013E+03   1.0000099E+03   1.0000095E+03   1.0000090E+03   1.0000085E+03   1.0000076E+03   1.0000065E+03   1.0000053E+03   1.0000040E+03   1.0000027E+03   1.0000165E+03   1.0000158E+03   1.0000151E+03   1.0000141E+03   1.0000126E+03   1.0000110E+03   1.0000090E+03   1.0000068E+03   1.0000048E+03   1.0000241E+03   1.0000234E+03   1.0000222E+03   1.0000208E+03   1.0000189E+03   1.0000166E+03   1.0000137E+03   1.0000107E+03   1.0000077E+03   1.0000146E+03   1.0000107E+03   1.0000139E+03   1.0000170E+03   1.0000204E+03   1.0000247E+03   1.0000304E+03   1.0000388E+03   1.0000514E+03   1.0000698E+03   1.0000950E+03   1.0001262E+03   1.0000000E+03   1.0000000E+03   1.0000000E+03   1.0000000E+03   1.0000000E+03   1.0000000E+03   1.0000000E+03   1.0000000E+03   1.0000000E+03   1.0000000E+03   1.0000000E+03   1.0000000E+03   1.0000000E+03   1.0000000E+03   1.0000000E+03   1.0000000E+03   1.0000000E+03   1.0000000E+03   1.0000000E+03   1.0000000E+03   1.0000000E+03   1.0000000E+03   1.0000000E+03   1.0000002E+03   1.0000000E+03   1.0000000E+03   1.0000000E+03   1.0000008E+03   1.0000003E+03   1.0000001E+03   1.0000000E+03   1.0000017E+03   1.0000010E+03   1.0000004E+03   1.0000001E+03   1.0000032E+03   1.0000020E+03   1.0000009E+03   1.0000003E+03   1.0000051E+03   1.0000031E+03   1.0000017E+03   1.0000006E+03   1.0000073E+03   1.0000046E+03   1.0000025E+03   1.0000011E+03   1.0000096E+03   1.0000060E+03   1.0000034E+03   1.0000015E+03   1.0000119E+03   1.0000077E+03   1.0000043E+03   1.0000020E+03   1.0000144E+03   1.0000093E+03   1.0000053E+03   1.0000024E+03   1.0000173E+03   1.0000113E+03   1.0000064E+03   1.0000029E+03   1.0000214E+03   1.0000140E+03   1.0000079E+03   1.0000037E+03   1.0000277E+03   1.0000179E+03   1.0000103E+03   1.0000047E+03   1.0000374E+03   1.0000245E+03   1.0000140E+03   1.0000063E+03   1.0000517E+03   1.0000344E+03   1.0000200E+03   1.0000094E+03   1.0000718E+03   1.0000485E+03   1.0000291E+03   1.0000146E+03   1.0000968E+03   1.0000665E+03   1.0000421E+03   1.0000000E+03   1.0000000E+03   1.0000000E+03   1.0000000E+03   1.0000000E+03   1.0000000E+03   1.0000000E+03   1.0000000E+03   1.0000000E+03   1.0000000E+03   1.0000000E+03   1.0000000E+03   1.0000000E+03   1.0000000E+03   1.0000000E+03   1.0000000E+03   1.0000000E+03   1.0000000E+03   1.0000000E+03   1.0000000E+03   1.0000000E+03   1.0000000E+03   1.0000000E+03   1.0000000E+03   1.0000000E+03   1.0000000E+03   1.0000000E+03   1.0000000E+03   1.0000000E+03   1.0000000E+03   1.0000000E+03   1.0000000E+03   1.0000000E+03   1.0000000E+03   1.0000000E+03   1.0000000E+03   1.0000000E+03   1.0000000E+03   1.0000000E+03   1.0000000E+03   1.0000000E+03   1.0000000E+03   1.0000000E+03   1.0000000E+03   1.0000000E+03   1.0000000E+03   1.0000000E+03   1.0000000E+03   1.0000000E+03   1.0000000E+03   1.0000000E+03   1.0000000E+03   1.0000000E+03   1.0000000E+03   1.0000000E+03   1.0000000E+03   1.0000000E+03   1.0000000E+03   1.0000000E+03   1.0000000E+03   1.0000000E+03   1.0000000E+03   1.0000000E+03   1.0000000E+03   1.0000000E+03   1.0000000E+03   1.0000000E+03   1.0000000E+03   1.0000000E+03   1.0000000E+03   1.0000000E+03   1.0000000E+03   1.0000000E+03   1.0000000E+03   1.0000000E+03   1.0000000E+03   1.0000000E+03   1.0000000E+03   1.0000000E+03   1.0000000E+03   1.0000000E+03   1.0000000E+03   1.0000000E+03   1.0000000E+03   1.0000000E+03   1.0000000E+03   1.0000000E+03   1.0000000E+03   1.0000000E+03   1.0000000E+03   1.0000000E+03   1.0000000E+03   1.0000000E+03   1.0000000E+03   1.0000000E+03   1.0000000E+03   1.0000000E+03   1.0000000E+03   1.0000000E+03   1.0000000E+03   1.0000000E+03   1.0000000E+03   1.0000000E+03   1.0000000E+03   1.0000000E+03   1.0000000E+03   1.0000000E+03   1.0000000E+03   1.0000000E+03   1.0000000E+03   1.0000000E+03   1.0000000E+03   1.0000000E+03   1.0000000E+03   1.0000000E+03   1.0000000E+03   1.0000000E+03   1.0000000E+03   1.0000000E+03   1.0000000E+03   1.0000000E+03   1.0000000E+03   1.0000000E+03   1.0000000E+03   1.0000000E+03   1.0000000E+03   1.0000000E+03   1.0000000E+03   1.0000000E+03   1.0000000E+03   1.0000000E+03   1.0000000E+03   1.0000000E+03   1.0000000E+03   1.0000000E+03   1.0000000E+03   1.0000000E+03   1.0000000E+03   1.0000000E+03   1.0000000E+03   1.0000000E+03   1.0000000E+03   1.0000000E+03   1.0000000E+03   1.0000000E+03   1.0000000E+03   1.0000000E+03   1.0000000E+03   1.0000000E+03   1.0000000E+03   1.0000000E+03   1.0000000E+03   1.0000000E+03   1.0000000E+03   1.0000000E+03   1.0000000E+03   1.0000000E+03   1.0000000E+03   1.0000000E+03   1.0000000E+03   1.0000000E+03   1.0000000E+03   1.0000000E+03   1.0000000E+03   1.0000000E+03   1.0000000E+03   1.0000000E+03   1.0000000E+03   1.0000000E+03   1.0000000E+03   1.0000000E+03   1.0000000E+03   1.0000000E+03   1.0000000E+03   1.0000000E+03   1.0000000E+03   1.0000000E+03   1.0000000E+03   1.0000000E+03   1.0000000E+03   1.0000000E+03   1.0000000E+03   1.0000000E+03   1.0000000E+03   1.0000000E+03   1.0000000E+03   1.0000000E+03   1.0000000E+03   1.0000000E+03   1.0000000E+03   1.0000000E+03   1.0000000E+03   1.0000000E+03   1.0000000E+03   1.0000000E+03   1.0000000E+03   1.0000000E+03   1.0000000E+03   1.0000000E+03   1.0000000E+03   1.0000000E+03   1.0000000E+03   1.0000000E+03   1.0000000E+03   1.0000000E+03   1.0000000E+03   1.0000000E+03   1.0000000E+03   1.0000000E+03   1.0000000E+03   1.0000000E+03   1.0000000E+03   1.0000000E+03   1.0000000E+03   1.0000000E+03   1.0000000E+03   1.0000000E+03   1.0000000E+03   1.0000000E+03   1.0000000E+03   1.0000000E+03   1.0000000E+03   1.0000000E+03   1.0000000E+03   1.0000000E+03   1.0000000E+03   1.0000000E+03   1.0000000E+03   1.0000000E+03   1.0000000E+03   1.0000000E+03   1.0000000E+03   1.0000000E+03   1.0000000E+03   1.0000000E+03   1.0000000E+03   1.0000000E+03   1.0000000E+03   1.0000000E+03   1.0000000E+03   1.0000000E+03   1.0000000E+03   1.0000000E+03   1.0000000E+03   1.0000000E+03   1.0000000E+03   1.0000000E+03   1.0000000E+03   1.0000000E+03   1.0000000E+03   1.0000000E+03   1.0000000E+03   1.0000000E+03   1.0000000E+03   1.0000000E+03   1.0000000E+03   1.0000000E+03   1.0000000E+03   1.0000000E+03   1.0000000E+03   1.0000000E+03   1.0000000E+03   1.0000000E+03   1.0000000E+03   1.0000000E+03   1.0000000E+03   1.0000000E+03   1.0000000E+03   1.0000000E+03   1.0000000E+03   1.0000000E+03   1.0000000E+03   1.0000000E+03   1.0000000E+03   1.0000000E+03   1.0000000E+03   1.0000000E+03   1.0000000E+03   1.0000000E+03   1.0000000E+03   1.0000000E+03   1.0000000E+03   1.0000000E+03   1.0000000E+03   1.0000000E+03   1.0000000E+03   1.0000000E+03   1.0000000E+03   1.0000000E+03   1.0000000E+03   1.0000000E+03   1.0000000E+03   1.0000000E+03   1.0000000E+03   1.0000000E+03   1.0000000E+03   1.0000000E+03   1.0000000E+03   1.0000000E+03   1.0000000E+03   1.0000000E+03   1.0000000E+03   1.0000000E+03   1.0000000E+03   1.0000000E+03   1.0000000E+03   1.0000000E+03   1.0000000E+03   1.0000000E+03   1.0000000E+03   1.0000000E+03   1.0000000E+03   1.0000000E+03   1.0000000E+03   1.0000000E+03   1.0000000E+03   1.0000000E+03   1.0000000E+03   1.0000000E+03   1.0000000E+03   1.0000000E+03   1.0000000E+03   1.0000000E+03   1.0000000E+03   1.0000000E+03   1.0000000E+03   1.0000000E+03   1.0000000E+03   1.0000000E+03   1.0000000E+03   1.0000000E+03   1.0000000E+03   1.0000000E+03   1.0000000E+03   1.0000000E+03   1.0000000E+03   1.0000000E+03   1.0000000E+03   1.0000000E+03   1.0000000E+03   1.0000000E+03   1.0000000E+03   1.0000000E+03   1.0000000E+03   1.0000000E+03   1.0000000E+03   1.0000000E+03   1.0000000E+03   1.0000000E+03   1.0000000E+03   1.0000000E+03   1.0000000E+03   1.0000000E+03   1.0000000E+03   1.0000000E+03   1.0000000E+03   1.0000000E+03   1.0000000E+03   1.0000000E+03   1.0000000E+03   1.0000000E+03   1.0000000E+03   1.0000000E+03   1.0000000E+03   1.0000000E+03   1.0000000E+03   1.0000000E+03   1.0000000E+03   1.0000000E+03   1.0000000E+03   1.0000000E+03   1.0000000E+03   1.0000000E+03   1.0000000E+03   1.0000000E+03   1.0000000E+03   1.0000000E+03   1.0000000E+03   1.0000000E+03   1.0000000E+03   1.0000000E+03   1.0000000E+03   1.0000000E+03   1.0000000E+03   1.0000000E+03   1.0000000E+03   1.0000000E+03   1.0000000E+03   1.0000000E+03   1.0000000E+03   1.0000000E+03   1.0000000E+03   1.0000000E+03   1.0000000E+03   1.0000000E+03   1.0000000E+03   1.0000000E+03   1.0000000E+03   1.0000000E+03   1.0000000E+03   1.0000000E+03   1.0000000E+03   1.0000000E+03   1.0000000E+03   1.0000000E+03   1.0000000E+03   1.0000000E+03   1.0000000E+03   1.0000000E+03   1.0000000E+03   1.0000000E+03   1.0000000E+03   1.0000000E+03   1.0000000E+03   1.0000000E+03   1.0000000E+03   1.0000000E+03   1.0000000E+03   1.0000000E+03   1.0000000E+03   1.0000000E+03   1.0000000E+03   1.0000000E+03   1.0000000E+03   1.0000000E+03   1.0000000E+03   1.0000000E+03   1.0000000E+03   1.0000000E+03   1.0000000E+03   1.0000000E+03   1.0000000E+03   1.0000000E+03   1.0000000E+03   1.0000000E+03   1.0000000E+03   1.0000000E+03   1.0000000E+03   1.0000000E+03   1.0000000E+03   1.0000000E+03   1.0000000E+03   1.0000000E+03   1.0000000E+03   1.0000000E+03   1.0000000E+03   1.0000000E+03   1.0000000E+03   1.0000000E+03   1.0000000E+03   1.0000000E+03   1.0000000E+03   1.0000000E+03   1.0000000E+03   1.0000000E+03   1.0000000E+03   1.0000000E+03   1.0000000E+03   1.0000000E+03   1.0000000E+03   1.0000000E+03   1.0000000E+03   1.0000000E+03   1.0000000E+03   1.0000000E+03   1.0000000E+03   1.0000000E+03   1.0000000E+03   1.0000000E+03   1.0000000E+03   1.0000000E+03   1.0000000E+03   1.0000186E+03   1.0000221E+03   1.0000251E+03   1.0000275E+03   1.0000292E+03   1.0000184E+03   1.0000234E+03   1.0000275E+03   1.0000309E+03   1.0000336E+03   1.0000355E+03   1.0000225E+03   1.0000281E+03   1.0000330E+03   1.0000369E+03   1.0000397E+03   1.0000418E+03   1.0000268E+03   1.0000336E+03   1.0000391E+03   1.0000434E+03   1.0000466E+03   1.0000488E+03   1.0000324E+03   1.0000400E+03   1.0000463E+03   1.0000513E+03   1.0000549E+03   1.0000570E+03   1.0000397E+03   1.0000488E+03   1.0000560E+03   1.0000612E+03   1.0000649E+03   1.0000673E+03   1.0000515E+03   1.0000613E+03   1.0000690E+03   1.0000739E+03   1.0000775E+03   1.0000801E+03   1.0000700E+03   1.0000801E+03   1.0000863E+03   1.0000905E+03   1.0000933E+03   1.0000952E+03   1.0000981E+03   1.0001069E+03   1.0001098E+03   1.0001114E+03   1.0001124E+03   1.0001135E+03   1.0001378E+03   1.0001414E+03   1.0001389E+03   1.0001360E+03   1.0001347E+03   1.0001344E+03   1.0001854E+03   1.0001815E+03   1.0001716E+03   1.0001639E+03   1.0001598E+03   1.0001584E+03   1.0002267E+03   1.0002199E+03   1.0002046E+03   1.0001932E+03   1.0001876E+03   1.0001853E+03   1.0002435E+03   1.0002474E+03   1.0002344E+03   1.0002234E+03   1.0002174E+03   1.0002151E+03   1.0002527E+03   1.0002667E+03   1.0002621E+03   1.0002544E+03   1.0002503E+03   1.0002490E+03   1.0002728E+03   1.0002896E+03   1.0002927E+03   1.0002894E+03   1.0002878E+03   1.0002874E+03   1.0003087E+03   1.0003246E+03   1.0003308E+03   1.0003309E+03   1.0003309E+03   1.0003312E+03   1.0003589E+03   1.0003727E+03   1.0003791E+03   1.0003804E+03   1.0003813E+03   1.0003822E+03   1.0004205E+03   1.0004321E+03   1.0004376E+03   1.0004387E+03   1.0004399E+03   1.0004408E+03   1.0004911E+03   1.0005015E+03   1.0005061E+03   1.0005068E+03   1.0005078E+03   1.0005086E+03   1.0005720E+03   1.0005823E+03   1.0005859E+03   1.0005858E+03   1.0005864E+03   1.0005867E+03   1.0006660E+03   1.0006762E+03   1.0006786E+03   1.0006774E+03   1.0006772E+03   1.0006765E+03   1.0007759E+03   1.0007852E+03   1.0007866E+03   1.0007837E+03   1.0007816E+03   1.0007791E+03   1.0009033E+03   1.0009118E+03   1.0009119E+03   1.0009059E+03   1.0009008E+03   1.0008952E+03   1.0010505E+03   1.0010582E+03   1.0010567E+03   1.0010460E+03   1.0010356E+03   1.0010256E+03   1.0012155E+03   1.0012242E+03   1.0012203E+03   1.0012010E+03   1.0011827E+03   1.0011665E+03   1.0013926E+03   1.0014042E+03   1.0013957E+03   1.0013627E+03   1.0013335E+03   1.0013090E+03   1.0015749E+03   1.0015925E+03   1.0015748E+03   1.0015208E+03   1.0014782E+03   1.0014453E+03   1.0017534E+03   1.0017780E+03   1.0017432E+03   1.0016621E+03   1.0016052E+03   1.0015654E+03   1.0019373E+03   1.0019675E+03   1.0019070E+03   1.0017958E+03   1.0017274E+03   1.0016857E+03   1.0021956E+03   1.0022272E+03   1.0021388E+03   1.0020027E+03   1.0019305E+03   1.0018950E+03   1.0027518E+03   1.0027800E+03   1.0026823E+03   1.0025405E+03   1.0024766E+03   1.0024585E+03   1.0040875E+03   1.0041170E+03   1.0040629E+03   1.0039541E+03   1.0039138E+03   1.0039227E+03   1.0066593E+03   1.0067114E+03   1.0067421E+03   1.0067437E+03   1.0067548E+03   1.0067974E+03   1.0098348E+03   1.0099363E+03   1.0100282E+03   1.0101848E+03   1.0102863E+03   1.0103710E+03   1.0120143E+03   1.0121697E+03   1.0122670E+03   1.0125167E+03   1.0127082E+03   1.0128336E+03   1.0127689E+03   1.0129091E+03   1.0129427E+03   1.0132161E+03   1.0134504E+03   1.0136011E+03   1.0127709E+03   1.0129014E+03   1.0128621E+03   1.0130703E+03   1.0132884E+03   1.0134368E+03   1.0126936E+03   1.0128547E+03   1.0127856E+03   1.0128947E+03   1.0130367E+03   1.0131432E+03   1.0127962E+03   1.0129778E+03   1.0129007E+03   1.0129293E+03   1.0130018E+03   1.0130661E+03   1.0130576E+03   1.0132454E+03   1.0131743E+03   1.0131577E+03   1.0131883E+03   1.0132247E+03   1.0133664E+03   1.0135497E+03   1.0134899E+03   1.0134633E+03   1.0134817E+03   1.0135081E+03   1.0136180E+03   1.0137927E+03   1.0137413E+03   1.0137330E+03   1.0137634E+03   1.0137952E+03   1.0135732E+03   1.0137397E+03   1.0136951E+03   1.0137086E+03   1.0137592E+03   1.0138052E+03   1.0132551E+03   1.0134177E+03   1.0133833E+03   1.0134168E+03   1.0134896E+03   1.0135543E+03   1.0127443E+03   1.0129069E+03   1.0128903E+03   1.0129443E+03   1.0130391E+03   1.0131248E+03   1.0121050E+03   1.0122722E+03   1.0122845E+03   1.0123606E+03   1.0124764E+03   1.0125832E+03   1.0113679E+03   1.0115448E+03   1.0115915E+03   1.0116943E+03   1.0118297E+03   1.0119532E+03   1.0105385E+03   1.0107283E+03   1.0108082E+03   1.0109393E+03   1.0110875E+03   1.0112250E+03   1.0096204E+03   1.0098231E+03   1.0099315E+03   1.0100781E+03   1.0102379E+03   1.0103847E+03   1.0086328E+03   1.0088473E+03   1.0089716E+03   1.0091227E+03   1.0092932E+03   1.0094438E+03   1.0076248E+03   1.0078473E+03   1.0079656E+03   1.0081176E+03   1.0082924E+03   1.0084421E+03   1.0066515E+03   1.0068730E+03   1.0069743E+03   1.0071188E+03   1.0072885E+03   1.0074329E+03   1.0057360E+03   1.0059523E+03   1.0060506E+03   1.0061797E+03   1.0063346E+03   1.0064684E+03   1.0048618E+03   1.0050938E+03   1.0052151E+03   1.0053369E+03   1.0054724E+03   1.0055879E+03   1.0040364E+03   1.0043325E+03   1.0044990E+03   1.0046151E+03   1.0047229E+03   1.0048134E+03   1.0036921E+03   1.0039114E+03   1.0040114E+03   1.0040912E+03   1.0041524E+03   1.0031506E+03   1.0033950E+03   1.0035062E+03   1.0035676E+03   1.0036043E+03   1.0028973E+03   1.0030507E+03   1.0031170E+03   1.0031570E+03   1.0024400E+03   1.0025806E+03   1.0026977E+03   1.0027712E+03   1.0021401E+03   1.0022695E+03   1.0023912E+03   1.0018663E+03   1.0019835E+03   1.0016861E+03   1.0016227E+03   1.0000306E+03   1.0000316E+03   1.0000322E+03   1.0000328E+03   1.0000329E+03   1.0000331E+03   1.0000333E+03   1.0000333E+03   1.0000333E+03   1.0000369E+03   1.0000381E+03   1.0000389E+03   1.0000395E+03   1.0000397E+03   1.0000399E+03   1.0000399E+03   1.0000400E+03   1.0000399E+03   1.0000433E+03   1.0000444E+03   1.0000453E+03   1.0000457E+03   1.0000461E+03   1.0000461E+03   1.0000461E+03   1.0000461E+03   1.0000461E+03   1.0000504E+03   1.0000514E+03   1.0000521E+03   1.0000524E+03   1.0000527E+03   1.0000527E+03   1.0000526E+03   1.0000525E+03   1.0000525E+03   1.0000586E+03   1.0000595E+03   1.0000601E+03   1.0000602E+03   1.0000603E+03   1.0000601E+03   1.0000601E+03   1.0000601E+03   1.0000599E+03   1.0000687E+03   1.0000696E+03   1.0000700E+03   1.0000700E+03   1.0000699E+03   1.0000698E+03   1.0000695E+03   1.0000693E+03   1.0000692E+03   1.0000813E+03   1.0000819E+03   1.0000821E+03   1.0000819E+03   1.0000814E+03   1.0000811E+03   1.0000806E+03   1.0000804E+03   1.0000802E+03   1.0000964E+03   1.0000966E+03   1.0000963E+03   1.0000959E+03   1.0000953E+03   1.0000947E+03   1.0000942E+03   1.0000939E+03   1.0000937E+03   1.0001138E+03   1.0001140E+03   1.0001134E+03   1.0001126E+03   1.0001117E+03   1.0001110E+03   1.0001100E+03   1.0001096E+03   1.0001094E+03   1.0001343E+03   1.0001339E+03   1.0001330E+03   1.0001317E+03   1.0001306E+03   1.0001295E+03   1.0001286E+03   1.0001279E+03   1.0001276E+03   1.0001578E+03   1.0001569E+03   1.0001556E+03   1.0001542E+03   1.0001525E+03   1.0001513E+03   1.0001503E+03   1.0001495E+03   1.0001490E+03   1.0001843E+03   1.0001832E+03   1.0001816E+03   1.0001796E+03   1.0001778E+03   1.0001763E+03   1.0001751E+03   1.0001743E+03   1.0001737E+03   1.0002142E+03   1.0002130E+03   1.0002112E+03   1.0002090E+03   1.0002070E+03   1.0002054E+03   1.0002040E+03   1.0002030E+03   1.0002023E+03   1.0002484E+03   1.0002471E+03   1.0002452E+03   1.0002430E+03   1.0002407E+03   1.0002387E+03   1.0002372E+03   1.0002361E+03   1.0002355E+03   1.0002870E+03   1.0002861E+03   1.0002841E+03   1.0002817E+03   1.0002792E+03   1.0002768E+03   1.0002753E+03   1.0002740E+03   1.0002733E+03   1.0003314E+03   1.0003302E+03   1.0003284E+03   1.0003259E+03   1.0003234E+03   1.0003210E+03   1.0003190E+03   1.0003176E+03   1.0003169E+03   1.0003822E+03   1.0003812E+03   1.0003792E+03   1.0003764E+03   1.0003735E+03   1.0003710E+03   1.0003688E+03   1.0003673E+03   1.0003665E+03   1.0004409E+03   1.0004398E+03   1.0004374E+03   1.0004344E+03   1.0004310E+03   1.0004283E+03   1.0004258E+03   1.0004239E+03   1.0004229E+03   1.0005084E+03   1.0005068E+03   1.0005039E+03   1.0005001E+03   1.0004962E+03   1.0004928E+03   1.0004899E+03   1.0004879E+03   1.0004866E+03   1.0005859E+03   1.0005834E+03   1.0005796E+03   1.0005746E+03   1.0005699E+03   1.0005656E+03   1.0005620E+03   1.0005594E+03   1.0005577E+03   1.0006746E+03   1.0006707E+03   1.0006652E+03   1.0006589E+03   1.0006525E+03   1.0006470E+03   1.0006423E+03   1.0006389E+03   1.0006370E+03   1.0007753E+03   1.0007693E+03   1.0007616E+03   1.0007529E+03   1.0007444E+03   1.0007371E+03   1.0007311E+03   1.0007267E+03   1.0007238E+03   1.0008882E+03   1.0008793E+03   1.0008683E+03   1.0008565E+03   1.0008452E+03   1.0008356E+03   1.0008278E+03   1.0008220E+03   1.0008183E+03   1.0010146E+03   1.0010012E+03   1.0009856E+03   1.0009695E+03   1.0009547E+03   1.0009420E+03   1.0009319E+03   1.0009244E+03   1.0009200E+03   1.0011494E+03   1.0011304E+03   1.0011092E+03   1.0010876E+03   1.0010683E+03   1.0010522E+03   1.0010394E+03   1.0010302E+03   1.0010247E+03   1.0012850E+03   1.0012589E+03   1.0012307E+03   1.0012035E+03   1.0011791E+03   1.0011589E+03   1.0011437E+03   1.0011324E+03   1.0011262E+03   1.0014141E+03   1.0013808E+03   1.0013453E+03   1.0013113E+03   1.0012819E+03   1.0012580E+03   1.0012399E+03   1.0012272E+03   1.0012199E+03   1.0015289E+03   1.0014900E+03   1.0014484E+03   1.0014085E+03   1.0013744E+03   1.0013474E+03   1.0013273E+03   1.0013132E+03   1.0013051E+03   1.0016489E+03   1.0016086E+03   1.0015642E+03   1.0015207E+03   1.0014836E+03   1.0014544E+03   1.0014332E+03   1.0014188E+03   1.0014104E+03   1.0018663E+03   1.0018318E+03   1.0017906E+03   1.0017484E+03   1.0017113E+03   1.0016823E+03   1.0016617E+03   1.0016481E+03   1.0016400E+03   1.0024477E+03   1.0024290E+03   1.0023989E+03   1.0023640E+03   1.0023320E+03   1.0023065E+03   1.0022887E+03   1.0022772E+03   1.0022708E+03   1.0039402E+03   1.0039463E+03   1.0039368E+03   1.0039172E+03   1.0038956E+03   1.0038781E+03   1.0038665E+03   1.0038594E+03   1.0038558E+03   1.0068495E+03   1.0068879E+03   1.0069056E+03   1.0069077E+03   1.0069031E+03   1.0068987E+03   1.0068965E+03   1.0068970E+03   1.0068979E+03   1.0104573E+03   1.0105289E+03   1.0105761E+03   1.0106031E+03   1.0106196E+03   1.0106325E+03   1.0106448E+03   1.0106553E+03   1.0106624E+03   1.0129460E+03   1.0130428E+03   1.0131156E+03   1.0131674E+03   1.0132071E+03   1.0132400E+03   1.0132690E+03   1.0132921E+03   1.0133069E+03   1.0137265E+03   1.0138366E+03   1.0139263E+03   1.0139985E+03   1.0140596E+03   1.0141134E+03   1.0141605E+03   1.0141977E+03   1.0142216E+03   1.0135593E+03   1.0136699E+03   1.0137673E+03   1.0138536E+03   1.0139325E+03   1.0140052E+03   1.0140696E+03   1.0141203E+03   1.0141526E+03   1.0132426E+03   1.0133425E+03   1.0134388E+03   1.0135314E+03   1.0136216E+03   1.0137075E+03   1.0137845E+03   1.0138454E+03   1.0138843E+03   1.0131405E+03   1.0132255E+03   1.0133142E+03   1.0134052E+03   1.0134982E+03   1.0135895E+03   1.0136727E+03   1.0137386E+03   1.0137809E+03   1.0132805E+03   1.0133522E+03   1.0134310E+03   1.0135156E+03   1.0136050E+03   1.0136950E+03   1.0137778E+03   1.0138443E+03   1.0138865E+03   1.0135555E+03   1.0136195E+03   1.0136904E+03   1.0137676E+03   1.0138505E+03   1.0139353E+03   1.0140138E+03   1.0140770E+03   1.0141174E+03   1.0138444E+03   1.0139075E+03   1.0139752E+03   1.0140469E+03   1.0141235E+03   1.0142020E+03   1.0142750E+03   1.0143336E+03   1.0143710E+03   1.0138636E+03   1.0139323E+03   1.0140006E+03   1.0140696E+03   1.0141418E+03   1.0142150E+03   1.0142828E+03   1.0143370E+03   1.0143715E+03   1.0136266E+03   1.0137036E+03   1.0137755E+03   1.0138446E+03   1.0139141E+03   1.0139835E+03   1.0140470E+03   1.0140977E+03   1.0141295E+03   1.0132130E+03   1.0132994E+03   1.0133755E+03   1.0134446E+03   1.0135119E+03   1.0135776E+03   1.0136373E+03   1.0136844E+03   1.0137142E+03   1.0126865E+03   1.0127807E+03   1.0128586E+03   1.0129252E+03   1.0129886E+03   1.0130496E+03   1.0131046E+03   1.0131481E+03   1.0131754E+03   1.0120685E+03   1.0121656E+03   1.0122401E+03   1.0123006E+03   1.0123571E+03   1.0124106E+03   1.0124595E+03   1.0124979E+03   1.0125219E+03   1.0113455E+03   1.0114395E+03   1.0115062E+03   1.0115571E+03   1.0116031E+03   1.0116481E+03   1.0116891E+03   1.0117222E+03   1.0117424E+03   1.0105052E+03   1.0105925E+03   1.0106489E+03   1.0106890E+03   1.0107247E+03   1.0107606E+03   1.0107940E+03   1.0108214E+03   1.0108383E+03   1.0095622E+03   1.0096424E+03   1.0096902E+03   1.0097213E+03   1.0097482E+03   1.0097766E+03   1.0098043E+03   1.0098267E+03   1.0098411E+03   1.0085582E+03   1.0086343E+03   1.0086774E+03   1.0087032E+03   1.0087253E+03   1.0087485E+03   1.0087715E+03   1.0087909E+03   1.0088033E+03   1.0075465E+03   1.0076230E+03   1.0076664E+03   1.0076924E+03   1.0077132E+03   1.0077340E+03   1.0077546E+03   1.0077715E+03   1.0077828E+03   1.0065773E+03   1.0066565E+03   1.0067064E+03   1.0067377E+03   1.0067608E+03   1.0067813E+03   1.0068005E+03   1.0068163E+03   1.0068264E+03   1.0056868E+03   1.0057684E+03   1.0058284E+03   1.0058698E+03   1.0058992E+03   1.0059221E+03   1.0059409E+03   1.0059558E+03   1.0059651E+03   1.0048954E+03   1.0049741E+03   1.0050443E+03   1.0050993E+03   1.0051392E+03   1.0051675E+03   1.0051880E+03   1.0052028E+03   1.0052116E+03   1.0042097E+03   1.0042777E+03   1.0043522E+03   1.0044211E+03   1.0044750E+03   1.0045134E+03   1.0045392E+03   1.0045558E+03   1.0045649E+03   1.0036334E+03   1.0036811E+03   1.0037495E+03   1.0038255E+03   1.0038940E+03   1.0039463E+03   1.0039819E+03   1.0040041E+03   1.0040159E+03   1.0031663E+03   1.0031872E+03   1.0032372E+03   1.0033076E+03   1.0033820E+03   1.0034467E+03   1.0034947E+03   1.0035261E+03   1.0035432E+03   1.0027976E+03   1.0027998E+03   1.0028216E+03   1.0028715E+03   1.0029376E+03   1.0030037E+03   1.0030592E+03   1.0030989E+03   1.0031223E+03   1.0024741E+03   1.0025044E+03   1.0025076E+03   1.0025264E+03   1.0025670E+03   1.0026191E+03   1.0026695E+03   1.0027097E+03   1.0027355E+03   1.0021318E+03   1.0022289E+03   1.0022709E+03   1.0022759E+03   1.0022823E+03   1.0023040E+03   1.0023346E+03   1.0023641E+03   1.0023850E+03   1.0017670E+03   1.0019036E+03   1.0020118E+03   1.0020676E+03   1.0020778E+03   1.0020712E+03   1.0020713E+03   1.0020786E+03   1.0020872E+03   1.0015526E+03   1.0016124E+03   1.0016947E+03   1.0017778E+03   1.0018442E+03   1.0018758E+03   1.0018786E+03   1.0018718E+03   1.0018674E+03   1.0015451E+03   1.0015110E+03   1.0015150E+03   1.0015359E+03   1.0015651E+03   1.0015917E+03   1.0016057E+03   1.0016091E+03   1.0015026E+03   1.0014291E+03   1.0014004E+03   1.0013600E+03   1.0013184E+03   1.0012857E+03   1.0015231E+03   1.0014811E+03   1.0014320E+03   1.0013872E+03   1.0000333E+03   1.0000333E+03   1.0000333E+03   1.0000333E+03   1.0000331E+03   1.0000329E+03   1.0000328E+03   1.0000322E+03   1.0000399E+03   1.0000399E+03   1.0000400E+03   1.0000399E+03   1.0000399E+03   1.0000397E+03   1.0000395E+03   1.0000389E+03   1.0000461E+03   1.0000461E+03   1.0000461E+03   1.0000461E+03   1.0000461E+03   1.0000461E+03   1.0000457E+03   1.0000453E+03   1.0000525E+03   1.0000525E+03   1.0000525E+03   1.0000526E+03   1.0000527E+03   1.0000527E+03   1.0000524E+03   1.0000521E+03   1.0000599E+03   1.0000599E+03   1.0000601E+03   1.0000601E+03   1.0000601E+03   1.0000603E+03   1.0000602E+03   1.0000601E+03   1.0000692E+03   1.0000692E+03   1.0000693E+03   1.0000695E+03   1.0000698E+03   1.0000699E+03   1.0000700E+03   1.0000700E+03   1.0000801E+03   1.0000802E+03   1.0000804E+03   1.0000806E+03   1.0000811E+03   1.0000814E+03   1.0000819E+03   1.0000821E+03   1.0000934E+03   1.0000937E+03   1.0000939E+03   1.0000942E+03   1.0000947E+03   1.0000953E+03   1.0000959E+03   1.0000963E+03   1.0001092E+03   1.0001094E+03   1.0001096E+03   1.0001100E+03   1.0001110E+03   1.0001117E+03   1.0001126E+03   1.0001134E+03   1.0001274E+03   1.0001276E+03   1.0001279E+03   1.0001286E+03   1.0001295E+03   1.0001306E+03   1.0001317E+03   1.0001330E+03   1.0001489E+03   1.0001490E+03   1.0001495E+03   1.0001503E+03   1.0001513E+03   1.0001525E+03   1.0001542E+03   1.0001556E+03   1.0001736E+03   1.0001737E+03   1.0001743E+03   1.0001751E+03   1.0001763E+03   1.0001778E+03   1.0001796E+03   1.0001816E+03   1.0002021E+03   1.0002023E+03   1.0002030E+03   1.0002040E+03   1.0002054E+03   1.0002070E+03   1.0002090E+03   1.0002112E+03   1.0002352E+03   1.0002355E+03   1.0002361E+03   1.0002372E+03   1.0002387E+03   1.0002407E+03   1.0002430E+03   1.0002452E+03   1.0002731E+03   1.0002733E+03   1.0002740E+03   1.0002753E+03   1.0002768E+03   1.0002792E+03   1.0002817E+03   1.0002841E+03   1.0003166E+03   1.0003169E+03   1.0003176E+03   1.0003190E+03   1.0003210E+03   1.0003234E+03   1.0003259E+03   1.0003284E+03   1.0003661E+03   1.0003665E+03   1.0003673E+03   1.0003688E+03   1.0003710E+03   1.0003735E+03   1.0003764E+03   1.0003792E+03   1.0004226E+03   1.0004229E+03   1.0004239E+03   1.0004258E+03   1.0004283E+03   1.0004310E+03   1.0004344E+03   1.0004374E+03   1.0004860E+03   1.0004866E+03   1.0004879E+03   1.0004899E+03   1.0004928E+03   1.0004962E+03   1.0005001E+03   1.0005039E+03   1.0005572E+03   1.0005577E+03   1.0005594E+03   1.0005620E+03   1.0005656E+03   1.0005699E+03   1.0005746E+03   1.0005796E+03   1.0006364E+03   1.0006370E+03   1.0006389E+03   1.0006423E+03   1.0006470E+03   1.0006525E+03   1.0006589E+03   1.0006652E+03   1.0007230E+03   1.0007238E+03   1.0007267E+03   1.0007311E+03   1.0007371E+03   1.0007444E+03   1.0007529E+03   1.0007615E+03   1.0008171E+03   1.0008183E+03   1.0008220E+03   1.0008278E+03   1.0008356E+03   1.0008452E+03   1.0008565E+03   1.0008683E+03   1.0009185E+03   1.0009200E+03   1.0009244E+03   1.0009319E+03   1.0009420E+03   1.0009547E+03   1.0009695E+03   1.0009856E+03   1.0010229E+03   1.0010247E+03   1.0010302E+03   1.0010394E+03   1.0010522E+03   1.0010683E+03   1.0010876E+03   1.0011092E+03   1.0011239E+03   1.0011262E+03   1.0011324E+03   1.0011437E+03   1.0011589E+03   1.0011791E+03   1.0012035E+03   1.0012307E+03   1.0012173E+03   1.0012199E+03   1.0012272E+03   1.0012399E+03   1.0012580E+03   1.0012819E+03   1.0013113E+03   1.0013453E+03   1.0013024E+03   1.0013051E+03   1.0013132E+03   1.0013273E+03   1.0013474E+03   1.0013744E+03   1.0014085E+03   1.0014484E+03   1.0014075E+03   1.0014104E+03   1.0014188E+03   1.0014332E+03   1.0014544E+03   1.0014836E+03   1.0015207E+03   1.0015642E+03   1.0016373E+03   1.0016400E+03   1.0016481E+03   1.0016617E+03   1.0016823E+03   1.0017113E+03   1.0017484E+03   1.0017906E+03   1.0022687E+03   1.0022708E+03   1.0022772E+03   1.0022887E+03   1.0023065E+03   1.0023320E+03   1.0023640E+03   1.0023989E+03   1.0038547E+03   1.0038558E+03   1.0038594E+03   1.0038665E+03   1.0038781E+03   1.0038956E+03   1.0039172E+03   1.0039368E+03   1.0068983E+03   1.0068979E+03   1.0068970E+03   1.0068965E+03   1.0068987E+03   1.0069031E+03   1.0069077E+03   1.0069056E+03   1.0106649E+03   1.0106624E+03   1.0106553E+03   1.0106448E+03   1.0106325E+03   1.0106196E+03   1.0106031E+03   1.0105761E+03   1.0133123E+03   1.0133069E+03   1.0132921E+03   1.0132690E+03   1.0132400E+03   1.0132071E+03   1.0131674E+03   1.0131156E+03   1.0142297E+03   1.0142216E+03   1.0141977E+03   1.0141605E+03   1.0141134E+03   1.0140596E+03   1.0139985E+03   1.0139263E+03   1.0141637E+03   1.0141526E+03   1.0141203E+03   1.0140696E+03   1.0140052E+03   1.0139325E+03   1.0138536E+03   1.0137673E+03   1.0138976E+03   1.0138843E+03   1.0138454E+03   1.0137845E+03   1.0137075E+03   1.0136216E+03   1.0135314E+03   1.0134388E+03   1.0137953E+03   1.0137809E+03   1.0137386E+03   1.0136727E+03   1.0135895E+03   1.0134982E+03   1.0134052E+03   1.0133142E+03   1.0139009E+03   1.0138865E+03   1.0138443E+03   1.0137778E+03   1.0136950E+03   1.0136050E+03   1.0135156E+03   1.0134310E+03   1.0141313E+03   1.0141174E+03   1.0140770E+03   1.0140138E+03   1.0139353E+03   1.0138505E+03   1.0137676E+03   1.0136904E+03   1.0143839E+03   1.0143710E+03   1.0143336E+03   1.0142750E+03   1.0142020E+03   1.0141235E+03   1.0140469E+03   1.0139752E+03   1.0143833E+03   1.0143715E+03   1.0143370E+03   1.0142828E+03   1.0142150E+03   1.0141418E+03   1.0140696E+03   1.0140006E+03   1.0141405E+03   1.0141295E+03   1.0140977E+03   1.0140470E+03   1.0139835E+03   1.0139141E+03   1.0138446E+03   1.0137755E+03   1.0137245E+03   1.0137142E+03   1.0136844E+03   1.0136373E+03   1.0135776E+03   1.0135119E+03   1.0134446E+03   1.0133755E+03   1.0131843E+03   1.0131754E+03   1.0131481E+03   1.0131046E+03   1.0130496E+03   1.0129886E+03   1.0129252E+03   1.0128586E+03   1.0125301E+03   1.0125219E+03   1.0124979E+03   1.0124595E+03   1.0124106E+03   1.0123571E+03   1.0123006E+03   1.0122401E+03   1.0117493E+03   1.0117424E+03   1.0117222E+03   1.0116891E+03   1.0116481E+03   1.0116031E+03   1.0115571E+03   1.0115062E+03   1.0108441E+03   1.0108383E+03   1.0108214E+03   1.0107940E+03   1.0107606E+03   1.0107247E+03   1.0106890E+03   1.0106489E+03   1.0098461E+03   1.0098411E+03   1.0098267E+03   1.0098043E+03   1.0097766E+03   1.0097482E+03   1.0097213E+03   1.0096902E+03   1.0088075E+03   1.0088033E+03   1.0087909E+03   1.0087715E+03   1.0087485E+03   1.0087253E+03   1.0087032E+03   1.0086774E+03   1.0077867E+03   1.0077828E+03   1.0077715E+03   1.0077546E+03   1.0077340E+03   1.0077132E+03   1.0076924E+03   1.0076664E+03   1.0068300E+03   1.0068264E+03   1.0068163E+03   1.0068005E+03   1.0067813E+03   1.0067608E+03   1.0067377E+03   1.0067064E+03   1.0059684E+03   1.0059651E+03   1.0059558E+03   1.0059409E+03   1.0059221E+03   1.0058992E+03   1.0058698E+03   1.0058284E+03   1.0052145E+03   1.0052116E+03   1.0052028E+03   1.0051880E+03   1.0051675E+03   1.0051392E+03   1.0050993E+03   1.0050443E+03   1.0045678E+03   1.0045649E+03   1.0045558E+03   1.0045392E+03   1.0045134E+03   1.0044750E+03   1.0044211E+03   1.0043522E+03   1.0040196E+03   1.0040159E+03   1.0040041E+03   1.0039819E+03   1.0039463E+03   1.0038940E+03   1.0038255E+03   1.0037495E+03   1.0035490E+03   1.0035432E+03   1.0035261E+03   1.0034947E+03   1.0034467E+03   1.0033820E+03   1.0033076E+03   1.0032372E+03   1.0031299E+03   1.0031223E+03   1.0030989E+03   1.0030592E+03   1.0030037E+03   1.0029376E+03   1.0028715E+03   1.0028216E+03   1.0027441E+03   1.0027355E+03   1.0027097E+03   1.0026695E+03   1.0026191E+03   1.0025670E+03   1.0025264E+03   1.0025076E+03   1.0023924E+03   1.0023850E+03   1.0023641E+03   1.0023346E+03   1.0023040E+03   1.0022823E+03   1.0022759E+03   1.0022709E+03   1.0020906E+03   1.0020872E+03   1.0020786E+03   1.0020713E+03   1.0020712E+03   1.0020778E+03   1.0020676E+03   1.0020118E+03   1.0018658E+03   1.0018674E+03   1.0018718E+03   1.0018785E+03   1.0018758E+03   1.0018442E+03   1.0017778E+03   1.0016947E+03   1.0016093E+03   1.0016091E+03   1.0016057E+03   1.0015917E+03   1.0015651E+03   1.0015359E+03   1.0015150E+03   1.0015110E+03   1.0012738E+03   1.0012857E+03   1.0013184E+03   1.0013600E+03   1.0014004E+03   1.0014291E+03   1.0015026E+03   1.0013691E+03   1.0013872E+03   1.0014320E+03   1.0014811E+03   1.0015231E+03   1.0000316E+03   1.0000306E+03   1.0000292E+03   1.0000275E+03   1.0000251E+03   1.0000221E+03   1.0000186E+03   1.0000381E+03   1.0000369E+03   1.0000355E+03   1.0000336E+03   1.0000309E+03   1.0000275E+03   1.0000234E+03   1.0000184E+03   1.0000444E+03   1.0000433E+03   1.0000418E+03   1.0000397E+03   1.0000369E+03   1.0000330E+03   1.0000281E+03   1.0000225E+03   1.0000514E+03   1.0000504E+03   1.0000488E+03   1.0000466E+03   1.0000434E+03   1.0000391E+03   1.0000336E+03   1.0000268E+03   1.0000595E+03   1.0000586E+03   1.0000570E+03   1.0000549E+03   1.0000513E+03   1.0000463E+03   1.0000400E+03   1.0000324E+03   1.0000696E+03   1.0000687E+03   1.0000673E+03   1.0000649E+03   1.0000612E+03   1.0000560E+03   1.0000488E+03   1.0000397E+03   1.0000819E+03   1.0000813E+03   1.0000801E+03   1.0000775E+03   1.0000739E+03   1.0000690E+03   1.0000613E+03   1.0000515E+03   1.0000966E+03   1.0000964E+03   1.0000952E+03   1.0000933E+03   1.0000905E+03   1.0000863E+03   1.0000801E+03   1.0000700E+03   1.0001140E+03   1.0001138E+03   1.0001135E+03   1.0001124E+03   1.0001114E+03   1.0001098E+03   1.0001069E+03   1.0000981E+03   1.0001339E+03   1.0001343E+03   1.0001344E+03   1.0001347E+03   1.0001360E+03   1.0001389E+03   1.0001414E+03   1.0001378E+03   1.0001569E+03   1.0001578E+03   1.0001584E+03   1.0001598E+03   1.0001639E+03   1.0001716E+03   1.0001815E+03   1.0001854E+03   1.0001832E+03   1.0001843E+03   1.0001853E+03   1.0001876E+03   1.0001932E+03   1.0002046E+03   1.0002199E+03   1.0002267E+03   1.0002130E+03   1.0002142E+03   1.0002151E+03   1.0002174E+03   1.0002234E+03   1.0002344E+03   1.0002474E+03   1.0002435E+03   1.0002471E+03   1.0002484E+03   1.0002490E+03   1.0002503E+03   1.0002544E+03   1.0002621E+03   1.0002667E+03   1.0002527E+03   1.0002861E+03   1.0002870E+03   1.0002874E+03   1.0002878E+03   1.0002894E+03   1.0002927E+03   1.0002896E+03   1.0002728E+03   1.0003302E+03   1.0003314E+03   1.0003312E+03   1.0003309E+03   1.0003309E+03   1.0003308E+03   1.0003246E+03   1.0003087E+03   1.0003812E+03   1.0003822E+03   1.0003822E+03   1.0003813E+03   1.0003804E+03   1.0003791E+03   1.0003727E+03   1.0003589E+03   1.0004398E+03   1.0004409E+03   1.0004408E+03   1.0004399E+03   1.0004387E+03   1.0004376E+03   1.0004321E+03   1.0004205E+03   1.0005068E+03   1.0005084E+03   1.0005086E+03   1.0005078E+03   1.0005068E+03   1.0005061E+03   1.0005015E+03   1.0004911E+03   1.0005834E+03   1.0005859E+03   1.0005867E+03   1.0005864E+03   1.0005858E+03   1.0005859E+03   1.0005823E+03   1.0005720E+03   1.0006707E+03   1.0006746E+03   1.0006765E+03   1.0006772E+03   1.0006774E+03   1.0006786E+03   1.0006762E+03   1.0006660E+03   1.0007693E+03   1.0007753E+03   1.0007791E+03   1.0007816E+03   1.0007837E+03   1.0007866E+03   1.0007852E+03   1.0007759E+03   1.0008793E+03   1.0008882E+03   1.0008952E+03   1.0009008E+03   1.0009059E+03   1.0009119E+03   1.0009118E+03   1.0009033E+03   1.0010012E+03   1.0010146E+03   1.0010256E+03   1.0010356E+03   1.0010460E+03   1.0010567E+03   1.0010582E+03   1.0010505E+03   1.0011304E+03   1.0011494E+03   1.0011665E+03   1.0011827E+03   1.0012010E+03   1.0012203E+03   1.0012242E+03   1.0012155E+03   1.0012589E+03   1.0012850E+03   1.0013090E+03   1.0013335E+03   1.0013627E+03   1.0013957E+03   1.0014042E+03   1.0013926E+03   1.0013808E+03   1.0014141E+03   1.0014453E+03   1.0014782E+03   1.0015208E+03   1.0015748E+03   1.0015925E+03   1.0015749E+03   1.0014900E+03   1.0015289E+03   1.0015654E+03   1.0016052E+03   1.0016621E+03   1.0017432E+03   1.0017780E+03   1.0017534E+03   1.0016086E+03   1.0016489E+03   1.0016857E+03   1.0017274E+03   1.0017958E+03   1.0019070E+03   1.0019675E+03   1.0019373E+03   1.0018318E+03   1.0018663E+03   1.0018950E+03   1.0019305E+03   1.0020027E+03   1.0021388E+03   1.0022272E+03   1.0021956E+03   1.0024290E+03   1.0024477E+03   1.0024585E+03   1.0024766E+03   1.0025405E+03   1.0026823E+03   1.0027800E+03   1.0027518E+03   1.0039463E+03   1.0039402E+03   1.0039227E+03   1.0039138E+03   1.0039541E+03   1.0040629E+03   1.0041170E+03   1.0040875E+03   1.0068879E+03   1.0068495E+03   1.0067974E+03   1.0067548E+03   1.0067437E+03   1.0067421E+03   1.0067114E+03   1.0066593E+03   1.0105289E+03   1.0104573E+03   1.0103710E+03   1.0102863E+03   1.0101848E+03   1.0100282E+03   1.0099363E+03   1.0098348E+03   1.0130428E+03   1.0129460E+03   1.0128336E+03   1.0127082E+03   1.0125167E+03   1.0122670E+03   1.0121697E+03   1.0120143E+03   1.0138366E+03   1.0137265E+03   1.0136011E+03   1.0134504E+03   1.0132161E+03   1.0129427E+03   1.0129091E+03   1.0127689E+03   1.0136699E+03   1.0135593E+03   1.0134368E+03   1.0132884E+03   1.0130703E+03   1.0128621E+03   1.0129014E+03   1.0127709E+03   1.0133425E+03   1.0132426E+03   1.0131432E+03   1.0130367E+03   1.0128947E+03   1.0127856E+03   1.0128547E+03   1.0126936E+03   1.0132255E+03   1.0131405E+03   1.0130661E+03   1.0130018E+03   1.0129293E+03   1.0129007E+03   1.0129778E+03   1.0127962E+03   1.0133522E+03   1.0132805E+03   1.0132247E+03   1.0131883E+03   1.0131577E+03   1.0131743E+03   1.0132454E+03   1.0130576E+03   1.0136195E+03   1.0135555E+03   1.0135081E+03   1.0134817E+03   1.0134633E+03   1.0134899E+03   1.0135497E+03   1.0133664E+03   1.0139075E+03   1.0138444E+03   1.0137952E+03   1.0137634E+03   1.0137330E+03   1.0137413E+03   1.0137927E+03   1.0136180E+03   1.0139323E+03   1.0138636E+03   1.0138052E+03   1.0137592E+03   1.0137086E+03   1.0136951E+03   1.0137397E+03   1.0135732E+03   1.0137036E+03   1.0136266E+03   1.0135543E+03   1.0134896E+03   1.0134168E+03   1.0133833E+03   1.0134177E+03   1.0132551E+03   1.0132994E+03   1.0132130E+03   1.0131248E+03   1.0130391E+03   1.0129443E+03   1.0128903E+03   1.0129069E+03   1.0127443E+03   1.0127807E+03   1.0126865E+03   1.0125832E+03   1.0124764E+03   1.0123606E+03   1.0122845E+03   1.0122722E+03   1.0121050E+03   1.0121656E+03   1.0120685E+03   1.0119532E+03   1.0118297E+03   1.0116943E+03   1.0115915E+03   1.0115448E+03   1.0113679E+03   1.0114395E+03   1.0113455E+03   1.0112250E+03   1.0110875E+03   1.0109393E+03   1.0108082E+03   1.0107283E+03   1.0105385E+03   1.0105925E+03   1.0105052E+03   1.0103847E+03   1.0102379E+03   1.0100781E+03   1.0099315E+03   1.0098231E+03   1.0096204E+03   1.0096424E+03   1.0095622E+03   1.0094438E+03   1.0092932E+03   1.0091227E+03   1.0089716E+03   1.0088473E+03   1.0086328E+03   1.0086343E+03   1.0085582E+03   1.0084421E+03   1.0082924E+03   1.0081176E+03   1.0079656E+03   1.0078473E+03   1.0076248E+03   1.0076230E+03   1.0075465E+03   1.0074329E+03   1.0072885E+03   1.0071188E+03   1.0069743E+03   1.0068730E+03   1.0066515E+03   1.0066565E+03   1.0065773E+03   1.0064684E+03   1.0063346E+03   1.0061797E+03   1.0060506E+03   1.0059523E+03   1.0057360E+03   1.0057684E+03   1.0056868E+03   1.0055879E+03   1.0054724E+03   1.0053369E+03   1.0052151E+03   1.0050938E+03   1.0048618E+03   1.0049741E+03   1.0048954E+03   1.0048134E+03   1.0047229E+03   1.0046151E+03   1.0044990E+03   1.0043325E+03   1.0040364E+03   1.0042777E+03   1.0042097E+03   1.0041524E+03   1.0040912E+03   1.0040114E+03   1.0039114E+03   1.0036921E+03   1.0036811E+03   1.0036334E+03   1.0036043E+03   1.0035676E+03   1.0035062E+03   1.0033950E+03   1.0031506E+03   1.0031872E+03   1.0031663E+03   1.0031570E+03   1.0031170E+03   1.0030507E+03   1.0028973E+03   1.0027998E+03   1.0027976E+03   1.0027712E+03   1.0026977E+03   1.0025806E+03   1.0024400E+03   1.0025044E+03   1.0024741E+03   1.0023912E+03   1.0022695E+03   1.0021401E+03   1.0022289E+03   1.0021318E+03   1.0019835E+03   1.0018663E+03   1.0019036E+03   1.0017670E+03   1.0016227E+03   1.0016861E+03   1.0016124E+03   1.0015526E+03   1.0015451E+03 
Mass 1 2975 float
  4.0000001E-01   4.0000001E-01   4.0000001E-01   4.0000001E-01   4.0000001E-01   4.0000001E-01   4.0000001E-01   4.0000001E-01   4.0000001E-01   4.0000001E-01   4.0000001E-01   4.0000001E-01   4.0000001E-01   4.0000001E-01   4.0000001E-01   4.0000001E-01   4.0000001E-01   4.0000001E-01   4.0000001E-01   4.0000001E-01   4.0000001E-01   4.0000001E-01   4.0000001E-01   4.0000001E-01   4.0000001E-01   4.0000001E-01   4.0000001E-01   4.0000001E-01   4.0000001E-01   4.0000001E-01   4.0000001E-01   4.0000001E-01   4.0000001E-01   4.0000001E-01   4.0000001E-01   4.0000001E-01   4.0000001E-01   4.0000001E-01   4.0000001E-01   4.0000001E-01   4.0000001E-01   4.0000001E-01   4.0000001E-01   4.0000001E-01   4.0000001E-01   4.0000001E-01   4.0000001E-01   4.0000001E-01   4.0000001E-01   4.0000001E-01   4.0000001E-01   4.0000001E-01   4.0000001E-01   4.0000001E-01   4.0000001E-01   4.0000001E-01   4.0000001E-01   4.0000001E-01   4.0000001E-01   4.0000001E-01   4.0000001E-01   4.0000001E-01   4.0000001E-01   4.0000001E-01   4.0000001E-01   4.0000001E-01   4.0000001E-01   4.0000001E-01   4.0000001E-01   4.0000001E-01   4.0000001E-01   4.0000001E-01   4.0000001E-01   4.0000001E-01   4.0000001E-01   4.0000001E-01   4.0000001E-01   4.0000001E-01   4.0000001E-01   4.0000001E-01   4.0000001E-01   4.0000001E-01   4.0000001E-01   4.0000001E-01   4.0000001E-01   4.0000001E-01   4.0000001E-01   4.0000001E-01   4.0000001E-01   4.0000001E-01   4.0000001E-01   4.0000001E-01   4.0000001E-01   4.0000001E-01   4.0000001E-01   4.0000001E-01   4.0000001E-01   4.0000001E-01   4.0000001E-01   4.0000001E-01   4.0000001E-01   4.0000001E-01   4.0000001E-01   4.0000001E-01   4.0000001E-01   4.0000001E-01   4.0000001E-01   4.0000001E-01   4.0000001E-01   4.0000001E-01   4.0000001E-01   4.0000001E-01   4.0000001E-01   4.0000001E-01   4.0000001E-01   4.0000001E-01   4.0000001E-01   4.0000001E-01   4.0000001E-01   4.0000001E-01   4.0000001E-01   4.0000001E-01   4.0000001E-01   4.0000001E-01   4.0000001E-01   4.0000001E-01   4.0000001E-01   4.0000001E-01   4.0000001E-01   4.0000001E-01   4.0000001E-01   4.0000001E-01   4.0000001E-01   4.0000001E-01   4.0000001E-01   4.0000001E-01   4.0000001E-01   4.0000001E-01   4.0000001E-01   4.0000001E-01   4.0000001E-01   4.0000001E-01   4.0000001E-01   4.0000001E-01   4.0000001E-01   4.0000001E-01   4.0000001E-01   4.0000001E-01   4.0000001E-01   4.0000001E-01   4.0000001E-01   4.0000001E-01   4.0000001E-01   4.0000001E-01   4.0000001E-01   4.0000001E-01   4.0000001E-01   4.0000001E-01   4.0000001E-01   4.0000001E-01   4.0000001E-01   4.0000001E-01   4.0000001E-01   4.0000001E-01   4.0000001E-01   4.0000001E-01   4.0000001E-01   4.0000001E-01   4.0000001E-01   4.0000001E-01   4.0000001E-01   4.0000001E-01   4.0000001E-01   4.0000001E-01   4.0000001E-01   4.0000001E-01   4.0000001E-01   4.0000001E-01   4.0000001E-01   4.0000001E-01   4.0000001E-01   4.0000001E-01   4.0000001E-01   4.0000001E-01   4.0000001E-01   4.0000001E-01   4.0000001E-01   4.0000001E-01   4.0000001E-01   4.0000001E-01   4.0000001E-01   4.0000001E-01   4.0000001E-01   4.0000001E-01   4.0000001E-01   4.0000001E-01   4.0000001E-01   4.0000001E-01   4.0000001E-01   4.0000001E-01   4.0000001E-01   4.0000001E-01   4.0000001E-01   4.0000001E-01   4.0000001E-01   4.0000001E-01   4.0000001E-01   4.0000001E-01   4.0000001E-01   4.0000001E-01   4.0000001E-01   4.0000001E-01   4.0000001E-01   4.0000001E-01   4.0000001E-01   4.0000001E-01   4.0000001E-01   4.0000001E-01   4.0000001E-01   4.0000001E-01   4.0000001E-01   4.0000001E-01   4.0000001E-01   4.0000001E-01   4.0000001E-01   4.0000001E-01   4.0000001E-01   4.0000001E-01   4.0000001E-01   4.0000001E-01   4.0000001E-01   4.0000001E-01   4.0000001E-01   4.0000001E-01   4.0000001E-01   4.0000001E-01   4.0000001E-01   4.0000001E-01   4.0000001E-01   4.0000001E-01   4.0000001E-01   4.0000001E-01   4.0000001E-01   4.0000001E-01   4.0000001E-01   4.0000001E-01   4.0000001E-01   4.0000001E-01   4.0000001E-01   4.0000001E-01   4.0000001E-01   4.0000001E-01   4.0000001E-01   4.0000001E-01   4.0000001E-01   4.0000001E-01   4.0000001E-01   4.0000001E-01   4.0000001E-01   4.0000001E-01   4.0000001E-01   4.0000001E-01   4.0000001E-01   4.0000001E-01   4.0000001E-01   4.0000001E-01   4.0000001E-01   4.0000001E-01   4.0000001E-01   4.0000001E-01   4.0000001E-01   4.0000001E-01   4.0000001E-01   4.0000001E-01   4.0000001E-01   4.0000001E-01   4.0000001E-01   4.0000001E-01   4.0000001E-01   4.0000001E-01   4.0000001E-01   4.0000001E-01   4.0000001E-01   4.0000001E-01   4.0000001E-01   4.0000001E-01   4.0000001E-01   4.0000001E-01   4.0000001E-01   4.0000001E-01   4.0000001E-01   4.0000001E-01   4.0000001E-01   4.0000001E-01   4.0000001E-01   4.0000001E-01   4.0000001E-01   4.0000001E-01   4.0000001E-01   4.0000001E-01   4.0000001E-01   4.0000001E-01   4.0000001E-01   4.0000001E-01   4.0000001E-01   4.0000001E-01   4.0000001E-01   4.0000001E-01   4.0000001E-01   4.0000001E-01   4.0000001E-01   4.0000001E-01   4.0000001E-01   4.0000001E-01   4.0000001E-01   4.0000001E-01   4.0000001E-01   4.0000001E-01   4.0000001E-01   4.0000001E-01   4.0000001E-01   4.0000001E-01   4.0000001E-01   4.0000001E-01   4.0000001E-01   4.0000001E-01   4.0000001E-01   4.0000001E-01   4.0000001E-01   4.0000001E-01   4.0000001E-01   4.0000001E-01   4.0000001E-01   4.0000001E-01   4.0000001E-01   4.0000001E-01   4.0000001E-01   4.0000001E-01   4.0000001E-01   4.0000001E-01   4.0000001E-01   4.0000001E-01   4.0000001E-01   4.0000001E-01   4.0000001E-01   4.0000001E-01   4.0000001E-01   4.0000001E-01   4.0000001E-01   4.0000001E-01   4.0000001E-01   4.0000001E-01   4.0000001E-01   4.0000001E-01   4.0000001E-01   4.0000001E-01   4.0000001E-01   4.0000001E-01   4.0000001E-01   4.0000001E-01   4.0000001E-01   4.0000001E-01   4.0000001E-01   4.0000001E-01   4.0000001E-01   4.0000001E-01   4.0000001E-01   4.0000001E-01   4.0000001E-01   4.0000001E-01   4.0000001E-01   4.0000001E-01   4.0000001E-01   4.0000001E-01   4.0000001E-01   4.0000001E-01   4.0000001E-01   4.0000001E-01   4.0000001E-01   4.0000001E-01   4.0000001E-01   4.0000001E-01   4.0000001E-01   4.0000001E-01   4.0000001E-01   4.0000001E-01   4.0000001E-01   4.0000001E-01   4.0000001E-01   4.0000001E-01   4.0000001E-01   4.0000001E-01   4.0000001E-01   4.0000001E-01   4.0000001E-01   4.0000001E-01   4.0000001E-01   4.0000001E-01   4.0000001E-01   4.0000001E-01   4.0000001E-01   4.0000001E-01   4.0000001E-01   4.0000001E-01   4.0000001E-01   4.0000001E-01   4.0000001E-01   4.0000001E-01   4.0000001E-01   4.0000001E-01   4.0000001E-01   4.0000001E-01   4.0000001E-01   4.0000001E-01   4.0000001E-01   4.0000001E-01   4.0000001E-01   4.0000001E-01   4.0000001E-01   4.0000001E-01   4.0000001E-01   4.0000001E-01   4.0000001E-01   4.0000001E-01   4.0000001E-01   4.0000001E-01   4.0000001E-01   4.0000001E-01   4.0000001E-01   4.0000001E-01   4.0000001E-01   4.0000001E-01   4.0000001E-01   4.0000001E-01   4.0000001E-01   4.0000001E-01   4.0000001E-01   4.0000001E-01   4.0000001E-01   4.0000001E-01   4.0000001E-01   4.0000001E-01   4.0000001E-01   4.0000001E-01   4.0000001E-01   4.0000001E-01   4.0000001E-01   4.0000001E-01   4.0000001E-01   4.0000001E-01   4.0000001E-01   4.0000001E-01   4.0000001E-01   4.0000001E-01   4.0000001E-01   4.0000001E-01   4.0000001E-01   4.0000001E-01   4.0000001E-01   4.0000001E-01   4.0000001E-01   4.0000001E-01   4.0000001E-01   4.0000001E-01   4.0000001E-01   4.0000001E-01   4.0000001E-01   4.0000001E-01   4.0000001E-01   4.0000001E-01   4.0000001E-01   4.0000001E-01   4.0000001E-01   4.0000001E-01   4.0000001E-01   4.0000001E-01   4.0000001E-01   4.0000001E-01   4.0000001E-01   4.0000001E-01   4.0000001E-01   4.0000001E-01   4.0000001E-01   4.0000001E-01   4.0000001E-01   4.0000001E-01   4.0000001E-01   4.0000001E-01   4.0000001E-01   4.0000001E-01   4.0000001E-01   4.0000001E-01   4.0000001E-01   4.0000001E-01   4.0000001E-01   4.0000001E-01   4.0000001E-01   4.0000001E-01   4.0000001E-01   4.0000001E-01   4.0000001E-01   4.0000001E-01   4.0000001E-01   4.0000001E-01   4.0000001E-01   4.0000001E-01   4.0000001E-01   4.0000001E-01   4.0000001E-01   4.0000001E-01   4.0000001E-01   4.0000001E-01   4.0000001E-01   4.0000001E-01   4.0000001E-01   4.0000001E-01   4.0000001E-01   4.0000001E-01   4.0000001E-01   4.0000001E-01   4.0000001E-01   4.0000001E-01   4.0000001E-01   4.0000001E-01   4.0000001E-01   4.0000001E-01   4.0000001E-01   4.0000001E-01   4.0000001E-01   4.0000001E-01   4.0000001E-01   4.0000001E-01   4.0000001E-01   4.0000001E-01   4.0000001E-01   4.0000001E-01   4.0000001E-01   4.0000001E-01   4.0000001E-01   4.0000001E-01   4.0000001E-01   4.0000001E-01   4.0000001E-01   4.0000001E-01   4.0000001E-01   4.0000001E-01   4.0000001E-01   4.0000001E-01   4.0000001E-01   4.0000001E-01   4.0000001E-01   4.0000001E-01   4.0000001E-01   4.0000001E-01   4.0000001E-01   4.0000001E-01   4.0000001E-01   4.0000001E-01   4.0000001E-01   4.0000001E-01   4.0000001E-01   4.0000001E-01   4.0000001E-01   4.0000001E-01   4.0000001E-01   4.0000001E-01   4.0000001E-01   4.0000001E-01   4.0000001E-01   4.0000001E-01   4.0000001E-01   4.0000001E-01   4.0000001E-01   4.0000001E-01   4.0000001E-01   4.0000001E-01   4.0000001E-01   4.0000001E-01   4.0000001E-01   4.0000001E-01   4.0000001E-01   4.0000001E-01   4.0000001E-01   4.0000001E-01   4.0000001E-01   4.0000001E-01   4.0000001E-01   4.0000001E-01   4.0000001E-01   4.0000001E-01   4.0000001E-01   4.0000001E-01   4.0000001E-01   4.0000001E-01   4.0000001E-01   4.0000001E-01   4.0000001E-01   4.0000001E-01   4.0000001E-01   4.0000001E-01   4.0000001E-01   4.0000001E-01   4.0000001E-01   4.0000001E-01   4.0000001E-01   4.0000001E-01   4.0000001E-01   4.0000001E-01   4.0000001E-01   4.0000001E-01   4.0000001E-01   4.0000001E-01   4.0000001E-01   4.0000001E-01   4.0000001E-01   4.0000001E-01   4.0000001E-01   4.0000001E-01   4.0000001E-01   4.0000001E-01   4.0000001E-01   4.0000001E-01   4.0000001E-01   4.0000001E-01   4.0000001E-01   4.0000001E-01   4.0000001E-01   4.0000001E-01   4.0000001E-01   4.0000001E-01   4.0000001E-01   4.0000001E-01   4.0000001E-01   4.0000001E-01   4.0000001E-01   4.0000001E-01   4.0000001E-01   4.0000001E-01   4.0000001E-01   4.0000001E-01   4.0000001E-01   4.0000001E-01   4.0000001E-01   4.0000001E-01   4.0000001E-01   4.0000001E-01   4.0000001E-01   4.0000001E-01   4.0000001E-01   4.0000001E-01   4.0000001E-01   4.0000001E-01   4.0000001E-01   4.0000001E-01   4.0000001E-01   4.0000001E-01   4.0000001E-01   4.0000001E-01   4.0000001E-01   4.0000001E-01   4.0000001E-01   4.0000001E-01   4.0000001E-01   4.0000001E-01   4.0000001E-01   4.0000001E-01   4.0000001E-01   4.0000001E-01   4.0000001E-01   4.0000001E-01   4.0000001E-01   4.0000001E-01   4.0000001E-01   4.0000001E-01   4.0000001E-01   4.0000001E-01   4.0000001E-01   4.0000001E-01   4.0000001E-01   4.0000001E-01   4.0000001E-01   4.0000001E-01   4.0000001E-01   4.0000001E-01   4.0000001E-01   4.0000001E-01   4.0000001E-01   4.0000001E-01   4.0000001E-01   4.0000001E-01   4.0000001E-01   4.0000001E-01   4.0000001E-01   4.0000001E-01   4.0000001E-01   4.0000001E-01   4.0000001E-01   4.0000001E-01   4.0000001E-01   4.0000001E-01   4.0000001E-01   4.0000001E-01   4.0000001E-01   4.0000001E-01   4.0000001E-01   4.0000001E-01   4.0000001E-01   4.0000001E-01   4.0000001E-01   4.0000001E-01   4.0000001E-01   4.0000001E-01   4.0000001E-01   4.0000001E-01   4.0000001E-01   4.0000001E-01   4.0000001E-01   4.0000001E-01   4.0000001E-01   4.0000001E-01   4.0000001E-01   4.0000001E-01   4.0000001E-01   4.0000001E-01   4.0000001E-01   4.0000001E-01   4.0000001E-01   4.0000001E-01   4.0000001E-01   4.0000001E-01   4.0000001E-01   4.0000001E-01   4.0000001E-01   4.0000001E-01   4.0000001E-01   4.0000001E-01   4.0000001E-01   4.0000001E-01   4.0000001E-01   4.0000001E-01   4.0000001E-01   4.0000001E-01   4.0000001E-01   4.0000001E-01   4.0000001E-01   4.0000001E-01   4.0000001E-01   4.0000001E-01   4.0000001E-01   4.0000001E-01   4.0000001E-01   4.0000001E-01   4.0000001E-01   4.0000001E-01   4.0000001E-01   4.0000001E-01   4.0000001E-01   4.0000001E-01   4.0000001E-01   4.0000001E-01   4.0000001E-01   4.0000001E-01   4.0000001E-01   4.0000001E-01   4.0000001E-01   4.0000001E-01   4.0000001E-01   4.0000001E-01   4.0000001E-01   4.0000001E-01   4.0000001E-01   4.0000001E-01   4.0000001E-01   4.0000001E-01   4.0000001E-01   4.0000001E-01   4.0000001E-01   4.0000001E-01   4.0000001E-01   4.0000001E-01   4.0000001E-01   4.0000001E-01   4.0000001E-01   4.0000001E-01   4.0000001E-01   4.0000001E-01   4.0000001E-01   4.0000001E-01   4.0000001E-01   4.0000001E-01   4.0000001E-01   4.0000001E-01   4.0000001E-01   4.0000001E-01   4.0000001E-01   4.0000001E-01   4.0000001E-01   4.0000001E-01   4.0000001E-01   4.0000001E-01   4.0000001E-01   4.0000001E-01   4.0000001E-01   4.0000001E-01   4.0000001E-01   4.0000001E-01   4.0000001E-01   4.0000001E-01   4.0000001E-01   4.0000001E-01   4.0000001E-01   4.0000001E-01   4.0000001E-01   4.0000001E-01   4.0000001E-01   4.0000001E-01   4.0000001E-01   4.0000001E-01   4.0000001E-01   4.0000001E-01   4.0000001E-01   4.0000001E-01   4.0000001E-01   4.0000001E-01   4.0000001E-01   4.0000001E-01   4.0000001E-01   4.0000001E-01   4.0000001E-01   4.0000001E-01   4.0000001E-01   4.0000001E-01   4.0000001E-01   4.0000001E-01   4.0000001E-01   4.0000001E-01   4.0000001E-01   4.0000001E-01   4.0000001E-01   4.0000001E-01   4.0000001E-01   4.0000001E-01   4.0000001E-01   4.0000001E-01   4.0000001E-01   4.0000001E-01   4.0000001E-01   4.0000001E-01   4.0000001E-01   4.0000001E-01   4.0000001E-01   4.0000001E-01   4.0000001E-01   4.0000001E-01   4.0000001E-01   4.0000001E-01   4.0000001E-01   4.0000001E-01   4.0000001E-01   4.0000001E-01   4.0000001E-01   4.0000001E-01   4.0000001E-01   4.0000001E-01   4.0000001E-01   4.0000001E-01   4.0000001E-01   4.0000001E-01   4.0000001E-01   4.0000001E-01   4.0000001E-01   4.0000001E-01   4.0000001E-01   4.0000001E-01   4.0000001E-01   4.0000001E-01   4.0000001E-01   4.0000001E-01   4.0000001E-01   4.0000001E-01   4.0000001E-01   4.0000001E-01   4.0000001E-01   4.0000001E-01   4.0000001E-01   4.0000001E-01   4.0000001E-01   4.0000001E-01   4.0000001E-01   4.0000001E-01   4.0000001E-01   4.0000001E-01   4.0000001E-01   4.0000001E-01   4.0000001E-01   4.0000001E-01   4.0000001E-01   4.0000001E-01   4.0000001E-01   4.0000001E-01   4.0000001E-01   4.0000001E-01   4.0000001E-01   4.0000001E-01   4.0000001E-01   4.0000001E-01   4.0000001E-01   4.0000001E-01   4.0000001E-01   4.0000001E-01   4.0000001E-01   4.0000001E-01   4.0000001E-01   4.0000001E-01   4.0000001E-01   4.0000001E-01   4.0000001E-01   4.0000001E-01   4.0000001E-01   4.0000001E-01   4.0000001E-01   4.0000001E-01   4.0000001E-01   4.0000001E-01   4.0000001E-01   4.0000001E-01   4.0000001E-01   4.0000001E-01   4.0000001E-01   4.0000001E-01   4.0000001E-01   4.0000001E-01   4.0000001E-01   4.0000001E-01   4.0000001E-01   4.0000001E-01   4.0000001E-01   4.0000001E-01   4.0000001E-01   4.0000001E-01   4.0000001E-01   4.0000001E-01   4.0000001E-01   4.0000001E-01   4.0000001E-01   4.0000001E-01   4.0000001E-01   4.0000001E-01   4.0000001E-01   4.0000001E-01   4.0000001E-01   4.0000001E-01   4.0000001E-01   4.0000001E-01   4.0000001E-01   4.0000001E-01   4.0000001E-01   4.0000001E-01   4.0000001E-01   4.0000001E-01   4.0000001E-01   4.0000001E-01   4.0000001E-01   4.0000001E-01   4.0000001E-01   4.0000001E-01   4.0000001E-01   4.0000001E-01   4.0000001E-01   4.0000001E-01   4.0000001E-01   4.0000001E-01   4.0000001E-01   4.0000001E-01   4.0000001E-01   4.0000001E-01   4.0000001E-01   4.0000001E-01   4.0000001E-01   4.0000001E-01   4.0000001E-01   4.0000001E-01   4.0000001E-01   4.0000001E-01   4.0000001E-01   4.0000001E-01   4.0000001E-01   4.0000001E-01   4.0000001E-01   4.0000001E-01   4.0000001E-01   4.0000001E-01   4.0000001E-01   4.0000001E-01   4.0000001E-01   4.0000001E-01   4.0000001E-01   4.0000001E-01   4.0000001E-01   4.0000001E-01   4.0000001E-01   4.0000001E-01   4.0000001E-01   4.0000001E-01   4.0000001E-01   4.0000001E-01   4.0000001E-01   4.0000001E-01   4.0000001E-01   4.0000001E-01   4.0000001E-01   4.0000001E-01   4.0000001E-01   4.0000001E-01   4.0000001E-01   4.0000001E-01   4.0000001E-01   4.0000001E-01   4.0000001E-01   4.0000001E-01   4.0000001E-01   4.0000001E-01   4.0000001E-01   4.0000001E-01   4.0000001E-01   4.0000001E-01   4.0000001E-01   4.0000001E-01   4.0000001E-01   4.0000001E-01   4.0000001E-01   4.0000001E-01   4.0000001E-01   4.0000001E-01   4.0000001E-01   4.0000001E-01   4.0000001E-01   4.0000001E-01   4.0000001E-01   4.0000001E-01   4.0000001E-01   4.0000001E-01   4.0000001E-01   4.0000001E-01   4.0000001E-01   4.0000001E-01   4.0000001E-01   4.0000001E-01   4.0000001E-01   4.0000001E-01   4.0000001E-01   4.0000001E-01   4.0000001E-01   4.0000001E-01   4.0000001E-01   4.0000001E-01   4.0000001E-01   4.0000001E-01   4.0000001E-01   4.0000001E-01   4.0000001E-01   4.0000001E-01   4.0000001E-01   4.0000001E-01   4.0000001E-01   4.0000001E-01   4.0000001E-01   4.0000001E-01   4.0000001E-01   4.0000001E-01   4.0000001E-01   4.0000001E-01   4.0000001E-01   4.0000001E-01   4.0000001E-01   4.0000001E-01   4.0000001E-01   4.0000001E-01   4.0000001E-01   4.0000001E-01   4.0000001E-01   4.0000001E-01   4.0000001E-01   4.0000001E-01   4.0000001E-01   4.0000001E-01   4.0000001E-01   4.0000001E-01   4.0000001E-01   4.0000001E-01   4.0000001E-01   4.0000001E-01   4.0000001E-01   4.0000001E-01   4.0000001E-01   4.0000001E-01   4.0000001E-01   4.0000001E-01   4.0000001E-01   4.0000001E-01   4.0000001E-01   4.0000001E-01   4.0000001E-01   4.0000001E-01   4.0000001E-01   4.0000001E-01   4.0000001E-01   4.0000001E-01   4.0000001E-01   4.0000001E-01   4.0000001E-01   4.0000001E-01   4.0000001E-01   4.0000001E-01   4.0000001E-01   4.0000001E-01   4.0000001E-01   4.0000001E-01   4.0000001E-01   4.0000001E-01   4.0000001E-01   4.0000001E-01   4.0000001E-01   4.0000001E-01   4.0000001E-01   4.0000001E-01   4.0000001E-01   4.0000001E-01   4.0000001E-01   4.0000001E-01   4.0000001E-01   4.0000001E-01   4.0000001E-01   4.0000001E-01   4.0000001E-01   4.0000001E-01   4.0000001E-01   4.0000001E-01   4.0000001E-01   4.0000001E-01   4.0000001E-01   4.0000001E-01   4.0000001E-01   4.0000001E-01   4.0000001E-01   4.0000001E-01   4.0000001E-01   4.0000001E-01   4.0000001E-01   4.0000001E-01   4.0000001E-01   4.0000001E-01   4.0000001E-01   4.0000001E-01   4.0000001E-01   4.0000001E-01   4.0000001E-01   4.0000001E-01   4.0000001E-01   4.0000001E-01   4.0000001E-01   4.0000001E-01   4.0000001E-01   4.0000001E-01   4.0000001E-01   4.0000001E-01   4.0000001E-01   4.0000001E-01   4.0000054E-01   4.0000066E-01   4.0000066E-01   4.0000054E-01   4.0000063E-01   4.0000069E-01   4.0000179E-01   4.0000170E-01   4.0000185E-01   4.0000173E-01   4.0000176E-01   4.0000176E-01   4.0000415E-01   4.0000424E-01   4.0000418E-01   4.0000424E-01   4.0000412E-01   4.0000424E-01   4.0001148E-01   4.0001145E-01   4.0001136E-01   4.0001151E-01   4.0001145E-01   4.0001148E-01   4.0003091E-01   4.0003088E-01   4.0003091E-01   4.0003097E-01   4.0003100E-01   4.0003097E-01   4.0008318E-01   4.0008324E-01   4.0008315E-01   4.0008327E-01   4.0008342E-01   4.0008327E-01   4.0022191E-01   4.0022200E-01   4.0022209E-01   4.0022212E-01   4.0022209E-01   4.0022227E-01   4.0057421E-01   4.0057451E-01   4.0057459E-01   4.0057486E-01   4.0057504E-01   4.0057498E-01   4.0138176E-01   4.0138230E-01   4.0138277E-01   4.0138310E-01   4.0138340E-01   4.0138352E-01   4.0286544E-01   4.0286633E-01   4.0286690E-01   4.0286735E-01   4.0286776E-01   4.0286800E-01   4.0473866E-01   4.0473962E-01   4.0473992E-01   4.0473998E-01   4.0474015E-01   4.0474039E-01   4.0624112E-01   4.0624163E-01   4.0624145E-01   4.0624085E-01   4.0624034E-01   4.0624025E-01   4.0706661E-01   4.0706673E-01   4.0706626E-01   4.0706536E-01   4.0706447E-01   4.0706387E-01   4.0742832E-01   4.0742856E-01   4.0742829E-01   4.0742701E-01   4.0742618E-01   4.0742567E-01   4.0757057E-01   4.0757087E-01   4.0757081E-01   4.0756989E-01   4.0756911E-01   4.0756842E-01   4.0762374E-01   4.0762410E-01   4.0762424E-01   4.0762347E-01   4.0762293E-01   4.0762225E-01   4.0764275E-01   4.0764326E-01   4.0764335E-01   4.0764269E-01   4.0764219E-01   4.0764156E-01   4.0764832E-01   4.0764880E-01   4.0764877E-01   4.0764821E-01   4.0764782E-01   4.0764716E-01   4.0763840E-01   4.0763882E-01   4.0763891E-01   4.0763843E-01   4.0763780E-01   4.0763724E-01   4.0751442E-01   4.0751487E-01   4.0751478E-01   4.0751421E-01   4.0751368E-01   4.0751311E-01   4.0727067E-01   4.0727106E-01   4.0727103E-01   4.0727046E-01   4.0726984E-01   4.0726942E-01   4.0692127E-01   4.0692142E-01   4.0692136E-01   4.0692079E-01   4.0692019E-01   4.0691969E-01   4.0648481E-01   4.0648493E-01   4.0648484E-01   4.0648419E-01   4.0648368E-01   4.0648335E-01   4.0598419E-01   4.0598416E-01   4.0598395E-01   4.0598351E-01   4.0598291E-01   4.0598258E-01   4.0544322E-01   4.0544316E-01   4.0544304E-01   4.0544248E-01   4.0544218E-01   4.0544188E-01   4.0488580E-01   4.0488565E-01   4.0488553E-01   4.0488508E-01   4.0488485E-01   4.0488470E-01   4.0433332E-01   4.0433308E-01   4.0433297E-01   4.0433270E-01   4.0433261E-01   4.0433234E-01   4.0380380E-01   4.0380377E-01   4.0380353E-01   4.0380338E-01   4.0380335E-01   4.0380314E-01   4.0331143E-01   4.0331155E-01   4.0331170E-01   4.0331158E-01   4.0331146E-01   4.0331149E-01   4.0286672E-01   4.0286681E-01   4.0286693E-01   4.0286702E-01   4.0286702E-01   4.0286699E-01   4.0247515E-01   4.0247524E-01   4.0247527E-01   4.0247542E-01   4.0247554E-01   4.0247551E-01   4.0213898E-01   4.0213916E-01   4.0213904E-01   4.0213928E-01   4.0213925E-01   4.0213943E-01   4.0185714E-01   4.0185708E-01   4.0185723E-01   4.0185735E-01   4.0185741E-01   4.0162590E-01   4.0162596E-01   4.0162602E-01   4.0162602E-01   4.0162620E-01   4.0144059E-01   4.0144053E-01   4.0144068E-01   4.0144068E-01   4.0129513E-01   4.0129516E-01   4.0129516E-01   4.0129530E-01   4.0118343E-01   4.0118343E-01   4.0118352E-01   4.0109944E-01   4.0109938E-01   4.0103742E-01   4.0103754E-01   4.0000001E-01   4.0000001E-01   4.0000001E-01   4.0000001E-01   4.0000001E-01   4.0000001E-01   4.0000001E-01   4.0000001E-01   4.0000001E-01   4.0000001E-01   4.0000001E-01   4.0000001E-01   4.0000001E-01   4.0000001E-01   4.0000001E-01   4.0000001E-01   4.0000001E-01   4.0000001E-01   4.0000001E-01   4.0000001E-01   4.0000001E-01   4.0000001E-01   4.0000001E-01   4.0000001E-01   4.0000001E-01   4.0000001E-01   4.0000001E-01   4.0000001E-01   4.0000001E-01   4.0000001E-01   4.0000001E-01   4.0000001E-01   4.0000001E-01   4.0000001E-01   4.0000001E-01   4.0000001E-01   4.0000001E-01   4.0000001E-01   4.0000001E-01   4.0000001E-01   4.0000001E-01   4.0000001E-01   4.0000001E-01   4.0000001E-01   4.0000001E-01   4.0000001E-01   4.0000001E-01   4.0000001E-01   4.0000001E-01   4.0000001E-01   4.0000001E-01   4.0000001E-01   4.0000001E-01   4.0000001E-01   4.0000001E-01   4.0000001E-01   4.0000001E-01   4.0000001E-01   4.0000001E-01   4.0000001E-01   4.0000001E-01   4.0000001E-01   4.0000001E-01   4.0000001E-01   4.0000001E-01   4.0000001E-01   4.0000001E-01   4.0000001E-01   4.0000001E-01   4.0000001E-01   4.0000001E-01   4.0000001E-01   4.0000001E-01   4.0000001E-01   4.0000001E-01   4.0000001E-01   4.0000001E-01   4.0000001E-01   4.0000001E-01   4.0000001E-01   4.0000001E-01   4.0000001E-01   4.0000001E-01   4.0000001E-01   4.0000001E-01   4.0000001E-01   4.0000001E-01   4.0000001E-01   4.0000001E-01   4.0000001E-01   4.0000001E-01   4.0000001E-01   4.0000001E-01   4.0000001E-01   4.0000001E-01   4.0000001E-01   4.0000001E-01   4.0000001E-01   4.0000001E-01   4.0000001E-01   4.0000001E-01   4.0000001E-01   4.0000001E-01   4.0000001E-01   4.0000001E-01   4.0000001E-01   4.0000001E-01   4.0000001E-01   4.0000001E-01   4.0000001E-01   4.0000001E-01   4.0000001E-01   4.0000001E-01   4.0000001E-01   4.0000001E-01   4.0000001E-01   4.0000001E-01   4.0000001E-01   4.0000001E-01   4.0000001E-01   4.0000001E-01   4.0000001E-01   4.0000001E-01   4.0000001E-01   4.0000001E-01   4.0000001E-01   4.0000001E-01   4.0000001E-01   4.0000001E-01   4.0000001E-01   4.0000001E-01   4.0000001E-01   4.0000001E-01   4.0000001E-01   4.0000001E-01   4.0000001E-01   4.0000001E-01   4.0000001E-01   4.0000001E-01   4.0000001E-01   4.0000001E-01   4.0000001E-01   4.0000001E-01   4.0000001E-01   4.0000001E-01   4.0000001E-01   4.0000001E-01   4.0000001E-01   4.0000001E-01   4.0000001E-01   4.0000001E-01   4.0000001E-01   4.0000001E-01   4.0000001E-01   4.0000001E-01   4.0000001E-01   4.0000001E-01   4.0000001E-01   4.0000001E-01   4.0000001E-01   4.0000001E-01   4.0000001E-01   4.0000001E-01   4.0000001E-01   4.0000001E-01   4.0000001E-01   4.0000001E-01   4.0000001E-01   4.0000001E-01   4.0000001E-01   4.0000001E-01   4.0000001E-01   4.0000001E-01   4.0000001E-01   4.0000001E-01   4.0000001E-01   4.0000001E-01   4.0000001E-01   4.0000001E-01   4.0000001E-01   4.0000001E-01   4.0000001E-01   4.0000001E-01   4.0000001E-01   4.0000001E-01   4.0000001E-01   4.0000001E-01   4.0000001E-01   4.0000001E-01   4.0000001E-01   4.0000001E-01   4.0000001E-01   4.0000001E-01   4.0000001E-01   4.0000001E-01   4.0000001E-01   4.0000001E-01   4.0000001E-01   4.0000001E-01   4.0000001E-01   4.0000001E-01   4.0000001E-01   4.0000001E-01   4.0000001E-01   4.0000001E-01   4.0000001E-01   4.0000001E-01   4.0000060E-01   4.0000060E-01   4.0000069E-01   4.0000066E-01   4.0000057E-01   4.0000057E-01   4.0000054E-01   4.0000057E-01   4.0000060E-01   4.0000185E-01   4.0000185E-01   4.0000182E-01   4.0000176E-01   4.0000185E-01   4.0000173E-01   4.0000182E-01   4.0000182E-01   4.0000173E-01   4.0000418E-01   4.0000412E-01   4.0000412E-01   4.0000412E-01   4.0000412E-01   4.0000409E-01   4.0000409E-01   4.0000418E-01   4.0000424E-01   4.0001142E-01   4.0001163E-01   4.0001157E-01   4.0001151E-01   4.0001148E-01   4.0001148E-01   4.0001160E-01   4.0001154E-01   4.0001145E-01   4.0003082E-01   4.0003103E-01   4.0003076E-01   4.0003088E-01   4.0003091E-01   4.0003097E-01   4.0003100E-01   4.0003097E-01   4.0003094E-01   4.0008327E-01   4.0008333E-01   4.0008330E-01   4.0008336E-01   4.0008336E-01   4.0008330E-01   4.0008342E-01   4.0008351E-01   4.0008342E-01   4.0022227E-01   4.0022218E-01   4.0022227E-01   4.0022230E-01   4.0022233E-01   4.0022230E-01   4.0022236E-01   4.0022245E-01   4.0022233E-01   4.0057498E-01   4.0057522E-01   4.0057522E-01   4.0057519E-01   4.0057531E-01   4.0057546E-01   4.0057561E-01   4.0057543E-01   4.0057555E-01   4.0138361E-01   4.0138391E-01   4.0138423E-01   4.0138417E-01   4.0138438E-01   4.0138441E-01   4.0138450E-01   4.0138456E-01   4.0138456E-01   4.0286839E-01   4.0286854E-01   4.0286878E-01   4.0286902E-01   4.0286922E-01   4.0286937E-01   4.0286937E-01   4.0286952E-01   4.0286952E-01   4.0474036E-01   4.0474069E-01   4.0474078E-01   4.0474081E-01   4.0474090E-01   4.0474105E-01   4.0474111E-01   4.0474117E-01   4.0474114E-01   4.0623999E-01   4.0623984E-01   4.0623966E-01   4.0623948E-01   4.0623942E-01   4.0623933E-01   4.0623933E-01   4.0623918E-01   4.0623909E-01   4.0706345E-01   4.0706280E-01   4.0706250E-01   4.0706217E-01   4.0706179E-01   4.0706164E-01   4.0706143E-01   4.0706131E-01   4.0706107E-01   4.0742496E-01   4.0742421E-01   4.0742382E-01   4.0742326E-01   4.0742278E-01   4.0742260E-01   4.0742213E-01   4.0742189E-01   4.0742180E-01   4.0756759E-01   4.0756708E-01   4.0756628E-01   4.0756580E-01   4.0756536E-01   4.0756491E-01   4.0756446E-01   4.0756422E-01   4.0756416E-01   4.0762138E-01   4.0762076E-01   4.0762013E-01   4.0761957E-01   4.0761900E-01   4.0761855E-01   4.0761811E-01   4.0761799E-01   4.0761781E-01   4.0764081E-01   4.0764019E-01   4.0763953E-01   4.0763894E-01   4.0763849E-01   4.0763795E-01   4.0763763E-01   4.0763742E-01   4.0763718E-01   4.0764651E-01   4.0764579E-01   4.0764514E-01   4.0764454E-01   4.0764406E-01   4.0764371E-01   4.0764335E-01   4.0764305E-01   4.0764272E-01   4.0763667E-01   4.0763590E-01   4.0763530E-01   4.0763474E-01   4.0763420E-01   4.0763384E-01   4.0763351E-01   4.0763322E-01   4.0763304E-01   4.0751258E-01   4.0751189E-01   4.0751120E-01   4.0751082E-01   4.0751031E-01   4.0750998E-01   4.0750954E-01   4.0750930E-01   4.0750909E-01   4.0726882E-01   4.0726814E-01   4.0726757E-01   4.0726718E-01   4.0726680E-01   4.0726641E-01   4.0726614E-01   4.0726584E-01   4.0726572E-01   4.0691918E-01   4.0691853E-01   4.0691829E-01   4.0691781E-01   4.0691745E-01   4.0691718E-01   4.0691689E-01   4.0691668E-01   4.0691650E-01   4.0648288E-01   4.0648231E-01   4.0648207E-01   4.0648174E-01   4.0648133E-01   4.0648106E-01   4.0648100E-01   4.0648070E-01   4.0648073E-01   4.0598217E-01   4.0598196E-01   4.0598160E-01   4.0598130E-01   4.0598115E-01   4.0598094E-01   4.0598071E-01   4.0598065E-01   4.0598050E-01   4.0544155E-01   4.0544134E-01   4.0544114E-01   4.0544090E-01   4.0544084E-01   4.0544066E-01   4.0544054E-01   4.0544051E-01   4.0544048E-01   4.0488455E-01   4.0488422E-01   4.0488413E-01   4.0488395E-01   4.0488389E-01   4.0488383E-01   4.0488374E-01   4.0488377E-01   4.0488356E-01   4.0433231E-01   4.0433210E-01   4.0433204E-01   4.0433201E-01   4.0433192E-01   4.0433198E-01   4.0433177E-01   4.0433171E-01   4.0433177E-01   4.0380305E-01   4.0380311E-01   4.0380293E-01   4.0380287E-01   4.0380296E-01   4.0380287E-01   4.0380284E-01   4.0380284E-01   4.0380290E-01   4.0331146E-01   4.0331131E-01   4.0331128E-01   4.0331131E-01   4.0331125E-01   4.0331137E-01   4.0331125E-01   4.0331125E-01   4.0331122E-01   4.0286702E-01   4.0286687E-01   4.0286678E-01   4.0286681E-01   4.0286684E-01   4.0286678E-01   4.0286684E-01   4.0286678E-01   4.0286678E-01   4.0247554E-01   4.0247554E-01   4.0247548E-01   4.0247551E-01   4.0247539E-01   4.0247548E-01   4.0247548E-01   4.0247545E-01   4.0247542E-01   4.0213946E-01   4.0213948E-01   4.0213954E-01   4.0213948E-01   4.0213934E-01   4.0213940E-01   4.0213937E-01   4.0213946E-01   4.0213931E-01   4.0185732E-01   4.0185750E-01   4.0185747E-01   4.0185738E-01   4.0185729E-01   4.0185738E-01   4.0185735E-01   4.0185735E-01   4.0185744E-01   4.0162617E-01   4.0162641E-01   4.0162626E-01   4.0162638E-01   4.0162629E-01   4.0162626E-01   4.0162638E-01   4.0162623E-01   4.0162620E-01   4.0144092E-01   4.0144080E-01   4.0144092E-01   4.0144086E-01   4.0144077E-01   4.0144086E-01   4.0144083E-01   4.0144080E-01   4.0144074E-01   4.0129533E-01   4.0129545E-01   4.0129548E-01   4.0129539E-01   4.0129527E-01   4.0129539E-01   4.0129527E-01   4.0129530E-01   4.0129527E-01   4.0118355E-01   4.0118340E-01   4.0118363E-01   4.0118361E-01   4.0118355E-01   4.0118355E-01   4.0118343E-01   4.0118358E-01   4.0118355E-01   4.0109938E-01   4.0109941E-01   4.0109941E-01   4.0109938E-01   4.0109941E-01   4.0109935E-01   4.0109950E-01   4.0109941E-01   4.0109938E-01   4.0103745E-01   4.0103742E-01   4.0103734E-01   4.0103742E-01   4.0103748E-01   4.0103742E-01   4.0103740E-01   4.0103745E-01   4.0103745E-01   4.0099281E-01   4.0099266E-01   4.0099275E-01   4.0099272E-01   4.0099272E-01   4.0099269E-01   4.0099260E-01   4.0099260E-01   4.0099266E-01   4.0096113E-01   4.0096104E-01   4.0096107E-01   4.0096113E-01   4.0096101E-01   4.0096110E-01   4.0096113E-01   4.0096104E-01   4.0093917E-01   4.0093914E-01   4.0093899E-01   4.0093914E-01   4.0093914E-01   4.0093908E-01   4.0092403E-01   4.0092412E-01   4.0092418E-01   4.0092412E-01   4.0000001E-01   4.0000001E-01   4.0000001E-01   4.0000001E-01   4.0000001E-01   4.0000001E-01   4.0000001E-01   4.0000001E-01   4.0000001E-01   4.0000001E-01   4.0000001E-01   4.0000001E-01   4.0000001E-01   4.0000001E-01   4.0000001E-01   4.0000001E-01   4.0000001E-01   4.0000001E-01   4.0000001E-01   4.0000001E-01   4.0000001E-01   4.0000001E-01   4.0000001E-01   4.0000001E-01   4.0000001E-01   4.0000001E-01   4.0000001E-01   4.0000001E-01   4.0000001E-01   4.0000001E-01   4.0000001E-01   4.0000001E-01   4.0000001E-01   4.0000001E-01   4.0000001E-01   4.0000001E-01   4.0000001E-01   4.0000001E-01   4.0000001E-01   4.0000001E-01   4.0000001E-01   4.0000001E-01   4.0000001E-01   4.0000001E-01   4.0000001E-01   4.0000001E-01   4.0000001E-01   4.0000001E-01   4.0000001E-01   4.0000001E-01   4.0000001E-01   4.0000001E-01   4.0000001E-01   4.0000001E-01   4.0000001E-01   4.0000001E-01   4.0000001E-01   4.0000001E-01   4.0000001E-01   4.0000001E-01   4.0000001E-01   4.0000001E-01   4.0000001E-01   4.0000001E-01   4.0000001E-01   4.0000001E-01   4.0000001E-01   4.0000001E-01   4.0000001E-01   4.0000001E-01   4.0000001E-01   4.0000001E-01   4.0000001E-01   4.0000001E-01   4.0000001E-01   4.0000001E-01   4.0000001E-01   4.0000001E-01   4.0000001E-01   4.0000001E-01   4.0000001E-01   4.0000001E-01   4.0000001E-01   4.0000001E-01   4.0000001E-01   4.0000001E-01   4.0000001E-01   4.0000001E-01   4.0000001E-01   4.0000001E-01   4.0000001E-01   4.0000001E-01   4.0000001E-01   4.0000001E-01   4.0000001E-01   4.0000001E-01   4.0000001E-01   4.0000001E-01   4.0000001E-01   4.0000001E-01   4.0000001E-01   4.0000001E-01   4.0000001E-01   4.0000001E-01   4.0000001E-01   4.0000001E-01   4.0000001E-01   4.0000001E-01   4.0000001E-01   4.0000001E-01   4.0000001E-01   4.0000001E-01   4.0000001E-01   4.0000001E-01   4.0000001E-01   4.0000001E-01   4.0000001E-01   4.0000001E-01   4.0000001E-01   4.0000001E-01   4.0000001E-01   4.0000001E-01   4.0000001E-01   4.0000001E-01   4.0000001E-01   4.0000001E-01   4.0000001E-01   4.0000001E-01   4.0000001E-01   4.0000001E-01   4.0000001E-01   4.0000001E-01   4.0000001E-01   4.0000001E-01   4.0000001E-01   4.0000001E-01   4.0000001E-01   4.0000001E-01   4.0000001E-01   4.0000001E-01   4.0000001E-01   4.0000001E-01   4.0000001E-01   4.0000001E-01   4.0000001E-01   4.0000001E-01   4.0000001E-01   4.0000001E-01   4.0000001E-01   4.0000001E-01   4.0000001E-01   4.0000001E-01   4.0000001E-01   4.0000001E-01   4.0000001E-01   4.0000001E-01   4.0000001E-01   4.0000001E-01   4.0000001E-01   4.0000001E-01   4.0000001E-01   4.0000001E-01   4.0000001E-01   4.0000001E-01   4.0000001E-01   4.0000001E-01   4.0000001E-01   4.0000001E-01   4.0000001E-01   4.0000001E-01   4.0000001E-01   4.0000001E-01   4.0000001E-01   4.0000001E-01   4.0000001E-01   4.0000001E-01   4.0000001E-01   4.0000001E-01   4.0000001E-01   4.0000001E-01   4.0000001E-01   4.0000001E-01   4.0000001E-01   4.0000001E-01   4.0000063E-01   4.0000060E-01   4.0000057E-01   4.0000054E-01   4.0000057E-01   4.0000057E-01   4.0000066E-01   4.0000069E-01   4.0000182E-01   4.0000173E-01   4.0000182E-01   4.0000182E-01   4.0000173E-01   4.0000185E-01   4.0000176E-01   4.0000182E-01   4.0000424E-01   4.0000424E-01   4.0000418E-01   4.0000409E-01   4.0000409E-01   4.0000412E-01   4.0000412E-01   4.0000412E-01   4.0001148E-01   4.0001145E-01   4.0001154E-01   4.0001160E-01   4.0001148E-01   4.0001148E-01   4.0001151E-01   4.0001157E-01   4.0003103E-01   4.0003094E-01   4.0003097E-01   4.0003100E-01   4.0003097E-01   4.0003091E-01   4.0003088E-01   4.0003076E-01   4.0008336E-01   4.0008342E-01   4.0008351E-01   4.0008342E-01   4.0008330E-01   4.0008336E-01   4.0008336E-01   4.0008330E-01   4.0022236E-01   4.0022233E-01   4.0022245E-01   4.0022236E-01   4.0022230E-01   4.0022233E-01   4.0022230E-01   4.0022227E-01   4.0057555E-01   4.0057555E-01   4.0057543E-01   4.0057561E-01   4.0057546E-01   4.0057531E-01   4.0057519E-01   4.0057522E-01   4.0138450E-01   4.0138456E-01   4.0138456E-01   4.0138450E-01   4.0138441E-01   4.0138438E-01   4.0138417E-01   4.0138423E-01   4.0286967E-01   4.0286952E-01   4.0286952E-01   4.0286937E-01   4.0286937E-01   4.0286922E-01   4.0286902E-01   4.0286878E-01   4.0474120E-01   4.0474114E-01   4.0474117E-01   4.0474111E-01   4.0474105E-01   4.0474090E-01   4.0474081E-01   4.0474078E-01   4.0623924E-01   4.0623909E-01   4.0623918E-01   4.0623933E-01   4.0623933E-01   4.0623942E-01   4.0623948E-01   4.0623966E-01   4.0706110E-01   4.0706107E-01   4.0706131E-01   4.0706143E-01   4.0706164E-01   4.0706179E-01   4.0706217E-01   4.0706250E-01   4.0742180E-01   4.0742180E-01   4.0742189E-01   4.0742213E-01   4.0742260E-01   4.0742278E-01   4.0742326E-01   4.0742382E-01   4.0756395E-01   4.0756416E-01   4.0756422E-01   4.0756446E-01   4.0756491E-01   4.0756536E-01   4.0756580E-01   4.0756628E-01   4.0761754E-01   4.0761781E-01   4.0761799E-01   4.0761811E-01   4.0761855E-01   4.0761900E-01   4.0761957E-01   4.0762013E-01   4.0763712E-01   4.0763718E-01   4.0763742E-01   4.0763763E-01   4.0763795E-01   4.0763849E-01   4.0763894E-01   4.0763953E-01   4.0764269E-01   4.0764272E-01   4.0764305E-01   4.0764335E-01   4.0764371E-01   4.0764406E-01   4.0764454E-01   4.0764514E-01   4.0763286E-01   4.0763304E-01   4.0763322E-01   4.0763351E-01   4.0763384E-01   4.0763420E-01   4.0763474E-01   4.0763530E-01   4.0750894E-01   4.0750909E-01   4.0750930E-01   4.0750954E-01   4.0750998E-01   4.0751031E-01   4.0751082E-01   4.0751120E-01   4.0726575E-01   4.0726572E-01   4.0726584E-01   4.0726614E-01   4.0726641E-01   4.0726680E-01   4.0726718E-01   4.0726757E-01   4.0691650E-01   4.0691650E-01   4.0691668E-01   4.0691689E-01   4.0691718E-01   4.0691745E-01   4.0691781E-01   4.0691829E-01   4.0648073E-01   4.0648073E-01   4.0648070E-01   4.0648100E-01   4.0648106E-01   4.0648133E-01   4.0648174E-01   4.0648207E-01   4.0598056E-01   4.0598050E-01   4.0598065E-01   4.0598071E-01   4.0598094E-01   4.0598115E-01   4.0598130E-01   4.0598160E-01   4.0544042E-01   4.0544048E-01   4.0544051E-01   4.0544054E-01   4.0544066E-01   4.0544084E-01   4.0544090E-01   4.0544114E-01   4.0488362E-01   4.0488356E-01   4.0488377E-01   4.0488374E-01   4.0488383E-01   4.0488389E-01   4.0488395E-01   4.0488413E-01   4.0433177E-01   4.0433177E-01   4.0433171E-01   4.0433177E-01   4.0433198E-01   4.0433192E-01   4.0433201E-01   4.0433204E-01   4.0380287E-01   4.0380290E-01   4.0380284E-01   4.0380284E-01   4.0380287E-01   4.0380296E-01   4.0380287E-01   4.0380293E-01   4.0331113E-01   4.0331122E-01   4.0331125E-01   4.0331125E-01   4.0331137E-01   4.0331125E-01   4.0331131E-01   4.0331128E-01   4.0286675E-01   4.0286678E-01   4.0286678E-01   4.0286684E-01   4.0286678E-01   4.0286684E-01   4.0286681E-01   4.0286678E-01   4.0247539E-01   4.0247542E-01   4.0247545E-01   4.0247548E-01   4.0247548E-01   4.0247539E-01   4.0247551E-01   4.0247548E-01   4.0213948E-01   4.0213931E-01   4.0213946E-01   4.0213937E-01   4.0213940E-01   4.0213934E-01   4.0213948E-01   4.0213954E-01   4.0185723E-01   4.0185744E-01   4.0185735E-01   4.0185735E-01   4.0185738E-01   4.0185729E-01   4.0185738E-01   4.0185747E-01   4.0162617E-01   4.0162620E-01   4.0162623E-01   4.0162638E-01   4.0162626E-01   4.0162629E-01   4.0162638E-01   4.0162626E-01   4.0144083E-01   4.0144074E-01   4.0144080E-01   4.0144083E-01   4.0144086E-01   4.0144077E-01   4.0144086E-01   4.0144092E-01   4.0129536E-01   4.0129527E-01   4.0129530E-01   4.0129527E-01   4.0129539E-01   4.0129527E-01   4.0129539E-01   4.0129548E-01   4.0118340E-01   4.0118355E-01   4.0118358E-01   4.0118343E-01   4.0118355E-01   4.0118355E-01   4.0118361E-01   4.0118363E-01   4.0109935E-01   4.0109938E-01   4.0109941E-01   4.0109950E-01   4.0109935E-01   4.0109941E-01   4.0109938E-01   4.0109941E-01   4.0103737E-01   4.0103745E-01   4.0103745E-01   4.0103740E-01   4.0103742E-01   4.0103748E-01   4.0103742E-01   4.0103734E-01   4.0099269E-01   4.0099266E-01   4.0099260E-01   4.0099260E-01   4.0099269E-01   4.0099272E-01   4.0099272E-01   4.0099275E-01   4.0096104E-01   4.0096104E-01   4.0096113E-01   4.0096110E-01   4.0096101E-01   4.0096113E-01   4.0096107E-01   4.0096104E-01   4.0093914E-01   4.0093908E-01   4.0093914E-01   4.0093914E-01   4.0093899E-01   4.0093914E-01   4.0093917E-01   4.0092418E-01   4.0092412E-01   4.0092418E-01   4.0092412E-01   4.0092403E-01   4.0000001E-01   4.0000001E-01   4.0000001E-01   4.0000001E-01   4.0000001E-01   4.0000001E-01   4.0000001E-01   4.0000001E-01   4.0000001E-01   4.0000001E-01   4.0000001E-01   4.0000001E-01   4.0000001E-01   4.0000001E-01   4.0000001E-01   4.0000001E-01   4.0000001E-01   4.0000001E-01   4.0000001E-01   4.0000001E-01   4.0000001E-01   4.0000001E-01   4.0000001E-01   4.0000001E-01   4.0000001E-01   4.0000001E-01   4.0000001E-01   4.0000001E-01   4.0000001E-01   4.0000001E-01   4.0000001E-01   4.0000001E-01   4.0000001E-01   4.0000001E-01   4.0000001E-01   4.0000001E-01   4.0000001E-01   4.0000001E-01   4.0000001E-01   4.0000001E-01   4.0000001E-01   4.0000001E-01   4.0000001E-01   4.0000001E-01   4.0000001E-01   4.0000001E-01   4.0000001E-01   4.0000001E-01   4.0000001E-01   4.0000001E-01   4.0000001E-01   4.0000001E-01   4.0000001E-01   4.0000001E-01   4.0000001E-01   4.0000001E-01   4.0000001E-01   4.0000001E-01   4.0000001E-01   4.0000001E-01   4.0000001E-01   4.0000001E-01   4.0000001E-01   4.0000001E-01   4.0000001E-01   4.0000001E-01   4.0000001E-01   4.0000001E-01   4.0000001E-01   4.0000001E-01   4.0000001E-01   4.0000001E-01   4.0000001E-01   4.0000001E-01   4.0000001E-01   4.0000001E-01   4.0000001E-01   4.0000001E-01   4.0000001E-01   4.0000001E-01   4.0000001E-01   4.0000001E-01   4.0000001E-01   4.0000001E-01   4.0000001E-01   4.0000001E-01   4.0000001E-01   4.0000001E-01   4.0000001E-01   4.0000001E-01   4.0000001E-01   4.0000001E-01   4.0000001E-01   4.0000001E-01   4.0000001E-01   4.0000001E-01   4.0000001E-01   4.0000001E-01   4.0000001E-01   4.0000001E-01   4.0000001E-01   4.0000001E-01   4.0000001E-01   4.0000001E-01   4.0000001E-01   4.0000001E-01   4.0000001E-01   4.0000001E-01   4.0000001E-01   4.0000001E-01   4.0000001E-01   4.0000001E-01   4.0000001E-01   4.0000001E-01   4.0000001E-01   4.0000001E-01   4.0000001E-01   4.0000001E-01   4.0000001E-01   4.0000001E-01   4.0000001E-01   4.0000001E-01   4.0000001E-01   4.0000001E-01   4.0000001E-01   4.0000001E-01   4.0000001E-01   4.0000001E-01   4.0000001E-01   4.0000001E-01   4.0000001E-01   4.0000001E-01   4.0000001E-01   4.0000001E-01   4.0000001E-01   4.0000001E-01   4.0000001E-01   4.0000001E-01   4.0000001E-01   4.0000001E-01   4.0000001E-01   4.0000001E-01   4.0000001E-01   4.0000001E-01   4.0000001E-01   4.0000001E-01   4.0000001E-01   4.0000001E-01   4.0000001E-01   4.0000001E-01   4.0000001E-01   4.0000001E-01   4.0000001E-01   4.0000001E-01   4.0000001E-01   4.0000001E-01   4.0000001E-01   4.0000001E-01   4.0000001E-01   4.0000001E-01   4.0000001E-01   4.0000001E-01   4.0000001E-01   4.0000001E-01   4.0000001E-01   4.0000001E-01   4.0000001E-01   4.0000001E-01   4.0000001E-01   4.0000001E-01   4.0000001E-01   4.0000001E-01   4.0000001E-01   4.0000001E-01   4.0000001E-01   4.0000001E-01   4.0000001E-01   4.0000001E-01   4.0000001E-01   4.0000001E-01   4.0000001E-01   4.0000001E-01   4.0000001E-01   4.0000060E-01   4.0000060E-01   4.0000069E-01   4.0000063E-01   4.0000054E-01   4.0000066E-01   4.0000066E-01   4.0000054E-01   4.0000185E-01   4.0000185E-01   4.0000176E-01   4.0000176E-01   4.0000173E-01   4.0000185E-01   4.0000170E-01   4.0000179E-01   4.0000412E-01   4.0000418E-01   4.0000424E-01   4.0000412E-01   4.0000424E-01   4.0000418E-01   4.0000424E-01   4.0000415E-01   4.0001163E-01   4.0001142E-01   4.0001148E-01   4.0001145E-01   4.0001151E-01   4.0001136E-01   4.0001145E-01   4.0001148E-01   4.0003103E-01   4.0003082E-01   4.0003097E-01   4.0003100E-01   4.0003097E-01   4.0003091E-01   4.0003088E-01   4.0003091E-01   4.0008333E-01   4.0008327E-01   4.0008327E-01   4.0008342E-01   4.0008327E-01   4.0008315E-01   4.0008324E-01   4.0008318E-01   4.0022218E-01   4.0022227E-01   4.0022227E-01   4.0022209E-01   4.0022212E-01   4.0022209E-01   4.0022200E-01   4.0022191E-01   4.0057522E-01   4.0057498E-01   4.0057498E-01   4.0057504E-01   4.0057486E-01   4.0057459E-01   4.0057451E-01   4.0057421E-01   4.0138391E-01   4.0138361E-01   4.0138352E-01   4.0138340E-01   4.0138310E-01   4.0138277E-01   4.0138230E-01   4.0138176E-01   4.0286854E-01   4.0286839E-01   4.0286800E-01   4.0286776E-01   4.0286735E-01   4.0286690E-01   4.0286633E-01   4.0286544E-01   4.0474069E-01   4.0474036E-01   4.0474039E-01   4.0474015E-01   4.0473998E-01   4.0473992E-01   4.0473962E-01   4.0473866E-01   4.0623984E-01   4.0623999E-01   4.0624025E-01   4.0624034E-01   4.0624085E-01   4.0624145E-01   4.0624163E-01   4.0624112E-01   4.0706280E-01   4.0706345E-01   4.0706387E-01   4.0706447E-01   4.0706536E-01   4.0706626E-01   4.0706673E-01   4.0706661E-01   4.0742421E-01   4.0742496E-01   4.0742567E-01   4.0742618E-01   4.0742701E-01   4.0742829E-01   4.0742856E-01   4.0742832E-01   4.0756708E-01   4.0756759E-01   4.0756842E-01   4.0756911E-01   4.0756989E-01   4.0757081E-01   4.0757087E-01   4.0757057E-01   4.0762076E-01   4.0762138E-01   4.0762225E-01   4.0762293E-01   4.0762347E-01   4.0762424E-01   4.0762410E-01   4.0762374E-01   4.0764019E-01   4.0764090E-01   4.0764156E-01   4.0764219E-01   4.0764269E-01   4.0764335E-01   4.0764326E-01   4.0764275E-01   4.0764579E-01   4.0764651E-01   4.0764716E-01   4.0764782E-01   4.0764821E-01   4.0764877E-01   4.0764880E-01   4.0764832E-01   4.0763590E-01   4.0763667E-01   4.0763724E-01   4.0763780E-01   4.0763843E-01   4.0763891E-01   4.0763882E-01   4.0763840E-01   4.0751189E-01   4.0751258E-01   4.0751311E-01   4.0751368E-01   4.0751421E-01   4.0751478E-01   4.0751487E-01   4.0751442E-01   4.0726814E-01   4.0726882E-01   4.0726942E-01   4.0726984E-01   4.0727046E-01   4.0727103E-01   4.0727106E-01   4.0727067E-01   4.0691853E-01   4.0691918E-01   4.0691969E-01   4.0692019E-01   4.0692079E-01   4.0692136E-01   4.0692142E-01   4.0692127E-01   4.0648231E-01   4.0648288E-01   4.0648335E-01   4.0648368E-01   4.0648419E-01   4.0648484E-01   4.0648493E-01   4.0648481E-01   4.0598196E-01   4.0598217E-01   4.0598258E-01   4.0598291E-01   4.0598351E-01   4.0598395E-01   4.0598416E-01   4.0598419E-01   4.0544134E-01   4.0544155E-01   4.0544188E-01   4.0544218E-01   4.0544248E-01   4.0544304E-01   4.0544316E-01   4.0544322E-01   4.0488422E-01   4.0488455E-01   4.0488470E-01   4.0488485E-01   4.0488508E-01   4.0488553E-01   4.0488565E-01   4.0488580E-01   4.0433210E-01   4.0433231E-01   4.0433234E-01   4.0433261E-01   4.0433270E-01   4.0433297E-01   4.0433308E-01   4.0433332E-01   4.0380311E-01   4.0380305E-01   4.0380314E-01   4.0380335E-01   4.0380338E-01   4.0380353E-01   4.0380377E-01   4.0380380E-01   4.0331131E-01   4.0331146E-01   4.0331149E-01   4.0331146E-01   4.0331158E-01   4.0331170E-01   4.0331155E-01   4.0331143E-01   4.0286687E-01   4.0286702E-01   4.0286699E-01   4.0286702E-01   4.0286702E-01   4.0286693E-01   4.0286681E-01   4.0286672E-01   4.0247554E-01   4.0247554E-01   4.0247551E-01   4.0247554E-01   4.0247542E-01   4.0247527E-01   4.0247524E-01   4.0247515E-01   4.0213948E-01   4.0213946E-01   4.0213943E-01   4.0213925E-01   4.0213928E-01   4.0213904E-01   4.0213916E-01   4.0213898E-01   4.0185750E-01   4.0185732E-01   4.0185741E-01   4.0185735E-01   4.0185723E-01   4.0185708E-01   4.0185714E-01   4.0162641E-01   4.0162617E-01   4.0162620E-01   4.0162602E-01   4.0162602E-01   4.0162596E-01   4.0162590E-01   4.0144080E-01   4.0144092E-01   4.0144068E-01   4.0144068E-01   4.0144053E-01   4.0144059E-01   4.0129545E-01   4.0129533E-01   4.0129530E-01   4.0129516E-01   4.0129516E-01   4.0129513E-01   4.0118340E-01   4.0118355E-01   4.0118352E-01   4.0118343E-01   4.0118343E-01   4.0109941E-01   4.0109938E-01   4.0109938E-01   4.0109944E-01   4.0103742E-01   4.0103745E-01   4.0103754E-01   4.0103742E-01   4.0099266E-01   4.0099281E-01   4.0096113E-01 
Press 1 2975 float
  0.0000000E+00   0.0000000E+00   0.0000000E+00   0.0000000E+00   0.0000000E+00   0.0000000E+00   0.0000000E+00   0.0000000E+00   0.0000000E+00   0.0000000E+00   0.0000000E+00   0.0000000E+00   0.0000000E+00   0.0000000E+00   0.0000000E+00   0.0000000E+00   0.0000000E+00   0.0000000E+00   0.0000000E+00   0.0000000E+00   0.0000000E+00   9.8762624E-02   2.9628786E-01   9.8762624E-02   3.9505050E-01   7.9010099E-01   2.9628786E-01   6.9133836E-01   1.5802020E+00   4.9381313E-01   1.3826767E+00   2.5678282E+00   8.8886362E-01   2.0740151E+00   3.7529798E+00   1.1851515E+00   2.8641162E+00   5.0368938E+00   1.5802020E+00   3.5554545E+00   6.4195704E+00   1.9752525E+00   4.4443183E+00   7.7034845E+00   2.3703029E+00   5.3331819E+00   9.3824492E+00   3.0616415E+00   6.6170959E+00   1.1555227E+01   3.8517423E+00   8.4935856E+00   1.4913157E+01   5.2344189E+00   1.1653990E+01   2.0345100E+01   7.8022475E+00   1.6592121E+01   2.8443636E+01   1.2147802E+01   2.4098080E+01   4.0196388E+01   3.4863205E+01   5.5109543E+01   0.0000000E+00   0.0000000E+00   0.0000000E+00   0.0000000E+00   0.0000000E+00   0.0000000E+00   0.0000000E+00   0.0000000E+00   0.0000000E+00   0.0000000E+00   0.0000000E+00   0.0000000E+00   0.0000000E+00   0.0000000E+00   0.0000000E+00   0.0000000E+00   0.0000000E+00   0.0000000E+00   0.0000000E+00   0.0000000E+00   0.0000000E+00   0.0000000E+00   0.0000000E+00   0.0000000E+00   0.0000000E+00   0.0000000E+00   0.0000000E+00   0.0000000E+00   0.0000000E+00   0.0000000E+00   0.0000000E+00   0.0000000E+00   0.0000000E+00   0.0000000E+00   0.0000000E+00   0.0000000E+00   0.0000000E+00   0.0000000E+00   0.0000000E+00   0.0000000E+00   0.0000000E+00   0.0000000E+00   1.9752525E-01   1.9752525E-01   2.9628786E-01   3.9505050E-01   3.9505050E-01   4.9381313E-01   1.9752525E-01   3.9505050E-01   5.9257573E-01   8.8886362E-01   1.0863888E+00   1.2839141E+00   1.3826767E+00   1.5802020E+00   6.9133836E-01   1.0863888E+00   1.5802020E+00   2.1727777E+00   2.7653534E+00   3.1604040E+00   3.4566917E+00   3.7529798E+00   1.3826767E+00   2.2715404E+00   3.3579292E+00   4.4443183E+00   5.3331819E+00   6.2220454E+00   7.0121465E+00   7.5059595E+00   2.6665909E+00   3.9505050E+00   5.6294694E+00   7.4071970E+00   9.1849241E+00   1.0468838E+01   1.1653990E+01   1.2444091E+01   4.2467928E+00   6.4195704E+00   8.8886366E+00   1.1357701E+01   1.3728004E+01   1.5703258E+01   1.7283459E+01   1.8369848E+01   6.0245199E+00   8.8886366E+00   1.2049040E+01   7.9010100E+00   1.1456465E+01   9.8762627E+00   1.4123055E+01   1.1950277E+01   1.6888409E+01   1.4320580E+01   2.0443863E+01   1.7777273E+01   2.5184469E+01   2.2912930E+01   3.2097855E+01   3.0912701E+01   4.2566692E+01   4.2862980E+01   5.7874897E+01   5.9553864E+01   7.8713814E+01   8.0195251E+01   1.0458962E+02   0.0000000E+00   0.0000000E+00   0.0000000E+00   0.0000000E+00   0.0000000E+00   0.0000000E+00   0.0000000E+00   0.0000000E+00   0.0000000E+00   0.0000000E+00   0.0000000E+00   0.0000000E+00   0.0000000E+00   0.0000000E+00   0.0000000E+00   0.0000000E+00   0.0000000E+00   0.0000000E+00   0.0000000E+00   0.0000000E+00   0.0000000E+00   0.0000000E+00   0.0000000E+00   0.0000000E+00   0.0000000E+00   0.0000000E+00   0.0000000E+00   0.0000000E+00   0.0000000E+00   0.0000000E+00   0.0000000E+00   0.0000000E+00   0.0000000E+00   0.0000000E+00   0.0000000E+00   0.0000000E+00   0.0000000E+00   0.0000000E+00   0.0000000E+00   0.0000000E+00   0.0000000E+00   0.0000000E+00   0.0000000E+00   0.0000000E+00   0.0000000E+00   4.9381313E-01   4.9381313E-01   4.9381313E-01   4.9381313E-01   4.9381313E-01   4.9381313E-01   4.9381313E-01   4.9381313E-01   4.9381313E-01   1.5802020E+00   1.6789646E+00   1.6789646E+00   1.6789646E+00   1.7777272E+00   1.7777272E+00   1.7777272E+00   1.7777272E+00   1.7777272E+00   3.9505050E+00   4.1480303E+00   4.1480303E+00   4.4443183E+00   4.4443183E+00   4.4443183E+00   4.4443183E+00   4.5430808E+00   4.5430808E+00   7.8022475E+00   8.1972980E+00   8.3948231E+00   8.5923481E+00   8.6911106E+00   8.6911106E+00   8.6911106E+00   8.6911106E+00   8.6911106E+00   1.3135429E+01   1.3728004E+01   1.3925530E+01   1.4221818E+01   1.4419343E+01   1.4518106E+01   1.4518106E+01   1.4518106E+01   1.4518106E+01   1.9456238E+01   1.9950050E+01   2.0345100E+01   2.0641388E+01   2.0937675E+01   2.1036438E+01   2.1135202E+01   2.1135202E+01   2.1233965E+01   0.0000000E+00   0.0000000E+00   0.0000000E+00   0.0000000E+00   0.0000000E+00   0.0000000E+00   0.0000000E+00   0.0000000E+00   0.0000000E+00   0.0000000E+00   0.0000000E+00   0.0000000E+00   0.0000000E+00   0.0000000E+00   0.0000000E+00   0.0000000E+00   0.0000000E+00   0.0000000E+00   0.0000000E+00   0.0000000E+00   0.0000000E+00   0.0000000E+00   0.0000000E+00   0.0000000E+00   0.0000000E+00   0.0000000E+00   0.0000000E+00   0.0000000E+00   0.0000000E+00   0.0000000E+00   0.0000000E+00   0.0000000E+00   0.0000000E+00   0.0000000E+00   0.0000000E+00   0.0000000E+00   0.0000000E+00   0.0000000E+00   0.0000000E+00   0.0000000E+00   4.9381313E-01   4.9381313E-01   4.9381313E-01   4.9381313E-01   4.9381313E-01   4.9381313E-01   4.9381313E-01   4.9381313E-01   1.7777272E+00   1.7777272E+00   1.7777272E+00   1.7777272E+00   1.7777272E+00   1.7777272E+00   1.6789646E+00   1.6789646E+00   4.5430808E+00   4.5430808E+00   4.5430808E+00   4.4443183E+00   4.4443183E+00   4.4443183E+00   4.4443183E+00   4.1480303E+00   8.6911106E+00   8.6911106E+00   8.6911106E+00   8.6911106E+00   8.6911106E+00   8.6911106E+00   8.5923481E+00   8.3948231E+00   1.4518106E+01   1.4518106E+01   1.4518106E+01   1.4518106E+01   1.4518106E+01   1.4419343E+01   1.4221818E+01   1.3925530E+01   2.1233965E+01   2.1233965E+01   2.1135202E+01   2.1135202E+01   2.1036438E+01   2.0937675E+01   2.0641388E+01   2.0345100E+01   0.0000000E+00   0.0000000E+00   0.0000000E+00   0.0000000E+00   0.0000000E+00   0.0000000E+00   0.0000000E+00   0.0000000E+00   0.0000000E+00   0.0000000E+00   0.0000000E+00   0.0000000E+00   0.0000000E+00   0.0000000E+00   0.0000000E+00   0.0000000E+00   0.0000000E+00   0.0000000E+00   0.0000000E+00   0.0000000E+00   0.0000000E+00   0.0000000E+00   0.0000000E+00   0.0000000E+00   0.0000000E+00   0.0000000E+00   0.0000000E+00   0.0000000E+00   0.0000000E+00   0.0000000E+00   0.0000000E+00   0.0000000E+00   0.0000000E+00   0.0000000E+00   0.0000000E+00   0.0000000E+00   0.0000000E+00   0.0000000E+00   0.0000000E+00   0.0000000E+00   0.0000000E+00   0.0000000E+00   0.0000000E+00   0.0000000E+00   0.0000000E+00   4.9381313E-01   4.9381313E-01   4.9381313E-01   3.9505050E-01   3.9505050E-01   2.9628786E-01   1.9752525E-01   1.9752525E-01   0.0000000E+00   1.6789646E+00   1.5802020E+00   1.5802020E+00   1.3826767E+00   1.2839141E+00   1.0863888E+00   8.8886362E-01   5.9257573E-01   3.9505050E-01   4.1480303E+00   3.9505050E+00   3.7529798E+00   3.4566917E+00   3.1604040E+00   2.7653534E+00   2.1727777E+00   1.5802020E+00   1.0863888E+00   8.1972980E+00   7.8022475E+00   7.5059595E+00   7.0121465E+00   6.2220454E+00   5.3331819E+00   4.4443183E+00   3.3579292E+00   2.2715404E+00   1.3728004E+01   1.3135429E+01   1.2444091E+01   1.1653990E+01   1.0468838E+01   9.1849241E+00   7.4071970E+00   5.6294694E+00   3.9505050E+00   1.9950050E+01   1.9456238E+01   1.8369848E+01   1.7283459E+01   1.5703258E+01   1.3728004E+01   1.1357701E+01   8.8886366E+00   6.4195704E+00   1.2049040E+01   8.8886366E+00   1.1456465E+01   1.4123055E+01   1.6888409E+01   2.0443863E+01   2.5184469E+01   3.2097855E+01   4.2566692E+01   5.7874897E+01   7.8713814E+01   1.0458962E+02   0.0000000E+00   0.0000000E+00   0.0000000E+00   0.0000000E+00   0.0000000E+00   0.0000000E+00   0.0000000E+00   0.0000000E+00   0.0000000E+00   0.0000000E+00   0.0000000E+00   0.0000000E+00   0.0000000E+00   0.0000000E+00   0.0000000E+00   0.0000000E+00   0.0000000E+00   0.0000000E+00   0.0000000E+00   0.0000000E+00   0.0000000E+00   0.0000000E+00   0.0000000E+00   1.9752525E-01   0.0000000E+00   0.0000000E+00   0.0000000E+00   6.9133836E-01   2.9628786E-01   9.8762624E-02   0.0000000E+00   1.3826767E+00   7.9010099E-01   3.9505050E-01   9.8762624E-02   2.6665909E+00   1.5802020E+00   6.9133836E-01   2.9628786E-01   4.2467928E+00   2.5678282E+00   1.3826767E+00   4.9381313E-01   6.0245199E+00   3.7529798E+00   2.0740151E+00   8.8886362E-01   7.9010100E+00   5.0368938E+00   2.8641162E+00   1.1851515E+00   9.8762627E+00   6.4195704E+00   3.5554545E+00   1.5802020E+00   1.1950277E+01   7.7034845E+00   4.4443183E+00   1.9752525E+00   1.4320580E+01   9.3824492E+00   5.3331819E+00   2.3703029E+00   1.7777273E+01   1.1555227E+01   6.6170959E+00   3.0616415E+00   2.2912930E+01   1.4913157E+01   8.4935856E+00   3.8517423E+00   3.0912701E+01   2.0345100E+01   1.1653990E+01   5.2344189E+00   4.2862980E+01   2.8443636E+01   1.6592121E+01   7.8022475E+00   5.9553864E+01   4.0196388E+01   2.4098080E+01   1.2147802E+01   8.0195251E+01   5.5109543E+01   3.4863205E+01   0.0000000E+00   0.0000000E+00   0.0000000E+00   0.0000000E+00   0.0000000E+00   0.0000000E+00   0.0000000E+00   0.0000000E+00   0.0000000E+00   0.0000000E+00   0.0000000E+00   0.0000000E+00   0.0000000E+00   0.0000000E+00   0.0000000E+00   0.0000000E+00   0.0000000E+00   0.0000000E+00   0.0000000E+00   0.0000000E+00   0.0000000E+00   0.0000000E+00   0.0000000E+00   0.0000000E+00   0.0000000E+00   0.0000000E+00   0.0000000E+00   0.0000000E+00   0.0000000E+00   0.0000000E+00   0.0000000E+00   0.0000000E+00   0.0000000E+00   0.0000000E+00   0.0000000E+00   0.0000000E+00   0.0000000E+00   0.0000000E+00   0.0000000E+00   0.0000000E+00   0.0000000E+00   0.0000000E+00   0.0000000E+00   0.0000000E+00   0.0000000E+00   0.0000000E+00   0.0000000E+00   0.0000000E+00   0.0000000E+00   0.0000000E+00   0.0000000E+00   0.0000000E+00   0.0000000E+00   0.0000000E+00   0.0000000E+00   0.0000000E+00   0.0000000E+00   0.0000000E+00   0.0000000E+00   0.0000000E+00   0.0000000E+00   0.0000000E+00   0.0000000E+00   0.0000000E+00   0.0000000E+00   0.0000000E+00   0.0000000E+00   0.0000000E+00   0.0000000E+00   0.0000000E+00   0.0000000E+00   0.0000000E+00   0.0000000E+00   0.0000000E+00   0.0000000E+00   0.0000000E+00   0.0000000E+00   0.0000000E+00   0.0000000E+00   0.0000000E+00   0.0000000E+00   0.0000000E+00   0.0000000E+00   0.0000000E+00   0.0000000E+00   0.0000000E+00   0.0000000E+00   0.0000000E+00   0.0000000E+00   0.0000000E+00   0.0000000E+00   0.0000000E+00   0.0000000E+00   0.0000000E+00   0.0000000E+00   0.0000000E+00   0.0000000E+00   0.0000000E+00   0.0000000E+00   0.0000000E+00   0.0000000E+00   0.0000000E+00   0.0000000E+00   0.0000000E+00   0.0000000E+00   0.0000000E+00   0.0000000E+00   0.0000000E+00   0.0000000E+00   0.0000000E+00   0.0000000E+00   0.0000000E+00   0.0000000E+00   0.0000000E+00   0.0000000E+00   0.0000000E+00   0.0000000E+00   0.0000000E+00   0.0000000E+00   0.0000000E+00   0.0000000E+00   0.0000000E+00   0.0000000E+00   0.0000000E+00   0.0000000E+00   0.0000000E+00   0.0000000E+00   0.0000000E+00   0.0000000E+00   0.0000000E+00   0.0000000E+00   0.0000000E+00   0.0000000E+00   0.0000000E+00   0.0000000E+00   0.0000000E+00   0.0000000E+00   0.0000000E+00   0.0000000E+00   0.0000000E+00   0.0000000E+00   0.0000000E+00   0.0000000E+00   0.0000000E+00   0.0000000E+00   0.0000000E+00   0.0000000E+00   0.0000000E+00   0.0000000E+00   0.0000000E+00   0.0000000E+00   0.0000000E+00   0.0000000E+00   0.0000000E+00   0.0000000E+00   0.0000000E+00   0.0000000E+00   0.0000000E+00   0.0000000E+00   0.0000000E+00   0.0000000E+00   0.0000000E+00   0.0000000E+00   0.0000000E+00   0.0000000E+00   0.0000000E+00   0.0000000E+00   0.0000000E+00   0.0000000E+00   0.0000000E+00   0.0000000E+00   0.0000000E+00   0.0000000E+00   0.0000000E+00   0.0000000E+00   0.0000000E+00   0.0000000E+00   0.0000000E+00   0.0000000E+00   0.0000000E+00   0.0000000E+00   0.0000000E+00   0.0000000E+00   0.0000000E+00   0.0000000E+00   0.0000000E+00   0.0000000E+00   0.0000000E+00   0.0000000E+00   0.0000000E+00   0.0000000E+00   0.0000000E+00   0.0000000E+00   0.0000000E+00   0.0000000E+00   0.0000000E+00   0.0000000E+00   0.0000000E+00   0.0000000E+00   0.0000000E+00   0.0000000E+00   0.0000000E+00   0.0000000E+00   0.0000000E+00   0.0000000E+00   0.0000000E+00   0.0000000E+00   0.0000000E+00   0.0000000E+00   0.0000000E+00   0.0000000E+00   0.0000000E+00   0.0000000E+00   0.0000000E+00   0.0000000E+00   0.0000000E+00   0.0000000E+00   0.0000000E+00   0.0000000E+00   0.0000000E+00   0.0000000E+00   0.0000000E+00   0.0000000E+00   0.0000000E+00   0.0000000E+00   0.0000000E+00   0.0000000E+00   0.0000000E+00   0.0000000E+00   0.0000000E+00   0.0000000E+00   0.0000000E+00   0.0000000E+00   0.0000000E+00   0.0000000E+00   0.0000000E+00   0.0000000E+00   0.0000000E+00   0.0000000E+00   0.0000000E+00   0.0000000E+00   0.0000000E+00   0.0000000E+00   0.0000000E+00   0.0000000E+00   0.0000000E+00   0.0000000E+00   0.0000000E+00   0.0000000E+00   0.0000000E+00   0.0000000E+00   0.0000000E+00   0.0000000E+00   0.0000000E+00   0.0000000E+00   0.0000000E+00   0.0000000E+00   0.0000000E+00   0.0000000E+00   0.0000000E+00   0.0000000E+00   0.0000000E+00   0.0000000E+00   0.0000000E+00   0.0000000E+00   0.0000000E+00   0.0000000E+00   0.0000000E+00   0.0000000E+00   0.0000000E+00   0.0000000E+00   0.0000000E+00   0.0000000E+00   0.0000000E+00   0.0000000E+00   0.0000000E+00   0.0000000E+00   0.0000000E+00   0.0000000E+00   0.0000000E+00   0.0000000E+00   0.0000000E+00   0.0000000E+00   0.0000000E+00   0.0000000E+00   0.0000000E+00   0.0000000E+00   0.0000000E+00   0.0000000E+00   0.0000000E+00   0.0000000E+00   0.0000000E+00   0.0000000E+00   0.0000000E+00   0.0000000E+00   0.0000000E+00   0.0000000E+00   0.0000000E+00   0.0000000E+00   0.0000000E+00   0.0000000E+00   0.0000000E+00   0.0000000E+00   0.0000000E+00   0.0000000E+00   0.0000000E+00   0.0000000E+00   0.0000000E+00   0.0000000E+00   0.0000000E+00   0.0000000E+00   0.0000000E+00   0.0000000E+00   0.0000000E+00   0.0000000E+00   0.0000000E+00   0.0000000E+00   0.0000000E+00   0.0000000E+00   0.0000000E+00   0.0000000E+00   0.0000000E+00   0.0000000E+00   0.0000000E+00   0.0000000E+00   0.0000000E+00   0.0000000E+00   0.0000000E+00   0.0000000E+00   0.0000000E+00   0.0000000E+00   0.0000000E+00   0.0000000E+00   0.0000000E+00   0.0000000E+00   0.0000000E+00   0.0000000E+00   0.0000000E+00   0.0000000E+00   0.0000000E+00   0.0000000E+00   0.0000000E+00   0.0000000E+00   0.0000000E+00   0.0000000E+00   0.0000000E+00   0.0000000E+00   0.0000000E+00   0.0000000E+00   0.0000000E+00   0.0000000E+00   0.0000000E+00   0.0000000E+00   0.0000000E+00   0.0000000E+00   0.0000000E+00   0.0000000E+00   0.0000000E+00   0.0000000E+00   0.0000000E+00   0.0000000E+00   0.0000000E+00   0.0000000E+00   0.0000000E+00   0.0000000E+00   0.0000000E+00   0.0000000E+00   0.0000000E+00   0.0000000E+00   0.0000000E+00   0.0000000E+00   0.0000000E+00   0.0000000E+00   0.0000000E+00   0.0000000E+00   0.0000000E+00   0.0000000E+00   0.0000000E+00   0.0000000E+00   0.0000000E+00   0.0000000E+00   0.0000000E+00   0.0000000E+00   0.0000000E+00   0.0000000E+00   0.0000000E+00   0.0000000E+00   0.0000000E+00   0.0000000E+00   0.0000000E+00   0.0000000E+00   0.0000000E+00   0.0000000E+00   0.0000000E+00   0.0000000E+00   0.0000000E+00   0.0000000E+00   0.0000000E+00   0.0000000E+00   0.0000000E+00   0.0000000E+00   0.0000000E+00   0.0000000E+00   0.0000000E+00   0.0000000E+00   0.0000000E+00   0.0000000E+00   0.0000000E+00   0.0000000E+00   0.0000000E+00   0.0000000E+00   0.0000000E+00   0.0000000E+00   0.0000000E+00   0.0000000E+00   0.0000000E+00   0.0000000E+00   0.0000000E+00   0.0000000E+00   0.0000000E+00   0.0000000E+00   0.0000000E+00   0.0000000E+00   0.0000000E+00   0.0000000E+00   0.0000000E+00   0.0000000E+00   0.0000000E+00   0.0000000E+00   0.0000000E+00   0.0000000E+00   0.0000000E+00   0.0000000E+00   0.0000000E+00   0.0000000E+00   0.0000000E+00   0.0000000E+00   0.0000000E+00   0.0000000E+00   0.0000000E+00   0.0000000E+00   0.0000000E+00   0.0000000E+00   0.0000000E+00   0.0000000E+00   0.0000000E+00   0.0000000E+00   0.0000000E+00   0.0000000E+00   0.0000000E+00   0.0000000E+00   0.0000000E+00   0.0000000E+00   0.0000000E+00   0.0000000E+00   0.0000000E+00   0.0000000E+00   0.0000000E+00   0.0000000E+00   0.0000000E+00   0.0000000E+00   0.0000000E+00   0.0000000E+00   0.0000000E+00   0.0000000E+00   0.0000000E+00   0.0000000E+00   0.0000000E+00   0.0000000E+00   0.0000000E+00   0.0000000E+00   0.0000000E+00   1.5406969E+01   1.8271086E+01   2.0838913E+01   2.2814167E+01   2.4196842E+01   1.5308207E+01   1.9357473E+01   2.2814167E+01   2.5579519E+01   2.7851061E+01   2.9431261E+01   1.8567373E+01   2.3307980E+01   2.7258484E+01   3.0517651E+01   3.2887955E+01   3.4665680E+01   2.2221590E+01   2.7851061E+01   3.2394142E+01   3.5949596E+01   3.8616184E+01   4.0492676E+01   2.6863434E+01   3.3184242E+01   3.8319897E+01   4.2467930E+01   4.5430805E+01   4.7208534E+01   3.2887955E+01   4.0492676E+01   4.6418434E+01   5.0665226E+01   5.3825630E+01   5.5800884E+01   4.2665455E+01   5.0763988E+01   5.7183559E+01   6.1232826E+01   6.4195709E+01   6.6368484E+01   5.7973660E+01   6.6368484E+01   7.1504143E+01   7.4960831E+01   7.7331131E+01   7.8812576E+01   8.1281639E+01   8.8590073E+01   9.0960373E+01   9.2244293E+01   9.3133156E+01   9.4022018E+01   1.1416959E+02   1.1713247E+02   1.1505846E+02   1.1268816E+02   1.1160177E+02   1.1130548E+02   1.5357588E+02   1.5031671E+02   1.4211942E+02   1.3579861E+02   1.3234192E+02   1.3125552E+02   1.8784651E+02   1.8221704E+02   1.6947667E+02   1.6009421E+02   1.5535361E+02   1.5347711E+02   2.0177203E+02   2.0503120E+02   1.9416731E+02   1.8508116E+02   1.8014302E+02   1.7826654E+02   2.0937674E+02   2.2093198E+02   2.1717900E+02   2.1075943E+02   2.0740149E+02   2.0621634E+02   2.2606763E+02   2.3989439E+02   2.4256099E+02   2.3979564E+02   2.3851172E+02   2.3801790E+02   2.5569638E+02   2.6893057E+02   2.7406622E+02   2.7416498E+02   2.7416498E+02   2.7446127E+02   2.9737421E+02   3.0873190E+02   3.1406506E+02   3.1515146E+02   3.1594156E+02   3.1663290E+02   3.4843442E+02   3.5791565E+02   3.6255750E+02   3.6344635E+02   3.6443396E+02   3.6522406E+02   4.0690182E+02   4.1549417E+02   4.1934592E+02   4.1983972E+02   4.2072858E+02   4.2132117E+02   4.7386279E+02   4.8235635E+02   4.8541800E+02   4.8531924E+02   4.8581305E+02   4.8601059E+02   5.5178632E+02   5.6018115E+02   5.6225513E+02   5.6116876E+02   5.6107001E+02   5.6047742E+02   6.4284521E+02   6.5054865E+02   6.5173383E+02   6.4926477E+02   6.4758582E+02   6.4551178E+02   7.4832330E+02   7.5543414E+02   7.5543414E+02   7.5049603E+02   7.4634802E+02   7.4170618E+02   8.7029443E+02   8.7671399E+02   8.7543005E+02   8.6664020E+02   8.5804785E+02   8.4975183E+02   1.0069808E+03   1.0141905E+03   1.0110301E+03   9.9503058E+02   9.7991992E+02   9.6638953E+02   1.1537405E+03   1.1633204E+03   1.1563083E+03   1.1289512E+03   1.1047545E+03   1.0844094E+03   1.3047462E+03   1.3193630E+03   1.3047462E+03   1.2599082E+03   1.2246501E+03   1.1973918E+03   1.4525905E+03   1.4730342E+03   1.4441957E+03   1.3770376E+03   1.3299282E+03   1.2968429E+03   1.6049763E+03   1.6300618E+03   1.5798907E+03   1.4877461E+03   1.4311556E+03   1.3965891E+03   1.8189867E+03   1.8451584E+03   1.7719763E+03   1.6591908E+03   1.5993414E+03   1.5699105E+03   2.2797971E+03   2.3031045E+03   2.2221206E+03   2.1046938E+03   2.0517581E+03   2.0367465E+03   3.3862939E+03   3.4107864E+03   3.3659492E+03   3.2757810E+03   3.2424001E+03   3.2498071E+03   5.5169043E+03   5.5601606E+03   5.5855420E+03   5.5868257E+03   5.5960107E+03   5.6312676E+03   8.1476699E+03   8.2317129E+03   8.3078564E+03   8.4375254E+03   8.5216670E+03   8.5917861E+03   9.9531221E+03   1.0081803E+04   1.0162389E+04   1.0369284E+04   1.0527888E+04   1.0631780E+04   1.0577942E+04   1.0694178E+04   1.0722026E+04   1.0948471E+04   1.1142524E+04   1.1267449E+04   1.0579332E+04   1.0687467E+04   1.0654878E+04   1.0827300E+04   1.1008017E+04   1.1130963E+04   1.0514952E+04   1.0648363E+04   1.0591188E+04   1.0681542E+04   1.0799152E+04   1.0887434E+04   1.0599348E+04   1.0749834E+04   1.0685947E+04   1.0709547E+04   1.0769682E+04   1.0822904E+04   1.0815166E+04   1.0970677E+04   1.0911830E+04   1.0898105E+04   1.0923382E+04   1.0953596E+04   1.1069890E+04   1.1221733E+04   1.1172271E+04   1.1150155E+04   1.1165458E+04   1.1187277E+04   1.1276923E+04   1.1421641E+04   1.1378995E+04   1.1372184E+04   1.1397257E+04   1.1423614E+04   1.1237945E+04   1.1375827E+04   1.1338913E+04   1.1350066E+04   1.1392014E+04   1.1430111E+04   1.0972162E+04   1.1106756E+04   1.1078236E+04   1.1105963E+04   1.1166255E+04   1.1219839E+04   1.0546146E+04   1.0680697E+04   1.0666884E+04   1.0711669E+04   1.0790094E+04   1.0860924E+04   1.0013020E+04   1.0151359E+04   1.0161514E+04   1.0224423E+04   1.0320171E+04   1.0408524E+04   9.3981680E+03   9.5444141E+03   9.5829443E+03   9.6679932E+03   9.7799492E+03   9.8820547E+03   8.7059932E+03   8.8627637E+03   8.9287402E+03   9.0371660E+03   9.1594805E+03   9.2731348E+03   7.9395874E+03   8.1069238E+03   8.1964463E+03   8.3173584E+03   8.4491992E+03   8.5704180E+03   7.1150513E+03   7.2917905E+03   7.3942617E+03   7.5188501E+03   7.6593613E+03   7.7835649E+03   6.2730391E+03   6.4560332E+03   6.5533242E+03   6.6783809E+03   6.8222729E+03   6.9453745E+03   5.4590601E+03   5.6408389E+03   5.7240117E+03   5.8426094E+03   5.9818560E+03   6.1004580E+03   4.6924590E+03   4.8693779E+03   4.9498574E+03   5.0555015E+03   5.1822134E+03   5.2917598E+03   3.9601902E+03   4.1490894E+03   4.2479790E+03   4.3472578E+03   4.4577031E+03   4.5518325E+03   3.2690488E+03   3.5089197E+03   3.6438499E+03   3.7378450E+03   3.8252698E+03   3.8985959E+03   2.9676995E+03   3.1439739E+03   3.2244302E+03   3.2886899E+03   3.3379009E+03   2.5073420E+03   2.7018921E+03   2.7904788E+03   2.8394094E+03   2.8686973E+03   2.2762698E+03   2.3967817E+03   2.4489316E+03   2.4804805E+03   1.8853180E+03   1.9939780E+03   2.0846033E+03   2.1414348E+03   1.6192599E+03   1.7171873E+03   1.8093639E+03   1.3755758E+03   1.4620162E+03   1.2039449E+03   1.1586958E+03   2.5381994E+01   2.6172096E+01   2.6665909E+01   2.7159721E+01   2.7258484E+01   2.7456009E+01   2.7554771E+01   2.7554771E+01   2.7554771E+01   3.0616413E+01   3.1604040E+01   3.2196617E+01   3.2690430E+01   3.2887955E+01   3.3085480E+01   3.3085480E+01   3.3085480E+01   3.3085480E+01   3.5949596E+01   3.6739697E+01   3.7529797E+01   3.7826084E+01   3.8221134E+01   3.8221134E+01   3.8221134E+01   3.8221134E+01   3.8221134E+01   4.1677826E+01   4.2566692E+01   4.3159267E+01   4.3356792E+01   4.3653080E+01   4.3653080E+01   4.3554317E+01   4.3455555E+01   4.3455555E+01   4.8591209E+01   4.9282551E+01   4.9776363E+01   4.9875126E+01   4.9973888E+01   4.9776363E+01   4.9776363E+01   4.9776363E+01   4.9677601E+01   5.6986034E+01   5.7677372E+01   5.7973660E+01   5.7973660E+01   5.7973660E+01   5.7776134E+01   5.7578609E+01   5.7479847E+01   5.7381084E+01   6.7356110E+01   6.7849922E+01   6.8047447E+01   6.7849922E+01   6.7454872E+01   6.7158585E+01   6.6763535E+01   6.6566010E+01   6.6467247E+01   7.9800201E+01   7.9997726E+01   7.9800201E+01   7.9405151E+01   7.8911339E+01   7.8516289E+01   7.8121239E+01   7.7726189E+01   7.7627426E+01   9.4219543E+01   9.4417068E+01   9.3923256E+01   9.3330681E+01   9.2540581E+01   9.1948006E+01   9.1157906E+01   9.0861610E+01   9.0664085E+01   1.1130548E+02   1.1091042E+02   1.1021909E+02   1.0913270E+02   1.0824384E+02   1.0725621E+02   1.0656487E+02   1.0597230E+02   1.0577477E+02   1.3076172E+02   1.2997162E+02   1.2888522E+02   1.2770007E+02   1.2631740E+02   1.2532977E+02   1.2453967E+02   1.2384833E+02   1.2345328E+02   1.5268701E+02   1.5179816E+02   1.5041548E+02   1.4883528E+02   1.4725507E+02   1.4606992E+02   1.4508229E+02   1.4439096E+02   1.4389714E+02   1.7747644E+02   1.7648882E+02   1.7500737E+02   1.7322964E+02   1.7155067E+02   1.7016800E+02   1.6898285E+02   1.6819275E+02   1.6760017E+02   2.0572253E+02   2.0473491E+02   2.0315471E+02   2.0137697E+02   1.9940172E+02   1.9772276E+02   1.9653761E+02   1.9564874E+02   1.9505617E+02   2.3772162E+02   2.3703027E+02   2.3535132E+02   2.3337607E+02   2.3130205E+02   2.2932680E+02   2.2804288E+02   2.2705525E+02   2.2646268E+02   2.7456003E+02   2.7357242E+02   2.7209097E+02   2.7001697E+02   2.6794293E+02   2.6596768E+02   2.6428873E+02   2.6310358E+02   2.6251099E+02   3.1663290E+02   3.1584280E+02   3.1416385E+02   3.1189230E+02   3.0942322E+02   3.0734921E+02   3.0557150E+02   3.0428757E+02   3.0369501E+02   3.6522406E+02   3.6433521E+02   3.6235995E+02   3.5989090E+02   3.5702676E+02   3.5485400E+02   3.5278000E+02   3.5119980E+02   3.5040970E+02   4.2112363E+02   4.1983972E+02   4.1746942E+02   4.1430902E+02   4.1104987E+02   4.0828452E+02   4.0581543E+02   4.0413647E+02   4.0314883E+02   4.8541800E+02   4.8334399E+02   4.8018359E+02   4.7603555E+02   4.7218381E+02   4.6852960E+02   4.6556674E+02   4.6339395E+02   4.6211005E+02   5.5889722E+02   5.5563806E+02   5.5109497E+02   5.4586060E+02   5.4062616E+02   5.3608307E+02   5.3213257E+02   5.2936725E+02   5.2778705E+02   6.4235138E+02   6.3731451E+02   6.3099371E+02   6.2378406E+02   6.1677191E+02   6.1064862E+02   6.0571051E+02   6.0205627E+02   5.9968597E+02   7.3587921E+02   7.2847198E+02   7.1938586E+02   7.0960840E+02   7.0022595E+02   6.9222620E+02   6.8580664E+02   6.8096729E+02   6.7790564E+02   8.4056689E+02   8.2940674E+02   8.1656763E+02   8.0323474E+02   7.9098816E+02   7.8042059E+02   7.7202582E+02   7.6580377E+02   7.6214954E+02   9.5216772E+02   9.3646454E+02   9.1898358E+02   9.0110760E+02   8.8510809E+02   8.7167639E+02   8.6110883E+02   8.5350415E+02   8.4886230E+02   1.0646570E+03   1.0429293E+03   1.0196214E+03   9.9710364E+02   9.7685736E+02   9.6016656E+02   9.4752496E+02   9.3814258E+02   9.3300690E+02   1.1715161E+03   1.1439615E+03   1.1146292E+03   1.0863832E+03   1.0619890E+03   1.0422366E+03   1.0272247E+03   1.0166572E+03   1.0106327E+03   1.2667206E+03   1.2344254E+03   1.1999575E+03   1.1668722E+03   1.1386263E+03   1.1162074E+03   1.0996154E+03   1.0879614E+03   1.0812456E+03   1.3660718E+03   1.3326903E+03   1.2959509E+03   1.2598042E+03   1.2291880E+03   1.2048927E+03   1.1873131E+03   1.1754617E+03   1.1684496E+03   1.5461090E+03   1.5175670E+03   1.4834944E+03   1.4485328E+03   1.4177192E+03   1.3937202E+03   1.3766345E+03   1.3653757E+03   1.3586600E+03   2.0278579E+03   2.0123524E+03   1.9873660E+03   1.9585277E+03   1.9319611E+03   1.9108263E+03   1.8961108E+03   1.8866298E+03   1.8812968E+03   3.2643250E+03   3.2693616E+03   3.2615593E+03   3.2452639E+03   3.2272896E+03   3.2128706E+03   3.2032908E+03   3.1973652E+03   3.1944023E+03   5.6745244E+03   5.7063247E+03   5.7210400E+03   5.7227188E+03   5.7189663E+03   5.7153120E+03   5.7134355E+03   5.7139292E+03   5.7146206E+03   8.6632871E+03   8.7226406E+03   8.7617490E+03   8.7840684E+03   8.7976973E+03   8.8084619E+03   8.8186338E+03   8.8273242E+03   8.8332500E+03   1.0724907E+04   1.0805098E+04   1.0865438E+04   1.0908299E+04   1.0941185E+04   1.0968442E+04   1.0992439E+04   1.1011599E+04   1.1023845E+04   1.1371241E+04   1.1462490E+04   1.1536754E+04   1.1596600E+04   1.1647162E+04   1.1691800E+04   1.1730808E+04   1.1761617E+04   1.1781468E+04   1.1232480E+04   1.1324123E+04   1.1404704E+04   1.1476300E+04   1.1541574E+04   1.1601912E+04   1.1655238E+04   1.1697208E+04   1.1723970E+04   1.0969690E+04   1.1052442E+04   1.1132231E+04   1.1208860E+04   1.1283613E+04   1.1354710E+04   1.1418601E+04   1.1469062E+04   1.1501253E+04   1.0884619E+04   1.0954925E+04   1.1028489E+04   1.1103830E+04   1.1180851E+04   1.1256488E+04   1.1325410E+04   1.1380016E+04   1.1414971E+04   1.0999805E+04   1.1059146E+04   1.1124510E+04   1.1194515E+04   1.1268567E+04   1.1343113E+04   1.1411736E+04   1.1466732E+04   1.1501784E+04   1.1226572E+04   1.1279589E+04   1.1338332E+04   1.1402209E+04   1.1470924E+04   1.1541120E+04   1.1606083E+04   1.1658409E+04   1.1691878E+04   1.1464384E+04   1.1516704E+04   1.1572775E+04   1.1632104E+04   1.1695578E+04   1.1760533E+04   1.1820947E+04   1.1869516E+04   1.1900414E+04   1.1478376E+04   1.1535228E+04   1.1591883E+04   1.1649030E+04   1.1708744E+04   1.1769346E+04   1.1825506E+04   1.1870414E+04   1.1898938E+04   1.1279638E+04   1.1343385E+04   1.1402888E+04   1.1460123E+04   1.1517652E+04   1.1575083E+04   1.1627679E+04   1.1669617E+04   1.1695964E+04   1.0933925E+04   1.1005545E+04   1.1068485E+04   1.1125603E+04   1.1181340E+04   1.1235695E+04   1.1285120E+04   1.1324087E+04   1.1348749E+04   1.0494021E+04   1.0571925E+04   1.0636415E+04   1.0691540E+04   1.0744002E+04   1.0794392E+04   1.0839852E+04   1.0875943E+04   1.0898426E+04   9.9773613E+03   1.0057588E+04   1.0119287E+04   1.0169258E+04   1.0215877E+04   1.0260229E+04   1.0300638E+04   1.0332374E+04   1.0352185E+04   9.3727070E+03   9.4504160E+03   9.5054727E+03   9.5475293E+03   9.5855479E+03   9.6226787E+03   9.6565586E+03   9.6839375E+03   9.7005820E+03   8.6698936E+03   8.7419189E+03   8.7885605E+03   8.8216240E+03   8.8511436E+03   8.8807617E+03   8.9083125E+03   8.9308447E+03   8.9448174E+03   7.8811416E+03   7.9471787E+03   7.9866855E+03   8.0122393E+03   8.0344512E+03   8.0578398E+03   8.0806392E+03   8.0992104E+03   8.1110034E+03   7.0409160E+03   7.1036001E+03   7.1391152E+03   7.1603101E+03   7.1784619E+03   7.1975933E+03   7.2165264E+03   7.2324185E+03   7.2426201E+03   6.1937183E+03   6.2564507E+03   6.2921768E+03   6.3135176E+03   6.3305513E+03   6.3476812E+03   6.3645151E+03   6.3784121E+03   6.3877095E+03   5.3809214E+03   5.4456987E+03   5.4865786E+03   5.5121445E+03   5.5310762E+03   5.5478594E+03   5.5635669E+03   5.5765425E+03   5.5847378E+03   4.6323623E+03   4.6989053E+03   4.7477710E+03   4.7815815E+03   4.8054829E+03   4.8241377E+03   4.8394883E+03   4.8516323E+03   4.8592100E+03   3.9649639E+03   4.0287190E+03   4.0857109E+03   4.1302427E+03   4.1626035E+03   4.1854990E+03   4.2022119E+03   4.2140938E+03   4.2212432E+03   3.3840383E+03   3.4386960E+03   3.4986177E+03   3.5540308E+03   3.5973638E+03   3.6282346E+03   3.6490398E+03   3.6623674E+03   3.6697505E+03   2.8919028E+03   2.9299001E+03   2.9843982E+03   3.0449614E+03   3.0994470E+03   3.1411179E+03   3.1695007E+03   3.1871575E+03   3.1965562E+03   2.4878538E+03   2.5042993E+03   2.5435879E+03   2.5989788E+03   2.6574536E+03   2.7083359E+03   2.7460994E+03   2.7707441E+03   2.7841448E+03   2.1619700E+03   2.1636951E+03   2.1806052E+03   2.2192461E+03   2.2703159E+03   2.3214702E+03   2.3643279E+03   2.3951108E+03   2.4130828E+03   1.8721473E+03   1.8951464E+03   1.8977383E+03   1.9119493E+03   1.9426575E+03   1.9821082E+03   2.0202887E+03   2.0507942E+03   2.0702888E+03   1.5715039E+03   1.6431301E+03   1.6741520E+03   1.6779086E+03   1.6826987E+03   1.6987256E+03   1.7213354E+03   1.7430592E+03   1.7585363E+03   1.2618457E+03   1.3593962E+03   1.4367856E+03   1.4767996E+03   1.4841012E+03   1.4794606E+03   1.4794877E+03   1.4846982E+03   1.4908383E+03   1.0678595E+03   1.1090725E+03   1.1657126E+03   1.2230182E+03   1.2687661E+03   1.2904777E+03   1.2924889E+03   1.2878391E+03   1.2848173E+03   1.0181170E+03   9.9569012E+02   9.9840393E+02   1.0121959E+03   1.0314857E+03   1.0490430E+03   1.0582627E+03   1.0605565E+03   9.4451630E+02   8.9830981E+02   8.8027649E+02   8.5489093E+02   8.2882361E+02   8.0822119E+02   9.1068567E+02   8.8568109E+02   8.5632166E+02   8.2952325E+02   2.7554771E+01   2.7554771E+01   2.7554771E+01   2.7554771E+01   2.7456009E+01   2.7258484E+01   2.7159721E+01   2.6665909E+01   3.3085480E+01   3.3085480E+01   3.3085480E+01   3.3085480E+01   3.3085480E+01   3.2887955E+01   3.2690430E+01   3.2196617E+01   3.8221134E+01   3.8221134E+01   3.8221134E+01   3.8221134E+01   3.8221134E+01   3.8221134E+01   3.7826084E+01   3.7529797E+01   4.3455555E+01   4.3455555E+01   4.3455555E+01   4.3554317E+01   4.3653080E+01   4.3653080E+01   4.3356792E+01   4.3159267E+01   4.9578838E+01   4.9677601E+01   4.9776363E+01   4.9776363E+01   4.9776363E+01   4.9973888E+01   4.9875126E+01   4.9776363E+01   5.7381084E+01   5.7381084E+01   5.7479847E+01   5.7578609E+01   5.7776134E+01   5.7973660E+01   5.7973660E+01   5.7973660E+01   6.6368484E+01   6.6467247E+01   6.6566010E+01   6.6763535E+01   6.7158585E+01   6.7454872E+01   6.7849922E+01   6.8047447E+01   7.7429893E+01   7.7627426E+01   7.7726189E+01   7.8121239E+01   7.8516289E+01   7.8911339E+01   7.9405151E+01   7.9800201E+01   9.0466560E+01   9.0664085E+01   9.0861610E+01   9.1157906E+01   9.1948006E+01   9.2540581E+01   9.3330681E+01   9.3923256E+01   1.0557725E+02   1.0577477E+02   1.0597230E+02   1.0656487E+02   1.0725621E+02   1.0824384E+02   1.0913270E+02   1.1021909E+02   1.2335452E+02   1.2345328E+02   1.2384833E+02   1.2453967E+02   1.2532977E+02   1.2631740E+02   1.2770007E+02   1.2888522E+02   1.4379839E+02   1.4389714E+02   1.4439096E+02   1.4508229E+02   1.4606992E+02   1.4725507E+02   1.4883528E+02   1.5041548E+02   1.6740265E+02   1.6760017E+02   1.6819275E+02   1.6898285E+02   1.7016800E+02   1.7155067E+02   1.7322964E+02   1.7500737E+02   1.9485864E+02   1.9505617E+02   1.9564874E+02   1.9653761E+02   1.9772276E+02   1.9940172E+02   2.0137697E+02   2.0315471E+02   2.2626515E+02   2.2646268E+02   2.2705525E+02   2.2804288E+02   2.2932680E+02   2.3130205E+02   2.3337607E+02   2.3535132E+02   2.6231348E+02   2.6251099E+02   2.6310358E+02   2.6428873E+02   2.6596768E+02   2.6794293E+02   2.7001697E+02   2.7209097E+02   3.0329996E+02   3.0369501E+02   3.0428757E+02   3.0557150E+02   3.0734921E+02   3.0942322E+02   3.1189230E+02   3.1416385E+02   3.5011340E+02   3.5040970E+02   3.5119980E+02   3.5278000E+02   3.5485400E+02   3.5702676E+02   3.5989090E+02   3.6235995E+02   4.0265503E+02   4.0314883E+02   4.0413647E+02   4.0581543E+02   4.0828452E+02   4.1104987E+02   4.1430902E+02   4.1746942E+02   4.6161621E+02   4.6211005E+02   4.6339395E+02   4.6556674E+02   4.6852960E+02   4.7218381E+02   4.7603555E+02   4.8018359E+02   5.2719446E+02   5.2778705E+02   5.2936725E+02   5.3213257E+02   5.3608307E+02   5.4062616E+02   5.4586060E+02   5.5109497E+02   5.9899463E+02   5.9968597E+02   6.0205627E+02   6.0571051E+02   6.1064862E+02   6.1677191E+02   6.2378406E+02   6.3089490E+02   6.7701678E+02   6.7790564E+02   6.8096729E+02   6.8580664E+02   6.9222620E+02   7.0022595E+02   7.0960840E+02   7.1938586E+02   7.6096442E+02   7.6214954E+02   7.6580377E+02   7.7202582E+02   7.8042059E+02   7.9098816E+02   8.0323474E+02   8.1656763E+02   8.4747968E+02   8.4886230E+02   8.5350415E+02   8.6110883E+02   8.7167639E+02   8.8510809E+02   9.0110760E+02   9.1898358E+02   9.3113043E+02   9.3300690E+02   9.3814258E+02   9.4752496E+02   9.6016656E+02   9.7685736E+02   9.9710364E+02   1.0196214E+03   1.0084599E+03   1.0106327E+03   1.0166572E+03   1.0272247E+03   1.0422366E+03   1.0619890E+03   1.0863832E+03   1.1146292E+03   1.0789741E+03   1.0812456E+03   1.0879614E+03   1.0996154E+03   1.1162074E+03   1.1386263E+03   1.1668722E+03   1.1999575E+03   1.1660793E+03   1.1684496E+03   1.1754617E+03   1.1873131E+03   1.2048927E+03   1.2291880E+03   1.2598042E+03   1.2959509E+03   1.3564872E+03   1.3586600E+03   1.3653757E+03   1.3766345E+03   1.3937202E+03   1.4177192E+03   1.4485328E+03   1.4834944E+03   1.8795190E+03   1.8812968E+03   1.8866298E+03   1.8961108E+03   1.9108263E+03   1.9319611E+03   1.9585277E+03   1.9873660E+03   3.1934148E+03   3.1944023E+03   3.1973652E+03   3.2032908E+03   3.2128706E+03   3.2272896E+03   3.2452639E+03   3.2615593E+03   5.7149170E+03   5.7146206E+03   5.7139292E+03   5.7134355E+03   5.7153120E+03   5.7189663E+03   5.7227188E+03   5.7210400E+03   8.8353242E+03   8.8332500E+03   8.8273242E+03   8.8186338E+03   8.8084619E+03   8.7976973E+03   8.7840684E+03   8.7617490E+03   1.1028388E+04   1.1023845E+04   1.1011599E+04   1.0992439E+04   1.0968442E+04   1.0941185E+04   1.0908299E+04   1.0865438E+04   1.1788183E+04   1.1781468E+04   1.1761617E+04   1.1730808E+04   1.1691800E+04   1.1647162E+04   1.1596600E+04   1.1536754E+04   1.1733153E+04   1.1723970E+04   1.1697208E+04   1.1655238E+04   1.1601912E+04   1.1541574E+04   1.1476300E+04   1.1404704E+04   1.1512214E+04   1.1501253E+04   1.1469062E+04   1.1418601E+04   1.1354710E+04   1.1283613E+04   1.1208860E+04   1.1132231E+04   1.1427018E+04   1.1414971E+04   1.1380016E+04   1.1325410E+04   1.1256488E+04   1.1180851E+04   1.1103830E+04   1.1028489E+04   1.1513731E+04   1.1501784E+04   1.1466732E+04   1.1411736E+04   1.1343113E+04   1.1268567E+04   1.1194515E+04   1.1124510E+04   1.1703429E+04   1.1691878E+04   1.1658409E+04   1.1606083E+04   1.1541120E+04   1.1470924E+04   1.1402209E+04   1.1338332E+04   1.1911075E+04   1.1900414E+04   1.1869516E+04   1.1820947E+04   1.1760533E+04   1.1695578E+04   1.1632104E+04   1.1572775E+04   1.1908710E+04   1.1898938E+04   1.1870414E+04   1.1825506E+04   1.1769346E+04   1.1708744E+04   1.1649030E+04   1.1591883E+04   1.1705042E+04   1.1695964E+04   1.1669617E+04   1.1627679E+04   1.1575083E+04   1.1517652E+04   1.1460123E+04   1.1402888E+04   1.1357232E+04   1.1348749E+04   1.1324087E+04   1.1285120E+04   1.1235695E+04   1.1181340E+04   1.1125603E+04   1.1068485E+04   1.0905821E+04   1.0898426E+04   1.0875943E+04   1.0839852E+04   1.0794392E+04   1.0744002E+04   1.0691540E+04   1.0636415E+04   1.0358984E+04   1.0352185E+04   1.0332374E+04   1.0300638E+04   1.0260229E+04   1.0215877E+04   1.0169258E+04   1.0119287E+04   9.7062949E+03   9.7005820E+03   9.6839375E+03   9.6565586E+03   9.6226787E+03   9.5855479E+03   9.5475293E+03   9.5054727E+03   8.9496377E+03   8.9448174E+03   8.9308447E+03   8.9083125E+03   8.8807617E+03   8.8511436E+03   8.8216240E+03   8.7885605E+03   8.1151299E+03   8.1110034E+03   8.0992104E+03   8.0806392E+03   8.0578398E+03   8.0344512E+03   8.0122393E+03   7.9866855E+03   7.2461519E+03   7.2426201E+03   7.2324185E+03   7.2165264E+03   7.1975933E+03   7.1784619E+03   7.1603101E+03   7.1391152E+03   6.3908413E+03   6.3877095E+03   6.3784121E+03   6.3645151E+03   6.3476812E+03   6.3305513E+03   6.3135176E+03   6.2921768E+03   5.5876650E+03   5.5847378E+03   5.5765425E+03   5.5635669E+03   5.5478594E+03   5.5310762E+03   5.5121445E+03   5.4865786E+03   4.8618325E+03   4.8592100E+03   4.8516323E+03   4.8394883E+03   4.8241377E+03   4.8054829E+03   4.7815815E+03   4.7477710E+03   4.2236582E+03   4.2212432E+03   4.2140938E+03   4.2022119E+03   4.1854990E+03   4.1626035E+03   4.1302427E+03   4.0857109E+03   3.6720520E+03   3.6697505E+03   3.6623674E+03   3.6490398E+03   3.6282346E+03   3.5973638E+03   3.5540308E+03   3.4986177E+03   3.1994990E+03   3.1965562E+03   3.1871575E+03   3.1695007E+03   3.1411179E+03   3.0994470E+03   3.0449614E+03   2.9843982E+03   2.7887366E+03   2.7841448E+03   2.7707441E+03   2.7460994E+03   2.7083359E+03   2.6574536E+03   2.5989788E+03   2.5435879E+03   2.4189814E+03   2.4130828E+03   2.3951108E+03   2.3643279E+03   2.3214702E+03   2.2703159E+03   2.2192461E+03   2.1806052E+03   2.0767866E+03   2.0702888E+03   2.0507942E+03   2.0202887E+03   1.9821082E+03   1.9426575E+03   1.9119493E+03   1.8977383E+03   1.7639882E+03   1.7585363E+03   1.7430592E+03   1.7213354E+03   1.6987256E+03   1.6826987E+03   1.6779086E+03   1.6741520E+03   1.4933956E+03   1.4908383E+03   1.4846982E+03   1.4794877E+03   1.4794606E+03   1.4841012E+03   1.4767996E+03   1.4367856E+03   1.2836727E+03   1.2848173E+03   1.2878391E+03   1.2924069E+03   1.2904777E+03   1.2687661E+03   1.2230182E+03   1.1657126E+03   1.0607185E+03   1.0605565E+03   1.0582627E+03   1.0490430E+03   1.0314857E+03   1.0121959E+03   9.9840393E+02   9.9569012E+02   8.0072906E+02   8.0822119E+02   8.2882361E+02   8.5489093E+02   8.8027649E+02   8.9830981E+02   9.4451630E+02   8.1868927E+02   8.2952325E+02   8.5632166E+02   8.8568109E+02   9.1068567E+02   2.6172096E+01   2.5381994E+01   2.4196842E+01   2.2814167E+01   2.0838913E+01   1.8271086E+01   1.5406969E+01   3.1604040E+01   3.0616413E+01   2.9431261E+01   2.7851061E+01   2.5579519E+01   2.2814167E+01   1.9357473E+01   1.5308207E+01   3.6739697E+01   3.5949596E+01   3.4665680E+01   3.2887955E+01   3.0517651E+01   2.7258484E+01   2.3307980E+01   1.8567373E+01   4.2566692E+01   4.1677826E+01   4.0492676E+01   3.8616184E+01   3.5949596E+01   3.2394142E+01   2.7851061E+01   2.2221590E+01   4.9282551E+01   4.8591209E+01   4.7208534E+01   4.5430805E+01   4.2467930E+01   3.8319897E+01   3.3184242E+01   2.6863434E+01   5.7677372E+01   5.6986034E+01   5.5800884E+01   5.3825630E+01   5.0665226E+01   4.6418434E+01   4.0492676E+01   3.2887955E+01   6.7849922E+01   6.7356110E+01   6.6368484E+01   6.4195709E+01   6.1232826E+01   5.7183559E+01   5.0763988E+01   4.2665455E+01   7.9997726E+01   7.9800201E+01   7.8812576E+01   7.7331131E+01   7.4960831E+01   7.1504143E+01   6.6368484E+01   5.7973660E+01   9.4417068E+01   9.4219543E+01   9.4022018E+01   9.3133156E+01   9.2244293E+01   9.0960373E+01   8.8590073E+01   8.1281639E+01   1.1091042E+02   1.1130548E+02   1.1130548E+02   1.1160177E+02   1.1268816E+02   1.1505846E+02   1.1713247E+02   1.1416959E+02   1.2997162E+02   1.3076172E+02   1.3125552E+02   1.3234192E+02   1.3579861E+02   1.4211942E+02   1.5031671E+02   1.5357588E+02   1.5179816E+02   1.5268701E+02   1.5347711E+02   1.5535361E+02   1.6009421E+02   1.6947667E+02   1.8221704E+02   1.8784651E+02   1.7648882E+02   1.7747644E+02   1.7826654E+02   1.8014302E+02   1.8508116E+02   1.9416731E+02   2.0503120E+02   2.0177203E+02   2.0473491E+02   2.0572253E+02   2.0621634E+02   2.0740149E+02   2.1075943E+02   2.1717900E+02   2.2093198E+02   2.0937674E+02   2.3703027E+02   2.3772162E+02   2.3801790E+02   2.3851172E+02   2.3979564E+02   2.4256099E+02   2.3989439E+02   2.2606763E+02   2.7357242E+02   2.7456003E+02   2.7446127E+02   2.7416498E+02   2.7416498E+02   2.7406622E+02   2.6893057E+02   2.5569638E+02   3.1584280E+02   3.1663290E+02   3.1663290E+02   3.1594156E+02   3.1515146E+02   3.1406506E+02   3.0873190E+02   2.9737421E+02   3.6433521E+02   3.6522406E+02   3.6522406E+02   3.6443396E+02   3.6344635E+02   3.6255750E+02   3.5791565E+02   3.4843442E+02   4.1983972E+02   4.2112363E+02   4.2132117E+02   4.2072858E+02   4.1983972E+02   4.1934592E+02   4.1549417E+02   4.0690182E+02   4.8334399E+02   4.8541800E+02   4.8601059E+02   4.8581305E+02   4.8531924E+02   4.8541800E+02   4.8235635E+02   4.7386279E+02   5.5563806E+02   5.5889722E+02   5.6047742E+02   5.6107001E+02   5.6116876E+02   5.6225513E+02   5.6018115E+02   5.5178632E+02   6.3731451E+02   6.4235138E+02   6.4551178E+02   6.4758582E+02   6.4926477E+02   6.5173383E+02   6.5054865E+02   6.4284521E+02   7.2847198E+02   7.3587921E+02   7.4170618E+02   7.4634802E+02   7.5049603E+02   7.5543414E+02   7.5543414E+02   7.4832330E+02   8.2940674E+02   8.4056689E+02   8.4975183E+02   8.5804785E+02   8.6664020E+02   8.7543005E+02   8.7671399E+02   8.7029443E+02   9.3646454E+02   9.5216772E+02   9.6638953E+02   9.7991992E+02   9.9503058E+02   1.0110301E+03   1.0141905E+03   1.0069808E+03   1.0429293E+03   1.0646570E+03   1.0844094E+03   1.1047545E+03   1.1289512E+03   1.1563083E+03   1.1633204E+03   1.1537405E+03   1.1439615E+03   1.1715161E+03   1.1973918E+03   1.2246501E+03   1.2599082E+03   1.3047462E+03   1.3193630E+03   1.3047462E+03   1.2344254E+03   1.2667206E+03   1.2968429E+03   1.3299282E+03   1.3770376E+03   1.4441957E+03   1.4730342E+03   1.4525905E+03   1.3326903E+03   1.3660718E+03   1.3965891E+03   1.4311556E+03   1.4877461E+03   1.5798907E+03   1.6300618E+03   1.6049763E+03   1.5175670E+03   1.5461090E+03   1.5699105E+03   1.5993414E+03   1.6591908E+03   1.7719763E+03   1.8451584E+03   1.8189867E+03   2.0123524E+03   2.0278579E+03   2.0367465E+03   2.0517581E+03   2.1046938E+03   2.2221206E+03   2.3031045E+03   2.2797971E+03   3.2693616E+03   3.2643250E+03   3.2498071E+03   3.2424001E+03   3.2757810E+03   3.3659492E+03   3.4107864E+03   3.3862939E+03   5.7063247E+03   5.6745244E+03   5.6312676E+03   5.5960107E+03   5.5868257E+03   5.5855420E+03   5.5601606E+03   5.5169043E+03   8.7226406E+03   8.6632871E+03   8.5917861E+03   8.5216670E+03   8.4375254E+03   8.3078564E+03   8.2317129E+03   8.1476699E+03   1.0805098E+04   1.0724907E+04   1.0631780E+04   1.0527888E+04   1.0369284E+04   1.0162389E+04   1.0081803E+04   9.9531221E+03   1.1462490E+04   1.1371241E+04   1.1267449E+04   1.1142524E+04   1.0948471E+04   1.0722026E+04   1.0694178E+04   1.0577942E+04   1.1324123E+04   1.1232480E+04   1.1130963E+04   1.1008017E+04   1.0827300E+04   1.0654878E+04   1.0687467E+04   1.0579332E+04   1.1052442E+04   1.0969690E+04   1.0887434E+04   1.0799152E+04   1.0681542E+04   1.0591188E+04   1.0648363E+04   1.0514952E+04   1.0954925E+04   1.0884619E+04   1.0822904E+04   1.0769682E+04   1.0709547E+04   1.0685947E+04   1.0749834E+04   1.0599348E+04   1.1059146E+04   1.0999805E+04   1.0953596E+04   1.0923382E+04   1.0898105E+04   1.0911830E+04   1.0970677E+04   1.0815166E+04   1.1279589E+04   1.1226572E+04   1.1187277E+04   1.1165458E+04   1.1150155E+04   1.1172271E+04   1.1221733E+04   1.1069890E+04   1.1516704E+04   1.1464384E+04   1.1423614E+04   1.1397257E+04   1.1372184E+04   1.1378995E+04   1.1421641E+04   1.1276923E+04   1.1535228E+04   1.1478376E+04   1.1430111E+04   1.1392014E+04   1.1350066E+04   1.1338913E+04   1.1375827E+04   1.1237945E+04   1.1343385E+04   1.1279638E+04   1.1219740E+04   1.1166255E+04   1.1105963E+04   1.1078236E+04   1.1106756E+04   1.0972162E+04   1.1005545E+04   1.0933925E+04   1.0860924E+04   1.0790094E+04   1.0711669E+04   1.0666884E+04   1.0680697E+04   1.0546146E+04   1.0571925E+04   1.0494021E+04   1.0408524E+04   1.0320171E+04   1.0224423E+04   1.0161514E+04   1.0151359E+04   1.0013020E+04   1.0057588E+04   9.9773613E+03   9.8820547E+03   9.7799492E+03   9.6679932E+03   9.5829443E+03   9.5444141E+03   9.3981680E+03   9.4504160E+03   9.3727070E+03   9.2731348E+03   9.1594805E+03   9.0371660E+03   8.9287402E+03   8.8627637E+03   8.7059932E+03   8.7419189E+03   8.6698936E+03   8.5704180E+03   8.4491992E+03   8.3173584E+03   8.1964463E+03   8.1069238E+03   7.9395874E+03   7.9471787E+03   7.8811416E+03   7.7835649E+03   7.6593613E+03   7.5188501E+03   7.3942617E+03   7.2917905E+03   7.1150513E+03   7.1036001E+03   7.0409160E+03   6.9453745E+03   6.8222729E+03   6.6783809E+03   6.5533242E+03   6.4560332E+03   6.2730391E+03   6.2564507E+03   6.1937183E+03   6.1004580E+03   5.9818560E+03   5.8426094E+03   5.7240117E+03   5.6408389E+03   5.4590601E+03   5.4456987E+03   5.3809214E+03   5.2917598E+03   5.1822134E+03   5.0555015E+03   4.9498574E+03   4.8693779E+03   4.6924590E+03   4.6989053E+03   4.6323623E+03   4.5518325E+03   4.4577031E+03   4.3472578E+03   4.2479790E+03   4.1490894E+03   3.9601902E+03   4.0287190E+03   3.9649639E+03   3.8985959E+03   3.8252698E+03   3.7378450E+03   3.6438499E+03   3.5089197E+03   3.2690488E+03   3.4386960E+03   3.3840383E+03   3.3379009E+03   3.2886899E+03   3.2244302E+03   3.1439739E+03   2.9676995E+03   2.9299001E+03   2.8919028E+03   2.8686973E+03   2.8394094E+03   2.7904788E+03   2.7018921E+03   2.5073420E+03   2.5042993E+03   2.4878538E+03   2.4804805E+03   2.4489316E+03   2.3967817E+03   2.2762698E+03   2.1636951E+03   2.1619700E+03   2.1414348E+03   2.0846033E+03   1.9939780E+03   1.8853180E+03   1.8951464E+03   1.8721473E+03   1.8093639E+03   1.7171873E+03   1.6192599E+03   1.6431301E+03   1.5715039E+03   1.4620162E+03   1.3755758E+03   1.3593962E+03   1.2618457E+03   1.1586958E+03   1.2039449E+03   1.1090725E+03   1.0678595E+03   1.0181170E+03 
Type 1 2975 unsigned_char
0 0 0 0 0 0 0 0 0 0 0 0 0 0 0 0 0 0 0 0 0 0 0 0 0 0 0 0 0 0 0 0 0 0 0 0 0 0 0 0 0 0 0 0 0 0 0 0 0 0 0 0 0 0 0 0 0 0 0 0 0 0 0 0 0 0 0 0 0 0 0 0 0 0 0 0 0 0 0 0 0 0 0 0 0 0 0 0 0 0 0 0 0 0 0 0 0 0 0 0 0 0 0 0 0 0 0 0 0 0 0 0 0 0 0 0 0 0 0 0 0 0 0 0 0 0 0 0 0 0 0 0 0 0 0 0 0 0 0 0 0 0 0 0 0 0 0 0 0 0 0 0 0 0 0 0 0 0 0 0 0 0 0 0 0 0 0 0 0 0 0 0 0 0 0 0 0 0 0 0 0 0 0 0 0 0 0 0 0 0 0 0 0 0 0 0 0 0 0 0 0 0 0 0 0 0 0 0 0 0 0 0 0 0 0 0 0 0 0 0 0 0 0 0 0 0 0 0 0 0 0 0 0 0 0 0 0 0 0 0 0 0 0 0 0 0 0 0 0 0 0 0 0 0 0 0 0 0 0 0 0 0 0 0 0 0 0 0 0 0 0 0 0 0 0 0 0 0 0 0 0 0 0 0 0 0 0 0 0 0 0 0 0 0 0 0 0 0 0 0 0 0 0 0 0 0 0 0 0 0 0 0 0 0 0 0 0 0 0 0 0 0 0 0 0 0 0 0 0 0 0 0 0 0 0 0 0 0 0 0 0 0 0 0 0 0 0 0 0 0 0 0 0 0 0 0 0 0 0 0 0 0 0 0 0 0 0 0 0 0 0 0 0 0 0 0 0 0 0 0 0 0 0 0 0 0 0 0 0 0 0 0 0 0 0 0 0 0 0 0 0 0 0 0 0 0 0 0 0 0 0 0 0 0 0 0 0 0 0 0 0 0 0 0 0 0 0 0 0 0 0 0 0 0 0 0 0 0 0 0 0 0 0 0 0 0 0 0 0 0 0 0 0 0 0 0 0 0 0 0 0 0 0 0 0 0 0 0 0 0 0 0 0 0 0 0 0 0 0 0 0 0 0 0 0 0 0 0 0 0 0 0 0 0 0 0 0 0 0 0 0 0 0 0 0 0 0 0 0 0 0 0 0 0 0 0 0 0 0 0 0 0 0 0 0 0 0 0 0 0 0 0 0 0 0 0 0 0 0 0 0 0 0 0 0 0 0 0 0 0 0 0 0 0 0 0 0 0 0 0 0 0 0 0 0 0 0 0 0 0 0 0 0 0 0 0 0 0 0 0 0 0 0 0 0 0 0 0 0 0 0 0 0 0 0 0 0 0 0 0 0 0 0 0 0 0 0 0 0 0 0 0 0 0 0 0 0 0 0 0 0 0 0 0 0 0 0 0 0 0 0 0 0 0 0 0 0 0 0 0 0 0 0 0 0 0 0 0 0 0 0 0 0 0 0 0 0 0 0 0 0 0 0 0 0 0 0 0 0 0 0 0 0 0 0 0 0 0 0 0 0 0 0 0 0 0 0 0 0 0 0 0 0 0 0 0 0 0 0 0 0 0 0 0 0 0 0 0 0 0 0 0 0 0 0 0 0 0 0 0 0 0 0 0 0 0 0 0 0 0 0 0 0 0 0 0 0 0 0 0 0 0 0 0 0 0 0 0 0 0 0 0 0 0 0 0 0 0 0 0 0 0 0 0 0 0 0 0 0 0 0 0 0 0 0 0 0 0 0 0 0 0 0 0 0 0 0 0 0 0 0 0 0 0 0 0 0 0 0 0 0 0 0 0 0 0 0 0 0 0 0 0 0 0 0 0 0 0 0 0 0 0 0 0 0 0 0 0 0 0 0 0 0 0 0 0 0 0 0 0 0 0 0 0 0 0 0 0 0 0 0 0 0 0 0 0 0 0 0 0 0 0 0 0 0 0 0 0 0 0 0 0 0 0 0 0 0 0 0 0 0 0 0 0 0 0 0 0 0 0 0 0 0 0 0 0 0 0 0 0 0 0 0 0 0 0 0 0 0 0 0 0 0 0 0 0 0 0 0 0 0 0 0 0 0 0 0 0 0 0 0 0 0 0 0 0 0 0 0 0 0 0 0 0 0 0 0 0 0 0 0 0 0 0 0 0 0 0 0 0 0 0 0 0 0 0 0 0 0 0 0 0 0 0 0 0 0 0 0 0 0 0 0 0 0 0 0 0 0 0 0 0 0 0 0 0 0 0 0 0 0 0 0 0 0 0 0 0 0 0 0 0 0 0 0 0 0 0 0 0 0 0 0 0 0 0 0 0 0 0 0 3 3 3 3 3 3 3 3 3 3 3 3 3 3 3 3 3 3 3 3 3 3 3 3 3 3 3 3 3 3 3 3 3 3 3 3 3 3 3 3 3 3 3 3 3 3 3 3 3 3 3 3 3 3 3 3 3 3 3 3 3 3 3 3 3 3 3 3 3 3 3 3 3 3 3 3 3 3 3 3 3 3 3 3 3 3 3 3 3 3 3 3 3 3 3 3 3 3 3 3 3 3 3 3 3 3 3 3 3 3 3 3 3 3 3 3 3 3 3 3 3 3 3 3 3 3 3 3 3 3 3 3 3 3 3 3 3 3 3 3 3 3 3 3 3 3 3 3 3 3 3 3 3 3 3 3 3 3 3 3 3 3 3 3 3 3 3 3 3 3 3 3 3 3 3 3 3 3 3 3 3 3 3 3 3 3 3 3 3 3 3 3 3 3 3 3 3 3 3 3 3 3 3 3 3 3 3 3 3 3 3 3 3 3 3 3 3 3 3 3 3 3 3 3 3 3 3 3 3 3 3 3 3 3 3 3 3 3 3 3 3 3 3 3 3 3 3 3 3 3 3 3 3 3 3 3 3 3 3 3 3 3 3 3 3 3 3 3 3 3 3 3 3 3 3 3 3 3 3 3 3 3 3 3 3 3 3 3 3 3 3 3 3 3 3 3 3 3 3 3 3 3 3 3 3 3 3 3 3 3 3 3 3 3 3 3 3 3 3 3 3 3 3 3 3 3 3 3 3 3 3 3 3 3 3 3 3 3 3 3 3 3 3 3 3 3 3 3 3 3 3 3 3 3 3 3 3 3 3 3 3 3 3 3 3 3 3 3 3 3 3 3 3 3 3 3 3 3 3 3 3 3 3 3 3 3 3 3 3 3 3 3 3 3 3 3 3 3 3 3 3 3 3 3 3 3 3 3 3 3 3 3 3 3 3 3 3 3 3 3 3 3 3 3 3 3 3 3 3 3 3 3 3 3 3 3 3 3 3 3 3 3 3 3 3 3 3 3 3 3 3 3 3 3 3 3 3 3 3 3 3 3 3 3 3 3 3 3 3 3 3 3 3 3 3 3 3 3 3 3 3 3 3 3 3 3 3 3 3 3 3 3 3 3 3 3 3 3 3 3 3 3 3 3 3 3 3 3 3 3 3 3 3 3 3 3 3 3 3 3 3 3 3 3 3 3 3 3 3 3 3 3 3 3 3 3 3 3 3 3 3 3 3 3 3 3 3 3 3 3 3 3 3 3 3 3 3 3 3 3 3 3 3 3 3 3 3 3 3 3 3 3 3 3 3 3 3 3 3 3 3 3 3 3 3 3 3 3 3 3 3 3 3 3 3 3 3 3 3 3 3 3 3 3 3 3 3 3 3 3 3 3 3 3 3 3 3 3 3 3 3 3 3 3 3 3 3 3 3 3 3 3 3 3 3 3 3 3 3 3 3 3 3 3 3 3 3 3 3 3 3 3 3 3 3 3 3 3 3 3 3 3 3 3 3 3 3 3 3 3 3 3 3 3 3 3 3 3 3 3 3 3 3 3 3 3 3 3 3 3 3 3 3 3 3 3 3 3 3 3 3 3 3 3 3 3 3 3 3 3 3 3 3 3 3 3 3 3 3 3 3 3 3 3 3 3 3 3 3 3 3 3 3 3 3 3 3 3 3 3 3 3 3 3 3 3 3 3 3 3 3 3 3 3 3 3 3 3 3 3 3 3 3 3 3 3 3 3 3 3 3 3 3 3 3 3 3 3 3 3 3 3 3 3 3 3 3 3 3 3 3 3 3 3 3 3 3 3 3 3 3 3 3 3 3 3 3 3 3 3 3 3 3 3 3 3 3 3 3 3 3 3 3 3 3 3 3 3 3 3 3 3 3 3 3 3 3 3 3 3 3 3 3 3 3 3 3 3 3 3 3 3 3 3 3 3 3 3 3 3 3 3 3 3 3 3 3 3 3 3 3 3 3 3 3 3 3 3 3 3 3 3 3 3 3 3 3 3 3 3 3 3 3 3 3 3 3 3 3 3 3 3 3 3 3 3 3 3 3 3 3 3 3 3 3 3 3 3 3 3 3 3 3 3 3 3 3 3 3 3 3 3 3 3 3 3 3 3 3 3 3 3 3 3 3 3 3 3 3 3 3 3 3 3 3 3 3 3 3 3 3 3 3 3 3 3 3 3 3 3 3 3 3 3 3 3 3 3 3 3 3 3 3 3 3 3 3 3 3 3 3 3 3 3 3 3 3 3 3 3 3 3 3 3 3 3 3 3 3 3 3 3 3 3 3 3 3 3 3 3 3 3 3 3 3 3 3 3 3 3 3 3 3 3 3 3 3 3 3 3 3 3 3 3 3 3 3 3 3 3 3 3 3 3 3 3 3 3 3 3 3 3 3 3 3 3 3 3 3 3 3 3 3 3 3 3 3 3 3 3 3 3 3 3 3 3 3 3 3 3 3 3 3 3 3 3 3 3 3 3 3 3 3 3 3 3 3 3 3 3 3 3 3 3 3 3 3 3 3 3 3 3 3 3 3 3 3 3 3 3 3 3 3 3 3 3 3 3 3 3 3 3 3 3 3 3 3 3 3 3 3 3 3 3 3 3 3 3 3 3 3 3 3 3 3 3 3 3 3 3 3 3 3 3 3 3 3 3 3 3 3 3 3 3 3 3 3 3 3 3 3 3 3 3 3 3 3 3 3 3 3 3 3 3 3 3 3 3 3 3 3 3 3 3 3 3 3 3 3 3 3 3 3 3 3 3 3 3 3 3 3 3 3 3 3 3 3 3 3 3 3 3 3 3 3 3 3 3 3 3 3 3 3 3 3 3 3 3 3 3 3 3 3 3 3 3 3 3 3 3 3 3 3 3 3 3 3 3 3 3 3 3 3 3 3 3 3 3 3 3 3 3 3 3 3 3 3 3 3 3 3 3 3 3 3 3 3 3 3 3 3 3 3 3 3 3 3 3 3 3 3 3 3 3 3 3 3 3 3 3 3 3 3 3 3 3 3 3 3 3 3 3 3 3 3 3 3 3 3 3 3 3 3 3 3 3 3 3 3 3 3 3 3 3 3 3 3 3 3 3 3 3 3 3 3 3 3 3 3 3 3 3 3 3 3 3 3 3 3 3 3 3 3 3 3 3 3 3 3 3 3 3 3 3 3 3 3 3 3 3 3 3 3 3 3 3 3 3 3 3 3 3 3 3 3 3 3 3 3 3 3 3 3 3 3 3 3 3 3 3 3 3 3 3 3 3 3 3 3 3 3 3 3 3 3 3 3 3 3 3 3 3 3 3 3 3 3 3 3 3 3 3 3 3 3 3 3 3 3 3 3 3 3 3 3 3 3 3 3 3 3 3 3 3 3 3 3 3 3 3 3 3 3 3 3 3 3 3 3 3 3 3 3 3 3 3 3 3 3 3 3 3 3 3 3 3 3 3 3 3 3 3 3 3 3 3 3 3 3 3 3 3 3 3 3 3 3 3 3 3 3 3 3 3 3 3 3 3 3 3 3 3 3 3 3 3 3 3 3 3 3 3 3 3 3 3 3 3 3 3 3 3 3 3 3 3 3 3 3 3 3 3 3 3 3 3 3 3 3 3 3 3 3 3 3 3 3 3 3 3 3 3 3 3 3 3 3 3 3 3 3 3 3 3 3 3 3 3 3 3 3 3 3 3 3 3 3 3 3 3 3 3 3 3 3 3 3 3 3 3 3 3 3 3 3 3 3 3 3 3 3 3 3 3 3 3 3 3 3 3 3 3 3 3 3 3 3 3 3 3 3 3 3 3 3 3 3 3 3 3 3 3 3 3 3 3 3 3 3 3 3 3 3 3 3 3 3 3 3 3 3 3 3 3 3 3 3 3 3 3 3 3 3 3 3 3 3 3 3 3 3 3 3 3 3 3 3 3 3 3 3 3 3 3 3 3 3 3 3 3 3 3 3 3 3 3 3 3 3 3 3 3 3 3 3 3 3 3 3 3 3 3 3 3 3 3 3 3 3 3 3 3 3 3 3 3 3 3 3 3 3 3 3 3 3 3 3 3 3 3 3 3 3 3 3 3 3 3 3 3 3 3 3 3 3 3 3 3 3 3 3 3 3 3 3 3 3 3 3 3 3 3 3 3 3 3 3 3 3 3 3 3 3 3 3 3 3 3 3 3 3 3 3 3 3 3 3 3 3 3 3 3 3 3 3 3 3 3 3 3 3 3 3 3 3 3 3 3 3 3 3 3 3 3 3 3 3 3 3 3 3 3 3 3 3 3 3 3 3 3 3 3 3 3 3 3 3 3 3 3 3 3 3 3 3 3 3 3 3 3 3 3 3 3 3 3 3 3 3 3 3 3 3 3 3 3 3 3 3 3 3 3 3 3 
Acec.x 1 2975 float
  0.0000000E+00   0.0000000E+00   0.0000000E+00   0.0000000E+00   0.0000000E+00   0.0000000E+00   0.0000000E+00   0.0000000E+00   0.0000000E+00   0.0000000E+00   0.0000000E+00   0.0000000E+00   0.0000000E+00   0.0000000E+00   0.0000000E+00   0.0000000E+00   0.0000000E+00   0.0000000E+00   0.0000000E+00   0.0000000E+00   0.0000000E+00   0.0000000E+00   0.0000000E+00   0.0000000E+00   0.0000000E+00   0.0000000E+00   0.0000000E+00   0.0000000E+00   0.0000000E+00   0.0000000E+00   0.0000000E+00   0.0000000E+00   0.0000000E+00   0.0000000E+00   0.0000000E+00   0.0000000E+00   0.0000000E+00   0.0000000E+00   0.0000000E+00   0.0000000E+00   0.0000000E+00   0.0000000E+00   0.0000000E+00   0.0000000E+00   0.0000000E+00   0.0000000E+00   0.0000000E+00   0.0000000E+00   0.0000000E+00   0.0000000E+00   0.0000000E+00   0.0000000E+00   0.0000000E+00   0.0000000E+00   0.0000000E+00   0.0000000E+00   0.0000000E+00   0.0000000E+00   0.0000000E+00   0.0000000E+00   0.0000000E+00   0.0000000E+00   0.0000000E+00   0.0000000E+00   0.0000000E+00   0.0000000E+00   0.0000000E+00   0.0000000E+00   0.0000000E+00   0.0000000E+00   0.0000000E+00   0.0000000E+00   0.0000000E+00   0.0000000E+00   0.0000000E+00   0.0000000E+00   0.0000000E+00   0.0000000E+00   0.0000000E+00   0.0000000E+00   0.0000000E+00   0.0000000E+00   0.0000000E+00   0.0000000E+00   0.0000000E+00   0.0000000E+00   0.0000000E+00   0.0000000E+00   0.0000000E+00   0.0000000E+00   0.0000000E+00   0.0000000E+00   0.0000000E+00   0.0000000E+00   0.0000000E+00   0.0000000E+00   0.0000000E+00   0.0000000E+00   0.0000000E+00   0.0000000E+00   0.0000000E+00   0.0000000E+00   0.0000000E+00   0.0000000E+00   0.0000000E+00   0.0000000E+00   0.0000000E+00   0.0000000E+00   0.0000000E+00   0.0000000E+00   0.0000000E+00   0.0000000E+00   0.0000000E+00   0.0000000E+00   0.0000000E+00   0.0000000E+00   0.0000000E+00   0.0000000E+00   0.0000000E+00   0.0000000E+00   0.0000000E+00   0.0000000E+00   0.0000000E+00   0.0000000E+00   0.0000000E+00   0.0000000E+00   0.0000000E+00   0.0000000E+00   0.0000000E+00   0.0000000E+00   0.0000000E+00   0.0000000E+00   0.0000000E+00   0.0000000E+00   0.0000000E+00   0.0000000E+00   0.0000000E+00   0.0000000E+00   0.0000000E+00   0.0000000E+00   0.0000000E+00   0.0000000E+00   0.0000000E+00   0.0000000E+00   0.0000000E+00   0.0000000E+00   0.0000000E+00   0.0000000E+00   0.0000000E+00   0.0000000E+00   0.0000000E+00   0.0000000E+00   0.0000000E+00   0.0000000E+00   0.0000000E+00   0.0000000E+00   0.0000000E+00   0.0000000E+00   0.0000000E+00   0.0000000E+00   0.0000000E+00   0.0000000E+00   0.0000000E+00   0.0000000E+00   0.0000000E+00   0.0000000E+00   0.0000000E+00   0.0000000E+00   0.0000000E+00   0.0000000E+00   0.0000000E+00   0.0000000E+00   0.0000000E+00   0.0000000E+00   0.0000000E+00   0.0000000E+00   0.0000000E+00   0.0000000E+00   0.0000000E+00   0.0000000E+00   0.0000000E+00   0.0000000E+00   0.0000000E+00   0.0000000E+00   0.0000000E+00   0.0000000E+00   0.0000000E+00   0.0000000E+00   0.0000000E+00   0.0000000E+00   0.0000000E+00   0.0000000E+00   0.0000000E+00   0.0000000E+00   0.0000000E+00   0.0000000E+00   0.0000000E+00   0.0000000E+00   0.0000000E+00   0.0000000E+00   0.0000000E+00   0.0000000E+00   0.0000000E+00   0.0000000E+00   0.0000000E+00   0.0000000E+00   0.0000000E+00   0.0000000E+00   0.0000000E+00   0.0000000E+00   0.0000000E+00   0.0000000E+00   0.0000000E+00   0.0000000E+00   0.0000000E+00   0.0000000E+00   0.0000000E+00   0.0000000E+00   0.0000000E+00   0.0000000E+00   0.0000000E+00   0.0000000E+00   0.0000000E+00   0.0000000E+00   0.0000000E+00   0.0000000E+00   0.0000000E+00   0.0000000E+00   0.0000000E+00   0.0000000E+00   0.0000000E+00   0.0000000E+00   0.0000000E+00   0.0000000E+00   0.0000000E+00   0.0000000E+00   0.0000000E+00   0.0000000E+00   0.0000000E+00   0.0000000E+00   0.0000000E+00   0.0000000E+00   0.0000000E+00   0.0000000E+00   0.0000000E+00   0.0000000E+00   0.0000000E+00   0.0000000E+00   0.0000000E+00   0.0000000E+00   0.0000000E+00   0.0000000E+00   0.0000000E+00   0.0000000E+00   0.0000000E+00   0.0000000E+00   0.0000000E+00   0.0000000E+00   0.0000000E+00   0.0000000E+00   0.0000000E+00   0.0000000E+00   0.0000000E+00   0.0000000E+00   0.0000000E+00   0.0000000E+00   0.0000000E+00   0.0000000E+00   0.0000000E+00   0.0000000E+00   0.0000000E+00   0.0000000E+00   0.0000000E+00   0.0000000E+00   0.0000000E+00   0.0000000E+00   0.0000000E+00   0.0000000E+00   0.0000000E+00   0.0000000E+00   0.0000000E+00   0.0000000E+00   0.0000000E+00   0.0000000E+00   0.0000000E+00   0.0000000E+00   0.0000000E+00   0.0000000E+00   0.0000000E+00   0.0000000E+00   0.0000000E+00   0.0000000E+00   0.0000000E+00   0.0000000E+00   0.0000000E+00   0.0000000E+00   0.0000000E+00   0.0000000E+00   0.0000000E+00   0.0000000E+00   0.0000000E+00   0.0000000E+00   0.0000000E+00   0.0000000E+00   0.0000000E+00   0.0000000E+00   0.0000000E+00   0.0000000E+00   0.0000000E+00   0.0000000E+00   0.0000000E+00   0.0000000E+00   0.0000000E+00   0.0000000E+00   0.0000000E+00   0.0000000E+00   0.0000000E+00   0.0000000E+00   0.0000000E+00   0.0000000E+00   0.0000000E+00   0.0000000E+00   0.0000000E+00   0.0000000E+00   0.0000000E+00   0.0000000E+00   0.0000000E+00   0.0000000E+00   0.0000000E+00   0.0000000E+00   0.0000000E+00   0.0000000E+00   0.0000000E+00   0.0000000E+00   0.0000000E+00   0.0000000E+00   0.0000000E+00   0.0000000E+00   0.0000000E+00   0.0000000E+00   0.0000000E+00   0.0000000E+00   0.0000000E+00   0.0000000E+00   0.0000000E+00   0.0000000E+00   0.0000000E+00   0.0000000E+00   0.0000000E+00   0.0000000E+00   0.0000000E+00   0.0000000E+00   0.0000000E+00   0.0000000E+00   0.0000000E+00   0.0000000E+00   0.0000000E+00   0.0000000E+00   0.0000000E+00   0.0000000E+00   0.0000000E+00   0.0000000E+00   0.0000000E+00   0.0000000E+00   0.0000000E+00   0.0000000E+00   0.0000000E+00   0.0000000E+00   0.0000000E+00   0.0000000E+00   0.0000000E+00   0.0000000E+00   0.0000000E+00   0.0000000E+00   0.0000000E+00   0.0000000E+00   0.0000000E+00   0.0000000E+00   0.0000000E+00   0.0000000E+00   0.0000000E+00   0.0000000E+00   0.0000000E+00   0.0000000E+00   0.0000000E+00   0.0000000E+00   0.0000000E+00   0.0000000E+00   0.0000000E+00   0.0000000E+00   0.0000000E+00   0.0000000E+00   0.0000000E+00   0.0000000E+00   0.0000000E+00   0.0000000E+00   0.0000000E+00   0.0000000E+00   0.0000000E+00   0.0000000E+00   0.0000000E+00   0.0000000E+00   0.0000000E+00   0.0000000E+00   0.0000000E+00   0.0000000E+00   0.0000000E+00   0.0000000E+00   0.0000000E+00   0.0000000E+00   0.0000000E+00   0.0000000E+00   0.0000000E+00   0.0000000E+00   0.0000000E+00   0.0000000E+00   0.0000000E+00   0.0000000E+00   0.0000000E+00   0.0000000E+00   0.0000000E+00   0.0000000E+00   0.0000000E+00   0.0000000E+00   0.0000000E+00   0.0000000E+00   0.0000000E+00   0.0000000E+00   0.0000000E+00   0.0000000E+00   0.0000000E+00   0.0000000E+00   0.0000000E+00   0.0000000E+00   0.0000000E+00   0.0000000E+00   0.0000000E+00   0.0000000E+00   0.0000000E+00   0.0000000E+00   0.0000000E+00   0.0000000E+00   0.0000000E+00   0.0000000E+00   0.0000000E+00   0.0000000E+00   0.0000000E+00   0.0000000E+00   0.0000000E+00   0.0000000E+00   0.0000000E+00   0.0000000E+00   0.0000000E+00   0.0000000E+00   0.0000000E+00   0.0000000E+00   0.0000000E+00   0.0000000E+00   0.0000000E+00   0.0000000E+00   0.0000000E+00   0.0000000E+00   0.0000000E+00   0.0000000E+00   0.0000000E+00   0.0000000E+00   0.0000000E+00   0.0000000E+00   0.0000000E+00   0.0000000E+00   0.0000000E+00   0.0000000E+00   0.0000000E+00   0.0000000E+00   0.0000000E+00   0.0000000E+00   0.0000000E+00   0.0000000E+00   0.0000000E+00   0.0000000E+00   0.0000000E+00   0.0000000E+00   0.0000000E+00   0.0000000E+00   0.0000000E+00   0.0000000E+00   0.0000000E+00   0.0000000E+00   0.0000000E+00   0.0000000E+00   0.0000000E+00   0.0000000E+00   0.0000000E+00   0.0000000E+00   0.0000000E+00   0.0000000E+00   0.0000000E+00   0.0000000E+00   0.0000000E+00   0.0000000E+00   0.0000000E+00   0.0000000E+00   0.0000000E+00   0.0000000E+00   0.0000000E+00   0.0000000E+00   0.0000000E+00   0.0000000E+00   0.0000000E+00   0.0000000E+00   0.0000000E+00   0.0000000E+00   0.0000000E+00   0.0000000E+00   0.0000000E+00   0.0000000E+00   0.0000000E+00   0.0000000E+00   0.0000000E+00   0.0000000E+00   0.0000000E+00   0.0000000E+00   0.0000000E+00   0.0000000E+00   0.0000000E+00   0.0000000E+00   0.0000000E+00   0.0000000E+00   0.0000000E+00   0.0000000E+00   0.0000000E+00   0.0000000E+00   0.0000000E+00   0.0000000E+00   0.0000000E+00   0.0000000E+00   0.0000000E+00   0.0000000E+00   0.0000000E+00   0.0000000E+00   0.0000000E+00   0.0000000E+00   0.0000000E+00   0.0000000E+00   0.0000000E+00   0.0000000E+00   0.0000000E+00   0.0000000E+00   0.0000000E+00   0.0000000E+00   0.0000000E+00   0.0000000E+00   0.0000000E+00   0.0000000E+00   0.0000000E+00   0.0000000E+00   0.0000000E+00   0.0000000E+00   0.0000000E+00   0.0000000E+00   0.0000000E+00   0.0000000E+00   0.0000000E+00   0.0000000E+00   0.0000000E+00   0.0000000E+00   0.0000000E+00   0.0000000E+00   0.0000000E+00   0.0000000E+00   0.0000000E+00   0.0000000E+00   0.0000000E+00   0.0000000E+00   0.0000000E+00   0.0000000E+00   0.0000000E+00   0.0000000E+00   0.0000000E+00   0.0000000E+00   0.0000000E+00   0.0000000E+00   0.0000000E+00   0.0000000E+00   0.0000000E+00   0.0000000E+00   0.0000000E+00   0.0000000E+00   0.0000000E+00   0.0000000E+00   0.0000000E+00   0.0000000E+00   0.0000000E+00   0.0000000E+00   0.0000000E+00   0.0000000E+00   0.0000000E+00   0.0000000E+00   0.0000000E+00   0.0000000E+00   0.0000000E+00   0.0000000E+00   0.0000000E+00   0.0000000E+00   0.0000000E+00   0.0000000E+00   0.0000000E+00   0.0000000E+00   0.0000000E+00   0.0000000E+00   0.0000000E+00   0.0000000E+00   0.0000000E+00   0.0000000E+00   0.0000000E+00   0.0000000E+00   0.0000000E+00   0.0000000E+00   0.0000000E+00   0.0000000E+00   0.0000000E+00   0.0000000E+00   0.0000000E+00   0.0000000E+00   0.0000000E+00   0.0000000E+00   0.0000000E+00   0.0000000E+00   0.0000000E+00   0.0000000E+00   0.0000000E+00   0.0000000E+00   0.0000000E+00   0.0000000E+00   0.0000000E+00   0.0000000E+00   0.0000000E+00   0.0000000E+00   0.0000000E+00   0.0000000E+00   0.0000000E+00   0.0000000E+00   0.0000000E+00   0.0000000E+00   0.0000000E+00   0.0000000E+00   0.0000000E+00   0.0000000E+00   0.0000000E+00   0.0000000E+00   0.0000000E+00   0.0000000E+00   0.0000000E+00   0.0000000E+00   0.0000000E+00   0.0000000E+00   0.0000000E+00   0.0000000E+00   0.0000000E+00   0.0000000E+00   0.0000000E+00   0.0000000E+00   0.0000000E+00   0.0000000E+00   0.0000000E+00   0.0000000E+00   0.0000000E+00   0.0000000E+00   0.0000000E+00   0.0000000E+00   0.0000000E+00   0.0000000E+00   0.0000000E+00   0.0000000E+00   0.0000000E+00   0.0000000E+00   0.0000000E+00   0.0000000E+00   0.0000000E+00   0.0000000E+00   0.0000000E+00   0.0000000E+00   0.0000000E+00   0.0000000E+00   0.0000000E+00   0.0000000E+00   0.0000000E+00   0.0000000E+00   0.0000000E+00   0.0000000E+00   0.0000000E+00   0.0000000E+00   0.0000000E+00   0.0000000E+00   0.0000000E+00   0.0000000E+00   0.0000000E+00   0.0000000E+00   0.0000000E+00   0.0000000E+00   0.0000000E+00   0.0000000E+00   0.0000000E+00   0.0000000E+00   0.0000000E+00   0.0000000E+00   0.0000000E+00   0.0000000E+00   0.0000000E+00   0.0000000E+00   0.0000000E+00   0.0000000E+00   0.0000000E+00   0.0000000E+00   0.0000000E+00   0.0000000E+00   0.0000000E+00   0.0000000E+00   0.0000000E+00   0.0000000E+00   0.0000000E+00   0.0000000E+00   0.0000000E+00   0.0000000E+00   0.0000000E+00   0.0000000E+00   0.0000000E+00   0.0000000E+00   0.0000000E+00   0.0000000E+00   0.0000000E+00   0.0000000E+00   0.0000000E+00   0.0000000E+00   0.0000000E+00   0.0000000E+00   0.0000000E+00   0.0000000E+00   0.0000000E+00   0.0000000E+00   0.0000000E+00   0.0000000E+00   0.0000000E+00   0.0000000E+00   0.0000000E+00   0.0000000E+00   0.0000000E+00   0.0000000E+00   0.0000000E+00   0.0000000E+00   0.0000000E+00   0.0000000E+00   0.0000000E+00   0.0000000E+00   0.0000000E+00   0.0000000E+00   0.0000000E+00   0.0000000E+00   0.0000000E+00   0.0000000E+00   0.0000000E+00   0.0000000E+00   0.0000000E+00   0.0000000E+00   0.0000000E+00   0.0000000E+00   0.0000000E+00   0.0000000E+00   0.0000000E+00   0.0000000E+00   0.0000000E+00   0.0000000E+00   0.0000000E+00   0.0000000E+00   0.0000000E+00   0.0000000E+00   0.0000000E+00   0.0000000E+00   0.0000000E+00   0.0000000E+00   0.0000000E+00   0.0000000E+00   0.0000000E+00   0.0000000E+00   0.0000000E+00   0.0000000E+00   0.0000000E+00   0.0000000E+00   0.0000000E+00   0.0000000E+00   0.0000000E+00   0.0000000E+00   0.0000000E+00   0.0000000E+00   0.0000000E+00   0.0000000E+00   0.0000000E+00   0.0000000E+00   0.0000000E+00   0.0000000E+00   0.0000000E+00   0.0000000E+00   0.0000000E+00   0.0000000E+00   0.0000000E+00   0.0000000E+00   0.0000000E+00   0.0000000E+00   0.0000000E+00   0.0000000E+00   0.0000000E+00   0.0000000E+00   0.0000000E+00   0.0000000E+00   0.0000000E+00   0.0000000E+00   0.0000000E+00   0.0000000E+00   0.0000000E+00   0.0000000E+00   0.0000000E+00   0.0000000E+00   0.0000000E+00   0.0000000E+00   0.0000000E+00   0.0000000E+00   0.0000000E+00   0.0000000E+00   0.0000000E+00   0.0000000E+00   0.0000000E+00   0.0000000E+00   0.0000000E+00   0.0000000E+00   0.0000000E+00   0.0000000E+00   0.0000000E+00   0.0000000E+00   0.0000000E+00   0.0000000E+00   0.0000000E+00   0.0000000E+00   0.0000000E+00   0.0000000E+00   0.0000000E+00   0.0000000E+00   0.0000000E+00   0.0000000E+00   0.0000000E+00   0.0000000E+00   0.0000000E+00   0.0000000E+00   0.0000000E+00   0.0000000E+00   0.0000000E+00   0.0000000E+00   0.0000000E+00   0.0000000E+00   0.0000000E+00   0.0000000E+00   0.0000000E+00   0.0000000E+00   0.0000000E+00   0.0000000E+00   0.0000000E+00   0.0000000E+00   0.0000000E+00   0.0000000E+00   0.0000000E+00   0.0000000E+00   0.0000000E+00   0.0000000E+00   0.0000000E+00   0.0000000E+00   0.0000000E+00   0.0000000E+00   0.0000000E+00   0.0000000E+00   0.0000000E+00   0.0000000E+00   0.0000000E+00   0.0000000E+00   0.0000000E+00   0.0000000E+00   0.0000000E+00   0.0000000E+00   0.0000000E+00   0.0000000E+00   0.0000000E+00   0.0000000E+00   0.0000000E+00   0.0000000E+00   0.0000000E+00   0.0000000E+00   0.0000000E+00   0.0000000E+00   0.0000000E+00   0.0000000E+00   0.0000000E+00   0.0000000E+00   0.0000000E+00   0.0000000E+00   0.0000000E+00   0.0000000E+00   0.0000000E+00   0.0000000E+00   0.0000000E+00   0.0000000E+00   0.0000000E+00   0.0000000E+00   0.0000000E+00   0.0000000E+00   0.0000000E+00   0.0000000E+00   0.0000000E+00   0.0000000E+00   0.0000000E+00   0.0000000E+00   0.0000000E+00   0.0000000E+00   0.0000000E+00   0.0000000E+00   0.0000000E+00   0.0000000E+00   0.0000000E+00   0.0000000E+00   0.0000000E+00   0.0000000E+00   0.0000000E+00   0.0000000E+00   0.0000000E+00   0.0000000E+00   0.0000000E+00   0.0000000E+00   0.0000000E+00   0.0000000E+00   0.0000000E+00   0.0000000E+00   0.0000000E+00   0.0000000E+00   0.0000000E+00   0.0000000E+00   0.0000000E+00   0.0000000E+00   0.0000000E+00   0.0000000E+00   0.0000000E+00   0.0000000E+00   0.0000000E+00   0.0000000E+00   0.0000000E+00   0.0000000E+00   0.0000000E+00   0.0000000E+00   0.0000000E+00   0.0000000E+00   0.0000000E+00   0.0000000E+00   0.0000000E+00   0.0000000E+00   0.0000000E+00   0.0000000E+00   0.0000000E+00   0.0000000E+00   0.0000000E+00   0.0000000E+00   0.0000000E+00   0.0000000E+00   0.0000000E+00   0.0000000E+00   0.0000000E+00   0.0000000E+00   0.0000000E+00   0.0000000E+00   0.0000000E+00   0.0000000E+00   0.0000000E+00   0.0000000E+00   0.0000000E+00   0.0000000E+00   0.0000000E+00   0.0000000E+00   0.0000000E+00   0.0000000E+00   0.0000000E+00   0.0000000E+00   0.0000000E+00   0.0000000E+00   0.0000000E+00   0.0000000E+00   0.0000000E+00   0.0000000E+00   0.0000000E+00   0.0000000E+00   0.0000000E+00   0.0000000E+00   0.0000000E+00   0.0000000E+00   0.0000000E+00   0.0000000E+00   0.0000000E+00   0.0000000E+00   0.0000000E+00   0.0000000E+00   0.0000000E+00   0.0000000E+00   0.0000000E+00   0.0000000E+00   0.0000000E+00   0.0000000E+00   0.0000000E+00   0.0000000E+00   0.0000000E+00   0.0000000E+00   0.0000000E+00   0.0000000E+00   0.0000000E+00   0.0000000E+00   0.0000000E+00   0.0000000E+00   0.0000000E+00   0.0000000E+00   0.0000000E+00   0.0000000E+00   0.0000000E+00   0.0000000E+00   0.0000000E+00   0.0000000E+00   0.0000000E+00   0.0000000E+00   0.0000000E+00  -6.5923071E-01  -7.7523232E-01  -8.7109661E-01  -9.4711256E-01  -1.0052240E+00  -6.4734793E-01  -8.5988498E-01  -1.0229349E+00  -1.1490719E+00  -1.2453778E+00  -1.3175359E+00  -8.6751008E-01  -1.1359539E+00  -1.3380711E+00  -1.4933977E+00  -1.6106160E+00  -1.6982570E+00  -1.1374426E+00  -1.4685879E+00  -1.7074498E+00  -1.8883212E+00  -2.0252628E+00  -2.1273856E+00  -1.4577141E+00  -1.8591231E+00  -2.1362033E+00  -2.3407307E+00  -2.4960389E+00  -2.6109247E+00  -1.8405538E+00  -2.3205271E+00  -2.6365485E+00  -2.8631673E+00  -3.0339677E+00  -3.1593494E+00  -2.3019602E+00  -2.8678269E+00  -3.2208765E+00  -3.4675617E+00  -3.6487613E+00  -3.7812128E+00  -2.8634901E+00  -3.5159404E+00  -3.8983359E+00  -4.1597176E+00  -4.3464804E+00  -4.4825706E+00  -3.5609059E+00  -4.2792435E+00  -4.6780581E+00  -4.9456630E+00  -5.1339221E+00  -5.2681284E+00  -4.4633098E+00  -5.1795921E+00  -5.5719161E+00  -5.8292680E+00  -6.0164194E+00  -6.1431894E+00  -5.6377811E+00  -6.2576346E+00  -6.5987253E+00  -6.8287482E+00  -6.9967446E+00  -7.1111727E+00  -6.9580059E+00  -7.5230761E+00  -7.7715788E+00  -7.9503579E+00  -8.0848694E+00  -8.1762466E+00  -8.5321455E+00  -8.9865370E+00  -9.1108694E+00  -9.2082825E+00  -9.2852507E+00  -9.3437452E+00  -1.0581422E+01  -1.0747783E+01  -1.0676949E+01  -1.0620141E+01  -1.0608133E+01  -1.0623322E+01  -1.3022393E+01  -1.2782889E+01  -1.2424995E+01  -1.2174557E+01  -1.2052818E+01  -1.2021663E+01  -1.5638369E+01  -1.4959873E+01  -1.4292238E+01  -1.3846488E+01  -1.3623038E+01  -1.3539719E+01  -1.8298857E+01  -1.7203693E+01  -1.6241499E+01  -1.5618404E+01  -1.5303268E+01  -1.5176476E+01  -2.0962008E+01  -1.9504284E+01  -1.8280334E+01  -1.7490696E+01  -1.7092455E+01  -1.6930723E+01  -2.3698387E+01  -2.1917006E+01  -2.0431858E+01  -1.9478106E+01  -1.8992378E+01  -1.8798748E+01  -2.6608356E+01  -2.4482641E+01  -2.2713768E+01  -2.1577341E+01  -2.0997829E+01  -2.0775404E+01  -2.9726542E+01  -2.7213799E+01  -2.5125731E+01  -2.3782679E+01  -2.3104479E+01  -2.2856821E+01  -3.3065678E+01  -3.0110399E+01  -2.7662848E+01  -2.6090450E+01  -2.5306055E+01  -2.5038065E+01  -3.6628708E+01  -3.3170673E+01  -3.0320677E+01  -2.8491682E+01  -2.7595600E+01  -2.7314095E+01  -4.0422562E+01  -3.6393913E+01  -3.3090195E+01  -3.0978975E+01  -2.9966745E+01  -2.9677584E+01  -4.4470692E+01  -3.9787064E+01  -3.5967709E+01  -3.3548386E+01  -3.2415573E+01  -3.2129002E+01  -4.8824936E+01  -4.3373543E+01  -3.8956673E+01  -3.6201355E+01  -3.4939457E+01  -3.4667622E+01  -5.3564930E+01  -4.7187759E+01  -4.2083359E+01  -3.8946697E+01  -3.7534702E+01  -3.7290562E+01  -5.8807415E+01  -5.1238220E+01  -4.5316380E+01  -4.1764862E+01  -4.0176376E+01  -3.9954216E+01  -6.4524742E+01  -5.5469784E+01  -4.8596577E+01  -4.4492832E+01  -4.2820786E+01  -4.2627995E+01  -7.0465073E+01  -5.9687599E+01  -5.1761692E+01  -4.7144230E+01  -4.5303028E+01  -4.5198025E+01  -7.6195374E+01  -6.3619244E+01  -5.4451889E+01  -4.9467194E+01  -4.7614990E+01  -4.7570000E+01  -8.1145035E+01  -6.6808807E+01  -5.6934532E+01  -5.1655415E+01  -4.9580555E+01  -4.9564606E+01  -8.4710243E+01  -6.9198746E+01  -5.8974110E+01  -5.3357208E+01  -5.1142960E+01  -5.1076641E+01  -8.5869598E+01  -7.0054146E+01  -5.9901840E+01  -5.4263733E+01  -5.2103806E+01  -5.2123390E+01  -8.3577866E+01  -6.9172005E+01  -5.9811642E+01  -5.4302254E+01  -5.2414337E+01  -5.2495998E+01  -7.0314354E+01  -6.5307121E+01  -5.8300335E+01  -5.2868305E+01  -5.0918777E+01  -5.1124321E+01  -4.6116135E+01  -4.6039902E+01  -4.6339756E+01  -4.6520271E+01  -4.6275002E+01  -4.6793789E+01  -2.7552074E+01  -2.7356163E+01  -2.7561531E+01  -2.8179474E+01  -2.9180668E+01  -3.0512695E+01  -1.6127085E+01  -1.5708575E+01  -1.5590790E+01  -1.5861031E+01  -1.6523161E+01  -1.7518181E+01  -9.3349609E+00  -8.7399569E+00  -8.3130388E+00  -8.1680584E+00  -8.3383856E+00  -8.7897062E+00  -3.5328290E+00  -2.9329085E+00  -2.3754487E+00  -1.9537685E+00  -1.7143198E+00  -1.6571175E+00   4.0037212E+00   4.3984375E+00   4.8395572E+00   5.2800703E+00   5.6826162E+00   6.0251751E+00   1.4042383E+01   1.4078908E+01   1.4202592E+01   1.4411816E+01   1.4698088E+01   1.5042905E+01   2.5718754E+01   2.5346783E+01   2.5064398E+01   2.4897518E+01   2.4872515E+01   2.4997156E+01   3.7603027E+01   3.6861217E+01   3.6189705E+01   3.5622578E+01   3.5215950E+01   3.5016315E+01   4.8491508E+01   4.7463024E+01   4.6478123E+01   4.5571686E+01   4.4821579E+01   4.4310547E+01   5.7646999E+01   5.5888973E+01   5.5210609E+01   5.4038494E+01   5.3078762E+01   5.2302830E+01   6.5237869E+01   6.1772602E+01   6.1508217E+01   6.0375595E+01   5.8394402E+01   5.6313770E+01   7.1334091E+01   6.6784538E+01   6.6346352E+01   6.3837051E+01   5.9807552E+01   5.7475311E+01   7.7395805E+01   7.1634804E+01   7.0087265E+01   6.4692810E+01   6.0343708E+01   5.7929916E+01   8.3504562E+01   7.6748604E+01   7.2064606E+01   6.5191452E+01   6.0648815E+01   5.8172337E+01   8.9870598E+01   8.2342484E+01   7.3560204E+01   6.5590782E+01   6.0779217E+01   5.8235359E+01   1.0061401E+02   8.8701096E+01   7.5369843E+01   6.6414749E+01   6.1114162E+01   5.8327053E+01   1.1126544E+02   9.3506783E+01   7.7744453E+01   6.7779068E+01   6.1753326E+01   5.8427792E+01   1.1706242E+02   9.7978416E+01   8.0820404E+01   6.9681503E+01   6.2959328E+01   5.8823326E+01   1.0313148E+02   8.4844643E+01   7.2158943E+01   6.4628128E+01   5.9550587E+01   1.0874509E+02   9.0075500E+01   7.5520836E+01   6.6850250E+01   6.0806229E+01   9.6651871E+01   8.0433846E+01   6.9780510E+01   6.2774605E+01   1.0355869E+02   8.7438278E+01   7.4315086E+01   6.5627205E+01   9.5271400E+01   8.1111237E+01   7.0358063E+01   8.9120079E+01   7.7556961E+01   9.5827858E+01   8.5516525E+01  -1.0466745E+00  -1.0739753E+00  -1.0891867E+00  -1.0957410E+00  -1.0966609E+00  -1.0943489E+00  -1.0908067E+00  -1.0873518E+00  -1.0849407E+00  -1.3682613E+00  -1.4000006E+00  -1.4161770E+00  -1.4217920E+00  -1.4204583E+00  -1.4155025E+00  -1.4093995E+00  -1.4038754E+00  -1.4001164E+00  -1.7585135E+00  -1.7948563E+00  -1.8120584E+00  -1.8160253E+00  -1.8117888E+00  -1.8035605E+00  -1.7942615E+00  -1.7861814E+00  -1.7807658E+00  -2.1967981E+00  -2.2370455E+00  -2.2544885E+00  -2.2560124E+00  -2.2481320E+00  -2.2358449E+00  -2.2228103E+00  -2.2117198E+00  -2.2043889E+00  -2.6878519E+00  -2.7306275E+00  -2.7467752E+00  -2.7446613E+00  -2.7320545E+00  -2.7148314E+00  -2.6973531E+00  -2.6827748E+00  -2.6732254E+00  -3.2413385E+00  -3.2846105E+00  -3.2974133E+00  -3.2900553E+00  -3.2713325E+00  -3.2481022E+00  -3.2253458E+00  -3.2067013E+00  -3.1945825E+00  -3.8652925E+00  -3.9063709E+00  -3.9136226E+00  -3.8990879E+00  -3.8726869E+00  -3.8421848E+00  -3.8132329E+00  -3.7898512E+00  -3.7747641E+00  -4.5654683E+00  -4.6015501E+00  -4.6009307E+00  -4.5770898E+00  -4.5413556E+00  -4.5022721E+00  -4.4661007E+00  -4.4372807E+00  -4.4188242E+00  -5.3468385E+00  -5.3749747E+00  -5.3641686E+00  -5.3291674E+00  -5.2825060E+00  -5.2335415E+00  -5.1891518E+00  -5.1541796E+00  -5.1319265E+00  -6.2133341E+00  -6.2309871E+00  -6.2081614E+00  -6.1604295E+00  -6.1014724E+00  -6.0414677E+00  -5.9879189E+00  -5.9461327E+00  -5.9196591E+00  -7.1689048E+00  -7.1742949E+00  -7.1380525E+00  -7.0765285E+00  -7.0041933E+00  -6.9322476E+00  -6.8687391E+00  -6.8195143E+00  -6.7884922E+00  -8.2184620E+00  -8.2107382E+00  -8.1603241E+00  -8.0844135E+00  -7.9981756E+00  -7.9135671E+00  -7.8395209E+00  -7.7824774E+00  -7.7466087E+00  -9.3689766E+00  -9.3469849E+00  -9.2826109E+00  -9.1923761E+00  -9.0918980E+00  -8.9944296E+00  -8.9096518E+00  -8.8444538E+00  -8.8036737E+00  -1.0628244E+01  -1.0591484E+01  -1.0512785E+01  -1.0408574E+01  -1.0294511E+01  -1.0184280E+01  -1.0088816E+01  -1.0015863E+01  -9.9701996E+00  -1.2002888E+01  -1.1951753E+01  -1.1859190E+01  -1.1741390E+01  -1.1614302E+01  -1.1492958E+01  -1.1387713E+01  -1.1307496E+01  -1.1257140E+01  -1.3498376E+01  -1.3433557E+01  -1.3329312E+01  -1.3198193E+01  -1.3060182E+01  -1.2928265E+01  -1.2815165E+01  -1.2728936E+01  -1.2675626E+01  -1.5117578E+01  -1.5040016E+01  -1.4925302E+01  -1.4784841E+01  -1.4639277E+01  -1.4501092E+01  -1.4382801E+01  -1.4292030E+01  -1.4236245E+01  -1.6857773E+01  -1.6772667E+01  -1.6651747E+01  -1.6507612E+01  -1.6359571E+01  -1.6220102E+01  -1.6099718E+01  -1.6008205E+01  -1.5951618E+01  -1.8718647E+01  -1.8634415E+01  -1.8515491E+01  -1.8373028E+01  -1.8229029E+01  -1.8093649E+01  -1.7977108E+01  -1.7888374E+01  -1.7832512E+01  -2.0695599E+01  -2.0620697E+01  -2.0514591E+01  -2.0385502E+01  -2.0253506E+01  -2.0129677E+01  -2.0023808E+01  -1.9941612E+01  -1.9888695E+01  -2.2785467E+01  -2.2733759E+01  -2.2653114E+01  -2.2550398E+01  -2.2439238E+01  -2.2335411E+01  -2.2245752E+01  -2.2175320E+01  -2.2128077E+01  -2.4986385E+01  -2.4973196E+01  -2.4932266E+01  -2.4867470E+01  -2.4789560E+01  -2.4715000E+01  -2.4647457E+01  -2.4593946E+01  -2.4554943E+01  -2.7297438E+01  -2.7338179E+01  -2.7352407E+01  -2.7338137E+01  -2.7304756E+01  -2.7268221E+01  -2.7230162E+01  -2.7198303E+01  -2.7171389E+01  -2.9715544E+01  -2.9827250E+01  -2.9911554E+01  -2.9960728E+01  -2.9979847E+01  -2.9991461E+01  -2.9988203E+01  -2.9981043E+01  -2.9970348E+01  -3.2238960E+01  -3.2438538E+01  -3.2606747E+01  -3.2731922E+01  -3.2819546E+01  -3.2873447E+01  -3.2910057E+01  -3.2930435E+01  -3.2936653E+01  -3.4864323E+01  -3.5163887E+01  -3.5434017E+01  -3.5643463E+01  -3.5803406E+01  -3.5915134E+01  -3.5983757E+01  -3.6030746E+01  -3.6055031E+01  -3.7584980E+01  -3.8005905E+01  -3.8379669E+01  -3.8688793E+01  -3.8920612E+01  -3.9086205E+01  -3.9196075E+01  -3.9263569E+01  -3.9299908E+01  -4.0376064E+01  -4.0936710E+01  -4.1433353E+01  -4.1835289E+01  -4.2143490E+01  -4.2363533E+01  -4.2507542E+01  -4.2593063E+01  -4.2636581E+01  -4.3188728E+01  -4.3898960E+01  -4.4531597E+01  -4.5041756E+01  -4.5428703E+01  -4.5697285E+01  -4.5868744E+01  -4.5967968E+01  -4.6008041E+01  -4.5915157E+01  -4.6786861E+01  -4.7568878E+01  -4.8197578E+01  -4.8656601E+01  -4.8966682E+01  -4.9158611E+01  -4.9251789E+01  -4.9300323E+01  -4.8391582E+01  -4.9411640E+01  -5.0343365E+01  -5.1088211E+01  -5.1621002E+01  -5.1974106E+01  -5.2169018E+01  -5.2259468E+01  -5.2313400E+01  -5.0468895E+01  -5.1616421E+01  -5.2652088E+01  -5.3476044E+01  -5.4062302E+01  -5.4465370E+01  -5.4737255E+01  -5.4853367E+01  -5.4933903E+01  -5.2025570E+01  -5.3265804E+01  -5.4396416E+01  -5.5302120E+01  -5.5959412E+01  -5.6451408E+01  -5.6762447E+01  -5.6895546E+01  -5.7022076E+01  -5.3133636E+01  -5.4494839E+01  -5.5685234E+01  -5.6638416E+01  -5.7348736E+01  -5.7950481E+01  -5.8298363E+01  -5.8524685E+01  -5.8676094E+01  -5.3614799E+01  -5.4953037E+01  -5.6189663E+01  -5.7185440E+01  -5.7904713E+01  -5.8567326E+01  -5.9081322E+01  -5.9520966E+01  -5.9797089E+01  -5.2338024E+01  -5.3751797E+01  -5.5025742E+01  -5.6280819E+01  -5.7359024E+01  -5.8431110E+01  -5.9281067E+01  -5.9877682E+01  -6.0351536E+01  -4.8369690E+01  -5.0190979E+01  -5.2211330E+01  -5.4044403E+01  -5.5258972E+01  -5.5989712E+01  -5.6290810E+01  -5.6422478E+01  -5.6464180E+01  -3.2085243E+01  -3.3732849E+01  -3.5261536E+01  -3.6535786E+01  -3.7495556E+01  -3.8142017E+01  -3.8522774E+01  -3.8712505E+01  -3.8788506E+01  -1.8748022E+01  -2.0075520E+01  -2.1355061E+01  -2.2476851E+01  -2.3380117E+01  -2.4047247E+01  -2.4494820E+01  -2.4763193E+01  -2.4899523E+01  -9.4530897E+00  -1.0244884E+01  -1.1076553E+01  -1.1867342E+01  -1.2558687E+01  -1.3116484E+01  -1.3529057E+01  -1.3803595E+01  -1.3957441E+01  -1.7605858E+00  -1.9993792E+00  -2.3391123E+00  -2.7325432E+00  -3.1321106E+00  -3.4976492E+00  -3.7988517E+00  -4.0193181E+00  -4.1523390E+00   6.2903886E+00   6.4577637E+00   6.5167918E+00   6.4782915E+00   6.3681293E+00   6.2190037E+00   6.0649681E+00   5.9341459E+00   5.8471947E+00   1.5414804E+01   1.5768608E+01   1.6061237E+01   1.6268030E+01   1.6385883E+01   1.6428179E+01   1.6418694E+01   1.6385199E+01   1.6352989E+01   2.5253481E+01   2.5593918E+01   2.5956100E+01   2.6284916E+01   2.6546028E+01   2.6726341E+01   2.6831835E+01   2.6881811E+01   2.6899172E+01   3.5036465E+01   3.5241840E+01   3.5560776E+01   3.5913921E+01   3.6238754E+01   3.6496265E+01   3.6674335E+01   3.6780479E+01   3.6832916E+01   4.4084759E+01   4.4124252E+01   4.4352009E+01   4.4671177E+01   4.4998775E+01   4.5277855E+01   4.5482048E+01   4.5611355E+01   4.5679001E+01   5.1798687E+01   5.1562786E+01   5.1531292E+01   5.1554783E+01   5.1661896E+01   5.1752682E+01   5.1834774E+01   5.1897697E+01   5.1940392E+01   5.5270271E+01   5.4726173E+01   5.4301441E+01   5.4001373E+01   5.3824123E+01   5.3734882E+01   5.3687706E+01   5.3667244E+01   5.3660675E+01   5.6301884E+01   5.5602932E+01   5.5084885E+01   5.4708557E+01   5.4416920E+01   5.4220840E+01   5.4093132E+01   5.4019295E+01   5.3977596E+01   5.6725155E+01   5.6035320E+01   5.5434555E+01   5.4949806E+01   5.4579792E+01   5.4277107E+01   5.4038502E+01   5.3869431E+01   5.3773121E+01   5.6867191E+01   5.6110008E+01   5.5368740E+01   5.4804623E+01   5.4352203E+01   5.3987728E+01   5.3668903E+01   5.3424259E+01   5.3274246E+01   5.6798565E+01   5.5960560E+01   5.5295364E+01   5.4656075E+01   5.4112900E+01   5.3619774E+01   5.3189327E+01   5.2849785E+01   5.2629604E+01   5.6711437E+01   5.5773830E+01   5.4968304E+01   5.4325665E+01   5.3652775E+01   5.3030209E+01   5.2469688E+01   5.2036213E+01   5.1753635E+01   5.6623638E+01   5.5479168E+01   5.4577969E+01   5.3690281E+01   5.2915359E+01   5.2204407E+01   5.1555820E+01   5.1033276E+01   5.0689083E+01   5.6473263E+01   5.5057739E+01   5.3950012E+01   5.2971687E+01   5.2046066E+01   5.1129261E+01   5.0438835E+01   4.9843914E+01   4.9452713E+01   5.6483944E+01   5.4612915E+01   5.3251816E+01   5.2093197E+01   5.1004417E+01   5.0026501E+01   4.9171310E+01   4.8523228E+01   4.8096004E+01   5.6846142E+01   5.4351677E+01   5.2602421E+01   5.1181263E+01   4.9913532E+01   4.8796646E+01   4.7868942E+01   4.7178101E+01   4.6677242E+01   5.7786667E+01   5.4402229E+01   5.2073170E+01   5.0371883E+01   4.8877594E+01   4.7595951E+01   4.6563099E+01   4.5785599E+01   4.5318722E+01   5.9514904E+01   5.5191929E+01   5.2121574E+01   4.9813122E+01   4.8042763E+01   4.6541775E+01   4.5358383E+01   4.4506706E+01   4.3970211E+01   6.2467918E+01   5.6861961E+01   5.2828327E+01   4.9817768E+01   4.7496559E+01   4.5791454E+01   4.4470222E+01   4.3459137E+01   4.2863247E+01   6.7745705E+01   6.0200111E+01   5.4452774E+01   5.0710033E+01   4.7772034E+01   4.5590485E+01   4.3974808E+01   4.2859035E+01   4.2235031E+01   7.4668129E+01   6.5614708E+01   5.8283543E+01   5.2553284E+01   4.8717793E+01   4.6120518E+01   4.4405727E+01   4.2892044E+01   4.1991383E+01   8.2105934E+01   7.2377716E+01   6.4057404E+01   5.6972931E+01   5.1308521E+01   4.7610630E+01   4.5620262E+01   4.4003464E+01   4.2975506E+01   7.9183640E+01   7.0636497E+01   6.2558044E+01   5.5994942E+01   5.0837822E+01   4.7308380E+01   4.5038715E+01   4.3082897E+01   6.8794945E+01   6.1947708E+01   5.5926567E+01   5.1422352E+01   4.7152790E+01   4.4102379E+01   6.1842098E+01   5.7355465E+01   5.3329456E+01   4.9896278E+01  -1.0840738E+00  -1.0849380E+00  -1.0873518E+00  -1.0908108E+00  -1.0943506E+00  -1.0966618E+00  -1.0957429E+00  -1.0891886E+00  -1.3987887E+00  -1.4001186E+00  -1.4038746E+00  -1.4094000E+00  -1.4154997E+00  -1.4204526E+00  -1.4217980E+00  -1.4161766E+00  -1.7788649E+00  -1.7807636E+00  -1.7861786E+00  -1.7942598E+00  -1.8035617E+00  -1.8117862E+00  -1.8160279E+00  -1.8120594E+00  -2.2018280E+00  -2.2043884E+00  -2.2117195E+00  -2.2228115E+00  -2.2358446E+00  -2.2481322E+00  -2.2560120E+00  -2.2544897E+00  -2.6699049E+00  -2.6732235E+00  -2.6827741E+00  -2.6973515E+00  -2.7148323E+00  -2.7320542E+00  -2.7446599E+00  -2.7467787E+00  -3.1903865E+00  -3.1945808E+00  -3.2067010E+00  -3.2253461E+00  -3.2481046E+00  -3.2713332E+00  -3.2900565E+00  -3.2974131E+00  -3.7695611E+00  -3.7747622E+00  -3.7898490E+00  -3.8132341E+00  -3.8421845E+00  -3.8726871E+00  -3.8990855E+00  -3.9136260E+00  -4.4124761E+00  -4.4188290E+00  -4.4372826E+00  -4.4661031E+00  -4.5022779E+00  -4.5413609E+00  -4.5770831E+00  -4.6009302E+00  -5.1242971E+00  -5.1319280E+00  -5.1541829E+00  -5.1891513E+00  -5.2335353E+00  -5.2825084E+00  -5.3291640E+00  -5.3641667E+00  -5.9106116E+00  -5.9196587E+00  -5.9461336E+00  -5.9879150E+00  -6.0414743E+00  -6.1014724E+00  -6.1604328E+00  -6.2081513E+00  -6.7779064E+00  -6.7884912E+00  -6.8195205E+00  -6.8687372E+00  -6.9322433E+00  -7.0041928E+00  -7.0765300E+00  -7.1380544E+00  -7.7343454E+00  -7.7466154E+00  -7.7824793E+00  -7.8395205E+00  -7.9135642E+00  -7.9981623E+00  -8.0844116E+00  -8.1603241E+00  -8.7897854E+00  -8.8036728E+00  -8.8444471E+00  -8.9096537E+00  -8.9944372E+00  -9.0918980E+00  -9.1923761E+00  -9.2826042E+00  -9.9545021E+00  -9.9702129E+00  -1.0015872E+01  -1.0088817E+01  -1.0184278E+01  -1.0294518E+01  -1.0408587E+01  -1.0512801E+01  -1.1240163E+01  -1.1257168E+01  -1.1307495E+01  -1.1387723E+01  -1.1492955E+01  -1.1614315E+01  -1.1741380E+01  -1.1859179E+01  -1.2657343E+01  -1.2675632E+01  -1.2728951E+01  -1.2815171E+01  -1.2928253E+01  -1.3060162E+01  -1.3198183E+01  -1.3329331E+01  -1.4218168E+01  -1.4236256E+01  -1.4292026E+01  -1.4382809E+01  -1.4501088E+01  -1.4639270E+01  -1.4784851E+01  -1.4925293E+01  -1.5932491E+01  -1.5951617E+01  -1.6008173E+01  -1.6099712E+01  -1.6220108E+01  -1.6359550E+01  -1.6507578E+01  -1.6651745E+01  -1.7812815E+01  -1.7832546E+01  -1.7888369E+01  -1.7977119E+01  -1.8093641E+01  -1.8229021E+01  -1.8372955E+01  -1.8515463E+01  -1.9870226E+01  -1.9888693E+01  -1.9941614E+01  -2.0023792E+01  -2.0129639E+01  -2.0253492E+01  -2.0385483E+01  -2.0514547E+01  -2.2112120E+01  -2.2128077E+01  -2.2175320E+01  -2.2245739E+01  -2.2335373E+01  -2.2439190E+01  -2.2550364E+01  -2.2653065E+01  -2.4542150E+01  -2.4554953E+01  -2.4593969E+01  -2.4647449E+01  -2.4715015E+01  -2.4789516E+01  -2.4867495E+01  -2.4932259E+01  -2.7160477E+01  -2.7171415E+01  -2.7198309E+01  -2.7230171E+01  -2.7268244E+01  -2.7304779E+01  -2.7338182E+01  -2.7352409E+01  -2.9966990E+01  -2.9970341E+01  -2.9981033E+01  -2.9988224E+01  -2.9991430E+01  -2.9979891E+01  -2.9960712E+01  -2.9911591E+01  -3.2938251E+01  -3.2936657E+01  -3.2930393E+01  -3.2910061E+01  -3.2873451E+01  -3.2819565E+01  -3.2731976E+01  -3.2606750E+01  -3.6061901E+01  -3.6055027E+01  -3.6030712E+01  -3.5983780E+01  -3.5915173E+01  -3.5803448E+01  -3.5643486E+01  -3.5434093E+01  -3.9311077E+01  -3.9299900E+01  -3.9263493E+01  -3.9196129E+01  -3.9086246E+01  -3.8920593E+01  -3.8688831E+01  -3.8379662E+01  -4.2649734E+01  -4.2636574E+01  -4.2593079E+01  -4.2507530E+01  -4.2363525E+01  -4.2143372E+01  -4.1835274E+01  -4.1433395E+01  -4.6019527E+01  -4.6007961E+01  -4.5967964E+01  -4.5868763E+01  -4.5697300E+01  -4.5428699E+01  -4.5041821E+01  -4.4531631E+01  -4.9312588E+01  -4.9300217E+01  -4.9251820E+01  -4.9158524E+01  -4.8966640E+01  -4.8656609E+01  -4.8197605E+01  -4.7568840E+01  -5.2337013E+01  -5.2313267E+01  -5.2259460E+01  -5.2169022E+01  -5.1974232E+01  -5.1621048E+01  -5.1088139E+01  -5.0343323E+01  -5.4959553E+01  -5.4933945E+01  -5.4853409E+01  -5.4737225E+01  -5.4465382E+01  -5.4062325E+01  -5.3476086E+01  -5.2652042E+01  -5.7016697E+01  -5.7022121E+01  -5.6895519E+01  -5.6762360E+01  -5.6451427E+01  -5.5959389E+01  -5.5302010E+01  -5.4396564E+01  -5.8682281E+01  -5.8675949E+01  -5.8524811E+01  -5.8298378E+01  -5.7950405E+01  -5.7348705E+01  -5.6638424E+01  -5.5685219E+01  -5.9866875E+01  -5.9797134E+01  -5.9520874E+01  -5.9081318E+01  -5.8567287E+01  -5.7904694E+01  -5.7185394E+01  -5.6189617E+01  -6.0588829E+01  -6.0351498E+01  -5.9877777E+01  -5.9281033E+01  -5.8431034E+01  -5.7359127E+01  -5.6280861E+01  -5.5025673E+01  -5.6467789E+01  -5.6464142E+01  -5.6422501E+01  -5.6290829E+01  -5.5989670E+01  -5.5258953E+01  -5.4044369E+01  -5.2211308E+01  -3.8806900E+01  -3.8788467E+01  -3.8712479E+01  -3.8522713E+01  -3.8141983E+01  -3.7495579E+01  -3.6535805E+01  -3.5261482E+01  -2.4940441E+01  -2.4899490E+01  -2.4763172E+01  -2.4494860E+01  -2.4047209E+01  -2.3380085E+01  -2.2476900E+01  -2.1355024E+01  -1.4006634E+01  -1.3957422E+01  -1.3803524E+01  -1.3529051E+01  -1.3116462E+01  -1.2558637E+01  -1.1867334E+01  -1.1076622E+01  -4.1966081E+00  -4.1522713E+00  -4.0192981E+00  -3.7988839E+00  -3.4976921E+00  -3.1322179E+00  -2.7324696E+00  -2.3392005E+00   5.8168006E+00   5.8472142E+00   5.9341679E+00   6.0649881E+00   6.2189684E+00   6.3680577E+00   6.4782648E+00   6.5167689E+00   1.6340092E+01   1.6353012E+01   1.6385216E+01   1.6418631E+01   1.6428148E+01   1.6385822E+01   1.6268011E+01   1.6061178E+01   2.6902687E+01   2.6899273E+01   2.6881796E+01   2.6831907E+01   2.6726316E+01   2.6546000E+01   2.6284817E+01   2.5956135E+01   3.6848103E+01   3.6832886E+01   3.6780518E+01   3.6674416E+01   3.6496227E+01   3.6238747E+01   3.5913921E+01   3.5560802E+01   4.5699516E+01   4.5678982E+01   4.5611313E+01   4.5482056E+01   4.5277840E+01   4.4998772E+01   4.4671173E+01   4.4352062E+01   5.1965427E+01   5.1940430E+01   5.1897778E+01   5.1834763E+01   5.1752689E+01   5.1662048E+01   5.1554749E+01   5.1531277E+01   5.3658787E+01   5.3660725E+01   5.3667240E+01   5.3687737E+01   5.3734886E+01   5.3824165E+01   5.4001209E+01   5.4301403E+01   5.3960533E+01   5.3977585E+01   5.4019245E+01   5.4093285E+01   5.4220989E+01   5.4416794E+01   5.4708576E+01   5.5084873E+01   5.3743595E+01   5.3773178E+01   5.3869518E+01   5.4038445E+01   5.4277039E+01   5.4579742E+01   5.4949772E+01   5.5434467E+01   5.3237671E+01   5.3274269E+01   5.3424309E+01   5.3668972E+01   5.3987679E+01   5.4352245E+01   5.4804661E+01   5.5368835E+01   5.2552746E+01   5.2629528E+01   5.2849773E+01   5.3189285E+01   5.3619736E+01   5.4112946E+01   5.4656174E+01   5.5295410E+01   5.1655060E+01   5.1753746E+01   5.2036186E+01   5.2469715E+01   5.3030285E+01   5.3652767E+01   5.4325680E+01   5.4968395E+01   5.0567772E+01   5.0689091E+01   5.1033218E+01   5.1555710E+01   5.2204407E+01   5.2915371E+01   5.3690365E+01   5.4578007E+01   4.9311054E+01   4.9452721E+01   4.9843971E+01   5.0438969E+01   5.1129257E+01   5.2046017E+01   5.2971638E+01   5.3950069E+01   4.7946899E+01   4.8096004E+01   4.8523262E+01   4.9171329E+01   5.0026569E+01   5.1004448E+01   5.2093143E+01   5.3251759E+01   4.6518017E+01   4.6677204E+01   4.7178078E+01   4.7868961E+01   4.8796654E+01   4.9913502E+01   5.1181229E+01   5.2602409E+01   4.5070992E+01   4.5318699E+01   4.5785561E+01   4.6563114E+01   4.7595928E+01   4.8877663E+01   5.0371857E+01   5.2073246E+01   4.3763294E+01   4.3970272E+01   4.4506660E+01   4.5358383E+01   4.6541733E+01   4.8042774E+01   4.9813137E+01   5.2121601E+01   4.2688053E+01   4.2863266E+01   4.3459164E+01   4.4470272E+01   4.5791515E+01   4.7496548E+01   4.9817741E+01   5.2828320E+01   4.1925274E+01   4.2235058E+01   4.2859066E+01   4.3974815E+01   4.5590473E+01   4.7772064E+01   5.0709999E+01   5.4452751E+01   4.1663544E+01   4.1991383E+01   4.2892097E+01   4.4405807E+01   4.6120529E+01   4.8717800E+01   5.2553310E+01   5.8283520E+01   4.2511566E+01   4.2975506E+01   4.4003433E+01   4.5619953E+01   4.7610603E+01   5.1308514E+01   5.6972939E+01   6.4057411E+01   4.2235123E+01   4.3082893E+01   4.5038685E+01   4.7308331E+01   5.0837780E+01   5.5994942E+01   6.2558014E+01   7.0636513E+01   4.3398109E+01   4.4102386E+01   4.7152737E+01   5.1422306E+01   5.5926487E+01   6.1947639E+01   6.8794914E+01   4.8243374E+01   4.9896248E+01   5.3329403E+01   5.7355404E+01   6.1842060E+01  -1.0739703E+00  -1.0466719E+00  -1.0052221E+00  -9.4711566E-01  -8.7109685E-01  -7.7523184E-01  -6.5923166E-01  -1.4000013E+00  -1.3682599E+00  -1.3175364E+00  -1.2453754E+00  -1.1490734E+00  -1.0229340E+00  -8.5988593E-01  -6.4734840E-01  -1.7948554E+00  -1.7585125E+00  -1.6982570E+00  -1.6106162E+00  -1.4933999E+00  -1.3380697E+00  -1.1359534E+00  -8.6751151E-01  -2.2370462E+00  -2.1967990E+00  -2.1273868E+00  -2.0252626E+00  -1.8883225E+00  -1.7074502E+00  -1.4685888E+00  -1.1374440E+00  -2.7306259E+00  -2.6878529E+00  -2.6109233E+00  -2.4960382E+00  -2.3407307E+00  -2.1362064E+00  -1.8591219E+00  -1.4577138E+00  -3.2846124E+00  -3.2413392E+00  -3.1593471E+00  -3.0339684E+00  -2.8631661E+00  -2.6365485E+00  -2.3205268E+00  -1.8405533E+00  -3.9063723E+00  -3.8652916E+00  -3.7812147E+00  -3.6487570E+00  -3.4675634E+00  -3.2208791E+00  -2.8678243E+00  -2.3019619E+00  -4.6015487E+00  -4.5654659E+00  -4.4825702E+00  -4.3464789E+00  -4.1597128E+00  -3.8983321E+00  -3.5159380E+00  -2.8634887E+00  -5.3749728E+00  -5.3468366E+00  -5.2681222E+00  -5.1339250E+00  -4.9456611E+00  -4.6780567E+00  -4.2792406E+00  -3.5609059E+00  -6.2309933E+00  -6.2133369E+00  -6.1431870E+00  -6.0164185E+00  -5.8292685E+00  -5.5719175E+00  -5.1795926E+00  -4.4633102E+00  -7.1742997E+00  -7.1689067E+00  -7.1111722E+00  -6.9967461E+00  -6.8287468E+00  -6.5987253E+00  -6.2576437E+00  -5.6377802E+00  -8.2107410E+00  -8.2184687E+00  -8.1762533E+00  -8.0848656E+00  -7.9503598E+00  -7.7715855E+00  -7.5230803E+00  -6.9580097E+00  -9.3469896E+00  -9.3689718E+00  -9.3437357E+00  -9.2852573E+00  -9.2082739E+00  -9.1108751E+00  -8.9865370E+00  -8.5321493E+00  -1.0591493E+01  -1.0628242E+01  -1.0623324E+01  -1.0608139E+01  -1.0620138E+01  -1.0676952E+01  -1.0747791E+01  -1.0581421E+01  -1.1951761E+01  -1.2002894E+01  -1.2021662E+01  -1.2052813E+01  -1.2174560E+01  -1.2425004E+01  -1.2782895E+01  -1.3022386E+01  -1.3433542E+01  -1.3498366E+01  -1.3539725E+01  -1.3623044E+01  -1.3846481E+01  -1.4292233E+01  -1.4959866E+01  -1.5638365E+01  -1.5040001E+01  -1.5117569E+01  -1.5176460E+01  -1.5303266E+01  -1.5618402E+01  -1.6241503E+01  -1.7203697E+01  -1.8298849E+01  -1.6772635E+01  -1.6857740E+01  -1.6930717E+01  -1.7092470E+01  -1.7490683E+01  -1.8280342E+01  -1.9504301E+01  -2.0962015E+01  -1.8634375E+01  -1.8718636E+01  -1.8798706E+01  -1.8992380E+01  -1.9478052E+01  -2.0431862E+01  -2.1917027E+01  -2.3698393E+01  -2.0620659E+01  -2.0695562E+01  -2.0775398E+01  -2.0997810E+01  -2.1577326E+01  -2.2713797E+01  -2.4482634E+01  -2.6608368E+01  -2.2733728E+01  -2.2785418E+01  -2.2856836E+01  -2.3104469E+01  -2.3782705E+01  -2.5125729E+01  -2.7213789E+01  -2.9726551E+01  -2.4973238E+01  -2.4986378E+01  -2.5038099E+01  -2.5306044E+01  -2.6090460E+01  -2.7662842E+01  -3.0110428E+01  -3.3065704E+01  -2.7338226E+01  -2.7297434E+01  -2.7314098E+01  -2.7595650E+01  -2.8491726E+01  -3.0320639E+01  -3.3170654E+01  -3.6628708E+01  -2.9827248E+01  -2.9715527E+01  -2.9677622E+01  -2.9966717E+01  -3.0978945E+01  -3.3090145E+01  -3.6393944E+01  -4.0422558E+01  -3.2438591E+01  -3.2238953E+01  -3.2129021E+01  -3.2415592E+01  -3.3548363E+01  -3.5967697E+01  -3.9787041E+01  -4.4470703E+01  -3.5163933E+01  -3.4864384E+01  -3.4667686E+01  -3.4939476E+01  -3.6201321E+01  -3.8956696E+01  -4.3373562E+01  -4.8824902E+01  -3.8005920E+01  -3.7584991E+01  -3.7290596E+01  -3.7534657E+01  -3.8946693E+01  -4.2083336E+01  -4.7187820E+01  -5.3564896E+01  -4.0936691E+01  -4.0376022E+01  -3.9954231E+01  -4.0176418E+01  -4.1764854E+01  -4.5316322E+01  -5.1238129E+01  -5.8807426E+01  -4.3898994E+01  -4.3188763E+01  -4.2627987E+01  -4.2820843E+01  -4.4492950E+01  -4.8596569E+01  -5.5469837E+01  -6.4524757E+01  -4.6786800E+01  -4.5915092E+01  -4.5198120E+01  -4.5302933E+01  -4.7144272E+01  -5.1761723E+01  -5.9687630E+01  -7.0465034E+01  -4.9411545E+01  -4.8391525E+01  -4.7569984E+01  -4.7615017E+01  -4.9467079E+01  -5.4451817E+01  -6.3619267E+01  -7.6195351E+01  -5.1616390E+01  -5.0469070E+01  -4.9564678E+01  -4.9580647E+01  -5.1655437E+01  -5.6934517E+01  -6.6808861E+01  -8.1144989E+01  -5.3265751E+01  -5.2025696E+01  -5.1076633E+01  -5.1142967E+01  -5.3357220E+01  -5.8974079E+01  -6.9198769E+01  -8.4710175E+01  -5.4494797E+01  -5.3133713E+01  -5.2123360E+01  -5.2103909E+01  -5.4263626E+01  -5.9901882E+01  -7.0054100E+01  -8.5869560E+01  -5.4953049E+01  -5.3614727E+01  -5.2496025E+01  -5.2414295E+01  -5.4302280E+01  -5.9811520E+01  -6.9171982E+01  -8.3577858E+01  -5.3751839E+01  -5.2338001E+01  -5.1124237E+01  -5.0918785E+01  -5.2868176E+01  -5.8300255E+01  -6.5307114E+01  -7.0314407E+01  -5.0190952E+01  -4.8369686E+01  -4.6793854E+01  -4.6274899E+01  -4.6520283E+01  -4.6339760E+01  -4.6039955E+01  -4.6116215E+01  -3.3732853E+01  -3.2085304E+01  -3.0512726E+01  -2.9180637E+01  -2.8179426E+01  -2.7561600E+01  -2.7356110E+01  -2.7552155E+01  -2.0075495E+01  -1.8748005E+01  -1.7518120E+01  -1.6523123E+01  -1.5860975E+01  -1.5590785E+01  -1.5708544E+01  -1.6127104E+01  -1.0244845E+01  -9.4531612E+00  -8.7896490E+00  -8.3383274E+00  -8.1679392E+00  -8.3130198E+00  -8.7399473E+00  -9.3349123E+00  -1.9993129E+00  -1.7605603E+00  -1.6571560E+00  -1.7143019E+00  -1.9537143E+00  -2.3754623E+00  -2.9328809E+00  -3.5329030E+00   6.4579334E+00   6.2903757E+00   6.0253229E+00   5.6826854E+00   5.2801061E+00   4.8395624E+00   4.3983989E+00   4.0036769E+00   1.5768638E+01   1.5414879E+01   1.5042995E+01   1.4698109E+01   1.4411860E+01   1.4202582E+01   1.4078957E+01   1.4042409E+01   2.5594015E+01   2.5253607E+01   2.4997314E+01   2.4872459E+01   2.4897520E+01   2.5064417E+01   2.5346832E+01   2.5718687E+01   3.5241817E+01   3.5036514E+01   3.5016148E+01   3.5215977E+01   3.5622543E+01   3.6189659E+01   3.6861214E+01   3.7602932E+01   4.4124249E+01   4.4084702E+01   4.4310574E+01   4.4821476E+01   4.5571678E+01   4.6478146E+01   4.7463028E+01   4.8491478E+01   5.1562744E+01   5.1798687E+01   5.2302898E+01   5.3078701E+01   5.4038433E+01   5.5210575E+01   5.5888935E+01   5.7646923E+01   5.4726158E+01   5.5270359E+01   5.6313816E+01   5.8394302E+01   6.0375572E+01   6.1508301E+01   6.1772572E+01   6.5237846E+01   5.5602936E+01   5.6301762E+01   5.7475254E+01   5.9807472E+01   6.3837017E+01   6.6346260E+01   6.6784554E+01   7.1334152E+01   5.6035259E+01   5.6725166E+01   5.7929939E+01   6.0343761E+01   6.4692711E+01   7.0087166E+01   7.1634888E+01   7.7395821E+01   5.6110046E+01   5.6867176E+01   5.8172428E+01   6.0648838E+01   6.5191444E+01   7.2064613E+01   7.6748558E+01   8.3504478E+01   5.5960571E+01   5.6798656E+01   5.8235470E+01   6.0779221E+01   6.5590782E+01   7.3560188E+01   8.2342430E+01   8.9870567E+01   5.5773800E+01   5.6711414E+01   5.8327011E+01   6.1114086E+01   6.6414818E+01   7.5369812E+01   8.8701050E+01   1.0061397E+02   5.5479141E+01   5.6623638E+01   5.8427811E+01   6.1753296E+01   6.7779030E+01   7.7744469E+01   9.3506737E+01   1.1126553E+02   5.5057705E+01   5.6473244E+01   5.8823402E+01   6.2959282E+01   6.9681511E+01   8.0820442E+01   9.7978424E+01   1.1706235E+02   5.4612953E+01   5.6483849E+01   5.9550613E+01   6.4628120E+01   7.2158920E+01   8.4844620E+01   1.0313154E+02   5.4351738E+01   5.6846104E+01   6.0806198E+01   6.6850311E+01   7.5520729E+01   9.0075508E+01   1.0874505E+02   5.4402271E+01   5.7786690E+01   6.2774639E+01   6.9780533E+01   8.0433838E+01   9.6651848E+01   5.5191895E+01   5.9514885E+01   6.5627274E+01   7.4315117E+01   8.7438293E+01   1.0355878E+02   5.6861954E+01   6.2467964E+01   7.0358032E+01   8.1111229E+01   9.5271423E+01   6.0200134E+01   6.7745712E+01   7.7556992E+01   8.9120064E+01   6.5614700E+01   7.4668167E+01   8.5516487E+01   9.5827866E+01   7.2377693E+01   8.2105957E+01   7.9183632E+01 
Acec.y 1 2975 float
  0.0000000E+00   0.0000000E+00   0.0000000E+00   0.0000000E+00   0.0000000E+00   0.0000000E+00   0.0000000E+00   0.0000000E+00   0.0000000E+00   0.0000000E+00   0.0000000E+00   0.0000000E+00   0.0000000E+00   0.0000000E+00   0.0000000E+00   0.0000000E+00   0.0000000E+00   0.0000000E+00   0.0000000E+00   0.0000000E+00   0.0000000E+00   0.0000000E+00   0.0000000E+00   0.0000000E+00   0.0000000E+00   0.0000000E+00   0.0000000E+00   0.0000000E+00   0.0000000E+00   0.0000000E+00   0.0000000E+00   0.0000000E+00   0.0000000E+00   0.0000000E+00   0.0000000E+00   0.0000000E+00   0.0000000E+00   0.0000000E+00   0.0000000E+00   0.0000000E+00   0.0000000E+00   0.0000000E+00   0.0000000E+00   0.0000000E+00   0.0000000E+00   0.0000000E+00   0.0000000E+00   0.0000000E+00   0.0000000E+00   0.0000000E+00   0.0000000E+00   0.0000000E+00   0.0000000E+00   0.0000000E+00   0.0000000E+00   0.0000000E+00   0.0000000E+00   0.0000000E+00   0.0000000E+00   0.0000000E+00   0.0000000E+00   0.0000000E+00   0.0000000E+00   0.0000000E+00   0.0000000E+00   0.0000000E+00   0.0000000E+00   0.0000000E+00   0.0000000E+00   0.0000000E+00   0.0000000E+00   0.0000000E+00   0.0000000E+00   0.0000000E+00   0.0000000E+00   0.0000000E+00   0.0000000E+00   0.0000000E+00   0.0000000E+00   0.0000000E+00   0.0000000E+00   0.0000000E+00   0.0000000E+00   0.0000000E+00   0.0000000E+00   0.0000000E+00   0.0000000E+00   0.0000000E+00   0.0000000E+00   0.0000000E+00   0.0000000E+00   0.0000000E+00   0.0000000E+00   0.0000000E+00   0.0000000E+00   0.0000000E+00   0.0000000E+00   0.0000000E+00   0.0000000E+00   0.0000000E+00   0.0000000E+00   0.0000000E+00   0.0000000E+00   0.0000000E+00   0.0000000E+00   0.0000000E+00   0.0000000E+00   0.0000000E+00   0.0000000E+00   0.0000000E+00   0.0000000E+00   0.0000000E+00   0.0000000E+00   0.0000000E+00   0.0000000E+00   0.0000000E+00   0.0000000E+00   0.0000000E+00   0.0000000E+00   0.0000000E+00   0.0000000E+00   0.0000000E+00   0.0000000E+00   0.0000000E+00   0.0000000E+00   0.0000000E+00   0.0000000E+00   0.0000000E+00   0.0000000E+00   0.0000000E+00   0.0000000E+00   0.0000000E+00   0.0000000E+00   0.0000000E+00   0.0000000E+00   0.0000000E+00   0.0000000E+00   0.0000000E+00   0.0000000E+00   0.0000000E+00   0.0000000E+00   0.0000000E+00   0.0000000E+00   0.0000000E+00   0.0000000E+00   0.0000000E+00   0.0000000E+00   0.0000000E+00   0.0000000E+00   0.0000000E+00   0.0000000E+00   0.0000000E+00   0.0000000E+00   0.0000000E+00   0.0000000E+00   0.0000000E+00   0.0000000E+00   0.0000000E+00   0.0000000E+00   0.0000000E+00   0.0000000E+00   0.0000000E+00   0.0000000E+00   0.0000000E+00   0.0000000E+00   0.0000000E+00   0.0000000E+00   0.0000000E+00   0.0000000E+00   0.0000000E+00   0.0000000E+00   0.0000000E+00   0.0000000E+00   0.0000000E+00   0.0000000E+00   0.0000000E+00   0.0000000E+00   0.0000000E+00   0.0000000E+00   0.0000000E+00   0.0000000E+00   0.0000000E+00   0.0000000E+00   0.0000000E+00   0.0000000E+00   0.0000000E+00   0.0000000E+00   0.0000000E+00   0.0000000E+00   0.0000000E+00   0.0000000E+00   0.0000000E+00   0.0000000E+00   0.0000000E+00   0.0000000E+00   0.0000000E+00   0.0000000E+00   0.0000000E+00   0.0000000E+00   0.0000000E+00   0.0000000E+00   0.0000000E+00   0.0000000E+00   0.0000000E+00   0.0000000E+00   0.0000000E+00   0.0000000E+00   0.0000000E+00   0.0000000E+00   0.0000000E+00   0.0000000E+00   0.0000000E+00   0.0000000E+00   0.0000000E+00   0.0000000E+00   0.0000000E+00   0.0000000E+00   0.0000000E+00   0.0000000E+00   0.0000000E+00   0.0000000E+00   0.0000000E+00   0.0000000E+00   0.0000000E+00   0.0000000E+00   0.0000000E+00   0.0000000E+00   0.0000000E+00   0.0000000E+00   0.0000000E+00   0.0000000E+00   0.0000000E+00   0.0000000E+00   0.0000000E+00   0.0000000E+00   0.0000000E+00   0.0000000E+00   0.0000000E+00   0.0000000E+00   0.0000000E+00   0.0000000E+00   0.0000000E+00   0.0000000E+00   0.0000000E+00   0.0000000E+00   0.0000000E+00   0.0000000E+00   0.0000000E+00   0.0000000E+00   0.0000000E+00   0.0000000E+00   0.0000000E+00   0.0000000E+00   0.0000000E+00   0.0000000E+00   0.0000000E+00   0.0000000E+00   0.0000000E+00   0.0000000E+00   0.0000000E+00   0.0000000E+00   0.0000000E+00   0.0000000E+00   0.0000000E+00   0.0000000E+00   0.0000000E+00   0.0000000E+00   0.0000000E+00   0.0000000E+00   0.0000000E+00   0.0000000E+00   0.0000000E+00   0.0000000E+00   0.0000000E+00   0.0000000E+00   0.0000000E+00   0.0000000E+00   0.0000000E+00   0.0000000E+00   0.0000000E+00   0.0000000E+00   0.0000000E+00   0.0000000E+00   0.0000000E+00   0.0000000E+00   0.0000000E+00   0.0000000E+00   0.0000000E+00   0.0000000E+00   0.0000000E+00   0.0000000E+00   0.0000000E+00   0.0000000E+00   0.0000000E+00   0.0000000E+00   0.0000000E+00   0.0000000E+00   0.0000000E+00   0.0000000E+00   0.0000000E+00   0.0000000E+00   0.0000000E+00   0.0000000E+00   0.0000000E+00   0.0000000E+00   0.0000000E+00   0.0000000E+00   0.0000000E+00   0.0000000E+00   0.0000000E+00   0.0000000E+00   0.0000000E+00   0.0000000E+00   0.0000000E+00   0.0000000E+00   0.0000000E+00   0.0000000E+00   0.0000000E+00   0.0000000E+00   0.0000000E+00   0.0000000E+00   0.0000000E+00   0.0000000E+00   0.0000000E+00   0.0000000E+00   0.0000000E+00   0.0000000E+00   0.0000000E+00   0.0000000E+00   0.0000000E+00   0.0000000E+00   0.0000000E+00   0.0000000E+00   0.0000000E+00   0.0000000E+00   0.0000000E+00   0.0000000E+00   0.0000000E+00   0.0000000E+00   0.0000000E+00   0.0000000E+00   0.0000000E+00   0.0000000E+00   0.0000000E+00   0.0000000E+00   0.0000000E+00   0.0000000E+00   0.0000000E+00   0.0000000E+00   0.0000000E+00   0.0000000E+00   0.0000000E+00   0.0000000E+00   0.0000000E+00   0.0000000E+00   0.0000000E+00   0.0000000E+00   0.0000000E+00   0.0000000E+00   0.0000000E+00   0.0000000E+00   0.0000000E+00   0.0000000E+00   0.0000000E+00   0.0000000E+00   0.0000000E+00   0.0000000E+00   0.0000000E+00   0.0000000E+00   0.0000000E+00   0.0000000E+00   0.0000000E+00   0.0000000E+00   0.0000000E+00   0.0000000E+00   0.0000000E+00   0.0000000E+00   0.0000000E+00   0.0000000E+00   0.0000000E+00   0.0000000E+00   0.0000000E+00   0.0000000E+00   0.0000000E+00   0.0000000E+00   0.0000000E+00   0.0000000E+00   0.0000000E+00   0.0000000E+00   0.0000000E+00   0.0000000E+00   0.0000000E+00   0.0000000E+00   0.0000000E+00   0.0000000E+00   0.0000000E+00   0.0000000E+00   0.0000000E+00   0.0000000E+00   0.0000000E+00   0.0000000E+00   0.0000000E+00   0.0000000E+00   0.0000000E+00   0.0000000E+00   0.0000000E+00   0.0000000E+00   0.0000000E+00   0.0000000E+00   0.0000000E+00   0.0000000E+00   0.0000000E+00   0.0000000E+00   0.0000000E+00   0.0000000E+00   0.0000000E+00   0.0000000E+00   0.0000000E+00   0.0000000E+00   0.0000000E+00   0.0000000E+00   0.0000000E+00   0.0000000E+00   0.0000000E+00   0.0000000E+00   0.0000000E+00   0.0000000E+00   0.0000000E+00   0.0000000E+00   0.0000000E+00   0.0000000E+00   0.0000000E+00   0.0000000E+00   0.0000000E+00   0.0000000E+00   0.0000000E+00   0.0000000E+00   0.0000000E+00   0.0000000E+00   0.0000000E+00   0.0000000E+00   0.0000000E+00   0.0000000E+00   0.0000000E+00   0.0000000E+00   0.0000000E+00   0.0000000E+00   0.0000000E+00   0.0000000E+00   0.0000000E+00   0.0000000E+00   0.0000000E+00   0.0000000E+00   0.0000000E+00   0.0000000E+00   0.0000000E+00   0.0000000E+00   0.0000000E+00   0.0000000E+00   0.0000000E+00   0.0000000E+00   0.0000000E+00   0.0000000E+00   0.0000000E+00   0.0000000E+00   0.0000000E+00   0.0000000E+00   0.0000000E+00   0.0000000E+00   0.0000000E+00   0.0000000E+00   0.0000000E+00   0.0000000E+00   0.0000000E+00   0.0000000E+00   0.0000000E+00   0.0000000E+00   0.0000000E+00   0.0000000E+00   0.0000000E+00   0.0000000E+00   0.0000000E+00   0.0000000E+00   0.0000000E+00   0.0000000E+00   0.0000000E+00   0.0000000E+00   0.0000000E+00   0.0000000E+00   0.0000000E+00   0.0000000E+00   0.0000000E+00   0.0000000E+00   0.0000000E+00   0.0000000E+00   0.0000000E+00   0.0000000E+00   0.0000000E+00   0.0000000E+00   0.0000000E+00   0.0000000E+00   0.0000000E+00   0.0000000E+00   0.0000000E+00   0.0000000E+00   0.0000000E+00   0.0000000E+00   0.0000000E+00   0.0000000E+00   0.0000000E+00   0.0000000E+00   0.0000000E+00   0.0000000E+00   0.0000000E+00   0.0000000E+00   0.0000000E+00   0.0000000E+00   0.0000000E+00   0.0000000E+00   0.0000000E+00   0.0000000E+00   0.0000000E+00   0.0000000E+00   0.0000000E+00   0.0000000E+00   0.0000000E+00   0.0000000E+00   0.0000000E+00   0.0000000E+00   0.0000000E+00   0.0000000E+00   0.0000000E+00   0.0000000E+00   0.0000000E+00   0.0000000E+00   0.0000000E+00   0.0000000E+00   0.0000000E+00   0.0000000E+00   0.0000000E+00   0.0000000E+00   0.0000000E+00   0.0000000E+00   0.0000000E+00   0.0000000E+00   0.0000000E+00   0.0000000E+00   0.0000000E+00   0.0000000E+00   0.0000000E+00   0.0000000E+00   0.0000000E+00   0.0000000E+00   0.0000000E+00   0.0000000E+00   0.0000000E+00   0.0000000E+00   0.0000000E+00   0.0000000E+00   0.0000000E+00   0.0000000E+00   0.0000000E+00   0.0000000E+00   0.0000000E+00   0.0000000E+00   0.0000000E+00   0.0000000E+00   0.0000000E+00   0.0000000E+00   0.0000000E+00   0.0000000E+00   0.0000000E+00   0.0000000E+00   0.0000000E+00   0.0000000E+00   0.0000000E+00   0.0000000E+00   0.0000000E+00   0.0000000E+00   0.0000000E+00   0.0000000E+00   0.0000000E+00   0.0000000E+00   0.0000000E+00   0.0000000E+00   0.0000000E+00   0.0000000E+00   0.0000000E+00   0.0000000E+00   0.0000000E+00   0.0000000E+00   0.0000000E+00   0.0000000E+00   0.0000000E+00   0.0000000E+00   0.0000000E+00   0.0000000E+00   0.0000000E+00   0.0000000E+00   0.0000000E+00   0.0000000E+00   0.0000000E+00   0.0000000E+00   0.0000000E+00   0.0000000E+00   0.0000000E+00   0.0000000E+00   0.0000000E+00   0.0000000E+00   0.0000000E+00   0.0000000E+00   0.0000000E+00   0.0000000E+00   0.0000000E+00   0.0000000E+00   0.0000000E+00   0.0000000E+00   0.0000000E+00   0.0000000E+00   0.0000000E+00   0.0000000E+00   0.0000000E+00   0.0000000E+00   0.0000000E+00   0.0000000E+00   0.0000000E+00   0.0000000E+00   0.0000000E+00   0.0000000E+00   0.0000000E+00   0.0000000E+00   0.0000000E+00   0.0000000E+00   0.0000000E+00   0.0000000E+00   0.0000000E+00   0.0000000E+00   0.0000000E+00   0.0000000E+00   0.0000000E+00   0.0000000E+00   0.0000000E+00   0.0000000E+00   0.0000000E+00   0.0000000E+00   0.0000000E+00   0.0000000E+00   0.0000000E+00   0.0000000E+00   0.0000000E+00   0.0000000E+00   0.0000000E+00   0.0000000E+00   0.0000000E+00   0.0000000E+00   0.0000000E+00   0.0000000E+00   0.0000000E+00   0.0000000E+00   0.0000000E+00   0.0000000E+00   0.0000000E+00   0.0000000E+00   0.0000000E+00   0.0000000E+00   0.0000000E+00   0.0000000E+00   0.0000000E+00   0.0000000E+00   0.0000000E+00   0.0000000E+00   0.0000000E+00   0.0000000E+00   0.0000000E+00   0.0000000E+00   0.0000000E+00   0.0000000E+00   0.0000000E+00   0.0000000E+00   0.0000000E+00   0.0000000E+00   0.0000000E+00   0.0000000E+00   0.0000000E+00   0.0000000E+00   0.0000000E+00   0.0000000E+00   0.0000000E+00   0.0000000E+00   0.0000000E+00   0.0000000E+00   0.0000000E+00   0.0000000E+00   0.0000000E+00   0.0000000E+00   0.0000000E+00   0.0000000E+00   0.0000000E+00   0.0000000E+00   0.0000000E+00   0.0000000E+00   0.0000000E+00   0.0000000E+00   0.0000000E+00   0.0000000E+00   0.0000000E+00   0.0000000E+00   0.0000000E+00   0.0000000E+00   0.0000000E+00   0.0000000E+00   0.0000000E+00   0.0000000E+00   0.0000000E+00   0.0000000E+00   0.0000000E+00   0.0000000E+00   0.0000000E+00   0.0000000E+00   0.0000000E+00   0.0000000E+00   0.0000000E+00   0.0000000E+00   0.0000000E+00   0.0000000E+00   0.0000000E+00   0.0000000E+00   0.0000000E+00   0.0000000E+00   0.0000000E+00   0.0000000E+00   0.0000000E+00   0.0000000E+00   0.0000000E+00   0.0000000E+00   0.0000000E+00   0.0000000E+00   0.0000000E+00   0.0000000E+00   0.0000000E+00   0.0000000E+00   0.0000000E+00   0.0000000E+00   0.0000000E+00   0.0000000E+00   0.0000000E+00   0.0000000E+00   0.0000000E+00   0.0000000E+00   0.0000000E+00   0.0000000E+00   0.0000000E+00   0.0000000E+00   0.0000000E+00   0.0000000E+00   0.0000000E+00   0.0000000E+00   0.0000000E+00   0.0000000E+00   0.0000000E+00   0.0000000E+00   0.0000000E+00   0.0000000E+00   0.0000000E+00   0.0000000E+00   0.0000000E+00   0.0000000E+00   0.0000000E+00   0.0000000E+00   0.0000000E+00   0.0000000E+00   0.0000000E+00   0.0000000E+00   0.0000000E+00   0.0000000E+00   0.0000000E+00   0.0000000E+00   0.0000000E+00   0.0000000E+00   0.0000000E+00   0.0000000E+00   0.0000000E+00   0.0000000E+00   0.0000000E+00   0.0000000E+00   0.0000000E+00   0.0000000E+00   0.0000000E+00   0.0000000E+00   0.0000000E+00   0.0000000E+00   0.0000000E+00   0.0000000E+00   0.0000000E+00   0.0000000E+00   0.0000000E+00   0.0000000E+00   0.0000000E+00   0.0000000E+00   0.0000000E+00   0.0000000E+00   0.0000000E+00   0.0000000E+00   0.0000000E+00   0.0000000E+00   0.0000000E+00   0.0000000E+00   0.0000000E+00   0.0000000E+00   0.0000000E+00   0.0000000E+00   0.0000000E+00   0.0000000E+00   0.0000000E+00   0.0000000E+00   0.0000000E+00   0.0000000E+00   0.0000000E+00   0.0000000E+00   0.0000000E+00   0.0000000E+00   0.0000000E+00   0.0000000E+00   0.0000000E+00   0.0000000E+00   0.0000000E+00   0.0000000E+00   0.0000000E+00   0.0000000E+00   0.0000000E+00   0.0000000E+00   0.0000000E+00   0.0000000E+00   0.0000000E+00   0.0000000E+00   0.0000000E+00   0.0000000E+00   0.0000000E+00   0.0000000E+00   0.0000000E+00   0.0000000E+00   0.0000000E+00   0.0000000E+00   0.0000000E+00   0.0000000E+00   0.0000000E+00   0.0000000E+00   0.0000000E+00   0.0000000E+00   0.0000000E+00   0.0000000E+00   0.0000000E+00   0.0000000E+00   0.0000000E+00   0.0000000E+00   0.0000000E+00   0.0000000E+00   0.0000000E+00   0.0000000E+00   0.0000000E+00   0.0000000E+00   0.0000000E+00   0.0000000E+00   0.0000000E+00   0.0000000E+00   0.0000000E+00   0.0000000E+00   0.0000000E+00   0.0000000E+00   0.0000000E+00   0.0000000E+00   0.0000000E+00   0.0000000E+00   0.0000000E+00   0.0000000E+00   0.0000000E+00   0.0000000E+00   0.0000000E+00   0.0000000E+00   0.0000000E+00   0.0000000E+00   0.0000000E+00   0.0000000E+00   0.0000000E+00   0.0000000E+00   0.0000000E+00   0.0000000E+00   0.0000000E+00   0.0000000E+00   0.0000000E+00   0.0000000E+00   0.0000000E+00   0.0000000E+00   0.0000000E+00   0.0000000E+00   0.0000000E+00   0.0000000E+00   0.0000000E+00   0.0000000E+00   0.0000000E+00   0.0000000E+00   0.0000000E+00   0.0000000E+00   0.0000000E+00   0.0000000E+00   0.0000000E+00   0.0000000E+00   0.0000000E+00   0.0000000E+00   0.0000000E+00   0.0000000E+00   0.0000000E+00   0.0000000E+00   0.0000000E+00   0.0000000E+00   0.0000000E+00   0.0000000E+00   0.0000000E+00   0.0000000E+00   0.0000000E+00   0.0000000E+00   0.0000000E+00   0.0000000E+00   0.0000000E+00   0.0000000E+00   0.0000000E+00   0.0000000E+00   0.0000000E+00   0.0000000E+00   0.0000000E+00   0.0000000E+00   0.0000000E+00   0.0000000E+00   0.0000000E+00   0.0000000E+00   0.0000000E+00   0.0000000E+00   0.0000000E+00   0.0000000E+00   0.0000000E+00   0.0000000E+00   0.0000000E+00   0.0000000E+00   0.0000000E+00   0.0000000E+00   0.0000000E+00   0.0000000E+00   0.0000000E+00   0.0000000E+00   0.0000000E+00   0.0000000E+00   0.0000000E+00   0.0000000E+00   0.0000000E+00   0.0000000E+00   0.0000000E+00   0.0000000E+00   0.0000000E+00   0.0000000E+00   0.0000000E+00   0.0000000E+00   0.0000000E+00   0.0000000E+00   0.0000000E+00   0.0000000E+00   0.0000000E+00   0.0000000E+00   0.0000000E+00   0.0000000E+00   0.0000000E+00   0.0000000E+00   0.0000000E+00   0.0000000E+00   0.0000000E+00   0.0000000E+00   0.0000000E+00   0.0000000E+00   0.0000000E+00   0.0000000E+00   0.0000000E+00   0.0000000E+00   0.0000000E+00   0.0000000E+00   0.0000000E+00   0.0000000E+00   0.0000000E+00   0.0000000E+00   0.0000000E+00   0.0000000E+00   0.0000000E+00   0.0000000E+00   0.0000000E+00   0.0000000E+00   0.0000000E+00   0.0000000E+00   0.0000000E+00   0.0000000E+00   0.0000000E+00   0.0000000E+00   0.0000000E+00   0.0000000E+00   0.0000000E+00   0.0000000E+00   0.0000000E+00   0.0000000E+00   0.0000000E+00   0.0000000E+00   0.0000000E+00   0.0000000E+00   0.0000000E+00   0.0000000E+00   0.0000000E+00   0.0000000E+00   0.0000000E+00   0.0000000E+00   0.0000000E+00   0.0000000E+00   0.0000000E+00   0.0000000E+00   0.0000000E+00   0.0000000E+00   0.0000000E+00   0.0000000E+00   0.0000000E+00   0.0000000E+00   0.0000000E+00   0.0000000E+00   0.0000000E+00   0.0000000E+00   0.0000000E+00   0.0000000E+00   0.0000000E+00   0.0000000E+00   0.0000000E+00   0.0000000E+00   0.0000000E+00   0.0000000E+00   0.0000000E+00   0.0000000E+00   0.0000000E+00   0.0000000E+00   0.0000000E+00   0.0000000E+00   0.0000000E+00   0.0000000E+00   0.0000000E+00   0.0000000E+00   0.0000000E+00   0.0000000E+00   0.0000000E+00   0.0000000E+00   0.0000000E+00   0.0000000E+00   0.0000000E+00   0.0000000E+00   0.0000000E+00   0.0000000E+00   0.0000000E+00   0.0000000E+00   0.0000000E+00   0.0000000E+00   0.0000000E+00   0.0000000E+00   0.0000000E+00   0.0000000E+00   0.0000000E+00   0.0000000E+00   0.0000000E+00   0.0000000E+00   0.0000000E+00   0.0000000E+00   0.0000000E+00   0.0000000E+00   0.0000000E+00   0.0000000E+00   0.0000000E+00   0.0000000E+00   0.0000000E+00   0.0000000E+00   0.0000000E+00   0.0000000E+00   0.0000000E+00   0.0000000E+00   0.0000000E+00   0.0000000E+00   0.0000000E+00   0.0000000E+00   0.0000000E+00   0.0000000E+00   0.0000000E+00   0.0000000E+00   0.0000000E+00   0.0000000E+00   0.0000000E+00   0.0000000E+00   0.0000000E+00   0.0000000E+00   0.0000000E+00   0.0000000E+00   0.0000000E+00   0.0000000E+00   0.0000000E+00   0.0000000E+00   0.0000000E+00   0.0000000E+00   0.0000000E+00   0.0000000E+00   0.0000000E+00   0.0000000E+00   0.0000000E+00   0.0000000E+00   0.0000000E+00   0.0000000E+00   0.0000000E+00   0.0000000E+00   0.0000000E+00   0.0000000E+00   0.0000000E+00   0.0000000E+00   0.0000000E+00   0.0000000E+00   0.0000000E+00   0.0000000E+00   0.0000000E+00   0.0000000E+00   0.0000000E+00   0.0000000E+00   0.0000000E+00   0.0000000E+00   0.0000000E+00   0.0000000E+00   0.0000000E+00   0.0000000E+00   0.0000000E+00   0.0000000E+00   0.0000000E+00   0.0000000E+00   0.0000000E+00   0.0000000E+00   0.0000000E+00   0.0000000E+00   0.0000000E+00   0.0000000E+00   0.0000000E+00   0.0000000E+00   0.0000000E+00   0.0000000E+00   0.0000000E+00   0.0000000E+00   0.0000000E+00   0.0000000E+00   0.0000000E+00   0.0000000E+00   0.0000000E+00   0.0000000E+00   0.0000000E+00   0.0000000E+00   0.0000000E+00   0.0000000E+00   0.0000000E+00   0.0000000E+00   0.0000000E+00   0.0000000E+00   0.0000000E+00   0.0000000E+00   0.0000000E+00   0.0000000E+00   0.0000000E+00   0.0000000E+00   0.0000000E+00   0.0000000E+00   0.0000000E+00   0.0000000E+00   0.0000000E+00   0.0000000E+00   0.0000000E+00   0.0000000E+00   0.0000000E+00   0.0000000E+00   0.0000000E+00   0.0000000E+00   0.0000000E+00   0.0000000E+00   0.0000000E+00   0.0000000E+00   0.0000000E+00   0.0000000E+00   0.0000000E+00   0.0000000E+00   0.0000000E+00   0.0000000E+00   0.0000000E+00   0.0000000E+00   0.0000000E+00   0.0000000E+00   0.0000000E+00   0.0000000E+00   0.0000000E+00   0.0000000E+00   0.0000000E+00   0.0000000E+00   0.0000000E+00   0.0000000E+00   0.0000000E+00   0.0000000E+00   0.0000000E+00   0.0000000E+00   0.0000000E+00   0.0000000E+00   0.0000000E+00   0.0000000E+00   0.0000000E+00   0.0000000E+00   0.0000000E+00   0.0000000E+00   0.0000000E+00   0.0000000E+00   0.0000000E+00   0.0000000E+00   0.0000000E+00   0.0000000E+00   0.0000000E+00   0.0000000E+00   0.0000000E+00   0.0000000E+00   0.0000000E+00   0.0000000E+00   0.0000000E+00   0.0000000E+00   0.0000000E+00   0.0000000E+00   0.0000000E+00   0.0000000E+00   0.0000000E+00   0.0000000E+00   0.0000000E+00   0.0000000E+00   0.0000000E+00   0.0000000E+00   0.0000000E+00   0.0000000E+00   0.0000000E+00   0.0000000E+00   0.0000000E+00   0.0000000E+00   0.0000000E+00   0.0000000E+00   0.0000000E+00   0.0000000E+00   0.0000000E+00   0.0000000E+00   0.0000000E+00   0.0000000E+00   0.0000000E+00   0.0000000E+00   0.0000000E+00   0.0000000E+00   0.0000000E+00   0.0000000E+00   0.0000000E+00   0.0000000E+00   0.0000000E+00   0.0000000E+00   0.0000000E+00   0.0000000E+00   0.0000000E+00   0.0000000E+00   0.0000000E+00   0.0000000E+00   0.0000000E+00   0.0000000E+00   0.0000000E+00   0.0000000E+00   0.0000000E+00   0.0000000E+00   0.0000000E+00   0.0000000E+00   0.0000000E+00   0.0000000E+00   0.0000000E+00   0.0000000E+00   0.0000000E+00   0.0000000E+00   0.0000000E+00   0.0000000E+00   0.0000000E+00   0.0000000E+00   0.0000000E+00   0.0000000E+00   0.0000000E+00   0.0000000E+00   0.0000000E+00   0.0000000E+00   0.0000000E+00   0.0000000E+00   0.0000000E+00   0.0000000E+00   0.0000000E+00   0.0000000E+00   0.0000000E+00   0.0000000E+00   0.0000000E+00   0.0000000E+00   0.0000000E+00   0.0000000E+00   0.0000000E+00   0.0000000E+00   0.0000000E+00   0.0000000E+00   0.0000000E+00   0.0000000E+00   0.0000000E+00   0.0000000E+00   0.0000000E+00   0.0000000E+00   0.0000000E+00   0.0000000E+00   0.0000000E+00   0.0000000E+00   0.0000000E+00   0.0000000E+00   0.0000000E+00   0.0000000E+00   0.0000000E+00   0.0000000E+00   0.0000000E+00   0.0000000E+00   0.0000000E+00   0.0000000E+00   0.0000000E+00   0.0000000E+00   0.0000000E+00   0.0000000E+00   0.0000000E+00   0.0000000E+00   0.0000000E+00   0.0000000E+00   0.0000000E+00   0.0000000E+00   0.0000000E+00   0.0000000E+00   0.0000000E+00   0.0000000E+00   0.0000000E+00   0.0000000E+00   0.0000000E+00   0.0000000E+00   0.0000000E+00   0.0000000E+00   0.0000000E+00   0.0000000E+00   0.0000000E+00   0.0000000E+00   0.0000000E+00   0.0000000E+00   0.0000000E+00   0.0000000E+00   0.0000000E+00   0.0000000E+00   0.0000000E+00   0.0000000E+00   0.0000000E+00   0.0000000E+00   0.0000000E+00   0.0000000E+00   0.0000000E+00   0.0000000E+00   0.0000000E+00   0.0000000E+00   0.0000000E+00   0.0000000E+00   0.0000000E+00   0.0000000E+00   0.0000000E+00   0.0000000E+00   0.0000000E+00   0.0000000E+00   0.0000000E+00   0.0000000E+00   0.0000000E+00   0.0000000E+00   0.0000000E+00   0.0000000E+00   0.0000000E+00   0.0000000E+00   0.0000000E+00   0.0000000E+00   0.0000000E+00   0.0000000E+00   0.0000000E+00   0.0000000E+00   0.0000000E+00   0.0000000E+00   0.0000000E+00   0.0000000E+00   0.0000000E+00   0.0000000E+00   0.0000000E+00   0.0000000E+00   0.0000000E+00   0.0000000E+00   0.0000000E+00   0.0000000E+00   0.0000000E+00   0.0000000E+00   0.0000000E+00   0.0000000E+00   0.0000000E+00   0.0000000E+00   0.0000000E+00   0.0000000E+00   0.0000000E+00   0.0000000E+00   0.0000000E+00   0.0000000E+00   0.0000000E+00   0.0000000E+00   0.0000000E+00   0.0000000E+00   0.0000000E+00   0.0000000E+00   0.0000000E+00   0.0000000E+00   0.0000000E+00   0.0000000E+00   0.0000000E+00   0.0000000E+00   0.0000000E+00   0.0000000E+00   0.0000000E+00   0.0000000E+00   0.0000000E+00   0.0000000E+00   0.0000000E+00   0.0000000E+00   0.0000000E+00   0.0000000E+00   0.0000000E+00   0.0000000E+00   0.0000000E+00   0.0000000E+00   0.0000000E+00   0.0000000E+00   0.0000000E+00   0.0000000E+00   0.0000000E+00   0.0000000E+00   0.0000000E+00   0.0000000E+00   0.0000000E+00   0.0000000E+00   0.0000000E+00   0.0000000E+00   0.0000000E+00   0.0000000E+00   0.0000000E+00   0.0000000E+00   0.0000000E+00   0.0000000E+00   0.0000000E+00   0.0000000E+00   0.0000000E+00   0.0000000E+00   0.0000000E+00   0.0000000E+00   0.0000000E+00   0.0000000E+00   0.0000000E+00   0.0000000E+00   0.0000000E+00   0.0000000E+00   0.0000000E+00   0.0000000E+00   0.0000000E+00   0.0000000E+00   0.0000000E+00   0.0000000E+00   0.0000000E+00   0.0000000E+00   0.0000000E+00   0.0000000E+00   0.0000000E+00   0.0000000E+00   0.0000000E+00   0.0000000E+00   0.0000000E+00   0.0000000E+00   0.0000000E+00   0.0000000E+00   0.0000000E+00   0.0000000E+00   0.0000000E+00   0.0000000E+00   0.0000000E+00   0.0000000E+00   0.0000000E+00   0.0000000E+00   0.0000000E+00   0.0000000E+00   0.0000000E+00   0.0000000E+00   0.0000000E+00   0.0000000E+00   0.0000000E+00   0.0000000E+00   0.0000000E+00   0.0000000E+00   0.0000000E+00   0.0000000E+00   0.0000000E+00   0.0000000E+00   0.0000000E+00   0.0000000E+00   0.0000000E+00   0.0000000E+00   0.0000000E+00   0.0000000E+00   0.0000000E+00   0.0000000E+00   0.0000000E+00   0.0000000E+00   0.0000000E+00   0.0000000E+00   0.0000000E+00   0.0000000E+00   0.0000000E+00   0.0000000E+00   0.0000000E+00   0.0000000E+00   0.0000000E+00   0.0000000E+00   0.0000000E+00   0.0000000E+00   0.0000000E+00   0.0000000E+00   0.0000000E+00   0.0000000E+00   0.0000000E+00   0.0000000E+00   0.0000000E+00   0.0000000E+00   0.0000000E+00   0.0000000E+00   0.0000000E+00   0.0000000E+00   0.0000000E+00   0.0000000E+00   0.0000000E+00   0.0000000E+00   0.0000000E+00   0.0000000E+00   0.0000000E+00   0.0000000E+00   0.0000000E+00   0.0000000E+00   0.0000000E+00   0.0000000E+00   0.0000000E+00   0.0000000E+00   0.0000000E+00   0.0000000E+00   0.0000000E+00   0.0000000E+00   0.0000000E+00   0.0000000E+00   0.0000000E+00   0.0000000E+00   0.0000000E+00   0.0000000E+00   0.0000000E+00   0.0000000E+00   0.0000000E+00   0.0000000E+00   0.0000000E+00   0.0000000E+00   0.0000000E+00   0.0000000E+00   0.0000000E+00   0.0000000E+00   0.0000000E+00   0.0000000E+00   0.0000000E+00   0.0000000E+00   0.0000000E+00   0.0000000E+00   0.0000000E+00   0.0000000E+00   0.0000000E+00   0.0000000E+00   0.0000000E+00   0.0000000E+00   0.0000000E+00   0.0000000E+00   0.0000000E+00   0.0000000E+00   0.0000000E+00   0.0000000E+00   0.0000000E+00   0.0000000E+00   0.0000000E+00   0.0000000E+00   0.0000000E+00   0.0000000E+00   0.0000000E+00   0.0000000E+00   0.0000000E+00   0.0000000E+00   0.0000000E+00   0.0000000E+00   0.0000000E+00   0.0000000E+00   0.0000000E+00   0.0000000E+00   0.0000000E+00   0.0000000E+00   0.0000000E+00   0.0000000E+00   0.0000000E+00   0.0000000E+00   0.0000000E+00   0.0000000E+00   0.0000000E+00   0.0000000E+00   0.0000000E+00   0.0000000E+00   0.0000000E+00   0.0000000E+00   0.0000000E+00   0.0000000E+00   0.0000000E+00   0.0000000E+00   0.0000000E+00   0.0000000E+00   0.0000000E+00   0.0000000E+00   0.0000000E+00   0.0000000E+00   0.0000000E+00   0.0000000E+00   0.0000000E+00   0.0000000E+00   0.0000000E+00   0.0000000E+00   0.0000000E+00   0.0000000E+00   0.0000000E+00   0.0000000E+00   0.0000000E+00   0.0000000E+00   0.0000000E+00   0.0000000E+00   0.0000000E+00   0.0000000E+00   0.0000000E+00   0.0000000E+00   0.0000000E+00   0.0000000E+00   0.0000000E+00   0.0000000E+00   0.0000000E+00   0.0000000E+00   0.0000000E+00   0.0000000E+00   0.0000000E+00   0.0000000E+00   0.0000000E+00   0.0000000E+00   0.0000000E+00   0.0000000E+00   0.0000000E+00   0.0000000E+00   0.0000000E+00   0.0000000E+00   0.0000000E+00   0.0000000E+00   0.0000000E+00   0.0000000E+00   0.0000000E+00   0.0000000E+00   0.0000000E+00   0.0000000E+00   0.0000000E+00   0.0000000E+00   0.0000000E+00   0.0000000E+00   0.0000000E+00   0.0000000E+00   0.0000000E+00   0.0000000E+00   0.0000000E+00   0.0000000E+00   0.0000000E+00   0.0000000E+00   0.0000000E+00   0.0000000E+00   0.0000000E+00   0.0000000E+00   0.0000000E+00   0.0000000E+00   0.0000000E+00   0.0000000E+00   0.0000000E+00   0.0000000E+00   0.0000000E+00   0.0000000E+00   0.0000000E+00   0.0000000E+00   0.0000000E+00   0.0000000E+00   0.0000000E+00   0.0000000E+00   0.0000000E+00   0.0000000E+00   0.0000000E+00   0.0000000E+00   0.0000000E+00   0.0000000E+00   0.0000000E+00   0.0000000E+00   0.0000000E+00   0.0000000E+00   0.0000000E+00   0.0000000E+00   0.0000000E+00   0.0000000E+00   0.0000000E+00   0.0000000E+00   0.0000000E+00   0.0000000E+00   0.0000000E+00   0.0000000E+00   0.0000000E+00   0.0000000E+00   0.0000000E+00   0.0000000E+00   0.0000000E+00   0.0000000E+00   0.0000000E+00   0.0000000E+00   0.0000000E+00   0.0000000E+00   0.0000000E+00   0.0000000E+00   0.0000000E+00   0.0000000E+00   0.0000000E+00   0.0000000E+00   0.0000000E+00   0.0000000E+00   0.0000000E+00   0.0000000E+00   0.0000000E+00   0.0000000E+00   0.0000000E+00   0.0000000E+00   0.0000000E+00   0.0000000E+00   0.0000000E+00   0.0000000E+00   0.0000000E+00   0.0000000E+00   0.0000000E+00   0.0000000E+00   0.0000000E+00   0.0000000E+00   0.0000000E+00   0.0000000E+00   0.0000000E+00   0.0000000E+00   0.0000000E+00   0.0000000E+00   0.0000000E+00   0.0000000E+00   0.0000000E+00   0.0000000E+00   0.0000000E+00   0.0000000E+00   0.0000000E+00   0.0000000E+00   0.0000000E+00   0.0000000E+00   0.0000000E+00   0.0000000E+00   0.0000000E+00   0.0000000E+00   0.0000000E+00   0.0000000E+00   0.0000000E+00   0.0000000E+00   0.0000000E+00   0.0000000E+00   0.0000000E+00   0.0000000E+00   0.0000000E+00   0.0000000E+00   0.0000000E+00   0.0000000E+00   0.0000000E+00   0.0000000E+00   0.0000000E+00   0.0000000E+00   0.0000000E+00   0.0000000E+00   0.0000000E+00   0.0000000E+00   0.0000000E+00   0.0000000E+00   0.0000000E+00   0.0000000E+00   0.0000000E+00   0.0000000E+00   0.0000000E+00   0.0000000E+00   0.0000000E+00   0.0000000E+00   0.0000000E+00   0.0000000E+00   0.0000000E+00   0.0000000E+00   0.0000000E+00   0.0000000E+00   0.0000000E+00   0.0000000E+00   0.0000000E+00   0.0000000E+00   0.0000000E+00   0.0000000E+00   0.0000000E+00   0.0000000E+00   0.0000000E+00   0.0000000E+00   0.0000000E+00   0.0000000E+00   0.0000000E+00   0.0000000E+00   0.0000000E+00   0.0000000E+00   0.0000000E+00   0.0000000E+00   0.0000000E+00   0.0000000E+00   0.0000000E+00   0.0000000E+00   0.0000000E+00   0.0000000E+00   0.0000000E+00   0.0000000E+00   0.0000000E+00   0.0000000E+00   0.0000000E+00   0.0000000E+00   0.0000000E+00   0.0000000E+00   0.0000000E+00   0.0000000E+00   0.0000000E+00   0.0000000E+00   0.0000000E+00   0.0000000E+00   0.0000000E+00   0.0000000E+00   0.0000000E+00   0.0000000E+00   0.0000000E+00   0.0000000E+00   0.0000000E+00   0.0000000E+00   0.0000000E+00   0.0000000E+00   0.0000000E+00   0.0000000E+00   0.0000000E+00   0.0000000E+00   0.0000000E+00   0.0000000E+00   0.0000000E+00   0.0000000E+00   0.0000000E+00   0.0000000E+00   0.0000000E+00   0.0000000E+00   0.0000000E+00   0.0000000E+00   0.0000000E+00   0.0000000E+00   0.0000000E+00   0.0000000E+00   0.0000000E+00   0.0000000E+00   0.0000000E+00   0.0000000E+00   0.0000000E+00   0.0000000E+00   0.0000000E+00   0.0000000E+00   0.0000000E+00   0.0000000E+00   0.0000000E+00   0.0000000E+00   0.0000000E+00   0.0000000E+00   0.0000000E+00   0.0000000E+00   0.0000000E+00   0.0000000E+00   0.0000000E+00   0.0000000E+00   0.0000000E+00   0.0000000E+00   0.0000000E+00   0.0000000E+00   0.0000000E+00   0.0000000E+00   0.0000000E+00   0.0000000E+00   0.0000000E+00   0.0000000E+00   0.0000000E+00   0.0000000E+00   0.0000000E+00   0.0000000E+00   0.0000000E+00   0.0000000E+00   0.0000000E+00   0.0000000E+00   0.0000000E+00   0.0000000E+00   0.0000000E+00   0.0000000E+00   0.0000000E+00   0.0000000E+00   0.0000000E+00   0.0000000E+00   0.0000000E+00   0.0000000E+00   0.0000000E+00   0.0000000E+00   0.0000000E+00   0.0000000E+00   0.0000000E+00   0.0000000E+00   0.0000000E+00   0.0000000E+00   0.0000000E+00   0.0000000E+00   0.0000000E+00   0.0000000E+00   0.0000000E+00   0.0000000E+00   0.0000000E+00   0.0000000E+00   0.0000000E+00   0.0000000E+00   0.0000000E+00   0.0000000E+00   0.0000000E+00   0.0000000E+00   0.0000000E+00   0.0000000E+00   0.0000000E+00   0.0000000E+00   0.0000000E+00   0.0000000E+00   0.0000000E+00   0.0000000E+00   0.0000000E+00   0.0000000E+00   0.0000000E+00   0.0000000E+00   0.0000000E+00   0.0000000E+00   0.0000000E+00   0.0000000E+00   0.0000000E+00   0.0000000E+00   0.0000000E+00   0.0000000E+00   0.0000000E+00   0.0000000E+00   0.0000000E+00   0.0000000E+00   0.0000000E+00   0.0000000E+00   0.0000000E+00   0.0000000E+00   0.0000000E+00   0.0000000E+00   0.0000000E+00   0.0000000E+00   0.0000000E+00   0.0000000E+00   0.0000000E+00   0.0000000E+00   0.0000000E+00   0.0000000E+00   0.0000000E+00   0.0000000E+00   0.0000000E+00   0.0000000E+00   0.0000000E+00   0.0000000E+00   0.0000000E+00   0.0000000E+00   0.0000000E+00   0.0000000E+00   0.0000000E+00   0.0000000E+00   0.0000000E+00   0.0000000E+00   0.0000000E+00   0.0000000E+00   0.0000000E+00   0.0000000E+00   0.0000000E+00   0.0000000E+00   0.0000000E+00   0.0000000E+00   0.0000000E+00   0.0000000E+00   0.0000000E+00   0.0000000E+00   0.0000000E+00   0.0000000E+00   0.0000000E+00   0.0000000E+00   0.0000000E+00   0.0000000E+00   0.0000000E+00   0.0000000E+00   0.0000000E+00   0.0000000E+00   0.0000000E+00   0.0000000E+00   0.0000000E+00   0.0000000E+00   0.0000000E+00   0.0000000E+00   0.0000000E+00   0.0000000E+00   0.0000000E+00   0.0000000E+00   0.0000000E+00   0.0000000E+00   0.0000000E+00   0.0000000E+00   0.0000000E+00   0.0000000E+00   0.0000000E+00   0.0000000E+00   0.0000000E+00   0.0000000E+00   0.0000000E+00   0.0000000E+00   0.0000000E+00   0.0000000E+00   0.0000000E+00   0.0000000E+00   0.0000000E+00   0.0000000E+00   0.0000000E+00   0.0000000E+00   0.0000000E+00   0.0000000E+00   0.0000000E+00   0.0000000E+00   0.0000000E+00   0.0000000E+00   0.0000000E+00   0.0000000E+00   0.0000000E+00   0.0000000E+00   0.0000000E+00   0.0000000E+00   0.0000000E+00   0.0000000E+00   0.0000000E+00   0.0000000E+00   0.0000000E+00   0.0000000E+00   0.0000000E+00   0.0000000E+00   0.0000000E+00   0.0000000E+00   0.0000000E+00   0.0000000E+00   0.0000000E+00   0.0000000E+00   0.0000000E+00   0.0000000E+00   0.0000000E+00   0.0000000E+00   0.0000000E+00   0.0000000E+00   0.0000000E+00   0.0000000E+00   0.0000000E+00   0.0000000E+00   0.0000000E+00   0.0000000E+00   0.0000000E+00   0.0000000E+00   0.0000000E+00   0.0000000E+00   0.0000000E+00   0.0000000E+00   0.0000000E+00   0.0000000E+00   0.0000000E+00   0.0000000E+00   0.0000000E+00   0.0000000E+00   0.0000000E+00   0.0000000E+00   0.0000000E+00   0.0000000E+00   0.0000000E+00   0.0000000E+00   0.0000000E+00   0.0000000E+00   0.0000000E+00   0.0000000E+00   0.0000000E+00   0.0000000E+00   0.0000000E+00   0.0000000E+00   0.0000000E+00   0.0000000E+00   0.0000000E+00   0.0000000E+00   0.0000000E+00   0.0000000E+00   0.0000000E+00   0.0000000E+00   0.0000000E+00   0.0000000E+00   0.0000000E+00   0.0000000E+00   0.0000000E+00   0.0000000E+00   0.0000000E+00   0.0000000E+00   0.0000000E+00   0.0000000E+00   0.0000000E+00   0.0000000E+00   0.0000000E+00   0.0000000E+00   0.0000000E+00   0.0000000E+00   0.0000000E+00   0.0000000E+00   0.0000000E+00   0.0000000E+00   0.0000000E+00   0.0000000E+00   0.0000000E+00   0.0000000E+00   0.0000000E+00   0.0000000E+00   0.0000000E+00   0.0000000E+00   0.0000000E+00   0.0000000E+00   0.0000000E+00   0.0000000E+00   0.0000000E+00   0.0000000E+00   0.0000000E+00   0.0000000E+00   0.0000000E+00   0.0000000E+00   0.0000000E+00   0.0000000E+00   0.0000000E+00   0.0000000E+00   0.0000000E+00   0.0000000E+00   0.0000000E+00   0.0000000E+00   0.0000000E+00   0.0000000E+00   0.0000000E+00   0.0000000E+00   0.0000000E+00   0.0000000E+00   0.0000000E+00   0.0000000E+00   0.0000000E+00   0.0000000E+00   0.0000000E+00   0.0000000E+00   0.0000000E+00   0.0000000E+00   0.0000000E+00   0.0000000E+00   0.0000000E+00   0.0000000E+00   0.0000000E+00   0.0000000E+00   0.0000000E+00   0.0000000E+00   0.0000000E+00   0.0000000E+00   0.0000000E+00   0.0000000E+00   0.0000000E+00   0.0000000E+00   0.0000000E+00   0.0000000E+00   0.0000000E+00   0.0000000E+00   0.0000000E+00   0.0000000E+00   0.0000000E+00   0.0000000E+00   0.0000000E+00   0.0000000E+00   0.0000000E+00   0.0000000E+00   0.0000000E+00   0.0000000E+00   0.0000000E+00   0.0000000E+00   0.0000000E+00   0.0000000E+00   0.0000000E+00   0.0000000E+00   0.0000000E+00   0.0000000E+00   0.0000000E+00   0.0000000E+00   0.0000000E+00   0.0000000E+00   0.0000000E+00   0.0000000E+00   0.0000000E+00   0.0000000E+00   0.0000000E+00   0.0000000E+00   0.0000000E+00   0.0000000E+00   0.0000000E+00   0.0000000E+00   0.0000000E+00   0.0000000E+00   0.0000000E+00   0.0000000E+00   0.0000000E+00   0.0000000E+00   0.0000000E+00   0.0000000E+00   0.0000000E+00   0.0000000E+00   0.0000000E+00   0.0000000E+00   0.0000000E+00   0.0000000E+00   0.0000000E+00   0.0000000E+00   0.0000000E+00   0.0000000E+00   0.0000000E+00   0.0000000E+00   0.0000000E+00   0.0000000E+00   0.0000000E+00   0.0000000E+00   0.0000000E+00   0.0000000E+00   0.0000000E+00   0.0000000E+00   0.0000000E+00   0.0000000E+00   0.0000000E+00   0.0000000E+00   0.0000000E+00   0.0000000E+00   0.0000000E+00   0.0000000E+00   0.0000000E+00   0.0000000E+00   0.0000000E+00   0.0000000E+00   0.0000000E+00   0.0000000E+00   0.0000000E+00   0.0000000E+00   0.0000000E+00   0.0000000E+00   0.0000000E+00   0.0000000E+00   0.0000000E+00   0.0000000E+00   0.0000000E+00   0.0000000E+00   0.0000000E+00   0.0000000E+00   0.0000000E+00   0.0000000E+00   0.0000000E+00   0.0000000E+00   0.0000000E+00   0.0000000E+00   0.0000000E+00   0.0000000E+00   0.0000000E+00   0.0000000E+00   0.0000000E+00   0.0000000E+00   0.0000000E+00   0.0000000E+00   0.0000000E+00   0.0000000E+00   0.0000000E+00   0.0000000E+00   0.0000000E+00   0.0000000E+00   0.0000000E+00   0.0000000E+00   0.0000000E+00   0.0000000E+00   0.0000000E+00   0.0000000E+00   0.0000000E+00   0.0000000E+00   0.0000000E+00   0.0000000E+00   0.0000000E+00   0.0000000E+00   0.0000000E+00   0.0000000E+00   0.0000000E+00   0.0000000E+00   0.0000000E+00   0.0000000E+00   0.0000000E+00   0.0000000E+00   0.0000000E+00   0.0000000E+00   0.0000000E+00   0.0000000E+00   0.0000000E+00   0.0000000E+00   0.0000000E+00   0.0000000E+00   0.0000000E+00   0.0000000E+00   0.0000000E+00   0.0000000E+00   0.0000000E+00   0.0000000E+00   0.0000000E+00   0.0000000E+00   0.0000000E+00   0.0000000E+00   0.0000000E+00   0.0000000E+00   0.0000000E+00   0.0000000E+00   0.0000000E+00   0.0000000E+00   0.0000000E+00   0.0000000E+00   0.0000000E+00   0.0000000E+00   0.0000000E+00   0.0000000E+00   0.0000000E+00   0.0000000E+00   0.0000000E+00   0.0000000E+00   0.0000000E+00   0.0000000E+00   0.0000000E+00   0.0000000E+00   0.0000000E+00   0.0000000E+00   0.0000000E+00   0.0000000E+00   0.0000000E+00   0.0000000E+00   0.0000000E+00   0.0000000E+00   0.0000000E+00   0.0000000E+00   0.0000000E+00   0.0000000E+00   0.0000000E+00   0.0000000E+00   0.0000000E+00   0.0000000E+00   0.0000000E+00   0.0000000E+00   0.0000000E+00   0.0000000E+00   0.0000000E+00   0.0000000E+00   0.0000000E+00   0.0000000E+00   0.0000000E+00   0.0000000E+00   0.0000000E+00   0.0000000E+00   0.0000000E+00   0.0000000E+00   0.0000000E+00   0.0000000E+00   0.0000000E+00   0.0000000E+00   0.0000000E+00   0.0000000E+00   0.0000000E+00   0.0000000E+00   0.0000000E+00   0.0000000E+00   0.0000000E+00   0.0000000E+00   0.0000000E+00   0.0000000E+00   0.0000000E+00   0.0000000E+00   0.0000000E+00   0.0000000E+00   0.0000000E+00   0.0000000E+00   0.0000000E+00   0.0000000E+00   0.0000000E+00   0.0000000E+00   0.0000000E+00   0.0000000E+00   0.0000000E+00   0.0000000E+00   0.0000000E+00   0.0000000E+00   0.0000000E+00   0.0000000E+00   0.0000000E+00   0.0000000E+00   0.0000000E+00   0.0000000E+00   0.0000000E+00   0.0000000E+00   0.0000000E+00   0.0000000E+00   0.0000000E+00   0.0000000E+00   0.0000000E+00   0.0000000E+00   0.0000000E+00   0.0000000E+00   0.0000000E+00   0.0000000E+00   0.0000000E+00   0.0000000E+00   0.0000000E+00   0.0000000E+00   0.0000000E+00   0.0000000E+00   0.0000000E+00   0.0000000E+00   0.0000000E+00   0.0000000E+00   0.0000000E+00   0.0000000E+00   0.0000000E+00   0.0000000E+00   0.0000000E+00   0.0000000E+00   0.0000000E+00   0.0000000E+00   0.0000000E+00   0.0000000E+00   0.0000000E+00   0.0000000E+00   0.0000000E+00   0.0000000E+00   0.0000000E+00   0.0000000E+00   0.0000000E+00   0.0000000E+00   0.0000000E+00   0.0000000E+00   0.0000000E+00   0.0000000E+00   0.0000000E+00   0.0000000E+00   0.0000000E+00   0.0000000E+00   0.0000000E+00   0.0000000E+00   0.0000000E+00   0.0000000E+00   0.0000000E+00   0.0000000E+00   0.0000000E+00   0.0000000E+00   0.0000000E+00   0.0000000E+00   0.0000000E+00   0.0000000E+00   0.0000000E+00   0.0000000E+00   0.0000000E+00   0.0000000E+00   0.0000000E+00   0.0000000E+00   0.0000000E+00   0.0000000E+00   0.0000000E+00   0.0000000E+00   0.0000000E+00   0.0000000E+00   0.0000000E+00   0.0000000E+00   0.0000000E+00   0.0000000E+00   0.0000000E+00   0.0000000E+00   0.0000000E+00   0.0000000E+00   0.0000000E+00   0.0000000E+00   0.0000000E+00   0.0000000E+00   0.0000000E+00   0.0000000E+00   0.0000000E+00   0.0000000E+00   0.0000000E+00   0.0000000E+00   0.0000000E+00   0.0000000E+00   0.0000000E+00   0.0000000E+00   0.0000000E+00   0.0000000E+00   0.0000000E+00   0.0000000E+00   0.0000000E+00   0.0000000E+00   0.0000000E+00   0.0000000E+00   0.0000000E+00   0.0000000E+00   0.0000000E+00   0.0000000E+00   0.0000000E+00   0.0000000E+00   0.0000000E+00   0.0000000E+00   0.0000000E+00   0.0000000E+00   0.0000000E+00   0.0000000E+00   0.0000000E+00   0.0000000E+00   0.0000000E+00   0.0000000E+00   0.0000000E+00   0.0000000E+00   0.0000000E+00   0.0000000E+00   0.0000000E+00   0.0000000E+00   0.0000000E+00   0.0000000E+00   0.0000000E+00   0.0000000E+00   0.0000000E+00   0.0000000E+00   0.0000000E+00   0.0000000E+00   0.0000000E+00   0.0000000E+00   0.0000000E+00   0.0000000E+00   0.0000000E+00   0.0000000E+00   0.0000000E+00   0.0000000E+00   0.0000000E+00   0.0000000E+00   0.0000000E+00   0.0000000E+00   0.0000000E+00   0.0000000E+00   0.0000000E+00   0.0000000E+00   0.0000000E+00   0.0000000E+00   0.0000000E+00   0.0000000E+00   0.0000000E+00   0.0000000E+00   0.0000000E+00   0.0000000E+00   0.0000000E+00   0.0000000E+00   0.0000000E+00   0.0000000E+00   0.0000000E+00   0.0000000E+00   0.0000000E+00   0.0000000E+00   0.0000000E+00   0.0000000E+00   0.0000000E+00   0.0000000E+00   0.0000000E+00   0.0000000E+00   0.0000000E+00   0.0000000E+00   0.0000000E+00   0.0000000E+00   0.0000000E+00   0.0000000E+00   0.0000000E+00   0.0000000E+00   0.0000000E+00   0.0000000E+00   0.0000000E+00   0.0000000E+00   0.0000000E+00   0.0000000E+00   0.0000000E+00   0.0000000E+00   0.0000000E+00   0.0000000E+00   0.0000000E+00   0.0000000E+00   0.0000000E+00   0.0000000E+00   0.0000000E+00   0.0000000E+00   0.0000000E+00   0.0000000E+00   0.0000000E+00   0.0000000E+00   0.0000000E+00   0.0000000E+00   0.0000000E+00   0.0000000E+00   0.0000000E+00   0.0000000E+00   0.0000000E+00   0.0000000E+00   0.0000000E+00   0.0000000E+00   0.0000000E+00   0.0000000E+00   0.0000000E+00   0.0000000E+00   0.0000000E+00   0.0000000E+00   0.0000000E+00   0.0000000E+00   0.0000000E+00   0.0000000E+00   0.0000000E+00   0.0000000E+00   0.0000000E+00   0.0000000E+00   0.0000000E+00   0.0000000E+00   0.0000000E+00   0.0000000E+00   0.0000000E+00   0.0000000E+00   0.0000000E+00   0.0000000E+00   0.0000000E+00   0.0000000E+00   0.0000000E+00   0.0000000E+00   0.0000000E+00   0.0000000E+00   0.0000000E+00   0.0000000E+00   0.0000000E+00   0.0000000E+00   0.0000000E+00   0.0000000E+00   0.0000000E+00   0.0000000E+00   0.0000000E+00   0.0000000E+00   0.0000000E+00   0.0000000E+00   0.0000000E+00   0.0000000E+00   0.0000000E+00   0.0000000E+00   0.0000000E+00   0.0000000E+00   0.0000000E+00   0.0000000E+00   0.0000000E+00   0.0000000E+00   0.0000000E+00   0.0000000E+00   0.0000000E+00   0.0000000E+00   0.0000000E+00   0.0000000E+00   0.0000000E+00   0.0000000E+00   0.0000000E+00   0.0000000E+00   0.0000000E+00   0.0000000E+00   0.0000000E+00   0.0000000E+00   0.0000000E+00   0.0000000E+00   0.0000000E+00   0.0000000E+00   0.0000000E+00   0.0000000E+00   0.0000000E+00   0.0000000E+00   0.0000000E+00   0.0000000E+00   0.0000000E+00   0.0000000E+00   0.0000000E+00   0.0000000E+00   0.0000000E+00   0.0000000E+00   0.0000000E+00   0.0000000E+00   0.0000000E+00   0.0000000E+00   0.0000000E+00   0.0000000E+00   0.0000000E+00   0.0000000E+00   0.0000000E+00   0.0000000E+00   0.0000000E+00   0.0000000E+00   0.0000000E+00   0.0000000E+00   0.0000000E+00   0.0000000E+00   0.0000000E+00   0.0000000E+00   0.0000000E+00   0.0000000E+00   0.0000000E+00   0.0000000E+00   0.0000000E+00   0.0000000E+00   0.0000000E+00   0.0000000E+00   0.0000000E+00   0.0000000E+00   0.0000000E+00   0.0000000E+00   0.0000000E+00   0.0000000E+00   0.0000000E+00   0.0000000E+00   0.0000000E+00   0.0000000E+00   0.0000000E+00   0.0000000E+00   0.0000000E+00   0.0000000E+00   0.0000000E+00   0.0000000E+00   0.0000000E+00   0.0000000E+00   0.0000000E+00   0.0000000E+00   0.0000000E+00   0.0000000E+00   0.0000000E+00   0.0000000E+00   0.0000000E+00   0.0000000E+00   0.0000000E+00   0.0000000E+00   0.0000000E+00   0.0000000E+00   0.0000000E+00   0.0000000E+00   0.0000000E+00   0.0000000E+00   0.0000000E+00   0.0000000E+00   0.0000000E+00   0.0000000E+00   0.0000000E+00   0.0000000E+00   0.0000000E+00   0.0000000E+00   0.0000000E+00   0.0000000E+00   0.0000000E+00   0.0000000E+00   0.0000000E+00   0.0000000E+00   0.0000000E+00   0.0000000E+00   0.0000000E+00   0.0000000E+00   0.0000000E+00   0.0000000E+00   0.0000000E+00   0.0000000E+00   0.0000000E+00   0.0000000E+00   0.0000000E+00   0.0000000E+00   0.0000000E+00   0.0000000E+00   0.0000000E+00   0.0000000E+00   0.0000000E+00   0.0000000E+00   0.0000000E+00   0.0000000E+00   0.0000000E+00   0.0000000E+00   0.0000000E+00   0.0000000E+00   0.0000000E+00   0.0000000E+00   0.0000000E+00   0.0000000E+00   0.0000000E+00   0.0000000E+00   0.0000000E+00   0.0000000E+00   0.0000000E+00   0.0000000E+00   0.0000000E+00   0.0000000E+00   0.0000000E+00   0.0000000E+00   0.0000000E+00   0.0000000E+00   0.0000000E+00   0.0000000E+00   0.0000000E+00   0.0000000E+00   0.0000000E+00   0.0000000E+00   0.0000000E+00   0.0000000E+00   0.0000000E+00   0.0000000E+00   0.0000000E+00   0.0000000E+00   0.0000000E+00   0.0000000E+00   0.0000000E+00   0.0000000E+00   0.0000000E+00   0.0000000E+00   0.0000000E+00   0.0000000E+00   0.0000000E+00   0.0000000E+00   0.0000000E+00   0.0000000E+00   0.0000000E+00   0.0000000E+00   0.0000000E+00   0.0000000E+00   0.0000000E+00   0.0000000E+00   0.0000000E+00   0.0000000E+00   0.0000000E+00   0.0000000E+00   0.0000000E+00   0.0000000E+00   0.0000000E+00   0.0000000E+00   0.0000000E+00   0.0000000E+00   0.0000000E+00   0.0000000E+00   0.0000000E+00   0.0000000E+00   0.0000000E+00   0.0000000E+00   0.0000000E+00   0.0000000E+00   0.0000000E+00   0.0000000E+00   0.0000000E+00   0.0000000E+00   0.0000000E+00   0.0000000E+00   0.0000000E+00   0.0000000E+00   0.0000000E+00   0.0000000E+00   0.0000000E+00   0.0000000E+00   0.0000000E+00   0.0000000E+00   0.0000000E+00   0.0000000E+00   0.0000000E+00   0.0000000E+00   0.0000000E+00   0.0000000E+00   0.0000000E+00   0.0000000E+00   0.0000000E+00   0.0000000E+00   0.0000000E+00   0.0000000E+00   0.0000000E+00   0.0000000E+00   0.0000000E+00   0.0000000E+00   0.0000000E+00   0.0000000E+00   0.0000000E+00   0.0000000E+00   0.0000000E+00   0.0000000E+00   0.0000000E+00   0.0000000E+00   0.0000000E+00   0.0000000E+00   0.0000000E+00   0.0000000E+00   0.0000000E+00   0.0000000E+00   0.0000000E+00   0.0000000E+00   0.0000000E+00   0.0000000E+00   0.0000000E+00   0.0000000E+00   0.0000000E+00   0.0000000E+00   0.0000000E+00   0.0000000E+00   0.0000000E+00   0.0000000E+00   0.0000000E+00   0.0000000E+00   0.0000000E+00   0.0000000E+00   0.0000000E+00   0.0000000E+00   0.0000000E+00   0.0000000E+00   0.0000000E+00   0.0000000E+00   0.0000000E+00   0.0000000E+00   0.0000000E+00   0.0000000E+00   0.0000000E+00   0.0000000E+00   0.0000000E+00   0.0000000E+00   0.0000000E+00   0.0000000E+00   0.0000000E+00   0.0000000E+00   0.0000000E+00   0.0000000E+00   0.0000000E+00   0.0000000E+00   0.0000000E+00   0.0000000E+00 
Acec.z 1 2975 float
  0.0000000E+00   0.0000000E+00   0.0000000E+00   0.0000000E+00   0.0000000E+00   0.0000000E+00   0.0000000E+00   0.0000000E+00   0.0000000E+00   0.0000000E+00   0.0000000E+00   0.0000000E+00   0.0000000E+00   0.0000000E+00   0.0000000E+00   0.0000000E+00   0.0000000E+00   0.0000000E+00   0.0000000E+00   0.0000000E+00   0.0000000E+00   0.0000000E+00   0.0000000E+00   0.0000000E+00   0.0000000E+00   0.0000000E+00   0.0000000E+00   0.0000000E+00   0.0000000E+00   0.0000000E+00   0.0000000E+00   0.0000000E+00   0.0000000E+00   0.0000000E+00   0.0000000E+00   0.0000000E+00   0.0000000E+00   0.0000000E+00   0.0000000E+00   0.0000000E+00   0.0000000E+00   0.0000000E+00   0.0000000E+00   0.0000000E+00   0.0000000E+00   0.0000000E+00   0.0000000E+00   0.0000000E+00   0.0000000E+00   0.0000000E+00   0.0000000E+00   0.0000000E+00   0.0000000E+00   0.0000000E+00   0.0000000E+00   0.0000000E+00   0.0000000E+00   0.0000000E+00   0.0000000E+00   0.0000000E+00   0.0000000E+00   0.0000000E+00   0.0000000E+00   0.0000000E+00   0.0000000E+00   0.0000000E+00   0.0000000E+00   0.0000000E+00   0.0000000E+00   0.0000000E+00   0.0000000E+00   0.0000000E+00   0.0000000E+00   0.0000000E+00   0.0000000E+00   0.0000000E+00   0.0000000E+00   0.0000000E+00   0.0000000E+00   0.0000000E+00   0.0000000E+00   0.0000000E+00   0.0000000E+00   0.0000000E+00   0.0000000E+00   0.0000000E+00   0.0000000E+00   0.0000000E+00   0.0000000E+00   0.0000000E+00   0.0000000E+00   0.0000000E+00   0.0000000E+00   0.0000000E+00   0.0000000E+00   0.0000000E+00   0.0000000E+00   0.0000000E+00   0.0000000E+00   0.0000000E+00   0.0000000E+00   0.0000000E+00   0.0000000E+00   0.0000000E+00   0.0000000E+00   0.0000000E+00   0.0000000E+00   0.0000000E+00   0.0000000E+00   0.0000000E+00   0.0000000E+00   0.0000000E+00   0.0000000E+00   0.0000000E+00   0.0000000E+00   0.0000000E+00   0.0000000E+00   0.0000000E+00   0.0000000E+00   0.0000000E+00   0.0000000E+00   0.0000000E+00   0.0000000E+00   0.0000000E+00   0.0000000E+00   0.0000000E+00   0.0000000E+00   0.0000000E+00   0.0000000E+00   0.0000000E+00   0.0000000E+00   0.0000000E+00   0.0000000E+00   0.0000000E+00   0.0000000E+00   0.0000000E+00   0.0000000E+00   0.0000000E+00   0.0000000E+00   0.0000000E+00   0.0000000E+00   0.0000000E+00   0.0000000E+00   0.0000000E+00   0.0000000E+00   0.0000000E+00   0.0000000E+00   0.0000000E+00   0.0000000E+00   0.0000000E+00   0.0000000E+00   0.0000000E+00   0.0000000E+00   0.0000000E+00   0.0000000E+00   0.0000000E+00   0.0000000E+00   0.0000000E+00   0.0000000E+00   0.0000000E+00   0.0000000E+00   0.0000000E+00   0.0000000E+00   0.0000000E+00   0.0000000E+00   0.0000000E+00   0.0000000E+00   0.0000000E+00   0.0000000E+00   0.0000000E+00   0.0000000E+00   0.0000000E+00   0.0000000E+00   0.0000000E+00   0.0000000E+00   0.0000000E+00   0.0000000E+00   0.0000000E+00   0.0000000E+00   0.0000000E+00   0.0000000E+00   0.0000000E+00   0.0000000E+00   0.0000000E+00   0.0000000E+00   0.0000000E+00   0.0000000E+00   0.0000000E+00   0.0000000E+00   0.0000000E+00   0.0000000E+00   0.0000000E+00   0.0000000E+00   0.0000000E+00   0.0000000E+00   0.0000000E+00   0.0000000E+00   0.0000000E+00   0.0000000E+00   0.0000000E+00   0.0000000E+00   0.0000000E+00   0.0000000E+00   0.0000000E+00   0.0000000E+00   0.0000000E+00   0.0000000E+00   0.0000000E+00   0.0000000E+00   0.0000000E+00   0.0000000E+00   0.0000000E+00   0.0000000E+00   0.0000000E+00   0.0000000E+00   0.0000000E+00   0.0000000E+00   0.0000000E+00   0.0000000E+00   0.0000000E+00   0.0000000E+00   0.0000000E+00   0.0000000E+00   0.0000000E+00   0.0000000E+00   0.0000000E+00   0.0000000E+00   0.0000000E+00   0.0000000E+00   0.0000000E+00   0.0000000E+00   0.0000000E+00   0.0000000E+00   0.0000000E+00   0.0000000E+00   0.0000000E+00   0.0000000E+00   0.0000000E+00   0.0000000E+00   0.0000000E+00   0.0000000E+00   0.0000000E+00   0.0000000E+00   0.0000000E+00   0.0000000E+00   0.0000000E+00   0.0000000E+00   0.0000000E+00   0.0000000E+00   0.0000000E+00   0.0000000E+00   0.0000000E+00   0.0000000E+00   0.0000000E+00   0.0000000E+00   0.0000000E+00   0.0000000E+00   0.0000000E+00   0.0000000E+00   0.0000000E+00   0.0000000E+00   0.0000000E+00   0.0000000E+00   0.0000000E+00   0.0000000E+00   0.0000000E+00   0.0000000E+00   0.0000000E+00   0.0000000E+00   0.0000000E+00   0.0000000E+00   0.0000000E+00   0.0000000E+00   0.0000000E+00   0.0000000E+00   0.0000000E+00   0.0000000E+00   0.0000000E+00   0.0000000E+00   0.0000000E+00   0.0000000E+00   0.0000000E+00   0.0000000E+00   0.0000000E+00   0.0000000E+00   0.0000000E+00   0.0000000E+00   0.0000000E+00   0.0000000E+00   0.0000000E+00   0.0000000E+00   0.0000000E+00   0.0000000E+00   0.0000000E+00   0.0000000E+00   0.0000000E+00   0.0000000E+00   0.0000000E+00   0.0000000E+00   0.0000000E+00   0.0000000E+00   0.0000000E+00   0.0000000E+00   0.0000000E+00   0.0000000E+00   0.0000000E+00   0.0000000E+00   0.0000000E+00   0.0000000E+00   0.0000000E+00   0.0000000E+00   0.0000000E+00   0.0000000E+00   0.0000000E+00   0.0000000E+00   0.0000000E+00   0.0000000E+00   0.0000000E+00   0.0000000E+00   0.0000000E+00   0.0000000E+00   0.0000000E+00   0.0000000E+00   0.0000000E+00   0.0000000E+00   0.0000000E+00   0.0000000E+00   0.0000000E+00   0.0000000E+00   0.0000000E+00   0.0000000E+00   0.0000000E+00   0.0000000E+00   0.0000000E+00   0.0000000E+00   0.0000000E+00   0.0000000E+00   0.0000000E+00   0.0000000E+00   0.0000000E+00   0.0000000E+00   0.0000000E+00   0.0000000E+00   0.0000000E+00   0.0000000E+00   0.0000000E+00   0.0000000E+00   0.0000000E+00   0.0000000E+00   0.0000000E+00   0.0000000E+00   0.0000000E+00   0.0000000E+00   0.0000000E+00   0.0000000E+00   0.0000000E+00   0.0000000E+00   0.0000000E+00   0.0000000E+00   0.0000000E+00   0.0000000E+00   0.0000000E+00   0.0000000E+00   0.0000000E+00   0.0000000E+00   0.0000000E+00   0.0000000E+00   0.0000000E+00   0.0000000E+00   0.0000000E+00   0.0000000E+00   0.0000000E+00   0.0000000E+00   0.0000000E+00   0.0000000E+00   0.0000000E+00   0.0000000E+00   0.0000000E+00   0.0000000E+00   0.0000000E+00   0.0000000E+00   0.0000000E+00   0.0000000E+00   0.0000000E+00   0.0000000E+00   0.0000000E+00   0.0000000E+00   0.0000000E+00   0.0000000E+00   0.0000000E+00   0.0000000E+00   0.0000000E+00   0.0000000E+00   0.0000000E+00   0.0000000E+00   0.0000000E+00   0.0000000E+00   0.0000000E+00   0.0000000E+00   0.0000000E+00   0.0000000E+00   0.0000000E+00   0.0000000E+00   0.0000000E+00   0.0000000E+00   0.0000000E+00   0.0000000E+00   0.0000000E+00   0.0000000E+00   0.0000000E+00   0.0000000E+00   0.0000000E+00   0.0000000E+00   0.0000000E+00   0.0000000E+00   0.0000000E+00   0.0000000E+00   0.0000000E+00   0.0000000E+00   0.0000000E+00   0.0000000E+00   0.0000000E+00   0.0000000E+00   0.0000000E+00   0.0000000E+00   0.0000000E+00   0.0000000E+00   0.0000000E+00   0.0000000E+00   0.0000000E+00   0.0000000E+00   0.0000000E+00   0.0000000E+00   0.0000000E+00   0.0000000E+00   0.0000000E+00   0.0000000E+00   0.0000000E+00   0.0000000E+00   0.0000000E+00   0.0000000E+00   0.0000000E+00   0.0000000E+00   0.0000000E+00   0.0000000E+00   0.0000000E+00   0.0000000E+00   0.0000000E+00   0.0000000E+00   0.0000000E+00   0.0000000E+00   0.0000000E+00   0.0000000E+00   0.0000000E+00   0.0000000E+00   0.0000000E+00   0.0000000E+00   0.0000000E+00   0.0000000E+00   0.0000000E+00   0.0000000E+00   0.0000000E+00   0.0000000E+00   0.0000000E+00   0.0000000E+00   0.0000000E+00   0.0000000E+00   0.0000000E+00   0.0000000E+00   0.0000000E+00   0.0000000E+00   0.0000000E+00   0.0000000E+00   0.0000000E+00   0.0000000E+00   0.0000000E+00   0.0000000E+00   0.0000000E+00   0.0000000E+00   0.0000000E+00   0.0000000E+00   0.0000000E+00   0.0000000E+00   0.0000000E+00   0.0000000E+00   0.0000000E+00   0.0000000E+00   0.0000000E+00   0.0000000E+00   0.0000000E+00   0.0000000E+00   0.0000000E+00   0.0000000E+00   0.0000000E+00   0.0000000E+00   0.0000000E+00   0.0000000E+00   0.0000000E+00   0.0000000E+00   0.0000000E+00   0.0000000E+00   0.0000000E+00   0.0000000E+00   0.0000000E+00   0.0000000E+00   0.0000000E+00   0.0000000E+00   0.0000000E+00   0.0000000E+00   0.0000000E+00   0.0000000E+00   0.0000000E+00   0.0000000E+00   0.0000000E+00   0.0000000E+00   0.0000000E+00   0.0000000E+00   0.0000000E+00   0.0000000E+00   0.0000000E+00   0.0000000E+00   0.0000000E+00   0.0000000E+00   0.0000000E+00   0.0000000E+00   0.0000000E+00   0.0000000E+00   0.0000000E+00   0.0000000E+00   0.0000000E+00   0.0000000E+00   0.0000000E+00   0.0000000E+00   0.0000000E+00   0.0000000E+00   0.0000000E+00   0.0000000E+00   0.0000000E+00   0.0000000E+00   0.0000000E+00   0.0000000E+00   0.0000000E+00   0.0000000E+00   0.0000000E+00   0.0000000E+00   0.0000000E+00   0.0000000E+00   0.0000000E+00   0.0000000E+00   0.0000000E+00   0.0000000E+00   0.0000000E+00   0.0000000E+00   0.0000000E+00   0.0000000E+00   0.0000000E+00   0.0000000E+00   0.0000000E+00   0.0000000E+00   0.0000000E+00   0.0000000E+00   0.0000000E+00   0.0000000E+00   0.0000000E+00   0.0000000E+00   0.0000000E+00   0.0000000E+00   0.0000000E+00   0.0000000E+00   0.0000000E+00   0.0000000E+00   0.0000000E+00   0.0000000E+00   0.0000000E+00   0.0000000E+00   0.0000000E+00   0.0000000E+00   0.0000000E+00   0.0000000E+00   0.0000000E+00   0.0000000E+00   0.0000000E+00   0.0000000E+00   0.0000000E+00   0.0000000E+00   0.0000000E+00   0.0000000E+00   0.0000000E+00   0.0000000E+00   0.0000000E+00   0.0000000E+00   0.0000000E+00   0.0000000E+00   0.0000000E+00   0.0000000E+00   0.0000000E+00   0.0000000E+00   0.0000000E+00   0.0000000E+00   0.0000000E+00   0.0000000E+00   0.0000000E+00   0.0000000E+00   0.0000000E+00   0.0000000E+00   0.0000000E+00   0.0000000E+00   0.0000000E+00   0.0000000E+00   0.0000000E+00   0.0000000E+00   0.0000000E+00   0.0000000E+00   0.0000000E+00   0.0000000E+00   0.0000000E+00   0.0000000E+00   0.0000000E+00   0.0000000E+00   0.0000000E+00   0.0000000E+00   0.0000000E+00   0.0000000E+00   0.0000000E+00   0.0000000E+00   0.0000000E+00   0.0000000E+00   0.0000000E+00   0.0000000E+00   0.0000000E+00   0.0000000E+00   0.0000000E+00   0.0000000E+00   0.0000000E+00   0.0000000E+00   0.0000000E+00   0.0000000E+00   0.0000000E+00   0.0000000E+00   0.0000000E+00   0.0000000E+00   0.0000000E+00   0.0000000E+00   0.0000000E+00   0.0000000E+00   0.0000000E+00   0.0000000E+00   0.0000000E+00   0.0000000E+00   0.0000000E+00   0.0000000E+00   0.0000000E+00   0.0000000E+00   0.0000000E+00   0.0000000E+00   0.0000000E+00   0.0000000E+00   0.0000000E+00   0.0000000E+00   0.0000000E+00   0.0000000E+00   0.0000000E+00   0.0000000E+00   0.0000000E+00   0.0000000E+00   0.0000000E+00   0.0000000E+00   0.0000000E+00   0.0000000E+00   0.0000000E+00   0.0000000E+00   0.0000000E+00   0.0000000E+00   0.0000000E+00   0.0000000E+00   0.0000000E+00   0.0000000E+00   0.0000000E+00   0.0000000E+00   0.0000000E+00   0.0000000E+00   0.0000000E+00   0.0000000E+00   0.0000000E+00   0.0000000E+00   0.0000000E+00   0.0000000E+00   0.0000000E+00   0.0000000E+00   0.0000000E+00   0.0000000E+00   0.0000000E+00   0.0000000E+00   0.0000000E+00   0.0000000E+00   0.0000000E+00   0.0000000E+00   0.0000000E+00   0.0000000E+00   0.0000000E+00   0.0000000E+00   0.0000000E+00   0.0000000E+00   0.0000000E+00   0.0000000E+00   0.0000000E+00   0.0000000E+00   0.0000000E+00   0.0000000E+00   0.0000000E+00   0.0000000E+00   0.0000000E+00   0.0000000E+00   0.0000000E+00   0.0000000E+00   0.0000000E+00   0.0000000E+00   0.0000000E+00   0.0000000E+00   0.0000000E+00   0.0000000E+00   0.0000000E+00   0.0000000E+00   0.0000000E+00   0.0000000E+00   0.0000000E+00   0.0000000E+00   0.0000000E+00   0.0000000E+00   0.0000000E+00   0.0000000E+00   0.0000000E+00   0.0000000E+00   0.0000000E+00   0.0000000E+00   0.0000000E+00   0.0000000E+00   0.0000000E+00   0.0000000E+00   0.0000000E+00   0.0000000E+00   0.0000000E+00   0.0000000E+00   0.0000000E+00   0.0000000E+00   0.0000000E+00   0.0000000E+00   0.0000000E+00   0.0000000E+00   0.0000000E+00   0.0000000E+00   0.0000000E+00   0.0000000E+00   0.0000000E+00   0.0000000E+00   0.0000000E+00   0.0000000E+00   0.0000000E+00   0.0000000E+00   0.0000000E+00   0.0000000E+00   0.0000000E+00   0.0000000E+00   0.0000000E+00   0.0000000E+00   0.0000000E+00   0.0000000E+00   0.0000000E+00   0.0000000E+00   0.0000000E+00   0.0000000E+00   0.0000000E+00   0.0000000E+00   0.0000000E+00   0.0000000E+00   0.0000000E+00   0.0000000E+00   0.0000000E+00   0.0000000E+00   0.0000000E+00   0.0000000E+00   0.0000000E+00   0.0000000E+00   0.0000000E+00   0.0000000E+00   0.0000000E+00   0.0000000E+00   0.0000000E+00   0.0000000E+00   0.0000000E+00   0.0000000E+00   0.0000000E+00   0.0000000E+00   0.0000000E+00   0.0000000E+00   0.0000000E+00   0.0000000E+00   0.0000000E+00   0.0000000E+00   0.0000000E+00   0.0000000E+00   0.0000000E+00   0.0000000E+00   0.0000000E+00   0.0000000E+00   0.0000000E+00   0.0000000E+00   0.0000000E+00   0.0000000E+00   0.0000000E+00   0.0000000E+00   0.0000000E+00   0.0000000E+00   0.0000000E+00   0.0000000E+00   0.0000000E+00   0.0000000E+00   0.0000000E+00   0.0000000E+00   0.0000000E+00   0.0000000E+00   0.0000000E+00   0.0000000E+00   0.0000000E+00   0.0000000E+00   0.0000000E+00   0.0000000E+00   0.0000000E+00   0.0000000E+00   0.0000000E+00   0.0000000E+00   0.0000000E+00   0.0000000E+00   0.0000000E+00   0.0000000E+00   0.0000000E+00   0.0000000E+00   0.0000000E+00   0.0000000E+00   0.0000000E+00   0.0000000E+00   0.0000000E+00   0.0000000E+00   0.0000000E+00   0.0000000E+00   0.0000000E+00   0.0000000E+00   0.0000000E+00   0.0000000E+00   0.0000000E+00   0.0000000E+00   0.0000000E+00   0.0000000E+00   0.0000000E+00   0.0000000E+00   0.0000000E+00   0.0000000E+00   0.0000000E+00   0.0000000E+00   0.0000000E+00   0.0000000E+00   0.0000000E+00   0.0000000E+00   0.0000000E+00   0.0000000E+00   0.0000000E+00   0.0000000E+00   0.0000000E+00   0.0000000E+00   0.0000000E+00   0.0000000E+00   0.0000000E+00   0.0000000E+00   0.0000000E+00   0.0000000E+00   0.0000000E+00   0.0000000E+00   0.0000000E+00   0.0000000E+00   0.0000000E+00   0.0000000E+00   0.0000000E+00   0.0000000E+00   0.0000000E+00   0.0000000E+00   0.0000000E+00   0.0000000E+00   0.0000000E+00   0.0000000E+00   0.0000000E+00   0.0000000E+00   0.0000000E+00   0.0000000E+00   0.0000000E+00   0.0000000E+00   0.0000000E+00   0.0000000E+00   0.0000000E+00   0.0000000E+00   0.0000000E+00   0.0000000E+00   0.0000000E+00   0.0000000E+00   0.0000000E+00   0.0000000E+00   0.0000000E+00   0.0000000E+00   0.0000000E+00   0.0000000E+00   0.0000000E+00   0.0000000E+00   0.0000000E+00   0.0000000E+00   0.0000000E+00   0.0000000E+00   0.0000000E+00   0.0000000E+00   0.0000000E+00   0.0000000E+00   0.0000000E+00   0.0000000E+00   0.0000000E+00   0.0000000E+00   0.0000000E+00   0.0000000E+00   0.0000000E+00   0.0000000E+00   0.0000000E+00   0.0000000E+00   0.0000000E+00   0.0000000E+00   0.0000000E+00   0.0000000E+00   0.0000000E+00   0.0000000E+00   0.0000000E+00   0.0000000E+00   0.0000000E+00   0.0000000E+00   0.0000000E+00   0.0000000E+00   0.0000000E+00   0.0000000E+00   0.0000000E+00   0.0000000E+00   0.0000000E+00   0.0000000E+00   0.0000000E+00   0.0000000E+00   0.0000000E+00   0.0000000E+00   0.0000000E+00   0.0000000E+00   0.0000000E+00   0.0000000E+00   0.0000000E+00   0.0000000E+00   0.0000000E+00   0.0000000E+00   0.0000000E+00   0.0000000E+00   0.0000000E+00   0.0000000E+00   0.0000000E+00   0.0000000E+00   0.0000000E+00   0.0000000E+00   0.0000000E+00   0.0000000E+00   0.0000000E+00   0.0000000E+00   0.0000000E+00   0.0000000E+00   0.0000000E+00   0.0000000E+00   0.0000000E+00   0.0000000E+00   0.0000000E+00   0.0000000E+00   0.0000000E+00   0.0000000E+00   0.0000000E+00   0.0000000E+00   0.0000000E+00   0.0000000E+00   0.0000000E+00   0.0000000E+00   0.0000000E+00   0.0000000E+00   0.0000000E+00   0.0000000E+00   0.0000000E+00   0.0000000E+00   0.0000000E+00   0.0000000E+00   0.0000000E+00   0.0000000E+00   0.0000000E+00   0.0000000E+00   0.0000000E+00   0.0000000E+00   0.0000000E+00   0.0000000E+00   0.0000000E+00   0.0000000E+00   0.0000000E+00   0.0000000E+00   0.0000000E+00   0.0000000E+00   0.0000000E+00   0.0000000E+00   0.0000000E+00   0.0000000E+00   0.0000000E+00   0.0000000E+00   0.0000000E+00   0.0000000E+00   0.0000000E+00   0.0000000E+00   0.0000000E+00   0.0000000E+00   0.0000000E+00   0.0000000E+00   0.0000000E+00   0.0000000E+00   0.0000000E+00   0.0000000E+00   0.0000000E+00   0.0000000E+00   0.0000000E+00   0.0000000E+00  -2.5357395E-01  -2.3553103E-01  -2.0750755E-01  -1.7623118E-01  -1.4453024E-01  -3.3211899E-01  -2.9111719E-01  -2.7499801E-01  -2.4641782E-01  -2.1241829E-01  -1.7591569E-01  -3.4922314E-01  -3.1032085E-01  -2.8556490E-01  -2.5471961E-01  -2.2179201E-01  -1.8492542E-01  -3.5730410E-01  -3.0950451E-01  -2.8253603E-01  -2.5145674E-01  -2.1872658E-01  -1.8285123E-01  -3.6617756E-01  -3.0111861E-01  -2.7067661E-01  -2.4003386E-01  -2.0798567E-01  -1.7359236E-01  -3.8156700E-01  -2.8908634E-01  -2.5199926E-01  -2.2155744E-01  -1.9195992E-01  -1.5996104E-01  -4.1217089E-01  -2.7979326E-01  -2.3072124E-01  -1.9799674E-01  -1.7298353E-01  -1.4515740E-01  -4.6772003E-01  -2.8273153E-01  -2.1686625E-01  -1.7841411E-01  -1.5904677E-01  -1.3544838E-01  -5.3365088E-01  -3.0194902E-01  -2.2036862E-01  -1.7550683E-01  -1.5923709E-01  -1.4126648E-01  -5.4242516E-01  -3.2427263E-01  -2.3962045E-01  -2.0156443E-01  -1.8608850E-01  -1.7387690E-01  -4.7910404E-01  -3.3898830E-01  -2.7264643E-01  -2.5268197E-01  -2.5176024E-01  -2.4501343E-01  -7.0611572E-01  -4.5662308E-01  -3.7234688E-01  -3.5539246E-01  -3.6233634E-01  -3.6351988E-01  -1.8350258E+00  -1.0843172E+00  -7.2074604E-01  -5.8601236E-01  -5.5640393E-01  -5.4365706E-01  -2.8464808E+00  -1.9111080E+00  -1.2785659E+00  -9.7861421E-01  -8.6371803E-01  -8.0505657E-01  -3.5108666E+00  -2.5944548E+00  -1.8773047E+00  -1.4620504E+00  -1.2600493E+00  -1.1302967E+00  -4.0493073E+00  -3.1421154E+00  -2.4290960E+00  -1.9607409E+00  -1.6821713E+00  -1.4962178E+00  -4.5618649E+00  -3.6199834E+00  -2.9108222E+00  -2.4306188E+00  -2.1098413E+00  -1.8863753E+00  -5.1005139E+00  -4.0938244E+00  -3.3443413E+00  -2.8564239E+00  -2.5174625E+00  -2.2725556E+00  -5.6669011E+00  -4.5672417E+00  -3.7576370E+00  -3.2466469E+00  -2.9165740E+00  -2.6638832E+00  -6.2617273E+00  -5.0446725E+00  -4.1597004E+00  -3.6315935E+00  -3.3039360E+00  -3.0535386E+00  -6.8895988E+00  -5.5234742E+00  -4.5594325E+00  -4.0166020E+00  -3.6914504E+00  -3.4448538E+00  -7.5301962E+00  -6.0064502E+00  -4.9639273E+00  -4.4078498E+00  -4.0831299E+00  -3.8374670E+00  -8.1852865E+00  -6.4892011E+00  -5.3841643E+00  -4.8065739E+00  -4.4783883E+00  -4.2261715E+00  -8.8515091E+00  -6.9676795E+00  -5.8120012E+00  -5.2035999E+00  -4.8675699E+00  -4.5927844E+00  -9.5220680E+00  -7.4373837E+00  -6.2335229E+00  -5.5828609E+00  -5.2378836E+00  -4.9286251E+00  -1.0188381E+01  -7.9050002E+00  -6.6372542E+00  -5.9266930E+00  -5.5718961E+00  -5.2206945E+00  -1.0830651E+01  -8.3815203E+00  -7.0511818E+00  -6.2455039E+00  -5.8462925E+00  -5.4459500E+00  -1.1541248E+01  -8.8507271E+00  -7.3832150E+00  -6.5015039E+00  -6.0414667E+00  -5.5560870E+00  -1.2311299E+01  -9.3491411E+00  -7.6660013E+00  -6.7399893E+00  -6.1679978E+00  -5.6204576E+00  -1.3194398E+01  -9.9557209E+00  -8.0001068E+00  -6.8843069E+00  -6.2405987E+00  -5.5465636E+00  -1.4221534E+01  -1.0796813E+01  -8.7162066E+00  -7.0376811E+00  -6.0713210E+00  -5.2812037E+00  -1.5916318E+01  -1.2318490E+01  -9.4696293E+00  -6.9768896E+00  -5.7458572E+00  -4.8768516E+00  -1.8022537E+01  -1.4791070E+01  -1.0749153E+01  -7.3984861E+00  -5.4833407E+00  -4.3215590E+00  -2.0059628E+01  -1.8965496E+01  -1.3016078E+01  -8.5861797E+00  -5.4181237E+00  -3.5478954E+00  -2.1317760E+01  -2.4117125E+01  -1.5986489E+01  -1.0151582E+01  -5.6269164E+00  -2.9952276E+00  -2.3480234E+01  -2.7106482E+01  -1.7426428E+01  -1.3082323E+01  -8.2068586E+00  -4.6958027E+00  -2.3565975E+01  -2.8354103E+01  -1.9597916E+01  -1.5646603E+01  -1.2919950E+01  -1.0945558E+01  -2.3033325E+01  -3.1829765E+01  -2.0171474E+01  -1.4430426E+01  -1.1283882E+01  -9.8369751E+00  -2.2466387E+01  -3.5389503E+01  -2.0486578E+01  -1.3282152E+01  -9.3236809E+00  -7.4939022E+00  -2.1943224E+01  -3.7534649E+01  -2.1211264E+01  -1.2989664E+01  -8.3423643E+00  -5.6842937E+00  -2.1622450E+01  -3.8363079E+01  -2.2648331E+01  -1.3320196E+01  -7.9083433E+00  -4.8933601E+00  -2.1560213E+01  -3.8314377E+01  -2.3475504E+01  -1.4336739E+01  -8.4849997E+00  -5.0468836E+00  -2.1583265E+01  -3.7598438E+01  -2.3686451E+01  -1.5291526E+01  -9.4388771E+00  -5.7557092E+00  -2.1673504E+01  -3.6646076E+01  -2.3616831E+01  -1.5999646E+01  -1.0391678E+01  -6.6469555E+00  -2.1914694E+01  -3.5667942E+01  -2.3511827E+01  -1.6452326E+01  -1.1121816E+01  -7.4303818E+00  -2.2397720E+01  -3.4788696E+01  -2.3571362E+01  -1.6704926E+01  -1.1532031E+01  -7.9360571E+00  -2.3053444E+01  -3.3517414E+01  -2.3616289E+01  -1.6703743E+01  -1.1589874E+01  -8.1155357E+00  -2.4326519E+01  -3.1776691E+01  -2.2821852E+01  -1.6023447E+01  -1.1530940E+01  -8.3764095E+00  -2.5639181E+01  -3.0445131E+01  -2.1882050E+01  -1.5689373E+01  -1.1563168E+01  -8.6753435E+00  -2.6554028E+01  -2.9293232E+01  -2.0832254E+01  -1.5051720E+01  -1.1323435E+01  -8.8527308E+00  -2.6291740E+01  -2.8416590E+01  -1.8874811E+01  -1.4193295E+01  -1.1220430E+01  -9.0893822E+00  -2.4485308E+01  -2.6577650E+01  -1.7269419E+01  -1.3415201E+01  -1.0987875E+01  -9.2151270E+00  -2.4204779E+01  -2.3623945E+01  -1.6379850E+01  -1.2841289E+01  -1.0834902E+01  -9.0657473E+00  -2.3794098E+01  -2.0900578E+01  -1.5456816E+01  -1.2161770E+01  -1.0360110E+01  -8.9059944E+00  -2.2857460E+01  -1.9286024E+01  -1.4579855E+01  -1.1571925E+01  -9.9623966E+00  -8.5431252E+00  -1.8017061E+01  -1.3549854E+01  -1.0533706E+01  -9.2902088E+00  -8.1039600E+00  -1.6958620E+01  -1.2741095E+01  -9.3183498E+00  -8.2168446E+00  -7.3466125E+00  -1.2411594E+01  -8.6094408E+00  -6.9798379E+00  -6.4406877E+00  -1.2365329E+01  -8.7024240E+00  -6.1316767E+00  -5.4332576E+00  -9.5987186E+00  -6.4181309E+00  -4.9945269E+00  -7.6150060E+00  -5.6206946E+00  -8.2472610E+00  -6.7960210E+00  -1.1523655E-01  -8.8244528E-02  -6.5875560E-02  -4.7362790E-02  -3.2632537E-02  -2.1601286E-02  -1.3390319E-02  -7.6187691E-03  -3.3862418E-03  -1.4039221E-01  -1.0854651E-01  -8.1813432E-02  -5.9090462E-02  -4.1333873E-02  -2.7661318E-02  -1.7504759E-02  -1.0113364E-02  -4.5893276E-03  -1.4917088E-01  -1.1651975E-01  -8.7995932E-02  -6.4064026E-02  -4.5106649E-02  -3.0402621E-02  -1.9450851E-02  -1.1278915E-02  -5.1633408E-03  -1.4775404E-01  -1.1602464E-01  -8.7474704E-02  -6.3833684E-02  -4.4755984E-02  -3.0211460E-02  -1.9262474E-02  -1.1188620E-02  -5.1092585E-03  -1.4034092E-01  -1.0988132E-01  -8.2588106E-02  -6.0178243E-02  -4.1855868E-02  -2.8074989E-02  -1.7725835E-02  -1.0213174E-02  -4.6423851E-03  -1.2974498E-01  -1.0104896E-01  -7.6014318E-02  -5.5002511E-02  -3.8264580E-02  -2.5365153E-02  -1.5960122E-02  -9.1276485E-03  -4.1252784E-03  -1.1941502E-01  -9.3674868E-02  -7.1312979E-02  -5.1873427E-02  -3.6419544E-02  -2.4438938E-02  -1.5534463E-02  -9.0484079E-03  -4.1249353E-03  -1.1497537E-01  -9.2952020E-02  -7.2967567E-02  -5.5187821E-02  -4.0307615E-02  -2.8292082E-02  -1.8818101E-02  -1.1422301E-02  -5.3725652E-03  -1.2449081E-01  -1.0637708E-01  -8.8086970E-02  -7.0514135E-02  -5.4358285E-02  -4.0421091E-02  -2.8392594E-02  -1.8020106E-02  -8.7404568E-03  -1.6028045E-01  -1.4359067E-01  -1.2432354E-01  -1.0401843E-01  -8.3699867E-02  -6.4712182E-02  -4.7112484E-02  -3.0719411E-02  -1.5166041E-02  -2.3300312E-01  -2.1375862E-01  -1.8946902E-01  -1.6189398E-01  -1.3329794E-01  -1.0504065E-01  -7.7735901E-02  -5.1381223E-02  -2.5561113E-02  -3.5075763E-01  -3.2295635E-01  -2.8929919E-01  -2.4919499E-01  -2.0693922E-01  -1.6445468E-01  -1.2274418E-01  -8.1410140E-02  -4.0466882E-02  -5.1594281E-01  -4.7632757E-01  -4.2624071E-01  -3.6845866E-01  -3.0819049E-01  -2.4583839E-01  -1.8355455E-01  -1.2268915E-01  -6.1474591E-02  -7.3850930E-01  -6.7460483E-01  -6.0257781E-01  -5.2147818E-01  -4.3706375E-01  -3.5080793E-01  -2.6169947E-01  -1.7387606E-01  -8.6443841E-02  -1.0194086E+00  -9.1990113E-01  -8.2078654E-01  -7.0925206E-01  -5.9204453E-01  -4.7590604E-01  -3.5921550E-01  -2.3888519E-01  -1.1967729E-01  -1.3487054E+00  -1.2092443E+00  -1.0687230E+00  -9.2857718E-01  -7.7840531E-01  -6.2292606E-01  -4.7102001E-01  -3.1570834E-01  -1.5915605E-01  -1.6969128E+00  -1.5231011E+00  -1.3460447E+00  -1.1723139E+00  -9.8595303E-01  -7.9257357E-01  -5.9469414E-01  -4.0047857E-01  -1.9932202E-01  -2.0586236E+00  -1.8576046E+00  -1.6507839E+00  -1.4375751E+00  -1.2120978E+00  -9.7782075E-01  -7.3165059E-01  -4.9169698E-01  -2.4454494E-01  -2.4374285E+00  -2.2166402E+00  -1.9762981E+00  -1.7211469E+00  -1.4504565E+00  -1.1702286E+00  -8.7589866E-01  -5.8460921E-01  -2.9174715E-01  -2.8179500E+00  -2.5723822E+00  -2.3008382E+00  -2.0072222E+00  -1.6883454E+00  -1.3601986E+00  -1.0211737E+00  -6.7756534E-01  -3.3994442E-01  -3.1967044E+00  -2.9261270E+00  -2.6202729E+00  -2.2850649E+00  -1.9167049E+00  -1.5411854E+00  -1.1552860E+00  -7.6467466E-01  -3.8619795E-01  -3.5742702E+00  -3.2690787E+00  -2.9230478E+00  -2.5407748E+00  -2.1234343E+00  -1.7012212E+00  -1.2700398E+00  -8.3770514E-01  -4.2595714E-01  -3.9375849E+00  -3.5890348E+00  -3.1951320E+00  -2.7627165E+00  -2.2952428E+00  -1.8280257E+00  -1.3604144E+00  -8.9765495E-01  -4.4711792E-01  -4.2743745E+00  -3.8723171E+00  -3.4233994E+00  -2.9364476E+00  -2.4283335E+00  -1.9121183E+00  -1.4144804E+00  -9.4002098E-01  -4.6892002E-01  -4.5712409E+00  -4.1069465E+00  -3.5971425E+00  -3.0505960E+00  -2.4921834E+00  -1.9566058E+00  -1.4341702E+00  -9.5130599E-01  -4.7032711E-01  -4.8178782E+00  -4.3003082E+00  -3.7084348E+00  -3.1029963E+00  -2.4973106E+00  -1.9185566E+00  -1.4031296E+00  -9.1416842E-01  -4.5035112E-01  -4.9977942E+00  -4.4284863E+00  -3.7754722E+00  -3.0815721E+00  -2.4362733E+00  -1.8401388E+00  -1.3064368E+00  -8.3041936E-01  -4.0599975E-01  -5.0694051E+00  -4.4641619E+00  -3.7614558E+00  -3.0307949E+00  -2.3361847E+00  -1.7153963E+00  -1.1836556E+00  -7.3574716E-01  -3.5061702E-01  -5.0543065E+00  -4.4060535E+00  -3.6687758E+00  -2.8958871E+00  -2.1753128E+00  -1.5599314E+00  -1.0574746E+00  -6.4913642E-01  -3.0007958E-01  -4.9048576E+00  -4.1996913E+00  -3.4440041E+00  -2.6778541E+00  -1.9670672E+00  -1.3790690E+00  -9.1593516E-01  -5.4208392E-01  -2.5442722E-01  -4.6388416E+00  -3.9209559E+00  -3.1388762E+00  -2.3977721E+00  -1.7347965E+00  -1.2135109E+00  -7.7617949E-01  -4.6418819E-01  -2.2546278E-01  -4.1664176E+00  -3.4148116E+00  -2.6531994E+00  -2.0026884E+00  -1.4710295E+00  -1.0867312E+00  -7.8253698E-01  -4.7079101E-01  -2.4211541E-01  -3.4129505E+00  -2.6189055E+00  -1.9440069E+00  -1.5050746E+00  -1.2037483E+00  -9.8609215E-01  -7.0905739E-01  -4.1400552E-01  -2.0425700E-01  -2.2845426E+00  -1.3667684E+00  -7.8907722E-01  -6.2206358E-01  -4.8874348E-01  -4.9030396E-01  -3.8440752E-01  -2.7857500E-01  -9.6590914E-02  -1.4670445E+00  -2.9310662E-01   1.0054340E-01  -2.4392704E-02  -3.1488389E-01  -7.9932171E-01  -1.0746946E+00  -1.0918225E+00  -6.6511214E-01  -2.6154592E+00  -1.2153466E+00  -7.8813219E-01  -1.3428680E+00  -2.2534800E+00  -3.1268010E+00  -3.3040254E+00  -2.7119887E+00  -1.5356050E+00  -9.0613976E+00  -8.0957413E+00  -7.8837357E+00  -8.0338373E+00  -8.0484543E+00  -7.7174368E+00  -6.7405467E+00  -5.0574937E+00  -2.7233706E+00  -8.5014515E+00  -7.8817525E+00  -7.7660680E+00  -7.9290652E+00  -8.1383953E+00  -8.0035553E+00  -7.1560202E+00  -5.4371977E+00  -2.9447978E+00  -6.3210478E+00  -6.0713711E+00  -6.3902264E+00  -7.0125680E+00  -7.6347318E+00  -7.8185377E+00  -7.1705437E+00  -5.5300479E+00  -3.0182436E+00  -4.6014829E+00  -4.5458388E+00  -5.1326203E+00  -6.0572853E+00  -6.9700694E+00  -7.4031191E+00  -6.9447165E+00  -5.4275727E+00  -2.9829407E+00  -3.6772072E+00  -3.6127827E+00  -4.2637062E+00  -5.2960501E+00  -6.3408589E+00  -6.9171376E+00  -6.5998182E+00  -5.2110071E+00  -2.8795204E+00  -3.5616364E+00  -3.3345964E+00  -3.8779957E+00  -4.8460264E+00  -5.8752327E+00  -6.4853864E+00  -6.2431908E+00  -4.9585195E+00  -2.7490294E+00  -4.0225000E+00  -3.5722060E+00  -3.9088929E+00  -4.7026405E+00  -5.6131868E+00  -6.1715765E+00  -5.9424396E+00  -4.7251139E+00  -2.6220245E+00  -4.7453132E+00  -4.0842924E+00  -4.1920662E+00  -4.7723489E+00  -5.5169301E+00  -5.9748049E+00  -5.7155161E+00  -4.5321841E+00  -2.5122135E+00  -5.4472270E+00  -4.6310220E+00  -4.5434337E+00  -4.9263844E+00  -5.5049615E+00  -5.8496847E+00  -5.5415668E+00  -4.3729248E+00  -2.4184256E+00  -5.9444804E+00  -5.0425057E+00  -4.8184719E+00  -5.0488787E+00  -5.4895825E+00  -5.7344289E+00  -5.3807292E+00  -4.2244616E+00  -2.3305092E+00  -6.1871061E+00  -5.2651687E+00  -4.9577308E+00  -5.0736771E+00  -5.4029841E+00  -5.5578299E+00  -5.1684556E+00  -4.0379601E+00  -2.2226515E+00  -6.4909658E+00  -5.4494143E+00  -5.0020647E+00  -4.9886909E+00  -5.1962667E+00  -5.2693591E+00  -4.8522100E+00  -3.7698545E+00  -2.0676870E+00  -6.8088102E+00  -5.6828942E+00  -5.1241550E+00  -4.9749479E+00  -5.0382957E+00  -4.9991260E+00  -4.5479889E+00  -3.5193684E+00  -1.9354827E+00  -7.2019715E+00  -6.0968156E+00  -5.3844280E+00  -5.0865793E+00  -5.0025210E+00  -4.8425241E+00  -4.3218980E+00  -3.2922590E+00  -1.7874898E+00  -7.3665709E+00  -6.3875570E+00  -5.7335725E+00  -5.4136548E+00  -5.1981201E+00  -4.8791151E+00  -4.2242775E+00  -3.1498845E+00  -1.6910760E+00  -7.7839079E+00  -6.6529579E+00  -6.0272117E+00  -5.6552134E+00  -5.3090272E+00  -4.8584704E+00  -4.1449981E+00  -3.0632825E+00  -1.6340787E+00  -7.8619456E+00  -6.9992142E+00  -6.3431587E+00  -5.8026562E+00  -5.3694730E+00  -4.8144312E+00  -4.0239220E+00  -2.9215589E+00  -1.5430615E+00  -7.8625312E+00  -7.0826392E+00  -6.4933786E+00  -6.0602193E+00  -5.3723702E+00  -4.6746578E+00  -3.8034244E+00  -2.7138784E+00  -1.4191034E+00  -7.6029987E+00  -6.9592223E+00  -6.4550591E+00  -5.9530120E+00  -5.3999510E+00  -4.6500893E+00  -3.6194196E+00  -2.5359676E+00  -1.3157960E+00  -7.2190189E+00  -6.6068077E+00  -6.1738496E+00  -5.7829189E+00  -5.1755295E+00  -4.3991141E+00  -3.4887073E+00  -2.3684316E+00  -1.2084851E+00  -6.5781240E+00  -6.0647998E+00  -5.7234087E+00  -5.3585696E+00  -4.8974328E+00  -4.1464343E+00  -3.2108119E+00  -2.1810141E+00  -1.1344743E+00  -5.7999234E+00  -5.3455300E+00  -4.9802456E+00  -4.7240109E+00  -4.3799028E+00  -3.8132885E+00  -2.9733050E+00  -1.9644600E+00  -9.8609728E-01  -4.9845653E+00  -4.5308886E+00  -4.1943383E+00  -3.8611767E+00  -3.6489484E+00  -3.2823398E+00  -2.6307971E+00  -1.7702508E+00  -8.2775927E-01  -4.2686772E+00  -3.7553964E+00  -3.3822083E+00  -2.9996624E+00  -2.6640456E+00  -2.4713607E+00  -2.1297195E+00  -1.4278623E+00  -6.7823201E-01  -4.1556287E+00  -3.3199689E+00  -2.6668184E+00  -2.2257998E+00  -1.8004516E+00  -1.4132986E+00  -1.2464914E+00  -9.3726331E-01  -4.8469397E-01  -4.7194510E+00  -3.3892024E+00  -2.5190713E+00  -1.7260153E+00  -1.0660909E+00  -4.7280851E-01  -2.0230968E-01  -2.7561748E-01  -1.7075621E-01  -5.5131803E+00  -3.6051121E+00  -2.5442691E+00  -1.6875468E+00  -9.0566766E-01  -1.0094349E-01   6.5775979E-01   6.1359227E-01   1.2282106E-01  -4.0693498E+00  -2.5447588E+00  -1.2684009E+00  -6.5607858E-01  -1.0001059E-01   1.3039307E-01   3.3066612E-01  -1.4295162E-01  -1.1103419E+00  -1.8607166E-01   4.8819092E-01   3.9853758E-01  -4.2952004E-01  -8.2002258E-01   7.8375947E-01   1.2128906E+00   8.2897103E-01   3.2894224E-02  -3.9578003E-07   3.3862549E-03   7.6186759E-03   1.3390400E-02   2.1601185E-02   3.2632336E-02   4.7362603E-02   6.5875888E-02   6.7462918E-07   4.5878901E-03   1.0112740E-02   1.7505033E-02   2.7661119E-02   4.1334014E-02   5.9090249E-02   8.1813112E-02   1.3212034E-06   5.1627150E-03   1.1279421E-02   1.9450335E-02   3.0402780E-02   4.5106456E-02   6.4063802E-02   8.7996587E-02  -1.1030684E-06   5.1075588E-03   1.1188215E-02   1.9262044E-02   3.0211654E-02   4.4755898E-02   6.3833743E-02   8.7473772E-02  -8.8420165E-08   4.6422803E-03   1.0212172E-02   1.7725376E-02   2.8075207E-02   4.1855972E-02   6.0178943E-02   8.2587734E-02   1.4296811E-06   4.1283602E-03   9.1273971E-03   1.5959602E-02   2.5365202E-02   3.8264778E-02   5.5002753E-02   7.6013498E-02  -1.6318590E-06   4.1253841E-03   9.0472493E-03   1.5534253E-02   2.4439147E-02   3.6418959E-02   5.1873140E-02   7.1311526E-02   3.8119242E-07   5.3721829E-03   1.1421296E-02   1.8817535E-02   2.8292062E-02   4.0308118E-02   5.5185340E-02   7.2966695E-02  -2.2089171E-07   8.7397816E-03   1.8019132E-02   2.8393431E-02   4.0419213E-02   5.4358076E-02   7.0511095E-02   8.8086419E-02   1.6602189E-06   1.5170527E-02   3.0719092E-02   4.7113426E-02   6.4712241E-02   8.3701290E-02   1.0401567E-01   1.2432526E-01  -5.2117271E-06   2.5556309E-02   5.1381316E-02   7.7733174E-02   1.0503922E-01   1.3329911E-01   1.6189510E-01   1.8946876E-01   2.2240188E-06   4.0469758E-02   8.1413932E-02   1.2274289E-01   1.6445532E-01   2.0693818E-01   2.4919617E-01   2.8929785E-01   1.2447299E-06   6.1477326E-02   1.2269008E-01   1.8355450E-01   2.4583891E-01   3.0819151E-01   3.6845881E-01   4.2624307E-01   2.5546162E-06   8.6445853E-02   1.7387189E-01   2.6169530E-01   3.5080871E-01   4.3706167E-01   5.2147961E-01   6.0257721E-01   1.5140629E-06   1.1968029E-01   2.3888421E-01   3.5921460E-01   4.7590524E-01   5.9204149E-01   7.0924962E-01   8.2078624E-01   2.9897274E-07   1.5915708E-01   3.1570733E-01   4.7101980E-01   6.2292594E-01   7.7840507E-01   9.2858022E-01   1.0687121E+00  -4.3330965E-06   1.9932507E-01   4.0047973E-01   5.9469354E-01   7.9257661E-01   9.8595679E-01   1.1723140E+00   1.3460525E+00   1.3773542E-05   2.4455716E-01   4.9170703E-01   7.3165417E-01   9.7782975E-01   1.2121063E+00   1.4375823E+00   1.6507809E+00   6.4093347E-06   2.9174745E-01   5.8461457E-01   8.7590867E-01   1.1702418E+00   1.4504701E+00   1.7211597E+00   1.9763024E+00   4.9019600E-06   3.3995265E-01   6.7758238E-01   1.0211880E+00   1.3602237E+00   1.6883743E+00   2.0072353E+00   2.3008444E+00   7.7639488E-06   3.8619453E-01   7.6467836E-01   1.1553034E+00   1.5412159E+00   1.9167393E+00   2.2850857E+00   2.6202803E+00   2.0875243E-05   4.2597637E-01   8.3772349E-01   1.2700580E+00   1.7012566E+00   2.1234756E+00   2.5408132E+00   2.9230304E+00  -6.9658308E-06   4.4714740E-01   8.9766896E-01   1.3604468E+00   1.8280573E+00   2.2952788E+00   2.7627423E+00   3.1951404E+00  -6.5641143E-07   4.6892521E-01   9.4003242E-01   1.4144962E+00   1.9121457E+00   2.4283621E+00   2.9364610E+00   3.4233894E+00  -1.2135294E-05   4.7034115E-01   9.5130336E-01   1.4341754E+00   1.9566150E+00   2.4921918E+00   3.0506084E+00   3.5971467E+00  -1.1915158E-05   4.5033619E-01   9.1418058E-01   1.4031377E+00   1.9185648E+00   2.4973142E+00   3.1030078E+00   3.7084482E+00  -4.4234257E-06   4.0600768E-01   8.3042812E-01   1.3064382E+00   1.8401408E+00   2.4362721E+00   3.0815718E+00   3.7754669E+00   1.0852651E-05   3.5063189E-01   7.3574668E-01   1.1836599E+00   1.7153995E+00   2.3361900E+00   3.0308011E+00   3.7614596E+00  -4.0763334E-06   3.0007204E-01   6.4915276E-01   1.0574790E+00   1.5599360E+00   2.1753068E+00   2.8958964E+00   3.6687958E+00  -2.5078189E-06   2.5442773E-01   5.4209012E-01   9.1593635E-01   1.3790702E+00   1.9670559E+00   2.6778517E+00   3.4440107E+00   4.7786980E-06   2.2547245E-01   4.6418691E-01   7.7618241E-01   1.2135082E+00   1.7347934E+00   2.3977590E+00   3.1388791E+00  -3.7657737E-06   2.4212030E-01   4.7079620E-01   7.8253049E-01   1.0867289E+00   1.4710228E+00   2.0026951E+00   2.6531963E+00   3.1312811E-06   2.0426284E-01   4.1401383E-01   7.0903879E-01   9.8608577E-01   1.2037458E+00   1.5050781E+00   1.9440432E+00  -1.0883668E-05   9.6605673E-02   2.7860883E-01   3.8440779E-01   4.9029630E-01   4.8871347E-01   6.2205762E-01   7.8907365E-01   5.9444574E-07   6.6512191E-01   1.0918229E+00   1.0747056E+00   7.9932749E-01   3.1487495E-01   2.4383940E-02  -1.0055120E-01   2.3080676E-05   1.5355905E+00   2.7119761E+00   3.3040426E+00   3.1267960E+00   2.2534885E+00   1.3428850E+00   7.8815037E-01   5.2350515E-06   2.7233787E+00   5.0574870E+00   6.7405515E+00   7.7174373E+00   8.0484600E+00   8.0338278E+00   7.8837538E+00  -5.7259022E-06   2.9448183E+00   5.4371953E+00   7.1560159E+00   8.0035534E+00   8.1384058E+00   7.9290810E+00   7.7660751E+00   3.5849807E-06   3.0182357E+00   5.5300322E+00   7.1705441E+00   7.8185506E+00   7.6347337E+00   7.0125680E+00   6.3902388E+00  -5.6702993E-06   2.9829409E+00   5.4275742E+00   6.9447222E+00   7.4031286E+00   6.9700875E+00   6.0573134E+00   5.1326361E+00  -1.6460981E-06   2.8795104E+00   5.2110009E+00   6.5998292E+00   6.9171400E+00   6.3408766E+00   5.2960682E+00   4.2637353E+00   3.3971446E-06   2.7490315E+00   4.9585152E+00   6.2431931E+00   6.4853835E+00   5.8752484E+00   4.8460531E+00   3.8780382E+00   3.4835830E-06   2.6220658E+00   4.7251043E+00   5.9424381E+00   6.1715732E+00   5.6131902E+00   4.7026544E+00   3.9089410E+00   4.0106795E-05   2.5122538E+00   4.5322018E+00   5.7155070E+00   5.9748001E+00   5.5169420E+00   4.7723751E+00   4.1921005E+00   2.7178030E-05   2.4184349E+00   4.3729277E+00   5.5415564E+00   5.8496742E+00   5.5049667E+00   4.9263906E+00   4.5434399E+00   3.1306932E-05   2.3305364E+00   4.2244573E+00   5.3807259E+00   5.7344112E+00   5.4895740E+00   5.0488691E+00   4.8185029E+00   1.1246564E-05   2.2226944E+00   4.0379615E+00   5.1684427E+00   5.5578151E+00   5.4029717E+00   5.0736742E+00   4.9577327E+00   1.1662167E-05   2.0676980E+00   3.7698591E+00   4.8522000E+00   5.2693553E+00   5.1962652E+00   4.9886899E+00   5.0020666E+00   3.1846866E-06   1.9355054E+00   3.5193810E+00   4.5479946E+00   4.9991226E+00   5.0383019E+00   4.9749436E+00   5.1241469E+00   6.3396874E-07   1.7874980E+00   3.2922673E+00   4.3219047E+00   4.8425250E+00   5.0025105E+00   5.0865684E+00   5.3844218E+00  -2.9050425E-06   1.6910933E+00   3.1498775E+00   4.2242789E+00   4.8791056E+00   5.1981134E+00   5.4136639E+00   5.7335653E+00  -5.2414834E-06   1.6340785E+00   3.0632772E+00   4.1449933E+00   4.8584547E+00   5.3090224E+00   5.6552224E+00   6.0272136E+00   1.5353333E-05   1.5430627E+00   2.9215579E+00   4.0239210E+00   4.8144336E+00   5.3694649E+00   5.8026509E+00   6.3431406E+00   7.6870929E-06   1.4191203E+00   2.7138748E+00   3.8034222E+00   4.6746483E+00   5.3723640E+00   6.0602098E+00   6.4933643E+00   1.2737073E-05   1.3157854E+00   2.5359666E+00   3.6194167E+00   4.6500802E+00   5.3999529E+00   5.9530139E+00   6.4550490E+00   2.9028452E-06   1.2084864E+00   2.3684206E+00   3.4887006E+00   4.3991189E+00   5.1755257E+00   5.7829027E+00   6.1738605E+00   6.8045410E-06   1.1344868E+00   2.1810260E+00   3.2108080E+00   4.1464353E+00   4.8974400E+00   5.3585744E+00   5.7234149E+00   5.3619151E-06   9.8610353E-01   1.9644732E+00   2.9733038E+00   3.8132901E+00   4.3798890E+00   4.7240195E+00   4.9802227E+00   9.5925279E-06   8.2776332E-01   1.7702619E+00   2.6307974E+00   3.2823460E+00   3.6489432E+00   3.8611705E+00   4.1943231E+00   1.6715785E-05   6.7826408E-01   1.4278773E+00   2.1297269E+00   2.4713516E+00   2.6640458E+00   2.9996591E+00   3.3821919E+00   1.7563747E-05   4.8472425E-01   9.3729222E-01   1.2465010E+00   1.4132975E+00   1.8004339E+00   2.2257936E+00   2.6668181E+00   1.7435537E-05   1.7079975E-01   2.7564409E-01   2.0231338E-01   4.7279727E-01   1.0660548E+00   1.7259903E+00   2.5190463E+00   3.1110016E-05  -1.2276962E-01  -6.1355233E-01  -6.5785801E-01   1.0092127E-01   9.0563828E-01   1.6875174E+00   2.5442524E+00   2.8525479E-05   1.4300634E-01  -3.3063072E-01  -1.3039041E-01   9.9971712E-02   6.5603411E-01   1.2683563E+00   2.5447154E+00   3.1048316E-05   8.2006979E-01   4.2955101E-01  -3.9853790E-01  -4.8821497E-01   1.8603039E-01   1.1103077E+00   2.6901296E-05  -3.2858308E-02  -8.2894194E-01  -1.2128912E+00  -7.8378457E-01   8.8244870E-02   1.1523691E-01   1.4453071E-01   1.7623088E-01   2.0750773E-01   2.3553085E-01   2.5357497E-01   1.0854711E-01   1.4039104E-01   1.7591608E-01   2.1241808E-01   2.4641776E-01   2.7499813E-01   2.9111779E-01   3.3211899E-01   1.1651871E-01   1.4917058E-01   1.8492554E-01   2.2179186E-01   2.5471973E-01   2.8556514E-01   3.1031990E-01   3.4922338E-01   1.1602590E-01   1.4775518E-01   1.8285082E-01   2.1872681E-01   2.5145727E-01   2.8253460E-01   3.0950522E-01   3.5730481E-01   1.0988032E-01   1.4034024E-01   1.7359436E-01   2.0798615E-01   2.4003452E-01   2.7067626E-01   3.0111933E-01   3.6617923E-01   1.0104950E-01   1.2974641E-01   1.5996039E-01   1.9195965E-01   2.2155690E-01   2.5199986E-01   2.8908634E-01   3.8156700E-01   9.3675144E-02   1.1941449E-01   1.4515710E-01   1.7298409E-01   1.9799733E-01   2.3072171E-01   2.7979136E-01   4.1217184E-01   9.2951238E-02   1.1497521E-01   1.3545054E-01   1.5904689E-01   1.7841351E-01   2.1686530E-01   2.8272700E-01   4.6771955E-01   1.0637672E-01   1.2449252E-01   1.4127000E-01   1.5923631E-01   1.7550695E-01   2.2037005E-01   3.0194569E-01   5.3365231E-01   1.4358729E-01   1.6028020E-01   1.7387614E-01   1.8608844E-01   2.0156527E-01   2.3962212E-01   3.2427263E-01   5.4242420E-01   2.1375768E-01   2.3299931E-01   2.4501893E-01   2.5175983E-01   2.5268352E-01   2.7264786E-01   3.3898640E-01   4.7910118E-01   3.2295504E-01   3.5075787E-01   3.6352062E-01   3.6233413E-01   3.5539210E-01   3.7234545E-01   4.5663261E-01   7.0611763E-01   4.7632623E-01   5.1594073E-01   5.4365849E-01   5.5640203E-01   5.8601153E-01   7.2074485E-01   1.0843153E+00   1.8350277E+00   6.7460561E-01   7.3850715E-01   8.0505651E-01   8.6371940E-01   9.7861385E-01   1.2785649E+00   1.9111094E+00   2.8464813E+00   9.1991490E-01   1.0194104E+00   1.1303091E+00   1.2600499E+00   1.4620509E+00   1.8773066E+00   2.5944555E+00   3.5108633E+00   1.2092432E+00   1.3487095E+00   1.4962164E+00   1.6821685E+00   1.9607421E+00   2.4290960E+00   3.1421161E+00   4.0493069E+00   1.5231053E+00   1.6969085E+00   1.8863744E+00   2.1098378E+00   2.4306200E+00   2.9108214E+00   3.6199841E+00   4.5618644E+00   1.8576014E+00   2.0586157E+00   2.2725406E+00   2.5174582E+00   2.8564203E+00   3.3443418E+00   4.0938249E+00   5.1005144E+00   2.2166245E+00   2.4374132E+00   2.6638660E+00   2.9165559E+00   3.2466373E+00   3.7576337E+00   4.5672417E+00   5.6668997E+00   2.5723598E+00   2.8179357E+00   3.0535185E+00   3.3039172E+00   3.6315744E+00   4.1596923E+00   5.0446787E+00   6.2617254E+00   2.9261212E+00   3.1966763E+00   3.4448256E+00   3.6914184E+00   4.0165782E+00   4.5594206E+00   5.5234685E+00   6.8895960E+00   3.2690470E+00   3.5742350E+00   3.8374288E+00   4.0831013E+00   4.4078245E+00   4.9639139E+00   6.0064483E+00   7.5302005E+00   3.5890136E+00   3.9375465E+00   4.2261372E+00   4.4783602E+00   4.8065553E+00   5.3841515E+00   6.4891973E+00   8.1852894E+00   3.8722939E+00   4.2743568E+00   4.5927606E+00   4.8675461E+00   5.2035813E+00   5.8119936E+00   6.9676805E+00   8.8515091E+00   4.1069179E+00   4.5712419E+00   4.9286156E+00   5.2378674E+00   5.5828514E+00   6.2335153E+00   7.4373794E+00   9.5220623E+00   4.3003058E+00   4.8178654E+00   5.2206860E+00   5.5718894E+00   5.9266877E+00   6.6372542E+00   7.9049945E+00   1.0188376E+01   4.4284816E+00   4.9978166E+00   5.4459381E+00   5.8462896E+00   6.2455020E+00   7.0511770E+00   8.3815174E+00   1.0830653E+01   4.4641619E+00   5.0694122E+00   5.5560980E+00   6.0414653E+00   6.5014992E+00   7.3832145E+00   8.8507233E+00   1.1541249E+01   4.4060574E+00   5.0543108E+00   5.6204591E+00   6.1679931E+00   6.7399859E+00   7.6659989E+00   9.3491259E+00   1.2311291E+01   4.1996980E+00   4.9048824E+00   5.5465679E+00   6.2406015E+00   6.8843069E+00   8.0001125E+00   9.9557190E+00   1.3194409E+01   3.9209726E+00   4.6388435E+00   5.2812142E+00   6.0713253E+00   7.0376801E+00   8.7162085E+00   1.0796821E+01   1.4221521E+01   3.4148233E+00   4.1664181E+00   4.8768702E+00   5.7458706E+00   6.9768944E+00   9.4696589E+00   1.2318490E+01   1.5916309E+01   2.6189082E+00   3.4129634E+00   4.3215818E+00   5.4833322E+00   7.3985023E+00   1.0749146E+01   1.4791068E+01   1.8022518E+01   1.3667715E+00   2.2845497E+00   3.5478954E+00   5.4181123E+00   8.5861645E+00   1.3016105E+01   1.8965483E+01   2.0059620E+01   2.9311481E-01   1.4670420E+00   2.9952383E+00   5.6269073E+00   1.0151586E+01   1.5986479E+01   2.4117147E+01   2.1317781E+01   1.2153395E+00   2.6154747E+00   4.6957903E+00   8.2068396E+00   1.3082282E+01   1.7426401E+01   2.7106482E+01   2.3480230E+01   8.0957346E+00   9.0614109E+00   1.0945548E+01   1.2919921E+01   1.5646581E+01   1.9597883E+01   2.8354080E+01   2.3565987E+01   7.8817558E+00   8.5014496E+00   9.8369751E+00   1.1283867E+01   1.4430394E+01   2.0171431E+01   3.1829762E+01   2.3033329E+01   6.0713825E+00   6.3210549E+00   7.4938974E+00   9.3236618E+00   1.3282110E+01   2.0486572E+01   3.5389458E+01   2.2466436E+01   4.5458403E+00   4.6014948E+00   5.6842885E+00   8.3423405E+00   1.2989625E+01   2.1211222E+01   3.7534611E+01   2.1943310E+01   3.6128173E+00   3.6772177E+00   4.8933506E+00   7.9083109E+00   1.3320142E+01   2.2648277E+01   3.8363049E+01   2.1622459E+01   3.3346276E+00   3.5616553E+00   5.0468731E+00   8.4849586E+00   1.4336691E+01   2.3475454E+01   3.8314377E+01   2.1560246E+01   3.5722330E+00   4.0225263E+00   5.7557082E+00   9.4388390E+00   1.5291481E+01   2.3686403E+01   3.7598381E+01   2.1583220E+01   4.0843306E+00   4.7453461E+00   6.6469126E+00   1.0391630E+01   1.5999585E+01   2.3616762E+01   3.6646011E+01   2.1673500E+01   4.6310606E+00   5.4472384E+00   7.4303765E+00   1.1121777E+01   1.6452271E+01   2.3511774E+01   3.5667881E+01   2.1914734E+01   5.0425386E+00   5.9444947E+00   7.9360552E+00   1.1531995E+01   1.6704884E+01   2.3571304E+01   3.4788654E+01   2.2397743E+01   5.2651649E+00   6.1871247E+00   8.1155338E+00   1.1589858E+01   1.6703720E+01   2.3616238E+01   3.3517338E+01   2.3053427E+01   5.4494205E+00   6.4909630E+00   8.3764143E+00   1.1530935E+01   1.6023430E+01   2.2821831E+01   3.1776678E+01   2.4326508E+01   5.6829000E+00   6.8088284E+00   8.6753407E+00   1.1563176E+01   1.5689382E+01   2.1882040E+01   3.0445114E+01   2.5639194E+01   6.0968161E+00   7.2019653E+00   8.8527231E+00   1.1323438E+01   1.5051724E+01   2.0832251E+01   2.9293215E+01   2.6554024E+01   6.3875680E+00   7.3665609E+00   9.0893745E+00   1.1220437E+01   1.4193300E+01   1.8874813E+01   2.8416607E+01   2.6291759E+01   6.6529679E+00   7.7839012E+00   9.2151108E+00   1.0987877E+01   1.3415203E+01   1.7269436E+01   2.6577650E+01   2.4485313E+01   6.9992285E+00   7.8619471E+00   9.0657415E+00   1.0834911E+01   1.2841274E+01   1.6379847E+01   2.3623955E+01   2.4204779E+01   7.0826445E+00   7.8625388E+00   8.9059639E+00   1.0360135E+01   1.2161770E+01   1.5456807E+01   2.0900589E+01   2.3794100E+01   6.9592094E+00   7.6030278E+00   8.5431175E+00   9.9624052E+00   1.1571936E+01   1.4579851E+01   1.9286024E+01   2.2857456E+01   6.6067743E+00   7.2190385E+00   8.1039495E+00   9.2902069E+00   1.0533692E+01   1.3549869E+01   1.8017036E+01   6.0647879E+00   6.5781074E+00   7.3466163E+00   8.2168283E+00   9.3183966E+00   1.2741126E+01   1.6958605E+01   5.3455110E+00   5.7999330E+00   6.4406877E+00   6.9798384E+00   8.6094446E+00   1.2411600E+01   4.5308762E+00   4.9845695E+00   5.4332294E+00   6.1316671E+00   8.7024260E+00   1.2365318E+01   3.7553778E+00   4.2686501E+00   4.9945402E+00   6.4181347E+00   9.5987263E+00   3.3199635E+00   4.1556602E+00   5.6206975E+00   7.6150036E+00   3.3891912E+00   4.7194333E+00   6.7960010E+00   8.2472677E+00   3.6050978E+00   5.5131679E+00   4.0693302E+00 
CellOffSpring 1 2975 float
0 0 0 0 0 0 0 0 0 0 0 0 0 0 0 0 0 0 0 0 0 0 0 0 0 0 0 0 0 0 0 0 0 0 0 0 0 0 0 0 0 0 0 0 0 0 0 0 0 0 0 0 0 0 0 0 0 0 0 0 0 0 0 0 0 0 0 0 0 0 0 0 0 0 0 0 0 0 0 0 0 0 0 0 0 0 0 0 0 0 0 0 0 0 0 0 0 0 0 0 0 0 0 0 0 0 0 0 0 0 0 0 0 0 0 0 0 0 0 0 0 0 0 0 0 0 0 0 0 0 0 0 0 0 0 0 0 0 0 0 0 0 0 0 0 0 0 0 0 0 0 0 0 0 0 0 0 0 0 0 0 0 0 0 0 0 0 0 0 0 0 0 0 0 0 0 0 0 0 0 0 0 0 0 0 0 0 0 0 0 0 0 0 0 0 0 0 0 0 0 0 0 0 0 0 0 0 0 0 0 0 0 0 0 0 0 0 0 0 0 0 0 0 0 0 0 0 0 0 0 0 0 0 0 0 0 0 0 0 0 0 0 0 0 0 0 0 0 0 0 0 0 0 0 0 0 0 0 0 0 0 0 0 0 0 0 0 0 0 0 0 0 0 0 0 0 0 0 0 0 0 0 0 0 0 0 0 0 0 0 0 0 0 0 0 0 0 0 0 0 0 0 0 0 0 0 0 0 0 0 0 0 0 0 0 0 0 0 0 0 0 0 0 0 0 0 0 0 0 0 0 0 0 0 0 0 0 0 0 0 0 0 0 0 0 0 0 0 0 0 0 0 0 0 0 0 0 0 0 0 0 0 0 0 0 0 0 0 0 0 0 0 0 0 0 0 0 0 0 0 0 0 0 0 0 0 0 0 0 0 0 0 0 0 0 0 0 0 0 0 0 0 0 0 0 0 0 0 0 0 0 0 0 0 0 0 0 0 0 0 0 0 0 0 0 0 0 0 0 0 0 0 0 0 0 0 0 0 0 0 0 0 0 0 0 0 0 0 0 0 0 0 0 0 0 0 0 0 0 0 0 0 0 0 0 0 0 0 0 0 0 0 0 0 0 0 0 0 0 0 0 0 0 0 0 0 0 0 0 0 0 0 0 0 0 0 0 0 0 0 0 0 0 0 0 0 0 0 0 0 0 0 0 0 0 0 0 0 0 0 0 0 0 0 0 0 0 0 0 0 0 0 0 0 0 0 0 0 0 0 0 0 0 0 0 0 0 0 0 0 0 0 0 0 0 0 0 0 0 0 0 0 0 0 0 0 0 0 0 0 0 0 0 0 0 0 0 0 0 0 0 0 0 0 0 0 0 0 0 0 0 0 0 0 0 0 0 0 0 0 0 0 0 0 0 0 0 0 0 0 0 0 0 0 0 0 0 0 0 0 0 0 0 0 0 0 0 0 0 0 0 0 0 0 0 0 0 0 0 0 0 0 0 0 0 0 0 0 0 0 0 0 0 0 0 0 0 0 0 0 0 0 0 0 0 0 0 0 0 0 0 0 0 0 0 0 0 0 0 0 0 0 0 0 0 0 0 0 0 0 0 0 0 0 0 0 0 0 0 0 0 0 0 0 0 0 0 0 0 0 0 0 0 0 0 0 0 0 0 0 0 0 0 0 0 0 0 0 0 0 0 0 0 0 0 0 0 0 0 0 0 0 0 0 0 0 0 0 0 0 0 0 0 0 0 0 0 0 0 0 0 0 0 0 0 0 0 0 0 0 0 0 0 0 0 0 0 0 0 0 0 0 0 0 0 0 0 0 0 0 0 0 0 0 0 0 0 0 0 0 0 0 0 0 0 0 0 0 0 0 0 0 0 0 0 0 0 0 0 0 0 0 0 0 0 0 0 0 0 0 0 0 0 0 0 0 0 0 0 0 0 0 0 0 0 0 0 0 0 0 0 0 0 0 0 0 0 0 0 0 0 0 0 0 0 0 0 0 0 0 0 0 0 0 0 0 0 0 0 0 0 0 0 0 0 0 0 0 0 0 0 0 0 0 0 0 0 0 0 0 0 0 0 0 0 0 0 0 0 0 0 0 0 0 0 0 0 0 0 0 0 0 0 0 0 0 0 0 0 0 0 0 0 0 0 0 0 0 0 0 0 0 0 0 0 0 0 0 0 0 0 0 0 0 0 0 0 0 0 0 0 0 0 0 0 0 0 0 0 0 0 0 0 0 0 0 0 0 0 0 0 0 0 0 0 0 0 0 0 0 0 0 0 0 0 0 0 0 0 0 0 0 0 0 0 0 0 0 0 0 0 0 0 0 0 0 0 0 0 0 0 0 0 0 0 0 0 0 0 0 0 0 0 0 0 0 0 0 0 0 0 0 0 0 0 0 0 0 0 0 0 0 0 0 0 0 0 0 0 0 0 0 0 0 0 0 0 0 0 0 0 0 0 0 0 0 0 0 0 0 0 0 0 0 0 0 0 0 0 0 0 0 0 0 0 0 0 0 0 0 0 0 0 0 0 0 0 0 0 0 0 0 0 0 0 0 0 0 0 0 0 0 0 0 0 0 0 0 0 0 0 0 0 0 0 0 0 0 0 0 0 0 0 0 0 0 0 0 0 0 0 0 0 0 0 0 0 0 0 0 0 0 0 0 0 0 0 0 0 0 0 0 0 0 0 0 0 0 0 0 0 0 0 0 0 0 0 0 0 0 0 0 0 0 0 0 0 0 0 0 0 0 0 0 0 0 0 0 0 0 0 0 0 0 0 0 0 0 0 0 0 0 0 0 0 0 0 0 0 0 0 0 0 0 0 0 0 0 0 0 0 0 0 0 0 0 0 0 0 0 0 0 0 0 0 0 0 0 0 0 0 0 0 0 0 0 0 0 0 0 0 0 0 0 0 0 0 0 0 0 0 0 0 0 0 0 0 0 0 0 0 0 0 0 0 0 0 0 0 0 0 0 0 0 0 0 0 0 0 0 0 0 0 0 0 0 0 0 0 0 0 0 0 0 0 0 0 0 0 0 0 0 0 0 0 0 0 0 0 0 0 0 0 0 0 0 0 0 0 0 0 0 0 0 0 0 0 0 0 0 0 0 0 0 0 0 0 0 0 0 0 0 0 0 0 0 0 0 0 0 0 0 0 0 0 0 0 0 0 0 0 0 0 0 0 0 0 0 0 0 0 0 0 0 0 0 0 0 0 0 0 0 0 0 0 0 0 0 0 0 0 0 0 0 0 0 0 0 0 0 0 0 0 0 0 0 0 0 0 0 0 0 0 0 0 0 0 0 0 0 0 0 0 0 0 0 0 0 0 0 0 0 0 0 0 0 0 0 0 0 0 0 0 0 0 0 0 0 0 0 0 0 0 0 0 0 0 0 0 0 0 0 0 0 0 0 0 0 0 0 0 0 0 0 0 0 0 0 0 0 0 0 0 0 0 0 0 0 0 0 0 0 0 0 0 0 0 0 0 0 0 0 0 0 0 0 0 0 0 0 0 0 0 0 0 0 0 0 0 0 0 0 0 0 0 0 0 0 0 0 0 0 0 0 0 0 0 0 0 0 0 0 0 0 0 0 0 0 0 0 0 0 0 0 0 0 0 0 0 0 0 0 0 0 0 0 0 0 0 0 0 0 0 0 0 0 0 0 0 0 0 0 0 0 0 0 0 0 0 0 0 0 0 0 0 0 0 0 0 0 0 0 0 0 0 0 0 0 0 0 0 0 0 0 0 0 0 0 0 0 0 0 0 0 0 0 0 0 0 0 0 0 0 0 0 0 0 0 0 0 0 0 0 0 0 0 0 0 0 0 0 0 0 0 0 0 0 0 0 0 0 0 0 0 0 0 0 0 0 0 0 0 0 0 0 0 0 0 0 0 0 0 0 0 0 0 0 0 0 0 0 0 0 0 0 0 0 0 0 0 0 0 0 0 0 0 0 0 0 0 0 0 0 0 0 0 0 0 0 0 0 0 0 0 0 0 0 0 0 0 0 0 0 0 0 0 0 0 0 0 0 0 0 0 0 0 0 0 0 0 0 0 0 0 0 0 0 0 0 0 0 0 0 0 0 0 0 0 0 0 0 0 0 0 0 0 0 0 0 0 0 0 0 0 0 0 0 0 0 0 0 0 0 0 0 0 0 0 0 0 0 0 0 0 0 0 0 0 0 0 0 0 0 0 0 0 0 0 0 0 0 0 0 0 0 0 0 0 0 0 0 0 0 0 0 0 0 0 0 0 0 0 0 0 0 0 0 0 0 0 0 0 0 0 0 0 0 0 0 0 0 0 0 0 0 0 0 0 0 0 0 0 0 0 0 0 0 0 0 0 0 0 0 0 0 0 0 0 0 0 0 0 0 0 0 0 0 0 0 0 0 0 0 0 0 0 0 0 0 0 0 0 0 0 0 0 0 0 0 0 0 0 0 0 0 0 0 0 0 0 0 0 0 0 0 0 0 0 0 0 0 0 0 0 0 0 0 0 0 0 0 0 0 0 0 0 0 0 0 0 0 0 0 0 0 0 0 0 0 0 0 0 0 0 0 0 0 0 0 0 0 0 0 0 0 0 0 0 0 0 0 0 0 0 0 0 0 0 0 0 0 0 0 0 0 0 0 0 0 0 0 0 0 0 0 0 0 0 0 0 0 0 0 0 0 0 0 0 0 0 0 0 0 0 0 0 0 0 0 0 0 0 0 0 0 0 0 0 0 0 0 0 0 0 0 0 0 0 0 0 0 0 0 0 0 0 0 0 0 0 0 0 0 0 0 0 0 0 0 0 0 0 0 0 0 0 0 0 0 0 0 0 0 0 0 0 0 0 0 0 0 0 0 0 0 0 0 0 0 0 0 0 0 0 0 0 0 0 0 0 0 0 0 0 0 0 0 0 0 0 0 0 0 0 0 0 0 0 0 0 0 0 0 0 0 0 0 0 0 0 0 0 0 0 0 0 0 0 0 0 0 0 0 0 0 0 0 0 0 0 0 0 0 0 0 0 0 0 0 0 0 0 0 0 0 0 0 0 0 0 0 0 0 0 0 0 0 0 0 0 0 0 0 0 0 0 0 0 0 0 0 0 0 0 0 0 0 0 0 0 0 0 0 0 0 0 0 0 0 0 0 0 0 0 0 0 0 0 0 0 0 0 0 0 0 0 0 0 0 0 0 0 0 0 0 0 0 0 0 0 0 0 0 0 0 0 0 0 0 0 0 0 0 0 0 0 0 0 0 0 0 0 0 0 0 0 0 0 0 0 0 0 0 0 0 0 0 0 0 0 0 0 0 0 0 0 0 0 0 0 0 0 0 0 0 0 0 0 0 0 0 0 0 0 0 0 0 0 0 0 0 0 0 0 0 0 0 0 0 0 0 0 0 0 0 0 0 0 0 0 0 0 0 0 0 0 0 0 0 0 0 0 0 0 0 0 0 0 0 0 0 0 0 0 0 0 0 0 0 0 0 0 0 0 0 0 0 0 0 0 0 0 0 0 0 0 0 0 0 0 0 0 0 0 0 0 0 0 0 0 0 0 0 0 0 0 0 0 0 0 0 0 0 0 0 0 0 0 0 0 0 0 0 0 0 0 0 0 0 0 0 0 0 0 0 0 0 0 0 0 0 0 0 0 0 0 0 0 0 0 0 0 0 0 0 0 0 0 0 0 0 0 0 0 0 0 0 0 0 0 0 0 0 0 0 0 0 0 0 0 0 0 0 0 0 0 0 0 0 0 0 0 0 0 0 0 0 0 0 0 0 0 0 0 0 0 0 0 0 0 0 0 0 0 0 0 0 0 0 0 0 0 0 0 0 0 0 0 0 0 0 0 0 0 0 0 0 0 0 0 0 0 0 0 0 0 0 0 0 0 0 0 0 0 0 0 0 0 0 0 0 0 0 0 0 0 0 0 0 0 0 0 0 0 0 0 0 0 0 0 0 0 0 0 0 0 0 0 0 0 0 0 0 0 0 0 0 0 0 0 0 0 0 0 0 0 0 0 0 0 0 0 0 0 0 0 0 0 0 0 0 0 0 0 0 0 0 0 0 0 0 0 0 0 0 0 0 0 0 0 0 0 0 0 0 0 0 0 0 0 0 0 0 0 0 0 0 0 0 0 0 0 0 0 0 0 0 0 0 0 0 0 0 0 0 0 0 0 0 0 0 0 0 0 0 0 0 0 0 0 0 0 0 0 0 0 0 0 0 0 0 0 0 0 0 0 0 0 0 0 0 0 0 0 0 0 0 0 0 0 0 0 0 0 0 0 0 0 0 0 0 0 0 0 0 0 0 0 0 0 0 0 0 0 0 0 0 0 0 0 0 0 0 0 0 0 0 0 0 0 0 0 0 0 0 0 0 0 0 0 0 0 0 0 0 0 0 0 0 0 0 0 0 0 0 0 0 0 0 0 0 0 0 0 0 0 0 0 0 0 0 0 0 0 0 0 0 0 0 0 0 0 0 0 0 0 0 0 0 0 0 0 0 0 0 0 0 0 0 0 0 0 0 0 0 0 0 0 0 0 0 0 0 0 0 0 0 0 0 0 0 0 0 0 0 0 0 0 0 0 0 0 0 0 0 0 0 0 0 0 0 0 0 0 0 0 0 0 0 0 0 0 0 0 0 0 0 0 0 0 0 0 0 0 0 0 0 0 0 0 0 0 0 0 0 0 0 0 0 0 0 0 0 0 0 0 0 0 0 0 0 0 0 0 0 0 0 0 0 0 0 0 0 0 0 
GradVel 1 2975 float
  0.0000000E+00   0.0000000E+00   0.0000000E+00   0.0000000E+00   0.0000000E+00   0.0000000E+00   0.0000000E+00   0.0000000E+00   0.0000000E+00   0.0000000E+00   0.0000000E+00   0.0000000E+00   0.0000000E+00  -4.5431185E-07  -3.5965606E-19  -2.3931184E-06  -1.6148457E-05  -4.3885366E-06  -3.1904518E-05  -1.0043436E-04  -3.6940684E-05  -1.4018375E-04  -3.3678918E-04  -1.3159926E-04  -3.8437959E-04  -8.0773997E-04  -3.1114015E-04  -7.9589325E-04  -1.5503147E-03  -5.7166727E-04  -1.3595442E-03  -2.5303280E-03  -8.8274654E-04  -2.0163534E-03  -3.6483174E-03  -1.2039247E-03  -2.6926037E-03  -4.7868006E-03  -1.5080880E-03  -3.3415216E-03  -5.8802231E-03  -1.7983823E-03  -3.9732167E-03  -6.9595147E-03  -2.1130622E-03  -4.6692388E-03  -8.1780218E-03  -2.5270074E-03  -5.5880998E-03  -9.8170079E-03  -3.1615116E-03  -6.9816853E-03  -1.2300517E-02  -4.2310115E-03  -9.2467330E-03  -1.6233344E-02  -6.1047897E-03  -1.2905140E-02  -2.2275807E-02  -9.3149012E-03  -1.8363189E-02  -3.0655168E-02  -2.5834583E-02  -4.1080154E-02   0.0000000E+00   0.0000000E+00   0.0000000E+00   0.0000000E+00   0.0000000E+00   0.0000000E+00   0.0000000E+00   0.0000000E+00   0.0000000E+00   0.0000000E+00   0.0000000E+00   0.0000000E+00   0.0000000E+00   0.0000000E+00   0.0000000E+00   0.0000000E+00   0.0000000E+00   0.0000000E+00   0.0000000E+00   0.0000000E+00   0.0000000E+00   0.0000000E+00   0.0000000E+00   0.0000000E+00   0.0000000E+00  -8.1387761E-08  -5.1721150E-07  -1.2203881E-06  -1.8177628E-06  -2.1442709E-06  -2.3652453E-06  -2.5310048E-06  -3.9092761E-06  -1.2682374E-05  -2.6959890E-05  -4.4477063E-05  -6.1616047E-05  -7.5452037E-05  -8.5074797E-05  -9.1493566E-05  -4.8286121E-05  -1.0205659E-04  -1.7540576E-04  -2.5952040E-04  -3.4160769E-04  -4.1125464E-04  -4.6450031E-04  -5.0262077E-04  -2.1947574E-04  -3.9375501E-04  -6.1683333E-04  -8.6518237E-04  -1.1055184E-03  -1.3119276E-03  -1.4746749E-03  -1.5959495E-03  -6.3853501E-04  -1.0549924E-03  -1.5719584E-03  -2.1370857E-03  -2.6791047E-03  -3.1448542E-03  -3.5161271E-03  -3.7980492E-03  -1.4164073E-03  -2.2299734E-03  -3.2217365E-03  -4.2914511E-03  -5.3058588E-03  -6.1720102E-03  -6.8636849E-03  -7.3935157E-03  -2.5921531E-03  -3.9569675E-03  -5.5992575E-03  -7.3459866E-03  -8.9761727E-03  -1.0352756E-02  -1.1448941E-02  -1.2291526E-02  -4.1025532E-03  -6.1286702E-03  -8.5306391E-03  -1.1037335E-02  -1.3326643E-02  -1.5236451E-02  -1.6750535E-02  -1.7914077E-02  -5.7909638E-03  -8.5050613E-03  -1.1642840E-02  -7.4811471E-03  -1.0828727E-02  -9.0951007E-03  -1.3025682E-02  -1.0709643E-02  -1.5261028E-02  -1.2573313E-02  -1.7875154E-02  -1.5112374E-02  -2.1419100E-02  -1.8932465E-02  -2.6631717E-02  -2.4839725E-02  -3.4423392E-02  -3.3654481E-02  -4.5670025E-02  -4.5573346E-02  -6.0613070E-02  -5.9905946E-02  -7.8511894E-02   0.0000000E+00   0.0000000E+00   0.0000000E+00   0.0000000E+00   0.0000000E+00   0.0000000E+00   0.0000000E+00   0.0000000E+00   0.0000000E+00   0.0000000E+00   0.0000000E+00   0.0000000E+00   0.0000000E+00   0.0000000E+00   0.0000000E+00   0.0000000E+00   0.0000000E+00   0.0000000E+00   0.0000000E+00   0.0000000E+00   0.0000000E+00   0.0000000E+00   0.0000000E+00   0.0000000E+00   0.0000000E+00   0.0000000E+00   0.0000000E+00  -2.6479397E-06  -2.7246199E-06  -2.7701396E-06  -2.7931312E-06  -2.8011718E-06  -2.8003249E-06  -2.7952633E-06  -2.7893943E-06  -2.7849967E-06  -9.6056654E-05  -9.9182056E-05  -1.0116132E-04  -1.0228396E-04  -1.0281233E-04  -1.0296678E-04  -1.0292111E-04  -1.0280263E-04  -1.0269824E-04  -5.2908232E-04  -5.4734573E-04  -5.5930373E-04  -5.6645664E-04  -5.7019643E-04  -5.7171594E-04  -5.7197001E-04  -5.7166989E-04  -5.7130249E-04  -1.6828324E-03  -1.7431121E-03  -1.7832720E-03  -1.8080799E-03  -1.8218021E-03  -1.8281513E-03  -1.8301327E-03  -1.8300079E-03  -1.8293324E-03  -4.0044608E-03  -4.1500865E-03  -4.2481641E-03  -4.3098996E-03  -4.3451381E-03  -4.3625059E-03  -4.3690260E-03  -4.3700403E-03  -4.3692230E-03  -7.7864705E-03  -8.0674170E-03  -8.2585225E-03  -8.3800824E-03  -8.4506115E-03  -8.4864553E-03  -8.5009858E-03  -8.5043833E-03  -8.5036932E-03  -1.2920977E-02  -1.3374873E-02  -1.3685637E-02  -1.3884260E-02  -1.4000161E-02  -1.4059693E-02  -1.4084431E-02  -1.4090821E-02  -1.4090247E-02  -1.8785477E-02  -1.9416269E-02  -1.9848926E-02  -2.0125015E-02  -2.0285459E-02  -2.0367308E-02  -2.0400807E-02  -2.0408971E-02  -2.0407684E-02   0.0000000E+00   0.0000000E+00   0.0000000E+00   0.0000000E+00   0.0000000E+00   0.0000000E+00   0.0000000E+00   0.0000000E+00   0.0000000E+00   0.0000000E+00   0.0000000E+00   0.0000000E+00   0.0000000E+00   0.0000000E+00   0.0000000E+00   0.0000000E+00   0.0000000E+00   0.0000000E+00   0.0000000E+00   0.0000000E+00   0.0000000E+00   0.0000000E+00   0.0000000E+00   0.0000000E+00  -2.7833919E-06  -2.7849969E-06  -2.7893934E-06  -2.7952622E-06  -2.8003251E-06  -2.8011714E-06  -2.7931314E-06  -2.7701399E-06  -1.0265805E-04  -1.0269824E-04  -1.0280263E-04  -1.0292108E-04  -1.0296677E-04  -1.0281232E-04  -1.0228399E-04  -1.0116133E-04  -5.7114928E-04  -5.7130243E-04  -5.7167001E-04  -5.7196990E-04  -5.7171588E-04  -5.7019654E-04  -5.6645658E-04  -5.5930385E-04  -1.8290090E-03  -1.8293323E-03  -1.8300076E-03  -1.8301322E-03  -1.8281516E-03  -1.8218019E-03  -1.8080794E-03  -1.7832721E-03  -4.3687182E-03  -4.3692226E-03  -4.3700403E-03  -4.3690270E-03  -4.3625063E-03  -4.3451400E-03  -4.3099010E-03  -4.2481655E-03  -8.5030161E-03  -8.5036932E-03  -8.5043833E-03  -8.5009839E-03  -8.4864544E-03  -8.4506152E-03  -8.3800834E-03  -8.2585253E-03  -1.4089325E-02  -1.4090240E-02  -1.4090820E-02  -1.4084429E-02  -1.4059692E-02  -1.4000161E-02  -1.3884260E-02  -1.3685638E-02  -2.0406263E-02  -2.0407686E-02  -2.0408969E-02  -2.0400807E-02  -2.0367311E-02  -2.0285457E-02  -2.0125007E-02  -1.9848926E-02   0.0000000E+00   0.0000000E+00   0.0000000E+00   0.0000000E+00   0.0000000E+00   0.0000000E+00   0.0000000E+00   0.0000000E+00   0.0000000E+00   0.0000000E+00   0.0000000E+00   0.0000000E+00   0.0000000E+00   0.0000000E+00   0.0000000E+00   0.0000000E+00   0.0000000E+00   0.0000000E+00   0.0000000E+00   0.0000000E+00   0.0000000E+00   0.0000000E+00   0.0000000E+00   0.0000000E+00   0.0000000E+00   0.0000000E+00   0.0000000E+00  -2.7246199E-06  -2.6479404E-06  -2.5310053E-06  -2.3652447E-06  -2.1442702E-06  -1.8177633E-06  -1.2203884E-06  -5.1721162E-07  -8.1387761E-08  -9.9182049E-05  -9.6056698E-05  -9.1493566E-05  -8.5074789E-05  -7.5452037E-05  -6.1616047E-05  -4.4477074E-05  -2.6959891E-05  -1.2682372E-05  -5.4734579E-04  -5.2908243E-04  -5.0262100E-04  -4.6450036E-04  -4.1125464E-04  -3.4160778E-04  -2.5952043E-04  -1.7540579E-04  -1.0205661E-04  -1.7431112E-03  -1.6828319E-03  -1.5959492E-03  -1.4746750E-03  -1.3119277E-03  -1.1055184E-03  -8.6518249E-04  -6.1683339E-04  -3.9375512E-04  -4.1500870E-03  -4.0044608E-03  -3.7980503E-03  -3.5161262E-03  -3.1448549E-03  -2.6791058E-03  -2.1370854E-03  -1.5719585E-03  -1.0549927E-03  -8.0674188E-03  -7.7864695E-03  -7.3935157E-03  -6.8636844E-03  -6.1720111E-03  -5.3058579E-03  -4.2914525E-03  -3.2217361E-03  -2.2299748E-03  -1.3374871E-02  -1.2920976E-02  -1.2291524E-02  -1.1448940E-02  -1.0352753E-02  -8.9761736E-03  -7.3459879E-03  -5.5992599E-03  -3.9569684E-03  -1.9416258E-02  -1.8785471E-02  -1.7914079E-02  -1.6750541E-02  -1.5236450E-02  -1.3326647E-02  -1.1037345E-02  -8.5306428E-03  -6.1286711E-03  -1.1642843E-02  -8.5050622E-03  -1.0828731E-02  -1.3025687E-02  -1.5261031E-02  -1.7875152E-02  -2.1419104E-02  -2.6631724E-02  -3.4423396E-02  -4.5670033E-02  -6.0613066E-02  -7.8511909E-02   0.0000000E+00   0.0000000E+00   0.0000000E+00   0.0000000E+00   0.0000000E+00   0.0000000E+00   0.0000000E+00   0.0000000E+00   0.0000000E+00   0.0000000E+00   0.0000000E+00   0.0000000E+00   0.0000000E+00   0.0000000E+00   0.0000000E+00  -3.9092752E-06  -4.5431173E-07   0.0000000E+00   0.0000000E+00  -4.8286118E-05  -1.6148455E-05  -2.3931179E-06  -3.5965601E-19  -2.1947577E-04  -1.0043438E-04  -3.1904518E-05  -4.3885361E-06  -6.3853507E-04  -3.3678906E-04  -1.4018374E-04  -3.6940699E-05  -1.4164073E-03  -8.0773991E-04  -3.8437950E-04  -1.3159928E-04  -2.5921531E-03  -1.5503147E-03  -7.9589320E-04  -3.1114020E-04  -4.1025542E-03  -2.5303282E-03  -1.3595440E-03  -5.7166733E-04  -5.7909656E-03  -3.6483174E-03  -2.0163527E-03  -8.8274665E-04  -7.4811475E-03  -4.7868015E-03  -2.6926037E-03  -1.2039247E-03  -9.0951016E-03  -5.8802241E-03  -3.3415207E-03  -1.5080883E-03  -1.0709647E-02  -6.9595147E-03  -3.9732167E-03  -1.7983826E-03  -1.2573313E-02  -8.1780208E-03  -4.6692407E-03  -2.1130620E-03  -1.5112376E-02  -9.8170089E-03  -5.5881022E-03  -2.5270078E-03  -1.8932465E-02  -1.2300520E-02  -6.9816844E-03  -3.1615118E-03  -2.4839716E-02  -1.6233342E-02  -9.2467349E-03  -4.2310120E-03  -3.3654474E-02  -2.2275811E-02  -1.2905139E-02  -6.1047897E-03  -4.5573354E-02  -3.0655172E-02  -1.8363191E-02  -9.3149012E-03  -5.9905931E-02  -4.1080154E-02  -2.5834586E-02   0.0000000E+00   0.0000000E+00   0.0000000E+00   0.0000000E+00   0.0000000E+00   0.0000000E+00   0.0000000E+00   0.0000000E+00   0.0000000E+00   0.0000000E+00   0.0000000E+00   0.0000000E+00   0.0000000E+00   0.0000000E+00   0.0000000E+00   0.0000000E+00   0.0000000E+00   0.0000000E+00   0.0000000E+00   0.0000000E+00   0.0000000E+00   0.0000000E+00   0.0000000E+00   0.0000000E+00   0.0000000E+00   0.0000000E+00   0.0000000E+00   0.0000000E+00   0.0000000E+00   0.0000000E+00   0.0000000E+00   0.0000000E+00   0.0000000E+00   0.0000000E+00   0.0000000E+00   0.0000000E+00   0.0000000E+00   0.0000000E+00   0.0000000E+00   0.0000000E+00   0.0000000E+00   0.0000000E+00   0.0000000E+00   0.0000000E+00   0.0000000E+00   0.0000000E+00   0.0000000E+00   0.0000000E+00   0.0000000E+00   0.0000000E+00   0.0000000E+00   0.0000000E+00   0.0000000E+00   0.0000000E+00   0.0000000E+00   0.0000000E+00   0.0000000E+00   0.0000000E+00   0.0000000E+00   0.0000000E+00   0.0000000E+00   0.0000000E+00   0.0000000E+00   0.0000000E+00   0.0000000E+00   0.0000000E+00   0.0000000E+00   0.0000000E+00   0.0000000E+00   0.0000000E+00   0.0000000E+00   0.0000000E+00   0.0000000E+00   0.0000000E+00   0.0000000E+00   0.0000000E+00   0.0000000E+00   0.0000000E+00   0.0000000E+00   0.0000000E+00   0.0000000E+00   0.0000000E+00   0.0000000E+00   0.0000000E+00   0.0000000E+00   0.0000000E+00   0.0000000E+00   0.0000000E+00   0.0000000E+00   0.0000000E+00   0.0000000E+00   0.0000000E+00   0.0000000E+00   0.0000000E+00   0.0000000E+00   0.0000000E+00   0.0000000E+00   0.0000000E+00   0.0000000E+00   0.0000000E+00   0.0000000E+00   0.0000000E+00   0.0000000E+00   0.0000000E+00   0.0000000E+00   0.0000000E+00   0.0000000E+00   0.0000000E+00   0.0000000E+00   0.0000000E+00   0.0000000E+00   0.0000000E+00   0.0000000E+00   0.0000000E+00   0.0000000E+00   0.0000000E+00   0.0000000E+00   0.0000000E+00   0.0000000E+00   0.0000000E+00   0.0000000E+00   0.0000000E+00   0.0000000E+00   0.0000000E+00   0.0000000E+00   0.0000000E+00   0.0000000E+00   0.0000000E+00   0.0000000E+00   0.0000000E+00   0.0000000E+00   0.0000000E+00   0.0000000E+00   0.0000000E+00   0.0000000E+00   0.0000000E+00   0.0000000E+00   0.0000000E+00   0.0000000E+00   0.0000000E+00   0.0000000E+00   0.0000000E+00   0.0000000E+00   0.0000000E+00   0.0000000E+00   0.0000000E+00   0.0000000E+00   0.0000000E+00   0.0000000E+00   0.0000000E+00   0.0000000E+00   0.0000000E+00   0.0000000E+00   0.0000000E+00   0.0000000E+00   0.0000000E+00   0.0000000E+00   0.0000000E+00   0.0000000E+00   0.0000000E+00   0.0000000E+00   0.0000000E+00   0.0000000E+00   0.0000000E+00   0.0000000E+00   0.0000000E+00   0.0000000E+00   0.0000000E+00   0.0000000E+00   0.0000000E+00   0.0000000E+00   0.0000000E+00   0.0000000E+00   0.0000000E+00   0.0000000E+00   0.0000000E+00   0.0000000E+00   0.0000000E+00   0.0000000E+00   0.0000000E+00   0.0000000E+00   0.0000000E+00   0.0000000E+00   0.0000000E+00   0.0000000E+00   0.0000000E+00   0.0000000E+00   0.0000000E+00   0.0000000E+00   0.0000000E+00   0.0000000E+00   0.0000000E+00   0.0000000E+00   0.0000000E+00   0.0000000E+00   0.0000000E+00   0.0000000E+00   0.0000000E+00   0.0000000E+00   0.0000000E+00   0.0000000E+00   0.0000000E+00   0.0000000E+00   0.0000000E+00   0.0000000E+00   0.0000000E+00   0.0000000E+00   0.0000000E+00   0.0000000E+00   0.0000000E+00   0.0000000E+00   0.0000000E+00   0.0000000E+00   0.0000000E+00   0.0000000E+00   0.0000000E+00   0.0000000E+00   0.0000000E+00   0.0000000E+00   0.0000000E+00   0.0000000E+00   0.0000000E+00   0.0000000E+00   0.0000000E+00   0.0000000E+00   0.0000000E+00   0.0000000E+00   0.0000000E+00   0.0000000E+00   0.0000000E+00   0.0000000E+00   0.0000000E+00   0.0000000E+00   0.0000000E+00   0.0000000E+00   0.0000000E+00   0.0000000E+00   0.0000000E+00   0.0000000E+00   0.0000000E+00   0.0000000E+00   0.0000000E+00   0.0000000E+00   0.0000000E+00   0.0000000E+00   0.0000000E+00   0.0000000E+00   0.0000000E+00   0.0000000E+00   0.0000000E+00   0.0000000E+00   0.0000000E+00   0.0000000E+00   0.0000000E+00   0.0000000E+00   0.0000000E+00   0.0000000E+00   0.0000000E+00   0.0000000E+00   0.0000000E+00   0.0000000E+00   0.0000000E+00   0.0000000E+00   0.0000000E+00   0.0000000E+00   0.0000000E+00   0.0000000E+00   0.0000000E+00   0.0000000E+00   0.0000000E+00   0.0000000E+00   0.0000000E+00   0.0000000E+00   0.0000000E+00   0.0000000E+00   0.0000000E+00   0.0000000E+00   0.0000000E+00   0.0000000E+00   0.0000000E+00   0.0000000E+00   0.0000000E+00   0.0000000E+00   0.0000000E+00   0.0000000E+00   0.0000000E+00   0.0000000E+00   0.0000000E+00   0.0000000E+00   0.0000000E+00   0.0000000E+00   0.0000000E+00   0.0000000E+00   0.0000000E+00   0.0000000E+00   0.0000000E+00   0.0000000E+00   0.0000000E+00   0.0000000E+00   0.0000000E+00   0.0000000E+00   0.0000000E+00   0.0000000E+00   0.0000000E+00   0.0000000E+00   0.0000000E+00   0.0000000E+00   0.0000000E+00   0.0000000E+00   0.0000000E+00   0.0000000E+00   0.0000000E+00   0.0000000E+00   0.0000000E+00   0.0000000E+00   0.0000000E+00   0.0000000E+00   0.0000000E+00   0.0000000E+00   0.0000000E+00   0.0000000E+00   0.0000000E+00   0.0000000E+00   0.0000000E+00   0.0000000E+00   0.0000000E+00   0.0000000E+00   0.0000000E+00   0.0000000E+00   0.0000000E+00   0.0000000E+00   0.0000000E+00   0.0000000E+00   0.0000000E+00   0.0000000E+00   0.0000000E+00   0.0000000E+00   0.0000000E+00   0.0000000E+00   0.0000000E+00   0.0000000E+00   0.0000000E+00   0.0000000E+00   0.0000000E+00   0.0000000E+00   0.0000000E+00   0.0000000E+00   0.0000000E+00   0.0000000E+00   0.0000000E+00   0.0000000E+00   0.0000000E+00   0.0000000E+00   0.0000000E+00   0.0000000E+00   0.0000000E+00   0.0000000E+00   0.0000000E+00   0.0000000E+00   0.0000000E+00   0.0000000E+00   0.0000000E+00   0.0000000E+00   0.0000000E+00   0.0000000E+00   0.0000000E+00   0.0000000E+00   0.0000000E+00   0.0000000E+00   0.0000000E+00   0.0000000E+00   0.0000000E+00   0.0000000E+00   0.0000000E+00   0.0000000E+00   0.0000000E+00   0.0000000E+00   0.0000000E+00   0.0000000E+00   0.0000000E+00   0.0000000E+00   0.0000000E+00   0.0000000E+00   0.0000000E+00   0.0000000E+00   0.0000000E+00   0.0000000E+00   0.0000000E+00   0.0000000E+00   0.0000000E+00   0.0000000E+00   0.0000000E+00   0.0000000E+00   0.0000000E+00   0.0000000E+00   0.0000000E+00   0.0000000E+00   0.0000000E+00   0.0000000E+00   0.0000000E+00   0.0000000E+00   0.0000000E+00   0.0000000E+00   0.0000000E+00   0.0000000E+00   0.0000000E+00   0.0000000E+00   0.0000000E+00   0.0000000E+00   0.0000000E+00   0.0000000E+00   0.0000000E+00   0.0000000E+00   0.0000000E+00   0.0000000E+00   0.0000000E+00   0.0000000E+00   0.0000000E+00   0.0000000E+00   0.0000000E+00   0.0000000E+00   0.0000000E+00   0.0000000E+00   0.0000000E+00   0.0000000E+00   0.0000000E+00   0.0000000E+00   0.0000000E+00   0.0000000E+00   0.0000000E+00   0.0000000E+00   0.0000000E+00   0.0000000E+00   0.0000000E+00   0.0000000E+00   0.0000000E+00   0.0000000E+00   0.0000000E+00   0.0000000E+00   0.0000000E+00   0.0000000E+00   0.0000000E+00   0.0000000E+00   0.0000000E+00   0.0000000E+00   0.0000000E+00   0.0000000E+00   0.0000000E+00   0.0000000E+00   0.0000000E+00   0.0000000E+00   0.0000000E+00   0.0000000E+00   0.0000000E+00   0.0000000E+00   0.0000000E+00   0.0000000E+00   0.0000000E+00   0.0000000E+00   0.0000000E+00   0.0000000E+00   0.0000000E+00   0.0000000E+00   0.0000000E+00   0.0000000E+00   0.0000000E+00   0.0000000E+00   0.0000000E+00   0.0000000E+00   0.0000000E+00   0.0000000E+00   0.0000000E+00  -1.4787836E-02  -1.7645447E-02  -1.9995565E-02  -2.1845907E-02  -2.3260141E-02  -1.4433040E-02  -1.8255334E-02  -2.1556545E-02  -2.4234317E-02  -2.6310995E-02  -2.7874637E-02  -1.7193394E-02  -2.1562630E-02  -2.5292682E-02  -2.8256485E-02  -3.0498199E-02  -3.2140903E-02  -2.0069670E-02  -2.5054218E-02  -2.9257962E-02  -3.2524534E-02  -3.4918796E-02  -3.6606740E-02  -2.3492660E-02  -2.9177986E-02  -3.3904042E-02  -3.7504889E-02  -4.0064823E-02  -4.1784834E-02  -2.8285019E-02  -3.4672413E-02  -3.9825417E-02  -4.3663032E-02  -4.6333428E-02  -4.8059467E-02  -3.5741076E-02  -4.2658303E-02  -4.7820091E-02  -5.1515758E-02  -5.4045781E-02  -5.5653051E-02  -4.7608238E-02  -5.4498434E-02  -5.8758672E-02  -6.1542057E-02  -6.3432544E-02  -6.4656816E-02  -6.5719463E-02  -7.1309239E-02  -7.3190995E-02  -7.3967069E-02  -7.4560136E-02  -7.5062871E-02  -9.0853564E-02  -9.2944026E-02  -9.0749934E-02  -8.8493399E-02  -8.7260664E-02  -8.6792700E-02  -1.2055773E-01  -1.1705916E-01  -1.0982279E-01  -1.0419419E-01  -1.0108230E-01  -9.9664100E-02  -1.4490397E-01  -1.3902612E-01  -1.2799749E-01  -1.1988802E-01  -1.1549076E-01  -1.1346379E-01  -1.5082563E-01  -1.5204026E-01  -1.4285500E-01  -1.3476489E-01  -1.3021448E-01  -1.2811847E-01  -1.5123336E-01  -1.5814118E-01  -1.5469661E-01  -1.4901938E-01  -1.4546916E-01  -1.4379427E-01  -1.5803742E-01  -1.6551663E-01  -1.6659898E-01  -1.6396518E-01  -1.6192231E-01  -1.6085003E-01  -1.7229539E-01  -1.7872448E-01  -1.8158983E-01  -1.8110126E-01  -1.8027912E-01  -1.7968237E-01  -1.9263498E-01  -1.9783467E-01  -2.0086010E-01  -2.0119676E-01  -2.0097430E-01  -2.0061159E-01  -2.1725997E-01  -2.2146034E-01  -2.2399631E-01  -2.2427858E-01  -2.2420949E-01  -2.2390562E-01  -2.4471509E-01  -2.4850284E-01  -2.5037980E-01  -2.5028563E-01  -2.5015604E-01  -2.4980500E-01  -2.7507275E-01  -2.7870926E-01  -2.7990335E-01  -2.7932027E-01  -2.7900040E-01  -2.7848721E-01  -3.0890206E-01  -3.1234300E-01  -3.1268919E-01  -3.1151596E-01  -3.1088200E-01  -3.1008244E-01  -3.4684211E-01  -3.4961045E-01  -3.4886068E-01  -3.4700644E-01  -3.4591824E-01  -3.4468612E-01  -3.8922831E-01  -3.9060384E-01  -3.8856134E-01  -3.8590288E-01  -3.8414147E-01  -3.8226989E-01  -4.3586683E-01  -4.3506324E-01  -4.3171191E-01  -4.2800805E-01  -4.2520520E-01  -4.2239445E-01  -4.8558879E-01  -4.8190996E-01  -4.7748286E-01  -4.7223279E-01  -4.6781376E-01  -4.6367151E-01  -5.3542435E-01  -5.2852845E-01  -5.2339709E-01  -5.1571095E-01  -5.0893760E-01  -5.0306875E-01  -5.7967573E-01  -5.6977391E-01  -5.6421411E-01  -5.5276573E-01  -5.4304022E-01  -5.3528488E-01  -6.0994387E-01  -5.9735823E-01  -5.9124082E-01  -5.7464188E-01  -5.6175518E-01  -5.5248606E-01  -6.1414397E-01  -5.9913182E-01  -5.9222186E-01  -5.6985182E-01  -5.5436867E-01  -5.4468948E-01  -5.7444340E-01  -5.5755043E-01  -5.5002749E-01  -5.2390718E-01  -5.0833607E-01  -5.0004375E-01  -4.6441194E-01  -4.4758129E-01  -4.4259131E-01  -4.1991353E-01  -4.0711477E-01  -4.0302020E-01  -2.4838817E-01  -2.3718426E-01  -2.5120592E-01  -2.3674202E-01  -2.3087962E-01  -2.3346601E-01   1.0072203E-01   9.1826349E-02   5.2675277E-02   4.3374985E-02   3.6735907E-02   2.6996017E-02   5.7078165E-01   5.2713335E-01   4.6289271E-01   4.2666352E-01   4.0041006E-01   3.8332367E-01   1.0993248E+00   1.0026000E+00   9.2707491E-01   8.8382137E-01   8.3796394E-01   8.1489122E-01   1.5492487E+00   1.4406695E+00   1.3802894E+00   1.3492930E+00   1.2957470E+00   1.2689641E+00   1.8767926E+00   1.7907706E+00   1.7373533E+00   1.7299210E+00   1.6888365E+00   1.6666811E+00   2.0596082E+00   1.9819504E+00   1.9079312E+00   1.9297910E+00   1.9214276E+00   1.9217256E+00   2.0907240E+00   2.0379274E+00   1.9303844E+00   1.9756894E+00   1.9954753E+00   2.0162344E+00   2.0282495E+00   1.9998266E+00   1.8679184E+00   1.9250678E+00   1.9601107E+00   1.9919941E+00   1.9358265E+00   1.9261938E+00   1.7834892E+00   1.8408717E+00   1.8778882E+00   1.9106827E+00   1.8523698E+00   1.8517684E+00   1.7118853E+00   1.7618051E+00   1.7901943E+00   1.8160629E+00   1.7774038E+00   1.7783077E+00   1.6464496E+00   1.6876539E+00   1.7036195E+00   1.7186046E+00   1.6949329E+00   1.6913842E+00   1.5664780E+00   1.5976459E+00   1.6003754E+00   1.6027328E+00   1.5825113E+00   1.5710298E+00   1.4491553E+00   1.4680887E+00   1.4571911E+00   1.4464039E+00   1.4308016E+00   1.4108167E+00   1.2852385E+00   1.2891436E+00   1.2638843E+00   1.2407169E+00   1.2513373E+00   1.2202582E+00   1.0873754E+00   1.0722795E+00   1.0331662E+00   9.9992388E-01   1.0663638E+00   1.0152364E+00   8.7962961E-01   8.4428334E-01   7.9733491E-01   7.5664127E-01   8.9859366E-01   8.2481527E-01   6.8709767E-01   6.4164251E-01   5.8885318E-01   5.4316568E-01   7.6110518E-01   6.6934937E-01   5.3075987E-01   4.8238367E-01   4.2461535E-01   3.7733567E-01   6.5414464E-01   5.4825437E-01   4.1447696E-01   3.6599201E-01   3.0658418E-01   2.6055291E-01   5.7089078E-01   4.4878322E-01   3.2898295E-01   2.8327477E-01   2.2633223E-01   1.8343349E-01   4.9035320E-01   3.6853680E-01   2.6260567E-01   2.2181322E-01   1.7115527E-01   1.3301764E-01   4.0061310E-01   3.0183697E-01   2.0968994E-01   1.7270342E-01   1.3039422E-01   9.8880380E-02   3.4741318E-01   2.5142133E-01   1.6046785E-01   1.2808549E-01   9.8396115E-02   7.4719362E-02   2.1267411E-01   1.1172038E-01   8.5484058E-02   7.1259819E-02   5.7651274E-02   1.8490568E-01   8.3644390E-02   4.7158390E-02   4.7631294E-02   4.5002431E-02   9.6780628E-02   3.2731004E-02   3.3407599E-02   3.6042042E-02   1.2988882E-01   6.9565944E-02   3.9592646E-02   3.6803424E-02   1.3404714E-01   8.4659189E-02   6.2615752E-02   1.5516359E-01   1.2762247E-01   1.4926876E-01   1.9755447E-01  -2.4315901E-02  -2.5078809E-02  -2.5599806E-02  -2.5928812E-02  -2.6116883E-02  -2.6210014E-02  -2.6245473E-02  -2.6251499E-02  -2.6247581E-02  -2.9026894E-02  -2.9849682E-02  -3.0402109E-02  -3.0741161E-02  -3.0926559E-02  -3.1010572E-02  -3.1034950E-02  -3.1031050E-02  -3.1020388E-02  -3.3318672E-02  -3.4135170E-02  -3.4661144E-02  -3.4963105E-02  -3.5110041E-02  -3.5159040E-02  -3.5154462E-02  -3.5129078E-02  -3.5105262E-02  -3.7763771E-02  -3.8522337E-02  -3.8970605E-02  -3.9190698E-02  -3.9263185E-02  -3.9249565E-02  -3.9195862E-02  -3.9135393E-02  -3.9090604E-02  -4.2889569E-02  -4.3548554E-02  -4.3874584E-02  -4.3972634E-02  -4.3936651E-02  -4.3833219E-02  -4.3709975E-02  -4.3600298E-02  -4.3526184E-02  -4.9077883E-02  -4.9595099E-02  -4.9757667E-02  -4.9696829E-02  -4.9520779E-02  -4.9302042E-02  -4.9089823E-02  -4.8917335E-02  -4.8805952E-02  -5.6526087E-02  -5.6851953E-02  -5.6809448E-02  -5.6554034E-02  -5.6208726E-02  -5.5851754E-02  -5.5533420E-02  -5.5286314E-02  -5.5130646E-02  -6.5269627E-02  -6.5350950E-02  -6.5060452E-02  -6.4576536E-02  -6.4036138E-02  -6.3522071E-02  -6.3084327E-02  -6.2753603E-02  -6.2548593E-02  -7.5270861E-02  -7.5052947E-02  -7.4479811E-02  -7.3740698E-02  -7.2986595E-02  -7.2302893E-02  -7.1737774E-02  -7.1318865E-02  -7.1061902E-02  -8.6493425E-02  -8.5945614E-02  -8.5079022E-02  -8.4075153E-02  -8.3101004E-02  -8.2244977E-02  -8.1551880E-02  -8.1044935E-02  -8.0736615E-02  -9.8879077E-02  -9.8025329E-02  -9.6889108E-02  -9.5636435E-02  -9.4453700E-02  -9.3434483E-02  -9.2621081E-02  -9.2032120E-02  -9.1676280E-02  -1.1236013E-01  -1.1128589E-01  -1.0993917E-01  -1.0848131E-01  -1.0712073E-01  -1.0596082E-01  -1.0504372E-01  -1.0438462E-01  -1.0398840E-01  -1.2693977E-01  -1.2576206E-01  -1.2428607E-01  -1.2268738E-01  -1.2119637E-01  -1.1993011E-01  -1.1893424E-01  -1.1822227E-01  -1.1779597E-01  -1.4273973E-01  -1.4155903E-01  -1.4003588E-01  -1.3836712E-01  -1.3680160E-01  -1.3547128E-01  -1.3442762E-01  -1.3368408E-01  -1.3324042E-01  -1.5998802E-01  -1.5885668E-01  -1.5734950E-01  -1.5567157E-01  -1.5408540E-01  -1.5273471E-01  -1.5167664E-01  -1.5092556E-01  -1.5047869E-01  -1.7896561E-01  -1.7789301E-01  -1.7643046E-01  -1.7478226E-01  -1.7321718E-01  -1.7188498E-01  -1.7084457E-01  -1.7010900E-01  -1.6967307E-01  -1.9996241E-01  -1.9892582E-01  -1.9749960E-01  -1.9589251E-01  -1.9437282E-01  -1.9308698E-01  -1.9208972E-01  -1.9138929E-01  -1.9097601E-01  -2.2325318E-01  -2.2219445E-01  -2.2076504E-01  -2.1918520E-01  -2.1771470E-01  -2.1648757E-01  -2.1554714E-01  -2.1489248E-01  -2.1450868E-01  -2.4905799E-01  -2.4789591E-01  -2.4640264E-01  -2.4481206E-01  -2.4337077E-01  -2.4219257E-01  -2.4130328E-01  -2.4069038E-01  -2.4033350E-01  -2.7754009E-01  -2.7618119E-01  -2.7454334E-01  -2.7287635E-01  -2.7141199E-01  -2.7024120E-01  -2.6936913E-01  -2.6877227E-01  -2.6842508E-01  -3.0882052E-01  -3.0715472E-01  -3.0526349E-01  -3.0341357E-01  -3.0182862E-01  -3.0057889E-01  -2.9965213E-01  -2.9901531E-01  -2.9864341E-01  -3.4296909E-01  -3.4085292E-01  -3.3855096E-01  -3.3635181E-01  -3.3448610E-01  -3.3301386E-01  -3.3191299E-01  -3.3114687E-01  -3.3069295E-01  -3.7990588E-01  -3.7713605E-01  -3.7419310E-01  -3.7140188E-01  -3.6902082E-01  -3.6711949E-01  -3.6567369E-01  -3.6465088E-01  -3.6403632E-01  -4.1911700E-01  -4.1541088E-01  -4.1151118E-01  -4.0780094E-01  -4.0459871E-01  -4.0200162E-01  -3.9999467E-01  -3.9855468E-01  -3.9768070E-01  -4.5914808E-01  -4.5415238E-01  -4.4890544E-01  -4.4388115E-01  -4.3949699E-01  -4.3589595E-01  -4.3307990E-01  -4.3103951E-01  -4.2979318E-01  -4.9698135E-01  -4.9033198E-01  -4.8332268E-01  -4.7656453E-01  -4.7061393E-01  -4.6568316E-01  -4.6179649E-01  -4.5896149E-01  -4.5722139E-01  -5.2751905E-01  -5.1899534E-01  -5.0989455E-01  -5.0102812E-01  -4.9315140E-01  -4.8657399E-01  -4.8135549E-01  -4.7752762E-01  -4.7516921E-01  -5.4339719E-01  -5.3316343E-01  -5.2192783E-01  -5.1075768E-01  -5.0068593E-01  -4.9218789E-01  -4.8538569E-01  -4.8036140E-01  -4.7725007E-01  -5.3526545E-01  -5.2409017E-01  -5.1120925E-01  -4.9791965E-01  -4.8559794E-01  -4.7498280E-01  -4.6635252E-01  -4.5989978E-01  -4.5587116E-01  -4.9192858E-01  -4.8118234E-01  -4.6770340E-01  -4.5293102E-01  -4.3855262E-01  -4.2569375E-01  -4.1494364E-01  -4.0674469E-01  -4.0155715E-01  -3.9841264E-01  -3.8980156E-01  -3.7700719E-01  -3.6158842E-01  -3.4547526E-01  -3.3022788E-01  -3.1695336E-01  -3.0654901E-01  -2.9985285E-01  -2.3441227E-01  -2.2951485E-01  -2.1847260E-01  -2.0306720E-01  -1.8546475E-01  -1.6764303E-01  -1.5136591E-01  -1.3821214E-01  -1.2959224E-01   2.0003900E-02   2.0706519E-02   2.9749632E-02   4.5064718E-02   6.4205155E-02   8.4839895E-02   1.0455881E-01   1.2097232E-01   1.3191582E-01   3.7218454E-01   3.7032175E-01   3.7859875E-01   3.9467719E-01   4.1585737E-01   4.3962634E-01   4.6309969E-01   4.8310649E-01   4.9664044E-01   8.0344820E-01   8.0291671E-01   8.1335789E-01   8.3206624E-01   8.5625553E-01   8.8350302E-01   9.1076446E-01   9.3431604E-01   9.5040643E-01   1.2615582E+00   1.2673285E+00   1.2837903E+00   1.3074931E+00   1.3357493E+00   1.3665652E+00   1.3971732E+00   1.4236946E+00   1.4419016E+00   1.6670399E+00   1.6830069E+00   1.7084805E+00   1.7388606E+00   1.7716844E+00   1.8056899E+00   1.8388134E+00   1.8674124E+00   1.8870776E+00   1.9382807E+00   1.9667690E+00   2.0019121E+00   2.0392277E+00   2.0766454E+00   2.1136661E+00   2.1489482E+00   2.1791968E+00   2.1999664E+00   2.0468407E+00   2.0858817E+00   2.1294241E+00   2.1732664E+00   2.2155304E+00   2.2561169E+00   2.2941227E+00   2.3264298E+00   2.3485353E+00   2.0303192E+00   2.0753150E+00   2.1241825E+00   2.1729279E+00   2.2195277E+00   2.2638545E+00   2.3050296E+00   2.3398316E+00   2.3635645E+00   1.9495206E+00   1.9948227E+00   2.0448062E+00   2.0956159E+00   2.1448717E+00   2.1920962E+00   2.2360797E+00   2.2732470E+00   2.2985671E+00   1.8493193E+00   1.8898489E+00   1.9367690E+00   1.9863493E+00   2.0358036E+00   2.0841701E+00   2.1297426E+00   2.1684542E+00   2.1948819E+00   1.7423136E+00   1.7746117E+00   1.8153238E+00   1.8608226E+00   1.9079778E+00   1.9553771E+00   2.0008202E+00   2.0397906E+00   2.0665190E+00   1.6150265E+00   1.6374977E+00   1.6703508E+00   1.7099593E+00   1.7529490E+00   1.7975416E+00   1.8411696E+00   1.8790302E+00   1.9051622E+00   1.4469508E+00   1.4595703E+00   1.4844162E+00   1.5176523E+00   1.5556517E+00   1.5963535E+00   1.6369861E+00   1.6726800E+00   1.6974902E+00   1.2303985E+00   1.2345181E+00   1.2526551E+00   1.2804081E+00   1.3137970E+00   1.3505194E+00   1.3877561E+00   1.4207895E+00   1.4438922E+00   9.8117661E-01   9.7956753E-01   9.9353182E-01   1.0177692E+00   1.0478518E+00   1.0812981E+00   1.1153877E+00   1.1457443E+00   1.1670364E+00   7.3300552E-01   7.2894526E-01   7.4141192E-01   7.6408869E-01   7.9212749E-01   8.2298285E-01   8.5419238E-01   8.8188666E-01   9.0129054E-01   5.1800847E-01   5.1395750E-01   5.2659655E-01   5.4873019E-01   5.7523167E-01   6.0363787E-01   6.3187289E-01   6.5669882E-01   6.7401838E-01   3.5269946E-01   3.4967551E-01   3.6283815E-01   3.8439509E-01   4.0912774E-01   4.3476853E-01   4.5969060E-01   4.8132744E-01   4.9632478E-01   2.3718856E-01   2.3497246E-01   2.4796581E-01   2.6819149E-01   2.9053599E-01   3.1297544E-01   3.3429316E-01   3.5253012E-01   3.6506563E-01   1.6155310E-01   1.5925625E-01   1.7078628E-01   1.8860711E-01   2.0790869E-01   2.2687888E-01   2.4455853E-01   2.5944582E-01   2.6957166E-01   1.1320948E-01   1.0996150E-01   1.1861551E-01   1.3295248E-01   1.4873555E-01   1.6425377E-01   1.7856745E-01   1.9044103E-01   1.9841219E-01   8.2163140E-02   7.7737197E-02   8.2463339E-02   9.2382118E-02   1.0430388E-01   1.1651501E-01   1.2789781E-01   1.3727477E-01   1.4349671E-01   6.2507927E-02   5.7840720E-02   5.8579326E-02   6.3420698E-02   7.1010292E-02   7.9834521E-02   8.8554338E-02   9.5895946E-02   1.0078056E-01   5.1389344E-02   4.8374601E-02   4.6506137E-02   4.6430439E-02   4.9021646E-02   5.3879574E-02   5.9689298E-02   6.5049782E-02   6.8778127E-02   4.5984514E-02   4.6985716E-02   4.5280010E-02   4.2064473E-02   3.9817393E-02   3.9919615E-02   4.2047918E-02   4.4916481E-02   4.7239453E-02   4.2724706E-02   4.9316429E-02   5.1002309E-02   4.7975846E-02   4.3043092E-02   3.8950250E-02   3.6873281E-02   3.6545351E-02   3.6968172E-02   3.9947994E-02   4.9981833E-02   5.7263821E-02   5.8191717E-02   5.4282598E-02   4.8709325E-02   4.3852717E-02   4.0638968E-02   3.9018214E-02   4.9038857E-02   4.7959991E-02   5.7534561E-02   6.4802401E-02   6.6089839E-02   6.3056782E-02   5.8549121E-02   5.4496683E-02   5.1871054E-02   8.6227186E-02   6.2175781E-02   5.4199390E-02   6.1787814E-02   7.0280582E-02   7.4132495E-02   7.3945738E-02   7.2097160E-02   7.0409201E-02   1.4824621E-01   1.0735250E-01   7.5730622E-02   6.1757274E-02   6.4998887E-02   7.5168878E-02   8.2645655E-02   8.6283013E-02   8.7595411E-02   1.7481588E-01   1.5034355E-01   1.2523460E-01   9.9556178E-02   8.1571631E-02   7.7969685E-02   8.3481103E-02   9.0995342E-02   9.5836550E-02   1.3875671E-01   1.4284185E-01   1.3226904E-01   1.2610069E-01   1.1891745E-01   1.1495949E-01   1.1126967E-01   1.1077654E-01   1.0974123E-01   1.2379302E-01   1.2396795E-01   1.2701294E-01   1.3104805E-01   1.4210227E-01   8.2675219E-02   8.5934132E-02   8.2045130E-02   8.1060916E-02  -2.6245030E-02  -2.6247576E-02  -2.6251495E-02  -2.6245473E-02  -2.6210008E-02  -2.6116891E-02  -2.5928810E-02  -2.5599813E-02  -3.1015482E-02  -3.1020390E-02  -3.1031050E-02  -3.1034950E-02  -3.1010572E-02  -3.0926567E-02  -3.0741168E-02  -3.0402109E-02  -3.5095926E-02  -3.5105269E-02  -3.5129081E-02  -3.5154462E-02  -3.5159051E-02  -3.5110041E-02  -3.4963094E-02  -3.4661137E-02  -3.9074276E-02  -3.9090604E-02  -3.9135396E-02  -3.9195843E-02  -3.9249551E-02  -3.9263181E-02  -3.9190695E-02  -3.8970608E-02  -4.3500151E-02  -4.3526173E-02  -4.3600284E-02  -4.3709967E-02  -4.3833241E-02  -4.3936644E-02  -4.3972649E-02  -4.3874592E-02  -4.8767537E-02  -4.8805952E-02  -4.8917349E-02  -4.9089830E-02  -4.9302042E-02  -4.9520776E-02  -4.9696848E-02  -4.9757689E-02  -5.5077609E-02  -5.5130679E-02  -5.5286333E-02  -5.5533428E-02  -5.5851776E-02  -5.6208730E-02  -5.6554016E-02  -5.6809474E-02  -6.2479198E-02  -6.2548593E-02  -6.2753662E-02  -6.3084312E-02  -6.3522041E-02  -6.4036191E-02  -6.4576492E-02  -6.5060467E-02  -7.0975423E-02  -7.1061917E-02  -7.1318835E-02  -7.1737811E-02  -7.2302900E-02  -7.2986610E-02  -7.3740683E-02  -7.4479848E-02  -8.0633216E-02  -8.0736637E-02  -8.1044927E-02  -8.1551850E-02  -8.2244955E-02  -8.3100989E-02  -8.4075108E-02  -8.5078999E-02  -9.1557272E-02  -9.1676295E-02  -9.2032135E-02  -9.2621051E-02  -9.3434468E-02  -9.4453663E-02  -9.5636487E-02  -9.6889116E-02  -1.0385628E-01  -1.0398841E-01  -1.0438467E-01  -1.0504374E-01  -1.0596082E-01  -1.0712073E-01  -1.0848136E-01  -1.0993914E-01  -1.1765406E-01  -1.1779593E-01  -1.1822227E-01  -1.1893425E-01  -1.1993013E-01  -1.2119634E-01  -1.2268735E-01  -1.2428601E-01  -1.3309313E-01  -1.3324042E-01  -1.3368413E-01  -1.3442755E-01  -1.3547127E-01  -1.3680163E-01  -1.3836710E-01  -1.4003591E-01  -1.5033065E-01  -1.5047874E-01  -1.5092552E-01  -1.5167665E-01  -1.5273468E-01  -1.5408531E-01  -1.5567160E-01  -1.5734951E-01  -1.6952892E-01  -1.6967312E-01  -1.7010896E-01  -1.7084451E-01  -1.7188497E-01  -1.7321718E-01  -1.7478229E-01  -1.7643051E-01  -1.9083986E-01  -1.9097596E-01  -1.9138923E-01  -1.9208981E-01  -1.9308700E-01  -1.9437274E-01  -1.9589262E-01  -1.9749948E-01  -2.1438256E-01  -2.1450874E-01  -2.1489248E-01  -2.1554716E-01  -2.1648757E-01  -2.1771473E-01  -2.1918522E-01  -2.2076507E-01  -2.4021642E-01  -2.4033354E-01  -2.4069051E-01  -2.4130324E-01  -2.4219273E-01  -2.4337080E-01  -2.4481213E-01  -2.4640262E-01  -2.6831150E-01  -2.6842514E-01  -2.6877210E-01  -2.6936910E-01  -2.7024117E-01  -2.7141219E-01  -2.7287623E-01  -2.7454343E-01  -2.9852095E-01  -2.9864350E-01  -2.9901543E-01  -2.9965210E-01  -3.0057892E-01  -3.0182874E-01  -3.0341345E-01  -3.0526349E-01  -3.3054256E-01  -3.3069298E-01  -3.3114678E-01  -3.3191302E-01  -3.3301371E-01  -3.3448592E-01  -3.3635160E-01  -3.3855107E-01  -3.6383098E-01  -3.6403617E-01  -3.6465070E-01  -3.6567372E-01  -3.6711955E-01  -3.6902073E-01  -3.7140223E-01  -3.7419316E-01  -3.9738712E-01  -3.9768076E-01  -3.9855450E-01  -3.9999473E-01  -4.0200153E-01  -4.0459871E-01  -4.0780079E-01  -4.1151103E-01  -4.2937297E-01  -4.2979333E-01  -4.3103954E-01  -4.3308008E-01  -4.3589592E-01  -4.3949699E-01  -4.4388133E-01  -4.4890511E-01  -4.5663315E-01  -4.5722148E-01  -4.5896128E-01  -4.6179667E-01  -4.6568358E-01  -4.7061414E-01  -4.7656426E-01  -4.8332274E-01  -4.7437018E-01  -4.7516891E-01  -4.7752720E-01  -4.8135543E-01  -4.8657405E-01  -4.9315065E-01  -5.0102800E-01  -5.0989443E-01  -4.7619268E-01  -4.7725022E-01  -4.8036131E-01  -4.8538619E-01  -4.9218780E-01  -5.0068641E-01  -5.1075763E-01  -5.2192795E-01  -4.5449585E-01  -4.5587063E-01  -4.5989957E-01  -4.6635252E-01  -4.7498298E-01  -4.8559755E-01  -4.9792007E-01  -5.1120919E-01  -3.9977485E-01  -4.0155691E-01  -4.0674493E-01  -4.1494364E-01  -4.2569357E-01  -4.3855312E-01  -4.5293093E-01  -4.6770376E-01  -2.9753363E-01  -2.9985270E-01  -3.0654883E-01  -3.1695354E-01  -3.3022830E-01  -3.4547547E-01  -3.6158782E-01  -3.7700719E-01  -1.2658137E-01  -1.2959218E-01  -1.3821197E-01  -1.5136576E-01  -1.6764300E-01  -1.8546441E-01  -2.0306717E-01  -2.1847291E-01   1.3576883E-01   1.3191596E-01   1.2097232E-01   1.0455880E-01   8.4839746E-02   6.4205140E-02   4.5064673E-02   2.9749408E-02   5.0143772E-01   4.9664050E-01   4.8310679E-01   4.6309978E-01   4.3962616E-01   4.1585740E-01   3.9467722E-01   3.7859878E-01   9.5613873E-01   9.5040643E-01   9.3431592E-01   9.1076446E-01   8.8350272E-01   8.5625577E-01   8.3206642E-01   8.1335771E-01   1.4484076E+00   1.4419017E+00   1.4236950E+00   1.3971727E+00   1.3665651E+00   1.3357493E+00   1.3074929E+00   1.2837903E+00   1.8941140E+00   1.8870769E+00   1.8674130E+00   1.8388133E+00   1.8056898E+00   1.7716843E+00   1.7388600E+00   1.7084806E+00   2.2073998E+00   2.1999664E+00   2.1791964E+00   2.1489480E+00   2.1136653E+00   2.0766463E+00   2.0392280E+00   2.0019121E+00   2.3564382E+00   2.3485355E+00   2.3264298E+00   2.2941227E+00   2.2561171E+00   2.2155299E+00   2.1732664E+00   2.1294236E+00   2.3720379E+00   2.3635654E+00   2.3398309E+00   2.3050289E+00   2.2638543E+00   2.2195277E+00   2.1729283E+00   2.1241837E+00   2.3076022E+00   2.2985668E+00   2.2732472E+00   2.2360811E+00   2.1920958E+00   2.1448715E+00   2.0956161E+00   2.0448072E+00   2.2043192E+00   2.1948822E+00   2.1684542E+00   2.1297426E+00   2.0841701E+00   2.0358033E+00   1.9863496E+00   1.9367685E+00   2.0760827E+00   2.0665195E+00   2.0397902E+00   2.0008202E+00   1.9553770E+00   1.9079783E+00   1.8608220E+00   1.8153249E+00   1.9145372E+00   1.9051623E+00   1.8790305E+00   1.8411700E+00   1.7975416E+00   1.7529480E+00   1.7099594E+00   1.6703513E+00   1.7064193E+00   1.6974900E+00   1.6726789E+00   1.6369855E+00   1.5963528E+00   1.5556520E+00   1.5176519E+00   1.4844177E+00   1.4522312E+00   1.4438922E+00   1.4207894E+00   1.3877563E+00   1.3505192E+00   1.3137975E+00   1.2804084E+00   1.2526550E+00   1.1747338E+00   1.1670363E+00   1.1457443E+00   1.1153876E+00   1.0812981E+00   1.0478519E+00   1.0177689E+00   9.9353194E-01   9.0830386E-01   9.0129006E-01   8.8188672E-01   8.5419250E-01   8.2298243E-01   7.9212737E-01   7.6408839E-01   7.4141145E-01   6.8026841E-01   6.7401803E-01   6.5669858E-01   6.3187301E-01   6.0363793E-01   5.7523185E-01   5.4873031E-01   5.2659625E-01   5.0172228E-01   4.9632505E-01   4.8132759E-01   4.5969036E-01   4.3476856E-01   4.0912759E-01   3.8439500E-01   3.6283773E-01   3.6956081E-01   3.6506596E-01   3.5252994E-01   3.3429334E-01   3.1297556E-01   2.9053587E-01   2.6819152E-01   2.4796581E-01   2.7318412E-01   2.6957166E-01   2.5944608E-01   2.4455854E-01   2.2687884E-01   2.0790851E-01   1.8860705E-01   1.7078620E-01   2.0123558E-01   1.9841205E-01   1.9044101E-01   1.7856780E-01   1.6425358E-01   1.4873566E-01   1.3295260E-01   1.1861563E-01   1.4568321E-01   1.4349674E-01   1.3727507E-01   1.2789753E-01   1.1651516E-01   1.0430391E-01   9.2382044E-02   8.2463309E-02   1.0249339E-01   1.0078071E-01   9.5895931E-02   8.8554084E-02   7.9834729E-02   7.1010426E-02   6.3420787E-02   5.8579385E-02   7.0108667E-02   6.8778157E-02   6.5049917E-02   5.9689179E-02   5.3879663E-02   4.9021631E-02   4.6430603E-02   4.6506211E-02   4.8121139E-02   4.7239602E-02   4.4916630E-02   4.2048141E-02   3.9919838E-02   3.9817452E-02   4.2064682E-02   4.5279995E-02   3.7227407E-02   3.6968336E-02   3.6545470E-02   3.6873221E-02   3.8950294E-02   4.3043241E-02   4.7975935E-02   5.1002435E-02   3.8547367E-02   3.9018348E-02   4.0638864E-02   4.3852821E-02   4.8709258E-02   5.4282695E-02   5.8191739E-02   5.7263926E-02   5.0974108E-02   5.1871017E-02   5.4496691E-02   5.8549151E-02   6.3056715E-02   6.6089921E-02   6.4802237E-02   5.7534523E-02   6.9755055E-02   7.0409141E-02   7.2097003E-02   7.3945709E-02   7.4132502E-02   7.0280530E-02   6.1787769E-02   5.4199539E-02   8.7908946E-02   8.7595403E-02   8.6282909E-02   8.2645573E-02   7.5168759E-02   6.4998731E-02   6.1757296E-02   7.5730525E-02   9.7467512E-02   9.5836490E-02   9.0995312E-02   8.3480865E-02   7.7969536E-02   8.1571586E-02   9.9556223E-02   1.2523472E-01   1.1161028E-01   1.1077657E-01   1.1126953E-01   1.1495940E-01   1.1891709E-01   1.2610041E-01   1.3226895E-01   1.4284147E-01   1.4822967E-01   1.4210214E-01   1.3104804E-01   1.2701268E-01   1.2396773E-01   1.2379287E-01   1.0974111E-01   8.3463490E-02   8.1060678E-02   8.2045160E-02   8.5934043E-02   8.2674980E-02  -2.5078811E-02  -2.4315894E-02  -2.3260145E-02  -2.1845909E-02  -1.9995561E-02  -1.7645443E-02  -1.4787834E-02  -2.9849676E-02  -2.9026903E-02  -2.7874634E-02  -2.6310997E-02  -2.4234325E-02  -2.1556554E-02  -1.8255332E-02  -1.4433044E-02  -3.4135170E-02  -3.3318669E-02  -3.2140903E-02  -3.0498201E-02  -2.8256489E-02  -2.5292682E-02  -2.1562634E-02  -1.7193394E-02  -3.8522322E-02  -3.7763782E-02  -3.6606751E-02  -3.4918811E-02  -3.2524541E-02  -2.9257970E-02  -2.5054228E-02  -2.0069668E-02  -4.3548550E-02  -4.2889584E-02  -4.1784838E-02  -4.0064819E-02  -3.7504893E-02  -3.3904053E-02  -2.9177986E-02  -2.3492660E-02  -4.9595080E-02  -4.9077868E-02  -4.8059490E-02  -4.6333432E-02  -4.3663040E-02  -3.9825417E-02  -3.4672413E-02  -2.8285025E-02  -5.6851961E-02  -5.6526106E-02  -5.5653051E-02  -5.4045800E-02  -5.1515758E-02  -4.7820088E-02  -4.2658307E-02  -3.5741072E-02  -6.5350957E-02  -6.5269679E-02  -6.4656787E-02  -6.3432552E-02  -6.1542079E-02  -5.8758669E-02  -5.4498438E-02  -4.7608230E-02  -7.5052992E-02  -7.5270846E-02  -7.5062893E-02  -7.4560180E-02  -7.3967069E-02  -7.3191009E-02  -7.1309239E-02  -6.5719448E-02  -8.5945569E-02  -8.6493418E-02  -8.6792700E-02  -8.7260678E-02  -8.8493407E-02  -9.0749979E-02  -9.2944011E-02  -9.0853617E-02  -9.8025337E-02  -9.8879077E-02  -9.9664152E-02  -1.0108227E-01  -1.0419416E-01  -1.0982282E-01  -1.1705916E-01  -1.2055771E-01  -1.1128590E-01  -1.1236012E-01  -1.1346375E-01  -1.1549083E-01  -1.1988807E-01  -1.2799752E-01  -1.3902608E-01  -1.4490400E-01  -1.2576216E-01  -1.2693977E-01  -1.2811852E-01  -1.3021448E-01  -1.3476487E-01  -1.4285502E-01  -1.5204024E-01  -1.5082566E-01  -1.4155914E-01  -1.4273985E-01  -1.4379436E-01  -1.4546911E-01  -1.4901933E-01  -1.5469655E-01  -1.5814120E-01  -1.5123335E-01  -1.5885675E-01  -1.5998799E-01  -1.6084999E-01  -1.6192231E-01  -1.6396530E-01  -1.6659896E-01  -1.6551657E-01  -1.5803739E-01  -1.7789301E-01  -1.7896564E-01  -1.7968246E-01  -1.8027924E-01  -1.8110125E-01  -1.8158983E-01  -1.7872459E-01  -1.7229544E-01  -1.9892585E-01  -1.9996257E-01  -2.0061162E-01  -2.0097429E-01  -2.0119673E-01  -2.0086013E-01  -1.9783460E-01  -1.9263501E-01  -2.2219455E-01  -2.2325313E-01  -2.2390553E-01  -2.2420943E-01  -2.2427864E-01  -2.2399627E-01  -2.2146048E-01  -2.1725997E-01  -2.4789602E-01  -2.4905804E-01  -2.4980502E-01  -2.5015619E-01  -2.5028577E-01  -2.5037986E-01  -2.4850294E-01  -2.4471515E-01  -2.7618125E-01  -2.7754021E-01  -2.7848744E-01  -2.7900049E-01  -2.7932027E-01  -2.7990326E-01  -2.7870929E-01  -2.7507287E-01  -3.0715466E-01  -3.0882040E-01  -3.1008258E-01  -3.1088194E-01  -3.1151611E-01  -3.1268930E-01  -3.1234306E-01  -3.0890217E-01  -3.4085295E-01  -3.4296876E-01  -3.4468621E-01  -3.4591839E-01  -3.4700650E-01  -3.4886098E-01  -3.4961045E-01  -3.4684223E-01  -3.7713608E-01  -3.7990576E-01  -3.8226989E-01  -3.8414153E-01  -3.8590288E-01  -3.8856155E-01  -3.9060390E-01  -3.8922846E-01  -4.1541091E-01  -4.1911662E-01  -4.2239451E-01  -4.2520517E-01  -4.2800817E-01  -4.3171188E-01  -4.3506318E-01  -4.3586686E-01  -4.5415196E-01  -4.5914811E-01  -4.6367151E-01  -4.6781376E-01  -4.7223288E-01  -4.7748291E-01  -4.8191017E-01  -4.8558885E-01  -4.9033213E-01  -4.9698138E-01  -5.0306875E-01  -5.0893742E-01  -5.1571077E-01  -5.2339679E-01  -5.2852839E-01  -5.3542447E-01  -5.1899534E-01  -5.2751905E-01  -5.3528488E-01  -5.4304028E-01  -5.5276543E-01  -5.6421399E-01  -5.6977391E-01  -5.7967573E-01  -5.3316301E-01  -5.4339737E-01  -5.5248606E-01  -5.6175506E-01  -5.7464170E-01  -5.9124070E-01  -5.9735799E-01  -6.0994363E-01  -5.2409035E-01  -5.3526592E-01  -5.4468936E-01  -5.5436844E-01  -5.6985188E-01  -5.9222186E-01  -5.9913188E-01  -6.1414385E-01  -4.8118213E-01  -4.9192873E-01  -5.0004339E-01  -5.0833595E-01  -5.2390766E-01  -5.5002761E-01  -5.5755019E-01  -5.7444352E-01  -3.8980144E-01  -3.9841226E-01  -4.0302032E-01  -4.0711480E-01  -4.1991377E-01  -4.4259137E-01  -4.4758135E-01  -4.6441182E-01  -2.2951506E-01  -2.3441258E-01  -2.3346622E-01  -2.3087969E-01  -2.3674205E-01  -2.5120622E-01  -2.3718427E-01  -2.4838807E-01   2.0706624E-02   2.0004049E-02   2.6995793E-02   3.6735624E-02   4.3374717E-02   5.2675158E-02   9.1826484E-02   1.0072196E-01   3.7032166E-01   3.7218451E-01   3.8332328E-01   4.0040982E-01   4.2666355E-01   4.6289277E-01   5.2713311E-01   5.7078165E-01   8.0291677E-01   8.0344814E-01   8.1489110E-01   8.3796376E-01   8.8382137E-01   9.2707455E-01   1.0025998E+00   1.0993249E+00   1.2673291E+00   1.2615581E+00   1.2689642E+00   1.2957469E+00   1.3492934E+00   1.3802903E+00   1.4406700E+00   1.5492483E+00   1.6830057E+00   1.6670400E+00   1.6666808E+00   1.6888366E+00   1.7299211E+00   1.7373536E+00   1.7907706E+00   1.8767936E+00   1.9667690E+00   1.9382818E+00   1.9217257E+00   1.9214275E+00   1.9297910E+00   1.9079325E+00   1.9819498E+00   2.0596080E+00   2.0858827E+00   2.0468421E+00   2.0162351E+00   1.9954765E+00   1.9756900E+00   1.9303854E+00   2.0379279E+00   2.0907240E+00   2.0753145E+00   2.0303204E+00   1.9919947E+00   1.9601121E+00   1.9250683E+00   1.8679190E+00   1.9998269E+00   2.0282495E+00   1.9948235E+00   1.9495220E+00   1.9106829E+00   1.8778892E+00   1.8408728E+00   1.7834905E+00   1.9261943E+00   1.9358265E+00   1.8898499E+00   1.8493195E+00   1.8160638E+00   1.7901947E+00   1.7618055E+00   1.7118855E+00   1.8517685E+00   1.8523698E+00   1.7746129E+00   1.7423148E+00   1.7186043E+00   1.7036194E+00   1.6876543E+00   1.6464499E+00   1.7783070E+00   1.7774037E+00   1.6374983E+00   1.6150267E+00   1.6027329E+00   1.6003741E+00   1.5976465E+00   1.5664781E+00   1.6913843E+00   1.6949325E+00   1.4595697E+00   1.4469506E+00   1.4464033E+00   1.4571908E+00   1.4680893E+00   1.4491553E+00   1.5710301E+00   1.5825107E+00   1.2345179E+00   1.2303983E+00   1.2407171E+00   1.2638841E+00   1.2891433E+00   1.2852389E+00   1.4108167E+00   1.4308010E+00   9.7956705E-01   9.8117596E-01   9.9992323E-01   1.0331657E+00   1.0722796E+00   1.0873749E+00   1.2202578E+00   1.2513373E+00   7.2894490E-01   7.3300552E-01   7.5664145E-01   7.9733479E-01   8.4428340E-01   8.7962949E-01   1.0152366E+00   1.0663637E+00   5.1395726E-01   5.1800841E-01   5.4316545E-01   5.8885288E-01   6.4164257E-01   6.8709713E-01   8.2481515E-01   8.9859378E-01   3.4967524E-01   3.5269928E-01   3.7733543E-01   4.2461506E-01   4.8238337E-01   5.3075993E-01   6.6934925E-01   7.6110542E-01   2.3497251E-01   2.3718826E-01   2.6055270E-01   3.0658406E-01   3.6599201E-01   4.1447681E-01   5.4825449E-01   6.5414464E-01   1.5925629E-01   1.6155301E-01   1.8343334E-01   2.2633214E-01   2.8327471E-01   3.2898301E-01   4.4878322E-01   5.7089067E-01   1.0996158E-01   1.1320940E-01   1.3301757E-01   1.7115529E-01   2.2181328E-01   2.6260564E-01   3.6853701E-01   4.9035332E-01   7.7737182E-02   8.2163177E-02   9.8880410E-02   1.3039416E-01   1.7270325E-01   2.0968965E-01   3.0183673E-01   4.0061295E-01   5.7840779E-02   6.2507942E-02   7.4719295E-02   9.8396122E-02   1.2808552E-01   1.6046785E-01   2.5142092E-01   3.4741312E-01   4.8374727E-02   5.1389404E-02   5.7651363E-02   7.1259722E-02   8.5484035E-02   1.1172055E-01   2.1267380E-01   4.6985753E-02   4.5984477E-02   4.5002498E-02   4.7631234E-02   4.7158584E-02   8.3644129E-02   1.8490529E-01   4.9316481E-02   4.2724721E-02   3.6042012E-02   3.3407517E-02   3.2731116E-02   9.6780322E-02   4.9981892E-02   3.9948143E-02   3.6803514E-02   3.9592646E-02   6.9565691E-02   1.2988847E-01   4.7960043E-02   4.9038835E-02   6.2615782E-02   8.4659383E-02   1.3404737E-01   6.2175751E-02   8.6227283E-02   1.2762262E-01   1.5516351E-01   1.0735261E-01   1.4824612E-01   1.9755423E-01   1.4926866E-01   1.5034340E-01   1.7481573E-01   1.3875648E-01 
VonMises3D 1 2975 float
  0.0000000E+00   0.0000000E+00   0.0000000E+00   0.0000000E+00   0.0000000E+00   0.0000000E+00   0.0000000E+00   0.0000000E+00   0.0000000E+00   0.0000000E+00   0.0000000E+00   0.0000000E+00   0.0000000E+00  -3.5853171E-07  -2.5332923E-19  -1.6933064E-06  -1.2200117E-05  -2.9088023E-06  -2.1413041E-05  -7.3026720E-05  -2.3149183E-05  -8.9986963E-05  -2.3674162E-04  -7.8329795E-05  -2.3618601E-04  -5.4884003E-04  -1.7526846E-04  -4.6641755E-04  -1.0147386E-03  -3.0314759E-04  -7.5684133E-04  -1.5902068E-03  -4.3940890E-04  -1.0651745E-03  -2.2003148E-03  -5.6464114E-04  -1.3570774E-03  -2.7852417E-03  -6.7616190E-04  -1.6305620E-03  -3.3454122E-03  -7.9273240E-04  -1.9240133E-03  -3.9514485E-03  -9.5295190E-04  -2.3192700E-03  -4.7529922E-03  -1.2163634E-03  -2.9444401E-03  -5.9815194E-03  -1.6690610E-03  -3.9784289E-03  -7.9503786E-03  -2.4409920E-03  -5.6673139E-03  -1.1060813E-02  -3.7032692E-03  -8.2483599E-03  -1.5631959E-02  -5.5530155E-03  -1.1625778E-02  -2.1356909E-02  -1.5230289E-02  -2.7194904E-02   0.0000000E+00   0.0000000E+00   0.0000000E+00   0.0000000E+00   0.0000000E+00   0.0000000E+00   0.0000000E+00   0.0000000E+00   0.0000000E+00   0.0000000E+00   0.0000000E+00   0.0000000E+00   0.0000000E+00   0.0000000E+00   0.0000000E+00   0.0000000E+00   0.0000000E+00   0.0000000E+00   0.0000000E+00   0.0000000E+00   0.0000000E+00   0.0000000E+00   0.0000000E+00   0.0000000E+00   0.0000000E+00  -7.4894160E-08  -4.9529604E-07  -1.2006968E-06  -1.8158410E-06  -2.1498197E-06  -2.3717571E-06  -2.5376394E-06  -3.3032095E-06  -1.1372882E-05  -2.5269999E-05  -4.3027641E-05  -6.0934741E-05  -7.5640652E-05  -8.5770916E-05  -9.2284230E-05  -3.9621911E-05  -8.9751236E-05  -1.6229291E-04  -2.4898679E-04  -3.3628521E-04  -4.1180273E-04  -4.6943937E-04  -5.0958677E-04  -1.7542235E-04  -3.4030530E-04  -5.6441955E-04  -8.2472130E-04  -1.0852574E-03  -1.3138915E-03  -1.4940216E-03  -1.6246635E-03  -4.9844006E-04  -8.9756196E-04  -1.4242105E-03  -2.0259400E-03  -2.6245832E-03  -3.1515381E-03  -3.5714216E-03  -3.8809399E-03  -1.0791172E-03  -1.8664015E-03  -2.8891885E-03  -4.0461109E-03  -5.1887324E-03  -6.1910395E-03  -6.9910060E-03  -7.5837001E-03  -1.9217390E-03  -3.2507868E-03  -4.9635423E-03  -6.8853777E-03  -8.7643350E-03  -1.0399120E-02  -1.1698704E-02  -1.2660021E-02  -2.9515761E-03  -4.9318019E-03  -7.4655898E-03  -1.0281594E-02  -1.2996730E-02  -1.5334736E-02  -1.7180501E-02  -1.8536756E-02  -4.0406394E-03  -6.7002848E-03  -1.0060838E-02  -5.0847190E-03  -8.3785737E-03  -6.0905814E-03  -9.9906670E-03  -7.1807983E-03  -1.1742393E-02  -8.5925702E-03  -1.3955645E-02  -1.0685544E-02  -1.7109839E-02  -1.3930779E-02  -2.1808270E-02  -1.8901261E-02  -2.8734522E-02  -2.6035765E-02  -3.8392637E-02  -3.4938943E-02  -5.0424326E-02  -4.4117529E-02  -6.3232206E-02   0.0000000E+00   0.0000000E+00   0.0000000E+00   0.0000000E+00   0.0000000E+00   0.0000000E+00   0.0000000E+00   0.0000000E+00   0.0000000E+00   0.0000000E+00   0.0000000E+00   0.0000000E+00   0.0000000E+00   0.0000000E+00   0.0000000E+00   0.0000000E+00   0.0000000E+00   0.0000000E+00   0.0000000E+00   0.0000000E+00   0.0000000E+00   0.0000000E+00   0.0000000E+00   0.0000000E+00   0.0000000E+00   0.0000000E+00   0.0000000E+00  -2.6541281E-06  -2.7300264E-06  -2.7746498E-06  -2.7967806E-06  -2.8040190E-06  -2.8024738E-06  -2.7968463E-06  -2.7905573E-06  -2.7859037E-06  -9.6810079E-05  -9.9853947E-05  -1.0173149E-04  -1.0274923E-04  -1.0317951E-04  -1.0324826E-04  -1.0313253E-04  -1.0296233E-04  -1.0282624E-04  -5.3613534E-04  -5.5373355E-04  -5.6479214E-04  -5.7098089E-04  -5.7380088E-04  -5.7450950E-04  -5.7410030E-04  -5.7330960E-04  -5.7264132E-04  -1.7137495E-03  -1.7718109E-03  -1.8081946E-03  -1.8288054E-03  -1.8384483E-03  -1.8411690E-03  -1.8401715E-03  -1.8378411E-03  -1.8358122E-03  -4.0956195E-03  -4.2367638E-03  -4.3242020E-03  -4.3736054E-03  -4.3966514E-03  -4.4030761E-03  -4.4005760E-03  -4.3949005E-03  -4.3899752E-03  -7.9971189E-03  -8.2699303E-03  -8.4379595E-03  -8.5313227E-03  -8.5735656E-03  -8.5838167E-03  -8.5771624E-03  -8.5648196E-03  -8.5544568E-03  -1.3329281E-02  -1.3768965E-02  -1.4036965E-02  -1.4181693E-02  -1.4242915E-02  -1.4252646E-02  -1.4236013E-02  -1.4211607E-02  -1.4192093E-02  -1.9472741E-02  -2.0079779E-02  -2.0441951E-02  -2.0628598E-02  -2.0697534E-02  -2.0695625E-02  -2.0659339E-02  -2.0615477E-02  -2.0582173E-02   0.0000000E+00   0.0000000E+00   0.0000000E+00   0.0000000E+00   0.0000000E+00   0.0000000E+00   0.0000000E+00   0.0000000E+00   0.0000000E+00   0.0000000E+00   0.0000000E+00   0.0000000E+00   0.0000000E+00   0.0000000E+00   0.0000000E+00   0.0000000E+00   0.0000000E+00   0.0000000E+00   0.0000000E+00   0.0000000E+00   0.0000000E+00   0.0000000E+00   0.0000000E+00   0.0000000E+00  -2.7842125E-06  -2.7859039E-06  -2.7905564E-06  -2.7968451E-06  -2.8024740E-06  -2.8040185E-06  -2.7967808E-06  -2.7746498E-06  -1.0277535E-04  -1.0282624E-04  -1.0296233E-04  -1.0313250E-04  -1.0324825E-04  -1.0317950E-04  -1.0274925E-04  -1.0173149E-04  -5.7238684E-04  -5.7264126E-04  -5.7330972E-04  -5.7410018E-04  -5.7450944E-04  -5.7380099E-04  -5.7098083E-04  -5.6479225E-04  -1.8350328E-03  -1.8358121E-03  -1.8378409E-03  -1.8401711E-03  -1.8411693E-03  -1.8384481E-03  -1.8288050E-03  -1.8081947E-03  -4.3880856E-03  -4.3899748E-03  -4.3949001E-03  -4.4005769E-03  -4.4030766E-03  -4.3966533E-03  -4.3736068E-03  -4.3242034E-03  -8.5505173E-03  -8.5544568E-03  -8.5648196E-03  -8.5771605E-03  -8.5838158E-03  -8.5735694E-03  -8.5313236E-03  -8.4379623E-03  -1.4184783E-02  -1.4192087E-02  -1.4211605E-02  -1.4236012E-02  -1.4252645E-02  -1.4242915E-02  -1.4181693E-02  -1.4036966E-02  -2.0569952E-02  -2.0582175E-02  -2.0615475E-02  -2.0659339E-02  -2.0695629E-02  -2.0697532E-02  -2.0628590E-02  -2.0441951E-02   0.0000000E+00   0.0000000E+00   0.0000000E+00   0.0000000E+00   0.0000000E+00   0.0000000E+00   0.0000000E+00   0.0000000E+00   0.0000000E+00   0.0000000E+00   0.0000000E+00   0.0000000E+00   0.0000000E+00   0.0000000E+00   0.0000000E+00   0.0000000E+00   0.0000000E+00   0.0000000E+00   0.0000000E+00   0.0000000E+00   0.0000000E+00   0.0000000E+00   0.0000000E+00   0.0000000E+00   0.0000000E+00   0.0000000E+00   0.0000000E+00  -2.7300264E-06  -2.6541288E-06  -2.5376398E-06  -2.3717564E-06  -2.1498190E-06  -1.8158414E-06  -1.2006972E-06  -4.9529615E-07  -7.4894167E-08  -9.9853940E-05  -9.6810123E-05  -9.2284230E-05  -8.5770909E-05  -7.5640652E-05  -6.0934741E-05  -4.3027652E-05  -2.5270001E-05  -1.1372881E-05  -5.5373361E-04  -5.3613546E-04  -5.0958700E-04  -4.6943943E-04  -4.1180273E-04  -3.3628530E-04  -2.4898682E-04  -1.6229294E-04  -8.9751251E-05  -1.7718100E-03  -1.7137490E-03  -1.6246631E-03  -1.4940217E-03  -1.3138916E-03  -1.0852574E-03  -8.2472136E-04  -5.6441961E-04  -3.4030539E-04  -4.2367643E-03  -4.0956195E-03  -3.8809411E-03  -3.5714207E-03  -3.1515388E-03  -2.6245844E-03  -2.0259398E-03  -1.4242107E-03  -8.9756225E-04  -8.2699321E-03  -7.9971179E-03  -7.5836997E-03  -6.9910055E-03  -6.1910404E-03  -5.1887315E-03  -4.0461118E-03  -2.8891880E-03  -1.8664028E-03  -1.3768964E-02  -1.3329281E-02  -1.2660018E-02  -1.1698703E-02  -1.0399117E-02  -8.7643359E-03  -6.8853791E-03  -4.9635442E-03  -3.2507877E-03  -2.0079767E-02  -1.9472737E-02  -1.8536758E-02  -1.7180506E-02  -1.5334735E-02  -1.2996734E-02  -1.0281604E-02  -7.4655926E-03  -4.9318024E-03  -1.0060842E-02  -6.7002866E-03  -8.3785765E-03  -9.9906716E-03  -1.1742395E-02  -1.3955644E-02  -1.7109843E-02  -2.1808280E-02  -2.8734529E-02  -3.8392644E-02  -5.0424326E-02  -6.3232221E-02   0.0000000E+00   0.0000000E+00   0.0000000E+00   0.0000000E+00   0.0000000E+00   0.0000000E+00   0.0000000E+00   0.0000000E+00   0.0000000E+00   0.0000000E+00   0.0000000E+00   0.0000000E+00   0.0000000E+00   0.0000000E+00   0.0000000E+00  -3.3032090E-06  -3.5853168E-07   0.0000000E+00   0.0000000E+00  -3.9621911E-05  -1.2200117E-05  -1.6933062E-06  -2.5332923E-19  -1.7542239E-04  -7.3026749E-05  -2.1413043E-05  -2.9088023E-06  -4.9844012E-04  -2.3674153E-04  -8.9986963E-05  -2.3149194E-05  -1.0791172E-03  -5.4884009E-04  -2.3618601E-04  -7.8329824E-05  -1.9217388E-03  -1.0147387E-03  -4.6641749E-04  -1.7526853E-04  -2.9515766E-03  -1.5902072E-03  -7.5684121E-04  -3.0314774E-04  -4.0406417E-03  -2.2003148E-03  -1.0651740E-03  -4.3940902E-04  -5.0847195E-03  -2.7852424E-03  -1.3570773E-03  -5.6464120E-04  -6.0905819E-03  -3.3454124E-03  -1.6305617E-03  -6.7616213E-04  -7.1808016E-03  -3.9514476E-03  -1.9240135E-03  -7.9273258E-04  -8.5925702E-03  -4.7529927E-03  -2.3192707E-03  -9.5295196E-04  -1.0685546E-02  -5.9815207E-03  -2.9444415E-03  -1.2163634E-03  -1.3930779E-02  -7.9503814E-03  -3.9784289E-03  -1.6690613E-03  -1.8901255E-02  -1.1060813E-02  -5.6673158E-03  -2.4409925E-03  -2.6035760E-02  -1.5631963E-02  -8.2483599E-03  -3.7032696E-03  -3.4938946E-02  -2.1356910E-02  -1.1625780E-02  -5.5530155E-03  -4.4117518E-02  -2.7194906E-02  -1.5230292E-02   0.0000000E+00   0.0000000E+00   0.0000000E+00   0.0000000E+00   0.0000000E+00   0.0000000E+00   0.0000000E+00   0.0000000E+00   0.0000000E+00   0.0000000E+00   0.0000000E+00   0.0000000E+00   0.0000000E+00   0.0000000E+00   0.0000000E+00   0.0000000E+00   0.0000000E+00   0.0000000E+00   0.0000000E+00   0.0000000E+00   0.0000000E+00   0.0000000E+00   0.0000000E+00   0.0000000E+00   0.0000000E+00   0.0000000E+00   0.0000000E+00   0.0000000E+00   0.0000000E+00   0.0000000E+00   0.0000000E+00   0.0000000E+00   0.0000000E+00   0.0000000E+00   0.0000000E+00   0.0000000E+00   0.0000000E+00   0.0000000E+00   0.0000000E+00   0.0000000E+00   0.0000000E+00   0.0000000E+00   0.0000000E+00   0.0000000E+00   0.0000000E+00   0.0000000E+00   0.0000000E+00   0.0000000E+00   0.0000000E+00   0.0000000E+00   0.0000000E+00   0.0000000E+00   0.0000000E+00   0.0000000E+00   0.0000000E+00   0.0000000E+00   0.0000000E+00   0.0000000E+00   0.0000000E+00   0.0000000E+00   0.0000000E+00   0.0000000E+00   0.0000000E+00   0.0000000E+00   0.0000000E+00   0.0000000E+00   0.0000000E+00   0.0000000E+00   0.0000000E+00   0.0000000E+00   0.0000000E+00   0.0000000E+00   0.0000000E+00   0.0000000E+00   0.0000000E+00   0.0000000E+00   0.0000000E+00   0.0000000E+00   0.0000000E+00   0.0000000E+00   0.0000000E+00   0.0000000E+00   0.0000000E+00   0.0000000E+00   0.0000000E+00   0.0000000E+00   0.0000000E+00   0.0000000E+00   0.0000000E+00   0.0000000E+00   0.0000000E+00   0.0000000E+00   0.0000000E+00   0.0000000E+00   0.0000000E+00   0.0000000E+00   0.0000000E+00   0.0000000E+00   0.0000000E+00   0.0000000E+00   0.0000000E+00   0.0000000E+00   0.0000000E+00   0.0000000E+00   0.0000000E+00   0.0000000E+00   0.0000000E+00   0.0000000E+00   0.0000000E+00   0.0000000E+00   0.0000000E+00   0.0000000E+00   0.0000000E+00   0.0000000E+00   0.0000000E+00   0.0000000E+00   0.0000000E+00   0.0000000E+00   0.0000000E+00   0.0000000E+00   0.0000000E+00   0.0000000E+00   0.0000000E+00   0.0000000E+00   0.0000000E+00   0.0000000E+00   0.0000000E+00   0.0000000E+00   0.0000000E+00   0.0000000E+00   0.0000000E+00   0.0000000E+00   0.0000000E+00   0.0000000E+00   0.0000000E+00   0.0000000E+00   0.0000000E+00   0.0000000E+00   0.0000000E+00   0.0000000E+00   0.0000000E+00   0.0000000E+00   0.0000000E+00   0.0000000E+00   0.0000000E+00   0.0000000E+00   0.0000000E+00   0.0000000E+00   0.0000000E+00   0.0000000E+00   0.0000000E+00   0.0000000E+00   0.0000000E+00   0.0000000E+00   0.0000000E+00   0.0000000E+00   0.0000000E+00   0.0000000E+00   0.0000000E+00   0.0000000E+00   0.0000000E+00   0.0000000E+00   0.0000000E+00   0.0000000E+00   0.0000000E+00   0.0000000E+00   0.0000000E+00   0.0000000E+00   0.0000000E+00   0.0000000E+00   0.0000000E+00   0.0000000E+00   0.0000000E+00   0.0000000E+00   0.0000000E+00   0.0000000E+00   0.0000000E+00   0.0000000E+00   0.0000000E+00   0.0000000E+00   0.0000000E+00   0.0000000E+00   0.0000000E+00   0.0000000E+00   0.0000000E+00   0.0000000E+00   0.0000000E+00   0.0000000E+00   0.0000000E+00   0.0000000E+00   0.0000000E+00   0.0000000E+00   0.0000000E+00   0.0000000E+00   0.0000000E+00   0.0000000E+00   0.0000000E+00   0.0000000E+00   0.0000000E+00   0.0000000E+00   0.0000000E+00   0.0000000E+00   0.0000000E+00   0.0000000E+00   0.0000000E+00   0.0000000E+00   0.0000000E+00   0.0000000E+00   0.0000000E+00   0.0000000E+00   0.0000000E+00   0.0000000E+00   0.0000000E+00   0.0000000E+00   0.0000000E+00   0.0000000E+00   0.0000000E+00   0.0000000E+00   0.0000000E+00   0.0000000E+00   0.0000000E+00   0.0000000E+00   0.0000000E+00   0.0000000E+00   0.0000000E+00   0.0000000E+00   0.0000000E+00   0.0000000E+00   0.0000000E+00   0.0000000E+00   0.0000000E+00   0.0000000E+00   0.0000000E+00   0.0000000E+00   0.0000000E+00   0.0000000E+00   0.0000000E+00   0.0000000E+00   0.0000000E+00   0.0000000E+00   0.0000000E+00   0.0000000E+00   0.0000000E+00   0.0000000E+00   0.0000000E+00   0.0000000E+00   0.0000000E+00   0.0000000E+00   0.0000000E+00   0.0000000E+00   0.0000000E+00   0.0000000E+00   0.0000000E+00   0.0000000E+00   0.0000000E+00   0.0000000E+00   0.0000000E+00   0.0000000E+00   0.0000000E+00   0.0000000E+00   0.0000000E+00   0.0000000E+00   0.0000000E+00   0.0000000E+00   0.0000000E+00   0.0000000E+00   0.0000000E+00   0.0000000E+00   0.0000000E+00   0.0000000E+00   0.0000000E+00   0.0000000E+00   0.0000000E+00   0.0000000E+00   0.0000000E+00   0.0000000E+00   0.0000000E+00   0.0000000E+00   0.0000000E+00   0.0000000E+00   0.0000000E+00   0.0000000E+00   0.0000000E+00   0.0000000E+00   0.0000000E+00   0.0000000E+00   0.0000000E+00   0.0000000E+00   0.0000000E+00   0.0000000E+00   0.0000000E+00   0.0000000E+00   0.0000000E+00   0.0000000E+00   0.0000000E+00   0.0000000E+00   0.0000000E+00   0.0000000E+00   0.0000000E+00   0.0000000E+00   0.0000000E+00   0.0000000E+00   0.0000000E+00   0.0000000E+00   0.0000000E+00   0.0000000E+00   0.0000000E+00   0.0000000E+00   0.0000000E+00   0.0000000E+00   0.0000000E+00   0.0000000E+00   0.0000000E+00   0.0000000E+00   0.0000000E+00   0.0000000E+00   0.0000000E+00   0.0000000E+00   0.0000000E+00   0.0000000E+00   0.0000000E+00   0.0000000E+00   0.0000000E+00   0.0000000E+00   0.0000000E+00   0.0000000E+00   0.0000000E+00   0.0000000E+00   0.0000000E+00   0.0000000E+00   0.0000000E+00   0.0000000E+00   0.0000000E+00   0.0000000E+00   0.0000000E+00   0.0000000E+00   0.0000000E+00   0.0000000E+00   0.0000000E+00   0.0000000E+00   0.0000000E+00   0.0000000E+00   0.0000000E+00   0.0000000E+00   0.0000000E+00   0.0000000E+00   0.0000000E+00   0.0000000E+00   0.0000000E+00   0.0000000E+00   0.0000000E+00   0.0000000E+00   0.0000000E+00   0.0000000E+00   0.0000000E+00   0.0000000E+00   0.0000000E+00   0.0000000E+00   0.0000000E+00   0.0000000E+00   0.0000000E+00   0.0000000E+00   0.0000000E+00   0.0000000E+00   0.0000000E+00   0.0000000E+00   0.0000000E+00   0.0000000E+00   0.0000000E+00   0.0000000E+00   0.0000000E+00   0.0000000E+00   0.0000000E+00   0.0000000E+00   0.0000000E+00   0.0000000E+00   0.0000000E+00   0.0000000E+00   0.0000000E+00   0.0000000E+00   0.0000000E+00   0.0000000E+00   0.0000000E+00   0.0000000E+00   0.0000000E+00   0.0000000E+00   0.0000000E+00   0.0000000E+00   0.0000000E+00   0.0000000E+00   0.0000000E+00   0.0000000E+00   0.0000000E+00   0.0000000E+00   0.0000000E+00   0.0000000E+00   0.0000000E+00   0.0000000E+00   0.0000000E+00   0.0000000E+00   0.0000000E+00   0.0000000E+00   0.0000000E+00   0.0000000E+00   0.0000000E+00   0.0000000E+00   0.0000000E+00   0.0000000E+00   0.0000000E+00   0.0000000E+00   0.0000000E+00   0.0000000E+00   0.0000000E+00   0.0000000E+00   0.0000000E+00   0.0000000E+00   0.0000000E+00   0.0000000E+00   0.0000000E+00   0.0000000E+00   0.0000000E+00   0.0000000E+00   0.0000000E+00   0.0000000E+00   0.0000000E+00   0.0000000E+00   0.0000000E+00   0.0000000E+00   0.0000000E+00   0.0000000E+00   0.0000000E+00   0.0000000E+00   0.0000000E+00   0.0000000E+00   0.0000000E+00   0.0000000E+00   0.0000000E+00   0.0000000E+00   0.0000000E+00   0.0000000E+00   0.0000000E+00   0.0000000E+00   0.0000000E+00   0.0000000E+00   0.0000000E+00   0.0000000E+00   0.0000000E+00   0.0000000E+00   0.0000000E+00   0.0000000E+00   0.0000000E+00   0.0000000E+00   0.0000000E+00   0.0000000E+00   0.0000000E+00   0.0000000E+00   0.0000000E+00   0.0000000E+00   0.0000000E+00   0.0000000E+00   0.0000000E+00   0.0000000E+00   0.0000000E+00   0.0000000E+00   0.0000000E+00   0.0000000E+00   0.0000000E+00   0.0000000E+00   0.0000000E+00   0.0000000E+00   0.0000000E+00   0.0000000E+00  -1.3716105E-02  -1.7199211E-02  -2.0175582E-02  -2.2503443E-02  -2.4192546E-02  -1.2486027E-02  -1.6881494E-02  -2.1022143E-02  -2.4520177E-02  -2.7214067E-02  -2.9128421E-02  -1.4814741E-02  -1.9944753E-02  -2.4712238E-02  -2.8665189E-02  -3.1638820E-02  -3.3688650E-02  -1.7351443E-02  -2.3263112E-02  -2.8676910E-02  -3.3068538E-02  -3.6276333E-02  -3.8401823E-02  -2.0520687E-02  -2.7280778E-02  -3.3363387E-02  -3.8192518E-02  -4.1615855E-02  -4.3779783E-02  -2.5112782E-02  -3.2714695E-02  -3.9357442E-02  -4.4502329E-02  -4.8060659E-02  -5.0220352E-02  -3.2373879E-02  -4.0654894E-02  -4.7456454E-02  -5.2536801E-02  -5.5964228E-02  -5.7981573E-02  -4.4001836E-02  -5.2432187E-02  -5.8552444E-02  -6.2838241E-02  -6.5640219E-02  -6.7235790E-02  -6.1762411E-02  -6.9144487E-02  -7.3259577E-02  -7.5757116E-02  -7.7304408E-02  -7.8117430E-02  -8.6136132E-02  -9.0625584E-02  -9.1349870E-02  -9.1209888E-02  -9.1009662E-02  -9.0748727E-02  -1.1403733E-01  -1.1445051E-01  -1.1141729E-01  -1.0856868E-01  -1.0658568E-01  -1.0518300E-01  -1.3833717E-01  -1.3683897E-01  -1.3157269E-01  -1.2701587E-01  -1.2376409E-01  -1.2141421E-01  -1.5774794E-01  -1.5638907E-01  -1.5107693E-01  -1.4620392E-01  -1.4242801E-01  -1.3945927E-01  -1.7627719E-01  -1.7506076E-01  -1.7076020E-01  -1.6644363E-01  -1.6269648E-01  -1.5939116E-01  -1.9613129E-01  -1.9498557E-01  -1.9181637E-01  -1.8829212E-01  -1.8479203E-01  -1.8130957E-01  -2.1828462E-01  -2.1729878E-01  -2.1501343E-01  -2.1215381E-01  -2.0890334E-01  -2.0532137E-01  -2.4317586E-01  -2.4234709E-01  -2.4063410E-01  -2.3823425E-01  -2.3519441E-01  -2.3157567E-01  -2.7077800E-01  -2.7009767E-01  -2.6877996E-01  -2.6673791E-01  -2.6390633E-01  -2.6031175E-01  -3.0110019E-01  -3.0070180E-01  -2.9975399E-01  -2.9803485E-01  -2.9540160E-01  -2.9183590E-01  -3.3484739E-01  -3.3476102E-01  -3.3410117E-01  -3.3259743E-01  -3.3006111E-01  -3.2643673E-01  -3.7286204E-01  -3.7289256E-01  -3.7230861E-01  -3.7081209E-01  -3.6818108E-01  -3.6433035E-01  -4.1565344E-01  -4.1552076E-01  -4.1471741E-01  -4.1293228E-01  -4.0993014E-01  -4.0561649E-01  -4.6357200E-01  -4.6288878E-01  -4.6146244E-01  -4.5898962E-01  -4.5525041E-01  -4.5016861E-01  -5.1652706E-01  -5.1476967E-01  -5.1218736E-01  -5.0851423E-01  -5.0358540E-01  -4.9737683E-01  -5.7331991E-01  -5.6985211E-01  -5.6547910E-01  -5.6002086E-01  -5.5340773E-01  -5.4570276E-01  -6.3071692E-01  -6.2491572E-01  -6.1813986E-01  -6.1035985E-01  -6.0163897E-01  -5.9214765E-01  -6.8259192E-01  -6.7408186E-01  -6.6454500E-01  -6.5417612E-01  -6.4318705E-01  -6.3185573E-01  -7.1959805E-01  -7.0855719E-01  -6.9647104E-01  -6.8379194E-01  -6.7087078E-01  -6.5805876E-01  -7.2918302E-01  -7.1672076E-01  -7.0328826E-01  -6.8950242E-01  -6.7574245E-01  -6.6238326E-01  -6.9472742E-01  -6.8322390E-01  -6.7109227E-01  -6.5884727E-01  -6.4662194E-01  -6.3462394E-01  -5.9497601E-01  -5.8805168E-01  -5.8112442E-01  -5.7435387E-01  -5.6739402E-01  -5.5995876E-01  -4.0701738E-01  -4.0878606E-01  -4.1118950E-01  -4.1403612E-01  -4.1641510E-01  -4.1731271E-01  -1.1489534E-01  -1.2865259E-01  -1.4343056E-01  -1.5878829E-01  -1.7337145E-01  -1.8546104E-01   2.7752349E-01   2.5096795E-01   2.2320840E-01   1.9506963E-01   1.6810744E-01   1.4439943E-01   7.3371035E-01   6.9799364E-01   6.6052258E-01   6.2307572E-01   5.8721805E-01   5.5485398E-01   1.1779449E+00   1.1432521E+00   1.1050504E+00   1.0664892E+00   1.0292108E+00   9.9450892E-01   1.5123627E+00   1.4924673E+00   1.4677830E+00   1.4408104E+00   1.4128118E+00   1.3841633E+00   1.6753827E+00   1.6764108E+00   1.6748383E+00   1.6695499E+00   1.6594139E+00   1.6435481E+00   1.6801863E+00   1.7000761E+00   1.7200431E+00   1.7359709E+00   1.7443446E+00   1.7427750E+00   1.5904531E+00   1.6233959E+00   1.6578428E+00   1.6883103E+00   1.7099311E+00   1.7192615E+00   1.4763162E+00   1.5153736E+00   1.5559328E+00   1.5925008E+00   1.6198801E+00   1.6341826E+00   1.3809199E+00   1.4195571E+00   1.4588664E+00   1.4939803E+00   1.5199722E+00   1.5330179E+00   1.3096950E+00   1.3427553E+00   1.3753629E+00   1.4033525E+00   1.4223336E+00   1.4289576E+00   1.2406687E+00   1.2648113E+00   1.2871639E+00   1.3041751E+00   1.3122152E+00   1.3088303E+00   1.1462667E+00   1.1595851E+00   1.1694446E+00   1.1729090E+00   1.1674565E+00   1.1520121E+00   1.0138056E+00   1.0148933E+00   1.0106355E+00   9.9878615E-01   9.7833294E-01   9.5007038E-01   8.5255963E-01   8.4024394E-01   8.2077235E-01   7.9281282E-01   7.5722021E-01   7.1706319E-01   6.8628585E-01   6.6001034E-01   6.2528437E-01   5.8218765E-01   5.3375643E-01   4.8488432E-01   5.3979927E-01   5.0030088E-01   4.5174795E-01   3.9635700E-01   3.3907980E-01   2.8539610E-01   4.2613599E-01   3.7634391E-01   3.1716064E-01   2.5337163E-01   1.9131780E-01   1.3602543E-01   3.4416622E-01   2.8880894E-01   2.2277494E-01   1.5466782E-01   9.1607019E-02   3.7331827E-02   2.8576851E-01   2.2784176E-01   1.5772828E-01   8.9545339E-02   2.9213976E-02  -2.1425098E-02   2.5161552E-01   1.8234594E-01   1.0745315E-01   4.3388452E-02  -1.0347313E-02  -5.4476559E-02   2.4573688E-01   1.4532331E-01   6.3335799E-02   4.9480102E-03  -3.8914859E-02  -7.3797062E-02   2.4050882E-01   1.1435248E-01   2.3287965E-02  -3.0108279E-02  -6.2675633E-02  -8.6567931E-02   9.4444834E-02  -8.8059017E-03  -5.9105664E-02  -8.2350604E-02  -9.5619582E-02   8.6209908E-02  -2.0009482E-02  -7.5987831E-02  -9.5546231E-02  -1.0169756E-01  -2.2782846E-03  -7.2249562E-02  -9.7442210E-02  -1.0413022E-01   3.2434721E-02  -3.6483638E-02  -8.0695108E-02  -9.7878560E-02   1.8635407E-02  -3.6352303E-02  -7.1457267E-02   2.6104225E-02  -1.3907063E-02   4.1254289E-02   4.9409870E-02  -2.5338568E-02  -2.6064375E-02  -2.6481189E-02  -2.6678678E-02  -2.6731495E-02  -2.6700361E-02  -2.6632039E-02  -2.6560597E-02  -2.6508978E-02  -3.0391539E-02  -3.1160846E-02  -3.1574257E-02  -3.1739600E-02  -3.1745788E-02  -3.1664632E-02  -3.1550772E-02  -3.1443566E-02  -3.1369254E-02  -3.4986712E-02  -3.5730518E-02  -3.6085796E-02  -3.6177561E-02  -3.6107246E-02  -3.5955459E-02  -3.5782479E-02  -3.5631087E-02  -3.5529580E-02  -3.9673917E-02  -4.0337682E-02  -4.0589157E-02  -4.0571470E-02  -4.0398050E-02  -4.0156543E-02  -3.9911263E-02  -3.9707188E-02  -3.9573766E-02  -4.4981595E-02  -4.5522407E-02  -4.5632396E-02  -4.5474783E-02  -4.5174479E-02  -4.4825237E-02  -4.4494621E-02  -4.4229072E-02  -4.4058595E-02  -5.1312219E-02  -5.1690970E-02  -5.1625952E-02  -5.1301003E-02  -5.0851390E-02  -5.0376650E-02  -4.9947128E-02  -4.9610544E-02  -4.9397402E-02  -5.8903012E-02  -5.9076563E-02  -5.8803093E-02  -5.8283590E-02  -5.7662286E-02  -5.7043817E-02  -5.6501120E-02  -5.6083262E-02  -5.5821177E-02  -6.7859694E-02  -6.7774095E-02  -6.7254268E-02  -6.6511370E-02  -6.5695263E-02  -6.4914435E-02  -6.4243957E-02  -6.3734017E-02  -6.3416503E-02  -7.8262217E-02  -7.7837840E-02  -7.7027589E-02  -7.6029964E-02  -7.4995488E-02  -7.4033439E-02  -7.3220402E-02  -7.2607838E-02  -7.2228216E-02  -9.0242319E-02  -8.9386217E-02  -8.8235892E-02  -8.6949870E-02  -8.5672326E-02  -8.4510274E-02  -8.3540060E-02  -8.2813948E-02  -8.2365744E-02  -1.0393702E-01  -1.0257133E-01  -1.0102838E-01  -9.9418141E-02  -9.7871542E-02  -9.6489400E-02  -9.5346577E-02  -9.4495878E-02  -9.3972370E-02  -1.1945098E-01  -1.1753234E-01  -1.1554942E-01  -1.1357936E-01  -1.1173602E-01  -1.1011223E-01  -1.0878018E-01  -1.0779315E-01  -1.0718719E-01  -1.3687530E-01  -1.3439631E-01  -1.3194083E-01  -1.2958010E-01  -1.2741266E-01  -1.2552424E-01  -1.2398507E-01  -1.2284891E-01  -1.2215282E-01  -1.5629669E-01  -1.5327939E-01  -1.5034147E-01  -1.4756873E-01  -1.4505224E-01  -1.4287584E-01  -1.4111026E-01  -1.3981071E-01  -1.3901594E-01  -1.7780122E-01  -1.7429411E-01  -1.7088912E-01  -1.6769405E-01  -1.6480714E-01  -1.6231896E-01  -1.6030595E-01  -1.5882750E-01  -1.5792431E-01  -2.0149183E-01  -1.9756788E-01  -1.9372548E-01  -1.9010445E-01  -1.8682724E-01  -1.8400256E-01  -1.8171880E-01  -1.8004267E-01  -1.7901944E-01  -2.2752137E-01  -2.2325434E-01  -2.1900009E-01  -2.1494626E-01  -2.1125600E-01  -2.0806597E-01  -2.0548347E-01  -2.0358710E-01  -2.0242895E-01  -2.5610340E-01  -2.5153014E-01  -2.4686648E-01  -2.4236013E-01  -2.3822425E-01  -2.3463207E-01  -2.3171580E-01  -2.2957018E-01  -2.2825852E-01  -2.8747186E-01  -2.8257585E-01  -2.7747282E-01  -2.7247295E-01  -2.6784390E-01  -2.6380053E-01  -2.6050514E-01  -2.5807381E-01  -2.5658509E-01  -3.2183990E-01  -3.1655243E-01  -3.1094512E-01  -3.0538771E-01  -3.0020046E-01  -2.9564315E-01  -2.9191229E-01  -2.8915113E-01  -2.8745627E-01  -3.5936269E-01  -3.5357201E-01  -3.4736809E-01  -3.4116986E-01  -3.3534664E-01  -3.3020216E-01  -3.2597220E-01  -3.2283050E-01  -3.2089826E-01  -4.0008992E-01  -3.9365584E-01  -3.8674855E-01  -3.7982014E-01  -3.7328127E-01  -3.6747712E-01  -3.6268511E-01  -3.5911441E-01  -3.5691249E-01  -4.4385761E-01  -4.3662876E-01  -4.2891806E-01  -4.2118785E-01  -4.1387340E-01  -4.0735769E-01  -4.0195671E-01  -3.9791909E-01  -3.9542317E-01  -4.9003732E-01  -4.8187673E-01  -4.7330144E-01  -4.6474686E-01  -4.5664918E-01  -4.4941500E-01  -4.4339606E-01  -4.3888089E-01  -4.3608269E-01  -5.3710955E-01  -5.2793115E-01  -5.1850474E-01  -5.0918865E-01  -5.0038511E-01  -4.9250212E-01  -4.8591888E-01  -4.8096204E-01  -4.7788173E-01  -5.8216172E-01  -5.7197273E-01  -5.6181461E-01  -5.5191511E-01  -5.4259437E-01  -5.3423536E-01  -5.2722889E-01  -5.2193177E-01  -5.1862913E-01  -6.2052763E-01  -6.0948682E-01  -5.9884763E-01  -5.8866757E-01  -5.7914448E-01  -5.7059920E-01  -5.6341231E-01  -5.5795556E-01  -5.5454206E-01  -6.4575756E-01  -6.3425112E-01  -6.2354529E-01  -6.1352313E-01  -6.0423601E-01  -5.9591800E-01  -5.8890295E-01  -5.8355564E-01  -5.8019865E-01  -6.4991105E-01  -6.3863921E-01  -6.2851053E-01  -6.1925793E-01  -6.1079586E-01  -6.0324383E-01  -5.9686339E-01  -5.9197825E-01  -5.8890003E-01  -6.2339741E-01  -6.1344272E-01  -6.0477740E-01  -5.9707123E-01  -5.9012187E-01  -5.8394325E-01  -5.7870257E-01  -5.7466292E-01  -5.7210088E-01  -5.5236673E-01  -5.4533267E-01  -5.3924334E-01  -5.3392649E-01  -5.2916318E-01  -5.2489448E-01  -5.2121651E-01  -5.1833171E-01  -5.1647675E-01  -4.1645700E-01  -4.1452837E-01  -4.1240469E-01  -4.1038230E-01  -4.0842628E-01  -4.0650362E-01  -4.0469491E-01  -4.0317598E-01  -4.0215468E-01  -1.9403058E-01  -1.9938906E-01  -2.0272331E-01  -2.0494643E-01  -2.0640321E-01  -2.0721932E-01  -2.0753311E-01  -2.0753597E-01  -2.0743261E-01   1.2554306E-01   1.1176218E-01   1.0191710E-01   9.4648130E-02   8.9212306E-02   8.5261658E-02   8.2552694E-02   8.0851607E-02   7.9939850E-02   5.2763200E-01   5.0619137E-01   4.8982897E-01   4.7719848E-01   4.6738729E-01   4.5990345E-01   4.5443422E-01   4.5073953E-01   4.4861963E-01   9.6352744E-01   9.3717444E-01   9.1553926E-01   8.9787024E-01   8.8349015E-01   8.7200421E-01   8.6320716E-01   8.5699713E-01   8.5330707E-01   1.3554800E+00   1.3280779E+00   1.3031831E+00   1.2811655E+00   1.2620542E+00   1.2459450E+00   1.2330527E+00   1.2236294E+00   1.2178900E+00   1.6222792E+00   1.5974376E+00   1.5714488E+00   1.5461242E+00   1.5226626E+00   1.5019902E+00   1.4849086E+00   1.4721308E+00   1.4642179E+00   1.7309830E+00   1.7109940E+00   1.6860971E+00   1.6594334E+00   1.6333774E+00   1.6096700E+00   1.5896769E+00   1.5745053E+00   1.5650207E+00   1.7153803E+00   1.7001672E+00   1.6773489E+00   1.6509740E+00   1.6242336E+00   1.5994288E+00   1.5782727E+00   1.5620987E+00   1.5519373E+00   1.6341119E+00   1.6214041E+00   1.6000065E+00   1.5743928E+00   1.5481017E+00   1.5236194E+00   1.5027130E+00   1.4867229E+00   1.4766732E+00   1.5318589E+00   1.5183642E+00   1.4966596E+00   1.4712621E+00   1.4456185E+00   1.4220529E+00   1.4021357E+00   1.3870125E+00   1.3775524E+00   1.4224583E+00   1.4051464E+00   1.3812987E+00   1.3551792E+00   1.3298227E+00   1.3071517E+00   1.2883729E+00   1.2743160E+00   1.2656034E+00   1.2941580E+00   1.2710956E+00   1.2439227E+00   1.2164031E+00   1.1909652E+00   1.1689848E+00   1.1512234E+00   1.1381638E+00   1.1301620E+00   1.1278783E+00   1.0984942E+00   1.0678700E+00   1.0390198E+00   1.0135956E+00   9.9235064E-01   9.7559470E-01   9.6348399E-01   9.5614785E-01   9.1665685E-01   8.8182694E-01   8.4888929E-01   8.1977850E-01   7.9522032E-01   7.7530712E-01   7.5992715E-01   7.4897587E-01   7.4240768E-01   6.7630142E-01   6.3840765E-01   6.0544050E-01   5.7797474E-01   5.5573988E-01   5.3820145E-01   5.2489716E-01   5.1553679E-01   5.0996488E-01   4.4006726E-01   4.0204000E-01   3.7137881E-01   3.4726417E-01   3.2852125E-01   3.1411994E-01   3.0336502E-01   2.9586715E-01   2.9142869E-01   2.3959903E-01   2.0351170E-01   1.7637132E-01   1.5618980E-01   1.4111689E-01   1.2982164E-01   1.2150197E-01   1.1574429E-01   1.1234985E-01   9.1053024E-02   5.7499189E-02   3.3681586E-02   1.6798617E-02   4.6073147E-03  -4.3299510E-03  -1.0820695E-02  -1.5270437E-02  -1.7877880E-02  -5.8483337E-03  -3.7382971E-02  -5.9094753E-02  -7.4105114E-02  -8.4762275E-02  -9.2447974E-02  -9.7923659E-02  -1.0160845E-01  -1.0373803E-01  -6.1801512E-02  -9.1994368E-02  -1.1320584E-01  -1.2801011E-01  -1.3857073E-01  -1.4610726E-01  -1.5134315E-01  -1.5476507E-01  -1.5669619E-01  -9.0528764E-02  -1.1940426E-01  -1.4137739E-01  -1.5742058E-01  -1.6906402E-01  -1.7732114E-01  -1.8292581E-01  -1.8647970E-01  -1.8843190E-01  -1.0339601E-01  -1.2991108E-01  -1.5293758E-01  -1.7115374E-01  -1.8468304E-01  -1.9427714E-01  -2.0069821E-01  -2.0468417E-01  -2.0682718E-01  -1.0762213E-01  -1.2976032E-01  -1.5264913E-01  -1.7315008E-01  -1.8907481E-01  -2.0051599E-01  -2.0817493E-01  -2.1288621E-01  -2.1538968E-01  -1.0697799E-01  -1.2242041E-01  -1.4272721E-01  -1.6422561E-01  -1.8270949E-01  -1.9651274E-01  -2.0594679E-01  -2.1180741E-01  -2.1492562E-01  -1.0419146E-01  -1.1133696E-01  -1.2600845E-01  -1.4559293E-01  -1.6538830E-01  -1.8175213E-01  -1.9351642E-01  -2.0108013E-01  -2.0520034E-01  -1.0161442E-01  -1.0073654E-01  -1.0737713E-01  -1.2141953E-01  -1.3923451E-01  -1.5652831E-01  -1.7048153E-01  -1.8009904E-01  -1.8555669E-01  -9.9717297E-02  -9.4452560E-02  -9.2561543E-02  -9.8186761E-02  -1.1010753E-01  -1.2472142E-01  -1.3852705E-01  -1.4929250E-01  -1.5592235E-01  -8.9943215E-02  -9.2467703E-02  -8.6085647E-02  -8.2435049E-02  -8.5343078E-02  -9.3441039E-02  -1.0360149E-01  -1.1299247E-01  -1.1945432E-01  -5.6862690E-02  -7.9908699E-02  -8.5305966E-02  -7.8075245E-02  -7.1331367E-02  -7.0020862E-02  -7.3359810E-02  -7.8586228E-02  -8.2972057E-02  -2.3404173E-04  -3.9891571E-02  -6.6526622E-02  -7.4747123E-02  -6.9069169E-02  -5.9761789E-02  -5.4612055E-02  -5.3588483E-02  -5.4384492E-02   3.5896629E-02   6.9397246E-03  -2.0131044E-02  -4.1573152E-02  -5.3110249E-02  -5.3081933E-02  -4.8267692E-02  -4.3465391E-02  -4.0908713E-02   1.4170425E-02   9.0392875E-03  -5.0333655E-03  -1.2572461E-02  -1.7541897E-02  -1.9872861E-02  -2.4023186E-02  -2.5799256E-02  -1.0444161E-02  -6.2482841E-03  -1.0195991E-02  -9.9405292E-03  -6.8047866E-03   3.4456160E-03  -4.3400601E-02  -4.7466721E-02  -5.6366079E-02  -5.9999045E-02  -2.6490331E-02  -2.6508972E-02  -2.6560593E-02  -2.6632039E-02  -2.6700355E-02  -2.6731502E-02  -2.6678676E-02  -2.6481196E-02  -3.1342868E-02  -3.1369254E-02  -3.1443566E-02  -3.1550772E-02  -3.1664632E-02  -3.1745795E-02  -3.1739607E-02  -3.1574257E-02  -3.5494018E-02  -3.5529587E-02  -3.5631090E-02  -3.5782479E-02  -3.5955466E-02  -3.6107246E-02  -3.6177550E-02  -3.6085784E-02  -3.9527509E-02  -3.9573766E-02  -3.9707191E-02  -3.9911240E-02  -4.0156528E-02  -4.0398046E-02  -4.0571466E-02  -4.0589161E-02  -4.3999992E-02  -4.4058584E-02  -4.4229057E-02  -4.4494614E-02  -4.4825260E-02  -4.5174472E-02  -4.5474797E-02  -4.5632403E-02  -4.9324546E-02  -4.9397402E-02  -4.9610555E-02  -4.9947135E-02  -5.0376650E-02  -5.0851386E-02  -5.1301025E-02  -5.1625974E-02  -5.5732038E-02  -5.5821210E-02  -5.6083281E-02  -5.6501128E-02  -5.7043839E-02  -5.7662286E-02  -5.8283567E-02  -5.8803119E-02  -6.3308798E-02  -6.3416503E-02  -6.3734077E-02  -6.4243942E-02  -6.4914405E-02  -6.5695316E-02  -6.6511326E-02  -6.7254290E-02  -7.2099805E-02  -7.2228231E-02  -7.2607808E-02  -7.3220447E-02  -7.4033447E-02  -7.4995503E-02  -7.6029956E-02  -7.7027626E-02  -8.2214348E-02  -8.2365766E-02  -8.2813941E-02  -8.3540030E-02  -8.4510259E-02  -8.5672319E-02  -8.6949825E-02  -8.8235870E-02  -9.3795724E-02  -9.3972385E-02  -9.4495900E-02  -9.5346548E-02  -9.6489385E-02  -9.7871505E-02  -9.9418193E-02  -1.0102839E-01  -1.0698298E-01  -1.0718720E-01  -1.0779320E-01  -1.0878021E-01  -1.1011223E-01  -1.1173602E-01  -1.1357941E-01  -1.1554941E-01  -1.2191836E-01  -1.2215278E-01  -1.2284892E-01  -1.2398508E-01  -1.2552425E-01  -1.2741263E-01  -1.2958007E-01  -1.3194077E-01  -1.3874857E-01  -1.3901594E-01  -1.3981077E-01  -1.4111020E-01  -1.4287582E-01  -1.4505228E-01  -1.4756872E-01  -1.5034150E-01  -1.5762065E-01  -1.5792435E-01  -1.5882747E-01  -1.6030596E-01  -1.6231893E-01  -1.6480705E-01  -1.6769408E-01  -1.7088915E-01  -1.7867550E-01  -1.7901948E-01  -1.8004262E-01  -1.8171874E-01  -1.8400256E-01  -1.8682724E-01  -1.9010448E-01  -1.9372553E-01  -2.0203981E-01  -2.0242891E-01  -2.0358703E-01  -2.0548356E-01  -2.0806599E-01  -2.1125594E-01  -2.1494637E-01  -2.1899997E-01  -2.2781742E-01  -2.2825858E-01  -2.2957018E-01  -2.3171583E-01  -2.3463209E-01  -2.3822428E-01  -2.4236014E-01  -2.4686652E-01  -2.5608382E-01  -2.5658515E-01  -2.5807396E-01  -2.6050511E-01  -2.6380071E-01  -2.6784393E-01  -2.7247304E-01  -2.7747282E-01  -2.8688523E-01  -2.8745633E-01  -2.8915095E-01  -2.9191226E-01  -2.9564309E-01  -3.0020067E-01  -3.0538759E-01  -3.1094521E-01  -3.2024610E-01  -3.2089835E-01  -3.2283065E-01  -3.2597217E-01  -3.3020222E-01  -3.3534676E-01  -3.4116974E-01  -3.4736806E-01  -3.5616869E-01  -3.5691252E-01  -3.5911432E-01  -3.6268514E-01  -3.6747697E-01  -3.7328109E-01  -3.7981993E-01  -3.8674870E-01  -3.9457893E-01  -3.9542302E-01  -3.9791894E-01  -4.0195677E-01  -4.0735775E-01  -4.1387331E-01  -4.2118821E-01  -4.2891812E-01  -4.3513510E-01  -4.3608278E-01  -4.3888074E-01  -4.4339612E-01  -4.4941491E-01  -4.5664921E-01  -4.6474671E-01  -4.7330132E-01  -4.7683698E-01  -4.7788188E-01  -4.8096207E-01  -4.8591909E-01  -4.9250209E-01  -5.0038511E-01  -5.0918883E-01  -5.1850444E-01  -5.1750708E-01  -5.1862925E-01  -5.2193159E-01  -5.2722901E-01  -5.3423578E-01  -5.4259461E-01  -5.5191487E-01  -5.6181467E-01  -5.5338019E-01  -5.5454183E-01  -5.5795521E-01  -5.6341219E-01  -5.7059926E-01  -5.7914370E-01  -5.8866751E-01  -5.9884751E-01  -5.7905334E-01  -5.8019876E-01  -5.8355552E-01  -5.8890343E-01  -5.9591788E-01  -6.0423648E-01  -6.1352301E-01  -6.2354535E-01  -5.8784741E-01  -5.8889967E-01  -5.9197807E-01  -5.9686339E-01  -6.0324401E-01  -6.1079556E-01  -6.1925834E-01  -6.2851036E-01  -5.7122177E-01  -5.7210058E-01  -5.7466316E-01  -5.7870245E-01  -5.8394313E-01  -5.9012234E-01  -5.9707111E-01  -6.0477775E-01  -5.1583588E-01  -5.1647669E-01  -5.1833153E-01  -5.2121657E-01  -5.2489483E-01  -5.2916330E-01  -5.3392589E-01  -5.3924328E-01  -4.0179428E-01  -4.0215459E-01  -4.0317571E-01  -4.0469474E-01  -4.0650353E-01  -4.0842602E-01  -4.1038230E-01  -4.1240489E-01  -2.0737901E-01  -2.0743260E-01  -2.0753597E-01  -2.0753312E-01  -2.0721935E-01  -2.0640320E-01  -2.0494656E-01  -2.0272341E-01   7.9655886E-02   7.9939827E-02   8.0851652E-02   8.2552761E-02   8.5261643E-02   8.9212216E-02   9.4648108E-02   1.0191696E-01   4.4793123E-01   4.4861972E-01   4.5073941E-01   4.5443434E-01   4.5990321E-01   4.6738738E-01   4.7719845E-01   4.8982885E-01   8.5208452E-01   8.5330719E-01   8.5699743E-01   8.6320686E-01   8.7200421E-01   8.8349020E-01   8.9787024E-01   9.1553909E-01   1.2159622E+00   1.2178899E+00   1.2236301E+00   1.2330526E+00   1.2459447E+00   1.2620541E+00   1.2811650E+00   1.3031833E+00   1.4615381E+00   1.4642181E+00   1.4721308E+00   1.4849086E+00   1.5019896E+00   1.5226635E+00   1.5461241E+00   1.5714486E+00   1.5617924E+00   1.5650208E+00   1.5745057E+00   1.5896770E+00   1.6096704E+00   1.6333770E+00   1.6594334E+00   1.6860968E+00   1.5484712E+00   1.5519378E+00   1.5620979E+00   1.5782723E+00   1.5994285E+00   1.6242335E+00   1.6509745E+00   1.6773499E+00   1.4732438E+00   1.4766730E+00   1.4867231E+00   1.5027139E+00   1.5236191E+00   1.5481013E+00   1.5743929E+00   1.6000071E+00   1.3743314E+00   1.3775525E+00   1.3870127E+00   1.4021360E+00   1.4220532E+00   1.4456184E+00   1.4712621E+00   1.4966590E+00   1.2626500E+00   1.2656037E+00   1.2743156E+00   1.2883729E+00   1.3071519E+00   1.3298228E+00   1.3551785E+00   1.3812993E+00   1.1274643E+00   1.1301619E+00   1.1381642E+00   1.1512243E+00   1.1689847E+00   1.1909643E+00   1.2164031E+00   1.2439231E+00   9.5368880E-01   9.5614803E-01   9.6348345E-01   9.7559398E-01   9.9235010E-01   1.0135956E+00   1.0390193E+00   1.0678713E+00   7.4021727E-01   7.4240750E-01   7.4897599E-01   7.5992727E-01   7.7530682E-01   7.9522079E-01   8.1977850E-01   8.4888911E-01   5.0811416E-01   5.0996512E-01   5.1553684E-01   5.2489692E-01   5.3820127E-01   5.5574000E-01   5.7797438E-01   6.0544044E-01   2.8995809E-01   2.9142851E-01   2.9586712E-01   3.0336493E-01   3.1411961E-01   3.2852107E-01   3.4726390E-01   3.7137839E-01   1.1122752E-01   1.1234982E-01   1.1574426E-01   1.2150195E-01   1.2982157E-01   1.4111689E-01   1.5618984E-01   1.7637122E-01  -1.8737681E-02  -1.7877907E-02  -1.5270449E-02  -1.0820722E-02  -4.3299906E-03   4.6072830E-03   1.6798552E-02   3.3681467E-02  -1.0443521E-01  -1.0373798E-01  -1.0160849E-01  -9.7923614E-02  -9.2447966E-02  -8.4762320E-02  -7.4105188E-02  -5.9094843E-02  -1.5732008E-01  -1.5669614E-01  -1.5476495E-01  -1.5134317E-01  -1.4610724E-01  -1.3857079E-01  -1.2801020E-01  -1.1320595E-01  -1.8905284E-01  -1.8843202E-01  -1.8647972E-01  -1.8292576E-01  -1.7732112E-01  -1.6906397E-01  -1.5742058E-01  -1.4137745E-01  -2.0749961E-01  -2.0682715E-01  -2.0468393E-01  -2.0069820E-01  -1.9427693E-01  -1.8468307E-01  -1.7115366E-01  -1.5293755E-01  -2.1616904E-01  -2.1538962E-01  -2.1288626E-01  -2.0817494E-01  -2.0051587E-01  -1.8907474E-01  -1.7314993E-01  -1.5264903E-01  -2.1589465E-01  -2.1492559E-01  -2.1180722E-01  -2.0594670E-01  -1.9651265E-01  -1.8270946E-01  -1.6422550E-01  -1.4272717E-01  -2.0649539E-01  -2.0520028E-01  -2.0107996E-01  -1.9351621E-01  -1.8175200E-01  -1.6538826E-01  -1.4559279E-01  -1.2600845E-01  -1.8731011E-01  -1.8555655E-01  -1.8009885E-01  -1.7048152E-01  -1.5652816E-01  -1.3923439E-01  -1.2141953E-01  -1.0737699E-01  -1.5814684E-01  -1.5592228E-01  -1.4929244E-01  -1.3852695E-01  -1.2472138E-01  -1.1010747E-01  -9.8186724E-02  -9.2561483E-02  -1.2174564E-01  -1.1945432E-01  -1.1299241E-01  -1.0360141E-01  -9.3441017E-02  -8.5343026E-02  -8.2435064E-02  -8.6085640E-02  -8.4654041E-02  -8.2972057E-02  -7.8586251E-02  -7.3359825E-02  -7.0020869E-02  -7.1331330E-02  -7.8075245E-02  -8.5305892E-02  -5.4894350E-02  -5.4384526E-02  -5.3588536E-02  -5.4612108E-02  -5.9761804E-02  -6.9069192E-02  -7.4747160E-02  -6.6526689E-02  -4.0116888E-02  -4.0908713E-02  -4.3465387E-02  -4.8267860E-02  -5.3081989E-02  -5.3110309E-02  -4.1573118E-02  -2.0131014E-02  -2.5538523E-02  -2.5799233E-02  -2.4023267E-02  -1.9872867E-02  -1.7542157E-02  -1.2572631E-02  -5.0334739E-03   9.0389363E-03   9.0400167E-03   3.4454865E-03  -6.8047373E-03  -9.9407025E-03  -1.0196069E-02  -6.2483554E-03  -1.0444273E-02  -5.8398798E-02  -5.9999201E-02  -5.6365989E-02  -4.7466729E-02  -4.3400768E-02  -2.6064379E-02  -2.5338560E-02  -2.4192549E-02  -2.2503445E-02  -2.0175580E-02  -1.7199207E-02  -1.3716104E-02  -3.1160841E-02  -3.0391548E-02  -2.9128417E-02  -2.7214069E-02  -2.4520185E-02  -2.1022154E-02  -1.6881492E-02  -1.2486029E-02  -3.5730518E-02  -3.4986708E-02  -3.3688650E-02  -3.1638823E-02  -2.8665192E-02  -2.4712238E-02  -1.9944757E-02  -1.4814740E-02  -4.0337667E-02  -3.9673928E-02  -3.8401835E-02  -3.6276352E-02  -3.3068545E-02  -2.8676920E-02  -2.3263121E-02  -1.7351443E-02  -4.5522407E-02  -4.4981610E-02  -4.3779787E-02  -4.1615851E-02  -3.8192526E-02  -3.3363398E-02  -2.7280780E-02  -2.0520687E-02  -5.1690951E-02  -5.1312204E-02  -5.0220378E-02  -4.8060663E-02  -4.4502337E-02  -3.9357442E-02  -3.2714695E-02  -2.5112787E-02  -5.9076570E-02  -5.8903031E-02  -5.7981577E-02  -5.5964246E-02  -5.2536801E-02  -4.7456451E-02  -4.0654898E-02  -3.2373875E-02  -6.7774102E-02  -6.7859747E-02  -6.7235760E-02  -6.5640226E-02  -6.2838264E-02  -5.8552444E-02  -5.2432191E-02  -4.4001833E-02  -7.7837884E-02  -7.8262202E-02  -7.8117453E-02  -7.7304453E-02  -7.5757116E-02  -7.3259592E-02  -6.9144487E-02  -6.1762400E-02  -8.9386173E-02  -9.0242304E-02  -9.0748727E-02  -9.1009676E-02  -9.1209903E-02  -9.1349915E-02  -9.0625569E-02  -8.6136177E-02  -1.0257135E-01  -1.0393702E-01  -1.0518305E-01  -1.0658564E-01  -1.0856865E-01  -1.1141732E-01  -1.1445051E-01  -1.1403731E-01  -1.1753234E-01  -1.1945096E-01  -1.2141416E-01  -1.2376416E-01  -1.2701592E-01  -1.3157272E-01  -1.3683893E-01  -1.3833719E-01  -1.3439643E-01  -1.3687530E-01  -1.3945931E-01  -1.4242803E-01  -1.4620389E-01  -1.5107694E-01  -1.5638906E-01  -1.5774795E-01  -1.5327950E-01  -1.5629680E-01  -1.5939125E-01  -1.6269645E-01  -1.6644357E-01  -1.7076014E-01  -1.7506078E-01  -1.7627718E-01  -1.7429419E-01  -1.7780119E-01  -1.8130952E-01  -1.8479204E-01  -1.8829224E-01  -1.9181636E-01  -1.9498551E-01  -1.9613126E-01  -1.9756787E-01  -2.0149186E-01  -2.0532145E-01  -2.0890348E-01  -2.1215379E-01  -2.1501343E-01  -2.1729887E-01  -2.1828468E-01  -2.2325437E-01  -2.2752152E-01  -2.3157568E-01  -2.3519440E-01  -2.3823424E-01  -2.4063416E-01  -2.4234705E-01  -2.4317589E-01  -2.5153026E-01  -2.5610337E-01  -2.6031163E-01  -2.6390627E-01  -2.6673797E-01  -2.6877990E-01  -2.7009782E-01  -2.7077803E-01  -2.8257594E-01  -2.8747192E-01  -2.9183593E-01  -2.9540172E-01  -2.9803500E-01  -2.9975405E-01  -3.0070189E-01  -3.0110022E-01  -3.1655246E-01  -3.2183999E-01  -3.2643694E-01  -3.3006120E-01  -3.3259743E-01  -3.3410108E-01  -3.3476099E-01  -3.3484751E-01  -3.5357195E-01  -3.5936260E-01  -3.6433053E-01  -3.6818099E-01  -3.7081227E-01  -3.7230870E-01  -3.7289265E-01  -3.7286222E-01  -3.9365587E-01  -4.0008959E-01  -4.0561655E-01  -4.0993032E-01  -4.1293237E-01  -4.1471767E-01  -4.1552076E-01  -4.1565353E-01  -4.3662879E-01  -4.4385746E-01  -4.5016864E-01  -4.5525044E-01  -4.5898962E-01  -4.6146265E-01  -4.6288884E-01  -4.6357217E-01  -4.8187673E-01  -4.9003690E-01  -4.9737689E-01  -5.0358540E-01  -5.0851434E-01  -5.1218736E-01  -5.1476961E-01  -5.1652712E-01  -5.2793074E-01  -5.3710961E-01  -5.4570270E-01  -5.5340773E-01  -5.6002092E-01  -5.6547916E-01  -5.6985235E-01  -5.7331997E-01  -5.7197297E-01  -5.8216178E-01  -5.9214765E-01  -6.0163879E-01  -6.1035973E-01  -6.1813951E-01  -6.2491566E-01  -6.3071710E-01  -6.0948682E-01  -6.2052763E-01  -6.3185573E-01  -6.4318711E-01  -6.5417582E-01  -6.6454494E-01  -6.7408186E-01  -6.8259186E-01  -6.3425070E-01  -6.4575773E-01  -6.5805876E-01  -6.7087072E-01  -6.8379182E-01  -6.9647092E-01  -7.0855695E-01  -7.1959782E-01  -6.3863939E-01  -6.4991152E-01  -6.6238314E-01  -6.7574221E-01  -6.8950254E-01  -7.0328832E-01  -7.1672094E-01  -7.2918284E-01  -6.1344254E-01  -6.2339753E-01  -6.3462371E-01  -6.4662176E-01  -6.5884793E-01  -6.7109239E-01  -6.8322361E-01  -6.9472742E-01  -5.4533261E-01  -5.5236632E-01  -5.5995882E-01  -5.6739402E-01  -5.7435411E-01  -5.8112448E-01  -5.8805174E-01  -5.9497589E-01  -4.1452846E-01  -4.1645733E-01  -4.1731283E-01  -4.1641521E-01  -4.1403612E-01  -4.1118971E-01  -4.0878624E-01  -4.0701750E-01  -1.9938913E-01  -1.9403045E-01  -1.8546127E-01  -1.7337175E-01  -1.5878858E-01  -1.4343072E-01  -1.2865248E-01  -1.1489551E-01   1.1176211E-01   1.2554300E-01   1.4439914E-01   1.6810730E-01   1.9506954E-01   2.2320840E-01   2.5096783E-01   2.7752334E-01   5.0619125E-01   5.2763188E-01   5.5485380E-01   5.8721793E-01   6.2307578E-01   6.6052222E-01   6.9799346E-01   7.3371041E-01   9.3717486E-01   9.6352708E-01   9.9450886E-01   1.0292107E+00   1.0664896E+00   1.1050513E+00   1.1432526E+00   1.1779449E+00   1.3280767E+00   1.3554796E+00   1.3841629E+00   1.4128119E+00   1.4408106E+00   1.4677833E+00   1.4924674E+00   1.5123638E+00   1.5974373E+00   1.6222796E+00   1.6435480E+00   1.6594138E+00   1.6695497E+00   1.6748397E+00   1.6764107E+00   1.6753827E+00   1.7109951E+00   1.7309841E+00   1.7427751E+00   1.7443453E+00   1.7359713E+00   1.7200440E+00   1.7000765E+00   1.6801865E+00   1.7001666E+00   1.7153808E+00   1.7192618E+00   1.7099322E+00   1.6883106E+00   1.6578434E+00   1.6233968E+00   1.5904536E+00   1.6214043E+00   1.6341127E+00   1.6341825E+00   1.6198807E+00   1.5925016E+00   1.5559340E+00   1.5153738E+00   1.4763159E+00   1.5183645E+00   1.5318587E+00   1.5330185E+00   1.5199724E+00   1.4939806E+00   1.4588666E+00   1.4195577E+00   1.3809199E+00   1.4051471E+00   1.4224592E+00   1.4289571E+00   1.4223336E+00   1.4033527E+00   1.3753632E+00   1.3427551E+00   1.3096950E+00   1.2710959E+00   1.2941582E+00   1.3088301E+00   1.3122139E+00   1.3041755E+00   1.2871641E+00   1.2648110E+00   1.2406687E+00   1.0984935E+00   1.1278781E+00   1.1520115E+00   1.1674562E+00   1.1729094E+00   1.1694446E+00   1.1595858E+00   1.1462665E+00   8.8182676E-01   9.1665661E-01   9.5007026E-01   9.7833264E-01   9.9878621E-01   1.0106357E+00   1.0148933E+00   1.0138056E+00   6.3840705E-01   6.7630070E-01   7.1706241E-01   7.5721991E-01   7.9281288E-01   8.2077199E-01   8.4024352E-01   8.5255951E-01   4.0203980E-01   4.4006708E-01   4.8488432E-01   5.3375643E-01   5.8218783E-01   6.2528431E-01   6.6001052E-01   6.8628585E-01   2.0351143E-01   2.3959889E-01   2.8539577E-01   3.3907953E-01   3.9635685E-01   4.5174757E-01   5.0030100E-01   5.3979903E-01   5.7499073E-02   9.1052786E-02   1.3602531E-01   1.9131751E-01   2.5337115E-01   3.1716055E-01   3.7634388E-01   4.2613620E-01  -3.7383083E-02  -5.8484618E-03   3.7331715E-02   9.1606952E-02   1.5466769E-01   2.2277473E-01   2.8880876E-01   3.4416607E-01  -9.1994449E-02  -6.1801568E-02  -2.1425199E-02   2.9213909E-02   8.9545228E-02   1.5772836E-01   2.2784175E-01   2.8576854E-01  -1.1940431E-01  -9.0528779E-02  -5.4476611E-02  -1.0347338E-02   4.3388385E-02   1.0745306E-01   1.8234588E-01   2.5161549E-01  -1.2991101E-01  -1.0339601E-01  -7.3797047E-02  -3.8914870E-02   4.9479697E-03   6.3335665E-02   1.4532317E-01   2.4573678E-01  -1.2976032E-01  -1.0762219E-01  -8.6567983E-02  -6.2675610E-02  -3.0108280E-02   2.3287924E-02   1.1435229E-01   2.4050865E-01  -1.2242031E-01  -1.0697790E-01  -9.5619552E-02  -8.2350627E-02  -5.9105687E-02  -8.8058040E-03   9.4444595E-02  -1.1133686E-01  -1.0419147E-01  -1.0169750E-01  -9.5546246E-02  -7.5987644E-02  -2.0009538E-02   8.6209491E-02  -1.0073650E-01  -1.0161435E-01  -1.0413022E-01  -9.7442217E-02  -7.2249494E-02  -2.2784024E-03  -9.4452560E-02  -9.9717192E-02  -9.7878546E-02  -8.0695085E-02  -3.6483757E-02   3.2434396E-02  -9.2467740E-02  -8.9943297E-02  -7.1457192E-02  -3.6352150E-02   1.8635556E-02  -7.9908744E-02  -5.6862574E-02  -1.3907001E-02   2.6104163E-02  -3.9891526E-02  -2.3411866E-04   4.9409613E-02   4.1254196E-02   6.9395783E-03   3.5896424E-02   1.4170233E-02 
StrainDot.x 1 2975 float
  0.0000000E+00   0.0000000E+00   0.0000000E+00   0.0000000E+00   0.0000000E+00   0.0000000E+00   0.0000000E+00   0.0000000E+00   0.0000000E+00   0.0000000E+00   0.0000000E+00   0.0000000E+00   0.0000000E+00   0.0000000E+00   0.0000000E+00   0.0000000E+00   0.0000000E+00   0.0000000E+00   0.0000000E+00   0.0000000E+00   0.0000000E+00   0.0000000E+00   0.0000000E+00   0.0000000E+00   0.0000000E+00   0.0000000E+00   0.0000000E+00   0.0000000E+00   0.0000000E+00   0.0000000E+00   0.0000000E+00   0.0000000E+00   0.0000000E+00   0.0000000E+00   0.0000000E+00   0.0000000E+00   0.0000000E+00   0.0000000E+00   0.0000000E+00   0.0000000E+00   0.0000000E+00   0.0000000E+00   0.0000000E+00   0.0000000E+00   0.0000000E+00   0.0000000E+00   0.0000000E+00   0.0000000E+00   0.0000000E+00   0.0000000E+00   0.0000000E+00   0.0000000E+00   0.0000000E+00   0.0000000E+00   0.0000000E+00   0.0000000E+00   0.0000000E+00   0.0000000E+00   0.0000000E+00   0.0000000E+00   0.0000000E+00   0.0000000E+00   0.0000000E+00   0.0000000E+00   0.0000000E+00   0.0000000E+00   0.0000000E+00   0.0000000E+00   0.0000000E+00   0.0000000E+00   0.0000000E+00   0.0000000E+00   0.0000000E+00   0.0000000E+00   0.0000000E+00   0.0000000E+00   0.0000000E+00   0.0000000E+00   0.0000000E+00   0.0000000E+00   0.0000000E+00   0.0000000E+00   0.0000000E+00   0.0000000E+00   0.0000000E+00   0.0000000E+00   0.0000000E+00   0.0000000E+00   0.0000000E+00   0.0000000E+00   0.0000000E+00   0.0000000E+00   0.0000000E+00   0.0000000E+00   0.0000000E+00   0.0000000E+00   0.0000000E+00   0.0000000E+00   0.0000000E+00   0.0000000E+00   0.0000000E+00   0.0000000E+00   0.0000000E+00   0.0000000E+00   0.0000000E+00   0.0000000E+00   0.0000000E+00   0.0000000E+00   0.0000000E+00   0.0000000E+00   0.0000000E+00   0.0000000E+00   0.0000000E+00   0.0000000E+00   0.0000000E+00   0.0000000E+00   0.0000000E+00   0.0000000E+00   0.0000000E+00   0.0000000E+00   0.0000000E+00   0.0000000E+00   0.0000000E+00   0.0000000E+00   0.0000000E+00   0.0000000E+00   0.0000000E+00   0.0000000E+00   0.0000000E+00   0.0000000E+00   0.0000000E+00   0.0000000E+00   0.0000000E+00   0.0000000E+00   0.0000000E+00   0.0000000E+00   0.0000000E+00   0.0000000E+00   0.0000000E+00   0.0000000E+00   0.0000000E+00   0.0000000E+00   0.0000000E+00   0.0000000E+00   0.0000000E+00   0.0000000E+00   0.0000000E+00   0.0000000E+00   0.0000000E+00   0.0000000E+00   0.0000000E+00   0.0000000E+00   0.0000000E+00   0.0000000E+00   0.0000000E+00   0.0000000E+00   0.0000000E+00   0.0000000E+00   0.0000000E+00   0.0000000E+00   0.0000000E+00   0.0000000E+00   0.0000000E+00   0.0000000E+00   0.0000000E+00   0.0000000E+00   0.0000000E+00   0.0000000E+00   0.0000000E+00   0.0000000E+00   0.0000000E+00   0.0000000E+00   0.0000000E+00   0.0000000E+00   0.0000000E+00   0.0000000E+00   0.0000000E+00   0.0000000E+00   0.0000000E+00   0.0000000E+00   0.0000000E+00   0.0000000E+00   0.0000000E+00   0.0000000E+00   0.0000000E+00   0.0000000E+00   0.0000000E+00   0.0000000E+00   0.0000000E+00   0.0000000E+00   0.0000000E+00   0.0000000E+00   0.0000000E+00   0.0000000E+00   0.0000000E+00   0.0000000E+00   0.0000000E+00   0.0000000E+00   0.0000000E+00   0.0000000E+00   0.0000000E+00   0.0000000E+00   0.0000000E+00   0.0000000E+00   0.0000000E+00   0.0000000E+00   0.0000000E+00   0.0000000E+00   0.0000000E+00   0.0000000E+00   0.0000000E+00   0.0000000E+00   0.0000000E+00   0.0000000E+00   0.0000000E+00   0.0000000E+00   0.0000000E+00   0.0000000E+00   0.0000000E+00   0.0000000E+00   0.0000000E+00   0.0000000E+00   0.0000000E+00   0.0000000E+00   0.0000000E+00   0.0000000E+00   0.0000000E+00   0.0000000E+00   0.0000000E+00   0.0000000E+00   0.0000000E+00   0.0000000E+00   0.0000000E+00   0.0000000E+00   0.0000000E+00   0.0000000E+00   0.0000000E+00   0.0000000E+00   0.0000000E+00   0.0000000E+00   0.0000000E+00   0.0000000E+00   0.0000000E+00   0.0000000E+00   0.0000000E+00   0.0000000E+00   0.0000000E+00   0.0000000E+00   0.0000000E+00   0.0000000E+00   0.0000000E+00   0.0000000E+00   0.0000000E+00   0.0000000E+00   0.0000000E+00   0.0000000E+00   0.0000000E+00   0.0000000E+00   0.0000000E+00   0.0000000E+00   0.0000000E+00   0.0000000E+00   0.0000000E+00   0.0000000E+00   0.0000000E+00   0.0000000E+00   0.0000000E+00   0.0000000E+00   0.0000000E+00   0.0000000E+00   0.0000000E+00   0.0000000E+00   0.0000000E+00   0.0000000E+00   0.0000000E+00   0.0000000E+00   0.0000000E+00   0.0000000E+00   0.0000000E+00   0.0000000E+00   0.0000000E+00   0.0000000E+00   0.0000000E+00   0.0000000E+00   0.0000000E+00   0.0000000E+00   0.0000000E+00   0.0000000E+00   0.0000000E+00   0.0000000E+00   0.0000000E+00   0.0000000E+00   0.0000000E+00   0.0000000E+00   0.0000000E+00   0.0000000E+00   0.0000000E+00   0.0000000E+00   0.0000000E+00   0.0000000E+00   0.0000000E+00   0.0000000E+00   0.0000000E+00   0.0000000E+00   0.0000000E+00   0.0000000E+00   0.0000000E+00   0.0000000E+00   0.0000000E+00   0.0000000E+00   0.0000000E+00   0.0000000E+00   0.0000000E+00   0.0000000E+00   0.0000000E+00   0.0000000E+00   0.0000000E+00   0.0000000E+00   0.0000000E+00   0.0000000E+00   0.0000000E+00   0.0000000E+00   0.0000000E+00   0.0000000E+00   0.0000000E+00   0.0000000E+00   0.0000000E+00   0.0000000E+00   0.0000000E+00   0.0000000E+00   0.0000000E+00   0.0000000E+00   0.0000000E+00   0.0000000E+00   0.0000000E+00   0.0000000E+00   0.0000000E+00   0.0000000E+00   0.0000000E+00   0.0000000E+00   0.0000000E+00   0.0000000E+00   0.0000000E+00   0.0000000E+00   0.0000000E+00   0.0000000E+00   0.0000000E+00   0.0000000E+00   0.0000000E+00   0.0000000E+00   0.0000000E+00   0.0000000E+00   0.0000000E+00   0.0000000E+00   0.0000000E+00   0.0000000E+00   0.0000000E+00   0.0000000E+00   0.0000000E+00   0.0000000E+00   0.0000000E+00   0.0000000E+00   0.0000000E+00   0.0000000E+00   0.0000000E+00   0.0000000E+00   0.0000000E+00   0.0000000E+00   0.0000000E+00   0.0000000E+00   0.0000000E+00   0.0000000E+00   0.0000000E+00   0.0000000E+00   0.0000000E+00   0.0000000E+00   0.0000000E+00   0.0000000E+00   0.0000000E+00   0.0000000E+00   0.0000000E+00   0.0000000E+00   0.0000000E+00   0.0000000E+00   0.0000000E+00   0.0000000E+00   0.0000000E+00   0.0000000E+00   0.0000000E+00   0.0000000E+00   0.0000000E+00   0.0000000E+00   0.0000000E+00   0.0000000E+00   0.0000000E+00   0.0000000E+00   0.0000000E+00   0.0000000E+00   0.0000000E+00   0.0000000E+00   0.0000000E+00   0.0000000E+00   0.0000000E+00   0.0000000E+00   0.0000000E+00   0.0000000E+00   0.0000000E+00   0.0000000E+00   0.0000000E+00   0.0000000E+00   0.0000000E+00   0.0000000E+00   0.0000000E+00   0.0000000E+00   0.0000000E+00   0.0000000E+00   0.0000000E+00   0.0000000E+00   0.0000000E+00   0.0000000E+00   0.0000000E+00   0.0000000E+00   0.0000000E+00   0.0000000E+00   0.0000000E+00   0.0000000E+00   0.0000000E+00   0.0000000E+00   0.0000000E+00   0.0000000E+00   0.0000000E+00   0.0000000E+00   0.0000000E+00   0.0000000E+00   0.0000000E+00   0.0000000E+00   0.0000000E+00   0.0000000E+00   0.0000000E+00   0.0000000E+00   0.0000000E+00   0.0000000E+00   0.0000000E+00   0.0000000E+00   0.0000000E+00   0.0000000E+00   0.0000000E+00   0.0000000E+00   0.0000000E+00   0.0000000E+00   0.0000000E+00   0.0000000E+00   0.0000000E+00   0.0000000E+00   0.0000000E+00   0.0000000E+00   0.0000000E+00   0.0000000E+00   0.0000000E+00   0.0000000E+00   0.0000000E+00   0.0000000E+00   0.0000000E+00   0.0000000E+00   0.0000000E+00   0.0000000E+00   0.0000000E+00   0.0000000E+00   0.0000000E+00   0.0000000E+00   0.0000000E+00   0.0000000E+00   0.0000000E+00   0.0000000E+00   0.0000000E+00   0.0000000E+00   0.0000000E+00   0.0000000E+00   0.0000000E+00   0.0000000E+00   0.0000000E+00   0.0000000E+00   0.0000000E+00   0.0000000E+00   0.0000000E+00   0.0000000E+00   0.0000000E+00   0.0000000E+00   0.0000000E+00   0.0000000E+00   0.0000000E+00   0.0000000E+00   0.0000000E+00   0.0000000E+00   0.0000000E+00   0.0000000E+00   0.0000000E+00   0.0000000E+00   0.0000000E+00   0.0000000E+00   0.0000000E+00   0.0000000E+00   0.0000000E+00   0.0000000E+00   0.0000000E+00   0.0000000E+00   0.0000000E+00   0.0000000E+00   0.0000000E+00   0.0000000E+00   0.0000000E+00   0.0000000E+00   0.0000000E+00   0.0000000E+00   0.0000000E+00   0.0000000E+00   0.0000000E+00   0.0000000E+00   0.0000000E+00   0.0000000E+00   0.0000000E+00   0.0000000E+00   0.0000000E+00   0.0000000E+00   0.0000000E+00   0.0000000E+00   0.0000000E+00   0.0000000E+00   0.0000000E+00   0.0000000E+00   0.0000000E+00   0.0000000E+00   0.0000000E+00   0.0000000E+00   0.0000000E+00   0.0000000E+00   0.0000000E+00   0.0000000E+00   0.0000000E+00   0.0000000E+00   0.0000000E+00   0.0000000E+00   0.0000000E+00   0.0000000E+00   0.0000000E+00   0.0000000E+00   0.0000000E+00   0.0000000E+00   0.0000000E+00   0.0000000E+00   0.0000000E+00   0.0000000E+00   0.0000000E+00   0.0000000E+00   0.0000000E+00   0.0000000E+00   0.0000000E+00   0.0000000E+00   0.0000000E+00   0.0000000E+00   0.0000000E+00   0.0000000E+00   0.0000000E+00   0.0000000E+00   0.0000000E+00   0.0000000E+00   0.0000000E+00   0.0000000E+00   0.0000000E+00   0.0000000E+00   0.0000000E+00   0.0000000E+00   0.0000000E+00   0.0000000E+00   0.0000000E+00   0.0000000E+00   0.0000000E+00   0.0000000E+00   0.0000000E+00   0.0000000E+00   0.0000000E+00   0.0000000E+00   0.0000000E+00   0.0000000E+00   0.0000000E+00   0.0000000E+00   0.0000000E+00   0.0000000E+00   0.0000000E+00   0.0000000E+00   0.0000000E+00   0.0000000E+00   0.0000000E+00   0.0000000E+00   0.0000000E+00   0.0000000E+00   0.0000000E+00   0.0000000E+00   0.0000000E+00   0.0000000E+00   0.0000000E+00   0.0000000E+00   0.0000000E+00   0.0000000E+00   0.0000000E+00   0.0000000E+00   0.0000000E+00   0.0000000E+00   0.0000000E+00   0.0000000E+00   0.0000000E+00   0.0000000E+00   0.0000000E+00   0.0000000E+00   0.0000000E+00   0.0000000E+00   0.0000000E+00   0.0000000E+00   0.0000000E+00   0.0000000E+00   0.0000000E+00   0.0000000E+00   0.0000000E+00   0.0000000E+00   0.0000000E+00   0.0000000E+00   0.0000000E+00   0.0000000E+00   0.0000000E+00   0.0000000E+00   0.0000000E+00   0.0000000E+00   0.0000000E+00   0.0000000E+00   0.0000000E+00   0.0000000E+00   0.0000000E+00   0.0000000E+00   0.0000000E+00   0.0000000E+00   0.0000000E+00   0.0000000E+00   0.0000000E+00   0.0000000E+00   0.0000000E+00   0.0000000E+00   0.0000000E+00   0.0000000E+00   0.0000000E+00   0.0000000E+00   0.0000000E+00   0.0000000E+00   0.0000000E+00   0.0000000E+00   0.0000000E+00   0.0000000E+00   0.0000000E+00   0.0000000E+00   0.0000000E+00   0.0000000E+00   0.0000000E+00   0.0000000E+00   0.0000000E+00   0.0000000E+00   0.0000000E+00   0.0000000E+00   0.0000000E+00   0.0000000E+00   0.0000000E+00   0.0000000E+00   0.0000000E+00   0.0000000E+00   0.0000000E+00   0.0000000E+00   0.0000000E+00   0.0000000E+00   0.0000000E+00   0.0000000E+00   0.0000000E+00   0.0000000E+00   0.0000000E+00   0.0000000E+00   0.0000000E+00   0.0000000E+00   0.0000000E+00   0.0000000E+00   0.0000000E+00   0.0000000E+00   0.0000000E+00   0.0000000E+00   0.0000000E+00   0.0000000E+00   0.0000000E+00   0.0000000E+00   0.0000000E+00   0.0000000E+00   0.0000000E+00   0.0000000E+00   0.0000000E+00   0.0000000E+00   0.0000000E+00   0.0000000E+00   0.0000000E+00   0.0000000E+00   0.0000000E+00   0.0000000E+00   0.0000000E+00   0.0000000E+00   0.0000000E+00   0.0000000E+00   0.0000000E+00   0.0000000E+00   0.0000000E+00   0.0000000E+00   0.0000000E+00   0.0000000E+00   0.0000000E+00   0.0000000E+00   0.0000000E+00   0.0000000E+00   0.0000000E+00   0.0000000E+00   0.0000000E+00   0.0000000E+00   0.0000000E+00   0.0000000E+00   0.0000000E+00   0.0000000E+00   0.0000000E+00   0.0000000E+00   0.0000000E+00   0.0000000E+00   0.0000000E+00   0.0000000E+00   0.0000000E+00   0.0000000E+00   0.0000000E+00   0.0000000E+00   0.0000000E+00   0.0000000E+00   0.0000000E+00   0.0000000E+00   0.0000000E+00   0.0000000E+00   0.0000000E+00   0.0000000E+00   0.0000000E+00   0.0000000E+00   0.0000000E+00   0.0000000E+00   0.0000000E+00   0.0000000E+00   0.0000000E+00   0.0000000E+00   0.0000000E+00   0.0000000E+00   0.0000000E+00   0.0000000E+00   0.0000000E+00   0.0000000E+00   0.0000000E+00   0.0000000E+00   0.0000000E+00   0.0000000E+00   0.0000000E+00   0.0000000E+00   0.0000000E+00   0.0000000E+00   0.0000000E+00   0.0000000E+00   0.0000000E+00   0.0000000E+00   0.0000000E+00   0.0000000E+00   0.0000000E+00   0.0000000E+00   0.0000000E+00   0.0000000E+00   0.0000000E+00   0.0000000E+00   0.0000000E+00   0.0000000E+00   0.0000000E+00   0.0000000E+00   0.0000000E+00   0.0000000E+00   0.0000000E+00   0.0000000E+00   0.0000000E+00   0.0000000E+00   0.0000000E+00   0.0000000E+00   0.0000000E+00   0.0000000E+00   0.0000000E+00   0.0000000E+00   0.0000000E+00   0.0000000E+00   0.0000000E+00   0.0000000E+00   0.0000000E+00   0.0000000E+00   0.0000000E+00   0.0000000E+00   0.0000000E+00   0.0000000E+00   0.0000000E+00   0.0000000E+00   0.0000000E+00   0.0000000E+00   0.0000000E+00   0.0000000E+00   0.0000000E+00   0.0000000E+00   0.0000000E+00   0.0000000E+00   0.0000000E+00   0.0000000E+00   0.0000000E+00   0.0000000E+00   0.0000000E+00   0.0000000E+00   0.0000000E+00   0.0000000E+00   0.0000000E+00   0.0000000E+00   0.0000000E+00   0.0000000E+00   0.0000000E+00   0.0000000E+00   0.0000000E+00   0.0000000E+00   0.0000000E+00   0.0000000E+00   0.0000000E+00   0.0000000E+00   0.0000000E+00   0.0000000E+00   0.0000000E+00   0.0000000E+00   0.0000000E+00   0.0000000E+00   0.0000000E+00   0.0000000E+00   0.0000000E+00   0.0000000E+00   0.0000000E+00   0.0000000E+00   0.0000000E+00   0.0000000E+00   0.0000000E+00   0.0000000E+00   0.0000000E+00   0.0000000E+00   0.0000000E+00   0.0000000E+00   0.0000000E+00   0.0000000E+00   0.0000000E+00   0.0000000E+00   0.0000000E+00   0.0000000E+00   0.0000000E+00   0.0000000E+00   0.0000000E+00   0.0000000E+00   0.0000000E+00   0.0000000E+00   0.0000000E+00   0.0000000E+00   0.0000000E+00   0.0000000E+00   0.0000000E+00   0.0000000E+00   0.0000000E+00   0.0000000E+00   0.0000000E+00   0.0000000E+00   0.0000000E+00   0.0000000E+00   0.0000000E+00   0.0000000E+00   0.0000000E+00   0.0000000E+00   0.0000000E+00   0.0000000E+00   0.0000000E+00   0.0000000E+00   0.0000000E+00   0.0000000E+00   0.0000000E+00   0.0000000E+00   0.0000000E+00   0.0000000E+00   0.0000000E+00   0.0000000E+00   0.0000000E+00   0.0000000E+00   0.0000000E+00   0.0000000E+00   0.0000000E+00   0.0000000E+00   0.0000000E+00   0.0000000E+00   0.0000000E+00   0.0000000E+00   0.0000000E+00   0.0000000E+00   0.0000000E+00   0.0000000E+00   0.0000000E+00   0.0000000E+00   0.0000000E+00   0.0000000E+00   0.0000000E+00   0.0000000E+00   0.0000000E+00   0.0000000E+00   0.0000000E+00   0.0000000E+00   0.0000000E+00   0.0000000E+00   0.0000000E+00   0.0000000E+00   0.0000000E+00   0.0000000E+00   0.0000000E+00   0.0000000E+00   0.0000000E+00   0.0000000E+00   0.0000000E+00   0.0000000E+00   0.0000000E+00   0.0000000E+00   0.0000000E+00   0.0000000E+00   0.0000000E+00   0.0000000E+00   0.0000000E+00   0.0000000E+00   0.0000000E+00   0.0000000E+00   0.0000000E+00   0.0000000E+00   0.0000000E+00   0.0000000E+00   0.0000000E+00   0.0000000E+00   0.0000000E+00   0.0000000E+00   0.0000000E+00   0.0000000E+00   0.0000000E+00   0.0000000E+00   0.0000000E+00   0.0000000E+00   0.0000000E+00   0.0000000E+00   0.0000000E+00   0.0000000E+00   0.0000000E+00   0.0000000E+00   0.0000000E+00   0.0000000E+00   0.0000000E+00   0.0000000E+00   0.0000000E+00   0.0000000E+00   0.0000000E+00   0.0000000E+00   0.0000000E+00   0.0000000E+00   0.0000000E+00   0.0000000E+00   0.0000000E+00   0.0000000E+00   0.0000000E+00   0.0000000E+00   0.0000000E+00   0.0000000E+00   0.0000000E+00   0.0000000E+00   0.0000000E+00   0.0000000E+00   0.0000000E+00   0.0000000E+00   0.0000000E+00   0.0000000E+00   0.0000000E+00   0.0000000E+00   0.0000000E+00   0.0000000E+00   0.0000000E+00   0.0000000E+00   0.0000000E+00   0.0000000E+00   0.0000000E+00   0.0000000E+00   0.0000000E+00   0.0000000E+00   0.0000000E+00   0.0000000E+00   0.0000000E+00   0.0000000E+00   0.0000000E+00   0.0000000E+00   0.0000000E+00   0.0000000E+00   0.0000000E+00   0.0000000E+00   0.0000000E+00   0.0000000E+00   0.0000000E+00   0.0000000E+00   0.0000000E+00   0.0000000E+00   0.0000000E+00   0.0000000E+00   0.0000000E+00   0.0000000E+00   0.0000000E+00   0.0000000E+00   0.0000000E+00   0.0000000E+00   0.0000000E+00   0.0000000E+00   0.0000000E+00   0.0000000E+00   0.0000000E+00   0.0000000E+00   0.0000000E+00   0.0000000E+00   0.0000000E+00   0.0000000E+00   0.0000000E+00   0.0000000E+00   0.0000000E+00   0.0000000E+00   0.0000000E+00   0.0000000E+00   0.0000000E+00   0.0000000E+00   0.0000000E+00   0.0000000E+00   0.0000000E+00   0.0000000E+00   0.0000000E+00   0.0000000E+00   0.0000000E+00   0.0000000E+00   0.0000000E+00   0.0000000E+00   0.0000000E+00   0.0000000E+00   0.0000000E+00   0.0000000E+00   0.0000000E+00   0.0000000E+00   0.0000000E+00   0.0000000E+00   0.0000000E+00   0.0000000E+00   0.0000000E+00   0.0000000E+00   0.0000000E+00   0.0000000E+00   0.0000000E+00   0.0000000E+00   0.0000000E+00   0.0000000E+00   0.0000000E+00   0.0000000E+00   0.0000000E+00   0.0000000E+00   0.0000000E+00   0.0000000E+00   0.0000000E+00   0.0000000E+00   0.0000000E+00   0.0000000E+00   0.0000000E+00   0.0000000E+00   0.0000000E+00   0.0000000E+00   0.0000000E+00   0.0000000E+00   0.0000000E+00   0.0000000E+00   0.0000000E+00   0.0000000E+00   0.0000000E+00   0.0000000E+00   0.0000000E+00   0.0000000E+00   0.0000000E+00   0.0000000E+00   0.0000000E+00   0.0000000E+00   0.0000000E+00   0.0000000E+00   0.0000000E+00   0.0000000E+00   0.0000000E+00   0.0000000E+00   0.0000000E+00   0.0000000E+00   0.0000000E+00   0.0000000E+00   0.0000000E+00   0.0000000E+00   0.0000000E+00   0.0000000E+00   0.0000000E+00   0.0000000E+00   0.0000000E+00   0.0000000E+00   0.0000000E+00   0.0000000E+00   0.0000000E+00   0.0000000E+00   0.0000000E+00   0.0000000E+00   0.0000000E+00   0.0000000E+00   0.0000000E+00   0.0000000E+00   0.0000000E+00   0.0000000E+00   0.0000000E+00   0.0000000E+00   0.0000000E+00   0.0000000E+00   0.0000000E+00   0.0000000E+00   0.0000000E+00   0.0000000E+00   0.0000000E+00   0.0000000E+00   0.0000000E+00   0.0000000E+00   0.0000000E+00   0.0000000E+00   0.0000000E+00   0.0000000E+00   0.0000000E+00   0.0000000E+00   0.0000000E+00   0.0000000E+00   0.0000000E+00   0.0000000E+00   0.0000000E+00   0.0000000E+00   0.0000000E+00   0.0000000E+00   0.0000000E+00   0.0000000E+00   0.0000000E+00   0.0000000E+00   0.0000000E+00   0.0000000E+00   0.0000000E+00   0.0000000E+00   0.0000000E+00   0.0000000E+00   0.0000000E+00   0.0000000E+00   0.0000000E+00   0.0000000E+00   0.0000000E+00   0.0000000E+00   0.0000000E+00   0.0000000E+00   0.0000000E+00   0.0000000E+00   0.0000000E+00   0.0000000E+00   0.0000000E+00   0.0000000E+00   0.0000000E+00   0.0000000E+00   0.0000000E+00   0.0000000E+00   0.0000000E+00   0.0000000E+00   0.0000000E+00   0.0000000E+00   0.0000000E+00   0.0000000E+00   0.0000000E+00   0.0000000E+00   0.0000000E+00   0.0000000E+00   0.0000000E+00   0.0000000E+00   0.0000000E+00   0.0000000E+00   0.0000000E+00   0.0000000E+00   0.0000000E+00   0.0000000E+00   0.0000000E+00   0.0000000E+00   0.0000000E+00   0.0000000E+00   0.0000000E+00   0.0000000E+00   0.0000000E+00   0.0000000E+00   0.0000000E+00   0.0000000E+00   0.0000000E+00   0.0000000E+00   0.0000000E+00   0.0000000E+00   0.0000000E+00   0.0000000E+00   0.0000000E+00   0.0000000E+00   0.0000000E+00   0.0000000E+00   0.0000000E+00   0.0000000E+00   0.0000000E+00   0.0000000E+00   0.0000000E+00   0.0000000E+00   0.0000000E+00   0.0000000E+00   0.0000000E+00   0.0000000E+00   0.0000000E+00   0.0000000E+00   0.0000000E+00   0.0000000E+00   0.0000000E+00   0.0000000E+00   0.0000000E+00   0.0000000E+00   0.0000000E+00   0.0000000E+00   0.0000000E+00   0.0000000E+00   0.0000000E+00   0.0000000E+00   0.0000000E+00   0.0000000E+00   0.0000000E+00   0.0000000E+00   0.0000000E+00   0.0000000E+00   0.0000000E+00   0.0000000E+00   0.0000000E+00   0.0000000E+00   0.0000000E+00   0.0000000E+00   0.0000000E+00   0.0000000E+00   0.0000000E+00   0.0000000E+00   0.0000000E+00   0.0000000E+00   0.0000000E+00   0.0000000E+00   0.0000000E+00   0.0000000E+00   0.0000000E+00   0.0000000E+00   0.0000000E+00   0.0000000E+00   0.0000000E+00   0.0000000E+00   0.0000000E+00   0.0000000E+00   0.0000000E+00   0.0000000E+00   0.0000000E+00   0.0000000E+00   0.0000000E+00   0.0000000E+00   0.0000000E+00   0.0000000E+00   0.0000000E+00   0.0000000E+00   0.0000000E+00   0.0000000E+00   0.0000000E+00   0.0000000E+00   0.0000000E+00   0.0000000E+00   0.0000000E+00   0.0000000E+00   0.0000000E+00   0.0000000E+00   0.0000000E+00   0.0000000E+00   0.0000000E+00   0.0000000E+00   0.0000000E+00   0.0000000E+00   0.0000000E+00   0.0000000E+00   0.0000000E+00   0.0000000E+00   0.0000000E+00   0.0000000E+00   0.0000000E+00   0.0000000E+00   0.0000000E+00   0.0000000E+00   0.0000000E+00   0.0000000E+00   0.0000000E+00   0.0000000E+00   0.0000000E+00   0.0000000E+00   0.0000000E+00   0.0000000E+00   0.0000000E+00   0.0000000E+00   0.0000000E+00   0.0000000E+00   0.0000000E+00   0.0000000E+00   0.0000000E+00   0.0000000E+00   0.0000000E+00   0.0000000E+00   0.0000000E+00   0.0000000E+00   0.0000000E+00   0.0000000E+00   0.0000000E+00   0.0000000E+00   0.0000000E+00   0.0000000E+00   0.0000000E+00   0.0000000E+00   0.0000000E+00   0.0000000E+00   0.0000000E+00   0.0000000E+00   0.0000000E+00   0.0000000E+00   0.0000000E+00   0.0000000E+00   0.0000000E+00   0.0000000E+00   0.0000000E+00   0.0000000E+00   0.0000000E+00   0.0000000E+00   0.0000000E+00   0.0000000E+00   0.0000000E+00   0.0000000E+00   0.0000000E+00   0.0000000E+00   0.0000000E+00   0.0000000E+00   0.0000000E+00   0.0000000E+00   0.0000000E+00   0.0000000E+00   0.0000000E+00   0.0000000E+00   0.0000000E+00   0.0000000E+00   0.0000000E+00   0.0000000E+00   0.0000000E+00   0.0000000E+00   0.0000000E+00   0.0000000E+00   0.0000000E+00   0.0000000E+00   0.0000000E+00   0.0000000E+00   0.0000000E+00   0.0000000E+00   0.0000000E+00   0.0000000E+00   0.0000000E+00   0.0000000E+00   0.0000000E+00   0.0000000E+00   0.0000000E+00   0.0000000E+00   0.0000000E+00   0.0000000E+00   0.0000000E+00   0.0000000E+00   0.0000000E+00   0.0000000E+00   0.0000000E+00   0.0000000E+00   0.0000000E+00   0.0000000E+00   0.0000000E+00   0.0000000E+00   0.0000000E+00   0.0000000E+00   0.0000000E+00   0.0000000E+00   0.0000000E+00   0.0000000E+00   0.0000000E+00   0.0000000E+00   0.0000000E+00   0.0000000E+00   0.0000000E+00   0.0000000E+00   0.0000000E+00   0.0000000E+00   0.0000000E+00   0.0000000E+00   0.0000000E+00   0.0000000E+00   0.0000000E+00   0.0000000E+00   0.0000000E+00   0.0000000E+00   0.0000000E+00   0.0000000E+00   0.0000000E+00   0.0000000E+00   0.0000000E+00   0.0000000E+00   0.0000000E+00   0.0000000E+00   0.0000000E+00   0.0000000E+00   0.0000000E+00   0.0000000E+00   0.0000000E+00   0.0000000E+00   0.0000000E+00   0.0000000E+00   0.0000000E+00   0.0000000E+00   0.0000000E+00   0.0000000E+00   0.0000000E+00   0.0000000E+00   0.0000000E+00   0.0000000E+00   0.0000000E+00   0.0000000E+00   0.0000000E+00   0.0000000E+00   0.0000000E+00   0.0000000E+00   0.0000000E+00   0.0000000E+00   0.0000000E+00   0.0000000E+00   0.0000000E+00   0.0000000E+00   0.0000000E+00   0.0000000E+00   0.0000000E+00   0.0000000E+00   0.0000000E+00   0.0000000E+00   0.0000000E+00   0.0000000E+00   0.0000000E+00   0.0000000E+00   0.0000000E+00   0.0000000E+00   0.0000000E+00   0.0000000E+00   0.0000000E+00   0.0000000E+00   0.0000000E+00   0.0000000E+00   0.0000000E+00   0.0000000E+00   0.0000000E+00   0.0000000E+00   0.0000000E+00   0.0000000E+00   0.0000000E+00   0.0000000E+00   0.0000000E+00   0.0000000E+00   0.0000000E+00   0.0000000E+00   0.0000000E+00   0.0000000E+00   0.0000000E+00   0.0000000E+00   0.0000000E+00   0.0000000E+00   0.0000000E+00   0.0000000E+00   0.0000000E+00   0.0000000E+00   0.0000000E+00   0.0000000E+00   0.0000000E+00   0.0000000E+00   0.0000000E+00   0.0000000E+00   0.0000000E+00   0.0000000E+00   0.0000000E+00   0.0000000E+00   0.0000000E+00   0.0000000E+00   0.0000000E+00   0.0000000E+00   0.0000000E+00   0.0000000E+00   0.0000000E+00   0.0000000E+00   0.0000000E+00   0.0000000E+00   0.0000000E+00   0.0000000E+00   0.0000000E+00   0.0000000E+00   0.0000000E+00   0.0000000E+00   0.0000000E+00   0.0000000E+00   0.0000000E+00   0.0000000E+00   0.0000000E+00   0.0000000E+00   0.0000000E+00   0.0000000E+00   0.0000000E+00   0.0000000E+00   0.0000000E+00   0.0000000E+00   0.0000000E+00   0.0000000E+00   0.0000000E+00   0.0000000E+00   0.0000000E+00   0.0000000E+00   0.0000000E+00   0.0000000E+00   0.0000000E+00   0.0000000E+00   0.0000000E+00   0.0000000E+00   0.0000000E+00   0.0000000E+00   0.0000000E+00   0.0000000E+00   0.0000000E+00   0.0000000E+00   0.0000000E+00   0.0000000E+00   0.0000000E+00   0.0000000E+00   0.0000000E+00   0.0000000E+00   0.0000000E+00   0.0000000E+00   0.0000000E+00   0.0000000E+00   0.0000000E+00   0.0000000E+00   0.0000000E+00   0.0000000E+00   0.0000000E+00   0.0000000E+00   0.0000000E+00   0.0000000E+00   0.0000000E+00   0.0000000E+00   0.0000000E+00   0.0000000E+00   0.0000000E+00   0.0000000E+00   0.0000000E+00   0.0000000E+00   0.0000000E+00   0.0000000E+00   0.0000000E+00   0.0000000E+00   0.0000000E+00   0.0000000E+00   0.0000000E+00   0.0000000E+00   0.0000000E+00   0.0000000E+00   0.0000000E+00   0.0000000E+00   0.0000000E+00   0.0000000E+00   0.0000000E+00   0.0000000E+00   0.0000000E+00   0.0000000E+00   0.0000000E+00   0.0000000E+00   0.0000000E+00   0.0000000E+00   0.0000000E+00   0.0000000E+00   0.0000000E+00   0.0000000E+00   0.0000000E+00   0.0000000E+00   0.0000000E+00   0.0000000E+00   0.0000000E+00   0.0000000E+00   0.0000000E+00   0.0000000E+00   0.0000000E+00   0.0000000E+00   0.0000000E+00   0.0000000E+00   0.0000000E+00   0.0000000E+00   0.0000000E+00   0.0000000E+00   0.0000000E+00   0.0000000E+00   0.0000000E+00   0.0000000E+00   0.0000000E+00   0.0000000E+00   0.0000000E+00   0.0000000E+00   0.0000000E+00   0.0000000E+00   0.0000000E+00   0.0000000E+00   0.0000000E+00   0.0000000E+00   0.0000000E+00   0.0000000E+00   0.0000000E+00   0.0000000E+00   0.0000000E+00   0.0000000E+00   0.0000000E+00   0.0000000E+00   0.0000000E+00   0.0000000E+00   0.0000000E+00   0.0000000E+00   0.0000000E+00   0.0000000E+00   0.0000000E+00   0.0000000E+00   0.0000000E+00   0.0000000E+00   0.0000000E+00   0.0000000E+00   0.0000000E+00   0.0000000E+00   0.0000000E+00   0.0000000E+00   0.0000000E+00   0.0000000E+00   0.0000000E+00   0.0000000E+00   0.0000000E+00   0.0000000E+00   0.0000000E+00   0.0000000E+00   0.0000000E+00   0.0000000E+00   0.0000000E+00   0.0000000E+00   0.0000000E+00   0.0000000E+00   0.0000000E+00   0.0000000E+00   0.0000000E+00   0.0000000E+00   0.0000000E+00   0.0000000E+00   0.0000000E+00   0.0000000E+00   0.0000000E+00   0.0000000E+00   0.0000000E+00   0.0000000E+00   0.0000000E+00   0.0000000E+00   0.0000000E+00   0.0000000E+00   0.0000000E+00   0.0000000E+00   0.0000000E+00   0.0000000E+00   0.0000000E+00   0.0000000E+00   0.0000000E+00   0.0000000E+00   0.0000000E+00   0.0000000E+00   0.0000000E+00   0.0000000E+00   0.0000000E+00   0.0000000E+00   0.0000000E+00   0.0000000E+00   0.0000000E+00   0.0000000E+00   0.0000000E+00   0.0000000E+00   0.0000000E+00   0.0000000E+00   0.0000000E+00   0.0000000E+00   0.0000000E+00   0.0000000E+00   0.0000000E+00   0.0000000E+00   0.0000000E+00   0.0000000E+00   0.0000000E+00   0.0000000E+00   0.0000000E+00   0.0000000E+00   0.0000000E+00   0.0000000E+00   0.0000000E+00   0.0000000E+00   0.0000000E+00   0.0000000E+00   0.0000000E+00   0.0000000E+00   0.0000000E+00   0.0000000E+00   0.0000000E+00   0.0000000E+00   0.0000000E+00   0.0000000E+00   0.0000000E+00   0.0000000E+00   0.0000000E+00   0.0000000E+00   0.0000000E+00   0.0000000E+00   0.0000000E+00   0.0000000E+00   0.0000000E+00   0.0000000E+00   0.0000000E+00   0.0000000E+00   0.0000000E+00   0.0000000E+00   0.0000000E+00   0.0000000E+00   0.0000000E+00   0.0000000E+00   0.0000000E+00   0.0000000E+00   0.0000000E+00   0.0000000E+00   0.0000000E+00   0.0000000E+00   0.0000000E+00   0.0000000E+00   0.0000000E+00   0.0000000E+00   0.0000000E+00   0.0000000E+00   0.0000000E+00   0.0000000E+00   0.0000000E+00   0.0000000E+00   0.0000000E+00   0.0000000E+00   0.0000000E+00   0.0000000E+00   0.0000000E+00   0.0000000E+00   0.0000000E+00   0.0000000E+00   0.0000000E+00   0.0000000E+00   0.0000000E+00   0.0000000E+00   0.0000000E+00   0.0000000E+00   0.0000000E+00   0.0000000E+00   0.0000000E+00   0.0000000E+00   0.0000000E+00   0.0000000E+00   0.0000000E+00   0.0000000E+00   0.0000000E+00   0.0000000E+00   0.0000000E+00   0.0000000E+00   0.0000000E+00   0.0000000E+00   0.0000000E+00   0.0000000E+00   0.0000000E+00   0.0000000E+00   0.0000000E+00   0.0000000E+00   0.0000000E+00   0.0000000E+00   0.0000000E+00   0.0000000E+00   0.0000000E+00   0.0000000E+00   0.0000000E+00   0.0000000E+00   0.0000000E+00   0.0000000E+00   0.0000000E+00   0.0000000E+00   0.0000000E+00   0.0000000E+00   0.0000000E+00   0.0000000E+00   0.0000000E+00   0.0000000E+00   0.0000000E+00   0.0000000E+00   0.0000000E+00   0.0000000E+00   0.0000000E+00   0.0000000E+00   0.0000000E+00   0.0000000E+00   0.0000000E+00   0.0000000E+00   0.0000000E+00   0.0000000E+00   0.0000000E+00   0.0000000E+00   0.0000000E+00   0.0000000E+00   0.0000000E+00   0.0000000E+00   0.0000000E+00   0.0000000E+00   0.0000000E+00   0.0000000E+00   0.0000000E+00   0.0000000E+00   0.0000000E+00   0.0000000E+00   0.0000000E+00   0.0000000E+00   0.0000000E+00   0.0000000E+00   0.0000000E+00   0.0000000E+00   0.0000000E+00   0.0000000E+00   0.0000000E+00   0.0000000E+00   0.0000000E+00   0.0000000E+00   0.0000000E+00   0.0000000E+00   0.0000000E+00   0.0000000E+00   0.0000000E+00   0.0000000E+00   0.0000000E+00   0.0000000E+00   0.0000000E+00   0.0000000E+00   0.0000000E+00   0.0000000E+00   0.0000000E+00   0.0000000E+00   0.0000000E+00   0.0000000E+00   0.0000000E+00   0.0000000E+00   0.0000000E+00   0.0000000E+00   0.0000000E+00   0.0000000E+00   0.0000000E+00   0.0000000E+00   0.0000000E+00   0.0000000E+00   0.0000000E+00   0.0000000E+00   0.0000000E+00   0.0000000E+00   0.0000000E+00   0.0000000E+00   0.0000000E+00   0.0000000E+00   0.0000000E+00   0.0000000E+00   0.0000000E+00   0.0000000E+00   0.0000000E+00   0.0000000E+00   0.0000000E+00   0.0000000E+00   0.0000000E+00   0.0000000E+00   0.0000000E+00   0.0000000E+00   0.0000000E+00   0.0000000E+00   0.0000000E+00   0.0000000E+00   0.0000000E+00   0.0000000E+00   0.0000000E+00   0.0000000E+00   0.0000000E+00   0.0000000E+00   0.0000000E+00   0.0000000E+00   0.0000000E+00   0.0000000E+00   0.0000000E+00   0.0000000E+00   0.0000000E+00   0.0000000E+00   0.0000000E+00   0.0000000E+00   0.0000000E+00   0.0000000E+00   0.0000000E+00   0.0000000E+00   0.0000000E+00   0.0000000E+00   0.0000000E+00   0.0000000E+00   0.0000000E+00   0.0000000E+00   0.0000000E+00   0.0000000E+00   0.0000000E+00   0.0000000E+00   0.0000000E+00   0.0000000E+00   0.0000000E+00   0.0000000E+00   0.0000000E+00   0.0000000E+00   0.0000000E+00   0.0000000E+00   0.0000000E+00   0.0000000E+00   0.0000000E+00   0.0000000E+00   0.0000000E+00   0.0000000E+00   0.0000000E+00   0.0000000E+00   0.0000000E+00   0.0000000E+00   0.0000000E+00   0.0000000E+00   0.0000000E+00   0.0000000E+00   0.0000000E+00   0.0000000E+00   0.0000000E+00   0.0000000E+00   0.0000000E+00   0.0000000E+00   0.0000000E+00   0.0000000E+00   0.0000000E+00   0.0000000E+00   0.0000000E+00   0.0000000E+00   0.0000000E+00   0.0000000E+00   0.0000000E+00   0.0000000E+00   0.0000000E+00   0.0000000E+00   0.0000000E+00   0.0000000E+00   0.0000000E+00   0.0000000E+00   0.0000000E+00   0.0000000E+00   0.0000000E+00   0.0000000E+00   0.0000000E+00   0.0000000E+00   0.0000000E+00   0.0000000E+00   0.0000000E+00   0.0000000E+00   0.0000000E+00   0.0000000E+00   0.0000000E+00   0.0000000E+00   0.0000000E+00   0.0000000E+00   0.0000000E+00   0.0000000E+00   0.0000000E+00   0.0000000E+00   0.0000000E+00   0.0000000E+00   0.0000000E+00   0.0000000E+00   0.0000000E+00   0.0000000E+00   0.0000000E+00   0.0000000E+00   0.0000000E+00   0.0000000E+00   0.0000000E+00   0.0000000E+00   0.0000000E+00   0.0000000E+00   0.0000000E+00   0.0000000E+00   0.0000000E+00   0.0000000E+00   0.0000000E+00   0.0000000E+00   0.0000000E+00   0.0000000E+00   0.0000000E+00   0.0000000E+00   0.0000000E+00   0.0000000E+00   0.0000000E+00   0.0000000E+00   0.0000000E+00   0.0000000E+00   0.0000000E+00   0.0000000E+00   0.0000000E+00   0.0000000E+00   0.0000000E+00   0.0000000E+00   0.0000000E+00   0.0000000E+00   0.0000000E+00   0.0000000E+00   0.0000000E+00   0.0000000E+00   0.0000000E+00   0.0000000E+00   0.0000000E+00   0.0000000E+00   0.0000000E+00   0.0000000E+00   0.0000000E+00   0.0000000E+00   0.0000000E+00   0.0000000E+00   0.0000000E+00   0.0000000E+00   0.0000000E+00   0.0000000E+00   0.0000000E+00   0.0000000E+00   0.0000000E+00   0.0000000E+00   0.0000000E+00   0.0000000E+00   0.0000000E+00   0.0000000E+00   0.0000000E+00   0.0000000E+00   0.0000000E+00   0.0000000E+00   0.0000000E+00   0.0000000E+00   0.0000000E+00   0.0000000E+00   0.0000000E+00   0.0000000E+00   0.0000000E+00   0.0000000E+00   0.0000000E+00   0.0000000E+00   0.0000000E+00   0.0000000E+00   0.0000000E+00   0.0000000E+00   0.0000000E+00   0.0000000E+00   0.0000000E+00   0.0000000E+00   0.0000000E+00   0.0000000E+00   0.0000000E+00   0.0000000E+00   0.0000000E+00   0.0000000E+00   0.0000000E+00   0.0000000E+00   0.0000000E+00   0.0000000E+00   0.0000000E+00   0.0000000E+00   0.0000000E+00   0.0000000E+00   0.0000000E+00   0.0000000E+00   0.0000000E+00   0.0000000E+00   0.0000000E+00   0.0000000E+00   0.0000000E+00   0.0000000E+00   0.0000000E+00   0.0000000E+00   0.0000000E+00   0.0000000E+00   0.0000000E+00   0.0000000E+00   0.0000000E+00   0.0000000E+00   0.0000000E+00   0.0000000E+00   0.0000000E+00   0.0000000E+00   0.0000000E+00   0.0000000E+00   0.0000000E+00   0.0000000E+00   0.0000000E+00   0.0000000E+00   0.0000000E+00   0.0000000E+00   0.0000000E+00   0.0000000E+00   0.0000000E+00   0.0000000E+00   0.0000000E+00   0.0000000E+00   0.0000000E+00   0.0000000E+00   0.0000000E+00   0.0000000E+00   0.0000000E+00   0.0000000E+00   0.0000000E+00   0.0000000E+00   0.0000000E+00   0.0000000E+00   0.0000000E+00   0.0000000E+00   0.0000000E+00   0.0000000E+00   0.0000000E+00   0.0000000E+00   0.0000000E+00   0.0000000E+00   0.0000000E+00   0.0000000E+00   0.0000000E+00   0.0000000E+00   0.0000000E+00   0.0000000E+00   0.0000000E+00   0.0000000E+00   0.0000000E+00   0.0000000E+00   0.0000000E+00   0.0000000E+00   0.0000000E+00   0.0000000E+00   0.0000000E+00   0.0000000E+00   0.0000000E+00   0.0000000E+00   0.0000000E+00   0.0000000E+00   0.0000000E+00   0.0000000E+00   0.0000000E+00   0.0000000E+00   0.0000000E+00   0.0000000E+00   0.0000000E+00   0.0000000E+00   0.0000000E+00   0.0000000E+00   0.0000000E+00   0.0000000E+00   0.0000000E+00   0.0000000E+00   0.0000000E+00   0.0000000E+00   0.0000000E+00   0.0000000E+00   0.0000000E+00   0.0000000E+00   0.0000000E+00   0.0000000E+00   0.0000000E+00   0.0000000E+00   0.0000000E+00   0.0000000E+00   0.0000000E+00   0.0000000E+00   0.0000000E+00   0.0000000E+00   0.0000000E+00   0.0000000E+00   0.0000000E+00   0.0000000E+00   0.0000000E+00   0.0000000E+00   0.0000000E+00   0.0000000E+00   0.0000000E+00   0.0000000E+00   0.0000000E+00   0.0000000E+00   0.0000000E+00   0.0000000E+00   0.0000000E+00   0.0000000E+00   0.0000000E+00   0.0000000E+00   0.0000000E+00   0.0000000E+00   0.0000000E+00   0.0000000E+00   0.0000000E+00   0.0000000E+00   0.0000000E+00   0.0000000E+00   0.0000000E+00   0.0000000E+00   0.0000000E+00   0.0000000E+00   0.0000000E+00   0.0000000E+00   0.0000000E+00   0.0000000E+00   0.0000000E+00   0.0000000E+00   0.0000000E+00   0.0000000E+00   0.0000000E+00   0.0000000E+00   0.0000000E+00   0.0000000E+00   0.0000000E+00   0.0000000E+00   0.0000000E+00   0.0000000E+00   0.0000000E+00   0.0000000E+00   0.0000000E+00   0.0000000E+00   0.0000000E+00   0.0000000E+00   0.0000000E+00   0.0000000E+00   0.0000000E+00   0.0000000E+00   0.0000000E+00   0.0000000E+00   0.0000000E+00   0.0000000E+00   0.0000000E+00   0.0000000E+00   0.0000000E+00   0.0000000E+00   0.0000000E+00   0.0000000E+00   0.0000000E+00   0.0000000E+00   0.0000000E+00   0.0000000E+00   0.0000000E+00   0.0000000E+00   0.0000000E+00   0.0000000E+00   0.0000000E+00   0.0000000E+00   0.0000000E+00   0.0000000E+00   0.0000000E+00   0.0000000E+00   0.0000000E+00   0.0000000E+00   0.0000000E+00   0.0000000E+00   0.0000000E+00   0.0000000E+00   0.0000000E+00   0.0000000E+00   0.0000000E+00   0.0000000E+00   0.0000000E+00   0.0000000E+00   0.0000000E+00   0.0000000E+00   0.0000000E+00   0.0000000E+00   0.0000000E+00   0.0000000E+00   0.0000000E+00   0.0000000E+00   0.0000000E+00   0.0000000E+00   0.0000000E+00   0.0000000E+00   0.0000000E+00   0.0000000E+00   0.0000000E+00   0.0000000E+00   0.0000000E+00   0.0000000E+00   0.0000000E+00   0.0000000E+00   0.0000000E+00   0.0000000E+00   0.0000000E+00   0.0000000E+00   0.0000000E+00   0.0000000E+00   0.0000000E+00   0.0000000E+00   0.0000000E+00   0.0000000E+00   0.0000000E+00   0.0000000E+00   0.0000000E+00   0.0000000E+00   0.0000000E+00   0.0000000E+00   0.0000000E+00   0.0000000E+00   0.0000000E+00   0.0000000E+00   0.0000000E+00   0.0000000E+00   0.0000000E+00   0.0000000E+00   0.0000000E+00   0.0000000E+00   0.0000000E+00   0.0000000E+00   0.0000000E+00   0.0000000E+00   0.0000000E+00   0.0000000E+00   0.0000000E+00   0.0000000E+00   0.0000000E+00   0.0000000E+00   0.0000000E+00   0.0000000E+00   0.0000000E+00   0.0000000E+00   0.0000000E+00   0.0000000E+00   0.0000000E+00   0.0000000E+00   0.0000000E+00   0.0000000E+00   0.0000000E+00   0.0000000E+00   0.0000000E+00   0.0000000E+00   0.0000000E+00   0.0000000E+00   0.0000000E+00   0.0000000E+00   0.0000000E+00   0.0000000E+00   0.0000000E+00   0.0000000E+00   0.0000000E+00   0.0000000E+00   0.0000000E+00   0.0000000E+00   0.0000000E+00   0.0000000E+00   0.0000000E+00   0.0000000E+00   0.0000000E+00   0.0000000E+00   0.0000000E+00   0.0000000E+00   0.0000000E+00   0.0000000E+00   0.0000000E+00   0.0000000E+00   0.0000000E+00   0.0000000E+00   0.0000000E+00   0.0000000E+00   0.0000000E+00   0.0000000E+00   0.0000000E+00   0.0000000E+00   0.0000000E+00   0.0000000E+00   0.0000000E+00   0.0000000E+00   0.0000000E+00   0.0000000E+00   0.0000000E+00   0.0000000E+00   0.0000000E+00   0.0000000E+00   0.0000000E+00   0.0000000E+00   0.0000000E+00   0.0000000E+00   0.0000000E+00   0.0000000E+00   0.0000000E+00   0.0000000E+00   0.0000000E+00   0.0000000E+00   0.0000000E+00   0.0000000E+00   0.0000000E+00   0.0000000E+00   0.0000000E+00   0.0000000E+00   0.0000000E+00   0.0000000E+00   0.0000000E+00   0.0000000E+00   0.0000000E+00   0.0000000E+00   0.0000000E+00   0.0000000E+00   0.0000000E+00   0.0000000E+00   0.0000000E+00   0.0000000E+00   0.0000000E+00   0.0000000E+00   0.0000000E+00   0.0000000E+00   0.0000000E+00   0.0000000E+00   0.0000000E+00   0.0000000E+00   0.0000000E+00   0.0000000E+00   0.0000000E+00   0.0000000E+00   0.0000000E+00   0.0000000E+00   0.0000000E+00   0.0000000E+00   0.0000000E+00   0.0000000E+00   0.0000000E+00   0.0000000E+00   0.0000000E+00   0.0000000E+00   0.0000000E+00   0.0000000E+00   0.0000000E+00   0.0000000E+00   0.0000000E+00   0.0000000E+00   0.0000000E+00   0.0000000E+00   0.0000000E+00   0.0000000E+00   0.0000000E+00   0.0000000E+00   0.0000000E+00   0.0000000E+00   0.0000000E+00   0.0000000E+00   0.0000000E+00   0.0000000E+00   0.0000000E+00   0.0000000E+00   0.0000000E+00   0.0000000E+00   0.0000000E+00   0.0000000E+00   0.0000000E+00   0.0000000E+00   0.0000000E+00   0.0000000E+00   0.0000000E+00   0.0000000E+00   0.0000000E+00   0.0000000E+00   0.0000000E+00   0.0000000E+00   0.0000000E+00   0.0000000E+00   0.0000000E+00   0.0000000E+00   0.0000000E+00   0.0000000E+00   0.0000000E+00   0.0000000E+00   0.0000000E+00   0.0000000E+00   0.0000000E+00   0.0000000E+00   0.0000000E+00   0.0000000E+00   0.0000000E+00   0.0000000E+00   0.0000000E+00   0.0000000E+00   0.0000000E+00   0.0000000E+00   0.0000000E+00   0.0000000E+00   0.0000000E+00   0.0000000E+00   0.0000000E+00   0.0000000E+00   0.0000000E+00   0.0000000E+00   0.0000000E+00   0.0000000E+00   0.0000000E+00   0.0000000E+00   0.0000000E+00   0.0000000E+00   0.0000000E+00   0.0000000E+00   0.0000000E+00   0.0000000E+00   0.0000000E+00   0.0000000E+00   0.0000000E+00   0.0000000E+00   0.0000000E+00   0.0000000E+00   0.0000000E+00   0.0000000E+00   0.0000000E+00   0.0000000E+00   0.0000000E+00   0.0000000E+00   0.0000000E+00   0.0000000E+00   0.0000000E+00   0.0000000E+00   0.0000000E+00   0.0000000E+00   0.0000000E+00   0.0000000E+00   0.0000000E+00   0.0000000E+00   0.0000000E+00   0.0000000E+00   0.0000000E+00   0.0000000E+00   0.0000000E+00   0.0000000E+00   0.0000000E+00   0.0000000E+00   0.0000000E+00   0.0000000E+00   0.0000000E+00   0.0000000E+00   0.0000000E+00   0.0000000E+00   0.0000000E+00   0.0000000E+00   0.0000000E+00   0.0000000E+00   0.0000000E+00   0.0000000E+00   0.0000000E+00   0.0000000E+00   0.0000000E+00   0.0000000E+00   0.0000000E+00   0.0000000E+00   0.0000000E+00   0.0000000E+00   0.0000000E+00   0.0000000E+00   0.0000000E+00   0.0000000E+00   0.0000000E+00   0.0000000E+00   0.0000000E+00   0.0000000E+00   0.0000000E+00   0.0000000E+00   0.0000000E+00   0.0000000E+00   0.0000000E+00   0.0000000E+00   0.0000000E+00   0.0000000E+00   0.0000000E+00   0.0000000E+00   0.0000000E+00   0.0000000E+00   0.0000000E+00   0.0000000E+00   0.0000000E+00   0.0000000E+00   0.0000000E+00   0.0000000E+00   0.0000000E+00   0.0000000E+00   0.0000000E+00   0.0000000E+00   0.0000000E+00   0.0000000E+00   0.0000000E+00   0.0000000E+00   0.0000000E+00   0.0000000E+00   0.0000000E+00   0.0000000E+00   0.0000000E+00   0.0000000E+00   0.0000000E+00   0.0000000E+00   0.0000000E+00   0.0000000E+00   0.0000000E+00   0.0000000E+00   0.0000000E+00   0.0000000E+00   0.0000000E+00   0.0000000E+00   0.0000000E+00   0.0000000E+00   0.0000000E+00   0.0000000E+00   0.0000000E+00   0.0000000E+00   0.0000000E+00   0.0000000E+00   0.0000000E+00   0.0000000E+00   0.0000000E+00   0.0000000E+00   0.0000000E+00   0.0000000E+00   0.0000000E+00   0.0000000E+00   0.0000000E+00   0.0000000E+00   0.0000000E+00   0.0000000E+00   0.0000000E+00   0.0000000E+00   0.0000000E+00   0.0000000E+00   0.0000000E+00   0.0000000E+00   0.0000000E+00   0.0000000E+00   0.0000000E+00   0.0000000E+00   0.0000000E+00   0.0000000E+00   0.0000000E+00   0.0000000E+00   0.0000000E+00   0.0000000E+00   0.0000000E+00   0.0000000E+00   0.0000000E+00   0.0000000E+00   0.0000000E+00   0.0000000E+00   0.0000000E+00   0.0000000E+00   0.0000000E+00   0.0000000E+00   0.0000000E+00   0.0000000E+00   0.0000000E+00   0.0000000E+00   0.0000000E+00   0.0000000E+00   0.0000000E+00   0.0000000E+00   0.0000000E+00   0.0000000E+00   0.0000000E+00   0.0000000E+00   0.0000000E+00   0.0000000E+00   0.0000000E+00   0.0000000E+00   0.0000000E+00   0.0000000E+00   0.0000000E+00   0.0000000E+00   0.0000000E+00   0.0000000E+00   0.0000000E+00   0.0000000E+00   0.0000000E+00   0.0000000E+00   0.0000000E+00   0.0000000E+00   0.0000000E+00   0.0000000E+00   0.0000000E+00   0.0000000E+00   0.0000000E+00   0.0000000E+00   0.0000000E+00   0.0000000E+00   0.0000000E+00   0.0000000E+00   0.0000000E+00   0.0000000E+00   0.0000000E+00   0.0000000E+00   0.0000000E+00   0.0000000E+00   0.0000000E+00   0.0000000E+00   0.0000000E+00   0.0000000E+00   0.0000000E+00   0.0000000E+00   0.0000000E+00   0.0000000E+00   0.0000000E+00   0.0000000E+00   0.0000000E+00   0.0000000E+00   0.0000000E+00   0.0000000E+00   0.0000000E+00   0.0000000E+00   0.0000000E+00   0.0000000E+00   0.0000000E+00   0.0000000E+00   0.0000000E+00   0.0000000E+00   0.0000000E+00   0.0000000E+00   0.0000000E+00   0.0000000E+00   0.0000000E+00   0.0000000E+00   0.0000000E+00   0.0000000E+00   0.0000000E+00   0.0000000E+00   0.0000000E+00   0.0000000E+00   0.0000000E+00   0.0000000E+00   0.0000000E+00   0.0000000E+00   0.0000000E+00   0.0000000E+00   0.0000000E+00   0.0000000E+00   0.0000000E+00   0.0000000E+00   0.0000000E+00   0.0000000E+00   0.0000000E+00   0.0000000E+00   0.0000000E+00   0.0000000E+00   0.0000000E+00   0.0000000E+00   0.0000000E+00   0.0000000E+00   0.0000000E+00   0.0000000E+00   0.0000000E+00   0.0000000E+00   0.0000000E+00   0.0000000E+00   0.0000000E+00   0.0000000E+00   0.0000000E+00   0.0000000E+00   0.0000000E+00   0.0000000E+00   0.0000000E+00   0.0000000E+00   0.0000000E+00   0.0000000E+00   0.0000000E+00   0.0000000E+00   0.0000000E+00   0.0000000E+00   0.0000000E+00   0.0000000E+00   0.0000000E+00   0.0000000E+00   0.0000000E+00   0.0000000E+00   0.0000000E+00   0.0000000E+00   0.0000000E+00   0.0000000E+00   0.0000000E+00   0.0000000E+00   0.0000000E+00   0.0000000E+00   0.0000000E+00   0.0000000E+00   0.0000000E+00   0.0000000E+00   0.0000000E+00   0.0000000E+00   0.0000000E+00   0.0000000E+00   0.0000000E+00   0.0000000E+00   0.0000000E+00   0.0000000E+00   0.0000000E+00   0.0000000E+00   0.0000000E+00   0.0000000E+00   0.0000000E+00   0.0000000E+00   0.0000000E+00   0.0000000E+00   0.0000000E+00   0.0000000E+00   0.0000000E+00   0.0000000E+00   0.0000000E+00   0.0000000E+00   0.0000000E+00   0.0000000E+00   0.0000000E+00   0.0000000E+00   0.0000000E+00   0.0000000E+00   0.0000000E+00   0.0000000E+00   0.0000000E+00   0.0000000E+00   0.0000000E+00   0.0000000E+00   0.0000000E+00   0.0000000E+00   0.0000000E+00   0.0000000E+00   0.0000000E+00   0.0000000E+00   0.0000000E+00   0.0000000E+00   0.0000000E+00   0.0000000E+00   0.0000000E+00   0.0000000E+00   0.0000000E+00   0.0000000E+00   0.0000000E+00   0.0000000E+00   0.0000000E+00   0.0000000E+00   0.0000000E+00   0.0000000E+00   0.0000000E+00   0.0000000E+00   0.0000000E+00   0.0000000E+00   0.0000000E+00   0.0000000E+00   0.0000000E+00   0.0000000E+00   0.0000000E+00   0.0000000E+00   0.0000000E+00   0.0000000E+00   0.0000000E+00   0.0000000E+00   0.0000000E+00   0.0000000E+00   0.0000000E+00   0.0000000E+00   0.0000000E+00   0.0000000E+00   0.0000000E+00   0.0000000E+00   0.0000000E+00   0.0000000E+00   0.0000000E+00   0.0000000E+00   0.0000000E+00   0.0000000E+00   0.0000000E+00   0.0000000E+00   0.0000000E+00   0.0000000E+00   0.0000000E+00   0.0000000E+00   0.0000000E+00   0.0000000E+00   0.0000000E+00   0.0000000E+00   0.0000000E+00   0.0000000E+00   0.0000000E+00   0.0000000E+00   0.0000000E+00   0.0000000E+00   0.0000000E+00   0.0000000E+00   0.0000000E+00   0.0000000E+00   0.0000000E+00   0.0000000E+00   0.0000000E+00   0.0000000E+00   0.0000000E+00   0.0000000E+00   0.0000000E+00   0.0000000E+00   0.0000000E+00   0.0000000E+00   0.0000000E+00   0.0000000E+00   0.0000000E+00   0.0000000E+00   0.0000000E+00   0.0000000E+00   0.0000000E+00   0.0000000E+00   0.0000000E+00   0.0000000E+00   0.0000000E+00   0.0000000E+00   0.0000000E+00   0.0000000E+00   0.0000000E+00   0.0000000E+00   0.0000000E+00   0.0000000E+00   0.0000000E+00   0.0000000E+00   0.0000000E+00   0.0000000E+00   0.0000000E+00   0.0000000E+00   0.0000000E+00   0.0000000E+00   0.0000000E+00   0.0000000E+00   0.0000000E+00   0.0000000E+00   0.0000000E+00   0.0000000E+00   0.0000000E+00   0.0000000E+00   0.0000000E+00   0.0000000E+00   0.0000000E+00   0.0000000E+00   0.0000000E+00   0.0000000E+00   0.0000000E+00   0.0000000E+00   0.0000000E+00   0.0000000E+00   0.0000000E+00   0.0000000E+00   0.0000000E+00 
StrainDot.y 1 2975 float
  0.0000000E+00   0.0000000E+00   0.0000000E+00   0.0000000E+00   0.0000000E+00   0.0000000E+00   0.0000000E+00   0.0000000E+00   0.0000000E+00   0.0000000E+00   0.0000000E+00   0.0000000E+00   0.0000000E+00  -9.5780130E-08  -1.0632684E-19  -6.9981184E-07  -3.9483402E-06  -1.4797342E-06  -1.0491476E-05  -2.7407645E-05  -1.3791503E-05  -5.0196781E-05  -1.0004757E-04  -5.3269458E-05  -1.4819356E-04  -2.5889993E-04  -1.3587168E-04  -3.2947573E-04  -5.3557614E-04  -2.6851968E-04  -6.0270290E-04  -9.4012119E-04  -4.4333763E-04  -9.5117884E-04  -1.4480025E-03  -6.3928351E-04  -1.3355264E-03  -2.0015589E-03  -8.3192607E-04  -1.7109595E-03  -2.5348109E-03  -1.0056498E-03  -2.0492033E-03  -3.0080664E-03  -1.1601102E-03  -2.3499690E-03  -3.4250291E-03  -1.3106441E-03  -2.6436597E-03  -3.8354888E-03  -1.4924506E-03  -3.0032564E-03  -4.3501393E-03  -1.7900197E-03  -3.5794189E-03  -5.1725297E-03  -2.4015203E-03  -4.6567805E-03  -6.6438480E-03  -3.7618859E-03  -6.7374110E-03  -9.2982594E-03  -1.0604295E-02  -1.3885250E-02   0.0000000E+00   0.0000000E+00   0.0000000E+00   0.0000000E+00   0.0000000E+00   0.0000000E+00   0.0000000E+00   0.0000000E+00   0.0000000E+00   0.0000000E+00   0.0000000E+00   0.0000000E+00   0.0000000E+00   0.0000000E+00   0.0000000E+00   0.0000000E+00   0.0000000E+00   0.0000000E+00   0.0000000E+00   0.0000000E+00   0.0000000E+00   0.0000000E+00   0.0000000E+00   0.0000000E+00   0.0000000E+00  -6.4935985E-09  -2.1915472E-08  -1.9691191E-08  -1.9218831E-09   5.5488609E-09   6.5117192E-09   6.6346009E-09  -6.0606675E-07  -1.3094919E-06  -1.6898912E-06  -1.4494217E-06  -6.8130271E-07   1.8861542E-07   6.9612122E-07   7.9066518E-07  -8.6642085E-06  -1.2305353E-05  -1.3112853E-05  -1.0533608E-05  -5.3224926E-06   5.4809084E-07   4.9390601E-06   6.9660264E-06  -4.4053384E-05  -5.3449716E-05  -5.2413776E-05  -4.0461095E-05  -2.0261094E-05   1.9638751E-06   1.9346733E-05   2.8713925E-05  -1.4009497E-04  -1.5743043E-04  -1.4774788E-04  -1.1114572E-04  -5.4521461E-05   6.6839361E-06   5.5294469E-05   8.2890700E-05  -3.3729011E-04  -3.6357186E-04  -3.3254802E-04  -2.4534037E-04  -1.1712638E-04   1.9029212E-05   1.2732102E-04   1.9018429E-04  -6.7041413E-04  -7.0618076E-04  -6.3571543E-04  -4.6060898E-04  -2.1183785E-04   4.6363944E-05   2.4976258E-04   3.6849413E-04  -1.1509772E-03  -1.1968684E-03  -1.0650497E-03  -7.5574080E-04  -3.2991296E-04   9.8284385E-05   4.2996492E-04   6.2267890E-04  -1.7503243E-03  -1.8047760E-03  -1.5820011E-03  -2.3964280E-03  -2.4501532E-03  -3.0045197E-03  -3.0350159E-03  -3.5288455E-03  -3.5186359E-03  -3.9807432E-03  -3.9195083E-03  -4.4268295E-03  -4.3092612E-03  -5.0016865E-03  -4.8234467E-03  -5.9384638E-03  -5.6888708E-03  -7.6187151E-03  -7.2773872E-03  -1.0634405E-02  -1.0188744E-02  -1.5788415E-02  -1.5279688E-02   0.0000000E+00   0.0000000E+00   0.0000000E+00   0.0000000E+00   0.0000000E+00   0.0000000E+00   0.0000000E+00   0.0000000E+00   0.0000000E+00   0.0000000E+00   0.0000000E+00   0.0000000E+00   0.0000000E+00   0.0000000E+00   0.0000000E+00   0.0000000E+00   0.0000000E+00   0.0000000E+00   0.0000000E+00   0.0000000E+00   0.0000000E+00   0.0000000E+00   0.0000000E+00   0.0000000E+00   0.0000000E+00   0.0000000E+00   0.0000000E+00   6.1883925E-09   5.4065299E-09   4.5100763E-09   3.6492651E-09   2.8471310E-09   2.1489128E-09   1.5829383E-09   1.1630373E-09   9.0692459E-10   7.5342246E-07   6.7189302E-07   5.7016558E-07   4.6526503E-07   3.6718302E-07   2.8147676E-07   2.1141693E-07   1.5969903E-07   1.2799967E-07   7.0530291E-06   6.3878510E-06   5.4884258E-06   4.5242637E-06   3.6044667E-06   2.7935441E-06   2.1303040E-06   1.6396992E-06   1.3388434E-06   3.0917108E-05   2.8698802E-05   2.4922567E-05   2.0725494E-05   1.6646240E-05   1.3017714E-05   1.0038820E-05   7.8332905E-06   6.4797982E-06   9.1158734E-05   8.6677050E-05   7.6037875E-05   6.3705666E-05   5.1513118E-05   4.0570463E-05   3.1549916E-05   2.4860039E-05   2.0752132E-05   2.1064852E-04   2.0251350E-04   1.7943697E-04   1.5124008E-04   1.2295437E-04   9.7361444E-05   7.6176839E-05   6.0435908E-05   5.0763203E-05   4.0830518E-04   3.9409331E-04   3.5132768E-04   2.9743309E-04   2.4275457E-04   1.9295374E-04   1.5158190E-04   1.2078560E-04   1.0184680E-04   6.8726478E-04   6.6351023E-04   5.9302512E-04   5.0358300E-04   4.1207572E-04   3.2831734E-04   2.5853197E-04   2.0650614E-04   1.7448937E-04   0.0000000E+00   0.0000000E+00   0.0000000E+00   0.0000000E+00   0.0000000E+00   0.0000000E+00   0.0000000E+00   0.0000000E+00   0.0000000E+00   0.0000000E+00   0.0000000E+00   0.0000000E+00   0.0000000E+00   0.0000000E+00   0.0000000E+00   0.0000000E+00   0.0000000E+00   0.0000000E+00   0.0000000E+00   0.0000000E+00   0.0000000E+00   0.0000000E+00   0.0000000E+00   0.0000000E+00   8.2056972E-10   9.0691682E-10   1.1630354E-09   1.5829413E-09   2.1489202E-09   2.8471359E-09   3.6492620E-09   4.5100661E-09   1.1730125E-07   1.2799944E-07   1.5969887E-07   2.1141715E-07   2.8147721E-07   3.6718336E-07   4.6526480E-07   5.7016513E-07   1.2375580E-06   1.3388421E-06   1.6396983E-06   2.1303040E-06   2.7935457E-06   3.6044682E-06   4.5242632E-06   5.4884254E-06   6.0238294E-06   6.4797969E-06   7.8332860E-06   1.0038822E-05   1.3017719E-05   1.6646243E-05   2.0725491E-05   2.4922569E-05   1.9367391E-05   2.0752130E-05   2.4860024E-05   3.1549916E-05   4.0570474E-05   5.1513143E-05   6.3705709E-05   7.6037890E-05   4.7501318E-05   5.0763181E-05   6.0435905E-05   7.6176810E-05   9.7361437E-05   1.2295437E-04   1.5124014E-04   1.7943699E-04   9.5459000E-05   1.0184676E-04   1.2078555E-04   1.5158180E-04   1.9295372E-04   2.4275458E-04   2.9743303E-04   3.5132759E-04   1.6368857E-04   1.7448925E-04   2.0650604E-04   2.5853195E-04   3.2831737E-04   4.1207561E-04   5.0358300E-04   5.9302495E-04   0.0000000E+00   0.0000000E+00   0.0000000E+00   0.0000000E+00   0.0000000E+00   0.0000000E+00   0.0000000E+00   0.0000000E+00   0.0000000E+00   0.0000000E+00   0.0000000E+00   0.0000000E+00   0.0000000E+00   0.0000000E+00   0.0000000E+00   0.0000000E+00   0.0000000E+00   0.0000000E+00   0.0000000E+00   0.0000000E+00   0.0000000E+00   0.0000000E+00   0.0000000E+00   0.0000000E+00   0.0000000E+00   0.0000000E+00   0.0000000E+00   5.4065241E-09   6.1883978E-09   6.6346129E-09   6.5117178E-09   5.5488565E-09  -1.9218849E-09  -1.9691200E-08  -2.1915470E-08  -6.4935963E-09   6.7189296E-07   7.5342280E-07   7.9066581E-07   6.9612167E-07   1.8861523E-07  -6.8130305E-07  -1.4494219E-06  -1.6898911E-06  -1.3094914E-06   6.3878501E-06   7.0530286E-06   6.9660241E-06   4.9390615E-06   5.4809306E-07  -5.3224931E-06  -1.0533611E-05  -1.3112853E-05  -1.2305354E-05   2.8698791E-05   3.0917097E-05   2.8713921E-05   1.9346737E-05   1.9638771E-06  -2.0261081E-05  -4.0461106E-05  -5.2413794E-05  -5.3449738E-05   8.6677057E-05   9.1158734E-05   8.2890670E-05   5.5294466E-05   6.6839507E-06  -5.4521453E-05  -1.1114572E-04  -1.4774785E-04  -1.5743040E-04   2.0251358E-04   2.1064850E-04   1.9018419E-04   1.2732107E-04   1.9029219E-05  -1.1712631E-04  -2.4534043E-04  -3.3254811E-04  -3.6357195E-04   3.9409325E-04   4.0830544E-04   3.6849431E-04   2.4976267E-04   4.6363977E-05  -2.1183782E-04  -4.6060895E-04  -6.3571549E-04  -7.0618058E-04   6.6351029E-04   6.8726495E-04   6.2267901E-04   4.2996518E-04   9.8284654E-05  -3.2991293E-04  -7.5574114E-04  -1.0650498E-03  -1.1968686E-03  -1.5820011E-03  -1.8047753E-03  -2.4501539E-03  -3.0350154E-03  -3.5186356E-03  -3.9195078E-03  -4.3092612E-03  -4.8234449E-03  -5.6888685E-03  -7.2773886E-03  -1.0188742E-02  -1.5279684E-02   0.0000000E+00   0.0000000E+00   0.0000000E+00   0.0000000E+00   0.0000000E+00   0.0000000E+00   0.0000000E+00   0.0000000E+00   0.0000000E+00   0.0000000E+00   0.0000000E+00   0.0000000E+00   0.0000000E+00   0.0000000E+00   0.0000000E+00  -6.0606618E-07  -9.5780059E-08   0.0000000E+00   0.0000000E+00  -8.6642058E-06  -3.9483375E-06  -6.9981172E-07  -1.0632678E-19  -4.4053373E-05  -2.7407630E-05  -1.0491475E-05  -1.4797338E-06  -1.4009497E-04  -1.0004752E-04  -5.0196770E-05  -1.3791504E-05  -3.3729011E-04  -2.5889979E-04  -1.4819349E-04  -5.3269458E-05  -6.7041424E-04  -5.3557608E-04  -3.2947570E-04  -1.3587167E-04  -1.1509773E-03  -9.4012095E-04  -6.0270273E-04  -2.6851962E-04  -1.7503240E-03  -1.4480026E-03  -9.5117878E-04  -4.4333760E-04  -2.3964283E-03  -2.0015589E-03  -1.3355265E-03  -6.3928345E-04  -3.0045197E-03  -2.5348116E-03  -1.7109590E-03  -8.3192613E-04  -3.5288455E-03  -3.0080669E-03  -2.0492033E-03  -1.0056500E-03  -3.9807432E-03  -3.4250279E-03  -2.3499699E-03  -1.1601100E-03  -4.4268300E-03  -3.8354881E-03  -2.6436604E-03  -1.3106443E-03  -5.0016865E-03  -4.3501388E-03  -3.0032555E-03  -1.4924505E-03  -5.9384615E-03  -5.1725293E-03  -3.5794186E-03  -1.7900196E-03  -7.6187146E-03  -6.6438480E-03  -4.6567791E-03  -2.4015200E-03  -1.0634406E-02  -9.2982603E-03  -6.7374106E-03  -3.7618855E-03  -1.5788412E-02  -1.3885249E-02  -1.0604295E-02   0.0000000E+00   0.0000000E+00   0.0000000E+00   0.0000000E+00   0.0000000E+00   0.0000000E+00   0.0000000E+00   0.0000000E+00   0.0000000E+00   0.0000000E+00   0.0000000E+00   0.0000000E+00   0.0000000E+00   0.0000000E+00   0.0000000E+00   0.0000000E+00   0.0000000E+00   0.0000000E+00   0.0000000E+00   0.0000000E+00   0.0000000E+00   0.0000000E+00   0.0000000E+00   0.0000000E+00   0.0000000E+00   0.0000000E+00   0.0000000E+00   0.0000000E+00   0.0000000E+00   0.0000000E+00   0.0000000E+00   0.0000000E+00   0.0000000E+00   0.0000000E+00   0.0000000E+00   0.0000000E+00   0.0000000E+00   0.0000000E+00   0.0000000E+00   0.0000000E+00   0.0000000E+00   0.0000000E+00   0.0000000E+00   0.0000000E+00   0.0000000E+00   0.0000000E+00   0.0000000E+00   0.0000000E+00   0.0000000E+00   0.0000000E+00   0.0000000E+00   0.0000000E+00   0.0000000E+00   0.0000000E+00   0.0000000E+00   0.0000000E+00   0.0000000E+00   0.0000000E+00   0.0000000E+00   0.0000000E+00   0.0000000E+00   0.0000000E+00   0.0000000E+00   0.0000000E+00   0.0000000E+00   0.0000000E+00   0.0000000E+00   0.0000000E+00   0.0000000E+00   0.0000000E+00   0.0000000E+00   0.0000000E+00   0.0000000E+00   0.0000000E+00   0.0000000E+00   0.0000000E+00   0.0000000E+00   0.0000000E+00   0.0000000E+00   0.0000000E+00   0.0000000E+00   0.0000000E+00   0.0000000E+00   0.0000000E+00   0.0000000E+00   0.0000000E+00   0.0000000E+00   0.0000000E+00   0.0000000E+00   0.0000000E+00   0.0000000E+00   0.0000000E+00   0.0000000E+00   0.0000000E+00   0.0000000E+00   0.0000000E+00   0.0000000E+00   0.0000000E+00   0.0000000E+00   0.0000000E+00   0.0000000E+00   0.0000000E+00   0.0000000E+00   0.0000000E+00   0.0000000E+00   0.0000000E+00   0.0000000E+00   0.0000000E+00   0.0000000E+00   0.0000000E+00   0.0000000E+00   0.0000000E+00   0.0000000E+00   0.0000000E+00   0.0000000E+00   0.0000000E+00   0.0000000E+00   0.0000000E+00   0.0000000E+00   0.0000000E+00   0.0000000E+00   0.0000000E+00   0.0000000E+00   0.0000000E+00   0.0000000E+00   0.0000000E+00   0.0000000E+00   0.0000000E+00   0.0000000E+00   0.0000000E+00   0.0000000E+00   0.0000000E+00   0.0000000E+00   0.0000000E+00   0.0000000E+00   0.0000000E+00   0.0000000E+00   0.0000000E+00   0.0000000E+00   0.0000000E+00   0.0000000E+00   0.0000000E+00   0.0000000E+00   0.0000000E+00   0.0000000E+00   0.0000000E+00   0.0000000E+00   0.0000000E+00   0.0000000E+00   0.0000000E+00   0.0000000E+00   0.0000000E+00   0.0000000E+00   0.0000000E+00   0.0000000E+00   0.0000000E+00   0.0000000E+00   0.0000000E+00   0.0000000E+00   0.0000000E+00   0.0000000E+00   0.0000000E+00   0.0000000E+00   0.0000000E+00   0.0000000E+00   0.0000000E+00   0.0000000E+00   0.0000000E+00   0.0000000E+00   0.0000000E+00   0.0000000E+00   0.0000000E+00   0.0000000E+00   0.0000000E+00   0.0000000E+00   0.0000000E+00   0.0000000E+00   0.0000000E+00   0.0000000E+00   0.0000000E+00   0.0000000E+00   0.0000000E+00   0.0000000E+00   0.0000000E+00   0.0000000E+00   0.0000000E+00   0.0000000E+00   0.0000000E+00   0.0000000E+00   0.0000000E+00   0.0000000E+00   0.0000000E+00   0.0000000E+00   0.0000000E+00   0.0000000E+00   0.0000000E+00   0.0000000E+00   0.0000000E+00   0.0000000E+00   0.0000000E+00   0.0000000E+00   0.0000000E+00   0.0000000E+00   0.0000000E+00   0.0000000E+00   0.0000000E+00   0.0000000E+00   0.0000000E+00   0.0000000E+00   0.0000000E+00   0.0000000E+00   0.0000000E+00   0.0000000E+00   0.0000000E+00   0.0000000E+00   0.0000000E+00   0.0000000E+00   0.0000000E+00   0.0000000E+00   0.0000000E+00   0.0000000E+00   0.0000000E+00   0.0000000E+00   0.0000000E+00   0.0000000E+00   0.0000000E+00   0.0000000E+00   0.0000000E+00   0.0000000E+00   0.0000000E+00   0.0000000E+00   0.0000000E+00   0.0000000E+00   0.0000000E+00   0.0000000E+00   0.0000000E+00   0.0000000E+00   0.0000000E+00   0.0000000E+00   0.0000000E+00   0.0000000E+00   0.0000000E+00   0.0000000E+00   0.0000000E+00   0.0000000E+00   0.0000000E+00   0.0000000E+00   0.0000000E+00   0.0000000E+00   0.0000000E+00   0.0000000E+00   0.0000000E+00   0.0000000E+00   0.0000000E+00   0.0000000E+00   0.0000000E+00   0.0000000E+00   0.0000000E+00   0.0000000E+00   0.0000000E+00   0.0000000E+00   0.0000000E+00   0.0000000E+00   0.0000000E+00   0.0000000E+00   0.0000000E+00   0.0000000E+00   0.0000000E+00   0.0000000E+00   0.0000000E+00   0.0000000E+00   0.0000000E+00   0.0000000E+00   0.0000000E+00   0.0000000E+00   0.0000000E+00   0.0000000E+00   0.0000000E+00   0.0000000E+00   0.0000000E+00   0.0000000E+00   0.0000000E+00   0.0000000E+00   0.0000000E+00   0.0000000E+00   0.0000000E+00   0.0000000E+00   0.0000000E+00   0.0000000E+00   0.0000000E+00   0.0000000E+00   0.0000000E+00   0.0000000E+00   0.0000000E+00   0.0000000E+00   0.0000000E+00   0.0000000E+00   0.0000000E+00   0.0000000E+00   0.0000000E+00   0.0000000E+00   0.0000000E+00   0.0000000E+00   0.0000000E+00   0.0000000E+00   0.0000000E+00   0.0000000E+00   0.0000000E+00   0.0000000E+00   0.0000000E+00   0.0000000E+00   0.0000000E+00   0.0000000E+00   0.0000000E+00   0.0000000E+00   0.0000000E+00   0.0000000E+00   0.0000000E+00   0.0000000E+00   0.0000000E+00   0.0000000E+00   0.0000000E+00   0.0000000E+00   0.0000000E+00   0.0000000E+00   0.0000000E+00   0.0000000E+00   0.0000000E+00   0.0000000E+00   0.0000000E+00   0.0000000E+00   0.0000000E+00   0.0000000E+00   0.0000000E+00   0.0000000E+00   0.0000000E+00   0.0000000E+00   0.0000000E+00   0.0000000E+00   0.0000000E+00   0.0000000E+00   0.0000000E+00   0.0000000E+00   0.0000000E+00   0.0000000E+00   0.0000000E+00   0.0000000E+00   0.0000000E+00   0.0000000E+00   0.0000000E+00   0.0000000E+00   0.0000000E+00   0.0000000E+00   0.0000000E+00   0.0000000E+00   0.0000000E+00   0.0000000E+00   0.0000000E+00   0.0000000E+00   0.0000000E+00   0.0000000E+00   0.0000000E+00   0.0000000E+00   0.0000000E+00   0.0000000E+00   0.0000000E+00   0.0000000E+00   0.0000000E+00   0.0000000E+00   0.0000000E+00   0.0000000E+00   0.0000000E+00   0.0000000E+00   0.0000000E+00   0.0000000E+00   0.0000000E+00   0.0000000E+00   0.0000000E+00   0.0000000E+00   0.0000000E+00   0.0000000E+00   0.0000000E+00   0.0000000E+00   0.0000000E+00   0.0000000E+00   0.0000000E+00   0.0000000E+00   0.0000000E+00   0.0000000E+00   0.0000000E+00   0.0000000E+00   0.0000000E+00   0.0000000E+00   0.0000000E+00   0.0000000E+00   0.0000000E+00   0.0000000E+00   0.0000000E+00   0.0000000E+00   0.0000000E+00   0.0000000E+00   0.0000000E+00   0.0000000E+00   0.0000000E+00   0.0000000E+00   0.0000000E+00   0.0000000E+00   0.0000000E+00   0.0000000E+00   0.0000000E+00   0.0000000E+00   0.0000000E+00   0.0000000E+00   0.0000000E+00   0.0000000E+00   0.0000000E+00   0.0000000E+00   0.0000000E+00   0.0000000E+00   0.0000000E+00   0.0000000E+00   0.0000000E+00   0.0000000E+00   0.0000000E+00   0.0000000E+00   0.0000000E+00   0.0000000E+00   0.0000000E+00   0.0000000E+00   0.0000000E+00   0.0000000E+00   0.0000000E+00   0.0000000E+00   0.0000000E+00   0.0000000E+00   0.0000000E+00   0.0000000E+00   0.0000000E+00   0.0000000E+00   0.0000000E+00   0.0000000E+00   0.0000000E+00   0.0000000E+00   0.0000000E+00   0.0000000E+00   0.0000000E+00   0.0000000E+00   0.0000000E+00   0.0000000E+00   0.0000000E+00   0.0000000E+00   0.0000000E+00   0.0000000E+00   0.0000000E+00   0.0000000E+00   0.0000000E+00   0.0000000E+00   0.0000000E+00   0.0000000E+00   0.0000000E+00   0.0000000E+00   0.0000000E+00   0.0000000E+00   0.0000000E+00   0.0000000E+00   0.0000000E+00   0.0000000E+00   0.0000000E+00   0.0000000E+00   0.0000000E+00   0.0000000E+00   0.0000000E+00  -1.0717309E-03  -4.4623602E-04   1.8001758E-04   6.5753667E-04   9.3240460E-04  -1.9470139E-03  -1.3738408E-03  -5.3440192E-04   2.8586033E-04   9.0307160E-04   1.2537836E-03  -2.3786535E-03  -1.6178766E-03  -5.8044272E-04   4.0870294E-04   1.1406209E-03   1.5477445E-03  -2.7182265E-03  -1.7911062E-03  -5.8105134E-04   5.4400379E-04   1.3575380E-03   1.7950821E-03  -2.9719728E-03  -1.8972078E-03  -5.4065639E-04   6.8763038E-04   1.5510314E-03   1.9949495E-03  -3.1722379E-03  -1.9577197E-03  -4.6797574E-04   8.3929684E-04   1.7272298E-03   2.1608851E-03  -3.3671972E-03  -2.0034094E-03  -3.6363688E-04   1.0210417E-03   1.9184444E-03   2.3285230E-03  -3.6064007E-03  -2.0662486E-03  -2.0622765E-04   1.2961844E-03   2.2076748E-03   2.5789717E-03  -3.9570499E-03  -2.1647513E-03   6.8584690E-05   1.7900480E-03   2.7442749E-03   3.0545595E-03  -4.7174348E-03  -2.3184395E-03   5.9993425E-04   2.7164919E-03   3.7489971E-03   3.9560306E-03  -6.5204082E-03  -2.6086527E-03   1.5945025E-03   4.3744911E-03   5.5033793E-03   5.5188951E-03  -6.5668081E-03  -2.1871496E-03   3.5752016E-03   7.1278480E-03   8.2733277E-03   7.9504168E-03   6.9222981E-03   4.3488131E-03   8.2219206E-03   1.1439022E-02   1.2213534E-02   1.1340795E-02   2.5043828E-02   1.6919583E-02   1.6063578E-02   1.7424261E-02   1.7227327E-02   1.5596893E-02   3.8093861E-02   2.9468935E-02   2.5217397E-02   2.4326935E-02   2.2869727E-02   2.0459527E-02   4.5989230E-02   3.8574293E-02   3.3423603E-02   3.1052550E-02   2.8624220E-02   2.5638996E-02   5.0540876E-02   4.4512428E-02   3.9773997E-02   3.7037496E-02   3.4220111E-02   3.0964075E-02   5.3518035E-02   4.8637327E-02   4.4783644E-02   4.2459324E-02   3.9696835E-02   3.6406122E-02   5.6385100E-02   5.2198965E-02   4.9374197E-02   4.7749229E-02   4.5245543E-02   4.2030901E-02   5.9774630E-02   5.6051750E-02   5.4197825E-02   5.3277154E-02   5.1060695E-02   4.7949534E-02   6.3959993E-02   6.0549557E-02   5.9619423E-02   5.9296142E-02   5.7299070E-02   5.4247901E-02   6.8811312E-02   6.5910302E-02   6.5856710E-02   6.5925837E-02   6.4011909E-02   6.0930364E-02   7.4343674E-02   7.2284952E-02   7.2901092E-02   7.3086739E-02   7.1108930E-02   6.7898728E-02   8.0660209E-02   7.9706438E-02   8.0475442E-02   8.0506183E-02   7.8380190E-02   7.4982390E-02   8.7731138E-02   8.7942153E-02   8.7996230E-02   8.7788068E-02   8.5593969E-02   8.2031257E-02   9.5292583E-02   9.6387289E-02   9.4742782E-02   9.4648898E-02   9.2701390E-02   8.9078881E-02   1.0291617E-01   1.0430796E-01   1.0033092E-01   1.0141038E-01   1.0014682E-01   9.6570835E-02   1.0965422E-01   1.1119897E-01   1.0523023E-01   1.0915003E-01   1.0911559E-01   1.0557273E-01   1.1503903E-01   1.1758897E-01   1.1106640E-01   1.1965062E-01   1.2137378E-01   1.1769379E-01   1.2028401E-01   1.2567344E-01   1.2106479E-01   1.3494012E-01   1.3828585E-01   1.3458019E-01   1.3056406E-01   1.4047039E-01   1.3853312E-01   1.5444036E-01   1.6027924E-01   1.5693854E-01   1.5862921E-01   1.7160180E-01   1.5998356E-01   1.7729411E-01   1.8553548E-01   1.8384670E-01   2.1561737E-01   2.2047894E-01   1.9610584E-01   2.0216328E-01   2.1010736E-01   2.1245706E-01   2.9325816E-01   2.7616540E-01   2.3968431E-01   2.3159388E-01   2.3230262E-01   2.3892425E-01   3.6561444E-01   3.0460638E-01   2.6655233E-01   2.6074564E-01   2.5074586E-01   2.6003721E-01   3.7130377E-01   2.9741746E-01   2.7523896E-01   2.8280383E-01   2.6653630E-01   2.7445516E-01   3.6442983E-01   2.9830334E-01   2.6957029E-01   2.8911054E-01   2.7602470E-01   2.8251779E-01   3.8422555E-01   3.0553964E-01   2.3309287E-01   2.6024100E-01   2.6201364E-01   2.7817750E-01   4.1053775E-01   3.3785135E-01   2.1034132E-01   2.3971851E-01   2.5113076E-01   2.7345955E-01   4.3779626E-01   3.7643060E-01   2.1007560E-01   2.3675749E-01   2.5017953E-01   2.7273265E-01   4.5951039E-01   4.1082022E-01   2.2755642E-01   2.4837087E-01   2.5800815E-01   2.7650008E-01   4.7144979E-01   4.3221131E-01   2.5301901E-01   2.6782477E-01   2.7022213E-01   2.8304505E-01   4.6770883E-01   4.3555239E-01   2.7108675E-01   2.8430140E-01   2.8128585E-01   2.8964701E-01   4.5426431E-01   4.2657292E-01   2.7931410E-01   2.9347074E-01   2.8816023E-01   2.9390249E-01   4.3624461E-01   4.1144463E-01   2.7971083E-01   2.9517972E-01   2.8973463E-01   2.9439175E-01   4.1699606E-01   3.9592335E-01   2.7460301E-01   2.9035735E-01   2.8555137E-01   2.9064658E-01   3.9877760E-01   3.8001433E-01   2.6660308E-01   2.7946663E-01   2.7594596E-01   2.8286070E-01   3.8007802E-01   3.5522598E-01   2.5434521E-01   2.6209566E-01   2.6357844E-01   2.7175698E-01   3.5879439E-01   3.2451442E-01   2.3534971E-01   2.4528551E-01   2.4977337E-01   2.5776958E-01   3.3496919E-01   2.9300547E-01   2.1359923E-01   2.2901206E-01   2.3329756E-01   2.4131024E-01   3.0997846E-01   2.5944543E-01   1.9170202E-01   2.1132419E-01   2.1497715E-01   2.2322108E-01   2.8512225E-01   2.2094145E-01   1.7125468E-01   1.9372943E-01   1.9711825E-01   2.0485859E-01   2.3873767E-01   1.8619086E-01   1.5515251E-01   1.7842476E-01   1.8150258E-01   1.8749420E-01   1.5487622E-01   1.5651368E-01   1.4635415E-01   1.6775541E-01   1.6930908E-01   1.7267744E-01   1.0690437E-01   1.3706887E-01   1.3717988E-01   1.5819377E-01   1.6107175E-01   1.6128729E-01   1.1822928E-01   1.2052628E-01   1.4458972E-01   1.5361042E-01   1.5327086E-01   9.8695762E-02   1.0365387E-01   1.2314622E-01   1.4317752E-01   1.4669999E-01   9.9058911E-02   1.0498057E-01   1.3084981E-01   1.4017226E-01   9.7454101E-02   1.0604958E-01   1.2028775E-01   1.3468198E-01   1.1541173E-01   1.2101150E-01   1.3407302E-01   1.2905936E-01   1.4152953E-01   1.0801447E-01   1.4814460E-01   1.0226666E-03   9.8556734E-04   8.8138354E-04   7.4986625E-04   6.1461137E-04   4.9034675E-04   3.8656555E-04   3.0909810E-04   2.6139567E-04   1.3646452E-03   1.3111641E-03   1.1721468E-03   9.9844008E-04   8.1922917E-04   6.5405987E-04   5.1582203E-04   4.1251615E-04   3.4886511E-04   1.6680401E-03   1.5953472E-03   1.4246498E-03   1.2144576E-03   9.9720620E-04   7.9641695E-04   6.2801834E-04   5.0200924E-04   4.2431755E-04   1.9101477E-03   1.8153442E-03   1.6185532E-03   1.3807731E-03   1.1348656E-03   9.0697902E-04   7.1539934E-04   5.7179341E-04   4.8316451E-04   2.0920245E-03   1.9738534E-03   1.7578119E-03   1.5021496E-03   1.2378265E-03   9.9201791E-04   7.8464567E-04   6.2877405E-04   5.3240964E-04   2.2343346E-03   2.0958716E-03   1.8682858E-03   1.6041746E-03   1.3306111E-03   1.0746075E-03   8.5730478E-04   6.9320772E-04   5.9144880E-04   2.3769247E-03   2.2246111E-03   1.9936441E-03   1.7295539E-03   1.4535581E-03   1.1920623E-03   9.6769893E-04   7.9694763E-04   6.9053005E-04   2.5900656E-03   2.4231470E-03   2.1938193E-03   1.9348364E-03   1.6591230E-03   1.3923671E-03   1.1596303E-03   9.8041759E-04   8.6790824E-04   2.9913548E-03   2.7848913E-03   2.5477801E-03   2.2892684E-03   2.0088942E-03   1.7305436E-03   1.4826308E-03   1.2889697E-03   1.1663166E-03   3.7488907E-03   3.4406043E-03   3.1568729E-03   2.8747150E-03   2.5713253E-03   2.2652990E-03   1.9881802E-03   1.7690127E-03   1.6291284E-03   5.0579482E-03   4.5460048E-03   4.1392748E-03   3.7817061E-03   3.4178419E-03   3.0549141E-03   2.7254936E-03   2.4637592E-03   2.2960890E-03   7.0908456E-03   6.2464555E-03   5.6102588E-03   5.0980495E-03   4.6152915E-03   4.1514044E-03   3.7364671E-03   3.4085382E-03   3.1987890E-03   9.9355299E-03   8.6342599E-03   7.6547544E-03   6.8927174E-03   6.2162876E-03   5.5941236E-03   5.0508287E-03   4.6266415E-03   4.3568444E-03   1.3556958E-02   1.1720366E-02   1.0305579E-02   9.2016179E-03   8.2506463E-03   7.4045463E-03   6.6826409E-03   6.1266306E-03   5.7755266E-03   1.7813213E-02   1.5437439E-02   1.3539626E-02   1.2022482E-02   1.0721738E-02   9.5842453E-03   8.6293044E-03   7.9019433E-03   7.4456125E-03   2.2526221E-02   1.9674866E-02   1.7295012E-02   1.5322189E-02   1.3610065E-02   1.2117580E-02   1.0874220E-02   9.9336654E-03   9.3463697E-03   2.7558966E-02   2.4328513E-02   2.1500483E-02   1.9053746E-02   1.6883180E-02   1.4978989E-02   1.3393738E-02   1.2197802E-02   1.1452945E-02   3.2850225E-02   2.9335691E-02   2.6101442E-02   2.3174927E-02   2.0509554E-02   1.8144507E-02   1.6168652E-02   1.4677704E-02   1.3749832E-02   3.8413871E-02   3.4679938E-02   3.1070193E-02   2.7660895E-02   2.4473127E-02   2.1607963E-02   1.9201865E-02   1.7383423E-02   1.6251592E-02   4.4299796E-02   4.0371228E-02   3.6401782E-02   3.2511361E-02   2.8788477E-02   2.5401937E-02   2.2543162E-02   2.0378862E-02   1.9031206E-02   5.0542165E-02   4.6417292E-02   4.2104591E-02   3.7756298E-02   3.3518020E-02   2.9623285E-02   2.6320066E-02   2.3815189E-02   2.2254854E-02   5.7120819E-02   5.2802935E-02   4.8197601E-02   4.3468341E-02   3.8795177E-02   3.4463249E-02   3.0772118E-02   2.7967531E-02   2.6219549E-02   6.3951723E-02   5.9492700E-02   5.4724969E-02   4.9785964E-02   4.4852600E-02   4.0238194E-02   3.6283012E-02   3.3268217E-02   3.1386841E-02   7.0920318E-02   6.6465847E-02   6.1790261E-02   5.6945931E-02   5.2050486E-02   4.7413375E-02   4.3401387E-02   4.0326215E-02   3.8401995E-02   7.7961475E-02   7.3778778E-02   6.9599293E-02   6.5307491E-02   6.0888104E-02   5.6606185E-02   5.2838989E-02   4.9922518E-02   4.8088558E-02   8.5180379E-02   8.1640750E-02   7.8491934E-02   7.5350590E-02   7.1980454E-02   6.8552181E-02   6.5432400E-02   6.2970273E-02   6.1407737E-02   9.3008555E-02   9.0491481E-02   8.8953078E-02   8.7639436E-02   8.5993081E-02   8.4025204E-02   8.2056805E-02   8.0427960E-02   7.9372853E-02   1.0236035E-01   1.0108768E-01   1.0161745E-01   1.0276543E-01   1.0355005E-01   1.0373011E-01   1.0351726E-01   1.0319424E-01   1.0294858E-01   1.1464562E-01   1.1454906E-01   1.1730126E-01   1.2133828E-01   1.2519792E-01   1.2826103E-01   1.3051088E-01   1.3207848E-01   1.3302885E-01   1.3146883E-01   1.3226038E-01   1.3707398E-01   1.4414021E-01   1.5156925E-01   1.5824951E-01   1.6375893E-01   1.6791824E-01   1.7054373E-01   1.5395407E-01   1.5553112E-01   1.6223617E-01   1.7233808E-01   1.8368793E-01   1.9466659E-01   2.0426315E-01   2.1178268E-01   2.1662390E-01   1.8204473E-01   1.8501352E-01   1.9393209E-01   2.0731510E-01   2.2296153E-01   2.3886059E-01   2.5332901E-01   2.6496384E-01   2.7256244E-01   2.1403448E-01   2.2009557E-01   2.3247294E-01   2.5001115E-01   2.7060837E-01   2.9205921E-01   3.1209192E-01   3.2850829E-01   3.3934844E-01   2.4664149E-01   2.5855955E-01   2.7668166E-01   3.0002907E-01   3.2664508E-01   3.5436469E-01   3.8054699E-01   4.0225488E-01   4.1670060E-01   2.7581620E-01   2.9672533E-01   3.2352892E-01   3.5486776E-01   3.8886824E-01   4.2359957E-01   4.5633024E-01   4.8357651E-01   5.0178683E-01   2.9803073E-01   3.3015406E-01   3.6825114E-01   4.0962282E-01   4.5225909E-01   4.9456099E-01   5.3396600E-01   5.6669748E-01   5.8859450E-01   3.1155998E-01   3.5492900E-01   4.0529737E-01   4.5769519E-01   5.0963020E-01   5.5974495E-01   6.0576069E-01   6.4378309E-01   6.6918749E-01   3.1600156E-01   3.6933142E-01   4.3046319E-01   4.9310341E-01   5.5398279E-01   6.1167586E-01   6.6403949E-01   7.0706594E-01   7.3574853E-01   3.1585759E-01   3.7488765E-01   4.4332683E-01   5.1383305E-01   5.8215284E-01   6.4644670E-01   7.0444578E-01   7.5192446E-01   7.8351456E-01   3.1493902E-01   3.7514782E-01   4.4683364E-01   5.2195388E-01   5.9529424E-01   6.6442579E-01   7.2675699E-01   7.7773285E-01   8.1162703E-01   3.1540874E-01   3.7341872E-01   4.4479975E-01   5.2122319E-01   5.9677017E-01   6.6847676E-01   7.3336679E-01   7.8652406E-01   8.2189387E-01   3.1746045E-01   3.7148476E-01   4.4010931E-01   5.1508731E-01   5.9018505E-01   6.6211718E-01   7.2760701E-01   7.8144157E-01   8.1732959E-01   3.1985536E-01   3.6946541E-01   4.3402520E-01   5.0564337E-01   5.7815522E-01   6.4822537E-01   7.1244735E-01   7.6547468E-01   8.0091566E-01   3.2086849E-01   3.6640209E-01   4.2642811E-01   4.9355608E-01   5.6198376E-01   6.2855679E-01   6.8994612E-01   7.4086642E-01   7.7500021E-01   3.1907246E-01   3.6107612E-01   4.1654626E-01   4.7863245E-01   5.4205614E-01   6.0400283E-01   6.6139144E-01   7.0919603E-01   7.4134237E-01   3.1374171E-01   3.5269108E-01   4.0376589E-01   4.6062970E-01   5.1857662E-01   5.7521230E-01   6.2782896E-01   6.7181355E-01   7.0148450E-01   3.0487520E-01   3.4115985E-01   3.8809136E-01   4.3979448E-01   4.9211192E-01   5.4309666E-01   5.9049046E-01   6.3020754E-01   6.5707153E-01   2.9293826E-01   3.2690528E-01   3.7003314E-01   4.1682452E-01   4.6360624E-01   5.0886291E-01   5.5082732E-01   5.8601952E-01   6.0986185E-01   2.7840945E-01   3.1044579E-01   3.5022524E-01   3.9254040E-01   4.3411478E-01   4.7381622E-01   5.1037091E-01   5.4095453E-01   5.6166852E-01   2.6164642E-01   2.9217631E-01   3.2915658E-01   3.6759648E-01   4.0452042E-01   4.3909848E-01   4.7051129E-01   4.9659789E-01   5.1420265E-01   2.4303690E-01   2.7235544E-01   3.0706057E-01   3.4229660E-01   3.7529826E-01   4.0542340E-01   4.3221682E-01   4.5413858E-01   4.6880367E-01   2.2335461E-01   2.5125062E-01   2.8399211E-01   3.1661722E-01   3.4647942E-01   3.7298614E-01   3.9590168E-01   4.1421089E-01   4.2626786E-01   2.0373824E-01   2.2936577E-01   2.5999290E-01   2.9037306E-01   3.1779957E-01   3.4157491E-01   3.6149326E-01   3.7692073E-01   3.8684410E-01   1.8555915E-01   2.0764828E-01   2.3540092E-01   2.6353586E-01   2.8898692E-01   3.1079215E-01   3.2859603E-01   3.4195894E-01   3.5032389E-01   1.7013006E-01   1.8760104E-01   2.1122846E-01   2.3657078E-01   2.6008511E-01   2.8035051E-01   2.9672927E-01   3.0878216E-01   3.1617025E-01   1.5836734E-01   1.7079501E-01   1.8923335E-01   2.1065605E-01   2.3173113E-01   2.5039232E-01   2.6563609E-01   2.7685720E-01   2.8370374E-01   1.5017597E-01   1.5832268E-01   1.7128846E-01   1.8765740E-01   2.0520569E-01   2.2167175E-01   2.3556434E-01   2.4599661E-01   2.5243980E-01   1.4433913E-01   1.5005296E-01   1.5837944E-01   1.6939537E-01   1.8227760E-01   1.9547856E-01   2.0735481E-01   2.1664439E-01   2.2252487E-01   1.3966529E-01   1.4443439E-01   1.4982536E-01   1.5637848E-01   1.6439013E-01   1.7343074E-01   1.8237977E-01   1.8993147E-01   1.9494057E-01   1.3898207E-01   1.4042769E-01   1.4362021E-01   1.4723745E-01   1.5143292E-01   1.5649782E-01   1.6215061E-01   1.6748916E-01   1.7132537E-01   1.4308988E-01   1.4208448E-01   1.3950536E-01   1.3986306E-01   1.4161195E-01   1.4415336E-01   1.4730555E-01   1.5068339E-01   1.5338126E-01   1.4848025E-01   1.4724407E-01   1.4225724E-01   1.3650440E-01   1.3406806E-01   1.3493067E-01   1.3725771E-01   1.3987149E-01   1.4197990E-01   1.3891925E-01   1.4340383E-01   1.4536566E-01   1.4112933E-01   1.3468188E-01   1.3105161E-01   1.3174880E-01   1.3446073E-01   1.3674526E-01   1.2458628E-01   1.3380256E-01   1.3730240E-01   1.3867316E-01   1.3645935E-01   1.3483235E-01   1.3529286E-01   1.3657580E-01   1.2018540E-01   1.3004130E-01   1.3416395E-01   1.3695347E-01   1.3785285E-01   1.3865666E-01   1.2607582E-01   1.3340086E-01   1.3841121E-01   1.4105996E-01   2.4530076E-04   2.6139556E-04   3.0909799E-04   3.8656546E-04   4.9034663E-04   6.1461126E-04   7.4986613E-04   8.8138372E-04   3.2738579E-04   3.4886485E-04   4.1251589E-04   5.1582197E-04   6.5405975E-04   8.1922935E-04   9.9843985E-04   1.1721469E-03   3.9809314E-04   4.2431740E-04   5.0200918E-04   6.2801782E-04   7.9641677E-04   9.9720620E-04   1.2144571E-03   1.4246497E-03   4.5323389E-04   4.8316456E-04   5.7179324E-04   7.1539916E-04   9.0697850E-04   1.1348651E-03   1.3807733E-03   1.6185538E-03   4.9984077E-04   5.3240947E-04   6.2877347E-04   7.8464532E-04   9.9201722E-04   1.2378265E-03   1.5021506E-03   1.7578113E-03   5.5700954E-04   5.9144868E-04   6.9320726E-04   8.5730484E-04   1.0746073E-03   1.3306113E-03   1.6041752E-03   1.8682858E-03   6.5442768E-04   6.9052994E-04   7.9694722E-04   9.6769893E-04   1.1920622E-03   1.4535580E-03   1.7295530E-03   1.9936438E-03   8.2960032E-04   8.6790830E-04   9.8041818E-04   1.1596314E-03   1.3923674E-03   1.6591237E-03   1.9348369E-03   2.1938202E-03   1.1243823E-03   1.1663175E-03   1.2889701E-03   1.4826324E-03   1.7305458E-03   2.0088954E-03   2.2892701E-03   2.5477784E-03   1.5811354E-03   1.6291302E-03   1.7690146E-03   1.9881825E-03   2.2653013E-03   2.5713274E-03   2.8747173E-03   3.1568720E-03   2.2384508E-03   2.2960913E-03   2.4637622E-03   2.7254962E-03   3.0549178E-03   3.4178444E-03   3.7817098E-03   4.1392776E-03   3.1266930E-03   3.1987894E-03   3.4085393E-03   3.7364715E-03   4.1514072E-03   4.6152947E-03   5.0980519E-03   5.6102616E-03   4.2642923E-03   4.3568476E-03   4.6266443E-03   5.0508338E-03   5.5941278E-03   6.2162899E-03   6.8927165E-03   7.6547554E-03   5.6554433E-03   5.7755318E-03   6.1266366E-03   6.6826474E-03   7.4045509E-03   8.2506491E-03   9.2016216E-03   1.0305581E-02   7.2900122E-03   7.4456185E-03   7.9019498E-03   8.6293146E-03   9.5842546E-03   1.0721743E-02   1.2022487E-02   1.3539636E-02   9.1465907E-03   9.3463715E-03   9.9336701E-03   1.0874228E-02   1.2117597E-02   1.3610064E-02   1.5322195E-02   1.7295014E-02   1.1199947E-02   1.1452941E-02   1.2197796E-02   1.3393749E-02   1.4978995E-02   1.6883193E-02   1.9053759E-02   2.1500485E-02   1.3434857E-02   1.3749839E-02   1.4677705E-02   1.6168671E-02   1.8144513E-02   2.0509563E-02   2.3174930E-02   2.6101457E-02   1.5867399E-02   1.6251605E-02   1.7383441E-02   1.9201878E-02   2.1607975E-02   2.4473134E-02   2.7660904E-02   3.1070206E-02   1.8573724E-02   1.9031210E-02   2.0378863E-02   2.2543173E-02   2.5401933E-02   2.8788462E-02   3.2511361E-02   3.6401775E-02   2.1725146E-02   2.2254866E-02   2.3815218E-02   2.6320068E-02   2.9623298E-02   3.3518024E-02   3.7756298E-02   4.2104572E-02   2.5626114E-02   2.6219552E-02   2.7967557E-02   3.0772131E-02   3.4463253E-02   3.8795173E-02   4.3468334E-02   4.8197620E-02   3.0747939E-02   3.1386852E-02   3.3268243E-02   3.6283035E-02   4.0238217E-02   4.4852585E-02   4.9785964E-02   5.4724962E-02   3.7747975E-02   3.8402021E-02   4.0326245E-02   4.3401394E-02   4.7413372E-02   5.2050490E-02   5.6945935E-02   6.1790284E-02   4.7464021E-02   4.8088558E-02   4.9922530E-02   5.2839022E-02   5.6606174E-02   6.0888108E-02   6.5307498E-02   6.9599316E-02   6.0873915E-02   6.1407786E-02   6.2970310E-02   6.5432347E-02   6.8552211E-02   7.1980476E-02   7.5350605E-02   7.8491911E-02   7.9010002E-02   7.9372905E-02   8.0428012E-02   8.2056768E-02   8.4025189E-02   8.5993037E-02   8.7639496E-02   8.8953078E-02   1.0286067E-01   1.0294856E-01   1.0319420E-01   1.0351725E-01   1.0373009E-01   1.0355007E-01   1.0276539E-01   1.0161743E-01   1.3335156E-01   1.3302903E-01   1.3207850E-01   1.3051085E-01   1.2826103E-01   1.2519802E-01   1.2133829E-01   1.1730117E-01   1.7144693E-01   1.7054369E-01   1.6791824E-01   1.6375883E-01   1.5824957E-01   1.5156922E-01   1.4414018E-01   1.3707401E-01   2.1830225E-01   2.1662399E-01   2.1178271E-01   2.0426303E-01   1.9466653E-01   1.8368784E-01   1.7233805E-01   1.6223608E-01   2.7521291E-01   2.7256241E-01   2.6496375E-01   2.5332898E-01   2.3886053E-01   2.2296160E-01   2.0731513E-01   1.9393198E-01   3.4314784E-01   3.3934855E-01   3.2850829E-01   3.1209192E-01   2.9205909E-01   2.7060834E-01   2.5001124E-01   2.3247282E-01   4.2178184E-01   4.1670069E-01   4.0225515E-01   3.8054702E-01   3.5436451E-01   3.2664520E-01   3.0002910E-01   2.7668181E-01   5.0820750E-01   5.0178671E-01   4.8357651E-01   4.5633009E-01   4.2359951E-01   3.8886836E-01   3.5486796E-01   3.2352886E-01   5.9632313E-01   5.8859450E-01   5.6669754E-01   5.3396589E-01   4.9456093E-01   4.5225906E-01   4.0962258E-01   3.6825120E-01   6.7815185E-01   6.6918689E-01   6.4378291E-01   6.0576063E-01   5.5974507E-01   5.0963020E-01   4.5769504E-01   4.0529734E-01   7.4586189E-01   7.3574823E-01   7.0706570E-01   6.6403943E-01   6.1167574E-01   5.5398297E-01   4.9310377E-01   4.3046346E-01   7.9464567E-01   7.8351474E-01   7.5192410E-01   7.0444578E-01   6.4644676E-01   5.8215290E-01   5.1383293E-01   4.4332695E-01   8.2356673E-01   8.1162751E-01   7.7773303E-01   7.2675645E-01   6.6442567E-01   5.9529436E-01   5.2195370E-01   4.4683385E-01   8.3435833E-01   8.2189387E-01   7.8652406E-01   7.3336709E-01   6.6847670E-01   5.9677011E-01   5.2122313E-01   4.4480023E-01   8.2998782E-01   8.1732959E-01   7.8144133E-01   7.2760653E-01   6.6211683E-01   5.9018499E-01   5.1508754E-01   4.4010952E-01   8.1343281E-01   8.0091584E-01   7.6547450E-01   7.1244723E-01   6.4822507E-01   5.7815552E-01   5.0564355E-01   4.3402568E-01   7.8707296E-01   7.7500039E-01   7.4086636E-01   6.8994570E-01   6.2855697E-01   5.6198364E-01   4.9355629E-01   4.2642817E-01   7.5273055E-01   7.4134201E-01   7.0919555E-01   6.6139156E-01   6.0400265E-01   5.4205644E-01   4.7863254E-01   4.1654629E-01   7.1201396E-01   7.0148474E-01   6.7181337E-01   6.2782907E-01   5.7521230E-01   5.1857668E-01   4.6062988E-01   4.0376595E-01   6.6661960E-01   6.5707123E-01   6.3020754E-01   5.9049064E-01   5.4309678E-01   4.9211195E-01   4.3979445E-01   3.8809147E-01   6.1834574E-01   6.0986155E-01   5.8601964E-01   5.5082756E-01   5.0886285E-01   4.6360627E-01   4.1682449E-01   3.7003303E-01   5.6904089E-01   5.6166822E-01   5.4095435E-01   5.1037109E-01   4.7381634E-01   4.3411496E-01   3.9254048E-01   3.5022503E-01   5.2045995E-01   5.1420295E-01   4.9659804E-01   4.7051108E-01   4.3909854E-01   4.0452030E-01   3.6759645E-01   3.2915625E-01   4.7399601E-01   4.6880394E-01   4.5413843E-01   4.3221694E-01   4.0542352E-01   3.7529817E-01   3.4229672E-01   3.0706066E-01   4.3050420E-01   4.2626780E-01   4.1421103E-01   3.9590171E-01   3.7298608E-01   3.4647930E-01   3.1661725E-01   2.8399214E-01   3.9028841E-01   3.8684407E-01   3.7692073E-01   3.6149356E-01   3.4157470E-01   3.1779963E-01   2.9037318E-01   2.5999308E-01   3.5318282E-01   3.5032389E-01   3.4195900E-01   3.2859573E-01   3.1079209E-01   2.8898698E-01   2.6353571E-01   2.3540086E-01   3.1866243E-01   3.1617033E-01   3.0878219E-01   2.9672903E-01   2.8035060E-01   2.6008517E-01   2.3657072E-01   2.1122842E-01   2.8600332E-01   2.8370374E-01   2.7685714E-01   2.6563588E-01   2.5039232E-01   2.3173109E-01   2.1065611E-01   1.8923338E-01   2.5461653E-01   2.5243989E-01   2.4599659E-01   2.3556435E-01   2.2167183E-01   2.0520571E-01   1.8765748E-01   1.7128845E-01   2.2453752E-01   2.2252488E-01   2.1664432E-01   2.0735474E-01   1.9547845E-01   1.8227763E-01   1.6939546E-01   1.5837942E-01   1.9669421E-01   1.9494063E-01   1.8993130E-01   1.8237977E-01   1.7343064E-01   1.6439016E-01   1.5637846E-01   1.4982541E-01   1.7271975E-01   1.7132534E-01   1.6748910E-01   1.6215056E-01   1.5649773E-01   1.5143295E-01   1.4723730E-01   1.4362016E-01   1.5440910E-01   1.5338120E-01   1.5068325E-01   1.4730553E-01   1.4415337E-01   1.4161186E-01   1.3986301E-01   1.3950543E-01   1.4280330E-01   1.4197993E-01   1.3987145E-01   1.3725768E-01   1.3493057E-01   1.3406792E-01   1.3650446E-01   1.4225721E-01   1.3758440E-01   1.3674520E-01   1.3446070E-01   1.3174872E-01   1.3105153E-01   1.3468190E-01   1.4112934E-01   1.4536573E-01   1.3714880E-01   1.3657580E-01   1.3529280E-01   1.3483226E-01   1.3645925E-01   1.3867304E-01   1.3730243E-01   1.3380253E-01   1.3918966E-01   1.3865665E-01   1.3785277E-01   1.3695338E-01   1.3416380E-01   1.3004123E-01   1.2018538E-01   1.4186229E-01   1.4105988E-01   1.3841115E-01   1.3340077E-01   1.2607574E-01   9.8556769E-04   1.0226665E-03   9.3240512E-04   6.5753696E-04   1.8001828E-04  -4.4623576E-04  -1.0717310E-03   1.3111643E-03   1.3646453E-03   1.2537845E-03   9.0307184E-04   2.8586073E-04  -5.3440122E-04  -1.3738400E-03  -1.9470146E-03   1.5953474E-03   1.6680416E-03   1.5477448E-03   1.1406217E-03   4.0870352E-04  -5.8044249E-04  -1.6178761E-03  -2.3786533E-03   1.8153446E-03   1.9101480E-03   1.7950827E-03   1.3575391E-03   5.4400507E-04  -5.8104994E-04  -1.7911058E-03  -2.7182254E-03   1.9738546E-03   2.0920252E-03   1.9949502E-03   1.5510324E-03   6.8763096E-04  -5.4065487E-04  -1.8972075E-03  -2.9719723E-03   2.0958707E-03   2.2343355E-03   2.1608865E-03   1.7272318E-03   8.3929754E-04  -4.6797434E-04  -1.9577192E-03  -3.1722377E-03   2.2246109E-03   2.3769254E-03   2.3285244E-03   1.9184455E-03   1.0210430E-03  -3.6363560E-04  -2.0034090E-03  -3.3671972E-03   2.4231472E-03   2.5900654E-03   2.5789717E-03   2.2076762E-03   1.2961851E-03  -2.0622637E-04  -2.0662472E-03  -3.6063991E-03   2.7848927E-03   2.9913555E-03   3.0545583E-03   2.7442758E-03   1.7900493E-03   6.8585854E-05  -2.1647513E-03  -3.9570499E-03   3.4406062E-03   3.7488891E-03   3.9560287E-03   3.7489946E-03   2.7164929E-03   5.9993565E-04  -2.3184395E-03  -4.7174357E-03   4.5460071E-03   5.0579449E-03   5.5188951E-03   5.5033802E-03   4.3744948E-03   1.5945022E-03  -2.6086494E-03  -6.5204049E-03   6.2464494E-03   7.0908470E-03   7.9504093E-03   8.2733305E-03   7.1278503E-03   3.5752025E-03  -2.1871515E-03  -6.5668020E-03   8.6342627E-03   9.9355280E-03   1.1340796E-02   1.2213537E-02   1.1439024E-02   8.2219271E-03   4.3488173E-03   6.9222860E-03   1.1720365E-02   1.3556951E-02   1.5596893E-02   1.7227337E-02   1.7424248E-02   1.6063582E-02   1.6919587E-02   2.5043838E-02   1.5437439E-02   1.7813213E-02   2.0459533E-02   2.2869738E-02   2.4326935E-02   2.5217401E-02   2.9468942E-02   3.8093865E-02   1.9674858E-02   2.2526214E-02   2.5638981E-02   2.8624231E-02   3.1052539E-02   3.3423606E-02   3.8574286E-02   4.5989241E-02   2.4328507E-02   2.7558958E-02   3.0964058E-02   3.4220114E-02   3.7037499E-02   3.9774027E-02   4.4512447E-02   5.0540876E-02   2.9335706E-02   3.2850232E-02   3.6406100E-02   3.9696842E-02   4.2459328E-02   4.4783637E-02   4.8637345E-02   5.3518049E-02   3.4679927E-02   3.8413875E-02   4.2030912E-02   4.5245524E-02   4.7749210E-02   4.9374189E-02   5.2198939E-02   5.6385066E-02   4.0371221E-02   4.4299781E-02   4.7949497E-02   5.1060706E-02   5.3277165E-02   5.4197818E-02   5.6051701E-02   5.9774630E-02   4.6417281E-02   5.0542198E-02   5.4247938E-02   5.7299040E-02   5.9296172E-02   5.9619401E-02   6.0549576E-02   6.3960038E-02   5.2802917E-02   5.7120815E-02   6.0930356E-02   6.4011924E-02   6.5925859E-02   6.5856710E-02   6.5910295E-02   6.8811290E-02   5.9492718E-02   6.3951701E-02   6.7898743E-02   7.1108907E-02   7.3086746E-02   7.2901092E-02   7.2284922E-02   7.4343719E-02   6.6465832E-02   7.0920303E-02   7.4982375E-02   7.8380212E-02   8.0506168E-02   8.0475479E-02   7.9706438E-02   8.0660246E-02   7.3778771E-02   7.7961512E-02   8.2031198E-02   8.5593961E-02   8.7788045E-02   8.7996259E-02   8.7942183E-02   8.7731123E-02   8.1640847E-02   8.5180402E-02   8.9078888E-02   9.2701353E-02   9.4648965E-02   9.4742700E-02   9.6387289E-02   9.5292620E-02   9.0491459E-02   9.3008600E-02   9.6570820E-02   1.0014683E-01   1.0141040E-01   1.0033092E-01   1.0430797E-01   1.0291614E-01   1.0108769E-01   1.0236038E-01   1.0557272E-01   1.0911566E-01   1.0915008E-01   1.0523023E-01   1.1119898E-01   1.0965416E-01   1.1454904E-01   1.1464562E-01   1.1769377E-01   1.2137376E-01   1.1965063E-01   1.1106644E-01   1.1758907E-01   1.1503896E-01   1.3226041E-01   1.3146880E-01   1.3458031E-01   1.3828583E-01   1.3494024E-01   1.2106480E-01   1.2567340E-01   1.2028390E-01   1.5553117E-01   1.5395406E-01   1.5693851E-01   1.6027920E-01   1.5444033E-01   1.3853310E-01   1.4047039E-01   1.3056406E-01   1.8501340E-01   1.8204474E-01   1.8384661E-01   1.8553552E-01   1.7729408E-01   1.5998347E-01   1.7160197E-01   1.5862943E-01   2.2009575E-01   2.1403450E-01   2.1245706E-01   2.1010737E-01   2.0216329E-01   1.9610588E-01   2.2047897E-01   2.1561746E-01   2.5855955E-01   2.4664152E-01   2.3892415E-01   2.3230250E-01   2.3159401E-01   2.3968436E-01   2.7616525E-01   2.9325831E-01   2.9672554E-01   2.7581626E-01   2.6003730E-01   2.5074583E-01   2.6074558E-01   2.6655230E-01   3.0460638E-01   3.6561450E-01   3.3015424E-01   2.9803091E-01   2.7445528E-01   2.6653624E-01   2.8280380E-01   2.7523899E-01   2.9741740E-01   3.7130344E-01   3.5492894E-01   3.1156036E-01   2.8251785E-01   2.7602470E-01   2.8911057E-01   2.6957026E-01   2.9830322E-01   3.6442977E-01   3.6933178E-01   3.1600210E-01   2.7817777E-01   2.6201364E-01   2.6024121E-01   2.3309283E-01   3.0553916E-01   3.8422528E-01   3.7488762E-01   3.1585798E-01   2.7346009E-01   2.5113112E-01   2.3971871E-01   2.1034129E-01   3.3785141E-01   4.1053757E-01   3.7514788E-01   3.1493959E-01   2.7273297E-01   2.5017983E-01   2.3675759E-01   2.1007568E-01   3.7643015E-01   4.3779597E-01   3.7341914E-01   3.1540933E-01   2.7650049E-01   2.5800848E-01   2.4837108E-01   2.2755654E-01   4.1082051E-01   4.5951074E-01   3.7148538E-01   3.1746072E-01   2.8304532E-01   2.7022225E-01   2.6782495E-01   2.5301892E-01   4.3221077E-01   4.7144985E-01   3.6946577E-01   3.1985563E-01   2.8964716E-01   2.8128576E-01   2.8430158E-01   2.7108669E-01   4.3555188E-01   4.6770868E-01   3.6640242E-01   3.2086849E-01   2.9390281E-01   2.8816023E-01   2.9347104E-01   2.7931404E-01   4.2657334E-01   4.5426384E-01   3.6107627E-01   3.1907251E-01   2.9439178E-01   2.8973466E-01   2.9517990E-01   2.7971077E-01   4.1144434E-01   4.3624425E-01   3.5269114E-01   3.1374171E-01   2.9064679E-01   2.8555143E-01   2.9035717E-01   2.7460310E-01   3.9592338E-01   4.1699544E-01   3.4115997E-01   3.0487525E-01   2.8286082E-01   2.7594581E-01   2.7946669E-01   2.6660290E-01   3.8001418E-01   3.9877784E-01   3.2690513E-01   2.9293841E-01   2.7175713E-01   2.6357836E-01   2.6209557E-01   2.5434515E-01   3.5522616E-01   3.8007784E-01   3.1044582E-01   2.7840951E-01   2.5776967E-01   2.4977337E-01   2.4528569E-01   2.3534955E-01   3.2451412E-01   3.5879475E-01   2.9217616E-01   2.6164651E-01   2.4131012E-01   2.3329754E-01   2.2901222E-01   2.1359938E-01   2.9300538E-01   3.3496922E-01   2.7235559E-01   2.4303673E-01   2.2322097E-01   2.1497712E-01   2.1132433E-01   1.9170208E-01   2.5944576E-01   3.0997854E-01   2.5125074E-01   2.2335458E-01   2.0485854E-01   1.9711824E-01   1.9372948E-01   1.7125463E-01   2.2094148E-01   2.8512216E-01   2.2936589E-01   2.0373818E-01   1.8749417E-01   1.8150263E-01   1.7842489E-01   1.5515257E-01   1.8619114E-01   2.3873782E-01   2.0764819E-01   1.8555918E-01   1.7267746E-01   1.6930903E-01   1.6775528E-01   1.4635399E-01   1.5651357E-01   1.5487619E-01   1.8760110E-01   1.7013013E-01   1.6128728E-01   1.6107173E-01   1.5819380E-01   1.3717993E-01   1.3706861E-01   1.0690447E-01   1.7079504E-01   1.5836731E-01   1.5327092E-01   1.5361035E-01   1.4458972E-01   1.2052636E-01   1.1822920E-01   1.5832262E-01   1.5017594E-01   1.4669999E-01   1.4317748E-01   1.2314623E-01   1.0365367E-01   9.8695792E-02   1.5005298E-01   1.4433907E-01   1.4017223E-01   1.3084973E-01   1.0498061E-01   9.9058725E-02   1.4443445E-01   1.3966534E-01   1.3468206E-01   1.2028773E-01   1.0604945E-01   9.7454086E-02   1.4042778E-01   1.3898213E-01   1.3407297E-01   1.2101153E-01   1.1541182E-01   1.4208449E-01   1.4308986E-01   1.4152962E-01   1.2905934E-01   1.4724414E-01   1.4848024E-01   1.4814462E-01   1.0801446E-01   1.4340383E-01   1.3891931E-01   1.2458625E-01 
StrainDot.z 1 2975 float
  0.0000000E+00   0.0000000E+00   0.0000000E+00   0.0000000E+00   0.0000000E+00   0.0000000E+00   0.0000000E+00   0.0000000E+00   0.0000000E+00   0.0000000E+00   0.0000000E+00   0.0000000E+00   0.0000000E+00   9.8026241E-04   2.4728373E-16   7.2433511E-03   4.0652096E-02   1.5425052E-02   1.0928561E-01   2.8447694E-01   1.4465784E-01   5.2689093E-01   1.0466586E+00   5.6325936E-01   1.5693644E+00   2.7349997E+00   1.4510192E+00   3.5266194E+00   5.7231946E+00   2.9033048E+00   6.5360942E+00   1.0185718E+01   4.8687029E+00   1.0484281E+01   1.5955817E+01   7.1605849E+00   1.5024758E+01   2.2525793E+01   9.5535936E+00   1.9748829E+01   2.9291227E+01   1.1909204E+01   2.4413128E+01   3.5911953E+01   1.4258532E+01   2.9072750E+01   4.2581310E+01   1.7535994E+01   3.4150887E+01   5.0518402E+01   3.1660688E+01   4.3556091E+01   6.3052464E+01   9.0334808E+01   8.3941048E+01   8.5727539E+01   2.5776114E+02   2.1842909E+02   1.2051923E+02   6.3989484E+02   5.2189374E+02   1.5772136E+02   1.0203674E+03   2.1319179E+02   0.0000000E+00   0.0000000E+00   0.0000000E+00   0.0000000E+00   0.0000000E+00   0.0000000E+00   0.0000000E+00   0.0000000E+00   0.0000000E+00   0.0000000E+00   0.0000000E+00   0.0000000E+00   0.0000000E+00   0.0000000E+00   0.0000000E+00   0.0000000E+00   0.0000000E+00   0.0000000E+00   0.0000000E+00   0.0000000E+00   0.0000000E+00   0.0000000E+00   0.0000000E+00   0.0000000E+00   0.0000000E+00   6.2293009E-05   1.9379935E-04   1.0940347E-04   1.4150598E-04   2.4896360E-04   2.7861685E-04   2.9504296E-04   6.1116195E-03   1.2954175E-02   1.5718317E-02   1.1510523E-02   1.8547762E-03   8.5592521E-03   1.4782293E-02   1.6378568E-02   8.8437989E-02   1.2259824E-01   1.2446126E-01   8.9618243E-02   2.7210707E-02   4.1084670E-02   9.2340104E-02   1.1740958E-01   4.5248181E-01   5.3777939E-01   5.0733566E-01   3.5831362E-01   1.2222729E-01   1.3233244E-01   3.3170149E-01   4.4280818E-01   1.4523811E+00   1.6035653E+00   1.4550662E+00   1.0131934E+00   3.5904670E-01   3.3698475E-01   8.9005548E-01   1.2119306E+00   3.5354190E+00   3.7518659E+00   3.3304241E+00   2.2940800E+00   8.2069314E-01   7.2396976E-01   1.9526708E+00   2.6802111E+00   7.1161761E+00   7.3926220E+00   6.4794540E+00   4.4148297E+00   1.5602258E+00   1.3719838E+00   3.6823750E+00   5.0536394E+00   1.2398314E+01   1.2734079E+01   1.1063580E+01   7.4268579E+00   2.5306695E+00   2.3552032E+00   6.1424351E+00   8.3747225E+00   1.9190931E+01   1.9569363E+01   1.6788525E+01   2.6855265E+01   2.7185226E+01   3.4602203E+01   3.4648781E+01   4.2031208E+01   4.1595463E+01   4.9478928E+01   4.8387840E+01   6.0567417E+01   6.0264465E+01   9.5613091E+01   1.1305856E+02   2.0373621E+02   2.8375717E+02   4.4383612E+02   6.6632501E+02   8.4320190E+02   1.3361370E+03   1.3112362E+03   2.2068198E+03   0.0000000E+00   0.0000000E+00   0.0000000E+00   0.0000000E+00   0.0000000E+00   0.0000000E+00   0.0000000E+00   0.0000000E+00   0.0000000E+00   0.0000000E+00   0.0000000E+00   0.0000000E+00   0.0000000E+00   0.0000000E+00   0.0000000E+00   0.0000000E+00   0.0000000E+00   0.0000000E+00   0.0000000E+00   0.0000000E+00   0.0000000E+00   0.0000000E+00   0.0000000E+00   0.0000000E+00   0.0000000E+00   0.0000000E+00   0.0000000E+00   3.0139505E-04   3.0077959E-04   2.9630773E-04   2.9025631E-04   2.8349151E-04   2.7697181E-04   2.7133941E-04   2.6698314E-04   2.6426438E-04   1.6444176E-02   1.5930472E-02   1.5108684E-02   1.4180238E-02   1.3270030E-02   1.2451682E-02   1.1770487E-02   1.1261782E-02   1.0947772E-02   1.2111121E-01   1.1627541E-01   1.0847935E-01   9.9595465E-02   9.0865090E-02   8.3040342E-02   7.6577455E-02   7.1768448E-02   6.8808988E-02   4.7559875E-01   4.5978650E-01   4.2605063E-01   3.8662377E-01   3.4741256E-01   3.1211767E-01   2.8295371E-01   2.6128283E-01   2.4795857E-01   1.3229433E+00   1.2946981E+00   1.1979761E+00   1.0805323E+00   9.6214849E-01   8.5489589E-01   7.6606876E-01   7.0003897E-01   6.5944952E-01   2.9442897E+00   2.8963196E+00   2.6836910E+00   2.4116559E+00   2.1342025E+00   1.8812644E+00   1.6711937E+00   1.5148895E+00   1.4187915E+00   5.5576210E+00   5.4704466E+00   5.0692620E+00   4.5418386E+00   3.9992638E+00   3.5022399E+00   3.0884683E+00   2.7803080E+00   2.5908029E+00   9.1862478E+00   9.0244131E+00   8.3474827E+00   7.4574780E+00   6.5368085E+00   5.6908054E+00   4.9853287E+00   4.4595575E+00   4.1361842E+00   0.0000000E+00   0.0000000E+00   0.0000000E+00   0.0000000E+00   0.0000000E+00   0.0000000E+00   0.0000000E+00   0.0000000E+00   0.0000000E+00   0.0000000E+00   0.0000000E+00   0.0000000E+00   0.0000000E+00   0.0000000E+00   0.0000000E+00   0.0000000E+00   0.0000000E+00   0.0000000E+00   0.0000000E+00   0.0000000E+00   0.0000000E+00   0.0000000E+00   0.0000000E+00   0.0000000E+00   2.6333815E-04   2.6426441E-04   2.6698312E-04   2.7133941E-04   2.7697184E-04   2.8349154E-04   2.9025640E-04   2.9630767E-04   1.0841395E-02   1.0947774E-02   1.1261780E-02   1.1770487E-02   1.2451686E-02   1.3270031E-02   1.4180238E-02   1.5108684E-02   6.7810968E-02   6.8808995E-02   7.1768463E-02   7.6577470E-02   8.3040357E-02   9.0865090E-02   9.9595465E-02   1.0847936E-01   2.4346638E-01   2.4795859E-01   2.6128289E-01   2.8295377E-01   3.1211770E-01   3.4741256E-01   3.8662368E-01   4.2605069E-01   6.4576191E-01   6.5944952E-01   7.0003909E-01   7.6606888E-01   8.5489607E-01   9.6214867E-01   1.0805323E+00   1.1979761E+00   1.3863801E+00   1.4187915E+00   1.5148896E+00   1.6711941E+00   1.8812644E+00   2.1342032E+00   2.4116559E+00   2.6836913E+00   2.5268898E+00   2.5908029E+00   2.7803085E+00   3.0884690E+00   3.5022404E+00   3.9992638E+00   4.5418386E+00   5.0692635E+00   4.0271316E+00   4.1361842E+00   4.4595585E+00   4.9853292E+00   5.6908059E+00   6.5368094E+00   7.4574790E+00   8.3474846E+00   0.0000000E+00   0.0000000E+00   0.0000000E+00   0.0000000E+00   0.0000000E+00   0.0000000E+00   0.0000000E+00   0.0000000E+00   0.0000000E+00   0.0000000E+00   0.0000000E+00   0.0000000E+00   0.0000000E+00   0.0000000E+00   0.0000000E+00   0.0000000E+00   0.0000000E+00   0.0000000E+00   0.0000000E+00   0.0000000E+00   0.0000000E+00   0.0000000E+00   0.0000000E+00   0.0000000E+00   0.0000000E+00   0.0000000E+00   0.0000000E+00   3.0077956E-04   3.0139516E-04   2.9504305E-04   2.7861688E-04   2.4896360E-04   1.4150598E-04   1.0940344E-04   1.9379931E-04   6.2292966E-05   1.5930470E-02   1.6444180E-02   1.6378574E-02   1.4782296E-02   8.5592540E-03   1.8547769E-03   1.1510526E-02   1.5718317E-02   1.2954169E-02   1.1627543E-01   1.2111126E-01   1.1740962E-01   9.2340149E-02   4.1084692E-02   2.7210707E-02   8.9618243E-02   1.2446126E-01   1.2259823E-01   4.5978662E-01   4.7559881E-01   4.4280830E-01   3.3170167E-01   1.3233255E-01   1.2222728E-01   3.5831374E-01   5.0733578E-01   5.3777939E-01   1.2946982E+00   1.3229436E+00   1.2119306E+00   8.9005589E-01   3.3698508E-01   3.5904655E-01   1.0131936E+00   1.4550661E+00   1.6035653E+00   2.8963199E+00   2.9442902E+00   2.6802118E+00   1.9526715E+00   7.2397059E-01   8.2069278E-01   2.2940805E+00   3.3304243E+00   3.7518661E+00   5.4704471E+00   5.5576210E+00   5.0536408E+00   3.6823771E+00   1.3719851E+00   1.5602256E+00   4.4148297E+00   6.4794564E+00   7.3926244E+00   9.0244141E+00   9.1862516E+00   8.3747253E+00   6.1424389E+00   2.3552060E+00   2.5306678E+00   7.4268579E+00   1.1063583E+01   1.2734084E+01   1.6788534E+01   1.9569366E+01   2.7185228E+01   3.4648781E+01   4.1595463E+01   4.8387844E+01   6.0264473E+01   1.1305856E+02   2.8375717E+02   6.6632513E+02   1.3361372E+03   2.2068203E+03   0.0000000E+00   0.0000000E+00   0.0000000E+00   0.0000000E+00   0.0000000E+00   0.0000000E+00   0.0000000E+00   0.0000000E+00   0.0000000E+00   0.0000000E+00   0.0000000E+00   0.0000000E+00   0.0000000E+00   0.0000000E+00   0.0000000E+00   6.1116163E-03   9.8026206E-04   0.0000000E+00   0.0000000E+00   8.8437960E-02   4.0652081E-02   7.2433506E-03   2.4728357E-16   4.5248175E-01   2.8447688E-01   1.0928560E-01   1.5425052E-02   1.4523810E+00   1.0466584E+00   5.2689093E-01   1.4465784E-01   3.5354185E+00   2.7349992E+00   1.5693641E+00   5.6325930E-01   7.1161771E+00   5.7231941E+00   3.5266185E+00   1.4510190E+00   1.2398315E+01   1.0185719E+01   6.5360942E+00   2.9033048E+00   1.9190935E+01   1.5955819E+01   1.0484280E+01   4.8687029E+00   2.6855268E+01   2.2525801E+01   1.5024758E+01   7.1605849E+00   3.4602215E+01   2.9291229E+01   1.9748833E+01   9.5535946E+00   4.2031212E+01   3.5911953E+01   2.4413132E+01   1.1909206E+01   4.9478935E+01   4.2581310E+01   2.9072752E+01   1.4258534E+01   6.0567417E+01   5.0518398E+01   3.4150890E+01   1.7535994E+01   9.5613106E+01   6.3052467E+01   4.3556099E+01   3.1660690E+01   2.0373624E+02   8.5727539E+01   8.3941040E+01   9.0334808E+01   4.4383627E+02   1.2051926E+02   2.1842911E+02   2.5776111E+02   8.4320203E+02   1.5772137E+02   5.2189362E+02   6.3989496E+02   1.3112365E+03   2.1319177E+02   1.0203676E+03   0.0000000E+00   0.0000000E+00   0.0000000E+00   0.0000000E+00   0.0000000E+00   0.0000000E+00   0.0000000E+00   0.0000000E+00   0.0000000E+00   0.0000000E+00   0.0000000E+00   0.0000000E+00   0.0000000E+00   0.0000000E+00   0.0000000E+00   0.0000000E+00   0.0000000E+00   0.0000000E+00   0.0000000E+00   0.0000000E+00   0.0000000E+00   0.0000000E+00   0.0000000E+00   0.0000000E+00   0.0000000E+00   0.0000000E+00   0.0000000E+00   0.0000000E+00   0.0000000E+00   0.0000000E+00   0.0000000E+00   0.0000000E+00   0.0000000E+00   0.0000000E+00   0.0000000E+00   0.0000000E+00   0.0000000E+00   0.0000000E+00   0.0000000E+00   0.0000000E+00   0.0000000E+00   0.0000000E+00   0.0000000E+00   0.0000000E+00   0.0000000E+00   0.0000000E+00   0.0000000E+00   0.0000000E+00   0.0000000E+00   0.0000000E+00   0.0000000E+00   0.0000000E+00   0.0000000E+00   0.0000000E+00   0.0000000E+00   0.0000000E+00   0.0000000E+00   0.0000000E+00   0.0000000E+00   0.0000000E+00   0.0000000E+00   0.0000000E+00   0.0000000E+00   0.0000000E+00   0.0000000E+00   0.0000000E+00   0.0000000E+00   0.0000000E+00   0.0000000E+00   0.0000000E+00   0.0000000E+00   0.0000000E+00   0.0000000E+00   0.0000000E+00   0.0000000E+00   0.0000000E+00   0.0000000E+00   0.0000000E+00   0.0000000E+00   0.0000000E+00   0.0000000E+00   0.0000000E+00   0.0000000E+00   0.0000000E+00   0.0000000E+00   0.0000000E+00   0.0000000E+00   0.0000000E+00   0.0000000E+00   0.0000000E+00   0.0000000E+00   0.0000000E+00   0.0000000E+00   0.0000000E+00   0.0000000E+00   0.0000000E+00   0.0000000E+00   0.0000000E+00   0.0000000E+00   0.0000000E+00   0.0000000E+00   0.0000000E+00   0.0000000E+00   0.0000000E+00   0.0000000E+00   0.0000000E+00   0.0000000E+00   0.0000000E+00   0.0000000E+00   0.0000000E+00   0.0000000E+00   0.0000000E+00   0.0000000E+00   0.0000000E+00   0.0000000E+00   0.0000000E+00   0.0000000E+00   0.0000000E+00   0.0000000E+00   0.0000000E+00   0.0000000E+00   0.0000000E+00   0.0000000E+00   0.0000000E+00   0.0000000E+00   0.0000000E+00   0.0000000E+00   0.0000000E+00   0.0000000E+00   0.0000000E+00   0.0000000E+00   0.0000000E+00   0.0000000E+00   0.0000000E+00   0.0000000E+00   0.0000000E+00   0.0000000E+00   0.0000000E+00   0.0000000E+00   0.0000000E+00   0.0000000E+00   0.0000000E+00   0.0000000E+00   0.0000000E+00   0.0000000E+00   0.0000000E+00   0.0000000E+00   0.0000000E+00   0.0000000E+00   0.0000000E+00   0.0000000E+00   0.0000000E+00   0.0000000E+00   0.0000000E+00   0.0000000E+00   0.0000000E+00   0.0000000E+00   0.0000000E+00   0.0000000E+00   0.0000000E+00   0.0000000E+00   0.0000000E+00   0.0000000E+00   0.0000000E+00   0.0000000E+00   0.0000000E+00   0.0000000E+00   0.0000000E+00   0.0000000E+00   0.0000000E+00   0.0000000E+00   0.0000000E+00   0.0000000E+00   0.0000000E+00   0.0000000E+00   0.0000000E+00   0.0000000E+00   0.0000000E+00   0.0000000E+00   0.0000000E+00   0.0000000E+00   0.0000000E+00   0.0000000E+00   0.0000000E+00   0.0000000E+00   0.0000000E+00   0.0000000E+00   0.0000000E+00   0.0000000E+00   0.0000000E+00   0.0000000E+00   0.0000000E+00   0.0000000E+00   0.0000000E+00   0.0000000E+00   0.0000000E+00   0.0000000E+00   0.0000000E+00   0.0000000E+00   0.0000000E+00   0.0000000E+00   0.0000000E+00   0.0000000E+00   0.0000000E+00   0.0000000E+00   0.0000000E+00   0.0000000E+00   0.0000000E+00   0.0000000E+00   0.0000000E+00   0.0000000E+00   0.0000000E+00   0.0000000E+00   0.0000000E+00   0.0000000E+00   0.0000000E+00   0.0000000E+00   0.0000000E+00   0.0000000E+00   0.0000000E+00   0.0000000E+00   0.0000000E+00   0.0000000E+00   0.0000000E+00   0.0000000E+00   0.0000000E+00   0.0000000E+00   0.0000000E+00   0.0000000E+00   0.0000000E+00   0.0000000E+00   0.0000000E+00   0.0000000E+00   0.0000000E+00   0.0000000E+00   0.0000000E+00   0.0000000E+00   0.0000000E+00   0.0000000E+00   0.0000000E+00   0.0000000E+00   0.0000000E+00   0.0000000E+00   0.0000000E+00   0.0000000E+00   0.0000000E+00   0.0000000E+00   0.0000000E+00   0.0000000E+00   0.0000000E+00   0.0000000E+00   0.0000000E+00   0.0000000E+00   0.0000000E+00   0.0000000E+00   0.0000000E+00   0.0000000E+00   0.0000000E+00   0.0000000E+00   0.0000000E+00   0.0000000E+00   0.0000000E+00   0.0000000E+00   0.0000000E+00   0.0000000E+00   0.0000000E+00   0.0000000E+00   0.0000000E+00   0.0000000E+00   0.0000000E+00   0.0000000E+00   0.0000000E+00   0.0000000E+00   0.0000000E+00   0.0000000E+00   0.0000000E+00   0.0000000E+00   0.0000000E+00   0.0000000E+00   0.0000000E+00   0.0000000E+00   0.0000000E+00   0.0000000E+00   0.0000000E+00   0.0000000E+00   0.0000000E+00   0.0000000E+00   0.0000000E+00   0.0000000E+00   0.0000000E+00   0.0000000E+00   0.0000000E+00   0.0000000E+00   0.0000000E+00   0.0000000E+00   0.0000000E+00   0.0000000E+00   0.0000000E+00   0.0000000E+00   0.0000000E+00   0.0000000E+00   0.0000000E+00   0.0000000E+00   0.0000000E+00   0.0000000E+00   0.0000000E+00   0.0000000E+00   0.0000000E+00   0.0000000E+00   0.0000000E+00   0.0000000E+00   0.0000000E+00   0.0000000E+00   0.0000000E+00   0.0000000E+00   0.0000000E+00   0.0000000E+00   0.0000000E+00   0.0000000E+00   0.0000000E+00   0.0000000E+00   0.0000000E+00   0.0000000E+00   0.0000000E+00   0.0000000E+00   0.0000000E+00   0.0000000E+00   0.0000000E+00   0.0000000E+00   0.0000000E+00   0.0000000E+00   0.0000000E+00   0.0000000E+00   0.0000000E+00   0.0000000E+00   0.0000000E+00   0.0000000E+00   0.0000000E+00   0.0000000E+00   0.0000000E+00   0.0000000E+00   0.0000000E+00   0.0000000E+00   0.0000000E+00   0.0000000E+00   0.0000000E+00   0.0000000E+00   0.0000000E+00   0.0000000E+00   0.0000000E+00   0.0000000E+00   0.0000000E+00   0.0000000E+00   0.0000000E+00   0.0000000E+00   0.0000000E+00   0.0000000E+00   0.0000000E+00   0.0000000E+00   0.0000000E+00   0.0000000E+00   0.0000000E+00   0.0000000E+00   0.0000000E+00   0.0000000E+00   0.0000000E+00   0.0000000E+00   0.0000000E+00   0.0000000E+00   0.0000000E+00   0.0000000E+00   0.0000000E+00   0.0000000E+00   0.0000000E+00   0.0000000E+00   0.0000000E+00   0.0000000E+00   0.0000000E+00   0.0000000E+00   0.0000000E+00   0.0000000E+00   0.0000000E+00   0.0000000E+00   0.0000000E+00   0.0000000E+00   0.0000000E+00   0.0000000E+00   0.0000000E+00   0.0000000E+00   0.0000000E+00   0.0000000E+00   0.0000000E+00   0.0000000E+00   0.0000000E+00   0.0000000E+00   0.0000000E+00   0.0000000E+00   0.0000000E+00   0.0000000E+00   0.0000000E+00   0.0000000E+00   0.0000000E+00   0.0000000E+00   0.0000000E+00   0.0000000E+00   0.0000000E+00   0.0000000E+00   0.0000000E+00   0.0000000E+00   0.0000000E+00   0.0000000E+00   0.0000000E+00   0.0000000E+00   0.0000000E+00   0.0000000E+00   0.0000000E+00   0.0000000E+00   0.0000000E+00   0.0000000E+00   0.0000000E+00   0.0000000E+00   0.0000000E+00   0.0000000E+00   0.0000000E+00   0.0000000E+00   0.0000000E+00   0.0000000E+00   0.0000000E+00   0.0000000E+00   0.0000000E+00   0.0000000E+00   0.0000000E+00   0.0000000E+00   0.0000000E+00   0.0000000E+00   0.0000000E+00   0.0000000E+00   0.0000000E+00   0.0000000E+00   0.0000000E+00   0.0000000E+00   0.0000000E+00   0.0000000E+00   0.0000000E+00   0.0000000E+00   0.0000000E+00   0.0000000E+00   0.0000000E+00   0.0000000E+00   0.0000000E+00   0.0000000E+00   0.0000000E+00   0.0000000E+00   0.0000000E+00   0.0000000E+00   0.0000000E+00   0.0000000E+00   0.0000000E+00   0.0000000E+00   0.0000000E+00   0.0000000E+00   0.0000000E+00   0.0000000E+00   0.0000000E+00   0.0000000E+00   0.0000000E+00   0.0000000E+00   0.0000000E+00   0.0000000E+00   0.0000000E+00   0.0000000E+00   0.0000000E+00   1.0804324E+01   3.5391176E+00   3.6801293E+00   9.1899586E+00   1.2400740E+01   2.1223072E+01   1.4251427E+01   4.3418841E+00   5.2867966E+00   1.2537357E+01   1.6699930E+01   2.6723175E+01   1.7326010E+01   4.7662287E+00   7.1656470E+00   1.6002565E+01   2.0963917E+01   3.1654751E+01   1.9884447E+01   4.7277794E+00   9.3512974E+00   1.9555838E+01   2.5103050E+01   3.6152576E+01   2.1963287E+01   4.2218637E+00   1.1898161E+01   2.3280067E+01   2.9223925E+01   4.4653111E+01   2.6532480E+01   6.4147873E+00   1.5036366E+01   2.7389874E+01   3.3606529E+01   9.4485741E+01   6.2205013E+01   2.8659826E+01   2.1505184E+01   3.2558914E+01   3.8842583E+01   2.5581015E+02   1.7830722E+02   9.2039299E+01   4.3129410E+01   4.0922176E+01   4.6199589E+01   5.9686462E+02   4.1529132E+02   2.1734996E+02   9.2223297E+01   5.7229477E+01   5.7951302E+01   1.1377822E+03   7.7510211E+02   4.0061023E+02   1.6627803E+02   8.5667274E+01   7.7337318E+01   1.7272916E+03   1.1562770E+03   5.8728381E+02   2.4391124E+02   1.2557231E+02   1.0794335E+02   2.0942007E+03   1.3741207E+03   6.8897729E+02   2.9690448E+02   1.7578076E+02   1.5299997E+02   2.0611555E+03   1.3150562E+03   6.5887262E+02   3.2492966E+02   2.4156947E+02   2.1473714E+02   1.6200637E+03   1.0311381E+03   5.5920544E+02   3.7362830E+02   3.2960736E+02   2.9328479E+02   1.1336180E+03   7.7815204E+02   5.4451727E+02   4.7570605E+02   4.3743463E+02   3.8638922E+02   9.4745782E+02   7.6224530E+02   6.5380157E+02   6.0887665E+02   5.5763708E+02   4.9123120E+02   1.0114821E+03   8.8335291E+02   8.0095471E+02   7.5033765E+02   6.8622418E+02   6.0647144E+02   1.1390265E+03   1.0260544E+03   9.5130524E+02   8.9813879E+02   8.2460126E+02   7.3240222E+02   1.2868452E+03   1.1792969E+03   1.1119779E+03   1.0586591E+03   9.7595917E+02   8.7011719E+02   1.4657373E+03   1.3584664E+03   1.2940618E+03   1.2375077E+03   1.1429214E+03   1.0206835E+03   1.6850002E+03   1.5720616E+03   1.5031627E+03   1.4375126E+03   1.3266680E+03   1.1841782E+03   1.9513257E+03   1.8239656E+03   1.7397074E+03   1.6578910E+03   1.5259415E+03   1.3591508E+03   2.2679424E+03   2.1125767E+03   1.9970454E+03   1.8932377E+03   1.7369333E+03   1.5430883E+03   2.6362808E+03   2.4271582E+03   2.2610544E+03   2.1349348E+03   1.9551071E+03   1.7344093E+03   3.0447766E+03   2.7442708E+03   2.5114922E+03   2.3750696E+03   2.1796570E+03   1.9363840E+03   3.4668611E+03   3.0280854E+03   2.7295964E+03   2.6163037E+03   2.4216780E+03   2.1633328E+03   3.8649546E+03   3.2486609E+03   2.9182927E+03   2.8868108E+03   2.7153357E+03   2.4489299E+03   4.1946929E+03   3.3929980E+03   3.1215747E+03   3.2490486E+03   3.1252947E+03   2.8531279E+03   4.4416304E+03   3.5101880E+03   3.4283779E+03   3.7941550E+03   3.7417817E+03   3.4592249E+03   4.6814810E+03   3.7524973E+03   3.9716101E+03   4.6201260E+03   4.6548218E+03   4.3550425E+03   5.1911411E+03   4.4361685E+03   4.9092402E+03   5.7863335E+03   5.9102676E+03   5.5973921E+03   6.5464746E+03   6.0606675E+03   6.4208247E+03   7.2887295E+03   7.4853125E+03   7.1809844E+03   9.3342939E+03   9.0329541E+03   8.9867598E+03   9.1941768E+03   9.2890811E+03   9.0207705E+03   1.3016053E+04   1.2677073E+04   1.2489044E+04   1.1622479E+04   1.1258340E+04   1.0963970E+04   1.5858869E+04   1.5367605E+04   1.5492491E+04   1.4062883E+04   1.3170579E+04   1.2805026E+04   1.6805588E+04   1.6557840E+04   1.7433633E+04   1.5914735E+04   1.4777442E+04   1.4353380E+04   1.6908320E+04   1.6530172E+04   1.7942162E+04   1.6916324E+04   1.5865196E+04   1.5474017E+04   1.6908594E+04   1.5864608E+04   1.7225287E+04   1.6806098E+04   1.6218543E+04   1.6082649E+04   1.7155705E+04   1.5512182E+04   1.6606086E+04   1.6579447E+04   1.6341925E+04   1.6390123E+04   1.7640123E+04   1.5617133E+04   1.6386994E+04   1.6497988E+04   1.6405797E+04   1.6518043E+04   1.8185936E+04   1.6020365E+04   1.6530420E+04   1.6579029E+04   1.6455039E+04   1.6532752E+04   1.8618648E+04   1.6489266E+04   1.6881418E+04   1.6729297E+04   1.6458992E+04   1.6446391E+04   1.8603936E+04   1.6623992E+04   1.7010488E+04   1.6727732E+04   1.6330685E+04   1.6233242E+04   1.8168242E+04   1.6374445E+04   1.6796070E+04   1.6477057E+04   1.6015806E+04   1.5860504E+04   1.7421266E+04   1.5815627E+04   1.6253435E+04   1.5957150E+04   1.5492939E+04   1.5308635E+04   1.6453984E+04   1.5027902E+04   1.5420903E+04   1.5174808E+04   1.4759570E+04   1.4579022E+04   1.5321516E+04   1.4053397E+04   1.4375480E+04   1.4172165E+04   1.3840318E+04   1.3692690E+04   1.4035977E+04   1.2930637E+04   1.3199622E+04   1.3020463E+04   1.2805495E+04   1.2685944E+04   1.2607535E+04   1.1673658E+04   1.1924247E+04   1.1848115E+04   1.1707644E+04   1.1596625E+04   1.1108418E+04   1.0317242E+04   1.0632490E+04   1.0690048E+04   1.0567138E+04   1.0465902E+04   9.5606787E+03   8.8860039E+03   9.4038555E+03   9.5547754E+03   9.4332070E+03   9.3433867E+03   7.9958833E+03   7.5135303E+03   8.2614297E+03   8.4908057E+03   8.3814922E+03   8.2800039E+03   6.4821001E+03   6.3991919E+03   7.2488477E+03   7.5555796E+03   7.4516626E+03   7.3116377E+03   5.2872793E+03   5.7235854E+03   6.5386084E+03   6.8305728E+03   6.6824893E+03   6.4705054E+03   5.5203525E+03   5.2728271E+03   6.1555327E+03   6.3901860E+03   6.1586069E+03   5.7972876E+03   4.4664355E+03   5.9065190E+03   6.2856724E+03   5.9456567E+03   5.3592529E+03   3.7131812E+03   5.3224653E+03   6.2437988E+03   5.9735107E+03   5.1998608E+03   3.9055320E+03   5.7560493E+03   6.0180615E+03   5.2513008E+03   3.1433521E+03   4.3888457E+03   5.6109424E+03   5.2942778E+03   2.6002354E+03   4.2297437E+03   4.9157734E+03   2.2361362E+03   3.6084998E+03   3.1911738E+03   1.7995863E+03   1.3535978E+01   1.3251333E+01   1.2222005E+01   1.0886311E+01   9.5017300E+00   8.2271519E+00   7.1631403E+00   6.3698487E+00   5.8819141E+00   1.8109411E+01   1.7652172E+01   1.6232126E+01   1.4422027E+01   1.2545847E+01   1.0816765E+01   9.3721304E+00   8.2947474E+00   7.6320314E+00   2.2534616E+01   2.1850468E+01   2.0036171E+01   1.7772423E+01   1.5429648E+01   1.3268972E+01   1.1462314E+01   1.0114299E+01   9.2849426E+00   2.6685041E+01   2.5713396E+01   2.3518518E+01   2.0845417E+01   1.8086775E+01   1.5541156E+01   1.3410331E+01   1.1818901E+01   1.0839211E+01   3.0683310E+01   2.9373247E+01   2.6815191E+01   2.3774603E+01   2.0648008E+01   1.7759443E+01   1.5336504E+01   1.3523426E+01   1.2405826E+01   3.4869419E+01   3.3199997E+01   3.0289814E+01   2.6904596E+01   2.3430189E+01   2.0209673E+01   1.7497055E+01   1.5460151E+01   1.4201553E+01   3.9831097E+01   3.7780098E+01   3.4503666E+01   3.0758989E+01   2.6905870E+01   2.3308918E+01   2.0257816E+01   1.7954184E+01   1.6525553E+01   4.6588367E+01   4.3974003E+01   4.0224178E+01   3.6021866E+01   3.1674910E+01   2.7574755E+01   2.4063841E+01   2.1394188E+01   1.9731024E+01   5.6860970E+01   5.3081512E+01   4.8489079E+01   4.3549084E+01   3.8449989E+01   3.3600456E+01   2.9411461E+01   2.6204525E+01   2.4197973E+01   7.3152939E+01   6.6963409E+01   6.0675232E+01   5.4390579E+01   4.8050064E+01   4.2034115E+01   3.6821770E+01   3.2817394E+01   3.0305683E+01   9.8466446E+01   8.7908974E+01   7.8446243E+01   6.9754395E+01   6.1362247E+01   5.3537025E+01   4.6797787E+01   4.1630352E+01   3.8390903E+01   1.3565082E+02   1.1820405E+02   1.0352093E+02   9.0876083E+01   7.9258080E+01   6.8720871E+01   5.9772926E+01   5.2961201E+01   4.8706169E+01   1.8660619E+02   1.5958569E+02   1.3733394E+02   1.1882423E+02   1.0248163E+02   8.8081245E+01   7.6068291E+01   6.7018173E+01   6.1396755E+01   2.5174707E+02   2.1284796E+02   1.8074004E+02   1.5431348E+02   1.3154420E+02   1.1194449E+02   9.5871147E+01   8.3896370E+01   7.6506615E+01   3.3014740E+02   2.7781635E+02   2.3391600E+02   1.9761397E+02   1.6667374E+02   1.4045689E+02   1.1925481E+02   1.0361858E+02   9.4031113E+01   4.2035785E+02   3.5369345E+02   2.9650214E+02   2.4860324E+02   2.0785539E+02   1.7364583E+02   1.4626472E+02   1.2624292E+02   1.1403789E+02   5.2128339E+02   4.3957993E+02   3.6789258E+02   3.0694519E+02   2.5497540E+02   2.1157217E+02   1.7709622E+02   1.5206375E+02   1.3688383E+02   6.3245850E+02   5.3482501E+02   4.4751898E+02   3.7233936E+02   3.0806573E+02   2.5459372E+02   2.1238734E+02   1.8193263E+02   1.6355377E+02   7.5396863E+02   6.3905499E+02   5.3503424E+02   4.4480722E+02   3.6766037E+02   3.0376825E+02   2.5365643E+02   2.1772108E+02   1.9613954E+02   8.8591333E+02   7.5201190E+02   6.3045673E+02   5.2505219E+02   4.3528809E+02   3.6141837E+02   3.0389929E+02   2.6293002E+02   2.3845261E+02   1.0278575E+03   8.7348395E+02   7.3446307E+02   6.1498730E+02   5.1413403E+02   4.3185309E+02   3.6831842E+02   3.2340240E+02   2.9671982E+02   1.1787821E+03   1.0036733E+03   8.4905585E+02   7.1856317E+02   6.0991022E+02   5.2220587E+02   4.5509763E+02   4.0803040E+02   3.8024060E+02   1.3379197E+03   1.1442742E+03   9.7874786E+02   8.4291534E+02   7.3186346E+02   6.4326074E+02   5.7605481E+02   5.2927094E+02   5.0181494E+02   1.5067527E+03   1.3003445E+03   1.1321703E+03   9.9962897E+02   8.9366632E+02   8.0999408E+02   7.4689813E+02   7.0319977E+02   6.7767548E+02   1.6922100E+03   1.4826735E+03   1.3236295E+03   1.2055886E+03   1.1137131E+03   1.0414504E+03   9.8678894E+02   9.4885333E+02   9.2670435E+02   1.9109000E+03   1.7101875E+03   1.5740153E+03   1.4828469E+03   1.4143445E+03   1.3595819E+03   1.3169548E+03   1.2867087E+03   1.2688376E+03   2.1945146E+03   2.0123572E+03   1.9108757E+03   1.8573290E+03   1.8198837E+03   1.7870198E+03   1.7583733E+03   1.7363594E+03   1.7227545E+03   2.5951902E+03   2.4320024E+03   2.3684724E+03   2.3570962E+03   2.3542295E+03   2.3445815E+03   2.3293999E+03   2.3142859E+03   2.3037556E+03   3.1850891E+03   3.0261624E+03   2.9885129E+03   3.0120808E+03   3.0399045E+03   3.0502363E+03   3.0449214E+03   3.0332539E+03   3.0233398E+03   4.0437830E+03   3.8600005E+03   3.8192832E+03   3.8556001E+03   3.8998071E+03   3.9205510E+03   3.9176440E+03   3.9035710E+03   3.8904771E+03   5.2321138E+03   4.9902100E+03   4.9077070E+03   4.9227192E+03   4.9583579E+03   4.9724878E+03   4.9598193E+03   4.9345762E+03   4.9129058E+03   6.7622607E+03   6.4397314E+03   6.2810288E+03   6.2388481E+03   6.2354307E+03   6.2200371E+03   6.1809688E+03   6.1328105E+03   6.0954502E+03   8.5723789E+03   8.1721440E+03   7.9231621E+03   7.8001367E+03   7.7315044E+03   7.6631636E+03   7.5791113E+03   7.4945972E+03   7.4333569E+03   1.0520649E+04   1.0078409E+04   9.7572041E+03   9.5540430E+03   9.4088770E+03   9.2713154E+03   9.1265430E+03   8.9933740E+03   8.9005498E+03   1.2409279E+04   1.1988061E+04   1.1645386E+04   1.1390846E+04   1.1178483E+04   1.0968762E+04   1.0755617E+04   1.0566401E+04   1.0437134E+04   1.4039148E+04   1.3708029E+04   1.3411370E+04   1.3153957E+04   1.2902675E+04   1.2633982E+04   1.2357477E+04   1.2113945E+04   1.1948897E+04   1.5271904E+04   1.5079138E+04   1.4885307E+04   1.4676005E+04   1.4425222E+04   1.4125607E+04   1.3805283E+04   1.3520791E+04   1.3327933E+04   1.6063108E+04   1.6025901E+04   1.5958233E+04   1.5831462E+04   1.5618051E+04   1.5321378E+04   1.4985563E+04   1.4681477E+04   1.4474128E+04   1.6493033E+04   1.6572111E+04   1.6616961E+04   1.6580426E+04   1.6425061E+04   1.6157387E+04   1.5831763E+04   1.5529140E+04   1.5320964E+04   1.6663396E+04   1.6799900E+04   1.6919293E+04   1.6956004E+04   1.6858377E+04   1.6630152E+04   1.6329690E+04   1.6042731E+04   1.5843549E+04   1.6656857E+04   1.6796322E+04   1.6945432E+04   1.7024533E+04   1.6968400E+04   1.6775311E+04   1.6502855E+04   1.6236811E+04   1.6050951E+04   1.6514309E+04   1.6620783E+04   1.6762711E+04   1.6852434E+04   1.6815316E+04   1.6644357E+04   1.6393926E+04   1.6146767E+04   1.5973768E+04   1.6238628E+04   1.6298073E+04   1.6411264E+04   1.6488305E+04   1.6450242E+04   1.6286780E+04   1.6048743E+04   1.5814617E+04   1.5651292E+04   1.5814412E+04   1.5829546E+04   1.5907663E+04   1.5960380E+04   1.5908842E+04   1.5741823E+04   1.5507536E+04   1.5280429E+04   1.5123227E+04   1.5228338E+04   1.5210552E+04   1.5257689E+04   1.5284538E+04   1.5215151E+04   1.5039287E+04   1.4803849E+04   1.4580003E+04   1.4426646E+04   1.4481544E+04   1.4444478E+04   1.4469606E+04   1.4475226E+04   1.4389654E+04   1.4204855E+04   1.3967388E+04   1.3745852E+04   1.3595666E+04   1.3592345E+04   1.3548227E+04   1.3560976E+04   1.3552252E+04   1.3455193E+04   1.3264546E+04   1.3026962E+04   1.2808743E+04   1.2662099E+04   1.2591373E+04   1.2549118E+04   1.2557457E+04   1.2541085E+04   1.2438127E+04   1.2246114E+04   1.2011586E+04   1.1798485E+04   1.1656054E+04   1.1513896E+04   1.1479162E+04   1.1488674E+04   1.1470286E+04   1.1367100E+04   1.1178884E+04   1.0951292E+04   1.0745501E+04   1.0608101E+04   1.0396376E+04   1.0371397E+04   1.0384689E+04   1.0368229E+04   1.0270185E+04   1.0091578E+04   9.8757412E+03   9.6801963E+03   9.5491406E+03   9.2767666E+03   9.2576113E+03   9.2729678E+03   9.2596494E+03   9.1711816E+03   9.0084023E+03   8.8102363E+03   8.6290674E+03   8.5065596E+03   8.1957988E+03   8.1680845E+03   8.1779106E+03   8.1649399E+03   8.0882676E+03   7.9469233E+03   7.7728809E+03   7.6114136E+03   7.5007397E+03   7.1909810E+03   7.1324912E+03   7.1221396E+03   7.1021094E+03   7.0358691E+03   6.9192646E+03   6.7748828E+03   6.6387031E+03   6.5438101E+03   6.2885562E+03   6.1779336E+03   6.1289082E+03   6.0905786E+03   6.0287539E+03   5.9356255E+03   5.8232534E+03   5.7163979E+03   5.6408164E+03   5.5073257E+03   5.3267925E+03   5.2232642E+03   5.1534370E+03   5.0857217E+03   5.0088555E+03   4.9252822E+03   4.8478535E+03   4.7930054E+03   4.8763228E+03   4.5927114E+03   4.4272520E+03   4.3151953E+03   4.2297529E+03   4.1572993E+03   4.0931086E+03   4.0394341E+03   4.0029136E+03   4.4599243E+03   3.9988401E+03   3.7521868E+03   3.5946860E+03   3.4826016E+03   3.4021409E+03   3.3443379E+03   3.3038796E+03   3.2792383E+03   4.3220894E+03   3.6132390E+03   3.2150793E+03   2.9972395E+03   2.8559836E+03   2.7594724E+03   2.6964263E+03   2.6577246E+03   2.6368025E+03   4.3931436E+03   3.5127673E+03   2.8845500E+03   2.5366016E+03   2.3482449E+03   2.2325886E+03   2.1585662E+03   2.1138210E+03   2.0902314E+03   4.4483174E+03   3.6038601E+03   2.8255171E+03   2.2804915E+03   1.9751523E+03   1.8162540E+03   1.7275699E+03   1.6753047E+03   1.6470962E+03   4.0783076E+03   3.6386797E+03   2.9008567E+03   2.2403052E+03   1.7803707E+03   1.5219716E+03   1.3958925E+03   1.3339666E+03   1.3028959E+03   2.8213108E+03   3.1897927E+03   2.8323467E+03   2.2363591E+03   1.7038364E+03   1.3461525E+03   1.1590468E+03   1.0778636E+03   1.0440125E+03   1.3134786E+03   1.8854784E+03   2.2126396E+03   2.0162124E+03   1.5929679E+03   1.2172335E+03   9.9435760E+02   8.9639160E+02   8.5943195E+02   1.0587236E+03   1.0691271E+03   1.2838269E+03   1.2148064E+03   9.8662708E+02   7.9392224E+02   7.0106958E+02   6.6869299E+02   7.5271661E+02   7.0270892E+02   6.5573541E+02   5.5907043E+02   4.7945395E+02   4.3804352E+02   6.7136499E+02   5.6166467E+02   4.8911322E+02   4.4487634E+02   5.7173824E+00   5.8819141E+00   6.3698511E+00   7.1631427E+00   8.2271538E+00   9.5017309E+00   1.0886312E+01   1.2222008E+01   7.4085851E+00   7.6320314E+00   8.2947493E+00   9.3721342E+00   1.0816768E+01   1.2545850E+01   1.4422027E+01   1.6232130E+01   9.0053072E+00   9.2849436E+00   1.0114303E+01   1.1462317E+01   1.3268976E+01   1.5429652E+01   1.7772425E+01   2.0036167E+01   1.0508800E+01   1.0839213E+01   1.1818905E+01   1.3410334E+01   1.5541162E+01   1.8086779E+01   2.0845419E+01   2.3518522E+01   1.2028661E+01   1.2405829E+01   1.3523432E+01   1.5336514E+01   1.7759453E+01   2.0648020E+01   2.3774607E+01   2.6815197E+01   1.3776317E+01   1.4201557E+01   1.5460158E+01   1.7497066E+01   2.0209681E+01   2.3430199E+01   2.6904604E+01   3.0289820E+01   1.6041990E+01   1.6525558E+01   1.7954189E+01   2.0257830E+01   2.3308931E+01   2.6905880E+01   3.0758997E+01   3.4503666E+01   1.9166800E+01   1.9731035E+01   2.1394196E+01   2.4063854E+01   2.7574770E+01   3.1674927E+01   3.6021889E+01   4.0224194E+01   2.3515850E+01   2.4197985E+01   2.6204536E+01   2.9411478E+01   3.3600479E+01   3.8450005E+01   4.3549107E+01   4.8489105E+01   2.9450848E+01   3.0305689E+01   3.2817413E+01   3.6821793E+01   4.2034145E+01   4.8050087E+01   5.4390617E+01   6.0675247E+01   3.7288563E+01   3.8390915E+01   4.1630367E+01   4.6797810E+01   5.3537045E+01   6.1362286E+01   6.9754425E+01   7.8446251E+01   4.7260326E+01   4.8706181E+01   5.2961227E+01   5.9772961E+01   6.8720909E+01   7.9258118E+01   9.0876099E+01   1.0352094E+02   5.9491119E+01   6.1396770E+01   6.7018211E+01   7.6068321E+01   8.8081291E+01   1.0248167E+02   1.1882426E+02   1.3733397E+02   7.4008858E+01   7.6506653E+01   8.3896400E+01   9.5871208E+01   1.1194454E+02   1.3154425E+02   1.5431354E+02   1.8074010E+02   9.0800339E+01   9.4031136E+01   1.0361864E+02   1.1925490E+02   1.4045697E+02   1.6667377E+02   1.9761398E+02   2.3391605E+02   1.0993716E+02   1.1403793E+02   1.2624297E+02   1.4626479E+02   1.7364589E+02   2.0785551E+02   2.4860329E+02   2.9650214E+02   1.3179770E+02   1.3688388E+02   1.5206381E+02   1.7709634E+02   2.1157227E+02   2.5497545E+02   3.0694525E+02   3.6789261E+02   1.5741211E+02   1.6355382E+02   1.8193268E+02   2.1238747E+02   2.5459378E+02   3.0806583E+02   3.7233936E+02   4.4751910E+02   1.8894673E+02   1.9613957E+02   2.1772116E+02   2.5365656E+02   3.0376831E+02   3.6766046E+02   4.4480728E+02   5.3503424E+02   2.3031772E+02   2.3845265E+02   2.6293011E+02   3.0389938E+02   3.6141846E+02   4.3528821E+02   5.2505237E+02   6.3045660E+02   2.8787964E+02   2.9671988E+02   3.2340253E+02   3.6831857E+02   4.3185312E+02   5.1413416E+02   6.1498737E+02   7.3446313E+02   3.7106488E+02   3.8024057E+02   4.0803040E+02   4.5509775E+02   5.2220587E+02   6.0991022E+02   7.1856317E+02   8.4905603E+02   4.9278076E+02   5.0181482E+02   5.2927112E+02   5.7605475E+02   6.4326093E+02   7.3186365E+02   8.4291534E+02   9.7874786E+02   6.6930249E+02   6.7767542E+02   7.0319977E+02   7.4689813E+02   8.0999408E+02   8.9366638E+02   9.9962903E+02   1.1321704E+03   9.1944666E+02   9.2670428E+02   9.4885345E+02   9.8678894E+02   1.0414502E+03   1.1137131E+03   1.2055887E+03   1.3236295E+03   1.2629561E+03   1.2688379E+03   1.2867090E+03   1.3169547E+03   1.3595819E+03   1.4143442E+03   1.4828470E+03   1.5740151E+03   1.7181901E+03   1.7227540E+03   1.7363590E+03   1.7583734E+03   1.7870195E+03   1.8198839E+03   1.8573285E+03   1.9108756E+03   2.3000488E+03   2.3037556E+03   2.3142861E+03   2.3294001E+03   2.3445818E+03   2.3542292E+03   2.3570962E+03   2.3684727E+03   3.0196106E+03   3.0233396E+03   3.0332539E+03   3.0449211E+03   3.0502363E+03   3.0399048E+03   3.0120811E+03   2.9885137E+03   3.8854119E+03   3.8904766E+03   3.9035706E+03   3.9176443E+03   3.9205515E+03   3.8998074E+03   3.8556001E+03   3.8192832E+03   4.9046816E+03   4.9129063E+03   4.9345752E+03   4.9598193E+03   4.9724883E+03   4.9583574E+03   4.9227178E+03   4.9077070E+03   6.0816826E+03   6.0954502E+03   6.1328105E+03   6.1809697E+03   6.2200366E+03   6.2354302E+03   6.2388472E+03   6.2810293E+03   7.4112896E+03   7.4333574E+03   7.4945972E+03   7.5791099E+03   7.6631636E+03   7.7315063E+03   7.8001367E+03   7.9231606E+03   8.8675703E+03   8.9005518E+03   8.9933750E+03   9.1265439E+03   9.2713174E+03   9.4088789E+03   9.5540439E+03   9.7572041E+03   1.0391580E+04   1.0437134E+04   1.0566403E+04   1.0755618E+04   1.0968762E+04   1.1178485E+04   1.1390849E+04   1.1645386E+04   1.1890970E+04   1.1948899E+04   1.2113949E+04   1.2357476E+04   1.2633983E+04   1.2902672E+04   1.3153955E+04   1.3411371E+04   1.3260296E+04   1.3327930E+04   1.3520793E+04   1.3805281E+04   1.4125605E+04   1.4425222E+04   1.4676007E+04   1.4885311E+04   1.4401313E+04   1.4474126E+04   1.4681481E+04   1.4985563E+04   1.5321378E+04   1.5618047E+04   1.5831462E+04   1.5958238E+04   1.5247702E+04   1.5320964E+04   1.5529139E+04   1.5831760E+04   1.6157389E+04   1.6425059E+04   1.6580426E+04   1.6616965E+04   1.5773315E+04   1.5843547E+04   1.6042729E+04   1.6329689E+04   1.6630152E+04   1.6858375E+04   1.6956004E+04   1.6919291E+04   1.5985357E+04   1.6050944E+04   1.6236810E+04   1.6502850E+04   1.6775305E+04   1.6968400E+04   1.7024535E+04   1.6945436E+04   1.5912768E+04   1.5973764E+04   1.6146765E+04   1.6393924E+04   1.6644357E+04   1.6815314E+04   1.6852436E+04   1.6762711E+04   1.5593848E+04   1.5651289E+04   1.5814618E+04   1.6048741E+04   1.6286780E+04   1.6450246E+04   1.6488301E+04   1.6411268E+04   1.5068160E+04   1.5123229E+04   1.5280430E+04   1.5507538E+04   1.5741821E+04   1.5908842E+04   1.5960381E+04   1.5907667E+04   1.4373182E+04   1.4426647E+04   1.4580004E+04   1.4803847E+04   1.5039288E+04   1.5215148E+04   1.5284541E+04   1.5257691E+04   1.3543549E+04   1.3595665E+04   1.3745851E+04   1.3967390E+04   1.4204855E+04   1.4389653E+04   1.4475226E+04   1.4469606E+04   1.2611407E+04   1.2662095E+04   1.2808744E+04   1.3026963E+04   1.3264547E+04   1.3455193E+04   1.3552252E+04   1.3560976E+04   1.1606923E+04   1.1656052E+04   1.1798487E+04   1.2011586E+04   1.2246114E+04   1.2438129E+04   1.2541086E+04   1.2557456E+04   1.0560689E+04   1.0608101E+04   1.0745500E+04   1.0951293E+04   1.1178885E+04   1.1367101E+04   1.1470283E+04   1.1488676E+04   9.5037607E+03   9.5491406E+03   9.6801982E+03   9.8757432E+03   1.0091580E+04   1.0270186E+04   1.0368229E+04   1.0384688E+04   8.4638936E+03   8.5065615E+03   8.6290693E+03   8.8102363E+03   9.0084023E+03   9.1711807E+03   9.2596494E+03   9.2729678E+03   7.4618672E+03   7.5007393E+03   7.6114160E+03   7.7728813E+03   7.9469238E+03   8.0882690E+03   8.1649380E+03   8.1779116E+03   6.5101348E+03   6.5438091E+03   6.6387021E+03   6.7748833E+03   6.9192646E+03   7.0358706E+03   7.1021089E+03   7.1221396E+03   5.6137173E+03   5.6408174E+03   5.7163994E+03   5.8232534E+03   5.9356255E+03   6.0287529E+03   6.0905786E+03   6.1289082E+03   4.7732329E+03   4.7930059E+03   4.8478540E+03   4.9252822E+03   5.0088560E+03   5.0857212E+03   5.1534370E+03   5.2232642E+03   3.9899041E+03   4.0029141E+03   4.0394341E+03   4.0931084E+03   4.1572993E+03   4.2297529E+03   4.3151948E+03   4.4272520E+03   3.2708804E+03   3.2792371E+03   3.3038792E+03   3.3443381E+03   3.4021409E+03   3.4826016E+03   3.5946855E+03   3.7521863E+03   2.6301873E+03   2.6368018E+03   2.6577246E+03   2.6964270E+03   2.7594727E+03   2.8559834E+03   2.9972393E+03   3.2150791E+03   2.0829016E+03   2.0902314E+03   2.1138210E+03   2.1585662E+03   2.2325884E+03   2.3482451E+03   2.5366013E+03   2.8845500E+03   1.6381527E+03   1.6470959E+03   1.6753048E+03   1.7275697E+03   1.8162543E+03   1.9751525E+03   2.2804917E+03   2.8255173E+03   1.2931071E+03   1.3028956E+03   1.3339666E+03   1.3958927E+03   1.5219716E+03   1.7803711E+03   2.2403054E+03   2.9008579E+03   1.0342162E+03   1.0440126E+03   1.0778636E+03   1.1590469E+03   1.3461528E+03   1.7038365E+03   2.2363599E+03   2.8323481E+03   8.4962292E+02   8.5943170E+02   8.9639148E+02   9.9435779E+02   1.2172336E+03   1.5929681E+03   2.0162129E+03   2.2126394E+03   6.6089911E+02   6.6869281E+02   7.0106970E+02   7.9392218E+02   9.8662695E+02   1.2148065E+03   1.2838271E+03   1.0691270E+03   4.2612979E+02   4.3804370E+02   4.7945383E+02   5.5907062E+02   6.5573553E+02   7.0270886E+02   7.5271643E+02   4.2986584E+02   4.4487656E+02   4.8911307E+02   5.6166467E+02   6.7136493E+02   1.3251334E+01   1.3535983E+01   1.2400744E+01   9.1899643E+00   3.6801355E+00   3.5391130E+00   1.0804325E+01   1.7652180E+01   1.8109421E+01   1.6699936E+01   1.2537366E+01   5.2868052E+00   4.3418794E+00   1.4251427E+01   2.1223074E+01   2.1850471E+01   2.2534620E+01   2.0963926E+01   1.6002575E+01   7.1656556E+00   4.7662210E+00   1.7326008E+01   2.6723175E+01   2.5713402E+01   2.6685051E+01   2.5103060E+01   1.9555849E+01   9.3513107E+00   4.7277679E+00   1.9884447E+01   3.1654745E+01   2.9373255E+01   3.0683323E+01   2.9223938E+01   2.3280069E+01   1.1898172E+01   4.2218528E+00   2.1963280E+01   3.6152569E+01   3.3200001E+01   3.4869431E+01   3.3606548E+01   2.7389887E+01   1.5036382E+01   6.4147673E+00   2.6532465E+01   4.4653088E+01   3.7780109E+01   3.9831104E+01   3.8842590E+01   3.2558929E+01   2.1505199E+01   2.8659819E+01   6.2205021E+01   9.4485809E+01   4.3974003E+01   4.6588375E+01   4.6199604E+01   4.0922211E+01   4.3129417E+01   9.2039337E+01   1.7830724E+02   2.5581015E+02   5.3081520E+01   5.6860973E+01   5.7951324E+01   5.7229496E+01   9.2223335E+01   2.1734998E+02   4.1529126E+02   5.9686469E+02   6.6963417E+01   7.3152939E+01   7.7337341E+01   8.5667282E+01   1.6627805E+02   4.0061023E+02   7.7510223E+02   1.1377827E+03   8.7908997E+01   9.8466476E+01   1.0794338E+02   1.2557231E+02   2.4391119E+02   5.8728394E+02   1.1562776E+03   1.7272920E+03   1.1820406E+02   1.3565085E+02   1.5299997E+02   1.7578078E+02   2.9690442E+02   6.8897736E+02   1.3741210E+03   2.0942009E+03   1.5958572E+02   1.8660619E+02   2.1473712E+02   2.4156944E+02   3.2492963E+02   6.5887262E+02   1.3150563E+03   2.0611558E+03   2.1284798E+02   2.5174712E+02   2.9328473E+02   3.2960730E+02   3.7362830E+02   5.5920544E+02   1.0311383E+03   1.6200641E+03   2.7781644E+02   3.3014743E+02   3.8638925E+02   4.3743457E+02   4.7570609E+02   5.4451727E+02   7.7815204E+02   1.1336180E+03   3.5369342E+02   4.2035791E+02   4.9123120E+02   5.5763715E+02   6.0887665E+02   6.5380164E+02   7.6224530E+02   9.4745795E+02   4.3957993E+02   5.2128345E+02   6.0647137E+02   6.8622424E+02   7.5033765E+02   8.0095477E+02   8.8335278E+02   1.0114820E+03   5.3482501E+02   6.3245856E+02   7.3240210E+02   8.2460126E+02   8.9813879E+02   9.5130524E+02   1.0260544E+03   1.1390265E+03   6.3905493E+02   7.5396863E+02   8.7011743E+02   9.7595905E+02   1.0586591E+03   1.1119780E+03   1.1792969E+03   1.2868453E+03   7.5201190E+02   8.8591357E+02   1.0206833E+03   1.1429211E+03   1.2375078E+03   1.2940620E+03   1.3584664E+03   1.4657375E+03   8.7348425E+02   1.0278575E+03   1.1841780E+03   1.3266682E+03   1.4375128E+03   1.5031627E+03   1.5720616E+03   1.6850004E+03   1.0036736E+03   1.1787820E+03   1.3591508E+03   1.5259417E+03   1.6578912E+03   1.7397073E+03   1.8239658E+03   1.9513257E+03   1.1442744E+03   1.3379197E+03   1.5430881E+03   1.7369336E+03   1.8932379E+03   1.9970455E+03   2.1125767E+03   2.2679421E+03   1.3003445E+03   1.5067524E+03   1.7344094E+03   1.9551071E+03   2.1349348E+03   2.2610544E+03   2.4271582E+03   2.6362808E+03   1.4826732E+03   1.6922100E+03   1.9363840E+03   2.1796570E+03   2.3750696E+03   2.5114927E+03   2.7442708E+03   3.0447776E+03   1.7101870E+03   1.9109000E+03   2.1633333E+03   2.4216782E+03   2.6163040E+03   2.7295964E+03   3.0280859E+03   3.4668608E+03   2.0123574E+03   2.1945144E+03   2.4489304E+03   2.7153357E+03   2.8868110E+03   2.9182922E+03   3.2486611E+03   3.8649551E+03   2.4320027E+03   2.5951902E+03   2.8531287E+03   3.1252952E+03   3.2490491E+03   3.1215750E+03   3.3929988E+03   4.1946934E+03   3.0261626E+03   3.1850891E+03   3.4592258E+03   3.7417822E+03   3.7941553E+03   3.4283789E+03   3.5101880E+03   4.4416313E+03   3.8600005E+03   4.0437834E+03   4.3550420E+03   4.6548218E+03   4.6201260E+03   3.9716101E+03   3.7524978E+03   4.6814810E+03   4.9902095E+03   5.2321128E+03   5.5973906E+03   5.9102676E+03   5.7863340E+03   4.9092393E+03   4.4361680E+03   5.1911421E+03   6.4397314E+03   6.7622607E+03   7.1809858E+03   7.4853125E+03   7.2887295E+03   6.4208247E+03   6.0606675E+03   6.5464756E+03   8.1721440E+03   8.5723789E+03   9.0207705E+03   9.2890830E+03   9.1941777E+03   8.9867607E+03   9.0329541E+03   9.3342949E+03   1.0078407E+04   1.0520651E+04   1.0963970E+04   1.1258340E+04   1.1622479E+04   1.2489043E+04   1.2677072E+04   1.3016052E+04   1.1988061E+04   1.2409280E+04   1.2805026E+04   1.3170580E+04   1.4062884E+04   1.5492494E+04   1.5367604E+04   1.5858866E+04   1.3708032E+04   1.4039149E+04   1.4353385E+04   1.4777448E+04   1.5914735E+04   1.7433637E+04   1.6557840E+04   1.6805586E+04   1.5079138E+04   1.5271901E+04   1.5474018E+04   1.5865198E+04   1.6916326E+04   1.7942164E+04   1.6530172E+04   1.6908320E+04   1.6025903E+04   1.6063112E+04   1.6082654E+04   1.6218543E+04   1.6806104E+04   1.7225293E+04   1.5864605E+04   1.6908592E+04   1.6572109E+04   1.6493033E+04   1.6390125E+04   1.6341931E+04   1.6579451E+04   1.6606086E+04   1.5512183E+04   1.7155699E+04   1.6799906E+04   1.6663400E+04   1.6518043E+04   1.6405797E+04   1.6497990E+04   1.6386994E+04   1.5617133E+04   1.7640113E+04   1.6796324E+04   1.6656865E+04   1.6532756E+04   1.6455041E+04   1.6579031E+04   1.6530420E+04   1.6020362E+04   1.8185932E+04   1.6620785E+04   1.6514307E+04   1.6446393E+04   1.6458996E+04   1.6729293E+04   1.6881416E+04   1.6489260E+04   1.8618643E+04   1.6298073E+04   1.6238630E+04   1.6233247E+04   1.6330684E+04   1.6727729E+04   1.7010484E+04   1.6623990E+04   1.8603938E+04   1.5829547E+04   1.5814412E+04   1.5860510E+04   1.6015804E+04   1.6477059E+04   1.6796072E+04   1.6374449E+04   1.8168240E+04   1.5210552E+04   1.5228338E+04   1.5308638E+04   1.5492943E+04   1.5957150E+04   1.6253434E+04   1.5815627E+04   1.7421258E+04   1.4444477E+04   1.4481541E+04   1.4579023E+04   1.4759574E+04   1.5174807E+04   1.5420903E+04   1.5027904E+04   1.6453980E+04   1.3548228E+04   1.3592345E+04   1.3692690E+04   1.3840319E+04   1.4172165E+04   1.4375483E+04   1.4053398E+04   1.5321516E+04   1.2549119E+04   1.2591375E+04   1.2685941E+04   1.2805496E+04   1.3020467E+04   1.3199620E+04   1.2930636E+04   1.4035978E+04   1.1479164E+04   1.1513896E+04   1.1596624E+04   1.1707643E+04   1.1848113E+04   1.1924245E+04   1.1673658E+04   1.2607535E+04   1.0371397E+04   1.0396376E+04   1.0465902E+04   1.0567137E+04   1.0690048E+04   1.0632491E+04   1.0317242E+04   1.1108420E+04   9.2576123E+03   9.2767666E+03   9.3433848E+03   9.4332070E+03   9.5547754E+03   9.4038555E+03   8.8860049E+03   9.5606777E+03   8.1680815E+03   8.1957988E+03   8.2800020E+03   8.3814912E+03   8.4908037E+03   8.2614307E+03   7.5135313E+03   7.9958818E+03   7.1324897E+03   7.1909800E+03   7.3116372E+03   7.4516611E+03   7.5555791E+03   7.2488477E+03   6.3991919E+03   6.4821001E+03   6.1779331E+03   6.2885557E+03   6.4705063E+03   6.6824883E+03   6.8305728E+03   6.5386089E+03   5.7235854E+03   5.2872788E+03   5.3267915E+03   5.5073252E+03   5.7972861E+03   6.1586074E+03   6.3901870E+03   6.1555317E+03   5.2728252E+03   5.5203530E+03   4.5927114E+03   4.8763232E+03   5.3592520E+03   5.9456572E+03   6.2856743E+03   5.9065205E+03   4.4664351E+03   3.9988403E+03   4.4599248E+03   5.1998594E+03   5.9735093E+03   6.2437993E+03   5.3224639E+03   3.7131797E+03   3.6132390E+03   4.3220889E+03   5.2513003E+03   6.0180605E+03   5.7560513E+03   3.9055317E+03   3.5127671E+03   4.3931440E+03   5.2942778E+03   5.6109424E+03   4.3888442E+03   3.1433508E+03   3.6038606E+03   4.4483179E+03   4.9157725E+03   4.2297446E+03   2.6002363E+03   3.6386804E+03   4.0783066E+03   3.6084998E+03   2.2361370E+03   3.1897930E+03   2.8213110E+03   1.7995863E+03   3.1911729E+03   1.8854790E+03   1.3134784E+03   1.0587235E+03 
TENSORS tensors1 float
0.01 0.0 0.0
0.0 0.01 0.0
0.0 0.0 0.01

0.01 0.0 0.0
0.0 0.01 0.0
0.0 0.0 0.01

0.01 0.0 0.0
0.0 0.01 0.0
0.0 0.0 0.01

0.01 0.0 0.0
0.0 0.01 0.0
0.0 0.0 0.01

0.01 0.0 0.0
0.0 0.01 0.0
0.0 0.0 0.01

0.01 0.0 0.0
0.0 0.01 0.0
0.0 0.0 0.01

0.01 0.0 0.0
0.0 0.01 0.0
0.0 0.0 0.01

0.01 0.0 0.0
0.0 0.01 0.0
0.0 0.0 0.01

0.01 0.0 0.0
0.0 0.01 0.0
0.0 0.0 0.01

0.01 0.0 0.0
0.0 0.01 0.0
0.0 0.0 0.01

0.01 0.0 0.0
0.0 0.01 0.0
0.0 0.0 0.01

0.01 0.0 0.0
0.0 0.01 0.0
0.0 0.0 0.01

0.01 0.0 0.0
0.0 0.01 0.0
0.0 0.0 0.01

0.01 0.0 0.0
0.0 0.01 0.0
0.0 0.0 0.01

0.01 0.0 0.0
0.0 0.01 0.0
0.0 0.0 0.01

0.01 0.0 0.0
0.0 0.01 0.0
0.0 0.0 0.01

0.01 0.0 0.0
0.0 0.01 0.0
0.0 0.0 0.01

0.01 0.0 0.0
0.0 0.01 0.0
0.0 0.0 0.01

0.01 0.0 0.0
0.0 0.01 0.0
0.0 0.0 0.01

0.01 0.0 0.0
0.0 0.01 0.0
0.0 0.0 0.01

0.01 0.0 0.0
0.0 0.01 0.0
0.0 0.0 0.01

0.01 0.0 0.0
0.0 0.01 0.0
0.0 0.0 0.01

0.01 0.0 0.0
0.0 0.01 0.0
0.0 0.0 0.01

0.01 0.0 0.0
0.0 0.01 0.0
0.0 0.0 0.01

0.01 0.0 0.0
0.0 0.01 0.0
0.0 0.0 0.01

0.01 0.0 0.0
0.0 0.01 0.0
0.0 0.0 0.01

0.01 0.0 0.0
0.0 0.01 0.0
0.0 0.0 0.01

0.01 0.0 0.0
0.0 0.01 0.0
0.0 0.0 0.01

0.01 0.0 0.0
0.0 0.01 0.0
0.0 0.0 0.01

0.01 0.0 0.0
0.0 0.01 0.0
0.0 0.0 0.01

0.01 0.0 0.0
0.0 0.01 0.0
0.0 0.0 0.01

0.01 0.0 0.0
0.0 0.01 0.0
0.0 0.0 0.01

0.01 0.0 0.0
0.0 0.01 0.0
0.0 0.0 0.01

0.01 0.0 0.0
0.0 0.01 0.0
0.0 0.0 0.01

0.01 0.0 0.0
0.0 0.01 0.0
0.0 0.0 0.01

0.01 0.0 0.0
0.0 0.01 0.0
0.0 0.0 0.01

0.01 0.0 0.0
0.0 0.01 0.0
0.0 0.0 0.01

0.01 0.0 0.0
0.0 0.01 0.0
0.0 0.0 0.01

0.01 0.0 0.0
0.0 0.01 0.0
0.0 0.0 0.01

0.01 0.0 0.0
0.0 0.01 0.0
0.0 0.0 0.01

0.01 0.0 0.0
0.0 0.01 0.0
0.0 0.0 0.01

0.01 0.0 0.0
0.0 0.01 0.0
0.0 0.0 0.01

0.01 0.0 0.0
0.0 0.01 0.0
0.0 0.0 0.01

0.01 0.0 0.0
0.0 0.01 0.0
0.0 0.0 0.01

0.01 0.0 0.0
0.0 0.01 0.0
0.0 0.0 0.01

0.01 0.0 0.0
0.0 0.01 0.0
0.0 0.0 0.01

0.01 0.0 0.0
0.0 0.01 0.0
0.0 0.0 0.01

0.01 0.0 0.0
0.0 0.01 0.0
0.0 0.0 0.01

0.01 0.0 0.0
0.0 0.01 0.0
0.0 0.0 0.01

0.01 0.0 0.0
0.0 0.01 0.0
0.0 0.0 0.01

0.01 0.0 0.0
0.0 0.01 0.0
0.0 0.0 0.01

0.01 0.0 0.0
0.0 0.01 0.0
0.0 0.0 0.01

0.01 0.0 0.0
0.0 0.01 0.0
0.0 0.0 0.01

0.01 0.0 0.0
0.0 0.01 0.0
0.0 0.0 0.01

0.01 0.0 0.0
0.0 0.01 0.0
0.0 0.0 0.01

0.01 0.0 0.0
0.0 0.01 0.0
0.0 0.0 0.01

0.01 0.0 0.0
0.0 0.01 0.0
0.0 0.0 0.01

0.01 0.0 0.0
0.0 0.01 0.0
0.0 0.0 0.01

0.01 0.0 0.0
0.0 0.01 0.0
0.0 0.0 0.01

0.01 0.0 0.0
0.0 0.01 0.0
0.0 0.0 0.01

0.01 0.0 0.0
0.0 0.01 0.0
0.0 0.0 0.01

0.01 0.0 0.0
0.0 0.01 0.0
0.0 0.0 0.01

0.01 0.0 0.0
0.0 0.01 0.0
0.0 0.0 0.01

0.01 0.0 0.0
0.0 0.01 0.0
0.0 0.0 0.01

0.01 0.0 0.0
0.0 0.01 0.0
0.0 0.0 0.01

0.01 0.0 0.0
0.0 0.01 0.0
0.0 0.0 0.01

0.01 0.0 0.0
0.0 0.01 0.0
0.0 0.0 0.01

0.01 0.0 0.0
0.0 0.01 0.0
0.0 0.0 0.01

0.01 0.0 0.0
0.0 0.01 0.0
0.0 0.0 0.01

0.01 0.0 0.0
0.0 0.01 0.0
0.0 0.0 0.01

0.01 0.0 0.0
0.0 0.01 0.0
0.0 0.0 0.01

0.01 0.0 0.0
0.0 0.01 0.0
0.0 0.0 0.01

0.01 0.0 0.0
0.0 0.01 0.0
0.0 0.0 0.01

0.01 0.0 0.0
0.0 0.01 0.0
0.0 0.0 0.01

0.01 0.0 0.0
0.0 0.01 0.0
0.0 0.0 0.01

0.01 0.0 0.0
0.0 0.01 0.0
0.0 0.0 0.01

0.01 0.0 0.0
0.0 0.01 0.0
0.0 0.0 0.01

0.01 0.0 0.0
0.0 0.01 0.0
0.0 0.0 0.01

0.01 0.0 0.0
0.0 0.01 0.0
0.0 0.0 0.01

0.01 0.0 0.0
0.0 0.01 0.0
0.0 0.0 0.01

0.01 0.0 0.0
0.0 0.01 0.0
0.0 0.0 0.01

0.01 0.0 0.0
0.0 0.01 0.0
0.0 0.0 0.01

0.01 0.0 0.0
0.0 0.01 0.0
0.0 0.0 0.01

0.01 0.0 0.0
0.0 0.01 0.0
0.0 0.0 0.01

0.01 0.0 0.0
0.0 0.01 0.0
0.0 0.0 0.01

0.01 0.0 0.0
0.0 0.01 0.0
0.0 0.0 0.01

0.01 0.0 0.0
0.0 0.01 0.0
0.0 0.0 0.01

0.01 0.0 0.0
0.0 0.01 0.0
0.0 0.0 0.01

0.01 0.0 0.0
0.0 0.01 0.0
0.0 0.0 0.01

0.01 0.0 0.0
0.0 0.01 0.0
0.0 0.0 0.01

0.01 0.0 0.0
0.0 0.01 0.0
0.0 0.0 0.01

0.01 0.0 0.0
0.0 0.01 0.0
0.0 0.0 0.01

0.01 0.0 0.0
0.0 0.01 0.0
0.0 0.0 0.01

0.01 0.0 0.0
0.0 0.01 0.0
0.0 0.0 0.01

0.01 0.0 0.0
0.0 0.01 0.0
0.0 0.0 0.01

0.01 0.0 0.0
0.0 0.01 0.0
0.0 0.0 0.01

0.01 0.0 0.0
0.0 0.01 0.0
0.0 0.0 0.01

0.01 0.0 0.0
0.0 0.01 0.0
0.0 0.0 0.01

0.01 0.0 0.0
0.0 0.01 0.0
0.0 0.0 0.01

0.01 0.0 0.0
0.0 0.01 0.0
0.0 0.0 0.01

0.01 0.0 0.0
0.0 0.01 0.0
0.0 0.0 0.01

0.01 0.0 0.0
0.0 0.01 0.0
0.0 0.0 0.01

0.01 0.0 0.0
0.0 0.01 0.0
0.0 0.0 0.01

0.01 0.0 0.0
0.0 0.01 0.0
0.0 0.0 0.01

0.01 0.0 0.0
0.0 0.01 0.0
0.0 0.0 0.01

0.01 0.0 0.0
0.0 0.01 0.0
0.0 0.0 0.01

0.01 0.0 0.0
0.0 0.01 0.0
0.0 0.0 0.01

0.01 0.0 0.0
0.0 0.01 0.0
0.0 0.0 0.01

0.01 0.0 0.0
0.0 0.01 0.0
0.0 0.0 0.01

0.01 0.0 0.0
0.0 0.01 0.0
0.0 0.0 0.01

0.01 0.0 0.0
0.0 0.01 0.0
0.0 0.0 0.01

0.01 0.0 0.0
0.0 0.01 0.0
0.0 0.0 0.01

0.01 0.0 0.0
0.0 0.01 0.0
0.0 0.0 0.01

0.01 0.0 0.0
0.0 0.01 0.0
0.0 0.0 0.01

0.01 0.0 0.0
0.0 0.01 0.0
0.0 0.0 0.01

0.01 0.0 0.0
0.0 0.01 0.0
0.0 0.0 0.01

0.01 0.0 0.0
0.0 0.01 0.0
0.0 0.0 0.01

0.01 0.0 0.0
0.0 0.01 0.0
0.0 0.0 0.01

0.01 0.0 0.0
0.0 0.01 0.0
0.0 0.0 0.01

0.01 0.0 0.0
0.0 0.01 0.0
0.0 0.0 0.01

0.01 0.0 0.0
0.0 0.01 0.0
0.0 0.0 0.01

0.01 0.0 0.0
0.0 0.01 0.0
0.0 0.0 0.01

0.01 0.0 0.0
0.0 0.01 0.0
0.0 0.0 0.01

0.01 0.0 0.0
0.0 0.01 0.0
0.0 0.0 0.01

0.01 0.0 0.0
0.0 0.01 0.0
0.0 0.0 0.01

0.01 0.0 0.0
0.0 0.01 0.0
0.0 0.0 0.01

0.01 0.0 0.0
0.0 0.01 0.0
0.0 0.0 0.01

0.01 0.0 0.0
0.0 0.01 0.0
0.0 0.0 0.01

0.01 0.0 0.0
0.0 0.01 0.0
0.0 0.0 0.01

0.01 0.0 0.0
0.0 0.01 0.0
0.0 0.0 0.01

0.01 0.0 0.0
0.0 0.01 0.0
0.0 0.0 0.01

0.01 0.0 0.0
0.0 0.01 0.0
0.0 0.0 0.01

0.01 0.0 0.0
0.0 0.01 0.0
0.0 0.0 0.01

0.01 0.0 0.0
0.0 0.01 0.0
0.0 0.0 0.01

0.01 0.0 0.0
0.0 0.01 0.0
0.0 0.0 0.01

0.01 0.0 0.0
0.0 0.01 0.0
0.0 0.0 0.01

0.01 0.0 0.0
0.0 0.01 0.0
0.0 0.0 0.01

0.01 0.0 0.0
0.0 0.01 0.0
0.0 0.0 0.01

0.01 0.0 0.0
0.0 0.01 0.0
0.0 0.0 0.01

0.01 0.0 0.0
0.0 0.01 0.0
0.0 0.0 0.01

0.01 0.0 0.0
0.0 0.01 0.0
0.0 0.0 0.01

0.01 0.0 0.0
0.0 0.01 0.0
0.0 0.0 0.01

0.01 0.0 0.0
0.0 0.01 0.0
0.0 0.0 0.01

0.01 0.0 0.0
0.0 0.01 0.0
0.0 0.0 0.01

0.01 0.0 0.0
0.0 0.01 0.0
0.0 0.0 0.01

0.01 0.0 0.0
0.0 0.01 0.0
0.0 0.0 0.01

0.01 0.0 0.0
0.0 0.01 0.0
0.0 0.0 0.01

0.01 0.0 0.0
0.0 0.01 0.0
0.0 0.0 0.01

0.01 0.0 0.0
0.0 0.01 0.0
0.0 0.0 0.01

0.01 0.0 0.0
0.0 0.01 0.0
0.0 0.0 0.01

0.01 0.0 0.0
0.0 0.01 0.0
0.0 0.0 0.01

0.01 0.0 0.0
0.0 0.01 0.0
0.0 0.0 0.01

0.01 0.0 0.0
0.0 0.01 0.0
0.0 0.0 0.01

0.01 0.0 0.0
0.0 0.01 0.0
0.0 0.0 0.01

0.01 0.0 0.0
0.0 0.01 0.0
0.0 0.0 0.01

0.01 0.0 0.0
0.0 0.01 0.0
0.0 0.0 0.01

0.01 0.0 0.0
0.0 0.01 0.0
0.0 0.0 0.01

0.01 0.0 0.0
0.0 0.01 0.0
0.0 0.0 0.01

0.01 0.0 0.0
0.0 0.01 0.0
0.0 0.0 0.01

0.01 0.0 0.0
0.0 0.01 0.0
0.0 0.0 0.01

0.01 0.0 0.0
0.0 0.01 0.0
0.0 0.0 0.01

0.01 0.0 0.0
0.0 0.01 0.0
0.0 0.0 0.01

0.01 0.0 0.0
0.0 0.01 0.0
0.0 0.0 0.01

0.01 0.0 0.0
0.0 0.01 0.0
0.0 0.0 0.01

0.01 0.0 0.0
0.0 0.01 0.0
0.0 0.0 0.01

0.01 0.0 0.0
0.0 0.01 0.0
0.0 0.0 0.01

0.01 0.0 0.0
0.0 0.01 0.0
0.0 0.0 0.01

0.01 0.0 0.0
0.0 0.01 0.0
0.0 0.0 0.01

0.01 0.0 0.0
0.0 0.01 0.0
0.0 0.0 0.01

0.01 0.0 0.0
0.0 0.01 0.0
0.0 0.0 0.01

0.01 0.0 0.0
0.0 0.01 0.0
0.0 0.0 0.01

0.01 0.0 0.0
0.0 0.01 0.0
0.0 0.0 0.01

0.01 0.0 0.0
0.0 0.01 0.0
0.0 0.0 0.01

0.01 0.0 0.0
0.0 0.01 0.0
0.0 0.0 0.01

0.01 0.0 0.0
0.0 0.01 0.0
0.0 0.0 0.01

0.01 0.0 0.0
0.0 0.01 0.0
0.0 0.0 0.01

0.01 0.0 0.0
0.0 0.01 0.0
0.0 0.0 0.01

0.01 0.0 0.0
0.0 0.01 0.0
0.0 0.0 0.01

0.01 0.0 0.0
0.0 0.01 0.0
0.0 0.0 0.01

0.01 0.0 0.0
0.0 0.01 0.0
0.0 0.0 0.01

0.01 0.0 0.0
0.0 0.01 0.0
0.0 0.0 0.01

0.01 0.0 0.0
0.0 0.01 0.0
0.0 0.0 0.01

0.01 0.0 0.0
0.0 0.01 0.0
0.0 0.0 0.01

0.01 0.0 0.0
0.0 0.01 0.0
0.0 0.0 0.01

0.01 0.0 0.0
0.0 0.01 0.0
0.0 0.0 0.01

0.01 0.0 0.0
0.0 0.01 0.0
0.0 0.0 0.01

0.01 0.0 0.0
0.0 0.01 0.0
0.0 0.0 0.01

0.01 0.0 0.0
0.0 0.01 0.0
0.0 0.0 0.01

0.01 0.0 0.0
0.0 0.01 0.0
0.0 0.0 0.01

0.01 0.0 0.0
0.0 0.01 0.0
0.0 0.0 0.01

0.01 0.0 0.0
0.0 0.01 0.0
0.0 0.0 0.01

0.01 0.0 0.0
0.0 0.01 0.0
0.0 0.0 0.01

0.01 0.0 0.0
0.0 0.01 0.0
0.0 0.0 0.01

0.01 0.0 0.0
0.0 0.01 0.0
0.0 0.0 0.01

0.01 0.0 0.0
0.0 0.01 0.0
0.0 0.0 0.01

0.01 0.0 0.0
0.0 0.01 0.0
0.0 0.0 0.01

0.01 0.0 0.0
0.0 0.01 0.0
0.0 0.0 0.01

0.01 0.0 0.0
0.0 0.01 0.0
0.0 0.0 0.01

0.01 0.0 0.0
0.0 0.01 0.0
0.0 0.0 0.01

0.01 0.0 0.0
0.0 0.01 0.0
0.0 0.0 0.01

0.01 0.0 0.0
0.0 0.01 0.0
0.0 0.0 0.01

0.01 0.0 0.0
0.0 0.01 0.0
0.0 0.0 0.01

0.01 0.0 0.0
0.0 0.01 0.0
0.0 0.0 0.01

0.01 0.0 0.0
0.0 0.01 0.0
0.0 0.0 0.01

0.01 0.0 0.0
0.0 0.01 0.0
0.0 0.0 0.01

0.01 0.0 0.0
0.0 0.01 0.0
0.0 0.0 0.01

0.01 0.0 0.0
0.0 0.01 0.0
0.0 0.0 0.01

0.01 0.0 0.0
0.0 0.01 0.0
0.0 0.0 0.01

0.01 0.0 0.0
0.0 0.01 0.0
0.0 0.0 0.01

0.01 0.0 0.0
0.0 0.01 0.0
0.0 0.0 0.01

0.01 0.0 0.0
0.0 0.01 0.0
0.0 0.0 0.01

0.01 0.0 0.0
0.0 0.01 0.0
0.0 0.0 0.01

0.01 0.0 0.0
0.0 0.01 0.0
0.0 0.0 0.01

0.01 0.0 0.0
0.0 0.01 0.0
0.0 0.0 0.01

0.01 0.0 0.0
0.0 0.01 0.0
0.0 0.0 0.01

0.01 0.0 0.0
0.0 0.01 0.0
0.0 0.0 0.01

0.01 0.0 0.0
0.0 0.01 0.0
0.0 0.0 0.01

0.01 0.0 0.0
0.0 0.01 0.0
0.0 0.0 0.01

0.01 0.0 0.0
0.0 0.01 0.0
0.0 0.0 0.01

0.01 0.0 0.0
0.0 0.01 0.0
0.0 0.0 0.01

0.01 0.0 0.0
0.0 0.01 0.0
0.0 0.0 0.01

0.01 0.0 0.0
0.0 0.01 0.0
0.0 0.0 0.01

0.01 0.0 0.0
0.0 0.01 0.0
0.0 0.0 0.01

0.01 0.0 0.0
0.0 0.01 0.0
0.0 0.0 0.01

0.01 0.0 0.0
0.0 0.01 0.0
0.0 0.0 0.01

0.01 0.0 0.0
0.0 0.01 0.0
0.0 0.0 0.01

0.01 0.0 0.0
0.0 0.01 0.0
0.0 0.0 0.01

0.01 0.0 0.0
0.0 0.01 0.0
0.0 0.0 0.01

0.01 0.0 0.0
0.0 0.01 0.0
0.0 0.0 0.01

0.01 0.0 0.0
0.0 0.01 0.0
0.0 0.0 0.01

0.01 0.0 0.0
0.0 0.01 0.0
0.0 0.0 0.01

0.01 0.0 0.0
0.0 0.01 0.0
0.0 0.0 0.01

0.01 0.0 0.0
0.0 0.01 0.0
0.0 0.0 0.01

0.01 0.0 0.0
0.0 0.01 0.0
0.0 0.0 0.01

0.01 0.0 0.0
0.0 0.01 0.0
0.0 0.0 0.01

0.01 0.0 0.0
0.0 0.01 0.0
0.0 0.0 0.01

0.01 0.0 0.0
0.0 0.01 0.0
0.0 0.0 0.01

0.01 0.0 0.0
0.0 0.01 0.0
0.0 0.0 0.01

0.01 0.0 0.0
0.0 0.01 0.0
0.0 0.0 0.01

0.01 0.0 0.0
0.0 0.01 0.0
0.0 0.0 0.01

0.01 0.0 0.0
0.0 0.01 0.0
0.0 0.0 0.01

0.01 0.0 0.0
0.0 0.01 0.0
0.0 0.0 0.01

0.01 0.0 0.0
0.0 0.01 0.0
0.0 0.0 0.01

0.01 0.0 0.0
0.0 0.01 0.0
0.0 0.0 0.01

0.01 0.0 0.0
0.0 0.01 0.0
0.0 0.0 0.01

0.01 0.0 0.0
0.0 0.01 0.0
0.0 0.0 0.01

0.01 0.0 0.0
0.0 0.01 0.0
0.0 0.0 0.01

0.01 0.0 0.0
0.0 0.01 0.0
0.0 0.0 0.01

0.01 0.0 0.0
0.0 0.01 0.0
0.0 0.0 0.01

0.01 0.0 0.0
0.0 0.01 0.0
0.0 0.0 0.01

0.01 0.0 0.0
0.0 0.01 0.0
0.0 0.0 0.01

0.01 0.0 0.0
0.0 0.01 0.0
0.0 0.0 0.01

0.01 0.0 0.0
0.0 0.01 0.0
0.0 0.0 0.01

0.01 0.0 0.0
0.0 0.01 0.0
0.0 0.0 0.01

0.01 0.0 0.0
0.0 0.01 0.0
0.0 0.0 0.01

0.01 0.0 0.0
0.0 0.01 0.0
0.0 0.0 0.01

0.01 0.0 0.0
0.0 0.01 0.0
0.0 0.0 0.01

0.01 0.0 0.0
0.0 0.01 0.0
0.0 0.0 0.01

0.01 0.0 0.0
0.0 0.01 0.0
0.0 0.0 0.01

0.01 0.0 0.0
0.0 0.01 0.0
0.0 0.0 0.01

0.01 0.0 0.0
0.0 0.01 0.0
0.0 0.0 0.01

0.01 0.0 0.0
0.0 0.01 0.0
0.0 0.0 0.01

0.01 0.0 0.0
0.0 0.01 0.0
0.0 0.0 0.01

0.01 0.0 0.0
0.0 0.01 0.0
0.0 0.0 0.01

0.01 0.0 0.0
0.0 0.01 0.0
0.0 0.0 0.01

0.01 0.0 0.0
0.0 0.01 0.0
0.0 0.0 0.01

0.01 0.0 0.0
0.0 0.01 0.0
0.0 0.0 0.01

0.01 0.0 0.0
0.0 0.01 0.0
0.0 0.0 0.01

0.01 0.0 0.0
0.0 0.01 0.0
0.0 0.0 0.01

0.01 0.0 0.0
0.0 0.01 0.0
0.0 0.0 0.01

0.01 0.0 0.0
0.0 0.01 0.0
0.0 0.0 0.01

0.01 0.0 0.0
0.0 0.01 0.0
0.0 0.0 0.01

0.01 0.0 0.0
0.0 0.01 0.0
0.0 0.0 0.01

0.01 0.0 0.0
0.0 0.01 0.0
0.0 0.0 0.01

0.01 0.0 0.0
0.0 0.01 0.0
0.0 0.0 0.01

0.01 0.0 0.0
0.0 0.01 0.0
0.0 0.0 0.01

0.01 0.0 0.0
0.0 0.01 0.0
0.0 0.0 0.01

0.01 0.0 0.0
0.0 0.01 0.0
0.0 0.0 0.01

0.01 0.0 0.0
0.0 0.01 0.0
0.0 0.0 0.01

0.01 0.0 0.0
0.0 0.01 0.0
0.0 0.0 0.01

0.01 0.0 0.0
0.0 0.01 0.0
0.0 0.0 0.01

0.01 0.0 0.0
0.0 0.01 0.0
0.0 0.0 0.01

0.01 0.0 0.0
0.0 0.01 0.0
0.0 0.0 0.01

0.01 0.0 0.0
0.0 0.01 0.0
0.0 0.0 0.01

0.01 0.0 0.0
0.0 0.01 0.0
0.0 0.0 0.01

0.01 0.0 0.0
0.0 0.01 0.0
0.0 0.0 0.01

0.01 0.0 0.0
0.0 0.01 0.0
0.0 0.0 0.01

0.01 0.0 0.0
0.0 0.01 0.0
0.0 0.0 0.01

0.01 0.0 0.0
0.0 0.01 0.0
0.0 0.0 0.01

0.01 0.0 0.0
0.0 0.01 0.0
0.0 0.0 0.01

0.01 0.0 0.0
0.0 0.01 0.0
0.0 0.0 0.01

0.01 0.0 0.0
0.0 0.01 0.0
0.0 0.0 0.01

0.01 0.0 0.0
0.0 0.01 0.0
0.0 0.0 0.01

0.01 0.0 0.0
0.0 0.01 0.0
0.0 0.0 0.01

0.01 0.0 0.0
0.0 0.01 0.0
0.0 0.0 0.01

0.01 0.0 0.0
0.0 0.01 0.0
0.0 0.0 0.01

0.01 0.0 0.0
0.0 0.01 0.0
0.0 0.0 0.01

0.01 0.0 0.0
0.0 0.01 0.0
0.0 0.0 0.01

0.01 0.0 0.0
0.0 0.01 0.0
0.0 0.0 0.01

0.01 0.0 0.0
0.0 0.01 0.0
0.0 0.0 0.01

0.01 0.0 0.0
0.0 0.01 0.0
0.0 0.0 0.01

0.01 0.0 0.0
0.0 0.01 0.0
0.0 0.0 0.01

0.01 0.0 0.0
0.0 0.01 0.0
0.0 0.0 0.01

0.01 0.0 0.0
0.0 0.01 0.0
0.0 0.0 0.01

0.01 0.0 0.0
0.0 0.01 0.0
0.0 0.0 0.01

0.01 0.0 0.0
0.0 0.01 0.0
0.0 0.0 0.01

0.01 0.0 0.0
0.0 0.01 0.0
0.0 0.0 0.01

0.01 0.0 0.0
0.0 0.01 0.0
0.0 0.0 0.01

0.01 0.0 0.0
0.0 0.01 0.0
0.0 0.0 0.01

0.01 0.0 0.0
0.0 0.01 0.0
0.0 0.0 0.01

0.01 0.0 0.0
0.0 0.01 0.0
0.0 0.0 0.01

0.01 0.0 0.0
0.0 0.01 0.0
0.0 0.0 0.01

0.01 0.0 0.0
0.0 0.01 0.0
0.0 0.0 0.01

0.01 0.0 0.0
0.0 0.01 0.0
0.0 0.0 0.01

0.01 0.0 0.0
0.0 0.01 0.0
0.0 0.0 0.01

0.01 0.0 0.0
0.0 0.01 0.0
0.0 0.0 0.01

0.01 0.0 0.0
0.0 0.01 0.0
0.0 0.0 0.01

0.01 0.0 0.0
0.0 0.01 0.0
0.0 0.0 0.01

0.01 0.0 0.0
0.0 0.01 0.0
0.0 0.0 0.01

0.01 0.0 0.0
0.0 0.01 0.0
0.0 0.0 0.01

0.01 0.0 0.0
0.0 0.01 0.0
0.0 0.0 0.01

0.01 0.0 0.0
0.0 0.01 0.0
0.0 0.0 0.01

0.01 0.0 0.0
0.0 0.01 0.0
0.0 0.0 0.01

0.01 0.0 0.0
0.0 0.01 0.0
0.0 0.0 0.01

0.01 0.0 0.0
0.0 0.01 0.0
0.0 0.0 0.01

0.01 0.0 0.0
0.0 0.01 0.0
0.0 0.0 0.01

0.01 0.0 0.0
0.0 0.01 0.0
0.0 0.0 0.01

0.01 0.0 0.0
0.0 0.01 0.0
0.0 0.0 0.01

0.01 0.0 0.0
0.0 0.01 0.0
0.0 0.0 0.01

0.01 0.0 0.0
0.0 0.01 0.0
0.0 0.0 0.01

0.01 0.0 0.0
0.0 0.01 0.0
0.0 0.0 0.01

0.01 0.0 0.0
0.0 0.01 0.0
0.0 0.0 0.01

0.01 0.0 0.0
0.0 0.01 0.0
0.0 0.0 0.01

0.01 0.0 0.0
0.0 0.01 0.0
0.0 0.0 0.01

0.01 0.0 0.0
0.0 0.01 0.0
0.0 0.0 0.01

0.01 0.0 0.0
0.0 0.01 0.0
0.0 0.0 0.01

0.01 0.0 0.0
0.0 0.01 0.0
0.0 0.0 0.01

0.01 0.0 0.0
0.0 0.01 0.0
0.0 0.0 0.01

0.01 0.0 0.0
0.0 0.01 0.0
0.0 0.0 0.01

0.01 0.0 0.0
0.0 0.01 0.0
0.0 0.0 0.01

0.01 0.0 0.0
0.0 0.01 0.0
0.0 0.0 0.01

0.01 0.0 0.0
0.0 0.01 0.0
0.0 0.0 0.01

0.01 0.0 0.0
0.0 0.01 0.0
0.0 0.0 0.01

0.01 0.0 0.0
0.0 0.01 0.0
0.0 0.0 0.01

0.01 0.0 0.0
0.0 0.01 0.0
0.0 0.0 0.01

0.01 0.0 0.0
0.0 0.01 0.0
0.0 0.0 0.01

0.01 0.0 0.0
0.0 0.01 0.0
0.0 0.0 0.01

0.01 0.0 0.0
0.0 0.01 0.0
0.0 0.0 0.01

0.01 0.0 0.0
0.0 0.01 0.0
0.0 0.0 0.01

0.01 0.0 0.0
0.0 0.01 0.0
0.0 0.0 0.01

0.01 0.0 0.0
0.0 0.01 0.0
0.0 0.0 0.01

0.01 0.0 0.0
0.0 0.01 0.0
0.0 0.0 0.01

0.01 0.0 0.0
0.0 0.01 0.0
0.0 0.0 0.01

0.01 0.0 0.0
0.0 0.01 0.0
0.0 0.0 0.01

0.01 0.0 0.0
0.0 0.01 0.0
0.0 0.0 0.01

0.01 0.0 0.0
0.0 0.01 0.0
0.0 0.0 0.01

0.01 0.0 0.0
0.0 0.01 0.0
0.0 0.0 0.01

0.01 0.0 0.0
0.0 0.01 0.0
0.0 0.0 0.01

0.01 0.0 0.0
0.0 0.01 0.0
0.0 0.0 0.01

0.01 0.0 0.0
0.0 0.01 0.0
0.0 0.0 0.01

0.01 0.0 0.0
0.0 0.01 0.0
0.0 0.0 0.01

0.01 0.0 0.0
0.0 0.01 0.0
0.0 0.0 0.01

0.01 0.0 0.0
0.0 0.01 0.0
0.0 0.0 0.01

0.01 0.0 0.0
0.0 0.01 0.0
0.0 0.0 0.01

0.01 0.0 0.0
0.0 0.01 0.0
0.0 0.0 0.01

0.01 0.0 0.0
0.0 0.01 0.0
0.0 0.0 0.01

0.01 0.0 0.0
0.0 0.01 0.0
0.0 0.0 0.01

0.01 0.0 0.0
0.0 0.01 0.0
0.0 0.0 0.01

0.01 0.0 0.0
0.0 0.01 0.0
0.0 0.0 0.01

0.01 0.0 0.0
0.0 0.01 0.0
0.0 0.0 0.01

0.01 0.0 0.0
0.0 0.01 0.0
0.0 0.0 0.01

0.01 0.0 0.0
0.0 0.01 0.0
0.0 0.0 0.01

0.01 0.0 0.0
0.0 0.01 0.0
0.0 0.0 0.01

0.01 0.0 0.0
0.0 0.01 0.0
0.0 0.0 0.01

0.01 0.0 0.0
0.0 0.01 0.0
0.0 0.0 0.01

0.01 0.0 0.0
0.0 0.01 0.0
0.0 0.0 0.01

0.01 0.0 0.0
0.0 0.01 0.0
0.0 0.0 0.01

0.01 0.0 0.0
0.0 0.01 0.0
0.0 0.0 0.01

0.01 0.0 0.0
0.0 0.01 0.0
0.0 0.0 0.01

0.01 0.0 0.0
0.0 0.01 0.0
0.0 0.0 0.01

0.01 0.0 0.0
0.0 0.01 0.0
0.0 0.0 0.01

0.01 0.0 0.0
0.0 0.01 0.0
0.0 0.0 0.01

0.01 0.0 0.0
0.0 0.01 0.0
0.0 0.0 0.01

0.01 0.0 0.0
0.0 0.01 0.0
0.0 0.0 0.01

0.01 0.0 0.0
0.0 0.01 0.0
0.0 0.0 0.01

0.01 0.0 0.0
0.0 0.01 0.0
0.0 0.0 0.01

0.01 0.0 0.0
0.0 0.01 0.0
0.0 0.0 0.01

0.01 0.0 0.0
0.0 0.01 0.0
0.0 0.0 0.01

0.01 0.0 0.0
0.0 0.01 0.0
0.0 0.0 0.01

0.01 0.0 0.0
0.0 0.01 0.0
0.0 0.0 0.01

0.01 0.0 0.0
0.0 0.01 0.0
0.0 0.0 0.01

0.01 0.0 0.0
0.0 0.01 0.0
0.0 0.0 0.01

0.01 0.0 0.0
0.0 0.01 0.0
0.0 0.0 0.01

0.01 0.0 0.0
0.0 0.01 0.0
0.0 0.0 0.01

0.01 0.0 0.0
0.0 0.01 0.0
0.0 0.0 0.01

0.01 0.0 0.0
0.0 0.01 0.0
0.0 0.0 0.01

0.01 0.0 0.0
0.0 0.01 0.0
0.0 0.0 0.01

0.01 0.0 0.0
0.0 0.01 0.0
0.0 0.0 0.01

0.01 0.0 0.0
0.0 0.01 0.0
0.0 0.0 0.01

0.01 0.0 0.0
0.0 0.01 0.0
0.0 0.0 0.01

0.01 0.0 0.0
0.0 0.01 0.0
0.0 0.0 0.01

0.01 0.0 0.0
0.0 0.01 0.0
0.0 0.0 0.01

0.01 0.0 0.0
0.0 0.01 0.0
0.0 0.0 0.01

0.01 0.0 0.0
0.0 0.01 0.0
0.0 0.0 0.01

0.01 0.0 0.0
0.0 0.01 0.0
0.0 0.0 0.01

0.01 0.0 0.0
0.0 0.01 0.0
0.0 0.0 0.01

0.01 0.0 0.0
0.0 0.01 0.0
0.0 0.0 0.01

0.01 0.0 0.0
0.0 0.01 0.0
0.0 0.0 0.01

0.01 0.0 0.0
0.0 0.01 0.0
0.0 0.0 0.01

0.01 0.0 0.0
0.0 0.01 0.0
0.0 0.0 0.01

0.01 0.0 0.0
0.0 0.01 0.0
0.0 0.0 0.01

0.01 0.0 0.0
0.0 0.01 0.0
0.0 0.0 0.01

0.01 0.0 0.0
0.0 0.01 0.0
0.0 0.0 0.01

0.01 0.0 0.0
0.0 0.01 0.0
0.0 0.0 0.01

0.01 0.0 0.0
0.0 0.01 0.0
0.0 0.0 0.01

0.01 0.0 0.0
0.0 0.01 0.0
0.0 0.0 0.01

0.01 0.0 0.0
0.0 0.01 0.0
0.0 0.0 0.01

0.01 0.0 0.0
0.0 0.01 0.0
0.0 0.0 0.01

0.01 0.0 0.0
0.0 0.01 0.0
0.0 0.0 0.01

0.01 0.0 0.0
0.0 0.01 0.0
0.0 0.0 0.01

0.01 0.0 0.0
0.0 0.01 0.0
0.0 0.0 0.01

0.01 0.0 0.0
0.0 0.01 0.0
0.0 0.0 0.01

0.01 0.0 0.0
0.0 0.01 0.0
0.0 0.0 0.01

0.01 0.0 0.0
0.0 0.01 0.0
0.0 0.0 0.01

0.01 0.0 0.0
0.0 0.01 0.0
0.0 0.0 0.01

0.01 0.0 0.0
0.0 0.01 0.0
0.0 0.0 0.01

0.01 0.0 0.0
0.0 0.01 0.0
0.0 0.0 0.01

0.01 0.0 0.0
0.0 0.01 0.0
0.0 0.0 0.01

0.01 0.0 0.0
0.0 0.01 0.0
0.0 0.0 0.01

0.01 0.0 0.0
0.0 0.01 0.0
0.0 0.0 0.01

0.01 0.0 0.0
0.0 0.01 0.0
0.0 0.0 0.01

0.01 0.0 0.0
0.0 0.01 0.0
0.0 0.0 0.01

0.01 0.0 0.0
0.0 0.01 0.0
0.0 0.0 0.01

0.01 0.0 0.0
0.0 0.01 0.0
0.0 0.0 0.01

0.01 0.0 0.0
0.0 0.01 0.0
0.0 0.0 0.01

0.01 0.0 0.0
0.0 0.01 0.0
0.0 0.0 0.01

0.01 0.0 0.0
0.0 0.01 0.0
0.0 0.0 0.01

0.01 0.0 0.0
0.0 0.01 0.0
0.0 0.0 0.01

0.01 0.0 0.0
0.0 0.01 0.0
0.0 0.0 0.01

0.01 0.0 0.0
0.0 0.01 0.0
0.0 0.0 0.01

0.01 0.0 0.0
0.0 0.01 0.0
0.0 0.0 0.01

0.01 0.0 0.0
0.0 0.01 0.0
0.0 0.0 0.01

0.01 0.0 0.0
0.0 0.01 0.0
0.0 0.0 0.01

0.01 0.0 0.0
0.0 0.01 0.0
0.0 0.0 0.01

0.01 0.0 0.0
0.0 0.01 0.0
0.0 0.0 0.01

0.01 0.0 0.0
0.0 0.01 0.0
0.0 0.0 0.01

0.01 0.0 0.0
0.0 0.01 0.0
0.0 0.0 0.01

0.01 0.0 0.0
0.0 0.01 0.0
0.0 0.0 0.01

0.01 0.0 0.0
0.0 0.01 0.0
0.0 0.0 0.01

0.01 0.0 0.0
0.0 0.01 0.0
0.0 0.0 0.01

0.01 0.0 0.0
0.0 0.01 0.0
0.0 0.0 0.01

0.01 0.0 0.0
0.0 0.01 0.0
0.0 0.0 0.01

0.01 0.0 0.0
0.0 0.01 0.0
0.0 0.0 0.01

0.01 0.0 0.0
0.0 0.01 0.0
0.0 0.0 0.01

0.01 0.0 0.0
0.0 0.01 0.0
0.0 0.0 0.01

0.01 0.0 0.0
0.0 0.01 0.0
0.0 0.0 0.01

0.01 0.0 0.0
0.0 0.01 0.0
0.0 0.0 0.01

0.01 0.0 0.0
0.0 0.01 0.0
0.0 0.0 0.01

0.01 0.0 0.0
0.0 0.01 0.0
0.0 0.0 0.01

0.01 0.0 0.0
0.0 0.01 0.0
0.0 0.0 0.01

0.01 0.0 0.0
0.0 0.01 0.0
0.0 0.0 0.01

0.01 0.0 0.0
0.0 0.01 0.0
0.0 0.0 0.01

0.01 0.0 0.0
0.0 0.01 0.0
0.0 0.0 0.01

0.01 0.0 0.0
0.0 0.01 0.0
0.0 0.0 0.01

0.01 0.0 0.0
0.0 0.01 0.0
0.0 0.0 0.01

0.01 0.0 0.0
0.0 0.01 0.0
0.0 0.0 0.01

0.01 0.0 0.0
0.0 0.01 0.0
0.0 0.0 0.01

0.01 0.0 0.0
0.0 0.01 0.0
0.0 0.0 0.01

0.01 0.0 0.0
0.0 0.01 0.0
0.0 0.0 0.01

0.01 0.0 0.0
0.0 0.01 0.0
0.0 0.0 0.01

0.01 0.0 0.0
0.0 0.01 0.0
0.0 0.0 0.01

0.01 0.0 0.0
0.0 0.01 0.0
0.0 0.0 0.01

0.01 0.0 0.0
0.0 0.01 0.0
0.0 0.0 0.01

0.01 0.0 0.0
0.0 0.01 0.0
0.0 0.0 0.01

0.01 0.0 0.0
0.0 0.01 0.0
0.0 0.0 0.01

0.01 0.0 0.0
0.0 0.01 0.0
0.0 0.0 0.01

0.01 0.0 0.0
0.0 0.01 0.0
0.0 0.0 0.01

0.01 0.0 0.0
0.0 0.01 0.0
0.0 0.0 0.01

0.01 0.0 0.0
0.0 0.01 0.0
0.0 0.0 0.01

0.01 0.0 0.0
0.0 0.01 0.0
0.0 0.0 0.01

0.01 0.0 0.0
0.0 0.01 0.0
0.0 0.0 0.01

0.01 0.0 0.0
0.0 0.01 0.0
0.0 0.0 0.01

0.01 0.0 0.0
0.0 0.01 0.0
0.0 0.0 0.01

0.01 0.0 0.0
0.0 0.01 0.0
0.0 0.0 0.01

0.01 0.0 0.0
0.0 0.01 0.0
0.0 0.0 0.01

0.01 0.0 0.0
0.0 0.01 0.0
0.0 0.0 0.01

0.01 0.0 0.0
0.0 0.01 0.0
0.0 0.0 0.01

0.01 0.0 0.0
0.0 0.01 0.0
0.0 0.0 0.01

0.01 0.0 0.0
0.0 0.01 0.0
0.0 0.0 0.01

0.01 0.0 0.0
0.0 0.01 0.0
0.0 0.0 0.01

0.01 0.0 0.0
0.0 0.01 0.0
0.0 0.0 0.01

0.01 0.0 0.0
0.0 0.01 0.0
0.0 0.0 0.01

0.01 0.0 0.0
0.0 0.01 0.0
0.0 0.0 0.01

0.01 0.0 0.0
0.0 0.01 0.0
0.0 0.0 0.01

0.01 0.0 0.0
0.0 0.01 0.0
0.0 0.0 0.01

0.01 0.0 0.0
0.0 0.01 0.0
0.0 0.0 0.01

0.01 0.0 0.0
0.0 0.01 0.0
0.0 0.0 0.01

0.01 0.0 0.0
0.0 0.01 0.0
0.0 0.0 0.01

0.01 0.0 0.0
0.0 0.01 0.0
0.0 0.0 0.01

0.01 0.0 0.0
0.0 0.01 0.0
0.0 0.0 0.01

0.01 0.0 0.0
0.0 0.01 0.0
0.0 0.0 0.01

0.01 0.0 0.0
0.0 0.01 0.0
0.0 0.0 0.01

0.01 0.0 0.0
0.0 0.01 0.0
0.0 0.0 0.01

0.01 0.0 0.0
0.0 0.01 0.0
0.0 0.0 0.01

0.01 0.0 0.0
0.0 0.01 0.0
0.0 0.0 0.01

0.01 0.0 0.0
0.0 0.01 0.0
0.0 0.0 0.01

0.01 0.0 0.0
0.0 0.01 0.0
0.0 0.0 0.01

0.01 0.0 0.0
0.0 0.01 0.0
0.0 0.0 0.01

0.01 0.0 0.0
0.0 0.01 0.0
0.0 0.0 0.01

0.01 0.0 0.0
0.0 0.01 0.0
0.0 0.0 0.01

0.01 0.0 0.0
0.0 0.01 0.0
0.0 0.0 0.01

0.01 0.0 0.0
0.0 0.01 0.0
0.0 0.0 0.01

0.01 0.0 0.0
0.0 0.01 0.0
0.0 0.0 0.01

0.01 0.0 0.0
0.0 0.01 0.0
0.0 0.0 0.01

0.01 0.0 0.0
0.0 0.01 0.0
0.0 0.0 0.01

0.01 0.0 0.0
0.0 0.01 0.0
0.0 0.0 0.01

0.01 0.0 0.0
0.0 0.01 0.0
0.0 0.0 0.01

0.01 0.0 0.0
0.0 0.01 0.0
0.0 0.0 0.01

0.01 0.0 0.0
0.0 0.01 0.0
0.0 0.0 0.01

0.01 0.0 0.0
0.0 0.01 0.0
0.0 0.0 0.01

0.01 0.0 0.0
0.0 0.01 0.0
0.0 0.0 0.01

0.01 0.0 0.0
0.0 0.01 0.0
0.0 0.0 0.01

0.01 0.0 0.0
0.0 0.01 0.0
0.0 0.0 0.01

0.01 0.0 0.0
0.0 0.01 0.0
0.0 0.0 0.01

0.01 0.0 0.0
0.0 0.01 0.0
0.0 0.0 0.01

0.01 0.0 0.0
0.0 0.01 0.0
0.0 0.0 0.01

0.01 0.0 0.0
0.0 0.01 0.0
0.0 0.0 0.01

0.01 0.0 0.0
0.0 0.01 0.0
0.0 0.0 0.01

0.01 0.0 0.0
0.0 0.01 0.0
0.0 0.0 0.01

0.01 0.0 0.0
0.0 0.01 0.0
0.0 0.0 0.01

0.01 0.0 0.0
0.0 0.01 0.0
0.0 0.0 0.01

0.01 0.0 0.0
0.0 0.01 0.0
0.0 0.0 0.01

0.01 0.0 0.0
0.0 0.01 0.0
0.0 0.0 0.01

0.01 0.0 0.0
0.0 0.01 0.0
0.0 0.0 0.01

0.01 0.0 0.0
0.0 0.01 0.0
0.0 0.0 0.01

0.01 0.0 0.0
0.0 0.01 0.0
0.0 0.0 0.01

0.01 0.0 0.0
0.0 0.01 0.0
0.0 0.0 0.01

0.01 0.0 0.0
0.0 0.01 0.0
0.0 0.0 0.01

0.01 0.0 0.0
0.0 0.01 0.0
0.0 0.0 0.01

0.01 0.0 0.0
0.0 0.01 0.0
0.0 0.0 0.01

0.01 0.0 0.0
0.0 0.01 0.0
0.0 0.0 0.01

0.01 0.0 0.0
0.0 0.01 0.0
0.0 0.0 0.01

0.01 0.0 0.0
0.0 0.01 0.0
0.0 0.0 0.01

0.01 0.0 0.0
0.0 0.01 0.0
0.0 0.0 0.01

0.01 0.0 0.0
0.0 0.01 0.0
0.0 0.0 0.01

0.01 0.0 0.0
0.0 0.01 0.0
0.0 0.0 0.01

0.01 0.0 0.0
0.0 0.01 0.0
0.0 0.0 0.01

0.01 0.0 0.0
0.0 0.01 0.0
0.0 0.0 0.01

0.01 0.0 0.0
0.0 0.01 0.0
0.0 0.0 0.01

0.01 0.0 0.0
0.0 0.01 0.0
0.0 0.0 0.01

0.01 0.0 0.0
0.0 0.01 0.0
0.0 0.0 0.01

0.01 0.0 0.0
0.0 0.01 0.0
0.0 0.0 0.01

0.01 0.0 0.0
0.0 0.01 0.0
0.0 0.0 0.01

0.01 0.0 0.0
0.0 0.01 0.0
0.0 0.0 0.01

0.01 0.0 0.0
0.0 0.01 0.0
0.0 0.0 0.01

0.01 0.0 0.0
0.0 0.01 0.0
0.0 0.0 0.01

0.01 0.0 0.0
0.0 0.01 0.0
0.0 0.0 0.01

0.01 0.0 0.0
0.0 0.01 0.0
0.0 0.0 0.01

0.01 0.0 0.0
0.0 0.01 0.0
0.0 0.0 0.01

0.01 0.0 0.0
0.0 0.01 0.0
0.0 0.0 0.01

0.01 0.0 0.0
0.0 0.01 0.0
0.0 0.0 0.01

0.01 0.0 0.0
0.0 0.01 0.0
0.0 0.0 0.01

0.01 0.0 0.0
0.0 0.01 0.0
0.0 0.0 0.01

0.01 0.0 0.0
0.0 0.01 0.0
0.0 0.0 0.01

0.01 0.0 0.0
0.0 0.01 0.0
0.0 0.0 0.01

0.01 0.0 0.0
0.0 0.01 0.0
0.0 0.0 0.01

0.01 0.0 0.0
0.0 0.01 0.0
0.0 0.0 0.01

0.01 0.0 0.0
0.0 0.01 0.0
0.0 0.0 0.01

0.01 0.0 0.0
0.0 0.01 0.0
0.0 0.0 0.01

0.01 0.0 0.0
0.0 0.01 0.0
0.0 0.0 0.01

0.01 0.0 0.0
0.0 0.01 0.0
0.0 0.0 0.01

0.01 0.0 0.0
0.0 0.01 0.0
0.0 0.0 0.01

0.01 0.0 0.0
0.0 0.01 0.0
0.0 0.0 0.01

0.01 0.0 0.0
0.0 0.01 0.0
0.0 0.0 0.01

0.01 0.0 0.0
0.0 0.01 0.0
0.0 0.0 0.01

0.01 0.0 0.0
0.0 0.01 0.0
0.0 0.0 0.01

0.01 0.0 0.0
0.0 0.01 0.0
0.0 0.0 0.01

0.01 0.0 0.0
0.0 0.01 0.0
0.0 0.0 0.01

0.01 0.0 0.0
0.0 0.01 0.0
0.0 0.0 0.01

0.01 0.0 0.0
0.0 0.01 0.0
0.0 0.0 0.01

0.01 0.0 0.0
0.0 0.01 0.0
0.0 0.0 0.01

0.01 0.0 0.0
0.0 0.01 0.0
0.0 0.0 0.01

0.01 0.0 0.0
0.0 0.01 0.0
0.0 0.0 0.01

0.01 0.0 0.0
0.0 0.01 0.0
0.0 0.0 0.01

0.01 0.0 0.0
0.0 0.01 0.0
0.0 0.0 0.01

0.01 0.0 0.0
0.0 0.01 0.0
0.0 0.0 0.01

0.01 0.0 0.0
0.0 0.01 0.0
0.0 0.0 0.01

0.01 0.0 0.0
0.0 0.01 0.0
0.0 0.0 0.01

0.01 0.0 0.0
0.0 0.01 0.0
0.0 0.0 0.01

0.01 0.0 0.0
0.0 0.01 0.0
0.0 0.0 0.01

0.01 0.0 0.0
0.0 0.01 0.0
0.0 0.0 0.01

0.01 0.0 0.0
0.0 0.01 0.0
0.0 0.0 0.01

0.01 0.0 0.0
0.0 0.01 0.0
0.0 0.0 0.01

0.01 0.0 0.0
0.0 0.01 0.0
0.0 0.0 0.01

0.01 0.0 0.0
0.0 0.01 0.0
0.0 0.0 0.01

0.01 0.0 0.0
0.0 0.01 0.0
0.0 0.0 0.01

0.01 0.0 0.0
0.0 0.01 0.0
0.0 0.0 0.01

0.01 0.0 0.0
0.0 0.01 0.0
0.0 0.0 0.01

0.01 0.0 0.0
0.0 0.01 0.0
0.0 0.0 0.01

0.01 0.0 0.0
0.0 0.01 0.0
0.0 0.0 0.01

0.01 0.0 0.0
0.0 0.01 0.0
0.0 0.0 0.01

0.01 0.0 0.0
0.0 0.01 0.0
0.0 0.0 0.01

0.01 0.0 0.0
0.0 0.01 0.0
0.0 0.0 0.01

0.01 0.0 0.0
0.0 0.01 0.0
0.0 0.0 0.01

0.01 0.0 0.0
0.0 0.01 0.0
0.0 0.0 0.01

0.01 0.0 0.0
0.0 0.01 0.0
0.0 0.0 0.01

0.01 0.0 0.0
0.0 0.01 0.0
0.0 0.0 0.01

0.01 0.0 0.0
0.0 0.01 0.0
0.0 0.0 0.01

0.01 0.0 0.0
0.0 0.01 0.0
0.0 0.0 0.01

0.01 0.0 0.0
0.0 0.01 0.0
0.0 0.0 0.01

0.01 0.0 0.0
0.0 0.01 0.0
0.0 0.0 0.01

0.01 0.0 0.0
0.0 0.01 0.0
0.0 0.0 0.01

0.01 0.0 0.0
0.0 0.01 0.0
0.0 0.0 0.01

0.01 0.0 0.0
0.0 0.01 0.0
0.0 0.0 0.01

0.01 0.0 0.0
0.0 0.01 0.0
0.0 0.0 0.01

0.01 0.0 0.0
0.0 0.01 0.0
0.0 0.0 0.01

0.01 0.0 0.0
0.0 0.01 0.0
0.0 0.0 0.01

0.01 0.0 0.0
0.0 0.01 0.0
0.0 0.0 0.01

0.01 0.0 0.0
0.0 0.01 0.0
0.0 0.0 0.01

0.01 0.0 0.0
0.0 0.01 0.0
0.0 0.0 0.01

0.01 0.0 0.0
0.0 0.01 0.0
0.0 0.0 0.01

0.01 0.0 0.0
0.0 0.01 0.0
0.0 0.0 0.01

0.01 0.0 0.0
0.0 0.01 0.0
0.0 0.0 0.01

0.01 0.0 0.0
0.0 0.01 0.0
0.0 0.0 0.01

0.01 0.0 0.0
0.0 0.01 0.0
0.0 0.0 0.01

0.01 0.0 0.0
0.0 0.01 0.0
0.0 0.0 0.01

0.01 0.0 0.0
0.0 0.01 0.0
0.0 0.0 0.01

0.01 0.0 0.0
0.0 0.01 0.0
0.0 0.0 0.01

0.01 0.0 0.0
0.0 0.01 0.0
0.0 0.0 0.01

0.01 0.0 0.0
0.0 0.01 0.0
0.0 0.0 0.01

0.01 0.0 0.0
0.0 0.01 0.0
0.0 0.0 0.01

0.01 0.0 0.0
0.0 0.01 0.0
0.0 0.0 0.01

0.01 0.0 0.0
0.0 0.01 0.0
0.0 0.0 0.01

0.01 0.0 0.0
0.0 0.01 0.0
0.0 0.0 0.01

0.01 0.0 0.0
0.0 0.01 0.0
0.0 0.0 0.01

0.01 0.0 0.0
0.0 0.01 0.0
0.0 0.0 0.01

0.01 0.0 0.0
0.0 0.01 0.0
0.0 0.0 0.01

0.01 0.0 0.0
0.0 0.01 0.0
0.0 0.0 0.01

0.01 0.0 0.0
0.0 0.01 0.0
0.0 0.0 0.01

0.01 0.0 0.0
0.0 0.01 0.0
0.0 0.0 0.01

0.01 0.0 0.0
0.0 0.01 0.0
0.0 0.0 0.01

0.01 0.0 0.0
0.0 0.01 0.0
0.0 0.0 0.01

0.01 0.0 0.0
0.0 0.01 0.0
0.0 0.0 0.01

0.01 0.0 0.0
0.0 0.01 0.0
0.0 0.0 0.01

0.01 0.0 0.0
0.0 0.01 0.0
0.0 0.0 0.01

0.01 0.0 0.0
0.0 0.01 0.0
0.0 0.0 0.01

0.01 0.0 0.0
0.0 0.01 0.0
0.0 0.0 0.01

0.01 0.0 0.0
0.0 0.01 0.0
0.0 0.0 0.01

0.01 0.0 0.0
0.0 0.01 0.0
0.0 0.0 0.01

0.01 0.0 0.0
0.0 0.01 0.0
0.0 0.0 0.01

0.01 0.0 0.0
0.0 0.01 0.0
0.0 0.0 0.01

0.01 0.0 0.0
0.0 0.01 0.0
0.0 0.0 0.01

0.01 0.0 0.0
0.0 0.01 0.0
0.0 0.0 0.01

0.01 0.0 0.0
0.0 0.01 0.0
0.0 0.0 0.01

0.01 0.0 0.0
0.0 0.01 0.0
0.0 0.0 0.01

0.01 0.0 0.0
0.0 0.01 0.0
0.0 0.0 0.01

0.01 0.0 0.0
0.0 0.01 0.0
0.0 0.0 0.01

0.01 0.0 0.0
0.0 0.01 0.0
0.0 0.0 0.01

0.01 0.0 0.0
0.0 0.01 0.0
0.0 0.0 0.01

0.01 0.0 0.0
0.0 0.01 0.0
0.0 0.0 0.01

0.01 0.0 0.0
0.0 0.01 0.0
0.0 0.0 0.01

0.01 0.0 0.0
0.0 0.01 0.0
0.0 0.0 0.01

0.01 0.0 0.0
0.0 0.01 0.0
0.0 0.0 0.01

0.01 0.0 0.0
0.0 0.01 0.0
0.0 0.0 0.01

0.01 0.0 0.0
0.0 0.01 0.0
0.0 0.0 0.01

0.01 0.0 0.0
0.0 0.01 0.0
0.0 0.0 0.01

0.01 0.0 0.0
0.0 0.01 0.0
0.0 0.0 0.01

0.01 0.0 0.0
0.0 0.01 0.0
0.0 0.0 0.01

0.01 0.0 0.0
0.0 0.01 0.0
0.0 0.0 0.01

0.01 0.0 0.0
0.0 0.01 0.0
0.0 0.0 0.01

0.01 0.0 0.0
0.0 0.01 0.0
0.0 0.0 0.01

0.01 0.0 0.0
0.0 0.01 0.0
0.0 0.0 0.01

0.01 0.0 0.0
0.0 0.01 0.0
0.0 0.0 0.01

0.01 0.0 0.0
0.0 0.01 0.0
0.0 0.0 0.01

0.01 0.0 0.0
0.0 0.01 0.0
0.0 0.0 0.01

0.01 0.0 0.0
0.0 0.01 0.0
0.0 0.0 0.01

0.01 0.0 0.0
0.0 0.01 0.0
0.0 0.0 0.01

0.01 0.0 0.0
0.0 0.01 0.0
0.0 0.0 0.01

0.01 0.0 0.0
0.0 0.01 0.0
0.0 0.0 0.01

0.01 0.0 0.0
0.0 0.01 0.0
0.0 0.0 0.01

0.01 0.0 0.0
0.0 0.01 0.0
0.0 0.0 0.01

0.01 0.0 0.0
0.0 0.01 0.0
0.0 0.0 0.01

0.01 0.0 0.0
0.0 0.01 0.0
0.0 0.0 0.01

0.01 0.0 0.0
0.0 0.01 0.0
0.0 0.0 0.01

0.01 0.0 0.0
0.0 0.01 0.0
0.0 0.0 0.01

0.01 0.0 0.0
0.0 0.01 0.0
0.0 0.0 0.01

0.01 0.0 0.0
0.0 0.01 0.0
0.0 0.0 0.01

0.01 0.0 0.0
0.0 0.01 0.0
0.0 0.0 0.01

0.01 0.0 0.0
0.0 0.01 0.0
0.0 0.0 0.01

0.01 0.0 0.0
0.0 0.01 0.0
0.0 0.0 0.01

0.01 0.0 0.0
0.0 0.01 0.0
0.0 0.0 0.01

0.01 0.0 0.0
0.0 0.01 0.0
0.0 0.0 0.01

0.01 0.0 0.0
0.0 0.01 0.0
0.0 0.0 0.01

0.01 0.0 0.0
0.0 0.01 0.0
0.0 0.0 0.01

0.01 0.0 0.0
0.0 0.01 0.0
0.0 0.0 0.01

0.01 0.0 0.0
0.0 0.01 0.0
0.0 0.0 0.01

0.01 0.0 0.0
0.0 0.01 0.0
0.0 0.0 0.01

0.01 0.0 0.0
0.0 0.01 0.0
0.0 0.0 0.01

0.01 0.0 0.0
0.0 0.01 0.0
0.0 0.0 0.01

0.01 0.0 0.0
0.0 0.01 0.0
0.0 0.0 0.01

0.01 0.0 0.0
0.0 0.01 0.0
0.0 0.0 0.01

0.01 0.0 0.0
0.0 0.01 0.0
0.0 0.0 0.01

0.01 0.0 0.0
0.0 0.01 0.0
0.0 0.0 0.01

0.01 0.0 0.0
0.0 0.01 0.0
0.0 0.0 0.01

0.01 0.0 0.0
0.0 0.01 0.0
0.0 0.0 0.01

0.01 0.0 0.0
0.0 0.01 0.0
0.0 0.0 0.01

0.01 0.0 0.0
0.0 0.01 0.0
0.0 0.0 0.01

0.01 0.0 0.0
0.0 0.01 0.0
0.0 0.0 0.01

0.01 0.0 0.0
0.0 0.01 0.0
0.0 0.0 0.01

0.01 0.0 0.0
0.0 0.01 0.0
0.0 0.0 0.01

0.01 0.0 0.0
0.0 0.01 0.0
0.0 0.0 0.01

0.01 0.0 0.0
0.0 0.01 0.0
0.0 0.0 0.01

0.01 0.0 0.0
0.0 0.01 0.0
0.0 0.0 0.01

0.01 0.0 0.0
0.0 0.01 0.0
0.0 0.0 0.01

0.01 0.0 0.0
0.0 0.01 0.0
0.0 0.0 0.01

0.01 0.0 0.0
0.0 0.01 0.0
0.0 0.0 0.01

0.01 0.0 0.0
0.0 0.01 0.0
0.0 0.0 0.01

0.01 0.0 0.0
0.0 0.01 0.0
0.0 0.0 0.01

0.01 0.0 0.0
0.0 0.01 0.0
0.0 0.0 0.01

0.01 0.0 0.0
0.0 0.01 0.0
0.0 0.0 0.01

0.01 0.0 0.0
0.0 0.01 0.0
0.0 0.0 0.01

0.01 0.0 0.0
0.0 0.01 0.0
0.0 0.0 0.01

0.01 0.0 0.0
0.0 0.01 0.0
0.0 0.0 0.01

0.01 0.0 0.0
0.0 0.01 0.0
0.0 0.0 0.01

0.01 0.0 0.0
0.0 0.01 0.0
0.0 0.0 0.01

0.01 0.0 0.0
0.0 0.01 0.0
0.0 0.0 0.01

0.01 0.0 0.0
0.0 0.01 0.0
0.0 0.0 0.01

0.01 0.0 0.0
0.0 0.01 0.0
0.0 0.0 0.01

0.01 0.0 0.0
0.0 0.01 0.0
0.0 0.0 0.01

0.01 0.0 0.0
0.0 0.01 0.0
0.0 0.0 0.01

0.01 0.0 0.0
0.0 0.01 0.0
0.0 0.0 0.01

0.01 0.0 0.0
0.0 0.01 0.0
0.0 0.0 0.01

0.01 0.0 0.0
0.0 0.01 0.0
0.0 0.0 0.01

0.01 0.0 0.0
0.0 0.01 0.0
0.0 0.0 0.01

0.01 0.0 0.0
0.0 0.01 0.0
0.0 0.0 0.01

0.01 0.0 0.0
0.0 0.01 0.0
0.0 0.0 0.01

0.01 0.0 0.0
0.0 0.01 0.0
0.0 0.0 0.01

0.01 0.0 0.0
0.0 0.01 0.0
0.0 0.0 0.01

0.01 0.0 0.0
0.0 0.01 0.0
0.0 0.0 0.01

0.01 0.0 0.0
0.0 0.01 0.0
0.0 0.0 0.01

0.01 0.0 0.0
0.0 0.01 0.0
0.0 0.0 0.01

0.01 0.0 0.0
0.0 0.01 0.0
0.0 0.0 0.01

0.01 0.0 0.0
0.0 0.01 0.0
0.0 0.0 0.01

0.01 0.0 0.0
0.0 0.01 0.0
0.0 0.0 0.01

0.01 0.0 0.0
0.0 0.01 0.0
0.0 0.0 0.01

0.01 0.0 0.0
0.0 0.01 0.0
0.0 0.0 0.01

0.01 0.0 0.0
0.0 0.01 0.0
0.0 0.0 0.01

0.01 0.0 0.0
0.0 0.01 0.0
0.0 0.0 0.01

0.01 0.0 0.0
0.0 0.01 0.0
0.0 0.0 0.01

0.01 0.0 0.0
0.0 0.01 0.0
0.0 0.0 0.01

0.01 0.0 0.0
0.0 0.01 0.0
0.0 0.0 0.01

0.01 0.0 0.0
0.0 0.01 0.0
0.0 0.0 0.01

0.01 0.0 0.0
0.0 0.01 0.0
0.0 0.0 0.01

0.01 0.0 0.0
0.0 0.01 0.0
0.0 0.0 0.01

0.01 0.0 0.0
0.0 0.01 0.0
0.0 0.0 0.01

0.01 0.0 0.0
0.0 0.01 0.0
0.0 0.0 0.01

0.01 0.0 0.0
0.0 0.01 0.0
0.0 0.0 0.01

0.01 0.0 0.0
0.0 0.01 0.0
0.0 0.0 0.01

0.01 0.0 0.0
0.0 0.01 0.0
0.0 0.0 0.01

0.01 0.0 0.0
0.0 0.01 0.0
0.0 0.0 0.01

0.01 0.0 0.0
0.0 0.01 0.0
0.0 0.0 0.01

0.01 0.0 0.0
0.0 0.01 0.0
0.0 0.0 0.01

0.01 0.0 0.0
0.0 0.01 0.0
0.0 0.0 0.01

0.01 0.0 0.0
0.0 0.01 0.0
0.0 0.0 0.01

0.01 0.0 0.0
0.0 0.01 0.0
0.0 0.0 0.01

0.01 0.0 0.0
0.0 0.01 0.0
0.0 0.0 0.01

0.01 0.0 0.0
0.0 0.01 0.0
0.0 0.0 0.01

0.01 0.0 0.0
0.0 0.01 0.0
0.0 0.0 0.01

0.01 0.0 0.0
0.0 0.01 0.0
0.0 0.0 0.01

0.01 0.0 0.0
0.0 0.01 0.0
0.0 0.0 0.01

0.01 0.0 0.0
0.0 0.01 0.0
0.0 0.0 0.01

0.01 0.0 0.0
0.0 0.01 0.0
0.0 0.0 0.01

0.01 0.0 0.0
0.0 0.01 0.0
0.0 0.0 0.01

0.01 0.0 0.0
0.0 0.01 0.0
0.0 0.0 0.01

0.01 0.0 0.0
0.0 0.01 0.0
0.0 0.0 0.01

0.01 0.0 0.0
0.0 0.01 0.0
0.0 0.0 0.01

0.01 0.0 0.0
0.0 0.01 0.0
0.0 0.0 0.01

0.01 0.0 0.0
0.0 0.01 0.0
0.0 0.0 0.01

0.01 0.0 0.0
0.0 0.01 0.0
0.0 0.0 0.01

0.01 0.0 0.0
0.0 0.01 0.0
0.0 0.0 0.01

0.01 0.0 0.0
0.0 0.01 0.0
0.0 0.0 0.01

0.01 0.0 0.0
0.0 0.01 0.0
0.0 0.0 0.01

0.01 0.0 0.0
0.0 0.01 0.0
0.0 0.0 0.01

0.01 0.0 0.0
0.0 0.01 0.0
0.0 0.0 0.01

0.01 0.0 0.0
0.0 0.01 0.0
0.0 0.0 0.01

0.01 0.0 0.0
0.0 0.01 0.0
0.0 0.0 0.01

0.01 0.0 0.0
0.0 0.01 0.0
0.0 0.0 0.01

0.01 0.0 0.0
0.0 0.01 0.0
0.0 0.0 0.01

0.01 0.0 0.0
0.0 0.01 0.0
0.0 0.0 0.01

0.01 0.0 0.0
0.0 0.01 0.0
0.0 0.0 0.01

0.01 0.0 0.0
0.0 0.01 0.0
0.0 0.0 0.01

0.01 0.0 0.0
0.0 0.01 0.0
0.0 0.0 0.01

0.01 0.0 0.0
0.0 0.01 0.0
0.0 0.0 0.01

0.01 0.0 0.0
0.0 0.01 0.0
0.0 0.0 0.01

0.01 0.0 0.0
0.0 0.01 0.0
0.0 0.0 0.01

0.01 0.0 0.0
0.0 0.01 0.0
0.0 0.0 0.01

0.01 0.0 0.0
0.0 0.01 0.0
0.0 0.0 0.01

0.01 0.0 0.0
0.0 0.01 0.0
0.0 0.0 0.01

0.01 0.0 0.0
0.0 0.01 0.0
0.0 0.0 0.01

0.01 0.0 0.0
0.0 0.01 0.0
0.0 0.0 0.01

0.01 0.0 0.0
0.0 0.01 0.0
0.0 0.0 0.01

0.01 0.0 0.0
0.0 0.01 0.0
0.0 0.0 0.01

0.01 0.0 0.0
0.0 0.01 0.0
0.0 0.0 0.01

0.01 0.0 0.0
0.0 0.01 0.0
0.0 0.0 0.01

0.01 0.0 0.0
0.0 0.01 0.0
0.0 0.0 0.01

0.01 0.0 0.0
0.0 0.01 0.0
0.0 0.0 0.01

0.01 0.0 0.0
0.0 0.01 0.0
0.0 0.0 0.01

0.01 0.0 0.0
0.0 0.01 0.0
0.0 0.0 0.01

0.01 0.0 0.0
0.0 0.01 0.0
0.0 0.0 0.01

0.01 0.0 0.0
0.0 0.01 0.0
0.0 0.0 0.01

0.01 0.0 0.0
0.0 0.01 0.0
0.0 0.0 0.01

0.01 0.0 0.0
0.0 0.01 0.0
0.0 0.0 0.01

0.01 0.0 0.0
0.0 0.01 0.0
0.0 0.0 0.01

0.01 0.0 0.0
0.0 0.01 0.0
0.0 0.0 0.01

0.01 0.0 0.0
0.0 0.01 0.0
0.0 0.0 0.01

0.01 0.0 0.0
0.0 0.01 0.0
0.0 0.0 0.01

0.01 0.0 0.0
0.0 0.01 0.0
0.0 0.0 0.01

0.01 0.0 0.0
0.0 0.01 0.0
0.0 0.0 0.01

0.01 0.0 0.0
0.0 0.01 0.0
0.0 0.0 0.01

0.01 0.0 0.0
0.0 0.01 0.0
0.0 0.0 0.01

0.01 0.0 0.0
0.0 0.01 0.0
0.0 0.0 0.01

0.01 0.0 0.0
0.0 0.01 0.0
0.0 0.0 0.01

0.01 0.0 0.0
0.0 0.01 0.0
0.0 0.0 0.01

0.01 0.0 0.0
0.0 0.01 0.0
0.0 0.0 0.01

0.01 0.0 0.0
0.0 0.01 0.0
0.0 0.0 0.01

0.01 0.0 0.0
0.0 0.01 0.0
0.0 0.0 0.01

0.01 0.0 0.0
0.0 0.01 0.0
0.0 0.0 0.01

0.01 0.0 0.0
0.0 0.01 0.0
0.0 0.0 0.01

0.01 0.0 0.0
0.0 0.01 0.0
0.0 0.0 0.01

0.01 0.0 0.0
0.0 0.01 0.0
0.0 0.0 0.01

0.01 0.0 0.0
0.0 0.01 0.0
0.0 0.0 0.01

0.01 0.0 0.0
0.0 0.01 0.0
0.0 0.0 0.01

0.01 0.0 0.0
0.0 0.01 0.0
0.0 0.0 0.01

0.01 0.0 0.0
0.0 0.01 0.0
0.0 0.0 0.01

0.01 0.0 0.0
0.0 0.01 0.0
0.0 0.0 0.01

0.01 0.0 0.0
0.0 0.01 0.0
0.0 0.0 0.01

0.01 0.0 0.0
0.0 0.01 0.0
0.0 0.0 0.01

0.01 0.0 0.0
0.0 0.01 0.0
0.0 0.0 0.01

0.01 0.0 0.0
0.0 0.01 0.0
0.0 0.0 0.01

0.01 0.0 0.0
0.0 0.01 0.0
0.0 0.0 0.01

0.01 0.0 0.0
0.0 0.01 0.0
0.0 0.0 0.01

0.01 0.0 0.0
0.0 0.01 0.0
0.0 0.0 0.01

0.01 0.0 0.0
0.0 0.01 0.0
0.0 0.0 0.01

0.01 0.0 0.0
0.0 0.01 0.0
0.0 0.0 0.01

0.01 0.0 0.0
0.0 0.01 0.0
0.0 0.0 0.01

0.01 0.0 0.0
0.0 0.01 0.0
0.0 0.0 0.01

0.01 0.0 0.0
0.0 0.01 0.0
0.0 0.0 0.01

0.01 0.0 0.0
0.0 0.01 0.0
0.0 0.0 0.01

0.01 0.0 0.0
0.0 0.01 0.0
0.0 0.0 0.01

0.01 0.0 0.0
0.0 0.01 0.0
0.0 0.0 0.01

0.01 0.0 0.0
0.0 0.01 0.0
0.0 0.0 0.01

0.01 0.0 0.0
0.0 0.01 0.0
0.0 0.0 0.01

0.01 0.0 0.0
0.0 0.01 0.0
0.0 0.0 0.01

0.01 0.0 0.0
0.0 0.01 0.0
0.0 0.0 0.01

0.01 0.0 0.0
0.0 0.01 0.0
0.0 0.0 0.01

0.01 0.0 0.0
0.0 0.01 0.0
0.0 0.0 0.01

0.01 0.0 0.0
0.0 0.01 0.0
0.0 0.0 0.01

0.01 0.0 0.0
0.0 0.01 0.0
0.0 0.0 0.01

0.01 0.0 0.0
0.0 0.01 0.0
0.0 0.0 0.01

0.01 0.0 0.0
0.0 0.01 0.0
0.0 0.0 0.01

0.01 0.0 0.0
0.0 0.01 0.0
0.0 0.0 0.01

0.01 0.0 0.0
0.0 0.01 0.0
0.0 0.0 0.01

0.01 0.0 0.0
0.0 0.01 0.0
0.0 0.0 0.01

0.01 0.0 0.0
0.0 0.01 0.0
0.0 0.0 0.01

0.01 0.0 0.0
0.0 0.01 0.0
0.0 0.0 0.01

0.01 0.0 0.0
0.0 0.01 0.0
0.0 0.0 0.01

0.01 0.0 0.0
0.0 0.01 0.0
0.0 0.0 0.01

0.01 0.0 0.0
0.0 0.01 0.0
0.0 0.0 0.01

0.01 0.0 0.0
0.0 0.01 0.0
0.0 0.0 0.01

0.01 0.0 0.0
0.0 0.01 0.0
0.0 0.0 0.01

0.01 0.0 0.0
0.0 0.01 0.0
0.0 0.0 0.01

0.01 0.0 0.0
0.0 0.01 0.0
0.0 0.0 0.01

0.01 0.0 0.0
0.0 0.01 0.0
0.0 0.0 0.01

0.01 0.0 0.0
0.0 0.01 0.0
0.0 0.0 0.01

0.01 0.0 0.0
0.0 0.01 0.0
0.0 0.0 0.01

0.01 0.0 0.0
0.0 0.01 0.0
0.0 0.0 0.01

0.01 0.0 0.0
0.0 0.01 0.0
0.0 0.0 0.01

0.01 0.0 0.0
0.0 0.01 0.0
0.0 0.0 0.01

0.01 0.0 0.0
0.0 0.01 0.0
0.0 0.0 0.01

0.01 0.0 0.0
0.0 0.01 0.0
0.0 0.0 0.01

0.01 0.0 0.0
0.0 0.01 0.0
0.0 0.0 0.01

0.01 0.0 0.0
0.0 0.01 0.0
0.0 0.0 0.01

0.01 0.0 0.0
0.0 0.01 0.0
0.0 0.0 0.01

0.01 0.0 0.0
0.0 0.01 0.0
0.0 0.0 0.01

0.01 0.0 0.0
0.0 0.01 0.0
0.0 0.0 0.01

0.01 0.0 0.0
0.0 0.01 0.0
0.0 0.0 0.01

0.01 0.0 0.0
0.0 0.01 0.0
0.0 0.0 0.01

0.01 0.0 0.0
0.0 0.01 0.0
0.0 0.0 0.01

0.01 0.0 0.0
0.0 0.01 0.0
0.0 0.0 0.01

0.01 0.0 0.0
0.0 0.01 0.0
0.0 0.0 0.01

0.01 0.0 0.0
0.0 0.01 0.0
0.0 0.0 0.01

0.01 0.0 0.0
0.0 0.01 0.0
0.0 0.0 0.01

0.01 0.0 0.0
0.0 0.01 0.0
0.0 0.0 0.01

0.01 0.0 0.0
0.0 0.01 0.0
0.0 0.0 0.01

0.01 0.0 0.0
0.0 0.01 0.0
0.0 0.0 0.01

0.01 0.0 0.0
0.0 0.01 0.0
0.0 0.0 0.01

0.01 0.0 0.0
0.0 0.01 0.0
0.0 0.0 0.01

0.01 0.0 0.0
0.0 0.01 0.0
0.0 0.0 0.01

0.01 0.0 0.0
0.0 0.01 0.0
0.0 0.0 0.01

0.01 0.0 0.0
0.0 0.01 0.0
0.0 0.0 0.01

0.01 0.0 0.0
0.0 0.01 0.0
0.0 0.0 0.01

0.01 0.0 0.0
0.0 0.01 0.0
0.0 0.0 0.01

0.01 0.0 0.0
0.0 0.01 0.0
0.0 0.0 0.01

0.01 0.0 0.0
0.0 0.01 0.0
0.0 0.0 0.01

0.01 0.0 0.0
0.0 0.01 0.0
0.0 0.0 0.01

0.01 0.0 0.0
0.0 0.01 0.0
0.0 0.0 0.01

0.01 0.0 0.0
0.0 0.01 0.0
0.0 0.0 0.01

0.01 0.0 0.0
0.0 0.01 0.0
0.0 0.0 0.01

0.01 0.0 0.0
0.0 0.01 0.0
0.0 0.0 0.01

0.01 0.0 0.0
0.0 0.01 0.0
0.0 0.0 0.01

0.01 0.0 0.0
0.0 0.01 0.0
0.0 0.0 0.01

0.01 0.0 0.0
0.0 0.01 0.0
0.0 0.0 0.01

0.01 0.0 0.0
0.0 0.01 0.0
0.0 0.0 0.01

0.01 0.0 0.0
0.0 0.01 0.0
0.0 0.0 0.01

0.01 0.0 0.0
0.0 0.01 0.0
0.0 0.0 0.01

0.01 0.0 0.0
0.0 0.01 0.0
0.0 0.0 0.01

0.01 0.0 0.0
0.0 0.01 0.0
0.0 0.0 0.01

0.01 0.0 0.0
0.0 0.01 0.0
0.0 0.0 0.01

0.01 0.0 0.0
0.0 0.01 0.0
0.0 0.0 0.01

0.01 0.0 0.0
0.0 0.01 0.0
0.0 0.0 0.01

0.01 0.0 0.0
0.0 0.01 0.0
0.0 0.0 0.01

0.01 0.0 0.0
0.0 0.01 0.0
0.0 0.0 0.01

0.01 0.0 0.0
0.0 0.01 0.0
0.0 0.0 0.01

0.01 0.0 0.0
0.0 0.01 0.0
0.0 0.0 0.01

0.01 0.0 0.0
0.0 0.01 0.0
0.0 0.0 0.01

0.01 0.0 0.0
0.0 0.01 0.0
0.0 0.0 0.01

0.01 0.0 0.0
0.0 0.01 0.0
0.0 0.0 0.01

0.01 0.0 0.0
0.0 0.01 0.0
0.0 0.0 0.01

0.01 0.0 0.0
0.0 0.01 0.0
0.0 0.0 0.01

0.01 0.0 0.0
0.0 0.01 0.0
0.0 0.0 0.01

0.01 0.0 0.0
0.0 0.01 0.0
0.0 0.0 0.01

0.01 0.0 0.0
0.0 0.01 0.0
0.0 0.0 0.01

0.01 0.0 0.0
0.0 0.01 0.0
0.0 0.0 0.01

0.01 0.0 0.0
0.0 0.01 0.0
0.0 0.0 0.01

0.01 0.0 0.0
0.0 0.01 0.0
0.0 0.0 0.01

0.01 0.0 0.0
0.0 0.01 0.0
0.0 0.0 0.01

0.01 0.0 0.0
0.0 0.01 0.0
0.0 0.0 0.01

0.01 0.0 0.0
0.0 0.01 0.0
0.0 0.0 0.01

0.01 0.0 0.0
0.0 0.01 0.0
0.0 0.0 0.01

0.01 0.0 0.0
0.0 0.01 0.0
0.0 0.0 0.01

0.01 0.0 0.0
0.0 0.01 0.0
0.0 0.0 0.01

0.01 0.0 0.0
0.0 0.01 0.0
0.0 0.0 0.01

0.01 0.0 0.0
0.0 0.01 0.0
0.0 0.0 0.01

0.01 0.0 0.0
0.0 0.01 0.0
0.0 0.0 0.01

0.01 0.0 0.0
0.0 0.01 0.0
0.0 0.0 0.01

0.01 0.0 0.0
0.0 0.01 0.0
0.0 0.0 0.01

0.01 0.0 0.0
0.0 0.01 0.0
0.0 0.0 0.01

0.01 0.0 0.0
0.0 0.01 0.0
0.0 0.0 0.01

0.01 0.0 0.0
0.0 0.01 0.0
0.0 0.0 0.01

0.01 0.0 0.0
0.0 0.01 0.0
0.0 0.0 0.01

0.01 0.0 0.0
0.0 0.01 0.0
0.0 0.0 0.01

0.01 0.0 0.0
0.0 0.01 0.0
0.0 0.0 0.01

0.01 0.0 0.0
0.0 0.01 0.0
0.0 0.0 0.01

0.01 0.0 0.0
0.0 0.01 0.0
0.0 0.0 0.01

0.01 0.0 0.0
0.0 0.01 0.0
0.0 0.0 0.01

0.01 0.0 0.0
0.0 0.01 0.0
0.0 0.0 0.01

0.01 0.0 0.0
0.0 0.01 0.0
0.0 0.0 0.01

0.01 0.0 0.0
0.0 0.01 0.0
0.0 0.0 0.01

0.01 0.0 0.0
0.0 0.01 0.0
0.0 0.0 0.01

0.01 0.0 0.0
0.0 0.01 0.0
0.0 0.0 0.01

0.01 0.0 0.0
0.0 0.01 0.0
0.0 0.0 0.01

0.01 0.0 0.0
0.0 0.01 0.0
0.0 0.0 0.01

0.01 0.0 0.0
0.0 0.01 0.0
0.0 0.0 0.01

0.01 0.0 0.0
0.0 0.01 0.0
0.0 0.0 0.01

0.01 0.0 0.0
0.0 0.01 0.0
0.0 0.0 0.01

0.01 0.0 0.0
0.0 0.01 0.0
0.0 0.0 0.01

0.01 0.0 0.0
0.0 0.01 0.0
0.0 0.0 0.01

0.01 0.0 0.0
0.0 0.01 0.0
0.0 0.0 0.01

0.01 0.0 0.0
0.0 0.01 0.0
0.0 0.0 0.01

0.01 0.0 0.0
0.0 0.01 0.0
0.0 0.0 0.01

0.01 0.0 0.0
0.0 0.01 0.0
0.0 0.0 0.01

0.01 0.0 0.0
0.0 0.01 0.0
0.0 0.0 0.01

0.01 0.0 0.0
0.0 0.01 0.0
0.0 0.0 0.01

0.01 0.0 0.0
0.0 0.01 0.0
0.0 0.0 0.01

0.01 0.0 0.0
0.0 0.01 0.0
0.0 0.0 0.01

0.01 0.0 0.0
0.0 0.01 0.0
0.0 0.0 0.01

0.01 0.0 0.0
0.0 0.01 0.0
0.0 0.0 0.01

0.01 0.0 0.0
0.0 0.01 0.0
0.0 0.0 0.01

0.01 0.0 0.0
0.0 0.01 0.0
0.0 0.0 0.01

0.01 0.0 0.0
0.0 0.01 0.0
0.0 0.0 0.01

0.01 0.0 0.0
0.0 0.01 0.0
0.0 0.0 0.01

0.01 0.0 0.0
0.0 0.01 0.0
0.0 0.0 0.01

0.01 0.0 0.0
0.0 0.01 0.0
0.0 0.0 0.01

0.01 0.0 0.0
0.0 0.01 0.0
0.0 0.0 0.01

0.01 0.0 0.0
0.0 0.01 0.0
0.0 0.0 0.01

0.01 0.0 0.0
0.0 0.01 0.0
0.0 0.0 0.01

0.01 0.0 0.0
0.0 0.01 0.0
0.0 0.0 0.01

0.01 0.0 0.0
0.0 0.01 0.0
0.0 0.0 0.01

0.01 0.0 0.0
0.0 0.01 0.0
0.0 0.0 0.01

0.01 0.0 0.0
0.0 0.01 0.0
0.0 0.0 0.01

0.01 0.0 0.0
0.0 0.01 0.0
0.0 0.0 0.01

0.01 0.0 0.0
0.0 0.01 0.0
0.0 0.0 0.01

0.01 0.0 0.0
0.0 0.01 0.0
0.0 0.0 0.01

0.01 0.0 0.0
0.0 0.01 0.0
0.0 0.0 0.01

0.01 0.0 0.0
0.0 0.01 0.0
0.0 0.0 0.01

0.01 0.0 0.0
0.0 0.01 0.0
0.0 0.0 0.01

0.01 0.0 0.0
0.0 0.01 0.0
0.0 0.0 0.01

0.01 0.0 0.0
0.0 0.01 0.0
0.0 0.0 0.01

0.01 0.0 0.0
0.0 0.01 0.0
0.0 0.0 0.01

0.01 0.0 0.0
0.0 0.01 0.0
0.0 0.0 0.01

0.01 0.0 0.0
0.0 0.01 0.0
0.0 0.0 0.01

0.01 0.0 0.0
0.0 0.01 0.0
0.0 0.0 0.01

0.01 0.0 0.0
0.0 0.01 0.0
0.0 0.0 0.01

0.01 0.0 0.0
0.0 0.01 0.0
0.0 0.0 0.01

0.01 0.0 0.0
0.0 0.01 0.0
0.0 0.0 0.01

0.01 0.0 0.0
0.0 0.01 0.0
0.0 0.0 0.01

0.01 0.0 0.0
0.0 0.01 0.0
0.0 0.0 0.01

0.01 0.0 0.0
0.0 0.01 0.0
0.0 0.0 0.01

0.01 0.0 0.0
0.0 0.01 0.0
0.0 0.0 0.01

0.01 0.0 0.0
0.0 0.01 0.0
0.0 0.0 0.01

0.01 0.0 0.0
0.0 0.01 0.0
0.0 0.0 0.01

0.01 0.0 0.0
0.0 0.01 0.0
0.0 0.0 0.01

0.01 0.0 0.0
0.0 0.01 0.0
0.0 0.0 0.01

0.01 0.0 0.0
0.0 0.01 0.0
0.0 0.0 0.01

0.01 0.0 0.0
0.0 0.01 0.0
0.0 0.0 0.01

0.01 0.0 0.0
0.0 0.01 0.0
0.0 0.0 0.01

0.01 0.0 0.0
0.0 0.01 0.0
0.0 0.0 0.01

0.01 0.0 0.0
0.0 0.01 0.0
0.0 0.0 0.01

0.01 0.0 0.0
0.0 0.01 0.0
0.0 0.0 0.01

0.01 0.0 0.0
0.0 0.01 0.0
0.0 0.0 0.01

0.01 0.0 0.0
0.0 0.01 0.0
0.0 0.0 0.01

0.01 0.0 0.0
0.0 0.01 0.0
0.0 0.0 0.01

0.01 0.0 0.0
0.0 0.01 0.0
0.0 0.0 0.01

0.01 0.0 0.0
0.0 0.01 0.0
0.0 0.0 0.01

0.01 0.0 0.0
0.0 0.01 0.0
0.0 0.0 0.01

0.01 0.0 0.0
0.0 0.01 0.0
0.0 0.0 0.01

0.01 0.0 0.0
0.0 0.01 0.0
0.0 0.0 0.01

0.01 0.0 0.0
0.0 0.01 0.0
0.0 0.0 0.01

0.01 0.0 0.0
0.0 0.01 0.0
0.0 0.0 0.01

0.01 0.0 0.0
0.0 0.01 0.0
0.0 0.0 0.01

0.01 0.0 0.0
0.0 0.01 0.0
0.0 0.0 0.01

0.00999982750446331 0.0 2.667438878468948e-14
0.0 0.01 0.0
2.667438878510307e-14 0.0 0.009999986500027336

0.00999978250709568 0.0 8.67652977084126e-15
0.0 0.01 0.0
8.67652977084126e-15 0.0 0.009999994500004536

0.00999974600967699 0.0 -2.1221747662322546e-16
0.0 0.01 0.0
-2.1221747662322546e-16 0.0 0.01000000195000057

0.009999717012012783 0.0 -2.4287510917504804e-15
0.0 0.01 0.0
-2.4287510917504804e-15 0.0 0.010000007800009125

0.009999696513816138 0.0 -1.715687310393534e-16
0.0 0.01 0.0
-1.715687310393534e-16 0.0 0.010000010750017335

0.00999984100379205 0.0 3.970003630024151e-14
0.0 0.01 0.0
3.97000363006551e-14 0.0 0.009999974500097536

0.009999784006998148 0.0 1.3841234249454617e-14
0.0 0.01 0.0
1.3841234249558015e-14 0.0 0.00999998300004335

0.009999731510813353 0.0 -9.497174530607208e-15
0.0 0.01 0.0
-9.497174530607208e-15 0.0 0.00999999300000735

0.009999687514647674 0.0 -1.8613234002374933e-14
0.0 0.01 0.0
-1.8613234002374933e-14 0.0 0.010000003400001733

0.009999653018060304 0.0 -1.485085796551238e-14
0.0 0.01 0.0
-1.4850857965460683e-14 0.0 0.010000010750017335

0.009999628020756315 0.0 -7.847167994036077e-15
0.0 0.01 0.0
-7.847167994010228e-15 0.0 0.010000015600036506

0.00999980650561616 0.0 4.4850661789392617e-14
0.0 0.01 0.0
4.4850661788565436e-14 0.0 0.00999996850014884

0.009999740010139563 0.0 2.0980323607001962e-14
0.0 0.01 0.0
2.0980323607208757e-14 0.0 0.009999978500069338

0.009999678015551764 0.0 -9.296213339382138e-15
0.0 0.01 0.0
-9.296213339382138e-15 0.0 0.0099999920000096

0.009999627020868054 0.0 -2.0553052671003045e-14
0.0 0.01 0.0
-2.055305267120984e-14 0.0 0.010000004900003604

0.009999587525521682 0.0 -1.9773015023676095e-14
0.0 0.01 0.0
-1.9773015023624397e-14 0.0 0.010000014150030033

0.009999561528840234 0.0 -1.1368770565421204e-14
0.0 0.01 0.0
-1.1368770565421204e-14 0.0 0.010000019550057334

0.00999976900800384 0.0 1.9911682563015638e-12
0.0 0.01 0.0
1.9911682563015638e-12 0.0 0.009999962000216599

0.009999690514367797 0.0 5.674524206842398e-13
0.0 0.01 0.0
5.674524206809311e-13 0.0 0.009999975500090035

0.00999961852182995 0.0 3.5417822567805687e-14
0.0 0.01 0.0
3.541782256801248e-14 0.0 0.009999991500010836

0.009999559529103901 0.0 8.231379073870416e-15
0.0 0.01 0.0
8.231379073818717e-15 0.0 0.010000006850007037

0.009999515535208196 0.0 -4.662146540089019e-15
0.0 0.01 0.0
-4.662146540089019e-15 0.0 0.010000017600046462

0.009999487539395073 0.0 -6.597979934894946e-15
0.0 0.01 0.0
-6.597979934894946e-15 0.0 0.010000024400089307

0.00999972001175946 0.0 2.0790422762347505e-10
0.0 0.01 0.0
2.0790422762347505e-10 0.0 0.009999957500270943

0.009999626520924038 0.0 1.1640447828775043e-10
0.0 0.01 0.0
1.164044782869034e-10 0.0 0.00999997250011344

0.009999545031051396 0.0 4.033103702738552e-11
0.0 0.01 0.0
4.03310370274914e-11 0.0 0.009999992000009603

0.009999478540790792 0.0 4.398462439628462e-12
0.0 0.01 0.0
4.398462439628462e-12 0.0 0.010000008800011614

0.009999431548474245 0.0 3.8156503437141746e-14
0.0 0.01 0.0
3.8156503437141746e-14 0.0 0.010000021000066152

0.009999402053635253 0.0 1.1437141665437372e-14
0.0 0.01 0.0
1.1437141665385673e-14 0.0 0.010000026850108139

0.009999649518426999 0.0 1.892247532777236e-09
0.0 0.01 0.0
1.8922475327907886e-09 0.0 0.009999952500338976

0.009999543031325182 0.0 1.1975724278178834e-09
0.0 0.01 0.0
1.1975724278144952e-09 0.0 0.009999969500139757

0.009999448045701442 0.0 5.51610965050106e-10
0.0 0.01 0.0
5.516109650518001e-10 0.0 0.00999999200000965

0.00999937555849395 0.0 1.5155764376065183e-10
0.0 0.01 0.0
1.5155764376065183e-10 0.0 0.010000011250018988

0.009999327067931729 0.0 1.6814491007694595e-11
0.0 0.01 0.0
1.6814491007747534e-11 0.0 0.010000023950086041

0.009999294574650762 0.0 4.4676100295357134e-14
0.0 0.01 0.0
4.4676100295357134e-14 0.0 0.010000030750141838

0.009999538032024224 0.0 8.20112496357074e-09
0.0 0.01 0.0
8.20112496357074e-09 0.0 0.009999947000431436

0.009999418050808395 0.0 5.6118230747174156e-09
0.0 0.01 0.0
5.611823074730968e-09 0.0 0.009999968500153564

0.009999319569455356 0.0 2.8177571831337488e-09
0.0 0.01 0.0
2.8177571831337488e-09 0.0 0.00999999350000753

0.009999246085266828 0.0 9.76117797700209e-10
0.0 0.01 0.0
9.76117797698515e-10 0.0 0.010000014650032337

0.009999194597311481 0.0 1.9382701858788927e-10
0.0 0.01 0.0
1.9382701858746575e-10 0.0 0.010000028800124421

0.009999165604444015 0.0 1.3464854581629303e-11
0.0 0.01 0.0
1.3464854581576363e-11 0.0 0.010000036150196028

0.009999360061524777 0.0 2.4674924139903628e-08
0.0 0.01 0.0
2.4674924139903628e-08 0.0 0.009999940000631334

0.009999233588162149 0.0 1.7334059029079293e-08
0.0 0.01 0.0
1.73340590291064e-08 0.0 0.009999965000228822

0.00999914011093634 0.0 9.033588907770835e-09
0.0 0.01 0.0
9.033588907784388e-09 0.0 0.009999995000015994

0.009999074628464468 0.0 3.4098177700649427e-09
0.0 0.01 0.0
3.4098177700649427e-09 0.0 0.010000020000061744

0.009999031140821516 0.0 8.398336737401997e-10
0.0 0.01 0.0
8.398336737385056e-10 0.0 0.010000035650190746

0.009999006148180854 0.0 1.0468242454863405e-10
0.0 0.01 0.0
1.0468242454863405e-10 0.0 0.010000042500270945

0.009999086125799765 0.0 5.827866560745385e-08
0.0 0.01 0.0
5.827866560734543e-08 0.0 0.009999932001203115

0.009998970159355119 0.0 4.06151001782905e-08
0.0 0.01 0.0
4.061510017834471e-08 0.0 0.009999963500447307

0.009998900181534558 0.0 2.1265145505816943e-08
0.0 0.01 0.0
2.1265145505816943e-08 0.0 0.01000000100006799

0.00999885719594031 0.0 8.28012059828423e-09
0.0 0.01 0.0
8.280120598297782e-09 0.0 0.010000030750152123

0.009998828205998121 0.0 2.245668158509318e-09
0.0 0.01 0.0
2.245668158512706e-09 0.0 0.010000048350351419

0.009998813711125605 0.0 3.5671358394030414e-10
0.0 0.01 0.0
3.5671358394030414e-10 0.0 0.010000053700432575

0.009998705753154901 0.0 1.110447456421004e-07
0.0 0.01 0.0
1.110447456421004e-07 0.0 0.009999917002883291

0.009998623785006799 0.0 7.568294226219241e-08
0.0 0.01 0.0
7.568294226219241e-08 0.0 0.009999962001075939

0.00999859779521079 0.0 3.905657272411638e-08
0.0 0.01 0.0
3.905657272411638e-08 0.0 0.010000011700249391

0.00999858979839137 0.0 1.5269002763158564e-08
0.0 0.01 0.0
1.5269002763172116e-08 0.0 0.010000050300414499

0.00999858430069023 0.0 4.313121569731045e-09
0.0 0.01 0.0
4.313121569727657e-09 0.0 0.010000067850693342

0.009998585300263024 0.0 7.666967813382947e-10
0.0 0.01 0.0
7.666967813374476e-10 0.0 0.010000071800773383

0.009998255460854996 0.0 1.6801250169416748e-07
0.0 0.01 0.0
1.6801250169438432e-07 0.0 0.009999892005984768

0.00999822297568571 0.0 1.1255311130353197e-07
0.0 0.01 0.0
1.1255311130342355e-07 0.0 0.009999961502123017

0.009998248460778326 0.0 5.6988999277778583e-08
0.0 0.01 0.0
5.6988999277778583e-08 0.0 0.010000035150672607

0.009998277445254599 0.0 2.2075146595130872e-08
0.0 0.01 0.0
2.2075146595103767e-08 0.0 0.010000082051082958

0.009998297934658566 0.0 6.303659608193461e-09
0.0 0.01 0.0
6.303659608186685e-09 0.0 0.010000104001628391

0.009998314426269824 0.0 1.1727523303728466e-09
0.0 0.01 0.0
1.1727523303736937e-09 0.0 0.010000103501607072

0.009997834209983224 0.0 2.0296767891403184e-07
0.0 0.01 0.0
2.0296767891392342e-07 0.0 0.009999902507607059

0.009997822713958342 0.0 1.3326968250704577e-07
0.0 0.01 0.0
1.332696825072626e-07 0.0 0.009999980502721932

0.009997878176170783 0.0 6.627516255811256e-08
0.0 0.01 0.0
6.627516255811256e-08 0.0 0.010000077651563487

0.009997929143540238 0.0 2.5239117199037184e-08
0.0 0.01 0.0
2.5239117199023632e-08 0.0 0.010000138202960534

0.009997968119456238 0.0 7.135749422629929e-09
0.0 0.01 0.0
7.135749422636705e-09 0.0 0.010000157253716873

0.009997999100700225 0.0 1.3243926463351195e-09
0.0 0.01 0.0
1.3243926463351195e-09 0.0 0.010000148453305959

0.009997450980889692 0.0 1.9882375858844194e-07
0.0 0.01 0.0
1.9882375858833352e-07 0.0 0.010000112807840284

0.009997433990406162 0.0 1.2664226554991252e-07
0.0 0.01 0.0
1.2664226554991252e-07 0.0 0.010000093253710924

0.00999748794744434 0.0 6.140696613677298e-08
0.0 0.01 0.0
6.140696613677298e-08 0.0 0.010000167954797015

0.009997545404129695 0.0 2.2750989455824007e-08
0.0 0.01 0.0
2.2750989455824007e-08 0.0 0.010000222157480537

0.009997592869426504 0.0 6.2317844479103175e-09
0.0 0.01 0.0
6.231784447906929e-09 0.0 0.010000232908142507

0.00999763384007213 0.0 1.0974697999369695e-09
0.0 0.01 0.0
1.0974697999352755e-09 0.0 0.010000213406831361

0.009997048810355756 0.0 1.5079684815698813e-07
0.0 0.01 0.0
1.5079684815698813e-07 0.0 0.010000425330546285

0.009997026328282015 0.0 9.474095339566087e-08
0.0 0.01 0.0
9.474095339571508e-08 0.0 0.010000309115679083

0.009997065292681906 0.0 4.4716798703714044e-08
0.0 0.01 0.0
4.471679870374115e-08 0.0 0.010000314465132656

0.00999711574835419 0.0 1.5912768703013494e-08
0.0 0.01 0.0
1.591276870302027e-08 0.0 0.010000339367312734

0.009997164706292094 0.0 4.094292260850292e-09
0.0 0.01 0.0
4.094292260850292e-09 0.0 0.010000331566492236

0.009997215663311545 0.0 6.357861949518834e-10
0.0 0.01 0.0
6.357861949518834e-10 0.0 0.01000029591313423

0.009996578258214579 0.0 8.810969220773997e-08
0.0 0.01 0.0
8.810969220773997e-08 0.0 0.010000694423491711

0.009996557279115465 0.0 5.474692222576672e-08
0.0 0.01 0.0
5.4746922225739616e-08 0.0 0.010000547395392703

0.009996583751504478 0.0 2.497799437008413e-08
0.0 0.01 0.0
2.497799437007058e-08 0.0 0.010000490736214559

0.00999662670764364 0.0 8.331087986681782e-09
0.0 0.01 0.0
8.331087986678394e-09 0.0 0.010000479034429313

0.009996678155931157 0.0 1.9014988536449575e-09
0.0 0.01 0.0
1.9014988536458045e-09 0.0 0.010000446829947307

0.009996737097674803 0.0 2.2595581851921136e-10
0.0 0.01 0.0
2.2595581851931724e-10 0.0 0.010000392623121733

0.009996021375910089 0.0 3.9345386900114685e-08
0.0 0.01 0.0
3.934538690012824e-08 0.0 0.010000893670014915

0.009996006893094045 0.0 2.3737392165994306e-08
0.0 0.01 0.0
2.3737392165994306e-08 0.0 0.010000749584357633

0.009996025870327378 0.0 1.0138265039877798e-08
0.0 0.01 0.0
1.0138265039877798e-08 0.0 0.01000066606655621

0.009996066322292376 0.0 2.999466356732355e-09
0.0 0.01 0.0
2.999466356733202e-09 0.0 0.010000625558695004

0.0099961207584454 0.0 5.351887365747603e-10
0.0 0.01 0.0
5.351887365749721e-10 0.0 0.010000569848705471

0.009996187181746568 0.0 3.353835658909552e-11
0.0 0.01 0.0
3.3538356589082285e-11 0.0 0.010000500537578172

0.009995365723492647 0.0 1.2408758310029184e-08
0.0 0.01 0.0
1.2408758310029184e-08 0.0 0.010001046064137742

0.009995362228342257 0.0 6.894510645909718e-09
0.0 0.01 0.0
6.894510645911412e-09 0.0 0.010000914175349339

0.009995383199197704 0.0 2.570445098120325e-09
0.0 0.01 0.0
2.570445098120325e-09 0.0 0.010000826752517648

0.00999542464200187 0.0 5.789061137361675e-10
0.0 0.01 0.0
5.789061137359557e-10 0.0 0.010000773039629353

0.00999548406089887 0.0 5.321981692628036e-11
0.0 0.01 0.0
5.321981692625389e-11 0.0 0.01000070417437225

0.009995560957515135 0.0 -6.081903652981196e-13
0.0 0.01 0.0
-6.081903652983264e-13 0.0 0.010000618707415095

0.00999461485309712 0.0 1.959484295648519e-09
0.0 0.01 0.0
1.959484295648519e-09 0.0 0.010001182809823348

0.009994622840188847 0.0 9.095065957706101e-10
0.0 0.01 0.0
9.095065957708218e-10 0.0 0.010001059718426799

0.009994646302382752 0.0 2.275022038308957e-10
0.0 0.01 0.0
2.2750220383100157e-10 0.0 0.010000978643642772

0.009994692228857818 0.0 1.1085131333450953e-11
0.0 0.01 0.0
1.1085131333454261e-11 0.0 0.010000921527366258

0.009994759122899804 0.0 -3.3100560655918483e-12
0.0 0.01 0.0
-3.3100560655926755e-12 0.0 0.010000844857055454

0.009994847484999214 0.0 -5.365665708121381e-13
0.0 0.01 0.0
-5.365665708121381e-13 0.0 0.010000750084385552

0.009993764337376325 0.0 1.6529449052486088e-12
0.0 0.01 0.0
1.6529449052490224e-12 0.0 0.010001328364636023

0.00999377431869595 0.0 -3.1508329414625614e-11
0.0 0.01 0.0
-3.1508329414619e-11 0.0 0.010001212620531625

0.009993803264691998 0.0 -2.572399861131701e-11
0.0 0.01 0.0
-2.572399861131701e-11 0.0 0.010001140345028367

0.009993851674937106 0.0 -1.1871885173264873e-11
0.0 0.01 0.0
-1.1871885173264873e-11 0.0 0.01000108417629025

0.009993928533884732 0.0 -3.565077142941555e-12
0.0 0.01 0.0
-3.565077142941555e-12 0.0 0.010000998199440433

0.009994029850661492 0.0 -4.836143917030169e-13
0.0 0.01 0.0
-4.836143917029135e-13 0.0 0.010000888318352408

0.009992779328251319 0.0 -3.714947924883954e-11
0.0 0.01 0.0
-3.7149479248852775e-11 0.0 0.010001504239342335

0.009992790304458389 0.0 -4.742482126130464e-11
0.0 0.01 0.0
-4.7424821261311254e-11 0.0 0.010001390439944732

0.009992822734372395 0.0 -3.2010017742871707e-11
0.0 0.01 0.0
-3.2010017742871707e-11 0.0 0.010001323012508011

0.009992883104745573 0.0 -1.422463821871036e-11
0.0 0.01 0.0
-1.422463821871036e-11 0.0 0.010001264389761802

0.009992974909724133 0.0 -3.997854201330282e-12
0.0 0.01 0.0
-3.997854201331109e-12 0.0 0.01000116620397304

0.009993097652941806 0.0 -4.587026674392194e-13
0.0 0.01 0.0
-4.587026674392194e-13 0.0 0.01000104116258036

0.009991622040304642 0.0 -4.77085839507022e-11
0.0 0.01 0.0
-4.770858395070882e-11 0.0 0.010001724095773459

0.009991642987633581 0.0 -6.115685275457519e-11
0.0 0.01 0.0
-6.115685275458842e-11 0.0 0.010001603885784941

0.00999168687770237 0.0 -4.0557800330807554e-11
0.0 0.01 0.0
-4.0557800330800936e-11 0.0 0.010001532102028584

0.009991766679309278 0.0 -1.7455096962738942e-11
0.0 0.01 0.0
-1.7455096962738942e-11 0.0 0.010001466122364204

0.009991882893819082 0.0 -4.604180636877552e-12
0.0 0.01 0.0
-4.604180636875898e-12 0.0 0.010001351323862085

0.009992037021462636 0.0 -4.3894830593196187e-13
0.0 0.01 0.0
-4.3894830593196187e-13 0.0 0.010001203817341545

0.00999026323916102 0.0 -5.904557280730628e-11
0.0 0.01 0.0
-5.904557280730628e-11 0.0 0.010001986441735887

0.009990302624125614 0.0 -7.861494283871272e-11
0.0 0.01 0.0
-7.861494283871272e-11 0.0 0.010001853064950224

0.009990375412754451 0.0 -5.187638913831756e-11
0.0 0.01 0.0
-5.187638913831756e-11 0.0 0.010001767568534358

0.009990485595829136 0.0 -2.1868861461246333e-11
0.0 0.01 0.0
-2.1868861461243024e-11 0.0 0.010001686476534554

0.009990642650404497 0.0 -5.543786331830032e-12
0.0 0.01 0.0
-5.543786331830032e-12 0.0 0.010001550660607691

0.009990835613308772 0.0 -4.834009502291887e-13
0.0 0.01 0.0
-4.83400950229137e-13 0.0 0.010001380635870688

0.00998867875465158 0.0 -6.872650878473023e-11
0.0 0.01 0.0
-6.872650878472361e-11 0.0 0.010002301594356717

0.00998875499599593 0.0 -1.0033413804153e-10
0.0 0.01 0.0
-1.0033413804153e-10 0.0 0.010002141287570565

0.009988870108784376 0.0 -6.707497699410601e-11
0.0 0.01 0.0
-6.707497699410601e-11 0.0 0.010002025515240641

0.009989032070744891 0.0 -2.8270911538528298e-11
0.0 0.01 0.0
-2.8270911538534916e-11 0.0 0.010001921953944087

0.009989241885489946 0.0 -7.2249093103365674e-12
0.0 0.01 0.0
-7.2249093103365674e-12 0.0 0.010001762165674766

0.009989493082526018 0.0 -7.235078436696958e-13
0.0 0.01 0.0
-7.235078436696958e-13 0.0 0.010001563366540837

0.009986862932799342 0.0 -7.39439717048312e-11
0.0 0.01 0.0
-7.39439717048312e-11 0.0 0.01000266661624722

0.009986995411954695 0.0 -1.2798840988692838e-10
0.0 0.01 0.0
-1.2798840988692838e-10 0.0 0.010002454003024156

0.00998717471544841 0.0 -8.868282931894678e-11
0.0 0.01 0.0
-8.868282931894016e-11 0.0 0.010002288385266466

0.009987409318769817 0.0 -3.850323207125316e-11
0.0 0.01 0.0
-3.850323207125316e-11 0.0 0.010002161850837838

0.009987692757572986 0.0 -1.0611468615396394e-11
0.0 0.01 0.0
-1.0611468615396394e-11 0.0 0.010001979087363024

0.009988016076635802 0.0 -1.5221679019287131e-12
0.0 0.01 0.0
-1.52216790192892e-12 0.0 0.010001754361559706

0.009984840541186661 0.0 -7.231685408889423e-11
0.0 0.01 0.0
-7.231685408888099e-11 0.0 0.010003072215196215

0.009985056562811418 0.0 -1.6593663060867964e-10
0.0 0.01 0.0
-1.6593663060867964e-10 0.0 0.010002768749471692

0.00998532685846135 0.0 -1.219938052340092e-10
0.0 0.01 0.0
-1.2199380523399596e-10 0.0 0.010002535163732508

0.009985655424167177 0.0 -5.6145362342060644e-11
0.0 0.01 0.0
-5.6145362342054027e-11 0.0 0.010002400764273705

0.0099860338127366 0.0 -1.7588302900482363e-11
0.0 0.01 0.0
-1.7588302900482363e-11 0.0 0.010002202877686777

0.009986443118273035 0.0 -3.827273747672888e-12
0.0 0.01 0.0
-3.827273747672475e-12 0.0 0.010001955673549296

0.009982719396319357 0.0 -6.456966806859603e-11
0.0 0.01 0.0
-6.456966806858941e-11 0.0 0.010003491077292514

0.009983040740236253 0.0 -2.2437580933361477e-10
0.0 0.01 0.0
-2.24375809333628e-10 0.0 0.010003051696359424

0.009983424304326834 0.0 -1.778119317851376e-10
0.0 0.01 0.0
-1.7781193178515083e-10 0.0 0.010002748182461062

0.00998386513426267 0.0 -8.80463642021795e-11
0.0 0.01 0.0
-8.80463642021795e-11 0.0 0.010002638243682324

0.009984352801990549 0.0 -3.151486150974334e-11
0.0 0.01 0.0
-3.151486150974665e-11 0.0 0.010002442794795516

0.009984857464033584 0.0 -9.371503266618546e-12
0.0 0.01 0.0
-9.371503266617718e-12 0.0 0.01000218091324998

0.009980695046424794 0.0 -5.898295085065046e-11
0.0 0.01 0.0
-5.898295085065046e-11 0.0 0.01000388701515903

0.009981136509254146 0.0 -3.2476821168920703e-10
0.0 0.01 0.0
-3.247682116892335e-10 0.0 0.010003270653877088

0.009981646153491468 0.0 -2.784531580609534e-10
0.0 0.01 0.0
-2.784531580609534e-10 0.0 0.01000293344025611

0.009982206603663663 0.0 -1.479098472109266e-10
0.0 0.01 0.0
-1.4790984721093982e-10 0.0 0.010002906516684996

0.009982802962649532 0.0 -5.82395374151243e-11
0.0 0.01 0.0
-5.82395374151243e-11 0.0 0.010002734521232145

0.009983400423559809 0.0 -2.019554300858656e-11
0.0 0.01 0.0
-2.0195543008584905e-11 0.0 0.010002468213511053

0.009979087781518594 0.0 -7.295306789388118e-11
0.0 0.01 0.0
-7.295306789388449e-11 0.0 0.010004216064782297

0.009979639352637439 0.0 -5.051175203210281e-10
0.0 0.01 0.0
-5.051175203210546e-10 0.0 0.010003411895360508

0.009980260600789393 0.0 -4.663918189983152e-10
0.0 0.01 0.0
-4.663918189983417e-10 0.0 0.010003134773404823

0.009980927701966347 0.0 -2.6296222164738773e-10
0.0 0.01 0.0
-2.629622216473745e-10 0.0 0.01000327260579161

0.009981612837776073 0.0 -1.0852177332337324e-10
0.0 0.01 0.0
-1.0852177332337986e-10 0.0 0.010003152390008123

0.009982284686290494 0.0 -3.78667749669014e-11
0.0 0.01 0.0
-3.7866774966898093e-11 0.0 0.01000287869255369

0.00997832368365476 0.0 -1.315496744358123e-10
0.0 0.01 0.0
-1.315496744358123e-10 0.0 0.010004465389175298

0.00997894518296495 0.0 -8.210137614364021e-10
0.0 0.01 0.0
-8.210137614363491e-10 0.0 0.010003534122621071

0.009979632395315139 0.0 -8.096875333677479e-10
0.0 0.01 0.0
-8.096875333676949e-10 0.0 0.01000344808257156

0.009980351561255265 0.0 -4.791483457160157e-10
0.0 0.01 0.0
-4.791483457160157e-10 0.0 0.010003833252948294

0.009981079334527198 0.0 -2.0095506604454707e-10
0.0 0.01 0.0
-2.0095506604454707e-10 0.0 0.01000378634938111

0.009981778922417169 0.0 -6.308538999634508e-11
0.0 0.01 0.0
-6.308538999634508e-11 0.0 0.010003501838572534

0.009978960088450926 0.0 -2.701005016560775e-10
0.0 0.01 0.0
-2.7010050165609074e-10 0.0 0.010004724546092459

0.00997956481065531 0.0 -1.3515012829456791e-09
0.0 0.01 0.0
-1.3515012829456791e-09 0.0 0.010003798563267033

0.009980222825589373 0.0 -1.4040570143177144e-09
0.0 0.01 0.0
-1.4040570143178203e-09 0.0 0.010004017569834111

0.009980899861984874 0.0 -8.603325319483466e-10
0.0 0.01 0.0
-8.603325319483995e-10 0.0 0.010004693752630196

0.009981577533426829 0.0 -3.6128192988208616e-10
0.0 0.01 0.0
-3.612819298820597e-10 0.0 0.010004736262704046

0.00998223047586466 0.0 -9.691703584973725e-11
0.0 0.01 0.0
-9.691703584974386e-11 0.0 0.010004432645511017

0.009981641180975484 0.0 -5.252265398773458e-10
0.0 0.01 0.0
-5.252265398773193e-10 0.0 0.010005277625060935

0.009982105646041418 0.0 -2.1878080695799296e-09
0.0 0.01 0.0
-2.187808069579718e-09 0.0 0.010004531378149073

0.009982599522094363 0.0 -2.3546797946863083e-09
0.0 0.01 0.0
-2.3546797946863083e-09 0.0 0.010005007158236693

0.009983101430961601 0.0 -1.4809476501904625e-09
0.0 0.01 0.0
-1.4809476501903566e-09 0.0 0.010005916847222684

0.009983604410631402 0.0 -6.224555602345529e-10
0.0 0.01 0.0
-6.224555602345529e-10 0.0 0.010006050887558593

0.009984105475855088 0.0 -1.4291170053571194e-10
0.0 0.01 0.0
-1.4291170053572518e-10 0.0 0.010005731473705773

0.009986971007503731 0.0 -8.859823387233269e-10
0.0 0.01 0.0
-8.859823387234328e-10 0.0 0.010006732392668978

0.009987161267353016 0.0 -3.2983375875304666e-09
0.0 0.01 0.0
-3.2983375875306783e-09 0.0 0.010006259772813067

0.009987356021024546 0.0 -3.641996763611358e-09
0.0 0.01 0.0
-3.64199676361157e-09 0.0 0.010006604186537846

0.009987544808474413 0.0 -2.367517634202982e-09
0.0 0.01 0.0
-2.3675176342027704e-09 0.0 0.01000750113161375

0.009987740082747052 0.0 -1.015837947176731e-09
0.0 0.01 0.0
-1.0158379471766252e-09 0.0 0.010007708604234557

0.009987967751143747 0.0 -2.1832960309570182e-10
0.0 0.01 0.0
-2.1832960309570182e-10 0.0 0.010007397851140293

0.009995268859672798 0.0 -1.199754395974501e-09
0.0 0.01 0.0
-1.199754395974501e-09 0.0 0.010009700145692009

0.009995075639791014 0.0 -4.3002116685285125e-09
0.0 0.01 0.0
-4.3002116685285125e-09 0.0 0.010009397029049549

0.009994865457242113 0.0 -4.953794973347847e-09
0.0 0.01 0.0
-4.953794973347847e-09 0.0 0.010009307879387159

0.009994641809611092 0.0 -3.3680676697274966e-09
0.0 0.01 0.0
-3.368067669727073e-09 0.0 0.010009518472973633

0.009994437145248582 0.0 -1.5215231690315082e-09
0.0 0.01 0.0
-1.5215231690315082e-09 0.0 0.010009618860594377

0.009994293388531602 0.0 -3.5395683659345504e-10
0.0 0.01 0.0
-3.5395683659353445e-10 0.0 0.010009346086090365

0.01000624509531497 0.0 -1.0767493599694345e-09
0.0 0.01 0.0
-1.0767493599692228e-09 0.0 0.010013616611408222

0.010005627797255971 0.0 -4.520010285999907e-09
0.0 0.01 0.0
-4.520010286000754e-09 0.0 0.010013248431713835

0.010004978815829034 0.0 -5.665704866965225e-09
0.0 0.01 0.0
-5.665704866965225e-09 0.0 0.010012989615758704

0.010004316743535819 0.0 -4.108517306808855e-09
0.0 0.01 0.0
-4.108517306808008e-09 0.0 0.010012094154963676

0.010003686137140401 0.0 -2.001038694065889e-09
0.0 0.01 0.0
-2.001038694065889e-09 0.0 0.01001171535532163

0.010003147485376299 0.0 -5.54103707964427e-10
0.0 0.01 0.0
-5.541037079643211e-10 0.0 0.010011418477511597

0.010018722348000185 0.0 -3.5329428008648976e-10
0.0 0.01 0.0
-3.5329428008648976e-10 0.0 0.01001668717653776

0.010017762061800653 0.0 -3.46931916590012e-09
0.0 0.01 0.0
-3.46931916590012e-09 0.0 0.010016114065953688

0.010016739688962922 0.0 -5.1774098314382984e-09
0.0 0.01 0.0
-5.177409831424746e-09 0.0 0.01001616310260629

0.010015714715380934 0.0 -4.118677351693564e-09
0.0 0.01 0.0
-4.118677351693564e-09 0.0 0.010014693923374783

0.010014735606841494 0.0 -2.1955025100795834e-09
0.0 0.01 0.0
-2.1955025100863597e-09 0.0 0.01001376617404666

0.010013858857043098 0.0 -7.3571794523172e-10
0.0 0.01 0.0
-7.357179452384963e-10 0.0 0.010013395015979996

0.010030576165749724 0.0 -9.283376505833999e-10
0.0 0.01 0.0
-9.283376505833999e-10 0.0 0.010017761559129978

0.010029514453130066 0.0 -2.197889535947417e-09
0.0 0.01 0.0
-2.1978895359469934e-09 0.0 0.01001741649471308

0.010028337750705777 0.0 -3.724539029093713e-09
0.0 0.01 0.0
-3.724539029093713e-09 0.0 0.010018238726607672

0.01002714724717362 0.0 -3.303014218746852e-09
0.0 0.01 0.0
-3.303014218746852e-09 0.0 0.010016695518170235

0.010025994557391286 0.0 -1.923752706303411e-09
0.0 0.01 0.0
-1.923752706303411e-09 0.0 0.010015508653291639

0.010024921956970008 0.0 -7.588173762628993e-10
0.0 0.01 0.0
-7.588173762627934e-10 0.0 0.01001507306121392

0.01003932991554924 0.0 -1.8003801999043597e-09
0.0 0.01 0.0
-1.8003801999043597e-09 0.0 0.010017930912600273

0.010038480730834843 0.0 -2.8278500504901673e-09
0.0 0.01 0.0
-2.8278500504901673e-09 0.0 0.010017473894071361

0.010037484615990197 0.0 -2.8178456712404037e-09
0.0 0.01 0.0
-2.8178456712404037e-09 0.0 0.010018832365432115

0.010036420657813619 0.0 -2.1972970719401974e-09
0.0 0.01 0.0
-2.1972970719401974e-09 0.0 0.010017802778240404

0.010035337785173851 0.0 -1.3139697051771114e-09
0.0 0.01 0.0
-1.3139697051771114e-09 0.0 0.010016705317099212

0.01003425576812204 0.0 -5.792661949051996e-10
0.0 0.01 0.0
-5.792661949051467e-10 0.0 0.010016300519593836

0.010043521224805277 0.0 -3.945739515723349e-10
0.0 0.01 0.0
-3.9457395157230846e-10 0.0 0.010018000134344757

0.010043057757566103 0.0 -1.8477714358740433e-09
0.0 0.01 0.0
-1.8477714358739374e-09 0.0 0.010016862355162956

0.010042478133934168 0.0 -1.8039946833139844e-09
0.0 0.01 0.0
-1.8039946833140903e-09 0.0 0.010018112591321127

0.010041776946286536 0.0 -1.2443461220066445e-09
0.0 0.01 0.0
-1.2443461220066445e-09 0.0 0.010017708075580115

0.010040958269765296 0.0 -6.964869191166268e-10
0.0 0.01 0.0
-6.964869191166268e-10 0.0 0.01001710091639437

0.010040022696640734 0.0 -3.1961108354602004e-10
0.0 0.01 0.0
-3.196110835459671e-10 0.0 0.01001696788889059

0.010043499493596201 0.0 9.000868816383814e-10
0.0 0.01 0.0
9.000868816383285e-10 0.0 0.010018296693123265

0.010043427766410366 0.0 -3.597639017054814e-10
0.0 0.01 0.0
-3.597639017054814e-10 0.0 0.01001657336058424

0.01004327687080172 0.0 -5.880183542221814e-10
0.0 0.01 0.0
-5.880183542221814e-10 0.0 0.010017478317179015

0.01004298062055837 0.0 -4.1812569114338996e-10
0.0 0.01 0.0
-4.181256911433635e-10 0.0 0.010017477362189095

0.010042482083846848 0.0 -2.2965794067659128e-10
0.0 0.01 0.0
-2.2965794067659128e-10 0.0 0.010017238824320266

0.01004177001008271 0.0 -1.1223333461626244e-10
0.0 0.01 0.0
-1.1223333461626244e-10 0.0 0.010017301648696759

0.010040848534138393 0.0 8.030154990935562e-10
0.0 0.01 0.0
8.030154990935033e-10 0.0 0.010018818135367305

0.010041078891996801 0.0 2.160822664039054e-10
0.0 0.01 0.0
2.160822664039054e-10 0.0 0.010016733307022494

0.010041251405033688 0.0 1.4649742675720445e-12
0.0 0.01 0.0
1.464974267572148e-12 0.0 0.01001726038551305

0.010041262794851662 0.0 -3.0562455166537744e-11
0.0 0.01 0.0
-3.056245516653609e-11 0.0 0.010017398350286987

0.010041035410800416 0.0 -2.1255571660062052e-11
0.0 0.01 0.0
-2.1255571660063706e-11 0.0 0.010017309991862863

0.010040530736170315 0.0 -1.4494235155553759e-11
0.0 0.01 0.0
-1.4494235155554586e-11 0.0 0.010017440067534128

0.010037344858962939 0.0 1.8382341222577923e-10
0.0 0.01 0.0
1.8382341222577923e-10 0.0 0.010019395633010878

0.010037746347454168 0.0 1.1205447829283564e-10
0.0 0.01 0.0
1.1205447829284888e-10 0.0 0.01001718680663106

0.010038093011348908 0.0 5.482398396527883e-11
0.0 0.01 0.0
5.4823983965275524e-11 0.0 0.010017429261209245

0.010038275283476027 0.0 2.293822280448913e-11
0.0 0.01 0.0
2.293822280448913e-11 0.0 0.010017496964667975

0.010038208118784475 0.0 9.026094119728863e-12
0.0 0.01 0.0
9.026094119728863e-12 0.0 0.010017374275149017

0.01003784263094949 0.0 3.2040869799075113e-12
0.0 0.01 0.0
3.2040869799070977e-12 0.0 0.010017463137898221

0.010034154637422259 0.0 -4.937227379599737e-11
0.0 0.01 0.0
-4.937227379599737e-11 0.0 0.010019861264166856

0.010034593229344368 0.0 -7.588199544092681e-11
0.0 0.01 0.0
-7.588199544092681e-11 0.0 0.010017697268387644

0.010034968214965091 0.0 -7.856283740051795e-11
0.0 0.01 0.0
-7.856283740052456e-11 0.0 0.01001782831423615

0.010035181392468683 0.0 -6.016450602193743e-11
0.0 0.01 0.0
-6.016450602194405e-11 0.0 0.010017683998208732

0.010035154258194455 0.0 -3.4984268723410934e-11
0.0 0.01 0.0
-3.4984268723407625e-11 0.0 0.010017404683233118

0.010034832503916449 0.0 -1.4056999803098885e-11
0.0 0.01 0.0
-1.405699980309723e-11 0.0 0.010017394882250149

0.010031541656276429 0.0 2.9219534657763663e-12
0.0 0.01 0.0
2.9219534657763663e-12 0.0 0.010019869110743795

0.010031905951442883 0.0 -2.565177882606879e-10
0.0 0.01 0.0
-2.565177882606879e-10 0.0 0.01001785922913885

0.010032194861637582 0.0 -2.939776756905022e-10
0.0 0.01 0.0
-2.939776756904757e-10 0.0 0.010018007021408749

0.010032328446238043 0.0 -2.1303078679689367e-10
0.0 0.01 0.0
-2.130307867968672e-10 0.0 0.010017727679413231

0.010032234795099177 0.0 -1.1519930422754512e-10
0.0 0.01 0.0
-1.1519930422754512e-10 0.0 0.010017308031719557

0.010031869959312528 0.0 -4.543219475675376e-11
0.0 0.01 0.0
-4.5432194756747145e-11 0.0 0.01001720590481894

0.010029104116171621 0.0 -9.254794554773367e-11
0.0 0.01 0.0
-9.254794554773367e-11 0.0 0.010019449646517724

0.010029318887365654 0.0 -5.853637395455199e-10
0.0 0.01 0.0
-5.853637395456258e-10 0.0 0.010017627550271854

0.010029443983569558 0.0 -6.424923895421125e-10
0.0 0.01 0.0
-6.424923895422184e-10 0.0 0.010017835703625945

0.010029412961292167 0.0 -4.524212143778201e-10
0.0 0.01 0.0
-4.5242121437776715e-10 0.0 0.010017518075158594

0.010029171098285614 0.0 -2.3448352095761435e-10
0.0 0.01 0.0
-2.344835209576408e-10 0.0 0.010017027743073025

0.0100286864665622 0.0 -8.765914446600973e-11
0.0 0.01 0.0
-8.765914446602297e-11 0.0 0.010016864817578098

0.010026273079682029 0.0 -4.567170500844704e-10
0.0 0.01 0.0
-4.5671705008457626e-10 0.0 0.010018721392654467

0.010026297219037828 0.0 -1.0866905597128886e-09
0.0 0.01 0.0
-1.0866905597128886e-09 0.0 0.010017084231127881

0.010026201267389888 0.0 -1.1180746631772472e-09
0.0 0.01 0.0
-1.1180746631772472e-09 0.0 0.010017331101171605

0.010025948298834643 0.0 -7.641857024380196e-10
0.0 0.01 0.0
-7.641857024380196e-10 0.0 0.010017035633251079

0.010025493658667499 0.0 -3.8175612924454676e-10
0.0 0.01 0.0
-3.8175612924454676e-10 0.0 0.010016542407335927

0.010024833399312164 0.0 -1.3288638169173567e-10
0.0 0.01 0.0
-1.3288638169176214e-10 0.0 0.010016341218216164

0.010022777285038992 0.0 -9.202960913999366e-10
0.0 0.01 0.0
-9.202960913999366e-10 0.0 0.010017778750452958

0.010022574260155494 0.0 -1.6197864125818095e-09
0.0 0.01 0.0
-1.6197864125818095e-09 0.0 0.010016316698493295

0.010022227188167128 0.0 -1.603139305515221e-09
0.0 0.01 0.0
-1.6031393055147975e-09 0.0 0.010016533111368069

0.010021702294560588 0.0 -1.0631472760629845e-09
0.0 0.01 0.0
-1.063147276063408e-09 0.0 0.010016287254964971

0.01002099020382167 0.0 -5.074967192636571e-10
0.0 0.01 0.0
-5.074967192636571e-10 0.0 0.010015837343929515

0.010020124084227401 0.0 -1.598111740776308e-10
0.0 0.01 0.0
-1.598111740776308e-10 0.0 0.01001563966350152

0.010018816626883689 0.0 -1.2780662126901264e-09
0.0 0.01 0.0
-1.2780662126901264e-09 0.0 0.010016683256983688

0.01001836592245143 0.0 -2.031757857225341e-09
0.0 0.01 0.0
-2.031757857226188e-09 0.0 0.010015368355496504

0.010017734063251016 0.0 -1.93314251825296e-09
0.0 0.01 0.0
-1.933142518251266e-09 0.0 0.010015523873922537

0.010016907533240818 0.0 -1.2354822829503491e-09
0.0 0.01 0.0
-1.2354822829503491e-09 0.0 0.010015314910267817

0.010015922699274878 0.0 -5.529502574017146e-10
0.0 0.01 0.0
-5.529502574008676e-10 0.0 0.010014947999728595

0.010014851369082653 0.0 -1.5168295738977118e-10
0.0 0.01 0.0
-1.5168295738977118e-10 0.0 0.010014783719250336

0.010014910733316805 0.0 -1.4216920795558942e-09
0.0 0.01 0.0
-1.421692079552506e-09 0.0 0.010015449278424293

0.010014190799767177 0.0 -2.289487473087007e-09
0.0 0.01 0.0
-2.289487473087007e-09 0.0 0.010014271694154897

0.010013264144032195 0.0 -2.0204569749550665e-09
0.0 0.01 0.0
-2.0204569749550665e-09 0.0 0.010014391859331473

0.010012145139888733 0.0 -1.2149773666616078e-09
0.0 0.01 0.0
-1.2149773666624548e-09 0.0 0.01001419421426352

0.010010908423128994 0.0 -5.120308231701774e-10
0.0 0.01 0.0
-5.120308231699657e-10 0.0 0.01001395053842253

0.010009681040256367 0.0 -1.1897830755938588e-10
0.0 0.01 0.0
-1.1897830755938588e-10 0.0 0.010013815176219977

0.010011597795173225 0.0 -1.2787023470009422e-09
0.0 0.01 0.0
-1.2787023470009422e-09 0.0 0.010014085855903106

0.010010607654513178 0.0 -4.760592023328691e-09
0.0 0.01 0.0
-4.760592023325303e-09 0.0 0.010013050402573822

0.010009398984552338 0.0 -4.1363906182618056e-09
0.0 0.01 0.0
-4.1363906182635e-09 0.0 0.010013167060142648

0.010008023796876719 0.0 -1.9511769322258984e-09
0.0 0.01 0.0
-1.9511769322250514e-09 0.0 0.010013075902242307

0.01000660077979691 0.0 -5.008236477199063e-10
0.0 0.01 0.0
-5.008236477196945e-10 0.0 0.010012909706115403

0.010005275171180696 0.0 -8.142474862935984e-11
0.0 0.01 0.0
-8.142474862935984e-11 0.0 0.01001277739762882

0.010009144828906656 0.0 -7.733152475520832e-10
0.0 0.01 0.0
-7.733152475520832e-10 0.0 0.01001266562212603

0.010007922505005637 0.0 -1.3749761864147202e-08
0.0 0.01 0.0
-1.3749761864147202e-08 0.0 0.01001174280169938

0.010006474031566261 0.0 -1.3211913970629085e-08
0.0 0.01 0.0
-1.3211913970629085e-08 0.0 0.010011943212052322

0.010004909362918825 0.0 -6.94917550698063e-09
0.0 0.01 0.0
-6.949175506978936e-09 0.0 0.010012000567537272

0.010003372305100091 0.0 -1.9028318816648782e-09
0.0 0.01 0.0
-1.9028318816648782e-09 0.0 0.010011847170109365

0.010001997648430497 0.0 -1.879874491635532e-10
0.0 0.01 0.0
-1.8798744916352674e-10 0.0 0.01001172323295233

0.01000750012936205 0.0 2.605433444298743e-09
0.0 0.01 0.0
2.605433444298743e-09 0.0 0.01001119993773299

0.010006110596466217 0.0 -2.8051355546802577e-08
0.0 0.01 0.0
-2.805135554681613e-08 0.0 0.01001036373894638

0.010004485916841827 0.0 -2.93382378466488e-08
0.0 0.01 0.0
-2.93382378466488e-08 0.0 0.010010807545371186

0.010002806831341275 0.0 -1.5944955949042657e-08
0.0 0.01 0.0
-1.5944955949042657e-08 0.0 0.010010974589881743

0.01000122827626513 0.0 -4.32154201988125e-09
0.0 0.01 0.0
-4.32154201988125e-09 0.0 0.01001081587219518

0.009999860002939946 0.0 -3.0630903465115053e-10
0.0 0.01 0.0
-3.063090346510976e-10 0.0 0.010010701253045803

0.01000645153799617 0.0 8.586215444114496e-09
0.0 0.01 0.0
8.586215444111108e-09 0.0 0.01000970651420563

0.010004908862352727 0.0 -3.4453571158245743e-08
0.0 0.01 0.0
-3.445357115823219e-08 0.0 0.010009040545134703

0.010003158245775039 0.0 -3.8975582274153764e-08
0.0 0.01 0.0
-3.8975582274153764e-08 0.0 0.01000978629724716

0.01000145391706647 0.0 -1.7660142000132454e-08
0.0 0.01 0.0
-1.7660142000132454e-08 0.0 0.010010052236877018

0.009999922000912627 0.0 -4.768132862833668e-10
0.0 0.01 0.0
-4.768132862833668e-10 0.0 0.01000990334202591

0.009998622784561925 0.0 2.9657818761315742e-09
0.0 0.01 0.0
2.9657818761319978e-09 0.0 0.01000976869549177

0.010005980961518455 0.0 -7.82577242181145e-09
0.0 0.01 0.0
-7.82577242181145e-09 0.0 0.01000822789361533

0.010004036142254 0.0 -3.3738371895148392e-09
0.0 0.01 0.0
-3.373837189513145e-09 0.0 0.010008022844589372

0.010002141287592954 0.0 -1.222497082929461e-08
0.0 0.01 0.0
-1.222497082929461e-08 0.0 0.010008947043151391

0.010000500037522184 0.0 1.1278179431243893e-08
0.0 0.01 0.0
1.1278179431243893e-08 0.0 0.010009307428144855

0.009999120116239074 0.0 2.5328372041574494e-08
0.0 0.01 0.0
2.5328372041574494e-08 0.0 0.010009151697819723

0.009997979612508928 0.0 1.809789182475509e-08
0.0 0.01 0.0
1.809789182475509e-08 0.0 0.010008965141718822

0.010006243143926032 0.0 -1.2296185199819204e-07
0.0 0.01 0.0
-1.2296185199840888e-07 0.0 0.01000692173219164

0.01000339332756882 0.0 8.761055942860512e-08
0.0 0.01 0.0
8.761055942857802e-08 0.0 0.010007476126669643

0.01000123658049926 0.0 8.828261261579432e-08
0.0 0.01 0.0
8.828261261584853e-08 0.0 0.010008436465261691

0.009999681016654157 0.0 9.634873364500955e-08
0.0 0.01 0.0
9.63487336450231e-08 0.0 0.0100087835103593

0.00999855031655285 0.0 9.148917251631909e-08
0.0 0.01 0.0
9.14891725163462e-08 0.0 0.010008573514434925

0.00999765882291666 0.0 5.7367716562104474e-08
0.0 0.01 0.0
5.73677165620977e-08 0.0 0.01000831896977908

0.010006889942392495 0.0 -4.3441506449547196e-07
0.0 0.01 0.0
-4.3441506449590564e-07 0.0 0.010006134568561288

0.010002980837500756 0.0 1.8673597903357767e-07
0.0 0.01 0.0
1.8673597903357767e-07 0.0 0.010007108627929261

0.010000431188101996 0.0 2.611156369293293e-07
0.0 0.01 0.0
2.611156369293293e-07 0.0 0.010008006214872684

0.009998916685246544 0.0 2.47562645580015e-07
0.0 0.01 0.0
2.47562645580015e-07 0.0 0.010008374767949352

0.009998074063136212 0.0 2.099550258390212e-07
0.0 0.01 0.0
2.099550258390483e-07 0.0 0.010008151061750585

0.009997501939027905 0.0 1.3343532403661817e-07
0.0 0.01 0.0
1.3343532403661817e-07 0.0 0.010007826080218614

0.010002842014618036 0.0 1.533118543296558e-07
0.0 0.01 0.0
1.5331185432971e-07 0.0 0.01000660519204369

0.009999869030953588 0.0 4.35183063133681e-07
0.0 0.01 0.0
4.3518306313378944e-07 0.0 0.010007406198000092

0.009998328449186869 0.0 4.47210293353414e-07
0.0 0.01 0.0
4.47210293353414e-07 0.0 0.01000795676639753

0.009997693319830301 0.0 3.7839906089781345e-07
0.0 0.01 0.0
3.7839906089781345e-07 0.0 0.010007805049759885

0.009997437495041539 0.0 2.548617276827963e-07
0.0 0.01 0.0
2.548617276827963e-07 0.0 0.01000745659155668

0.010003020921669242 0.0 -1.4901068931891118e-07
0.0 0.01 0.0
-1.490106893189654e-07 0.0 0.010006072430009885

0.009999857041145173 0.0 5.04067752727386e-07
0.0 0.01 0.0
5.040677527274945e-07 0.0 0.010006808234546765

0.009998138081869926 0.0 6.416664878872418e-07
0.0 0.01 0.0
6.416664878871334e-07 0.0 0.010007426777020906

0.00999750248624685 0.0 5.791685207674454e-07
0.0 0.01 0.0
5.791685207674454e-07 0.0 0.010007456632152448

0.009997448503676886 0.0 4.2294091293798054e-07
0.0 0.01 0.0
4.2294091293808896e-07 0.0 0.010007148785259216

0.010000579165105262 0.0 3.1421105909301087e-07
0.0 0.01 0.0
3.1421105909301087e-07 0.0 0.010006431514122427

0.009998563391366138 0.0 7.383508180102945e-07
0.0 0.01 0.0
7.383508180101861e-07 0.0 0.01000692376578648

0.009997693889342553 0.0 7.80623620125296e-07
0.0 0.01 0.0
7.80623620125296e-07 0.0 0.01000713857788536

0.009997566947175266 0.0 6.268489163811916e-07
0.0 0.01 0.0
6.268489163811916e-07 0.0 0.010006870883726862

0.010001831064498142 0.0 -2.794826507280341e-07
0.0 0.01 0.0
-2.7948265072814255e-07 0.0 0.010006118422381128

0.009999819558657322 0.0 5.98993673958095e-07
0.0 0.01 0.0
5.98993673958095e-07 0.0 0.010006730943469967

0.009998499958761686 0.0 8.990302863831623e-07
0.0 0.01 0.0
8.990302863833791e-07 0.0 0.010006883672263801

0.009997982715550963 0.0 8.366924267370858e-07
0.0 0.01 0.0
8.366924267371942e-07 0.0 0.010006672326905601

0.010001560415163018 0.0 5.585193737300218e-09
0.0 0.01 0.0
5.585193737298524e-09 0.0 0.010006599276829578

0.010000074286453917 0.0 7.558899696063267e-07
0.0 0.01 0.0
7.558899696063267e-07 0.0 0.01000679605723619

0.009999034279515939 0.0 9.650314140203804e-07
0.0 0.01 0.0
9.65031414020814e-07 0.0 0.01000662441608846

0.010002081201259323 0.0 1.0746387890249822e-07
0.0 0.01 0.0
1.0746387890249822e-07 0.0 0.010006718666740523

0.01000093917949337 0.0 8.054494052534521e-07
0.0 0.01 0.0
8.054494052534521e-07 0.0 0.010006691357279057

0.010003014703116665 0.0 -9.682467253498486e-07
0.0 0.01 0.0
-9.682467253498486e-07 0.0 0.010006039306924707

0.0100029949967429 0.0 1.0900112887670451e-07
0.0 0.01 0.0
1.0900112887670451e-07 0.0 0.010006690810835208

0.009999682515120137 0.0 1.2842197359007216e-15
0.0 0.01 0.0
1.2842197359007216e-15 0.0 0.010000012700024194

0.009999671516185952 0.0 1.032041257753903e-15
0.0 0.01 0.0
1.032041257753903e-15 0.0 0.010000011700020532

0.009999667016632427 0.0 4.1214668300294104e-16
0.0 0.01 0.0
4.1214668300294104e-16 0.0 0.010000010750017335

0.009999663516983883 0.0 7.43223067129424e-17
0.0 0.01 0.0
7.43223067129424e-17 0.0 0.010000008800011615

0.009999662517084977 0.0 7.556226309353261e-17
0.0 0.01 0.0
7.556226309353261e-17 0.0 0.010000007800009125

0.009999662517084977 0.0 2.46063662483275e-17
0.0 0.01 0.0
2.46063662483275e-17 0.0 0.010000006350006049

0.009999662017135634 0.0 3.8493596179753814e-17
0.0 0.01 0.0
3.8493596179753814e-17 0.0 0.010000004900003603

0.009999662517084977 0.0 2.1352789513039844e-17
0.0 0.01 0.0
2.1352789513039844e-17 0.0 0.010000003900002283

0.009999662517084977 0.0 2.7916079611315258e-14
0.0 0.01 0.0
2.7916079611315258e-14 0.0 0.010000002950001304

0.009999612522521982 0.0 -3.710211134293217e-15
0.0 0.01 0.0
-3.710211134293217e-15 0.0 0.010000016600041335

0.009999601023878563 0.0 -1.4564395594028936e-15
0.0 0.01 0.0
-1.4564395594028936e-15 0.0 0.010000016600041335

0.009999595524541384 0.0 -6.271253805702546e-16
0.0 0.01 0.0
-6.271253805702546e-16 0.0 0.010000014150030033

0.009999594024723727 0.0 -2.534287041051723e-16
0.0 0.01 0.0
-2.534287041051723e-16 0.0 0.010000012700024194

0.009999593524784658 0.0 -6.105289077844158e-17
0.0 0.01 0.0
-6.105289077844158e-17 0.0 0.010000010750017335

0.009999593524784658 0.0 4.849983262843161e-18
0.0 0.01 0.0
4.849983262843161e-18 0.0 0.010000008300010334

0.009999594024723727 0.0 8.061732327706133e-18
0.0 0.01 0.0
8.061732327706133e-18 0.0 0.010000006850007037

0.00999959502460209 0.0 2.0654121346426312e-17
0.0 0.01 0.0
2.0654121346426312e-17 0.0 0.010000005350004294

0.009999595524541384 0.0 -2.692233528735405e-18
0.0 0.01 0.0
-2.692233528735405e-18 0.0 0.010000004900003603

0.009999543531256462 0.0 -6.092847489060996e-15
0.0 0.01 0.0
-6.092847489060996e-15 0.0 0.010000021000066153

0.009999534032570869 0.0 -3.3445474022328897e-15
0.0 0.01 0.0
-3.3445474022328897e-15 0.0 0.01000002000006

0.009999529033273538 0.0 -1.6147826388053136e-15
0.0 0.01 0.0
-1.6147826388053136e-15 0.0 0.010000018050048872

0.0099995275334858 0.0 -5.810875691582418e-16
0.0 0.01 0.0
-5.810875691582418e-16 0.0 0.010000016100038882

0.0099995275334858 0.0 -1.8257926365114965e-16
0.0 0.01 0.0
-1.8257926365114965e-16 0.0 0.010000013650027948

0.009999528533344218 0.0 -2.577589708013642e-17
0.0 0.01 0.0
-2.577589708013642e-17 0.0 0.010000010750017335

0.00999953053306195 0.0 1.5040023540637637e-17
0.0 0.01 0.0
1.5040023540637637e-17 0.0 0.010000008300010334

0.009999532032851038 0.0 2.8724407078483808e-18
0.0 0.01 0.0
2.8724407078483808e-18 0.0 0.010000006850007037

0.009999532532780884 0.0 -1.2455090523629604e-17
0.0 0.01 0.0
-1.2455090523629604e-17 0.0 0.010000005850005133

0.009999470542051829 0.0 -5.923382664880091e-15
0.0 0.01 0.0
-5.923382664880091e-15 0.0 0.010000024900093003

0.009999460043736065 0.0 -3.826652600485078e-15
0.0 0.01 0.0
-3.826652600485078e-15 0.0 0.010000024400089305

0.009999457544141947 0.0 -1.704567289719555e-15
0.0 0.01 0.0
-1.704567289719555e-15 0.0 0.010000021500069338

0.009999457544141947 0.0 -6.200006266806466e-16
0.0 0.01 0.0
-6.200006266806466e-16 0.0 0.010000018050048872

0.009999459543817089 0.0 -1.1429629326891986e-16
0.0 0.01 0.0
-1.1429629326891986e-16 0.0 0.010000015150034429

0.009999462043412708 0.0 2.2294953116121774e-17
0.0 0.01 0.0
2.2294953116121774e-17 0.0 0.010000012200022326

0.00999946404309055 0.0 2.923491848554462e-17
0.0 0.01 0.0
2.923491848554462e-17 0.0 0.01000001025001576

0.00999946554284972 0.0 2.190597247921187e-17
0.0 0.01 0.0
2.190597247921187e-17 0.0 0.010000008300010334

0.009999468042449836 0.0 -1.119533138023119e-17
0.0 0.01 0.0
-1.119533138023119e-17 0.0 0.010000007300007994

0.009999385056727934 0.0 -8.30633138115144e-17
0.0 0.01 0.0
-8.30633138115144e-17 0.0 0.010000029800133207

0.009999377558119906 0.0 -3.0112679805331375e-15
0.0 0.01 0.0
-3.0112679805331375e-15 0.0 0.010000027350112205

0.009999373558869191 0.0 -1.74928981514329e-15
0.0 0.01 0.0
-1.74928981514329e-15 0.0 0.010000024400089305

0.00999937455868142 0.0 -5.074177405269247e-16
0.0 0.01 0.0
-5.074177405269247e-16 0.0 0.010000021000066152

0.009999377558119906 0.0 -2.1393242909487388e-17
0.0 0.01 0.0
-2.1393242909487388e-17 0.0 0.010000017600046462

0.009999382557190052 0.0 7.435163665166945e-17
0.0 0.01 0.0
7.435163665166945e-17 0.0 0.010000014650032193

0.009999385556635737 0.0 9.312022517023163e-17
0.0 0.01 0.0
9.312022517023163e-17 0.0 0.010000011700020532

0.009999388556084123 0.0 5.71751754261931e-17
0.0 0.01 0.0
5.71751754261931e-17 0.0 0.010000009300012973

0.009999390555717878 0.0 -1.619853723257735e-17
0.0 0.01 0.0
-1.619853723257735e-17 0.0 0.010000008300010334

0.00999927857807495 0.0 9.703354811599929e-15
0.0 0.01 0.0
9.703354811599929e-15 0.0 0.010000032250156013

0.009999273579160752 0.0 -7.046583109207476e-16
0.0 0.01 0.0
-7.046583109207476e-16 0.0 0.010000029800133207

0.009999272579378814 0.0 -1.3779269390435855e-15
0.0 0.01 0.0
-1.3779269390435855e-15 0.0 0.010000027350112205

0.009999275078834224 0.0 -3.8195765492241003e-16
0.0 0.01 0.0
-3.8195765492241003e-16 0.0 0.01000002395008604

0.009999281577427065 0.0 1.2687920786629568e-16
0.0 0.01 0.0
1.2687920786629568e-16 0.0 0.01000001955005733

0.00999928707624629 0.0 1.9984012501268615e-16
0.0 0.01 0.0
1.9984012501268615e-16 0.0 0.010000016100038882

0.009999293074968517 0.0 9.498979596086219e-17
0.0 0.01 0.0
9.498979596086219e-17 0.0 0.010000013650027948

0.009999296574228135 0.0 5.514701874840735e-17
0.0 0.01 0.0
5.514701874840735e-17 0.0 0.010000011250018984

0.009999298573806709 0.0 4.6128394551520856e-18
0.0 0.01 0.0
4.6128394551520856e-18 0.0 0.010000009300012973

0.009999151108104856 0.0 2.414200711358876e-14
0.0 0.01 0.0
2.414200711358876e-14 0.0 0.010000036600200938

0.009999146609253795 0.0 2.97711170931308e-15
0.0 0.01 0.0
2.97711170931308e-15 0.0 0.01000003515018533

0.009999148608742407 0.0 -1.311461795724126e-15
0.0 0.01 0.0
-1.311461795724126e-15 0.0 0.010000030750141836

0.00999915460721543 0.0 -2.7980603126945866e-16
0.0 0.01 0.0
-2.7980603126945866e-16 0.0 0.010000025900100622

0.009999163105070692 0.0 2.8280835758256953e-16
0.0 0.01 0.0
2.8280835758256953e-16 0.0 0.010000022950079004

0.00999917060319627 0.0 3.288889034682411e-16
0.0 0.01 0.0
3.288889034682411e-16 0.0 0.010000019050054435

0.00999917760146203 0.0 1.7655219794463364e-16
0.0 0.01 0.0
1.7655219794463364e-16 0.0 0.010000014150030033

0.009999182600232281 0.0 6.71131632250423e-17
0.0 0.01 0.0
6.71131632250423e-17 0.0 0.010000012700024194

0.00999918559949803 0.0 -3.44691024675515e-18
0.0 0.01 0.0
-3.44691024675515e-18 0.0 0.010000011250018984

0.009998993651930852 0.0 2.2773469533487365e-12
0.0 0.01 0.0
2.277346953355354e-12 0.0 0.010000042500270938

0.00999899365193085 0.0 3.619315800421509e-15
0.0 0.01 0.0
3.619315800421509e-15 0.0 0.010000040550246647

0.00999900114967523 0.0 -1.225041332398812e-15
0.0 0.01 0.0
-1.225041332398812e-15 0.0 0.01000003565019064

0.00999901064684232 0.0 -2.2865707410546544e-16
0.0 0.01 0.0
-2.2865707410546544e-16 0.0 0.010000031250146485

0.009999020643889548 0.0 4.552148472678091e-16
0.0 0.01 0.0
4.552148472678091e-16 0.0 0.010000026850108139

0.009999031140821409 0.0 4.3840344348688467e-16
0.0 0.01 0.0
4.3840344348688467e-16 0.0 0.010000022950079004

0.009999039638361887 0.0 1.7352629448232833e-16
0.0 0.01 0.0
1.7352629448232833e-16 0.0 0.010000018050048872

0.009999047136209716 0.0 -3.917244541852439e-17
0.0 0.01 0.0
-3.917244541852439e-17 0.0 0.010000015150034429

0.009999050635211141 0.0 -4.2689739928261736e-17
0.0 0.01 0.0
-4.2689739928261736e-17 0.0 0.010000013650027948

0.009998809712551366 0.0 1.9681352273118477e-11
0.0 0.01 0.0
1.9681352273118477e-11 0.0 0.010000051750401714

0.00999881371112559 0.0 6.0709675776045124e-15
0.0 0.01 0.0
6.0709675776045124e-15 0.0 0.010000048350350663

0.009998823707582134 0.0 -1.838812850284778e-15
0.0 0.01 0.0
-1.838812850284778e-15 0.0 0.010000042950276707

0.009998837702671669 0.0 -3.7731202086220154e-16
0.0 0.01 0.0
-3.7731202086220154e-16 0.0 0.010000037600212066

0.009998851697819972 0.0 7.674276917946841e-16
0.0 0.01 0.0
7.674276917946841e-16 0.0 0.010000031250146485

0.009998864693367443 0.0 6.98676166988094e-16
0.0 0.01 0.0
6.98676166988094e-16 0.0 0.010000027350112205

0.009998875689639496 0.0 3.180883964895523e-16
0.0 0.01 0.0
3.180883964895523e-16 0.0 0.010000023450082485

0.009998885186449102 0.0 3.0325312353210634e-17
0.0 0.01 0.0
3.0325312353210634e-17 0.0 0.010000019050054435

0.009998890184780817 0.0 -6.4929550998659384e-18
0.0 0.01 0.0
-6.4929550998659384e-18 0.0 0.010000017100043862

0.009998589298567936 0.0 5.848139301122795e-11
0.0 0.01 0.0
5.848139301133383e-11 0.0 0.010000067850690549

0.009998600793721531 0.0 1.7793490964261225e-13
0.0 0.01 0.0
1.7793490964261225e-13 0.0 0.010000061500567347

0.009998617286837234 0.0 -2.7089653660543043e-15
0.0 0.01 0.0
-2.7089653660543043e-15 0.0 0.01000005420044065

0.00999863577921554 0.0 -4.1104737604193056e-16
0.0 0.01 0.0
-4.1104737604193056e-16 0.0 0.010000049300364576

0.009998654271696451 0.0 1.1408915980642355e-15
0.0 0.01 0.0
1.1408915980642355e-15 0.0 0.010000042000264601

0.009998670765076802 0.0 7.485772287129093e-16
0.0 0.01 0.0
7.485772287129093e-16 0.0 0.010000036600200934

0.009998684259721434 0.0 2.4778073193114345e-16
0.0 0.01 0.0
2.4778073193114345e-16 0.0 0.010000029800133207

0.009998695755202552 0.0 -2.946590716864964e-17
0.0 0.01 0.0
-2.946590716864964e-17 0.0 0.010000025400096774

0.009998702252665942 0.0 -2.918871407981527e-17
0.0 0.01 0.0
-2.918871407981527e-17 0.0 0.010000022950079004

0.00999832841922078 0.0 1.0120393707554451e-10
0.0 0.01 0.0
1.0120393707554451e-10 0.0 0.010000092751290405

0.009998348409252922 0.0 7.430064846404993e-13
0.0 0.01 0.0
7.430064846404993e-13 0.0 0.010000082051009846

0.009998371897693897 0.0 -4.670908161540621e-15
0.0 0.01 0.0
-4.670908161540621e-15 0.0 0.010000071800773296

0.00999839638581926 0.0 -5.379017089228491e-17
0.0 0.01 0.0
-5.379017089228491e-17 0.0 0.010000063500604844

0.009998419874598362 0.0 1.62929949300479e-15
0.0 0.01 0.0
1.62929949300479e-15 0.0 0.01000005420044065

0.009998440364945115 0.0 9.865445983425855e-16
0.0 0.01 0.0
9.865445983425855e-16 0.0 0.010000045900316024

0.009998458356572962 0.0 2.474930513178275e-16
0.0 0.01 0.0
2.474930513178275e-16 0.0 0.010000039050228737

0.009998472350128436 0.0 2.7347600859857183e-17
0.0 0.01 0.0
2.7347600859857183e-17 0.0 0.010000033700170356

0.009998481346016552 0.0 -2.8613710813801145e-17
0.0 0.01 0.0
-2.8613710813801145e-17 0.0 0.010000029300128773

0.00999802708401325 0.0 1.1398216107200804e-10
0.0 0.01 0.0
1.1398216107200804e-10 0.0 0.01000012990253116

0.009998055067561512 0.0 8.177381223987196e-13
0.0 0.01 0.0
8.177381223987196e-13 0.0 0.010000113301925573

0.009998086549334165 0.0 -5.232870827856503e-15
0.0 0.01 0.0
-5.232870827856503e-15 0.0 0.010000095701373796

0.009998119030839877 0.0 1.7222491255731604e-16
0.0 0.01 0.0
1.7222491255731604e-16 0.0 0.010000084451069785

0.009998149014049213 0.0 2.156920873433723e-15
0.0 0.01 0.0
2.156920873433723e-15 0.0 0.010000071800773296

0.009998175999168251 0.0 1.1046103400301814e-15
0.0 0.01 0.0
1.1046103400301814e-15 0.0 0.010000060550549951

0.00999819698774523 0.0 2.3182143029816223e-16
0.0 0.01 0.0
2.3182143029816223e-16 0.0 0.0100000508003871

0.009998213978594838 0.0 8.580024136755811e-17
0.0 0.01 0.0
8.580024136755811e-17 0.0 0.010000044900302403

0.009998222474052125 0.0 -1.0480062237961266e-16
0.0 0.01 0.0
-1.0480062237961266e-16 0.0 0.010000039550234633

0.009997674311575661 0.0 8.266300403358075e-11
0.0 0.01 0.0
8.266300403358075e-11 0.0 0.010000185055136687

0.00999771428391361 0.0 2.2654199265090365e-13
0.0 0.01 0.0
2.2654199265080026e-13 0.0 0.01000015380354826

0.009997755256057589 0.0 -4.780796290583227e-15
0.0 0.01 0.0
-4.780796290583227e-15 0.0 0.01000013135258798

0.00999779722804447 0.0 8.601883762994754e-16
0.0 0.01 0.0
8.601883762994754e-16 0.0 0.01000011180187492

0.00999783420380421 0.0 2.6425621326962064e-15
0.0 0.01 0.0
2.6425621326962064e-15 0.0 0.010000094751346656

0.009997866682850536 0.0 9.002193692541963e-16
0.0 0.01 0.0
9.002193692541963e-16 0.0 0.010000080100962414

0.009997894165367742 0.0 -2.663262988198298e-16
0.0 0.01 0.0
-2.663262988198298e-16 0.0 0.010000067400681422

0.009997912154047177 0.0 -4.539127273941919e-16
0.0 0.01 0.0
-4.539127273941919e-16 0.0 0.010000058100506347

0.009997925645620478 0.0 -2.922876950408475e-16
0.0 0.01 0.0
-2.922876950408475e-16 0.0 0.010000052250409513

0.009997267620292962 0.0 3.380279428487896e-11
0.0 0.01 0.0
3.3802794284892195e-11 0.0 0.010000251009450546

0.009997320077682618 0.0 -1.4692347499826762e-15
0.0 0.01 0.0
-1.4692347499826762e-15 0.0 0.010000209456580625

0.00999737203629209 0.0 -1.965628423056481e-15
0.0 0.01 0.0
-1.965628423056481e-15 0.0 0.010000176254659746

0.009997422496870943 0.0 1.7394766790086734e-15
0.0 0.01 0.0
1.7394766790086734e-15 0.0 0.010000147453261306

0.00999746796200723 0.0 1.958642288396847e-15
0.0 0.01 0.0
1.958642288396847e-15 0.0 0.010000124002306448

0.009997508431496488 0.0 -1.373248374889062e-16
0.0 0.01 0.0
-1.373248374889062e-16 0.0 0.010000103501606865

0.009997539408474644 0.0 -9.455584699108001e-16
0.0 0.01 0.0
-9.455584699108001e-16 0.0 0.010000086901132759

0.009997563890483674 0.0 -6.437199612523358e-16
0.0 0.01 0.0
-6.437199612523358e-16 0.0 0.010000075200848266

0.009997578379920677 0.0 -4.1617556975894186e-16
0.0 0.01 0.0
-4.1617556975894186e-16 0.0 0.010000066400661351

0.009996798538060306 0.0 4.426929933657972e-12
0.0 0.01 0.0
4.4269299336596266e-12 0.0 0.01000033251658436

0.009996864974873867 0.0 2.9966874798406973e-15
0.0 0.01 0.0
2.9966874798406973e-15 0.0 0.010000276361455927

0.009996929914392806 0.0 6.89471556073677e-16
0.0 0.01 0.0
6.89471556073677e-16 0.0 0.010000230007935304

0.009996992357431414 0.0 8.235048612855214e-16
0.0 0.01 0.0
8.235048612855214e-16 0.0 0.010000192855578847

0.00999704980606038 0.0 -3.120442681519074e-16
0.0 0.01 0.0
-3.120442681519074e-16 0.0 0.010000158703777955

0.00999709676480578 0.0 -1.8022367630349156e-15
0.0 0.01 0.0
-1.8022367630349156e-15 0.0 0.010000132802645435

0.009997136730216726 0.0 -2.4711308012316322e-15
0.0 0.01 0.0
-2.4711308012316322e-15 0.0 0.010000109851810088

0.00999716520586444 0.0 -2.106912543384283e-15
0.0 0.01 0.0
-2.106912543384283e-15 0.0 0.010000093251304354

0.009997182691031862 0.0 -1.2670647178416407e-15
0.0 0.01 0.0
-1.2670647178416407e-15 0.0 0.01000008350104585

0.009996262096833016 0.0 -3.884561941326968e-14
0.0 0.01 0.0
-3.884561941326968e-14 0.0 0.010000426277255298

0.009996342008115089 0.0 9.801639187778792e-15
0.0 0.01 0.0
9.801639187778792e-15 0.0 0.010000354518851652

0.009996422420777168 0.0 -2.5096695947741212e-15
0.0 0.01 0.0
-2.5096695947741212e-15 0.0 0.010000294913045544

0.009996497341152683 0.0 -2.268700045361856e-15
0.0 0.01 0.0
-2.268700045361856e-15 0.0 0.010000244158941747

0.009996566768871099 0.0 -5.2194948670405345e-15
0.0 0.01 0.0
-5.2194948670405345e-15 0.0 0.0100002011560694

0.00999662520915104 0.0 -7.17522185496121e-15
0.0 0.01 0.0
-7.17522185496121e-15 0.0 0.010000165054086338

0.009996673660416648 0.0 -6.956069450745728e-15
0.0 0.01 0.0
-6.956069450745728e-15 0.0 0.010000136252784673

0.009996709125191638 0.0 -3.5824480351326935e-15
0.0 0.01 0.0
-3.5824480351326935e-15 0.0 0.010000116202025403

0.0099967286060033 0.0 -1.2300305709491423e-15
0.0 0.01 0.0
-1.2300305709491423e-15 0.0 0.010000103051592922

0.009995649840230837 0.0 -3.32457653645552e-15
0.0 0.01 0.0
-3.32457653645552e-15 0.0 0.01000052834186882

0.009995744218294097 0.0 1.1220845056623774e-14
0.0 0.01 0.0
1.1220845056623774e-14 0.0 0.010000443379486062

0.00999584109591192 0.0 -6.897228006345845e-15
0.0 0.01 0.0
-6.897228006345845e-15 0.0 0.010000367720281737

0.009995932982440878 0.0 -1.1450629283310721e-14
0.0 0.01 0.0
-1.1450629283310721e-14 0.0 0.010000303213790234

0.009996016381647245 0.0 -1.529545904368877e-14
0.0 0.01 0.0
-1.529545904368877e-14 0.0 0.010000249009300535

0.009996087796997986 0.0 -1.504259957992613e-14
0.0 0.01 0.0
-1.504259957992613e-14 0.0 0.010000203606218155

0.009996144231189991 0.0 -1.1639569336164186e-14
0.0 0.01 0.0
-1.1639569336164186e-14 0.0 0.010000167004183467

0.009996185184033985 0.0 -6.88945110236788e-15
0.0 0.01 0.0
-6.88945110236788e-15 0.0 0.010000141603007655

0.00999621015552735 0.0 -2.5318943465956087e-15
0.0 0.01 0.0
-2.5318943465956087e-15 0.0 0.010000125002343799

0.009994950826698767 0.0 1.796880445180274e-14
0.0 0.01 0.0
1.796880445180274e-14 0.0 0.010000643612130156

0.009995062659009079 0.0 -9.028746779688232e-16
0.0 0.01 0.0
-9.028746779688232e-16 0.0 0.010000540093752038

0.009995178489287892 0.0 -1.6194603000621082e-14
0.0 0.01 0.0
-1.6194603000621082e-14 0.0 0.010000449230269362

0.009995288332065406 0.0 -2.3448526903235782e-14
0.0 0.01 0.0
-2.3448526903235782e-14 0.0 0.010000370120547369

0.009995388691587035 0.0 -2.826835488849777e-14
0.0 0.01 0.0
-2.826835488849777e-14 0.0 0.010000302763749329

0.009995474074455536 0.0 -2.5273693657218713e-14
0.0 0.01 0.0
-2.5273693657218713e-14 0.0 0.010000246109085155

0.009995542981523817 0.0 -1.8361579735892174e-14
0.0 0.01 0.0
-1.8361579735892174e-14 0.0 0.010000203106187652

0.009995593913751107 0.0 -9.370233299196101e-15
0.0 0.01 0.0
-9.370233299196101e-15 0.0 0.010000170904381147

0.009995623374904674 0.0 -3.4493601987176866e-15
0.0 0.01 0.0
-3.4493601987176866e-15 0.0 0.010000149903370587

0.009994151135387219 0.0 2.3394378664619398e-14
0.0 0.01 0.0
2.3394378664619398e-14 0.0 0.010000767688392772

0.009994286899659447 0.0 -2.222619346241299e-14
0.0 0.01 0.0
-2.222619346241299e-14 0.0 0.010000647012788416

0.009994426662777972 0.0 -2.7303445679536774e-14
0.0 0.01 0.0
-2.7303445679536774e-14 0.0 0.010000539093590152

0.00999455794561901 0.0 -2.6046414538201125e-14
0.0 0.01 0.0
-2.6046414538201125e-14 0.0 0.010000443879552609

0.009994678251167947 0.0 -3.29042944948982e-14
0.0 0.01 0.0
-3.29042944948982e-14 0.0 0.010000363319799232

0.009994779590748173 0.0 -3.175976447862867e-14
0.0 0.01 0.0
-3.175976447862867e-14 0.0 0.010000295913134168

0.00999486146339912 0.0 -2.352151753505682e-14
0.0 0.01 0.0
-2.352151753505682e-14 0.0 0.01000024270883585

0.009994920373014565 0.0 -1.0554922356267559e-14
0.0 0.01 0.0
-1.0554922356267559e-14 0.0 0.010000203606218155

0.009994956318376363 0.0 -3.610134919123283e-15
0.0 0.01 0.0
-3.610134919123283e-15 0.0 0.010000181154922448

0.009993245848950958 0.0 2.1689723941905865e-14
0.0 0.01 0.0
2.1689723941905865e-14 0.0 0.010000900521626275

0.00999340902187998 0.0 -4.3173007083105804e-14
0.0 0.01 0.0
-4.3173007083105804e-14 0.0 0.010000760836822093

0.009993574198948684 0.0 -1.600311836504791e-14
0.0 0.01 0.0
-1.600311836504791e-14 0.0 0.010000634810442529

0.009993732397354484 0.0 -5.156591985384851e-15
0.0 0.01 0.0
-5.156591985384851e-15 0.0 0.01000052444125291

0.009993875131700641 0.0 -1.2762811599185819e-14
0.0 0.01 0.0
-1.2762811599185819e-14 0.0 0.010000430227762796

0.009993995911693546 0.0 -2.3053270653666168e-14
0.0 0.01 0.0
-2.3053270653666168e-14 0.0 0.010000352068591971

0.009994091241143635 0.0 -1.7161718407030523e-14
0.0 0.01 0.0
-1.7161718407030523e-14 0.0 0.010000292512834063

0.009994161616990557 0.0 -9.4195780614184e-15
0.0 0.01 0.0
-9.4195780614184e-15 0.0 0.010000248059229703

0.009994205041127146 0.0 -3.4147209615226816e-15
0.0 0.01 0.0
-3.4147209615226816e-15 0.0 0.01000022265743623

0.009992218591979126 0.0 1.9674074962185957e-14
0.0 0.01 0.0
1.9674074962185957e-14 0.0 0.010001043113190071

0.009992415637117768 0.0 -4.415133403549934e-14
0.0 0.01 0.0
-4.415133403549934e-14 0.0 0.010000883417050065

0.009992612693913978 0.0 4.078900543997642e-14
0.0 0.01 0.0
4.078900543997642e-14 0.0 0.010000740332205651

0.009992802278543716 0.0 7.788289107433721e-14
0.0 0.01 0.0
7.788289107433721e-14 0.0 0.010000614806693444

0.009992971417097127 0.0 5.171764679519571e-14
0.0 0.01 0.0
5.171764679519571e-14 0.0 0.010000509788980072

0.009993113120903951 0.0 1.7701525257829013e-14
0.0 0.01 0.0
1.7701525257829013e-14 0.0 0.010000422876822209

0.00999322688747759 0.0 4.105570876460157e-15
0.0 0.01 0.0
4.105570876460157e-15 0.0 0.010000355018904868

0.009993307723983241 0.0 1.817193857938469e-15
0.0 0.01 0.0
1.817193857938469e-15 0.0 0.010000306664105854

0.009993357624040017 0.0 -9.23249324642793e-16
0.0 0.01 0.0
-9.23249324642793e-16 0.0 0.010000278311618172

0.009991061997480092 0.0 9.852751344553788e-15
0.0 0.01 0.0
9.852751344553788e-15 0.0 0.010001195514354017

0.00999130186181711 0.0 -2.6360598134512883e-15
0.0 0.01 0.0
-2.6360598134512883e-15 0.0 0.01000101380414899

0.009991537753574581 0.0 1.8346176305482566e-13
0.0 0.01 0.0
1.8346176305477396e-13 0.0 0.010000855109669377

0.00999176019535735 0.0 2.351467558134015e-13
0.0 0.01 0.0
2.351467558134015e-13 0.0 0.01000071882749952

0.00999195721337815 0.0 1.7152752408614633e-13
0.0 0.01 0.0
1.7152752408612048e-13 0.0 0.01000060455481856

0.009992123814925202 0.0 9.414507744079586e-14
0.0 0.01 0.0
9.414507744079586e-14 0.0 0.010000513239509517

0.009992254508198944 0.0 4.8535333574091607e-14
0.0 0.01 0.0
4.8535333574091607e-14 0.0 0.010000441429227243

0.009992349787825207 0.0 2.0631977692476946e-14
0.0 0.01 0.0
2.0631977692476946e-14 0.0 0.01000039212306287

0.009992405161006872 0.0 5.41486888086403e-15
0.0 0.01 0.0
5.41486888086403e-15 0.0 0.010000360869533082

0.009989772212570837 0.0 1.1951192277094905e-14
0.0 0.01 0.0
1.1951192277094905e-14 0.0 0.010001353324673586

0.009990059342172206 0.0 1.1868291616775652e-13
0.0 0.01 0.0
1.1868291616775652e-13 0.0 0.010001155450228939

0.009990341012450764 0.0 4.0461126948461187e-13
0.0 0.01 0.0
4.0461126948461187e-13 0.0 0.010000985495661115

0.009990599771277442 0.0 4.462971721735188e-13
0.0 0.01 0.0
4.462971721735705e-13 0.0 0.01000084385680213

0.00999082913116926 0.0 3.2305640431912234e-13
0.0 0.01 0.0
3.2305640431912234e-13 0.0 0.010000727629408979

0.009991020110261713 0.0 1.8376040970156746e-13
0.0 0.01 0.0
1.8376040970151576e-13 0.0 0.010000632860071712

0.009991169709889398 0.0 9.276636138455031e-14
0.0 0.01 0.0
9.276636138455031e-14 0.0 0.01000056059713685

0.00999127692708976 0.0 4.1886449168685814e-14
0.0 0.01 0.0
4.1886449168685814e-14 0.0 0.010000511739278883

0.0099913422564716 0.0 8.696994302073826e-15
0.0 0.01 0.0
8.696994302073826e-15 0.0 0.010000481484771905

0.00998836035378964 0.0 -1.0635019789182031e-13
0.0 0.01 0.0
-1.0635019789182031e-13 0.0 0.010001523297994835

0.009988703669931553 0.0 2.2182828384495494e-13
0.0 0.01 0.0
2.2182828384495494e-13 0.0 0.010001312258258078

0.009989031572388313 0.0 6.133471262489175e-13
0.0 0.01 0.0
6.133471262488141e-13 0.0 0.010001138394361755

0.009989329104535434 0.0 6.333514288916008e-13
0.0 0.01 0.0
6.333514288917042e-13 0.0 0.010001000650175082

0.009989588781619797 0.0 4.3837960638571373e-13
0.0 0.01 0.0
4.3837960638571373e-13 0.0 0.010000889768739177

0.00998980561005415 0.0 2.457133427286895e-13
0.0 0.01 0.0
2.457133427286378e-13 0.0 0.0100007998959648

0.009989973100992687 0.0 1.2063508081226956e-13
0.0 0.01 0.0
1.2063508081226956e-13 0.0 0.010000733980801268

0.009990093241050796 0.0 5.2452268111624716e-14
0.0 0.01 0.0
5.2452268111624716e-14 0.0 0.010000685620504877

0.009990166025103046 0.0 1.2612774926033847e-14
0.0 0.01 0.0
1.2612774926033847e-14 0.0 0.010000658264991216

0.009986860442640138 0.0 -8.987905980910331e-13
0.0 0.01 0.0
-8.987905980910331e-13 0.0 0.010001707937457935

0.009987263872724849 0.0 -1.1144731010145729e-13
0.0 0.01 0.0
-1.1144731010145729e-13 0.0 0.010001492534082215

0.009987637960843624 0.0 4.88521776262252e-13
0.0 0.01 0.0
4.885217762622003e-13 0.0 0.010001330365433743

0.009987972733120801 0.0 5.999810400564136e-13
0.0 0.01 0.0
5.999810400563619e-13 0.0 0.010001207718752465

0.009988260704064006 0.0 4.241877002374468e-13
0.0 0.01 0.0
4.241877002374985e-13 0.0 0.010001112485616104

0.009988499370139374 0.0 2.3004358869282367e-13
0.0 0.01 0.0
2.3004358869277197e-13 0.0 0.010001036761208787

0.009988684734301766 0.0 1.0858737405202168e-13
0.0 0.01 0.0
1.0858737405202168e-13 0.0 0.010000977693363958

0.009988817784296269 0.0 4.56725939503294e-14
0.0 0.01 0.0
4.56725939503294e-14 0.0 0.010000936181448948

0.009988898015514251 0.0 1.2840729767960522e-14
0.0 0.01 0.0
1.2840729767960522e-14 0.0 0.01000091127454806

0.009985352744279358 0.0 -3.6226124889276078e-12
0.0 0.01 0.0
-3.6226124889276078e-12 0.0 0.01000192390506922

0.00998581324680203 0.0 -2.0138552052605106e-12
0.0 0.01 0.0
-2.0138552052605106e-12 0.0 0.010001721144248679

0.009986231986018132 0.0 -8.108686238247522e-13
0.0 0.01 0.0
-8.108686238247522e-13 0.0 0.010001583876220129

0.009986598986289034 0.0 -1.0900394638087994e-13
0.0 0.01 0.0
-1.0900394638087994e-13 0.0 0.01000149103341081

0.009986911740295833 0.0 8.934332585302799e-14
0.0 0.01 0.0
8.934332585302799e-14 0.0 0.010001419252084306

0.00998716873850969 0.0 8.62502245838822e-14
0.0 0.01 0.0
8.62502245838822e-14 0.0 0.010001362078238037

0.009987368473690856 0.0 5.080543046491538e-14
0.0 0.01 0.0
5.080543046491538e-14 0.0 0.0100013161597959

0.009987511931788788 0.0 2.3364697518455638e-14
0.0 0.01 0.0
2.3364697518455638e-14 0.0 0.010001282496677477

0.009987597112959412 0.0 5.759652473856457e-15
0.0 0.01 0.0
5.759652473856457e-15 0.0 0.01000126343940154

0.009983967638077898 0.0 -9.623490028933795e-12
0.0 0.01 0.0
-9.623490028932968e-12 0.0 0.01000220973222174

0.009984482692895444 0.0 -6.9774933417535266e-12
0.0 0.01 0.0
-6.9774933417535266e-12 0.0 0.010002026966122231

0.00998493610662774 0.0 -4.636936642165059e-12
0.0 0.01 0.0
-4.636936642165059e-12 0.0 0.010001926806744603

0.009985327356263642 0.0 -2.3935616232168065e-12
0.0 0.01 0.0
-2.3935616232165997e-12 0.0 0.0100018755275086

0.009985658411276903 0.0 -1.0134163986920977e-12
0.0 0.01 0.0
-1.0134163986923045e-12 0.0 0.010001837406285241

0.00998592925369957 0.0 -3.645378776435553e-13
0.0 0.01 0.0
-3.6453787764352945e-13 0.0 0.010001801736821386

0.009986139370905521 0.0 -1.1643718303132703e-13
0.0 0.01 0.0
-1.1643718303132703e-13 0.0 0.0100017729213761

0.009986288751393098 0.0 -2.5858494118832274e-14
0.0 0.01 0.0
-2.5858494118832274e-14 0.0 0.010001749008747757

0.009986378382903458 0.0 -3.813994047864431e-15
0.0 0.01 0.0
-3.813994047864431e-15 0.0 0.010001735301586252

0.00998290593119236 0.0 -1.7926960951674047e-11
0.0 0.01 0.0
-1.7926960951674047e-11 0.0 0.010002618227908763

0.009983458633229655 0.0 -1.4803177372005102e-11
0.0 0.01 0.0
-1.4803177372003447e-11 0.0 0.010002456454829188

0.00998393081595566 0.0 -1.1859478036037229e-11
0.0 0.01 0.0
-1.1859478036037229e-11 0.0 0.010002396361106843

0.009984335384055444 0.0 -7.317169886229929e-12
0.0 0.01 0.0
-7.317169886229929e-12 0.0 0.010002391007264057

0.009984673805971777 0.0 -3.625894664467762e-12
0.0 0.01 0.0
-3.625894664467762e-12 0.0 0.010002390506905361

0.009984952532214266 0.0 -1.4879094215486248e-12
0.0 0.01 0.0
-1.487909421548418e-12 0.0 0.010002381700604544

0.00998516806332948 0.0 -5.106008399587604e-13
0.0 0.01 0.0
-5.106008399587604e-13 0.0 0.010002368040877136

0.009985320387038301 0.0 -1.5310354781179452e-13
0.0 0.01 0.0
-1.5310354781179452e-13 0.0 0.010002354831523641

0.009985413974996325 0.0 -3.347645545986778e-14
0.0 0.01 0.0
-3.347645545986778e-14 0.0 0.01000234357359322

0.00998242145963857 0.0 -2.2524845430807672e-11
0.0 0.01 0.0
-2.2524845430807672e-11 0.0 0.010003225660061446

0.00998297855826437 0.0 -2.0034930220907084e-11
0.0 0.01 0.0
-2.0034930220907084e-11 0.0 0.010003069762938343

0.00998345266296025 0.0 -1.9808543500743193e-11
0.0 0.01 0.0
-1.9808543500743193e-11 0.0 0.010003037983841315

0.009983854685021935 0.0 -1.443478520274366e-11
0.0 0.01 0.0
-1.443478520274366e-11 0.0 0.010003069262477774

0.009984189574631557 0.0 -8.03600511175685e-12
0.0 0.01 0.0
-8.036005111757678e-12 0.0 0.010003105946436469

0.00998446278591442 0.0 -3.5393700548024278e-12
0.0 0.01 0.0
-3.5393700548028414e-12 0.0 0.01000312206148179

0.009984675796790743 0.0 -1.262774294365523e-12
0.0 0.01 0.0
-1.262774294365523e-12 0.0 0.010003121561013375

0.009984827600244125 0.0 -3.773979435229642e-13
0.0 0.01 0.0
-3.773979435229125e-13 0.0 0.010003113253248607

0.009984919183380944 0.0 -7.752713349472598e-14
0.0 0.01 0.0
-7.752713349472598e-14 0.0 0.010003102993688158

0.009982832808276053 0.0 -1.3377600928885229e-11
0.0 0.01 0.0
-1.3377600928884402e-11 0.0 0.01000411679080027

0.009983358632629887 0.0 -1.1166646633722572e-11
0.0 0.01 0.0
-1.1166646633722572e-11 0.0 0.010003935922504028

0.009983800449013817 0.0 -2.0572941168049675e-11
0.0 0.01 0.0
-2.0572941168049675e-11 0.0 0.010003904135151117

0.00998417613858972 0.0 -1.9810722823031834e-11
0.0 0.01 0.0
-1.9810722823031834e-11 0.0 0.010003952041560979

0.009984489660366936 0.0 -1.2734896978882176e-11
0.0 0.01 0.0
-1.2734896978882176e-11 0.0 0.010004009710377898

0.009984744480774287 0.0 -5.907282103698053e-12
0.0 0.01 0.0
-5.907282103698053e-12 0.0 0.010004041999343728

0.009984946559264333 0.0 -2.0402816422789407e-12
0.0 0.01 0.0
-2.040281642278734e-12 0.0 0.010004046905291481

0.009985090410788124 0.0 -5.438731265770243e-13
0.0 0.01 0.0
-5.438731265771276e-13 0.0 0.010004039045766418

0.009985179014474667 0.0 -9.972756844308815e-14
0.0 0.01 0.0
-9.972756844308815e-14 0.0 0.010004029283961727

0.00998458422035083 0.0 1.8990061835428592e-11
0.0 0.01 0.0
1.8990061835428592e-11 0.0 0.010005360256774712

0.009985016244347202 0.0 2.4894816732761764e-11
0.0 0.01 0.0
2.4894816732761764e-11 0.0 0.010005120129676344

0.009985387590890741 0.0 -2.4899792564357384e-12
0.0 0.01 0.0
-2.4899792564357384e-12 0.0 0.010005047268668197

0.00998570570753824 0.0 -1.5459962494097296e-11
0.0 0.01 0.0
-1.5459962494097296e-11 0.0 0.010005078566157085

0.009985975060111538 0.0 -1.3299280596091624e-11
0.0 0.01 0.0
-1.329928059609245e-11 0.0 0.010005130395444607

0.009986197130565824 0.0 -6.2613878349487615e-12
0.0 0.01 0.0
-6.261387834949175e-12 0.0 0.010005161693713606

0.009986374399229532 0.0 -1.6193364541108031e-12
0.0 0.01 0.0
-1.6193364541105963e-12 0.0 0.010005164147510315

0.009986504369051012 0.0 -1.0070637567062033e-13
0.0 0.01 0.0
-1.0070637567062033e-13 0.0 0.010005148022593576

0.009986583050565878 0.0 5.033301802806618e-14
0.0 0.01 0.0
5.033301802806618e-14 0.0 0.010005132348448

0.009988224830892888 0.0 7.146658605079767e-11
0.0 0.01 0.0
7.146658605079767e-11 0.0 0.010006972134827109

0.00998848840806587 0.0 9.262579339221267e-11
0.0 0.01 0.0
9.262579339220605e-11 0.0 0.010006649676854494

0.00998873755501152 0.0 4.292995031871513e-11
0.0 0.01 0.0
4.292995031871513e-11 0.0 0.010006501935782397

0.009988960308165757 0.0 7.707937975805178e-12
0.0 0.01 0.0
7.707937975805178e-12 0.0 0.010006477488246868

0.00998915965248238 0.0 -2.5895119889152275e-12
0.0 0.01 0.0
-2.5895119889152275e-12 0.0 0.010006496074369224

0.009989328107733434 0.0 -1.1197046052030783e-13
0.0 0.01 0.0
-1.1197046052030783e-13 0.0 0.010006502937734394

0.009989465669229886 0.0 2.4664637504677526e-12
0.0 0.01 0.0
2.4664637504677526e-12 0.0 0.010006485303423164

0.009989568844081781 0.0 2.0164782722403447e-12
0.0 0.01 0.0
2.0164782722403447e-12 0.0 0.010006451537985121

0.009989632146177164 0.0 6.240843323064201e-13
0.0 0.01 0.0
6.240843323064201e-13 0.0 0.010006425638021716

0.009994241477908372 0.0 1.1001495126558266e-10
0.0 0.01 0.0
1.1001495126559589e-10 0.0 0.01000889024142143

0.009994264438276574 0.0 1.7067805898730027e-10
0.0 0.01 0.0
1.7067805898730027e-10 0.0 0.010008492255524623

0.00999433332033064 0.0 1.0802835973340943e-10
0.0 0.01 0.0
1.0802835973340943e-10 0.0 0.010008253356451472

0.009994420173646244 0.0 5.134932005118108e-11
0.0 0.01 0.0
5.134932005118108e-11 0.0 0.010008153511131736

0.009994513019349692 0.0 2.439826380285796e-11
0.0 0.01 0.0
2.4398263802854652e-11 0.0 0.010008113363328984

0.009994600875731306 0.0 1.6851427110809866e-11
0.0 0.01 0.0
1.685142711081152e-11 0.0 0.010008072764918658

0.009994679748774774 0.0 1.2698800705702313e-11
0.0 0.01 0.0
1.2698800705702313e-11 0.0 0.010008015978094557

0.009994741151234188 0.0 6.932940277434684e-12
0.0 0.01 0.0
6.932940277433857e-12 0.0 0.010007952827068829

0.009994779590748175 0.0 1.8974796009888624e-12
0.0 0.01 0.0
1.8974796009886556e-12 0.0 0.01000790586553347

0.010002742327641813 0.0 8.194864965018004e-11
0.0 0.01 0.0
8.194864965018004e-11 0.0 0.010010970175344162

0.010002477970746644 0.0 2.09660591881382e-10
0.0 0.01 0.0
2.0966059188143494e-10 0.0 0.010010534222126511

0.010002319656871646 0.0 1.614666848451103e-10
0.0 0.01 0.0
1.6146668484513678e-10 0.0 0.0100102295250959

0.010002229745543127 0.0 1.0027092915205789e-10
0.0 0.01 0.0
1.0027092915205789e-10 0.0 0.01001005273833962

0.01000218091324998 0.0 6.218901203718672e-11
0.0 0.01 0.0
6.218901203718672e-11 0.0 0.010009941555552033

0.010002157948310213 0.0 4.2914205767915423e-11
0.0 0.01 0.0
4.291420576792204e-11 0.0 0.010009839703935883

0.010002150593559023 0.0 2.831862184751846e-11
0.0 0.01 0.0
2.831862184752508e-11 0.0 0.010009730483943957

0.01000215159420449 0.0 1.4200424415218817e-11
0.0 0.01 0.0
1.4200424415215509e-11 0.0 0.01000962522894167

0.010002155496724676 0.0 3.744751240158075e-12
0.0 0.01 0.0
3.744751240157248e-12 0.0 0.010009552720757308

0.010013134230962522 0.0 -2.311308053767857e-11
0.0 0.01 0.0
-2.3113080537466812e-11 0.0 0.0100130057786144

0.010012581805502558 0.0 1.7168302928393872e-10
0.0 0.01 0.0
1.7168302929749125e-10 0.0 0.010012596510901594

0.010012176002206262 0.0 1.667244827710957e-10
0.0 0.01 0.0
1.6672448276431944e-10 0.0 0.010012278928844395

0.010011877578065766 0.0 1.2653697163564565e-10
0.0 0.01 0.0
1.2653697163649268e-10 0.0 0.01001205887746043

0.010011657553143006 0.0 9.186514987976529e-11
0.0 0.01 0.0
9.186514988061232e-11 0.0 0.010011889821611813

0.010011495391265704 0.0 6.598037293002718e-11
0.0 0.01 0.0
6.598037293002718e-11 0.0 0.010011723684536844

0.010011378741941652 0.0 4.2227442052066705e-11
0.0 0.01 0.0
4.2227442052066705e-11 0.0 0.010011552237338704

0.0100113003759544 0.0 2.0453696239878687e-11
0.0 0.01 0.0
2.0453696239878687e-11 0.0 0.010011399362235157

0.010011257731984198 0.0 5.303604439395508e-12
0.0 0.01 0.0
5.303604439395508e-12 0.0 0.010011294004408929

0.010023975095987568 0.0 -1.3369873673259091e-10
0.0 0.01 0.0
-1.3369873673259091e-10 0.0 0.01001477191708151

0.010023179444637624 0.0 7.857386497189718e-11
0.0 0.01 0.0
7.857386497192365e-11 0.0 0.010014468339462406

0.010022539375147674 0.0 1.1759498597828416e-10
0.0 0.01 0.0
1.1759498597823122e-10 0.0 0.010014209428902293

0.010022026159622463 0.0 1.1116687240776483e-10
0.0 0.01 0.0
1.111668724077913e-10 0.0 0.010013998087205132

0.010021616741045566 0.0 9.256366734625234e-11
0.0 0.01 0.0
9.256366734625234e-11 0.0 0.010013799009439602

0.010021293418872887 0.0 6.986068018644375e-11
0.0 0.01 0.0
6.986068018643052e-11 0.0 0.010013582823932107

0.010021049677289106 0.0 4.453767258562442e-11
0.0 0.01 0.0
4.4537672585631035e-11 0.0 0.010013357264895138

0.010020879159327131 0.0 2.1223497587991724e-11
0.0 0.01 0.0
2.1223497587991724e-11 0.0 0.010013155313883493

0.010020776973477582 0.0 5.443161950712274e-12
0.0 0.01 0.0
5.4431619507131015e-12 0.0 0.010013019030210608

0.010033212581647062 0.0 -1.6687733574406878e-10
0.0 0.01 0.0
-1.66877335744082e-10 0.0 0.010016116979995007

0.010032254484339203 0.0 -5.610089733127683e-12
0.0 0.01 0.0
-5.610089733127683e-12 0.0 0.010015963945930052

0.010031417945274405 0.0 4.647213422128829e-11
0.0 0.01 0.0
4.6472134221294905e-11 0.0 0.010015826040412876

0.010030702822864654 0.0 6.281875785417547e-11
0.0 0.01 0.0
6.281875785418208e-11 0.0 0.010015677390171169

0.010030103640808263 0.0 6.166995001410244e-11
0.0 0.01 0.0
6.166995001410244e-11 0.0 0.010015488057828396

0.010029612467306166 0.0 4.970534871340492e-11
0.0 0.01 0.0
4.970534871340492e-11 0.0 0.010015250164327924

0.01002923414743533 0.0 3.210033698419522e-11
0.0 0.01 0.0
3.210033698419853e-11 0.0 0.010014988732091416

0.010028962741913542 0.0 1.515865151352107e-11
0.0 0.01 0.0
1.515865151352107e-11 0.0 0.010014751828379458

0.01002879973770332 0.0 3.835097122104179e-12
0.0 0.01 0.0
3.835097122103765e-12 0.0 0.010014592428814025

0.01003901028883882 0.0 -1.230787380024549e-10
0.0 0.01 0.0
-1.2307873800244828e-10 0.0 0.010016981156223853

0.010037984886793529 0.0 -4.220429704073018e-11
0.0 0.01 0.0
-4.220429704073018e-11 0.0 0.010016996835867506

0.010037015563120612 0.0 -7.111554009917735e-12
0.0 0.01 0.0
-7.111554009917735e-12 0.0 0.01001699784097538

0.01003613931779427 0.0 1.2442240428669045e-11
0.0 0.01 0.0
1.2442240428669045e-11 0.0 0.010016943364564821

0.010035377301385736 0.0 2.0871404313331012e-11
0.0 0.01 0.0
2.0871404313332666e-11 0.0 0.010016805468841171

0.010034745199048777 0.0 1.9998417570509667e-11
0.0 0.01 0.0
1.9998417570508012e-11 0.0 0.010016579691965817

0.010034244452647025 0.0 1.362446959369308e-11
0.0 0.01 0.0
1.3624469593696388e-11 0.0 0.010016309362709058

0.010033884852647914 0.0 6.415707729710766e-12
0.0 0.01 0.0
6.415707729710766e-12 0.0 0.010016059603958944

0.0100336682727932 0.0 1.5926799323184671e-12
0.0 0.01 0.0
1.5926799323184671e-12 0.0 0.010015890345373282

0.010040872778923354 0.0 -5.7681841666726e-11
0.0 0.01 0.0
-5.7681841666726e-11 0.0 0.010017444942957266

0.01003986901962841 0.0 -3.6305341299054246e-11
0.0 0.01 0.0
-3.6305341299057555e-11 0.0 0.010017584825397455

0.010038852206822805 0.0 -2.379400447932489e-11
0.0 0.01 0.0
-2.379400447932489e-11 0.0 0.010017708075579886

0.010037890065748995 0.0 -1.2231011376728206e-11
0.0 0.01 0.0
-1.2231011376727378e-11 0.0 0.010017756632977586

0.010037029365289584 0.0 -3.816969761449837e-12
0.0 0.01 0.0
-3.8169697614494236e-12 0.0 0.010017684500866063

0.010036302680156343 0.0 1.9483730233479368e-13
0.0 0.01 0.0
1.9483730233479368e-13 0.0 0.01001749651230178

0.010035725185473332 0.0 9.324450950819812e-13
0.0 0.01 0.0
9.324450950819812e-13 0.0 0.010017243699449575

0.01003530721348831 0.0 4.5361379593005923e-13
0.0 0.01 0.0
4.5361379593005923e-13 0.0 0.010017000755789927

0.010035053555074948 0.0 7.000852976748492e-14
0.0 0.01 0.0
7.000852976748492e-14 0.0 0.010016833409351358

0.010039775106561462 0.0 -1.4308111459914826e-11
0.0 0.01 0.0
-1.4308111459914e-11 0.0 0.010017625589942075

0.01003884482141361 0.0 -1.6043134717857673e-11
0.0 0.01 0.0
-1.6043134717857673e-11 0.0 0.010017827359146149

0.010037845614568447 0.0 -1.5271879754393315e-11
0.0 0.01 0.0
-1.5271879754393315e-11 0.0 0.010018030598399615

0.010036867939087212 0.0 -1.1703385689462025e-11
0.0 0.01 0.0
-1.1703385689462852e-11 0.0 0.01001815773604457

0.010035976923699376 0.0 -7.650612817637002e-12
0.0 0.01 0.0
-7.650612817637829e-12 0.0 0.0100181503459422

0.010035217420252995 0.0 -4.543520773748087e-12
0.0 0.01 0.0
-4.543520773747673e-12 0.0 0.0100180089819624

0.010034611467365177 0.0 -2.5305039278691495e-12
0.0 0.01 0.0
-2.5305039278691495e-12 0.0 0.010017786592138323

0.010034171913279278 0.0 -1.200668527132585e-12
0.0 0.01 0.0
-1.2006685271327918e-12 0.0 0.010017563764748778

0.010033903591909298 0.0 -3.3109479759485514e-13
0.0 0.01 0.0
-3.3109479759490684e-13 0.0 0.010017408151280136

0.010037194287918641 0.0 2.6421463695575514e-14
0.0 0.01 0.0
2.6421463695575514e-14 0.0 0.010017625589942071

0.010036341702296918 0.0 -2.113171857843275e-12
0.0 0.01 0.0
-2.113171857843482e-12 0.0 0.010017826856467313

0.010035389126020778 0.0 -3.049810322937811e-12
0.0 0.01 0.0
-3.0498103229380178e-12 0.0 0.010018059554590585

0.010034440761360227 0.0 -2.91206897418795e-12
0.0 0.01 0.0
-2.91206897418795e-12 0.0 0.0100182318893377

0.010033570139663632 0.0 -2.2867034549460436e-12
0.0 0.01 0.0
-2.2867034549460436e-12 0.0 0.010018269192837164

0.010032824462358935 0.0 -1.58931200624822e-12
0.0 0.01 0.0
-1.58931200624822e-12 0.0 0.010018165578620083

0.010032230352414889 0.0 -9.731281073073947e-13
0.0 0.01 0.0
-9.731281073073947e-13 0.0 0.010017975602436549

0.01003179651233816 0.0 -4.728719352614361e-13
0.0 0.01 0.0
-4.728719352613844e-13 0.0 0.010017777292705636

0.010031533277500216 0.0 -1.2710204265226095e-13
0.0 0.01 0.0
-1.2710204265226095e-13 0.0 0.0100176368995525

0.010034233086695073 0.0 -2.5910769237936166e-12
0.0 0.01 0.0
-2.5910769237936166e-12 0.0 0.010017493546791574

0.010033426152311304 0.0 1.5105909560649368e-12
0.0 0.01 0.0
1.5105909560649368e-12 0.0 0.010017656000314868

0.010032520754830958 0.0 2.224887759886216e-12
0.0 0.01 0.0
2.2248877598860092e-12 0.0 0.010017876923650955

0.010031618075722408 0.0 1.9630378602170955e-12
0.0 0.01 0.0
1.9630378602170955e-12 0.0 0.010018059554590583

0.010030792040796323 0.0 1.567919291400758e-12
0.0 0.01 0.0
1.5679192914003444e-12 0.0 0.01001811550710843

0.010030085427355446 0.0 1.17167263769317e-12
0.0 0.01 0.0
1.17167263769317e-12 0.0 0.010018035022245873

0.01002952428972864 0.0 7.647149217708609e-13
0.0 0.01 0.0
7.647149217708609e-13 0.0 0.010017868076383177

0.010029114960323424 0.0 3.8208013769089657e-13
0.0 0.01 0.0
3.8208013769084487e-13 0.0 0.010017688924253839

0.010028868680655226 0.0 1.0336740952555698e-13
0.0 0.01 0.0
1.0336740952555698e-13 0.0 0.010017562759470541

0.010031246443263512 0.0 -1.1735441322934518e-11
0.0 0.01 0.0
-1.1735441322934518e-11 0.0 0.010017235356449102

0.010030444114416212 0.0 -8.780687062851648e-13
0.0 0.01 0.0
-8.78068706284958e-13 0.0 0.010017345324899812

0.010029564695755513 0.0 1.3335646820475858e-12
0.0 0.01 0.0
1.333564682047379e-12 0.0 0.010017533304952508

0.010028704672395023 0.0 1.574552860434635e-12
0.0 0.01 0.0
1.574552860434635e-12 0.0 0.010017696263069212

0.010027927608570299 0.0 1.526610887474106e-12
0.0 0.01 0.0
1.526610887474106e-12 0.0 0.010017748791362453

0.010027269338341171 0.0 1.3894756157389486e-12
0.0 0.01 0.0
1.3894756157391554e-12 0.0 0.010017672738704343

0.010026749045203748 0.0 1.0495911775556517e-12
0.0 0.01 0.0
1.0495911775554449e-12 0.0 0.010017517120157299

0.010026373014723878 0.0 5.662952488686268e-13
0.0 0.01 0.0
5.6629524886842e-13 0.0 0.010017349245231363

0.010026147094225366 0.0 1.5753680300682972e-13
0.0 0.01 0.0
1.5753680300682972e-13 0.0 0.010017230933662129

0.010027984230805483 0.0 -2.2105664516245404e-11
0.0 0.01 0.0
-2.2105664516242095e-11 0.0 0.010016835871745663

0.010027147751255178 0.0 -3.645489001466083e-12
0.0 0.01 0.0
-3.645489001466496e-12 0.0 0.010016894768738318

0.010026275045092747 0.0 -4.2267645014336957e-13
0.0 0.01 0.0
-4.2267645014347297e-13 0.0 0.010017041010644122

0.010025450833068373 0.0 3.784243858418454e-14
0.0 0.01 0.0
3.784243858418454e-14 0.0 0.010017175498544983

0.010024720262510825 0.0 3.1024927552518154e-13
0.0 0.01 0.0
3.1024927552523324e-13 0.0 0.010017207412575266

0.010024109863374802 0.0 6.377368456931172e-13
0.0 0.01 0.0
6.377368456931172e-13 0.0 0.010017122476696595

0.010023633316827273 0.0 7.101000217988163e-13
0.0 0.01 0.0
7.101000217990231e-13 0.0 0.010016965426398914

0.01002329056562107 0.0 4.552276366302868e-13
0.0 0.01 0.0
4.552276366303902e-13 0.0 0.01001680154914801

0.010023085042537145 0.0 1.3461229378767376e-13
0.0 0.01 0.0
1.3461229378772545e-13 0.0 0.010016687679045035

0.01002401493137209 0.0 -2.7653489273617175e-11
0.0 0.01 0.0
-2.7653489273617175e-11 0.0 0.010016273538187983

0.010023125874264986 0.0 -1.2941741720738804e-12
0.0 0.01 0.0
-1.2941741720738804e-12 0.0 0.010016295093148284

0.010022253261357902 0.0 1.6493927129496066e-12
0.0 0.01 0.0
1.6493927129496066e-12 0.0 0.010016403573487565

0.01002146098894847 0.0 1.2019543881709782e-12
0.0 0.01 0.0
1.2019543881713918e-12 0.0 0.010016504620642528

0.010020780897839488 0.0 8.880343250028546e-13
0.0 0.01 0.0
8.880343250032682e-13 0.0 0.010016512509584416

0.010020221823354977 0.0 9.989819965603667e-13
0.0 0.01 0.0
9.989819965599531e-13 0.0 0.010016410909478416

0.010019792003835258 0.0 9.88068007395005e-13
0.0 0.01 0.0
9.88068007395005e-13 0.0 0.010016245049677725

0.010019484046636636 0.0 6.113828012202677e-13
0.0 0.01 0.0
6.113828012202677e-13 0.0 0.010016080705363703

0.010019300834880392 0.0 1.7710543220478678e-13
0.0 0.01 0.0
1.7710543220478678e-13 0.0 0.010015967864639999

0.010019177073307173 0.0 -2.139315985465866e-11
0.0 0.01 0.0
-2.139315985465866e-11 0.0 0.01001555230604545

0.010018237771398212 0.0 7.96146547359549e-12
0.0 0.01 0.0
7.961465473592182e-12 0.0 0.010015548890159159

0.010017380155699055 0.0 8.14760050232019e-12
0.0 0.01 0.0
8.147600502326807e-12 0.0 0.010015627858306309

0.01001663958943974 0.0 5.445493209906406e-12
0.0 0.01 0.0
5.445493209919641e-12 0.0 0.01001570145307662

0.010016024284525128 0.0 3.725150650037042e-12
0.0 0.01 0.0
3.725150650023807e-12 0.0 0.01001568231325671

0.010015532212646882 0.0 2.9151798651032412e-12
0.0 0.01 0.0
2.915179864997362e-12 0.0 0.010015565567754752

0.010015156438140237 0.0 2.173707441237117e-12
0.0 0.01 0.0
2.173707441237117e-12 0.0 0.010015389954844071

0.010014892100266489 0.0 1.1956951405378917e-12
0.0 0.01 0.0
1.1956951405312743e-12 0.0 0.010015222689122468

0.010014734150421653 0.0 3.2868093408796914e-13
0.0 0.01 0.0
3.2868093408796914e-13 0.0 0.010015106411734509

0.010013799009439597 0.0 -5.1018803031323426e-12
0.0 0.01 0.0
-5.1018803031323426e-12 0.0 0.010014689554171341

0.010012847466265034 0.0 1.8571265271661436e-11
0.0 0.01 0.0
1.8571265271661436e-11 0.0 0.0100146748395483

0.010012041263940327 0.0 1.4287906042925067e-11
0.0 0.01 0.0
1.428790604291845e-11 0.0 0.010014736109054411

0.01001138315698161 0.0 9.432776539132167e-12
0.0 0.01 0.0
9.432776539132167e-12 0.0 0.01001478713435378

0.010010861419974797 0.0 6.573993658864384e-12
0.0 0.01 0.0
6.573993658864384e-12 0.0 0.010014751326163454

0.0100104572803657 0.0 4.923967106118681e-12
0.0 0.01 0.0
4.9239671061170265e-12 0.0 0.010014619898832731

0.010010154596458945 0.0 3.430606731069782e-12
0.0 0.01 0.0
3.430606731069782e-12 0.0 0.010014434041195905

0.010009943511374199 0.0 1.7882704736392736e-12
0.0 0.01 0.0
1.7882704736392736e-12 0.0 0.01001426190236416

0.010009819644899843 0.0 4.880142733836775e-13
0.0 0.01 0.0
4.880142733836775e-13 0.0 0.010014146662686851

0.010008574966911779 0.0 8.031957051352648e-12
0.0 0.01 0.0
8.031957051352648e-12 0.0 0.010013722544641859

0.01000765723601873 0.0 2.1001886426160965e-11
0.0 0.01 0.0
2.10018864261742e-11 0.0 0.01001370632810425

0.010006940819564757 0.0 1.4157607624904503e-11
0.0 0.01 0.0
1.4157607624901194e-11 0.0 0.010013760299858199

0.010006393325970227 0.0 9.341973149939112e-12
0.0 0.01 0.0
9.341973149940766e-12 0.0 0.010013798507366929

0.010005985369411784 0.0 6.801194392468995e-12
0.0 0.01 0.0
6.80119439247065e-12 0.0 0.010013746543253856

0.010005681087548847 0.0 5.204824269858665e-12
0.0 0.01 0.0
5.204824269860319e-12 0.0 0.01001360536561285

0.010005461971713519 0.0 3.6241545418292443e-12
0.0 0.01 0.0
3.624154541828417e-12 0.0 0.010013413640675036

0.0100053118293341 0.0 1.8621363572382903e-12
0.0 0.01 0.0
1.8621363572382903e-12 0.0 0.010013238140933712

0.010005224291132781 0.0 4.94927831513873e-13
0.0 0.01 0.0
4.94927831513873e-13 0.0 0.010013121480879699

0.01000415984420666 0.0 8.061654568304883e-12
0.0 0.01 0.0
8.061654568304883e-12 0.0 0.010012697994978108

0.010003305838563029 0.0 1.2349759302304617e-11
0.0 0.01 0.0
1.2349759302302963e-11 0.0 0.010012687203992496

0.010002691536265281 0.0 7.362037733689164e-12
0.0 0.01 0.0
7.362037733688337e-12 0.0 0.010012739151615612

0.010002262967921864 0.0 5.170503968994195e-12
0.0 0.01 0.0
5.1705039689933675e-12 0.0 0.010012767560029752

0.010001965929579944 0.0 4.299325148738104e-12
0.0 0.01 0.0
4.29932514873645e-12 0.0 0.010012710241534278

0.010001759264142675 0.0 3.6336537477558417e-12
0.0 0.01 0.0
3.6336537477558417e-12 0.0 0.01001256218167507

0.010001617092163502 0.0 2.6344170355718992e-12
0.0 0.01 0.0
2.6344170355714857e-12 0.0 0.01001236911144791

0.010001523297994837 0.0 1.371485441131558e-12
0.0 0.01 0.0
1.3714854411313512e-12 0.0 0.010012190705817362

0.010001471524744045 0.0 3.5983869922503503e-13
0.0 0.01 0.0
3.5983869922513843e-13 0.0 0.010012074082368783

0.01000089707069594 0.0 1.4499873815769216e-12
0.0 0.01 0.0
1.4499873815771284e-12 0.0 0.010011652184415132

0.010000100601518083 0.0 9.566994222698123e-13
0.0 0.01 0.0
9.566994222698123e-13 0.0 0.010011651180915558

0.009999574027219469 0.0 -1.194665408188632e-13
0.0 0.01 0.0
-1.194665408188632e-13 0.0 0.010011703112415032

0.009999237587199858 0.0 5.400316374723781e-13
0.0 0.01 0.0
5.400316374723781e-13 0.0 0.010011730056902741

0.009999027141986323 0.0 1.21601689118888e-12
0.0 0.01 0.0
1.21601689118888e-12 0.0 0.010011672254470085

0.009998895183120029 0.0 1.519252663683472e-12
0.0 0.01 0.0
1.5192526636836788e-12 0.0 0.010011523287364113

0.009998813211303552 0.0 1.2729758817590791e-12
0.0 0.01 0.0
1.2729758817590791e-12 0.0 0.010011331732162504

0.009998764728921899 0.0 6.941546538008486e-13
0.0 0.01 0.0
6.941546538009519e-13 0.0 0.010011155338511499

0.009998738738657162 0.0 1.760203355260628e-13
0.0 0.01 0.0
1.760203355260628e-13 0.0 0.010011038751239085

0.009998778723763783 0.0 3.3073959842470516e-11
0.0 0.01 0.0
3.3073959842473825e-11 0.0 0.010010631179296745

0.009998019088756903 0.0 -6.399878803567804e-13
0.0 0.01 0.0
-6.39987880356677e-13 0.0 0.010010632182489638

0.009997539408474643 0.0 -8.664451808935454e-13
0.0 0.01 0.0
-8.664451808935454e-13 0.0 0.010010685051182045

0.009997254131383379 0.0 -7.211706531660215e-13
0.0 0.01 0.0
-7.211706531662283e-13 0.0 0.010010711536003213

0.009997093267855127 0.0 -5.090744570838267e-13
0.0 0.01 0.0
-5.090744570838267e-13 0.0 0.0100106552058495

0.009997004346628724 0.0 -5.946478741297899e-14
0.0 0.01 0.0
-5.946478741297899e-14 0.0 0.010010514610335815

0.009996958388273285 0.0 2.1867416774100697e-13
0.0 0.01 0.0
2.1867416774100697e-13 0.0 0.010010332893266367

0.00999693540933325 0.0 1.717587379416326e-13
0.0 0.01 0.0
1.717587379416326e-13 0.0 0.010010161467354914

0.009996925918078173 0.0 4.958260244187651e-14
0.0 0.01 0.0
4.958260244187651e-14 0.0 0.010010045366159183

0.00999758937194952 0.0 9.16871898405988e-10
0.0 0.01 0.0
9.16871898405988e-10 0.0 0.01000967366889727

0.009996842496104472 0.0 4.0847191243364556e-11
0.0 0.01 0.0
4.0847191243364556e-11 0.0 0.01000966193493034

0.009996364982963385 0.0 9.32608505315074e-12
0.0 0.01 0.0
9.326085053149912e-12 0.0 0.010009706514194581

0.009996085299931928 0.0 3.033639857951397e-12
0.0 0.01 0.0
3.033639857951397e-12 0.0 0.010009729531168209

0.009995929486711347 0.0 -5.869543936362614e-13
0.0 0.01 0.0
-5.869543936363131e-13 0.0 0.010009677128920876

0.00999584908594428 0.0 -1.2625709187243044e-12
0.0 0.01 0.0
-1.2625709187240976e-12 0.0 0.010009550765164198

0.009995814629066577 0.0 -7.353415181775828e-13
0.0 0.01 0.0
-7.353415181775828e-13 0.0 0.01000938379182582

0.009995803143519858 0.0 -2.4607724405377473e-13
0.0 0.01 0.0
-2.4607724405372303e-13 0.0 0.010009223695808322

0.00999580164540799 0.0 -4.402641428600221e-14
0.0 0.01 0.0
-4.402641428600221e-14 0.0 0.010009113994610835

0.009997041313596935 0.0 5.753113644691677e-09
0.0 0.01 0.0
5.753113644692524e-09 0.0 0.010008821709673751

0.009996308545032534 0.0 5.505204609036297e-10
0.0 0.01 0.0
5.505204609036297e-10 0.0 0.010008767867860143

0.009995794654228172 0.0 3.135209147867003e-11
0.0 0.01 0.0
3.135209147867003e-11 0.0 0.010008783508966373

0.009995476071741807 0.0 1.2427429257306431e-11
0.0 0.01 0.0
1.2427429257306431e-11 0.0 0.010008793334827047

0.009995290329240335 0.0 9.128449939754441e-13
0.0 0.01 0.0
9.128449939753407e-13 0.0 0.010008746812640523

0.009995193966914628 0.0 -2.6240330822698665e-12
0.0 0.01 0.0
-2.62403308227028e-12 0.0 0.010008638631012453

0.009995150529886377 0.0 -2.1587342796609003e-12
0.0 0.01 0.0
-2.1587342796609003e-12 0.0 0.010008493207947099

0.00999513505246143 0.0 -9.416708097419844e-13
0.0 0.01 0.0
-9.416708097419844e-13 0.0 0.010008348843852365

0.009995130559028944 0.0 -2.0569216879562574e-13
0.0 0.01 0.0
-2.0569216879562574e-13 0.0 0.010008250900381153

0.009996890950594717 0.0 2.085126308390116e-08
0.0 0.01 0.0
2.085126308390116e-08 0.0 0.010008105544402733

0.009996206659508568 0.0 3.220756387622752e-09
0.0 0.01 0.0
3.220756387622752e-09 0.0 0.010007977786618636

0.00999564934088312 0.0 1.1351685223215605e-10
0.0 0.01 0.0
1.1351685223218252e-10 0.0 0.010007937189856637

0.009995258873874252 0.0 3.004423453956023e-11
0.0 0.01 0.0
3.004423453956023e-11 0.0 0.010007916139879057

0.009995016228174522 0.0 6.295165272264574e-12
0.0 0.01 0.0
6.295165272264574e-12 0.0 0.010007866672954563

0.009994877938017167 0.0 -3.098722061386411e-12
0.0 0.01 0.0
-3.098722061386411e-12 0.0 0.01000777565973932

0.00999480704781542 0.0 -3.875401106299034e-12
0.0 0.01 0.0
-3.875401106299034e-12 0.0 0.010007658689352491

0.009994776595445438 0.0 -2.0226460124821544e-12
0.0 0.01 0.0
-2.022646012482568e-12 0.0 0.010007542224199154

0.009994767110337867 0.0 -5.027892503624191e-13
0.0 0.01 0.0
-5.027892503624191e-13 0.0 0.01000745903729333

0.009996979869209319 0.0 5.6554485497570424e-08
0.0 0.01 0.0
5.6554485497583976e-08 0.0 0.010007537814718895

0.009996409934237855 0.0 1.3215178574233215e-08
0.0 0.01 0.0
1.3215178574231521e-08 0.0 0.010007321983899729

0.009995837600278964 0.0 1.0953768936447848e-09
0.0 0.01 0.0
1.0953768936447848e-09 0.0 0.010007195759398093

0.009995363226944597 0.0 6.066901934359882e-11
0.0 0.01 0.0
6.066901934359882e-11 0.0 0.010007120397796046

0.009995036198346643 0.0 2.130738182819459e-11
0.0 0.01 0.0
2.130738182819128e-11 0.0 0.01000705090027464

0.009994835004334564 0.0 1.3838178671285497e-12
0.0 0.01 0.0
1.3838178671285497e-12 0.0 0.01000696967969992

0.009994723678874443 0.0 -3.858491832174988e-12
0.0 0.01 0.0
-3.858491832174988e-12 0.0 0.010006876736928252

0.009994666270337592 0.0 -2.7677993710843475e-12
0.0 0.01 0.0
-2.7677993710843475e-12 0.0 0.010006788656626905

0.009994641310412732 0.0 -7.915669729349455e-13
0.0 0.01 0.0
-7.915669729349455e-13 0.0 0.010006724526812675

0.009997212168614884 0.0 1.2599751468775626e-07
0.0 0.01 0.0
1.2599751468778337e-07 0.0 0.010007112082446751

0.009996835003466618 0.0 4.0974745917973104e-08
0.0 0.01 0.0
4.097474591797988e-08 0.0 0.01000681455966126

0.00999631903343306 0.0 7.241489089979204e-09
0.0 0.01 0.0
7.241489089980051e-09 0.0 0.010006589507531452

0.009995785166221901 0.0 4.608486773336528e-10
0.0 0.01 0.0
4.608486773336528e-10 0.0 0.010006434905877227

0.009995358733204366 0.0 5.200474442104075e-11
0.0 0.01 0.0
5.200474442105398e-11 0.0 0.010006322891792431

0.00999506914939234 0.0 1.701032216292583e-11
0.0 0.01 0.0
1.7010322162929138e-11 0.0 0.010006230918817933

0.00999488942037489 0.0 1.964679461962257e-12
0.0 0.01 0.0
1.964679461962257e-12 0.0 0.01000615312448546

0.00999479207120523 0.0 -1.3254949019682672e-12
0.0 0.01 0.0
-1.3254949019682672e-12 0.0 0.010006085650767556

0.009994744645717127 0.0 -6.203676714707951e-13
0.0 0.01 0.0
-6.203676714708985e-13 0.0 0.010006040618956599

0.009997511438161797 0.0 2.4378445711675497e-07
0.0 0.01 0.0
2.4378445711675497e-07 0.0 0.010006798936451617

0.009997387026139252 0.0 1.0449034011907814e-07
0.0 0.01 0.0
1.0449034011909169e-07 0.0 0.010006451038655459

0.009997017335115894 0.0 3.07175798356987e-08
0.0 0.01 0.0
3.0717579835705475e-08 0.0 0.010006140401193513

0.009996508329620225 0.0 5.260511158829037e-09
0.0 0.01 0.0
5.260511158829037e-09 0.0 0.010005889949646555

0.009996005394806095 0.0 4.201768131418385e-10
0.0 0.01 0.0
4.201768131418385e-10 0.0 0.010005710938500246

0.00999560939330779 0.0 4.71041916129681e-11
0.0 0.01 0.0
4.7104191612974716e-11 0.0 0.010005584774975408

0.009995340758304062 0.0 1.75559455126846e-11
0.0 0.01 0.0
1.75559455126846e-11 0.0 0.010005497229609814

0.009995178988565053 0.0 4.6266385091642525e-12
0.0 0.01 0.0
4.6266385091642525e-12 0.0 0.010005438984166518

0.009995094112522713 0.0 6.759149179592366e-13
0.0 0.01 0.0
6.759149179592366e-13 0.0 0.010005403776967067

0.00999780424951673 0.0 4.1724811105042867e-07
0.0 0.01 0.0
4.1724811105042867e-07 0.0 0.010006543042188927

0.009997948139252111 0.0 2.2452204097945854e-07
0.0 0.01 0.0
2.2452204097951275e-07 0.0 0.010006193256267244

0.009997811719821047 0.0 9.402668765747142e-08
0.0 0.01 0.0
9.402668765748497e-08 0.0 0.01000583275050542

0.009997433988127746 0.0 2.9119156249479044e-08
0.0 0.01 0.0
2.911915624948582e-08 0.0 0.010005505543443063

0.009996951894214845 0.0 6.2724677927538235e-09
0.0 0.01 0.0
6.272467792752129e-09 0.0 0.010005244372639678

0.009996492346408684 0.0 8.417987868868949e-10
0.0 0.01 0.0
8.417987868866832e-10 0.0 0.010005060488691783

0.009996130746827118 0.0 7.434167855397539e-11
0.0 0.01 0.0
7.434167855397539e-11 0.0 0.010004941660589392

0.009995887038859652 0.0 1.5796306174365136e-11
0.0 0.01 0.0
1.5796306174365136e-11 0.0 0.010004869754868601

0.009995754205547155 0.0 3.452348620519524e-12
0.0 0.01 0.0
3.452348620519524e-12 0.0 0.010004831599398464

0.009998082611833247 0.0 6.338008411349355e-07
0.0 0.01 0.0
6.338008411349355e-07 0.0 0.010006315137280288

0.009998397910273389 0.0 4.0985137111340837e-07
0.0 0.01 0.0
4.0985137111329995e-07 0.0 0.010005979984921195

0.009998539827196975 0.0 2.20931959167385e-07
0.0 0.01 0.0
2.20931959167385e-07 0.0 0.010005620943012774

0.00999840488317939 0.0 9.794381251532007e-08
0.0 0.01 0.0
9.794381251537428e-08 0.0 0.010005257094089075

0.00999806656106015 0.0 3.537173089242148e-08
0.0 0.01 0.0
3.5371730892414703e-08 0.0 0.010004937254253835

0.009997652826657781 0.0 1.0223478627569422e-08
0.0 0.01 0.0
1.0223478627571116e-08 0.0 0.01000469079849116

0.009997270118245891 0.0 2.1891780920522364e-09
0.0 0.01 0.0
2.189178092051813e-09 0.0 0.010004519662257304

0.009996977870542231 0.0 3.1985024982795136e-10
0.0 0.01 0.0
3.1985024982795136e-10 0.0 0.010004415022142853

0.009996799037580278 0.0 1.8373142600286652e-11
0.0 0.01 0.0
1.8373142600283343e-11 0.0 0.010004361251418932

0.009998624894270832 0.0 8.588070745400769e-07
0.0 0.01 0.0
8.588070745400769e-07 0.0 0.010006209990280672

0.009998739299817585 0.0 6.39789291029323e-07
0.0 0.01 0.0
6.397892910294314e-07 0.0 0.010005796597503891

0.009999063157570088 0.0 4.1565128659694795e-07
0.0 0.01 0.0
4.1565128659694795e-07 0.0 0.010005441964906787

0.009999231096887114 0.0 2.3381045867075165e-07
0.0 0.01 0.0
2.3381045867075165e-07 0.0 0.010005088339236063

0.009999159107998094 0.0 1.1319839992386714e-07
0.0 0.01 0.0
1.1319839992384004e-07 0.0 0.01000475193691074

0.009998924173960479 0.0 4.657771616378627e-08
0.0 0.01 0.0
4.657771616375917e-08 0.0 0.010004468343455758

0.009998632280686022 0.0 1.5583559812267834e-08
0.0 0.01 0.0
1.5583559812271222e-08 0.0 0.010004256115673358

0.009998371897696142 0.0 3.869688477817454e-09
0.0 0.01 0.0
3.86968847781576e-09 0.0 0.010004115339011289

0.009998196488015712 0.0 5.226030103493397e-10
0.0 0.01 0.0
5.226030103492338e-10 0.0 0.010004035141041154

0.009999891148906695 0.0 9.90783924975907e-07
0.0 0.01 0.0
9.90783924975907e-07 0.0 0.010006259920092209

0.009999413165344976 0.0 8.708401391787496e-07
0.0 0.01 0.0
8.708401391787496e-07 0.0 0.010005771706635367

0.009999453107196384 0.0 6.447966715613512e-07
0.0 0.01 0.0
6.447966715609176e-07 0.0 0.010005313844823751

0.009999771534759599 0.0 4.2383984722252094e-07
0.0 0.01 0.0
4.2383984722262937e-07 0.0 0.010004948046965266

0.010000018559136192 0.0 2.46173255792387e-07
0.0 0.01 0.0
2.4617325579227856e-07 0.0 0.010004637032396393

0.010000073253085747 0.0 1.2334839132927987e-07
0.0 0.01 0.0
1.2334839132927987e-07 0.0 0.01000436616011891

0.009999988000415207 0.0 5.1239698317391124e-08
0.0 0.01 0.0
5.1239698317391124e-08 0.0 0.010004145626902538

0.009999852003325295 0.0 1.6288471259881098e-08
0.0 0.01 0.0
1.6288471259874322e-08 0.0 0.010003985781742403

0.009999738510258272 0.0 3.0332067514742678e-09
0.0 0.01 0.0
3.0332067514742678e-09 0.0 0.010003889468019379

0.01000188392428817 0.0 7.838818915279801e-07
0.0 0.01 0.0
7.838818915275464e-07 0.0 0.010006361607353562

0.010000988085816353 0.0 9.644857167456864e-07
0.0 0.01 0.0
9.644857167454696e-07 0.0 0.01000589354528781

0.010000417632989556 0.0 8.442631652500702e-07
0.0 0.01 0.0
8.442631652500702e-07 0.0 0.010005386305477414

0.010000312572157034 0.0 6.193818014115469e-07
0.0 0.01 0.0
6.193818014115469e-07 0.0 0.010004934357247905

0.010000554270028841 0.0 3.997346578521249e-07
0.0 0.01 0.0
3.997346578521249e-07 0.0 0.010004593987707536

0.010000865820052052 0.0 2.2545586549635802e-07
0.0 0.01 0.0
2.2545586549635802e-07 0.0 0.01000434854244434

0.010001056819206778 0.0 1.0651382746217509e-07
0.0 0.01 0.0
1.0651382746217509e-07 0.0 0.010004158844660108

0.010001126640595805 0.0 3.887892691486648e-08
0.0 0.01 0.0
3.887892691486648e-08 0.0 0.010004013665360387

0.010001134493042092 0.0 8.217678625396769e-09
0.0 0.01 0.0
8.217678625396769e-09 0.0 0.01000392175582968

0.010003122561954817 0.0 5.498113170475995e-09
0.0 0.01 0.0
5.498113170472607e-09 0.0 0.010006149718211683

0.010002755094298673 0.0 6.122128619159058e-07
0.0 0.01 0.0
6.122128619159058e-07 0.0 0.0100059198586743

0.010002290436871375 0.0 8.178509326951452e-07
0.0 0.01 0.0
8.178509326951452e-07 0.0 0.010005561386067265

0.010001873658187804 0.0 7.385890466783153e-07
0.0 0.01 0.0
7.385890466778816e-07 0.0 0.010005149556655107

0.010001584868756628 0.0 5.298393121744294e-07
0.0 0.01 0.0
5.298393121744294e-07 0.0 0.010004774459190667

0.010001557028757407 0.0 3.183028341225986e-07
0.0 0.01 0.0
3.1830283412303227e-07 0.0 0.010004490838510374

0.010001721148082567 0.0 1.5991389770795422e-07
0.0 0.01 0.0
1.5991389770806264e-07 0.0 0.010004299174677659

0.010001913149467457 0.0 6.255465930372992e-08
0.0 0.01 0.0
6.255465930372992e-08 0.0 0.010004175464306306

0.010002037222401703 0.0 1.403004135764295e-08
0.0 0.01 0.0
1.403004135764295e-08 0.0 0.010004097266793802

0.01000292804371543 0.0 -2.3400677258086661e-07
0.0 0.01 0.0
-2.3400677258086661e-07 0.0 0.010005626353015967

0.01000334348899936 0.0 2.9359672623543304e-07
0.0 0.01 0.0
2.9359672623543304e-07 0.0 0.010005554938079699

0.010003509187385141 0.0 5.238156116195783e-07
0.0 0.01 0.0
5.238156116191446e-07 0.0 0.010005350031444392

0.010003559086944079 0.0 5.022741129236466e-07
0.0 0.01 0.0
5.022741129232129e-07 0.0 0.010005089370391514

0.01000354680462246 0.0 3.5185623929213927e-07
0.0 0.01 0.0
3.5185623929257295e-07 0.0 0.010004810136925894

0.010003506749149096 0.0 1.9019520111716176e-07
0.0 0.01 0.0
1.9019520111694492e-07 0.0 0.010004586659104503

0.010003514052300677 0.0 7.68107272532386e-08
0.0 0.01 0.0
7.681072725334703e-08 0.0 0.01000444190871462

0.010003558048101486 0.0 1.7528729939818386e-08
0.0 0.01 0.0
1.752872993979128e-08 0.0 0.010004360750810565

0.010003048244829657 0.0 -1.0420902718082927e-07
0.0 0.01 0.0
-1.0420902718077506e-07 0.0 0.010005385198559104

0.010003831302836606 0.0 1.192289573352179e-07
0.0 0.01 0.0
1.192289573351095e-07 0.0 0.010005337272060398

0.010004340228143822 0.0 1.6630685505548276e-07
0.0 0.01 0.0
1.6630685505548276e-07 0.0 0.010005115727064225

0.010004974411262524 0.0 1.1580643382094746e-07
0.0 0.01 0.0
1.1580643382181482e-07 0.0 0.010004884428324532

0.010005547563309581 0.0 5.188695604489528e-08
0.0 0.01 0.0
5.18869560450037e-08 0.0 0.010004724546496053

0.010005955015132996 0.0 1.2295404199798689e-08
0.0 0.01 0.0
1.2295404199798689e-08 0.0 0.010004646786911361

0.01000243984851032 0.0 -1.9798426882980912e-07
0.0 0.01 0.0
-1.9798426882980912e-07 0.0 0.01000542040981268

0.010003108399430643 0.0 -6.88046117762269e-08
0.0 0.01 0.0
-6.880461177617269e-08 0.0 0.010005168555043359

0.010003775587227048 0.0 -1.716641889653648e-08
0.0 0.01 0.0
-1.716641889653648e-08 0.0 0.010004992035620547

0.010004303576523328 0.0 -2.5171339255433472e-09
0.0 0.01 0.0
-2.517133925536571e-09 0.0 0.01000491281799801

0.009999662517084977 0.0 -2.5737897150573366e-18
0.0 0.01 0.0
-2.5737897150573366e-18 0.0 0.010000002950001304

0.009999662517084977 0.0 6.0578545035117875e-18
0.0 0.01 0.0
6.0578545035117875e-18 0.0 0.010000002950001304

0.009999662517084977 0.0 1.5083040749365485e-17
0.0 0.01 0.0
1.5083040749365485e-17 0.0 0.010000003900002283

0.009999662017135634 0.0 1.8112668006375066e-17
0.0 0.01 0.0
1.8112668006375066e-17 0.0 0.010000004900003603

0.009999662517084977 0.0 3.656562720588674e-17
0.0 0.01 0.0
3.656562720588674e-17 0.0 0.010000006350006049

0.009999662517084977 0.0 1.2936828213460898e-16
0.0 0.01 0.0
1.2936828213460898e-16 0.0 0.010000007800009125

0.009999663516983883 0.0 1.4332688481618562e-16
0.0 0.01 0.0
1.4332688481618562e-16 0.0 0.010000008800011615

0.009999667016632427 0.0 5.010935285670955e-16
0.0 0.01 0.0
5.010935285670955e-16 0.0 0.010000010750017335

0.00999959602448075 0.0 1.6485779780668742e-19
0.0 0.01 0.0
1.6485779780668742e-19 0.0 0.010000004400002904

0.009999595524541384 0.0 5.397575471739701e-18
0.0 0.01 0.0
5.397575471739701e-18 0.0 0.010000004900003603

0.00999959502460209 0.0 2.1830168845839472e-17
0.0 0.01 0.0
2.1830168845839472e-17 0.0 0.010000005350004294

0.009999594024723727 0.0 -4.3712956316467186e-18
0.0 0.01 0.0
-4.3712956316467186e-18 0.0 0.010000006850007037

0.009999593524784658 0.0 8.439243928011328e-18
0.0 0.01 0.0
8.439243928011328e-18 0.0 0.010000008300010334

0.009999593524784658 0.0 -4.244707275691924e-17
0.0 0.01 0.0
-4.244707275691924e-17 0.0 0.010000010750017335

0.009999594024723727 0.0 -3.374223339452924e-16
0.0 0.01 0.0
-3.374223339452924e-16 0.0 0.010000012700024194

0.009999595524541384 0.0 -5.986862457359671e-16
0.0 0.01 0.0
-5.986862457359671e-16 0.0 0.010000014150030033

0.009999532532780884 0.0 6.071671767845891e-19
0.0 0.01 0.0
6.071671767845891e-19 0.0 0.010000005850005133

0.009999532532780884 0.0 1.5095741166743193e-17
0.0 0.01 0.0
1.5095741166743193e-17 0.0 0.010000005850005133

0.009999532032851038 0.0 8.91148657560856e-18
0.0 0.01 0.0
8.91148657560856e-18 0.0 0.010000006850007037

0.00999953053306195 0.0 1.6821872480348325e-14
0.0 0.01 0.0
1.6821872480348325e-14 0.0 0.010000008300010334

0.009999528533344218 0.0 -1.3107328128391626e-17
0.0 0.01 0.0
-1.3107328128391626e-17 0.0 0.010000010750017335

0.0099995275334858 0.0 -1.7323654668064396e-16
0.0 0.01 0.0
-1.7323654668064396e-16 0.0 0.010000013650027948

0.0099995275334858 0.0 -5.731193646564355e-16
0.0 0.01 0.0
-5.731193646564355e-16 0.0 0.010000016100038882

0.009999529033273538 0.0 -1.5920385840801322e-15
0.0 0.01 0.0
-1.5920385840801322e-15 0.0 0.010000018050048872

0.009999468542370086 0.0 -1.845373048240031e-19
0.0 0.01 0.0
-1.845373048240031e-19 0.0 0.010000006850007037

0.009999468042449836 0.0 1.801622854690099e-17
0.0 0.01 0.0
1.801622854690099e-17 0.0 0.010000007300007994

0.00999946554284972 0.0 1.3011326526453293e-17
0.0 0.01 0.0
1.3011326526453293e-17 0.0 0.010000008300010334

0.00999946404309055 0.0 3.027537893304217e-17
0.0 0.01 0.0
3.027537893304217e-17 0.0 0.01000001025001576

0.009999462043412708 0.0 2.868200487480535e-17
0.0 0.01 0.0
2.868200487480535e-17 0.0 0.010000012200022326

0.009999459543817089 0.0 -1.2991107279908081e-16
0.0 0.01 0.0
-1.2991107279908081e-16 0.0 0.010000015150034429

0.009999457544141947 0.0 -5.630511067033323e-16
0.0 0.01 0.0
-5.630511067033323e-16 0.0 0.010000018050048872

0.009999457544141947 0.0 -1.7341027815525088e-15
0.0 0.01 0.0
-1.7341027815525088e-15 0.0 0.010000021500069338

0.009999390555717878 0.0 -1.1447624425456033e-18
0.0 0.01 0.0
-1.1447624425456033e-18 0.0 0.010000008300010334

0.009999390555717878 0.0 2.8036624686077708e-18
0.0 0.01 0.0
2.8036624686077708e-18 0.0 0.010000008300010334

0.009999388556084123 0.0 4.2778233386970155e-17
0.0 0.01 0.0
4.2778233386970155e-17 0.0 0.010000009300012973

0.009999385556635737 0.0 6.370151017857243e-17
0.0 0.01 0.0
6.370151017857243e-17 0.0 0.010000011700020532

0.009999382557190052 0.0 8.488080953675067e-17
0.0 0.01 0.0
8.488080953675067e-17 0.0 0.010000014650032193

0.009999377558119906 0.0 3.0933065825031097e-18
0.0 0.01 0.0
3.0933065825031097e-18 0.0 0.010000017600046462

0.00999937455868142 0.0 -5.363625659909144e-16
0.0 0.01 0.0
-5.363625659909144e-16 0.0 0.010000021000066152

0.009999373558869191 0.0 -1.7071836679068779e-15
0.0 0.01 0.0
-1.7071836679068779e-15 0.0 0.010000024400089305

0.009999300073491426 0.0 -1.8220562553466025e-18
0.0 0.01 0.0
-1.8220562553466025e-18 0.0 0.010000009300012973

0.009999298573806709 0.0 -9.642951785439296e-18
0.0 0.01 0.0
-9.642951785439296e-18 0.0 0.010000009300012973

0.009999296574228135 0.0 2.7248951075084087e-17
0.0 0.01 0.0
2.7248951075084087e-17 0.0 0.010000011250018984

0.009999293074968517 0.0 1.233108305432308e-16
0.0 0.01 0.0
1.233108305432308e-16 0.0 0.010000013650027948

0.00999928707624629 0.0 2.1668448921229417e-16
0.0 0.01 0.0
2.1668448921229417e-16 0.0 0.010000016100038882

0.009999281577427065 0.0 1.1732270477885271e-16
0.0 0.01 0.0
1.1732270477885271e-16 0.0 0.01000001955005733

0.009999275078834224 0.0 -3.486578565906615e-16
0.0 0.01 0.0
-3.486578565906615e-16 0.0 0.01000002395008604

0.009999272579378814 0.0 -1.262729537161082e-15
0.0 0.01 0.0
-1.262729537161082e-15 0.0 0.010000027350112205

0.00999918659925388 0.0 -8.08223097793707e-19
0.0 0.01 0.0
-8.08223097793707e-19 0.0 0.010000011250018984

0.00999918559949803 0.0 3.193315751252586e-17
0.0 0.01 0.0
3.193315751252586e-17 0.0 0.010000011250018984

0.009999182600232281 0.0 2.6439591762119395e-17
0.0 0.01 0.0
2.6439591762119395e-17 0.0 0.010000012700024194

0.00999917760146203 0.0 1.461215776744497e-16
0.0 0.01 0.0
1.461215776744497e-16 0.0 0.010000014150030033

0.00999917060319627 0.0 3.221978168726564e-16
0.0 0.01 0.0
3.221978168726564e-16 0.0 0.010000019050054435

0.009999163105070692 0.0 2.1390374120572094e-16
0.0 0.01 0.0
2.1390374120572094e-16 0.0 0.010000022950079004

0.00999915460721543 0.0 -2.8352456912057893e-16
0.0 0.01 0.0
-2.8352456912057893e-16 0.0 0.010000025900100622

0.009999148608742407 0.0 -1.0956729115305047e-15
0.0 0.01 0.0
-1.0956729115305047e-15 0.0 0.010000030750141836

0.009999051634926509 0.0 -8.69143731723724e-19
0.0 0.01 0.0
-8.69143731723724e-19 0.0 0.010000013650027948

0.009999050635211141 0.0 -4.266417351713065e-17
0.0 0.01 0.0
-4.266417351713065e-17 0.0 0.010000013650027948

0.009999047136209716 0.0 8.386913171482e-17
0.0 0.01 0.0
8.386913171482e-17 0.0 0.010000015150034429

0.009999039638361887 0.0 2.41421336510389e-16
0.0 0.01 0.0
2.41421336510389e-16 0.0 0.010000018050048872

0.009999031140821409 0.0 3.9482482249879373e-16
0.0 0.01 0.0
3.9482482249879373e-16 0.0 0.010000022950079004

0.009999020643889548 0.0 5.122877468597679e-16
0.0 0.01 0.0
5.122877468597679e-16 0.0 0.010000026850108139

0.00999901064684232 0.0 -3.080296505330937e-16
0.0 0.01 0.0
-3.080296505330937e-16 0.0 0.010000031250146485

0.00999900114967523 0.0 -1.1434212264457585e-15
0.0 0.01 0.0
-1.1434212264457585e-15 0.0 0.01000003565019064

0.009998891184448059 0.0 -7.719582688958041e-19
0.0 0.01 0.0
-7.719582688958041e-19 0.0 0.010000016100038882

0.009998890184780817 0.0 -1.2483219106664693e-17
0.0 0.01 0.0
-1.2483219106664693e-17 0.0 0.010000017100043862

0.009998885186449102 0.0 3.336754824321508e-17
0.0 0.01 0.0
3.336754824321508e-17 0.0 0.010000019050054435

0.009998875689639496 0.0 2.9675762434751594e-16
0.0 0.01 0.0
2.9675762434751594e-16 0.0 0.010000023450082485

0.009998864693367443 0.0 6.159593660636235e-16
0.0 0.01 0.0
6.159593660636235e-16 0.0 0.010000027350112205

0.009998851697819972 0.0 9.084907519553414e-16
0.0 0.01 0.0
9.084907519553414e-16 0.0 0.010000031250146485

0.009998837702671669 0.0 -2.916076368269731e-16
0.0 0.01 0.0
-2.916076368269731e-16 0.0 0.010000037600212066

0.009998823707582134 0.0 -2.139551566272116e-15
0.0 0.01 0.0
-2.139551566272116e-15 0.0 0.010000042950276707

0.009998705251499469 0.0 -1.4873341922973872e-18
0.0 0.01 0.0
-1.4873341922973872e-18 0.0 0.010000022950079004

0.009998702252665942 0.0 -4.19607433948182e-17
0.0 0.01 0.0
-4.19607433948182e-17 0.0 0.010000022950079004

0.009998695755202552 0.0 -8.157789345873502e-17
0.0 0.01 0.0
-8.157789345873502e-17 0.0 0.010000025400096774

0.009998684259721434 0.0 3.395473328701342e-16
0.0 0.01 0.0
3.395473328701342e-16 0.0 0.010000029800133207

0.009998670765076802 0.0 8.23838033415359e-16
0.0 0.01 0.0
8.23838033415359e-16 0.0 0.010000036600200934

0.009998654271696451 0.0 1.206053952677603e-15
0.0 0.01 0.0
1.206053952677603e-15 0.0 0.010000042000264601

0.00999863577921554 0.0 -8.851034920984642e-17
0.0 0.01 0.0
-8.851034920984642e-17 0.0 0.010000049300364576

0.009998617286837234 0.0 -3.3873052136197446e-15
0.0 0.01 0.0
-3.3873052136197446e-15 0.0 0.01000005420044065

0.009998483345106097 0.0 2.244802331258349e-18
0.0 0.01 0.0
2.244802331258349e-18 0.0 0.010000028800124417

0.009998481346016552 0.0 -3.2399814815127615e-18
0.0 0.01 0.0
-3.2399814815127615e-18 0.0 0.010000029300128773

0.009998472350128436 0.0 9.120966143697899e-18
0.0 0.01 0.0
9.120966143697899e-18 0.0 0.010000033700170356

0.009998458356572962 0.0 2.4787687978925676e-16
0.0 0.01 0.0
2.4787687978925676e-16 0.0 0.010000039050228737

0.009998440364945115 0.0 1.251652740301102e-15
0.0 0.01 0.0
1.251652740301102e-15 0.0 0.010000045900316024

0.009998419874598362 0.0 1.4496819141207932e-15
0.0 0.01 0.0
1.4496819141207932e-15 0.0 0.01000005420044065

0.00999839638581926 0.0 -3.2694969787032836e-17
0.0 0.01 0.0
-3.2694969787032836e-17 0.0 0.010000063500604844

0.009998371897693897 0.0 -4.414702734486909e-15
0.0 0.01 0.0
-4.414702734486909e-15 0.0 0.010000071800773296

0.00999822597218789 0.0 -2.671264508331069e-18
0.0 0.01 0.0
-2.671264508331069e-18 0.0 0.010000038100217743

0.009998222474052125 0.0 -5.2105538054309274e-17
0.0 0.01 0.0
-5.2105538054309274e-17 0.0 0.010000039550234633

0.009998213978594838 0.0 -1.1027053398285065e-16
0.0 0.01 0.0
-1.1027053398285065e-16 0.0 0.010000044900302403

0.00999819698774523 0.0 4.0134813756917604e-16
0.0 0.01 0.0
4.0134813756917604e-16 0.0 0.0100000508003871

0.009998175999168251 0.0 1.0619969647600412e-15
0.0 0.01 0.0
1.0619969647600412e-15 0.0 0.010000060550549951

0.009998149014049213 0.0 1.8643721174979663e-15
0.0 0.01 0.0
1.8643721174979663e-15 0.0 0.010000071800773296

0.009998119030839877 0.0 3.166366320345166e-16
0.0 0.01 0.0
3.166366320345166e-16 0.0 0.010000084451069785

0.009998086549334165 0.0 -5.3305316925957925e-15
0.0 0.01 0.0
-5.3305316925957925e-15 0.0 0.010000095701373796

0.00999792814406597 0.0 3.5772565368515485e-18
0.0 0.01 0.0
3.5772565368515485e-18 0.0 0.010000049300364576

0.009997925645620478 0.0 -3.83692407890728e-16
0.0 0.01 0.0
-3.83692407890728e-16 0.0 0.010000052250409513

0.009997912154047177 0.0 -6.4951864126566165e-16
0.0 0.01 0.0
-6.4951864126566165e-16 0.0 0.010000058100506347

0.009997894165367742 0.0 -3.4133273302249203e-16
0.0 0.01 0.0
-3.4133273302249203e-16 0.0 0.010000067400681422

0.009997866682850536 0.0 1.052734333941008e-15
0.0 0.01 0.0
1.052734333941008e-15 0.0 0.010000080100962414

0.00999783420380421 0.0 2.2067291663261592e-15
0.0 0.01 0.0
2.2067291663261592e-15 0.0 0.010000094751346656

0.00999779722804447 0.0 5.660035732235281e-16
0.0 0.01 0.0
5.660035732235281e-16 0.0 0.01000011180187492

0.009997755256057589 0.0 -4.620597090387326e-15
0.0 0.01 0.0
-4.620597090387326e-15 0.0 0.01000013135258798

0.009997583875930503 0.0 1.8835128613220741e-19
0.0 0.01 0.0
1.8835128613220741e-19 0.0 0.010000063950613447

0.009997578379920677 0.0 -1.2189242856875906e-16
0.0 0.01 0.0
-1.2189242856875906e-16 0.0 0.010000066400661351

0.009997563890483674 0.0 -1.1083859526379601e-15
0.0 0.01 0.0
-1.1083859526379601e-15 0.0 0.010000075200848266

0.009997539408474644 0.0 -1.2567317391527988e-15
0.0 0.01 0.0
-1.2567317391527988e-15 0.0 0.010000086901132759

0.009997508431496488 0.0 1.1885646524755123e-16
0.0 0.01 0.0
1.1885646524755123e-16 0.0 0.010000103501606865

0.00999746796200723 0.0 2.0486628614743044e-15
0.0 0.01 0.0
2.0486628614743044e-15 0.0 0.010000124002306448

0.009997422496870943 0.0 2.800074799696267e-15
0.0 0.01 0.0
2.800074799696267e-15 0.0 0.010000147453261306

0.00999737203629209 0.0 -1.2797259568892508e-15
0.0 0.01 0.0
-1.2797259568892508e-15 0.0 0.010000176254659746

0.009997189185545987 0.0 1.4002798619074306e-18
0.0 0.01 0.0
1.4002798619074306e-18 0.0 0.010000080100962414

0.009997182691031862 0.0 -8.763583955073971e-16
0.0 0.01 0.0
-8.763583955073971e-16 0.0 0.01000008350104585

0.00999716520586444 0.0 -2.1852887004459848e-15
0.0 0.01 0.0
-2.1852887004459848e-15 0.0 0.010000093251304354

0.009997136730216726 0.0 -2.717387805061947e-15
0.0 0.01 0.0
-2.717387805061947e-15 0.0 0.010000109851810088

0.00999709676480578 0.0 -2.2349576696341002e-15
0.0 0.01 0.0
-2.2349576696341002e-15 0.0 0.010000132802645435

0.00999704980606038 0.0 8.838962957434713e-17
0.0 0.01 0.0
8.838962957434713e-17 0.0 0.010000158703777955

0.009996992357431414 0.0 1.3993490814967116e-15
0.0 0.01 0.0
1.3993490814967116e-15 0.0 0.010000192855578847

0.009996929914392806 0.0 3.154106660233711e-16
0.0 0.01 0.0
3.154106660233711e-16 0.0 0.010000230007935304

0.009996737097674794 0.0 1.5179459085777764e-18
0.0 0.01 0.0
1.5179459085777764e-18 0.0 0.010000097651430352

0.0099967286060033 0.0 -1.2506478182947678e-15
0.0 0.01 0.0
-1.2506478182947678e-15 0.0 0.010000103051592922

0.009996709125191638 0.0 -3.806743878301549e-15
0.0 0.01 0.0
-3.806743878301549e-15 0.0 0.010000116202025403

0.009996673660416648 0.0 -6.479082796515799e-15
0.0 0.01 0.0
-6.479082796515799e-15 0.0 0.010000136252784673

0.00999662520915104 0.0 -7.262948099174695e-15
0.0 0.01 0.0
-7.262948099174695e-15 0.0 0.010000165054086338

0.009996566768871099 0.0 -5.801432107640543e-15
0.0 0.01 0.0
-5.801432107640543e-15 0.0 0.0100002011560694

0.009996497341152683 0.0 -2.95854175962693e-15
0.0 0.01 0.0
-2.95854175962693e-15 0.0 0.010000244158941747

0.009996422420777168 0.0 -1.911034704262141e-16
0.0 0.01 0.0
-1.911034704262141e-16 0.0 0.010000294913045544

0.009996219145310774 0.0 7.411379139556638e-19
0.0 0.01 0.0
7.411379139556638e-19 0.0 0.010000120102163645

0.00999621015552735 0.0 -1.6670145843980307e-15
0.0 0.01 0.0
-1.6670145843980307e-15 0.0 0.010000125002343799

0.009996185184033985 0.0 -6.612128979717917e-15
0.0 0.01 0.0
-6.612128979717917e-15 0.0 0.010000141603007655

0.009996144231189991 0.0 -1.1174423340918405e-14
0.0 0.01 0.0
-1.1174423340918405e-14 0.0 0.010000167004183467

0.009996087796997986 0.0 -1.537630334686986e-14
0.0 0.01 0.0
-1.537630334686986e-14 0.0 0.010000203606218155

0.009996016381647245 0.0 -1.4962674566161235e-14
0.0 0.01 0.0
-1.4962674566161235e-14 0.0 0.010000249009300535

0.009995932982440878 0.0 -1.1872939729126652e-14
0.0 0.01 0.0
-1.1872939729126652e-14 0.0 0.010000303213790234

0.00999584109591192 0.0 -5.644603244552737e-15
0.0 0.01 0.0
-5.644603244552737e-15 0.0 0.010000367720281737

0.009995632862450258 0.0 1.3499223371426342e-18
0.0 0.01 0.0
1.3499223371426342e-18 0.0 0.010000143553091064

0.009995623374904674 0.0 -2.189993114606756e-15
0.0 0.01 0.0
-2.189993114606756e-15 0.0 0.010000149903370587

0.009995593913751107 0.0 -9.404359606767821e-15
0.0 0.01 0.0
-9.404359606767821e-15 0.0 0.010000170904381147

0.009995542981523817 0.0 -1.8333759997873295e-14
0.0 0.01 0.0
-1.8333759997873295e-14 0.0 0.010000203106187652

0.009995474074455536 0.0 -2.5432754482699136e-14
0.0 0.01 0.0
-2.5432754482699136e-14 0.0 0.010000246109085155

0.009995388691587035 0.0 -2.8691530728670456e-14
0.0 0.01 0.0
-2.8691530728670456e-14 0.0 0.010000302763749329

0.009995288332065406 0.0 -2.2270720414015445e-14
0.0 0.01 0.0
-2.2270720414015445e-14 0.0 0.010000370120547369

0.009995178489287892 0.0 -1.6943446558574938e-14
0.0 0.01 0.0
-1.6943446558574938e-14 0.0 0.010000449230269362

0.009994967801004225 0.0 -1.1814101183478938e-18
0.0 0.01 0.0
-1.1814101183478938e-18 0.0 0.010000173854533705

0.009994956318376363 0.0 -3.890305031230825e-15
0.0 0.01 0.0
-3.890305031230825e-15 0.0 0.010000181154922448

0.009994920373014565 0.0 -1.0809572477937408e-14
0.0 0.01 0.0
-1.0809572477937408e-14 0.0 0.010000203606218155

0.00999486146339912 0.0 -2.260671230604287e-14
0.0 0.01 0.0
-2.260671230604287e-14 0.0 0.01000024270883585

0.009994779590748173 0.0 -3.27766163312262e-14
0.0 0.01 0.0
-3.27766163312262e-14 0.0 0.010000295913134168

0.009994678251167947 0.0 -3.1272461560154333e-14
0.0 0.01 0.0
-3.1272461560154333e-14 0.0 0.010000363319799232

0.00999455794561901 0.0 -2.8095347276126144e-14
0.0 0.01 0.0
-2.8095347276126144e-14 0.0 0.010000443879552609

0.009994426662777972 0.0 -2.7714673912760308e-14
0.0 0.01 0.0
-2.7714673912760308e-14 0.0 0.010000539093590152

0.009994219016831736 0.0 -2.0679765057907706e-18
0.0 0.01 0.0
-2.0679765057907706e-18 0.0 0.010000213856860018

0.009994205041127146 0.0 -2.502508320555931e-15
0.0 0.01 0.0
-2.502508320555931e-15 0.0 0.01000022265743623

0.009994161616990557 0.0 -8.535202232303128e-15
0.0 0.01 0.0
-8.535202232303128e-15 0.0 0.010000248059229703

0.009994091241143635 0.0 -1.7535917418791553e-14
0.0 0.01 0.0
-1.7535917418791553e-14 0.0 0.010000292512834063

0.009993995911693546 0.0 -2.3038203937547375e-14
0.0 0.01 0.0
-2.3038203937547375e-14 0.0 0.010000352068591971

0.009993875131700641 0.0 -1.3499009724957809e-14
0.0 0.01 0.0
-1.3499009724957809e-14 0.0 0.010000430227762796

0.009993732397354484 0.0 -6.241547536496463e-15
0.0 0.01 0.0
-6.241547536496463e-15 0.0 0.01000052444125291

0.009993574198948684 0.0 -2.0428806165476987e-14
0.0 0.01 0.0
-2.0428806165476987e-14 0.0 0.010000634810442529

0.009993373093209398 0.0 1.9149434411757864e-18
0.0 0.01 0.0
1.9149434411757864e-18 0.0 0.01000026956089907

0.009993357624040017 0.0 -4.720397561433621e-16
0.0 0.01 0.0
-4.720397561433621e-16 0.0 0.010000278311618172

0.009993307723983241 0.0 1.1128712413757372e-15
0.0 0.01 0.0
1.1128712413757372e-15 0.0 0.010000306664105854

0.00999322688747759 0.0 5.001319794705115e-15
0.0 0.01 0.0
5.001319794705115e-15 0.0 0.010000355018904868

0.009993113120903951 0.0 1.8200060931437457e-14
0.0 0.01 0.0
1.8200060931437457e-14 0.0 0.010000422876822209

0.009992971417097127 0.0 4.973378448347203e-14
0.0 0.01 0.0
4.973378448347203e-14 0.0 0.010000509788980072

0.009992802278543716 0.0 7.621525435525369e-14
0.0 0.01 0.0
7.621525435525369e-14 0.0 0.010000614806693444

0.009992612693913978 0.0 4.5155590413394396e-14
0.0 0.01 0.0
4.5155590413394396e-14 0.0 0.010000740332205651

0.009992425614396876 0.0 -8.297831648739187e-19
0.0 0.01 0.0
-8.297831648739187e-19 0.0 0.010000351068486497

0.009992405161006872 0.0 6.628244414923904e-15
0.0 0.01 0.0
6.628244414923904e-15 0.0 0.010000360869533082

0.009992349787825207 0.0 1.9388050359346227e-14
0.0 0.01 0.0
1.9388050359346227e-14 0.0 0.01000039212306287

0.009992254508198944 0.0 4.55013041333053e-14
0.0 0.01 0.0
4.55013041333053e-14 0.0 0.010000441429227243

0.009992123814925202 0.0 9.333803970824726e-14
0.0 0.01 0.0
9.333803970824726e-14 0.0 0.010000513239509517

0.00999195721337815 0.0 1.696370456367192e-13
0.0 0.01 0.0
1.6963704563669334e-13 0.0 0.01000060455481856

0.00999176019535735 0.0 2.3564392930680213e-13
0.0 0.01 0.0
2.3564392930680213e-13 0.0 0.01000071882749952

0.009991537753574581 0.0 1.8560443032747579e-13
0.0 0.01 0.0
1.8560443032744994e-13 0.0 0.010000855109669377

0.009991362703335326 0.0 8.803721911199245e-19
0.0 0.01 0.0
8.803721911199245e-19 0.0 0.010000472183441475

0.0099913422564716 0.0 1.0501716854091523e-14
0.0 0.01 0.0
1.0501716854091523e-14 0.0 0.010000481484771905

0.00999127692708976 0.0 4.0317803527450245e-14
0.0 0.01 0.0
4.0317803527450245e-14 0.0 0.010000511739278883

0.009991169709889398 0.0 9.444361336787464e-14
0.0 0.01 0.0
9.444361336787464e-14 0.0 0.01000056059713685

0.009991020110261713 0.0 1.840250829169561e-13
0.0 0.01 0.0
1.840250829169044e-13 0.0 0.010000632860071712

0.00999082913116926 0.0 3.206207678205044e-13
0.0 0.01 0.0
3.206207678205044e-13 0.0 0.010000727629408979

0.009990599771277442 0.0 4.54362437657598e-13
0.0 0.01 0.0
4.543624376574946e-13 0.0 0.01000084385680213

0.009990341012450764 0.0 4.0839410151066645e-13
0.0 0.01 0.0
4.0839410151071814e-13 0.0 0.010000985495661115

0.009990190452983983 0.0 7.48406817808204e-21
0.0 0.01 0.0
7.48406817808204e-21 0.0 0.010000650463459902

0.009990166025103046 0.0 1.3609174216374312e-14
0.0 0.01 0.0
1.3609174216374312e-14 0.0 0.010000658264991216

0.009990093241050796 0.0 5.086203559872174e-14
0.0 0.01 0.0
5.086203559872174e-14 0.0 0.010000685620504877

0.009989973100992687 0.0 1.2227100736238023e-13
0.0 0.01 0.0
1.2227100736238023e-13 0.0 0.010000733980801268

0.00998980561005415 0.0 2.4484219201362375e-13
0.0 0.01 0.0
2.4484219201357205e-13 0.0 0.0100007998959648

0.009989588781619797 0.0 4.360002743503396e-13
0.0 0.01 0.0
4.360002743503396e-13 0.0 0.010000889768739177

0.009989329104535434 0.0 6.351291964647883e-13
0.0 0.01 0.0
6.351291964649951e-13 0.0 0.010001000650175082

0.009989031572388313 0.0 6.145056155190213e-13
0.0 0.01 0.0
6.145056155190213e-13 0.0 0.010001138394361755

0.009988923929115715 0.0 5.792724548578197e-19
0.0 0.01 0.0
5.792724548578197e-19 0.0 0.010000903922546626

0.009988898015514251 0.0 1.207816467048541e-14
0.0 0.01 0.0
1.207816467048541e-14 0.0 0.01000091127454806

0.009988817784296269 0.0 4.8754181716937357e-14
0.0 0.01 0.0
4.8754181716937357e-14 0.0 0.010000936181448948

0.009988684734301766 0.0 1.0952310087038736e-13
0.0 0.01 0.0
1.0952310087038736e-13 0.0 0.010000977693363958

0.009988499370139374 0.0 2.3054728188102037e-13
0.0 0.01 0.0
2.3054728188096867e-13 0.0 0.010001036761208787

0.009988260704064006 0.0 4.2359437750390956e-13
0.0 0.01 0.0
4.2359437750396126e-13 0.0 0.010001112485616104

0.009987972733120801 0.0 5.968455869484774e-13
0.0 0.01 0.0
5.968455869484257e-13 0.0 0.010001207718752465

0.009987637960843624 0.0 4.864946362836852e-13
0.0 0.01 0.0
4.864946362836335e-13 0.0 0.010001330365433743

0.009987623016437604 0.0 -4.644088876756492e-19
0.0 0.01 0.0
-4.644088876756492e-19 0.0 0.010001257537170193

0.009987597112959412 0.0 6.097343275146252e-15
0.0 0.01 0.0
6.097343275146252e-15 0.0 0.01000126343940154

0.009987511931788788 0.0 2.080791130721464e-14
0.0 0.01 0.0
2.080791130721464e-14 0.0 0.010001282496677477

0.009987368473690856 0.0 4.924819158681848e-14
0.0 0.01 0.0
4.924819158681848e-14 0.0 0.0100013161597959

0.00998716873850969 0.0 8.569112810986594e-14
0.0 0.01 0.0
8.569112810986594e-14 0.0 0.010001362078238037

0.009986911740295833 0.0 8.766994005309229e-14
0.0 0.01 0.0
8.766994005309229e-14 0.0 0.010001419252084306

0.009986598986289034 0.0 -1.1052115597164835e-13
0.0 0.01 0.0
-1.1052115597164835e-13 0.0 0.01000149103341081

0.009986231986018132 0.0 -8.100600044325288e-13
0.0 0.01 0.0
-8.100600044325288e-13 0.0 0.010001583876220129

0.009986408758573954 0.0 2.827456649482293e-19
0.0 0.01 0.0
2.827456649482293e-19 0.0 0.010001730449064484

0.009986378382903458 0.0 -2.932527368937547e-15
0.0 0.01 0.0
-2.932527368937547e-15 0.0 0.010001735301586252

0.009986288751393098 0.0 -2.875060402136904e-14
0.0 0.01 0.0
-2.875060402136904e-14 0.0 0.010001749008747757

0.009986139370905521 0.0 -1.1178098636549222e-13
0.0 0.01 0.0
-1.1178098636549222e-13 0.0 0.0100017729213761

0.00998592925369957 0.0 -3.601295310844907e-13
0.0 0.01 0.0
-3.6012953108446486e-13 0.0 0.010001801736821386

0.009985658411276903 0.0 -1.0115435183737695e-12
0.0 0.01 0.0
-1.0115435183737695e-12 0.0 0.010001837406285241

0.00998532735626364 0.0 -2.3902674093083638e-12
0.0 0.01 0.0
-2.390267409308157e-12 0.0 0.0100018755275086

0.009984936106627734 0.0 -4.639399229533694e-12
0.0 0.01 0.0
-4.6393992295341075e-12 0.0 0.0100019268067446

0.009985444839687158 0.0 -3.1228088230061644e-20
0.0 0.01 0.0
-3.1228088230061644e-20 0.0 0.010002339670852881

0.009985413974996325 0.0 -3.2830393250268605e-14
0.0 0.01 0.0
-3.2830393250268605e-14 0.0 0.01000234357359322

0.009985320387038301 0.0 -1.535874663751991e-13
0.0 0.01 0.0
-1.535874663751991e-13 0.0 0.010002354831523641

0.00998516806332948 0.0 -5.148091560957644e-13
0.0 0.01 0.0
-5.148091560957644e-13 0.0 0.010002368040877136

0.009984952532214266 0.0 -1.4876037035737264e-12
0.0 0.01 0.0
-1.487603703573623e-12 0.0 0.010002381700604544

0.009984673805971777 0.0 -3.6288674839974546e-12
0.0 0.01 0.0
-3.628867483997868e-12 0.0 0.010002390506905361

0.009984335384055446 0.0 -7.322835082336158e-12
0.0 0.01 0.0
-7.322835082336985e-12 0.0 0.01000239100726406

0.009983930815955661 0.0 -1.1851846721757796e-11
0.0 0.01 0.0
-1.1851846721757796e-11 0.0 0.010002396361106844

0.009984950043483822 0.0 5.719863405875381e-19
0.0 0.01 0.0
5.719863405875381e-19 0.0 0.010003101041872915

0.009984919183380944 0.0 -7.628289872180987e-14
0.0 0.01 0.0
-7.628289872180987e-14 0.0 0.010003102993688158

0.009984827600244125 0.0 -3.761718061818275e-13
0.0 0.01 0.0
-3.7617180618180166e-13 0.0 0.010003113253248607

0.009984675796790743 0.0 -1.2665280586907375e-12
0.0 0.01 0.0
-1.2665280586907375e-12 0.0 0.010003121561013375

0.00998446278591442 0.0 -3.537313892288013e-12
0.0 0.01 0.0
-3.5373138922884264e-12 0.0 0.01000312206148179

0.009984189574631555 0.0 -8.033768383663094e-12
0.0 0.01 0.0
-8.033768383663094e-12 0.0 0.010003105946436467

0.009983854685021937 0.0 -1.4431555551680996e-11
0.0 0.01 0.0
-1.4431555551679342e-11 0.0 0.010003069262477775

0.00998345266296025 0.0 -1.9835578590636813e-11
0.0 0.01 0.0
-1.9835578590636813e-11 0.0 0.010003037983841319

0.009985207885848321 0.0 4.2009042814440624e-19
0.0 0.01 0.0
4.2009042814440624e-19 0.0 0.010004025879851938

0.009985179014474667 0.0 -9.717482971331233e-14
0.0 0.01 0.0
-9.717482971331233e-14 0.0 0.010004029283961727

0.009985090410788124 0.0 -5.464262044499982e-13
0.0 0.01 0.0
-5.464262044500499e-13 0.0 0.010004039045766418

0.009984946559264329 0.0 -2.050598022504384e-12
0.0 0.01 0.0
-2.0505980225039702e-12 0.0 0.010004046905291478

0.009984744480774289 0.0 -5.909042635822496e-12
0.0 0.01 0.0
-5.90904263582291e-12 0.0 0.01000404199934373

0.009984489660366929 0.0 -1.273730232006922e-11
0.0 0.01 0.0
-1.2737302320070048e-11 0.0 0.010004009710377897

0.009984176138589717 0.0 -1.980739476312053e-11
0.0 0.01 0.0
-1.980739476312053e-11 0.0 0.010003952041560975

0.009983800449013818 0.0 -2.0588622679060866e-11
0.0 0.01 0.0
-2.0588622679060866e-11 0.0 0.010003904135151119

0.009986609444148812 0.0 1.1822602068321415e-18
0.0 0.01 0.0
1.1822602068321415e-18 0.0 0.010005126990210654

0.009986583050565878 0.0 5.059768340207665e-14
0.0 0.01 0.0
5.059768340207665e-14 0.0 0.010005132348448

0.009986504369051012 0.0 -9.234393493818553e-14
0.0 0.01 0.0
-9.234393493818553e-14 0.0 0.010005148022593576

0.009986374399229525 0.0 -1.6214876176977708e-12
0.0 0.01 0.0
-1.6214876176978742e-12 0.0 0.010005164147510308

0.00998619713056582 0.0 -6.254746962102188e-12
0.0 0.01 0.0
-6.254746962102602e-12 0.0 0.010005161693713602

0.009985975060111538 0.0 -1.3283520670389918e-11
0.0 0.01 0.0
-1.3283520670389918e-11 0.0 0.010005130395444605

0.009985705707538244 0.0 -1.54521463235162e-11
0.0 0.01 0.0
-1.5452146323514545e-11 0.0 0.010005078566157085

0.009985387590890741 0.0 -2.527348915813103e-12
0.0 0.01 0.0
-2.5273489158128962e-12 0.0 0.010005047268668198

0.009989653579442797 0.0 2.6478959246624423e-18
0.0 0.01 0.0
2.6478959246624423e-18 0.0 0.010006414867303104

0.009989632146177164 0.0 6.242415390863804e-13
0.0 0.01 0.0
6.242415390863804e-13 0.0 0.010006425638021716

0.009989568844081783 0.0 2.024298890764328e-12
0.0 0.01 0.0
2.024298890764535e-12 0.0 0.010006451537985123

0.009989465669229886 0.0 2.4637948759457174e-12
0.0 0.01 0.0
2.4637948759457174e-12 0.0 0.010006485303423164

0.009989328107733434 0.0 -1.1610414336886487e-13
0.0 0.01 0.0
-1.1610414336886487e-13 0.0 0.010006502937734394

0.009989159652482378 0.0 -2.582004494526413e-12
0.0 0.01 0.0
-2.582004494526413e-12 0.0 0.010006496074369224

0.009988960308165755 0.0 7.663199674282888e-12
0.0 0.01 0.0
7.663199674282888e-12 0.0 0.010006477488246866

0.00998873755501152 0.0 4.2942550297179364e-11
0.0 0.01 0.0
4.2942550297179364e-11 0.0 0.010006501935782397

0.009994793069643817 0.0 2.0924374890413226e-18
0.0 0.01 0.0
2.0924374890413226e-18 0.0 0.01000788967723854

0.009994779590748173 0.0 1.89438765849363e-12
0.0 0.01 0.0
1.89438765849363e-12 0.0 0.01000790586553347

0.009994741151234188 0.0 6.937079445998058e-12
0.0 0.01 0.0
6.937079445998058e-12 0.0 0.010007952827068824

0.009994679748774769 0.0 1.2690378808635671e-11
0.0 0.01 0.0
1.2690378808635671e-11 0.0 0.010008015978094555

0.009994600875731304 0.0 1.683941880710383e-11
0.0 0.01 0.0
1.6839418807105485e-11 0.0 0.010008072764918656

0.009994513019349695 0.0 2.440724033000291e-11
0.0 0.01 0.0
2.440724033000291e-11 0.0 0.010008113363328986

0.009994420173646244 0.0 5.130743392456982e-11
0.0 0.01 0.0
5.130743392456982e-11 0.0 0.010008153511131742

0.009994333320330642 0.0 1.0798114146313194e-10
0.0 0.01 0.0
1.079811414631187e-10 0.0 0.010008253356451478

0.010002156447339261 0.0 -5.856624845144668e-18
0.0 0.01 0.0
-5.856624845144668e-18 0.0 0.010009525793845264

0.010002155496724677 0.0 3.748249125117094e-12
0.0 0.01 0.0
3.748249125117094e-12 0.0 0.010009552720757304

0.010002151594204488 0.0 1.4158076706797535e-11
0.0 0.01 0.0
1.4158076706800844e-11 0.0 0.010009625228941667

0.010002150593559024 0.0 2.830297800524034e-11
0.0 0.01 0.0
2.8302978005246957e-11 0.0 0.01000973048394396

0.010002157948310213 0.0 4.292537233644177e-11
0.0 0.01 0.0
4.292537233644177e-11 0.0 0.010009839703935883

0.010002180913249982 0.0 6.217897881818585e-11
0.0 0.01 0.0
6.217897881819909e-11 0.0 0.010009941555552035

0.010002229745543125 0.0 1.003137178750653e-10
0.0 0.01 0.0
1.003137178750653e-10 0.0 0.01001005273833962

0.010002319656871645 0.0 1.6149135121059624e-10
0.0 0.01 0.0
1.6149135121059624e-10 0.0 0.010010229525095896

0.010011244035859972 0.0 -5.705087124419511e-15
0.0 0.01 0.0
-5.705087124419511e-15 0.0 0.010011257280462723

0.010011257731984196 0.0 5.303346067453299e-12
0.0 0.01 0.0
5.303346067241541e-12 0.0 0.010011294004408927

0.010011300375954399 0.0 2.0455112551387813e-11
0.0 0.01 0.0
2.0455112551387813e-11 0.0 0.010011399362235154

0.010011378741941652 0.0 4.223234487739464e-11
0.0 0.01 0.0
4.223234487739464e-11 0.0 0.010011552237338704

0.0100114953912657 0.0 6.599364404488608e-11
0.0 0.01 0.0
6.599364404488608e-11 0.0 0.010011723684536842

0.010011657553143012 0.0 9.186125114042204e-11
0.0 0.01 0.0
9.186125114042204e-11 0.0 0.010011889821611816

0.010011877578065766 0.0 1.265187764650015e-10
0.0 0.01 0.0
1.2651877646330744e-10 0.0 0.010012058877460431

0.010012176002206259 0.0 1.6671480234324966e-10
0.0 0.01 0.0
1.6671480234324966e-10 0.0 0.01001227892884439

0.010020744069393761 0.0 4.776811031205319e-18
0.0 0.01 0.0
4.776811031205319e-18 0.0 0.010012969989528496

0.010020777476600642 0.0 5.4371459652084504e-12
0.0 0.01 0.0
5.437145965206796e-12 0.0 0.010013019030210603

0.010020879159327133 0.0 2.1217451327341645e-11
0.0 0.01 0.0
2.1217451327344954e-11 0.0 0.010013155313883495

0.010021049677289107 0.0 4.453734741324939e-11
0.0 0.01 0.0
4.453734741324277e-11 0.0 0.010013357264895143

0.010021293418872888 0.0 6.985660393715861e-11
0.0 0.01 0.0
6.985660393714537e-11 0.0 0.010013582823932107

0.010021616741045562 0.0 9.256641690047152e-11
0.0 0.01 0.0
9.256641690045829e-11 0.0 0.010013799009439599

0.01002202615962246 0.0 1.111515348316496e-10
0.0 0.01 0.0
1.111515348316496e-10 0.0 0.010013998087205132

0.010022539375147676 0.0 1.1765974662961424e-10
0.0 0.01 0.0
1.1765974662961424e-10 0.0 0.010014209428902297

0.010028746531057071 0.0 4.9181198384431165e-18
0.0 0.01 0.0
4.9181198384431165e-18 0.0 0.010014536033122072

0.010028799737703325 0.0 3.831088900087261e-12
0.0 0.01 0.0
3.831088900087261e-12 0.0 0.010014592428814027

0.010028962741913543 0.0 1.5152688086499306e-11
0.0 0.01 0.0
1.5152688086499306e-11 0.0 0.010014751828379456

0.010029234147435331 0.0 3.210611614516163e-11
0.0 0.01 0.0
3.210611614516163e-11 0.0 0.010014988732091413

0.010029612467306168 0.0 4.970363473266071e-11
0.0 0.01 0.0
4.9703634732654093e-11 0.0 0.010015250164327923

0.010030103640808268 0.0 6.166340043346851e-11
0.0 0.01 0.0
6.166340043348175e-11 0.0 0.010015488057828401

0.010030702822864654 0.0 6.282658202697956e-11
0.0 0.01 0.0
6.282658202697956e-11 0.0 0.010015677390171167

0.010031417945274406 0.0 4.648585900915103e-11
0.0 0.01 0.0
4.6485859009157645e-11 0.0 0.010015826040412876

0.010033595796426204 0.0 -1.114377607774003e-18
0.0 0.01 0.0
-1.114377607774003e-18 0.0 0.010015829004442417

0.0100336682727932 0.0 1.5922272847440697e-12
0.0 0.01 0.0
1.5922272847440697e-12 0.0 0.010015890345373282

0.010033884852647914 0.0 6.4314092506010646e-12
0.0 0.01 0.0
6.431409250600651e-12 0.0 0.010016059603958941

0.010034244452647025 0.0 1.3624300316785696e-11
0.0 0.01 0.0
1.3624300316787351e-11 0.0 0.010016309362709058

0.010034745199048777 0.0 1.9998059831026414e-11
0.0 0.01 0.0
1.9998059831026414e-11 0.0 0.010016579691965817

0.010035377301385736 0.0 2.087233405138422e-11
0.0 0.01 0.0
2.087233405138422e-11 0.0 0.010016805468841173

0.01003613931779427 0.0 1.2441537361427689e-11
0.0 0.01 0.0
1.2441537361428516e-11 0.0 0.01001694336456482

0.010037015563120614 0.0 -7.080757902048711e-12
0.0 0.01 0.0
-7.0807579020491245e-12 0.0 0.010016997840975383

0.010034969174966057 0.0 -1.0638159384229007e-18
0.0 0.01 0.0
-1.0638159384229007e-18 0.0 0.01001677551848198

0.010035053555074948 0.0 7.401801800273843e-14
0.0 0.01 0.0
7.401801800273843e-14 0.0 0.010016833409351358

0.010035307213488309 0.0 4.4487258231500996e-13
0.0 0.01 0.0
4.4487258231500996e-13 0.0 0.010017000755789925

0.010035725185473325 0.0 9.381566261546248e-13
0.0 0.01 0.0
9.381566261546248e-13 0.0 0.010017243699449568

0.010036302680156343 0.0 1.9413844405814611e-13
0.0 0.01 0.0
1.9413844405814611e-13 0.0 0.01001749651230178

0.010037029365289583 0.0 -3.8278073015639e-12
0.0 0.01 0.0
-3.8278073015639e-12 0.0 0.010017684500866063

0.010037890065748999 0.0 -1.2241221104935462e-11
0.0 0.01 0.0
-1.2241221104935462e-11 0.0 0.010017756632977588

0.010038852206822803 0.0 -2.3786026189812408e-11
0.0 0.01 0.0
-2.3786026189810753e-11 0.0 0.010017708075579888

0.010033814290926417 0.0 -4.592289148527696e-18
0.0 0.01 0.0
-4.592289148527696e-18 0.0 0.010017354170782661

0.010033903591909298 0.0 -3.2875485779793237e-13
0.0 0.01 0.0
-3.2875485779798407e-13 0.0 0.010017408151280136

0.010034171913279278 0.0 -1.2033932593788117e-12
0.0 0.01 0.0
-1.2033932593790185e-12 0.0 0.010017563764748778

0.010034611467365177 0.0 -2.5315888087164442e-12
0.0 0.01 0.0
-2.531588808716651e-12 0.0 0.010017786592138323

0.010035217420252995 0.0 -4.54450312379532e-12
0.0 0.01 0.0
-4.5445031237949066e-12 0.0 0.0100180089819624

0.010035976923699374 0.0 -7.64721437941578e-12
0.0 0.01 0.0
-7.64721437941578e-12 0.0 0.010018150345942198

0.01003686793908721 0.0 -1.1708276830641295e-11
0.0 0.01 0.0
-1.1708276830641295e-11 0.0 0.01001815773604457

0.010037845614568447 0.0 -1.528819571333469e-11
0.0 0.01 0.0
-1.528819571333469e-11 0.0 0.010018030598399615

0.010031446563446893 0.0 1.520547471562563e-18
0.0 0.01 0.0
1.520547471562563e-18 0.0 0.010017588796274497

0.010031533277500216 0.0 -1.2683320479771016e-13
0.0 0.01 0.0
-1.2683320479771016e-13 0.0 0.0100176368995525

0.01003179651233816 0.0 -4.732500980566796e-13
0.0 0.01 0.0
-4.732500980566279e-13 0.0 0.010017777292705636

0.010032230352414889 0.0 -9.731086616156132e-13
0.0 0.01 0.0
-9.731086616156132e-13 0.0 0.010017975602436549

0.010032824462358935 0.0 -1.5901220697056802e-12
0.0 0.01 0.0
-1.5901220697056802e-12 0.0 0.010018165578620083

0.010033569634611226 0.0 -2.2869622352131403e-12
0.0 0.01 0.0
-2.286962235213347e-12 0.0 0.010018269192837164

0.010034440761360227 0.0 -2.910290801006129e-12
0.0 0.01 0.0
-2.910290801006129e-12 0.0 0.010018231889337698

0.010035389126020778 0.0 -3.0492086759103847e-12
0.0 0.01 0.0
-3.0492086759103847e-12 0.0 0.010018059554590585

0.01002878496079625 0.0 -6.995400028652102e-19
0.0 0.01 0.0
-6.995400028652102e-19 0.0 0.01001751762278951

0.010028868680655226 0.0 1.0316308316161288e-13
0.0 0.01 0.0
1.0316308316161288e-13 0.0 0.010017562759470541

0.010029114960323424 0.0 3.80742763179456e-13
0.0 0.01 0.0
3.807427631794043e-13 0.0 0.010017688924253839

0.01002952428972864 0.0 7.634585836490486e-13
0.0 0.01 0.0
7.634585836489452e-13 0.0 0.010017868076383177

0.010030085427355446 0.0 1.1723998611612983e-12
0.0 0.01 0.0
1.1723998611612983e-12 0.0 0.010018035022245873

0.010030792040796325 0.0 1.5713839319076794e-12
0.0 0.01 0.0
1.5713839319074726e-12 0.0 0.010018115507108431

0.010031618075722408 0.0 1.9663365160271113e-12
0.0 0.01 0.0
1.9663365160271113e-12 0.0 0.010018059554590585

0.010032520754830958 0.0 2.2239062785049777e-12
0.0 0.01 0.0
2.223906278504564e-12 0.0 0.010017876923650953

0.010026071354054696 0.0 9.448972691558886e-18
0.0 0.01 0.0
9.448972691558886e-18 0.0 0.010017191681684424

0.010026147094225366 0.0 1.572854899536615e-13
0.0 0.01 0.0
1.572854899536615e-13 0.0 0.010017230933662129

0.010026373014723878 0.0 5.69860578208374e-13
0.0 0.01 0.0
5.698605782081672e-13 0.0 0.010017349245231363

0.010026749045203747 0.0 1.0476729979683473e-12
0.0 0.01 0.0
1.0476729979683473e-12 0.0 0.010017517120157297

0.010027269338341171 0.0 1.3894441042759358e-12
0.0 0.01 0.0
1.3894441042761426e-12 0.0 0.010017672738704343

0.010027927608570297 0.0 1.524180059784499e-12
0.0 0.01 0.0
1.5241800597847058e-12 0.0 0.010017748791362453

0.010028704672395024 0.0 1.5807724458045603e-12
0.0 0.01 0.0
1.5807724458045603e-12 0.0 0.010017696263069214

0.01002956469575551 0.0 1.336075585814384e-12
0.0 0.01 0.0
1.3360755858139704e-12 0.0 0.010017533304952505

0.010023015715333284 0.0 -4.258618542599266e-19
0.0 0.01 0.0
-4.258618542599266e-19 0.0 0.010016648433453105

0.010023085042537145 0.0 1.3369559169250031e-13
0.0 0.01 0.0
1.3369559169252616e-13 0.0 0.010016687679045035

0.01002329056562107 0.0 4.545132980433044e-13
0.0 0.01 0.0
4.545132980434078e-13 0.0 0.01001680154914801

0.010023633316827273 0.0 7.073691089463201e-13
0.0 0.01 0.0
7.073691089465269e-13 0.0 0.010016965426398912

0.010024109863374802 0.0 6.383789002322844e-13
0.0 0.01 0.0
6.383789002323878e-13 0.0 0.010017122476696595

0.010024720262510825 0.0 3.096345306269591e-13
0.0 0.01 0.0
3.096345306269591e-13 0.0 0.010017207412575266

0.010025450833068373 0.0 4.075261911000037e-14
0.0 0.01 0.0
4.075261911000037e-14 0.0 0.010017175498544983

0.010026275045092743 0.0 -4.2941735165550515e-13
0.0 0.01 0.0
-4.2941735165560855e-13 0.0 0.010017041010644118

0.010019237972882417 0.0 5.2536534150880926e-17
0.0 0.01 0.0
5.2536534150880926e-17 0.0 0.010015928125115106

0.010019300834880394 0.0 1.789790190922122e-13
0.0 0.01 0.0
1.789790190922122e-13 0.0 0.01001596786464

0.010019484046636634 0.0 6.220785067964144e-13
0.0 0.01 0.0
6.220785067962077e-13 0.0 0.010016080705363702

0.010019792003835255 0.0 9.813503254630493e-13
0.0 0.01 0.0
9.813503254630493e-13 0.0 0.010016245049677722

0.010020221823354974 0.0 9.967720978733227e-13
0.0 0.01 0.0
9.967720978737363e-13 0.0 0.010016410909478413

0.010020780897839488 0.0 8.878298856365263e-13
0.0 0.01 0.0
8.878298856369399e-13 0.0 0.010016512509584416

0.010021460988948471 0.0 1.1896843783541406e-12
0.0 0.01 0.0
1.1896843783545542e-12 0.0 0.01001650462064253

0.010022253261357906 0.0 1.6703347242692676e-12
0.0 0.01 0.0
1.6703347242692676e-12 0.0 0.010016403573487565

0.010014683176152707 0.0 -2.364934073445381e-16
0.0 0.01 0.0
-2.364934073445381e-16 0.0 0.010015067184725886

0.010014734150421653 0.0 3.3341069688335944e-13
0.0 0.01 0.0
3.3341069688335944e-13 0.0 0.010015106411734509

0.010014892100266487 0.0 1.196357774802958e-12
0.0 0.01 0.0
1.196357774802958e-12 0.0 0.010015222689122465

0.010015156438140237 0.0 2.1789966523435836e-12
0.0 0.01 0.0
2.178996652317114e-12 0.0 0.01001538995484407

0.01001553221264688 0.0 2.9195217556732294e-12
0.0 0.01 0.0
2.9195217555673503e-12 0.0 0.01001556556775475

0.01001602428452513 0.0 3.730142214798165e-12
0.0 0.01 0.0
3.730142214798165e-12 0.0 0.01001568231325671

0.010016639589439743 0.0 5.449734217323747e-12
0.0 0.01 0.0
5.449734217330364e-12 0.0 0.010015701453076623

0.010017380155699052 0.0 8.124270873197875e-12
0.0 0.01 0.0
8.124270873197875e-12 0.0 0.010015627858306305

0.010009778474106135 0.0 3.2994086631650966e-17
0.0 0.01 0.0
3.2994086631650966e-17 0.0 0.010014106442716436

0.010009819644899843 0.0 4.879017934400831e-13
0.0 0.01 0.0
4.879017934400831e-13 0.0 0.010014146160561887

0.010009943511374202 0.0 1.786686536701265e-12
0.0 0.01 0.0
1.786686536701265e-12 0.0 0.01001426190236416

0.010010154596458947 0.0 3.4237178859488674e-12
0.0 0.01 0.0
3.4237178859455587e-12 0.0 0.010014434041195907

0.010010457280365698 0.0 4.9248640716019275e-12
0.0 0.01 0.0
4.9248640716019275e-12 0.0 0.010014619898832733

0.010010861419974797 0.0 6.570398381697266e-12
0.0 0.01 0.0
6.570398381697266e-12 0.0 0.010014751326163454

0.010011383156981612 0.0 9.408880982396346e-12
0.0 0.01 0.0
9.408880982396346e-12 0.0 0.010014787134353775

0.010012041263940324 0.0 1.4269585152401726e-11
0.0 0.01 0.0
1.4269585152401726e-11 0.0 0.010014736109054413

0.010005196898357573 0.0 -4.757389822912712e-19
0.0 0.01 0.0
-4.757389822912712e-19 0.0 0.01001308177522513

0.010005224291132781 0.0 4.935451840523788e-13
0.0 0.01 0.0
4.935451840524822e-13 0.0 0.010013121480879699

0.010005311829334099 0.0 1.861150569676999e-12
0.0 0.01 0.0
1.8611505696774126e-12 0.0 0.010013238140933712

0.01000546197171352 0.0 3.620096525125983e-12
0.0 0.01 0.0
3.620096525125983e-12 0.0 0.010013413640675041

0.010005681087548846 0.0 5.205704812059624e-12
0.0 0.01 0.0
5.205704812060451e-12 0.0 0.010013605365612849

0.01000598536941178 0.0 6.794541742827875e-12
0.0 0.01 0.0
6.794541742827875e-12 0.0 0.010013746543253856

0.010006393325970225 0.0 9.34651788593437e-12
0.0 0.01 0.0
9.34651788593437e-12 0.0 0.010013798507366927

0.010006940819564759 0.0 1.4170978554986179e-11
0.0 0.01 0.0
1.4170978554989488e-11 0.0 0.010013760299858197

0.010001453917019749 0.0 3.2620674319417355e-18
0.0 0.01 0.0
3.2620674319417355e-18 0.0 0.010012033385558288

0.010001471524744045 0.0 3.6338590484431115e-13
0.0 0.01 0.0
3.6338590484431115e-13 0.0 0.010012074082368783

0.010001523297994837 0.0 1.3699137633522666e-12
0.0 0.01 0.0
1.3699137633520598e-12 0.0 0.010012190705817362

0.010001617092163503 0.0 2.6347307927122016e-12
0.0 0.01 0.0
2.6347307927122016e-12 0.0 0.01001236911144791

0.010001759264142677 0.0 3.636794583474538e-12
0.0 0.01 0.0
3.6367945834749518e-12 0.0 0.010012562181675072

0.010001965929579944 0.0 4.302421052367818e-12
0.0 0.01 0.0
4.302421052366991e-12 0.0 0.010012710241534275

0.010002262967921864 0.0 5.184099567860831e-12
0.0 0.01 0.0
5.184099567860004e-12 0.0 0.01001276756002975

0.010002691536265283 0.0 7.363716612794953e-12
0.0 0.01 0.0
7.363716612794126e-12 0.0 0.010012739151615614

0.009998729242264831 0.0 -2.1499749782656514e-18
0.0 0.01 0.0
-2.1499749782656514e-18 0.0 0.010010996612263286

0.009998738738657162 0.0 1.8066287422713079e-13
0.0 0.01 0.0
1.8066287422713079e-13 0.0 0.010011038751239085

0.009998764728921899 0.0 6.941865511930411e-13
0.0 0.01 0.0
6.941865511930411e-13 0.0 0.010011155338511499

0.009998813211303552 0.0 1.278784557562685e-12
0.0 0.01 0.0
1.2787845575622715e-12 0.0 0.010011331732162504

0.009998895183120027 0.0 1.515811794728563e-12
0.0 0.01 0.0
1.5158117947287697e-12 0.0 0.010011523287364113

0.009999027141986323 0.0 1.21656972705102e-12
0.0 0.01 0.0
1.21656972705102e-12 0.0 0.010011672254470085

0.009999237587199856 0.0 5.296230406677589e-13
0.0 0.01 0.0
5.296230406677589e-13 0.0 0.01001173005690274

0.009999574027219467 0.0 -9.542373416236192e-14
0.0 0.01 0.0
-9.542373416236192e-14 0.0 0.01001170311241503

0.009996923919922655 0.0 -2.295024587067791e-19
0.0 0.01 0.0
-2.295024587067791e-19 0.0 0.010010005245734865

0.009996925918078173 0.0 4.8788380690994646e-14
0.0 0.01 0.0
4.8788380690994646e-14 0.0 0.010010045366159183

0.00999693540933325 0.0 1.7571228017501677e-13
0.0 0.01 0.0
1.7571228017501677e-13 0.0 0.010010161467354914

0.009996958388273285 0.0 2.170183846216636e-13
0.0 0.01 0.0
2.170183846216636e-13 0.0 0.010010332893266367

0.009997004346628724 0.0 -6.34991904943068e-14
0.0 0.01 0.0
-6.34991904943068e-14 0.0 0.010010514610335815

0.009997093267855127 0.0 -5.025528891093742e-13
0.0 0.01 0.0
-5.025528891093742e-13 0.0 0.0100106552058495

0.009997254630971649 0.0 -7.366553314791146e-13
0.0 0.01 0.0
-7.366553314791146e-13 0.0 0.010010711536003213

0.009997539408474643 0.0 -8.689610298981142e-13
0.0 0.01 0.0
-8.689610298981142e-13 0.0 0.010010685051182045

0.00999580014729679 0.0 -2.0677087478556605e-18
0.0 0.01 0.0
-2.0677087478556605e-18 0.0 0.010009074837972826

0.00999580164540799 0.0 -4.171073171508962e-14
0.0 0.01 0.0
-4.171073171508962e-14 0.0 0.010009113994610835

0.009995803143519858 0.0 -2.4730439278701786e-13
0.0 0.01 0.0
-2.4730439278696616e-13 0.0 0.010009223695808322

0.009995814629066577 0.0 -7.353667878485e-13
0.0 0.01 0.0
-7.353667878485e-13 0.0 0.01000938379182582

0.00999584908594428 0.0 -1.258726860406912e-12
0.0 0.01 0.0
-1.2587268604068086e-12 0.0 0.010009550765164198

0.009995929486711345 0.0 -5.74076231422522e-13
0.0 0.01 0.0
-5.74076231422522e-13 0.0 0.010009677128920874

0.009996085299931927 0.0 3.015931587797713e-12
0.0 0.01 0.0
3.0159315877981265e-12 0.0 0.010009729531168207

0.009996364982963381 0.0 9.37916331632776e-12
0.0 0.01 0.0
9.379163316326932e-12 0.0 0.010009706514194578

0.009995130559028943 0.0 6.252108461006196e-19
0.0 0.01 0.0
6.252108461006196e-19 0.0 0.010008215663489691

0.009995130559028944 0.0 -2.0704383799359265e-13
0.0 0.01 0.0
-2.0704383799359265e-13 0.0 0.010008250900381153

0.00999513505246143 0.0 -9.442865739420641e-13
0.0 0.01 0.0
-9.442865739419607e-13 0.0 0.010008348843852365

0.009995150529886377 0.0 -2.1608907559590747e-12
0.0 0.01 0.0
-2.160890755958868e-12 0.0 0.010008493207947099

0.00999519396691463 0.0 -2.62106622998968e-12
0.0 0.01 0.0
-2.62106622998968e-12 0.0 0.010008638631012456

0.009995290329240335 0.0 9.212117010006107e-13
0.0 0.01 0.0
9.212117010006107e-13 0.0 0.010008746812640523

0.009995476071741808 0.0 1.2440635199228566e-11
0.0 0.01 0.0
1.2440635199228566e-11 0.0 0.010008793334827047

0.009995794654228169 0.0 3.1320688449772774e-11
0.0 0.01 0.0
3.1320688449772774e-11 0.0 0.010008783508966371

0.009994764614261416 0.0 -5.203336842115234e-19
0.0 0.01 0.0
-5.203336842115234e-19 0.0 0.01000742866957832

0.009994767110337867 0.0 -5.051768455338769e-13
0.0 0.01 0.0
-5.051768455339286e-13 0.0 0.01000745903729333

0.009994776595445436 0.0 -2.0287010131312707e-12
0.0 0.01 0.0
-2.0287010131316843e-12 0.0 0.010007542224199152

0.00999480704781542 0.0 -3.87876019561503e-12
0.0 0.01 0.0
-3.878760195615444e-12 0.0 0.010007658689352493

0.009994877938017165 0.0 -3.1110638123312754e-12
0.0 0.01 0.0
-3.1110638123312754e-12 0.0 0.01000777565973932

0.00999501622817452 0.0 6.28659707521316e-12
0.0 0.01 0.0
6.28659707521316e-12 0.0 0.010007866672954563

0.009995258873874252 0.0 3.005341940513249e-11
0.0 0.01 0.0
3.005341940513249e-11 0.0 0.010007916139879057

0.00999564934088312 0.0 1.1349452524187587e-10
0.0 0.01 0.0
1.1349452524187587e-10 0.0 0.010007937189856642

0.009994635819254357 0.0 1.0747130501874413e-18
0.0 0.01 0.0
1.0747130501874413e-18 0.0 0.010006701530562438

0.009994641310412732 0.0 -7.916024301723165e-13
0.0 0.01 0.0
-7.916024301724199e-13 0.0 0.010006724526812675

0.009994666270337592 0.0 -2.7690868010653667e-12
0.0 0.01 0.0
-2.7690868010653667e-12 0.0 0.010006788656626906

0.009994723678874445 0.0 -3.860029700164765e-12
0.0 0.01 0.0
-3.860029700165179e-12 0.0 0.010006876736928252

0.009994835004334563 0.0 1.3786509724916719e-12
0.0 0.01 0.0
1.3786509724916719e-12 0.0 0.010006969679699919

0.009995036198346643 0.0 2.1326326744271658e-11
0.0 0.01 0.0
2.1326326744274966e-11 0.0 0.01000705090027464

0.009995363226944599 0.0 6.065187797111113e-11
0.0 0.01 0.0
6.065187797110452e-11 0.0 0.010007120397796044

0.009995837600278966 0.0 1.0954059068231345e-09
0.0 0.01 0.0
1.0954059068233463e-09 0.0 0.010007195759398096

0.009994731666227526 0.0 -1.353175594039405e-18
0.0 0.01 0.0
-1.353175594039405e-18 0.0 0.010006023487993496

0.009994744645717127 0.0 -6.207611675659705e-13
0.0 0.01 0.0
-6.207611675660739e-13 0.0 0.010006040618956599

0.009994792071205232 0.0 -1.3288019352199223e-12
0.0 0.01 0.0
-1.3288019352199223e-12 0.0 0.010006085650767558

0.009994889420374891 0.0 1.966187396794711e-12
0.0 0.01 0.0
1.966187396794711e-12 0.0 0.010006153124485462

0.009995069149392341 0.0 1.7011264846148828e-11
0.0 0.01 0.0
1.7011264846152136e-11 0.0 0.010006230918817935

0.00999535873320437 0.0 5.199524203024256e-11
0.0 0.01 0.0
5.199524203023594e-11 0.0 0.010006322891792437

0.009995785166221906 0.0 4.608364182590003e-10
0.0 0.01 0.0
4.6083641825894736e-10 0.0 0.01000643490587723

0.009996319033433064 0.0 7.241549116128599e-09
0.0 0.01 0.0
7.241549116127752e-09 0.0 0.010006589507531449

0.00999506914939234 0.0 -1.2253226070760014e-18
0.0 0.01 0.0
-1.2253226070760014e-18 0.0 0.010005392558819427

0.009995094112522713 0.0 6.768229352871525e-13
0.0 0.01 0.0
6.768229352872559e-13 0.0 0.010005403776967067

0.009995178988565055 0.0 4.632912787425939e-12
0.0 0.01 0.0
4.632912787425939e-12 0.0 0.01000543898416652

0.00999534075830406 0.0 1.7554233798425192e-11
0.0 0.01 0.0
1.75542337984285e-11 0.0 0.010005497229609816

0.009995609393307793 0.0 4.7109987648177466e-11
0.0 0.01 0.0
4.710998764817085e-11 0.0 0.010005584774975412

0.009996005394806093 0.0 4.2016216937927775e-10
0.0 0.01 0.0
4.2016216937927775e-10 0.0 0.010005710938500246

0.009996508329620221 0.0 5.260504156315335e-09
0.0 0.01 0.0
5.260504156314488e-09 0.0 0.010005889949646555

0.009997017335115894 0.0 3.0717555324110194e-08
0.0 0.01 0.0
3.0717555324110194e-08 0.0 0.010006140401193516

0.009995710761214482 0.0 2.0705131349526022e-18
0.0 0.01 0.0
2.0705131349526022e-18 0.0 0.010004820883898749

0.009995754205547153 0.0 3.446410701226603e-12
0.0 0.01 0.0
3.446410701226603e-12 0.0 0.010004831599398464

0.009995887038859654 0.0 1.579313731594732e-11
0.0 0.01 0.0
1.5793137315944012e-11 0.0 0.010004869754868603

0.009996130746827123 0.0 7.433996827954957e-11
0.0 0.01 0.0
7.433996827954957e-11 0.0 0.010004941660589394

0.009996492346408679 0.0 8.4178938470069e-10
0.0 0.01 0.0
8.4178938470069e-10 0.0 0.01000506048869178

0.009996951894214847 0.0 6.272470793741581e-09
0.0 0.01 0.0
6.2724707937390395e-09 0.0 0.01000524437263968

0.009997433988127743 0.0 2.911915474882804e-08
0.0 0.01 0.0
2.911915474882804e-08 0.0 0.010005505543443061

0.009997811719821047 0.0 9.402667264925377e-08
0.0 0.01 0.0
9.402667264926732e-08 0.0 0.01000583275050542

0.009996741093762983 0.0 3.739826095114636e-18
0.0 0.01 0.0
3.739826095114636e-18 0.0 0.010004342677189706

0.009996799037580276 0.0 1.8374910907503948e-11
0.0 0.01 0.0
1.8374910907507257e-11 0.0 0.01000436125141893

0.00999697787054223 0.0 3.1986710334414683e-10
0.0 0.01 0.0
3.1986710334414683e-10 0.0 0.010004415022142854

0.009997270118245893 0.0 2.1891848438632438e-09
0.0 0.01 0.0
2.1891848438632438e-09 0.0 0.01000451966225731

0.009997652826657783 0.0 1.022348312915482e-08
0.0 0.01 0.0
1.0223483129151431e-08 0.0 0.010004690798491162

0.009998066561060155 0.0 3.5371741897371686e-08
0.0 0.01 0.0
3.5371741897371686e-08 0.0 0.01000493725425384

0.009998404883179391 0.0 9.794379250436321e-08
0.0 0.01 0.0
9.794379250436321e-08 0.0 0.010005257094089077

0.009998539827196973 0.0 2.2093191413927616e-07
0.0 0.01 0.0
2.2093191413922195e-07 0.0 0.010005620943012772

0.00999813452213102 0.0 -1.635468775089071e-18
0.0 0.01 0.0
-1.635468775089071e-18 0.0 0.010004009259836402

0.009998196488015716 0.0 5.226026602319767e-10
0.0 0.01 0.0
5.226026602319767e-10 0.0 0.010004035141041156

0.009998371897696142 0.0 3.869692929476188e-09
0.0 0.01 0.0
3.869692929476188e-09 0.0 0.010004115339011289

0.009998632280686015 0.0 1.5583564314224232e-08
0.0 0.01 0.0
1.5583564314224232e-08 0.0 0.010004256115673354

0.009998924173960482 0.0 4.657772716934634e-08
0.0 0.01 0.0
4.657772716934634e-08 0.0 0.010004468343455758

0.009999159107998094 0.0 1.1319842493852546e-07
0.0 0.01 0.0
1.1319842493852546e-07 0.0 0.01000475193691074

0.00999923109688712 0.0 2.3381059375816816e-07
0.0 0.01 0.0
2.3381059375816816e-07 0.0 0.01000508833923607

0.009999063157570104 0.0 4.156514066779764e-07
0.0 0.01 0.0
4.156514066779764e-07 0.0 0.010005441964906802

0.009999697013770653 0.0 7.122474782672632e-19
0.0 0.01 0.0
7.122474782672632e-19 0.0 0.01000385963336609

0.009999738510258272 0.0 3.0332107036241206e-09
0.0 0.01 0.0
3.0332107036241206e-09 0.0 0.01000388946801938

0.009999852003325297 0.0 1.6288460253548534e-08
0.0 0.01 0.0
1.6288460253548534e-08 0.0 0.010003985781742405

0.009999988000415209 0.0 5.12397233329168e-08
0.0 0.01 0.0
5.12397233329168e-08 0.0 0.010004145626902541

0.010000073253085748 0.0 1.233484463658758e-07
0.0 0.01 0.0
1.233484463658758e-07 0.0 0.010004366160118912

0.010000018559136193 0.0 2.4617327080262395e-07
0.0 0.01 0.0
2.4617327080262395e-07 0.0 0.010004637032396391

0.009999771534759614 0.0 4.2383993728632805e-07
0.0 0.01 0.0
4.2383993728632805e-07 0.0 0.010004948046965282

0.009999453107196426 0.0 6.44796921740352e-07
0.0 0.01 0.0
6.447969217401352e-07 0.0 0.010005313844823796

0.01000113104185942 0.0 -4.5879085342063036e-18
0.0 0.01 0.0
-4.5879085342063036e-18 0.0 0.010003891420294791

0.010001134493042092 0.0 8.217682628430432e-09
0.0 0.01 0.0
8.21768262843382e-09 0.0 0.010003921755829683

0.010001126640595801 0.0 3.887894893184131e-08
0.0 0.01 0.0
3.887894893184131e-08 0.0 0.010004013665360386

0.010001056819206778 0.0 1.065138975170311e-07
0.0 0.01 0.0
1.0651389751713952e-07 0.0 0.010004158844660114

0.010000865820052053 0.0 2.2545597057864204e-07
0.0 0.01 0.0
2.2545597057864204e-07 0.0 0.010004348542444343

0.010000554270028843 0.0 3.9973468787530934e-07
0.0 0.01 0.0
3.997346878750925e-07 0.0 0.01000459398770754

0.010000312572157092 0.0 6.193821016475115e-07
0.0 0.01 0.0
6.193821016475115e-07 0.0 0.010004934357247962

0.010000417632989641 0.0 8.442635155544911e-07
0.0 0.01 0.0
8.442635155544911e-07 0.0 0.010005386305477497

0.010002080749247489 0.0 -5.0667865394178444e-18
0.0 0.01 0.0
-5.0667865394178444e-18 0.0 0.010004069883244862

0.010002037222401707 0.0 1.4030056371471347e-08
0.0 0.01 0.0
1.4030056371457794e-08 0.0 0.010004097266793806

0.010001913149467453 0.0 6.25547043448492e-08
0.0 0.01 0.0
6.25547043448492e-08 0.0 0.010004175464306302

0.010001721148082569 0.0 1.599139427485314e-07
0.0 0.01 0.0
1.599139427486398e-07 0.0 0.010004299174677659

0.010001557028757414 0.0 3.183029242041866e-07
0.0 0.01 0.0
3.1830292420396977e-07 0.0 0.010004490838510377

0.010001584868756646 0.0 5.298394122697087e-07
0.0 0.01 0.0
5.298394122697087e-07 0.0 0.010004774459190685

0.010001873658187837 0.0 7.385891968364131e-07
0.0 0.01 0.0
7.385891968364131e-07 0.0 0.010005149556655142

0.010002290436871375 0.0 8.178509326951452e-07
0.0 0.01 0.0
8.178509326951452e-07 0.0 0.010005561386067265

0.010003584426296131 0.0 5.78890213440233e-17
0.0 0.01 0.0
5.78890213440233e-17 0.0 0.0100043343663821

0.010003558048101486 0.0 1.7528761977829953e-08
0.0 0.01 0.0
1.7528761977884163e-08 0.0 0.010004360750810569

0.010003514052300677 0.0 7.681076229530334e-08
0.0 0.01 0.0
7.68107622950865e-08 0.0 0.010004441908714622

0.0100035067491491 0.0 1.9019529122650536e-07
0.0 0.01 0.0
1.9019529122650536e-07 0.0 0.010004586659104506

0.010003546804622468 0.0 3.5185629936821533e-07
0.0 0.01 0.0
3.5185629936821533e-07 0.0 0.010004810136925904

0.010003559086944102 0.0 5.022742631181736e-07
0.0 0.01 0.0
5.022742631186072e-07 0.0 0.010005089370391537

0.01000350918738518 0.0 5.238158619523189e-07
0.0 0.01 0.0
5.238158619527526e-07 0.0 0.010005350031444432

0.010003343488999351 0.0 2.93596666155237e-07
0.0 0.01 0.0
2.93596666155237e-07 0.0 0.01000555493807969

0.010006094416763632 0.0 2.78082012057708e-17
0.0 0.01 0.0
2.78082012057708e-17 0.0 0.010004624806347822

0.010005955015132998 0.0 1.2295421727675083e-08
0.0 0.01 0.0
1.229542172766153e-08 0.0 0.010004646786911358

0.010005547563309583 0.0 5.188702615309404e-08
0.0 0.01 0.0
5.188702615298562e-08 0.0 0.010004724546496055

0.010004974411262527 0.0 1.1580650392372521e-07
0.0 0.01 0.0
1.1580650392372521e-07 0.0 0.010004884428324534

0.010004340228143824 0.0 1.663068700773207e-07
0.0 0.01 0.0
1.6630687007688702e-07 0.0 0.010005115727064228

0.010003831302836611 0.0 1.1922899738998297e-07
0.0 0.01 0.0
1.192289973900914e-07 0.0 0.0100053372720604

0.01000304824482966 0.0 -1.0420892705410812e-07
0.0 0.01 0.0
-1.0420892705410812e-07 0.0 0.010005385198559102

0.010004502539104197 0.0 -7.015163201518808e-17
0.0 0.01 0.0
-7.015163201518808e-17 0.0 0.01000489419062209

0.010004303576523328 0.0 -2.5171181036861764e-09
0.0 0.01 0.0
-2.5171181036929527e-09 0.0 0.010004912817998013

0.01000377558722705 0.0 -1.716642039853596e-08
0.0 0.01 0.0
-1.7166420398508856e-08 0.0 0.010004992035620549

0.010003108399430643 0.0 -6.880460676986916e-08
0.0 0.01 0.0
-6.880460676981495e-08 0.0 0.010005168555043357

0.010002439848510318 0.0 -1.9798429886535348e-07
0.0 0.01 0.0
-1.9798429886535348e-07 0.0 0.010005420409812681

0.009999671516185952 0.0 1.2637176985721195e-15
0.0 0.01 0.0
1.2637176985721195e-15 0.0 0.010000011700020532

0.009999682515120137 0.0 9.977880814591303e-16
0.0 0.01 0.0
9.977880814591303e-16 0.0 0.010000012700024194

0.009999696513816138 0.0 -1.096705441248776e-15
0.0 0.01 0.0
-1.096705441248776e-15 0.0 0.010000010750017335

0.009999717012012785 0.0 -2.8018003923762106e-15
0.0 0.01 0.0
-2.8018003923762106e-15 0.0 0.010000007800009127

0.00999974600967699 0.0 -6.64610572847247e-16
0.0 0.01 0.0
-6.64610572847247e-16 0.0 0.01000000195000057

0.009999782507095682 0.0 8.40611431615959e-15
0.0 0.01 0.0
8.406114316211288e-15 0.0 0.009999994500004538

0.00999982750446331 0.0 2.858344352241995e-14
0.0 0.01 0.0
2.858344352200636e-14 0.0 0.009999986500027336

0.009999601023878563 0.0 -1.5707615519556966e-15
0.0 0.01 0.0
-1.5707615519556966e-15 0.0 0.010000016600041335

0.009999612522521984 0.0 -3.8697566080610854e-15
0.0 0.01 0.0
-3.8697566080610854e-15 0.0 0.010000016600041337

0.009999628020756317 0.0 -8.191929563242913e-15
0.0 0.01 0.0
-8.191929563217064e-15 0.0 0.010000015600036508

0.009999653018060304 0.0 -1.5135006633839692e-14
0.0 0.01 0.0
-1.5135006633839692e-14 0.0 0.010000010750017335

0.009999687514647675 0.0 -1.8085381976099723e-14
0.0 0.01 0.0
-1.8085381976099723e-14 0.0 0.010000003400001735

0.009999731510813355 0.0 -8.7863734043653e-15
0.0 0.01 0.0
-8.7863734043653e-15 0.0 0.009999993000007352

0.009999784006998151 0.0 1.232273482100318e-14
0.0 0.01 0.0
1.2322734820899782e-14 0.0 0.009999983000043353

0.00999984100379205 0.0 3.7310266437504237e-14
0.0 0.01 0.0
3.7310266437504237e-14 0.0 0.009999974500097536

0.009999534032570869 0.0 -2.817115937005452e-15
0.0 0.01 0.0
-2.817115937005452e-15 0.0 0.01000002000006

0.009999543531256462 0.0 -6.650200080411297e-15
0.0 0.01 0.0
-6.650200080411297e-15 0.0 0.010000021000066153

0.009999561528840234 0.0 -1.2157134523200112e-14
0.0 0.01 0.0
-1.2157134523200112e-14 0.0 0.010000019550057334

0.009999587525521682 0.0 -1.976971672075477e-14
0.0 0.01 0.0
-1.9769716720703072e-14 0.0 0.010000014150030033

0.00999962702086805 0.0 -2.0731469319899465e-14
0.0 0.01 0.0
-2.0731469319899465e-14 0.0 0.010000004900003601

0.00999967801555177 0.0 -8.422466089665264e-15
0.0 0.01 0.0
-8.422466089665264e-15 0.0 0.009999992000009604

0.00999974001013956 0.0 2.065015204858307e-14
0.0 0.01 0.0
2.065015204858307e-14 0.0 0.009999978500069335

0.009999806505616158 0.0 4.489706922241269e-14
0.0 0.01 0.0
4.489706922241269e-14 0.0 0.009999968500148839

0.009999460043736065 0.0 -3.786714289278551e-15
0.0 0.01 0.0
-3.786714289278551e-15 0.0 0.010000024400089305

0.009999470542051829 0.0 -5.4734872170314985e-15
0.0 0.01 0.0
-5.4734872170314985e-15 0.0 0.010000024900093003

0.009999487539395073 0.0 -7.274694389869351e-15
0.0 0.01 0.0
-7.274694389869351e-15 0.0 0.010000024400089307

0.009999515535208196 0.0 -4.586598531022289e-15
0.0 0.01 0.0
-4.586598531022289e-15 0.0 0.010000017600046462

0.009999559529103905 0.0 7.832713505831358e-15
0.0 0.01 0.0
7.832713505831358e-15 0.0 0.010000006850007041

0.00999961852182995 0.0 3.670688865789612e-14
0.0 0.01 0.0
3.670688865789612e-14 0.0 0.009999991500010836

0.009999690514367799 0.0 5.675657150069996e-13
0.0 0.01 0.0
5.675657150103083e-13 0.0 0.009999975500090037

0.009999769008003841 0.0 1.993452814115773e-12
0.0 0.01 0.0
1.993452814129008e-12 0.0 0.0099999620002166

0.009999377558119906 0.0 -2.4771802591814074e-15
0.0 0.01 0.0
-2.4771802591814074e-15 0.0 0.010000027350112205

0.009999385056727934 0.0 -3.8699959968380823e-16
0.0 0.01 0.0
-3.8699959968380823e-16 0.0 0.010000029800133207

0.009999402053635257 0.0 1.0477669864578861e-14
0.0 0.01 0.0
1.0477669864578861e-14 0.0 0.010000026850108142

0.009999431548474245 0.0 3.810892234464069e-14
0.0 0.01 0.0
3.8108922344847484e-14 0.0 0.010000021000066152

0.00999947854079079 0.0 4.3989439526068065e-12
0.0 0.01 0.0
4.398943952633276e-12 0.0 0.010000008800011615

0.009999545031051398 0.0 4.033116451854958e-11
0.0 0.01 0.0
4.033116451854958e-11 0.0 0.009999992000009603

0.009999626520924038 0.0 1.1640584820557097e-10
0.0 0.01 0.0
1.1640584820514746e-10 0.0 0.009999972500113441

0.00999972001175946 0.0 2.0790574255037154e-10
0.0 0.01 0.0
2.0790574255037154e-10 0.0 0.009999957500270941

0.009999273579160752 0.0 -5.791338786310365e-16
0.0 0.01 0.0
-5.791338786310365e-16 0.0 0.010000029800133207

0.00999927857807495 0.0 8.898469025293843e-15
0.0 0.01 0.0
8.898469025293843e-15 0.0 0.010000032250156013

0.00999929457465076 0.0 4.107627613647097e-14
0.0 0.01 0.0
4.107627613647097e-14 0.0 0.010000030750141836

0.00999932706793173 0.0 1.681474898259011e-11
0.0 0.01 0.0
1.681474898259011e-11 0.0 0.010000023950086043

0.009999375558493949 0.0 1.515577887472814e-10
0.0 0.01 0.0
1.5155778874770493e-10 0.0 0.010000011250018986

0.00999944804570144 0.0 5.516107650673212e-10
0.0 0.01 0.0
5.516107650673212e-10 0.0 0.009999992000009648

0.009999543031325178 0.0 1.197571027912979e-09
0.0 0.01 0.0
1.1975710279095908e-09 0.0 0.00999996950013975

0.009999649518427 0.0 1.892244182971994e-09
0.0 0.01 0.0
1.892244182971994e-09 0.0 0.009999952500338975

0.009999146609253795 0.0 2.94194882555893e-15
0.0 0.01 0.0
2.94194882555893e-15 0.0 0.01000003515018533

0.009999151108104856 0.0 2.433744679781423e-14
0.0 0.01 0.0
2.433744679781423e-14 0.0 0.010000036600200938

0.009999165604444013 0.0 1.3463684221780052e-11
0.0 0.01 0.0
1.3463684221753582e-11 0.0 0.010000036150196026

0.00999919459731148 0.0 1.938253137866992e-10
0.0 0.01 0.0
1.938253137871227e-10 0.0 0.010000028800124423

0.00999924608526683 0.0 9.761182976427714e-10
0.0 0.01 0.0
9.761182976410774e-10 0.0 0.010000014650032337

0.009999319569455354 0.0 2.8177580830418807e-09
0.0 0.01 0.0
2.817758083028328e-09 0.0 0.009999993500007529

0.00999941805080839 0.0 5.61182357465659e-09
0.0 0.01 0.0
5.611823574670142e-09 0.0 0.009999968500153559

0.009999538032024224 0.0 8.201127463307268e-09
0.0 0.01 0.0
8.201127463334373e-09 0.0 0.009999947000431433

0.00999899365193085 0.0 4.2326684822705536e-15
0.0 0.01 0.0
4.2326684822705536e-15 0.0 0.010000040550246647

0.009998993651930852 0.0 2.2779089220923742e-12
0.0 0.01 0.0
2.277908922095683e-12 0.0 0.010000042500270942

0.009999006148180856 0.0 1.0468033984575559e-10
0.0 0.01 0.0
1.0468033984575559e-10 0.0 0.010000042500270945

0.009999031140821513 0.0 8.398355234822796e-10
0.0 0.01 0.0
8.398355234822796e-10 0.0 0.010000035650190744

0.009999074628464466 0.0 3.409818969904053e-09
0.0 0.01 0.0
3.409818969904053e-09 0.0 0.010000020000061744

0.009999140110936344 0.0 9.033591907378776e-09
0.0 0.01 0.0
9.033591907378776e-09 0.0 0.009999995000015994

0.00999923358816215 0.0 1.7334061028863096e-08
0.0 0.01 0.0
1.733406102883599e-08 0.0 0.009999965000228823

0.009999360061524775 0.0 2.4674920640315855e-08
0.0 0.01 0.0
2.4674920640370065e-08 0.0 0.009999940000631334

0.00999881371112559 0.0 4.991292397404705e-15
0.0 0.01 0.0
4.991292397404705e-15 0.0 0.010000048350350663

0.009998809712551366 0.0 1.9681432259472008e-11
0.0 0.01 0.0
1.9681432259472008e-11 0.0 0.010000051750401714

0.009998813711125605 0.0 3.5671564859031285e-10
0.0 0.01 0.0
3.5671564858988933e-10 0.0 0.010000053700432577

0.00999882820599812 0.0 2.245667708585745e-09
0.0 0.01 0.0
2.2456677085925213e-09 0.0 0.010000048350351417

0.009998857195940307 0.0 8.280123097858128e-09
0.0 0.01 0.0
8.280123097844576e-09 0.0 0.01000003075015212

0.009998900181534558 0.0 2.1265145505816943e-08
0.0 0.01 0.0
2.1265145505816943e-08 0.0 0.01000000100006799

0.009998970159355115 0.0 4.0615096179048155e-08
0.0 0.01 0.0
4.0615096179048155e-08 0.0 0.009999963500447307

0.009999086125799765 0.0 5.827867060671007e-08
0.0 0.01 0.0
5.827867060671007e-08 0.0 0.009999932001203115

0.009998600793721531 0.0 1.7826775784220507e-13
0.0 0.01 0.0
1.7826775784220507e-13 0.0 0.010000061500567347

0.00999858929856794 0.0 5.848167295487587e-11
0.0 0.01 0.0
5.848167295487587e-11 0.0 0.010000067850690554

0.009998585300263025 0.0 7.667002306411091e-10
0.0 0.01 0.0
7.667002306419561e-10 0.0 0.01000007180077338

0.009998584300690234 0.0 4.313118770297319e-09
0.0 0.01 0.0
4.313118770293931e-09 0.0 0.010000067850693345

0.00999858979839137 0.0 1.526900576253611e-08
0.0 0.01 0.0
1.526900576253611e-08 0.0 0.010000050300414495

0.00999859779521079 0.0 3.905657272411638e-08
0.0 0.01 0.0
3.905657272411638e-08 0.0 0.010000011700249391

0.009998623785006803 0.0 7.568296725684719e-08
0.0 0.01 0.0
7.568296725684719e-08 0.0 0.009999962001075943

0.0099987057531549 0.0 1.1104479563184364e-07
0.0 0.01 0.0
1.1104479563184364e-07 0.0 0.009999917002883291

0.009998348409252919 0.0 7.424048263201965e-13
0.0 0.01 0.0
7.424048263210237e-13 0.0 0.010000082051009843

0.00999832841922078 0.0 1.0120252740964413e-10
0.0 0.01 0.0
1.0120252740964413e-10 0.0 0.010000092751290409

0.009998314426269821 0.0 1.17275722920992e-09
0.0 0.01 0.0
1.17275722920992e-09 0.0 0.010000103501607068

0.009998297934658567 0.0 6.3036601080648726e-09
0.0 0.01 0.0
6.303660108071649e-09 0.0 0.010000104001628393

0.009998277445254602 0.0 2.207514259610537e-08
0.0 0.01 0.0
2.2075142596078264e-08 0.0 0.010000082051082958

0.009998248460778328 0.0 5.698900427643849e-08
0.0 0.01 0.0
5.698900427638428e-08 0.0 0.010000035150672607

0.009998222975685712 0.0 1.1255316628841147e-07
0.0 0.01 0.0
1.1255316628841147e-07 0.0 0.009999961502123017

0.009998255460854996 0.0 1.6801254668161875e-07
0.0 0.01 0.0
1.6801254668161875e-07 0.0 0.009999892005984766

0.00999805506756151 0.0 8.157253255475648e-13
0.0 0.01 0.0
8.157253255475648e-13 0.0 0.010000113301925571

0.009998027084013249 0.0 1.1398335574157053e-10
0.0 0.01 0.0
1.1398335574167641e-10 0.0 0.010000129902531157

0.009997999100700223 0.0 1.3243963453059773e-09
0.0 0.01 0.0
1.3243963453068243e-09 0.0 0.010000148453305956

0.00999796811945624 0.0 7.135748922765294e-09
0.0 0.01 0.0
7.1357489227585175e-09 0.0 0.01000015725371687

0.009997929143540236 0.0 2.5239120698015093e-08
0.0 0.01 0.0
2.523912069800154e-08 0.0 0.01000013820296053

0.009997878176170785 0.0 6.62751525610638e-08
0.0 0.01 0.0
6.62751525610638e-08 0.0 0.010000077651563485

0.00999782271395834 0.0 1.3326971249727048e-07
0.0 0.01 0.0
1.3326971249727048e-07 0.0 0.009999980502721932

0.009997834209983226 0.0 2.029677238987726e-07
0.0 0.01 0.0
2.029677238987726e-07 0.0 0.009999902507607062

0.009997714283913607 0.0 2.251692367747168e-13
0.0 0.01 0.0
2.2516923677451e-13 0.0 0.010000153803548259

0.009997674311575657 0.0 8.266172444457131e-11
0.0 0.01 0.0
8.266172444457131e-11 0.0 0.010000185055136685

0.009997633840072129 0.0 1.0974694500496819e-09
0.0 0.01 0.0
1.0974694500496819e-09 0.0 0.01000021340683136

0.009997592869426506 0.0 6.231783948069399e-09
0.0 0.01 0.0
6.231783948069399e-09 0.0 0.010000232908142505

0.009997545404129693 0.0 2.2750987456473886e-08
0.0 0.01 0.0
2.275098745648744e-08 0.0 0.010000222157480533

0.009997487947444338 0.0 6.140696113851964e-08
0.0 0.01 0.0
6.140696113851964e-08 0.0 0.010000167954797013

0.009997433990406162 0.0 1.2664226554991252e-07
0.0 0.01 0.0
1.2664226554991252e-07 0.0 0.010000093253710924

0.009997450980889692 0.0 1.9882375858844194e-07
0.0 0.01 0.0
1.9882375858833352e-07 0.0 0.010000112807840284

0.009997320077682618 0.0 -3.99719117845358e-15
0.0 0.01 0.0
-3.99719117845358e-15 0.0 0.010000209456580625

0.009997267620292963 0.0 3.3802845265899466e-11
0.0 0.01 0.0
3.38028452659127e-11 0.0 0.010000251009450546

0.009997215663311543 0.0 6.357901434772821e-10
0.0 0.01 0.0
6.357901434777057e-10 0.0 0.01000029591313423

0.009997164706292092 0.0 4.094291311211161e-09
0.0 0.01 0.0
4.094291311211161e-09 0.0 0.010000331566492236

0.009997115748354195 0.0 1.5912766703792122e-08
0.0 0.01 0.0
1.5912766703792122e-08 0.0 0.010000339367312741

0.009997065292681906 0.0 4.471680270217034e-08
0.0 0.01 0.0
4.471680270217034e-08 0.0 0.010000314465132654

0.009997026328282014 0.0 9.474096838974324e-08
0.0 0.01 0.0
9.474096838979745e-08 0.0 0.010000309115679085

0.009997048810355754 0.0 1.5079689313988575e-07
0.0 0.01 0.0
1.5079689313993996e-07 0.0 0.010000425330546282

0.009996864974873867 0.0 1.3521198171159013e-15
0.0 0.01 0.0
1.3521198171159013e-15 0.0 0.010000276361455927

0.009996798538060308 0.0 4.427526726721942e-12
0.0 0.01 0.0
4.427526726720288e-12 0.0 0.010000332516584356

0.009996737097674801 0.0 2.2594882653095298e-10
0.0 0.01 0.0
2.2594882653105886e-10 0.0 0.010000392623121733

0.009996678155931155 0.0 1.9015028019425044e-09
0.0 0.01 0.0
1.9015028019425044e-09 0.0 0.010000446829947307

0.009996626707643641 0.0 8.331086987111753e-09
0.0 0.01 0.0
8.331086987115141e-09 0.0 0.010000479034429311

0.009996583751504475 0.0 2.4977996369176755e-08
0.0 0.01 0.0
2.4977996369176755e-08 0.0 0.010000490736214554

0.009996557279115465 0.0 5.474692222576672e-08
0.0 0.01 0.0
5.4746922225739616e-08 0.0 0.010000547395392703

0.009996578258214577 0.0 8.81096872098119e-08
0.0 0.01 0.0
8.810968720983901e-08 0.0 0.01000069442349171

0.009996342008115089 0.0 8.489486707397197e-15
0.0 0.01 0.0
8.489486707397197e-15 0.0 0.010000354518851652

0.009996262096833014 0.0 -3.690824278016515e-14
0.0 0.01 0.0
-3.690824278016515e-14 0.0 0.010000426277255297

0.009996187181746568 0.0 3.353378935945213e-11
0.0 0.01 0.0
3.353378935945213e-11 0.0 0.010000500537578174

0.009996120758445401 0.0 5.351938340433891e-10
0.0 0.01 0.0
5.351938340436009e-10 0.0 0.010000569848705477

0.009996066322292376 0.0 2.999472203828742e-09
0.0 0.01 0.0
2.999472203829589e-09 0.0 0.010000625558695008

0.009996025870327378 0.0 1.0138264040368756e-08
0.0 0.01 0.0
1.0138264040372144e-08 0.0 0.010000666066556212

0.009996006893094045 0.0 2.3737390166969445e-08
0.0 0.01 0.0
2.373739016696267e-08 0.0 0.010000749584357635

0.009996021375910089 0.0 3.934540189318061e-08
0.0 0.01 0.0
3.934540189319416e-08 0.0 0.010000893670014917

0.009995744218294097 0.0 1.1253992090258527e-14
0.0 0.01 0.0
1.1253992090258527e-14 0.0 0.010000443379486062

0.009995649840230837 0.0 -2.780693563689998e-15
0.0 0.01 0.0
-2.780693563689998e-15 0.0 0.01000052834186882

0.009995560957515134 0.0 -6.116443847728886e-13
0.0 0.01 0.0
-6.116443847726818e-13 0.0 0.010000618707415093

0.00999548406089887 0.0 5.3219726977720875e-11
0.0 0.01 0.0
5.321972697773411e-11 0.0 0.01000070417437225

0.009995424642001871 0.0 5.789114606841631e-10
0.0 0.01 0.0
5.789114606841631e-10 0.0 0.010000773039629351

0.009995383199197702 0.0 2.5704474467851398e-09
0.0 0.01 0.0
2.570447446785987e-09 0.0 0.010000826752517648

0.009995362228342256 0.0 6.894507647587573e-09
0.0 0.01 0.0
6.894507647587573e-09 0.0 0.010000914175349339

0.00999536572349265 0.0 1.2408759309484016e-08
0.0 0.01 0.0
1.2408759309484016e-08 0.0 0.01000104606413774

0.009995062659009079 0.0 -1.205436728723492e-15
0.0 0.01 0.0
-1.205436728723492e-15 0.0 0.010000540093752038

0.009994950826698767 0.0 1.3614826683464753e-14
0.0 0.01 0.0
1.3614826683464753e-14 0.0 0.010000643612130156

0.009994847484999214 0.0 -5.375693581403229e-13
0.0 0.01 0.0
-5.375693581403229e-13 0.0 0.010000750084385552

0.009994759122899807 0.0 -3.3060074371949793e-12
0.0 0.01 0.0
-3.306007437194152e-12 0.0 0.010000844857055458

0.009994692228857818 0.0 1.1088593553858599e-11
0.0 0.01 0.0
1.1088593553861907e-11 0.0 0.010000921527366253

0.009994646302382754 0.0 2.2750940410217352e-10
0.0 0.01 0.0
2.2750940410212058e-10 0.0 0.010000978643642773

0.009994622840188849 0.0 9.094980013406464e-10
0.0 0.01 0.0
9.094980013408581e-10 0.0 0.010001059718426799

0.009994614853097118 0.0 1.9594970875786283e-09
0.0 0.01 0.0
1.959497087579052e-09 0.0 0.010001182809823345

0.009994286899659447 0.0 -2.260118478121384e-14
0.0 0.01 0.0
-2.260118478121384e-14 0.0 0.010000647012788416

0.009994151135387219 0.0 2.4837508869367675e-14
0.0 0.01 0.0
2.4837508869367675e-14 0.0 0.010000767688392772

0.009994029850661492 0.0 -4.903420242077703e-13
0.0 0.01 0.0
-4.903420242077703e-13 0.0 0.010000888318352408

0.009993928533884736 0.0 -3.5620245179002797e-12
0.0 0.01 0.0
-3.562024517901107e-12 0.0 0.010000998199440433

0.009993851674937106 0.0 -1.18740445315759e-11
0.0 0.01 0.0
-1.18740445315759e-11 0.0 0.010001084176290252

0.009993803264691995 0.0 -2.573204850056092e-11
0.0 0.01 0.0
-2.5732048500554303e-11 0.0 0.010001140345028364

0.009993774318695952 0.0 -3.149993573181451e-11
0.0 0.01 0.0
-3.149993573182113e-11 0.0 0.010001212620531627

0.009993764337376324 0.0 1.649472863249921e-12
0.0 0.01 0.0
1.649472863249921e-12 0.0 0.010001328364636021

0.00999340902187998 0.0 -4.2664568620283857e-14
0.0 0.01 0.0
-4.2664568620283857e-14 0.0 0.010000760836822093

0.009993245848950958 0.0 2.3877265916180533e-14
0.0 0.01 0.0
2.3877265916180533e-14 0.0 0.010000900521626275

0.009993097652941806 0.0 -4.601698413127912e-13
0.0 0.01 0.0
-4.601698413127912e-13 0.0 0.01000104116258036

0.009992974909724136 0.0 -3.994812776823217e-12
0.0 0.01 0.0
-3.9948127768223896e-12 0.0 0.01000116620397304

0.00999288310474557 0.0 -1.4222231333741249e-11
0.0 0.01 0.0
-1.4222231333741249e-11 0.0 0.010001264389761799

0.009992822734372391 0.0 -3.200605222861912e-11
0.0 0.01 0.0
-3.200605222861912e-11 0.0 0.010001323012508008

0.009992790304458394 0.0 -4.742714023506673e-11
0.0 0.01 0.0
-4.742714023506011e-11 0.0 0.010001390439944734

0.009992779328251319 0.0 -3.715276842562068e-11
0.0 0.01 0.0
-3.71527684256273e-11 0.0 0.010001504239342337

0.009992415637117768 0.0 -4.248757406903363e-14
0.0 0.01 0.0
-4.248757406903363e-14 0.0 0.010000883417050065

0.009992218591979126 0.0 1.3701051561003748e-14
0.0 0.01 0.0
1.3701051561003748e-14 0.0 0.010001043113190071

0.009992037021462638 0.0 -4.451159209216697e-13
0.0 0.01 0.0
-4.451159209215663e-13 0.0 0.010001203817341547

0.009991882893819078 0.0 -4.607513250930153e-12
0.0 0.01 0.0
-4.607513250930153e-12 0.0 0.010001351323862085

0.009991766679309276 0.0 -1.7458499005452623e-11
0.0 0.01 0.0
-1.745849900545593e-11 0.0 0.010001466122364203

0.009991686877702369 0.0 -4.0563491535287075e-11
0.0 0.01 0.0
-4.0563491535287075e-11 0.0 0.010001532102028582

0.009991642987633578 0.0 -6.115452012022968e-11
0.0 0.01 0.0
-6.115452012022968e-11 0.0 0.01000160388578494

0.009991622040304642 0.0 -4.7703387143650794e-11
0.0 0.01 0.0
-4.7703387143644176e-11 0.0 0.010001724095773462

0.00999130186181711 0.0 -1.7154201897925711e-15
0.0 0.01 0.0
-1.7154201897925711e-15 0.0 0.01000101380414899

0.009991061997480092 0.0 7.840747876901334e-15
0.0 0.01 0.0
7.840747876901334e-15 0.0 0.010001195514354017

0.009990835613308772 0.0 -4.819416661746469e-13
0.0 0.01 0.0
-4.819416661746469e-13 0.0 0.010001380635870688

0.009990642650404495 0.0 -5.5419989275874054e-12
0.0 0.01 0.0
-5.541998927586578e-12 0.0 0.01000155066060769

0.009990485595829138 0.0 -2.185912141298452e-11
0.0 0.01 0.0
-2.185912141298121e-11 0.0 0.010001686476534554

0.009990375412754451 0.0 -5.187987502451804e-11
0.0 0.01 0.0
-5.1879875024524656e-11 0.0 0.010001767568534355

0.009990302624125612 0.0 -7.860437528980879e-11
0.0 0.01 0.0
-7.860437528980879e-11 0.0 0.010001853064950224

0.00999026323916102 0.0 -5.902662486531981e-11
0.0 0.01 0.0
-5.902662486532643e-11 0.0 0.010001986441735887

0.009990059342172206 0.0 1.1867543603820409e-13
0.0 0.01 0.0
1.1867543603820409e-13 0.0 0.010001155450228939

0.009989772212570837 0.0 1.0250303602059005e-14
0.0 0.01 0.0
1.0250303602059005e-14 0.0 0.010001353324673586

0.009989493082526016 0.0 -7.18814748671271e-13
0.0 0.01 0.0
-7.18814748671271e-13 0.0 0.010001563366540836

0.009989241885489948 0.0 -7.2239331295396545e-12
0.0 0.01 0.0
-7.223933129540482e-12 0.0 0.010001762165674768

0.009989032070744893 0.0 -2.8271436325367744e-11
0.0 0.01 0.0
-2.8271436325367744e-11 0.0 0.010001921953944089

0.009988870108784374 0.0 -6.706649859058968e-11
0.0 0.01 0.0
-6.706649859058968e-11 0.0 0.010002025515240638

0.009988754995995929 0.0 -1.0033082257610196e-10
0.0 0.01 0.0
-1.0033082257610196e-10 0.0 0.010002141287570562

0.009988678754651578 0.0 -6.87384725726131e-11
0.0 0.01 0.0
-6.873847257261972e-11 0.0 0.010002301594356715

0.009988703669931553 0.0 2.2543266262239537e-13
0.0 0.01 0.0
2.2543266262239537e-13 0.0 0.010001312258258078

0.00998836035378964 0.0 -1.0478524639454557e-13
0.0 0.01 0.0
-1.0478524639454557e-13 0.0 0.010001523297994835

0.009988016076635799 0.0 -1.528970247054919e-12
0.0 0.01 0.0
-1.5289702470553326e-12 0.0 0.010001754361559702

0.009987692757572986 0.0 -1.0614615731552134e-11
0.0 0.01 0.0
-1.0614615731551307e-11 0.0 0.010001979087363024

0.00998740931876982 0.0 -3.849934566144722e-11
0.0 0.01 0.0
-3.849934566144722e-11 0.0 0.010002161850837842

0.009987174715448409 0.0 -8.867824158291367e-11
0.0 0.01 0.0
-8.867824158291367e-11 0.0 0.010002288385266464

0.009986995411954693 0.0 -1.280105497850741e-10
0.0 0.01 0.0
-1.280105497850741e-10 0.0 0.010002454003024153

0.009986862932799346 0.0 -7.394138078155933e-11
0.0 0.01 0.0
-7.394138078155933e-11 0.0 0.010002666616247222

0.009987263872724849 0.0 -1.1393605049363534e-13
0.0 0.01 0.0
-1.1393605049363534e-13 0.0 0.010001492534082215

0.009986860442640138 0.0 -9.036741091444714e-13
0.0 0.01 0.0
-9.036741091444714e-13 0.0 0.010001707937457935

0.009986443118273038 0.0 -3.8361218218639994e-12
0.0 0.01 0.0
-3.836121821863172e-12 0.0 0.0100019556735493

0.0099860338127366 0.0 -1.7582017013210617e-11
0.0 0.01 0.0
-1.7582017013210617e-11 0.0 0.01000220287768678

0.009985655424167173 0.0 -5.6152629296999865e-11
0.0 0.01 0.0
-5.6152629296999865e-11 0.0 0.010002400764273703

0.00998532685846135 0.0 -1.2198185204131073e-10
0.0 0.01 0.0
-1.2198185204132396e-10 0.0 0.010002535163732505

0.00998505656281142 0.0 -1.659223517390452e-10
0.0 0.01 0.0
-1.6592235173903196e-10 0.0 0.010002768749471693

0.009984840541186658 0.0 -7.227128189116785e-11
0.0 0.01 0.0
-7.227128189117447e-11 0.0 0.010003072215196215

0.00998581324680203 0.0 -2.0085686593078505e-12
0.0 0.01 0.0
-2.0085686593078505e-12 0.0 0.010001721144248679

0.009985352744279356 0.0 -3.6206102178922587e-12
0.0 0.01 0.0
-3.6206102178922587e-12 0.0 0.01000192390506922

0.009984857464033584 0.0 -9.364149094543013e-12
0.0 0.01 0.0
-9.364149094542186e-12 0.0 0.010002180913249984

0.00998435280199055 0.0 -3.1516233785888895e-11
0.0 0.01 0.0
-3.1516233785885586e-11 0.0 0.01000244279479552

0.009983865134262667 0.0 -8.80469879366219e-11
0.0 0.01 0.0
-8.804698793662852e-11 0.0 0.010002638243682319

0.009983424304326834 0.0 -1.7781714594556475e-10
0.0 0.01 0.0
-1.7781714594557798e-10 0.0 0.010002748182461064

0.009983040740236253 0.0 -2.2438640717301246e-10
0.0 0.01 0.0
-2.243864071730257e-10 0.0 0.010003051696359426

0.009982719396319357 0.0 -6.461044352275227e-11
0.0 0.01 0.0
-6.461044352275889e-11 0.0 0.010003491077292516

0.009984482692895445 0.0 -6.980132989002534e-12
0.0 0.01 0.0
-6.980132989002534e-12 0.0 0.010002026966122233

0.009983967638077898 0.0 -9.629501038455717e-12
0.0 0.01 0.0
-9.629501038455717e-12 0.0 0.010002209732221736

0.009983400423559809 0.0 -2.0195415778889332e-11
0.0 0.01 0.0
-2.0195415778889332e-11 0.0 0.010002468213511053

0.009982802962649528 0.0 -5.823806561556875e-11
0.0 0.01 0.0
-5.823806561556875e-11 0.0 0.010002734521232142

0.009982206603663663 0.0 -1.479178742423313e-10
0.0 0.01 0.0
-1.4791787424231805e-10 0.0 0.010002906516684992

0.009981646153491466 0.0 -2.784387265263357e-10
0.0 0.01 0.0
-2.784387265263357e-10 0.0 0.01000293344025611

0.009981136509254146 0.0 -3.24793327791045e-10
0.0 0.01 0.0
-3.2479332779101854e-10 0.0 0.010003270653877086

0.009980695046424794 0.0 -5.894030474529353e-11
0.0 0.01 0.0
-5.894030474529353e-11 0.0 0.010003887015159026

0.009983458633229657 0.0 -1.479276492065055e-11
0.0 0.01 0.0
-1.479276492065055e-11 0.0 0.010002456454829186

0.009982905931192354 0.0 -1.7914736557740008e-11
0.0 0.01 0.0
-1.7914736557740008e-11 0.0 0.010002618227908761

0.009982284686290492 0.0 -3.7856081323643687e-11
0.0 0.01 0.0
-3.7856081323643687e-11 0.0 0.010002878692553688

0.009981612837776073 0.0 -1.0851505371819301e-10
0.0 0.01 0.0
-1.0851505371819963e-10 0.0 0.010003152390008123

0.009980927701966348 0.0 -2.6297139983807237e-10
0.0 0.01 0.0
-2.629713998380459e-10 0.0 0.010003272605791612

0.009980260600789397 0.0 -4.663780035019986e-10
0.0 0.01 0.0
-4.663780035019721e-10 0.0 0.010003134773404825

0.009979639352637442 0.0 -5.05036227574051e-10
0.0 0.01 0.0
-5.05036227574051e-10 0.0 0.01000341189536051

0.009979087781518594 0.0 -7.293398582385694e-11
0.0 0.01 0.0
-7.293398582385694e-11 0.0 0.010004216064782297

0.009982978558264369 0.0 -2.005106687105177e-11
0.0 0.01 0.0
-2.0051066871053425e-11 0.0 0.01000306976293834

0.009982421459638569 0.0 -2.2503298433487106e-11
0.0 0.01 0.0
-2.250329843348876e-11 0.0 0.010003225660061444

0.00998177892241717 0.0 -6.31029660915192e-11
0.0 0.01 0.0
-6.310296609152251e-11 0.0 0.010003501838572536

0.009981079334527201 0.0 -2.009624442504347e-10
0.0 0.01 0.0
-2.0096244425044794e-10 0.0 0.010003786349381108

0.009980351561255266 0.0 -4.791311266767014e-10
0.0 0.01 0.0
-4.79131126676675e-10 0.0 0.010003833252948296

0.009979632395315139 0.0 -8.096723220816775e-10
0.0 0.01 0.0
-8.096723220815716e-10 0.0 0.010003448082571562

0.009978945182964952 0.0 -8.209604020783527e-10
0.0 0.01 0.0
-8.209604020784056e-10 0.0 0.010003534122621073

0.009978323683654762 0.0 -1.3148383492855669e-10
0.0 0.01 0.0
-1.314838349285633e-10 0.0 0.010004465389175298

0.009983358632629889 0.0 -1.1168357864647112e-11
0.0 0.01 0.0
-1.1168357864647112e-11 0.0 0.010003935922504028

0.009982832808276049 0.0 -1.3364582476167413e-11
0.0 0.01 0.0
-1.3364582476167413e-11 0.0 0.010004116790800266

0.009982230475864664 0.0 -9.691169156863813e-11
0.0 0.01 0.0
-9.691169156863813e-11 0.0 0.010004432645511019

0.009981577533426825 0.0 -3.6129920931347316e-10
0.0 0.01 0.0
-3.6129920931347316e-10 0.0 0.010004736262704043

0.009980899861984872 0.0 -8.603231522733657e-10
0.0 0.01 0.0
-8.603231522734186e-10 0.0 0.010004693752630196

0.009980222825589375 0.0 -1.404090235566228e-09
0.0 0.01 0.0
-1.404090235566334e-09 0.0 0.010004017569834113

0.00997956481065531 0.0 -1.351437293086549e-09
0.0 0.01 0.0
-1.3514372930866548e-09 0.0 0.010003798563267033

0.009978960088450927 0.0 -2.7004853421723826e-10
0.0 0.01 0.0
-2.7004853421722503e-10 0.0 0.010004724546092459

0.009985016244347202 0.0 2.4863694388141815e-11
0.0 0.01 0.0
2.4863694388141815e-11 0.0 0.010005120129676344

0.009984584220350829 0.0 1.9032745297605328e-11
0.0 0.01 0.0
1.9032745297603673e-11 0.0 0.01000536025677471

0.00998410547585509 0.0 -1.4291783116596216e-10
0.0 0.01 0.0
-1.4291783116594893e-10 0.0 0.010005731473705776

0.009983604410631404 0.0 -6.224484712638278e-10
0.0 0.01 0.0
-6.224484712638808e-10 0.0 0.010006050887558595

0.009983101430961601 0.0 -1.4809209442998973e-09
0.0 0.01 0.0
-1.4809209442997915e-09 0.0 0.010005916847222683

0.009982599522094363 0.0 -2.3546646728705282e-09
0.0 0.01 0.0
-2.3546646728705282e-09 0.0 0.010005007158236691

0.009982105646041416 0.0 -2.1877530301896275e-09
0.0 0.01 0.0
-2.1877530301896275e-09 0.0 0.010004531378149072

0.009981641180975484 0.0 -5.253069317022925e-10
0.0 0.01 0.0
-5.253069317023454e-10 0.0 0.010005277625060937

0.009988488408065864 0.0 9.256683151063194e-11
0.0 0.01 0.0
9.256683151063856e-11 0.0 0.010006649676854489

0.009988224830892888 0.0 7.143420944486458e-11
0.0 0.01 0.0
7.143420944486458e-11 0.0 0.010006972134827112

0.009987967751143745 0.0 -2.1824485219859826e-10
0.0 0.01 0.0
-2.1824485219858502e-10 0.0 0.010007397851140295

0.009987740082747054 0.0 -1.0158039704509556e-09
0.0 0.01 0.0
-1.0158039704509556e-09 0.0 0.010007708604234557

0.009987544808474412 0.0 -2.367479462658767e-09
0.0 0.01 0.0
-2.367479462658979e-09 0.0 0.010007501131613751

0.00998735602102455 0.0 -3.64202189078614e-09
0.0 0.01 0.0
-3.64202189078614e-09 0.0 0.010006604186537848

0.009987161267353016 0.0 -3.298291283340863e-09
0.0 0.01 0.0
-3.298291283340863e-09 0.0 0.010006259772813069

0.009986971007503733 0.0 -8.859718320950443e-10
0.0 0.01 0.0
-8.859718320950443e-10 0.0 0.010006731891658474

0.009994264438276577 0.0 1.7072631388660798e-10
0.0 0.01 0.0
1.707263138865815e-10 0.0 0.010008492255524623

0.009994241477908375 0.0 1.1005016776586187e-10
0.0 0.01 0.0
1.1005016776586187e-10 0.0 0.01000889024142143

0.009994293388531606 0.0 -3.539257946883992e-10
0.0 0.01 0.0
-3.5392579468837275e-10 0.0 0.010009346086090368

0.00999443714524858 0.0 -1.5215297730403485e-09
0.0 0.01 0.0
-1.5215297730401367e-09 0.0 0.010009618860594375

0.009994641809611094 0.0 -3.3680388017511346e-09
0.0 0.01 0.0
-3.3680388017511346e-09 0.0 0.01000951847297363

0.009994865457242113 0.0 -4.953880676886416e-09
0.0 0.01 0.0
-4.953880676886416e-09 0.0 0.010009307879387159

0.009995075639791014 0.0 -4.30012360956623e-09
0.0 0.01 0.0
-4.300123609566653e-09 0.0 0.01000939702904955

0.009995268859672795 0.0 -1.1997937752704906e-09
0.0 0.01 0.0
-1.1997937752704906e-09 0.0 0.010009700145692009

0.010002477970746644 0.0 2.0961109541433568e-10
0.0 0.01 0.0
2.0961109541433568e-10 0.0 0.010010534222126508

0.010002742327641815 0.0 8.197109073788933e-11
0.0 0.01 0.0
8.197109073788933e-11 0.0 0.010010970175344164

0.010003147485376299 0.0 -5.541003005316158e-10
0.0 0.01 0.0
-5.541003005315099e-10 0.0 0.010011418477511597

0.0100036861371404 0.0 -2.001053127353997e-09
0.0 0.01 0.0
-2.0010531273548442e-09 0.0 0.010011715355321627

0.010004316743535817 0.0 -4.108445881292597e-09
0.0 0.01 0.0
-4.108445881292597e-09 0.0 0.010012094154963673

0.010004978815829037 0.0 -5.665601087786337e-09
0.0 0.01 0.0
-5.665601087786337e-09 0.0 0.010012989615758706

0.010005627797255971 0.0 -4.519900525839216e-09
0.0 0.01 0.0
-4.519900525838369e-09 0.0 0.010013248431713834

0.010006245095314972 0.0 -1.076600166404819e-09
0.0 0.01 0.0
-1.0766001664046073e-09 0.0 0.010013616611408219

0.010012581805502558 0.0 1.7165822586886603e-10
0.0 0.01 0.0
1.7165822588241855e-10 0.0 0.010012596510901596

0.010013134230962523 0.0 -2.3069560339967208e-11
0.0 0.01 0.0
-2.3069560339967208e-11 0.0 0.010013005778614404

0.0100138588570431 0.0 -7.357164892972802e-10
0.0 0.01 0.0
-7.357164892972802e-10 0.0 0.01001339501598

0.010014735606841492 0.0 -2.1954812193270836e-09
0.0 0.01 0.0
-2.1954812193270836e-09 0.0 0.010013766174046656

0.010015714715380935 0.0 -4.118718538982332e-09
0.0 0.01 0.0
-4.1187185389891085e-09 0.0 0.010014693923374784

0.010016739688962918 0.0 -5.177422393221509e-09
0.0 0.01 0.0
-5.177422393207957e-09 0.0 0.010016163102606288

0.010017762061800656 0.0 -3.469357510082143e-09
0.0 0.01 0.0
-3.4693575100855313e-09 0.0 0.01001611406595369

0.010018722348000187 0.0 -3.533326079430118e-10
0.0 0.01 0.0
-3.533326079430118e-10 0.0 0.010016687176537762

0.010023179444637624 0.0 7.850854249389669e-11
0.0 0.01 0.0
7.850854249389669e-11 0.0 0.01001446833946241

0.010023975095987566 0.0 -1.337054707168635e-10
0.0 0.01 0.0
-1.337054707168635e-10 0.0 0.010014771917081508

0.010024921956970006 0.0 -7.588571136883365e-10
0.0 0.01 0.0
-7.588571136883365e-10 0.0 0.010015073061213919

0.010025994557391288 0.0 -1.9237003819351315e-09
0.0 0.01 0.0
-1.9237003819353432e-09 0.0 0.010015508653291637

0.010027147247173622 0.0 -3.3030102427144817e-09
0.0 0.01 0.0
-3.3030102427144817e-09 0.0 0.010016695518170238

0.01002833775070578 0.0 -3.724544215155e-09
0.0 0.01 0.0
-3.724544215155e-09 0.0 0.010018238726607674

0.010029514453130068 0.0 -2.1978689416637346e-09
0.0 0.01 0.0
-2.1978689416637346e-09 0.0 0.010017416494713082

0.010030576165749722 0.0 -9.283226422994692e-10
0.0 0.01 0.0
-9.283226422994692e-10 0.0 0.010017761559129978

0.010032254484339205 0.0 -5.61672599241368e-12
0.0 0.01 0.0
-5.61672599241368e-12 0.0 0.010015963945930054

0.010033212581647062 0.0 -1.6678565582965076e-10
0.0 0.01 0.0
-1.6678565582963753e-10 0.0 0.010016116979995006

0.010034255768122042 0.0 -5.792332463520083e-10
0.0 0.01 0.0
-5.792332463519553e-10 0.0 0.010016300519593837

0.010035337785173851 0.0 -1.3139632550969216e-09
0.0 0.01 0.0
-1.3139632550968157e-09 0.0 0.010016705317099212

0.010036420657813615 0.0 -2.1972688940398835e-09
0.0 0.01 0.0
-2.1972688940398835e-09 0.0 0.010017802778240404

0.010037484615990192 0.0 -2.8178452174285262e-09
0.0 0.01 0.0
-2.8178452174285262e-09 0.0 0.010018832365432113

0.010038480730834841 0.0 -2.8278399663452428e-09
0.0 0.01 0.0
-2.8278399663452428e-09 0.0 0.010017473894071363

0.010039329915549238 0.0 -1.8003545811738061e-09
0.0 0.01 0.0
-1.8003545811737002e-09 0.0 0.010017930912600273

0.01003798488679353 0.0 -4.223163874125117e-11
0.0 0.01 0.0
-4.223163874125117e-11 0.0 0.010016996835867504

0.010039010288838817 0.0 -1.2299110127813564e-10
0.0 0.01 0.0
-1.2299110127813564e-10 0.0 0.010016981156223853

0.010040022696640736 0.0 -3.195743312440747e-10
0.0 0.01 0.0
-3.1957433124410117e-10 0.0 0.010016967888890586

0.010040958269765298 0.0 -6.964576154714095e-10
0.0 0.01 0.0
-6.964576154714095e-10 0.0 0.010017100916394373

0.01004177694628654 0.0 -1.2443263971043443e-09
0.0 0.01 0.0
-1.2443263971043443e-09 0.0 0.010017708075580115

0.010042478133934168 0.0 -1.804067793564693e-09
0.0 0.01 0.0
-1.804067793564693e-09 0.0 0.010018112591321132

0.010043057757566105 0.0 -1.8477265348606914e-09
0.0 0.01 0.0
-1.8477265348606914e-09 0.0 0.010016862355162958

0.010043521224805275 0.0 -3.946905051957135e-10
0.0 0.01 0.0
-3.9469050519573997e-10 0.0 0.01001800013434476

0.010039869019628412 0.0 -3.63068532509692e-11
0.0 0.01 0.0
-3.63068532509692e-11 0.0 0.010017584825397456

0.01004087277892335 0.0 -5.770015085017537e-11
0.0 0.01 0.0
-5.770015085017206e-11 0.0 0.010017444942957263

0.010041770010082711 0.0 -1.1224756996870572e-10
0.0 0.01 0.0
-1.122475699686991e-10 0.0 0.010017301648696757

0.010042482083846848 0.0 -2.2967331251303194e-10
0.0 0.01 0.0
-2.296733125130584e-10 0.0 0.010017238824320266

0.01004298062055837 0.0 -4.181219019996545e-10
0.0 0.01 0.0
-4.181219019996016e-10 0.0 0.010017477362189095

0.010043276870801721 0.0 -5.880656827780677e-10
0.0 0.01 0.0
-5.880656827780942e-10 0.0 0.010017478317179017

0.010043427766410366 0.0 -3.5976836663481324e-10
0.0 0.01 0.0
-3.5976836663481324e-10 0.0 0.01001657336058424

0.010043499493596205 0.0 9.001948761939395e-10
0.0 0.01 0.0
9.001948761939395e-10 0.0 0.010018296693123265

0.010038844821413614 0.0 -1.6052765605600406e-11
0.0 0.01 0.0
-1.6052765605598752e-11 0.0 0.010017827359146149

0.01003977510656146 0.0 -1.4311425825913128e-11
0.0 0.01 0.0
-1.4311425825913128e-11 0.0 0.010017625589942073

0.010040530736170316 0.0 -1.4521000987991943e-11
0.0 0.01 0.0
-1.452100098799277e-11 0.0 0.010017440067534128

0.010041035410800416 0.0 -2.1232924671552263e-11
0.0 0.01 0.0
-2.1232924671552263e-11 0.0 0.010017309991862863

0.010041262794851664 0.0 -3.0551421174274883e-11
0.0 0.01 0.0
-3.0551421174274883e-11 0.0 0.010017398350286989

0.010041251405033688 0.0 1.4830409097722974e-12
0.0 0.01 0.0
1.4830409097724008e-12 0.0 0.01001726038551305

0.010041078891996801 0.0 2.1608672987463327e-10
0.0 0.01 0.0
2.1608672987463327e-10 0.0 0.010016733307022496

0.010040848534138395 0.0 8.030364897392653e-10
0.0 0.01 0.0
8.030364897392653e-10 0.0 0.010018818587912565

0.010036341702296918 0.0 -2.113796958517352e-12
0.0 0.01 0.0
-2.1137969585177655e-12 0.0 0.010017826856467313

0.010037194287918641 0.0 2.5886887886239854e-14
0.0 0.01 0.0
2.5886887886239854e-14 0.0 0.010017625589942071

0.010037842630949487 0.0 3.2101762551436847e-12
0.0 0.01 0.0
3.210176255143478e-12 0.0 0.01001746313789822

0.010038208118784473 0.0 9.024258907485892e-12
0.0 0.01 0.0
9.024258907487546e-12 0.0 0.010017374275149017

0.010038275283476028 0.0 2.2933521199993818e-11
0.0 0.01 0.0
2.2933521199995472e-11 0.0 0.010017496964667973

0.010038093011348911 0.0 5.482106479393288e-11
0.0 0.01 0.0
5.482106479393288e-11 0.0 0.010017429261209247

0.010037746347454168 0.0 1.1203283598105812e-10
0.0 0.01 0.0
1.1203283598106473e-10 0.0 0.010017186806631058

0.010037344858962937 0.0 1.83846941315292e-10
0.0 0.01 0.0
1.83846941315292e-10 0.0 0.010019395633010878

0.010033426152311304 0.0 1.5108745677877878e-12
0.0 0.01 0.0
1.5108745677877878e-12 0.0 0.010017656000314868

0.010034233086695075 0.0 -2.599286885400619e-12
0.0 0.01 0.0
-2.599286885400619e-12 0.0 0.010017493546791574

0.010034832503916449 0.0 -1.4060839723253357e-11
0.0 0.01 0.0
-1.4060839723253357e-11 0.0 0.010017394882250149

0.01003515425819446 0.0 -3.499397432533425e-11
0.0 0.01 0.0
-3.499397432533094e-11 0.0 0.010017404683233123

0.01003518139246868 0.0 -6.01696768016119e-11
0.0 0.01 0.0
-6.016967680160528e-11 0.0 0.01001768399820873

0.01003496821496509 0.0 -7.857668144173905e-11
0.0 0.01 0.0
-7.857668144173905e-11 0.0 0.010017828314236147

0.010034593229344368 0.0 -7.587717785737495e-11
0.0 0.01 0.0
-7.587717785736833e-11 0.0 0.010017697268387643

0.010034154637422259 0.0 -4.937611354711914e-11
0.0 0.01 0.0
-4.937611354711252e-11 0.0 0.010019860761181783

0.010030444114416212 0.0 -8.737877684433585e-13
0.0 0.01 0.0
-8.737877684431517e-13 0.0 0.010017345324899812

0.01003124644326351 0.0 -1.1716474072401884e-11
0.0 0.01 0.0
-1.1716474072403539e-11 0.0 0.010017235356449104

0.010031869959312526 0.0 -4.5435247616927744e-11
0.0 0.01 0.0
-4.5435247616927744e-11 0.0 0.010017205904818942

0.010032234795099173 0.0 -1.1519664456289752e-10
0.0 0.01 0.0
-1.1519664456288429e-10 0.0 0.010017308031719557

0.010032328446238041 0.0 -2.1302398095770444e-10
0.0 0.01 0.0
-2.1302398095770444e-10 0.0 0.01001772767941323

0.010032194861637582 0.0 -2.939561242347079e-10
0.0 0.01 0.0
-2.939561242347079e-10 0.0 0.010018007021408749

0.010031905951442885 0.0 -2.564701091572253e-10
0.0 0.01 0.0
-2.564701091571988e-10 0.0 0.010017859229138846

0.01003154165627643 0.0 2.8836743085351456e-12
0.0 0.01 0.0
2.883674308534732e-12 0.0 0.010019869110743797

0.010027147751255175 0.0 -3.6413327664556485e-12
0.0 0.01 0.0
-3.6413327664556485e-12 0.0 0.010016894768738314

0.010027984230805483 0.0 -2.2094794268411514e-11
0.0 0.01 0.0
-2.2094794268414822e-11 0.0 0.01001683587174566

0.010028686466562197 0.0 -8.763635447134754e-11
0.0 0.01 0.0
-8.763635447133431e-11 0.0 0.010016864817578098

0.010029171098285617 0.0 -2.3449018693427333e-10
0.0 0.01 0.0
-2.3449018693424686e-10 0.0 0.010017027743073025

0.010029412961292167 0.0 -4.524239686744841e-10
0.0 0.01 0.0
-4.524239686744841e-10 0.0 0.010017518075158594

0.010029443983569562 0.0 -6.425068918981343e-10
0.0 0.01 0.0
-6.425068918981343e-10 0.0 0.010017835703625945

0.010029318887365654 0.0 -5.853687748347306e-10
0.0 0.01 0.0
-5.853687748346247e-10 0.0 0.010017627550271857

0.010029104116171621 0.0 -9.25429946667988e-11
0.0 0.01 0.0
-9.25429946667988e-11 0.0 0.010019449646517723

0.010023125370788116 0.0 -1.2889926077782342e-12
0.0 0.01 0.0
-1.288992607777407e-12 0.0 0.010016295093148286

0.010024014931372087 0.0 -2.7663680612308186e-11
0.0 0.01 0.0
-2.7663680612308186e-11 0.0 0.01001627353818798

0.010024833399312164 0.0 -1.329293358230194e-10
0.0 0.01 0.0
-1.329293358230194e-10 0.0 0.010016341720671394

0.0100254936586675 0.0 -3.8175759343755785e-10
0.0 0.01 0.0
-3.817575934376108e-10 0.0 0.010016542407335932

0.010025948298834643 0.0 -7.641558608674827e-10
0.0 0.01 0.0
-7.641558608674827e-10 0.0 0.01001703563325108

0.010026201267389886 0.0 -1.1180397361112098e-09
0.0 0.01 0.0
-1.1180397361112098e-09 0.0 0.010017331101171603

0.010026297219037826 0.0 -1.0866886976490205e-09
0.0 0.01 0.0
-1.0866886976492322e-09 0.0 0.01001708423112788

0.01002627307968203 0.0 -4.567869648160351e-10
0.0 0.01 0.0
-4.567869648160351e-10 0.0 0.010018721392654471

0.010018237771398214 0.0 7.981156430414982e-12
0.0 0.01 0.0
7.98115643041829e-12 0.0 0.010015548890159159

0.010019177073307175 0.0 -2.1383726885277928e-11
0.0 0.01 0.0
-2.1383726885277928e-11 0.0 0.010015552306045448

0.010020124084227403 0.0 -1.5979566618269811e-10
0.0 0.01 0.0
-1.5979566618275105e-10 0.0 0.010015639663501523

0.01002099020382167 0.0 -5.074834964896037e-10
0.0 0.01 0.0
-5.07483496489392e-10 0.0 0.010015837343929511

0.010021702294560586 0.0 -1.0631249698903522e-09
0.0 0.01 0.0
-1.0631249698903522e-09 0.0 0.010016286752517938

0.010022227188167126 0.0 -1.6031398084279045e-09
0.0 0.01 0.0
-1.603139808427481e-09 0.0 0.010016533111368069

0.010022574260155489 0.0 -1.6197761026721114e-09
0.0 0.01 0.0
-1.6197761026721114e-09 0.0 0.010016316698493292

0.010022777285038994 0.0 -9.202524771542512e-10
0.0 0.01 0.0
-9.202524771540395e-10 0.0 0.010017778750452962

0.010012847466265034 0.0 1.8572449145669897e-11
0.0 0.01 0.0
1.8572449145656662e-11 0.0 0.0100146748395483

0.010013799009439599 0.0 -5.070428281822945e-12
0.0 0.01 0.0
-5.07042828180971e-12 0.0 0.010014689554171346

0.01001485136908265 0.0 -1.5164508453414916e-10
0.0 0.01 0.0
-1.5164508453076103e-10 0.0 0.010014783719250334

0.010015922699274876 0.0 -5.529768803003092e-10
0.0 0.01 0.0
-5.529768803003092e-10 0.0 0.010014947999728597

0.010016907533240823 0.0 -1.235472485750541e-09
0.0 0.01 0.0
-1.235472485753929e-09 0.0 0.010015314910267819

0.010017734063251014 0.0 -1.933137141518204e-09
0.0 0.01 0.0
-1.933137141519898e-09 0.0 0.010015523873922537

0.010018365922451429 0.0 -2.031792029560882e-09
0.0 0.01 0.0
-2.031792029560035e-09 0.0 0.0100153683554965

0.01001881662688369 0.0 -1.2781706166676212e-09
0.0 0.01 0.0
-1.2781706166684683e-09 0.0 0.010016683256983695

0.010007657236018727 0.0 2.0972955920331295e-11
0.0 0.01 0.0
2.0972955920331295e-11 0.0 0.010013706328104246

0.010008574966911777 0.0 8.046943060427857e-12
0.0 0.01 0.0
8.046943060434475e-12 0.0 0.010013722544641855

0.01000968104025637 0.0 -1.189730189641253e-10
0.0 0.01 0.0
-1.1897301896417824e-10 0.0 0.010013815176219977

0.010010908423128994 0.0 -5.12033282317311e-10
0.0 0.01 0.0
-5.120332823170992e-10 0.0 0.01001395053842253

0.010012145139888733 0.0 -1.2149777180464497e-09
0.0 0.01 0.0
-1.2149777180456026e-09 0.0 0.01001419421426352

0.010013264144032195 0.0 -2.020450397744231e-09
0.0 0.01 0.0
-2.020450397744231e-09 0.0 0.010014391859331475

0.010014190799767174 0.0 -2.2895206643644243e-09
0.0 0.01 0.0
-2.2895206643644243e-09 0.0 0.010014271694154893

0.010014910733316808 0.0 -1.4216246232817665e-09
0.0 0.01 0.0
-1.4216246232851546e-09 0.0 0.010015449278424295

0.010003305838563027 0.0 1.2358823007033409e-11
0.0 0.01 0.0
1.2358823007035063e-11 0.0 0.010012687203992494

0.01000415984420666 0.0 8.048096847857466e-12
0.0 0.01 0.0
8.04809684785912e-12 0.0 0.01001269799497811

0.010005275171180692 0.0 -8.145725648913616e-11
0.0 0.01 0.0
-8.145725648913616e-11 0.0 0.010012777397628818

0.010006600779796914 0.0 -5.008102786731097e-10
0.0 0.01 0.0
-5.008102786730038e-10 0.0 0.010012909706115404

0.010008023796876719 0.0 -1.9512002057283677e-09
0.0 0.01 0.0
-1.9512002057283677e-09 0.0 0.01001307590224231

0.010009398984552336 0.0 -4.136372858284831e-09
0.0 0.01 0.0
-4.136372858284831e-09 0.0 0.010013167060142648

0.010010607654513174 0.0 -4.760522878538429e-09
0.0 0.01 0.0
-4.760522878535041e-09 0.0 0.010013050402573819

0.010011597795173221 0.0 -1.2785755598025805e-09
0.0 0.01 0.0
-1.2785755598017335e-09 0.0 0.010014085855903103

0.010000100601518081 0.0 9.721110973218136e-13
0.0 0.01 0.0
9.721110973218136e-13 0.0 0.010011651180915553

0.01000089707069594 0.0 1.4201308676944107e-12
0.0 0.01 0.0
1.4201308676946175e-12 0.0 0.010011652184415135

0.010001997648430497 0.0 -1.8797234312296767e-10
0.0 0.01 0.0
-1.8797234312299414e-10 0.0 0.010011723232952328

0.01000337230510009 0.0 -1.902818000027729e-09
0.0 0.01 0.0
-1.902818000027729e-09 0.0 0.010011847170109365

0.010004909362918821 0.0 -6.949159967634358e-09
0.0 0.01 0.0
-6.949159967634358e-09 0.0 0.01001200056753727

0.010006474031566263 0.0 -1.3211934527302175e-08
0.0 0.01 0.0
-1.3211934527302175e-08 0.0 0.010011943212052319

0.010007922505005637 0.0 -1.3749721746030854e-08
0.0 0.01 0.0
-1.3749721746030854e-08 0.0 0.010011742801699374

0.010009144828906661 0.0 -7.73325681612671e-10
0.0 0.01 0.0
-7.733256816122474e-10 0.0 0.01001266562212603

0.009998019088756903 0.0 -6.38125567217838e-13
0.0 0.01 0.0
-6.381255672177346e-13 0.0 0.010010632182489638

0.009998778723763783 0.0 3.307183584878758e-11
0.0 0.01 0.0
3.307183584879089e-11 0.0 0.010010631179296741

0.009999860002939946 0.0 -3.0629658996452716e-10
0.0 0.01 0.0
-3.062965899644742e-10 0.0 0.010010701253045802

0.010001228276265128 0.0 -4.321570020393383e-09
0.0 0.01 0.0
-4.321570020393383e-09 0.0 0.010010815872195178

0.010002806831341271 0.0 -1.5944987514196387e-08
0.0 0.01 0.0
-1.5944987514196387e-08 0.0 0.01001097458988174

0.01000448591684183 0.0 -2.93382674143667e-08
0.0 0.01 0.0
-2.93382674143667e-08 0.0 0.010010807545371187

0.010006110596466217 0.0 -2.8051350033187297e-08
0.0 0.01 0.0
-2.805135003320085e-08 0.0 0.010010363738946378

0.010007500129362048 0.0 2.6053867636082883e-09
0.0 0.01 0.0
2.6053867636082883e-09 0.0 0.01001119993773299

0.009996842496104474 0.0 4.085818495354955e-11
0.0 0.01 0.0
4.085818495354293e-11 0.0 0.010009661934930343

0.009997589371949521 0.0 9.168580833760159e-10
0.0 0.01 0.0
9.168580833760159e-10 0.0 0.010009673668897273

0.009998622784561925 0.0 2.965786531984541e-09
0.0 0.01 0.0
2.965786531984541e-09 0.0 0.01000976869549177

0.009999922000912622 0.0 -4.768125552073242e-10
0.0 0.01 0.0
-4.768125552073242e-10 0.0 0.010009903342025906

0.010001453917066472 0.0 -1.7660136490630366e-08
0.0 0.01 0.0
-1.7660136490630366e-08 0.0 0.010010052236877016

0.01000315824577504 0.0 -3.8975555722665976e-08
0.0 0.01 0.0
-3.89755557226592e-08 0.0 0.01000978629724716

0.010004908862352727 0.0 -3.445357867396231e-08
0.0 0.01 0.0
-3.445357867396231e-08 0.0 0.010009040545134705

0.010006451537996168 0.0 8.586230981717574e-09
0.0 0.01 0.0
8.586230981717574e-09 0.0 0.010009706514205631

0.009996308545032537 0.0 5.505330704906273e-10
0.0 0.01 0.0
5.505330704906273e-10 0.0 0.010008767867860143

0.00999704131359694 0.0 5.753156182051013e-09
0.0 0.01 0.0
5.753156182051013e-09 0.0 0.010008821709673757

0.009997979612508923 0.0 1.8097861793513653e-08
0.0 0.01 0.0
1.8097861793513653e-08 0.0 0.01000896514171882

0.009999120116239072 0.0 2.532840758561806e-08
0.0 0.01 0.0
2.5328407585621448e-08 0.0 0.01000915169781972

0.010000500037522182 0.0 1.1278201964354863e-08
0.0 0.01 0.0
1.127820196435317e-08 0.0 0.010009307428144855

0.010002141287592956 0.0 -1.2224952298514266e-08
0.0 0.01 0.0
-1.2224952298514266e-08 0.0 0.010008947043151396

0.010004036142254003 0.0 -3.3737767803769558e-09
0.0 0.01 0.0
-3.3737767803769558e-09 0.0 0.010008022844589374

0.010005980961518451 0.0 -7.825793466595746e-09
0.0 0.01 0.0
-7.825793466602522e-09 0.0 0.010008227893615329

0.00999620665950857 0.0 3.2206960498080075e-09
0.0 0.01 0.0
3.220696049807584e-09 0.0 0.010007977786618636

0.009996890950594717 0.0 2.0851246571539344e-08
0.0 0.01 0.0
2.0851246571539344e-08 0.0 0.010008105544402733

0.009997658822916658 0.0 5.7367686535220175e-08
0.0 0.01 0.0
5.73676865352134e-08 0.0 0.010008318969779077

0.009998550316552854 0.0 9.148918753235655e-08
0.0 0.01 0.0
9.148918753235655e-08 0.0 0.010008573514434928

0.009999681016654155 0.0 9.634870360691731e-08
0.0 0.01 0.0
9.63487036068902e-08 0.0 0.010008783510359297

0.01000123658049926 0.0 8.828254752140719e-08
0.0 0.01 0.0
8.828254752140719e-08 0.0 0.010008436465261688

0.01000339332756882 0.0 8.761050433888327e-08
0.0 0.01 0.0
8.761050433891038e-08 0.0 0.010007476126669645

0.010006243143926027 0.0 -1.2296181692902225e-07
0.0 0.01 0.0
-1.229618169292391e-07 0.0 0.010006921732191636

0.009996409934237855 0.0 1.3215172070595661e-08
0.0 0.01 0.0
1.3215172070595661e-08 0.0 0.010007321983899725

0.009996979869209315 0.0 5.655449050098727e-08
0.0 0.01 0.0
5.655449050098049e-08 0.0 0.010007537814718897

0.00999750193902791 0.0 1.3343533904858988e-07
0.0 0.01 0.0
1.3343533904858988e-07 0.0 0.010007826080218617

0.009998074063136214 0.0 2.099550858950395e-07
0.0 0.01 0.0
2.099550858950395e-07 0.0 0.010008151061750587

0.009998916685246544 0.0 2.4756261554712694e-07
0.0 0.01 0.0
2.4756261554718115e-07 0.0 0.01000837476794935

0.01000043118810199 0.0 2.6111554681537783e-07
0.0 0.01 0.0
2.6111554681548625e-07 0.0 0.010008006214872677

0.010002980837500747 0.0 1.8673585885188105e-07
0.0 0.01 0.0
1.8673585885188105e-07 0.0 0.010007108627929253

0.010006889942392499 0.0 -4.3441509455432667e-07
0.0 0.01 0.0
-4.34415094553893e-07 0.0 0.010006134568561295

0.009996835003466618 0.0 4.097477943630011e-08
0.0 0.01 0.0
4.097477943630011e-08 0.0 0.01000681455966126

0.009997212168614891 0.0 1.259975747266713e-07
0.0 0.01 0.0
1.2599757472664419e-07 0.0 0.010007112082446758

0.009997437495041533 0.0 2.5486163761676657e-07
0.0 0.01 0.0
2.5486163761676657e-07 0.0 0.010007456591556673

0.009997693319830291 0.0 3.7839897082343537e-07
0.0 0.01 0.0
3.783989708235438e-07 0.0 0.010007805049759871

0.009998328449186886 0.0 4.47210383438092e-07
0.0 0.01 0.0
4.47210383438092e-07 0.0 0.010007956766397543

0.009999869030953597 0.0 4.351831231990235e-07
0.0 0.01 0.0
4.351831231990235e-07 0.0 0.010007406198000097

0.010002842014618034 0.0 1.5331182428711832e-07
0.0 0.01 0.0
1.5331182428717253e-07 0.0 0.010006605192043687

0.009997387026139257 0.0 1.0449048019966578e-07
0.0 0.01 0.0
1.0449048019963868e-07 0.0 0.010006451038655466

0.009997511438161797 0.0 2.4378445711675497e-07
0.0 0.01 0.0
2.4378445711675497e-07 0.0 0.010006798936451617

0.009997448503676882 0.0 4.2294085790002935e-07
0.0 0.01 0.0
4.2294085790008356e-07 0.0 0.01000714878525921

0.009997502486246809 0.0 5.791682705812888e-07
0.0 0.01 0.0
5.791682705812888e-07 0.0 0.010007456632152403

0.009998138081869973 0.0 6.416667380956245e-07
0.0 0.01 0.0
6.416667380956245e-07 0.0 0.010007426777020951

0.009999857041145142 0.0 5.040675525273949e-07
0.0 0.01 0.0
5.040675525272865e-07 0.0 0.010006808234546733

0.010003020921669239 0.0 -1.4901055413478383e-07
0.0 0.01 0.0
-1.4901055413478383e-07 0.0 0.010006072430009881

0.009997948139252115 0.0 2.2452208600745897e-07
0.0 0.01 0.0
2.2452208600745897e-07 0.0 0.010006193256267247

0.00999780424951673 0.0 4.1724811105042867e-07
0.0 0.01 0.0
4.1724811105042867e-07 0.0 0.010006543042188927

0.009997566947175237 0.0 6.268487662813155e-07
0.0 0.01 0.0
6.268487662813155e-07 0.0 0.010006870883726832

0.009997693889342523 0.0 7.80623470016421e-07
0.0 0.01 0.0
7.80623470016421e-07 0.0 0.010007138577885329

0.00999856339136622 0.0 7.383511682981271e-07
0.0 0.01 0.0
7.383511682981271e-07 0.0 0.010006923765786558

0.010000579165105262 0.0 3.1421102906136963e-07
0.0 0.01 0.0
3.142110290612612e-07 0.0 0.010006431514122427

0.0099983979102734 0.0 4.0985146117233657e-07
0.0 0.01 0.0
4.0985146117222815e-07 0.0 0.010005979984921202

0.009998082611833247 0.0 6.338008411349355e-07
0.0 0.01 0.0
6.338008411349355e-07 0.0 0.010006315137280288

0.009997982715550977 0.0 8.366924767719318e-07
0.0 0.01 0.0
8.366924767718234e-07 0.0 0.010006672326905611

0.009998499958761713 0.0 8.990303864641301e-07
0.0 0.01 0.0
8.99030386464347e-07 0.0 0.01000688367226383

0.00999981955865728 0.0 5.989934237125242e-07
0.0 0.01 0.0
5.989934237124158e-07 0.0 0.010006730943469924

0.010001831064498132 0.0 -2.794825305848809e-07
0.0 0.01 0.0
-2.794825305849893e-07 0.0 0.010006118422381116

0.009998739299817634 0.0 6.397895411994333e-07
0.0 0.01 0.0
6.397895411993249e-07 0.0 0.010005796597503943

0.009998624894270832 0.0 8.588070745400769e-07
0.0 0.01 0.0
8.588070745400769e-07 0.0 0.010006209990280672

0.009999034279515907 0.0 9.650313139355094e-07
0.0 0.01 0.0
9.650313139355094e-07 0.0 0.010006624416088428

0.010000074286453945 0.0 7.558900697091954e-07
0.0 0.01 0.0
7.558900697094122e-07 0.0 0.010006796057236214

0.010001560415163022 0.0 5.585104628334718e-09
0.0 0.01 0.0
5.585104628333024e-09 0.0 0.010006599276829578

0.009999413165345057 0.0 8.708404394118952e-07
0.0 0.01 0.0
8.708404394121121e-07 0.0 0.010005771706635445

0.009999891148906545 0.0 9.907834245144725e-07
0.0 0.01 0.0
9.907834245144725e-07 0.0 0.01000625992009206

0.010000939179493358 0.0 8.054493551962714e-07
0.0 0.01 0.0
8.054493551962714e-07 0.0 0.010006691357279045

0.010002081201259323 0.0 1.0746389892893208e-07
0.0 0.01 0.0
1.0746389892890497e-07 0.0 0.010006718666740523

0.010000988085816365 0.0 9.64485766797446e-07
0.0 0.01 0.0
9.64485766797446e-07 0.0 0.010005893545287824

0.01000188392428817 0.0 7.838818915279801e-07
0.0 0.01 0.0
7.838818915275464e-07 0.0 0.010006361607353562

0.010002994996742896 0.0 1.0900114890576755e-07
0.0 0.01 0.0
1.0900114890582176e-07 0.0 0.010006690810835207

0.010003014703116582 0.0 -9.682464249417128e-07
0.0 0.01 0.0
-9.682464249425801e-07 0.0 0.010006039306924622

0.010002755094298725 0.0 6.122131623062608e-07
0.0 0.01 0.0
6.122131623064776e-07 0.0 0.010005919858674352

0.010003122561954812 0.0 5.498100653084087e-09
0.0 0.01 0.0
5.498100653084087e-09 0.0 0.01000614971821168

0.010002928043715425 0.0 -2.3400671751033515e-07
0.0 0.01 0.0
-2.3400671751033515e-07 0.0 0.010005626353015962

