# vtk DataFile Version 3.0
Try
ASCII
DATASET POLYDATA
POINTS 2975 float
 -2.2000000E-01   9.9999998E-03  -3.8000000E-01
 -2.2000000E-01   9.9999998E-03  -3.6000001E-01
 -2.0000000E-01   9.9999998E-03  -4.0000001E-01
 -2.0000000E-01   9.9999998E-03  -3.8000000E-01
 -2.0000000E-01   9.9999998E-03  -3.6000001E-01
 -1.8000001E-01   9.9999998E-03  -4.0000001E-01
 -1.8000001E-01   9.9999998E-03  -3.8000000E-01
 -1.8000001E-01   9.9999998E-03  -3.6000001E-01
 -1.6000000E-01   9.9999998E-03  -4.0000001E-01
 -1.6000000E-01   9.9999998E-03  -3.8000000E-01
 -1.6000000E-01   9.9999998E-03  -3.6000001E-01
 -1.4000000E-01   9.9999998E-03  -4.0000001E-01
 -1.4000000E-01   9.9999998E-03  -3.8000000E-01
 -1.4000000E-01   9.9999998E-03  -3.6000001E-01
 -1.2000000E-01   9.9999998E-03  -4.0000001E-01
 -1.2000000E-01   9.9999998E-03  -3.8000000E-01
 -1.2000000E-01   9.9999998E-03  -3.6000001E-01
 -1.0000000E-01   9.9999998E-03  -4.0000001E-01
 -1.0000000E-01   9.9999998E-03  -3.8000000E-01
 -1.0000000E-01   9.9999998E-03  -3.6000001E-01
 -7.9999998E-02   9.9999998E-03  -4.0000001E-01
 -7.9999998E-02   9.9999998E-03  -3.8000000E-01
 -7.9999998E-02   9.9999998E-03  -3.6000001E-01
 -5.9999999E-02   9.9999998E-03  -4.0000001E-01
 -5.9999999E-02   9.9999998E-03  -3.8000000E-01
 -5.9999999E-02   9.9999998E-03  -3.6000001E-01
 -3.9999999E-02   9.9999998E-03  -4.0000001E-01
 -3.9999999E-02   9.9999998E-03  -3.8000000E-01
 -3.9999999E-02   9.9999998E-03  -3.6000001E-01
 -2.0000000E-02   9.9999998E-03  -4.0000001E-01
 -2.0000000E-02   9.9999998E-03  -3.8000000E-01
 -2.0000000E-02   9.9999998E-03  -3.6000001E-01
  0.0000000E+00   9.9999998E-03  -4.0000001E-01
  0.0000000E+00   9.9999998E-03  -3.8000000E-01
  0.0000000E+00   9.9999998E-03  -3.6000001E-01
  2.0000000E-02   9.9999998E-03  -4.0000001E-01
  2.0000000E-02   9.9999998E-03  -3.8000000E-01
  2.0000000E-02   9.9999998E-03  -3.6000001E-01
  3.9999999E-02   9.9999998E-03  -4.0000001E-01
  3.9999999E-02   9.9999998E-03  -3.8000000E-01
  3.9999999E-02   9.9999998E-03  -3.6000001E-01
  5.9999999E-02   9.9999998E-03  -4.0000001E-01
  5.9999999E-02   9.9999998E-03  -3.8000000E-01
  5.9999999E-02   9.9999998E-03  -3.6000001E-01
  7.9999998E-02   9.9999998E-03  -4.0000001E-01
  7.9999998E-02   9.9999998E-03  -3.8000000E-01
  7.9999998E-02   9.9999998E-03  -3.6000001E-01
  1.0000000E-01   9.9999998E-03  -4.0000001E-01
  1.0000000E-01   9.9999998E-03  -3.8000000E-01
  1.0000000E-01   9.9999998E-03  -3.6000001E-01
  1.2000000E-01   9.9999998E-03  -4.0000001E-01
  1.2000000E-01   9.9999998E-03  -3.8000000E-01
  1.2000000E-01   9.9999998E-03  -3.6000001E-01
  1.4000000E-01   9.9999998E-03  -4.0000001E-01
  1.4000000E-01   9.9999998E-03  -3.8000000E-01
  1.4000000E-01   9.9999998E-03  -3.6000001E-01
  1.6000000E-01   9.9999998E-03  -4.0000001E-01
  1.6000000E-01   9.9999998E-03  -3.8000000E-01
  1.6000000E-01   9.9999998E-03  -3.6000001E-01
  1.8000001E-01   9.9999998E-03  -4.0000001E-01
  1.8000001E-01   9.9999998E-03  -3.8000000E-01
  1.8000001E-01   9.9999998E-03  -3.6000001E-01
  2.0000000E-01   9.9999998E-03  -3.8000000E-01
  2.0000000E-01   9.9999998E-03  -3.6000001E-01
 -2.2000000E-01   9.9999998E-03  -3.4000000E-01
 -2.2000000E-01   9.9999998E-03  -3.1999999E-01
 -2.2000000E-01   9.9999998E-03  -3.0000001E-01
 -2.2000000E-01   9.9999998E-03  -2.8000000E-01
 -2.2000000E-01   9.9999998E-03  -2.5999999E-01
 -2.2000000E-01   9.9999998E-03  -2.3999999E-01
 -2.2000000E-01   9.9999998E-03  -2.2000000E-01
 -2.2000000E-01   9.9999998E-03  -2.0000000E-01
 -2.0000000E-01   9.9999998E-03  -3.4000000E-01
 -2.0000000E-01   9.9999998E-03  -3.1999999E-01
 -2.0000000E-01   9.9999998E-03  -3.0000001E-01
 -2.0000000E-01   9.9999998E-03  -2.8000000E-01
 -2.0000000E-01   9.9999998E-03  -2.5999999E-01
 -2.0000000E-01   9.9999998E-03  -2.3999999E-01
 -2.0000000E-01   9.9999998E-03  -2.2000000E-01
 -2.0000000E-01   9.9999998E-03  -2.0000000E-01
 -1.8000001E-01   9.9999998E-03  -3.4000000E-01
 -1.8000001E-01   9.9999998E-03  -3.1999999E-01
 -1.8000001E-01   9.9999998E-03  -3.0000001E-01
 -1.8000001E-01   9.9999998E-03  -2.8000000E-01
 -1.8000001E-01   9.9999998E-03  -2.5999999E-01
 -1.8000001E-01   9.9999998E-03  -2.3999999E-01
 -1.8000001E-01   9.9999998E-03  -2.2000000E-01
 -1.8000001E-01   9.9999998E-03  -2.0000000E-01
 -1.6000000E-01   9.9999998E-03  -3.4000000E-01
 -1.6000000E-01   9.9999998E-03  -3.1999999E-01
 -1.6000000E-01   9.9999998E-03  -3.0000001E-01
 -1.6000000E-01   9.9999998E-03  -2.8000000E-01
 -1.6000000E-01   9.9999998E-03  -2.5999999E-01
 -1.6000000E-01   9.9999998E-03  -2.3999999E-01
 -1.6000000E-01   9.9999998E-03  -2.2000000E-01
 -1.6000000E-01   9.9999998E-03  -2.0000000E-01
 -1.4000000E-01   9.9999998E-03  -3.4000000E-01
 -1.4000000E-01   9.9999998E-03  -3.1999999E-01
 -1.4000000E-01   9.9999998E-03  -3.0000001E-01
 -1.4000000E-01   9.9999998E-03  -2.8000000E-01
 -1.4000000E-01   9.9999998E-03  -2.5999999E-01
 -1.4000000E-01   9.9999998E-03  -2.3999999E-01
 -1.4000000E-01   9.9999998E-03  -2.2000000E-01
 -1.4000000E-01   9.9999998E-03  -2.0000000E-01
 -1.2000000E-01   9.9999998E-03  -3.4000000E-01
 -1.2000000E-01   9.9999998E-03  -3.1999999E-01
 -1.2000000E-01   9.9999998E-03  -3.0000001E-01
 -1.2000000E-01   9.9999998E-03  -2.8000000E-01
 -1.2000000E-01   9.9999998E-03  -2.5999999E-01
 -1.2000000E-01   9.9999998E-03  -2.3999999E-01
 -1.2000000E-01   9.9999998E-03  -2.2000000E-01
 -1.2000000E-01   9.9999998E-03  -2.0000000E-01
 -1.0000000E-01   9.9999998E-03  -3.4000000E-01
 -1.0000000E-01   9.9999998E-03  -3.1999999E-01
 -1.0000000E-01   9.9999998E-03  -3.0000001E-01
 -1.0000000E-01   9.9999998E-03  -2.8000000E-01
 -1.0000000E-01   9.9999998E-03  -2.5999999E-01
 -1.0000000E-01   9.9999998E-03  -2.3999999E-01
 -1.0000000E-01   9.9999998E-03  -2.2000000E-01
 -1.0000000E-01   9.9999998E-03  -2.0000000E-01
 -7.9999998E-02   9.9999998E-03  -3.4000000E-01
 -7.9999998E-02   9.9999998E-03  -3.1999999E-01
 -7.9999998E-02   9.9999998E-03  -3.0000001E-01
 -7.9999998E-02   9.9999998E-03  -2.8000000E-01
 -7.9999998E-02   9.9999998E-03  -2.5999999E-01
 -7.9999998E-02   9.9999998E-03  -2.3999999E-01
 -7.9999998E-02   9.9999998E-03  -2.2000000E-01
 -7.9999998E-02   9.9999998E-03  -2.0000000E-01
 -5.9999999E-02   9.9999998E-03  -3.4000000E-01
 -5.9999999E-02   9.9999998E-03  -3.1999999E-01
 -5.9999999E-02   9.9999998E-03  -3.0000001E-01
 -5.9999999E-02   9.9999998E-03  -2.8000000E-01
 -5.9999999E-02   9.9999998E-03  -2.5999999E-01
 -5.9999999E-02   9.9999998E-03  -2.3999999E-01
 -5.9999999E-02   9.9999998E-03  -2.2000000E-01
 -5.9999999E-02   9.9999998E-03  -2.0000000E-01
 -3.9999999E-02   9.9999998E-03  -3.4000000E-01
 -3.9999999E-02   9.9999998E-03  -3.1999999E-01
 -3.9999999E-02   9.9999998E-03  -3.0000001E-01
 -3.9999999E-02   9.9999998E-03  -2.8000000E-01
 -3.9999999E-02   9.9999998E-03  -2.5999999E-01
 -3.9999999E-02   9.9999998E-03  -2.3999999E-01
 -3.9999999E-02   9.9999998E-03  -2.2000000E-01
 -3.9999999E-02   9.9999998E-03  -2.0000000E-01
 -2.0000000E-02   9.9999998E-03  -3.4000000E-01
 -2.0000000E-02   9.9999998E-03  -3.1999999E-01
 -2.0000000E-02   9.9999998E-03  -3.0000001E-01
 -2.0000000E-02   9.9999998E-03  -2.8000000E-01
 -2.0000000E-02   9.9999998E-03  -2.5999999E-01
 -2.0000000E-02   9.9999998E-03  -2.3999999E-01
 -2.0000000E-02   9.9999998E-03  -2.2000000E-01
 -2.0000000E-02   9.9999998E-03  -2.0000000E-01
  0.0000000E+00   9.9999998E-03  -3.4000000E-01
  0.0000000E+00   9.9999998E-03  -3.1999999E-01
  0.0000000E+00   9.9999998E-03  -3.0000001E-01
  2.0000000E-02   9.9999998E-03  -3.4000000E-01
  2.0000000E-02   9.9999998E-03  -3.1999999E-01
  3.9999999E-02   9.9999998E-03  -3.4000000E-01
  3.9999999E-02   9.9999998E-03  -3.1999999E-01
  5.9999999E-02   9.9999998E-03  -3.4000000E-01
  5.9999999E-02   9.9999998E-03  -3.1999999E-01
  7.9999998E-02   9.9999998E-03  -3.4000000E-01
  7.9999998E-02   9.9999998E-03  -3.1999999E-01
  1.0000000E-01   9.9999998E-03  -3.4000000E-01
  1.0000000E-01   9.9999998E-03  -3.1999999E-01
  1.2000000E-01   9.9999998E-03  -3.4000000E-01
  1.2000000E-01   9.9999998E-03  -3.1999999E-01
  1.4000000E-01   9.9999998E-03  -3.4000000E-01
  1.4000000E-01   9.9999998E-03  -3.1999999E-01
  1.6000000E-01   9.9999998E-03  -3.4000000E-01
  1.6000000E-01   9.9999998E-03  -3.1999999E-01
  1.8000001E-01   9.9999998E-03  -3.4000000E-01
  1.8000001E-01   9.9999998E-03  -3.1999999E-01
  2.0000000E-01   9.9999998E-03  -3.4000000E-01
  2.0000000E-01   9.9999998E-03  -3.1999999E-01
 -2.2000000E-01   9.9999998E-03  -1.8000001E-01
 -2.2000000E-01   9.9999998E-03  -1.6000000E-01
 -2.2000000E-01   9.9999998E-03  -1.4000000E-01
 -2.2000000E-01   9.9999998E-03  -1.2000000E-01
 -2.2000000E-01   9.9999998E-03  -1.0000000E-01
 -2.2000000E-01   9.9999998E-03  -7.9999998E-02
 -2.2000000E-01   9.9999998E-03  -5.9999999E-02
 -2.2000000E-01   9.9999998E-03  -3.9999999E-02
 -2.2000000E-01   9.9999998E-03  -2.0000000E-02
 -2.0000000E-01   9.9999998E-03  -1.8000001E-01
 -2.0000000E-01   9.9999998E-03  -1.6000000E-01
 -2.0000000E-01   9.9999998E-03  -1.4000000E-01
 -2.0000000E-01   9.9999998E-03  -1.2000000E-01
 -2.0000000E-01   9.9999998E-03  -1.0000000E-01
 -2.0000000E-01   9.9999998E-03  -7.9999998E-02
 -2.0000000E-01   9.9999998E-03  -5.9999999E-02
 -2.0000000E-01   9.9999998E-03  -3.9999999E-02
 -2.0000000E-01   9.9999998E-03  -2.0000000E-02
 -1.8000001E-01   9.9999998E-03  -1.8000001E-01
 -1.8000001E-01   9.9999998E-03  -1.6000000E-01
 -1.8000001E-01   9.9999998E-03  -1.4000000E-01
 -1.8000001E-01   9.9999998E-03  -1.2000000E-01
 -1.8000001E-01   9.9999998E-03  -1.0000000E-01
 -1.8000001E-01   9.9999998E-03  -7.9999998E-02
 -1.8000001E-01   9.9999998E-03  -5.9999999E-02
 -1.8000001E-01   9.9999998E-03  -3.9999999E-02
 -1.8000001E-01   9.9999998E-03  -2.0000000E-02
 -1.6000000E-01   9.9999998E-03  -1.8000001E-01
 -1.6000000E-01   9.9999998E-03  -1.6000000E-01
 -1.6000000E-01   9.9999998E-03  -1.4000000E-01
 -1.6000000E-01   9.9999998E-03  -1.2000000E-01
 -1.6000000E-01   9.9999998E-03  -1.0000000E-01
 -1.6000000E-01   9.9999998E-03  -7.9999998E-02
 -1.6000000E-01   9.9999998E-03  -5.9999999E-02
 -1.6000000E-01   9.9999998E-03  -3.9999999E-02
 -1.6000000E-01   9.9999998E-03  -2.0000000E-02
 -1.4000000E-01   9.9999998E-03  -1.8000001E-01
 -1.4000000E-01   9.9999998E-03  -1.6000000E-01
 -1.4000000E-01   9.9999998E-03  -1.4000000E-01
 -1.4000000E-01   9.9999998E-03  -1.2000000E-01
 -1.4000000E-01   9.9999998E-03  -1.0000000E-01
 -1.4000000E-01   9.9999998E-03  -7.9999998E-02
 -1.4000000E-01   9.9999998E-03  -5.9999999E-02
 -1.4000000E-01   9.9999998E-03  -3.9999999E-02
 -1.4000000E-01   9.9999998E-03  -2.0000000E-02
 -1.2000000E-01   9.9999998E-03  -1.8000001E-01
 -1.2000000E-01   9.9999998E-03  -1.6000000E-01
 -1.2000000E-01   9.9999998E-03  -1.4000000E-01
 -1.2000000E-01   9.9999998E-03  -1.2000000E-01
 -1.2000000E-01   9.9999998E-03  -1.0000000E-01
 -1.2000000E-01   9.9999998E-03  -7.9999998E-02
 -1.2000000E-01   9.9999998E-03  -5.9999999E-02
 -1.2000000E-01   9.9999998E-03  -3.9999999E-02
 -1.2000000E-01   9.9999998E-03  -2.0000000E-02
 -1.0000000E-01   9.9999998E-03  -1.8000001E-01
 -1.0000000E-01   9.9999998E-03  -1.6000000E-01
 -1.0000000E-01   9.9999998E-03  -1.4000000E-01
 -1.0000000E-01   9.9999998E-03  -1.2000000E-01
 -1.0000000E-01   9.9999998E-03  -1.0000000E-01
 -1.0000000E-01   9.9999998E-03  -7.9999998E-02
 -1.0000000E-01   9.9999998E-03  -5.9999999E-02
 -1.0000000E-01   9.9999998E-03  -3.9999999E-02
 -1.0000000E-01   9.9999998E-03  -2.0000000E-02
 -7.9999998E-02   9.9999998E-03  -1.8000001E-01
 -7.9999998E-02   9.9999998E-03  -1.6000000E-01
 -7.9999998E-02   9.9999998E-03  -1.4000000E-01
 -7.9999998E-02   9.9999998E-03  -1.2000000E-01
 -7.9999998E-02   9.9999998E-03  -1.0000000E-01
 -7.9999998E-02   9.9999998E-03  -7.9999998E-02
 -7.9999998E-02   9.9999998E-03  -5.9999999E-02
 -7.9999998E-02   9.9999998E-03  -3.9999999E-02
 -7.9999998E-02   9.9999998E-03  -2.0000000E-02
 -5.9999999E-02   9.9999998E-03  -1.8000001E-01
 -5.9999999E-02   9.9999998E-03  -1.6000000E-01
 -5.9999999E-02   9.9999998E-03  -1.4000000E-01
 -5.9999999E-02   9.9999998E-03  -1.2000000E-01
 -5.9999999E-02   9.9999998E-03  -1.0000000E-01
 -5.9999999E-02   9.9999998E-03  -7.9999998E-02
 -5.9999999E-02   9.9999998E-03  -5.9999999E-02
 -5.9999999E-02   9.9999998E-03  -3.9999999E-02
 -5.9999999E-02   9.9999998E-03  -2.0000000E-02
 -3.9999999E-02   9.9999998E-03  -1.8000001E-01
 -3.9999999E-02   9.9999998E-03  -1.6000000E-01
 -3.9999999E-02   9.9999998E-03  -1.4000000E-01
 -3.9999999E-02   9.9999998E-03  -1.2000000E-01
 -3.9999999E-02   9.9999998E-03  -1.0000000E-01
 -3.9999999E-02   9.9999998E-03  -7.9999998E-02
 -3.9999999E-02   9.9999998E-03  -5.9999999E-02
 -3.9999999E-02   9.9999998E-03  -3.9999999E-02
 -3.9999999E-02   9.9999998E-03  -2.0000000E-02
 -2.0000000E-02   9.9999998E-03  -1.8000001E-01
 -2.0000000E-02   9.9999998E-03  -1.6000000E-01
 -2.0000000E-02   9.9999998E-03  -1.4000000E-01
 -2.0000000E-02   9.9999998E-03  -1.2000000E-01
 -2.0000000E-02   9.9999998E-03  -1.0000000E-01
 -2.0000000E-02   9.9999998E-03  -7.9999998E-02
 -2.0000000E-02   9.9999998E-03  -5.9999999E-02
 -2.0000000E-02   9.9999998E-03  -3.9999999E-02
 -2.0000000E-02   9.9999998E-03  -2.0000000E-02
 -2.2000000E-01   9.9999998E-03   0.0000000E+00
 -2.2000000E-01   9.9999998E-03   2.0000000E-02
 -2.2000000E-01   9.9999998E-03   3.9999999E-02
 -2.2000000E-01   9.9999998E-03   5.9999999E-02
 -2.2000000E-01   9.9999998E-03   7.9999998E-02
 -2.2000000E-01   9.9999998E-03   1.0000000E-01
 -2.2000000E-01   9.9999998E-03   1.2000000E-01
 -2.2000000E-01   9.9999998E-03   1.4000000E-01
 -2.0000000E-01   9.9999998E-03   0.0000000E+00
 -2.0000000E-01   9.9999998E-03   2.0000000E-02
 -2.0000000E-01   9.9999998E-03   3.9999999E-02
 -2.0000000E-01   9.9999998E-03   5.9999999E-02
 -2.0000000E-01   9.9999998E-03   7.9999998E-02
 -2.0000000E-01   9.9999998E-03   1.0000000E-01
 -2.0000000E-01   9.9999998E-03   1.2000000E-01
 -2.0000000E-01   9.9999998E-03   1.4000000E-01
 -1.8000001E-01   9.9999998E-03   0.0000000E+00
 -1.8000001E-01   9.9999998E-03   2.0000000E-02
 -1.8000001E-01   9.9999998E-03   3.9999999E-02
 -1.8000001E-01   9.9999998E-03   5.9999999E-02
 -1.8000001E-01   9.9999998E-03   7.9999998E-02
 -1.8000001E-01   9.9999998E-03   1.0000000E-01
 -1.8000001E-01   9.9999998E-03   1.2000000E-01
 -1.8000001E-01   9.9999998E-03   1.4000000E-01
 -1.6000000E-01   9.9999998E-03   0.0000000E+00
 -1.6000000E-01   9.9999998E-03   2.0000000E-02
 -1.6000000E-01   9.9999998E-03   3.9999999E-02
 -1.6000000E-01   9.9999998E-03   5.9999999E-02
 -1.6000000E-01   9.9999998E-03   7.9999998E-02
 -1.6000000E-01   9.9999998E-03   1.0000000E-01
 -1.6000000E-01   9.9999998E-03   1.2000000E-01
 -1.6000000E-01   9.9999998E-03   1.4000000E-01
 -1.4000000E-01   9.9999998E-03   0.0000000E+00
 -1.4000000E-01   9.9999998E-03   2.0000000E-02
 -1.4000000E-01   9.9999998E-03   3.9999999E-02
 -1.4000000E-01   9.9999998E-03   5.9999999E-02
 -1.4000000E-01   9.9999998E-03   7.9999998E-02
 -1.4000000E-01   9.9999998E-03   1.0000000E-01
 -1.4000000E-01   9.9999998E-03   1.2000000E-01
 -1.4000000E-01   9.9999998E-03   1.4000000E-01
 -1.2000000E-01   9.9999998E-03   0.0000000E+00
 -1.2000000E-01   9.9999998E-03   2.0000000E-02
 -1.2000000E-01   9.9999998E-03   3.9999999E-02
 -1.2000000E-01   9.9999998E-03   5.9999999E-02
 -1.2000000E-01   9.9999998E-03   7.9999998E-02
 -1.2000000E-01   9.9999998E-03   1.0000000E-01
 -1.2000000E-01   9.9999998E-03   1.2000000E-01
 -1.2000000E-01   9.9999998E-03   1.4000000E-01
 -1.0000000E-01   9.9999998E-03   0.0000000E+00
 -1.0000000E-01   9.9999998E-03   2.0000000E-02
 -1.0000000E-01   9.9999998E-03   3.9999999E-02
 -1.0000000E-01   9.9999998E-03   5.9999999E-02
 -1.0000000E-01   9.9999998E-03   7.9999998E-02
 -1.0000000E-01   9.9999998E-03   1.0000000E-01
 -1.0000000E-01   9.9999998E-03   1.2000000E-01
 -1.0000000E-01   9.9999998E-03   1.4000000E-01
 -7.9999998E-02   9.9999998E-03   0.0000000E+00
 -7.9999998E-02   9.9999998E-03   2.0000000E-02
 -7.9999998E-02   9.9999998E-03   3.9999999E-02
 -7.9999998E-02   9.9999998E-03   5.9999999E-02
 -7.9999998E-02   9.9999998E-03   7.9999998E-02
 -7.9999998E-02   9.9999998E-03   1.0000000E-01
 -7.9999998E-02   9.9999998E-03   1.2000000E-01
 -7.9999998E-02   9.9999998E-03   1.4000000E-01
 -5.9999999E-02   9.9999998E-03   0.0000000E+00
 -5.9999999E-02   9.9999998E-03   2.0000000E-02
 -5.9999999E-02   9.9999998E-03   3.9999999E-02
 -5.9999999E-02   9.9999998E-03   5.9999999E-02
 -5.9999999E-02   9.9999998E-03   7.9999998E-02
 -5.9999999E-02   9.9999998E-03   1.0000000E-01
 -5.9999999E-02   9.9999998E-03   1.2000000E-01
 -5.9999999E-02   9.9999998E-03   1.4000000E-01
 -3.9999999E-02   9.9999998E-03   0.0000000E+00
 -3.9999999E-02   9.9999998E-03   2.0000000E-02
 -3.9999999E-02   9.9999998E-03   3.9999999E-02
 -3.9999999E-02   9.9999998E-03   5.9999999E-02
 -3.9999999E-02   9.9999998E-03   7.9999998E-02
 -3.9999999E-02   9.9999998E-03   1.0000000E-01
 -3.9999999E-02   9.9999998E-03   1.2000000E-01
 -3.9999999E-02   9.9999998E-03   1.4000000E-01
 -2.0000000E-02   9.9999998E-03   0.0000000E+00
 -2.0000000E-02   9.9999998E-03   2.0000000E-02
 -2.0000000E-02   9.9999998E-03   3.9999999E-02
 -2.0000000E-02   9.9999998E-03   5.9999999E-02
 -2.0000000E-02   9.9999998E-03   7.9999998E-02
 -2.0000000E-02   9.9999998E-03   1.0000000E-01
 -2.0000000E-02   9.9999998E-03   1.2000000E-01
 -2.0000000E-02   9.9999998E-03   1.4000000E-01
 -2.2000000E-01   9.9999998E-03   1.6000000E-01
 -2.2000000E-01   9.9999998E-03   1.8000001E-01
 -2.2000000E-01   9.9999998E-03   2.0000000E-01
 -2.2000000E-01   9.9999998E-03   2.2000000E-01
 -2.2000000E-01   9.9999998E-03   2.3999999E-01
 -2.2000000E-01   9.9999998E-03   2.5999999E-01
 -2.2000000E-01   9.9999998E-03   2.8000000E-01
 -2.2000000E-01   9.9999998E-03   3.0000001E-01
 -2.2000000E-01   9.9999998E-03   3.1999999E-01
 -2.0000000E-01   9.9999998E-03   1.6000000E-01
 -2.0000000E-01   9.9999998E-03   1.8000001E-01
 -2.0000000E-01   9.9999998E-03   2.0000000E-01
 -2.0000000E-01   9.9999998E-03   2.2000000E-01
 -2.0000000E-01   9.9999998E-03   2.3999999E-01
 -2.0000000E-01   9.9999998E-03   2.5999999E-01
 -2.0000000E-01   9.9999998E-03   2.8000000E-01
 -2.0000000E-01   9.9999998E-03   3.0000001E-01
 -2.0000000E-01   9.9999998E-03   3.1999999E-01
 -1.8000001E-01   9.9999998E-03   1.6000000E-01
 -1.8000001E-01   9.9999998E-03   1.8000001E-01
 -1.8000001E-01   9.9999998E-03   2.0000000E-01
 -1.8000001E-01   9.9999998E-03   2.2000000E-01
 -1.8000001E-01   9.9999998E-03   2.3999999E-01
 -1.8000001E-01   9.9999998E-03   2.5999999E-01
 -1.8000001E-01   9.9999998E-03   2.8000000E-01
 -1.8000001E-01   9.9999998E-03   3.0000001E-01
 -1.8000001E-01   9.9999998E-03   3.1999999E-01
 -1.6000000E-01   9.9999998E-03   1.6000000E-01
 -1.6000000E-01   9.9999998E-03   1.8000001E-01
 -1.6000000E-01   9.9999998E-03   2.0000000E-01
 -1.6000000E-01   9.9999998E-03   2.2000000E-01
 -1.6000000E-01   9.9999998E-03   2.3999999E-01
 -1.6000000E-01   9.9999998E-03   2.5999999E-01
 -1.6000000E-01   9.9999998E-03   2.8000000E-01
 -1.6000000E-01   9.9999998E-03   3.0000001E-01
 -1.6000000E-01   9.9999998E-03   3.1999999E-01
 -1.4000000E-01   9.9999998E-03   1.6000000E-01
 -1.4000000E-01   9.9999998E-03   1.8000001E-01
 -1.4000000E-01   9.9999998E-03   2.0000000E-01
 -1.4000000E-01   9.9999998E-03   2.2000000E-01
 -1.4000000E-01   9.9999998E-03   2.3999999E-01
 -1.4000000E-01   9.9999998E-03   2.5999999E-01
 -1.4000000E-01   9.9999998E-03   2.8000000E-01
 -1.4000000E-01   9.9999998E-03   3.0000001E-01
 -1.4000000E-01   9.9999998E-03   3.1999999E-01
 -1.2000000E-01   9.9999998E-03   1.6000000E-01
 -1.2000000E-01   9.9999998E-03   1.8000001E-01
 -1.2000000E-01   9.9999998E-03   2.0000000E-01
 -1.2000000E-01   9.9999998E-03   2.2000000E-01
 -1.2000000E-01   9.9999998E-03   2.3999999E-01
 -1.2000000E-01   9.9999998E-03   2.5999999E-01
 -1.2000000E-01   9.9999998E-03   2.8000000E-01
 -1.2000000E-01   9.9999998E-03   3.0000001E-01
 -1.2000000E-01   9.9999998E-03   3.1999999E-01
 -1.0000000E-01   9.9999998E-03   1.6000000E-01
 -1.0000000E-01   9.9999998E-03   1.8000001E-01
 -1.0000000E-01   9.9999998E-03   2.0000000E-01
 -1.0000000E-01   9.9999998E-03   2.2000000E-01
 -1.0000000E-01   9.9999998E-03   2.3999999E-01
 -1.0000000E-01   9.9999998E-03   2.5999999E-01
 -1.0000000E-01   9.9999998E-03   2.8000000E-01
 -1.0000000E-01   9.9999998E-03   3.0000001E-01
 -1.0000000E-01   9.9999998E-03   3.1999999E-01
 -7.9999998E-02   9.9999998E-03   1.6000000E-01
 -7.9999998E-02   9.9999998E-03   1.8000001E-01
 -7.9999998E-02   9.9999998E-03   2.0000000E-01
 -7.9999998E-02   9.9999998E-03   2.2000000E-01
 -7.9999998E-02   9.9999998E-03   2.3999999E-01
 -7.9999998E-02   9.9999998E-03   2.5999999E-01
 -7.9999998E-02   9.9999998E-03   2.8000000E-01
 -7.9999998E-02   9.9999998E-03   3.0000001E-01
 -7.9999998E-02   9.9999998E-03   3.1999999E-01
 -5.9999999E-02   9.9999998E-03   1.6000000E-01
 -5.9999999E-02   9.9999998E-03   1.8000001E-01
 -5.9999999E-02   9.9999998E-03   2.0000000E-01
 -5.9999999E-02   9.9999998E-03   2.2000000E-01
 -5.9999999E-02   9.9999998E-03   2.3999999E-01
 -5.9999999E-02   9.9999998E-03   2.5999999E-01
 -5.9999999E-02   9.9999998E-03   2.8000000E-01
 -5.9999999E-02   9.9999998E-03   3.0000001E-01
 -5.9999999E-02   9.9999998E-03   3.1999999E-01
 -3.9999999E-02   9.9999998E-03   1.6000000E-01
 -3.9999999E-02   9.9999998E-03   1.8000001E-01
 -3.9999999E-02   9.9999998E-03   2.0000000E-01
 -3.9999999E-02   9.9999998E-03   2.2000000E-01
 -3.9999999E-02   9.9999998E-03   2.3999999E-01
 -3.9999999E-02   9.9999998E-03   2.5999999E-01
 -3.9999999E-02   9.9999998E-03   2.8000000E-01
 -3.9999999E-02   9.9999998E-03   3.0000001E-01
 -3.9999999E-02   9.9999998E-03   3.1999999E-01
 -2.0000000E-02   9.9999998E-03   1.6000000E-01
 -2.0000000E-02   9.9999998E-03   1.8000001E-01
 -2.0000000E-02   9.9999998E-03   2.0000000E-01
 -2.0000000E-02   9.9999998E-03   2.2000000E-01
 -2.0000000E-02   9.9999998E-03   2.3999999E-01
 -2.0000000E-02   9.9999998E-03   2.5999999E-01
 -2.0000000E-02   9.9999998E-03   2.8000000E-01
 -2.0000000E-02   9.9999998E-03   3.0000001E-01
 -2.0000000E-02   9.9999998E-03   3.1999999E-01
  0.0000000E+00   9.9999998E-03   3.0000001E-01
  0.0000000E+00   9.9999998E-03   3.1999999E-01
  2.0000000E-02   9.9999998E-03   3.1999999E-01
  3.9999999E-02   9.9999998E-03   3.1999999E-01
  5.9999999E-02   9.9999998E-03   3.1999999E-01
  7.9999998E-02   9.9999998E-03   3.1999999E-01
  1.0000000E-01   9.9999998E-03   3.1999999E-01
  1.2000000E-01   9.9999998E-03   3.1999999E-01
  1.4000000E-01   9.9999998E-03   3.1999999E-01
  1.6000000E-01   9.9999998E-03   3.1999999E-01
  1.8000001E-01   9.9999998E-03   3.1999999E-01
  2.0000000E-01   9.9999998E-03   3.1999999E-01
 -2.2000000E-01   9.9999998E-03   3.4000000E-01
 -2.2000000E-01   9.9999998E-03   3.6000001E-01
 -2.2000000E-01   9.9999998E-03   3.8000000E-01
 -2.0000000E-01   9.9999998E-03   3.4000000E-01
 -2.0000000E-01   9.9999998E-03   3.6000001E-01
 -2.0000000E-01   9.9999998E-03   3.8000000E-01
 -2.0000000E-01   9.9999998E-03   4.0000001E-01
 -1.8000001E-01   9.9999998E-03   3.4000000E-01
 -1.8000001E-01   9.9999998E-03   3.6000001E-01
 -1.8000001E-01   9.9999998E-03   3.8000000E-01
 -1.8000001E-01   9.9999998E-03   4.0000001E-01
 -1.6000000E-01   9.9999998E-03   3.4000000E-01
 -1.6000000E-01   9.9999998E-03   3.6000001E-01
 -1.6000000E-01   9.9999998E-03   3.8000000E-01
 -1.6000000E-01   9.9999998E-03   4.0000001E-01
 -1.4000000E-01   9.9999998E-03   3.4000000E-01
 -1.4000000E-01   9.9999998E-03   3.6000001E-01
 -1.4000000E-01   9.9999998E-03   3.8000000E-01
 -1.4000000E-01   9.9999998E-03   4.0000001E-01
 -1.2000000E-01   9.9999998E-03   3.4000000E-01
 -1.2000000E-01   9.9999998E-03   3.6000001E-01
 -1.2000000E-01   9.9999998E-03   3.8000000E-01
 -1.2000000E-01   9.9999998E-03   4.0000001E-01
 -1.0000000E-01   9.9999998E-03   3.4000000E-01
 -1.0000000E-01   9.9999998E-03   3.6000001E-01
 -1.0000000E-01   9.9999998E-03   3.8000000E-01
 -1.0000000E-01   9.9999998E-03   4.0000001E-01
 -7.9999998E-02   9.9999998E-03   3.4000000E-01
 -7.9999998E-02   9.9999998E-03   3.6000001E-01
 -7.9999998E-02   9.9999998E-03   3.8000000E-01
 -7.9999998E-02   9.9999998E-03   4.0000001E-01
 -5.9999999E-02   9.9999998E-03   3.4000000E-01
 -5.9999999E-02   9.9999998E-03   3.6000001E-01
 -5.9999999E-02   9.9999998E-03   3.8000000E-01
 -5.9999999E-02   9.9999998E-03   4.0000001E-01
 -3.9999999E-02   9.9999998E-03   3.4000000E-01
 -3.9999999E-02   9.9999998E-03   3.6000001E-01
 -3.9999999E-02   9.9999998E-03   3.8000000E-01
 -3.9999999E-02   9.9999998E-03   4.0000001E-01
 -2.0000000E-02   9.9999998E-03   3.4000000E-01
 -2.0000000E-02   9.9999998E-03   3.6000001E-01
 -2.0000000E-02   9.9999998E-03   3.8000000E-01
 -2.0000000E-02   9.9999998E-03   4.0000001E-01
  0.0000000E+00   9.9999998E-03   3.4000000E-01
  0.0000000E+00   9.9999998E-03   3.6000001E-01
  0.0000000E+00   9.9999998E-03   3.8000000E-01
  0.0000000E+00   9.9999998E-03   4.0000001E-01
  2.0000000E-02   9.9999998E-03   3.4000000E-01
  2.0000000E-02   9.9999998E-03   3.6000001E-01
  2.0000000E-02   9.9999998E-03   3.8000000E-01
  2.0000000E-02   9.9999998E-03   4.0000001E-01
  3.9999999E-02   9.9999998E-03   3.4000000E-01
  3.9999999E-02   9.9999998E-03   3.6000001E-01
  3.9999999E-02   9.9999998E-03   3.8000000E-01
  3.9999999E-02   9.9999998E-03   4.0000001E-01
  5.9999999E-02   9.9999998E-03   3.4000000E-01
  5.9999999E-02   9.9999998E-03   3.6000001E-01
  5.9999999E-02   9.9999998E-03   3.8000000E-01
  5.9999999E-02   9.9999998E-03   4.0000001E-01
  7.9999998E-02   9.9999998E-03   3.4000000E-01
  7.9999998E-02   9.9999998E-03   3.6000001E-01
  7.9999998E-02   9.9999998E-03   3.8000000E-01
  7.9999998E-02   9.9999998E-03   4.0000001E-01
  1.0000000E-01   9.9999998E-03   3.4000000E-01
  1.0000000E-01   9.9999998E-03   3.6000001E-01
  1.0000000E-01   9.9999998E-03   3.8000000E-01
  1.0000000E-01   9.9999998E-03   4.0000001E-01
  1.2000000E-01   9.9999998E-03   3.4000000E-01
  1.2000000E-01   9.9999998E-03   3.6000001E-01
  1.2000000E-01   9.9999998E-03   3.8000000E-01
  1.2000000E-01   9.9999998E-03   4.0000001E-01
  1.4000000E-01   9.9999998E-03   3.4000000E-01
  1.4000000E-01   9.9999998E-03   3.6000001E-01
  1.4000000E-01   9.9999998E-03   3.8000000E-01
  1.4000000E-01   9.9999998E-03   4.0000001E-01
  1.6000000E-01   9.9999998E-03   3.4000000E-01
  1.6000000E-01   9.9999998E-03   3.6000001E-01
  1.6000000E-01   9.9999998E-03   3.8000000E-01
  1.6000000E-01   9.9999998E-03   4.0000001E-01
  1.8000001E-01   9.9999998E-03   3.4000000E-01
  1.8000001E-01   9.9999998E-03   3.6000001E-01
  1.8000001E-01   9.9999998E-03   3.8000000E-01
  1.8000001E-01   9.9999998E-03   4.0000001E-01
  2.0000000E-01   9.9999998E-03   3.4000000E-01
  2.0000000E-01   9.9999998E-03   3.6000001E-01
  2.0000000E-01   9.9999998E-03   3.8000000E-01
  1.9200000E+00   9.9999998E-03  -3.6000001E-01
  1.9200000E+00   9.9999998E-03  -3.4000000E-01
  1.9200000E+00   9.9999998E-03  -3.1999999E-01
  1.9400001E+00   9.9999998E-03  -3.8000000E-01
  1.9400001E+00   9.9999998E-03  -3.6000001E-01
  1.9400001E+00   9.9999998E-03  -3.4000000E-01
  1.9400001E+00   9.9999998E-03  -3.1999999E-01
  1.9400001E+00   9.9999998E-03  -3.0000001E-01
  1.9400001E+00   9.9999998E-03  -2.8000000E-01
  1.9400001E+00   9.9999998E-03  -2.5999999E-01
  1.9400001E+00   9.9999998E-03  -2.3999999E-01
  1.9400001E+00   9.9999998E-03  -2.2000000E-01
  1.9600000E+00   9.9999998E-03  -3.8000000E-01
  1.9600000E+00   9.9999998E-03  -3.6000001E-01
  1.9600000E+00   9.9999998E-03  -3.4000000E-01
  1.9600000E+00   9.9999998E-03  -3.1999999E-01
  1.9600000E+00   9.9999998E-03  -3.0000001E-01
  1.9600000E+00   9.9999998E-03  -2.8000000E-01
  1.9600000E+00   9.9999998E-03  -2.5999999E-01
  1.9600000E+00   9.9999998E-03  -2.3999999E-01
  1.9600000E+00   9.9999998E-03  -2.2000000E-01
  1.9600000E+00   9.9999998E-03  -2.0000000E-01
  1.9600000E+00   9.9999998E-03  -1.8000001E-01
  1.9600000E+00   9.9999998E-03  -1.6000000E-01
  1.9600000E+00   9.9999998E-03  -1.4000000E-01
  1.9600000E+00   9.9999998E-03  -1.2000000E-01
  1.9800000E+00   9.9999998E-03  -3.8000000E-01
  1.9800000E+00   9.9999998E-03  -3.6000001E-01
  1.9800000E+00   9.9999998E-03  -3.4000000E-01
  1.9800000E+00   9.9999998E-03  -3.1999999E-01
  1.9800000E+00   9.9999998E-03  -3.0000001E-01
  1.9800000E+00   9.9999998E-03  -2.8000000E-01
  1.9800000E+00   9.9999998E-03  -2.5999999E-01
  1.9800000E+00   9.9999998E-03  -2.3999999E-01
  1.9800000E+00   9.9999998E-03  -2.2000000E-01
  1.9800000E+00   9.9999998E-03  -2.0000000E-01
  1.9800000E+00   9.9999998E-03  -1.8000001E-01
  1.9800000E+00   9.9999998E-03  -1.6000000E-01
  1.9800000E+00   9.9999998E-03  -1.4000000E-01
  1.9800000E+00   9.9999998E-03  -1.2000000E-01
  1.9800000E+00   9.9999998E-03  -1.0000000E-01
  1.9800000E+00   9.9999998E-03  -7.9999998E-02
  1.9800000E+00   9.9999998E-03  -5.9999999E-02
  1.9800000E+00   9.9999998E-03  -3.9999999E-02
  1.9800000E+00   9.9999998E-03  -2.0000000E-02
  2.0000000E+00   9.9999998E-03  -3.8000000E-01
  2.0000000E+00   9.9999998E-03  -3.6000001E-01
  2.0000000E+00   9.9999998E-03  -3.4000000E-01
  2.0000000E+00   9.9999998E-03  -3.1999999E-01
  2.0000000E+00   9.9999998E-03  -3.0000001E-01
  2.0000000E+00   9.9999998E-03  -2.8000000E-01
  2.0000000E+00   9.9999998E-03  -2.5999999E-01
  2.0000000E+00   9.9999998E-03  -2.3999999E-01
  2.0000000E+00   9.9999998E-03  -2.2000000E-01
  2.0000000E+00   9.9999998E-03  -2.0000000E-01
  2.0000000E+00   9.9999998E-03  -1.8000001E-01
  2.0000000E+00   9.9999998E-03  -1.6000000E-01
  2.0000000E+00   9.9999998E-03  -1.4000000E-01
  2.0000000E+00   9.9999998E-03  -1.2000000E-01
  2.0000000E+00   9.9999998E-03  -1.0000000E-01
  2.0000000E+00   9.9999998E-03  -7.9999998E-02
  2.0000000E+00   9.9999998E-03  -5.9999999E-02
  2.0000000E+00   9.9999998E-03  -3.9999999E-02
  2.0000000E+00   9.9999998E-03  -2.0000000E-02
  2.0000000E+00   9.9999998E-03   0.0000000E+00
  2.0000000E+00   9.9999998E-03   2.0000000E-02
  2.0000000E+00   9.9999998E-03   3.9999999E-02
  2.0000000E+00   9.9999998E-03   5.9999999E-02
  2.0000000E+00   9.9999998E-03   7.9999998E-02
  2.0200000E+00   9.9999998E-03  -4.0000001E-01
  2.0200000E+00   9.9999998E-03  -3.8000000E-01
  2.0200000E+00   9.9999998E-03  -3.6000001E-01
  2.0200000E+00   9.9999998E-03  -3.4000000E-01
  2.0200000E+00   9.9999998E-03  -3.1999999E-01
  2.0200000E+00   9.9999998E-03  -3.0000001E-01
  2.0200000E+00   9.9999998E-03  -2.8000000E-01
  2.0200000E+00   9.9999998E-03  -2.5999999E-01
  2.0200000E+00   9.9999998E-03  -2.3999999E-01
  2.0200000E+00   9.9999998E-03  -2.2000000E-01
  2.0200000E+00   9.9999998E-03  -2.0000000E-01
  2.0200000E+00   9.9999998E-03  -1.8000001E-01
  2.0200000E+00   9.9999998E-03  -1.6000000E-01
  2.0200000E+00   9.9999998E-03  -1.4000000E-01
  2.0200000E+00   9.9999998E-03  -1.2000000E-01
  2.0200000E+00   9.9999998E-03  -1.0000000E-01
  2.0200000E+00   9.9999998E-03  -7.9999998E-02
  2.0200000E+00   9.9999998E-03  -5.9999999E-02
  2.0200000E+00   9.9999998E-03  -3.9999999E-02
  2.0200000E+00   9.9999998E-03  -2.0000000E-02
  2.0200000E+00   9.9999998E-03   0.0000000E+00
  2.0200000E+00   9.9999998E-03   2.0000000E-02
  2.0200000E+00   9.9999998E-03   3.9999999E-02
  2.0200000E+00   9.9999998E-03   5.9999999E-02
  2.0200000E+00   9.9999998E-03   7.9999998E-02
  2.0200000E+00   9.9999998E-03   1.0000000E-01
  2.0200000E+00   9.9999998E-03   1.2000000E-01
  2.0200000E+00   9.9999998E-03   1.4000000E-01
  2.0200000E+00   9.9999998E-03   1.6000000E-01
  2.0200000E+00   9.9999998E-03   1.8000001E-01
  2.0400000E+00   9.9999998E-03  -4.0000001E-01
  2.0400000E+00   9.9999998E-03  -3.8000000E-01
  2.0400000E+00   9.9999998E-03  -3.6000001E-01
  2.0400000E+00   9.9999998E-03  -3.4000000E-01
  2.0400000E+00   9.9999998E-03  -3.1999999E-01
  2.0400000E+00   9.9999998E-03  -3.0000001E-01
  2.0400000E+00   9.9999998E-03  -2.8000000E-01
  2.0400000E+00   9.9999998E-03  -2.5999999E-01
  2.0400000E+00   9.9999998E-03  -2.3999999E-01
  2.0400000E+00   9.9999998E-03  -2.2000000E-01
  2.0400000E+00   9.9999998E-03  -2.0000000E-01
  2.0400000E+00   9.9999998E-03  -1.8000001E-01
  2.0400000E+00   9.9999998E-03  -1.6000000E-01
  2.0400000E+00   9.9999998E-03  -1.4000000E-01
  2.0400000E+00   9.9999998E-03  -1.2000000E-01
  2.0400000E+00   9.9999998E-03  -1.0000000E-01
  2.0400000E+00   9.9999998E-03  -7.9999998E-02
  2.0400000E+00   9.9999998E-03  -5.9999999E-02
  2.0400000E+00   9.9999998E-03  -3.9999999E-02
  2.0400000E+00   9.9999998E-03  -2.0000000E-02
  2.0400000E+00   9.9999998E-03   0.0000000E+00
  2.0400000E+00   9.9999998E-03   2.0000000E-02
  2.0400000E+00   9.9999998E-03   3.9999999E-02
  2.0400000E+00   9.9999998E-03   5.9999999E-02
  2.0400000E+00   9.9999998E-03   7.9999998E-02
  2.0400000E+00   9.9999998E-03   1.0000000E-01
  2.0400000E+00   9.9999998E-03   1.2000000E-01
  2.0400000E+00   9.9999998E-03   1.4000000E-01
  2.0400000E+00   9.9999998E-03   1.6000000E-01
  2.0400000E+00   9.9999998E-03   1.8000001E-01
  2.0400000E+00   9.9999998E-03   2.0000000E-01
  2.0400000E+00   9.9999998E-03   2.2000000E-01
  2.0400000E+00   9.9999998E-03   2.3999999E-01
  2.0400000E+00   9.9999998E-03   2.5999999E-01
  2.0400000E+00   9.9999998E-03   2.8000000E-01
  2.0599999E+00   9.9999998E-03  -4.0000001E-01
  2.0599999E+00   9.9999998E-03  -3.8000000E-01
  2.0599999E+00   9.9999998E-03  -3.6000001E-01
  2.0599999E+00   9.9999998E-03  -3.4000000E-01
  2.0599999E+00   9.9999998E-03  -3.1999999E-01
  2.0599999E+00   9.9999998E-03  -3.0000001E-01
  2.0599999E+00   9.9999998E-03  -2.8000000E-01
  2.0599999E+00   9.9999998E-03  -2.5999999E-01
  2.0599999E+00   9.9999998E-03  -2.3999999E-01
  2.0599999E+00   9.9999998E-03  -2.2000000E-01
  2.0599999E+00   9.9999998E-03  -2.0000000E-01
  2.0599999E+00   9.9999998E-03  -1.8000001E-01
  2.0599999E+00   9.9999998E-03  -1.6000000E-01
  2.0599999E+00   9.9999998E-03  -1.4000000E-01
  2.0599999E+00   9.9999998E-03  -1.2000000E-01
  2.0599999E+00   9.9999998E-03  -1.0000000E-01
  2.0599999E+00   9.9999998E-03  -7.9999998E-02
  2.0599999E+00   9.9999998E-03  -5.9999999E-02
  2.0599999E+00   9.9999998E-03  -3.9999999E-02
  2.0599999E+00   9.9999998E-03  -2.0000000E-02
  2.0599999E+00   9.9999998E-03   0.0000000E+00
  2.0599999E+00   9.9999998E-03   2.0000000E-02
  2.0599999E+00   9.9999998E-03   3.9999999E-02
  2.0599999E+00   9.9999998E-03   5.9999999E-02
  2.0599999E+00   9.9999998E-03   7.9999998E-02
  2.0599999E+00   9.9999998E-03   1.0000000E-01
  2.0599999E+00   9.9999998E-03   1.2000000E-01
  2.0599999E+00   9.9999998E-03   1.4000000E-01
  2.0599999E+00   9.9999998E-03   1.6000000E-01
  2.0599999E+00   9.9999998E-03   1.8000001E-01
  2.0599999E+00   9.9999998E-03   2.0000000E-01
  2.0599999E+00   9.9999998E-03   2.2000000E-01
  2.0599999E+00   9.9999998E-03   2.3999999E-01
  2.0599999E+00   9.9999998E-03   2.5999999E-01
  2.0599999E+00   9.9999998E-03   2.8000000E-01
  2.0599999E+00   9.9999998E-03   3.0000001E-01
  2.0599999E+00   9.9999998E-03   3.1999999E-01
  2.0599999E+00   9.9999998E-03   3.4000000E-01
  2.0599999E+00   9.9999998E-03   3.6000001E-01
  2.0599999E+00   9.9999998E-03   3.8000000E-01
  2.0799999E+00   9.9999998E-03  -4.0000001E-01
  2.0799999E+00   9.9999998E-03  -3.8000000E-01
  2.0799999E+00   9.9999998E-03  -3.6000001E-01
  2.0799999E+00   9.9999998E-03  -3.4000000E-01
  2.0799999E+00   9.9999998E-03  -3.1999999E-01
  2.0799999E+00   9.9999998E-03  -3.0000001E-01
  2.0799999E+00   9.9999998E-03  -2.8000000E-01
  2.0799999E+00   9.9999998E-03  -2.5999999E-01
  2.0799999E+00   9.9999998E-03  -2.3999999E-01
  2.0799999E+00   9.9999998E-03  -2.2000000E-01
  2.0799999E+00   9.9999998E-03  -2.0000000E-01
  2.0799999E+00   9.9999998E-03  -1.8000001E-01
  2.0799999E+00   9.9999998E-03  -1.6000000E-01
  2.0799999E+00   9.9999998E-03  -1.4000000E-01
  2.0799999E+00   9.9999998E-03  -1.2000000E-01
  2.0799999E+00   9.9999998E-03  -1.0000000E-01
  2.0799999E+00   9.9999998E-03  -7.9999998E-02
  2.0799999E+00   9.9999998E-03  -5.9999999E-02
  2.0799999E+00   9.9999998E-03  -3.9999999E-02
  2.0799999E+00   9.9999998E-03  -2.0000000E-02
  2.0799999E+00   9.9999998E-03   0.0000000E+00
  2.0799999E+00   9.9999998E-03   2.0000000E-02
  2.0799999E+00   9.9999998E-03   3.9999999E-02
  2.0799999E+00   9.9999998E-03   5.9999999E-02
  2.0799999E+00   9.9999998E-03   7.9999998E-02
  2.0799999E+00   9.9999998E-03   1.0000000E-01
  2.0799999E+00   9.9999998E-03   1.2000000E-01
  2.0799999E+00   9.9999998E-03   1.4000000E-01
  2.0799999E+00   9.9999998E-03   1.6000000E-01
  2.0799999E+00   9.9999998E-03   1.8000001E-01
  2.0799999E+00   9.9999998E-03   2.0000000E-01
  2.0799999E+00   9.9999998E-03   2.2000000E-01
  2.0799999E+00   9.9999998E-03   2.3999999E-01
  2.0799999E+00   9.9999998E-03   2.5999999E-01
  2.0799999E+00   9.9999998E-03   2.8000000E-01
  2.0799999E+00   9.9999998E-03   3.0000001E-01
  2.0799999E+00   9.9999998E-03   3.1999999E-01
  2.0799999E+00   9.9999998E-03   3.4000000E-01
  2.0799999E+00   9.9999998E-03   3.6000001E-01
  2.0799999E+00   9.9999998E-03   3.8000000E-01
  2.0799999E+00   9.9999998E-03   4.0000001E-01
  2.0999999E+00   9.9999998E-03  -4.0000001E-01
  2.0999999E+00   9.9999998E-03  -3.8000000E-01
  2.0999999E+00   9.9999998E-03  -3.6000001E-01
  2.0999999E+00   9.9999998E-03  -3.4000000E-01
  2.0999999E+00   9.9999998E-03  -3.1999999E-01
  2.0999999E+00   9.9999998E-03  -3.0000001E-01
  2.0999999E+00   9.9999998E-03  -2.8000000E-01
  2.0999999E+00   9.9999998E-03  -2.5999999E-01
  2.0999999E+00   9.9999998E-03  -2.3999999E-01
  2.0999999E+00   9.9999998E-03  -2.2000000E-01
  2.0999999E+00   9.9999998E-03  -2.0000000E-01
  2.0999999E+00   9.9999998E-03  -1.8000001E-01
  2.0999999E+00   9.9999998E-03  -1.6000000E-01
  2.0999999E+00   9.9999998E-03  -1.4000000E-01
  2.0999999E+00   9.9999998E-03  -1.2000000E-01
  2.0999999E+00   9.9999998E-03  -1.0000000E-01
  2.0999999E+00   9.9999998E-03  -7.9999998E-02
  2.0999999E+00   9.9999998E-03  -5.9999999E-02
  2.0999999E+00   9.9999998E-03  -3.9999999E-02
  2.0999999E+00   9.9999998E-03  -2.0000000E-02
  2.0999999E+00   9.9999998E-03   0.0000000E+00
  2.0999999E+00   9.9999998E-03   2.0000000E-02
  2.0999999E+00   9.9999998E-03   3.9999999E-02
  2.0999999E+00   9.9999998E-03   5.9999999E-02
  2.0999999E+00   9.9999998E-03   7.9999998E-02
  2.0999999E+00   9.9999998E-03   1.0000000E-01
  2.0999999E+00   9.9999998E-03   1.2000000E-01
  2.0999999E+00   9.9999998E-03   1.4000000E-01
  2.0999999E+00   9.9999998E-03   1.6000000E-01
  2.0999999E+00   9.9999998E-03   1.8000001E-01
  2.0999999E+00   9.9999998E-03   2.0000000E-01
  2.0999999E+00   9.9999998E-03   2.2000000E-01
  2.0999999E+00   9.9999998E-03   2.3999999E-01
  2.0999999E+00   9.9999998E-03   2.5999999E-01
  2.0999999E+00   9.9999998E-03   2.8000000E-01
  2.0999999E+00   9.9999998E-03   3.0000001E-01
  2.0999999E+00   9.9999998E-03   3.1999999E-01
  2.0999999E+00   9.9999998E-03   3.4000000E-01
  2.0999999E+00   9.9999998E-03   3.6000001E-01
  2.0999999E+00   9.9999998E-03   3.8000000E-01
  2.0999999E+00   9.9999998E-03   4.0000001E-01
  2.1199999E+00   9.9999998E-03  -4.1999999E-01
  2.1199999E+00   9.9999998E-03  -4.0000001E-01
  2.1199999E+00   9.9999998E-03  -3.8000000E-01
  2.1199999E+00   9.9999998E-03  -3.6000001E-01
  2.1199999E+00   9.9999998E-03  -3.4000000E-01
  2.1199999E+00   9.9999998E-03  -3.1999999E-01
  2.1199999E+00   9.9999998E-03  -3.0000001E-01
  2.1199999E+00   9.9999998E-03  -2.8000000E-01
  2.1199999E+00   9.9999998E-03  -2.5999999E-01
  2.1199999E+00   9.9999998E-03  -2.3999999E-01
  2.1199999E+00   9.9999998E-03  -2.2000000E-01
  2.1199999E+00   9.9999998E-03  -2.0000000E-01
  2.1199999E+00   9.9999998E-03  -1.8000001E-01
  2.1199999E+00   9.9999998E-03  -1.6000000E-01
  2.1199999E+00   9.9999998E-03  -1.4000000E-01
  2.1199999E+00   9.9999998E-03  -1.2000000E-01
  2.1199999E+00   9.9999998E-03  -1.0000000E-01
  2.1199999E+00   9.9999998E-03  -7.9999998E-02
  2.1199999E+00   9.9999998E-03  -5.9999999E-02
  2.1199999E+00   9.9999998E-03  -3.9999999E-02
  2.1199999E+00   9.9999998E-03  -2.0000000E-02
  2.1199999E+00   9.9999998E-03   0.0000000E+00
  2.1199999E+00   9.9999998E-03   2.0000000E-02
  2.1199999E+00   9.9999998E-03   3.9999999E-02
  2.1199999E+00   9.9999998E-03   5.9999999E-02
  2.1199999E+00   9.9999998E-03   7.9999998E-02
  2.1199999E+00   9.9999998E-03   1.0000000E-01
  2.1199999E+00   9.9999998E-03   1.2000000E-01
  2.1199999E+00   9.9999998E-03   1.4000000E-01
  2.1199999E+00   9.9999998E-03   1.6000000E-01
  2.1199999E+00   9.9999998E-03   1.8000001E-01
  2.1199999E+00   9.9999998E-03   2.0000000E-01
  2.1199999E+00   9.9999998E-03   2.2000000E-01
  2.1199999E+00   9.9999998E-03   2.3999999E-01
  2.1199999E+00   9.9999998E-03   2.5999999E-01
  2.1199999E+00   9.9999998E-03   2.8000000E-01
  2.1199999E+00   9.9999998E-03   3.0000001E-01
  2.1199999E+00   9.9999998E-03   3.1999999E-01
  2.1199999E+00   9.9999998E-03   3.4000000E-01
  2.1199999E+00   9.9999998E-03   3.6000001E-01
  2.1199999E+00   9.9999998E-03   3.8000000E-01
  2.1199999E+00   9.9999998E-03   4.0000001E-01
  2.1400001E+00   9.9999998E-03  -3.8000000E-01
  2.1400001E+00   9.9999998E-03  -3.6000001E-01
  2.1400001E+00   9.9999998E-03  -3.4000000E-01
  2.1400001E+00   9.9999998E-03  -3.1999999E-01
  2.1400001E+00   9.9999998E-03  -3.0000001E-01
  2.1400001E+00   9.9999998E-03  -2.8000000E-01
  2.1400001E+00   9.9999998E-03  -2.5999999E-01
  2.1400001E+00   9.9999998E-03  -2.3999999E-01
  2.1400001E+00   9.9999998E-03  -2.2000000E-01
  2.1400001E+00   9.9999998E-03  -2.0000000E-01
  2.1400001E+00   9.9999998E-03  -1.8000001E-01
  2.1400001E+00   9.9999998E-03  -1.6000000E-01
  2.1400001E+00   9.9999998E-03  -1.4000000E-01
  2.1400001E+00   9.9999998E-03  -1.2000000E-01
  2.1400001E+00   9.9999998E-03  -1.0000000E-01
  2.1400001E+00   9.9999998E-03  -7.9999998E-02
  2.1400001E+00   9.9999998E-03  -5.9999999E-02
  2.1400001E+00   9.9999998E-03  -3.9999999E-02
  2.1400001E+00   9.9999998E-03  -2.0000000E-02
  2.1400001E+00   9.9999998E-03   0.0000000E+00
  2.1400001E+00   9.9999998E-03   2.0000000E-02
  2.1400001E+00   9.9999998E-03   3.9999999E-02
  2.1400001E+00   9.9999998E-03   5.9999999E-02
  2.1400001E+00   9.9999998E-03   7.9999998E-02
  2.1400001E+00   9.9999998E-03   1.0000000E-01
  2.1400001E+00   9.9999998E-03   1.2000000E-01
  2.1400001E+00   9.9999998E-03   1.4000000E-01
  2.1400001E+00   9.9999998E-03   1.6000000E-01
  2.1400001E+00   9.9999998E-03   1.8000001E-01
  2.1400001E+00   9.9999998E-03   2.0000000E-01
  2.1400001E+00   9.9999998E-03   2.2000000E-01
  2.1400001E+00   9.9999998E-03   2.3999999E-01
  2.1400001E+00   9.9999998E-03   2.5999999E-01
  2.1400001E+00   9.9999998E-03   2.8000000E-01
  2.1400001E+00   9.9999998E-03   3.0000001E-01
  2.1400001E+00   9.9999998E-03   3.1999999E-01
  2.1400001E+00   9.9999998E-03   3.4000000E-01
  2.1400001E+00   9.9999998E-03   3.6000001E-01
  2.1400001E+00   9.9999998E-03   3.8000000E-01
  2.1400001E+00   9.9999998E-03   4.0000001E-01
  2.1600001E+00   9.9999998E-03  -2.8000000E-01
  2.1600001E+00   9.9999998E-03  -2.5999999E-01
  2.1600001E+00   9.9999998E-03  -2.3999999E-01
  2.1600001E+00   9.9999998E-03  -2.2000000E-01
  2.1600001E+00   9.9999998E-03  -2.0000000E-01
  2.1600001E+00   9.9999998E-03  -1.8000001E-01
  2.1600001E+00   9.9999998E-03  -1.6000000E-01
  2.1600001E+00   9.9999998E-03  -1.4000000E-01
  2.1600001E+00   9.9999998E-03  -1.2000000E-01
  2.1600001E+00   9.9999998E-03  -1.0000000E-01
  2.1600001E+00   9.9999998E-03  -7.9999998E-02
  2.1600001E+00   9.9999998E-03  -5.9999999E-02
  2.1600001E+00   9.9999998E-03  -3.9999999E-02
  2.1600001E+00   9.9999998E-03  -2.0000000E-02
  2.1600001E+00   9.9999998E-03   0.0000000E+00
  2.1600001E+00   9.9999998E-03   2.0000000E-02
  2.1600001E+00   9.9999998E-03   3.9999999E-02
  2.1600001E+00   9.9999998E-03   5.9999999E-02
  2.1600001E+00   9.9999998E-03   7.9999998E-02
  2.1600001E+00   9.9999998E-03   1.0000000E-01
  2.1600001E+00   9.9999998E-03   1.2000000E-01
  2.1600001E+00   9.9999998E-03   1.4000000E-01
  2.1600001E+00   9.9999998E-03   1.6000000E-01
  2.1600001E+00   9.9999998E-03   1.8000001E-01
  2.1600001E+00   9.9999998E-03   2.0000000E-01
  2.1600001E+00   9.9999998E-03   2.2000000E-01
  2.1600001E+00   9.9999998E-03   2.3999999E-01
  2.1600001E+00   9.9999998E-03   2.5999999E-01
  2.1600001E+00   9.9999998E-03   2.8000000E-01
  2.1600001E+00   9.9999998E-03   3.0000001E-01
  2.1600001E+00   9.9999998E-03   3.1999999E-01
  2.1600001E+00   9.9999998E-03   3.4000000E-01
  2.1600001E+00   9.9999998E-03   3.6000001E-01
  2.1600001E+00   9.9999998E-03   3.8000000E-01
  2.1600001E+00   9.9999998E-03   4.0000001E-01
  2.1800001E+00   9.9999998E-03  -1.8000001E-01
  2.1800001E+00   9.9999998E-03  -1.6000000E-01
  2.1800001E+00   9.9999998E-03  -1.4000000E-01
  2.1800001E+00   9.9999998E-03  -1.2000000E-01
  2.1800001E+00   9.9999998E-03  -1.0000000E-01
  2.1800001E+00   9.9999998E-03  -7.9999998E-02
  2.1800001E+00   9.9999998E-03  -5.9999999E-02
  2.1800001E+00   9.9999998E-03  -3.9999999E-02
  2.1800001E+00   9.9999998E-03  -2.0000000E-02
  2.1800001E+00   9.9999998E-03   0.0000000E+00
  2.1800001E+00   9.9999998E-03   2.0000000E-02
  2.1800001E+00   9.9999998E-03   3.9999999E-02
  2.1800001E+00   9.9999998E-03   5.9999999E-02
  2.1800001E+00   9.9999998E-03   7.9999998E-02
  2.1800001E+00   9.9999998E-03   1.0000000E-01
  2.1800001E+00   9.9999998E-03   1.2000000E-01
  2.1800001E+00   9.9999998E-03   1.4000000E-01
  2.1800001E+00   9.9999998E-03   1.6000000E-01
  2.1800001E+00   9.9999998E-03   1.8000001E-01
  2.1800001E+00   9.9999998E-03   2.0000000E-01
  2.1800001E+00   9.9999998E-03   2.2000000E-01
  2.1800001E+00   9.9999998E-03   2.3999999E-01
  2.1800001E+00   9.9999998E-03   2.5999999E-01
  2.1800001E+00   9.9999998E-03   2.8000000E-01
  2.1800001E+00   9.9999998E-03   3.0000001E-01
  2.1800001E+00   9.9999998E-03   3.1999999E-01
  2.1800001E+00   9.9999998E-03   3.4000000E-01
  2.1800001E+00   9.9999998E-03   3.6000001E-01
  2.1800001E+00   9.9999998E-03   3.8000000E-01
  2.1800001E+00   9.9999998E-03   4.0000001E-01
  2.2000000E+00   9.9999998E-03  -7.9999998E-02
  2.2000000E+00   9.9999998E-03  -5.9999999E-02
  2.2000000E+00   9.9999998E-03  -3.9999999E-02
  2.2000000E+00   9.9999998E-03  -2.0000000E-02
  2.2000000E+00   9.9999998E-03   0.0000000E+00
  2.2000000E+00   9.9999998E-03   2.0000000E-02
  2.2000000E+00   9.9999998E-03   3.9999999E-02
  2.2000000E+00   9.9999998E-03   5.9999999E-02
  2.2000000E+00   9.9999998E-03   7.9999998E-02
  2.2000000E+00   9.9999998E-03   1.0000000E-01
  2.2000000E+00   9.9999998E-03   1.2000000E-01
  2.2000000E+00   9.9999998E-03   1.4000000E-01
  2.2000000E+00   9.9999998E-03   1.6000000E-01
  2.2000000E+00   9.9999998E-03   1.8000001E-01
  2.2000000E+00   9.9999998E-03   2.0000000E-01
  2.2000000E+00   9.9999998E-03   2.2000000E-01
  2.2000000E+00   9.9999998E-03   2.3999999E-01
  2.2000000E+00   9.9999998E-03   2.5999999E-01
  2.2000000E+00   9.9999998E-03   2.8000000E-01
  2.2000000E+00   9.9999998E-03   3.0000001E-01
  2.2000000E+00   9.9999998E-03   3.1999999E-01
  2.2000000E+00   9.9999998E-03   3.4000000E-01
  2.2000000E+00   9.9999998E-03   3.6000001E-01
  2.2000000E+00   9.9999998E-03   3.8000000E-01
  2.2200000E+00   9.9999998E-03   2.0000000E-02
  2.2200000E+00   9.9999998E-03   3.9999999E-02
  2.2200000E+00   9.9999998E-03   5.9999999E-02
  2.2200000E+00   9.9999998E-03   7.9999998E-02
  2.2200000E+00   9.9999998E-03   1.0000000E-01
  2.2200000E+00   9.9999998E-03   1.2000000E-01
  2.2200000E+00   9.9999998E-03   1.4000000E-01
  2.2200000E+00   9.9999998E-03   1.6000000E-01
  2.2200000E+00   9.9999998E-03   1.8000001E-01
  2.2200000E+00   9.9999998E-03   2.0000000E-01
  2.2200000E+00   9.9999998E-03   2.2000000E-01
  2.2200000E+00   9.9999998E-03   2.3999999E-01
  2.2200000E+00   9.9999998E-03   2.5999999E-01
  2.2200000E+00   9.9999998E-03   2.8000000E-01
  2.2200000E+00   9.9999998E-03   3.0000001E-01
  2.2200000E+00   9.9999998E-03   3.1999999E-01
  2.2200000E+00   9.9999998E-03   3.4000000E-01
  2.2200000E+00   9.9999998E-03   3.6000001E-01
  2.2200000E+00   9.9999998E-03   3.8000000E-01
  2.2400000E+00   9.9999998E-03   1.2000000E-01
  2.2400000E+00   9.9999998E-03   1.4000000E-01
  2.2400000E+00   9.9999998E-03   1.6000000E-01
  2.2400000E+00   9.9999998E-03   1.8000001E-01
  2.2400000E+00   9.9999998E-03   2.0000000E-01
  2.2400000E+00   9.9999998E-03   2.2000000E-01
  2.2400000E+00   9.9999998E-03   2.3999999E-01
  2.2400000E+00   9.9999998E-03   2.5999999E-01
  2.2400000E+00   9.9999998E-03   2.8000000E-01
  2.2400000E+00   9.9999998E-03   3.0000001E-01
  2.2400000E+00   9.9999998E-03   3.1999999E-01
  2.2400000E+00   9.9999998E-03   3.4000000E-01
  2.2400000E+00   9.9999998E-03   3.6000001E-01
  2.2400000E+00   9.9999998E-03   3.8000000E-01
  2.2600000E+00   9.9999998E-03   2.2000000E-01
  2.2600000E+00   9.9999998E-03   2.3999999E-01
  2.2600000E+00   9.9999998E-03   2.5999999E-01
  2.2600000E+00   9.9999998E-03   2.8000000E-01
  2.2600000E+00   9.9999998E-03   3.0000001E-01
  2.2600000E+00   9.9999998E-03   3.1999999E-01
  2.2600000E+00   9.9999998E-03   3.4000000E-01
  2.2600000E+00   9.9999998E-03   3.6000001E-01
  2.2600000E+00   9.9999998E-03   3.8000000E-01
  2.2800000E+00   9.9999998E-03   3.1999999E-01
  2.2800000E+00   9.9999998E-03   3.4000000E-01
  2.2800000E+00   9.9999998E-03   3.6000001E-01
 -6.8447768E-08   9.9999998E-03  -2.8000003E-01
 -8.2753900E-08   9.9999998E-03  -2.6000002E-01
 -9.4828309E-08   9.9999998E-03  -2.4000002E-01
 -1.0435986E-07   9.9999998E-03  -2.2000001E-01
 -1.1170929E-07   9.9999998E-03  -2.0000002E-01
  1.9999927E-02   9.9999998E-03  -3.0000004E-01
  1.9999901E-02   9.9999998E-03  -2.8000003E-01
  1.9999878E-02   9.9999998E-03  -2.6000002E-01
  1.9999860E-02   9.9999998E-03  -2.4000002E-01
  1.9999845E-02   9.9999998E-03  -2.2000003E-01
  1.9999836E-02   9.9999998E-03  -2.0000002E-01
  3.9999895E-02   9.9999998E-03  -3.0000004E-01
  3.9999858E-02   9.9999998E-03  -2.8000003E-01
  3.9999824E-02   9.9999998E-03  -2.6000005E-01
  3.9999798E-02   9.9999998E-03  -2.4000004E-01
  3.9999776E-02   9.9999998E-03  -2.2000004E-01
  3.9999761E-02   9.9999998E-03  -2.0000003E-01
  5.9999853E-02   9.9999998E-03  -3.0000004E-01
  5.9999797E-02   9.9999998E-03  -2.8000006E-01
  5.9999753E-02   9.9999998E-03  -2.6000005E-01
  5.9999716E-02   9.9999998E-03  -2.4000005E-01
  5.9999689E-02   9.9999998E-03  -2.2000004E-01
  5.9999671E-02   9.9999998E-03  -2.0000003E-01
  7.9999797E-02   9.9999998E-03  -3.0000007E-01
  7.9999723E-02   9.9999998E-03  -2.8000006E-01
  7.9999663E-02   9.9999998E-03  -2.6000005E-01
  7.9999618E-02   9.9999998E-03  -2.4000005E-01
  7.9999581E-02   9.9999998E-03  -2.2000006E-01
  7.9999559E-02   9.9999998E-03  -2.0000005E-01
  9.9999726E-02   9.9999998E-03  -3.0000007E-01
  9.9999629E-02   9.9999998E-03  -2.8000009E-01
  9.9999547E-02   9.9999998E-03  -2.6000008E-01
  9.9999487E-02   9.9999998E-03  -2.4000007E-01
  9.9999443E-02   9.9999998E-03  -2.2000006E-01
  9.9999413E-02   9.9999998E-03  -2.0000005E-01
  1.1999962E-01   9.9999998E-03  -3.0000010E-01
  1.1999950E-01   9.9999998E-03  -2.8000009E-01
  1.1999940E-01   9.9999998E-03  -2.6000008E-01
  1.1999933E-01   9.9999998E-03  -2.4000008E-01
  1.1999927E-01   9.9999998E-03  -2.2000007E-01
  1.1999924E-01   9.9999998E-03  -2.0000006E-01
  1.3999949E-01   9.9999998E-03  -3.0000013E-01
  1.3999933E-01   9.9999998E-03  -2.8000012E-01
  1.3999921E-01   9.9999998E-03  -2.6000011E-01
  1.3999912E-01   9.9999998E-03  -2.4000010E-01
  1.3999905E-01   9.9999998E-03  -2.2000009E-01
  1.3999902E-01   9.9999998E-03  -2.0000008E-01
  1.5999933E-01   9.9999998E-03  -3.0000019E-01
  1.5999912E-01   9.9999998E-03  -2.8000015E-01
  1.5999897E-01   9.9999998E-03  -2.6000014E-01
  1.5999885E-01   9.9999998E-03  -2.4000013E-01
  1.5999877E-01   9.9999998E-03  -2.2000012E-01
  1.5999873E-01   9.9999998E-03  -2.0000009E-01
  1.7999908E-01   9.9999998E-03  -3.0000022E-01
  1.7999883E-01   9.9999998E-03  -2.8000021E-01
  1.7999865E-01   9.9999998E-03  -2.6000017E-01
  1.7999852E-01   9.9999998E-03  -2.4000016E-01
  1.7999843E-01   9.9999998E-03  -2.2000015E-01
  1.7999837E-01   9.9999998E-03  -2.0000012E-01
  1.9999875E-01   9.9999998E-03  -3.0000028E-01
  1.9999845E-01   9.9999998E-03  -2.8000024E-01
  1.9999824E-01   9.9999998E-03  -2.6000023E-01
  1.9999808E-01   9.9999998E-03  -2.4000020E-01
  1.9999798E-01   9.9999998E-03  -2.2000019E-01
  1.9999792E-01   9.9999998E-03  -2.0000017E-01
  2.1999833E-01   9.9999998E-03  -3.0000046E-01
  2.1999797E-01   9.9999998E-03  -2.8000036E-01
  2.1999772E-01   9.9999998E-03  -2.6000032E-01
  2.1999754E-01   9.9999998E-03  -2.4000028E-01
  2.1999742E-01   9.9999998E-03  -2.2000025E-01
  2.1999736E-01   9.9999998E-03  -2.0000021E-01
  2.3999773E-01   9.9999998E-03  -3.0000085E-01
  2.3999733E-01   9.9999998E-03  -2.8000063E-01
  2.3999704E-01   9.9999998E-03  -2.6000047E-01
  2.3999685E-01   9.9999998E-03  -2.4000040E-01
  2.3999672E-01   9.9999998E-03  -2.2000033E-01
  2.3999666E-01   9.9999998E-03  -2.0000027E-01
  2.5999689E-01   9.9999998E-03  -3.0000132E-01
  2.5999647E-01   9.9999998E-03  -2.8000098E-01
  2.5999618E-01   9.9999998E-03  -2.6000074E-01
  2.5999597E-01   9.9999998E-03  -2.4000056E-01
  2.5999585E-01   9.9999998E-03  -2.2000046E-01
  2.5999579E-01   9.9999998E-03  -2.0000036E-01
  2.7999577E-01   9.9999998E-03  -3.0000186E-01
  2.7999535E-01   9.9999998E-03  -2.8000140E-01
  2.7999505E-01   9.9999998E-03  -2.6000103E-01
  2.7999485E-01   9.9999998E-03  -2.4000078E-01
  2.7999476E-01   9.9999998E-03  -2.2000062E-01
  2.7999470E-01   9.9999998E-03  -2.0000048E-01
  2.9999438E-01   9.9999998E-03  -3.0000240E-01
  2.9999396E-01   9.9999998E-03  -2.8000185E-01
  2.9999366E-01   9.9999998E-03  -2.6000139E-01
  2.9999349E-01   9.9999998E-03  -2.4000105E-01
  2.9999340E-01   9.9999998E-03  -2.2000082E-01
  2.9999334E-01   9.9999998E-03  -2.0000063E-01
  3.1999272E-01   9.9999998E-03  -3.0000299E-01
  3.1999227E-01   9.9999998E-03  -2.8000236E-01
  3.1999198E-01   9.9999998E-03  -2.6000178E-01
  3.1999177E-01   9.9999998E-03  -2.4000135E-01
  3.1999171E-01   9.9999998E-03  -2.2000104E-01
  3.1999168E-01   9.9999998E-03  -2.0000079E-01
  3.3999076E-01   9.9999998E-03  -3.0000368E-01
  3.3999023E-01   9.9999998E-03  -2.8000292E-01
  3.3998990E-01   9.9999998E-03  -2.6000223E-01
  3.3998969E-01   9.9999998E-03  -2.4000169E-01
  3.3998963E-01   9.9999998E-03  -2.2000130E-01
  3.3998966E-01   9.9999998E-03  -2.0000097E-01
  3.5998836E-01   9.9999998E-03  -3.0000454E-01
  3.5998774E-01   9.9999998E-03  -2.8000361E-01
  3.5998732E-01   9.9999998E-03  -2.6000276E-01
  3.5998714E-01   9.9999998E-03  -2.4000210E-01
  3.5998708E-01   9.9999998E-03  -2.2000159E-01
  3.5998714E-01   9.9999998E-03  -2.0000118E-01
  3.7998542E-01   9.9999998E-03  -3.0000558E-01
  3.7998465E-01   9.9999998E-03  -2.8000441E-01
  3.7998420E-01   9.9999998E-03  -2.6000336E-01
  3.7998399E-01   9.9999998E-03  -2.4000254E-01
  3.7998396E-01   9.9999998E-03  -2.2000192E-01
  3.7998411E-01   9.9999998E-03  -2.0000140E-01
  3.9998180E-01   9.9999998E-03  -3.0000684E-01
  3.9998087E-01   9.9999998E-03  -2.8000540E-01
  3.9998034E-01   9.9999998E-03  -2.6000410E-01
  3.9998013E-01   9.9999998E-03  -2.4000306E-01
  3.9998019E-01   9.9999998E-03  -2.2000229E-01
  3.9998040E-01   9.9999998E-03  -2.0000167E-01
  4.1997731E-01   9.9999998E-03  -3.0000839E-01
  4.1997623E-01   9.9999998E-03  -2.8000659E-01
  4.1997564E-01   9.9999998E-03  -2.6000494E-01
  4.1997543E-01   9.9999998E-03  -2.4000366E-01
  4.1997558E-01   9.9999998E-03  -2.2000273E-01
  4.1997594E-01   9.9999998E-03  -2.0000200E-01
  4.3997177E-01   9.9999998E-03  -3.0001026E-01
  4.3997049E-01   9.9999998E-03  -2.8000799E-01
  4.3996984E-01   9.9999998E-03  -2.6000589E-01
  4.3996972E-01   9.9999998E-03  -2.4000435E-01
  4.3997002E-01   9.9999998E-03  -2.2000323E-01
  4.3997058E-01   9.9999998E-03  -2.0000240E-01
  4.5996487E-01   9.9999998E-03  -3.0001259E-01
  4.5996341E-01   9.9999998E-03  -2.8000966E-01
  4.5996276E-01   9.9999998E-03  -2.6000702E-01
  4.5996279E-01   9.9999998E-03  -2.4000515E-01
  4.5996332E-01   9.9999998E-03  -2.2000389E-01
  4.5996416E-01   9.9999998E-03  -2.0000298E-01
  4.7995624E-01   9.9999998E-03  -3.0001542E-01
  4.7995469E-01   9.9999998E-03  -2.8001162E-01
  4.7995412E-01   9.9999998E-03  -2.6000834E-01
  4.7995442E-01   9.9999998E-03  -2.4000618E-01
  4.7995529E-01   9.9999998E-03  -2.2000480E-01
  4.7995651E-01   9.9999998E-03  -2.0000386E-01
  4.9994540E-01   9.9999998E-03  -3.0001894E-01
  4.9994391E-01   9.9999998E-03  -2.8001398E-01
  4.9994364E-01   9.9999998E-03  -2.6000991E-01
  4.9994439E-01   9.9999998E-03  -2.4000758E-01
  4.9994570E-01   9.9999998E-03  -2.2000617E-01
  4.9994740E-01   9.9999998E-03  -2.0000525E-01
  5.1993167E-01   9.9999998E-03  -3.0002329E-01
  5.1993072E-01   9.9999998E-03  -2.8001690E-01
  5.1993114E-01   9.9999998E-03  -2.6001206E-01
  5.1993251E-01   9.9999998E-03  -2.4000970E-01
  5.1993448E-01   9.9999998E-03  -2.2000833E-01
  5.1993674E-01   9.9999998E-03  -2.0000742E-01
  5.3991461E-01   9.9999998E-03  -3.0002880E-01
  5.3991497E-01   9.9999998E-03  -2.8002071E-01
  5.3991652E-01   9.9999998E-03  -2.6001522E-01
  5.3991896E-01   9.9999998E-03  -2.4001297E-01
  5.3992164E-01   9.9999998E-03  -2.2001171E-01
  5.3992450E-01   9.9999998E-03  -2.0001075E-01
  5.5989403E-01   9.9999998E-03  -3.0003610E-01
  5.5989677E-01   9.9999998E-03  -2.8002620E-01
  5.5990022E-01   9.9999998E-03  -2.6002014E-01
  5.5990386E-01   9.9999998E-03  -2.4001801E-01
  5.5990744E-01   9.9999998E-03  -2.2001675E-01
  5.5991095E-01   9.9999998E-03  -2.0001554E-01
  5.7987070E-01   9.9999998E-03  -3.0004621E-01
  5.7987702E-01   9.9999998E-03  -2.8003460E-01
  5.7988286E-01   9.9999998E-03  -2.6002780E-01
  5.7988793E-01   9.9999998E-03  -2.4002536E-01
  5.7989246E-01   9.9999998E-03  -2.2002386E-01
  5.7989657E-01   9.9999998E-03  -2.0002191E-01
  5.9984672E-01   9.9999998E-03  -3.0006072E-01
  5.9985697E-01   9.9999998E-03  -2.8004789E-01
  5.9986526E-01   9.9999998E-03  -2.6003942E-01
  5.9987199E-01   9.9999998E-03  -2.4003562E-01
  5.9987730E-01   9.9999998E-03  -2.2003271E-01
  5.9988201E-01   9.9999998E-03  -2.0002963E-01
  6.1982518E-01   9.9999998E-03  -3.0008209E-01
  6.1983860E-01   9.9999998E-03  -2.8006896E-01
  6.1984867E-01   9.9999998E-03  -2.6005751E-01
  6.1985618E-01   9.9999998E-03  -2.4004926E-01
  6.1986256E-01   9.9999998E-03  -2.2004361E-01
  6.1986810E-01   9.9999998E-03  -2.0003869E-01
  6.3980901E-01   9.9999998E-03  -3.0011237E-01
  6.3982415E-01   9.9999998E-03  -2.8010076E-01
  6.3983512E-01   9.9999998E-03  -2.6008698E-01
  6.3984275E-01   9.9999998E-03  -2.4007057E-01
  6.3984936E-01   9.9999998E-03  -2.2005813E-01
  6.3985568E-01   9.9999998E-03  -2.0004977E-01
  6.5980077E-01   9.9999998E-03  -3.0014798E-01
  6.5981621E-01   9.9999998E-03  -2.8014052E-01
  6.5982795E-01   9.9999998E-03  -2.6012793E-01
  6.5983456E-01   9.9999998E-03  -2.4010240E-01
  6.5984064E-01   9.9999998E-03  -2.2007991E-01
  6.5984702E-01   9.9999998E-03  -2.0006499E-01
  6.7980647E-01   9.9999998E-03  -3.0018038E-01
  6.7981786E-01   9.9999998E-03  -2.8017727E-01
  6.7982912E-01   9.9999998E-03  -2.6016790E-01
  6.7983389E-01   9.9999998E-03  -2.4013716E-01
  6.7983830E-01   9.9999998E-03  -2.2010535E-01
  6.7984408E-01   9.9999998E-03  -2.0008326E-01
  6.9983852E-01   9.9999998E-03  -3.0020446E-01
  6.9983727E-01   9.9999998E-03  -2.8020355E-01
  6.9984353E-01   9.9999998E-03  -2.6019827E-01
  6.9984591E-01   9.9999998E-03  -2.4016580E-01
  6.9984800E-01   9.9999998E-03  -2.2012888E-01
  6.9985259E-01   9.9999998E-03  -2.0010164E-01
  7.1988636E-01   9.9999998E-03  -3.0021986E-01
  7.1988147E-01   9.9999998E-03  -2.8021812E-01
  7.1987933E-01   9.9999998E-03  -2.6021484E-01
  7.1987903E-01   9.9999998E-03  -2.4018325E-01
  7.1988112E-01   9.9999998E-03  -2.2014444E-01
  7.1988535E-01   9.9999998E-03  -2.0011477E-01
  7.3992985E-01   9.9999998E-03  -3.0022919E-01
  7.3992616E-01   9.9999998E-03  -2.8022552E-01
  7.3992407E-01   9.9999998E-03  -2.6022100E-01
  7.3992342E-01   9.9999998E-03  -2.4018946E-01
  7.3992467E-01   9.9999998E-03  -2.2015099E-01
  7.3992741E-01   9.9999998E-03  -2.0012121E-01
  7.5996363E-01   9.9999998E-03  -3.0023494E-01
  7.5996131E-01   9.9999998E-03  -2.8022942E-01
  7.5995988E-01   9.9999998E-03  -2.6022345E-01
  7.5995916E-01   9.9999998E-03  -2.4019186E-01
  7.5995958E-01   9.9999998E-03  -2.2015415E-01
  7.5996095E-01   9.9999998E-03  -2.0012476E-01
  7.7998853E-01   9.9999998E-03  -3.0023819E-01
  7.7998739E-01   9.9999998E-03  -2.8023148E-01
  7.7998662E-01   9.9999998E-03  -2.6022431E-01
  7.7998608E-01   9.9999998E-03  -2.4019247E-01
  7.7998590E-01   9.9999998E-03  -2.2015522E-01
  7.7998620E-01   9.9999998E-03  -2.0012625E-01
  8.0000812E-01   9.9999998E-03  -3.0023947E-01
  8.0000806E-01   9.9999998E-03  -2.8023219E-01
  8.0000788E-01   9.9999998E-03  -2.6022425E-01
  8.0000752E-01   9.9999998E-03  -2.4019215E-01
  8.0000699E-01   9.9999998E-03  -2.2015491E-01
  8.0000651E-01   9.9999998E-03  -2.0012617E-01
  8.2002616E-01   9.9999998E-03  -3.0023894E-01
  8.2002717E-01   9.9999998E-03  -2.8023171E-01
  8.2002735E-01   9.9999998E-03  -2.6022357E-01
  8.2002723E-01   9.9999998E-03  -2.4019106E-01
  8.2002640E-01   9.9999998E-03  -2.2015354E-01
  8.2002521E-01   9.9999998E-03  -2.0012484E-01
  8.4004486E-01   9.9999998E-03  -3.0023542E-01
  8.4004664E-01   9.9999998E-03  -2.8022841E-01
  8.4004700E-01   9.9999998E-03  -2.6022017E-01
  8.4004706E-01   9.9999998E-03  -2.4018779E-01
  8.4004599E-01   9.9999998E-03  -2.2015050E-01
  8.4004408E-01   9.9999998E-03  -2.0012221E-01
  8.6006403E-01   9.9999998E-03  -3.0022886E-01
  8.6006653E-01   9.9999998E-03  -2.8022200E-01
  8.6006683E-01   9.9999998E-03  -2.6021370E-01
  8.6006707E-01   9.9999998E-03  -2.4018210E-01
  8.6006576E-01   9.9999998E-03  -2.2014572E-01
  8.6006314E-01   9.9999998E-03  -2.0011821E-01
  8.8008237E-01   9.9999998E-03  -3.0021957E-01
  8.8008541E-01   9.9999998E-03  -2.8021282E-01
  8.8008565E-01   9.9999998E-03  -2.6020432E-01
  8.8008606E-01   9.9999998E-03  -2.4017400E-01
  8.8008446E-01   9.9999998E-03  -2.2013921E-01
  8.8008112E-01   9.9999998E-03  -2.0011294E-01
  9.0009856E-01   9.9999998E-03  -3.0020803E-01
  9.0010178E-01   9.9999998E-03  -2.8020123E-01
  9.0010166E-01   9.9999998E-03  -2.6019239E-01
  9.0010232E-01   9.9999998E-03  -2.4016361E-01
  9.0010059E-01   9.9999998E-03  -2.2013110E-01
  9.0009665E-01   9.9999998E-03  -2.0010646E-01
  9.2011142E-01   9.9999998E-03  -3.0019471E-01
  9.2011416E-01   9.9999998E-03  -2.8018770E-01
  9.2011386E-01   9.9999998E-03  -2.6017851E-01
  9.2011470E-01   9.9999998E-03  -2.4015151E-01
  9.2011285E-01   9.9999998E-03  -2.2012168E-01
  9.2010790E-01   9.9999998E-03  -2.0009902E-01
  9.4012010E-01   9.9999998E-03  -3.0018017E-01
  9.4012254E-01   9.9999998E-03  -2.8017306E-01
  9.4012213E-01   9.9999998E-03  -2.6016364E-01
  9.4012284E-01   9.9999998E-03  -2.4013853E-01
  9.4011873E-01   9.9999998E-03  -2.2011150E-01
  9.4011158E-01   9.9999998E-03  -2.0009103E-01
  9.6012604E-01   9.9999998E-03  -3.0016509E-01
  9.6012813E-01   9.9999998E-03  -2.8015795E-01
  9.6012729E-01   9.9999998E-03  -2.6014856E-01
  9.6012592E-01   9.9999998E-03  -2.4012549E-01
  9.6011925E-01   9.9999998E-03  -2.2010104E-01
  9.6011126E-01   9.9999998E-03  -2.0008275E-01
  9.8013103E-01   9.9999998E-03  -3.0014983E-01
  9.8013228E-01   9.9999998E-03  -2.8014278E-01
  9.8013026E-01   9.9999998E-03  -2.6013368E-01
  9.8012608E-01   9.9999998E-03  -2.4011268E-01
  9.8011786E-01   9.9999998E-03  -2.2009057E-01
  9.8010933E-01   9.9999998E-03  -2.0007454E-01
  1.0001369E+00   9.9999998E-03  -3.0013469E-01
  1.0001363E+00   9.9999998E-03  -2.8012788E-01
  1.0001321E+00   9.9999998E-03  -2.6011935E-01
  1.0001252E+00   9.9999998E-03  -2.4010034E-01
  1.0001154E+00   9.9999998E-03  -2.2008058E-01
  1.0001065E+00   9.9999998E-03  -2.0006680E-01
  1.0201452E+00   9.9999998E-03  -3.0012012E-01
  1.0201410E+00   9.9999998E-03  -2.8011376E-01
  1.0201337E+00   9.9999998E-03  -2.6010615E-01
  1.0201238E+00   9.9999998E-03  -2.4008916E-01
  1.0201126E+00   9.9999998E-03  -2.2007187E-01
  1.0201033E+00   9.9999998E-03  -2.0005986E-01
  1.0401576E+00   9.9999998E-03  -3.0010805E-01
  1.0401478E+00   9.9999998E-03  -2.8010178E-01
  1.0401360E+00   9.9999998E-03  -2.6009461E-01
  1.0401227E+00   9.9999998E-03  -2.4007986E-01
  1.0401100E+00   9.9999998E-03  -2.2006465E-01
  1.0401000E+00   9.9999998E-03  -2.0005350E-01
  1.0601709E+00   9.9999998E-03  -3.0009931E-01
  1.0601553E+00   9.9999998E-03  -2.8009269E-01
  1.0601388E+00   9.9999998E-03  -2.6008561E-01
  1.0601220E+00   9.9999998E-03  -2.4007268E-01
  1.0601077E+00   9.9999998E-03  -2.2005884E-01
  1.0600966E+00   9.9999998E-03  -2.0004816E-01
  1.0801803E+00   9.9999998E-03  -3.0009201E-01
  1.0801610E+00   9.9999998E-03  -2.8008553E-01
  1.0801415E+00   9.9999998E-03  -2.6007852E-01
  1.0801221E+00   9.9999998E-03  -2.4006720E-01
  1.0801061E+00   9.9999998E-03  -2.2005445E-01
  1.0800937E+00   9.9999998E-03  -2.0004390E-01
  1.1001630E+00   9.9999998E-03  -2.8007931E-01
  1.1001433E+00   9.9999998E-03  -2.6007259E-01
  1.1001230E+00   9.9999998E-03  -2.4006300E-01
  1.1001054E+00   9.9999998E-03  -2.2005118E-01
  1.1000917E+00   9.9999998E-03  -2.0004065E-01
  1.1201619E+00   9.9999998E-03  -2.8007415E-01
  1.1201441E+00   9.9999998E-03  -2.6006791E-01
  1.1201248E+00   9.9999998E-03  -2.4005975E-01
  1.1201060E+00   9.9999998E-03  -2.2004899E-01
  1.1200906E+00   9.9999998E-03  -2.0003840E-01
  1.1401436E+00   9.9999998E-03  -2.6006454E-01
  1.1401266E+00   9.9999998E-03  -2.4005754E-01
  1.1401081E+00   9.9999998E-03  -2.2004811E-01
  1.1400911E+00   9.9999998E-03  -2.0003748E-01
  1.1601419E+00   9.9999998E-03  -2.6006192E-01
  1.1601280E+00   9.9999998E-03  -2.4005637E-01
  1.1601113E+00   9.9999998E-03  -2.2004826E-01
  1.1600939E+00   9.9999998E-03  -2.0003828E-01
  1.1801277E+00   9.9999998E-03  -2.4005541E-01
  1.1801144E+00   9.9999998E-03  -2.2004904E-01
  1.1800985E+00   9.9999998E-03  -2.0004036E-01
  1.2001157E+00   9.9999998E-03  -2.2004944E-01
  1.2001034E+00   9.9999998E-03  -2.0004259E-01
  1.2201134E+00   9.9999998E-03  -2.2004853E-01
  1.2201059E+00   9.9999998E-03  -2.0004408E-01
 -1.1714914E-07   9.9999998E-03  -1.8000001E-01
 -1.2108194E-07   9.9999998E-03  -1.6000001E-01
 -1.2380363E-07   9.9999998E-03  -1.4000002E-01
 -1.2564594E-07   9.9999998E-03  -1.2000000E-01
 -1.2685157E-07   9.9999998E-03  -1.0000001E-01
 -1.2760988E-07   9.9999998E-03  -8.0000006E-02
 -1.2807125E-07   9.9999998E-03  -6.0000002E-02
 -1.2833443E-07   9.9999998E-03  -4.0000003E-02
 -1.2846657E-07   9.9999998E-03  -2.0000001E-02
  1.9999826E-02   9.9999998E-03  -1.8000002E-01
  1.9999823E-02   9.9999998E-03  -1.6000001E-01
  1.9999819E-02   9.9999998E-03  -1.4000002E-01
  1.9999815E-02   9.9999998E-03  -1.2000001E-01
  1.9999813E-02   9.9999998E-03  -1.0000001E-01
  1.9999813E-02   9.9999998E-03  -8.0000006E-02
  1.9999813E-02   9.9999998E-03  -6.0000002E-02
  1.9999813E-02   9.9999998E-03  -4.0000003E-02
  1.9999811E-02   9.9999998E-03  -2.0000001E-02
  3.9999753E-02   9.9999998E-03  -1.8000002E-01
  3.9999746E-02   9.9999998E-03  -1.6000003E-01
  3.9999738E-02   9.9999998E-03  -1.4000002E-01
  3.9999738E-02   9.9999998E-03  -1.2000001E-01
  3.9999735E-02   9.9999998E-03  -1.0000001E-01
  3.9999735E-02   9.9999998E-03  -8.0000006E-02
  3.9999735E-02   9.9999998E-03  -6.0000006E-02
  3.9999735E-02   9.9999998E-03  -4.0000003E-02
  3.9999735E-02   9.9999998E-03  -2.0000001E-02
  5.9999656E-02   9.9999998E-03  -1.8000004E-01
  5.9999648E-02   9.9999998E-03  -1.6000003E-01
  5.9999641E-02   9.9999998E-03  -1.4000002E-01
  5.9999637E-02   9.9999998E-03  -1.2000002E-01
  5.9999637E-02   9.9999998E-03  -1.0000002E-01
  5.9999637E-02   9.9999998E-03  -8.0000013E-02
  5.9999634E-02   9.9999998E-03  -6.0000006E-02
  5.9999634E-02   9.9999998E-03  -4.0000003E-02
  5.9999634E-02   9.9999998E-03  -2.0000001E-02
  7.9999536E-02   9.9999998E-03  -1.8000004E-01
  7.9999529E-02   9.9999998E-03  -1.6000003E-01
  7.9999521E-02   9.9999998E-03  -1.4000003E-01
  7.9999521E-02   9.9999998E-03  -1.2000002E-01
  7.9999514E-02   9.9999998E-03  -1.0000002E-01
  7.9999514E-02   9.9999998E-03  -8.0000013E-02
  7.9999514E-02   9.9999998E-03  -6.0000010E-02
  7.9999514E-02   9.9999998E-03  -4.0000007E-02
  7.9999514E-02   9.9999998E-03  -2.0000003E-02
  9.9999398E-02   9.9999998E-03  -1.8000005E-01
  9.9999383E-02   9.9999998E-03  -1.6000004E-01
  9.9999376E-02   9.9999998E-03  -1.4000003E-01
  9.9999368E-02   9.9999998E-03  -1.2000003E-01
  9.9999368E-02   9.9999998E-03  -1.0000002E-01
  9.9999368E-02   9.9999998E-03  -8.0000013E-02
  9.9999368E-02   9.9999998E-03  -6.0000010E-02
  9.9999368E-02   9.9999998E-03  -4.0000007E-02
  9.9999368E-02   9.9999998E-03  -2.0000003E-02
  1.1999922E-01   9.9999998E-03  -1.8000005E-01
  1.1999920E-01   9.9999998E-03  -1.6000004E-01
  1.1999919E-01   9.9999998E-03  -1.4000003E-01
  1.1999919E-01   9.9999998E-03  -1.2000003E-01
  1.1999919E-01   9.9999998E-03  -1.0000002E-01
  1.1999919E-01   9.9999998E-03  -8.0000013E-02
  1.1999919E-01   9.9999998E-03  -6.0000010E-02
  1.1999919E-01   9.9999998E-03  -4.0000007E-02
  1.1999919E-01   9.9999998E-03  -2.0000003E-02
  1.3999899E-01   9.9999998E-03  -1.8000007E-01
  1.3999897E-01   9.9999998E-03  -1.6000006E-01
  1.3999896E-01   9.9999998E-03  -1.4000005E-01
  1.3999896E-01   9.9999998E-03  -1.2000003E-01
  1.3999896E-01   9.9999998E-03  -1.0000002E-01
  1.3999896E-01   9.9999998E-03  -8.0000021E-02
  1.3999896E-01   9.9999998E-03  -6.0000014E-02
  1.3999896E-01   9.9999998E-03  -4.0000010E-02
  1.3999897E-01   9.9999998E-03  -2.0000003E-02
  1.5999870E-01   9.9999998E-03  -1.8000008E-01
  1.5999869E-01   9.9999998E-03  -1.6000007E-01
  1.5999867E-01   9.9999998E-03  -1.4000006E-01
  1.5999867E-01   9.9999998E-03  -1.2000004E-01
  1.5999867E-01   9.9999998E-03  -1.0000003E-01
  1.5999869E-01   9.9999998E-03  -8.0000021E-02
  1.5999869E-01   9.9999998E-03  -6.0000017E-02
  1.5999869E-01   9.9999998E-03  -4.0000010E-02
  1.5999869E-01   9.9999998E-03  -2.0000005E-02
  1.7999834E-01   9.9999998E-03  -1.8000010E-01
  1.7999832E-01   9.9999998E-03  -1.6000009E-01
  1.7999832E-01   9.9999998E-03  -1.4000006E-01
  1.7999832E-01   9.9999998E-03  -1.2000005E-01
  1.7999832E-01   9.9999998E-03  -1.0000004E-01
  1.7999834E-01   9.9999998E-03  -8.0000028E-02
  1.7999834E-01   9.9999998E-03  -6.0000021E-02
  1.7999834E-01   9.9999998E-03  -4.0000010E-02
  1.7999834E-01   9.9999998E-03  -2.0000005E-02
  1.9999789E-01   9.9999998E-03  -1.8000013E-01
  1.9999787E-01   9.9999998E-03  -1.6000010E-01
  1.9999787E-01   9.9999998E-03  -1.4000009E-01
  1.9999789E-01   9.9999998E-03  -1.2000006E-01
  1.9999789E-01   9.9999998E-03  -1.0000005E-01
  1.9999790E-01   9.9999998E-03  -8.0000035E-02
  1.9999790E-01   9.9999998E-03  -6.0000025E-02
  1.9999792E-01   9.9999998E-03  -4.0000014E-02
  1.9999792E-01   9.9999998E-03  -2.0000007E-02
  2.1999733E-01   9.9999998E-03  -1.8000017E-01
  2.1999732E-01   9.9999998E-03  -1.6000013E-01
  2.1999732E-01   9.9999998E-03  -1.4000010E-01
  2.1999733E-01   9.9999998E-03  -1.2000008E-01
  2.1999735E-01   9.9999998E-03  -1.0000006E-01
  2.1999736E-01   9.9999998E-03  -8.0000043E-02
  2.1999738E-01   9.9999998E-03  -6.0000028E-02
  2.1999739E-01   9.9999998E-03  -4.0000018E-02
  2.1999739E-01   9.9999998E-03  -2.0000007E-02
  2.3999663E-01   9.9999998E-03  -1.8000023E-01
  2.3999663E-01   9.9999998E-03  -1.6000018E-01
  2.3999664E-01   9.9999998E-03  -1.4000013E-01
  2.3999666E-01   9.9999998E-03  -1.2000010E-01
  2.3999669E-01   9.9999998E-03  -1.0000007E-01
  2.3999670E-01   9.9999998E-03  -8.0000050E-02
  2.3999672E-01   9.9999998E-03  -6.0000032E-02
  2.3999673E-01   9.9999998E-03  -4.0000018E-02
  2.3999675E-01   9.9999998E-03  -2.0000009E-02
  2.5999576E-01   9.9999998E-03  -1.8000029E-01
  2.5999576E-01   9.9999998E-03  -1.6000022E-01
  2.5999579E-01   9.9999998E-03  -1.4000016E-01
  2.5999582E-01   9.9999998E-03  -1.2000012E-01
  2.5999585E-01   9.9999998E-03  -1.0000008E-01
  2.5999588E-01   9.9999998E-03  -8.0000058E-02
  2.5999591E-01   9.9999998E-03  -6.0000036E-02
  2.5999594E-01   9.9999998E-03  -4.0000021E-02
  2.5999594E-01   9.9999998E-03  -2.0000011E-02
  2.7999470E-01   9.9999998E-03  -1.8000038E-01
  2.7999473E-01   9.9999998E-03  -1.6000028E-01
  2.7999476E-01   9.9999998E-03  -1.4000021E-01
  2.7999482E-01   9.9999998E-03  -1.2000015E-01
  2.7999485E-01   9.9999998E-03  -1.0000011E-01
  2.7999490E-01   9.9999998E-03  -8.0000065E-02
  2.7999493E-01   9.9999998E-03  -6.0000043E-02
  2.7999496E-01   9.9999998E-03  -4.0000025E-02
  2.7999496E-01   9.9999998E-03  -2.0000011E-02
  2.9999337E-01   9.9999998E-03  -1.8000047E-01
  2.9999343E-01   9.9999998E-03  -1.6000035E-01
  2.9999349E-01   9.9999998E-03  -1.4000025E-01
  2.9999354E-01   9.9999998E-03  -1.2000018E-01
  2.9999363E-01   9.9999998E-03  -1.0000012E-01
  2.9999369E-01   9.9999998E-03  -8.0000080E-02
  2.9999372E-01   9.9999998E-03  -6.0000047E-02
  2.9999378E-01   9.9999998E-03  -4.0000029E-02
  2.9999378E-01   9.9999998E-03  -2.0000013E-02
  3.1999174E-01   9.9999998E-03  -1.8000059E-01
  3.1999183E-01   9.9999998E-03  -1.6000043E-01
  3.1999192E-01   9.9999998E-03  -1.4000030E-01
  3.1999204E-01   9.9999998E-03  -1.2000021E-01
  3.1999213E-01   9.9999998E-03  -1.0000014E-01
  3.1999221E-01   9.9999998E-03  -8.0000088E-02
  3.1999227E-01   9.9999998E-03  -6.0000055E-02
  3.1999233E-01   9.9999998E-03  -4.0000029E-02
  3.1999236E-01   9.9999998E-03  -2.0000013E-02
  3.3998975E-01   9.9999998E-03  -1.8000071E-01
  3.3998987E-01   9.9999998E-03  -1.6000052E-01
  3.3999002E-01   9.9999998E-03  -1.4000036E-01
  3.3999017E-01   9.9999998E-03  -1.2000024E-01
  3.3999029E-01   9.9999998E-03  -1.0000016E-01
  3.3999041E-01   9.9999998E-03  -8.0000103E-02
  3.3999053E-01   9.9999998E-03  -6.0000062E-02
  3.3999059E-01   9.9999998E-03  -4.0000033E-02
  3.3999062E-01   9.9999998E-03  -2.0000014E-02
  3.5998729E-01   9.9999998E-03  -1.8000086E-01
  3.5998750E-01   9.9999998E-03  -1.6000061E-01
  3.5998771E-01   9.9999998E-03  -1.4000042E-01
  3.5998791E-01   9.9999998E-03  -1.2000029E-01
  3.5998809E-01   9.9999998E-03  -1.0000019E-01
  3.5998824E-01   9.9999998E-03  -8.0000117E-02
  3.5998836E-01   9.9999998E-03  -6.0000073E-02
  3.5998845E-01   9.9999998E-03  -4.0000044E-02
  3.5998851E-01   9.9999998E-03  -2.0000020E-02
  3.7998432E-01   9.9999998E-03  -1.8000102E-01
  3.7998462E-01   9.9999998E-03  -1.6000073E-01
  3.7998492E-01   9.9999998E-03  -1.4000051E-01
  3.7998518E-01   9.9999998E-03  -1.2000034E-01
  3.7998542E-01   9.9999998E-03  -1.0000023E-01
  3.7998563E-01   9.9999998E-03  -8.0000155E-02
  3.7998581E-01   9.9999998E-03  -6.0000099E-02
  3.7998590E-01   9.9999998E-03  -4.0000059E-02
  3.7998599E-01   9.9999998E-03  -2.0000027E-02
  3.9998075E-01   9.9999998E-03  -1.8000121E-01
  3.9998114E-01   9.9999998E-03  -1.6000086E-01
  3.9998156E-01   9.9999998E-03  -1.4000061E-01
  3.9998192E-01   9.9999998E-03  -1.2000043E-01
  3.9998224E-01   9.9999998E-03  -1.0000031E-01
  3.9998251E-01   9.9999998E-03  -8.0000214E-02
  3.9998272E-01   9.9999998E-03  -6.0000144E-02
  3.9998287E-01   9.9999998E-03  -4.0000089E-02
  3.9998293E-01   9.9999998E-03  -2.0000042E-02
  4.1997644E-01   9.9999998E-03  -1.8000145E-01
  4.1997701E-01   9.9999998E-03  -1.6000107E-01
  4.1997755E-01   9.9999998E-03  -1.4000079E-01
  4.1997805E-01   9.9999998E-03  -1.2000058E-01
  4.1997847E-01   9.9999998E-03  -1.0000043E-01
  4.1997880E-01   9.9999998E-03  -8.0000319E-02
  4.1997904E-01   9.9999998E-03  -6.0000226E-02
  4.1997921E-01   9.9999998E-03  -4.0000144E-02
  4.1997933E-01   9.9999998E-03  -2.0000072E-02
  4.3997130E-01   9.9999998E-03  -1.8000181E-01
  4.3997207E-01   9.9999998E-03  -1.6000138E-01
  4.3997279E-01   9.9999998E-03  -1.4000106E-01
  4.3997341E-01   9.9999998E-03  -1.2000082E-01
  4.3997395E-01   9.9999998E-03  -1.0000064E-01
  4.3997437E-01   9.9999998E-03  -8.0000497E-02
  4.3997470E-01   9.9999998E-03  -6.0000367E-02
  4.3997490E-01   9.9999998E-03  -4.0000245E-02
  4.3997505E-01   9.9999998E-03  -2.0000121E-02
  4.5996517E-01   9.9999998E-03  -1.8000235E-01
  4.5996618E-01   9.9999998E-03  -1.6000187E-01
  4.5996714E-01   9.9999998E-03  -1.4000152E-01
  4.5996794E-01   9.9999998E-03  -1.2000123E-01
  4.5996863E-01   9.9999998E-03  -1.0000100E-01
  4.5996913E-01   9.9999998E-03  -8.0000795E-02
  4.5996952E-01   9.9999998E-03  -6.0000598E-02
  4.5996979E-01   9.9999998E-03  -4.0000401E-02
  4.5996994E-01   9.9999998E-03  -2.0000203E-02
  4.7995785E-01   9.9999998E-03  -1.8000320E-01
  4.7995919E-01   9.9999998E-03  -1.6000268E-01
  4.7996041E-01   9.9999998E-03  -1.4000225E-01
  4.7996143E-01   9.9999998E-03  -1.2000189E-01
  4.7996226E-01   9.9999998E-03  -1.0000156E-01
  4.7996289E-01   9.9999998E-03  -8.0001257E-02
  4.7996336E-01   9.9999998E-03  -6.0000949E-02
  4.7996366E-01   9.9999998E-03  -4.0000640E-02
  4.7996384E-01   9.9999998E-03  -2.0000322E-02
  4.9994919E-01   9.9999998E-03  -1.8000454E-01
  4.9995089E-01   9.9999998E-03  -1.6000395E-01
  4.9995241E-01   9.9999998E-03  -1.4000340E-01
  4.9995369E-01   9.9999998E-03  -1.2000289E-01
  4.9995467E-01   9.9999998E-03  -1.0000241E-01
  4.9995545E-01   9.9999998E-03  -8.0001928E-02
  4.9995598E-01   9.9999998E-03  -6.0001459E-02
  4.9995634E-01   9.9999998E-03  -4.0000983E-02
  4.9995652E-01   9.9999998E-03  -2.0000493E-02
  5.1993901E-01   9.9999998E-03  -1.8000662E-01
  5.1994109E-01   9.9999998E-03  -1.6000587E-01
  5.1994294E-01   9.9999998E-03  -1.4000511E-01
  5.1994449E-01   9.9999998E-03  -1.2000435E-01
  5.1994568E-01   9.9999998E-03  -1.0000361E-01
  5.1994658E-01   9.9999998E-03  -8.0002882E-02
  5.1994723E-01   9.9999998E-03  -6.0002163E-02
  5.1994765E-01   9.9999998E-03  -4.0001445E-02
  5.1994783E-01   9.9999998E-03  -2.0000724E-02
  5.3992724E-01   9.9999998E-03  -1.8000972E-01
  5.3992981E-01   9.9999998E-03  -1.6000864E-01
  5.3993201E-01   9.9999998E-03  -1.4000751E-01
  5.3993386E-01   9.9999998E-03  -1.2000635E-01
  5.3993523E-01   9.9999998E-03  -1.0000522E-01
  5.3993630E-01   9.9999998E-03  -8.0004126E-02
  5.3993702E-01   9.9999998E-03  -6.0003068E-02
  5.3993750E-01   9.9999998E-03  -4.0002037E-02
  5.3993773E-01   9.9999998E-03  -2.0001017E-02
  5.5991423E-01   9.9999998E-03  -1.8001407E-01
  5.5991715E-01   9.9999998E-03  -1.6001245E-01
  5.5991977E-01   9.9999998E-03  -1.4001071E-01
  5.5992192E-01   9.9999998E-03  -1.2000898E-01
  5.5992353E-01   9.9999998E-03  -1.0000730E-01
  5.5992472E-01   9.9999998E-03  -8.0005720E-02
  5.5992556E-01   9.9999998E-03  -6.0004216E-02
  5.5992609E-01   9.9999998E-03  -4.0002778E-02
  5.5992633E-01   9.9999998E-03  -2.0001380E-02
  5.7990032E-01   9.9999998E-03  -1.8001971E-01
  5.7990378E-01   9.9999998E-03  -1.6001725E-01
  5.7990676E-01   9.9999998E-03  -1.4001474E-01
  5.7990921E-01   9.9999998E-03  -1.2001222E-01
  5.7991105E-01   9.9999998E-03  -1.0000983E-01
  5.7991242E-01   9.9999998E-03  -8.0007605E-02
  5.7991338E-01   9.9999998E-03  -6.0005546E-02
  5.7991397E-01   9.9999998E-03  -4.0003624E-02
  5.7991427E-01   9.9999998E-03  -2.0001790E-02
  5.9988636E-01   9.9999998E-03  -1.8002632E-01
  5.9989035E-01   9.9999998E-03  -1.6002294E-01
  5.9989381E-01   9.9999998E-03  -1.4001949E-01
  5.9989661E-01   9.9999998E-03  -1.2001600E-01
  5.9989876E-01   9.9999998E-03  -1.0001269E-01
  5.9990031E-01   9.9999998E-03  -8.0009691E-02
  5.9990138E-01   9.9999998E-03  -6.0006991E-02
  5.9990203E-01   9.9999998E-03  -4.0004540E-02
  5.9990245E-01   9.9999998E-03  -2.0002237E-02
  6.1987317E-01   9.9999998E-03  -1.8003416E-01
  6.1987776E-01   9.9999998E-03  -1.6002972E-01
  6.1988175E-01   9.9999998E-03  -1.4002506E-01
  6.1988491E-01   9.9999998E-03  -1.2002033E-01
  6.1988735E-01   9.9999998E-03  -1.0001589E-01
  6.1988908E-01   9.9999998E-03  -8.0011941E-02
  6.1989033E-01   9.9999998E-03  -6.0008507E-02
  6.1989111E-01   9.9999998E-03  -4.0005479E-02
  6.1989158E-01   9.9999998E-03  -2.0002687E-02
  6.3986158E-01   9.9999998E-03  -1.8004344E-01
  6.3986677E-01   9.9999998E-03  -1.6003747E-01
  6.3987106E-01   9.9999998E-03  -1.4003128E-01
  6.3987458E-01   9.9999998E-03  -1.2002503E-01
  6.3987732E-01   9.9999998E-03  -1.0001926E-01
  6.3987941E-01   9.9999998E-03  -8.0014281E-02
  6.3988084E-01   9.9999998E-03  -6.0010068E-02
  6.3988185E-01   9.9999998E-03  -4.0006429E-02
  6.3988239E-01   9.9999998E-03  -2.0003138E-02
  6.5985310E-01   9.9999998E-03  -1.8005499E-01
  6.5985852E-01   9.9999998E-03  -1.6004689E-01
  6.5986300E-01   9.9999998E-03  -1.4003882E-01
  6.5986669E-01   9.9999998E-03  -1.2003078E-01
  6.5986967E-01   9.9999998E-03  -1.0002343E-01
  6.5987200E-01   9.9999998E-03  -8.0017149E-02
  6.5987366E-01   9.9999998E-03  -6.0011957E-02
  6.5987480E-01   9.9999998E-03  -4.0007576E-02
  6.5987551E-01   9.9999998E-03  -2.0003682E-02
  6.7985016E-01   9.9999998E-03  -1.8006915E-01
  6.7985564E-01   9.9999998E-03  -1.6005841E-01
  6.7986017E-01   9.9999998E-03  -1.4004804E-01
  6.7986393E-01   9.9999998E-03  -1.2003773E-01
  6.7986697E-01   9.9999998E-03  -1.0002839E-01
  6.7986935E-01   9.9999998E-03  -8.0020532E-02
  6.7987114E-01   9.9999998E-03  -6.0014158E-02
  6.7987233E-01   9.9999998E-03  -4.0008895E-02
  6.7987299E-01   9.9999998E-03  -2.0004304E-02
  6.9985807E-01   9.9999998E-03  -1.8008384E-01
  6.9986326E-01   9.9999998E-03  -1.6007048E-01
  6.9986761E-01   9.9999998E-03  -1.4005752E-01
  6.9987112E-01   9.9999998E-03  -1.2004468E-01
  6.9987398E-01   9.9999998E-03  -1.0003316E-01
  6.9987625E-01   9.9999998E-03  -8.0023602E-02
  6.9987786E-01   9.9999998E-03  -6.0016021E-02
  6.9987893E-01   9.9999998E-03  -4.0009946E-02
  6.9987959E-01   9.9999998E-03  -2.0004777E-02
  7.1989030E-01   9.9999998E-03  -1.8009497E-01
  7.1989506E-01   9.9999998E-03  -1.6007984E-01
  7.1989924E-01   9.9999998E-03  -1.4006500E-01
  7.1990258E-01   9.9999998E-03  -1.2005033E-01
  7.1990514E-01   9.9999998E-03  -1.0003724E-01
  7.1990705E-01   9.9999998E-03  -8.0026425E-02
  7.1990836E-01   9.9999998E-03  -6.0017869E-02
  7.1990925E-01   9.9999998E-03  -4.0011063E-02
  7.1990979E-01   9.9999998E-03  -2.0005304E-02
  7.3993075E-01   9.9999998E-03  -1.8010101E-01
  7.3993403E-01   9.9999998E-03  -1.6008523E-01
  7.3993695E-01   9.9999998E-03  -1.4006957E-01
  7.3993939E-01   9.9999998E-03  -1.2005397E-01
  7.3994124E-01   9.9999998E-03  -1.0004000E-01
  7.3994261E-01   9.9999998E-03  -8.0028437E-02
  7.3994362E-01   9.9999998E-03  -6.0019262E-02
  7.3994428E-01   9.9999998E-03  -4.0011942E-02
  7.3994470E-01   9.9999998E-03  -2.0005731E-02
  7.5996280E-01   9.9999998E-03  -1.8010464E-01
  7.5996464E-01   9.9999998E-03  -1.6008866E-01
  7.5996643E-01   9.9999998E-03  -1.4007257E-01
  7.5996786E-01   9.9999998E-03  -1.2005641E-01
  7.5996906E-01   9.9999998E-03  -1.0004188E-01
  7.5996995E-01   9.9999998E-03  -8.0029815E-02
  7.5997055E-01   9.9999998E-03  -6.0020234E-02
  7.5997102E-01   9.9999998E-03  -4.0012561E-02
  7.5997126E-01   9.9999998E-03  -2.0006035E-02
  7.7998680E-01   9.9999998E-03  -1.8010634E-01
  7.7998751E-01   9.9999998E-03  -1.6009039E-01
  7.7998823E-01   9.9999998E-03  -1.4007413E-01
  7.7998888E-01   9.9999998E-03  -1.2005772E-01
  7.7998936E-01   9.9999998E-03  -1.0004292E-01
  7.7998978E-01   9.9999998E-03  -8.0030590E-02
  7.7999008E-01   9.9999998E-03  -6.0020790E-02
  7.7999032E-01   9.9999998E-03  -4.0012926E-02
  7.7999043E-01   9.9999998E-03  -2.0006215E-02
  8.0000609E-01   9.9999998E-03  -1.8010651E-01
  8.0000579E-01   9.9999998E-03  -1.6009068E-01
  8.0000561E-01   9.9999998E-03  -1.4007449E-01
  8.0000550E-01   9.9999998E-03  -1.2005804E-01
  8.0000544E-01   9.9999998E-03  -1.0004319E-01
  8.0000544E-01   9.9999998E-03  -8.0030814E-02
  8.0000544E-01   9.9999998E-03  -6.0020965E-02
  8.0000544E-01   9.9999998E-03  -4.0013049E-02
  8.0000544E-01   9.9999998E-03  -2.0006280E-02
  8.2002389E-01   9.9999998E-03  -1.8010540E-01
  8.2002276E-01   9.9999998E-03  -1.6008979E-01
  8.2002181E-01   9.9999998E-03  -1.4007378E-01
  8.2002103E-01   9.9999998E-03  -1.2005752E-01
  8.2002044E-01   9.9999998E-03  -1.0004281E-01
  8.2002002E-01   9.9999998E-03  -8.0030560E-02
  8.2001978E-01   9.9999998E-03  -6.0020808E-02
  8.2001960E-01   9.9999998E-03  -4.0012959E-02
  8.2001948E-01   9.9999998E-03  -2.0006241E-02
  8.4004200E-01   9.9999998E-03  -1.8010311E-01
  8.4004003E-01   9.9999998E-03  -1.6008782E-01
  8.4003836E-01   9.9999998E-03  -1.4007215E-01
  8.4003699E-01   9.9999998E-03  -1.2005624E-01
  8.4003597E-01   9.9999998E-03  -1.0004186E-01
  8.4003520E-01   9.9999998E-03  -8.0029882E-02
  8.4003466E-01   9.9999998E-03  -6.0020357E-02
  8.4003437E-01   9.9999998E-03  -4.0012687E-02
  8.4003413E-01   9.9999998E-03  -2.0006113E-02
  8.6006021E-01   9.9999998E-03  -1.8009970E-01
  8.6005747E-01   9.9999998E-03  -1.6008489E-01
  8.6005515E-01   9.9999998E-03  -1.4006972E-01
  8.6005324E-01   9.9999998E-03  -1.2005431E-01
  8.6005181E-01   9.9999998E-03  -1.0004041E-01
  8.6005074E-01   9.9999998E-03  -8.0028847E-02
  8.6005002E-01   9.9999998E-03  -6.0019650E-02
  8.6004949E-01   9.9999998E-03  -4.0012248E-02
  8.6004925E-01   9.9999998E-03  -2.0005902E-02
  8.8007742E-01   9.9999998E-03  -1.8009523E-01
  8.8007396E-01   9.9999998E-03  -1.6008106E-01
  8.8007098E-01   9.9999998E-03  -1.4006655E-01
  8.8006866E-01   9.9999998E-03  -1.2005181E-01
  8.8006681E-01   9.9999998E-03  -1.0003852E-01
  8.8006550E-01   9.9999998E-03  -8.0027483E-02
  8.8006461E-01   9.9999998E-03  -6.0018715E-02
  8.8006395E-01   9.9999998E-03  -4.0011663E-02
  8.8006365E-01   9.9999998E-03  -2.0005619E-02
  9.0009230E-01   9.9999998E-03  -1.8008980E-01
  9.0008819E-01   9.9999998E-03  -1.6007644E-01
  9.0008467E-01   9.9999998E-03  -1.4006272E-01
  9.0008187E-01   9.9999998E-03  -1.2004881E-01
  9.0007973E-01   9.9999998E-03  -1.0003626E-01
  9.0007818E-01   9.9999998E-03  -8.0025852E-02
  9.0007704E-01   9.9999998E-03  -6.0017589E-02
  9.0007633E-01   9.9999998E-03  -4.0010959E-02
  9.0007591E-01   9.9999998E-03  -2.0005280E-02
  9.2010230E-01   9.9999998E-03  -1.8008363E-01
  9.2009711E-01   9.9999998E-03  -1.6007121E-01
  9.2009282E-01   9.9999998E-03  -1.4005841E-01
  9.2008942E-01   9.9999998E-03  -1.2004545E-01
  9.2008674E-01   9.9999998E-03  -1.0003380E-01
  9.2008466E-01   9.9999998E-03  -8.0024138E-02
  9.2008317E-01   9.9999998E-03  -6.0016476E-02
  9.2008215E-01   9.9999998E-03  -4.0010296E-02
  9.2008156E-01   9.9999998E-03  -2.0004973E-02
  9.4010478E-01   9.9999998E-03  -1.8007706E-01
  9.4009900E-01   9.9999998E-03  -1.6006564E-01
  9.4009435E-01   9.9999998E-03  -1.4005385E-01
  9.4009060E-01   9.9999998E-03  -1.2004193E-01
  9.4008768E-01   9.9999998E-03  -1.0003124E-01
  9.4008541E-01   9.9999998E-03  -8.0022402E-02
  9.4008380E-01   9.9999998E-03  -6.0015365E-02
  9.4008267E-01   9.9999998E-03  -4.0009648E-02
  9.4008201E-01   9.9999998E-03  -2.0004673E-02
  9.6010411E-01   9.9999998E-03  -1.8007030E-01
  9.6009815E-01   9.9999998E-03  -1.6005990E-01
  9.6009338E-01   9.9999998E-03  -1.4004914E-01
  9.6008956E-01   9.9999998E-03  -1.2003830E-01
  9.6008658E-01   9.9999998E-03  -1.0002859E-01
  9.6008426E-01   9.9999998E-03  -8.0020539E-02
  9.6008265E-01   9.9999998E-03  -6.0014118E-02
  9.6008152E-01   9.9999998E-03  -4.0008880E-02
  9.6008092E-01   9.9999998E-03  -2.0004306E-02
  9.8010200E-01   9.9999998E-03  -1.8006356E-01
  9.8009592E-01   9.9999998E-03  -1.6005418E-01
  9.8009109E-01   9.9999998E-03  -1.4004447E-01
  9.8008728E-01   9.9999998E-03  -1.2003470E-01
  9.8008436E-01   9.9999998E-03  -1.0002595E-01
  9.8008215E-01   9.9999998E-03  -8.0018699E-02
  9.8008060E-01   9.9999998E-03  -6.0012884E-02
  9.8007953E-01   9.9999998E-03  -4.0008120E-02
  9.8007900E-01   9.9999998E-03  -2.0003941E-02
  1.0000991E+00   9.9999998E-03  -1.8005714E-01
  1.0000931E+00   9.9999998E-03  -1.6004878E-01
  1.0000882E+00   9.9999998E-03  -1.4004008E-01
  1.0000844E+00   9.9999998E-03  -1.2003137E-01
  1.0000815E+00   9.9999998E-03  -1.0002354E-01
  1.0000795E+00   9.9999998E-03  -8.0017015E-02
  1.0000781E+00   9.9999998E-03  -6.0011771E-02
  1.0000771E+00   9.9999998E-03  -4.0007442E-02
  1.0000765E+00   9.9999998E-03  -2.0003617E-02
  1.0200958E+00   9.9999998E-03  -1.8005113E-01
  1.0200897E+00   9.9999998E-03  -1.6004373E-01
  1.0200849E+00   9.9999998E-03  -1.4003600E-01
  1.0200812E+00   9.9999998E-03  -1.2002829E-01
  1.0200783E+00   9.9999998E-03  -1.0002133E-01
  1.0200764E+00   9.9999998E-03  -8.0015518E-02
  1.0200750E+00   9.9999998E-03  -6.0010798E-02
  1.0200741E+00   9.9999998E-03  -4.0006846E-02
  1.0200735E+00   9.9999998E-03  -2.0003326E-02
  1.0400923E+00   9.9999998E-03  -1.8004578E-01
  1.0400860E+00   9.9999998E-03  -1.6003899E-01
  1.0400811E+00   9.9999998E-03  -1.4003225E-01
  1.0400774E+00   9.9999998E-03  -1.2002547E-01
  1.0400747E+00   9.9999998E-03  -1.0001935E-01
  1.0400728E+00   9.9999998E-03  -8.0014192E-02
  1.0400715E+00   9.9999998E-03  -6.0009930E-02
  1.0400707E+00   9.9999998E-03  -4.0006306E-02
  1.0400702E+00   9.9999998E-03  -2.0003065E-02
  1.0600885E+00   9.9999998E-03  -1.8004091E-01
  1.0600822E+00   9.9999998E-03  -1.6003464E-01
  1.0600772E+00   9.9999998E-03  -1.4002876E-01
  1.0600734E+00   9.9999998E-03  -1.2002293E-01
  1.0600708E+00   9.9999998E-03  -1.0001760E-01
  1.0600688E+00   9.9999998E-03  -8.0013014E-02
  1.0600675E+00   9.9999998E-03  -6.0009148E-02
  1.0600668E+00   9.9999998E-03  -4.0005822E-02
  1.0600663E+00   9.9999998E-03  -2.0002831E-02
  1.0800848E+00   9.9999998E-03  -1.8003656E-01
  1.0800782E+00   9.9999998E-03  -1.6003087E-01
  1.0800731E+00   9.9999998E-03  -1.4002551E-01
  1.0800694E+00   9.9999998E-03  -1.2002062E-01
  1.0800667E+00   9.9999998E-03  -1.0001601E-01
  1.0800648E+00   9.9999998E-03  -8.0011964E-02
  1.0800636E+00   9.9999998E-03  -6.0008455E-02
  1.0800627E+00   9.9999998E-03  -4.0005393E-02
  1.0800623E+00   9.9999998E-03  -2.0002622E-02
  1.1000817E+00   9.9999998E-03  -1.8003292E-01
  1.1000745E+00   9.9999998E-03  -1.6002725E-01
  1.1000694E+00   9.9999998E-03  -1.4002265E-01
  1.1000655E+00   9.9999998E-03  -1.2001839E-01
  1.1000627E+00   9.9999998E-03  -1.0001453E-01
  1.1000608E+00   9.9999998E-03  -8.0010965E-02
  1.1000596E+00   9.9999998E-03  -6.0007822E-02
  1.1000588E+00   9.9999998E-03  -4.0005006E-02
  1.1000583E+00   9.9999998E-03  -2.0002440E-02
  1.1200794E+00   9.9999998E-03  -1.8003017E-01
  1.1200715E+00   9.9999998E-03  -1.6002420E-01
  1.1200659E+00   9.9999998E-03  -1.4001980E-01
  1.1200620E+00   9.9999998E-03  -1.2001625E-01
  1.1200591E+00   9.9999998E-03  -1.0001297E-01
  1.1200572E+00   9.9999998E-03  -8.0009997E-02
  1.1200559E+00   9.9999998E-03  -6.0007196E-02
  1.1200551E+00   9.9999998E-03  -4.0004652E-02
  1.1200546E+00   9.9999998E-03  -2.0002274E-02
  1.1400782E+00   9.9999998E-03  -1.8002857E-01
  1.1400692E+00   9.9999998E-03  -1.6002204E-01
  1.1400632E+00   9.9999998E-03  -1.4001746E-01
  1.1400589E+00   9.9999998E-03  -1.2001413E-01
  1.1400560E+00   9.9999998E-03  -1.0001143E-01
  1.1400540E+00   9.9999998E-03  -8.0008879E-02
  1.1400527E+00   9.9999998E-03  -6.0006518E-02
  1.1400518E+00   9.9999998E-03  -4.0004246E-02
  1.1400514E+00   9.9999998E-03  -2.0002097E-02
  1.1600789E+00   9.9999998E-03  -1.8002857E-01
  1.1600684E+00   9.9999998E-03  -1.6002114E-01
  1.1600614E+00   9.9999998E-03  -1.4001596E-01
  1.1600566E+00   9.9999998E-03  -1.2001245E-01
  1.1600534E+00   9.9999998E-03  -1.0000985E-01
  1.1600512E+00   9.9999998E-03  -8.0007732E-02
  1.1600498E+00   9.9999998E-03  -6.0005691E-02
  1.1600490E+00   9.9999998E-03  -4.0003754E-02
  1.1600484E+00   9.9999998E-03  -2.0001864E-02
  1.1800828E+00   9.9999998E-03  -1.8003078E-01
  1.1800698E+00   9.9999998E-03  -1.6002224E-01
  1.1800609E+00   9.9999998E-03  -1.4001592E-01
  1.1800551E+00   9.9999998E-03  -1.2001166E-01
  1.1800514E+00   9.9999998E-03  -1.0000879E-01
  1.1800489E+00   9.9999998E-03  -8.0006622E-02
  1.1800474E+00   9.9999998E-03  -6.0004842E-02
  1.1800464E+00   9.9999998E-03  -4.0003199E-02
  1.1800460E+00   9.9999998E-03  -2.0001575E-02
  1.2000893E+00   9.9999998E-03  -1.8003419E-01
  1.2000753E+00   9.9999998E-03  -1.6002582E-01
  1.2000636E+00   9.9999998E-03  -1.4001842E-01
  1.2000555E+00   9.9999998E-03  -1.2001270E-01
  1.2000506E+00   9.9999998E-03  -1.0000887E-01
  1.2000476E+00   9.9999998E-03  -8.0006279E-02
  1.2000456E+00   9.9999998E-03  -6.0004313E-02
  1.2000445E+00   9.9999998E-03  -4.0002726E-02
  1.2000439E+00   9.9999998E-03  -2.0001322E-02
  1.2200954E+00   9.9999998E-03  -1.8003745E-01
  1.2200837E+00   9.9999998E-03  -1.6003008E-01
  1.2200713E+00   9.9999998E-03  -1.4002299E-01
  1.2200605E+00   9.9999998E-03  -1.2001672E-01
  1.2200527E+00   9.9999998E-03  -1.0001139E-01
  1.2200480E+00   9.9999998E-03  -8.0007479E-02
  1.2200452E+00   9.9999998E-03  -6.0004760E-02
  1.2200437E+00   9.9999998E-03  -4.0002834E-02
  1.2200428E+00   9.9999998E-03  -2.0001322E-02
  1.2400967E+00   9.9999998E-03  -1.8003936E-01
  1.2400892E+00   9.9999998E-03  -1.6003366E-01
  1.2400805E+00   9.9999998E-03  -1.4002737E-01
  1.2400711E+00   9.9999998E-03  -1.2002143E-01
  1.2400618E+00   9.9999998E-03  -1.0001609E-01
  1.2400540E+00   9.9999998E-03  -8.0011323E-02
  1.2400489E+00   9.9999998E-03  -6.0007270E-02
  1.2400459E+00   9.9999998E-03  -4.0004171E-02
  1.2400445E+00   9.9999998E-03  -2.0001877E-02
  1.2600886E+00   9.9999998E-03  -1.6003546E-01
  1.2600840E+00   9.9999998E-03  -1.4003080E-01
  1.2600788E+00   9.9999998E-03  -1.2002556E-01
  1.2600731E+00   9.9999998E-03  -1.0002005E-01
  1.2600673E+00   9.9999998E-03  -8.0014631E-02
  1.2600625E+00   9.9999998E-03  -6.0009707E-02
  1.2600590E+00   9.9999998E-03  -4.0005688E-02
  1.2600571E+00   9.9999998E-03  -2.0002581E-02
  1.2800788E+00   9.9999998E-03  -1.2002864E-01
  1.2800765E+00   9.9999998E-03  -1.0002385E-01
  1.2800742E+00   9.9999998E-03  -8.0017947E-02
  1.2800726E+00   9.9999998E-03  -6.0011946E-02
  1.2800711E+00   9.9999998E-03  -4.0006954E-02
  1.2800703E+00   9.9999998E-03  -2.0003129E-02
  1.3000723E+00   9.9999998E-03  -8.0021039E-02
  1.3000723E+00   9.9999998E-03  -6.0014229E-02
  1.3000724E+00   9.9999998E-03  -4.0008221E-02
  1.3000724E+00   9.9999998E-03  -2.0003665E-02
 -1.2850712E-07   9.9999998E-03  -7.8096201E-15
 -1.2846661E-07   9.9999998E-03   2.0000001E-02
 -1.2833445E-07   9.9999998E-03   4.0000003E-02
 -1.2807128E-07   9.9999998E-03   6.0000002E-02
 -1.2760991E-07   9.9999998E-03   8.0000006E-02
 -1.2685160E-07   9.9999998E-03   1.0000001E-01
 -1.2564597E-07   9.9999998E-03   1.2000000E-01
 -1.2380367E-07   9.9999998E-03   1.4000002E-01
  1.9999811E-02   9.9999998E-03  -7.0410592E-15
  1.9999811E-02   9.9999998E-03   2.0000001E-02
  1.9999813E-02   9.9999998E-03   4.0000003E-02
  1.9999813E-02   9.9999998E-03   6.0000002E-02
  1.9999813E-02   9.9999998E-03   8.0000006E-02
  1.9999813E-02   9.9999998E-03   1.0000001E-01
  1.9999815E-02   9.9999998E-03   1.2000001E-01
  1.9999819E-02   9.9999998E-03   1.4000002E-01
  3.9999735E-02   9.9999998E-03  -7.3884338E-15
  3.9999735E-02   9.9999998E-03   2.0000001E-02
  3.9999735E-02   9.9999998E-03   4.0000003E-02
  3.9999735E-02   9.9999998E-03   6.0000006E-02
  3.9999735E-02   9.9999998E-03   8.0000006E-02
  3.9999735E-02   9.9999998E-03   1.0000001E-01
  3.9999738E-02   9.9999998E-03   1.2000001E-01
  3.9999738E-02   9.9999998E-03   1.4000002E-01
  5.9999634E-02   9.9999998E-03  -2.0788486E-14
  5.9999634E-02   9.9999998E-03   2.0000001E-02
  5.9999634E-02   9.9999998E-03   4.0000003E-02
  5.9999634E-02   9.9999998E-03   6.0000006E-02
  5.9999637E-02   9.9999998E-03   8.0000013E-02
  5.9999637E-02   9.9999998E-03   1.0000002E-01
  5.9999637E-02   9.9999998E-03   1.2000002E-01
  5.9999641E-02   9.9999998E-03   1.4000002E-01
  7.9999514E-02   9.9999998E-03  -2.3683970E-14
  7.9999514E-02   9.9999998E-03   2.0000003E-02
  7.9999514E-02   9.9999998E-03   4.0000007E-02
  7.9999514E-02   9.9999998E-03   6.0000010E-02
  7.9999514E-02   9.9999998E-03   8.0000013E-02
  7.9999514E-02   9.9999998E-03   1.0000002E-01
  7.9999521E-02   9.9999998E-03   1.2000002E-01
  7.9999521E-02   9.9999998E-03   1.4000003E-01
  9.9999368E-02   9.9999998E-03  -5.4855112E-15
  9.9999368E-02   9.9999998E-03   2.0000003E-02
  9.9999368E-02   9.9999998E-03   4.0000007E-02
  9.9999368E-02   9.9999998E-03   6.0000010E-02
  9.9999368E-02   9.9999998E-03   8.0000013E-02
  9.9999368E-02   9.9999998E-03   1.0000002E-01
  9.9999368E-02   9.9999998E-03   1.2000003E-01
  9.9999376E-02   9.9999998E-03   1.4000003E-01
  1.1999919E-01   9.9999998E-03  -3.7323927E-15
  1.1999919E-01   9.9999998E-03   2.0000003E-02
  1.1999919E-01   9.9999998E-03   4.0000007E-02
  1.1999919E-01   9.9999998E-03   6.0000010E-02
  1.1999919E-01   9.9999998E-03   8.0000013E-02
  1.1999919E-01   9.9999998E-03   1.0000002E-01
  1.1999919E-01   9.9999998E-03   1.2000003E-01
  1.1999919E-01   9.9999998E-03   1.4000003E-01
  1.3999897E-01   9.9999998E-03  -4.5592829E-14
  1.3999897E-01   9.9999998E-03   2.0000003E-02
  1.3999896E-01   9.9999998E-03   4.0000010E-02
  1.3999896E-01   9.9999998E-03   6.0000014E-02
  1.3999896E-01   9.9999998E-03   8.0000021E-02
  1.3999896E-01   9.9999998E-03   1.0000002E-01
  1.3999896E-01   9.9999998E-03   1.2000003E-01
  1.3999896E-01   9.9999998E-03   1.4000005E-01
  1.5999869E-01   9.9999998E-03  -5.1103808E-14
  1.5999869E-01   9.9999998E-03   2.0000005E-02
  1.5999869E-01   9.9999998E-03   4.0000010E-02
  1.5999869E-01   9.9999998E-03   6.0000017E-02
  1.5999869E-01   9.9999998E-03   8.0000021E-02
  1.5999867E-01   9.9999998E-03   1.0000003E-01
  1.5999867E-01   9.9999998E-03   1.2000004E-01
  1.5999867E-01   9.9999998E-03   1.4000006E-01
  1.7999834E-01   9.9999998E-03   1.0115248E-13
  1.7999834E-01   9.9999998E-03   2.0000005E-02
  1.7999834E-01   9.9999998E-03   4.0000010E-02
  1.7999834E-01   9.9999998E-03   6.0000021E-02
  1.7999834E-01   9.9999998E-03   8.0000028E-02
  1.7999832E-01   9.9999998E-03   1.0000004E-01
  1.7999832E-01   9.9999998E-03   1.2000005E-01
  1.7999832E-01   9.9999998E-03   1.4000006E-01
  1.9999792E-01   9.9999998E-03   5.9084584E-15
  1.9999792E-01   9.9999998E-03   2.0000007E-02
  1.9999792E-01   9.9999998E-03   4.0000014E-02
  1.9999790E-01   9.9999998E-03   6.0000025E-02
  1.9999790E-01   9.9999998E-03   8.0000035E-02
  1.9999789E-01   9.9999998E-03   1.0000005E-01
  1.9999789E-01   9.9999998E-03   1.2000006E-01
  1.9999787E-01   9.9999998E-03   1.4000009E-01
  2.1999739E-01   9.9999998E-03   4.4246755E-14
  2.1999739E-01   9.9999998E-03   2.0000007E-02
  2.1999739E-01   9.9999998E-03   4.0000018E-02
  2.1999738E-01   9.9999998E-03   6.0000028E-02
  2.1999736E-01   9.9999998E-03   8.0000043E-02
  2.1999735E-01   9.9999998E-03   1.0000006E-01
  2.1999733E-01   9.9999998E-03   1.2000008E-01
  2.1999732E-01   9.9999998E-03   1.4000010E-01
  2.3999675E-01   9.9999998E-03  -1.4226982E-13
  2.3999675E-01   9.9999998E-03   2.0000009E-02
  2.3999673E-01   9.9999998E-03   4.0000018E-02
  2.3999672E-01   9.9999998E-03   6.0000032E-02
  2.3999670E-01   9.9999998E-03   8.0000050E-02
  2.3999669E-01   9.9999998E-03   1.0000007E-01
  2.3999666E-01   9.9999998E-03   1.2000010E-01
  2.3999664E-01   9.9999998E-03   1.4000013E-01
  2.5999594E-01   9.9999998E-03  -1.2236574E-13
  2.5999594E-01   9.9999998E-03   2.0000011E-02
  2.5999594E-01   9.9999998E-03   4.0000021E-02
  2.5999591E-01   9.9999998E-03   6.0000036E-02
  2.5999588E-01   9.9999998E-03   8.0000058E-02
  2.5999585E-01   9.9999998E-03   1.0000008E-01
  2.5999582E-01   9.9999998E-03   1.2000012E-01
  2.5999579E-01   9.9999998E-03   1.4000016E-01
  2.7999499E-01   9.9999998E-03  -4.1743722E-13
  2.7999496E-01   9.9999998E-03   2.0000011E-02
  2.7999496E-01   9.9999998E-03   4.0000025E-02
  2.7999493E-01   9.9999998E-03   6.0000043E-02
  2.7999490E-01   9.9999998E-03   8.0000065E-02
  2.7999485E-01   9.9999998E-03   1.0000011E-01
  2.7999482E-01   9.9999998E-03   1.2000015E-01
  2.7999476E-01   9.9999998E-03   1.4000021E-01
  2.9999381E-01   9.9999998E-03  -2.1305294E-13
  2.9999378E-01   9.9999998E-03   2.0000013E-02
  2.9999378E-01   9.9999998E-03   4.0000029E-02
  2.9999372E-01   9.9999998E-03   6.0000047E-02
  2.9999369E-01   9.9999998E-03   8.0000080E-02
  2.9999363E-01   9.9999998E-03   1.0000012E-01
  2.9999354E-01   9.9999998E-03   1.2000018E-01
  2.9999349E-01   9.9999998E-03   1.4000025E-01
  3.1999236E-01   9.9999998E-03  -7.1189101E-14
  3.1999236E-01   9.9999998E-03   2.0000013E-02
  3.1999233E-01   9.9999998E-03   4.0000029E-02
  3.1999227E-01   9.9999998E-03   6.0000055E-02
  3.1999221E-01   9.9999998E-03   8.0000088E-02
  3.1999213E-01   9.9999998E-03   1.0000014E-01
  3.1999204E-01   9.9999998E-03   1.2000021E-01
  3.1999192E-01   9.9999998E-03   1.4000030E-01
  3.3999065E-01   9.9999998E-03  -2.6351095E-13
  3.3999062E-01   9.9999998E-03   2.0000014E-02
  3.3999059E-01   9.9999998E-03   4.0000033E-02
  3.3999053E-01   9.9999998E-03   6.0000062E-02
  3.3999041E-01   9.9999998E-03   8.0000103E-02
  3.3999029E-01   9.9999998E-03   1.0000016E-01
  3.3999017E-01   9.9999998E-03   1.2000024E-01
  3.3999002E-01   9.9999998E-03   1.4000036E-01
  3.5998854E-01   9.9999998E-03  -8.5436275E-13
  3.5998851E-01   9.9999998E-03   2.0000020E-02
  3.5998845E-01   9.9999998E-03   4.0000044E-02
  3.5998836E-01   9.9999998E-03   6.0000073E-02
  3.5998824E-01   9.9999998E-03   8.0000117E-02
  3.5998809E-01   9.9999998E-03   1.0000019E-01
  3.5998791E-01   9.9999998E-03   1.2000029E-01
  3.5998771E-01   9.9999998E-03   1.4000042E-01
  3.7998599E-01   9.9999998E-03  -2.0100296E-13
  3.7998599E-01   9.9999998E-03   2.0000027E-02
  3.7998590E-01   9.9999998E-03   4.0000059E-02
  3.7998581E-01   9.9999998E-03   6.0000099E-02
  3.7998563E-01   9.9999998E-03   8.0000155E-02
  3.7998542E-01   9.9999998E-03   1.0000023E-01
  3.7998518E-01   9.9999998E-03   1.2000034E-01
  3.7998492E-01   9.9999998E-03   1.4000051E-01
  3.9998296E-01   9.9999998E-03   4.9834773E-13
  3.9998293E-01   9.9999998E-03   2.0000042E-02
  3.9998287E-01   9.9999998E-03   4.0000089E-02
  3.9998272E-01   9.9999998E-03   6.0000144E-02
  3.9998251E-01   9.9999998E-03   8.0000214E-02
  3.9998224E-01   9.9999998E-03   1.0000031E-01
  3.9998192E-01   9.9999998E-03   1.2000043E-01
  3.9998156E-01   9.9999998E-03   1.4000061E-01
  4.1997936E-01   9.9999998E-03  -1.2198290E-12
  4.1997933E-01   9.9999998E-03   2.0000072E-02
  4.1997921E-01   9.9999998E-03   4.0000144E-02
  4.1997904E-01   9.9999998E-03   6.0000226E-02
  4.1997880E-01   9.9999998E-03   8.0000319E-02
  4.1997847E-01   9.9999998E-03   1.0000043E-01
  4.1997805E-01   9.9999998E-03   1.2000058E-01
  4.1997755E-01   9.9999998E-03   1.4000079E-01
  4.3997508E-01   9.9999998E-03  -1.7040397E-12
  4.3997505E-01   9.9999998E-03   2.0000121E-02
  4.3997490E-01   9.9999998E-03   4.0000245E-02
  4.3997470E-01   9.9999998E-03   6.0000367E-02
  4.3997437E-01   9.9999998E-03   8.0000497E-02
  4.3997395E-01   9.9999998E-03   1.0000064E-01
  4.3997341E-01   9.9999998E-03   1.2000082E-01
  4.3997279E-01   9.9999998E-03   1.4000106E-01
  4.5996997E-01   9.9999998E-03   2.4296195E-13
  4.5996994E-01   9.9999998E-03   2.0000203E-02
  4.5996979E-01   9.9999998E-03   4.0000401E-02
  4.5996952E-01   9.9999998E-03   6.0000598E-02
  4.5996913E-01   9.9999998E-03   8.0000795E-02
  4.5996863E-01   9.9999998E-03   1.0000100E-01
  4.5996794E-01   9.9999998E-03   1.2000123E-01
  4.5996714E-01   9.9999998E-03   1.4000152E-01
  4.7996390E-01   9.9999998E-03   2.2191540E-13
  4.7996384E-01   9.9999998E-03   2.0000322E-02
  4.7996366E-01   9.9999998E-03   4.0000640E-02
  4.7996336E-01   9.9999998E-03   6.0000949E-02
  4.7996289E-01   9.9999998E-03   8.0001257E-02
  4.7996226E-01   9.9999998E-03   1.0000156E-01
  4.7996143E-01   9.9999998E-03   1.2000189E-01
  4.7996041E-01   9.9999998E-03   1.4000225E-01
  4.9995661E-01   9.9999998E-03   6.8387787E-13
  4.9995652E-01   9.9999998E-03   2.0000493E-02
  4.9995634E-01   9.9999998E-03   4.0000983E-02
  4.9995598E-01   9.9999998E-03   6.0001459E-02
  4.9995545E-01   9.9999998E-03   8.0001928E-02
  4.9995467E-01   9.9999998E-03   1.0000241E-01
  4.9995369E-01   9.9999998E-03   1.2000289E-01
  4.9995241E-01   9.9999998E-03   1.4000340E-01
  5.1994795E-01   9.9999998E-03  -1.1025299E-12
  5.1994783E-01   9.9999998E-03   2.0000724E-02
  5.1994765E-01   9.9999998E-03   4.0001445E-02
  5.1994723E-01   9.9999998E-03   6.0002163E-02
  5.1994658E-01   9.9999998E-03   8.0002882E-02
  5.1994568E-01   9.9999998E-03   1.0000361E-01
  5.1994449E-01   9.9999998E-03   1.2000435E-01
  5.1994294E-01   9.9999998E-03   1.4000511E-01
  5.3993779E-01   9.9999998E-03  -1.2412233E-12
  5.3993773E-01   9.9999998E-03   2.0001017E-02
  5.3993750E-01   9.9999998E-03   4.0002037E-02
  5.3993702E-01   9.9999998E-03   6.0003068E-02
  5.3993630E-01   9.9999998E-03   8.0004126E-02
  5.3993523E-01   9.9999998E-03   1.0000522E-01
  5.3993386E-01   9.9999998E-03   1.2000635E-01
  5.3993201E-01   9.9999998E-03   1.4000751E-01
  5.5992645E-01   9.9999998E-03  -2.7543087E-12
  5.5992633E-01   9.9999998E-03   2.0001380E-02
  5.5992609E-01   9.9999998E-03   4.0002778E-02
  5.5992556E-01   9.9999998E-03   6.0004216E-02
  5.5992472E-01   9.9999998E-03   8.0005720E-02
  5.5992353E-01   9.9999998E-03   1.0000730E-01
  5.5992192E-01   9.9999998E-03   1.2000898E-01
  5.5991977E-01   9.9999998E-03   1.4001071E-01
  5.7991439E-01   9.9999998E-03  -3.6754589E-13
  5.7991427E-01   9.9999998E-03   2.0001790E-02
  5.7991397E-01   9.9999998E-03   4.0003624E-02
  5.7991338E-01   9.9999998E-03   6.0005546E-02
  5.7991242E-01   9.9999998E-03   8.0007605E-02
  5.7991105E-01   9.9999998E-03   1.0000983E-01
  5.7990921E-01   9.9999998E-03   1.2001222E-01
  5.7990676E-01   9.9999998E-03   1.4001474E-01
  5.9990257E-01   9.9999998E-03   3.3929179E-12
  5.9990245E-01   9.9999998E-03   2.0002237E-02
  5.9990203E-01   9.9999998E-03   4.0004540E-02
  5.9990138E-01   9.9999998E-03   6.0006991E-02
  5.9990031E-01   9.9999998E-03   8.0009691E-02
  5.9989876E-01   9.9999998E-03   1.0001269E-01
  5.9989661E-01   9.9999998E-03   1.2001600E-01
  5.9989381E-01   9.9999998E-03   1.4001949E-01
  6.1989176E-01   9.9999998E-03  -4.3141766E-12
  6.1989158E-01   9.9999998E-03   2.0002687E-02
  6.1989111E-01   9.9999998E-03   4.0005479E-02
  6.1989033E-01   9.9999998E-03   6.0008507E-02
  6.1988908E-01   9.9999998E-03   8.0011941E-02
  6.1988735E-01   9.9999998E-03   1.0001589E-01
  6.1988491E-01   9.9999998E-03   1.2002033E-01
  6.1988175E-01   9.9999998E-03   1.4002506E-01
  6.3988256E-01   9.9999998E-03   1.9696631E-12
  6.3988239E-01   9.9999998E-03   2.0003138E-02
  6.3988185E-01   9.9999998E-03   4.0006429E-02
  6.3988084E-01   9.9999998E-03   6.0010068E-02
  6.3987941E-01   9.9999998E-03   8.0014281E-02
  6.3987732E-01   9.9999998E-03   1.0001926E-01
  6.3987458E-01   9.9999998E-03   1.2002503E-01
  6.3987106E-01   9.9999998E-03   1.4003128E-01
  6.5987569E-01   9.9999998E-03  -2.8705571E-12
  6.5987551E-01   9.9999998E-03   2.0003682E-02
  6.5987480E-01   9.9999998E-03   4.0007576E-02
  6.5987366E-01   9.9999998E-03   6.0011957E-02
  6.5987200E-01   9.9999998E-03   8.0017149E-02
  6.5986967E-01   9.9999998E-03   1.0002343E-01
  6.5986669E-01   9.9999998E-03   1.2003078E-01
  6.5986300E-01   9.9999998E-03   1.4003882E-01
  6.7987323E-01   9.9999998E-03   4.6830369E-12
  6.7987299E-01   9.9999998E-03   2.0004304E-02
  6.7987233E-01   9.9999998E-03   4.0008895E-02
  6.7987114E-01   9.9999998E-03   6.0014158E-02
  6.7986935E-01   9.9999998E-03   8.0020532E-02
  6.7986697E-01   9.9999998E-03   1.0002839E-01
  6.7986393E-01   9.9999998E-03   1.2003773E-01
  6.7986017E-01   9.9999998E-03   1.4004804E-01
  6.9987977E-01   9.9999998E-03   1.9363790E-11
  6.9987959E-01   9.9999998E-03   2.0004777E-02
  6.9987893E-01   9.9999998E-03   4.0009946E-02
  6.9987786E-01   9.9999998E-03   6.0016021E-02
  6.9987625E-01   9.9999998E-03   8.0023602E-02
  6.9987398E-01   9.9999998E-03   1.0003316E-01
  6.9987112E-01   9.9999998E-03   1.2004468E-01
  6.9986761E-01   9.9999998E-03   1.4005752E-01
  7.1990991E-01   9.9999998E-03   1.4073756E-12
  7.1990979E-01   9.9999998E-03   2.0005304E-02
  7.1990925E-01   9.9999998E-03   4.0011063E-02
  7.1990836E-01   9.9999998E-03   6.0017869E-02
  7.1990705E-01   9.9999998E-03   8.0026425E-02
  7.1990514E-01   9.9999998E-03   1.0003724E-01
  7.1990258E-01   9.9999998E-03   1.2005033E-01
  7.1989924E-01   9.9999998E-03   1.4006500E-01
  7.3994482E-01   9.9999998E-03   7.0616729E-12
  7.3994470E-01   9.9999998E-03   2.0005731E-02
  7.3994428E-01   9.9999998E-03   4.0011942E-02
  7.3994362E-01   9.9999998E-03   6.0019262E-02
  7.3994261E-01   9.9999998E-03   8.0028437E-02
  7.3994124E-01   9.9999998E-03   1.0004000E-01
  7.3993939E-01   9.9999998E-03   1.2005397E-01
  7.3993695E-01   9.9999998E-03   1.4006957E-01
  7.5997132E-01   9.9999998E-03   3.0861900E-11
  7.5997126E-01   9.9999998E-03   2.0006035E-02
  7.5997102E-01   9.9999998E-03   4.0012561E-02
  7.5997055E-01   9.9999998E-03   6.0020234E-02
  7.5996995E-01   9.9999998E-03   8.0029815E-02
  7.5996906E-01   9.9999998E-03   1.0004188E-01
  7.5996786E-01   9.9999998E-03   1.2005641E-01
  7.5996643E-01   9.9999998E-03   1.4007257E-01
  7.7999043E-01   9.9999998E-03  -1.1656314E-11
  7.7999043E-01   9.9999998E-03   2.0006215E-02
  7.7999032E-01   9.9999998E-03   4.0012926E-02
  7.7999008E-01   9.9999998E-03   6.0020790E-02
  7.7998978E-01   9.9999998E-03   8.0030590E-02
  7.7998936E-01   9.9999998E-03   1.0004292E-01
  7.7998888E-01   9.9999998E-03   1.2005772E-01
  7.7998823E-01   9.9999998E-03   1.4007413E-01
  8.0000544E-01   9.9999998E-03  -3.5222391E-11
  8.0000544E-01   9.9999998E-03   2.0006280E-02
  8.0000544E-01   9.9999998E-03   4.0013049E-02
  8.0000544E-01   9.9999998E-03   6.0020965E-02
  8.0000544E-01   9.9999998E-03   8.0030814E-02
  8.0000544E-01   9.9999998E-03   1.0004319E-01
  8.0000550E-01   9.9999998E-03   1.2005804E-01
  8.0000561E-01   9.9999998E-03   1.4007449E-01
  8.2001948E-01   9.9999998E-03   9.1972237E-12
  8.2001948E-01   9.9999998E-03   2.0006241E-02
  8.2001960E-01   9.9999998E-03   4.0012959E-02
  8.2001978E-01   9.9999998E-03   6.0020808E-02
  8.2002002E-01   9.9999998E-03   8.0030560E-02
  8.2002044E-01   9.9999998E-03   1.0004281E-01
  8.2002103E-01   9.9999998E-03   1.2005752E-01
  8.2002181E-01   9.9999998E-03   1.4007378E-01
  8.4003407E-01   9.9999998E-03   1.8232651E-11
  8.4003413E-01   9.9999998E-03   2.0006113E-02
  8.4003437E-01   9.9999998E-03   4.0012687E-02
  8.4003466E-01   9.9999998E-03   6.0020357E-02
  8.4003520E-01   9.9999998E-03   8.0029882E-02
  8.4003597E-01   9.9999998E-03   1.0004186E-01
  8.4003699E-01   9.9999998E-03   1.2005624E-01
  8.4003836E-01   9.9999998E-03   1.4007215E-01
  8.6004913E-01   9.9999998E-03   1.9744234E-11
  8.6004925E-01   9.9999998E-03   2.0005902E-02
  8.6004949E-01   9.9999998E-03   4.0012248E-02
  8.6005002E-01   9.9999998E-03   6.0019650E-02
  8.6005074E-01   9.9999998E-03   8.0028847E-02
  8.6005181E-01   9.9999998E-03   1.0004041E-01
  8.6005324E-01   9.9999998E-03   1.2005431E-01
  8.6005515E-01   9.9999998E-03   1.4006972E-01
  8.8006353E-01   9.9999998E-03  -2.4004314E-11
  8.8006365E-01   9.9999998E-03   2.0005619E-02
  8.8006395E-01   9.9999998E-03   4.0011663E-02
  8.8006461E-01   9.9999998E-03   6.0018715E-02
  8.8006550E-01   9.9999998E-03   8.0027483E-02
  8.8006681E-01   9.9999998E-03   1.0003852E-01
  8.8006866E-01   9.9999998E-03   1.2005181E-01
  8.8007098E-01   9.9999998E-03   1.4006655E-01
  9.0007579E-01   9.9999998E-03  -5.4207257E-11
  9.0007591E-01   9.9999998E-03   2.0005280E-02
  9.0007633E-01   9.9999998E-03   4.0010959E-02
  9.0007704E-01   9.9999998E-03   6.0017589E-02
  9.0007818E-01   9.9999998E-03   8.0025852E-02
  9.0007973E-01   9.9999998E-03   1.0003626E-01
  9.0008187E-01   9.9999998E-03   1.2004881E-01
  9.0008467E-01   9.9999998E-03   1.4006272E-01
  9.2008138E-01   9.9999998E-03  -1.5438687E-12
  9.2008156E-01   9.9999998E-03   2.0004973E-02
  9.2008215E-01   9.9999998E-03   4.0010296E-02
  9.2008317E-01   9.9999998E-03   6.0016476E-02
  9.2008466E-01   9.9999998E-03   8.0024138E-02
  9.2008674E-01   9.9999998E-03   1.0003380E-01
  9.2008942E-01   9.9999998E-03   1.2004545E-01
  9.2009282E-01   9.9999998E-03   1.4005841E-01
  9.4008183E-01   9.9999998E-03   1.0364713E-11
  9.4008201E-01   9.9999998E-03   2.0004673E-02
  9.4008267E-01   9.9999998E-03   4.0009648E-02
  9.4008380E-01   9.9999998E-03   6.0015365E-02
  9.4008541E-01   9.9999998E-03   8.0022402E-02
  9.4008768E-01   9.9999998E-03   1.0003124E-01
  9.4009060E-01   9.9999998E-03   1.2004193E-01
  9.4009435E-01   9.9999998E-03   1.4005385E-01
  9.6008068E-01   9.9999998E-03  -2.8657695E-12
  9.6008092E-01   9.9999998E-03   2.0004306E-02
  9.6008152E-01   9.9999998E-03   4.0008880E-02
  9.6008265E-01   9.9999998E-03   6.0014118E-02
  9.6008426E-01   9.9999998E-03   8.0020539E-02
  9.6008658E-01   9.9999998E-03   1.0002859E-01
  9.6008956E-01   9.9999998E-03   1.2003830E-01
  9.6009338E-01   9.9999998E-03   1.4004914E-01
  9.8007876E-01   9.9999998E-03   4.7730526E-12
  9.8007900E-01   9.9999998E-03   2.0003941E-02
  9.8007953E-01   9.9999998E-03   4.0008120E-02
  9.8008060E-01   9.9999998E-03   6.0012884E-02
  9.8008215E-01   9.9999998E-03   8.0018699E-02
  9.8008436E-01   9.9999998E-03   1.0002595E-01
  9.8008728E-01   9.9999998E-03   1.2003470E-01
  9.8009109E-01   9.9999998E-03   1.4004447E-01
  1.0000764E+00   9.9999998E-03  -6.2299081E-12
  1.0000765E+00   9.9999998E-03   2.0003617E-02
  1.0000771E+00   9.9999998E-03   4.0007442E-02
  1.0000781E+00   9.9999998E-03   6.0011771E-02
  1.0000795E+00   9.9999998E-03   8.0017015E-02
  1.0000815E+00   9.9999998E-03   1.0002354E-01
  1.0000844E+00   9.9999998E-03   1.2003137E-01
  1.0000882E+00   9.9999998E-03   1.4004008E-01
  1.0200734E+00   9.9999998E-03   1.9251389E-12
  1.0200735E+00   9.9999998E-03   2.0003326E-02
  1.0200741E+00   9.9999998E-03   4.0006846E-02
  1.0200750E+00   9.9999998E-03   6.0010798E-02
  1.0200764E+00   9.9999998E-03   8.0015518E-02
  1.0200783E+00   9.9999998E-03   1.0002133E-01
  1.0200812E+00   9.9999998E-03   1.2002829E-01
  1.0200849E+00   9.9999998E-03   1.4003600E-01
  1.0400699E+00   9.9999998E-03   1.3396627E-11
  1.0400702E+00   9.9999998E-03   2.0003065E-02
  1.0400707E+00   9.9999998E-03   4.0006306E-02
  1.0400715E+00   9.9999998E-03   6.0009930E-02
  1.0400728E+00   9.9999998E-03   8.0014192E-02
  1.0400747E+00   9.9999998E-03   1.0001935E-01
  1.0400774E+00   9.9999998E-03   1.2002547E-01
  1.0400811E+00   9.9999998E-03   1.4003225E-01
  1.0600662E+00   9.9999998E-03   8.1425864E-12
  1.0600663E+00   9.9999998E-03   2.0002831E-02
  1.0600668E+00   9.9999998E-03   4.0005822E-02
  1.0600675E+00   9.9999998E-03   6.0009148E-02
  1.0600688E+00   9.9999998E-03   8.0013014E-02
  1.0600708E+00   9.9999998E-03   1.0001760E-01
  1.0600734E+00   9.9999998E-03   1.2002293E-01
  1.0600772E+00   9.9999998E-03   1.4002876E-01
  1.0800622E+00   9.9999998E-03   1.2375841E-12
  1.0800623E+00   9.9999998E-03   2.0002622E-02
  1.0800627E+00   9.9999998E-03   4.0005393E-02
  1.0800636E+00   9.9999998E-03   6.0008455E-02
  1.0800648E+00   9.9999998E-03   8.0011964E-02
  1.0800667E+00   9.9999998E-03   1.0001601E-01
  1.0800694E+00   9.9999998E-03   1.2002062E-01
  1.0800731E+00   9.9999998E-03   1.4002551E-01
  1.1000582E+00   9.9999998E-03  -3.9239895E-13
  1.1000583E+00   9.9999998E-03   2.0002440E-02
  1.1000588E+00   9.9999998E-03   4.0005006E-02
  1.1000596E+00   9.9999998E-03   6.0007822E-02
  1.1000608E+00   9.9999998E-03   8.0010965E-02
  1.1000627E+00   9.9999998E-03   1.0001453E-01
  1.1000655E+00   9.9999998E-03   1.2001839E-01
  1.1000694E+00   9.9999998E-03   1.4002265E-01
  1.1200545E+00   9.9999998E-03  -3.3058055E-12
  1.1200546E+00   9.9999998E-03   2.0002274E-02
  1.1200551E+00   9.9999998E-03   4.0004652E-02
  1.1200559E+00   9.9999998E-03   6.0007196E-02
  1.1200572E+00   9.9999998E-03   8.0009997E-02
  1.1200591E+00   9.9999998E-03   1.0001297E-01
  1.1200620E+00   9.9999998E-03   1.2001625E-01
  1.1200659E+00   9.9999998E-03   1.4001980E-01
  1.1400511E+00   9.9999998E-03  -6.2641710E-13
  1.1400514E+00   9.9999998E-03   2.0002097E-02
  1.1400518E+00   9.9999998E-03   4.0004246E-02
  1.1400527E+00   9.9999998E-03   6.0006518E-02
  1.1400540E+00   9.9999998E-03   8.0008879E-02
  1.1400560E+00   9.9999998E-03   1.0001143E-01
  1.1400589E+00   9.9999998E-03   1.2001413E-01
  1.1400632E+00   9.9999998E-03   1.4001746E-01
  1.1600482E+00   9.9999998E-03   5.6674565E-13
  1.1600484E+00   9.9999998E-03   2.0001864E-02
  1.1600490E+00   9.9999998E-03   4.0003754E-02
  1.1600498E+00   9.9999998E-03   6.0005691E-02
  1.1600512E+00   9.9999998E-03   8.0007732E-02
  1.1600534E+00   9.9999998E-03   1.0000985E-01
  1.1600566E+00   9.9999998E-03   1.2001245E-01
  1.1600614E+00   9.9999998E-03   1.4001596E-01
  1.1800457E+00   9.9999998E-03   9.9028511E-13
  1.1800460E+00   9.9999998E-03   2.0001575E-02
  1.1800464E+00   9.9999998E-03   4.0003199E-02
  1.1800474E+00   9.9999998E-03   6.0004842E-02
  1.1800489E+00   9.9999998E-03   8.0006622E-02
  1.1800514E+00   9.9999998E-03   1.0000879E-01
  1.1800551E+00   9.9999998E-03   1.2001166E-01
  1.1800609E+00   9.9999998E-03   1.4001592E-01
  1.2000437E+00   9.9999998E-03  -1.9708176E-12
  1.2000439E+00   9.9999998E-03   2.0001322E-02
  1.2000445E+00   9.9999998E-03   4.0002726E-02
  1.2000456E+00   9.9999998E-03   6.0004313E-02
  1.2000476E+00   9.9999998E-03   8.0006279E-02
  1.2000506E+00   9.9999998E-03   1.0000887E-01
  1.2000555E+00   9.9999998E-03   1.2001270E-01
  1.2000636E+00   9.9999998E-03   1.4001842E-01
  1.2200426E+00   9.9999998E-03  -2.1890162E-13
  1.2200428E+00   9.9999998E-03   2.0001322E-02
  1.2200437E+00   9.9999998E-03   4.0002834E-02
  1.2200452E+00   9.9999998E-03   6.0004760E-02
  1.2200480E+00   9.9999998E-03   8.0007479E-02
  1.2200527E+00   9.9999998E-03   1.0001139E-01
  1.2200605E+00   9.9999998E-03   1.2001672E-01
  1.2200713E+00   9.9999998E-03   1.4002299E-01
  1.2400441E+00   9.9999998E-03  -1.7335928E-12
  1.2400445E+00   9.9999998E-03   2.0001877E-02
  1.2400459E+00   9.9999998E-03   4.0004171E-02
  1.2400489E+00   9.9999998E-03   6.0007270E-02
  1.2400540E+00   9.9999998E-03   8.0011323E-02
  1.2400618E+00   9.9999998E-03   1.0001609E-01
  1.2400711E+00   9.9999998E-03   1.2002143E-01
  1.2400805E+00   9.9999998E-03   1.4002737E-01
  1.2600565E+00   9.9999998E-03  -9.3592788E-13
  1.2600571E+00   9.9999998E-03   2.0002581E-02
  1.2600590E+00   9.9999998E-03   4.0005688E-02
  1.2600625E+00   9.9999998E-03   6.0009707E-02
  1.2600673E+00   9.9999998E-03   8.0014631E-02
  1.2600731E+00   9.9999998E-03   1.0002005E-01
  1.2600788E+00   9.9999998E-03   1.2002556E-01
  1.2600840E+00   9.9999998E-03   1.4003080E-01
  1.2800701E+00   9.9999998E-03   1.7930065E-12
  1.2800703E+00   9.9999998E-03   2.0003129E-02
  1.2800711E+00   9.9999998E-03   4.0006954E-02
  1.2800726E+00   9.9999998E-03   6.0011946E-02
  1.2800742E+00   9.9999998E-03   8.0017947E-02
  1.2800765E+00   9.9999998E-03   1.0002385E-01
  1.2800788E+00   9.9999998E-03   1.2002864E-01
  1.3000724E+00   9.9999998E-03   1.5268871E-12
  1.3000724E+00   9.9999998E-03   2.0003665E-02
  1.3000724E+00   9.9999998E-03   4.0008221E-02
  1.3000723E+00   9.9999998E-03   6.0014229E-02
  1.3000723E+00   9.9999998E-03   8.0021039E-02
 -1.2108197E-07   9.9999998E-03   1.6000001E-01
 -1.1714922E-07   9.9999998E-03   1.8000001E-01
 -1.1170929E-07   9.9999998E-03   2.0000002E-01
 -1.0435988E-07   9.9999998E-03   2.2000001E-01
 -9.4828323E-08   9.9999998E-03   2.4000002E-01
 -8.2753907E-08   9.9999998E-03   2.6000002E-01
 -6.8447768E-08   9.9999998E-03   2.8000003E-01
  1.9999823E-02   9.9999998E-03   1.6000001E-01
  1.9999826E-02   9.9999998E-03   1.8000002E-01
  1.9999836E-02   9.9999998E-03   2.0000002E-01
  1.9999845E-02   9.9999998E-03   2.2000003E-01
  1.9999860E-02   9.9999998E-03   2.4000002E-01
  1.9999878E-02   9.9999998E-03   2.6000002E-01
  1.9999901E-02   9.9999998E-03   2.8000003E-01
  1.9999927E-02   9.9999998E-03   3.0000004E-01
  3.9999746E-02   9.9999998E-03   1.6000003E-01
  3.9999753E-02   9.9999998E-03   1.8000002E-01
  3.9999761E-02   9.9999998E-03   2.0000003E-01
  3.9999776E-02   9.9999998E-03   2.2000004E-01
  3.9999798E-02   9.9999998E-03   2.4000004E-01
  3.9999824E-02   9.9999998E-03   2.6000005E-01
  3.9999858E-02   9.9999998E-03   2.8000003E-01
  3.9999895E-02   9.9999998E-03   3.0000004E-01
  5.9999648E-02   9.9999998E-03   1.6000003E-01
  5.9999656E-02   9.9999998E-03   1.8000004E-01
  5.9999671E-02   9.9999998E-03   2.0000003E-01
  5.9999689E-02   9.9999998E-03   2.2000004E-01
  5.9999716E-02   9.9999998E-03   2.4000005E-01
  5.9999753E-02   9.9999998E-03   2.6000005E-01
  5.9999797E-02   9.9999998E-03   2.8000006E-01
  5.9999853E-02   9.9999998E-03   3.0000004E-01
  7.9999529E-02   9.9999998E-03   1.6000003E-01
  7.9999536E-02   9.9999998E-03   1.8000004E-01
  7.9999559E-02   9.9999998E-03   2.0000005E-01
  7.9999581E-02   9.9999998E-03   2.2000006E-01
  7.9999618E-02   9.9999998E-03   2.4000005E-01
  7.9999663E-02   9.9999998E-03   2.6000005E-01
  7.9999723E-02   9.9999998E-03   2.8000006E-01
  7.9999797E-02   9.9999998E-03   3.0000007E-01
  9.9999383E-02   9.9999998E-03   1.6000004E-01
  9.9999398E-02   9.9999998E-03   1.8000005E-01
  9.9999413E-02   9.9999998E-03   2.0000005E-01
  9.9999443E-02   9.9999998E-03   2.2000006E-01
  9.9999487E-02   9.9999998E-03   2.4000007E-01
  9.9999547E-02   9.9999998E-03   2.6000008E-01
  9.9999629E-02   9.9999998E-03   2.8000009E-01
  9.9999726E-02   9.9999998E-03   3.0000007E-01
  1.1999920E-01   9.9999998E-03   1.6000004E-01
  1.1999922E-01   9.9999998E-03   1.8000005E-01
  1.1999924E-01   9.9999998E-03   2.0000006E-01
  1.1999927E-01   9.9999998E-03   2.2000007E-01
  1.1999933E-01   9.9999998E-03   2.4000008E-01
  1.1999940E-01   9.9999998E-03   2.6000008E-01
  1.1999950E-01   9.9999998E-03   2.8000009E-01
  1.1999962E-01   9.9999998E-03   3.0000010E-01
  1.3999897E-01   9.9999998E-03   1.6000006E-01
  1.3999899E-01   9.9999998E-03   1.8000007E-01
  1.3999902E-01   9.9999998E-03   2.0000008E-01
  1.3999905E-01   9.9999998E-03   2.2000009E-01
  1.3999912E-01   9.9999998E-03   2.4000010E-01
  1.3999921E-01   9.9999998E-03   2.6000011E-01
  1.3999933E-01   9.9999998E-03   2.8000012E-01
  1.3999949E-01   9.9999998E-03   3.0000013E-01
  1.5999869E-01   9.9999998E-03   1.6000007E-01
  1.5999870E-01   9.9999998E-03   1.8000008E-01
  1.5999873E-01   9.9999998E-03   2.0000009E-01
  1.5999877E-01   9.9999998E-03   2.2000012E-01
  1.5999885E-01   9.9999998E-03   2.4000013E-01
  1.5999897E-01   9.9999998E-03   2.6000014E-01
  1.5999912E-01   9.9999998E-03   2.8000015E-01
  1.5999933E-01   9.9999998E-03   3.0000019E-01
  1.7999832E-01   9.9999998E-03   1.6000009E-01
  1.7999834E-01   9.9999998E-03   1.8000010E-01
  1.7999837E-01   9.9999998E-03   2.0000012E-01
  1.7999843E-01   9.9999998E-03   2.2000015E-01
  1.7999852E-01   9.9999998E-03   2.4000016E-01
  1.7999865E-01   9.9999998E-03   2.6000017E-01
  1.7999883E-01   9.9999998E-03   2.8000021E-01
  1.7999908E-01   9.9999998E-03   3.0000022E-01
  1.9999787E-01   9.9999998E-03   1.6000010E-01
  1.9999789E-01   9.9999998E-03   1.8000013E-01
  1.9999792E-01   9.9999998E-03   2.0000017E-01
  1.9999798E-01   9.9999998E-03   2.2000019E-01
  1.9999808E-01   9.9999998E-03   2.4000020E-01
  1.9999824E-01   9.9999998E-03   2.6000023E-01
  1.9999845E-01   9.9999998E-03   2.8000024E-01
  1.9999875E-01   9.9999998E-03   3.0000028E-01
  2.1999732E-01   9.9999998E-03   1.6000013E-01
  2.1999733E-01   9.9999998E-03   1.8000017E-01
  2.1999736E-01   9.9999998E-03   2.0000021E-01
  2.1999742E-01   9.9999998E-03   2.2000025E-01
  2.1999754E-01   9.9999998E-03   2.4000028E-01
  2.1999772E-01   9.9999998E-03   2.6000032E-01
  2.1999797E-01   9.9999998E-03   2.8000036E-01
  2.1999833E-01   9.9999998E-03   3.0000046E-01
  2.3999663E-01   9.9999998E-03   1.6000018E-01
  2.3999663E-01   9.9999998E-03   1.8000023E-01
  2.3999666E-01   9.9999998E-03   2.0000027E-01
  2.3999672E-01   9.9999998E-03   2.2000033E-01
  2.3999685E-01   9.9999998E-03   2.4000040E-01
  2.3999704E-01   9.9999998E-03   2.6000047E-01
  2.3999733E-01   9.9999998E-03   2.8000063E-01
  2.3999773E-01   9.9999998E-03   3.0000085E-01
  2.5999576E-01   9.9999998E-03   1.6000022E-01
  2.5999576E-01   9.9999998E-03   1.8000029E-01
  2.5999579E-01   9.9999998E-03   2.0000036E-01
  2.5999585E-01   9.9999998E-03   2.2000046E-01
  2.5999597E-01   9.9999998E-03   2.4000056E-01
  2.5999618E-01   9.9999998E-03   2.6000074E-01
  2.5999647E-01   9.9999998E-03   2.8000098E-01
  2.5999689E-01   9.9999998E-03   3.0000132E-01
  2.7999473E-01   9.9999998E-03   1.6000028E-01
  2.7999470E-01   9.9999998E-03   1.8000038E-01
  2.7999470E-01   9.9999998E-03   2.0000048E-01
  2.7999476E-01   9.9999998E-03   2.2000062E-01
  2.7999485E-01   9.9999998E-03   2.4000078E-01
  2.7999505E-01   9.9999998E-03   2.6000103E-01
  2.7999535E-01   9.9999998E-03   2.8000140E-01
  2.7999577E-01   9.9999998E-03   3.0000186E-01
  2.9999343E-01   9.9999998E-03   1.6000035E-01
  2.9999337E-01   9.9999998E-03   1.8000047E-01
  2.9999334E-01   9.9999998E-03   2.0000063E-01
  2.9999340E-01   9.9999998E-03   2.2000082E-01
  2.9999349E-01   9.9999998E-03   2.4000105E-01
  2.9999366E-01   9.9999998E-03   2.6000139E-01
  2.9999396E-01   9.9999998E-03   2.8000185E-01
  2.9999438E-01   9.9999998E-03   3.0000240E-01
  3.1999183E-01   9.9999998E-03   1.6000043E-01
  3.1999174E-01   9.9999998E-03   1.8000059E-01
  3.1999168E-01   9.9999998E-03   2.0000079E-01
  3.1999171E-01   9.9999998E-03   2.2000104E-01
  3.1999177E-01   9.9999998E-03   2.4000135E-01
  3.1999198E-01   9.9999998E-03   2.6000178E-01
  3.1999227E-01   9.9999998E-03   2.8000236E-01
  3.1999272E-01   9.9999998E-03   3.0000299E-01
  3.3998987E-01   9.9999998E-03   1.6000052E-01
  3.3998975E-01   9.9999998E-03   1.8000071E-01
  3.3998966E-01   9.9999998E-03   2.0000097E-01
  3.3998963E-01   9.9999998E-03   2.2000130E-01
  3.3998969E-01   9.9999998E-03   2.4000169E-01
  3.3998990E-01   9.9999998E-03   2.6000223E-01
  3.3999023E-01   9.9999998E-03   2.8000292E-01
  3.3999076E-01   9.9999998E-03   3.0000368E-01
  3.5998750E-01   9.9999998E-03   1.6000061E-01
  3.5998729E-01   9.9999998E-03   1.8000086E-01
  3.5998714E-01   9.9999998E-03   2.0000118E-01
  3.5998708E-01   9.9999998E-03   2.2000159E-01
  3.5998714E-01   9.9999998E-03   2.4000210E-01
  3.5998732E-01   9.9999998E-03   2.6000276E-01
  3.5998774E-01   9.9999998E-03   2.8000361E-01
  3.5998836E-01   9.9999998E-03   3.0000454E-01
  3.7998462E-01   9.9999998E-03   1.6000073E-01
  3.7998432E-01   9.9999998E-03   1.8000102E-01
  3.7998411E-01   9.9999998E-03   2.0000140E-01
  3.7998396E-01   9.9999998E-03   2.2000192E-01
  3.7998399E-01   9.9999998E-03   2.4000254E-01
  3.7998420E-01   9.9999998E-03   2.6000336E-01
  3.7998465E-01   9.9999998E-03   2.8000441E-01
  3.7998542E-01   9.9999998E-03   3.0000558E-01
  3.9998114E-01   9.9999998E-03   1.6000086E-01
  3.9998075E-01   9.9999998E-03   1.8000121E-01
  3.9998040E-01   9.9999998E-03   2.0000167E-01
  3.9998019E-01   9.9999998E-03   2.2000229E-01
  3.9998013E-01   9.9999998E-03   2.4000306E-01
  3.9998034E-01   9.9999998E-03   2.6000410E-01
  3.9998087E-01   9.9999998E-03   2.8000540E-01
  3.9998180E-01   9.9999998E-03   3.0000684E-01
  4.1997701E-01   9.9999998E-03   1.6000107E-01
  4.1997644E-01   9.9999998E-03   1.8000145E-01
  4.1997594E-01   9.9999998E-03   2.0000200E-01
  4.1997558E-01   9.9999998E-03   2.2000273E-01
  4.1997543E-01   9.9999998E-03   2.4000366E-01
  4.1997564E-01   9.9999998E-03   2.6000494E-01
  4.1997623E-01   9.9999998E-03   2.8000659E-01
  4.1997731E-01   9.9999998E-03   3.0000839E-01
  4.3997207E-01   9.9999998E-03   1.6000138E-01
  4.3997130E-01   9.9999998E-03   1.8000181E-01
  4.3997058E-01   9.9999998E-03   2.0000240E-01
  4.3997002E-01   9.9999998E-03   2.2000323E-01
  4.3996972E-01   9.9999998E-03   2.4000435E-01
  4.3996984E-01   9.9999998E-03   2.6000589E-01
  4.3997049E-01   9.9999998E-03   2.8000799E-01
  4.3997177E-01   9.9999998E-03   3.0001026E-01
  4.5996618E-01   9.9999998E-03   1.6000187E-01
  4.5996517E-01   9.9999998E-03   1.8000235E-01
  4.5996416E-01   9.9999998E-03   2.0000298E-01
  4.5996332E-01   9.9999998E-03   2.2000389E-01
  4.5996279E-01   9.9999998E-03   2.4000515E-01
  4.5996276E-01   9.9999998E-03   2.6000702E-01
  4.5996341E-01   9.9999998E-03   2.8000966E-01
  4.5996487E-01   9.9999998E-03   3.0001259E-01
  4.7995919E-01   9.9999998E-03   1.6000268E-01
  4.7995785E-01   9.9999998E-03   1.8000320E-01
  4.7995651E-01   9.9999998E-03   2.0000386E-01
  4.7995529E-01   9.9999998E-03   2.2000480E-01
  4.7995442E-01   9.9999998E-03   2.4000618E-01
  4.7995412E-01   9.9999998E-03   2.6000834E-01
  4.7995469E-01   9.9999998E-03   2.8001162E-01
  4.7995624E-01   9.9999998E-03   3.0001542E-01
  4.9995089E-01   9.9999998E-03   1.6000395E-01
  4.9994919E-01   9.9999998E-03   1.8000454E-01
  4.9994740E-01   9.9999998E-03   2.0000525E-01
  4.9994570E-01   9.9999998E-03   2.2000617E-01
  4.9994439E-01   9.9999998E-03   2.4000758E-01
  4.9994364E-01   9.9999998E-03   2.6000991E-01
  4.9994391E-01   9.9999998E-03   2.8001398E-01
  4.9994540E-01   9.9999998E-03   3.0001894E-01
  5.1994109E-01   9.9999998E-03   1.6000587E-01
  5.1993901E-01   9.9999998E-03   1.8000662E-01
  5.1993674E-01   9.9999998E-03   2.0000742E-01
  5.1993448E-01   9.9999998E-03   2.2000833E-01
  5.1993251E-01   9.9999998E-03   2.4000970E-01
  5.1993114E-01   9.9999998E-03   2.6001206E-01
  5.1993072E-01   9.9999998E-03   2.8001690E-01
  5.1993167E-01   9.9999998E-03   3.0002329E-01
  5.3992981E-01   9.9999998E-03   1.6000864E-01
  5.3992724E-01   9.9999998E-03   1.8000972E-01
  5.3992450E-01   9.9999998E-03   2.0001075E-01
  5.3992164E-01   9.9999998E-03   2.2001171E-01
  5.3991896E-01   9.9999998E-03   2.4001297E-01
  5.3991652E-01   9.9999998E-03   2.6001522E-01
  5.3991497E-01   9.9999998E-03   2.8002071E-01
  5.3991461E-01   9.9999998E-03   3.0002880E-01
  5.5991715E-01   9.9999998E-03   1.6001245E-01
  5.5991423E-01   9.9999998E-03   1.8001407E-01
  5.5991095E-01   9.9999998E-03   2.0001554E-01
  5.5990744E-01   9.9999998E-03   2.2001675E-01
  5.5990386E-01   9.9999998E-03   2.4001801E-01
  5.5990022E-01   9.9999998E-03   2.6002014E-01
  5.5989677E-01   9.9999998E-03   2.8002620E-01
  5.5989403E-01   9.9999998E-03   3.0003610E-01
  5.7990378E-01   9.9999998E-03   1.6001725E-01
  5.7990032E-01   9.9999998E-03   1.8001971E-01
  5.7989657E-01   9.9999998E-03   2.0002191E-01
  5.7989246E-01   9.9999998E-03   2.2002386E-01
  5.7988793E-01   9.9999998E-03   2.4002536E-01
  5.7988286E-01   9.9999998E-03   2.6002780E-01
  5.7987702E-01   9.9999998E-03   2.8003460E-01
  5.7987070E-01   9.9999998E-03   3.0004621E-01
  5.9989035E-01   9.9999998E-03   1.6002294E-01
  5.9988636E-01   9.9999998E-03   1.8002632E-01
  5.9988201E-01   9.9999998E-03   2.0002963E-01
  5.9987730E-01   9.9999998E-03   2.2003271E-01
  5.9987199E-01   9.9999998E-03   2.4003562E-01
  5.9986526E-01   9.9999998E-03   2.6003942E-01
  5.9985697E-01   9.9999998E-03   2.8004789E-01
  5.9984672E-01   9.9999998E-03   3.0006072E-01
  6.1987776E-01   9.9999998E-03   1.6002972E-01
  6.1987317E-01   9.9999998E-03   1.8003416E-01
  6.1986810E-01   9.9999998E-03   2.0003869E-01
  6.1986256E-01   9.9999998E-03   2.2004361E-01
  6.1985618E-01   9.9999998E-03   2.4004926E-01
  6.1984867E-01   9.9999998E-03   2.6005751E-01
  6.1983860E-01   9.9999998E-03   2.8006896E-01
  6.1982518E-01   9.9999998E-03   3.0008209E-01
  6.3986677E-01   9.9999998E-03   1.6003747E-01
  6.3986158E-01   9.9999998E-03   1.8004344E-01
  6.3985568E-01   9.9999998E-03   2.0004977E-01
  6.3984936E-01   9.9999998E-03   2.2005813E-01
  6.3984275E-01   9.9999998E-03   2.4007057E-01
  6.3983512E-01   9.9999998E-03   2.6008698E-01
  6.3982415E-01   9.9999998E-03   2.8010076E-01
  6.3980901E-01   9.9999998E-03   3.0011237E-01
  6.5985852E-01   9.9999998E-03   1.6004689E-01
  6.5985310E-01   9.9999998E-03   1.8005499E-01
  6.5984702E-01   9.9999998E-03   2.0006499E-01
  6.5984064E-01   9.9999998E-03   2.2007991E-01
  6.5983456E-01   9.9999998E-03   2.4010240E-01
  6.5982795E-01   9.9999998E-03   2.6012793E-01
  6.5981621E-01   9.9999998E-03   2.8014052E-01
  6.5980077E-01   9.9999998E-03   3.0014798E-01
  6.7985564E-01   9.9999998E-03   1.6005841E-01
  6.7985016E-01   9.9999998E-03   1.8006915E-01
  6.7984408E-01   9.9999998E-03   2.0008326E-01
  6.7983830E-01   9.9999998E-03   2.2010535E-01
  6.7983389E-01   9.9999998E-03   2.4013716E-01
  6.7982912E-01   9.9999998E-03   2.6016790E-01
  6.7981786E-01   9.9999998E-03   2.8017727E-01
  6.7980647E-01   9.9999998E-03   3.0018038E-01
  6.9986326E-01   9.9999998E-03   1.6007048E-01
  6.9985807E-01   9.9999998E-03   1.8008384E-01
  6.9985259E-01   9.9999998E-03   2.0010164E-01
  6.9984800E-01   9.9999998E-03   2.2012888E-01
  6.9984591E-01   9.9999998E-03   2.4016580E-01
  6.9984353E-01   9.9999998E-03   2.6019827E-01
  6.9983727E-01   9.9999998E-03   2.8020355E-01
  6.9983852E-01   9.9999998E-03   3.0020446E-01
  7.1989506E-01   9.9999998E-03   1.6007984E-01
  7.1989030E-01   9.9999998E-03   1.8009497E-01
  7.1988535E-01   9.9999998E-03   2.0011477E-01
  7.1988112E-01   9.9999998E-03   2.2014444E-01
  7.1987903E-01   9.9999998E-03   2.4018325E-01
  7.1987933E-01   9.9999998E-03   2.6021484E-01
  7.1988147E-01   9.9999998E-03   2.8021812E-01
  7.1988636E-01   9.9999998E-03   3.0021986E-01
  7.3993403E-01   9.9999998E-03   1.6008523E-01
  7.3993075E-01   9.9999998E-03   1.8010101E-01
  7.3992741E-01   9.9999998E-03   2.0012121E-01
  7.3992467E-01   9.9999998E-03   2.2015099E-01
  7.3992342E-01   9.9999998E-03   2.4018946E-01
  7.3992407E-01   9.9999998E-03   2.6022100E-01
  7.3992616E-01   9.9999998E-03   2.8022552E-01
  7.3992985E-01   9.9999998E-03   3.0022919E-01
  7.5996464E-01   9.9999998E-03   1.6008866E-01
  7.5996280E-01   9.9999998E-03   1.8010464E-01
  7.5996095E-01   9.9999998E-03   2.0012476E-01
  7.5995958E-01   9.9999998E-03   2.2015415E-01
  7.5995916E-01   9.9999998E-03   2.4019186E-01
  7.5995988E-01   9.9999998E-03   2.6022345E-01
  7.5996131E-01   9.9999998E-03   2.8022942E-01
  7.5996363E-01   9.9999998E-03   3.0023494E-01
  7.7998751E-01   9.9999998E-03   1.6009039E-01
  7.7998680E-01   9.9999998E-03   1.8010634E-01
  7.7998620E-01   9.9999998E-03   2.0012625E-01
  7.7998590E-01   9.9999998E-03   2.2015522E-01
  7.7998608E-01   9.9999998E-03   2.4019247E-01
  7.7998662E-01   9.9999998E-03   2.6022431E-01
  7.7998739E-01   9.9999998E-03   2.8023148E-01
  7.7998853E-01   9.9999998E-03   3.0023819E-01
  8.0000579E-01   9.9999998E-03   1.6009068E-01
  8.0000609E-01   9.9999998E-03   1.8010651E-01
  8.0000651E-01   9.9999998E-03   2.0012617E-01
  8.0000699E-01   9.9999998E-03   2.2015491E-01
  8.0000752E-01   9.9999998E-03   2.4019215E-01
  8.0000788E-01   9.9999998E-03   2.6022425E-01
  8.0000806E-01   9.9999998E-03   2.8023219E-01
  8.0000812E-01   9.9999998E-03   3.0023947E-01
  8.2002276E-01   9.9999998E-03   1.6008979E-01
  8.2002389E-01   9.9999998E-03   1.8010540E-01
  8.2002521E-01   9.9999998E-03   2.0012484E-01
  8.2002640E-01   9.9999998E-03   2.2015354E-01
  8.2002723E-01   9.9999998E-03   2.4019106E-01
  8.2002735E-01   9.9999998E-03   2.6022357E-01
  8.2002717E-01   9.9999998E-03   2.8023171E-01
  8.2002616E-01   9.9999998E-03   3.0023894E-01
  8.4004003E-01   9.9999998E-03   1.6008782E-01
  8.4004200E-01   9.9999998E-03   1.8010311E-01
  8.4004408E-01   9.9999998E-03   2.0012221E-01
  8.4004599E-01   9.9999998E-03   2.2015050E-01
  8.4004706E-01   9.9999998E-03   2.4018779E-01
  8.4004700E-01   9.9999998E-03   2.6022017E-01
  8.4004664E-01   9.9999998E-03   2.8022841E-01
  8.4004486E-01   9.9999998E-03   3.0023542E-01
  8.6005747E-01   9.9999998E-03   1.6008489E-01
  8.6006021E-01   9.9999998E-03   1.8009970E-01
  8.6006314E-01   9.9999998E-03   2.0011821E-01
  8.6006576E-01   9.9999998E-03   2.2014572E-01
  8.6006707E-01   9.9999998E-03   2.4018210E-01
  8.6006683E-01   9.9999998E-03   2.6021370E-01
  8.6006653E-01   9.9999998E-03   2.8022200E-01
  8.6006403E-01   9.9999998E-03   3.0022886E-01
  8.8007396E-01   9.9999998E-03   1.6008106E-01
  8.8007742E-01   9.9999998E-03   1.8009523E-01
  8.8008112E-01   9.9999998E-03   2.0011294E-01
  8.8008446E-01   9.9999998E-03   2.2013921E-01
  8.8008606E-01   9.9999998E-03   2.4017400E-01
  8.8008565E-01   9.9999998E-03   2.6020432E-01
  8.8008541E-01   9.9999998E-03   2.8021282E-01
  8.8008237E-01   9.9999998E-03   3.0021957E-01
  9.0008819E-01   9.9999998E-03   1.6007644E-01
  9.0009230E-01   9.9999998E-03   1.8008980E-01
  9.0009665E-01   9.9999998E-03   2.0010646E-01
  9.0010059E-01   9.9999998E-03   2.2013110E-01
  9.0010232E-01   9.9999998E-03   2.4016361E-01
  9.0010166E-01   9.9999998E-03   2.6019239E-01
  9.0010178E-01   9.9999998E-03   2.8020123E-01
  9.0009856E-01   9.9999998E-03   3.0020803E-01
  9.2009711E-01   9.9999998E-03   1.6007121E-01
  9.2010230E-01   9.9999998E-03   1.8008363E-01
  9.2010790E-01   9.9999998E-03   2.0009902E-01
  9.2011285E-01   9.9999998E-03   2.2012168E-01
  9.2011470E-01   9.9999998E-03   2.4015151E-01
  9.2011386E-01   9.9999998E-03   2.6017851E-01
  9.2011416E-01   9.9999998E-03   2.8018770E-01
  9.2011142E-01   9.9999998E-03   3.0019471E-01
  9.4009900E-01   9.9999998E-03   1.6006564E-01
  9.4010478E-01   9.9999998E-03   1.8007706E-01
  9.4011158E-01   9.9999998E-03   2.0009103E-01
  9.4011873E-01   9.9999998E-03   2.2011150E-01
  9.4012284E-01   9.9999998E-03   2.4013853E-01
  9.4012213E-01   9.9999998E-03   2.6016364E-01
  9.4012254E-01   9.9999998E-03   2.8017306E-01
  9.4012010E-01   9.9999998E-03   3.0018017E-01
  9.6009815E-01   9.9999998E-03   1.6005990E-01
  9.6010411E-01   9.9999998E-03   1.8007030E-01
  9.6011126E-01   9.9999998E-03   2.0008275E-01
  9.6011925E-01   9.9999998E-03   2.2010104E-01
  9.6012592E-01   9.9999998E-03   2.4012549E-01
  9.6012729E-01   9.9999998E-03   2.6014856E-01
  9.6012813E-01   9.9999998E-03   2.8015795E-01
  9.6012604E-01   9.9999998E-03   3.0016509E-01
  9.8009592E-01   9.9999998E-03   1.6005418E-01
  9.8010200E-01   9.9999998E-03   1.8006356E-01
  9.8010933E-01   9.9999998E-03   2.0007454E-01
  9.8011786E-01   9.9999998E-03   2.2009057E-01
  9.8012608E-01   9.9999998E-03   2.4011268E-01
  9.8013026E-01   9.9999998E-03   2.6013368E-01
  9.8013228E-01   9.9999998E-03   2.8014278E-01
  9.8013103E-01   9.9999998E-03   3.0014983E-01
  1.0000931E+00   9.9999998E-03   1.6004878E-01
  1.0000991E+00   9.9999998E-03   1.8005714E-01
  1.0001065E+00   9.9999998E-03   2.0006680E-01
  1.0001154E+00   9.9999998E-03   2.2008058E-01
  1.0001252E+00   9.9999998E-03   2.4010034E-01
  1.0001321E+00   9.9999998E-03   2.6011935E-01
  1.0001363E+00   9.9999998E-03   2.8012788E-01
  1.0001369E+00   9.9999998E-03   3.0013469E-01
  1.0200897E+00   9.9999998E-03   1.6004373E-01
  1.0200958E+00   9.9999998E-03   1.8005113E-01
  1.0201033E+00   9.9999998E-03   2.0005986E-01
  1.0201126E+00   9.9999998E-03   2.2007187E-01
  1.0201238E+00   9.9999998E-03   2.4008916E-01
  1.0201337E+00   9.9999998E-03   2.6010615E-01
  1.0201410E+00   9.9999998E-03   2.8011376E-01
  1.0201452E+00   9.9999998E-03   3.0012012E-01
  1.0400860E+00   9.9999998E-03   1.6003899E-01
  1.0400923E+00   9.9999998E-03   1.8004578E-01
  1.0401000E+00   9.9999998E-03   2.0005350E-01
  1.0401100E+00   9.9999998E-03   2.2006465E-01
  1.0401227E+00   9.9999998E-03   2.4007986E-01
  1.0401360E+00   9.9999998E-03   2.6009461E-01
  1.0401478E+00   9.9999998E-03   2.8010178E-01
  1.0401576E+00   9.9999998E-03   3.0010805E-01
  1.0600822E+00   9.9999998E-03   1.6003464E-01
  1.0600885E+00   9.9999998E-03   1.8004091E-01
  1.0600966E+00   9.9999998E-03   2.0004816E-01
  1.0601077E+00   9.9999998E-03   2.2005884E-01
  1.0601220E+00   9.9999998E-03   2.4007268E-01
  1.0601388E+00   9.9999998E-03   2.6008561E-01
  1.0601553E+00   9.9999998E-03   2.8009269E-01
  1.0601709E+00   9.9999998E-03   3.0009931E-01
  1.0800782E+00   9.9999998E-03   1.6003087E-01
  1.0800848E+00   9.9999998E-03   1.8003656E-01
  1.0800937E+00   9.9999998E-03   2.0004390E-01
  1.0801061E+00   9.9999998E-03   2.2005445E-01
  1.0801221E+00   9.9999998E-03   2.4006720E-01
  1.0801415E+00   9.9999998E-03   2.6007852E-01
  1.0801610E+00   9.9999998E-03   2.8008553E-01
  1.0801803E+00   9.9999998E-03   3.0009201E-01
  1.1000745E+00   9.9999998E-03   1.6002725E-01
  1.1000817E+00   9.9999998E-03   1.8003292E-01
  1.1000917E+00   9.9999998E-03   2.0004065E-01
  1.1001054E+00   9.9999998E-03   2.2005118E-01
  1.1001230E+00   9.9999998E-03   2.4006300E-01
  1.1001433E+00   9.9999998E-03   2.6007259E-01
  1.1001630E+00   9.9999998E-03   2.8007931E-01
  1.1200715E+00   9.9999998E-03   1.6002420E-01
  1.1200794E+00   9.9999998E-03   1.8003017E-01
  1.1200906E+00   9.9999998E-03   2.0003840E-01
  1.1201060E+00   9.9999998E-03   2.2004899E-01
  1.1201248E+00   9.9999998E-03   2.4005975E-01
  1.1201441E+00   9.9999998E-03   2.6006791E-01
  1.1201619E+00   9.9999998E-03   2.8007415E-01
  1.1400692E+00   9.9999998E-03   1.6002204E-01
  1.1400782E+00   9.9999998E-03   1.8002857E-01
  1.1400911E+00   9.9999998E-03   2.0003748E-01
  1.1401081E+00   9.9999998E-03   2.2004811E-01
  1.1401266E+00   9.9999998E-03   2.4005754E-01
  1.1401436E+00   9.9999998E-03   2.6006454E-01
  1.1600684E+00   9.9999998E-03   1.6002114E-01
  1.1600789E+00   9.9999998E-03   1.8002857E-01
  1.1600939E+00   9.9999998E-03   2.0003828E-01
  1.1601113E+00   9.9999998E-03   2.2004826E-01
  1.1601280E+00   9.9999998E-03   2.4005637E-01
  1.1601419E+00   9.9999998E-03   2.6006192E-01
  1.1800698E+00   9.9999998E-03   1.6002224E-01
  1.1800828E+00   9.9999998E-03   1.8003078E-01
  1.1800985E+00   9.9999998E-03   2.0004036E-01
  1.1801144E+00   9.9999998E-03   2.2004904E-01
  1.1801277E+00   9.9999998E-03   2.4005541E-01
  1.2000753E+00   9.9999998E-03   1.6002582E-01
  1.2000893E+00   9.9999998E-03   1.8003419E-01
  1.2001034E+00   9.9999998E-03   2.0004259E-01
  1.2001157E+00   9.9999998E-03   2.2004944E-01
  1.2200837E+00   9.9999998E-03   1.6003008E-01
  1.2200954E+00   9.9999998E-03   1.8003745E-01
  1.2201059E+00   9.9999998E-03   2.0004408E-01
  1.2201134E+00   9.9999998E-03   2.2004853E-01
  1.2400892E+00   9.9999998E-03   1.6003366E-01
  1.2400967E+00   9.9999998E-03   1.8003936E-01
  1.2600886E+00   9.9999998E-03   1.6003546E-01
VERTICES 2975 5950
1 0
1 1
1 2
1 3
1 4
1 5
1 6
1 7
1 8
1 9
1 10
1 11
1 12
1 13
1 14
1 15
1 16
1 17
1 18
1 19
1 20
1 21
1 22
1 23
1 24
1 25
1 26
1 27
1 28
1 29
1 30
1 31
1 32
1 33
1 34
1 35
1 36
1 37
1 38
1 39
1 40
1 41
1 42
1 43
1 44
1 45
1 46
1 47
1 48
1 49
1 50
1 51
1 52
1 53
1 54
1 55
1 56
1 57
1 58
1 59
1 60
1 61
1 62
1 63
1 64
1 65
1 66
1 67
1 68
1 69
1 70
1 71
1 72
1 73
1 74
1 75
1 76
1 77
1 78
1 79
1 80
1 81
1 82
1 83
1 84
1 85
1 86
1 87
1 88
1 89
1 90
1 91
1 92
1 93
1 94
1 95
1 96
1 97
1 98
1 99
1 100
1 101
1 102
1 103
1 104
1 105
1 106
1 107
1 108
1 109
1 110
1 111
1 112
1 113
1 114
1 115
1 116
1 117
1 118
1 119
1 120
1 121
1 122
1 123
1 124
1 125
1 126
1 127
1 128
1 129
1 130
1 131
1 132
1 133
1 134
1 135
1 136
1 137
1 138
1 139
1 140
1 141
1 142
1 143
1 144
1 145
1 146
1 147
1 148
1 149
1 150
1 151
1 152
1 153
1 154
1 155
1 156
1 157
1 158
1 159
1 160
1 161
1 162
1 163
1 164
1 165
1 166
1 167
1 168
1 169
1 170
1 171
1 172
1 173
1 174
1 175
1 176
1 177
1 178
1 179
1 180
1 181
1 182
1 183
1 184
1 185
1 186
1 187
1 188
1 189
1 190
1 191
1 192
1 193
1 194
1 195
1 196
1 197
1 198
1 199
1 200
1 201
1 202
1 203
1 204
1 205
1 206
1 207
1 208
1 209
1 210
1 211
1 212
1 213
1 214
1 215
1 216
1 217
1 218
1 219
1 220
1 221
1 222
1 223
1 224
1 225
1 226
1 227
1 228
1 229
1 230
1 231
1 232
1 233
1 234
1 235
1 236
1 237
1 238
1 239
1 240
1 241
1 242
1 243
1 244
1 245
1 246
1 247
1 248
1 249
1 250
1 251
1 252
1 253
1 254
1 255
1 256
1 257
1 258
1 259
1 260
1 261
1 262
1 263
1 264
1 265
1 266
1 267
1 268
1 269
1 270
1 271
1 272
1 273
1 274
1 275
1 276
1 277
1 278
1 279
1 280
1 281
1 282
1 283
1 284
1 285
1 286
1 287
1 288
1 289
1 290
1 291
1 292
1 293
1 294
1 295
1 296
1 297
1 298
1 299
1 300
1 301
1 302
1 303
1 304
1 305
1 306
1 307
1 308
1 309
1 310
1 311
1 312
1 313
1 314
1 315
1 316
1 317
1 318
1 319
1 320
1 321
1 322
1 323
1 324
1 325
1 326
1 327
1 328
1 329
1 330
1 331
1 332
1 333
1 334
1 335
1 336
1 337
1 338
1 339
1 340
1 341
1 342
1 343
1 344
1 345
1 346
1 347
1 348
1 349
1 350
1 351
1 352
1 353
1 354
1 355
1 356
1 357
1 358
1 359
1 360
1 361
1 362
1 363
1 364
1 365
1 366
1 367
1 368
1 369
1 370
1 371
1 372
1 373
1 374
1 375
1 376
1 377
1 378
1 379
1 380
1 381
1 382
1 383
1 384
1 385
1 386
1 387
1 388
1 389
1 390
1 391
1 392
1 393
1 394
1 395
1 396
1 397
1 398
1 399
1 400
1 401
1 402
1 403
1 404
1 405
1 406
1 407
1 408
1 409
1 410
1 411
1 412
1 413
1 414
1 415
1 416
1 417
1 418
1 419
1 420
1 421
1 422
1 423
1 424
1 425
1 426
1 427
1 428
1 429
1 430
1 431
1 432
1 433
1 434
1 435
1 436
1 437
1 438
1 439
1 440
1 441
1 442
1 443
1 444
1 445
1 446
1 447
1 448
1 449
1 450
1 451
1 452
1 453
1 454
1 455
1 456
1 457
1 458
1 459
1 460
1 461
1 462
1 463
1 464
1 465
1 466
1 467
1 468
1 469
1 470
1 471
1 472
1 473
1 474
1 475
1 476
1 477
1 478
1 479
1 480
1 481
1 482
1 483
1 484
1 485
1 486
1 487
1 488
1 489
1 490
1 491
1 492
1 493
1 494
1 495
1 496
1 497
1 498
1 499
1 500
1 501
1 502
1 503
1 504
1 505
1 506
1 507
1 508
1 509
1 510
1 511
1 512
1 513
1 514
1 515
1 516
1 517
1 518
1 519
1 520
1 521
1 522
1 523
1 524
1 525
1 526
1 527
1 528
1 529
1 530
1 531
1 532
1 533
1 534
1 535
1 536
1 537
1 538
1 539
1 540
1 541
1 542
1 543
1 544
1 545
1 546
1 547
1 548
1 549
1 550
1 551
1 552
1 553
1 554
1 555
1 556
1 557
1 558
1 559
1 560
1 561
1 562
1 563
1 564
1 565
1 566
1 567
1 568
1 569
1 570
1 571
1 572
1 573
1 574
1 575
1 576
1 577
1 578
1 579
1 580
1 581
1 582
1 583
1 584
1 585
1 586
1 587
1 588
1 589
1 590
1 591
1 592
1 593
1 594
1 595
1 596
1 597
1 598
1 599
1 600
1 601
1 602
1 603
1 604
1 605
1 606
1 607
1 608
1 609
1 610
1 611
1 612
1 613
1 614
1 615
1 616
1 617
1 618
1 619
1 620
1 621
1 622
1 623
1 624
1 625
1 626
1 627
1 628
1 629
1 630
1 631
1 632
1 633
1 634
1 635
1 636
1 637
1 638
1 639
1 640
1 641
1 642
1 643
1 644
1 645
1 646
1 647
1 648
1 649
1 650
1 651
1 652
1 653
1 654
1 655
1 656
1 657
1 658
1 659
1 660
1 661
1 662
1 663
1 664
1 665
1 666
1 667
1 668
1 669
1 670
1 671
1 672
1 673
1 674
1 675
1 676
1 677
1 678
1 679
1 680
1 681
1 682
1 683
1 684
1 685
1 686
1 687
1 688
1 689
1 690
1 691
1 692
1 693
1 694
1 695
1 696
1 697
1 698
1 699
1 700
1 701
1 702
1 703
1 704
1 705
1 706
1 707
1 708
1 709
1 710
1 711
1 712
1 713
1 714
1 715
1 716
1 717
1 718
1 719
1 720
1 721
1 722
1 723
1 724
1 725
1 726
1 727
1 728
1 729
1 730
1 731
1 732
1 733
1 734
1 735
1 736
1 737
1 738
1 739
1 740
1 741
1 742
1 743
1 744
1 745
1 746
1 747
1 748
1 749
1 750
1 751
1 752
1 753
1 754
1 755
1 756
1 757
1 758
1 759
1 760
1 761
1 762
1 763
1 764
1 765
1 766
1 767
1 768
1 769
1 770
1 771
1 772
1 773
1 774
1 775
1 776
1 777
1 778
1 779
1 780
1 781
1 782
1 783
1 784
1 785
1 786
1 787
1 788
1 789
1 790
1 791
1 792
1 793
1 794
1 795
1 796
1 797
1 798
1 799
1 800
1 801
1 802
1 803
1 804
1 805
1 806
1 807
1 808
1 809
1 810
1 811
1 812
1 813
1 814
1 815
1 816
1 817
1 818
1 819
1 820
1 821
1 822
1 823
1 824
1 825
1 826
1 827
1 828
1 829
1 830
1 831
1 832
1 833
1 834
1 835
1 836
1 837
1 838
1 839
1 840
1 841
1 842
1 843
1 844
1 845
1 846
1 847
1 848
1 849
1 850
1 851
1 852
1 853
1 854
1 855
1 856
1 857
1 858
1 859
1 860
1 861
1 862
1 863
1 864
1 865
1 866
1 867
1 868
1 869
1 870
1 871
1 872
1 873
1 874
1 875
1 876
1 877
1 878
1 879
1 880
1 881
1 882
1 883
1 884
1 885
1 886
1 887
1 888
1 889
1 890
1 891
1 892
1 893
1 894
1 895
1 896
1 897
1 898
1 899
1 900
1 901
1 902
1 903
1 904
1 905
1 906
1 907
1 908
1 909
1 910
1 911
1 912
1 913
1 914
1 915
1 916
1 917
1 918
1 919
1 920
1 921
1 922
1 923
1 924
1 925
1 926
1 927
1 928
1 929
1 930
1 931
1 932
1 933
1 934
1 935
1 936
1 937
1 938
1 939
1 940
1 941
1 942
1 943
1 944
1 945
1 946
1 947
1 948
1 949
1 950
1 951
1 952
1 953
1 954
1 955
1 956
1 957
1 958
1 959
1 960
1 961
1 962
1 963
1 964
1 965
1 966
1 967
1 968
1 969
1 970
1 971
1 972
1 973
1 974
1 975
1 976
1 977
1 978
1 979
1 980
1 981
1 982
1 983
1 984
1 985
1 986
1 987
1 988
1 989
1 990
1 991
1 992
1 993
1 994
1 995
1 996
1 997
1 998
1 999
1 1000
1 1001
1 1002
1 1003
1 1004
1 1005
1 1006
1 1007
1 1008
1 1009
1 1010
1 1011
1 1012
1 1013
1 1014
1 1015
1 1016
1 1017
1 1018
1 1019
1 1020
1 1021
1 1022
1 1023
1 1024
1 1025
1 1026
1 1027
1 1028
1 1029
1 1030
1 1031
1 1032
1 1033
1 1034
1 1035
1 1036
1 1037
1 1038
1 1039
1 1040
1 1041
1 1042
1 1043
1 1044
1 1045
1 1046
1 1047
1 1048
1 1049
1 1050
1 1051
1 1052
1 1053
1 1054
1 1055
1 1056
1 1057
1 1058
1 1059
1 1060
1 1061
1 1062
1 1063
1 1064
1 1065
1 1066
1 1067
1 1068
1 1069
1 1070
1 1071
1 1072
1 1073
1 1074
1 1075
1 1076
1 1077
1 1078
1 1079
1 1080
1 1081
1 1082
1 1083
1 1084
1 1085
1 1086
1 1087
1 1088
1 1089
1 1090
1 1091
1 1092
1 1093
1 1094
1 1095
1 1096
1 1097
1 1098
1 1099
1 1100
1 1101
1 1102
1 1103
1 1104
1 1105
1 1106
1 1107
1 1108
1 1109
1 1110
1 1111
1 1112
1 1113
1 1114
1 1115
1 1116
1 1117
1 1118
1 1119
1 1120
1 1121
1 1122
1 1123
1 1124
1 1125
1 1126
1 1127
1 1128
1 1129
1 1130
1 1131
1 1132
1 1133
1 1134
1 1135
1 1136
1 1137
1 1138
1 1139
1 1140
1 1141
1 1142
1 1143
1 1144
1 1145
1 1146
1 1147
1 1148
1 1149
1 1150
1 1151
1 1152
1 1153
1 1154
1 1155
1 1156
1 1157
1 1158
1 1159
1 1160
1 1161
1 1162
1 1163
1 1164
1 1165
1 1166
1 1167
1 1168
1 1169
1 1170
1 1171
1 1172
1 1173
1 1174
1 1175
1 1176
1 1177
1 1178
1 1179
1 1180
1 1181
1 1182
1 1183
1 1184
1 1185
1 1186
1 1187
1 1188
1 1189
1 1190
1 1191
1 1192
1 1193
1 1194
1 1195
1 1196
1 1197
1 1198
1 1199
1 1200
1 1201
1 1202
1 1203
1 1204
1 1205
1 1206
1 1207
1 1208
1 1209
1 1210
1 1211
1 1212
1 1213
1 1214
1 1215
1 1216
1 1217
1 1218
1 1219
1 1220
1 1221
1 1222
1 1223
1 1224
1 1225
1 1226
1 1227
1 1228
1 1229
1 1230
1 1231
1 1232
1 1233
1 1234
1 1235
1 1236
1 1237
1 1238
1 1239
1 1240
1 1241
1 1242
1 1243
1 1244
1 1245
1 1246
1 1247
1 1248
1 1249
1 1250
1 1251
1 1252
1 1253
1 1254
1 1255
1 1256
1 1257
1 1258
1 1259
1 1260
1 1261
1 1262
1 1263
1 1264
1 1265
1 1266
1 1267
1 1268
1 1269
1 1270
1 1271
1 1272
1 1273
1 1274
1 1275
1 1276
1 1277
1 1278
1 1279
1 1280
1 1281
1 1282
1 1283
1 1284
1 1285
1 1286
1 1287
1 1288
1 1289
1 1290
1 1291
1 1292
1 1293
1 1294
1 1295
1 1296
1 1297
1 1298
1 1299
1 1300
1 1301
1 1302
1 1303
1 1304
1 1305
1 1306
1 1307
1 1308
1 1309
1 1310
1 1311
1 1312
1 1313
1 1314
1 1315
1 1316
1 1317
1 1318
1 1319
1 1320
1 1321
1 1322
1 1323
1 1324
1 1325
1 1326
1 1327
1 1328
1 1329
1 1330
1 1331
1 1332
1 1333
1 1334
1 1335
1 1336
1 1337
1 1338
1 1339
1 1340
1 1341
1 1342
1 1343
1 1344
1 1345
1 1346
1 1347
1 1348
1 1349
1 1350
1 1351
1 1352
1 1353
1 1354
1 1355
1 1356
1 1357
1 1358
1 1359
1 1360
1 1361
1 1362
1 1363
1 1364
1 1365
1 1366
1 1367
1 1368
1 1369
1 1370
1 1371
1 1372
1 1373
1 1374
1 1375
1 1376
1 1377
1 1378
1 1379
1 1380
1 1381
1 1382
1 1383
1 1384
1 1385
1 1386
1 1387
1 1388
1 1389
1 1390
1 1391
1 1392
1 1393
1 1394
1 1395
1 1396
1 1397
1 1398
1 1399
1 1400
1 1401
1 1402
1 1403
1 1404
1 1405
1 1406
1 1407
1 1408
1 1409
1 1410
1 1411
1 1412
1 1413
1 1414
1 1415
1 1416
1 1417
1 1418
1 1419
1 1420
1 1421
1 1422
1 1423
1 1424
1 1425
1 1426
1 1427
1 1428
1 1429
1 1430
1 1431
1 1432
1 1433
1 1434
1 1435
1 1436
1 1437
1 1438
1 1439
1 1440
1 1441
1 1442
1 1443
1 1444
1 1445
1 1446
1 1447
1 1448
1 1449
1 1450
1 1451
1 1452
1 1453
1 1454
1 1455
1 1456
1 1457
1 1458
1 1459
1 1460
1 1461
1 1462
1 1463
1 1464
1 1465
1 1466
1 1467
1 1468
1 1469
1 1470
1 1471
1 1472
1 1473
1 1474
1 1475
1 1476
1 1477
1 1478
1 1479
1 1480
1 1481
1 1482
1 1483
1 1484
1 1485
1 1486
1 1487
1 1488
1 1489
1 1490
1 1491
1 1492
1 1493
1 1494
1 1495
1 1496
1 1497
1 1498
1 1499
1 1500
1 1501
1 1502
1 1503
1 1504
1 1505
1 1506
1 1507
1 1508
1 1509
1 1510
1 1511
1 1512
1 1513
1 1514
1 1515
1 1516
1 1517
1 1518
1 1519
1 1520
1 1521
1 1522
1 1523
1 1524
1 1525
1 1526
1 1527
1 1528
1 1529
1 1530
1 1531
1 1532
1 1533
1 1534
1 1535
1 1536
1 1537
1 1538
1 1539
1 1540
1 1541
1 1542
1 1543
1 1544
1 1545
1 1546
1 1547
1 1548
1 1549
1 1550
1 1551
1 1552
1 1553
1 1554
1 1555
1 1556
1 1557
1 1558
1 1559
1 1560
1 1561
1 1562
1 1563
1 1564
1 1565
1 1566
1 1567
1 1568
1 1569
1 1570
1 1571
1 1572
1 1573
1 1574
1 1575
1 1576
1 1577
1 1578
1 1579
1 1580
1 1581
1 1582
1 1583
1 1584
1 1585
1 1586
1 1587
1 1588
1 1589
1 1590
1 1591
1 1592
1 1593
1 1594
1 1595
1 1596
1 1597
1 1598
1 1599
1 1600
1 1601
1 1602
1 1603
1 1604
1 1605
1 1606
1 1607
1 1608
1 1609
1 1610
1 1611
1 1612
1 1613
1 1614
1 1615
1 1616
1 1617
1 1618
1 1619
1 1620
1 1621
1 1622
1 1623
1 1624
1 1625
1 1626
1 1627
1 1628
1 1629
1 1630
1 1631
1 1632
1 1633
1 1634
1 1635
1 1636
1 1637
1 1638
1 1639
1 1640
1 1641
1 1642
1 1643
1 1644
1 1645
1 1646
1 1647
1 1648
1 1649
1 1650
1 1651
1 1652
1 1653
1 1654
1 1655
1 1656
1 1657
1 1658
1 1659
1 1660
1 1661
1 1662
1 1663
1 1664
1 1665
1 1666
1 1667
1 1668
1 1669
1 1670
1 1671
1 1672
1 1673
1 1674
1 1675
1 1676
1 1677
1 1678
1 1679
1 1680
1 1681
1 1682
1 1683
1 1684
1 1685
1 1686
1 1687
1 1688
1 1689
1 1690
1 1691
1 1692
1 1693
1 1694
1 1695
1 1696
1 1697
1 1698
1 1699
1 1700
1 1701
1 1702
1 1703
1 1704
1 1705
1 1706
1 1707
1 1708
1 1709
1 1710
1 1711
1 1712
1 1713
1 1714
1 1715
1 1716
1 1717
1 1718
1 1719
1 1720
1 1721
1 1722
1 1723
1 1724
1 1725
1 1726
1 1727
1 1728
1 1729
1 1730
1 1731
1 1732
1 1733
1 1734
1 1735
1 1736
1 1737
1 1738
1 1739
1 1740
1 1741
1 1742
1 1743
1 1744
1 1745
1 1746
1 1747
1 1748
1 1749
1 1750
1 1751
1 1752
1 1753
1 1754
1 1755
1 1756
1 1757
1 1758
1 1759
1 1760
1 1761
1 1762
1 1763
1 1764
1 1765
1 1766
1 1767
1 1768
1 1769
1 1770
1 1771
1 1772
1 1773
1 1774
1 1775
1 1776
1 1777
1 1778
1 1779
1 1780
1 1781
1 1782
1 1783
1 1784
1 1785
1 1786
1 1787
1 1788
1 1789
1 1790
1 1791
1 1792
1 1793
1 1794
1 1795
1 1796
1 1797
1 1798
1 1799
1 1800
1 1801
1 1802
1 1803
1 1804
1 1805
1 1806
1 1807
1 1808
1 1809
1 1810
1 1811
1 1812
1 1813
1 1814
1 1815
1 1816
1 1817
1 1818
1 1819
1 1820
1 1821
1 1822
1 1823
1 1824
1 1825
1 1826
1 1827
1 1828
1 1829
1 1830
1 1831
1 1832
1 1833
1 1834
1 1835
1 1836
1 1837
1 1838
1 1839
1 1840
1 1841
1 1842
1 1843
1 1844
1 1845
1 1846
1 1847
1 1848
1 1849
1 1850
1 1851
1 1852
1 1853
1 1854
1 1855
1 1856
1 1857
1 1858
1 1859
1 1860
1 1861
1 1862
1 1863
1 1864
1 1865
1 1866
1 1867
1 1868
1 1869
1 1870
1 1871
1 1872
1 1873
1 1874
1 1875
1 1876
1 1877
1 1878
1 1879
1 1880
1 1881
1 1882
1 1883
1 1884
1 1885
1 1886
1 1887
1 1888
1 1889
1 1890
1 1891
1 1892
1 1893
1 1894
1 1895
1 1896
1 1897
1 1898
1 1899
1 1900
1 1901
1 1902
1 1903
1 1904
1 1905
1 1906
1 1907
1 1908
1 1909
1 1910
1 1911
1 1912
1 1913
1 1914
1 1915
1 1916
1 1917
1 1918
1 1919
1 1920
1 1921
1 1922
1 1923
1 1924
1 1925
1 1926
1 1927
1 1928
1 1929
1 1930
1 1931
1 1932
1 1933
1 1934
1 1935
1 1936
1 1937
1 1938
1 1939
1 1940
1 1941
1 1942
1 1943
1 1944
1 1945
1 1946
1 1947
1 1948
1 1949
1 1950
1 1951
1 1952
1 1953
1 1954
1 1955
1 1956
1 1957
1 1958
1 1959
1 1960
1 1961
1 1962
1 1963
1 1964
1 1965
1 1966
1 1967
1 1968
1 1969
1 1970
1 1971
1 1972
1 1973
1 1974
1 1975
1 1976
1 1977
1 1978
1 1979
1 1980
1 1981
1 1982
1 1983
1 1984
1 1985
1 1986
1 1987
1 1988
1 1989
1 1990
1 1991
1 1992
1 1993
1 1994
1 1995
1 1996
1 1997
1 1998
1 1999
1 2000
1 2001
1 2002
1 2003
1 2004
1 2005
1 2006
1 2007
1 2008
1 2009
1 2010
1 2011
1 2012
1 2013
1 2014
1 2015
1 2016
1 2017
1 2018
1 2019
1 2020
1 2021
1 2022
1 2023
1 2024
1 2025
1 2026
1 2027
1 2028
1 2029
1 2030
1 2031
1 2032
1 2033
1 2034
1 2035
1 2036
1 2037
1 2038
1 2039
1 2040
1 2041
1 2042
1 2043
1 2044
1 2045
1 2046
1 2047
1 2048
1 2049
1 2050
1 2051
1 2052
1 2053
1 2054
1 2055
1 2056
1 2057
1 2058
1 2059
1 2060
1 2061
1 2062
1 2063
1 2064
1 2065
1 2066
1 2067
1 2068
1 2069
1 2070
1 2071
1 2072
1 2073
1 2074
1 2075
1 2076
1 2077
1 2078
1 2079
1 2080
1 2081
1 2082
1 2083
1 2084
1 2085
1 2086
1 2087
1 2088
1 2089
1 2090
1 2091
1 2092
1 2093
1 2094
1 2095
1 2096
1 2097
1 2098
1 2099
1 2100
1 2101
1 2102
1 2103
1 2104
1 2105
1 2106
1 2107
1 2108
1 2109
1 2110
1 2111
1 2112
1 2113
1 2114
1 2115
1 2116
1 2117
1 2118
1 2119
1 2120
1 2121
1 2122
1 2123
1 2124
1 2125
1 2126
1 2127
1 2128
1 2129
1 2130
1 2131
1 2132
1 2133
1 2134
1 2135
1 2136
1 2137
1 2138
1 2139
1 2140
1 2141
1 2142
1 2143
1 2144
1 2145
1 2146
1 2147
1 2148
1 2149
1 2150
1 2151
1 2152
1 2153
1 2154
1 2155
1 2156
1 2157
1 2158
1 2159
1 2160
1 2161
1 2162
1 2163
1 2164
1 2165
1 2166
1 2167
1 2168
1 2169
1 2170
1 2171
1 2172
1 2173
1 2174
1 2175
1 2176
1 2177
1 2178
1 2179
1 2180
1 2181
1 2182
1 2183
1 2184
1 2185
1 2186
1 2187
1 2188
1 2189
1 2190
1 2191
1 2192
1 2193
1 2194
1 2195
1 2196
1 2197
1 2198
1 2199
1 2200
1 2201
1 2202
1 2203
1 2204
1 2205
1 2206
1 2207
1 2208
1 2209
1 2210
1 2211
1 2212
1 2213
1 2214
1 2215
1 2216
1 2217
1 2218
1 2219
1 2220
1 2221
1 2222
1 2223
1 2224
1 2225
1 2226
1 2227
1 2228
1 2229
1 2230
1 2231
1 2232
1 2233
1 2234
1 2235
1 2236
1 2237
1 2238
1 2239
1 2240
1 2241
1 2242
1 2243
1 2244
1 2245
1 2246
1 2247
1 2248
1 2249
1 2250
1 2251
1 2252
1 2253
1 2254
1 2255
1 2256
1 2257
1 2258
1 2259
1 2260
1 2261
1 2262
1 2263
1 2264
1 2265
1 2266
1 2267
1 2268
1 2269
1 2270
1 2271
1 2272
1 2273
1 2274
1 2275
1 2276
1 2277
1 2278
1 2279
1 2280
1 2281
1 2282
1 2283
1 2284
1 2285
1 2286
1 2287
1 2288
1 2289
1 2290
1 2291
1 2292
1 2293
1 2294
1 2295
1 2296
1 2297
1 2298
1 2299
1 2300
1 2301
1 2302
1 2303
1 2304
1 2305
1 2306
1 2307
1 2308
1 2309
1 2310
1 2311
1 2312
1 2313
1 2314
1 2315
1 2316
1 2317
1 2318
1 2319
1 2320
1 2321
1 2322
1 2323
1 2324
1 2325
1 2326
1 2327
1 2328
1 2329
1 2330
1 2331
1 2332
1 2333
1 2334
1 2335
1 2336
1 2337
1 2338
1 2339
1 2340
1 2341
1 2342
1 2343
1 2344
1 2345
1 2346
1 2347
1 2348
1 2349
1 2350
1 2351
1 2352
1 2353
1 2354
1 2355
1 2356
1 2357
1 2358
1 2359
1 2360
1 2361
1 2362
1 2363
1 2364
1 2365
1 2366
1 2367
1 2368
1 2369
1 2370
1 2371
1 2372
1 2373
1 2374
1 2375
1 2376
1 2377
1 2378
1 2379
1 2380
1 2381
1 2382
1 2383
1 2384
1 2385
1 2386
1 2387
1 2388
1 2389
1 2390
1 2391
1 2392
1 2393
1 2394
1 2395
1 2396
1 2397
1 2398
1 2399
1 2400
1 2401
1 2402
1 2403
1 2404
1 2405
1 2406
1 2407
1 2408
1 2409
1 2410
1 2411
1 2412
1 2413
1 2414
1 2415
1 2416
1 2417
1 2418
1 2419
1 2420
1 2421
1 2422
1 2423
1 2424
1 2425
1 2426
1 2427
1 2428
1 2429
1 2430
1 2431
1 2432
1 2433
1 2434
1 2435
1 2436
1 2437
1 2438
1 2439
1 2440
1 2441
1 2442
1 2443
1 2444
1 2445
1 2446
1 2447
1 2448
1 2449
1 2450
1 2451
1 2452
1 2453
1 2454
1 2455
1 2456
1 2457
1 2458
1 2459
1 2460
1 2461
1 2462
1 2463
1 2464
1 2465
1 2466
1 2467
1 2468
1 2469
1 2470
1 2471
1 2472
1 2473
1 2474
1 2475
1 2476
1 2477
1 2478
1 2479
1 2480
1 2481
1 2482
1 2483
1 2484
1 2485
1 2486
1 2487
1 2488
1 2489
1 2490
1 2491
1 2492
1 2493
1 2494
1 2495
1 2496
1 2497
1 2498
1 2499
1 2500
1 2501
1 2502
1 2503
1 2504
1 2505
1 2506
1 2507
1 2508
1 2509
1 2510
1 2511
1 2512
1 2513
1 2514
1 2515
1 2516
1 2517
1 2518
1 2519
1 2520
1 2521
1 2522
1 2523
1 2524
1 2525
1 2526
1 2527
1 2528
1 2529
1 2530
1 2531
1 2532
1 2533
1 2534
1 2535
1 2536
1 2537
1 2538
1 2539
1 2540
1 2541
1 2542
1 2543
1 2544
1 2545
1 2546
1 2547
1 2548
1 2549
1 2550
1 2551
1 2552
1 2553
1 2554
1 2555
1 2556
1 2557
1 2558
1 2559
1 2560
1 2561
1 2562
1 2563
1 2564
1 2565
1 2566
1 2567
1 2568
1 2569
1 2570
1 2571
1 2572
1 2573
1 2574
1 2575
1 2576
1 2577
1 2578
1 2579
1 2580
1 2581
1 2582
1 2583
1 2584
1 2585
1 2586
1 2587
1 2588
1 2589
1 2590
1 2591
1 2592
1 2593
1 2594
1 2595
1 2596
1 2597
1 2598
1 2599
1 2600
1 2601
1 2602
1 2603
1 2604
1 2605
1 2606
1 2607
1 2608
1 2609
1 2610
1 2611
1 2612
1 2613
1 2614
1 2615
1 2616
1 2617
1 2618
1 2619
1 2620
1 2621
1 2622
1 2623
1 2624
1 2625
1 2626
1 2627
1 2628
1 2629
1 2630
1 2631
1 2632
1 2633
1 2634
1 2635
1 2636
1 2637
1 2638
1 2639
1 2640
1 2641
1 2642
1 2643
1 2644
1 2645
1 2646
1 2647
1 2648
1 2649
1 2650
1 2651
1 2652
1 2653
1 2654
1 2655
1 2656
1 2657
1 2658
1 2659
1 2660
1 2661
1 2662
1 2663
1 2664
1 2665
1 2666
1 2667
1 2668
1 2669
1 2670
1 2671
1 2672
1 2673
1 2674
1 2675
1 2676
1 2677
1 2678
1 2679
1 2680
1 2681
1 2682
1 2683
1 2684
1 2685
1 2686
1 2687
1 2688
1 2689
1 2690
1 2691
1 2692
1 2693
1 2694
1 2695
1 2696
1 2697
1 2698
1 2699
1 2700
1 2701
1 2702
1 2703
1 2704
1 2705
1 2706
1 2707
1 2708
1 2709
1 2710
1 2711
1 2712
1 2713
1 2714
1 2715
1 2716
1 2717
1 2718
1 2719
1 2720
1 2721
1 2722
1 2723
1 2724
1 2725
1 2726
1 2727
1 2728
1 2729
1 2730
1 2731
1 2732
1 2733
1 2734
1 2735
1 2736
1 2737
1 2738
1 2739
1 2740
1 2741
1 2742
1 2743
1 2744
1 2745
1 2746
1 2747
1 2748
1 2749
1 2750
1 2751
1 2752
1 2753
1 2754
1 2755
1 2756
1 2757
1 2758
1 2759
1 2760
1 2761
1 2762
1 2763
1 2764
1 2765
1 2766
1 2767
1 2768
1 2769
1 2770
1 2771
1 2772
1 2773
1 2774
1 2775
1 2776
1 2777
1 2778
1 2779
1 2780
1 2781
1 2782
1 2783
1 2784
1 2785
1 2786
1 2787
1 2788
1 2789
1 2790
1 2791
1 2792
1 2793
1 2794
1 2795
1 2796
1 2797
1 2798
1 2799
1 2800
1 2801
1 2802
1 2803
1 2804
1 2805
1 2806
1 2807
1 2808
1 2809
1 2810
1 2811
1 2812
1 2813
1 2814
1 2815
1 2816
1 2817
1 2818
1 2819
1 2820
1 2821
1 2822
1 2823
1 2824
1 2825
1 2826
1 2827
1 2828
1 2829
1 2830
1 2831
1 2832
1 2833
1 2834
1 2835
1 2836
1 2837
1 2838
1 2839
1 2840
1 2841
1 2842
1 2843
1 2844
1 2845
1 2846
1 2847
1 2848
1 2849
1 2850
1 2851
1 2852
1 2853
1 2854
1 2855
1 2856
1 2857
1 2858
1 2859
1 2860
1 2861
1 2862
1 2863
1 2864
1 2865
1 2866
1 2867
1 2868
1 2869
1 2870
1 2871
1 2872
1 2873
1 2874
1 2875
1 2876
1 2877
1 2878
1 2879
1 2880
1 2881
1 2882
1 2883
1 2884
1 2885
1 2886
1 2887
1 2888
1 2889
1 2890
1 2891
1 2892
1 2893
1 2894
1 2895
1 2896
1 2897
1 2898
1 2899
1 2900
1 2901
1 2902
1 2903
1 2904
1 2905
1 2906
1 2907
1 2908
1 2909
1 2910
1 2911
1 2912
1 2913
1 2914
1 2915
1 2916
1 2917
1 2918
1 2919
1 2920
1 2921
1 2922
1 2923
1 2924
1 2925
1 2926
1 2927
1 2928
1 2929
1 2930
1 2931
1 2932
1 2933
1 2934
1 2935
1 2936
1 2937
1 2938
1 2939
1 2940
1 2941
1 2942
1 2943
1 2944
1 2945
1 2946
1 2947
1 2948
1 2949
1 2950
1 2951
1 2952
1 2953
1 2954
1 2955
1 2956
1 2957
1 2958
1 2959
1 2960
1 2961
1 2962
1 2963
1 2964
1 2965
1 2966
1 2967
1 2968
1 2969
1 2970
1 2971
1 2972
1 2973
1 2974
POINT_DATA 2975
SCALARS Idp unsigned_int
LOOKUP_TABLE default
0 1 39 40 41 80 81 82 121 122 123 162 163 164 203 204 205 244 245 246 285 286 287 326 327 328 367 368 369 408 409 410 449 450 451 461 462 463 471 472 473 481 482 483 491 492 493 501 502 503 511 512 513 521 522 523 531 532 533 541 542 543 551 552 2 3 4 5 6 7 8 9 42 43 44 45 46 47 48 49 83 84 85 86 87 88 89 90 124 125 126 127 128 129 130 131 165 166 167 168 169 170 171 172 206 207 208 209 210 211 212 213 247 248 249 250 251 252 253 254 288 289 290 291 292 293 294 295 329 330 331 332 333 334 335 336 370 371 372 373 374 375 376 377 411 412 413 414 415 416 417 418 452 453 454 464 465 474 475 484 485 494 495 504 505 514 515 524 525 534 535 544 545 553 554 10 11 12 13 14 15 16 17 18 50 51 52 53 54 55 56 57 58 91 92 93 94 95 96 97 98 99 132 133 134 135 136 137 138 139 140 173 174 175 176 177 178 179 180 181 214 215 216 217 218 219 220 221 222 255 256 257 258 259 260 261 262 263 296 297 298 299 300 301 302 303 304 337 338 339 340 341 342 343 344 345 378 379 380 381 382 383 384 385 386 419 420 421 422 423 424 425 426 427 19 20 21 22 23 24 25 26 59 60 61 62 63 64 65 66 100 101 102 103 104 105 106 107 141 142 143 144 145 146 147 148 182 183 184 185 186 187 188 189 223 224 225 226 227 228 229 230 264 265 266 267 268 269 270 271 305 306 307 308 309 310 311 312 346 347 348 349 350 351 352 353 387 388 389 390 391 392 393 394 428 429 430 431 432 433 434 435 27 28 29 30 31 32 33 34 35 67 68 69 70 71 72 73 74 75 108 109 110 111 112 113 114 115 116 149 150 151 152 153 154 155 156 157 190 191 192 193 194 195 196 197 198 231 232 233 234 235 236 237 238 239 272 273 274 275 276 277 278 279 280 313 314 315 316 317 318 319 320 321 354 355 356 357 358 359 360 361 362 395 396 397 398 399 400 401 402 403 436 437 438 439 440 441 442 443 444 455 456 466 476 486 496 506 516 526 536 546 555 36 37 38 76 77 78 79 117 118 119 120 158 159 160 161 199 200 201 202 240 241 242 243 281 282 283 284 322 323 324 325 363 364 365 366 404 405 406 407 445 446 447 448 457 458 459 460 467 468 469 470 477 478 479 480 487 488 489 490 497 498 499 500 507 508 509 510 517 518 519 520 527 528 529 530 537 538 539 540 547 548 549 550 556 557 558 559 560 561 562 563 564 565 566 567 568 569 570 571 572 573 574 575 576 577 578 579 580 581 582 583 584 585 586 587 588 589 590 591 592 593 594 595 596 597 598 599 600 601 602 603 604 605 606 607 608 609 610 611 612 613 614 615 616 617 618 619 620 621 622 623 624 625 626 627 628 629 630 631 632 633 634 635 636 637 638 639 640 641 642 643 644 645 646 647 648 649 650 651 652 653 654 655 656 657 658 659 660 661 662 663 664 665 666 667 668 669 670 671 672 673 674 675 676 677 678 679 680 681 682 683 684 685 686 687 688 689 690 691 692 693 694 695 696 697 698 699 700 701 702 703 704 705 706 707 708 709 710 711 712 713 714 715 716 717 718 719 720 721 722 723 724 725 726 727 728 729 730 731 732 733 734 735 736 737 738 739 740 741 742 743 744 745 746 747 748 749 750 751 752 753 754 755 756 757 758 759 760 761 762 763 764 765 766 767 768 769 770 771 772 773 774 775 776 777 778 779 780 781 782 783 784 785 786 787 788 789 790 791 792 793 794 795 796 797 798 799 800 801 802 803 804 805 806 807 808 809 810 811 812 813 814 815 816 817 818 819 820 821 822 823 824 825 826 827 828 829 830 831 832 833 834 835 836 837 838 839 840 841 842 843 844 845 846 847 848 849 850 851 852 853 854 855 856 857 858 859 860 861 862 863 864 865 866 867 868 869 870 871 872 873 874 875 876 877 878 879 880 881 882 883 884 885 886 887 888 889 890 891 892 893 894 895 896 897 898 899 900 901 902 903 904 905 906 907 908 909 910 911 912 913 914 915 916 917 918 919 920 921 922 923 924 925 926 927 928 929 930 931 932 933 934 935 936 937 938 939 940 941 942 943 944 945 946 947 948 949 950 951 952 953 954 955 956 957 958 959 960 961 962 963 964 965 966 967 968 969 970 971 972 973 974 975 976 977 978 979 980 981 982 983 984 985 986 987 988 989 990 991 992 993 994 995 996 997 998 999 1000 1001 1002 1003 1004 1005 1006 1007 1008 1009 1010 1011 1012 1013 1014 1015 1016 1017 1018 1019 1020 1021 1022 1023 1024 1025 1026 1027 1028 1029 1030 1031 1032 1033 1034 1035 1060 1061 1062 1063 1064 1065 1091 1092 1093 1094 1095 1096 1122 1123 1124 1125 1126 1127 1153 1154 1155 1156 1157 1158 1184 1185 1186 1187 1188 1189 1215 1216 1217 1218 1219 1220 1246 1247 1248 1249 1250 1251 1277 1278 1279 1280 1281 1282 1308 1309 1310 1311 1312 1313 1339 1340 1341 1342 1343 1344 1370 1371 1372 1373 1374 1375 1401 1402 1403 1404 1405 1406 1432 1433 1434 1435 1436 1437 1463 1464 1465 1466 1467 1468 1494 1495 1496 1497 1498 1499 1525 1526 1527 1528 1529 1530 1556 1557 1558 1559 1560 1561 1587 1588 1589 1590 1591 1592 1618 1619 1620 1621 1622 1623 1649 1650 1651 1652 1653 1654 1680 1681 1682 1683 1684 1685 1711 1712 1713 1714 1715 1716 1742 1743 1744 1745 1746 1747 1773 1774 1775 1776 1777 1778 1804 1805 1806 1807 1808 1809 1835 1836 1837 1838 1839 1840 1866 1867 1868 1869 1870 1871 1897 1898 1899 1900 1901 1902 1928 1929 1930 1931 1932 1933 1959 1960 1961 1962 1963 1964 1990 1991 1992 1993 1994 1995 2021 2022 2023 2024 2025 2026 2052 2053 2054 2055 2056 2057 2083 2084 2085 2086 2087 2088 2114 2115 2116 2117 2118 2119 2145 2146 2147 2148 2149 2150 2176 2177 2178 2179 2180 2181 2207 2208 2209 2210 2211 2212 2238 2239 2240 2241 2242 2243 2269 2270 2271 2272 2273 2274 2300 2301 2302 2303 2304 2305 2331 2332 2333 2334 2335 2336 2362 2363 2364 2365 2366 2367 2393 2394 2395 2396 2397 2398 2424 2425 2426 2427 2428 2429 2455 2456 2457 2458 2459 2460 2486 2487 2488 2489 2490 2491 2517 2518 2519 2520 2521 2522 2548 2549 2550 2551 2552 2553 2579 2580 2581 2582 2583 2584 2610 2611 2612 2613 2614 2615 2641 2642 2643 2644 2645 2646 2672 2673 2674 2675 2676 2677 2703 2704 2705 2706 2707 2708 2734 2735 2736 2737 2738 2763 2764 2765 2766 2767 2792 2793 2794 2795 2819 2820 2821 2822 2846 2847 2848 2871 2872 2894 2895 1036 1037 1038 1039 1040 1041 1042 1043 1044 1066 1067 1068 1069 1070 1071 1072 1073 1074 1097 1098 1099 1100 1101 1102 1103 1104 1105 1128 1129 1130 1131 1132 1133 1134 1135 1136 1159 1160 1161 1162 1163 1164 1165 1166 1167 1190 1191 1192 1193 1194 1195 1196 1197 1198 1221 1222 1223 1224 1225 1226 1227 1228 1229 1252 1253 1254 1255 1256 1257 1258 1259 1260 1283 1284 1285 1286 1287 1288 1289 1290 1291 1314 1315 1316 1317 1318 1319 1320 1321 1322 1345 1346 1347 1348 1349 1350 1351 1352 1353 1376 1377 1378 1379 1380 1381 1382 1383 1384 1407 1408 1409 1410 1411 1412 1413 1414 1415 1438 1439 1440 1441 1442 1443 1444 1445 1446 1469 1470 1471 1472 1473 1474 1475 1476 1477 1500 1501 1502 1503 1504 1505 1506 1507 1508 1531 1532 1533 1534 1535 1536 1537 1538 1539 1562 1563 1564 1565 1566 1567 1568 1569 1570 1593 1594 1595 1596 1597 1598 1599 1600 1601 1624 1625 1626 1627 1628 1629 1630 1631 1632 1655 1656 1657 1658 1659 1660 1661 1662 1663 1686 1687 1688 1689 1690 1691 1692 1693 1694 1717 1718 1719 1720 1721 1722 1723 1724 1725 1748 1749 1750 1751 1752 1753 1754 1755 1756 1779 1780 1781 1782 1783 1784 1785 1786 1787 1810 1811 1812 1813 1814 1815 1816 1817 1818 1841 1842 1843 1844 1845 1846 1847 1848 1849 1872 1873 1874 1875 1876 1877 1878 1879 1880 1903 1904 1905 1906 1907 1908 1909 1910 1911 1934 1935 1936 1937 1938 1939 1940 1941 1942 1965 1966 1967 1968 1969 1970 1971 1972 1973 1996 1997 1998 1999 2000 2001 2002 2003 2004 2027 2028 2029 2030 2031 2032 2033 2034 2035 2058 2059 2060 2061 2062 2063 2064 2065 2066 2089 2090 2091 2092 2093 2094 2095 2096 2097 2120 2121 2122 2123 2124 2125 2126 2127 2128 2151 2152 2153 2154 2155 2156 2157 2158 2159 2182 2183 2184 2185 2186 2187 2188 2189 2190 2213 2214 2215 2216 2217 2218 2219 2220 2221 2244 2245 2246 2247 2248 2249 2250 2251 2252 2275 2276 2277 2278 2279 2280 2281 2282 2283 2306 2307 2308 2309 2310 2311 2312 2313 2314 2337 2338 2339 2340 2341 2342 2343 2344 2345 2368 2369 2370 2371 2372 2373 2374 2375 2376 2399 2400 2401 2402 2403 2404 2405 2406 2407 2430 2431 2432 2433 2434 2435 2436 2437 2438 2461 2462 2463 2464 2465 2466 2467 2468 2469 2492 2493 2494 2495 2496 2497 2498 2499 2500 2523 2524 2525 2526 2527 2528 2529 2530 2531 2554 2555 2556 2557 2558 2559 2560 2561 2562 2585 2586 2587 2588 2589 2590 2591 2592 2593 2616 2617 2618 2619 2620 2621 2622 2623 2624 2647 2648 2649 2650 2651 2652 2653 2654 2655 2678 2679 2680 2681 2682 2683 2684 2685 2686 2709 2710 2711 2712 2713 2714 2715 2716 2717 2739 2740 2741 2742 2743 2744 2745 2746 2747 2768 2769 2770 2771 2772 2773 2774 2775 2776 2796 2797 2798 2799 2800 2801 2802 2803 2804 2823 2824 2825 2826 2827 2828 2829 2830 2831 2849 2850 2851 2852 2853 2854 2855 2856 2857 2873 2874 2875 2876 2877 2878 2879 2880 2881 2896 2897 2898 2899 2900 2901 2902 2903 2904 2917 2918 2919 2920 2921 2922 2923 2924 2925 2936 2937 2938 2939 2940 2941 2942 2943 2953 2954 2955 2956 2957 2958 2966 2967 2968 2969 1045 1046 1047 1048 1049 1050 1051 1052 1075 1076 1077 1078 1079 1080 1081 1082 1106 1107 1108 1109 1110 1111 1112 1113 1137 1138 1139 1140 1141 1142 1143 1144 1168 1169 1170 1171 1172 1173 1174 1175 1199 1200 1201 1202 1203 1204 1205 1206 1230 1231 1232 1233 1234 1235 1236 1237 1261 1262 1263 1264 1265 1266 1267 1268 1292 1293 1294 1295 1296 1297 1298 1299 1323 1324 1325 1326 1327 1328 1329 1330 1354 1355 1356 1357 1358 1359 1360 1361 1385 1386 1387 1388 1389 1390 1391 1392 1416 1417 1418 1419 1420 1421 1422 1423 1447 1448 1449 1450 1451 1452 1453 1454 1478 1479 1480 1481 1482 1483 1484 1485 1509 1510 1511 1512 1513 1514 1515 1516 1540 1541 1542 1543 1544 1545 1546 1547 1571 1572 1573 1574 1575 1576 1577 1578 1602 1603 1604 1605 1606 1607 1608 1609 1633 1634 1635 1636 1637 1638 1639 1640 1664 1665 1666 1667 1668 1669 1670 1671 1695 1696 1697 1698 1699 1700 1701 1702 1726 1727 1728 1729 1730 1731 1732 1733 1757 1758 1759 1760 1761 1762 1763 1764 1788 1789 1790 1791 1792 1793 1794 1795 1819 1820 1821 1822 1823 1824 1825 1826 1850 1851 1852 1853 1854 1855 1856 1857 1881 1882 1883 1884 1885 1886 1887 1888 1912 1913 1914 1915 1916 1917 1918 1919 1943 1944 1945 1946 1947 1948 1949 1950 1974 1975 1976 1977 1978 1979 1980 1981 2005 2006 2007 2008 2009 2010 2011 2012 2036 2037 2038 2039 2040 2041 2042 2043 2067 2068 2069 2070 2071 2072 2073 2074 2098 2099 2100 2101 2102 2103 2104 2105 2129 2130 2131 2132 2133 2134 2135 2136 2160 2161 2162 2163 2164 2165 2166 2167 2191 2192 2193 2194 2195 2196 2197 2198 2222 2223 2224 2225 2226 2227 2228 2229 2253 2254 2255 2256 2257 2258 2259 2260 2284 2285 2286 2287 2288 2289 2290 2291 2315 2316 2317 2318 2319 2320 2321 2322 2346 2347 2348 2349 2350 2351 2352 2353 2377 2378 2379 2380 2381 2382 2383 2384 2408 2409 2410 2411 2412 2413 2414 2415 2439 2440 2441 2442 2443 2444 2445 2446 2470 2471 2472 2473 2474 2475 2476 2477 2501 2502 2503 2504 2505 2506 2507 2508 2532 2533 2534 2535 2536 2537 2538 2539 2563 2564 2565 2566 2567 2568 2569 2570 2594 2595 2596 2597 2598 2599 2600 2601 2625 2626 2627 2628 2629 2630 2631 2632 2656 2657 2658 2659 2660 2661 2662 2663 2687 2688 2689 2690 2691 2692 2693 2694 2718 2719 2720 2721 2722 2723 2724 2725 2748 2749 2750 2751 2752 2753 2754 2755 2777 2778 2779 2780 2781 2782 2783 2784 2805 2806 2807 2808 2809 2810 2811 2812 2832 2833 2834 2835 2836 2837 2838 2839 2858 2859 2860 2861 2862 2863 2864 2865 2882 2883 2884 2885 2886 2887 2888 2889 2905 2906 2907 2908 2909 2910 2911 2912 2926 2927 2928 2929 2930 2931 2932 2933 2944 2945 2946 2947 2948 2949 2950 2951 2959 2960 2961 2962 2963 2964 2965 2970 2971 2972 2973 2974 1053 1054 1055 1056 1057 1058 1059 1083 1084 1085 1086 1087 1088 1089 1090 1114 1115 1116 1117 1118 1119 1120 1121 1145 1146 1147 1148 1149 1150 1151 1152 1176 1177 1178 1179 1180 1181 1182 1183 1207 1208 1209 1210 1211 1212 1213 1214 1238 1239 1240 1241 1242 1243 1244 1245 1269 1270 1271 1272 1273 1274 1275 1276 1300 1301 1302 1303 1304 1305 1306 1307 1331 1332 1333 1334 1335 1336 1337 1338 1362 1363 1364 1365 1366 1367 1368 1369 1393 1394 1395 1396 1397 1398 1399 1400 1424 1425 1426 1427 1428 1429 1430 1431 1455 1456 1457 1458 1459 1460 1461 1462 1486 1487 1488 1489 1490 1491 1492 1493 1517 1518 1519 1520 1521 1522 1523 1524 1548 1549 1550 1551 1552 1553 1554 1555 1579 1580 1581 1582 1583 1584 1585 1586 1610 1611 1612 1613 1614 1615 1616 1617 1641 1642 1643 1644 1645 1646 1647 1648 1672 1673 1674 1675 1676 1677 1678 1679 1703 1704 1705 1706 1707 1708 1709 1710 1734 1735 1736 1737 1738 1739 1740 1741 1765 1766 1767 1768 1769 1770 1771 1772 1796 1797 1798 1799 1800 1801 1802 1803 1827 1828 1829 1830 1831 1832 1833 1834 1858 1859 1860 1861 1862 1863 1864 1865 1889 1890 1891 1892 1893 1894 1895 1896 1920 1921 1922 1923 1924 1925 1926 1927 1951 1952 1953 1954 1955 1956 1957 1958 1982 1983 1984 1985 1986 1987 1988 1989 2013 2014 2015 2016 2017 2018 2019 2020 2044 2045 2046 2047 2048 2049 2050 2051 2075 2076 2077 2078 2079 2080 2081 2082 2106 2107 2108 2109 2110 2111 2112 2113 2137 2138 2139 2140 2141 2142 2143 2144 2168 2169 2170 2171 2172 2173 2174 2175 2199 2200 2201 2202 2203 2204 2205 2206 2230 2231 2232 2233 2234 2235 2236 2237 2261 2262 2263 2264 2265 2266 2267 2268 2292 2293 2294 2295 2296 2297 2298 2299 2323 2324 2325 2326 2327 2328 2329 2330 2354 2355 2356 2357 2358 2359 2360 2361 2385 2386 2387 2388 2389 2390 2391 2392 2416 2417 2418 2419 2420 2421 2422 2423 2447 2448 2449 2450 2451 2452 2453 2454 2478 2479 2480 2481 2482 2483 2484 2485 2509 2510 2511 2512 2513 2514 2515 2516 2540 2541 2542 2543 2544 2545 2546 2547 2571 2572 2573 2574 2575 2576 2577 2578 2602 2603 2604 2605 2606 2607 2608 2609 2633 2634 2635 2636 2637 2638 2639 2640 2664 2665 2666 2667 2668 2669 2670 2671 2695 2696 2697 2698 2699 2700 2701 2702 2726 2727 2728 2729 2730 2731 2732 2733 2756 2757 2758 2759 2760 2761 2762 2785 2786 2787 2788 2789 2790 2791 2813 2814 2815 2816 2817 2818 2840 2841 2842 2843 2844 2845 2866 2867 2868 2869 2870 2890 2891 2892 2893 2913 2914 2915 2916 2934 2935 2952 
FIELD FieldData 14
Vel 3 2975 float
  0.0000000E+00   0.0000000E+00   0.0000000E+00   0.0000000E+00   0.0000000E+00   0.0000000E+00   0.0000000E+00   0.0000000E+00   0.0000000E+00   0.0000000E+00   0.0000000E+00   0.0000000E+00   0.0000000E+00   0.0000000E+00   0.0000000E+00   0.0000000E+00   0.0000000E+00   0.0000000E+00   0.0000000E+00   0.0000000E+00   0.0000000E+00   0.0000000E+00   0.0000000E+00   0.0000000E+00   0.0000000E+00   0.0000000E+00   0.0000000E+00   0.0000000E+00   0.0000000E+00   0.0000000E+00   0.0000000E+00   0.0000000E+00   0.0000000E+00   0.0000000E+00   0.0000000E+00   0.0000000E+00   0.0000000E+00   0.0000000E+00   0.0000000E+00   0.0000000E+00   0.0000000E+00   0.0000000E+00   0.0000000E+00   0.0000000E+00   0.0000000E+00   0.0000000E+00   0.0000000E+00   0.0000000E+00   0.0000000E+00   0.0000000E+00   0.0000000E+00   0.0000000E+00   0.0000000E+00   0.0000000E+00   0.0000000E+00   0.0000000E+00   0.0000000E+00   0.0000000E+00   0.0000000E+00   0.0000000E+00   0.0000000E+00   0.0000000E+00   0.0000000E+00   0.0000000E+00   0.0000000E+00   0.0000000E+00   0.0000000E+00   0.0000000E+00   0.0000000E+00   0.0000000E+00   0.0000000E+00   0.0000000E+00   0.0000000E+00   0.0000000E+00   0.0000000E+00   0.0000000E+00   0.0000000E+00   0.0000000E+00   0.0000000E+00   0.0000000E+00   0.0000000E+00   0.0000000E+00   0.0000000E+00   0.0000000E+00   0.0000000E+00   0.0000000E+00   0.0000000E+00   0.0000000E+00   0.0000000E+00   0.0000000E+00   0.0000000E+00   0.0000000E+00   0.0000000E+00   0.0000000E+00   0.0000000E+00   0.0000000E+00   0.0000000E+00   0.0000000E+00   0.0000000E+00   0.0000000E+00   0.0000000E+00   0.0000000E+00   0.0000000E+00   0.0000000E+00   0.0000000E+00   0.0000000E+00   0.0000000E+00   0.0000000E+00   0.0000000E+00   0.0000000E+00   0.0000000E+00   0.0000000E+00   0.0000000E+00   0.0000000E+00   0.0000000E+00   0.0000000E+00   0.0000000E+00   0.0000000E+00   0.0000000E+00   0.0000000E+00   0.0000000E+00   0.0000000E+00   0.0000000E+00   0.0000000E+00   0.0000000E+00   0.0000000E+00   0.0000000E+00   0.0000000E+00   0.0000000E+00   0.0000000E+00   0.0000000E+00   0.0000000E+00   0.0000000E+00   0.0000000E+00   0.0000000E+00   0.0000000E+00   0.0000000E+00   0.0000000E+00   0.0000000E+00   0.0000000E+00   0.0000000E+00   0.0000000E+00   0.0000000E+00   0.0000000E+00   0.0000000E+00   0.0000000E+00   0.0000000E+00   0.0000000E+00   0.0000000E+00   0.0000000E+00   0.0000000E+00   0.0000000E+00   0.0000000E+00   0.0000000E+00   0.0000000E+00   0.0000000E+00   0.0000000E+00   0.0000000E+00   0.0000000E+00   0.0000000E+00   0.0000000E+00   0.0000000E+00   0.0000000E+00   0.0000000E+00   0.0000000E+00   0.0000000E+00   0.0000000E+00   0.0000000E+00   0.0000000E+00   0.0000000E+00   0.0000000E+00   0.0000000E+00   0.0000000E+00   0.0000000E+00   0.0000000E+00   0.0000000E+00   0.0000000E+00   0.0000000E+00   0.0000000E+00   0.0000000E+00   0.0000000E+00   0.0000000E+00   0.0000000E+00   0.0000000E+00   0.0000000E+00   0.0000000E+00   0.0000000E+00   0.0000000E+00   0.0000000E+00   0.0000000E+00   0.0000000E+00   0.0000000E+00   0.0000000E+00   0.0000000E+00   0.0000000E+00   0.0000000E+00   0.0000000E+00   0.0000000E+00   0.0000000E+00   0.0000000E+00   0.0000000E+00   0.0000000E+00   0.0000000E+00   0.0000000E+00   0.0000000E+00   0.0000000E+00   0.0000000E+00   0.0000000E+00   0.0000000E+00   0.0000000E+00   0.0000000E+00   0.0000000E+00   0.0000000E+00   0.0000000E+00   0.0000000E+00   0.0000000E+00   0.0000000E+00   0.0000000E+00   0.0000000E+00   0.0000000E+00   0.0000000E+00   0.0000000E+00   0.0000000E+00   0.0000000E+00   0.0000000E+00   0.0000000E+00   0.0000000E+00   0.0000000E+00   0.0000000E+00   0.0000000E+00   0.0000000E+00   0.0000000E+00   0.0000000E+00   0.0000000E+00   0.0000000E+00   0.0000000E+00   0.0000000E+00   0.0000000E+00   0.0000000E+00   0.0000000E+00   0.0000000E+00   0.0000000E+00   0.0000000E+00   0.0000000E+00   0.0000000E+00   0.0000000E+00   0.0000000E+00   0.0000000E+00   0.0000000E+00   0.0000000E+00   0.0000000E+00   0.0000000E+00   0.0000000E+00   0.0000000E+00   0.0000000E+00   0.0000000E+00   0.0000000E+00   0.0000000E+00   0.0000000E+00   0.0000000E+00   0.0000000E+00   0.0000000E+00   0.0000000E+00   0.0000000E+00   0.0000000E+00   0.0000000E+00   0.0000000E+00   0.0000000E+00   0.0000000E+00   0.0000000E+00   0.0000000E+00   0.0000000E+00   0.0000000E+00   0.0000000E+00   0.0000000E+00   0.0000000E+00   0.0000000E+00   0.0000000E+00   0.0000000E+00   0.0000000E+00   0.0000000E+00   0.0000000E+00   0.0000000E+00   0.0000000E+00   0.0000000E+00   0.0000000E+00   0.0000000E+00   0.0000000E+00   0.0000000E+00   0.0000000E+00   0.0000000E+00   0.0000000E+00   0.0000000E+00   0.0000000E+00   0.0000000E+00   0.0000000E+00   0.0000000E+00   0.0000000E+00   0.0000000E+00   0.0000000E+00   0.0000000E+00   0.0000000E+00   0.0000000E+00   0.0000000E+00   0.0000000E+00   0.0000000E+00   0.0000000E+00   0.0000000E+00   0.0000000E+00   0.0000000E+00   0.0000000E+00   0.0000000E+00   0.0000000E+00   0.0000000E+00   0.0000000E+00   0.0000000E+00   0.0000000E+00   0.0000000E+00   0.0000000E+00   0.0000000E+00   0.0000000E+00   0.0000000E+00   0.0000000E+00   0.0000000E+00   0.0000000E+00   0.0000000E+00   0.0000000E+00   0.0000000E+00   0.0000000E+00   0.0000000E+00   0.0000000E+00   0.0000000E+00   0.0000000E+00   0.0000000E+00   0.0000000E+00   0.0000000E+00   0.0000000E+00   0.0000000E+00   0.0000000E+00   0.0000000E+00   0.0000000E+00   0.0000000E+00   0.0000000E+00   0.0000000E+00   0.0000000E+00   0.0000000E+00   0.0000000E+00   0.0000000E+00   0.0000000E+00   0.0000000E+00   0.0000000E+00   0.0000000E+00   0.0000000E+00   0.0000000E+00   0.0000000E+00   0.0000000E+00   0.0000000E+00   0.0000000E+00   0.0000000E+00   0.0000000E+00   0.0000000E+00   0.0000000E+00   0.0000000E+00   0.0000000E+00   0.0000000E+00   0.0000000E+00   0.0000000E+00   0.0000000E+00   0.0000000E+00   0.0000000E+00   0.0000000E+00   0.0000000E+00   0.0000000E+00   0.0000000E+00   0.0000000E+00   0.0000000E+00   0.0000000E+00   0.0000000E+00   0.0000000E+00   0.0000000E+00   0.0000000E+00   0.0000000E+00   0.0000000E+00   0.0000000E+00   0.0000000E+00   0.0000000E+00   0.0000000E+00   0.0000000E+00   0.0000000E+00   0.0000000E+00   0.0000000E+00   0.0000000E+00   0.0000000E+00   0.0000000E+00   0.0000000E+00   0.0000000E+00   0.0000000E+00   0.0000000E+00   0.0000000E+00   0.0000000E+00   0.0000000E+00   0.0000000E+00   0.0000000E+00   0.0000000E+00   0.0000000E+00   0.0000000E+00   0.0000000E+00   0.0000000E+00   0.0000000E+00   0.0000000E+00   0.0000000E+00   0.0000000E+00   0.0000000E+00   0.0000000E+00   0.0000000E+00   0.0000000E+00   0.0000000E+00   0.0000000E+00   0.0000000E+00   0.0000000E+00   0.0000000E+00   0.0000000E+00   0.0000000E+00   0.0000000E+00   0.0000000E+00   0.0000000E+00   0.0000000E+00   0.0000000E+00   0.0000000E+00   0.0000000E+00   0.0000000E+00   0.0000000E+00   0.0000000E+00   0.0000000E+00   0.0000000E+00   0.0000000E+00   0.0000000E+00   0.0000000E+00   0.0000000E+00   0.0000000E+00   0.0000000E+00   0.0000000E+00   0.0000000E+00   0.0000000E+00   0.0000000E+00   0.0000000E+00   0.0000000E+00   0.0000000E+00   0.0000000E+00   0.0000000E+00   0.0000000E+00   0.0000000E+00   0.0000000E+00   0.0000000E+00   0.0000000E+00   0.0000000E+00   0.0000000E+00   0.0000000E+00   0.0000000E+00   0.0000000E+00   0.0000000E+00   0.0000000E+00   0.0000000E+00   0.0000000E+00   0.0000000E+00   0.0000000E+00   0.0000000E+00   0.0000000E+00   0.0000000E+00   0.0000000E+00   0.0000000E+00   0.0000000E+00   0.0000000E+00   0.0000000E+00   0.0000000E+00   0.0000000E+00   0.0000000E+00   0.0000000E+00   0.0000000E+00   0.0000000E+00   0.0000000E+00   0.0000000E+00   0.0000000E+00   0.0000000E+00   0.0000000E+00   0.0000000E+00   0.0000000E+00   0.0000000E+00   0.0000000E+00   0.0000000E+00   0.0000000E+00   0.0000000E+00   0.0000000E+00   0.0000000E+00   0.0000000E+00   0.0000000E+00   0.0000000E+00   0.0000000E+00   0.0000000E+00   0.0000000E+00   0.0000000E+00   0.0000000E+00   0.0000000E+00   0.0000000E+00   0.0000000E+00   0.0000000E+00   0.0000000E+00   0.0000000E+00   0.0000000E+00   0.0000000E+00   0.0000000E+00   0.0000000E+00   0.0000000E+00   0.0000000E+00   0.0000000E+00   0.0000000E+00   0.0000000E+00   0.0000000E+00   0.0000000E+00   0.0000000E+00   0.0000000E+00   0.0000000E+00   0.0000000E+00   0.0000000E+00   0.0000000E+00   0.0000000E+00   0.0000000E+00   0.0000000E+00   0.0000000E+00   0.0000000E+00   0.0000000E+00   0.0000000E+00   0.0000000E+00   0.0000000E+00   0.0000000E+00   0.0000000E+00   0.0000000E+00   0.0000000E+00   0.0000000E+00   0.0000000E+00   0.0000000E+00   0.0000000E+00   0.0000000E+00   0.0000000E+00   0.0000000E+00   0.0000000E+00   0.0000000E+00   0.0000000E+00   0.0000000E+00   0.0000000E+00   0.0000000E+00   0.0000000E+00   0.0000000E+00   0.0000000E+00   0.0000000E+00   0.0000000E+00   0.0000000E+00   0.0000000E+00   0.0000000E+00   0.0000000E+00   0.0000000E+00   0.0000000E+00   0.0000000E+00   0.0000000E+00   0.0000000E+00   0.0000000E+00   0.0000000E+00   0.0000000E+00   0.0000000E+00   0.0000000E+00   0.0000000E+00   0.0000000E+00   0.0000000E+00   0.0000000E+00   0.0000000E+00   0.0000000E+00   0.0000000E+00   0.0000000E+00   0.0000000E+00   0.0000000E+00   0.0000000E+00   0.0000000E+00   0.0000000E+00   0.0000000E+00   0.0000000E+00   0.0000000E+00   0.0000000E+00   0.0000000E+00   0.0000000E+00   0.0000000E+00   0.0000000E+00   0.0000000E+00   0.0000000E+00   0.0000000E+00   0.0000000E+00   0.0000000E+00   0.0000000E+00   0.0000000E+00   0.0000000E+00   0.0000000E+00   0.0000000E+00   0.0000000E+00   0.0000000E+00   0.0000000E+00   0.0000000E+00   0.0000000E+00   0.0000000E+00   0.0000000E+00   0.0000000E+00   0.0000000E+00   0.0000000E+00   0.0000000E+00   0.0000000E+00   0.0000000E+00   0.0000000E+00   0.0000000E+00   0.0000000E+00   0.0000000E+00   0.0000000E+00   0.0000000E+00   0.0000000E+00   0.0000000E+00   0.0000000E+00   0.0000000E+00   0.0000000E+00   0.0000000E+00   0.0000000E+00   0.0000000E+00   0.0000000E+00   0.0000000E+00   0.0000000E+00   0.0000000E+00   0.0000000E+00   0.0000000E+00   0.0000000E+00   0.0000000E+00   0.0000000E+00   0.0000000E+00   0.0000000E+00   0.0000000E+00   0.0000000E+00   0.0000000E+00   0.0000000E+00   0.0000000E+00   0.0000000E+00   0.0000000E+00   0.0000000E+00   0.0000000E+00   0.0000000E+00   0.0000000E+00   0.0000000E+00   0.0000000E+00   0.0000000E+00   0.0000000E+00   0.0000000E+00   0.0000000E+00   0.0000000E+00   0.0000000E+00   0.0000000E+00   0.0000000E+00   0.0000000E+00   0.0000000E+00   0.0000000E+00   0.0000000E+00   0.0000000E+00   0.0000000E+00   0.0000000E+00   0.0000000E+00   0.0000000E+00   0.0000000E+00   0.0000000E+00   0.0000000E+00   0.0000000E+00   0.0000000E+00   0.0000000E+00   0.0000000E+00   0.0000000E+00   0.0000000E+00   0.0000000E+00   0.0000000E+00   0.0000000E+00   0.0000000E+00   0.0000000E+00   0.0000000E+00   0.0000000E+00   0.0000000E+00   0.0000000E+00   0.0000000E+00   0.0000000E+00   0.0000000E+00   0.0000000E+00   0.0000000E+00   0.0000000E+00   0.0000000E+00   0.0000000E+00   0.0000000E+00   0.0000000E+00   0.0000000E+00   0.0000000E+00   0.0000000E+00   0.0000000E+00   0.0000000E+00   0.0000000E+00   0.0000000E+00   0.0000000E+00   0.0000000E+00   0.0000000E+00   0.0000000E+00   0.0000000E+00   0.0000000E+00   0.0000000E+00   0.0000000E+00   0.0000000E+00   0.0000000E+00   0.0000000E+00   0.0000000E+00   0.0000000E+00   0.0000000E+00   0.0000000E+00   0.0000000E+00   0.0000000E+00   0.0000000E+00   0.0000000E+00   0.0000000E+00   0.0000000E+00   0.0000000E+00   0.0000000E+00   0.0000000E+00   0.0000000E+00   0.0000000E+00   0.0000000E+00   0.0000000E+00   0.0000000E+00   0.0000000E+00   0.0000000E+00   0.0000000E+00   0.0000000E+00   0.0000000E+00   0.0000000E+00   0.0000000E+00   0.0000000E+00   0.0000000E+00   0.0000000E+00   0.0000000E+00   0.0000000E+00   0.0000000E+00   0.0000000E+00   0.0000000E+00   0.0000000E+00   0.0000000E+00   0.0000000E+00   0.0000000E+00   0.0000000E+00   0.0000000E+00   0.0000000E+00   0.0000000E+00   0.0000000E+00   0.0000000E+00   0.0000000E+00   0.0000000E+00   0.0000000E+00   0.0000000E+00   0.0000000E+00   0.0000000E+00   0.0000000E+00   0.0000000E+00   0.0000000E+00   0.0000000E+00   0.0000000E+00   0.0000000E+00   0.0000000E+00   0.0000000E+00   0.0000000E+00   0.0000000E+00   0.0000000E+00   0.0000000E+00   0.0000000E+00   0.0000000E+00   0.0000000E+00   0.0000000E+00   0.0000000E+00   0.0000000E+00   0.0000000E+00   0.0000000E+00   0.0000000E+00   0.0000000E+00   0.0000000E+00   0.0000000E+00   0.0000000E+00   0.0000000E+00   0.0000000E+00   0.0000000E+00   0.0000000E+00   0.0000000E+00   0.0000000E+00   0.0000000E+00   0.0000000E+00   0.0000000E+00   0.0000000E+00   0.0000000E+00   0.0000000E+00   0.0000000E+00   0.0000000E+00   0.0000000E+00   0.0000000E+00   0.0000000E+00   0.0000000E+00   0.0000000E+00   0.0000000E+00   0.0000000E+00   0.0000000E+00   0.0000000E+00   0.0000000E+00   0.0000000E+00   0.0000000E+00   0.0000000E+00   0.0000000E+00   0.0000000E+00   0.0000000E+00   0.0000000E+00   0.0000000E+00   0.0000000E+00   0.0000000E+00   0.0000000E+00   0.0000000E+00   0.0000000E+00   0.0000000E+00   0.0000000E+00   0.0000000E+00   0.0000000E+00   0.0000000E+00   0.0000000E+00   0.0000000E+00   0.0000000E+00   0.0000000E+00   0.0000000E+00   0.0000000E+00   0.0000000E+00   0.0000000E+00   0.0000000E+00   0.0000000E+00   0.0000000E+00   0.0000000E+00   0.0000000E+00   0.0000000E+00   0.0000000E+00   0.0000000E+00   0.0000000E+00   0.0000000E+00   0.0000000E+00   0.0000000E+00   0.0000000E+00   0.0000000E+00   0.0000000E+00   0.0000000E+00   0.0000000E+00   0.0000000E+00   0.0000000E+00   0.0000000E+00   0.0000000E+00   0.0000000E+00   0.0000000E+00   0.0000000E+00   0.0000000E+00   0.0000000E+00   0.0000000E+00   0.0000000E+00   0.0000000E+00   0.0000000E+00   0.0000000E+00   0.0000000E+00   0.0000000E+00   0.0000000E+00   0.0000000E+00   0.0000000E+00   0.0000000E+00   0.0000000E+00   0.0000000E+00   0.0000000E+00   0.0000000E+00   0.0000000E+00   0.0000000E+00   0.0000000E+00   0.0000000E+00   0.0000000E+00   0.0000000E+00   0.0000000E+00   0.0000000E+00   0.0000000E+00   0.0000000E+00   0.0000000E+00   0.0000000E+00   0.0000000E+00   0.0000000E+00   0.0000000E+00   0.0000000E+00   0.0000000E+00   0.0000000E+00   0.0000000E+00   0.0000000E+00   0.0000000E+00   0.0000000E+00   0.0000000E+00   0.0000000E+00   0.0000000E+00   0.0000000E+00   0.0000000E+00   0.0000000E+00   0.0000000E+00   0.0000000E+00   0.0000000E+00   0.0000000E+00   0.0000000E+00   0.0000000E+00   0.0000000E+00   0.0000000E+00   0.0000000E+00   0.0000000E+00   0.0000000E+00   0.0000000E+00   0.0000000E+00   0.0000000E+00   0.0000000E+00   0.0000000E+00   0.0000000E+00   0.0000000E+00   0.0000000E+00   0.0000000E+00   0.0000000E+00   0.0000000E+00   0.0000000E+00   0.0000000E+00   0.0000000E+00   0.0000000E+00   0.0000000E+00   0.0000000E+00   0.0000000E+00   0.0000000E+00   0.0000000E+00   0.0000000E+00   0.0000000E+00   0.0000000E+00   0.0000000E+00   0.0000000E+00   0.0000000E+00   0.0000000E+00   0.0000000E+00   0.0000000E+00   0.0000000E+00   0.0000000E+00   0.0000000E+00   0.0000000E+00   0.0000000E+00   0.0000000E+00   0.0000000E+00   0.0000000E+00   0.0000000E+00   0.0000000E+00   0.0000000E+00   0.0000000E+00   0.0000000E+00   0.0000000E+00   0.0000000E+00   0.0000000E+00   0.0000000E+00   0.0000000E+00   0.0000000E+00   0.0000000E+00   0.0000000E+00   0.0000000E+00   0.0000000E+00   0.0000000E+00   0.0000000E+00   0.0000000E+00   0.0000000E+00   0.0000000E+00   0.0000000E+00   0.0000000E+00   0.0000000E+00   0.0000000E+00   0.0000000E+00   0.0000000E+00   0.0000000E+00   0.0000000E+00   0.0000000E+00   0.0000000E+00   0.0000000E+00   0.0000000E+00   0.0000000E+00   0.0000000E+00   0.0000000E+00   0.0000000E+00   0.0000000E+00   0.0000000E+00   0.0000000E+00   0.0000000E+00   0.0000000E+00   0.0000000E+00   0.0000000E+00   0.0000000E+00   0.0000000E+00   0.0000000E+00   0.0000000E+00   0.0000000E+00   0.0000000E+00   0.0000000E+00   0.0000000E+00   0.0000000E+00   0.0000000E+00   0.0000000E+00   0.0000000E+00   0.0000000E+00   0.0000000E+00   0.0000000E+00   0.0000000E+00   0.0000000E+00   0.0000000E+00   0.0000000E+00   0.0000000E+00   0.0000000E+00   0.0000000E+00   0.0000000E+00   0.0000000E+00   0.0000000E+00   0.0000000E+00   0.0000000E+00   0.0000000E+00   0.0000000E+00   0.0000000E+00   0.0000000E+00   0.0000000E+00   0.0000000E+00   0.0000000E+00   0.0000000E+00   0.0000000E+00   0.0000000E+00   0.0000000E+00   0.0000000E+00   0.0000000E+00   0.0000000E+00   0.0000000E+00   0.0000000E+00   0.0000000E+00   0.0000000E+00   0.0000000E+00   0.0000000E+00   0.0000000E+00   0.0000000E+00   0.0000000E+00   0.0000000E+00   0.0000000E+00   0.0000000E+00   0.0000000E+00   0.0000000E+00   0.0000000E+00   0.0000000E+00   0.0000000E+00   0.0000000E+00   0.0000000E+00   0.0000000E+00   0.0000000E+00   0.0000000E+00   0.0000000E+00   0.0000000E+00   0.0000000E+00   0.0000000E+00   0.0000000E+00   0.0000000E+00   0.0000000E+00   0.0000000E+00   0.0000000E+00   0.0000000E+00   0.0000000E+00   0.0000000E+00   0.0000000E+00   0.0000000E+00   0.0000000E+00   0.0000000E+00   0.0000000E+00   0.0000000E+00   0.0000000E+00   0.0000000E+00   0.0000000E+00   0.0000000E+00   0.0000000E+00   0.0000000E+00   0.0000000E+00   0.0000000E+00   0.0000000E+00   0.0000000E+00   0.0000000E+00   0.0000000E+00   0.0000000E+00   0.0000000E+00   0.0000000E+00   0.0000000E+00   0.0000000E+00   0.0000000E+00   0.0000000E+00   0.0000000E+00   0.0000000E+00   0.0000000E+00   0.0000000E+00   0.0000000E+00   0.0000000E+00   0.0000000E+00   0.0000000E+00   0.0000000E+00   0.0000000E+00   0.0000000E+00   0.0000000E+00   0.0000000E+00   0.0000000E+00   0.0000000E+00   0.0000000E+00   0.0000000E+00   0.0000000E+00   0.0000000E+00   0.0000000E+00   0.0000000E+00   0.0000000E+00   0.0000000E+00   0.0000000E+00   0.0000000E+00   0.0000000E+00   0.0000000E+00   0.0000000E+00   0.0000000E+00   0.0000000E+00   0.0000000E+00   0.0000000E+00   0.0000000E+00   0.0000000E+00   0.0000000E+00   0.0000000E+00   0.0000000E+00   0.0000000E+00   0.0000000E+00   0.0000000E+00   0.0000000E+00   0.0000000E+00   0.0000000E+00   0.0000000E+00   0.0000000E+00   0.0000000E+00   0.0000000E+00   0.0000000E+00   0.0000000E+00   0.0000000E+00   0.0000000E+00   0.0000000E+00   0.0000000E+00   0.0000000E+00   0.0000000E+00   0.0000000E+00   0.0000000E+00   0.0000000E+00   0.0000000E+00   0.0000000E+00   0.0000000E+00   0.0000000E+00   0.0000000E+00   0.0000000E+00   0.0000000E+00   0.0000000E+00   0.0000000E+00   0.0000000E+00   0.0000000E+00   0.0000000E+00   0.0000000E+00   0.0000000E+00   0.0000000E+00   0.0000000E+00   0.0000000E+00   0.0000000E+00   0.0000000E+00   0.0000000E+00   0.0000000E+00   0.0000000E+00   0.0000000E+00   0.0000000E+00   0.0000000E+00   0.0000000E+00   0.0000000E+00   0.0000000E+00   0.0000000E+00   0.0000000E+00   0.0000000E+00   0.0000000E+00   0.0000000E+00   0.0000000E+00   0.0000000E+00   0.0000000E+00   0.0000000E+00   0.0000000E+00   0.0000000E+00   0.0000000E+00   0.0000000E+00   0.0000000E+00   0.0000000E+00   0.0000000E+00   0.0000000E+00   0.0000000E+00   0.0000000E+00   0.0000000E+00   0.0000000E+00   0.0000000E+00   0.0000000E+00   0.0000000E+00   0.0000000E+00   0.0000000E+00   0.0000000E+00   0.0000000E+00   0.0000000E+00   0.0000000E+00   0.0000000E+00   0.0000000E+00   0.0000000E+00   0.0000000E+00   0.0000000E+00   0.0000000E+00   0.0000000E+00   0.0000000E+00   0.0000000E+00   0.0000000E+00   0.0000000E+00   0.0000000E+00   0.0000000E+00   0.0000000E+00   0.0000000E+00   0.0000000E+00   0.0000000E+00   0.0000000E+00   0.0000000E+00   0.0000000E+00   0.0000000E+00   0.0000000E+00   0.0000000E+00   0.0000000E+00   0.0000000E+00   0.0000000E+00   0.0000000E+00   0.0000000E+00   0.0000000E+00   0.0000000E+00   0.0000000E+00   0.0000000E+00   0.0000000E+00   0.0000000E+00   0.0000000E+00   0.0000000E+00   0.0000000E+00   0.0000000E+00   0.0000000E+00   0.0000000E+00   0.0000000E+00   0.0000000E+00   0.0000000E+00   0.0000000E+00   0.0000000E+00   0.0000000E+00   0.0000000E+00   0.0000000E+00   0.0000000E+00   0.0000000E+00   0.0000000E+00   0.0000000E+00   0.0000000E+00   0.0000000E+00   0.0000000E+00   0.0000000E+00   0.0000000E+00   0.0000000E+00   0.0000000E+00   0.0000000E+00   0.0000000E+00   0.0000000E+00   0.0000000E+00   0.0000000E+00   0.0000000E+00   0.0000000E+00   0.0000000E+00   0.0000000E+00   0.0000000E+00   0.0000000E+00   0.0000000E+00   0.0000000E+00   0.0000000E+00   0.0000000E+00   0.0000000E+00   0.0000000E+00   0.0000000E+00   0.0000000E+00   0.0000000E+00   0.0000000E+00   0.0000000E+00   0.0000000E+00   0.0000000E+00   0.0000000E+00   0.0000000E+00   0.0000000E+00   0.0000000E+00   0.0000000E+00   0.0000000E+00   0.0000000E+00   0.0000000E+00   0.0000000E+00   0.0000000E+00   0.0000000E+00   0.0000000E+00   0.0000000E+00   0.0000000E+00   0.0000000E+00   0.0000000E+00   0.0000000E+00   0.0000000E+00   0.0000000E+00   0.0000000E+00   0.0000000E+00   0.0000000E+00   0.0000000E+00   0.0000000E+00   0.0000000E+00   0.0000000E+00   0.0000000E+00   0.0000000E+00   0.0000000E+00   0.0000000E+00   0.0000000E+00   0.0000000E+00   0.0000000E+00   0.0000000E+00   0.0000000E+00   0.0000000E+00   0.0000000E+00   0.0000000E+00   0.0000000E+00   0.0000000E+00   0.0000000E+00   0.0000000E+00   0.0000000E+00   0.0000000E+00   0.0000000E+00   0.0000000E+00   0.0000000E+00   0.0000000E+00   0.0000000E+00   0.0000000E+00   0.0000000E+00   0.0000000E+00   0.0000000E+00   0.0000000E+00   0.0000000E+00   0.0000000E+00   0.0000000E+00   0.0000000E+00   0.0000000E+00   0.0000000E+00   0.0000000E+00   0.0000000E+00   0.0000000E+00   0.0000000E+00   0.0000000E+00   0.0000000E+00   0.0000000E+00   0.0000000E+00   0.0000000E+00   0.0000000E+00   0.0000000E+00   0.0000000E+00   0.0000000E+00   0.0000000E+00   0.0000000E+00   0.0000000E+00   0.0000000E+00   0.0000000E+00   0.0000000E+00   0.0000000E+00   0.0000000E+00   0.0000000E+00   0.0000000E+00   0.0000000E+00   0.0000000E+00   0.0000000E+00   0.0000000E+00   0.0000000E+00   0.0000000E+00   0.0000000E+00   0.0000000E+00   0.0000000E+00   0.0000000E+00   0.0000000E+00   0.0000000E+00   0.0000000E+00   0.0000000E+00   0.0000000E+00   0.0000000E+00   0.0000000E+00   0.0000000E+00   0.0000000E+00   0.0000000E+00   0.0000000E+00   0.0000000E+00   0.0000000E+00   0.0000000E+00   0.0000000E+00   0.0000000E+00   0.0000000E+00   0.0000000E+00   0.0000000E+00   0.0000000E+00   0.0000000E+00   0.0000000E+00   0.0000000E+00   0.0000000E+00   0.0000000E+00   0.0000000E+00   0.0000000E+00   0.0000000E+00   0.0000000E+00   0.0000000E+00   0.0000000E+00   0.0000000E+00   0.0000000E+00   0.0000000E+00   0.0000000E+00   0.0000000E+00   0.0000000E+00   0.0000000E+00   0.0000000E+00   0.0000000E+00   0.0000000E+00   0.0000000E+00   0.0000000E+00   0.0000000E+00   0.0000000E+00   0.0000000E+00   0.0000000E+00   0.0000000E+00   0.0000000E+00   0.0000000E+00   0.0000000E+00   0.0000000E+00   0.0000000E+00   0.0000000E+00   0.0000000E+00   0.0000000E+00   0.0000000E+00   0.0000000E+00   0.0000000E+00   0.0000000E+00   0.0000000E+00   0.0000000E+00   0.0000000E+00   0.0000000E+00   0.0000000E+00   0.0000000E+00   0.0000000E+00   0.0000000E+00   0.0000000E+00   0.0000000E+00   0.0000000E+00   0.0000000E+00   0.0000000E+00   0.0000000E+00   0.0000000E+00   0.0000000E+00   0.0000000E+00   0.0000000E+00   0.0000000E+00   0.0000000E+00   0.0000000E+00   0.0000000E+00   0.0000000E+00   0.0000000E+00   0.0000000E+00   0.0000000E+00   0.0000000E+00   0.0000000E+00   0.0000000E+00   0.0000000E+00   0.0000000E+00   0.0000000E+00   0.0000000E+00   0.0000000E+00   0.0000000E+00   0.0000000E+00   0.0000000E+00   0.0000000E+00   0.0000000E+00   0.0000000E+00   0.0000000E+00   0.0000000E+00   0.0000000E+00   0.0000000E+00   0.0000000E+00   0.0000000E+00   0.0000000E+00   0.0000000E+00   0.0000000E+00   0.0000000E+00   0.0000000E+00   0.0000000E+00   0.0000000E+00   0.0000000E+00   0.0000000E+00   0.0000000E+00   0.0000000E+00   0.0000000E+00   0.0000000E+00   0.0000000E+00   0.0000000E+00   0.0000000E+00   0.0000000E+00   0.0000000E+00   0.0000000E+00   0.0000000E+00   0.0000000E+00   0.0000000E+00   0.0000000E+00   0.0000000E+00   0.0000000E+00   0.0000000E+00   0.0000000E+00   0.0000000E+00   0.0000000E+00   0.0000000E+00   0.0000000E+00   0.0000000E+00   0.0000000E+00   0.0000000E+00   0.0000000E+00   0.0000000E+00   0.0000000E+00   0.0000000E+00   0.0000000E+00   0.0000000E+00   0.0000000E+00   0.0000000E+00   0.0000000E+00   0.0000000E+00   0.0000000E+00   0.0000000E+00   0.0000000E+00   0.0000000E+00   0.0000000E+00   0.0000000E+00   0.0000000E+00   0.0000000E+00   0.0000000E+00   0.0000000E+00   0.0000000E+00   0.0000000E+00   0.0000000E+00   0.0000000E+00   0.0000000E+00   0.0000000E+00   0.0000000E+00   0.0000000E+00   0.0000000E+00   0.0000000E+00   0.0000000E+00   0.0000000E+00   0.0000000E+00   0.0000000E+00   0.0000000E+00   0.0000000E+00   0.0000000E+00   0.0000000E+00   0.0000000E+00   0.0000000E+00   0.0000000E+00   0.0000000E+00   0.0000000E+00   0.0000000E+00   0.0000000E+00   0.0000000E+00   0.0000000E+00   0.0000000E+00   0.0000000E+00   0.0000000E+00   0.0000000E+00   0.0000000E+00   0.0000000E+00   0.0000000E+00   0.0000000E+00   0.0000000E+00   0.0000000E+00   0.0000000E+00   0.0000000E+00   0.0000000E+00   0.0000000E+00   0.0000000E+00   0.0000000E+00   0.0000000E+00   0.0000000E+00   0.0000000E+00   0.0000000E+00   0.0000000E+00   0.0000000E+00   0.0000000E+00   0.0000000E+00   0.0000000E+00   0.0000000E+00   0.0000000E+00   0.0000000E+00   0.0000000E+00   0.0000000E+00   0.0000000E+00   0.0000000E+00   0.0000000E+00   0.0000000E+00   0.0000000E+00   0.0000000E+00   0.0000000E+00   0.0000000E+00   0.0000000E+00   0.0000000E+00   0.0000000E+00   0.0000000E+00   0.0000000E+00   0.0000000E+00   0.0000000E+00   0.0000000E+00   0.0000000E+00   0.0000000E+00   0.0000000E+00   0.0000000E+00   0.0000000E+00   0.0000000E+00   0.0000000E+00   0.0000000E+00   0.0000000E+00   0.0000000E+00   0.0000000E+00   0.0000000E+00   0.0000000E+00   0.0000000E+00   0.0000000E+00   0.0000000E+00   0.0000000E+00   0.0000000E+00   0.0000000E+00   0.0000000E+00   0.0000000E+00   0.0000000E+00   0.0000000E+00   0.0000000E+00   0.0000000E+00   0.0000000E+00   0.0000000E+00   0.0000000E+00   0.0000000E+00   0.0000000E+00   0.0000000E+00   0.0000000E+00   0.0000000E+00   0.0000000E+00   0.0000000E+00   0.0000000E+00   0.0000000E+00   0.0000000E+00   0.0000000E+00   0.0000000E+00   0.0000000E+00   0.0000000E+00   0.0000000E+00   0.0000000E+00   0.0000000E+00   0.0000000E+00   0.0000000E+00   0.0000000E+00   0.0000000E+00   0.0000000E+00   0.0000000E+00   0.0000000E+00   0.0000000E+00   0.0000000E+00   0.0000000E+00   0.0000000E+00   0.0000000E+00   0.0000000E+00   0.0000000E+00   0.0000000E+00   0.0000000E+00   0.0000000E+00   0.0000000E+00   0.0000000E+00   0.0000000E+00   0.0000000E+00   0.0000000E+00   0.0000000E+00   0.0000000E+00   0.0000000E+00   0.0000000E+00   0.0000000E+00   0.0000000E+00   0.0000000E+00   0.0000000E+00   0.0000000E+00   0.0000000E+00   0.0000000E+00   0.0000000E+00   0.0000000E+00   0.0000000E+00   0.0000000E+00   0.0000000E+00   0.0000000E+00   0.0000000E+00   0.0000000E+00   0.0000000E+00   0.0000000E+00   0.0000000E+00   0.0000000E+00   0.0000000E+00   0.0000000E+00   0.0000000E+00   0.0000000E+00   0.0000000E+00   0.0000000E+00   0.0000000E+00   0.0000000E+00   0.0000000E+00   0.0000000E+00   0.0000000E+00   0.0000000E+00   0.0000000E+00   0.0000000E+00   0.0000000E+00   0.0000000E+00   0.0000000E+00   0.0000000E+00   0.0000000E+00   0.0000000E+00   0.0000000E+00   0.0000000E+00   0.0000000E+00   0.0000000E+00   0.0000000E+00   0.0000000E+00   0.0000000E+00   0.0000000E+00   0.0000000E+00   0.0000000E+00   0.0000000E+00   0.0000000E+00   0.0000000E+00   0.0000000E+00   0.0000000E+00   0.0000000E+00   0.0000000E+00   0.0000000E+00   0.0000000E+00   0.0000000E+00   0.0000000E+00   0.0000000E+00   0.0000000E+00   0.0000000E+00   0.0000000E+00   0.0000000E+00   0.0000000E+00   0.0000000E+00   0.0000000E+00   0.0000000E+00   0.0000000E+00   0.0000000E+00   0.0000000E+00   0.0000000E+00   0.0000000E+00   0.0000000E+00   0.0000000E+00   0.0000000E+00   0.0000000E+00   0.0000000E+00   0.0000000E+00   0.0000000E+00   0.0000000E+00   0.0000000E+00   0.0000000E+00   0.0000000E+00   0.0000000E+00   0.0000000E+00   0.0000000E+00   0.0000000E+00   0.0000000E+00   0.0000000E+00   0.0000000E+00   0.0000000E+00   0.0000000E+00   0.0000000E+00   0.0000000E+00   0.0000000E+00   0.0000000E+00   0.0000000E+00   0.0000000E+00   0.0000000E+00   0.0000000E+00   0.0000000E+00   0.0000000E+00   0.0000000E+00   0.0000000E+00   0.0000000E+00   0.0000000E+00   0.0000000E+00   0.0000000E+00   0.0000000E+00   0.0000000E+00   0.0000000E+00   0.0000000E+00   0.0000000E+00   0.0000000E+00   0.0000000E+00   0.0000000E+00   0.0000000E+00   0.0000000E+00   0.0000000E+00   0.0000000E+00   0.0000000E+00   0.0000000E+00   0.0000000E+00   0.0000000E+00   0.0000000E+00   0.0000000E+00   0.0000000E+00   0.0000000E+00   0.0000000E+00   0.0000000E+00   0.0000000E+00   0.0000000E+00   0.0000000E+00   0.0000000E+00   0.0000000E+00   0.0000000E+00   0.0000000E+00   0.0000000E+00   0.0000000E+00   0.0000000E+00   0.0000000E+00   0.0000000E+00   0.0000000E+00   0.0000000E+00   0.0000000E+00   0.0000000E+00   0.0000000E+00   0.0000000E+00   0.0000000E+00   0.0000000E+00   0.0000000E+00   0.0000000E+00   0.0000000E+00   0.0000000E+00   0.0000000E+00   0.0000000E+00   0.0000000E+00   0.0000000E+00   0.0000000E+00   0.0000000E+00   0.0000000E+00   0.0000000E+00   0.0000000E+00   0.0000000E+00   0.0000000E+00   0.0000000E+00   0.0000000E+00   0.0000000E+00   0.0000000E+00   0.0000000E+00   0.0000000E+00   0.0000000E+00   0.0000000E+00   0.0000000E+00   0.0000000E+00   0.0000000E+00   0.0000000E+00   0.0000000E+00   0.0000000E+00   0.0000000E+00   0.0000000E+00   0.0000000E+00   0.0000000E+00   0.0000000E+00   0.0000000E+00   0.0000000E+00   0.0000000E+00   0.0000000E+00   0.0000000E+00   0.0000000E+00   0.0000000E+00   0.0000000E+00   0.0000000E+00   0.0000000E+00   0.0000000E+00   0.0000000E+00   0.0000000E+00   0.0000000E+00   0.0000000E+00   0.0000000E+00   0.0000000E+00   0.0000000E+00   0.0000000E+00   0.0000000E+00   0.0000000E+00   0.0000000E+00   0.0000000E+00   0.0000000E+00   0.0000000E+00   0.0000000E+00   0.0000000E+00   0.0000000E+00   0.0000000E+00   0.0000000E+00   0.0000000E+00   0.0000000E+00   0.0000000E+00   0.0000000E+00   0.0000000E+00   0.0000000E+00   0.0000000E+00   0.0000000E+00   0.0000000E+00   0.0000000E+00   0.0000000E+00   0.0000000E+00   0.0000000E+00   0.0000000E+00   0.0000000E+00   0.0000000E+00   0.0000000E+00   0.0000000E+00   0.0000000E+00   0.0000000E+00   0.0000000E+00   0.0000000E+00   0.0000000E+00   0.0000000E+00   0.0000000E+00   0.0000000E+00   0.0000000E+00   0.0000000E+00   0.0000000E+00   0.0000000E+00   0.0000000E+00   0.0000000E+00   0.0000000E+00   0.0000000E+00   0.0000000E+00   0.0000000E+00   0.0000000E+00   0.0000000E+00   0.0000000E+00   0.0000000E+00   0.0000000E+00   0.0000000E+00   0.0000000E+00   0.0000000E+00   0.0000000E+00   0.0000000E+00   0.0000000E+00   0.0000000E+00   0.0000000E+00   0.0000000E+00   0.0000000E+00   0.0000000E+00   0.0000000E+00   0.0000000E+00   0.0000000E+00   0.0000000E+00   0.0000000E+00   0.0000000E+00   0.0000000E+00   0.0000000E+00   0.0000000E+00   0.0000000E+00   0.0000000E+00   0.0000000E+00   0.0000000E+00   0.0000000E+00   0.0000000E+00   0.0000000E+00   0.0000000E+00   0.0000000E+00   0.0000000E+00   0.0000000E+00   0.0000000E+00   0.0000000E+00   0.0000000E+00   0.0000000E+00   0.0000000E+00   0.0000000E+00   0.0000000E+00   0.0000000E+00   0.0000000E+00   0.0000000E+00   0.0000000E+00   0.0000000E+00   0.0000000E+00   0.0000000E+00   0.0000000E+00   0.0000000E+00   0.0000000E+00   0.0000000E+00   0.0000000E+00   0.0000000E+00   0.0000000E+00   0.0000000E+00   0.0000000E+00   0.0000000E+00   0.0000000E+00   0.0000000E+00   0.0000000E+00   0.0000000E+00   0.0000000E+00   0.0000000E+00   0.0000000E+00   0.0000000E+00   0.0000000E+00   0.0000000E+00   0.0000000E+00   0.0000000E+00   0.0000000E+00   0.0000000E+00   0.0000000E+00   0.0000000E+00   0.0000000E+00   0.0000000E+00   0.0000000E+00   0.0000000E+00   0.0000000E+00   0.0000000E+00   0.0000000E+00   0.0000000E+00   0.0000000E+00   0.0000000E+00   0.0000000E+00   0.0000000E+00   0.0000000E+00   0.0000000E+00   0.0000000E+00   0.0000000E+00   0.0000000E+00   0.0000000E+00   0.0000000E+00   0.0000000E+00   0.0000000E+00   0.0000000E+00   0.0000000E+00   0.0000000E+00   0.0000000E+00   0.0000000E+00   0.0000000E+00   0.0000000E+00   0.0000000E+00   0.0000000E+00   0.0000000E+00   0.0000000E+00   0.0000000E+00   0.0000000E+00   0.0000000E+00   0.0000000E+00   0.0000000E+00   0.0000000E+00   0.0000000E+00   0.0000000E+00   0.0000000E+00   0.0000000E+00   0.0000000E+00   0.0000000E+00   0.0000000E+00   0.0000000E+00   0.0000000E+00   0.0000000E+00   0.0000000E+00   0.0000000E+00   0.0000000E+00   0.0000000E+00   0.0000000E+00   0.0000000E+00   0.0000000E+00   0.0000000E+00   0.0000000E+00   0.0000000E+00   0.0000000E+00   0.0000000E+00   0.0000000E+00   0.0000000E+00   0.0000000E+00   0.0000000E+00   0.0000000E+00   0.0000000E+00   0.0000000E+00   0.0000000E+00   0.0000000E+00   0.0000000E+00   0.0000000E+00   0.0000000E+00   0.0000000E+00   0.0000000E+00   0.0000000E+00   0.0000000E+00   0.0000000E+00   0.0000000E+00   0.0000000E+00   0.0000000E+00   0.0000000E+00   0.0000000E+00   0.0000000E+00   0.0000000E+00   0.0000000E+00   0.0000000E+00   0.0000000E+00   0.0000000E+00   0.0000000E+00   0.0000000E+00   0.0000000E+00   0.0000000E+00   0.0000000E+00   0.0000000E+00   0.0000000E+00   0.0000000E+00   0.0000000E+00   0.0000000E+00   0.0000000E+00   0.0000000E+00   0.0000000E+00   0.0000000E+00   0.0000000E+00   0.0000000E+00   0.0000000E+00   0.0000000E+00   0.0000000E+00   0.0000000E+00   0.0000000E+00   0.0000000E+00   0.0000000E+00   0.0000000E+00   0.0000000E+00   0.0000000E+00   0.0000000E+00   0.0000000E+00   0.0000000E+00   0.0000000E+00   0.0000000E+00   0.0000000E+00   0.0000000E+00   0.0000000E+00   0.0000000E+00   0.0000000E+00   0.0000000E+00   0.0000000E+00   0.0000000E+00   0.0000000E+00   0.0000000E+00   0.0000000E+00   0.0000000E+00   0.0000000E+00   0.0000000E+00   0.0000000E+00   0.0000000E+00   0.0000000E+00   0.0000000E+00   0.0000000E+00   0.0000000E+00   0.0000000E+00   0.0000000E+00   0.0000000E+00   0.0000000E+00   0.0000000E+00   0.0000000E+00   0.0000000E+00   0.0000000E+00   0.0000000E+00   0.0000000E+00   0.0000000E+00   0.0000000E+00   0.0000000E+00   0.0000000E+00   0.0000000E+00   0.0000000E+00   0.0000000E+00   0.0000000E+00   0.0000000E+00   0.0000000E+00   0.0000000E+00   0.0000000E+00   0.0000000E+00   0.0000000E+00   0.0000000E+00   0.0000000E+00   0.0000000E+00   0.0000000E+00   0.0000000E+00   0.0000000E+00   0.0000000E+00   0.0000000E+00   0.0000000E+00   0.0000000E+00   0.0000000E+00   0.0000000E+00   0.0000000E+00   0.0000000E+00   0.0000000E+00   0.0000000E+00   0.0000000E+00   0.0000000E+00   0.0000000E+00   0.0000000E+00   0.0000000E+00   0.0000000E+00   0.0000000E+00   0.0000000E+00   0.0000000E+00   0.0000000E+00   0.0000000E+00   0.0000000E+00   0.0000000E+00   0.0000000E+00   0.0000000E+00   0.0000000E+00   0.0000000E+00   0.0000000E+00   0.0000000E+00   0.0000000E+00   0.0000000E+00   0.0000000E+00   0.0000000E+00   0.0000000E+00   0.0000000E+00   0.0000000E+00   0.0000000E+00   0.0000000E+00   0.0000000E+00   0.0000000E+00   0.0000000E+00   0.0000000E+00   0.0000000E+00   0.0000000E+00   0.0000000E+00   0.0000000E+00   0.0000000E+00   0.0000000E+00   0.0000000E+00   0.0000000E+00   0.0000000E+00   0.0000000E+00   0.0000000E+00   0.0000000E+00   0.0000000E+00   0.0000000E+00   0.0000000E+00   0.0000000E+00   0.0000000E+00   0.0000000E+00   0.0000000E+00   0.0000000E+00   0.0000000E+00   0.0000000E+00   0.0000000E+00   0.0000000E+00   0.0000000E+00   0.0000000E+00   0.0000000E+00   0.0000000E+00   0.0000000E+00   0.0000000E+00   0.0000000E+00   0.0000000E+00   0.0000000E+00   0.0000000E+00   0.0000000E+00   0.0000000E+00   0.0000000E+00   0.0000000E+00   0.0000000E+00   0.0000000E+00   0.0000000E+00   0.0000000E+00   0.0000000E+00   0.0000000E+00   0.0000000E+00   0.0000000E+00   0.0000000E+00   0.0000000E+00   0.0000000E+00   0.0000000E+00   0.0000000E+00   0.0000000E+00   0.0000000E+00   0.0000000E+00   0.0000000E+00   0.0000000E+00   0.0000000E+00   0.0000000E+00   0.0000000E+00   0.0000000E+00   0.0000000E+00   0.0000000E+00   0.0000000E+00   0.0000000E+00   0.0000000E+00   0.0000000E+00   0.0000000E+00   0.0000000E+00   0.0000000E+00   0.0000000E+00   0.0000000E+00   0.0000000E+00   0.0000000E+00   0.0000000E+00   0.0000000E+00   0.0000000E+00   0.0000000E+00   0.0000000E+00   0.0000000E+00   0.0000000E+00   0.0000000E+00   0.0000000E+00   0.0000000E+00   0.0000000E+00   0.0000000E+00   0.0000000E+00   0.0000000E+00   0.0000000E+00   0.0000000E+00   0.0000000E+00   0.0000000E+00   0.0000000E+00   0.0000000E+00   0.0000000E+00   0.0000000E+00   0.0000000E+00   0.0000000E+00   0.0000000E+00   0.0000000E+00   0.0000000E+00   0.0000000E+00   0.0000000E+00   0.0000000E+00   0.0000000E+00   0.0000000E+00   0.0000000E+00   0.0000000E+00   0.0000000E+00   0.0000000E+00   0.0000000E+00   0.0000000E+00   0.0000000E+00   0.0000000E+00   0.0000000E+00   0.0000000E+00   0.0000000E+00   0.0000000E+00   0.0000000E+00   0.0000000E+00   0.0000000E+00   0.0000000E+00   0.0000000E+00   0.0000000E+00   0.0000000E+00   0.0000000E+00   0.0000000E+00   0.0000000E+00   0.0000000E+00   0.0000000E+00   0.0000000E+00   0.0000000E+00   0.0000000E+00   0.0000000E+00   0.0000000E+00   0.0000000E+00   0.0000000E+00   0.0000000E+00   0.0000000E+00   0.0000000E+00   0.0000000E+00   0.0000000E+00   0.0000000E+00   0.0000000E+00   0.0000000E+00   0.0000000E+00   0.0000000E+00   0.0000000E+00   0.0000000E+00   0.0000000E+00   0.0000000E+00   0.0000000E+00   0.0000000E+00   0.0000000E+00   0.0000000E+00   0.0000000E+00   0.0000000E+00   0.0000000E+00   0.0000000E+00   0.0000000E+00   0.0000000E+00   0.0000000E+00   0.0000000E+00   0.0000000E+00   0.0000000E+00   0.0000000E+00   0.0000000E+00   0.0000000E+00   0.0000000E+00   0.0000000E+00   0.0000000E+00   0.0000000E+00   0.0000000E+00   0.0000000E+00   0.0000000E+00   0.0000000E+00   0.0000000E+00   0.0000000E+00   0.0000000E+00   0.0000000E+00   0.0000000E+00   0.0000000E+00   0.0000000E+00   0.0000000E+00   0.0000000E+00   0.0000000E+00   0.0000000E+00   0.0000000E+00   0.0000000E+00   0.0000000E+00   0.0000000E+00   0.0000000E+00   0.0000000E+00   0.0000000E+00   0.0000000E+00   0.0000000E+00   0.0000000E+00   0.0000000E+00   0.0000000E+00   0.0000000E+00   0.0000000E+00   0.0000000E+00   0.0000000E+00   0.0000000E+00   0.0000000E+00   0.0000000E+00   0.0000000E+00   0.0000000E+00   0.0000000E+00   0.0000000E+00   0.0000000E+00   0.0000000E+00   0.0000000E+00   0.0000000E+00   0.0000000E+00   0.0000000E+00   0.0000000E+00   0.0000000E+00   0.0000000E+00   0.0000000E+00   0.0000000E+00   0.0000000E+00   0.0000000E+00   0.0000000E+00   0.0000000E+00   0.0000000E+00   0.0000000E+00   0.0000000E+00   0.0000000E+00   0.0000000E+00   0.0000000E+00   0.0000000E+00   0.0000000E+00   0.0000000E+00   0.0000000E+00   0.0000000E+00   0.0000000E+00   0.0000000E+00   0.0000000E+00   0.0000000E+00   0.0000000E+00   0.0000000E+00   0.0000000E+00   0.0000000E+00   0.0000000E+00   0.0000000E+00   0.0000000E+00   0.0000000E+00   0.0000000E+00   0.0000000E+00   0.0000000E+00   0.0000000E+00   0.0000000E+00   0.0000000E+00   0.0000000E+00   0.0000000E+00   0.0000000E+00   0.0000000E+00   0.0000000E+00   0.0000000E+00   0.0000000E+00   0.0000000E+00   0.0000000E+00   0.0000000E+00   0.0000000E+00   0.0000000E+00   0.0000000E+00   0.0000000E+00   0.0000000E+00   0.0000000E+00   0.0000000E+00   0.0000000E+00   0.0000000E+00   0.0000000E+00   0.0000000E+00   0.0000000E+00   0.0000000E+00   0.0000000E+00   0.0000000E+00   0.0000000E+00   0.0000000E+00   0.0000000E+00   0.0000000E+00   0.0000000E+00   0.0000000E+00   0.0000000E+00   0.0000000E+00   0.0000000E+00   0.0000000E+00   0.0000000E+00   0.0000000E+00   0.0000000E+00   0.0000000E+00   0.0000000E+00   0.0000000E+00   0.0000000E+00   0.0000000E+00   0.0000000E+00   0.0000000E+00   0.0000000E+00   0.0000000E+00   0.0000000E+00   0.0000000E+00   0.0000000E+00   0.0000000E+00   0.0000000E+00   0.0000000E+00   0.0000000E+00   0.0000000E+00   0.0000000E+00   0.0000000E+00   0.0000000E+00   0.0000000E+00   0.0000000E+00   0.0000000E+00   0.0000000E+00   0.0000000E+00   0.0000000E+00   0.0000000E+00   0.0000000E+00   0.0000000E+00   0.0000000E+00   0.0000000E+00   0.0000000E+00   0.0000000E+00   0.0000000E+00   0.0000000E+00   0.0000000E+00   0.0000000E+00   0.0000000E+00   0.0000000E+00   0.0000000E+00   0.0000000E+00   0.0000000E+00   0.0000000E+00   0.0000000E+00   0.0000000E+00   0.0000000E+00   0.0000000E+00   0.0000000E+00   0.0000000E+00   0.0000000E+00   0.0000000E+00   0.0000000E+00   0.0000000E+00   0.0000000E+00   0.0000000E+00   0.0000000E+00   0.0000000E+00   0.0000000E+00   0.0000000E+00   0.0000000E+00   0.0000000E+00   0.0000000E+00   0.0000000E+00   0.0000000E+00   0.0000000E+00   0.0000000E+00   0.0000000E+00   0.0000000E+00   0.0000000E+00   0.0000000E+00   0.0000000E+00   0.0000000E+00   0.0000000E+00   0.0000000E+00   0.0000000E+00   0.0000000E+00   0.0000000E+00   0.0000000E+00   0.0000000E+00   0.0000000E+00   0.0000000E+00   0.0000000E+00   0.0000000E+00   0.0000000E+00   0.0000000E+00   0.0000000E+00   0.0000000E+00   0.0000000E+00   0.0000000E+00   0.0000000E+00   0.0000000E+00   0.0000000E+00   0.0000000E+00   0.0000000E+00   0.0000000E+00   0.0000000E+00   0.0000000E+00   0.0000000E+00   0.0000000E+00   0.0000000E+00   0.0000000E+00   0.0000000E+00   0.0000000E+00   0.0000000E+00   0.0000000E+00   0.0000000E+00   0.0000000E+00   0.0000000E+00   0.0000000E+00   0.0000000E+00   0.0000000E+00   0.0000000E+00   0.0000000E+00   0.0000000E+00   0.0000000E+00   0.0000000E+00   0.0000000E+00   0.0000000E+00   0.0000000E+00   0.0000000E+00   0.0000000E+00   0.0000000E+00   0.0000000E+00   0.0000000E+00   0.0000000E+00   0.0000000E+00   0.0000000E+00   0.0000000E+00   0.0000000E+00   0.0000000E+00   0.0000000E+00   0.0000000E+00   0.0000000E+00   0.0000000E+00   0.0000000E+00   0.0000000E+00   0.0000000E+00   0.0000000E+00   0.0000000E+00   0.0000000E+00   0.0000000E+00   0.0000000E+00   0.0000000E+00   0.0000000E+00   0.0000000E+00   0.0000000E+00   0.0000000E+00   0.0000000E+00   0.0000000E+00   0.0000000E+00   0.0000000E+00   0.0000000E+00   0.0000000E+00   0.0000000E+00   0.0000000E+00   0.0000000E+00   0.0000000E+00   0.0000000E+00   0.0000000E+00   0.0000000E+00   0.0000000E+00   0.0000000E+00   0.0000000E+00   0.0000000E+00   0.0000000E+00   0.0000000E+00   0.0000000E+00   0.0000000E+00   0.0000000E+00   0.0000000E+00   0.0000000E+00   0.0000000E+00   0.0000000E+00   0.0000000E+00   0.0000000E+00   0.0000000E+00   0.0000000E+00   0.0000000E+00   0.0000000E+00   0.0000000E+00   0.0000000E+00   0.0000000E+00   0.0000000E+00   0.0000000E+00   0.0000000E+00   0.0000000E+00   0.0000000E+00   0.0000000E+00   0.0000000E+00   0.0000000E+00   0.0000000E+00   0.0000000E+00   0.0000000E+00   0.0000000E+00   0.0000000E+00   0.0000000E+00   0.0000000E+00   0.0000000E+00   0.0000000E+00   0.0000000E+00   0.0000000E+00   0.0000000E+00   0.0000000E+00   0.0000000E+00   0.0000000E+00   0.0000000E+00   0.0000000E+00   0.0000000E+00   0.0000000E+00   0.0000000E+00   0.0000000E+00   0.0000000E+00   0.0000000E+00   0.0000000E+00   0.0000000E+00   0.0000000E+00   0.0000000E+00   0.0000000E+00   0.0000000E+00   0.0000000E+00   0.0000000E+00   0.0000000E+00   0.0000000E+00   0.0000000E+00   0.0000000E+00   0.0000000E+00   0.0000000E+00   0.0000000E+00   0.0000000E+00   0.0000000E+00   0.0000000E+00   0.0000000E+00   0.0000000E+00   0.0000000E+00   0.0000000E+00   0.0000000E+00   0.0000000E+00   0.0000000E+00   0.0000000E+00   0.0000000E+00   0.0000000E+00   0.0000000E+00   0.0000000E+00   0.0000000E+00   0.0000000E+00   0.0000000E+00   0.0000000E+00   0.0000000E+00   0.0000000E+00   0.0000000E+00   0.0000000E+00   0.0000000E+00   0.0000000E+00   0.0000000E+00   0.0000000E+00   0.0000000E+00   0.0000000E+00   0.0000000E+00   0.0000000E+00   0.0000000E+00   0.0000000E+00   0.0000000E+00   0.0000000E+00   0.0000000E+00   0.0000000E+00   0.0000000E+00   0.0000000E+00   0.0000000E+00   0.0000000E+00   0.0000000E+00   0.0000000E+00   0.0000000E+00   0.0000000E+00   0.0000000E+00   0.0000000E+00   0.0000000E+00   0.0000000E+00   0.0000000E+00   0.0000000E+00   0.0000000E+00   0.0000000E+00   0.0000000E+00   0.0000000E+00   0.0000000E+00   0.0000000E+00   0.0000000E+00   0.0000000E+00   0.0000000E+00   0.0000000E+00   0.0000000E+00   0.0000000E+00   0.0000000E+00   0.0000000E+00   0.0000000E+00   0.0000000E+00   0.0000000E+00   0.0000000E+00   0.0000000E+00   0.0000000E+00   0.0000000E+00   0.0000000E+00   0.0000000E+00   0.0000000E+00   0.0000000E+00   0.0000000E+00   0.0000000E+00   0.0000000E+00   0.0000000E+00   0.0000000E+00   0.0000000E+00   0.0000000E+00   0.0000000E+00   0.0000000E+00   0.0000000E+00   0.0000000E+00   0.0000000E+00   0.0000000E+00   0.0000000E+00   0.0000000E+00   0.0000000E+00   0.0000000E+00   0.0000000E+00   0.0000000E+00   0.0000000E+00   0.0000000E+00   0.0000000E+00   0.0000000E+00   0.0000000E+00   0.0000000E+00   0.0000000E+00   0.0000000E+00   0.0000000E+00   0.0000000E+00   0.0000000E+00   0.0000000E+00   0.0000000E+00   0.0000000E+00   0.0000000E+00   0.0000000E+00   0.0000000E+00   0.0000000E+00   0.0000000E+00   0.0000000E+00   0.0000000E+00   0.0000000E+00   0.0000000E+00   0.0000000E+00   0.0000000E+00   0.0000000E+00   0.0000000E+00   0.0000000E+00   0.0000000E+00   0.0000000E+00   0.0000000E+00   0.0000000E+00   0.0000000E+00   0.0000000E+00   0.0000000E+00   0.0000000E+00   0.0000000E+00   0.0000000E+00   0.0000000E+00   0.0000000E+00   0.0000000E+00   0.0000000E+00   0.0000000E+00   0.0000000E+00   0.0000000E+00   0.0000000E+00   0.0000000E+00   0.0000000E+00   0.0000000E+00   0.0000000E+00   0.0000000E+00   0.0000000E+00   0.0000000E+00   0.0000000E+00   0.0000000E+00   0.0000000E+00   0.0000000E+00   0.0000000E+00   0.0000000E+00   0.0000000E+00   0.0000000E+00   0.0000000E+00   0.0000000E+00   0.0000000E+00   0.0000000E+00   0.0000000E+00   0.0000000E+00   0.0000000E+00   0.0000000E+00   0.0000000E+00   0.0000000E+00   0.0000000E+00   0.0000000E+00   0.0000000E+00   0.0000000E+00   0.0000000E+00   0.0000000E+00   0.0000000E+00   0.0000000E+00   0.0000000E+00   0.0000000E+00   0.0000000E+00   0.0000000E+00   0.0000000E+00   0.0000000E+00   0.0000000E+00   0.0000000E+00   0.0000000E+00   0.0000000E+00   0.0000000E+00   0.0000000E+00   0.0000000E+00   0.0000000E+00   0.0000000E+00   0.0000000E+00   0.0000000E+00   0.0000000E+00   0.0000000E+00   0.0000000E+00   0.0000000E+00   0.0000000E+00   0.0000000E+00   0.0000000E+00   0.0000000E+00   0.0000000E+00   0.0000000E+00   0.0000000E+00   0.0000000E+00   0.0000000E+00   0.0000000E+00   0.0000000E+00   0.0000000E+00   0.0000000E+00   0.0000000E+00   0.0000000E+00   0.0000000E+00   0.0000000E+00   0.0000000E+00   0.0000000E+00   0.0000000E+00   0.0000000E+00   0.0000000E+00   0.0000000E+00   0.0000000E+00   0.0000000E+00   0.0000000E+00   0.0000000E+00   0.0000000E+00   0.0000000E+00   0.0000000E+00   0.0000000E+00   0.0000000E+00   0.0000000E+00   0.0000000E+00   0.0000000E+00   0.0000000E+00   0.0000000E+00   0.0000000E+00   0.0000000E+00   0.0000000E+00   0.0000000E+00   0.0000000E+00   0.0000000E+00   0.0000000E+00   0.0000000E+00   0.0000000E+00   0.0000000E+00   0.0000000E+00   0.0000000E+00   0.0000000E+00   0.0000000E+00   0.0000000E+00   0.0000000E+00   0.0000000E+00   0.0000000E+00   0.0000000E+00   0.0000000E+00   0.0000000E+00   0.0000000E+00   0.0000000E+00   0.0000000E+00   0.0000000E+00   0.0000000E+00   0.0000000E+00   0.0000000E+00   0.0000000E+00   0.0000000E+00   0.0000000E+00   0.0000000E+00   0.0000000E+00   0.0000000E+00   0.0000000E+00   0.0000000E+00   0.0000000E+00   0.0000000E+00   0.0000000E+00   0.0000000E+00   0.0000000E+00   0.0000000E+00   0.0000000E+00   0.0000000E+00   0.0000000E+00   0.0000000E+00   0.0000000E+00   0.0000000E+00   0.0000000E+00   0.0000000E+00   0.0000000E+00   0.0000000E+00   0.0000000E+00   0.0000000E+00   0.0000000E+00   0.0000000E+00   0.0000000E+00   0.0000000E+00   0.0000000E+00   0.0000000E+00   0.0000000E+00   0.0000000E+00   0.0000000E+00   0.0000000E+00   0.0000000E+00   0.0000000E+00   0.0000000E+00   0.0000000E+00   0.0000000E+00   0.0000000E+00   0.0000000E+00   0.0000000E+00   0.0000000E+00   0.0000000E+00   0.0000000E+00   0.0000000E+00   0.0000000E+00   0.0000000E+00   0.0000000E+00   0.0000000E+00   0.0000000E+00   0.0000000E+00   0.0000000E+00   0.0000000E+00   0.0000000E+00   0.0000000E+00   0.0000000E+00   0.0000000E+00   0.0000000E+00   0.0000000E+00   0.0000000E+00   0.0000000E+00   0.0000000E+00   0.0000000E+00   0.0000000E+00   0.0000000E+00   0.0000000E+00   0.0000000E+00   0.0000000E+00   0.0000000E+00   0.0000000E+00   0.0000000E+00   0.0000000E+00   0.0000000E+00   0.0000000E+00   0.0000000E+00   0.0000000E+00   0.0000000E+00  -1.0544946E-04   0.0000000E+00  -4.0224615E-05  -1.2759218E-04   0.0000000E+00  -3.8823047E-05  -1.4627566E-04   0.0000000E+00  -3.5332869E-05  -1.6088616E-04   0.0000000E+00  -3.0984495E-05  -1.7196663E-04   0.0000000E+00  -2.6128859E-05  -1.0942925E-04   0.0000000E+00  -5.5019624E-05  -1.5082372E-04   0.0000000E+00  -5.2416581E-05  -1.8602349E-04   0.0000000E+00  -5.1692405E-05  -2.1434868E-04   0.0000000E+00  -4.8083206E-05  -2.3588110E-04   0.0000000E+00  -4.2777367E-05  -2.5172369E-04   0.0000000E+00  -3.6349011E-05  -1.5702182E-04   0.0000000E+00  -6.5924542E-05  -2.1573275E-04   0.0000000E+00  -6.4826541E-05  -2.6566981E-04   0.0000000E+00  -6.3362357E-05  -3.0600940E-04   0.0000000E+00  -5.8850874E-05  -3.3618833E-04   0.0000000E+00  -5.2650979E-05  -3.5793256E-04   0.0000000E+00  -4.4895616E-05  -2.1851998E-04   0.0000000E+00  -7.8181009E-05  -2.9923045E-04   0.0000000E+00  -7.6747870E-05  -3.6664703E-04   0.0000000E+00  -7.5020274E-05  -4.2066432E-04   0.0000000E+00  -6.9444955E-05  -4.6056358E-04   0.0000000E+00  -6.2021638E-05  -4.8873149E-04   0.0000000E+00  -5.2842366E-05  -2.9629836E-04   0.0000000E+00  -9.3256422E-05  -4.0388171E-04   0.0000000E+00  -8.9783061E-05  -4.9203518E-04   0.0000000E+00  -8.7113913E-05  -5.6148286E-04   0.0000000E+00  -8.0175312E-05  -6.1184156E-04   0.0000000E+00  -7.1347895E-05  -6.4659503E-04   0.0000000E+00  -6.0583712E-05  -3.9546806E-04   0.0000000E+00  -1.1209869E-04  -5.3554808E-04   0.0000000E+00  -1.0477805E-04  -6.4784882E-04   0.0000000E+00  -1.0015495E-04  -7.3454011E-04   0.0000000E+00  -9.1360904E-05  -7.9596339E-04   0.0000000E+00  -8.1031154E-05  -8.3726685E-04   0.0000000E+00  -6.8612906E-05  -5.2349747E-04   0.0000000E+00  -1.3693504E-04  -7.0269557E-04   0.0000000E+00  -1.2325063E-04  -8.4279780E-04   0.0000000E+00  -1.1529530E-04  -9.4862224E-04   0.0000000E+00  -1.0388720E-04  -1.0216106E-03   0.0000000E+00  -9.1957932E-05  -1.0693163E-03   0.0000000E+00  -7.7753204E-05  -6.9111184E-04   0.0000000E+00  -1.7035560E-04  -9.1628288E-04   0.0000000E+00  -1.4767016E-04  -1.0881304E-03   0.0000000E+00  -1.3441716E-04  -1.2146024E-03   0.0000000E+00  -1.1988332E-04  -1.2997548E-03   0.0000000E+00  -1.0584803E-04  -1.3534282E-03   0.0000000E+00  -8.9636567E-05  -9.1364101E-04   0.0000000E+00  -2.1257719E-04  -1.1896624E-03   0.0000000E+00  -1.8018283E-04  -1.3964486E-03   0.0000000E+00  -1.6031321E-04  -1.5446942E-03   0.0000000E+00  -1.4304725E-04  -1.6425307E-03   0.0000000E+00  -1.2610390E-04  -1.7017398E-03   0.0000000E+00  -1.0671388E-04  -1.2128399E-03   0.0000000E+00  -2.5790426E-04  -1.5397157E-03   0.0000000E+00  -2.2051123E-04  -1.7820421E-03   0.0000000E+00  -1.9679351E-04  -1.9534749E-03   0.0000000E+00  -1.7655973E-04  -2.0643293E-03   0.0000000E+00  -1.5525128E-04  -2.1277142E-03   0.0000000E+00  -1.3197790E-04  -1.6144825E-03   0.0000000E+00  -3.0636284E-04  -1.9891588E-03   0.0000000E+00  -2.6846418E-04  -2.2646785E-03   0.0000000E+00  -2.4433268E-04  -2.4593242E-03   0.0000000E+00  -2.2183523E-04  -2.5811002E-03   0.0000000E+00  -1.9813307E-04  -2.6471056E-03   0.0000000E+00  -1.6841170E-04  -2.1083551E-03   0.0000000E+00  -4.7757311E-04  -2.5557771E-03   0.0000000E+00  -3.7642010E-04  -2.8662686E-03   0.0000000E+00  -3.2713352E-04  -3.0831841E-03   0.0000000E+00  -2.9045413E-04  -3.2128119E-03   0.0000000E+00  -2.5878981E-04  -3.2780534E-03   0.0000000E+00  -2.1983171E-04  -2.7932518E-03   0.0000000E+00  -9.3891297E-04  -3.2850916E-03   0.0000000E+00  -6.5743423E-04  -3.6209456E-03   0.0000000E+00  -5.0246663E-04  -3.8533621E-03   0.0000000E+00  -4.0968001E-04  -3.9836685E-03   0.0000000E+00  -3.5027714E-04  -4.0423125E-03   0.0000000E+00  -2.9263072E-04  -3.7437484E-03   0.0000000E+00  -1.4765614E-03  -4.2384099E-03   0.0000000E+00  -1.0602421E-03  -4.5774900E-03   0.0000000E+00  -7.7092118E-04  -4.8034680E-03   0.0000000E+00  -5.9535005E-04  -4.9214331E-03   0.0000000E+00  -4.8745068E-04  -4.9659805E-03   0.0000000E+00  -3.9328609E-04  -4.9618268E-03   0.0000000E+00  -1.9809930E-03  -5.4349569E-03   0.0000000E+00  -1.4927107E-03  -5.7589435E-03   0.0000000E+00  -1.0986787E-03  -5.9621399E-03   0.0000000E+00  -8.4028434E-04  -6.0559441E-03   0.0000000E+00  -6.6499546E-04  -6.0783918E-03   0.0000000E+00  -5.2166829E-04  -6.4192163E-03   0.0000000E+00  -2.4653520E-03  -6.8752272E-03   0.0000000E+00  -1.9249534E-03  -7.1768505E-03   0.0000000E+00  -1.4550309E-03  -7.3523172E-03   0.0000000E+00  -1.1170456E-03  -7.4201440E-03   0.0000000E+00  -8.7595120E-04  -7.4123810E-03   0.0000000E+00  -6.7586504E-04  -8.0959182E-03   0.0000000E+00  -2.9764480E-03  -8.5570738E-03   0.0000000E+00  -2.3717545E-03  -8.8513950E-03   0.0000000E+00  -1.8358112E-03  -9.0071755E-03   0.0000000E+00  -1.4233108E-03  -9.0467557E-03   0.0000000E+00  -1.1103065E-03  -9.0044737E-03   0.0000000E+00  -8.5261679E-04  -1.0011727E-02   0.0000000E+00  -3.5411371E-03  -1.0511821E-02   0.0000000E+00  -2.8598572E-03  -1.0821805E-02   0.0000000E+00  -2.2477489E-03  -1.0968706E-02   0.0000000E+00  -1.7606376E-03  -1.0981435E-02   0.0000000E+00  -1.3733758E-03  -1.0897337E-02   0.0000000E+00  -1.0480164E-03  -1.2228703E-02   0.0000000E+00  -4.1898759E-03  -1.2802901E-02   0.0000000E+00  -3.4115240E-03  -1.3146540E-02   0.0000000E+00  -2.7082502E-03  -1.3291389E-02   0.0000000E+00  -2.1353194E-03  -1.3274774E-02   0.0000000E+00  -1.6641758E-03  -1.3139713E-02   0.0000000E+00  -1.2624272E-03  -1.4838908E-02   0.0000000E+00  -4.9460577E-03  -1.5507273E-02   0.0000000E+00  -4.0509179E-03  -1.5893241E-02   0.0000000E+00  -3.2328658E-03  -1.6036181E-02   0.0000000E+00  -2.5542672E-03  -1.5983172E-02   0.0000000E+00  -1.9841441E-03  -1.5784534E-02   0.0000000E+00  -1.4959589E-03  -1.7926194E-02   0.0000000E+00  -5.8328453E-03  -1.8699983E-02   0.0000000E+00  -4.7979979E-03  -1.9132830E-02   0.0000000E+00  -3.8352567E-03  -1.9270193E-02   0.0000000E+00  -3.0233504E-03  -1.9169193E-02   0.0000000E+00  -2.3366443E-03  -1.8888580E-02   0.0000000E+00  -1.7517197E-03  -2.1574205E-02   0.0000000E+00  -6.8820561E-03  -2.2465184E-02   0.0000000E+00  -5.6758462E-03  -2.2946972E-02   0.0000000E+00  -4.5257835E-03  -2.3070626E-02   0.0000000E+00  -3.5474985E-03  -2.2902673E-02   0.0000000E+00  -2.7276413E-03  -2.2513680E-02   0.0000000E+00  -2.0396032E-03  -2.5886109E-02   0.0000000E+00  -8.1327148E-03  -2.6905082E-02   0.0000000E+00  -6.7104432E-03  -2.7433824E-02   0.0000000E+00  -5.3113746E-03  -2.7527219E-02   0.0000000E+00  -4.1313386E-03  -2.7262850E-02   0.0000000E+00  -3.1696649E-03  -2.6728716E-02   0.0000000E+00  -2.3821313E-03  -3.0993935E-02   0.0000000E+00  -9.6398164E-03  -3.2145552E-02   0.0000000E+00  -7.9299472E-03  -3.2709699E-02   0.0000000E+00  -6.1979648E-03  -3.2742243E-02   0.0000000E+00  -4.7876136E-03  -3.2337844E-02   0.0000000E+00  -3.6915957E-03  -3.1609774E-02   0.0000000E+00  -2.8235791E-03  -3.7071846E-02   0.0000000E+00  -1.1461253E-02  -3.8338974E-02   0.0000000E+00  -9.3650362E-03  -3.8907304E-02   0.0000000E+00  -7.1994867E-03  -3.8823497E-02   0.0000000E+00  -5.5491356E-03  -3.8218800E-02   0.0000000E+00  -4.3496932E-03  -3.7235998E-02   0.0000000E+00  -3.4438295E-03  -4.4349864E-02   0.0000000E+00  -1.3677165E-02  -4.5660529E-02   0.0000000E+00  -1.1051279E-02  -4.6157066E-02   0.0000000E+00  -8.3538415E-03  -4.5869429E-02   0.0000000E+00  -6.4936359E-03  -4.4986401E-02   0.0000000E+00  -5.2530454E-03  -4.3679658E-02   0.0000000E+00  -4.3780166E-03  -5.3108782E-02   0.0000000E+00  -1.6392775E-02  -5.4287005E-02   0.0000000E+00  -1.3058760E-02  -5.4557946E-02   0.0000000E+00  -9.7543588E-03  -5.3944495E-02   0.0000000E+00  -7.7912314E-03  -5.2681506E-02   0.0000000E+00  -6.6002137E-03  -5.0975323E-02   0.0000000E+00  -5.8111507E-03  -6.3583188E-02   0.0000000E+00  -1.9699184E-02  -6.4316846E-02   0.0000000E+00  -1.5495539E-02  -6.4119376E-02   0.0000000E+00  -1.1590974E-02  -6.3013725E-02   0.0000000E+00  -9.6871592E-03  -6.1251279E-02   0.0000000E+00  -8.6544277E-03  -5.9083544E-02   0.0000000E+00  -8.0004940E-03  -7.5785346E-02   0.0000000E+00  -2.3721769E-02  -7.5630687E-02   0.0000000E+00  -1.8585244E-02  -7.4658953E-02   0.0000000E+00  -1.4203430E-02  -7.2854355E-02   0.0000000E+00  -1.2534816E-02  -7.0481367E-02   0.0000000E+00  -1.1763888E-02  -6.7817204E-02   0.0000000E+00  -1.1215881E-02  -8.9216314E-02   0.0000000E+00  -2.8651245E-02  -8.7709531E-02   0.0000000E+00  -2.2701593E-02  -8.5650876E-02   0.0000000E+00  -1.8094987E-02  -8.2969546E-02   0.0000000E+00  -1.6740352E-02  -7.9907946E-02   0.0000000E+00  -1.6329339E-02  -7.6776795E-02   0.0000000E+00  -1.5714720E-02  -1.0272285E-01   0.0000000E+00  -3.4799881E-02  -9.9602319E-02   0.0000000E+00  -2.8497545E-02  -9.6277244E-02   0.0000000E+00  -2.3958696E-02  -9.2644438E-02   0.0000000E+00  -2.2815622E-02  -8.8989578E-02   0.0000000E+00  -2.2377981E-02  -8.5573956E-02   0.0000000E+00  -2.1294842E-02  -1.1475334E-01   0.0000000E+00  -4.2527486E-02  -1.1026893E-01   0.0000000E+00  -3.6700387E-02  -1.0581481E-01   0.0000000E+00  -3.2499757E-02  -1.0146724E-01   0.0000000E+00  -3.0797767E-02  -9.7535200E-02   0.0000000E+00  -2.9477127E-02  -9.3845479E-02   0.0000000E+00  -2.7662832E-02  -1.2409273E-01   0.0000000E+00  -5.1862668E-02  -1.1891253E-01   0.0000000E+00  -4.7035296E-02  -1.1382254E-01   0.0000000E+00  -4.4365339E-02  -1.0933764E-01   0.0000000E+00  -4.1008092E-02  -1.0520137E-01   0.0000000E+00  -3.7852433E-02  -1.0110264E-01   0.0000000E+00  -3.5107352E-02  -1.2971821E-01   0.0000000E+00  -6.2039457E-02  -1.2456266E-01   0.0000000E+00  -5.8030263E-02  -1.1857442E-01   0.0000000E+00  -5.9788227E-02  -1.1387920E-01   0.0000000E+00  -5.6595940E-02  -1.1000204E-01   0.0000000E+00  -5.0349209E-02  -1.0599186E-01   0.0000000E+00  -4.5150455E-02  -1.2933935E-01   0.0000000E+00  -7.1526542E-02  -1.2577513E-01   0.0000000E+00  -6.8479292E-02  -1.1892802E-01   0.0000000E+00  -7.4770272E-02  -1.1424199E-01   0.0000000E+00  -7.4628860E-02  -1.1126634E-01   0.0000000E+00  -6.6731922E-02  -1.0781267E-01   0.0000000E+00  -5.8443781E-02  -1.1144996E-01   0.0000000E+00  -8.0234155E-02  -1.1558561E-01   0.0000000E+00  -7.7311814E-02  -1.1147840E-01   0.0000000E+00  -8.7823868E-02  -1.0796715E-01   0.0000000E+00  -9.0956680E-02  -1.0704338E-01   0.0000000E+00  -8.3854243E-02  -1.0466969E-01   0.0000000E+00  -7.3775269E-02  -7.7981293E-02   0.0000000E+00  -8.7343395E-02  -8.4066033E-02   0.0000000E+00  -8.3667360E-02  -8.7403625E-02   0.0000000E+00  -9.5754251E-02  -8.8715486E-02   0.0000000E+00  -1.0256284E-01  -8.8669389E-02   0.0000000E+00  -9.6911438E-02  -8.6261824E-02   0.0000000E+00  -8.5844815E-02  -4.7751915E-02   0.0000000E+00  -9.2235900E-02  -5.2146528E-02   0.0000000E+00  -8.7096937E-02  -5.4843292E-02   0.0000000E+00  -9.8179191E-02  -5.6451853E-02   0.0000000E+00  -1.0542835E-01  -5.6739315E-02   0.0000000E+00  -1.0092951E-01  -5.5276379E-02   0.0000000E+00  -9.0348303E-02  -2.4672717E-02   0.0000000E+00  -9.5712982E-02  -2.7452806E-02   0.0000000E+00  -8.9327738E-02  -2.9106133E-02   0.0000000E+00  -9.9069610E-02  -3.0364905E-02   0.0000000E+00  -1.0592477E-01  -3.0848432E-02   0.0000000E+00  -1.0238148E-01  -3.0308504E-02   0.0000000E+00  -9.2511594E-02  -8.0382228E-03   0.0000000E+00  -9.7968280E-02  -9.3069943E-03   0.0000000E+00  -9.0903707E-02  -1.0026409E-02   0.0000000E+00  -9.9550508E-02  -1.0800747E-02   0.0000000E+00  -1.0585919E-01  -1.1343765E-02   0.0000000E+00  -1.0266197E-01  -1.1418461E-02   0.0000000E+00  -9.3192175E-02   4.9807192E-03   0.0000000E+00  -9.9126436E-02   5.0704386E-03   0.0000000E+00  -9.1705635E-02   5.0971010E-03   0.0000000E+00  -9.9851839E-02   4.8523662E-03   0.0000000E+00  -1.0573744E-01   4.3718764E-03   0.0000000E+00  -1.0231516E-01   3.8867882E-03   0.0000000E+00  -9.2873231E-02   1.7284282E-02   0.0000000E+00  -9.9148057E-02   1.8634090E-02   0.0000000E+00  -9.1718443E-02   1.9073933E-02   0.0000000E+00  -9.9931926E-02   1.9319844E-02   0.0000000E+00  -1.0546111E-01   1.8976774E-02   0.0000000E+00  -1.0147043E-01   1.8149424E-02   0.0000000E+00  -9.1791280E-02   3.0332385E-02   0.0000000E+00  -9.7974613E-02   3.2739729E-02   0.0000000E+00  -9.0687811E-02   3.3427328E-02   0.0000000E+00  -9.8903783E-02   3.4050260E-02   0.0000000E+00  -1.0414103E-01   3.3865143E-02   0.0000000E+00  -9.9655449E-02   3.2657295E-02   0.0000000E+00  -8.9872330E-02   4.3950893E-02   0.0000000E+00  -9.5555313E-02   4.7307882E-02   0.0000000E+00  -8.8492967E-02   4.8108675E-02   0.0000000E+00  -9.6459523E-02   4.8995048E-02   0.0000000E+00  -1.0141373E-01   4.8949745E-02   0.0000000E+00  -9.6697487E-02   4.7286708E-02   0.0000000E+00  -8.7059259E-02   5.7174206E-02   0.0000000E+00  -9.2061616E-02   6.1314929E-02   0.0000000E+00  -8.5329488E-02   6.2052794E-02   0.0000000E+00  -9.2668712E-02   6.3214839E-02   0.0000000E+00  -9.7269692E-02   6.3272722E-02   0.0000000E+00  -9.2599161E-02   6.1131455E-02   0.0000000E+00  -8.3327360E-02   6.8980753E-02   0.0000000E+00  -8.7678827E-02   7.3620498E-02   0.0000000E+00  -8.1268877E-02   7.3989697E-02   0.0000000E+00  -8.7671727E-02   7.5262092E-02   0.0000000E+00  -9.1527671E-02   7.5653493E-02   0.0000000E+00  -8.7336414E-02   7.3146477E-02   0.0000000E+00  -7.8725189E-02   7.8460574E-02   0.0000000E+00  -8.2569554E-02   8.3185017E-02   0.0000000E+00  -7.6498583E-02   8.3148032E-02   0.0000000E+00  -8.1758484E-02   8.4376670E-02   0.0000000E+00  -8.4747359E-02   8.5041597E-02   0.0000000E+00  -8.1033640E-02   8.1836112E-02   0.0000000E+00  -7.3406324E-02   8.5107781E-02   0.0000000E+00  -7.6936230E-02   8.9977764E-02   0.0000000E+00  -7.1415827E-02   8.9647606E-02   0.0000000E+00  -7.5562693E-02   9.0551294E-02   0.0000000E+00  -7.7755138E-02   8.9250483E-02   0.0000000E+00  -7.4538201E-02   8.4280446E-02   0.0000000E+00  -6.7663476E-02   8.9805797E-02   0.0000000E+00  -7.1000561E-02   9.4465971E-02   0.0000000E+00  -6.5897971E-02   9.3960375E-02   0.0000000E+00  -6.9292121E-02   9.3414903E-02   0.0000000E+00  -7.1185723E-02   8.9682370E-02   0.0000000E+00  -6.8187751E-02   8.4023722E-02   0.0000000E+00  -6.1709929E-02   9.3699977E-02   0.0000000E+00  -6.4862445E-02   9.7806051E-02   0.0000000E+00  -6.0152031E-02   9.6728452E-02   0.0000000E+00  -6.3084349E-02   9.4056472E-02   0.0000000E+00  -6.5032125E-02   8.8902026E-02   0.0000000E+00  -6.1666865E-02   8.2862809E-02   0.0000000E+00  -5.5853955E-02   9.7915724E-02   0.0000000E+00  -5.8624517E-02   1.0052102E-01   0.0000000E+00  -5.4410249E-02   9.8219730E-02   0.0000000E+00  -5.7071254E-02   9.3710721E-02   0.0000000E+00  -5.8950588E-02   8.7457463E-02   0.0000000E+00  -5.5273585E-02   8.1209518E-02   0.0000000E+00  -5.0394088E-02   1.0334235E-01   0.0000000E+00  -5.2416217E-02   1.0277934E-01   0.0000000E+00  -4.9142484E-02   9.8998591E-02   0.0000000E+00  -5.1474947E-02   9.3114272E-02   0.0000000E+00  -5.2854281E-02   8.5898511E-02   0.0000000E+00  -4.9557459E-02   7.9486668E-02   0.0000000E+00  -4.5388296E-02   1.1055750E-01   0.0000000E+00  -4.7510453E-02   1.0572828E-01   0.0000000E+00  -4.4592250E-02   9.9803276E-02   0.0000000E+00  -4.6302941E-02   9.2511363E-02   0.0000000E+00  -4.7218889E-02   8.4517293E-02   0.0000000E+00  -4.4526339E-02   7.7509888E-02   0.0000000E+00  -4.0651433E-02   1.1827902E-01   0.0000000E+00  -4.4538457E-02   1.0964158E-01   0.0000000E+00  -4.1449953E-02   1.0131102E-01   0.0000000E+00  -4.2082105E-02   9.2269950E-02   0.0000000E+00  -4.2231694E-02   8.3534829E-02   0.0000000E+00  -3.9858226E-02   7.5635627E-02   0.0000000E+00  -3.6475617E-02   1.2347907E-01   0.0000000E+00  -4.1779999E-02   1.1288744E-01   0.0000000E+00  -3.8786236E-02   1.0283618E-01   0.0000000E+00  -3.8151771E-02   9.2475280E-02   0.0000000E+00  -3.7637994E-02   8.2833305E-02   0.0000000E+00  -3.5569336E-02   7.4160933E-02   0.0000000E+00  -3.2517310E-02   1.1438502E-01   0.0000000E+00  -3.6222767E-02   1.0379512E-01   0.0000000E+00  -3.4428895E-02   9.3120068E-02   0.0000000E+00  -3.3644546E-02   8.2524776E-02   0.0000000E+00  -3.1641010E-02   7.3097549E-02   0.0000000E+00  -2.8878747E-02   1.1404926E-01   0.0000000E+00  -3.4302957E-02   1.0428268E-01   0.0000000E+00  -3.1799562E-02   9.3913078E-02   0.0000000E+00  -3.0370390E-02   8.2846917E-02   0.0000000E+00  -2.8343480E-02   7.2515577E-02   0.0000000E+00  -2.5616946E-02   1.0411809E-01   0.0000000E+00  -3.0359475E-02   9.4557665E-02   0.0000000E+00  -2.8221540E-02   8.3939359E-02   0.0000000E+00  -2.6167581E-02   7.2780699E-02   0.0000000E+00  -2.3148300E-02   1.0289086E-01   0.0000000E+00  -2.9537991E-02   9.5060945E-02   0.0000000E+00  -2.7437527E-02   8.5406974E-02   0.0000000E+00  -2.5013860E-02   7.4401006E-02   0.0000000E+00  -2.1968491E-02   9.4396614E-02   0.0000000E+00  -2.7047902E-02   8.6563498E-02   0.0000000E+00  -2.4802960E-02   7.6691099E-02   0.0000000E+00  -2.1967070E-02   8.6492166E-02   0.0000000E+00  -2.4749350E-02   7.8717873E-02   0.0000000E+00  -2.2501636E-02   8.3637930E-02   0.0000000E+00  -2.3691274E-02   7.9117313E-02   0.0000000E+00  -2.2943031E-02  -1.7994268E-04   0.0000000E+00  -2.1444406E-05  -1.8549553E-04   0.0000000E+00  -1.7089864E-05  -1.8911902E-04   0.0000000E+00  -1.3399816E-05  -1.9136528E-04   0.0000000E+00  -1.0246755E-05  -1.9265531E-04   0.0000000E+00  -7.6288125E-06  -1.9331569E-04   0.0000000E+00  -5.5141968E-06  -1.9361159E-04   0.0000000E+00  -3.7623822E-06  -1.9370980E-04   0.0000000E+00  -2.3347275E-06  -1.9372621E-04   0.0000000E+00  -1.1143462E-06  -2.6281737E-04   0.0000000E+00  -2.9910068E-05  -2.7023378E-04   0.0000000E+00  -2.3967821E-05  -2.7487261E-04   0.0000000E+00  -1.8911260E-05  -2.7762417E-04   0.0000000E+00  -1.4481786E-05  -2.7905119E-04   0.0000000E+00  -1.0856406E-05  -2.7965798E-04   0.0000000E+00  -7.8832427E-06  -2.7981636E-04   0.0000000E+00  -5.4223883E-06  -2.7976767E-04   0.0000000E+00  -3.3903154E-06  -2.7968010E-04   0.0000000E+00  -1.6218171E-06  -3.7270051E-04   0.0000000E+00  -3.7151884E-05  -3.8225300E-04   0.0000000E+00  -2.9919094E-05  -3.8801026E-04   0.0000000E+00  -2.3636350E-05  -3.9119466E-04   0.0000000E+00  -1.8191196E-05  -3.9264862E-04   0.0000000E+00  -1.3692375E-05  -3.9307913E-04   0.0000000E+00  -9.9632043E-06  -3.9298099E-04   0.0000000E+00  -6.8839895E-06  -3.9269132E-04   0.0000000E+00  -4.3170144E-06  -3.9243602E-04   0.0000000E+00  -2.0706232E-06  -5.0736958E-04   0.0000000E+00  -4.3688065E-05  -5.1900174E-04   0.0000000E+00  -3.5228677E-05  -5.2570400E-04   0.0000000E+00  -2.7805931E-05  -5.2908337E-04   0.0000000E+00  -2.1449830E-05  -5.3031801E-04   0.0000000E+00  -1.6179312E-05  -5.3034676E-04   0.0000000E+00  -1.1768641E-05  -5.2980002E-04   0.0000000E+00  -8.1473290E-06  -5.2912772E-04   0.0000000E+00  -5.1077486E-06  -5.2861759E-04   0.0000000E+00  -2.4544181E-06  -6.6892215E-04   0.0000000E+00  -4.9945913E-05  -6.8228168E-04   0.0000000E+00  -4.0271676E-05  -6.8953139E-04   0.0000000E+00  -3.1693060E-05  -6.9268810E-04   0.0000000E+00  -2.4455621E-05  -6.9332158E-04   0.0000000E+00  -1.8413355E-05  -6.9260475E-04   0.0000000E+00  -1.3386723E-05  -6.9133827E-04   0.0000000E+00  -9.2701712E-06  -6.9008925E-04   0.0000000E+00  -5.7984407E-06  -6.8920699E-04   0.0000000E+00  -2.7885897E-06  -8.6285145E-04   0.0000000E+00  -5.6504130E-05  -8.7736460E-04   0.0000000E+00  -4.5547720E-05  -8.8453805E-04   0.0000000E+00  -3.5721845E-05  -8.8686420E-04   0.0000000E+00  -2.7531290E-05  -8.8635384E-04   0.0000000E+00  -2.0654976E-05  -8.8443322E-04   0.0000000E+00  -1.4988290E-05  -8.8209467E-04   0.0000000E+00  -1.0349077E-05  -8.8001299E-04   0.0000000E+00  -6.4626938E-06  -8.7860663E-04   0.0000000E+00  -3.1047537E-06  -1.0975582E-03   0.0000000E+00  -6.4123422E-05  -1.1124430E-03   0.0000000E+00  -5.1675252E-05  -1.1186652E-03   0.0000000E+00  -4.0488474E-05  -1.1193558E-03   0.0000000E+00  -3.1151470E-05  -1.1169952E-03   0.0000000E+00  -2.3259725E-05  -1.1132840E-03   0.0000000E+00  -1.6822622E-05  -1.1094175E-03   0.0000000E+00  -1.1560653E-05  -1.1061770E-03   0.0000000E+00  -7.2004591E-06  -1.1040523E-03   0.0000000E+00  -3.4487587E-06  -1.3835382E-03   0.0000000E+00  -7.4029675E-05  -1.3977442E-03   0.0000000E+00  -5.9679725E-05  -1.4019129E-03   0.0000000E+00  -4.6774145E-05  -1.3999491E-03   0.0000000E+00  -3.5886875E-05  -1.3948296E-03   0.0000000E+00  -2.6671556E-05  -1.3885726E-03   0.0000000E+00  -1.9193485E-05  -1.3825826E-03   0.0000000E+00  -1.3108162E-05  -1.3777559E-03   0.0000000E+00  -8.1268154E-06  -1.3746556E-03   0.0000000E+00  -3.8773383E-06  -1.7325818E-03   0.0000000E+00  -8.8086395E-05  -1.7447349E-03   0.0000000E+00  -7.1012466E-05  -1.7454766E-03   0.0000000E+00  -5.5640761E-05  -1.7395705E-03   0.0000000E+00  -4.2512380E-05  -1.7305426E-03   0.0000000E+00  -3.1400225E-05  -1.7207714E-03   0.0000000E+00  -2.2420529E-05  -1.7118864E-03   0.0000000E+00  -1.5184221E-05  -1.7049169E-03   0.0000000E+00  -9.3490216E-06  -1.7005047E-03   0.0000000E+00  -4.4383087E-06  -2.1575827E-03   0.0000000E+00  -1.0902245E-04  -2.1659369E-03   0.0000000E+00  -8.7681881E-05  -2.1615811E-03   0.0000000E+00  -6.8360328E-05  -2.1501211E-03   0.0000000E+00  -5.1881667E-05  -2.1357357E-03   0.0000000E+00  -3.7960777E-05  -2.1212143E-03   0.0000000E+00  -2.6798609E-05  -2.1084452E-03   0.0000000E+00  -1.7950613E-05  -2.0986171E-03   0.0000000E+00  -1.0942802E-05  -2.0924583E-03   0.0000000E+00  -5.1611414E-06  -2.6735265E-03   0.0000000E+00  -1.3947794E-04  -2.6759214E-03   0.0000000E+00  -1.1152229E-04  -2.6643148E-03   0.0000000E+00  -8.6295207E-05  -2.6452746E-03   0.0000000E+00  -6.4883265E-05  -2.6237206E-03   0.0000000E+00  -4.6831992E-05  -2.6028838E-03   0.0000000E+00  -3.2561398E-05  -2.5849710E-03   0.0000000E+00  -2.1500486E-05  -2.5713700E-03   0.0000000E+00  -1.2925734E-05  -2.5629138E-03   0.0000000E+00  -6.0487041E-06  -3.2980777E-03   0.0000000E+00  -1.8168874E-04  -3.2917662E-03   0.0000000E+00  -1.4410350E-04  -3.2701737E-03   0.0000000E+00  -1.1054637E-04  -3.2410284E-03   0.0000000E+00  -8.1975428E-05  -3.2099879E-03   0.0000000E+00  -5.8303762E-05  -3.1808603E-03   0.0000000E+00  -3.9795414E-05  -3.1562122E-03   0.0000000E+00  -2.5812571E-05  -3.1376830E-03   0.0000000E+00  -1.5244439E-05  -3.1262268E-03   0.0000000E+00  -7.0613451E-06  -4.0519927E-03   0.0000000E+00  -2.3833306E-04  -4.0332363E-03   0.0000000E+00  -1.8695946E-04  -3.9981692E-03   0.0000000E+00  -1.4164209E-04  -3.9556981E-03   0.0000000E+00  -1.0322695E-04  -3.9121900E-03   0.0000000E+00  -7.2247873E-05  -3.8722777E-03   0.0000000E+00  -4.8270049E-05  -3.8389170E-03   0.0000000E+00  -3.0707135E-05  -3.8140197E-03   0.0000000E+00  -1.7746448E-05  -3.7986876E-03   0.0000000E+00  -8.0911568E-06  -4.9597123E-03   0.0000000E+00  -3.1187726E-04  -4.9233600E-03   0.0000000E+00  -2.4042043E-04  -4.8699901E-03   0.0000000E+00  -1.7968033E-04  -4.8099286E-03   0.0000000E+00  -1.2843388E-04  -4.7502010E-03   0.0000000E+00  -8.8345121E-05  -4.6963599E-03   0.0000000E+00  -5.7603967E-05  -4.6517807E-03   0.0000000E+00  -3.5734283E-05  -4.6187458E-03   0.0000000E+00  -2.0180059E-05  -4.5984625E-03   0.0000000E+00  -9.0152598E-06  -6.0489462E-03   0.0000000E+00  -4.0455296E-04  -5.9883310E-03   0.0000000E+00  -3.0567450E-04  -5.9103523E-03   0.0000000E+00  -2.2443163E-04  -5.8271261E-03   0.0000000E+00  -1.5707655E-04  -5.7463958E-03   0.0000000E+00  -1.0588628E-04  -5.6746388E-03   0.0000000E+00  -6.7234410E-05  -5.6157191E-03   0.0000000E+00  -4.0427632E-05  -5.5723051E-03   0.0000000E+00  -2.2148935E-05  -5.5457507E-03   0.0000000E+00  -9.6621197E-06  -7.3512923E-03   0.0000000E+00  -5.1473832E-04  -7.2579705E-03   0.0000000E+00  -3.8150183E-04  -7.1475091E-03   0.0000000E+00  -2.7464650E-04  -7.0340172E-03   0.0000000E+00  -1.8799935E-04  -6.9261654E-03   0.0000000E+00  -1.2361920E-04  -6.8314928E-03   0.0000000E+00  -7.6433433E-05  -6.7543532E-03   0.0000000E+00  -4.4377637E-05  -6.6977730E-03   0.0000000E+00  -2.3340868E-05  -6.6633043E-03   0.0000000E+00  -9.8858009E-06  -8.9032259E-03   0.0000000E+00  -6.4108305E-04  -8.7670768E-03   0.0000000E+00  -4.6743688E-04  -8.6142765E-03   0.0000000E+00  -3.2967358E-04  -8.4615573E-03   0.0000000E+00  -2.2067672E-04  -8.3188638E-03   0.0000000E+00  -1.4135579E-04  -8.1949802E-03   0.0000000E+00  -8.4553605E-05  -8.0948332E-03   0.0000000E+00  -4.7351878E-05  -8.0216741E-03   0.0000000E+00  -2.3698884E-05  -7.9772519E-03   0.0000000E+00  -9.6549966E-06  -1.0745109E-02   0.0000000E+00  -7.7848701E-04  -1.0554388E-02   0.0000000E+00  -5.6017016E-04  -1.0347939E-02   0.0000000E+00  -3.8896303E-04  -1.0145035E-02   0.0000000E+00  -2.5489496E-04  -9.9580782E-03   0.0000000E+00  -1.5923145E-04  -9.7973300E-03   0.0000000E+00  -9.2194961E-05  -9.6683344E-03   0.0000000E+00  -4.9875678E-05  -9.5744794E-03   0.0000000E+00  -2.3681774E-05  -9.5176725E-03   0.0000000E+00  -9.2305772E-06  -1.2923563E-02   0.0000000E+00  -9.2758687E-04  -1.2663337E-02   0.0000000E+00  -6.5891177E-04  -1.2388832E-02   0.0000000E+00  -4.5062887E-04  -1.2123155E-02   0.0000000E+00  -2.9197140E-04  -1.1880865E-02   0.0000000E+00  -1.7936181E-04  -1.1674176E-02   0.0000000E+00  -1.0171147E-04  -1.1509382E-02   0.0000000E+00  -5.3620417E-05  -1.1390083E-02   0.0000000E+00  -2.4892992E-05  -1.1318055E-02   0.0000000E+00  -9.4656380E-06  -1.5487920E-02   0.0000000E+00  -1.0897382E-03  -1.5140069E-02   0.0000000E+00  -7.6790963E-04  -1.4780295E-02   0.0000000E+00  -5.2045472E-04  -1.4436012E-02   0.0000000E+00  -3.3628594E-04  -1.4125660E-02   0.0000000E+00  -2.0702698E-04  -1.3862603E-02   0.0000000E+00  -1.1871044E-04  -1.3654189E-02   0.0000000E+00  -6.3789332E-05  -1.3503978E-02   0.0000000E+00  -3.0801188E-05  -1.3413534E-02   0.0000000E+00  -1.2193348E-05  -1.8489689E-02   0.0000000E+00  -1.2709408E-03  -1.8031590E-02   0.0000000E+00  -8.9613913E-04  -1.7565353E-02   0.0000000E+00  -6.0937984E-04  -1.7123945E-02   0.0000000E+00  -4.0069758E-04  -1.6730422E-02   0.0000000E+00  -2.5401032E-04  -1.6399294E-02   0.0000000E+00  -1.5372947E-04  -1.6138615E-02   0.0000000E+00  -8.9115987E-05  -1.5951565E-02   0.0000000E+00  -4.7620459E-05  -1.5839262E-02   0.0000000E+00  -2.0625572E-05  -2.1982664E-02   0.0000000E+00  -1.4848952E-03  -2.1385767E-02   0.0000000E+00  -1.0622457E-03  -2.0787546E-02   0.0000000E+00  -7.3862431E-04  -2.0227313E-02   0.0000000E+00  -5.0686329E-04  -1.9733509E-02   0.0000000E+00  -3.4083004E-04  -1.9321440E-02   0.0000000E+00  -2.2459135E-04  -1.8999280E-02   0.0000000E+00  -1.4388918E-04  -1.8769212E-02   0.0000000E+00  -8.5306914E-05  -1.8631490E-02   0.0000000E+00  -3.9802922E-05  -2.6027320E-02   0.0000000E+00  -1.7633458E-03  -2.5255408E-02   0.0000000E+00  -1.3001808E-03  -2.4494953E-02   0.0000000E+00  -9.4490557E-04  -2.3791496E-02   0.0000000E+00  -6.8979361E-04  -2.3178415E-02   0.0000000E+00  -4.9958105E-04  -2.2671865E-02   0.0000000E+00  -3.5856629E-04  -2.2278730E-02   0.0000000E+00  -2.4945219E-04  -2.1999508E-02   0.0000000E+00  -1.5835270E-04  -2.1832908E-02   0.0000000E+00  -7.7255492E-05  -3.0690558E-02   0.0000000E+00  -2.1608097E-03  -2.9703299E-02   0.0000000E+00  -1.6668712E-03  -2.8745856E-02   0.0000000E+00  -1.2865058E-03  -2.7872249E-02   0.0000000E+00  -1.0025086E-03  -2.7120665E-02   0.0000000E+00  -7.7681552E-04  -2.6506118E-02   0.0000000E+00  -5.9425365E-04  -2.6032891E-02   0.0000000E+00  -4.3603883E-04  -2.5698854E-02   0.0000000E+00  -2.8771034E-04  -2.5500251E-02   0.0000000E+00  -1.4326192E-04  -3.6046561E-02   0.0000000E+00  -2.7693380E-03  -3.4800395E-02   0.0000000E+00  -2.2528481E-03  -3.3609897E-02   0.0000000E+00  -1.8469437E-03  -3.2540474E-02   0.0000000E+00  -1.5182234E-03  -3.1630982E-02   0.0000000E+00  -1.2339599E-03  -3.0895874E-02   0.0000000E+00  -9.8087534E-04  -3.0334964E-02   0.0000000E+00  -7.3967245E-04  -2.9941695E-02   0.0000000E+00  -4.9803243E-04  -2.9708769E-02   0.0000000E+00  -2.5112194E-04  -4.2163622E-02   0.0000000E+00  -3.7185997E-03  -4.0617999E-02   0.0000000E+00  -3.1867449E-03  -3.9162774E-02   0.0000000E+00  -2.7372120E-03  -3.7873421E-02   0.0000000E+00  -2.3295952E-03  -3.6790606E-02   0.0000000E+00  -1.9484417E-03  -3.5924919E-02   0.0000000E+00  -1.5767324E-03  -3.5270445E-02   0.0000000E+00  -1.2011272E-03  -3.4814786E-02   0.0000000E+00  -8.1253255E-04  -3.4546357E-02   0.0000000E+00  -4.1046861E-04  -4.9088284E-02   0.0000000E+00  -5.1815738E-03  -4.7207672E-02   0.0000000E+00  -4.6192948E-03  -4.5463413E-02   0.0000000E+00  -4.0818583E-03  -4.3938562E-02   0.0000000E+00  -3.5426302E-03  -4.2670861E-02   0.0000000E+00  -2.9958168E-03  -4.1667186E-02   0.0000000E+00  -2.4357960E-03  -4.0915702E-02   0.0000000E+00  -1.8535571E-03  -4.0395919E-02   0.0000000E+00  -1.2521927E-03  -4.0090777E-02   0.0000000E+00  -6.3185475E-04  -5.6793574E-02   0.0000000E+00  -7.3706186E-03  -5.4562025E-02   0.0000000E+00  -6.7209108E-03  -5.2523322E-02   0.0000000E+00  -6.0155634E-03  -5.0756805E-02   0.0000000E+00  -5.2451286E-03  -4.9299866E-02   0.0000000E+00  -4.4310614E-03  -4.8155662E-02   0.0000000E+00  -3.5895491E-03  -4.7302961E-02   0.0000000E+00  -2.7253893E-03  -4.6715923E-02   0.0000000E+00  -1.8358991E-03  -4.6372429E-02   0.0000000E+00  -9.2445331E-04  -6.5120302E-02   0.0000000E+00  -1.0514401E-02  -6.2558569E-02   0.0000000E+00  -9.6619204E-03  -6.0238793E-02   0.0000000E+00  -8.6468952E-03  -5.8232266E-02   0.0000000E+00  -7.5156838E-03  -5.6584105E-02   0.0000000E+00  -6.3240803E-03  -5.5295315E-02   0.0000000E+00  -5.0998391E-03  -5.4338630E-02   0.0000000E+00  -3.8474184E-03  -5.3680897E-02   0.0000000E+00  -2.5756257E-03  -5.3294845E-02   0.0000000E+00  -1.2912378E-03  -7.3737435E-02   0.0000000E+00  -1.4765255E-02  -7.0897721E-02   0.0000000E+00  -1.3452169E-02  -6.8312667E-02   0.0000000E+00  -1.1961835E-02  -6.6073790E-02   0.0000000E+00  -1.0341029E-02  -6.4237013E-02   0.0000000E+00  -8.6329244E-03  -6.2805429E-02   0.0000000E+00  -6.8952595E-03  -6.1744038E-02   0.0000000E+00  -5.1563242E-03  -6.1010554E-02   0.0000000E+00  -3.4273770E-03  -6.0578130E-02   0.0000000E+00  -1.7110830E-03  -8.2283005E-02   0.0000000E+00  -1.9768665E-02  -7.9122521E-02   0.0000000E+00  -1.8005552E-02  -7.6244086E-02   0.0000000E+00  -1.5998835E-02  -7.3782988E-02   0.0000000E+00  -1.3727593E-02  -7.1781039E-02   0.0000000E+00  -1.1349020E-02  -7.0216134E-02   0.0000000E+00  -8.9710234E-03  -6.9045790E-02   0.0000000E+00  -6.6553238E-03  -6.8224117E-02   0.0000000E+00  -4.4055721E-03  -6.7731634E-02   0.0000000E+00  -2.1950873E-03  -9.0212680E-02   0.0000000E+00  -2.5635827E-02  -8.6746074E-02   0.0000000E+00  -2.3382267E-02  -8.3630227E-02   0.0000000E+00  -2.0688584E-02  -8.0977522E-02   0.0000000E+00  -1.7657196E-02  -7.8804120E-02   0.0000000E+00  -1.4476744E-02  -7.7068135E-02   0.0000000E+00  -1.1370642E-02  -7.5765140E-02   0.0000000E+00  -8.3933491E-03  -7.4849762E-02   0.0000000E+00  -5.5364887E-03  -7.4295856E-02   0.0000000E+00  -2.7530787E-03  -9.7083859E-02   0.0000000E+00  -3.2484185E-02  -9.3347795E-02   0.0000000E+00  -2.9500090E-02  -9.0050578E-02   0.0000000E+00  -2.5928723E-02  -8.7223142E-02   0.0000000E+00  -2.1868013E-02  -8.4862784E-02   0.0000000E+00  -1.7756950E-02  -8.2955219E-02   0.0000000E+00  -1.3853611E-02  -8.1509389E-02   0.0000000E+00  -1.0196494E-02  -8.0482677E-02   0.0000000E+00  -6.7228191E-03  -7.9870634E-02   0.0000000E+00  -3.3446301E-03  -1.0193104E-01   0.0000000E+00  -4.0979210E-02  -9.8151162E-02   0.0000000E+00  -3.6939994E-02  -9.4815344E-02   0.0000000E+00  -3.2223657E-02  -9.1978781E-02   0.0000000E+00  -2.7015688E-02  -8.9567117E-02   0.0000000E+00  -2.1811791E-02  -8.7546691E-02   0.0000000E+00  -1.6888728E-02  -8.5971057E-02   0.0000000E+00  -1.2357557E-02  -8.4844366E-02   0.0000000E+00  -8.1254486E-03  -8.4172688E-02   0.0000000E+00  -4.0385085E-03  -1.0398108E-01   0.0000000E+00  -5.2180726E-02  -1.0031671E-01   0.0000000E+00  -4.6610441E-02  -9.7093955E-02   0.0000000E+00  -4.0496755E-02  -9.4282895E-02   0.0000000E+00  -3.3754032E-02  -9.1809228E-02   0.0000000E+00  -2.7012752E-02  -8.9721777E-02   0.0000000E+00  -2.0753341E-02  -8.8081069E-02   0.0000000E+00  -1.5093955E-02  -8.6906314E-02   0.0000000E+00  -9.8783765E-03  -8.6201057E-02   0.0000000E+00  -4.8971786E-03  -1.0118528E-01   0.0000000E+00  -6.5395348E-02  -9.7688124E-02   0.0000000E+00  -5.7976320E-02  -9.4668865E-02   0.0000000E+00  -4.9799468E-02  -9.2006408E-02   0.0000000E+00  -4.0908705E-02  -8.9604497E-02   0.0000000E+00  -3.2303292E-02  -8.7527081E-02   0.0000000E+00  -2.4529077E-02  -8.5897110E-02   0.0000000E+00  -1.7670022E-02  -8.4733628E-02   0.0000000E+00  -1.1494285E-02  -8.4034272E-02   0.0000000E+00  -5.6828344E-03  -8.2789242E-02   0.0000000E+00  -7.6091096E-02  -7.9183966E-02   0.0000000E+00  -6.7257881E-02  -7.5846508E-02   0.0000000E+00  -5.7393216E-02  -7.2950147E-02   0.0000000E+00  -4.6834506E-02  -7.0549779E-02   0.0000000E+00  -3.6789488E-02  -6.8637840E-02   0.0000000E+00  -2.7819458E-02  -6.7190118E-02   0.0000000E+00  -1.9980259E-02  -6.6172436E-02   0.0000000E+00  -1.2975436E-02  -6.5564841E-02   0.0000000E+00  -6.4103911E-03  -5.3015098E-02   0.0000000E+00  -8.0728367E-02  -5.0570320E-02   0.0000000E+00  -7.1687728E-02  -4.8239369E-02   0.0000000E+00  -6.1377354E-02  -4.6172887E-02   0.0000000E+00  -5.0234947E-02  -4.4436850E-02   0.0000000E+00  -3.9567523E-02  -4.3040846E-02   0.0000000E+00  -2.9995626E-02  -4.1968830E-02   0.0000000E+00  -2.1590132E-02  -4.1204844E-02   0.0000000E+00  -1.4044339E-02  -4.0743988E-02   0.0000000E+00  -6.9456403E-03  -2.9196238E-02   0.0000000E+00  -8.3297692E-02  -2.7872119E-02   0.0000000E+00  -7.4357629E-02  -2.6531124E-02   0.0000000E+00  -6.3907057E-02  -2.5296954E-02   0.0000000E+00  -5.2466128E-02  -2.4233181E-02   0.0000000E+00  -4.1432675E-02  -2.3358915E-02   0.0000000E+00  -3.1484008E-02  -2.2672929E-02   0.0000000E+00  -2.2709990E-02  -2.2174215E-02   0.0000000E+00  -1.4798315E-02  -2.1868831E-02   0.0000000E+00  -7.3265508E-03  -1.1166470E-02   0.0000000E+00  -8.4352620E-02  -1.0738708E-02   0.0000000E+00  -7.5602911E-02  -1.0236252E-02   0.0000000E+00  -6.5173015E-02  -9.7368071E-03   0.0000000E+00  -5.3631417E-02  -9.2831450E-03   0.0000000E+00  -4.2438749E-02  -8.8918684E-03   0.0000000E+00  -3.2311182E-02  -8.5696140E-03   0.0000000E+00  -2.3350067E-02  -8.3250375E-03   0.0000000E+00  -1.5239252E-02  -8.1705274E-03   0.0000000E+00  -7.5527164E-03   3.4828356E-03   0.0000000E+00  -8.4270135E-02   3.1829253E-03   0.0000000E+00  -7.5702511E-02   2.9770967E-03   0.0000000E+00  -6.5375239E-02   2.8410694E-03   0.0000000E+00  -5.3872649E-02   2.7587479E-03   0.0000000E+00  -4.2684685E-02   2.7200459E-03   0.0000000E+00  -3.2543413E-02   2.7141389E-03   0.0000000E+00  -2.3551803E-02   2.7264047E-03   0.0000000E+00  -1.5390578E-02   2.7416411E-03   0.0000000E+00  -7.6343212E-03   1.7171605E-02   0.0000000E+00  -8.3281204E-02   1.6228413E-02   0.0000000E+00  -7.4860923E-02   1.5397565E-02   0.0000000E+00  -6.4686418E-02   1.4703074E-02   0.0000000E+00  -5.3330161E-02   1.4150120E-02   0.0000000E+00  -4.2279147E-02   1.3732594E-02   0.0000000E+00  -3.2260153E-02   1.3435594E-02   0.0000000E+00  -2.3369351E-02   1.3240301E-02   0.0000000E+00  -1.5285375E-02   1.3130140E-02   0.0000000E+00  -7.5870813E-03   3.1102140E-02   0.0000000E+00  -8.1463933E-02   2.9539771E-02   0.0000000E+00  -7.3200278E-02   2.8128760E-02   0.0000000E+00  -6.3233994E-02   2.6928937E-02   0.0000000E+00  -5.2121025E-02   2.5956176E-02   0.0000000E+00  -4.1320030E-02   2.5202725E-02   0.0000000E+00  -3.1537030E-02   2.4647700E-02   0.0000000E+00  -2.2857012E-02   2.4268012E-02   0.0000000E+00  -1.4958519E-02   2.4046311E-02   0.0000000E+00  -7.4279001E-03   4.5129646E-02   0.0000000E+00  -7.8830585E-02   4.2956434E-02   0.0000000E+00  -7.0776589E-02   4.0996842E-02   0.0000000E+00  -6.1094847E-02   3.9333362E-02   0.0000000E+00  -5.0324563E-02   3.7982538E-02   0.0000000E+00  -3.9877720E-02   3.6929458E-02   0.0000000E+00  -3.0430956E-02   3.6145587E-02   0.0000000E+00  -2.2057179E-02   3.5602815E-02   0.0000000E+00  -1.4438156E-02   3.5282560E-02   0.0000000E+00  -7.1708946E-03   5.8377396E-02   0.0000000E+00  -7.5392649E-02   5.5622831E-02   0.0000000E+00  -6.7632981E-02   5.3157296E-02   0.0000000E+00  -5.8328576E-02   5.1075842E-02   0.0000000E+00  -4.8002575E-02   4.9389035E-02   0.0000000E+00  -3.8007803E-02   4.8072267E-02   0.0000000E+00  -2.8987782E-02   4.7088187E-02   0.0000000E+00  -2.1004919E-02   4.6403319E-02   0.0000000E+00  -1.3748067E-02   4.5997445E-02   0.0000000E+00  -6.8281926E-03   6.9848724E-02   0.0000000E+00  -7.1206525E-02   6.6573411E-02   0.0000000E+00  -6.3836865E-02   6.3656919E-02   0.0000000E+00  -5.5005614E-02   6.1201066E-02   0.0000000E+00  -4.5220565E-02   5.9209596E-02   0.0000000E+00  -3.5767026E-02   5.7649337E-02   0.0000000E+00  -2.7254125E-02   5.6478176E-02   0.0000000E+00  -1.9736415E-02   5.5660568E-02   0.0000000E+00  -1.2913516E-02   5.5174727E-02   0.0000000E+00  -6.4127059E-03   7.7514291E-02   0.0000000E+00  -6.6417024E-02   7.3342904E-02   0.0000000E+00  -5.9502605E-02   6.9773950E-02   0.0000000E+00  -5.1225610E-02   6.6791154E-02   0.0000000E+00  -4.2079452E-02   6.4328209E-02   0.0000000E+00  -3.3269681E-02   6.2350616E-02   0.0000000E+00  -2.5359560E-02   6.0847268E-02   0.0000000E+00  -1.8380782E-02   5.9788778E-02   0.0000000E+00  -1.2037391E-02   5.9164099E-02   0.0000000E+00  -5.9814025E-03   7.9121895E-02   0.0000000E+00  -6.1261412E-02   7.4585751E-02   0.0000000E+00  -5.4826163E-02   7.0771538E-02   0.0000000E+00  -4.7157444E-02   6.7590639E-02   0.0000000E+00  -3.8721133E-02   6.4982772E-02   0.0000000E+00  -3.0620687E-02   6.2899105E-02   0.0000000E+00  -2.3362992E-02   6.1311759E-02   0.0000000E+00  -1.6953336E-02   6.0202122E-02   0.0000000E+00  -1.1113901E-02   5.9546787E-02   0.0000000E+00  -5.5242795E-03   7.8722060E-02   0.0000000E+00  -5.5948894E-02   7.4069284E-02   0.0000000E+00  -5.0022110E-02   7.0189312E-02   0.0000000E+00  -4.2985346E-02   6.6974156E-02   0.0000000E+00  -3.5283640E-02   6.4342968E-02   0.0000000E+00  -2.7897321E-02   6.2239122E-02   0.0000000E+00  -2.1278467E-02   6.0645271E-02   0.0000000E+00  -1.5432848E-02   5.9536498E-02   0.0000000E+00  -1.0111023E-02   5.8883905E-02   0.0000000E+00  -5.0240145E-03   7.7423304E-02   0.0000000E+00  -5.0727997E-02   7.2723351E-02   0.0000000E+00  -4.5296635E-02   6.8814658E-02   0.0000000E+00  -3.8881835E-02   6.5593332E-02   0.0000000E+00  -3.1897400E-02   6.2972315E-02   0.0000000E+00  -2.5208909E-02   6.0897876E-02   0.0000000E+00  -1.9227773E-02   5.9340674E-02   0.0000000E+00  -1.3947953E-02   5.8256876E-02   0.0000000E+00  -9.1316579E-03   5.7618815E-02   0.0000000E+00  -4.5324778E-03   7.5698294E-02   0.0000000E+00  -4.5804136E-02   7.0951469E-02   0.0000000E+00  -4.0904243E-02   6.6966891E-02   0.0000000E+00  -3.5083912E-02   6.3747831E-02   0.0000000E+00  -2.8810000E-02   6.1181128E-02   0.0000000E+00  -2.2785574E-02   5.9191570E-02   0.0000000E+00  -1.7368268E-02   5.7709996E-02   0.0000000E+00  -1.2571109E-02   5.6678455E-02   0.0000000E+00  -8.2184132E-03   5.6063253E-02   0.0000000E+00  -4.0743668E-03   7.3786288E-02   0.0000000E+00  -4.1170750E-02   6.8929873E-02   0.0000000E+00  -3.6774635E-02   6.4870246E-02   0.0000000E+00  -3.1567134E-02   6.1637677E-02   0.0000000E+00  -2.5948687E-02   5.9113994E-02   0.0000000E+00  -2.0516636E-02   5.7186186E-02   0.0000000E+00  -1.5642410E-02   5.5756282E-02   0.0000000E+00  -1.1326660E-02   5.4766197E-02   0.0000000E+00  -7.3931240E-03   5.4179318E-02   0.0000000E+00  -3.6593361E-03   7.1672074E-02   0.0000000E+00  -3.6967743E-02   6.6629082E-02   0.0000000E+00  -3.2883365E-02   6.2521651E-02   0.0000000E+00  -2.8321395E-02   5.9259217E-02   0.0000000E+00  -2.3320675E-02   5.6761134E-02   0.0000000E+00  -1.8485846E-02   5.4887023E-02   0.0000000E+00  -1.4114425E-02   5.3515617E-02   0.0000000E+00  -1.0221746E-02   5.2570265E-02   0.0000000E+00  -6.6625513E-03   5.2012164E-02   0.0000000E+00  -3.2936712E-03   6.9379099E-02   0.0000000E+00  -3.3025589E-02   6.4207032E-02   0.0000000E+00  -2.9269157E-02   5.9987709E-02   0.0000000E+00  -2.5246926E-02   5.6701284E-02   0.0000000E+00  -2.0943012E-02   5.4208402E-02   0.0000000E+00  -1.6686356E-02   5.2378066E-02   0.0000000E+00  -1.2779943E-02   5.1052041E-02   0.0000000E+00  -9.2514539E-03   5.0149299E-02   0.0000000E+00  -6.0252026E-03   4.9617272E-02   0.0000000E+00  -2.9736154E-03   6.7203857E-02   0.0000000E+00  -2.9311558E-02   6.1795827E-02   0.0000000E+00  -2.6056647E-02   5.7435058E-02   0.0000000E+00  -2.2421975E-02   5.4115441E-02   0.0000000E+00  -1.8765148E-02   5.1610462E-02   0.0000000E+00  -1.5067845E-02   4.9785409E-02   0.0000000E+00  -1.1606205E-02   4.8486244E-02   0.0000000E+00  -8.4226923E-03   4.7614433E-02   0.0000000E+00  -5.4827179E-03   4.7112394E-02   0.0000000E+00  -2.7013335E-03   6.5396145E-02   0.0000000E+00  -2.5843235E-02   5.9498511E-02   0.0000000E+00  -2.2840910E-02   5.5063441E-02   0.0000000E+00  -1.9884864E-02   5.1601171E-02   0.0000000E+00  -1.6715456E-02   4.9091455E-02   0.0000000E+00  -1.3611569E-02   4.7246367E-02   0.0000000E+00  -1.0536462E-02   4.5957491E-02   0.0000000E+00  -7.6821572E-03   4.5099523E-02   0.0000000E+00  -5.0007217E-03   4.4611953E-02   0.0000000E+00  -2.4645389E-03   6.4118311E-02   0.0000000E+00  -2.2750495E-02   5.7640929E-02   0.0000000E+00  -1.9922979E-02   5.2852757E-02   0.0000000E+00  -1.7266162E-02   4.9372118E-02   0.0000000E+00  -1.4741750E-02   4.6741992E-02   0.0000000E+00  -1.2098684E-02   4.4893559E-02   0.0000000E+00  -9.5280623E-03   4.3586597E-02   0.0000000E+00  -6.9709481E-03   4.2734139E-02   0.0000000E+00  -4.5626466E-03   4.2250674E-02   0.0000000E+00  -2.2482884E-03   6.3448645E-02   0.0000000E+00  -2.0169560E-02   5.6338869E-02   0.0000000E+00  -1.7406574E-02   5.1115159E-02   0.0000000E+00  -1.4951364E-02   4.7364958E-02   0.0000000E+00  -1.2712535E-02   4.4716232E-02   0.0000000E+00  -1.0612455E-02   4.2785335E-02   0.0000000E+00  -8.4102741E-03   4.1463528E-02   0.0000000E+00  -6.2580900E-03   4.0601607E-02   0.0000000E+00  -4.1136034E-03   4.0120214E-02   0.0000000E+00  -2.0413634E-03   6.3890256E-02   0.0000000E+00  -1.8509263E-02   5.5802926E-02   0.0000000E+00  -1.5530911E-02   4.9963322E-02   0.0000000E+00  -1.3036486E-02   4.5844335E-02   0.0000000E+00  -1.0961255E-02   4.2967878E-02   0.0000000E+00  -9.0671340E-03   4.0977523E-02   0.0000000E+00  -7.2951568E-03   3.9608683E-02   0.0000000E+00  -5.4527908E-03   3.8734004E-02   0.0000000E+00  -3.6269829E-03   3.8246278E-02   0.0000000E+00  -1.8154572E-03   6.6242784E-02   0.0000000E+00  -1.8397525E-02   5.6705773E-02   0.0000000E+00  -1.4763634E-02   4.9661197E-02   0.0000000E+00  -1.1892323E-02   4.4906791E-02   0.0000000E+00  -9.6474634E-03   4.1710395E-02   0.0000000E+00  -7.8453477E-03   3.9494608E-02   0.0000000E+00  -6.1867493E-03   3.8048130E-02   0.0000000E+00  -4.6391203E-03   3.7142444E-02   0.0000000E+00  -3.1077242E-03   3.6635876E-02   0.0000000E+00  -1.5533903E-03   6.9424555E-02   0.0000000E+00  -1.9348800E-02   5.9877798E-02   0.0000000E+00  -1.5725154E-02   5.1250383E-02   0.0000000E+00  -1.2184370E-02   4.5012087E-02   0.0000000E+00  -9.3231946E-03   4.1079041E-02   0.0000000E+00  -7.1750139E-03   3.8553689E-02   0.0000000E+00  -5.5131754E-03   3.6877245E-02   0.0000000E+00  -4.0075951E-03   3.5865340E-02   0.0000000E+00  -2.6207515E-03   3.5318516E-02   0.0000000E+00  -1.2959902E-03   7.1835101E-02   0.0000000E+00  -2.0458635E-02   6.3806117E-02   0.0000000E+00  -1.7496124E-02   5.5468671E-02   0.0000000E+00  -1.4095746E-02   4.7733516E-02   0.0000000E+00  -1.0861228E-02   4.2010311E-02   0.0000000E+00  -7.9632085E-03   3.8461387E-02   0.0000000E+00  -5.6786719E-03   3.6342822E-02   0.0000000E+00  -3.9283577E-03   3.5121500E-02   0.0000000E+00  -2.5077129E-03   3.4465898E-02   0.0000000E+00  -1.2247945E-03   7.1409993E-02   0.0000000E+00  -2.0567859E-02   6.5765947E-02   0.0000000E+00  -1.8671356E-02   5.9485104E-02   0.0000000E+00  -1.6237751E-02   5.3145755E-02   0.0000000E+00  -1.3426293E-02   4.6558097E-02   0.0000000E+00  -1.0677338E-02   4.1176364E-02   0.0000000E+00  -7.8598000E-03   3.7654549E-02   0.0000000E+00  -5.2463645E-03   3.5673790E-02   0.0000000E+00  -3.1438852E-03   3.4727279E-02   0.0000000E+00  -1.4625941E-03   6.4321660E-02   0.0000000E+00  -1.8449187E-02   6.0283888E-02   0.0000000E+00  -1.7112235E-02   5.6093801E-02   0.0000000E+00  -1.5313708E-02   5.1942069E-02   0.0000000E+00  -1.2888096E-02   4.8171673E-02   0.0000000E+00  -9.8983524E-03   4.4890873E-02   0.0000000E+00  -6.8344483E-03   4.2579763E-02   0.0000000E+00  -4.1299933E-03   4.1254684E-02   0.0000000E+00  -1.9128213E-03   5.5061392E-02   0.0000000E+00  -1.5679853E-02   5.2480791E-02   0.0000000E+00  -1.4211365E-02   5.0306898E-02   0.0000000E+00  -1.1433127E-02   4.9217001E-02   0.0000000E+00  -7.8836652E-03   4.8395757E-02   0.0000000E+00  -4.7078347E-03   4.7836509E-02   0.0000000E+00  -2.1564898E-03   4.8480712E-02   0.0000000E+00  -1.2273242E-02   4.7490142E-02   0.0000000E+00  -8.9471061E-03   4.7269616E-02   0.0000000E+00  -5.2822544E-03   4.7135402E-02   0.0000000E+00  -2.3880105E-03  -1.9372557E-04   0.0000000E+00  -2.6536700E-11  -1.9372629E-04   0.0000000E+00   1.1143527E-06  -1.9370980E-04   0.0000000E+00   2.3347350E-06  -1.9361172E-04   0.0000000E+00   3.7623779E-06  -1.9331583E-04   0.0000000E+00   5.5141809E-06  -1.9265535E-04   0.0000000E+00   7.6288047E-06  -1.9136535E-04   0.0000000E+00   1.0246746E-05  -1.8911893E-04   0.0000000E+00   1.3399816E-05  -2.7964116E-04   0.0000000E+00  -2.6472446E-11  -2.7968019E-04   0.0000000E+00   1.6217676E-06  -2.7976773E-04   0.0000000E+00   3.3903061E-06  -2.7981642E-04   0.0000000E+00   5.4223879E-06  -2.7965807E-04   0.0000000E+00   7.8832318E-06  -2.7905128E-04   0.0000000E+00   1.0856396E-05  -2.7762415E-04   0.0000000E+00   1.4481770E-05  -2.7487258E-04   0.0000000E+00   1.8911242E-05  -3.9233710E-04   0.0000000E+00  -1.2161263E-11  -3.9243614E-04   0.0000000E+00   2.0706002E-06  -3.9269129E-04   0.0000000E+00   4.3170003E-06  -3.9298090E-04   0.0000000E+00   6.8839677E-06  -3.9307924E-04   0.0000000E+00   9.9632034E-06  -3.9264871E-04   0.0000000E+00   1.3692385E-05  -3.9119460E-04   0.0000000E+00   1.8191149E-05  -3.8801023E-04   0.0000000E+00   2.3636365E-05  -5.2842975E-04   0.0000000E+00  -2.6759352E-11  -5.2861770E-04   0.0000000E+00   2.4544065E-06  -5.2912772E-04   0.0000000E+00   5.1076954E-06  -5.2979996E-04   0.0000000E+00   8.1473027E-06  -5.3034682E-04   0.0000000E+00   1.1768638E-05  -5.3031807E-04   0.0000000E+00   1.6179278E-05  -5.2908331E-04   0.0000000E+00   2.1449807E-05  -5.2570412E-04   0.0000000E+00   2.7805856E-05  -6.8889186E-04   0.0000000E+00  -1.5111220E-11  -6.8920705E-04   0.0000000E+00   2.7885808E-06  -6.9008913E-04   0.0000000E+00   5.7984680E-06  -6.9133833E-04   0.0000000E+00   9.2701503E-06  -6.9260481E-04   0.0000000E+00   1.3386689E-05  -6.9332169E-04   0.0000000E+00   1.8413319E-05  -6.9268822E-04   0.0000000E+00   2.4455556E-05  -6.8953156E-04   0.0000000E+00   3.1693125E-05  -8.7811385E-04   0.0000000E+00   1.5914504E-13  -8.7860686E-04   0.0000000E+00   3.1046752E-06  -8.8001299E-04   0.0000000E+00   6.4625938E-06  -8.8209467E-04   0.0000000E+00   1.0349063E-05  -8.8443339E-04   0.0000000E+00   1.4988264E-05  -8.8635396E-04   0.0000000E+00   2.0654923E-05  -8.8686426E-04   0.0000000E+00   2.7531276E-05  -8.8453811E-04   0.0000000E+00   3.5721845E-05  -1.1033160E-03   0.0000000E+00  -1.1362711E-10  -1.1040524E-03   0.0000000E+00   3.4486936E-06  -1.1061770E-03   0.0000000E+00   7.2003522E-06  -1.1094176E-03   0.0000000E+00   1.1560623E-05  -1.1132846E-03   0.0000000E+00   1.6822609E-05  -1.1169950E-03   0.0000000E+00   2.3259679E-05  -1.1193558E-03   0.0000000E+00   3.1151376E-05  -1.1186651E-03   0.0000000E+00   4.0488412E-05  -1.3735902E-03   0.0000000E+00  -6.4888455E-12  -1.3746561E-03   0.0000000E+00   3.8774392E-06  -1.3777559E-03   0.0000000E+00   8.1267308E-06  -1.3825827E-03   0.0000000E+00   1.3108179E-05  -1.3885731E-03   0.0000000E+00   1.9193485E-05  -1.3948292E-03   0.0000000E+00   2.6671514E-05  -1.3999486E-03   0.0000000E+00   3.5886933E-05  -1.4019130E-03   0.0000000E+00   4.6774076E-05  -1.6989973E-03   0.0000000E+00  -1.6290495E-10  -1.7005048E-03   0.0000000E+00   4.4382468E-06  -1.7049172E-03   0.0000000E+00   9.3489843E-06  -1.7118866E-03   0.0000000E+00   1.5184156E-05  -1.7207719E-03   0.0000000E+00   2.2420505E-05  -1.7305426E-03   0.0000000E+00   3.1400181E-05  -1.7395706E-03   0.0000000E+00   4.2512333E-05  -1.7454766E-03   0.0000000E+00   5.5640801E-05  -2.0903642E-03   0.0000000E+00   1.2240735E-11  -2.0924588E-03   0.0000000E+00   5.1611078E-06  -2.0986171E-03   0.0000000E+00   1.0942691E-05  -2.1084459E-03   0.0000000E+00   1.7950624E-05  -2.1212141E-03   0.0000000E+00   2.6798532E-05  -2.1357355E-03   0.0000000E+00   3.7960643E-05  -2.1501211E-03   0.0000000E+00   5.1881616E-05  -2.1615813E-03   0.0000000E+00   6.8360241E-05  -2.5600477E-03   0.0000000E+00  -1.8152657E-10  -2.5629140E-03   0.0000000E+00   6.0487300E-06  -2.5713698E-03   0.0000000E+00   1.2925512E-05  -2.5849708E-03   0.0000000E+00   2.1500342E-05  -2.6028845E-03   0.0000000E+00   3.2561315E-05  -2.6237201E-03   0.0000000E+00   4.6832021E-05  -2.6452749E-03   0.0000000E+00   6.4883352E-05  -2.6643153E-03   0.0000000E+00   8.6295244E-05  -3.1223551E-03   0.0000000E+00  -1.1969105E-10  -3.1262268E-03   0.0000000E+00   7.0614092E-06  -3.1376835E-03   0.0000000E+00   1.5244079E-05  -3.1562126E-03   0.0000000E+00   2.5812522E-05  -3.1808598E-03   0.0000000E+00   3.9795301E-05  -3.2099881E-03   0.0000000E+00   5.8303780E-05  -3.2410286E-03   0.0000000E+00   8.1975188E-05  -3.2701741E-03   0.0000000E+00   1.1054641E-04  -3.7935202E-03   0.0000000E+00  -3.2809347E-10  -3.7986874E-03   0.0000000E+00   8.0913187E-06  -3.8140200E-03   0.0000000E+00   1.7746201E-05  -3.8389172E-03   0.0000000E+00   3.0707244E-05  -3.8722779E-03   0.0000000E+00   4.8270020E-05  -3.9121904E-03   0.0000000E+00   7.2247807E-05  -3.9556976E-03   0.0000000E+00   1.0322688E-04  -3.9981692E-03   0.0000000E+00   1.4164197E-04  -4.5916433E-03   0.0000000E+00   7.4903084E-11  -4.5984625E-03   0.0000000E+00   9.0152625E-06  -4.6187453E-03   0.0000000E+00   2.0180223E-05  -4.6517802E-03   0.0000000E+00   3.5734163E-05  -4.6963594E-03   0.0000000E+00   5.7603862E-05  -4.7502015E-03   0.0000000E+00   8.8344997E-05  -4.8099281E-03   0.0000000E+00   1.2843340E-04  -4.8699905E-03   0.0000000E+00   1.7968030E-04  -5.5368338E-03   0.0000000E+00   1.5679553E-10  -5.5457503E-03   0.0000000E+00   9.6617750E-06  -5.5723032E-03   0.0000000E+00   2.2148295E-05  -5.6157182E-03   0.0000000E+00   4.0427447E-05  -5.6746388E-03   0.0000000E+00   6.7234119E-05  -5.7463967E-03   0.0000000E+00   1.0588609E-04  -5.8271256E-03   0.0000000E+00   1.5707692E-04  -5.9103514E-03   0.0000000E+00   2.2443138E-04  -6.6517368E-03   0.0000000E+00   3.5139728E-11  -6.6633029E-03   0.0000000E+00   9.8855835E-06  -6.6977725E-03   0.0000000E+00   2.3340390E-05  -6.7543527E-03   0.0000000E+00   4.4377623E-05  -6.8314937E-03   0.0000000E+00   7.6433163E-05  -6.9261673E-03   0.0000000E+00   1.2361906E-04  -7.0340177E-03   0.0000000E+00   1.8799935E-04  -7.1475096E-03   0.0000000E+00   2.7464674E-04  -7.9623638E-03   0.0000000E+00  -2.2303320E-10  -7.9772519E-03   0.0000000E+00   9.6547719E-06  -8.0216732E-03   0.0000000E+00   2.3698341E-05  -8.0948342E-03   0.0000000E+00   4.7351437E-05  -8.1949783E-03   0.0000000E+00   8.4553489E-05  -8.3188619E-03   0.0000000E+00   1.4135565E-04  -8.4615573E-03   0.0000000E+00   2.2067723E-04  -8.6142775E-03   0.0000000E+00   3.2967335E-04  -9.4986493E-03   0.0000000E+00  -1.7772903E-10  -9.5176734E-03   0.0000000E+00   9.2294931E-06  -9.5744804E-03   0.0000000E+00   2.3682251E-05  -9.6683372E-03   0.0000000E+00   4.9875231E-05  -9.7973300E-03   0.0000000E+00   9.2194590E-05  -9.9580791E-03   0.0000000E+00   1.5923157E-04  -1.0145037E-02   0.0000000E+00   2.5489522E-04  -1.0347941E-02   0.0000000E+00   3.8896364E-04  -1.1293954E-02   0.0000000E+00  -2.4741006E-10  -1.1318055E-02   0.0000000E+00   9.4659090E-06  -1.1390084E-02   0.0000000E+00   2.4893783E-05  -1.1509382E-02   0.0000000E+00   5.3620173E-05  -1.1674177E-02   0.0000000E+00   1.0171159E-04  -1.1880866E-02   0.0000000E+00   1.7936186E-04  -1.2123154E-02   0.0000000E+00   2.9197143E-04  -1.2388831E-02   0.0000000E+00   4.5062814E-04  -1.3383308E-02   0.0000000E+00   7.8791246E-10  -1.3413534E-02   0.0000000E+00   1.2191388E-05  -1.3503977E-02   0.0000000E+00   3.0801155E-05  -1.3654188E-02   0.0000000E+00   6.3789092E-05  -1.3862604E-02   0.0000000E+00   1.1870978E-04  -1.4125660E-02   0.0000000E+00   2.0702624E-04  -1.4436010E-02   0.0000000E+00   3.3628527E-04  -1.4780297E-02   0.0000000E+00   5.2045361E-04  -1.5801789E-02   0.0000000E+00   3.6328790E-10  -1.5839264E-02   0.0000000E+00   2.0625976E-05  -1.5951563E-02   0.0000000E+00   4.7619600E-05  -1.6138611E-02   0.0000000E+00   8.9115179E-05  -1.6399294E-02   0.0000000E+00   1.5372966E-04  -1.6730420E-02   0.0000000E+00   2.5401008E-04  -1.7123945E-02   0.0000000E+00   4.0069636E-04  -1.7565351E-02   0.0000000E+00   6.0938013E-04  -1.8585639E-02   0.0000000E+00  -2.4703093E-09  -1.8631490E-02   0.0000000E+00   3.9804188E-05  -1.8769210E-02   0.0000000E+00   8.5307729E-05  -1.8999279E-02   0.0000000E+00   1.4388870E-04  -1.9321445E-02   0.0000000E+00   2.2459115E-04  -1.9733507E-02   0.0000000E+00   3.4083024E-04  -2.0227315E-02   0.0000000E+00   5.0686265E-04  -2.0787552E-02   0.0000000E+00   7.3862640E-04  -2.1777559E-02   0.0000000E+00  -1.4425638E-09  -2.1832904E-02   0.0000000E+00   7.7255812E-05  -2.1999504E-02   0.0000000E+00   1.5835307E-04  -2.2278730E-02   0.0000000E+00   2.4945129E-04  -2.2671865E-02   0.0000000E+00   3.5856580E-04  -2.3178417E-02   0.0000000E+00   4.9958157E-04  -2.3791501E-02   0.0000000E+00   6.8979483E-04  -2.4494959E-02   0.0000000E+00   9.4490487E-04  -2.5434403E-02   0.0000000E+00   3.6776310E-10  -2.5500253E-02   0.0000000E+00   1.4326234E-04  -2.5698861E-02   0.0000000E+00   2.8770961E-04  -2.6032893E-02   0.0000000E+00   4.3603827E-04  -2.6506118E-02   0.0000000E+00   5.9425342E-04  -2.7120670E-02   0.0000000E+00   7.7681494E-04  -2.7872257E-02   0.0000000E+00   1.0025088E-03  -2.8745856E-02   0.0000000E+00   1.2865055E-03  -2.9631656E-02   0.0000000E+00  -6.6344036E-10  -2.9708765E-02   0.0000000E+00   2.5112179E-04  -2.9941699E-02   0.0000000E+00   4.9803423E-04  -3.0334968E-02   0.0000000E+00   7.3967280E-04  -3.0895872E-02   0.0000000E+00   9.8087476E-04  -3.1630989E-02   0.0000000E+00   1.2339586E-03  -3.2540474E-02   0.0000000E+00   1.5182238E-03  -3.3609901E-02   0.0000000E+00   1.8469471E-03  -3.4457710E-02   0.0000000E+00   7.8551221E-10  -3.4546349E-02   0.0000000E+00   4.1047030E-04  -3.4814786E-02   0.0000000E+00   8.1253215E-04  -3.5270441E-02   0.0000000E+00   1.2011270E-03  -3.5924926E-02   0.0000000E+00   1.5767320E-03  -3.6790613E-02   0.0000000E+00   1.9484417E-03  -3.7873432E-02   0.0000000E+00   2.3295935E-03  -3.9162774E-02   0.0000000E+00   2.7372073E-03  -3.9990231E-02   0.0000000E+00  -3.0238823E-09  -4.0090777E-02   0.0000000E+00   6.3185778E-04  -4.0395912E-02   0.0000000E+00   1.2521915E-03  -4.0915713E-02   0.0000000E+00   1.8535559E-03  -4.1667193E-02   0.0000000E+00   2.4357960E-03  -4.2670865E-02   0.0000000E+00   2.9958158E-03  -4.3938562E-02   0.0000000E+00   3.5426335E-03  -4.5463413E-02   0.0000000E+00   4.0818588E-03  -4.6259422E-02   0.0000000E+00   3.3258638E-09  -4.6372432E-02   0.0000000E+00   9.2445523E-04  -4.6715930E-02   0.0000000E+00   1.8359002E-03  -4.7302958E-02   0.0000000E+00   2.7253891E-03  -4.8155665E-02   0.0000000E+00   3.5895500E-03  -4.9299870E-02   0.0000000E+00   4.4310624E-03  -5.0756805E-02   0.0000000E+00   5.2451310E-03  -5.2523322E-02   0.0000000E+00   6.0155634E-03  -5.3167470E-02   0.0000000E+00   2.5401761E-09  -5.3294852E-02   0.0000000E+00   1.2912342E-03  -5.3680904E-02   0.0000000E+00   2.5756275E-03  -5.4338630E-02   0.0000000E+00   3.8474195E-03  -5.5295315E-02   0.0000000E+00   5.0998395E-03  -5.6584094E-02   0.0000000E+00   6.3240803E-03  -5.8232263E-02   0.0000000E+00   7.5156824E-03  -6.0238790E-02   0.0000000E+00   8.6468924E-03  -6.0434725E-02   0.0000000E+00   2.9331104E-09  -6.0578126E-02   0.0000000E+00   1.7110863E-03  -6.1010547E-02   0.0000000E+00   3.4273800E-03  -6.1744045E-02   0.0000000E+00   5.1563247E-03  -6.2805422E-02   0.0000000E+00   6.8952590E-03  -6.4237013E-02   0.0000000E+00   8.6329263E-03  -6.6073798E-02   0.0000000E+00   1.0341028E-02  -6.8312675E-02   0.0000000E+00   1.1961835E-02  -6.7570090E-02   0.0000000E+00  -1.3622059E-09  -6.7731634E-02   0.0000000E+00   2.1950852E-03  -6.8224110E-02   0.0000000E+00   4.4055753E-03  -6.9045790E-02   0.0000000E+00   6.6553229E-03  -7.0216134E-02   0.0000000E+00   8.9710243E-03  -7.1781039E-02   0.0000000E+00   1.1349020E-02  -7.3782988E-02   0.0000000E+00   1.3727595E-02  -7.6244086E-02   0.0000000E+00   1.5998837E-02  -7.4113794E-02   0.0000000E+00  -1.3629211E-09  -7.4295856E-02   0.0000000E+00   2.7530894E-03  -7.4849762E-02   0.0000000E+00   5.5364911E-03  -7.5765148E-02   0.0000000E+00   8.3933510E-03  -7.7068135E-02   0.0000000E+00   1.1370640E-02  -7.8804106E-02   0.0000000E+00   1.4476744E-02  -8.0977514E-02   0.0000000E+00   1.7657196E-02  -8.3630219E-02   0.0000000E+00   2.0688590E-02  -7.9667941E-02   0.0000000E+00   3.3220696E-10  -7.9870634E-02   0.0000000E+00   3.3446278E-03  -8.0482699E-02   0.0000000E+00   6.7228172E-03  -8.1509389E-02   0.0000000E+00   1.0196490E-02  -8.2955211E-02   0.0000000E+00   1.3853617E-02  -8.4862784E-02   0.0000000E+00   1.7756952E-02  -8.7223157E-02   0.0000000E+00   2.1868020E-02  -9.0050586E-02   0.0000000E+00   2.5928721E-02  -8.3950274E-02   0.0000000E+00  -1.4737579E-08  -8.4172688E-02   0.0000000E+00   4.0384866E-03  -8.4844366E-02   0.0000000E+00   8.1254346E-03  -8.5971057E-02   0.0000000E+00   1.2357562E-02  -8.7546699E-02   0.0000000E+00   1.6888727E-02  -8.9567117E-02   0.0000000E+00   2.1811800E-02  -9.1978766E-02   0.0000000E+00   2.7015682E-02  -9.4815359E-02   0.0000000E+00   3.2223649E-02  -8.5966527E-02   0.0000000E+00   1.4146196E-09  -8.6201042E-02   0.0000000E+00   4.8971549E-03  -8.6906321E-02   0.0000000E+00   9.8783756E-03  -8.8081084E-02   0.0000000E+00   1.5093962E-02  -8.9721754E-02   0.0000000E+00   2.0753352E-02  -9.1809243E-02   0.0000000E+00   2.7012751E-02  -9.4282910E-02   0.0000000E+00   3.3754017E-02  -9.7093955E-02   0.0000000E+00   4.0496748E-02  -8.3802238E-02   0.0000000E+00   1.2046908E-08  -8.4034294E-02   0.0000000E+00   5.6828070E-03  -8.4733628E-02   0.0000000E+00   1.1494275E-02  -8.5897118E-02   0.0000000E+00   1.7670017E-02  -8.7527066E-02   0.0000000E+00   2.4529088E-02  -8.9604497E-02   0.0000000E+00   3.2303274E-02  -9.2006408E-02   0.0000000E+00   4.0908724E-02  -9.4668880E-02   0.0000000E+00   4.9799468E-02  -6.5362327E-02   0.0000000E+00  -4.7956739E-10  -6.5564856E-02   0.0000000E+00   6.4103883E-03  -6.6172414E-02   0.0000000E+00   1.2975444E-02  -6.7190133E-02   0.0000000E+00   1.9980233E-02  -6.8637796E-02   0.0000000E+00   2.7819445E-02  -7.0549779E-02   0.0000000E+00   3.6789507E-02  -7.2950169E-02   0.0000000E+00   4.6834536E-02  -7.5846516E-02   0.0000000E+00   5.7393182E-02  -4.0589526E-02   0.0000000E+00   2.2068104E-08  -4.0743973E-02   0.0000000E+00   6.9456059E-03  -4.1204832E-02   0.0000000E+00   1.4044338E-02  -4.1968804E-02   0.0000000E+00   2.1590129E-02  -4.3040846E-02   0.0000000E+00   2.9995631E-02  -4.4436831E-02   0.0000000E+00   3.9567504E-02  -4.6172872E-02   0.0000000E+00   5.0234981E-02  -4.8239373E-02   0.0000000E+00   6.1377369E-02  -2.1765674E-02   0.0000000E+00   1.0716835E-08  -2.1868844E-02   0.0000000E+00   7.3265731E-03  -2.2174234E-02   0.0000000E+00   1.4798307E-02  -2.2672916E-02   0.0000000E+00   2.2709996E-02  -2.3358900E-02   0.0000000E+00   3.1483993E-02  -2.4233209E-02   0.0000000E+00   4.1432660E-02  -2.5296938E-02   0.0000000E+00   5.2466094E-02  -2.6531110E-02   0.0000000E+00   6.3907057E-02  -8.1174383E-03   0.0000000E+00  -1.0540073E-10  -8.1705125E-03   0.0000000E+00   7.5527225E-03  -8.3250441E-03   0.0000000E+00   1.5239265E-02  -8.5696271E-03   0.0000000E+00   2.3350051E-02  -8.8918470E-03   0.0000000E+00   3.2311160E-02  -9.2831543E-03   0.0000000E+00   4.2438742E-02  -9.7367913E-03   0.0000000E+00   5.3631421E-02  -1.0236305E-02   0.0000000E+00   6.5172985E-02   2.7481306E-03   0.0000000E+00  -3.0133425E-08   2.7416525E-03   0.0000000E+00   7.6343180E-03   2.7264447E-03   0.0000000E+00   1.5390560E-02   2.7141285E-03   0.0000000E+00   2.3551792E-02   2.7200393E-03   0.0000000E+00   3.2543413E-02   2.7587544E-03   0.0000000E+00   4.2684682E-02   2.8411134E-03   0.0000000E+00   5.3872649E-02   2.9771023E-03   0.0000000E+00   6.5375239E-02   1.3094623E-02   0.0000000E+00   7.4396374E-09   1.3130151E-02   0.0000000E+00   7.5870398E-03   1.3240288E-02   0.0000000E+00   1.5285359E-02   1.3435585E-02   0.0000000E+00   2.3369366E-02   1.3732601E-02   0.0000000E+00   3.2260127E-02   1.4150117E-02   0.0000000E+00   4.2279162E-02   1.4703051E-02   0.0000000E+00   5.3330127E-02   1.5397569E-02   0.0000000E+00   6.4686425E-02   2.3973323E-02   0.0000000E+00   2.9119541E-08   2.4046313E-02   0.0000000E+00   7.4278926E-03   2.4268026E-02   0.0000000E+00   1.4958515E-02   2.4647735E-02   0.0000000E+00   2.2857010E-02   2.5202727E-02   0.0000000E+00   3.1537019E-02   2.5956165E-02   0.0000000E+00   4.1320007E-02   2.6928920E-02   0.0000000E+00   5.2121013E-02   2.8128758E-02   0.0000000E+00   6.3234024E-02   3.5176456E-02   0.0000000E+00   8.8141201E-09   3.5282545E-02   0.0000000E+00   7.1708746E-03   3.5602827E-02   0.0000000E+00   1.4438148E-02   3.6145598E-02   0.0000000E+00   2.2057176E-02   3.6929484E-02   0.0000000E+00   3.0430954E-02   3.7982520E-02   0.0000000E+00   3.9877724E-02   3.9333377E-02   0.0000000E+00   5.0324537E-02   4.0996827E-02   0.0000000E+00   6.1094847E-02   4.5862678E-02   0.0000000E+00  -2.3140268E-08   4.5997478E-02   0.0000000E+00   6.8281679E-03   4.6403334E-02   0.0000000E+00   1.3748040E-02   4.7088228E-02   0.0000000E+00   2.1004923E-02   4.8072286E-02   0.0000000E+00   2.8987793E-02   4.9389042E-02   0.0000000E+00   3.8007822E-02   5.1075857E-02   0.0000000E+00   4.8002534E-02   5.3157326E-02   0.0000000E+00   5.8328588E-02   5.5013221E-02   0.0000000E+00  -3.0844905E-08   5.5174723E-02   0.0000000E+00   6.4127357E-03   5.5660561E-02   0.0000000E+00   1.2913528E-02   5.6478206E-02   0.0000000E+00   1.9736419E-02   5.7649337E-02   0.0000000E+00   2.7254118E-02   5.9209596E-02   0.0000000E+00   3.5767030E-02   6.1201077E-02   0.0000000E+00   4.5220554E-02   6.3656934E-02   0.0000000E+00   5.5005606E-02   5.8957167E-02   0.0000000E+00   4.1008623E-09   5.9164096E-02   0.0000000E+00   5.9814169E-03   5.9788808E-02   0.0000000E+00   1.2037364E-02   6.0847245E-02   0.0000000E+00   1.8380791E-02   6.2350623E-02   0.0000000E+00   2.5359545E-02   6.4328216E-02   0.0000000E+00   3.3269674E-02   6.6791169E-02   0.0000000E+00   4.2079471E-02   6.9773927E-02   0.0000000E+00   5.1225625E-02   5.9330188E-02   0.0000000E+00   9.5300159E-09   5.9546791E-02   0.0000000E+00   5.5243098E-03   6.0202133E-02   0.0000000E+00   1.1113913E-02   6.1311778E-02   0.0000000E+00   1.6953338E-02   6.2899105E-02   0.0000000E+00   2.3362994E-02   6.4982772E-02   0.0000000E+00   3.0620655E-02   6.7590639E-02   0.0000000E+00   3.8721111E-02   7.0771530E-02   0.0000000E+00   4.7157459E-02   5.8668215E-02   0.0000000E+00   8.4185858E-09   5.8883913E-02   0.0000000E+00   5.0240294E-03   5.9536517E-02   0.0000000E+00   1.0111037E-02   6.0645267E-02   0.0000000E+00   1.5432835E-02   6.2239137E-02   0.0000000E+00   2.1278465E-02   6.4342961E-02   0.0000000E+00   2.7897341E-02   6.6974156E-02   0.0000000E+00   3.5283644E-02   7.0189327E-02   0.0000000E+00   4.2985383E-02   5.7406716E-02   0.0000000E+00  -3.6837577E-10   5.7618812E-02   0.0000000E+00   4.5324597E-03   5.8256879E-02   0.0000000E+00   9.1316747E-03   5.9340674E-02   0.0000000E+00   1.3947946E-02   6.0897887E-02   0.0000000E+00   1.9227788E-02   6.2972315E-02   0.0000000E+00   2.5208918E-02   6.5593354E-02   0.0000000E+00   3.1897411E-02   6.8814673E-02   0.0000000E+00   3.8881835E-02   5.5858992E-02   0.0000000E+00   9.9786543E-09   5.6063242E-02   0.0000000E+00   4.0743751E-03   5.6678455E-02   0.0000000E+00   8.2184225E-03   5.7710011E-02   0.0000000E+00   1.2571110E-02   5.9191581E-02   0.0000000E+00   1.7368268E-02   6.1181128E-02   0.0000000E+00   2.2785587E-02   6.3747846E-02   0.0000000E+00   2.8809996E-02   6.6966921E-02   0.0000000E+00   3.5083920E-02   5.3983983E-02   0.0000000E+00   3.4287371E-09   5.4179311E-02   0.0000000E+00   3.6593410E-03   5.4766204E-02   0.0000000E+00   7.3931320E-03   5.5756282E-02   0.0000000E+00   1.1326665E-02   5.7186186E-02   0.0000000E+00   1.5642412E-02   5.9114005E-02   0.0000000E+00   2.0516641E-02   6.1637681E-02   0.0000000E+00   2.5948690E-02   6.4870261E-02   0.0000000E+00   3.1567141E-02   5.1826715E-02   0.0000000E+00   7.3524142E-09   5.2012164E-02   0.0000000E+00   3.2936747E-03   5.2570276E-02   0.0000000E+00   6.6625373E-03   5.3515624E-02   0.0000000E+00   1.0221744E-02   5.4887038E-02   0.0000000E+00   1.4114421E-02   5.6761138E-02   0.0000000E+00   1.8485853E-02   5.9259217E-02   0.0000000E+00   2.3320679E-02   6.2521651E-02   0.0000000E+00   2.8321395E-02   4.9444608E-02   0.0000000E+00   4.5751580E-09   4.9617276E-02   0.0000000E+00   2.9736154E-03   5.0149299E-02   0.0000000E+00   6.0252119E-03   5.1052049E-02   0.0000000E+00   9.2514604E-03   5.2378073E-02   0.0000000E+00   1.2779943E-02   5.4208402E-02   0.0000000E+00   1.6686361E-02   5.6701284E-02   0.0000000E+00   2.0943020E-02   5.9987716E-02   0.0000000E+00   2.5246922E-02   4.6948191E-02   0.0000000E+00   2.2601860E-09   4.7112402E-02   0.0000000E+00   2.7013365E-03   4.7614422E-02   0.0000000E+00   5.4827221E-03   4.8486251E-02   0.0000000E+00   8.4226932E-03   4.9785413E-02   0.0000000E+00   1.1606204E-02   5.1610459E-02   0.0000000E+00   1.5067843E-02   5.4115441E-02   0.0000000E+00   1.8765152E-02   5.7435062E-02   0.0000000E+00   2.2421969E-02   4.4453122E-02   0.0000000E+00   2.9899359E-09   4.4611957E-02   0.0000000E+00   2.4645375E-03   4.5099519E-02   0.0000000E+00   5.0007235E-03   4.5957498E-02   0.0000000E+00   7.6821567E-03   4.7246367E-02   0.0000000E+00   1.0536463E-02   4.9091455E-02   0.0000000E+00   1.3611569E-02   5.1601179E-02   0.0000000E+00   1.6715460E-02   5.5063441E-02   0.0000000E+00   1.9884864E-02   4.2095646E-02   0.0000000E+00   7.7195456E-10   4.2250678E-02   0.0000000E+00   2.2482886E-03   4.2734135E-02   0.0000000E+00   4.5626517E-03   4.3586597E-02   0.0000000E+00   6.9709476E-03   4.4893552E-02   0.0000000E+00   9.5280623E-03   4.6741996E-02   0.0000000E+00   1.2098685E-02   4.9372114E-02   0.0000000E+00   1.4741750E-02   5.2852765E-02   0.0000000E+00   1.7266160E-02   3.9966315E-02   0.0000000E+00   1.3593651E-09   4.0120225E-02   0.0000000E+00   2.0413636E-03   4.0601611E-02   0.0000000E+00   4.1136066E-03   4.1463532E-02   0.0000000E+00   6.2580891E-03   4.2785339E-02   0.0000000E+00   8.4102731E-03   4.4716239E-02   0.0000000E+00   1.0612454E-02   4.7364958E-02   0.0000000E+00   1.2712537E-02   5.1115159E-02   0.0000000E+00   1.4951365E-02   3.8092572E-02   0.0000000E+00   2.1824180E-09   3.8246285E-02   0.0000000E+00   1.8154562E-03   3.8734008E-02   0.0000000E+00   3.6269850E-03   3.9608683E-02   0.0000000E+00   5.4527912E-03   4.0977526E-02   0.0000000E+00   7.2951559E-03   4.2967875E-02   0.0000000E+00   9.0671340E-03   4.5844339E-02   0.0000000E+00   1.0961260E-02   4.9963333E-02   0.0000000E+00   1.3036486E-02   3.6466334E-02   0.0000000E+00   1.6126253E-09   3.6635872E-02   0.0000000E+00   1.5533920E-03   3.7142448E-02   0.0000000E+00   3.1077205E-03   3.8048133E-02   0.0000000E+00   4.6391212E-03   3.9494611E-02   0.0000000E+00   6.1867489E-03   4.1710392E-02   0.0000000E+00   7.8453468E-03   4.4906795E-02   0.0000000E+00   9.6474625E-03   4.9661208E-02   0.0000000E+00   1.1892328E-02   3.5140023E-02   0.0000000E+00   4.1733633E-10   3.5318524E-02   0.0000000E+00   1.2959886E-03   3.5865340E-02   0.0000000E+00   2.6207480E-03   3.6877245E-02   0.0000000E+00   4.0075956E-03   3.8553689E-02   0.0000000E+00   5.5131745E-03   4.1079044E-02   0.0000000E+00   7.1750130E-03   4.5012090E-02   0.0000000E+00   9.3231900E-03   5.1250391E-02   0.0000000E+00   1.2184372E-02   3.4263328E-02   0.0000000E+00  -1.0986714E-09   3.4465898E-02   0.0000000E+00   1.2247954E-03   3.5121500E-02   0.0000000E+00   2.5077148E-03   3.6342829E-02   0.0000000E+00   3.9283577E-03   3.8461395E-02   0.0000000E+00   5.6786733E-03   4.2010318E-02   0.0000000E+00   7.9632085E-03   4.7733516E-02   0.0000000E+00   1.0861229E-02   5.5468682E-02   0.0000000E+00   1.4095752E-02   3.4440532E-02   0.0000000E+00  -2.5429125E-10   3.4727287E-02   0.0000000E+00   1.4625950E-03   3.5673786E-02   0.0000000E+00   3.1438852E-03   3.7654553E-02   0.0000000E+00   5.2463636E-03   4.1176360E-02   0.0000000E+00   7.8597991E-03   4.6558093E-02   0.0000000E+00   1.0677336E-02   5.3145763E-02   0.0000000E+00   1.3426295E-02   5.9485108E-02   0.0000000E+00   1.6237751E-02   4.0831033E-02   0.0000000E+00  -4.5574911E-10   4.1254692E-02   0.0000000E+00   1.9128226E-03   4.2579759E-02   0.0000000E+00   4.1299928E-03   4.4890884E-02   0.0000000E+00   6.8344483E-03   4.8171673E-02   0.0000000E+00   9.8983506E-03   5.1942080E-02   0.0000000E+00   1.2888102E-02   5.6093819E-02   0.0000000E+00   1.5313710E-02   6.0283896E-02   0.0000000E+00   1.7112235E-02   4.7634579E-02   0.0000000E+00   6.7594763E-10   4.7836501E-02   0.0000000E+00   2.1564912E-03   4.8395757E-02   0.0000000E+00   4.7078361E-03   4.9216993E-02   0.0000000E+00   7.8836652E-03   5.0306898E-02   0.0000000E+00   1.1433128E-02   5.2480798E-02   0.0000000E+00   1.4211364E-02   5.5061396E-02   0.0000000E+00   1.5679851E-02   4.7090836E-02   0.0000000E+00   1.7524631E-11   4.7135402E-02   0.0000000E+00   2.3880098E-03   4.7269616E-02   0.0000000E+00   5.2822549E-03   4.7490146E-02   0.0000000E+00   8.9471061E-03   4.8480716E-02   0.0000000E+00   1.2273241E-02  -1.8549552E-04   0.0000000E+00   1.7089835E-05  -1.7994287E-04   0.0000000E+00   2.1444412E-05  -1.7196669E-04   0.0000000E+00   2.6128855E-05  -1.6088622E-04   0.0000000E+00   3.0984505E-05  -1.4627560E-04   0.0000000E+00   3.5332872E-05  -1.2759221E-04   0.0000000E+00   3.8823069E-05  -1.0544952E-04   0.0000000E+00   4.0224622E-05  -2.7023375E-04   0.0000000E+00   2.3967801E-05  -2.6281737E-04   0.0000000E+00   2.9910021E-05  -2.5172377E-04   0.0000000E+00   3.6349011E-05  -2.3588109E-04   0.0000000E+00   4.2777363E-05  -2.1434879E-04   0.0000000E+00   4.8083220E-05  -1.8602354E-04   0.0000000E+00   5.1692426E-05  -1.5082375E-04   0.0000000E+00   5.2416581E-05  -1.0942928E-04   0.0000000E+00   5.5019598E-05  -3.8225311E-04   0.0000000E+00   2.9919085E-05  -3.7270045E-04   0.0000000E+00   3.7151895E-05  -3.5793261E-04   0.0000000E+00   4.4895573E-05  -3.3618850E-04   0.0000000E+00   5.2650965E-05  -3.0600940E-04   0.0000000E+00   5.8850866E-05  -2.6566989E-04   0.0000000E+00   6.3362386E-05  -2.1573278E-04   0.0000000E+00   6.4826570E-05  -1.5702184E-04   0.0000000E+00   6.5924520E-05  -5.1900174E-04   0.0000000E+00   3.5228706E-05  -5.0736970E-04   0.0000000E+00   4.3688098E-05  -4.8873160E-04   0.0000000E+00   5.2842362E-05  -4.6056375E-04   0.0000000E+00   6.2021638E-05  -4.2066435E-04   0.0000000E+00   6.9444955E-05  -3.6664717E-04   0.0000000E+00   7.5020282E-05  -2.9923048E-04   0.0000000E+00   7.6747856E-05  -2.1852003E-04   0.0000000E+00   7.8181023E-05  -6.8228156E-04   0.0000000E+00   4.0271712E-05  -6.6892215E-04   0.0000000E+00   4.9945884E-05  -6.4659503E-04   0.0000000E+00   6.0583632E-05  -6.1184150E-04   0.0000000E+00   7.1347888E-05  -5.6148291E-04   0.0000000E+00   8.0175276E-05  -4.9203518E-04   0.0000000E+00   8.7113993E-05  -4.0388177E-04   0.0000000E+00   8.9783069E-05  -2.9629850E-04   0.0000000E+00   9.3256509E-05  -8.7736477E-04   0.0000000E+00   4.5547757E-05  -8.6285145E-04   0.0000000E+00   5.6504163E-05  -8.3726703E-04   0.0000000E+00   6.8612862E-05  -7.9596363E-04   0.0000000E+00   8.1031154E-05  -7.3454017E-04   0.0000000E+00   9.1360867E-05  -6.4784888E-04   0.0000000E+00   1.0015487E-04  -5.3554814E-04   0.0000000E+00   1.0477800E-04  -3.9546809E-04   0.0000000E+00   1.1209874E-04  -1.1124432E-03   0.0000000E+00   5.1675295E-05  -1.0975582E-03   0.0000000E+00   6.4123327E-05  -1.0693165E-03   0.0000000E+00   7.7753226E-05  -1.0216107E-03   0.0000000E+00   9.1957903E-05  -9.4862242E-04   0.0000000E+00   1.0388718E-04  -8.4279809E-04   0.0000000E+00   1.1529530E-04  -7.0269569E-04   0.0000000E+00   1.2325066E-04  -5.2349747E-04   0.0000000E+00   1.3693506E-04  -1.3977442E-03   0.0000000E+00   5.9679638E-05  -1.3835385E-03   0.0000000E+00   7.4029667E-05  -1.3534285E-03   0.0000000E+00   8.9636589E-05  -1.2997549E-03   0.0000000E+00   1.0584793E-04  -1.2146026E-03   0.0000000E+00   1.1988334E-04  -1.0881310E-03   0.0000000E+00   1.3441731E-04  -9.1628288E-04   0.0000000E+00   1.4767014E-04  -6.9111196E-04   0.0000000E+00   1.7035565E-04  -1.7447352E-03   0.0000000E+00   7.1012386E-05  -1.7325822E-03   0.0000000E+00   8.8086490E-05  -1.7017401E-03   0.0000000E+00   1.0671404E-04  -1.6425304E-03   0.0000000E+00   1.2610387E-04  -1.5446946E-03   0.0000000E+00   1.4304729E-04  -1.3964492E-03   0.0000000E+00   1.6031328E-04  -1.1896625E-03   0.0000000E+00   1.8018295E-04  -9.1364124E-04   0.0000000E+00   2.1257720E-04  -2.1659371E-03   0.0000000E+00   8.7681714E-05  -2.1575831E-03   0.0000000E+00   1.0902247E-04  -2.1277147E-03   0.0000000E+00   1.3197765E-04  -2.0643296E-03   0.0000000E+00   1.5525120E-04  -1.9534754E-03   0.0000000E+00   1.7655971E-04  -1.7820424E-03   0.0000000E+00   1.9679352E-04  -1.5397161E-03   0.0000000E+00   2.2051118E-04  -1.2128399E-03   0.0000000E+00   2.5790432E-04  -2.6759214E-03   0.0000000E+00   1.1152234E-04  -2.6735258E-03   0.0000000E+00   1.3947768E-04  -2.6471061E-03   0.0000000E+00   1.6841159E-04  -2.5811011E-03   0.0000000E+00   1.9813303E-04  -2.4593242E-03   0.0000000E+00   2.2183519E-04  -2.2646787E-03   0.0000000E+00   2.4433265E-04  -1.9891593E-03   0.0000000E+00   2.6846430E-04  -1.6144831E-03   0.0000000E+00   3.0636298E-04  -3.2917662E-03   0.0000000E+00   1.4410354E-04  -3.2980777E-03   0.0000000E+00   1.8168859E-04  -3.2780541E-03   0.0000000E+00   2.1983172E-04  -3.2128128E-03   0.0000000E+00   2.5878960E-04  -3.0831848E-03   0.0000000E+00   2.9045405E-04  -2.8662693E-03   0.0000000E+00   3.2713337E-04  -2.5557776E-03   0.0000000E+00   3.7642010E-04  -2.1083551E-03   0.0000000E+00   4.7757316E-04  -4.0332363E-03   0.0000000E+00   1.8695895E-04  -4.0519931E-03   0.0000000E+00   2.3833306E-04  -4.0423130E-03   0.0000000E+00   2.9263095E-04  -3.9836694E-03   0.0000000E+00   3.5027714E-04  -3.8533632E-03   0.0000000E+00   4.0967995E-04  -3.6209461E-03   0.0000000E+00   5.0246663E-04  -3.2850925E-03   0.0000000E+00   6.5743423E-04  -2.7932525E-03   0.0000000E+00   9.3891280E-04  -4.9233595E-03   0.0000000E+00   2.4042057E-04  -4.9597137E-03   0.0000000E+00   3.1187694E-04  -4.9659810E-03   0.0000000E+00   3.9328553E-04  -4.9214340E-03   0.0000000E+00   4.8745068E-04  -4.8034685E-03   0.0000000E+00   5.9535011E-04  -4.5774910E-03   0.0000000E+00   7.7092124E-04  -4.2384099E-03   0.0000000E+00   1.0602421E-03  -3.7437484E-03   0.0000000E+00   1.4765612E-03  -5.9883310E-03   0.0000000E+00   3.0567421E-04  -6.0489466E-03   0.0000000E+00   4.0455229E-04  -6.0783927E-03   0.0000000E+00   5.2166829E-04  -6.0559437E-03   0.0000000E+00   6.6499534E-04  -5.9621404E-03   0.0000000E+00   8.4028434E-04  -5.7589444E-03   0.0000000E+00   1.0986784E-03  -5.4349587E-03   0.0000000E+00   1.4927109E-03  -4.9618273E-03   0.0000000E+00   1.9809932E-03  -7.2579705E-03   0.0000000E+00   3.8150157E-04  -7.3512937E-03   0.0000000E+00   5.1473832E-04  -7.4123829E-03   0.0000000E+00   6.7586498E-04  -7.4201436E-03   0.0000000E+00   8.7595120E-04  -7.3523181E-03   0.0000000E+00   1.1170456E-03  -7.1768528E-03   0.0000000E+00   1.4550311E-03  -6.8752291E-03   0.0000000E+00   1.9249537E-03  -6.4192181E-03   0.0000000E+00   2.4653520E-03  -8.7670768E-03   0.0000000E+00   4.6743607E-04  -8.9032268E-03   0.0000000E+00   6.4108183E-04  -9.0044755E-03   0.0000000E+00   8.5261697E-04  -9.0467585E-03   0.0000000E+00   1.1103064E-03  -9.0071764E-03   0.0000000E+00   1.4233107E-03  -8.8513969E-03   0.0000000E+00   1.8358114E-03  -8.5570747E-03   0.0000000E+00   2.3717550E-03  -8.0959192E-03   0.0000000E+00   2.9764485E-03  -1.0554388E-02   0.0000000E+00   5.6016963E-04  -1.0745111E-02   0.0000000E+00   7.7848742E-04  -1.0897337E-02   0.0000000E+00   1.0480157E-03  -1.0981434E-02   0.0000000E+00   1.3733758E-03  -1.0968707E-02   0.0000000E+00   1.7606376E-03  -1.0821807E-02   0.0000000E+00   2.2477491E-03  -1.0511822E-02   0.0000000E+00   2.8598576E-03  -1.0011728E-02   0.0000000E+00   3.5411371E-03  -1.2663341E-02   0.0000000E+00   6.5891078E-04  -1.2923564E-02   0.0000000E+00   9.2758681E-04  -1.3139713E-02   0.0000000E+00   1.2624268E-03  -1.3274775E-02   0.0000000E+00   1.6641757E-03  -1.3291389E-02   0.0000000E+00   2.1353194E-03  -1.3146540E-02   0.0000000E+00   2.7082504E-03  -1.2802903E-02   0.0000000E+00   3.4115240E-03  -1.2228705E-02   0.0000000E+00   4.1898754E-03  -1.5140070E-02   0.0000000E+00   7.6790917E-04  -1.5487923E-02   0.0000000E+00   1.0897375E-03  -1.5784534E-02   0.0000000E+00   1.4959609E-03  -1.5983174E-02   0.0000000E+00   1.9841441E-03  -1.6036181E-02   0.0000000E+00   2.5542669E-03  -1.5893241E-02   0.0000000E+00   3.2328658E-03  -1.5507276E-02   0.0000000E+00   4.0509179E-03  -1.4838910E-02   0.0000000E+00   4.9460582E-03  -1.8031593E-02   0.0000000E+00   8.9613767E-04  -1.8489687E-02   0.0000000E+00   1.2709409E-03  -1.8888580E-02   0.0000000E+00   1.7517206E-03  -1.9169189E-02   0.0000000E+00   2.3366446E-03  -1.9270191E-02   0.0000000E+00   3.0233501E-03  -1.9132832E-02   0.0000000E+00   3.8352564E-03  -1.8699987E-02   0.0000000E+00   4.7979979E-03  -1.7926194E-02   0.0000000E+00   5.8328453E-03  -2.1385768E-02   0.0000000E+00   1.0622444E-03  -2.1982664E-02   0.0000000E+00   1.4848950E-03  -2.2513673E-02   0.0000000E+00   2.0396046E-03  -2.2902675E-02   0.0000000E+00   2.7276420E-03  -2.3070630E-02   0.0000000E+00   3.5474987E-03  -2.2946971E-02   0.0000000E+00   4.5257835E-03  -2.2465186E-02   0.0000000E+00   5.6758458E-03  -2.1574207E-02   0.0000000E+00   6.8820561E-03  -2.5255412E-02   0.0000000E+00   1.3001811E-03  -2.6027324E-02   0.0000000E+00   1.7633467E-03  -2.6728721E-02   0.0000000E+00   2.3821287E-03  -2.7262852E-02   0.0000000E+00   3.1696642E-03  -2.7527222E-02   0.0000000E+00   4.1313390E-03  -2.7433829E-02   0.0000000E+00   5.3113736E-03  -2.6905086E-02   0.0000000E+00   6.7104422E-03  -2.5886111E-02   0.0000000E+00   8.1327148E-03  -2.9703297E-02   0.0000000E+00   1.6668701E-03  -3.0690562E-02   0.0000000E+00   2.1608095E-03  -3.1609774E-02   0.0000000E+00   2.8235801E-03  -3.2337852E-02   0.0000000E+00   3.6915974E-03  -3.2742247E-02   0.0000000E+00   4.7876136E-03  -3.2709695E-02   0.0000000E+00   6.1979648E-03  -3.2145556E-02   0.0000000E+00   7.9299482E-03  -3.0993937E-02   0.0000000E+00   9.6398164E-03  -3.4800395E-02   0.0000000E+00   2.2528481E-03  -3.6046565E-02   0.0000000E+00   2.7693387E-03  -3.7236001E-02   0.0000000E+00   3.4438311E-03  -3.8218804E-02   0.0000000E+00   4.3496937E-03  -3.8823504E-02   0.0000000E+00   5.5491356E-03  -3.8907312E-02   0.0000000E+00   7.1994867E-03  -3.8338978E-02   0.0000000E+00   9.3650352E-03  -3.7071854E-02   0.0000000E+00   1.1461254E-02  -4.0617991E-02   0.0000000E+00   3.1867446E-03  -4.2163625E-02   0.0000000E+00   3.7185990E-03  -4.3679651E-02   0.0000000E+00   4.3780175E-03  -4.4986397E-02   0.0000000E+00   5.2530449E-03  -4.5869436E-02   0.0000000E+00   6.4936359E-03  -4.6157073E-02   0.0000000E+00   8.3538415E-03  -4.5660526E-02   0.0000000E+00   1.1051278E-02  -4.4349864E-02   0.0000000E+00   1.3677165E-02  -4.7207676E-02   0.0000000E+00   4.6192929E-03  -4.9088281E-02   0.0000000E+00   5.1815724E-03  -5.0975323E-02   0.0000000E+00   5.8111502E-03  -5.2681509E-02   0.0000000E+00   6.6002142E-03  -5.3944495E-02   0.0000000E+00   7.7912323E-03  -5.4557942E-02   0.0000000E+00   9.7543588E-03  -5.4287009E-02   0.0000000E+00   1.3058759E-02  -5.3108778E-02   0.0000000E+00   1.6392775E-02  -5.4562025E-02   0.0000000E+00   6.7209140E-03  -5.6793582E-02   0.0000000E+00   7.3706186E-03  -5.9083544E-02   0.0000000E+00   8.0004977E-03  -6.1251290E-02   0.0000000E+00   8.6544286E-03  -6.3013732E-02   0.0000000E+00   9.6871592E-03  -6.4119376E-02   0.0000000E+00   1.1590974E-02  -6.4316861E-02   0.0000000E+00   1.5495540E-02  -6.3583188E-02   0.0000000E+00   1.9699184E-02  -6.2558569E-02   0.0000000E+00   9.6619213E-03  -6.5120302E-02   0.0000000E+00   1.0514402E-02  -6.7817196E-02   0.0000000E+00   1.1215880E-02  -7.0481367E-02   0.0000000E+00   1.1763888E-02  -7.2854377E-02   0.0000000E+00   1.2534816E-02  -7.4658953E-02   0.0000000E+00   1.4203432E-02  -7.5630695E-02   0.0000000E+00   1.8585242E-02  -7.5785354E-02   0.0000000E+00   2.3721769E-02  -7.0897728E-02   0.0000000E+00   1.3452169E-02  -7.3737450E-02   0.0000000E+00   1.4765257E-02  -7.6776817E-02   0.0000000E+00   1.5714720E-02  -7.9907946E-02   0.0000000E+00   1.6329337E-02  -8.2969561E-02   0.0000000E+00   1.6740356E-02  -8.5650891E-02   0.0000000E+00   1.8094985E-02  -8.7709539E-02   0.0000000E+00   2.2701595E-02  -8.9216322E-02   0.0000000E+00   2.8651241E-02  -7.9122514E-02   0.0000000E+00   1.8005552E-02  -8.2282998E-02   0.0000000E+00   1.9768665E-02  -8.5573964E-02   0.0000000E+00   2.1294845E-02  -8.8989608E-02   0.0000000E+00   2.2377985E-02  -9.2644416E-02   0.0000000E+00   2.2815624E-02  -9.6277259E-02   0.0000000E+00   2.3958696E-02  -9.9602319E-02   0.0000000E+00   2.8497545E-02  -1.0272285E-01   0.0000000E+00   3.4799881E-02  -8.6746082E-02   0.0000000E+00   2.3382269E-02  -9.0212673E-02   0.0000000E+00   2.5635825E-02  -9.3845479E-02   0.0000000E+00   2.7662832E-02  -9.7535208E-02   0.0000000E+00   2.9477129E-02  -1.0146725E-01   0.0000000E+00   3.0797772E-02  -1.0581480E-01   0.0000000E+00   3.2499760E-02  -1.1026894E-01   0.0000000E+00   3.6700387E-02  -1.1475334E-01   0.0000000E+00   4.2527474E-02  -9.3347788E-02   0.0000000E+00   2.9500093E-02  -9.7083852E-02   0.0000000E+00   3.2484189E-02  -1.0110261E-01   0.0000000E+00   3.5107344E-02  -1.0520138E-01   0.0000000E+00   3.7852433E-02  -1.0933762E-01   0.0000000E+00   4.1008092E-02  -1.1382254E-01   0.0000000E+00   4.4365339E-02  -1.1891253E-01   0.0000000E+00   4.7035299E-02  -1.2409277E-01   0.0000000E+00   5.1862665E-02  -9.8151177E-02   0.0000000E+00   3.6939990E-02  -1.0193104E-01   0.0000000E+00   4.0979210E-02  -1.0599188E-01   0.0000000E+00   4.5150451E-02  -1.1000203E-01   0.0000000E+00   5.0349213E-02  -1.1387920E-01   0.0000000E+00   5.6595944E-02  -1.1857443E-01   0.0000000E+00   5.9788223E-02  -1.2456267E-01   0.0000000E+00   5.8030263E-02  -1.2971823E-01   0.0000000E+00   6.2039461E-02  -1.0031669E-01   0.0000000E+00   4.6610482E-02  -1.0398108E-01   0.0000000E+00   5.2180734E-02  -1.0781270E-01   0.0000000E+00   5.8443777E-02  -1.1126635E-01   0.0000000E+00   6.6731922E-02  -1.1424201E-01   0.0000000E+00   7.4628867E-02  -1.1892801E-01   0.0000000E+00   7.4770272E-02  -1.2577513E-01   0.0000000E+00   6.8479285E-02  -1.2933934E-01   0.0000000E+00   7.1526527E-02  -9.7688131E-02   0.0000000E+00   5.7976305E-02  -1.0118529E-01   0.0000000E+00   6.5395363E-02  -1.0466969E-01   0.0000000E+00   7.3775277E-02  -1.0704337E-01   0.0000000E+00   8.3854251E-02  -1.0796715E-01   0.0000000E+00   9.0956695E-02  -1.1147841E-01   0.0000000E+00   8.7823875E-02  -1.1558561E-01   0.0000000E+00   7.7311821E-02  -1.1144996E-01   0.0000000E+00   8.0234148E-02  -7.9183951E-02   0.0000000E+00   6.7257874E-02  -8.2789250E-02   0.0000000E+00   7.6091066E-02  -8.6261809E-02   0.0000000E+00   8.5844822E-02  -8.8669389E-02   0.0000000E+00   9.6911438E-02  -8.8715471E-02   0.0000000E+00   1.0256286E-01  -8.7403633E-02   0.0000000E+00   9.5754273E-02  -8.4066041E-02   0.0000000E+00   8.3667368E-02  -7.7981263E-02   0.0000000E+00   8.7343387E-02  -5.0570350E-02   0.0000000E+00   7.1687736E-02  -5.3015072E-02   0.0000000E+00   8.0728382E-02  -5.5276368E-02   0.0000000E+00   9.0348288E-02  -5.6739304E-02   0.0000000E+00   1.0092950E-01  -5.6451850E-02   0.0000000E+00   1.0542836E-01  -5.4843303E-02   0.0000000E+00   9.8179191E-02  -5.2146502E-02   0.0000000E+00   8.7096937E-02  -4.7751952E-02   0.0000000E+00   9.2235900E-02  -2.7872106E-02   0.0000000E+00   7.4357599E-02  -2.9196259E-02   0.0000000E+00   8.3297700E-02  -3.0308500E-02   0.0000000E+00   9.2511609E-02  -3.0848442E-02   0.0000000E+00   1.0238148E-01  -3.0364901E-02   0.0000000E+00   1.0592477E-01  -2.9106112E-02   0.0000000E+00   9.9069610E-02  -2.7452791E-02   0.0000000E+00   8.9327730E-02  -2.4672724E-02   0.0000000E+00   9.5712997E-02  -1.0738716E-02   0.0000000E+00   7.5602874E-02  -1.1166477E-02   0.0000000E+00   8.4352627E-02  -1.1418464E-02   0.0000000E+00   9.3192168E-02  -1.1343777E-02   0.0000000E+00   1.0266197E-01  -1.0800740E-02   0.0000000E+00   1.0585921E-01  -1.0026413E-02   0.0000000E+00   9.9550515E-02  -9.3069682E-03   0.0000000E+00   9.0903722E-02  -8.0382153E-03   0.0000000E+00   9.7968280E-02   3.1829467E-03   0.0000000E+00   7.5702488E-02   3.4828330E-03   0.0000000E+00   8.4270112E-02   3.8867840E-03   0.0000000E+00   9.2873231E-02   4.3719066E-03   0.0000000E+00   1.0231517E-01   4.8523722E-03   0.0000000E+00   1.0573744E-01   5.0971238E-03   0.0000000E+00   9.9851839E-02   5.0704367E-03   0.0000000E+00   9.1705635E-02   4.9807173E-03   0.0000000E+00   9.9126443E-02   1.6228406E-02   0.0000000E+00   7.4860901E-02   1.7171655E-02   0.0000000E+00   8.3281189E-02   1.8149421E-02   0.0000000E+00   9.1791250E-02   1.8976800E-02   0.0000000E+00   1.0147043E-01   1.9319868E-02   0.0000000E+00   1.0546112E-01   1.9073935E-02   0.0000000E+00   9.9931926E-02   1.8634085E-02   0.0000000E+00   9.1718450E-02   1.7284248E-02   0.0000000E+00   9.9148057E-02   2.9539786E-02   0.0000000E+00   7.3200256E-02   3.1102134E-02   0.0000000E+00   8.1463896E-02   3.2657307E-02   0.0000000E+00   8.9872323E-02   3.3865169E-02   0.0000000E+00   9.9655442E-02   3.4050237E-02   0.0000000E+00   1.0414102E-01   3.3427320E-02   0.0000000E+00   9.8903775E-02   3.2739703E-02   0.0000000E+00   9.0687804E-02   3.0332368E-02   0.0000000E+00   9.7974613E-02   4.2956460E-02   0.0000000E+00   7.0776597E-02   4.5129627E-02   0.0000000E+00   7.8830540E-02   4.7286708E-02   0.0000000E+00   8.7059267E-02   4.8949771E-02   0.0000000E+00   9.6697472E-02   4.8995063E-02   0.0000000E+00   1.0141373E-01   4.8108671E-02   0.0000000E+00   9.6459538E-02   4.7307890E-02   0.0000000E+00   8.8492975E-02   4.3950859E-02   0.0000000E+00   9.5555313E-02   5.5622797E-02   0.0000000E+00   6.7632958E-02   5.8377430E-02   0.0000000E+00   7.5392626E-02   6.1131489E-02   0.0000000E+00   8.3327375E-02   6.3272730E-02   0.0000000E+00   9.2599168E-02   6.3214861E-02   0.0000000E+00   9.7269692E-02   6.2052805E-02   0.0000000E+00   9.2668705E-02   6.1314944E-02   0.0000000E+00   8.5329480E-02   5.7174254E-02   0.0000000E+00   9.2061609E-02   6.6573448E-02   0.0000000E+00   6.3836858E-02   6.9848739E-02   0.0000000E+00   7.1206503E-02   7.3146470E-02   0.0000000E+00   7.8725211E-02   7.5653486E-02   0.0000000E+00   8.7336414E-02   7.5262114E-02   0.0000000E+00   9.1527671E-02   7.3989689E-02   0.0000000E+00   8.7671742E-02   7.3620498E-02   0.0000000E+00   8.1268884E-02   6.8980753E-02   0.0000000E+00   8.7678827E-02   7.3342912E-02   0.0000000E+00   5.9502579E-02   7.7514321E-02   0.0000000E+00   6.6417031E-02   8.1836097E-02   0.0000000E+00   7.3406316E-02   8.5041590E-02   0.0000000E+00   8.1033617E-02   8.4376656E-02   0.0000000E+00   8.4747367E-02   8.3148032E-02   0.0000000E+00   8.1758484E-02   8.3185002E-02   0.0000000E+00   7.6498590E-02   7.8460611E-02   0.0000000E+00   8.2569547E-02   7.4585781E-02   0.0000000E+00   5.4826155E-02   7.9121873E-02   0.0000000E+00   6.1261419E-02   8.4280454E-02   0.0000000E+00   6.7663476E-02   8.9250490E-02   0.0000000E+00   7.4538201E-02   9.0551317E-02   0.0000000E+00   7.7755131E-02   8.9647621E-02   0.0000000E+00   7.5562671E-02   8.9977749E-02   0.0000000E+00   7.1415827E-02   8.5107781E-02   0.0000000E+00   7.6936238E-02   7.4069291E-02   0.0000000E+00   5.0022110E-02   7.8722082E-02   0.0000000E+00   5.5948891E-02   8.4023736E-02   0.0000000E+00   6.1709952E-02   8.9682385E-02   0.0000000E+00   6.8187751E-02   9.3414925E-02   0.0000000E+00   7.1185715E-02   9.3960382E-02   0.0000000E+00   6.9292121E-02   9.4465956E-02   0.0000000E+00   6.5897971E-02   8.9805797E-02   0.0000000E+00   7.1000561E-02   7.2723366E-02   0.0000000E+00   4.5296650E-02   7.7423334E-02   0.0000000E+00   5.0728012E-02   8.2862794E-02   0.0000000E+00   5.5853963E-02   8.8902026E-02   0.0000000E+00   6.1666857E-02   9.4056487E-02   0.0000000E+00   6.5032125E-02   9.6728466E-02   0.0000000E+00   6.3084349E-02   9.7806059E-02   0.0000000E+00   6.0152031E-02   9.3699984E-02   0.0000000E+00   6.4862452E-02   7.0951454E-02   0.0000000E+00   4.0904250E-02   7.5698309E-02   0.0000000E+00   4.5804147E-02   8.1209518E-02   0.0000000E+00   5.0394081E-02   8.7457463E-02   0.0000000E+00   5.5273585E-02   9.3710728E-02   0.0000000E+00   5.8950588E-02   9.8219730E-02   0.0000000E+00   5.7071250E-02   1.0052103E-01   0.0000000E+00   5.4410249E-02   9.7915709E-02   0.0000000E+00   5.8624521E-02   6.8929851E-02   0.0000000E+00   3.6774620E-02   7.3786296E-02   0.0000000E+00   4.1170765E-02   7.9486683E-02   0.0000000E+00   4.5388300E-02   8.5898541E-02   0.0000000E+00   4.9557459E-02   9.3114287E-02   0.0000000E+00   5.2854281E-02   9.8998599E-02   0.0000000E+00   5.1474947E-02   1.0277935E-01   0.0000000E+00   4.9142480E-02   1.0334236E-01   0.0000000E+00   5.2416205E-02   6.6629097E-02   0.0000000E+00   3.2883380E-02   7.1672067E-02   0.0000000E+00   3.6967743E-02   7.7509895E-02   0.0000000E+00   4.0651433E-02   8.4517293E-02   0.0000000E+00   4.4526342E-02   9.2511371E-02   0.0000000E+00   4.7218893E-02   9.9803299E-02   0.0000000E+00   4.6302944E-02   1.0572830E-01   0.0000000E+00   4.4592254E-02   1.1055748E-01   0.0000000E+00   4.7510449E-02   6.4207032E-02   0.0000000E+00   2.9269159E-02   6.9379091E-02   0.0000000E+00   3.3025578E-02   7.5635612E-02   0.0000000E+00   3.6475621E-02   8.3534837E-02   0.0000000E+00   3.9858222E-02   9.2269942E-02   0.0000000E+00   4.2231701E-02   1.0131103E-01   0.0000000E+00   4.2082112E-02   1.0964158E-01   0.0000000E+00   4.1449953E-02   1.1827900E-01   0.0000000E+00   4.4538461E-02   6.1795831E-02   0.0000000E+00   2.6056647E-02   6.7203850E-02   0.0000000E+00   2.9311553E-02   7.4160911E-02   0.0000000E+00   3.2517310E-02   8.2833320E-02   0.0000000E+00   3.5569333E-02   9.2475280E-02   0.0000000E+00   3.7637986E-02   1.0283618E-01   0.0000000E+00   3.8151771E-02   1.1288743E-01   0.0000000E+00   3.8786232E-02   1.2347907E-01   0.0000000E+00   4.1780006E-02   5.9498519E-02   0.0000000E+00   2.2840913E-02   6.5396145E-02   0.0000000E+00   2.5843235E-02   7.3097557E-02   0.0000000E+00   2.8878743E-02   8.2524776E-02   0.0000000E+00   3.1641014E-02   9.3120083E-02   0.0000000E+00   3.3644553E-02   1.0379512E-01   0.0000000E+00   3.4428898E-02   1.1438502E-01   0.0000000E+00   3.6222763E-02   5.7640936E-02   0.0000000E+00   1.9922981E-02   6.4118318E-02   0.0000000E+00   2.2750499E-02   7.2515577E-02   0.0000000E+00   2.5616942E-02   8.2846917E-02   0.0000000E+00   2.8343474E-02   9.3913093E-02   0.0000000E+00   3.0370394E-02   1.0428268E-01   0.0000000E+00   3.1799562E-02   1.1404925E-01   0.0000000E+00   3.4302954E-02   5.6338862E-02   0.0000000E+00   1.7406575E-02   6.3448660E-02   0.0000000E+00   2.0169564E-02   7.2780706E-02   0.0000000E+00   2.3148300E-02   8.3939366E-02   0.0000000E+00   2.6167585E-02   9.4557673E-02   0.0000000E+00   2.8221544E-02   1.0411809E-01   0.0000000E+00   3.0359477E-02   5.5802941E-02   0.0000000E+00   1.5530915E-02   6.3890263E-02   0.0000000E+00   1.8509259E-02   7.4401014E-02   0.0000000E+00   2.1968497E-02   8.5406981E-02   0.0000000E+00   2.5013864E-02   9.5060945E-02   0.0000000E+00   2.7437523E-02   1.0289084E-01   0.0000000E+00   2.9537983E-02   5.6705784E-02   0.0000000E+00   1.4763636E-02   6.6242792E-02   0.0000000E+00   1.8397525E-02   7.6691091E-02   0.0000000E+00   2.1967066E-02   8.6563513E-02   0.0000000E+00   2.4802959E-02   9.4396636E-02   0.0000000E+00   2.7047904E-02   5.9877805E-02   0.0000000E+00   1.5725156E-02   6.9424562E-02   0.0000000E+00   1.9348798E-02   7.8717880E-02   0.0000000E+00   2.2501631E-02   8.6492173E-02   0.0000000E+00   2.4749359E-02   6.3806117E-02   0.0000000E+00   1.7496122E-02   7.1835108E-02   0.0000000E+00   2.0458639E-02   7.9117313E-02   0.0000000E+00   2.2943027E-02   8.3637930E-02   0.0000000E+00   2.3691269E-02   6.5765962E-02   0.0000000E+00   1.8671362E-02   7.1409993E-02   0.0000000E+00   2.0567855E-02   6.4321660E-02   0.0000000E+00   1.8449184E-02 
Rhop 1 2975 float
  1.0000000E+03   1.0000000E+03   1.0000000E+03   1.0000000E+03   1.0000000E+03   1.0000000E+03   1.0000000E+03   1.0000000E+03   1.0000000E+03   1.0000000E+03   1.0000000E+03   1.0000000E+03   1.0000000E+03   1.0000000E+03   1.0000000E+03   1.0000000E+03   1.0000000E+03   1.0000000E+03   1.0000000E+03   1.0000000E+03   1.0000000E+03   1.0000000E+03   1.0000000E+03   1.0000000E+03   1.0000000E+03   1.0000000E+03   1.0000000E+03   1.0000000E+03   1.0000001E+03   1.0000000E+03   1.0000001E+03   1.0000002E+03   1.0000001E+03   1.0000002E+03   1.0000004E+03   1.0000001E+03   1.0000003E+03   1.0000005E+03   1.0000002E+03   1.0000004E+03   1.0000007E+03   1.0000002E+03   1.0000005E+03   1.0000010E+03   1.0000003E+03   1.0000007E+03   1.0000013E+03   1.0000004E+03   1.0000010E+03   1.0000016E+03   1.0000006E+03   1.0000014E+03   1.0000023E+03   1.0000008E+03   1.0000020E+03   1.0000034E+03   1.0000013E+03   1.0000031E+03   1.0000051E+03   1.0000021E+03   1.0000045E+03   1.0000074E+03   1.0000068E+03   1.0000107E+03   1.0000000E+03   1.0000000E+03   1.0000000E+03   1.0000000E+03   1.0000000E+03   1.0000000E+03   1.0000000E+03   1.0000000E+03   1.0000000E+03   1.0000000E+03   1.0000000E+03   1.0000000E+03   1.0000000E+03   1.0000000E+03   1.0000000E+03   1.0000000E+03   1.0000000E+03   1.0000000E+03   1.0000000E+03   1.0000000E+03   1.0000000E+03   1.0000000E+03   1.0000000E+03   1.0000000E+03   1.0000000E+03   1.0000000E+03   1.0000000E+03   1.0000000E+03   1.0000000E+03   1.0000000E+03   1.0000000E+03   1.0000000E+03   1.0000000E+03   1.0000000E+03   1.0000000E+03   1.0000000E+03   1.0000000E+03   1.0000000E+03   1.0000000E+03   1.0000000E+03   1.0000000E+03   1.0000000E+03   1.0000000E+03   1.0000000E+03   1.0000000E+03   1.0000000E+03   1.0000000E+03   1.0000000E+03   1.0000000E+03   1.0000000E+03   1.0000000E+03   1.0000000E+03   1.0000001E+03   1.0000001E+03   1.0000001E+03   1.0000001E+03   1.0000000E+03   1.0000001E+03   1.0000001E+03   1.0000002E+03   1.0000002E+03   1.0000003E+03   1.0000003E+03   1.0000004E+03   1.0000001E+03   1.0000002E+03   1.0000003E+03   1.0000004E+03   1.0000005E+03   1.0000007E+03   1.0000007E+03   1.0000007E+03   1.0000002E+03   1.0000004E+03   1.0000005E+03   1.0000007E+03   1.0000010E+03   1.0000010E+03   1.0000012E+03   1.0000012E+03   1.0000004E+03   1.0000007E+03   1.0000010E+03   1.0000012E+03   1.0000015E+03   1.0000016E+03   1.0000018E+03   1.0000019E+03   1.0000007E+03   1.0000010E+03   1.0000012E+03   1.0000009E+03   1.0000013E+03   1.0000011E+03   1.0000017E+03   1.0000015E+03   1.0000021E+03   1.0000020E+03   1.0000028E+03   1.0000026E+03   1.0000037E+03   1.0000037E+03   1.0000050E+03   1.0000052E+03   1.0000070E+03   1.0000075E+03   1.0000101E+03   1.0000110E+03   1.0000145E+03   1.0000156E+03   1.0000202E+03   1.0000000E+03   1.0000000E+03   1.0000000E+03   1.0000000E+03   1.0000000E+03   1.0000000E+03   1.0000000E+03   1.0000000E+03   1.0000000E+03   1.0000000E+03   1.0000000E+03   1.0000000E+03   1.0000000E+03   1.0000000E+03   1.0000000E+03   1.0000000E+03   1.0000000E+03   1.0000000E+03   1.0000000E+03   1.0000000E+03   1.0000000E+03   1.0000000E+03   1.0000000E+03   1.0000000E+03   1.0000000E+03   1.0000000E+03   1.0000000E+03   1.0000000E+03   1.0000000E+03   1.0000000E+03   1.0000000E+03   1.0000000E+03   1.0000000E+03   1.0000000E+03   1.0000000E+03   1.0000000E+03   1.0000000E+03   1.0000000E+03   1.0000000E+03   1.0000000E+03   1.0000000E+03   1.0000000E+03   1.0000000E+03   1.0000000E+03   1.0000000E+03   1.0000000E+03   1.0000000E+03   1.0000000E+03   1.0000000E+03   1.0000000E+03   1.0000000E+03   1.0000000E+03   1.0000000E+03   1.0000000E+03   1.0000001E+03   1.0000001E+03   1.0000001E+03   1.0000001E+03   1.0000002E+03   1.0000002E+03   1.0000002E+03   1.0000002E+03   1.0000002E+03   1.0000004E+03   1.0000004E+03   1.0000004E+03   1.0000004E+03   1.0000004E+03   1.0000004E+03   1.0000004E+03   1.0000005E+03   1.0000005E+03   1.0000007E+03   1.0000008E+03   1.0000009E+03   1.0000009E+03   1.0000009E+03   1.0000009E+03   1.0000009E+03   1.0000009E+03   1.0000009E+03   1.0000013E+03   1.0000015E+03   1.0000015E+03   1.0000015E+03   1.0000016E+03   1.0000016E+03   1.0000016E+03   1.0000016E+03   1.0000016E+03   1.0000021E+03   1.0000021E+03   1.0000021E+03   1.0000021E+03   1.0000023E+03   1.0000023E+03   1.0000023E+03   1.0000023E+03   1.0000023E+03   1.0000000E+03   1.0000000E+03   1.0000000E+03   1.0000000E+03   1.0000000E+03   1.0000000E+03   1.0000000E+03   1.0000000E+03   1.0000000E+03   1.0000000E+03   1.0000000E+03   1.0000000E+03   1.0000000E+03   1.0000000E+03   1.0000000E+03   1.0000000E+03   1.0000000E+03   1.0000000E+03   1.0000000E+03   1.0000000E+03   1.0000000E+03   1.0000000E+03   1.0000000E+03   1.0000000E+03   1.0000000E+03   1.0000000E+03   1.0000000E+03   1.0000000E+03   1.0000000E+03   1.0000000E+03   1.0000000E+03   1.0000000E+03   1.0000000E+03   1.0000000E+03   1.0000000E+03   1.0000000E+03   1.0000000E+03   1.0000000E+03   1.0000000E+03   1.0000000E+03   1.0000000E+03   1.0000000E+03   1.0000000E+03   1.0000000E+03   1.0000000E+03   1.0000000E+03   1.0000000E+03   1.0000000E+03   1.0000002E+03   1.0000002E+03   1.0000002E+03   1.0000002E+03   1.0000002E+03   1.0000002E+03   1.0000001E+03   1.0000001E+03   1.0000005E+03   1.0000005E+03   1.0000005E+03   1.0000004E+03   1.0000004E+03   1.0000004E+03   1.0000004E+03   1.0000004E+03   1.0000009E+03   1.0000009E+03   1.0000009E+03   1.0000009E+03   1.0000009E+03   1.0000009E+03   1.0000009E+03   1.0000009E+03   1.0000016E+03   1.0000016E+03   1.0000016E+03   1.0000016E+03   1.0000016E+03   1.0000016E+03   1.0000015E+03   1.0000015E+03   1.0000023E+03   1.0000023E+03   1.0000023E+03   1.0000023E+03   1.0000023E+03   1.0000023E+03   1.0000021E+03   1.0000021E+03   1.0000000E+03   1.0000000E+03   1.0000000E+03   1.0000000E+03   1.0000000E+03   1.0000000E+03   1.0000000E+03   1.0000000E+03   1.0000000E+03   1.0000000E+03   1.0000000E+03   1.0000000E+03   1.0000000E+03   1.0000000E+03   1.0000000E+03   1.0000000E+03   1.0000000E+03   1.0000000E+03   1.0000000E+03   1.0000000E+03   1.0000000E+03   1.0000000E+03   1.0000000E+03   1.0000000E+03   1.0000000E+03   1.0000000E+03   1.0000000E+03   1.0000000E+03   1.0000000E+03   1.0000000E+03   1.0000000E+03   1.0000000E+03   1.0000000E+03   1.0000000E+03   1.0000000E+03   1.0000000E+03   1.0000000E+03   1.0000000E+03   1.0000000E+03   1.0000000E+03   1.0000000E+03   1.0000000E+03   1.0000000E+03   1.0000000E+03   1.0000000E+03   1.0000000E+03   1.0000000E+03   1.0000000E+03   1.0000000E+03   1.0000000E+03   1.0000000E+03   1.0000000E+03   1.0000000E+03   1.0000000E+03   1.0000001E+03   1.0000001E+03   1.0000001E+03   1.0000001E+03   1.0000001E+03   1.0000001E+03   1.0000000E+03   1.0000000E+03   1.0000000E+03   1.0000004E+03   1.0000004E+03   1.0000004E+03   1.0000003E+03   1.0000003E+03   1.0000002E+03   1.0000002E+03   1.0000001E+03   1.0000001E+03   1.0000008E+03   1.0000007E+03   1.0000007E+03   1.0000007E+03   1.0000007E+03   1.0000005E+03   1.0000004E+03   1.0000003E+03   1.0000002E+03   1.0000015E+03   1.0000013E+03   1.0000012E+03   1.0000012E+03   1.0000010E+03   1.0000010E+03   1.0000007E+03   1.0000005E+03   1.0000004E+03   1.0000021E+03   1.0000021E+03   1.0000019E+03   1.0000018E+03   1.0000016E+03   1.0000015E+03   1.0000012E+03   1.0000010E+03   1.0000007E+03   1.0000012E+03   1.0000010E+03   1.0000013E+03   1.0000017E+03   1.0000021E+03   1.0000028E+03   1.0000037E+03   1.0000050E+03   1.0000070E+03   1.0000101E+03   1.0000145E+03   1.0000202E+03   1.0000000E+03   1.0000000E+03   1.0000000E+03   1.0000000E+03   1.0000000E+03   1.0000000E+03   1.0000000E+03   1.0000000E+03   1.0000000E+03   1.0000000E+03   1.0000000E+03   1.0000000E+03   1.0000000E+03   1.0000000E+03   1.0000000E+03   1.0000000E+03   1.0000000E+03   1.0000000E+03   1.0000000E+03   1.0000000E+03   1.0000000E+03   1.0000000E+03   1.0000000E+03   1.0000000E+03   1.0000000E+03   1.0000000E+03   1.0000000E+03   1.0000000E+03   1.0000000E+03   1.0000000E+03   1.0000000E+03   1.0000001E+03   1.0000000E+03   1.0000000E+03   1.0000000E+03   1.0000002E+03   1.0000001E+03   1.0000000E+03   1.0000000E+03   1.0000004E+03   1.0000002E+03   1.0000001E+03   1.0000000E+03   1.0000007E+03   1.0000004E+03   1.0000002E+03   1.0000001E+03   1.0000009E+03   1.0000005E+03   1.0000003E+03   1.0000001E+03   1.0000011E+03   1.0000007E+03   1.0000004E+03   1.0000002E+03   1.0000015E+03   1.0000010E+03   1.0000005E+03   1.0000002E+03   1.0000020E+03   1.0000013E+03   1.0000007E+03   1.0000003E+03   1.0000026E+03   1.0000016E+03   1.0000010E+03   1.0000004E+03   1.0000037E+03   1.0000023E+03   1.0000014E+03   1.0000006E+03   1.0000052E+03   1.0000034E+03   1.0000020E+03   1.0000008E+03   1.0000075E+03   1.0000051E+03   1.0000031E+03   1.0000013E+03   1.0000110E+03   1.0000074E+03   1.0000045E+03   1.0000021E+03   1.0000156E+03   1.0000107E+03   1.0000068E+03   1.0000000E+03   1.0000000E+03   1.0000000E+03   1.0000000E+03   1.0000000E+03   1.0000000E+03   1.0000000E+03   1.0000000E+03   1.0000000E+03   1.0000000E+03   1.0000000E+03   1.0000000E+03   1.0000000E+03   1.0000000E+03   1.0000000E+03   1.0000000E+03   1.0000000E+03   1.0000000E+03   1.0000000E+03   1.0000000E+03   1.0000000E+03   1.0000000E+03   1.0000000E+03   1.0000000E+03   1.0000000E+03   1.0000000E+03   1.0000000E+03   1.0000000E+03   1.0000000E+03   1.0000000E+03   1.0000000E+03   1.0000000E+03   1.0000000E+03   1.0000000E+03   1.0000000E+03   1.0000000E+03   1.0000000E+03   1.0000000E+03   1.0000000E+03   1.0000000E+03   1.0000000E+03   1.0000000E+03   1.0000000E+03   1.0000000E+03   1.0000000E+03   1.0000000E+03   1.0000000E+03   1.0000000E+03   1.0000000E+03   1.0000000E+03   1.0000000E+03   1.0000000E+03   1.0000000E+03   1.0000000E+03   1.0000000E+03   1.0000000E+03   1.0000000E+03   1.0000000E+03   1.0000000E+03   1.0000000E+03   1.0000000E+03   1.0000000E+03   1.0000000E+03   1.0000000E+03   1.0000000E+03   1.0000000E+03   1.0000000E+03   1.0000000E+03   1.0000000E+03   1.0000000E+03   1.0000000E+03   1.0000000E+03   1.0000000E+03   1.0000000E+03   1.0000000E+03   1.0000000E+03   1.0000000E+03   1.0000000E+03   1.0000000E+03   1.0000000E+03   1.0000000E+03   1.0000000E+03   1.0000000E+03   1.0000000E+03   1.0000000E+03   1.0000000E+03   1.0000000E+03   1.0000000E+03   1.0000000E+03   1.0000000E+03   1.0000000E+03   1.0000000E+03   1.0000000E+03   1.0000000E+03   1.0000000E+03   1.0000000E+03   1.0000000E+03   1.0000000E+03   1.0000000E+03   1.0000000E+03   1.0000000E+03   1.0000000E+03   1.0000000E+03   1.0000000E+03   1.0000000E+03   1.0000000E+03   1.0000000E+03   1.0000000E+03   1.0000000E+03   1.0000000E+03   1.0000000E+03   1.0000000E+03   1.0000000E+03   1.0000000E+03   1.0000000E+03   1.0000000E+03   1.0000000E+03   1.0000000E+03   1.0000000E+03   1.0000000E+03   1.0000000E+03   1.0000000E+03   1.0000000E+03   1.0000000E+03   1.0000000E+03   1.0000000E+03   1.0000000E+03   1.0000000E+03   1.0000000E+03   1.0000000E+03   1.0000000E+03   1.0000000E+03   1.0000000E+03   1.0000000E+03   1.0000000E+03   1.0000000E+03   1.0000000E+03   1.0000000E+03   1.0000000E+03   1.0000000E+03   1.0000000E+03   1.0000000E+03   1.0000000E+03   1.0000000E+03   1.0000000E+03   1.0000000E+03   1.0000000E+03   1.0000000E+03   1.0000000E+03   1.0000000E+03   1.0000000E+03   1.0000000E+03   1.0000000E+03   1.0000000E+03   1.0000000E+03   1.0000000E+03   1.0000000E+03   1.0000000E+03   1.0000000E+03   1.0000000E+03   1.0000000E+03   1.0000000E+03   1.0000000E+03   1.0000000E+03   1.0000000E+03   1.0000000E+03   1.0000000E+03   1.0000000E+03   1.0000000E+03   1.0000000E+03   1.0000000E+03   1.0000000E+03   1.0000000E+03   1.0000000E+03   1.0000000E+03   1.0000000E+03   1.0000000E+03   1.0000000E+03   1.0000000E+03   1.0000000E+03   1.0000000E+03   1.0000000E+03   1.0000000E+03   1.0000000E+03   1.0000000E+03   1.0000000E+03   1.0000000E+03   1.0000000E+03   1.0000000E+03   1.0000000E+03   1.0000000E+03   1.0000000E+03   1.0000000E+03   1.0000000E+03   1.0000000E+03   1.0000000E+03   1.0000000E+03   1.0000000E+03   1.0000000E+03   1.0000000E+03   1.0000000E+03   1.0000000E+03   1.0000000E+03   1.0000000E+03   1.0000000E+03   1.0000000E+03   1.0000000E+03   1.0000000E+03   1.0000000E+03   1.0000000E+03   1.0000000E+03   1.0000000E+03   1.0000000E+03   1.0000000E+03   1.0000000E+03   1.0000000E+03   1.0000000E+03   1.0000000E+03   1.0000000E+03   1.0000000E+03   1.0000000E+03   1.0000000E+03   1.0000000E+03   1.0000000E+03   1.0000000E+03   1.0000000E+03   1.0000000E+03   1.0000000E+03   1.0000000E+03   1.0000000E+03   1.0000000E+03   1.0000000E+03   1.0000000E+03   1.0000000E+03   1.0000000E+03   1.0000000E+03   1.0000000E+03   1.0000000E+03   1.0000000E+03   1.0000000E+03   1.0000000E+03   1.0000000E+03   1.0000000E+03   1.0000000E+03   1.0000000E+03   1.0000000E+03   1.0000000E+03   1.0000000E+03   1.0000000E+03   1.0000000E+03   1.0000000E+03   1.0000000E+03   1.0000000E+03   1.0000000E+03   1.0000000E+03   1.0000000E+03   1.0000000E+03   1.0000000E+03   1.0000000E+03   1.0000000E+03   1.0000000E+03   1.0000000E+03   1.0000000E+03   1.0000000E+03   1.0000000E+03   1.0000000E+03   1.0000000E+03   1.0000000E+03   1.0000000E+03   1.0000000E+03   1.0000000E+03   1.0000000E+03   1.0000000E+03   1.0000000E+03   1.0000000E+03   1.0000000E+03   1.0000000E+03   1.0000000E+03   1.0000000E+03   1.0000000E+03   1.0000000E+03   1.0000000E+03   1.0000000E+03   1.0000000E+03   1.0000000E+03   1.0000000E+03   1.0000000E+03   1.0000000E+03   1.0000000E+03   1.0000000E+03   1.0000000E+03   1.0000000E+03   1.0000000E+03   1.0000000E+03   1.0000000E+03   1.0000000E+03   1.0000000E+03   1.0000000E+03   1.0000000E+03   1.0000000E+03   1.0000000E+03   1.0000000E+03   1.0000000E+03   1.0000000E+03   1.0000000E+03   1.0000000E+03   1.0000000E+03   1.0000000E+03   1.0000000E+03   1.0000000E+03   1.0000000E+03   1.0000000E+03   1.0000000E+03   1.0000000E+03   1.0000000E+03   1.0000000E+03   1.0000000E+03   1.0000000E+03   1.0000000E+03   1.0000000E+03   1.0000000E+03   1.0000000E+03   1.0000000E+03   1.0000000E+03   1.0000000E+03   1.0000000E+03   1.0000000E+03   1.0000000E+03   1.0000000E+03   1.0000000E+03   1.0000000E+03   1.0000000E+03   1.0000000E+03   1.0000000E+03   1.0000000E+03   1.0000000E+03   1.0000000E+03   1.0000000E+03   1.0000000E+03   1.0000000E+03   1.0000000E+03   1.0000000E+03   1.0000000E+03   1.0000000E+03   1.0000000E+03   1.0000000E+03   1.0000000E+03   1.0000000E+03   1.0000000E+03   1.0000000E+03   1.0000000E+03   1.0000000E+03   1.0000000E+03   1.0000000E+03   1.0000000E+03   1.0000000E+03   1.0000000E+03   1.0000000E+03   1.0000000E+03   1.0000000E+03   1.0000000E+03   1.0000000E+03   1.0000000E+03   1.0000000E+03   1.0000000E+03   1.0000000E+03   1.0000000E+03   1.0000000E+03   1.0000000E+03   1.0000000E+03   1.0000000E+03   1.0000000E+03   1.0000000E+03   1.0000000E+03   1.0000000E+03   1.0000000E+03   1.0000000E+03   1.0000000E+03   1.0000000E+03   1.0000000E+03   1.0000000E+03   1.0000000E+03   1.0000000E+03   1.0000000E+03   1.0000000E+03   1.0000000E+03   1.0000000E+03   1.0000000E+03   1.0000000E+03   1.0000000E+03   1.0000000E+03   1.0000000E+03   1.0000000E+03   1.0000000E+03   1.0000000E+03   1.0000000E+03   1.0000000E+03   1.0000000E+03   1.0000000E+03   1.0000000E+03   1.0000000E+03   1.0000000E+03   1.0000000E+03   1.0000000E+03   1.0000000E+03   1.0000000E+03   1.0000000E+03   1.0000000E+03   1.0000000E+03   1.0000000E+03   1.0000000E+03   1.0000000E+03   1.0000000E+03   1.0000000E+03   1.0000000E+03   1.0000000E+03   1.0000000E+03   1.0000000E+03   1.0000000E+03   1.0000000E+03   1.0000000E+03   1.0000000E+03   1.0000000E+03   1.0000000E+03   1.0000000E+03   1.0000000E+03   1.0000000E+03   1.0000000E+03   1.0000000E+03   1.0000000E+03   1.0000000E+03   1.0000000E+03   1.0000000E+03   1.0000000E+03   1.0000000E+03   1.0000000E+03   1.0000000E+03   1.0000000E+03   1.0000000E+03   1.0000000E+03   1.0000000E+03   1.0000000E+03   1.0000000E+03   1.0000000E+03   1.0000000E+03   1.0000000E+03   1.0000000E+03   1.0000000E+03   1.0000000E+03   1.0000000E+03   1.0000000E+03   1.0000000E+03   1.0000000E+03   1.0000000E+03   1.0000000E+03   1.0000000E+03   1.0000000E+03   1.0000000E+03   1.0000000E+03   1.0000000E+03   1.0000000E+03   1.0000000E+03   1.0000000E+03   1.0000000E+03   1.0000000E+03   1.0000000E+03   1.0000000E+03   1.0000000E+03   1.0000000E+03   1.0000000E+03   1.0000000E+03   1.0000000E+03   1.0000017E+03   1.0000020E+03   1.0000023E+03   1.0000025E+03   1.0000026E+03   1.0000018E+03   1.0000023E+03   1.0000026E+03   1.0000029E+03   1.0000032E+03   1.0000033E+03   1.0000023E+03   1.0000028E+03   1.0000033E+03   1.0000037E+03   1.0000040E+03   1.0000042E+03   1.0000028E+03   1.0000037E+03   1.0000042E+03   1.0000047E+03   1.0000049E+03   1.0000052E+03   1.0000037E+03   1.0000046E+03   1.0000052E+03   1.0000059E+03   1.0000063E+03   1.0000065E+03   1.0000048E+03   1.0000059E+03   1.0000068E+03   1.0000073E+03   1.0000078E+03   1.0000082E+03   1.0000066E+03   1.0000078E+03   1.0000089E+03   1.0000094E+03   1.0000099E+03   1.0000104E+03   1.0000093E+03   1.0000107E+03   1.0000115E+03   1.0000122E+03   1.0000126E+03   1.0000129E+03   1.0000135E+03   1.0000150E+03   1.0000154E+03   1.0000158E+03   1.0000161E+03   1.0000164E+03   1.0000198E+03   1.0000204E+03   1.0000204E+03   1.0000203E+03   1.0000203E+03   1.0000204E+03   1.0000275E+03   1.0000273E+03   1.0000264E+03   1.0000255E+03   1.0000252E+03   1.0000255E+03   1.0000350E+03   1.0000347E+03   1.0000330E+03   1.0000318E+03   1.0000313E+03   1.0000314E+03   1.0000401E+03   1.0000413E+03   1.0000398E+03   1.0000388E+03   1.0000384E+03   1.0000385E+03   1.0000448E+03   1.0000477E+03   1.0000473E+03   1.0000467E+03   1.0000468E+03   1.0000472E+03   1.0000516E+03   1.0000554E+03   1.0000565E+03   1.0000565E+03   1.0000571E+03   1.0000577E+03   1.0000623E+03   1.0000663E+03   1.0000679E+03   1.0000685E+03   1.0000693E+03   1.0000701E+03   1.0000771E+03   1.0000809E+03   1.0000825E+03   1.0000834E+03   1.0000845E+03   1.0000856E+03   1.0000958E+03   1.0000992E+03   1.0001008E+03   1.0001017E+03   1.0001029E+03   1.0001041E+03   1.0001177E+03   1.0001212E+03   1.0001230E+03   1.0001240E+03   1.0001252E+03   1.0001265E+03   1.0001442E+03   1.0001481E+03   1.0001501E+03   1.0001512E+03   1.0001524E+03   1.0001534E+03   1.0001763E+03   1.0001812E+03   1.0001835E+03   1.0001843E+03   1.0001852E+03   1.0001859E+03   1.0002158E+03   1.0002217E+03   1.0002244E+03   1.0002245E+03   1.0002245E+03   1.0002244E+03   1.0002637E+03   1.0002714E+03   1.0002743E+03   1.0002729E+03   1.0002714E+03   1.0002697E+03   1.0003223E+03   1.0003325E+03   1.0003350E+03   1.0003308E+03   1.0003264E+03   1.0003226E+03   1.0003916E+03   1.0004059E+03   1.0004064E+03   1.0003970E+03   1.0003885E+03   1.0003816E+03   1.0004708E+03   1.0004901E+03   1.0004858E+03   1.0004683E+03   1.0004542E+03   1.0004433E+03   1.0005604E+03   1.0005853E+03   1.0005713E+03   1.0005419E+03   1.0005212E+03   1.0005067E+03   1.0006609E+03   1.0006890E+03   1.0006588E+03   1.0006144E+03   1.0005873E+03   1.0005700E+03   1.0007874E+03   1.0008143E+03   1.0007609E+03   1.0007003E+03   1.0006686E+03   1.0006522E+03   1.0009977E+03   1.0010163E+03   1.0009382E+03   1.0008635E+03   1.0008312E+03   1.0008206E+03   1.0014579E+03   1.0014613E+03   1.0013705E+03   1.0012900E+03   1.0012633E+03   1.0012648E+03   1.0025103E+03   1.0024954E+03   1.0024225E+03   1.0023610E+03   1.0023472E+03   1.0023669E+03   1.0044699E+03   1.0044345E+03   1.0044150E+03   1.0044198E+03   1.0044376E+03   1.0044820E+03   1.0069119E+03   1.0068367E+03   1.0068759E+03   1.0069879E+03   1.0070601E+03   1.0071358E+03   1.0087437E+03   1.0086153E+03   1.0086798E+03   1.0088762E+03   1.0090024E+03   1.0091085E+03   1.0096028E+03   1.0094254E+03   1.0094626E+03   1.0096947E+03   1.0098511E+03   1.0099784E+03   1.0099083E+03   1.0097049E+03   1.0096844E+03   1.0098981E+03   1.0100569E+03   1.0101907E+03   1.0100448E+03   1.0098281E+03   1.0097654E+03   1.0099376E+03   1.0100753E+03   1.0102043E+03   1.0101687E+03   1.0099464E+03   1.0098546E+03   1.0099919E+03   1.0101093E+03   1.0102302E+03   1.0103085E+03   1.0100837E+03   1.0099786E+03   1.0100950E+03   1.0101984E+03   1.0103121E+03   1.0104406E+03   1.0102164E+03   1.0101107E+03   1.0102202E+03   1.0103173E+03   1.0104263E+03   1.0105322E+03   1.0103101E+03   1.0102131E+03   1.0103282E+03   1.0104261E+03   1.0105327E+03   1.0104316E+03   1.0102144E+03   1.0101265E+03   1.0102468E+03   1.0103462E+03   1.0104520E+03   1.0101448E+03   1.0099352E+03   1.0098566E+03   1.0099781E+03   1.0100790E+03   1.0101844E+03   1.0097071E+03   1.0095088E+03   1.0094403E+03   1.0095605E+03   1.0096617E+03   1.0097675E+03   1.0091516E+03   1.0089705E+03   1.0089142E+03   1.0090311E+03   1.0091318E+03   1.0092382E+03   1.0085072E+03   1.0083480E+03   1.0083055E+03   1.0084183E+03   1.0085187E+03   1.0086246E+03   1.0077943E+03   1.0076592E+03   1.0076315E+03   1.0077416E+03   1.0078412E+03   1.0079467E+03   1.0070334E+03   1.0069236E+03   1.0069099E+03   1.0070182E+03   1.0071181E+03   1.0072220E+03   1.0062554E+03   1.0061668E+03   1.0061644E+03   1.0062707E+03   1.0063704E+03   1.0064719E+03   1.0054960E+03   1.0054224E+03   1.0054241E+03   1.0055265E+03   1.0056239E+03   1.0057222E+03   1.0047855E+03   1.0047204E+03   1.0047188E+03   1.0048140E+03   1.0049067E+03   1.0050005E+03   1.0041157E+03   1.0040723E+03   1.0040725E+03   1.0041577E+03   1.0042432E+03   1.0043297E+03   1.0034706E+03   1.0034805E+03   1.0034960E+03   1.0035746E+03   1.0036515E+03   1.0037272E+03   1.0028933E+03   1.0029622E+03   1.0029988E+03   1.0030730E+03   1.0031401E+03   1.0032020E+03   1.0025323E+03   1.0025844E+03   1.0026494E+03   1.0027086E+03   1.0027563E+03   1.0021776E+03   1.0022370E+03   1.0022929E+03   1.0023494E+03   1.0023873E+03   1.0019386E+03   1.0019885E+03   1.0020458E+03   1.0020866E+03   1.0016821E+03   1.0017192E+03   1.0017794E+03   1.0018347E+03   1.0014902E+03   1.0015382E+03   1.0016072E+03   1.0013330E+03   1.0013924E+03   1.0012040E+03   1.0012121E+03   1.0000028E+03   1.0000029E+03   1.0000029E+03   1.0000030E+03   1.0000031E+03   1.0000031E+03   1.0000031E+03   1.0000031E+03   1.0000031E+03   1.0000035E+03   1.0000037E+03   1.0000037E+03   1.0000038E+03   1.0000039E+03   1.0000040E+03   1.0000040E+03   1.0000040E+03   1.0000040E+03   1.0000043E+03   1.0000044E+03   1.0000046E+03   1.0000047E+03   1.0000048E+03   1.0000048E+03   1.0000048E+03   1.0000048E+03   1.0000048E+03   1.0000054E+03   1.0000056E+03   1.0000056E+03   1.0000057E+03   1.0000059E+03   1.0000059E+03   1.0000059E+03   1.0000059E+03   1.0000059E+03   1.0000067E+03   1.0000070E+03   1.0000070E+03   1.0000070E+03   1.0000070E+03   1.0000071E+03   1.0000071E+03   1.0000071E+03   1.0000071E+03   1.0000084E+03   1.0000085E+03   1.0000087E+03   1.0000087E+03   1.0000089E+03   1.0000089E+03   1.0000089E+03   1.0000089E+03   1.0000089E+03   1.0000105E+03   1.0000107E+03   1.0000109E+03   1.0000109E+03   1.0000109E+03   1.0000109E+03   1.0000109E+03   1.0000109E+03   1.0000109E+03   1.0000132E+03   1.0000134E+03   1.0000134E+03   1.0000135E+03   1.0000135E+03   1.0000135E+03   1.0000136E+03   1.0000136E+03   1.0000135E+03   1.0000165E+03   1.0000168E+03   1.0000169E+03   1.0000169E+03   1.0000169E+03   1.0000168E+03   1.0000168E+03   1.0000168E+03   1.0000168E+03   1.0000206E+03   1.0000208E+03   1.0000209E+03   1.0000209E+03   1.0000208E+03   1.0000208E+03   1.0000208E+03   1.0000207E+03   1.0000207E+03   1.0000256E+03   1.0000258E+03   1.0000259E+03   1.0000259E+03   1.0000258E+03   1.0000257E+03   1.0000257E+03   1.0000256E+03   1.0000256E+03   1.0000317E+03   1.0000318E+03   1.0000318E+03   1.0000317E+03   1.0000316E+03   1.0000315E+03   1.0000315E+03   1.0000314E+03   1.0000314E+03   1.0000389E+03   1.0000391E+03   1.0000391E+03   1.0000389E+03   1.0000388E+03   1.0000388E+03   1.0000387E+03   1.0000386E+03   1.0000385E+03   1.0000477E+03   1.0000480E+03   1.0000480E+03   1.0000480E+03   1.0000477E+03   1.0000475E+03   1.0000474E+03   1.0000473E+03   1.0000472E+03   1.0000583E+03   1.0000587E+03   1.0000587E+03   1.0000585E+03   1.0000582E+03   1.0000578E+03   1.0000577E+03   1.0000576E+03   1.0000574E+03   1.0000710E+03   1.0000713E+03   1.0000714E+03   1.0000712E+03   1.0000710E+03   1.0000706E+03   1.0000703E+03   1.0000699E+03   1.0000699E+03   1.0000864E+03   1.0000868E+03   1.0000869E+03   1.0000865E+03   1.0000859E+03   1.0000855E+03   1.0000851E+03   1.0000847E+03   1.0000845E+03   1.0001050E+03   1.0001055E+03   1.0001053E+03   1.0001049E+03   1.0001040E+03   1.0001035E+03   1.0001028E+03   1.0001022E+03   1.0001020E+03   1.0001274E+03   1.0001276E+03   1.0001273E+03   1.0001263E+03   1.0001252E+03   1.0001244E+03   1.0001234E+03   1.0001229E+03   1.0001225E+03   1.0001542E+03   1.0001541E+03   1.0001534E+03   1.0001519E+03   1.0001505E+03   1.0001489E+03   1.0001478E+03   1.0001470E+03   1.0001464E+03   1.0001863E+03   1.0001855E+03   1.0001840E+03   1.0001819E+03   1.0001796E+03   1.0001777E+03   1.0001761E+03   1.0001748E+03   1.0001743E+03   1.0002240E+03   1.0002224E+03   1.0002198E+03   1.0002167E+03   1.0002136E+03   1.0002109E+03   1.0002087E+03   1.0002072E+03   1.0002062E+03   1.0002677E+03   1.0002648E+03   1.0002607E+03   1.0002565E+03   1.0002523E+03   1.0002489E+03   1.0002462E+03   1.0002443E+03   1.0002429E+03   1.0003187E+03   1.0003138E+03   1.0003080E+03   1.0003019E+03   1.0002966E+03   1.0002922E+03   1.0002889E+03   1.0002865E+03   1.0002852E+03   1.0003747E+03   1.0003676E+03   1.0003595E+03   1.0003516E+03   1.0003450E+03   1.0003397E+03   1.0003359E+03   1.0003333E+03   1.0003317E+03   1.0004333E+03   1.0004232E+03   1.0004128E+03   1.0004032E+03   1.0003953E+03   1.0003893E+03   1.0003853E+03   1.0003824E+03   1.0003812E+03   1.0004938E+03   1.0004811E+03   1.0004684E+03   1.0004572E+03   1.0004485E+03   1.0004421E+03   1.0004381E+03   1.0004357E+03   1.0004346E+03   1.0005560E+03   1.0005422E+03   1.0005284E+03   1.0005164E+03   1.0005074E+03   1.0005016E+03   1.0004983E+03   1.0004965E+03   1.0004957E+03   1.0006401E+03   1.0006281E+03   1.0006156E+03   1.0006045E+03   1.0005968E+03   1.0005923E+03   1.0005907E+03   1.0005903E+03   1.0005906E+03   1.0008162E+03   1.0008110E+03   1.0008040E+03   1.0007971E+03   1.0007926E+03   1.0007913E+03   1.0007926E+03   1.0007947E+03   1.0007964E+03   1.0012745E+03   1.0012830E+03   1.0012870E+03   1.0012885E+03   1.0012909E+03   1.0012951E+03   1.0013012E+03   1.0013071E+03   1.0013113E+03   1.0023980E+03   1.0024270E+03   1.0024490E+03   1.0024645E+03   1.0024774E+03   1.0024906E+03   1.0025039E+03   1.0025153E+03   1.0025231E+03   1.0045402E+03   1.0045964E+03   1.0046419E+03   1.0046765E+03   1.0047050E+03   1.0047302E+03   1.0047531E+03   1.0047722E+03   1.0047847E+03   1.0072239E+03   1.0073102E+03   1.0073831E+03   1.0074405E+03   1.0074871E+03   1.0075276E+03   1.0075631E+03   1.0075915E+03   1.0076099E+03   1.0092242E+03   1.0093391E+03   1.0094391E+03   1.0095204E+03   1.0095873E+03   1.0096443E+03   1.0096933E+03   1.0097321E+03   1.0097569E+03   1.0101151E+03   1.0102535E+03   1.0103772E+03   1.0104802E+03   1.0105660E+03   1.0106392E+03   1.0107017E+03   1.0107507E+03   1.0107823E+03   1.0103395E+03   1.0104939E+03   1.0106354E+03   1.0107557E+03   1.0108571E+03   1.0109442E+03   1.0110182E+03   1.0110762E+03   1.0111133E+03   1.0103565E+03   1.0105193E+03   1.0106714E+03   1.0108028E+03   1.0109149E+03   1.0110117E+03   1.0110944E+03   1.0111589E+03   1.0112003E+03   1.0103810E+03   1.0105459E+03   1.0107021E+03   1.0108387E+03   1.0109563E+03   1.0110587E+03   1.0111464E+03   1.0112151E+03   1.0112592E+03   1.0104593E+03   1.0106224E+03   1.0107780E+03   1.0109149E+03   1.0110338E+03   1.0111381E+03   1.0112277E+03   1.0112982E+03   1.0113434E+03   1.0105694E+03   1.0107287E+03   1.0108810E+03   1.0110156E+03   1.0111327E+03   1.0112362E+03   1.0113255E+03   1.0113959E+03   1.0114412E+03   1.0106724E+03   1.0108273E+03   1.0109753E+03   1.0111057E+03   1.0112197E+03   1.0113207E+03   1.0114083E+03   1.0114775E+03   1.0115219E+03   1.0105887E+03   1.0107396E+03   1.0108826E+03   1.0110083E+03   1.0111182E+03   1.0112158E+03   1.0113007E+03   1.0113678E+03   1.0114111E+03   1.0103186E+03   1.0104650E+03   1.0106028E+03   1.0107238E+03   1.0108289E+03   1.0109224E+03   1.0110037E+03   1.0110682E+03   1.0111097E+03   1.0098992E+03   1.0100409E+03   1.0101729E+03   1.0102877E+03   1.0103873E+03   1.0104758E+03   1.0105530E+03   1.0106141E+03   1.0106534E+03   1.0093669E+03   1.0095029E+03   1.0096279E+03   1.0097351E+03   1.0098282E+03   1.0099106E+03   1.0099826E+03   1.0100397E+03   1.0100764E+03   1.0087499E+03   1.0088785E+03   1.0089943E+03   1.0090925E+03   1.0091775E+03   1.0092524E+03   1.0093181E+03   1.0093700E+03   1.0094036E+03   1.0080667E+03   1.0081863E+03   1.0082916E+03   1.0083797E+03   1.0084549E+03   1.0085217E+03   1.0085799E+03   1.0086264E+03   1.0086562E+03   1.0073358E+03   1.0074458E+03   1.0075402E+03   1.0076174E+03   1.0076830E+03   1.0077410E+03   1.0077915E+03   1.0078322E+03   1.0078582E+03   1.0065798E+03   1.0066805E+03   1.0067649E+03   1.0068324E+03   1.0068885E+03   1.0069385E+03   1.0069822E+03   1.0070168E+03   1.0070393E+03   1.0058249E+03   1.0059183E+03   1.0059946E+03   1.0060542E+03   1.0061033E+03   1.0061459E+03   1.0061832E+03   1.0062128E+03   1.0062319E+03   1.0050975E+03   1.0051859E+03   1.0052568E+03   1.0053115E+03   1.0053552E+03   1.0053925E+03   1.0054246E+03   1.0054496E+03   1.0054661E+03   1.0044200E+03   1.0045042E+03   1.0045730E+03   1.0046256E+03   1.0046664E+03   1.0046998E+03   1.0047277E+03   1.0047495E+03   1.0047632E+03   1.0038082E+03   1.0038879E+03   1.0039565E+03   1.0040100E+03   1.0040507E+03   1.0040823E+03   1.0041074E+03   1.0041263E+03   1.0041381E+03   1.0032705E+03   1.0033438E+03   1.0034124E+03   1.0034689E+03   1.0035121E+03   1.0035441E+03   1.0035681E+03   1.0035852E+03   1.0035956E+03   1.0028093E+03   1.0028726E+03   1.0029391E+03   1.0029993E+03   1.0030470E+03   1.0030824E+03   1.0031074E+03   1.0031242E+03   1.0031339E+03   1.0024243E+03   1.0024742E+03   1.0025344E+03   1.0025953E+03   1.0026481E+03   1.0026888E+03   1.0027174E+03   1.0027361E+03   1.0027465E+03   1.0021124E+03   1.0021466E+03   1.0021954E+03   1.0022516E+03   1.0023058E+03   1.0023513E+03   1.0023849E+03   1.0024073E+03   1.0024199E+03   1.0018654E+03   1.0018876E+03   1.0019208E+03   1.0019658E+03   1.0020151E+03   1.0020605E+03   1.0020973E+03   1.0021233E+03   1.0021386E+03   1.0016590E+03   1.0016871E+03   1.0017081E+03   1.0017370E+03   1.0017739E+03   1.0018126E+03   1.0018470E+03   1.0018734E+03   1.0018901E+03   1.0014626E+03   1.0015145E+03   1.0015439E+03   1.0015627E+03   1.0015831E+03   1.0016082E+03   1.0016342E+03   1.0016562E+03   1.0016711E+03   1.0012703E+03   1.0013334E+03   1.0013870E+03   1.0014207E+03   1.0014383E+03   1.0014506E+03   1.0014638E+03   1.0014769E+03   1.0014869E+03   1.0011451E+03   1.0011721E+03   1.0012131E+03   1.0012573E+03   1.0012952E+03   1.0013198E+03   1.0013334E+03   1.0013414E+03   1.0013467E+03   1.0011109E+03   1.0010998E+03   1.0011047E+03   1.0011247E+03   1.0011500E+03   1.0011713E+03   1.0011853E+03   1.0011929E+03   1.0010717E+03   1.0010435E+03   1.0010331E+03   1.0010235E+03   1.0010180E+03   1.0010153E+03   1.0010784E+03   1.0010563E+03   1.0010317E+03   1.0010153E+03   1.0000031E+03   1.0000031E+03   1.0000031E+03   1.0000031E+03   1.0000031E+03   1.0000031E+03   1.0000030E+03   1.0000029E+03   1.0000040E+03   1.0000040E+03   1.0000040E+03   1.0000040E+03   1.0000040E+03   1.0000039E+03   1.0000038E+03   1.0000037E+03   1.0000048E+03   1.0000048E+03   1.0000048E+03   1.0000048E+03   1.0000048E+03   1.0000048E+03   1.0000047E+03   1.0000046E+03   1.0000059E+03   1.0000059E+03   1.0000059E+03   1.0000059E+03   1.0000059E+03   1.0000059E+03   1.0000057E+03   1.0000056E+03   1.0000071E+03   1.0000071E+03   1.0000071E+03   1.0000071E+03   1.0000071E+03   1.0000070E+03   1.0000070E+03   1.0000070E+03   1.0000089E+03   1.0000089E+03   1.0000089E+03   1.0000089E+03   1.0000089E+03   1.0000089E+03   1.0000087E+03   1.0000087E+03   1.0000109E+03   1.0000109E+03   1.0000109E+03   1.0000109E+03   1.0000109E+03   1.0000109E+03   1.0000109E+03   1.0000109E+03   1.0000135E+03   1.0000135E+03   1.0000136E+03   1.0000136E+03   1.0000135E+03   1.0000135E+03   1.0000135E+03   1.0000134E+03   1.0000168E+03   1.0000168E+03   1.0000168E+03   1.0000168E+03   1.0000168E+03   1.0000169E+03   1.0000169E+03   1.0000169E+03   1.0000206E+03   1.0000207E+03   1.0000207E+03   1.0000208E+03   1.0000208E+03   1.0000208E+03   1.0000209E+03   1.0000209E+03   1.0000256E+03   1.0000256E+03   1.0000256E+03   1.0000257E+03   1.0000257E+03   1.0000258E+03   1.0000259E+03   1.0000259E+03   1.0000314E+03   1.0000314E+03   1.0000314E+03   1.0000315E+03   1.0000315E+03   1.0000316E+03   1.0000317E+03   1.0000318E+03   1.0000385E+03   1.0000385E+03   1.0000386E+03   1.0000387E+03   1.0000388E+03   1.0000388E+03   1.0000389E+03   1.0000391E+03   1.0000472E+03   1.0000472E+03   1.0000473E+03   1.0000474E+03   1.0000475E+03   1.0000477E+03   1.0000480E+03   1.0000480E+03   1.0000574E+03   1.0000574E+03   1.0000576E+03   1.0000577E+03   1.0000578E+03   1.0000582E+03   1.0000585E+03   1.0000587E+03   1.0000698E+03   1.0000699E+03   1.0000699E+03   1.0000703E+03   1.0000706E+03   1.0000710E+03   1.0000712E+03   1.0000714E+03   1.0000845E+03   1.0000845E+03   1.0000847E+03   1.0000851E+03   1.0000855E+03   1.0000859E+03   1.0000865E+03   1.0000869E+03   1.0001019E+03   1.0001020E+03   1.0001022E+03   1.0001028E+03   1.0001035E+03   1.0001040E+03   1.0001049E+03   1.0001053E+03   1.0001223E+03   1.0001225E+03   1.0001229E+03   1.0001234E+03   1.0001244E+03   1.0001252E+03   1.0001263E+03   1.0001273E+03   1.0001461E+03   1.0001464E+03   1.0001470E+03   1.0001478E+03   1.0001489E+03   1.0001505E+03   1.0001519E+03   1.0001534E+03   1.0001740E+03   1.0001743E+03   1.0001748E+03   1.0001761E+03   1.0001777E+03   1.0001796E+03   1.0001819E+03   1.0001840E+03   1.0002059E+03   1.0002062E+03   1.0002072E+03   1.0002087E+03   1.0002109E+03   1.0002136E+03   1.0002167E+03   1.0002198E+03   1.0002426E+03   1.0002429E+03   1.0002443E+03   1.0002462E+03   1.0002489E+03   1.0002523E+03   1.0002565E+03   1.0002607E+03   1.0002847E+03   1.0002852E+03   1.0002865E+03   1.0002889E+03   1.0002922E+03   1.0002966E+03   1.0003019E+03   1.0003080E+03   1.0003312E+03   1.0003317E+03   1.0003333E+03   1.0003359E+03   1.0003397E+03   1.0003450E+03   1.0003516E+03   1.0003595E+03   1.0003807E+03   1.0003812E+03   1.0003824E+03   1.0003853E+03   1.0003893E+03   1.0003953E+03   1.0004032E+03   1.0004128E+03   1.0004341E+03   1.0004346E+03   1.0004357E+03   1.0004381E+03   1.0004421E+03   1.0004485E+03   1.0004572E+03   1.0004684E+03   1.0004955E+03   1.0004957E+03   1.0004965E+03   1.0004983E+03   1.0005016E+03   1.0005074E+03   1.0005164E+03   1.0005284E+03   1.0005906E+03   1.0005906E+03   1.0005903E+03   1.0005907E+03   1.0005923E+03   1.0005968E+03   1.0006045E+03   1.0006156E+03   1.0007971E+03   1.0007964E+03   1.0007947E+03   1.0007926E+03   1.0007913E+03   1.0007926E+03   1.0007971E+03   1.0008040E+03   1.0013128E+03   1.0013113E+03   1.0013071E+03   1.0013012E+03   1.0012951E+03   1.0012909E+03   1.0012885E+03   1.0012870E+03   1.0025258E+03   1.0025231E+03   1.0025153E+03   1.0025039E+03   1.0024906E+03   1.0024774E+03   1.0024645E+03   1.0024490E+03   1.0047891E+03   1.0047847E+03   1.0047722E+03   1.0047531E+03   1.0047302E+03   1.0047050E+03   1.0046765E+03   1.0046419E+03   1.0076163E+03   1.0076099E+03   1.0075915E+03   1.0075631E+03   1.0075276E+03   1.0074871E+03   1.0074405E+03   1.0073831E+03   1.0097657E+03   1.0097569E+03   1.0097321E+03   1.0096933E+03   1.0096443E+03   1.0095873E+03   1.0095204E+03   1.0094391E+03   1.0107931E+03   1.0107823E+03   1.0107507E+03   1.0107017E+03   1.0106392E+03   1.0105660E+03   1.0104802E+03   1.0103772E+03   1.0111260E+03   1.0111133E+03   1.0110762E+03   1.0110182E+03   1.0109442E+03   1.0108571E+03   1.0107557E+03   1.0106354E+03   1.0112147E+03   1.0112003E+03   1.0111589E+03   1.0110944E+03   1.0110117E+03   1.0109149E+03   1.0108028E+03   1.0106714E+03   1.0112743E+03   1.0112592E+03   1.0112151E+03   1.0111464E+03   1.0110587E+03   1.0109563E+03   1.0108387E+03   1.0107021E+03   1.0113588E+03   1.0113434E+03   1.0112982E+03   1.0112277E+03   1.0111381E+03   1.0110338E+03   1.0109149E+03   1.0107780E+03   1.0114569E+03   1.0114412E+03   1.0113959E+03   1.0113255E+03   1.0112362E+03   1.0111327E+03   1.0110156E+03   1.0108810E+03   1.0115374E+03   1.0115219E+03   1.0114775E+03   1.0114083E+03   1.0113207E+03   1.0112197E+03   1.0111057E+03   1.0109753E+03   1.0114260E+03   1.0114111E+03   1.0113678E+03   1.0113007E+03   1.0112158E+03   1.0111182E+03   1.0110083E+03   1.0108826E+03   1.0111242E+03   1.0111097E+03   1.0110682E+03   1.0110037E+03   1.0109224E+03   1.0108289E+03   1.0107238E+03   1.0106028E+03   1.0106672E+03   1.0106534E+03   1.0106141E+03   1.0105530E+03   1.0104758E+03   1.0103873E+03   1.0102877E+03   1.0101729E+03   1.0100890E+03   1.0100764E+03   1.0100397E+03   1.0099826E+03   1.0099106E+03   1.0098282E+03   1.0097351E+03   1.0096279E+03   1.0094153E+03   1.0094036E+03   1.0093700E+03   1.0093181E+03   1.0092524E+03   1.0091775E+03   1.0090925E+03   1.0089943E+03   1.0086666E+03   1.0086562E+03   1.0086264E+03   1.0085799E+03   1.0085217E+03   1.0084549E+03   1.0083797E+03   1.0082916E+03   1.0078672E+03   1.0078582E+03   1.0078322E+03   1.0077915E+03   1.0077410E+03   1.0076830E+03   1.0076174E+03   1.0075402E+03   1.0070472E+03   1.0070393E+03   1.0070168E+03   1.0069822E+03   1.0069385E+03   1.0068885E+03   1.0068324E+03   1.0067649E+03   1.0062385E+03   1.0062319E+03   1.0062128E+03   1.0061832E+03   1.0061459E+03   1.0061033E+03   1.0060542E+03   1.0059946E+03   1.0054717E+03   1.0054661E+03   1.0054496E+03   1.0054246E+03   1.0053925E+03   1.0053552E+03   1.0053115E+03   1.0052568E+03   1.0047679E+03   1.0047632E+03   1.0047495E+03   1.0047277E+03   1.0046998E+03   1.0046664E+03   1.0046256E+03   1.0045730E+03   1.0041422E+03   1.0041381E+03   1.0041263E+03   1.0041074E+03   1.0040823E+03   1.0040507E+03   1.0040100E+03   1.0039565E+03   1.0035991E+03   1.0035956E+03   1.0035852E+03   1.0035681E+03   1.0035441E+03   1.0035121E+03   1.0034689E+03   1.0034124E+03   1.0031371E+03   1.0031339E+03   1.0031242E+03   1.0031074E+03   1.0030824E+03   1.0030470E+03   1.0029993E+03   1.0029391E+03   1.0027499E+03   1.0027465E+03   1.0027361E+03   1.0027174E+03   1.0026888E+03   1.0026481E+03   1.0025953E+03   1.0025344E+03   1.0024241E+03   1.0024199E+03   1.0024073E+03   1.0023849E+03   1.0023513E+03   1.0023058E+03   1.0022516E+03   1.0021954E+03   1.0021437E+03   1.0021386E+03   1.0021233E+03   1.0020973E+03   1.0020605E+03   1.0020151E+03   1.0019658E+03   1.0019208E+03   1.0018956E+03   1.0018901E+03   1.0018734E+03   1.0018470E+03   1.0018126E+03   1.0017739E+03   1.0017370E+03   1.0017081E+03   1.0016763E+03   1.0016711E+03   1.0016562E+03   1.0016342E+03   1.0016082E+03   1.0015831E+03   1.0015627E+03   1.0015439E+03   1.0014906E+03   1.0014869E+03   1.0014769E+03   1.0014638E+03   1.0014506E+03   1.0014383E+03   1.0014207E+03   1.0013870E+03   1.0013487E+03   1.0013467E+03   1.0013414E+03   1.0013334E+03   1.0013198E+03   1.0012952E+03   1.0012573E+03   1.0012131E+03   1.0011956E+03   1.0011929E+03   1.0011853E+03   1.0011713E+03   1.0011500E+03   1.0011247E+03   1.0011047E+03   1.0010998E+03   1.0010144E+03   1.0010153E+03   1.0010180E+03   1.0010235E+03   1.0010331E+03   1.0010435E+03   1.0010717E+03   1.0010098E+03   1.0010153E+03   1.0010317E+03   1.0010563E+03   1.0010784E+03   1.0000029E+03   1.0000028E+03   1.0000026E+03   1.0000025E+03   1.0000023E+03   1.0000020E+03   1.0000017E+03   1.0000037E+03   1.0000035E+03   1.0000033E+03   1.0000032E+03   1.0000029E+03   1.0000026E+03   1.0000023E+03   1.0000018E+03   1.0000044E+03   1.0000043E+03   1.0000042E+03   1.0000040E+03   1.0000037E+03   1.0000033E+03   1.0000028E+03   1.0000023E+03   1.0000056E+03   1.0000054E+03   1.0000052E+03   1.0000049E+03   1.0000047E+03   1.0000042E+03   1.0000037E+03   1.0000028E+03   1.0000070E+03   1.0000067E+03   1.0000065E+03   1.0000063E+03   1.0000059E+03   1.0000052E+03   1.0000046E+03   1.0000037E+03   1.0000085E+03   1.0000084E+03   1.0000082E+03   1.0000078E+03   1.0000073E+03   1.0000068E+03   1.0000059E+03   1.0000048E+03   1.0000107E+03   1.0000105E+03   1.0000104E+03   1.0000099E+03   1.0000094E+03   1.0000089E+03   1.0000078E+03   1.0000066E+03   1.0000134E+03   1.0000132E+03   1.0000129E+03   1.0000126E+03   1.0000122E+03   1.0000115E+03   1.0000107E+03   1.0000093E+03   1.0000168E+03   1.0000165E+03   1.0000164E+03   1.0000161E+03   1.0000158E+03   1.0000154E+03   1.0000150E+03   1.0000135E+03   1.0000208E+03   1.0000206E+03   1.0000204E+03   1.0000203E+03   1.0000203E+03   1.0000204E+03   1.0000204E+03   1.0000198E+03   1.0000258E+03   1.0000256E+03   1.0000255E+03   1.0000252E+03   1.0000255E+03   1.0000264E+03   1.0000273E+03   1.0000275E+03   1.0000318E+03   1.0000317E+03   1.0000314E+03   1.0000313E+03   1.0000318E+03   1.0000330E+03   1.0000347E+03   1.0000350E+03   1.0000391E+03   1.0000389E+03   1.0000385E+03   1.0000384E+03   1.0000388E+03   1.0000398E+03   1.0000413E+03   1.0000401E+03   1.0000480E+03   1.0000477E+03   1.0000472E+03   1.0000468E+03   1.0000467E+03   1.0000473E+03   1.0000477E+03   1.0000448E+03   1.0000587E+03   1.0000583E+03   1.0000577E+03   1.0000571E+03   1.0000565E+03   1.0000565E+03   1.0000554E+03   1.0000516E+03   1.0000713E+03   1.0000710E+03   1.0000701E+03   1.0000693E+03   1.0000685E+03   1.0000679E+03   1.0000663E+03   1.0000623E+03   1.0000868E+03   1.0000864E+03   1.0000856E+03   1.0000845E+03   1.0000834E+03   1.0000825E+03   1.0000809E+03   1.0000771E+03   1.0001055E+03   1.0001050E+03   1.0001041E+03   1.0001029E+03   1.0001017E+03   1.0001008E+03   1.0000992E+03   1.0000958E+03   1.0001276E+03   1.0001274E+03   1.0001265E+03   1.0001252E+03   1.0001240E+03   1.0001230E+03   1.0001212E+03   1.0001177E+03   1.0001541E+03   1.0001542E+03   1.0001534E+03   1.0001524E+03   1.0001512E+03   1.0001501E+03   1.0001481E+03   1.0001442E+03   1.0001855E+03   1.0001863E+03   1.0001859E+03   1.0001852E+03   1.0001843E+03   1.0001835E+03   1.0001812E+03   1.0001763E+03   1.0002224E+03   1.0002240E+03   1.0002244E+03   1.0002245E+03   1.0002245E+03   1.0002244E+03   1.0002217E+03   1.0002158E+03   1.0002648E+03   1.0002677E+03   1.0002697E+03   1.0002714E+03   1.0002729E+03   1.0002743E+03   1.0002714E+03   1.0002637E+03   1.0003138E+03   1.0003187E+03   1.0003226E+03   1.0003264E+03   1.0003308E+03   1.0003350E+03   1.0003325E+03   1.0003223E+03   1.0003676E+03   1.0003747E+03   1.0003816E+03   1.0003885E+03   1.0003970E+03   1.0004064E+03   1.0004059E+03   1.0003916E+03   1.0004232E+03   1.0004333E+03   1.0004433E+03   1.0004542E+03   1.0004683E+03   1.0004858E+03   1.0004901E+03   1.0004708E+03   1.0004811E+03   1.0004938E+03   1.0005067E+03   1.0005212E+03   1.0005419E+03   1.0005713E+03   1.0005853E+03   1.0005604E+03   1.0005422E+03   1.0005560E+03   1.0005700E+03   1.0005873E+03   1.0006144E+03   1.0006588E+03   1.0006890E+03   1.0006609E+03   1.0006281E+03   1.0006401E+03   1.0006522E+03   1.0006686E+03   1.0007003E+03   1.0007609E+03   1.0008143E+03   1.0007874E+03   1.0008110E+03   1.0008162E+03   1.0008206E+03   1.0008312E+03   1.0008635E+03   1.0009382E+03   1.0010163E+03   1.0009977E+03   1.0012830E+03   1.0012745E+03   1.0012648E+03   1.0012633E+03   1.0012900E+03   1.0013705E+03   1.0014613E+03   1.0014579E+03   1.0024270E+03   1.0023980E+03   1.0023669E+03   1.0023472E+03   1.0023610E+03   1.0024225E+03   1.0024954E+03   1.0025103E+03   1.0045964E+03   1.0045402E+03   1.0044820E+03   1.0044376E+03   1.0044198E+03   1.0044150E+03   1.0044345E+03   1.0044699E+03   1.0073102E+03   1.0072239E+03   1.0071358E+03   1.0070601E+03   1.0069879E+03   1.0068759E+03   1.0068367E+03   1.0069119E+03   1.0093391E+03   1.0092242E+03   1.0091085E+03   1.0090024E+03   1.0088762E+03   1.0086798E+03   1.0086153E+03   1.0087437E+03   1.0102535E+03   1.0101151E+03   1.0099784E+03   1.0098511E+03   1.0096947E+03   1.0094626E+03   1.0094254E+03   1.0096028E+03   1.0104939E+03   1.0103395E+03   1.0101907E+03   1.0100569E+03   1.0098981E+03   1.0096844E+03   1.0097049E+03   1.0099083E+03   1.0105193E+03   1.0103565E+03   1.0102043E+03   1.0100753E+03   1.0099376E+03   1.0097654E+03   1.0098281E+03   1.0100448E+03   1.0105459E+03   1.0103810E+03   1.0102302E+03   1.0101093E+03   1.0099919E+03   1.0098546E+03   1.0099464E+03   1.0101687E+03   1.0106224E+03   1.0104593E+03   1.0103121E+03   1.0101984E+03   1.0100950E+03   1.0099786E+03   1.0100837E+03   1.0103085E+03   1.0107287E+03   1.0105694E+03   1.0104263E+03   1.0103173E+03   1.0102202E+03   1.0101107E+03   1.0102164E+03   1.0104406E+03   1.0108273E+03   1.0106724E+03   1.0105327E+03   1.0104261E+03   1.0103282E+03   1.0102131E+03   1.0103101E+03   1.0105322E+03   1.0107396E+03   1.0105887E+03   1.0104520E+03   1.0103462E+03   1.0102468E+03   1.0101265E+03   1.0102144E+03   1.0104316E+03   1.0104650E+03   1.0103186E+03   1.0101843E+03   1.0100790E+03   1.0099781E+03   1.0098566E+03   1.0099352E+03   1.0101448E+03   1.0100409E+03   1.0098992E+03   1.0097675E+03   1.0096617E+03   1.0095605E+03   1.0094403E+03   1.0095088E+03   1.0097071E+03   1.0095029E+03   1.0093669E+03   1.0092382E+03   1.0091318E+03   1.0090311E+03   1.0089142E+03   1.0089705E+03   1.0091516E+03   1.0088785E+03   1.0087499E+03   1.0086246E+03   1.0085187E+03   1.0084183E+03   1.0083055E+03   1.0083480E+03   1.0085072E+03   1.0081863E+03   1.0080667E+03   1.0079467E+03   1.0078412E+03   1.0077416E+03   1.0076315E+03   1.0076592E+03   1.0077943E+03   1.0074458E+03   1.0073358E+03   1.0072220E+03   1.0071181E+03   1.0070182E+03   1.0069099E+03   1.0069236E+03   1.0070334E+03   1.0066805E+03   1.0065798E+03   1.0064719E+03   1.0063704E+03   1.0062707E+03   1.0061644E+03   1.0061668E+03   1.0062554E+03   1.0059183E+03   1.0058249E+03   1.0057222E+03   1.0056239E+03   1.0055265E+03   1.0054241E+03   1.0054224E+03   1.0054960E+03   1.0051859E+03   1.0050975E+03   1.0050005E+03   1.0049067E+03   1.0048140E+03   1.0047188E+03   1.0047204E+03   1.0047855E+03   1.0045042E+03   1.0044200E+03   1.0043297E+03   1.0042432E+03   1.0041577E+03   1.0040725E+03   1.0040723E+03   1.0041157E+03   1.0038879E+03   1.0038082E+03   1.0037272E+03   1.0036515E+03   1.0035746E+03   1.0034960E+03   1.0034805E+03   1.0034706E+03   1.0033438E+03   1.0032705E+03   1.0032020E+03   1.0031401E+03   1.0030730E+03   1.0029988E+03   1.0029622E+03   1.0028933E+03   1.0028726E+03   1.0028093E+03   1.0027563E+03   1.0027086E+03   1.0026494E+03   1.0025844E+03   1.0025323E+03   1.0024742E+03   1.0024243E+03   1.0023873E+03   1.0023494E+03   1.0022929E+03   1.0022370E+03   1.0021776E+03   1.0021466E+03   1.0021124E+03   1.0020866E+03   1.0020458E+03   1.0019885E+03   1.0019386E+03   1.0018876E+03   1.0018654E+03   1.0018347E+03   1.0017794E+03   1.0017192E+03   1.0016821E+03   1.0016871E+03   1.0016590E+03   1.0016072E+03   1.0015382E+03   1.0014902E+03   1.0015145E+03   1.0014626E+03   1.0013924E+03   1.0013330E+03   1.0013334E+03   1.0012703E+03   1.0012121E+03   1.0012040E+03   1.0011721E+03   1.0011451E+03   1.0011109E+03 
Mass 1 2975 float
  4.0000001E-01   4.0000001E-01   4.0000001E-01   4.0000001E-01   4.0000001E-01   4.0000001E-01   4.0000001E-01   4.0000001E-01   4.0000001E-01   4.0000001E-01   4.0000001E-01   4.0000001E-01   4.0000001E-01   4.0000001E-01   4.0000001E-01   4.0000001E-01   4.0000001E-01   4.0000001E-01   4.0000001E-01   4.0000001E-01   4.0000001E-01   4.0000001E-01   4.0000001E-01   4.0000001E-01   4.0000001E-01   4.0000001E-01   4.0000001E-01   4.0000001E-01   4.0000001E-01   4.0000001E-01   4.0000001E-01   4.0000001E-01   4.0000001E-01   4.0000001E-01   4.0000001E-01   4.0000001E-01   4.0000001E-01   4.0000001E-01   4.0000001E-01   4.0000001E-01   4.0000001E-01   4.0000001E-01   4.0000001E-01   4.0000001E-01   4.0000001E-01   4.0000001E-01   4.0000001E-01   4.0000001E-01   4.0000001E-01   4.0000001E-01   4.0000001E-01   4.0000001E-01   4.0000001E-01   4.0000001E-01   4.0000001E-01   4.0000001E-01   4.0000001E-01   4.0000001E-01   4.0000001E-01   4.0000001E-01   4.0000001E-01   4.0000001E-01   4.0000001E-01   4.0000001E-01   4.0000001E-01   4.0000001E-01   4.0000001E-01   4.0000001E-01   4.0000001E-01   4.0000001E-01   4.0000001E-01   4.0000001E-01   4.0000001E-01   4.0000001E-01   4.0000001E-01   4.0000001E-01   4.0000001E-01   4.0000001E-01   4.0000001E-01   4.0000001E-01   4.0000001E-01   4.0000001E-01   4.0000001E-01   4.0000001E-01   4.0000001E-01   4.0000001E-01   4.0000001E-01   4.0000001E-01   4.0000001E-01   4.0000001E-01   4.0000001E-01   4.0000001E-01   4.0000001E-01   4.0000001E-01   4.0000001E-01   4.0000001E-01   4.0000001E-01   4.0000001E-01   4.0000001E-01   4.0000001E-01   4.0000001E-01   4.0000001E-01   4.0000001E-01   4.0000001E-01   4.0000001E-01   4.0000001E-01   4.0000001E-01   4.0000001E-01   4.0000001E-01   4.0000001E-01   4.0000001E-01   4.0000001E-01   4.0000001E-01   4.0000001E-01   4.0000001E-01   4.0000001E-01   4.0000001E-01   4.0000001E-01   4.0000001E-01   4.0000001E-01   4.0000001E-01   4.0000001E-01   4.0000001E-01   4.0000001E-01   4.0000001E-01   4.0000001E-01   4.0000001E-01   4.0000001E-01   4.0000001E-01   4.0000001E-01   4.0000001E-01   4.0000001E-01   4.0000001E-01   4.0000001E-01   4.0000001E-01   4.0000001E-01   4.0000001E-01   4.0000001E-01   4.0000001E-01   4.0000001E-01   4.0000001E-01   4.0000001E-01   4.0000001E-01   4.0000001E-01   4.0000001E-01   4.0000001E-01   4.0000001E-01   4.0000001E-01   4.0000001E-01   4.0000001E-01   4.0000001E-01   4.0000001E-01   4.0000001E-01   4.0000001E-01   4.0000001E-01   4.0000001E-01   4.0000001E-01   4.0000001E-01   4.0000001E-01   4.0000001E-01   4.0000001E-01   4.0000001E-01   4.0000001E-01   4.0000001E-01   4.0000001E-01   4.0000001E-01   4.0000001E-01   4.0000001E-01   4.0000001E-01   4.0000001E-01   4.0000001E-01   4.0000001E-01   4.0000001E-01   4.0000001E-01   4.0000001E-01   4.0000001E-01   4.0000001E-01   4.0000001E-01   4.0000001E-01   4.0000001E-01   4.0000001E-01   4.0000001E-01   4.0000001E-01   4.0000001E-01   4.0000001E-01   4.0000001E-01   4.0000001E-01   4.0000001E-01   4.0000001E-01   4.0000001E-01   4.0000001E-01   4.0000001E-01   4.0000001E-01   4.0000001E-01   4.0000001E-01   4.0000001E-01   4.0000001E-01   4.0000001E-01   4.0000001E-01   4.0000001E-01   4.0000001E-01   4.0000001E-01   4.0000001E-01   4.0000001E-01   4.0000001E-01   4.0000001E-01   4.0000001E-01   4.0000001E-01   4.0000001E-01   4.0000001E-01   4.0000001E-01   4.0000001E-01   4.0000001E-01   4.0000001E-01   4.0000001E-01   4.0000001E-01   4.0000001E-01   4.0000001E-01   4.0000001E-01   4.0000001E-01   4.0000001E-01   4.0000001E-01   4.0000001E-01   4.0000001E-01   4.0000001E-01   4.0000001E-01   4.0000001E-01   4.0000001E-01   4.0000001E-01   4.0000001E-01   4.0000001E-01   4.0000001E-01   4.0000001E-01   4.0000001E-01   4.0000001E-01   4.0000001E-01   4.0000001E-01   4.0000001E-01   4.0000001E-01   4.0000001E-01   4.0000001E-01   4.0000001E-01   4.0000001E-01   4.0000001E-01   4.0000001E-01   4.0000001E-01   4.0000001E-01   4.0000001E-01   4.0000001E-01   4.0000001E-01   4.0000001E-01   4.0000001E-01   4.0000001E-01   4.0000001E-01   4.0000001E-01   4.0000001E-01   4.0000001E-01   4.0000001E-01   4.0000001E-01   4.0000001E-01   4.0000001E-01   4.0000001E-01   4.0000001E-01   4.0000001E-01   4.0000001E-01   4.0000001E-01   4.0000001E-01   4.0000001E-01   4.0000001E-01   4.0000001E-01   4.0000001E-01   4.0000001E-01   4.0000001E-01   4.0000001E-01   4.0000001E-01   4.0000001E-01   4.0000001E-01   4.0000001E-01   4.0000001E-01   4.0000001E-01   4.0000001E-01   4.0000001E-01   4.0000001E-01   4.0000001E-01   4.0000001E-01   4.0000001E-01   4.0000001E-01   4.0000001E-01   4.0000001E-01   4.0000001E-01   4.0000001E-01   4.0000001E-01   4.0000001E-01   4.0000001E-01   4.0000001E-01   4.0000001E-01   4.0000001E-01   4.0000001E-01   4.0000001E-01   4.0000001E-01   4.0000001E-01   4.0000001E-01   4.0000001E-01   4.0000001E-01   4.0000001E-01   4.0000001E-01   4.0000001E-01   4.0000001E-01   4.0000001E-01   4.0000001E-01   4.0000001E-01   4.0000001E-01   4.0000001E-01   4.0000001E-01   4.0000001E-01   4.0000001E-01   4.0000001E-01   4.0000001E-01   4.0000001E-01   4.0000001E-01   4.0000001E-01   4.0000001E-01   4.0000001E-01   4.0000001E-01   4.0000001E-01   4.0000001E-01   4.0000001E-01   4.0000001E-01   4.0000001E-01   4.0000001E-01   4.0000001E-01   4.0000001E-01   4.0000001E-01   4.0000001E-01   4.0000001E-01   4.0000001E-01   4.0000001E-01   4.0000001E-01   4.0000001E-01   4.0000001E-01   4.0000001E-01   4.0000001E-01   4.0000001E-01   4.0000001E-01   4.0000001E-01   4.0000001E-01   4.0000001E-01   4.0000001E-01   4.0000001E-01   4.0000001E-01   4.0000001E-01   4.0000001E-01   4.0000001E-01   4.0000001E-01   4.0000001E-01   4.0000001E-01   4.0000001E-01   4.0000001E-01   4.0000001E-01   4.0000001E-01   4.0000001E-01   4.0000001E-01   4.0000001E-01   4.0000001E-01   4.0000001E-01   4.0000001E-01   4.0000001E-01   4.0000001E-01   4.0000001E-01   4.0000001E-01   4.0000001E-01   4.0000001E-01   4.0000001E-01   4.0000001E-01   4.0000001E-01   4.0000001E-01   4.0000001E-01   4.0000001E-01   4.0000001E-01   4.0000001E-01   4.0000001E-01   4.0000001E-01   4.0000001E-01   4.0000001E-01   4.0000001E-01   4.0000001E-01   4.0000001E-01   4.0000001E-01   4.0000001E-01   4.0000001E-01   4.0000001E-01   4.0000001E-01   4.0000001E-01   4.0000001E-01   4.0000001E-01   4.0000001E-01   4.0000001E-01   4.0000001E-01   4.0000001E-01   4.0000001E-01   4.0000001E-01   4.0000001E-01   4.0000001E-01   4.0000001E-01   4.0000001E-01   4.0000001E-01   4.0000001E-01   4.0000001E-01   4.0000001E-01   4.0000001E-01   4.0000001E-01   4.0000001E-01   4.0000001E-01   4.0000001E-01   4.0000001E-01   4.0000001E-01   4.0000001E-01   4.0000001E-01   4.0000001E-01   4.0000001E-01   4.0000001E-01   4.0000001E-01   4.0000001E-01   4.0000001E-01   4.0000001E-01   4.0000001E-01   4.0000001E-01   4.0000001E-01   4.0000001E-01   4.0000001E-01   4.0000001E-01   4.0000001E-01   4.0000001E-01   4.0000001E-01   4.0000001E-01   4.0000001E-01   4.0000001E-01   4.0000001E-01   4.0000001E-01   4.0000001E-01   4.0000001E-01   4.0000001E-01   4.0000001E-01   4.0000001E-01   4.0000001E-01   4.0000001E-01   4.0000001E-01   4.0000001E-01   4.0000001E-01   4.0000001E-01   4.0000001E-01   4.0000001E-01   4.0000001E-01   4.0000001E-01   4.0000001E-01   4.0000001E-01   4.0000001E-01   4.0000001E-01   4.0000001E-01   4.0000001E-01   4.0000001E-01   4.0000001E-01   4.0000001E-01   4.0000001E-01   4.0000001E-01   4.0000001E-01   4.0000001E-01   4.0000001E-01   4.0000001E-01   4.0000001E-01   4.0000001E-01   4.0000001E-01   4.0000001E-01   4.0000001E-01   4.0000001E-01   4.0000001E-01   4.0000001E-01   4.0000001E-01   4.0000001E-01   4.0000001E-01   4.0000001E-01   4.0000001E-01   4.0000001E-01   4.0000001E-01   4.0000001E-01   4.0000001E-01   4.0000001E-01   4.0000001E-01   4.0000001E-01   4.0000001E-01   4.0000001E-01   4.0000001E-01   4.0000001E-01   4.0000001E-01   4.0000001E-01   4.0000001E-01   4.0000001E-01   4.0000001E-01   4.0000001E-01   4.0000001E-01   4.0000001E-01   4.0000001E-01   4.0000001E-01   4.0000001E-01   4.0000001E-01   4.0000001E-01   4.0000001E-01   4.0000001E-01   4.0000001E-01   4.0000001E-01   4.0000001E-01   4.0000001E-01   4.0000001E-01   4.0000001E-01   4.0000001E-01   4.0000001E-01   4.0000001E-01   4.0000001E-01   4.0000001E-01   4.0000001E-01   4.0000001E-01   4.0000001E-01   4.0000001E-01   4.0000001E-01   4.0000001E-01   4.0000001E-01   4.0000001E-01   4.0000001E-01   4.0000001E-01   4.0000001E-01   4.0000001E-01   4.0000001E-01   4.0000001E-01   4.0000001E-01   4.0000001E-01   4.0000001E-01   4.0000001E-01   4.0000001E-01   4.0000001E-01   4.0000001E-01   4.0000001E-01   4.0000001E-01   4.0000001E-01   4.0000001E-01   4.0000001E-01   4.0000001E-01   4.0000001E-01   4.0000001E-01   4.0000001E-01   4.0000001E-01   4.0000001E-01   4.0000001E-01   4.0000001E-01   4.0000001E-01   4.0000001E-01   4.0000001E-01   4.0000001E-01   4.0000001E-01   4.0000001E-01   4.0000001E-01   4.0000001E-01   4.0000001E-01   4.0000001E-01   4.0000001E-01   4.0000001E-01   4.0000001E-01   4.0000001E-01   4.0000001E-01   4.0000001E-01   4.0000001E-01   4.0000001E-01   4.0000001E-01   4.0000001E-01   4.0000001E-01   4.0000001E-01   4.0000001E-01   4.0000001E-01   4.0000001E-01   4.0000001E-01   4.0000001E-01   4.0000001E-01   4.0000001E-01   4.0000001E-01   4.0000001E-01   4.0000001E-01   4.0000001E-01   4.0000001E-01   4.0000001E-01   4.0000001E-01   4.0000001E-01   4.0000001E-01   4.0000001E-01   4.0000001E-01   4.0000001E-01   4.0000001E-01   4.0000001E-01   4.0000001E-01   4.0000001E-01   4.0000001E-01   4.0000001E-01   4.0000001E-01   4.0000001E-01   4.0000001E-01   4.0000001E-01   4.0000001E-01   4.0000001E-01   4.0000001E-01   4.0000001E-01   4.0000001E-01   4.0000001E-01   4.0000001E-01   4.0000001E-01   4.0000001E-01   4.0000001E-01   4.0000001E-01   4.0000001E-01   4.0000001E-01   4.0000001E-01   4.0000001E-01   4.0000001E-01   4.0000001E-01   4.0000001E-01   4.0000001E-01   4.0000001E-01   4.0000001E-01   4.0000001E-01   4.0000001E-01   4.0000001E-01   4.0000001E-01   4.0000001E-01   4.0000001E-01   4.0000001E-01   4.0000001E-01   4.0000001E-01   4.0000001E-01   4.0000001E-01   4.0000001E-01   4.0000001E-01   4.0000001E-01   4.0000001E-01   4.0000001E-01   4.0000001E-01   4.0000001E-01   4.0000001E-01   4.0000001E-01   4.0000001E-01   4.0000001E-01   4.0000001E-01   4.0000001E-01   4.0000001E-01   4.0000001E-01   4.0000001E-01   4.0000001E-01   4.0000001E-01   4.0000001E-01   4.0000001E-01   4.0000001E-01   4.0000001E-01   4.0000001E-01   4.0000001E-01   4.0000001E-01   4.0000001E-01   4.0000001E-01   4.0000001E-01   4.0000001E-01   4.0000001E-01   4.0000001E-01   4.0000001E-01   4.0000001E-01   4.0000001E-01   4.0000001E-01   4.0000001E-01   4.0000001E-01   4.0000001E-01   4.0000001E-01   4.0000001E-01   4.0000001E-01   4.0000001E-01   4.0000001E-01   4.0000001E-01   4.0000001E-01   4.0000001E-01   4.0000001E-01   4.0000001E-01   4.0000001E-01   4.0000001E-01   4.0000001E-01   4.0000001E-01   4.0000001E-01   4.0000001E-01   4.0000001E-01   4.0000001E-01   4.0000001E-01   4.0000001E-01   4.0000001E-01   4.0000001E-01   4.0000001E-01   4.0000001E-01   4.0000001E-01   4.0000001E-01   4.0000001E-01   4.0000001E-01   4.0000001E-01   4.0000001E-01   4.0000001E-01   4.0000001E-01   4.0000001E-01   4.0000001E-01   4.0000001E-01   4.0000001E-01   4.0000001E-01   4.0000001E-01   4.0000001E-01   4.0000001E-01   4.0000001E-01   4.0000001E-01   4.0000001E-01   4.0000001E-01   4.0000001E-01   4.0000001E-01   4.0000001E-01   4.0000001E-01   4.0000001E-01   4.0000001E-01   4.0000001E-01   4.0000001E-01   4.0000001E-01   4.0000001E-01   4.0000001E-01   4.0000001E-01   4.0000001E-01   4.0000001E-01   4.0000001E-01   4.0000001E-01   4.0000001E-01   4.0000001E-01   4.0000001E-01   4.0000001E-01   4.0000001E-01   4.0000001E-01   4.0000001E-01   4.0000001E-01   4.0000001E-01   4.0000001E-01   4.0000001E-01   4.0000001E-01   4.0000001E-01   4.0000001E-01   4.0000001E-01   4.0000001E-01   4.0000001E-01   4.0000001E-01   4.0000001E-01   4.0000001E-01   4.0000001E-01   4.0000001E-01   4.0000001E-01   4.0000001E-01   4.0000001E-01   4.0000001E-01   4.0000001E-01   4.0000001E-01   4.0000001E-01   4.0000001E-01   4.0000001E-01   4.0000001E-01   4.0000001E-01   4.0000001E-01   4.0000001E-01   4.0000001E-01   4.0000001E-01   4.0000001E-01   4.0000001E-01   4.0000001E-01   4.0000001E-01   4.0000001E-01   4.0000001E-01   4.0000001E-01   4.0000001E-01   4.0000001E-01   4.0000001E-01   4.0000001E-01   4.0000001E-01   4.0000001E-01   4.0000001E-01   4.0000001E-01   4.0000001E-01   4.0000001E-01   4.0000001E-01   4.0000001E-01   4.0000001E-01   4.0000001E-01   4.0000001E-01   4.0000001E-01   4.0000001E-01   4.0000001E-01   4.0000001E-01   4.0000001E-01   4.0000001E-01   4.0000001E-01   4.0000001E-01   4.0000001E-01   4.0000001E-01   4.0000001E-01   4.0000001E-01   4.0000001E-01   4.0000001E-01   4.0000001E-01   4.0000001E-01   4.0000001E-01   4.0000001E-01   4.0000001E-01   4.0000001E-01   4.0000001E-01   4.0000001E-01   4.0000001E-01   4.0000001E-01   4.0000001E-01   4.0000001E-01   4.0000001E-01   4.0000001E-01   4.0000001E-01   4.0000001E-01   4.0000001E-01   4.0000001E-01   4.0000001E-01   4.0000001E-01   4.0000001E-01   4.0000001E-01   4.0000001E-01   4.0000001E-01   4.0000001E-01   4.0000001E-01   4.0000001E-01   4.0000001E-01   4.0000001E-01   4.0000001E-01   4.0000001E-01   4.0000001E-01   4.0000001E-01   4.0000001E-01   4.0000001E-01   4.0000001E-01   4.0000001E-01   4.0000001E-01   4.0000001E-01   4.0000001E-01   4.0000001E-01   4.0000001E-01   4.0000001E-01   4.0000001E-01   4.0000001E-01   4.0000001E-01   4.0000001E-01   4.0000001E-01   4.0000001E-01   4.0000001E-01   4.0000001E-01   4.0000001E-01   4.0000001E-01   4.0000001E-01   4.0000001E-01   4.0000001E-01   4.0000001E-01   4.0000001E-01   4.0000001E-01   4.0000001E-01   4.0000001E-01   4.0000001E-01   4.0000001E-01   4.0000001E-01   4.0000001E-01   4.0000001E-01   4.0000001E-01   4.0000001E-01   4.0000001E-01   4.0000001E-01   4.0000001E-01   4.0000001E-01   4.0000001E-01   4.0000001E-01   4.0000001E-01   4.0000001E-01   4.0000001E-01   4.0000001E-01   4.0000001E-01   4.0000001E-01   4.0000001E-01   4.0000001E-01   4.0000001E-01   4.0000001E-01   4.0000001E-01   4.0000001E-01   4.0000001E-01   4.0000001E-01   4.0000001E-01   4.0000001E-01   4.0000001E-01   4.0000001E-01   4.0000001E-01   4.0000001E-01   4.0000001E-01   4.0000001E-01   4.0000001E-01   4.0000001E-01   4.0000001E-01   4.0000001E-01   4.0000001E-01   4.0000001E-01   4.0000001E-01   4.0000001E-01   4.0000001E-01   4.0000001E-01   4.0000001E-01   4.0000001E-01   4.0000001E-01   4.0000001E-01   4.0000001E-01   4.0000001E-01   4.0000001E-01   4.0000001E-01   4.0000001E-01   4.0000001E-01   4.0000001E-01   4.0000001E-01   4.0000001E-01   4.0000001E-01   4.0000001E-01   4.0000001E-01   4.0000001E-01   4.0000001E-01   4.0000001E-01   4.0000001E-01   4.0000001E-01   4.0000001E-01   4.0000001E-01   4.0000001E-01   4.0000001E-01   4.0000001E-01   4.0000001E-01   4.0000001E-01   4.0000001E-01   4.0000001E-01   4.0000001E-01   4.0000001E-01   4.0000001E-01   4.0000001E-01   4.0000001E-01   4.0000001E-01   4.0000001E-01   4.0000001E-01   4.0000001E-01   4.0000001E-01   4.0000001E-01   4.0000001E-01   4.0000001E-01   4.0000001E-01   4.0000001E-01   4.0000001E-01   4.0000001E-01   4.0000001E-01   4.0000001E-01   4.0000001E-01   4.0000001E-01   4.0000001E-01   4.0000001E-01   4.0000001E-01   4.0000001E-01   4.0000001E-01   4.0000001E-01   4.0000001E-01   4.0000001E-01   4.0000001E-01   4.0000001E-01   4.0000001E-01   4.0000001E-01   4.0000001E-01   4.0000001E-01   4.0000001E-01   4.0000001E-01   4.0000001E-01   4.0000001E-01   4.0000001E-01   4.0000001E-01   4.0000001E-01   4.0000001E-01   4.0000001E-01   4.0000001E-01   4.0000001E-01   4.0000001E-01   4.0000001E-01   4.0000001E-01   4.0000001E-01   4.0000001E-01   4.0000001E-01   4.0000001E-01   4.0000001E-01   4.0000001E-01   4.0000001E-01   4.0000001E-01   4.0000001E-01   4.0000001E-01   4.0000001E-01   4.0000001E-01   4.0000001E-01   4.0000001E-01   4.0000001E-01   4.0000001E-01   4.0000001E-01   4.0000001E-01   4.0000001E-01   4.0000001E-01   4.0000001E-01   4.0000001E-01   4.0000001E-01   4.0000001E-01   4.0000001E-01   4.0000001E-01   4.0000001E-01   4.0000001E-01   4.0000001E-01   4.0000001E-01   4.0000001E-01   4.0000001E-01   4.0000001E-01   4.0000001E-01   4.0000001E-01   4.0000001E-01   4.0000001E-01   4.0000001E-01   4.0000001E-01   4.0000001E-01   4.0000001E-01   4.0000001E-01   4.0000001E-01   4.0000001E-01   4.0000001E-01   4.0000001E-01   4.0000001E-01   4.0000001E-01   4.0000001E-01   4.0000001E-01   4.0000001E-01   4.0000001E-01   4.0000001E-01   4.0000001E-01   4.0000001E-01   4.0000001E-01   4.0000001E-01   4.0000001E-01   4.0000001E-01   4.0000001E-01   4.0000001E-01   4.0000001E-01   4.0000001E-01   4.0000001E-01   4.0000001E-01   4.0000001E-01   4.0000001E-01   4.0000001E-01   4.0000001E-01   4.0000001E-01   4.0000001E-01   4.0000001E-01   4.0000001E-01   4.0000001E-01   4.0000001E-01   4.0000001E-01   4.0000001E-01   4.0000001E-01   4.0000001E-01   4.0000001E-01   4.0000001E-01   4.0000001E-01   4.0000001E-01   4.0000001E-01   4.0000001E-01   4.0000001E-01   4.0000001E-01   4.0000001E-01   4.0000001E-01   4.0000001E-01   4.0000001E-01   4.0000001E-01   4.0000001E-01   4.0000001E-01   4.0000001E-01   4.0000001E-01   4.0000001E-01   4.0000001E-01   4.0000001E-01   4.0000001E-01   4.0000001E-01   4.0000001E-01   4.0000001E-01   4.0000001E-01   4.0000001E-01   4.0000001E-01   4.0000001E-01   4.0000001E-01   4.0000001E-01   4.0000001E-01   4.0000001E-01   4.0000001E-01   4.0000001E-01   4.0000001E-01   4.0000001E-01   4.0000001E-01   4.0000001E-01   4.0000001E-01   4.0000001E-01   4.0000001E-01   4.0000001E-01   4.0000001E-01   4.0000001E-01   4.0000001E-01   4.0000001E-01   4.0000001E-01   4.0000001E-01   4.0000001E-01   4.0000001E-01   4.0000001E-01   4.0000001E-01   4.0000001E-01   4.0000001E-01   4.0000001E-01   4.0000001E-01   4.0000001E-01   4.0000001E-01   4.0000001E-01   4.0000001E-01   4.0000001E-01   4.0000001E-01   4.0000001E-01   4.0000001E-01   4.0000001E-01   4.0000001E-01   4.0000001E-01   4.0000001E-01   4.0000001E-01   4.0000001E-01   4.0000001E-01   4.0000001E-01   4.0000001E-01   4.0000001E-01   4.0000001E-01   4.0000001E-01   4.0000001E-01   4.0000001E-01   4.0000001E-01   4.0000001E-01   4.0000001E-01   4.0000001E-01   4.0000001E-01   4.0000001E-01   4.0000001E-01   4.0000001E-01   4.0000001E-01   4.0000001E-01   4.0000001E-01   4.0000001E-01   4.0000001E-01   4.0000001E-01   4.0000001E-01   4.0000001E-01   4.0000001E-01   4.0000001E-01   4.0000001E-01   4.0000039E-01   4.0000042E-01   4.0000045E-01   4.0000036E-01   4.0000045E-01   4.0000045E-01   4.0000117E-01   4.0000114E-01   4.0000123E-01   4.0000117E-01   4.0000120E-01   4.0000111E-01   4.0000278E-01   4.0000287E-01   4.0000281E-01   4.0000284E-01   4.0000281E-01   4.0000284E-01   4.0000772E-01   4.0000775E-01   4.0000775E-01   4.0000775E-01   4.0000778E-01   4.0000778E-01   4.0002075E-01   4.0002072E-01   4.0002072E-01   4.0002078E-01   4.0002078E-01   4.0002081E-01   4.0005577E-01   4.0005577E-01   4.0005574E-01   4.0005583E-01   4.0005592E-01   4.0005577E-01   4.0014887E-01   4.0014887E-01   4.0014893E-01   4.0014893E-01   4.0014890E-01   4.0014896E-01   4.0038523E-01   4.0038532E-01   4.0038541E-01   4.0038547E-01   4.0038556E-01   4.0038550E-01   4.0092668E-01   4.0092680E-01   4.0092701E-01   4.0092704E-01   4.0092710E-01   4.0092716E-01   4.0191907E-01   4.0191942E-01   4.0191954E-01   4.0191960E-01   4.0191975E-01   4.0191960E-01   4.0316755E-01   4.0316787E-01   4.0316781E-01   4.0316772E-01   4.0316769E-01   4.0316769E-01   4.0416446E-01   4.0416479E-01   4.0416437E-01   4.0416402E-01   4.0416375E-01   4.0416363E-01   4.0471008E-01   4.0471026E-01   4.0470979E-01   4.0470934E-01   4.0470892E-01   4.0470859E-01   4.0494856E-01   4.0494889E-01   4.0494838E-01   4.0494773E-01   4.0494743E-01   4.0494710E-01   4.0504235E-01   4.0504265E-01   4.0504241E-01   4.0504181E-01   4.0504131E-01   4.0504095E-01   4.0507764E-01   4.0507799E-01   4.0507779E-01   4.0507725E-01   4.0507689E-01   4.0507650E-01   4.0509045E-01   4.0509096E-01   4.0509069E-01   4.0509021E-01   4.0508980E-01   4.0508941E-01   4.0509400E-01   4.0509453E-01   4.0509433E-01   4.0509379E-01   4.0509346E-01   4.0509298E-01   4.0508807E-01   4.0508854E-01   4.0508828E-01   4.0508786E-01   4.0508741E-01   4.0508705E-01   4.0500575E-01   4.0500617E-01   4.0500590E-01   4.0500540E-01   4.0500510E-01   4.0500468E-01   4.0484369E-01   4.0484414E-01   4.0484387E-01   4.0484348E-01   4.0484309E-01   4.0484273E-01   4.0461129E-01   4.0461162E-01   4.0461141E-01   4.0461102E-01   4.0461066E-01   4.0461031E-01   4.0432110E-01   4.0432137E-01   4.0432119E-01   4.0432075E-01   4.0432048E-01   4.0432027E-01   4.0398809E-01   4.0398824E-01   4.0398809E-01   4.0398782E-01   4.0398750E-01   4.0398729E-01   4.0362811E-01   4.0362832E-01   4.0362814E-01   4.0362784E-01   4.0362769E-01   4.0362749E-01   4.0325695E-01   4.0325704E-01   4.0325701E-01   4.0325674E-01   4.0325657E-01   4.0325648E-01   4.0288904E-01   4.0288901E-01   4.0288889E-01   4.0288880E-01   4.0288869E-01   4.0288857E-01   4.0253621E-01   4.0253633E-01   4.0253615E-01   4.0253603E-01   4.0253606E-01   4.0253580E-01   4.0220815E-01   4.0220830E-01   4.0220839E-01   4.0220824E-01   4.0220812E-01   4.0220809E-01   4.0191174E-01   4.0191180E-01   4.0191185E-01   4.0191188E-01   4.0191177E-01   4.0191171E-01   4.0165070E-01   4.0165085E-01   4.0165073E-01   4.0165076E-01   4.0165082E-01   4.0165073E-01   4.0142649E-01   4.0142664E-01   4.0142649E-01   4.0142658E-01   4.0142649E-01   4.0142661E-01   4.0123856E-01   4.0123850E-01   4.0123853E-01   4.0123865E-01   4.0123856E-01   4.0108427E-01   4.0108433E-01   4.0108436E-01   4.0108427E-01   4.0108436E-01   4.0096074E-01   4.0096062E-01   4.0096065E-01   4.0096065E-01   4.0086362E-01   4.0086368E-01   4.0086365E-01   4.0086374E-01   4.0078908E-01   4.0078908E-01   4.0078914E-01   4.0073302E-01   4.0073299E-01   4.0069160E-01   4.0069172E-01   4.0000001E-01   4.0000001E-01   4.0000001E-01   4.0000001E-01   4.0000001E-01   4.0000001E-01   4.0000001E-01   4.0000001E-01   4.0000001E-01   4.0000001E-01   4.0000001E-01   4.0000001E-01   4.0000001E-01   4.0000001E-01   4.0000001E-01   4.0000001E-01   4.0000001E-01   4.0000001E-01   4.0000001E-01   4.0000001E-01   4.0000001E-01   4.0000001E-01   4.0000001E-01   4.0000001E-01   4.0000001E-01   4.0000001E-01   4.0000001E-01   4.0000001E-01   4.0000001E-01   4.0000001E-01   4.0000001E-01   4.0000001E-01   4.0000001E-01   4.0000001E-01   4.0000001E-01   4.0000001E-01   4.0000001E-01   4.0000001E-01   4.0000001E-01   4.0000001E-01   4.0000001E-01   4.0000001E-01   4.0000001E-01   4.0000001E-01   4.0000001E-01   4.0000001E-01   4.0000001E-01   4.0000001E-01   4.0000001E-01   4.0000001E-01   4.0000001E-01   4.0000001E-01   4.0000001E-01   4.0000001E-01   4.0000001E-01   4.0000001E-01   4.0000001E-01   4.0000001E-01   4.0000001E-01   4.0000001E-01   4.0000001E-01   4.0000001E-01   4.0000001E-01   4.0000001E-01   4.0000001E-01   4.0000001E-01   4.0000001E-01   4.0000001E-01   4.0000001E-01   4.0000001E-01   4.0000001E-01   4.0000001E-01   4.0000001E-01   4.0000001E-01   4.0000001E-01   4.0000001E-01   4.0000001E-01   4.0000001E-01   4.0000001E-01   4.0000001E-01   4.0000001E-01   4.0000001E-01   4.0000001E-01   4.0000001E-01   4.0000001E-01   4.0000001E-01   4.0000001E-01   4.0000001E-01   4.0000001E-01   4.0000001E-01   4.0000001E-01   4.0000001E-01   4.0000001E-01   4.0000001E-01   4.0000001E-01   4.0000001E-01   4.0000001E-01   4.0000001E-01   4.0000001E-01   4.0000001E-01   4.0000001E-01   4.0000001E-01   4.0000001E-01   4.0000001E-01   4.0000001E-01   4.0000001E-01   4.0000001E-01   4.0000001E-01   4.0000001E-01   4.0000001E-01   4.0000001E-01   4.0000001E-01   4.0000001E-01   4.0000001E-01   4.0000001E-01   4.0000001E-01   4.0000001E-01   4.0000001E-01   4.0000001E-01   4.0000001E-01   4.0000001E-01   4.0000001E-01   4.0000001E-01   4.0000001E-01   4.0000001E-01   4.0000001E-01   4.0000001E-01   4.0000001E-01   4.0000001E-01   4.0000001E-01   4.0000001E-01   4.0000001E-01   4.0000001E-01   4.0000001E-01   4.0000001E-01   4.0000001E-01   4.0000001E-01   4.0000001E-01   4.0000001E-01   4.0000001E-01   4.0000001E-01   4.0000001E-01   4.0000001E-01   4.0000001E-01   4.0000001E-01   4.0000001E-01   4.0000001E-01   4.0000001E-01   4.0000001E-01   4.0000001E-01   4.0000001E-01   4.0000001E-01   4.0000001E-01   4.0000001E-01   4.0000001E-01   4.0000001E-01   4.0000001E-01   4.0000001E-01   4.0000001E-01   4.0000001E-01   4.0000001E-01   4.0000001E-01   4.0000001E-01   4.0000001E-01   4.0000001E-01   4.0000001E-01   4.0000001E-01   4.0000001E-01   4.0000001E-01   4.0000001E-01   4.0000001E-01   4.0000001E-01   4.0000001E-01   4.0000001E-01   4.0000001E-01   4.0000001E-01   4.0000001E-01   4.0000001E-01   4.0000001E-01   4.0000001E-01   4.0000001E-01   4.0000001E-01   4.0000001E-01   4.0000001E-01   4.0000001E-01   4.0000001E-01   4.0000001E-01   4.0000001E-01   4.0000001E-01   4.0000001E-01   4.0000001E-01   4.0000001E-01   4.0000001E-01   4.0000001E-01   4.0000001E-01   4.0000001E-01   4.0000001E-01   4.0000001E-01   4.0000001E-01   4.0000001E-01   4.0000001E-01   4.0000001E-01   4.0000001E-01   4.0000001E-01   4.0000001E-01   4.0000001E-01   4.0000001E-01   4.0000039E-01   4.0000036E-01   4.0000048E-01   4.0000045E-01   4.0000039E-01   4.0000039E-01   4.0000036E-01   4.0000039E-01   4.0000039E-01   4.0000129E-01   4.0000126E-01   4.0000123E-01   4.0000117E-01   4.0000126E-01   4.0000120E-01   4.0000126E-01   4.0000123E-01   4.0000120E-01   4.0000275E-01   4.0000281E-01   4.0000275E-01   4.0000278E-01   4.0000278E-01   4.0000269E-01   4.0000272E-01   4.0000284E-01   4.0000284E-01   4.0000775E-01   4.0000787E-01   4.0000775E-01   4.0000778E-01   4.0000778E-01   4.0000775E-01   4.0000790E-01   4.0000778E-01   4.0000775E-01   4.0002066E-01   4.0002078E-01   4.0002063E-01   4.0002072E-01   4.0002069E-01   4.0002075E-01   4.0002078E-01   4.0002072E-01   4.0002072E-01   4.0005577E-01   4.0005577E-01   4.0005577E-01   4.0005583E-01   4.0005589E-01   4.0005580E-01   4.0005586E-01   4.0005592E-01   4.0005589E-01   4.0014896E-01   4.0014893E-01   4.0014896E-01   4.0014893E-01   4.0014893E-01   4.0014893E-01   4.0014893E-01   4.0014899E-01   4.0014893E-01   4.0038544E-01   4.0038553E-01   4.0038553E-01   4.0038544E-01   4.0038550E-01   4.0038553E-01   4.0038568E-01   4.0038556E-01   4.0038559E-01   4.0092707E-01   4.0092716E-01   4.0092734E-01   4.0092719E-01   4.0092725E-01   4.0092719E-01   4.0092725E-01   4.0092722E-01   4.0092719E-01   4.0191972E-01   4.0191978E-01   4.0191975E-01   4.0191969E-01   4.0191981E-01   4.0191981E-01   4.0191975E-01   4.0191975E-01   4.0191975E-01   4.0316752E-01   4.0316758E-01   4.0316752E-01   4.0316743E-01   4.0316737E-01   4.0316743E-01   4.0316734E-01   4.0316743E-01   4.0316740E-01   4.0416336E-01   4.0416327E-01   4.0416309E-01   4.0416291E-01   4.0416291E-01   4.0416276E-01   4.0416279E-01   4.0416262E-01   4.0416268E-01   4.0470830E-01   4.0470791E-01   4.0470776E-01   4.0470755E-01   4.0470731E-01   4.0470731E-01   4.0470725E-01   4.0470722E-01   4.0470713E-01   4.0494671E-01   4.0494630E-01   4.0494609E-01   4.0494579E-01   4.0494555E-01   4.0494552E-01   4.0494531E-01   4.0494522E-01   4.0494525E-01   4.0504050E-01   4.0504017E-01   4.0503973E-01   4.0503961E-01   4.0503940E-01   4.0503916E-01   4.0503907E-01   4.0503898E-01   4.0503901E-01   4.0507591E-01   4.0507555E-01   4.0507522E-01   4.0507492E-01   4.0507472E-01   4.0507457E-01   4.0507445E-01   4.0507439E-01   4.0507436E-01   4.0508893E-01   4.0508854E-01   4.0508822E-01   4.0508789E-01   4.0508774E-01   4.0508750E-01   4.0508741E-01   4.0508735E-01   4.0508726E-01   4.0509254E-01   4.0509212E-01   4.0509176E-01   4.0509146E-01   4.0509126E-01   4.0509117E-01   4.0509108E-01   4.0509093E-01   4.0509081E-01   4.0508661E-01   4.0508613E-01   4.0508583E-01   4.0508559E-01   4.0508527E-01   4.0508518E-01   4.0508509E-01   4.0508500E-01   4.0508494E-01   4.0500432E-01   4.0500385E-01   4.0500349E-01   4.0500328E-01   4.0500304E-01   4.0500295E-01   4.0500277E-01   4.0500268E-01   4.0500265E-01   4.0484238E-01   4.0484190E-01   4.0484157E-01   4.0484139E-01   4.0484121E-01   4.0484110E-01   4.0484098E-01   4.0484086E-01   4.0484083E-01   4.0461001E-01   4.0460962E-01   4.0460941E-01   4.0460920E-01   4.0460899E-01   4.0460894E-01   4.0460888E-01   4.0460879E-01   4.0460867E-01   4.0431997E-01   4.0431964E-01   4.0431949E-01   4.0431929E-01   4.0431908E-01   4.0431902E-01   4.0431899E-01   4.0431890E-01   4.0431893E-01   4.0398702E-01   4.0398681E-01   4.0398660E-01   4.0398642E-01   4.0398630E-01   4.0398622E-01   4.0398613E-01   4.0398616E-01   4.0398604E-01   4.0362722E-01   4.0362701E-01   4.0362686E-01   4.0362680E-01   4.0362665E-01   4.0362665E-01   4.0362662E-01   4.0362653E-01   4.0362653E-01   4.0325630E-01   4.0325606E-01   4.0325603E-01   4.0325582E-01   4.0325585E-01   4.0325576E-01   4.0325576E-01   4.0325579E-01   4.0325561E-01   4.0288842E-01   4.0288827E-01   4.0288821E-01   4.0288818E-01   4.0288809E-01   4.0288809E-01   4.0288800E-01   4.0288794E-01   4.0288800E-01   4.0253577E-01   4.0253574E-01   4.0253553E-01   4.0253547E-01   4.0253556E-01   4.0253553E-01   4.0253547E-01   4.0253547E-01   4.0253553E-01   4.0220806E-01   4.0220791E-01   4.0220788E-01   4.0220782E-01   4.0220779E-01   4.0220788E-01   4.0220779E-01   4.0220782E-01   4.0220782E-01   4.0191171E-01   4.0191159E-01   4.0191150E-01   4.0191147E-01   4.0191144E-01   4.0191144E-01   4.0191147E-01   4.0191141E-01   4.0191147E-01   4.0165067E-01   4.0165064E-01   4.0165061E-01   4.0165058E-01   4.0165052E-01   4.0165055E-01   4.0165058E-01   4.0165055E-01   4.0165049E-01   4.0142661E-01   4.0142658E-01   4.0142664E-01   4.0142661E-01   4.0142646E-01   4.0142652E-01   4.0142643E-01   4.0142652E-01   4.0142646E-01   4.0123844E-01   4.0123853E-01   4.0123853E-01   4.0123844E-01   4.0123838E-01   4.0123841E-01   4.0123844E-01   4.0123844E-01   4.0123844E-01   4.0108433E-01   4.0108442E-01   4.0108433E-01   4.0108436E-01   4.0108430E-01   4.0108436E-01   4.0108442E-01   4.0108430E-01   4.0108430E-01   4.0096074E-01   4.0096068E-01   4.0096074E-01   4.0096071E-01   4.0096059E-01   4.0096065E-01   4.0096068E-01   4.0096071E-01   4.0096059E-01   4.0086371E-01   4.0086374E-01   4.0086383E-01   4.0086365E-01   4.0086359E-01   4.0086365E-01   4.0086359E-01   4.0086371E-01   4.0086362E-01   4.0078911E-01   4.0078905E-01   4.0078917E-01   4.0078914E-01   4.0078905E-01   4.0078911E-01   4.0078908E-01   4.0078908E-01   4.0078905E-01   4.0073305E-01   4.0073296E-01   4.0073299E-01   4.0073302E-01   4.0073299E-01   4.0073293E-01   4.0073302E-01   4.0073293E-01   4.0073299E-01   4.0069166E-01   4.0069169E-01   4.0069157E-01   4.0069166E-01   4.0069169E-01   4.0069160E-01   4.0069163E-01   4.0069163E-01   4.0069157E-01   4.0066189E-01   4.0066180E-01   4.0066186E-01   4.0066186E-01   4.0066183E-01   4.0066180E-01   4.0066174E-01   4.0066177E-01   4.0066180E-01   4.0064079E-01   4.0064073E-01   4.0064073E-01   4.0064076E-01   4.0064070E-01   4.0064076E-01   4.0064082E-01   4.0064070E-01   4.0062609E-01   4.0062603E-01   4.0062597E-01   4.0062597E-01   4.0062600E-01   4.0062597E-01   4.0061602E-01   4.0061608E-01   4.0061617E-01   4.0061611E-01   4.0000001E-01   4.0000001E-01   4.0000001E-01   4.0000001E-01   4.0000001E-01   4.0000001E-01   4.0000001E-01   4.0000001E-01   4.0000001E-01   4.0000001E-01   4.0000001E-01   4.0000001E-01   4.0000001E-01   4.0000001E-01   4.0000001E-01   4.0000001E-01   4.0000001E-01   4.0000001E-01   4.0000001E-01   4.0000001E-01   4.0000001E-01   4.0000001E-01   4.0000001E-01   4.0000001E-01   4.0000001E-01   4.0000001E-01   4.0000001E-01   4.0000001E-01   4.0000001E-01   4.0000001E-01   4.0000001E-01   4.0000001E-01   4.0000001E-01   4.0000001E-01   4.0000001E-01   4.0000001E-01   4.0000001E-01   4.0000001E-01   4.0000001E-01   4.0000001E-01   4.0000001E-01   4.0000001E-01   4.0000001E-01   4.0000001E-01   4.0000001E-01   4.0000001E-01   4.0000001E-01   4.0000001E-01   4.0000001E-01   4.0000001E-01   4.0000001E-01   4.0000001E-01   4.0000001E-01   4.0000001E-01   4.0000001E-01   4.0000001E-01   4.0000001E-01   4.0000001E-01   4.0000001E-01   4.0000001E-01   4.0000001E-01   4.0000001E-01   4.0000001E-01   4.0000001E-01   4.0000001E-01   4.0000001E-01   4.0000001E-01   4.0000001E-01   4.0000001E-01   4.0000001E-01   4.0000001E-01   4.0000001E-01   4.0000001E-01   4.0000001E-01   4.0000001E-01   4.0000001E-01   4.0000001E-01   4.0000001E-01   4.0000001E-01   4.0000001E-01   4.0000001E-01   4.0000001E-01   4.0000001E-01   4.0000001E-01   4.0000001E-01   4.0000001E-01   4.0000001E-01   4.0000001E-01   4.0000001E-01   4.0000001E-01   4.0000001E-01   4.0000001E-01   4.0000001E-01   4.0000001E-01   4.0000001E-01   4.0000001E-01   4.0000001E-01   4.0000001E-01   4.0000001E-01   4.0000001E-01   4.0000001E-01   4.0000001E-01   4.0000001E-01   4.0000001E-01   4.0000001E-01   4.0000001E-01   4.0000001E-01   4.0000001E-01   4.0000001E-01   4.0000001E-01   4.0000001E-01   4.0000001E-01   4.0000001E-01   4.0000001E-01   4.0000001E-01   4.0000001E-01   4.0000001E-01   4.0000001E-01   4.0000001E-01   4.0000001E-01   4.0000001E-01   4.0000001E-01   4.0000001E-01   4.0000001E-01   4.0000001E-01   4.0000001E-01   4.0000001E-01   4.0000001E-01   4.0000001E-01   4.0000001E-01   4.0000001E-01   4.0000001E-01   4.0000001E-01   4.0000001E-01   4.0000001E-01   4.0000001E-01   4.0000001E-01   4.0000001E-01   4.0000001E-01   4.0000001E-01   4.0000001E-01   4.0000001E-01   4.0000001E-01   4.0000001E-01   4.0000001E-01   4.0000001E-01   4.0000001E-01   4.0000001E-01   4.0000001E-01   4.0000001E-01   4.0000001E-01   4.0000001E-01   4.0000001E-01   4.0000001E-01   4.0000001E-01   4.0000001E-01   4.0000001E-01   4.0000001E-01   4.0000001E-01   4.0000001E-01   4.0000001E-01   4.0000001E-01   4.0000001E-01   4.0000001E-01   4.0000001E-01   4.0000001E-01   4.0000001E-01   4.0000001E-01   4.0000001E-01   4.0000001E-01   4.0000001E-01   4.0000001E-01   4.0000001E-01   4.0000001E-01   4.0000001E-01   4.0000001E-01   4.0000001E-01   4.0000001E-01   4.0000001E-01   4.0000001E-01   4.0000001E-01   4.0000001E-01   4.0000001E-01   4.0000001E-01   4.0000045E-01   4.0000039E-01   4.0000039E-01   4.0000036E-01   4.0000039E-01   4.0000039E-01   4.0000045E-01   4.0000048E-01   4.0000123E-01   4.0000120E-01   4.0000123E-01   4.0000126E-01   4.0000120E-01   4.0000126E-01   4.0000117E-01   4.0000123E-01   4.0000287E-01   4.0000284E-01   4.0000284E-01   4.0000272E-01   4.0000269E-01   4.0000278E-01   4.0000278E-01   4.0000275E-01   4.0000778E-01   4.0000775E-01   4.0000778E-01   4.0000790E-01   4.0000775E-01   4.0000778E-01   4.0000778E-01   4.0000775E-01   4.0002084E-01   4.0002072E-01   4.0002072E-01   4.0002078E-01   4.0002075E-01   4.0002069E-01   4.0002072E-01   4.0002063E-01   4.0005583E-01   4.0005589E-01   4.0005592E-01   4.0005586E-01   4.0005580E-01   4.0005589E-01   4.0005583E-01   4.0005577E-01   4.0014899E-01   4.0014893E-01   4.0014899E-01   4.0014893E-01   4.0014893E-01   4.0014893E-01   4.0014893E-01   4.0014896E-01   4.0038556E-01   4.0038559E-01   4.0038556E-01   4.0038568E-01   4.0038553E-01   4.0038550E-01   4.0038544E-01   4.0038553E-01   4.0092713E-01   4.0092719E-01   4.0092722E-01   4.0092725E-01   4.0092719E-01   4.0092725E-01   4.0092719E-01   4.0092734E-01   4.0191984E-01   4.0191975E-01   4.0191975E-01   4.0191975E-01   4.0191981E-01   4.0191981E-01   4.0191969E-01   4.0191975E-01   4.0316740E-01   4.0316740E-01   4.0316743E-01   4.0316734E-01   4.0316743E-01   4.0316737E-01   4.0316743E-01   4.0316752E-01   4.0416279E-01   4.0416268E-01   4.0416262E-01   4.0416279E-01   4.0416276E-01   4.0416291E-01   4.0416291E-01   4.0416309E-01   4.0470710E-01   4.0470713E-01   4.0470722E-01   4.0470725E-01   4.0470731E-01   4.0470731E-01   4.0470755E-01   4.0470776E-01   4.0494522E-01   4.0494525E-01   4.0494522E-01   4.0494531E-01   4.0494552E-01   4.0494555E-01   4.0494579E-01   4.0494609E-01   4.0503889E-01   4.0503901E-01   4.0503898E-01   4.0503907E-01   4.0503916E-01   4.0503940E-01   4.0503961E-01   4.0503973E-01   4.0507418E-01   4.0507436E-01   4.0507439E-01   4.0507445E-01   4.0507457E-01   4.0507472E-01   4.0507492E-01   4.0507522E-01   4.0508720E-01   4.0508726E-01   4.0508735E-01   4.0508741E-01   4.0508750E-01   4.0508774E-01   4.0508789E-01   4.0508822E-01   4.0509081E-01   4.0509081E-01   4.0509093E-01   4.0509108E-01   4.0509117E-01   4.0509126E-01   4.0509146E-01   4.0509176E-01   4.0508485E-01   4.0508494E-01   4.0508500E-01   4.0508509E-01   4.0508518E-01   4.0508527E-01   4.0508559E-01   4.0508583E-01   4.0500253E-01   4.0500265E-01   4.0500268E-01   4.0500277E-01   4.0500295E-01   4.0500304E-01   4.0500328E-01   4.0500349E-01   4.0484089E-01   4.0484083E-01   4.0484086E-01   4.0484098E-01   4.0484110E-01   4.0484121E-01   4.0484139E-01   4.0484157E-01   4.0460867E-01   4.0460867E-01   4.0460879E-01   4.0460888E-01   4.0460894E-01   4.0460899E-01   4.0460920E-01   4.0460941E-01   4.0431893E-01   4.0431893E-01   4.0431890E-01   4.0431899E-01   4.0431902E-01   4.0431908E-01   4.0431929E-01   4.0431949E-01   4.0398613E-01   4.0398604E-01   4.0398616E-01   4.0398613E-01   4.0398622E-01   4.0398630E-01   4.0398642E-01   4.0398660E-01   4.0362650E-01   4.0362653E-01   4.0362653E-01   4.0362662E-01   4.0362665E-01   4.0362665E-01   4.0362680E-01   4.0362686E-01   4.0325570E-01   4.0325561E-01   4.0325579E-01   4.0325576E-01   4.0325576E-01   4.0325585E-01   4.0325582E-01   4.0325603E-01   4.0288800E-01   4.0288800E-01   4.0288794E-01   4.0288800E-01   4.0288809E-01   4.0288809E-01   4.0288818E-01   4.0288821E-01   4.0253553E-01   4.0253553E-01   4.0253547E-01   4.0253547E-01   4.0253553E-01   4.0253556E-01   4.0253547E-01   4.0253553E-01   4.0220773E-01   4.0220782E-01   4.0220782E-01   4.0220779E-01   4.0220788E-01   4.0220779E-01   4.0220782E-01   4.0220788E-01   4.0191141E-01   4.0191147E-01   4.0191141E-01   4.0191147E-01   4.0191144E-01   4.0191144E-01   4.0191147E-01   4.0191150E-01   4.0165049E-01   4.0165049E-01   4.0165055E-01   4.0165058E-01   4.0165055E-01   4.0165052E-01   4.0165058E-01   4.0165061E-01   4.0142652E-01   4.0142646E-01   4.0142652E-01   4.0142643E-01   4.0142652E-01   4.0142646E-01   4.0142661E-01   4.0142664E-01   4.0123835E-01   4.0123844E-01   4.0123844E-01   4.0123844E-01   4.0123841E-01   4.0123838E-01   4.0123844E-01   4.0123853E-01   4.0108427E-01   4.0108430E-01   4.0108430E-01   4.0108442E-01   4.0108436E-01   4.0108430E-01   4.0108436E-01   4.0108433E-01   4.0096065E-01   4.0096059E-01   4.0096071E-01   4.0096068E-01   4.0096065E-01   4.0096059E-01   4.0096071E-01   4.0096074E-01   4.0086368E-01   4.0086362E-01   4.0086371E-01   4.0086359E-01   4.0086365E-01   4.0086359E-01   4.0086365E-01   4.0086383E-01   4.0078902E-01   4.0078905E-01   4.0078908E-01   4.0078908E-01   4.0078911E-01   4.0078905E-01   4.0078914E-01   4.0078917E-01   4.0073290E-01   4.0073299E-01   4.0073293E-01   4.0073302E-01   4.0073293E-01   4.0073299E-01   4.0073302E-01   4.0073299E-01   4.0069157E-01   4.0069157E-01   4.0069163E-01   4.0069163E-01   4.0069160E-01   4.0069169E-01   4.0069166E-01   4.0069157E-01   4.0066183E-01   4.0066180E-01   4.0066177E-01   4.0066174E-01   4.0066180E-01   4.0066183E-01   4.0066186E-01   4.0066186E-01   4.0064076E-01   4.0064070E-01   4.0064082E-01   4.0064076E-01   4.0064070E-01   4.0064076E-01   4.0064073E-01   4.0064073E-01   4.0062603E-01   4.0062597E-01   4.0062600E-01   4.0062597E-01   4.0062597E-01   4.0062603E-01   4.0062609E-01   4.0061611E-01   4.0061611E-01   4.0061617E-01   4.0061608E-01   4.0061602E-01   4.0000001E-01   4.0000001E-01   4.0000001E-01   4.0000001E-01   4.0000001E-01   4.0000001E-01   4.0000001E-01   4.0000001E-01   4.0000001E-01   4.0000001E-01   4.0000001E-01   4.0000001E-01   4.0000001E-01   4.0000001E-01   4.0000001E-01   4.0000001E-01   4.0000001E-01   4.0000001E-01   4.0000001E-01   4.0000001E-01   4.0000001E-01   4.0000001E-01   4.0000001E-01   4.0000001E-01   4.0000001E-01   4.0000001E-01   4.0000001E-01   4.0000001E-01   4.0000001E-01   4.0000001E-01   4.0000001E-01   4.0000001E-01   4.0000001E-01   4.0000001E-01   4.0000001E-01   4.0000001E-01   4.0000001E-01   4.0000001E-01   4.0000001E-01   4.0000001E-01   4.0000001E-01   4.0000001E-01   4.0000001E-01   4.0000001E-01   4.0000001E-01   4.0000001E-01   4.0000001E-01   4.0000001E-01   4.0000001E-01   4.0000001E-01   4.0000001E-01   4.0000001E-01   4.0000001E-01   4.0000001E-01   4.0000001E-01   4.0000001E-01   4.0000001E-01   4.0000001E-01   4.0000001E-01   4.0000001E-01   4.0000001E-01   4.0000001E-01   4.0000001E-01   4.0000001E-01   4.0000001E-01   4.0000001E-01   4.0000001E-01   4.0000001E-01   4.0000001E-01   4.0000001E-01   4.0000001E-01   4.0000001E-01   4.0000001E-01   4.0000001E-01   4.0000001E-01   4.0000001E-01   4.0000001E-01   4.0000001E-01   4.0000001E-01   4.0000001E-01   4.0000001E-01   4.0000001E-01   4.0000001E-01   4.0000001E-01   4.0000001E-01   4.0000001E-01   4.0000001E-01   4.0000001E-01   4.0000001E-01   4.0000001E-01   4.0000001E-01   4.0000001E-01   4.0000001E-01   4.0000001E-01   4.0000001E-01   4.0000001E-01   4.0000001E-01   4.0000001E-01   4.0000001E-01   4.0000001E-01   4.0000001E-01   4.0000001E-01   4.0000001E-01   4.0000001E-01   4.0000001E-01   4.0000001E-01   4.0000001E-01   4.0000001E-01   4.0000001E-01   4.0000001E-01   4.0000001E-01   4.0000001E-01   4.0000001E-01   4.0000001E-01   4.0000001E-01   4.0000001E-01   4.0000001E-01   4.0000001E-01   4.0000001E-01   4.0000001E-01   4.0000001E-01   4.0000001E-01   4.0000001E-01   4.0000001E-01   4.0000001E-01   4.0000001E-01   4.0000001E-01   4.0000001E-01   4.0000001E-01   4.0000001E-01   4.0000001E-01   4.0000001E-01   4.0000001E-01   4.0000001E-01   4.0000001E-01   4.0000001E-01   4.0000001E-01   4.0000001E-01   4.0000001E-01   4.0000001E-01   4.0000001E-01   4.0000001E-01   4.0000001E-01   4.0000001E-01   4.0000001E-01   4.0000001E-01   4.0000001E-01   4.0000001E-01   4.0000001E-01   4.0000001E-01   4.0000001E-01   4.0000001E-01   4.0000001E-01   4.0000001E-01   4.0000001E-01   4.0000001E-01   4.0000001E-01   4.0000001E-01   4.0000001E-01   4.0000001E-01   4.0000001E-01   4.0000001E-01   4.0000001E-01   4.0000001E-01   4.0000001E-01   4.0000001E-01   4.0000001E-01   4.0000001E-01   4.0000001E-01   4.0000001E-01   4.0000001E-01   4.0000001E-01   4.0000001E-01   4.0000001E-01   4.0000001E-01   4.0000001E-01   4.0000001E-01   4.0000001E-01   4.0000001E-01   4.0000001E-01   4.0000001E-01   4.0000001E-01   4.0000001E-01   4.0000036E-01   4.0000039E-01   4.0000045E-01   4.0000045E-01   4.0000036E-01   4.0000045E-01   4.0000042E-01   4.0000039E-01   4.0000126E-01   4.0000129E-01   4.0000111E-01   4.0000120E-01   4.0000117E-01   4.0000123E-01   4.0000114E-01   4.0000117E-01   4.0000281E-01   4.0000275E-01   4.0000284E-01   4.0000281E-01   4.0000284E-01   4.0000281E-01   4.0000287E-01   4.0000278E-01   4.0000787E-01   4.0000775E-01   4.0000778E-01   4.0000778E-01   4.0000775E-01   4.0000775E-01   4.0000775E-01   4.0000772E-01   4.0002078E-01   4.0002066E-01   4.0002081E-01   4.0002078E-01   4.0002078E-01   4.0002072E-01   4.0002072E-01   4.0002075E-01   4.0005577E-01   4.0005577E-01   4.0005577E-01   4.0005592E-01   4.0005583E-01   4.0005574E-01   4.0005577E-01   4.0005577E-01   4.0014893E-01   4.0014896E-01   4.0014896E-01   4.0014890E-01   4.0014893E-01   4.0014893E-01   4.0014887E-01   4.0014887E-01   4.0038553E-01   4.0038544E-01   4.0038550E-01   4.0038556E-01   4.0038547E-01   4.0038541E-01   4.0038532E-01   4.0038523E-01   4.0092716E-01   4.0092707E-01   4.0092716E-01   4.0092710E-01   4.0092704E-01   4.0092701E-01   4.0092680E-01   4.0092668E-01   4.0191978E-01   4.0191972E-01   4.0191960E-01   4.0191975E-01   4.0191960E-01   4.0191954E-01   4.0191942E-01   4.0191907E-01   4.0316758E-01   4.0316752E-01   4.0316769E-01   4.0316769E-01   4.0316772E-01   4.0316781E-01   4.0316787E-01   4.0316755E-01   4.0416327E-01   4.0416336E-01   4.0416363E-01   4.0416375E-01   4.0416402E-01   4.0416437E-01   4.0416479E-01   4.0416446E-01   4.0470791E-01   4.0470830E-01   4.0470859E-01   4.0470892E-01   4.0470934E-01   4.0470979E-01   4.0471026E-01   4.0471008E-01   4.0494630E-01   4.0494671E-01   4.0494710E-01   4.0494743E-01   4.0494773E-01   4.0494838E-01   4.0494889E-01   4.0494856E-01   4.0504017E-01   4.0504050E-01   4.0504095E-01   4.0504131E-01   4.0504181E-01   4.0504241E-01   4.0504265E-01   4.0504235E-01   4.0507555E-01   4.0507591E-01   4.0507650E-01   4.0507689E-01   4.0507725E-01   4.0507779E-01   4.0507799E-01   4.0507764E-01   4.0508854E-01   4.0508893E-01   4.0508941E-01   4.0508980E-01   4.0509021E-01   4.0509069E-01   4.0509096E-01   4.0509045E-01   4.0509212E-01   4.0509254E-01   4.0509298E-01   4.0509346E-01   4.0509379E-01   4.0509433E-01   4.0509453E-01   4.0509400E-01   4.0508613E-01   4.0508661E-01   4.0508705E-01   4.0508741E-01   4.0508786E-01   4.0508828E-01   4.0508854E-01   4.0508807E-01   4.0500385E-01   4.0500432E-01   4.0500468E-01   4.0500510E-01   4.0500540E-01   4.0500590E-01   4.0500617E-01   4.0500575E-01   4.0484190E-01   4.0484238E-01   4.0484273E-01   4.0484309E-01   4.0484348E-01   4.0484387E-01   4.0484414E-01   4.0484369E-01   4.0460962E-01   4.0461001E-01   4.0461031E-01   4.0461066E-01   4.0461102E-01   4.0461141E-01   4.0461162E-01   4.0461129E-01   4.0431964E-01   4.0431997E-01   4.0432027E-01   4.0432048E-01   4.0432075E-01   4.0432119E-01   4.0432137E-01   4.0432110E-01   4.0398681E-01   4.0398702E-01   4.0398729E-01   4.0398750E-01   4.0398782E-01   4.0398809E-01   4.0398824E-01   4.0398809E-01   4.0362701E-01   4.0362722E-01   4.0362749E-01   4.0362769E-01   4.0362784E-01   4.0362814E-01   4.0362832E-01   4.0362811E-01   4.0325606E-01   4.0325630E-01   4.0325648E-01   4.0325657E-01   4.0325674E-01   4.0325701E-01   4.0325704E-01   4.0325695E-01   4.0288827E-01   4.0288842E-01   4.0288857E-01   4.0288869E-01   4.0288880E-01   4.0288889E-01   4.0288901E-01   4.0288904E-01   4.0253574E-01   4.0253577E-01   4.0253580E-01   4.0253606E-01   4.0253603E-01   4.0253615E-01   4.0253633E-01   4.0253621E-01   4.0220791E-01   4.0220806E-01   4.0220809E-01   4.0220812E-01   4.0220824E-01   4.0220839E-01   4.0220830E-01   4.0220815E-01   4.0191159E-01   4.0191171E-01   4.0191171E-01   4.0191177E-01   4.0191188E-01   4.0191185E-01   4.0191180E-01   4.0191174E-01   4.0165064E-01   4.0165067E-01   4.0165073E-01   4.0165082E-01   4.0165076E-01   4.0165073E-01   4.0165085E-01   4.0165070E-01   4.0142658E-01   4.0142661E-01   4.0142661E-01   4.0142649E-01   4.0142658E-01   4.0142649E-01   4.0142664E-01   4.0142649E-01   4.0123853E-01   4.0123844E-01   4.0123856E-01   4.0123865E-01   4.0123853E-01   4.0123850E-01   4.0123856E-01   4.0108442E-01   4.0108433E-01   4.0108436E-01   4.0108427E-01   4.0108436E-01   4.0108433E-01   4.0108427E-01   4.0096068E-01   4.0096074E-01   4.0096065E-01   4.0096065E-01   4.0096062E-01   4.0096074E-01   4.0086374E-01   4.0086371E-01   4.0086374E-01   4.0086365E-01   4.0086368E-01   4.0086362E-01   4.0078905E-01   4.0078911E-01   4.0078914E-01   4.0078908E-01   4.0078908E-01   4.0073296E-01   4.0073305E-01   4.0073299E-01   4.0073302E-01   4.0069169E-01   4.0069166E-01   4.0069172E-01   4.0069160E-01   4.0066180E-01   4.0066189E-01   4.0064079E-01 
Press 1 2975 float
  0.0000000E+00   0.0000000E+00   0.0000000E+00   0.0000000E+00   0.0000000E+00   0.0000000E+00   0.0000000E+00   0.0000000E+00   0.0000000E+00   0.0000000E+00   0.0000000E+00   0.0000000E+00   0.0000000E+00   0.0000000E+00   0.0000000E+00   0.0000000E+00   0.0000000E+00   0.0000000E+00   0.0000000E+00   0.0000000E+00   0.0000000E+00   0.0000000E+00   0.0000000E+00   0.0000000E+00   0.0000000E+00   0.0000000E+00   0.0000000E+00   0.0000000E+00   9.8762624E-02   0.0000000E+00   9.8762624E-02   1.9752525E-01   9.8762624E-02   1.9752525E-01   2.9628786E-01   9.8762624E-02   2.9628786E-01   4.9381313E-01   1.9752525E-01   3.9505050E-01   5.9257573E-01   1.9752525E-01   4.9381313E-01   7.9010099E-01   2.9628786E-01   5.9257573E-01   1.0863888E+00   3.9505050E-01   7.9010099E-01   1.3826767E+00   4.9381313E-01   1.1851515E+00   1.8764899E+00   6.9133836E-01   1.5802020E+00   2.8641162E+00   1.0863888E+00   2.5678282E+00   4.1480303E+00   1.7777272E+00   3.6542170E+00   6.1232829E+00   5.6294694E+00   8.8886366E+00   0.0000000E+00   0.0000000E+00   0.0000000E+00   0.0000000E+00   0.0000000E+00   0.0000000E+00   0.0000000E+00   0.0000000E+00   0.0000000E+00   0.0000000E+00   0.0000000E+00   0.0000000E+00   0.0000000E+00   0.0000000E+00   0.0000000E+00   0.0000000E+00   0.0000000E+00   0.0000000E+00   0.0000000E+00   0.0000000E+00   0.0000000E+00   0.0000000E+00   0.0000000E+00   0.0000000E+00   0.0000000E+00   0.0000000E+00   0.0000000E+00   0.0000000E+00   0.0000000E+00   0.0000000E+00   0.0000000E+00   0.0000000E+00   0.0000000E+00   0.0000000E+00   0.0000000E+00   0.0000000E+00   0.0000000E+00   0.0000000E+00   0.0000000E+00   0.0000000E+00   0.0000000E+00   0.0000000E+00   0.0000000E+00   0.0000000E+00   0.0000000E+00   0.0000000E+00   0.0000000E+00   0.0000000E+00   0.0000000E+00   0.0000000E+00   0.0000000E+00   0.0000000E+00   9.8762624E-02   9.8762624E-02   9.8762624E-02   9.8762624E-02   0.0000000E+00   9.8762624E-02   9.8762624E-02   1.9752525E-01   1.9752525E-01   2.9628786E-01   2.9628786E-01   2.9628786E-01   9.8762624E-02   1.9752525E-01   2.9628786E-01   3.9505050E-01   3.9505050E-01   5.9257573E-01   5.9257573E-01   5.9257573E-01   1.9752525E-01   2.9628786E-01   4.9381313E-01   5.9257573E-01   7.9010099E-01   8.8886362E-01   9.8762625E-01   9.8762625E-01   3.9505050E-01   5.9257573E-01   7.9010099E-01   9.8762625E-01   1.1851515E+00   1.3826767E+00   1.4814394E+00   1.5802020E+00   5.9257573E-01   7.9010099E-01   9.8762625E-01   7.9010099E-01   1.0863888E+00   8.8886362E-01   1.3826767E+00   1.2839141E+00   1.7777272E+00   1.5802020E+00   2.3703029E+00   2.1727777E+00   3.0616415E+00   3.0616415E+00   4.1480303E+00   4.3455553E+00   5.8269949E+00   6.2220454E+00   8.2960606E+00   9.0861616E+00   1.2049040E+01   1.2937903E+01   1.6690884E+01   0.0000000E+00   0.0000000E+00   0.0000000E+00   0.0000000E+00   0.0000000E+00   0.0000000E+00   0.0000000E+00   0.0000000E+00   0.0000000E+00   0.0000000E+00   0.0000000E+00   0.0000000E+00   0.0000000E+00   0.0000000E+00   0.0000000E+00   0.0000000E+00   0.0000000E+00   0.0000000E+00   0.0000000E+00   0.0000000E+00   0.0000000E+00   0.0000000E+00   0.0000000E+00   0.0000000E+00   0.0000000E+00   0.0000000E+00   0.0000000E+00   0.0000000E+00   0.0000000E+00   0.0000000E+00   0.0000000E+00   0.0000000E+00   0.0000000E+00   0.0000000E+00   0.0000000E+00   0.0000000E+00   0.0000000E+00   0.0000000E+00   0.0000000E+00   0.0000000E+00   0.0000000E+00   0.0000000E+00   0.0000000E+00   0.0000000E+00   0.0000000E+00   0.0000000E+00   0.0000000E+00   0.0000000E+00   0.0000000E+00   0.0000000E+00   0.0000000E+00   0.0000000E+00   0.0000000E+00   0.0000000E+00   9.8762624E-02   9.8762624E-02   9.8762624E-02   9.8762624E-02   1.9752525E-01   1.9752525E-01   1.9752525E-01   1.9752525E-01   1.9752525E-01   2.9628786E-01   2.9628786E-01   2.9628786E-01   3.9505050E-01   3.9505050E-01   3.9505050E-01   3.9505050E-01   3.9505050E-01   3.9505050E-01   5.9257573E-01   6.9133836E-01   6.9133836E-01   7.9010099E-01   7.9010099E-01   7.9010099E-01   7.9010099E-01   7.9010099E-01   7.9010099E-01   1.0863888E+00   1.1851515E+00   1.1851515E+00   1.2839141E+00   1.2839141E+00   1.2839141E+00   1.2839141E+00   1.2839141E+00   1.2839141E+00   1.6789646E+00   1.6789646E+00   1.7777272E+00   1.7777272E+00   1.8764899E+00   1.8764899E+00   1.8764899E+00   1.8764899E+00   1.8764899E+00   0.0000000E+00   0.0000000E+00   0.0000000E+00   0.0000000E+00   0.0000000E+00   0.0000000E+00   0.0000000E+00   0.0000000E+00   0.0000000E+00   0.0000000E+00   0.0000000E+00   0.0000000E+00   0.0000000E+00   0.0000000E+00   0.0000000E+00   0.0000000E+00   0.0000000E+00   0.0000000E+00   0.0000000E+00   0.0000000E+00   0.0000000E+00   0.0000000E+00   0.0000000E+00   0.0000000E+00   0.0000000E+00   0.0000000E+00   0.0000000E+00   0.0000000E+00   0.0000000E+00   0.0000000E+00   0.0000000E+00   0.0000000E+00   0.0000000E+00   0.0000000E+00   0.0000000E+00   0.0000000E+00   0.0000000E+00   0.0000000E+00   0.0000000E+00   0.0000000E+00   0.0000000E+00   0.0000000E+00   0.0000000E+00   0.0000000E+00   0.0000000E+00   0.0000000E+00   0.0000000E+00   0.0000000E+00   1.9752525E-01   1.9752525E-01   1.9752525E-01   1.9752525E-01   1.9752525E-01   1.9752525E-01   9.8762624E-02   9.8762624E-02   3.9505050E-01   3.9505050E-01   3.9505050E-01   3.9505050E-01   3.9505050E-01   3.9505050E-01   3.9505050E-01   2.9628786E-01   7.9010099E-01   7.9010099E-01   7.9010099E-01   7.9010099E-01   7.9010099E-01   7.9010099E-01   7.9010099E-01   6.9133836E-01   1.2839141E+00   1.2839141E+00   1.2839141E+00   1.2839141E+00   1.2839141E+00   1.2839141E+00   1.2839141E+00   1.1851515E+00   1.8764899E+00   1.8764899E+00   1.8764899E+00   1.8764899E+00   1.8764899E+00   1.8764899E+00   1.7777272E+00   1.7777272E+00   0.0000000E+00   0.0000000E+00   0.0000000E+00   0.0000000E+00   0.0000000E+00   0.0000000E+00   0.0000000E+00   0.0000000E+00   0.0000000E+00   0.0000000E+00   0.0000000E+00   0.0000000E+00   0.0000000E+00   0.0000000E+00   0.0000000E+00   0.0000000E+00   0.0000000E+00   0.0000000E+00   0.0000000E+00   0.0000000E+00   0.0000000E+00   0.0000000E+00   0.0000000E+00   0.0000000E+00   0.0000000E+00   0.0000000E+00   0.0000000E+00   0.0000000E+00   0.0000000E+00   0.0000000E+00   0.0000000E+00   0.0000000E+00   0.0000000E+00   0.0000000E+00   0.0000000E+00   0.0000000E+00   0.0000000E+00   0.0000000E+00   0.0000000E+00   0.0000000E+00   0.0000000E+00   0.0000000E+00   0.0000000E+00   0.0000000E+00   0.0000000E+00   0.0000000E+00   0.0000000E+00   0.0000000E+00   0.0000000E+00   0.0000000E+00   0.0000000E+00   0.0000000E+00   0.0000000E+00   0.0000000E+00   9.8762624E-02   9.8762624E-02   9.8762624E-02   9.8762624E-02   9.8762624E-02   9.8762624E-02   0.0000000E+00   0.0000000E+00   0.0000000E+00   2.9628786E-01   2.9628786E-01   2.9628786E-01   2.9628786E-01   2.9628786E-01   1.9752525E-01   1.9752525E-01   9.8762624E-02   9.8762624E-02   6.9133836E-01   5.9257573E-01   5.9257573E-01   5.9257573E-01   5.9257573E-01   3.9505050E-01   3.9505050E-01   2.9628786E-01   1.9752525E-01   1.1851515E+00   1.0863888E+00   9.8762625E-01   9.8762625E-01   8.8886362E-01   7.9010099E-01   5.9257573E-01   4.9381313E-01   2.9628786E-01   1.6789646E+00   1.6789646E+00   1.5802020E+00   1.4814394E+00   1.3826767E+00   1.1851515E+00   9.8762625E-01   7.9010099E-01   5.9257573E-01   9.8762625E-01   7.9010099E-01   1.0863888E+00   1.3826767E+00   1.7777272E+00   2.3703029E+00   3.0616415E+00   4.1480303E+00   5.8269949E+00   8.2960606E+00   1.2049040E+01   1.6690884E+01   0.0000000E+00   0.0000000E+00   0.0000000E+00   0.0000000E+00   0.0000000E+00   0.0000000E+00   0.0000000E+00   0.0000000E+00   0.0000000E+00   0.0000000E+00   0.0000000E+00   0.0000000E+00   0.0000000E+00   0.0000000E+00   0.0000000E+00   0.0000000E+00   0.0000000E+00   0.0000000E+00   0.0000000E+00   0.0000000E+00   0.0000000E+00   0.0000000E+00   0.0000000E+00   0.0000000E+00   0.0000000E+00   0.0000000E+00   0.0000000E+00   0.0000000E+00   0.0000000E+00   0.0000000E+00   0.0000000E+00   9.8762624E-02   0.0000000E+00   0.0000000E+00   0.0000000E+00   1.9752525E-01   9.8762624E-02   0.0000000E+00   0.0000000E+00   3.9505050E-01   1.9752525E-01   9.8762624E-02   0.0000000E+00   5.9257573E-01   2.9628786E-01   1.9752525E-01   9.8762624E-02   7.9010099E-01   4.9381313E-01   2.9628786E-01   9.8762624E-02   8.8886362E-01   5.9257573E-01   3.9505050E-01   1.9752525E-01   1.2839141E+00   7.9010099E-01   4.9381313E-01   1.9752525E-01   1.5802020E+00   1.0863888E+00   5.9257573E-01   2.9628786E-01   2.1727777E+00   1.3826767E+00   7.9010099E-01   3.9505050E-01   3.0616415E+00   1.8764899E+00   1.1851515E+00   4.9381313E-01   4.3455553E+00   2.8641162E+00   1.5802020E+00   6.9133836E-01   6.2220454E+00   4.1480303E+00   2.5678282E+00   1.0863888E+00   9.0861616E+00   6.1232829E+00   3.6542170E+00   1.7777272E+00   1.2937903E+01   8.8886366E+00   5.6294694E+00   0.0000000E+00   0.0000000E+00   0.0000000E+00   0.0000000E+00   0.0000000E+00   0.0000000E+00   0.0000000E+00   0.0000000E+00   0.0000000E+00   0.0000000E+00   0.0000000E+00   0.0000000E+00   0.0000000E+00   0.0000000E+00   0.0000000E+00   0.0000000E+00   0.0000000E+00   0.0000000E+00   0.0000000E+00   0.0000000E+00   0.0000000E+00   0.0000000E+00   0.0000000E+00   0.0000000E+00   0.0000000E+00   0.0000000E+00   0.0000000E+00   0.0000000E+00   0.0000000E+00   0.0000000E+00   0.0000000E+00   0.0000000E+00   0.0000000E+00   0.0000000E+00   0.0000000E+00   0.0000000E+00   0.0000000E+00   0.0000000E+00   0.0000000E+00   0.0000000E+00   0.0000000E+00   0.0000000E+00   0.0000000E+00   0.0000000E+00   0.0000000E+00   0.0000000E+00   0.0000000E+00   0.0000000E+00   0.0000000E+00   0.0000000E+00   0.0000000E+00   0.0000000E+00   0.0000000E+00   0.0000000E+00   0.0000000E+00   0.0000000E+00   0.0000000E+00   0.0000000E+00   0.0000000E+00   0.0000000E+00   0.0000000E+00   0.0000000E+00   0.0000000E+00   0.0000000E+00   0.0000000E+00   0.0000000E+00   0.0000000E+00   0.0000000E+00   0.0000000E+00   0.0000000E+00   0.0000000E+00   0.0000000E+00   0.0000000E+00   0.0000000E+00   0.0000000E+00   0.0000000E+00   0.0000000E+00   0.0000000E+00   0.0000000E+00   0.0000000E+00   0.0000000E+00   0.0000000E+00   0.0000000E+00   0.0000000E+00   0.0000000E+00   0.0000000E+00   0.0000000E+00   0.0000000E+00   0.0000000E+00   0.0000000E+00   0.0000000E+00   0.0000000E+00   0.0000000E+00   0.0000000E+00   0.0000000E+00   0.0000000E+00   0.0000000E+00   0.0000000E+00   0.0000000E+00   0.0000000E+00   0.0000000E+00   0.0000000E+00   0.0000000E+00   0.0000000E+00   0.0000000E+00   0.0000000E+00   0.0000000E+00   0.0000000E+00   0.0000000E+00   0.0000000E+00   0.0000000E+00   0.0000000E+00   0.0000000E+00   0.0000000E+00   0.0000000E+00   0.0000000E+00   0.0000000E+00   0.0000000E+00   0.0000000E+00   0.0000000E+00   0.0000000E+00   0.0000000E+00   0.0000000E+00   0.0000000E+00   0.0000000E+00   0.0000000E+00   0.0000000E+00   0.0000000E+00   0.0000000E+00   0.0000000E+00   0.0000000E+00   0.0000000E+00   0.0000000E+00   0.0000000E+00   0.0000000E+00   0.0000000E+00   0.0000000E+00   0.0000000E+00   0.0000000E+00   0.0000000E+00   0.0000000E+00   0.0000000E+00   0.0000000E+00   0.0000000E+00   0.0000000E+00   0.0000000E+00   0.0000000E+00   0.0000000E+00   0.0000000E+00   0.0000000E+00   0.0000000E+00   0.0000000E+00   0.0000000E+00   0.0000000E+00   0.0000000E+00   0.0000000E+00   0.0000000E+00   0.0000000E+00   0.0000000E+00   0.0000000E+00   0.0000000E+00   0.0000000E+00   0.0000000E+00   0.0000000E+00   0.0000000E+00   0.0000000E+00   0.0000000E+00   0.0000000E+00   0.0000000E+00   0.0000000E+00   0.0000000E+00   0.0000000E+00   0.0000000E+00   0.0000000E+00   0.0000000E+00   0.0000000E+00   0.0000000E+00   0.0000000E+00   0.0000000E+00   0.0000000E+00   0.0000000E+00   0.0000000E+00   0.0000000E+00   0.0000000E+00   0.0000000E+00   0.0000000E+00   0.0000000E+00   0.0000000E+00   0.0000000E+00   0.0000000E+00   0.0000000E+00   0.0000000E+00   0.0000000E+00   0.0000000E+00   0.0000000E+00   0.0000000E+00   0.0000000E+00   0.0000000E+00   0.0000000E+00   0.0000000E+00   0.0000000E+00   0.0000000E+00   0.0000000E+00   0.0000000E+00   0.0000000E+00   0.0000000E+00   0.0000000E+00   0.0000000E+00   0.0000000E+00   0.0000000E+00   0.0000000E+00   0.0000000E+00   0.0000000E+00   0.0000000E+00   0.0000000E+00   0.0000000E+00   0.0000000E+00   0.0000000E+00   0.0000000E+00   0.0000000E+00   0.0000000E+00   0.0000000E+00   0.0000000E+00   0.0000000E+00   0.0000000E+00   0.0000000E+00   0.0000000E+00   0.0000000E+00   0.0000000E+00   0.0000000E+00   0.0000000E+00   0.0000000E+00   0.0000000E+00   0.0000000E+00   0.0000000E+00   0.0000000E+00   0.0000000E+00   0.0000000E+00   0.0000000E+00   0.0000000E+00   0.0000000E+00   0.0000000E+00   0.0000000E+00   0.0000000E+00   0.0000000E+00   0.0000000E+00   0.0000000E+00   0.0000000E+00   0.0000000E+00   0.0000000E+00   0.0000000E+00   0.0000000E+00   0.0000000E+00   0.0000000E+00   0.0000000E+00   0.0000000E+00   0.0000000E+00   0.0000000E+00   0.0000000E+00   0.0000000E+00   0.0000000E+00   0.0000000E+00   0.0000000E+00   0.0000000E+00   0.0000000E+00   0.0000000E+00   0.0000000E+00   0.0000000E+00   0.0000000E+00   0.0000000E+00   0.0000000E+00   0.0000000E+00   0.0000000E+00   0.0000000E+00   0.0000000E+00   0.0000000E+00   0.0000000E+00   0.0000000E+00   0.0000000E+00   0.0000000E+00   0.0000000E+00   0.0000000E+00   0.0000000E+00   0.0000000E+00   0.0000000E+00   0.0000000E+00   0.0000000E+00   0.0000000E+00   0.0000000E+00   0.0000000E+00   0.0000000E+00   0.0000000E+00   0.0000000E+00   0.0000000E+00   0.0000000E+00   0.0000000E+00   0.0000000E+00   0.0000000E+00   0.0000000E+00   0.0000000E+00   0.0000000E+00   0.0000000E+00   0.0000000E+00   0.0000000E+00   0.0000000E+00   0.0000000E+00   0.0000000E+00   0.0000000E+00   0.0000000E+00   0.0000000E+00   0.0000000E+00   0.0000000E+00   0.0000000E+00   0.0000000E+00   0.0000000E+00   0.0000000E+00   0.0000000E+00   0.0000000E+00   0.0000000E+00   0.0000000E+00   0.0000000E+00   0.0000000E+00   0.0000000E+00   0.0000000E+00   0.0000000E+00   0.0000000E+00   0.0000000E+00   0.0000000E+00   0.0000000E+00   0.0000000E+00   0.0000000E+00   0.0000000E+00   0.0000000E+00   0.0000000E+00   0.0000000E+00   0.0000000E+00   0.0000000E+00   0.0000000E+00   0.0000000E+00   0.0000000E+00   0.0000000E+00   0.0000000E+00   0.0000000E+00   0.0000000E+00   0.0000000E+00   0.0000000E+00   0.0000000E+00   0.0000000E+00   0.0000000E+00   0.0000000E+00   0.0000000E+00   0.0000000E+00   0.0000000E+00   0.0000000E+00   0.0000000E+00   0.0000000E+00   0.0000000E+00   0.0000000E+00   0.0000000E+00   0.0000000E+00   0.0000000E+00   0.0000000E+00   0.0000000E+00   0.0000000E+00   0.0000000E+00   0.0000000E+00   0.0000000E+00   0.0000000E+00   0.0000000E+00   0.0000000E+00   0.0000000E+00   0.0000000E+00   0.0000000E+00   0.0000000E+00   0.0000000E+00   0.0000000E+00   0.0000000E+00   0.0000000E+00   0.0000000E+00   0.0000000E+00   0.0000000E+00   0.0000000E+00   0.0000000E+00   0.0000000E+00   0.0000000E+00   0.0000000E+00   0.0000000E+00   0.0000000E+00   0.0000000E+00   0.0000000E+00   0.0000000E+00   0.0000000E+00   0.0000000E+00   0.0000000E+00   0.0000000E+00   0.0000000E+00   0.0000000E+00   0.0000000E+00   0.0000000E+00   0.0000000E+00   0.0000000E+00   0.0000000E+00   0.0000000E+00   0.0000000E+00   0.0000000E+00   0.0000000E+00   0.0000000E+00   0.0000000E+00   0.0000000E+00   0.0000000E+00   0.0000000E+00   0.0000000E+00   0.0000000E+00   0.0000000E+00   0.0000000E+00   0.0000000E+00   0.0000000E+00   0.0000000E+00   0.0000000E+00   0.0000000E+00   0.0000000E+00   0.0000000E+00   0.0000000E+00   0.0000000E+00   0.0000000E+00   0.0000000E+00   0.0000000E+00   0.0000000E+00   0.0000000E+00   0.0000000E+00   0.0000000E+00   0.0000000E+00   0.0000000E+00   0.0000000E+00   0.0000000E+00   0.0000000E+00   0.0000000E+00   0.0000000E+00   0.0000000E+00   0.0000000E+00   0.0000000E+00   0.0000000E+00   0.0000000E+00   0.0000000E+00   0.0000000E+00   0.0000000E+00   0.0000000E+00   0.0000000E+00   0.0000000E+00   0.0000000E+00   0.0000000E+00   0.0000000E+00   0.0000000E+00   0.0000000E+00   0.0000000E+00   0.0000000E+00   0.0000000E+00   0.0000000E+00   0.0000000E+00   0.0000000E+00   0.0000000E+00   0.0000000E+00   0.0000000E+00   0.0000000E+00   0.0000000E+00   0.0000000E+00   0.0000000E+00   0.0000000E+00   0.0000000E+00   0.0000000E+00   0.0000000E+00   0.0000000E+00   1.3826767E+00   1.5802020E+00   1.8764899E+00   2.0740151E+00   2.1727777E+00   1.4814394E+00   1.8764899E+00   2.1727777E+00   2.3703029E+00   2.6665909E+00   2.7653534E+00   1.8764899E+00   2.3703029E+00   2.7653534E+00   3.0616415E+00   3.2591665E+00   3.4566917E+00   2.3703029E+00   3.0616415E+00   3.4566917E+00   3.8517423E+00   4.0492678E+00   4.3455553E+00   3.0616415E+00   3.7529798E+00   4.3455553E+00   4.8393683E+00   5.2344189E+00   5.3331819E+00   3.9505050E+00   4.9381313E+00   5.6294694E+00   6.0245199E+00   6.5183330E+00   6.8146210E+00   5.4319444E+00   6.5183330E+00   7.4071970E+00   7.8022475E+00   8.1972980E+00   8.6911106E+00   7.7034845E+00   8.8886366E+00   9.5799742E+00   1.0073788E+01   1.0468838E+01   1.0765126E+01   1.1258939E+01   1.2345328E+01   1.2740378E+01   1.3135429E+01   1.3332954E+01   1.3629242E+01   1.6394596E+01   1.6987171E+01   1.6888409E+01   1.6789646E+01   1.6789646E+01   1.6888409E+01   2.2715403E+01   2.2616640E+01   2.1826540E+01   2.1135202E+01   2.0838913E+01   2.1135202E+01   2.9036211E+01   2.8739923E+01   2.7258484E+01   2.6369621E+01   2.5974569E+01   2.5974569E+01   3.3184242E+01   3.4171867E+01   3.2986717E+01   3.2097855E+01   3.1801565E+01   3.1900328E+01   3.7134743E+01   3.9505047E+01   3.9208759E+01   3.8714947E+01   3.8714947E+01   3.9109997E+01   4.2764214E+01   4.5924618E+01   4.6813480E+01   4.6813480E+01   4.7307293E+01   4.7801105E+01   5.1652840E+01   5.4912006E+01   5.6294682E+01   5.6788494E+01   5.7479836E+01   5.8072411E+01   6.3899403E+01   6.7059807E+01   6.8343719E+01   6.9133820E+01   7.0022682E+01   7.0911545E+01   7.9306366E+01   8.2170479E+01   8.3553154E+01   8.4244492E+01   8.5232117E+01   8.6219742E+01   9.7577431E+01   1.0034278E+02   1.0192298E+02   1.0271308E+02   1.0379947E+02   1.0478709E+02   1.1940394E+02   1.2276186E+02   1.2444083E+02   1.2523093E+02   1.2621856E+02   1.2710742E+02   1.4606979E+02   1.5011906E+02   1.5199556E+02   1.5268689E+02   1.5337823E+02   1.5406956E+02   1.7876015E+02   1.8369827E+02   1.8596982E+02   1.8606857E+02   1.8606857E+02   1.8596982E+02   2.1846260E+02   2.2488216E+02   2.2725246E+02   2.2606731E+02   2.2478339E+02   2.2349948E+02   2.6695480E+02   2.7544836E+02   2.7752240E+02   2.7406570E+02   2.7041150E+02   2.6725110E+02   3.2443430E+02   3.3628577E+02   3.3668082E+02   3.2897736E+02   3.2186646E+02   3.1613824E+02   3.9011087E+02   4.0601160E+02   4.0245615E+02   3.8793808E+02   3.7628415E+02   3.6729678E+02   4.6428067E+02   4.8492197E+02   4.7326804E+02   4.4897256E+02   4.3178793E+02   4.1973895E+02   5.4753613E+02   5.7084393E+02   5.4575836E+02   5.0901895E+02   4.8650122E+02   4.7227951E+02   6.5232092E+02   6.7464105E+02   6.3039581E+02   5.8012616E+02   5.5395428E+02   5.4032520E+02   8.2663257E+02   8.4194055E+02   7.7725189E+02   7.1542725E+02   6.8856421E+02   6.7987317E+02   1.2078459E+03   1.2106112E+03   1.1353555E+03   1.0686918E+03   1.0465693E+03   1.0478533E+03   2.0796946E+03   2.0673496E+03   2.0070070E+03   1.9560466E+03   1.9444917E+03   1.9608859E+03   3.7030859E+03   3.6737544E+03   3.6576567E+03   3.6616069E+03   3.6763223E+03   3.7131594E+03   5.7261108E+03   5.6638931E+03   5.6962856E+03   5.7890200E+03   5.8488677E+03   5.9115791E+03   7.2436230E+03   7.1371631E+03   7.1906890E+03   7.3533418E+03   7.4578267E+03   7.5458188E+03   7.9551040E+03   7.8081567E+03   7.8389683E+03   8.0312437E+03   8.1608105E+03   8.2662803E+03   8.2079883E+03   8.0395171E+03   8.0225317E+03   8.1995947E+03   8.3310342E+03   8.4419326E+03   8.3207529E+03   8.1412280E+03   8.0892861E+03   8.2319775E+03   8.3460322E+03   8.4528779E+03   8.4229316E+03   8.2387754E+03   8.1627422E+03   8.2764951E+03   8.3737578E+03   8.4738838E+03   8.5381846E+03   8.3519658E+03   8.2649785E+03   8.3613457E+03   8.4469512E+03   8.5411465E+03   8.6467988E+03   8.4610918E+03   8.3736182E+03   8.4642510E+03   8.5447139E+03   8.6349521E+03   8.7215527E+03   8.5376455E+03   8.4572910E+03   8.5527490E+03   8.6336963E+03   8.7220469E+03   8.6368076E+03   8.4569775E+03   8.3842354E+03   8.4838232E+03   8.5661387E+03   8.6537842E+03   8.3975596E+03   8.2240840E+03   8.1589565E+03   8.2596074E+03   8.3430889E+03   8.4303203E+03   8.0327954E+03   7.8687441E+03   7.8120215E+03   7.9114590E+03   7.9953096E+03   8.0827119E+03   7.5700205E+03   7.4202349E+03   7.3736919E+03   7.4703276E+03   7.5536519E+03   7.6416104E+03   7.0331938E+03   6.9015249E+03   6.8663413E+03   6.9596709E+03   7.0426538E+03   7.1302700E+03   6.4389917E+03   6.3274121E+03   6.3044658E+03   6.3954614E+03   6.4777930E+03   6.5649512E+03   5.8047168E+03   5.7140068E+03   5.7027910E+03   5.7921240E+03   5.8745713E+03   5.9602661E+03   5.1556768E+03   5.0826743E+03   5.0806123E+03   5.1682549E+03   5.2503965E+03   5.3341113E+03   4.5216875E+03   4.4610771E+03   4.4624526E+03   4.5468008E+03   4.6269336E+03   4.7078506E+03   3.9275894E+03   3.8742690E+03   3.8729031E+03   3.9510825E+03   4.0272087E+03   4.1041167E+03   3.3670537E+03   3.3315605E+03   3.3317629E+03   3.4014043E+03   3.4714360E+03   3.5421492E+03   2.8270601E+03   2.8352278E+03   2.8478630E+03   2.9118691E+03   2.9745137E+03   3.0361860E+03   2.3434346E+03   2.3991609E+03   2.4289148E+03   2.4889871E+03   2.5433608E+03   2.5935801E+03   2.0356498E+03   2.0775437E+03   2.1297883E+03   2.1773359E+03   2.2156807E+03   1.7331953E+03   1.7804640E+03   1.8249836E+03   1.8699781E+03   1.9001677E+03   1.5231952E+03   1.5623671E+03   1.6074426E+03   1.6395914E+03   1.2999716E+03   1.3286396E+03   1.3751846E+03   1.4179548E+03   1.1277104E+03   1.1639929E+03   1.2162478E+03   9.8271631E+02   1.0265009E+03   8.5988635E+02   8.6568695E+02   2.3703029E+00   2.3703029E+00   2.4690657E+00   2.4690657E+00   2.5678282E+00   2.5678282E+00   2.5678282E+00   2.5678282E+00   2.5678282E+00   2.8641162E+00   3.0616415E+00   3.0616415E+00   3.1604040E+00   3.2591665E+00   3.2591665E+00   3.2591665E+00   3.2591665E+00   3.2591665E+00   3.5554545E+00   3.6542170E+00   3.8517423E+00   3.8517423E+00   3.9505050E+00   3.9505050E+00   3.9505050E+00   3.9505050E+00   3.9505050E+00   4.5430808E+00   4.6418433E+00   4.6418433E+00   4.7406058E+00   4.8393683E+00   4.8393683E+00   4.8393683E+00   4.8393683E+00   4.8393683E+00   5.5307069E+00   5.7282324E+00   5.7282324E+00   5.7282324E+00   5.8269949E+00   5.8269949E+00   5.8269949E+00   5.8269949E+00   5.8269949E+00   6.9133835E+00   7.1109090E+00   7.2096715E+00   7.2096715E+00   7.3084340E+00   7.3084340E+00   7.3084340E+00   7.3084340E+00   7.3084340E+00   8.6911106E+00   8.8886366E+00   8.9873991E+00   8.9873991E+00   8.9873991E+00   8.9873991E+00   8.9873991E+00   8.9873991E+00   8.9873991E+00   1.0962651E+01   1.1061414E+01   1.1160176E+01   1.1160176E+01   1.1258939E+01   1.1258939E+01   1.1258939E+01   1.1258939E+01   1.1258939E+01   1.3629242E+01   1.3925530E+01   1.4024293E+01   1.4024293E+01   1.4024293E+01   1.3925530E+01   1.3925530E+01   1.3925530E+01   1.3925530E+01   1.7085934E+01   1.7283459E+01   1.7283459E+01   1.7283459E+01   1.7283459E+01   1.7184696E+01   1.7184696E+01   1.7184696E+01   1.7184696E+01   2.1233965E+01   2.1431490E+01   2.1431490E+01   2.1530252E+01   2.1431490E+01   2.1332727E+01   2.1332727E+01   2.1233965E+01   2.1233965E+01   2.6270859E+01   2.6369621E+01   2.6369621E+01   2.6270859E+01   2.6172096E+01   2.6073332E+01   2.6073332E+01   2.5974569E+01   2.6073332E+01   3.2196617E+01   3.2394142E+01   3.2394142E+01   3.2295380E+01   3.2196617E+01   3.2196617E+01   3.2097855E+01   3.1999090E+01   3.1900328E+01   3.9505047E+01   3.9702572E+01   3.9801334E+01   3.9702572E+01   3.9505047E+01   3.9307522E+01   3.9307522E+01   3.9208759E+01   3.9109997E+01   4.8294918E+01   4.8689968E+01   4.8689968E+01   4.8393681E+01   4.8196156E+01   4.7899868E+01   4.7801105E+01   4.7702343E+01   4.7603580E+01   5.8862511E+01   5.9060036E+01   5.9158798E+01   5.9060036E+01   5.8862511E+01   5.8467461E+01   5.8269936E+01   5.7973648E+01   5.7874886E+01   7.1504120E+01   7.1899178E+01   7.1997940E+01   7.1701653E+01   7.1207832E+01   7.0812782E+01   7.0516495E+01   7.0121445E+01   7.0022682E+01   8.7009842E+01   8.7404900E+01   8.7306129E+01   8.6911079E+01   8.6120979E+01   8.5725929E+01   8.5133354E+01   8.4738304E+01   8.4540779E+01   1.0557719E+02   1.0577472E+02   1.0547843E+02   1.0468833E+02   1.0379947E+02   1.0300937E+02   1.0221927E+02   1.0182422E+02   1.0152793E+02   1.2779876E+02   1.2770000E+02   1.2710742E+02   1.2582351E+02   1.2463836E+02   1.2335445E+02   1.2246558E+02   1.2177424E+02   1.2128043E+02   1.5436586E+02   1.5367451E+02   1.5239061E+02   1.5071164E+02   1.4883514E+02   1.4725494E+02   1.4587227E+02   1.4478589E+02   1.4439084E+02   1.8557477E+02   1.8419208E+02   1.8211807E+02   1.7955025E+02   1.7698242E+02   1.7471088E+02   1.7293317E+02   1.7164925E+02   1.7085915E+02   2.2182053E+02   2.1945023E+02   2.1599353E+02   2.1253685E+02   2.0908015E+02   2.0621605E+02   2.0394450E+02   2.0236430E+02   2.0127792E+02   2.6409070E+02   2.5994269E+02   2.5520209E+02   2.5006644E+02   2.4572089E+02   2.4206668E+02   2.3940010E+02   2.3732608E+02   2.3633846E+02   3.1041003E+02   3.0448428E+02   2.9786722E+02   2.9134891E+02   2.8581821E+02   2.8147266E+02   2.7831229E+02   2.7613950E+02   2.7475684E+02   3.5900076E+02   3.5060596E+02   3.4201364E+02   3.3401392E+02   3.2749561E+02   3.2255750E+02   3.1919958E+02   3.1682928E+02   3.1584164E+02   4.0907266E+02   3.9860388E+02   3.8813510E+02   3.7875269E+02   3.7154306E+02   3.6630865E+02   3.6295074E+02   3.6097552E+02   3.5998788E+02   4.6062561E+02   4.4916922E+02   4.3771286E+02   4.2783664E+02   4.2033075E+02   4.1559018E+02   4.1282483E+02   4.1134341E+02   4.1065207E+02   5.3025146E+02   5.2037531E+02   5.1000534E+02   5.0082050E+02   4.9440100E+02   4.9074683E+02   4.8936414E+02   4.8906787E+02   4.8926538E+02   6.7612024E+02   6.7187354E+02   6.6614532E+02   6.6041718E+02   6.5666425E+02   6.5557782E+02   6.5666425E+02   6.5844189E+02   6.5982458E+02   1.0558529E+03   1.0629636E+03   1.0662228E+03   1.0675067E+03   1.0694819E+03   1.0729385E+03   1.0779753E+03   1.0828146E+03   1.0863700E+03   1.9866624E+03   2.0106611E+03   2.0289318E+03   2.0417706E+03   2.0524368E+03   2.0633992E+03   2.0743616E+03   2.0838425E+03   2.0902620E+03   3.7613540E+03   3.8078699E+03   3.8455959E+03   3.8742363E+03   3.8978398E+03   3.9187769E+03   3.9376399E+03   3.9535400E+03   3.9639099E+03   5.9845615E+03   6.0560625E+03   6.1165029E+03   6.1640054E+03   6.2026201E+03   6.2361978E+03   6.2656279E+03   6.2891323E+03   6.3044399E+03   7.6416133E+03   7.7368149E+03   7.8196719E+03   7.8870244E+03   7.9424268E+03   7.9896328E+03   8.0302217E+03   8.0623179E+03   8.0829580E+03   8.3795527E+03   8.4941084E+03   8.5966162E+03   8.6819404E+03   8.7530439E+03   8.8136787E+03   8.8655254E+03   8.9060146E+03   8.9322842E+03   8.5651758E+03   8.6930596E+03   8.8103770E+03   8.9100186E+03   8.9939570E+03   9.0660469E+03   9.1273721E+03   9.1754639E+03   9.2061758E+03   8.5789805E+03   8.7137725E+03   8.8397754E+03   8.9485967E+03   9.0415176E+03   9.1217021E+03   9.1902334E+03   9.2436563E+03   9.2779219E+03   8.5987939E+03   8.7353564E+03   8.8648096E+03   8.9778711E+03   9.0753311E+03   9.1601523E+03   9.2327285E+03   9.2897031E+03   9.3262383E+03   8.6630859E+03   8.7981582E+03   8.9270107E+03   9.0404590E+03   9.1388994E+03   9.2252939E+03   9.2994453E+03   9.3578984E+03   9.3953193E+03   8.7535244E+03   8.8854248E+03   9.0115996E+03   9.1229648E+03   9.2200137E+03   9.3057100E+03   9.3796572E+03   9.4380059E+03   9.4754238E+03   8.8376436E+03   8.9659736E+03   9.0884805E+03   9.1964756E+03   9.2908477E+03   9.3745596E+03   9.4471152E+03   9.5043701E+03   9.5411914E+03   8.7668936E+03   8.8918486E+03   9.0102881E+03   9.1143174E+03   9.2053184E+03   9.2861533E+03   9.3564277E+03   9.4119951E+03   9.4478232E+03   8.5414316E+03   8.6626094E+03   8.7766807E+03   8.8767393E+03   8.9637734E+03   9.0412354E+03   9.1085332E+03   9.1619180E+03   9.1962578E+03   8.1917178E+03   8.3090107E+03   8.4182139E+03   8.5132129E+03   8.5956826E+03   8.6689785E+03   8.7328037E+03   8.7833115E+03   8.8159639E+03   7.7482065E+03   7.8606201E+03   7.9640601E+03   8.0527085E+03   8.1297222E+03   8.1979590E+03   8.2574199E+03   8.3046533E+03   8.3350244E+03   7.2337520E+03   7.3400933E+03   7.4357900E+03   7.5170977E+03   7.5872686E+03   7.6492588E+03   7.7035635E+03   7.7464341E+03   7.7742271E+03   6.6640249E+03   6.7628032E+03   6.8498613E+03   6.9226406E+03   6.9847827E+03   7.0399331E+03   7.0879927E+03   7.1264995E+03   7.1510215E+03   6.0542246E+03   6.1450347E+03   6.2228574E+03   6.2867100E+03   6.3408218E+03   6.3886372E+03   6.4303525E+03   6.4639019E+03   6.4853496E+03   5.4230322E+03   5.5060581E+03   5.5756226E+03   5.6312354E+03   5.6775137E+03   5.7187803E+03   5.7547417E+03   5.7833330E+03   5.8018052E+03   4.7922979E+03   4.8691929E+03   4.9318657E+03   4.9809058E+03   5.0213145E+03   5.0564272E+03   5.0870278E+03   5.1114492E+03   5.1271421E+03   4.1837632E+03   4.2563643E+03   4.3144844E+03   4.3593960E+03   4.3952070E+03   4.4258325E+03   4.4522505E+03   4.4727979E+03   4.4863003E+03   3.6160789E+03   3.6849368E+03   3.7412129E+03   3.7842249E+03   3.8175808E+03   3.8449873E+03   3.8678091E+03   3.8856570E+03   3.8968730E+03   3.1021287E+03   3.1670989E+03   3.2230376E+03   3.2665454E+03   3.2996616E+03   3.3254941E+03   3.3458879E+03   3.3613291E+03   3.3709431E+03   2.6490105E+03   2.7083018E+03   2.7639229E+03   2.8097908E+03   2.8447463E+03   2.8706255E+03   2.8901309E+03   2.9039392E+03   2.9123401E+03   2.2583347E+03   2.3092275E+03   2.3627065E+03   2.4111050E+03   2.4494402E+03   2.4779041E+03   2.4979341E+03   2.5115430E+03   2.5193059E+03   1.9296892E+03   1.9693602E+03   2.0172841E+03   2.0657756E+03   2.1078137E+03   2.1402673E+03   2.1629468E+03   2.1778450E+03   2.1861008E+03   1.6598396E+03   1.6867340E+03   1.7251469E+03   1.7692714E+03   1.8118959E+03   1.8475875E+03   1.8740049E+03   1.8916165E+03   1.9015464E+03   1.4416521E+03   1.4588948E+03   1.4845170E+03   1.5192573E+03   1.5574047E+03   1.5925103E+03   1.6208892E+03   1.6409755E+03   1.6528612E+03   1.2555134E+03   1.2768235E+03   1.2926249E+03   1.3145563E+03   1.3424393E+03   1.3717640E+03   1.3978396E+03   1.4177794E+03   1.4304108E+03   1.0782870E+03   1.1166284E+03   1.1383563E+03   1.1521686E+03   1.1672063E+03   1.1857566E+03   1.2048326E+03   1.2210947E+03   1.2320824E+03   9.0725092E+02   9.5230927E+02   9.9064417E+02   1.0146739E+03   1.0272892E+03   1.0360676E+03   1.0455239E+03   1.0548931E+03   1.0620470E+03   7.8773914E+02   8.0628455E+02   8.3450916E+02   8.6495044E+02   8.9104620E+02   9.0795441E+02   9.1739539E+02   9.2289569E+02   9.2650690E+02   7.3212439E+02   7.2482562E+02   7.2805524E+02   7.4126373E+02   7.5792944E+02   7.7200128E+02   7.8119965E+02   7.8623145E+02   6.7367975E+02   6.5599817E+02   6.4948230E+02   6.4341504E+02   6.3997009E+02   6.3824786E+02   6.4480780E+02   6.3162097E+02   6.1686554E+02   6.0710004E+02   2.5678282E+00   2.5678282E+00   2.5678282E+00   2.5678282E+00   2.5678282E+00   2.5678282E+00   2.4690657E+00   2.4690657E+00   3.2591665E+00   3.2591665E+00   3.2591665E+00   3.2591665E+00   3.2591665E+00   3.2591665E+00   3.1604040E+00   3.0616415E+00   3.9505050E+00   3.9505050E+00   3.9505050E+00   3.9505050E+00   3.9505050E+00   3.9505050E+00   3.8517423E+00   3.8517423E+00   4.8393683E+00   4.8393683E+00   4.8393683E+00   4.8393683E+00   4.8393683E+00   4.8393683E+00   4.7406058E+00   4.6418433E+00   5.8269949E+00   5.8269949E+00   5.8269949E+00   5.8269949E+00   5.8269949E+00   5.8269949E+00   5.7282324E+00   5.7282324E+00   7.3084340E+00   7.3084340E+00   7.3084340E+00   7.3084340E+00   7.3084340E+00   7.3084340E+00   7.2096715E+00   7.2096715E+00   8.9873991E+00   8.9873991E+00   8.9873991E+00   8.9873991E+00   8.9873991E+00   8.9873991E+00   8.9873991E+00   8.9873991E+00   1.1258939E+01   1.1258939E+01   1.1258939E+01   1.1258939E+01   1.1258939E+01   1.1258939E+01   1.1160176E+01   1.1160176E+01   1.3925530E+01   1.3925530E+01   1.3925530E+01   1.3925530E+01   1.3925530E+01   1.4024293E+01   1.4024293E+01   1.4024293E+01   1.7085934E+01   1.7184696E+01   1.7184696E+01   1.7184696E+01   1.7184696E+01   1.7283459E+01   1.7283459E+01   1.7283459E+01   2.1233965E+01   2.1233965E+01   2.1233965E+01   2.1332727E+01   2.1332727E+01   2.1431490E+01   2.1530252E+01   2.1431490E+01   2.6073332E+01   2.6073332E+01   2.5974569E+01   2.6073332E+01   2.6073332E+01   2.6172096E+01   2.6270859E+01   2.6369621E+01   3.1900328E+01   3.1900328E+01   3.1999090E+01   3.2097855E+01   3.2196617E+01   3.2196617E+01   3.2295380E+01   3.2394142E+01   3.9109997E+01   3.9109997E+01   3.9208759E+01   3.9307522E+01   3.9307522E+01   3.9505047E+01   3.9702572E+01   3.9801334E+01   4.7504818E+01   4.7603580E+01   4.7702343E+01   4.7801105E+01   4.7899868E+01   4.8196156E+01   4.8393681E+01   4.8689968E+01   5.7874886E+01   5.7874886E+01   5.7973648E+01   5.8269936E+01   5.8467461E+01   5.8862511E+01   5.9060036E+01   5.9158798E+01   7.0022682E+01   7.0022682E+01   7.0121445E+01   7.0516495E+01   7.0812782E+01   7.1207832E+01   7.1701653E+01   7.1997940E+01   8.4442017E+01   8.4540779E+01   8.4738304E+01   8.5133354E+01   8.5725929E+01   8.6120979E+01   8.6911079E+01   8.7306129E+01   1.0133041E+02   1.0152793E+02   1.0182422E+02   1.0221927E+02   1.0300937E+02   1.0379947E+02   1.0468833E+02   1.0547843E+02   1.2108290E+02   1.2128043E+02   1.2177424E+02   1.2246558E+02   1.2335445E+02   1.2463836E+02   1.2582351E+02   1.2710742E+02   1.4409454E+02   1.4439084E+02   1.4478589E+02   1.4587227E+02   1.4725494E+02   1.4883514E+02   1.5071164E+02   1.5239061E+02   1.7056287E+02   1.7085915E+02   1.7164925E+02   1.7293317E+02   1.7471088E+02   1.7698242E+02   1.7955025E+02   1.8211807E+02   2.0098164E+02   2.0127792E+02   2.0236430E+02   2.0394450E+02   2.0621605E+02   2.0908015E+02   2.1253685E+02   2.1599353E+02   2.3584465E+02   2.3633846E+02   2.3732608E+02   2.3940010E+02   2.4206668E+02   2.4572089E+02   2.5006644E+02   2.5520209E+02   2.7446054E+02   2.7475684E+02   2.7613950E+02   2.7831229E+02   2.8147266E+02   2.8581821E+02   2.9134891E+02   2.9786722E+02   3.1534784E+02   3.1584164E+02   3.1682928E+02   3.1919958E+02   3.2255750E+02   3.2749561E+02   3.3401392E+02   3.4201364E+02   3.5969159E+02   3.5998788E+02   3.6097552E+02   3.6295074E+02   3.6630865E+02   3.7154306E+02   3.7875269E+02   3.8813510E+02   4.1055331E+02   4.1065207E+02   4.1134341E+02   4.1282483E+02   4.1559018E+02   4.2033075E+02   4.2783664E+02   4.3771286E+02   4.8936414E+02   4.8926538E+02   4.8906787E+02   4.8936414E+02   4.9074683E+02   4.9440100E+02   5.0082050E+02   5.1000534E+02   6.6031836E+02   6.5982458E+02   6.5844189E+02   6.5666425E+02   6.5557782E+02   6.5666425E+02   6.6041718E+02   6.6614532E+02   1.0876539E+03   1.0863700E+03   1.0828146E+03   1.0779753E+03   1.0729385E+03   1.0694819E+03   1.0675067E+03   1.0662228E+03   2.0925334E+03   2.0902620E+03   2.0838425E+03   2.0743616E+03   2.0633992E+03   2.0524368E+03   2.0417706E+03   2.0289318E+03   3.9675640E+03   3.9639099E+03   3.9535400E+03   3.9376399E+03   3.9187769E+03   3.8978398E+03   3.8742363E+03   3.8455959E+03   6.3096743E+03   6.3044399E+03   6.2891323E+03   6.2656279E+03   6.2361978E+03   6.2026201E+03   6.1640054E+03   6.1165029E+03   8.0902661E+03   8.0829580E+03   8.0623179E+03   8.0302217E+03   7.9896328E+03   7.9424268E+03   7.8870244E+03   7.8196719E+03   8.9411719E+03   8.9322842E+03   8.9060146E+03   8.8655254E+03   8.8136787E+03   8.7530439E+03   8.6819404E+03   8.5966162E+03   9.2167422E+03   9.2061758E+03   9.1754639E+03   9.1273721E+03   9.0660469E+03   8.9939570E+03   8.9100186E+03   8.8103770E+03   9.2897715E+03   9.2779219E+03   9.2436563E+03   9.1902334E+03   9.1217021E+03   9.0415176E+03   8.9485967E+03   8.8397754E+03   9.3387793E+03   9.3262383E+03   9.2897031E+03   9.2327285E+03   9.1601523E+03   9.0753311E+03   8.9778711E+03   8.8648096E+03   9.4081553E+03   9.3953193E+03   9.3578984E+03   9.2994453E+03   9.2252939E+03   9.1388994E+03   9.0404590E+03   8.9270107E+03   9.4885547E+03   9.4754238E+03   9.4380059E+03   9.3796572E+03   9.3057100E+03   9.2200137E+03   9.1229648E+03   9.0115996E+03   9.5539258E+03   9.5411914E+03   9.5043701E+03   9.4471152E+03   9.3745596E+03   9.2908477E+03   9.1964756E+03   9.0884805E+03   9.4601602E+03   9.4478232E+03   9.4119951E+03   9.3564277E+03   9.2861533E+03   9.2053184E+03   9.1143174E+03   9.0102881E+03   9.2082969E+03   9.1962578E+03   9.1619180E+03   9.1085332E+03   9.0412354E+03   8.9637734E+03   8.8767393E+03   8.7766807E+03   8.8273086E+03   8.8159639E+03   8.7833115E+03   8.7328037E+03   8.6689785E+03   8.5956826E+03   8.5132129E+03   8.4182139E+03   8.3454775E+03   8.3350244E+03   8.3046533E+03   8.2574199E+03   8.1979590E+03   8.1297222E+03   8.0527085E+03   7.9640601E+03   7.7839839E+03   7.7742271E+03   7.7464341E+03   7.7035635E+03   7.6492588E+03   7.5872686E+03   7.5170977E+03   7.4357900E+03   7.1596875E+03   7.1510215E+03   7.1264995E+03   7.0879927E+03   7.0399331E+03   6.9847827E+03   6.9226406E+03   6.8498613E+03   6.4928271E+03   6.4853496E+03   6.4639019E+03   6.4303525E+03   6.3886372E+03   6.3408218E+03   6.2867100E+03   6.2228574E+03   5.8082900E+03   5.8018052E+03   5.7833330E+03   5.7547417E+03   5.7187803E+03   5.6775137E+03   5.6312354E+03   5.5756226E+03   5.1325361E+03   5.1271421E+03   5.1114492E+03   5.0870278E+03   5.0564272E+03   5.0213145E+03   4.9809058E+03   4.9318657E+03   4.4908984E+03   4.4863003E+03   4.4727979E+03   4.4522505E+03   4.4258325E+03   4.3952070E+03   4.3593960E+03   4.3144844E+03   3.9006768E+03   3.8968730E+03   3.8856570E+03   3.8678091E+03   3.8449873E+03   3.8175808E+03   3.7842249E+03   3.7412129E+03   3.3742449E+03   3.3709431E+03   3.3613291E+03   3.3458879E+03   3.3254941E+03   3.2996616E+03   3.2665454E+03   3.2230376E+03   2.9151401E+03   2.9123401E+03   2.9039392E+03   2.8901309E+03   2.8706255E+03   2.8447463E+03   2.8097908E+03   2.7639229E+03   2.5218933E+03   2.5193059E+03   2.5115430E+03   2.4979341E+03   2.4779041E+03   2.4494402E+03   2.4111050E+03   2.3627065E+03   2.1888528E+03   2.1861008E+03   2.1778450E+03   2.1629468E+03   2.1402673E+03   2.1078137E+03   2.0657756E+03   2.0172841E+03   1.9048253E+03   1.9015464E+03   1.8916165E+03   1.8740049E+03   1.8475875E+03   1.8118959E+03   1.7692714E+03   1.7251469E+03   1.6567311E+03   1.6528612E+03   1.6409755E+03   1.6208892E+03   1.5925103E+03   1.5574047E+03   1.5192573E+03   1.4845170E+03   1.4345610E+03   1.4304108E+03   1.4177794E+03   1.3978396E+03   1.3717640E+03   1.3424393E+03   1.3145563E+03   1.2926249E+03   1.2359501E+03   1.2320824E+03   1.2210947E+03   1.2048326E+03   1.1857566E+03   1.1672063E+03   1.1521686E+03   1.1383563E+03   1.0646869E+03   1.0620470E+03   1.0548931E+03   1.0455239E+03   1.0360676E+03   1.0272892E+03   1.0146739E+03   9.9064417E+02   9.2790204E+02   9.2650690E+02   9.2289569E+02   9.1739539E+02   9.0795441E+02   8.9104620E+02   8.6495044E+02   8.3450916E+02   7.8796106E+02   7.8623145E+02   7.8119965E+02   7.7200128E+02   7.5792944E+02   7.4126373E+02   7.2805524E+02   7.2482562E+02   6.3764880E+02   6.3824786E+02   6.3997009E+02   6.4341504E+02   6.4948230E+02   6.5599817E+02   6.7367975E+02   6.0382111E+02   6.0710004E+02   6.1686554E+02   6.3162097E+02   6.4480780E+02   2.3703029E+00   2.3703029E+00   2.1727777E+00   2.0740151E+00   1.8764899E+00   1.5802020E+00   1.3826767E+00   3.0616415E+00   2.8641162E+00   2.7653534E+00   2.6665909E+00   2.3703029E+00   2.1727777E+00   1.8764899E+00   1.4814394E+00   3.6542170E+00   3.5554545E+00   3.4566917E+00   3.2591665E+00   3.0616415E+00   2.7653534E+00   2.3703029E+00   1.8764899E+00   4.6418433E+00   4.5430808E+00   4.3455553E+00   4.0492678E+00   3.8517423E+00   3.4566917E+00   3.0616415E+00   2.3703029E+00   5.7282324E+00   5.5307069E+00   5.3331819E+00   5.2344189E+00   4.8393683E+00   4.3455553E+00   3.7529798E+00   3.0616415E+00   7.1109090E+00   6.9133835E+00   6.8146210E+00   6.5183330E+00   6.0245199E+00   5.6294694E+00   4.9381313E+00   3.9505050E+00   8.8886366E+00   8.6911106E+00   8.6911106E+00   8.1972980E+00   7.8022475E+00   7.4071970E+00   6.5183330E+00   5.4319444E+00   1.1061414E+01   1.0962651E+01   1.0765126E+01   1.0468838E+01   1.0073788E+01   9.5799742E+00   8.8886366E+00   7.7034845E+00   1.3925530E+01   1.3629242E+01   1.3629242E+01   1.3332954E+01   1.3135429E+01   1.2740378E+01   1.2345328E+01   1.1258939E+01   1.7283459E+01   1.7085934E+01   1.6888409E+01   1.6789646E+01   1.6789646E+01   1.6888409E+01   1.6987171E+01   1.6394596E+01   2.1431490E+01   2.1233965E+01   2.1135202E+01   2.0838913E+01   2.1135202E+01   2.1826540E+01   2.2616640E+01   2.2715403E+01   2.6369621E+01   2.6270859E+01   2.5974569E+01   2.5974569E+01   2.6369621E+01   2.7258484E+01   2.8739923E+01   2.9036211E+01   3.2394142E+01   3.2196617E+01   3.1900328E+01   3.1801565E+01   3.2097855E+01   3.2986717E+01   3.4171867E+01   3.3184242E+01   3.9702572E+01   3.9505047E+01   3.9109997E+01   3.8714947E+01   3.8714947E+01   3.9208759E+01   3.9505047E+01   3.7134743E+01   4.8689968E+01   4.8294918E+01   4.7801105E+01   4.7307293E+01   4.6813480E+01   4.6813480E+01   4.5924618E+01   4.2764214E+01   5.9060036E+01   5.8862511E+01   5.8072411E+01   5.7479836E+01   5.6788494E+01   5.6294682E+01   5.4912006E+01   5.1652840E+01   7.1899178E+01   7.1504120E+01   7.0911545E+01   7.0022682E+01   6.9133820E+01   6.8343719E+01   6.7059807E+01   6.3899403E+01   8.7404900E+01   8.7009842E+01   8.6219742E+01   8.5232117E+01   8.4244492E+01   8.3553154E+01   8.2170479E+01   7.9306366E+01   1.0577472E+02   1.0557719E+02   1.0478709E+02   1.0379947E+02   1.0271308E+02   1.0192298E+02   1.0034278E+02   9.7577431E+01   1.2770000E+02   1.2779876E+02   1.2710742E+02   1.2621856E+02   1.2523093E+02   1.2444083E+02   1.2276186E+02   1.1940394E+02   1.5367451E+02   1.5436586E+02   1.5406956E+02   1.5337823E+02   1.5268689E+02   1.5199556E+02   1.5011906E+02   1.4606979E+02   1.8419208E+02   1.8557477E+02   1.8596982E+02   1.8606857E+02   1.8606857E+02   1.8596982E+02   1.8369827E+02   1.7876015E+02   2.1945023E+02   2.2182053E+02   2.2349948E+02   2.2478339E+02   2.2606731E+02   2.2725246E+02   2.2488216E+02   2.1846260E+02   2.5994269E+02   2.6409070E+02   2.6725110E+02   2.7041150E+02   2.7406570E+02   2.7752240E+02   2.7544836E+02   2.6695480E+02   3.0448428E+02   3.1041003E+02   3.1613824E+02   3.2186646E+02   3.2897736E+02   3.3668082E+02   3.3628577E+02   3.2443430E+02   3.5060596E+02   3.5900076E+02   3.6729678E+02   3.7628415E+02   3.8793808E+02   4.0245615E+02   4.0601160E+02   3.9011087E+02   3.9860388E+02   4.0907266E+02   4.1973895E+02   4.3178793E+02   4.4897256E+02   4.7326804E+02   4.8492197E+02   4.6428067E+02   4.4916922E+02   4.6062561E+02   4.7227951E+02   4.8650122E+02   5.0901895E+02   5.4575836E+02   5.7084393E+02   5.4753613E+02   5.2037531E+02   5.3025146E+02   5.4032520E+02   5.5395428E+02   5.8012616E+02   6.3039581E+02   6.7464105E+02   6.5232092E+02   6.7187354E+02   6.7612024E+02   6.7987317E+02   6.8856421E+02   7.1542725E+02   7.7725189E+02   8.4194055E+02   8.2663257E+02   1.0629636E+03   1.0558529E+03   1.0478533E+03   1.0465693E+03   1.0686918E+03   1.1353555E+03   1.2106112E+03   1.2078459E+03   2.0106611E+03   1.9866624E+03   1.9608859E+03   1.9444917E+03   1.9560466E+03   2.0070070E+03   2.0673496E+03   2.0796946E+03   3.8078699E+03   3.7613540E+03   3.7131594E+03   3.6763223E+03   3.6616069E+03   3.6576567E+03   3.6737544E+03   3.7030859E+03   6.0560625E+03   5.9845615E+03   5.9115791E+03   5.8488677E+03   5.7890200E+03   5.6962856E+03   5.6638931E+03   5.7261108E+03   7.7368149E+03   7.6416133E+03   7.5458188E+03   7.4578267E+03   7.3533418E+03   7.1906890E+03   7.1371631E+03   7.2436230E+03   8.4941084E+03   8.3795527E+03   8.2662803E+03   8.1608105E+03   8.0312437E+03   7.8389683E+03   7.8081567E+03   7.9551040E+03   8.6930596E+03   8.5651758E+03   8.4419326E+03   8.3310342E+03   8.1995947E+03   8.0225317E+03   8.0395171E+03   8.2079883E+03   8.7137725E+03   8.5789805E+03   8.4528779E+03   8.3460322E+03   8.2319775E+03   8.0892861E+03   8.1412280E+03   8.3207529E+03   8.7353564E+03   8.5987939E+03   8.4738838E+03   8.3737578E+03   8.2764951E+03   8.1627422E+03   8.2387754E+03   8.4229316E+03   8.7981582E+03   8.6630859E+03   8.5411465E+03   8.4469512E+03   8.3613457E+03   8.2649785E+03   8.3519658E+03   8.5381846E+03   8.8854248E+03   8.7535244E+03   8.6349521E+03   8.5447139E+03   8.4642510E+03   8.3736182E+03   8.4610918E+03   8.6467988E+03   8.9659736E+03   8.8376436E+03   8.7220469E+03   8.6336963E+03   8.5527490E+03   8.4572910E+03   8.5376455E+03   8.7215527E+03   8.8918486E+03   8.7668936E+03   8.6537842E+03   8.5661387E+03   8.4838232E+03   8.3842354E+03   8.4569775E+03   8.6368076E+03   8.6626094E+03   8.5414316E+03   8.4302217E+03   8.3430889E+03   8.2596074E+03   8.1589565E+03   8.2240840E+03   8.3975596E+03   8.3090107E+03   8.1917178E+03   8.0827119E+03   7.9953096E+03   7.9114590E+03   7.8120215E+03   7.8687441E+03   8.0327954E+03   7.8606201E+03   7.7482065E+03   7.6416104E+03   7.5536519E+03   7.4703276E+03   7.3736919E+03   7.4202349E+03   7.5700205E+03   7.3400933E+03   7.2337520E+03   7.1302700E+03   7.0426538E+03   6.9596709E+03   6.8663413E+03   6.9015249E+03   7.0331938E+03   6.7628032E+03   6.6640249E+03   6.5649512E+03   6.4777930E+03   6.3954614E+03   6.3044658E+03   6.3274121E+03   6.4389917E+03   6.1450347E+03   6.0542246E+03   5.9602661E+03   5.8745713E+03   5.7921240E+03   5.7027910E+03   5.7140068E+03   5.8047168E+03   5.5060581E+03   5.4230322E+03   5.3341113E+03   5.2503965E+03   5.1682549E+03   5.0806123E+03   5.0826743E+03   5.1556768E+03   4.8691929E+03   4.7922979E+03   4.7078506E+03   4.6269336E+03   4.5468008E+03   4.4624526E+03   4.4610771E+03   4.5216875E+03   4.2563643E+03   4.1837632E+03   4.1041167E+03   4.0272087E+03   3.9510825E+03   3.8729031E+03   3.8742690E+03   3.9275894E+03   3.6849368E+03   3.6160789E+03   3.5421492E+03   3.4714360E+03   3.4014043E+03   3.3317629E+03   3.3315605E+03   3.3670537E+03   3.1670989E+03   3.1021287E+03   3.0361860E+03   2.9745137E+03   2.9118691E+03   2.8478630E+03   2.8352278E+03   2.8270601E+03   2.7083018E+03   2.6490105E+03   2.5935801E+03   2.5433608E+03   2.4889871E+03   2.4289148E+03   2.3991609E+03   2.3434346E+03   2.3092275E+03   2.2583347E+03   2.2156807E+03   2.1773359E+03   2.1297883E+03   2.0775437E+03   2.0356498E+03   1.9693602E+03   1.9296892E+03   1.9001677E+03   1.8699781E+03   1.8249836E+03   1.7804640E+03   1.7331953E+03   1.6867340E+03   1.6598396E+03   1.6395914E+03   1.6074426E+03   1.5623671E+03   1.5231952E+03   1.4588948E+03   1.4416521E+03   1.4179548E+03   1.3751846E+03   1.3286396E+03   1.2999716E+03   1.2768235E+03   1.2555134E+03   1.2162478E+03   1.1639929E+03   1.1277104E+03   1.1166284E+03   1.0782870E+03   1.0265009E+03   9.8271631E+02   9.5230927E+02   9.0725092E+02   8.6568695E+02   8.5988635E+02   8.0628455E+02   7.8773914E+02   7.3212439E+02 
Type 1 2975 unsigned_char
0 0 0 0 0 0 0 0 0 0 0 0 0 0 0 0 0 0 0 0 0 0 0 0 0 0 0 0 0 0 0 0 0 0 0 0 0 0 0 0 0 0 0 0 0 0 0 0 0 0 0 0 0 0 0 0 0 0 0 0 0 0 0 0 0 0 0 0 0 0 0 0 0 0 0 0 0 0 0 0 0 0 0 0 0 0 0 0 0 0 0 0 0 0 0 0 0 0 0 0 0 0 0 0 0 0 0 0 0 0 0 0 0 0 0 0 0 0 0 0 0 0 0 0 0 0 0 0 0 0 0 0 0 0 0 0 0 0 0 0 0 0 0 0 0 0 0 0 0 0 0 0 0 0 0 0 0 0 0 0 0 0 0 0 0 0 0 0 0 0 0 0 0 0 0 0 0 0 0 0 0 0 0 0 0 0 0 0 0 0 0 0 0 0 0 0 0 0 0 0 0 0 0 0 0 0 0 0 0 0 0 0 0 0 0 0 0 0 0 0 0 0 0 0 0 0 0 0 0 0 0 0 0 0 0 0 0 0 0 0 0 0 0 0 0 0 0 0 0 0 0 0 0 0 0 0 0 0 0 0 0 0 0 0 0 0 0 0 0 0 0 0 0 0 0 0 0 0 0 0 0 0 0 0 0 0 0 0 0 0 0 0 0 0 0 0 0 0 0 0 0 0 0 0 0 0 0 0 0 0 0 0 0 0 0 0 0 0 0 0 0 0 0 0 0 0 0 0 0 0 0 0 0 0 0 0 0 0 0 0 0 0 0 0 0 0 0 0 0 0 0 0 0 0 0 0 0 0 0 0 0 0 0 0 0 0 0 0 0 0 0 0 0 0 0 0 0 0 0 0 0 0 0 0 0 0 0 0 0 0 0 0 0 0 0 0 0 0 0 0 0 0 0 0 0 0 0 0 0 0 0 0 0 0 0 0 0 0 0 0 0 0 0 0 0 0 0 0 0 0 0 0 0 0 0 0 0 0 0 0 0 0 0 0 0 0 0 0 0 0 0 0 0 0 0 0 0 0 0 0 0 0 0 0 0 0 0 0 0 0 0 0 0 0 0 0 0 0 0 0 0 0 0 0 0 0 0 0 0 0 0 0 0 0 0 0 0 0 0 0 0 0 0 0 0 0 0 0 0 0 0 0 0 0 0 0 0 0 0 0 0 0 0 0 0 0 0 0 0 0 0 0 0 0 0 0 0 0 0 0 0 0 0 0 0 0 0 0 0 0 0 0 0 0 0 0 0 0 0 0 0 0 0 0 0 0 0 0 0 0 0 0 0 0 0 0 0 0 0 0 0 0 0 0 0 0 0 0 0 0 0 0 0 0 0 0 0 0 0 0 0 0 0 0 0 0 0 0 0 0 0 0 0 0 0 0 0 0 0 0 0 0 0 0 0 0 0 0 0 0 0 0 0 0 0 0 0 0 0 0 0 0 0 0 0 0 0 0 0 0 0 0 0 0 0 0 0 0 0 0 0 0 0 0 0 0 0 0 0 0 0 0 0 0 0 0 0 0 0 0 0 0 0 0 0 0 0 0 0 0 0 0 0 0 0 0 0 0 0 0 0 0 0 0 0 0 0 0 0 0 0 0 0 0 0 0 0 0 0 0 0 0 0 0 0 0 0 0 0 0 0 0 0 0 0 0 0 0 0 0 0 0 0 0 0 0 0 0 0 0 0 0 0 0 0 0 0 0 0 0 0 0 0 0 0 0 0 0 0 0 0 0 0 0 0 0 0 0 0 0 0 0 0 0 0 0 0 0 0 0 0 0 0 0 0 0 0 0 0 0 0 0 0 0 0 0 0 0 0 0 0 0 0 0 0 0 0 0 0 0 0 0 0 0 0 0 0 0 0 0 0 0 0 0 0 0 0 0 0 0 0 0 0 0 0 0 0 0 0 0 0 0 0 0 0 0 0 0 0 0 0 0 0 0 0 0 0 0 0 0 0 0 0 0 0 0 0 0 0 0 0 0 0 0 0 0 0 0 0 0 0 0 0 0 0 0 0 0 0 0 0 0 0 0 0 0 0 0 0 0 0 0 0 0 0 0 0 0 0 0 0 0 0 0 0 0 0 0 0 0 0 0 0 0 0 0 0 0 0 0 0 0 0 0 0 0 0 0 0 0 0 0 0 0 0 0 0 0 0 0 0 0 0 0 0 0 0 0 0 0 0 0 0 0 0 0 0 0 0 0 0 0 0 0 0 0 0 0 0 0 0 0 0 0 0 0 0 0 0 0 0 0 0 0 0 0 0 0 0 0 0 0 0 0 0 0 0 0 0 0 0 0 0 0 0 0 0 0 0 0 0 3 3 3 3 3 3 3 3 3 3 3 3 3 3 3 3 3 3 3 3 3 3 3 3 3 3 3 3 3 3 3 3 3 3 3 3 3 3 3 3 3 3 3 3 3 3 3 3 3 3 3 3 3 3 3 3 3 3 3 3 3 3 3 3 3 3 3 3 3 3 3 3 3 3 3 3 3 3 3 3 3 3 3 3 3 3 3 3 3 3 3 3 3 3 3 3 3 3 3 3 3 3 3 3 3 3 3 3 3 3 3 3 3 3 3 3 3 3 3 3 3 3 3 3 3 3 3 3 3 3 3 3 3 3 3 3 3 3 3 3 3 3 3 3 3 3 3 3 3 3 3 3 3 3 3 3 3 3 3 3 3 3 3 3 3 3 3 3 3 3 3 3 3 3 3 3 3 3 3 3 3 3 3 3 3 3 3 3 3 3 3 3 3 3 3 3 3 3 3 3 3 3 3 3 3 3 3 3 3 3 3 3 3 3 3 3 3 3 3 3 3 3 3 3 3 3 3 3 3 3 3 3 3 3 3 3 3 3 3 3 3 3 3 3 3 3 3 3 3 3 3 3 3 3 3 3 3 3 3 3 3 3 3 3 3 3 3 3 3 3 3 3 3 3 3 3 3 3 3 3 3 3 3 3 3 3 3 3 3 3 3 3 3 3 3 3 3 3 3 3 3 3 3 3 3 3 3 3 3 3 3 3 3 3 3 3 3 3 3 3 3 3 3 3 3 3 3 3 3 3 3 3 3 3 3 3 3 3 3 3 3 3 3 3 3 3 3 3 3 3 3 3 3 3 3 3 3 3 3 3 3 3 3 3 3 3 3 3 3 3 3 3 3 3 3 3 3 3 3 3 3 3 3 3 3 3 3 3 3 3 3 3 3 3 3 3 3 3 3 3 3 3 3 3 3 3 3 3 3 3 3 3 3 3 3 3 3 3 3 3 3 3 3 3 3 3 3 3 3 3 3 3 3 3 3 3 3 3 3 3 3 3 3 3 3 3 3 3 3 3 3 3 3 3 3 3 3 3 3 3 3 3 3 3 3 3 3 3 3 3 3 3 3 3 3 3 3 3 3 3 3 3 3 3 3 3 3 3 3 3 3 3 3 3 3 3 3 3 3 3 3 3 3 3 3 3 3 3 3 3 3 3 3 3 3 3 3 3 3 3 3 3 3 3 3 3 3 3 3 3 3 3 3 3 3 3 3 3 3 3 3 3 3 3 3 3 3 3 3 3 3 3 3 3 3 3 3 3 3 3 3 3 3 3 3 3 3 3 3 3 3 3 3 3 3 3 3 3 3 3 3 3 3 3 3 3 3 3 3 3 3 3 3 3 3 3 3 3 3 3 3 3 3 3 3 3 3 3 3 3 3 3 3 3 3 3 3 3 3 3 3 3 3 3 3 3 3 3 3 3 3 3 3 3 3 3 3 3 3 3 3 3 3 3 3 3 3 3 3 3 3 3 3 3 3 3 3 3 3 3 3 3 3 3 3 3 3 3 3 3 3 3 3 3 3 3 3 3 3 3 3 3 3 3 3 3 3 3 3 3 3 3 3 3 3 3 3 3 3 3 3 3 3 3 3 3 3 3 3 3 3 3 3 3 3 3 3 3 3 3 3 3 3 3 3 3 3 3 3 3 3 3 3 3 3 3 3 3 3 3 3 3 3 3 3 3 3 3 3 3 3 3 3 3 3 3 3 3 3 3 3 3 3 3 3 3 3 3 3 3 3 3 3 3 3 3 3 3 3 3 3 3 3 3 3 3 3 3 3 3 3 3 3 3 3 3 3 3 3 3 3 3 3 3 3 3 3 3 3 3 3 3 3 3 3 3 3 3 3 3 3 3 3 3 3 3 3 3 3 3 3 3 3 3 3 3 3 3 3 3 3 3 3 3 3 3 3 3 3 3 3 3 3 3 3 3 3 3 3 3 3 3 3 3 3 3 3 3 3 3 3 3 3 3 3 3 3 3 3 3 3 3 3 3 3 3 3 3 3 3 3 3 3 3 3 3 3 3 3 3 3 3 3 3 3 3 3 3 3 3 3 3 3 3 3 3 3 3 3 3 3 3 3 3 3 3 3 3 3 3 3 3 3 3 3 3 3 3 3 3 3 3 3 3 3 3 3 3 3 3 3 3 3 3 3 3 3 3 3 3 3 3 3 3 3 3 3 3 3 3 3 3 3 3 3 3 3 3 3 3 3 3 3 3 3 3 3 3 3 3 3 3 3 3 3 3 3 3 3 3 3 3 3 3 3 3 3 3 3 3 3 3 3 3 3 3 3 3 3 3 3 3 3 3 3 3 3 3 3 3 3 3 3 3 3 3 3 3 3 3 3 3 3 3 3 3 3 3 3 3 3 3 3 3 3 3 3 3 3 3 3 3 3 3 3 3 3 3 3 3 3 3 3 3 3 3 3 3 3 3 3 3 3 3 3 3 3 3 3 3 3 3 3 3 3 3 3 3 3 3 3 3 3 3 3 3 3 3 3 3 3 3 3 3 3 3 3 3 3 3 3 3 3 3 3 3 3 3 3 3 3 3 3 3 3 3 3 3 3 3 3 3 3 3 3 3 3 3 3 3 3 3 3 3 3 3 3 3 3 3 3 3 3 3 3 3 3 3 3 3 3 3 3 3 3 3 3 3 3 3 3 3 3 3 3 3 3 3 3 3 3 3 3 3 3 3 3 3 3 3 3 3 3 3 3 3 3 3 3 3 3 3 3 3 3 3 3 3 3 3 3 3 3 3 3 3 3 3 3 3 3 3 3 3 3 3 3 3 3 3 3 3 3 3 3 3 3 3 3 3 3 3 3 3 3 3 3 3 3 3 3 3 3 3 3 3 3 3 3 3 3 3 3 3 3 3 3 3 3 3 3 3 3 3 3 3 3 3 3 3 3 3 3 3 3 3 3 3 3 3 3 3 3 3 3 3 3 3 3 3 3 3 3 3 3 3 3 3 3 3 3 3 3 3 3 3 3 3 3 3 3 3 3 3 3 3 3 3 3 3 3 3 3 3 3 3 3 3 3 3 3 3 3 3 3 3 3 3 3 3 3 3 3 3 3 3 3 3 3 3 3 3 3 3 3 3 3 3 3 3 3 3 3 3 3 3 3 3 3 3 3 3 3 3 3 3 3 3 3 3 3 3 3 3 3 3 3 3 3 3 3 3 3 3 3 3 3 3 3 3 3 3 3 3 3 3 3 3 3 3 3 3 3 3 3 3 3 3 3 3 3 3 3 3 3 3 3 3 3 3 3 3 3 3 3 3 3 3 3 3 3 3 3 3 3 3 3 3 3 3 3 3 3 3 3 3 3 3 3 3 3 3 3 3 3 3 3 3 3 3 3 3 3 3 3 3 3 3 3 3 3 3 3 3 3 3 3 3 3 3 3 3 3 3 3 3 3 3 3 3 3 3 3 3 3 3 3 3 3 3 3 3 3 3 3 3 3 3 3 3 3 3 3 3 3 3 3 3 3 3 3 3 3 3 3 3 3 3 3 3 3 3 3 3 3 3 3 3 3 3 3 3 3 3 3 3 3 3 3 3 3 3 3 3 3 3 3 3 3 3 3 3 3 3 3 3 3 3 3 3 3 3 3 3 3 3 3 3 3 3 3 3 3 3 3 3 3 3 3 3 3 3 3 3 3 3 3 3 3 3 3 3 3 3 3 3 3 3 3 3 3 3 3 3 3 3 3 3 3 3 3 3 3 3 3 3 3 3 3 3 3 3 3 3 3 3 3 3 3 3 3 3 3 3 3 3 3 3 3 3 3 3 3 3 3 3 3 3 3 3 3 3 3 3 3 3 3 3 3 3 3 3 3 3 3 3 3 3 3 3 3 3 3 3 3 3 3 3 3 3 3 3 3 3 3 3 3 3 3 3 3 3 3 3 3 3 3 3 3 3 3 3 3 3 3 3 3 3 3 3 3 3 3 3 3 3 3 3 3 3 3 3 3 3 3 3 3 3 3 3 3 3 3 3 3 3 3 3 3 3 3 3 3 3 3 3 3 3 3 3 3 3 3 3 3 3 3 3 3 3 3 3 3 3 3 3 3 3 3 3 3 3 3 3 3 3 3 3 3 3 3 3 3 3 3 3 3 3 3 3 3 3 3 3 3 3 3 3 3 3 3 3 3 3 3 3 3 3 3 3 3 3 3 3 3 3 3 3 3 3 3 3 3 3 3 3 3 3 3 3 3 3 3 3 3 3 3 3 3 3 3 3 3 3 3 3 3 3 3 3 3 3 3 3 3 3 3 3 3 3 3 3 3 3 3 3 3 3 3 3 3 3 3 3 3 3 3 3 3 3 3 3 3 3 3 3 3 3 3 3 3 3 3 3 3 3 3 3 3 3 3 3 3 3 
Acec.x 1 2975 float
  0.0000000E+00   0.0000000E+00   0.0000000E+00   0.0000000E+00   0.0000000E+00   0.0000000E+00   0.0000000E+00   0.0000000E+00   0.0000000E+00   0.0000000E+00   0.0000000E+00   0.0000000E+00   0.0000000E+00   0.0000000E+00   0.0000000E+00   0.0000000E+00   0.0000000E+00   0.0000000E+00   0.0000000E+00   0.0000000E+00   0.0000000E+00   0.0000000E+00   0.0000000E+00   0.0000000E+00   0.0000000E+00   0.0000000E+00   0.0000000E+00   0.0000000E+00   0.0000000E+00   0.0000000E+00   0.0000000E+00   0.0000000E+00   0.0000000E+00   0.0000000E+00   0.0000000E+00   0.0000000E+00   0.0000000E+00   0.0000000E+00   0.0000000E+00   0.0000000E+00   0.0000000E+00   0.0000000E+00   0.0000000E+00   0.0000000E+00   0.0000000E+00   0.0000000E+00   0.0000000E+00   0.0000000E+00   0.0000000E+00   0.0000000E+00   0.0000000E+00   0.0000000E+00   0.0000000E+00   0.0000000E+00   0.0000000E+00   0.0000000E+00   0.0000000E+00   0.0000000E+00   0.0000000E+00   0.0000000E+00   0.0000000E+00   0.0000000E+00   0.0000000E+00   0.0000000E+00   0.0000000E+00   0.0000000E+00   0.0000000E+00   0.0000000E+00   0.0000000E+00   0.0000000E+00   0.0000000E+00   0.0000000E+00   0.0000000E+00   0.0000000E+00   0.0000000E+00   0.0000000E+00   0.0000000E+00   0.0000000E+00   0.0000000E+00   0.0000000E+00   0.0000000E+00   0.0000000E+00   0.0000000E+00   0.0000000E+00   0.0000000E+00   0.0000000E+00   0.0000000E+00   0.0000000E+00   0.0000000E+00   0.0000000E+00   0.0000000E+00   0.0000000E+00   0.0000000E+00   0.0000000E+00   0.0000000E+00   0.0000000E+00   0.0000000E+00   0.0000000E+00   0.0000000E+00   0.0000000E+00   0.0000000E+00   0.0000000E+00   0.0000000E+00   0.0000000E+00   0.0000000E+00   0.0000000E+00   0.0000000E+00   0.0000000E+00   0.0000000E+00   0.0000000E+00   0.0000000E+00   0.0000000E+00   0.0000000E+00   0.0000000E+00   0.0000000E+00   0.0000000E+00   0.0000000E+00   0.0000000E+00   0.0000000E+00   0.0000000E+00   0.0000000E+00   0.0000000E+00   0.0000000E+00   0.0000000E+00   0.0000000E+00   0.0000000E+00   0.0000000E+00   0.0000000E+00   0.0000000E+00   0.0000000E+00   0.0000000E+00   0.0000000E+00   0.0000000E+00   0.0000000E+00   0.0000000E+00   0.0000000E+00   0.0000000E+00   0.0000000E+00   0.0000000E+00   0.0000000E+00   0.0000000E+00   0.0000000E+00   0.0000000E+00   0.0000000E+00   0.0000000E+00   0.0000000E+00   0.0000000E+00   0.0000000E+00   0.0000000E+00   0.0000000E+00   0.0000000E+00   0.0000000E+00   0.0000000E+00   0.0000000E+00   0.0000000E+00   0.0000000E+00   0.0000000E+00   0.0000000E+00   0.0000000E+00   0.0000000E+00   0.0000000E+00   0.0000000E+00   0.0000000E+00   0.0000000E+00   0.0000000E+00   0.0000000E+00   0.0000000E+00   0.0000000E+00   0.0000000E+00   0.0000000E+00   0.0000000E+00   0.0000000E+00   0.0000000E+00   0.0000000E+00   0.0000000E+00   0.0000000E+00   0.0000000E+00   0.0000000E+00   0.0000000E+00   0.0000000E+00   0.0000000E+00   0.0000000E+00   0.0000000E+00   0.0000000E+00   0.0000000E+00   0.0000000E+00   0.0000000E+00   0.0000000E+00   0.0000000E+00   0.0000000E+00   0.0000000E+00   0.0000000E+00   0.0000000E+00   0.0000000E+00   0.0000000E+00   0.0000000E+00   0.0000000E+00   0.0000000E+00   0.0000000E+00   0.0000000E+00   0.0000000E+00   0.0000000E+00   0.0000000E+00   0.0000000E+00   0.0000000E+00   0.0000000E+00   0.0000000E+00   0.0000000E+00   0.0000000E+00   0.0000000E+00   0.0000000E+00   0.0000000E+00   0.0000000E+00   0.0000000E+00   0.0000000E+00   0.0000000E+00   0.0000000E+00   0.0000000E+00   0.0000000E+00   0.0000000E+00   0.0000000E+00   0.0000000E+00   0.0000000E+00   0.0000000E+00   0.0000000E+00   0.0000000E+00   0.0000000E+00   0.0000000E+00   0.0000000E+00   0.0000000E+00   0.0000000E+00   0.0000000E+00   0.0000000E+00   0.0000000E+00   0.0000000E+00   0.0000000E+00   0.0000000E+00   0.0000000E+00   0.0000000E+00   0.0000000E+00   0.0000000E+00   0.0000000E+00   0.0000000E+00   0.0000000E+00   0.0000000E+00   0.0000000E+00   0.0000000E+00   0.0000000E+00   0.0000000E+00   0.0000000E+00   0.0000000E+00   0.0000000E+00   0.0000000E+00   0.0000000E+00   0.0000000E+00   0.0000000E+00   0.0000000E+00   0.0000000E+00   0.0000000E+00   0.0000000E+00   0.0000000E+00   0.0000000E+00   0.0000000E+00   0.0000000E+00   0.0000000E+00   0.0000000E+00   0.0000000E+00   0.0000000E+00   0.0000000E+00   0.0000000E+00   0.0000000E+00   0.0000000E+00   0.0000000E+00   0.0000000E+00   0.0000000E+00   0.0000000E+00   0.0000000E+00   0.0000000E+00   0.0000000E+00   0.0000000E+00   0.0000000E+00   0.0000000E+00   0.0000000E+00   0.0000000E+00   0.0000000E+00   0.0000000E+00   0.0000000E+00   0.0000000E+00   0.0000000E+00   0.0000000E+00   0.0000000E+00   0.0000000E+00   0.0000000E+00   0.0000000E+00   0.0000000E+00   0.0000000E+00   0.0000000E+00   0.0000000E+00   0.0000000E+00   0.0000000E+00   0.0000000E+00   0.0000000E+00   0.0000000E+00   0.0000000E+00   0.0000000E+00   0.0000000E+00   0.0000000E+00   0.0000000E+00   0.0000000E+00   0.0000000E+00   0.0000000E+00   0.0000000E+00   0.0000000E+00   0.0000000E+00   0.0000000E+00   0.0000000E+00   0.0000000E+00   0.0000000E+00   0.0000000E+00   0.0000000E+00   0.0000000E+00   0.0000000E+00   0.0000000E+00   0.0000000E+00   0.0000000E+00   0.0000000E+00   0.0000000E+00   0.0000000E+00   0.0000000E+00   0.0000000E+00   0.0000000E+00   0.0000000E+00   0.0000000E+00   0.0000000E+00   0.0000000E+00   0.0000000E+00   0.0000000E+00   0.0000000E+00   0.0000000E+00   0.0000000E+00   0.0000000E+00   0.0000000E+00   0.0000000E+00   0.0000000E+00   0.0000000E+00   0.0000000E+00   0.0000000E+00   0.0000000E+00   0.0000000E+00   0.0000000E+00   0.0000000E+00   0.0000000E+00   0.0000000E+00   0.0000000E+00   0.0000000E+00   0.0000000E+00   0.0000000E+00   0.0000000E+00   0.0000000E+00   0.0000000E+00   0.0000000E+00   0.0000000E+00   0.0000000E+00   0.0000000E+00   0.0000000E+00   0.0000000E+00   0.0000000E+00   0.0000000E+00   0.0000000E+00   0.0000000E+00   0.0000000E+00   0.0000000E+00   0.0000000E+00   0.0000000E+00   0.0000000E+00   0.0000000E+00   0.0000000E+00   0.0000000E+00   0.0000000E+00   0.0000000E+00   0.0000000E+00   0.0000000E+00   0.0000000E+00   0.0000000E+00   0.0000000E+00   0.0000000E+00   0.0000000E+00   0.0000000E+00   0.0000000E+00   0.0000000E+00   0.0000000E+00   0.0000000E+00   0.0000000E+00   0.0000000E+00   0.0000000E+00   0.0000000E+00   0.0000000E+00   0.0000000E+00   0.0000000E+00   0.0000000E+00   0.0000000E+00   0.0000000E+00   0.0000000E+00   0.0000000E+00   0.0000000E+00   0.0000000E+00   0.0000000E+00   0.0000000E+00   0.0000000E+00   0.0000000E+00   0.0000000E+00   0.0000000E+00   0.0000000E+00   0.0000000E+00   0.0000000E+00   0.0000000E+00   0.0000000E+00   0.0000000E+00   0.0000000E+00   0.0000000E+00   0.0000000E+00   0.0000000E+00   0.0000000E+00   0.0000000E+00   0.0000000E+00   0.0000000E+00   0.0000000E+00   0.0000000E+00   0.0000000E+00   0.0000000E+00   0.0000000E+00   0.0000000E+00   0.0000000E+00   0.0000000E+00   0.0000000E+00   0.0000000E+00   0.0000000E+00   0.0000000E+00   0.0000000E+00   0.0000000E+00   0.0000000E+00   0.0000000E+00   0.0000000E+00   0.0000000E+00   0.0000000E+00   0.0000000E+00   0.0000000E+00   0.0000000E+00   0.0000000E+00   0.0000000E+00   0.0000000E+00   0.0000000E+00   0.0000000E+00   0.0000000E+00   0.0000000E+00   0.0000000E+00   0.0000000E+00   0.0000000E+00   0.0000000E+00   0.0000000E+00   0.0000000E+00   0.0000000E+00   0.0000000E+00   0.0000000E+00   0.0000000E+00   0.0000000E+00   0.0000000E+00   0.0000000E+00   0.0000000E+00   0.0000000E+00   0.0000000E+00   0.0000000E+00   0.0000000E+00   0.0000000E+00   0.0000000E+00   0.0000000E+00   0.0000000E+00   0.0000000E+00   0.0000000E+00   0.0000000E+00   0.0000000E+00   0.0000000E+00   0.0000000E+00   0.0000000E+00   0.0000000E+00   0.0000000E+00   0.0000000E+00   0.0000000E+00   0.0000000E+00   0.0000000E+00   0.0000000E+00   0.0000000E+00   0.0000000E+00   0.0000000E+00   0.0000000E+00   0.0000000E+00   0.0000000E+00   0.0000000E+00   0.0000000E+00   0.0000000E+00   0.0000000E+00   0.0000000E+00   0.0000000E+00   0.0000000E+00   0.0000000E+00   0.0000000E+00   0.0000000E+00   0.0000000E+00   0.0000000E+00   0.0000000E+00   0.0000000E+00   0.0000000E+00   0.0000000E+00   0.0000000E+00   0.0000000E+00   0.0000000E+00   0.0000000E+00   0.0000000E+00   0.0000000E+00   0.0000000E+00   0.0000000E+00   0.0000000E+00   0.0000000E+00   0.0000000E+00   0.0000000E+00   0.0000000E+00   0.0000000E+00   0.0000000E+00   0.0000000E+00   0.0000000E+00   0.0000000E+00   0.0000000E+00   0.0000000E+00   0.0000000E+00   0.0000000E+00   0.0000000E+00   0.0000000E+00   0.0000000E+00   0.0000000E+00   0.0000000E+00   0.0000000E+00   0.0000000E+00   0.0000000E+00   0.0000000E+00   0.0000000E+00   0.0000000E+00   0.0000000E+00   0.0000000E+00   0.0000000E+00   0.0000000E+00   0.0000000E+00   0.0000000E+00   0.0000000E+00   0.0000000E+00   0.0000000E+00   0.0000000E+00   0.0000000E+00   0.0000000E+00   0.0000000E+00   0.0000000E+00   0.0000000E+00   0.0000000E+00   0.0000000E+00   0.0000000E+00   0.0000000E+00   0.0000000E+00   0.0000000E+00   0.0000000E+00   0.0000000E+00   0.0000000E+00   0.0000000E+00   0.0000000E+00   0.0000000E+00   0.0000000E+00   0.0000000E+00   0.0000000E+00   0.0000000E+00   0.0000000E+00   0.0000000E+00   0.0000000E+00   0.0000000E+00   0.0000000E+00   0.0000000E+00   0.0000000E+00   0.0000000E+00   0.0000000E+00   0.0000000E+00   0.0000000E+00   0.0000000E+00   0.0000000E+00   0.0000000E+00   0.0000000E+00   0.0000000E+00   0.0000000E+00   0.0000000E+00   0.0000000E+00   0.0000000E+00   0.0000000E+00   0.0000000E+00   0.0000000E+00   0.0000000E+00   0.0000000E+00   0.0000000E+00   0.0000000E+00   0.0000000E+00   0.0000000E+00   0.0000000E+00   0.0000000E+00   0.0000000E+00   0.0000000E+00   0.0000000E+00   0.0000000E+00   0.0000000E+00   0.0000000E+00   0.0000000E+00   0.0000000E+00   0.0000000E+00   0.0000000E+00   0.0000000E+00   0.0000000E+00   0.0000000E+00   0.0000000E+00   0.0000000E+00   0.0000000E+00   0.0000000E+00   0.0000000E+00   0.0000000E+00   0.0000000E+00   0.0000000E+00   0.0000000E+00   0.0000000E+00   0.0000000E+00   0.0000000E+00   0.0000000E+00   0.0000000E+00   0.0000000E+00   0.0000000E+00   0.0000000E+00   0.0000000E+00   0.0000000E+00   0.0000000E+00   0.0000000E+00   0.0000000E+00   0.0000000E+00   0.0000000E+00   0.0000000E+00   0.0000000E+00   0.0000000E+00   0.0000000E+00   0.0000000E+00   0.0000000E+00   0.0000000E+00   0.0000000E+00   0.0000000E+00   0.0000000E+00   0.0000000E+00   0.0000000E+00   0.0000000E+00   0.0000000E+00   0.0000000E+00   0.0000000E+00   0.0000000E+00   0.0000000E+00   0.0000000E+00   0.0000000E+00   0.0000000E+00   0.0000000E+00   0.0000000E+00   0.0000000E+00   0.0000000E+00   0.0000000E+00   0.0000000E+00   0.0000000E+00   0.0000000E+00   0.0000000E+00   0.0000000E+00   0.0000000E+00   0.0000000E+00   0.0000000E+00   0.0000000E+00   0.0000000E+00   0.0000000E+00   0.0000000E+00   0.0000000E+00   0.0000000E+00   0.0000000E+00   0.0000000E+00   0.0000000E+00   0.0000000E+00   0.0000000E+00   0.0000000E+00   0.0000000E+00   0.0000000E+00   0.0000000E+00   0.0000000E+00   0.0000000E+00   0.0000000E+00   0.0000000E+00   0.0000000E+00   0.0000000E+00   0.0000000E+00   0.0000000E+00   0.0000000E+00   0.0000000E+00   0.0000000E+00   0.0000000E+00   0.0000000E+00   0.0000000E+00   0.0000000E+00   0.0000000E+00   0.0000000E+00   0.0000000E+00   0.0000000E+00   0.0000000E+00   0.0000000E+00   0.0000000E+00   0.0000000E+00   0.0000000E+00   0.0000000E+00   0.0000000E+00   0.0000000E+00   0.0000000E+00   0.0000000E+00   0.0000000E+00   0.0000000E+00   0.0000000E+00   0.0000000E+00   0.0000000E+00   0.0000000E+00   0.0000000E+00   0.0000000E+00   0.0000000E+00   0.0000000E+00   0.0000000E+00   0.0000000E+00   0.0000000E+00   0.0000000E+00   0.0000000E+00   0.0000000E+00   0.0000000E+00   0.0000000E+00   0.0000000E+00   0.0000000E+00   0.0000000E+00   0.0000000E+00   0.0000000E+00   0.0000000E+00   0.0000000E+00   0.0000000E+00   0.0000000E+00   0.0000000E+00   0.0000000E+00   0.0000000E+00   0.0000000E+00   0.0000000E+00   0.0000000E+00   0.0000000E+00   0.0000000E+00   0.0000000E+00   0.0000000E+00   0.0000000E+00   0.0000000E+00   0.0000000E+00   0.0000000E+00   0.0000000E+00   0.0000000E+00   0.0000000E+00   0.0000000E+00   0.0000000E+00   0.0000000E+00   0.0000000E+00   0.0000000E+00   0.0000000E+00   0.0000000E+00   0.0000000E+00   0.0000000E+00   0.0000000E+00   0.0000000E+00   0.0000000E+00   0.0000000E+00   0.0000000E+00   0.0000000E+00   0.0000000E+00   0.0000000E+00   0.0000000E+00   0.0000000E+00   0.0000000E+00   0.0000000E+00   0.0000000E+00   0.0000000E+00   0.0000000E+00   0.0000000E+00   0.0000000E+00   0.0000000E+00   0.0000000E+00   0.0000000E+00   0.0000000E+00   0.0000000E+00   0.0000000E+00   0.0000000E+00   0.0000000E+00   0.0000000E+00   0.0000000E+00   0.0000000E+00   0.0000000E+00   0.0000000E+00   0.0000000E+00   0.0000000E+00   0.0000000E+00   0.0000000E+00   0.0000000E+00   0.0000000E+00   0.0000000E+00   0.0000000E+00   0.0000000E+00   0.0000000E+00   0.0000000E+00   0.0000000E+00   0.0000000E+00   0.0000000E+00   0.0000000E+00   0.0000000E+00   0.0000000E+00   0.0000000E+00   0.0000000E+00   0.0000000E+00   0.0000000E+00   0.0000000E+00   0.0000000E+00   0.0000000E+00   0.0000000E+00   0.0000000E+00   0.0000000E+00   0.0000000E+00   0.0000000E+00   0.0000000E+00   0.0000000E+00   0.0000000E+00   0.0000000E+00   0.0000000E+00   0.0000000E+00   0.0000000E+00   0.0000000E+00   0.0000000E+00   0.0000000E+00   0.0000000E+00   0.0000000E+00   0.0000000E+00   0.0000000E+00   0.0000000E+00   0.0000000E+00   0.0000000E+00   0.0000000E+00   0.0000000E+00   0.0000000E+00   0.0000000E+00   0.0000000E+00   0.0000000E+00   0.0000000E+00   0.0000000E+00   0.0000000E+00   0.0000000E+00   0.0000000E+00   0.0000000E+00   0.0000000E+00   0.0000000E+00   0.0000000E+00   0.0000000E+00   0.0000000E+00   0.0000000E+00   0.0000000E+00   0.0000000E+00   0.0000000E+00   0.0000000E+00   0.0000000E+00   0.0000000E+00   0.0000000E+00   0.0000000E+00   0.0000000E+00   0.0000000E+00   0.0000000E+00   0.0000000E+00   0.0000000E+00   0.0000000E+00   0.0000000E+00   0.0000000E+00   0.0000000E+00   0.0000000E+00   0.0000000E+00   0.0000000E+00   0.0000000E+00   0.0000000E+00   0.0000000E+00   0.0000000E+00   0.0000000E+00   0.0000000E+00   0.0000000E+00   0.0000000E+00   0.0000000E+00   0.0000000E+00   0.0000000E+00   0.0000000E+00   0.0000000E+00   0.0000000E+00   0.0000000E+00   0.0000000E+00   0.0000000E+00   0.0000000E+00   0.0000000E+00   0.0000000E+00   0.0000000E+00   0.0000000E+00   0.0000000E+00   0.0000000E+00   0.0000000E+00   0.0000000E+00   0.0000000E+00   0.0000000E+00   0.0000000E+00   0.0000000E+00   0.0000000E+00   0.0000000E+00   0.0000000E+00   0.0000000E+00   0.0000000E+00   0.0000000E+00   0.0000000E+00   0.0000000E+00   0.0000000E+00   0.0000000E+00   0.0000000E+00   0.0000000E+00   0.0000000E+00   0.0000000E+00   0.0000000E+00   0.0000000E+00   0.0000000E+00   0.0000000E+00   0.0000000E+00   0.0000000E+00   0.0000000E+00   0.0000000E+00   0.0000000E+00   0.0000000E+00   0.0000000E+00   0.0000000E+00   0.0000000E+00   0.0000000E+00   0.0000000E+00   0.0000000E+00   0.0000000E+00   0.0000000E+00   0.0000000E+00   0.0000000E+00   0.0000000E+00   0.0000000E+00   0.0000000E+00   0.0000000E+00   0.0000000E+00   0.0000000E+00   0.0000000E+00   0.0000000E+00   0.0000000E+00   0.0000000E+00   0.0000000E+00   0.0000000E+00   0.0000000E+00   0.0000000E+00   0.0000000E+00   0.0000000E+00   0.0000000E+00   0.0000000E+00   0.0000000E+00   0.0000000E+00   0.0000000E+00   0.0000000E+00   0.0000000E+00   0.0000000E+00   0.0000000E+00   0.0000000E+00   0.0000000E+00   0.0000000E+00   0.0000000E+00   0.0000000E+00   0.0000000E+00   0.0000000E+00   0.0000000E+00   0.0000000E+00   0.0000000E+00   0.0000000E+00   0.0000000E+00   0.0000000E+00   0.0000000E+00   0.0000000E+00   0.0000000E+00   0.0000000E+00   0.0000000E+00   0.0000000E+00   0.0000000E+00   0.0000000E+00   0.0000000E+00   0.0000000E+00   0.0000000E+00   0.0000000E+00   0.0000000E+00   0.0000000E+00   0.0000000E+00   0.0000000E+00   0.0000000E+00   0.0000000E+00   0.0000000E+00   0.0000000E+00   0.0000000E+00   0.0000000E+00   0.0000000E+00   0.0000000E+00   0.0000000E+00   0.0000000E+00   0.0000000E+00   0.0000000E+00   0.0000000E+00   0.0000000E+00   0.0000000E+00   0.0000000E+00   0.0000000E+00   0.0000000E+00   0.0000000E+00   0.0000000E+00   0.0000000E+00   0.0000000E+00   0.0000000E+00  -1.3872439E-01  -1.6457695E-01  -1.8614823E-01  -2.0304033E-01  -2.1597379E-01  -1.4198288E-01  -1.9018841E-01  -2.2888449E-01  -2.5923690E-01  -2.8229317E-01  -2.9944229E-01  -1.9771361E-01  -2.6232681E-01  -3.1371397E-01  -3.5411039E-01  -3.8428721E-01  -4.0635473E-01  -2.6829657E-01  -3.5304818E-01  -4.1855925E-01  -4.6946225E-01  -5.0714099E-01  -5.3422678E-01  -3.5619178E-01  -4.6493262E-01  -5.4658782E-01  -6.0871208E-01  -6.5396088E-01  -6.8584561E-01  -4.6666029E-01  -6.0373306E-01  -7.0341408E-01  -7.7738637E-01  -8.3002460E-01  -8.6618429E-01  -6.0701877E-01  -7.7709597E-01  -8.9620161E-01  -9.8229408E-01  -1.0416521E+00  -1.0812643E+00  -7.8747678E-01  -9.9409103E-01  -1.1333432E+00  -1.2308083E+00  -1.2959155E+00  -1.3375922E+00  -1.0226569E+00  -1.2653767E+00  -1.4236863E+00  -1.5304786E+00  -1.6000499E+00  -1.6421703E+00  -1.3342810E+00  -1.6036892E+00  -1.7766334E+00  -1.8903708E+00  -1.9625121E+00  -2.0025680E+00  -1.7457443E+00  -2.0284309E+00  -2.2060151E+00  -2.3220208E+00  -2.3920093E+00  -2.4271817E+00  -2.2385812E+00  -2.5509191E+00  -2.7256427E+00  -2.8375218E+00  -2.8988113E+00  -2.9248869E+00  -2.8977549E+00  -3.2025790E+00  -3.3577559E+00  -3.4527242E+00  -3.4957263E+00  -3.5058806E+00  -3.7964563E+00  -4.0322685E+00  -4.1361156E+00  -4.1863251E+00  -4.1958694E+00  -4.1824131E+00  -4.9213324E+00  -5.0454450E+00  -5.0647779E+00  -5.0484171E+00  -5.0121384E+00  -4.9667821E+00  -6.2182460E+00  -6.2156625E+00  -6.1347108E+00  -6.0405054E+00  -5.9546871E+00  -5.8708334E+00  -7.6502261E+00  -7.5234041E+00  -7.3409829E+00  -7.1703310E+00  -7.0299578E+00  -6.9050698E+00  -9.2110968E+00  -8.9724112E+00  -8.6942329E+00  -8.4467344E+00  -8.2513533E+00  -8.0827017E+00  -1.0938863E+01  -1.0594270E+01  -1.0214192E+01  -9.8847961E+00  -9.6305904E+00  -9.4147825E+00  -1.2888766E+01  -1.2420307E+01  -1.1921391E+01  -1.1498290E+01  -1.1179961E+01  -1.0914341E+01  -1.5096657E+01  -1.4471106E+01  -1.3828857E+01  -1.3299111E+01  -1.2911630E+01  -1.2594463E+01  -1.7585491E+01  -1.6763115E+01  -1.5948782E+01  -1.5299631E+01  -1.4838314E+01  -1.4467293E+01  -2.0379475E+01  -1.9313221E+01  -1.8295271E+01  -1.7513367E+01  -1.6973177E+01  -1.6546694E+01  -2.3508516E+01  -2.2141998E+01  -2.0882919E+01  -1.9956177E+01  -1.9332142E+01  -1.8843880E+01  -2.7012415E+01  -2.5277199E+01  -2.3735830E+01  -2.2644522E+01  -2.1919912E+01  -2.1364672E+01  -3.0939989E+01  -2.8753071E+01  -2.6887566E+01  -2.5594124E+01  -2.4749094E+01  -2.4119469E+01  -3.5400539E+01  -3.2610245E+01  -3.0359941E+01  -2.8808298E+01  -2.7825302E+01  -2.7093760E+01  -4.0449165E+01  -3.6864807E+01  -3.4108902E+01  -3.2278000E+01  -3.1123323E+01  -3.0267366E+01  -4.6047260E+01  -4.1467941E+01  -3.8115112E+01  -3.5961315E+01  -3.4575325E+01  -3.3587120E+01  -5.1957691E+01  -4.6216782E+01  -4.2219906E+01  -3.9701736E+01  -3.8032330E+01  -3.6858398E+01  -5.7643219E+01  -5.0755436E+01  -4.6142502E+01  -4.3215992E+01  -4.1216824E+01  -3.9779964E+01  -6.2492916E+01  -5.4745472E+01  -4.9657036E+01  -4.6024826E+01  -4.3714680E+01  -4.2305008E+01  -6.6082672E+01  -5.7934216E+01  -5.2383308E+01  -4.8382042E+01  -4.5916592E+01  -4.4445503E+01  -6.8156456E+01  -6.0423382E+01  -5.4650101E+01  -5.0000546E+01  -4.7392532E+01  -4.5861462E+01  -6.9400276E+01  -6.2115234E+01  -5.6325092E+01  -5.0333218E+01  -4.7169651E+01  -4.5864697E+01  -6.2236191E+01  -6.0022972E+01  -5.5023281E+01  -4.8175198E+01  -4.5581196E+01  -4.5145599E+01  -4.2688877E+01  -4.3501740E+01  -4.2978527E+01  -4.1649845E+01  -4.1813076E+01  -4.1604664E+01  -2.5439857E+01  -2.6593805E+01  -2.6587194E+01  -2.6309223E+01  -2.7008167E+01  -2.7105919E+01  -1.2945214E+01  -1.4078938E+01  -1.4077976E+01  -1.4175697E+01  -1.4877174E+01  -1.5227609E+01  -4.4216971E+00  -5.0551486E+00  -5.1620440E+00  -5.3310957E+00  -5.8982167E+00  -6.2887254E+00   2.1656458E+00   2.0198278E+00   1.8681790E+00   1.7146342E+00   1.3720545E+00   1.0319577E+00   8.6650143E+00   8.9386368E+00   8.6637936E+00   8.3876734E+00   8.2965612E+00   8.0111275E+00   1.5971257E+01   1.6513931E+01   1.6030958E+01   1.5461074E+01   1.5534243E+01   1.5253319E+01   2.3946724E+01   2.4621977E+01   2.3852421E+01   2.2915506E+01   2.3075264E+01   2.2649467E+01   3.1871113E+01   3.2517471E+01   3.1437773E+01   3.0084797E+01   3.0339626E+01   2.9717840E+01   3.9064125E+01   3.9564190E+01   3.8048512E+01   3.6079792E+01   3.6540199E+01   3.5932358E+01   4.4964176E+01   4.5325066E+01   4.3268265E+01   4.0565842E+01   4.1052246E+01   4.0498253E+01   4.9210541E+01   4.9818035E+01   4.7060757E+01   4.3769657E+01   4.3009377E+01   4.1483143E+01   5.2282589E+01   5.2700527E+01   4.9504715E+01   4.5645554E+01   4.3637905E+01   4.1469013E+01   5.4980652E+01   5.4682770E+01   5.0826191E+01   4.6220467E+01   4.3656017E+01   4.1199352E+01   5.7923477E+01   5.5802261E+01   5.0963383E+01   4.6368866E+01   4.3431034E+01   4.0849026E+01   6.1707012E+01   5.6475769E+01   5.0562309E+01   4.6672363E+01   4.3289009E+01   4.0601017E+01   6.6715973E+01   5.7698002E+01   5.0957054E+01   4.7022331E+01   4.3320004E+01   4.0113117E+01   7.2304420E+01   6.0736042E+01   5.2511002E+01   4.7667633E+01   4.3915558E+01   4.0065243E+01   7.7143799E+01   6.4333565E+01   5.4625233E+01   4.8595142E+01   4.4246605E+01   4.0221523E+01   6.8255661E+01   5.7233322E+01   5.0045002E+01   4.4836380E+01   4.0354149E+01   7.1952980E+01   6.0581409E+01   5.2087925E+01   4.5874416E+01   4.0775902E+01   6.4427986E+01   5.4845177E+01   4.7720215E+01   4.1690590E+01   6.8015884E+01   5.8549179E+01   5.0407059E+01   4.3498932E+01   6.2273075E+01   5.3762783E+01   4.6181618E+01   5.7401482E+01   4.9747925E+01   5.9570873E+01   5.3382252E+01  -2.2527096E-01  -2.3160318E-01  -2.3549041E-01  -2.3762965E-01  -2.3859945E-01  -2.3884633E-01  -2.3874122E-01  -2.3850706E-01  -2.3830929E-01  -3.1148455E-01  -3.1929535E-01  -3.2376635E-01  -3.2597661E-01  -3.2665962E-01  -3.2648396E-01  -3.2593197E-01  -3.2532299E-01  -3.2488179E-01  -4.2137685E-01  -4.3072161E-01  -4.3573794E-01  -4.3779850E-01  -4.3796682E-01  -4.3714583E-01  -4.3595144E-01  -4.3482012E-01  -4.3403488E-01  -5.5217814E-01  -5.6280416E-01  -5.6801277E-01  -5.6955433E-01  -5.6886709E-01  -5.6709880E-01  -5.6500947E-01  -5.6317008E-01  -5.6193054E-01  -7.0631337E-01  -7.1767294E-01  -7.2250855E-01  -7.2297323E-01  -7.2094953E-01  -7.1780443E-01  -7.1449763E-01  -7.1171892E-01  -7.0988518E-01  -8.8840133E-01  -8.9972472E-01  -9.0337288E-01  -9.0201050E-01  -8.9799190E-01  -8.9293337E-01  -8.8800943E-01  -8.8399148E-01  -8.8139194E-01  -1.1041777E+00  -1.1143887E+00  -1.1157421E+00  -1.1115966E+00  -1.1047659E+00  -1.0971255E+00  -1.0900652E+00  -1.0844591E+00  -1.0808866E+00  -1.3598745E+00  -1.3675784E+00  -1.3653293E+00  -1.3572556E+00  -1.3465818E+00  -1.3355383E+00  -1.3257073E+00  -1.3180563E+00  -1.3132365E+00  -1.6621386E+00  -1.6656661E+00  -1.6582741E+00  -1.6448891E+00  -1.6291893E+00  -1.6137538E+00  -1.6003599E+00  -1.5900941E+00  -1.5836797E+00  -2.0179753E+00  -2.0153489E+00  -2.0010855E+00  -1.9807917E+00  -1.9586819E+00  -1.9376782E+00  -1.9197829E+00  -1.9062176E+00  -1.8977910E+00  -2.4350898E+00  -2.4240375E+00  -2.4009044E+00  -2.3717990E+00  -2.3416929E+00  -2.3137321E+00  -2.2902207E+00  -2.2725489E+00  -2.2616272E+00  -2.9220867E+00  -2.9001334E+00  -2.8657153E+00  -2.8257136E+00  -2.7856629E+00  -2.7491064E+00  -2.7186480E+00  -2.6959095E+00  -2.6819129E+00  -3.4887269E+00  -3.4526720E+00  -3.4043911E+00  -3.3510652E+00  -3.2987761E+00  -3.2517045E+00  -3.2127695E+00  -3.1838422E+00  -3.1660695E+00  -4.1462202E+00  -4.0922718E+00  -4.0266099E+00  -3.9569948E+00  -3.8898640E+00  -3.8300636E+00  -3.7808352E+00  -3.7444277E+00  -3.7220612E+00  -4.9060397E+00  -4.8298559E+00  -4.7425804E+00  -4.6531615E+00  -4.5681901E+00  -4.4931097E+00  -4.4315009E+00  -4.3860035E+00  -4.3581591E+00  -5.7800746E+00  -5.6765790E+00  -5.5632424E+00  -5.4499011E+00  -5.3433871E+00  -5.2499080E+00  -5.1735806E+00  -5.1171865E+00  -5.0827413E+00  -6.7804198E+00  -6.6446290E+00  -6.5002203E+00  -6.3582134E+00  -6.2258830E+00  -6.1102319E+00  -6.0162044E+00  -5.9467244E+00  -5.9043260E+00  -7.9184141E+00  -7.7454567E+00  -7.5657005E+00  -7.3897061E+00  -7.2264085E+00  -7.0842743E+00  -6.9688978E+00  -6.8836813E+00  -6.8316684E+00  -9.2089930E+00  -8.9930000E+00  -8.7711926E+00  -8.5559902E+00  -8.3562632E+00  -8.1825333E+00  -8.0411415E+00  -7.9372063E+00  -7.8735671E+00  -1.0663669E+01  -1.0400621E+01  -1.0130805E+01  -9.8684235E+00  -9.6264944E+00  -9.4150391E+00  -9.2426538E+00  -9.1160030E+00  -9.0383091E+00  -1.2295811E+01  -1.1981193E+01  -1.1656462E+01  -1.1339686E+01  -1.1047110E+01  -1.0790796E+01  -1.0581522E+01  -1.0427538E+01  -1.0332952E+01  -1.4117832E+01  -1.3746060E+01  -1.3358877E+01  -1.2978543E+01  -1.2626524E+01  -1.2317320E+01  -1.2064375E+01  -1.1877818E+01  -1.1763077E+01  -1.6141008E+01  -1.5702706E+01  -1.5246839E+01  -1.4793099E+01  -1.4371878E+01  -1.4000696E+01  -1.3696707E+01  -1.3471917E+01  -1.3333442E+01  -1.8374023E+01  -1.7863518E+01  -1.7327288E+01  -1.6789097E+01  -1.6288828E+01  -1.5846638E+01  -1.5483728E+01  -1.5214870E+01  -1.5049104E+01  -2.0827297E+01  -2.0233589E+01  -1.9605791E+01  -1.8975140E+01  -1.8382486E+01  -1.7860210E+01  -1.7431242E+01  -1.7113331E+01  -1.6916876E+01  -2.3496786E+01  -2.2815233E+01  -2.2086937E+01  -2.1349768E+01  -2.0657475E+01  -2.0047003E+01  -1.9545704E+01  -1.9174152E+01  -1.8945501E+01  -2.6380781E+01  -2.5603197E+01  -2.4759052E+01  -2.3911316E+01  -2.3114710E+01  -2.2411310E+01  -2.1836567E+01  -2.1411291E+01  -2.1149290E+01  -2.9458855E+01  -2.8565088E+01  -2.7607994E+01  -2.6651011E+01  -2.5749847E+01  -2.4956844E+01  -2.4306200E+01  -2.3823036E+01  -2.3527128E+01  -3.2645901E+01  -3.1642084E+01  -3.0586851E+01  -2.9525976E+01  -2.8532099E+01  -2.7651474E+01  -2.6923582E+01  -2.6384281E+01  -2.6052233E+01  -3.5751869E+01  -3.4689629E+01  -3.3576218E+01  -3.2444817E+01  -3.1376154E+01  -3.0420694E+01  -2.9629065E+01  -2.9038013E+01  -2.8671783E+01  -3.8652702E+01  -3.7546604E+01  -3.6378277E+01  -3.5215492E+01  -3.4102467E+01  -3.3107304E+01  -3.2275700E+01  -3.1639753E+01  -3.1240698E+01  -4.1166000E+01  -4.0044044E+01  -3.8894833E+01  -3.7737362E+01  -3.6629295E+01  -3.5595352E+01  -3.4701561E+01  -3.4027557E+01  -3.3597572E+01  -4.3272877E+01  -4.2161045E+01  -4.1060993E+01  -3.9883663E+01  -3.8758110E+01  -3.7728222E+01  -3.6860798E+01  -3.6164558E+01  -3.5721924E+01  -4.4608311E+01  -4.3577103E+01  -4.2427860E+01  -4.1255936E+01  -4.0280430E+01  -3.9298737E+01  -3.8473137E+01  -3.7805500E+01  -3.7374886E+01  -4.4918400E+01  -4.4032764E+01  -4.3138626E+01  -4.2258369E+01  -4.1298321E+01  -4.0311764E+01  -3.9433056E+01  -3.8743195E+01  -3.8291515E+01  -4.4550808E+01  -4.3840771E+01  -4.3280811E+01  -4.2586117E+01  -4.1679092E+01  -4.0601089E+01  -3.9641018E+01  -3.8884972E+01  -3.8384232E+01  -4.0733124E+01  -3.9641430E+01  -3.8372078E+01  -3.7025818E+01  -3.5728298E+01  -3.4517368E+01  -3.3490982E+01  -3.2707767E+01  -3.2215218E+01  -2.6648689E+01  -2.5950161E+01  -2.5088121E+01  -2.4150892E+01  -2.3215189E+01  -2.2343330E+01  -2.1589725E+01  -2.1004816E+01  -2.0632710E+01  -1.5176538E+01  -1.4916296E+01  -1.4496989E+01  -1.3984800E+01  -1.3438821E+01  -1.2907020E+01  -1.2431850E+01  -1.2053746E+01  -1.1809285E+01  -6.4540367E+00  -6.4831510E+00  -6.3994370E+00  -6.2384830E+00  -6.0322204E+00  -5.8075957E+00  -5.5904346E+00  -5.4080091E+00  -5.2858524E+00   7.5636595E-01   5.2960181E-01   3.5451329E-01   2.2813611E-01   1.4664367E-01   1.0466418E-01   9.3459047E-02   1.0011905E-01   1.1111428E-01   7.6351089E+00   7.2331295E+00   6.8330564E+00   6.4592443E+00   6.1301847E+00   5.8578639E+00   5.6477995E+00   5.5003233E+00   5.4131255E+00   1.4726334E+01   1.4126753E+01   1.3503715E+01   1.2900909E+01   1.2350735E+01   1.1875926E+01   1.1491974E+01   1.1209599E+01   1.1036499E+01   2.1911829E+01   2.1083038E+01   2.0229939E+01   1.9407705E+01   1.8654819E+01   1.7998638E+01   1.7461033E+01   1.7060152E+01   1.6811983E+01   2.8737164E+01   2.7666574E+01   2.6586582E+01   2.5557930E+01   2.4620197E+01   2.3802187E+01   2.3129112E+01   2.2624844E+01   2.2311298E+01   3.4717312E+01   3.3421715E+01   3.2132885E+01   3.0916128E+01   2.9809668E+01   2.8844658E+01   2.8048777E+01   2.7448221E+01   2.7073931E+01   3.8749813E+01   3.6996166E+01   3.5374550E+01   3.3888065E+01   3.2570030E+01   3.1397543E+01   3.0448324E+01   2.9753160E+01   2.9324860E+01   3.9437561E+01   3.7593185E+01   3.5909058E+01   3.4369797E+01   3.2998730E+01   3.1810364E+01   3.0835743E+01   3.0119293E+01   2.9681166E+01   3.9375095E+01   3.7487633E+01   3.5787022E+01   3.4251030E+01   3.2872490E+01   3.1683714E+01   3.0707195E+01   2.9981918E+01   2.9537003E+01   3.9052444E+01   3.7128410E+01   3.5394970E+01   3.3836464E+01   3.2456947E+01   3.1277357E+01   3.0294710E+01   2.9556585E+01   2.9087519E+01   3.8679050E+01   3.6672169E+01   3.4834774E+01   3.3234718E+01   3.1831030E+01   3.0619854E+01   2.9628824E+01   2.8900393E+01   2.8444069E+01   3.8195229E+01   3.6063084E+01   3.4157902E+01   3.2500671E+01   3.1077141E+01   2.9872860E+01   2.8886860E+01   2.8142511E+01   2.7684216E+01   3.7668789E+01   3.5390514E+01   3.3363525E+01   3.1647903E+01   3.0199877E+01   2.8987518E+01   2.8014011E+01   2.7275640E+01   2.6826355E+01   3.7023132E+01   3.4607094E+01   3.2483826E+01   3.0694675E+01   2.9214710E+01   2.8018820E+01   2.7064056E+01   2.6360806E+01   2.5913433E+01   3.6649784E+01   3.3842682E+01   3.1544439E+01   2.9704119E+01   2.8195629E+01   2.6991207E+01   2.6050787E+01   2.5360426E+01   2.4947231E+01   3.6393009E+01   3.3153835E+01   3.0712553E+01   2.8710642E+01   2.7165569E+01   2.5946487E+01   2.5000925E+01   2.4326746E+01   2.3909376E+01   3.6341614E+01   3.2704166E+01   2.9902586E+01   2.7838068E+01   2.6193981E+01   2.4940971E+01   2.3999086E+01   2.3324921E+01   2.2924738E+01   3.6672260E+01   3.2567631E+01   2.9373833E+01   2.7044378E+01   2.5345078E+01   2.4037203E+01   2.3081964E+01   2.2413509E+01   2.2028145E+01   3.7632008E+01   3.2883453E+01   2.9211781E+01   2.6532274E+01   2.4619608E+01   2.3265284E+01   2.2270582E+01   2.1606833E+01   2.1224463E+01   3.9685814E+01   3.4025005E+01   2.9586761E+01   2.6434040E+01   2.4230042E+01   2.2663748E+01   2.1637100E+01   2.0925062E+01   2.0540470E+01   4.2521439E+01   3.6413822E+01   3.1126759E+01   2.6991056E+01   2.4282984E+01   2.2430967E+01   2.1218842E+01   2.0471395E+01   2.0045223E+01   4.6063171E+01   3.9418659E+01   3.3905533E+01   2.9013863E+01   2.5156244E+01   2.2734644E+01   2.1229031E+01   2.0336229E+01   1.9855816E+01   4.9097000E+01   4.2774776E+01   3.6863705E+01   3.2251850E+01   2.7681461E+01   2.4120251E+01   2.1949030E+01   2.0697657E+01   2.0117638E+01   4.5296005E+01   3.9942657E+01   3.4860374E+01   3.0584375E+01   2.7401655E+01   2.4980663E+01   2.3403898E+01   2.2526730E+01   3.7454586E+01   3.3174923E+01   2.9541357E+01   2.7764463E+01   2.6836166E+01   2.6321331E+01   3.2133205E+01   2.9413103E+01   2.8364546E+01   2.7730305E+01  -2.3823410E-01  -2.3830920E-01  -2.3850703E-01  -2.3874155E-01  -2.3884678E-01  -2.3859918E-01  -2.3762965E-01  -2.3548993E-01  -3.2472050E-01  -3.2488197E-01  -3.2532269E-01  -3.2593179E-01  -3.2648408E-01  -3.2665992E-01  -3.2597643E-01  -3.2376629E-01  -4.3375465E-01  -4.3403524E-01  -4.3482026E-01  -4.3595105E-01  -4.3714607E-01  -4.3796724E-01  -4.3779835E-01  -4.3573746E-01  -5.6149560E-01  -5.6193089E-01  -5.6316996E-01  -5.6500971E-01  -5.6709933E-01  -5.6886786E-01  -5.6955421E-01  -5.6801307E-01  -7.0924985E-01  -7.0988572E-01  -7.1171856E-01  -7.1449733E-01  -7.1780437E-01  -7.2094959E-01  -7.2297359E-01  -7.2250891E-01  -8.8049841E-01  -8.8139236E-01  -8.8399082E-01  -8.8800913E-01  -8.9293402E-01  -8.9799172E-01  -9.0201068E-01  -9.0337318E-01  -1.0796611E+00  -1.0808864E+00  -1.0844593E+00  -1.0900654E+00  -1.0971265E+00  -1.1047660E+00  -1.1115962E+00  -1.1157426E+00  -1.3115914E+00  -1.3132373E+00  -1.3180563E+00  -1.3257070E+00  -1.3355390E+00  -1.3465813E+00  -1.3572540E+00  -1.3653299E+00  -1.5814995E+00  -1.5836803E+00  -1.5900948E+00  -1.6003604E+00  -1.6137533E+00  -1.6291891E+00  -1.6448889E+00  -1.6582724E+00  -1.8949325E+00  -1.8977909E+00  -1.9062176E+00  -1.9197829E+00  -1.9376765E+00  -1.9586811E+00  -1.9807911E+00  -2.0010867E+00  -2.2579310E+00  -2.2616286E+00  -2.2725489E+00  -2.2902203E+00  -2.3137321E+00  -2.3416922E+00  -2.3717985E+00  -2.4009051E+00  -2.6771884E+00  -2.6819136E+00  -2.6959119E+00  -2.7186487E+00  -2.7491076E+00  -2.7856638E+00  -2.8257153E+00  -2.8657160E+00  -3.1600840E+00  -3.1660678E+00  -3.1838443E+00  -3.2127719E+00  -3.2517049E+00  -3.2987754E+00  -3.3510621E+00  -3.4043884E+00  -3.7145443E+00  -3.7220612E+00  -3.7444267E+00  -3.7808335E+00  -3.8300638E+00  -3.8898652E+00  -3.9569914E+00  -4.0266123E+00  -4.3487892E+00  -4.3581586E+00  -4.3859987E+00  -4.4314981E+00  -4.4931097E+00  -4.5681891E+00  -4.6531606E+00  -4.7425804E+00  -5.0711308E+00  -5.0827384E+00  -5.1171827E+00  -5.1735744E+00  -5.2499104E+00  -5.3433900E+00  -5.4499025E+00  -5.5632463E+00  -5.8900228E+00  -5.9043264E+00  -5.9467268E+00  -6.0162072E+00  -6.1102319E+00  -6.2258749E+00  -6.3582168E+00  -6.5002208E+00  -6.8141184E+00  -6.8316693E+00  -6.8836842E+00  -6.9688931E+00  -7.0842791E+00  -7.2264118E+00  -7.3897071E+00  -7.5657024E+00  -7.8520737E+00  -7.8735690E+00  -7.9372134E+00  -8.0411425E+00  -8.1825352E+00  -8.3562670E+00  -8.5559940E+00  -8.7711954E+00  -9.0120487E+00  -9.0383139E+00  -9.1160021E+00  -9.2426624E+00  -9.4150400E+00  -9.6264963E+00  -9.8684177E+00  -1.0130816E+01  -1.0300990E+01  -1.0332949E+01  -1.0427531E+01  -1.0581512E+01  -1.0790801E+01  -1.1047100E+01  -1.1339683E+01  -1.1656463E+01  -1.1724436E+01  -1.1763077E+01  -1.1877823E+01  -1.2064374E+01  -1.2317335E+01  -1.2626532E+01  -1.2978539E+01  -1.3358876E+01  -1.3286946E+01  -1.3333449E+01  -1.3471913E+01  -1.3696722E+01  -1.4000704E+01  -1.4371885E+01  -1.4793093E+01  -1.5246840E+01  -1.4993271E+01  -1.5049106E+01  -1.5214884E+01  -1.5483737E+01  -1.5846618E+01  -1.6288839E+01  -1.6789101E+01  -1.7327295E+01  -1.6850355E+01  -1.6916864E+01  -1.7113331E+01  -1.7431257E+01  -1.7860218E+01  -1.8382517E+01  -1.8975147E+01  -1.9605778E+01  -1.8868303E+01  -1.8945478E+01  -1.9174164E+01  -1.9545692E+01  -2.0047022E+01  -2.0657492E+01  -2.1349766E+01  -2.2086939E+01  -2.1060839E+01  -2.1149311E+01  -2.1411270E+01  -2.1836565E+01  -2.2411312E+01  -2.3114704E+01  -2.3911318E+01  -2.4759058E+01  -2.3427732E+01  -2.3527142E+01  -2.3823059E+01  -2.4306175E+01  -2.4956850E+01  -2.5749861E+01  -2.6651020E+01  -2.7607985E+01  -2.5939295E+01  -2.6052219E+01  -2.6384249E+01  -2.6923576E+01  -2.7651461E+01  -2.8532106E+01  -2.9526001E+01  -3.0586853E+01  -2.8550398E+01  -2.8671799E+01  -2.9038002E+01  -2.9629078E+01  -3.0420710E+01  -3.1376106E+01  -3.2444817E+01  -3.3576225E+01  -3.1120457E+01  -3.1240658E+01  -3.1639788E+01  -3.2275673E+01  -3.3107265E+01  -3.4102455E+01  -3.5215454E+01  -3.6378258E+01  -3.3476692E+01  -3.3597523E+01  -3.4027576E+01  -3.4701607E+01  -3.5595352E+01  -3.6629257E+01  -3.7737301E+01  -3.8894855E+01  -3.5569687E+01  -3.5721943E+01  -3.6164616E+01  -3.6860809E+01  -3.7728226E+01  -3.8758087E+01  -3.9883656E+01  -4.1060970E+01  -3.7226677E+01  -3.7374882E+01  -3.7805504E+01  -3.8473087E+01  -3.9298756E+01  -4.0280476E+01  -4.1255913E+01  -4.2427864E+01  -3.8139847E+01  -3.8291515E+01  -3.8743183E+01  -3.9433083E+01  -4.0311729E+01  -4.1298306E+01  -4.2258354E+01  -4.3138626E+01  -3.8212143E+01  -3.8384247E+01  -3.8884983E+01  -3.9640999E+01  -4.0601078E+01  -4.1679111E+01  -4.2586086E+01  -4.3280830E+01  -3.2046848E+01  -3.2215210E+01  -3.2707771E+01  -3.3490974E+01  -3.4517353E+01  -3.5728321E+01  -3.7025871E+01  -3.8372101E+01  -2.0504868E+01  -2.0632704E+01  -2.1004787E+01  -2.1589699E+01  -2.2343321E+01  -2.3215187E+01  -2.4150873E+01  -2.5088110E+01  -1.1724609E+01  -1.1809301E+01  -1.2053818E+01  -1.2431838E+01  -1.2906983E+01  -1.3438821E+01  -1.3984806E+01  -1.4496958E+01  -5.2428031E+00  -5.2858596E+00  -5.4079771E+00  -5.5904374E+00  -5.8075809E+00  -6.0322371E+00  -6.2384791E+00  -6.3995013E+00   1.1607677E-01   1.1112237E-01   1.0013265E-01   9.3432590E-02   1.0464093E-01   1.4664033E-01   2.2818369E-01   3.5451075E-01   5.3842816E+00   5.4131093E+00   5.5003324E+00   5.6477709E+00   5.8578448E+00   6.1301274E+00   6.4592152E+00   6.8330584E+00   1.0978141E+01   1.1036535E+01   1.1209589E+01   1.1491985E+01   1.1875934E+01   1.2350780E+01   1.2900934E+01   1.3503693E+01   1.6727768E+01   1.6811930E+01   1.7060190E+01   1.7461010E+01   1.7998646E+01   1.8654810E+01   1.9407755E+01   2.0229969E+01   2.2204735E+01   2.2311306E+01   2.2624855E+01   2.3129162E+01   2.3802217E+01   2.4620237E+01   2.5557972E+01   2.6586590E+01   2.6946733E+01   2.7073944E+01   2.7448202E+01   2.8048815E+01   2.8844679E+01   2.9809612E+01   3.0916168E+01   3.2132931E+01   2.9179989E+01   2.9324907E+01   2.9753195E+01   3.0448345E+01   3.1397543E+01   3.2569992E+01   3.3888039E+01   3.5374542E+01   2.9533676E+01   2.9681200E+01   3.0119284E+01   3.0835793E+01   3.1810318E+01   3.2998749E+01   3.4369781E+01   3.5908978E+01   2.9387407E+01   2.9537006E+01   2.9981951E+01   3.0707129E+01   3.1683630E+01   3.2872467E+01   3.4250999E+01   3.5787003E+01   2.8931519E+01   2.9087507E+01   2.9556574E+01   3.0294682E+01   3.1277397E+01   3.2456940E+01   3.3836529E+01   3.5394947E+01   2.8288845E+01   2.8444036E+01   2.8900387E+01   2.9628878E+01   3.0619890E+01   3.1831041E+01   3.3234707E+01   3.4834812E+01   2.7529322E+01   2.7684164E+01   2.8142500E+01   2.8886881E+01   2.9872841E+01   3.1077122E+01   3.2500664E+01   3.4157879E+01   2.6671232E+01   2.6826368E+01   2.7275667E+01   2.8014040E+01   2.8987547E+01   3.0199917E+01   3.1647907E+01   3.3363510E+01   2.5751247E+01   2.5913464E+01   2.6360786E+01   2.7064060E+01   2.8018820E+01   2.9214697E+01   3.0694672E+01   3.2483837E+01   2.4815334E+01   2.4947235E+01   2.5360392E+01   2.6050802E+01   2.6991213E+01   2.8195641E+01   2.9704071E+01   3.1544479E+01   2.3786392E+01   2.3909376E+01   2.4326757E+01   2.5000912E+01   2.5946487E+01   2.7165562E+01   2.8710640E+01   3.0712585E+01   2.2801981E+01   2.2924749E+01   2.3324913E+01   2.3999117E+01   2.4940966E+01   2.6193979E+01   2.7838070E+01   2.9902632E+01   2.1911005E+01   2.2028128E+01   2.2413506E+01   2.3081966E+01   2.4037224E+01   2.5345091E+01   2.7044369E+01   2.9373825E+01   2.1102766E+01   2.1224476E+01   2.1606817E+01   2.2270586E+01   2.3265301E+01   2.4619612E+01   2.6532259E+01   2.9211811E+01   2.0397312E+01   2.0540468E+01   2.0925079E+01   2.1637087E+01   2.2663748E+01   2.4230040E+01   2.6434052E+01   2.9586767E+01   1.9899303E+01   2.0045242E+01   2.0471407E+01   2.1218834E+01   2.2430969E+01   2.4282988E+01   2.6991076E+01   3.1126776E+01   1.9711184E+01   1.9855814E+01   2.0336226E+01   2.1229034E+01   2.2734648E+01   2.5156244E+01   2.9013857E+01   3.3905537E+01   1.9912970E+01   2.0117645E+01   2.0697664E+01   2.1949026E+01   2.4120256E+01   2.7681475E+01   3.2251850E+01   3.6863731E+01   2.2250683E+01   2.2526733E+01   2.3403913E+01   2.4980673E+01   2.7401657E+01   3.0584387E+01   3.4860386E+01   3.9942661E+01   2.6111694E+01   2.6321321E+01   2.6836172E+01   2.7764458E+01   2.9541349E+01   3.3174931E+01   3.7454597E+01   2.7561152E+01   2.7730301E+01   2.8364548E+01   2.9413099E+01   3.2133198E+01  -2.3160264E-01  -2.2527128E-01  -2.1597394E-01  -2.0304048E-01  -1.8614784E-01  -1.6457713E-01  -1.3872460E-01  -3.1929517E-01  -3.1148452E-01  -2.9944244E-01  -2.8229329E-01  -2.5923723E-01  -2.2888461E-01  -1.9018838E-01  -1.4198303E-01  -4.3072191E-01  -4.2137659E-01  -4.0635476E-01  -3.8428715E-01  -3.5411054E-01  -3.1371421E-01  -2.6232690E-01  -1.9771355E-01  -5.6280434E-01  -5.5217874E-01  -5.3422672E-01  -5.0714129E-01  -4.6946242E-01  -4.1855931E-01  -3.5304824E-01  -2.6829672E-01  -7.1767282E-01  -7.0631260E-01  -6.8584549E-01  -6.5396059E-01  -6.0871190E-01  -5.4658794E-01  -4.6493274E-01  -3.5619187E-01  -8.9972532E-01  -8.8840175E-01  -8.6618423E-01  -8.3002502E-01  -7.7738625E-01  -7.0341396E-01  -6.0373354E-01  -4.6666026E-01  -1.1143886E+00  -1.1041776E+00  -1.0812640E+00  -1.0416515E+00  -9.8229384E-01  -8.9620161E-01  -7.7709568E-01  -6.0701823E-01  -1.3675786E+00  -1.3598741E+00  -1.3375914E+00  -1.2959157E+00  -1.2308087E+00  -1.1333445E+00  -9.9409103E-01  -7.8747678E-01  -1.6656669E+00  -1.6621400E+00  -1.6421704E+00  -1.6000483E+00  -1.5304807E+00  -1.4236867E+00  -1.2653768E+00  -1.0226579E+00  -2.0153487E+00  -2.0179758E+00  -2.0025680E+00  -1.9625100E+00  -1.8903716E+00  -1.7766333E+00  -1.6036901E+00  -1.3342812E+00  -2.4240365E+00  -2.4350896E+00  -2.4271822E+00  -2.3920121E+00  -2.3220215E+00  -2.2060161E+00  -2.0284324E+00  -1.7457448E+00  -2.9001322E+00  -2.9220874E+00  -2.9248874E+00  -2.8988147E+00  -2.8375201E+00  -2.7256420E+00  -2.5509193E+00  -2.2385802E+00  -3.4526696E+00  -3.4887288E+00  -3.5058808E+00  -3.4957290E+00  -3.4527276E+00  -3.3577573E+00  -3.2025812E+00  -2.8977556E+00  -4.0922699E+00  -4.1462202E+00  -4.1824126E+00  -4.1958709E+00  -4.1863279E+00  -4.1361156E+00  -4.0322685E+00  -3.7964566E+00  -4.8298497E+00  -4.9060426E+00  -4.9667788E+00  -5.0121360E+00  -5.0484114E+00  -5.0647802E+00  -5.0454512E+00  -4.9213314E+00  -5.6765771E+00  -5.7800741E+00  -5.8708348E+00  -5.9546871E+00  -6.0405035E+00  -6.1347113E+00  -6.2156668E+00  -6.2182474E+00  -6.6446209E+00  -6.7804217E+00  -6.9050651E+00  -7.0299640E+00  -7.1703296E+00  -7.3409834E+00  -7.5234008E+00  -7.6502261E+00  -7.7454543E+00  -7.9184122E+00  -8.0827055E+00  -8.2513542E+00  -8.4467297E+00  -8.6942377E+00  -8.9724121E+00  -9.2110949E+00  -8.9930067E+00  -9.2089911E+00  -9.4147730E+00  -9.6305876E+00  -9.8847847E+00  -1.0214184E+01  -1.0594270E+01  -1.0938868E+01  -1.0400619E+01  -1.0663676E+01  -1.0914350E+01  -1.1179952E+01  -1.1498286E+01  -1.1921379E+01  -1.2420316E+01  -1.2888772E+01  -1.1981199E+01  -1.2295808E+01  -1.2594473E+01  -1.2911612E+01  -1.3299108E+01  -1.3828856E+01  -1.4471107E+01  -1.5096656E+01  -1.3746056E+01  -1.4117828E+01  -1.4467277E+01  -1.4838319E+01  -1.5299636E+01  -1.5948771E+01  -1.6763119E+01  -1.7585499E+01  -1.5702724E+01  -1.6141014E+01  -1.6546705E+01  -1.6973166E+01  -1.7513357E+01  -1.8295284E+01  -1.9313236E+01  -2.0379478E+01  -1.7863504E+01  -1.8374025E+01  -1.8843882E+01  -1.9332150E+01  -1.9956173E+01  -2.0882917E+01  -2.2142002E+01  -2.3508507E+01  -2.0233582E+01  -2.0827299E+01  -2.1364674E+01  -2.1919941E+01  -2.2644518E+01  -2.3735840E+01  -2.5277197E+01  -2.7012421E+01  -2.2815214E+01  -2.3496799E+01  -2.4119457E+01  -2.4749079E+01  -2.5594118E+01  -2.6887550E+01  -2.8753075E+01  -3.0939980E+01  -2.5603189E+01  -2.6380789E+01  -2.7093760E+01  -2.7825283E+01  -2.8808279E+01  -3.0359943E+01  -3.2610249E+01  -3.5400524E+01  -2.8565058E+01  -2.9458853E+01  -3.0267366E+01  -3.1123323E+01  -3.2278000E+01  -3.4108902E+01  -3.6864822E+01  -4.0449165E+01  -3.1642069E+01  -3.2645885E+01  -3.3587132E+01  -3.4575302E+01  -3.5961365E+01  -3.8115139E+01  -4.1467945E+01  -4.6047268E+01  -3.4689625E+01  -3.5751884E+01  -3.6858429E+01  -3.8032341E+01  -3.9701725E+01  -4.2219959E+01  -4.6216763E+01  -5.1957695E+01  -3.7546600E+01  -3.8652664E+01  -3.9780003E+01  -4.1216831E+01  -4.3215954E+01  -4.6142471E+01  -5.0755432E+01  -5.7643242E+01  -4.0044083E+01  -4.1166027E+01  -4.2304989E+01  -4.3714695E+01  -4.6024811E+01  -4.9656982E+01  -5.4745499E+01  -6.2492931E+01  -4.2161057E+01  -4.3272842E+01  -4.4445492E+01  -4.5916592E+01  -4.8381992E+01  -5.2383305E+01  -5.7934250E+01  -6.6082726E+01  -4.3577110E+01  -4.4608292E+01  -4.5861439E+01  -4.7392490E+01  -5.0000572E+01  -5.4650150E+01  -6.0423401E+01  -6.8156494E+01  -4.4032749E+01  -4.4918430E+01  -4.5864689E+01  -4.7169655E+01  -5.0333221E+01  -5.6325127E+01  -6.2115234E+01  -6.9400253E+01  -4.3840717E+01  -4.4550800E+01  -4.5145603E+01  -4.5581184E+01  -4.8175198E+01  -5.5023273E+01  -6.0022945E+01  -6.2236164E+01  -3.9641396E+01  -4.0733109E+01  -4.1604630E+01  -4.1813084E+01  -4.1649841E+01  -4.2978580E+01  -4.3501717E+01  -4.2688839E+01  -2.5950207E+01  -2.6648642E+01  -2.7105906E+01  -2.7008205E+01  -2.6309240E+01  -2.6587185E+01  -2.6593819E+01  -2.5439869E+01  -1.4916313E+01  -1.5176534E+01  -1.5227614E+01  -1.4877143E+01  -1.4175713E+01  -1.4077902E+01  -1.4078880E+01  -1.2945219E+01  -6.4831939E+00  -6.4540319E+00  -6.2887707E+00  -5.8982143E+00  -5.3310814E+00  -5.1620755E+00  -5.0551682E+00  -4.4216919E+00   5.2958435E-01   7.5640851E-01   1.0319748E+00   1.3720886E+00   1.7145954E+00   1.8682075E+00   2.0198567E+00   2.1656473E+00   7.2331581E+00   7.6351981E+00   8.0111284E+00   8.2965288E+00   8.3876696E+00   8.6637669E+00   8.9386148E+00   8.6650152E+00   1.4126781E+01   1.4726361E+01   1.5253311E+01   1.5534199E+01   1.5460998E+01   1.6030912E+01   1.6513849E+01   1.5971278E+01   2.1083015E+01   2.1911797E+01   2.2649475E+01   2.3075239E+01   2.2915514E+01   2.3852432E+01   2.4622015E+01   2.3946665E+01   2.7666586E+01   2.8737158E+01   2.9717865E+01   3.0339640E+01   3.0084801E+01   3.1437759E+01   3.2517540E+01   3.1871202E+01   3.3421722E+01   3.4717323E+01   3.5932350E+01   3.6540192E+01   3.6079754E+01   3.8048592E+01   3.9564156E+01   3.9064163E+01   3.6996132E+01   3.8749790E+01   4.0498245E+01   4.1052242E+01   4.0565842E+01   4.3268261E+01   4.5325066E+01   4.4964169E+01   3.7593239E+01   3.9437500E+01   4.1483150E+01   4.3009415E+01   4.3769672E+01   4.7060780E+01   4.9818001E+01   4.9210526E+01   3.7487637E+01   3.9375137E+01   4.1468967E+01   4.3637852E+01   4.5645546E+01   4.9504723E+01   5.2700539E+01   5.2282593E+01   3.7128437E+01   3.9052471E+01   4.1199326E+01   4.3655968E+01   4.6220459E+01   5.0826160E+01   5.4682747E+01   5.4980602E+01   3.6672157E+01   3.8679134E+01   4.0849083E+01   4.3430977E+01   4.6368912E+01   5.0963364E+01   5.5802277E+01   5.7923527E+01   3.6063080E+01   3.8195278E+01   4.0601017E+01   4.3289051E+01   4.6672394E+01   5.0562325E+01   5.6475803E+01   6.1706944E+01   3.5390526E+01   3.7668770E+01   4.0113106E+01   4.3320007E+01   4.7022305E+01   5.0957066E+01   5.7698032E+01   6.6715942E+01   3.4607113E+01   3.7023106E+01   4.0065216E+01   4.3915604E+01   4.7667599E+01   5.2510994E+01   6.0736034E+01   7.2304428E+01   3.3842705E+01   3.6649757E+01   4.0221462E+01   4.4246613E+01   4.8595184E+01   5.4625233E+01   6.4333534E+01   7.7143768E+01   3.3153839E+01   3.6392998E+01   4.0354179E+01   4.4836346E+01   5.0045002E+01   5.7233330E+01   6.8255669E+01   3.2704163E+01   3.6341652E+01   4.0775940E+01   4.5874401E+01   5.2087929E+01   6.0581398E+01   7.1952972E+01   3.2567638E+01   3.6672272E+01   4.1690624E+01   4.7720219E+01   5.4845196E+01   6.4427971E+01   3.2883465E+01   3.7632011E+01   4.3498936E+01   5.0407089E+01   5.8549160E+01   6.8015892E+01   3.4025028E+01   3.9685825E+01   4.6181580E+01   5.3762817E+01   6.2273083E+01   3.6413845E+01   4.2521465E+01   4.9747944E+01   5.7401447E+01   3.9418674E+01   4.6063171E+01   5.3382278E+01   5.9570892E+01   4.2774769E+01   4.9096985E+01   4.5295990E+01 
Acec.y 1 2975 float
  0.0000000E+00   0.0000000E+00   0.0000000E+00   0.0000000E+00   0.0000000E+00   0.0000000E+00   0.0000000E+00   0.0000000E+00   0.0000000E+00   0.0000000E+00   0.0000000E+00   0.0000000E+00   0.0000000E+00   0.0000000E+00   0.0000000E+00   0.0000000E+00   0.0000000E+00   0.0000000E+00   0.0000000E+00   0.0000000E+00   0.0000000E+00   0.0000000E+00   0.0000000E+00   0.0000000E+00   0.0000000E+00   0.0000000E+00   0.0000000E+00   0.0000000E+00   0.0000000E+00   0.0000000E+00   0.0000000E+00   0.0000000E+00   0.0000000E+00   0.0000000E+00   0.0000000E+00   0.0000000E+00   0.0000000E+00   0.0000000E+00   0.0000000E+00   0.0000000E+00   0.0000000E+00   0.0000000E+00   0.0000000E+00   0.0000000E+00   0.0000000E+00   0.0000000E+00   0.0000000E+00   0.0000000E+00   0.0000000E+00   0.0000000E+00   0.0000000E+00   0.0000000E+00   0.0000000E+00   0.0000000E+00   0.0000000E+00   0.0000000E+00   0.0000000E+00   0.0000000E+00   0.0000000E+00   0.0000000E+00   0.0000000E+00   0.0000000E+00   0.0000000E+00   0.0000000E+00   0.0000000E+00   0.0000000E+00   0.0000000E+00   0.0000000E+00   0.0000000E+00   0.0000000E+00   0.0000000E+00   0.0000000E+00   0.0000000E+00   0.0000000E+00   0.0000000E+00   0.0000000E+00   0.0000000E+00   0.0000000E+00   0.0000000E+00   0.0000000E+00   0.0000000E+00   0.0000000E+00   0.0000000E+00   0.0000000E+00   0.0000000E+00   0.0000000E+00   0.0000000E+00   0.0000000E+00   0.0000000E+00   0.0000000E+00   0.0000000E+00   0.0000000E+00   0.0000000E+00   0.0000000E+00   0.0000000E+00   0.0000000E+00   0.0000000E+00   0.0000000E+00   0.0000000E+00   0.0000000E+00   0.0000000E+00   0.0000000E+00   0.0000000E+00   0.0000000E+00   0.0000000E+00   0.0000000E+00   0.0000000E+00   0.0000000E+00   0.0000000E+00   0.0000000E+00   0.0000000E+00   0.0000000E+00   0.0000000E+00   0.0000000E+00   0.0000000E+00   0.0000000E+00   0.0000000E+00   0.0000000E+00   0.0000000E+00   0.0000000E+00   0.0000000E+00   0.0000000E+00   0.0000000E+00   0.0000000E+00   0.0000000E+00   0.0000000E+00   0.0000000E+00   0.0000000E+00   0.0000000E+00   0.0000000E+00   0.0000000E+00   0.0000000E+00   0.0000000E+00   0.0000000E+00   0.0000000E+00   0.0000000E+00   0.0000000E+00   0.0000000E+00   0.0000000E+00   0.0000000E+00   0.0000000E+00   0.0000000E+00   0.0000000E+00   0.0000000E+00   0.0000000E+00   0.0000000E+00   0.0000000E+00   0.0000000E+00   0.0000000E+00   0.0000000E+00   0.0000000E+00   0.0000000E+00   0.0000000E+00   0.0000000E+00   0.0000000E+00   0.0000000E+00   0.0000000E+00   0.0000000E+00   0.0000000E+00   0.0000000E+00   0.0000000E+00   0.0000000E+00   0.0000000E+00   0.0000000E+00   0.0000000E+00   0.0000000E+00   0.0000000E+00   0.0000000E+00   0.0000000E+00   0.0000000E+00   0.0000000E+00   0.0000000E+00   0.0000000E+00   0.0000000E+00   0.0000000E+00   0.0000000E+00   0.0000000E+00   0.0000000E+00   0.0000000E+00   0.0000000E+00   0.0000000E+00   0.0000000E+00   0.0000000E+00   0.0000000E+00   0.0000000E+00   0.0000000E+00   0.0000000E+00   0.0000000E+00   0.0000000E+00   0.0000000E+00   0.0000000E+00   0.0000000E+00   0.0000000E+00   0.0000000E+00   0.0000000E+00   0.0000000E+00   0.0000000E+00   0.0000000E+00   0.0000000E+00   0.0000000E+00   0.0000000E+00   0.0000000E+00   0.0000000E+00   0.0000000E+00   0.0000000E+00   0.0000000E+00   0.0000000E+00   0.0000000E+00   0.0000000E+00   0.0000000E+00   0.0000000E+00   0.0000000E+00   0.0000000E+00   0.0000000E+00   0.0000000E+00   0.0000000E+00   0.0000000E+00   0.0000000E+00   0.0000000E+00   0.0000000E+00   0.0000000E+00   0.0000000E+00   0.0000000E+00   0.0000000E+00   0.0000000E+00   0.0000000E+00   0.0000000E+00   0.0000000E+00   0.0000000E+00   0.0000000E+00   0.0000000E+00   0.0000000E+00   0.0000000E+00   0.0000000E+00   0.0000000E+00   0.0000000E+00   0.0000000E+00   0.0000000E+00   0.0000000E+00   0.0000000E+00   0.0000000E+00   0.0000000E+00   0.0000000E+00   0.0000000E+00   0.0000000E+00   0.0000000E+00   0.0000000E+00   0.0000000E+00   0.0000000E+00   0.0000000E+00   0.0000000E+00   0.0000000E+00   0.0000000E+00   0.0000000E+00   0.0000000E+00   0.0000000E+00   0.0000000E+00   0.0000000E+00   0.0000000E+00   0.0000000E+00   0.0000000E+00   0.0000000E+00   0.0000000E+00   0.0000000E+00   0.0000000E+00   0.0000000E+00   0.0000000E+00   0.0000000E+00   0.0000000E+00   0.0000000E+00   0.0000000E+00   0.0000000E+00   0.0000000E+00   0.0000000E+00   0.0000000E+00   0.0000000E+00   0.0000000E+00   0.0000000E+00   0.0000000E+00   0.0000000E+00   0.0000000E+00   0.0000000E+00   0.0000000E+00   0.0000000E+00   0.0000000E+00   0.0000000E+00   0.0000000E+00   0.0000000E+00   0.0000000E+00   0.0000000E+00   0.0000000E+00   0.0000000E+00   0.0000000E+00   0.0000000E+00   0.0000000E+00   0.0000000E+00   0.0000000E+00   0.0000000E+00   0.0000000E+00   0.0000000E+00   0.0000000E+00   0.0000000E+00   0.0000000E+00   0.0000000E+00   0.0000000E+00   0.0000000E+00   0.0000000E+00   0.0000000E+00   0.0000000E+00   0.0000000E+00   0.0000000E+00   0.0000000E+00   0.0000000E+00   0.0000000E+00   0.0000000E+00   0.0000000E+00   0.0000000E+00   0.0000000E+00   0.0000000E+00   0.0000000E+00   0.0000000E+00   0.0000000E+00   0.0000000E+00   0.0000000E+00   0.0000000E+00   0.0000000E+00   0.0000000E+00   0.0000000E+00   0.0000000E+00   0.0000000E+00   0.0000000E+00   0.0000000E+00   0.0000000E+00   0.0000000E+00   0.0000000E+00   0.0000000E+00   0.0000000E+00   0.0000000E+00   0.0000000E+00   0.0000000E+00   0.0000000E+00   0.0000000E+00   0.0000000E+00   0.0000000E+00   0.0000000E+00   0.0000000E+00   0.0000000E+00   0.0000000E+00   0.0000000E+00   0.0000000E+00   0.0000000E+00   0.0000000E+00   0.0000000E+00   0.0000000E+00   0.0000000E+00   0.0000000E+00   0.0000000E+00   0.0000000E+00   0.0000000E+00   0.0000000E+00   0.0000000E+00   0.0000000E+00   0.0000000E+00   0.0000000E+00   0.0000000E+00   0.0000000E+00   0.0000000E+00   0.0000000E+00   0.0000000E+00   0.0000000E+00   0.0000000E+00   0.0000000E+00   0.0000000E+00   0.0000000E+00   0.0000000E+00   0.0000000E+00   0.0000000E+00   0.0000000E+00   0.0000000E+00   0.0000000E+00   0.0000000E+00   0.0000000E+00   0.0000000E+00   0.0000000E+00   0.0000000E+00   0.0000000E+00   0.0000000E+00   0.0000000E+00   0.0000000E+00   0.0000000E+00   0.0000000E+00   0.0000000E+00   0.0000000E+00   0.0000000E+00   0.0000000E+00   0.0000000E+00   0.0000000E+00   0.0000000E+00   0.0000000E+00   0.0000000E+00   0.0000000E+00   0.0000000E+00   0.0000000E+00   0.0000000E+00   0.0000000E+00   0.0000000E+00   0.0000000E+00   0.0000000E+00   0.0000000E+00   0.0000000E+00   0.0000000E+00   0.0000000E+00   0.0000000E+00   0.0000000E+00   0.0000000E+00   0.0000000E+00   0.0000000E+00   0.0000000E+00   0.0000000E+00   0.0000000E+00   0.0000000E+00   0.0000000E+00   0.0000000E+00   0.0000000E+00   0.0000000E+00   0.0000000E+00   0.0000000E+00   0.0000000E+00   0.0000000E+00   0.0000000E+00   0.0000000E+00   0.0000000E+00   0.0000000E+00   0.0000000E+00   0.0000000E+00   0.0000000E+00   0.0000000E+00   0.0000000E+00   0.0000000E+00   0.0000000E+00   0.0000000E+00   0.0000000E+00   0.0000000E+00   0.0000000E+00   0.0000000E+00   0.0000000E+00   0.0000000E+00   0.0000000E+00   0.0000000E+00   0.0000000E+00   0.0000000E+00   0.0000000E+00   0.0000000E+00   0.0000000E+00   0.0000000E+00   0.0000000E+00   0.0000000E+00   0.0000000E+00   0.0000000E+00   0.0000000E+00   0.0000000E+00   0.0000000E+00   0.0000000E+00   0.0000000E+00   0.0000000E+00   0.0000000E+00   0.0000000E+00   0.0000000E+00   0.0000000E+00   0.0000000E+00   0.0000000E+00   0.0000000E+00   0.0000000E+00   0.0000000E+00   0.0000000E+00   0.0000000E+00   0.0000000E+00   0.0000000E+00   0.0000000E+00   0.0000000E+00   0.0000000E+00   0.0000000E+00   0.0000000E+00   0.0000000E+00   0.0000000E+00   0.0000000E+00   0.0000000E+00   0.0000000E+00   0.0000000E+00   0.0000000E+00   0.0000000E+00   0.0000000E+00   0.0000000E+00   0.0000000E+00   0.0000000E+00   0.0000000E+00   0.0000000E+00   0.0000000E+00   0.0000000E+00   0.0000000E+00   0.0000000E+00   0.0000000E+00   0.0000000E+00   0.0000000E+00   0.0000000E+00   0.0000000E+00   0.0000000E+00   0.0000000E+00   0.0000000E+00   0.0000000E+00   0.0000000E+00   0.0000000E+00   0.0000000E+00   0.0000000E+00   0.0000000E+00   0.0000000E+00   0.0000000E+00   0.0000000E+00   0.0000000E+00   0.0000000E+00   0.0000000E+00   0.0000000E+00   0.0000000E+00   0.0000000E+00   0.0000000E+00   0.0000000E+00   0.0000000E+00   0.0000000E+00   0.0000000E+00   0.0000000E+00   0.0000000E+00   0.0000000E+00   0.0000000E+00   0.0000000E+00   0.0000000E+00   0.0000000E+00   0.0000000E+00   0.0000000E+00   0.0000000E+00   0.0000000E+00   0.0000000E+00   0.0000000E+00   0.0000000E+00   0.0000000E+00   0.0000000E+00   0.0000000E+00   0.0000000E+00   0.0000000E+00   0.0000000E+00   0.0000000E+00   0.0000000E+00   0.0000000E+00   0.0000000E+00   0.0000000E+00   0.0000000E+00   0.0000000E+00   0.0000000E+00   0.0000000E+00   0.0000000E+00   0.0000000E+00   0.0000000E+00   0.0000000E+00   0.0000000E+00   0.0000000E+00   0.0000000E+00   0.0000000E+00   0.0000000E+00   0.0000000E+00   0.0000000E+00   0.0000000E+00   0.0000000E+00   0.0000000E+00   0.0000000E+00   0.0000000E+00   0.0000000E+00   0.0000000E+00   0.0000000E+00   0.0000000E+00   0.0000000E+00   0.0000000E+00   0.0000000E+00   0.0000000E+00   0.0000000E+00   0.0000000E+00   0.0000000E+00   0.0000000E+00   0.0000000E+00   0.0000000E+00   0.0000000E+00   0.0000000E+00   0.0000000E+00   0.0000000E+00   0.0000000E+00   0.0000000E+00   0.0000000E+00   0.0000000E+00   0.0000000E+00   0.0000000E+00   0.0000000E+00   0.0000000E+00   0.0000000E+00   0.0000000E+00   0.0000000E+00   0.0000000E+00   0.0000000E+00   0.0000000E+00   0.0000000E+00   0.0000000E+00   0.0000000E+00   0.0000000E+00   0.0000000E+00   0.0000000E+00   0.0000000E+00   0.0000000E+00   0.0000000E+00   0.0000000E+00   0.0000000E+00   0.0000000E+00   0.0000000E+00   0.0000000E+00   0.0000000E+00   0.0000000E+00   0.0000000E+00   0.0000000E+00   0.0000000E+00   0.0000000E+00   0.0000000E+00   0.0000000E+00   0.0000000E+00   0.0000000E+00   0.0000000E+00   0.0000000E+00   0.0000000E+00   0.0000000E+00   0.0000000E+00   0.0000000E+00   0.0000000E+00   0.0000000E+00   0.0000000E+00   0.0000000E+00   0.0000000E+00   0.0000000E+00   0.0000000E+00   0.0000000E+00   0.0000000E+00   0.0000000E+00   0.0000000E+00   0.0000000E+00   0.0000000E+00   0.0000000E+00   0.0000000E+00   0.0000000E+00   0.0000000E+00   0.0000000E+00   0.0000000E+00   0.0000000E+00   0.0000000E+00   0.0000000E+00   0.0000000E+00   0.0000000E+00   0.0000000E+00   0.0000000E+00   0.0000000E+00   0.0000000E+00   0.0000000E+00   0.0000000E+00   0.0000000E+00   0.0000000E+00   0.0000000E+00   0.0000000E+00   0.0000000E+00   0.0000000E+00   0.0000000E+00   0.0000000E+00   0.0000000E+00   0.0000000E+00   0.0000000E+00   0.0000000E+00   0.0000000E+00   0.0000000E+00   0.0000000E+00   0.0000000E+00   0.0000000E+00   0.0000000E+00   0.0000000E+00   0.0000000E+00   0.0000000E+00   0.0000000E+00   0.0000000E+00   0.0000000E+00   0.0000000E+00   0.0000000E+00   0.0000000E+00   0.0000000E+00   0.0000000E+00   0.0000000E+00   0.0000000E+00   0.0000000E+00   0.0000000E+00   0.0000000E+00   0.0000000E+00   0.0000000E+00   0.0000000E+00   0.0000000E+00   0.0000000E+00   0.0000000E+00   0.0000000E+00   0.0000000E+00   0.0000000E+00   0.0000000E+00   0.0000000E+00   0.0000000E+00   0.0000000E+00   0.0000000E+00   0.0000000E+00   0.0000000E+00   0.0000000E+00   0.0000000E+00   0.0000000E+00   0.0000000E+00   0.0000000E+00   0.0000000E+00   0.0000000E+00   0.0000000E+00   0.0000000E+00   0.0000000E+00   0.0000000E+00   0.0000000E+00   0.0000000E+00   0.0000000E+00   0.0000000E+00   0.0000000E+00   0.0000000E+00   0.0000000E+00   0.0000000E+00   0.0000000E+00   0.0000000E+00   0.0000000E+00   0.0000000E+00   0.0000000E+00   0.0000000E+00   0.0000000E+00   0.0000000E+00   0.0000000E+00   0.0000000E+00   0.0000000E+00   0.0000000E+00   0.0000000E+00   0.0000000E+00   0.0000000E+00   0.0000000E+00   0.0000000E+00   0.0000000E+00   0.0000000E+00   0.0000000E+00   0.0000000E+00   0.0000000E+00   0.0000000E+00   0.0000000E+00   0.0000000E+00   0.0000000E+00   0.0000000E+00   0.0000000E+00   0.0000000E+00   0.0000000E+00   0.0000000E+00   0.0000000E+00   0.0000000E+00   0.0000000E+00   0.0000000E+00   0.0000000E+00   0.0000000E+00   0.0000000E+00   0.0000000E+00   0.0000000E+00   0.0000000E+00   0.0000000E+00   0.0000000E+00   0.0000000E+00   0.0000000E+00   0.0000000E+00   0.0000000E+00   0.0000000E+00   0.0000000E+00   0.0000000E+00   0.0000000E+00   0.0000000E+00   0.0000000E+00   0.0000000E+00   0.0000000E+00   0.0000000E+00   0.0000000E+00   0.0000000E+00   0.0000000E+00   0.0000000E+00   0.0000000E+00   0.0000000E+00   0.0000000E+00   0.0000000E+00   0.0000000E+00   0.0000000E+00   0.0000000E+00   0.0000000E+00   0.0000000E+00   0.0000000E+00   0.0000000E+00   0.0000000E+00   0.0000000E+00   0.0000000E+00   0.0000000E+00   0.0000000E+00   0.0000000E+00   0.0000000E+00   0.0000000E+00   0.0000000E+00   0.0000000E+00   0.0000000E+00   0.0000000E+00   0.0000000E+00   0.0000000E+00   0.0000000E+00   0.0000000E+00   0.0000000E+00   0.0000000E+00   0.0000000E+00   0.0000000E+00   0.0000000E+00   0.0000000E+00   0.0000000E+00   0.0000000E+00   0.0000000E+00   0.0000000E+00   0.0000000E+00   0.0000000E+00   0.0000000E+00   0.0000000E+00   0.0000000E+00   0.0000000E+00   0.0000000E+00   0.0000000E+00   0.0000000E+00   0.0000000E+00   0.0000000E+00   0.0000000E+00   0.0000000E+00   0.0000000E+00   0.0000000E+00   0.0000000E+00   0.0000000E+00   0.0000000E+00   0.0000000E+00   0.0000000E+00   0.0000000E+00   0.0000000E+00   0.0000000E+00   0.0000000E+00   0.0000000E+00   0.0000000E+00   0.0000000E+00   0.0000000E+00   0.0000000E+00   0.0000000E+00   0.0000000E+00   0.0000000E+00   0.0000000E+00   0.0000000E+00   0.0000000E+00   0.0000000E+00   0.0000000E+00   0.0000000E+00   0.0000000E+00   0.0000000E+00   0.0000000E+00   0.0000000E+00   0.0000000E+00   0.0000000E+00   0.0000000E+00   0.0000000E+00   0.0000000E+00   0.0000000E+00   0.0000000E+00   0.0000000E+00   0.0000000E+00   0.0000000E+00   0.0000000E+00   0.0000000E+00   0.0000000E+00   0.0000000E+00   0.0000000E+00   0.0000000E+00   0.0000000E+00   0.0000000E+00   0.0000000E+00   0.0000000E+00   0.0000000E+00   0.0000000E+00   0.0000000E+00   0.0000000E+00   0.0000000E+00   0.0000000E+00   0.0000000E+00   0.0000000E+00   0.0000000E+00   0.0000000E+00   0.0000000E+00   0.0000000E+00   0.0000000E+00   0.0000000E+00   0.0000000E+00   0.0000000E+00   0.0000000E+00   0.0000000E+00   0.0000000E+00   0.0000000E+00   0.0000000E+00   0.0000000E+00   0.0000000E+00   0.0000000E+00   0.0000000E+00   0.0000000E+00   0.0000000E+00   0.0000000E+00   0.0000000E+00   0.0000000E+00   0.0000000E+00   0.0000000E+00   0.0000000E+00   0.0000000E+00   0.0000000E+00   0.0000000E+00   0.0000000E+00   0.0000000E+00   0.0000000E+00   0.0000000E+00   0.0000000E+00   0.0000000E+00   0.0000000E+00   0.0000000E+00   0.0000000E+00   0.0000000E+00   0.0000000E+00   0.0000000E+00   0.0000000E+00   0.0000000E+00   0.0000000E+00   0.0000000E+00   0.0000000E+00   0.0000000E+00   0.0000000E+00   0.0000000E+00   0.0000000E+00   0.0000000E+00   0.0000000E+00   0.0000000E+00   0.0000000E+00   0.0000000E+00   0.0000000E+00   0.0000000E+00   0.0000000E+00   0.0000000E+00   0.0000000E+00   0.0000000E+00   0.0000000E+00   0.0000000E+00   0.0000000E+00   0.0000000E+00   0.0000000E+00   0.0000000E+00   0.0000000E+00   0.0000000E+00   0.0000000E+00   0.0000000E+00   0.0000000E+00   0.0000000E+00   0.0000000E+00   0.0000000E+00   0.0000000E+00   0.0000000E+00   0.0000000E+00   0.0000000E+00   0.0000000E+00   0.0000000E+00   0.0000000E+00   0.0000000E+00   0.0000000E+00   0.0000000E+00   0.0000000E+00   0.0000000E+00   0.0000000E+00   0.0000000E+00   0.0000000E+00   0.0000000E+00   0.0000000E+00   0.0000000E+00   0.0000000E+00   0.0000000E+00   0.0000000E+00   0.0000000E+00   0.0000000E+00   0.0000000E+00   0.0000000E+00   0.0000000E+00   0.0000000E+00   0.0000000E+00   0.0000000E+00   0.0000000E+00   0.0000000E+00   0.0000000E+00   0.0000000E+00   0.0000000E+00   0.0000000E+00   0.0000000E+00   0.0000000E+00   0.0000000E+00   0.0000000E+00   0.0000000E+00   0.0000000E+00   0.0000000E+00   0.0000000E+00   0.0000000E+00   0.0000000E+00   0.0000000E+00   0.0000000E+00   0.0000000E+00   0.0000000E+00   0.0000000E+00   0.0000000E+00   0.0000000E+00   0.0000000E+00   0.0000000E+00   0.0000000E+00   0.0000000E+00   0.0000000E+00   0.0000000E+00   0.0000000E+00   0.0000000E+00   0.0000000E+00   0.0000000E+00   0.0000000E+00   0.0000000E+00   0.0000000E+00   0.0000000E+00   0.0000000E+00   0.0000000E+00   0.0000000E+00   0.0000000E+00   0.0000000E+00   0.0000000E+00   0.0000000E+00   0.0000000E+00   0.0000000E+00   0.0000000E+00   0.0000000E+00   0.0000000E+00   0.0000000E+00   0.0000000E+00   0.0000000E+00   0.0000000E+00   0.0000000E+00   0.0000000E+00   0.0000000E+00   0.0000000E+00   0.0000000E+00   0.0000000E+00   0.0000000E+00   0.0000000E+00   0.0000000E+00   0.0000000E+00   0.0000000E+00   0.0000000E+00   0.0000000E+00   0.0000000E+00   0.0000000E+00   0.0000000E+00   0.0000000E+00   0.0000000E+00   0.0000000E+00   0.0000000E+00   0.0000000E+00   0.0000000E+00   0.0000000E+00   0.0000000E+00   0.0000000E+00   0.0000000E+00   0.0000000E+00   0.0000000E+00   0.0000000E+00   0.0000000E+00   0.0000000E+00   0.0000000E+00   0.0000000E+00   0.0000000E+00   0.0000000E+00   0.0000000E+00   0.0000000E+00   0.0000000E+00   0.0000000E+00   0.0000000E+00   0.0000000E+00   0.0000000E+00   0.0000000E+00   0.0000000E+00   0.0000000E+00   0.0000000E+00   0.0000000E+00   0.0000000E+00   0.0000000E+00   0.0000000E+00   0.0000000E+00   0.0000000E+00   0.0000000E+00   0.0000000E+00   0.0000000E+00   0.0000000E+00   0.0000000E+00   0.0000000E+00   0.0000000E+00   0.0000000E+00   0.0000000E+00   0.0000000E+00   0.0000000E+00   0.0000000E+00   0.0000000E+00   0.0000000E+00   0.0000000E+00   0.0000000E+00   0.0000000E+00   0.0000000E+00   0.0000000E+00   0.0000000E+00   0.0000000E+00   0.0000000E+00   0.0000000E+00   0.0000000E+00   0.0000000E+00   0.0000000E+00   0.0000000E+00   0.0000000E+00   0.0000000E+00   0.0000000E+00   0.0000000E+00   0.0000000E+00   0.0000000E+00   0.0000000E+00   0.0000000E+00   0.0000000E+00   0.0000000E+00   0.0000000E+00   0.0000000E+00   0.0000000E+00   0.0000000E+00   0.0000000E+00   0.0000000E+00   0.0000000E+00   0.0000000E+00   0.0000000E+00   0.0000000E+00   0.0000000E+00   0.0000000E+00   0.0000000E+00   0.0000000E+00   0.0000000E+00   0.0000000E+00   0.0000000E+00   0.0000000E+00   0.0000000E+00   0.0000000E+00   0.0000000E+00   0.0000000E+00   0.0000000E+00   0.0000000E+00   0.0000000E+00   0.0000000E+00   0.0000000E+00   0.0000000E+00   0.0000000E+00   0.0000000E+00   0.0000000E+00   0.0000000E+00   0.0000000E+00   0.0000000E+00   0.0000000E+00   0.0000000E+00   0.0000000E+00   0.0000000E+00   0.0000000E+00   0.0000000E+00   0.0000000E+00   0.0000000E+00   0.0000000E+00   0.0000000E+00   0.0000000E+00   0.0000000E+00   0.0000000E+00   0.0000000E+00   0.0000000E+00   0.0000000E+00   0.0000000E+00   0.0000000E+00   0.0000000E+00   0.0000000E+00   0.0000000E+00   0.0000000E+00   0.0000000E+00   0.0000000E+00   0.0000000E+00   0.0000000E+00   0.0000000E+00   0.0000000E+00   0.0000000E+00   0.0000000E+00   0.0000000E+00   0.0000000E+00   0.0000000E+00   0.0000000E+00   0.0000000E+00   0.0000000E+00   0.0000000E+00   0.0000000E+00   0.0000000E+00   0.0000000E+00   0.0000000E+00   0.0000000E+00   0.0000000E+00   0.0000000E+00   0.0000000E+00   0.0000000E+00   0.0000000E+00   0.0000000E+00   0.0000000E+00   0.0000000E+00   0.0000000E+00   0.0000000E+00   0.0000000E+00   0.0000000E+00   0.0000000E+00   0.0000000E+00   0.0000000E+00   0.0000000E+00   0.0000000E+00   0.0000000E+00   0.0000000E+00   0.0000000E+00   0.0000000E+00   0.0000000E+00   0.0000000E+00   0.0000000E+00   0.0000000E+00   0.0000000E+00   0.0000000E+00   0.0000000E+00   0.0000000E+00   0.0000000E+00   0.0000000E+00   0.0000000E+00   0.0000000E+00   0.0000000E+00   0.0000000E+00   0.0000000E+00   0.0000000E+00   0.0000000E+00   0.0000000E+00   0.0000000E+00   0.0000000E+00   0.0000000E+00   0.0000000E+00   0.0000000E+00   0.0000000E+00   0.0000000E+00   0.0000000E+00   0.0000000E+00   0.0000000E+00   0.0000000E+00   0.0000000E+00   0.0000000E+00   0.0000000E+00   0.0000000E+00   0.0000000E+00   0.0000000E+00   0.0000000E+00   0.0000000E+00   0.0000000E+00   0.0000000E+00   0.0000000E+00   0.0000000E+00   0.0000000E+00   0.0000000E+00   0.0000000E+00   0.0000000E+00   0.0000000E+00   0.0000000E+00   0.0000000E+00   0.0000000E+00   0.0000000E+00   0.0000000E+00   0.0000000E+00   0.0000000E+00   0.0000000E+00   0.0000000E+00   0.0000000E+00   0.0000000E+00   0.0000000E+00   0.0000000E+00   0.0000000E+00   0.0000000E+00   0.0000000E+00   0.0000000E+00   0.0000000E+00   0.0000000E+00   0.0000000E+00   0.0000000E+00   0.0000000E+00   0.0000000E+00   0.0000000E+00   0.0000000E+00   0.0000000E+00   0.0000000E+00   0.0000000E+00   0.0000000E+00   0.0000000E+00   0.0000000E+00   0.0000000E+00   0.0000000E+00   0.0000000E+00   0.0000000E+00   0.0000000E+00   0.0000000E+00   0.0000000E+00   0.0000000E+00   0.0000000E+00   0.0000000E+00   0.0000000E+00   0.0000000E+00   0.0000000E+00   0.0000000E+00   0.0000000E+00   0.0000000E+00   0.0000000E+00   0.0000000E+00   0.0000000E+00   0.0000000E+00   0.0000000E+00   0.0000000E+00   0.0000000E+00   0.0000000E+00   0.0000000E+00   0.0000000E+00   0.0000000E+00   0.0000000E+00   0.0000000E+00   0.0000000E+00   0.0000000E+00   0.0000000E+00   0.0000000E+00   0.0000000E+00   0.0000000E+00   0.0000000E+00   0.0000000E+00   0.0000000E+00   0.0000000E+00   0.0000000E+00   0.0000000E+00   0.0000000E+00   0.0000000E+00   0.0000000E+00   0.0000000E+00   0.0000000E+00   0.0000000E+00   0.0000000E+00   0.0000000E+00   0.0000000E+00   0.0000000E+00   0.0000000E+00   0.0000000E+00   0.0000000E+00   0.0000000E+00   0.0000000E+00   0.0000000E+00   0.0000000E+00   0.0000000E+00   0.0000000E+00   0.0000000E+00   0.0000000E+00   0.0000000E+00   0.0000000E+00   0.0000000E+00   0.0000000E+00   0.0000000E+00   0.0000000E+00   0.0000000E+00   0.0000000E+00   0.0000000E+00   0.0000000E+00   0.0000000E+00   0.0000000E+00   0.0000000E+00   0.0000000E+00   0.0000000E+00   0.0000000E+00   0.0000000E+00   0.0000000E+00   0.0000000E+00   0.0000000E+00   0.0000000E+00   0.0000000E+00   0.0000000E+00   0.0000000E+00   0.0000000E+00   0.0000000E+00   0.0000000E+00   0.0000000E+00   0.0000000E+00   0.0000000E+00   0.0000000E+00   0.0000000E+00   0.0000000E+00   0.0000000E+00   0.0000000E+00   0.0000000E+00   0.0000000E+00   0.0000000E+00   0.0000000E+00   0.0000000E+00   0.0000000E+00   0.0000000E+00   0.0000000E+00   0.0000000E+00   0.0000000E+00   0.0000000E+00   0.0000000E+00   0.0000000E+00   0.0000000E+00   0.0000000E+00   0.0000000E+00   0.0000000E+00   0.0000000E+00   0.0000000E+00   0.0000000E+00   0.0000000E+00   0.0000000E+00   0.0000000E+00   0.0000000E+00   0.0000000E+00   0.0000000E+00   0.0000000E+00   0.0000000E+00   0.0000000E+00   0.0000000E+00   0.0000000E+00   0.0000000E+00   0.0000000E+00   0.0000000E+00   0.0000000E+00   0.0000000E+00   0.0000000E+00   0.0000000E+00   0.0000000E+00   0.0000000E+00   0.0000000E+00   0.0000000E+00   0.0000000E+00   0.0000000E+00   0.0000000E+00   0.0000000E+00   0.0000000E+00   0.0000000E+00   0.0000000E+00   0.0000000E+00   0.0000000E+00   0.0000000E+00   0.0000000E+00   0.0000000E+00   0.0000000E+00   0.0000000E+00   0.0000000E+00   0.0000000E+00   0.0000000E+00   0.0000000E+00   0.0000000E+00   0.0000000E+00   0.0000000E+00   0.0000000E+00   0.0000000E+00   0.0000000E+00   0.0000000E+00   0.0000000E+00   0.0000000E+00   0.0000000E+00   0.0000000E+00   0.0000000E+00   0.0000000E+00   0.0000000E+00   0.0000000E+00   0.0000000E+00   0.0000000E+00   0.0000000E+00   0.0000000E+00   0.0000000E+00   0.0000000E+00   0.0000000E+00   0.0000000E+00   0.0000000E+00   0.0000000E+00   0.0000000E+00   0.0000000E+00   0.0000000E+00   0.0000000E+00   0.0000000E+00   0.0000000E+00   0.0000000E+00   0.0000000E+00   0.0000000E+00   0.0000000E+00   0.0000000E+00   0.0000000E+00   0.0000000E+00   0.0000000E+00   0.0000000E+00   0.0000000E+00   0.0000000E+00   0.0000000E+00   0.0000000E+00   0.0000000E+00   0.0000000E+00   0.0000000E+00   0.0000000E+00   0.0000000E+00   0.0000000E+00   0.0000000E+00   0.0000000E+00   0.0000000E+00   0.0000000E+00   0.0000000E+00   0.0000000E+00   0.0000000E+00   0.0000000E+00   0.0000000E+00   0.0000000E+00   0.0000000E+00   0.0000000E+00   0.0000000E+00   0.0000000E+00   0.0000000E+00   0.0000000E+00   0.0000000E+00   0.0000000E+00   0.0000000E+00   0.0000000E+00   0.0000000E+00   0.0000000E+00   0.0000000E+00   0.0000000E+00   0.0000000E+00   0.0000000E+00   0.0000000E+00   0.0000000E+00   0.0000000E+00   0.0000000E+00   0.0000000E+00   0.0000000E+00   0.0000000E+00   0.0000000E+00   0.0000000E+00   0.0000000E+00   0.0000000E+00   0.0000000E+00   0.0000000E+00   0.0000000E+00   0.0000000E+00   0.0000000E+00   0.0000000E+00   0.0000000E+00   0.0000000E+00   0.0000000E+00   0.0000000E+00   0.0000000E+00   0.0000000E+00   0.0000000E+00   0.0000000E+00   0.0000000E+00   0.0000000E+00   0.0000000E+00   0.0000000E+00   0.0000000E+00   0.0000000E+00   0.0000000E+00   0.0000000E+00   0.0000000E+00   0.0000000E+00   0.0000000E+00   0.0000000E+00   0.0000000E+00   0.0000000E+00   0.0000000E+00   0.0000000E+00   0.0000000E+00   0.0000000E+00   0.0000000E+00   0.0000000E+00   0.0000000E+00   0.0000000E+00   0.0000000E+00   0.0000000E+00   0.0000000E+00   0.0000000E+00   0.0000000E+00   0.0000000E+00   0.0000000E+00   0.0000000E+00   0.0000000E+00   0.0000000E+00   0.0000000E+00   0.0000000E+00   0.0000000E+00   0.0000000E+00   0.0000000E+00   0.0000000E+00   0.0000000E+00   0.0000000E+00   0.0000000E+00   0.0000000E+00   0.0000000E+00   0.0000000E+00   0.0000000E+00   0.0000000E+00   0.0000000E+00   0.0000000E+00   0.0000000E+00   0.0000000E+00   0.0000000E+00   0.0000000E+00   0.0000000E+00   0.0000000E+00   0.0000000E+00   0.0000000E+00   0.0000000E+00   0.0000000E+00   0.0000000E+00   0.0000000E+00   0.0000000E+00   0.0000000E+00   0.0000000E+00   0.0000000E+00   0.0000000E+00   0.0000000E+00   0.0000000E+00   0.0000000E+00   0.0000000E+00   0.0000000E+00   0.0000000E+00   0.0000000E+00   0.0000000E+00   0.0000000E+00   0.0000000E+00   0.0000000E+00   0.0000000E+00   0.0000000E+00   0.0000000E+00   0.0000000E+00   0.0000000E+00   0.0000000E+00   0.0000000E+00   0.0000000E+00   0.0000000E+00   0.0000000E+00   0.0000000E+00   0.0000000E+00   0.0000000E+00   0.0000000E+00   0.0000000E+00   0.0000000E+00   0.0000000E+00   0.0000000E+00   0.0000000E+00   0.0000000E+00   0.0000000E+00   0.0000000E+00   0.0000000E+00   0.0000000E+00   0.0000000E+00   0.0000000E+00   0.0000000E+00   0.0000000E+00   0.0000000E+00   0.0000000E+00   0.0000000E+00   0.0000000E+00   0.0000000E+00   0.0000000E+00   0.0000000E+00   0.0000000E+00   0.0000000E+00   0.0000000E+00   0.0000000E+00   0.0000000E+00   0.0000000E+00   0.0000000E+00   0.0000000E+00   0.0000000E+00   0.0000000E+00   0.0000000E+00   0.0000000E+00   0.0000000E+00   0.0000000E+00   0.0000000E+00   0.0000000E+00   0.0000000E+00   0.0000000E+00   0.0000000E+00   0.0000000E+00   0.0000000E+00   0.0000000E+00   0.0000000E+00   0.0000000E+00   0.0000000E+00   0.0000000E+00   0.0000000E+00   0.0000000E+00   0.0000000E+00   0.0000000E+00   0.0000000E+00   0.0000000E+00   0.0000000E+00   0.0000000E+00   0.0000000E+00   0.0000000E+00   0.0000000E+00   0.0000000E+00   0.0000000E+00   0.0000000E+00   0.0000000E+00   0.0000000E+00   0.0000000E+00   0.0000000E+00   0.0000000E+00   0.0000000E+00   0.0000000E+00   0.0000000E+00   0.0000000E+00   0.0000000E+00   0.0000000E+00   0.0000000E+00   0.0000000E+00   0.0000000E+00   0.0000000E+00   0.0000000E+00   0.0000000E+00   0.0000000E+00   0.0000000E+00   0.0000000E+00   0.0000000E+00   0.0000000E+00   0.0000000E+00   0.0000000E+00   0.0000000E+00   0.0000000E+00   0.0000000E+00   0.0000000E+00   0.0000000E+00   0.0000000E+00   0.0000000E+00   0.0000000E+00   0.0000000E+00   0.0000000E+00   0.0000000E+00   0.0000000E+00   0.0000000E+00   0.0000000E+00   0.0000000E+00   0.0000000E+00   0.0000000E+00   0.0000000E+00   0.0000000E+00   0.0000000E+00   0.0000000E+00   0.0000000E+00   0.0000000E+00   0.0000000E+00   0.0000000E+00   0.0000000E+00   0.0000000E+00   0.0000000E+00   0.0000000E+00   0.0000000E+00   0.0000000E+00   0.0000000E+00   0.0000000E+00   0.0000000E+00   0.0000000E+00   0.0000000E+00   0.0000000E+00   0.0000000E+00   0.0000000E+00   0.0000000E+00   0.0000000E+00   0.0000000E+00   0.0000000E+00   0.0000000E+00   0.0000000E+00   0.0000000E+00   0.0000000E+00   0.0000000E+00   0.0000000E+00   0.0000000E+00   0.0000000E+00   0.0000000E+00   0.0000000E+00   0.0000000E+00   0.0000000E+00   0.0000000E+00   0.0000000E+00   0.0000000E+00   0.0000000E+00   0.0000000E+00   0.0000000E+00   0.0000000E+00   0.0000000E+00   0.0000000E+00   0.0000000E+00   0.0000000E+00   0.0000000E+00   0.0000000E+00   0.0000000E+00   0.0000000E+00   0.0000000E+00   0.0000000E+00   0.0000000E+00   0.0000000E+00   0.0000000E+00   0.0000000E+00   0.0000000E+00   0.0000000E+00   0.0000000E+00   0.0000000E+00   0.0000000E+00   0.0000000E+00   0.0000000E+00   0.0000000E+00   0.0000000E+00   0.0000000E+00   0.0000000E+00   0.0000000E+00   0.0000000E+00   0.0000000E+00   0.0000000E+00   0.0000000E+00   0.0000000E+00   0.0000000E+00   0.0000000E+00   0.0000000E+00   0.0000000E+00   0.0000000E+00   0.0000000E+00   0.0000000E+00   0.0000000E+00   0.0000000E+00   0.0000000E+00   0.0000000E+00   0.0000000E+00   0.0000000E+00   0.0000000E+00   0.0000000E+00   0.0000000E+00   0.0000000E+00   0.0000000E+00   0.0000000E+00   0.0000000E+00   0.0000000E+00   0.0000000E+00   0.0000000E+00   0.0000000E+00   0.0000000E+00   0.0000000E+00   0.0000000E+00   0.0000000E+00   0.0000000E+00   0.0000000E+00   0.0000000E+00   0.0000000E+00   0.0000000E+00   0.0000000E+00   0.0000000E+00   0.0000000E+00   0.0000000E+00   0.0000000E+00   0.0000000E+00   0.0000000E+00   0.0000000E+00   0.0000000E+00   0.0000000E+00   0.0000000E+00   0.0000000E+00   0.0000000E+00   0.0000000E+00   0.0000000E+00   0.0000000E+00   0.0000000E+00   0.0000000E+00   0.0000000E+00   0.0000000E+00   0.0000000E+00   0.0000000E+00   0.0000000E+00   0.0000000E+00   0.0000000E+00   0.0000000E+00   0.0000000E+00   0.0000000E+00   0.0000000E+00   0.0000000E+00   0.0000000E+00   0.0000000E+00   0.0000000E+00   0.0000000E+00   0.0000000E+00   0.0000000E+00   0.0000000E+00   0.0000000E+00   0.0000000E+00   0.0000000E+00   0.0000000E+00   0.0000000E+00   0.0000000E+00   0.0000000E+00   0.0000000E+00   0.0000000E+00   0.0000000E+00   0.0000000E+00   0.0000000E+00   0.0000000E+00   0.0000000E+00   0.0000000E+00   0.0000000E+00   0.0000000E+00   0.0000000E+00   0.0000000E+00   0.0000000E+00   0.0000000E+00   0.0000000E+00   0.0000000E+00   0.0000000E+00   0.0000000E+00   0.0000000E+00   0.0000000E+00   0.0000000E+00   0.0000000E+00   0.0000000E+00   0.0000000E+00   0.0000000E+00   0.0000000E+00   0.0000000E+00   0.0000000E+00   0.0000000E+00   0.0000000E+00   0.0000000E+00   0.0000000E+00   0.0000000E+00   0.0000000E+00   0.0000000E+00   0.0000000E+00   0.0000000E+00   0.0000000E+00   0.0000000E+00   0.0000000E+00   0.0000000E+00   0.0000000E+00   0.0000000E+00   0.0000000E+00   0.0000000E+00   0.0000000E+00   0.0000000E+00   0.0000000E+00   0.0000000E+00   0.0000000E+00   0.0000000E+00   0.0000000E+00   0.0000000E+00   0.0000000E+00   0.0000000E+00   0.0000000E+00   0.0000000E+00   0.0000000E+00   0.0000000E+00   0.0000000E+00   0.0000000E+00   0.0000000E+00   0.0000000E+00   0.0000000E+00   0.0000000E+00   0.0000000E+00   0.0000000E+00   0.0000000E+00   0.0000000E+00   0.0000000E+00   0.0000000E+00   0.0000000E+00   0.0000000E+00   0.0000000E+00   0.0000000E+00   0.0000000E+00   0.0000000E+00   0.0000000E+00   0.0000000E+00   0.0000000E+00   0.0000000E+00   0.0000000E+00   0.0000000E+00   0.0000000E+00   0.0000000E+00   0.0000000E+00   0.0000000E+00   0.0000000E+00   0.0000000E+00   0.0000000E+00   0.0000000E+00   0.0000000E+00   0.0000000E+00   0.0000000E+00   0.0000000E+00   0.0000000E+00   0.0000000E+00   0.0000000E+00   0.0000000E+00   0.0000000E+00   0.0000000E+00   0.0000000E+00   0.0000000E+00   0.0000000E+00   0.0000000E+00   0.0000000E+00   0.0000000E+00   0.0000000E+00   0.0000000E+00   0.0000000E+00   0.0000000E+00   0.0000000E+00   0.0000000E+00   0.0000000E+00   0.0000000E+00   0.0000000E+00   0.0000000E+00   0.0000000E+00   0.0000000E+00   0.0000000E+00   0.0000000E+00   0.0000000E+00   0.0000000E+00   0.0000000E+00   0.0000000E+00   0.0000000E+00   0.0000000E+00   0.0000000E+00   0.0000000E+00   0.0000000E+00   0.0000000E+00   0.0000000E+00   0.0000000E+00   0.0000000E+00   0.0000000E+00   0.0000000E+00   0.0000000E+00   0.0000000E+00   0.0000000E+00   0.0000000E+00   0.0000000E+00   0.0000000E+00   0.0000000E+00   0.0000000E+00   0.0000000E+00   0.0000000E+00   0.0000000E+00   0.0000000E+00   0.0000000E+00   0.0000000E+00   0.0000000E+00   0.0000000E+00   0.0000000E+00   0.0000000E+00   0.0000000E+00   0.0000000E+00   0.0000000E+00   0.0000000E+00   0.0000000E+00   0.0000000E+00   0.0000000E+00   0.0000000E+00   0.0000000E+00   0.0000000E+00   0.0000000E+00   0.0000000E+00   0.0000000E+00   0.0000000E+00   0.0000000E+00   0.0000000E+00   0.0000000E+00   0.0000000E+00   0.0000000E+00   0.0000000E+00   0.0000000E+00   0.0000000E+00   0.0000000E+00   0.0000000E+00   0.0000000E+00   0.0000000E+00   0.0000000E+00   0.0000000E+00   0.0000000E+00   0.0000000E+00   0.0000000E+00   0.0000000E+00   0.0000000E+00   0.0000000E+00   0.0000000E+00   0.0000000E+00   0.0000000E+00   0.0000000E+00   0.0000000E+00   0.0000000E+00   0.0000000E+00   0.0000000E+00   0.0000000E+00   0.0000000E+00   0.0000000E+00   0.0000000E+00   0.0000000E+00   0.0000000E+00   0.0000000E+00   0.0000000E+00   0.0000000E+00   0.0000000E+00   0.0000000E+00   0.0000000E+00   0.0000000E+00   0.0000000E+00   0.0000000E+00   0.0000000E+00   0.0000000E+00   0.0000000E+00   0.0000000E+00   0.0000000E+00   0.0000000E+00   0.0000000E+00   0.0000000E+00   0.0000000E+00   0.0000000E+00   0.0000000E+00   0.0000000E+00   0.0000000E+00   0.0000000E+00   0.0000000E+00   0.0000000E+00   0.0000000E+00   0.0000000E+00   0.0000000E+00   0.0000000E+00   0.0000000E+00   0.0000000E+00   0.0000000E+00   0.0000000E+00   0.0000000E+00   0.0000000E+00   0.0000000E+00   0.0000000E+00   0.0000000E+00   0.0000000E+00   0.0000000E+00   0.0000000E+00   0.0000000E+00   0.0000000E+00   0.0000000E+00   0.0000000E+00   0.0000000E+00   0.0000000E+00   0.0000000E+00   0.0000000E+00   0.0000000E+00   0.0000000E+00   0.0000000E+00   0.0000000E+00   0.0000000E+00   0.0000000E+00   0.0000000E+00   0.0000000E+00   0.0000000E+00   0.0000000E+00   0.0000000E+00   0.0000000E+00   0.0000000E+00   0.0000000E+00   0.0000000E+00   0.0000000E+00   0.0000000E+00   0.0000000E+00   0.0000000E+00   0.0000000E+00   0.0000000E+00   0.0000000E+00   0.0000000E+00   0.0000000E+00   0.0000000E+00   0.0000000E+00   0.0000000E+00   0.0000000E+00   0.0000000E+00   0.0000000E+00   0.0000000E+00   0.0000000E+00   0.0000000E+00   0.0000000E+00   0.0000000E+00   0.0000000E+00   0.0000000E+00   0.0000000E+00   0.0000000E+00   0.0000000E+00   0.0000000E+00   0.0000000E+00   0.0000000E+00   0.0000000E+00   0.0000000E+00   0.0000000E+00   0.0000000E+00   0.0000000E+00   0.0000000E+00   0.0000000E+00   0.0000000E+00   0.0000000E+00   0.0000000E+00   0.0000000E+00   0.0000000E+00   0.0000000E+00   0.0000000E+00   0.0000000E+00   0.0000000E+00   0.0000000E+00   0.0000000E+00   0.0000000E+00   0.0000000E+00   0.0000000E+00   0.0000000E+00   0.0000000E+00   0.0000000E+00   0.0000000E+00   0.0000000E+00   0.0000000E+00   0.0000000E+00   0.0000000E+00   0.0000000E+00   0.0000000E+00   0.0000000E+00   0.0000000E+00   0.0000000E+00   0.0000000E+00   0.0000000E+00   0.0000000E+00   0.0000000E+00   0.0000000E+00   0.0000000E+00   0.0000000E+00   0.0000000E+00   0.0000000E+00   0.0000000E+00   0.0000000E+00   0.0000000E+00   0.0000000E+00   0.0000000E+00   0.0000000E+00   0.0000000E+00   0.0000000E+00   0.0000000E+00   0.0000000E+00   0.0000000E+00   0.0000000E+00   0.0000000E+00   0.0000000E+00   0.0000000E+00   0.0000000E+00   0.0000000E+00   0.0000000E+00   0.0000000E+00   0.0000000E+00   0.0000000E+00   0.0000000E+00   0.0000000E+00   0.0000000E+00   0.0000000E+00   0.0000000E+00   0.0000000E+00   0.0000000E+00   0.0000000E+00   0.0000000E+00   0.0000000E+00   0.0000000E+00   0.0000000E+00   0.0000000E+00   0.0000000E+00   0.0000000E+00   0.0000000E+00   0.0000000E+00   0.0000000E+00   0.0000000E+00   0.0000000E+00   0.0000000E+00   0.0000000E+00   0.0000000E+00   0.0000000E+00   0.0000000E+00   0.0000000E+00   0.0000000E+00   0.0000000E+00   0.0000000E+00   0.0000000E+00   0.0000000E+00   0.0000000E+00   0.0000000E+00   0.0000000E+00   0.0000000E+00   0.0000000E+00   0.0000000E+00   0.0000000E+00   0.0000000E+00   0.0000000E+00   0.0000000E+00   0.0000000E+00   0.0000000E+00   0.0000000E+00   0.0000000E+00   0.0000000E+00   0.0000000E+00   0.0000000E+00   0.0000000E+00   0.0000000E+00   0.0000000E+00   0.0000000E+00   0.0000000E+00   0.0000000E+00   0.0000000E+00   0.0000000E+00   0.0000000E+00   0.0000000E+00   0.0000000E+00   0.0000000E+00   0.0000000E+00   0.0000000E+00   0.0000000E+00   0.0000000E+00   0.0000000E+00   0.0000000E+00   0.0000000E+00   0.0000000E+00   0.0000000E+00   0.0000000E+00   0.0000000E+00   0.0000000E+00   0.0000000E+00   0.0000000E+00   0.0000000E+00   0.0000000E+00   0.0000000E+00   0.0000000E+00   0.0000000E+00   0.0000000E+00   0.0000000E+00   0.0000000E+00   0.0000000E+00   0.0000000E+00   0.0000000E+00   0.0000000E+00   0.0000000E+00   0.0000000E+00   0.0000000E+00   0.0000000E+00   0.0000000E+00   0.0000000E+00   0.0000000E+00   0.0000000E+00   0.0000000E+00   0.0000000E+00   0.0000000E+00   0.0000000E+00   0.0000000E+00   0.0000000E+00   0.0000000E+00   0.0000000E+00   0.0000000E+00   0.0000000E+00   0.0000000E+00   0.0000000E+00   0.0000000E+00   0.0000000E+00   0.0000000E+00   0.0000000E+00   0.0000000E+00   0.0000000E+00   0.0000000E+00   0.0000000E+00   0.0000000E+00   0.0000000E+00   0.0000000E+00   0.0000000E+00   0.0000000E+00   0.0000000E+00   0.0000000E+00   0.0000000E+00   0.0000000E+00   0.0000000E+00   0.0000000E+00   0.0000000E+00   0.0000000E+00   0.0000000E+00   0.0000000E+00   0.0000000E+00   0.0000000E+00   0.0000000E+00   0.0000000E+00   0.0000000E+00   0.0000000E+00   0.0000000E+00   0.0000000E+00   0.0000000E+00   0.0000000E+00   0.0000000E+00   0.0000000E+00   0.0000000E+00   0.0000000E+00   0.0000000E+00   0.0000000E+00   0.0000000E+00   0.0000000E+00   0.0000000E+00   0.0000000E+00   0.0000000E+00   0.0000000E+00   0.0000000E+00   0.0000000E+00   0.0000000E+00   0.0000000E+00   0.0000000E+00   0.0000000E+00   0.0000000E+00   0.0000000E+00   0.0000000E+00   0.0000000E+00   0.0000000E+00   0.0000000E+00   0.0000000E+00   0.0000000E+00   0.0000000E+00   0.0000000E+00   0.0000000E+00   0.0000000E+00   0.0000000E+00   0.0000000E+00   0.0000000E+00   0.0000000E+00   0.0000000E+00   0.0000000E+00   0.0000000E+00   0.0000000E+00   0.0000000E+00   0.0000000E+00   0.0000000E+00   0.0000000E+00   0.0000000E+00   0.0000000E+00   0.0000000E+00   0.0000000E+00   0.0000000E+00   0.0000000E+00   0.0000000E+00   0.0000000E+00   0.0000000E+00   0.0000000E+00   0.0000000E+00   0.0000000E+00   0.0000000E+00   0.0000000E+00   0.0000000E+00   0.0000000E+00   0.0000000E+00   0.0000000E+00   0.0000000E+00   0.0000000E+00   0.0000000E+00   0.0000000E+00   0.0000000E+00   0.0000000E+00   0.0000000E+00   0.0000000E+00   0.0000000E+00   0.0000000E+00   0.0000000E+00   0.0000000E+00   0.0000000E+00   0.0000000E+00   0.0000000E+00   0.0000000E+00   0.0000000E+00   0.0000000E+00   0.0000000E+00   0.0000000E+00   0.0000000E+00   0.0000000E+00   0.0000000E+00   0.0000000E+00   0.0000000E+00   0.0000000E+00   0.0000000E+00   0.0000000E+00   0.0000000E+00   0.0000000E+00   0.0000000E+00   0.0000000E+00   0.0000000E+00   0.0000000E+00   0.0000000E+00   0.0000000E+00   0.0000000E+00   0.0000000E+00   0.0000000E+00   0.0000000E+00   0.0000000E+00   0.0000000E+00   0.0000000E+00   0.0000000E+00   0.0000000E+00   0.0000000E+00   0.0000000E+00   0.0000000E+00   0.0000000E+00   0.0000000E+00   0.0000000E+00   0.0000000E+00   0.0000000E+00   0.0000000E+00   0.0000000E+00   0.0000000E+00   0.0000000E+00   0.0000000E+00   0.0000000E+00   0.0000000E+00   0.0000000E+00   0.0000000E+00   0.0000000E+00   0.0000000E+00   0.0000000E+00   0.0000000E+00   0.0000000E+00   0.0000000E+00   0.0000000E+00   0.0000000E+00   0.0000000E+00   0.0000000E+00   0.0000000E+00   0.0000000E+00   0.0000000E+00   0.0000000E+00   0.0000000E+00   0.0000000E+00   0.0000000E+00   0.0000000E+00   0.0000000E+00   0.0000000E+00   0.0000000E+00   0.0000000E+00   0.0000000E+00   0.0000000E+00   0.0000000E+00   0.0000000E+00   0.0000000E+00   0.0000000E+00   0.0000000E+00   0.0000000E+00   0.0000000E+00   0.0000000E+00   0.0000000E+00   0.0000000E+00   0.0000000E+00   0.0000000E+00   0.0000000E+00   0.0000000E+00   0.0000000E+00   0.0000000E+00   0.0000000E+00   0.0000000E+00   0.0000000E+00   0.0000000E+00   0.0000000E+00   0.0000000E+00   0.0000000E+00   0.0000000E+00   0.0000000E+00   0.0000000E+00   0.0000000E+00   0.0000000E+00   0.0000000E+00   0.0000000E+00   0.0000000E+00   0.0000000E+00   0.0000000E+00   0.0000000E+00   0.0000000E+00   0.0000000E+00   0.0000000E+00   0.0000000E+00   0.0000000E+00   0.0000000E+00   0.0000000E+00   0.0000000E+00   0.0000000E+00   0.0000000E+00   0.0000000E+00   0.0000000E+00   0.0000000E+00   0.0000000E+00   0.0000000E+00   0.0000000E+00   0.0000000E+00   0.0000000E+00   0.0000000E+00   0.0000000E+00   0.0000000E+00   0.0000000E+00   0.0000000E+00   0.0000000E+00   0.0000000E+00   0.0000000E+00   0.0000000E+00   0.0000000E+00   0.0000000E+00   0.0000000E+00   0.0000000E+00   0.0000000E+00   0.0000000E+00   0.0000000E+00   0.0000000E+00   0.0000000E+00   0.0000000E+00   0.0000000E+00   0.0000000E+00   0.0000000E+00   0.0000000E+00   0.0000000E+00   0.0000000E+00   0.0000000E+00   0.0000000E+00   0.0000000E+00   0.0000000E+00   0.0000000E+00   0.0000000E+00   0.0000000E+00   0.0000000E+00   0.0000000E+00   0.0000000E+00   0.0000000E+00   0.0000000E+00   0.0000000E+00   0.0000000E+00   0.0000000E+00   0.0000000E+00   0.0000000E+00   0.0000000E+00   0.0000000E+00   0.0000000E+00   0.0000000E+00   0.0000000E+00   0.0000000E+00   0.0000000E+00   0.0000000E+00   0.0000000E+00   0.0000000E+00   0.0000000E+00   0.0000000E+00   0.0000000E+00   0.0000000E+00   0.0000000E+00   0.0000000E+00   0.0000000E+00   0.0000000E+00   0.0000000E+00   0.0000000E+00   0.0000000E+00   0.0000000E+00   0.0000000E+00   0.0000000E+00   0.0000000E+00   0.0000000E+00   0.0000000E+00   0.0000000E+00   0.0000000E+00   0.0000000E+00   0.0000000E+00   0.0000000E+00   0.0000000E+00   0.0000000E+00   0.0000000E+00   0.0000000E+00   0.0000000E+00   0.0000000E+00   0.0000000E+00   0.0000000E+00   0.0000000E+00   0.0000000E+00   0.0000000E+00   0.0000000E+00   0.0000000E+00   0.0000000E+00   0.0000000E+00   0.0000000E+00   0.0000000E+00   0.0000000E+00   0.0000000E+00   0.0000000E+00   0.0000000E+00   0.0000000E+00   0.0000000E+00   0.0000000E+00   0.0000000E+00   0.0000000E+00   0.0000000E+00   0.0000000E+00   0.0000000E+00   0.0000000E+00   0.0000000E+00   0.0000000E+00   0.0000000E+00   0.0000000E+00   0.0000000E+00   0.0000000E+00   0.0000000E+00   0.0000000E+00   0.0000000E+00   0.0000000E+00   0.0000000E+00   0.0000000E+00   0.0000000E+00   0.0000000E+00   0.0000000E+00   0.0000000E+00   0.0000000E+00   0.0000000E+00   0.0000000E+00   0.0000000E+00   0.0000000E+00   0.0000000E+00   0.0000000E+00   0.0000000E+00   0.0000000E+00   0.0000000E+00   0.0000000E+00   0.0000000E+00   0.0000000E+00   0.0000000E+00   0.0000000E+00   0.0000000E+00   0.0000000E+00   0.0000000E+00   0.0000000E+00   0.0000000E+00   0.0000000E+00   0.0000000E+00   0.0000000E+00   0.0000000E+00   0.0000000E+00   0.0000000E+00   0.0000000E+00   0.0000000E+00   0.0000000E+00   0.0000000E+00   0.0000000E+00   0.0000000E+00   0.0000000E+00   0.0000000E+00   0.0000000E+00   0.0000000E+00   0.0000000E+00   0.0000000E+00   0.0000000E+00   0.0000000E+00   0.0000000E+00   0.0000000E+00   0.0000000E+00   0.0000000E+00   0.0000000E+00   0.0000000E+00   0.0000000E+00   0.0000000E+00   0.0000000E+00   0.0000000E+00   0.0000000E+00   0.0000000E+00   0.0000000E+00   0.0000000E+00   0.0000000E+00   0.0000000E+00   0.0000000E+00   0.0000000E+00   0.0000000E+00   0.0000000E+00   0.0000000E+00   0.0000000E+00   0.0000000E+00   0.0000000E+00   0.0000000E+00   0.0000000E+00   0.0000000E+00   0.0000000E+00   0.0000000E+00   0.0000000E+00   0.0000000E+00   0.0000000E+00   0.0000000E+00   0.0000000E+00   0.0000000E+00   0.0000000E+00   0.0000000E+00   0.0000000E+00   0.0000000E+00   0.0000000E+00   0.0000000E+00   0.0000000E+00   0.0000000E+00   0.0000000E+00   0.0000000E+00   0.0000000E+00   0.0000000E+00   0.0000000E+00   0.0000000E+00   0.0000000E+00   0.0000000E+00   0.0000000E+00   0.0000000E+00   0.0000000E+00   0.0000000E+00   0.0000000E+00   0.0000000E+00   0.0000000E+00   0.0000000E+00   0.0000000E+00   0.0000000E+00   0.0000000E+00   0.0000000E+00   0.0000000E+00   0.0000000E+00   0.0000000E+00   0.0000000E+00   0.0000000E+00   0.0000000E+00   0.0000000E+00   0.0000000E+00   0.0000000E+00   0.0000000E+00   0.0000000E+00   0.0000000E+00   0.0000000E+00   0.0000000E+00   0.0000000E+00   0.0000000E+00   0.0000000E+00   0.0000000E+00   0.0000000E+00   0.0000000E+00   0.0000000E+00   0.0000000E+00   0.0000000E+00   0.0000000E+00   0.0000000E+00   0.0000000E+00   0.0000000E+00   0.0000000E+00   0.0000000E+00   0.0000000E+00   0.0000000E+00   0.0000000E+00   0.0000000E+00   0.0000000E+00   0.0000000E+00   0.0000000E+00   0.0000000E+00   0.0000000E+00   0.0000000E+00   0.0000000E+00   0.0000000E+00   0.0000000E+00   0.0000000E+00   0.0000000E+00   0.0000000E+00   0.0000000E+00   0.0000000E+00   0.0000000E+00   0.0000000E+00   0.0000000E+00   0.0000000E+00   0.0000000E+00   0.0000000E+00   0.0000000E+00   0.0000000E+00   0.0000000E+00   0.0000000E+00   0.0000000E+00   0.0000000E+00   0.0000000E+00   0.0000000E+00   0.0000000E+00   0.0000000E+00   0.0000000E+00   0.0000000E+00   0.0000000E+00   0.0000000E+00   0.0000000E+00   0.0000000E+00   0.0000000E+00   0.0000000E+00   0.0000000E+00   0.0000000E+00   0.0000000E+00   0.0000000E+00   0.0000000E+00   0.0000000E+00   0.0000000E+00   0.0000000E+00   0.0000000E+00   0.0000000E+00   0.0000000E+00   0.0000000E+00   0.0000000E+00   0.0000000E+00   0.0000000E+00   0.0000000E+00   0.0000000E+00   0.0000000E+00   0.0000000E+00   0.0000000E+00   0.0000000E+00   0.0000000E+00   0.0000000E+00   0.0000000E+00   0.0000000E+00   0.0000000E+00   0.0000000E+00   0.0000000E+00   0.0000000E+00   0.0000000E+00   0.0000000E+00   0.0000000E+00   0.0000000E+00   0.0000000E+00   0.0000000E+00   0.0000000E+00   0.0000000E+00   0.0000000E+00   0.0000000E+00   0.0000000E+00   0.0000000E+00   0.0000000E+00   0.0000000E+00   0.0000000E+00   0.0000000E+00   0.0000000E+00   0.0000000E+00   0.0000000E+00   0.0000000E+00   0.0000000E+00   0.0000000E+00   0.0000000E+00   0.0000000E+00   0.0000000E+00   0.0000000E+00   0.0000000E+00   0.0000000E+00   0.0000000E+00   0.0000000E+00   0.0000000E+00   0.0000000E+00   0.0000000E+00 
Acec.z 1 2975 float
  0.0000000E+00   0.0000000E+00   0.0000000E+00   0.0000000E+00   0.0000000E+00   0.0000000E+00   0.0000000E+00   0.0000000E+00   0.0000000E+00   0.0000000E+00   0.0000000E+00   0.0000000E+00   0.0000000E+00   0.0000000E+00   0.0000000E+00   0.0000000E+00   0.0000000E+00   0.0000000E+00   0.0000000E+00   0.0000000E+00   0.0000000E+00   0.0000000E+00   0.0000000E+00   0.0000000E+00   0.0000000E+00   0.0000000E+00   0.0000000E+00   0.0000000E+00   0.0000000E+00   0.0000000E+00   0.0000000E+00   0.0000000E+00   0.0000000E+00   0.0000000E+00   0.0000000E+00   0.0000000E+00   0.0000000E+00   0.0000000E+00   0.0000000E+00   0.0000000E+00   0.0000000E+00   0.0000000E+00   0.0000000E+00   0.0000000E+00   0.0000000E+00   0.0000000E+00   0.0000000E+00   0.0000000E+00   0.0000000E+00   0.0000000E+00   0.0000000E+00   0.0000000E+00   0.0000000E+00   0.0000000E+00   0.0000000E+00   0.0000000E+00   0.0000000E+00   0.0000000E+00   0.0000000E+00   0.0000000E+00   0.0000000E+00   0.0000000E+00   0.0000000E+00   0.0000000E+00   0.0000000E+00   0.0000000E+00   0.0000000E+00   0.0000000E+00   0.0000000E+00   0.0000000E+00   0.0000000E+00   0.0000000E+00   0.0000000E+00   0.0000000E+00   0.0000000E+00   0.0000000E+00   0.0000000E+00   0.0000000E+00   0.0000000E+00   0.0000000E+00   0.0000000E+00   0.0000000E+00   0.0000000E+00   0.0000000E+00   0.0000000E+00   0.0000000E+00   0.0000000E+00   0.0000000E+00   0.0000000E+00   0.0000000E+00   0.0000000E+00   0.0000000E+00   0.0000000E+00   0.0000000E+00   0.0000000E+00   0.0000000E+00   0.0000000E+00   0.0000000E+00   0.0000000E+00   0.0000000E+00   0.0000000E+00   0.0000000E+00   0.0000000E+00   0.0000000E+00   0.0000000E+00   0.0000000E+00   0.0000000E+00   0.0000000E+00   0.0000000E+00   0.0000000E+00   0.0000000E+00   0.0000000E+00   0.0000000E+00   0.0000000E+00   0.0000000E+00   0.0000000E+00   0.0000000E+00   0.0000000E+00   0.0000000E+00   0.0000000E+00   0.0000000E+00   0.0000000E+00   0.0000000E+00   0.0000000E+00   0.0000000E+00   0.0000000E+00   0.0000000E+00   0.0000000E+00   0.0000000E+00   0.0000000E+00   0.0000000E+00   0.0000000E+00   0.0000000E+00   0.0000000E+00   0.0000000E+00   0.0000000E+00   0.0000000E+00   0.0000000E+00   0.0000000E+00   0.0000000E+00   0.0000000E+00   0.0000000E+00   0.0000000E+00   0.0000000E+00   0.0000000E+00   0.0000000E+00   0.0000000E+00   0.0000000E+00   0.0000000E+00   0.0000000E+00   0.0000000E+00   0.0000000E+00   0.0000000E+00   0.0000000E+00   0.0000000E+00   0.0000000E+00   0.0000000E+00   0.0000000E+00   0.0000000E+00   0.0000000E+00   0.0000000E+00   0.0000000E+00   0.0000000E+00   0.0000000E+00   0.0000000E+00   0.0000000E+00   0.0000000E+00   0.0000000E+00   0.0000000E+00   0.0000000E+00   0.0000000E+00   0.0000000E+00   0.0000000E+00   0.0000000E+00   0.0000000E+00   0.0000000E+00   0.0000000E+00   0.0000000E+00   0.0000000E+00   0.0000000E+00   0.0000000E+00   0.0000000E+00   0.0000000E+00   0.0000000E+00   0.0000000E+00   0.0000000E+00   0.0000000E+00   0.0000000E+00   0.0000000E+00   0.0000000E+00   0.0000000E+00   0.0000000E+00   0.0000000E+00   0.0000000E+00   0.0000000E+00   0.0000000E+00   0.0000000E+00   0.0000000E+00   0.0000000E+00   0.0000000E+00   0.0000000E+00   0.0000000E+00   0.0000000E+00   0.0000000E+00   0.0000000E+00   0.0000000E+00   0.0000000E+00   0.0000000E+00   0.0000000E+00   0.0000000E+00   0.0000000E+00   0.0000000E+00   0.0000000E+00   0.0000000E+00   0.0000000E+00   0.0000000E+00   0.0000000E+00   0.0000000E+00   0.0000000E+00   0.0000000E+00   0.0000000E+00   0.0000000E+00   0.0000000E+00   0.0000000E+00   0.0000000E+00   0.0000000E+00   0.0000000E+00   0.0000000E+00   0.0000000E+00   0.0000000E+00   0.0000000E+00   0.0000000E+00   0.0000000E+00   0.0000000E+00   0.0000000E+00   0.0000000E+00   0.0000000E+00   0.0000000E+00   0.0000000E+00   0.0000000E+00   0.0000000E+00   0.0000000E+00   0.0000000E+00   0.0000000E+00   0.0000000E+00   0.0000000E+00   0.0000000E+00   0.0000000E+00   0.0000000E+00   0.0000000E+00   0.0000000E+00   0.0000000E+00   0.0000000E+00   0.0000000E+00   0.0000000E+00   0.0000000E+00   0.0000000E+00   0.0000000E+00   0.0000000E+00   0.0000000E+00   0.0000000E+00   0.0000000E+00   0.0000000E+00   0.0000000E+00   0.0000000E+00   0.0000000E+00   0.0000000E+00   0.0000000E+00   0.0000000E+00   0.0000000E+00   0.0000000E+00   0.0000000E+00   0.0000000E+00   0.0000000E+00   0.0000000E+00   0.0000000E+00   0.0000000E+00   0.0000000E+00   0.0000000E+00   0.0000000E+00   0.0000000E+00   0.0000000E+00   0.0000000E+00   0.0000000E+00   0.0000000E+00   0.0000000E+00   0.0000000E+00   0.0000000E+00   0.0000000E+00   0.0000000E+00   0.0000000E+00   0.0000000E+00   0.0000000E+00   0.0000000E+00   0.0000000E+00   0.0000000E+00   0.0000000E+00   0.0000000E+00   0.0000000E+00   0.0000000E+00   0.0000000E+00   0.0000000E+00   0.0000000E+00   0.0000000E+00   0.0000000E+00   0.0000000E+00   0.0000000E+00   0.0000000E+00   0.0000000E+00   0.0000000E+00   0.0000000E+00   0.0000000E+00   0.0000000E+00   0.0000000E+00   0.0000000E+00   0.0000000E+00   0.0000000E+00   0.0000000E+00   0.0000000E+00   0.0000000E+00   0.0000000E+00   0.0000000E+00   0.0000000E+00   0.0000000E+00   0.0000000E+00   0.0000000E+00   0.0000000E+00   0.0000000E+00   0.0000000E+00   0.0000000E+00   0.0000000E+00   0.0000000E+00   0.0000000E+00   0.0000000E+00   0.0000000E+00   0.0000000E+00   0.0000000E+00   0.0000000E+00   0.0000000E+00   0.0000000E+00   0.0000000E+00   0.0000000E+00   0.0000000E+00   0.0000000E+00   0.0000000E+00   0.0000000E+00   0.0000000E+00   0.0000000E+00   0.0000000E+00   0.0000000E+00   0.0000000E+00   0.0000000E+00   0.0000000E+00   0.0000000E+00   0.0000000E+00   0.0000000E+00   0.0000000E+00   0.0000000E+00   0.0000000E+00   0.0000000E+00   0.0000000E+00   0.0000000E+00   0.0000000E+00   0.0000000E+00   0.0000000E+00   0.0000000E+00   0.0000000E+00   0.0000000E+00   0.0000000E+00   0.0000000E+00   0.0000000E+00   0.0000000E+00   0.0000000E+00   0.0000000E+00   0.0000000E+00   0.0000000E+00   0.0000000E+00   0.0000000E+00   0.0000000E+00   0.0000000E+00   0.0000000E+00   0.0000000E+00   0.0000000E+00   0.0000000E+00   0.0000000E+00   0.0000000E+00   0.0000000E+00   0.0000000E+00   0.0000000E+00   0.0000000E+00   0.0000000E+00   0.0000000E+00   0.0000000E+00   0.0000000E+00   0.0000000E+00   0.0000000E+00   0.0000000E+00   0.0000000E+00   0.0000000E+00   0.0000000E+00   0.0000000E+00   0.0000000E+00   0.0000000E+00   0.0000000E+00   0.0000000E+00   0.0000000E+00   0.0000000E+00   0.0000000E+00   0.0000000E+00   0.0000000E+00   0.0000000E+00   0.0000000E+00   0.0000000E+00   0.0000000E+00   0.0000000E+00   0.0000000E+00   0.0000000E+00   0.0000000E+00   0.0000000E+00   0.0000000E+00   0.0000000E+00   0.0000000E+00   0.0000000E+00   0.0000000E+00   0.0000000E+00   0.0000000E+00   0.0000000E+00   0.0000000E+00   0.0000000E+00   0.0000000E+00   0.0000000E+00   0.0000000E+00   0.0000000E+00   0.0000000E+00   0.0000000E+00   0.0000000E+00   0.0000000E+00   0.0000000E+00   0.0000000E+00   0.0000000E+00   0.0000000E+00   0.0000000E+00   0.0000000E+00   0.0000000E+00   0.0000000E+00   0.0000000E+00   0.0000000E+00   0.0000000E+00   0.0000000E+00   0.0000000E+00   0.0000000E+00   0.0000000E+00   0.0000000E+00   0.0000000E+00   0.0000000E+00   0.0000000E+00   0.0000000E+00   0.0000000E+00   0.0000000E+00   0.0000000E+00   0.0000000E+00   0.0000000E+00   0.0000000E+00   0.0000000E+00   0.0000000E+00   0.0000000E+00   0.0000000E+00   0.0000000E+00   0.0000000E+00   0.0000000E+00   0.0000000E+00   0.0000000E+00   0.0000000E+00   0.0000000E+00   0.0000000E+00   0.0000000E+00   0.0000000E+00   0.0000000E+00   0.0000000E+00   0.0000000E+00   0.0000000E+00   0.0000000E+00   0.0000000E+00   0.0000000E+00   0.0000000E+00   0.0000000E+00   0.0000000E+00   0.0000000E+00   0.0000000E+00   0.0000000E+00   0.0000000E+00   0.0000000E+00   0.0000000E+00   0.0000000E+00   0.0000000E+00   0.0000000E+00   0.0000000E+00   0.0000000E+00   0.0000000E+00   0.0000000E+00   0.0000000E+00   0.0000000E+00   0.0000000E+00   0.0000000E+00   0.0000000E+00   0.0000000E+00   0.0000000E+00   0.0000000E+00   0.0000000E+00   0.0000000E+00   0.0000000E+00   0.0000000E+00   0.0000000E+00   0.0000000E+00   0.0000000E+00   0.0000000E+00   0.0000000E+00   0.0000000E+00   0.0000000E+00   0.0000000E+00   0.0000000E+00   0.0000000E+00   0.0000000E+00   0.0000000E+00   0.0000000E+00   0.0000000E+00   0.0000000E+00   0.0000000E+00   0.0000000E+00   0.0000000E+00   0.0000000E+00   0.0000000E+00   0.0000000E+00   0.0000000E+00   0.0000000E+00   0.0000000E+00   0.0000000E+00   0.0000000E+00   0.0000000E+00   0.0000000E+00   0.0000000E+00   0.0000000E+00   0.0000000E+00   0.0000000E+00   0.0000000E+00   0.0000000E+00   0.0000000E+00   0.0000000E+00   0.0000000E+00   0.0000000E+00   0.0000000E+00   0.0000000E+00   0.0000000E+00   0.0000000E+00   0.0000000E+00   0.0000000E+00   0.0000000E+00   0.0000000E+00   0.0000000E+00   0.0000000E+00   0.0000000E+00   0.0000000E+00   0.0000000E+00   0.0000000E+00   0.0000000E+00   0.0000000E+00   0.0000000E+00   0.0000000E+00   0.0000000E+00   0.0000000E+00   0.0000000E+00   0.0000000E+00   0.0000000E+00   0.0000000E+00   0.0000000E+00   0.0000000E+00   0.0000000E+00   0.0000000E+00   0.0000000E+00   0.0000000E+00   0.0000000E+00   0.0000000E+00   0.0000000E+00   0.0000000E+00   0.0000000E+00   0.0000000E+00   0.0000000E+00   0.0000000E+00   0.0000000E+00   0.0000000E+00   0.0000000E+00   0.0000000E+00   0.0000000E+00   0.0000000E+00   0.0000000E+00   0.0000000E+00   0.0000000E+00   0.0000000E+00   0.0000000E+00   0.0000000E+00   0.0000000E+00   0.0000000E+00   0.0000000E+00   0.0000000E+00   0.0000000E+00   0.0000000E+00   0.0000000E+00   0.0000000E+00   0.0000000E+00   0.0000000E+00   0.0000000E+00   0.0000000E+00   0.0000000E+00   0.0000000E+00   0.0000000E+00   0.0000000E+00   0.0000000E+00   0.0000000E+00   0.0000000E+00   0.0000000E+00   0.0000000E+00   0.0000000E+00   0.0000000E+00   0.0000000E+00   0.0000000E+00   0.0000000E+00   0.0000000E+00   0.0000000E+00   0.0000000E+00   0.0000000E+00   0.0000000E+00   0.0000000E+00   0.0000000E+00   0.0000000E+00   0.0000000E+00   0.0000000E+00   0.0000000E+00   0.0000000E+00   0.0000000E+00   0.0000000E+00   0.0000000E+00   0.0000000E+00   0.0000000E+00   0.0000000E+00   0.0000000E+00   0.0000000E+00   0.0000000E+00   0.0000000E+00   0.0000000E+00   0.0000000E+00   0.0000000E+00   0.0000000E+00   0.0000000E+00   0.0000000E+00   0.0000000E+00   0.0000000E+00   0.0000000E+00   0.0000000E+00   0.0000000E+00   0.0000000E+00   0.0000000E+00   0.0000000E+00   0.0000000E+00   0.0000000E+00   0.0000000E+00   0.0000000E+00   0.0000000E+00   0.0000000E+00   0.0000000E+00   0.0000000E+00   0.0000000E+00   0.0000000E+00   0.0000000E+00   0.0000000E+00   0.0000000E+00   0.0000000E+00   0.0000000E+00   0.0000000E+00   0.0000000E+00   0.0000000E+00   0.0000000E+00   0.0000000E+00   0.0000000E+00   0.0000000E+00   0.0000000E+00   0.0000000E+00   0.0000000E+00   0.0000000E+00   0.0000000E+00   0.0000000E+00   0.0000000E+00   0.0000000E+00   0.0000000E+00   0.0000000E+00   0.0000000E+00   0.0000000E+00   0.0000000E+00   0.0000000E+00   0.0000000E+00   0.0000000E+00   0.0000000E+00   0.0000000E+00   0.0000000E+00   0.0000000E+00   0.0000000E+00   0.0000000E+00   0.0000000E+00   0.0000000E+00   0.0000000E+00   0.0000000E+00   0.0000000E+00   0.0000000E+00   0.0000000E+00   0.0000000E+00   0.0000000E+00   0.0000000E+00   0.0000000E+00   0.0000000E+00   0.0000000E+00   0.0000000E+00   0.0000000E+00   0.0000000E+00   0.0000000E+00   0.0000000E+00   0.0000000E+00   0.0000000E+00   0.0000000E+00   0.0000000E+00   0.0000000E+00   0.0000000E+00   0.0000000E+00   0.0000000E+00   0.0000000E+00   0.0000000E+00   0.0000000E+00   0.0000000E+00   0.0000000E+00   0.0000000E+00   0.0000000E+00   0.0000000E+00   0.0000000E+00   0.0000000E+00   0.0000000E+00   0.0000000E+00   0.0000000E+00   0.0000000E+00   0.0000000E+00   0.0000000E+00   0.0000000E+00   0.0000000E+00   0.0000000E+00   0.0000000E+00   0.0000000E+00   0.0000000E+00   0.0000000E+00   0.0000000E+00   0.0000000E+00   0.0000000E+00   0.0000000E+00   0.0000000E+00   0.0000000E+00   0.0000000E+00   0.0000000E+00   0.0000000E+00   0.0000000E+00   0.0000000E+00   0.0000000E+00   0.0000000E+00   0.0000000E+00   0.0000000E+00   0.0000000E+00   0.0000000E+00   0.0000000E+00   0.0000000E+00   0.0000000E+00   0.0000000E+00   0.0000000E+00   0.0000000E+00   0.0000000E+00   0.0000000E+00   0.0000000E+00   0.0000000E+00   0.0000000E+00   0.0000000E+00   0.0000000E+00   0.0000000E+00   0.0000000E+00   0.0000000E+00   0.0000000E+00   0.0000000E+00   0.0000000E+00   0.0000000E+00   0.0000000E+00   0.0000000E+00   0.0000000E+00   0.0000000E+00   0.0000000E+00   0.0000000E+00   0.0000000E+00   0.0000000E+00   0.0000000E+00   0.0000000E+00   0.0000000E+00   0.0000000E+00   0.0000000E+00   0.0000000E+00   0.0000000E+00   0.0000000E+00   0.0000000E+00   0.0000000E+00   0.0000000E+00   0.0000000E+00   0.0000000E+00   0.0000000E+00   0.0000000E+00   0.0000000E+00   0.0000000E+00   0.0000000E+00   0.0000000E+00   0.0000000E+00   0.0000000E+00   0.0000000E+00   0.0000000E+00   0.0000000E+00   0.0000000E+00   0.0000000E+00   0.0000000E+00   0.0000000E+00   0.0000000E+00   0.0000000E+00   0.0000000E+00   0.0000000E+00   0.0000000E+00   0.0000000E+00   0.0000000E+00   0.0000000E+00   0.0000000E+00   0.0000000E+00   0.0000000E+00   0.0000000E+00   0.0000000E+00   0.0000000E+00   0.0000000E+00   0.0000000E+00   0.0000000E+00   0.0000000E+00   0.0000000E+00   0.0000000E+00   0.0000000E+00   0.0000000E+00   0.0000000E+00   0.0000000E+00   0.0000000E+00   0.0000000E+00   0.0000000E+00   0.0000000E+00   0.0000000E+00   0.0000000E+00   0.0000000E+00   0.0000000E+00   0.0000000E+00   0.0000000E+00   0.0000000E+00   0.0000000E+00   0.0000000E+00   0.0000000E+00   0.0000000E+00   0.0000000E+00   0.0000000E+00   0.0000000E+00   0.0000000E+00   0.0000000E+00   0.0000000E+00   0.0000000E+00   0.0000000E+00   0.0000000E+00   0.0000000E+00   0.0000000E+00   0.0000000E+00   0.0000000E+00   0.0000000E+00   0.0000000E+00   0.0000000E+00   0.0000000E+00   0.0000000E+00   0.0000000E+00   0.0000000E+00   0.0000000E+00   0.0000000E+00   0.0000000E+00   0.0000000E+00   0.0000000E+00   0.0000000E+00   0.0000000E+00   0.0000000E+00   0.0000000E+00   0.0000000E+00   0.0000000E+00   0.0000000E+00   0.0000000E+00   0.0000000E+00   0.0000000E+00   0.0000000E+00   0.0000000E+00   0.0000000E+00   0.0000000E+00   0.0000000E+00   0.0000000E+00   0.0000000E+00   0.0000000E+00   0.0000000E+00   0.0000000E+00   0.0000000E+00   0.0000000E+00   0.0000000E+00   0.0000000E+00   0.0000000E+00   0.0000000E+00   0.0000000E+00   0.0000000E+00   0.0000000E+00   0.0000000E+00   0.0000000E+00   0.0000000E+00   0.0000000E+00   0.0000000E+00   0.0000000E+00   0.0000000E+00   0.0000000E+00   0.0000000E+00   0.0000000E+00   0.0000000E+00   0.0000000E+00   0.0000000E+00   0.0000000E+00   0.0000000E+00   0.0000000E+00   0.0000000E+00   0.0000000E+00   0.0000000E+00   0.0000000E+00   0.0000000E+00   0.0000000E+00   0.0000000E+00   0.0000000E+00   0.0000000E+00   0.0000000E+00   0.0000000E+00   0.0000000E+00   0.0000000E+00   0.0000000E+00   0.0000000E+00   0.0000000E+00   0.0000000E+00   0.0000000E+00   0.0000000E+00   0.0000000E+00   0.0000000E+00   0.0000000E+00   0.0000000E+00   0.0000000E+00   0.0000000E+00   0.0000000E+00   0.0000000E+00   0.0000000E+00   0.0000000E+00   0.0000000E+00   0.0000000E+00   0.0000000E+00   0.0000000E+00   0.0000000E+00   0.0000000E+00   0.0000000E+00   0.0000000E+00   0.0000000E+00   0.0000000E+00   0.0000000E+00   0.0000000E+00   0.0000000E+00   0.0000000E+00   0.0000000E+00   0.0000000E+00   0.0000000E+00   0.0000000E+00   0.0000000E+00   0.0000000E+00   0.0000000E+00   0.0000000E+00   0.0000000E+00   0.0000000E+00   0.0000000E+00   0.0000000E+00   0.0000000E+00   0.0000000E+00   0.0000000E+00   0.0000000E+00   0.0000000E+00   0.0000000E+00   0.0000000E+00   0.0000000E+00   0.0000000E+00   0.0000000E+00   0.0000000E+00   0.0000000E+00   0.0000000E+00   0.0000000E+00   0.0000000E+00   0.0000000E+00   0.0000000E+00   0.0000000E+00   0.0000000E+00   0.0000000E+00   0.0000000E+00   0.0000000E+00   0.0000000E+00   0.0000000E+00   0.0000000E+00   0.0000000E+00   0.0000000E+00   0.0000000E+00   0.0000000E+00   0.0000000E+00   0.0000000E+00   0.0000000E+00   0.0000000E+00   0.0000000E+00   0.0000000E+00   0.0000000E+00   0.0000000E+00   0.0000000E+00   0.0000000E+00  -5.3020515E-02  -5.0128914E-02  -4.4803351E-02  -3.8700275E-02  -3.2122876E-02  -7.1615294E-02  -6.5636456E-02  -6.3048832E-02  -5.7400480E-02  -5.0157618E-02  -4.1901253E-02  -8.1878081E-02  -7.6847509E-02  -7.2648615E-02  -6.5705337E-02  -5.7628106E-02  -4.8222709E-02  -9.2677325E-02  -8.6041093E-02  -8.0802172E-02  -7.2579406E-02  -6.3347794E-02  -5.2834578E-02  -1.0576764E-01  -9.5207691E-02  -8.8206977E-02  -7.8466073E-02  -6.7990087E-02  -5.6324814E-02  -1.2205553E-01  -1.0527268E-01  -9.5300555E-02  -8.3577305E-02  -7.1880303E-02  -5.9160948E-02  -1.4389187E-01  -1.1742848E-01  -1.0304669E-01  -8.8557109E-02  -7.5773805E-02  -6.2011264E-02  -1.7349333E-01  -1.3404357E-01  -1.1323708E-01  -9.5235780E-02  -8.1175923E-02  -6.6347815E-02  -2.0963836E-01  -1.5658557E-01  -1.2779891E-01  -1.0712416E-01  -9.1026977E-02  -7.4665174E-02  -2.4239767E-01  -1.8400204E-01  -1.5022010E-01  -1.2711528E-01  -1.0788423E-01  -8.9839786E-02  -2.7125382E-01  -2.1381831E-01  -1.7969453E-01  -1.5586385E-01  -1.3626167E-01  -1.1470375E-01  -4.1572094E-01  -2.9215002E-01  -2.3634869E-01  -2.0218617E-01  -1.7988673E-01  -1.5273076E-01  -8.6346436E-01  -5.3855002E-01  -3.7604737E-01  -2.9286498E-01  -2.4948792E-01  -2.0974211E-01  -1.3499362E+00  -8.8718110E-01  -5.9614891E-01  -4.4076672E-01  -3.5887319E-01  -2.9184359E-01  -1.7540436E+00  -1.2305074E+00  -8.5513908E-01  -6.3557410E-01  -5.0003028E-01  -3.9781904E-01  -2.1014004E+00  -1.5434819E+00  -1.1209669E+00  -8.4638143E-01  -6.6450375E-01  -5.2517754E-01  -2.4417789E+00  -1.8402175E+00  -1.3852198E+00  -1.0723228E+00  -8.4596640E-01  -6.6916078E-01  -2.7933195E+00  -2.1436210E+00  -1.6521573E+00  -1.3098154E+00  -1.0453465E+00  -8.3114517E-01  -3.1726775E+00  -2.4628103E+00  -1.9352194E+00  -1.5637937E+00  -1.2614837E+00  -1.0067399E+00  -3.5878737E+00  -2.8135691E+00  -2.2467017E+00  -1.8422326E+00  -1.4972298E+00  -1.1972300E+00  -4.0479608E+00  -3.2066031E+00  -2.5976477E+00  -2.1517568E+00  -1.7560182E+00  -1.4046195E+00  -4.5674586E+00  -3.6597483E+00  -2.9984066E+00  -2.4969432E+00  -2.0394938E+00  -1.6280410E+00  -5.1665421E+00  -4.1927142E+00  -3.4604404E+00  -2.8804536E+00  -2.3478892E+00  -1.8720232E+00  -5.8860574E+00  -4.8289504E+00  -3.9865503E+00  -3.2988300E+00  -2.6776462E+00  -2.1379306E+00  -6.7546105E+00  -5.6058559E+00  -4.5827522E+00  -3.7494678E+00  -3.0565505E+00  -2.4309251E+00  -7.8073936E+00  -6.5482373E+00  -5.2406116E+00  -4.2248054E+00  -3.4555571E+00  -2.8157859E+00  -9.1809940E+00  -7.6938105E+00  -6.0153341E+00  -4.7320185E+00  -3.9436817E+00  -3.3211746E+00  -1.0945561E+01  -9.0473461E+00  -6.8232446E+00  -5.3596768E+00  -4.5393639E+00  -3.9715455E+00  -1.3112856E+01  -1.0629441E+01  -7.7350330E+00  -6.0915337E+00  -5.3030949E+00  -4.8444042E+00  -1.5692765E+01  -1.2462886E+01  -8.8429956E+00  -6.9691525E+00  -6.2969718E+00  -6.0035744E+00  -1.8727724E+01  -1.4547318E+01  -1.0162600E+01  -8.1725388E+00  -7.6821351E+00  -7.7369127E+00  -2.2315485E+01  -1.6797316E+01  -1.1704440E+01  -1.0053489E+01  -9.6415300E+00  -9.5233364E+00  -2.6406536E+01  -1.8933765E+01  -1.3210676E+01  -1.1375635E+01  -1.1145576E+01  -1.1299755E+01  -3.1172064E+01  -1.9574274E+01  -1.3196094E+01  -1.2682446E+01  -1.2798410E+01  -1.3395225E+01  -3.4956676E+01  -2.0307112E+01  -1.2566060E+01  -1.4123146E+01  -1.6149452E+01  -1.7155869E+01  -3.8757729E+01  -2.2223791E+01  -1.3335824E+01  -1.5980844E+01  -2.1356693E+01  -2.3969824E+01  -4.3176399E+01  -2.5122017E+01  -1.4552223E+01  -1.8896036E+01  -2.7932228E+01  -3.1400438E+01  -4.6507454E+01  -2.7090670E+01  -1.5165195E+01  -1.9061464E+01  -2.8643988E+01  -3.2538330E+01  -4.8725456E+01  -2.8477676E+01  -1.5492709E+01  -1.8502472E+01  -2.8122400E+01  -3.2568779E+01  -5.0263153E+01  -2.9742670E+01  -1.5944007E+01  -1.8208042E+01  -2.7683050E+01  -3.2204021E+01  -5.1185211E+01  -3.0431721E+01  -1.6512398E+01  -1.8355534E+01  -2.7514946E+01  -3.1724337E+01  -5.1436600E+01  -3.0365026E+01  -1.6955359E+01  -1.8743917E+01  -2.7515335E+01  -3.1229645E+01  -5.1061085E+01  -3.0068987E+01  -1.7211126E+01  -1.9035221E+01  -2.7447474E+01  -3.0634535E+01  -4.9967281E+01  -2.9429043E+01  -1.7393137E+01  -1.9027096E+01  -2.6940920E+01  -2.9841856E+01  -4.8176052E+01  -2.8607256E+01  -1.7308168E+01  -1.8700718E+01  -2.6075363E+01  -2.8775440E+01  -4.5811363E+01  -2.7404951E+01  -1.6983215E+01  -1.7790440E+01  -2.4588060E+01  -2.7407610E+01  -4.3224407E+01  -2.5981228E+01  -1.6317492E+01  -1.6668541E+01  -2.2475105E+01  -2.5777536E+01  -4.0297829E+01  -2.4743176E+01  -1.5627526E+01  -1.5656495E+01  -2.1013201E+01  -2.4006409E+01  -3.7132854E+01  -2.3164690E+01  -1.4752254E+01  -1.4877275E+01  -2.0434376E+01  -2.2200981E+01  -3.3941994E+01  -2.1371571E+01  -1.3750382E+01  -1.4617673E+01  -1.9468937E+01  -2.0499935E+01  -3.0843197E+01  -1.9754011E+01  -1.3170862E+01  -1.4627114E+01  -1.8132692E+01  -1.9019114E+01  -2.7810083E+01  -1.8651520E+01  -1.2555758E+01  -1.4050010E+01  -1.6729311E+01  -1.7519686E+01  -2.4890493E+01  -1.7121450E+01  -1.2133740E+01  -1.2951859E+01  -1.5396844E+01  -1.6173191E+01  -2.1986877E+01  -1.5740220E+01  -1.1877869E+01  -1.1858384E+01  -1.3199030E+01  -1.4673063E+01  -1.9687859E+01  -1.4961361E+01  -1.1285360E+01  -1.0587639E+01  -1.1263750E+01  -1.2477367E+01  -1.4433761E+01  -1.0648413E+01  -9.5270147E+00  -9.5475874E+00  -1.0486774E+01  -1.4267619E+01  -1.0561909E+01  -8.6738157E+00  -8.2528172E+00  -8.5319777E+00  -1.1153822E+01  -8.4351768E+00  -7.5498166E+00  -7.1581688E+00  -1.2064436E+01  -9.2664642E+00  -7.4658012E+00  -6.5932655E+00  -1.0475800E+01  -8.1924381E+00  -6.8059654E+00  -9.3686733E+00  -7.7016034E+00  -9.8072758E+00  -8.9489870E+00  -2.5891732E-02  -2.0146357E-02  -1.5327657E-02  -1.1295874E-02  -8.0555817E-03  -5.5779405E-03  -3.6417018E-03  -2.1885084E-03  -1.0192477E-03  -3.3790633E-02  -2.6395941E-02  -2.0204486E-02  -1.4905721E-02  -1.0718747E-02  -7.4481131E-03  -4.9240855E-03  -2.9890139E-03  -1.3947675E-03  -3.9061829E-02  -3.0649591E-02  -2.3409184E-02  -1.7326653E-02  -1.2487015E-02  -8.6690914E-03  -5.7444461E-03  -3.4822905E-03  -1.6333372E-03  -4.2649459E-02  -3.3450209E-02  -2.5437966E-02  -1.8803261E-02  -1.3529464E-02  -9.3275737E-03  -6.1679352E-03  -3.7074722E-03  -1.7424071E-03  -4.5170080E-02  -3.5333425E-02  -2.6653677E-02  -1.9622244E-02  -1.3949513E-02  -9.5731281E-03  -6.2941578E-03  -3.7341379E-03  -1.7517535E-03  -4.7282949E-02  -3.6772780E-02  -2.7510699E-02  -2.0132184E-02  -1.4140485E-02  -9.6208118E-03  -6.2014032E-03  -3.6645527E-03  -1.6998957E-03  -4.9561325E-02  -3.8338374E-02  -2.8630683E-02  -2.0861948E-02  -1.4488070E-02  -9.7647933E-03  -6.1942451E-03  -3.6247480E-03  -1.6465157E-03  -5.3162206E-02  -4.1153520E-02  -3.0845148E-02  -2.2364078E-02  -1.5497410E-02  -1.0388867E-02  -6.5131988E-03  -3.7812022E-03  -1.7036338E-03  -6.0002793E-02  -4.6732858E-02  -3.5339206E-02  -2.5667094E-02  -1.7840181E-02  -1.1947653E-02  -7.4628438E-03  -4.3121274E-03  -1.9353805E-03  -7.2910123E-02  -5.7268944E-02  -4.3614149E-02  -3.1907670E-02  -2.2243455E-02  -1.4909494E-02  -9.3278317E-03  -5.3770891E-03  -2.4139509E-03  -9.4617091E-02  -7.4936546E-02  -5.7259005E-02  -4.2289793E-02  -2.9435892E-02  -1.9715402E-02  -1.2367841E-02  -7.1054548E-03  -3.1992276E-03  -1.2746628E-01  -1.0117064E-01  -7.7578165E-02  -5.7295021E-02  -3.9922919E-02  -2.6659815E-02  -1.6725894E-02  -9.5658982E-03  -4.3111807E-03  -1.7367470E-01  -1.3818033E-01  -1.0528070E-01  -7.7172183E-02  -5.3743422E-02  -3.5627604E-02  -2.2346323E-02  -1.2710165E-02  -5.6969202E-03  -2.3568040E-01  -1.8533100E-01  -1.4084326E-01  -1.0212624E-01  -7.0924088E-02  -4.6500236E-02  -2.8826341E-02  -1.6325178E-02  -7.2479788E-03  -3.1570989E-01  -2.4474062E-01  -1.8380991E-01  -1.3150415E-01  -9.0559147E-02  -5.8749441E-02  -3.5758078E-02  -1.9811593E-02  -8.7705031E-03  -4.1190168E-01  -3.1530905E-01  -2.3366077E-01  -1.6470020E-01  -1.1123450E-01  -7.1162343E-02  -4.2586554E-02  -2.2952249E-02  -1.0031484E-02  -5.2216345E-01  -3.9648539E-01  -2.8975704E-01  -2.0093766E-01  -1.3301240E-01  -8.2785897E-02  -4.8668910E-02  -2.5190389E-02  -1.0761222E-02  -6.4239979E-01  -4.8293591E-01  -3.5159242E-01  -2.3909709E-01  -1.5533592E-01  -9.3178086E-02  -5.3376149E-02  -2.6099110E-02  -1.0757419E-02  -7.7694076E-01  -5.7587874E-01  -4.1279170E-01  -2.7731824E-01  -1.7732243E-01  -1.0231090E-01  -5.5117551E-02  -2.5748510E-02  -1.0059092E-02  -9.2032576E-01  -6.7580664E-01  -4.7846177E-01  -3.1355062E-01  -1.9845685E-01  -1.1120977E-01  -5.6864880E-02  -2.5180519E-02  -9.2372997E-03  -1.0749345E+00  -7.8357738E-01  -5.4984641E-01  -3.5687909E-01  -2.2362234E-01  -1.2368856E-01  -6.1877344E-02  -2.6834035E-02  -9.4993282E-03  -1.2416755E+00  -9.0468699E-01  -6.3304311E-01  -4.1456932E-01  -2.6095676E-01  -1.4743578E-01  -7.6734684E-02  -3.5475560E-02  -1.3086027E-02  -1.4252903E+00  -1.0555214E+00  -7.4125499E-01  -5.0008833E-01  -3.2540795E-01  -1.9597566E-01  -1.1256351E-01  -5.8775928E-02  -2.4423443E-02  -1.6399659E+00  -1.2431712E+00  -8.9722109E-01  -6.4207184E-01  -4.4051939E-01  -2.9079601E-01  -1.8726018E-01  -1.0996605E-01  -4.9524281E-02  -1.9201965E+00  -1.4975247E+00  -1.1382358E+00  -8.7028110E-01  -6.3921112E-01  -4.6247703E-01  -3.2291073E-01  -2.0684300E-01  -1.0007687E-01  -2.3069918E+00  -1.8723298E+00  -1.5174578E+00  -1.2133243E+00  -9.6153522E-01  -7.4439710E-01  -5.4966420E-01  -3.6563021E-01  -1.8302076E-01  -2.8244033E+00  -2.4237621E+00  -2.0648415E+00  -1.7510500E+00  -1.4627467E+00  -1.1844406E+00  -9.0283489E-01  -6.1458361E-01  -3.1134635E-01  -3.5516434E+00  -3.1904922E+00  -2.8636248E+00  -2.5436792E+00  -2.2001433E+00  -1.8218961E+00  -1.4156709E+00  -9.7247416E-01  -4.9857509E-01  -4.5341477E+00  -4.2772260E+00  -3.9955173E+00  -3.6389019E+00  -3.1937678E+00  -2.6777346E+00  -2.0815501E+00  -1.4217983E+00  -7.1969050E-01  -6.0017948E+00  -5.7826934E+00  -5.4599957E+00  -5.0281940E+00  -4.4584904E+00  -3.7363172E+00  -2.8955204E+00  -1.9710902E+00  -9.9702168E-01  -7.6764922E+00  -7.5718637E+00  -7.3178043E+00  -6.7964082E+00  -6.0594187E+00  -5.0921359E+00  -3.9505572E+00  -2.6769571E+00  -1.3368282E+00  -9.5400524E+00  -9.5631132E+00  -9.3274174E+00  -8.7936773E+00  -7.9200406E+00  -6.7056179E+00  -5.2641783E+00  -3.5999742E+00  -1.8116804E+00  -1.1588399E+01  -1.1756189E+01  -1.1665731E+01  -1.0972764E+01  -9.8431959E+00  -8.3468275E+00  -6.5632591E+00  -4.5421367E+00  -2.3279586E+00  -1.4009436E+01  -1.4526251E+01  -1.4304768E+01  -1.3468262E+01  -1.2203773E+01  -1.0396974E+01  -8.1605911E+00  -5.6489549E+00  -2.8954804E+00  -1.7972383E+01  -1.8450344E+01  -1.8302849E+01  -1.7414072E+01  -1.5674150E+01  -1.3314313E+01  -1.0462478E+01  -7.2248015E+00  -3.6976068E+00  -2.4657650E+01  -2.4767200E+01  -2.4041521E+01  -2.2197466E+01  -1.9617058E+01  -1.6449625E+01  -1.2846432E+01  -8.8432503E+00  -4.5176983E+00  -3.1558762E+01  -3.1090347E+01  -2.9358778E+01  -2.6512220E+01  -2.3052059E+01  -1.9156765E+01  -1.4882340E+01  -1.0226817E+01  -5.2220159E+00  -3.3175735E+01  -3.2949352E+01  -3.1299353E+01  -2.8424923E+01  -2.4826374E+01  -2.0711979E+01  -1.6137699E+01  -1.1111281E+01  -5.6799326E+00  -3.3727264E+01  -3.3854221E+01  -3.2409565E+01  -2.9611326E+01  -2.5985527E+01  -2.1760258E+01  -1.7003222E+01  -1.1730871E+01  -6.0037670E+00  -3.3716946E+01  -3.4123470E+01  -3.2868801E+01  -3.0173695E+01  -2.6579603E+01  -2.2327026E+01  -1.7489719E+01  -1.2088601E+01  -6.1936150E+00  -3.3385696E+01  -3.3948170E+01  -3.2822025E+01  -3.0219984E+01  -2.6687752E+01  -2.2468407E+01  -1.7634552E+01  -1.2206829E+01  -6.2599998E+00  -3.2855846E+01  -3.3449833E+01  -3.2381317E+01  -2.9849131E+01  -2.6393108E+01  -2.2250229E+01  -1.7486078E+01  -1.2116989E+01  -6.2182422E+00  -3.2137268E+01  -3.2678646E+01  -3.1614950E+01  -2.9135237E+01  -2.5766256E+01  -2.1733229E+01  -1.7091686E+01  -1.1851457E+01  -6.0846376E+00  -3.1186531E+01  -3.1632633E+01  -3.0549046E+01  -2.8119555E+01  -2.4852747E+01  -2.0960056E+01  -1.6486658E+01  -1.1435214E+01  -5.8723226E+00  -2.9958944E+01  -3.0299129E+01  -2.9194937E+01  -2.6827299E+01  -2.3683432E+01  -1.9961388E+01  -1.5697536E+01  -1.0887713E+01  -5.5914693E+00  -2.8442041E+01  -2.8683842E+01  -2.7571648E+01  -2.5284685E+01  -2.2287088E+01  -1.8765022E+01  -1.4747903E+01  -1.0226200E+01  -5.2512484E+00  -2.6673805E+01  -2.6808701E+01  -2.5698431E+01  -2.3515400E+01  -2.0690538E+01  -1.7399582E+01  -1.3663023E+01  -9.4686880E+00  -4.8601813E+00  -2.4738596E+01  -2.4755880E+01  -2.3655020E+01  -2.1594593E+01  -1.8963587E+01  -1.5924922E+01  -1.2485509E+01  -8.6402559E+00  -4.4318399E+00  -2.2786797E+01  -2.2661285E+01  -2.1581764E+01  -1.9649355E+01  -1.7204824E+01  -1.4410933E+01  -1.1271202E+01  -7.7833395E+00  -3.9858835E+00  -2.0929707E+01  -2.0699663E+01  -1.9599957E+01  -1.7764185E+01  -1.5490068E+01  -1.2920047E+01  -1.0082103E+01  -6.9481173E+00  -3.5498490E+00  -1.9281683E+01  -1.8950968E+01  -1.7830633E+01  -1.6091064E+01  -1.3989266E+01  -1.1646068E+01  -9.0328569E+00  -6.1946392E+00  -3.1555657E+00  -1.7689569E+01  -1.7318752E+01  -1.6230902E+01  -1.4582739E+01  -1.2588526E+01  -1.0383026E+01  -8.0087471E+00  -5.4564986E+00  -2.7669683E+00  -1.6219290E+01  -1.5742406E+01  -1.4748746E+01  -1.3190719E+01  -1.1309648E+01  -9.2482452E+00  -7.0698819E+00  -4.7837033E+00  -2.4118142E+00  -1.4782124E+01  -1.4245017E+01  -1.3275922E+01  -1.1885581E+01  -1.0157774E+01  -8.2561512E+00  -6.2405157E+00  -4.1793160E+00  -2.0937214E+00  -1.3061835E+01  -1.2805421E+01  -1.1932702E+01  -1.0664176E+01  -9.1129246E+00  -7.3799944E+00  -5.5727878E+00  -3.7172797E+00  -1.8533578E+00  -1.1133446E+01  -1.1182051E+01  -1.0605578E+01  -9.5569048E+00  -8.2105227E+00  -6.6456919E+00  -5.0035453E+00  -3.3234601E+00  -1.6491406E+00  -9.2455711E+00  -9.5175552E+00  -9.1769123E+00  -8.4142408E+00  -7.2923484E+00  -5.9710984E+00  -4.4816151E+00  -2.9597373E+00  -1.4630829E+00  -7.4273872E+00  -7.7917180E+00  -7.7476401E+00  -7.2104421E+00  -6.3658814E+00  -5.2282805E+00  -3.9726825E+00  -2.6283216E+00  -1.3030462E+00  -6.1408887E+00  -6.2194858E+00  -6.2953157E+00  -6.0314035E+00  -5.3796477E+00  -4.5042586E+00  -3.4375212E+00  -2.3031108E+00  -1.1577970E+00  -5.8923635E+00  -5.1499882E+00  -5.0237179E+00  -4.8443890E+00  -4.4618845E+00  -3.7647228E+00  -2.9126544E+00  -1.9825711E+00  -1.0024110E+00  -6.3192825E+00  -5.2262988E+00  -4.2288389E+00  -3.9244144E+00  -3.5825591E+00  -3.1304147E+00  -2.4516780E+00  -1.6697820E+00  -8.3822012E-01  -7.2349243E+00  -6.0182219E+00  -4.6854930E+00  -3.6813321E+00  -3.1768975E+00  -2.6686671E+00  -2.1081190E+00  -1.4829073E+00  -7.7121860E-01  -7.8772755E+00  -6.7090650E+00  -5.8325372E+00  -4.7418332E+00  -4.0084925E+00  -3.2206693E+00  -2.3251870E+00  -1.5393755E+00  -7.5896049E-01  -7.1067843E+00  -6.3485708E+00  -5.9470735E+00  -5.6222658E+00  -4.7570620E+00  -3.4628305E+00  -2.1582427E+00  -1.0219256E+00  -6.0363417E+00  -6.0167222E+00  -5.6400394E+00  -4.0630937E+00  -2.4665303E+00  -1.1465052E+00  -5.6815853E+00  -4.9278750E+00  -2.9439659E+00  -1.3400016E+00  -6.4332141E-08   1.0192656E-03   2.1885345E-03   3.6417209E-03   5.5779116E-03   8.0555705E-03   1.1295879E-02   1.5327644E-02  -9.4992870E-08   1.3946611E-03   2.9890153E-03   4.9240948E-03   7.4481075E-03   1.0718723E-02   1.4905656E-02   2.0204447E-02   3.0008664E-08   1.6333793E-03   3.4822882E-03   5.7444628E-03   8.6690970E-03   1.2487078E-02   1.7326484E-02   2.3409227E-02   7.5608142E-08   1.7424665E-03   3.7074815E-03   6.1678849E-03   9.3275644E-03   1.3529416E-02   1.8803272E-02   2.5437739E-02   1.1828058E-07   1.7519863E-03   3.7343223E-03   6.2941890E-03   9.5730349E-03   1.3949522E-02   1.9621998E-02   2.6653832E-02   5.7412080E-08   1.6996171E-03   3.6642819E-03   6.2012486E-03   9.6207950E-03   1.4140351E-02   2.0132303E-02   2.7510546E-02  -3.7363043E-07   1.6468158E-03   3.6244311E-03   6.1941110E-03   9.7648511E-03   1.4488071E-02   2.0861721E-02   2.8630124E-02   7.2848025E-08   1.7037247E-03   3.7808153E-03   6.5132594E-03   1.0388932E-02   1.5497288E-02   2.2364216E-02   3.0844638E-02  -7.4816342E-07   1.9357458E-03   4.3120706E-03   7.4628033E-03   1.1947569E-02   1.7840089E-02   2.5667185E-02   3.5339616E-02  -2.2370841E-07   2.4141173E-03   5.3766407E-03   9.3279555E-03   1.4909290E-02   2.2243220E-02   3.1908043E-02   4.3614082E-02  -8.0586528E-07   3.1987503E-03   7.1055363E-03   1.2367475E-02   1.9715374E-02   2.9436171E-02   4.2290010E-02   5.7259493E-02  -4.1596127E-07   4.3109092E-03   9.5651178E-03   1.6725762E-02   2.6659880E-02   3.9923325E-02   5.7295352E-02   7.7578217E-02  -9.2288178E-07   5.6964383E-03   1.2709760E-02   2.2347080E-02   3.5627943E-02   5.3744093E-02   7.7172332E-02   1.0528015E-01   5.9877721E-07   7.2492990E-03   1.6325388E-02   2.8826457E-02   4.6499941E-02   7.0924163E-02   1.0212686E-01   1.4084275E-01   2.7466208E-06   8.7690158E-03   1.9810198E-02   3.5758127E-02   5.8749616E-02   9.0558574E-02   1.3150580E-01   1.8381044E-01   1.4696266E-06   1.0030705E-02   2.2952113E-02   4.2587921E-02   7.1162701E-02   1.1123488E-01   1.6470084E-01   2.3366278E-01  -1.6902004E-07   1.0765497E-02   2.5190528E-02   4.8668373E-02   8.2786322E-02   1.3301198E-01   2.0094015E-01   2.8975624E-01  -1.0108351E-07   1.0751833E-02   2.6099663E-02   5.3376477E-02   9.3178116E-02   1.5533568E-01   2.3909879E-01   3.5159397E-01   1.1853854E-06   1.0061346E-02   2.5750188E-02   5.5118822E-02   1.0231192E-01   1.7732310E-01   2.7731761E-01   4.1279247E-01   4.2901602E-06   9.2374524E-03   2.5180675E-02   5.6863643E-02   1.1121062E-01   1.9845599E-01   3.1354761E-01   4.7846320E-01  -2.7675342E-06   9.5025105E-03   2.6836526E-02   6.1876241E-02   1.2368996E-01   2.2362429E-01   3.5687527E-01   5.4985070E-01  -6.1037144E-06   1.3087949E-02   3.5473395E-02   7.6735161E-02   1.4743468E-01   2.6095834E-01   4.1456559E-01   6.3304436E-01   3.6815127E-06   2.4415426E-02   5.8785323E-02   1.1256422E-01   1.9597593E-01   3.2540777E-01   5.0009257E-01   7.4125385E-01   1.4906955E-06   4.9525388E-02   1.0996235E-01   1.8725759E-01   2.9079604E-01   4.4052005E-01   6.4206767E-01   8.9722002E-01  -2.0576508E-06   1.0006808E-01   2.0684052E-01   3.2291478E-01   4.6247715E-01   6.3920712E-01   8.7028414E-01   1.1382388E+00   2.4866290E-06   1.8301849E-01   3.6562896E-01   5.4966784E-01   7.4439871E-01   9.6153462E-01   1.2133193E+00   1.5174394E+00  -4.9277887E-06   3.1135657E-01   6.1457735E-01   9.0283251E-01   1.1844419E+00   1.4627424E+00   1.7510527E+00   2.0648406E+00   1.2387049E-05   4.9857920E-01   9.7247976E-01   1.4156699E+00   1.8218981E+00   2.2001438E+00   2.5436800E+00   2.8636236E+00   1.0879639E-05   7.1968478E-01   1.4218140E+00   2.0815542E+00   2.6777349E+00   3.1937704E+00   3.6389079E+00   3.9955170E+00   1.4578422E-05   9.9702960E-01   1.9710940E+00   2.8955224E+00   3.7363157E+00   4.4584870E+00   5.0281954E+00   5.4600015E+00  -8.7648368E-06   1.3368149E+00   2.6769567E+00   3.9505563E+00   5.0921392E+00   6.0594144E+00   6.7964144E+00   7.3178124E+00   4.7662179E-06   1.8116767E+00   3.5999920E+00   5.2641740E+00   6.7056227E+00   7.9200411E+00   8.7936792E+00   9.3274183E+00  -1.6700185E-05   2.3279519E+00   4.5421381E+00   6.5632539E+00   8.3468361E+00   9.8431950E+00   1.0972754E+01   1.1665719E+01  -1.9895902E-05   2.8954258E+00   5.6489563E+00   8.1605682E+00   1.0396971E+01   1.2203779E+01   1.3468258E+01   1.4304790E+01  -1.0709628E-05   3.6975944E+00   7.2247915E+00   1.0462495E+01   1.3314323E+01   1.5674137E+01   1.7414082E+01   1.8302811E+01   1.0449439E-06   4.5176978E+00   8.8431969E+00   1.2846422E+01   1.6449631E+01   1.9617054E+01   2.2197489E+01   2.4041529E+01   4.6486384E-06   5.2220297E+00   1.0226808E+01   1.4882323E+01   1.9156750E+01   2.3052101E+01   2.6512251E+01   2.9358686E+01   3.6469079E-05   5.6799488E+00   1.1111320E+01   1.6137678E+01   2.0712006E+01   2.4826324E+01   2.8424955E+01   3.1299372E+01  -2.2291730E-05   6.0037503E+00   1.1730880E+01   1.7003204E+01   2.1760258E+01   2.5985525E+01   2.9611343E+01   3.2409534E+01   1.8674706E-05   6.1936555E+00   1.2088630E+01   1.7489693E+01   2.2327021E+01   2.6579601E+01   3.0173685E+01   3.2868805E+01  -2.9108254E-05   6.2599678E+00   1.2206815E+01   1.7634550E+01   2.2468409E+01   2.6687752E+01   3.0220005E+01   3.2822021E+01  -3.0133640E-05   6.2182217E+00   1.2117009E+01   1.7486076E+01   2.2250210E+01   2.6393105E+01   2.9849079E+01   3.2381325E+01   2.0407198E-05   6.0846820E+00   1.1851448E+01   1.7091690E+01   2.1733225E+01   2.5766235E+01   2.9135248E+01   3.1614901E+01   1.2520468E-07   5.8722677E+00   1.1435177E+01   1.6486681E+01   2.0960077E+01   2.4852747E+01   2.8119549E+01   3.0549028E+01  -1.2312084E-05   5.5914860E+00   1.0887712E+01   1.5697534E+01   1.9961386E+01   2.3683472E+01   2.6827271E+01   2.9194925E+01   4.4764602E-06   5.2512932E+00   1.0226193E+01   1.4747902E+01   1.8765022E+01   2.2287094E+01   2.5284691E+01   2.7571642E+01   2.0210282E-06   4.8602028E+00   9.4687023E+00   1.3663029E+01   1.7399574E+01   2.0690546E+01   2.3515388E+01   2.5698446E+01   1.8913415E-05   4.4318419E+00   8.6402636E+00   1.2485506E+01   1.5924941E+01   1.8963554E+01   2.1594580E+01   2.3655027E+01   3.4620811E-05   3.9858618E+00   7.7833109E+00   1.1271177E+01   1.4410953E+01   1.7204807E+01   1.9649345E+01   2.1581820E+01   1.5340571E-05   3.5498157E+00   6.9481149E+00   1.0082104E+01   1.2920064E+01   1.5490050E+01   1.7764193E+01   1.9599968E+01   6.0200720E-05   3.1555512E+00   6.1946545E+00   9.0328541E+00   1.1646079E+01   1.3989275E+01   1.6091059E+01   1.7830667E+01   1.3508223E-05   2.7669516E+00   5.4565234E+00   8.0087461E+00   1.0383030E+01   1.2588528E+01   1.4582733E+01   1.6230906E+01  -4.8195070E-06   2.4118264E+00   4.7837029E+00   7.0698805E+00   9.2482300E+00   1.1309659E+01   1.3190733E+01   1.4748754E+01  -1.4734396E-06   2.0936997E+00   4.1793222E+00   6.2405353E+00   8.2561474E+00   1.0157780E+01   1.1885562E+01   1.3275915E+01   6.9559319E-06   1.8533585E+00   3.7172828E+00   5.5727839E+00   7.3799877E+00   9.1129255E+00   1.0664178E+01   1.1932692E+01   7.0952956E-06   1.6491288E+00   3.3234608E+00   5.0035429E+00   6.6456943E+00   8.2105141E+00   9.5569143E+00   1.0605573E+01   6.1468745E-06   1.4630718E+00   2.9597440E+00   4.4816098E+00   5.9710908E+00   7.2923546E+00   8.4142466E+00   9.1769133E+00  -2.6575581E-06   1.3030394E+00   2.6283298E+00   3.9726751E+00   5.2282786E+00   6.3658810E+00   7.2104454E+00   7.7476373E+00   4.3358013E-06   1.1577951E+00   2.3031187E+00   3.4375281E+00   4.5042558E+00   5.3796463E+00   6.0314040E+00   6.2953181E+00  -1.0491640E-06   1.0024291E+00   1.9825683E+00   2.9126608E+00   3.7647204E+00   4.4618840E+00   4.8443918E+00   5.0237331E+00  -2.5298505E-08   8.3822018E-01   1.6697769E+00   2.4516833E+00   3.1304128E+00   3.5825586E+00   3.9244065E+00   4.2288332E+00  -3.3476026E-06   7.7121913E-01   1.4829077E+00   2.1081216E+00   2.6686678E+00   3.1769023E+00   3.6813331E+00   4.6854963E+00  -1.9824365E-06   7.5896722E-01   1.5393753E+00   2.3251934E+00   3.2206671E+00   4.0084934E+00   4.7418346E+00   5.8325295E+00  -1.2596138E-07   1.0219240E+00   2.1582410E+00   3.4628308E+00   4.7570629E+00   5.6222715E+00   5.9470806E+00   6.3485656E+00   1.8367427E-06   1.1465015E+00   2.4665310E+00   4.0630937E+00   5.6400409E+00   6.0167198E+00   6.0363517E+00  -6.9336966E-07   1.3400034E+00   2.9439647E+00   4.9278746E+00   5.6815825E+00   2.0146282E-02   2.5891729E-02   3.2122839E-02   3.8700294E-02   4.4803351E-02   5.0128959E-02   5.3020559E-02   2.6395801E-02   3.3790492E-02   4.1901253E-02   5.0157636E-02   5.7400517E-02   6.3048869E-02   6.5636456E-02   7.1615130E-02   3.0649530E-02   3.9061952E-02   4.8222624E-02   5.7628036E-02   6.5705337E-02   7.2648719E-02   7.6847643E-02   8.1878036E-02   3.3450261E-02   4.2649470E-02   5.2834570E-02   6.3347839E-02   7.2579376E-02   8.0802128E-02   8.6041003E-02   9.2677295E-02   3.5333399E-02   4.5169964E-02   5.6324605E-02   6.7989975E-02   7.8465968E-02   8.8207215E-02   9.5207721E-02   1.0576770E-01   3.6772769E-02   4.7283079E-02   5.9160661E-02   7.1880266E-02   8.3577231E-02   9.5300138E-02   1.0527265E-01   1.2205571E-01   3.8338546E-02   4.9561504E-02   6.2011123E-02   7.5773790E-02   8.8556975E-02   1.0304648E-01   1.1742860E-01   1.4389163E-01   4.1153796E-02   5.3162064E-02   6.6347539E-02   8.1175715E-02   9.5235914E-02   1.1323717E-01   1.3404363E-01   1.7349315E-01   4.6732325E-02   6.0003150E-02   7.4665792E-02   9.1026880E-02   1.0712419E-01   1.2779915E-01   1.5658575E-01   2.0963812E-01   5.7268877E-02   7.2910249E-02   8.9839324E-02   1.0788401E-01   1.2711501E-01   1.5021986E-01   1.8400204E-01   2.4239790E-01   7.4936159E-02   9.4617143E-02   1.1470348E-01   1.3626195E-01   1.5586394E-01   1.7969447E-01   2.1381867E-01   2.7125430E-01   1.0117074E-01   1.2746531E-01   1.5273076E-01   1.7988624E-01   2.0218605E-01   2.3634839E-01   2.9215014E-01   4.1572142E-01   1.3817737E-01   1.7367528E-01   2.0974207E-01   2.4948770E-01   2.9286483E-01   3.7604749E-01   5.3855026E-01   8.6346376E-01   1.8533133E-01   2.3568045E-01   2.9184175E-01   3.5887289E-01   4.4076630E-01   5.9614909E-01   8.8718110E-01   1.3499360E+00   2.4473792E-01   3.1570739E-01   3.9781815E-01   5.0003064E-01   6.3557428E-01   8.5513848E-01   1.2305082E+00   1.7540435E+00   3.1530890E-01   4.1190264E-01   5.2517837E-01   6.6450387E-01   8.4638166E-01   1.1209674E+00   1.5434828E+00   2.1014009E+00   3.9648622E-01   5.2216136E-01   6.6916275E-01   8.4596592E-01   1.0723224E+00   1.3852196E+00   1.8402187E+00   2.4417787E+00   4.8293379E-01   6.4239895E-01   8.3114046E-01   1.0453466E+00   1.3098149E+00   1.6521572E+00   2.1436229E+00   2.7933202E+00   5.7587373E-01   7.7694237E-01   1.0067383E+00   1.2614832E+00   1.5637931E+00   1.9352198E+00   2.4628093E+00   3.1726773E+00   6.7580450E-01   9.2032886E-01   1.1972313E+00   1.4972289E+00   1.8422328E+00   2.2467027E+00   2.8135693E+00   3.5878730E+00   7.8356665E-01   1.0749342E+00   1.4046224E+00   1.7560202E+00   2.1517556E+00   2.5976479E+00   3.2066011E+00   4.0479593E+00   9.0468502E-01   1.2416797E+00   1.6280452E+00   2.0394955E+00   2.4969435E+00   2.9984083E+00   3.6597478E+00   4.5674558E+00   1.0555171E+00   1.4252838E+00   1.8720219E+00   2.3478894E+00   2.8804526E+00   3.4604404E+00   4.1927147E+00   5.1665406E+00   1.2431679E+00   1.6399634E+00   2.1379356E+00   2.6776488E+00   3.2988281E+00   3.9865515E+00   4.8289533E+00   5.8860602E+00   1.4975226E+00   1.9201943E+00   2.4309299E+00   3.0565512E+00   3.7494709E+00   4.5827522E+00   5.6058578E+00   6.7546091E+00   1.8723289E+00   2.3069868E+00   2.8157880E+00   3.4555573E+00   4.2248073E+00   5.2406144E+00   6.5482402E+00   7.8073883E+00   2.4237592E+00   2.8244023E+00   3.3211732E+00   3.9436853E+00   4.7320199E+00   6.0153356E+00   7.6938114E+00   9.1809988E+00   3.1904883E+00   3.5516336E+00   3.9715488E+00   4.5393672E+00   5.3596773E+00   6.8232474E+00   9.0473442E+00   1.0945560E+01   4.2772431E+00   4.5341449E+00   4.8443937E+00   5.3030939E+00   6.0915298E+00   7.7350354E+00   1.0629442E+01   1.3112857E+01   5.7827005E+00   6.0017953E+00   6.0035758E+00   6.2969637E+00   6.9691539E+00   8.8429966E+00   1.2462888E+01   1.5692765E+01   7.5718665E+00   7.6764808E+00   7.7369175E+00   7.6821384E+00   8.1725435E+00   1.0162600E+01   1.4547318E+01   1.8727722E+01   9.5631189E+00   9.5400581E+00   9.5233335E+00   9.6415367E+00   1.0053493E+01   1.1704440E+01   1.6797316E+01   2.2315481E+01   1.1756193E+01   1.1588425E+01   1.1299751E+01   1.1145557E+01   1.1375628E+01   1.3210675E+01   1.8933756E+01   2.6406528E+01   1.4526251E+01   1.4009432E+01   1.3395219E+01   1.2798429E+01   1.2682444E+01   1.3196079E+01   1.9574266E+01   3.1172077E+01   1.8450397E+01   1.7972404E+01   1.7155884E+01   1.6149481E+01   1.4123155E+01   1.2566059E+01   2.0307098E+01   3.4956665E+01   2.4767237E+01   2.4657682E+01   2.3969858E+01   2.1356674E+01   1.5980849E+01   1.3335814E+01   2.2223787E+01   3.8757725E+01   3.1090334E+01   3.1558758E+01   3.1400478E+01   2.7932261E+01   1.8896061E+01   1.4552207E+01   2.5122002E+01   4.3176392E+01   3.2949371E+01   3.3175781E+01   3.2538311E+01   2.8644011E+01   1.9061464E+01   1.5165180E+01   2.7090647E+01   4.6507454E+01   3.3854198E+01   3.3727261E+01   3.2568810E+01   2.8122408E+01   1.8502445E+01   1.5492718E+01   2.8477673E+01   4.8725456E+01   3.4123470E+01   3.3716946E+01   3.2204025E+01   2.7683064E+01   1.8208033E+01   1.5944021E+01   2.9742651E+01   5.0263126E+01   3.3948193E+01   3.3385677E+01   3.1724361E+01   2.7514944E+01   1.8355549E+01   1.6512424E+01   3.0431719E+01   5.1185223E+01   3.3449837E+01   3.2855858E+01   3.1229658E+01   2.7515348E+01   1.8743931E+01   1.6955353E+01   3.0365021E+01   5.1436588E+01   3.2678665E+01   3.2137257E+01   3.0634529E+01   2.7447474E+01   1.9035229E+01   1.7211128E+01   3.0068979E+01   5.1061085E+01   3.1632610E+01   3.1186502E+01   2.9841848E+01   2.6940914E+01   1.9027098E+01   1.7393139E+01   2.9429054E+01   4.9967258E+01   3.0299170E+01   2.9958967E+01   2.8775440E+01   2.6075361E+01   1.8700710E+01   1.7308178E+01   2.8607265E+01   4.8176052E+01   2.8683853E+01   2.8442070E+01   2.7407595E+01   2.4588045E+01   1.7790442E+01   1.6983240E+01   2.7404949E+01   4.5811375E+01   2.6808716E+01   2.6673832E+01   2.5777542E+01   2.2475101E+01   1.6668539E+01   1.6317490E+01   2.5981222E+01   4.3224407E+01   2.4755863E+01   2.4738594E+01   2.4006401E+01   2.1013184E+01   1.5656465E+01   1.5627536E+01   2.4743174E+01   4.0297848E+01   2.2661283E+01   2.2786774E+01   2.2200979E+01   2.0434345E+01   1.4877260E+01   1.4752257E+01   2.3164713E+01   3.7132854E+01   2.0699684E+01   2.0929737E+01   2.0499926E+01   1.9468927E+01   1.4617668E+01   1.3750385E+01   2.1371574E+01   3.3942001E+01   1.8950977E+01   1.9281685E+01   1.9019114E+01   1.8132692E+01   1.4627116E+01   1.3170877E+01   1.9754005E+01   3.0843208E+01   1.7318743E+01   1.7689585E+01   1.7519674E+01   1.6729309E+01   1.4050001E+01   1.2555753E+01   1.8651510E+01   2.7810062E+01   1.5742432E+01   1.6219288E+01   1.6173195E+01   1.5396846E+01   1.2951852E+01   1.2133755E+01   1.7121441E+01   2.4890495E+01   1.4245034E+01   1.4782135E+01   1.4673057E+01   1.3199025E+01   1.1858381E+01   1.1877891E+01   1.5740234E+01   2.1986870E+01   1.2805416E+01   1.3061849E+01   1.2477375E+01   1.1263751E+01   1.0587629E+01   1.1285349E+01   1.4961359E+01   1.9687864E+01   1.1182063E+01   1.1133433E+01   1.0486789E+01   9.5475912E+00   9.5270138E+00   1.0648401E+01   1.4433763E+01   9.5175505E+00   9.2455664E+00   8.5319605E+00   8.2528219E+00   8.6738110E+00   1.0561905E+01   1.4267611E+01   7.7917171E+00   7.4273863E+00   7.1581602E+00   7.5498338E+00   8.4351788E+00   1.1153820E+01   6.2195010E+00   6.1408920E+00   6.5932722E+00   7.4657998E+00   9.2664576E+00   1.2064432E+01   5.1500068E+00   5.8923755E+00   6.8059678E+00   8.1924486E+00   1.0475801E+01   5.2263031E+00   6.3192797E+00   7.7016063E+00   9.3686905E+00   6.0182223E+00   7.2349243E+00   8.9489717E+00   9.8072748E+00   6.7090664E+00   7.8772755E+00   7.1067824E+00 
CellOffSpring 1 2975 float
0 0 0 0 0 0 0 0 0 0 0 0 0 0 0 0 0 0 0 0 0 0 0 0 0 0 0 0 0 0 0 0 0 0 0 0 0 0 0 0 0 0 0 0 0 0 0 0 0 0 0 0 0 0 0 0 0 0 0 0 0 0 0 0 0 0 0 0 0 0 0 0 0 0 0 0 0 0 0 0 0 0 0 0 0 0 0 0 0 0 0 0 0 0 0 0 0 0 0 0 0 0 0 0 0 0 0 0 0 0 0 0 0 0 0 0 0 0 0 0 0 0 0 0 0 0 0 0 0 0 0 0 0 0 0 0 0 0 0 0 0 0 0 0 0 0 0 0 0 0 0 0 0 0 0 0 0 0 0 0 0 0 0 0 0 0 0 0 0 0 0 0 0 0 0 0 0 0 0 0 0 0 0 0 0 0 0 0 0 0 0 0 0 0 0 0 0 0 0 0 0 0 0 0 0 0 0 0 0 0 0 0 0 0 0 0 0 0 0 0 0 0 0 0 0 0 0 0 0 0 0 0 0 0 0 0 0 0 0 0 0 0 0 0 0 0 0 0 0 0 0 0 0 0 0 0 0 0 0 0 0 0 0 0 0 0 0 0 0 0 0 0 0 0 0 0 0 0 0 0 0 0 0 0 0 0 0 0 0 0 0 0 0 0 0 0 0 0 0 0 0 0 0 0 0 0 0 0 0 0 0 0 0 0 0 0 0 0 0 0 0 0 0 0 0 0 0 0 0 0 0 0 0 0 0 0 0 0 0 0 0 0 0 0 0 0 0 0 0 0 0 0 0 0 0 0 0 0 0 0 0 0 0 0 0 0 0 0 0 0 0 0 0 0 0 0 0 0 0 0 0 0 0 0 0 0 0 0 0 0 0 0 0 0 0 0 0 0 0 0 0 0 0 0 0 0 0 0 0 0 0 0 0 0 0 0 0 0 0 0 0 0 0 0 0 0 0 0 0 0 0 0 0 0 0 0 0 0 0 0 0 0 0 0 0 0 0 0 0 0 0 0 0 0 0 0 0 0 0 0 0 0 0 0 0 0 0 0 0 0 0 0 0 0 0 0 0 0 0 0 0 0 0 0 0 0 0 0 0 0 0 0 0 0 0 0 0 0 0 0 0 0 0 0 0 0 0 0 0 0 0 0 0 0 0 0 0 0 0 0 0 0 0 0 0 0 0 0 0 0 0 0 0 0 0 0 0 0 0 0 0 0 0 0 0 0 0 0 0 0 0 0 0 0 0 0 0 0 0 0 0 0 0 0 0 0 0 0 0 0 0 0 0 0 0 0 0 0 0 0 0 0 0 0 0 0 0 0 0 0 0 0 0 0 0 0 0 0 0 0 0 0 0 0 0 0 0 0 0 0 0 0 0 0 0 0 0 0 0 0 0 0 0 0 0 0 0 0 0 0 0 0 0 0 0 0 0 0 0 0 0 0 0 0 0 0 0 0 0 0 0 0 0 0 0 0 0 0 0 0 0 0 0 0 0 0 0 0 0 0 0 0 0 0 0 0 0 0 0 0 0 0 0 0 0 0 0 0 0 0 0 0 0 0 0 0 0 0 0 0 0 0 0 0 0 0 0 0 0 0 0 0 0 0 0 0 0 0 0 0 0 0 0 0 0 0 0 0 0 0 0 0 0 0 0 0 0 0 0 0 0 0 0 0 0 0 0 0 0 0 0 0 0 0 0 0 0 0 0 0 0 0 0 0 0 0 0 0 0 0 0 0 0 0 0 0 0 0 0 0 0 0 0 0 0 0 0 0 0 0 0 0 0 0 0 0 0 0 0 0 0 0 0 0 0 0 0 0 0 0 0 0 0 0 0 0 0 0 0 0 0 0 0 0 0 0 0 0 0 0 0 0 0 0 0 0 0 0 0 0 0 0 0 0 0 0 0 0 0 0 0 0 0 0 0 0 0 0 0 0 0 0 0 0 0 0 0 0 0 0 0 0 0 0 0 0 0 0 0 0 0 0 0 0 0 0 0 0 0 0 0 0 0 0 0 0 0 0 0 0 0 0 0 0 0 0 0 0 0 0 0 0 0 0 0 0 0 0 0 0 0 0 0 0 0 0 0 0 0 0 0 0 0 0 0 0 0 0 0 0 0 0 0 0 0 0 0 0 0 0 0 0 0 0 0 0 0 0 0 0 0 0 0 0 0 0 0 0 0 0 0 0 0 0 0 0 0 0 0 0 0 0 0 0 0 0 0 0 0 0 0 0 0 0 0 0 0 0 0 0 0 0 0 0 0 0 0 0 0 0 0 0 0 0 0 0 0 0 0 0 0 0 0 0 0 0 0 0 0 0 0 0 0 0 0 0 0 0 0 0 0 0 0 0 0 0 0 0 0 0 0 0 0 0 0 0 0 0 0 0 0 0 0 0 0 0 0 0 0 0 0 0 0 0 0 0 0 0 0 0 0 0 0 0 0 0 0 0 0 0 0 0 0 0 0 0 0 0 0 0 0 0 0 0 0 0 0 0 0 0 0 0 0 0 0 0 0 0 0 0 0 0 0 0 0 0 0 0 0 0 0 0 0 0 0 0 0 0 0 0 0 0 0 0 0 0 0 0 0 0 0 0 0 0 0 0 0 0 0 0 0 0 0 0 0 0 0 0 0 0 0 0 0 0 0 0 0 0 0 0 0 0 0 0 0 0 0 0 0 0 0 0 0 0 0 0 0 0 0 0 0 0 0 0 0 0 0 0 0 0 0 0 0 0 0 0 0 0 0 0 0 0 0 0 0 0 0 0 0 0 0 0 0 0 0 0 0 0 0 0 0 0 0 0 0 0 0 0 0 0 0 0 0 0 0 0 0 0 0 0 0 0 0 0 0 0 0 0 0 0 0 0 0 0 0 0 0 0 0 0 0 0 0 0 0 0 0 0 0 0 0 0 0 0 0 0 0 0 0 0 0 0 0 0 0 0 0 0 0 0 0 0 0 0 0 0 0 0 0 0 0 0 0 0 0 0 0 0 0 0 0 0 0 0 0 0 0 0 0 0 0 0 0 0 0 0 0 0 0 0 0 0 0 0 0 0 0 0 0 0 0 0 0 0 0 0 0 0 0 0 0 0 0 0 0 0 0 0 0 0 0 0 0 0 0 0 0 0 0 0 0 0 0 0 0 0 0 0 0 0 0 0 0 0 0 0 0 0 0 0 0 0 0 0 0 0 0 0 0 0 0 0 0 0 0 0 0 0 0 0 0 0 0 0 0 0 0 0 0 0 0 0 0 0 0 0 0 0 0 0 0 0 0 0 0 0 0 0 0 0 0 0 0 0 0 0 0 0 0 0 0 0 0 0 0 0 0 0 0 0 0 0 0 0 0 0 0 0 0 0 0 0 0 0 0 0 0 0 0 0 0 0 0 0 0 0 0 0 0 0 0 0 0 0 0 0 0 0 0 0 0 0 0 0 0 0 0 0 0 0 0 0 0 0 0 0 0 0 0 0 0 0 0 0 0 0 0 0 0 0 0 0 0 0 0 0 0 0 0 0 0 0 0 0 0 0 0 0 0 0 0 0 0 0 0 0 0 0 0 0 0 0 0 0 0 0 0 0 0 0 0 0 0 0 0 0 0 0 0 0 0 0 0 0 0 0 0 0 0 0 0 0 0 0 0 0 0 0 0 0 0 0 0 0 0 0 0 0 0 0 0 0 0 0 0 0 0 0 0 0 0 0 0 0 0 0 0 0 0 0 0 0 0 0 0 0 0 0 0 0 0 0 0 0 0 0 0 0 0 0 0 0 0 0 0 0 0 0 0 0 0 0 0 0 0 0 0 0 0 0 0 0 0 0 0 0 0 0 0 0 0 0 0 0 0 0 0 0 0 0 0 0 0 0 0 0 0 0 0 0 0 0 0 0 0 0 0 0 0 0 0 0 0 0 0 0 0 0 0 0 0 0 0 0 0 0 0 0 0 0 0 0 0 0 0 0 0 0 0 0 0 0 0 0 0 0 0 0 0 0 0 0 0 0 0 0 0 0 0 0 0 0 0 0 0 0 0 0 0 0 0 0 0 0 0 0 0 0 0 0 0 0 0 0 0 0 0 0 0 0 0 0 0 0 0 0 0 0 0 0 0 0 0 0 0 0 0 0 0 0 0 0 0 0 0 0 0 0 0 0 0 0 0 0 0 0 0 0 0 0 0 0 0 0 0 0 0 0 0 0 0 0 0 0 0 0 0 0 0 0 0 0 0 0 0 0 0 0 0 0 0 0 0 0 0 0 0 0 0 0 0 0 0 0 0 0 0 0 0 0 0 0 0 0 0 0 0 0 0 0 0 0 0 0 0 0 0 0 0 0 0 0 0 0 0 0 0 0 0 0 0 0 0 0 0 0 0 0 0 0 0 0 0 0 0 0 0 0 0 0 0 0 0 0 0 0 0 0 0 0 0 0 0 0 0 0 0 0 0 0 0 0 0 0 0 0 0 0 0 0 0 0 0 0 0 0 0 0 0 0 0 0 0 0 0 0 0 0 0 0 0 0 0 0 0 0 0 0 0 0 0 0 0 0 0 0 0 0 0 0 0 0 0 0 0 0 0 0 0 0 0 0 0 0 0 0 0 0 0 0 0 0 0 0 0 0 0 0 0 0 0 0 0 0 0 0 0 0 0 0 0 0 0 0 0 0 0 0 0 0 0 0 0 0 0 0 0 0 0 0 0 0 0 0 0 0 0 0 0 0 0 0 0 0 0 0 0 0 0 0 0 0 0 0 0 0 0 0 0 0 0 0 0 0 0 0 0 0 0 0 0 0 0 0 0 0 0 0 0 0 0 0 0 0 0 0 0 0 0 0 0 0 0 0 0 0 0 0 0 0 0 0 0 0 0 0 0 0 0 0 0 0 0 0 0 0 0 0 0 0 0 0 0 0 0 0 0 0 0 0 0 0 0 0 0 0 0 0 0 0 0 0 0 0 0 0 0 0 0 0 0 0 0 0 0 0 0 0 0 0 0 0 0 0 0 0 0 0 0 0 0 0 0 0 0 0 0 0 0 0 0 0 0 0 0 0 0 0 0 0 0 0 0 0 0 0 0 0 0 0 0 0 0 0 0 0 0 0 0 0 0 0 0 0 0 0 0 0 0 0 0 0 0 0 0 0 0 0 0 0 0 0 0 0 0 0 0 0 0 0 0 0 0 0 0 0 0 0 0 0 0 0 0 0 0 0 0 0 0 0 0 0 0 0 0 0 0 0 0 0 0 0 0 0 0 0 0 0 0 0 0 0 0 0 0 0 0 0 0 0 0 0 0 0 0 0 0 0 0 0 0 0 0 0 0 0 0 0 0 0 0 0 0 0 0 0 0 0 0 0 0 0 0 0 0 0 0 0 0 0 0 0 0 0 0 0 0 0 0 0 0 0 0 0 0 0 0 0 0 0 0 0 0 0 0 0 0 0 0 0 0 0 0 0 0 0 0 0 0 0 0 0 0 0 0 0 0 0 0 0 0 0 0 0 0 0 0 0 0 0 0 0 0 0 0 0 0 0 0 0 0 0 0 0 0 0 0 0 0 0 0 0 0 0 0 0 0 0 0 0 0 0 0 0 0 0 0 0 0 0 0 0 0 0 0 0 0 0 0 0 0 0 0 0 0 0 0 0 0 0 0 0 0 0 0 0 0 0 0 0 0 0 0 0 0 0 0 0 0 0 0 0 0 0 0 0 0 0 0 0 0 0 0 0 0 0 0 0 0 0 0 0 0 0 0 0 0 0 0 0 0 0 0 0 0 0 0 0 0 0 0 0 0 0 0 0 0 0 0 0 0 0 0 0 0 0 0 0 0 0 0 0 0 0 0 0 0 0 0 0 0 0 0 0 0 0 0 0 0 0 0 0 0 0 0 0 0 0 0 0 0 0 0 0 0 0 0 0 0 0 0 0 0 0 0 0 0 0 0 0 0 0 0 0 0 0 0 0 0 0 0 0 0 0 0 0 0 0 0 0 0 0 0 0 0 0 0 0 0 0 0 0 0 0 0 0 0 0 0 0 0 0 0 0 0 0 0 0 0 0 0 0 0 0 0 0 0 0 0 0 0 0 0 0 0 0 0 0 0 0 0 0 0 0 0 0 0 0 0 0 0 0 0 0 0 0 0 0 0 0 0 0 0 0 0 0 0 0 0 0 0 0 0 0 0 0 0 0 0 0 0 0 0 0 0 0 0 0 0 0 0 0 0 0 0 0 0 0 0 0 0 0 0 0 0 0 0 0 0 0 0 0 0 0 0 0 0 0 0 0 0 0 0 0 0 0 0 0 0 0 0 0 0 0 0 0 0 0 0 0 0 0 0 0 0 0 0 0 0 0 0 0 0 0 0 0 0 0 0 0 0 0 0 0 0 0 0 0 0 0 0 0 0 0 0 0 0 0 0 0 0 0 0 0 0 0 0 0 0 0 0 0 0 0 0 0 0 0 0 0 0 0 0 0 0 0 0 0 0 0 0 0 0 0 0 0 0 0 0 0 0 0 0 0 0 0 0 0 0 0 0 0 0 0 0 0 0 0 0 0 0 0 0 0 0 0 0 0 0 0 0 0 0 0 0 0 0 0 0 0 0 0 0 0 0 0 0 0 0 0 0 0 0 0 0 0 0 0 0 0 0 0 0 0 0 0 0 0 0 0 0 0 0 0 0 0 0 0 0 0 0 0 0 0 0 0 0 0 0 0 0 0 0 0 0 
GradVel 1 2975 float
  0.0000000E+00   0.0000000E+00   0.0000000E+00   0.0000000E+00   0.0000000E+00   0.0000000E+00   0.0000000E+00   0.0000000E+00   0.0000000E+00   0.0000000E+00   0.0000000E+00   0.0000000E+00   0.0000000E+00  -5.9355955E-08  -2.8352106E-23  -3.1546710E-07  -2.1319865E-06  -5.8610527E-07  -4.2529537E-06  -1.3389995E-05  -4.9745208E-06  -1.8890958E-05  -4.5413704E-05  -1.7934117E-05  -5.2519761E-05  -1.1050078E-04  -4.3110751E-05  -1.1075773E-04  -2.1612848E-04  -8.1039223E-05  -1.9389606E-04  -3.6169309E-04  -1.2911241E-04  -2.9717240E-04  -5.3914846E-04  -1.8363704E-04  -4.1438642E-04  -7.3892646E-04  -2.4281703E-04  -5.4324087E-04  -9.5898064E-04  -3.0910285E-04  -6.8955647E-04  -1.2111142E-03  -3.9053959E-04  -8.7088731E-04  -1.5277016E-03  -5.0290686E-04  -1.1215347E-03  -1.9698965E-03  -6.7493599E-04  -1.5022649E-03  -2.6409680E-03  -9.6283644E-04  -2.1190501E-03  -3.7057563E-03  -1.4728718E-03  -3.1298900E-03  -5.3754365E-03  -2.3780200E-03  -4.6986109E-03  -7.7960272E-03  -6.9639985E-03  -1.0993222E-02   0.0000000E+00   0.0000000E+00   0.0000000E+00   0.0000000E+00   0.0000000E+00   0.0000000E+00   0.0000000E+00   0.0000000E+00   0.0000000E+00   0.0000000E+00   0.0000000E+00   0.0000000E+00   0.0000000E+00   0.0000000E+00   0.0000000E+00   0.0000000E+00   0.0000000E+00   0.0000000E+00   0.0000000E+00   0.0000000E+00   0.0000000E+00   0.0000000E+00   0.0000000E+00   0.0000000E+00   0.0000000E+00  -1.0638787E-08  -6.7569786E-08  -1.5914163E-07  -2.3641323E-07  -2.7812837E-07  -3.0647928E-07  -3.2832114E-07  -5.1114262E-07  -1.6581266E-06  -3.5208959E-06  -5.7990874E-06  -8.0206446E-06  -9.8105857E-06  -1.1059180E-05  -1.1906589E-05  -6.3721764E-06  -1.3451479E-05  -2.3077611E-05  -3.4075874E-05  -4.4774228E-05  -5.3841573E-05  -6.0805014E-05  -6.5869695E-05  -2.9241250E-05  -5.2383042E-05  -8.1895807E-05  -1.1462416E-04  -1.4619506E-04  -1.7328864E-04  -1.9475512E-04  -2.1099451E-04  -8.6049840E-05  -1.4194097E-04  -2.1103349E-04  -2.8624927E-04  -3.5815351E-04  -4.1990014E-04  -4.6937377E-04  -5.0750584E-04  -1.9365366E-04  -3.0432086E-04  -4.3858361E-04  -5.8274099E-04  -7.1896985E-04  -8.3521695E-04  -9.2854915E-04  -1.0011384E-03  -3.6112772E-04  -5.5005390E-04  -7.7611796E-04  -1.0153379E-03  -1.2377674E-03  -1.4254741E-03  -1.5758093E-03  -1.6932082E-03  -5.8593816E-04  -8.7302463E-04  -1.2111847E-03  -1.5621366E-03  -1.8814495E-03  -2.1476415E-03  -2.3599607E-03  -2.5258705E-03  -8.5489114E-04  -1.2518307E-03  -1.7078312E-03  -1.1534370E-03  -1.6642737E-03  -1.4810710E-03  -2.1138659E-03  -1.8594153E-03  -2.6381062E-03  -2.3394963E-03  -3.3058936E-03  -3.0137273E-03  -4.2367661E-03  -4.0308293E-03  -5.6141187E-03  -5.6153224E-03  -7.6987129E-03  -8.0409124E-03  -1.0797474E-02  -1.1479632E-02  -1.5118623E-02  -1.5884710E-02  -2.0628765E-02   0.0000000E+00   0.0000000E+00   0.0000000E+00   0.0000000E+00   0.0000000E+00   0.0000000E+00   0.0000000E+00   0.0000000E+00   0.0000000E+00   0.0000000E+00   0.0000000E+00   0.0000000E+00   0.0000000E+00   0.0000000E+00   0.0000000E+00   0.0000000E+00   0.0000000E+00   0.0000000E+00   0.0000000E+00   0.0000000E+00   0.0000000E+00   0.0000000E+00   0.0000000E+00   0.0000000E+00   0.0000000E+00   0.0000000E+00   0.0000000E+00  -3.4450815E-07  -3.5602864E-07  -3.6388030E-07  -3.6899036E-07  -3.7215520E-07  -3.7399758E-07  -3.7499268E-07  -3.7548335E-07  -3.7569271E-07  -1.2532816E-05  -1.2990403E-05  -1.3312148E-05  -1.3529325E-05  -1.3669727E-05  -1.3756342E-05  -1.3807042E-05  -1.3834736E-05  -1.3848082E-05  -6.9504509E-05  -7.2157731E-05  -7.4054849E-05  -7.5360869E-05  -7.6225035E-05  -7.6773351E-05  -7.7105251E-05  -7.7293844E-05  -7.7388315E-05  -2.2298655E-04  -2.3173852E-04  -2.3804327E-04  -2.4243965E-04  -2.4539253E-04  -2.4729877E-04  -2.4847582E-04  -2.4915903E-04  -2.4950819E-04  -5.3624023E-04  -5.5749115E-04  -5.7287433E-04  -5.8368262E-04  -5.9100700E-04  -5.9578347E-04  -5.9876597E-04  -6.0051784E-04  -6.0142239E-04  -1.0565235E-03  -1.0979545E-03  -1.1281362E-03  -1.1494298E-03  -1.1639229E-03  -1.1734229E-03  -1.1793870E-03  -1.1829101E-03  -1.1847386E-03  -1.7834613E-03  -1.8515086E-03  -1.9013117E-03  -1.9365082E-03  -1.9604797E-03  -1.9762041E-03  -1.9860864E-03  -1.9919290E-03  -1.9949647E-03  -2.6538563E-03  -2.7507485E-03  -2.8217621E-03  -2.8718549E-03  -2.9058564E-03  -2.9280786E-03  -2.9419872E-03  -2.9501782E-03  -2.9544195E-03   0.0000000E+00   0.0000000E+00   0.0000000E+00   0.0000000E+00   0.0000000E+00   0.0000000E+00   0.0000000E+00   0.0000000E+00   0.0000000E+00   0.0000000E+00   0.0000000E+00   0.0000000E+00   0.0000000E+00   0.0000000E+00   0.0000000E+00   0.0000000E+00   0.0000000E+00   0.0000000E+00   0.0000000E+00   0.0000000E+00   0.0000000E+00   0.0000000E+00   0.0000000E+00   0.0000000E+00  -3.7574861E-07  -3.7569288E-07  -3.7548341E-07  -3.7499265E-07  -3.7399758E-07  -3.7215528E-07  -3.6899036E-07  -3.6388025E-07  -1.3852004E-05  -1.3848084E-05  -1.3834734E-05  -1.3807040E-05  -1.3756344E-05  -1.3669729E-05  -1.3529328E-05  -1.3312148E-05  -7.7416757E-05  -7.7388300E-05  -7.7293844E-05  -7.7105222E-05  -7.6773365E-05  -7.6225064E-05  -7.5360884E-05  -7.4054886E-05  -2.4961462E-04  -2.4950813E-04  -2.4915903E-04  -2.4847582E-04  -2.4729886E-04  -2.4539256E-04  -2.4243974E-04  -2.3804330E-04  -6.0170016E-04  -6.0142251E-04  -6.0051808E-04  -5.9876638E-04  -5.9578387E-04  -5.9100706E-04  -5.8368244E-04  -5.7287427E-04  -1.1853020E-03  -1.1847389E-03  -1.1829106E-03  -1.1793873E-03  -1.1734229E-03  -1.1639233E-03  -1.1494295E-03  -1.1281363E-03  -1.9959006E-03  -1.9949647E-03  -1.9919288E-03  -1.9860854E-03  -1.9762046E-03  -1.9604787E-03  -1.9365082E-03  -1.9013115E-03  -2.9557238E-03  -2.9544202E-03  -2.9501787E-03  -2.9419872E-03  -2.9280796E-03  -2.9058566E-03  -2.8718552E-03  -2.8217619E-03   0.0000000E+00   0.0000000E+00   0.0000000E+00   0.0000000E+00   0.0000000E+00   0.0000000E+00   0.0000000E+00   0.0000000E+00   0.0000000E+00   0.0000000E+00   0.0000000E+00   0.0000000E+00   0.0000000E+00   0.0000000E+00   0.0000000E+00   0.0000000E+00   0.0000000E+00   0.0000000E+00   0.0000000E+00   0.0000000E+00   0.0000000E+00   0.0000000E+00   0.0000000E+00   0.0000000E+00   0.0000000E+00   0.0000000E+00   0.0000000E+00  -3.5602858E-07  -3.4450835E-07  -3.2832125E-07  -3.0647931E-07  -2.7812843E-07  -2.3641326E-07  -1.5914168E-07  -6.7569779E-08  -1.0638787E-08  -1.2990402E-05  -1.2532821E-05  -1.1906591E-05  -1.1059180E-05  -9.8105857E-06  -8.0206446E-06  -5.7990887E-06  -3.5208968E-06  -1.6581270E-06  -7.2157745E-05  -6.9504531E-05  -6.5869732E-05  -6.0805021E-05  -5.3841566E-05  -4.4774239E-05  -3.4075889E-05  -2.3077611E-05  -1.3451483E-05  -2.3173864E-04  -2.2298655E-04  -2.1099453E-04  -1.9475514E-04  -1.7328867E-04  -1.4619509E-04  -1.1462418E-04  -8.1895821E-05  -5.2383053E-05  -5.5749126E-04  -5.3624023E-04  -5.0750608E-04  -4.6937395E-04  -4.1990026E-04  -3.5815357E-04  -2.8624939E-04  -2.1103350E-04  -1.4194100E-04  -1.0979545E-03  -1.0565239E-03  -1.0011388E-03  -9.2854962E-04  -8.3521707E-04  -7.1896991E-04  -5.8274105E-04  -4.3858378E-04  -3.0432100E-04  -1.8515086E-03  -1.7834610E-03  -1.6932085E-03  -1.5758098E-03  -1.4254748E-03  -1.2377675E-03  -1.0153380E-03  -7.7611831E-04  -5.5005401E-04  -2.7507485E-03  -2.6538572E-03  -2.5258702E-03  -2.3599600E-03  -2.1476410E-03  -1.8814497E-03  -1.5621363E-03  -1.2111848E-03  -8.7302481E-04  -1.7078312E-03  -1.2518312E-03  -1.6642741E-03  -2.1138669E-03  -2.6381074E-03  -3.3058941E-03  -4.2367661E-03  -5.6141187E-03  -7.6987133E-03  -1.0797475E-02  -1.5118625E-02  -2.0628769E-02   0.0000000E+00   0.0000000E+00   0.0000000E+00   0.0000000E+00   0.0000000E+00   0.0000000E+00   0.0000000E+00   0.0000000E+00   0.0000000E+00   0.0000000E+00   0.0000000E+00   0.0000000E+00   0.0000000E+00   0.0000000E+00   0.0000000E+00  -5.1114262E-07  -5.9355962E-08   0.0000000E+00   0.0000000E+00  -6.3721777E-06  -2.1319865E-06  -3.1546713E-07  -2.8352100E-23  -2.9241251E-05  -1.3389999E-05  -4.2529546E-06  -5.8610544E-07  -8.6049855E-05  -4.5413712E-05  -1.8890960E-05  -4.9745227E-06  -1.9365372E-04  -1.1050077E-04  -5.2519761E-05  -1.7934128E-05  -3.6112787E-04  -2.1612849E-04  -1.1075770E-04  -4.3110769E-05  -5.8593822E-04  -3.6169318E-04  -1.9389603E-04  -8.1039238E-05  -8.5489126E-04  -5.3914858E-04  -2.9717232E-04  -1.2911244E-04  -1.1534374E-03  -7.3892670E-04  -4.1438639E-04  -1.8363706E-04  -1.4810715E-03  -9.5898058E-04  -5.4324087E-04  -2.4281703E-04  -1.8594158E-03  -1.2111145E-03  -6.8955636E-04  -3.0910288E-04  -2.3394972E-03  -1.5277021E-03  -8.7088736E-04  -3.9053959E-04  -3.0137275E-03  -1.9698972E-03  -1.1215348E-03  -5.0290703E-04  -4.0308302E-03  -2.6409687E-03  -1.5022650E-03  -6.7493622E-04  -5.6153219E-03  -3.7057558E-03  -2.1190506E-03  -9.6283655E-04  -8.0409143E-03  -5.3754365E-03  -3.1298900E-03  -1.4728718E-03  -1.1479633E-02  -7.7960277E-03  -4.6986109E-03  -2.3780200E-03  -1.5884712E-02  -1.0993222E-02  -6.9639995E-03   0.0000000E+00   0.0000000E+00   0.0000000E+00   0.0000000E+00   0.0000000E+00   0.0000000E+00   0.0000000E+00   0.0000000E+00   0.0000000E+00   0.0000000E+00   0.0000000E+00   0.0000000E+00   0.0000000E+00   0.0000000E+00   0.0000000E+00   0.0000000E+00   0.0000000E+00   0.0000000E+00   0.0000000E+00   0.0000000E+00   0.0000000E+00   0.0000000E+00   0.0000000E+00   0.0000000E+00   0.0000000E+00   0.0000000E+00   0.0000000E+00   0.0000000E+00   0.0000000E+00   0.0000000E+00   0.0000000E+00   0.0000000E+00   0.0000000E+00   0.0000000E+00   0.0000000E+00   0.0000000E+00   0.0000000E+00   0.0000000E+00   0.0000000E+00   0.0000000E+00   0.0000000E+00   0.0000000E+00   0.0000000E+00   0.0000000E+00   0.0000000E+00   0.0000000E+00   0.0000000E+00   0.0000000E+00   0.0000000E+00   0.0000000E+00   0.0000000E+00   0.0000000E+00   0.0000000E+00   0.0000000E+00   0.0000000E+00   0.0000000E+00   0.0000000E+00   0.0000000E+00   0.0000000E+00   0.0000000E+00   0.0000000E+00   0.0000000E+00   0.0000000E+00   0.0000000E+00   0.0000000E+00   0.0000000E+00   0.0000000E+00   0.0000000E+00   0.0000000E+00   0.0000000E+00   0.0000000E+00   0.0000000E+00   0.0000000E+00   0.0000000E+00   0.0000000E+00   0.0000000E+00   0.0000000E+00   0.0000000E+00   0.0000000E+00   0.0000000E+00   0.0000000E+00   0.0000000E+00   0.0000000E+00   0.0000000E+00   0.0000000E+00   0.0000000E+00   0.0000000E+00   0.0000000E+00   0.0000000E+00   0.0000000E+00   0.0000000E+00   0.0000000E+00   0.0000000E+00   0.0000000E+00   0.0000000E+00   0.0000000E+00   0.0000000E+00   0.0000000E+00   0.0000000E+00   0.0000000E+00   0.0000000E+00   0.0000000E+00   0.0000000E+00   0.0000000E+00   0.0000000E+00   0.0000000E+00   0.0000000E+00   0.0000000E+00   0.0000000E+00   0.0000000E+00   0.0000000E+00   0.0000000E+00   0.0000000E+00   0.0000000E+00   0.0000000E+00   0.0000000E+00   0.0000000E+00   0.0000000E+00   0.0000000E+00   0.0000000E+00   0.0000000E+00   0.0000000E+00   0.0000000E+00   0.0000000E+00   0.0000000E+00   0.0000000E+00   0.0000000E+00   0.0000000E+00   0.0000000E+00   0.0000000E+00   0.0000000E+00   0.0000000E+00   0.0000000E+00   0.0000000E+00   0.0000000E+00   0.0000000E+00   0.0000000E+00   0.0000000E+00   0.0000000E+00   0.0000000E+00   0.0000000E+00   0.0000000E+00   0.0000000E+00   0.0000000E+00   0.0000000E+00   0.0000000E+00   0.0000000E+00   0.0000000E+00   0.0000000E+00   0.0000000E+00   0.0000000E+00   0.0000000E+00   0.0000000E+00   0.0000000E+00   0.0000000E+00   0.0000000E+00   0.0000000E+00   0.0000000E+00   0.0000000E+00   0.0000000E+00   0.0000000E+00   0.0000000E+00   0.0000000E+00   0.0000000E+00   0.0000000E+00   0.0000000E+00   0.0000000E+00   0.0000000E+00   0.0000000E+00   0.0000000E+00   0.0000000E+00   0.0000000E+00   0.0000000E+00   0.0000000E+00   0.0000000E+00   0.0000000E+00   0.0000000E+00   0.0000000E+00   0.0000000E+00   0.0000000E+00   0.0000000E+00   0.0000000E+00   0.0000000E+00   0.0000000E+00   0.0000000E+00   0.0000000E+00   0.0000000E+00   0.0000000E+00   0.0000000E+00   0.0000000E+00   0.0000000E+00   0.0000000E+00   0.0000000E+00   0.0000000E+00   0.0000000E+00   0.0000000E+00   0.0000000E+00   0.0000000E+00   0.0000000E+00   0.0000000E+00   0.0000000E+00   0.0000000E+00   0.0000000E+00   0.0000000E+00   0.0000000E+00   0.0000000E+00   0.0000000E+00   0.0000000E+00   0.0000000E+00   0.0000000E+00   0.0000000E+00   0.0000000E+00   0.0000000E+00   0.0000000E+00   0.0000000E+00   0.0000000E+00   0.0000000E+00   0.0000000E+00   0.0000000E+00   0.0000000E+00   0.0000000E+00   0.0000000E+00   0.0000000E+00   0.0000000E+00   0.0000000E+00   0.0000000E+00   0.0000000E+00   0.0000000E+00   0.0000000E+00   0.0000000E+00   0.0000000E+00   0.0000000E+00   0.0000000E+00   0.0000000E+00   0.0000000E+00   0.0000000E+00   0.0000000E+00   0.0000000E+00   0.0000000E+00   0.0000000E+00   0.0000000E+00   0.0000000E+00   0.0000000E+00   0.0000000E+00   0.0000000E+00   0.0000000E+00   0.0000000E+00   0.0000000E+00   0.0000000E+00   0.0000000E+00   0.0000000E+00   0.0000000E+00   0.0000000E+00   0.0000000E+00   0.0000000E+00   0.0000000E+00   0.0000000E+00   0.0000000E+00   0.0000000E+00   0.0000000E+00   0.0000000E+00   0.0000000E+00   0.0000000E+00   0.0000000E+00   0.0000000E+00   0.0000000E+00   0.0000000E+00   0.0000000E+00   0.0000000E+00   0.0000000E+00   0.0000000E+00   0.0000000E+00   0.0000000E+00   0.0000000E+00   0.0000000E+00   0.0000000E+00   0.0000000E+00   0.0000000E+00   0.0000000E+00   0.0000000E+00   0.0000000E+00   0.0000000E+00   0.0000000E+00   0.0000000E+00   0.0000000E+00   0.0000000E+00   0.0000000E+00   0.0000000E+00   0.0000000E+00   0.0000000E+00   0.0000000E+00   0.0000000E+00   0.0000000E+00   0.0000000E+00   0.0000000E+00   0.0000000E+00   0.0000000E+00   0.0000000E+00   0.0000000E+00   0.0000000E+00   0.0000000E+00   0.0000000E+00   0.0000000E+00   0.0000000E+00   0.0000000E+00   0.0000000E+00   0.0000000E+00   0.0000000E+00   0.0000000E+00   0.0000000E+00   0.0000000E+00   0.0000000E+00   0.0000000E+00   0.0000000E+00   0.0000000E+00   0.0000000E+00   0.0000000E+00   0.0000000E+00   0.0000000E+00   0.0000000E+00   0.0000000E+00   0.0000000E+00   0.0000000E+00   0.0000000E+00   0.0000000E+00   0.0000000E+00   0.0000000E+00   0.0000000E+00   0.0000000E+00   0.0000000E+00   0.0000000E+00   0.0000000E+00   0.0000000E+00   0.0000000E+00   0.0000000E+00   0.0000000E+00   0.0000000E+00   0.0000000E+00   0.0000000E+00   0.0000000E+00   0.0000000E+00   0.0000000E+00   0.0000000E+00   0.0000000E+00   0.0000000E+00   0.0000000E+00   0.0000000E+00   0.0000000E+00   0.0000000E+00   0.0000000E+00   0.0000000E+00   0.0000000E+00   0.0000000E+00   0.0000000E+00   0.0000000E+00   0.0000000E+00   0.0000000E+00   0.0000000E+00   0.0000000E+00   0.0000000E+00   0.0000000E+00   0.0000000E+00   0.0000000E+00   0.0000000E+00   0.0000000E+00   0.0000000E+00   0.0000000E+00   0.0000000E+00   0.0000000E+00   0.0000000E+00   0.0000000E+00   0.0000000E+00   0.0000000E+00   0.0000000E+00   0.0000000E+00   0.0000000E+00   0.0000000E+00   0.0000000E+00   0.0000000E+00   0.0000000E+00   0.0000000E+00   0.0000000E+00   0.0000000E+00   0.0000000E+00   0.0000000E+00   0.0000000E+00   0.0000000E+00   0.0000000E+00   0.0000000E+00   0.0000000E+00   0.0000000E+00   0.0000000E+00   0.0000000E+00   0.0000000E+00   0.0000000E+00   0.0000000E+00   0.0000000E+00   0.0000000E+00   0.0000000E+00   0.0000000E+00   0.0000000E+00   0.0000000E+00   0.0000000E+00   0.0000000E+00   0.0000000E+00   0.0000000E+00   0.0000000E+00   0.0000000E+00   0.0000000E+00   0.0000000E+00   0.0000000E+00   0.0000000E+00   0.0000000E+00   0.0000000E+00   0.0000000E+00   0.0000000E+00   0.0000000E+00   0.0000000E+00   0.0000000E+00   0.0000000E+00   0.0000000E+00   0.0000000E+00   0.0000000E+00   0.0000000E+00   0.0000000E+00   0.0000000E+00   0.0000000E+00   0.0000000E+00   0.0000000E+00   0.0000000E+00   0.0000000E+00   0.0000000E+00   0.0000000E+00   0.0000000E+00   0.0000000E+00   0.0000000E+00   0.0000000E+00   0.0000000E+00   0.0000000E+00   0.0000000E+00   0.0000000E+00   0.0000000E+00   0.0000000E+00   0.0000000E+00   0.0000000E+00   0.0000000E+00   0.0000000E+00   0.0000000E+00   0.0000000E+00   0.0000000E+00   0.0000000E+00   0.0000000E+00   0.0000000E+00   0.0000000E+00   0.0000000E+00   0.0000000E+00   0.0000000E+00   0.0000000E+00   0.0000000E+00   0.0000000E+00   0.0000000E+00   0.0000000E+00   0.0000000E+00   0.0000000E+00   0.0000000E+00   0.0000000E+00   0.0000000E+00   0.0000000E+00   0.0000000E+00   0.0000000E+00   0.0000000E+00   0.0000000E+00  -2.1630162E-03  -2.5744538E-03  -2.9126017E-03  -3.1805197E-03  -3.3889858E-03  -2.2140129E-03  -2.7897728E-03  -3.2861966E-03  -3.6883738E-03  -4.0024268E-03  -4.2436831E-03  -2.7837451E-03  -3.4776775E-03  -4.0681241E-03  -4.5365687E-03  -4.8938892E-03  -5.1621320E-03  -3.4567227E-03  -4.2956308E-03  -4.9992288E-03  -5.5448608E-03  -5.9490753E-03  -6.2429332E-03  -4.3188347E-03  -5.3344276E-03  -6.1718831E-03  -6.8079252E-03  -7.2660055E-03  -7.5862156E-03  -5.5361036E-03  -6.7467205E-03  -7.7141612E-03  -8.4312726E-03  -8.9379027E-03  -9.2823170E-03  -7.3888679E-03  -8.7794662E-03  -9.8116416E-03  -1.0546767E-02  -1.1059913E-02  -1.1408297E-02  -1.0292463E-02  -1.1765772E-02  -1.2694005E-02  -1.3301731E-02  -1.3728458E-02  -1.4033328E-02  -1.4741222E-02  -1.6040588E-02  -1.6561089E-02  -1.6814722E-02  -1.7023368E-02  -1.7220322E-02  -2.1035919E-02  -2.1717945E-02  -2.1442872E-02  -2.1108272E-02  -2.0983901E-02  -2.1023711E-02  -2.8763201E-02  -2.8427152E-02  -2.7093921E-02  -2.6070293E-02  -2.5594028E-02  -2.5483271E-02  -3.5832539E-02  -3.5181552E-02  -3.3053279E-02  -3.1522978E-02  -3.0825144E-02  -3.0641148E-02  -3.9838128E-02  -4.0720057E-02  -3.8902868E-02  -3.7387572E-02  -3.6717273E-02  -3.6579620E-02  -4.2729333E-02  -4.5389608E-02  -4.4828326E-02  -4.3840144E-02  -4.3434363E-02  -4.3444514E-02  -4.7388595E-02  -5.0911490E-02  -5.1604204E-02  -5.1297497E-02  -5.1250406E-02  -5.1435437E-02  -5.5198696E-02  -5.8733303E-02  -6.0059771E-02  -6.0236018E-02  -6.0454767E-02  -6.0775474E-02  -6.6020377E-02  -6.9189884E-02  -7.0579097E-02  -7.0947856E-02  -7.1303621E-02  -7.1698226E-02  -7.9310805E-02  -8.2042985E-02  -8.3259620E-02  -8.3627596E-02  -8.4037967E-02  -8.4465295E-02  -9.4603121E-02  -9.7142301E-02  -9.8216370E-02  -9.8542720E-02  -9.8961361E-02  -9.9366829E-02  -1.1227397E-01  -1.1477622E-01  -1.1580175E-01  -1.1606459E-01  -1.1641955E-01  -1.1671266E-01  -1.3296349E-01  -1.3542713E-01  -1.3646564E-01  -1.3661592E-01  -1.3678356E-01  -1.3682345E-01  -1.5713426E-01  -1.5960412E-01  -1.6074736E-01  -1.6066538E-01  -1.6043213E-01  -1.5999889E-01  -1.8519354E-01  -1.8784989E-01  -1.8925177E-01  -1.8865511E-01  -1.8765654E-01  -1.8641780E-01  -2.1725646E-01  -2.2060061E-01  -2.2241053E-01  -2.2074662E-01  -2.1840967E-01  -2.1590026E-01  -2.5290489E-01  -2.5782853E-01  -2.6004857E-01  -2.5635827E-01  -2.5188920E-01  -2.4751079E-01  -2.9037541E-01  -2.9842889E-01  -3.0065528E-01  -2.9351106E-01  -2.8594261E-01  -2.7907324E-01  -3.2635707E-01  -3.3941400E-01  -3.4068063E-01  -3.2808879E-01  -3.1653151E-01  -3.0670112E-01  -3.5558939E-01  -3.7541085E-01  -3.7365305E-01  -3.5372937E-01  -3.3747762E-01  -3.2455492E-01  -3.7041104E-01  -3.9768454E-01  -3.9045331E-01  -3.6171091E-01  -3.4068167E-01  -3.2508636E-01  -3.5948646E-01  -3.9319077E-01  -3.7850851E-01  -3.4127215E-01  -3.1623569E-01  -2.9908773E-01  -3.0655521E-01  -3.4292945E-01  -3.2161862E-01  -2.7928185E-01  -2.5266901E-01  -2.3538399E-01  -1.9258095E-01  -2.2572687E-01  -2.0306683E-01  -1.6425619E-01  -1.3862342E-01  -1.2170462E-01  -7.8135654E-03  -3.6503650E-02  -1.1173137E-02   1.2411505E-02   3.4203708E-02   5.0700784E-02   2.3336744E-01   2.0707503E-01   2.5490016E-01   2.5832906E-01   2.6633388E-01   2.8018028E-01   4.9726555E-01   4.7176176E-01   5.4613876E-01   5.4299057E-01   5.3729117E-01   5.4786247E-01   7.4497569E-01   7.1244419E-01   8.1846589E-01   8.1758249E-01   8.0639625E-01   8.1651282E-01   9.2158443E-01   8.7718266E-01   1.0083890E+00   1.0280612E+00   1.0218987E+00   1.0368098E+00   9.9675095E-01   9.3820894E-01   1.0821339E+00   1.1280699E+00   1.1421527E+00   1.1690520E+00   9.9183953E-01   9.2386210E-01   1.0731678E+00   1.1387088E+00   1.1709735E+00   1.2088457E+00   9.3685937E-01   8.6564130E-01   1.0158753E+00   1.0920430E+00   1.1354414E+00   1.1808591E+00   8.6595243E-01   7.9460675E-01   9.4405615E-01   1.0229777E+00   1.0701406E+00   1.1190660E+00   8.0092049E-01   7.3194456E-01   8.7976182E-01   9.5454669E-01   9.9957377E-01   1.0483093E+00   7.4475169E-01   6.7791963E-01   8.2162958E-01   8.9037490E-01   9.3070424E-01   9.7675860E-01   6.8879020E-01   6.2437648E-01   7.6035243E-01   8.2311738E-01   8.5779822E-01   8.9932430E-01   6.2496710E-01   5.6236243E-01   6.8674558E-01   7.4275917E-01   7.7129495E-01   8.0695367E-01   5.4866195E-01   4.8721257E-01   5.9616625E-01   6.4411181E-01   6.6705751E-01   6.9597268E-01   4.6242675E-01   4.0354997E-01   4.9446309E-01   5.3320217E-01   5.5045325E-01   5.7249844E-01   3.7790844E-01   3.2127473E-01   3.9458907E-01   4.2341837E-01   4.3459129E-01   4.5008051E-01   3.0533668E-01   2.4873820E-01   3.0804288E-01   3.2868069E-01   3.3282197E-01   3.4235007E-01   2.4685556E-01   1.9227399E-01   2.4142459E-01   2.5571382E-01   2.5269142E-01   2.5724813E-01   2.0003669E-01   1.5156317E-01   1.9423756E-01   2.0392573E-01   1.9555953E-01   1.9608685E-01   1.6101737E-01   1.2541854E-01   1.6402072E-01   1.6899963E-01   1.5819308E-01   1.5545380E-01   1.4791536E-01   1.1185133E-01   1.4226888E-01   1.4575595E-01   1.3479447E-01   1.2994348E-01   1.8121898E-01   1.1828692E-01   1.2940428E-01   1.2881322E-01   1.1968642E-01   1.1470407E-01   2.2146299E-01   1.3076994E-01   1.1806936E-01   1.1411017E-01   1.0861908E-01   1.0585676E-01   1.4238368E-01   1.0581840E-01   1.0224989E-01   9.9713519E-02   1.0081206E-01   1.6050275E-01   1.0629653E-01   9.6228324E-02   9.3746342E-02   9.7501874E-02   1.2663548E-01   1.0305651E-01   9.6475460E-02   9.5942825E-02   1.6015476E-01   1.3224483E-01   1.1344288E-01   1.0272366E-01   1.7075023E-01   1.4932825E-01   1.2656671E-01   1.9165792E-01   1.6962308E-01   1.9917363E-01   2.1419500E-01  -3.5495395E-03  -3.6710198E-03  -3.7597588E-03  -3.8218945E-03  -3.8636993E-03  -3.8907479E-03  -3.9074910E-03  -3.9172387E-03  -3.9222352E-03  -4.4277064E-03  -4.5657987E-03  -4.6654823E-03  -4.7340789E-03  -4.7793481E-03  -4.8079910E-03  -4.8252637E-03  -4.8350384E-03  -4.8399176E-03  -5.3625763E-03  -5.5100080E-03  -5.6137061E-03  -5.6826659E-03  -5.7264389E-03  -5.7528340E-03  -5.7678199E-03  -5.7757036E-03  -5.7793604E-03  -6.4555155E-03  -6.6065020E-03  -6.7078751E-03  -6.7712772E-03  -6.8085319E-03  -6.8286592E-03  -6.8383226E-03  -6.8422183E-03  -6.8434174E-03  -7.8077740E-03  -7.9570748E-03  -8.0500543E-03  -8.1021460E-03  -8.1278570E-03  -8.1376210E-03  -8.1388196E-03  -8.1365295E-03  -8.1339739E-03  -9.5083406E-03  -9.6495850E-03  -9.7276019E-03  -9.7623402E-03  -9.7712781E-03  -9.7664222E-03  -9.7559225E-03  -9.7451657E-03  -9.7375195E-03  -1.1629516E-02  -1.1754222E-02  -1.1809516E-02  -1.1820030E-02  -1.1806500E-02  -1.1782527E-02  -1.1756934E-02  -1.1735377E-02  -1.1721240E-02  -1.4229878E-02  -1.4328215E-02  -1.4351772E-02  -1.4330291E-02  -1.4288069E-02  -1.4240209E-02  -1.4196038E-02  -1.4161269E-02  -1.4139259E-02  -1.7365824E-02  -1.7427079E-02  -1.7410345E-02  -1.7349048E-02  -1.7271783E-02  -1.7195182E-02  -1.7128874E-02  -1.7078469E-02  -1.7047156E-02  -2.1099702E-02  -2.1117335E-02  -2.1055022E-02  -2.0947689E-02  -2.0829668E-02  -2.0719701E-02  -2.0627744E-02  -2.0559244E-02  -2.0517189E-02  -2.5496583E-02  -2.5474589E-02  -2.5366938E-02  -2.5210403E-02  -2.5047304E-02  -2.4899760E-02  -2.4778612E-02  -2.4689415E-02  -2.4634998E-02  -3.0629246E-02  -3.0583682E-02  -3.0436849E-02  -3.0231334E-02  -3.0020295E-02  -2.9831152E-02  -2.9676937E-02  -2.9563935E-02  -2.9495187E-02  -3.6594763E-02  -3.6547154E-02  -3.6370482E-02  -3.6118239E-02  -3.5856735E-02  -3.5621375E-02  -3.5429113E-02  -3.5288092E-02  -3.5202317E-02  -4.3525882E-02  -4.3492403E-02  -4.3293618E-02  -4.2995259E-02  -4.2678814E-02  -4.2390272E-02  -4.2152602E-02  -4.1977409E-02  -4.1870490E-02  -5.1590543E-02  -5.1575080E-02  -5.1354807E-02  -5.1004555E-02  -5.0623011E-02  -5.0269097E-02  -4.9974341E-02  -4.9755421E-02  -4.9621224E-02  -6.0986377E-02  -6.0979620E-02  -6.0725078E-02  -6.0305294E-02  -5.9838302E-02  -5.9398405E-02  -5.9027806E-02  -5.8750458E-02  -5.8579579E-02  -7.1937218E-02  -7.1914583E-02  -7.1594387E-02  -7.1070179E-02  -7.0482247E-02  -6.9922991E-02  -6.9447882E-02  -6.9090024E-02  -6.8868689E-02  -8.4692352E-02  -8.4606253E-02  -8.4165692E-02  -8.3479367E-02  -8.2714513E-02  -8.1985325E-02  -8.1363566E-02  -8.0893673E-02  -8.0602288E-02  -9.9516742E-02  -9.9291243E-02  -9.8646156E-02  -9.7710922E-02  -9.6686974E-02  -9.5715903E-02  -9.4888777E-02  -9.4263650E-02  -9.3875870E-02  -1.1668426E-01  -1.1620758E-01  -1.1523572E-01  -1.1392811E-01  -1.1253133E-01  -1.1122117E-01  -1.1011171E-01  -1.0927579E-01  -1.0875809E-01  -1.3646689E-01  -1.3557784E-01  -1.3410822E-01  -1.3226035E-01  -1.3034147E-01  -1.2856911E-01  -1.2708233E-01  -1.2596899E-01  -1.2528212E-01  -1.5909515E-01  -1.5756847E-01  -1.5537052E-01  -1.5276596E-01  -1.5014087E-01  -1.4776102E-01  -1.4579017E-01  -1.4432682E-01  -1.4342877E-01  -1.8465589E-01  -1.8218774E-01  -1.7896767E-01  -1.7534597E-01  -1.7180607E-01  -1.6866459E-01  -1.6610251E-01  -1.6422065E-01  -1.6307336E-01  -2.1286808E-01  -2.0907596E-01  -2.0448655E-01  -1.9956233E-01  -1.9489861E-01  -1.9085634E-01  -1.8761763E-01  -1.8526873E-01  -1.8384849E-01  -2.4272153E-01  -2.3717074E-01  -2.3084396E-01  -2.2434419E-01  -2.1838392E-01  -2.1334998E-01  -2.0939925E-01  -2.0657685E-01  -2.0488697E-01  -2.7204326E-01  -2.6431513E-01  -2.5592163E-01  -2.4763767E-01  -2.4029006E-01  -2.3426047E-01  -2.2964121E-01  -2.2640285E-01  -2.2448809E-01  -2.9710564E-01  -2.8693318E-01  -2.7628702E-01  -2.6614857E-01  -2.5745600E-01  -2.5055227E-01  -2.4541646E-01  -2.4190179E-01  -2.3985833E-01  -3.1242806E-01  -2.9988900E-01  -2.8711596E-01  -2.7530453E-01  -2.6550952E-01  -2.5801870E-01  -2.5265515E-01  -2.4910627E-01  -2.4709351E-01  -3.1093204E-01  -2.9659328E-01  -2.8229526E-01  -2.6938891E-01  -2.5902787E-01  -2.5145760E-01  -2.4632937E-01  -2.4311984E-01  -2.4137884E-01  -2.8388843E-01  -2.6877481E-01  -2.5405559E-01  -2.4111682E-01  -2.3111805E-01  -2.2427613E-01  -2.2007632E-01  -2.1775068E-01  -2.1662970E-01  -2.2029546E-01  -2.0569375E-01  -1.9202828E-01  -1.8057232E-01  -1.7230992E-01  -1.6737036E-01  -1.6508099E-01  -1.6439864E-01  -1.6438201E-01  -1.0770085E-01  -9.4955176E-02  -8.3981216E-02  -7.5835288E-02  -7.1084261E-02  -6.9609106E-02  -7.0526302E-02  -7.2481826E-02  -7.4200824E-02   6.3182652E-02   7.3095173E-02   7.9917930E-02   8.2923681E-02   8.2213312E-02   7.8405678E-02   7.2740875E-02   6.6970341E-02   6.2772609E-02   2.9130921E-01   2.9828897E-01   3.0015340E-01   2.9663122E-01   2.8874466E-01   2.7790940E-01   2.6595828E-01   2.5518620E-01   2.4776509E-01   5.5888021E-01   5.6392086E-01   5.6098771E-01   5.5035394E-01   5.3422368E-01   5.1512003E-01   4.9574018E-01   4.7907996E-01   4.6788156E-01   8.2943821E-01   8.3424062E-01   8.2750452E-01   8.1010127E-01   7.8563297E-01   7.5795758E-01   7.3082507E-01   7.0803154E-01   6.9291180E-01   1.0544014E+00   1.0607741E+00   1.0516831E+00   1.0287474E+00   9.9700654E-01   9.6166635E-01   9.2754400E-01   8.9921606E-01   8.8056248E-01   1.1938596E+00   1.2033823E+00   1.1937351E+00   1.1673625E+00   1.1305201E+00   1.0895584E+00   1.0502030E+00   1.0176942E+00   9.9636340E-01   1.2405887E+00   1.2540666E+00   1.2456573E+00   1.2182992E+00   1.1790477E+00   1.1350470E+00   1.0926845E+00   1.0577035E+00   1.0347681E+00   1.2179576E+00   1.2352109E+00   1.2290857E+00   1.2026629E+00   1.1633356E+00   1.1186408E+00   1.0753436E+00   1.0394964E+00   1.0159737E+00   1.1591926E+00   1.1791499E+00   1.1753994E+00   1.1508996E+00   1.1129774E+00   1.0692185E+00   1.0264996E+00   9.9099112E-01   9.6765184E-01   1.0889848E+00   1.1101179E+00   1.1081455E+00   1.0857208E+00   1.0498228E+00   1.0078393E+00   9.6655917E-01   9.3211460E-01   9.0943217E-01   1.0158303E+00   1.0366132E+00   1.0355445E+00   1.0148646E+00   9.8104411E-01   9.4111878E-01   9.0165931E-01   8.6863577E-01   8.4685671E-01   9.3508583E-01   9.5425808E-01   9.5328712E-01   9.3394768E-01   9.0210223E-01   8.6432743E-01   8.2687461E-01   7.9547250E-01   7.7474415E-01   8.3813667E-01   8.5483658E-01   8.5349715E-01   8.3536327E-01   8.0558759E-01   7.7017599E-01   7.3498356E-01   7.0543867E-01   6.8592691E-01   7.2185618E-01   7.3579788E-01   7.3416424E-01   7.1755350E-01   6.9029307E-01   6.5772128E-01   6.2523055E-01   5.9790337E-01   5.7984519E-01   5.9314275E-01   6.0471797E-01   6.0337418E-01   5.8895862E-01   5.6490427E-01   5.3582633E-01   5.0660801E-01   4.8194206E-01   4.6561909E-01   4.6615303E-01   4.7604948E-01   4.7562671E-01   4.6397293E-01   4.4364685E-01   4.1854301E-01   3.9301199E-01   3.7132657E-01   3.5693753E-01   3.5451576E-01   3.6309791E-01   3.6374497E-01   3.5488355E-01   3.3828500E-01   3.1717202E-01   2.9536062E-01   2.7668488E-01   2.6424640E-01   2.6571393E-01   2.7274266E-01   2.7397540E-01   2.6733792E-01   2.5393769E-01   2.3638789E-01   2.1797620E-01   2.0208021E-01   1.9145116E-01   2.0074342E-01   2.0548208E-01   2.0630953E-01   2.0089045E-01   1.8980318E-01   1.7510873E-01   1.5956762E-01   1.4607778E-01   1.3703074E-01   1.5636614E-01   1.5797153E-01   1.5714246E-01   1.5172049E-01   1.4191553E-01   1.2928361E-01   1.1603751E-01   1.0456128E-01   9.6861862E-02   1.2789567E-01   1.2590137E-01   1.2221454E-01   1.1554175E-01   1.0599201E-01   9.4666056E-02   8.3186589E-02   7.3377185E-02   6.6827342E-02   1.1109837E-01   1.0589045E-01   9.8598823E-02   8.9537568E-02   7.9239048E-02   6.8456516E-02   5.8224246E-02   4.9759395E-02   4.4186249E-02   1.0276210E-01   9.5797069E-02   8.5157670E-02   7.2910883E-02   6.0819402E-02   4.9663283E-02   4.0011249E-02   3.2477975E-02   2.7669147E-02   1.0041158E-01   9.3991056E-02   8.1534013E-02   6.6214755E-02   5.1365830E-02   3.8683683E-02   2.8617606E-02   2.1319471E-02   1.6890153E-02   1.0133249E-01   9.8033816E-02   8.6433806E-02   6.9684714E-02   5.2106075E-02   3.6857836E-02   2.5164142E-02   1.7084599E-02   1.2386017E-02   1.0254286E-01   1.0426740E-01   9.6662983E-02   8.1505522E-02   6.3165002E-02   4.5767151E-02   3.1759739E-02   2.1963395E-02   1.6290061E-02   1.0333550E-01   1.0877140E-01   1.0754739E-01   9.7585194E-02   8.1939355E-02   6.4929590E-02   4.9873348E-02   3.8550023E-02   3.1676237E-02   1.1286376E-01   1.1135027E-01   1.1463395E-01   1.1256986E-01   1.0361580E-01   9.0696983E-02   7.7451155E-02   6.6411763E-02   5.9216082E-02   1.4216864E-01   1.2522832E-01   1.2033077E-01   1.2228440E-01   1.2223223E-01   1.1726468E-01   1.0923970E-01   1.0109489E-01   9.5180534E-02   1.8824849E-01   1.6365711E-01   1.4446339E-01   1.3559744E-01   1.3581574E-01   1.3821340E-01   1.3799442E-01   1.3538492E-01   1.3249341E-01   2.1088162E-01   2.0504744E-01   1.9208349E-01   1.7870997E-01   1.6584879E-01   1.6004221E-01   1.5979326E-01   1.6082567E-01   1.6124675E-01   2.0145237E-01   2.1645521E-01   2.2364840E-01   2.2374377E-01   2.2024500E-01   2.1518506E-01   2.1225524E-01   2.1075219E-01   2.1324342E-01   2.3571211E-01   2.4895719E-01   2.6549214E-01   2.7659687E-01   2.8229976E-01   2.0781890E-01   2.2160178E-01   2.3930821E-01   2.5134847E-01  -3.9237617E-03  -3.9222348E-03  -3.9172391E-03  -3.9074915E-03  -3.8907488E-03  -3.8636993E-03  -3.8218936E-03  -3.7597590E-03  -4.8413854E-03  -4.8399186E-03  -4.8350380E-03  -4.8252642E-03  -4.8079905E-03  -4.7793491E-03  -4.7340798E-03  -4.6654809E-03  -5.7804068E-03  -5.7793632E-03  -5.7757064E-03  -5.7678199E-03  -5.7528354E-03  -5.7264403E-03  -5.6826668E-03  -5.6137075E-03  -6.8436349E-03  -6.8434160E-03  -6.8422183E-03  -6.8383235E-03  -6.8286606E-03  -6.8085329E-03  -6.7712800E-03  -6.7078779E-03  -8.1329355E-03  -8.1339749E-03  -8.1365276E-03  -8.1388196E-03  -8.1376210E-03  -8.1278607E-03  -8.1021450E-03  -8.0500543E-03  -9.7347759E-03  -9.7375186E-03  -9.7451676E-03  -9.7559234E-03  -9.7664222E-03  -9.7712846E-03  -9.7623393E-03  -9.7276038E-03  -1.1716349E-02  -1.1721245E-02  -1.1735373E-02  -1.1756937E-02  -1.1782525E-02  -1.1806497E-02  -1.1820033E-02  -1.1809519E-02  -1.4131732E-02  -1.4139253E-02  -1.4161263E-02  -1.4196037E-02  -1.4240212E-02  -1.4288068E-02  -1.4330290E-02  -1.4351779E-02  -1.7036563E-02  -1.7047159E-02  -1.7078463E-02  -1.7128872E-02  -1.7195184E-02  -1.7271774E-02  -1.7349048E-02  -1.7410351E-02  -2.0503020E-02  -2.0517195E-02  -2.0559251E-02  -2.0627733E-02  -2.0719690E-02  -2.0829670E-02  -2.0947685E-02  -2.1055020E-02  -2.4616737E-02  -2.4635011E-02  -2.4689397E-02  -2.4778601E-02  -2.4899751E-02  -2.5047300E-02  -2.5210401E-02  -2.5366940E-02  -2.9472141E-02  -2.9495198E-02  -2.9563921E-02  -2.9676929E-02  -2.9831154E-02  -3.0020289E-02  -3.0231345E-02  -3.0436836E-02  -3.5173543E-02  -3.5202317E-02  -3.5288107E-02  -3.5429128E-02  -3.5621367E-02  -3.5856701E-02  -3.6118235E-02  -3.6370475E-02  -4.1834608E-02  -4.1870501E-02  -4.1977394E-02  -4.2152587E-02  -4.2390250E-02  -4.2678811E-02  -4.2995259E-02  -4.3293640E-02  -4.9576059E-02  -4.9621228E-02  -4.9755406E-02  -4.9974333E-02  -5.0269097E-02  -5.0623007E-02  -5.1004563E-02  -5.1354811E-02  -5.8521952E-02  -5.8579560E-02  -5.8750425E-02  -5.9027836E-02  -5.9398398E-02  -5.9838317E-02  -6.0305323E-02  -6.0725044E-02  -6.8793871E-02  -6.8868712E-02  -6.9090046E-02  -6.9447905E-02  -6.9922976E-02  -7.0482284E-02  -7.1070239E-02  -7.1594395E-02  -8.0503672E-02  -8.0602296E-02  -8.0893688E-02  -8.1363566E-02  -8.1985340E-02  -8.2714505E-02  -8.3479360E-02  -8.4165677E-02  -9.3744569E-02  -9.3875907E-02  -9.4263658E-02  -9.4888806E-02  -9.5715940E-02  -9.6686967E-02  -9.7710885E-02  -9.8646149E-02  -1.0858298E-01  -1.0875810E-01  -1.0927578E-01  -1.1011173E-01  -1.1122122E-01  -1.1253136E-01  -1.1392804E-01  -1.1523575E-01  -1.2505013E-01  -1.2528217E-01  -1.2596905E-01  -1.2708235E-01  -1.2856913E-01  -1.3034147E-01  -1.3226035E-01  -1.3410825E-01  -1.4312623E-01  -1.4342876E-01  -1.4432678E-01  -1.4579013E-01  -1.4776103E-01  -1.5014078E-01  -1.5276591E-01  -1.5537064E-01  -1.6268818E-01  -1.6307342E-01  -1.6422063E-01  -1.6610259E-01  -1.6866459E-01  -1.7180601E-01  -1.7534600E-01  -1.7896771E-01  -1.8337342E-01  -1.8384847E-01  -1.8526880E-01  -1.8761761E-01  -1.9085646E-01  -1.9489872E-01  -1.9956237E-01  -2.0448665E-01  -2.0432451E-01  -2.0488693E-01  -2.0657681E-01  -2.0939916E-01  -2.1335000E-01  -2.1838401E-01  -2.2434421E-01  -2.3084399E-01  -2.2385496E-01  -2.2448823E-01  -2.2640297E-01  -2.2964133E-01  -2.3426041E-01  -2.4029003E-01  -2.4763775E-01  -2.5592157E-01  -2.3918825E-01  -2.3985851E-01  -2.4190176E-01  -2.4541658E-01  -2.5055215E-01  -2.5745609E-01  -2.6614857E-01  -2.7628690E-01  -2.4644189E-01  -2.4709353E-01  -2.4910641E-01  -2.5265509E-01  -2.5801861E-01  -2.6550958E-01  -2.7530450E-01  -2.8711590E-01  -2.4082878E-01  -2.4137893E-01  -2.4312007E-01  -2.4632940E-01  -2.5145766E-01  -2.5902769E-01  -2.6938891E-01  -2.8229505E-01  -2.1630082E-01  -2.1662974E-01  -2.1775070E-01  -2.2007622E-01  -2.2427601E-01  -2.3111784E-01  -2.4111679E-01  -2.5405568E-01  -1.6444057E-01  -1.6438204E-01  -1.6439867E-01  -1.6508082E-01  -1.6737029E-01  -1.7231002E-01  -1.8057233E-01  -1.9202855E-01  -7.4863762E-02  -7.4200764E-02  -7.2481811E-02  -7.0526391E-02  -6.9609061E-02  -7.1084157E-02  -7.5835094E-02  -8.3981156E-02   6.1250716E-02   6.2772639E-02   6.6970177E-02   7.2740905E-02   7.8405723E-02   8.2213320E-02   8.2923882E-02   7.9917900E-02   2.4513075E-01   2.4776518E-01   2.5518614E-01   2.6595837E-01   2.7790943E-01   2.8874481E-01   2.9663137E-01   3.0015320E-01   4.6394715E-01   4.6788174E-01   4.7908011E-01   4.9574023E-01   5.1512003E-01   5.3422397E-01   5.5035412E-01   5.6098801E-01   6.8763083E-01   6.9291198E-01   7.0803177E-01   7.3082530E-01   7.5795770E-01   7.8563303E-01   8.1010121E-01   8.2750428E-01   8.7406933E-01   8.8056242E-01   8.9921653E-01   9.2754394E-01   9.6166682E-01   9.9700636E-01   1.0287479E+00   1.0516829E+00   9.8895085E-01   9.9636304E-01   1.0176945E+00   1.0502027E+00   1.0895586E+00   1.1305201E+00   1.1673622E+00   1.1937355E+00   1.0268033E+00   1.0347683E+00   1.0577031E+00   1.0926845E+00   1.1350466E+00   1.1790479E+00   1.2182989E+00   1.2456574E+00   1.0078039E+00   1.0159740E+00   1.0394964E+00   1.0753440E+00   1.1186410E+00   1.1633356E+00   1.2026629E+00   1.2290850E+00   9.5954084E-01   9.6765155E-01   9.9099082E-01   1.0264995E+00   1.0692185E+00   1.1129774E+00   1.1508999E+00   1.1753995E+00   9.0154415E-01   9.0943223E-01   9.3211448E-01   9.6655929E-01   1.0078391E+00   1.0498222E+00   1.0857207E+00   1.1081461E+00   8.3927906E-01   8.4685713E-01   8.6863565E-01   9.0165937E-01   9.4111884E-01   9.8104393E-01   1.0148647E+00   1.0355443E+00   7.6752961E-01   7.7474409E-01   7.9547262E-01   8.2687461E-01   8.6432731E-01   9.0210235E-01   9.3394774E-01   9.5328712E-01   6.7913496E-01   6.8592715E-01   7.0543861E-01   7.3498344E-01   7.7017617E-01   8.0558789E-01   8.3536339E-01   8.5349691E-01   5.7355857E-01   5.7984507E-01   5.9790325E-01   6.2523067E-01   6.5772086E-01   6.9029295E-01   7.1755338E-01   7.3416436E-01   4.5993429E-01   4.6561915E-01   4.8194212E-01   5.0660789E-01   5.3582633E-01   5.6490433E-01   5.8895838E-01   6.0337436E-01   3.5192174E-01   3.5693753E-01   3.7132645E-01   3.9301181E-01   4.1854301E-01   4.4364685E-01   4.6397275E-01   4.7562665E-01   2.5990471E-01   2.6424640E-01   2.7668464E-01   2.9536077E-01   3.1717214E-01   3.3828512E-01   3.5488346E-01   3.6374512E-01   1.8773472E-01   1.9145119E-01   2.0208022E-01   2.1797624E-01   2.3638782E-01   2.5393769E-01   2.6733786E-01   2.7397543E-01   1.3386336E-01   1.3703081E-01   1.4607780E-01   1.5956748E-01   1.7510873E-01   1.8980327E-01   2.0089047E-01   2.0630954E-01   9.4164744E-02   9.6861869E-02   1.0456134E-01   1.1603752E-01   1.2928352E-01   1.4191532E-01   1.5172045E-01   1.5714239E-01   6.4535424E-02   6.6827245E-02   7.3377185E-02   8.3186507E-02   9.4666004E-02   1.0599209E-01   1.1554173E-01   1.2221453E-01   4.2245649E-02   4.4186197E-02   4.9759313E-02   5.8224261E-02   6.8456516E-02   7.9239033E-02   8.9537427E-02   9.8598883E-02   2.6015677E-02   2.7669072E-02   3.2477900E-02   4.0011138E-02   4.9663089E-02   6.0819387E-02   7.2910883E-02   8.5157648E-02   1.5404575E-02   1.6890228E-02   2.1319516E-02   2.8617583E-02   3.8683675E-02   5.1365890E-02   6.6214710E-02   8.1533968E-02   1.0848403E-02   1.2385920E-02   1.7084658E-02   2.5164232E-02   3.6857814E-02   5.2106023E-02   6.9684625E-02   8.6433955E-02   1.4442667E-02   1.6290039E-02   2.1963358E-02   3.1759739E-02   4.5767151E-02   6.3165054E-02   8.1505567E-02   9.6662961E-02   2.9380906E-02   3.1676255E-02   3.8550071E-02   4.9873360E-02   6.4929582E-02   8.1939355E-02   9.7585164E-02   1.0754736E-01   5.6725148E-02   5.9216108E-02   6.6411741E-02   7.7451095E-02   9.0696961E-02   1.0361579E-01   1.1256982E-01   1.1463399E-01   9.3047209E-02   9.5180489E-02   1.0109489E-01   1.0923971E-01   1.1726470E-01   1.2223223E-01   1.2228442E-01   1.2033083E-01   1.3130541E-01   1.3249347E-01   1.3538489E-01   1.3799445E-01   1.3821343E-01   1.3581586E-01   1.3559747E-01   1.4446348E-01   1.6126315E-01   1.6124675E-01   1.6082564E-01   1.5979327E-01   1.6004221E-01   1.6584881E-01   1.7871007E-01   1.9208348E-01   2.1027647E-01   2.1075228E-01   2.1225521E-01   2.1518521E-01   2.2024500E-01   2.2374400E-01   2.2364856E-01   2.1645522E-01   2.8406328E-01   2.8229964E-01   2.7659690E-01   2.6549202E-01   2.4895719E-01   2.3571211E-01   2.1324338E-01   2.5531343E-01   2.5134844E-01   2.3930818E-01   2.2160184E-01   2.0781891E-01  -3.6710193E-03  -3.5495404E-03  -3.3889851E-03  -3.1805197E-03  -2.9126019E-03  -2.5744543E-03  -2.1630174E-03  -4.5657987E-03  -4.4277068E-03  -4.2436845E-03  -4.0024286E-03  -3.6883748E-03  -3.2861969E-03  -2.7897728E-03  -2.2140141E-03  -5.5100089E-03  -5.3625763E-03  -5.1621352E-03  -4.8938910E-03  -4.5365714E-03  -4.0681264E-03  -3.4776782E-03  -2.7837448E-03  -6.6065015E-03  -6.4555183E-03  -6.2429369E-03  -5.9490772E-03  -5.5448608E-03  -4.9992320E-03  -4.2956327E-03  -3.4567234E-03  -7.9570748E-03  -7.8077731E-03  -7.5862180E-03  -7.2660055E-03  -6.8079256E-03  -6.1718849E-03  -5.3344285E-03  -4.3188347E-03  -9.6495859E-03  -9.5083453E-03  -9.2823207E-03  -8.9379074E-03  -8.4312726E-03  -7.7141635E-03  -6.7467215E-03  -5.5361032E-03  -1.1754221E-02  -1.1629520E-02  -1.1408299E-02  -1.1059920E-02  -1.0546770E-02  -9.8116463E-03  -8.7794662E-03  -7.3888684E-03  -1.4328218E-02  -1.4229879E-02  -1.4033334E-02  -1.3728461E-02  -1.3301738E-02  -1.2694006E-02  -1.1765775E-02  -1.0292465E-02  -1.7427091E-02  -1.7365839E-02  -1.7220333E-02  -1.7023373E-02  -1.6814729E-02  -1.6561093E-02  -1.6040588E-02  -1.4741221E-02  -2.1117328E-02  -2.1099707E-02  -2.1023709E-02  -2.0983903E-02  -2.1108264E-02  -2.1442864E-02  -2.1717951E-02  -2.1035919E-02  -2.5474576E-02  -2.5496593E-02  -2.5483266E-02  -2.5594030E-02  -2.6070287E-02  -2.7093930E-02  -2.8427154E-02  -2.8763210E-02  -3.0583678E-02  -3.0629255E-02  -3.0641155E-02  -3.0825134E-02  -3.1522978E-02  -3.3053279E-02  -3.5181556E-02  -3.5832539E-02  -3.6547180E-02  -3.6594771E-02  -3.6579650E-02  -3.6717288E-02  -3.7387576E-02  -3.8902879E-02  -4.0720053E-02  -3.9838132E-02  -4.3492407E-02  -4.3525875E-02  -4.3444514E-02  -4.3434355E-02  -4.3840177E-02  -4.4828329E-02  -4.5389615E-02  -4.2729340E-02  -5.1575102E-02  -5.1590536E-02  -5.1435445E-02  -5.1250458E-02  -5.1297516E-02  -5.1604208E-02  -5.0911497E-02  -4.7388606E-02  -6.0979631E-02  -6.0986366E-02  -6.0775474E-02  -6.0454797E-02  -6.0236044E-02  -6.0059775E-02  -5.8733340E-02  -5.5198677E-02  -7.1914576E-02  -7.1937196E-02  -7.1698271E-02  -7.1303576E-02  -7.0947841E-02  -7.0579104E-02  -6.9189832E-02  -6.6020355E-02  -8.4606297E-02  -8.4692374E-02  -8.4465265E-02  -8.4037930E-02  -8.3627596E-02  -8.3259583E-02  -8.2043059E-02  -7.9310790E-02  -9.9291243E-02  -9.9516690E-02  -9.9366888E-02  -9.8961420E-02  -9.8542728E-02  -9.8216362E-02  -9.7142279E-02  -9.4603114E-02  -1.1620759E-01  -1.1668433E-01  -1.1671271E-01  -1.1641950E-01  -1.1606452E-01  -1.1580180E-01  -1.1477622E-01  -1.1227404E-01  -1.3557786E-01  -1.3646685E-01  -1.3682337E-01  -1.3678356E-01  -1.3661587E-01  -1.3646561E-01  -1.3542707E-01  -1.3296349E-01  -1.5756848E-01  -1.5909517E-01  -1.5999892E-01  -1.6043225E-01  -1.6066532E-01  -1.6074745E-01  -1.5960422E-01  -1.5713421E-01  -1.8218781E-01  -1.8465593E-01  -1.8641798E-01  -1.8765652E-01  -1.8865508E-01  -1.8925172E-01  -1.8784994E-01  -1.8519366E-01  -2.0907599E-01  -2.1286798E-01  -2.1590030E-01  -2.1840978E-01  -2.2074667E-01  -2.2241056E-01  -2.2060066E-01  -2.1725647E-01  -2.3717083E-01  -2.4272147E-01  -2.4751088E-01  -2.5188917E-01  -2.5635833E-01  -2.6004857E-01  -2.5782847E-01  -2.5290489E-01  -2.6431522E-01  -2.7204320E-01  -2.7907309E-01  -2.8594255E-01  -2.9351103E-01  -3.0065536E-01  -2.9842907E-01  -2.9037547E-01  -2.8693306E-01  -2.9710585E-01  -3.0670130E-01  -3.1653157E-01  -3.2808864E-01  -3.4068060E-01  -3.3941412E-01  -3.2635713E-01  -2.9988900E-01  -3.1242827E-01  -3.2455492E-01  -3.3747754E-01  -3.5372922E-01  -3.7365291E-01  -3.7541088E-01  -3.5558960E-01  -2.9659325E-01  -3.1093204E-01  -3.2508639E-01  -3.4068173E-01  -3.6171088E-01  -3.9045343E-01  -3.9768469E-01  -3.7041098E-01  -2.6877478E-01  -2.8388855E-01  -2.9908794E-01  -3.1623578E-01  -3.4127223E-01  -3.7850854E-01  -3.9319065E-01  -3.5948664E-01  -2.0569378E-01  -2.2029555E-01  -2.3538399E-01  -2.5266907E-01  -2.7928185E-01  -3.2161871E-01  -3.4292957E-01  -3.0655551E-01  -9.4955340E-02  -1.0770099E-01  -1.2170447E-01  -1.3862325E-01  -1.6425626E-01  -2.0306695E-01  -2.2572696E-01  -1.9258112E-01   7.3095143E-02   6.3182637E-02   5.0700769E-02   3.4203902E-02   1.2411430E-02  -1.1173032E-02  -3.6503732E-02  -7.8135580E-03   2.9828885E-01   2.9130927E-01   2.8018019E-01   2.6633397E-01   2.5832921E-01   2.5490016E-01   2.0707512E-01   2.3336744E-01   5.6392092E-01   5.5888033E-01   5.4786259E-01   5.3729123E-01   5.4299080E-01   5.4613882E-01   4.7176191E-01   4.9726558E-01   8.3424091E-01   8.2943833E-01   8.1651318E-01   8.0639625E-01   8.1758273E-01   8.1846619E-01   7.1244466E-01   7.4497563E-01   1.0607744E+00   1.0544012E+00   1.0368102E+00   1.0218990E+00   1.0280613E+00   1.0083892E+00   8.7718272E-01   9.2158437E-01   1.2033827E+00   1.1938596E+00   1.1690520E+00   1.1421525E+00   1.1280700E+00   1.0821340E+00   9.3820894E-01   9.9675071E-01   1.2540662E+00   1.2405889E+00   1.2088460E+00   1.1709738E+00   1.1387086E+00   1.0731680E+00   9.2386228E-01   9.9183971E-01   1.2352108E+00   1.2179571E+00   1.1808590E+00   1.1354415E+00   1.0920430E+00   1.0158758E+00   8.6564165E-01   9.3685973E-01   1.1791492E+00   1.1591930E+00   1.1190659E+00   1.0701410E+00   1.0229779E+00   9.4405675E-01   7.9460663E-01   8.6595207E-01   1.1101182E+00   1.0889852E+00   1.0483096E+00   9.9957401E-01   9.5454681E-01   8.7976217E-01   7.3194480E-01   8.0092025E-01   1.0366135E+00   1.0158305E+00   9.7675848E-01   9.3070394E-01   8.9037490E-01   8.2162941E-01   6.7791981E-01   7.4475181E-01   9.5425808E-01   9.3508559E-01   8.9932442E-01   8.5779852E-01   8.2311773E-01   7.6035249E-01   6.2437654E-01   6.8879062E-01   8.5483670E-01   8.3813632E-01   8.0695367E-01   7.7129519E-01   7.4275947E-01   6.8674529E-01   5.6236267E-01   6.2496704E-01   7.3579764E-01   7.2185612E-01   6.9597268E-01   6.6705739E-01   6.4411187E-01   5.9616661E-01   4.8721266E-01   5.4866195E-01   6.0471821E-01   5.9314263E-01   5.7249874E-01   5.5045319E-01   5.3320223E-01   4.9446326E-01   4.0355003E-01   4.6242678E-01   4.7604960E-01   4.6615309E-01   4.5008010E-01   4.3459129E-01   4.2341810E-01   3.9458898E-01   3.2127464E-01   3.7790871E-01   3.6309782E-01   3.5451567E-01   3.4234995E-01   3.3282188E-01   3.2868069E-01   3.0804285E-01   2.4873815E-01   3.0533662E-01   2.7274263E-01   2.6571405E-01   2.5724816E-01   2.5269133E-01   2.5571373E-01   2.4142435E-01   1.9227400E-01   2.4685553E-01   2.0548196E-01   2.0074335E-01   1.9608678E-01   1.9555952E-01   2.0392565E-01   1.9423749E-01   1.5156312E-01   2.0003670E-01   1.5797146E-01   1.5636604E-01   1.5545386E-01   1.5819302E-01   1.6899952E-01   1.6402072E-01   1.2541845E-01   1.6101737E-01   1.2590119E-01   1.2789556E-01   1.2994349E-01   1.3479438E-01   1.4575595E-01   1.4226887E-01   1.1185141E-01   1.4791526E-01   1.0589026E-01   1.1109836E-01   1.1470407E-01   1.1968639E-01   1.2881327E-01   1.2940428E-01   1.1828680E-01   1.8121886E-01   9.5797017E-02   1.0276200E-01   1.0585672E-01   1.0861911E-01   1.1411008E-01   1.1806928E-01   1.3076979E-01   2.2146302E-01   9.3991123E-02   1.0041163E-01   1.0081208E-01   9.9713475E-02   1.0224994E-01   1.0581839E-01   1.4238364E-01   9.8033756E-02   1.0133269E-01   9.7501740E-02   9.3746282E-02   9.6228436E-02   1.0629658E-01   1.6050261E-01   1.0426745E-01   1.0254282E-01   9.5942773E-02   9.6475445E-02   1.0305651E-01   1.2663537E-01   1.0877148E-01   1.0333553E-01   1.0272364E-01   1.1344288E-01   1.3224474E-01   1.6015449E-01   1.1135035E-01   1.1286376E-01   1.2656675E-01   1.4932820E-01   1.7075036E-01   1.2522838E-01   1.4216858E-01   1.6962305E-01   1.9165820E-01   1.6365708E-01   1.8824860E-01   2.1419483E-01   1.9917342E-01   2.0504765E-01   2.1088158E-01   2.0145231E-01 
VonMises3D 1 2975 float
  0.0000000E+00   0.0000000E+00   0.0000000E+00   0.0000000E+00   0.0000000E+00   0.0000000E+00   0.0000000E+00   0.0000000E+00   0.0000000E+00   0.0000000E+00   0.0000000E+00   0.0000000E+00   0.0000000E+00  -4.6895973E-08  -2.0002381E-23  -2.2374195E-07  -1.6134094E-06  -3.8994017E-07  -2.8616705E-06  -9.7453221E-06  -3.1269342E-06  -1.2138504E-05  -3.1901491E-05  -1.0683410E-05  -3.2219661E-05  -7.4854208E-05  -2.4222179E-05  -6.4576314E-05  -1.4060394E-04  -4.2672604E-05  -1.0692337E-04  -2.2510163E-04  -6.3481959E-05  -1.5473447E-04  -3.2066659E-04  -8.4585976E-05  -2.0473730E-04  -4.2203776E-04  -1.0627501E-04  -2.5827656E-04  -5.3257926E-04  -1.3202493E-04  -3.2277268E-04  -6.6623441E-04  -1.6885843E-04  -4.1353155E-04  -8.5144729E-04  -2.2876936E-04  -5.5698375E-04  -1.1369048E-03  -3.3139085E-04  -7.9535018E-04  -1.5984992E-03  -5.0985318E-04  -1.1944389E-03  -2.3477231E-03  -8.1406825E-04  -1.8326184E-03  -3.5013771E-03  -1.2876841E-03  -2.7265153E-03  -5.0514382E-03  -3.7748963E-03  -6.7977696E-03   0.0000000E+00   0.0000000E+00   0.0000000E+00   0.0000000E+00   0.0000000E+00   0.0000000E+00   0.0000000E+00   0.0000000E+00   0.0000000E+00   0.0000000E+00   0.0000000E+00   0.0000000E+00   0.0000000E+00   0.0000000E+00   0.0000000E+00   0.0000000E+00   0.0000000E+00   0.0000000E+00   0.0000000E+00   0.0000000E+00   0.0000000E+00   0.0000000E+00   0.0000000E+00   0.0000000E+00   0.0000000E+00  -9.7942037E-09  -6.4716417E-08  -1.5656418E-07  -2.3611959E-07  -2.7877792E-07  -3.0724217E-07  -3.2910668E-07  -4.3221189E-07  -1.4872816E-06  -3.2996427E-06  -5.6074355E-06  -7.9264837E-06  -9.8272067E-06  -1.1140540E-05  -1.2000538E-05  -5.2321775E-06  -1.1828565E-05  -2.1340455E-05  -3.2663978E-05  -4.4027522E-05  -5.3845353E-05  -6.1371611E-05  -6.6701832E-05  -2.3367818E-05  -4.5235432E-05  -7.4850257E-05  -1.0911444E-04  -1.4329673E-04  -1.7326322E-04  -1.9697957E-04  -2.1445217E-04  -6.7065244E-05  -1.2053255E-04  -1.9082872E-04  -2.7084019E-04  -3.5018765E-04  -4.1997072E-04  -4.7582798E-04  -5.1763415E-04  -1.4703105E-04  -2.5387938E-04  -3.9218293E-04  -5.4802117E-04  -7.0144655E-04  -8.3592243E-04  -9.4374391E-04  -1.0248412E-03  -2.6618695E-04  -4.4969024E-04  -6.8527483E-04  -9.4855722E-04  -1.2051607E-03  -1.4282645E-03  -1.6064596E-03  -1.7402865E-03  -4.1798165E-04  -6.9780520E-04  -1.0544721E-03  -1.4492300E-03  -1.8287560E-03  -2.1554176E-03  -2.4145527E-03  -2.6079218E-03  -5.8961555E-04  -9.7747077E-04  -1.4660176E-03  -7.7213836E-04  -1.2730489E-03  -9.7238162E-04  -1.5971650E-03  -1.2144974E-03  -1.9894203E-03  -1.5441303E-03  -2.5128473E-03  -2.0381508E-03  -3.2715762E-03  -2.8131190E-03  -4.4182385E-03  -4.0332843E-03  -6.1566662E-03  -5.8670281E-03  -8.6923838E-03  -8.3166705E-03  -1.2063389E-02  -1.1099468E-02  -1.5991896E-02   0.0000000E+00   0.0000000E+00   0.0000000E+00   0.0000000E+00   0.0000000E+00   0.0000000E+00   0.0000000E+00   0.0000000E+00   0.0000000E+00   0.0000000E+00   0.0000000E+00   0.0000000E+00   0.0000000E+00   0.0000000E+00   0.0000000E+00   0.0000000E+00   0.0000000E+00   0.0000000E+00   0.0000000E+00   0.0000000E+00   0.0000000E+00   0.0000000E+00   0.0000000E+00   0.0000000E+00   0.0000000E+00   0.0000000E+00   0.0000000E+00  -3.4525164E-07  -3.5669129E-07  -3.6445104E-07  -3.6947463E-07  -3.7256009E-07  -3.7433452E-07  -3.7527474E-07  -3.7572386E-07  -3.7590769E-07  -1.2623563E-05  -1.3073027E-05  -1.3384451E-05  -1.3591060E-05  -1.3721718E-05  -1.3799908E-05  -1.3843745E-05  -1.3866362E-05  -1.3876575E-05  -7.0361115E-05  -7.2949377E-05  -7.4755786E-05  -7.5964439E-05  -7.6736447E-05  -7.7204233E-05  -7.7470620E-05  -7.7610799E-05  -7.7675533E-05  -2.2678381E-04  -2.3533541E-04  -2.4125958E-04  -2.4522978E-04  -2.4777019E-04  -2.4931214E-04  -2.5019184E-04  -2.5065549E-04  -2.5087001E-04  -5.4760120E-04  -5.6851353E-04  -5.8282266E-04  -5.9236732E-04  -5.9844478E-04  -6.0210895E-04  -6.0417980E-04  -6.0525810E-04  -6.0574978E-04  -1.0832766E-03  -1.1241809E-03  -1.1520265E-03  -1.1703916E-03  -1.1819492E-03  -1.1888080E-03  -1.1925988E-03  -1.1945140E-03  -1.1953567E-03  -1.8365594E-03  -1.9037251E-03  -1.9491359E-03  -1.9786272E-03  -1.9968131E-03  -2.0072986E-03  -2.0128558E-03  -2.0154945E-03  -2.0165648E-03  -2.7459394E-03  -2.8412552E-03  -2.9048203E-03  -2.9451926E-03  -2.9692587E-03  -2.9824446E-03  -2.9888761E-03  -2.9915217E-03  -2.9923611E-03   0.0000000E+00   0.0000000E+00   0.0000000E+00   0.0000000E+00   0.0000000E+00   0.0000000E+00   0.0000000E+00   0.0000000E+00   0.0000000E+00   0.0000000E+00   0.0000000E+00   0.0000000E+00   0.0000000E+00   0.0000000E+00   0.0000000E+00   0.0000000E+00   0.0000000E+00   0.0000000E+00   0.0000000E+00   0.0000000E+00   0.0000000E+00   0.0000000E+00   0.0000000E+00   0.0000000E+00  -3.7595501E-07  -3.7590786E-07  -3.7572391E-07  -3.7527471E-07  -3.7433452E-07  -3.7256018E-07  -3.6947463E-07  -3.6445098E-07  -1.3879433E-05  -1.3876577E-05  -1.3866360E-05  -1.3843744E-05  -1.3799910E-05  -1.3721719E-05  -1.3591063E-05  -1.3384451E-05  -7.7693941E-05  -7.7675519E-05  -7.7610799E-05  -7.7470591E-05  -7.7204248E-05  -7.6736476E-05  -7.5964454E-05  -7.4755822E-05  -2.5093110E-04  -2.5086995E-04  -2.5065549E-04  -2.5019184E-04  -2.4931223E-04  -2.4777022E-04  -2.4522986E-04  -2.4125961E-04  -6.0588849E-04  -6.0574990E-04  -6.0525833E-04  -6.0418021E-04  -6.0210936E-04  -5.9844484E-04  -5.9236714E-04  -5.8282260E-04  -1.1955880E-03  -1.1953571E-03  -1.1945146E-03  -1.1925992E-03  -1.1888080E-03  -1.1819495E-03  -1.1703912E-03  -1.1520266E-03  -2.0168389E-03  -2.0165648E-03  -2.0154943E-03  -2.0128549E-03  -2.0072991E-03  -1.9968122E-03  -1.9786272E-03  -1.9491357E-03  -2.9925192E-03  -2.9923618E-03  -2.9915222E-03  -2.9888761E-03  -2.9824455E-03  -2.9692589E-03  -2.9451929E-03  -2.9048200E-03   0.0000000E+00   0.0000000E+00   0.0000000E+00   0.0000000E+00   0.0000000E+00   0.0000000E+00   0.0000000E+00   0.0000000E+00   0.0000000E+00   0.0000000E+00   0.0000000E+00   0.0000000E+00   0.0000000E+00   0.0000000E+00   0.0000000E+00   0.0000000E+00   0.0000000E+00   0.0000000E+00   0.0000000E+00   0.0000000E+00   0.0000000E+00   0.0000000E+00   0.0000000E+00   0.0000000E+00   0.0000000E+00   0.0000000E+00   0.0000000E+00  -3.5669123E-07  -3.4525183E-07  -3.2910680E-07  -3.0724220E-07  -2.7877797E-07  -2.3611962E-07  -1.5656423E-07  -6.4716410E-08  -9.7942037E-09  -1.3073026E-05  -1.2623567E-05  -1.2000540E-05  -1.1140540E-05  -9.8272067E-06  -7.9264837E-06  -5.6074364E-06  -3.2996436E-06  -1.4872819E-06  -7.2949391E-05  -7.0361137E-05  -6.6701868E-05  -6.1371618E-05  -5.3845346E-05  -4.4027533E-05  -3.2663993E-05  -2.1340456E-05  -1.1828569E-05  -2.3533552E-04  -2.2678381E-04  -2.1445220E-04  -1.9697958E-04  -1.7326325E-04  -1.4329675E-04  -1.0911447E-04  -7.4850272E-05  -4.5235443E-05  -5.6851364E-04  -5.4760120E-04  -5.1763438E-04  -4.7582816E-04  -4.1997086E-04  -3.5018771E-04  -2.7084028E-04  -1.9082875E-04  -1.2053258E-04  -1.1241809E-03  -1.0832769E-03  -1.0248417E-03  -9.4374444E-04  -8.3592255E-04  -7.0144661E-04  -5.4802123E-04  -3.9218314E-04  -2.5387952E-04  -1.9037252E-03  -1.8365590E-03  -1.7402867E-03  -1.6064601E-03  -1.4282652E-03  -1.2051609E-03  -9.4855728E-04  -6.8527518E-04  -4.4969033E-04  -2.8412552E-03  -2.7459403E-03  -2.6079218E-03  -2.4145520E-03  -2.1554171E-03  -1.8287563E-03  -1.4492298E-03  -1.0544722E-03  -6.9780531E-04  -1.4660174E-03  -9.7747124E-04  -1.2730493E-03  -1.5971658E-03  -1.9894214E-03  -2.5128478E-03  -3.2715765E-03  -4.4182381E-03  -6.1566667E-03  -8.6923866E-03  -1.2063391E-02  -1.5991900E-02   0.0000000E+00   0.0000000E+00   0.0000000E+00   0.0000000E+00   0.0000000E+00   0.0000000E+00   0.0000000E+00   0.0000000E+00   0.0000000E+00   0.0000000E+00   0.0000000E+00   0.0000000E+00   0.0000000E+00   0.0000000E+00   0.0000000E+00  -4.3221192E-07  -4.6895984E-08   0.0000000E+00   0.0000000E+00  -5.2321789E-06  -1.6134096E-06  -2.2374198E-07  -2.0002376E-23  -2.3367824E-05  -9.7453267E-06  -2.8616707E-06  -3.8994031E-07  -6.7065259E-05  -3.1901498E-05  -1.2138504E-05  -3.1269356E-06  -1.4703111E-04  -7.4854208E-05  -3.2219657E-05  -1.0683418E-05  -2.6618707E-04  -1.4060395E-04  -6.4576299E-05  -2.4222192E-05  -4.1798168E-04  -2.2510166E-04  -1.0692336E-04  -4.2672611E-05  -5.8961561E-04  -3.2066670E-04  -1.5473443E-04  -6.3481966E-05  -7.7213871E-04  -4.2203785E-04  -2.0473728E-04  -8.4585998E-05  -9.7238203E-04  -5.3257920E-04  -2.5827656E-04  -1.0627501E-04  -1.2144977E-03  -6.6623453E-04  -3.2277266E-04  -1.3202493E-04  -1.5441311E-03  -8.5144758E-04  -4.1353158E-04  -1.6885843E-04  -2.0381510E-03  -1.1369053E-03  -5.5698387E-04  -2.2876945E-04  -2.8131194E-03  -1.5984996E-03  -7.9535035E-04  -3.3139097E-04  -4.0332838E-03  -2.3477231E-03  -1.1944391E-03  -5.0985324E-04  -5.8670295E-03  -3.5013773E-03  -1.8326185E-03  -8.1406819E-04  -8.3166715E-03  -5.0514382E-03  -2.7265158E-03  -1.2876841E-03  -1.1099470E-02  -6.7977705E-03  -3.7748974E-03   0.0000000E+00   0.0000000E+00   0.0000000E+00   0.0000000E+00   0.0000000E+00   0.0000000E+00   0.0000000E+00   0.0000000E+00   0.0000000E+00   0.0000000E+00   0.0000000E+00   0.0000000E+00   0.0000000E+00   0.0000000E+00   0.0000000E+00   0.0000000E+00   0.0000000E+00   0.0000000E+00   0.0000000E+00   0.0000000E+00   0.0000000E+00   0.0000000E+00   0.0000000E+00   0.0000000E+00   0.0000000E+00   0.0000000E+00   0.0000000E+00   0.0000000E+00   0.0000000E+00   0.0000000E+00   0.0000000E+00   0.0000000E+00   0.0000000E+00   0.0000000E+00   0.0000000E+00   0.0000000E+00   0.0000000E+00   0.0000000E+00   0.0000000E+00   0.0000000E+00   0.0000000E+00   0.0000000E+00   0.0000000E+00   0.0000000E+00   0.0000000E+00   0.0000000E+00   0.0000000E+00   0.0000000E+00   0.0000000E+00   0.0000000E+00   0.0000000E+00   0.0000000E+00   0.0000000E+00   0.0000000E+00   0.0000000E+00   0.0000000E+00   0.0000000E+00   0.0000000E+00   0.0000000E+00   0.0000000E+00   0.0000000E+00   0.0000000E+00   0.0000000E+00   0.0000000E+00   0.0000000E+00   0.0000000E+00   0.0000000E+00   0.0000000E+00   0.0000000E+00   0.0000000E+00   0.0000000E+00   0.0000000E+00   0.0000000E+00   0.0000000E+00   0.0000000E+00   0.0000000E+00   0.0000000E+00   0.0000000E+00   0.0000000E+00   0.0000000E+00   0.0000000E+00   0.0000000E+00   0.0000000E+00   0.0000000E+00   0.0000000E+00   0.0000000E+00   0.0000000E+00   0.0000000E+00   0.0000000E+00   0.0000000E+00   0.0000000E+00   0.0000000E+00   0.0000000E+00   0.0000000E+00   0.0000000E+00   0.0000000E+00   0.0000000E+00   0.0000000E+00   0.0000000E+00   0.0000000E+00   0.0000000E+00   0.0000000E+00   0.0000000E+00   0.0000000E+00   0.0000000E+00   0.0000000E+00   0.0000000E+00   0.0000000E+00   0.0000000E+00   0.0000000E+00   0.0000000E+00   0.0000000E+00   0.0000000E+00   0.0000000E+00   0.0000000E+00   0.0000000E+00   0.0000000E+00   0.0000000E+00   0.0000000E+00   0.0000000E+00   0.0000000E+00   0.0000000E+00   0.0000000E+00   0.0000000E+00   0.0000000E+00   0.0000000E+00   0.0000000E+00   0.0000000E+00   0.0000000E+00   0.0000000E+00   0.0000000E+00   0.0000000E+00   0.0000000E+00   0.0000000E+00   0.0000000E+00   0.0000000E+00   0.0000000E+00   0.0000000E+00   0.0000000E+00   0.0000000E+00   0.0000000E+00   0.0000000E+00   0.0000000E+00   0.0000000E+00   0.0000000E+00   0.0000000E+00   0.0000000E+00   0.0000000E+00   0.0000000E+00   0.0000000E+00   0.0000000E+00   0.0000000E+00   0.0000000E+00   0.0000000E+00   0.0000000E+00   0.0000000E+00   0.0000000E+00   0.0000000E+00   0.0000000E+00   0.0000000E+00   0.0000000E+00   0.0000000E+00   0.0000000E+00   0.0000000E+00   0.0000000E+00   0.0000000E+00   0.0000000E+00   0.0000000E+00   0.0000000E+00   0.0000000E+00   0.0000000E+00   0.0000000E+00   0.0000000E+00   0.0000000E+00   0.0000000E+00   0.0000000E+00   0.0000000E+00   0.0000000E+00   0.0000000E+00   0.0000000E+00   0.0000000E+00   0.0000000E+00   0.0000000E+00   0.0000000E+00   0.0000000E+00   0.0000000E+00   0.0000000E+00   0.0000000E+00   0.0000000E+00   0.0000000E+00   0.0000000E+00   0.0000000E+00   0.0000000E+00   0.0000000E+00   0.0000000E+00   0.0000000E+00   0.0000000E+00   0.0000000E+00   0.0000000E+00   0.0000000E+00   0.0000000E+00   0.0000000E+00   0.0000000E+00   0.0000000E+00   0.0000000E+00   0.0000000E+00   0.0000000E+00   0.0000000E+00   0.0000000E+00   0.0000000E+00   0.0000000E+00   0.0000000E+00   0.0000000E+00   0.0000000E+00   0.0000000E+00   0.0000000E+00   0.0000000E+00   0.0000000E+00   0.0000000E+00   0.0000000E+00   0.0000000E+00   0.0000000E+00   0.0000000E+00   0.0000000E+00   0.0000000E+00   0.0000000E+00   0.0000000E+00   0.0000000E+00   0.0000000E+00   0.0000000E+00   0.0000000E+00   0.0000000E+00   0.0000000E+00   0.0000000E+00   0.0000000E+00   0.0000000E+00   0.0000000E+00   0.0000000E+00   0.0000000E+00   0.0000000E+00   0.0000000E+00   0.0000000E+00   0.0000000E+00   0.0000000E+00   0.0000000E+00   0.0000000E+00   0.0000000E+00   0.0000000E+00   0.0000000E+00   0.0000000E+00   0.0000000E+00   0.0000000E+00   0.0000000E+00   0.0000000E+00   0.0000000E+00   0.0000000E+00   0.0000000E+00   0.0000000E+00   0.0000000E+00   0.0000000E+00   0.0000000E+00   0.0000000E+00   0.0000000E+00   0.0000000E+00   0.0000000E+00   0.0000000E+00   0.0000000E+00   0.0000000E+00   0.0000000E+00   0.0000000E+00   0.0000000E+00   0.0000000E+00   0.0000000E+00   0.0000000E+00   0.0000000E+00   0.0000000E+00   0.0000000E+00   0.0000000E+00   0.0000000E+00   0.0000000E+00   0.0000000E+00   0.0000000E+00   0.0000000E+00   0.0000000E+00   0.0000000E+00   0.0000000E+00   0.0000000E+00   0.0000000E+00   0.0000000E+00   0.0000000E+00   0.0000000E+00   0.0000000E+00   0.0000000E+00   0.0000000E+00   0.0000000E+00   0.0000000E+00   0.0000000E+00   0.0000000E+00   0.0000000E+00   0.0000000E+00   0.0000000E+00   0.0000000E+00   0.0000000E+00   0.0000000E+00   0.0000000E+00   0.0000000E+00   0.0000000E+00   0.0000000E+00   0.0000000E+00   0.0000000E+00   0.0000000E+00   0.0000000E+00   0.0000000E+00   0.0000000E+00   0.0000000E+00   0.0000000E+00   0.0000000E+00   0.0000000E+00   0.0000000E+00   0.0000000E+00   0.0000000E+00   0.0000000E+00   0.0000000E+00   0.0000000E+00   0.0000000E+00   0.0000000E+00   0.0000000E+00   0.0000000E+00   0.0000000E+00   0.0000000E+00   0.0000000E+00   0.0000000E+00   0.0000000E+00   0.0000000E+00   0.0000000E+00   0.0000000E+00   0.0000000E+00   0.0000000E+00   0.0000000E+00   0.0000000E+00   0.0000000E+00   0.0000000E+00   0.0000000E+00   0.0000000E+00   0.0000000E+00   0.0000000E+00   0.0000000E+00   0.0000000E+00   0.0000000E+00   0.0000000E+00   0.0000000E+00   0.0000000E+00   0.0000000E+00   0.0000000E+00   0.0000000E+00   0.0000000E+00   0.0000000E+00   0.0000000E+00   0.0000000E+00   0.0000000E+00   0.0000000E+00   0.0000000E+00   0.0000000E+00   0.0000000E+00   0.0000000E+00   0.0000000E+00   0.0000000E+00   0.0000000E+00   0.0000000E+00   0.0000000E+00   0.0000000E+00   0.0000000E+00   0.0000000E+00   0.0000000E+00   0.0000000E+00   0.0000000E+00   0.0000000E+00   0.0000000E+00   0.0000000E+00   0.0000000E+00   0.0000000E+00   0.0000000E+00   0.0000000E+00   0.0000000E+00   0.0000000E+00   0.0000000E+00   0.0000000E+00   0.0000000E+00   0.0000000E+00   0.0000000E+00   0.0000000E+00   0.0000000E+00   0.0000000E+00   0.0000000E+00   0.0000000E+00   0.0000000E+00   0.0000000E+00   0.0000000E+00   0.0000000E+00   0.0000000E+00   0.0000000E+00   0.0000000E+00   0.0000000E+00   0.0000000E+00   0.0000000E+00   0.0000000E+00   0.0000000E+00   0.0000000E+00   0.0000000E+00   0.0000000E+00   0.0000000E+00   0.0000000E+00   0.0000000E+00   0.0000000E+00   0.0000000E+00   0.0000000E+00   0.0000000E+00   0.0000000E+00   0.0000000E+00   0.0000000E+00   0.0000000E+00   0.0000000E+00   0.0000000E+00   0.0000000E+00   0.0000000E+00   0.0000000E+00   0.0000000E+00   0.0000000E+00   0.0000000E+00   0.0000000E+00   0.0000000E+00   0.0000000E+00   0.0000000E+00   0.0000000E+00   0.0000000E+00   0.0000000E+00   0.0000000E+00   0.0000000E+00   0.0000000E+00   0.0000000E+00   0.0000000E+00   0.0000000E+00   0.0000000E+00   0.0000000E+00   0.0000000E+00   0.0000000E+00   0.0000000E+00   0.0000000E+00   0.0000000E+00   0.0000000E+00   0.0000000E+00   0.0000000E+00   0.0000000E+00   0.0000000E+00   0.0000000E+00   0.0000000E+00   0.0000000E+00   0.0000000E+00   0.0000000E+00   0.0000000E+00   0.0000000E+00   0.0000000E+00   0.0000000E+00   0.0000000E+00   0.0000000E+00   0.0000000E+00   0.0000000E+00   0.0000000E+00   0.0000000E+00   0.0000000E+00   0.0000000E+00   0.0000000E+00  -1.9958215E-03  -2.4994106E-03  -2.9295590E-03  -3.2676281E-03  -3.5168412E-03  -1.8966307E-03  -2.5630156E-03  -3.1896608E-03  -3.7189736E-03  -4.1287364E-03  -4.4248560E-03  -2.3694814E-03  -3.1902599E-03  -3.9526233E-03  -4.5854468E-03  -5.0646625E-03  -5.4014171E-03  -2.9423260E-03  -3.9469479E-03  -4.8678350E-03  -5.6172400E-03  -6.1697913E-03  -6.5447772E-03  -3.6981842E-03  -4.9226992E-03  -6.0277721E-03  -6.9101676E-03  -7.5439694E-03  -7.9572499E-03  -4.7967331E-03  -6.2677548E-03  -7.5618112E-03  -8.5732359E-03  -9.2849098E-03  -9.7342767E-03  -6.5100240E-03  -8.2280561E-03  -9.6623171E-03  -1.0749674E-02  -1.1499926E-02  -1.1963888E-02  -9.2445165E-03  -1.1140408E-02  -1.2577057E-02  -1.3613154E-02  -1.4312769E-02  -1.4738477E-02  -1.3485770E-02  -1.5354313E-02  -1.6543448E-02  -1.7331753E-02  -1.7852232E-02  -1.8161975E-02  -1.9513128E-02  -2.1016216E-02  -2.1662347E-02  -2.2009283E-02  -2.2231227E-02  -2.2348737E-02  -2.6878884E-02  -2.7808761E-02  -2.7796535E-02  -2.7646769E-02  -2.7529206E-02  -2.7412210E-02  -3.4284271E-02  -3.5072573E-02  -3.4684960E-02  -3.4204733E-02  -3.3815350E-02  -3.3467244E-02  -4.1697107E-02  -4.2650070E-02  -4.2302571E-02  -4.1749489E-02  -4.1202269E-02  -4.0646970E-02  -5.0082792E-02  -5.1137201E-02  -5.1003255E-02  -5.0512318E-02  -4.9868725E-02  -4.9110241E-02  -6.0268018E-02  -6.1258823E-02  -6.1261725E-02  -6.0795553E-02  -6.0028154E-02  -5.9034858E-02  -7.2770223E-02  -7.3492132E-02  -7.3429957E-02  -7.2860263E-02  -7.1894847E-02  -7.0614792E-02  -8.7689057E-02  -8.7986439E-02  -8.7701276E-02  -8.6925000E-02  -8.5696541E-02  -8.4073849E-02  -1.0489316E-01  -1.0480113E-01  -1.0427753E-01  -1.0326241E-01  -1.0172085E-01  -9.9681906E-02  -1.2455677E-01  -1.2427380E-01  -1.2356170E-01  -1.2227302E-01  -1.2032490E-01  -1.1773916E-01  -1.4752044E-01  -1.4709751E-01  -1.4612591E-01  -1.4441893E-01  -1.4187936E-01  -1.3854712E-01  -1.7468332E-01  -1.7395072E-01  -1.7250559E-01  -1.7013140E-01  -1.6673067E-01  -1.6238216E-01  -2.0672078E-01  -2.0540711E-01  -2.0317179E-01  -1.9978049E-01  -1.9515863E-01  -1.8945399E-01  -2.4419053E-01  -2.4190088E-01  -2.3843598E-01  -2.3356566E-01  -2.2727461E-01  -2.1981883E-01  -2.8723782E-01  -2.8344047E-01  -2.7818304E-01  -2.7127740E-01  -2.6281223E-01  -2.5319526E-01  -3.3504713E-01  -3.2911658E-01  -3.2143655E-01  -3.1191611E-01  -3.0079633E-01  -2.8866956E-01  -3.8515738E-01  -3.7650657E-01  -3.6584699E-01  -3.5325325E-01  -3.3915809E-01  -3.2435155E-01  -4.3288073E-01  -4.2117015E-01  -4.0725574E-01  -3.9145282E-01  -3.7440628E-01  -3.5707906E-01  -4.7104120E-01  -4.5642322E-01  -4.3952054E-01  -4.2093825E-01  -4.0151319E-01  -3.8231027E-01  -4.8993981E-01  -4.7334394E-01  -4.5459080E-01  -4.3452719E-01  -4.1407117E-01  -3.9426014E-01  -4.7731292E-01  -4.6069050E-01  -4.4234037E-01  -4.2318973E-01  -4.0401602E-01  -3.8559869E-01  -4.1907707E-01  -4.0530720E-01  -3.9050341E-01  -3.7548965E-01  -3.6067054E-01  -3.4629795E-01  -3.0209950E-01  -2.9444554E-01  -2.8652117E-01  -2.7894896E-01  -2.7162042E-01  -2.6410788E-01  -1.1955230E-01  -1.2081899E-01  -1.2245376E-01  -1.2484117E-01  -1.2738390E-01  -1.2897782E-01   1.2208783E-01   1.1052652E-01   9.8017678E-02   8.4637083E-02   7.1400642E-02   5.9868053E-02   3.9679074E-01   3.7610796E-01   3.5362855E-01   3.3044535E-01   3.0790439E-01   2.8758907E-01   6.5765339E-01   6.3268268E-01   6.0459691E-01   5.7574785E-01   5.4767728E-01   5.2154583E-01   8.5093099E-01   8.2830447E-01   8.0180985E-01   7.7364677E-01   7.4508882E-01   7.1682703E-01   9.4535381E-01   9.2926365E-01   9.0975785E-01   8.8734704E-01   8.6236668E-01   8.3519477E-01   9.4727612E-01   9.3861586E-01   9.2723387E-01   9.1207874E-01   8.9249372E-01   8.6850828E-01   8.8936919E-01   8.8696498E-01   8.8222939E-01   8.7329131E-01   8.5887450E-01   8.3870202E-01   8.0945587E-01   8.1103396E-01   8.1034255E-01   8.0539674E-01   7.9469991E-01   7.7776015E-01   7.3338240E-01   7.3635006E-01   7.3699301E-01   7.3359960E-01   7.2471029E-01   7.0971590E-01   6.6869241E-01   6.7079413E-01   6.7052352E-01   6.6654074E-01   6.5755683E-01   6.4297378E-01   6.0882956E-01   6.0852164E-01   6.0572553E-01   5.9945846E-01   5.8870584E-01   5.7306373E-01   5.4317182E-01   5.3955650E-01   5.3314364E-01   5.2328080E-01   5.0936460E-01   4.9141756E-01   4.6647906E-01   4.5898849E-01   4.4818571E-01   4.3370956E-01   4.1553673E-01   3.9440051E-01   3.8245365E-01   3.7066925E-01   3.5494381E-01   3.3520174E-01   3.1219226E-01   2.8765783E-01   3.0096364E-01   2.8458816E-01   2.6371258E-01   2.3867467E-01   2.1115339E-01   1.8388677E-01   2.3231529E-01   2.1127793E-01   1.8540989E-01   1.5575638E-01   1.2478510E-01   9.5809519E-02   1.8161933E-01   1.5641192E-01   1.2623188E-01   9.3190424E-02   6.0137756E-02   3.0416269E-02   1.4785418E-01   1.1936150E-01   8.5851572E-02   5.0879478E-02   1.7308924E-02  -1.2094550E-02   1.2708831E-01   9.4823584E-02   5.9018701E-02   2.3695817E-02  -8.5887853E-03  -3.6245111E-02   1.1820626E-01   7.7235453E-02   3.8920749E-02   4.8105316E-03  -2.4087194E-02  -4.8144534E-02   1.2571216E-01   6.5250434E-02   2.1671697E-02  -1.1055979E-02  -3.4725334E-02  -5.3221647E-02   1.4614452E-01   5.9857883E-02   7.0861280E-03  -2.5471341E-02  -4.3430861E-02  -5.4973949E-02   6.0924318E-02  -1.8733449E-03  -3.5806108E-02  -5.0384376E-02  -5.5055972E-02   6.8838082E-02   2.9986224E-04  -3.7509821E-02  -5.3283609E-02  -5.4081142E-02   1.7270427E-02  -2.6239056E-02  -4.7594823E-02  -5.1081765E-02   4.5786500E-02   1.6007532E-03  -2.8259374E-02  -4.0989678E-02   3.9155420E-02   7.5290212E-03  -1.6659014E-02   5.1511407E-02   2.5526265E-02   7.2984353E-02   7.0553884E-02  -3.6919890E-03  -3.8106795E-03  -3.8879341E-03  -3.9352430E-03  -3.9618360E-03  -3.9750109E-03  -3.9802552E-03  -3.9814687E-03  -3.9812294E-03  -4.6278615E-03  -4.7613070E-03  -4.8447507E-03  -4.8927385E-03  -4.9168430E-03  -4.9261469E-03  -4.9273688E-03  -4.9252254E-03  -4.9227909E-03  -5.6242920E-03  -5.7643717E-03  -5.8465428E-03  -5.8887624E-03  -5.9051020E-03  -5.9063951E-03  -5.9005185E-03  -5.8928975E-03  -5.8870362E-03  -6.7818160E-03  -6.9216602E-03  -6.9956733E-03  -7.0258789E-03  -7.0291529E-03  -7.0181484E-03  -7.0018889E-03  -6.9864891E-03  -6.9758315E-03  -8.2039479E-03  -8.3371392E-03  -8.3961654E-03  -8.4079579E-03  -8.3925268E-03  -8.3645210E-03  -8.3341757E-03  -8.3083445E-03  -8.2912976E-03  -9.9851694E-03  -1.0104143E-02  -1.0140385E-02  -1.0126438E-02  -1.0085721E-02  -1.0035103E-02  -9.9862106E-03  -9.9466909E-03  -9.9212928E-03  -1.2207703E-02  -1.2301913E-02  -1.2305347E-02  -1.2256407E-02  -1.2182143E-02  -1.2101864E-02  -1.2028749E-02  -1.1971422E-02  -1.1935139E-02  -1.4947991E-02  -1.5001711E-02  -1.4958558E-02  -1.4862368E-02  -1.4743832E-02  -1.4624813E-02  -1.4520229E-02  -1.4439780E-02  -1.4389410E-02  -1.8293044E-02  -1.8280936E-02  -1.8172210E-02  -1.8012470E-02  -1.7835699E-02  -1.7666256E-02  -1.7520895E-02  -1.7410561E-02  -1.7341977E-02  -2.2350429E-02  -2.2237981E-02  -2.2038188E-02  -2.1793511E-02  -2.1540420E-02  -2.1305591E-02  -2.1107625E-02  -2.0958830E-02  -2.0866854E-02  -2.7240949E-02  -2.6988665E-02  -2.6665065E-02  -2.6307955E-02  -2.5955373E-02  -2.5636068E-02  -2.5370482E-02  -2.5172438E-02  -2.5050532E-02  -3.3093136E-02  -3.2659899E-02  -3.2173056E-02  -3.1669259E-02  -3.1188039E-02  -3.0760130E-02  -3.0408071E-02  -3.0147264E-02  -2.9987320E-02  -4.0046420E-02  -3.9389312E-02  -3.8693994E-02  -3.8002472E-02  -3.7356753E-02  -3.6790453E-02  -3.6328588E-02  -3.5988338E-02  -3.5780437E-02  -4.8252996E-02  -4.7325362E-02  -4.6371248E-02  -4.5443825E-02  -4.4590607E-02  -4.3849904E-02  -4.3250032E-02  -4.2810302E-02  -4.2542413E-02  -5.7878628E-02  -5.6628887E-02  -5.5359770E-02  -5.4140307E-02  -5.3028665E-02  -5.2070700E-02  -5.1299535E-02  -5.0736737E-02  -5.0394904E-02  -6.9107994E-02  -6.7476876E-02  -6.5826416E-02  -6.4248614E-02  -6.2818728E-02  -6.1593775E-02  -6.0612839E-02  -5.9900064E-02  -5.9468385E-02  -8.2152501E-02  -8.0063656E-02  -7.7949233E-02  -7.5933762E-02  -7.4116029E-02  -7.2567374E-02  -7.1333773E-02  -7.0441291E-02  -6.9902532E-02  -9.7250365E-02  -9.4598025E-02  -9.1914982E-02  -8.9367181E-02  -8.7081999E-02  -8.5146859E-02  -8.3614387E-02  -8.2511097E-02  -8.1847362E-02  -1.1465361E-01  -1.1129539E-01  -1.0791413E-01  -1.0472389E-01  -1.0188314E-01  -9.9495217E-02  -9.7616747E-02  -9.6271902E-02  -9.5466085E-02  -1.3461034E-01  -1.3036683E-01  -1.2613504E-01  -1.2218066E-01  -1.1869235E-01  -1.1578578E-01  -1.1351724E-01  -1.1190340E-01  -1.1094075E-01  -1.5734552E-01  -1.5200570E-01  -1.4675720E-01  -1.4191446E-01  -1.3769086E-01  -1.3420723E-01  -1.3151205E-01  -1.2960844E-01  -1.2847880E-01  -1.8302666E-01  -1.7636399E-01  -1.6993475E-01  -1.6409194E-01  -1.5906154E-01  -1.5495825E-01  -1.5181391E-01  -1.4960983E-01  -1.4830898E-01  -2.1169011E-01  -2.0348759E-01  -1.9574139E-01  -1.8882029E-01  -1.8294284E-01  -1.7820334E-01  -1.7460585E-01  -1.7210343E-01  -1.7063425E-01  -2.4307665E-01  -2.3316641E-01  -2.2402740E-01  -2.1600707E-01  -2.0928952E-01  -2.0393167E-01  -1.9990006E-01  -1.9711457E-01  -1.9548707E-01  -2.7636018E-01  -2.6467311E-01  -2.5416052E-01  -2.4509935E-01  -2.3760635E-01  -2.3168534E-01  -2.2726084E-01  -2.2421890E-01  -2.2244740E-01  -3.0982229E-01  -2.9643950E-01  -2.8469333E-01  -2.7473789E-01  -2.6659206E-01  -2.6019606E-01  -2.5543442E-01  -2.5216800E-01  -2.5026780E-01  -3.4057716E-01  -3.2578385E-01  -3.1308147E-01  -3.0246454E-01  -2.9383686E-01  -2.8707743E-01  -2.8204161E-01  -2.7858022E-01  -2.7656251E-01  -3.6446542E-01  -3.4880871E-01  -3.3558518E-01  -3.2462603E-01  -3.1573284E-01  -3.0874214E-01  -3.0350181E-01  -2.9987410E-01  -2.9774657E-01  -3.7615934E-01  -3.6048803E-01  -3.4735855E-01  -3.3648029E-01  -3.2760012E-01  -3.2054827E-01  -3.1519780E-01  -3.1144837E-01  -3.0922738E-01  -3.6880329E-01  -3.5425958E-01  -3.4202722E-01  -3.3178160E-01  -3.2328489E-01  -3.1641847E-01  -3.1111446E-01  -3.0733716E-01  -3.0507165E-01  -3.3284631E-01  -3.2086477E-01  -3.1052938E-01  -3.0162770E-01  -2.9402521E-01  -2.8771469E-01  -2.8272972E-01  -2.7911419E-01  -2.7691796E-01  -2.5631902E-01  -2.4861993E-01  -2.4140289E-01  -2.3476115E-01  -2.2877154E-01  -2.2358927E-01  -2.1937206E-01  -2.1625046E-01  -2.1432932E-01  -1.2889175E-01  -1.2718351E-01  -1.2442548E-01  -1.2113585E-01  -1.1769657E-01  -1.1444403E-01  -1.1165059E-01  -1.0951357E-01  -1.0817315E-01   5.1253583E-02   4.5828752E-02   4.2975068E-02   4.1811951E-02   4.1662969E-02   4.2044241E-02   4.2620525E-02   4.3173458E-02   4.3561392E-02   2.7080661E-01   2.5807622E-01   2.4894981E-01   2.4244694E-01   2.3776245E-01   2.3437767E-01   2.3197795E-01   2.3037668E-01   2.2946012E-01   4.9844247E-01   4.7915789E-01   4.6370637E-01   4.5138848E-01   4.4155052E-01   4.3380502E-01   4.2793939E-01   4.2382988E-01   4.2139712E-01   6.8985617E-01   6.6541040E-01   6.4422786E-01   6.2624955E-01   6.1126113E-01   5.9914386E-01   5.8982766E-01   5.8324271E-01   5.7932311E-01   8.0695504E-01   7.7937967E-01   7.5396323E-01   7.3145133E-01   7.1222943E-01   6.9651920E-01   6.8439144E-01   6.7580903E-01   6.7069983E-01   8.4130287E-01   8.1293708E-01   7.8546524E-01   7.6035345E-01   7.3856282E-01   7.2063959E-01   7.0678174E-01   6.9697940E-01   6.9114667E-01   8.1385821E-01   7.8647703E-01   7.5891930E-01   7.3315465E-01   7.1056014E-01   6.9190496E-01   6.7747188E-01   6.6726655E-01   6.6119927E-01   7.5547689E-01   7.2989935E-01   7.0350158E-01   6.7850024E-01   6.5645975E-01   6.3823617E-01   6.2413734E-01   6.1417186E-01   6.0825032E-01   6.8935031E-01   6.6555870E-01   6.4080286E-01   6.1729908E-01   5.9657776E-01   5.7945812E-01   5.6622183E-01   5.5687064E-01   5.5131507E-01   6.2348169E-01   6.0097134E-01   5.7779646E-01   5.5596977E-01   5.3682899E-01   5.2106547E-01   5.0889975E-01   5.0030953E-01   4.9520558E-01   5.5335712E-01   5.3147566E-01   5.0957572E-01   4.8933703E-01   4.7179461E-01   4.5744520E-01   4.4640851E-01   4.3862459E-01   4.3399933E-01   4.7058561E-01   4.4880655E-01   4.2795867E-01   4.0928078E-01   3.9341217E-01   3.8058367E-01   3.7077695E-01   3.6387917E-01   3.5978362E-01   3.7195554E-01   3.5017672E-01   3.3053505E-01   3.1370091E-01   2.9982767E-01   2.8882268E-01   2.8049901E-01   2.7467701E-01   2.7122965E-01   2.6382574E-01   2.4254952E-01   2.2470815E-01   2.1030135E-01   1.9895381E-01   1.9022857E-01   1.8375877E-01   1.7928816E-01   1.7666014E-01   1.5947850E-01   1.3946933E-01   1.2405477E-01   1.1256076E-01   1.0411783E-01   9.7974181E-02   9.3598381E-02   9.0659484E-02   8.8963702E-02   7.1561597E-02   5.3229228E-02   4.0389813E-02   3.1785868E-02   2.6143212E-02   2.2462087E-02   2.0080827E-02   1.8605240E-02   1.7803416E-02   6.6046100E-03  -1.0260696E-02  -2.0995438E-02  -2.7295087E-02  -3.0728202E-02  -3.2466400E-02  -3.3264857E-02  -3.3570837E-02  -3.3653852E-02  -3.5310935E-02  -5.1351052E-02  -6.0913596E-02  -6.5885805E-02  -6.8014324E-02  -6.8573132E-02  -6.8380892E-02  -6.7937486E-02  -6.7553252E-02  -5.8363851E-02  -7.4116245E-02  -8.3607078E-02  -8.8374861E-02  -9.0194337E-02  -9.0382181E-02  -8.9813881E-02  -8.9054130E-02  -8.8462539E-02  -6.8104312E-02  -8.3558358E-02  -9.3856573E-02  -9.9472784E-02  -1.0189385E-01  -1.0242244E-01  -1.0200766E-01  -1.0130190E-01  -1.0072391E-01  -6.9341056E-02  -8.3709694E-02  -9.5101386E-02  -1.0239487E-01  -1.0618373E-01  -1.0765806E-01  -1.0783628E-01  -1.0748108E-01  -1.0708869E-01  -6.5514341E-02  -7.7291511E-02  -8.9092560E-02  -9.8427646E-02  -1.0423931E-01  -1.0724928E-01  -1.0846169E-01  -1.0873909E-01  -1.0868403E-01  -5.8824655E-02  -6.6200390E-02  -7.6833397E-02  -8.7634176E-02  -9.5921315E-02  -1.0111248E-01  -1.0392925E-01  -1.0523713E-01  -1.0573550E-01  -5.1188435E-02  -5.2664533E-02  -5.9940286E-02  -7.0407227E-02  -8.0633052E-02  -8.8437162E-02  -9.3474887E-02  -9.6346721E-02  -9.7742006E-02  -4.4321466E-02  -3.9426204E-02  -4.1236442E-02  -4.8766691E-02  -5.8808886E-02  -6.8314165E-02  -7.5629599E-02  -8.0411777E-02  -8.2999036E-02  -3.8066912E-02  -2.9032441E-02  -2.4194473E-02  -2.6175315E-02  -3.3043809E-02  -4.1694429E-02  -4.9669024E-02  -5.5689465E-02  -5.9297699E-02  -2.5353488E-02  -2.1106614E-02  -1.1886256E-02  -6.6251806E-03  -7.3284241E-03  -1.2027448E-02  -1.8019635E-02  -2.3402726E-02  -2.7000234E-02   3.4417212E-03  -5.2037691E-03  -2.3692315E-03   6.6217934E-03   1.3556866E-02   1.5672013E-02   1.4352073E-02   1.1778117E-02   9.5818928E-03   4.7759563E-02   3.0754110E-02   2.0969765E-02   2.0080954E-02   2.7240250E-02   3.5589684E-02   4.0861156E-02   4.3099746E-02   4.3651029E-02   7.5381622E-02   7.0444688E-02   6.3583121E-02   5.7746809E-02   5.1611107E-02   5.2163091E-02   5.7388600E-02   6.2814564E-02   6.6293910E-02   7.3761217E-02   8.6076126E-02   9.5237598E-02   1.0109598E-01   1.0453575E-01   1.0533483E-01   1.0678812E-01   1.0815766E-01   8.1108861E-02   1.0294104E-01   1.2342122E-01   1.4768088E-01   1.6355762E-01   1.7193931E-01   7.0692845E-02   9.4255015E-02   1.1885117E-01   1.3386874E-01  -3.9809919E-03  -3.9812289E-03  -3.9814692E-03  -3.9802557E-03  -3.9750119E-03  -3.9618360E-03  -3.9352421E-03  -3.8879341E-03  -4.9217949E-03  -4.9227918E-03  -4.9252249E-03  -4.9273693E-03  -4.9261465E-03  -4.9168440E-03  -4.8927395E-03  -4.8447493E-03  -5.8848760E-03  -5.8870390E-03  -5.8929003E-03  -5.9005185E-03  -5.9063965E-03  -5.9051034E-03  -5.8887638E-03  -5.8465442E-03  -6.9720531E-03  -6.9758301E-03  -6.9864895E-03  -7.0018899E-03  -7.0181503E-03  -7.0291539E-03  -7.0258817E-03  -6.9956761E-03  -8.2853716E-03  -8.2912985E-03  -8.3083436E-03  -8.3341757E-03  -8.3645210E-03  -8.3925305E-03  -8.4079579E-03  -8.3961664E-03  -9.9125532E-03  -9.9212918E-03  -9.9466937E-03  -9.9862115E-03  -1.0035103E-02  -1.0085727E-02  -1.0126438E-02  -1.0140386E-02  -1.1922758E-02  -1.1935144E-02  -1.1971419E-02  -1.2028752E-02  -1.2101863E-02  -1.2182141E-02  -1.2256411E-02  -1.2305350E-02  -1.4372277E-02  -1.4389403E-02  -1.4439774E-02  -1.4520228E-02  -1.4624815E-02  -1.4743831E-02  -1.4862367E-02  -1.4958564E-02  -1.7318752E-02  -1.7341981E-02  -1.7410556E-02  -1.7520893E-02  -1.7666258E-02  -1.7835690E-02  -1.8012470E-02  -1.8172218E-02  -2.0835767E-02  -2.0866858E-02  -2.0958837E-02  -2.1107614E-02  -2.1305580E-02  -2.1540422E-02  -2.1793509E-02  -2.2038186E-02  -2.5009425E-02  -2.5050545E-02  -2.5172420E-02  -2.5370471E-02  -2.5636058E-02  -2.5955370E-02  -2.6307955E-02  -2.6665067E-02  -2.9933473E-02  -2.9987330E-02  -3.0147247E-02  -3.0408064E-02  -3.0760132E-02  -3.1188034E-02  -3.1669270E-02  -3.2173045E-02  -3.5710540E-02  -3.5780437E-02  -3.5988353E-02  -3.6328603E-02  -3.6790445E-02  -3.7356719E-02  -3.8002469E-02  -3.8693991E-02  -4.2452518E-02  -4.2542424E-02  -4.2810287E-02  -4.3250017E-02  -4.3849885E-02  -4.4590604E-02  -4.5443825E-02  -4.6371274E-02  -5.0280329E-02  -5.0394908E-02  -5.0736722E-02  -5.1299527E-02  -5.2070700E-02  -5.3028662E-02  -5.4140314E-02  -5.5359773E-02  -5.9323937E-02  -5.9468366E-02  -5.9900030E-02  -6.0612872E-02  -6.1593771E-02  -6.2818743E-02  -6.4248644E-02  -6.5826386E-02  -6.9722518E-02  -6.9902554E-02  -7.0441313E-02  -7.1333796E-02  -7.2567366E-02  -7.4116074E-02  -7.5933821E-02  -7.7949241E-02  -8.1626013E-02  -8.1847370E-02  -8.2511112E-02  -8.3614387E-02  -8.5146874E-02  -8.7081991E-02  -8.9367181E-02  -9.1914974E-02  -9.5197894E-02  -9.5466122E-02  -9.6271910E-02  -9.7616777E-02  -9.9495254E-02  -1.0188314E-01  -1.0472385E-01  -1.0791413E-01  -1.1062117E-01  -1.1094075E-01  -1.1190340E-01  -1.1351725E-01  -1.1578583E-01  -1.1869239E-01  -1.2218060E-01  -1.2613507E-01  -1.2810472E-01  -1.2847884E-01  -1.2960850E-01  -1.3151208E-01  -1.3420725E-01  -1.3769086E-01  -1.4191446E-01  -1.4675723E-01  -1.4787944E-01  -1.4830896E-01  -1.4960980E-01  -1.5181386E-01  -1.5495826E-01  -1.5906145E-01  -1.6409190E-01  -1.6993487E-01  -1.7015055E-01  -1.7063431E-01  -1.7210342E-01  -1.7460591E-01  -1.7820334E-01  -1.8294278E-01  -1.8882030E-01  -1.9574143E-01  -1.9495244E-01  -1.9548704E-01  -1.9711465E-01  -1.9990005E-01  -2.0393179E-01  -2.0928964E-01  -2.1600710E-01  -2.2402750E-01  -2.2186650E-01  -2.2244735E-01  -2.2421886E-01  -2.2726075E-01  -2.3168534E-01  -2.3760645E-01  -2.4509937E-01  -2.5416055E-01  -2.4964517E-01  -2.5026795E-01  -2.5216812E-01  -2.5543454E-01  -2.6019600E-01  -2.6659203E-01  -2.7473798E-01  -2.8469327E-01  -2.7590033E-01  -2.7656269E-01  -2.7858019E-01  -2.8204173E-01  -2.8707734E-01  -2.9383692E-01  -3.0246457E-01  -3.1308135E-01  -2.9704577E-01  -2.9774657E-01  -2.9987422E-01  -3.0350175E-01  -3.0874205E-01  -3.1573287E-01  -3.2462600E-01  -3.3558512E-01  -3.0849180E-01  -3.0922753E-01  -3.1144857E-01  -3.1519783E-01  -3.2054833E-01  -3.2759991E-01  -3.3648029E-01  -3.4735835E-01  -3.0431628E-01  -3.0507168E-01  -3.0733716E-01  -3.1111437E-01  -3.1641832E-01  -3.2328472E-01  -3.3178157E-01  -3.4202728E-01  -2.7618068E-01  -2.7691802E-01  -2.7911425E-01  -2.8272960E-01  -2.8771466E-01  -2.9402530E-01  -3.0162776E-01  -3.1052962E-01  -2.1368028E-01  -2.1432918E-01  -2.1625043E-01  -2.1937209E-01  -2.2358926E-01  -2.2877151E-01  -2.3476093E-01  -2.4140279E-01  -1.0771620E-01  -1.0817308E-01  -1.0951365E-01  -1.1165058E-01  -1.1444396E-01  -1.1769649E-01  -1.2113576E-01  -1.2442539E-01   4.3700155E-02   4.3561425E-02   4.3173470E-02   4.2620558E-02   4.2044252E-02   4.1663028E-02   4.1811906E-02   4.2974994E-02   2.2916198E-01   2.2946022E-01   2.3037675E-01   2.3197806E-01   2.3437765E-01   2.3776254E-01   2.4244699E-01   2.4894989E-01   4.2059174E-01   4.2139706E-01   4.2383006E-01   4.2793953E-01   4.3380511E-01   4.4155067E-01   4.5138845E-01   4.6370628E-01   5.7802230E-01   5.7932299E-01   5.8324307E-01   5.8982772E-01   5.9914416E-01   6.1126095E-01   6.2624991E-01   6.4422786E-01   6.6900361E-01   6.7069942E-01   6.7580938E-01   6.8439114E-01   6.9651932E-01   7.1222961E-01   7.3145109E-01   7.5396347E-01   6.8921179E-01   6.9114709E-01   6.9697911E-01   7.0678186E-01   7.2063929E-01   7.3856288E-01   7.6035303E-01   7.8546518E-01   6.5918726E-01   6.6119951E-01   6.6726649E-01   6.7747205E-01   6.9190520E-01   7.1056008E-01   7.3315442E-01   7.5891888E-01   6.0628712E-01   6.0825002E-01   6.1417174E-01   6.2413740E-01   6.3823628E-01   6.5645987E-01   6.7850029E-01   7.0350170E-01   5.4947329E-01   5.5131501E-01   5.5687064E-01   5.6622189E-01   5.7945782E-01   5.9657729E-01   6.1729914E-01   6.4080352E-01   4.9351346E-01   4.9520576E-01   5.0030947E-01   5.0889981E-01   5.2106553E-01   5.3682888E-01   5.5596977E-01   5.7779634E-01   4.3246549E-01   4.3399930E-01   4.3862477E-01   4.4640842E-01   4.5744520E-01   4.7179469E-01   4.8933682E-01   5.0957566E-01   3.5842553E-01   3.5978359E-01   3.6387902E-01   3.7077671E-01   3.8058367E-01   3.9341220E-01   4.0928078E-01   4.2795876E-01   2.7008793E-01   2.7122971E-01   2.7467695E-01   2.8049910E-01   2.8882250E-01   2.9982764E-01   3.1370097E-01   3.3053514E-01   1.7579268E-01   1.7666022E-01   1.7928807E-01   1.8375875E-01   1.9022854E-01   1.9895384E-01   2.1030127E-01   2.2470817E-01   8.8409081E-02   8.8963725E-02   9.0659440E-02   9.3598351E-02   9.7974233E-02   1.0411787E-01   1.1256073E-01   1.2405477E-01   1.7549535E-02   1.7803386E-02   1.8605234E-02   2.0080818E-02   2.2462089E-02   2.6143175E-02   3.1785838E-02   4.0389806E-02  -3.3665206E-02  -3.3653889E-02  -3.3570848E-02  -3.3264875E-02  -3.2466441E-02  -3.0728245E-02  -2.7295137E-02  -2.0995464E-02  -6.7405634E-02  -6.7553245E-02  -6.7937478E-02  -6.8380944E-02  -6.8573169E-02  -6.8014383E-02  -6.5885857E-02  -6.0913634E-02  -8.8243037E-02  -8.8462576E-02  -8.9054152E-02  -8.9813903E-02  -9.0382248E-02  -9.0194412E-02  -8.8374883E-02  -8.3607212E-02  -1.0050632E-01  -1.0072394E-01  -1.0130195E-01  -1.0200772E-01  -1.0242245E-01  -1.0189388E-01  -9.9472798E-02  -9.3856633E-02  -1.0692947E-01  -1.0708872E-01  -1.0748106E-01  -1.0783629E-01  -1.0765807E-01  -1.0618372E-01  -1.0239497E-01  -9.5101431E-02  -1.0863090E-01  -1.0868411E-01  -1.0873914E-01  -1.0846172E-01  -1.0724934E-01  -1.0423933E-01  -9.8427691E-02  -8.9092597E-02  -1.0585432E-01  -1.0573547E-01  -1.0523709E-01  -1.0392929E-01  -1.0111249E-01  -9.5921345E-02  -8.7634221E-02  -7.6833412E-02  -9.8148912E-02  -9.7742029E-02  -9.6346691E-02  -9.3474850E-02  -8.8437140E-02  -8.0633059E-02  -7.0407301E-02  -5.9940271E-02  -8.3806567E-02  -8.2999058E-02  -8.0411755E-02  -7.5629599E-02  -6.8314165E-02  -5.8808848E-02  -4.8766684E-02  -4.1236408E-02  -6.0490418E-02  -5.9297688E-02  -5.5689454E-02  -4.9669005E-02  -4.1694447E-02  -3.3043809E-02  -2.6175290E-02  -2.4194481E-02  -2.8254751E-02  -2.7000222E-02  -2.3402711E-02  -1.8019646E-02  -1.2027441E-02  -7.3284190E-03  -6.6251792E-03  -1.1886228E-02   8.7531516E-03   9.5818769E-03   1.1778125E-02   1.4352083E-02   1.5672022E-02   1.3556902E-02   6.6217962E-03  -2.3692236E-03   4.3707673E-02   4.3651044E-02   4.3099754E-02   4.0861182E-02   3.5589710E-02   2.7240299E-02   2.0080991E-02   2.0969812E-02   6.7427121E-02   6.6293947E-02   6.2814571E-02   5.7388622E-02   5.2163072E-02   5.1611125E-02   5.7746835E-02   6.3583083E-02   1.0871249E-01   1.0815775E-01   1.0678806E-01   1.0533497E-01   1.0453577E-01   1.0109620E-01   9.5237762E-02   8.6076178E-02   1.7461601E-01   1.7193921E-01   1.6355766E-01   1.4768074E-01   1.2342120E-01   1.0294104E-01   8.1108779E-02   1.3870271E-01   1.3386872E-01   1.1885114E-01   9.4255030E-02   7.0692867E-02  -3.8106791E-03  -3.6919899E-03  -3.5168405E-03  -3.2676281E-03  -2.9295592E-03  -2.4994111E-03  -1.9958224E-03  -4.7613075E-03  -4.6278620E-03  -4.4248574E-03  -4.1287383E-03  -3.7189745E-03  -3.1896611E-03  -2.5630156E-03  -1.8966319E-03  -5.7643726E-03  -5.6242920E-03  -5.4014204E-03  -5.0646644E-03  -4.5854496E-03  -3.9526257E-03  -3.1902606E-03  -2.3694811E-03  -6.9216602E-03  -6.7818188E-03  -6.5447809E-03  -6.1697932E-03  -5.6172404E-03  -4.8678382E-03  -3.9469497E-03  -2.9423267E-03  -8.3371392E-03  -8.2039470E-03  -7.9572527E-03  -7.5439694E-03  -6.9101681E-03  -6.0277740E-03  -4.9227001E-03  -3.6981842E-03  -1.0104144E-02  -9.9851741E-03  -9.7342804E-03  -9.2849145E-03  -8.5732359E-03  -7.5618140E-03  -6.2677558E-03  -4.7967327E-03  -1.2301912E-02  -1.2207706E-02  -1.1963890E-02  -1.1499934E-02  -1.0749678E-02  -9.6623218E-03  -8.2280571E-03  -6.5100244E-03  -1.5001713E-02  -1.4947993E-02  -1.4738484E-02  -1.4312773E-02  -1.3613161E-02  -1.2577058E-02  -1.1140412E-02  -9.2445184E-03  -1.8280948E-02  -1.8293058E-02  -1.8161986E-02  -1.7852239E-02  -1.7331760E-02  -1.6543452E-02  -1.5354314E-02  -1.3485768E-02  -2.2237973E-02  -2.2350434E-02  -2.2348735E-02  -2.2231229E-02  -2.2009276E-02  -2.1662340E-02  -2.1016221E-02  -1.9513128E-02  -2.6988652E-02  -2.7240960E-02  -2.7412204E-02  -2.7529208E-02  -2.7646765E-02  -2.7796544E-02  -2.7808763E-02  -2.6878893E-02  -3.2659896E-02  -3.3093147E-02  -3.3467252E-02  -3.3815343E-02  -3.4204733E-02  -3.4684964E-02  -3.5072576E-02  -3.4284271E-02  -3.9389342E-02  -4.0046431E-02  -4.0647000E-02  -4.1202284E-02  -4.1749492E-02  -4.2302582E-02  -4.2650063E-02  -4.1697111E-02  -4.7325369E-02  -4.8252992E-02  -4.9110238E-02  -4.9868718E-02  -5.0512351E-02  -5.1003259E-02  -5.1137209E-02  -5.0082803E-02  -5.6628913E-02  -5.7878625E-02  -5.9034865E-02  -6.0028203E-02  -6.0795575E-02  -6.1261725E-02  -6.1258830E-02  -6.0268026E-02  -6.7476884E-02  -6.9107987E-02  -7.0614800E-02  -7.1894877E-02  -7.2860286E-02  -7.3429957E-02  -7.3492169E-02  -7.2770208E-02  -8.0063641E-02  -8.2152478E-02  -8.4073894E-02  -8.5696496E-02  -8.6924993E-02  -8.7701298E-02  -8.7986380E-02  -8.7689050E-02  -9.4598070E-02  -9.7250380E-02  -9.9681869E-02  -1.0172082E-01  -1.0326242E-01  -1.0427750E-01  -1.0480119E-01  -1.0489316E-01  -1.1129539E-01  -1.1465356E-01  -1.1773922E-01  -1.2032495E-01  -1.2227302E-01  -1.2356170E-01  -1.2427379E-01  -1.2455676E-01  -1.3036685E-01  -1.3461040E-01  -1.3854717E-01  -1.4187931E-01  -1.4441887E-01  -1.4612597E-01  -1.4709751E-01  -1.4752051E-01  -1.5200573E-01  -1.5734549E-01  -1.6238208E-01  -1.6673069E-01  -1.7013134E-01  -1.7250557E-01  -1.7395067E-01  -1.7468330E-01  -1.7636402E-01  -1.8302667E-01  -1.8945400E-01  -1.9515875E-01  -1.9978045E-01  -2.0317186E-01  -2.0540722E-01  -2.0672075E-01  -2.0348765E-01  -2.1169016E-01  -2.1981898E-01  -2.2727461E-01  -2.3356563E-01  -2.3843594E-01  -2.4190091E-01  -2.4419065E-01  -2.3316646E-01  -2.4307655E-01  -2.5319532E-01  -2.6281235E-01  -2.7127743E-01  -2.7818307E-01  -2.8344050E-01  -2.8723782E-01  -2.6467320E-01  -2.7636012E-01  -2.8866965E-01  -3.0079633E-01  -3.1191617E-01  -3.2143655E-01  -3.2911652E-01  -3.3504713E-01  -2.9643959E-01  -3.0982226E-01  -3.2435137E-01  -3.3915800E-01  -3.5325325E-01  -3.6584699E-01  -3.7650669E-01  -3.8515744E-01  -3.2578373E-01  -3.4057733E-01  -3.5707921E-01  -3.7440634E-01  -3.9145270E-01  -4.0725568E-01  -4.2117026E-01  -4.3288076E-01  -3.4880874E-01  -3.6446559E-01  -3.8231027E-01  -4.0151310E-01  -4.2093807E-01  -4.3952036E-01  -4.5642325E-01  -4.7104141E-01  -3.6048800E-01  -3.7615934E-01  -3.9426017E-01  -4.1407120E-01  -4.3452713E-01  -4.5459086E-01  -4.7334406E-01  -4.8993981E-01  -3.5425964E-01  -3.6880338E-01  -3.8559890E-01  -4.0401608E-01  -4.2318976E-01  -4.4234040E-01  -4.6069038E-01  -4.7731307E-01  -3.2086486E-01  -3.3284640E-01  -3.4629798E-01  -3.6067066E-01  -3.7548965E-01  -3.9050347E-01  -4.0530732E-01  -4.1907725E-01  -2.4862011E-01  -2.5631905E-01  -2.6410782E-01  -2.7162027E-01  -2.7894908E-01  -2.8652123E-01  -2.9444554E-01  -3.0209950E-01  -1.2718354E-01  -1.2889169E-01  -1.2897775E-01  -1.2738384E-01  -1.2484118E-01  -1.2245372E-01  -1.2081899E-01  -1.1955222E-01   4.5828741E-02   5.1253621E-02   5.9868049E-02   7.1400635E-02   8.4637158E-02   9.8017715E-02   1.1052660E-01   1.2208791E-01   2.5807622E-01   2.7080667E-01   2.8758904E-01   3.0790436E-01   3.3044553E-01   3.5362849E-01   3.7610811E-01   3.9679077E-01   4.7915816E-01   4.9844238E-01   5.2154613E-01   5.4767734E-01   5.7574791E-01   6.0459721E-01   6.3268304E-01   6.5765357E-01   6.6541082E-01   6.8985599E-01   7.1682727E-01   7.4508888E-01   7.7364677E-01   8.0180985E-01   8.2830453E-01   8.5093093E-01   7.7938008E-01   8.0695492E-01   8.3519483E-01   8.6236656E-01   8.8734704E-01   9.0975791E-01   9.2926353E-01   9.4535369E-01   8.1293660E-01   8.4130305E-01   8.6850822E-01   8.9249378E-01   9.1207850E-01   9.2723399E-01   9.3861604E-01   9.4727606E-01   7.8647679E-01   8.1385773E-01   8.3870178E-01   8.5887456E-01   8.7329125E-01   8.8222975E-01   8.8696516E-01   8.8936949E-01   7.2989869E-01   7.5547707E-01   7.7775997E-01   7.9470021E-01   8.0539697E-01   8.1034309E-01   8.1103379E-01   8.0945551E-01   6.6555876E-01   6.8935066E-01   7.0971608E-01   7.2471046E-01   7.3359954E-01   7.3699343E-01   7.3635024E-01   7.3338228E-01   6.0097152E-01   6.2348181E-01   6.4297360E-01   6.5755653E-01   6.6654068E-01   6.7052335E-01   6.7079437E-01   6.6869253E-01   5.3147584E-01   5.5335701E-01   5.7306385E-01   5.8870602E-01   5.9945869E-01   6.0572553E-01   6.0852158E-01   6.0882980E-01   4.4880661E-01   4.7058547E-01   4.9141738E-01   5.0936484E-01   5.2328098E-01   5.3314346E-01   5.3955680E-01   5.4317188E-01   3.5017666E-01   3.7195551E-01   3.9440060E-01   4.1553667E-01   4.3370953E-01   4.4818586E-01   4.5898849E-01   4.6647906E-01   2.4254963E-01   2.6382571E-01   2.8765795E-01   3.1219226E-01   3.3520174E-01   3.5494390E-01   3.7066925E-01   3.8245380E-01   1.3946921E-01   1.5947856E-01   1.8388669E-01   2.1115345E-01   2.3867460E-01   2.6371258E-01   2.8458810E-01   3.0096373E-01   5.3229209E-02   7.1561672E-02   9.5809497E-02   1.2478503E-01   1.5575640E-01   1.8540989E-01   2.1127802E-01   2.3231526E-01  -1.0260720E-02   6.6045839E-03   3.0416295E-02   6.0137749E-02   9.3190394E-02   1.2623180E-01   1.5641195E-01   1.8161933E-01  -5.1351085E-02  -3.5310991E-02  -1.2094595E-02   1.7308911E-02   5.0879437E-02   8.5851513E-02   1.1936148E-01   1.4785416E-01  -7.4116290E-02  -5.8363870E-02  -3.6245145E-02  -8.5887993E-03   2.3695819E-02   5.9018675E-02   9.4823524E-02   1.2708834E-01  -8.3558425E-02  -6.8104364E-02  -4.8144579E-02  -2.4087247E-02   4.8105041E-03   3.8920712E-02   7.7235445E-02   1.1820618E-01  -8.3709717E-02  -6.9341034E-02  -5.3221691E-02  -3.4725368E-02  -1.1056015E-02   2.1671716E-02   6.5250374E-02   1.2571201E-01  -7.7291548E-02  -6.5514416E-02  -5.4973949E-02  -4.3430924E-02  -2.5471391E-02   7.0860703E-03   5.9857748E-02   1.4614448E-01  -6.6200383E-02  -5.8824636E-02  -5.5055998E-02  -5.0384399E-02  -3.5806123E-02  -1.8733934E-03   6.0924280E-02  -5.2664544E-02  -5.1188417E-02  -5.4081198E-02  -5.3283654E-02  -3.7509818E-02   2.9987446E-04   6.8837963E-02  -3.9426193E-02  -4.4321503E-02  -5.1081784E-02  -4.7594793E-02  -2.6239041E-02   1.7270362E-02  -2.9032404E-02  -3.8066894E-02  -4.0989637E-02  -2.8259372E-02   1.6007256E-03   4.5786299E-02  -2.1106606E-02  -2.5353489E-02  -1.6659025E-02   7.5290417E-03   3.9155483E-02  -5.2037062E-03   3.4416937E-03   2.5526211E-02   5.1511563E-02   3.0754117E-02   4.7759630E-02   7.0553727E-02   7.2984241E-02   7.0444867E-02   7.5381562E-02   7.3761165E-02 
StrainDot.x 1 2975 float
  0.0000000E+00   0.0000000E+00   0.0000000E+00   0.0000000E+00   0.0000000E+00   0.0000000E+00   0.0000000E+00   0.0000000E+00   0.0000000E+00   0.0000000E+00   0.0000000E+00   0.0000000E+00   0.0000000E+00   0.0000000E+00   0.0000000E+00   0.0000000E+00   0.0000000E+00   0.0000000E+00   0.0000000E+00   0.0000000E+00   0.0000000E+00   0.0000000E+00   0.0000000E+00   0.0000000E+00   0.0000000E+00   0.0000000E+00   0.0000000E+00   0.0000000E+00   0.0000000E+00   0.0000000E+00   0.0000000E+00   0.0000000E+00   0.0000000E+00   0.0000000E+00   0.0000000E+00   0.0000000E+00   0.0000000E+00   0.0000000E+00   0.0000000E+00   0.0000000E+00   0.0000000E+00   0.0000000E+00   0.0000000E+00   0.0000000E+00   0.0000000E+00   0.0000000E+00   0.0000000E+00   0.0000000E+00   0.0000000E+00   0.0000000E+00   0.0000000E+00   0.0000000E+00   0.0000000E+00   0.0000000E+00   0.0000000E+00   0.0000000E+00   0.0000000E+00   0.0000000E+00   0.0000000E+00   0.0000000E+00   0.0000000E+00   0.0000000E+00   0.0000000E+00   0.0000000E+00   0.0000000E+00   0.0000000E+00   0.0000000E+00   0.0000000E+00   0.0000000E+00   0.0000000E+00   0.0000000E+00   0.0000000E+00   0.0000000E+00   0.0000000E+00   0.0000000E+00   0.0000000E+00   0.0000000E+00   0.0000000E+00   0.0000000E+00   0.0000000E+00   0.0000000E+00   0.0000000E+00   0.0000000E+00   0.0000000E+00   0.0000000E+00   0.0000000E+00   0.0000000E+00   0.0000000E+00   0.0000000E+00   0.0000000E+00   0.0000000E+00   0.0000000E+00   0.0000000E+00   0.0000000E+00   0.0000000E+00   0.0000000E+00   0.0000000E+00   0.0000000E+00   0.0000000E+00   0.0000000E+00   0.0000000E+00   0.0000000E+00   0.0000000E+00   0.0000000E+00   0.0000000E+00   0.0000000E+00   0.0000000E+00   0.0000000E+00   0.0000000E+00   0.0000000E+00   0.0000000E+00   0.0000000E+00   0.0000000E+00   0.0000000E+00   0.0000000E+00   0.0000000E+00   0.0000000E+00   0.0000000E+00   0.0000000E+00   0.0000000E+00   0.0000000E+00   0.0000000E+00   0.0000000E+00   0.0000000E+00   0.0000000E+00   0.0000000E+00   0.0000000E+00   0.0000000E+00   0.0000000E+00   0.0000000E+00   0.0000000E+00   0.0000000E+00   0.0000000E+00   0.0000000E+00   0.0000000E+00   0.0000000E+00   0.0000000E+00   0.0000000E+00   0.0000000E+00   0.0000000E+00   0.0000000E+00   0.0000000E+00   0.0000000E+00   0.0000000E+00   0.0000000E+00   0.0000000E+00   0.0000000E+00   0.0000000E+00   0.0000000E+00   0.0000000E+00   0.0000000E+00   0.0000000E+00   0.0000000E+00   0.0000000E+00   0.0000000E+00   0.0000000E+00   0.0000000E+00   0.0000000E+00   0.0000000E+00   0.0000000E+00   0.0000000E+00   0.0000000E+00   0.0000000E+00   0.0000000E+00   0.0000000E+00   0.0000000E+00   0.0000000E+00   0.0000000E+00   0.0000000E+00   0.0000000E+00   0.0000000E+00   0.0000000E+00   0.0000000E+00   0.0000000E+00   0.0000000E+00   0.0000000E+00   0.0000000E+00   0.0000000E+00   0.0000000E+00   0.0000000E+00   0.0000000E+00   0.0000000E+00   0.0000000E+00   0.0000000E+00   0.0000000E+00   0.0000000E+00   0.0000000E+00   0.0000000E+00   0.0000000E+00   0.0000000E+00   0.0000000E+00   0.0000000E+00   0.0000000E+00   0.0000000E+00   0.0000000E+00   0.0000000E+00   0.0000000E+00   0.0000000E+00   0.0000000E+00   0.0000000E+00   0.0000000E+00   0.0000000E+00   0.0000000E+00   0.0000000E+00   0.0000000E+00   0.0000000E+00   0.0000000E+00   0.0000000E+00   0.0000000E+00   0.0000000E+00   0.0000000E+00   0.0000000E+00   0.0000000E+00   0.0000000E+00   0.0000000E+00   0.0000000E+00   0.0000000E+00   0.0000000E+00   0.0000000E+00   0.0000000E+00   0.0000000E+00   0.0000000E+00   0.0000000E+00   0.0000000E+00   0.0000000E+00   0.0000000E+00   0.0000000E+00   0.0000000E+00   0.0000000E+00   0.0000000E+00   0.0000000E+00   0.0000000E+00   0.0000000E+00   0.0000000E+00   0.0000000E+00   0.0000000E+00   0.0000000E+00   0.0000000E+00   0.0000000E+00   0.0000000E+00   0.0000000E+00   0.0000000E+00   0.0000000E+00   0.0000000E+00   0.0000000E+00   0.0000000E+00   0.0000000E+00   0.0000000E+00   0.0000000E+00   0.0000000E+00   0.0000000E+00   0.0000000E+00   0.0000000E+00   0.0000000E+00   0.0000000E+00   0.0000000E+00   0.0000000E+00   0.0000000E+00   0.0000000E+00   0.0000000E+00   0.0000000E+00   0.0000000E+00   0.0000000E+00   0.0000000E+00   0.0000000E+00   0.0000000E+00   0.0000000E+00   0.0000000E+00   0.0000000E+00   0.0000000E+00   0.0000000E+00   0.0000000E+00   0.0000000E+00   0.0000000E+00   0.0000000E+00   0.0000000E+00   0.0000000E+00   0.0000000E+00   0.0000000E+00   0.0000000E+00   0.0000000E+00   0.0000000E+00   0.0000000E+00   0.0000000E+00   0.0000000E+00   0.0000000E+00   0.0000000E+00   0.0000000E+00   0.0000000E+00   0.0000000E+00   0.0000000E+00   0.0000000E+00   0.0000000E+00   0.0000000E+00   0.0000000E+00   0.0000000E+00   0.0000000E+00   0.0000000E+00   0.0000000E+00   0.0000000E+00   0.0000000E+00   0.0000000E+00   0.0000000E+00   0.0000000E+00   0.0000000E+00   0.0000000E+00   0.0000000E+00   0.0000000E+00   0.0000000E+00   0.0000000E+00   0.0000000E+00   0.0000000E+00   0.0000000E+00   0.0000000E+00   0.0000000E+00   0.0000000E+00   0.0000000E+00   0.0000000E+00   0.0000000E+00   0.0000000E+00   0.0000000E+00   0.0000000E+00   0.0000000E+00   0.0000000E+00   0.0000000E+00   0.0000000E+00   0.0000000E+00   0.0000000E+00   0.0000000E+00   0.0000000E+00   0.0000000E+00   0.0000000E+00   0.0000000E+00   0.0000000E+00   0.0000000E+00   0.0000000E+00   0.0000000E+00   0.0000000E+00   0.0000000E+00   0.0000000E+00   0.0000000E+00   0.0000000E+00   0.0000000E+00   0.0000000E+00   0.0000000E+00   0.0000000E+00   0.0000000E+00   0.0000000E+00   0.0000000E+00   0.0000000E+00   0.0000000E+00   0.0000000E+00   0.0000000E+00   0.0000000E+00   0.0000000E+00   0.0000000E+00   0.0000000E+00   0.0000000E+00   0.0000000E+00   0.0000000E+00   0.0000000E+00   0.0000000E+00   0.0000000E+00   0.0000000E+00   0.0000000E+00   0.0000000E+00   0.0000000E+00   0.0000000E+00   0.0000000E+00   0.0000000E+00   0.0000000E+00   0.0000000E+00   0.0000000E+00   0.0000000E+00   0.0000000E+00   0.0000000E+00   0.0000000E+00   0.0000000E+00   0.0000000E+00   0.0000000E+00   0.0000000E+00   0.0000000E+00   0.0000000E+00   0.0000000E+00   0.0000000E+00   0.0000000E+00   0.0000000E+00   0.0000000E+00   0.0000000E+00   0.0000000E+00   0.0000000E+00   0.0000000E+00   0.0000000E+00   0.0000000E+00   0.0000000E+00   0.0000000E+00   0.0000000E+00   0.0000000E+00   0.0000000E+00   0.0000000E+00   0.0000000E+00   0.0000000E+00   0.0000000E+00   0.0000000E+00   0.0000000E+00   0.0000000E+00   0.0000000E+00   0.0000000E+00   0.0000000E+00   0.0000000E+00   0.0000000E+00   0.0000000E+00   0.0000000E+00   0.0000000E+00   0.0000000E+00   0.0000000E+00   0.0000000E+00   0.0000000E+00   0.0000000E+00   0.0000000E+00   0.0000000E+00   0.0000000E+00   0.0000000E+00   0.0000000E+00   0.0000000E+00   0.0000000E+00   0.0000000E+00   0.0000000E+00   0.0000000E+00   0.0000000E+00   0.0000000E+00   0.0000000E+00   0.0000000E+00   0.0000000E+00   0.0000000E+00   0.0000000E+00   0.0000000E+00   0.0000000E+00   0.0000000E+00   0.0000000E+00   0.0000000E+00   0.0000000E+00   0.0000000E+00   0.0000000E+00   0.0000000E+00   0.0000000E+00   0.0000000E+00   0.0000000E+00   0.0000000E+00   0.0000000E+00   0.0000000E+00   0.0000000E+00   0.0000000E+00   0.0000000E+00   0.0000000E+00   0.0000000E+00   0.0000000E+00   0.0000000E+00   0.0000000E+00   0.0000000E+00   0.0000000E+00   0.0000000E+00   0.0000000E+00   0.0000000E+00   0.0000000E+00   0.0000000E+00   0.0000000E+00   0.0000000E+00   0.0000000E+00   0.0000000E+00   0.0000000E+00   0.0000000E+00   0.0000000E+00   0.0000000E+00   0.0000000E+00   0.0000000E+00   0.0000000E+00   0.0000000E+00   0.0000000E+00   0.0000000E+00   0.0000000E+00   0.0000000E+00   0.0000000E+00   0.0000000E+00   0.0000000E+00   0.0000000E+00   0.0000000E+00   0.0000000E+00   0.0000000E+00   0.0000000E+00   0.0000000E+00   0.0000000E+00   0.0000000E+00   0.0000000E+00   0.0000000E+00   0.0000000E+00   0.0000000E+00   0.0000000E+00   0.0000000E+00   0.0000000E+00   0.0000000E+00   0.0000000E+00   0.0000000E+00   0.0000000E+00   0.0000000E+00   0.0000000E+00   0.0000000E+00   0.0000000E+00   0.0000000E+00   0.0000000E+00   0.0000000E+00   0.0000000E+00   0.0000000E+00   0.0000000E+00   0.0000000E+00   0.0000000E+00   0.0000000E+00   0.0000000E+00   0.0000000E+00   0.0000000E+00   0.0000000E+00   0.0000000E+00   0.0000000E+00   0.0000000E+00   0.0000000E+00   0.0000000E+00   0.0000000E+00   0.0000000E+00   0.0000000E+00   0.0000000E+00   0.0000000E+00   0.0000000E+00   0.0000000E+00   0.0000000E+00   0.0000000E+00   0.0000000E+00   0.0000000E+00   0.0000000E+00   0.0000000E+00   0.0000000E+00   0.0000000E+00   0.0000000E+00   0.0000000E+00   0.0000000E+00   0.0000000E+00   0.0000000E+00   0.0000000E+00   0.0000000E+00   0.0000000E+00   0.0000000E+00   0.0000000E+00   0.0000000E+00   0.0000000E+00   0.0000000E+00   0.0000000E+00   0.0000000E+00   0.0000000E+00   0.0000000E+00   0.0000000E+00   0.0000000E+00   0.0000000E+00   0.0000000E+00   0.0000000E+00   0.0000000E+00   0.0000000E+00   0.0000000E+00   0.0000000E+00   0.0000000E+00   0.0000000E+00   0.0000000E+00   0.0000000E+00   0.0000000E+00   0.0000000E+00   0.0000000E+00   0.0000000E+00   0.0000000E+00   0.0000000E+00   0.0000000E+00   0.0000000E+00   0.0000000E+00   0.0000000E+00   0.0000000E+00   0.0000000E+00   0.0000000E+00   0.0000000E+00   0.0000000E+00   0.0000000E+00   0.0000000E+00   0.0000000E+00   0.0000000E+00   0.0000000E+00   0.0000000E+00   0.0000000E+00   0.0000000E+00   0.0000000E+00   0.0000000E+00   0.0000000E+00   0.0000000E+00   0.0000000E+00   0.0000000E+00   0.0000000E+00   0.0000000E+00   0.0000000E+00   0.0000000E+00   0.0000000E+00   0.0000000E+00   0.0000000E+00   0.0000000E+00   0.0000000E+00   0.0000000E+00   0.0000000E+00   0.0000000E+00   0.0000000E+00   0.0000000E+00   0.0000000E+00   0.0000000E+00   0.0000000E+00   0.0000000E+00   0.0000000E+00   0.0000000E+00   0.0000000E+00   0.0000000E+00   0.0000000E+00   0.0000000E+00   0.0000000E+00   0.0000000E+00   0.0000000E+00   0.0000000E+00   0.0000000E+00   0.0000000E+00   0.0000000E+00   0.0000000E+00   0.0000000E+00   0.0000000E+00   0.0000000E+00   0.0000000E+00   0.0000000E+00   0.0000000E+00   0.0000000E+00   0.0000000E+00   0.0000000E+00   0.0000000E+00   0.0000000E+00   0.0000000E+00   0.0000000E+00   0.0000000E+00   0.0000000E+00   0.0000000E+00   0.0000000E+00   0.0000000E+00   0.0000000E+00   0.0000000E+00   0.0000000E+00   0.0000000E+00   0.0000000E+00   0.0000000E+00   0.0000000E+00   0.0000000E+00   0.0000000E+00   0.0000000E+00   0.0000000E+00   0.0000000E+00   0.0000000E+00   0.0000000E+00   0.0000000E+00   0.0000000E+00   0.0000000E+00   0.0000000E+00   0.0000000E+00   0.0000000E+00   0.0000000E+00   0.0000000E+00   0.0000000E+00   0.0000000E+00   0.0000000E+00   0.0000000E+00   0.0000000E+00   0.0000000E+00   0.0000000E+00   0.0000000E+00   0.0000000E+00   0.0000000E+00   0.0000000E+00   0.0000000E+00   0.0000000E+00   0.0000000E+00   0.0000000E+00   0.0000000E+00   0.0000000E+00   0.0000000E+00   0.0000000E+00   0.0000000E+00   0.0000000E+00   0.0000000E+00   0.0000000E+00   0.0000000E+00   0.0000000E+00   0.0000000E+00   0.0000000E+00   0.0000000E+00   0.0000000E+00   0.0000000E+00   0.0000000E+00   0.0000000E+00   0.0000000E+00   0.0000000E+00   0.0000000E+00   0.0000000E+00   0.0000000E+00   0.0000000E+00   0.0000000E+00   0.0000000E+00   0.0000000E+00   0.0000000E+00   0.0000000E+00   0.0000000E+00   0.0000000E+00   0.0000000E+00   0.0000000E+00   0.0000000E+00   0.0000000E+00   0.0000000E+00   0.0000000E+00   0.0000000E+00   0.0000000E+00   0.0000000E+00   0.0000000E+00   0.0000000E+00   0.0000000E+00   0.0000000E+00   0.0000000E+00   0.0000000E+00   0.0000000E+00   0.0000000E+00   0.0000000E+00   0.0000000E+00   0.0000000E+00   0.0000000E+00   0.0000000E+00   0.0000000E+00   0.0000000E+00   0.0000000E+00   0.0000000E+00   0.0000000E+00   0.0000000E+00   0.0000000E+00   0.0000000E+00   0.0000000E+00   0.0000000E+00   0.0000000E+00   0.0000000E+00   0.0000000E+00   0.0000000E+00   0.0000000E+00   0.0000000E+00   0.0000000E+00   0.0000000E+00   0.0000000E+00   0.0000000E+00   0.0000000E+00   0.0000000E+00   0.0000000E+00   0.0000000E+00   0.0000000E+00   0.0000000E+00   0.0000000E+00   0.0000000E+00   0.0000000E+00   0.0000000E+00   0.0000000E+00   0.0000000E+00   0.0000000E+00   0.0000000E+00   0.0000000E+00   0.0000000E+00   0.0000000E+00   0.0000000E+00   0.0000000E+00   0.0000000E+00   0.0000000E+00   0.0000000E+00   0.0000000E+00   0.0000000E+00   0.0000000E+00   0.0000000E+00   0.0000000E+00   0.0000000E+00   0.0000000E+00   0.0000000E+00   0.0000000E+00   0.0000000E+00   0.0000000E+00   0.0000000E+00   0.0000000E+00   0.0000000E+00   0.0000000E+00   0.0000000E+00   0.0000000E+00   0.0000000E+00   0.0000000E+00   0.0000000E+00   0.0000000E+00   0.0000000E+00   0.0000000E+00   0.0000000E+00   0.0000000E+00   0.0000000E+00   0.0000000E+00   0.0000000E+00   0.0000000E+00   0.0000000E+00   0.0000000E+00   0.0000000E+00   0.0000000E+00   0.0000000E+00   0.0000000E+00   0.0000000E+00   0.0000000E+00   0.0000000E+00   0.0000000E+00   0.0000000E+00   0.0000000E+00   0.0000000E+00   0.0000000E+00   0.0000000E+00   0.0000000E+00   0.0000000E+00   0.0000000E+00   0.0000000E+00   0.0000000E+00   0.0000000E+00   0.0000000E+00   0.0000000E+00   0.0000000E+00   0.0000000E+00   0.0000000E+00   0.0000000E+00   0.0000000E+00   0.0000000E+00   0.0000000E+00   0.0000000E+00   0.0000000E+00   0.0000000E+00   0.0000000E+00   0.0000000E+00   0.0000000E+00   0.0000000E+00   0.0000000E+00   0.0000000E+00   0.0000000E+00   0.0000000E+00   0.0000000E+00   0.0000000E+00   0.0000000E+00   0.0000000E+00   0.0000000E+00   0.0000000E+00   0.0000000E+00   0.0000000E+00   0.0000000E+00   0.0000000E+00   0.0000000E+00   0.0000000E+00   0.0000000E+00   0.0000000E+00   0.0000000E+00   0.0000000E+00   0.0000000E+00   0.0000000E+00   0.0000000E+00   0.0000000E+00   0.0000000E+00   0.0000000E+00   0.0000000E+00   0.0000000E+00   0.0000000E+00   0.0000000E+00   0.0000000E+00   0.0000000E+00   0.0000000E+00   0.0000000E+00   0.0000000E+00   0.0000000E+00   0.0000000E+00   0.0000000E+00   0.0000000E+00   0.0000000E+00   0.0000000E+00   0.0000000E+00   0.0000000E+00   0.0000000E+00   0.0000000E+00   0.0000000E+00   0.0000000E+00   0.0000000E+00   0.0000000E+00   0.0000000E+00   0.0000000E+00   0.0000000E+00   0.0000000E+00   0.0000000E+00   0.0000000E+00   0.0000000E+00   0.0000000E+00   0.0000000E+00   0.0000000E+00   0.0000000E+00   0.0000000E+00   0.0000000E+00   0.0000000E+00   0.0000000E+00   0.0000000E+00   0.0000000E+00   0.0000000E+00   0.0000000E+00   0.0000000E+00   0.0000000E+00   0.0000000E+00   0.0000000E+00   0.0000000E+00   0.0000000E+00   0.0000000E+00   0.0000000E+00   0.0000000E+00   0.0000000E+00   0.0000000E+00   0.0000000E+00   0.0000000E+00   0.0000000E+00   0.0000000E+00   0.0000000E+00   0.0000000E+00   0.0000000E+00   0.0000000E+00   0.0000000E+00   0.0000000E+00   0.0000000E+00   0.0000000E+00   0.0000000E+00   0.0000000E+00   0.0000000E+00   0.0000000E+00   0.0000000E+00   0.0000000E+00   0.0000000E+00   0.0000000E+00   0.0000000E+00   0.0000000E+00   0.0000000E+00   0.0000000E+00   0.0000000E+00   0.0000000E+00   0.0000000E+00   0.0000000E+00   0.0000000E+00   0.0000000E+00   0.0000000E+00   0.0000000E+00   0.0000000E+00   0.0000000E+00   0.0000000E+00   0.0000000E+00   0.0000000E+00   0.0000000E+00   0.0000000E+00   0.0000000E+00   0.0000000E+00   0.0000000E+00   0.0000000E+00   0.0000000E+00   0.0000000E+00   0.0000000E+00   0.0000000E+00   0.0000000E+00   0.0000000E+00   0.0000000E+00   0.0000000E+00   0.0000000E+00   0.0000000E+00   0.0000000E+00   0.0000000E+00   0.0000000E+00   0.0000000E+00   0.0000000E+00   0.0000000E+00   0.0000000E+00   0.0000000E+00   0.0000000E+00   0.0000000E+00   0.0000000E+00   0.0000000E+00   0.0000000E+00   0.0000000E+00   0.0000000E+00   0.0000000E+00   0.0000000E+00   0.0000000E+00   0.0000000E+00   0.0000000E+00   0.0000000E+00   0.0000000E+00   0.0000000E+00   0.0000000E+00   0.0000000E+00   0.0000000E+00   0.0000000E+00   0.0000000E+00   0.0000000E+00   0.0000000E+00   0.0000000E+00   0.0000000E+00   0.0000000E+00   0.0000000E+00   0.0000000E+00   0.0000000E+00   0.0000000E+00   0.0000000E+00   0.0000000E+00   0.0000000E+00   0.0000000E+00   0.0000000E+00   0.0000000E+00   0.0000000E+00   0.0000000E+00   0.0000000E+00   0.0000000E+00   0.0000000E+00   0.0000000E+00   0.0000000E+00   0.0000000E+00   0.0000000E+00   0.0000000E+00   0.0000000E+00   0.0000000E+00   0.0000000E+00   0.0000000E+00   0.0000000E+00   0.0000000E+00   0.0000000E+00   0.0000000E+00   0.0000000E+00   0.0000000E+00   0.0000000E+00   0.0000000E+00   0.0000000E+00   0.0000000E+00   0.0000000E+00   0.0000000E+00   0.0000000E+00   0.0000000E+00   0.0000000E+00   0.0000000E+00   0.0000000E+00   0.0000000E+00   0.0000000E+00   0.0000000E+00   0.0000000E+00   0.0000000E+00   0.0000000E+00   0.0000000E+00   0.0000000E+00   0.0000000E+00   0.0000000E+00   0.0000000E+00   0.0000000E+00   0.0000000E+00   0.0000000E+00   0.0000000E+00   0.0000000E+00   0.0000000E+00   0.0000000E+00   0.0000000E+00   0.0000000E+00   0.0000000E+00   0.0000000E+00   0.0000000E+00   0.0000000E+00   0.0000000E+00   0.0000000E+00   0.0000000E+00   0.0000000E+00   0.0000000E+00   0.0000000E+00   0.0000000E+00   0.0000000E+00   0.0000000E+00   0.0000000E+00   0.0000000E+00   0.0000000E+00   0.0000000E+00   0.0000000E+00   0.0000000E+00   0.0000000E+00   0.0000000E+00   0.0000000E+00   0.0000000E+00   0.0000000E+00   0.0000000E+00   0.0000000E+00   0.0000000E+00   0.0000000E+00   0.0000000E+00   0.0000000E+00   0.0000000E+00   0.0000000E+00   0.0000000E+00   0.0000000E+00   0.0000000E+00   0.0000000E+00   0.0000000E+00   0.0000000E+00   0.0000000E+00   0.0000000E+00   0.0000000E+00   0.0000000E+00   0.0000000E+00   0.0000000E+00   0.0000000E+00   0.0000000E+00   0.0000000E+00   0.0000000E+00   0.0000000E+00   0.0000000E+00   0.0000000E+00   0.0000000E+00   0.0000000E+00   0.0000000E+00   0.0000000E+00   0.0000000E+00   0.0000000E+00   0.0000000E+00   0.0000000E+00   0.0000000E+00   0.0000000E+00   0.0000000E+00   0.0000000E+00   0.0000000E+00   0.0000000E+00   0.0000000E+00   0.0000000E+00   0.0000000E+00   0.0000000E+00   0.0000000E+00   0.0000000E+00   0.0000000E+00   0.0000000E+00   0.0000000E+00   0.0000000E+00   0.0000000E+00   0.0000000E+00   0.0000000E+00   0.0000000E+00   0.0000000E+00   0.0000000E+00   0.0000000E+00   0.0000000E+00   0.0000000E+00   0.0000000E+00   0.0000000E+00   0.0000000E+00   0.0000000E+00   0.0000000E+00   0.0000000E+00   0.0000000E+00   0.0000000E+00   0.0000000E+00   0.0000000E+00   0.0000000E+00   0.0000000E+00   0.0000000E+00   0.0000000E+00   0.0000000E+00   0.0000000E+00   0.0000000E+00   0.0000000E+00   0.0000000E+00   0.0000000E+00   0.0000000E+00   0.0000000E+00   0.0000000E+00   0.0000000E+00   0.0000000E+00   0.0000000E+00   0.0000000E+00   0.0000000E+00   0.0000000E+00   0.0000000E+00   0.0000000E+00   0.0000000E+00   0.0000000E+00   0.0000000E+00   0.0000000E+00   0.0000000E+00   0.0000000E+00   0.0000000E+00   0.0000000E+00   0.0000000E+00   0.0000000E+00   0.0000000E+00   0.0000000E+00   0.0000000E+00   0.0000000E+00   0.0000000E+00   0.0000000E+00   0.0000000E+00   0.0000000E+00   0.0000000E+00   0.0000000E+00   0.0000000E+00   0.0000000E+00   0.0000000E+00   0.0000000E+00   0.0000000E+00   0.0000000E+00   0.0000000E+00   0.0000000E+00   0.0000000E+00   0.0000000E+00   0.0000000E+00   0.0000000E+00   0.0000000E+00   0.0000000E+00   0.0000000E+00   0.0000000E+00   0.0000000E+00   0.0000000E+00   0.0000000E+00   0.0000000E+00   0.0000000E+00   0.0000000E+00   0.0000000E+00   0.0000000E+00   0.0000000E+00   0.0000000E+00   0.0000000E+00   0.0000000E+00   0.0000000E+00   0.0000000E+00   0.0000000E+00   0.0000000E+00   0.0000000E+00   0.0000000E+00   0.0000000E+00   0.0000000E+00   0.0000000E+00   0.0000000E+00   0.0000000E+00   0.0000000E+00   0.0000000E+00   0.0000000E+00   0.0000000E+00   0.0000000E+00   0.0000000E+00   0.0000000E+00   0.0000000E+00   0.0000000E+00   0.0000000E+00   0.0000000E+00   0.0000000E+00   0.0000000E+00   0.0000000E+00   0.0000000E+00   0.0000000E+00   0.0000000E+00   0.0000000E+00   0.0000000E+00   0.0000000E+00   0.0000000E+00   0.0000000E+00   0.0000000E+00   0.0000000E+00   0.0000000E+00   0.0000000E+00   0.0000000E+00   0.0000000E+00   0.0000000E+00   0.0000000E+00   0.0000000E+00   0.0000000E+00   0.0000000E+00   0.0000000E+00   0.0000000E+00   0.0000000E+00   0.0000000E+00   0.0000000E+00   0.0000000E+00   0.0000000E+00   0.0000000E+00   0.0000000E+00   0.0000000E+00   0.0000000E+00   0.0000000E+00   0.0000000E+00   0.0000000E+00   0.0000000E+00   0.0000000E+00   0.0000000E+00   0.0000000E+00   0.0000000E+00   0.0000000E+00   0.0000000E+00   0.0000000E+00   0.0000000E+00   0.0000000E+00   0.0000000E+00   0.0000000E+00   0.0000000E+00   0.0000000E+00   0.0000000E+00   0.0000000E+00   0.0000000E+00   0.0000000E+00   0.0000000E+00   0.0000000E+00   0.0000000E+00   0.0000000E+00   0.0000000E+00   0.0000000E+00   0.0000000E+00   0.0000000E+00   0.0000000E+00   0.0000000E+00   0.0000000E+00   0.0000000E+00   0.0000000E+00   0.0000000E+00   0.0000000E+00   0.0000000E+00   0.0000000E+00   0.0000000E+00   0.0000000E+00   0.0000000E+00   0.0000000E+00   0.0000000E+00   0.0000000E+00   0.0000000E+00   0.0000000E+00   0.0000000E+00   0.0000000E+00   0.0000000E+00   0.0000000E+00   0.0000000E+00   0.0000000E+00   0.0000000E+00   0.0000000E+00   0.0000000E+00   0.0000000E+00   0.0000000E+00   0.0000000E+00   0.0000000E+00   0.0000000E+00   0.0000000E+00   0.0000000E+00   0.0000000E+00   0.0000000E+00   0.0000000E+00   0.0000000E+00   0.0000000E+00   0.0000000E+00   0.0000000E+00   0.0000000E+00   0.0000000E+00   0.0000000E+00   0.0000000E+00   0.0000000E+00   0.0000000E+00   0.0000000E+00   0.0000000E+00   0.0000000E+00   0.0000000E+00   0.0000000E+00   0.0000000E+00   0.0000000E+00   0.0000000E+00   0.0000000E+00   0.0000000E+00   0.0000000E+00   0.0000000E+00   0.0000000E+00   0.0000000E+00   0.0000000E+00   0.0000000E+00   0.0000000E+00   0.0000000E+00   0.0000000E+00   0.0000000E+00   0.0000000E+00   0.0000000E+00   0.0000000E+00   0.0000000E+00   0.0000000E+00   0.0000000E+00   0.0000000E+00   0.0000000E+00   0.0000000E+00   0.0000000E+00   0.0000000E+00   0.0000000E+00   0.0000000E+00   0.0000000E+00   0.0000000E+00   0.0000000E+00   0.0000000E+00   0.0000000E+00   0.0000000E+00   0.0000000E+00   0.0000000E+00   0.0000000E+00   0.0000000E+00   0.0000000E+00   0.0000000E+00   0.0000000E+00   0.0000000E+00   0.0000000E+00   0.0000000E+00   0.0000000E+00   0.0000000E+00   0.0000000E+00   0.0000000E+00   0.0000000E+00   0.0000000E+00   0.0000000E+00   0.0000000E+00   0.0000000E+00   0.0000000E+00   0.0000000E+00   0.0000000E+00   0.0000000E+00   0.0000000E+00   0.0000000E+00   0.0000000E+00   0.0000000E+00   0.0000000E+00   0.0000000E+00   0.0000000E+00   0.0000000E+00   0.0000000E+00   0.0000000E+00   0.0000000E+00   0.0000000E+00   0.0000000E+00   0.0000000E+00   0.0000000E+00   0.0000000E+00   0.0000000E+00   0.0000000E+00   0.0000000E+00   0.0000000E+00   0.0000000E+00   0.0000000E+00   0.0000000E+00   0.0000000E+00   0.0000000E+00   0.0000000E+00   0.0000000E+00   0.0000000E+00   0.0000000E+00   0.0000000E+00   0.0000000E+00   0.0000000E+00   0.0000000E+00   0.0000000E+00   0.0000000E+00   0.0000000E+00   0.0000000E+00   0.0000000E+00   0.0000000E+00   0.0000000E+00   0.0000000E+00   0.0000000E+00   0.0000000E+00   0.0000000E+00   0.0000000E+00   0.0000000E+00   0.0000000E+00   0.0000000E+00   0.0000000E+00   0.0000000E+00   0.0000000E+00   0.0000000E+00   0.0000000E+00   0.0000000E+00   0.0000000E+00   0.0000000E+00   0.0000000E+00   0.0000000E+00   0.0000000E+00   0.0000000E+00   0.0000000E+00   0.0000000E+00   0.0000000E+00   0.0000000E+00   0.0000000E+00   0.0000000E+00   0.0000000E+00   0.0000000E+00   0.0000000E+00   0.0000000E+00   0.0000000E+00   0.0000000E+00   0.0000000E+00   0.0000000E+00   0.0000000E+00   0.0000000E+00   0.0000000E+00   0.0000000E+00   0.0000000E+00   0.0000000E+00   0.0000000E+00   0.0000000E+00   0.0000000E+00   0.0000000E+00   0.0000000E+00   0.0000000E+00   0.0000000E+00   0.0000000E+00   0.0000000E+00   0.0000000E+00   0.0000000E+00   0.0000000E+00   0.0000000E+00   0.0000000E+00   0.0000000E+00   0.0000000E+00   0.0000000E+00   0.0000000E+00   0.0000000E+00   0.0000000E+00   0.0000000E+00   0.0000000E+00   0.0000000E+00   0.0000000E+00   0.0000000E+00   0.0000000E+00   0.0000000E+00   0.0000000E+00   0.0000000E+00   0.0000000E+00   0.0000000E+00   0.0000000E+00   0.0000000E+00   0.0000000E+00   0.0000000E+00   0.0000000E+00   0.0000000E+00   0.0000000E+00   0.0000000E+00   0.0000000E+00   0.0000000E+00   0.0000000E+00   0.0000000E+00   0.0000000E+00   0.0000000E+00   0.0000000E+00   0.0000000E+00   0.0000000E+00   0.0000000E+00   0.0000000E+00   0.0000000E+00   0.0000000E+00   0.0000000E+00   0.0000000E+00   0.0000000E+00   0.0000000E+00   0.0000000E+00   0.0000000E+00   0.0000000E+00   0.0000000E+00   0.0000000E+00   0.0000000E+00   0.0000000E+00   0.0000000E+00   0.0000000E+00   0.0000000E+00   0.0000000E+00   0.0000000E+00   0.0000000E+00   0.0000000E+00   0.0000000E+00   0.0000000E+00   0.0000000E+00   0.0000000E+00   0.0000000E+00   0.0000000E+00   0.0000000E+00   0.0000000E+00   0.0000000E+00   0.0000000E+00   0.0000000E+00   0.0000000E+00   0.0000000E+00   0.0000000E+00   0.0000000E+00   0.0000000E+00   0.0000000E+00   0.0000000E+00   0.0000000E+00   0.0000000E+00   0.0000000E+00   0.0000000E+00   0.0000000E+00   0.0000000E+00   0.0000000E+00   0.0000000E+00   0.0000000E+00   0.0000000E+00   0.0000000E+00   0.0000000E+00   0.0000000E+00   0.0000000E+00   0.0000000E+00   0.0000000E+00   0.0000000E+00   0.0000000E+00   0.0000000E+00   0.0000000E+00   0.0000000E+00   0.0000000E+00   0.0000000E+00   0.0000000E+00   0.0000000E+00   0.0000000E+00   0.0000000E+00   0.0000000E+00   0.0000000E+00   0.0000000E+00   0.0000000E+00   0.0000000E+00   0.0000000E+00   0.0000000E+00   0.0000000E+00   0.0000000E+00   0.0000000E+00   0.0000000E+00   0.0000000E+00   0.0000000E+00   0.0000000E+00   0.0000000E+00   0.0000000E+00   0.0000000E+00   0.0000000E+00   0.0000000E+00   0.0000000E+00   0.0000000E+00   0.0000000E+00   0.0000000E+00   0.0000000E+00   0.0000000E+00   0.0000000E+00   0.0000000E+00   0.0000000E+00   0.0000000E+00   0.0000000E+00   0.0000000E+00   0.0000000E+00   0.0000000E+00   0.0000000E+00   0.0000000E+00   0.0000000E+00   0.0000000E+00   0.0000000E+00   0.0000000E+00   0.0000000E+00   0.0000000E+00   0.0000000E+00   0.0000000E+00   0.0000000E+00   0.0000000E+00   0.0000000E+00   0.0000000E+00   0.0000000E+00   0.0000000E+00   0.0000000E+00   0.0000000E+00   0.0000000E+00   0.0000000E+00   0.0000000E+00   0.0000000E+00   0.0000000E+00   0.0000000E+00   0.0000000E+00   0.0000000E+00   0.0000000E+00   0.0000000E+00   0.0000000E+00   0.0000000E+00   0.0000000E+00   0.0000000E+00   0.0000000E+00   0.0000000E+00   0.0000000E+00   0.0000000E+00   0.0000000E+00   0.0000000E+00   0.0000000E+00   0.0000000E+00   0.0000000E+00   0.0000000E+00   0.0000000E+00   0.0000000E+00   0.0000000E+00   0.0000000E+00   0.0000000E+00   0.0000000E+00   0.0000000E+00   0.0000000E+00   0.0000000E+00   0.0000000E+00   0.0000000E+00   0.0000000E+00   0.0000000E+00   0.0000000E+00   0.0000000E+00   0.0000000E+00   0.0000000E+00   0.0000000E+00   0.0000000E+00   0.0000000E+00   0.0000000E+00   0.0000000E+00   0.0000000E+00   0.0000000E+00   0.0000000E+00   0.0000000E+00   0.0000000E+00   0.0000000E+00   0.0000000E+00   0.0000000E+00   0.0000000E+00   0.0000000E+00   0.0000000E+00   0.0000000E+00   0.0000000E+00   0.0000000E+00   0.0000000E+00   0.0000000E+00   0.0000000E+00   0.0000000E+00   0.0000000E+00   0.0000000E+00   0.0000000E+00   0.0000000E+00   0.0000000E+00   0.0000000E+00   0.0000000E+00   0.0000000E+00   0.0000000E+00   0.0000000E+00   0.0000000E+00   0.0000000E+00   0.0000000E+00   0.0000000E+00   0.0000000E+00   0.0000000E+00   0.0000000E+00   0.0000000E+00   0.0000000E+00   0.0000000E+00   0.0000000E+00   0.0000000E+00   0.0000000E+00   0.0000000E+00   0.0000000E+00   0.0000000E+00   0.0000000E+00   0.0000000E+00   0.0000000E+00   0.0000000E+00   0.0000000E+00   0.0000000E+00   0.0000000E+00   0.0000000E+00   0.0000000E+00   0.0000000E+00   0.0000000E+00   0.0000000E+00   0.0000000E+00   0.0000000E+00   0.0000000E+00   0.0000000E+00   0.0000000E+00   0.0000000E+00   0.0000000E+00   0.0000000E+00   0.0000000E+00   0.0000000E+00   0.0000000E+00   0.0000000E+00   0.0000000E+00   0.0000000E+00   0.0000000E+00   0.0000000E+00   0.0000000E+00   0.0000000E+00   0.0000000E+00   0.0000000E+00   0.0000000E+00   0.0000000E+00   0.0000000E+00   0.0000000E+00   0.0000000E+00   0.0000000E+00   0.0000000E+00   0.0000000E+00   0.0000000E+00   0.0000000E+00   0.0000000E+00   0.0000000E+00   0.0000000E+00   0.0000000E+00   0.0000000E+00   0.0000000E+00   0.0000000E+00   0.0000000E+00   0.0000000E+00   0.0000000E+00   0.0000000E+00   0.0000000E+00   0.0000000E+00   0.0000000E+00   0.0000000E+00   0.0000000E+00   0.0000000E+00   0.0000000E+00   0.0000000E+00   0.0000000E+00   0.0000000E+00   0.0000000E+00   0.0000000E+00   0.0000000E+00   0.0000000E+00   0.0000000E+00   0.0000000E+00   0.0000000E+00   0.0000000E+00   0.0000000E+00   0.0000000E+00   0.0000000E+00   0.0000000E+00   0.0000000E+00   0.0000000E+00   0.0000000E+00   0.0000000E+00   0.0000000E+00   0.0000000E+00   0.0000000E+00   0.0000000E+00   0.0000000E+00   0.0000000E+00   0.0000000E+00   0.0000000E+00   0.0000000E+00   0.0000000E+00   0.0000000E+00   0.0000000E+00   0.0000000E+00   0.0000000E+00   0.0000000E+00   0.0000000E+00   0.0000000E+00   0.0000000E+00   0.0000000E+00   0.0000000E+00   0.0000000E+00   0.0000000E+00   0.0000000E+00   0.0000000E+00   0.0000000E+00   0.0000000E+00   0.0000000E+00   0.0000000E+00   0.0000000E+00   0.0000000E+00   0.0000000E+00   0.0000000E+00   0.0000000E+00   0.0000000E+00   0.0000000E+00   0.0000000E+00   0.0000000E+00   0.0000000E+00   0.0000000E+00   0.0000000E+00   0.0000000E+00   0.0000000E+00   0.0000000E+00   0.0000000E+00   0.0000000E+00   0.0000000E+00   0.0000000E+00   0.0000000E+00   0.0000000E+00   0.0000000E+00   0.0000000E+00   0.0000000E+00   0.0000000E+00   0.0000000E+00   0.0000000E+00   0.0000000E+00   0.0000000E+00   0.0000000E+00   0.0000000E+00   0.0000000E+00   0.0000000E+00   0.0000000E+00   0.0000000E+00   0.0000000E+00   0.0000000E+00   0.0000000E+00   0.0000000E+00   0.0000000E+00   0.0000000E+00   0.0000000E+00   0.0000000E+00   0.0000000E+00   0.0000000E+00   0.0000000E+00   0.0000000E+00   0.0000000E+00   0.0000000E+00   0.0000000E+00   0.0000000E+00   0.0000000E+00   0.0000000E+00   0.0000000E+00   0.0000000E+00   0.0000000E+00   0.0000000E+00   0.0000000E+00   0.0000000E+00   0.0000000E+00   0.0000000E+00   0.0000000E+00   0.0000000E+00   0.0000000E+00   0.0000000E+00   0.0000000E+00   0.0000000E+00   0.0000000E+00   0.0000000E+00   0.0000000E+00   0.0000000E+00   0.0000000E+00   0.0000000E+00   0.0000000E+00   0.0000000E+00   0.0000000E+00   0.0000000E+00   0.0000000E+00   0.0000000E+00   0.0000000E+00   0.0000000E+00   0.0000000E+00   0.0000000E+00   0.0000000E+00   0.0000000E+00   0.0000000E+00   0.0000000E+00   0.0000000E+00   0.0000000E+00   0.0000000E+00   0.0000000E+00   0.0000000E+00   0.0000000E+00   0.0000000E+00   0.0000000E+00   0.0000000E+00   0.0000000E+00   0.0000000E+00   0.0000000E+00   0.0000000E+00   0.0000000E+00   0.0000000E+00   0.0000000E+00   0.0000000E+00   0.0000000E+00   0.0000000E+00   0.0000000E+00   0.0000000E+00   0.0000000E+00   0.0000000E+00   0.0000000E+00   0.0000000E+00   0.0000000E+00   0.0000000E+00   0.0000000E+00   0.0000000E+00   0.0000000E+00   0.0000000E+00   0.0000000E+00   0.0000000E+00   0.0000000E+00   0.0000000E+00   0.0000000E+00   0.0000000E+00   0.0000000E+00   0.0000000E+00   0.0000000E+00   0.0000000E+00   0.0000000E+00   0.0000000E+00   0.0000000E+00   0.0000000E+00   0.0000000E+00   0.0000000E+00   0.0000000E+00   0.0000000E+00   0.0000000E+00   0.0000000E+00   0.0000000E+00   0.0000000E+00   0.0000000E+00   0.0000000E+00   0.0000000E+00   0.0000000E+00   0.0000000E+00   0.0000000E+00   0.0000000E+00   0.0000000E+00   0.0000000E+00   0.0000000E+00   0.0000000E+00   0.0000000E+00   0.0000000E+00   0.0000000E+00   0.0000000E+00   0.0000000E+00   0.0000000E+00   0.0000000E+00   0.0000000E+00   0.0000000E+00   0.0000000E+00   0.0000000E+00   0.0000000E+00   0.0000000E+00   0.0000000E+00   0.0000000E+00   0.0000000E+00   0.0000000E+00   0.0000000E+00   0.0000000E+00   0.0000000E+00   0.0000000E+00   0.0000000E+00   0.0000000E+00   0.0000000E+00   0.0000000E+00   0.0000000E+00   0.0000000E+00   0.0000000E+00   0.0000000E+00   0.0000000E+00   0.0000000E+00   0.0000000E+00   0.0000000E+00   0.0000000E+00   0.0000000E+00   0.0000000E+00   0.0000000E+00   0.0000000E+00   0.0000000E+00   0.0000000E+00   0.0000000E+00   0.0000000E+00   0.0000000E+00   0.0000000E+00   0.0000000E+00   0.0000000E+00   0.0000000E+00   0.0000000E+00   0.0000000E+00   0.0000000E+00   0.0000000E+00   0.0000000E+00   0.0000000E+00   0.0000000E+00   0.0000000E+00   0.0000000E+00   0.0000000E+00   0.0000000E+00   0.0000000E+00   0.0000000E+00   0.0000000E+00   0.0000000E+00   0.0000000E+00   0.0000000E+00   0.0000000E+00   0.0000000E+00   0.0000000E+00   0.0000000E+00   0.0000000E+00   0.0000000E+00   0.0000000E+00   0.0000000E+00   0.0000000E+00   0.0000000E+00   0.0000000E+00   0.0000000E+00   0.0000000E+00   0.0000000E+00   0.0000000E+00   0.0000000E+00   0.0000000E+00   0.0000000E+00   0.0000000E+00   0.0000000E+00   0.0000000E+00   0.0000000E+00   0.0000000E+00   0.0000000E+00   0.0000000E+00   0.0000000E+00   0.0000000E+00   0.0000000E+00   0.0000000E+00   0.0000000E+00   0.0000000E+00   0.0000000E+00   0.0000000E+00   0.0000000E+00   0.0000000E+00   0.0000000E+00   0.0000000E+00   0.0000000E+00   0.0000000E+00   0.0000000E+00   0.0000000E+00   0.0000000E+00   0.0000000E+00   0.0000000E+00   0.0000000E+00   0.0000000E+00   0.0000000E+00   0.0000000E+00   0.0000000E+00   0.0000000E+00   0.0000000E+00   0.0000000E+00   0.0000000E+00   0.0000000E+00   0.0000000E+00   0.0000000E+00   0.0000000E+00   0.0000000E+00   0.0000000E+00   0.0000000E+00   0.0000000E+00   0.0000000E+00   0.0000000E+00   0.0000000E+00   0.0000000E+00   0.0000000E+00   0.0000000E+00   0.0000000E+00   0.0000000E+00   0.0000000E+00   0.0000000E+00   0.0000000E+00   0.0000000E+00   0.0000000E+00   0.0000000E+00   0.0000000E+00   0.0000000E+00   0.0000000E+00   0.0000000E+00   0.0000000E+00   0.0000000E+00   0.0000000E+00   0.0000000E+00   0.0000000E+00   0.0000000E+00   0.0000000E+00   0.0000000E+00   0.0000000E+00   0.0000000E+00   0.0000000E+00   0.0000000E+00   0.0000000E+00   0.0000000E+00   0.0000000E+00   0.0000000E+00   0.0000000E+00   0.0000000E+00   0.0000000E+00   0.0000000E+00   0.0000000E+00   0.0000000E+00   0.0000000E+00   0.0000000E+00   0.0000000E+00   0.0000000E+00   0.0000000E+00   0.0000000E+00   0.0000000E+00   0.0000000E+00   0.0000000E+00   0.0000000E+00   0.0000000E+00   0.0000000E+00   0.0000000E+00   0.0000000E+00   0.0000000E+00   0.0000000E+00   0.0000000E+00   0.0000000E+00   0.0000000E+00   0.0000000E+00   0.0000000E+00   0.0000000E+00   0.0000000E+00   0.0000000E+00   0.0000000E+00   0.0000000E+00   0.0000000E+00   0.0000000E+00   0.0000000E+00   0.0000000E+00   0.0000000E+00   0.0000000E+00   0.0000000E+00   0.0000000E+00   0.0000000E+00   0.0000000E+00   0.0000000E+00   0.0000000E+00   0.0000000E+00   0.0000000E+00   0.0000000E+00   0.0000000E+00   0.0000000E+00   0.0000000E+00   0.0000000E+00   0.0000000E+00   0.0000000E+00   0.0000000E+00   0.0000000E+00   0.0000000E+00   0.0000000E+00   0.0000000E+00   0.0000000E+00   0.0000000E+00   0.0000000E+00   0.0000000E+00   0.0000000E+00   0.0000000E+00   0.0000000E+00   0.0000000E+00   0.0000000E+00   0.0000000E+00   0.0000000E+00   0.0000000E+00   0.0000000E+00   0.0000000E+00   0.0000000E+00   0.0000000E+00   0.0000000E+00   0.0000000E+00   0.0000000E+00   0.0000000E+00   0.0000000E+00   0.0000000E+00   0.0000000E+00   0.0000000E+00   0.0000000E+00   0.0000000E+00   0.0000000E+00   0.0000000E+00   0.0000000E+00   0.0000000E+00   0.0000000E+00   0.0000000E+00   0.0000000E+00   0.0000000E+00   0.0000000E+00   0.0000000E+00   0.0000000E+00   0.0000000E+00   0.0000000E+00   0.0000000E+00   0.0000000E+00   0.0000000E+00   0.0000000E+00   0.0000000E+00   0.0000000E+00   0.0000000E+00   0.0000000E+00   0.0000000E+00   0.0000000E+00   0.0000000E+00   0.0000000E+00   0.0000000E+00   0.0000000E+00   0.0000000E+00   0.0000000E+00   0.0000000E+00   0.0000000E+00   0.0000000E+00   0.0000000E+00   0.0000000E+00   0.0000000E+00   0.0000000E+00   0.0000000E+00   0.0000000E+00   0.0000000E+00   0.0000000E+00   0.0000000E+00   0.0000000E+00   0.0000000E+00   0.0000000E+00   0.0000000E+00   0.0000000E+00   0.0000000E+00   0.0000000E+00   0.0000000E+00   0.0000000E+00   0.0000000E+00   0.0000000E+00   0.0000000E+00   0.0000000E+00   0.0000000E+00   0.0000000E+00   0.0000000E+00   0.0000000E+00   0.0000000E+00   0.0000000E+00   0.0000000E+00   0.0000000E+00   0.0000000E+00   0.0000000E+00   0.0000000E+00   0.0000000E+00   0.0000000E+00   0.0000000E+00   0.0000000E+00   0.0000000E+00   0.0000000E+00   0.0000000E+00   0.0000000E+00   0.0000000E+00   0.0000000E+00   0.0000000E+00   0.0000000E+00   0.0000000E+00   0.0000000E+00   0.0000000E+00   0.0000000E+00   0.0000000E+00   0.0000000E+00   0.0000000E+00   0.0000000E+00   0.0000000E+00   0.0000000E+00   0.0000000E+00   0.0000000E+00   0.0000000E+00   0.0000000E+00   0.0000000E+00   0.0000000E+00   0.0000000E+00   0.0000000E+00   0.0000000E+00   0.0000000E+00   0.0000000E+00   0.0000000E+00   0.0000000E+00   0.0000000E+00   0.0000000E+00   0.0000000E+00   0.0000000E+00   0.0000000E+00   0.0000000E+00   0.0000000E+00   0.0000000E+00   0.0000000E+00   0.0000000E+00   0.0000000E+00   0.0000000E+00   0.0000000E+00   0.0000000E+00   0.0000000E+00   0.0000000E+00   0.0000000E+00   0.0000000E+00   0.0000000E+00   0.0000000E+00   0.0000000E+00   0.0000000E+00   0.0000000E+00   0.0000000E+00   0.0000000E+00   0.0000000E+00   0.0000000E+00   0.0000000E+00   0.0000000E+00   0.0000000E+00   0.0000000E+00   0.0000000E+00   0.0000000E+00   0.0000000E+00   0.0000000E+00   0.0000000E+00   0.0000000E+00   0.0000000E+00   0.0000000E+00   0.0000000E+00   0.0000000E+00   0.0000000E+00   0.0000000E+00   0.0000000E+00   0.0000000E+00   0.0000000E+00   0.0000000E+00   0.0000000E+00   0.0000000E+00   0.0000000E+00   0.0000000E+00   0.0000000E+00   0.0000000E+00   0.0000000E+00   0.0000000E+00   0.0000000E+00   0.0000000E+00   0.0000000E+00   0.0000000E+00   0.0000000E+00   0.0000000E+00   0.0000000E+00   0.0000000E+00   0.0000000E+00   0.0000000E+00   0.0000000E+00   0.0000000E+00   0.0000000E+00   0.0000000E+00   0.0000000E+00   0.0000000E+00   0.0000000E+00   0.0000000E+00   0.0000000E+00   0.0000000E+00   0.0000000E+00   0.0000000E+00   0.0000000E+00   0.0000000E+00   0.0000000E+00   0.0000000E+00   0.0000000E+00   0.0000000E+00   0.0000000E+00   0.0000000E+00   0.0000000E+00   0.0000000E+00   0.0000000E+00   0.0000000E+00   0.0000000E+00   0.0000000E+00   0.0000000E+00   0.0000000E+00   0.0000000E+00   0.0000000E+00   0.0000000E+00   0.0000000E+00   0.0000000E+00   0.0000000E+00   0.0000000E+00   0.0000000E+00   0.0000000E+00   0.0000000E+00   0.0000000E+00   0.0000000E+00   0.0000000E+00   0.0000000E+00   0.0000000E+00   0.0000000E+00   0.0000000E+00   0.0000000E+00   0.0000000E+00   0.0000000E+00   0.0000000E+00   0.0000000E+00   0.0000000E+00   0.0000000E+00   0.0000000E+00   0.0000000E+00   0.0000000E+00   0.0000000E+00   0.0000000E+00   0.0000000E+00   0.0000000E+00   0.0000000E+00   0.0000000E+00   0.0000000E+00   0.0000000E+00   0.0000000E+00   0.0000000E+00   0.0000000E+00   0.0000000E+00   0.0000000E+00   0.0000000E+00   0.0000000E+00   0.0000000E+00   0.0000000E+00   0.0000000E+00   0.0000000E+00   0.0000000E+00   0.0000000E+00   0.0000000E+00   0.0000000E+00   0.0000000E+00   0.0000000E+00   0.0000000E+00   0.0000000E+00   0.0000000E+00   0.0000000E+00   0.0000000E+00   0.0000000E+00   0.0000000E+00   0.0000000E+00   0.0000000E+00   0.0000000E+00   0.0000000E+00   0.0000000E+00   0.0000000E+00   0.0000000E+00   0.0000000E+00   0.0000000E+00   0.0000000E+00   0.0000000E+00   0.0000000E+00   0.0000000E+00   0.0000000E+00   0.0000000E+00   0.0000000E+00   0.0000000E+00   0.0000000E+00   0.0000000E+00   0.0000000E+00   0.0000000E+00   0.0000000E+00   0.0000000E+00   0.0000000E+00   0.0000000E+00   0.0000000E+00   0.0000000E+00   0.0000000E+00   0.0000000E+00   0.0000000E+00   0.0000000E+00   0.0000000E+00   0.0000000E+00   0.0000000E+00   0.0000000E+00   0.0000000E+00   0.0000000E+00   0.0000000E+00   0.0000000E+00   0.0000000E+00   0.0000000E+00   0.0000000E+00   0.0000000E+00   0.0000000E+00   0.0000000E+00   0.0000000E+00   0.0000000E+00   0.0000000E+00   0.0000000E+00   0.0000000E+00   0.0000000E+00   0.0000000E+00   0.0000000E+00   0.0000000E+00   0.0000000E+00   0.0000000E+00   0.0000000E+00   0.0000000E+00   0.0000000E+00   0.0000000E+00   0.0000000E+00   0.0000000E+00   0.0000000E+00   0.0000000E+00   0.0000000E+00   0.0000000E+00   0.0000000E+00   0.0000000E+00   0.0000000E+00   0.0000000E+00   0.0000000E+00   0.0000000E+00   0.0000000E+00   0.0000000E+00   0.0000000E+00   0.0000000E+00   0.0000000E+00   0.0000000E+00   0.0000000E+00   0.0000000E+00   0.0000000E+00   0.0000000E+00   0.0000000E+00   0.0000000E+00   0.0000000E+00   0.0000000E+00   0.0000000E+00   0.0000000E+00   0.0000000E+00   0.0000000E+00   0.0000000E+00   0.0000000E+00   0.0000000E+00   0.0000000E+00   0.0000000E+00   0.0000000E+00   0.0000000E+00   0.0000000E+00   0.0000000E+00   0.0000000E+00   0.0000000E+00   0.0000000E+00   0.0000000E+00   0.0000000E+00   0.0000000E+00   0.0000000E+00   0.0000000E+00   0.0000000E+00   0.0000000E+00   0.0000000E+00   0.0000000E+00   0.0000000E+00   0.0000000E+00   0.0000000E+00   0.0000000E+00   0.0000000E+00   0.0000000E+00   0.0000000E+00   0.0000000E+00   0.0000000E+00   0.0000000E+00   0.0000000E+00   0.0000000E+00   0.0000000E+00   0.0000000E+00   0.0000000E+00   0.0000000E+00   0.0000000E+00   0.0000000E+00   0.0000000E+00   0.0000000E+00   0.0000000E+00   0.0000000E+00   0.0000000E+00   0.0000000E+00   0.0000000E+00   0.0000000E+00   0.0000000E+00   0.0000000E+00   0.0000000E+00   0.0000000E+00   0.0000000E+00   0.0000000E+00   0.0000000E+00   0.0000000E+00   0.0000000E+00   0.0000000E+00   0.0000000E+00   0.0000000E+00   0.0000000E+00   0.0000000E+00   0.0000000E+00   0.0000000E+00   0.0000000E+00   0.0000000E+00   0.0000000E+00   0.0000000E+00   0.0000000E+00   0.0000000E+00   0.0000000E+00   0.0000000E+00   0.0000000E+00   0.0000000E+00   0.0000000E+00   0.0000000E+00   0.0000000E+00   0.0000000E+00   0.0000000E+00   0.0000000E+00   0.0000000E+00   0.0000000E+00   0.0000000E+00   0.0000000E+00   0.0000000E+00   0.0000000E+00   0.0000000E+00   0.0000000E+00   0.0000000E+00   0.0000000E+00   0.0000000E+00   0.0000000E+00   0.0000000E+00   0.0000000E+00   0.0000000E+00   0.0000000E+00   0.0000000E+00   0.0000000E+00   0.0000000E+00   0.0000000E+00   0.0000000E+00   0.0000000E+00   0.0000000E+00   0.0000000E+00   0.0000000E+00   0.0000000E+00   0.0000000E+00   0.0000000E+00   0.0000000E+00   0.0000000E+00   0.0000000E+00   0.0000000E+00   0.0000000E+00   0.0000000E+00   0.0000000E+00   0.0000000E+00   0.0000000E+00   0.0000000E+00   0.0000000E+00   0.0000000E+00   0.0000000E+00   0.0000000E+00   0.0000000E+00   0.0000000E+00   0.0000000E+00   0.0000000E+00   0.0000000E+00   0.0000000E+00   0.0000000E+00   0.0000000E+00   0.0000000E+00   0.0000000E+00   0.0000000E+00   0.0000000E+00   0.0000000E+00   0.0000000E+00   0.0000000E+00   0.0000000E+00   0.0000000E+00   0.0000000E+00   0.0000000E+00   0.0000000E+00   0.0000000E+00   0.0000000E+00   0.0000000E+00   0.0000000E+00   0.0000000E+00   0.0000000E+00   0.0000000E+00   0.0000000E+00   0.0000000E+00   0.0000000E+00   0.0000000E+00   0.0000000E+00   0.0000000E+00   0.0000000E+00   0.0000000E+00   0.0000000E+00   0.0000000E+00   0.0000000E+00   0.0000000E+00   0.0000000E+00   0.0000000E+00   0.0000000E+00   0.0000000E+00   0.0000000E+00   0.0000000E+00   0.0000000E+00   0.0000000E+00   0.0000000E+00   0.0000000E+00   0.0000000E+00   0.0000000E+00   0.0000000E+00   0.0000000E+00   0.0000000E+00   0.0000000E+00   0.0000000E+00   0.0000000E+00   0.0000000E+00   0.0000000E+00   0.0000000E+00   0.0000000E+00   0.0000000E+00   0.0000000E+00   0.0000000E+00   0.0000000E+00   0.0000000E+00   0.0000000E+00   0.0000000E+00   0.0000000E+00   0.0000000E+00   0.0000000E+00   0.0000000E+00   0.0000000E+00   0.0000000E+00   0.0000000E+00   0.0000000E+00   0.0000000E+00   0.0000000E+00   0.0000000E+00   0.0000000E+00   0.0000000E+00   0.0000000E+00   0.0000000E+00   0.0000000E+00   0.0000000E+00   0.0000000E+00   0.0000000E+00   0.0000000E+00   0.0000000E+00   0.0000000E+00   0.0000000E+00   0.0000000E+00   0.0000000E+00   0.0000000E+00   0.0000000E+00   0.0000000E+00   0.0000000E+00   0.0000000E+00   0.0000000E+00   0.0000000E+00   0.0000000E+00   0.0000000E+00   0.0000000E+00   0.0000000E+00   0.0000000E+00   0.0000000E+00   0.0000000E+00   0.0000000E+00   0.0000000E+00   0.0000000E+00   0.0000000E+00   0.0000000E+00   0.0000000E+00   0.0000000E+00   0.0000000E+00   0.0000000E+00   0.0000000E+00   0.0000000E+00   0.0000000E+00   0.0000000E+00   0.0000000E+00   0.0000000E+00   0.0000000E+00   0.0000000E+00   0.0000000E+00   0.0000000E+00   0.0000000E+00   0.0000000E+00   0.0000000E+00   0.0000000E+00   0.0000000E+00   0.0000000E+00   0.0000000E+00   0.0000000E+00   0.0000000E+00   0.0000000E+00   0.0000000E+00   0.0000000E+00   0.0000000E+00   0.0000000E+00   0.0000000E+00   0.0000000E+00   0.0000000E+00   0.0000000E+00   0.0000000E+00   0.0000000E+00   0.0000000E+00   0.0000000E+00   0.0000000E+00   0.0000000E+00   0.0000000E+00   0.0000000E+00   0.0000000E+00   0.0000000E+00   0.0000000E+00   0.0000000E+00   0.0000000E+00   0.0000000E+00   0.0000000E+00   0.0000000E+00   0.0000000E+00   0.0000000E+00   0.0000000E+00   0.0000000E+00   0.0000000E+00   0.0000000E+00   0.0000000E+00   0.0000000E+00   0.0000000E+00   0.0000000E+00   0.0000000E+00   0.0000000E+00   0.0000000E+00   0.0000000E+00   0.0000000E+00   0.0000000E+00   0.0000000E+00   0.0000000E+00   0.0000000E+00   0.0000000E+00   0.0000000E+00   0.0000000E+00   0.0000000E+00   0.0000000E+00   0.0000000E+00   0.0000000E+00   0.0000000E+00   0.0000000E+00   0.0000000E+00   0.0000000E+00   0.0000000E+00   0.0000000E+00   0.0000000E+00   0.0000000E+00   0.0000000E+00   0.0000000E+00   0.0000000E+00   0.0000000E+00   0.0000000E+00   0.0000000E+00   0.0000000E+00   0.0000000E+00   0.0000000E+00   0.0000000E+00   0.0000000E+00   0.0000000E+00   0.0000000E+00   0.0000000E+00   0.0000000E+00   0.0000000E+00   0.0000000E+00   0.0000000E+00   0.0000000E+00   0.0000000E+00   0.0000000E+00   0.0000000E+00   0.0000000E+00   0.0000000E+00   0.0000000E+00   0.0000000E+00   0.0000000E+00   0.0000000E+00   0.0000000E+00   0.0000000E+00   0.0000000E+00   0.0000000E+00   0.0000000E+00   0.0000000E+00   0.0000000E+00   0.0000000E+00   0.0000000E+00   0.0000000E+00   0.0000000E+00   0.0000000E+00   0.0000000E+00   0.0000000E+00   0.0000000E+00   0.0000000E+00   0.0000000E+00   0.0000000E+00   0.0000000E+00   0.0000000E+00   0.0000000E+00   0.0000000E+00   0.0000000E+00   0.0000000E+00   0.0000000E+00 
StrainDot.y 1 2975 float
  0.0000000E+00   0.0000000E+00   0.0000000E+00   0.0000000E+00   0.0000000E+00   0.0000000E+00   0.0000000E+00   0.0000000E+00   0.0000000E+00   0.0000000E+00   0.0000000E+00   0.0000000E+00   0.0000000E+00  -1.2459982E-08  -8.3497251E-24  -9.1725148E-08  -5.1857705E-07  -1.9616509E-07  -1.3912834E-06  -3.6446725E-06  -1.8475865E-06  -6.7524547E-06  -1.3512215E-05  -7.2507073E-06  -2.0300100E-05  -3.5646568E-05  -1.8888572E-05  -4.6181409E-05  -7.5524549E-05  -3.8366619E-05  -8.6972686E-05  -1.3659148E-04  -6.5630447E-05  -1.4243792E-04  -2.1848186E-04  -9.9051060E-05  -2.0964912E-04  -3.1688873E-04  -1.3654202E-04  -2.8496431E-04  -4.2640138E-04  -1.7707792E-04  -3.6678376E-04  -5.4487988E-04  -2.2168114E-04  -4.5735578E-04  -6.7625433E-04  -2.7413748E-04  -5.6455092E-04  -8.3299162E-04  -3.4354514E-04  -7.0691470E-04  -1.0424687E-03  -4.5298328E-04  -9.2461123E-04  -1.3580332E-03  -6.5880356E-04  -1.2972716E-03  -1.8740592E-03  -1.0903360E-03  -1.9720953E-03  -2.7445890E-03  -3.1891023E-03  -4.1954527E-03   0.0000000E+00   0.0000000E+00   0.0000000E+00   0.0000000E+00   0.0000000E+00   0.0000000E+00   0.0000000E+00   0.0000000E+00   0.0000000E+00   0.0000000E+00   0.0000000E+00   0.0000000E+00   0.0000000E+00   0.0000000E+00   0.0000000E+00   0.0000000E+00   0.0000000E+00   0.0000000E+00   0.0000000E+00   0.0000000E+00   0.0000000E+00   0.0000000E+00   0.0000000E+00   0.0000000E+00   0.0000000E+00  -8.4458307E-10  -2.8533722E-09  -2.5774534E-09  -2.9364206E-10   6.4955308E-10   7.6289480E-10   7.8555584E-10  -7.8930697E-08  -1.7084507E-07  -2.2125323E-07  -1.9165208E-07  -9.4160896E-08   1.6621049E-08   8.1359424E-08   9.3949360E-08  -1.1399991E-06  -1.6229142E-06  -1.7371560E-06  -1.4118954E-06  -7.4670538E-07   3.7809826E-09   5.6659599E-07   8.3213553E-07  -5.8734308E-06  -7.1476111E-06  -7.0455480E-06  -5.5097194E-06  -2.8983322E-06  -2.5427820E-08   2.2244465E-06   3.4576603E-06  -1.8984600E-05  -2.1408412E-05  -2.0204763E-05  -1.5409087E-05  -7.9658766E-06   7.0591021E-08   6.4541996E-06   1.0128313E-05  -4.6622601E-05  -5.0441475E-05  -4.6400663E-05  -3.4719829E-05  -1.7523294E-05   7.0545366E-07   1.5194788E-05   2.3702873E-05  -9.4940769E-05  -1.0036366E-04  -9.0843103E-05  -6.6780703E-05  -3.2606666E-05   2.7905010E-06   3.0650262E-05   4.7078200E-05  -1.6795652E-04  -1.7521944E-04  -1.5671259E-04  -1.1290658E-04  -5.2693500E-05   7.7761370E-06   5.4592081E-05   8.2051447E-05  -2.6527559E-04  -2.7435992E-04  -2.4181360E-04  -3.8129860E-04  -3.9122472E-04  -5.0868938E-04  -5.1670091E-04  -6.4491795E-04  -6.4868585E-04  -7.9536613E-04  -7.9304632E-04  -9.7557635E-04  -9.6518977E-04  -1.2177104E-03  -1.1958804E-03  -1.5820380E-03  -1.5420467E-03  -2.1738841E-03  -2.1050896E-03  -3.1629612E-03  -3.0552347E-03  -4.7852420E-03  -4.6368693E-03   0.0000000E+00   0.0000000E+00   0.0000000E+00   0.0000000E+00   0.0000000E+00   0.0000000E+00   0.0000000E+00   0.0000000E+00   0.0000000E+00   0.0000000E+00   0.0000000E+00   0.0000000E+00   0.0000000E+00   0.0000000E+00   0.0000000E+00   0.0000000E+00   0.0000000E+00   0.0000000E+00   0.0000000E+00   0.0000000E+00   0.0000000E+00   0.0000000E+00   0.0000000E+00   0.0000000E+00   0.0000000E+00   0.0000000E+00   0.0000000E+00   7.4347051E-10   6.6266581E-10   5.7072952E-10   4.8429039E-10   4.0488934E-10   3.3695172E-10   2.8204616E-10   2.4051811E-10   2.1497269E-10   9.0746965E-08   8.2623856E-08   7.2302591E-08   6.1734966E-08   5.1990465E-08   4.3565734E-08   3.6704009E-08   3.1625735E-08   2.8493293E-08   8.5660719E-07   7.9164528E-07   7.0093745E-07   6.0356780E-07   5.1141211E-07   4.3088528E-07   3.6536855E-07   3.1695635E-07   2.8721672E-07   3.7972582E-06   3.5968908E-06   3.2163030E-06   2.7901331E-06   2.3776536E-06   2.0133746E-06   1.7160181E-06   1.4964719E-06   1.3618393E-06   1.1360958E-05   1.1022360E-05   9.9483177E-06   8.6847149E-06   7.4377954E-06   6.3254697E-06   5.4138368E-06   4.7402518E-06   4.3273826E-06   2.6753096E-05   2.6226351E-05   2.3890254E-05   2.0961776E-05   1.8026263E-05   1.5385054E-05   1.3211821E-05   1.1603924E-05   1.0618142E-05   5.3098047E-05   5.2216517E-05   4.7824204E-05   4.2118976E-05   3.6333553E-05   3.1094423E-05   2.6769509E-05   2.3565406E-05   2.1600252E-05   9.2083108E-05   9.0506539E-05   8.3058163E-05   7.3337636E-05   6.3402302E-05   5.4365930E-05   4.6888734E-05   4.1343563E-05   3.7941656E-05   0.0000000E+00   0.0000000E+00   0.0000000E+00   0.0000000E+00   0.0000000E+00   0.0000000E+00   0.0000000E+00   0.0000000E+00   0.0000000E+00   0.0000000E+00   0.0000000E+00   0.0000000E+00   0.0000000E+00   0.0000000E+00   0.0000000E+00   0.0000000E+00   0.0000000E+00   0.0000000E+00   0.0000000E+00   0.0000000E+00   0.0000000E+00   0.0000000E+00   0.0000000E+00   0.0000000E+00   2.0638444E-10   2.1497243E-10   2.4051777E-10   2.8204672E-10   3.3695252E-10   4.0488932E-10   4.8429016E-10   5.7072935E-10   2.7429127E-08   2.8493284E-08   3.1625753E-08   3.6704037E-08   4.3565766E-08   5.1990476E-08   6.1734958E-08   7.2302583E-08   2.7718457E-07   2.8721675E-07   3.1695643E-07   3.6536872E-07   4.3088554E-07   5.1141228E-07   6.0356774E-07   7.0093762E-07   1.3164838E-06   1.3618395E-06   1.4964722E-06   1.7160186E-06   2.0133759E-06   2.3776545E-06   2.7901331E-06   3.2163036E-06   4.1883136E-06   4.3273817E-06   4.7402536E-06   5.4138368E-06   6.3254729E-06   7.4377995E-06   8.6847158E-06   9.9483232E-06   1.0286015E-05   1.0618141E-05   1.1603928E-05   1.3211827E-05   1.5385065E-05   1.8026270E-05   2.0961774E-05   2.3890263E-05   2.0938120E-05   2.1600255E-05   2.3565413E-05   2.6769521E-05   3.1094438E-05   3.6333571E-05   4.2119002E-05   4.7824225E-05   3.6795460E-05   3.7941645E-05   4.1343592E-05   4.6888785E-05   5.4365966E-05   6.3402331E-05   7.3337629E-05   8.3058192E-05   0.0000000E+00   0.0000000E+00   0.0000000E+00   0.0000000E+00   0.0000000E+00   0.0000000E+00   0.0000000E+00   0.0000000E+00   0.0000000E+00   0.0000000E+00   0.0000000E+00   0.0000000E+00   0.0000000E+00   0.0000000E+00   0.0000000E+00   0.0000000E+00   0.0000000E+00   0.0000000E+00   0.0000000E+00   0.0000000E+00   0.0000000E+00   0.0000000E+00   0.0000000E+00   0.0000000E+00   0.0000000E+00   0.0000000E+00   0.0000000E+00   6.6266603E-10   7.4347145E-10   7.8555634E-10   7.6289475E-10   6.4955308E-10  -2.9364222E-10  -2.5774543E-09  -2.8533722E-09  -8.4458290E-10   8.2623878E-08   9.0747029E-08   9.3949417E-08   8.1359460E-08   1.6621049E-08  -9.4160903E-08  -1.9165215E-07  -2.2125323E-07  -1.7084508E-07   7.9164533E-07   8.5660781E-07   8.3213610E-07   5.6659616E-07   3.7810972E-09  -7.4670561E-07  -1.4118953E-06  -1.7371557E-06  -1.6229142E-06   3.5968912E-06   3.7972602E-06   3.4576617E-06   2.2244471E-06  -2.5427550E-08  -2.8983334E-06  -5.5097212E-06  -7.0455480E-06  -7.1476115E-06   1.1022366E-05   1.1360959E-05   1.0128314E-05   6.4542087E-06   7.0592961E-08  -7.9658748E-06  -1.5409096E-05  -2.0204756E-05  -2.1408412E-05   2.6226362E-05   2.6753100E-05   2.3702885E-05   1.5194798E-05   7.0546224E-07  -1.7523294E-05  -3.4719844E-05  -4.6400655E-05  -5.0441475E-05   5.2216539E-05   5.3098032E-05   4.7078243E-05   3.0650292E-05   2.7905071E-06  -3.2606658E-05  -6.6780711E-05  -9.0843118E-05  -1.0036370E-04   9.0506597E-05   9.2083166E-05   8.2051498E-05   5.4592139E-05   7.7761688E-06  -5.2693475E-05  -1.1290658E-04  -1.5671262E-04  -1.7521949E-04  -2.4181372E-04  -2.7435992E-04  -3.9122481E-04  -5.1670102E-04  -6.4868596E-04  -7.9304632E-04  -9.6518954E-04  -1.1958805E-03  -1.5420467E-03  -2.1050891E-03  -3.0552342E-03  -4.6368688E-03   0.0000000E+00   0.0000000E+00   0.0000000E+00   0.0000000E+00   0.0000000E+00   0.0000000E+00   0.0000000E+00   0.0000000E+00   0.0000000E+00   0.0000000E+00   0.0000000E+00   0.0000000E+00   0.0000000E+00   0.0000000E+00   0.0000000E+00  -7.8930675E-08  -1.2459980E-08   0.0000000E+00   0.0000000E+00  -1.1399987E-06  -5.1857694E-07  -9.1725148E-08  -8.3497235E-24  -5.8734286E-06  -3.6446725E-06  -1.3912837E-06  -1.9616516E-07  -1.8984598E-05  -1.3512212E-05  -6.7524556E-06  -1.8475870E-06  -4.6622605E-05  -3.5646561E-05  -2.0300102E-05  -7.2507096E-06  -9.4940791E-05  -7.5524542E-05  -4.6181402E-05  -1.8888577E-05  -1.6795655E-04  -1.3659152E-04  -8.6972672E-05  -3.8366623E-05  -2.6527562E-04  -2.1848189E-04  -1.4243789E-04  -6.5630469E-05  -3.8129871E-04  -3.1688882E-04  -2.0964911E-04  -9.9051067E-05  -5.0868944E-04  -4.2640138E-04  -2.8496431E-04  -1.3654202E-04  -6.4491801E-04  -5.4487999E-04  -3.6678373E-04  -1.7707793E-04  -7.9536613E-04  -6.7625451E-04  -4.5735578E-04  -2.2168116E-04  -9.7557652E-04  -8.3299197E-04  -5.6455098E-04  -2.7413756E-04  -1.2177110E-03  -1.0424689E-03  -7.0691458E-04  -3.4354525E-04  -1.5820379E-03  -1.3580328E-03  -9.2461152E-04  -4.5298328E-04  -2.1738843E-03  -1.8740590E-03  -1.2972715E-03  -6.5880356E-04  -3.1629619E-03  -2.7445892E-03  -1.9720951E-03  -1.0903360E-03  -4.7852425E-03  -4.1954517E-03  -3.1891020E-03   0.0000000E+00   0.0000000E+00   0.0000000E+00   0.0000000E+00   0.0000000E+00   0.0000000E+00   0.0000000E+00   0.0000000E+00   0.0000000E+00   0.0000000E+00   0.0000000E+00   0.0000000E+00   0.0000000E+00   0.0000000E+00   0.0000000E+00   0.0000000E+00   0.0000000E+00   0.0000000E+00   0.0000000E+00   0.0000000E+00   0.0000000E+00   0.0000000E+00   0.0000000E+00   0.0000000E+00   0.0000000E+00   0.0000000E+00   0.0000000E+00   0.0000000E+00   0.0000000E+00   0.0000000E+00   0.0000000E+00   0.0000000E+00   0.0000000E+00   0.0000000E+00   0.0000000E+00   0.0000000E+00   0.0000000E+00   0.0000000E+00   0.0000000E+00   0.0000000E+00   0.0000000E+00   0.0000000E+00   0.0000000E+00   0.0000000E+00   0.0000000E+00   0.0000000E+00   0.0000000E+00   0.0000000E+00   0.0000000E+00   0.0000000E+00   0.0000000E+00   0.0000000E+00   0.0000000E+00   0.0000000E+00   0.0000000E+00   0.0000000E+00   0.0000000E+00   0.0000000E+00   0.0000000E+00   0.0000000E+00   0.0000000E+00   0.0000000E+00   0.0000000E+00   0.0000000E+00   0.0000000E+00   0.0000000E+00   0.0000000E+00   0.0000000E+00   0.0000000E+00   0.0000000E+00   0.0000000E+00   0.0000000E+00   0.0000000E+00   0.0000000E+00   0.0000000E+00   0.0000000E+00   0.0000000E+00   0.0000000E+00   0.0000000E+00   0.0000000E+00   0.0000000E+00   0.0000000E+00   0.0000000E+00   0.0000000E+00   0.0000000E+00   0.0000000E+00   0.0000000E+00   0.0000000E+00   0.0000000E+00   0.0000000E+00   0.0000000E+00   0.0000000E+00   0.0000000E+00   0.0000000E+00   0.0000000E+00   0.0000000E+00   0.0000000E+00   0.0000000E+00   0.0000000E+00   0.0000000E+00   0.0000000E+00   0.0000000E+00   0.0000000E+00   0.0000000E+00   0.0000000E+00   0.0000000E+00   0.0000000E+00   0.0000000E+00   0.0000000E+00   0.0000000E+00   0.0000000E+00   0.0000000E+00   0.0000000E+00   0.0000000E+00   0.0000000E+00   0.0000000E+00   0.0000000E+00   0.0000000E+00   0.0000000E+00   0.0000000E+00   0.0000000E+00   0.0000000E+00   0.0000000E+00   0.0000000E+00   0.0000000E+00   0.0000000E+00   0.0000000E+00   0.0000000E+00   0.0000000E+00   0.0000000E+00   0.0000000E+00   0.0000000E+00   0.0000000E+00   0.0000000E+00   0.0000000E+00   0.0000000E+00   0.0000000E+00   0.0000000E+00   0.0000000E+00   0.0000000E+00   0.0000000E+00   0.0000000E+00   0.0000000E+00   0.0000000E+00   0.0000000E+00   0.0000000E+00   0.0000000E+00   0.0000000E+00   0.0000000E+00   0.0000000E+00   0.0000000E+00   0.0000000E+00   0.0000000E+00   0.0000000E+00   0.0000000E+00   0.0000000E+00   0.0000000E+00   0.0000000E+00   0.0000000E+00   0.0000000E+00   0.0000000E+00   0.0000000E+00   0.0000000E+00   0.0000000E+00   0.0000000E+00   0.0000000E+00   0.0000000E+00   0.0000000E+00   0.0000000E+00   0.0000000E+00   0.0000000E+00   0.0000000E+00   0.0000000E+00   0.0000000E+00   0.0000000E+00   0.0000000E+00   0.0000000E+00   0.0000000E+00   0.0000000E+00   0.0000000E+00   0.0000000E+00   0.0000000E+00   0.0000000E+00   0.0000000E+00   0.0000000E+00   0.0000000E+00   0.0000000E+00   0.0000000E+00   0.0000000E+00   0.0000000E+00   0.0000000E+00   0.0000000E+00   0.0000000E+00   0.0000000E+00   0.0000000E+00   0.0000000E+00   0.0000000E+00   0.0000000E+00   0.0000000E+00   0.0000000E+00   0.0000000E+00   0.0000000E+00   0.0000000E+00   0.0000000E+00   0.0000000E+00   0.0000000E+00   0.0000000E+00   0.0000000E+00   0.0000000E+00   0.0000000E+00   0.0000000E+00   0.0000000E+00   0.0000000E+00   0.0000000E+00   0.0000000E+00   0.0000000E+00   0.0000000E+00   0.0000000E+00   0.0000000E+00   0.0000000E+00   0.0000000E+00   0.0000000E+00   0.0000000E+00   0.0000000E+00   0.0000000E+00   0.0000000E+00   0.0000000E+00   0.0000000E+00   0.0000000E+00   0.0000000E+00   0.0000000E+00   0.0000000E+00   0.0000000E+00   0.0000000E+00   0.0000000E+00   0.0000000E+00   0.0000000E+00   0.0000000E+00   0.0000000E+00   0.0000000E+00   0.0000000E+00   0.0000000E+00   0.0000000E+00   0.0000000E+00   0.0000000E+00   0.0000000E+00   0.0000000E+00   0.0000000E+00   0.0000000E+00   0.0000000E+00   0.0000000E+00   0.0000000E+00   0.0000000E+00   0.0000000E+00   0.0000000E+00   0.0000000E+00   0.0000000E+00   0.0000000E+00   0.0000000E+00   0.0000000E+00   0.0000000E+00   0.0000000E+00   0.0000000E+00   0.0000000E+00   0.0000000E+00   0.0000000E+00   0.0000000E+00   0.0000000E+00   0.0000000E+00   0.0000000E+00   0.0000000E+00   0.0000000E+00   0.0000000E+00   0.0000000E+00   0.0000000E+00   0.0000000E+00   0.0000000E+00   0.0000000E+00   0.0000000E+00   0.0000000E+00   0.0000000E+00   0.0000000E+00   0.0000000E+00   0.0000000E+00   0.0000000E+00   0.0000000E+00   0.0000000E+00   0.0000000E+00   0.0000000E+00   0.0000000E+00   0.0000000E+00   0.0000000E+00   0.0000000E+00   0.0000000E+00   0.0000000E+00   0.0000000E+00   0.0000000E+00   0.0000000E+00   0.0000000E+00   0.0000000E+00   0.0000000E+00   0.0000000E+00   0.0000000E+00   0.0000000E+00   0.0000000E+00   0.0000000E+00   0.0000000E+00   0.0000000E+00   0.0000000E+00   0.0000000E+00   0.0000000E+00   0.0000000E+00   0.0000000E+00   0.0000000E+00   0.0000000E+00   0.0000000E+00   0.0000000E+00   0.0000000E+00   0.0000000E+00   0.0000000E+00   0.0000000E+00   0.0000000E+00   0.0000000E+00   0.0000000E+00   0.0000000E+00   0.0000000E+00   0.0000000E+00   0.0000000E+00   0.0000000E+00   0.0000000E+00   0.0000000E+00   0.0000000E+00   0.0000000E+00   0.0000000E+00   0.0000000E+00   0.0000000E+00   0.0000000E+00   0.0000000E+00   0.0000000E+00   0.0000000E+00   0.0000000E+00   0.0000000E+00   0.0000000E+00   0.0000000E+00   0.0000000E+00   0.0000000E+00   0.0000000E+00   0.0000000E+00   0.0000000E+00   0.0000000E+00   0.0000000E+00   0.0000000E+00   0.0000000E+00   0.0000000E+00   0.0000000E+00   0.0000000E+00   0.0000000E+00   0.0000000E+00   0.0000000E+00   0.0000000E+00   0.0000000E+00   0.0000000E+00   0.0000000E+00   0.0000000E+00   0.0000000E+00   0.0000000E+00   0.0000000E+00   0.0000000E+00   0.0000000E+00   0.0000000E+00   0.0000000E+00   0.0000000E+00   0.0000000E+00   0.0000000E+00   0.0000000E+00   0.0000000E+00   0.0000000E+00   0.0000000E+00   0.0000000E+00   0.0000000E+00   0.0000000E+00   0.0000000E+00   0.0000000E+00   0.0000000E+00   0.0000000E+00   0.0000000E+00   0.0000000E+00   0.0000000E+00   0.0000000E+00   0.0000000E+00   0.0000000E+00   0.0000000E+00   0.0000000E+00   0.0000000E+00   0.0000000E+00   0.0000000E+00   0.0000000E+00   0.0000000E+00   0.0000000E+00   0.0000000E+00   0.0000000E+00   0.0000000E+00   0.0000000E+00   0.0000000E+00   0.0000000E+00   0.0000000E+00   0.0000000E+00   0.0000000E+00   0.0000000E+00   0.0000000E+00   0.0000000E+00   0.0000000E+00   0.0000000E+00   0.0000000E+00   0.0000000E+00   0.0000000E+00   0.0000000E+00   0.0000000E+00   0.0000000E+00   0.0000000E+00   0.0000000E+00   0.0000000E+00   0.0000000E+00   0.0000000E+00   0.0000000E+00   0.0000000E+00   0.0000000E+00   0.0000000E+00   0.0000000E+00   0.0000000E+00   0.0000000E+00   0.0000000E+00   0.0000000E+00   0.0000000E+00   0.0000000E+00   0.0000000E+00   0.0000000E+00   0.0000000E+00   0.0000000E+00   0.0000000E+00   0.0000000E+00   0.0000000E+00   0.0000000E+00   0.0000000E+00   0.0000000E+00   0.0000000E+00   0.0000000E+00   0.0000000E+00   0.0000000E+00   0.0000000E+00   0.0000000E+00   0.0000000E+00   0.0000000E+00   0.0000000E+00   0.0000000E+00   0.0000000E+00   0.0000000E+00   0.0000000E+00   0.0000000E+00   0.0000000E+00   0.0000000E+00   0.0000000E+00   0.0000000E+00   0.0000000E+00   0.0000000E+00   0.0000000E+00   0.0000000E+00   0.0000000E+00   0.0000000E+00   0.0000000E+00   0.0000000E+00   0.0000000E+00  -1.6719487E-04  -7.5043223E-05   1.6957209E-05   8.7108492E-05   1.2785544E-04  -3.1738213E-04  -2.2675718E-04  -9.6535827E-05   3.0599746E-05   1.2630963E-04   1.8117316E-04  -4.1426366E-04  -2.8741750E-04  -1.1550081E-04   4.8878050E-05   1.7077343E-04   2.3928509E-04  -5.1439676E-04  -3.4868292E-04  -1.3139396E-04   7.2379349E-05   2.2071609E-04   3.0184386E-04  -6.2065077E-04  -4.1172822E-04  -1.4411096E-04   1.0224234E-04   2.7796396E-04   3.7103449E-04  -7.3937036E-04  -4.7896587E-04  -1.5234979E-04   1.4196320E-04   3.4700663E-04   4.5195949E-04  -8.7884400E-04  -5.5140979E-04  -1.4932427E-04   2.0290766E-04   4.4001278E-04   5.5559084E-04  -1.0479470E-03  -6.2536367E-04  -1.1694810E-04   3.1142280E-04   5.8431120E-04   7.0514920E-04  -1.2554529E-03  -6.8627473E-04  -1.7641287E-05   5.1703159E-04   8.2886440E-04   9.4165187E-04  -1.5227913E-03  -7.0172868E-04   2.1947507E-04   9.0101152E-04   1.2473257E-03   1.3250255E-03  -1.8843175E-03  -6.1839126E-04   7.0261484E-04   1.5764765E-03   1.9351786E-03   1.9289383E-03  -1.5482686E-03  -1.0897953E-04   1.6316827E-03   2.6817559E-03   2.9902067E-03   2.8260960E-03   1.8589811E-03   1.9300118E-03   3.3997053E-03   4.3619149E-03   4.4849967E-03   4.0673506E-03   7.3534604E-03   5.7475944E-03   6.1749290E-03   6.6721728E-03   6.4343628E-03   5.6657251E-03   1.2879425E-02   1.0347333E-02   9.6575189E-03   9.4980551E-03   8.7777479E-03   7.5994199E-03   1.7571528E-02   1.4758830E-02   1.3370184E-02   1.2624244E-02   1.1440081E-02   9.8393196E-03   2.1668682E-02   1.8796554E-02   1.7122181E-02   1.5977146E-02   1.4392922E-02   1.2375623E-02   2.5582362E-02   2.2758147E-02   2.1017911E-02   1.9634817E-02   1.7682886E-02   1.5216615E-02   2.9953651E-02   2.7131496E-02   2.5345327E-02   2.3730297E-02   2.1363541E-02   1.8372331E-02   3.5246469E-02   3.2321293E-02   3.0324157E-02   2.8354341E-02   2.5459819E-02   2.1834465E-02   4.1719824E-02   3.8523585E-02   3.6039948E-02   3.3515483E-02   2.9947119E-02   2.5558710E-02   4.9586527E-02   4.5802996E-02   4.2424429E-02   3.9115116E-02   3.4726508E-02   2.9455088E-02   5.8996983E-02   5.4050978E-02   4.9184222E-02   4.4910543E-02   3.9618075E-02   3.3401027E-02   6.9981359E-02   6.2839858E-02   5.5772517E-02   5.0530780E-02   4.4402555E-02   3.7295002E-02   8.2142219E-02   7.1288057E-02   6.1387975E-02   5.5557836E-02   4.8907131E-02   4.1158766E-02   9.4781950E-02   7.8077666E-02   6.5191716E-02   5.9742175E-02   5.3215459E-02   4.5278315E-02   1.0652366E-01   8.1756137E-02   6.6575110E-02   6.3364036E-02   5.7874765E-02   5.0377939E-02   1.1545180E-01   8.1012368E-02   6.5867491E-02   6.7208871E-02   6.4035557E-02   5.7755362E-02   1.1952878E-01   7.5659394E-02   6.4137481E-02   7.2816275E-02   7.3389500E-02   6.9173776E-02   1.1782647E-01   6.7499727E-02   6.3831873E-02   8.1917576E-02   8.7780334E-02   8.6510964E-02   1.1252184E-01   6.2377762E-02   6.8884790E-02   9.6207812E-02   1.0800152E-01   1.1091397E-01   1.0951854E-01   6.8718664E-02   8.3454333E-02   1.1469278E-01   1.3299701E-01   1.4240326E-01   1.1173873E-01   8.4315345E-02   1.1128063E-01   1.3725267E-01   1.6158761E-01   1.7967860E-01   1.1127961E-01   9.6548520E-02   1.5688246E-01   1.7369199E-01   1.9493324E-01   2.2031221E-01   1.0047480E-01   9.5653802E-02   1.9251023E-01   2.1254520E-01   2.2938679E-01   2.6027340E-01   8.7322287E-02   7.9761535E-02   2.1386899E-01   2.4183464E-01   2.5871894E-01   2.9496700E-01   7.0653461E-02   4.8878215E-02   2.0657915E-01   2.5441435E-01   2.7680993E-01   3.1998274E-01   5.1397167E-02   8.9452928E-03   1.7237608E-01   2.4072279E-01   2.7978599E-01   3.3385721E-01   4.4563413E-02  -1.4753755E-02   1.4593390E-01   2.2663008E-01   2.7847987E-01   3.4033749E-01   4.7490165E-02  -2.1323681E-02   1.3364601E-01   2.1875170E-01   2.7656695E-01   3.4215713E-01   5.6496542E-02  -1.6427230E-02   1.3371363E-01   2.1758093E-01   2.7544063E-01   3.4130588E-01   6.7538068E-02  -4.4054934E-03   1.4276883E-01   2.2094710E-01   2.7486348E-01   3.3859348E-01   7.6059267E-02   7.1254782E-03   1.5110604E-01   2.2383417E-01   2.7314737E-01   3.3378479E-01   7.9960674E-02   1.5854811E-02   1.5462692E-01   2.2365895E-01   2.6909241E-01   3.2626057E-01   8.1795290E-02   2.2805924E-02   1.5360193E-01   2.1947837E-01   2.6193038E-01   3.1553614E-01   8.2182854E-02   2.8224075E-02   1.4798053E-01   2.1040224E-01   2.5152081E-01   3.0157220E-01   7.9973109E-02   3.2880716E-02   1.3951927E-01   1.9800040E-01   2.3826100E-01   2.8484061E-01   7.6944806E-02   3.6686581E-02   1.3087650E-01   1.8474370E-01   2.2343792E-01   2.6619375E-01   7.3021397E-02   3.7460264E-02   1.2263300E-01   1.7292431E-01   2.0803687E-01   2.4654053E-01   6.5236218E-02   3.5862070E-02   1.1519270E-01   1.6252339E-01   1.9255367E-01   2.2683187E-01   5.2182510E-02   3.2201666E-02   1.0838598E-01   1.5304625E-01   1.7825061E-01   2.0818140E-01   3.3929069E-02   3.0594965E-02   1.0500202E-01   1.4530382E-01   1.6678187E-01   1.9169891E-01   2.9709101E-02   3.4615882E-02   1.0334814E-01   1.4094542E-01   1.5888166E-01   1.7808801E-01   5.5506822E-02   5.3036489E-02   1.0773257E-01   1.3986920E-01   1.5441176E-01   1.6792572E-01   7.5318471E-02   7.0912056E-02   1.1098323E-01   1.3958152E-01   1.5204994E-01   1.6083071E-01   8.1459366E-02   1.0769174E-01   1.3805600E-01   1.5009789E-01   1.5586804E-01   9.1664664E-02   1.0599667E-01   1.3373815E-01   1.4702995E-01   1.5158302E-01   1.0936505E-01   1.2929556E-01   1.4407028E-01   1.4702459E-01   1.1436827E-01   1.3064407E-01   1.4170225E-01   1.4371334E-01   1.3159481E-01   1.4179923E-01   1.4322571E-01   1.4014651E-01   1.4409681E-01   1.2618928E-01   1.4364111E-01   1.4244941E-04   1.3965984E-04   1.2817528E-04   1.1334845E-04   9.8136690E-05   8.4262945E-05   7.2764044E-05   6.4230175E-05   5.8994156E-05   2.0015497E-04   1.9550849E-04   1.7926838E-04   1.5865947E-04   1.3749496E-04   1.1815580E-04   1.0210522E-04   9.0186732E-05   8.2873114E-05   2.6171570E-04   2.5436358E-04   2.3283668E-04   2.0609678E-04   1.7866319E-04   1.5356114E-04   1.3269848E-04   1.1719383E-04   1.0767572E-04   3.2630059E-04   3.1515819E-04   2.8779820E-04   2.5460168E-04   2.2062102E-04   1.8948923E-04   1.6356610E-04   1.4427093E-04   1.3241413E-04   3.9617383E-04   3.8006413E-04   3.4611160E-04   3.0581231E-04   2.6467000E-04   2.2689994E-04   1.9535593E-04   1.7181550E-04   1.5732381E-04   4.7682881E-04   4.5455780E-04   4.1278265E-04   3.6409820E-04   3.1444230E-04   2.6868100E-04   2.3028768E-04   2.0152563E-04   1.8377283E-04   5.7818671E-04   5.4769008E-04   4.9583154E-04   4.3637722E-04   3.7564259E-04   3.1933759E-04   2.7181531E-04   2.3604558E-04   2.1389914E-04   7.1811338E-04   6.7349488E-04   6.0678530E-04   5.3207704E-04   4.5576299E-04   3.8460342E-04   3.2419030E-04   2.7851140E-04   2.5015025E-04   9.2721923E-04   8.5385708E-04   7.6186529E-04   6.6342211E-04   5.6391646E-04   4.7107364E-04   3.9202164E-04   3.3209252E-04   2.9482177E-04   1.2507276E-03   1.1206452E-03   9.8316616E-04   8.4582239E-04   7.1075110E-04   5.8588973E-04   4.7988057E-04   3.9958552E-04   3.4966427E-04   1.7443659E-03   1.5140749E-03   1.2981272E-03   1.0975531E-03   9.0806955E-04   7.3630735E-04   5.9187133E-04   4.8302364E-04   4.1553320E-04   2.4638905E-03   2.0762172E-03   1.7362071E-03   1.4379249E-03   1.1677437E-03   9.2897768E-04   7.3113386E-04   5.8332755E-04   4.9213262E-04   3.4516584E-03   2.8421581E-03   2.3235129E-03   1.8842331E-03   1.5000177E-03   1.1690778E-03   8.9947542E-04   7.0024584E-04   5.7812041E-04   4.7271131E-03   3.8329596E-03   3.0776295E-03   2.4485649E-03   1.9117924E-03   1.4596339E-03   1.0974297E-03   8.3289383E-04   6.7192386E-04   6.2880856E-03   5.0538075E-03   4.0049627E-03   3.1357503E-03   2.4056558E-03   1.8016023E-03   1.3251922E-03   9.8131446E-04   7.7367859E-04   8.1216153E-03   6.4972565E-03   5.1013394E-03   3.9433218E-03   2.9804260E-03   2.1953706E-03   1.5850341E-03   1.1496043E-03   8.8880508E-04   1.0215285E-02   8.1490716E-03   6.3548447E-03   4.8635849E-03   3.6337855E-03   2.6443838E-03   1.8858926E-03   1.3512692E-03   1.0338408E-03   1.2558013E-02   9.9917706E-03   7.7492911E-03   5.8878125E-03   4.3674847E-03   3.1615312E-03   2.2508190E-03   1.6174245E-03   1.2450723E-03   1.5136866E-02   1.2004145E-02   9.2679802E-03   7.0129666E-03   5.1961648E-03   3.7793124E-03   2.7279740E-03   2.0082546E-03   1.5902109E-03   1.7926080E-02   1.4159250E-02   1.0899317E-02   8.2525564E-03   6.1610215E-03   4.5646033E-03   3.4055244E-03   2.6276142E-03   2.1826574E-03   2.0878633E-02   1.6427865E-02   1.2648983E-02   9.6541075E-03   7.3493798E-03   5.6381202E-03   4.4297199E-03   3.6394375E-03   3.1966646E-03   2.3931509E-02   1.8795518E-02   1.4564225E-02   1.1325992E-02   8.9206649E-03   7.1972245E-03   6.0237315E-03   5.2830158E-03   4.8802085E-03   2.7034227E-02   2.1299848E-02   1.6773719E-02   1.3474310E-02   1.1136767E-02   9.5387530E-03   8.5033271E-03   7.8827823E-03   7.5608953E-03   3.0208578E-02   2.4090460E-02   1.9540841E-02   1.6444737E-02   1.4390913E-02   1.3075335E-02   1.2282427E-02   1.1845835E-02   1.1638580E-02   3.3638664E-02   2.7502369E-02   2.3316562E-02   2.0755164E-02   1.9222429E-02   1.8335352E-02   1.7861584E-02   1.7642053E-02   1.7560428E-02   3.7779044E-02   3.2124367E-02   2.8771700E-02   2.7100215E-02   2.6301997E-02   2.5935596E-02   2.5793212E-02   2.5765151E-02   2.5779713E-02   4.3471515E-02   3.8850665E-02   3.6794443E-02   3.6315985E-02   3.6380846E-02   3.6525160E-02   3.6625151E-02   3.6678441E-02   3.6704179E-02   5.2037343E-02   4.8919719E-02   4.8469212E-02   4.9321495E-02   5.0223310E-02   5.0723433E-02   5.0846670E-02   5.0767824E-02   5.0653055E-02   6.5227292E-02   6.3894749E-02   6.5063290E-02   6.7091390E-02   6.8572260E-02   6.9090657E-02   6.8868428E-02   6.8328522E-02   6.7848541E-02   8.4914856E-02   8.5484765E-02   8.7971628E-02   9.0664767E-02   9.2166841E-02   9.2142344E-02   9.1038145E-02   8.9586481E-02   8.8441953E-02   1.1255085E-01   1.1517102E-01   1.1850109E-01   1.2105538E-01   1.2171529E-01   1.2034433E-01   1.1764873E-01   1.1471555E-01   1.1253595E-01   1.4861816E-01   1.5366475E-01   1.5742168E-01   1.5892586E-01   1.5768728E-01   1.5398017E-01   1.4884576E-01   1.4376864E-01   1.4012849E-01   1.9207440E-01   2.0027868E-01   2.0434341E-01   2.0405953E-01   1.9990988E-01   1.9284971E-01   1.8439147E-01   1.7648391E-01   1.7094576E-01   2.4005564E-01   2.5246021E-01   2.5717834E-01   2.5481927E-01   2.4708170E-01   2.3586516E-01   2.2333775E-01   2.1201274E-01   2.0420371E-01   2.8807363E-01   3.0584466E-01   3.1203791E-01   3.0790699E-01   2.9646125E-01   2.8074238E-01   2.6376224E-01   2.4870330E-01   2.3842143E-01   3.3099571E-01   3.5508272E-01   3.6379811E-01   3.5871282E-01   3.4408247E-01   3.2415256E-01   3.0288568E-01   2.8420162E-01   2.7151468E-01   3.6454523E-01   3.9536366E-01   4.0745518E-01   4.0249792E-01   3.8574544E-01   3.6252251E-01   3.3771631E-01   3.1597337E-01   3.0123937E-01   3.8690457E-01   4.2400259E-01   4.3977183E-01   4.3591106E-01   4.1829064E-01   3.9303914E-01   3.6581156E-01   3.4188518E-01   3.2566357E-01   3.9928582E-01   4.4112951E-01   4.6019211E-01   4.5794576E-01   4.4048485E-01   4.1440734E-01   3.8590279E-01   3.6072406E-01   3.4362140E-01   4.0409938E-01   4.4873384E-01   4.7016639E-01   4.6950823E-01   4.5277542E-01   4.2673579E-01   3.9787173E-01   3.7222993E-01   3.5477445E-01   4.0371570E-01   4.4925049E-01   4.7189781E-01   4.7239938E-01   4.5651764E-01   4.3098232E-01   4.0236232E-01   3.7681928E-01   3.5940149E-01   3.9963454E-01   4.4455925E-01   4.6734256E-01   4.6842167E-01   4.5324507E-01   4.2838117E-01   4.0033737E-01   3.7524396E-01   3.5811713E-01   3.9234862E-01   4.3564186E-01   4.5774806E-01   4.5889479E-01   4.4421512E-01   4.2005330E-01   3.9275956E-01   3.6832622E-01   3.5165113E-01   3.8172871E-01   4.2278239E-01   4.4371140E-01   4.4461069E-01   4.3030766E-01   4.0688220E-01   3.8046607E-01   3.5684788E-01   3.4074482E-01   3.6755106E-01   4.0603003E-01   4.2553845E-01   4.2608246E-01   4.1217542E-01   3.8959232E-01   3.6420661E-01   3.4155950E-01   3.2614329E-01   3.4990063E-01   3.8562116E-01   4.0362918E-01   4.0385261E-01   3.9046538E-01   3.6889860E-01   3.4473151E-01   3.2322639E-01   3.0861554E-01   3.2931700E-01   3.6216843E-01   3.7866604E-01   3.7865725E-01   3.6595047E-01   3.4559777E-01   3.2284924E-01   3.0265388E-01   2.8895897E-01   3.0667454E-01   3.3658016E-01   3.5157195E-01   3.5141215E-01   3.3952901E-01   3.2056883E-01   2.9941362E-01   2.8066710E-01   2.6797381E-01   2.8295416E-01   3.0986866E-01   3.2335517E-01   3.2309768E-01   3.1214178E-01   2.9470992E-01   2.7527979E-01   2.5807965E-01   2.4644299E-01   2.5910932E-01   2.8300336E-01   2.9497084E-01   2.9463300E-01   2.8466588E-01   2.6885429E-01   2.5124106E-01   2.3565105E-01   2.2510502E-01   2.3605436E-01   2.5683314E-01   2.6722312E-01   2.6677626E-01   2.5781751E-01   2.4368186E-01   2.2794852E-01   2.1401526E-01   2.0458399E-01   2.1472999E-01   2.3208778E-01   2.4074954E-01   2.4009535E-01   2.3210987E-01   2.1966580E-01   2.0585139E-01   1.9361541E-01   1.8532440E-01   1.9599998E-01   2.0945972E-01   2.1607111E-01   2.1501453E-01   2.0788586E-01   1.9708849E-01   1.8519425E-01   1.7467909E-01   1.6755125E-01   1.8043943E-01   1.8960014E-01   1.9370021E-01   1.9193244E-01   1.8542278E-01   1.7611457E-01   1.6606052E-01   1.5724048E-01   1.5127493E-01   1.6827644E-01   1.7308858E-01   1.7425023E-01   1.7133853E-01   1.6505872E-01   1.5691257E-01   1.4847293E-01   1.4121707E-01   1.3635318E-01   1.5923624E-01   1.6019145E-01   1.5836741E-01   1.5384893E-01   1.4728715E-01   1.3979617E-01   1.3254686E-01   1.2655661E-01   1.2262565E-01   1.5252092E-01   1.5069835E-01   1.4637409E-01   1.4009194E-01   1.3273913E-01   1.2529500E-01   1.1863903E-01   1.1343132E-01   1.1012802E-01   1.4686432E-01   1.4369361E-01   1.3789943E-01   1.3027221E-01   1.2197389E-01   1.1408132E-01   1.0738934E-01   1.0237517E-01   9.9289097E-02   1.4140241E-01   1.3780384E-01   1.3174187E-01   1.2376051E-01   1.1498316E-01   1.0662401E-01   9.9542372E-02   9.4239488E-02   9.0973936E-02   1.3821726E-01   1.3245688E-01   1.2652020E-01   1.1919504E-01   1.1094422E-01   1.0272443E-01   9.5470786E-02   8.9814492E-02   8.6216316E-02   1.3872692E-01   1.3043208E-01   1.2270001E-01   1.1566260E-01   1.0867536E-01   1.0159267E-01   9.4887629E-02   8.9316778E-02   8.5598640E-02   1.4048892E-01   1.3290301E-01   1.2349363E-01   1.1551648E-01   1.0857549E-01   1.0262372E-01   9.7133264E-02   9.2285164E-02   8.8842385E-02   1.3550000E-01   1.3460276E-01   1.2850037E-01   1.2096316E-01   1.1423768E-01   1.0787912E-01   1.0240466E-01   9.8011114E-02   9.4952829E-02   1.2769115E-01   1.3037908E-01   1.2841080E-01   1.2264778E-01   1.1570925E-01   1.0985024E-01   1.0546711E-01   1.0259454E-01   1.3213457E-01   1.3277106E-01   1.2553596E-01   1.1781128E-01   1.1303926E-01   1.1036046E-01   1.3712604E-01   1.2734677E-01   1.2045704E-01   1.1747973E-01   5.7230151E-05   5.8994166E-05   6.4230233E-05   7.2764131E-05   8.4263047E-05   9.8136748E-05   1.1334848E-04   1.2817523E-04   8.0409365E-05   8.2873128E-05   9.0186804E-05   1.0210528E-04   1.1815588E-04   1.3749507E-04   1.5865956E-04   1.7926857E-04   1.0446915E-04   1.0767581E-04   1.1719402E-04   1.3269862E-04   1.5356130E-04   1.7866325E-04   2.0609697E-04   2.3283671E-04   1.2841818E-04   1.3241425E-04   1.4427106E-04   1.6356635E-04   1.8948957E-04   2.2062122E-04   2.5460182E-04   2.8779841E-04   1.5243582E-04   1.5732393E-04   1.7181570E-04   1.9535612E-04   2.2690013E-04   2.6467018E-04   3.0581249E-04   3.4611192E-04   1.7777731E-04   1.8377281E-04   2.0152575E-04   2.3028784E-04   2.6868118E-04   3.1444253E-04   3.6409835E-04   4.1278274E-04   2.0640883E-04   2.1389915E-04   2.3604544E-04   2.7181517E-04   3.1933759E-04   3.7564297E-04   4.3637751E-04   4.9583160E-04   2.4054508E-04   2.5015004E-04   2.7851108E-04   3.2419022E-04   3.8460345E-04   4.5576302E-04   5.3207716E-04   6.0678582E-04   2.8218949E-04   2.9482166E-04   3.3209214E-04   3.9202144E-04   4.7107341E-04   5.6391658E-04   6.6342205E-04   7.6186581E-04   3.3274677E-04   3.4966398E-04   3.9958509E-04   4.7987991E-04   5.8588909E-04   7.1075145E-04   8.4582280E-04   9.8316604E-04   3.9268931E-04   4.1553302E-04   4.8302280E-04   5.9187086E-04   7.3630712E-04   9.0806989E-04   1.0975536E-03   1.2981283E-03   4.6133308E-04   4.9213227E-04   5.8332691E-04   7.3113386E-04   9.2897785E-04   1.1677438E-03   1.4379250E-03   1.7362090E-03   5.3699804E-04   5.7812018E-04   7.0024555E-04   8.9947530E-04   1.1690777E-03   1.5000185E-03   1.8842341E-03   2.3235148E-03   6.1791122E-04   6.7192392E-04   8.3289377E-04   1.0974295E-03   1.4596342E-03   1.9117940E-03   2.4485658E-03   3.0776320E-03   7.0427032E-04   7.7367888E-04   9.8131469E-04   1.3251927E-03   1.8016031E-03   2.4056556E-03   3.1357508E-03   4.0049623E-03   8.0198364E-04   8.8880520E-04   1.1496044E-03   1.5850354E-03   2.1953732E-03   2.9804278E-03   3.9433199E-03   5.1013413E-03   9.2865090E-04   1.0338407E-03   1.3512702E-03   1.8858946E-03   2.6443871E-03   3.6337874E-03   4.8635863E-03   6.3548461E-03   1.1223407E-03   1.2450728E-03   1.6174259E-03   2.2508220E-03   3.1615340E-03   4.3674870E-03   5.8878176E-03   7.7493000E-03   1.4533233E-03   1.5902118E-03   2.0082556E-03   2.7279740E-03   3.7793147E-03   5.1961718E-03   7.0129666E-03   9.2679774E-03   2.0381915E-03   2.1826564E-03   2.6276170E-03   3.4055270E-03   4.5646084E-03   6.1610243E-03   8.2525611E-03   1.0899319E-02   3.0545869E-03   3.1966679E-03   3.6394377E-03   4.4297203E-03   5.6381221E-03   7.3493859E-03   9.6541094E-03   1.2648985E-02   4.7532013E-03   4.8802118E-03   5.2830218E-03   6.0237357E-03   7.1972269E-03   8.9206696E-03   1.1325991E-02   1.4564229E-02   7.4623725E-03   7.5608939E-03   7.8827823E-03   8.5033234E-03   9.5387613E-03   1.1136770E-02   1.3474306E-02   1.6773721E-02   1.1579022E-02   1.1638573E-02   1.1845837E-02   1.2282435E-02   1.3075342E-02   1.4390915E-02   1.6444728E-02   1.9540850E-02   1.7541984E-02   1.7560419E-02   1.7642055E-02   1.7861584E-02   1.8335350E-02   1.9222433E-02   2.0755162E-02   2.3316564E-02   2.5790222E-02   2.5779724E-02   2.5765149E-02   2.5793206E-02   2.5935594E-02   2.6301991E-02   2.7100231E-02   2.8771704E-02   3.6712080E-02   3.6704183E-02   3.6678441E-02   3.6625139E-02   3.6525182E-02   3.6380839E-02   3.6315996E-02   3.6794461E-02   5.0603878E-02   5.0653037E-02   5.0767809E-02   5.0846681E-02   5.0723426E-02   5.0223287E-02   4.9321495E-02   4.8469223E-02   6.7663014E-02   6.7848600E-02   6.8328500E-02   6.8868428E-02   6.9090657E-02   6.8572231E-02   6.7091376E-02   6.5063283E-02   8.8015467E-02   8.8441938E-02   8.9586459E-02   9.1038153E-02   9.2142321E-02   9.2166863E-02   9.0664782E-02   8.7971598E-02   1.1174012E-01   1.1253598E-01   1.1471557E-01   1.1764879E-01   1.2034436E-01   1.2171527E-01   1.2105542E-01   1.1850107E-01   1.3881652E-01   1.4012842E-01   1.4376862E-01   1.4884570E-01   1.5398020E-01   1.5768735E-01   1.5892583E-01   1.5742163E-01   1.6896692E-01   1.7094572E-01   1.7648382E-01   1.8439148E-01   1.9284968E-01   1.9990981E-01   2.0405965E-01   2.0434329E-01   2.0143059E-01   2.0420375E-01   2.1201268E-01   2.2333780E-01   2.3586518E-01   2.4708179E-01   2.5481945E-01   2.5717819E-01   2.3478517E-01   2.3842150E-01   2.4870336E-01   2.6376218E-01   2.8074238E-01   2.9646143E-01   3.0790716E-01   3.1203812E-01   2.6703909E-01   2.7151492E-01   2.8420174E-01   3.0288574E-01   3.2415262E-01   3.4408236E-01   3.5871276E-01   3.6379799E-01   2.9604706E-01   3.0123946E-01   3.1597343E-01   3.3771622E-01   3.6252263E-01   3.8574541E-01   4.0249798E-01   4.0745512E-01   3.1994721E-01   3.2566360E-01   3.4188512E-01   3.6581159E-01   3.9303926E-01   4.1829053E-01   4.3591109E-01   4.3977198E-01   3.3759147E-01   3.4362128E-01   3.6072403E-01   3.8590264E-01   4.1440728E-01   4.4048506E-01   4.5794585E-01   4.6019226E-01   3.4861663E-01   3.5477453E-01   3.7222987E-01   3.9787191E-01   4.2673579E-01   4.5277542E-01   4.6950850E-01   4.7016615E-01   3.5325369E-01   3.5940152E-01   3.7681907E-01   4.0236217E-01   4.3098223E-01   4.5651755E-01   4.7239962E-01   4.7189790E-01   3.5207087E-01   3.5811722E-01   3.7524387E-01   4.0033743E-01   4.2838126E-01   4.5324489E-01   4.6842152E-01   4.6734259E-01   3.4576556E-01   3.5165137E-01   3.6832619E-01   3.9275953E-01   4.2005333E-01   4.4421509E-01   4.5889488E-01   4.5774797E-01   3.3506408E-01   3.4074479E-01   3.5684785E-01   3.8046616E-01   4.0688211E-01   4.3030769E-01   4.4461092E-01   4.4371146E-01   3.2070944E-01   3.2614353E-01   3.4155959E-01   3.6420676E-01   3.8959250E-01   4.1217566E-01   4.2608258E-01   4.2553818E-01   3.0347067E-01   3.0861536E-01   3.2322627E-01   3.4473160E-01   3.6889836E-01   3.9046529E-01   4.0385237E-01   4.0362918E-01   2.8414160E-01   2.8895891E-01   3.0265403E-01   3.2284915E-01   3.4559777E-01   3.6595047E-01   3.7865713E-01   3.7866622E-01   2.6351264E-01   2.6797381E-01   2.8066701E-01   2.9941347E-01   3.2056877E-01   3.3952898E-01   3.5141200E-01   3.5157189E-01   2.4235518E-01   2.4644300E-01   2.5807941E-01   2.7527997E-01   2.9471004E-01   3.1214195E-01   3.2309762E-01   3.2335532E-01   2.2139993E-01   2.2510508E-01   2.3565106E-01   2.5124112E-01   2.6885426E-01   2.8466594E-01   2.9463300E-01   2.9497090E-01   2.0126899E-01   2.0458406E-01   2.1401528E-01   2.2794843E-01   2.4368191E-01   2.5781766E-01   2.6677632E-01   2.6722318E-01   1.8240778E-01   1.8532445E-01   1.9361550E-01   2.0585142E-01   2.1966577E-01   2.3210974E-01   2.4009533E-01   2.4074960E-01   1.6504174E-01   1.6755119E-01   1.7467913E-01   1.8519422E-01   1.9708845E-01   2.0788597E-01   2.1501453E-01   2.1607116E-01   1.4917512E-01   1.5127492E-01   1.5724038E-01   1.6606055E-01   1.7611459E-01   1.8542275E-01   1.9193240E-01   1.9370031E-01   1.3464658E-01   1.3635318E-01   1.4121704E-01   1.4847286E-01   1.5691243E-01   1.6505872E-01   1.7133857E-01   1.7425025E-01   1.2125890E-01   1.2262570E-01   1.2655661E-01   1.3254687E-01   1.3979617E-01   1.4728723E-01   1.5384893E-01   1.5836738E-01   1.0899732E-01   1.1012795E-01   1.1343135E-01   1.1863908E-01   1.2529495E-01   1.3273908E-01   1.4009193E-01   1.4637423E-01   9.8249234E-02   9.9289097E-02   1.0237511E-01   1.0738934E-01   1.1408132E-01   1.2197390E-01   1.3027225E-01   1.3789937E-01   8.9871325E-02   9.0973943E-02   9.4239525E-02   9.9542364E-02   1.0662403E-01   1.1498316E-01   1.2376045E-01   1.3174184E-01   8.4979899E-02   8.6216331E-02   8.9814454E-02   9.5470741E-02   1.0272440E-01   1.1094421E-01   1.1919501E-01   1.2652022E-01   8.4294058E-02   8.5598610E-02   8.9316763E-02   9.4887629E-02   1.0159267E-01   1.0867532E-01   1.1566263E-01   1.2270005E-01   8.7597743E-02   8.8842429E-02   9.2285126E-02   9.7133271E-02   1.0262372E-01   1.0857555E-01   1.1551648E-01   1.2349367E-01   9.3836032E-02   9.4952799E-02   9.8011069E-02   1.0240465E-01   1.0787914E-01   1.1423768E-01   1.2096325E-01   1.2850039E-01   1.0156398E-01   1.0259452E-01   1.0546714E-01   1.0985024E-01   1.1570923E-01   1.2264780E-01   1.2841080E-01   1.3037905E-01   1.0944727E-01   1.1036044E-01   1.1303924E-01   1.1781129E-01   1.2553599E-01   1.3277107E-01   1.3213460E-01   1.1661072E-01   1.1747973E-01   1.2045705E-01   1.2734681E-01   1.3712604E-01   1.3965985E-04   1.4244947E-04   1.2785547E-04   8.7108550E-05   1.6957205E-05  -7.5043223E-05  -1.6719488E-04   1.9550860E-04   2.0015497E-04   1.8117315E-04   1.2630968E-04   3.0599716E-05  -9.6535819E-05  -2.2675727E-04  -3.1738228E-04   2.5436372E-04   2.6171573E-04   2.3928532E-04   1.7077348E-04   4.8878050E-05  -1.1550079E-04  -2.8741756E-04  -4.1426369E-04   3.1515840E-04   3.2630068E-04   3.0184409E-04   2.2071606E-04   7.2379422E-05  -1.3139375E-04  -3.4868298E-04  -5.1439682E-04   3.8006422E-04   3.9617394E-04   3.7103469E-04   2.7796399E-04   1.0224248E-04  -1.4411079E-04  -4.1172822E-04  -6.2065077E-04   4.5455794E-04   4.7682913E-04   4.5195970E-04   3.4700675E-04   1.4196320E-04  -1.5234965E-04  -4.7896573E-04  -7.3937047E-04   5.4768991E-04   5.7818665E-04   5.5559102E-04   4.4001336E-04   2.0290789E-04  -1.4932433E-04  -5.5140955E-04  -8.7884406E-04   6.7349547E-04   7.1811379E-04   7.0514967E-04   5.8431184E-04   3.1142341E-04  -1.1694775E-04  -6.2536355E-04  -1.0479467E-03   8.5385767E-04   9.2721981E-04   9.4165187E-04   8.2886522E-04   5.1703164E-04  -1.7640821E-05  -6.8627438E-04  -1.2554525E-03   1.1206460E-03   1.2507273E-03   1.3250264E-03   1.2473257E-03   9.0101198E-04   2.1947554E-04  -7.0172851E-04  -1.5227908E-03   1.5140761E-03   1.7443672E-03   1.9289381E-03   1.9351785E-03   1.5764770E-03   7.0261484E-04  -6.1839115E-04  -1.8843169E-03   2.0762184E-03   2.4638923E-03   2.8260967E-03   2.9902079E-03   2.6817559E-03   1.6316830E-03  -1.0897953E-04  -1.5482686E-03   2.8421616E-03   3.4516598E-03   4.0673492E-03   4.4849976E-03   4.3619154E-03   3.3997034E-03   1.9300105E-03   1.8589788E-03   3.8329614E-03   4.7271191E-03   5.6657246E-03   6.4343633E-03   6.6721728E-03   6.1749294E-03   5.7475958E-03   7.3534637E-03   5.0538098E-03   6.2880875E-03   7.5994194E-03   8.7777460E-03   9.4980616E-03   9.6575161E-03   1.0347332E-02   1.2879422E-02   6.4972537E-03   8.1216199E-03   9.8393243E-03   1.1440079E-02   1.2624242E-02   1.3370181E-02   1.4758829E-02   1.7571531E-02   8.1490679E-03   1.0215284E-02   1.2375624E-02   1.4392924E-02   1.5977150E-02   1.7122192E-02   1.8796546E-02   2.1668697E-02   9.9917743E-03   1.2558009E-02   1.5216601E-02   1.7682895E-02   1.9634819E-02   2.1017917E-02   2.2758136E-02   2.5582364E-02   1.2004142E-02   1.5136870E-02   1.8372338E-02   2.1363534E-02   2.3730291E-02   2.5345331E-02   2.7131513E-02   2.9953653E-02   1.4159254E-02   1.7926075E-02   2.1834454E-02   2.5459806E-02   2.8354343E-02   3.0324169E-02   3.2321289E-02   3.5246477E-02   1.6427882E-02   2.0878643E-02   2.5558710E-02   2.9947137E-02   3.3515468E-02   3.6039960E-02   3.8523600E-02   4.1719813E-02   1.8795533E-02   2.3931503E-02   2.9455077E-02   3.4726504E-02   3.9115135E-02   4.2424407E-02   4.5802988E-02   4.9586549E-02   2.1299837E-02   2.7034219E-02   3.3401001E-02   3.9618086E-02   4.4910546E-02   4.9184211E-02   5.4050960E-02   5.8996987E-02   2.4090469E-02   3.0208573E-02   3.7295010E-02   4.4402573E-02   5.0530761E-02   5.5772517E-02   6.2839828E-02   6.9981351E-02   2.7502367E-02   3.3638649E-02   4.1158766E-02   4.8907150E-02   5.5557836E-02   6.1387978E-02   7.1288042E-02   8.2142249E-02   3.2124370E-02   3.7779052E-02   4.5278292E-02   5.3215444E-02   5.9742197E-02   6.5191641E-02   7.8077629E-02   9.4781980E-02   3.8850665E-02   4.3471485E-02   5.0377917E-02   5.7874765E-02   6.3364059E-02   6.6575065E-02   8.1756137E-02   1.0652363E-01   4.8919737E-02   5.2037332E-02   5.7755366E-02   6.4035572E-02   6.7208864E-02   6.5867461E-02   8.1012376E-02   1.1545182E-01   6.3894749E-02   6.5227315E-02   6.9173791E-02   7.3389463E-02   7.2816260E-02   6.4137436E-02   7.5659350E-02   1.1952882E-01   8.5484862E-02   8.4914833E-02   8.6510964E-02   8.7780304E-02   8.1917517E-02   6.3831873E-02   6.7499720E-02   1.1782642E-01   1.1517107E-01   1.1255085E-01   1.1091399E-01   1.0800158E-01   9.6207790E-02   6.8884768E-02   6.2377758E-02   1.1252175E-01   1.5366477E-01   1.4861806E-01   1.4240335E-01   1.3299702E-01   1.1469282E-01   8.3454281E-02   6.8718575E-02   1.0951838E-01   2.0027868E-01   1.9207433E-01   1.7967851E-01   1.6158774E-01   1.3725261E-01   1.1128069E-01   8.4315255E-02   1.1173867E-01   2.5246012E-01   2.4005565E-01   2.2031213E-01   1.9493333E-01   1.7369205E-01   1.5688244E-01   9.6548527E-02   1.1127954E-01   3.0584469E-01   2.8807366E-01   2.6027355E-01   2.2938688E-01   2.1254525E-01   1.9251032E-01   9.5653802E-02   1.0047481E-01   3.5508278E-01   3.3099592E-01   2.9496706E-01   2.5871891E-01   2.4183480E-01   2.1386899E-01   7.9761632E-02   8.7322071E-02   3.9536363E-01   3.6454511E-01   3.1998283E-01   2.7681014E-01   2.5441450E-01   2.0657936E-01   4.8878171E-02   7.0653461E-02   4.2400259E-01   3.8690466E-01   3.3385718E-01   2.7978599E-01   2.4072297E-01   1.7237608E-01   8.9453971E-03   5.1397022E-02   4.4112968E-01   3.9928579E-01   3.4033778E-01   2.7847993E-01   2.2663009E-01   1.4593402E-01  -1.4753736E-02   4.4563655E-02   4.4873396E-01   4.0409943E-01   3.4215719E-01   2.7656704E-01   2.1875180E-01   1.3364607E-01  -2.1323526E-02   4.7490258E-02   4.4925040E-01   4.0371603E-01   3.4130591E-01   2.7544078E-01   2.1758097E-01   1.3371366E-01  -1.6427184E-02   5.6496546E-02   4.4455943E-01   3.9963454E-01   3.3859351E-01   2.7486354E-01   2.2094728E-01   1.4276876E-01  -4.4054301E-03   6.7537978E-02   4.3564191E-01   3.9234868E-01   3.3378485E-01   2.7314740E-01   2.2383420E-01   1.5110604E-01   7.1254373E-03   7.6059312E-02   4.2278221E-01   3.8172859E-01   3.2626060E-01   2.6909250E-01   2.2365904E-01   1.5462698E-01   1.5854955E-02   7.9960838E-02   4.0603009E-01   3.6755085E-01   3.1553632E-01   2.6193035E-01   2.1947847E-01   1.5360184E-01   2.2805864E-02   8.1795178E-02   3.8562101E-01   3.4990057E-01   3.0157205E-01   2.5152072E-01   2.1040234E-01   1.4798072E-01   2.8224181E-02   8.2182854E-02   3.6216858E-01   3.2931688E-01   2.8484079E-01   2.3826095E-01   1.9800051E-01   1.3951935E-01   3.2880798E-02   7.9972990E-02   3.3658040E-01   3.0667454E-01   2.6619342E-01   2.2343783E-01   1.8474351E-01   1.3087639E-01   3.6686547E-02   7.6944962E-02   3.0986860E-01   2.8295401E-01   2.4654044E-01   2.0803685E-01   1.7292430E-01   1.2263296E-01   3.7460137E-02   7.3021375E-02   2.8300336E-01   2.5910947E-01   2.2683187E-01   1.9255358E-01   1.6252334E-01   1.1519255E-01   3.5862055E-02   6.5236196E-02   2.5683305E-01   2.3605433E-01   2.0818138E-01   1.7825061E-01   1.5304622E-01   1.0838597E-01   3.2201640E-02   5.2182537E-02   2.3208775E-01   2.1472991E-01   1.9169901E-01   1.6678183E-01   1.4530371E-01   1.0500204E-01   3.0594934E-02   3.3929039E-02   2.0945962E-01   1.9599994E-01   1.7808807E-01   1.5888163E-01   1.4094545E-01   1.0334815E-01   3.4615964E-02   2.9709075E-02   1.8959998E-01   1.8043940E-01   1.6792576E-01   1.5441176E-01   1.3986929E-01   1.0773256E-01   5.3036422E-02   5.5506863E-02   1.7308857E-01   1.6827641E-01   1.6083066E-01   1.5205003E-01   1.3958147E-01   1.1098322E-01   7.0912041E-02   7.5318545E-02   1.6019151E-01   1.5923627E-01   1.5586808E-01   1.5009788E-01   1.3805605E-01   1.0769179E-01   8.1459358E-02   1.5069830E-01   1.5252110E-01   1.5158294E-01   1.4702994E-01   1.3373825E-01   1.0599671E-01   9.1664650E-02   1.4369364E-01   1.4686432E-01   1.4702456E-01   1.4407024E-01   1.2929554E-01   1.0936501E-01   1.3780388E-01   1.4140242E-01   1.4371328E-01   1.4170225E-01   1.3064401E-01   1.1436819E-01   1.3245696E-01   1.3821726E-01   1.4322577E-01   1.4179917E-01   1.3159488E-01   1.3043208E-01   1.3872689E-01   1.4409684E-01   1.4014664E-01   1.3290296E-01   1.4048897E-01   1.4364111E-01   1.2618917E-01   1.3460279E-01   1.3550001E-01   1.2769115E-01 
StrainDot.z 1 2975 float
  0.0000000E+00   0.0000000E+00   0.0000000E+00   0.0000000E+00   0.0000000E+00   0.0000000E+00   0.0000000E+00   0.0000000E+00   0.0000000E+00   0.0000000E+00   0.0000000E+00   0.0000000E+00   0.0000000E+00   7.0728274E-05   4.6655943E-21   5.2700873E-04   2.9639567E-03   1.1364296E-03   8.0534173E-03   2.1025022E-02   1.0780041E-02   3.9436482E-02   7.8673318E-02   4.2704750E-02   1.1979008E-01   2.0989971E-01   1.1253590E-01   2.7589464E-01   4.5062587E-01   2.3183809E-01   5.2739048E-01   8.2787699E-01   4.0357867E-01   8.7960130E-01   1.3495148E+00   6.2240279E-01   1.3238878E+00   2.0029519E+00   8.8091463E-01   1.8488287E+00   2.7711098E+00   1.1786031E+00   2.4566424E+00   3.6585279E+00   1.5290802E+00   3.1753848E+00   4.7157521E+00   2.0216870E+00   4.0745463E+00   6.0928521E+00   3.5324473E+00   5.5345287E+00   8.1597977E+00   9.6795788E+00   1.0071657E+01   1.1594794E+01   2.8368349E+01   2.5185705E+01   1.6998583E+01   7.3650391E+01   6.1647465E+01   2.4119339E+01   1.2587422E+02   3.5220192E+01   0.0000000E+00   0.0000000E+00   0.0000000E+00   0.0000000E+00   0.0000000E+00   0.0000000E+00   0.0000000E+00   0.0000000E+00   0.0000000E+00   0.0000000E+00   0.0000000E+00   0.0000000E+00   0.0000000E+00   0.0000000E+00   0.0000000E+00   0.0000000E+00   0.0000000E+00   0.0000000E+00   0.0000000E+00   0.0000000E+00   0.0000000E+00   0.0000000E+00   0.0000000E+00   0.0000000E+00   0.0000000E+00   4.4916405E-06   1.3980160E-05   7.9491747E-06   9.9691470E-06   1.7516813E-05   1.9583958E-05   2.0851912E-05   4.4141908E-04   9.3737664E-04   1.1422208E-03   8.4934972E-04   1.6896661E-04   5.6622503E-04   1.0067602E-03   1.1251239E-03   6.4600273E-03   8.9791212E-03   9.1677681E-03   6.7190393E-03   2.3024816E-03   2.5336591E-03   6.1756107E-03   8.0048200E-03   3.3535663E-02   3.9997168E-02   3.7988320E-02   2.7352720E-02   1.0439742E-02   7.7843149E-03   2.2087159E-02   3.0231783E-02   1.0957129E-01   1.2147862E-01   1.1104820E-01   7.8918144E-02   3.1258721E-02   1.9377720E-02   5.9654273E-02   8.3527148E-02   2.7250555E-01   2.9048276E-01   2.5983986E-01   1.8279704E-01   7.3192462E-02   4.1488186E-02   1.3274425E-01   1.8766171E-01   5.6295812E-01   5.8743238E-01   5.1878393E-01   3.6120999E-01   1.4347620E-01   7.9723030E-02   2.5564331E-01   3.6165795E-01   1.0126778E+00   1.0444840E+00   9.1411245E-01   6.2769932E-01   2.4269691E-01   1.4106156E-01   4.3881676E-01   6.1702240E-01   1.6314352E+00   1.6704634E+00   1.4444640E+00   2.4016085E+00   2.4426816E+00   3.2973111E+00   3.3244975E+00   4.3229880E+00   4.3213649E+00   5.5452313E+00   5.4983044E+00   7.3101859E+00   7.3226290E+00   1.1455172E+01   1.3066799E+01   2.3400116E+01   3.1755415E+01   5.1424561E+01   7.6566879E+01   1.0137521E+02   1.6035573E+02   1.6519864E+02   2.7776654E+02   0.0000000E+00   0.0000000E+00   0.0000000E+00   0.0000000E+00   0.0000000E+00   0.0000000E+00   0.0000000E+00   0.0000000E+00   0.0000000E+00   0.0000000E+00   0.0000000E+00   0.0000000E+00   0.0000000E+00   0.0000000E+00   0.0000000E+00   0.0000000E+00   0.0000000E+00   0.0000000E+00   0.0000000E+00   0.0000000E+00   0.0000000E+00   0.0000000E+00   0.0000000E+00   0.0000000E+00   0.0000000E+00   0.0000000E+00   0.0000000E+00   2.1498432E-05   2.1711674E-05   2.1693717E-05   2.1575886E-05   2.1394231E-05   2.1193491E-05   2.1001913E-05   2.0838117E-05   2.0730851E-05   1.1437777E-03   1.1279491E-03   1.0939994E-03   1.0537761E-03   1.0138482E-03   9.7738160E-04   9.4622624E-04   9.2227152E-04   9.0709393E-04   8.3787367E-03   8.2039274E-03   7.8545725E-03   7.4401596E-03   7.0286393E-03   6.6569764E-03   6.3458993E-03   6.1103301E-03   5.9629455E-03   3.3026531E-02   3.2590117E-02   3.1036193E-02   2.9136647E-02   2.7223632E-02   2.5490679E-02   2.4046415E-02   2.2960803E-02   2.2285881E-02   9.2810914E-02   9.2746697E-02   8.8244945E-02   8.2455859E-02   7.6533258E-02   7.1133450E-02   6.6632316E-02   6.3258708E-02   6.1168257E-02   2.0987134E-01   2.1080244E-01   2.0089100E-01   1.8717246E-01   1.7295004E-01   1.5990064E-01   1.4900532E-01   1.4084676E-01   1.3579939E-01   4.0488368E-01   4.0687120E-01   3.8782367E-01   3.6050260E-01   3.3191371E-01   3.0555955E-01   2.8352019E-01   2.6702005E-01   2.5682047E-01   6.8897706E-01   6.9093663E-01   6.5752846E-01   6.0984856E-01   5.5967706E-01   5.1329935E-01   4.7447267E-01   4.4540626E-01   4.2744941E-01   0.0000000E+00   0.0000000E+00   0.0000000E+00   0.0000000E+00   0.0000000E+00   0.0000000E+00   0.0000000E+00   0.0000000E+00   0.0000000E+00   0.0000000E+00   0.0000000E+00   0.0000000E+00   0.0000000E+00   0.0000000E+00   0.0000000E+00   0.0000000E+00   0.0000000E+00   0.0000000E+00   0.0000000E+00   0.0000000E+00   0.0000000E+00   0.0000000E+00   0.0000000E+00   0.0000000E+00   2.0694399E-05   2.0730857E-05   2.0838115E-05   2.1001913E-05   2.1193491E-05   2.1394235E-05   2.1575890E-05   2.1693717E-05   9.0186659E-04   9.0709404E-04   9.2227146E-04   9.4622618E-04   9.7738171E-04   1.0138486E-03   1.0537766E-03   1.0939995E-03   5.9127323E-03   5.9629451E-03   6.1103306E-03   6.3458993E-03   6.6569773E-03   7.0286416E-03   7.4401624E-03   7.8545744E-03   2.2056807E-02   2.2285881E-02   2.2960803E-02   2.4046419E-02   2.5490690E-02   2.7223639E-02   2.9136652E-02   3.1036202E-02   6.0459953E-02   6.1168268E-02   6.3258730E-02   6.6632330E-02   7.1133479E-02   7.6533295E-02   8.2455873E-02   8.8244967E-02   1.3409045E-01   1.3579939E-01   1.4084680E-01   1.4900535E-01   1.5990070E-01   1.7295009E-01   1.8717246E-01   2.0089103E-01   2.5336918E-01   2.5682053E-01   2.6702008E-01   2.8352031E-01   3.0555964E-01   3.3191377E-01   3.6050272E-01   3.8782373E-01   4.2137644E-01   4.2744941E-01   4.4540635E-01   4.7447282E-01   5.1329947E-01   5.5967718E-01   6.0984874E-01   6.5752858E-01   0.0000000E+00   0.0000000E+00   0.0000000E+00   0.0000000E+00   0.0000000E+00   0.0000000E+00   0.0000000E+00   0.0000000E+00   0.0000000E+00   0.0000000E+00   0.0000000E+00   0.0000000E+00   0.0000000E+00   0.0000000E+00   0.0000000E+00   0.0000000E+00   0.0000000E+00   0.0000000E+00   0.0000000E+00   0.0000000E+00   0.0000000E+00   0.0000000E+00   0.0000000E+00   0.0000000E+00   0.0000000E+00   0.0000000E+00   0.0000000E+00   2.1711670E-05   2.1498439E-05   2.0851918E-05   1.9583962E-05   1.7516815E-05   9.9691506E-06   7.9491783E-06   1.3980162E-05   4.4916401E-06   1.1279490E-03   1.1437781E-03   1.1251241E-03   1.0067605E-03   5.6622515E-04   1.6896660E-04   8.4935006E-04   1.1422210E-03   9.3737652E-04   8.2039274E-03   8.3787385E-03   8.0048218E-03   6.1756121E-03   2.5336603E-03   2.3024809E-03   6.7190407E-03   9.1677681E-03   8.9791212E-03   3.2590125E-02   3.3026535E-02   3.0231792E-02   2.2087168E-02   7.7843238E-03   1.0439740E-02   2.7352726E-02   3.7988320E-02   3.9997172E-02   9.2746697E-02   9.2810944E-02   8.3527170E-02   5.9654307E-02   1.9377744E-02   3.1258710E-02   7.8918181E-02   1.1104818E-01   1.2147860E-01   2.1080247E-01   2.0987137E-01   1.8766175E-01   1.3274436E-01   4.1488249E-02   7.3192433E-02   1.8279710E-01   2.5983989E-01   2.9048282E-01   4.0687126E-01   4.0488377E-01   3.6165801E-01   2.5564346E-01   7.9723135E-02   1.4347614E-01   3.6121011E-01   5.1878417E-01   5.8743244E-01   6.9093692E-01   6.8897724E-01   6.1702263E-01   4.3881705E-01   1.4106178E-01   2.4269687E-01   6.2769949E-01   9.1411287E-01   1.0444841E+00   1.4444643E+00   1.6704638E+00   2.4426816E+00   3.3244984E+00   4.3213663E+00   5.4983053E+00   7.3226299E+00   1.3066801E+01   3.1755432E+01   7.6566879E+01   1.6035577E+02   2.7776660E+02   0.0000000E+00   0.0000000E+00   0.0000000E+00   0.0000000E+00   0.0000000E+00   0.0000000E+00   0.0000000E+00   0.0000000E+00   0.0000000E+00   0.0000000E+00   0.0000000E+00   0.0000000E+00   0.0000000E+00   0.0000000E+00   0.0000000E+00   4.4141902E-04   7.0728267E-05   0.0000000E+00   0.0000000E+00   6.4600273E-03   2.9639564E-03   5.2700879E-04   4.6655943E-21   3.3535663E-02   2.1025026E-02   8.0534192E-03   1.1364297E-03   1.0957128E-01   7.8673318E-02   3.9436482E-02   1.0780044E-02   2.7250555E-01   2.0989975E-01   1.1979007E-01   4.2704761E-02   5.6295818E-01   4.5062584E-01   2.7589464E-01   1.1253592E-01   1.0126778E+00   8.2787699E-01   5.2739042E-01   2.3183811E-01   1.6314354E+00   1.3495151E+00   8.7960124E-01   4.0357870E-01   2.4016089E+00   2.0029521E+00   1.3238877E+00   6.2240285E-01   3.2973120E+00   2.7711103E+00   1.8488287E+00   8.8091475E-01   4.3229885E+00   3.6585283E+00   2.4566419E+00   1.1786032E+00   5.5452318E+00   4.7157521E+00   3.1753843E+00   1.5290803E+00   7.3101864E+00   6.0928535E+00   4.0745468E+00   2.0216873E+00   1.1455172E+01   8.1597986E+00   5.5345287E+00   3.5324483E+00   2.3400122E+01   1.1594796E+01   1.0071656E+01   9.6795807E+00   5.1424580E+01   1.6998589E+01   2.5185709E+01   2.8368355E+01   1.0137522E+02   2.4119339E+01   6.1647465E+01   7.3650436E+01   1.6519864E+02   3.5220196E+01   1.2587423E+02   0.0000000E+00   0.0000000E+00   0.0000000E+00   0.0000000E+00   0.0000000E+00   0.0000000E+00   0.0000000E+00   0.0000000E+00   0.0000000E+00   0.0000000E+00   0.0000000E+00   0.0000000E+00   0.0000000E+00   0.0000000E+00   0.0000000E+00   0.0000000E+00   0.0000000E+00   0.0000000E+00   0.0000000E+00   0.0000000E+00   0.0000000E+00   0.0000000E+00   0.0000000E+00   0.0000000E+00   0.0000000E+00   0.0000000E+00   0.0000000E+00   0.0000000E+00   0.0000000E+00   0.0000000E+00   0.0000000E+00   0.0000000E+00   0.0000000E+00   0.0000000E+00   0.0000000E+00   0.0000000E+00   0.0000000E+00   0.0000000E+00   0.0000000E+00   0.0000000E+00   0.0000000E+00   0.0000000E+00   0.0000000E+00   0.0000000E+00   0.0000000E+00   0.0000000E+00   0.0000000E+00   0.0000000E+00   0.0000000E+00   0.0000000E+00   0.0000000E+00   0.0000000E+00   0.0000000E+00   0.0000000E+00   0.0000000E+00   0.0000000E+00   0.0000000E+00   0.0000000E+00   0.0000000E+00   0.0000000E+00   0.0000000E+00   0.0000000E+00   0.0000000E+00   0.0000000E+00   0.0000000E+00   0.0000000E+00   0.0000000E+00   0.0000000E+00   0.0000000E+00   0.0000000E+00   0.0000000E+00   0.0000000E+00   0.0000000E+00   0.0000000E+00   0.0000000E+00   0.0000000E+00   0.0000000E+00   0.0000000E+00   0.0000000E+00   0.0000000E+00   0.0000000E+00   0.0000000E+00   0.0000000E+00   0.0000000E+00   0.0000000E+00   0.0000000E+00   0.0000000E+00   0.0000000E+00   0.0000000E+00   0.0000000E+00   0.0000000E+00   0.0000000E+00   0.0000000E+00   0.0000000E+00   0.0000000E+00   0.0000000E+00   0.0000000E+00   0.0000000E+00   0.0000000E+00   0.0000000E+00   0.0000000E+00   0.0000000E+00   0.0000000E+00   0.0000000E+00   0.0000000E+00   0.0000000E+00   0.0000000E+00   0.0000000E+00   0.0000000E+00   0.0000000E+00   0.0000000E+00   0.0000000E+00   0.0000000E+00   0.0000000E+00   0.0000000E+00   0.0000000E+00   0.0000000E+00   0.0000000E+00   0.0000000E+00   0.0000000E+00   0.0000000E+00   0.0000000E+00   0.0000000E+00   0.0000000E+00   0.0000000E+00   0.0000000E+00   0.0000000E+00   0.0000000E+00   0.0000000E+00   0.0000000E+00   0.0000000E+00   0.0000000E+00   0.0000000E+00   0.0000000E+00   0.0000000E+00   0.0000000E+00   0.0000000E+00   0.0000000E+00   0.0000000E+00   0.0000000E+00   0.0000000E+00   0.0000000E+00   0.0000000E+00   0.0000000E+00   0.0000000E+00   0.0000000E+00   0.0000000E+00   0.0000000E+00   0.0000000E+00   0.0000000E+00   0.0000000E+00   0.0000000E+00   0.0000000E+00   0.0000000E+00   0.0000000E+00   0.0000000E+00   0.0000000E+00   0.0000000E+00   0.0000000E+00   0.0000000E+00   0.0000000E+00   0.0000000E+00   0.0000000E+00   0.0000000E+00   0.0000000E+00   0.0000000E+00   0.0000000E+00   0.0000000E+00   0.0000000E+00   0.0000000E+00   0.0000000E+00   0.0000000E+00   0.0000000E+00   0.0000000E+00   0.0000000E+00   0.0000000E+00   0.0000000E+00   0.0000000E+00   0.0000000E+00   0.0000000E+00   0.0000000E+00   0.0000000E+00   0.0000000E+00   0.0000000E+00   0.0000000E+00   0.0000000E+00   0.0000000E+00   0.0000000E+00   0.0000000E+00   0.0000000E+00   0.0000000E+00   0.0000000E+00   0.0000000E+00   0.0000000E+00   0.0000000E+00   0.0000000E+00   0.0000000E+00   0.0000000E+00   0.0000000E+00   0.0000000E+00   0.0000000E+00   0.0000000E+00   0.0000000E+00   0.0000000E+00   0.0000000E+00   0.0000000E+00   0.0000000E+00   0.0000000E+00   0.0000000E+00   0.0000000E+00   0.0000000E+00   0.0000000E+00   0.0000000E+00   0.0000000E+00   0.0000000E+00   0.0000000E+00   0.0000000E+00   0.0000000E+00   0.0000000E+00   0.0000000E+00   0.0000000E+00   0.0000000E+00   0.0000000E+00   0.0000000E+00   0.0000000E+00   0.0000000E+00   0.0000000E+00   0.0000000E+00   0.0000000E+00   0.0000000E+00   0.0000000E+00   0.0000000E+00   0.0000000E+00   0.0000000E+00   0.0000000E+00   0.0000000E+00   0.0000000E+00   0.0000000E+00   0.0000000E+00   0.0000000E+00   0.0000000E+00   0.0000000E+00   0.0000000E+00   0.0000000E+00   0.0000000E+00   0.0000000E+00   0.0000000E+00   0.0000000E+00   0.0000000E+00   0.0000000E+00   0.0000000E+00   0.0000000E+00   0.0000000E+00   0.0000000E+00   0.0000000E+00   0.0000000E+00   0.0000000E+00   0.0000000E+00   0.0000000E+00   0.0000000E+00   0.0000000E+00   0.0000000E+00   0.0000000E+00   0.0000000E+00   0.0000000E+00   0.0000000E+00   0.0000000E+00   0.0000000E+00   0.0000000E+00   0.0000000E+00   0.0000000E+00   0.0000000E+00   0.0000000E+00   0.0000000E+00   0.0000000E+00   0.0000000E+00   0.0000000E+00   0.0000000E+00   0.0000000E+00   0.0000000E+00   0.0000000E+00   0.0000000E+00   0.0000000E+00   0.0000000E+00   0.0000000E+00   0.0000000E+00   0.0000000E+00   0.0000000E+00   0.0000000E+00   0.0000000E+00   0.0000000E+00   0.0000000E+00   0.0000000E+00   0.0000000E+00   0.0000000E+00   0.0000000E+00   0.0000000E+00   0.0000000E+00   0.0000000E+00   0.0000000E+00   0.0000000E+00   0.0000000E+00   0.0000000E+00   0.0000000E+00   0.0000000E+00   0.0000000E+00   0.0000000E+00   0.0000000E+00   0.0000000E+00   0.0000000E+00   0.0000000E+00   0.0000000E+00   0.0000000E+00   0.0000000E+00   0.0000000E+00   0.0000000E+00   0.0000000E+00   0.0000000E+00   0.0000000E+00   0.0000000E+00   0.0000000E+00   0.0000000E+00   0.0000000E+00   0.0000000E+00   0.0000000E+00   0.0000000E+00   0.0000000E+00   0.0000000E+00   0.0000000E+00   0.0000000E+00   0.0000000E+00   0.0000000E+00   0.0000000E+00   0.0000000E+00   0.0000000E+00   0.0000000E+00   0.0000000E+00   0.0000000E+00   0.0000000E+00   0.0000000E+00   0.0000000E+00   0.0000000E+00   0.0000000E+00   0.0000000E+00   0.0000000E+00   0.0000000E+00   0.0000000E+00   0.0000000E+00   0.0000000E+00   0.0000000E+00   0.0000000E+00   0.0000000E+00   0.0000000E+00   0.0000000E+00   0.0000000E+00   0.0000000E+00   0.0000000E+00   0.0000000E+00   0.0000000E+00   0.0000000E+00   0.0000000E+00   0.0000000E+00   0.0000000E+00   0.0000000E+00   0.0000000E+00   0.0000000E+00   0.0000000E+00   0.0000000E+00   0.0000000E+00   0.0000000E+00   0.0000000E+00   0.0000000E+00   0.0000000E+00   0.0000000E+00   0.0000000E+00   0.0000000E+00   0.0000000E+00   0.0000000E+00   0.0000000E+00   0.0000000E+00   0.0000000E+00   0.0000000E+00   0.0000000E+00   0.0000000E+00   0.0000000E+00   0.0000000E+00   0.0000000E+00   0.0000000E+00   0.0000000E+00   0.0000000E+00   0.0000000E+00   0.0000000E+00   0.0000000E+00   0.0000000E+00   0.0000000E+00   0.0000000E+00   0.0000000E+00   0.0000000E+00   0.0000000E+00   0.0000000E+00   0.0000000E+00   0.0000000E+00   0.0000000E+00   0.0000000E+00   0.0000000E+00   0.0000000E+00   0.0000000E+00   0.0000000E+00   0.0000000E+00   0.0000000E+00   0.0000000E+00   0.0000000E+00   0.0000000E+00   0.0000000E+00   0.0000000E+00   0.0000000E+00   0.0000000E+00   0.0000000E+00   0.0000000E+00   0.0000000E+00   0.0000000E+00   0.0000000E+00   0.0000000E+00   0.0000000E+00   0.0000000E+00   0.0000000E+00   0.0000000E+00   0.0000000E+00   0.0000000E+00   0.0000000E+00   0.0000000E+00   0.0000000E+00   0.0000000E+00   0.0000000E+00   0.0000000E+00   0.0000000E+00   0.0000000E+00   0.0000000E+00   0.0000000E+00   0.0000000E+00   0.0000000E+00   0.0000000E+00   0.0000000E+00   0.0000000E+00   0.0000000E+00   0.0000000E+00   0.0000000E+00   0.0000000E+00   0.0000000E+00   0.0000000E+00   0.0000000E+00   0.0000000E+00   0.0000000E+00   0.0000000E+00   0.0000000E+00   0.0000000E+00   0.0000000E+00   0.0000000E+00   0.0000000E+00   0.0000000E+00   0.0000000E+00   0.0000000E+00   0.0000000E+00   0.0000000E+00   0.0000000E+00   0.0000000E+00   0.0000000E+00   0.0000000E+00   0.0000000E+00   0.0000000E+00   0.0000000E+00   0.0000000E+00   9.5682013E-01   3.6063769E-01   2.3040327E-01   6.8237895E-01   9.5001251E-01   1.9533163E+00   1.3400506E+00   4.8250729E-01   3.5067952E-01   9.8006684E-01   1.3477715E+00   2.6322188E+00   1.7594222E+00   5.9794253E-01   5.0970918E-01   1.3347653E+00   1.8079524E+00   3.3887513E+00   2.2175224E+00   7.0136845E-01   7.2028458E-01   1.7618977E+00   2.3451176E+00   4.2578354E+00   2.7282951E+00   7.8834629E-01   1.0018624E+00   2.2899835E+00   2.9920354E+00   5.6098299E+00   3.5182722E+00   1.0143862E+00   1.4064043E+00   2.9712927E+00   3.8049769E+00   1.0871036E+01   7.2039051E+00   3.1922524E+00   2.3016753E+00   3.9296823E+00   4.8889618E+00   2.8809000E+01   2.0239803E+01   1.0497690E+01   5.1310124E+00   5.4925284E+00   6.4513483E+00   7.0067169E+01   4.9348225E+01   2.6200571E+01   1.1669877E+01   8.3536949E+00   8.8588371E+00   1.4176547E+02   9.7829796E+01   5.1361217E+01   2.2330973E+01   1.3278334E+01   1.2651110E+01   2.3085979E+02   1.5617076E+02   8.0505783E+01   3.5070560E+01   2.0574823E+01   1.8473944E+01   3.0164981E+02   1.9996800E+02   1.0169650E+02   4.6382233E+01   3.0442610E+01   2.6987848E+01   3.1719556E+02   2.0671761E+02   1.0585289E+02   5.5968082E+01   4.3825508E+01   3.8784798E+01   2.6938815E+02   1.7645665E+02   9.9260757E+01   6.9923141E+01   6.1992035E+01   5.4252529E+01   2.0419893E+02   1.4391951E+02   1.0497198E+02   9.3622101E+01   8.5256981E+01   7.3523254E+01   1.8229539E+02   1.4986774E+02   1.3337119E+02   1.2555079E+02   1.1327464E+02   9.6670044E+01   2.1258772E+02   1.8821616E+02   1.7424593E+02   1.6328516E+02   1.4604184E+02   1.2392853E+02   2.6488196E+02   2.3885201E+02   2.2216260E+02   2.0704066E+02   1.8424770E+02   1.5566481E+02   3.2976794E+02   2.9921790E+02   2.7831186E+02   2.5825732E+02   2.2870187E+02   1.9221887E+02   4.1187344E+02   3.7319125E+02   3.4488861E+02   3.1793698E+02   2.7986105E+02   2.3377504E+02   5.1525354E+02   4.6289578E+02   4.2246530E+02   3.8619965E+02   3.3772577E+02   2.8029999E+02   6.4353253E+02   5.6798401E+02   5.0970685E+02   4.6212912E+02   4.0181290E+02   3.3168430E+02   7.9679681E+02   6.8514618E+02   6.0284515E+02   5.4387299E+02   4.7154831E+02   3.8829941E+02   9.7276050E+02   8.0671338E+02   6.9649316E+02   6.2989111E+02   5.4751990E+02   4.5217697E+02   1.1623289E+03   9.1952124E+02   7.8537653E+02   7.2167230E+02   6.3402563E+02   5.2894495E+02   1.3476591E+03   1.0074116E+03   8.6899445E+02   8.2898297E+02   7.4336584E+02   6.3085577E+02   1.5055295E+03   1.0635586E+03   9.6193420E+02   9.7652911E+02   9.0126849E+02   7.8104163E+02   1.6145590E+03   1.0959584E+03   1.1025255E+03   1.2091144E+03   1.1511549E+03   1.0173573E+03   1.6813903E+03   1.1536099E+03   1.3546512E+03   1.5887938E+03   1.5514948E+03   1.3914829E+03   1.7781727E+03   1.3521122E+03   1.8001345E+03   2.1800286E+03   2.1645867E+03   1.9591993E+03   2.1080532E+03   1.8997329E+03   2.5353904E+03   3.0362275E+03   3.0297346E+03   2.7629922E+03   3.0666724E+03   3.1535503E+03   3.7317129E+03   4.1725269E+03   4.1585781E+03   3.8130347E+03   5.0763501E+03   5.5225254E+03   5.7314551E+03   5.6961968E+03   5.5236416E+03   5.0702314E+03   7.7258384E+03   8.7346416E+03   8.5041377E+03   7.5984331E+03   7.0619956E+03   6.4429092E+03   9.8124072E+03   1.1480848E+04   1.1103350E+04   9.5015059E+03   8.5782715E+03   7.7874028E+03   1.0773906E+04   1.2984330E+04   1.2903825E+04   1.1018108E+04   9.8728115E+03   8.9587178E+03   1.0810802E+04   1.3266902E+04   1.3698500E+04   1.1962203E+04   1.0804837E+04   9.8536475E+03   1.0520295E+04   1.3046485E+04   1.3801843E+04   1.2382401E+04   1.1370345E+04   1.0450267E+04   1.0297517E+04   1.2803740E+04   1.3745621E+04   1.2567850E+04   1.1680965E+04   1.0794081E+04   1.0228133E+04   1.2683869E+04   1.3680073E+04   1.2625741E+04   1.1807191E+04   1.0940808E+04   1.0294021E+04   1.2687944E+04   1.3640602E+04   1.2604349E+04   1.1799190E+04   1.0939086E+04   1.0432400E+04   1.2775870E+04   1.3619550E+04   1.2512525E+04   1.1680222E+04   1.0817221E+04   1.0394882E+04   1.2685984E+04   1.3443313E+04   1.2293573E+04   1.1444020E+04   1.0583216E+04   1.0149605E+04   1.2373150E+04   1.3065243E+04   1.1927774E+04   1.1083860E+04   1.0236044E+04   9.7275566E+03   1.1854136E+04   1.2490659E+04   1.1410486E+04   1.0597761E+04   9.7757705E+03   9.1762480E+03   1.1160773E+04   1.1738427E+04   1.0750770E+04   9.9933164E+03   9.2097119E+03   8.5240303E+03   1.0325897E+04   1.0845911E+04   9.9743193E+03   9.2882666E+03   8.5541230E+03   7.8011064E+03   9.4108486E+03   9.8756748E+03   9.1194658E+03   8.5103223E+03   7.8331206E+03   7.0389180E+03   8.4605938E+03   8.8770020E+03   8.2291279E+03   7.6904839E+03   7.0750791E+03   6.2295596E+03   7.4950605E+03   7.8854453E+03   7.3366343E+03   6.8637612E+03   6.3113389E+03   5.3579756E+03   6.5131343E+03   6.9256201E+03   6.4764585E+03   6.0674238E+03   5.5749839E+03   4.4518354E+03   5.5501851E+03   6.0358125E+03   5.6887163E+03   5.3361514E+03   4.8945137E+03   3.7258701E+03   4.7263018E+03   5.2459082E+03   5.0004419E+03   4.6865039E+03   4.2850791E+03   3.3113118E+03   4.1217534E+03   4.6079570E+03   4.4244570E+03   4.1254839E+03   3.7529316E+03   3.2137534E+03   3.6271941E+03   4.1253213E+03   3.9786626E+03   3.6700771E+03   3.3017976E+03   3.0325630E+03   3.7172458E+03   3.6716143E+03   3.3370476E+03   2.9416523E+03   2.4610239E+03   3.1937766E+03   3.4194077E+03   3.1095576E+03   2.6810200E+03   2.4148010E+03   3.0269822E+03   2.9186272E+03   2.5012644E+03   1.8708218E+03   2.3264321E+03   2.6120093E+03   2.3439097E+03   1.5550175E+03   2.0055833E+03   2.0867534E+03   1.2530111E+03   1.5645387E+03   1.4289596E+03   9.3339044E+02   1.0557016E+00   1.0550416E+00   1.0013976E+00   9.2661017E-01   8.4781504E-01   7.7488148E-01   7.1378851E-01   6.6806155E-01   6.3982856E-01   1.4883084E+00   1.4811220E+00   1.4018488E+00   1.2944158E+00   1.1813692E+00   1.0766587E+00   9.8891139E-01   9.2325073E-01   8.8273233E-01   1.9806256E+00   1.9613525E+00   1.8511493E+00   1.7062162E+00   1.5541204E+00   1.4131751E+00   1.2949891E+00   1.2065464E+00   1.1519841E+00   2.5449541E+00   2.5060790E+00   2.3584578E+00   2.1699958E+00   1.9729544E+00   1.7902840E+00   1.6369444E+00   1.5221206E+00   1.4512695E+00   3.2145438E+00   3.1468978E+00   2.9525833E+00   2.7110226E+00   2.4595551E+00   2.2262583E+00   2.0300908E+00   1.8830098E+00   1.7921916E+00   4.0463324E+00   3.9381552E+00   3.6825194E+00   3.3720808E+00   3.0501342E+00   2.7510569E+00   2.4990263E+00   2.3097477E+00   2.1927621E+00   5.1327915E+00   4.9613714E+00   4.6188760E+00   4.2132392E+00   3.7942746E+00   3.4045579E+00   3.0754921E+00   2.8279934E+00   2.6749082E+00   6.6315489E+00   6.3387246E+00   5.8596711E+00   5.3133335E+00   4.7543135E+00   4.2349682E+00   3.7962985E+00   3.4662447E+00   3.2620926E+00   8.8060026E+00   8.2570343E+00   7.5415053E+00   6.7741480E+00   6.0059986E+00   5.2979245E+00   4.7018428E+00   4.2542076E+00   3.9776809E+00   1.2045959E+01   1.0987041E+01   9.8505983E+00   8.7251911E+00   7.6396742E+00   6.6560335E+00   5.8351755E+00   5.2218785E+00   4.8441634E+00   1.6843603E+01   1.4875765E+01   1.3021193E+01   1.1322607E+01   9.7584944E+00   8.3768139E+00   7.2402177E+00   6.3982644E+00   5.8823266E+00   2.3720957E+01   2.0303114E+01   1.7313705E+01   1.4737556E+01   1.2471857E+01   1.0528850E+01   8.9597988E+00   7.8109193E+00   7.1117558E+00   3.3133991E+01   2.7619356E+01   2.2977251E+01   1.9135431E+01   1.5884889E+01   1.3177749E+01   1.1035797E+01   9.4887762E+00   8.5552664E+00   4.5400467E+01   3.7091976E+01   3.0211424E+01   2.4653126E+01   2.0087763E+01   1.6384380E+01   1.3513695E+01   1.1470886E+01   1.0249991E+01   6.0701519E+01   4.8886696E+01   3.9144424E+01   3.1384851E+01   2.5151817E+01   2.0210539E+01   1.6455778E+01   1.3824860E+01   1.2268927E+01   7.9152664E+01   6.3083759E+01   4.9836384E+01   3.9385582E+01   3.1140518E+01   2.4738848E+01   1.9968817E+01   1.6680183E+01   1.4757563E+01   1.0087339E+02   7.9716713E+01   6.2305447E+01   4.8698612E+01   3.8144436E+01   3.0115807E+01   2.4253696E+01   2.0282541E+01   1.7990925E+01   1.2598334E+02   9.8806282E+01   7.6573044E+01   5.9413647E+01   4.6349796E+01   3.6627323E+01   2.9684841E+01   2.5074900E+01   2.2455141E+01   1.5459122E+02   1.2039010E+02   9.2737930E+01   7.1768982E+01   5.6154404E+01   4.4817833E+01   3.6926407E+01   3.1808931E+01   2.8954924E+01   1.8676595E+02   1.4458737E+02   1.1110941E+02   8.6320198E+01   6.8345451E+01   5.5660633E+01   4.7087357E+01   4.1684090E+01   3.8741184E+01   2.2259261E+02   1.7177028E+02   1.3244771E+02   1.0420258E+02   8.4349503E+01   7.0777565E+01   6.1905338E+01   5.6499680E+01   5.3641655E+01   2.6244934E+02   2.0292931E+02   1.5835924E+02   1.2750300E+02   1.0654852E+02   9.2687050E+01   8.3930161E+01   7.8786766E+01   7.6160019E+01   3.0762289E+02   2.4028502E+02   1.9184792E+02   1.5971278E+02   1.3861801E+02   1.2503114E+02   1.1665757E+02   1.1187191E+02   1.0949656E+02   3.6132565E+02   2.8811765E+02   2.3794133E+02   2.0615553E+02   1.8578316E+02   1.7268958E+02   1.6453308E+02   1.5980389E+02   1.5742877E+02   4.3010529E+02   3.5367780E+02   3.0420309E+02   2.7421445E+02   2.5484328E+02   2.4166400E+02   2.3273743E+02   2.2707324E+02   2.2399300E+02   5.2569366E+02   4.4806589E+02   4.0095972E+02   3.7318716E+02   3.5384543E+02   3.3865778E+02   3.2671625E+02   3.1810895E+02   3.1296173E+02   6.6766931E+02   5.8734393E+02   5.4131342E+02   5.1378809E+02   4.9142041E+02   4.7039999E+02   4.5152399E+02   4.3664539E+02   4.2722363E+02   8.8645361E+02   7.9420111E+02   7.4150006E+02   7.0770715E+02   6.7611450E+02   6.4299939E+02   6.1125861E+02   5.8522247E+02   5.6832495E+02   1.2236378E+03   1.0987871E+03   1.0215312E+03   9.6775317E+02   9.1618646E+02   8.6167365E+02   8.0884979E+02   7.6504663E+02   7.3638043E+02   1.7257773E+03   1.5356584E+03   1.4042760E+03   1.3077906E+03   1.2196383E+03   1.1307410E+03   1.0460896E+03   9.7610895E+02   9.3025769E+02   2.4307703E+03   2.1346685E+03   1.9103759E+03   1.7403619E+03   1.5931499E+03   1.4531371E+03   1.3235029E+03   1.2173077E+03   1.1478654E+03   3.3501653E+03   2.9069600E+03   2.5486375E+03   2.2708696E+03   2.0388875E+03   1.8287266E+03   1.6395220E+03   1.4861827E+03   1.3862144E+03   4.4524570E+03   3.8308640E+03   3.3051848E+03   2.8900789E+03   2.5497715E+03   2.2514385E+03   1.9887745E+03   1.7779299E+03   1.6408760E+03   5.6567949E+03   4.8453950E+03   4.1373481E+03   3.5688950E+03   3.1054717E+03   2.7064102E+03   2.3600737E+03   2.0839624E+03   1.9048882E+03   6.8455137E+03   5.8586846E+03   4.9777759E+03   4.2593706E+03   3.6718755E+03   3.1690383E+03   2.7355649E+03   2.3912107E+03   2.1681409E+03   7.8971904E+03   6.7719800E+03   5.7499053E+03   4.9040293E+03   4.2065659E+03   3.6083569E+03   3.0929553E+03   2.6837151E+03   2.4186179E+03   8.7249707E+03   7.5094614E+03   6.3900625E+03   5.4516680E+03   4.6697661E+03   3.9944385E+03   3.4104333E+03   2.9458457E+03   2.6445950E+03   9.2988057E+03   8.0372588E+03   6.8640532E+03   5.8706782E+03   5.0341401E+03   4.3048833E+03   3.6703870E+03   3.1639622E+03   2.8350510E+03   9.6395791E+03   8.3627119E+03   7.1697153E+03   6.1528828E+03   5.2886167E+03   4.5279834E+03   3.8616897E+03   3.3278896E+03   2.9805845E+03   9.7910137E+03   8.5166719E+03   7.3255762E+03   6.3069883E+03   5.4351597E+03   4.6616201E+03   3.9799185E+03   3.4319441E+03   3.0748721E+03   9.7963350E+03   8.5337432E+03   7.3565068E+03   6.3491221E+03   5.4831431E+03   4.7103794E+03   4.0263589E+03   3.4751873E+03   3.1156465E+03   9.6841406E+03   8.4396074E+03   7.2836162E+03   6.2954780E+03   5.4443813E+03   4.6824575E+03   4.0063196E+03   3.4607520E+03   3.1046658E+03   9.4666689E+03   8.2480205E+03   7.1206890E+03   6.1588843E+03   5.3301611E+03   4.5872852E+03   3.9273677E+03   3.3946365E+03   3.0468989E+03   9.1467773E+03   7.9649038E+03   6.8759419E+03   5.9488643E+03   5.1503276E+03   4.4342363E+03   3.7979985E+03   3.2844729E+03   2.9493752E+03   8.7266563E+03   7.5947104E+03   6.5559526E+03   5.6735571E+03   4.9137822E+03   4.2322573E+03   3.6268123E+03   3.1384214E+03   2.8199290E+03   8.2137305E+03   7.1452378E+03   6.1690142E+03   5.3416245E+03   4.6292686E+03   3.9899092E+03   3.4220010E+03   2.9642617E+03   2.6660293E+03   7.6226440E+03   6.6294771E+03   5.7265840E+03   4.9632593E+03   4.3059902E+03   3.7155605E+03   3.1911438E+03   2.7688630E+03   2.4940417E+03   6.9744141E+03   6.0651597E+03   5.2432432E+03   4.5504204E+03   3.9539336E+03   3.4176709E+03   2.9413877E+03   2.5582505E+03   2.3092009E+03   6.2942549E+03   5.4733755E+03   4.7359126E+03   4.1165425E+03   3.5838850E+03   3.1050066E+03   2.6798540E+03   2.3382097E+03   2.1163938E+03   5.6096445E+03   4.8770068E+03   4.2227920E+03   3.6758384E+03   3.2069824E+03   2.7864238E+03   2.4136875E+03   2.1146104E+03   1.9206774E+03   4.9481045E+03   4.2987065E+03   3.7218589E+03   3.2422219E+03   2.8339429E+03   2.4702566E+03   2.1495244E+03   1.8929236E+03   1.7267993E+03   4.3342632E+03   3.7585786E+03   3.2492864E+03   2.8283181E+03   2.4743818E+03   2.1637456E+03   1.8928585E+03   1.6774708E+03   1.5384047E+03   3.7848374E+03   3.2717864E+03   2.8180374E+03   2.4447983E+03   2.1365605E+03   1.8728678E+03   1.6477904E+03   1.4710530E+03   1.3575814E+03   3.3050591E+03   2.8459375E+03   2.4368049E+03   2.1000420E+03   1.8275085E+03   1.6026688E+03   1.4173931E+03   1.2752487E+03   1.1850496E+03   2.8913230E+03   2.4801016E+03   2.1089175E+03   1.7997432E+03   1.5532125E+03   1.3579525E+03   1.2046350E+03   1.0913475E+03   1.0210250E+03   2.5401213E+03   2.1661267E+03   1.8310618E+03   1.5458401E+03   1.3181129E+03   1.1435182E+03   1.0132820E+03   9.2163251E+02   8.6662970E+02   2.2594260E+03   1.8979570E+03   1.5939379E+03   1.3343762E+03   1.1233989E+03   9.6296545E+02   8.4752289E+02   7.6985712E+02   7.2493951E+02   2.0630369E+03   1.6858148E+03   1.3913724E+03   1.1556586E+03   9.6414722E+02   8.1620679E+02   7.0994824E+02   6.3979065E+02   6.0009998E+02   1.9345006E+03   1.5491404E+03   1.2368578E+03   1.0053681E+03   8.3061395E+02   6.9682623E+02   5.9876819E+02   5.3271399E+02   4.9495325E+02   1.8175743E+03   1.4688618E+03   1.1494108E+03   8.9981915E+02   7.2215527E+02   5.9679199E+02   5.0726654E+02   4.4572696E+02   4.0939536E+02   1.6050817E+03   1.3844554E+03   1.1000017E+03   8.4482751E+02   6.5083679E+02   5.1762787E+02   4.3022427E+02   3.7331744E+02   3.3975537E+02   1.1538441E+03   1.1866522E+03   1.0190413E+03   7.9932904E+02   6.0363458E+02   4.5999075E+02   3.6749481E+02   3.1222885E+02   2.8174075E+02   6.6698798E+02   7.6437146E+02   7.9957208E+02   6.9526898E+02   5.4169196E+02   4.0733038E+02   3.1590216E+02   2.6256851E+02   2.3485368E+02   5.0617435E+02   4.5378058E+02   4.6739917E+02   4.0617303E+02   3.1137457E+02   2.3503706E+02   1.9052585E+02   1.6870973E+02   3.2379410E+02   2.5617606E+02   1.9874487E+02   1.3983142E+02   9.8928894E+01   7.6919823E+01   2.3443901E+02   1.4850197E+02   9.6991653E+01   7.0030220E+01   6.3028520E-01   6.3982874E-01   6.6806167E-01   7.1378869E-01   7.7488172E-01   8.4781545E-01   9.2661047E-01   1.0013980E+00   8.6904216E-01   8.8273257E-01   9.2325103E-01   9.8891157E-01   1.0766591E+00   1.1813695E+00   1.2944161E+00   1.4018489E+00   1.1335539E+00   1.1519843E+00   1.2065465E+00   1.2949898E+00   1.4131756E+00   1.5541208E+00   1.7062163E+00   1.8511493E+00   1.4273388E+00   1.4512699E+00   1.5221212E+00   1.6369450E+00   1.7902846E+00   1.9729550E+00   2.1699960E+00   2.3584583E+00   1.7615107E+00   1.7921916E+00   1.8830101E+00   2.0300915E+00   2.2262588E+00   2.4595559E+00   2.7110224E+00   2.9525838E+00   2.1532288E+00   2.1927626E+00   2.3097482E+00   2.4990273E+00   2.7510571E+00   3.0501347E+00   3.3720808E+00   3.6825209E+00   2.6231606E+00   2.6749082E+00   2.8279941E+00   3.0754926E+00   3.4045582E+00   3.7942750E+00   4.2132392E+00   4.6188769E+00   3.1930902E+00   3.2620928E+00   3.4662447E+00   3.7962985E+00   4.2349687E+00   4.7543139E+00   5.3133330E+00   5.8596706E+00   3.8842828E+00   3.9776809E+00   4.2542076E+00   4.7018414E+00   5.2979240E+00   6.0059986E+00   6.7741485E+00   7.5415058E+00   4.7167735E+00   4.8441634E+00   5.2218785E+00   5.8351765E+00   6.6560326E+00   7.6396751E+00   8.7251921E+00   9.8506002E+00   5.7087250E+00   5.8823276E+00   6.3982658E+00   7.2402177E+00   8.3768148E+00   9.7584963E+00   1.1322609E+01   1.3021194E+01   6.8772597E+00   7.1117558E+00   7.8109202E+00   8.9598007E+00   1.0528852E+01   1.2471862E+01   1.4737559E+01   1.7313707E+01   8.2434311E+00   8.5552692E+00   9.4887800E+00   1.1035802E+01   1.3177752E+01   1.5884895E+01   1.9135437E+01   2.2977255E+01   9.8440752E+00   1.0249997E+01   1.1470892E+01   1.3513701E+01   1.6384388E+01   2.0087774E+01   2.4653133E+01   3.0211428E+01   1.1754361E+01   1.2268931E+01   1.3824865E+01   1.6455790E+01   2.0210545E+01   2.5151821E+01   3.1384855E+01   3.9144440E+01   1.4125554E+01   1.4757570E+01   1.6680191E+01   1.9968830E+01   2.4738861E+01   3.1140532E+01   3.9385590E+01   4.9836399E+01   1.7242874E+01   1.7990929E+01   2.0282555E+01   2.4253714E+01   3.0115820E+01   3.8144447E+01   4.8698620E+01   6.2305450E+01   2.1607185E+01   2.2455154E+01   2.5074917E+01   2.9684858E+01   3.6627338E+01   4.6349819E+01   5.9413662E+01   7.6573082E+01   2.8040903E+01   2.8954935E+01   3.1808945E+01   3.6926426E+01   4.4817856E+01   5.6154430E+01   7.1769005E+01   9.2737946E+01   3.7811573E+01   3.8741188E+01   4.1684105E+01   4.7087372E+01   5.5660652E+01   6.8345482E+01   8.6320236E+01   1.1110941E+02   5.2754997E+01   5.3641663E+01   5.6499699E+01   6.1905342E+01   7.0777588E+01   8.4349533E+01   1.0420260E+02   1.3244777E+02   7.5363152E+01   7.6160011E+01   7.8786774E+01   8.3930191E+01   9.2687073E+01   1.0654856E+02   1.2750303E+02   1.5835928E+02   1.0879025E+02   1.0949655E+02   1.1187191E+02   1.1665759E+02   1.2503117E+02   1.3861804E+02   1.5971284E+02   1.9184792E+02   1.5671809E+02   1.5742876E+02   1.5980388E+02   1.6453308E+02   1.7268962E+02   1.8578319E+02   2.0615558E+02   2.3794133E+02   2.2302507E+02   2.2399303E+02   2.2707333E+02   2.3273746E+02   2.4166403E+02   2.5484326E+02   2.7421445E+02   3.0420309E+02   3.1125690E+02   3.1296173E+02   3.1810895E+02   3.2671628E+02   3.3865778E+02   3.5384546E+02   3.7318723E+02   4.0095966E+02   4.2401205E+02   4.2722375E+02   4.3664542E+02   4.5152405E+02   4.7039999E+02   4.9142044E+02   5.1378809E+02   5.4131335E+02   5.6249530E+02   5.6832495E+02   5.8522253E+02   6.1125873E+02   6.4299933E+02   6.7611450E+02   7.0770721E+02   7.4150012E+02   7.2644678E+02   7.3638055E+02   7.6504663E+02   8.0884967E+02   8.6167358E+02   9.1618658E+02   9.6775317E+02   1.0215313E+03   9.1434998E+02   9.3025781E+02   9.7610870E+02   1.0460897E+03   1.1307410E+03   1.2196383E+03   1.3077909E+03   1.4042761E+03   1.1237749E+03   1.1478651E+03   1.2173075E+03   1.3235031E+03   1.4531371E+03   1.5931501E+03   1.7403617E+03   1.9103759E+03   1.3515531E+03   1.3862141E+03   1.4861827E+03   1.6395221E+03   1.8287264E+03   2.0388877E+03   2.2708696E+03   2.5486382E+03   1.5933850E+03   1.6408763E+03   1.7779299E+03   1.9887743E+03   2.2514385E+03   2.5497720E+03   2.8900789E+03   3.3051848E+03   1.8428661E+03   1.9048879E+03   2.0839629E+03   2.3600742E+03   2.7064104E+03   3.1054724E+03   3.5688950E+03   4.1373467E+03   2.0908994E+03   2.1681411E+03   2.3912107E+03   2.7355654E+03   3.1690391E+03   3.6718755E+03   4.2593706E+03   4.9777744E+03   2.3268120E+03   2.4186182E+03   2.6837158E+03   3.0929563E+03   3.6083579E+03   4.2065659E+03   4.9040283E+03   5.7499053E+03   2.5402219E+03   2.6445952E+03   2.9458457E+03   3.4104336E+03   3.9944382E+03   4.6697666E+03   5.4516665E+03   6.3900640E+03   2.7210205E+03   2.8350513E+03   3.1639626E+03   3.6703870E+03   4.3048838E+03   5.0341401E+03   5.8706782E+03   6.8640532E+03   2.8600977E+03   2.9805857E+03   3.3278901E+03   3.8616899E+03   4.5279834E+03   5.2886162E+03   6.1528823E+03   7.1697139E+03   2.9509280E+03   3.0748723E+03   3.4319441E+03   3.9799185E+03   4.6616216E+03   5.4351587E+03   6.3069883E+03   7.3255771E+03   2.9907983E+03   3.1156462E+03   3.4751868E+03   4.0263594E+03   4.7103789E+03   5.4831421E+03   6.3491226E+03   7.3565078E+03   2.9809966E+03   3.1046663E+03   3.4607520E+03   4.0063196E+03   4.6824580E+03   5.4443813E+03   6.2954775E+03   7.2836162E+03   2.9261326E+03   3.0468987E+03   3.3946372E+03   3.9273667E+03   4.5872847E+03   5.3301611E+03   6.1588833E+03   7.1206890E+03   2.8330239E+03   2.9493760E+03   3.2844734E+03   3.7979980E+03   4.4342354E+03   5.1503276E+03   5.9488628E+03   6.8759419E+03   2.7093879E+03   2.8199297E+03   3.1384229E+03   3.6268130E+03   4.2322568E+03   4.9137803E+03   5.6735562E+03   6.5559531E+03   2.5625793E+03   2.6660303E+03   2.9642612E+03   3.4220015E+03   3.9899097E+03   4.6292686E+03   5.3416226E+03   6.1690137E+03   2.3987788E+03   2.4940415E+03   2.7688628E+03   3.1911440E+03   3.7155610E+03   4.3059902E+03   4.9632583E+03   5.7265850E+03   2.2229385E+03   2.3092002E+03   2.5582495E+03   2.9413877E+03   3.4176702E+03   3.9539336E+03   4.5504204E+03   5.2432432E+03   2.0396211E+03   2.1163933E+03   2.3382095E+03   2.6798538E+03   3.1050054E+03   3.5838845E+03   4.1165425E+03   4.7359131E+03   1.8535981E+03   1.9206766E+03   2.1146099E+03   2.4136868E+03   2.7864236E+03   3.2069824E+03   3.6758376E+03   4.2227920E+03   1.6693793E+03   1.7267990E+03   1.8929229E+03   2.1495234E+03   2.4702561E+03   2.8339424E+03   3.2422212E+03   3.7218584E+03   1.4903823E+03   1.5384044E+03   1.6774702E+03   1.8928584E+03   2.1637451E+03   2.4743809E+03   2.8283179E+03   3.2492861E+03   1.3184720E+03   1.3575811E+03   1.4710530E+03   1.6477896E+03   1.8728678E+03   2.1365598E+03   2.4447976E+03   2.8180376E+03   1.1541012E+03   1.1850496E+03   1.2752484E+03   1.4173925E+03   1.6026686E+03   1.8275083E+03   2.1000420E+03   2.4368052E+03   9.9712445E+02   1.0210248E+03   1.0913472E+03   1.2046348E+03   1.3579521E+03   1.5532123E+03   1.7997427E+03   2.1089175E+03   8.4823853E+02   8.6662976E+02   9.2163232E+02   1.0132816E+03   1.1435179E+03   1.3181129E+03   1.5458398E+03   1.8310618E+03   7.1021533E+02   7.2493964E+02   7.6985699E+02   8.4752264E+02   9.6296539E+02   1.1233989E+03   1.3343763E+03   1.5939376E+03   5.8726563E+02   6.0010004E+02   6.3979059E+02   7.0994824E+02   8.1620673E+02   9.6414722E+02   1.1556586E+03   1.3913723E+03   4.8268204E+02   4.9495325E+02   5.3271399E+02   5.9876819E+02   6.9682623E+02   8.3061395E+02   1.0053681E+03   1.2368579E+03   3.9736331E+02   4.0939532E+02   4.4572684E+02   5.0726648E+02   5.9679199E+02   7.2215521E+02   8.9981927E+02   1.1494109E+03   3.2855560E+02   3.3975537E+02   3.7331738E+02   4.3022437E+02   5.1762799E+02   6.5083679E+02   8.4482733E+02   1.1000018E+03   2.7179611E+02   2.8174075E+02   3.1222882E+02   3.6749484E+02   4.5999081E+02   6.0363464E+02   7.9932910E+02   1.0190415E+03   2.2613539E+02   2.3485358E+02   2.6256845E+02   3.1590216E+02   4.0733035E+02   5.4169208E+02   6.9526910E+02   7.9957196E+02   1.6206650E+02   1.6870967E+02   1.9052585E+02   2.3503706E+02   3.1137454E+02   4.0617319E+02   4.6739911E+02   4.5378052E+02   7.0090050E+01   7.6919853E+01   9.8928894E+01   1.3983144E+02   1.9874490E+02   2.5617599E+02   3.2379404E+02   6.1521317E+01   7.0030220E+01   9.6991646E+01   1.4850195E+02   2.3443901E+02   1.0550419E+00   1.0557020E+00   9.5001292E-01   6.8237936E-01   2.3040369E-01   3.6063737E-01   9.5682025E-01   1.4811225E+00   1.4883087E+00   1.3477721E+00   9.8006713E-01   3.5068008E-01   4.8250699E-01   1.3400506E+00   1.9533163E+00   1.9613529E+00   1.9806260E+00   1.8079525E+00   1.3347660E+00   5.0970978E-01   5.9794211E-01   1.7594222E+00   2.6322193E+00   2.5060794E+00   2.5449548E+00   2.3451190E+00   1.7618985E+00   7.2028536E-01   7.0136786E-01   2.2175224E+00   3.3887510E+00   3.1468985E+00   3.2145450E+00   2.9920363E+00   2.2899845E+00   1.0018635E+00   7.8834510E-01   2.7282951E+00   4.2578349E+00   3.9381549E+00   4.0463338E+00   3.8049777E+00   2.9712939E+00   1.4064051E+00   1.0143843E+00   3.5182722E+00   5.6098309E+00   4.9613719E+00   5.1327939E+00   4.8889647E+00   3.9296849E+00   2.3016782E+00   3.1922517E+00   7.2039061E+00   1.0871034E+01   6.3387237E+00   6.6315508E+00   6.4513512E+00   5.4925308E+00   5.1310158E+00   1.0497692E+01   2.0239815E+01   2.8809000E+01   8.2570362E+00   8.8060083E+00   8.8588390E+00   8.3536997E+00   1.1669881E+01   2.6200583E+01   4.9348240E+01   7.0067169E+01   1.0987044E+01   1.2045959E+01   1.2651115E+01   1.3278337E+01   2.2330984E+01   5.1361229E+01   9.7829826E+01   1.4176549E+02   1.4875769E+01   1.6843607E+01   1.8473951E+01   2.0574825E+01   3.5070572E+01   8.0505814E+01   1.5617082E+02   2.3085980E+02   2.0303120E+01   2.3720963E+01   2.6987854E+01   3.0442612E+01   4.6382233E+01   1.0169653E+02   1.9996803E+02   3.0164990E+02   2.7619364E+01   3.3134007E+01   3.8784809E+01   4.3825516E+01   5.5968082E+01   1.0585289E+02   2.0671764E+02   3.1719565E+02   3.7091984E+01   4.5400482E+01   5.4252544E+01   6.1992035E+01   6.9923157E+01   9.9260773E+01   1.7645671E+02   2.6938828E+02   4.8886711E+01   6.0701542E+01   7.3523277E+01   8.5256981E+01   9.3622108E+01   1.0497198E+02   1.4391956E+02   2.0419897E+02   6.3083778E+01   7.9152710E+01   9.6670059E+01   1.1327465E+02   1.2555079E+02   1.3337117E+02   1.4986772E+02   1.8229539E+02   7.9716728E+01   1.0087341E+02   1.2392850E+02   1.4604181E+02   1.6328517E+02   1.7424594E+02   1.8821614E+02   2.1258771E+02   9.8806305E+01   1.2598334E+02   1.5566481E+02   1.8424770E+02   2.0704068E+02   2.2216260E+02   2.3885204E+02   2.6488196E+02   1.2039008E+02   1.5459123E+02   1.9221893E+02   2.2870187E+02   2.5825735E+02   2.7831192E+02   2.9921799E+02   3.2976804E+02   1.4458739E+02   1.8676601E+02   2.3377509E+02   2.7986105E+02   3.1793704E+02   3.4488870E+02   3.7319131E+02   4.1187347E+02   1.7177034E+02   2.2259258E+02   2.8029993E+02   3.3772580E+02   3.8619965E+02   4.2246539E+02   4.6289581E+02   5.1525366E+02   2.0292934E+02   2.6244934E+02   3.3168430E+02   4.0181290E+02   4.6212921E+02   5.0970691E+02   5.6798413E+02   6.4353265E+02   2.4028505E+02   3.0762283E+02   3.8829935E+02   4.7154831E+02   5.4387286E+02   6.0284515E+02   6.8514636E+02   7.9679675E+02   2.8811768E+02   3.6132559E+02   4.5217700E+02   5.4751990E+02   6.2989111E+02   6.9649304E+02   8.0671332E+02   9.7276050E+02   3.5367783E+02   4.3010538E+02   5.2894501E+02   6.3402576E+02   7.2167236E+02   7.8537665E+02   9.1952124E+02   1.1623289E+03   4.4806589E+02   5.2569373E+02   6.3085571E+02   7.4336578E+02   8.2898291E+02   8.6899451E+02   1.0074115E+03   1.3476592E+03   5.8734406E+02   6.6766925E+02   7.8104169E+02   9.0126837E+02   9.7652911E+02   9.6193433E+02   1.0635586E+03   1.5055294E+03   7.9420111E+02   8.8645361E+02   1.0173575E+03   1.1511549E+03   1.2091145E+03   1.1025255E+03   1.0959581E+03   1.6145592E+03   1.0987872E+03   1.2236378E+03   1.3914830E+03   1.5514948E+03   1.5887938E+03   1.3546512E+03   1.1536099E+03   1.6813903E+03   1.5356584E+03   1.7257771E+03   1.9591992E+03   2.1645867E+03   2.1800283E+03   1.8001348E+03   1.3521124E+03   1.7781727E+03   2.1346685E+03   2.4307700E+03   2.7629922E+03   3.0297344E+03   3.0362285E+03   2.5353906E+03   1.8997328E+03   2.1080532E+03   2.9069604E+03   3.3501655E+03   3.8130347E+03   4.1585781E+03   4.1725269E+03   3.7317139E+03   3.1535508E+03   3.0666721E+03   3.8308638E+03   4.4524565E+03   5.0702319E+03   5.5236421E+03   5.6961982E+03   5.7314551E+03   5.5225254E+03   5.0763501E+03   4.8453960E+03   5.6567964E+03   6.4429092E+03   7.0619956E+03   7.5984331E+03   8.5041377E+03   8.7346406E+03   7.7258369E+03   5.8586831E+03   6.8455142E+03   7.7874009E+03   8.5782715E+03   9.5015078E+03   1.1103353E+04   1.1480848E+04   9.8124082E+03   6.7719800E+03   7.8971909E+03   8.9587188E+03   9.8728125E+03   1.1018108E+04   1.2903828E+04   1.2984331E+04   1.0773906E+04   7.5094600E+03   8.7249688E+03   9.8536475E+03   1.0804836E+04   1.1962204E+04   1.3698503E+04   1.3266903E+04   1.0810802E+04   8.0372568E+03   9.2988047E+03   1.0450267E+04   1.1370343E+04   1.2382400E+04   1.3801849E+04   1.3046488E+04   1.0520296E+04   8.3627100E+03   9.6395791E+03   1.0794079E+04   1.1680967E+04   1.2567852E+04   1.3745623E+04   1.2803742E+04   1.0297517E+04   8.5166709E+03   9.7910107E+03   1.0940806E+04   1.1807190E+04   1.2625742E+04   1.3680073E+04   1.2683871E+04   1.0228135E+04   8.5337422E+03   9.7963359E+03   1.0939087E+04   1.1799191E+04   1.2604351E+04   1.3640600E+04   1.2687943E+04   1.0294021E+04   8.4396055E+03   9.6841387E+03   1.0817220E+04   1.1680222E+04   1.2512521E+04   1.3619550E+04   1.2775870E+04   1.0432401E+04   8.2480205E+03   9.4666670E+03   1.0583214E+04   1.1444020E+04   1.2293572E+04   1.3443312E+04   1.2685986E+04   1.0394883E+04   7.9649048E+03   9.1467754E+03   1.0236046E+04   1.1083857E+04   1.1927776E+04   1.3065245E+04   1.2373147E+04   1.0149608E+04   7.5947114E+03   8.7266572E+03   9.7757715E+03   1.0597763E+04   1.1410486E+04   1.2490658E+04   1.1854136E+04   9.7275576E+03   7.1452363E+03   8.2137285E+03   9.2097119E+03   9.9933184E+03   1.0750769E+04   1.1738424E+04   1.1160773E+04   9.1762490E+03   6.6294771E+03   7.6226431E+03   8.5541230E+03   9.2882656E+03   9.9743184E+03   1.0845911E+04   1.0325897E+04   8.5240303E+03   6.0651611E+03   6.9744155E+03   7.8331187E+03   8.5103232E+03   9.1194688E+03   9.8756748E+03   9.4108477E+03   7.8011050E+03   5.4733755E+03   6.2942554E+03   7.0750786E+03   7.6904849E+03   8.2291289E+03   8.8770010E+03   8.4605938E+03   7.0389185E+03   4.8770068E+03   5.6096445E+03   6.3113394E+03   6.8637617E+03   7.3366323E+03   7.8854453E+03   7.4950596E+03   6.2295591E+03   4.2987075E+03   4.9481064E+03   5.5749839E+03   6.0674238E+03   6.4764580E+03   6.9256201E+03   6.5131348E+03   5.3579761E+03   3.7585781E+03   4.3342622E+03   4.8945132E+03   5.3361514E+03   5.6887158E+03   6.0358140E+03   5.5501846E+03   4.4518359E+03   3.2717864E+03   3.7848386E+03   4.2850791E+03   4.6865029E+03   5.0004434E+03   5.2459072E+03   4.7263003E+03   3.7258694E+03   2.8459382E+03   3.3050598E+03   3.7529321E+03   4.1254834E+03   4.4244570E+03   4.6079570E+03   4.1217529E+03   3.3113115E+03   2.4801013E+03   2.8913228E+03   3.3017981E+03   3.6700779E+03   3.9786626E+03   4.1253208E+03   3.6271934E+03   3.2137527E+03   2.1661270E+03   2.5401218E+03   2.9416523E+03   3.3370481E+03   3.6716155E+03   3.7172463E+03   3.0325637E+03   1.8979570E+03   2.2594260E+03   2.6810195E+03   3.1095576E+03   3.4194089E+03   3.1937773E+03   2.4610242E+03   1.6858148E+03   2.0630369E+03   2.5012644E+03   2.9186267E+03   3.0269824E+03   2.4148013E+03   1.5491405E+03   1.9345006E+03   2.3439102E+03   2.6120093E+03   2.3264321E+03   1.8708213E+03   1.4688619E+03   1.8175743E+03   2.0867532E+03   2.0055834E+03   1.5550175E+03   1.3844554E+03   1.6050812E+03   1.5645387E+03   1.2530115E+03   1.1866520E+03   1.1538446E+03   9.3339056E+02   1.4289594E+03   7.6437164E+02   6.6698779E+02   5.0617432E+02 
TENSORS tensors1 float
0.01 0.0 0.0
0.0 0.01 0.0
0.0 0.0 0.01

0.01 0.0 0.0
0.0 0.01 0.0
0.0 0.0 0.01

0.01 0.0 0.0
0.0 0.01 0.0
0.0 0.0 0.01

0.01 0.0 0.0
0.0 0.01 0.0
0.0 0.0 0.01

0.01 0.0 0.0
0.0 0.01 0.0
0.0 0.0 0.01

0.01 0.0 0.0
0.0 0.01 0.0
0.0 0.0 0.01

0.01 0.0 0.0
0.0 0.01 0.0
0.0 0.0 0.01

0.01 0.0 0.0
0.0 0.01 0.0
0.0 0.0 0.01

0.01 0.0 0.0
0.0 0.01 0.0
0.0 0.0 0.01

0.01 0.0 0.0
0.0 0.01 0.0
0.0 0.0 0.01

0.01 0.0 0.0
0.0 0.01 0.0
0.0 0.0 0.01

0.01 0.0 0.0
0.0 0.01 0.0
0.0 0.0 0.01

0.01 0.0 0.0
0.0 0.01 0.0
0.0 0.0 0.01

0.01 0.0 0.0
0.0 0.01 0.0
0.0 0.0 0.01

0.01 0.0 0.0
0.0 0.01 0.0
0.0 0.0 0.01

0.01 0.0 0.0
0.0 0.01 0.0
0.0 0.0 0.01

0.01 0.0 0.0
0.0 0.01 0.0
0.0 0.0 0.01

0.01 0.0 0.0
0.0 0.01 0.0
0.0 0.0 0.01

0.01 0.0 0.0
0.0 0.01 0.0
0.0 0.0 0.01

0.01 0.0 0.0
0.0 0.01 0.0
0.0 0.0 0.01

0.01 0.0 0.0
0.0 0.01 0.0
0.0 0.0 0.01

0.01 0.0 0.0
0.0 0.01 0.0
0.0 0.0 0.01

0.01 0.0 0.0
0.0 0.01 0.0
0.0 0.0 0.01

0.01 0.0 0.0
0.0 0.01 0.0
0.0 0.0 0.01

0.01 0.0 0.0
0.0 0.01 0.0
0.0 0.0 0.01

0.01 0.0 0.0
0.0 0.01 0.0
0.0 0.0 0.01

0.01 0.0 0.0
0.0 0.01 0.0
0.0 0.0 0.01

0.01 0.0 0.0
0.0 0.01 0.0
0.0 0.0 0.01

0.01 0.0 0.0
0.0 0.01 0.0
0.0 0.0 0.01

0.01 0.0 0.0
0.0 0.01 0.0
0.0 0.0 0.01

0.01 0.0 0.0
0.0 0.01 0.0
0.0 0.0 0.01

0.01 0.0 0.0
0.0 0.01 0.0
0.0 0.0 0.01

0.01 0.0 0.0
0.0 0.01 0.0
0.0 0.0 0.01

0.01 0.0 0.0
0.0 0.01 0.0
0.0 0.0 0.01

0.01 0.0 0.0
0.0 0.01 0.0
0.0 0.0 0.01

0.01 0.0 0.0
0.0 0.01 0.0
0.0 0.0 0.01

0.01 0.0 0.0
0.0 0.01 0.0
0.0 0.0 0.01

0.01 0.0 0.0
0.0 0.01 0.0
0.0 0.0 0.01

0.01 0.0 0.0
0.0 0.01 0.0
0.0 0.0 0.01

0.01 0.0 0.0
0.0 0.01 0.0
0.0 0.0 0.01

0.01 0.0 0.0
0.0 0.01 0.0
0.0 0.0 0.01

0.01 0.0 0.0
0.0 0.01 0.0
0.0 0.0 0.01

0.01 0.0 0.0
0.0 0.01 0.0
0.0 0.0 0.01

0.01 0.0 0.0
0.0 0.01 0.0
0.0 0.0 0.01

0.01 0.0 0.0
0.0 0.01 0.0
0.0 0.0 0.01

0.01 0.0 0.0
0.0 0.01 0.0
0.0 0.0 0.01

0.01 0.0 0.0
0.0 0.01 0.0
0.0 0.0 0.01

0.01 0.0 0.0
0.0 0.01 0.0
0.0 0.0 0.01

0.01 0.0 0.0
0.0 0.01 0.0
0.0 0.0 0.01

0.01 0.0 0.0
0.0 0.01 0.0
0.0 0.0 0.01

0.01 0.0 0.0
0.0 0.01 0.0
0.0 0.0 0.01

0.01 0.0 0.0
0.0 0.01 0.0
0.0 0.0 0.01

0.01 0.0 0.0
0.0 0.01 0.0
0.0 0.0 0.01

0.01 0.0 0.0
0.0 0.01 0.0
0.0 0.0 0.01

0.01 0.0 0.0
0.0 0.01 0.0
0.0 0.0 0.01

0.01 0.0 0.0
0.0 0.01 0.0
0.0 0.0 0.01

0.01 0.0 0.0
0.0 0.01 0.0
0.0 0.0 0.01

0.01 0.0 0.0
0.0 0.01 0.0
0.0 0.0 0.01

0.01 0.0 0.0
0.0 0.01 0.0
0.0 0.0 0.01

0.01 0.0 0.0
0.0 0.01 0.0
0.0 0.0 0.01

0.01 0.0 0.0
0.0 0.01 0.0
0.0 0.0 0.01

0.01 0.0 0.0
0.0 0.01 0.0
0.0 0.0 0.01

0.01 0.0 0.0
0.0 0.01 0.0
0.0 0.0 0.01

0.01 0.0 0.0
0.0 0.01 0.0
0.0 0.0 0.01

0.01 0.0 0.0
0.0 0.01 0.0
0.0 0.0 0.01

0.01 0.0 0.0
0.0 0.01 0.0
0.0 0.0 0.01

0.01 0.0 0.0
0.0 0.01 0.0
0.0 0.0 0.01

0.01 0.0 0.0
0.0 0.01 0.0
0.0 0.0 0.01

0.01 0.0 0.0
0.0 0.01 0.0
0.0 0.0 0.01

0.01 0.0 0.0
0.0 0.01 0.0
0.0 0.0 0.01

0.01 0.0 0.0
0.0 0.01 0.0
0.0 0.0 0.01

0.01 0.0 0.0
0.0 0.01 0.0
0.0 0.0 0.01

0.01 0.0 0.0
0.0 0.01 0.0
0.0 0.0 0.01

0.01 0.0 0.0
0.0 0.01 0.0
0.0 0.0 0.01

0.01 0.0 0.0
0.0 0.01 0.0
0.0 0.0 0.01

0.01 0.0 0.0
0.0 0.01 0.0
0.0 0.0 0.01

0.01 0.0 0.0
0.0 0.01 0.0
0.0 0.0 0.01

0.01 0.0 0.0
0.0 0.01 0.0
0.0 0.0 0.01

0.01 0.0 0.0
0.0 0.01 0.0
0.0 0.0 0.01

0.01 0.0 0.0
0.0 0.01 0.0
0.0 0.0 0.01

0.01 0.0 0.0
0.0 0.01 0.0
0.0 0.0 0.01

0.01 0.0 0.0
0.0 0.01 0.0
0.0 0.0 0.01

0.01 0.0 0.0
0.0 0.01 0.0
0.0 0.0 0.01

0.01 0.0 0.0
0.0 0.01 0.0
0.0 0.0 0.01

0.01 0.0 0.0
0.0 0.01 0.0
0.0 0.0 0.01

0.01 0.0 0.0
0.0 0.01 0.0
0.0 0.0 0.01

0.01 0.0 0.0
0.0 0.01 0.0
0.0 0.0 0.01

0.01 0.0 0.0
0.0 0.01 0.0
0.0 0.0 0.01

0.01 0.0 0.0
0.0 0.01 0.0
0.0 0.0 0.01

0.01 0.0 0.0
0.0 0.01 0.0
0.0 0.0 0.01

0.01 0.0 0.0
0.0 0.01 0.0
0.0 0.0 0.01

0.01 0.0 0.0
0.0 0.01 0.0
0.0 0.0 0.01

0.01 0.0 0.0
0.0 0.01 0.0
0.0 0.0 0.01

0.01 0.0 0.0
0.0 0.01 0.0
0.0 0.0 0.01

0.01 0.0 0.0
0.0 0.01 0.0
0.0 0.0 0.01

0.01 0.0 0.0
0.0 0.01 0.0
0.0 0.0 0.01

0.01 0.0 0.0
0.0 0.01 0.0
0.0 0.0 0.01

0.01 0.0 0.0
0.0 0.01 0.0
0.0 0.0 0.01

0.01 0.0 0.0
0.0 0.01 0.0
0.0 0.0 0.01

0.01 0.0 0.0
0.0 0.01 0.0
0.0 0.0 0.01

0.01 0.0 0.0
0.0 0.01 0.0
0.0 0.0 0.01

0.01 0.0 0.0
0.0 0.01 0.0
0.0 0.0 0.01

0.01 0.0 0.0
0.0 0.01 0.0
0.0 0.0 0.01

0.01 0.0 0.0
0.0 0.01 0.0
0.0 0.0 0.01

0.01 0.0 0.0
0.0 0.01 0.0
0.0 0.0 0.01

0.01 0.0 0.0
0.0 0.01 0.0
0.0 0.0 0.01

0.01 0.0 0.0
0.0 0.01 0.0
0.0 0.0 0.01

0.01 0.0 0.0
0.0 0.01 0.0
0.0 0.0 0.01

0.01 0.0 0.0
0.0 0.01 0.0
0.0 0.0 0.01

0.01 0.0 0.0
0.0 0.01 0.0
0.0 0.0 0.01

0.01 0.0 0.0
0.0 0.01 0.0
0.0 0.0 0.01

0.01 0.0 0.0
0.0 0.01 0.0
0.0 0.0 0.01

0.01 0.0 0.0
0.0 0.01 0.0
0.0 0.0 0.01

0.01 0.0 0.0
0.0 0.01 0.0
0.0 0.0 0.01

0.01 0.0 0.0
0.0 0.01 0.0
0.0 0.0 0.01

0.01 0.0 0.0
0.0 0.01 0.0
0.0 0.0 0.01

0.01 0.0 0.0
0.0 0.01 0.0
0.0 0.0 0.01

0.01 0.0 0.0
0.0 0.01 0.0
0.0 0.0 0.01

0.01 0.0 0.0
0.0 0.01 0.0
0.0 0.0 0.01

0.01 0.0 0.0
0.0 0.01 0.0
0.0 0.0 0.01

0.01 0.0 0.0
0.0 0.01 0.0
0.0 0.0 0.01

0.01 0.0 0.0
0.0 0.01 0.0
0.0 0.0 0.01

0.01 0.0 0.0
0.0 0.01 0.0
0.0 0.0 0.01

0.01 0.0 0.0
0.0 0.01 0.0
0.0 0.0 0.01

0.01 0.0 0.0
0.0 0.01 0.0
0.0 0.0 0.01

0.01 0.0 0.0
0.0 0.01 0.0
0.0 0.0 0.01

0.01 0.0 0.0
0.0 0.01 0.0
0.0 0.0 0.01

0.01 0.0 0.0
0.0 0.01 0.0
0.0 0.0 0.01

0.01 0.0 0.0
0.0 0.01 0.0
0.0 0.0 0.01

0.01 0.0 0.0
0.0 0.01 0.0
0.0 0.0 0.01

0.01 0.0 0.0
0.0 0.01 0.0
0.0 0.0 0.01

0.01 0.0 0.0
0.0 0.01 0.0
0.0 0.0 0.01

0.01 0.0 0.0
0.0 0.01 0.0
0.0 0.0 0.01

0.01 0.0 0.0
0.0 0.01 0.0
0.0 0.0 0.01

0.01 0.0 0.0
0.0 0.01 0.0
0.0 0.0 0.01

0.01 0.0 0.0
0.0 0.01 0.0
0.0 0.0 0.01

0.01 0.0 0.0
0.0 0.01 0.0
0.0 0.0 0.01

0.01 0.0 0.0
0.0 0.01 0.0
0.0 0.0 0.01

0.01 0.0 0.0
0.0 0.01 0.0
0.0 0.0 0.01

0.01 0.0 0.0
0.0 0.01 0.0
0.0 0.0 0.01

0.01 0.0 0.0
0.0 0.01 0.0
0.0 0.0 0.01

0.01 0.0 0.0
0.0 0.01 0.0
0.0 0.0 0.01

0.01 0.0 0.0
0.0 0.01 0.0
0.0 0.0 0.01

0.01 0.0 0.0
0.0 0.01 0.0
0.0 0.0 0.01

0.01 0.0 0.0
0.0 0.01 0.0
0.0 0.0 0.01

0.01 0.0 0.0
0.0 0.01 0.0
0.0 0.0 0.01

0.01 0.0 0.0
0.0 0.01 0.0
0.0 0.0 0.01

0.01 0.0 0.0
0.0 0.01 0.0
0.0 0.0 0.01

0.01 0.0 0.0
0.0 0.01 0.0
0.0 0.0 0.01

0.01 0.0 0.0
0.0 0.01 0.0
0.0 0.0 0.01

0.01 0.0 0.0
0.0 0.01 0.0
0.0 0.0 0.01

0.01 0.0 0.0
0.0 0.01 0.0
0.0 0.0 0.01

0.01 0.0 0.0
0.0 0.01 0.0
0.0 0.0 0.01

0.01 0.0 0.0
0.0 0.01 0.0
0.0 0.0 0.01

0.01 0.0 0.0
0.0 0.01 0.0
0.0 0.0 0.01

0.01 0.0 0.0
0.0 0.01 0.0
0.0 0.0 0.01

0.01 0.0 0.0
0.0 0.01 0.0
0.0 0.0 0.01

0.01 0.0 0.0
0.0 0.01 0.0
0.0 0.0 0.01

0.01 0.0 0.0
0.0 0.01 0.0
0.0 0.0 0.01

0.01 0.0 0.0
0.0 0.01 0.0
0.0 0.0 0.01

0.01 0.0 0.0
0.0 0.01 0.0
0.0 0.0 0.01

0.01 0.0 0.0
0.0 0.01 0.0
0.0 0.0 0.01

0.01 0.0 0.0
0.0 0.01 0.0
0.0 0.0 0.01

0.01 0.0 0.0
0.0 0.01 0.0
0.0 0.0 0.01

0.01 0.0 0.0
0.0 0.01 0.0
0.0 0.0 0.01

0.01 0.0 0.0
0.0 0.01 0.0
0.0 0.0 0.01

0.01 0.0 0.0
0.0 0.01 0.0
0.0 0.0 0.01

0.01 0.0 0.0
0.0 0.01 0.0
0.0 0.0 0.01

0.01 0.0 0.0
0.0 0.01 0.0
0.0 0.0 0.01

0.01 0.0 0.0
0.0 0.01 0.0
0.0 0.0 0.01

0.01 0.0 0.0
0.0 0.01 0.0
0.0 0.0 0.01

0.01 0.0 0.0
0.0 0.01 0.0
0.0 0.0 0.01

0.01 0.0 0.0
0.0 0.01 0.0
0.0 0.0 0.01

0.01 0.0 0.0
0.0 0.01 0.0
0.0 0.0 0.01

0.01 0.0 0.0
0.0 0.01 0.0
0.0 0.0 0.01

0.01 0.0 0.0
0.0 0.01 0.0
0.0 0.0 0.01

0.01 0.0 0.0
0.0 0.01 0.0
0.0 0.0 0.01

0.01 0.0 0.0
0.0 0.01 0.0
0.0 0.0 0.01

0.01 0.0 0.0
0.0 0.01 0.0
0.0 0.0 0.01

0.01 0.0 0.0
0.0 0.01 0.0
0.0 0.0 0.01

0.01 0.0 0.0
0.0 0.01 0.0
0.0 0.0 0.01

0.01 0.0 0.0
0.0 0.01 0.0
0.0 0.0 0.01

0.01 0.0 0.0
0.0 0.01 0.0
0.0 0.0 0.01

0.01 0.0 0.0
0.0 0.01 0.0
0.0 0.0 0.01

0.01 0.0 0.0
0.0 0.01 0.0
0.0 0.0 0.01

0.01 0.0 0.0
0.0 0.01 0.0
0.0 0.0 0.01

0.01 0.0 0.0
0.0 0.01 0.0
0.0 0.0 0.01

0.01 0.0 0.0
0.0 0.01 0.0
0.0 0.0 0.01

0.01 0.0 0.0
0.0 0.01 0.0
0.0 0.0 0.01

0.01 0.0 0.0
0.0 0.01 0.0
0.0 0.0 0.01

0.01 0.0 0.0
0.0 0.01 0.0
0.0 0.0 0.01

0.01 0.0 0.0
0.0 0.01 0.0
0.0 0.0 0.01

0.01 0.0 0.0
0.0 0.01 0.0
0.0 0.0 0.01

0.01 0.0 0.0
0.0 0.01 0.0
0.0 0.0 0.01

0.01 0.0 0.0
0.0 0.01 0.0
0.0 0.0 0.01

0.01 0.0 0.0
0.0 0.01 0.0
0.0 0.0 0.01

0.01 0.0 0.0
0.0 0.01 0.0
0.0 0.0 0.01

0.01 0.0 0.0
0.0 0.01 0.0
0.0 0.0 0.01

0.01 0.0 0.0
0.0 0.01 0.0
0.0 0.0 0.01

0.01 0.0 0.0
0.0 0.01 0.0
0.0 0.0 0.01

0.01 0.0 0.0
0.0 0.01 0.0
0.0 0.0 0.01

0.01 0.0 0.0
0.0 0.01 0.0
0.0 0.0 0.01

0.01 0.0 0.0
0.0 0.01 0.0
0.0 0.0 0.01

0.01 0.0 0.0
0.0 0.01 0.0
0.0 0.0 0.01

0.01 0.0 0.0
0.0 0.01 0.0
0.0 0.0 0.01

0.01 0.0 0.0
0.0 0.01 0.0
0.0 0.0 0.01

0.01 0.0 0.0
0.0 0.01 0.0
0.0 0.0 0.01

0.01 0.0 0.0
0.0 0.01 0.0
0.0 0.0 0.01

0.01 0.0 0.0
0.0 0.01 0.0
0.0 0.0 0.01

0.01 0.0 0.0
0.0 0.01 0.0
0.0 0.0 0.01

0.01 0.0 0.0
0.0 0.01 0.0
0.0 0.0 0.01

0.01 0.0 0.0
0.0 0.01 0.0
0.0 0.0 0.01

0.01 0.0 0.0
0.0 0.01 0.0
0.0 0.0 0.01

0.01 0.0 0.0
0.0 0.01 0.0
0.0 0.0 0.01

0.01 0.0 0.0
0.0 0.01 0.0
0.0 0.0 0.01

0.01 0.0 0.0
0.0 0.01 0.0
0.0 0.0 0.01

0.01 0.0 0.0
0.0 0.01 0.0
0.0 0.0 0.01

0.01 0.0 0.0
0.0 0.01 0.0
0.0 0.0 0.01

0.01 0.0 0.0
0.0 0.01 0.0
0.0 0.0 0.01

0.01 0.0 0.0
0.0 0.01 0.0
0.0 0.0 0.01

0.01 0.0 0.0
0.0 0.01 0.0
0.0 0.0 0.01

0.01 0.0 0.0
0.0 0.01 0.0
0.0 0.0 0.01

0.01 0.0 0.0
0.0 0.01 0.0
0.0 0.0 0.01

0.01 0.0 0.0
0.0 0.01 0.0
0.0 0.0 0.01

0.01 0.0 0.0
0.0 0.01 0.0
0.0 0.0 0.01

0.01 0.0 0.0
0.0 0.01 0.0
0.0 0.0 0.01

0.01 0.0 0.0
0.0 0.01 0.0
0.0 0.0 0.01

0.01 0.0 0.0
0.0 0.01 0.0
0.0 0.0 0.01

0.01 0.0 0.0
0.0 0.01 0.0
0.0 0.0 0.01

0.01 0.0 0.0
0.0 0.01 0.0
0.0 0.0 0.01

0.01 0.0 0.0
0.0 0.01 0.0
0.0 0.0 0.01

0.01 0.0 0.0
0.0 0.01 0.0
0.0 0.0 0.01

0.01 0.0 0.0
0.0 0.01 0.0
0.0 0.0 0.01

0.01 0.0 0.0
0.0 0.01 0.0
0.0 0.0 0.01

0.01 0.0 0.0
0.0 0.01 0.0
0.0 0.0 0.01

0.01 0.0 0.0
0.0 0.01 0.0
0.0 0.0 0.01

0.01 0.0 0.0
0.0 0.01 0.0
0.0 0.0 0.01

0.01 0.0 0.0
0.0 0.01 0.0
0.0 0.0 0.01

0.01 0.0 0.0
0.0 0.01 0.0
0.0 0.0 0.01

0.01 0.0 0.0
0.0 0.01 0.0
0.0 0.0 0.01

0.01 0.0 0.0
0.0 0.01 0.0
0.0 0.0 0.01

0.01 0.0 0.0
0.0 0.01 0.0
0.0 0.0 0.01

0.01 0.0 0.0
0.0 0.01 0.0
0.0 0.0 0.01

0.01 0.0 0.0
0.0 0.01 0.0
0.0 0.0 0.01

0.01 0.0 0.0
0.0 0.01 0.0
0.0 0.0 0.01

0.01 0.0 0.0
0.0 0.01 0.0
0.0 0.0 0.01

0.01 0.0 0.0
0.0 0.01 0.0
0.0 0.0 0.01

0.01 0.0 0.0
0.0 0.01 0.0
0.0 0.0 0.01

0.01 0.0 0.0
0.0 0.01 0.0
0.0 0.0 0.01

0.01 0.0 0.0
0.0 0.01 0.0
0.0 0.0 0.01

0.01 0.0 0.0
0.0 0.01 0.0
0.0 0.0 0.01

0.01 0.0 0.0
0.0 0.01 0.0
0.0 0.0 0.01

0.01 0.0 0.0
0.0 0.01 0.0
0.0 0.0 0.01

0.01 0.0 0.0
0.0 0.01 0.0
0.0 0.0 0.01

0.01 0.0 0.0
0.0 0.01 0.0
0.0 0.0 0.01

0.01 0.0 0.0
0.0 0.01 0.0
0.0 0.0 0.01

0.01 0.0 0.0
0.0 0.01 0.0
0.0 0.0 0.01

0.01 0.0 0.0
0.0 0.01 0.0
0.0 0.0 0.01

0.01 0.0 0.0
0.0 0.01 0.0
0.0 0.0 0.01

0.01 0.0 0.0
0.0 0.01 0.0
0.0 0.0 0.01

0.01 0.0 0.0
0.0 0.01 0.0
0.0 0.0 0.01

0.01 0.0 0.0
0.0 0.01 0.0
0.0 0.0 0.01

0.01 0.0 0.0
0.0 0.01 0.0
0.0 0.0 0.01

0.01 0.0 0.0
0.0 0.01 0.0
0.0 0.0 0.01

0.01 0.0 0.0
0.0 0.01 0.0
0.0 0.0 0.01

0.01 0.0 0.0
0.0 0.01 0.0
0.0 0.0 0.01

0.01 0.0 0.0
0.0 0.01 0.0
0.0 0.0 0.01

0.01 0.0 0.0
0.0 0.01 0.0
0.0 0.0 0.01

0.01 0.0 0.0
0.0 0.01 0.0
0.0 0.0 0.01

0.01 0.0 0.0
0.0 0.01 0.0
0.0 0.0 0.01

0.01 0.0 0.0
0.0 0.01 0.0
0.0 0.0 0.01

0.01 0.0 0.0
0.0 0.01 0.0
0.0 0.0 0.01

0.01 0.0 0.0
0.0 0.01 0.0
0.0 0.0 0.01

0.01 0.0 0.0
0.0 0.01 0.0
0.0 0.0 0.01

0.01 0.0 0.0
0.0 0.01 0.0
0.0 0.0 0.01

0.01 0.0 0.0
0.0 0.01 0.0
0.0 0.0 0.01

0.01 0.0 0.0
0.0 0.01 0.0
0.0 0.0 0.01

0.01 0.0 0.0
0.0 0.01 0.0
0.0 0.0 0.01

0.01 0.0 0.0
0.0 0.01 0.0
0.0 0.0 0.01

0.01 0.0 0.0
0.0 0.01 0.0
0.0 0.0 0.01

0.01 0.0 0.0
0.0 0.01 0.0
0.0 0.0 0.01

0.01 0.0 0.0
0.0 0.01 0.0
0.0 0.0 0.01

0.01 0.0 0.0
0.0 0.01 0.0
0.0 0.0 0.01

0.01 0.0 0.0
0.0 0.01 0.0
0.0 0.0 0.01

0.01 0.0 0.0
0.0 0.01 0.0
0.0 0.0 0.01

0.01 0.0 0.0
0.0 0.01 0.0
0.0 0.0 0.01

0.01 0.0 0.0
0.0 0.01 0.0
0.0 0.0 0.01

0.01 0.0 0.0
0.0 0.01 0.0
0.0 0.0 0.01

0.01 0.0 0.0
0.0 0.01 0.0
0.0 0.0 0.01

0.01 0.0 0.0
0.0 0.01 0.0
0.0 0.0 0.01

0.01 0.0 0.0
0.0 0.01 0.0
0.0 0.0 0.01

0.01 0.0 0.0
0.0 0.01 0.0
0.0 0.0 0.01

0.01 0.0 0.0
0.0 0.01 0.0
0.0 0.0 0.01

0.01 0.0 0.0
0.0 0.01 0.0
0.0 0.0 0.01

0.01 0.0 0.0
0.0 0.01 0.0
0.0 0.0 0.01

0.01 0.0 0.0
0.0 0.01 0.0
0.0 0.0 0.01

0.01 0.0 0.0
0.0 0.01 0.0
0.0 0.0 0.01

0.01 0.0 0.0
0.0 0.01 0.0
0.0 0.0 0.01

0.01 0.0 0.0
0.0 0.01 0.0
0.0 0.0 0.01

0.01 0.0 0.0
0.0 0.01 0.0
0.0 0.0 0.01

0.01 0.0 0.0
0.0 0.01 0.0
0.0 0.0 0.01

0.01 0.0 0.0
0.0 0.01 0.0
0.0 0.0 0.01

0.01 0.0 0.0
0.0 0.01 0.0
0.0 0.0 0.01

0.01 0.0 0.0
0.0 0.01 0.0
0.0 0.0 0.01

0.01 0.0 0.0
0.0 0.01 0.0
0.0 0.0 0.01

0.01 0.0 0.0
0.0 0.01 0.0
0.0 0.0 0.01

0.01 0.0 0.0
0.0 0.01 0.0
0.0 0.0 0.01

0.01 0.0 0.0
0.0 0.01 0.0
0.0 0.0 0.01

0.01 0.0 0.0
0.0 0.01 0.0
0.0 0.0 0.01

0.01 0.0 0.0
0.0 0.01 0.0
0.0 0.0 0.01

0.01 0.0 0.0
0.0 0.01 0.0
0.0 0.0 0.01

0.01 0.0 0.0
0.0 0.01 0.0
0.0 0.0 0.01

0.01 0.0 0.0
0.0 0.01 0.0
0.0 0.0 0.01

0.01 0.0 0.0
0.0 0.01 0.0
0.0 0.0 0.01

0.01 0.0 0.0
0.0 0.01 0.0
0.0 0.0 0.01

0.01 0.0 0.0
0.0 0.01 0.0
0.0 0.0 0.01

0.01 0.0 0.0
0.0 0.01 0.0
0.0 0.0 0.01

0.01 0.0 0.0
0.0 0.01 0.0
0.0 0.0 0.01

0.01 0.0 0.0
0.0 0.01 0.0
0.0 0.0 0.01

0.01 0.0 0.0
0.0 0.01 0.0
0.0 0.0 0.01

0.01 0.0 0.0
0.0 0.01 0.0
0.0 0.0 0.01

0.01 0.0 0.0
0.0 0.01 0.0
0.0 0.0 0.01

0.01 0.0 0.0
0.0 0.01 0.0
0.0 0.0 0.01

0.01 0.0 0.0
0.0 0.01 0.0
0.0 0.0 0.01

0.01 0.0 0.0
0.0 0.01 0.0
0.0 0.0 0.01

0.01 0.0 0.0
0.0 0.01 0.0
0.0 0.0 0.01

0.01 0.0 0.0
0.0 0.01 0.0
0.0 0.0 0.01

0.01 0.0 0.0
0.0 0.01 0.0
0.0 0.0 0.01

0.01 0.0 0.0
0.0 0.01 0.0
0.0 0.0 0.01

0.01 0.0 0.0
0.0 0.01 0.0
0.0 0.0 0.01

0.01 0.0 0.0
0.0 0.01 0.0
0.0 0.0 0.01

0.01 0.0 0.0
0.0 0.01 0.0
0.0 0.0 0.01

0.01 0.0 0.0
0.0 0.01 0.0
0.0 0.0 0.01

0.01 0.0 0.0
0.0 0.01 0.0
0.0 0.0 0.01

0.01 0.0 0.0
0.0 0.01 0.0
0.0 0.0 0.01

0.01 0.0 0.0
0.0 0.01 0.0
0.0 0.0 0.01

0.01 0.0 0.0
0.0 0.01 0.0
0.0 0.0 0.01

0.01 0.0 0.0
0.0 0.01 0.0
0.0 0.0 0.01

0.01 0.0 0.0
0.0 0.01 0.0
0.0 0.0 0.01

0.01 0.0 0.0
0.0 0.01 0.0
0.0 0.0 0.01

0.01 0.0 0.0
0.0 0.01 0.0
0.0 0.0 0.01

0.01 0.0 0.0
0.0 0.01 0.0
0.0 0.0 0.01

0.01 0.0 0.0
0.0 0.01 0.0
0.0 0.0 0.01

0.01 0.0 0.0
0.0 0.01 0.0
0.0 0.0 0.01

0.01 0.0 0.0
0.0 0.01 0.0
0.0 0.0 0.01

0.01 0.0 0.0
0.0 0.01 0.0
0.0 0.0 0.01

0.01 0.0 0.0
0.0 0.01 0.0
0.0 0.0 0.01

0.01 0.0 0.0
0.0 0.01 0.0
0.0 0.0 0.01

0.01 0.0 0.0
0.0 0.01 0.0
0.0 0.0 0.01

0.01 0.0 0.0
0.0 0.01 0.0
0.0 0.0 0.01

0.01 0.0 0.0
0.0 0.01 0.0
0.0 0.0 0.01

0.01 0.0 0.0
0.0 0.01 0.0
0.0 0.0 0.01

0.01 0.0 0.0
0.0 0.01 0.0
0.0 0.0 0.01

0.01 0.0 0.0
0.0 0.01 0.0
0.0 0.0 0.01

0.01 0.0 0.0
0.0 0.01 0.0
0.0 0.0 0.01

0.01 0.0 0.0
0.0 0.01 0.0
0.0 0.0 0.01

0.01 0.0 0.0
0.0 0.01 0.0
0.0 0.0 0.01

0.01 0.0 0.0
0.0 0.01 0.0
0.0 0.0 0.01

0.01 0.0 0.0
0.0 0.01 0.0
0.0 0.0 0.01

0.01 0.0 0.0
0.0 0.01 0.0
0.0 0.0 0.01

0.01 0.0 0.0
0.0 0.01 0.0
0.0 0.0 0.01

0.01 0.0 0.0
0.0 0.01 0.0
0.0 0.0 0.01

0.01 0.0 0.0
0.0 0.01 0.0
0.0 0.0 0.01

0.01 0.0 0.0
0.0 0.01 0.0
0.0 0.0 0.01

0.01 0.0 0.0
0.0 0.01 0.0
0.0 0.0 0.01

0.01 0.0 0.0
0.0 0.01 0.0
0.0 0.0 0.01

0.01 0.0 0.0
0.0 0.01 0.0
0.0 0.0 0.01

0.01 0.0 0.0
0.0 0.01 0.0
0.0 0.0 0.01

0.01 0.0 0.0
0.0 0.01 0.0
0.0 0.0 0.01

0.01 0.0 0.0
0.0 0.01 0.0
0.0 0.0 0.01

0.01 0.0 0.0
0.0 0.01 0.0
0.0 0.0 0.01

0.01 0.0 0.0
0.0 0.01 0.0
0.0 0.0 0.01

0.01 0.0 0.0
0.0 0.01 0.0
0.0 0.0 0.01

0.01 0.0 0.0
0.0 0.01 0.0
0.0 0.0 0.01

0.01 0.0 0.0
0.0 0.01 0.0
0.0 0.0 0.01

0.01 0.0 0.0
0.0 0.01 0.0
0.0 0.0 0.01

0.01 0.0 0.0
0.0 0.01 0.0
0.0 0.0 0.01

0.01 0.0 0.0
0.0 0.01 0.0
0.0 0.0 0.01

0.01 0.0 0.0
0.0 0.01 0.0
0.0 0.0 0.01

0.01 0.0 0.0
0.0 0.01 0.0
0.0 0.0 0.01

0.01 0.0 0.0
0.0 0.01 0.0
0.0 0.0 0.01

0.01 0.0 0.0
0.0 0.01 0.0
0.0 0.0 0.01

0.01 0.0 0.0
0.0 0.01 0.0
0.0 0.0 0.01

0.01 0.0 0.0
0.0 0.01 0.0
0.0 0.0 0.01

0.01 0.0 0.0
0.0 0.01 0.0
0.0 0.0 0.01

0.01 0.0 0.0
0.0 0.01 0.0
0.0 0.0 0.01

0.01 0.0 0.0
0.0 0.01 0.0
0.0 0.0 0.01

0.01 0.0 0.0
0.0 0.01 0.0
0.0 0.0 0.01

0.01 0.0 0.0
0.0 0.01 0.0
0.0 0.0 0.01

0.01 0.0 0.0
0.0 0.01 0.0
0.0 0.0 0.01

0.01 0.0 0.0
0.0 0.01 0.0
0.0 0.0 0.01

0.01 0.0 0.0
0.0 0.01 0.0
0.0 0.0 0.01

0.01 0.0 0.0
0.0 0.01 0.0
0.0 0.0 0.01

0.01 0.0 0.0
0.0 0.01 0.0
0.0 0.0 0.01

0.01 0.0 0.0
0.0 0.01 0.0
0.0 0.0 0.01

0.01 0.0 0.0
0.0 0.01 0.0
0.0 0.0 0.01

0.01 0.0 0.0
0.0 0.01 0.0
0.0 0.0 0.01

0.01 0.0 0.0
0.0 0.01 0.0
0.0 0.0 0.01

0.01 0.0 0.0
0.0 0.01 0.0
0.0 0.0 0.01

0.01 0.0 0.0
0.0 0.01 0.0
0.0 0.0 0.01

0.01 0.0 0.0
0.0 0.01 0.0
0.0 0.0 0.01

0.01 0.0 0.0
0.0 0.01 0.0
0.0 0.0 0.01

0.01 0.0 0.0
0.0 0.01 0.0
0.0 0.0 0.01

0.01 0.0 0.0
0.0 0.01 0.0
0.0 0.0 0.01

0.01 0.0 0.0
0.0 0.01 0.0
0.0 0.0 0.01

0.01 0.0 0.0
0.0 0.01 0.0
0.0 0.0 0.01

0.01 0.0 0.0
0.0 0.01 0.0
0.0 0.0 0.01

0.01 0.0 0.0
0.0 0.01 0.0
0.0 0.0 0.01

0.01 0.0 0.0
0.0 0.01 0.0
0.0 0.0 0.01

0.01 0.0 0.0
0.0 0.01 0.0
0.0 0.0 0.01

0.01 0.0 0.0
0.0 0.01 0.0
0.0 0.0 0.01

0.01 0.0 0.0
0.0 0.01 0.0
0.0 0.0 0.01

0.01 0.0 0.0
0.0 0.01 0.0
0.0 0.0 0.01

0.01 0.0 0.0
0.0 0.01 0.0
0.0 0.0 0.01

0.01 0.0 0.0
0.0 0.01 0.0
0.0 0.0 0.01

0.01 0.0 0.0
0.0 0.01 0.0
0.0 0.0 0.01

0.01 0.0 0.0
0.0 0.01 0.0
0.0 0.0 0.01

0.01 0.0 0.0
0.0 0.01 0.0
0.0 0.0 0.01

0.01 0.0 0.0
0.0 0.01 0.0
0.0 0.0 0.01

0.01 0.0 0.0
0.0 0.01 0.0
0.0 0.0 0.01

0.01 0.0 0.0
0.0 0.01 0.0
0.0 0.0 0.01

0.01 0.0 0.0
0.0 0.01 0.0
0.0 0.0 0.01

0.01 0.0 0.0
0.0 0.01 0.0
0.0 0.0 0.01

0.01 0.0 0.0
0.0 0.01 0.0
0.0 0.0 0.01

0.01 0.0 0.0
0.0 0.01 0.0
0.0 0.0 0.01

0.01 0.0 0.0
0.0 0.01 0.0
0.0 0.0 0.01

0.01 0.0 0.0
0.0 0.01 0.0
0.0 0.0 0.01

0.01 0.0 0.0
0.0 0.01 0.0
0.0 0.0 0.01

0.01 0.0 0.0
0.0 0.01 0.0
0.0 0.0 0.01

0.01 0.0 0.0
0.0 0.01 0.0
0.0 0.0 0.01

0.01 0.0 0.0
0.0 0.01 0.0
0.0 0.0 0.01

0.01 0.0 0.0
0.0 0.01 0.0
0.0 0.0 0.01

0.01 0.0 0.0
0.0 0.01 0.0
0.0 0.0 0.01

0.01 0.0 0.0
0.0 0.01 0.0
0.0 0.0 0.01

0.01 0.0 0.0
0.0 0.01 0.0
0.0 0.0 0.01

0.01 0.0 0.0
0.0 0.01 0.0
0.0 0.0 0.01

0.01 0.0 0.0
0.0 0.01 0.0
0.0 0.0 0.01

0.01 0.0 0.0
0.0 0.01 0.0
0.0 0.0 0.01

0.01 0.0 0.0
0.0 0.01 0.0
0.0 0.0 0.01

0.01 0.0 0.0
0.0 0.01 0.0
0.0 0.0 0.01

0.01 0.0 0.0
0.0 0.01 0.0
0.0 0.0 0.01

0.01 0.0 0.0
0.0 0.01 0.0
0.0 0.0 0.01

0.01 0.0 0.0
0.0 0.01 0.0
0.0 0.0 0.01

0.01 0.0 0.0
0.0 0.01 0.0
0.0 0.0 0.01

0.01 0.0 0.0
0.0 0.01 0.0
0.0 0.0 0.01

0.01 0.0 0.0
0.0 0.01 0.0
0.0 0.0 0.01

0.01 0.0 0.0
0.0 0.01 0.0
0.0 0.0 0.01

0.01 0.0 0.0
0.0 0.01 0.0
0.0 0.0 0.01

0.01 0.0 0.0
0.0 0.01 0.0
0.0 0.0 0.01

0.01 0.0 0.0
0.0 0.01 0.0
0.0 0.0 0.01

0.01 0.0 0.0
0.0 0.01 0.0
0.0 0.0 0.01

0.01 0.0 0.0
0.0 0.01 0.0
0.0 0.0 0.01

0.01 0.0 0.0
0.0 0.01 0.0
0.0 0.0 0.01

0.01 0.0 0.0
0.0 0.01 0.0
0.0 0.0 0.01

0.01 0.0 0.0
0.0 0.01 0.0
0.0 0.0 0.01

0.01 0.0 0.0
0.0 0.01 0.0
0.0 0.0 0.01

0.01 0.0 0.0
0.0 0.01 0.0
0.0 0.0 0.01

0.01 0.0 0.0
0.0 0.01 0.0
0.0 0.0 0.01

0.01 0.0 0.0
0.0 0.01 0.0
0.0 0.0 0.01

0.01 0.0 0.0
0.0 0.01 0.0
0.0 0.0 0.01

0.01 0.0 0.0
0.0 0.01 0.0
0.0 0.0 0.01

0.01 0.0 0.0
0.0 0.01 0.0
0.0 0.0 0.01

0.01 0.0 0.0
0.0 0.01 0.0
0.0 0.0 0.01

0.01 0.0 0.0
0.0 0.01 0.0
0.0 0.0 0.01

0.01 0.0 0.0
0.0 0.01 0.0
0.0 0.0 0.01

0.01 0.0 0.0
0.0 0.01 0.0
0.0 0.0 0.01

0.01 0.0 0.0
0.0 0.01 0.0
0.0 0.0 0.01

0.01 0.0 0.0
0.0 0.01 0.0
0.0 0.0 0.01

0.01 0.0 0.0
0.0 0.01 0.0
0.0 0.0 0.01

0.01 0.0 0.0
0.0 0.01 0.0
0.0 0.0 0.01

0.01 0.0 0.0
0.0 0.01 0.0
0.0 0.0 0.01

0.01 0.0 0.0
0.0 0.01 0.0
0.0 0.0 0.01

0.01 0.0 0.0
0.0 0.01 0.0
0.0 0.0 0.01

0.01 0.0 0.0
0.0 0.01 0.0
0.0 0.0 0.01

0.01 0.0 0.0
0.0 0.01 0.0
0.0 0.0 0.01

0.01 0.0 0.0
0.0 0.01 0.0
0.0 0.0 0.01

0.01 0.0 0.0
0.0 0.01 0.0
0.0 0.0 0.01

0.01 0.0 0.0
0.0 0.01 0.0
0.0 0.0 0.01

0.01 0.0 0.0
0.0 0.01 0.0
0.0 0.0 0.01

0.01 0.0 0.0
0.0 0.01 0.0
0.0 0.0 0.01

0.01 0.0 0.0
0.0 0.01 0.0
0.0 0.0 0.01

0.01 0.0 0.0
0.0 0.01 0.0
0.0 0.0 0.01

0.01 0.0 0.0
0.0 0.01 0.0
0.0 0.0 0.01

0.01 0.0 0.0
0.0 0.01 0.0
0.0 0.0 0.01

0.01 0.0 0.0
0.0 0.01 0.0
0.0 0.0 0.01

0.01 0.0 0.0
0.0 0.01 0.0
0.0 0.0 0.01

0.01 0.0 0.0
0.0 0.01 0.0
0.0 0.0 0.01

0.01 0.0 0.0
0.0 0.01 0.0
0.0 0.0 0.01

0.01 0.0 0.0
0.0 0.01 0.0
0.0 0.0 0.01

0.01 0.0 0.0
0.0 0.01 0.0
0.0 0.0 0.01

0.01 0.0 0.0
0.0 0.01 0.0
0.0 0.0 0.01

0.01 0.0 0.0
0.0 0.01 0.0
0.0 0.0 0.01

0.01 0.0 0.0
0.0 0.01 0.0
0.0 0.0 0.01

0.01 0.0 0.0
0.0 0.01 0.0
0.0 0.0 0.01

0.01 0.0 0.0
0.0 0.01 0.0
0.0 0.0 0.01

0.01 0.0 0.0
0.0 0.01 0.0
0.0 0.0 0.01

0.01 0.0 0.0
0.0 0.01 0.0
0.0 0.0 0.01

0.01 0.0 0.0
0.0 0.01 0.0
0.0 0.0 0.01

0.01 0.0 0.0
0.0 0.01 0.0
0.0 0.0 0.01

0.01 0.0 0.0
0.0 0.01 0.0
0.0 0.0 0.01

0.01 0.0 0.0
0.0 0.01 0.0
0.0 0.0 0.01

0.01 0.0 0.0
0.0 0.01 0.0
0.0 0.0 0.01

0.01 0.0 0.0
0.0 0.01 0.0
0.0 0.0 0.01

0.01 0.0 0.0
0.0 0.01 0.0
0.0 0.0 0.01

0.01 0.0 0.0
0.0 0.01 0.0
0.0 0.0 0.01

0.01 0.0 0.0
0.0 0.01 0.0
0.0 0.0 0.01

0.01 0.0 0.0
0.0 0.01 0.0
0.0 0.0 0.01

0.01 0.0 0.0
0.0 0.01 0.0
0.0 0.0 0.01

0.01 0.0 0.0
0.0 0.01 0.0
0.0 0.0 0.01

0.01 0.0 0.0
0.0 0.01 0.0
0.0 0.0 0.01

0.01 0.0 0.0
0.0 0.01 0.0
0.0 0.0 0.01

0.01 0.0 0.0
0.0 0.01 0.0
0.0 0.0 0.01

0.01 0.0 0.0
0.0 0.01 0.0
0.0 0.0 0.01

0.01 0.0 0.0
0.0 0.01 0.0
0.0 0.0 0.01

0.01 0.0 0.0
0.0 0.01 0.0
0.0 0.0 0.01

0.01 0.0 0.0
0.0 0.01 0.0
0.0 0.0 0.01

0.01 0.0 0.0
0.0 0.01 0.0
0.0 0.0 0.01

0.01 0.0 0.0
0.0 0.01 0.0
0.0 0.0 0.01

0.01 0.0 0.0
0.0 0.01 0.0
0.0 0.0 0.01

0.01 0.0 0.0
0.0 0.01 0.0
0.0 0.0 0.01

0.01 0.0 0.0
0.0 0.01 0.0
0.0 0.0 0.01

0.01 0.0 0.0
0.0 0.01 0.0
0.0 0.0 0.01

0.01 0.0 0.0
0.0 0.01 0.0
0.0 0.0 0.01

0.01 0.0 0.0
0.0 0.01 0.0
0.0 0.0 0.01

0.01 0.0 0.0
0.0 0.01 0.0
0.0 0.0 0.01

0.01 0.0 0.0
0.0 0.01 0.0
0.0 0.0 0.01

0.01 0.0 0.0
0.0 0.01 0.0
0.0 0.0 0.01

0.01 0.0 0.0
0.0 0.01 0.0
0.0 0.0 0.01

0.01 0.0 0.0
0.0 0.01 0.0
0.0 0.0 0.01

0.01 0.0 0.0
0.0 0.01 0.0
0.0 0.0 0.01

0.01 0.0 0.0
0.0 0.01 0.0
0.0 0.0 0.01

0.01 0.0 0.0
0.0 0.01 0.0
0.0 0.0 0.01

0.01 0.0 0.0
0.0 0.01 0.0
0.0 0.0 0.01

0.01 0.0 0.0
0.0 0.01 0.0
0.0 0.0 0.01

0.01 0.0 0.0
0.0 0.01 0.0
0.0 0.0 0.01

0.01 0.0 0.0
0.0 0.01 0.0
0.0 0.0 0.01

0.01 0.0 0.0
0.0 0.01 0.0
0.0 0.0 0.01

0.01 0.0 0.0
0.0 0.01 0.0
0.0 0.0 0.01

0.01 0.0 0.0
0.0 0.01 0.0
0.0 0.0 0.01

0.01 0.0 0.0
0.0 0.01 0.0
0.0 0.0 0.01

0.01 0.0 0.0
0.0 0.01 0.0
0.0 0.0 0.01

0.01 0.0 0.0
0.0 0.01 0.0
0.0 0.0 0.01

0.01 0.0 0.0
0.0 0.01 0.0
0.0 0.0 0.01

0.01 0.0 0.0
0.0 0.01 0.0
0.0 0.0 0.01

0.01 0.0 0.0
0.0 0.01 0.0
0.0 0.0 0.01

0.01 0.0 0.0
0.0 0.01 0.0
0.0 0.0 0.01

0.01 0.0 0.0
0.0 0.01 0.0
0.0 0.0 0.01

0.01 0.0 0.0
0.0 0.01 0.0
0.0 0.0 0.01

0.01 0.0 0.0
0.0 0.01 0.0
0.0 0.0 0.01

0.01 0.0 0.0
0.0 0.01 0.0
0.0 0.0 0.01

0.01 0.0 0.0
0.0 0.01 0.0
0.0 0.0 0.01

0.01 0.0 0.0
0.0 0.01 0.0
0.0 0.0 0.01

0.01 0.0 0.0
0.0 0.01 0.0
0.0 0.0 0.01

0.01 0.0 0.0
0.0 0.01 0.0
0.0 0.0 0.01

0.01 0.0 0.0
0.0 0.01 0.0
0.0 0.0 0.01

0.01 0.0 0.0
0.0 0.01 0.0
0.0 0.0 0.01

0.01 0.0 0.0
0.0 0.01 0.0
0.0 0.0 0.01

0.01 0.0 0.0
0.0 0.01 0.0
0.0 0.0 0.01

0.01 0.0 0.0
0.0 0.01 0.0
0.0 0.0 0.01

0.01 0.0 0.0
0.0 0.01 0.0
0.0 0.0 0.01

0.01 0.0 0.0
0.0 0.01 0.0
0.0 0.0 0.01

0.01 0.0 0.0
0.0 0.01 0.0
0.0 0.0 0.01

0.01 0.0 0.0
0.0 0.01 0.0
0.0 0.0 0.01

0.01 0.0 0.0
0.0 0.01 0.0
0.0 0.0 0.01

0.01 0.0 0.0
0.0 0.01 0.0
0.0 0.0 0.01

0.01 0.0 0.0
0.0 0.01 0.0
0.0 0.0 0.01

0.01 0.0 0.0
0.0 0.01 0.0
0.0 0.0 0.01

0.01 0.0 0.0
0.0 0.01 0.0
0.0 0.0 0.01

0.01 0.0 0.0
0.0 0.01 0.0
0.0 0.0 0.01

0.01 0.0 0.0
0.0 0.01 0.0
0.0 0.0 0.01

0.01 0.0 0.0
0.0 0.01 0.0
0.0 0.0 0.01

0.01 0.0 0.0
0.0 0.01 0.0
0.0 0.0 0.01

0.01 0.0 0.0
0.0 0.01 0.0
0.0 0.0 0.01

0.01 0.0 0.0
0.0 0.01 0.0
0.0 0.0 0.01

0.01 0.0 0.0
0.0 0.01 0.0
0.0 0.0 0.01

0.01 0.0 0.0
0.0 0.01 0.0
0.0 0.0 0.01

0.01 0.0 0.0
0.0 0.01 0.0
0.0 0.0 0.01

0.01 0.0 0.0
0.0 0.01 0.0
0.0 0.0 0.01

0.01 0.0 0.0
0.0 0.01 0.0
0.0 0.0 0.01

0.01 0.0 0.0
0.0 0.01 0.0
0.0 0.0 0.01

0.01 0.0 0.0
0.0 0.01 0.0
0.0 0.0 0.01

0.01 0.0 0.0
0.0 0.01 0.0
0.0 0.0 0.01

0.01 0.0 0.0
0.0 0.01 0.0
0.0 0.0 0.01

0.01 0.0 0.0
0.0 0.01 0.0
0.0 0.0 0.01

0.01 0.0 0.0
0.0 0.01 0.0
0.0 0.0 0.01

0.01 0.0 0.0
0.0 0.01 0.0
0.0 0.0 0.01

0.01 0.0 0.0
0.0 0.01 0.0
0.0 0.0 0.01

0.01 0.0 0.0
0.0 0.01 0.0
0.0 0.0 0.01

0.01 0.0 0.0
0.0 0.01 0.0
0.0 0.0 0.01

0.01 0.0 0.0
0.0 0.01 0.0
0.0 0.0 0.01

0.01 0.0 0.0
0.0 0.01 0.0
0.0 0.0 0.01

0.01 0.0 0.0
0.0 0.01 0.0
0.0 0.0 0.01

0.01 0.0 0.0
0.0 0.01 0.0
0.0 0.0 0.01

0.01 0.0 0.0
0.0 0.01 0.0
0.0 0.0 0.01

0.01 0.0 0.0
0.0 0.01 0.0
0.0 0.0 0.01

0.01 0.0 0.0
0.0 0.01 0.0
0.0 0.0 0.01

0.01 0.0 0.0
0.0 0.01 0.0
0.0 0.0 0.01

0.01 0.0 0.0
0.0 0.01 0.0
0.0 0.0 0.01

0.01 0.0 0.0
0.0 0.01 0.0
0.0 0.0 0.01

0.01 0.0 0.0
0.0 0.01 0.0
0.0 0.0 0.01

0.01 0.0 0.0
0.0 0.01 0.0
0.0 0.0 0.01

0.01 0.0 0.0
0.0 0.01 0.0
0.0 0.0 0.01

0.01 0.0 0.0
0.0 0.01 0.0
0.0 0.0 0.01

0.01 0.0 0.0
0.0 0.01 0.0
0.0 0.0 0.01

0.01 0.0 0.0
0.0 0.01 0.0
0.0 0.0 0.01

0.01 0.0 0.0
0.0 0.01 0.0
0.0 0.0 0.01

0.01 0.0 0.0
0.0 0.01 0.0
0.0 0.0 0.01

0.01 0.0 0.0
0.0 0.01 0.0
0.0 0.0 0.01

0.01 0.0 0.0
0.0 0.01 0.0
0.0 0.0 0.01

0.01 0.0 0.0
0.0 0.01 0.0
0.0 0.0 0.01

0.01 0.0 0.0
0.0 0.01 0.0
0.0 0.0 0.01

0.01 0.0 0.0
0.0 0.01 0.0
0.0 0.0 0.01

0.01 0.0 0.0
0.0 0.01 0.0
0.0 0.0 0.01

0.01 0.0 0.0
0.0 0.01 0.0
0.0 0.0 0.01

0.01 0.0 0.0
0.0 0.01 0.0
0.0 0.0 0.01

0.01 0.0 0.0
0.0 0.01 0.0
0.0 0.0 0.01

0.01 0.0 0.0
0.0 0.01 0.0
0.0 0.0 0.01

0.01 0.0 0.0
0.0 0.01 0.0
0.0 0.0 0.01

0.01 0.0 0.0
0.0 0.01 0.0
0.0 0.0 0.01

0.01 0.0 0.0
0.0 0.01 0.0
0.0 0.0 0.01

0.01 0.0 0.0
0.0 0.01 0.0
0.0 0.0 0.01

0.01 0.0 0.0
0.0 0.01 0.0
0.0 0.0 0.01

0.01 0.0 0.0
0.0 0.01 0.0
0.0 0.0 0.01

0.01 0.0 0.0
0.0 0.01 0.0
0.0 0.0 0.01

0.01 0.0 0.0
0.0 0.01 0.0
0.0 0.0 0.01

0.01 0.0 0.0
0.0 0.01 0.0
0.0 0.0 0.01

0.01 0.0 0.0
0.0 0.01 0.0
0.0 0.0 0.01

0.01 0.0 0.0
0.0 0.01 0.0
0.0 0.0 0.01

0.01 0.0 0.0
0.0 0.01 0.0
0.0 0.0 0.01

0.01 0.0 0.0
0.0 0.01 0.0
0.0 0.0 0.01

0.01 0.0 0.0
0.0 0.01 0.0
0.0 0.0 0.01

0.01 0.0 0.0
0.0 0.01 0.0
0.0 0.0 0.01

0.01 0.0 0.0
0.0 0.01 0.0
0.0 0.0 0.01

0.01 0.0 0.0
0.0 0.01 0.0
0.0 0.0 0.01

0.01 0.0 0.0
0.0 0.01 0.0
0.0 0.0 0.01

0.01 0.0 0.0
0.0 0.01 0.0
0.0 0.0 0.01

0.01 0.0 0.0
0.0 0.01 0.0
0.0 0.0 0.01

0.01 0.0 0.0
0.0 0.01 0.0
0.0 0.0 0.01

0.01 0.0 0.0
0.0 0.01 0.0
0.0 0.0 0.01

0.01 0.0 0.0
0.0 0.01 0.0
0.0 0.0 0.01

0.01 0.0 0.0
0.0 0.01 0.0
0.0 0.0 0.01

0.01 0.0 0.0
0.0 0.01 0.0
0.0 0.0 0.01

0.01 0.0 0.0
0.0 0.01 0.0
0.0 0.0 0.01

0.01 0.0 0.0
0.0 0.01 0.0
0.0 0.0 0.01

0.01 0.0 0.0
0.0 0.01 0.0
0.0 0.0 0.01

0.01 0.0 0.0
0.0 0.01 0.0
0.0 0.0 0.01

0.01 0.0 0.0
0.0 0.01 0.0
0.0 0.0 0.01

0.01 0.0 0.0
0.0 0.01 0.0
0.0 0.0 0.01

0.01 0.0 0.0
0.0 0.01 0.0
0.0 0.0 0.01

0.01 0.0 0.0
0.0 0.01 0.0
0.0 0.0 0.01

0.01 0.0 0.0
0.0 0.01 0.0
0.0 0.0 0.01

0.01 0.0 0.0
0.0 0.01 0.0
0.0 0.0 0.01

0.01 0.0 0.0
0.0 0.01 0.0
0.0 0.0 0.01

0.01 0.0 0.0
0.0 0.01 0.0
0.0 0.0 0.01

0.01 0.0 0.0
0.0 0.01 0.0
0.0 0.0 0.01

0.01 0.0 0.0
0.0 0.01 0.0
0.0 0.0 0.01

0.01 0.0 0.0
0.0 0.01 0.0
0.0 0.0 0.01

0.01 0.0 0.0
0.0 0.01 0.0
0.0 0.0 0.01

0.01 0.0 0.0
0.0 0.01 0.0
0.0 0.0 0.01

0.01 0.0 0.0
0.0 0.01 0.0
0.0 0.0 0.01

0.01 0.0 0.0
0.0 0.01 0.0
0.0 0.0 0.01

0.01 0.0 0.0
0.0 0.01 0.0
0.0 0.0 0.01

0.01 0.0 0.0
0.0 0.01 0.0
0.0 0.0 0.01

0.01 0.0 0.0
0.0 0.01 0.0
0.0 0.0 0.01

0.01 0.0 0.0
0.0 0.01 0.0
0.0 0.0 0.01

0.01 0.0 0.0
0.0 0.01 0.0
0.0 0.0 0.01

0.01 0.0 0.0
0.0 0.01 0.0
0.0 0.0 0.01

0.01 0.0 0.0
0.0 0.01 0.0
0.0 0.0 0.01

0.01 0.0 0.0
0.0 0.01 0.0
0.0 0.0 0.01

0.01 0.0 0.0
0.0 0.01 0.0
0.0 0.0 0.01

0.01 0.0 0.0
0.0 0.01 0.0
0.0 0.0 0.01

0.01 0.0 0.0
0.0 0.01 0.0
0.0 0.0 0.01

0.01 0.0 0.0
0.0 0.01 0.0
0.0 0.0 0.01

0.01 0.0 0.0
0.0 0.01 0.0
0.0 0.0 0.01

0.01 0.0 0.0
0.0 0.01 0.0
0.0 0.0 0.01

0.01 0.0 0.0
0.0 0.01 0.0
0.0 0.0 0.01

0.01 0.0 0.0
0.0 0.01 0.0
0.0 0.0 0.01

0.01 0.0 0.0
0.0 0.01 0.0
0.0 0.0 0.01

0.01 0.0 0.0
0.0 0.01 0.0
0.0 0.0 0.01

0.01 0.0 0.0
0.0 0.01 0.0
0.0 0.0 0.01

0.01 0.0 0.0
0.0 0.01 0.0
0.0 0.0 0.01

0.01 0.0 0.0
0.0 0.01 0.0
0.0 0.0 0.01

0.01 0.0 0.0
0.0 0.01 0.0
0.0 0.0 0.01

0.01 0.0 0.0
0.0 0.01 0.0
0.0 0.0 0.01

0.01 0.0 0.0
0.0 0.01 0.0
0.0 0.0 0.01

0.01 0.0 0.0
0.0 0.01 0.0
0.0 0.0 0.01

0.01 0.0 0.0
0.0 0.01 0.0
0.0 0.0 0.01

0.01 0.0 0.0
0.0 0.01 0.0
0.0 0.0 0.01

0.01 0.0 0.0
0.0 0.01 0.0
0.0 0.0 0.01

0.01 0.0 0.0
0.0 0.01 0.0
0.0 0.0 0.01

0.01 0.0 0.0
0.0 0.01 0.0
0.0 0.0 0.01

0.01 0.0 0.0
0.0 0.01 0.0
0.0 0.0 0.01

0.01 0.0 0.0
0.0 0.01 0.0
0.0 0.0 0.01

0.01 0.0 0.0
0.0 0.01 0.0
0.0 0.0 0.01

0.01 0.0 0.0
0.0 0.01 0.0
0.0 0.0 0.01

0.01 0.0 0.0
0.0 0.01 0.0
0.0 0.0 0.01

0.01 0.0 0.0
0.0 0.01 0.0
0.0 0.0 0.01

0.01 0.0 0.0
0.0 0.01 0.0
0.0 0.0 0.01

0.01 0.0 0.0
0.0 0.01 0.0
0.0 0.0 0.01

0.01 0.0 0.0
0.0 0.01 0.0
0.0 0.0 0.01

0.01 0.0 0.0
0.0 0.01 0.0
0.0 0.0 0.01

0.01 0.0 0.0
0.0 0.01 0.0
0.0 0.0 0.01

0.01 0.0 0.0
0.0 0.01 0.0
0.0 0.0 0.01

0.01 0.0 0.0
0.0 0.01 0.0
0.0 0.0 0.01

0.01 0.0 0.0
0.0 0.01 0.0
0.0 0.0 0.01

0.01 0.0 0.0
0.0 0.01 0.0
0.0 0.0 0.01

0.01 0.0 0.0
0.0 0.01 0.0
0.0 0.0 0.01

0.01 0.0 0.0
0.0 0.01 0.0
0.0 0.0 0.01

0.01 0.0 0.0
0.0 0.01 0.0
0.0 0.0 0.01

0.01 0.0 0.0
0.0 0.01 0.0
0.0 0.0 0.01

0.01 0.0 0.0
0.0 0.01 0.0
0.0 0.0 0.01

0.01 0.0 0.0
0.0 0.01 0.0
0.0 0.0 0.01

0.01 0.0 0.0
0.0 0.01 0.0
0.0 0.0 0.01

0.01 0.0 0.0
0.0 0.01 0.0
0.0 0.0 0.01

0.01 0.0 0.0
0.0 0.01 0.0
0.0 0.0 0.01

0.01 0.0 0.0
0.0 0.01 0.0
0.0 0.0 0.01

0.01 0.0 0.0
0.0 0.01 0.0
0.0 0.0 0.01

0.01 0.0 0.0
0.0 0.01 0.0
0.0 0.0 0.01

0.01 0.0 0.0
0.0 0.01 0.0
0.0 0.0 0.01

0.01 0.0 0.0
0.0 0.01 0.0
0.0 0.0 0.01

0.01 0.0 0.0
0.0 0.01 0.0
0.0 0.0 0.01

0.01 0.0 0.0
0.0 0.01 0.0
0.0 0.0 0.01

0.01 0.0 0.0
0.0 0.01 0.0
0.0 0.0 0.01

0.01 0.0 0.0
0.0 0.01 0.0
0.0 0.0 0.01

0.01 0.0 0.0
0.0 0.01 0.0
0.0 0.0 0.01

0.01 0.0 0.0
0.0 0.01 0.0
0.0 0.0 0.01

0.01 0.0 0.0
0.0 0.01 0.0
0.0 0.0 0.01

0.01 0.0 0.0
0.0 0.01 0.0
0.0 0.0 0.01

0.01 0.0 0.0
0.0 0.01 0.0
0.0 0.0 0.01

0.01 0.0 0.0
0.0 0.01 0.0
0.0 0.0 0.01

0.01 0.0 0.0
0.0 0.01 0.0
0.0 0.0 0.01

0.01 0.0 0.0
0.0 0.01 0.0
0.0 0.0 0.01

0.01 0.0 0.0
0.0 0.01 0.0
0.0 0.0 0.01

0.01 0.0 0.0
0.0 0.01 0.0
0.0 0.0 0.01

0.01 0.0 0.0
0.0 0.01 0.0
0.0 0.0 0.01

0.01 0.0 0.0
0.0 0.01 0.0
0.0 0.0 0.01

0.01 0.0 0.0
0.0 0.01 0.0
0.0 0.0 0.01

0.01 0.0 0.0
0.0 0.01 0.0
0.0 0.0 0.01

0.01 0.0 0.0
0.0 0.01 0.0
0.0 0.0 0.01

0.01 0.0 0.0
0.0 0.01 0.0
0.0 0.0 0.01

0.01 0.0 0.0
0.0 0.01 0.0
0.0 0.0 0.01

0.01 0.0 0.0
0.0 0.01 0.0
0.0 0.0 0.01

0.01 0.0 0.0
0.0 0.01 0.0
0.0 0.0 0.01

0.01 0.0 0.0
0.0 0.01 0.0
0.0 0.0 0.01

0.01 0.0 0.0
0.0 0.01 0.0
0.0 0.0 0.01

0.01 0.0 0.0
0.0 0.01 0.0
0.0 0.0 0.01

0.01 0.0 0.0
0.0 0.01 0.0
0.0 0.0 0.01

0.01 0.0 0.0
0.0 0.01 0.0
0.0 0.0 0.01

0.01 0.0 0.0
0.0 0.01 0.0
0.0 0.0 0.01

0.01 0.0 0.0
0.0 0.01 0.0
0.0 0.0 0.01

0.01 0.0 0.0
0.0 0.01 0.0
0.0 0.0 0.01

0.01 0.0 0.0
0.0 0.01 0.0
0.0 0.0 0.01

0.01 0.0 0.0
0.0 0.01 0.0
0.0 0.0 0.01

0.01 0.0 0.0
0.0 0.01 0.0
0.0 0.0 0.01

0.01 0.0 0.0
0.0 0.01 0.0
0.0 0.0 0.01

0.01 0.0 0.0
0.0 0.01 0.0
0.0 0.0 0.01

0.01 0.0 0.0
0.0 0.01 0.0
0.0 0.0 0.01

0.01 0.0 0.0
0.0 0.01 0.0
0.0 0.0 0.01

0.01 0.0 0.0
0.0 0.01 0.0
0.0 0.0 0.01

0.01 0.0 0.0
0.0 0.01 0.0
0.0 0.0 0.01

0.01 0.0 0.0
0.0 0.01 0.0
0.0 0.0 0.01

0.01 0.0 0.0
0.0 0.01 0.0
0.0 0.0 0.01

0.01 0.0 0.0
0.0 0.01 0.0
0.0 0.0 0.01

0.01 0.0 0.0
0.0 0.01 0.0
0.0 0.0 0.01

0.01 0.0 0.0
0.0 0.01 0.0
0.0 0.0 0.01

0.01 0.0 0.0
0.0 0.01 0.0
0.0 0.0 0.01

0.01 0.0 0.0
0.0 0.01 0.0
0.0 0.0 0.01

0.01 0.0 0.0
0.0 0.01 0.0
0.0 0.0 0.01

0.01 0.0 0.0
0.0 0.01 0.0
0.0 0.0 0.01

0.01 0.0 0.0
0.0 0.01 0.0
0.0 0.0 0.01

0.01 0.0 0.0
0.0 0.01 0.0
0.0 0.0 0.01

0.01 0.0 0.0
0.0 0.01 0.0
0.0 0.0 0.01

0.01 0.0 0.0
0.0 0.01 0.0
0.0 0.0 0.01

0.01 0.0 0.0
0.0 0.01 0.0
0.0 0.0 0.01

0.01 0.0 0.0
0.0 0.01 0.0
0.0 0.0 0.01

0.01 0.0 0.0
0.0 0.01 0.0
0.0 0.0 0.01

0.01 0.0 0.0
0.0 0.01 0.0
0.0 0.0 0.01

0.01 0.0 0.0
0.0 0.01 0.0
0.0 0.0 0.01

0.01 0.0 0.0
0.0 0.01 0.0
0.0 0.0 0.01

0.01 0.0 0.0
0.0 0.01 0.0
0.0 0.0 0.01

0.01 0.0 0.0
0.0 0.01 0.0
0.0 0.0 0.01

0.01 0.0 0.0
0.0 0.01 0.0
0.0 0.0 0.01

0.01 0.0 0.0
0.0 0.01 0.0
0.0 0.0 0.01

0.01 0.0 0.0
0.0 0.01 0.0
0.0 0.0 0.01

0.01 0.0 0.0
0.0 0.01 0.0
0.0 0.0 0.01

0.01 0.0 0.0
0.0 0.01 0.0
0.0 0.0 0.01

0.01 0.0 0.0
0.0 0.01 0.0
0.0 0.0 0.01

0.01 0.0 0.0
0.0 0.01 0.0
0.0 0.0 0.01

0.01 0.0 0.0
0.0 0.01 0.0
0.0 0.0 0.01

0.01 0.0 0.0
0.0 0.01 0.0
0.0 0.0 0.01

0.01 0.0 0.0
0.0 0.01 0.0
0.0 0.0 0.01

0.01 0.0 0.0
0.0 0.01 0.0
0.0 0.0 0.01

0.01 0.0 0.0
0.0 0.01 0.0
0.0 0.0 0.01

0.01 0.0 0.0
0.0 0.01 0.0
0.0 0.0 0.01

0.01 0.0 0.0
0.0 0.01 0.0
0.0 0.0 0.01

0.01 0.0 0.0
0.0 0.01 0.0
0.0 0.0 0.01

0.01 0.0 0.0
0.0 0.01 0.0
0.0 0.0 0.01

0.01 0.0 0.0
0.0 0.01 0.0
0.0 0.0 0.01

0.01 0.0 0.0
0.0 0.01 0.0
0.0 0.0 0.01

0.01 0.0 0.0
0.0 0.01 0.0
0.0 0.0 0.01

0.01 0.0 0.0
0.0 0.01 0.0
0.0 0.0 0.01

0.01 0.0 0.0
0.0 0.01 0.0
0.0 0.0 0.01

0.01 0.0 0.0
0.0 0.01 0.0
0.0 0.0 0.01

0.01 0.0 0.0
0.0 0.01 0.0
0.0 0.0 0.01

0.01 0.0 0.0
0.0 0.01 0.0
0.0 0.0 0.01

0.01 0.0 0.0
0.0 0.01 0.0
0.0 0.0 0.01

0.01 0.0 0.0
0.0 0.01 0.0
0.0 0.0 0.01

0.01 0.0 0.0
0.0 0.01 0.0
0.0 0.0 0.01

0.01 0.0 0.0
0.0 0.01 0.0
0.0 0.0 0.01

0.01 0.0 0.0
0.0 0.01 0.0
0.0 0.0 0.01

0.01 0.0 0.0
0.0 0.01 0.0
0.0 0.0 0.01

0.01 0.0 0.0
0.0 0.01 0.0
0.0 0.0 0.01

0.01 0.0 0.0
0.0 0.01 0.0
0.0 0.0 0.01

0.01 0.0 0.0
0.0 0.01 0.0
0.0 0.0 0.01

0.01 0.0 0.0
0.0 0.01 0.0
0.0 0.0 0.01

0.01 0.0 0.0
0.0 0.01 0.0
0.0 0.0 0.01

0.01 0.0 0.0
0.0 0.01 0.0
0.0 0.0 0.01

0.01 0.0 0.0
0.0 0.01 0.0
0.0 0.0 0.01

0.01 0.0 0.0
0.0 0.01 0.0
0.0 0.0 0.01

0.01 0.0 0.0
0.0 0.01 0.0
0.0 0.0 0.01

0.01 0.0 0.0
0.0 0.01 0.0
0.0 0.0 0.01

0.01 0.0 0.0
0.0 0.01 0.0
0.0 0.0 0.01

0.01 0.0 0.0
0.0 0.01 0.0
0.0 0.0 0.01

0.01 0.0 0.0
0.0 0.01 0.0
0.0 0.0 0.01

0.01 0.0 0.0
0.0 0.01 0.0
0.0 0.0 0.01

0.01 0.0 0.0
0.0 0.01 0.0
0.0 0.0 0.01

0.01 0.0 0.0
0.0 0.01 0.0
0.0 0.0 0.01

0.01 0.0 0.0
0.0 0.01 0.0
0.0 0.0 0.01

0.01 0.0 0.0
0.0 0.01 0.0
0.0 0.0 0.01

0.01 0.0 0.0
0.0 0.01 0.0
0.0 0.0 0.01

0.01 0.0 0.0
0.0 0.01 0.0
0.0 0.0 0.01

0.01 0.0 0.0
0.0 0.01 0.0
0.0 0.0 0.01

0.01 0.0 0.0
0.0 0.01 0.0
0.0 0.0 0.01

0.01 0.0 0.0
0.0 0.01 0.0
0.0 0.0 0.01

0.01 0.0 0.0
0.0 0.01 0.0
0.0 0.0 0.01

0.01 0.0 0.0
0.0 0.01 0.0
0.0 0.0 0.01

0.01 0.0 0.0
0.0 0.01 0.0
0.0 0.0 0.01

0.01 0.0 0.0
0.0 0.01 0.0
0.0 0.0 0.01

0.01 0.0 0.0
0.0 0.01 0.0
0.0 0.0 0.01

0.01 0.0 0.0
0.0 0.01 0.0
0.0 0.0 0.01

0.01 0.0 0.0
0.0 0.01 0.0
0.0 0.0 0.01

0.01 0.0 0.0
0.0 0.01 0.0
0.0 0.0 0.01

0.01 0.0 0.0
0.0 0.01 0.0
0.0 0.0 0.01

0.01 0.0 0.0
0.0 0.01 0.0
0.0 0.0 0.01

0.01 0.0 0.0
0.0 0.01 0.0
0.0 0.0 0.01

0.01 0.0 0.0
0.0 0.01 0.0
0.0 0.0 0.01

0.01 0.0 0.0
0.0 0.01 0.0
0.0 0.0 0.01

0.01 0.0 0.0
0.0 0.01 0.0
0.0 0.0 0.01

0.01 0.0 0.0
0.0 0.01 0.0
0.0 0.0 0.01

0.01 0.0 0.0
0.0 0.01 0.0
0.0 0.0 0.01

0.01 0.0 0.0
0.0 0.01 0.0
0.0 0.0 0.01

0.01 0.0 0.0
0.0 0.01 0.0
0.0 0.0 0.01

0.01 0.0 0.0
0.0 0.01 0.0
0.0 0.0 0.01

0.01 0.0 0.0
0.0 0.01 0.0
0.0 0.0 0.01

0.01 0.0 0.0
0.0 0.01 0.0
0.0 0.0 0.01

0.01 0.0 0.0
0.0 0.01 0.0
0.0 0.0 0.01

0.01 0.0 0.0
0.0 0.01 0.0
0.0 0.0 0.01

0.01 0.0 0.0
0.0 0.01 0.0
0.0 0.0 0.01

0.01 0.0 0.0
0.0 0.01 0.0
0.0 0.0 0.01

0.01 0.0 0.0
0.0 0.01 0.0
0.0 0.0 0.01

0.01 0.0 0.0
0.0 0.01 0.0
0.0 0.0 0.01

0.01 0.0 0.0
0.0 0.01 0.0
0.0 0.0 0.01

0.01 0.0 0.0
0.0 0.01 0.0
0.0 0.0 0.01

0.01 0.0 0.0
0.0 0.01 0.0
0.0 0.0 0.01

0.01 0.0 0.0
0.0 0.01 0.0
0.0 0.0 0.01

0.01 0.0 0.0
0.0 0.01 0.0
0.0 0.0 0.01

0.01 0.0 0.0
0.0 0.01 0.0
0.0 0.0 0.01

0.01 0.0 0.0
0.0 0.01 0.0
0.0 0.0 0.01

0.01 0.0 0.0
0.0 0.01 0.0
0.0 0.0 0.01

0.01 0.0 0.0
0.0 0.01 0.0
0.0 0.0 0.01

0.01 0.0 0.0
0.0 0.01 0.0
0.0 0.0 0.01

0.01 0.0 0.0
0.0 0.01 0.0
0.0 0.0 0.01

0.01 0.0 0.0
0.0 0.01 0.0
0.0 0.0 0.01

0.01 0.0 0.0
0.0 0.01 0.0
0.0 0.0 0.01

0.01 0.0 0.0
0.0 0.01 0.0
0.0 0.0 0.01

0.01 0.0 0.0
0.0 0.01 0.0
0.0 0.0 0.01

0.01 0.0 0.0
0.0 0.01 0.0
0.0 0.0 0.01

0.01 0.0 0.0
0.0 0.01 0.0
0.0 0.0 0.01

0.01 0.0 0.0
0.0 0.01 0.0
0.0 0.0 0.01

0.01 0.0 0.0
0.0 0.01 0.0
0.0 0.0 0.01

0.01 0.0 0.0
0.0 0.01 0.0
0.0 0.0 0.01

0.01 0.0 0.0
0.0 0.01 0.0
0.0 0.0 0.01

0.01 0.0 0.0
0.0 0.01 0.0
0.0 0.0 0.01

0.01 0.0 0.0
0.0 0.01 0.0
0.0 0.0 0.01

0.01 0.0 0.0
0.0 0.01 0.0
0.0 0.0 0.01

0.01 0.0 0.0
0.0 0.01 0.0
0.0 0.0 0.01

0.01 0.0 0.0
0.0 0.01 0.0
0.0 0.0 0.01

0.01 0.0 0.0
0.0 0.01 0.0
0.0 0.0 0.01

0.01 0.0 0.0
0.0 0.01 0.0
0.0 0.0 0.01

0.01 0.0 0.0
0.0 0.01 0.0
0.0 0.0 0.01

0.01 0.0 0.0
0.0 0.01 0.0
0.0 0.0 0.01

0.01 0.0 0.0
0.0 0.01 0.0
0.0 0.0 0.01

0.01 0.0 0.0
0.0 0.01 0.0
0.0 0.0 0.01

0.01 0.0 0.0
0.0 0.01 0.0
0.0 0.0 0.01

0.01 0.0 0.0
0.0 0.01 0.0
0.0 0.0 0.01

0.01 0.0 0.0
0.0 0.01 0.0
0.0 0.0 0.01

0.01 0.0 0.0
0.0 0.01 0.0
0.0 0.0 0.01

0.01 0.0 0.0
0.0 0.01 0.0
0.0 0.0 0.01

0.01 0.0 0.0
0.0 0.01 0.0
0.0 0.0 0.01

0.01 0.0 0.0
0.0 0.01 0.0
0.0 0.0 0.01

0.01 0.0 0.0
0.0 0.01 0.0
0.0 0.0 0.01

0.01 0.0 0.0
0.0 0.01 0.0
0.0 0.0 0.01

0.01 0.0 0.0
0.0 0.01 0.0
0.0 0.0 0.01

0.01 0.0 0.0
0.0 0.01 0.0
0.0 0.0 0.01

0.01 0.0 0.0
0.0 0.01 0.0
0.0 0.0 0.01

0.01 0.0 0.0
0.0 0.01 0.0
0.0 0.0 0.01

0.01 0.0 0.0
0.0 0.01 0.0
0.0 0.0 0.01

0.01 0.0 0.0
0.0 0.01 0.0
0.0 0.0 0.01

0.01 0.0 0.0
0.0 0.01 0.0
0.0 0.0 0.01

0.01 0.0 0.0
0.0 0.01 0.0
0.0 0.0 0.01

0.01 0.0 0.0
0.0 0.01 0.0
0.0 0.0 0.01

0.01 0.0 0.0
0.0 0.01 0.0
0.0 0.0 0.01

0.01 0.0 0.0
0.0 0.01 0.0
0.0 0.0 0.01

0.01 0.0 0.0
0.0 0.01 0.0
0.0 0.0 0.01

0.01 0.0 0.0
0.0 0.01 0.0
0.0 0.0 0.01

0.01 0.0 0.0
0.0 0.01 0.0
0.0 0.0 0.01

0.01 0.0 0.0
0.0 0.01 0.0
0.0 0.0 0.01

0.01 0.0 0.0
0.0 0.01 0.0
0.0 0.0 0.01

0.01 0.0 0.0
0.0 0.01 0.0
0.0 0.0 0.01

0.01 0.0 0.0
0.0 0.01 0.0
0.0 0.0 0.01

0.01 0.0 0.0
0.0 0.01 0.0
0.0 0.0 0.01

0.01 0.0 0.0
0.0 0.01 0.0
0.0 0.0 0.01

0.01 0.0 0.0
0.0 0.01 0.0
0.0 0.0 0.01

0.01 0.0 0.0
0.0 0.01 0.0
0.0 0.0 0.01

0.01 0.0 0.0
0.0 0.01 0.0
0.0 0.0 0.01

0.01 0.0 0.0
0.0 0.01 0.0
0.0 0.0 0.01

0.01 0.0 0.0
0.0 0.01 0.0
0.0 0.0 0.01

0.01 0.0 0.0
0.0 0.01 0.0
0.0 0.0 0.01

0.01 0.0 0.0
0.0 0.01 0.0
0.0 0.0 0.01

0.01 0.0 0.0
0.0 0.01 0.0
0.0 0.0 0.01

0.01 0.0 0.0
0.0 0.01 0.0
0.0 0.0 0.01

0.01 0.0 0.0
0.0 0.01 0.0
0.0 0.0 0.01

0.01 0.0 0.0
0.0 0.01 0.0
0.0 0.0 0.01

0.01 0.0 0.0
0.0 0.01 0.0
0.0 0.0 0.01

0.01 0.0 0.0
0.0 0.01 0.0
0.0 0.0 0.01

0.01 0.0 0.0
0.0 0.01 0.0
0.0 0.0 0.01

0.01 0.0 0.0
0.0 0.01 0.0
0.0 0.0 0.01

0.01 0.0 0.0
0.0 0.01 0.0
0.0 0.0 0.01

0.01 0.0 0.0
0.0 0.01 0.0
0.0 0.0 0.01

0.01 0.0 0.0
0.0 0.01 0.0
0.0 0.0 0.01

0.01 0.0 0.0
0.0 0.01 0.0
0.0 0.0 0.01

0.01 0.0 0.0
0.0 0.01 0.0
0.0 0.0 0.01

0.01 0.0 0.0
0.0 0.01 0.0
0.0 0.0 0.01

0.01 0.0 0.0
0.0 0.01 0.0
0.0 0.0 0.01

0.01 0.0 0.0
0.0 0.01 0.0
0.0 0.0 0.01

0.01 0.0 0.0
0.0 0.01 0.0
0.0 0.0 0.01

0.01 0.0 0.0
0.0 0.01 0.0
0.0 0.0 0.01

0.01 0.0 0.0
0.0 0.01 0.0
0.0 0.0 0.01

0.01 0.0 0.0
0.0 0.01 0.0
0.0 0.0 0.01

0.01 0.0 0.0
0.0 0.01 0.0
0.0 0.0 0.01

0.01 0.0 0.0
0.0 0.01 0.0
0.0 0.0 0.01

0.01 0.0 0.0
0.0 0.01 0.0
0.0 0.0 0.01

0.01 0.0 0.0
0.0 0.01 0.0
0.0 0.0 0.01

0.01 0.0 0.0
0.0 0.01 0.0
0.0 0.0 0.01

0.01 0.0 0.0
0.0 0.01 0.0
0.0 0.0 0.01

0.01 0.0 0.0
0.0 0.01 0.0
0.0 0.0 0.01

0.01 0.0 0.0
0.0 0.01 0.0
0.0 0.0 0.01

0.01 0.0 0.0
0.0 0.01 0.0
0.0 0.0 0.01

0.01 0.0 0.0
0.0 0.01 0.0
0.0 0.0 0.01

0.01 0.0 0.0
0.0 0.01 0.0
0.0 0.0 0.01

0.01 0.0 0.0
0.0 0.01 0.0
0.0 0.0 0.01

0.01 0.0 0.0
0.0 0.01 0.0
0.0 0.0 0.01

0.01 0.0 0.0
0.0 0.01 0.0
0.0 0.0 0.01

0.01 0.0 0.0
0.0 0.01 0.0
0.0 0.0 0.01

0.01 0.0 0.0
0.0 0.01 0.0
0.0 0.0 0.01

0.01 0.0 0.0
0.0 0.01 0.0
0.0 0.0 0.01

0.01 0.0 0.0
0.0 0.01 0.0
0.0 0.0 0.01

0.01 0.0 0.0
0.0 0.01 0.0
0.0 0.0 0.01

0.01 0.0 0.0
0.0 0.01 0.0
0.0 0.0 0.01

0.01 0.0 0.0
0.0 0.01 0.0
0.0 0.0 0.01

0.01 0.0 0.0
0.0 0.01 0.0
0.0 0.0 0.01

0.01 0.0 0.0
0.0 0.01 0.0
0.0 0.0 0.01

0.01 0.0 0.0
0.0 0.01 0.0
0.0 0.0 0.01

0.01 0.0 0.0
0.0 0.01 0.0
0.0 0.0 0.01

0.01 0.0 0.0
0.0 0.01 0.0
0.0 0.0 0.01

0.01 0.0 0.0
0.0 0.01 0.0
0.0 0.0 0.01

0.01 0.0 0.0
0.0 0.01 0.0
0.0 0.0 0.01

0.01 0.0 0.0
0.0 0.01 0.0
0.0 0.0 0.01

0.01 0.0 0.0
0.0 0.01 0.0
0.0 0.0 0.01

0.01 0.0 0.0
0.0 0.01 0.0
0.0 0.0 0.01

0.01 0.0 0.0
0.0 0.01 0.0
0.0 0.0 0.01

0.01 0.0 0.0
0.0 0.01 0.0
0.0 0.0 0.01

0.01 0.0 0.0
0.0 0.01 0.0
0.0 0.0 0.01

0.01 0.0 0.0
0.0 0.01 0.0
0.0 0.0 0.01

0.01 0.0 0.0
0.0 0.01 0.0
0.0 0.0 0.01

0.01 0.0 0.0
0.0 0.01 0.0
0.0 0.0 0.01

0.01 0.0 0.0
0.0 0.01 0.0
0.0 0.0 0.01

0.01 0.0 0.0
0.0 0.01 0.0
0.0 0.0 0.01

0.01 0.0 0.0
0.0 0.01 0.0
0.0 0.0 0.01

0.01 0.0 0.0
0.0 0.01 0.0
0.0 0.0 0.01

0.01 0.0 0.0
0.0 0.01 0.0
0.0 0.0 0.01

0.01 0.0 0.0
0.0 0.01 0.0
0.0 0.0 0.01

0.01 0.0 0.0
0.0 0.01 0.0
0.0 0.0 0.01

0.01 0.0 0.0
0.0 0.01 0.0
0.0 0.0 0.01

0.01 0.0 0.0
0.0 0.01 0.0
0.0 0.0 0.01

0.01 0.0 0.0
0.0 0.01 0.0
0.0 0.0 0.01

0.01 0.0 0.0
0.0 0.01 0.0
0.0 0.0 0.01

0.01 0.0 0.0
0.0 0.01 0.0
0.0 0.0 0.01

0.01 0.0 0.0
0.0 0.01 0.0
0.0 0.0 0.01

0.01 0.0 0.0
0.0 0.01 0.0
0.0 0.0 0.01

0.01 0.0 0.0
0.0 0.01 0.0
0.0 0.0 0.01

0.01 0.0 0.0
0.0 0.01 0.0
0.0 0.0 0.01

0.01 0.0 0.0
0.0 0.01 0.0
0.0 0.0 0.01

0.01 0.0 0.0
0.0 0.01 0.0
0.0 0.0 0.01

0.01 0.0 0.0
0.0 0.01 0.0
0.0 0.0 0.01

0.01 0.0 0.0
0.0 0.01 0.0
0.0 0.0 0.01

0.01 0.0 0.0
0.0 0.01 0.0
0.0 0.0 0.01

0.01 0.0 0.0
0.0 0.01 0.0
0.0 0.0 0.01

0.01 0.0 0.0
0.0 0.01 0.0
0.0 0.0 0.01

0.01 0.0 0.0
0.0 0.01 0.0
0.0 0.0 0.01

0.01 0.0 0.0
0.0 0.01 0.0
0.0 0.0 0.01

0.01 0.0 0.0
0.0 0.01 0.0
0.0 0.0 0.01

0.01 0.0 0.0
0.0 0.01 0.0
0.0 0.0 0.01

0.01 0.0 0.0
0.0 0.01 0.0
0.0 0.0 0.01

0.01 0.0 0.0
0.0 0.01 0.0
0.0 0.0 0.01

0.01 0.0 0.0
0.0 0.01 0.0
0.0 0.0 0.01

0.01 0.0 0.0
0.0 0.01 0.0
0.0 0.0 0.01

0.01 0.0 0.0
0.0 0.01 0.0
0.0 0.0 0.01

0.01 0.0 0.0
0.0 0.01 0.0
0.0 0.0 0.01

0.01 0.0 0.0
0.0 0.01 0.0
0.0 0.0 0.01

0.01 0.0 0.0
0.0 0.01 0.0
0.0 0.0 0.01

0.01 0.0 0.0
0.0 0.01 0.0
0.0 0.0 0.01

0.01 0.0 0.0
0.0 0.01 0.0
0.0 0.0 0.01

0.01 0.0 0.0
0.0 0.01 0.0
0.0 0.0 0.01

0.01 0.0 0.0
0.0 0.01 0.0
0.0 0.0 0.01

0.01 0.0 0.0
0.0 0.01 0.0
0.0 0.0 0.01

0.01 0.0 0.0
0.0 0.01 0.0
0.0 0.0 0.01

0.01 0.0 0.0
0.0 0.01 0.0
0.0 0.0 0.01

0.01 0.0 0.0
0.0 0.01 0.0
0.0 0.0 0.01

0.01 0.0 0.0
0.0 0.01 0.0
0.0 0.0 0.01

0.01 0.0 0.0
0.0 0.01 0.0
0.0 0.0 0.01

0.009999985000033752 0.0 2.1452353515385345e-16
0.0 0.01 0.0
2.1452353515385345e-16 0.0 0.009999999000000153

0.009999980000060001 0.0 1.1188536433473425e-17
0.0 0.01 0.0
1.1188536433473425e-17 0.0 0.01

0.00999997700007935 0.0 -4.0170942909890004e-17
0.0 0.01 0.0
-4.0170942909890004e-17 0.0 0.01

0.009999973500105336 0.0 -4.19391292925387e-17
0.0 0.01 0.0
-4.19391292925387e-17 0.0 0.01

0.009999972500113436 0.0 6.374137184992485e-17
0.0 0.01 0.0
6.374137184992485e-17 0.0 0.010000000500000036

0.0099999860000294 0.0 4.518010067909799e-16
0.0 0.01 0.0
4.518010067909799e-16 0.0 0.009999997500000938

0.009999979500063037 0.0 8.714224743088007e-17
0.0 0.01 0.0
8.714224743088007e-17 0.0 0.009999998500000338

0.009999974500097536 0.0 -1.3392300269381708e-16
0.0 0.01 0.0
-1.3392300269381708e-16 0.0 0.009999999500000037

0.009999970500130538 0.0 -1.8097759916815532e-16
0.0 0.01 0.0
-1.8097759916815532e-16 0.0 0.01

0.009999967500158436 0.0 -2.31539128620044e-17
0.0 0.01 0.0
-2.31539128620044e-17 0.0 0.010000000500000036

0.009999965000183748 0.0 -1.3228208036193044e-16
0.0 0.01 0.0
-1.3228208036193044e-16 0.0 0.01000000100000015

0.009999980500057041 0.0 4.093962975497284e-16
0.0 0.01 0.0
4.093962975497284e-16 0.0 0.00999999650000184

0.009999974000101402 0.0 3.383255036372958e-16
0.0 0.01 0.0
3.383255036372958e-16 0.0 0.009999997500000938

0.009999968000153599 0.0 -2.069473361212944e-16
0.0 0.01 0.0
-2.069473361212944e-16 0.0 0.009999999500000037

0.009999963000205348 0.0 -1.94331191461319e-16
0.0 0.01 0.0
-1.94331191461319e-16 0.0 0.01

0.009999958500258336 0.0 -1.8472661279136692e-16
0.0 0.01 0.0
-1.8472661279136692e-16 0.0 0.01000000100000015

0.009999956000290399 0.0 -1.1138429908414419e-16
0.0 0.01 0.0
-1.1138429908414419e-16 0.0 0.010000001450000314

0.00999997550009004 0.0 1.9104060829937562e-13
0.0 0.01 0.0
1.9104060828614073e-13 0.0 0.009999996000002403

0.009999967500158437 0.0 5.089210281869266e-14
0.0 0.01 0.0
5.0892102815383935e-14 0.0 0.009999997500000938

0.009999960000240001 0.0 4.975379501349277e-16
0.0 0.01 0.0
4.975379501349277e-16 0.0 0.009999999000000153

0.009999953000331348 0.0 -9.953707326255572e-18
0.0 0.01 0.0
-9.953707326255572e-18 0.0 0.01

0.009999948000405596 0.0 -5.596656063244776e-17
0.0 0.01 0.0
-5.596656063244776e-17 0.0 0.010000001450000314

0.009999945000453746 0.0 1.370653045828856e-16
0.0 0.01 0.0
1.370653045828856e-16 0.0 0.0100000024500009

0.009999968500148837 0.0 2.157741274711074e-11
0.0 0.01 0.0
2.157741274711074e-11 0.0 0.009999994500004536

0.009999958000264597 0.0 1.2208216178716979e-11
0.0 0.01 0.0
1.2208216179140495e-11 0.0 0.009999996500001836

0.009999948500397838 0.0 4.298346350422441e-12
0.0 0.01 0.0
4.298346350422441e-12 0.0 0.009999999000000152

0.009999941000522145 0.0 4.749671621762851e-13
0.0 0.01 0.0
4.749671621762851e-13 0.0 0.010000000500000038

0.009999936000614397 0.0 7.346777170863745e-16
0.0 0.01 0.0
7.346777170863745e-16 0.0 0.010000002450000902

0.009999932000693592 0.0 3.532439867349594e-16
0.0 0.01 0.0
3.532439867349594e-16 0.0 0.0100000024500009

0.009999958500258343 0.0 2.051197131323402e-10
0.0 0.01 0.0
2.0511971312556394e-10 0.0 0.009999993500006344

0.009999946000437401 0.0 1.313329675521331e-10
0.0 0.01 0.0
1.313329675521331e-10 0.0 0.009999995500003042

0.009999933500663331 0.0 6.161613151700661e-11
0.0 0.01 0.0
6.161613151700661e-11 0.0 0.00999999850000034

0.009999924500855024 0.0 1.7414102398089973e-11
0.0 0.01 0.0
1.7414102398089973e-11 0.0 0.01000000100000015

0.009999919500972024 0.0 2.0118112467473756e-12
0.0 0.01 0.0
2.0118112467473756e-12 0.0 0.0100000024500009

0.009999914001109384 0.0 7.702596065044012e-16
0.0 0.01 0.0
7.702596065044012e-16 0.0 0.010000003400001733

0.009999943000487474 0.0 9.3115465143144e-10
0.0 0.01 0.0
9.31154651404335e-10 0.0 0.009999991500010966

0.00999992650081039 0.0 6.448074073924122e-10
0.0 0.01 0.0
6.448074074059647e-10 0.0 0.009999995000003812

0.009999913501122335 0.0 3.2976789207043566e-10
0.0 0.01 0.0
3.2976789207043566e-10 0.0 0.009999998500000353

0.009999904501368019 0.0 1.1754773169884937e-10
0.0 0.01 0.0
1.1754773169884937e-10 0.0 0.01000000145000032

0.009999897001591325 0.0 2.4403273415571776e-11
0.0 0.01 0.0
2.4403273415571776e-11 0.0 0.010000003400001735

0.009999892501733406 0.0 1.8116634185761391e-12
0.0 0.01 0.0
1.8116634185761391e-12 0.0 0.010000004900003603

0.009999916501047125 0.0 2.9458100140526515e-09
0.0 0.01 0.0
2.9458100140526515e-09 0.0 0.00999998950001784

0.009999899001530786 0.0 2.095027474825718e-09
0.0 0.01 0.0
2.095027474825718e-09 0.0 0.00999999400000606

0.009999885501966685 0.0 1.110986752180204e-09
0.0 0.01 0.0
1.110986752180204e-09 0.0 0.009999999000000336

0.009999875502325018 0.0 4.308168728445888e-10
0.0 0.01 0.0
4.308168728445888e-10 0.0 0.010000002450000932

0.009999868502593785 0.0 1.1071969743827966e-10
0.0 0.01 0.0
1.1071969743997373e-10 0.0 0.010000004900003606

0.009999864002774339 0.0 1.4767746805330917e-11
0.0 0.01 0.0
1.4767746805330917e-11 0.0 0.010000006350006047

0.009999875502333085 0.0 7.347038069398758e-09
0.0 0.01 0.0
7.347038069398758e-09 0.0 0.009999988000029695

0.009999858003028564 0.0 5.187247065208383e-09
0.0 0.01 0.0
5.187247065208383e-09 0.0 0.009999993000011385

0.0099998450036048 0.0 2.7594730424025226e-09
0.0 0.01 0.0
2.7594730424296277e-09 0.0 0.010000000000001143

0.00999983750396101 0.0 1.1006345311060164e-09
0.0 0.01 0.0
1.1006345311060164e-09 0.0 0.010000004900003785

0.009999831004284044 0.0 3.100966051491482e-10
0.0 0.01 0.0
3.100966051525363e-10 0.0 0.010000008300010348

0.009999827504463309 0.0 5.2420657816369074e-11
0.0 0.01 0.0
5.2420657816369074e-11 0.0 0.010000008800011619

0.009999818504974367 0.0 1.4873006618713706e-08
0.0 0.01 0.0
1.4873006618713706e-08 0.0 0.00999998500006693

0.00999980200589621 0.0 1.0263510897830057e-08
0.0 0.01 0.0
1.0263510897721637e-08 0.0 0.009999993000023152

0.009999794006369508 0.0 5.371127700969699e-09
0.0 0.01 0.0
5.371127700969699e-09 0.0 0.010000001450004641

0.009999788506710286 0.0 2.14226641471766e-09
0.0 0.01 0.0
2.1422664147312124e-09 0.0 0.010000008800012302

0.009999784506965845 0.0 6.24700153026525e-10
0.0 0.01 0.0
6.247001530231369e-10 0.0 0.010000011700020591

0.009999783007063097 0.0 1.1714976996444836e-10
0.0 0.01 0.0
1.1714976996444836e-10 0.0 0.010000012700024194

0.009999745509802241 0.0 2.4099592701217615e-08
0.0 0.01 0.0
2.4099592701217615e-08 0.0 0.00999998000014712

0.009999732010812949 0.0 1.6295630029931375e-08
0.0 0.01 0.0
1.6295630030039795e-08 0.0 0.00999999350004617

0.00999972851106678 0.0 8.342813312964877e-09
0.0 0.01 0.0
8.342813313019087e-09 0.0 0.01000000685001748

0.00999972801109871 0.0 3.279625516487369e-09
0.0 0.01 0.0
3.2796255165009214e-09 0.0 0.010000015600038117

0.009999726511219966 0.0 9.592793736819868e-10
0.0 0.01 0.0
9.59279373688763e-10 0.0 0.010000020000060138

0.00999972701117885 0.0 1.862677936172115e-10
0.0 0.01 0.0
1.862677936172115e-10 0.0 0.010000019550057335

0.009999668016679755 0.0 3.131228400502471e-08
0.0 0.01 0.0
3.131228400491629e-08 0.0 0.009999984000185477

0.009999656017813814 0.0 2.0725002541823606e-08
0.0 0.01 0.0
2.0725002541715186e-08 0.0 0.009999999500064471

0.009999655517817162 0.0 1.0374983932571764e-08
0.0 0.01 0.0
1.0374983932571764e-08 0.0 0.010000016100055029

0.009999655017855106 0.0 3.983904930043381e-09
0.0 0.01 0.0
3.983904930043381e-09 0.0 0.010000026850110522

0.009999656017749579 0.0 1.1432920301465374e-09
0.0 0.01 0.0
1.1432920301465374e-09 0.0 0.01000003075014203

0.009999657017646345 0.0 2.188672937031199e-10
0.0 0.01 0.0
2.188672937031199e-10 0.0 0.010000027850116352

0.009999584026117019 0.0 3.270290481656186e-08
0.0 0.01 0.0
3.270290481667028e-08 0.0 0.01000001365018838

0.009999569027929424 0.0 2.1177714212817188e-08
0.0 0.01 0.0
2.1177714212762978e-08 0.0 0.01000001805011615

0.009999567028137306 0.0 1.0322468988870634e-08
0.0 0.01 0.0
1.032246898889774e-08 0.0 0.010000035150201316

0.009999567528058617 0.0 3.830244912837971e-09
0.0 0.01 0.0
3.830244912837971e-09 0.0 0.010000044900304603

0.00999957002773318 0.0 1.0542105916351476e-09
0.0 0.01 0.0
1.0542105916385358e-09 0.0 0.010000046400323113

0.009999572027475647 0.0 1.8915255322183281e-10
0.0 0.01 0.0
1.8915255322267985e-10 0.0 0.010000042000264607

0.009999486039734506 0.0 2.6895237290741614e-08
0.0 0.01 0.0
2.6895237290687404e-08 0.0 0.010000066400769864

0.009999467542574048 0.0 1.720181749028781e-08
0.0 0.01 0.0
1.720181749034202e-08 0.0 0.010000057150534312

0.009999462543341978 0.0 8.133504488514777e-09
0.0 0.01 0.0
8.133504488514777e-09 0.0 0.010000064950642703

0.009999462043413947 0.0 2.872649708080368e-09
0.0 0.01 0.0
2.872649708087144e-09 0.0 0.010000069800732054

0.009999463543171062 0.0 7.342600348605164e-10
0.0 0.01 0.0
7.342600348605164e-10 0.0 0.010000067400681505

0.009999468542370089 0.0 1.1473362512914398e-10
0.0 0.01 0.0
1.1473362512914398e-10 0.0 0.01000005910052393

0.009999357561959764 0.0 1.7408475325338124e-08
0.0 0.01 0.0
1.7408475325338124e-08 0.0 0.010000126002426914

0.009999339565449841 0.0 1.0955890189290112e-08
0.0 0.01 0.0
1.0955890189290112e-08 0.0 0.010000105951701848

0.009999333566629628 0.0 4.960149970945527e-09
0.0 0.01 0.0
4.960149970945527e-09 0.0 0.010000102551581194

0.00999933356662633 0.0 1.6218638348936075e-09
0.0 0.01 0.0
1.6218638348936075e-09 0.0 0.010000102051562551

0.009999337065928085 0.0 3.6322882290356723e-10
0.0 0.01 0.0
3.632288229027202e-10 0.0 0.010000094251332501

0.009999343564641765 0.0 4.293169483614522e-11
0.0 0.01 0.0
4.293169483614522e-11 0.0 0.01000008105098538

0.009999195097202042 0.0 8.692494770244012e-09
0.0 0.01 0.0
8.69249477023046e-09 0.0 0.010000181654960992

0.009999180100850377 0.0 5.268068810893836e-09
0.0 0.01 0.0
5.26806881088706e-09 0.0 0.010000157253713393

0.009999174102328045 0.0 2.2052712715290267e-09
0.0 0.01 0.0
2.2052712715290267e-09 0.0 0.010000146003198212

0.009999176101832472 0.0 6.316174206952871e-10
0.0 0.01 0.0
6.316174206952871e-10 0.0 0.010000138652883699

0.00999918160047763 0.0 1.0944630645225314e-10
0.0 0.01 0.0
1.0944630645225314e-10 0.0 0.010000123552289738

0.009999191598037629 0.0 6.822576031158985e-12
0.0 0.01 0.0
6.822576031158985e-12 0.0 0.010000105451667986

0.009998991152687861 0.0 3.0409195929837363e-09
0.0 0.01 0.0
3.0409195929837363e-09 0.0 0.010000236808412855

0.009998982655270031 0.0 1.6843682899456928e-09
0.0 0.01 0.0
1.6843682899456928e-09 0.0 0.010000209006552803

0.009998980655880606 0.0 6.103404191375972e-10
0.0 0.01 0.0
6.103404191384442e-10 0.0 0.010000193355607869

0.009998984654659865 0.0 1.3247945070515387e-10
0.0 0.01 0.0
1.3247945070515387e-10 0.0 0.01000018115492245

0.00999899315208183 0.0 1.2102965068947017e-11
0.0 0.01 0.0
1.2102965068947017e-11 0.0 0.01000016065387137

0.009999008647436473 0.0 -4.788683278325893e-15
0.0 0.01 0.0
-4.788683278325893e-15 0.0 0.010000135252743946

0.00999874723545222 0.0 5.235154975485292e-10
0.0 0.01 0.0
5.235154975481056e-10 0.0 0.010000295913134208

0.009998744736392583 0.0 2.445076603864827e-10
0.0 0.01 0.0
2.4450766038627094e-10 0.0 0.010000263660427167

0.009998746235828112 0.0 6.156105513127003e-11
0.0 0.01 0.0
6.156105513127003e-11 0.0 0.01000024465897841

0.009998754732642248 0.0 4.549255115620866e-12
0.0 0.01 0.0
4.549255115620866e-12 0.0 0.01000022705773305

0.009998769227257525 0.0 -1.3692011540419826e-13
0.0 0.01 0.0
-1.3692011540419826e-13 0.0 0.010000201656099614

0.009998789719752203 0.0 -2.9255523318549882e-15
0.0 0.01 0.0
-2.9255523318549882e-15 0.0 0.01000017140440682

0.009998457357035532 0.0 5.35604647968563e-12
0.0 0.01 0.0
5.35604647968563e-12 0.0 0.0100003647699576

0.00999845785680421 0.0 -1.80458402720312e-12
0.0 0.01 0.0
-1.80458402720312e-12 0.0 0.010000329116246914

0.009998465353343354 0.0 -2.011306005538949e-12
0.0 0.01 0.0
-2.0113060055406035e-12 0.0 0.010000305213972766

0.00999847684806946 0.0 -7.608334118789877e-13
0.0 0.01 0.0
-7.608334118798149e-13 0.0 0.010000283212030905

0.009998497838541166 0.0 -1.5940503194350671e-13
0.0 0.01 0.0
-1.5940503194350671e-13 0.0 0.010000249509337929

0.009998525826042413 0.0 8.003195927350198e-17
0.0 0.01 0.0
8.003195927350198e-17 0.0 0.010000209456580625

0.009998106537915604 0.0 -4.319993099451544e-12
0.0 0.01 0.0
-4.319993099451544e-12 0.0 0.010000451180532745

0.009998110535646275 0.0 -4.658208335435451e-12
0.0 0.01 0.0
-4.658208335435451e-12 0.0 0.010000408224995786

0.00999812052999394 0.0 -2.719358909662432e-12
0.0 0.01 0.0
-2.719358909662432e-12 0.0 0.010000376471258525

0.009998141518221593 0.0 -9.877721003979041e-13
0.0 0.01 0.0
-9.877721003979041e-13 0.0 0.010000346718031171

0.009998171501633237 0.0 -1.9116837408067413e-13
0.0 0.01 0.0
-1.9116837408057073e-13 0.0 0.01000030471392702

0.009998211479935052 0.0 6.272331750782802e-16
0.0 0.01 0.0
6.272331750782802e-16 0.0 0.010000254909746516

0.009997675310878262 0.0 -5.789250267053613e-12
0.0 0.01 0.0
-5.789250267050304e-12 0.0 0.01000056254746539

0.009997685303920796 0.0 -6.35224055610622e-12
0.0 0.01 0.0
-6.352240556109529e-12 0.0 0.010000504438166111

0.00999770429078417 0.0 -3.647938183942344e-12
0.0 0.01 0.0
-3.647938183943998e-12 0.0 0.010000459981735533

0.009997737268225032 0.0 -1.2840697411068969e-12
0.0 0.01 0.0
-1.284069741107724e-12 0.0 0.010000420426512287

0.009997781738321101 0.0 -2.3377793772891805e-13
0.0 0.01 0.0
-2.3377793772891805e-13 0.0 0.010000366720171567

0.009997838201208215 0.0 4.909841542776716e-16
0.0 0.01 0.0
4.909841542776716e-16 0.0 0.010000302263703948

0.009997145722500248 0.0 -7.331012131627032e-12
0.0 0.01 0.0
-7.331012131627032e-12 0.0 0.010000696872837996

0.009997167204164643 0.0 -8.473254468567265e-12
0.0 0.01 0.0
-8.473254468573882e-12 0.0 0.010000615306785705

0.009997203173773244 0.0 -4.8709388572849885e-12
0.0 0.01 0.0
-4.870938857283334e-12 0.0 0.01000055324590877

0.009997254131383379 0.0 -1.6919021919359864e-12
0.0 0.01 0.0
-1.6919021919351592e-12 0.0 0.010000501487720968

0.009997322575674152 0.0 -3.0507143235932014e-13
0.0 0.01 0.0
-3.0507143235932014e-13 0.0 0.010000434128268468

0.009997398015900627 0.0 -4.163549818040747e-15
0.0 0.01 0.0
-4.163549818040747e-15 0.0 0.010000356969113132

0.0099965033348555 0.0 -8.533532379725808e-12
0.0 0.01 0.0
-8.5335323797225e-12 0.0 0.010000860461046245

0.009996546290041156 0.0 -1.1115024989420283e-11
0.0 0.01 0.0
-1.1115024989420283e-11 0.0 0.010000741282416799

0.009996606727926063 0.0 -6.553635345068219e-12
0.0 0.01 0.0
-6.553635345068219e-12 0.0 0.010000651913743192

0.009996685148964402 0.0 -2.3254044673254998e-12
0.0 0.01 0.0
-2.3254044673254998e-12 0.0 0.010000587451760882

0.009996781554425816 0.0 -4.544649678477688e-13
0.0 0.01 0.0
-4.544649678477688e-13 0.0 0.010000507338606262

0.009996886954261675 0.0 -2.6450168715588044e-14
0.0 0.01 0.0
-2.6450168715588044e-14 0.0 0.010000414575779538

0.009995743219570441 0.0 -8.909371048848482e-12
0.0 0.01 0.0
-8.909371048851791e-12 0.0 0.01000104606411463

0.009995816127184285 0.0 -1.459025366192167e-11
0.0 0.01 0.0
-1.459025366192167e-11 0.0 0.01000087021357757

0.009995910010571075 0.0 -9.134437548173258e-12
0.0 0.01 0.0
-9.134437548179876e-12 0.0 0.010000751084610739

0.009996027368524655 0.0 -3.466570844884358e-12
0.0 0.01 0.0
-3.4665708448860123e-12 0.0 0.010000677318807905

0.009996161211576418 0.0 -8.067640975878101e-13
0.0 0.01 0.0
-8.067640975876033e-13 0.0 0.010000585501417771

0.009996304050017148 0.0 -1.0107943788241744e-13
0.0 0.01 0.0
-1.0107943788241744e-13 0.0 0.010000480484627604

0.00999486845262107 0.0 -8.13495647498287e-12
0.0 0.01 0.0
-8.134956474986178e-12 0.0 0.010001248283692931

0.009994984276148108 0.0 -1.9811183646436348e-11
0.0 0.01 0.0
-1.9811183646436348e-11 0.0 0.010000989896965002

0.00999512556633329 0.0 -1.3574835814269684e-11
0.0 0.01 0.0
-1.3574835814266375e-11 0.0 0.010000841406182742

0.009995290828534254 0.0 -5.694479831383274e-12
0.0 0.01 0.0
-5.694479831383274e-12 0.0 0.010000772039397525

0.009995472576491618 0.0 -1.6429827592946585e-12
0.0 0.01 0.0
-1.6429827592946585e-12 0.0 0.010000674868310942

0.009995657829804572 0.0 -3.7021402896378265e-13
0.0 0.01 0.0
-3.7021402896388604e-13 0.0 0.01000055864680945

0.009993921546634399 0.0 -6.742000720363612e-12
0.0 0.01 0.0
-6.742000720365266e-12 0.0 0.010001445113192472

0.009994090742029463 0.0 -2.923446974010871e-11
0.0 0.01 0.0
-2.923446974010871e-11 0.0 0.010001082675802655

0.009994288896234143 0.0 -2.2180841775542398e-11
0.0 0.01 0.0
-2.2180841775549015e-11 0.0 0.010000924928308036

0.009994510523463609 0.0 -1.0304785649692852e-11
0.0 0.01 0.0
-1.0304785649689543e-11 0.0 0.010000879015886761

0.009994745644141502 0.0 -3.5220994520452168e-12
0.0 0.01 0.0
-3.522099452046044e-12 0.0 0.010000785242481177

0.009994978285177272 0.0 -1.1206372782114629e-12
0.0 0.01 0.0
-1.1206372782114629e-12 0.0 0.010000662165763723

0.009992982393937191 0.0 -7.634311192966365e-12
0.0 0.01 0.0
-7.634311192963056e-12 0.0 0.010001615141217923

0.00999321141898715 0.0 -4.881775130428841e-11
0.0 0.01 0.0
-4.881775130428841e-11 0.0 0.010001139344686372

0.009993472397007439 0.0 -4.0408592659897274e-11
0.0 0.01 0.0
-4.0408592659897274e-11 0.0 0.0100010157547427

0.009993751860768844 0.0 -2.0321291283406647e-11
0.0 0.01 0.0
-2.0321291283403338e-11 0.0 0.01000102700819021

0.009994040830989852 0.0 -7.601641855032471e-12
0.0 0.01 0.0
-7.601641855032471e-12 0.0 0.010000944933918142

0.009994318844998172 0.0 -2.7274525828748373e-12
0.0 0.01 0.0
-2.7274525828748373e-12 0.0 0.010000815999867501

0.009992190657409248 0.0 -1.7240021592212996e-11
0.0 0.01 0.0
-1.7240021592212996e-11 0.0 0.010001732400077542

0.009992474004624526 0.0 -9.114984308036906e-11
0.0 0.01 0.0
-9.11498430803823e-11 0.0 0.01000116525364077

0.009992788308781685 0.0 -8.064888285549872e-11
0.0 0.01 0.0
-8.064888285551195e-11 0.0 0.010001152549224844

0.0099931196074901 0.0 -4.2670419058674696e-11
0.0 0.01 0.0
-4.267041905868131e-11 0.0 0.010001262439022607

0.009993451937188829 0.0 -1.6203453340381412e-11
0.0 0.01 0.0
-1.6203453340381412e-11 0.0 0.010001200916295359

0.009993766333637858 0.0 -5.443679066644333e-12
0.0 0.01 0.0
-5.443679066644333e-12 0.0 0.010001059718426675

0.009991735257198342 0.0 -4.505914744984145e-11
0.0 0.01 0.0
-4.5059147449848065e-11 0.0 0.010001803687876164

0.009992052484500163 0.0 -1.7891301135333172e-10
0.0 0.01 0.0
-1.7891301135330525e-10 0.0 0.010001214571241672

0.009992398176951252 0.0 -1.668826456491166e-10
0.0 0.01 0.0
-1.6688264564909012e-10 0.0 0.010001401644636095

0.009992753883546772 0.0 -9.123987869120472e-11
0.0 0.01 0.0
-9.123987869121795e-11 0.0 0.010001650808685442

0.009993106135363765 0.0 -3.378200939065939e-11
0.0 0.01 0.0
-3.378200939065277e-11 0.0 0.010001613690515537

0.009993435968637228 0.0 -8.955658249007577e-12
0.0 0.01 0.0
-8.955658249005923e-12 0.0 0.01000144856469017

0.009991860947420815 0.0 -1.0154436427323906e-10
0.0 0.01 0.0
-1.0154436427322583e-10 0.0 0.01000190629495556

0.009992169706635608 0.0 -3.463191100259942e-10
0.0 0.01 0.0
-3.463191100259942e-10 0.0 0.010001408997735278

0.009992503438199645 0.0 -3.368797648432454e-10
0.0 0.01 0.0
-3.368797648432454e-10 0.0 0.010001853565228291

0.009992841194618313 0.0 -1.8834433105753868e-10
0.0 0.01 0.0
-1.883443310575122e-10 0.0 0.01000226006595391

0.009993171500634022 0.0 -6.770019859696741e-11
0.0 0.01 0.0
-6.770019859696741e-11 0.0 0.010002253211315464

0.009993483874521678 0.0 -1.2637599677460907e-11
0.0 0.01 0.0
-1.2637599677460907e-11 0.0 0.010002044076566581

0.009992826725768253 0.0 -1.9167003194452414e-10
0.0 0.01 0.0
-1.9167003194452414e-10 0.0 0.010002244905714053

0.009993073203728829 0.0 -6.239441333239138e-10
0.0 0.01 0.0
-6.239441333240197e-10 0.0 0.010001964928990258

0.009993334170920293 0.0 -6.272810622629665e-10
0.0 0.01 0.0
-6.272810622627547e-10 0.0 0.010002607969871444

0.00999359565759803 0.0 -3.579049507657419e-10
0.0 0.01 0.0
-3.579049507657419e-10 0.0 0.010003148936746175

0.009993852673093892 0.0 -1.267930293442937e-10
0.0 0.01 0.0
-1.2679302934426724e-10 0.0 0.010003157745073602

0.009994104218138362 0.0 -1.636684013299286e-11
0.0 0.01 0.0
-1.636684013299286e-11 0.0 0.010002891403548894

0.009994837500463767 0.0 -2.9886800627994777e-10
0.0 0.01 0.0
-2.9886800627994777e-10 0.0 0.010003233517669597

0.009994965804022768 0.0 -9.84164857724849e-10
0.0 0.01 0.0
-9.841648577246373e-10 0.0 0.010003255989530235

0.00999509710811108 0.0 -1.0207079914595976e-09
0.0 0.01 0.0
-1.0207079914598094e-09 0.0 0.010003849371509083

0.009995226919520778 0.0 -5.973207177168091e-10
0.0 0.01 0.0
-5.97320717716915e-10 0.0 0.010004332413846025

0.009995357734596257 0.0 -2.1492363448653723e-10
0.0 0.01 0.0
-2.149236344864843e-10 0.0 0.010004339723346087

0.009995500039270461 0.0 -2.270508593534207e-11
0.0 0.01 0.0
-2.2705085935345378e-11 0.0 0.010004001901000557

0.00999795063015972 0.0 -3.6289707721680553e-10
0.0 0.01 0.0
-3.6289707721669965e-10 0.0 0.010005300110700279

0.00999791665123246 0.0 -1.2853335704963221e-09
0.0 0.01 0.0
-1.2853335704963221e-09 0.0 0.01000569335846153

0.00999787817551227 0.0 -1.3932238913196211e-09
0.0 0.01 0.0
-1.3932238913198329e-09 0.0 0.010005926163753428

0.009997835702830256 0.0 -8.454738455219998e-10
0.0 0.01 0.0
-8.454738455219998e-10 0.0 0.010005918800686436

0.009997804723097768 0.0 -3.1729180652043233e-10
0.0 0.01 0.0
-3.172918065203794e-10 0.0 0.010005772594582837

0.009997799226723697 0.0 -3.609923248586385e-11
0.0 0.01 0.0
-3.609923248586385e-11 0.0 0.010005336769127796

0.01000196492899021 0.0 -2.9501548898316554e-10
0.0 0.01 0.0
-2.950154889832714e-10 0.0 0.010008015978094567

0.010001755812323567 0.0 -1.3251227707256146e-09
0.0 0.01 0.0
-1.3251227707256146e-09 0.0 0.010008981836532743

0.010001534553156112 0.0 -1.552349099332356e-09
0.0 0.01 0.0
-1.5523490993319326e-09 0.0 0.010008809978698251

0.010001314209026559 0.0 -9.86044093673222e-10
0.0 0.01 0.0
-9.86044093673222e-10 0.0 0.010007913684057136

0.010001112485616128 0.0 -3.926114411257731e-10
0.0 0.01 0.0
-3.926114411257731e-10 0.0 0.010007392940261036

0.010000951285724466 0.0 -5.629476219016181e-11
0.0 0.01 0.0
-5.629476219017504e-11 0.0 0.01000679987947116

0.010006365422636545 0.0 -1.5549029316760016e-10
0.0 0.01 0.0
-1.5549029316754722e-10 0.0 0.010010152640513048

0.01000601321947608 0.0 -1.0305617108493989e-09
0.0 0.01 0.0
-1.0305617108493989e-09 0.0 0.010011785953610276

0.01000563806458421 0.0 -1.362765801806925e-09
0.0 0.01 0.0
-1.3627658018073484e-09 0.0 0.010011510091878704

0.010005270263425833 0.0 -9.160339683952922e-10
0.0 0.01 0.0
-9.160339683952922e-10 0.0 0.010009914625501963

0.0100049274896318 0.0 -3.9066701660179586e-10
0.0 0.01 0.0
-3.9066701660179586e-10 0.0 0.01000899893255967

0.010004631165168218 0.0 -7.168004843128539e-11
0.0 0.01 0.0
-7.168004843125892e-11 0.0 0.010008237216593892

0.010010368152525644 0.0 -2.3784702401272834e-10
0.0 0.01 0.0
-2.3784702401315186e-10 0.0 0.010011148014062088

0.010009955296480827 0.0 -6.975599945966604e-10
0.0 0.01 0.0
-6.975599945962369e-10 0.0 0.010013320518238736

0.01000950473384218 0.0 -9.480067742716903e-10
0.0 0.01 0.0
-9.480067742708433e-10 0.0 0.010013386682592168

0.010009059145364757 0.0 -6.683971942973679e-10
0.0 0.01 0.0
-6.683971942973679e-10 0.0 0.010011514958648509

0.010008636675955074 0.0 -3.033490304876753e-10
0.0 0.01 0.0
-3.0334903048746355e-10 0.0 0.01001037502386138

0.010008248494436468 0.0 -6.850090267823236e-11
0.0 0.01 0.0
-6.850090267823236e-11 0.0 0.010009494454603035

0.010013195522394816 0.0 -2.7302848577679747e-10
0.0 0.01 0.0
-2.7302848577679747e-10 0.0 0.010011197981173253

0.010012816095812706 0.0 -5.752260836658542e-10
0.0 0.01 0.0
-5.752260836658542e-10 0.0 0.010013596027615325

0.01001239164493308 0.0 -5.891357754465065e-10
0.0 0.01 0.0
-5.89135775446083e-10 0.0 0.010014207470578584

0.01001195204360561 0.0 -3.9822826922598903e-10
0.0 0.01 0.0
-3.98228269225142e-10 0.0 0.010012512194134585

0.010011516463836486 0.0 -1.8483290222015873e-10
0.0 0.01 0.0
-1.848329022218528e-10 0.0 0.010011366048734316

0.010011089720044669 0.0 -4.8287085251785286e-11
0.0 0.01 0.0
-4.8287085251891166e-11 0.0 0.010010456828952522

0.010014455132328315 0.0 -7.190601871631006e-11
0.0 0.01 0.0
-7.190601871631006e-11 0.0 0.010010901600858465

0.010014166747747398 0.0 -3.0924082916974045e-10
0.0 0.01 0.0
-3.092408291688934e-10 0.0 0.010013339142518105

0.010013834807415717 0.0 -3.024440287955146e-10
0.0 0.01 0.0
-3.0244402879636164e-10 0.0 0.010014284950777054

0.010013463641718272 0.0 -1.8942232942124922e-10
0.0 0.01 0.0
-1.8942232942124922e-10 0.0 0.010012934702769026

0.010013065110034232 0.0 -8.496782590244298e-11
0.0 0.01 0.0
-8.49678259023371e-11 0.0 0.010011957914611666

0.010012643086790974 0.0 -2.4787391861737503e-11
0.0 0.01 0.0
-2.4787391861737503e-11 0.0 0.010011094586201658

0.01001431683718795 0.0 8.730824909017995e-11
0.0 0.01 0.0
8.730824909023289e-11 0.0 0.010010678229368214

0.010014130494300921 0.0 -6.572569115546292e-11
0.0 0.01 0.0
-6.572569115535705e-11 0.0 0.010013074446546595

0.010013900530085154 0.0 -8.674395858007946e-11
0.0 0.01 0.0
-8.674395858050297e-11 0.0 0.010014203553934464

0.010013621029409387 0.0 -5.4661931484008765e-11
0.0 0.01 0.0
-5.466193148379701e-11 0.0 0.010013113148174727

0.010013282266001431 0.0 -2.4435156654525417e-11
0.0 0.01 0.0
-2.4435156654525417e-11 0.0 0.010012279882348317

0.010012896003209974 0.0 -8.581153754835782e-12
0.0 0.01 0.0
-8.581153754849017e-12 0.0 0.010011460120093803

0.010013306763446715 0.0 8.767955255600806e-11
0.0 0.01 0.0
8.767955255600806e-11 0.0 0.010010616482555384

0.010013205813040464 0.0 2.4992591654657037e-11
0.0 0.01 0.0
2.4992591654657037e-11 0.0 0.010012952371199393

0.010013064106109727 0.0 1.6919022014766876e-12
0.0 0.01 0.0
1.6919022014733789e-12 0.0 0.01001412949005593

0.010012860215301145 0.0 -2.1545497919122123e-12
0.0 0.01 0.0
-2.1545497919122123e-12 0.0 0.010013169017853532

0.010012586222134362 0.0 -1.7013519799648678e-12
0.0 0.01 0.0
-1.701351979938398e-12 0.0 0.010012411719435442

0.010012244151229331 0.0 -1.4713285658329368e-12
0.0 0.01 0.0
-1.4713285658329368e-12 0.0 0.010011616409841509

0.010012000567530032 0.0 2.497731841387053e-11
0.0 0.01 0.0
2.497731841387053e-11 0.0 0.010010700249832126

0.010011956961199718 0.0 1.556698647249594e-11
0.0 0.01 0.0
1.556698647246947e-11 0.0 0.010012972449074713

0.010011872158805625 0.0 6.638966615872646e-12
0.0 0.01 0.0
6.638966615872646e-12 0.0 0.010014100065811831

0.010011721727671024 0.0 1.80048934459176e-12
0.0 0.01 0.0
1.8004893445901057e-12 0.0 0.010013154811907636

0.010011496344545793 0.0 3.118186180419786e-13
0.0 0.01 0.0
3.118186180428058e-13 0.0 0.010012410765893843

0.010011196977810237 0.0 3.658593835835945e-14
0.0 0.01 0.0
3.658593835835945e-14 0.0 0.010011621276766575

0.010010783015973213 0.0 -8.928337751833873e-12
0.0 0.01 0.0
-8.928337751622114e-12 0.0 0.010010866335962055

0.010010762951265652 0.0 -1.920007557441626e-11
0.0 0.01 0.0
-1.9200075574403026e-11 0.0 0.010013092567486517

0.010010701253045791 0.0 -2.135653121735309e-11
0.0 0.01 0.0
-2.1356531217339856e-11 0.0 0.01001410840098093

0.010010577308281157 0.0 -1.434122885196603e-11
0.0 0.01 0.0
-1.4341228851959412e-11 0.0 0.010013081273260336

0.010010380892093593 0.0 -6.102509012610657e-12
0.0 0.01 0.0
-6.102509012610657e-12 0.0 0.010012303920774233

0.010010110512725802 0.0 -1.024080706220379e-12
0.0 0.01 0.0
-1.0240807062212062e-12 0.0 0.010011507131681582

0.010009752548300619 0.0 -1.9907895166656232e-11
0.0 0.01 0.0
-1.9907895166629762e-11 0.0 0.010010858008885858

0.010009728528246662 0.0 -6.52166494377468e-11
0.0 0.01 0.0
-6.52166494377468e-11 0.0 0.010013040112403908

0.010009665344796784 0.0 -6.892949915930112e-11
0.0 0.01 0.0
-6.892949915930112e-11 0.0 0.010013968162021113

0.010009543895525694 0.0 -4.334949758613447e-11
0.0 0.01 0.0
-4.334949758613447e-11 0.0 0.010012887671067897

0.010009355412203344 0.0 -1.8068619278045628e-11
0.0 0.01 0.0
-1.8068619278032393e-11 0.0 0.010012082412479958

0.010009100808649404 0.0 -3.795006098410972e-12
0.0 0.01 0.0
-3.795006098407663e-12 0.0 0.010011281763048621

0.010008806519573313 0.0 -4.5499332362581283e-11
0.0 0.01 0.0
-4.5499332362581283e-11 0.0 0.010010638051174126

0.010008760999833397 0.0 -1.3552735998950563e-10
0.0 0.01 0.0
-1.3552735998950563e-10 0.0 0.010012767560029747

0.010008676328753404 0.0 -1.410819583882962e-10
0.0 0.01 0.0
-1.410819583882962e-10 0.0 0.01001362494537001

0.010008537270316161 0.0 -8.750213111589656e-11
0.0 0.01 0.0
-8.750213111592303e-11 0.0 0.010012547978311819

0.010008338518048875 0.0 -3.642535266119576e-11
0.0 0.01 0.0
-3.6425352661182527e-11 0.0 0.010011740844794005

0.010008081085046448 0.0 -8.266156895037229e-12
0.0 0.01 0.0
-8.26615689503392e-12 0.0 0.010010947149811057

0.010007792799703517 0.0 -9.524736198363069e-11
0.0 0.01 0.0
-9.524736198357775e-11 0.0 0.010010242264134585

0.010007714467778596 0.0 -2.298182400888131e-10
0.0 0.01 0.0
-2.298182400888131e-10 0.0 0.01001229167570892

0.01000759018289421 0.0 -2.349015467700774e-10
0.0 0.01 0.0
-2.349015467700245e-10 0.0 0.010013084736818978

0.010007418396734009 0.0 -1.4388932238849423e-10
0.0 0.01 0.0
-1.4388932238838835e-10 0.0 0.010012057924019643

0.010007189896765424 0.0 -5.949572949615049e-11
0.0 0.01 0.0
-5.949572949612402e-11 0.0 0.010011277348142814

0.010006911458641816 0.0 -1.3489000744821769e-11
0.0 0.01 0.0
-1.3489000744821769e-11 0.0 0.010010497957959528

0.010006637452522888 0.0 -1.5283388874044375e-10
0.0 0.01 0.0
-1.5283388874044375e-10 0.0 0.010009721206928484

0.010006511704827246 0.0 -3.2945568983457613e-10
0.0 0.01 0.0
-3.2945568983457613e-10 0.0 0.01001164531044908

0.010006339523341831 0.0 -3.330489652026684e-10
0.0 0.01 0.0
-3.3304896520277427e-10 0.0 0.010012367656061021

0.010006116457084128 0.0 -2.0018684363242913e-10
0.0 0.01 0.0
-2.0018684363248207e-10 0.0 0.010011425300838829

0.010005841063721007 0.0 -8.097895515335335e-11
0.0 0.01 0.0
-8.097895515332688e-11 0.0 0.010010693377826655

0.010005529482898207 0.0 -1.731267796548162e-11
0.0 0.01 0.0
-1.731267796548824e-11 0.0 0.01000994501585357

0.0100054028254263 0.0 -1.9853310875954727e-10
0.0 0.01 0.0
-1.9853310875965315e-10 0.0 0.010009099805916835

0.010005221386586566 0.0 -4.148043460642552e-10
0.0 0.01 0.0
-4.148043460643611e-10 0.0 0.010010863376336233

0.010004985175319687 0.0 -4.0989615342110074e-10
0.0 0.01 0.0
-4.0989615342110074e-10 0.0 0.01001151350363401

0.010004692250517252 0.0 -2.3922244134105544e-10
0.0 0.01 0.0
-2.392224413410025e-10 0.0 0.010010678680811357

0.010004358798212919 0.0 -9.328014124420921e-11
0.0 0.01 0.0
-9.328014124420921e-11 0.0 0.010010014022036466

0.010004005805686946 0.0 -1.8019277797838832e-11
0.0 0.01 0.0
-1.8019277797838832e-11 0.0 0.010009305923933867

0.010004242948865394 0.0 -2.2183275569644453e-10
0.0 0.01 0.0
-2.2183275569665629e-10 0.0 0.010008414408437746

0.010003991638705618 0.0 -4.973758085213683e-10
0.0 0.01 0.0
-4.973758085213683e-10 0.0 0.010010008154449444

0.010003677327416475 0.0 -4.505181735814101e-10
0.0 0.01 0.0
-4.50518173581516e-10 0.0 0.01001059150325956

0.010003307790498165 0.0 -2.475946535941533e-10
0.0 0.01 0.0
-2.475946535941533e-10 0.0 0.010009861718866746

0.01000290701712113 0.0 -9.33403326258303e-11
0.0 0.01 0.0
-9.334033262585676e-11 0.0 0.010009266263652018

0.010002516549634667 0.0 -1.613093860583141e-11
0.0 0.01 0.0
-1.613093860583141e-11 0.0 0.010008605345063391

0.010003309241937841 0.0 -2.0923154518104654e-10
0.0 0.01 0.0
-2.0923154518120536e-10 0.0 0.010007699783879664

0.010002978380084383 0.0 -1.653802340067045e-09
0.0 0.01 0.0
-1.653802340067045e-09 0.0 0.010009125776788167

0.010002578146683767 0.0 -1.509838107817778e-09
0.0 0.01 0.0
-1.5098381078173544e-09 0.0 0.010009652607960867

0.010002127628828145 0.0 -6.305493868168713e-10
0.0 0.01 0.0
-6.305493868168713e-10 0.0 0.010009021493433459

0.01000166641644904 0.0 -1.200663453356816e-10
0.0 0.01 0.0
-1.200663453356816e-10 0.0 0.010008487343034014

0.010001242931693487 0.0 -1.2833240203106553e-11
0.0 0.01 0.0
-1.2833240203106553e-11 0.0 0.010007874541504437

0.010002669018168566 0.0 -1.1964680248437773e-10
0.0 0.01 0.0
-1.196468024843248e-10 0.0 0.010006940318522952

0.010002255162639646 0.0 -5.885487550029946e-09
0.0 0.01 0.0
-5.885487550029946e-09 0.0 0.010008234259304452

0.010001772421115489 0.0 -5.9671810600494326e-09
0.0 0.01 0.0
-5.9671810600494326e-09 0.0 0.010008736034430121

0.010001251234800449 0.0 -2.9936386944253676e-09
0.0 0.01 0.0
-2.9936386944253676e-09 0.0 0.010008194611756243

0.010000740782305726 0.0 -7.980944907583183e-10
0.0 0.01 0.0
-7.9809449075853e-10 0.0 0.010007713014420615

0.01000028956257649 0.0 -7.580558850834145e-11
0.0 0.01 0.0
-7.580558850834145e-11 0.0 0.01000715221581789

0.010002287884923309 0.0 9.824862647891345e-10
0.0 0.01 0.0
9.824862647891345e-10 0.0 0.01000611104717393

0.010001796884227143 0.0 -1.2714206282825118e-08
0.0 0.01 0.0
-1.271420628282173e-08 0.0 0.01000733180545462

0.010001243381889952 0.0 -1.3821045348480981e-08
0.0 0.01 0.0
-1.3821045348480981e-08 0.0 0.010007865219558838

0.010000670967531733 0.0 -7.380752263255066e-09
0.0 0.01 0.0
-7.38075226325676e-09 0.0 0.01000741644239977

0.010000130852568977 0.0 -2.1026729635646733e-09
0.0 0.01 0.0
-2.1026729635646733e-09 0.0 0.010006985813426622

0.009999667016632434 0.0 -2.2311468532451552e-10
0.0 0.01 0.0
-2.2311468532456846e-10 0.0 0.010006469673088885

0.010002080248936554 0.0 2.835770985133357e-09
0.0 0.01 0.0
2.835770985135051e-09 0.0 0.010005233104944968

0.010001507190712095 0.0 -1.5712374017182813e-08
0.0 0.01 0.0
-1.5712374017182813e-08 0.0 0.010006453992767993

0.01000089467010118 0.0 -1.8325186070608653e-08
0.0 0.01 0.0
-1.8325186070608653e-08 0.0 0.010007084170767431

0.010000297363274938 0.0 -8.844268826779426e-09
0.0 0.01 0.0
-8.844268826779426e-09 0.0 0.010006729937729861

0.009999760508603848 0.0 -1.009688430595618e-09
0.0 0.01 0.0
-1.009688430595618e-09 0.0 0.010006344432670585

0.009999308571717686 0.0 8.655738273066241e-10
0.0 0.01 0.0
8.655738273068358e-10 0.0 0.01000586109884815

0.01000203772268073 0.0 -4.361981090920047e-09
0.0 0.01 0.0
-4.361981090916659e-09 0.0 0.010004568578883795

0.010001297102327738 0.0 -1.1930645454328077e-09
0.0 0.01 0.0
-1.1930645454332312e-09 0.0 0.010005740789718968

0.010000610905980234 0.0 -5.086769345392011e-09
0.0 0.01 0.0
-5.086769345393705e-09 0.0 0.010006427591787584

0.010000018050050435 0.0 3.231279093640224e-09
0.0 0.01 0.0
3.231279093640224e-09 0.0 0.010006172710654815

0.009999529533216183 0.0 9.401977499568322e-09
0.0 0.01 0.0
9.401977499566628e-09 0.0 0.010005808256473646

0.009999131613134418 0.0 6.811402065912871e-09
0.0 0.01 0.0
6.811402065911177e-09 0.0 0.010005344631718824

0.010002237551182203 0.0 -5.2369227149403046e-08
0.0 0.01 0.0
-5.2369227149403046e-08 0.0 0.010004291311133801

0.01000114519692698 0.0 3.96530084456609e-08
0.0 0.01 0.0
3.965300844567445e-08 0.0 0.01000529079615398

0.010000334016993373 0.0 4.1572767219499006e-08
0.0 0.01 0.0
4.1572767219499006e-08 0.0 0.010005950607507221

0.00999975350935575 0.0 4.0164060902009324e-08
0.0 0.01 0.0
4.0164060902022876e-08 0.0 0.010005747150909334

0.00999935656231486 0.0 3.722323927605011e-08
0.0 0.01 0.0
3.722323927605011e-08 0.0 0.010005378836880177

0.00999905413429524 0.0 2.2957099567454424e-08
0.0 0.01 0.0
2.2957099567454424e-08 0.0 0.01000492748971086

0.010002647056084035 0.0 -1.9018825627163845e-07
0.0 0.01 0.0
-1.9018825627163845e-07 0.0 0.010004053718982008

0.010001073924030239 0.0 8.402707939815296e-08
0.0 0.01 0.0
8.402707939818006e-08 0.0 0.010004946068177624

0.010000081053168935 0.0 1.2069721428995613e-07
0.0 0.01 0.0
1.2069721428992902e-07 0.0 0.010005572506648023

0.00999949404009387 0.0 1.0623747666993607e-07
0.0 0.01 0.0
1.0623747666990897e-07 0.0 0.010005422859614302

0.00999920659557305 0.0 8.717777338253653e-08
0.0 0.01 0.0
8.717777338253653e-08 0.0 0.01000504386465943

0.009999034640251625 0.0 5.452054501248649e-08
0.0 0.01 0.0
5.452054501248649e-08 0.0 0.01000459937163349

0.010001079775554318 0.0 6.796200571491376e-08
0.0 0.01 0.0
6.796200571491376e-08 0.0 0.010004536786189722

0.009999928006782824 0.0 2.0015641168016213e-07
0.0 0.01 0.0
2.001564116800537e-07 0.0 0.010005173918648027

0.00999930557795265 0.0 1.9348502281797296e-07
0.0 0.01 0.0
1.9348502281797296e-07 0.0 0.010005148979678606

0.009999094126804893 0.0 1.570679245037278e-07
0.0 0.01 0.0
1.57067924503782e-07 0.0 0.010004773419352133

0.009999052136410313 0.0 1.0414734828145529e-07
0.0 0.01 0.0
1.0414734828145529e-07 0.0 0.010004340225624797

0.01000120921993264 0.0 -6.514717139263337e-08
0.0 0.01 0.0
-6.514717139263337e-08 0.0 0.010004105077001568

0.009999978507781412 0.0 2.2681799544067762e-07
0.0 0.01 0.0
2.2681799544067762e-07 0.0 0.010004744582231464

0.009999294086406634 0.0 2.787815977672338e-07
0.0 0.01 0.0
2.787815977672338e-07 0.0 0.010004873672232146

0.009999063640051051 0.0 2.3835785256106712e-07
0.0 0.01 0.0
2.383578525609587e-07 0.0 0.010004544103969502

0.009999104624627763 0.0 1.704934590573818e-07
0.0 0.01 0.0
1.704934590573818e-07 0.0 0.010004123153013364

0.010000292965664619 0.0 1.3644571211893263e-07
0.0 0.01 0.0
1.3644571211893263e-07 0.0 0.010004326058388115

0.00999953804724495 0.0 3.187513140937492e-07
0.0 0.01 0.0
3.187513140937492e-07 0.0 0.010004584215551868

0.00999919811158999 0.0 3.176105373499556e-07
0.0 0.01 0.0
3.176105373499556e-07 0.0 0.010004355408902025

0.009999208103239112 0.0 2.472108537051416e-07
0.0 0.01 0.0
2.472108537051416e-07 0.0 0.010003937883977172

0.010000836056936824 0.0 -1.1836095307966909e-07
0.0 0.01 0.0
-1.1836095307961488e-07 0.0 0.010003922208450665

0.01000008156045512 0.0 2.5116997826480237e-07
0.0 0.01 0.0
2.5116997826480237e-07 0.0 0.010004307991672666

0.009999591544714572 0.0 3.6236926887422104e-07
0.0 0.01 0.0
3.6236926887422104e-07 0.0 0.010004196509802655

0.00999943506347459 0.0 3.2252701734542845e-07
0.0 0.01 0.0
3.2252701734553687e-07 0.0 0.010003802483321755

0.01000080234655442 0.0 2.2417823542866754e-09
0.0 0.01 0.0
2.2417823542875224e-09 0.0 0.010004013164532154

0.010000280275372912 0.0 3.010933147789413e-07
0.0 0.01 0.0
3.010933147788329e-07 0.0 0.01000405618013895

0.00999991902108445 0.0 3.661544287666659e-07
0.0 0.01 0.0
3.661544287666659e-07 0.0 0.010003729155043481

0.010001114936702957 0.0 4.229374076083819e-08
0.0 0.01 0.0
4.22937407608924e-08 0.0 0.010003872348369518

0.010000721791888253 0.0 3.028489867005872e-07
0.0 0.01 0.0
3.028489867005872e-07 0.0 0.01000367243577038

0.010001653733623965 0.0 -3.9590212066575176e-07
0.0 0.01 0.0
-3.9590212066575176e-07 0.0 0.010003589355079138

0.010001579974621555 0.0 4.104300421311417e-08
0.0 0.01 0.0
4.1043004213141276e-08 0.0 0.010003581022893098

0.009999971500121838 0.0 1.0284955574544493e-16
0.0 0.01 0.0
1.0284955574544493e-16 0.0 0.01000000100000015

0.009999969500139537 0.0 2.934707863958581e-17
0.0 0.01 0.0
2.934707863958581e-17 0.0 0.01000000100000015

0.009999969500139537 0.0 2.257802889882672e-17
0.0 0.01 0.0
2.257802889882672e-17 0.0 0.010000000500000036

0.00999996900014415 0.0 -3.84478406017755e-18
0.0 0.01 0.0
-3.84478406017755e-18 0.0 0.010000000500000036

0.009999968500148837 0.0 -6.310475656001554e-18
0.0 0.01 0.0
-6.310475656001554e-18 0.0 0.010000000500000036

0.009999968500148837 0.0 -6.929688257318256e-18
0.0 0.01 0.0
-6.929688257318256e-18 0.0 0.01

0.009999968000153599 0.0 4.032652393149682e-18
0.0 0.01 0.0
4.032652393149682e-18 0.0 0.01

0.009999967500158436 0.0 3.824347106288729e-18
0.0 0.01 0.0
3.824347106288729e-18 0.0 0.01

0.009999967500158436 0.0 -2.882595384592798e-13
0.0 0.01 0.0
-2.882595384592798e-13 0.0 0.01

0.009999963500199835 0.0 -2.0741530451525186e-17
0.0 0.01 0.0
-2.0741530451525186e-17 0.0 0.010000001450000314

0.009999961500222336 0.0 1.4250032305024526e-17
0.0 0.01 0.0
1.4250032305024526e-17 0.0 0.010000001450000314

0.009999961500222336 0.0 2.057772574971018e-17
0.0 0.01 0.0
2.057772574971018e-17 0.0 0.01000000100000015

0.009999961000228149 0.0 -1.4651494986356728e-17
0.0 0.01 0.0
-1.4651494986356728e-17 0.0 0.01000000100000015

0.009999960500234035 0.0 1.0867508740379814e-17
0.0 0.01 0.0
1.0867508740379814e-17 0.0 0.01000000100000015

0.00999996000024 0.0 5.406081468908052e-18
0.0 0.01 0.0
5.406081468908052e-18 0.0 0.010000000500000036

0.00999996000024 0.0 1.5419172376218238e-13
0.0 0.01 0.0
1.5419172376218238e-13 0.0 0.010000000500000036

0.00999996000024 0.0 2.2228335629555053e-18
0.0 0.01 0.0
2.2228335629555053e-18 0.0 0.01

0.00999996000024 0.0 9.694129500008816e-14
0.0 0.01 0.0
9.694129500008816e-14 0.0 0.01

0.009999953500324335 0.0 -2.6068601340844535e-17
0.0 0.01 0.0
-2.6068601340844535e-17 0.0 0.010000001450000314

0.009999953000331348 0.0 2.380021738452543e-17
0.0 0.01 0.0
2.380021738452543e-17 0.0 0.010000001450000314

0.009999952000345596 0.0 6.337034751722361e-18
0.0 0.01 0.0
6.337034751722361e-18 0.0 0.010000001450000314

0.009999952000345596 0.0 -1.3631994314314037e-17
0.0 0.01 0.0
-1.3631994314314037e-17 0.0 0.010000001450000314

0.009999951000360146 0.0 -8.767485966053266e-18
0.0 0.01 0.0
-8.767485966053266e-18 0.0 0.010000001450000314

0.009999951000360146 0.0 1.4600086459955605e-13
0.0 0.01 0.0
1.4600086459955605e-13 0.0 0.01000000100000015

0.009999951000360146 0.0 6.236319598893172e-18
0.0 0.01 0.0
6.236319598893172e-18 0.0 0.01000000100000015

0.009999951000360146 0.0 7.593645756402361e-18
0.0 0.01 0.0
7.593645756402361e-18 0.0 0.010000000500000036

0.009999951000360146 0.0 3.068361062560381e-13
0.0 0.01 0.0
3.068361062560381e-13 0.0 0.010000000500000036

0.009999943500478834 0.0 1.0163605598267193e-16
0.0 0.01 0.0
1.0163605598267193e-16 0.0 0.0100000024500009

0.009999941000522145 0.0 5.4346814004689036e-17
0.0 0.01 0.0
5.4346814004689036e-17 0.0 0.0100000024500009

0.009999941000522145 0.0 -1.5562342992493528e-17
0.0 0.01 0.0
-1.5562342992493528e-17 0.0 0.0100000024500009

0.009999941000522145 0.0 -2.989231509887181e-13
0.0 0.01 0.0
-2.989231509887181e-13 0.0 0.01000000195000057

0.009999941000522145 0.0 -1.2626708999995909e-17
0.0 0.01 0.0
-1.2626708999995909e-17 0.0 0.010000001450000314

0.009999941000522145 0.0 1.7874392997096723e-13
0.0 0.01 0.0
1.7874392997096723e-13 0.0 0.010000001450000314

0.009999941000522145 0.0 4.978428223739078e-18
0.0 0.01 0.0
4.978428223739078e-18 0.0 0.010000001450000314

0.009999940500531032 0.0 4.211936690314123e-18
0.0 0.01 0.0
4.211936690314123e-18 0.0 0.01000000100000015

0.009999940500531032 0.0 2.547062320800811e-13
0.0 0.01 0.0
2.547062320800811e-13 0.0 0.01000000100000015

0.00999992950074553 0.0 1.240872960605388e-16
0.0 0.01 0.0
1.240872960605388e-16 0.0 0.010000003400001733

0.009999928500766829 0.0 5.904397686675842e-17
0.0 0.01 0.0
5.904397686675842e-17 0.0 0.010000003400001733

0.00999992700079934 0.0 -3.069332068856425e-17
0.0 0.01 0.0
-3.069332068856425e-17 0.0 0.0100000024500009

0.009999926500810328 0.0 5.447238946155021e-18
0.0 0.01 0.0
5.447238946155021e-18 0.0 0.0100000024500009

0.00999992600082139 0.0 -8.547254464668233e-14
0.0 0.01 0.0
-8.547254464668233e-14 0.0 0.01000000195000057

0.009999926500810328 0.0 1.3756767355493936e-17
0.0 0.01 0.0
1.3756767355493936e-17 0.0 0.01000000195000057

0.009999926500810328 0.0 7.598258881892103e-18
0.0 0.01 0.0
7.598258881892103e-18 0.0 0.010000001450000314

0.009999926500810328 0.0 5.8857258901093916e-18
0.0 0.01 0.0
5.8857258901093916e-18 0.0 0.010000001450000314

0.009999926500810328 0.0 2.627276855733258e-18
0.0 0.01 0.0
2.627276855733258e-18 0.0 0.010000001450000314

0.00999991150117482 0.0 3.9066362249271453e-16
0.0 0.01 0.0
3.9066362249271453e-16 0.0 0.010000003900002283

0.00999991050120152 0.0 6.096728260891248e-17
0.0 0.01 0.0
6.096728260891248e-17 0.0 0.010000003400001733

0.009999909001242133 0.0 -4.175565033169087e-17
0.0 0.01 0.0
-4.175565033169087e-17 0.0 0.010000003400001733

0.009999908501255818 0.0 -1.6515228751751263e-17
0.0 0.01 0.0
-1.6515228751751263e-17 0.0 0.010000003400001733

0.00999990950122852 0.0 6.034257302609098e-18
0.0 0.01 0.0
6.034257302609098e-18 0.0 0.0100000024500009

0.00999990950122852 0.0 -2.438426761610399e-18
0.0 0.01 0.0
-2.438426761610399e-18 0.0 0.01000000195000057

0.009999910001214982 0.0 1.5479769739599927e-13
0.0 0.01 0.0
1.5479769739599927e-13 0.0 0.01000000195000057

0.00999990950122852 0.0 4.5939728805709715e-18
0.0 0.01 0.0
4.5939728805709715e-18 0.0 0.01000000195000057

0.00999990950122852 0.0 2.4747960929763917e-18
0.0 0.01 0.0
2.4747960929763917e-18 0.0 0.010000001450000314

0.009999890001814967 0.0 6.636399377422595e-16
0.0 0.01 0.0
6.636399377422595e-16 0.0 0.010000004900003603

0.009999888001881565 0.0 2.688269713063882e-16
0.0 0.01 0.0
2.688269713063882e-16 0.0 0.010000004900003603

0.009999887001915314 0.0 1.2376539567359006e-15
0.0 0.01 0.0
1.2376539567359006e-15 0.0 0.010000004900003603

0.009999887001915314 0.0 -1.3131312121654854e-17
0.0 0.01 0.0
-1.3131312121654854e-17 0.0 0.010000003400001733

0.009999887501898402 0.0 2.131682993973913e-14
0.0 0.01 0.0
2.131682993973913e-14 0.0 0.010000003400001733

0.009999887501898402 0.0 5.086984408295946e-18
0.0 0.01 0.0
5.086984408295946e-18 0.0 0.010000002950001304

0.009999888501864803 0.0 3.45977884728361e-18
0.0 0.01 0.0
3.45977884728361e-18 0.0 0.01000000195000057

0.009999888501864803 0.0 3.3182524728712133e-18
0.0 0.01 0.0
3.3182524728712133e-18 0.0 0.01000000195000057

0.009999888501864803 0.0 1.750063012045026e-13
0.0 0.01 0.0
1.750063012045026e-13 0.0 0.01000000195000057

0.00999986050291897 0.0 3.5310261768424753e-13
0.0 0.01 0.0
3.531026176809388e-13 0.0 0.010000006350006047

0.009999860002939932 0.0 2.8283402490650417e-16
0.0 0.01 0.0
2.8283402490650417e-16 0.0 0.010000006350006049

0.009999860002939932 0.0 5.185509765970303e-17
0.0 0.01 0.0
5.185509765970303e-17 0.0 0.010000005350004294

0.00999986050291897 0.0 9.145993842953741e-18
0.0 0.01 0.0
9.145993842953741e-18 0.0 0.010000004900003603

0.00999986050291897 0.0 1.0323914896934148e-13
0.0 0.01 0.0
1.0323914896934148e-13 0.0 0.010000004400002904

0.009999862002856534 0.0 9.695893740482679e-18
0.0 0.01 0.0
9.695893740482679e-18 0.0 0.010000003400001733

0.009999862002856534 0.0 5.0894883999285206e-18
0.0 0.01 0.0
5.0894883999285206e-18 0.0 0.010000002950001304

0.009999862002856534 0.0 -2.0320029761706593e-14
0.0 0.01 0.0
-2.0320029761706593e-14 0.0 0.010000002950001304

0.009999862002856534 0.0 5.242744902195803e-18
0.0 0.01 0.0
5.242744902195803e-18 0.0 0.0100000024500009

0.009999826004541272 0.0 3.1945352897426582e-12
0.0 0.01 0.0
3.1945352897426582e-12 0.0 0.010000008800011617

0.009999824504619902 0.0 5.222024532150815e-16
0.0 0.01 0.0
5.222024532150815e-16 0.0 0.010000008300010334

0.009999824504619902 0.0 -5.2433667103917354e-17
0.0 0.01 0.0
-5.2433667103917354e-17 0.0 0.010000007300007994

0.009999825504567404 0.0 -3.894770156665487e-17
0.0 0.01 0.0
-3.894770156665487e-17 0.0 0.010000006850007037

0.00999982600454127 0.0 3.286252494510696e-18
0.0 0.01 0.0
3.286252494510696e-18 0.0 0.010000004900003603

0.00999982700448922 0.0 1.150910729890814e-17
0.0 0.01 0.0
1.150910729890814e-17 0.0 0.010000004900003603

0.009999828004437473 0.0 -2.854228799317049e-14
0.0 0.01 0.0
-2.854228799317049e-14 0.0 0.010000003900002283

0.009999829004386025 0.0 1.6050129417592583e-17
0.0 0.01 0.0
1.6050129417592583e-17 0.0 0.010000002950001304

0.009999829504360415 0.0 5.8109024579373695e-18
0.0 0.01 0.0
5.8109024579373695e-18 0.0 0.010000002950001304

0.009999781007193889 0.0 9.774005312099808e-12
0.0 0.01 0.0
9.774005312046869e-12 0.0 0.010000012200022328

0.009999781007193887 0.0 3.4099854869003533e-14
0.0 0.01 0.0
3.409985486921033e-14 0.0 0.010000011250018984

0.00999978250709568 0.0 -2.33571103093149e-18
0.0 0.01 0.0
-2.33571103093149e-18 0.0 0.010000008800011615

0.009999784006998148 0.0 -5.917793075889985e-17
0.0 0.01 0.0
-5.917793075889985e-17 0.0 0.010000008800011615

0.00999978550690129 0.0 -4.102823257897417e-18
0.0 0.01 0.0
-4.102823257897417e-18 0.0 0.010000006850007037

0.009999786506837093 0.0 1.94618062758983e-17
0.0 0.01 0.0
1.94618062758983e-17 0.0 0.010000006350006049

0.009999787506773198 0.0 1.6730599011448096e-17
0.0 0.01 0.0
1.6730599011448096e-17 0.0 0.010000004900003603

0.009999789006677914 0.0 2.8693789131544e-17
0.0 0.01 0.0
2.8693789131544e-17 0.0 0.010000003900002283

0.009999790506583308 0.0 -5.41074813323885e-18
0.0 0.01 0.0
-5.41074813323885e-18 0.0 0.010000003900002283

0.009999725511302023 0.0 1.734775490692499e-11
0.0 0.01 0.0
1.734775490692499e-11 0.0 0.010000016600041337

0.009999726011260889 0.0 1.4623876695375416e-13
0.0 0.01 0.0
1.4623876695292698e-13 0.0 0.01000001515003443

0.009999728511056337 0.0 -1.066529297600038e-16
0.0 0.01 0.0
-1.066529297600038e-16 0.0 0.010000012700024194

0.009999730510894048 0.0 -1.560612646152672e-17
0.0 0.01 0.0
-1.560612646152672e-17 0.0 0.010000011250018984

0.009999733510652864 0.0 -8.678465035866602e-18
0.0 0.01 0.0
-8.678465035866602e-18 0.0 0.010000008800011615

0.009999735010533285 0.0 -2.9647938965227065e-18
0.0 0.01 0.0
-2.9647938965227065e-18 0.0 0.010000007300007994

0.009999737510335486 0.0 2.7350570128618876e-17
0.0 0.01 0.0
2.7350570128618876e-17 0.0 0.010000006350006049

0.009999739510178594 0.0 2.7580327937538434e-17
0.0 0.01 0.0
2.7580327937538434e-17 0.0 0.010000005350004294

0.009999740010139561 0.0 1.6554098819038833e-17
0.0 0.01 0.0
1.6554098819038833e-17 0.0 0.010000004400002904

0.0099996580175436 0.0 2.0035043039693636e-11
0.0 0.01 0.0
2.0035043039799515e-11 0.0 0.010000024400089302

0.009999660017339018 0.0 1.6315542808315182e-13
0.0 0.01 0.0
1.63155428083979e-13 0.0 0.010000021000066152

0.009999663516983883 0.0 -2.583576528121891e-16
0.0 0.01 0.0
-2.583576528121891e-16 0.0 0.010000016600041335

0.00999966751658252 0.0 -4.6963938394230594e-17
0.0 0.01 0.0
-4.6963938394230594e-17 0.0 0.010000014650032193

0.009999671516185952 0.0 1.8944446766410492e-17
0.0 0.01 0.0
1.8944446766410492e-17 0.0 0.010000011700020532

0.009999674515891675 0.0 1.9156496413541653e-17
0.0 0.01 0.0
1.9156496413541653e-17 0.0 0.010000009300012973

0.009999677015648507 0.0 -3.818256937632942e-18
0.0 0.01 0.0
-3.818256937632942e-18 0.0 0.010000007300007994

0.009999679015455324 0.0 2.2032130645131726e-17
0.0 0.01 0.0
2.2032130645131726e-17 0.0 0.010000006350006049

0.00999968001535918 0.0 -8.11372205498598e-18
0.0 0.01 0.0
-8.11372205498598e-18 0.0 0.010000005350004294

0.00999957502709183 0.0 1.494012459122553e-11
0.0 0.01 0.0
1.494012459122553e-11 0.0 0.010000036150196024

0.009999579526521179 0.0 4.641098404067955e-14
0.0 0.01 0.0
4.641098404067955e-14 0.0 0.010000027850116345

0.009999585025831963 0.0 -1.7416429100512916e-16
0.0 0.01 0.0
-1.7416429100512916e-16 0.0 0.010000023450082485

0.009999591525029133 0.0 -3.3682234361039804e-17
0.0 0.01 0.0
-3.3682234361039804e-17 0.0 0.010000018550051615

0.009999595524541384 0.0 8.742024792854445e-17
0.0 0.01 0.0
8.742024792854445e-17 0.0 0.010000014650032193

0.0099996000239984 0.0 3.3524267395521113e-17
0.0 0.01 0.0
3.3524267395521113e-17 0.0 0.010000011700020532

0.009999604523461492 0.0 -8.813826919086715e-18
0.0 0.01 0.0
-8.813826919086715e-18 0.0 0.010000009300012973

0.00999960602328387 0.0 4.097812615547501e-17
0.0 0.01 0.0
4.097812615547501e-17 0.0 0.010000007800009125

0.009999608023048095 0.0 -2.9656424962890825e-17
0.0 0.01 0.0
-2.9656424962890825e-17 0.0 0.010000006350006049

0.009999474541418911 0.0 6.31745435158839e-12
0.0 0.01 0.0
6.317454351601625e-12 0.0 0.010000048350350663

0.009999481540322853 0.0 2.3638082033756853e-16
0.0 0.01 0.0
2.3638082033756853e-16 0.0 0.010000039050228737

0.009999488539241493 0.0 -1.758089003378843e-16
0.0 0.01 0.0
-1.758089003378843e-16 0.0 0.010000031250146485

0.009999496538023647 0.0 5.713031052402703e-17
0.0 0.01 0.0
5.713031052402703e-17 0.0 0.01000002395008604

0.009999502537122859 0.0 1.945758959319611e-16
0.0 0.01 0.0
1.945758959319611e-16 0.0 0.010000019050054435

0.00999950903615919 0.0 5.082459730547229e-17
0.0 0.01 0.0
5.082459730547229e-17 0.0 0.010000015150034429

0.009999513035572463 0.0 -6.17647415262845e-17
0.0 0.01 0.0
-6.17647415262845e-17 0.0 0.010000011700020532

0.009999517034990532 0.0 -1.7349056774458542e-17
0.0 0.01 0.0
-1.7349056774458542e-17 0.0 0.010000009300012973

0.009999519534629265 0.0 -5.311102919710408e-17
0.0 0.01 0.0
-5.311102919710408e-17 0.0 0.010000007800009125

0.00999935156307602 0.0 8.714285475297592e-13
0.0 0.01 0.0
8.714285475281049e-13 0.0 0.010000065900651429

0.009999362061050107 0.0 5.875448837617944e-16
0.0 0.01 0.0
5.875448837617944e-16 0.0 0.010000051750401712

0.00999937305896319 0.0 -3.361091034053153e-17
0.0 0.01 0.0
-3.361091034053153e-17 0.0 0.010000039550234633

0.009999383557004981 0.0 1.1046893064258854e-16
0.0 0.01 0.0
1.1046893064258854e-16 0.0 0.010000031750151211

0.00999939305526176 0.0 3.7751619552008393e-16
0.0 0.01 0.0
3.7751619552008393e-16 0.0 0.010000023450082485

0.009999401053814777 0.0 1.2403558567031912e-16
0.0 0.01 0.0
1.2403558567031912e-16 0.0 0.010000018550051615

0.009999407552653237 0.0 1.513763115306469e-17
0.0 0.01 0.0
1.513763115306469e-17 0.0 0.010000013650027948

0.009999412051856517 0.0 -3.989349976121112e-17
0.0 0.01 0.0
-3.989349976121112e-17 0.0 0.010000010750017335

0.009999415051328746 0.0 -1.243305392301949e-16
0.0 0.01 0.0
-1.243305392301949e-16 0.0 0.010000008800011615

0.009999204095029794 0.0 3.804152840493408e-15
0.0 0.01 0.0
3.804152840493408e-15 0.0 0.010000085951108127

0.009999218091716645 0.0 9.500092997096171e-16
0.0 0.01 0.0
9.500092997096171e-16 0.0 0.010000066900671348

0.00999923358811708 0.0 5.065981874903853e-17
0.0 0.01 0.0
5.065981874903853e-17 0.0 0.010000051750401712

0.009999247085040679 0.0 3.276028868458859e-16
0.0 0.01 0.0
3.276028868458859e-16 0.0 0.010000039050228737

0.009999260582018929 0.0 4.130776194557803e-16
0.0 0.01 0.0
4.130776194557803e-16 0.0 0.01000003025013726

0.009999271079706466 0.0 -1.0403865889506093e-16
0.0 0.01 0.0
-1.0403865889506093e-16 0.0 0.0100000224500756

0.009999280577642726 0.0 -2.0579517730120862e-16
0.0 0.01 0.0
-2.0579517730120862e-16 0.0 0.010000016600041335

0.00999928707624629 0.0 -2.5788512017576376e-16
0.0 0.01 0.0
-2.5788512017576376e-16 0.0 0.010000013200026137

0.009999290075606054 0.0 -8.751211619650648e-17
0.0 0.01 0.0
-8.751211619650648e-17 0.0 0.010000010750017335

0.009999026142278303 0.0 5.512183236476554e-15
0.0 0.01 0.0
5.512183236476554e-15 0.0 0.010000108901778914

0.0099990456366388 0.0 5.906587555202564e-16
0.0 0.01 0.0
5.906587555202564e-16 0.0 0.010000085451095271

0.009999066130833033 0.0 -2.7342180834775537e-16
0.0 0.01 0.0
-2.7342180834775537e-16 0.0 0.010000064950632782

0.009999085625427421 0.0 2.73926952089096e-16
0.0 0.01 0.0
2.73926952089096e-16 0.0 0.010000048850357952

0.009999102620807868 0.0 3.1122940522257497e-16
0.0 0.01 0.0
3.1122940522257497e-16 0.0 0.010000036600200934

0.009999117116936141 0.0 -3.403155827008562e-17
0.0 0.01 0.0
-3.403155827008562e-17 0.0 0.010000027850116345

0.009999127114302718 0.0 -1.4683183921083038e-16
0.0 0.01 0.0
-1.4683183921083038e-16 0.0 0.010000020500063036

0.009999135612087887 0.0 -3.1893181842225167e-16
0.0 0.01 0.0
-3.1893181842225167e-16 0.0 0.010000016100038882

0.009999140110924102 0.0 -2.232263662503573e-16
0.0 0.01 0.0
-2.232263662503573e-16 0.0 0.010000013200026137

0.00999881371112559 0.0 4.966837105975989e-15
0.0 0.01 0.0
4.966837105975989e-15 0.0 0.010000136702803097

0.009998839701974974 0.0 -1.2644436643293292e-15
0.0 0.01 0.0
-1.2644436643293292e-15 0.0 0.010000105001653778

0.009998866692686936 0.0 -3.2293261504593875e-16
0.0 0.01 0.0
-3.2293261504593875e-16 0.0 0.010000080100962414

0.009998892184115602 0.0 5.970266045265383e-16
0.0 0.01 0.0
5.970266045265383e-16 0.0 0.010000060050540905

0.009998914676714567 0.0 6.446711258137306e-16
0.0 0.01 0.0
6.446711258137306e-16 0.0 0.010000044900302403

0.009998933170742986 0.0 7.25760654438597e-17
0.0 0.01 0.0
7.25760654438597e-17 0.0 0.010000032700160396

0.009998948165976499 0.0 -7.905019732114072e-17
0.0 0.01 0.0
-7.905019732114072e-17 0.0 0.010000025400096774

0.009998958162836321 0.0 -1.5532905854168123e-16
0.0 0.01 0.0
-1.5532905854168123e-16 0.0 0.01000002000006

0.009998964160966605 0.0 -2.2842063289328124e-16
0.0 0.01 0.0
-2.2842063289328124e-16 0.0 0.010000016600041335

0.009998558311829659 0.0 2.883160774572219e-15
0.0 0.01 0.0
2.883160774572219e-15 0.0 0.010000167004183467

0.009998593796666795 0.0 -3.460599690480173e-15
0.0 0.01 0.0
-3.460599690480173e-15 0.0 0.010000128902492335

0.009998631281060022 0.0 4.839401586726552e-16
0.0 0.01 0.0
4.839401586726552e-16 0.0 0.010000097151415742

0.00999866376787517 0.0 2.9534092417840888e-15
0.0 0.01 0.0
2.9534092417840888e-15 0.0 0.010000072250783018

0.009998692256573667 0.0 1.8441449821688152e-15
0.0 0.01 0.0
1.8441449821688152e-15 0.0 0.01000005420044065

0.00999871624724549 0.0 4.420180830174738e-16
0.0 0.01 0.0
4.420180830174738e-16 0.0 0.010000041000252152

0.009998734240362683 0.0 -1.5813843526905297e-16
0.0 0.01 0.0
-1.5813843526905297e-16 0.0 0.010000032250156011

0.009998746235828112 0.0 -2.446804289615299e-16
0.0 0.01 0.0
-2.446804289615299e-16 0.0 0.010000025400096774

0.00999875373301593 0.0 -2.1392949084462785e-16
0.0 0.01 0.0
-2.1392949084462785e-16 0.0 0.01000002195007227

0.009998257955313708 0.0 -1.2987957842595875e-15
0.0 0.01 0.0
-1.2987957842595875e-15 0.0 0.0100002011560694

0.009998305430832041 0.0 -4.4185429448049664e-15
0.0 0.01 0.0
-4.4185429448049664e-15 0.0 0.010000153303525224

0.009998351407768084 0.0 4.770663122114711e-15
0.0 0.01 0.0
4.770663122114711e-15 0.0 0.010000115702008011

0.009998394386781873 0.0 7.866115660371791e-15
0.0 0.01 0.0
7.866115660371791e-15 0.0 0.010000086901132759

0.009998430869402908 0.0 5.443914724311146e-15
0.0 0.01 0.0
5.443914724311146e-15 0.0 0.010000065900651429

0.009998459356110689 0.0 2.1203153618273945e-15
0.0 0.01 0.0
2.1203153618273945e-15 0.0 0.0100000508003871

0.009998481346016552 0.0 9.719933658908113e-16
0.0 0.01 0.0
9.719933658908113e-16 0.0 0.010000041000252152

0.00999849733876649 0.0 2.3102044811710288e-17
0.0 0.01 0.0
2.3102044811710288e-17 0.0 0.010000034200175447

0.009998506834498076 0.0 -3.055263735983006e-16
0.0 0.01 0.0
-3.055263735983006e-16 0.0 0.010000031250146485

0.00999790066126856 0.0 -4.2423571768142116e-15
0.0 0.01 0.0
-4.2423571768142116e-15 0.0 0.010000238758550576

0.009997964621583479 0.0 -2.6767637484145582e-15
0.0 0.01 0.0
-2.6767637484145582e-15 0.0 0.010000181154922448

0.009998023086382679 0.0 1.4262092238199172e-14
0.0 0.01 0.0
1.4262092238199172e-14 0.0 0.01000013720282364

0.009998077554511632 0.0 1.7261945807145657e-14
0.0 0.01 0.0
1.7261945807145657e-14 0.0 0.010000104001622429

0.009998122528867068 0.0 1.0603490625476064e-14
0.0 0.01 0.0
1.0603490625476064e-14 0.0 0.010000082051009844

0.0099981575093409 0.0 4.989518286715735e-15
0.0 0.01 0.0
4.989518286715735e-15 0.0 0.010000065450642562

0.009998184494528725 0.0 1.9170547433460227e-15
0.0 0.01 0.0
1.9170547433460227e-15 0.0 0.010000054700448817

0.009998202484775332 0.0 3.606840258650588e-16
0.0 0.01 0.0
3.606840258650588e-16 0.0 0.010000047850343446

0.009998213478862731 0.0 7.34367456230286e-18
0.0 0.01 0.0
7.34367456230286e-18 0.0 0.010000044450296371

0.009997481951404728 0.0 -9.042335243634119e-15
0.0 0.01 0.0
-9.042335243634119e-15 0.0 0.01000028026178156

0.009997565389388029 0.0 7.463333488130366e-15
0.0 0.01 0.0
7.463333488130366e-15 0.0 0.010000212906799203

0.00999764083511153 0.0 3.0771168490265234e-14
0.0 0.01 0.0
3.0771168490265234e-14 0.0 0.010000163103990352

0.009997706289407661 0.0 2.975915962881892e-14
0.0 0.01 0.0
2.975915962881892e-14 0.0 0.010000127452436579

0.009997761252023351 0.0 1.9256538291416038e-14
0.0 0.01 0.0
1.9256538291416038e-14 0.0 0.010000102551577503

0.00999780372375634 0.0 8.674194426798531e-15
0.0 0.01 0.0
8.674194426798531e-15 0.0 0.010000087901158979

0.00999783570283015 0.0 3.5013890838090686e-15
0.0 0.01 0.0
3.5013890838090686e-15 0.0 0.010000076650881295

0.009997858188300162 0.0 9.620638699863927e-16
0.0 0.01 0.0
9.620638699863927e-16 0.0 0.010000071300762563

0.00999786968093231 0.0 4.708978167876474e-16
0.0 0.01 0.0
4.708978167876474e-16 0.0 0.01000006785069055

0.009996996353825727 0.0 -2.3790770832003587e-15
0.0 0.01 0.0
-2.3790770832003587e-15 0.0 0.010000325215864117

0.009997100761325307 0.0 2.5848264677303498e-14
0.0 0.01 0.0
2.5848264677303498e-14 0.0 0.010000251009450544

0.009997196679231862 0.0 5.0344665205395e-14
0.0 0.01 0.0
5.0344665205395e-14 0.0 0.010000196305780246

0.009997275613746632 0.0 4.3015238305612554e-14
0.0 0.01 0.0
4.3015238305612554e-14 0.0 0.010000160153847307

0.009997342060072372 0.0 2.3919504068547092e-14
0.0 0.01 0.0
2.3919504068547092e-14 0.0 0.010000135252743946

0.009997392520197318 0.0 9.892567063010114e-15
0.0 0.01 0.0
9.892567063010114e-15 0.0 0.010000119652147463

0.009997428991852436 0.0 3.639902114243874e-15
0.0 0.01 0.0
3.639902114243874e-15 0.0 0.010000108901778914

0.00999745397266846 0.0 1.7297325065542762e-15
0.0 0.01 0.0
1.7297325065542762e-15 0.0 0.010000104501638067

0.009997468961247962 0.0 3.124028197054271e-16
0.0 0.01 0.0
3.124028197054271e-16 0.0 0.010000101551546887

0.009996444896712949 0.0 -4.842222055853648e-15
0.0 0.01 0.0
-4.842222055853648e-15 0.0 0.01000038137181556

0.00999657476064376 0.0 4.031720200245843e-14
0.0 0.01 0.0
4.031720200245843e-14 0.0 0.010000299313437745

0.009996689144990295 0.0 6.313239718059015e-14
0.0 0.01 0.0
6.313239718059015e-14 0.0 0.010000242708835854

0.009996784052013695 0.0 4.4001473792262444e-14
0.0 0.01 0.0
4.4001473792262444e-14 0.0 0.010000206556399657

0.009996861478166447 0.0 2.091657302544265e-14
0.0 0.01 0.0
2.091657302544265e-14 0.0 0.010000183105028995

0.00999692042315338 0.0 8.353132321379082e-15
0.0 0.01 0.0
8.353132321379082e-15 0.0 0.010000167954231198

0.009996962384626853 0.0 2.2256314343192907e-15
0.0 0.01 0.0
2.2256314343192907e-15 0.0 0.010000160153847306

0.009996990858784784 0.0 1.049751809660889e-15
0.0 0.01 0.0
1.049751809660889e-15 0.0 0.010000153803548257

0.009997006844383595 0.0 2.4374251149549473e-17
0.0 0.01 0.0
2.4374251149549473e-17 0.0 0.010000151853458851

0.00999583310589872 0.0 -9.945945763447775e-14
0.0 0.01 0.0
-9.945945763447775e-14 0.0 0.010000450730471865

0.00999599091220713 0.0 -1.5915914018451028e-14
0.0 0.01 0.0
-1.5915914018451028e-14 0.0 0.010000363769848314

0.00999612625205162 0.0 1.6252472959215648e-14
0.0 0.01 0.0
1.6252472959215648e-14 0.0 0.010000309564373921

0.009996237624386204 0.0 1.1594204652278189e-14
0.0 0.01 0.0
1.1594204652278189e-14 0.0 0.010000275411377296

0.009996325026807293 0.0 1.8719217131467144e-15
0.0 0.01 0.0
1.8719217131467144e-15 0.0 0.010000254909746516

0.009996391454180645 0.0 -1.333386780000964e-15
0.0 0.01 0.0
-1.333386780000964e-15 0.0 0.01000024270883585

0.00999643890311525 0.0 -8.242091232726394e-16
0.0 0.01 0.0
-8.242091232726394e-16 0.0 0.010000232408101778

0.009996471368565076 0.0 -6.604186326990427e-16
0.0 0.01 0.0
-6.604186326990427e-16 0.0 0.010000226557699025

0.009996489349565704 0.0 -1.2352694725583179e-16
0.0 0.01 0.0
-1.2352694725583179e-16 0.0 0.010000223157469667

0.009995191470518354 0.0 -5.141585893486763e-13
0.0 0.01 0.0
-5.141585893484695e-13 0.0 0.010000545944705088

0.009995377207508507 0.0 -3.432253255758232e-13
0.0 0.01 0.0
-3.4322532557603e-13 0.0 0.010000460981873684

0.009995532994903883 0.0 -2.3141109335335735e-13
0.0 0.01 0.0
-2.3141109335325395e-13 0.0 0.010000410675296747

0.009995658828502637 0.0 -1.3951428930665468e-13
0.0 0.01 0.0
-1.3951428930665468e-13 0.0 0.010000381371815558

0.009995757201728909 0.0 -7.164627733870523e-14
0.0 0.01 0.0
-7.164627733870523e-14 0.0 0.010000360869533084

0.009995831607773377 0.0 -2.877024970455256e-14
0.0 0.01 0.0
-2.877024970455256e-14 0.0 0.010000345217875484

0.009995884541944038 0.0 -9.561288466010588e-15
0.0 0.01 0.0
-9.561288466010588e-15 0.0 0.010000333516684265

0.009995919498932884 0.0 -2.3405820187709787e-15
0.0 0.01 0.0
-2.3405820187709787e-15 0.0 0.01000032471581537

0.009995939474519745 0.0 1.5116558874786125e-16
0.0 0.01 0.0
1.5116558874786125e-16 0.0 0.010000319815341623

0.009994567929316689 0.0 -1.520566470666895e-12
0.0 0.01 0.0
-1.520566470666895e-12 0.0 0.010000692471920963

0.009994781587618164 0.0 -1.238729165679388e-12
0.0 0.01 0.0
-1.2387291656798017e-12 0.0 0.010000606005081871

0.009994955819132574 0.0 -9.536677842477264e-13
0.0 0.01 0.0
-9.536677842473128e-13 0.0 0.01000055814672569

0.009995096109581221 0.0 -5.815606075376209e-13
0.0 0.01 0.0
-5.815606075376209e-13 0.0 0.010000531292337734

0.009995204451799394 0.0 -2.908810372880009e-13
0.0 0.01 0.0
-2.908810372880009e-13 0.0 0.010000509338911273

0.009995286834184994 0.0 -1.207144516151856e-13
0.0 0.01 0.0
-1.2071445161515975e-13 0.0 0.010000488335768446

0.009995345252020046 0.0 -4.006871798296943e-14
0.0 0.01 0.0
-4.006871798296943e-14 0.0 0.010000470233165805

0.009995384197812462 0.0 -1.103683361736255e-14
0.0 0.01 0.0
-1.103683361736255e-14 0.0 0.010000455131069758

0.00999540616743466 0.0 -1.8984791689415674e-15
0.0 0.01 0.0
-1.8984791689415674e-15 0.0 0.010000446829946765

0.009994044324738285 0.0 -2.9249227319548687e-12
0.0 0.01 0.0
-2.9249227319548687e-12 0.0 0.01000092052708992

0.009994279911657439 0.0 -2.7322448238155154e-12
0.0 0.01 0.0
-2.7322448238155154e-12 0.0 0.010000823851798587

0.009994469591198565 0.0 -2.334086043442259e-12
0.0 0.01 0.0
-2.3340860434426727e-12 0.0 0.010000771089177608

0.009994620843413887 0.0 -1.5287098106165192e-12
0.0 0.01 0.0
-1.5287098106165192e-12 0.0 0.010000740782305636

0.009994739154388437 0.0 -7.967370587709337e-13
0.0 0.01 0.0
-7.967370587709337e-13 0.0 0.010000711025826472

0.009994830012081799 0.0 -3.383358332267316e-13
0.0 0.01 0.0
-3.383358332266282e-13 0.0 0.010000678269001088

0.00999489391348216 0.0 -1.1558093877710298e-13
0.0 0.01 0.0
-1.1558093877705128e-13 0.0 0.010000647012788416

0.009994935849442242 0.0 -3.373256486136918e-14
0.0 0.01 0.0
-3.373256486136918e-14 0.0 0.010000622608141307

0.009994961310818397 0.0 -5.827409861403612e-15
0.0 0.01 0.0
-5.827409861403612e-15 0.0 0.010000605054909286

0.009993729402993137 0.0 -3.320550012224607e-12
0.0 0.01 0.0
-3.320550012224607e-12 0.0 0.01000127514385732

0.009993973951369126 0.0 -3.814701917036626e-12
0.0 0.01 0.0
-3.814701917036626e-12 0.0 0.010001149148050842

0.009994174594259433 0.0 -4.00092948843035e-12
0.0 0.01 0.0
-4.000929488429523e-12 0.0 0.010001072922649755

0.009994335316933153 0.0 -2.930360323007474e-12
0.0 0.01 0.0
-2.930360323007474e-12 0.0 0.010001023106990773

0.009994460606134528 0.0 -1.624268657948298e-12
0.0 0.01 0.0
-1.6242686579487117e-12 0.0 0.010000975742792522

0.009994557446434914 0.0 -7.058586132497504e-13
0.0 0.01 0.0
-7.058586132501639e-13 0.0 0.010000922977767472

0.009994627332936493 0.0 -2.434823467949266e-13
0.0 0.01 0.0
-2.434823467949783e-13 0.0 0.010000869763460115

0.009994673758351516 0.0 -6.656294727550067e-14
0.0 0.01 0.0
-6.656294727550067e-14 0.0 0.01000082675251666

0.009994700715340992 0.0 -1.194613710574944e-14
0.0 0.01 0.0
-1.194613710574944e-14 0.0 0.010000795995031127

0.00999376583457236 0.0 3.007930837970413e-13
0.0 0.01 0.0
3.007930837970413e-13 0.0 0.01000180663947402

0.009994006891910046 0.0 -1.951389676734267e-12
0.0 0.01 0.0
-1.95138967673344e-12 0.0 0.010001617092163505

0.009994204042864777 0.0 -4.517514915202918e-12
0.0 0.01 0.0
-4.517514915202918e-12 0.0 0.010001490082985943

0.009994366763580632 0.0 -4.143172463578996e-12
0.0 0.01 0.0
-4.143172463578996e-12 0.0 0.010001398243207947

0.009994495049011601 0.0 -2.4959535640622414e-12
0.0 0.01 0.0
-2.4959535640618278e-12 0.0 0.010001314709223615

0.009994594885449869 0.0 -1.0883724369624077e-12
0.0 0.01 0.0
-1.0883724369624077e-12 0.0 0.010001226775709878

0.00999466826713966 0.0 -3.4259232112554274e-13
0.0 0.01 0.0
-3.4259232112554274e-13 0.0 0.010001141295353535

0.009994718187580307 0.0 -7.800460091696172e-14
0.0 0.01 0.0
-7.800460091696172e-14 0.0 0.010001069021396584

0.009994747640991144 0.0 -1.0112815327659018e-14
0.0 0.01 0.0
-1.0112815327659018e-14 0.0 0.010001022106683959

0.00999433980929319 0.0 1.116605320434555e-11
0.0 0.01 0.0
1.1166053204347204e-11 0.0 0.010002558581616104

0.009994550457865388 0.0 6.1483062664286365e-12
0.0 0.01 0.0
6.1483062664286365e-12 0.0 0.010002264418906795

0.009994729669387463 0.0 -1.6288714911020922e-12
0.0 0.01 0.0
-1.6288714911020922e-12 0.0 0.010002045527456255

0.009994879934946105 0.0 -3.874250316409011e-12
0.0 0.01 0.0
-3.874250316408184e-12 0.0 0.01000188043026975

0.009995002748376012 0.0 -2.7610987479943533e-12
0.0 0.01 0.0
-2.7610987479951805e-12 0.0 0.010001735301586255

0.009995098605906043 0.0 -1.1537826108550102e-12
0.0 0.01 0.0
-1.1537826108554238e-12 0.0 0.010001595131585557

0.009995171998691632 0.0 -2.566201150367782e-13
0.0 0.01 0.0
-2.566201150367782e-13 0.0 0.010001463221089753

0.009995223424531898 0.0 9.008024361151863e-15
0.0 0.01 0.0
9.008024361151863e-15 0.0 0.010001352324267685

0.00999525288240962 0.0 1.6138487660963678e-14
0.0 0.01 0.0
1.6138487660963678e-14 0.0 0.010001280045735623

0.009995650339578634 0.0 2.9238655432575445e-11
0.0 0.01 0.0
2.9238655432575445e-11 0.0 0.010003543382444482

0.00999579864918627 0.0 2.1620331140972607e-11
0.0 0.01 0.0
2.16203311409693e-11 0.0 0.010003104945504543

0.009995935479392794 0.0 6.138235134438188e-12
0.0 0.01 0.0
6.138235134438188e-12 0.0 0.010002751134895174

0.009996055834693743 0.0 -9.59449501375315e-13
0.0 0.01 0.0
-9.59449501375315e-13 0.0 0.01000247651966877

0.009996160212727763 0.0 -1.6788740928632735e-12
0.0 0.01 0.0
-1.6788740928632735e-12 0.0 0.010002242954401053

0.009996243617621867 0.0 -5.249977407095531e-13
0.0 0.01 0.0
-5.249977407095531e-13 0.0 0.010002029417613257

0.009996308045586043 0.0 1.8604128759633687e-13
0.0 0.01 0.0
1.8604128759638857e-13 0.0 0.01000183450468767

0.009996353495519434 0.0 2.3593588199448855e-13
0.0 0.01 0.0
2.3593588199443685e-13 0.0 0.010001673770132207

0.00999638146501735 0.0 7.953007328676901e-14
0.0 0.01 0.0
7.953007328676901e-14 0.0 0.010001570169737545

0.009997830206405 0.0 4.7010635029292804e-11
0.0 0.01 0.0
4.7010635029292804e-11 0.0 0.010004729402973452

0.009997886170430275 0.0 3.979088066673127e-11
0.0 0.01 0.0
3.979088066673127e-11 0.0 0.010004115339009042

0.009997955127396655 0.0 1.6952091207638233e-11
0.0 0.01 0.0
1.6952091207631616e-11 0.0 0.010003591784210746

0.009998026084605158 0.0 4.3068396256601835e-12
0.0 0.01 0.0
4.306839625663492e-12 0.0 0.010003178264563005

0.009998092046182114 0.0 8.556824292567058e-13
0.0 0.01 0.0
8.556824292567058e-13 0.0 0.010002834204452069

0.00999814751488234 0.0 8.879682487480473e-13
0.0 0.01 0.0
8.879682487480473e-13 0.0 0.010002525856670596

0.009998192989910858 0.0 9.887373677530773e-13
0.0 0.01 0.0
9.887373677530773e-13 0.0 0.010002252710977443

0.00999822597218789 0.0 6.099521631424894e-13
0.0 0.01 0.0
6.099521631422826e-13 0.0 0.010002030418222355

0.009998244962131829 0.0 1.743901935053839e-13
0.0 0.01 0.0
1.743901935053839e-13 0.0 0.010001885783292704

0.010000843356675579 0.0 5.2770811241536996e-11
0.0 0.01 0.0
5.2770811241536996e-11 0.0 0.010006029849481221

0.010000787192941157 0.0 5.0466846651742826e-11
0.0 0.01 0.0
5.0466846651742826e-11 0.0 0.010005231151881372

0.010000767688392774 0.0 2.5102846023033824e-11
0.0 0.01 0.0
2.510284602302059e-11 0.0 0.010004527022235072

0.010000768638611716 0.0 9.322559263949414e-12
0.0 0.01 0.0
9.322559263942797e-12 0.0 0.010003953493281106

0.010000778890991225 0.0 3.731910946039824e-12
0.0 0.01 0.0
3.731910946041478e-12 0.0 0.010003480316047223

0.010000791593983234 0.0 2.5137772409201554e-12
0.0 0.01 0.0
2.5137772409201554e-12 0.0 0.010003065859347902

0.01000080429702365 0.0 1.8509228926778085e-12
0.0 0.01 0.0
1.8509228926778085e-12 0.0 0.010002703746141314

0.010000814549512831 0.0 9.81394894644736e-13
0.0 0.01 0.0
9.81394894644736e-13 0.0 0.010002410521311901

0.01000082140119391 0.0 2.631049338712883e-13
0.0 0.01 0.0
2.631049338708747e-13 0.0 0.010002221440000167

0.01000439449504164 0.0 4.136002553280477e-11
0.0 0.01 0.0
4.136002553283124e-11 0.0 0.010007323487171158

0.01000422287339365 0.0 4.602163347711723e-11
0.0 0.01 0.0
4.602163347709076e-11 0.0 0.010006352247534987

0.010004102122731786 0.0 2.5024646203403753e-11
0.0 0.01 0.0
2.5024646203403753e-11 0.0 0.010005475193380952

0.01000401902158248 0.0 1.0749659652347077e-11
0.0 0.01 0.0
1.0749659652347077e-11 0.0 0.010004749982207507

0.01000395985082155 0.0 5.104432316655375e-12
0.0 0.01 0.0
5.104432316655375e-12 0.0 0.01000414662775301

0.010003917851231586 0.0 3.350909404141391e-12
0.0 0.01 0.0
3.350909404141391e-12 0.0 0.010003621616466276

0.010003888016325735 0.0 2.248548672111681e-12
0.0 0.01 0.0
2.2485486721050635e-12 0.0 0.010003164101097063

0.010003867492468295 0.0 1.1242834184476811e-12
0.0 0.01 0.0
1.1242834184476811e-12 0.0 0.010002798524322565

0.010003856730008179 0.0 2.9743383014114325e-13
0.0 0.01 0.0
2.9743383014197043e-13 0.0 0.010002561533882334

0.010007913182869038 0.0 2.1042542143799346e-11
0.0 0.01 0.0
2.1042542143746406e-11 0.0 0.010008469748356612

0.010007636187807596 0.0 2.9267241781076974e-11
0.0 0.01 0.0
2.9267241780865216e-11 0.0 0.01000736898730043

0.010007418396734007 0.0 1.6740931736906295e-11
0.0 0.01 0.0
1.6740931736932765e-11 0.0 0.010006353199346662

0.01000724812268362 0.0 7.693121388173101e-12
0.0 0.01 0.0
7.693121388173101e-12 0.0 0.010005497229609818

0.010007115487325219 0.0 4.069457425538525e-12
0.0 0.01 0.0
4.069457425541834e-12 0.0 0.010004779324108764

0.010007012719844516 0.0 2.8367809542203447e-12
0.0 0.01 0.0
2.8367809542203447e-12 0.0 0.010004151033231738

0.010006937863419179 0.0 1.9019614220936736e-12
0.0 0.01 0.0
1.9019614220928464e-12 0.0 0.010003605448952381

0.010006887008104575 0.0 9.428531712994997e-13
0.0 0.01 0.0
9.42853171299086e-13 0.0 0.01000316945618135

0.01000685664559674 0.0 2.437996202139419e-13
0.0 0.01 0.0
2.437996202140453e-13 0.0 0.01000288649930091

0.010010689966909484 0.0 4.479387309482914e-12
0.0 0.01 0.0
4.479387309482914e-12 0.0 0.01000937401436679

0.010010334849317926 0.0 1.1191059711790015e-11
0.0 0.01 0.0
1.1191059711790015e-11 0.0 0.01000818974982551

0.010010035085254478 0.0 6.222461718051448e-12
0.0 0.01 0.0
6.222461718051448e-12 0.0 0.010007081715507403

0.010009786297019324 0.0 2.7449890326520106e-12
0.0 0.01 0.0
2.7449890326520106e-12 0.0 0.010006133588524745

0.01000958651759877 0.0 1.7072017225464717e-12
0.0 0.01 0.0
1.7072017225472988e-12 0.0 0.010005326052004842

0.010009429320063667 0.0 1.4753526272894543e-12
0.0 0.01 0.0
1.4753526272898678e-12 0.0 0.01000461549345165

0.010009313795879004 0.0 1.085832653629193e-12
0.0 0.01 0.0
1.085832653629193e-12 0.0 0.010003996043979557

0.01000923397421319 0.0 5.579292419639607e-13
0.0 0.01 0.0
5.579292419639607e-13 0.0 0.010003499886523812

0.010009187445881978 0.0 1.4588472879391162e-13
0.0 0.01 0.0
1.4588472879391162e-13 0.0 0.010003177764086152

0.01001221961139869 0.0 -2.8773415798091263e-12
0.0 0.01 0.0
-2.8773415798107807e-12 0.0 0.01001000083251764

0.010011819271302938 0.0 3.091946299043018e-13
0.0 0.01 0.0
3.091946299043018e-13 0.0 0.010008777643542925

0.010011462076806229 0.0 -6.139745057629821e-13
0.0 0.01 0.0
-6.139745057629821e-13 0.0 0.010007619048648064

0.010011156341861989 0.0 -7.446675134812847e-13
0.0 0.01 0.0
-7.446675134812847e-13 0.0 0.010006615909752463

0.010010906466741137 0.0 -1.8750303609008508e-13
0.0 0.01 0.0
-1.8750303609008508e-13 0.0 0.010005753010764503

0.010010711034394798 0.0 2.6730647761757385e-13
0.0 0.01 0.0
2.6730647761778065e-13 0.0 0.01000498612674128

0.01001056406637697 0.0 3.4454430278600743e-13
0.0 0.01 0.0
3.4454430278590404e-13 0.0 0.010004310885959279

0.010010464653456265 0.0 2.0015827716284955e-13
0.0 0.01 0.0
2.0015827716284955e-13 0.0 0.010003769229993718

0.010010406371375409 0.0 5.357827583778621e-14
0.0 0.01 0.0
5.357827583778621e-14 0.0 0.01000341730089401

0.010012480375146328 0.0 -3.451224333233284e-12
0.0 0.01 0.0
-3.451224333233284e-12 0.0 0.010010371111712284

0.010012068211158336 0.0 -2.751423850864827e-12
0.0 0.01 0.0
-2.751423850864827e-12 0.0 0.010009138010241022

0.010011686454106872 0.0 -2.4392359304494054e-12
0.0 0.01 0.0
-2.4392359304502326e-12 0.0 0.010007962600363669

0.010011353305404761 0.0 -1.6371441797189075e-12
0.0 0.01 0.0
-1.6371441797189075e-12 0.0 0.010006937863419177

0.010011075974443664 0.0 -7.966950572228022e-13
0.0 0.01 0.0
-7.966950572223886e-13 0.0 0.010006046479569443

0.010010858008885858 0.0 -2.5669656812818207e-13
0.0 0.01 0.0
-2.5669656812818207e-13 0.0 0.01000524532412934

0.010010694882644156 0.0 -3.627363727480198e-14
0.0 0.01 0.0
-3.627363727480198e-14 0.0 0.010004536785496895

0.010010584631478006 0.0 1.0601966675397602e-14
0.0 0.01 0.0
1.0601966675397602e-14 0.0 0.010003965257243433

0.010010519024232617 0.0 4.97419286194722e-15
0.0 0.01 0.0
4.97419286194722e-15 0.0 0.010003592735234905

0.010011857506775971 0.0 -1.6591515212417157e-12
0.0 0.01 0.0
-1.6591515212417157e-12 0.0 0.010010534222126501

0.01001145861493117 0.0 -1.7701058453000426e-12
0.0 0.01 0.0
-1.7701058453000426e-12 0.0 0.010009308380780992

0.01001107988741921 0.0 -1.498029252788477e-12
0.0 0.01 0.0
-1.4980292527876498e-12 0.0 0.010008137371757203

0.010010742886678739 0.0 -9.880151401082262e-13
0.0 0.01 0.0
-9.880151401082262e-13 0.0 0.010007111578996466

0.010010458785076738 0.0 -5.271316142918026e-13
0.0 0.01 0.0
-5.271316142915958e-13 0.0 0.010006213285944792

0.010010236396146158 0.0 -2.365245174951261e-13
0.0 0.01 0.0
-2.365245174951261e-13 0.0 0.010005399369833138

0.010010070842879058 0.0 -9.318320219988567e-14
0.0 0.01 0.0
-9.318320219988567e-14 0.0 0.010004673173743013

0.010009958706647011 0.0 -3.195680066282771e-14
0.0 0.01 0.0
-3.195680066282771e-14 0.0 0.010004086002949362

0.010009892108736587 0.0 -7.092381478846387e-15
0.0 0.01 0.0
-7.092381478846387e-15 0.0 0.010003703206045027

0.010010843762610909 0.0 -8.786723295219343e-14
0.0 0.01 0.0
-8.786723295177984e-14 0.0 0.010010546460744828

0.010010471023418384 0.0 -2.0287560259088712e-13
0.0 0.01 0.0
-2.0287560259088712e-13 0.0 0.01000933044234645

0.010010109058323594 0.0 -2.274760025593734e-13
0.0 0.01 0.0
-2.2747600255916663e-13 0.0 0.010008174061380024

0.010009785845696903 0.0 -1.732449750810712e-13
0.0 0.01 0.0
-1.732449750809678e-13 0.0 0.01000716053365001

0.010009514060398501 0.0 -1.0416435665135922e-13
0.0 0.01 0.0
-1.0416435665130753e-13 0.0 0.010006267136631

0.010009298102146905 0.0 -5.4855540789856713e-14
0.0 0.01 0.0
-5.4855540789856713e-14 0.0 0.01000545320737953

0.010009139464220005 0.0 -2.664200694681699e-14
0.0 0.01 0.0
-2.664200694681699e-14 0.0 0.010004724546092449

0.010009030267147726 0.0 -1.0947309676561688e-14
0.0 0.01 0.0
-1.0947309676561688e-14 0.0 0.01000413486315084

0.010008966144361768 0.0 -2.729862369836437e-15
0.0 0.01 0.0
-2.729862369836437e-15 0.0 0.010003749157373669

0.0100097878014278 0.0 6.521636070452402e-13
0.0 0.01 0.0
6.521636070452402e-13 0.0 0.010010437217616693

0.010009442056047564 0.0 6.780646401061285e-13
0.0 0.01 0.0
6.780646400995111e-13 0.0 0.010009236431007335

0.010009105671906682 0.0 3.7407596971264785e-13
0.0 0.01 0.0
3.7407596971347503e-13 0.0 0.010008098677674142

0.010008803110584497 0.0 1.710847547535473e-13
0.0 0.01 0.0
1.710847547537541e-13 0.0 0.010007105215445341

0.010008549050456535 0.0 7.800815880120508e-14
0.0 0.01 0.0
7.800815880115338e-14 0.0 0.010006225558815387

0.010008347841345772 0.0 4.125465334133743e-14
0.0 0.01 0.0
4.125465334133743e-14 0.0 0.010005422857920925

0.010008198571475824 0.0 2.3388964203127492e-14
0.0 0.01 0.0
2.3388964203127492e-14 0.0 0.010004702514968482

0.010008095269408539 0.0 1.0817931666692603e-14
0.0 0.01 0.0
1.0817931666692603e-14 0.0 0.010004117291418077

0.01000803652749564 0.0 2.8777565281138346e-15
0.0 0.01 0.0
2.8777565281138346e-15 0.0 0.010003734490922197

0.01000879478865583 0.0 7.25608901773335e-13
0.0 0.01 0.0
7.25608901773335e-13 0.0 0.010010222704213282

0.010008471202044393 0.0 9.410118359277317e-13
0.0 0.01 0.0
9.410118359277317e-13 0.0 0.01000904300160843

0.010008156919456845 0.0 3.8735868138648634e-13
0.0 0.01 0.0
3.8735868138648634e-13 0.0 0.010007932278183324

0.010007875994932879 0.0 9.368639738156474e-14
0.0 0.01 0.0
9.368639738156474e-14 0.0 0.010006960861298797

0.010007640597897981 0.0 2.0492685461402862e-14
0.0 0.01 0.0
2.0492685461402862e-14 0.0 0.010006103232874354

0.010007455128562036 0.0 2.2632244070209934e-14
0.0 0.01 0.0
2.2632244070209934e-14 0.0 0.010005319691859372

0.010007317123215766 0.0 2.4749311399041868e-14
0.0 0.01 0.0
2.4749311399041868e-14 0.0 0.010004615493451647

0.010007221665341789 0.0 1.6365069385156006e-14
0.0 0.01 0.0
1.6365069385156006e-14 0.0 0.01000404249995031

0.010007167849350835 0.0 5.034379774302855e-15
0.0 0.01 0.0
5.034379774302855e-15 0.0 0.010003667566670591

0.010007781022233271 0.0 6.011661125859417e-13
0.0 0.01 0.0
6.011661125867689e-13 0.0 0.010009907303775307

0.010007469310262798 0.0 1.1280160566863436e-12
0.0 0.01 0.0
1.1280160566863436e-12 0.0 0.01000875809220591

0.010007172258822099 0.0 3.026564449956367e-13
0.0 0.01 0.0
3.026564449956367e-13 0.0 0.010007680238858488

0.01000691241061308 0.0 -7.409182128606768e-14
0.0 0.01 0.0
-7.409182128606768e-14 0.0 0.010006741661376708

0.010006695217894027 0.0 -9.728815006035028e-14
0.0 0.01 0.0
-9.728815006035028e-14 0.0 0.010005912489499141

0.010006522976837597 0.0 -2.383338293571618e-14
0.0 0.01 0.0
-2.383338293571618e-14 0.0 0.01000515388163816

0.010006396732497327 0.0 2.0698256764105782e-14
0.0 0.01 0.0
2.0698256764105782e-14 0.0 0.010004473199638122

0.010006309165817155 0.0 2.0819962651772986e-14
0.0 0.01 0.0
2.0819962651772986e-14 0.0 0.010003918802348744

0.010006258821026414 0.0 6.765190968110652e-15
0.0 0.01 0.0
6.765190968110652e-15 0.0 0.01000355709704115

0.010006605188518572 0.0 8.921138678134897e-13
0.0 0.01 0.0
8.921138678130761e-13 0.0 0.010009490042061371

0.010006299397365503 0.0 1.7924311111816196e-12
0.0 0.01 0.0
1.792431111183274e-12 0.0 0.010008384533283378

0.010006017126517908 0.0 5.333641167913371e-13
0.0 0.01 0.0
5.333641167905099e-13 0.0 0.010007350847306657

0.010005774998742355 0.0 -3.5045150921878216e-14
0.0 0.01 0.0
-3.5045150921878216e-14 0.0 0.010006453040890522

0.010005576461071915 0.0 -8.973235875843915e-14
0.0 0.01 0.0
-8.973235876009351e-14 0.0 0.010005660552653525

0.010005420904747403 0.0 -6.232142243216894e-16
0.0 0.01 0.0
-6.232142243216894e-16 0.0 0.010004934299695767

0.010005306470808389 0.0 4.8752173240073295e-14
0.0 0.01 0.0
4.8752173240073295e-14 0.0 0.01000428204882185

0.010005226244191163 0.0 3.555244241791103e-14
0.0 0.01 0.0
3.555244241796273e-14 0.0 0.010003754062890606

0.010005180773282489 0.0 1.154348292446959e-14
0.0 0.01 0.0
1.154348292446959e-14 0.0 0.010003408992392373

0.010005208165925254 0.0 2.120819266080612e-12
0.0 0.01 0.0
2.120819266081439e-12 0.0 0.010008981836532475

0.010004905457167102 0.0 3.064883710625948e-12
0.0 0.01 0.0
3.064883710625948e-12 0.0 0.010007929321158997

0.010004640428038513 0.0 1.1896297654089716e-12
0.0 0.01 0.0
1.1896297654097988e-12 0.0 0.010006951090938406

0.010004419928639399 0.0 2.830212445727796e-13
0.0 0.01 0.0
2.830212445727796e-13 0.0 0.010006104685531198

0.010004243399438461 0.0 9.134297887468887e-14
0.0 0.01 0.0
9.134297887468887e-14 0.0 0.010005354898171193

0.010004107028767986 0.0 1.1589422671745257e-13
0.0 0.01 0.0
1.1589422671786616e-13 0.0 0.010004670269676713

0.010004006806889315 0.0 1.1601367269061081e-13
0.0 0.01 0.0
1.1601367269391954e-13 0.0 0.010004055215382704

0.010003937874808024 0.0 6.869236398927441e-14
0.0 0.01 0.0
6.8692363989688e-14 0.0 0.010003558048055423

0.01000389777771689 0.0 1.8815586127526814e-14
0.0 0.01 0.0
1.8815586127475115e-14 0.0 0.010003231065293076

0.010003670469863812 0.0 3.8539344123158805e-12
0.0 0.01 0.0
3.853934412314226e-12 0.0 0.010008394859229297

0.010003376209048764 0.0 4.336094148463968e-12
0.0 0.01 0.0
4.336094148463968e-12 0.0 0.01000740862503341

0.010003134272934467 0.0 1.8744786802802916e-12
0.0 0.01 0.0
1.874478680281119e-12 0.0 0.010006495573394216

0.010002943198853207 0.0 6.611311734340165e-13
0.0 0.01 0.0
6.61131173433603e-13 0.0 0.01000570753267347

0.010002797073105186 0.0 3.119209939791469e-13
0.0 0.01 0.0
3.119209939789401e-13 0.0 0.01000501156485153

0.0100026875830773 0.0 2.3759990144065586e-13
0.0 0.01 0.0
2.3759990144044907e-13 0.0 0.010004374919314057

0.010002608420223581 0.0 1.699036894430594e-13
0.0 0.01 0.0
1.69903689443473e-13 0.0 0.010003800515490335

0.01000255417824082 0.0 8.828975159309137e-14
0.0 0.01 0.0
8.828975159309137e-14 0.0 0.010003337620213014

0.010002524405571886 0.0 2.305889712949776e-14
0.0 0.01 0.0
2.3058897129446062e-14 0.0 0.010003035081198732

0.010002172107502745 0.0 4.703512168217729e-12
0.0 0.01 0.0
4.703512168216075e-12 0.0 0.01000775365856933

0.010001894588283738 0.0 4.520943812628834e-12
0.0 0.01 0.0
4.520943812628834e-12 0.0 0.010006840512495443

0.01000168497577585 0.0 1.9727361292318456e-12
0.0 0.01 0.0
1.9727361292318456e-12 0.0 0.010006000997476696

0.010001530601339369 0.0 7.722822501372458e-13
0.0 0.01 0.0
7.722822501376594e-13 0.0 0.010005278576565947

0.010001421202915261 0.0 3.922652533822692e-13
0.0 0.01 0.0
3.922652533820624e-13 0.0 0.010004638976019312

0.010001343020507173 0.0 2.6592515805496635e-13
0.0 0.01 0.0
2.6592515805496635e-13 0.0 0.010004055215382706

0.010001289299301046 0.0 1.7088487734237411e-13
0.0 0.01 0.0
1.708848773425809e-13 0.0 0.01000352821636859

0.010001254135889079 0.0 7.579607944598462e-14
0.0 0.01 0.0
7.579607944598462e-14 0.0 0.010003102493222601

0.010001233128053224 0.0 1.799165111264774e-14
0.0 0.01 0.0
1.799165111264774e-14 0.0 0.010002825897403247

0.01000089366978258 0.0 3.585949510090636e-12
0.0 0.01 0.0
3.585949510090636e-12 0.0 0.010007090033163735

0.010000636310728549 0.0 3.1071419179337255e-12
0.0 0.01 0.0
3.1071419179328984e-12 0.0 0.010006252909946604

0.010000460481804573 0.0 1.3028039646965789e-12
0.0 0.01 0.0
1.3028039646965789e-12 0.0 0.010005489867489887

0.010000346217979203 0.0 5.336243233082682e-13
0.0 0.01 0.0
5.336243233082682e-13 0.0 0.01000483210012359

0.010000273461216748 0.0 2.888653060561195e-13
0.0 0.01 0.0
2.8886530605591273e-13 0.0 0.010004254663785036

0.010000228507832136 0.0 1.9489980521901145e-13
0.0 0.01 0.0
1.9489980521921825e-13 0.0 0.010003724730009019

0.010000199205952291 0.0 1.0895879636197574e-13
0.0 0.01 0.0
1.0895879636192404e-13 0.0 0.01000324863235641

0.010000182154976948 0.0 4.4427975266890234e-14
0.0 0.01 0.0
4.4427975266890234e-14 0.0 0.010002861577825671

0.010000173854533705 0.0 9.436808585830805e-15
0.0 0.01 0.0
9.436808585830805e-15 0.0 0.010002612373317706

0.009999937500585934 0.0 1.3083223018445327e-12
0.0 0.01 0.0
1.3083223018441191e-12 0.0 0.010006429545546832

0.00999969351409062 0.0 9.217308076482792e-13
0.0 0.01 0.0
9.217308076482792e-13 0.0 0.010005667915150238

0.009999546030915062 0.0 3.110155273190015e-13
0.0 0.01 0.0
3.110155273190015e-13 0.0 0.010004976862910743

0.009999463043251479 0.0 1.581245743397838e-13
0.0 0.01 0.0
1.581245743397838e-13 0.0 0.010004386184104892

0.009999420550368177 0.0 1.1510498415985987e-13
0.0 0.01 0.0
1.1510498415980817e-13 0.0 0.01000386944473223

0.0099994000539946 0.0 7.617523869409081e-14
0.0 0.01 0.0
7.617523869403911e-14 0.0 0.010003393826927706

0.009999392555352832 0.0 3.089229395047941e-14
0.0 0.01 0.0
3.089229395047941e-14 0.0 0.010002968120938512

0.009999391055626503 0.0 5.424308402807876e-15
0.0 0.01 0.0
5.424308402807876e-15 0.0 0.010002624582903847

0.009999390055809326 0.0 -2.141967742442269e-15
0.0 0.01 0.0
-2.141967742442269e-15 0.0 0.010002401264633943

0.009999308571717573 0.0 1.5449407950595969e-12
0.0 0.01 0.0
1.544940795060424e-12 0.0 0.01000580630306115

0.009999071629296828 0.0 -3.0945738214577206e-13
0.0 0.01 0.0
-3.0945738214566866e-13 0.0 0.010005111816931051

0.009998936169784292 0.0 -4.251072830210016e-14
0.0 0.01 0.0
-4.251072830210016e-14 0.0 0.010004485916712883

0.009998870691329521 0.0 6.624143961532211e-14
0.0 0.01 0.0
6.624143961532211e-14 0.0 0.01000395544559539

0.009998847199373037 0.0 2.1389552507591075e-14
0.0 0.01 0.0
2.1389552507591075e-14 0.0 0.010003493529860252

0.009998843200758637 0.0 -3.1627762726428837e-14
0.0 0.01 0.0
-3.1627762726428837e-14 0.0 0.01000307321611831

0.00999884819902739 0.0 -4.8023385340529464e-14
0.0 0.01 0.0
-4.8023385340529464e-14 0.0 0.010002698842169339

0.009998854696787969 0.0 -3.6107855132378936e-14
0.0 0.01 0.0
-3.6107855132378936e-14 0.0 0.01000239586074734

0.009998860194902969 0.0 -1.0321013007350178e-14
0.0 0.01 0.0
-1.0321013007350178e-14 0.0 0.010002198975111128

0.009998958662680113 0.0 2.8393741360109357e-10
0.0 0.01 0.0
2.8393741360119945e-10 0.0 0.010005244372633783

0.009998717246860567 0.0 8.906347820510812e-12
0.0 0.01 0.0
8.906347820507504e-12 0.0 0.010004605729959393

0.009998580802175548 0.0 1.1017458144380444e-12
0.0 0.01 0.0
1.1017458144380444e-12 0.0 0.010004034690496178

0.009998517829589507 0.0 6.141239498962107e-13
0.0 0.01 0.0
6.141239498962107e-13 0.0 0.01000355414389331

0.009998496339217372 0.0 1.1267046105260198e-13
0.0 0.01 0.0
1.1267046105255028e-13 0.0 0.010003138677075913

0.009998494839894258 0.0 -1.0971742979045596e-13
0.0 0.01 0.0
-1.0971742979045596e-13 0.0 0.010002768249056302

0.00999850433561872 0.0 -1.3061055548384143e-13
0.0 0.01 0.0
-1.3061055548394483e-13 0.0 0.010002441343732956

0.009998515330701903 0.0 -7.57467373622927e-14
0.0 0.01 0.0
-7.574673736226685e-14 0.0 0.01000217891194175

0.009998523826927386 0.0 -2.0286054758659244e-14
0.0 0.01 0.0
-2.0286054758659244e-14 0.0 0.010002009405494339

0.00999880971255201 0.0 2.076625979183814e-09
0.0 0.01 0.0
2.076625979184661e-09 0.0 0.010004766105200437

0.009998568807305527 0.0 1.7772253216320674e-10
0.0 0.01 0.0
1.7772253216320674e-10 0.0 0.010004168605142303

0.009998414377209698 0.0 4.399983512870645e-12
0.0 0.01 0.0
4.399983512868991e-12 0.0 0.010003634780784715

0.009998336914969791 0.0 2.1133486624981034e-12
0.0 0.01 0.0
2.1133486624981034e-12 0.0 0.01000318952531207

0.009998304931086223 0.0 4.792696042999946e-13
0.0 0.01 0.0
4.792696042997878e-13 0.0 0.010002813186657761

0.009998299433887147 0.0 -1.6090519900980829e-13
0.0 0.01 0.0
-1.6090519900985998e-13 0.0 0.010002485276182742

0.009998304931086223 0.0 -2.37582067324906e-13
0.0 0.01 0.0
-2.37582067324906e-13 0.0 0.01000220187702592

0.00999831392652245 0.0 -1.3340336116867556e-13
0.0 0.01 0.0
-1.3340336116867556e-13 0.0 0.010001975685345691

0.009998319923493428 0.0 -3.669724654683645e-14
0.0 0.01 0.0
-3.669724654683645e-14 0.0 0.01000183255361486

0.009998795217769633 0.0 8.009514523851934e-09
0.0 0.01 0.0
8.009514523848546e-09 0.0 0.010004379325104009

0.0099985683075204 0.0 1.1498696675443711e-09
0.0 0.01 0.0
1.1498696675439476e-09 0.0 0.010003809776053828

0.009998394886541107 0.0 2.661706002444504e-11
0.0 0.01 0.0
2.661706002444504e-11 0.0 0.010003298981774336

0.009998288439516194 0.0 5.0536917981481654e-12
0.0 0.01 0.0
5.05369179814982e-12 0.0 0.010002872337074259

0.009998234967411005 0.0 1.4216250025616566e-12
0.0 0.01 0.0
1.4216250025616566e-12 0.0 0.010002520952960255

0.009998212479398744 0.0 -6.640684558373897e-14
0.0 0.01 0.0
-6.640684558373897e-14 0.0 0.010002226343270016

0.009998207981814498 0.0 -3.354690176805306e-13
0.0 0.01 0.0
-3.354690176805306e-13 0.0 0.010001981538818842

0.009998209481008572 0.0 -2.0770778763211834e-13
0.0 0.01 0.0
-2.0770778763201494e-13 0.0 0.010001791031053957

0.009998213478862735 0.0 -5.651688649910708e-14
0.0 0.01 0.0
-5.651688649910708e-14 0.0 0.010001670318401355

0.009998871191235069 0.0 2.235074227590852e-08
0.0 0.01 0.0
2.235074227590852e-08 0.0 0.010004082098244023

0.009998683260119911 0.0 4.939189865329189e-09
0.0 0.01 0.0
4.939189865330883e-09 0.0 0.010003537025701666

0.009998498838090751 0.0 3.645688548702634e-10
0.0 0.01 0.0
3.645688548702634e-10 0.0 0.010003035581654187

0.009998357404806502 0.0 1.0129167581110548e-11
0.0 0.01 0.0
1.0129167581113857e-11 0.0 0.0100026128236705

0.009998268449843747 0.0 3.64333194764426e-12
0.0 0.01 0.0
3.64333194764426e-12 0.0 0.010002272274249966

0.00999822147458544 0.0 5.689680881836602e-13
0.0 0.01 0.0
5.68968088183867e-13 0.0 0.010001999149329952

0.009998199986124164 0.0 -2.6498483110267876e-13
0.0 0.01 0.0
-2.6498483110257536e-13 0.0 0.010001781726069072

0.009998190990995467 0.0 -2.4163432789945195e-13
0.0 0.01 0.0
-2.4163432789934855e-13 0.0 0.010001620493814941

0.009998187992624627 0.0 -7.243594111812084e-14
0.0 0.01 0.0
-7.243594111809499e-14 0.0 0.010001518895986683

0.009999007648111728 0.0 5.019536001478757e-08
0.0 0.01 0.0
5.019536001477402e-08 0.0 0.010003854778129727

0.009998890684651048 0.0 1.5634748212872674e-08
0.0 0.01 0.0
1.563474821287945e-08 0.0 0.010003339572203417

0.009998720245708585 0.0 2.584582203273467e-09
0.0 0.01 0.0
2.584582203273467e-09 0.0 0.010002846915278677

0.009998546816822591 0.0 1.3723418629486303e-10
0.0 0.01 0.0
1.3723418629486303e-10 0.0 0.010002419828051872

0.009998414377209695 0.0 8.089796192839666e-12
0.0 0.01 0.0
8.089796192842975e-12 0.0 0.010002075345880353

0.00999832991846903 0.0 2.5058576222465696e-12
0.0 0.01 0.0
2.505857622247397e-12 0.0 0.010001808090260363

0.009998280443632827 0.0 3.7304955297609775e-13
0.0 0.01 0.0
3.7304955297589096e-13 0.0 0.010001608287905315

0.009998254457144376 0.0 -8.623730515790319e-14
0.0 0.01 0.0
-8.623730515785149e-14 0.0 0.010001465672166279

0.009998242963185267 0.0 -4.908679753476137e-14
0.0 0.01 0.0
-4.908679753476137e-14 0.0 0.010001379685477287

0.009999180602116258 0.0 9.63914036339168e-08
0.0 0.01 0.0
9.63914036339439e-08 0.0 0.010003679280963065

0.009999159606191403 0.0 4.002622693890774e-08
0.0 0.01 0.0
4.002622693890774e-08 0.0 0.010003202688165111

0.009999035139680213 0.0 1.1234570763702517e-08
0.0 0.01 0.0
1.1234570763695741e-08 0.0 0.010002726714859687

0.009998858695416646 0.0 1.7979185753640644e-09
0.0 0.01 0.0
1.7979185753649114e-09 0.0 0.010002294739633379

0.00999868725853878 0.0 1.2035580515970915e-10
0.0 0.01 0.0
1.2035580515970915e-10 0.0 0.010001939063849514

0.009998554813345049 0.0 6.5569618324794004e-12
0.0 0.01 0.0
6.5569618324794004e-12 0.0 0.010001665465974164

0.009998467852193483 0.0 2.1841045707136027e-12
0.0 0.01 0.0
2.1841045707136027e-12 0.0 0.010001466122364201

0.009998415876496615 0.0 5.257794678726608e-13
0.0 0.01 0.0
5.257794678722472e-13 0.0 0.010001332316212684

0.009998388389676913 0.0 7.28527954167716e-14
0.0 0.01 0.0
7.28527954167716e-14 0.0 0.010001254135889082

0.00999936106516591 0.0 1.6178609235943317e-07
0.0 0.01 0.0
1.6178609235948738e-07 0.0 0.010003526768760599

0.00999944804678905 0.0 8.517133897177512e-08
0.0 0.01 0.0
8.517133897174801e-08 0.0 0.010003097639798925

0.009999406553010405 0.0 3.457924117751781e-08
0.0 0.01 0.0
3.457924117751781e-08 0.0 0.010002654356646724

0.009999266580709328 0.0 1.0282412816908933e-08
0.0 0.01 0.0
1.0282412816902157e-08 0.0 0.010002231196529458

0.009999090624060389 0.0 2.0978623911966865e-09
0.0 0.01 0.0
2.0978623911958394e-09 0.0 0.010001865271756703

0.009998924673473956 0.0 2.5579778561064814e-10
0.0 0.01 0.0
2.5579778561064814e-10 0.0 0.010001578473658231

0.009998796217398775 0.0 1.5448390693683223e-11
0.0 0.01 0.0
1.5448390693683223e-11 0.0 0.010001370881846038

0.009998708750141997 0.0 1.9037677203384212e-12
0.0 0.01 0.0
1.9037677203384212e-12 0.0 0.010001232177701878

0.009998661768677404 0.0 3.89745386633976e-13
0.0 0.01 0.0
3.89745386633976e-13 0.0 0.010001153049397783

0.009999544039759488 0.0 2.391020139580133e-07
0.0 0.01 0.0
2.3910201395790486e-07 0.0 0.010003389931534821

0.009999710516045958 0.0 1.5223766079838427e-07
0.0 0.01 0.0
1.5223766079838427e-07 0.0 0.010003000853701986

0.00999977750839772 0.0 8.051504575508133e-08
0.0 0.01 0.0
8.051504575508133e-08 0.0 0.010002603067012783

0.009999722011774084 0.0 3.484033217113734e-08
0.0 0.01 0.0
3.484033217113734e-08 0.0 0.010002207781111426

0.009999589025358807 0.0 1.2219695942210273e-08
0.0 0.01 0.0
1.221969594219672e-08 0.0 0.01000184916280642

0.00999942954881764 0.0 3.4102370197693402e-09
0.0 0.01 0.0
3.4102370197693402e-09 0.0 0.010001553561959982

0.009999286576353331 0.0 6.988491009775571e-10
0.0 0.01 0.0
6.988491009779806e-10 0.0 0.010001330815613472

0.009999177601462033 0.0 9.549432960685109e-11
0.0 0.01 0.0
9.549432960685109e-11 0.0 0.010001178908441008

0.009999111118530588 0.0 4.413751802945967e-12
0.0 0.01 0.0
4.413751802945967e-12 0.0 0.010001092929148013

0.009999830519170812 0.0 3.1483351778589016e-07
0.0 0.01 0.0
3.1483351778589016e-07 0.0 0.010003300948575438

0.009999941008520342 0.0 2.3095912853835377e-07
0.0 0.01 0.0
2.309591285384622e-07 0.0 0.01000291092852777

0.010000092754585488 0.0 1.4823835088161996e-07
0.0 0.01 0.0
1.4823835088151154e-07 0.0 0.010002550778933061

0.010000156754700878 0.0 8.227963455568121e-08
0.0 0.01 0.0
8.227963455568121e-08 0.0 0.010002198475796788

0.010000119152360196 0.0 3.9217909420045374e-08
0.0 0.01 0.0
3.9217909420045374e-08 0.0 0.010001866222518595

0.010000020500100744 0.0 1.5856898414251053e-08
0.0 0.01 0.0
1.5856898414251053e-08 0.0 0.010001578473695935

0.00999990550134358 0.0 5.205713200255786e-09
0.0 0.01 0.0
5.205713200255786e-09 0.0 0.010001349373076087

0.009999805005703808 0.0 1.2681921416011615e-09
0.0 0.01 0.0
1.2681921415994674e-09 0.0 0.01000118576087123

0.009999739010217713 0.0 1.6849856856566305e-10
0.0 0.01 0.0
1.684985685654513e-10 0.0 0.010001087577397968

0.010000412644783605 0.0 3.5827540191156124e-07
0.0 0.01 0.0
3.5827540191156124e-07 0.0 0.010003280432716378

0.010000295427091173 0.0 3.05576949384892e-07
0.0 0.01 0.0
3.0557694938510883e-07 0.0 0.010002878706561072

0.010000366227603438 0.0 2.234466436096174e-07
0.0 0.01 0.0
2.234466436096174e-07 0.0 0.010002514155312682

0.01000050494141446 0.0 1.4545364251396763e-07
0.0 0.01 0.0
1.4545364251407605e-07 0.0 0.010002188721537101

0.010000592803759336 0.0 8.372530466149719e-08
0.0 0.01 0.0
8.372530466149719e-08 0.0 0.010001896540444324

0.010000602104634273 0.0 4.157226055940969e-08
0.0 0.01 0.0
4.157226055940969e-08 0.0 0.01000163615172039

0.010000562047424976 0.0 1.7116785383741945e-08
0.0 0.01 0.0
1.7116785383741945e-08 0.0 0.010001418251702565

0.010000507338610626 0.0 5.398074171157814e-09
0.0 0.01 0.0
5.398074171157814e-09 0.0 0.010001251234803476

0.01000046293214409 0.0 9.992572913664435e-10
0.0 0.01 0.0
9.992572913664435e-10 0.0 0.010001147147362024

0.010001293213045862 0.0 2.8564185976676787e-07
0.0 0.01 0.0
2.8564185976676787e-07 0.0 0.010003286781956361

0.010001040729500924 0.0 3.3731422565872436e-07
0.0 0.01 0.0
3.373142256585075e-07 0.0 0.010002908035060057

0.01000086682498325 0.0 2.863035398449013e-07
0.0 0.01 0.0
2.8630353984511817e-07 0.0 0.010002547835675004

0.010000850214817978 0.0 2.0662103592016326e-07
0.0 0.01 0.0
2.0662103592016326e-07 0.0 0.01000222780064259

0.010000953238890702 0.0 1.3190159908619062e-07
0.0 0.01 0.0
1.3190159908619062e-07 0.0 0.010001951273579753

0.010001064120643062 0.0 7.36959515446143e-08
0.0 0.01 0.0
7.369595154439745e-08 0.0 0.010001715792304659

0.010001130091716513 0.0 3.458082236762559e-08
0.0 0.01 0.0
3.458082236762559e-08 0.0 0.010001518395938205

0.010001152049075646 0.0 1.2562043366897563e-08
0.0 0.01 0.0
1.2562043366897563e-08 0.0 0.010001364029059202

0.010001153999727624 0.0 2.647297971575301e-09
0.0 0.01 0.0
2.647297971575301e-09 0.0 0.010001262939213086

0.010001836956037746 0.0 1.946980526269714e-09
0.0 0.01 0.0
1.94698052626802e-09 0.0 0.010003250584258619

0.010001855023350185 0.0 2.208707996279296e-07
0.0 0.01 0.0
2.208707996279296e-07 0.0 0.010002963724338837

0.010001775384520468 0.0 2.8099342654639217e-07
0.0 0.01 0.0
2.8099342654639217e-07 0.0 0.010002632901292947

0.010001634709663592 0.0 2.4380655519115613e-07
0.0 0.01 0.0
2.4380655519072245e-07 0.0 0.010002331373951078

0.010001515498804682 0.0 1.706216127216574e-07
0.0 0.01 0.0
1.706216127216574e-07 0.0 0.010002070447198745

0.010001497387785338 0.0 1.0092680745614133e-07
0.0 0.01 0.0
1.0092680745614133e-07 0.0 0.010001845262150106

0.010001550160751148 0.0 5.0074580563649884e-08
0.0 0.01 0.0
5.007458056278252e-08 0.0 0.010001656161715786

0.01000161464103194 0.0 1.9373190735232776e-08
0.0 0.01 0.0
1.9373190735232776e-08 0.0 0.010001512042928212

0.010001656661591021 0.0 4.316431996147273e-09
0.0 0.01 0.0
4.316431996147273e-09 0.0 0.010001416801044705

0.010001916552034723 0.0 -8.947338131634272e-08
0.0 0.01 0.0
-8.947338131645114e-08 0.0 0.010002982785220155

0.01000226006766445 0.0 1.0680361285783299e-07
0.0 0.01 0.0
1.0680361285783299e-07 0.0 0.01000275213743158

0.0100024765246156 0.0 1.8162354167503003e-07
0.0 0.01 0.0
1.8162354167503003e-07 0.0 0.010002487732957616

0.010002535167785577 0.0 1.6439651884378112e-07
0.0 0.01 0.0
1.6439651884378112e-07 0.0 0.010002227297957661

0.01000251314886363 0.0 1.0939480515111816e-07
0.0 0.01 0.0
1.0939480515068448e-07 0.0 0.010001997650225096

0.010002486277413753 0.0 5.6872508286012584e-08
0.0 0.01 0.0
5.6872508286012584e-08 0.0 0.010001811542618902

0.010002487277750261 0.0 2.2419291405111064e-08
0.0 0.01 0.0
2.2419291405056854e-08 0.0 0.010001672769705514

0.010002497535344768 0.0 5.052659393072064e-09
0.0 0.01 0.0
5.0526593930788405e-09 0.0 0.010001584376461616

0.010002225843176565 0.0 -4.005062611384894e-08
0.0 0.01 0.0
-4.005062611384894e-08 0.0 0.01000270079398972

0.010002741377138608 0.0 4.308946662217976e-08
0.0 0.01 0.0
4.308946662217976e-08 0.0 0.01000246626234579

0.010003115205544524 0.0 5.619103672735871e-08
0.0 0.01 0.0
5.619103672735871e-08 0.0 0.010002196523968878

0.010003429964086874 0.0 3.6125726597614673e-08
0.0 0.01 0.0
3.612572659756046e-08 0.0 0.010001977136401283

0.010003628423899019 0.0 1.5281198317702014e-08
0.0 0.01 0.0
1.5281198317702014e-08 0.0 0.010001832053374973

0.010003742800236762 0.0 3.516409279223317e-09
0.0 0.01 0.0
3.516409279223317e-09 0.0 0.010001747057726837

0.010002138386614293 0.0 -7.771847966315387e-08
0.0 0.01 0.0
-7.771847966315387e-08 0.0 0.01000247652057461

0.010002666115935003 0.0 -2.420234996338951e-08
0.0 0.01 0.0
-2.420234996344372e-08 0.0 0.010002167704725683

0.010003095686902918 0.0 -5.42648076899189e-09
0.0 0.01 0.0
-5.42648076899189e-09 0.0 0.010001982989685715

0.010003351283913206 0.0 -7.444554975969753e-10
0.0 0.01 0.0
-7.444554975961283e-10 0.0 0.010001891136324334

0.009999967500158436 0.0 -1.1050299230682647e-17
0.0 0.01 0.0
-1.1050299230682647e-17 0.0 0.01

0.009999967500158436 0.0 -3.9601478461228167e-13
0.0 0.01 0.0
-3.9601478461228167e-13 0.0 0.01

0.009999967500158436 0.0 -3.9826258461226395e-13
0.0 0.01 0.0
-3.9826258461226395e-13 0.0 0.01

0.009999968000153599 0.0 3.6442217187326e-13
0.0 0.01 0.0
3.6442217187326e-13 0.0 0.01

0.009999968500148837 0.0 2.4171130292403473e-18
0.0 0.01 0.0
2.4171130292403473e-18 0.0 0.01

0.009999968500148837 0.0 -1.380089162826319e-14
0.0 0.01 0.0
-1.380089162826319e-14 0.0 0.010000000500000036

0.00999996900014415 0.0 2.7166723211742853e-18
0.0 0.01 0.0
2.7166723211742853e-18 0.0 0.010000000500000036

0.009999969500139537 0.0 8.70707831812456e-17
0.0 0.01 0.0
8.70707831812456e-17 0.0 0.010000000500000036

0.00999996000024 0.0 -7.87146775000716e-19
0.0 0.01 0.0
-7.87146775000716e-19 0.0 0.01

0.00999996000024 0.0 3.1378682727778823e-18
0.0 0.01 0.0
3.1378682727778823e-18 0.0 0.01

0.00999996000024 0.0 6.061338631822226e-18
0.0 0.01 0.0
6.061338631822226e-18 0.0 0.01

0.00999996000024 0.0 9.035101967019874e-18
0.0 0.01 0.0
9.035101967019874e-18 0.0 0.010000000500000036

0.00999996000024 0.0 7.326857088115444e-18
0.0 0.01 0.0
7.326857088115444e-18 0.0 0.010000000500000036

0.009999960500234035 0.0 9.854303591749145e-18
0.0 0.01 0.0
9.854303591749145e-18 0.0 0.01000000100000015

0.009999961000228149 0.0 1.856716516679472e-17
0.0 0.01 0.0
1.856716516679472e-17 0.0 0.01000000100000015

0.009999961500222336 0.0 4.9997415764764455e-17
0.0 0.01 0.0
4.9997415764764455e-17 0.0 0.01000000100000015

0.009999951000360146 0.0 8.456008806780531e-19
0.0 0.01 0.0
8.456008806780531e-19 0.0 0.010000000500000036

0.009999951000360146 0.0 -3.178924502433841e-14
0.0 0.01 0.0
-3.178924502433841e-14 0.0 0.010000000500000036

0.009999951000360146 0.0 3.711661947720365e-18
0.0 0.01 0.0
3.711661947720365e-18 0.0 0.010000000500000036

0.009999951000360146 0.0 3.2939490336534562e-18
0.0 0.01 0.0
3.2939490336534562e-18 0.0 0.01000000100000015

0.009999951000360146 0.0 1.0063021046391902e-17
0.0 0.01 0.0
1.0063021046391902e-17 0.0 0.01000000100000015

0.009999951000360146 0.0 5.559473847152492e-18
0.0 0.01 0.0
5.559473847152492e-18 0.0 0.010000001450000314

0.009999952000345596 0.0 -5.382524416405869e-18
0.0 0.01 0.0
-5.382524416405869e-18 0.0 0.010000001450000314

0.009999952000345596 0.0 2.6999803973780986e-17
0.0 0.01 0.0
2.6999803973780986e-17 0.0 0.010000001450000314

0.009999940500531032 0.0 -1.6013133832585543e-18
0.0 0.01 0.0
-1.6013133832585543e-18 0.0 0.01000000100000015

0.009999940500531032 0.0 1.4789789908608402e-13
0.0 0.01 0.0
1.4789789908608402e-13 0.0 0.01000000100000015

0.009999940500531032 0.0 2.5425620724169393e-13
0.0 0.01 0.0
2.5425620724169393e-13 0.0 0.01000000100000015

0.009999941000522145 0.0 2.1201625903038979e-13
0.0 0.01 0.0
2.1201625903038979e-13 0.0 0.010000001450000314

0.009999941000522145 0.0 -4.3447574538150864e-14
0.0 0.01 0.0
-4.3447574538150864e-14 0.0 0.010000001450000314

0.009999941000522145 0.0 -3.8121264418018346e-18
0.0 0.01 0.0
-3.8121264418018346e-18 0.0 0.010000001450000314

0.009999941000522145 0.0 -5.42423158212999e-18
0.0 0.01 0.0
-5.42423158212999e-18 0.0 0.01000000195000057

0.009999941000522145 0.0 -1.1619370938436915e-17
0.0 0.01 0.0
-1.1619370938436915e-17 0.0 0.0100000024500009

0.009999926500810328 0.0 7.037053055131831e-19
0.0 0.01 0.0
7.037053055131831e-19 0.0 0.010000001450000314

0.009999926500810328 0.0 1.30771653386127e-13
0.0 0.01 0.0
1.30771653386127e-13 0.0 0.010000001450000314

0.009999926500810328 0.0 5.632466127075162e-18
0.0 0.01 0.0
5.632466127075162e-18 0.0 0.010000001450000314

0.009999926500810328 0.0 5.213778652074998e-18
0.0 0.01 0.0
5.213778652074998e-18 0.0 0.010000001450000314

0.009999926500810328 0.0 1.590701127808053e-17
0.0 0.01 0.0
1.590701127808053e-17 0.0 0.01000000195000057

0.00999992600082139 0.0 4.4940201808655575e-18
0.0 0.01 0.0
4.4940201808655575e-18 0.0 0.01000000195000057

0.009999926500810328 0.0 7.853998296123148e-18
0.0 0.01 0.0
7.853998296123148e-18 0.0 0.0100000024500009

0.00999992700079934 0.0 -1.7754370114474707e-17
0.0 0.01 0.0
-1.7754370114474707e-17 0.0 0.0100000024500009

0.00999990950122852 0.0 2.468320096919514e-18
0.0 0.01 0.0
2.468320096919514e-18 0.0 0.010000001450000314

0.00999990950122852 0.0 8.610935452042573e-14
0.0 0.01 0.0
8.610935452042573e-14 0.0 0.010000001450000314

0.00999990950122852 0.0 -2.312530142688953e-13
0.0 0.01 0.0
-2.312530142688953e-13 0.0 0.01000000195000057

0.009999910001214982 0.0 1.8392681672490115e-13
0.0 0.01 0.0
1.8392681672490115e-13 0.0 0.01000000195000057

0.00999990950122852 0.0 7.639544527806346e-18
0.0 0.01 0.0
7.639544527806346e-18 0.0 0.01000000195000057

0.00999990950122852 0.0 1.3868599830700019e-17
0.0 0.01 0.0
1.3868599830700019e-17 0.0 0.0100000024500009

0.009999908501255818 0.0 2.7877190603307887e-18
0.0 0.01 0.0
2.7877190603307887e-18 0.0 0.010000003400001733

0.009999909001242133 0.0 -7.315540873876113e-17
0.0 0.01 0.0
-7.315540873876113e-17 0.0 0.010000003400001733

0.009999888501864803 0.0 1.795448917766215e-18
0.0 0.01 0.0
1.795448917766215e-18 0.0 0.01000000195000057

0.009999888501864803 0.0 -1.1767514855282663e-13
0.0 0.01 0.0
-1.1767514855282663e-13 0.0 0.01000000195000057

0.009999888501864803 0.0 6.275995494432449e-14
0.0 0.01 0.0
6.275995494432449e-14 0.0 0.01000000195000057

0.009999888501864803 0.0 6.042730133828558e-14
0.0 0.01 0.0
6.042730133828558e-14 0.0 0.01000000195000057

0.009999887501898402 0.0 8.900158748286572e-18
0.0 0.01 0.0
8.900158748286572e-18 0.0 0.010000002950001304

0.009999887501898402 0.0 -5.0180803792896296e-18
0.0 0.01 0.0
-5.0180803792896296e-18 0.0 0.010000003400001733

0.009999887001915314 0.0 -1.065100889770188e-17
0.0 0.01 0.0
-1.065100889770188e-17 0.0 0.010000003400001733

0.009999887001915314 0.0 2.2250600707527578e-17
0.0 0.01 0.0
2.2250600707527578e-17 0.0 0.010000004900003603

0.009999862002856534 0.0 1.797350671751663e-18
0.0 0.01 0.0
1.797350671751663e-18 0.0 0.0100000024500009

0.009999862002856534 0.0 8.93717200093622e-14
0.0 0.01 0.0
8.93717200093622e-14 0.0 0.0100000024500009

0.009999862002856534 0.0 2.695650792980947e-18
0.0 0.01 0.0
2.695650792980947e-18 0.0 0.010000002950001304

0.009999862002856534 0.0 6.1602672086725206e-18
0.0 0.01 0.0
6.1602672086725206e-18 0.0 0.010000002950001304

0.009999862002856534 0.0 1.0253993472456635e-17
0.0 0.01 0.0
1.0253993472456635e-17 0.0 0.010000003400001733

0.00999986050291897 0.0 -1.0803712536815033e-13
0.0 0.01 0.0
-1.0803712536815033e-13 0.0 0.010000004400002904

0.00999986050291897 0.0 2.9031999345660424e-17
0.0 0.01 0.0
2.9031999345660424e-17 0.0 0.010000004900003603

0.009999860002939932 0.0 4.578548475071475e-17
0.0 0.01 0.0
4.578548475071475e-17 0.0 0.010000005350004294

0.009999829504360415 0.0 4.7152449770637996e-18
0.0 0.01 0.0
4.7152449770637996e-18 0.0 0.010000002950001304

0.009999829504360415 0.0 -5.166715274561808e-14
0.0 0.01 0.0
-5.166715274561808e-14 0.0 0.010000002950001304

0.009999829004386025 0.0 4.19182718483729e-18
0.0 0.01 0.0
4.19182718483729e-18 0.0 0.010000002950001304

0.009999828004437473 0.0 9.815095513138957e-18
0.0 0.01 0.0
9.815095513138957e-18 0.0 0.010000003900002283

0.00999982700448922 0.0 5.251900073803745e-18
0.0 0.01 0.0
5.251900073803745e-18 0.0 0.010000004900003603

0.00999982600454127 0.0 1.931219364796608e-17
0.0 0.01 0.0
1.931219364796608e-17 0.0 0.010000004900003603

0.009999825504567404 0.0 2.1759537804270225e-17
0.0 0.01 0.0
2.1759537804270225e-17 0.0 0.010000006850007037

0.009999824504619902 0.0 4.961274877533992e-17
0.0 0.01 0.0
4.961274877533992e-17 0.0 0.010000007300007994

0.009999790506583308 0.0 -2.6941458492106478e-18
0.0 0.01 0.0
-2.6941458492106478e-18 0.0 0.010000003900002283

0.009999790506583308 0.0 -7.289664042575959e-14
0.0 0.01 0.0
-7.289664042575959e-14 0.0 0.010000003900002283

0.009999789006677914 0.0 1.4986658941562923e-17
0.0 0.01 0.0
1.4986658941562923e-17 0.0 0.010000003900002283

0.009999787506773198 0.0 6.0968391452601545e-18
0.0 0.01 0.0
6.0968391452601545e-18 0.0 0.010000004900003603

0.009999786506837093 0.0 1.5543515526392298e-17
0.0 0.01 0.0
1.5543515526392298e-17 0.0 0.010000006350006049

0.00999978550690129 0.0 4.890207482954618e-18
0.0 0.01 0.0
4.890207482954618e-18 0.0 0.010000006850007037

0.009999784006998148 0.0 -2.0140976021660256e-17
0.0 0.01 0.0
-2.0140976021660256e-17 0.0 0.010000008800011615

0.00999978250709568 0.0 4.007427148118407e-17
0.0 0.01 0.0
4.007427148118407e-17 0.0 0.010000008800011615

0.009999740010139561 0.0 3.079791083650937e-19
0.0 0.01 0.0
3.079791083650937e-19 0.0 0.010000003900002283

0.009999740010139561 0.0 1.4547047768986135e-17
0.0 0.01 0.0
1.4547047768986135e-17 0.0 0.010000004400002904

0.009999739510178594 0.0 1.2899855292945764e-17
0.0 0.01 0.0
1.2899855292945764e-17 0.0 0.010000005350004294

0.009999737510335486 0.0 -2.3343613084892873e-18
0.0 0.01 0.0
-2.3343613084892873e-18 0.0 0.010000006350006049

0.009999735010533285 0.0 9.145390486893433e-18
0.0 0.01 0.0
9.145390486893433e-18 0.0 0.010000007300007994

0.009999733510652864 0.0 1.7927164029536604e-17
0.0 0.01 0.0
1.7927164029536604e-17 0.0 0.010000008800011615

0.009999730510894048 0.0 -3.8325863361393835e-17
0.0 0.01 0.0
-3.8325863361393835e-17 0.0 0.010000011250018984

0.009999728511056337 0.0 -1.023332574489063e-16
0.0 0.01 0.0
-1.023332574489063e-16 0.0 0.010000012700024194

0.00999968001535918 0.0 -5.025369831635117e-19
0.0 0.01 0.0
-5.025369831635117e-19 0.0 0.010000005350004294

0.00999968001535918 0.0 -7.189922155766777e-18
0.0 0.01 0.0
-7.189922155766777e-18 0.0 0.010000005350004294

0.009999679015455324 0.0 -3.155532717687204e-18
0.0 0.01 0.0
-3.155532717687204e-18 0.0 0.010000006350006049

0.009999677015648507 0.0 -1.2751365663063437e-17
0.0 0.01 0.0
-1.2751365663063437e-17 0.0 0.010000007300007994

0.009999674515891675 0.0 2.022425277031402e-17
0.0 0.01 0.0
2.022425277031402e-17 0.0 0.010000009300012973

0.009999671516185952 0.0 3.127100201282517e-17
0.0 0.01 0.0
3.127100201282517e-17 0.0 0.010000011700020532

0.00999966751658252 0.0 1.011378330385655e-17
0.0 0.01 0.0
1.011378330385655e-17 0.0 0.010000014650032193

0.009999663516983883 0.0 -2.7592736473665004e-16
0.0 0.01 0.0
-2.7592736473665004e-16 0.0 0.010000016600041335

0.009999608023048095 0.0 5.1190122946184777e-20
0.0 0.01 0.0
5.1190122946184777e-20 0.0 0.010000005850005133

0.009999608023048095 0.0 -3.188749390209758e-17
0.0 0.01 0.0
-3.188749390209758e-17 0.0 0.010000006350006049

0.00999960602328387 0.0 2.7292629450300437e-18
0.0 0.01 0.0
2.7292629450300437e-18 0.0 0.010000007800009125

0.009999604523461492 0.0 4.142232842359733e-17
0.0 0.01 0.0
4.142232842359733e-17 0.0 0.010000009300012973

0.0099996000239984 0.0 6.593345473833882e-17
0.0 0.01 0.0
6.593345473833882e-17 0.0 0.010000011700020532

0.009999595524541384 0.0 5.03602750832653e-18
0.0 0.01 0.0
5.03602750832653e-18 0.0 0.010000014650032193

0.009999591525029133 0.0 -4.633595172069084e-18
0.0 0.01 0.0
-4.633595172069084e-18 0.0 0.010000018550051615

0.009999585025831963 0.0 -1.4931776528789344e-16
0.0 0.01 0.0
-1.4931776528789344e-16 0.0 0.010000023450082485

0.009999520534485282 0.0 1.3384630326073899e-18
0.0 0.01 0.0
1.3384630326073899e-18 0.0 0.010000006850007037

0.009999519534629265 0.0 -4.8421539202216116e-17
0.0 0.01 0.0
-4.8421539202216116e-17 0.0 0.010000007800009125

0.009999517034990532 0.0 -6.095425393649042e-17
0.0 0.01 0.0
-6.095425393649042e-17 0.0 0.010000009300012973

0.009999513035572463 0.0 -6.422917582615668e-17
0.0 0.01 0.0
-6.422917582615668e-17 0.0 0.010000011700020532

0.00999950903615919 0.0 4.036435992325619e-17
0.0 0.01 0.0
4.036435992325619e-17 0.0 0.010000015150034429

0.009999502537122859 0.0 2.562777877918394e-16
0.0 0.01 0.0
2.562777877918394e-16 0.0 0.010000019050054435

0.009999496538023647 0.0 1.2212499035112632e-16
0.0 0.01 0.0
1.2212499035112632e-16 0.0 0.01000002395008604

0.009999488539241493 0.0 -1.4550840808007404e-16
0.0 0.01 0.0
-1.4550840808007404e-16 0.0 0.010000031250146485

0.009999416551065872 0.0 -1.1120979416815487e-18
0.0 0.01 0.0
-1.1120979416815487e-18 0.0 0.010000007800009125

0.009999415051328746 0.0 -1.3455646541342722e-16
0.0 0.01 0.0
-1.3455646541342722e-16 0.0 0.010000008800011615

0.009999412051856517 0.0 -3.63286219315486e-17
0.0 0.01 0.0
-3.63286219315486e-17 0.0 0.010000010750017335

0.009999407552653237 0.0 -1.1315181542858531e-17
0.0 0.01 0.0
-1.1315181542858531e-17 0.0 0.010000013650027948

0.009999401053814777 0.0 1.3094083445557905e-16
0.0 0.01 0.0
1.3094083445557905e-16 0.0 0.010000018550051615

0.00999939305526176 0.0 4.236650160534103e-16
0.0 0.01 0.0
4.236650160534103e-16 0.0 0.010000023450082485

0.009999383557004981 0.0 2.374829100993534e-16
0.0 0.01 0.0
2.374829100993534e-16 0.0 0.010000031750151211

0.00999937305896319 0.0 -6.336116686619098e-17
0.0 0.01 0.0
-6.336116686619098e-17 0.0 0.010000039550234633

0.009999292075180728 0.0 3.4513628221988585e-18
0.0 0.01 0.0
3.4513628221988585e-18 0.0 0.010000009300012973

0.009999290075606054 0.0 -1.1560491965213724e-16
0.0 0.01 0.0
-1.1560491965213724e-16 0.0 0.010000010750017335

0.00999928707624629 0.0 -1.3346002589582058e-16
0.0 0.01 0.0
-1.3346002589582058e-16 0.0 0.010000013200026137

0.009999280577642726 0.0 -1.231342725270395e-16
0.0 0.01 0.0
-1.231342725270395e-16 0.0 0.010000016600041335

0.009999271079706466 0.0 -1.1429969642163026e-16
0.0 0.01 0.0
-1.1429969642163026e-16 0.0 0.0100000224500756

0.009999260582018929 0.0 1.699156034123632e-16
0.0 0.01 0.0
1.699156034123632e-16 0.0 0.01000003025013726

0.009999247085040679 0.0 2.853480219400734e-16
0.0 0.01 0.0
2.853480219400734e-16 0.0 0.010000039050228737

0.00999923358811708 0.0 4.213370633563527e-17
0.0 0.01 0.0
4.213370633563527e-17 0.0 0.010000051750401712

0.009999142110408811 0.0 3.59431787622448e-18
0.0 0.01 0.0
3.59431787622448e-18 0.0 0.010000012200022326

0.009999140110924102 0.0 -7.085368031272111e-18
0.0 0.01 0.0
-7.085368031272111e-18 0.0 0.010000013200026137

0.009999135612087887 0.0 -1.4965919469245814e-16
0.0 0.01 0.0
-1.4965919469245814e-16 0.0 0.010000016100038882

0.009999127114302718 0.0 -2.1563218152277796e-16
0.0 0.01 0.0
-2.1563218152277796e-16 0.0 0.010000020500063036

0.009999117116936141 0.0 -1.3076007739736226e-16
0.0 0.01 0.0
-1.3076007739736226e-16 0.0 0.010000027850116345

0.009999102620807868 0.0 2.9245365477878327e-16
0.0 0.01 0.0
2.9245365477878327e-16 0.0 0.010000036600200934

0.009999085625427421 0.0 4.3783500952750953e-16
0.0 0.01 0.0
4.3783500952750953e-16 0.0 0.010000048850357952

0.009999066130833033 0.0 -1.80044590450369e-16
0.0 0.01 0.0
-1.80044590450369e-16 0.0 0.010000064950632782

0.009998965660500864 0.0 1.1391182884293366e-18
0.0 0.01 0.0
1.1391182884293366e-18 0.0 0.010000015150034429

0.009998964160966605 0.0 -1.0963847051356366e-16
0.0 0.01 0.0
-1.0963847051356366e-16 0.0 0.010000016600041335

0.009998958162836321 0.0 -1.1817895853558708e-16
0.0 0.01 0.0
-1.1817895853558708e-16 0.0 0.01000002000006

0.009998948165976499 0.0 -2.701759964901637e-16
0.0 0.01 0.0
-2.701759964901637e-16 0.0 0.010000025400096774

0.009998933170742986 0.0 1.3402498716877628e-17
0.0 0.01 0.0
1.3402498716877628e-17 0.0 0.010000032700160396

0.009998914676714567 0.0 2.861561200140944e-16
0.0 0.01 0.0
2.861561200140944e-16 0.0 0.010000044900302403

0.009998892184115602 0.0 3.011870269853572e-16
0.0 0.01 0.0
3.011870269853572e-16 0.0 0.010000060050540905

0.009998866692686936 0.0 -3.292026093559868e-16
0.0 0.01 0.0
-3.292026093559868e-16 0.0 0.010000080100962414

0.009998756232082281 0.0 1.044599071129687e-18
0.0 0.01 0.0
1.044599071129687e-18 0.0 0.010000021000066152

0.00999875373301593 0.0 -1.51969916459242e-16
0.0 0.01 0.0
-1.51969916459242e-16 0.0 0.01000002195007227

0.009998746235828112 0.0 -1.4460175700277476e-16
0.0 0.01 0.0
-1.4460175700277476e-16 0.0 0.010000025400096774

0.009998734240362683 0.0 -2.785347949990243e-17
0.0 0.01 0.0
-2.785347949990243e-17 0.0 0.010000032250156011

0.00999871624724549 0.0 5.319877636360877e-16
0.0 0.01 0.0
5.319877636360877e-16 0.0 0.010000041000252152

0.009998692256573667 0.0 1.3903649219970155e-15
0.0 0.01 0.0
1.3903649219970155e-15 0.0 0.01000005420044065

0.00999866376787517 0.0 2.57304102142681e-15
0.0 0.01 0.0
2.57304102142681e-15 0.0 0.010000072250783018

0.009998631281060022 0.0 1.055870121518604e-15
0.0 0.01 0.0
1.055870121518604e-15 0.0 0.010000097151415742

0.009998509333379306 0.0 -2.3148641462412873e-18
0.0 0.01 0.0
-2.3148641462412873e-18 0.0 0.010000029300128773

0.009998506834498076 0.0 -1.1164592258940052e-16
0.0 0.01 0.0
-1.1164592258940052e-16 0.0 0.010000031250146485

0.00999849733876649 0.0 -7.428535394681618e-17
0.0 0.01 0.0
-7.428535394681618e-17 0.0 0.010000034200175447

0.009998481346016552 0.0 6.592612464074763e-16
0.0 0.01 0.0
6.592612464074763e-16 0.0 0.010000041000252152

0.009998459356110689 0.0 2.1838257158356433e-15
0.0 0.01 0.0
2.1838257158356433e-15 0.0 0.0100000508003871

0.009998430869402908 0.0 4.550494668914557e-15
0.0 0.01 0.0
4.550494668914557e-15 0.0 0.010000065900651429

0.009998394386781873 0.0 7.519931040529145e-15
0.0 0.01 0.0
7.519931040529145e-15 0.0 0.010000086901132759

0.009998351407768084 0.0 4.4036376322353434e-15
0.0 0.01 0.0
4.4036376322353434e-15 0.0 0.010000115702008011

0.009998217476721687 0.0 1.458324726765792e-18
0.0 0.01 0.0
1.458324726765792e-18 0.0 0.010000043950289743

0.009998213478862731 0.0 -6.835416407221325e-17
0.0 0.01 0.0
-6.835416407221325e-17 0.0 0.010000044450296371

0.009998202484775332 0.0 2.4721346832671607e-16
0.0 0.01 0.0
2.4721346832671607e-16 0.0 0.010000047850343446

0.009998184494528725 0.0 2.159753775959458e-15
0.0 0.01 0.0
2.159753775959458e-15 0.0 0.010000054700448817

0.0099981575093409 0.0 5.0056448870182215e-15
0.0 0.01 0.0
5.0056448870182215e-15 0.0 0.010000065450642562

0.009998122528867068 0.0 1.1151895895747394e-14
0.0 0.01 0.0
1.1151895895747394e-14 0.0 0.010000082051009844

0.009998077554511632 0.0 1.634598671443341e-14
0.0 0.01 0.0
1.634598671443341e-14 0.0 0.010000104001622429

0.009998023086382679 0.0 1.546965791415788e-14
0.0 0.01 0.0
1.546965791415788e-14 0.0 0.01000013720282364

0.009997874677741258 0.0 -1.3728593256319722e-18
0.0 0.01 0.0
-1.3728593256319722e-18 0.0 0.010000066400661351

0.00999786968093231 0.0 2.535730197380628e-16
0.0 0.01 0.0
2.535730197380628e-16 0.0 0.01000006785069055

0.009997858188300162 0.0 1.3481369804060989e-15
0.0 0.01 0.0
1.3481369804060989e-15 0.0 0.010000071300762563

0.00999783570283015 0.0 3.3834728195994827e-15
0.0 0.01 0.0
3.3834728195994827e-15 0.0 0.010000076650881295

0.00999780372375634 0.0 8.470564844821751e-15
0.0 0.01 0.0
8.470564844821751e-15 0.0 0.010000087901158979

0.009997761252023351 0.0 1.8461717051763757e-14
0.0 0.01 0.0
1.8461717051763757e-14 0.0 0.010000102551577503

0.009997706289407661 0.0 2.998148236539256e-14
0.0 0.01 0.0
2.998148236539256e-14 0.0 0.010000127452436579

0.00999764083511153 0.0 3.057491015999243e-14
0.0 0.01 0.0
3.057491015999243e-14 0.0 0.010000163103990352

0.00999747245859288 0.0 2.6446268485100373e-18
0.0 0.01 0.0
2.6446268485100373e-18 0.0 0.01000010060151808

0.009997468961247962 0.0 2.4701267744035497e-16
0.0 0.01 0.0
2.4701267744035497e-16 0.0 0.010000101551546887

0.00999745397266846 0.0 1.7061430986142459e-15
0.0 0.01 0.0
1.7061430986142459e-15 0.0 0.010000104501638067

0.009997428991852436 0.0 3.5900415348771775e-15
0.0 0.01 0.0
3.5900415348771775e-15 0.0 0.010000108901778914

0.009997392520197318 0.0 9.964884566578122e-15
0.0 0.01 0.0
9.964884566578122e-15 0.0 0.010000119652147463

0.009997342060072372 0.0 2.337421797983663e-14
0.0 0.01 0.0
2.337421797983663e-14 0.0 0.010000135252743946

0.009997275613746632 0.0 4.35401063494308e-14
0.0 0.01 0.0
4.35401063494308e-14 0.0 0.010000160153847307

0.009997196679231862 0.0 5.13613724702982e-14
0.0 0.01 0.0
5.13613724702982e-14 0.0 0.010000196305780246

0.009997011839898949 0.0 5.085030660358753e-19
0.0 0.01 0.0
5.085030660358753e-19 0.0 0.010000151853458851

0.009997006844383595 0.0 9.005991152137796e-17
0.0 0.01 0.0
9.005991152137796e-17 0.0 0.010000151853458851

0.009996990858784784 0.0 6.216624843916126e-16
0.0 0.01 0.0
6.216624843916126e-16 0.0 0.010000153803548257

0.009996962384626853 0.0 2.9224158665490907e-15
0.0 0.01 0.0
2.9224158665490907e-15 0.0 0.010000160153847306

0.00999692042315338 0.0 8.513064943083676e-15
0.0 0.01 0.0
8.513064943083676e-15 0.0 0.010000167954231198

0.009996861478166447 0.0 2.0352284786588003e-14
0.0 0.01 0.0
2.0352284786588003e-14 0.0 0.010000183105028995

0.009996784052013695 0.0 4.438908074771805e-14
0.0 0.01 0.0
4.438908074771805e-14 0.0 0.010000206556399657

0.009996689144990295 0.0 6.221464473801478e-14
0.0 0.01 0.0
6.221464473801478e-14 0.0 0.010000242708835854

0.009996494344305318 0.0 -5.422770658568067e-19
0.0 0.01 0.0
-5.422770658568067e-19 0.0 0.010000221707372905

0.009996489349565704 0.0 5.435216004294814e-17
0.0 0.01 0.0
5.435216004294814e-17 0.0 0.010000223157469667

0.009996471368565076 0.0 -5.082138070739513e-16
0.0 0.01 0.0
-5.082138070739513e-16 0.0 0.010000226557699025

0.00999643890311525 0.0 -2.968690565625242e-16
0.0 0.01 0.0
-2.968690565625242e-16 0.0 0.010000232408101778

0.009996391454180645 0.0 -1.514406943140982e-15
0.0 0.01 0.0
-1.514406943140982e-15 0.0 0.01000024270883585

0.009996325026807293 0.0 2.516135962255555e-15
0.0 0.01 0.0
2.516135962255555e-15 0.0 0.010000254909746516

0.009996237624386204 0.0 1.1649845534923654e-14
0.0 0.01 0.0
1.1649845534923654e-14 0.0 0.010000275411377296

0.00999612625205162 0.0 1.511572601166208e-14
0.0 0.01 0.0
1.511572601166208e-14 0.0 0.010000309564373921

0.009995944967827125 0.0 2.7581011501264085e-18
0.0 0.01 0.0
2.7581011501264085e-18 0.0 0.010000319365298478

0.009995939474519745 0.0 -4.136989942104849e-16
0.0 0.01 0.0
-4.136989942104849e-16 0.0 0.010000319815341623

0.009995919498932884 0.0 -1.9436139303790068e-15
0.0 0.01 0.0
-1.9436139303790068e-15 0.0 0.01000032471581537

0.009995884541944038 0.0 -8.914543061858237e-15
0.0 0.01 0.0
-8.914543061858237e-15 0.0 0.010000333516684265

0.009995831607773377 0.0 -2.9465574728844445e-14
0.0 0.01 0.0
-2.9465574728844445e-14 0.0 0.010000345217875484

0.009995757201728909 0.0 -7.165625652458497e-14
0.0 0.01 0.0
-7.165625652458497e-14 0.0 0.010000360869533084

0.009995658828502637 0.0 -1.4277466660952464e-13
0.0 0.01 0.0
-1.4277466660952464e-13 0.0 0.010000381371815558

0.009995532994903883 0.0 -2.326872314208004e-13
0.0 0.01 0.0
-2.326872314208004e-13 0.0 0.010000410675296747

0.009995412658487125 0.0 -1.3104964346363014e-18
0.0 0.01 0.0
-1.3104964346363014e-18 0.0 0.010000443379486062

0.00999540616743466 0.0 -1.4270662931076288e-15
0.0 0.01 0.0
-1.4270662931076288e-15 0.0 0.010000446829946765

0.009995384197812462 0.0 -9.564573028098382e-15
0.0 0.01 0.0
-9.564573028098382e-15 0.0 0.010000455131069758

0.009995345252020046 0.0 -3.899879347197891e-14
0.0 0.01 0.0
-3.899879347197891e-14 0.0 0.010000470233165805

0.009995286834184994 0.0 -1.18959619402997e-13
0.0 0.01 0.0
-1.18959619402997e-13 0.0 0.010000488335768446

0.009995204451799394 0.0 -2.9187087048079056e-13
0.0 0.01 0.0
-2.9187087048099735e-13 0.0 0.010000509338911273

0.009995096109581221 0.0 -5.813078234461227e-13
0.0 0.01 0.0
-5.813078234459159e-13 0.0 0.010000531292337734

0.009994955819132574 0.0 -9.523806009909026e-13
0.0 0.01 0.0
-9.52380600990489e-13 0.0 0.01000055814672569

0.009994970297232909 0.0 4.141318401074275e-19
0.0 0.01 0.0
4.141318401074275e-19 0.0 0.010000599153843498

0.009994961310818397 0.0 -6.132743162229876e-15
0.0 0.01 0.0
-6.132743162229876e-15 0.0 0.010000605054909286

0.009994935849442242 0.0 -3.278170029256865e-14
0.0 0.01 0.0
-3.278170029256865e-14 0.0 0.010000622608141307

0.00999489391348216 0.0 -1.1639747724738908e-13
0.0 0.01 0.0
-1.1639747724738908e-13 0.0 0.010000647012788416

0.009994830012081799 0.0 -3.382860717774359e-13
0.0 0.01 0.0
-3.382860717774359e-13 0.0 0.010000678269001088

0.009994739154388437 0.0 -7.991095384572095e-13
0.0 0.01 0.0
-7.991095384572095e-13 0.0 0.010000711025826472

0.009994620843413885 0.0 -1.523605514566769e-12
0.0 0.01 0.0
-1.523605514566769e-12 0.0 0.010000740782305636

0.009994469591198566 0.0 -2.3325989558730043e-12
0.0 0.01 0.0
-2.3325989558725907e-12 0.0 0.010000771089177614

0.009994710200259535 0.0 2.4919640869349163e-18
0.0 0.01 0.0
2.4919640869349163e-18 0.0 0.010000787192941153

0.009994700715340992 0.0 -1.2107152262124109e-14
0.0 0.01 0.0
-1.2107152262124109e-14 0.0 0.010000795995031127

0.009994673758351516 0.0 -6.788876179826823e-14
0.0 0.01 0.0
-6.788876179826823e-14 0.0 0.01000082675251666

0.009994627332936493 0.0 -2.4435532671737246e-13
0.0 0.01 0.0
-2.4435532671742416e-13 0.0 0.010000869763460115

0.009994557446434911 0.0 -7.066761086237139e-13
0.0 0.01 0.0
-7.066761086239207e-13 0.0 0.010000922977767468

0.00999446060613453 0.0 -1.6259785865228726e-12
0.0 0.01 0.0
-1.6259785865228726e-12 0.0 0.010000975742792524

0.009994335316933153 0.0 -2.9250557191683036e-12
0.0 0.01 0.0
-2.9250557191683036e-12 0.0 0.01000102310699077

0.00999417459425943 0.0 -4.015034325338735e-12
0.0 0.01 0.0
-4.015034325339562e-12 0.0 0.010001072922649751

0.0099947576252573 0.0 7.257295863059519e-19
0.0 0.01 0.0
7.257295863059519e-19 0.0 0.01000100600178558

0.009994747640991144 0.0 -9.317884611386141e-15
0.0 0.01 0.0
-9.317884611386141e-15 0.0 0.010001022106683959

0.009994718187580307 0.0 -7.598066083003606e-14
0.0 0.01 0.0
-7.598066083003606e-14 0.0 0.010001069021396584

0.00999466826713966 0.0 -3.4457541868018777e-13
0.0 0.01 0.0
-3.4457541868018777e-13 0.0 0.010001141295353535

0.009994594885449867 0.0 -1.0901987914127194e-12
0.0 0.01 0.0
-1.0901987914125126e-12 0.0 0.010001226775709877

0.0099944950490116 0.0 -2.4967493135093056e-12
0.0 0.01 0.0
-2.496749313508892e-12 0.0 0.010001314709223608

0.00999436676358063 0.0 -4.148586871284414e-12
0.0 0.01 0.0
-4.148586871285241e-12 0.0 0.010001398243207947

0.009994204042864779 0.0 -4.521878544443364e-12
0.0 0.01 0.0
-4.521878544443364e-12 0.0 0.01000149008298594

0.009995262868189992 0.0 -4.2481557285048674e-19
0.0 0.01 0.0
-4.2481557285048674e-19 0.0 0.010001255136265517

0.00999525288240962 0.0 1.7366037815716917e-14
0.0 0.01 0.0
1.7366037815716917e-14 0.0 0.010001280045735623

0.009995223424531898 0.0 8.539408230584762e-15
0.0 0.01 0.0
8.539408230584762e-15 0.0 0.010001352324267685

0.009995171998691628 0.0 -2.6020836266681707e-13
0.0 0.01 0.0
-2.6020836266681707e-13 0.0 0.01000146322108975

0.009995098605906045 0.0 -1.1506716048927512e-12
0.0 0.01 0.0
-1.150671604892958e-12 0.0 0.010001595131585559

0.009995002748376008 0.0 -2.7591215661795402e-12
0.0 0.01 0.0
-2.7591215661795402e-12 0.0 0.010001735301586254

0.009994879934946101 0.0 -3.878688757782288e-12
0.0 0.01 0.0
-3.878688757782288e-12 0.0 0.010001880430269746

0.009994729669387463 0.0 -1.6282499420216536e-12
0.0 0.01 0.0
-1.6282499420216536e-12 0.0 0.010002045527456253

0.00999638945634559 0.0 -8.146107773990905e-19
0.0 0.01 0.0
-8.146107773990905e-19 0.0 0.010001533552695462

0.00999638146501735 0.0 7.981390602170731e-14
0.0 0.01 0.0
7.981390602170731e-14 0.0 0.010001570169737545

0.009996353495519436 0.0 2.3994962848348676e-13
0.0 0.01 0.0
2.3994962848343506e-13 0.0 0.010001673770132209

0.00999630804558604 0.0 1.825288319462635e-13
0.0 0.01 0.0
1.825288319462635e-13 0.0 0.010001834504687668

0.009996243617621869 0.0 -5.251704959216484e-13
0.0 0.01 0.0
-5.251704959216484e-13 0.0 0.010002029417613257

0.009996160212727763 0.0 -1.6818632262239556e-12
0.0 0.01 0.0
-1.6818632262239556e-12 0.0 0.010002242954401053

0.009996055834693745 0.0 -9.710782385719293e-13
0.0 0.01 0.0
-9.710782385719293e-13 0.0 0.010002476519668771

0.009995935479392792 0.0 6.136167042403561e-12
0.0 0.01 0.0
6.136167042403561e-12 0.0 0.010002751134895172

0.009998251958454238 0.0 -1.2157741400456404e-18
0.0 0.01 0.0
-1.2157741400456404e-18 0.0 0.01000183595548614

0.009998244962131829 0.0 1.7317940484025173e-13
0.0 0.01 0.0
1.7317940484025173e-13 0.0 0.010001885783292704

0.00999822597218789 0.0 6.096834028261173e-13
0.0 0.01 0.0
6.096834028259105e-13 0.0 0.010002030418222355

0.009998192989910856 0.0 9.897442349807853e-13
0.0 0.01 0.0
9.897442349811989e-13 0.0 0.010002252710977438

0.009998147514882337 0.0 8.841736158573689e-13
0.0 0.01 0.0
8.841736158573689e-13 0.0 0.010002525856670592

0.009998092046182109 0.0 8.594172977025128e-13
0.0 0.01 0.0
8.594172977025128e-13 0.0 0.010002834204452063

0.00999802608460516 0.0 4.303699008786594e-12
0.0 0.01 0.0
4.303699008784939e-12 0.0 0.010003178264563001

0.009997955127396653 0.0 1.6930145619730733e-11
0.0 0.01 0.0
1.693014561973735e-11 0.0 0.010003591784210748

0.01000082285155156 0.0 -6.654151231370646e-18
0.0 0.01 0.0
-6.654151231370646e-18 0.0 0.010002155496724677

0.01000082140119391 0.0 2.632880824378981e-13
0.0 0.01 0.0
2.632880824374845e-13 0.0 0.010002221440000167

0.01000081454951283 0.0 9.784637271566186e-13
0.0 0.01 0.0
9.784637271557914e-13 0.0 0.010002410521311903

0.010000804297023652 0.0 1.8496867924822843e-12
0.0 0.01 0.0
1.8496867924839386e-12 0.0 0.010002703746141312

0.010000791593983236 0.0 2.5175649816315414e-12
0.0 0.01 0.0
2.5175649816331957e-12 0.0 0.010003065859347902

0.010000778890991229 0.0 3.740281591306732e-12
0.0 0.01 0.0
3.740281591305077e-12 0.0 0.010003480316047227

0.010000768638611717 0.0 9.335460897461529e-12
0.0 0.01 0.0
9.335460897464837e-12 0.0 0.010003953493281108

0.010000767688392774 0.0 2.5100579724219168e-11
0.0 0.01 0.0
2.5100579724219168e-11 0.0 0.01000452702223507

0.010003854277173289 0.0 1.5949153643202122e-17
0.0 0.01 0.0
1.5949153643202122e-17 0.0 0.01000247897149036

0.01000385673000818 0.0 2.96827496780066e-13
0.0 0.01 0.0
2.96827496780066e-13 0.0 0.010002561533882336

0.0100038674924683 0.0 1.1255469810395422e-12
0.0 0.01 0.0
1.1255469810378878e-12 0.0 0.010002798524322565

0.010003888016325738 0.0 2.248739173487583e-12
0.0 0.01 0.0
2.2487391734809655e-12 0.0 0.010003164101097065

0.010003917851231586 0.0 3.352186146961304e-12
0.0 0.01 0.0
3.352186146961304e-12 0.0 0.010003621616466273

0.01000395985082155 0.0 5.108979841784545e-12
0.0 0.01 0.0
5.108979841784545e-12 0.0 0.01000414662775301

0.01000401902158248 0.0 1.0751203681495694e-11
0.0 0.01 0.0
1.0751203681495694e-11 0.0 0.010004749982207507

0.010004102122731784 0.0 2.5034878388802807e-11
0.0 0.01 0.0
2.5034878388802807e-11 0.0 0.010005475193380953

0.010006846875541603 0.0 6.253780668882959e-18
0.0 0.01 0.0
6.253780668882959e-18 0.0 0.010002787765312156

0.01000685664559674 0.0 2.448577150009593e-13
0.0 0.01 0.0
2.448577150011661e-13 0.0 0.01000288649930091

0.01000688700810458 0.0 9.411237152079204e-13
0.0 0.01 0.0
9.411237152079204e-13 0.0 0.010003169456181356

0.010006937863419177 0.0 1.900938055403239e-12
0.0 0.01 0.0
1.900938055403239e-12 0.0 0.010003605448952384

0.01000701271984452 0.0 2.8388526193989396e-12
0.0 0.01 0.0
2.838852619400594e-12 0.0 0.010004151033231738

0.010007115487325219 0.0 4.070374008956648e-12
0.0 0.01 0.0
4.070374008959957e-12 0.0 0.010004779324108764

0.01000724812268362 0.0 7.693121388173101e-12
0.0 0.01 0.0
7.693121388173101e-12 0.0 0.010005497229609818

0.010007418396734006 0.0 1.674055445863777e-11
0.0 0.01 0.0
1.674055445863777e-11 0.0 0.010006353199346662

0.010009172755498385 0.0 -1.140244763473532e-18
0.0 0.01 0.0
-1.140244763473532e-18 0.0 0.01000306535888792

0.010009187445881978 0.0 1.4589155143150954e-13
0.0 0.01 0.0
1.4589155143156124e-13 0.0 0.010003177764086152

0.010009233974213189 0.0 5.549893842277905e-13
0.0 0.01 0.0
5.549893842277905e-13 0.0 0.01000349988652381

0.010009313795879004 0.0 1.085853344880959e-12
0.0 0.01 0.0
1.085853344880959e-12 0.0 0.010003996043979557

0.010009429320063663 0.0 1.470693225533691e-12
0.0 0.01 0.0
1.4706932255341045e-12 0.0 0.010004615493451649

0.010009586517598767 0.0 1.7055713311278912e-12
0.0 0.01 0.0
1.7055713311278912e-12 0.0 0.01000532605200484

0.010009786297019319 0.0 2.7378292629014074e-12
0.0 0.01 0.0
2.7378292629014074e-12 0.0 0.010006133588524743

0.010010035085254481 0.0 6.213640107485301e-12
0.0 0.01 0.0
6.21364010748861e-12 0.0 0.010007081715507404

0.010010387261895804 0.0 8.834016218654955e-19
0.0 0.01 0.0
8.834016218654955e-19 0.0 0.010003294126976266

0.010010406371375409 0.0 5.4603268027072274e-14
0.0 0.01 0.0
5.4603268027072274e-14 0.0 0.01000341730089401

0.010010464653456265 0.0 2.0100981248607612e-13
0.0 0.01 0.0
2.0100981248607612e-13 0.0 0.010003769229993718

0.010010564066376968 0.0 3.4293343420052153e-13
0.0 0.01 0.0
3.4293343420041814e-13 0.0 0.010004310885959277

0.010010711034394798 0.0 2.6769802303113024e-13
0.0 0.01 0.0
2.6769802303133703e-13 0.0 0.01000498612674128

0.010010906466741137 0.0 -1.8748163770901382e-13
0.0 0.01 0.0
-1.8748163770901382e-13 0.0 0.010005753010764503

0.010011156341861987 0.0 -7.466875889107502e-13
0.0 0.01 0.0
-7.46687588910957e-13 0.0 0.01000661590975246

0.010011462076806227 0.0 -6.111159900048758e-13
0.0 0.01 0.0
-6.11115990004669e-13 0.0 0.010007619048648062

0.010010498459535914 0.0 3.171378073242238e-18
0.0 0.01 0.0
3.171378073242238e-18 0.0 0.010003463698750619

0.010010519024232617 0.0 5.7655437146407925e-15
0.0 0.01 0.0
5.7655437146407925e-15 0.0 0.010003592735234905

0.010010584631478006 0.0 1.022353403533659e-14
0.0 0.01 0.0
1.022353403533659e-14 0.0 0.010003965257243433

0.010010694882644156 0.0 -3.567233314856522e-14
0.0 0.01 0.0
-3.567233314856522e-14 0.0 0.010004536785496895

0.010010858008885858 0.0 -2.5723518197311183e-13
0.0 0.01 0.0
-2.5723518197316353e-13 0.0 0.01000524532412934

0.010011075974443662 0.0 -7.994151310860176e-13
0.0 0.01 0.0
-7.994151310860176e-13 0.0 0.01000604647956944

0.010011353305404761 0.0 -1.63878146353102e-12
0.0 0.01 0.0
-1.63878146353102e-12 0.0 0.010006937863419177

0.010011686454106874 0.0 -2.4435608020909646e-12
0.0 0.01 0.0
-2.4435608020909646e-12 0.0 0.01000796260036367

0.010009871046421112 0.0 -1.8008384834995018e-18
0.0 0.01 0.0
-1.8008384834995018e-18 0.0 0.010003570261104874

0.010009892108736587 0.0 -7.563204733661265e-15
0.0 0.01 0.0
-7.563204733661265e-15 0.0 0.010003703206045027

0.010009958706647011 0.0 -3.245256604459069e-14
0.0 0.01 0.0
-3.245256604459069e-14 0.0 0.010004086002949362

0.010010070842879058 0.0 -9.313163332546034e-14
0.0 0.01 0.0
-9.313163332546034e-14 0.0 0.010004673173743013

0.010010236396146158 0.0 -2.3674025766929007e-13
0.0 0.01 0.0
-2.3674025766929007e-13 0.0 0.010005399369833138

0.010010458785076738 0.0 -5.273907111420128e-13
0.0 0.01 0.0
-5.273907111415992e-13 0.0 0.010006213285944792

0.010010742886678737 0.0 -9.919701631881569e-13
0.0 0.01 0.0
-9.919701631885705e-13 0.0 0.010007111578996466

0.010011079887419207 0.0 -1.5010910115150628e-12
0.0 0.01 0.0
-1.5010910115134084e-12 0.0 0.0100081373717572

0.010008946541785755 0.0 1.8057212190548614e-18
0.0 0.01 0.0
1.8057212190548614e-18 0.0 0.010003615259570655

0.010008966144361768 0.0 -2.749505685186377e-15
0.0 0.01 0.0
-2.749505685186377e-15 0.0 0.010003749157373669

0.010009030267147726 0.0 -1.1039191372151452e-14
0.0 0.01 0.0
-1.1039191372151452e-14 0.0 0.01000413486315084

0.010009139464220005 0.0 -2.6631890939654617e-14
0.0 0.01 0.0
-2.6631890939654617e-14 0.0 0.010004724546092449

0.010009298102146905 0.0 -5.488882432528205e-14
0.0 0.01 0.0
-5.488882432528205e-14 0.0 0.01000545320737953

0.010009513558970071 0.0 -1.0423800790464984e-13
0.0 0.01 0.0
-1.0423800790464984e-13 0.0 0.010006267136631

0.010009785845696903 0.0 -1.7303593962825445e-13
0.0 0.01 0.0
-1.7303593962825445e-13 0.0 0.01000716053365001

0.010010109058323592 0.0 -2.2691917828481654e-13
0.0 0.01 0.0
-2.2691917828460975e-13 0.0 0.010008174061380022

0.010008016930381076 0.0 -2.9629301911515898e-18
0.0 0.01 0.0
-2.9629301911515898e-18 0.0 0.010003602045275234

0.01000803652749564 0.0 2.8209183448762865e-15
0.0 0.01 0.0
2.8209183448762865e-15 0.0 0.010003734490922197

0.010008095269408539 0.0 1.0881863133807671e-14
0.0 0.01 0.0
1.0881863133807671e-14 0.0 0.010004117291418077

0.010008198571475824 0.0 2.2904339613682657e-14
0.0 0.01 0.0
2.2904339613682657e-14 0.0 0.010004702514968482

0.010008347841345772 0.0 4.0933166203070423e-14
0.0 0.01 0.0
4.0933166203070423e-14 0.0 0.010005422857920925

0.010008549050456535 0.0 7.87300913616253e-14
0.0 0.01 0.0
7.87300913615219e-14 0.0 0.010006225558815387

0.010008803110584495 0.0 1.7095559704244823e-13
0.0 0.01 0.0
1.7095559704286182e-13 0.0 0.01000710521544534

0.01000910567190668 0.0 3.7618290262256944e-13
0.0 0.01 0.0
3.7618290262256944e-13 0.0 0.01000809867767414

0.010007149259484958 0.0 1.623254903100296e-18
0.0 0.01 0.0
1.623254903100296e-18 0.0 0.010003538477237473

0.010007167849350835 0.0 5.3860752490249815e-15
0.0 0.01 0.0
5.3860752490249815e-15 0.0 0.010003667566670591

0.010007221665341789 0.0 1.6782085672272794e-14
0.0 0.01 0.0
1.6782085672272794e-14 0.0 0.01000404249995031

0.010007317123215767 0.0 2.5766091619840455e-14
0.0 0.01 0.0
2.5766091619840455e-14 0.0 0.010004615493451649

0.010007455128562036 0.0 2.1645442072955537e-14
0.0 0.01 0.0
2.1645442072955537e-14 0.0 0.010005319691859372

0.010007640597897981 0.0 2.2328346597016344e-14
0.0 0.01 0.0
2.2328346597016344e-14 0.0 0.010006103232874354

0.010007875994932877 0.0 9.563223146528864e-14
0.0 0.01 0.0
9.563223146528864e-14 0.0 0.010006960861298795

0.010008156919456843 0.0 3.8953323597813036e-13
0.0 0.01 0.0
3.895332359814391e-13 0.0 0.010007932278183319

0.01000624168894256 0.0 1.4300023899363978e-18
0.0 0.01 0.0
1.4300023899363978e-18 0.0 0.010003431465435494

0.010006258821026414 0.0 7.123467960317828e-15
0.0 0.01 0.0
7.123467960317828e-15 0.0 0.01000355709704115

0.010006309165817155 0.0 2.0963851175167726e-14
0.0 0.01 0.0
2.0963851175167726e-14 0.0 0.010003918802348744

0.010006396732497327 0.0 1.94772521130497e-14
0.0 0.01 0.0
1.94772521130497e-14 0.0 0.010004473199638122

0.010006522976837594 0.0 -2.52592915288036e-14
0.0 0.01 0.0
-2.5259291528855297e-14 0.0 0.010005153881638156

0.010006695217894027 0.0 -9.72657727948795e-14
0.0 0.01 0.0
-9.72657727948795e-14 0.0 0.010005912489499141

0.010006912410613083 0.0 -7.202159200947087e-14
0.0 0.01 0.0
-7.202159200947087e-14 0.0 0.010006741661376712

0.010007172258822097 0.0 2.9569748431210873e-13
0.0 0.01 0.0
2.9569748431128155e-13 0.0 0.01000768023885849

0.01000516414751031 0.0 4.960262783580098e-17
0.0 0.01 0.0
4.960262783580098e-17 0.0 0.010003288221148971

0.010005180773282489 0.0 1.1904927227353835e-14
0.0 0.01 0.0
1.1904927227353835e-14 0.0 0.010003408992392373

0.010005226244191165 0.0 3.763036794510613e-14
0.0 0.01 0.0
3.763036794510613e-14 0.0 0.010003754062890608

0.010005306470808389 0.0 4.796022228992716e-14
0.0 0.01 0.0
4.796022228992716e-14 0.0 0.01000428204882185

0.010005420904747403 0.0 -4.872041963132283e-16
0.0 0.01 0.0
-4.872041963132283e-16 0.0 0.010004934299695767

0.010005576461071914 0.0 -8.713681374394004e-14
0.0 0.01 0.0
-8.713681374394004e-14 0.0 0.010005660552653523

0.01000577499874236 0.0 -4.1413976875735633e-14
0.0 0.01 0.0
-4.1413976875735633e-14 0.0 0.010006453040890527

0.010006017126517908 0.0 5.438989629219788e-13
0.0 0.01 0.0
5.438989629211516e-13 0.0 0.010007350847306659

0.010003886564634107 0.0 -2.523830928937716e-19
0.0 0.01 0.0
-2.523830928937716e-19 0.0 0.010003117657362292

0.010003897777716896 0.0 1.8518974679634746e-14
0.0 0.01 0.0
1.8518974679634746e-14 0.0 0.010003231065293081

0.010003937874808017 0.0 6.879148535681886e-14
0.0 0.01 0.0
6.879148535681886e-14 0.0 0.010003558048055416

0.010004006806889319 0.0 1.1643635343057788e-13
0.0 0.01 0.0
1.1643635343057788e-13 0.0 0.010004055215382708

0.010004107028767988 0.0 1.1598770468207741e-13
0.0 0.01 0.0
1.15987704682491e-13 0.0 0.010004670269676715

0.010004243399438461 0.0 8.876920186278184e-14
0.0 0.01 0.0
8.876920186278184e-14 0.0 0.010005354898171193

0.010004419928639397 0.0 2.699703630989027e-13
0.0 0.01 0.0
2.699703630989027e-13 0.0 0.010006104685531196

0.010004640428038515 0.0 1.1876292411230638e-12
0.0 0.01 0.0
1.187629241123891e-12 0.0 0.010006951090938408

0.010002513647445976 0.0 2.575500477878797e-17
0.0 0.01 0.0
2.575500477878797e-17 0.0 0.010002929486781293

0.010002524405571886 0.0 2.3405952886046367e-14
0.0 0.01 0.0
2.340595288594297e-14 0.0 0.010003035081198732

0.01000255417824082 0.0 8.669525826275248e-14
0.0 0.01 0.0
8.669525826275248e-14 0.0 0.010003337620213014

0.01000260842022358 0.0 1.708735862400554e-13
0.0 0.01 0.0
1.708735862400554e-13 0.0 0.010003800515490333

0.0100026875830773 0.0 2.3712186538511507e-13
0.0 0.01 0.0
2.3712186538511507e-13 0.0 0.010004374919314057

0.010002797073105184 0.0 3.151990704991879e-13
0.0 0.01 0.0
3.151990704996015e-13 0.0 0.010005011564851528

0.010002943198853208 0.0 6.580538838814732e-13
0.0 0.01 0.0
6.580538838823004e-13 0.0 0.010005707532673472

0.010003134272934469 0.0 1.8706675306752078e-12
0.0 0.01 0.0
1.8706675306752078e-12 0.0 0.010006495573394218

0.010001227776078104 0.0 -2.987778150060132e-17
0.0 0.01 0.0
-2.987778150060132e-17 0.0 0.010002729617214903

0.010001233128053224 0.0 1.804481596846256e-14
0.0 0.01 0.0
1.804481596846256e-14 0.0 0.010002825897403247

0.010001254135889079 0.0 7.597883882308224e-14
0.0 0.01 0.0
7.597883882308224e-14 0.0 0.010003102493222601

0.010001289299301044 0.0 1.6992135143162277e-13
0.0 0.01 0.0
1.6992135143182957e-13 0.0 0.010003528216368589

0.010001343020507172 0.0 2.67565055160797e-13
0.0 0.01 0.0
2.67565055160797e-13 0.0 0.010004055215382704

0.010001421202915261 0.0 3.9271413115371344e-13
0.0 0.01 0.0
3.9271413115371344e-13 0.0 0.010004638976019312

0.010001530601339369 0.0 7.717229793391289e-13
0.0 0.01 0.0
7.717229793395425e-13 0.0 0.010005278576565945

0.010001684975775853 0.0 1.970973298596233e-12
0.0 0.01 0.0
1.97097329859706e-12 0.0 0.010006000997476694

0.010000169454307116 0.0 1.2816664660938429e-17
0.0 0.01 0.0
1.2816664660938429e-17 0.0 0.010002524905950678

0.010000173854533705 0.0 9.669990006248094e-15
0.0 0.01 0.0
9.669990006248094e-15 0.0 0.010002612373317706

0.010000182154976946 0.0 4.294536212431226e-14
0.0 0.01 0.0
4.294536212431226e-14 0.0 0.01000286157782567

0.010000199205952291 0.0 1.0978338763523747e-13
0.0 0.01 0.0
1.0978338763523747e-13 0.0 0.01000324863235641

0.010000228507832136 0.0 1.9296429305986103e-13
0.0 0.01 0.0
1.9296429305986103e-13 0.0 0.010003724730009019

0.01000027346121675 0.0 2.898390970967065e-13
0.0 0.01 0.0
2.898390970966031e-13 0.0 0.010004254663785038

0.010000346217979206 0.0 5.225684912721797e-13
0.0 0.01 0.0
5.225684912717661e-13 0.0 0.010004832100123593

0.010000460481804573 0.0 1.3001287787103693e-12
0.0 0.01 0.0
1.3001287787107829e-12 0.0 0.010005489867489887

0.009999390055809326 0.0 -4.55800669203093e-18
0.0 0.01 0.0
-4.55800669203093e-18 0.0 0.010002322608926318

0.009999390055809326 0.0 -3.004649812836801e-15
0.0 0.01 0.0
-3.004649812836801e-15 0.0 0.010002401264633943

0.009999391055626503 0.0 3.983235913730118e-15
0.0 0.01 0.0
3.983235913730118e-15 0.0 0.010002624582903847

0.009999392555352832 0.0 3.006916610107871e-14
0.0 0.01 0.0
3.006916610107871e-14 0.0 0.010002968120938512

0.0099994000539946 0.0 7.373535166107458e-14
0.0 0.01 0.0
7.373535166102289e-14 0.0 0.010003393826927706

0.009999420550368177 0.0 1.1534034524887044e-13
0.0 0.01 0.0
1.1534034524887044e-13 0.0 0.01000386944473223

0.009999463043251479 0.0 1.6119656200209038e-13
0.0 0.01 0.0
1.6119656200219378e-13 0.0 0.010004386184104892

0.009999546030915062 0.0 3.1297002242772804e-13
0.0 0.01 0.0
3.1297002242762465e-13 0.0 0.010004976862910743

0.009998862194219763 0.0 -2.4249720104972126e-18
0.0 0.01 0.0
-2.4249720104972126e-18 0.0 0.010002130580712748

0.009998860194902969 0.0 -1.0439209777349204e-14
0.0 0.01 0.0
-1.0439209777349204e-14 0.0 0.010002198975111128

0.009998854696787969 0.0 -3.386174549245396e-14
0.0 0.01 0.0
-3.386174549245396e-14 0.0 0.01000239586074734

0.00999884819902739 0.0 -4.734773362572522e-14
0.0 0.01 0.0
-4.734773362572522e-14 0.0 0.010002698842169339

0.009998843200758637 0.0 -3.103620476115716e-14
0.0 0.01 0.0
-3.103620476115716e-14 0.0 0.01000307321611831

0.009998847199373037 0.0 2.359921342033372e-14
0.0 0.01 0.0
2.359921342033372e-14 0.0 0.010003493529860252

0.009998870691329521 0.0 6.717569543295576e-14
0.0 0.01 0.0
6.717569543295576e-14 0.0 0.01000395544559539

0.009998936169784294 0.0 -5.769019912014039e-14
0.0 0.01 0.0
-5.769019912014039e-14 0.0 0.010004485916712885

0.009998525826042413 0.0 6.85862612297291e-19
0.0 0.01 0.0
6.85862612297291e-19 0.0 0.010001949319829064

0.009998523826927386 0.0 -2.0758224994433686e-14
0.0 0.01 0.0
-2.0758224994433686e-14 0.0 0.010002009405494339

0.009998515330701903 0.0 -7.461292437537433e-14
0.0 0.01 0.0
-7.461292437534848e-14 0.0 0.01000217891194175

0.00999850433561872 0.0 -1.3167911196352005e-13
0.0 0.01 0.0
-1.3167911196357175e-13 0.0 0.010002441343732956

0.009998494839894258 0.0 -1.1076840379043018e-13
0.0 0.01 0.0
-1.1076840379037848e-13 0.0 0.010002768249056302

0.009998496339217374 0.0 1.1619331952153195e-13
0.0 0.01 0.0
1.1619331952148025e-13 0.0 0.010003138677075914

0.009998517829589505 0.0 6.041946157964754e-13
0.0 0.01 0.0
6.041946157964754e-13 0.0 0.010003554143893308

0.009998580802175548 0.0 1.1203918250296501e-12
0.0 0.01 0.0
1.1203918250296501e-12 0.0 0.010004034690496178

0.009998321422737856 0.0 1.2597330581583024e-18
0.0 0.01 0.0
1.2597330581583024e-18 0.0 0.010001781726069069

0.009998319923493428 0.0 -3.569016057568741e-14
0.0 0.01 0.0
-3.569016057568741e-14 0.0 0.01000183255361486

0.00999831392652245 0.0 -1.347053776416563e-13
0.0 0.01 0.0
-1.347053776416563e-13 0.0 0.010001975685345691

0.009998304931086225 0.0 -2.379790774744022e-13
0.0 0.01 0.0
-2.379790774744022e-13 0.0 0.01000220187702592

0.009998299433887145 0.0 -1.6062104559062082e-13
0.0 0.01 0.0
-1.6062104559062082e-13 0.0 0.01000248527618274

0.009998304931086223 0.0 4.785867448543562e-13
0.0 0.01 0.0
4.785867448543562e-13 0.0 0.010002813186657761

0.00999833691496979 0.0 2.116233572604591e-12
0.0 0.01 0.0
2.116233572604591e-12 0.0 0.010003189525312072

0.009998414377209695 0.0 4.402234304255734e-12
0.0 0.01 0.0
4.402234304255734e-12 0.0 0.010003634780784714

0.009998215477791608 0.0 -2.2243660244826617e-18
0.0 0.01 0.0
-2.2243660244826617e-18 0.0 0.010001628797860965

0.009998213478862735 0.0 -5.68289660407164e-14
0.0 0.01 0.0
-5.68289660407164e-14 0.0 0.010001670318401355

0.009998209481008574 0.0 -2.0955308265544005e-13
0.0 0.01 0.0
-2.0955308265544005e-13 0.0 0.01000179103105396

0.009998207981814498 0.0 -3.3756347207170835e-13
0.0 0.01 0.0
-3.3756347207150155e-13 0.0 0.010001981538818842

0.009998212479398744 0.0 -6.59429300859419e-14
0.0 0.01 0.0
-6.59429300859419e-14 0.0 0.010002226343270016

0.009998234967411005 0.0 1.4212188565504344e-12
0.0 0.01 0.0
1.4212188565504344e-12 0.0 0.010002520952960255

0.009998288439516199 0.0 5.046025464274219e-12
0.0 0.01 0.0
5.046025464272565e-12 0.0 0.010002872337074259

0.00999839488654111 0.0 2.6615479123025786e-11
0.0 0.01 0.0
2.6615479123025786e-11 0.0 0.010003298981774336

0.009998187492896415 0.0 4.4380840327695405e-18
0.0 0.01 0.0
4.4380840327695405e-18 0.0 0.010001485681021643

0.009998187992624627 0.0 -7.269849955939367e-14
0.0 0.01 0.0
-7.269849955934197e-14 0.0 0.010001518895986683

0.009998190990995467 0.0 -2.4272239206737526e-13
0.0 0.01 0.0
-2.4272239206727186e-13 0.0 0.010001620493814941

0.009998199986124164 0.0 -2.653710800183888e-13
0.0 0.01 0.0
-2.653710800182854e-13 0.0 0.010001781726069072

0.009998221474585439 0.0 5.679729053211306e-13
0.0 0.01 0.0
5.679729053211306e-13 0.0 0.01000199914932995

0.009998268449843748 0.0 3.641347486853469e-12
0.0 0.01 0.0
3.641347486855123e-12 0.0 0.010002272274249964

0.009998357404806504 0.0 1.0125801091516259e-11
0.0 0.01 0.0
1.0125801091516259e-11 0.0 0.010002612823670499

0.009998498838090751 0.0 3.645803225080879e-10
0.0 0.01 0.0
3.645803225080879e-10 0.0 0.010003035581654187

0.00999823996476767 0.0 1.82651148247871e-18
0.0 0.01 0.0
1.82651148247871e-18 0.0 0.010001350373477038

0.009998242963185267 0.0 -4.9565622907368415e-14
0.0 0.01 0.0
-4.9565622907368415e-14 0.0 0.010001379685477287

0.009998254457144376 0.0 -8.779395972654321e-14
0.0 0.01 0.0
-8.779395972649152e-14 0.0 0.010001465672166279

0.009998280443632827 0.0 3.7176550947850347e-13
0.0 0.01 0.0
3.717655094780899e-13 0.0 0.010001608287905315

0.009998329918469032 0.0 2.507317652383541e-12
0.0 0.01 0.0
2.507317652383541e-12 0.0 0.010001808090260364

0.009998414377209691 0.0 8.09035523387017e-12
0.0 0.01 0.0
8.09035523387017e-12 0.0 0.010002075345880353

0.009998546816822591 0.0 1.372309258223741e-10
0.0 0.01 0.0
1.372309258223741e-10 0.0 0.010002419828051869

0.009998720245708581 0.0 2.5845959565042327e-09
0.0 0.01 0.0
2.5845959565050798e-09 0.0 0.010002846915278673

0.009998380893310878 0.0 2.503134249439326e-18
0.0 0.01 0.0
2.503134249439326e-18 0.0 0.0100012287264282

0.009998388389676913 0.0 7.286937452706505e-14
0.0 0.01 0.0
7.286937452706505e-14 0.0 0.010001254135889082

0.009998415876496615 0.0 5.251430919368773e-13
0.0 0.01 0.0
5.251430919366705e-13 0.0 0.010001332316212684

0.009998467852193485 0.0 2.1827723839682544e-12
0.0 0.01 0.0
2.1827723839674272e-12 0.0 0.010001466122364204

0.00999855481334505 0.0 6.557360845639822e-12
0.0 0.01 0.0
6.557360845643131e-12 0.0 0.010001665465974165

0.009998687258538776 0.0 1.2035712528374497e-10
0.0 0.01 0.0
1.2035712528369203e-10 0.0 0.010001939063849512

0.009998858695416644 0.0 1.7979077234888053e-09
0.0 0.01 0.0
1.7979077234888053e-09 0.0 0.010002294739633379

0.009999035139680213 0.0 1.1234553259072095e-08
0.0 0.01 0.0
1.1234553259078871e-08 0.0 0.010002726714859689

0.009998646774732363 0.0 -1.9632108030906218e-20
0.0 0.01 0.0
-1.9632108030906218e-20 0.0 0.010001129091198257

0.009998661768677405 0.0 3.903975584980043e-13
0.0 0.01 0.0
3.903975584975907e-13 0.0 0.010001153049397785

0.009998708750141994 0.0 1.904807161096168e-12
0.0 0.01 0.0
1.9048071610945137e-12 0.0 0.010001232177701876

0.009998796217398777 0.0 1.5446846155031054e-11
0.0 0.01 0.0
1.544684615501782e-11 0.0 0.010001370881846038

0.009998924673473958 0.0 2.557977256059871e-10
0.0 0.01 0.0
2.5579772560577537e-10 0.0 0.010001578473658233

0.00999909062406039 0.0 2.0978616910943094e-09
0.0 0.01 0.0
2.0978616910943094e-09 0.0 0.010001865271756703

0.009999266580709326 0.0 1.0282422819155089e-08
0.0 0.01 0.0
1.0282422819148313e-08 0.0 0.010002231196529456

0.009999406553010399 0.0 3.4579263684484263e-08
0.0 0.01 0.0
3.4579263684497816e-08 0.0 0.01000265435664672

0.009999090124196164 0.0 4.259360531784669e-18
0.0 0.01 0.0
4.259360531784669e-18 0.0 0.010001063669684914

0.00999911111853059 0.0 4.414738633132438e-12
0.0 0.01 0.0
4.414738633129129e-12 0.0 0.010001092929148013

0.00999917760146203 0.0 9.549720976080554e-11
0.0 0.01 0.0
9.549720976080554e-11 0.0 0.010001178908441002

0.009999286576353333 0.0 6.988451006073892e-10
0.0 0.01 0.0
6.988451006073892e-10 0.0 0.010001330815613472

0.00999942954881764 0.0 3.410237919907865e-09
0.0 0.01 0.0
3.410237919907865e-09 0.0 0.010001553561959982

0.009999589025358807 0.0 1.221969994307892e-08
0.0 0.01 0.0
1.2219699943065367e-08 0.0 0.01000184916280642

0.009999722011774086 0.0 3.4840343174298615e-08
0.0 0.01 0.0
3.4840343174298615e-08 0.0 0.010002207781111425

0.00999977750839772 0.0 8.051509077120975e-08
0.0 0.01 0.0
8.051509077120975e-08 0.0 0.010002603067012788

0.009999716012097827 0.0 -8.08420865643591e-18
0.0 0.01 0.0
-8.08420865643591e-18 0.0 0.01000105436672994

0.00999973901021771 0.0 1.6849952868513206e-10
0.0 0.01 0.0
1.684995286849203e-10 0.0 0.010001087577397968

0.009999805005703808 0.0 1.2681915915193308e-09
0.0 0.01 0.0
1.2681915915210249e-09 0.0 0.010001185760871233

0.00999990550134358 0.0 5.205713200255786e-09
0.0 0.01 0.0
5.205713200255786e-09 0.0 0.010001349373076087

0.010000020500100749 0.0 1.585689991462423e-08
0.0 0.01 0.0
1.585689991462423e-08 0.0 0.01000157847369594

0.010000119152360203 0.0 3.921789441550046e-08
0.0 0.01 0.0
3.9217894415473353e-08 0.0 0.010001866222518599

0.010000156754700878 0.0 8.227964956098507e-08
0.0 0.01 0.0
8.227964956103928e-08 0.0 0.010002198475796786

0.010000092754585493 0.0 1.4823848593515515e-07
0.0 0.01 0.0
1.4823848593504673e-07 0.0 0.010002550778933068

0.010000446829946765 0.0 2.2325002482531967e-17
0.0 0.01 0.0
2.2325002482531967e-17 0.0 0.010001112985783033

0.010000462932144091 0.0 9.992576414485487e-10
0.0 0.01 0.0
9.992576414485487e-10 0.0 0.010001147147362024

0.010000507338610626 0.0 5.398071170357251e-09
0.0 0.01 0.0
5.398071170357251e-09 0.0 0.010001251234803473

0.010000562047424978 0.0 1.7116796387038743e-08
0.0 0.01 0.0
1.7116796387011638e-08 0.0 0.010001418251702565

0.010000602104634276 0.0 4.1572275564442495e-08
0.0 0.01 0.0
4.1572275564442495e-08 0.0 0.010001636151720393

0.010000592803759334 0.0 8.372527465034738e-08
0.0 0.01 0.0
8.372527465034738e-08 0.0 0.010001896540444323

0.010000504941414462 0.0 1.454536125017336e-07
0.0 0.01 0.0
1.454536125016252e-07 0.0 0.010002188721537101

0.010000366227603438 0.0 2.2344668862916105e-07
0.0 0.01 0.0
2.234466886289442e-07 0.0 0.010002514155312682

0.010001153049397781 0.0 1.0626600997688023e-16
0.0 0.01 0.0
1.0626600997688023e-16 0.0 0.0100012287264282

0.010001153999727622 0.0 2.647303523557786e-09
0.0 0.01 0.0
2.647303523584891e-09 0.0 0.010001262939213086

0.010001152049075646 0.0 1.2562048869006748e-08
0.0 0.01 0.0
1.2562048869006748e-08 0.0 0.010001364029059202

0.010001130091716513 0.0 3.458084087495667e-08
0.0 0.01 0.0
3.458084087506509e-08 0.0 0.010001518395938205

0.010001064120643064 0.0 7.369598155706515e-08
0.0 0.01 0.0
7.369598155684831e-08 0.0 0.01000171579230466

0.010000953238890704 0.0 1.3190161409284973e-07
0.0 0.01 0.0
1.3190161409284973e-07 0.0 0.010001951273579756

0.010000850214817988 0.0 2.0662112596141896e-07
0.0 0.01 0.0
2.0662112596141896e-07 0.0 0.010002227800642598

0.010000866824983263 0.0 2.863036899210334e-07
0.0 0.01 0.0
2.863036899210334e-07 0.0 0.010002547835675014

0.01000167131890268 0.0 1.0405986483177206e-16
0.0 0.01 0.0
1.0405986483177206e-16 0.0 0.010001384587509307

0.010001656661591017 0.0 4.31643989981848e-09
0.0 0.01 0.0
4.31643989981848e-09 0.0 0.010001416801044702

0.010001614641031942 0.0 1.9373203741538877e-08
0.0 0.01 0.0
1.9373203741538877e-08 0.0 0.01000151204292821

0.01000155016075115 0.0 5.007459556900795e-08
0.0 0.01 0.0
5.007459556944163e-08 0.0 0.010001656161715786

0.01000149738778534 0.0 1.0092683747076059e-07
0.0 0.01 0.0
1.0092683747032691e-07 0.0 0.010001845262150103

0.010001515498804688 0.0 1.7062170276941832e-07
0.0 0.01 0.0
1.7062170276941832e-07 0.0 0.010002070447198749

0.0100016347096636 0.0 2.43806640240745e-07
0.0 0.01 0.0
2.438066402411787e-07 0.0 0.010002331373951083

0.010001775384520465 0.0 2.80993366507179e-07
0.0 0.01 0.0
2.80993366507179e-07 0.0 0.010002632901292944

0.010002503890105987 0.0 -7.286582221537336e-19
0.0 0.01 0.0
-7.286582221537336e-19 0.0 0.010001553561958237

0.010002497535344762 0.0 5.052670399811204e-09
0.0 0.01 0.0
5.052670399804428e-09 0.0 0.010001584376461613

0.010002487277750258 0.0 2.241931041697563e-08
0.0 0.01 0.0
2.241931041697563e-08 0.0 0.010001672769705513

0.010002486277413755 0.0 5.687256832468367e-08
0.0 0.01 0.0
5.687256832457525e-08 0.0 0.010001811542618904

0.010002513148863627 0.0 1.0939485018193751e-07
0.0 0.01 0.0
1.0939485018193751e-07 0.0 0.010001997650225091

0.010002535167785579 0.0 1.6439664893633243e-07
0.0 0.01 0.0
1.6439664893676612e-07 0.0 0.010002227297957664

0.010002476524615604 0.0 1.8162358670931883e-07
0.0 0.01 0.0
1.8162358670931883e-07 0.0 0.010002487732957619

0.010002260067664453 0.0 1.0680363287263878e-07
0.0 0.01 0.0
1.068036328722051e-07 0.0 0.01000275213743158

0.01000377899103716 0.0 -1.7968655348270017e-18
0.0 0.01 0.0
-1.7968655348270017e-18 0.0 0.01000171869298432

0.01000374280023676 0.0 3.5164071774974057e-09
0.0 0.01 0.0
3.5164071774940176e-09 0.0 0.010001747057726832

0.010003628423899019 0.0 1.5281215331653026e-08
0.0 0.01 0.0
1.5281215331639474e-08 0.0 0.010001832053374972

0.010003429964086876 0.0 3.612574511264359e-08
0.0 0.01 0.0
3.612574511253517e-08 0.0 0.010001977136401283

0.010003115205544528 0.0 5.619104673541212e-08
0.0 0.01 0.0
5.619104673541212e-08 0.0 0.010002196523968882

0.010002741377138606 0.0 4.308949264259822e-08
0.0 0.01 0.0
4.308949264281506e-08 0.0 0.010002466262345787

0.010002225843176565 0.0 -4.0050592088332164e-08
0.0 0.01 0.0
-4.0050592088440584e-08 0.0 0.010002700793989714

0.010003433917959388 0.0 -3.0036768831446536e-17
0.0 0.01 0.0
-3.0036768831446536e-17 0.0 0.010001863820944815

0.010003351283913204 0.0 -7.444524451960123e-10
0.0 0.01 0.0
-7.444524451968594e-10 0.0 0.010001891136324336

0.010003095686902918 0.0 -5.426484772042494e-09
0.0 0.01 0.0
-5.42648477204927e-09 0.0 0.010001982989685713

0.010002666115935005 0.0 -2.4202368476737915e-08
0.0 0.01 0.0
-2.4202368476792125e-08 0.0 0.010002167704725685

0.010002138386614292 0.0 -7.77184996770923e-08
0.0 0.01 0.0
-7.77184996770923e-08 0.0 0.010002476520574607

0.009999969500139537 0.0 6.061446678412332e-17
0.0 0.01 0.0
6.061446678412332e-17 0.0 0.01000000100000015

0.009999971500121838 0.0 3.8566639912188705e-17
0.0 0.01 0.0
3.8566639912188705e-17 0.0 0.01000000100000015

0.009999972500113436 0.0 -1.9583375187537085e-17
0.0 0.01 0.0
-1.9583375187537085e-17 0.0 0.010000000500000036

0.009999973500105336 0.0 -8.914029067167212e-17
0.0 0.01 0.0
-8.914029067167212e-17 0.0 0.01

0.00999997700007935 0.0 -7.955050054996877e-17
0.0 0.01 0.0
-7.955050054996877e-17 0.0 0.01

0.009999980000060001 0.0 4.010002520045823e-17
0.0 0.01 0.0
4.010002520045823e-17 0.0 0.01

0.009999985000033752 0.0 1.9560931053477055e-16
0.0 0.01 0.0
1.9560931053477055e-16 0.0 0.009999999000000153

0.009999961500222336 0.0 8.319668763234607e-17
0.0 0.01 0.0
8.319668763234607e-17 0.0 0.010000001450000314

0.009999963500199835 0.0 3.362197673324059e-17
0.0 0.01 0.0
3.362197673324059e-17 0.0 0.010000001450000314

0.009999965000183748 0.0 -5.411884899261712e-17
0.0 0.01 0.0
-5.411884899261712e-17 0.0 0.01000000100000015

0.009999967500158436 0.0 -1.5524241983718314e-16
0.0 0.01 0.0
-1.5524241983718314e-16 0.0 0.010000000500000036

0.009999970500130538 0.0 -2.1113939071143088e-16
0.0 0.01 0.0
-2.1113939071143088e-16 0.0 0.01

0.009999974500097536 0.0 -1.288004676769671e-16
0.0 0.01 0.0
-1.288004676769671e-16 0.0 0.009999999500000037

0.009999979500063037 0.0 1.0963005322159529e-16
0.0 0.01 0.0
1.0963005322159529e-16 0.0 0.009999998500000338

0.0099999860000294 0.0 2.459919211852867e-16
0.0 0.01 0.0
2.459919211852867e-16 0.0 0.009999997500000938

0.009999953000331348 0.0 6.614070309194091e-17
0.0 0.01 0.0
6.614070309194091e-17 0.0 0.010000001450000314

0.009999953500324335 0.0 -5.054978340802667e-17
0.0 0.01 0.0
-5.054978340802667e-17 0.0 0.010000001450000314

0.009999956000290399 0.0 -5.835065757603133e-17
0.0 0.01 0.0
-5.835065757603133e-17 0.0 0.010000001450000314

0.009999958500258336 0.0 -2.486337695529087e-16
0.0 0.01 0.0
-2.486337695529087e-16 0.0 0.01000000100000015

0.009999963000205348 0.0 -2.762110470337367e-16
0.0 0.01 0.0
-2.762110470337367e-16 0.0 0.01

0.009999968000153599 0.0 -1.9211159845939448e-16
0.0 0.01 0.0
-1.9211159845939448e-16 0.0 0.009999999500000037

0.009999974000101402 0.0 3.2480476645388406e-16
0.0 0.01 0.0
3.2480476645388406e-16 0.0 0.009999997500000938

0.00999998050005704 0.0 3.8685826528759547e-16
0.0 0.01 0.0
3.8685826528759547e-16 0.0 0.009999996500001839

0.009999941000522145 0.0 1.643632557902055e-17
0.0 0.01 0.0
1.643632557902055e-17 0.0 0.0100000024500009

0.009999943500478834 0.0 -2.819353842060691e-17
0.0 0.01 0.0
-2.819353842060691e-17 0.0 0.0100000024500009

0.009999945000453746 0.0 -5.061582602188961e-17
0.0 0.01 0.0
-5.061582602188961e-17 0.0 0.0100000024500009

0.009999948000405596 0.0 -1.695928290623788e-16
0.0 0.01 0.0
-1.695928290623788e-16 0.0 0.010000001450000314

0.009999953000331348 0.0 7.828504809000607e-17
0.0 0.01 0.0
7.828504809000607e-17 0.0 0.01

0.009999960000240001 0.0 3.6432529940331686e-16
0.0 0.01 0.0
3.6432529940331686e-16 0.0 0.009999999000000153

0.00999996750015844 0.0 5.0819218201150046e-14
0.0 0.01 0.0
5.0819218197841323e-14 0.0 0.00999999750000094

0.009999975500090037 0.0 1.9106506318611915e-13
0.0 0.01 0.0
1.9106506317288426e-13 0.0 0.0099999960000024

0.009999928500766829 0.0 -5.207502805403551e-18
0.0 0.01 0.0
-5.207502805403551e-18 0.0 0.010000003400001733

0.00999992950074553 0.0 1.4733524207302372e-17
0.0 0.01 0.0
1.4733524207302372e-17 0.0 0.010000003400001733

0.009999932000693592 0.0 1.7634299610990705e-16
0.0 0.01 0.0
1.7634299610990705e-16 0.0 0.0100000024500009

0.009999936000614395 0.0 4.121937744307566e-16
0.0 0.01 0.0
4.121937744307566e-16 0.0 0.0100000024500009

0.009999941000522143 0.0 4.749353874425697e-13
0.0 0.01 0.0
4.749353874425697e-13 0.0 0.010000000500000036

0.009999948500397836 0.0 4.2985268988832804e-12
0.0 0.01 0.0
4.2985268988832804e-12 0.0 0.00999999900000015

0.009999958000264599 0.0 1.2208597176254236e-11
0.0 0.01 0.0
1.220859717583072e-11 0.0 0.009999996500001837

0.009999968500148837 0.0 2.157766374499587e-11
0.0 0.01 0.0
2.157766374499587e-11 0.0 0.00999999450000454

0.00999991050120152 0.0 1.895643317793214e-17
0.0 0.01 0.0
1.895643317793214e-17 0.0 0.010000003400001733

0.00999991150117482 0.0 2.0774087877507842e-16
0.0 0.01 0.0
2.0774087877507842e-16 0.0 0.010000003900002283

0.009999914001109384 0.0 5.957126691416395e-16
0.0 0.01 0.0
5.957126691416395e-16 0.0 0.010000003400001733

0.009999919500972025 0.0 2.0115597496951438e-12
0.0 0.01 0.0
2.0115597496951438e-12 0.0 0.010000002450000902

0.009999924500855028 0.0 1.7414269895890677e-11
0.0 0.01 0.0
1.7414269895890677e-11 0.0 0.010000001000000152

0.009999933500663331 0.0 6.161582651738296e-11
0.0 0.01 0.0
6.161582651738296e-11 0.0 0.009999998500000338

0.0099999460004374 0.0 1.3133288255745904e-10
0.0 0.01 0.0
1.3133288255745904e-10 0.0 0.009999995500003042

0.009999958500258343 0.0 2.051193381339138e-10
0.0 0.01 0.0
2.0511933814746633e-10 0.0 0.009999993500006344

0.009999888001881565 0.0 2.053578159365075e-16
0.0 0.01 0.0
2.053578159365075e-16 0.0 0.010000004900003603

0.009999890001814967 0.0 6.958742795727695e-16
0.0 0.01 0.0
6.958742795727695e-16 0.0 0.010000004900003603

0.009999892501733408 0.0 1.8113723730526742e-12
0.0 0.01 0.0
1.811372373079144e-12 0.0 0.010000004900003604

0.009999897001591321 0.0 2.440332991478694e-11
0.0 0.01 0.0
2.4403329914363423e-11 0.0 0.010000003400001732

0.009999904501368017 0.0 1.1754792669599822e-10
0.0 0.01 0.0
1.1754792669599822e-10 0.0 0.010000001450000316

0.009999913501122339 0.0 3.2976809207185516e-10
0.0 0.01 0.0
3.2976809207185516e-10 0.0 0.009999998500000357

0.00999992650081039 0.0 6.448077573999785e-10
0.0 0.01 0.0
6.44807757386426e-10 0.0 0.009999995000003812

0.009999943000487477 0.0 9.311547014402653e-10
0.0 0.01 0.0
9.311547013860551e-10 0.0 0.00999999150001097

0.009999860002939932 0.0 1.0468670130082486e-16
0.0 0.01 0.0
1.0468670130082486e-16 0.0 0.010000006350006049

0.00999986050291897 0.0 3.528643624403552e-13
0.0 0.01 0.0
3.528643624403552e-13 0.0 0.010000006350006047

0.009999864002774339 0.0 1.4767296314034293e-11
0.0 0.01 0.0
1.4767296314034293e-11 0.0 0.010000006350006049

0.00999986850259378 0.0 1.1071971744011568e-10
0.0 0.01 0.0
1.1071971743842161e-10 0.0 0.010000004900003601

0.009999875502325017 0.0 4.3081710283097464e-10
0.0 0.01 0.0
4.308171028241984e-10 0.0 0.010000002450000926

0.009999885501966685 0.0 1.1109872522006934e-09
0.0 0.01 0.0
1.1109872521871409e-09 0.0 0.009999999000000337

0.009999899001530779 0.0 2.095027724842739e-09
0.0 0.01 0.0
2.095027724869844e-09 0.0 0.009999994000006058

0.009999916501047123 0.0 2.9458095141270298e-09
0.0 0.01 0.0
2.9458095141270298e-09 0.0 0.009999989500017839

0.009999824504619902 0.0 2.7640704273974847e-16
0.0 0.01 0.0
2.7640704273974847e-16 0.0 0.010000008300010334

0.00999982600454127 0.0 3.194405042942197e-12
0.0 0.01 0.0
3.1944050429686666e-12 0.0 0.010000008800011615

0.009999827504463309 0.0 5.242033782426226e-11
0.0 0.01 0.0
5.242033782426226e-11 0.0 0.010000008800011615

0.009999831004284046 0.0 3.1009675014085996e-10
0.0 0.01 0.0
3.100967501442481e-10 0.0 0.01000000830001035

0.00999983750396101 0.0 1.1006348810729252e-09
0.0 0.01 0.0
1.1006348810729252e-09 0.0 0.010000004900003781

0.009999845003604797 0.0 2.759474192361557e-09
0.0 0.01 0.0
2.759474192361557e-09 0.0 0.01000000000000114

0.009999858003028562 0.0 5.18724906523613e-09
0.0 0.01 0.0
5.18724906523613e-09 0.0 0.009999993000011385

0.009999875502333087 0.0 7.347039569392463e-09
0.0 0.01 0.0
7.347039569392463e-09 0.0 0.009999988000029696

0.009999781007193887 0.0 3.408279190085833e-14
0.0 0.01 0.0
3.408279190085833e-14 0.0 0.010000011250018984

0.009999781007193887 0.0 9.77397081318902e-12
0.0 0.01 0.0
9.773970813083141e-12 0.0 0.010000012200022326

0.009999783007063095 0.0 1.1714992996050177e-10
0.0 0.01 0.0
1.1714992995965473e-10 0.0 0.010000012700024194

0.009999784506965845 0.0 6.246998530277839e-10
0.0 0.01 0.0
6.246998530243957e-10 0.0 0.010000011700020591

0.00999978850671029 0.0 2.1422673646549458e-09
0.0 0.01 0.0
2.1422673646684983e-09 0.0 0.010000008800012304

0.009999794006369507 0.0 5.3711287009293625e-09
0.0 0.01 0.0
5.371128700983573e-09 0.0 0.01000000145000464

0.009999802005896207 0.0 1.0263512897749384e-08
0.0 0.01 0.0
1.0263512897640964e-08 0.0 0.00999999300002315

0.009999818504974367 0.0 1.4873008618849874e-08
0.0 0.01 0.0
1.4873008618741454e-08 0.0 0.00999998500006693

0.009999726011260889 0.0 1.4607614326683293e-13
0.0 0.01 0.0
1.4607614326766011e-13 0.0 0.01000001515003443

0.009999725511302019 0.0 1.7347385421200762e-11
0.0 0.01 0.0
1.7347385421200762e-11 0.0 0.010000016600041333

0.009999727011178846 0.0 1.8626820360402786e-10
0.0 0.01 0.0
1.8626820360318082e-10 0.0 0.010000019550057337

0.009999726511219964 0.0 9.592789237042039e-10
0.0 0.01 0.0
9.592789237109801e-10 0.0 0.010000020000060138

0.009999728011098715 0.0 3.2796252664839005e-09
0.0 0.01 0.0
3.2796252664839005e-09 0.0 0.010000015600038121

0.009999728511066777 0.0 8.342814813067003e-09
0.0 0.01 0.0
8.342814813012793e-09 0.0 0.010000006850017482

0.009999732010812954 0.0 1.6295635529655315e-08
0.0 0.01 0.0
1.6295635529655315e-08 0.0 0.009999993500046175

0.009999745509802245 0.0 2.4099594700920102e-08
0.0 0.01 0.0
2.409959470070326e-08 0.0 0.00999998000014712

0.009999660017339016 0.0 1.630009354749457e-13
0.0 0.01 0.0
1.6300093547660005e-13 0.0 0.01000002100006615

0.009999658017543602 0.0 2.0035255529661037e-11
0.0 0.01 0.0
2.0035255529661037e-11 0.0 0.010000024400089307

0.009999657017646347 0.0 2.18867598688344e-10
0.0 0.01 0.0
2.18867598688344e-10 0.0 0.01000002785011635

0.009999656017749579 0.0 1.14329258012503e-09
0.0 0.01 0.0
1.14329258012503e-09 0.0 0.010000030750142032

0.009999655017855102 0.0 3.983904480072374e-09
0.0 0.01 0.0
3.983904480058822e-09 0.0 0.01000002685011052

0.00999965551781716 0.0 1.0374985932436881e-08
0.0 0.01 0.0
1.0374985932491091e-08 0.0 0.010000016100055027

0.009999656017813814 0.0 2.0725004541742933e-08
0.0 0.01 0.0
2.0725004541634513e-08 0.0 0.009999999500064473

0.009999668016679751 0.0 3.131228800486337e-08
0.0 0.01 0.0
3.131228800464653e-08 0.0 0.009999984000185475

0.009999579526521177 0.0 4.628844375773049e-14
0.0 0.01 0.0
4.628844375773049e-14 0.0 0.010000027850116344

0.00999957502709183 0.0 1.4939749113166715e-11
0.0 0.01 0.0
1.4939749113166715e-11 0.0 0.010000036150196024

0.009999572027475645 0.0 1.8915346816988178e-10
0.0 0.01 0.0
1.8915346816988178e-10 0.0 0.010000042000264607

0.00999957002773318 0.0 1.0542105916351476e-09
0.0 0.01 0.0
1.0542105916385358e-09 0.0 0.010000046400323113

0.009999567528058615 0.0 3.830244412898797e-09
0.0 0.01 0.0
3.830244412898797e-09 0.0 0.010000044900304605

0.009999567028137308 0.0 1.0322466988978412e-08
0.0 0.01 0.0
1.0322466989005517e-08 0.0 0.010000035150201316

0.009999569027929424 0.0 2.1177714212817188e-08
0.0 0.01 0.0
2.1177714212762978e-08 0.0 0.01000001805011615

0.009999584026117019 0.0 3.270290481656186e-08
0.0 0.01 0.0
3.270290481667028e-08 0.0 0.01000001365018838

0.009999481540322853 0.0 2.3494892831473416e-16
0.0 0.01 0.0
2.3494892831473416e-16 0.0 0.010000039050228737

0.00999947454141891 0.0 6.317033881693751e-12
0.0 0.01 0.0
6.317033881693751e-12 0.0 0.010000048350350661

0.009999468542370087 0.0 1.1473335014794447e-10
0.0 0.01 0.0
1.147333501487915e-10 0.0 0.010000059100523926

0.009999463543171057 0.0 7.342596348898647e-10
0.0 0.01 0.0
7.342596348932528e-10 0.0 0.010000067400681503

0.009999462043413947 0.0 2.872649708080368e-09
0.0 0.01 0.0
2.872649708087144e-09 0.0 0.010000069800732054

0.009999462543341981 0.0 8.133505488447336e-09
0.0 0.01 0.0
8.133505488447336e-09 0.0 0.010000064950642706

0.00999946754257405 0.0 1.720182298995754e-08
0.0 0.01 0.0
1.720182298995754e-08 0.0 0.010000057150534314

0.009999486039734506 0.0 2.689525028978356e-08
0.0 0.01 0.0
2.689525028978356e-08 0.0 0.01000006640076986

0.009999362061050107 0.0 6.999105527971855e-16
0.0 0.01 0.0
6.999105527971855e-16 0.0 0.010000051750401712

0.009999351563076023 0.0 8.716142313015489e-13
0.0 0.01 0.0
8.716142313015489e-13 0.0 0.010000065900651429

0.009999343564641761 0.0 4.293031245550541e-11
0.0 0.01 0.0
4.293031245561129e-11 0.0 0.01000008105098538

0.009999337065928085 0.0 3.632291978706534e-10
0.0 0.01 0.0
3.632291978706534e-10 0.0 0.010000094251332498

0.009999333566626334 0.0 1.62186488480111e-09
0.0 0.01 0.0
1.6218648847977218e-09 0.0 0.01000010205156255

0.009999333566629624 0.0 4.96014952097452e-09
0.0 0.01 0.0
4.960149520988073e-09 0.0 0.01000010255158119

0.009999339565449837 0.0 1.095589218910102e-08
0.0 0.01 0.0
1.095589218910102e-08 0.0 0.010000105951701843

0.009999357561959762 0.0 1.7408480824899434e-08
0.0 0.01 0.0
1.7408480824899434e-08 0.0 0.01000012600242691

0.009999218091716645 0.0 8.272650655529164e-16
0.0 0.01 0.0
8.272650655529164e-16 0.0 0.010000066900671348

0.009999204095029794 0.0 4.119224133976375e-15
0.0 0.01 0.0
4.119224133976375e-15 0.0 0.010000085951108127

0.009999191598037627 0.0 6.821927099590752e-12
0.0 0.01 0.0
6.821927099603987e-12 0.0 0.010000105451667988

0.00999918160047763 0.0 1.0944685139534668e-10
0.0 0.01 0.0
1.0944685139534668e-10 0.0 0.010000123552289736

0.009999176101832477 0.0 6.31618170617601e-10
0.0 0.01 0.0
6.31618170617601e-10 0.0 0.010000138652883699

0.009999174102328047 0.0 2.205270321622234e-09
0.0 0.01 0.0
2.2052703216188458e-09 0.0 0.010000146003198207

0.009999180100850378 0.0 5.268069310833011e-09
0.0 0.01 0.0
5.268069310819458e-09 0.0 0.010000157253713393

0.009999195097202044 0.0 8.692499769784832e-09
0.0 0.01 0.0
8.692499769784832e-09 0.0 0.010000181654960997

0.0099990456366388 0.0 8.9734507786319e-17
0.0 0.01 0.0
8.9734507786319e-17 0.0 0.010000085451095271

0.009999026142278303 0.0 5.3032368494598476e-15
0.0 0.01 0.0
5.3032368494598476e-15 0.0 0.010000108901778914

0.009999008647436473 0.0 -5.519257648969954e-15
0.0 0.01 0.0
-5.519257648969954e-15 0.0 0.010000135252743946

0.009998993152081826 0.0 1.210402793402869e-11
0.0 0.01 0.0
1.2104027934015455e-11 0.0 0.010000160653871368

0.009998984654659865 0.0 1.3247903075786532e-10
0.0 0.01 0.0
1.3247903075786532e-10 0.0 0.01000018115492245

0.009998980655880606 0.0 6.103396692313769e-10
0.0 0.01 0.0
6.103396692305299e-10 0.0 0.01000019335560787

0.009998982655270036 0.0 1.684366890110245e-09
0.0 0.01 0.0
1.684366890108551e-09 0.0 0.010000209006552805

0.009998991152687861 0.0 3.040916343362163e-09
0.0 0.01 0.0
3.040916343358775e-09 0.0 0.010000236808412857

0.009998839701974974 0.0 -1.5285134570171152e-15
0.0 0.01 0.0
-1.5285134570171152e-15 0.0 0.010000105001653778

0.00999881371112559 0.0 5.215061319802521e-15
0.0 0.01 0.0
5.215061319802521e-15 0.0 0.010000136702803097

0.009998789719752203 0.0 -2.7929382507022624e-15
0.0 0.01 0.0
-2.7929382507022624e-15 0.0 0.01000017140440682

0.009998769227257521 0.0 -1.350519738333036e-13
0.0 0.01 0.0
-1.350519738335104e-13 0.0 0.01000020165609961

0.009998754732642248 0.0 4.548843628477545e-12
0.0 0.01 0.0
4.548843628477545e-12 0.0 0.01000022705773305

0.009998746235828112 0.0 6.155939538249187e-11
0.0 0.01 0.0
6.155939538254481e-11 0.0 0.010000244658978408

0.00999874473639258 0.0 2.4450710546894094e-10
0.0 0.01 0.0
2.445071054687292e-10 0.0 0.010000263660427165

0.009998747235452217 0.0 5.235133978499912e-10
0.0 0.01 0.0
5.235133978499912e-10 0.0 0.010000295913134208

0.009998593796666795 0.0 -4.030140198641622e-15
0.0 0.01 0.0
-4.030140198641622e-15 0.0 0.010000128902492335

0.009998558311829659 0.0 3.0579832415383342e-15
0.0 0.01 0.0
3.0579832415383342e-15 0.0 0.010000167004183467

0.009998525826042413 0.0 -5.917391699903078e-16
0.0 0.01 0.0
-5.917391699903078e-16 0.0 0.010000209456580625

0.009998497838541162 0.0 -1.605261012534558e-13
0.0 0.01 0.0
-1.605261012534558e-13 0.0 0.010000249509337925

0.009998476848069458 0.0 -7.612435855736468e-13
0.0 0.01 0.0
-7.612435855744739e-13 0.0 0.010000283212030904

0.009998465353343354 0.0 -2.0124106017915345e-12
0.0 0.01 0.0
-2.012410601793189e-12 0.0 0.01000030521397277

0.009998457856804208 0.0 -1.8026956208816074e-12
0.0 0.01 0.0
-1.8026956208816074e-12 0.0 0.010000329116246912

0.009998457357035535 0.0 5.3622518830629785e-12
0.0 0.01 0.0
5.3622518830629785e-12 0.0 0.010000364769957599

0.009998305430832041 0.0 -4.762019818332262e-15
0.0 0.01 0.0
-4.762019818332262e-15 0.0 0.010000153303525224

0.009998257955313708 0.0 -9.477312960862527e-16
0.0 0.01 0.0
-9.477312960862527e-16 0.0 0.0100002011560694

0.009998211479935052 0.0 1.5977201182472152e-16
0.0 0.01 0.0
1.5977201182472152e-16 0.0 0.010000254909746516

0.009998171501633239 0.0 -1.9199156587818014e-13
0.0 0.01 0.0
-1.9199156587818014e-13 0.0 0.010000304713927021

0.009998141518221593 0.0 -9.872789122656579e-13
0.0 0.01 0.0
-9.872789122648307e-13 0.0 0.010000346718031176

0.009998120529993937 0.0 -2.7181117908983704e-12
0.0 0.01 0.0
-2.7181117908983704e-12 0.0 0.010000376471258525

0.009998110535646271 0.0 -4.661133985226873e-12
0.0 0.01 0.0
-4.6611339852301815e-12 0.0 0.010000408224995786

0.009998106537915602 0.0 -4.327638444992221e-12
0.0 0.01 0.0
-4.327638444992221e-12 0.0 0.010000451180532747

0.009997964621583479 0.0 -2.987169690476035e-15
0.0 0.01 0.0
-2.987169690476035e-15 0.0 0.010000181154922448

0.00999790066126856 0.0 -5.934662242256117e-15
0.0 0.01 0.0
-5.934662242256117e-15 0.0 0.010000238758550576

0.009997838201208215 0.0 -6.210498693158148e-16
0.0 0.01 0.0
-6.210498693158148e-16 0.0 0.010000302263703948

0.009997781738321103 0.0 -2.348579726777673e-13
0.0 0.01 0.0
-2.348579726777673e-13 0.0 0.010000366720171568

0.009997737268225032 0.0 -1.2850562683988528e-12
0.0 0.01 0.0
-1.28505626839968e-12 0.0 0.010000420426512283

0.009997704290784176 0.0 -3.6490454289546365e-12
0.0 0.01 0.0
-3.6490454289546365e-12 0.0 0.010000459981735533

0.009997685303920797 0.0 -6.348127173416135e-12
0.0 0.01 0.0
-6.3481271734194436e-12 0.0 0.010000504438166111

0.009997675310878262 0.0 -5.7872642921616504e-12
0.0 0.01 0.0
-5.7872642921616504e-12 0.0 0.010000562547465387

0.009997565389388029 0.0 8.28221550178362e-15
0.0 0.01 0.0
8.28221550178362e-15 0.0 0.010000212906799203

0.009997481951404728 0.0 -8.250109758950596e-15
0.0 0.01 0.0
-8.250109758950596e-15 0.0 0.01000028026178156

0.009997398015900627 0.0 -5.468054967220852e-15
0.0 0.01 0.0
-5.468054967220852e-15 0.0 0.010000356969113132

0.009997322575674154 0.0 -3.0532367744917785e-13
0.0 0.01 0.0
-3.0532367744917785e-13 0.0 0.010000434128268468

0.00999725413138338 0.0 -1.689097436536618e-12
0.0 0.01 0.0
-1.689097436536618e-12 0.0 0.010000501487720966

0.009997203173773242 0.0 -4.8663051673007795e-12
0.0 0.01 0.0
-4.866305167304088e-12 0.0 0.010000553245908768

0.009997167204164647 0.0 -8.474001719921602e-12
0.0 0.01 0.0
-8.474001719918293e-12 0.0 0.010000615306785709

0.009997145722500246 0.0 -7.332083284849993e-12
0.0 0.01 0.0
-7.332083284849993e-12 0.0 0.010000696872837996

0.009997100761325307 0.0 2.524644133542494e-14
0.0 0.01 0.0
2.524644133542494e-14 0.0 0.010000251009450544

0.009996996353825727 0.0 -1.621666807313927e-15
0.0 0.01 0.0
-1.621666807313927e-15 0.0 0.010000325215864117

0.009996886954261675 0.0 -2.6048556845120554e-14
0.0 0.01 0.0
-2.6048556845120554e-14 0.0 0.010000414575779538

0.009996781554425816 0.0 -4.551899378966171e-13
0.0 0.01 0.0
-4.551899378966171e-13 0.0 0.010000507338606262

0.0099966851489644 0.0 -2.3245444193406437e-12
0.0 0.01 0.0
-2.3245444193406437e-12 0.0 0.01000058745176088

0.009996606727926061 0.0 -6.552709226070813e-12
0.0 0.01 0.0
-6.552709226074122e-12 0.0 0.01000065191374319

0.009996546290041153 0.0 -1.111559525728355e-11
0.0 0.01 0.0
-1.1115595257286858e-11 0.0 0.010000741282416799

0.009996503334855498 0.0 -8.548371009114763e-12
0.0 0.01 0.0
-8.548371009121381e-12 0.0 0.010000860461046243

0.00999657476064376 0.0 4.054489169211635e-14
0.0 0.01 0.0
4.054489169211635e-14 0.0 0.010000299313437745

0.009996444896712949 0.0 -2.976110063331328e-15
0.0 0.01 0.0
-2.976110063331328e-15 0.0 0.01000038137181556

0.00999630405001715 0.0 -1.0305012190478115e-13
0.0 0.01 0.0
-1.0305012190478115e-13 0.0 0.010000480484627606

0.009996161211576418 0.0 -8.072932892099263e-13
0.0 0.01 0.0
-8.072932892099263e-13 0.0 0.010000585501417771

0.009996027368524655 0.0 -3.4634375944900472e-12
0.0 0.01 0.0
-3.4634375944908744e-12 0.0 0.010000677318807901

0.00999591001057108 0.0 -9.132387575458812e-12
0.0 0.01 0.0
-9.132387575458812e-12 0.0 0.010000751084610744

0.009995816127184285 0.0 -1.458267143288224e-11
0.0 0.01 0.0
-1.458267143288224e-11 0.0 0.010000870213577574

0.009995743219570441 0.0 -8.90229595835639e-12
0.0 0.01 0.0
-8.90229595835639e-12 0.0 0.01000104606411463

0.00999599091220713 0.0 -1.6708787243237103e-14
0.0 0.01 0.0
-1.6708787243237103e-14 0.0 0.010000363769848314

0.00999583310589872 0.0 -9.626077666191801e-14
0.0 0.01 0.0
-9.626077666189216e-14 0.0 0.010000450730471865

0.009995657829804579 0.0 -3.6837976557503984e-13
0.0 0.01 0.0
-3.6837976557503984e-13 0.0 0.010000558646809456

0.009995472576491618 0.0 -1.6376132641592421e-12
0.0 0.01 0.0
-1.6376132641588285e-12 0.0 0.010000674868310942

0.009995290828534257 0.0 -5.696915392082059e-12
0.0 0.01 0.0
-5.696915392080405e-12 0.0 0.010000772039397527

0.00999512556633329 0.0 -1.3572185918416669e-11
0.0 0.01 0.0
-1.357218591841336e-11 0.0 0.010000841406182744

0.00999498427614811 0.0 -1.9813536224774783e-11
0.0 0.01 0.0
-1.98135362247814e-11 0.0 0.010000989896965004

0.009994868452621073 0.0 -8.126183089163894e-12
0.0 0.01 0.0
-8.126183089160585e-12 0.0 0.010001248283692935

0.009995377207508508 0.0 -3.459088742681732e-13
0.0 0.01 0.0
-3.459088742680698e-13 0.0 0.010000460981873686

0.009995191470518357 0.0 -5.128380342448413e-13
0.0 0.01 0.0
-5.128380342448413e-13 0.0 0.010000545944705092

0.00999497828517727 0.0 -1.1172643353953356e-12
0.0 0.01 0.0
-1.1172643353953356e-12 0.0 0.010000662165763721

0.009994745644141503 0.0 -3.5231576421593197e-12
0.0 0.01 0.0
-3.5231576421593197e-12 0.0 0.01000078524248118

0.009994510523463604 0.0 -1.0311270161814943e-11
0.0 0.01 0.0
-1.0311270161818252e-11 0.0 0.010000879015886756

0.009994288896234145 0.0 -2.218333898132874e-11
0.0 0.01 0.0
-2.218333898132874e-11 0.0 0.010000924928308032

0.009994090742029461 0.0 -2.9222440456303163e-11
0.0 0.01 0.0
-2.9222440456303163e-11 0.0 0.010001082675802655

0.009993921546634397 0.0 -6.7678132649909965e-12
0.0 0.01 0.0
-6.7678132649909965e-12 0.0 0.010001445113192476

0.009994781587618162 0.0 -1.2467997779896704e-12
0.0 0.01 0.0
-1.246799777990084e-12 0.0 0.010000606005081873

0.009994567929316689 0.0 -1.5153593253666096e-12
0.0 0.01 0.0
-1.5153593253670232e-12 0.0 0.010000692471920963

0.009994318844998174 0.0 -2.7320380839006712e-12
0.0 0.01 0.0
-2.7320380839006712e-12 0.0 0.010000815999867504

0.00999404083098985 0.0 -7.60442176245398e-12
0.0 0.01 0.0
-7.604421762455634e-12 0.0 0.010000944933918144

0.009993751860768845 0.0 -2.0318655849175442e-11
0.0 0.01 0.0
-2.0318655849175442e-11 0.0 0.010001027008190213

0.00999347239700744 0.0 -4.0401472052319594e-11
0.0 0.01 0.0
-4.0401472052319594e-11 0.0 0.0100010157547427

0.009993211418987154 0.0 -4.881736613097137e-11
0.0 0.01 0.0
-4.881736613097137e-11 0.0 0.010001139344686374

0.009992982393937188 0.0 -7.620683247694047e-12
0.0 0.01 0.0
-7.620683247694047e-12 0.0 0.01000161514121792

0.009994279911657435 0.0 -2.7379104095560725e-12
0.0 0.01 0.0
-2.7379104095552453e-12 0.0 0.010000823851798589

0.009994044324738284 0.0 -2.915471575984321e-12
0.0 0.01 0.0
-2.915471575983494e-12 0.0 0.01000092052708992

0.009993766333637855 0.0 -5.442442527138149e-12
0.0 0.01 0.0
-5.442442527138149e-12 0.0 0.010001059718426674

0.00999345193718883 0.0 -1.619940409112511e-11
0.0 0.01 0.0
-1.619940409112511e-11 0.0 0.010001200916295357

0.009993119607490102 0.0 -4.267031015054e-11
0.0 0.01 0.0
-4.267031015054662e-11 0.0 0.010001262439022609

0.009992788308781688 0.0 -8.064582563689023e-11
0.0 0.01 0.0
-8.064582563686376e-11 0.0 0.010001152549224847

0.009992474004624522 0.0 -9.112400775561608e-11
0.0 0.01 0.0
-9.112400775564255e-11 0.0 0.010001165253640767

0.009992190657409247 0.0 -1.7209482960292826e-11
0.0 0.01 0.0
-1.7209482960289518e-11 0.0 0.01000173240007754

0.009993973951369124 0.0 -3.81366452656266e-12
0.0 0.01 0.0
-3.8136645265618324e-12 0.0 0.010001149148050842

0.009993729402993137 0.0 -3.308552310231094e-12
0.0 0.01 0.0
-3.308552310231921e-12 0.0 0.01000127514385732

0.009993435968637228 0.0 -8.960511021912924e-12
0.0 0.01 0.0
-8.96051102191127e-12 0.0 0.010001448564690167

0.009993106135363769 0.0 -3.378084980997937e-11
0.0 0.01 0.0
-3.378084980997937e-11 0.0 0.01000161369051554

0.009992753883546772 0.0 -9.124279623999619e-11
0.0 0.01 0.0
-9.124279623999619e-11 0.0 0.010001650808685444

0.009992398176951252 0.0 -1.6687767527653747e-10
0.0 0.01 0.0
-1.668776752765904e-10 0.0 0.010001401644636095

0.00999205248450016 0.0 -1.7890610333761685e-10
0.0 0.01 0.0
-1.7890610333764332e-10 0.0 0.010001214571241668

0.00999173525719834 0.0 -4.50729950136542e-11
0.0 0.01 0.0
-4.50729950136542e-11 0.0 0.010001803687876162

0.009994006891910047 0.0 -1.9492151553502023e-12
0.0 0.01 0.0
-1.9492151553502023e-12 0.0 0.010001617092163507

0.00999376583457236 0.0 3.018823647011685e-13
0.0 0.01 0.0
3.018823647011685e-13 0.0 0.01000180663947402

0.009993483874521678 0.0 -1.2627924673975806e-11
0.0 0.01 0.0
-1.2627924673974151e-11 0.0 0.010002044076566585

0.009993171500634024 0.0 -6.769386794625268e-11
0.0 0.01 0.0
-6.769386794623945e-11 0.0 0.01000225321131546

0.009992841194618313 0.0 -1.8835347932793588e-10
0.0 0.01 0.0
-1.8835347932788294e-10 0.0 0.010002260065953904

0.009992503438199648 0.0 -3.368977096374619e-10
0.0 0.01 0.0
-3.368977096374619e-10 0.0 0.010001853565228295

0.009992169706635603 0.0 -3.4629736099732976e-10
0.0 0.01 0.0
-3.4629736099732976e-10 0.0 0.010001408997735276

0.009991860947420812 0.0 -1.0157141895000196e-10
0.0 0.01 0.0
-1.0157141895000196e-10 0.0 0.010001906294955554

0.009994550457865386 0.0 6.137138107250513e-12
0.0 0.01 0.0
6.137138107248858e-12 0.0 0.010002264418906797

0.00999433980929319 0.0 1.119213605694113e-11
0.0 0.01 0.0
1.119213605694113e-11 0.0 0.0100025585816161

0.009994104218138363 0.0 -1.637596551581537e-11
0.0 0.01 0.0
-1.637596551581537e-11 0.0 0.010002891403548897

0.009993852673093896 0.0 -1.2677253854474416e-10
0.0 0.01 0.0
-1.2677253854474416e-10 0.0 0.010003157745073607

0.00999359565759803 0.0 -3.5790715968573736e-10
0.0 0.01 0.0
-3.5790715968573736e-10 0.0 0.010003148936746175

0.00999333417092029 0.0 -6.272921555031227e-10
0.0 0.01 0.0
-6.272921555032286e-10 0.0 0.010002607969871439

0.009993073203728834 0.0 -6.23914555360618e-10
0.0 0.01 0.0
-6.23914555360618e-10 0.0 0.010001964928990255

0.009992826725768254 0.0 -1.917154133593619e-10
0.0 0.01 0.0
-1.917154133593619e-10 0.0 0.010002244905714053

0.009995798649186273 0.0 2.1610337787335863e-11
0.0 0.01 0.0
2.1610337787339172e-11 0.0 0.010003104945504545

0.009995650339578636 0.0 2.923553631080733e-11
0.0 0.01 0.0
2.923553631080733e-11 0.0 0.010003543382444484

0.009995500039270465 0.0 -2.2675598649073865e-11
0.0 0.01 0.0
-2.2675598649073865e-11 0.0 0.01000400190100056

0.00999535773459626 0.0 -2.1491631482162444e-10
0.0 0.01 0.0
-2.149163148215715e-10 0.0 0.010004339723346084

0.009995226919520777 0.0 -5.973018189740233e-10
0.0 0.01 0.0
-5.973018189740233e-10 0.0 0.010004332413846025

0.00999509710811108 0.0 -1.020693343780039e-09
0.0 0.01 0.0
-1.020693343780039e-09 0.0 0.010003849371509084

0.00999496580402277 0.0 -9.841145711575397e-10
0.0 0.01 0.0
-9.841145711575397e-10 0.0 0.010003255989530236

0.009994837500463767 0.0 -2.9886507469669386e-10
0.0 0.01 0.0
-2.988650746966409e-10 0.0 0.010003233017184452

0.009997886170430273 0.0 3.9819902372479255e-11
0.0 0.01 0.0
3.9819902372479255e-11 0.0 0.010004115339009046

0.009997830206405002 0.0 4.703791949575785e-11
0.0 0.01 0.0
4.703791949575785e-11 0.0 0.010004729402973452

0.009997799226723699 0.0 -3.609820950510197e-11
0.0 0.01 0.0
-3.6098209505095355e-11 0.0 0.010005336769127796

0.009997804723097766 0.0 -3.172818211673427e-10
0.0 0.01 0.0
-3.1728182116739566e-10 0.0 0.01000577259458284

0.009997835702830256 0.0 -8.454586869930589e-10
0.0 0.01 0.0
-8.454586869932707e-10 0.0 0.010005918800686435

0.009997878175512273 0.0 -1.3932116343314755e-09
0.0 0.01 0.0
-1.3932116343312637e-09 0.0 0.01000592616375343

0.009997916651232458 0.0 -1.2853230648131694e-09
0.0 0.01 0.0
-1.2853230648129577e-09 0.0 0.01000569335846153

0.009997950630159718 0.0 -3.6296885718670614e-10
0.0 0.01 0.0
-3.6296885718670614e-10 0.0 0.010005300110700282

0.010000787192941157 0.0 5.043639418025228e-11
0.0 0.01 0.0
5.043639418025228e-11 0.0 0.01000523115188137

0.01000084335667558 0.0 5.2735249608141074e-11
0.0 0.01 0.0
5.2735249608141074e-11 0.0 0.010006029849481225

0.010000951285724468 0.0 -5.6299768004942014e-11
0.0 0.01 0.0
-5.6299768004942014e-11 0.0 0.010006799879471161

0.010001112485616127 0.0 -3.926205627515843e-10
0.0 0.01 0.0
-3.926205627515843e-10 0.0 0.010007392940261034

0.010001314209026559 0.0 -9.86002035519599e-10
0.0 0.01 0.0
-9.860020355198108e-10 0.0 0.010007913684057134

0.010001534553156112 0.0 -1.552318902532824e-09
0.0 0.01 0.0
-1.552318902532824e-09 0.0 0.010008809978698251

0.010001755812323564 0.0 -1.3250308728931244e-09
0.0 0.01 0.0
-1.3250308728929127e-09 0.0 0.010008981836532739

0.010001964928990211 0.0 -2.9487709702346256e-10
0.0 0.01 0.0
-2.9487709702356844e-10 0.0 0.01000801597809457

0.010004222873393651 0.0 4.601917758558126e-11
0.0 0.01 0.0
4.601917758555479e-11 0.0 0.010006352247534983

0.01000439449504164 0.0 4.13389755775841e-11
0.0 0.01 0.0
4.133897557755763e-11 0.0 0.010007323487171158

0.010004631165168218 0.0 -7.17038743608343e-11
0.0 0.01 0.0
-7.170387436080783e-11 0.0 0.010008237216593895

0.0100049274896318 0.0 -3.906661397727706e-10
0.0 0.01 0.0
-3.906661397729824e-10 0.0 0.01000899893255967

0.010005270263425837 0.0 -9.160563693390529e-10
0.0 0.01 0.0
-9.160563693390529e-10 0.0 0.010009914625501964

0.010005638064584214 0.0 -1.3627881090845117e-09
0.0 0.01 0.0
-1.3627881090849352e-09 0.0 0.010011510091878707

0.01000601321947608 0.0 -1.0306214701059122e-09
0.0 0.01 0.0
-1.0306214701059122e-09 0.0 0.010011785953610276

0.010006365422636547 0.0 -1.5554591575284483e-10
0.0 0.01 0.0
-1.555459157527919e-10 0.0 0.010010152640513048

0.010007636187807596 0.0 2.927500973939471e-11
0.0 0.01 0.0
2.927500973918295e-11 0.0 0.010007368987300426

0.010007913182869036 0.0 2.1034485878389194e-11
0.0 0.01 0.0
2.1034485878442134e-11 0.0 0.010008469748356614

0.010008248494436467 0.0 -6.849351304612172e-11
0.0 0.01 0.0
-6.84935130462276e-11 0.0 0.010009494454603035

0.010008636675955078 0.0 -3.033475713342985e-10
0.0 0.01 0.0
-3.0334757133408674e-10 0.0 0.01001037502386138

0.010009059145364757 0.0 -6.683761294227206e-10
0.0 0.01 0.0
-6.683761294227206e-10 0.0 0.010011514958648509

0.010009504733842179 0.0 -9.480180127721736e-10
0.0 0.01 0.0
-9.480180127721736e-10 0.0 0.010013386682592168

0.010009955296480825 0.0 -6.975318967257134e-10
0.0 0.01 0.0
-6.97531896726137e-10 0.0 0.010013320518238736

0.010010368152525642 0.0 -2.3782839401602666e-10
0.0 0.01 0.0
-2.3782839401602666e-10 0.0 0.01001114801406209

0.010010334849317926 0.0 1.1203440550386689e-11
0.0 0.01 0.0
1.1203440550386689e-11 0.0 0.01000818974982551

0.01001068996690948 0.0 4.5296674288465455e-12
0.0 0.01 0.0
4.5296674288465455e-12 0.0 0.010009374014366789

0.010011089720044672 0.0 -4.8276712800562434e-11
0.0 0.01 0.0
-4.827671280066831e-11 0.0 0.01001045682895252

0.010011516463836488 0.0 -1.8484474277175565e-10
0.0 0.01 0.0
-1.8484474276836752e-10 0.0 0.010011366048734318

0.010011952043605608 0.0 -3.9822774229441584e-10
0.0 0.01 0.0
-3.9822774229441584e-10 0.0 0.010012512194134581

0.010012391644933085 0.0 -5.891071113852798e-10
0.0 0.01 0.0
-5.891071113848563e-10 0.0 0.010014207470578587

0.010012816095812706 0.0 -5.752451088406952e-10
0.0 0.01 0.0
-5.752451088406952e-10 0.0 0.010013596027615325

0.010013195522394812 0.0 -2.7306344839344294e-10
0.0 0.01 0.0
-2.7306344839344294e-10 0.0 0.010011197981173253

0.010011819271302933 0.0 2.8542699599446494e-13
0.0 0.01 0.0
2.8542699599425814e-13 0.0 0.01000877764354292

0.010012219611398691 0.0 -2.8577771654255047e-12
0.0 0.01 0.0
-2.8577771654238504e-12 0.0 0.010010000832517641

0.010012643086790972 0.0 -2.4807576561844064e-11
0.0 0.01 0.0
-2.4807576561870534e-11 0.0 0.010011094586201662

0.010013065110034235 0.0 -8.49709375526195e-11
0.0 0.01 0.0
-8.497093755272538e-11 0.0 0.010011957914611666

0.010013463641718278 0.0 -1.8940973468083342e-10
0.0 0.01 0.0
-1.894097346804099e-10 0.0 0.010012934702769032

0.010013834807415717 0.0 -3.0245077718069725e-10
0.0 0.01 0.0
-3.0245077718069725e-10 0.0 0.010014284950777054

0.010014166747747398 0.0 -3.0920240105437535e-10
0.0 0.01 0.0
-3.0920240105395183e-10 0.0 0.010013339142518106

0.010014455132328317 0.0 -7.195651027236885e-11
0.0 0.01 0.0
-7.195651027236885e-11 0.0 0.010010901600858466

0.010012068211158336 0.0 -2.749184191836895e-12
0.0 0.01 0.0
-2.749184191836895e-12 0.0 0.01000913801024102

0.010012480375146326 0.0 -3.4526740410611462e-12
0.0 0.01 0.0
-3.4526740410611462e-12 0.0 0.010010371111712286

0.010012896003209973 0.0 -8.56996798800328e-12
0.0 0.01 0.0
-8.56996798800328e-12 0.0 0.010011460120093798

0.010013282266001431 0.0 -2.4427980709875012e-11
0.0 0.01 0.0
-2.4427980709927952e-11 0.0 0.010012279882348315

0.010013621029409385 0.0 -5.46683120023589e-11
0.0 0.01 0.0
-5.46683120023589e-11 0.0 0.010013113148174725

0.010013900530085154 0.0 -8.674134760440768e-11
0.0 0.01 0.0
-8.674134760440768e-11 0.0 0.010014203553934462

0.010014130494300923 0.0 -6.569784282211628e-11
0.0 0.01 0.0
-6.569784282232803e-11 0.0 0.010013074446546595

0.010014316837187953 0.0 8.729890916031428e-11
0.0 0.01 0.0
8.729890916031428e-11 0.0 0.010010678229368217

0.010011458614931173 0.0 -1.7777741828519324e-12
0.0 0.01 0.0
-1.7777741828535868e-12 0.0 0.010009308380780992

0.010011857506775973 0.0 -1.6601929613611776e-12
0.0 0.01 0.0
-1.6601929613595232e-12 0.0 0.010010534222126503

0.010012244151229331 0.0 -1.467645615640493e-12
0.0 0.01 0.0
-1.4676456156371843e-12 0.0 0.010011616409841509

0.010012586222134362 0.0 -1.6998593470020156e-12
0.0 0.01 0.0
-1.6998593470020156e-12 0.0 0.010012411719435442

0.010012860215301147 0.0 -2.1530096943993695e-12
0.0 0.01 0.0
-2.1530096944126043e-12 0.0 0.010013169017853533

0.010013064106109732 0.0 1.7013550553694457e-12
0.0 0.01 0.0
1.7013550553694457e-12 0.0 0.010014129490055932

0.010013205813040464 0.0 2.4978789640722618e-11
0.0 0.01 0.0
2.4978789640722618e-11 0.0 0.010012952371199394

0.010013306763446717 0.0 8.770120162530856e-11
0.0 0.01 0.0
8.77012016253615e-11 0.0 0.010010616984149592

0.010010471023418382 0.0 -2.0268486718594432e-13
0.0 0.01 0.0
-2.0268486718594432e-13 0.0 0.010009330442346448

0.010010843762610907 0.0 -8.761856178592135e-14
0.0 0.01 0.0
-8.761856178592135e-14 0.0 0.010010546460744826

0.010011196977810236 0.0 3.692829247784706e-14
0.0 0.01 0.0
3.6928292477950456e-14 0.0 0.010011621276766573

0.010011496344545796 0.0 3.122459317597588e-13
0.0 0.01 0.0
3.122459317597588e-13 0.0 0.010012410765893846

0.010011721727671022 0.0 1.8000141759133517e-12
0.0 0.01 0.0
1.800014175915006e-12 0.0 0.010013154811907635

0.010011872158805623 0.0 6.640160755953516e-12
0.0 0.01 0.0
6.640160755953516e-12 0.0 0.010014100065811828

0.010011956961199721 0.0 1.556331327102737e-11
0.0 0.01 0.0
1.556331327105384e-11 0.0 0.010012972449074713

0.01001200056753003 0.0 2.498760887463343e-11
0.0 0.01 0.0
2.498760887463343e-11 0.0 0.010010700249832128

0.01000944205604757 0.0 6.776007929263415e-13
0.0 0.01 0.0
6.776007929263415e-13 0.0 0.010009236431007339

0.010009787801427803 0.0 6.499578287760243e-13
0.0 0.01 0.0
6.499578287760243e-13 0.0 0.010010437217616698

0.010010110512725797 0.0 -1.0289148979236077e-12
0.0 0.01 0.0
-1.028914897924435e-12 0.0 0.01001150713168158

0.01001038089209359 0.0 -6.109309600605891e-12
0.0 0.01 0.0
-6.109309600599274e-12 0.0 0.010012303920774233

0.010010577308281154 0.0 -1.4343639386158218e-11
0.0 0.01 0.0
-1.4343639386164835e-11 0.0 0.010013081273260335

0.01001070125304579 0.0 -2.136640838311981e-11
0.0 0.01 0.0
-2.1366408383106575e-11 0.0 0.01001410840098093

0.010010762951265652 0.0 -1.9204073847370296e-11
0.0 0.01 0.0
-1.920407384735706e-11 0.0 0.010013092567486516

0.010010783015973213 0.0 -8.925281849236658e-12
0.0 0.01 0.0
-8.925281849448416e-12 0.0 0.010010866335962055

0.01000847120204439 0.0 9.403628840273992e-13
0.0 0.01 0.0
9.403628840307079e-13 0.0 0.010009043001608427

0.010008794788655826 0.0 7.333803787023288e-13
0.0 0.01 0.0
7.333803787023288e-13 0.0 0.010010222704213279

0.010009100808649406 0.0 -3.79007389957854e-12
0.0 0.01 0.0
-3.790073899575231e-12 0.0 0.010011281763048623

0.010009355412203338 0.0 -1.8055957148363527e-11
0.0 0.01 0.0
-1.8055957148376762e-11 0.0 0.010012082412479957

0.010009543895525698 0.0 -4.3353454369628036e-11
0.0 0.01 0.0
-4.3353454369601566e-11 0.0 0.010012887671067899

0.010009665344796784 0.0 -6.892436600554486e-11
0.0 0.01 0.0
-6.892436600554486e-11 0.0 0.010013968162021112

0.01000972852824666 0.0 -6.521209391487961e-11
0.0 0.01 0.0
-6.521209391490608e-11 0.0 0.010013040112403908

0.010009752548300619 0.0 -1.9914836080866067e-11
0.0 0.01 0.0
-1.9914836080866067e-11 0.0 0.010010858008885853

0.010007469310262803 0.0 1.1206838883628765e-12
0.0 0.01 0.0
1.1206838883628765e-12 0.0 0.010008758092205916

0.010007781022233273 0.0 5.977343233552158e-13
0.0 0.01 0.0
5.977343233548022e-13 0.0 0.010009907303775309

0.01000808108504645 0.0 -8.262735648687045e-12
0.0 0.01 0.0
-8.262735648687045e-12 0.0 0.01001094714981106

0.010008338518048877 0.0 -3.642097399974763e-11
0.0 0.01 0.0
-3.642097399976086e-11 0.0 0.010011740844794004

0.01000853727031616 0.0 -8.75024019707486e-11
0.0 0.01 0.0
-8.75024019707486e-11 0.0 0.010012547978311817

0.0100086763287534 0.0 -1.4108434134169273e-10
0.0 0.01 0.0
-1.4108434134174567e-10 0.0 0.010013624945370007

0.010008760999833395 0.0 -1.3552560433235152e-10
0.0 0.01 0.0
-1.355256043324574e-10 0.0 0.010012767560029749

0.010008806519573317 0.0 -4.552171652301937e-11
0.0 0.01 0.0
-4.552171652301937e-11 0.0 0.010010638051174128

0.010006299397365505 0.0 1.7904811726082575e-12
0.0 0.01 0.0
1.7904811726082575e-12 0.0 0.01000838453328338

0.010006605188518572 0.0 8.843234901789032e-13
0.0 0.01 0.0
8.843234901784896e-13 0.0 0.010009490042061371

0.010006911458641816 0.0 -1.3502433762140546e-11
0.0 0.01 0.0
-1.3502433762140546e-11 0.0 0.010010497957959531

0.010007189896765424 0.0 -5.949125713050466e-11
0.0 0.01 0.0
-5.949125713047819e-11 0.0 0.010011277348142812

0.01000741839673401 0.0 -1.4387654011958965e-10
0.0 0.01 0.0
-1.438765401196426e-10 0.0 0.010012057924019642

0.010007590182894209 0.0 -2.348960296963085e-10
0.0 0.01 0.0
-2.348960296963614e-10 0.0 0.010013084736818972

0.010007714467778596 0.0 -2.2986115360732868e-10
0.0 0.01 0.0
-2.2986115360732868e-10 0.0 0.010012291675708922

0.010007792799703515 0.0 -9.524959802165067e-11
0.0 0.01 0.0
-9.524959802170361e-11 0.0 0.010010242264134583

0.010004905457167102 0.0 3.05813022568127e-12
0.0 0.01 0.0
3.0581302256796155e-12 0.0 0.010007929321158997

0.010005208165925254 0.0 2.1262349767005464e-12
0.0 0.01 0.0
2.1262349767022007e-12 0.0 0.010008981836532474

0.010005529482898207 0.0 -1.7307240865056307e-11
0.0 0.01 0.0
-1.7307240865062925e-11 0.0 0.01000994501585357

0.01000584106372101 0.0 -8.09758825457047e-11
0.0 0.01 0.0
-8.09758825457047e-11 0.0 0.010010693377826655

0.010006116457084132 0.0 -2.001710020180031e-10
0.0 0.01 0.0
-2.0017100201795017e-10 0.0 0.010011424799123116

0.01000633952334183 0.0 -3.330501284607552e-10
0.0 0.01 0.0
-3.330501284606493e-10 0.0 0.010012367656061023

0.010006511704827248 0.0 -3.29423497319753e-10
0.0 0.01 0.0
-3.2942349731996476e-10 0.0 0.010011645310449081

0.010006637452522891 0.0 -1.5282646555555812e-10
0.0 0.01 0.0
-1.5282646555545225e-10 0.0 0.010009721206928486

0.010003376209048764 0.0 4.324274348840071e-12
0.0 0.01 0.0
4.324274348838417e-12 0.0 0.01000740862503341

0.010003670469863814 0.0 3.882263166731033e-12
0.0 0.01 0.0
3.882263166729379e-12 0.0 0.010008394859229301

0.010004005805686946 0.0 -1.8009289381295748e-11
0.0 0.01 0.0
-1.8009289381295748e-11 0.0 0.01000930592393387

0.010004358798212916 0.0 -9.329089439216675e-11
0.0 0.01 0.0
-9.329089439219322e-11 0.0 0.01001001402203646

0.010004692250517252 0.0 -2.3922446600163286e-10
0.0 0.01 0.0
-2.3922446600163286e-10 0.0 0.010010678680811355

0.010004985175319685 0.0 -4.099011106680838e-10
0.0 0.01 0.0
-4.099011106680838e-10 0.0 0.01001151350363401

0.010005221386586565 0.0 -4.148422172838331e-10
0.0 0.01 0.0
-4.1484221728393897e-10 0.0 0.010010863376336228

0.0100054028254263 0.0 -1.985340407840981e-10
0.0 0.01 0.0
-1.985340407840981e-10 0.0 0.010009099805916835

0.010001894588283735 0.0 4.497303767823513e-12
0.0 0.01 0.0
4.497303767823513e-12 0.0 0.010006840512495438

0.010002172107502743 0.0 4.706468314694226e-12
0.0 0.01 0.0
4.706468314695881e-12 0.0 0.01000775365856933

0.010002516549634665 0.0 -1.6121648125610232e-11
0.0 0.01 0.0
-1.6121648125610232e-11 0.0 0.010008605345063395

0.010002907017121134 0.0 -9.33350880619893e-11
0.0 0.01 0.0
-9.333508806196283e-11 0.0 0.01000926626365202

0.010003307790498165 0.0 -2.4758404266276294e-10
0.0 0.01 0.0
-2.4758404266276294e-10 0.0 0.010009861718866742

0.010003677327416478 0.0 -4.505146761074085e-10
0.0 0.01 0.0
-4.505146761073026e-10 0.0 0.010010591503259563

0.010003991638705616 0.0 -4.973892216470183e-10
0.0 0.01 0.0
-4.973892216469124e-10 0.0 0.010010008154449445

0.010004242948865394 0.0 -2.218970676394294e-10
0.0 0.01 0.0
-2.2189706763964116e-10 0.0 0.010008414408437746

0.01000063631072855 0.0 3.1151316674628397e-12
0.0 0.01 0.0
3.1151316674628397e-12 0.0 0.010006252909946606

0.010000893669782579 0.0 3.572062896029112e-12
0.0 0.01 0.0
3.5720628960307662e-12 0.0 0.010007090033163737

0.010001242931693483 0.0 -1.2848221169437286e-11
0.0 0.01 0.0
-1.2848221169437286e-11 0.0 0.010007874541504435

0.010001666416449038 0.0 -1.2007098238999631e-10
0.0 0.01 0.0
-1.2007098239002278e-10 0.0 0.010008487343034014

0.010002127628828147 0.0 -6.305548960184749e-10
0.0 0.01 0.0
-6.305548960185807e-10 0.0 0.010009021493433457

0.01000257814668377 0.0 -1.5098384584601954e-09
0.0 0.01 0.0
-1.509838458459772e-09 0.0 0.01000965260796087

0.010002978380084387 0.0 -1.6537227958335843e-09
0.0 0.01 0.0
-1.6537227958335843e-09 0.0 0.010009125776788167

0.010003309241937841 0.0 -2.0920230194611317e-10
0.0 0.01 0.0
-2.092023019461661e-10 0.0 0.010007699783879664

0.00999969351409062 0.0 9.280684506110975e-13
0.0 0.01 0.0
9.280684506110975e-13 0.0 0.010005667915150238

0.00999993750058593 0.0 1.3184627282322393e-12
0.0 0.01 0.0
1.3184627282322393e-12 0.0 0.010006429545546832

0.010000289562576491 0.0 -7.578449999035767e-11
0.0 0.01 0.0
-7.578449999034443e-11 0.0 0.01000715221581789

0.010000740782305728 0.0 -7.980992968465544e-10
0.0 0.01 0.0
-7.980992968465544e-10 0.0 0.010007713014420617

0.010001251234800447 0.0 -2.9936436013702403e-09
0.0 0.01 0.0
-2.9936436013702403e-09 0.0 0.010008194611756243

0.010001772421115489 0.0 -5.9671810600494326e-09
0.0 0.01 0.0
-5.9671810600494326e-09 0.0 0.010008736034430121

0.01000225516263965 0.0 -5.8854830429422224e-09
0.0 0.01 0.0
-5.8854830429439165e-09 0.0 0.010008234259304452

0.010002669018168563 0.0 -1.1961222769923721e-10
0.0 0.01 0.0
-1.1961222769923721e-10 0.0 0.010006940318522948

0.009999071629296828 0.0 -3.1023397912820666e-13
0.0 0.01 0.0
-3.1023397912820666e-13 0.0 0.010005111816931051

0.009999308571717576 0.0 1.5393504093131378e-12
0.0 0.01 0.0
1.5393504093131378e-12 0.0 0.010005806303061153

0.009999667016632434 0.0 -2.23132977147707e-10
0.0 0.01 0.0
-2.23132977147707e-10 0.0 0.010006469673088889

0.010000130852568977 0.0 -2.1026827239736054e-09
0.0 0.01 0.0
-2.1026827239736054e-09 0.0 0.010006985813426619

0.010000670967531733 0.0 -7.3807487590103066e-09
0.0 0.01 0.0
-7.380748759012001e-09 0.0 0.01000741644239977

0.010001243381889952 0.0 -1.3821054360776014e-08
0.0 0.01 0.0
-1.3821054360779403e-08 0.0 0.010007865219558838

0.010001796884227141 0.0 -1.2714199273234457e-08
0.0 0.01 0.0
-1.2714199273234457e-08 0.0 0.010007331805454616

0.01000228788492331 0.0 9.824628352987717e-10
0.0 0.01 0.0
9.824628352987717e-10 0.0 0.010006111047173931

0.009998717246860564 0.0 8.905239268331468e-12
0.0 0.01 0.0
8.905239268331468e-12 0.0 0.010004605729959391

0.009998958662680116 0.0 2.8394280199584063e-10
0.0 0.01 0.0
2.839428019957877e-10 0.0 0.010005244372633788

0.009999308571717687 0.0 8.655655709099337e-10
0.0 0.01 0.0
8.655655709095102e-10 0.0 0.010005861098848153

0.009999760508603846 0.0 -1.009680423269601e-09
0.0 0.01 0.0
-1.0096804232693892e-09 0.0 0.010006344432670587

0.010000297363274936 0.0 -8.84425731465469e-09
0.0 0.01 0.0
-8.844257314652996e-09 0.0 0.010006729937729858

0.010000894670101181 0.0 -1.8325178561627695e-08
0.0 0.01 0.0
-1.8325178561627695e-08 0.0 0.010007084170767434

0.010001507190712099 0.0 -1.5712354994483002e-08
0.0 0.01 0.0
-1.571235499448978e-08 0.0 0.010006453992767998

0.010002080248936555 0.0 2.8357663300317083e-09
0.0 0.01 0.0
2.8357663300300143e-09 0.0 0.01000523310494497

0.009998568807305529 0.0 1.7772834454834236e-10
0.0 0.01 0.0
1.7772834454828942e-10 0.0 0.010004168605142307

0.00999880971255201 0.0 2.076636434789108e-09
0.0 0.01 0.0
2.0766364347886846e-09 0.0 0.01000476610520044

0.009999131613134416 0.0 6.811406568933142e-09
0.0 0.01 0.0
6.811406568933142e-09 0.0 0.010005344631718826

0.009999529533216183 0.0 9.402004020783153e-09
0.0 0.01 0.0
9.402004020783153e-09 0.0 0.010005808256473644

0.010000018050050435 0.0 3.23128860246343e-09
0.0 0.01 0.0
3.231288602462583e-09 0.0 0.010006172710654815

0.010000610905980235 0.0 -5.086733807906175e-09
0.0 0.01 0.0
-5.086733807904481e-09 0.0 0.010006427591787586

0.010001297102327741 0.0 -1.19307595747086e-09
0.0 0.01 0.0
-1.1930759574704366e-09 0.0 0.010005740789718972

0.010002037722680726 0.0 -4.361984794581773e-09
0.0 0.01 0.0
-4.361984794581773e-09 0.0 0.01000456857888379

0.0099985683075204 0.0 1.149866516420871e-09
0.0 0.01 0.0
1.149866516420871e-09 0.0 0.010003809776053826

0.009998795217769633 0.0 8.00952452861039e-09
0.0 0.01 0.0
8.00952452861039e-09 0.0 0.01000437932510401

0.009999054134295242 0.0 2.2957077054009865e-08
0.0 0.01 0.0
2.2957077054003088e-08 0.0 0.010004927489710857

0.009999356562314859 0.0 3.722326929735077e-08
0.0 0.01 0.0
3.722326929735077e-08 0.0 0.010005378836880177

0.009999753509355749 0.0 4.016408292017678e-08
0.0 0.01 0.0
4.0164082920163225e-08 0.0 0.010005747150909336

0.010000334016993375 0.0 4.1572823272276985e-08
0.0 0.01 0.0
4.157282327229054e-08 0.0 0.010005950607507221

0.01000114519692698 0.0 3.96530084456609e-08
0.0 0.01 0.0
3.965300844567445e-08 0.0 0.01000529079615398

0.010002237551182205 0.0 -5.236920712982677e-08
0.0 0.01 0.0
-5.236920712982677e-08 0.0 0.010004291311133805

0.009998683260119915 0.0 4.9391680080590315e-09
0.0 0.01 0.0
4.9391680080573374e-09 0.0 0.010003537025701672

0.009998871191235072 0.0 2.2350764785870078e-08
0.0 0.01 0.0
2.2350764785876854e-08 0.0 0.010004082098244028

0.00999903464025163 0.0 5.4520560020677035e-08
0.0 0.01 0.0
5.452056002066348e-08 0.0 0.010004599371633496

0.009999206595573051 0.0 8.717780340165523e-08
0.0 0.01 0.0
8.717780340168233e-08 0.0 0.010005043864659434

0.009999494040093869 0.0 1.0623753171054356e-07
0.0 0.01 0.0
1.0623753171051646e-07 0.0 0.010005422859614302

0.010000081053168934 0.0 1.206971892687655e-07
0.0 0.01 0.0
1.206971892687384e-07 0.0 0.010005572506648021

0.010001073924030239 0.0 8.402706438469048e-08
0.0 0.01 0.0
8.402706438466337e-08 0.0 0.010004946068177626

0.010002647056084033 0.0 -1.901882112262908e-07
0.0 0.01 0.0
-1.901882112262908e-07 0.0 0.010004053718982005

0.009998890684651048 0.0 1.5634780223582675e-08
0.0 0.01 0.0
1.5634780223575898e-08 0.0 0.010003339572203418

0.009999007648111728 0.0 5.0195405034100826e-08
0.0 0.01 0.0
5.0195405034100826e-08 0.0 0.010003854778129727

0.009999052136410313 0.0 1.0414732827131157e-07
0.0 0.01 0.0
1.0414732827131157e-07 0.0 0.010004340225624799

0.009999094126804895 0.0 1.570679695299393e-07
0.0 0.01 0.0
1.570679695299393e-07 0.0 0.010004773419352136

0.009999305577952658 0.0 1.9348517291817432e-07
0.0 0.01 0.0
1.9348517291822853e-07 0.0 0.010005148979678611

0.009999928006782824 0.0 2.0015648673758117e-07
0.0 0.01 0.0
2.0015648673758117e-07 0.0 0.010005173918648027

0.010001079775554318 0.0 6.79620457486453e-08
0.0 0.01 0.0
6.796204574861819e-08 0.0 0.010004536786189724

0.0099991596061914 0.0 4.002624544545278e-08
0.0 0.01 0.0
4.002624544545278e-08 0.0 0.01000320268816511

0.00999918060211625 0.0 9.639138862752874e-08
0.0 0.01 0.0
9.639138862755584e-08 0.0 0.010003679280963062

0.009999104624627764 0.0 1.7049344405001797e-07
0.0 0.01 0.0
1.7049344404996376e-07 0.0 0.01000412315301336

0.009999063640051053 0.0 2.383578825773127e-07
0.0 0.01 0.0
2.383578825773127e-07 0.0 0.010004544103969502

0.009999294086406653 0.0 2.7878180289514064e-07
0.0 0.01 0.0
2.7878180289514064e-07 0.0 0.010004873672232161

0.009999978507781414 0.0 2.2681807049375986e-07
0.0 0.01 0.0
2.2681807049386828e-07 0.0 0.010004744582231464

0.01000120921993264 0.0 -6.514720642052216e-08
0.0 0.01 0.0
-6.514720642054926e-08 0.0 0.010004105077001566

0.00999944804678905 0.0 8.517133897177512e-08
0.0 0.01 0.0
8.517133897174801e-08 0.0 0.010003097639798925

0.009999361065165916 0.0 1.6178618239852047e-07
0.0 0.01 0.0
1.6178618239852047e-07 0.0 0.01000352676876061

0.009999208103239112 0.0 2.472108537051416e-07
0.0 0.01 0.0
2.472108537051416e-07 0.0 0.010003937883977172

0.009999198111589986 0.0 3.176105073339269e-07
0.0 0.01 0.0
3.176105073340353e-07 0.0 0.010004355408902021

0.009999538047244962 0.0 3.187514341679472e-07
0.0 0.01 0.0
3.187514341679472e-07 0.0 0.010004584215551884

0.01000029296566462 0.0 1.3644572712927803e-07
0.0 0.01 0.0
1.3644572712927803e-07 0.0 0.010004326058388115

0.009999710516045958 0.0 1.5223766079838427e-07
0.0 0.01 0.0
1.5223766079838427e-07 0.0 0.010003000853701986

0.009999544039759495 0.0 2.391020739844329e-07
0.0 0.01 0.0
2.3910207398432446e-07 0.0 0.010003389931534826

0.00999943506347461 0.0 3.2252719743281876e-07
0.0 0.01 0.0
3.2252719743271034e-07 0.0 0.010003802483321776

0.009999591544714581 0.0 3.623692988911171e-07
0.0 0.01 0.0
3.623692988911171e-07 0.0 0.010004196509802662

0.01000008156045512 0.0 2.5116997826480237e-07
0.0 0.01 0.0
2.5116997826480237e-07 0.0 0.010004307991672666

0.010000836056936826 0.0 -1.1836091805462632e-07
0.0 0.01 0.0
-1.1836091805468053e-07 0.0 0.010003922208450667

0.009999941008520344 0.0 2.3095918856412285e-07
0.0 0.01 0.0
2.3095918856423127e-07 0.0 0.010002910928527774

0.009999830519170812 0.0 3.148335477999673e-07
0.0 0.01 0.0
3.1483354780007574e-07 0.0 0.01000330094857544

0.009999919021084457 0.0 3.661544587831283e-07
0.0 0.01 0.0
3.6615445878291145e-07 0.0 0.010003729155043486

0.010000280275372921 0.0 3.0109337481804607e-07
0.0 0.01 0.0
3.0109337481804607e-07 0.0 0.01000405618013896

0.010000802346554424 0.0 2.241725313106797e-09
0.0 0.01 0.0
2.24172531310595e-09 0.0 0.010004013164532156

0.010000295427091181 0.0 3.05577069442068e-07
0.0 0.01 0.0
3.05577069442068e-07 0.0 0.01000287870656108

0.01000041264478358 0.0 3.582751917953486e-07
0.0 0.01 0.0
3.5827519179556545e-07 0.0 0.010003280432716354

0.010000721791888259 0.0 3.028490167201938e-07
0.0 0.01 0.0
3.0284901672041065e-07 0.0 0.010003672435770383

0.010001114936702957 0.0 4.229375527177296e-08
0.0 0.01 0.0
4.229375527174586e-08 0.0 0.010003872348369521

0.010001040729500916 0.0 3.3731413560510876e-07
0.0 0.01 0.0
3.373141356048919e-07 0.0 0.010002908035060048

0.010001293213045883 0.0 2.8564209993121e-07
0.0 0.01 0.0
2.8564209993142686e-07 0.0 0.01000328678195638

0.010001579974621555 0.0 4.104300771590034e-08
0.0 0.01 0.0
4.1043007715873235e-08 0.0 0.0100035810228931

0.010001653733623966 0.0 -3.959020906413747e-07
0.0 0.01 0.0
-3.959020906413747e-07 0.0 0.010003589355079133

0.010001855023350199 0.0 2.2087099476849129e-07
0.0 0.01 0.0
2.2087099476849129e-07 0.0 0.01000296372433885

0.010001836956037742 0.0 1.946931138594097e-09
0.0 0.01 0.0
1.9469311385974852e-09 0.0 0.010003250584258614

0.010001916552034723 0.0 -8.947336630523838e-08
0.0 0.01 0.0
-8.94733663053468e-08 0.0 0.010002982785220153

